# vtk DataFile Version 2.0
Wound Healing Simulation
ASCII
DATASET UNSTRUCTURED_GRID
POINTS 3012 float
69.9759 18.75 4
67.2507 60.3285 4
69.976 18.75 2
73.0099 25.446 4
71.1327 20.9142 4
68.6801 16.6661 4
67.8245 19.9262 3.9802
67.2507 60.3286 2
71.1327 54.0858 4
68.6801 58.3339 4
65.6939 62.2254 4
65.3111 59.0006 3.97922
74.6784 42.3946 4
73.7221 47.2057 4
69.9759 18.75 0
73.0099 25.446 2
68.6801 16.6661 2
71.1327 20.9142 2
67.8251 19.9297 2
74.6792 32.6053 4
73.7222 27.7943 4
72.1454 23.1494 4
70.6133 26.2209 3.97975
68.8847 21.958 3.98059
67.2507 14.6715 4
66.6359 17.9725 3.97917
65.7937 21.0271 3.96945
67.2507 60.3285 0
71.1327 54.0858 2
68.6801 58.3339 2
65.694 62.2255 2
65.3124 58.9966 2
72.1454 51.8506 4
69.9759 56.25 4
68.8354 53.113 3.97977
64.0165 64.0165 4
66.6097 57.1334 3.97974
63.8841 60.7648 3.97939
63.497 57.768 3.97059
60.3285 67.2507 4
74.6792 42.3947 2
73.7222 47.2057 2
74.9194 39.9526 4
74.2788 44.8158 4
72.1676 42.0855 3.97955
73.0099 49.554 4
71.2485 46.5979 3.97906
73.0099 25.446 0
71.1327 20.9142 0
68.6801 16.6661 0
67.8245 19.9262 0.0197996
74.6792 32.6053 2
73.7222 27.7943 2
67.2508 14.6715 2
72.1455 23.1494 2
70.6132 26.2215 2
66.6369 17.9769 2
68.885 21.9602 2
65.793 21.0281 2
74.9197 35.0474 4
74.2794 30.1841 4
72.1843 32.9435 3.97979
71.2774 28.4314 3.97935
69.8146 24.0595 3.98035
68.3439 26.9524 3.96872
66.7593 22.9346 3.96906
65.694 12.7746 4
65.3221 16.1046 3.97864
64.7099 19.1981 3.9698
63.874 22.0419 3.96605
71.1327 54.0858 0
65.6939 62.2254 0
68.6801 58.3339 0
65.3111 59.0006 0.0207764
72.1455 51.8506 2
69.9759 56.25 2
68.8356 53.111 2
64.0165 64.0165 2
66.6106 57.1295 2
63.8859 60.7612 2
63.4964 57.7676 2
62.2254 65.694 4
58.8937 65.4138 3.98903
69.768 50.9889 3.9795
67.7827 55.1671 3.97974
66.6462 52.2078 3.96838
62.3347 62.4267 3.98303
64.6573 56.0292 3.96967
62.1986 59.3973 3.96917
61.8157 56.6733 3.96583
58.3339 68.6801 4
60.3285 67.2508 2
73.7221 47.2057 0
74.6784 42.3946 0
74.9197 39.9526 2
74.2794 44.8159 2
72.1671 42.0854 2
73.0099 49.554 2
71.2483 46.5977 2
75 37.5 4
72.4049 39.8022 3.98021
71.7819 44.3528 3.9795
69.8017 41.7896 3.96902
70.5742 48.8134 3.97914
68.9094 46.0141 3.96854
74.6792 32.6053 0
73.7222 27.7943 0
67.2507 14.6715 0
72.1454 23.1494 0
70.6133 26.2209 0.0202538
68.8847 21.958 0.0194105
66.6359 17.9725 0.0208256
65.7937 21.0271 0.0305499
74.9197 35.0474 2
74.2794 30.1841 2
72.1837 32.9438 2
71.2773 28.4319 2
65.694 12.7745 2
65.3237 16.1092 2
69.8147 24.0607 2
68.3438 26.953 2
64.7092 19.199 2
66.7589 22.9355 2
63.8736 22.0424 2
72.4128 35.2243 3.98026
71.8033 30.6764 3.9798
69.8377 33.2689 3.96915
68.9634 29.039 3.96878
67.6083 24.9131 3.96881
66.1723 27.6402 3.96698
64.0165 10.9835 4
64.7391 23.8362 3.96644
63.8884 14.3288 3.97994
63.509 17.4528 3.97029
62.8969 20.3282 3.96542
62.0401 22.9626 3.96695
60.6827 11.0991 3.98454
57.6109 11.4538 3.97614
72.1454 51.8506 0
69.9759 56.25 0
68.8354 53.113 0.0202253
64.0165 64.0165 0
63.8841 60.7648 0.0206104
66.6097 57.1334 0.0202621
63.497 57.768 0.0294141
62.2255 65.694 2
58.8952 65.4128 2
69.7679 50.9878 2
67.7832 55.1639 2
66.6457 52.207 2
62.3367 62.4238 2
64.6567 56.0285 2
62.198 59.3977 2
61.8151 56.6731 2
60.6675 63.9762 3.98586
57.0249 66.7346 3.9905
57.5563 63.6874 3.97852
67.5043 50.1755 3.96813
65.6985 54.1716 3.9688
64.5164 51.3781 3.96572
60.7699 60.931 3.97243
62.8126 55.0615 3.96554
60.6489 58.147 3.96446
60.3153 55.7712 3.96455
56.25 69.9759 4
58.3339 68.6801 2
60.3285 67.2507 0
58.9203 9.65703 3.98689
62.2254 9.30607 4
73.0099 49.554 0
74.2788 44.8158 0
71.2485 46.5979 0.0209409
72.1676 42.0855 0.0204543
74.9194 39.9526 0
75 37.5 2
72.4049 39.8024 2
71.7818 44.3524 2
69.8012 41.7892 2
70.5741 48.8131 2
68.9094 46.0135 2
72.4883 37.5121 3.97981
70.0391 39.6575 3.96916
69.4278 43.9071 3.96884
67.5758 41.4951 3.96848
68.2629 48.1062 3.96822
66.6807 45.4343 3.9676
74.9197 35.0474 0
74.2794 30.1841 0
72.1843 32.9435 0.0202127
71.2774 28.4314 0.0206526
65.694 12.7746 0
65.3221 16.1046 0.0213628
69.8146 24.0595 0.0196459
68.3439 26.9524 0.0312767
66.7593 22.9346 0.0309417
64.7099 19.1981 0.0301974
63.874 22.0419 0.0339536
72.4127 35.2244 2
71.8033 30.677 2
69.8371 33.2694 2
68.9633 29.0395 2
64.0165 10.9835 2
63.8905 14.333 2
63.5083 17.4535 2
67.608 24.9139 2
66.1725 27.6406 2
62.8966 20.3286 2
64.7387 23.8367 2
62.0395 22.9631 2
60.6854 11.1019 2
57.6122 11.4526 2
70.0559 35.3924 3.96929
69.4647 31.1501 3.96891
67.6372 33.5936 3.96814
66.7495 29.6277 3.96734
65.5026 25.7053 3.96663
64.0645 28.2724 3.9703
62.3403 12.6563 3.9827
62.7937 24.6562 3.96823
62.1947 15.794 3.97043
61.8043 18.6955 3.96593
61.1731 21.3621 3.96522
60.3244 23.7605 3.96934
59.2439 12.7879 3.9733
55.8732 10.2393 3.97851
56.4023 13.1338 3.97291
69.768 50.9889 0.0205023
62.2254 65.694 0
58.8937 65.4138 0.0109719
67.7827 55.1671 0.0202648
66.6462 52.2078 0.0316245
62.3347 62.4267 0.0169739
62.1986 59.3973 0.0308254
64.6573 56.0292 0.0303327
61.8157 56.6733 0.0341708
60.6694 63.9744 2
57.0259 66.7341 2
57.5564 63.6892 2
67.504 50.1747 2
65.6978 54.1707 2
64.5163 51.3778 2
60.7696 60.9317 2
62.8119 55.0612 2
60.6486 58.1472 2
60.3152 55.7709 2
55.0708 67.9315 3.99157
59.2165 62.3594 3.97353
55.8037 64.9067 3.98258
56.3234 62.0764 3.9746
65.304 49.4009 3.96617
63.6931 53.2859 3.96545
62.369 50.6312 3.96728
59.3262 59.5439 3.96722
61.0508 54.2935 3.96583
59.2705 56.9932 3.96348
59.2172 55.1631 3.96546
48.1014 68.5771 3.98697
50.9486 69.9312 3.99169
54.0858 71.1327 4
56.25 69.976 2
58.3339 68.6801 0
57.0578 8.33679 3.98796
60.3285 7.74928 4
58.9228 9.65868 2
62.2255 9.30602 2
70.5742 48.8134 0.0208574
71.7819 44.3528 0.0205041
68.9094 46.0141 0.0314591
69.8017 41.7896 0.0309772
72.4049 39.8022 0.0197921
75 37.5 0
72.4878 37.5123 2
70.039 39.6574 2
69.4277 43.9067 2
67.5757 41.4949 2
68.2627 48.1055 2
66.6802 45.4339 2
70.1271 37.5218 3.9692
67.8163 39.5113 3.96858
67.197 43.4659 3.96798
65.4664 41.2016 3.9729
66.0381 47.4112 3.96695
64.5539 44.8325 3.97097
72.4128 35.2243 0.0197424
71.8033 30.6764 0.0202025
69.8377 33.2689 0.0308477
68.9634 29.039 0.0312247
64.0165 10.9835 0
63.8884 14.3288 0.0200645
63.509 17.4528 0.0297091
67.6083 24.9131 0.0311926
66.1723 27.6402 0.0330172
64.7391 23.8362 0.033563
62.8969 20.3282 0.0345758
62.0401 22.9626 0.033054
60.6827 11.0991 0.0154551
57.6109 11.4538 0.0238565
70.0558 35.3926 2
69.4646 31.1506 2
67.6373 33.5938 2
66.7495 29.6281 2
62.3427 12.6604 2
62.1941 15.794 2
61.8035 18.6959 2
65.5025 25.7058 2
64.0631 28.273 2
61.1721 21.3626 2
62.793 24.6567 2
60.324 23.7613 2
59.2452 12.7872 2
56.403 13.1318 2
55.8742 10.2383 2
67.8554 35.549 3.96854
67.2446 31.6263 3.9678
65.6194 33.9344 3.97277
64.5793 30.2064 3.97128
63.4662 26.4323 3.96932
62.1159 28.805 3.97453
60.7723 14.2321 3.97259
60.9304 25.3697 3.97149
60.6018 17.1432 3.96538
60.1866 19.8384 3.9633
59.5661 22.2935 3.96614
58.8382 24.3645 3.97203
54.0367 9.14032 3.98065
57.9057 14.3502 3.97295
54.7841 12.024 3.97409
55.306 14.6741 3.97112
67.5043 50.1755 0.0318746
57.0249 66.7346 0.00950365
60.6675 63.9762 0.0141389
57.5563 63.6874 0.0214788
65.6985 54.1716 0.0311989
64.5164 51.3781 0.0342848
60.7699 60.931 0.0275661
60.6489 58.147 0.0355405
62.8126 55.0615 0.0344567
60.3153 55.7712 0.0354494
55.0716 67.9314 2
59.2168 62.3607 2
55.8036 64.9078 2
56.3227 62.0787 2
65.3038 49.4005 2
63.6931 53.2857 2
62.3688 50.6308 2
59.3254 59.5451 2
61.0514 54.2933 2
59.2711 56.9929 2
59.2183 55.1627 2
53.0428 68.9993 3.99158
53.9661 66.0111 3.98456
57.8757 60.8561 3.97319
54.6819 63.2009 3.97724
55.2051 60.5951 3.97328
63.1081 48.6405 3.96857
61.6894 52.5562 3.96652
60.1429 49.9847 3.9692
58.0027 58.2435 3.96486
59.2739 53.922 3.96699
58.0773 55.7856 3.96087
50.1081 67.8555 3.98662
47.4622 66.5771 3.98323
46.0551 69.156 3.98717
48.1014 68.5778 2
48.8026 70.7224 3.9918
50.9491 69.9311 2
51.8506 72.1454 4
54.0858 71.1327 2
56.25 69.9759 0
55.1026 7.14116 3.98989
58.3339 6.31992 4
57.0597 8.33781 2
60.3286 7.74926 2
58.9203 9.65703 0.0131073
62.2254 9.30607 0
68.2629 48.1062 0.0317753
69.4278 43.9071 0.0311624
66.6807 45.4343 0.0323992
67.5758 41.4951 0.0315209
70.0391 39.6575 0.0308371
72.4883 37.5121 0.0201871
70.1267 37.5218 2
67.816 39.5112 2
67.1977 43.4656 2
65.465 41.2014 2
66.0383 47.4108 2
64.5524 44.832 2
67.9154 37.5223 3.96859
65.7034 39.3661 3.97321
65.0847 43.0133 3.97235
63.6022 40.9161 3.97741
63.8677 46.6977 3.96961
62.6449 44.1915 3.97519
70.0559 35.3924 0.030708
69.4647 31.1501 0.0310896
67.6372 33.5936 0.0318592
66.7495 29.6277 0.0326593
62.3403 12.6563 0.0173006
62.1947 15.794 0.0295735
61.8043 18.6955 0.0340733
65.5026 25.7053 0.0333679
64.0645 28.2724 0.0296966
62.7937 24.6562 0.0317684
61.1731 21.3621 0.0347814
60.3244 23.7605 0.0306553
59.2439 12.7879 0.0267025
56.4023 13.1338 0.0270864
55.8732 10.2393 0.0214912
67.8549 35.5492 2
67.2451 31.6266 2
65.618 33.9346 2
64.578 30.2068 2
60.7723 14.2329 2
60.6014 17.1432 2
60.1878 19.8385 2
63.4652 26.4329 2
62.1135 28.8058 2
59.5674 22.2942 2
60.9297 25.3705 2
58.8372 24.3657 2
57.906 14.3488 2
55.3065 14.6732 2
54.0375 9.13872 2
54.785 12.0215 2
65.7959 35.6704 3.97309
65.0987 32.1655 3.97177
64.1565 34.2597 3.97738
62.4337 30.6599 3.97568
61.5214 27.1025 3.97274
60.6671 29.1759 3.9773
59.3034 15.685 3.96904
59.1643 25.8412 3.97488
59.1026 18.3784 3.96391
58.6651 20.8894 3.96303
58.1478 23.1397 3.96692
57.8061 24.7172 3.97393
52.1117 8.15641 3.98348
53.0563 11.0272 3.97592
56.667 15.7673 3.97148
53.8046 13.7046 3.97378
54.3636 16.0305 3.97249
55.0708 67.9315 0.00843158
65.304 49.4009 0.0338274
55.8037 64.9067 0.0174198
59.2165 62.3594 0.0264656
56.3234 62.0764 0.0253981
63.6931 53.2859 0.0345462
62.369 50.6312 0.032721
59.3262 59.5439 0.0327846
59.2705 56.9932 0.0365212
61.0508 54.2935 0.0341651
59.2172 55.1631 0.0345421
53.0434 68.9993 2
53.966 66.012 2
57.8748 60.8576 2
54.6813 63.2018 2
55.2046 60.597 2
63.1073 48.64 2
61.6902 52.556 2
60.1427 49.984 2
58.002 58.2447 2
59.2762 53.9218 2
58.0753 55.7844 2
52.0694 66.9983 3.98624
52.9524 64.2136 3.98124
56.6382 59.4709 3.9722
53.6767 61.6099 3.9762
54.248 59.2969 3.97425
60.8304 47.8455 3.97023
59.6065 52.0728 3.96787
57.849 49.571 3.971
56.748 56.9625 3.96685
57.0413 54.0878 3.96493
50.108 67.8558 2
49.3363 65.9179 3.98324
47.4623 66.5776 2
46.8915 64.7299 3.98158
45.5573 67.0938 3.98324
43.9724 69.588 3.98744
46.0551 69.1566 2
46.6091 71.3669 3.99184
48.1014 68.5771 0.0130338
48.8031 70.7226 2
49.554 73.0099 4
50.9486 69.9312 0.00831295
51.8506 72.1455 2
54.0858 71.1327 0
53.0644 6.07221 3.99124
55.1042 7.14129 2
56.25 5.02411 4
58.3339 6.3199 2
57.0578 8.33679 0.0120355
60.3285 7.74928 0
66.0381 47.4112 0.0330468
67.197 43.4659 0.0320221
64.5539 44.8325 0.0290264
65.4664 41.2016 0.0270958
67.8163 39.5113 0.0314217
70.1271 37.5218 0.0307993
67.9154 37.5223 2
65.702 39.3659 2
65.083 43.0129 2
63.5994 40.9155 2
63.8663 46.6971 2
62.6424 44.1907 2
65.8096 37.5016 3.97313
63.7518 39.2595 3.97744
63.1659 42.5305 3.97663
62.2284 40.6786 3.97711
61.8032 45.8888 3.97264
61.2366 43.6508 3.9771
67.8554 35.549 0.0314583
67.2446 31.6263 0.0322037
65.6194 33.9344 0.0272272
64.5793 30.2064 0.0287218
60.7723 14.2321 0.0274111
60.6018 17.1432 0.0346201
60.1866 19.8384 0.0367043
63.4662 26.4323 0.030676
62.1159 28.805 0.0254693
60.9304 25.3697 0.0285079
59.5661 22.2935 0.0338615
58.8382 24.3645 0.0279696
57.9057 14.3502 0.0270458
55.306 14.6741 0.0288808
54.0367 9.14032 0.0193479
54.7841 12.024 0.0259094
65.7944 35.6705 2
65.0972 32.1658 2
64.1547 34.2601 2
62.4321 30.6605 2
59.3025 15.6857 2
59.1029 18.3783 2
58.6701 20.8896 2
61.5199 27.1033 2
60.6658 29.1767 2
58.1458 23.1413 2
59.1635 25.8423 2
57.8058 24.7189 2
56.6671 15.7656 2
54.3643 16.0316 2
53.8047 13.6986 2
52.1122 8.15532 2
53.057 11.0255 2
63.9541 35.6378 3.97689
62.7641 33.0641 3.9764
60.4 30.6484 3.97646
59.38 27.954 3.97589
57.9246 17.0077 3.96561
57.5533 25.782 3.97641
57.6709 19.5085 3.96063
57.2495 21.8903 3.96313
57.0072 24.0068 3.96797
50.1122 7.28697 3.98639
51.2319 10.1317 3.97879
52.1681 12.8125 3.97651
55.5201 17.0026 3.96978
52.9695 15.2978 3.97096
53.7403 17.017 3.97776
53.0428 68.9993 0.00841645
53.9661 66.0111 0.0154366
63.1081 48.6405 0.031435
54.6819 63.2009 0.0227589
57.8757 60.8561 0.0268126
55.2051 60.5951 0.026715
61.6894 52.5562 0.0334775
60.1429 49.9847 0.0308019
58.0027 58.2435 0.03514
58.0773 55.7856 0.0391308
59.2739 53.922 0.0330097
52.0694 66.999 2
52.9521 64.2144 2
56.6376 59.4721 2
53.6759 61.6099 2
54.2477 59.299 2
60.8291 47.8447 2
59.6067 52.0722 2
57.8465 49.5697 2
56.7465 56.9667 2
57.0392 54.0865 2
51.1674 65.1246 3.98302
52.0437 62.531 3.97775
55.4622 58.2288 3.97437
52.825 60.1113 3.97728
53.6215 58.4471 3.97871
58.0695 46.7986 3.97434
57.4295 51.7449 3.96754
56.0321 49.5 3.97065
55.4243 55.7609 3.96275
55.2503 53.3418 3.96284
50.1081 67.8555 0.0133821
49.3362 65.918 2
48.6173 64.1175 3.98205
47.4622 66.5771 0.016775
45.5573 67.0943 2
46.8915 64.7304 2
46.3809 63.045 3.98209
45.1317 65.1901 3.98118
43.6306 67.4643 3.98353
41.86 69.8751 3.98715
43.9723 69.5885 2
44.3764 71.8617 3.99184
46.0551 69.156 0.0128306
46.6095 71.3671 2
47.2057 73.7222 4
48.8026 70.7224 0.00820294
49.554 73.0099 2
51.8506 72.1454 0
50.9546 5.13266 3.9919
53.0654 6.07225 2
54.0858 3.86728 4
55.1026 7.14116 0.0101148
56.25 5.02406 2
58.3339 6.31992 0
63.8677 46.6977 0.0303901
65.0847 43.0133 0.0276487
62.6449 44.1915 0.0248103
63.6022 40.9161 0.0225924
65.7034 39.3661 0.0267864
67.9154 37.5223 0.0314123
65.8082 37.5015 2
63.7491 39.2593 2
63.1637 42.5297 2
62.226 40.678 2
61.801 45.8879 2
61.2345 43.65 2
63.8143 37.4562 3.97711
61.946 39.3424 3.97709
60.9841 41.9293 3.97695
60.0264 44.7309 3.97675
65.7959 35.6704 0.0269072
65.0987 32.1655 0.0282342
64.1565 34.2597 0.022621
62.4337 30.6599 0.0243223
59.3034 15.685 0.0309635
59.1026 18.3784 0.0360933
58.6651 20.8894 0.0369712
61.5214 27.1025 0.0272556
60.6671 29.1759 0.0226962
59.1643 25.8412 0.0251207
58.1478 23.1397 0.0330775
57.8061 24.7172 0.0260709
56.667 15.7673 0.0285225
54.3636 16.0305 0.0275111
53.8046 13.7046 0.0262222
52.1117 8.15641 0.0165205
53.0563 11.0272 0.0240798
63.9516 35.6381 2
62.7622 33.0648 2
60.3984 30.6493 2
57.9235 17.0083 2
57.6748 19.5076 2
57.2524 21.8911 2
59.3787 27.955 2
57.0069 24.0088 2
57.5524 25.7838 2
50.1126 7.28529 2
55.5208 17.002 2
53.7405 17.0164 2
52.9699 15.2958 2
52.169 12.813 2
51.2325 10.1302 2
61.9829 35.3733 3.97717
60.0353 32.779 3.97697
58.367 30.1277 3.97693
57.0556 27.4443 3.97701
56.6103 18.1866 3.96645
56.0866 25.1719 3.97399
56.2832 20.5669 3.96012
55.9474 22.933 3.96227
48.0567 6.5284 3.98851
49.3245 9.33625 3.98127
50.431 12.0058 3.97588
51.3703 14.5206 3.97164
54.3883 17.9561 3.97131
52.3444 17.081 3.96736
52.0694 66.9983 0.0137556
52.9524 64.2136 0.0187589
60.8304 47.8455 0.0297718
53.6767 61.6099 0.0237962
56.6382 59.4709 0.0277984
54.248 59.2969 0.0257532
59.6065 52.0728 0.0321285
57.849 49.571 0.0290045
56.748 56.9625 0.0331518
57.0413 54.0878 0.0350739
51.1672 65.1252 2
52.0431 62.5319 2
55.4617 58.2302 2
52.8245 60.1147 2
53.6209 58.4484 2
58.0681 46.7975 2
57.4281 51.7438 2
56.0292 49.4989 2
55.4235 55.7614 2
55.2528 53.3421 2
50.3453 63.3757 3.9818
51.2382 60.9221 3.97655
54.1899 57.2447 3.975
52.2954 58.6052 3.97559
56.3735 44.1177 3.97741
55.2263 47.8333 3.97406
54.9026 51.3392 3.96563
53.9297 54.5064 3.96427
49.3363 65.9179 0.0167552
48.6172 64.1175 2
47.9606 62.4675 3.98156
45.5573 67.0938 0.0167561
46.8915 64.7299 0.0184248
43.6306 67.4648 2
46.381 63.0454 2
45.1317 65.1906 2
45.986 61.576 3.98435
44.7663 63.4435 3.97991
43.3561 65.4992 3.98094
41.6629 67.6826 3.98327
39.7021 70.0216 3.98722
41.8598 69.8757 2
42.1107 72.2064 3.99197
43.9724 69.588 0.0125599
44.3767 71.8618 2
44.8159 74.2794 4
46.6091 71.3669 0.00815773
47.2057 73.7222 2
49.554 73.0099 0
48.7854 4.32313 3.99257
50.9553 5.1321 2
51.8506 2.85458 4
53.0644 6.07221 0.00875962
54.0858 3.86728 2
56.25 5.02411 0
61.8032 45.8888 0.0273586
63.1659 42.5305 0.0233718
61.2366 43.6508 0.0228954
62.2284 40.6786 0.0228888
63.7518 39.2595 0.0225581
65.8096 37.5016 0.0268717
63.8114 37.4563 2
61.9441 39.3424 2
60.9824 41.9287 2
60.0257 44.73 2
61.7815 37.4429 3.97731
59.9685 39.825 3.97712
58.6877 42.8713 3.97684
63.9541 35.6378 0.0231104
62.7641 33.0641 0.0236038
60.4 30.6484 0.0235406
57.9246 17.0077 0.034385
57.6709 19.5085 0.0393712
57.2495 21.8903 0.0368655
59.38 27.954 0.0241084
57.5533 25.782 0.0235876
57.0072 24.0068 0.0320274
55.5201 17.0026 0.0302208
53.7403 17.017 0.022243
52.9695 15.2978 0.0290448
50.1122 7.28697 0.0136094
52.1681 12.8125 0.0234918
51.2319 10.1317 0.0212079
61.9811 35.3737 2
60.0337 32.7792 2
58.3662 30.1284 2
56.6091 18.1877 2
56.2866 20.5644 2
55.9504 22.9348 2
57.0556 27.446 2
56.0867 25.174 2
48.0568 6.52706 2
49.3251 9.33422 2
54.3891 17.9559 2
52.3447 17.0805 2
51.37 14.5155 2
50.4319 12.004 2
59.6096 35.1368 3.97706
57.6673 32.3178 3.97639
56.2622 29.4099 3.97752
55.1708 26.6864 3.97718
55.2993 19.2262 3.96047
54.7327 24.1383 3.96393
54.892 21.6219 3.95966
45.9628 5.88309 3.98896
43.3743 7.47458 3.98584
47.3556 8.62636 3.98415
48.599 11.3023 3.97797
49.7074 13.7583 3.97576
50.6202 16.1657 3.97501
53.0908 18.7059 3.9659
51.2773 18.1066 3.97726
51.1674 65.1246 0.0169776
52.0437 62.531 0.0222459
58.0695 46.7986 0.02566
52.825 60.1113 0.0227188
55.4622 58.2288 0.0256314
53.6215 58.4471 0.0212897
57.4295 51.7449 0.0324623
56.0321 49.5 0.0293512
55.4243 55.7609 0.0372486
55.2503 53.3418 0.0371586
50.3448 63.3758 2
51.2374 60.9222 2
54.1898 57.2464 2
52.2947 58.6062 2
56.373 44.1167 2
55.2255 47.8325 2
54.9045 51.339 2
53.9303 54.5079 2
49.5894 61.7381 3.97996
55.1932 41.6655 3.97558
50.5536 59.3088 3.97304
52.1467 56.4629 3.97065
53.8162 45.4857 3.97476
53.0915 49.2641 3.96943
52.5431 52.8065 3.96163
48.6173 64.1175 0.0179454
47.9603 62.467 2
47.3257 61.0003 3.98555
43.6306 67.4643 0.0164722
45.1317 65.1901 0.0188248
46.3809 63.045 0.0179111
41.6631 67.6827 2
43.356 65.5001 2
45.986 61.5765 2
44.7664 63.4442 2
45.7618 60.6203 3.98383
44.4825 61.8218 3.98075
43.1458 63.7151 3.97903
41.5457 65.6362 3.97971
39.6324 67.7614 3.98292
37.5261 70.0463 3.9865
39.7019 70.0221 2
39.8175 72.4032 3.99175
41.86 69.8751 0.0128519
42.111 72.2067 2
42.3947 74.6792 4
44.3764 71.8617 0.00815574
44.8159 74.2794 2
47.2057 73.7222 0
43.852 5.3601 3.98887
46.5713 3.64754 3.99271
48.7856 4.32259 2
49.554 1.99015 4
50.9546 5.13266 0.00809666
51.8506 2.85453 2
54.0858 3.86728 0
60.0264 44.7309 0.0232532
60.9841 41.9293 0.0230516
61.946 39.3424 0.0229113
63.8143 37.4562 0.0228877
61.7798 37.4428 2
59.9679 39.825 2
58.6871 42.8703 2
59.4692 37.5655 3.97748
57.6407 40.6235 3.97729
54.6107 39.6823 3.9752
61.9829 35.3733 0.022827
60.0353 32.779 0.0230337
58.367 30.1277 0.0230719
56.6103 18.1866 0.0335508
56.2832 20.5669 0.0398755
55.9474 22.933 0.0377348
57.0556 27.4443 0.0229949
56.0866 25.1719 0.0260102
54.3883 17.9561 0.0286853
52.3444 17.081 0.0326415
51.3703 14.5206 0.0283592
48.0567 6.5284 0.0114929
49.3245 9.33625 0.0187345
50.431 12.0058 0.0241237
59.6095 35.1366 2
45.9627 5.88244 2
43.3742 7.47371 2
57.6673 32.3184 2
56.2611 29.4109 2
55.298 19.227 2
54.8997 21.6224 2
54.732 24.1403 2
55.1683 26.6887 2
47.3559 8.62395 2
48.5998 11.2998 2
53.092 18.705 2
51.2784 18.1073 2
50.6211 16.1659 2
49.7076 13.7568 2
57.0248 34.782 3.97736
55.3771 31.5774 3.97676
54.181 28.4994 3.97752
53.5367 25.5993 3.97604
53.9066 20.1875 3.95875
53.4382 22.7925 3.95471
41.3994 7.08048 3.98594
45.3605 7.9957 3.98662
42.8664 9.41796 3.98246
46.6669 10.658 3.98133
47.7407 13.1136 3.97781
48.9207 15.4224 3.97259
49.9831 17.73 3.97377
51.6081 19.385 3.97455
50.3453 63.3757 0.0181992
51.2382 60.9221 0.0234539
56.3735 44.1177 0.0225854
55.2263 47.8333 0.0259424
52.2954 58.6052 0.0244133
54.1899 57.2447 0.0249953
54.9026 51.3392 0.0343706
53.9297 54.5064 0.035732
49.5887 61.7378 2
55.1897 41.6638 2
50.5531 59.3101 2
52.1466 56.4643 2
53.8176 45.4854 2
53.0996 49.2643 2
52.5435 52.8059 2
48.8407 60.1935 3.97799
52.0254 42.5535 3.98151
49.7626 57.6021 3.96863
50.5109 54.3976 3.96201
51.4859 47.1936 3.97557
51.0297 50.8921 3.95593
47.692 43.6892 3.98716
47.9606 62.4675 0.0184438
47.3255 60.9998 2
46.611 59.7878 3.98643
41.6629 67.6826 0.0167272
43.3561 65.4992 0.0190648
44.7663 63.4435 0.0200887
45.986 61.576 0.0156467
39.6328 67.7621 2
41.5455 65.636 2
45.7616 60.6208 2
43.1459 63.7159 2
44.4825 61.8225 2
44.6185 60.2794 3.9851
42.9495 62.0679 3.9763
41.5997 63.8074 3.97891
39.6472 65.6027 3.97859
37.5634 67.7426 3.98183
31.6975 65.1219 3.97991
33.3926 67.4809 3.98169
35.3339 69.9565 3.98678
37.5259 70.0473 2
37.5095 72.4577 3.9919
39.7021 70.0216 0.0127823
39.8178 72.4035 2
39.9526 74.9197 4
42.1107 72.2064 0.00803413
42.3947 74.6792 2
44.8159 74.2794 0
41.7365 4.96923 3.98906
43.852 5.3592 2
44.3265 3.11073 3.99303
46.5715 3.6472 2
47.2057 1.27793 4
48.7854 4.32313 0.00742734
49.554 1.99013 2
51.8506 2.85458 0
58.6877 42.8713 0.0231589
59.9685 39.825 0.0228815
61.7815 37.4429 0.0226915
59.4693 37.5661 2
57.6401 40.6237 2
54.6082 39.6848 2
56.411 37.8846 3.97714
49.0558 41.2602 3.98471
52.6196 39.3069 3.98373
39.443 6.80436 3.98594
59.6096 35.1368 0.0229358
57.6673 32.3178 0.0236137
56.2622 29.4099 0.0224767
55.2993 19.2262 0.0395333
54.892 21.6219 0.0403413
54.7327 24.1383 0.036069
55.1708 26.6864 0.0228183
53.0908 18.7059 0.0341042
51.2773 18.1066 0.0227445
50.6202 16.1657 0.0249892
45.9628 5.88309 0.0110407
49.7074 13.7583 0.0242411
47.3556 8.62636 0.0158546
48.599 11.3023 0.0220319
43.3743 7.47458 0.0141622
57.0246 34.7816 2
41.3995 7.07919 2
45.3602 7.99513 2
42.8662 9.4173 2
55.3798 31.5754 2
54.1813 28.5001 2
53.9081 20.1896 2
53.4372 22.7908 2
53.5353 25.6008 2
46.6672 10.6539 2
47.7414 13.1099 2
51.6102 19.3861 2
49.9831 17.7277 2
48.9205 15.4232 2
54.4168 33.9795 3.97575
53.1169 30.5883 3.9775
52.2732 27.319 3.9756
51.9651 24.2076 3.97749
52.306 21.125 3.97234
41.0137 9.05217 3.98208
44.7258 9.99571 3.98475
42.4679 10.9043 3.98736
46.0022 12.7365 3.97695
47.6717 14.5989 3.97249
48.0902 17.0057 3.97184
49.7911 19.7356 3.97139
49.5894 61.7381 0.0200432
50.5536 59.3088 0.0269588
55.1932 41.6655 0.0244158
53.8162 45.4857 0.0252373
53.0915 49.2641 0.0305722
52.1467 56.4629 0.0293484
52.5431 52.8065 0.0383682
48.84 60.1919 2
52.0408 42.5583 2
49.7616 57.6031 2
50.5107 54.3993 2
51.4897 47.1932 2
51.0307 50.8907 2
47.7021 43.7131 2
47.9696 58.7261 3.97861
49.6501 45.1986 3.97865
48.5466 55.8955 3.97433
49.0089 52.5577 3.97732
49.4318 48.9818 3.97349
45.4552 39.8317 3.87905
45.9248 42.5562 3.90853
46.1067 45.7181 3.98298
43.2649 41.0797 3.75874
41.7843 41.9597 3.58893
47.3257 61.0003 0.0144513
46.6103 59.7871 2
45.4562 58.7831 3.9841
39.6324 67.7614 0.0170822
41.5457 65.6362 0.0202886
43.1458 63.7151 0.0209699
44.4825 61.8218 0.019255
45.7618 60.6203 0.0161689
41.5996 63.8075 2
37.5636 67.7436 2
39.647 65.6034 2
44.6186 60.2799 2
42.9496 62.0686 2
41.7527 62.4784 3.97775
42.477 59.9618 3.97973
39.8938 63.5393 3.97645
37.6421 65.5004 3.97944
35.4637 67.6523 3.98193
33.5757 65.334 3.97889
31.9594 63.2896 3.97932
29.8839 64.7137 3.98122
31.6974 65.1225 2
31.3773 67.1912 3.98229
33.3927 67.4818 2
33.1573 69.7505 3.98673
35.3337 69.9573 2
35.1952 72.3721 3.99175
37.5261 70.0463 0.0134994
37.5095 72.4583 2
37.5 75 4
39.8175 72.4032 0.00825242
39.9526 74.9197 2
42.3947 74.6792 0
39.6242 4.71687 3.98945
41.7366 4.96829 2
42.0629 2.71817 3.99329
43.852 5.3601 0.011126
44.3266 3.11015 2
44.8158 0.721173 4
46.5713 3.64754 0.00729438
47.2057 1.27779 2
49.554 1.99015 0
57.6407 40.6235 0.0227065
59.4692 37.5655 0.0225226
54.6107 39.6823 0.0248019
49.0796 41.2758 2
56.4116 37.8842 2
52.6187 39.2884 2
53.4664 36.6302 3.97742
46.9801 40.3569 3.91387
49.9972 38.5221 3.98962
37.517 6.67554 3.98584
39.443 6.80285 2
39.2112 8.69512 3.98332
35.9428 8.49515 3.98404
57.0248 34.782 0.0226428
55.3771 31.5774 0.0232378
54.181 28.4994 0.0224806
53.9066 20.1875 0.0412548
53.4382 22.7925 0.0452901
53.5367 25.5993 0.0239597
51.6081 19.385 0.0254546
49.9831 17.73 0.0262341
48.9207 15.4224 0.0274051
45.3605 7.9957 0.0133806
47.7407 13.1136 0.0221891
46.6669 10.658 0.0186708
41.3994 7.08048 0.0140628
42.8664 9.41796 0.0175404
54.4139 33.9818 2
41.0139 9.05095 2
44.7248 9.99543 2
42.4677 10.9044 2
53.1137 30.5882 2
52.282 27.3192 2
52.3103 21.1264 2
51.9661 24.2121 2
46.0023 12.7302 2
47.6716 14.5948 2
49.7937 19.7362 2
48.0891 17.0035 2
51.953 32.8904 3.98083
50.9126 29.2789 3.97596
50.5348 25.8379 3.97297
49.8596 22.3281 3.98371
40.5687 11.6122 3.98088
43.857 11.9154 3.98003
45.7907 15.4368 3.9826
47.4832 19.347 3.97745
45.858 37.4837 3.87375
48.8407 60.1935 0.0220141
49.7626 57.6021 0.0313717
52.0254 42.5535 0.0184886
51.4859 47.1936 0.0244328
51.0297 50.8921 0.0440702
50.5109 54.3976 0.0379929
47.692 43.6892 0.0128418
47.9685 58.728 2
49.6626 45.2088 2
48.5445 55.8981 2
49.008 52.5621 2
49.4359 48.9787 2
45.505 39.8469 2
45.9502 42.5891 2
46.1139 45.7268 2
43.291 41.1093 2
41.8062 41.9784 2
46.8108 57.3283 3.97981
44.0151 39.3713 3.75729
42.1361 40.8372 3.63728
47.7455 47.202 3.97961
47.0927 54.21 3.96999
47.4251 50.7096 3.97082
44.5245 47.3241 3.97682
44.5733 41.8991 3.85645
44.5848 44.4546 3.92412
42.1887 42.5662 3.77483
40.7277 42.2755 3.62328
46.611 59.7878 0.0135723
45.4561 58.783 2
43.8607 57.695 3.98086
37.5634 67.7426 0.0181671
39.6472 65.6027 0.0214085
41.5997 63.8074 0.021087
42.9495 62.0679 0.0237026
44.6185 60.2794 0.0148971
35.4639 67.6532 2
41.7527 62.4789 2
39.8936 63.5398 2
37.642 65.5013 2
42.4773 59.9623 2
40.623 61.6318 3.97934
40.4388 58.1788 3.97952
37.8369 63.2 3.97746
35.573 65.423 3.9793
33.5756 65.3347 2
31.9592 63.2902 2
33.6287 63.3276 3.9777
30.3789 62.8492 3.98047
32.1241 61.9931 3.98391
26.8718 61.4903 3.97788
28.063 64.1422 3.98074
29.8836 64.7143 2
29.4069 66.7554 3.98302
31.6975 65.1219 0.0200867
31.3774 67.1919 2
31.0149 69.4155 3.98661
33.3926 67.4809 0.0183135
33.1571 69.7512 2
32.8924 72.1466 3.99182
35.3339 69.9565 0.0132248
35.195 72.3726 2
35.0474 74.9194 4
37.5095 72.4577 0.00809793
37.5 75 2
39.9526 74.9197 0
35.6216 6.72662 3.98548
37.5237 4.61629 3.98957
39.6243 4.71558 2
39.7894 2.47475 3.99325
41.7365 4.96923 0.0109364
42.0629 2.71761 2
42.3946 0.32156 4
44.3265 3.11073 0.00696697
44.8159 0.72056 2
47.2057 1.27793 0
49.0558 41.2602 0.0152938
56.411 37.8846 0.0228623
52.6196 39.3069 0.0162664
47.0028 40.3545 2
50.0032 38.511 2
53.4716 36.6387 2
50.7867 35.5784 3.97571
47.6494 37.7578 3.93022
45.4596 35.1519 3.87557
43.272 33.9045 3.75317
41.7852 33.0344 3.58486
37.4585 8.5368 3.98426
37.5169 6.67429 2
39.443 6.80436 0.0140587
39.2115 8.69336 2
38.9764 10.1299 3.98355
35.8991 9.77703 3.98114
34.152 8.82608 3.98266
35.9425 8.49354 2
54.4168 33.9795 0.0242457
53.1169 30.5883 0.0224978
52.2732 27.319 0.024403
52.306 21.125 0.0276565
51.9651 24.2076 0.022506
49.7911 19.7356 0.0286143
48.0902 17.0057 0.0281592
47.6717 14.5989 0.0275106
44.7258 9.99571 0.0152476
46.0022 12.7365 0.0230495
41.0137 9.05217 0.0179158
42.4679 10.9043 0.0126414
51.9597 32.8901 2
40.5697 11.6121 2
43.8556 11.9163 2
50.9319 29.2784 2
50.5395 25.84 2
49.8614 22.3257 2
45.7889 15.4219 2
47.4854 19.3524 2
49.5026 31.4952 3.98723
48.9529 27.6072 3.97549
49.2227 24.5114 3.977
47.1413 22.093 3.98438
38.3023 12.7421 3.97773
42.0988 14.307 3.97932
44.7865 18.5283 3.97732
44.3774 37.4905 3.76635
45.9324 37.4895 2
47.9696 58.7261 0.0213946
48.5466 55.8955 0.0256685
49.6501 45.1986 0.0213482
49.4318 48.9818 0.0265059
49.0089 52.5577 0.0226798
45.4552 39.8317 0.120952
45.9248 42.5562 0.0914729
46.1067 45.7181 0.0170234
43.2649 41.0797 0.241256
41.7843 41.9597 0.411072
46.8089 57.3298 2
44.0528 39.3929 2
42.1305 40.8487 2
47.7507 47.2046 2
47.0905 54.2142 2
47.4281 50.714 2
44.5381 47.3024 2
44.6003 41.9245 2
44.6128 44.4735 2
42.2373 42.6001 2
40.7451 42.2763 2
45.3565 55.9152 3.98951
42.4625 39.2602 3.64839
40.6082 40.7214 3.74666
45.8699 48.863 3.99196
45.4249 52.4949 3.98309
43.2364 48.3267 3.99742
43.1641 45.9843 3.9063
43.3244 43.6767 3.8532
40.8604 43.6673 3.75375
39.2392 42.5566 3.63603
45.4562 58.7831 0.0159046
43.8602 57.6962 2
42.0884 56.2977 3.98365
35.4637 67.6523 0.0180659
37.6421 65.5004 0.020557
39.8938 63.5393 0.0235469
41.7527 62.4784 0.0222519
42.477 59.9618 0.0202679
35.573 65.424 2
40.6231 61.6324 2
37.8365 63.2007 2
40.4389 58.1803 2
38.9164 56.4733 3.99097
38.2507 60.314 3.97897
35.6068 63.1936 3.97648
33.5757 65.334 0.0211125
31.9594 63.2896 0.0206781
33.6286 63.3284 2
30.3787 62.8497 2
32.1245 61.9939 2
28.6825 62.1948 3.98034
33.3457 61.5025 3.97894
31.0699 61.2105 3.9796
27.5769 59.5834 3.98092
23.8033 59.0709 3.979
25.0384 60.8636 3.97871
26.8721 61.4907 2
26.2303 63.4727 3.97974
28.0629 64.1423 2
27.4637 66.1796 3.98318
29.8839 64.7137 0.0187769
29.407 66.7558 2
28.9073 68.9416 3.98636
31.3773 67.1912 0.0177089
31.0147 69.4162 2
30.6149 71.7776 3.99152
33.1573 69.7505 0.0132685
32.892 72.147 2
32.6054 74.6784 4
35.1952 72.3721 0.00824632
35.0474 74.9197 2
37.5 75 0
33.7245 6.98212 3.98468
35.4357 4.68655 3.98944
35.6215 6.72559 2
37.515 2.38722 3.99328
37.5237 4.6154 2
39.6242 4.71687 0.0105534
39.7892 2.47405 2
39.9526 0.0806499 4
42.0629 2.71817 0.00671397
42.3947 0.320817 2
44.8158 0.721173 0
44.0257 35.6073 3.75567
42.1388 34.1497 3.63153
46.9801 40.3569 0.0861346
49.9972 38.5221 0.0103788
53.4664 36.6302 0.0225786
47.648 37.7533 2
50.7992 35.5729 2
45.5006 35.1269 2
43.3042 33.8726 2
41.8077 33.0144 2
47.8196 34.3062 3.95774
44.577 33.0693 3.8503
42.1939 32.4264 3.76657
40.7304 32.7228 3.62014
37.3109 10.6343 3.98101
37.4585 8.53505 2
37.517 6.67554 0.0141597
39.2112 8.69512 0.0166836
38.9776 10.1284 2
34.755 10.3852 3.98137
35.8996 9.77413 2
32.379 9.3737 3.9801
34.151 8.82375 2
35.9428 8.49515 0.0159564
51.953 32.8904 0.0191727
50.9126 29.2789 0.0240377
50.5348 25.8379 0.027025
49.8596 22.3281 0.0162946
47.4832 19.347 0.0225466
45.7907 15.4368 0.0173997
43.857 11.9154 0.0199684
40.5687 11.6122 0.0191232
49.518 31.4915 2
38.3024 12.7404 2
42.0995 14.3109 2
48.9615 27.6096 2
49.2267 24.5103 2
47.1375 22.0865 2
44.7873 18.5504 2
47.3469 29.6051 3.98415
46.9105 25.2557 3.97836
44.2601 21.4646 3.97865
36.5835 12.9421 3.97576
38.683 14.8251 3.97575
41.7447 17.8864 3.9784
42.5862 37.4827 3.66841
44.4149 37.4897 2
45.858 37.4837 0.126247
46.8108 57.3283 0.0201876
47.0927 54.21 0.0300132
47.7455 47.202 0.020386
47.4251 50.7096 0.0291783
44.0151 39.3713 0.242708
44.5733 41.8991 0.143548
44.5848 44.4546 0.0758777
44.5245 47.3241 0.0231833
42.1887 42.5662 0.225172
42.1361 40.8372 0.362718
40.7277 42.2755 0.376723
45.3547 55.9148 2
42.454 39.2611 2
40.6125 40.7055 2
45.8724 48.8714 2
45.4237 52.5015 2
43.2425 48.3436 2
43.2073 46.0162 2
43.3634 43.7034 2
40.8942 43.7128 2
39.2363 42.5585 2
43.6863 54.4056 3.99854
40.7094 39.1307 3.76
39.1084 40.7901 3.73572
43.5433 50.3925 4.00451
41.8447 47.5247 3.94299
41.7482 45.0821 3.86889
39.3353 44.3377 3.75195
37.5066 42.6524 3.66245
43.8607 57.695 0.0191428
42.088 56.2989 2
40.4002 54.8768 3.98157
35.573 65.423 0.0207005
37.8369 63.2 0.0225429
40.623 61.6318 0.0206576
40.4388 58.1788 0.0204759
35.6065 63.1941 2
38.2509 60.3147 2
38.9163 56.4729 2
37.9921 55.1963 3.99195
36.9333 57.6115 3.98548
35.3638 60.8992 3.97655
33.6287 63.3276 0.0222967
30.3789 62.8492 0.0195276
32.1241 61.9931 0.016088
33.3463 61.5032 2
28.6827 62.1946 2
31.0705 61.2113 2
29.4084 60.28 3.97794
32.3618 59.7307 3.98818
28.0392 58.365 3.99225
27.5781 59.5838 2
25.3923 58.5854 3.97747
22.7737 58.2244 3.96834
23.4065 60.3397 3.97943
23.8044 59.0718 2
25.039 60.8641 2
24.4338 62.7642 3.97975
26.8718 61.4903 0.0221166
26.2303 63.4733 2
25.5481 65.4888 3.98203
28.063 64.1422 0.0192643
27.4637 66.18 2
26.8369 68.33 3.98637
29.4069 66.7554 0.0169847
28.9072 68.9417 2
28.3699 71.2629 3.99144
31.0149 69.4155 0.0133927
30.6144 71.7779 2
30.1842 74.2788 4
32.8924 72.1466 0.00817552
32.6053 74.6792 2
35.0474 74.9194 0
31.789 7.42223 3.98336
33.3482 4.92614 3.98882
33.7241 6.98043 2
35.2452 2.46325 3.99317
35.4355 4.68593 2
35.6216 6.72662 0.0145166
37.5 0 4
37.5146 2.38675 2
37.5237 4.61629 0.0104283
39.7894 2.47475 0.00675421
39.9526 0.0802889 2
42.3946 0.32156 0
42.4495 35.7103 3.646
44.0665 35.5843 2
40.6144 34.2725 3.74533
42.13 34.1382 2
47.6494 37.7578 0.0697812
50.7867 35.5784 0.0242939
45.4596 35.1519 0.124426
43.272 33.9045 0.246825
41.7852 33.0344 0.415139
47.8371 34.3075 2
44.606 33.0505 2
42.2473 32.3891 2
40.7484 32.7213 2
45.8564 31.6567 3.92863
43.3243 31.3196 3.85356
40.863 31.3318 3.75542
39.2396 32.4528 3.63439
35.6938 11.7822 3.97941
37.3127 10.6318 2
37.4585 8.5368 0.015742
38.9764 10.1299 0.0164502
33.1 11.2243 3.97654
34.7543 10.3811 2
35.8991 9.77703 0.0188591
30.4841 10.0236 3.97981
32.378 9.37272 2
34.152 8.82608 0.0173426
49.5026 31.4952 0.0127699
48.9529 27.6072 0.024505
49.2227 24.5114 0.0229954
47.1413 22.093 0.0156244
44.7865 18.5283 0.0226796
42.0988 14.307 0.0206846
38.3023 12.7421 0.0222675
36.5822 12.9347 2
47.3627 29.5773 2
38.6815 14.8147 2
41.7417 17.8806 2
46.9176 25.2548 2
44.2553 21.4515 2
45.241 27.7339 4.00336
43.6865 24.1781 4.01098
41.3208 20.8553 3.98021
35.7739 14.7774 3.9774
38.6817 17.6277 3.97862
40.7599 37.4758 3.77209
42.5851 37.4855 2
44.3774 37.4905 0.233648
45.3565 55.9152 0.0104872
45.4249 52.4949 0.016909
45.8699 48.863 0.0080384
42.4625 39.2602 0.351608
43.3244 43.6767 0.146799
43.1641 45.9843 0.0937039
43.2364 48.3267 0.00257972
40.8604 43.6673 0.246247
40.6082 40.7214 0.253337
39.2392 42.5566 0.363972
43.6833 54.4051 2
40.6966 39.1264 2
39.1097 40.7731 2
43.5428 50.4093 2
41.8351 47.5482 2
41.7718 45.1173 2
37.5037 42.658 2
39.351 44.3811 2
41.8383 52.9352 3.99515
39.1241 39.1439 3.75624
37.5071 40.8397 3.75208
35.7763 42.5645 3.6373
40.8524 49.5799 3.99652
39.7891 45.9051 3.84537
37.5044 44.5698 3.75526
42.0884 56.2977 0.0163491
40.3959 54.8893 2
38.7194 53.7533 3.99637
35.6068 63.1936 0.0235159
38.2507 60.314 0.02103
38.9164 56.4733 0.00903376
35.3642 60.8987 2
36.934 57.612 2
37.9909 55.1859 2
36.3229 55.2722 3.99796
34.4901 58.5046 3.98666
33.3457 61.5025 0.0210557
28.6825 62.1948 0.0196599
31.0699 61.2105 0.0204014
32.3625 59.7321 2
29.4095 60.2797 2
30.3162 57.8076 3.98464
28.0406 58.3652 2
26.9768 56.8189 3.97525
27.5769 59.5834 0.0190797
25.3938 58.5862 2
23.8717 56.7855 3.96161
21.3576 57.3755 3.9667
22.003 59.6089 3.97679
22.7746 58.2262 2
22.7388 62.0145 3.97785
23.4071 60.3403 2
23.8033 59.0709 0.0209952
25.0384 60.8636 0.021287
24.434 62.7649 2
23.6824 64.7062 3.98129
26.2303 63.4727 0.0202576
25.548 65.4898 2
24.8092 67.5912 3.98594
27.4637 66.1796 0.0168235
26.8368 68.3306 2
26.165 70.6036 3.99146
28.9073 68.9416 0.0136361
28.3694 71.2629 2
27.7943 73.7221 4
30.6149 71.7776 0.00848038
30.1841 74.2794 2
32.6054 74.6784 0
29.8117 7.997 3.98225
31.2536 5.33314 3.98787
31.7885 7.42103 2
32.981 2.70154 3.99287
33.3478 4.92497 2
33.7245 6.98212 0.015324
35.0474 0.080333 4
35.2448 2.46297 2
35.4357 4.68655 0.0105583
37.5 0 2
37.515 2.38722 0.00672
39.9526 0.0806499 0
40.7168 35.8363 3.75748
42.4431 35.7133 2
44.0257 35.6073 0.244327
28.5446 10.6989 3.9787
39.1032 34.2179 3.73514
40.6107 34.288 2
42.1388 34.1497 0.368471
47.8196 34.3062 0.0422554
44.577 33.0693 0.149698
42.1939 32.4264 0.233434
40.7304 32.7228 0.379861
45.8866 31.6362 2
43.3609 31.2874 2
40.9004 31.2838 2
39.2421 32.4519 2
44.14 29.8532 3.92318
41.7438 29.914 3.86834
39.3406 30.6661 3.75103
37.5105 32.3661 3.66234
34.095 12.946 3.97545
35.693 11.7753 2
37.3109 10.6343 0.018991
31.1884 11.9943 3.97785
33.0997 11.2231 2
34.755 10.3852 0.0186255
30.4825 10.0208 2
32.379 9.3737 0.0198952
47.3469 29.6051 0.0158539
46.9105 25.2557 0.021639
36.5835 12.9421 0.0242447
44.2601 21.4646 0.0213511
41.7447 17.8864 0.0216037
38.683 14.8251 0.0242542
35.7749 14.7835 2
45.2462 27.7319 2
38.6788 17.6298 2
41.3157 20.8493 2
43.6894 24.1704 2
33.6114 15.8951 3.97721
42.8659 26.5861 3.99138
40.8517 23.4278 4.00392
38.4107 20.405 3.98582
35.8523 17.5309 3.97984
39.1297 37.4893 3.77927
40.748 37.477 2
42.5862 37.4827 0.331588
43.6863 54.4056 0.00145734
43.5433 50.3925 -0.00451058
40.7094 39.1307 0.240005
41.7482 45.0821 0.131113
41.8447 47.5247 0.0570109
39.3353 44.3377 0.248054
39.1084 40.7901 0.26428
37.5066 42.6524 0.337551
41.8344 52.9332 2
39.1159 39.1306 2
37.5062 40.8192 2
40.8521 49.5964 2
35.7733 42.5658 2
39.8084 45.9482 2
37.4968 44.6073 2
39.7783 51.7904 4.001
37.5034 39.1534 3.78498
35.9089 40.8029 3.73654
34.2843 42.289 3.62122
35.6745 44.349 3.74823
38.667 48.5498 3.95721
37.5168 46.1944 3.86439
40.4002 54.8768 0.0184323
38.719 53.744 2
36.7466 53.0855 3.99821
35.3638 60.8992 0.0234504
36.9333 57.6115 0.0145224
37.9921 55.1963 0.00805298
34.4905 58.5037 2
36.3226 55.2742 2
33.2483 55.4611 3.99301
32.3618 59.7307 0.0118223
29.4084 60.28 0.0220574
30.3178 57.8071 2
28.7403 55.3053 3.97999
28.0392 58.365 0.00775389
26.978 56.8193 2
25.3669 55.1233 3.96636
21.8544 55.3243 3.96359
25.3923 58.5854 0.0225308
23.8722 56.7882 2
20.2444 57.0048 3.96928
20.6584 58.7594 3.97052
21.3579 57.3771 2
21.1715 61.1593 3.97672
22.0038 59.6098 2
22.7737 58.2244 0.0316596
21.8963 63.833 3.97994
22.7392 62.0151 2
23.4065 60.3397 0.0205745
24.4338 62.7642 0.0202497
23.6824 64.7069 2
22.8376 66.7343 3.9849
25.5481 65.4888 0.0179737
24.8091 67.5921 2
24.0092 69.8049 3.99154
26.8369 68.33 0.0136268
26.1644 70.6038 2
25.446 73.0099 4
28.3699 71.2629 0.00856154
27.7943 73.7222 2
30.1842 74.2788 0
27.8215 8.65655 3.98197
29.1558 5.87949 3.98663
29.8108 7.99474 2
30.7264 3.09855 3.99258
31.2532 5.33208 2
31.789 7.42223 0.0166407
32.6053 0.320823 4
32.9805 2.70099 2
33.3482 4.92614 0.0111788
35.0474 0.0802903 2
35.2452 2.46325 0.00682943
37.5 0 0
39.1212 35.8468 3.75783
40.6999 35.8409 2
42.4495 35.7103 0.353996
28.5433 10.6977 2
26.623 11.3951 3.97866
29.2275 12.65 3.97899
37.5029 34.1807 3.75069
39.1058 34.2365 2
40.6144 34.2725 0.254666
45.8564 31.6567 0.0713697
43.3243 31.3196 0.146438
40.863 31.3318 0.244581
39.2396 32.4528 0.365614
44.1479 29.8408 2
41.7644 29.8831 2
39.3508 30.6222 2
37.5123 32.3599 2
42.1927 28.5241 3.893
39.7874 29.0895 3.8659
37.5117 30.4435 3.7539
35.7818 32.4544 3.63595
31.9185 14.4943 3.9777
34.0955 12.9467 2
35.6938 11.7822 0.0205857
31.1873 11.9902 2
33.1 11.2243 0.023463
30.4841 10.0236 0.0201875
45.241 27.7339 -0.00335561
43.6865 24.1781 -0.0109752
35.7739 14.7774 0.0225973
41.3208 20.8553 0.0197903
38.6817 17.6277 0.0213783
33.6097 15.8898 2
35.8487 17.5342 2
42.8734 26.5867 2
38.407 20.4065 2
40.8416 23.4119 2
33.5557 17.4053 3.97903
40.3039 25.801 3.97604
38.0643 23.0997 3.99968
35.583 20.1175 3.98401
37.5019 37.4992 3.80312
39.1215 37.4874 2
40.7599 37.4758 0.227906
41.8383 52.9352 0.00484822
40.8524 49.5799 0.00347869
39.1241 39.1439 0.243756
39.7891 45.9051 0.154634
37.5044 44.5698 0.244739
37.5071 40.8397 0.247923
35.7763 42.5645 0.362697
39.7772 51.7945 2
37.5042 39.1411 2
35.9067 40.7873 2
38.6785 48.594 2
34.2674 42.2907 2
35.6558 44.3938 2
37.5175 46.2382 2
37.6616 50.8444 4.00048
35.8886 39.1611 3.75754
34.4061 40.744 3.74624
33.2255 41.9739 3.58746
34.1397 43.6701 3.75396
35.1965 45.9049 3.85913
36.9198 48.1683 3.92519
38.7194 53.7533 0.00362909
36.745 53.0879 2
34.407 52.3994 3.99694
34.4901 58.5046 0.0133362
36.3229 55.2722 0.0020436
33.2493 55.4653 2
30.5741 53.3297 3.98818
30.3162 57.8076 0.015361
28.7413 55.306 2
26.9669 53.4179 3.97164
26.9768 56.8189 0.0247511
25.3675 55.1274 2
23.6678 53.4517 3.95858
20.5815 53.1847 3.96121
19.9703 55.8063 3.96475
21.8529 55.326 2
23.8717 56.7855 0.0383895
19.4556 57.8661 3.96914
20.2441 57.0062 2
19.7134 60.1852 3.97466
20.6588 58.7599 2
21.3576 57.3755 0.0333008
20.2096 62.8528 3.977
21.1721 61.1612 2
22.003 59.6089 0.0232061
20.9389 65.7628 3.98356
21.8964 63.8338 2
22.7388 62.0145 0.0221497
23.6824 64.7062 0.0187086
22.8374 66.7348 2
21.9118 68.872 3.99119
24.8092 67.5912 0.0140646
24.0084 69.8049 2
23.1494 72.1454 4
26.165 70.6036 0.00853508
25.446 73.0099 2
27.7943 73.7221 0
25.8606 9.38551 3.98094
27.0705 6.54352 3.98555
27.8204 8.65552 2
28.4887 3.64457 3.99199
29.1551 5.87802 2
29.8117 7.997 0.0177478
30.1841 0.720592 4
30.7257 3.09813 2
31.2536 5.33314 0.0121255
32.6053 0.320817 2
32.981 2.70154 0.00713301
35.0474 0.080333 0
37.5026 35.8515 3.78383
39.1091 35.8559 2
40.7168 35.8363 0.242521
24.7781 12.0812 3.97819
23.7545 14.3715 3.97599
28.5446 10.6989 0.0212971
26.622 11.3948 2
29.2265 12.6488 2
27.2938 13.3833 3.97826
29.7847 14.2119 3.97877
35.903 34.2183 3.73478
37.5055 34.2007 2
39.1032 34.2179 0.264863
37.5105 32.3661 0.337657
44.14 29.8532 0.0768161
41.7438 29.914 0.131656
39.3406 30.6661 0.248967
42.2149 28.4898 2
39.8006 29.0483 2
37.5149 30.4035 2
35.7812 32.4525 2
39.9644 27.7295 3.90066
37.4967 28.8108 3.86347
35.6803 30.679 3.7546
34.2939 32.73 3.6208
30.9322 16.8553 3.97868
31.9173 14.4874 2
34.095 12.946 0.0245476
31.1884 11.9943 0.022147
42.8659 26.5861 0.00861579
40.8517 23.4278 -0.00391582
33.6114 15.8951 0.0227923
35.8523 17.5309 0.0201602
38.4107 20.405 0.0141753
33.5511 17.4164 2
35.583 20.1211 2
40.3239 25.7879 2
38.0506 23.0886 2
32.8712 19.8088 3.99194
37.7547 25.4074 3.98867
35.1954 22.8084 3.99549
35.8743 37.5033 3.78056
37.5015 37.4994 2
39.1297 37.4893 0.220733
39.7783 51.7904 -0.000995138
38.667 48.5498 0.0427882
37.5034 39.1534 0.21502
37.5168 46.1944 0.135614
35.6745 44.349 0.251767
35.9089 40.8029 0.263458
34.2843 42.289 0.378777
37.6492 50.8665 2
35.9001 39.1491 2
34.403 40.7294 2
36.8966 48.2135 2
33.2025 41.9916 2
34.1119 43.7153 2
35.1805 45.9415 2
35.5189 50.015 3.99
34.3045 39.1626 3.75953
32.87 40.8567 3.634
32.8166 42.5833 3.76915
33.2681 45.0876 3.86483
34.3643 47.2778 3.89984
36.7466 53.0855 0.00178791
34.4005 52.406 2
32.099 51.1441 4.01388
33.2483 55.4611 0.00699321
30.5746 53.3325 2
28.5344 51.5522 3.98622
28.7403 55.3053 0.0200146
26.9669 53.4213 2
25.2101 51.703 3.95478
25.3669 55.1233 0.0336384
23.6669 53.4548 2
22.1193 51.7573 3.95383
19.3734 51.5879 3.96199
18.993 54.2767 3.96281
20.5808 53.184 2
18.4724 56.7 3.96738
19.9689 55.8079 2
21.8544 55.3243 0.0364133
18.3794 59.0889 3.96841
19.4555 57.8671 2
20.2444 57.0048 0.0307232
18.6227 61.7526 3.97404
19.7141 60.1863 2
20.6584 58.7594 0.0294815
19.128 64.6718 3.98196
20.2098 62.8538 2
21.1715 61.1593 0.0232795
19.886 67.8086 3.99101
20.9387 65.7634 2
21.8963 63.833 0.0200636
22.8376 66.7343 0.0150972
21.9109 68.8716 2
20.9142 71.1327 4
24.0092 69.8049 0.00846379
23.1494 72.1455 2
25.446 73.0099 0
23.0977 12.7972 3.97746
23.9732 10.1742 3.97973
25.0241 7.31429 3.98446
25.8597 9.38491 2
26.2805 4.32865 3.99144
27.0697 6.54273 2
27.8215 8.65655 0.0180349
27.7943 1.27781 4
28.4877 3.64417 2
29.1558 5.87949 0.0133701
30.1841 0.720551 2
30.7264 3.09855 0.00741727
32.6053 0.320823 0
35.8781 35.8488 3.75413
37.504 35.8644 2
39.1212 35.8468 0.242171
24.777 12.0795 2
23.7549 14.3723 2
22.4842 15.0498 3.97869
25.3604 13.9199 3.97608
24.0329 15.6349 3.98014
26.623 11.3951 0.0213416
29.2275 12.65 0.0210074
27.2938 13.3833 2
29.7826 14.2101 2
28.3636 15.9867 3.97844
34.4068 34.282 3.74497
35.9005 34.2354 2
37.5029 34.1807 0.249312
35.7818 32.4544 0.364049
37.5117 30.4435 0.246099
42.1927 28.5241 0.106998
39.7874 29.0895 0.134096
39.9813 27.6976 2
37.4982 28.7688 2
35.6643 30.6303 2
34.2739 32.7313 2
37.5747 27.4482 3.91036
35.2084 29.1067 3.86488
34.1477 31.3469 3.75397
33.2386 33.0461 3.58655
30.2185 19.3779 3.98087
30.9297 16.8481 2
31.9185 14.4943 0.0222974
40.3039 25.801 0.0239581
38.0643 23.0997 0.00032346
33.5557 17.4053 0.0209671
35.583 20.1175 0.0159903
32.868 19.8198 2
35.187 22.7952 2
37.7697 25.3935 2
32.3267 22.5169 3.99612
35.0263 25.3595 4.00062
34.2478 37.5129 3.77312
35.8825 37.5044 2
37.5019 37.4992 0.196884
37.6616 50.8444 -0.000484879
36.9198 48.1683 0.0748114
35.8886 39.1611 0.242461
35.1965 45.9049 0.140872
34.1397 43.6701 0.246044
34.4061 40.744 0.253762
33.2255 41.9739 0.41254
35.5054 50.021 2
34.3202 39.1573 2
32.8744 40.8657 2
34.359 47.3193 2
32.7775 42.6168 2
33.2502 45.12 2
33.3423 49.0337 3.98038
32.549 39.2895 3.64869
31.7324 41.0981 3.75604
31.6779 43.6865 3.85529
32.4476 46.2285 3.89959
34.407 52.3994 0.00305779
32.1008 51.1542 2
30.022 49.692 3.99623
30.5741 53.3297 0.0118166
28.5332 51.5495 2
26.6808 49.9286 3.96979
26.9669 53.4179 0.028357
25.2086 51.7017 2
23.5344 50.127 3.96352
23.6678 53.4517 0.0414166
22.1183 51.7556 2
20.6706 50.2571 3.96468
18.1827 50.282 3.96798
17.9681 52.7525 3.96394
19.3717 51.5873 2
17.4856 55.3141 3.96255
18.9891 54.277 2
20.5815 53.1847 0.0387907
17.1502 57.8522 3.96566
18.4718 56.7004 2
19.9703 55.8063 0.0352494
17.1415 60.5295 3.97122
18.3794 59.0899 2
19.4556 57.8661 0.0308568
17.4092 63.4628 3.97734
18.6231 61.7533 2
19.7134 60.1852 0.0253441
17.9425 66.617 3.98985
19.1277 64.6725 2
20.2096 62.8528 0.0230029
18.75 69.9759 4
19.885 67.8081 2
20.9389 65.7628 0.0164356
21.9118 68.872 0.00880677
20.9142 71.1327 2
23.1494 72.1454 0
21.5895 13.6198 3.97711
22.1913 11.0348 3.97853
23.0975 12.7979 2
23.0419 8.18084 3.9834
23.9721 10.1728 2
24.1181 5.14347 3.99087
25.0233 7.31354 2
25.8606 9.38551 0.0190644
25.446 1.99014 4
26.2792 4.32869 2
27.0705 6.54352 0.0144517
27.7943 1.27778 2
28.4887 3.64457 0.00801024
30.1841 0.720592 0
34.3019 35.862 3.75982
35.8871 35.8618 2
37.5026 35.8515 0.216171
21.313 15.8478 3.98158
24.7781 12.0812 0.0218105
23.7545 14.3715 0.0240086
25.3602 13.9171 2
22.485 15.0498 2
24.0334 15.6371 2
23.2753 16.2654 3.97512
25.389 16.1059 3.97945
27.2938 13.3833 0.0217423
29.7847 14.2119 0.0212328
28.361 15.9906 2
27.4507 18.83 3.97917
32.874 34.1653 3.63556
34.4062 34.2986 2
35.903 34.2183 0.265219
34.2939 32.73 0.379204
35.6803 30.679 0.245399
37.4967 28.8108 0.136531
39.9644 27.7295 0.0993371
37.5743 27.4116 2
33.2152 33.0293 2
35.2011 29.0582 2
34.1105 31.2957 2
35.1049 27.5582 3.90948
33.2614 29.9269 3.86371
32.8303 32.4303 3.7551
29.6196 21.9792 3.99589
30.2166 19.3884 2
30.9322 16.8553 0.0213158
37.7547 25.4074 0.0113318
35.1954 22.8084 0.00450769
32.8712 19.8088 0.00805858
32.3258 22.5082 2
35.053 25.3476 2
31.8292 25.7489 4.00707
32.407 37.5138 3.67107
34.2649 37.5115 2
35.8743 37.5033 0.219444
35.5189 50.015 0.0100015
34.3643 47.2778 0.100158
34.3045 39.1626 0.240471
33.2681 45.0876 0.135168
32.8166 42.5833 0.230853
32.87 40.8567 0.365998
33.3302 49.0335 2
32.563 39.2888 2
31.6968 41.1261 2
32.4151 46.2625 2
31.6441 43.7153 2
31.3492 47.8753 3.9835
30.9829 39.3957 3.75704
30.4267 41.9352 3.85339
30.711 44.8379 3.92013
32.099 51.1441 -0.0138828
30.0222 49.7085 2
28.1156 48.1139 3.95889
28.5344 51.5522 0.0137753
26.6794 49.9273 2
24.8971 48.3936 3.97213
25.2101 51.703 0.0452201
23.5337 50.1251 2
21.9223 48.7169 3.97009
22.1193 51.7573 0.0461694
20.6683 50.2561 2
19.2613 49.0364 3.97202
17.0742 49.2886 3.97339
16.9205 51.3682 3.96705
18.1851 50.2808 2
16.4676 53.8414 3.96458
17.9661 52.7523 2
19.3734 51.5879 0.0380101
15.9963 56.4569 3.96445
17.4823 55.3148 2
18.993 54.2767 0.0371935
15.7582 59.1927 3.96769
17.1505 57.8528 2
18.4724 56.7 0.0326204
15.791 62.1271 3.97276
17.1419 60.5313 2
18.3794 59.0889 0.0315872
16.0896 65.2993 3.98878
17.4087 63.4641 2
18.6227 61.7526 0.0259558
16.6661 68.6801 4
17.9413 66.6162 2
19.128 64.6718 0.0180357
18.75 69.9759 2
19.886 67.8086 0.00898527
20.9142 71.1327 0
20.2234 14.6125 3.9759
21.5895 13.62 2
20.531 12.0068 3.97759
21.1446 9.15136 3.98246
22.1906 11.035 2
23.0977 12.7972 0.0225431
22.0172 6.08265 3.99028
23.0408 8.17973 2
23.9732 10.1742 0.0202687
23.1494 2.85457 4
24.1166 5.14365 2
25.0241 7.31429 0.0155369
25.446 1.99012 2
26.2805 4.32865 0.00855625
27.7943 1.27781 0
32.5374 35.7367 3.64795
34.3171 35.8666 2
35.8781 35.8488 0.245873
21.3138 15.8471 2
20.3156 16.9802 3.97929
22.1074 16.6529 3.97162
25.3604 13.9199 0.0239198
22.4842 15.0498 0.0213062
24.0329 15.6349 0.0198564
25.3886 16.1038 2
23.2758 16.2658 2
24.2172 18.4903 3.97307
27.0608 21.5026 3.9929
28.3636 15.9867 0.0215588
27.4503 18.8291 2
31.7473 33.9338 3.75233
32.8816 34.1539 2
34.4068 34.282 0.255026
33.2386 33.0461 0.413454
34.1477 31.3469 0.246026
35.2084 29.1067 0.135117
37.5747 27.4482 0.0896354
35.1095 27.516 2
32.7605 32.3973 2
33.2458 29.9059 2
32.6994 28.2589 3.91995
31.6771 31.3412 3.8549
28.9401 24.4647 3.98343
29.6139 21.9893 2
30.2185 19.3779 0.0191324
35.0263 25.3595 -0.000622116
32.3267 22.5169 0.00388143
31.8285 25.7266 2
29.8528 27.3982 3.97672
30.6134 37.5127 3.76486
32.419 37.5123 2
34.2478 37.5129 0.22688
33.3423 49.0337 0.0196217
32.4476 46.2285 0.10041
32.549 39.2895 0.351313
31.6779 43.6865 0.144708
31.7324 41.0981 0.243963
31.3453 47.8802 2
30.9359 39.419 2
30.3982 41.9515 2
30.6853 44.8631 2
29.4927 46.4849 3.99948
29.535 39.8537 3.87773
29.1293 43.0745 3.92095
30.022 49.692 0.00376937
28.1119 48.1085 2
26.2627 46.5726 3.97655
26.6808 49.9286 0.0302086
24.8965 48.3915 2
23.1327 46.9916 3.97498
23.5344 50.127 0.0364753
21.9202 48.7159 2
20.2388 47.5545 3.97711
20.6706 50.2571 0.0353238
19.2631 49.0348 2
17.8807 48.13 3.97661
16.3117 48.6444 3.97622
17.0756 49.2876 2
16.0003 50.1333 3.97079
15.478 52.3857 3.96661
16.9217 51.3674 2
18.1827 50.282 0.0320235
14.9082 54.9575 3.96409
16.4681 53.8412 2
17.9681 52.7525 0.0360603
14.4705 57.7249 3.96646
15.9969 56.4572 2
17.4856 55.3141 0.0374507
14.2704 60.6815 3.97149
15.7588 59.1937 2
17.1502 57.8522 0.0343431
14.335 63.8576 3.98446
15.7908 62.1287 2
17.1415 60.5295 0.0287831
14.6715 67.2507 4
16.0878 65.2983 2
17.4092 63.4628 0.0226561
16.6661 68.6801 2
17.9425 66.617 0.0101491
18.75 69.9759 0
18.9396 15.799 3.97706
20.2238 14.6121 2
18.9819 13.1199 3.97557
21.5895 13.6198 0.0228884
20.5307 12.0068 2
19.3439 10.2405 3.98137
19.9917 7.14737 3.98962
21.1439 9.15126 2
22.1913 11.0348 0.0214749
20.9142 3.86727 4
22.0153 6.08303 2
23.0419 8.18084 0.0165975
23.1494 2.85451 2
24.1181 5.14347 0.00913121
25.446 1.99014 0
31.0023 35.6355 3.75619
32.5494 35.7374 2
34.3019 35.862 0.240177
21.313 15.8478 0.0184163
22.1081 16.6531 2
20.3161 16.9785 2
19.2692 18.4305 3.97035
21.7954 17.877 3.98067
25.389 16.1059 0.0205454
23.2753 16.2654 0.0248781
24.216 18.4927 2
22.3197 19.9305 3.96734
24.6429 21.384 3.98765
26.5489 23.771 3.97362
27.0598 21.4964 2
27.4507 18.83 0.0208281
30.4607 33.1028 3.86619
31.7192 33.8939 2
32.874 34.1653 0.36444
32.8303 32.4303 0.244902
33.2614 29.9269 0.136288
35.1049 27.5582 0.090516
32.6565 28.2294 2
31.6363 31.3048 2
30.3954 29.6654 3.94167
28.1031 26.6099 3.99044
28.933 24.4795 2
29.6196 21.9792 0.00411055
31.8292 25.7489 -0.00707358
29.8452 27.3722 2
29.1293 37.5186 3.87458
30.5815 37.513 2
32.407 37.5138 0.328929
31.3492 47.8753 0.0164985
30.711 44.8379 0.0798713
30.9829 39.3957 0.242959
30.4267 41.9352 0.146607
29.4923 46.4976 2
29.4968 39.8731 2
29.0995 43.1058 2
27.6999 44.793 3.97137
27.3057 40.5928 3.94743
28.1156 48.1139 0.0411102
26.2578 46.5735 2
24.4005 45.1123 3.97623
24.8971 48.3936 0.0278655
23.1315 46.9916 2
21.2277 45.8212 3.97809
21.9223 48.7169 0.0299103
20.2374 47.5532 2
18.5721 46.6812 3.97781
19.2613 49.0364 0.0279789
17.8817 48.1289 2
16.5249 47.6724 3.97705
16.313 48.6436 2
15.3449 48.9813 3.97434
17.0742 49.2886 0.0266096
16.0022 50.1325 2
14.598 50.9563 3.96898
13.8828 53.4149 3.96559
15.479 52.3852 2
16.9205 51.3682 0.0329505
13.2665 56.1569 3.96571
14.9077 54.9576 2
16.4676 53.8414 0.0354236
12.8543 59.1164 3.97014
14.4715 57.7249 2
15.9963 56.4569 0.0355524
12.6808 62.2996 3.98147
14.2708 60.6821 2
15.7582 59.1927 0.0323058
12.7746 65.6939 4
14.333 63.8553 2
15.791 62.1271 0.0272429
14.6714 67.2507 2
16.0896 65.2993 0.0112237
16.6661 68.6801 0
17.6821 17.177 3.96975
18.94 15.7982 2
17.5147 14.3858 3.97528
20.2234 14.6125 0.0241031
18.9818 13.1199 2
17.6398 11.4607 3.97957
20.531 12.0068 0.0224145
19.3434 10.2404 2
18.0518 8.34051 3.98902
18.75 5.0241 4
19.9897 7.14854 2
21.1446 9.15136 0.0175356
20.9142 3.86727 2
22.0172 6.08265 0.00972492
23.1494 2.85457 0
29.5535 35.178 3.87924
30.9494 35.6123 2
32.5374 35.7367 0.352051
22.1074 16.6529 0.0283809
20.3156 16.9802 0.0207077
21.7958 17.8751 2
19.2691 18.4289 2
18.0336 19.9706 3.95936
20.913 19.4076 3.97087
24.2172 18.4903 0.0269275
22.3185 19.9305 2
24.6419 21.3851 2
22.4315 21.7641 3.97822
24.8167 23.2122 3.97382
25.6932 26.0037 3.97811
26.55 23.7671 2
27.0608 21.5026 0.00710049
28.8393 32.4368 3.92461
30.4203 33.0787 2
31.7473 33.9338 0.24767
31.6771 31.3412 0.145102
32.6994 28.2589 0.080053
30.3856 29.6667 2
27.3538 29.1984 4.00741
28.0918 26.621 2
28.9401 24.4647 0.0165748
29.8528 27.3982 0.0232779
27.4156 37.368 3.92723
29.068 37.5077 2
30.6134 37.5127 0.235135
29.4927 46.4849 0.00052261
29.1293 43.0745 0.079051
29.535 39.8537 0.122265
27.6893 44.8208 2
27.2848 40.5949 2
25.7323 43.0995 3.98826
24.5622 39.4533 3.97465
26.2627 46.5726 0.0234469
24.3911 45.1129 2
22.2871 43.8697 3.97762
23.1327 46.9916 0.0250155
21.2247 45.8209 2
19.2863 44.9146 3.9774
20.2388 47.5545 0.0228891
18.5723 46.6801 2
16.8535 46.1683 3.97709
17.8807 48.13 0.023387
16.5262 47.6715 2
15.0951 47.6364 3.97574
16.3117 48.6444 0.0237752
15.3468 48.9806 2
13.9018 49.5193 3.97123
16.0003 50.1333 0.0292098
14.5989 50.9558 2
12.9559 51.8558 3.967
12.1577 54.5184 3.96555
13.8828 53.4148 2
15.478 52.3857 0.0333865
11.54 57.4514 3.96962
13.267 56.1569 2
14.9082 54.9575 0.0359103
11.1356 60.6253 3.97942
12.8552 59.1159 2
14.4705 57.7249 0.0335435
10.9835 64.0165 4
12.6789 62.2963 2
14.2704 60.6815 0.0285103
12.7745 65.694 2
14.335 63.8576 0.0155387
14.6715 67.2507 0
16.4268 18.673 3.96402
17.682 17.1759 2
16.1087 15.7968 3.97193
18.9396 15.799 0.0229361
17.5147 14.3849 2
16.022 12.8156 3.97705
18.9819 13.1199 0.0244302
17.6394 11.4606 2
16.2029 9.66379 3.9883
19.3439 10.2405 0.0186338
18.0498 8.34206 2
16.6661 6.31991 4
18.75 5.02404 2
19.9917 7.14737 0.0103756
20.9142 3.86727 0
27.9493 34.8151 3.91738
29.511 35.1573 2
31.0023 35.6355 0.243808
16.7459 21.4061 3.96534
21.7954 17.877 0.0193272
19.2692 18.4305 0.0296454
20.9126 19.4058 2
18.0335 19.9698 2
19.8054 21.6116 3.96828
22.3197 19.9305 0.0326566
24.6429 21.384 0.0123487
22.4306 21.7645 2
24.8162 23.2114 2
23.0317 24.6547 3.97358
24.8959 28.5876 3.97888
25.688 26.0004 2
26.5489 23.771 0.0263809
26.6887 31.7856 3.98052
28.811 32.4144 2
30.4607 33.1028 0.133811
30.3954 29.6654 0.0583335
27.3736 29.1796 2
28.1031 26.6099 0.00956007
25.2459 36.859 3.97938
27.4039 37.3607 2
29.1293 37.5186 0.125424
27.6999 44.793 0.0286316
27.3057 40.5928 0.0525722
25.7142 43.1142 2
24.5443 39.4539 2
23.4558 41.8139 3.98037
22.2789 38.5222 3.97775
24.4005 45.1123 0.0237662
22.2862 43.87 2
20.1235 42.8507 3.97657
21.2277 45.8212 0.0219089
19.2867 44.9147 2
17.2327 44.3363 3.97669
18.5721 46.6812 0.0221903
16.8552 46.1675 2
15.0401 46.0571 3.97606
16.5249 47.6724 0.0229489
15.0966 47.6358 2
13.423 47.9831 3.97304
15.3449 48.9813 0.0256645
13.903 49.5187 2
12.1812 50.2357 3.96825
14.598 50.9563 0.0310206
12.9563 51.8555 2
11.1563 52.8293 3.96599
10.3305 55.7065 3.96942
12.1581 54.5182 2
13.8828 53.4149 0.0344082
9.7022 58.8477 3.97851
11.5406 57.451 2
13.2665 56.1569 0.0342904
9.30605 62.2254 4
11.134 60.6216 2
12.8543 59.1164 0.0298632
10.9835 64.0165 2
12.6808 62.2996 0.0185305
12.7746 65.6939 0
15.1796 20.2064 3.96366
16.4272 18.6729 2
14.761 17.3221 3.96543
17.6821 17.177 0.0302511
16.1089 15.7955 2
14.4859 14.2997 3.97402
17.5147 14.3858 0.0247203
16.0216 12.8152 2
14.4457 11.1153 3.98714
17.6398 11.4607 0.020432
16.2009 9.66585 2
14.6715 7.74927 4
18.0518 8.34051 0.0109775
16.6661 6.31988 2
18.75 5.0241 0
25.9094 34.3085 3.98703
27.9268 34.8238 2
29.5535 35.178 0.120765
17.9598 22.3589 3.97115
15.6227 22.9497 3.96812
16.746 21.4062 2
20.913 19.4076 0.0291295
18.0336 19.9706 0.0406394
19.8053 21.6111 2
19.8667 24.435 3.97086
22.4315 21.7641 0.0217766
24.8167 23.2122 0.026183
23.0288 24.6545 2
22.2623 27.8922 3.97337
24.2461 31.2636 3.9767
24.9077 28.5888 2
25.6932 26.0037 0.0218866
26.6709 31.7527 2
28.8393 32.4368 0.0753936
27.3538 29.1984 -0.00741348
22.9994 36.2885 3.98254
25.2315 36.8633 2
27.4156 37.368 0.0727651
25.7323 43.0995 0.0117418
24.5622 39.4533 0.0253468
23.4436 41.8132 2
22.2702 38.5199 2
21.169 40.6338 3.97542
20.556 37.8034 3.97696
22.2871 43.8697 0.0223763
20.122 42.8521 2
17.696 42.0645 3.97631
19.2863 44.9146 0.0226029
17.2341 44.3364 2
15.0775 44.1673 3.97618
16.8535 46.1683 0.0229139
15.0414 46.0565 2
13.1151 46.2715 3.97419
15.0951 47.6364 0.0242614
13.4242 47.9825 2
11.5621 48.5337 3.96933
13.9018 49.5193 0.0287651
12.182 50.2353 2
10.2845 51.0742 3.9663
12.9559 51.8558 0.0330022
11.1568 52.829 2
9.23924 53.8868 3.96933
8.38561 56.9812 3.97921
10.3312 55.7059 2
12.1577 54.5184 0.0344518
7.74927 60.3285 4
9.70095 58.8439 2
11.54 57.4514 0.0303807
9.306 62.2255 2
11.1356 60.6253 0.0205765
10.9835 64.0165 0
14.0084 21.7727 3.96492
15.1796 20.2063 2
13.4624 18.9162 3.96589
16.4268 18.673 0.0359846
14.7617 17.3218 2
13.0335 15.8971 3.97114
16.1087 15.7968 0.0280713
14.4852 14.2991 2
12.7835 12.6894 3.98476
16.022 12.8156 0.0229454
14.4437 11.1178 2
12.7746 9.30605 4
16.2029 9.66379 0.0117024
14.6715 7.74924 2
16.6661 6.31991 0
23.5867 33.847 3.98374
25.8847 34.3005 2
27.9493 34.8151 0.0826217
17.8034 24.0864 3.9699
17.9617 22.3592 2
14.4579 24.4838 3.96985
15.6238 22.95 2
16.7459 21.4061 0.0346561
19.3282 27.2634 3.97221
19.8054 21.6116 0.031716
19.8626 24.435 2
21.6065 30.7357 3.97563
23.0317 24.6547 0.0264224
22.2695 27.8941 2
24.2244 31.2641 2
24.8959 28.5876 0.021122
26.6887 31.7856 0.0194813
20.6777 35.9552 3.97662
22.9999 36.2879 2
25.2459 36.859 0.0206214
23.4558 41.8139 0.0196276
22.2789 38.5222 0.0222477
21.1751 40.6339 2
20.5546 37.8018 2
18.4414 39.003 3.97717
20.1235 42.8507 0.0234263
17.6964 42.0646 2
15.062 41.8904 3.97672
17.2327 44.3363 0.0233053
15.0787 44.1669 2
12.8772 44.3707 3.97514
15.0401 46.0571 0.0239416
13.1167 46.271 2
11.074 46.7188 3.97021
13.423 47.9831 0.0269595
11.563 48.5333 2
9.55061 49.2346 3.96646
12.1812 50.2357 0.0317491
10.2849 51.0738 2
8.27206 52.0008 3.96909
11.1563 52.8293 0.0340092
9.23983 53.886 2
7.19457 55.0321 3.98006
6.31991 58.3339 4
8.3847 56.9775 2
10.3305 55.7065 0.030581
7.74924 60.3285 2
9.7022 58.8477 0.0214902
9.30605 62.2254 0
13.3457 25.3894 3.97295
12.9017 23.3025 3.96721
14.0074 21.7726 2
12.2492 20.5614 3.96571
15.1796 20.2064 0.0363397
13.4637 18.9161 2
11.6644 17.5751 3.9705
14.761 17.3221 0.034574
13.0341 15.8962 2
11.2219 14.3756 3.98002
14.4859 14.2997 0.0259838
12.7812 12.6923 2
10.9835 10.9835 4
14.4457 11.1153 0.0128587
12.7745 9.306 2
14.6715 7.74927 0
21.0415 33.454 3.97579
23.5867 33.8438 2
25.9094 34.3085 0.0129723
16.1256 26.4448 3.97231
17.8037 24.0866 2
17.9598 22.3589 0.0288467
14.4581 24.4843 2
15.6227 22.9497 0.0318763
18.7149 30.2325 3.97482
19.3257 27.2639 2
19.8667 24.435 0.0291439
21.6119 30.7362 2
22.2623 27.8922 0.026633
24.2461 31.2636 0.0232983
18.0535 35.9866 3.97792
20.6792 35.9558 2
22.9994 36.2885 0.0174614
21.169 40.6338 0.0245817
20.556 37.8034 0.023044
18.4394 39.0028 2
14.5682 39.1693 3.97746
17.696 42.0645 0.0236866
15.0629 41.8901 2
12.5716 42.2611 3.97627
15.0775 44.1673 0.023824
12.8785 44.3703 2
10.6608 44.7896 3.9713
13.1151 46.2715 0.0258077
11.0751 46.7184 2
8.93552 47.3141 3.96667
11.5621 48.5337 0.0306687
9.55075 49.2342 2
7.43891 50.0345 3.9687
10.2845 51.0742 0.0337039
8.27247 52 2
6.13521 53.0074 3.98044
9.23924 53.8868 0.0306734
7.19403 55.0291 2
5.0241 56.25 4
6.31988 58.3339 2
8.38561 56.9812 0.0207872
7.74927 60.3285 0
13.6126 26.8435 3.97241
12.012 24.807 3.96915
13.3451 25.3897 2
11.1627 22.2445 3.96595
12.9021 23.3028 2
14.0084 21.7727 0.0350845
12.2503 20.5614 2
10.3955 19.3264 3.96978
13.4624 18.9162 0.034108
11.6656 17.5753 2
9.76279 16.1594 3.97855
13.0335 15.8971 0.0288624
11.2198 14.3797 2
9.30607 12.7746 4
12.7835 12.6894 0.0152428
10.9835 10.9835 2
12.7746 9.30605 0
18.2256 33.1616 3.977
21.0422 33.4558 2
23.5867 33.847 0.0162644
15.749 29.6784 3.97517
16.1255 26.4455 2
17.8034 24.0864 0.0300999
14.4579 24.4838 0.0301453
18.714 30.2333 2
19.3282 27.2634 0.0277909
21.6065 30.7357 0.0243695
15.1882 36.0359 3.97763
18.0536 35.9865 2
20.6777 35.9552 0.0233799
12.8014 37.8307 3.97773
18.4414 39.003 0.0228275
14.5688 39.1691 2
12.0751 40.1327 3.97708
15.062 41.8904 0.0232754
12.5728 42.2606 2
10.267 42.7681 3.97141
12.8772 44.3707 0.0248583
10.6618 44.7893 2
8.41459 45.3166 3.96705
11.074 46.7188 0.0297929
8.93524 47.3138 2
6.73004 47.9999 3.96845
9.55061 49.2346 0.033544
7.43916 50.0338 2
5.21201 50.9108 3.98014
8.27206 52.0008 0.0309107
6.13494 53.0054 2
3.86727 54.0858 4
7.19457 55.0321 0.0199354
5.02404 56.25 2
6.31991 58.3339 0
13.0903 29.0605 3.97215
11.4563 26.5062 3.96963
13.6123 26.8438 2
10.2238 23.9759 3.96671
12.0133 24.8074 2
13.3457 25.3894 0.0270513
9.24782 21.1424 3.96919
11.163 22.2447 2
12.9017 23.3025 0.0327947
12.2492 20.5614 0.0342923
10.3967 19.3269 2
8.41843 18.0302 3.97875
11.6644 17.5751 0.0295033
9.76129 16.164 2
7.74928 14.6715 4
11.2219 14.3756 0.0199831
9.30602 12.7745 2
10.9835 10.9835 0
14.7417 32.8951 3.97696
18.224 33.1613 2
21.0415 33.454 0.0242077
15.7504 29.6791 2
16.1256 26.4448 0.0276884
18.7149 30.2325 0.0251836
13.0938 36.2198 3.97729
15.1881 36.0358 2
18.0535 35.9866 0.022084
12.8034 37.8303 2
11.4187 38.3087 3.97722
14.5682 39.1693 0.022542
12.0776 40.1323 2
9.85086 40.7483 3.97182
12.5716 42.2611 0.0237318
10.2687 42.7678 2
7.96462 43.2664 3.96749
10.6608 44.7896 0.028698
8.41496 45.3163 2
6.13608 45.9051 3.96832
8.93552 47.3141 0.0333309
6.73026 47.9993 2
4.42348 48.7515 3.97955
7.43891 50.0345 0.0312967
5.21192 50.9097 2
2.85457 51.8506 4
6.13521 53.0074 0.0195561
3.86727 54.0858 2
5.0241 56.25 0
12.2336 31.2789 3.97326
10.8783 28.4326 3.96989
13.0916 29.061 2
9.44164 25.8053 3.96707
11.4572 26.5066 2
13.6126 26.8435 0.0275914
8.23458 23.0257 3.96911
10.2242 23.9762 2
12.012 24.807 0.0308523
7.2005 19.9797 3.97955
9.24891 21.1431 2
11.1627 22.2445 0.0340454
10.3955 19.3264 0.0302202
8.41758 18.0346 2
6.31992 16.6661 4
9.76279 16.1594 0.0214476
7.74926 14.6714 2
9.30607 12.7746 0
12.2603 34.3118 3.97725
14.7429 32.8959 2
18.2256 33.1616 0.0230045
15.749 29.6784 0.0248278
10.9668 36.6156 3.97682
13.0952 36.2197 2
15.1882 36.0359 0.0223692
12.8014 37.8307 0.0222653
11.4215 38.3085 2
9.43717 38.8214 3.97241
12.0751 40.1327 0.0229175
9.85216 40.7481 2
7.57514 41.2092 3.968
10.267 42.7681 0.0285949
7.96396 43.2662 2
5.64779 43.7681 3.96844
8.41459 45.3166 0.0329512
6.13624 45.9046 2
3.76902 46.5371 3.97916
6.73004 47.9999 0.031552
4.4236 48.7509 2
1.99014 49.554 4
5.21201 50.9108 0.0198561
2.85451 51.8506 2
3.86727 54.0858 0
11.0565 32.9342 3.97517
10.1936 30.3969 3.97047
12.2354 31.2795 2
8.75362 27.7385 3.96717
10.8793 28.4329 2
13.0903 29.0605 0.0278491
7.35994 24.9839 3.96887
9.44171 25.8055 2
11.4563 26.5062 0.0303657
6.11745 22.0027 3.98031
8.23526 23.0263 2
10.2238 23.9759 0.0332918
5.02411 18.75 4
7.20013 19.9831 2
9.24782 21.1424 0.0308148
8.41843 18.0302 0.021248
6.3199 16.6661 2
7.74928 14.6715 0
10.5661 35.0083 3.97606
12.2626 34.3123 2
14.7417 32.8951 0.0230377
9.09915 36.9864 3.973
10.9692 36.6156 2
13.0938 36.2198 0.0227149
11.4187 38.3087 0.0227832
9.43862 38.8213 2
7.25215 39.1815 3.96837
9.85086 40.7483 0.0281795
7.57528 41.209 2
5.26272 41.6139 3.96853
7.96462 43.2664 0.0325131
5.6479 43.7677 2
3.24668 44.2818 3.97928
6.13608 45.9051 0.0316764
3.76923 46.5367 2
1.27781 47.2057 4
4.42348 48.7515 0.0204509
1.99012 49.554 2
2.85457 51.8506 0
10.2034 33.8917 3.97618
9.47481 32.1653 3.97135
11.0586 32.9346 2
8.10023 29.7009 3.96758
10.1949 30.3973 2
12.2336 31.2789 0.0267377
6.60343 27.0095 3.96872
8.75322 27.7387 2
10.8783 28.4326 0.0301125
5.17282 24.0952 3.98025
7.3603 24.9845 2
9.44164 25.8053 0.0329323
3.86728 20.9142 4
6.11732 22.0047 2
8.23458 23.0257 0.0308942
5.02406 18.75 2
7.2005 19.9797 0.0204502
6.31992 16.6661 0
8.91997 35.284 3.97314
10.568 35.0085 2
12.2603 34.3118 0.0227486
7.03116 37.2065 3.96832
9.10048 36.9863 2
10.9668 36.6156 0.0231793
9.43717 38.8214 0.027593
7.25265 39.1813 2
4.99029 39.4674 3.96869
7.57514 41.2092 0.031995
5.26319 41.6136 2
2.85704 42.0021 3.97942
5.64779 43.7681 0.0315603
3.24676 44.2815 2
0.720592 44.8159 4
3.76902 46.5371 0.0208449
1.27778 47.2057 2
1.99014 49.554 0
8.9611 33.7051 3.97265
10.2051 33.892 2
7.53425 31.6132 3.96794
9.47635 32.1656 2
11.0565 32.9342 0.0248279
5.9483 29.0703 3.96884
8.09969 29.7011 2
10.1936 30.3969 0.0295263
4.36045 26.2476 3.97978
6.6036 27.0099 2
8.75362 27.7385 0.0328324
2.85458 23.1494 4
5.17283 24.0961 2
7.35994 24.9839 0.031127
3.86728 20.9142 2
6.11745 22.0027 0.0196873
5.02411 18.75 0
6.97933 35.3078 3.96827
8.92132 35.284 2
10.5661 35.0083 0.0239435
4.84043 37.3399 3.96904
7.03178 37.2065 2
9.09915 36.9864 0.0270027
7.25215 39.1815 0.0316322
4.99076 39.4673 2
2.60506 39.7137 3.97941
5.26272 41.6139 0.0314656
2.85741 42.002 2
0.320823 42.3947 4
3.24668 44.2818 0.0207156
0.720551 44.8159 2
1.27781 47.2057 0
7.14329 33.4637 3.96814
8.96219 33.7053 2
10.2034 33.8917 0.0238232
5.41886 31.134 3.96913
7.53414 31.6134 2
9.47481 32.1653 0.0286492
3.68205 28.4435 3.97948
5.94846 29.0707 2
8.10023 29.7009 0.0324169
1.99015 25.446 4
4.36055 26.2479 2
6.60343 27.0095 0.0312771
2.85453 23.1494 2
5.17282 24.0952 0.0197536
3.86728 20.9142 0
4.85476 35.2518 3.96909
6.97935 35.3078 2
8.91997 35.284 0.0268589
2.4965 37.4284 3.98009
4.84046 37.34 2
7.03116 37.2065 0.0316808
4.99029 39.4674 0.031309
2.60553 39.7141 2
0.080333 39.9526 4
2.85704 42.0021 0.0205774
0.320817 42.3947 2
0.720592 44.8159 0
5.04815 33.1905 3.96915
7.1433 33.4638 2
8.9611 33.7051 0.0273471
3.14623 30.6662 3.97956
5.41903 31.1344 2
7.53425 31.6132 0.0320585
1.27793 27.7943 4
3.68227 28.4437 2
5.9483 29.0703 0.031157
1.99013 25.446 2
4.36045 26.2476 0.0202196
2.85458 23.1494 0
2.54861 35.159 3.97986
4.85533 35.252 2
6.97933 35.3078 0.0317332
0 37.5 4
2.49654 37.4288 2
4.84043 37.3399 0.0309629
2.60506 39.7137 0.0205895
0.0802903 39.9526 2
0.320823 42.3947 0
2.76624 32.9057 3.98002
5.04832 33.1909 2
7.14329 33.4637 0.0318594
0.721173 30.1842 4
3.14649 30.6666 2
5.41886 31.134 0.030873
1.27779 27.7943 2
3.68205 28.4435 0.0205229
1.99015 25.446 0
0.0806499 35.0474 4
2.54916 35.1594 2
4.85476 35.2518 0.0309146
0 37.5 2
2.4965 37.4284 0.0199057
0.080333 39.9526 0
0.32156 32.6054 4
2.76636 32.9063 2
5.04815 33.1905 0.0308523
0.72056 30.1841 2
3.14623 30.6662 0.0204425
1.27793 27.7943 0
0.0802889 35.0474 2
2.54861 35.159 0.0201399
0 37.5 0
0.320817 32.6053 2
2.76624 32.9057 0.0199826
0.721173 30.1842 0
0.0806499 35.0474 0
0.32156 32.6054 0
CELLS 1910 17190
8 18 6 25 56 2 0 5 16
8 57 23 6 18 17 4 0 2
8 78 36 9 29 31 11 1 7
8 31 11 1 7 79 37 10 30
8 110 57 18 50 48 17 2 14
8 50 18 56 111 14 2 16 49
8 116 62 22 55 52 20 3 15
8 56 25 67 118 16 5 24 53
8 119 63 23 57 54 21 4 17
8 55 22 63 119 15 3 21 54
8 58 26 68 121 18 6 25 56
8 122 65 26 58 57 23 6 18
8 73 31 7 27 142 79 30 71
8 143 78 29 72 73 31 7 27
8 83 147 76 34 32 74 28 8
8 84 148 78 36 33 75 29 9
8 76 34 8 28 148 84 33 75
8 37 79 150 86 10 30 77 35
8 151 87 36 78 80 38 11 31
8 80 38 11 31 152 88 37 79
8 175 100 42 94 96 44 12 40
8 44 96 176 101 12 40 95 43
8 101 176 98 46 43 95 41 13
8 46 98 178 103 13 41 97 45
8 178 103 45 97 147 83 32 74
8 189 116 55 109 106 52 15 47
8 111 56 118 191 49 16 53 107
8 192 119 57 110 108 54 17 48
8 109 55 119 192 47 15 54 108
8 194 122 58 112 110 57 18 50
8 112 58 121 195 50 18 56 111
8 115 61 19 51 197 124 59 113
8 115 61 125 198 51 19 60 114
8 198 125 62 116 114 60 20 52
8 200 127 64 120 116 62 22 55
8 118 67 132 202 53 24 66 117
8 121 68 133 203 56 25 67 118
8 120 64 128 204 55 22 63 119
8 204 128 65 122 119 63 23 57
8 206 134 68 121 123 69 26 58
8 123 69 26 58 207 131 65 122
8 226 147 74 138 140 76 28 70
8 229 148 75 139 143 78 29 72
8 140 76 28 70 229 148 75 139
8 142 79 30 71 231 150 77 141
8 144 80 31 73 232 152 79 142
8 233 151 78 143 144 80 31 73
8 150 86 35 77 235 154 81 145
8 235 154 81 145 146 82 39 91
8 146 82 39 91 236 155 90 165
8 238 157 83 147 149 85 34 76
8 239 158 84 148 151 87 36 78
8 149 85 34 76 239 158 84 148
8 152 88 37 79 241 160 86 150
8 242 161 87 151 153 89 38 80
8 153 89 38 80 243 162 88 152
8 171 98 41 92 265 178 97 169
8 265 178 97 169 226 147 74 138
8 172 96 40 93 266 176 95 170
8 266 176 95 170 171 98 41 92
8 269 175 94 173 172 96 40 93
8 271 180 99 174 175 100 42 94
8 197 124 59 113 271 180 99 174
8 272 181 100 175 177 102 44 96
8 273 182 101 176 179 104 46 98
8 177 102 44 96 273 182 101 176
8 179 104 46 98 275 184 103 178
8 275 184 103 178 238 157 83 147
8 188 115 51 105 283 197 113 186
8 188 115 198 284 105 51 114 187
8 284 198 116 189 187 114 52 106
8 286 200 120 193 189 116 55 109
8 191 118 202 288 107 53 117 190
8 195 121 203 289 111 56 118 191
8 193 120 204 290 109 55 119 192
8 290 204 122 194 192 119 57 110
8 196 123 58 112 292 207 122 194
8 293 206 121 195 196 123 58 112
8 199 126 61 115 297 211 124 197
8 298 212 127 200 198 125 62 116
8 199 126 212 298 115 61 125 198
8 205 129 64 120 300 214 127 200
8 301 217 130 201 202 132 66 117
8 209 136 168 264 301 217 130 201
8 302 219 132 202 203 133 67 118
8 303 220 133 203 206 134 68 121
8 205 129 215 304 120 64 128 204
8 304 215 131 207 204 128 65 122
8 306 221 134 206 208 135 69 123
8 208 135 69 123 307 218 131 207
8 210 137 167 263 309 223 136 209
8 328 238 147 226 230 149 76 140
8 228 146 91 166 329 236 165 260
8 231 150 77 141 330 235 145 227
8 330 235 145 227 228 146 91 166
8 332 239 148 229 233 151 78 143
8 230 149 76 140 332 239 148 229
8 232 152 79 142 334 241 150 231
8 234 153 80 144 335 243 152 232
8 336 242 151 233 234 153 80 144
8 236 155 90 165 338 245 164 259
8 241 160 86 150 339 246 154 235
8 339 246 154 235 237 156 82 146
8 237 156 82 146 340 247 155 236
8 342 249 157 238 240 159 85 149
8 343 250 158 239 242 161 87 151
8 240 159 85 149 343 250 158 239
8 243 162 88 152 345 252 160 241
8 244 163 253 346 153 89 161 242
8 244 163 89 153 347 254 162 243
8 311 224 261 371 210 137 167 263
8 263 167 262 372 209 136 168 264
8 267 179 98 171 375 275 178 265
8 375 275 178 265 328 238 147 226
8 376 273 176 266 267 179 98 171
8 268 177 96 172 376 273 176 266
8 379 272 175 269 268 177 96 172
8 380 271 174 270 269 175 94 173
8 283 197 113 186 380 271 174 270
8 381 277 180 271 272 181 100 175
8 297 211 124 197 381 277 180 271
8 382 278 181 272 274 183 102 177
8 274 183 102 177 383 279 182 273
8 383 279 182 273 276 185 104 179
8 385 281 184 275 342 249 157 238
8 276 185 104 179 385 281 184 275
8 285 199 115 188 393 297 197 283
8 394 298 200 286 284 198 116 189
8 285 199 298 394 188 115 198 284
8 291 205 120 193 396 300 200 286
8 397 301 201 287 288 202 117 190
8 295 209 264 374 397 301 201 287
8 398 302 202 288 289 203 118 191
8 399 303 203 289 293 206 121 195
8 291 205 304 400 193 120 204 290
8 400 304 207 292 290 204 122 194
8 294 208 123 196 402 307 207 292
8 403 306 206 293 294 208 123 196
8 296 210 263 373 405 309 209 295
8 408 312 213 299 297 211 126 199
8 299 213 313 409 199 126 212 298
8 409 313 214 300 298 212 127 200
8 305 216 129 205 411 315 214 300
8 412 318 217 301 302 219 132 202
8 309 223 136 209 412 318 217 301
8 413 320 219 302 303 220 133 203
8 306 221 321 414 206 134 220 303
8 307 218 131 207 415 316 215 304
8 305 216 316 415 205 129 215 304
8 417 322 221 306 308 222 135 208
8 308 222 135 208 418 319 218 307
8 310 225 137 210 420 325 223 309
8 423 326 224 311 310 225 137 210
8 329 236 165 260 441 338 259 368
8 442 342 238 328 333 240 149 230
8 331 237 146 228 443 340 236 329
8 334 241 150 231 444 339 235 330
8 444 339 235 330 331 237 146 228
8 446 343 239 332 336 242 151 233
8 333 240 149 230 446 343 239 332
8 335 243 152 232 448 345 241 334
8 337 244 153 234 449 347 243 335
8 337 244 346 450 234 153 242 336
8 338 245 164 259 452 349 258 367
8 340 247 155 236 453 350 245 338
8 345 252 160 241 454 351 246 339
8 454 351 246 339 341 248 156 237
8 341 248 156 237 455 352 247 340
8 240 159 251 344 342 249 354 457
8 242 161 253 346 343 250 355 458
8 343 250 355 458 240 159 251 344
8 347 254 162 243 460 357 252 345
8 348 255 358 461 244 163 253 346
8 348 255 163 244 462 359 254 347
8 473 360 257 365 363 256 364 482
8 452 349 258 367 365 257 366 485
8 422 324 369 488 311 224 261 371
8 371 261 370 490 263 167 262 372
8 407 311 371 491 296 210 263 373
8 373 263 372 492 295 209 264 374
8 493 385 275 375 442 342 238 328
8 377 276 179 267 493 385 275 375
8 378 274 177 268 494 383 273 376
8 494 383 273 376 377 276 179 267
8 497 382 272 379 378 274 177 268
8 498 381 271 380 379 272 175 269
8 393 297 197 283 498 381 271 380
8 499 387 277 381 382 278 181 272
8 408 312 211 297 499 387 277 381
8 500 388 278 382 384 280 183 274
8 501 389 279 383 386 282 185 276
8 384 280 183 274 501 389 279 383
8 386 282 185 276 503 391 281 385
8 503 391 281 385 457 354 249 342
8 511 408 299 395 393 297 199 285
8 395 299 409 512 285 199 298 394
8 512 409 300 396 394 298 200 286
8 401 305 205 291 514 411 300 396
8 515 412 301 397 398 302 202 288
8 405 309 209 295 515 412 301 397
8 516 413 302 398 399 303 203 289
8 403 306 414 517 293 206 303 399
8 402 307 207 292 518 415 304 400
8 401 305 415 518 291 205 304 400
8 404 308 208 294 520 418 307 402
8 521 417 306 403 404 308 208 294
8 406 310 210 296 523 420 309 405
8 526 423 311 407 406 310 210 296
8 410 314 213 299 527 424 312 408
8 528 425 315 411 409 313 214 300
8 410 314 425 528 299 213 313 409
8 416 317 216 305 530 427 315 411
8 531 430 318 412 413 320 219 302
8 420 325 223 309 531 430 318 412
8 532 432 320 413 414 321 220 303
8 417 322 433 533 306 221 321 414
8 418 319 218 307 534 428 316 415
8 416 317 428 534 305 216 316 415
8 419 323 434 536 308 222 322 417
8 419 323 222 308 537 431 319 418
8 421 327 225 310 539 438 325 420
8 421 327 439 541 310 225 326 423
8 543 437 324 422 423 326 224 311
8 441 338 259 368 559 452 367 486
8 443 340 236 329 560 453 338 441
8 333 240 344 447 442 342 457 561
8 445 341 237 331 562 455 340 443
8 448 345 241 334 563 454 339 444
8 563 454 339 444 445 341 237 331
8 336 242 346 450 446 343 458 565
8 446 343 458 565 333 240 344 447
8 449 347 243 335 567 460 345 448
8 451 348 244 337 568 462 347 449
8 451 348 461 569 337 244 346 450
8 570 463 349 452 473 360 257 365
8 453 350 245 338 570 463 349 452
8 455 352 247 340 571 464 350 453
8 460 357 252 345 572 465 351 454
8 572 465 351 454 456 353 248 341
8 456 353 248 341 573 466 352 455
8 344 251 356 459 457 354 468 575
8 458 355 469 576 344 251 356 459
8 346 253 358 461 458 355 469 576
8 462 359 254 347 578 471 357 460
8 348 255 359 462 461 358 472 579
8 591 474 360 473 475 361 256 363
8 475 361 256 363 594 477 362 479
8 363 256 364 482 479 362 480 603
8 590 473 365 484 481 363 482 605
8 482 364 257 365 606 483 366 485
8 559 452 367 486 484 365 485 607
8 542 436 487 609 422 324 369 488
8 525 422 488 611 407 311 371 491
8 488 369 489 612 371 261 370 490
8 491 371 490 613 373 263 372 492
8 495 386 276 377 614 503 385 493
8 614 503 385 493 561 457 342 442
8 615 501 383 494 495 386 276 377
8 496 384 274 378 615 501 383 494
8 618 500 382 497 496 384 274 378
8 619 499 381 498 497 382 272 379
8 511 408 297 393 619 499 381 498
8 620 505 387 499 500 388 278 382
8 527 424 312 408 620 505 387 499
8 502 390 506 621 384 280 388 500
8 622 507 389 501 504 392 282 386
8 502 390 280 384 622 507 389 501
8 504 392 282 386 624 509 391 503
8 624 509 391 503 575 468 354 457
8 513 410 299 395 630 527 408 511
8 631 528 411 514 512 409 300 396
8 513 410 528 631 395 299 409 512
8 519 416 305 401 633 530 411 514
8 634 531 412 515 516 413 302 398
8 523 420 309 405 634 531 412 515
8 635 532 413 516 517 414 303 399
8 521 417 533 636 403 306 414 517
8 520 418 307 402 637 534 415 518
8 519 416 534 637 401 305 415 518
8 522 419 308 404 639 537 418 520
8 522 419 536 640 404 308 417 521
8 524 421 310 406 642 539 420 523
8 524 421 541 644 406 310 423 526
8 646 543 422 525 526 423 311 407
8 529 426 314 410 647 544 424 527
8 528 425 545 648 411 315 427 530
8 529 426 545 648 410 314 425 528
8 535 429 317 416 649 546 427 530
8 650 548 430 531 532 432 320 413
8 539 438 325 420 650 548 430 531
8 533 433 550 651 414 321 432 532
8 536 434 551 652 417 322 433 533
8 537 431 319 418 653 547 428 534
8 535 429 547 653 416 317 428 534
8 538 435 552 654 419 323 434 536
8 538 435 323 419 655 549 431 537
8 540 440 327 421 657 556 438 539
8 540 440 557 659 421 327 439 541
8 541 439 555 660 423 326 437 543
8 661 554 436 542 543 437 324 422
8 676 570 452 559 590 473 365 484
8 560 453 338 441 676 570 452 559
8 562 455 340 443 677 571 453 560
8 447 344 459 566 561 457 575 678
8 564 456 341 445 679 573 455 562
8 567 460 345 448 680 572 454 563
8 680 572 454 563 564 456 341 445
8 565 458 576 682 447 344 459 566
8 450 346 461 569 565 458 576 682
8 568 462 347 449 684 578 460 567
8 451 348 462 568 569 461 579 685
8 686 580 463 570 591 474 360 473
8 571 464 350 453 686 580 463 570
8 573 466 352 455 687 581 464 571
8 572 465 582 688 460 357 471 578
8 574 467 582 688 456 353 465 572
8 574 467 353 456 689 583 466 573
8 459 356 470 577 575 468 585 691
8 576 469 586 692 459 356 470 577
8 461 358 472 579 576 469 586 692
8 462 359 471 578 579 472 588 694
8 704 591 473 590 593 475 363 481
8 595 476 592 705 475 361 474 591
8 593 475 363 481 707 594 479 602
8 594 477 362 479 709 598 478 600
8 595 476 361 475 711 597 477 594
8 479 362 480 603 600 478 601 720
8 481 363 482 605 602 479 603 722
8 603 480 364 482 723 604 483 606
8 605 482 365 484 724 606 485 607
8 656 553 608 726 542 436 487 609
8 645 542 609 728 525 422 488 611
8 609 487 610 729 488 369 489 612
8 611 488 612 730 491 371 490 613
8 616 504 386 495 731 624 503 614
8 731 624 503 614 678 575 457 561
8 732 622 501 615 616 504 386 495
8 617 502 384 496 732 622 501 615
8 617 502 621 735 496 384 500 618
8 736 620 499 619 618 500 382 497
8 630 527 408 511 736 620 499 619
8 621 506 626 737 500 388 505 620
8 647 544 424 527 737 626 505 620
8 623 508 627 738 502 390 506 621
8 623 508 390 502 739 628 507 622
8 625 510 628 739 504 392 507 622
8 740 629 509 624 691 585 468 575
8 625 510 392 504 740 629 509 624
8 632 529 410 513 744 647 527 630
8 631 528 648 745 514 411 530 633
8 632 529 648 745 513 410 528 631
8 638 535 416 519 746 649 530 633
8 747 650 531 634 635 532 413 516
8 642 539 420 523 747 650 531 634
8 636 533 651 748 517 414 532 635
8 640 536 652 749 521 417 533 636
8 639 537 418 520 750 653 534 637
8 638 535 653 750 519 416 534 637
8 641 538 419 522 751 655 537 639
8 641 538 654 752 522 419 536 640
8 643 540 421 524 753 657 539 642
8 643 540 659 755 524 421 541 644
8 644 541 660 757 526 423 543 646
8 758 661 542 645 646 543 422 525
8 529 426 544 647 648 545 662 759
8 530 427 545 648 649 546 663 760
8 535 429 546 649 653 547 664 761
8 762 666 548 650 651 550 432 532
8 657 556 438 539 762 666 548 650
8 652 551 668 763 533 433 550 651
8 654 552 669 764 536 434 551 652
8 655 549 431 537 765 665 547 653
8 538 435 549 655 654 552 667 766
8 661 554 671 768 542 436 553 656
8 658 558 440 540 769 674 556 657
8 658 558 675 770 540 440 557 659
8 659 557 673 771 541 439 555 660
8 660 555 672 772 543 437 554 661
8 788 686 570 676 704 591 473 590
8 677 571 453 560 788 686 570 676
8 679 573 455 562 789 687 571 677
8 566 459 577 683 678 575 691 790
8 681 574 456 564 791 689 573 679
8 680 572 688 792 567 460 578 684
8 681 574 688 792 564 456 572 680
8 682 576 692 794 566 459 577 683
8 569 461 579 685 682 576 692 794
8 568 462 578 684 685 579 694 796
8 687 581 464 571 798 696 580 686
8 798 696 580 686 705 592 474 591
8 689 583 466 573 799 697 581 687
8 688 582 698 800 578 471 588 694
8 690 584 698 800 574 467 582 688
8 690 584 467 574 801 699 583 689
8 693 587 701 803 577 470 585 691
8 693 587 470 577 804 702 586 692
8 695 589 702 804 579 472 586 692
8 695 589 472 579 805 703 588 694
8 708 595 705 813 593 475 591 704
8 710 596 706 814 595 476 592 705
8 707 594 479 602 816 709 600 719
8 708 595 475 593 817 711 594 707
8 709 598 478 600 819 715 599 717
8 711 597 477 594 820 714 598 709
8 710 596 476 595 822 713 597 711
8 600 478 601 720 717 599 718 832
8 602 479 603 722 719 600 720 834
8 720 601 480 603 835 721 604 723
8 722 603 482 605 836 723 606 724
8 767 670 725 839 656 553 608 726
8 756 656 726 841 645 542 609 728
8 726 608 727 842 609 487 610 729
8 728 609 729 843 611 488 612 730
8 844 740 624 731 790 691 575 678
8 733 625 504 616 844 740 624 731
8 734 623 502 617 845 739 622 732
8 733 625 739 845 616 504 622 732
8 734 623 738 846 617 502 621 735
8 735 621 737 847 618 500 620 736
8 744 647 527 630 847 737 620 736
8 621 506 627 738 737 626 741 848
8 647 544 626 737 759 662 741 848
8 623 508 628 739 738 627 742 849
8 740 629 585 691 850 743 700 802
8 625 510 629 740 739 628 743 850
8 632 529 647 744 745 648 759 854
8 633 530 648 745 746 649 760 855
8 638 535 649 746 750 653 761 856
8 857 762 650 747 748 651 532 635
8 753 657 539 642 857 762 650 747
8 749 652 763 858 636 533 651 748
8 752 654 764 859 640 536 652 749
8 751 655 537 639 860 765 653 750
8 641 538 655 751 752 654 766 861
8 754 658 540 643 862 769 657 753
8 754 658 770 863 643 540 659 755
8 755 659 771 864 644 541 660 757
8 758 661 768 866 645 542 656 756
8 757 660 772 867 646 543 661 758
8 759 662 773 868 648 545 663 760
8 649 546 663 760 761 664 774 871
8 765 665 547 653 872 775 664 761
8 873 777 666 762 763 668 550 651
8 769 674 556 657 873 777 666 762
8 764 669 779 874 652 551 668 763
8 654 552 667 766 764 669 778 875
8 655 549 665 765 766 667 776 876
8 768 671 782 877 656 553 670 767
8 772 672 783 878 661 554 671 768
8 658 558 674 769 770 675 786 879
8 659 557 675 770 771 673 785 881
8 882 784 672 772 771 673 555 660
8 789 687 571 677 897 798 686 788
8 897 798 686 788 813 705 591 704
8 791 689 573 679 898 799 687 789
8 795 693 803 900 683 577 691 790
8 793 690 574 681 901 801 689 791
8 792 688 800 902 684 578 694 796
8 793 690 800 902 681 574 688 792
8 795 693 577 683 903 804 692 794
8 797 695 804 903 685 579 692 794
8 797 695 579 685 904 805 694 796
8 905 806 697 799 798 696 581 687
8 814 706 806 905 705 592 696 798
8 689 583 697 799 801 699 808 907
8 800 698 809 908 694 588 703 805
8 690 584 699 801 800 698 809 908
8 803 701 810 909 691 585 700 802
8 693 587 702 804 803 701 811 910
8 695 589 703 805 804 702 812 911
8 818 710 814 919 708 595 705 813
8 821 712 815 920 710 596 706 814
8 816 709 600 719 922 819 717 831
8 817 711 594 707 923 820 709 816
8 818 710 595 708 924 822 711 817
8 819 715 599 717 926 827 716 829
8 820 714 598 709 927 826 715 819
8 929 825 713 822 820 714 597 711
8 821 712 596 710 930 824 713 822
8 717 599 718 832 829 716 830 942
8 719 600 720 834 831 717 832 944
8 832 718 601 720 945 833 721 835
8 834 720 603 722 946 835 723 836
8 869 780 838 950 767 670 725 839
8 865 767 839 952 756 656 726 841
8 839 725 840 953 726 608 727 842
8 841 726 842 954 728 609 729 843
8 844 740 691 790 955 850 802 899
8 733 625 740 844 845 739 850 955
8 734 623 739 845 846 738 849 956
8 735 621 738 846 847 737 848 957
8 744 647 737 847 854 759 848 957
8 738 627 742 849 848 741 851 958
8 848 741 851 958 759 662 773 868
8 850 743 700 802 959 852 807 906
8 849 742 628 739 959 852 743 850
8 854 759 868 965 745 648 760 855
8 746 649 760 855 856 761 871 966
8 860 765 653 750 967 872 761 856
8 968 873 762 857 858 763 651 748
8 862 769 657 753 968 873 762 857
8 859 764 874 969 749 652 763 858
8 752 654 766 861 859 764 875 970
8 751 655 765 860 861 766 876 971
8 754 658 769 862 863 770 879 972
8 755 659 770 863 864 771 881 974
8 976 882 772 867 864 771 660 757
8 866 768 877 977 756 656 767 865
8 867 772 878 978 758 661 768 866
8 760 663 773 868 871 774 883 980
8 870 781 837 948 982 890 780 869
8 982 890 780 869 877 782 670 767
8 761 664 774 871 872 775 884 984
8 876 776 665 765 985 885 775 872
8 873 777 668 763 986 887 779 874
8 769 674 777 873 879 786 887 986
8 764 669 778 875 874 779 888 987
8 766 667 776 876 875 778 886 988
8 878 783 892 989 768 671 782 877
8 878 783 672 772 990 893 784 882
8 880 787 675 770 991 896 786 879
8 880 787 895 992 770 675 785 881
8 881 785 894 993 771 673 784 882
8 1006 905 799 898 897 798 687 789
8 919 814 905 1006 813 705 798 897
8 791 689 799 898 901 801 907 1007
8 900 803 909 1009 790 691 802 899
8 795 693 804 903 900 803 910 1010
8 902 800 908 1011 796 694 805 904
8 793 690 801 901 902 800 908 1011
8 797 695 805 904 903 804 911 1012
8 799 697 806 905 907 808 912 1013
8 920 815 912 1013 814 706 806 905
8 802 700 810 909 906 807 913 1014
8 801 699 808 907 908 809 914 1015
8 805 703 809 908 911 812 915 1016
8 803 701 811 910 909 810 916 1017
8 911 812 917 1018 804 702 811 910
8 925 821 920 1030 818 710 814 919
8 928 823 921 1031 821 712 815 920
8 922 819 717 831 1033 926 829 941
8 923 820 709 816 1034 927 819 922
8 1035 929 822 924 923 820 711 817
8 925 821 710 818 1036 930 822 924
8 1038 933 825 929 927 826 714 820
8 926 827 716 829 1039 935 828 939
8 927 826 715 819 1040 934 827 926
8 928 823 712 821 1041 931 824 930
8 1042 932 824 930 929 825 713 822
8 829 716 830 942 939 828 940 1058
8 831 717 832 944 941 829 942 1060
8 942 830 718 832 1061 943 833 945
8 944 832 720 834 1062 945 835 946
8 981 889 947 1064 870 781 837 948
8 948 837 949 1067 869 780 838 950
8 975 869 950 1069 865 767 839 952
8 950 838 951 1070 839 725 840 953
8 952 839 953 1071 841 726 842 954
8 955 850 802 899 1072 959 906 1008
8 956 849 739 845 1072 959 850 955
8 846 738 849 956 957 848 958 1073
8 957 848 958 1073 854 759 868 965
8 849 742 852 959 958 851 961 1076
8 960 853 961 1076 906 807 852 959
8 958 851 961 1076 868 773 883 980
8 960 853 807 906 1077 963 913 1014
8 855 760 868 965 966 871 980 1085
8 856 761 871 966 967 872 984 1086
8 971 876 765 860 1087 985 872 967
8 968 873 763 858 1088 986 874 969
8 862 769 873 968 972 879 986 1088
8 859 764 875 970 969 874 987 1089
8 861 766 876 971 970 875 988 1090
8 973 880 770 863 1091 991 879 972
8 973 880 992 1092 863 770 881 974
8 974 881 993 1093 864 771 882 976
8 979 870 948 1066 1094 982 869 975
8 1094 982 869 975 977 877 767 865
8 978 878 772 867 1095 990 882 976
8 978 878 989 1096 866 768 877 977
8 871 774 883 980 984 884 994 1099
8 983 891 999 1100 870 781 889 981
8 1101 1000 890 982 989 892 782 877
8 983 891 781 870 1101 1000 890 982
8 872 775 884 984 985 885 995 1103
8 876 776 885 985 988 886 996 1104
8 986 887 779 874 1105 998 888 987
8 879 786 887 986 991 896 998 1105
8 875 778 886 988 987 888 997 1106
8 990 893 1002 1107 878 783 892 989
8 1108 1003 893 990 993 894 784 882
8 880 787 896 991 992 895 1005 1109
8 993 894 785 881 1110 1004 895 992
8 898 799 905 1006 1007 907 1013 1120
8 1030 920 1013 1120 919 814 905 1006
8 901 801 907 1007 1011 908 1015 1121
8 899 802 909 1009 1008 906 1014 1122
8 900 803 910 1010 1009 909 1017 1123
8 1012 911 1018 1124 903 804 910 1010
8 904 805 908 1011 1012 911 1016 1125
8 1013 912 1020 1127 907 808 914 1015
8 1031 921 1020 1127 920 815 912 1013
8 1019 918 962 1075 1128 1021 913 1014
8 1128 1021 913 1014 1017 916 810 909
8 1015 914 1022 1129 908 809 915 1016
8 1016 915 1023 1130 911 812 917 1018
8 1018 917 1024 1131 910 811 916 1017
8 1037 928 1031 1148 925 821 920 1030
8 928 823 931 1041 1031 921 1032 1149
8 1033 926 829 941 1151 1039 939 1057
8 1034 927 819 922 1152 1040 926 1033
8 1153 1038 929 1035 1034 927 820 923
8 1154 1042 930 1036 1035 929 822 924
8 1037 928 821 925 1155 1041 930 1036
8 1039 935 828 939 1156 1047 938 1055
8 1157 1043 932 1042 1038 933 825 929
8 1038 933 826 927 1158 1045 934 1040
8 1040 934 827 926 1159 1046 935 1039
8 930 824 932 1042 1041 931 1044 1160
8 1051 936 1048 1165 1175 1052 937 1053
8 1156 1047 938 1055 1053 937 1054 1178
8 939 828 940 1058 1055 938 1056 1181
8 941 829 942 1060 1057 939 1058 1183
8 942 830 943 1061 1058 940 1059 1184
8 1060 942 832 944 1185 1061 945 1062
8 1082 964 1063 1188 981 889 947 1064
8 1097 981 1064 1190 979 870 948 1066
8 1064 947 1065 1191 948 837 949 1067
8 1066 948 1067 1193 975 869 950 1069
8 1067 949 1068 1194 950 838 951 1070
8 1069 950 1070 1195 952 839 953 1071
8 956 849 959 1072 1073 958 1076 1197
8 1074 960 1076 1197 1008 906 959 1072
8 1073 958 1076 1197 965 868 980 1085
8 1074 960 906 1008 1198 1077 1014 1122
8 1133 1026 1079 1199 1019 918 962 1075
8 1077 963 913 1014 1200 1080 962 1075
8 960 853 963 1077 1076 961 1078 1201
8 980 883 961 1076 1099 994 1078 1201
8 1210 1083 964 1082 1100 999 889 981
8 966 871 980 1085 1086 984 1099 1215
8 967 872 984 1086 1087 985 1103 1216
8 971 876 985 1087 1090 988 1104 1217
8 1088 986 874 969 1218 1105 987 1089
8 972 879 986 1088 1091 991 1105 1218
8 970 875 988 1090 1089 987 1106 1219
8 973 880 991 1091 1092 992 1109 1220
8 1093 993 881 974 1221 1110 992 1092
8 1222 1108 990 1095 1093 993 882 976
8 1223 1101 982 1094 1096 989 877 977
8 1098 983 870 979 1223 1101 982 1094
8 1095 990 1107 1224 978 878 989 1096
8 1098 983 1100 1225 979 870 981 1097
8 984 884 994 1099 1103 995 1111 1227
8 1102 1001 1115 1228 983 891 999 1100
8 1101 1000 892 989 1229 1116 1002 1107
8 1102 1001 891 983 1229 1116 1000 1101
8 985 885 995 1103 1104 996 1112 1230
8 988 886 996 1104 1106 997 1113 1231
8 1105 998 888 987 1232 1114 997 1106
8 991 896 998 1105 1109 1005 1114 1232
8 1108 1003 1117 1233 990 893 1002 1107
8 1108 1003 894 993 1233 1117 1004 1110
8 992 895 1005 1109 1110 1004 1118 1234
8 1120 1013 1127 1244 1007 907 1015 1121
8 1148 1031 1127 1244 1030 920 1013 1120
8 1121 1015 1129 1245 1011 908 1016 1125
8 1126 1019 1075 1196 1246 1128 1014 1122
8 1246 1128 1014 1122 1123 1017 909 1009
8 1124 1018 1131 1247 1010 910 1017 1123
8 1125 1016 1130 1248 1012 911 1018 1124
8 1127 1020 1137 1254 1015 914 1022 1129
8 1031 921 1032 1149 1127 1020 1137 1254
8 1134 1027 918 1019 1257 1140 1021 1128
8 1257 1140 1021 1128 1131 1024 916 1017
8 1129 1022 1141 1258 1016 915 1023 1130
8 1130 1023 1142 1259 1018 917 1024 1131
8 1261 1144 1025 1132 1133 1026 1079 1199
8 1255 1138 1025 1132 1135 1028 1144 1261
8 1133 1026 918 1019 1262 1145 1027 1134
8 1136 1029 1139 1256 1263 1146 1028 1135
8 1037 928 1041 1155 1148 1031 1149 1275
8 1041 931 1044 1160 1149 1032 1150 1276
8 1151 1039 939 1057 1278 1156 1055 1180
8 1152 1040 926 1033 1279 1159 1039 1151
8 1153 1038 927 1034 1280 1158 1040 1152
8 1281 1157 1042 1154 1153 1038 929 1035
8 1036 930 1042 1154 1155 1041 1160 1282
8 1283 1164 1046 1159 1156 1047 935 1039
8 1165 1048 1164 1283 1053 937 1047 1156
8 1157 1043 933 1038 1284 1161 1045 1158
8 1157 1043 1161 1284 1042 932 1044 1160
8 1040 934 1046 1159 1158 1045 1163 1285
8 1166 1049 1167 1292 1051 936 1048 1165
8 1166 1049 936 1051 1293 1168 1050 1172
8 1051 936 1052 1175 1172 1050 1173 1306
8 1174 1051 1165 1290 1308 1175 1053 1177
8 1053 937 1054 1178 1175 1052 1176 1309
8 1278 1156 1055 1180 1177 1053 1178 1311
8 1055 938 1056 1181 1178 1054 1179 1312
8 1057 939 1058 1183 1180 1055 1181 1314
8 1058 940 1059 1184 1181 1056 1182 1315
8 1060 942 1061 1185 1183 1058 1184 1316
8 1208 1081 1187 1321 1082 964 1063 1188
8 1209 1082 1188 1322 1097 981 1064 1190
8 1188 1063 1189 1323 1064 947 1065 1191
8 1190 1064 1191 1325 1066 948 1067 1193
8 1191 1065 1192 1326 1067 949 1068 1194
8 1067 1193 1069 950 1194 1327 1195 1070
8 1250 1133 1199 1330 1126 1019 1075 1196
8 1198 1077 1014 1122 1331 1200 1075 1196
8 1074 960 1077 1198 1197 1076 1201 1332
8 1085 980 1076 1197 1215 1099 1201 1332
8 1199 1079 1203 1333 1075 962 1080 1200
8 1132 1025 1119 1243 1199 1079 1203 1333
8 1201 1078 963 1077 1334 1202 1080 1200
8 1099 994 1078 1201 1227 1111 1202 1334
8 1343 1207 1081 1208 1210 1083 964 1082
8 1214 1084 1186 1319 1343 1207 1081 1208
8 1345 1210 1082 1209 1225 1100 981 1097
8 1346 1211 1083 1210 1228 1115 999 1100
8 1086 984 1099 1215 1216 1103 1227 1352
8 1087 985 1103 1216 1217 1104 1230 1353
8 1090 988 1104 1217 1219 1106 1231 1354
8 1218 1105 987 1089 1355 1232 1106 1219
8 1091 991 1105 1218 1220 1109 1232 1355
8 1092 992 1109 1220 1221 1110 1234 1356
8 1222 1108 1233 1357 1095 990 1107 1224
8 1222 1108 993 1093 1357 1233 1110 1221
8 1223 1101 989 1096 1358 1229 1107 1224
8 1226 1102 983 1098 1358 1229 1101 1223
8 1226 1102 1228 1359 1098 983 1100 1225
8 1103 995 1111 1227 1230 1112 1235 1360
8 1107 1002 1117 1233 1229 1116 1240 1362
8 1102 1001 1116 1229 1228 1115 1240 1362
8 1104 996 1112 1230 1231 1113 1236 1363
8 1364 1237 1114 1232 1231 1113 997 1106
8 1109 1005 1114 1232 1234 1118 1238 1365
8 1110 1004 1118 1234 1233 1117 1241 1366
8 1242 1374 1255 1138 1119 1243 1132 1025
8 1244 1127 1254 1376 1121 1015 1129 1245
8 1148 1031 1149 1275 1244 1127 1254 1376
8 1245 1129 1258 1377 1125 1016 1130 1248
8 1251 1134 1019 1126 1378 1257 1128 1246
8 1378 1257 1128 1246 1247 1131 1017 1123
8 1248 1130 1259 1379 1124 1018 1131 1247
8 1261 1381 1250 1133 1132 1249 1330 1199
8 1255 1380 1252 1135 1132 1249 1381 1261
8 1250 1133 1019 1126 1382 1262 1134 1251
8 1253 1136 1256 1385 1384 1263 1135 1252
8 1254 1137 1265 1387 1129 1022 1141 1258
8 1149 1032 1150 1276 1254 1137 1265 1387
8 1028 1135 1255 1138 1139 1256 1388 1266
8 1136 1029 1147 1264 1256 1139 1267 1389
8 1390 1268 1140 1257 1259 1142 1024 1131
8 1260 1143 1027 1134 1390 1268 1140 1257
8 1258 1141 1269 1391 1130 1023 1142 1259
8 1262 1145 1027 1134 1393 1271 1143 1260
8 1261 1144 1026 1133 1394 1272 1145 1262
8 1135 1028 1144 1261 1263 1146 1272 1394
8 1136 1029 1146 1263 1264 1147 1273 1395
8 1155 1041 1160 1282 1275 1149 1276 1405
8 1276 1150 1044 1160 1406 1277 1162 1286
8 1408 1283 1159 1279 1278 1156 1039 1151
8 1290 1165 1283 1408 1177 1053 1156 1278
8 1152 1040 1159 1279 1280 1158 1285 1409
8 1281 1157 1038 1153 1410 1284 1158 1280
8 1281 1157 1284 1410 1154 1042 1160 1282
8 1159 1046 1164 1283 1285 1163 1289 1412
8 1292 1167 1289 1412 1165 1048 1164 1283
8 1158 1045 1163 1285 1284 1161 1288 1413
8 1284 1161 1288 1413 1160 1044 1162 1286
8 1291 1166 1292 1418 1174 1051 1165 1290
8 1291 1166 1051 1174 1419 1293 1172 1305
8 1294 1169 1296 1421 1166 1049 1167 1292
8 1293 1168 1050 1172 1422 1295 1171 1303
8 1294 1169 1049 1166 1423 1297 1168 1293
8 1422 1295 1171 1303 1301 1170 1302 1435
8 1172 1050 1173 1306 1303 1171 1304 1438
8 1174 1051 1175 1308 1305 1172 1306 1440
8 1175 1052 1176 1309 1306 1173 1307 1441
8 1177 1053 1178 1311 1308 1175 1309 1443
8 1178 1054 1179 1312 1309 1176 1310 1444
8 1180 1055 1181 1314 1311 1178 1312 1446
8 1056 1181 1312 1179 1182 1315 1447 1313
8 1183 1058 1184 1316 1314 1181 1315 1448
8 1319 1186 1084 1214 1451 1317 1213 1350
8 1319 1186 1318 1453 1208 1081 1187 1321
8 1321 1187 1320 1456 1188 1063 1189 1323
8 1344 1208 1321 1457 1209 1082 1188 1322
8 1322 1188 1323 1458 1190 1064 1191 1325
8 1323 1189 1324 1459 1191 1065 1192 1326
8 1191 1325 1193 1067 1326 1460 1327 1194
8 1242 1374 1243 1119 1328 1462 1335 1204
8 1330 1199 1333 1465 1196 1075 1200 1331
8 1132 1249 1330 1199 1243 1375 1465 1333
8 1332 1201 1077 1198 1466 1334 1200 1331
8 1215 1099 1201 1332 1352 1227 1334 1466
8 1119 1243 1333 1203 1204 1335 1470 1338
8 1333 1203 1338 1470 1200 1080 1202 1334
8 1227 1111 1202 1334 1360 1235 1338 1470
8 1328 1462 1335 1204 1205 1336 1471 1339
8 1337 1206 1340 1472 1464 1329 1205 1336
8 1346 1211 1342 1479 1210 1083 1207 1343
8 1346 1211 1115 1228 1479 1342 1239 1361
8 1348 1212 1084 1214 1479 1342 1207 1343
8 1480 1343 1208 1344 1345 1210 1082 1209
8 1351 1214 1319 1454 1480 1343 1208 1344
8 1481 1346 1210 1345 1359 1228 1100 1225
8 1348 1212 1347 1483 1214 1084 1213 1350
8 1216 1103 1227 1352 1353 1230 1360 1488
8 1217 1104 1230 1353 1354 1231 1363 1489
8 1490 1364 1232 1355 1354 1231 1106 1219
8 1220 1109 1232 1355 1356 1234 1365 1491
8 1221 1110 1234 1356 1357 1233 1366 1492
8 1224 1107 1233 1357 1358 1229 1362 1493
8 1226 1102 1229 1358 1359 1228 1362 1493
8 1230 1112 1235 1360 1363 1236 1367 1496
8 1361 1239 1115 1228 1497 1371 1240 1362
8 1366 1241 1372 1498 1233 1117 1240 1362
8 1364 1237 1113 1231 1499 1368 1236 1363
8 1364 1237 1368 1499 1232 1114 1238 1365
8 1234 1118 1238 1365 1366 1241 1369 1500
8 1507 1373 1242 1374 1388 1266 1138 1255
8 1508 1374 1243 1375 1380 1255 1132 1249
8 1376 1254 1387 1509 1245 1129 1258 1377
8 1275 1149 1276 1405 1376 1254 1387 1509
8 1377 1258 1391 1510 1248 1130 1259 1379
8 1511 1390 1257 1378 1379 1259 1131 1247
8 1383 1260 1134 1251 1511 1390 1257 1378
8 1252 1135 1256 1385 1380 1255 1388 1512
8 1261 1381 1513 1394 1133 1250 1382 1262
8 1135 1252 1384 1263 1261 1381 1513 1394
8 1382 1262 1134 1251 1514 1393 1260 1383
8 1253 1136 1263 1384 1386 1264 1395 1516
8 1253 1136 1264 1386 1385 1256 1389 1517
8 1387 1265 1397 1519 1258 1141 1269 1391
8 1276 1150 1277 1406 1387 1265 1397 1519
8 1256 1139 1267 1389 1388 1266 1398 1520
8 1264 1147 1274 1396 1389 1267 1399 1521
8 1392 1270 1143 1260 1522 1400 1268 1390
8 1390 1268 1142 1259 1522 1400 1269 1391
8 1392 1270 1401 1523 1260 1143 1271 1393
8 1272 1394 1524 1402 1145 1262 1393 1271
8 1395 1273 1146 1263 1524 1402 1272 1394
8 1273 1395 1264 1147 1403 1526 1396 1274
8 1405 1276 1160 1282 1534 1406 1286 1411
8 1414 1287 1407 1535 1286 1162 1277 1406
8 1279 1159 1283 1408 1409 1285 1412 1537
8 1418 1292 1412 1537 1290 1165 1283 1408
8 1280 1158 1285 1409 1410 1284 1413 1538
8 1410 1284 1413 1538 1282 1160 1286 1411
8 1285 1163 1289 1412 1413 1288 1417 1540
8 1421 1296 1417 1540 1292 1167 1289 1412
8 1414 1287 1162 1286 1541 1416 1288 1413
8 1420 1294 1421 1545 1291 1166 1292 1418
8 1419 1293 1172 1305 1546 1422 1303 1437
8 1420 1294 1166 1291 1547 1423 1293 1419
8 1294 1169 1297 1423 1421 1296 1425 1548
8 1423 1297 1168 1293 1549 1424 1295 1422
8 1301 1170 1298 1427 1422 1295 1424 1549
8 1432 1300 1428 1554 1301 1170 1298 1427
8 1431 1299 1428 1554 1560 1430 1300 1432
8 1563 1433 1300 1432 1435 1302 1170 1301
8 1546 1422 1303 1437 1434 1301 1435 1565
8 1303 1171 1304 1438 1435 1302 1436 1566
8 1305 1172 1306 1440 1437 1303 1438 1568
8 1306 1173 1307 1441 1438 1304 1439 1569
8 1308 1175 1309 1443 1440 1306 1441 1571
8 1309 1176 1310 1444 1441 1307 1442 1572
8 1311 1178 1312 1446 1443 1309 1444 1574
8 1179 1312 1444 1310 1313 1447 1575 1445
8 1314 1181 1315 1448 1446 1312 1447 1576
8 1350 1213 1349 1486 1451 1317 1449 1579
8 1451 1317 1450 1581 1319 1186 1318 1453
8 1454 1319 1214 1351 1582 1451 1350 1487
8 1453 1318 1452 1584 1321 1187 1320 1456
8 1454 1319 1453 1585 1344 1208 1321 1457
8 1456 1320 1455 1586 1323 1189 1324 1459
8 1457 1321 1456 1587 1322 1188 1323 1458
8 1458 1323 1459 1588 1325 1191 1326 1460
8 1205 1336 1464 1329 1328 1462 1590 1461
8 1507 1373 1461 1590 1374 1242 1328 1462
8 1508 1374 1462 1591 1375 1243 1335 1467
8 1337 1206 1329 1464 1473 1341 1463 1594
8 1375 1243 1335 1467 1465 1333 1470 1596
8 1465 1333 1470 1596 1331 1200 1334 1466
8 1352 1227 1334 1466 1488 1360 1470 1596
8 1591 1462 1336 1468 1467 1335 1471 1597
8 1469 1337 1472 1598 1595 1464 1336 1468
8 1471 1339 1474 1600 1335 1204 1338 1470
8 1600 1474 1367 1496 1470 1338 1235 1360
8 1336 1205 1340 1472 1471 1339 1475 1601
8 1337 1206 1341 1473 1472 1340 1476 1602
8 1495 1370 1478 1609 1361 1239 1342 1479
8 1348 1212 1342 1479 1483 1347 1478 1609
8 1481 1346 1479 1610 1345 1210 1343 1480
8 1481 1346 1228 1359 1610 1479 1361 1494
8 1484 1348 1214 1351 1610 1479 1343 1480
8 1483 1347 1482 1612 1350 1213 1349 1486
8 1484 1348 1483 1613 1351 1214 1350 1487
8 1353 1230 1360 1488 1489 1363 1496 1616
8 1490 1364 1231 1354 1617 1499 1363 1489
8 1490 1364 1499 1617 1355 1232 1365 1491
8 1356 1234 1365 1491 1492 1366 1500 1619
8 1492 1366 1498 1620 1357 1233 1362 1493
8 1494 1361 1228 1359 1621 1497 1362 1493
8 1495 1370 1239 1361 1622 1504 1371 1497
8 1363 1236 1367 1496 1499 1368 1501 1623
8 1497 1371 1240 1362 1624 1505 1372 1498
8 1625 1503 1372 1498 1500 1369 1241 1366
8 1365 1238 1368 1499 1500 1369 1502 1626
8 1520 1398 1506 1633 1388 1266 1373 1507
8 1634 1507 1374 1508 1512 1388 1255 1380
8 1509 1387 1519 1635 1377 1258 1391 1510
8 1405 1276 1406 1534 1509 1387 1519 1635
8 1515 1392 1260 1383 1636 1522 1390 1511
8 1511 1390 1259 1379 1636 1522 1391 1510
8 1385 1256 1389 1517 1512 1388 1520 1637
8 1513 1394 1262 1382 1638 1524 1393 1514
8 1395 1516 1638 1524 1263 1384 1513 1394
8 1515 1392 1523 1639 1383 1260 1393 1514
8 1516 1395 1526 1640 1386 1264 1396 1518
8 1386 1264 1396 1518 1517 1389 1521 1641
8 1519 1397 1527 1643 1391 1269 1400 1522
8 1535 1407 1527 1643 1406 1277 1397 1519
8 1389 1267 1399 1521 1520 1398 1528 1644
8 1645 1529 1399 1521 1525 1404 1274 1396
8 1392 1270 1400 1522 1523 1401 1531 1646
8 1524 1402 1271 1393 1648 1532 1401 1523
8 1403 1526 1648 1532 1273 1395 1524 1402
8 1525 1404 1274 1396 1649 1533 1403 1526
8 1539 1414 1535 1657 1411 1286 1406 1534
8 1542 1415 1536 1658 1414 1287 1407 1535
8 1409 1285 1412 1537 1538 1413 1540 1660
8 1545 1421 1540 1660 1418 1292 1412 1537
8 1539 1414 1286 1411 1661 1541 1413 1538
8 1540 1417 1544 1663 1413 1288 1416 1541
8 1421 1296 1425 1548 1540 1417 1544 1663
8 1542 1415 1287 1414 1664 1543 1416 1541
8 1420 1294 1423 1547 1545 1421 1548 1666
8 1547 1423 1293 1419 1667 1549 1422 1546
8 1434 1301 1427 1553 1546 1422 1549 1667
8 1423 1297 1424 1549 1548 1425 1550 1668
8 1551 1426 1550 1668 1427 1298 1424 1549
8 1551 1426 1298 1427 1671 1552 1428 1554
8 1562 1432 1554 1674 1434 1301 1427 1553
8 1431 1299 1429 1558 1554 1428 1555 1675
8 1431 1299 1430 1560 1558 1429 1557 1680
8 1560 1430 1300 1432 1683 1559 1433 1563
8 1561 1431 1554 1674 1684 1560 1432 1562
8 1685 1563 1432 1562 1565 1435 1301 1434
8 1435 1302 1436 1566 1563 1433 1564 1686
8 1437 1303 1438 1568 1565 1435 1566 1688
8 1438 1304 1439 1569 1566 1436 1567 1689
8 1440 1306 1441 1571 1568 1438 1569 1691
8 1441 1307 1442 1572 1569 1439 1570 1692
8 1443 1309 1444 1574 1571 1441 1572 1694
8 1310 1444 1572 1442 1445 1575 1695 1573
8 1446 1312 1447 1576 1574 1444 1575 1696
8 1486 1349 1485 1614 1579 1449 1577 1699
8 1451 1317 1449 1579 1581 1450 1578 1701
8 1487 1350 1486 1615 1582 1451 1579 1702
8 1581 1450 1580 1704 1453 1318 1452 1584
8 1582 1451 1581 1705 1454 1319 1453 1585
8 1584 1452 1583 1706 1456 1320 1455 1586
8 1585 1453 1584 1707 1457 1321 1456 1587
8 1587 1456 1586 1708 1458 1323 1459 1588
8 1633 1506 1589 1710 1507 1373 1461 1590
8 1464 1329 1461 1590 1594 1463 1589 1710
8 1468 1336 1462 1591 1595 1464 1590 1711
8 1634 1507 1590 1711 1508 1374 1462 1591
8 1473 1341 1463 1594 1603 1477 1593 1716
8 1469 1337 1464 1595 1599 1473 1594 1717
8 1471 1597 1467 1335 1600 1718 1596 1470
8 1718 1600 1496 1616 1596 1470 1360 1488
8 1336 1468 1597 1471 1472 1598 1719 1601
8 1469 1337 1473 1599 1598 1472 1602 1720
8 1722 1604 1501 1623 1600 1474 1367 1496
8 1475 1601 1471 1339 1604 1722 1600 1474
8 1602 1476 1605 1723 1472 1340 1475 1601
8 1476 1602 1724 1606 1341 1473 1603 1477
8 1483 1347 1478 1609 1612 1482 1608 1731
8 1495 1370 1504 1622 1609 1478 1608 1731
8 1618 1495 1609 1732 1494 1361 1479 1610
8 1484 1348 1479 1610 1613 1483 1609 1732
8 1486 1349 1482 1612 1614 1485 1611 1733
8 1613 1483 1612 1734 1487 1350 1486 1615
8 1489 1363 1496 1616 1617 1499 1623 1736
8 1491 1365 1499 1617 1619 1500 1626 1737
8 1618 1495 1361 1494 1738 1622 1497 1621
8 1739 1625 1498 1620 1619 1500 1366 1492
8 1621 1497 1362 1493 1740 1624 1498 1620
8 1742 1631 1504 1622 1624 1505 1371 1497
8 1743 1628 1502 1626 1623 1501 1368 1499
8 1744 1630 1505 1624 1625 1503 1372 1498
8 1745 1629 1503 1625 1626 1502 1369 1500
8 1520 1398 1528 1644 1633 1506 1632 1751
8 1637 1520 1633 1752 1512 1388 1507 1634
8 1635 1519 1643 1753 1510 1391 1522 1636
8 1657 1535 1643 1753 1534 1406 1519 1635
8 1515 1392 1522 1636 1639 1523 1646 1754
8 1517 1389 1521 1641 1637 1520 1644 1755
8 1524 1638 1756 1648 1393 1514 1639 1523
8 1640 1526 1395 1516 1756 1648 1524 1638
8 1642 1525 1396 1518 1757 1649 1526 1640
8 1758 1645 1521 1641 1642 1525 1396 1518
8 1646 1531 1400 1522 1760 1650 1527 1643
8 1535 1407 1536 1658 1643 1527 1650 1760
8 1521 1399 1529 1645 1644 1528 1651 1761
8 1647 1530 1652 1762 1525 1404 1529 1645
8 1401 1523 1648 1532 1531 1646 1763 1655
8 1525 1404 1533 1649 1647 1530 1654 1765
8 1533 1649 1766 1656 1403 1526 1648 1532
8 1662 1542 1658 1774 1539 1414 1535 1657
8 1542 1415 1543 1664 1658 1536 1659 1775
8 1660 1540 1663 1777 1538 1413 1541 1661
8 1545 1421 1548 1666 1660 1540 1663 1777
8 1662 1542 1414 1539 1778 1664 1541 1661
8 1664 1543 1416 1541 1779 1665 1544 1663
8 1548 1425 1550 1668 1663 1544 1665 1779
8 1547 1423 1549 1667 1666 1548 1668 1781
8 1670 1551 1668 1781 1553 1427 1549 1667
8 1551 1426 1552 1671 1668 1550 1669 1782
8 1670 1551 1427 1553 1784 1671 1554 1674
8 1675 1555 1672 1785 1554 1428 1552 1671
8 1678 1556 1673 1789 1558 1429 1555 1675
8 1561 1431 1558 1681 1674 1554 1675 1790
8 1794 1677 1556 1678 1680 1557 1429 1558
8 1560 1430 1559 1683 1680 1557 1679 1797
8 1561 1431 1560 1684 1681 1558 1680 1798
8 1563 1433 1564 1686 1683 1559 1682 1800
8 1684 1560 1432 1562 1801 1683 1563 1685
8 1565 1435 1566 1688 1685 1563 1686 1802
8 1566 1436 1567 1689 1686 1564 1687 1803
8 1568 1438 1569 1691 1688 1566 1689 1805
8 1569 1439 1570 1692 1689 1567 1690 1806
8 1571 1441 1572 1694 1691 1569 1692 1808
8 1442 1572 1692 1570 1573 1695 1809 1693
8 1574 1444 1575 1696 1694 1572 1695 1810
8 1614 1485 1592 1712 1699 1577 1697 1813
8 1579 1449 1577 1699 1701 1578 1698 1815
8 1615 1486 1614 1735 1702 1579 1699 1816
8 1701 1578 1700 1818 1581 1450 1580 1704
8 1582 1451 1579 1702 1705 1581 1701 1819
8 1704 1580 1703 1820 1584 1452 1583 1706
8 1705 1581 1704 1821 1585 1453 1584 1707
8 1707 1584 1706 1822 1587 1456 1586 1708
8 1710 1589 1506 1633 1824 1709 1632 1751
8 1594 1463 1589 1710 1716 1593 1709 1824
8 1752 1633 1710 1825 1634 1507 1590 1711
8 1595 1464 1590 1711 1717 1594 1710 1825
8 1830 1714 1592 1712 1733 1611 1485 1614
8 1603 1477 1593 1716 1725 1607 1715 1834
8 1599 1473 1594 1717 1721 1603 1716 1835
8 1837 1722 1623 1736 1718 1600 1496 1616
8 1719 1601 1722 1837 1597 1471 1600 1718
8 1602 1720 1598 1472 1723 1838 1719 1601
8 1720 1602 1473 1599 1839 1724 1603 1721
8 1723 1605 1726 1840 1601 1475 1604 1722
8 1840 1726 1628 1743 1722 1604 1501 1623
8 1724 1606 1727 1841 1602 1476 1605 1723
8 1725 1607 1728 1842 1603 1477 1606 1724
8 1612 1482 1608 1731 1733 1611 1730 1849
8 1741 1627 1730 1849 1622 1504 1608 1731
8 1613 1483 1609 1732 1734 1612 1731 1850
8 1618 1495 1622 1738 1732 1609 1731 1850
8 1615 1486 1612 1734 1735 1614 1733 1851
8 1852 1743 1626 1737 1736 1623 1499 1617
8 1853 1745 1625 1739 1737 1626 1500 1619
8 1855 1742 1622 1738 1740 1624 1497 1621
8 1856 1744 1624 1740 1739 1625 1498 1620
8 1741 1627 1504 1622 1857 1746 1631 1742
8 1742 1631 1505 1624 1858 1749 1630 1744
8 1859 1747 1629 1745 1743 1628 1502 1626
8 1860 1748 1630 1744 1745 1629 1503 1625
8 1644 1528 1651 1761 1751 1632 1750 1865
8 1637 1520 1644 1755 1752 1633 1751 1866
8 1754 1646 1522 1636 1867 1760 1643 1753
8 1657 1535 1658 1774 1753 1643 1760 1867
8 1639 1523 1646 1754 1756 1648 1763 1868
8 1641 1521 1645 1758 1755 1644 1761 1869
8 1757 1649 1526 1640 1870 1766 1648 1756
8 1642 1525 1649 1757 1759 1647 1765 1871
8 1759 1647 1762 1872 1642 1525 1645 1758
8 1760 1650 1767 1874 1646 1531 1655 1763
8 1658 1536 1659 1775 1760 1650 1767 1874
8 1762 1652 1768 1875 1645 1529 1651 1761
8 1764 1653 1769 1876 1647 1530 1652 1762
8 1656 1766 1877 1773 1532 1648 1763 1655
8 1771 1879 1765 1654 1653 1764 1647 1530
8 1533 1649 1765 1654 1656 1766 1880 1772
8 1662 1542 1664 1778 1774 1658 1775 1887
8 1664 1543 1665 1779 1775 1659 1776 1888
8 1778 1664 1541 1661 1890 1779 1663 1777
8 1666 1548 1668 1781 1777 1663 1779 1890
8 1782 1669 1780 1891 1668 1550 1665 1779
8 1670 1551 1671 1784 1781 1668 1782 1893
8 1671 1552 1672 1785 1782 1669 1783 1894
8 1790 1675 1785 1896 1674 1554 1671 1784
8 1675 1555 1673 1789 1785 1672 1786 1897
8 1792 1676 1788 1903 1678 1556 1673 1789
8 1795 1678 1789 1904 1681 1558 1675 1790
8 1792 1676 1556 1678 1906 1791 1677 1794
8 1680 1557 1679 1797 1794 1677 1793 1909
8 1910 1794 1678 1795 1798 1680 1558 1681
8 1683 1559 1682 1800 1797 1679 1796 1912
8 1684 1560 1683 1801 1798 1680 1797 1913
8 1686 1564 1687 1803 1800 1682 1799 1915
8 1685 1563 1686 1802 1801 1683 1800 1916
8 1688 1566 1689 1805 1802 1686 1803 1917
8 1689 1567 1690 1806 1803 1687 1804 1918
8 1691 1569 1692 1808 1805 1689 1806 1920
8 1692 1570 1693 1809 1806 1690 1807 1921
8 1694 1572 1695 1810 1808 1692 1809 1922
8 1829 1713 1811 1926 1712 1592 1697 1813
8 1813 1697 1812 1928 1699 1577 1698 1815
8 1735 1614 1712 1828 1816 1699 1813 1929
8 1815 1698 1814 1931 1701 1578 1700 1818
8 1702 1579 1699 1816 1819 1701 1815 1932
8 1818 1700 1817 1933 1704 1580 1703 1820
8 1819 1701 1818 1934 1705 1581 1704 1821
8 1821 1704 1820 1935 1707 1584 1706 1822
8 1824 1709 1632 1751 1937 1823 1750 1865
8 1716 1593 1709 1824 1834 1715 1823 1937
8 1825 1710 1633 1752 1938 1824 1751 1866
8 1717 1594 1710 1825 1835 1716 1824 1938
8 1945 1830 1712 1828 1851 1733 1614 1735
8 1830 1714 1831 1946 1712 1592 1713 1829
8 1947 1832 1714 1830 1849 1730 1611 1733
8 1843 1729 1607 1725 1950 1833 1715 1834
8 1721 1603 1716 1835 1836 1725 1834 1951
8 1836 1725 1842 1953 1721 1603 1724 1839
8 1723 1838 1719 1601 1840 1954 1837 1722
8 1954 1840 1743 1852 1837 1722 1623 1736
8 1724 1839 1720 1602 1841 1955 1838 1723
8 1841 1727 1844 1956 1723 1605 1726 1840
8 1956 1844 1747 1859 1840 1726 1628 1743
8 1728 1842 1724 1606 1845 1957 1841 1727
8 1725 1607 1729 1843 1842 1728 1846 1958
8 1741 1627 1746 1857 1849 1730 1848 1965
8 1734 1612 1731 1850 1851 1733 1849 1966
8 1854 1741 1849 1966 1738 1622 1731 1850
8 1967 1859 1745 1853 1852 1743 1626 1737
8 1968 1860 1744 1856 1853 1745 1625 1739
8 1854 1741 1622 1738 1969 1857 1742 1855
8 1855 1742 1624 1740 1970 1858 1744 1856
8 1857 1746 1631 1742 1971 1861 1749 1858
8 1858 1749 1630 1744 1972 1863 1748 1860
8 1859 1747 1862 1973 1745 1629 1748 1860
8 1875 1768 1864 1977 1761 1651 1750 1865
8 1755 1644 1761 1869 1866 1751 1865 1978
8 1867 1760 1874 1979 1754 1646 1763 1868
8 1774 1658 1775 1887 1867 1760 1874 1979
8 1870 1766 1648 1756 1980 1877 1763 1868
8 1872 1762 1875 1981 1758 1645 1761 1869
8 1757 1649 1766 1870 1871 1765 1880 1982
8 1983 1879 1764 1873 1871 1765 1647 1759
8 1873 1764 1876 1984 1759 1647 1762 1872
8 1877 1773 1655 1763 1986 1881 1767 1874
8 1775 1659 1776 1888 1874 1767 1881 1986
8 1876 1769 1882 1987 1762 1652 1768 1875
8 1878 1770 1883 1988 1764 1653 1769 1876
8 1880 1772 1656 1766 1989 1886 1773 1877
8 1878 1770 1653 1764 1990 1884 1771 1879
8 1765 1654 1772 1880 1879 1771 1885 1991
8 1778 1664 1779 1890 1887 1775 1888 1997
8 1998 1889 1776 1888 1891 1780 1665 1779
8 1893 1782 1891 2000 1781 1668 1779 1890
8 1894 1783 1892 2001 1782 1669 1780 1891
8 1784 1671 1785 1896 1893 1782 1894 2003
8 1897 1786 1895 2004 1785 1672 1783 1894
8 1790 1675 1789 1904 1896 1785 1897 2006
8 1901 1787 1898 2007 1789 1673 1786 1897
8 1903 1788 1900 2013 1789 1673 1787 1901
8 1792 1676 1791 1906 1903 1788 1902 2016
8 1907 1792 1903 2017 1795 1678 1789 1904
8 1906 1791 1677 1794 2019 1905 1793 1909
8 1907 1792 1678 1795 2020 1906 1794 1910
8 1797 1679 1796 1912 1909 1793 1908 2022
8 1798 1680 1797 1913 1910 1794 1909 2023
8 1800 1682 1799 1915 1912 1796 1911 2025
8 1801 1683 1800 1916 1913 1797 1912 2026
8 1803 1687 1804 1918 1915 1799 1914 2028
8 1802 1686 1803 1917 1916 1800 1915 2029
8 1805 1689 1806 1920 1917 1803 1918 2030
8 1806 1690 1807 1921 1918 1804 1919 2031
8 1808 1692 1809 1922 1920 1806 1921 2032
8 1939 1826 1924 2037 1829 1713 1811 1926
8 1926 1811 1925 2039 1813 1697 1812 1928
8 1944 1829 1926 2040 1828 1712 1813 1929
8 1928 1812 1927 2042 1815 1698 1814 1931
8 1929 1813 1928 2043 1816 1699 1815 1932
8 1931 1814 1930 2044 1818 1700 1817 1933
8 1932 1815 1931 2045 1819 1701 1818 1934
8 1934 1818 1933 2046 1821 1704 1820 1935
8 2048 1936 1823 1937 1977 1864 1750 1865
8 1950 1833 1715 1834 2048 1936 1823 1937
8 1938 1824 1751 1866 2049 1937 1865 1978
8 1835 1716 1824 1938 1951 1834 1937 2049
8 1939 1826 1713 1829 2053 1942 1831 1946
8 1940 1827 1923 2035 2053 1942 1826 1939
8 1945 1830 1946 2058 1828 1712 1829 1944
8 2059 1947 1830 1945 1966 1849 1733 1851
8 1947 1832 1730 1849 2060 1948 1848 1965
8 1947 1832 1948 2060 1830 1714 1831 1946
8 1959 1847 1729 1843 2063 1949 1833 1950
8 1952 1843 1725 1836 2064 1950 1834 1951
8 1836 1725 1843 1952 1953 1842 1958 2066
8 1953 1842 1957 2067 1839 1724 1841 1955
8 1841 1955 1838 1723 1956 2068 1954 1840
8 2068 1956 1859 1967 1954 1840 1743 1852
8 1956 1844 1960 2069 1859 1747 1862 1973
8 1845 1957 1841 1727 1960 2069 1956 1844
8 1728 1842 1957 1845 1846 1958 2071 1961
8 1962 2072 1959 1847 1846 1958 1843 1729
8 1971 1861 1964 2077 1857 1746 1848 1965
8 1854 1741 1857 1969 1966 1849 1965 2078
8 1967 1859 1973 2079 1853 1745 1860 1968
8 1970 1858 1744 1856 2080 1972 1860 1968
8 1969 1857 1742 1855 2081 1971 1858 1970
8 1971 1861 1749 1858 2082 1974 1863 1972
8 1973 1862 1975 2083 1860 1748 1863 1972
8 1987 1882 1976 2086 1875 1768 1864 1977
8 1981 1875 1977 2087 1869 1761 1865 1978
8 1980 1877 1763 1868 2088 1986 1874 1979
8 1887 1775 1888 1997 1979 1874 1986 2088
8 1880 1982 2089 1989 1766 1870 1980 1877
8 1984 1876 1987 2090 1872 1762 1875 1981
8 1765 1871 1983 1879 1880 1982 2091 1991
8 1985 1878 1764 1873 2092 1990 1879 1983
8 1985 1878 1988 2093 1873 1764 1876 1984
8 2094 1992 1881 1986 1998 1889 1776 1888
8 1986 1881 1992 2094 1877 1773 1886 1989
8 1988 1883 1993 2095 1876 1769 1882 1987
8 1878 1770 1884 1990 1988 1883 1994 2096
8 1991 1885 1772 1880 2097 1996 1886 1989
8 1879 1771 1885 1991 1990 1884 1995 2098
8 2103 1998 1888 1997 2000 1891 1779 1890
8 2104 1999 1889 1998 2001 1892 1780 1891
8 2003 1894 2001 2106 1893 1782 1891 2000
8 2004 1895 2002 2107 1894 1783 1892 2001
8 2006 1897 2004 2109 1896 1785 1894 2003
8 2007 1898 2005 2110 1897 1786 1895 2004
8 2014 1901 2007 2112 1904 1789 1897 2006
8 2011 1899 2008 2113 1901 1787 1898 2007
8 2119 2010 1899 2011 2013 1900 1787 1901
8 2016 1902 2012 2122 1903 1788 1900 2013
8 2017 1903 2013 2123 1904 1789 1901 2014
8 1906 1791 1905 2019 2016 1902 2015 2125
8 1907 1792 1906 2020 2017 1903 2016 2126
8 1909 1793 1908 2022 2019 1905 2018 2128
8 2020 1906 1794 1910 2129 2019 1909 2023
8 1912 1796 1911 2025 2022 1908 2021 2131
8 1913 1797 1912 2026 2023 1909 2022 2132
8 1915 1799 1914 2028 2025 1911 2024 2134
8 1916 1800 1915 2029 2026 1912 2025 2135
8 1918 1804 1919 2031 2028 1914 2027 2136
8 1917 1803 1918 2030 2029 1915 2028 2137
8 1920 1806 1921 2032 2030 1918 2031 2138
8 1940 1827 1941 2054 2035 1923 2033 2140
8 2035 1923 2034 2143 1939 1826 1924 2037
8 2037 1924 2036 2146 1926 1811 1925 2039
8 2051 1939 2037 2147 1944 1829 1926 2040
8 2039 1925 2038 2149 1928 1812 1927 2042
8 2040 1926 2039 2150 1929 1813 1928 2043
8 2042 1927 2041 2151 1931 1814 1930 2044
8 2043 1928 2042 2152 1932 1815 1931 2045
8 2045 1931 2044 2153 1934 1818 1933 2046
8 2155 2047 1936 2048 2086 1976 1864 1977
8 2063 1949 1833 1950 2155 2047 1936 2048
8 2156 2048 1937 2049 2087 1977 1865 1978
8 2064 1950 1834 1951 2156 2048 1937 2049
8 2051 1939 1829 1944 2160 2053 1946 2058
8 2052 1940 2035 2144 2160 2053 1939 2051
8 2053 1942 1831 1946 2163 2057 1948 2060
8 2055 1943 1827 1940 2163 2057 1942 2053
8 2055 1943 2056 2164 1940 1827 1941 2054
8 2059 1947 1849 1966 2167 2060 1965 2078
8 2059 1947 2060 2167 1945 1830 1946 2058
8 2077 1964 2061 2168 1965 1848 1948 2060
8 2070 1963 1847 1959 2170 2062 1949 2063
8 2065 1959 1843 1952 2171 2063 1950 2064
8 2173 2072 1958 2066 2065 1959 1843 1952
8 1953 1842 1958 2066 2067 1957 2071 2174
8 2068 1956 2069 2175 1967 1859 1973 2079
8 2067 1957 2069 2175 1955 1841 1956 2068
8 1845 1957 2069 1960 1961 2071 2176 2073
8 2069 1960 2073 2176 1973 1862 1975 2083
8 2070 1963 2075 2177 1959 1847 1962 2072
8 1846 1958 2071 1961 1962 2072 2178 2074
8 2077 1964 1861 1971 2182 2076 1974 2082
8 2081 1971 2077 2183 1969 1857 1965 2078
8 2079 1973 2083 2184 1968 1860 1972 2080
8 2081 1971 1858 1970 2185 2082 1972 2080
8 2083 1975 2084 2186 1972 1863 1974 2082
8 2086 1976 1882 1987 2189 2085 1993 2095
8 2090 1987 2086 2190 1981 1875 1977 2087
8 2191 2094 1986 2088 2103 1998 1888 1997
8 2088 1986 2094 2191 1980 1877 1989 2089
8 1991 2091 2192 2097 1880 1982 2089 1989
8 2093 1988 2095 2193 1984 1876 1987 2090
8 1879 1983 2092 1990 1991 2091 2194 2098
8 1985 1878 1990 2092 2093 1988 2096 2195
8 2097 1996 1886 1989 2196 2099 1992 2094
8 2196 2099 1992 2094 2104 1999 1889 1998
8 1994 2096 1988 1883 2100 2197 2095 1993
8 2096 1994 1884 1990 2198 2101 1995 2098
8 1995 2098 2199 2102 1885 1991 2097 1996
8 2203 2104 1998 2103 2106 2001 1891 2000
8 2107 2002 2105 2204 2001 1892 1999 2104
8 2109 2004 2107 2206 2003 1894 2001 2106
8 2110 2005 2108 2207 2004 1895 2002 2107
8 2112 2007 2110 2209 2006 1897 2004 2109
8 2113 2008 2111 2210 2007 1898 2005 2110
8 2120 2011 2113 2212 2014 1901 2007 2112
8 2117 2009 2114 2213 2011 1899 2008 2113
8 2219 2116 2009 2117 2119 2010 1899 2011
8 2222 2118 2010 2119 2122 2012 1900 2013
8 2223 2119 2011 2120 2123 2013 1901 2014
8 2016 1902 2015 2125 2122 2012 2121 2225
8 2126 2016 2122 2226 2017 1903 2013 2123
8 2019 1905 2018 2128 2125 2015 2124 2228
8 2020 1906 2019 2129 2126 2016 2125 2229
8 2022 1908 2021 2131 2128 2018 2127 2231
8 2023 1909 2022 2132 2129 2019 2128 2232
8 2025 1911 2024 2134 2131 2021 2130 2234
8 2026 1912 2025 2135 2132 2022 2131 2235
8 1914 2028 2134 2024 2027 2136 2236 2133
8 2029 1915 2028 2137 2135 2025 2134 2237
8 2030 1918 2031 2138 2137 2028 2136 2238
8 2157 2050 2139 2240 2054 1941 2033 2140
8 2052 1940 2054 2161 2144 2035 2140 2242
8 2140 2033 2141 2243 2035 1923 2034 2143
8 2143 2034 2142 2246 2037 1924 2036 2146
8 2144 2035 2143 2247 2051 1939 2037 2147
8 2146 2036 2145 2249 2039 1925 2038 2149
8 2147 2037 2146 2250 2040 1926 2039 2150
8 2149 2038 2148 2251 2042 1927 2041 2151
8 2150 2039 2149 2252 2043 1928 2042 2152
8 2152 2042 2151 2253 2045 1931 2044 2153
8 2255 2154 2047 2155 2189 2085 1976 2086
8 2170 2062 1949 2063 2255 2154 2047 2155
8 2256 2155 2048 2156 2190 2086 1977 2087
8 2171 2063 1950 2064 2256 2155 2048 2156
8 2258 2159 2050 2157 2164 2056 1941 2054
8 2160 2053 1946 2058 2262 2163 2060 2167
8 2162 2055 1940 2052 2262 2163 2053 2160
8 2162 2055 2164 2263 2052 1940 2054 2161
8 2163 2057 1948 2060 2264 2165 2061 2168
8 2055 1943 2057 2163 2164 2056 2165 2264
8 2182 2076 2166 2268 2077 1964 2061 2168
8 2183 2077 2168 2269 2078 1965 2060 2167
8 2070 1963 2062 2170 2177 2075 2169 2271
8 2172 2070 1959 2065 2272 2170 2063 2171
8 2172 2070 2177 2273 2065 1959 2072 2173
8 2066 1958 2072 2173 2174 2071 2178 2274
8 2067 1957 2071 2174 2175 2069 2176 2275
8 2175 2069 2176 2275 2079 1973 2083 2184
8 2071 1961 2074 2178 2176 2073 2179 2276
8 2176 2073 2179 2276 2083 1975 2084 2186
8 2072 1962 2075 2177 2178 2074 2180 2277
8 2182 2076 1974 2082 2280 2181 2084 2186
8 2183 2077 1971 2081 2281 2182 2082 2185
8 2184 2083 2186 2282 2080 1972 2082 2185
8 2189 2085 1993 2095 2285 2188 2100 2197
8 2190 2086 1987 2090 2286 2189 2095 2193
8 2192 2097 1989 2089 2287 2196 2094 2191
8 2287 2196 2094 2191 2203 2104 1998 2103
8 2194 2098 1991 2091 2288 2199 2097 2192
8 2195 2096 2197 2289 2093 1988 2095 2193
8 2096 2195 2290 2198 1990 2092 2194 2098
8 2097 1996 2099 2196 2199 2102 2200 2291
8 2196 2099 1999 2104 2291 2200 2105 2204
8 2100 2197 2292 2201 1994 2096 2198 2101
8 1995 2098 2198 2101 2102 2199 2293 2202
8 2206 2107 2204 2296 2106 2001 2104 2203
8 2207 2108 2205 2297 2107 2002 2105 2204
8 2209 2110 2207 2299 2109 2004 2107 2206
8 2210 2111 2208 2300 2110 2005 2108 2207
8 2212 2113 2210 2302 2112 2007 2110 2209
8 2213 2114 2211 2303 2113 2008 2111 2210
8 2220 2117 2213 2305 2120 2011 2113 2212
8 2216 2115 2214 2306 2117 2009 2114 2213
8 2216 2115 2009 2117 2311 2217 2116 2219
8 2219 2116 2010 2119 2314 2218 2118 2222
8 2315 2219 2117 2220 2223 2119 2011 2120
8 2122 2012 2121 2225 2222 2118 2221 2317
8 2318 2222 2119 2223 2226 2122 2013 2123
8 2125 2015 2124 2228 2225 2121 2224 2320
8 2126 2016 2125 2229 2226 2122 2225 2321
8 2128 2018 2127 2231 2228 2124 2227 2323
8 2129 2019 2128 2232 2229 2125 2228 2324
8 2131 2021 2130 2234 2231 2127 2230 2326
8 2132 2022 2131 2235 2232 2128 2231 2327
8 2134 2024 2133 2236 2234 2130 2233 2328
8 2135 2025 2134 2237 2235 2131 2234 2329
8 2137 2028 2136 2238 2237 2134 2236 2330
8 2157 2050 2158 2259 2240 2139 2239 2332
8 2257 2157 2240 2334 2161 2054 2140 2242
8 2240 2139 2241 2335 2140 2033 2141 2243
8 2242 2140 2243 2337 2144 2035 2143 2247
8 2243 2141 2244 2338 2143 2034 2142 2246
8 2246 2142 2245 2341 2146 2036 2145 2249
8 2247 2143 2246 2342 2147 2037 2146 2250
8 2249 2145 2248 2343 2149 2038 2148 2251
8 2250 2146 2249 2344 2150 2039 2149 2252
8 2252 2149 2251 2345 2152 2042 2151 2253
8 2169 2271 2347 2254 2062 2170 2255 2154
8 2189 2085 2188 2285 2255 2154 2254 2347
8 2348 2255 2155 2256 2286 2189 2086 2190
8 2272 2170 2063 2171 2348 2255 2155 2256
8 2349 2258 2157 2257 2263 2164 2054 2161
8 2258 2159 2261 2351 2157 2050 2158 2259
8 2258 2159 2056 2164 2351 2261 2165 2264
8 2262 2163 2060 2167 2355 2264 2168 2269
8 2162 2055 2163 2262 2263 2164 2264 2355
8 2357 2266 2165 2264 2268 2166 2061 2168
8 2268 2166 2076 2182 2361 2267 2181 2280
8 2281 2182 2268 2362 2183 2077 2168 2269
8 2271 2169 2270 2364 2177 2075 2180 2277
8 2172 2070 2170 2272 2273 2177 2271 2365
8 2072 2173 2274 2178 2177 2273 2366 2277
8 2071 2174 2275 2176 2178 2274 2367 2276
8 2275 2176 2276 2367 2184 2083 2186 2282
8 2283 2187 2084 2186 2368 2278 2179 2276
8 2178 2074 2180 2277 2276 2179 2278 2368
8 2283 2187 2279 2370 2186 2084 2181 2280
8 2281 2182 2082 2185 2371 2280 2186 2282
8 2188 2285 2374 2284 2100 2197 2292 2201
8 2286 2189 2095 2193 2375 2285 2197 2289
8 2192 2097 2196 2287 2288 2199 2291 2376
8 2287 2196 2104 2203 2376 2291 2204 2296
8 2194 2098 2199 2288 2290 2198 2293 2377
8 2289 2197 2096 2195 2378 2292 2198 2290
8 2291 2200 2105 2204 2379 2294 2205 2297
8 2199 2102 2200 2291 2293 2202 2294 2379
8 2198 2101 2202 2293 2292 2201 2295 2380
8 2299 2207 2297 2383 2206 2107 2204 2296
8 2300 2208 2298 2384 2207 2108 2205 2297
8 2302 2210 2300 2386 2209 2110 2207 2299
8 2303 2211 2301 2387 2210 2111 2208 2300
8 2305 2213 2303 2389 2212 2113 2210 2302
8 2306 2214 2304 2390 2213 2114 2211 2303
8 2310 2216 2306 2392 2220 2117 2213 2305
8 2308 2215 2307 2393 2216 2115 2214 2306
8 2308 2215 2115 2216 2396 2309 2217 2311
8 2310 2216 2117 2220 2398 2311 2219 2315
8 2311 2217 2116 2219 2399 2312 2218 2314
8 2314 2218 2118 2222 2402 2313 2221 2317
8 2315 2219 2119 2223 2403 2314 2222 2318
8 2225 2121 2224 2320 2317 2221 2316 2405
8 2226 2122 2225 2321 2318 2222 2317 2406
8 2228 2124 2227 2323 2320 2224 2319 2408
8 2229 2125 2228 2324 2321 2225 2320 2409
8 2231 2127 2230 2326 2323 2227 2322 2411
8 2232 2128 2231 2327 2324 2228 2323 2412
8 2234 2130 2233 2328 2326 2230 2325 2413
8 2235 2131 2234 2329 2327 2231 2326 2414
8 2237 2134 2236 2330 2329 2234 2328 2415
8 2259 2158 2260 2352 2332 2239 2331 2417
8 2257 2157 2259 2350 2334 2240 2332 2419
8 2240 2139 2239 2332 2335 2241 2333 2420
8 2334 2240 2335 2422 2242 2140 2243 2337
8 2335 2241 2336 2423 2243 2141 2244 2338
8 2337 2243 2338 2425 2247 2143 2246 2342
8 2338 2244 2339 2426 2246 2142 2245 2341
8 2341 2245 2340 2428 2249 2145 2248 2343
8 2342 2246 2341 2429 2250 2146 2249 2344
8 2344 2249 2343 2430 2252 2149 2251 2345
8 2188 2285 2347 2254 2284 2374 2432 2346
8 2347 2254 2346 2432 2271 2169 2270 2364
8 2365 2271 2170 2272 2433 2347 2255 2348
8 2286 2189 2285 2375 2348 2255 2347 2433
8 2349 2258 2351 2435 2257 2157 2259 2350
8 2349 2258 2164 2263 2435 2351 2264 2355
8 2259 2158 2261 2351 2352 2260 2354 2437
8 2356 2265 2354 2437 2264 2165 2261 2351
8 2441 2357 2264 2355 2362 2268 2168 2269
8 2356 2265 2165 2264 2442 2358 2266 2357
8 2443 2359 2266 2357 2361 2267 2166 2268
8 2370 2279 2360 2446 2280 2181 2267 2361
8 2362 2268 2182 2281 2447 2361 2280 2371
8 2180 2277 2368 2278 2270 2364 2449 2363
8 2271 2365 2273 2177 2364 2450 2366 2277
8 2372 2283 2186 2282 2451 2368 2276 2367
8 2178 2274 2367 2276 2277 2366 2451 2368
8 2283 2187 2278 2368 2370 2279 2369 2452
8 2372 2283 2370 2453 2282 2186 2280 2371
8 2284 2374 2455 2373 2201 2292 2380 2295
8 2375 2285 2197 2289 2456 2374 2292 2378
8 2376 2291 2204 2296 2457 2379 2297 2383
8 2288 2199 2291 2376 2377 2293 2379 2457
8 2198 2290 2378 2292 2293 2377 2458 2380
8 2293 2202 2294 2379 2380 2295 2381 2459
8 2384 2298 2381 2459 2297 2205 2294 2379
8 2386 2300 2384 2463 2299 2207 2297 2383
8 2387 2301 2385 2464 2300 2208 2298 2384
8 2389 2303 2387 2466 2302 2210 2300 2386
8 2390 2304 2388 2467 2303 2211 2301 2387
8 2392 2306 2390 2469 2305 2213 2303 2389
8 2393 2307 2391 2470 2306 2214 2304 2390
8 2395 2308 2393 2472 2310 2216 2306 2392
8 2308 2215 2309 2396 2393 2307 2394 2473
8 2395 2308 2216 2310 2475 2396 2311 2398
8 2396 2309 2217 2311 2476 2397 2312 2399
8 2398 2311 2219 2315 2478 2399 2314 2403
8 2399 2312 2218 2314 2479 2400 2313 2402
8 2317 2221 2316 2405 2402 2313 2401 2482
8 2403 2314 2222 2318 2483 2402 2317 2406
8 2320 2224 2319 2408 2405 2316 2404 2485
8 2321 2225 2320 2409 2406 2317 2405 2486
8 2323 2227 2322 2411 2408 2319 2407 2488
8 2324 2228 2323 2412 2409 2320 2408 2489
8 2326 2230 2325 2413 2411 2322 2410 2490
8 2327 2231 2326 2414 2412 2323 2411 2491
8 2329 2234 2328 2415 2414 2326 2413 2492
8 2417 2331 2260 2352 2494 2416 2353 2438
8 2350 2259 2352 2436 2419 2332 2417 2496
8 2332 2239 2331 2417 2420 2333 2418 2497
8 2334 2240 2332 2419 2422 2335 2420 2499
8 2420 2333 2421 2500 2335 2241 2336 2423
8 2422 2335 2423 2502 2337 2243 2338 2425
8 2423 2336 2424 2503 2338 2244 2339 2426
8 2425 2338 2426 2505 2342 2246 2341 2429
8 2426 2339 2427 2506 2341 2245 2340 2428
8 2429 2341 2428 2507 2344 2249 2343 2430
8 2432 2346 2284 2374 2509 2431 2373 2455
8 2432 2346 2431 2509 2364 2270 2363 2449
8 2375 2285 2374 2456 2433 2347 2432 2510
8 2347 2433 2365 2271 2432 2510 2450 2364
8 2350 2259 2351 2435 2436 2352 2437 2514
8 2440 2356 2437 2514 2355 2264 2351 2435
8 2352 2260 2354 2437 2438 2353 2439 2516
8 2356 2265 2358 2442 2437 2354 2439 2516
8 2440 2356 2264 2355 2518 2442 2357 2441
8 2519 2443 2357 2441 2447 2361 2268 2362
8 2443 2359 2444 2520 2357 2266 2358 2442
8 2443 2359 2267 2361 2520 2444 2360 2446
8 2446 2360 2279 2370 2523 2445 2369 2452
8 2453 2370 2446 2524 2371 2280 2361 2447
8 2449 2363 2448 2525 2368 2278 2369 2452
8 2366 2277 2364 2450 2451 2368 2449 2526
8 2372 2283 2368 2451 2453 2370 2452 2527
8 2455 2373 2295 2380 2529 2454 2382 2460
8 2456 2374 2292 2378 2530 2455 2380 2458
8 2377 2293 2379 2457 2458 2380 2459 2531
8 2463 2384 2459 2531 2383 2297 2379 2457
8 2533 2461 2382 2460 2459 2381 2295 2380
8 2464 2385 2461 2533 2384 2298 2381 2459
8 2466 2387 2464 2537 2386 2300 2384 2463
8 2467 2388 2465 2538 2387 2301 2385 2464
8 2469 2390 2467 2540 2389 2303 2387 2466
8 2470 2391 2468 2541 2390 2304 2388 2467
8 2472 2393 2470 2543 2392 2306 2390 2469
8 2393 2307 2394 2473 2470 2391 2471 2544
8 2395 2308 2396 2475 2472 2393 2473 2546
8 2396 2309 2397 2476 2473 2394 2474 2547
8 2475 2396 2311 2398 2549 2476 2399 2478
8 2476 2397 2312 2399 2550 2477 2400 2479
8 2478 2399 2314 2403 2552 2479 2402 2483
8 2479 2400 2313 2402 2553 2480 2401 2482
8 2405 2316 2404 2485 2482 2401 2481 2556
8 2406 2317 2405 2486 2483 2402 2482 2557
8 2408 2319 2407 2488 2485 2404 2484 2559
8 2409 2320 2408 2489 2486 2405 2485 2560
8 2411 2322 2410 2490 2488 2407 2487 2561
8 2412 2323 2411 2491 2489 2408 2488 2562
8 2414 2326 2413 2492 2491 2411 2490 2563
8 2513 2434 2493 2565 2438 2353 2416 2494
8 2496 2417 2352 2436 2567 2494 2438 2515
8 2494 2416 2495 2568 2417 2331 2418 2497
8 2419 2332 2417 2496 2499 2420 2497 2570
8 2497 2418 2498 2571 2420 2333 2421 2500
8 2499 2420 2500 2573 2422 2335 2423 2502
8 2500 2421 2501 2574 2423 2336 2424 2503
8 2502 2423 2503 2576 2425 2338 2426 2505
8 2503 2424 2504 2577 2426 2339 2427 2506
8 2505 2426 2506 2578 2429 2341 2428 2507
8 2509 2431 2373 2455 2580 2508 2454 2529
8 2509 2431 2508 2580 2449 2363 2448 2525
8 2432 2510 2581 2509 2374 2456 2530 2455
8 2432 2510 2450 2364 2509 2581 2526 2449
8 2583 2511 2434 2513 2516 2439 2353 2438
8 2436 2352 2437 2514 2515 2438 2516 2588
8 2440 2356 2442 2518 2514 2437 2516 2588
8 2442 2358 2444 2520 2516 2439 2517 2589
8 2519 2443 2520 2591 2441 2357 2442 2518
8 2519 2443 2361 2447 2591 2520 2446 2524
8 2446 2360 2445 2523 2520 2444 2521 2592
8 2525 2448 2522 2593 2452 2369 2445 2523
8 2524 2446 2370 2453 2594 2523 2452 2527
8 2526 2449 2525 2595 2451 2368 2452 2527
8 2534 2462 2528 2597 2460 2382 2454 2529
8 2530 2455 2380 2458 2598 2529 2460 2532
8 2599 2533 2460 2532 2531 2459 2380 2458
8 2537 2464 2533 2599 2463 2384 2459 2531
8 2534 2462 2382 2460 2601 2535 2461 2533
8 2538 2465 2535 2601 2464 2385 2461 2533
8 2540 2467 2538 2604 2466 2387 2464 2537
8 2541 2468 2539 2605 2467 2388 2465 2538
8 2543 2470 2541 2607 2469 2390 2467 2540
8 2470 2391 2471 2544 2541 2468 2542 2608
8 2472 2393 2473 2546 2543 2470 2544 2610
8 2473 2394 2474 2547 2544 2471 2545 2611
8 2475 2396 2476 2549 2546 2473 2547 2613
8 2476 2397 2477 2550 2547 2474 2548 2614
8 2549 2476 2399 2478 2616 2550 2479 2552
8 2479 2400 2480 2553 2550 2477 2551 2617
8 2552 2479 2402 2483 2619 2553 2482 2557
8 2482 2401 2481 2556 2553 2480 2554 2620
8 2485 2404 2484 2559 2556 2481 2555 2623
8 2486 2405 2485 2560 2557 2482 2556 2624
8 2488 2407 2487 2561 2559 2484 2558 2625
8 2489 2408 2488 2562 2560 2485 2559 2626
8 2491 2411 2490 2563 2562 2488 2561 2627
8 2513 2434 2512 2585 2565 2493 2564 2630
8 2586 2513 2565 2632 2515 2438 2494 2567
8 2565 2493 2566 2633 2494 2416 2495 2568
8 2567 2494 2568 2635 2496 2417 2497 2570
8 2568 2495 2569 2636 2497 2418 2498 2571
8 2570 2497 2571 2638 2499 2420 2500 2573
8 2571 2498 2572 2639 2500 2421 2501 2574
8 2573 2500 2574 2641 2502 2423 2503 2576
8 2574 2501 2575 2642 2503 2424 2504 2577
8 2576 2503 2577 2643 2505 2426 2506 2578
8 2597 2528 2579 2645 2529 2454 2508 2580
8 2580 2508 2579 2645 2525 2448 2522 2593
8 2581 2509 2455 2530 2646 2580 2529 2598
8 2581 2509 2580 2646 2526 2449 2525 2595
8 2583 2511 2582 2648 2513 2434 2512 2585
8 2583 2511 2439 2516 2648 2582 2517 2589
8 2649 2583 2513 2586 2588 2516 2438 2515
8 2589 2517 2444 2520 2653 2587 2521 2592
8 2518 2442 2520 2591 2588 2516 2589 2654
8 2593 2522 2590 2655 2523 2445 2521 2592
8 2524 2446 2523 2594 2591 2520 2592 2656
8 2595 2525 2593 2657 2527 2452 2523 2594
8 2602 2536 2596 2659 2534 2462 2528 2597
8 2600 2534 2597 2660 2532 2460 2529 2598
8 2600 2534 2460 2532 2661 2601 2533 2599
8 2604 2538 2601 2661 2537 2464 2533 2599
8 2602 2536 2462 2534 2663 2603 2535 2601
8 2601 2535 2465 2538 2663 2603 2539 2605
8 2607 2541 2605 2665 2540 2467 2538 2604
8 2608 2542 2606 2666 2541 2468 2539 2605
8 2543 2470 2544 2610 2607 2541 2608 2668
8 2544 2471 2545 2611 2608 2542 2609 2669
8 2546 2473 2547 2613 2610 2544 2611 2671
8 2547 2474 2548 2614 2611 2545 2612 2672
8 2549 2476 2550 2616 2613 2547 2614 2674
8 2550 2477 2551 2617 2614 2548 2615 2675
8 2552 2479 2553 2619 2616 2550 2617 2677
8 2553 2480 2554 2620 2617 2551 2618 2678
8 2557 2482 2556 2624 2619 2553 2620 2680
8 2556 2481 2555 2623 2620 2554 2621 2681
8 2559 2484 2558 2625 2623 2555 2622 2683
8 2560 2485 2559 2626 2624 2556 2623 2684
8 2562 2488 2561 2627 2626 2559 2625 2685
8 2690 2629 2564 2630 2650 2584 2512 2585
8 2586 2513 2585 2651 2632 2565 2630 2691
8 2630 2564 2631 2692 2565 2493 2566 2633
8 2632 2565 2633 2694 2567 2494 2568 2635
8 2633 2566 2634 2695 2568 2495 2569 2636
8 2635 2568 2636 2697 2570 2497 2571 2638
8 2636 2569 2637 2698 2571 2498 2572 2639
8 2638 2571 2639 2700 2573 2500 2574 2641
8 2639 2572 2640 2701 2574 2501 2575 2642
8 2641 2574 2642 2702 2576 2503 2577 2643
8 2597 2528 2596 2659 2645 2579 2644 2704
8 2645 2579 2644 2704 2593 2522 2590 2655
8 2660 2597 2645 2705 2598 2529 2580 2646
8 2646 2580 2645 2705 2595 2525 2593 2657
8 2650 2584 2512 2585 2707 2647 2582 2648
8 2648 2582 2517 2589 2707 2647 2587 2653
8 2649 2583 2648 2708 2586 2513 2585 2651
8 2649 2583 2516 2588 2708 2648 2589 2654
8 2655 2590 2652 2710 2592 2521 2587 2653
8 2654 2589 2520 2591 2711 2653 2592 2656
8 2657 2593 2655 2712 2594 2523 2592 2656
8 2602 2536 2603 2663 2659 2596 2658 2714
8 2662 2602 2659 2715 2600 2534 2597 2660
8 2662 2602 2534 2600 2717 2663 2601 2661
8 2661 2601 2538 2604 2717 2663 2605 2665
8 2666 2606 2664 2718 2605 2539 2603 2663
8 2668 2608 2666 2720 2607 2541 2605 2665
8 2608 2542 2609 2669 2666 2606 2667 2721
8 2610 2544 2611 2671 2668 2608 2669 2723
8 2611 2545 2612 2672 2669 2609 2670 2724
8 2613 2547 2614 2674 2671 2611 2672 2726
8 2614 2548 2615 2675 2672 2612 2673 2727
8 2616 2550 2617 2677 2674 2614 2675 2729
8 2617 2551 2618 2678 2675 2615 2676 2730
8 2619 2553 2620 2680 2677 2617 2678 2732
8 2620 2554 2621 2681 2678 2618 2679 2733
8 2624 2556 2623 2684 2680 2620 2681 2735
8 2681 2621 2555 2623 2736 2682 2622 2683
8 2626 2559 2625 2685 2684 2623 2683 2737
8 2688 2628 2584 2650 2740 2686 2647 2707
8 2688 2628 2687 2742 2650 2584 2629 2690
8 2690 2629 2689 2745 2630 2564 2631 2692
8 2746 2690 2630 2691 2709 2650 2585 2651
8 2691 2630 2692 2747 2632 2565 2633 2694
8 2692 2631 2693 2748 2633 2566 2634 2695
8 2694 2633 2695 2750 2635 2568 2636 2697
8 2695 2634 2696 2751 2636 2569 2637 2698
8 2697 2636 2698 2753 2638 2571 2639 2700
8 2698 2637 2699 2754 2639 2572 2640 2701
8 2700 2639 2701 2755 2641 2574 2642 2702
8 2659 2596 2658 2714 2704 2644 2703 2757
8 2704 2644 2703 2757 2655 2590 2652 2710
8 2660 2597 2659 2715 2705 2645 2704 2758
8 2705 2645 2704 2758 2657 2593 2655 2712
8 2759 2706 2647 2707 2710 2652 2587 2653
8 2709 2650 2585 2651 2760 2707 2648 2708
8 2708 2648 2589 2654 2760 2707 2653 2711
8 2712 2655 2710 2761 2656 2592 2653 2711
8 2763 2713 2658 2714 2718 2664 2603 2663
8 2662 2602 2663 2717 2715 2659 2714 2764
8 2720 2666 2718 2767 2665 2605 2663 2717
8 2768 2719 2664 2718 2721 2667 2606 2666
8 2668 2608 2669 2723 2720 2666 2721 2770
8 2669 2609 2670 2724 2721 2667 2722 2771
8 2671 2611 2672 2726 2723 2669 2724 2773
8 2672 2612 2673 2727 2724 2670 2725 2774
8 2674 2614 2675 2729 2726 2672 2727 2776
8 2675 2615 2676 2730 2727 2673 2728 2777
8 2677 2617 2678 2732 2729 2675 2730 2779
8 2678 2618 2679 2733 2730 2676 2731 2780
8 2680 2620 2681 2735 2732 2678 2733 2782
8 2733 2679 2621 2681 2783 2734 2682 2736
8 2735 2681 2623 2684 2784 2736 2683 2737
8 2740 2686 2647 2707 2787 2738 2706 2759
8 2688 2628 2686 2740 2742 2687 2739 2789
8 2743 2688 2650 2709 2790 2740 2707 2760
8 2742 2687 2741 2792 2690 2629 2689 2745
8 2743 2688 2742 2793 2709 2650 2690 2746
8 2745 2689 2744 2795 2692 2631 2693 2748
8 2746 2690 2745 2796 2691 2630 2692 2747
8 2747 2692 2748 2797 2694 2633 2695 2750
8 2748 2693 2749 2798 2695 2634 2696 2751
8 2750 2695 2751 2800 2697 2636 2698 2753
8 2751 2696 2752 2801 2698 2637 2699 2754
8 2753 2698 2754 2802 2700 2639 2701 2755
8 2763 2713 2756 2804 2714 2658 2703 2757
8 2759 2706 2652 2710 2804 2756 2703 2757
8 2715 2659 2714 2764 2758 2704 2757 2805
8 2758 2704 2757 2805 2712 2655 2710 2761
8 2806 2759 2707 2760 2761 2710 2653 2711
8 2765 2716 2762 2808 2718 2664 2713 2763
8 2809 2763 2714 2764 2767 2718 2663 2717
8 2765 2716 2664 2718 2811 2766 2719 2768
8 2813 2768 2718 2767 2770 2721 2666 2720
8 2814 2769 2719 2768 2771 2722 2667 2721
8 2723 2669 2724 2773 2770 2721 2771 2816
8 2724 2670 2725 2774 2771 2722 2772 2817
8 2726 2672 2727 2776 2773 2724 2774 2819
8 2727 2673 2728 2777 2774 2725 2775 2820
8 2729 2675 2730 2779 2776 2727 2777 2822
8 2730 2676 2731 2780 2777 2728 2778 2823
8 2732 2678 2733 2782 2779 2730 2780 2825
8 2780 2731 2679 2733 2826 2781 2734 2783
8 2782 2733 2681 2735 2827 2783 2736 2784
8 2830 2785 2738 2787 2804 2756 2706 2759
8 2789 2739 2686 2740 2832 2786 2738 2787
8 2790 2740 2707 2760 2833 2787 2759 2806
8 2742 2687 2739 2789 2792 2741 2788 2835
8 2743 2688 2740 2790 2793 2742 2789 2836
8 2792 2741 2791 2838 2745 2689 2744 2795
8 2793 2742 2792 2839 2746 2690 2745 2796
8 2795 2744 2794 2841 2748 2693 2749 2798
8 2796 2745 2795 2842 2747 2692 2748 2797
8 2797 2748 2798 2843 2750 2695 2751 2800
8 2798 2749 2799 2844 2751 2696 2752 2801
8 2800 2751 2801 2845 2753 2698 2754 2802
8 2808 2762 2803 2847 2763 2713 2756 2804
8 2809 2763 2804 2848 2764 2714 2757 2805
8 2806 2759 2710 2761 2848 2804 2757 2805
8 2765 2716 2766 2811 2808 2762 2807 2850
8 2810 2765 2808 2851 2767 2718 2763 2809
8 2810 2765 2718 2767 2852 2811 2768 2813
8 2811 2766 2719 2768 2853 2812 2769 2814
8 2855 2814 2768 2813 2816 2771 2721 2770
8 2856 2815 2769 2814 2817 2772 2722 2771
8 2773 2724 2774 2819 2816 2771 2817 2858
8 2774 2725 2775 2820 2817 2772 2818 2859
8 2776 2727 2777 2822 2819 2774 2820 2861
8 2777 2728 2778 2823 2820 2775 2821 2862
8 2779 2730 2780 2825 2822 2777 2823 2864
8 2823 2778 2731 2780 2865 2824 2781 2826
8 2825 2780 2733 2782 2866 2826 2783 2827
8 2869 2828 2785 2830 2847 2803 2756 2804
8 2871 2829 2786 2832 2830 2785 2738 2787
8 2872 2830 2787 2833 2848 2804 2759 2806
8 2789 2739 2786 2832 2835 2788 2831 2874
8 2836 2789 2740 2790 2875 2832 2787 2833
8 2792 2741 2788 2835 2838 2791 2834 2877
8 2793 2742 2789 2836 2839 2792 2835 2878
8 2838 2791 2837 2880 2795 2744 2794 2841
8 2839 2792 2838 2881 2796 2745 2795 2842
8 2841 2794 2840 2882 2798 2749 2799 2844
8 2842 2795 2841 2883 2797 2748 2798 2843
8 2843 2798 2844 2884 2800 2751 2801 2845
8 2886 2846 2803 2847 2850 2807 2762 2808
8 2851 2808 2847 2887 2809 2763 2804 2848
8 2850 2807 2766 2811 2889 2849 2812 2853
8 2810 2765 2811 2852 2851 2808 2850 2890
8 2852 2811 2768 2813 2891 2853 2814 2855
8 2853 2812 2769 2814 2892 2854 2815 2856
8 2894 2856 2814 2855 2858 2817 2771 2816
8 2817 2772 2818 2859 2856 2815 2857 2895
8 2819 2774 2820 2861 2858 2817 2859 2897
8 2820 2775 2821 2862 2859 2818 2860 2898
8 2822 2777 2823 2864 2861 2820 2862 2900
8 2823 2778 2824 2865 2862 2821 2863 2901
8 2864 2823 2780 2825 2902 2865 2826 2866
8 2904 2867 2828 2869 2886 2846 2803 2847
8 2869 2828 2868 2906 2830 2785 2829 2871
8 2907 2869 2830 2872 2887 2847 2804 2848
8 2871 2829 2870 2909 2832 2786 2831 2874
8 2910 2871 2832 2875 2872 2830 2787 2833
8 2835 2788 2831 2874 2877 2834 2873 2912
8 2836 2789 2832 2875 2878 2835 2874 2913
8 2877 2834 2876 2915 2838 2791 2837 2880
8 2839 2792 2835 2878 2881 2838 2877 2916
8 2880 2837 2879 2917 2841 2794 2840 2882
8 2881 2838 2880 2918 2842 2795 2841 2883
8 2883 2841 2882 2919 2843 2798 2844 2884
8 2921 2885 2846 2886 2889 2849 2807 2850
8 2922 2886 2847 2887 2890 2850 2808 2851
8 2889 2849 2812 2853 2924 2888 2854 2892
8 2890 2850 2811 2852 2925 2889 2853 2891
8 2891 2853 2814 2855 2926 2892 2856 2894
8 2892 2854 2815 2856 2927 2893 2857 2895
8 2858 2817 2859 2897 2894 2856 2895 2929
8 2859 2818 2860 2898 2895 2857 2896 2930
8 2861 2820 2862 2900 2897 2859 2898 2932
8 2862 2821 2863 2901 2898 2860 2899 2933
8 2864 2823 2865 2902 2900 2862 2901 2934
8 2904 2867 2846 2886 2936 2903 2885 2921
8 2904 2867 2903 2936 2869 2828 2868 2906
8 2937 2904 2869 2907 2922 2886 2847 2887
8 2906 2868 2905 2939 2871 2829 2870 2909
8 2907 2869 2906 2940 2872 2830 2871 2910
8 2909 2870 2908 2942 2874 2831 2873 2912
8 2910 2871 2909 2943 2875 2832 2874 2913
8 2912 2873 2911 2945 2877 2834 2876 2915
8 2878 2835 2874 2913 2916 2877 2912 2946
8 2915 2876 2914 2947 2880 2837 2879 2917
8 2916 2877 2915 2948 2881 2838 2880 2918
8 2918 2880 2917 2949 2883 2841 2882 2919
8 2921 2885 2849 2889 2951 2920 2888 2924
8 2952 2921 2886 2922 2925 2889 2850 2890
8 2924 2888 2854 2892 2954 2923 2893 2927
8 2925 2889 2853 2891 2955 2924 2892 2926
8 2926 2892 2856 2894 2956 2927 2895 2929
8 2895 2857 2896 2930 2927 2893 2928 2957
8 2897 2859 2898 2932 2929 2895 2930 2959
8 2898 2860 2899 2933 2930 2896 2931 2960
8 2900 2862 2901 2934 2932 2898 2933 2961
8 2936 2903 2885 2921 2963 2935 2920 2951
8 2936 2903 2935 2963 2906 2868 2905 2939
8 2937 2904 2886 2922 2964 2936 2921 2952
8 2937 2904 2936 2964 2907 2869 2906 2940
8 2939 2905 2938 2966 2909 2870 2908 2942
8 2940 2906 2939 2967 2910 2871 2909 2943
8 2942 2908 2941 2969 2912 2873 2911 2945
8 2943 2909 2942 2970 2913 2874 2912 2946
8 2945 2911 2944 2971 2915 2876 2914 2947
8 2946 2912 2945 2972 2916 2877 2915 2948
8 2948 2915 2947 2973 2918 2880 2917 2949
8 2951 2920 2888 2924 2975 2950 2923 2954
8 2952 2921 2889 2925 2976 2951 2924 2955
8 2927 2893 2928 2957 2954 2923 2953 2978
8 2955 2924 2892 2926 2979 2954 2927 2956
8 2929 2895 2930 2959 2956 2927 2957 2980
8 2930 2896 2931 2960 2957 2928 2958 2981
8 2932 2898 2933 2961 2959 2930 2960 2982
8 2951 2920 2950 2975 2963 2935 2962 2984
8 2963 2935 2962 2984 2939 2905 2938 2966
8 2964 2936 2921 2952 2985 2963 2951 2976
8 2964 2936 2963 2985 2940 2906 2939 2967
8 2966 2938 2965 2987 2942 2908 2941 2969
8 2967 2939 2966 2988 2943 2909 2942 2970
8 2969 2941 2968 2989 2945 2911 2944 2971
8 2970 2942 2969 2990 2946 2912 2945 2972
8 2972 2945 2971 2991 2948 2915 2947 2973
8 2954 2923 2953 2978 2975 2950 2974 2993
8 2976 2951 2924 2955 2994 2975 2954 2979
8 2957 2928 2958 2981 2978 2953 2977 2995
8 2956 2927 2957 2980 2979 2954 2978 2996
8 2959 2930 2960 2982 2980 2957 2981 2997
8 2984 2962 2983 2999 2966 2938 2965 2987
8 2975 2950 2974 2993 2984 2962 2983 2999
8 2976 2951 2975 2994 2985 2963 2984 3000
8 2985 2963 2984 3000 2967 2939 2966 2988
8 2987 2965 2986 3001 2969 2941 2968 2989
8 2988 2966 2987 3002 2970 2942 2969 2990
8 2990 2969 2989 3003 2972 2945 2971 2991
8 2978 2953 2977 2995 2993 2974 2992 3004
8 2979 2954 2978 2996 2994 2975 2993 3005
8 2980 2957 2981 2997 2996 2978 2995 3006
8 2974 2993 2999 2983 2992 3004 3007 2998
8 2983 2999 2987 2965 2998 3007 3001 2986
8 3000 2984 2999 3008 2988 2966 2987 3002
8 2994 2975 2993 3005 3000 2984 2999 3008
8 3002 2987 3001 3009 2990 2969 2989 3003
8 2996 2978 2995 3006 3005 2993 3004 3010
8 3005 2993 3004 3010 3008 2999 3007 3011
8 3008 2999 3007 3011 3002 2987 3001 3009

CELL_TYPES 1910
12
12
12
12
12
12
12
12
12
12
12
12
12
12
12
12
12
12
12
12
12
12
12
12
12
12
12
12
12
12
12
12
12
12
12
12
12
12
12
12
12
12
12
12
12
12
12
12
12
12
12
12
12
12
12
12
12
12
12
12
12
12
12
12
12
12
12
12
12
12
12
12
12
12
12
12
12
12
12
12
12
12
12
12
12
12
12
12
12
12
12
12
12
12
12
12
12
12
12
12
12
12
12
12
12
12
12
12
12
12
12
12
12
12
12
12
12
12
12
12
12
12
12
12
12
12
12
12
12
12
12
12
12
12
12
12
12
12
12
12
12
12
12
12
12
12
12
12
12
12
12
12
12
12
12
12
12
12
12
12
12
12
12
12
12
12
12
12
12
12
12
12
12
12
12
12
12
12
12
12
12
12
12
12
12
12
12
12
12
12
12
12
12
12
12
12
12
12
12
12
12
12
12
12
12
12
12
12
12
12
12
12
12
12
12
12
12
12
12
12
12
12
12
12
12
12
12
12
12
12
12
12
12
12
12
12
12
12
12
12
12
12
12
12
12
12
12
12
12
12
12
12
12
12
12
12
12
12
12
12
12
12
12
12
12
12
12
12
12
12
12
12
12
12
12
12
12
12
12
12
12
12
12
12
12
12
12
12
12
12
12
12
12
12
12
12
12
12
12
12
12
12
12
12
12
12
12
12
12
12
12
12
12
12
12
12
12
12
12
12
12
12
12
12
12
12
12
12
12
12
12
12
12
12
12
12
12
12
12
12
12
12
12
12
12
12
12
12
12
12
12
12
12
12
12
12
12
12
12
12
12
12
12
12
12
12
12
12
12
12
12
12
12
12
12
12
12
12
12
12
12
12
12
12
12
12
12
12
12
12
12
12
12
12
12
12
12
12
12
12
12
12
12
12
12
12
12
12
12
12
12
12
12
12
12
12
12
12
12
12
12
12
12
12
12
12
12
12
12
12
12
12
12
12
12
12
12
12
12
12
12
12
12
12
12
12
12
12
12
12
12
12
12
12
12
12
12
12
12
12
12
12
12
12
12
12
12
12
12
12
12
12
12
12
12
12
12
12
12
12
12
12
12
12
12
12
12
12
12
12
12
12
12
12
12
12
12
12
12
12
12
12
12
12
12
12
12
12
12
12
12
12
12
12
12
12
12
12
12
12
12
12
12
12
12
12
12
12
12
12
12
12
12
12
12
12
12
12
12
12
12
12
12
12
12
12
12
12
12
12
12
12
12
12
12
12
12
12
12
12
12
12
12
12
12
12
12
12
12
12
12
12
12
12
12
12
12
12
12
12
12
12
12
12
12
12
12
12
12
12
12
12
12
12
12
12
12
12
12
12
12
12
12
12
12
12
12
12
12
12
12
12
12
12
12
12
12
12
12
12
12
12
12
12
12
12
12
12
12
12
12
12
12
12
12
12
12
12
12
12
12
12
12
12
12
12
12
12
12
12
12
12
12
12
12
12
12
12
12
12
12
12
12
12
12
12
12
12
12
12
12
12
12
12
12
12
12
12
12
12
12
12
12
12
12
12
12
12
12
12
12
12
12
12
12
12
12
12
12
12
12
12
12
12
12
12
12
12
12
12
12
12
12
12
12
12
12
12
12
12
12
12
12
12
12
12
12
12
12
12
12
12
12
12
12
12
12
12
12
12
12
12
12
12
12
12
12
12
12
12
12
12
12
12
12
12
12
12
12
12
12
12
12
12
12
12
12
12
12
12
12
12
12
12
12
12
12
12
12
12
12
12
12
12
12
12
12
12
12
12
12
12
12
12
12
12
12
12
12
12
12
12
12
12
12
12
12
12
12
12
12
12
12
12
12
12
12
12
12
12
12
12
12
12
12
12
12
12
12
12
12
12
12
12
12
12
12
12
12
12
12
12
12
12
12
12
12
12
12
12
12
12
12
12
12
12
12
12
12
12
12
12
12
12
12
12
12
12
12
12
12
12
12
12
12
12
12
12
12
12
12
12
12
12
12
12
12
12
12
12
12
12
12
12
12
12
12
12
12
12
12
12
12
12
12
12
12
12
12
12
12
12
12
12
12
12
12
12
12
12
12
12
12
12
12
12
12
12
12
12
12
12
12
12
12
12
12
12
12
12
12
12
12
12
12
12
12
12
12
12
12
12
12
12
12
12
12
12
12
12
12
12
12
12
12
12
12
12
12
12
12
12
12
12
12
12
12
12
12
12
12
12
12
12
12
12
12
12
12
12
12
12
12
12
12
12
12
12
12
12
12
12
12
12
12
12
12
12
12
12
12
12
12
12
12
12
12
12
12
12
12
12
12
12
12
12
12
12
12
12
12
12
12
12
12
12
12
12
12
12
12
12
12
12
12
12
12
12
12
12
12
12
12
12
12
12
12
12
12
12
12
12
12
12
12
12
12
12
12
12
12
12
12
12
12
12
12
12
12
12
12
12
12
12
12
12
12
12
12
12
12
12
12
12
12
12
12
12
12
12
12
12
12
12
12
12
12
12
12
12
12
12
12
12
12
12
12
12
12
12
12
12
12
12
12
12
12
12
12
12
12
12
12
12
12
12
12
12
12
12
12
12
12
12
12
12
12
12
12
12
12
12
12
12
12
12
12
12
12
12
12
12
12
12
12
12
12
12
12
12
12
12
12
12
12
12
12
12
12
12
12
12
12
12
12
12
12
12
12
12
12
12
12
12
12
12
12
12
12
12
12
12
12
12
12
12
12
12
12
12
12
12
12
12
12
12
12
12
12
12
12
12
12
12
12
12
12
12
12
12
12
12
12
12
12
12
12
12
12
12
12
12
12
12
12
12
12
12
12
12
12
12
12
12
12
12
12
12
12
12
12
12
12
12
12
12
12
12
12
12
12
12
12
12
12
12
12
12
12
12
12
12
12
12
12
12
12
12
12
12
12
12
12
12
12
12
12
12
12
12
12
12
12
12
12
12
12
12
12
12
12
12
12
12
12
12
12
12
12
12
12
12
12
12
12
12
12
12
12
12
12
12
12
12
12
12
12
12
12
12
12
12
12
12
12
12
12
12
12
12
12
12
12
12
12
12
12
12
12
12
12
12
12
12
12
12
12
12
12
12
12
12
12
12
12
12
12
12
12
12
12
12
12
12
12
12
12
12
12
12
12
12
12
12
12
12
12
12
12
12
12
12
12
12
12
12
12
12
12
12
12
12
12
12
12
12
12
12
12
12
12
12
12
12
12
12
12
12
12
12
12
12
12
12
12
12
12
12
12
12
12
12
12
12
12
12
12
12
12
12
12
12
12
12
12
12
12
12
12
12
12
12
12
12
12
12
12
12
12
12
12
12
12
12
12
12
12
12
12
12
12
12
12
12
12
12
12
12
12
12
12
12
12
12
12
12
12
12
12
12
12
12
12
12
12
12
12
12
12
12
12
12
12
12
12
12
12
12
12
12
12
12
12
12
12
12
12
12
12
12
12
12
12
12
12
12
12
12
12
12
12
12
12
12
12
12
12
12
12
12
12
12
12
12
12
12
12
12
12
12
12
12
12
12
12
12
12
12
12
12
12
12
12
12
12
12
12
12
12
12
12
12
12
12
12
12
12
12
12
12
12
12
12
12
12
12
12
12
12
12
12
12
12
12
12
12
12
12
12
12
12
12
12
12
12
12
12
12
12
12
12
12
12
12
12
12
12
12
12
12
12
12
12
12
12
12
12
12
12
12
12
12
12
12
12
12
12
12
12
12
12
12
12
12
12
12
12
12
12
12
12
12
12
12
12
12
12
12
12
12
12
12
12
12
12
12
12
12
12
12
12
12
12
12
12
12
12
12
12
12
12
12
12
12
12
12
12
12
12
12
12
12
12
12
12
12
12
12
12
12
12
12
12
12
12
12
12
12
12
12
12
12
12
12
12
12
12
12
12
12
12
12
12
12
12
12
12
12
12
12
12
12
12
12
12
12
12
12
12
12
12
12
12
12
12
12
12
12
12
12
12
12
12
12
12
12
12
12
12
12
12
12
12
12
12
12
12
12
12
12
12
12
12
12
12
12
12
12
12
12
12
12
12
12
12
12
12
12
12
12
12
12
12
12
12
12
12
12
12
12
12
12
12
12
12
12
12
12
12
12
12
12
12
12
12
12
12
12
12
12
12
12
12
12
12
12
12
12
12
12
12
12
12
12
12
12
12
12
12
12
12
12
12
12
12
12
12
12
12
12
12
12
12
12
12
12
12
12
12
12
12
12
12
12
12
12
12
12
12
12
12
12
12
12
12
12
12
12
12
12
12
12
12
12
12
12
12
12
12
12
12
12
12
12
12
12
12
12
12
12

POINT_DATA 3012
SCALARS Jp_lamdaP float 4
LOOKUP_TABLE default
0.999839 1 1 0.999839
1 1 1 1
0.999844 1 1 0.999844
0.999794 1 1 0.999794
0.999838 1 1 0.999838
0.999832 1 1 0.999832
0.999277 1 1 0.999277
1 1 1 1
1 1 1 1
1 1 1 1
0.999912 1 1 0.999912
0.999432 1 1 0.999432
0.99976 1 1 0.99976
0.999787 1 1 0.999787
0.999844 1 1 0.999844
0.999811 1 1 0.999811
0.999837 1 1 0.999837
0.999848 1 1 0.999848
0.99928 1 1 0.99928
1 1 1 1
0.999774 1 1 0.999774
0.99982 1 1 0.99982
0.999147 1 1 0.999147
0.999246 1 1 0.999246
0.999851 1 1 0.999851
0.999308 1 1 0.999308
0.999455 1.00107 1 0.998391
1 1 1 1
0.999908 1 1 0.999908
0.999922 1 1 0.999922
1 1 1 1
0.99944 1 1 0.99944
0.999811 1 1 0.999811
0.999834 1 1 0.999834
0.999368 1 1 0.999368
1 1 1 1
0.999457 1 1 0.999457
0.99953 1 1 0.99953
0.998426 1 1 0.998426
1 1 1 1
1 1 1 1
0.999892 1 1 0.999892
1 1 1 1
0.99978 1 1 0.99978
0.999075 1 1 0.999075
1 1 1 1
0.999273 1 1 0.999273
0.999825 1 1 0.999825
0.999854 1 1 0.999854
0.999838 1 1 0.999838
0.999285 1 1 0.999285
0.999876 1 1 0.999876
0.99979 1 1 0.99979
0.999861 1 1 0.999861
0.999834 1 1 0.999834
0.999147 1 1 0.999147
0.999312 1 1 0.999312
0.999249 1 1 0.999249
0.999729 1.00135 1 0.998376
1 1 1 1
0.999763 1 1 0.999763
0.999252 1 1 0.999252
0.999111 1 1 0.999111
0.999198 1 1 0.999198
1.00175 1.00366 1 0.998094
1.00027 1.00205 1 0.998226
0.999908 1 1 0.999908
0.999422 1 1 0.999422
0.998768 1.00027 1 0.998495
1.0073 1.0097 1 0.997627
1 1 1 1
1 1 1 1
1 1 1 1
0.999448 1 1 0.999448
1 1 1 1
1 1 1 1
0.999279 1 1 0.999279
0.999978 1 1 0.999978
0.999386 1 1 0.999386
0.99959 1 1 0.99959
0.998423 1 1 0.998423
1 1 1 1
0.999937 1 1 0.999937
0.999217 1 1 0.999217
0.999315 1 1 0.999315
1.00153 1.00354 1 0.998003
0.999746 1 1 0.999746
0.998819 1.00049 1 0.998325
0.998562 1 1 0.998562
0.998605 1.00076 1 0.997852
1 1 1 1
1 1 1 1
1 1 1 1
1 1 1 1
1 1 1 1
0.999886 1 1 0.999886
0.999159 1 1 0.999159
0.999896 1 1 0.999896
0.999223 1 1 0.999223
1 1 1 1
0.999064 1 1 0.999064
0.999247 1 1 0.999247
1.0014 1.00369 1 0.997717
0.999309 1 1 0.999309
1.00292 1.00513 1 0.997799
0.999778 1 1 0.999778
0.999805 1 1 0.999805
0.99987 1 1 0.99987
0.999846 1 1 0.999846
0.999148 1 1 0.999148
0.999254 1 1 0.999254
0.999318 1 1 0.999318
0.999993 1.00163 1 0.998361
1 1 1 1
0.999779 1 1 0.999779
0.99909 1 1 0.99909
0.999109 1 1 0.999109
0.999954 1 1 0.999954
0.999478 1 1 0.999478
0.9992 1 1 0.9992
1.00172 1.00368 1 0.998053
0.998957 1.00048 1 0.998476
1.00049 1.00223 1 0.998255
1.0074 1.00979 1 0.997631
0.999087 1 1 0.999087
0.99909 1 1 0.99909
1.00103 1.00315 1 0.99789
1.00177 1.0038 1 0.997978
1.00145 1.00335 1 0.998109
1.01449 1.01711 1 0.997433
1 1 1 1
1.00953 1.01199 1 0.99756
0.99965 1 1 0.99965
0.998524 1 1 0.998524
1.0053 1.00763 1 0.997693
1.01792 1.02058 1 0.997391
0.999841 1 1 0.999841
0.999877 1 1.00078 0.999101
1 1 1 1
1 1 1 1
0.999285 1 1 0.999285
1 1 1 1
0.999585 1 1 0.999585
0.999391 1 1 0.999391
0.99842 1 1 0.99842
1 1 1 1
0.999953 1 1 0.999953
0.99928 1 1 0.99928
0.999374 1 1 0.999374
1.00106 1.00306 1 0.998005
0.999755 1 1 0.999755
0.998619 1.00029 1 0.998328
0.998561 1 1 0.998561
0.998504 1.00067 1 0.997835
0.999857 1 1 0.999857
0.999984 1 1 0.999984
0.999616 1 1.00032 0.999301
1.00264 1.00476 1 0.997892
1.00002 1.00186 1 0.998166
1.01073 1.01334 1 0.997422
0.998789 1 1 0.998789
1.00244 1.0047 1 0.997747
0.998944 1.00043 1.00057 0.997942
1.00274 1.00509 1 0.997669
1 1 1 1
1 1 1 1
1 1 1 1
0.999903 1 1 0.999903
1 1 1 1
1 1 1 1
1 1 1 1
0.99917 1 1 0.99917
0.999102 1 1 0.999102
1 1 1 1
1 1 1 1
0.999066 1 1 0.999066
0.999196 1 1 0.999196
1.00167 1.00396 1 0.997717
0.999198 1 1 0.999198
1.00298 1.00519 1 0.997799
0.999057 1 1 0.999057
1.00073 1.00307 1 0.997669
1.00224 1.00448 1 0.997768
1.01769 1.0205 1 0.997242
1.00305 1.00523 1 0.997831
1.01819 1.02094 1 0.997306
1 1 1 1
0.999795 1 1 0.999795
0.998913 1 1 0.998913
0.999108 1 1 0.999108
1 1 1 1
0.999536 1 1 0.999536
0.999203 1 1 0.999203
1.00169 1.00369 1 0.998012
1.0007 1.00242 1 0.998284
0.999129 1.00067 1 0.998458
1.00749 1.00987 1 0.997636
0.999084 1 1 0.999084
0.999087 1 1 0.999087
1.00089 1.00311 1 0.997794
1.0018 1.0038 1 0.998006
1 1 1 1
0.99965 1 1 0.99965
0.998634 1.00006 1 0.998579
1.00141 1.00331 1 0.998108
1.01437 1.01702 1 0.997397
1.00515 1.00748 1 0.997682
1.00977 1.01221 1 0.997591
1.01748 1.02014 1 0.997397
0.999831 1 1 0.999831
0.999983 1 1.00088 0.999103
1.00037 1.00268 1 0.997691
1.00149 1.00356 1 0.997939
1.01566 1.01837 1 0.997338
1.01486 1.01758 1 0.997324
1.01186 1.01437 1 0.997526
1.02584 1.02859 1 0.997329
0.999757 1 1 0.999757
1.01977 1.02244 1 0.997387
0.998794 1 1.0001 0.998691
1.0008 1.00299 1 0.997817
1.01567 1.01829 1 0.997425
1.02065 1.02329 1 0.99742
0.999622 1 1.00068 0.998945
0.999429 1 1.00013 0.9993
1.00078 1 1.00225 0.99854
0.999238 1 1 0.999238
1 1 1 1
0.999969 1 1 0.999969
0.999343 1 1 0.999343
1.00059 1.00259 1 0.998007
0.999763 1 1 0.999763
0.998601 1 1.00004 0.99856
0.998443 1.00011 1 0.998331
0.998429 1.00061 1 0.997819
0.999877 1 1 0.999877
0.999989 1 1 0.999989
0.999712 1 1.00041 0.999303
1.00235 1.00447 1 0.997892
0.999577 1.00141 1 0.998171
1.01065 1.01326 1 0.99742
0.998813 1 1.00002 0.998792
1.00206 1.00431 1 0.997757
0.998899 1.00049 1.00047 0.997938
1.00291 1.00527 1 0.997654
0.999998 1 1 0.999998
0.999243 1 1.00021 0.999034
0.999821 1 1.00026 0.999558
0.999877 1 1.00114 0.998735
1.01425 1.01695 1 0.997341
1.00693 1.00936 1 0.997589
1.02016 1.02298 1 0.997241
0.998762 1.00009 1.00046 0.998207
1.00834 1.0108 1 0.997568
1.00447 1.00528 1.00158 0.997622
1.01159 1.0141 1 0.997522
0.999843 1 1 0.999843
1 1 1 1
1 1 1 1
1 1 1 1
1 1 1 1
0.99995 1 1 0.99995
1 1 1 1
0.999891 1 1 0.999891
1 1 1 1
0.999199 1 1 0.999199
0.99914 1 1 0.99914
1.00312 1.00533 1 0.997799
1.00191 1.0042 1 0.997718
0.999068 1 1 0.999068
1 1 1 1
0.999057 1 1 0.999057
1.00089 1.00323 1 0.99767
1.00247 1.00472 1 0.997768
1.01741 1.02023 1 0.997241
1.00301 1.00519 1 0.99783
1.01816 1.02091 1 0.997304
1.00031 1.00265 1 0.997662
1.01674 1.0196 1 0.997198
1.01827 1.02105 1 0.997282
1.0313 1.0341 1 0.997293
1.01725 1.01999 1 0.997317
1.02996 1.03275 1 0.997298
0.999081 1 1 0.999081
0.999085 1 1 0.999085
1.00076 1.00307 1 0.997698
1.00182 1.0038 1 0.998035
1 1 1 1
0.99965 1 1 0.99965
0.998762 1.00013 1 0.998633
1.00137 1.00327 1 0.998107
1.01426 1.01695 1 0.99736
1.00999 1.0124 1 0.997623
1.00498 1.00732 1 0.99767
1.01714 1.01979 1 0.997404
0.99982 1 1 0.99982
0.999973 1 1.00087 0.999104
1.00033 1.00267 1 0.997665
1.00146 1.00353 1 0.997936
1.01586 1.01858 1 0.997338
1.015 1.01769 1 0.997359
0.999746 1 1 0.999746
0.998719 1 1.00003 0.998688
1.00147 1.00363 1 0.997852
1.0121 1.01461 1 0.997522
1.02612 1.02885 1 0.997343
1.01499 1.01765 1 0.997391
1.01965 1.02232 1 0.997391
1.02104 1.02368 1 0.99742
0.999401 1 1.00045 0.998948
1.00071 1 1.00217 0.998542
0.999702 1 1.0004 0.999297
1.01574 1.0185 1 0.997285
1.016 1.01869 1 0.997365
1.02982 1.03263 1 0.997278
1.02771 1.0305 1 0.997292
1.02181 1.02449 1 0.997381
1.02706 1.02962 1 0.997507
0.998907 1 1.00007 0.998838
1.02268 1.02528 1 0.997467
0.998698 1.00057 1 0.998133
1.00707 1.00968 1 0.997413
1.01825 1.02104 1 0.997271
1.01927 1.02174 1 0.997583
0.999474 1 1 0.999474
0.998744 1 1.00024 0.998504
1.00137 1 1.00273 0.998636
0.999693 1 1.00133 0.998362
1.00207 1.00419 1 0.997892
0.999995 1 1 0.999995
0.999896 1 1 0.999896
0.99968 1 1.00037 0.999306
0.999103 1.00093 1 0.998175
1.01055 1.01317 1 0.997417
0.998833 1 1.00004 0.998796
0.998767 1.00051 1.00033 0.997933
1.00166 1.0039 1 0.997768
1.0029 1.00527 1 0.997639
0.999999 1 1 0.999999
0.999283 1 1.00025 0.999034
0.999681 1 1.00012 0.999566
1.00016 1 1.00143 0.99873
1.0141 1.01681 1 0.997337
1.00627 1.0087 1 0.997589
1.0201 1.02292 1 0.997239
0.998695 1.00003 1.00045 0.998212
1.00851 1.01095 1 0.997581
1.00421 1.00488 1.00173 0.997611
1.01172 1.01416 1 0.997589
1 1 1 1
0.999717 1 1 0.999717
0.998941 1 1.00044 0.9985
0.999871 1 1.00089 0.998984
0.999844 1 1.0014 0.998451
1.0235 1.02635 1 0.997224
1.01448 1.01714 1 0.997385
1.01921 1.022 1 0.997269
1.00173 1.0019 1.00199 0.997839
1.01138 1.01391 1 0.997504
1.00793 1.00975 1.00086 0.997339
0.999824 1 1 0.999824
0.999436 1 1 0.999436
0.999856 1 1 0.999856
0.999846 1 1 0.999846
1 1 1 1
1 1 1 1
1 1 1 1
1 1 1 1
1 1 1 1
0.999982 1 1 0.999982
1 1 1 1
0.999938 1 1 0.999938
1 1 1 1
0.99988 1 1 0.99988
1 1 1 1
1.00294 1.00512 1 0.997829
1.00266 1.0049 1 0.997767
1.01797 1.02072 1 0.997303
1.01711 1.01992 1 0.997239
1.00111 1.00345 1 0.99767
0.999056 1 1 0.999056
1.00043 1.00278 1 0.997662
1.01667 1.01952 1 0.997198
1.01791 1.02068 1 0.997281
1.03153 1.03432 0.999996 0.997307
1.01682 1.01956 1 0.997314
1.02949 1.03228 1 0.997297
1.01621 1.01908 1 0.997189
1.03068 1.0335 0.999976 0.997292
1.03138 1.03417 1 0.997302
1.03421 1.03719 0.999658 0.997473
1.02615 1.02897 1 0.997267
1.03049 1.03303 1 0.997543
1.00032 1.00268 1 0.99764
1.00143 1.0035 1 0.997933
1.01607 1.01879 1 0.997337
1.01513 1.01779 1 0.997394
0.999736 1 1 0.999736
0.998686 1 1 0.998686
1.00212 1.00424 1 0.997887
1.01235 1.01487 1 0.997518
1.02642 1.02914 1 0.997357
1.01953 1.02219 1 0.997394
1.01423 1.01692 1 0.997358
1.02139 1.02404 1 0.99742
0.999267 1 1.00032 0.998951
1.00065 1 1.00211 0.998544
0.999941 1 1.00065 0.999295
1.01587 1.01867 1 0.99725
1.01612 1.01881 1 0.997363
1.02941 1.0322 1 0.997296
1.02796 1.03075 1 0.997292
0.998892 1 1.00006 0.998837
0.999305 1.00118 1 0.998126
1.00637 1.0089 1.00003 0.997464
1.02198 1.02466 1 0.997376
1.02667 1.02919 1 0.997545
1.01832 1.02114 1 0.997238
1.02269 1.02528 1 0.99747
1.01898 1.02142 1 0.997609
0.99887 1 1.00036 0.998506
0.999683 1 1.00134 0.998344
0.999469 1 1 0.999469
1.00124 1 1.00258 0.998663
1.02979 1.03263 1 0.997252
1.02994 1.03272 1 0.997308
1.03134 1.03422 0.999821 0.997394
1.02898 1.03184 0.999686 0.997537
1.02432 1.02686 1 0.997529
1.02555 1.02791 1 0.997703
0.998383 1 1 0.998383
1.01961 1.02193 1 0.997734
0.999654 1.00191 1 0.99775
1.01062 1.0133 1.00018 0.997176
1.01959 1.02244 1 0.99721
1.01833 1.02074 1 0.997647
0.999594 1 1 0.999594
0.999488 1 1.00066 0.99883
0.998316 1 1 0.998316
1.00138 1 1.00298 0.998411
0.999069 1 1.00075 0.998318
1 1 1 1
1.01388 1.0166 1 0.997333
0.999573 1 1 0.999573
0.999381 1 1.00035 0.999035
1.0005 1 1.00178 0.998725
1.00567 1.0081 1 0.99759
1.0201 1.02293 1 0.997237
0.998723 1 1.00051 0.998218
1.0043 1.00477 1.00193 0.9976
1.00876 1.01119 1 0.997595
1.01205 1.01443 1 0.997655
1 1 1 1
0.999724 1 1 0.999724
0.998946 1 1.00044 0.998502
1.00003 1 1.00105 0.998984
1.00019 1 1.00176 0.99843
1.02374 1.0266 1 0.997218
1.0148 1.01746 1 0.997384
1.01912 1.02192 1 0.997259
1.00127 1.0013 1.00213 0.997844
1.01392 1.01645 1 0.997512
1.00725 1.00894 1.00096 0.997358
0.99979 1 1 0.99979
0.999245 1 1.00004 0.999209
0.998684 1.00002 1.00048 0.998188
1.00111 1 1.00247 0.998643
0.999695 1 1.00138 0.998321
1.02319 1.02594 1 0.997318
1.01488 1.01756 1 0.997361
1.01711 1.01972 1 0.997441
1.00167 1.00027 1.00379 0.997617
1.00703 1.00983 1 0.997226
0.999827 1 1 0.999827
0.999369 1 1 0.999369
0.999414 1 1 0.999414
0.999198 1 1 0.999198
0.999445 1 1 0.999445
0.999861 1 1 0.999861
0.999858 1 1 0.999858
1 1 1 1
0.999848 1 1 0.999848
1 1 1 1
1 1 1 1
1 1 1 1
1 1 1 1
1 1 1 1
0.999997 1 1 0.999997
0.999973 1 1 0.999973
1 1 1 1
1 1 1 1
0.999927 1 1 0.999927
1 1 1 1
1.01648 1.01922 1 0.997311
1.01771 1.02048 1 0.99728
1.02914 1.03193 1 0.997295
1.03181 1.03462 0.999964 0.997321
1.01652 1.01938 1 0.997199
1.0005 1.00284 1 0.997662
1.01605 1.01892 1 0.997189
1.03068 1.03351 0.999973 0.997285
1.03137 1.03416 1 0.997302
1.03349 1.03668 0.999419 0.997503
1.02669 1.02951 1 0.997261
1.03046 1.03313 0.999858 0.997563
1.02985 1.03268 0.999998 0.997259
1.03239 1.03604 0.999036 0.997439
1.03273 1.03557 0.999694 0.997562
1.03203 1.03637 0.998174 0.997628
1.02736 1.02999 1 0.997452
1.03033 1.03319 0.999481 0.997748
1.01594 1.01878 1 0.997215
1.01622 1.01891 1 0.997361
1.02896 1.03173 1 0.997313
1.02817 1.03096 1 0.997293
0.998897 1 1.00006 0.998835
0.999962 1.00185 1 0.99812
1.00586 1.00818 1.00018 0.997514
1.02215 1.02485 1 0.997372
1.0262 1.02868 1 0.997583
1.02271 1.0253 1 0.997474
1.01843 1.02128 1 0.997206
1.01855 1.02097 1 0.997635
0.998996 1 1.00049 0.998509
0.999647 1 1.00132 0.998325
0.999464 1 1 0.999464
1.00091 1 1.00222 0.99869
1.02963 1.03247 1 0.997252
1.02945 1.03225 1 0.997291
1.0312 1.03406 0.999813 0.99742
1.02898 1.03168 0.999862 0.99752
0.998377 1 1 0.998377
0.999894 1.00207 1.00003 0.997796
1.0108 1.01328 1.00039 0.997167
1.02398 1.02655 1 0.997496
1.02526 1.0276 0.999966 0.997756
1.01866 1.02153 1 0.997197
1.02004 1.02236 1 0.997736
1.01952 1.02187 1 0.997692
0.998314 1 1 0.998314
0.998707 1 1.00038 0.998323
1.00208 1 1.00368 0.998405
0.999559 1 1 0.999559
0.99949 1 1.00063 0.998856
1.03143 1.03538 0.998756 0.997424
1.03187 1.035 0.999509 0.997471
1.02648 1.03027 0.998578 0.99774
1.02248 1.02493 0.999829 0.997776
0.9983 1.00016 1 0.998143
1.02318 1.02533 1 0.997898
0.999856 1.00206 1.00029 0.997512
1.01032 1.0129 1.00051 0.996945
1.01746 1.02034 1 0.997183
0.999641 1 1 0.999641
0.999156 1 1.00008 0.999076
1.00027 1 1.00167 0.998604
0.998272 1 1 0.998272
1.0023 1 1.00409 0.998224
0.998254 1 1 0.998254
1 1 1 1
0.999731 1 1 0.999731
1.024 1.02687 1 0.997213
1.00025 1 1.00127 0.998984
0.998856 1 1.00035 0.998504
1.00069 1 1.00229 0.998408
1.01497 1.01764 1 0.997382
1.01886 1.02167 1 0.99725
1.00072 1.00059 1.00229 0.997849
1.00605 1.00792 1.00077 0.997377
1.01626 1.01878 1 0.997522
0.999794 1 1 0.999794
0.999253 1 1.00004 0.999212
0.998615 1.00001 1.00041 0.998192
1.0016 1 1.00297 0.998639
0.999799 1 1.00149 0.998316
1.02312 1.02588 1 0.997312
1.01533 1.01802 1 0.997352
1.01691 1.01949 1 0.997466
1.00145 1.00063 1.00324 0.997584
1.0059 1.00867 1.00006 0.997197
0.999343 1 1 0.999343
1.00034 1 1.00152 0.998818
1.00028 1.00025 1.002 0.998036
1.00162 1 1.00325 0.998378
0.999204 1 1.001 0.998211
1.02358 1.0259 1 0.997729
1.01302 1.0158 1 0.997271
1.01373 1.01628 1 0.997491
1.00359 1.00184 1.00433 0.997418
1.00101 1.00402 1 0.997004
0.99983 1 1 0.99983
0.999386 1 1 0.999386
0.999111 1 1 0.999111
0.999393 1 1 0.999393
0.999444 1 1 0.999444
0.999168 1 1 0.999168
0.999024 1 1 0.999024
0.999137 1 1 0.999137
0.999449 1 1 0.999449
0.999857 1 1 0.999857
0.999861 1 1 0.999861
1 1 1 1
0.999859 1 1 0.999859
1 1 1 1
1 1 1 1
1 1 1 1
1 1 1 1
1 1 1 1
1 1 1 1
0.999994 1 1 0.999994
1 1 1 1
0.999964 1 1 0.999964
1 1 1 1
1 1 1 1
1.02718 1.03001 1 0.997256
1.03119 1.03398 1 0.997302
1.03042 1.03323 0.999702 0.997582
1.03273 1.03612 0.999196 0.997532
1.03071 1.03354 0.999992 0.997279
1.01598 1.01884 1 0.99719
1.03013 1.03299 0.999992 0.997241
1.03262 1.03606 0.999245 0.997431
1.0326 1.03533 0.999821 0.997542
1.03145 1.03608 0.997881 0.997642
1.02672 1.02934 1 0.997452
1.02943 1.03242 0.99931 0.997789
1.03203 1.03535 0.999383 0.997408
1.03197 1.03777 0.996787 0.99762
1.03119 1.03594 0.997661 0.997744
1.0275 1.03034 0.999407 0.997839
1.02951 1.03235 1 0.997252
1.02897 1.03179 1 0.997274
1.03108 1.03392 0.999808 0.997445
1.02903 1.03161 1 0.997503
0.998371 1 1 0.998371
0.999834 1.002 1 0.997842
1.01093 1.01322 1.00058 0.997159
1.02357 1.02617 1 0.997463
1.02502 1.02733 0.999943 0.99781
1.02059 1.0229 1 0.997739
1.01787 1.02075 1 0.997184
1.02074 1.02305 1 0.997737
0.998311 1 1 0.998311
0.998328 1 1 0.998328
1.0034 1 1.00501 0.998398
0.999525 1 1 0.999525
0.999551 1 1.00067 0.998882
1.03197 1.03554 0.999123 0.997426
1.032 1.03514 0.99949 0.997472
1.02641 1.02987 0.998911 0.997729
0.998654 1.00052 1 0.998136
1.00106 1.00325 1.00026 0.997556
1.01006 1.01239 1.00076 0.996934
1.02314 1.0256 0.999838 0.997765
1.0174 1.02019 1 0.99726
1.02145 1.02372 0.999912 0.997875
0.999655 1 1 0.999655
0.998403 1.00014 1 0.998263
0.998334 1 1 0.998334
1.00218 1 1.00398 0.998209
1.00023 1 1.00162 0.998616
0.999115 1 1.00007 0.999049
1.03151 1.03714 0.99706 0.997509
1.0296 1.03642 0.995757 0.997653
1.02266 1.02843 0.996559 0.997827
1.02692 1.03041 0.998641 0.99797
0.99901 1.00103 1 0.997985
1.01804 1.02053 1 0.997562
1.00253 1.0038 1.00165 0.997087
1.00619 1.00838 1.00104 0.996796
0.999764 1 1 0.999764
0.999238 1 1 0.999238
0.998916 1 1.00014 0.998781
1.00246 1 1.00416 0.998308
0.998168 1 1 0.998165
1.00084 1 1.00275 0.998095
0.999799 1 1 0.999799
0.999216 1 1 0.999216
1.02323 1.02599 1 0.997305
1.00172 1 1.00309 0.998636
0.998466 1 1.00027 0.998197
0.999789 1 1.00148 0.998311
1.01606 1.01877 1 0.997342
1.01694 1.0195 1 0.997492
1.0014 1.00112 1.00273 0.997551
1.00483 1.00741 1.00027 0.997168
0.999346 1 1 0.999346
1.00008 1 1.00126 0.998825
1.00017 1.00014 1.00198 0.998051
1.00181 1 1.00343 0.998383
0.998757 1 1.00048 0.998282
1.02399 1.02633 0.99996 0.997764
1.01237 1.01513 1 0.997277
1.01514 1.01762 1 0.997565
1.00298 1.00102 1.00458 0.997383
1.00166 1.00469 1.00003 0.996954
0.999036 1 1 0.999036
1.00112 1 1.00263 0.998488
1.00208 1.00042 1.00378 0.997886
0.999641 1 1.00155 0.99809
1.02653 1.03506 0.99377 0.997983
1.01845 1.02079 0.999872 0.997838
1.00726 1.01022 1 0.99707
1.0034 1.00213 1.00426 0.997021
0.999403 1 1 0.999403
0.999124 1 1 0.999124
0.998986 1 1 0.998986
0.999444 1 1 0.999444
0.999137 1 1 0.999137
0.999448 1 1 0.999448
0.999008 1 1 0.999008
0.99915 1 1 0.99915
0.99892 1 1 0.99892
0.998968 1 1 0.998968
0.999118 1 1 0.999118
0.999435 1 1 0.999435
0.999849 1 1 0.999849
0.999856 1 1 0.999856
1 1 1 1
0.999861 1 1 0.999861
1 1 1 1
1 1 1 1
1 1 1 1
1 1 1 1
1 1 1 1
1 1 1 1
1 1 1 1
1 1 1 1
0.999991 1 1 0.999991
1 1 1 1
1 1 1 1
1.02598 1.0286 1 0.997451
1.03256 1.03516 0.999961 0.997522
1.02855 1.03166 0.999154 0.997829
1.03089 1.0358 0.997597 0.997656
1.03283 1.03608 0.999442 0.997423
1.03042 1.03328 1 0.997224
1.03164 1.03529 0.999067 0.99741
1.03143 1.03705 0.996965 0.997611
1.03074 1.03556 0.997594 0.997743
1.02911 1.03186 0.99949 0.997844
1.03157 1.03746 0.996752 0.997561
1.03173 1.04034 0.993927 0.997787
1.0321 1.03803 0.996397 0.997881
1.03249 1.03569 0.999481 0.997429
1.03212 1.03525 0.999499 0.997473
1.02634 1.0294 0.9993 0.997718
0.999164 1.00104 1 0.998129
1.00228 1.00451 1.00018 0.997599
1.00947 1.01173 1.00085 0.996923
1.02375 1.02622 0.999834 0.997754
1.01976 1.02211 0.999843 0.997852
1.01751 1.02023 1 0.997338
0.998617 1.00036 1 0.998255
0.998414 1 1 0.998414
1.00198 1 1.00379 0.998194
0.99967 1 1 0.99967
0.999689 1 1.00106 0.998628
0.99906 1 1.00004 0.999021
1.03228 1.03744 0.997506 0.997516
1.02987 1.03662 0.995819 0.997662
1.02298 1.02818 0.997117 0.997819
0.999417 1.00145 1 0.997974
1.00204 1.00348 1.0014 0.997173
1.00559 1.00787 1.0009 0.99684
1.02688 1.03009 0.998904 0.997979
1.01846 1.02105 0.999922 0.997549
0.999805 1 1 0.999805
0.999238 1 1 0.999238
0.998236 1.00004 1 0.998198
1.00189 1 1.00372 0.998177
1.00239 1 1.00407 0.99833
0.998876 1 1.00012 0.998758
1.03084 1.03907 0.994368 0.997706
1.02229 1.03362 0.991227 0.997792
1.02278 1.02957 0.995377 0.998017
1.02019 1.02428 0.997991 0.998004
1.00008 1.00148 1.00088 0.997718
1.00531 1.00697 1.0014 0.996952
1.00306 1.00354 1.00264 0.99689
0.999901 1 1 0.999901
0.999528 1 1 0.999528
0.999327 1 1 0.999327
0.998884 1 1 0.998884
0.999776 1 1.00128 0.998502
1.00257 1 1.00437 0.998203
0.998229 1 1 0.998229
1.01571 1 1.0174 0.998333
0.999348 1 1 0.999348
1.00004 1 1.00121 0.998832
1.0243 1.02664 0.99992 0.997799
1.00233 1 1.00395 0.998388
1.00022 1 1.00215 0.998067
0.998388 1 1.00004 0.998353
1.01144 1.01419 1 0.997283
1.01635 1.01876 1 0.997639
1.00258 1.00042 1.00482 0.997348
1.00244 1.00555 1 0.996906
0.999016 1 1 0.999016
1.0013 1 1.0028 0.998502
1.00231 1.00025 1.00415 0.997911
0.999479 1 1.00136 0.998121
1.02791 1.03596 0.994224 0.997997
1.01827 1.02056 0.999949 0.9978
1.0083 1.01123 1 0.997109
1.00356 1.00282 1.00377 0.996978
0.999186 1 1.00036 0.998827
1.02522 1.03791 0.989757 0.997996
1.0011 1 1.00287 0.998237
1.00122 1.00091 1.00268 0.99764
1.02547 1.02931 0.99818 0.998085
1.00856 1.01139 1 0.997201
1.00479 1.00474 1.00323 0.996832
0.999137 1 1 0.999137
0.998982 1 1 0.998982
0.998892 1 1 0.998892
0.999447 1 1 0.999447
0.999163 1 1 0.999163
0.998992 1 1 0.998992
0.999433 1 1 0.999433
0.999121 1 1 0.999121
0.998907 1 1 0.998907
0.99899 1 1 0.99899
0.998852 1 1 0.998852
0.998871 1 1 0.998871
0.998948 1 1 0.998948
0.9991 1 1 0.9991
0.999404 1 1 0.999404
0.999838 1 1 0.999838
0.999848 1 1 0.999848
1 1 1 1
0.999855 1 1 0.999855
1 1 1 1
1 1 1 1
1 1 1 1
1 1 1 1
1 1 1 1
0.999928 1 1 0.999928
1 1 1 1
1 1 1 1
1 1 1 1
1 1 1 1
1 1 1 1
1 1 1 1
1.03078 1.03343 0.999585 0.997848
1.03025 1.03513 0.997539 0.997743
1.03088 1.03633 0.997137 0.997602
1.03125 1.03522 0.998747 0.997413
1.03112 1.03737 0.996384 0.997581
1.03192 1.04023 0.994226 0.997776
1.03153 1.03774 0.996117 0.997892
1.03166 1.04084 0.9934 0.997762
1.03562 1.04526 0.992864 0.997899
1.02067 1.03636 0.986711 0.998121
1.0331 1.03779 0.997954 0.997523
1.03013 1.03689 0.995802 0.99767
1.0232 1.02794 0.997576 0.997812
0.999768 1.00175 1.00006 0.997963
1.00149 1.00298 1.00126 0.997259
1.00517 1.00753 1.00078 0.996885
1.02702 1.02993 0.999185 0.997988
1.01848 1.02118 0.999824 0.997536
0.998231 1 1 0.998231
1.0029 1.00003 1.00462 0.998259
1.00292 1 1.00458 0.998352
0.999846 1 1 0.999846
0.999238 1 1 0.999238
0.999014 1 1.00028 0.998735
1.03076 1.03935 0.993999 0.997718
0.999896 1 1 0.999896
0.999505 1 1 0.999505
1.02188 1.03279 0.991624 0.997792
1.02312 1.03016 0.995172 0.997985
0.999462 1.00082 1.00084 0.997804
1.00336 1.0032 1.0033 0.996868
1.00584 1.00807 1.00084 0.996953
1.01907 1.02326 0.99791 0.997986
0.999389 1 1 0.999389
0.99888 1 1 0.99888
0.998175 1.00002 1 0.998156
1.01164 1 1.01321 0.998447
1.00226 1 1.00407 0.998199
1.00019 1 1.00168 0.998516
1.03503 1.04457 0.992993 0.997859
1.01127 1.03119 0.982709 0.99793
1.01903 1.02759 0.993465 0.998193
1.00499 1.00987 0.99745 0.997707
1.00065 1.0005 1.00234 0.997815
1.00404 1.00183 1.00547 0.996757
0.999515 1 1 0.999515
0.999475 1 1 0.999475
0.999241 1 1 0.999241
0.998928 1 1 0.998928
0.998883 1 1.00021 0.998677
1.00016 1 1.00191 0.998259
1.02271 1 1.02459 0.998173
1.00086 1 1.00239 0.998478
0.998996 1 1 0.998996
1.00115 1 1.00264 0.998516
1.02895 1.03643 0.994764 0.998011
1.01826 1.02054 1 0.997761
0.999253 1 1.0011 0.998151
1.00234 1 1.00441 0.997937
1.00962 1.01248 1.00004 0.997149
1.00356 1.00329 1.00335 0.996934
0.999231 1 1.00041 0.998818
1.02645 1.03987 0.989049 0.998029
1.00095 1 1.0027 0.998254
1.00081 1.00052 1.00269 0.997605
1.02421 1.02851 0.997762 0.998059
1.00878 1.01155 1 0.997256
1.00476 1.00444 1.00348 0.996846
1.00031 1 1.00178 0.998538
1.01768 1.03097 0.988696 0.998392
1.00059 1.00074 1.00183 0.998022
1.00249 1.00139 1.00379 0.997318
1.01207 1.01765 0.99679 0.997721
1.00238 1.00319 1.00221 0.996982
1.00173 1.00698 0.996398 0.998376
0.998978 1 1 0.998978
0.998988 1 1.0001 0.998889
0.998875 1 1.0001 0.998773
0.999431 1 1 0.999431
0.999125 1 1 0.999125
0.999012 1 1 0.999012
0.998894 1 1 0.998894
0.999403 1 1 0.999403
0.99909 1 1 0.99909
0.998832 1 1 0.998832
0.998948 1 1 0.998948
0.998882 1 1 0.998882
0.998813 1 1 0.998813
0.998816 1 1 0.998816
0.998935 1 1 0.998935
0.999025 1 1 0.999025
0.999328 1 1 0.999328
0.999154 1 1 0.999154
0.99932 1 1 0.99932
0.99983 1 1 0.99983
0.999837 1 1 0.999837
1 1 1 1
0.999847 1 1 0.999847
1 1 1 1
1 1 1 1
1 1 1 1
1 1 1 1
1 1 1 1
0.999946 1 1 0.999946
0.999926 1 1 0.999926
1 1 1 1
1 1 1 1
1 1 1 1
1 1 1 1
1 1 1 1
1 1 1 1
1.03103 1.03758 0.995777 0.997904
1.03208 1.04013 0.994491 0.997765
1.03067 1.03729 0.99601 0.9976
1.03153 1.04069 0.993431 0.99776
1.03397 1.04353 0.992933 0.997896
1.02136 1.03602 0.987745 0.998084
1.03458 1.04655 0.990582 0.997962
0.991677 1.01596 0.978623 0.997422
1.00892 1.02846 0.982327 0.998645
0.999598 1 1 0.999598
1.03063 1.03957 0.993657 0.99773
1.02185 1.03204 0.992318 0.997791
1.02358 1.03073 0.995102 0.997953
0.999123 1.00041 1.00082 0.99789
1.00361 1.00275 1.00402 0.996846
1.00655 1.00917 1.00045 0.996953
1.01783 1.02209 0.997856 0.997968
0.998084 1 1 0.998084
1.00749 1 1.00894 0.998563
1.00173 1 1.00355 0.998195
0.999892 1 1 0.999892
1.00038 1 1.00186 0.998531
0.999451 1 1 0.999451
0.998876 1 1 0.998876
0.999483 1 1 0.999483
1.03359 1.04497 0.991227 0.997867
0.999546 1 1 0.999546
0.999474 1 1 0.999474
0.999201 1 1 0.999201
1.01279 1.03072 0.984641 0.997932
1.019 1.02767 0.993401 0.998147
1.00003 1.00039 1.00181 0.997835
1.00407 1.00171 1.00556 0.996814
1.00411 1.00838 0.998059 0.997702
0.998964 1 1 0.998964
0.998991 1 1.00034 0.998647
1.00414 1 1.00575 0.998402
1.01848 1 1.0203 0.998211
0.99992 1 1.00164 0.998287
1.02357 1.03771 0.988398 0.997949
1.01044 1.03321 0.979873 0.99805
1.01161 1.01778 0.996026 0.997899
1.00042 1.00397 0.998949 0.997511
1.00318 1 1.00517 0.998019
0.999166 1 1 0.999166
0.999067 1 1 0.999067
0.998949 1 1 0.998949
0.998959 1 1.00024 0.998718
0.99973 1 1.00125 0.998478
1.01637 1 1.01819 0.99821
1.01765 1 1.01953 0.998157
0.999268 1 1.00046 0.998809
1.00079 1 1.00252 0.998272
1.0273 1.0422 0.987624 0.998061
1.02284 1.02779 0.99715 0.998032
1.00851 1.01122 1 0.997311
1.00045 1.00021 1.00268 0.997571
1.00449 1.00404 1.0036 0.99686
1.00025 1 1.00168 0.998577
1.01544 1.03056 0.986907 0.998408
0.999767 1.00038 1.00135 0.998049
1.00218 1.00079 1.00408 0.997327
1.01296 1.01819 0.997053 0.997808
1.00226 1.00261 1.00269 0.996968
1.00061 1.00702 0.995828 0.997797
1.00024 1 1.00183 0.998405
1.00642 1.01865 0.989593 0.998389
1.00012 1.00014 1.00194 0.998035
1.00419 1.00048 1.00636 0.997364
0.999031 1.0058 0.995779 0.997482
0.949633 0.981813 0.982329 0.984624
0.965536 0.98444 0.98826 0.992447
0.98421 0.996867 0.988874 0.998411
0.83609 0.890647 0.959634 0.978232
0.787291 0.883196 0.915478 0.973712
0.998966 1 1.00008 0.998886
0.999113 1 1.00032 0.998793
0.998792 1 1 0.998792
0.999403 1 1 0.999403
0.999079 1 1 0.999079
0.998947 1 1 0.998947
0.998892 1 1 0.998892
0.998811 1 1 0.998811
0.998915 1 1 0.998914
0.999353 1 1 0.999353
0.999039 1 1 0.999039
0.99881 1 1 0.99881
0.998824 1 1 0.998824
0.998833 1 1 0.998832
0.999022 1 1.0002 0.998818
0.998852 1 1 0.998852
0.998996 1 1 0.998996
0.999312 1 1 0.999312
0.999065 1 1 0.999065
0.998987 1 1 0.998987
0.999139 1 1 0.999139
0.999123 1 1 0.999123
0.999393 1 1 0.999393
0.999318 1 1 0.999318
0.999825 1 1 0.999825
0.999829 1 1 0.999829
1 1 1 1
0.999836 1 1 0.999836
1 1 1 1
1 1 1 1
1 1 1 1
1 1 1 1
1 1 1 1
0.999955 1 1 0.999955
0.999942 1 1 0.999942
1 1 1 1
0.999923 1 1 0.999923
1 1 1 1
1 1 1 1
1 1 1 1
1 1 1 1
1 1 1 1
1.03223 1.04171 0.992993 0.997893
1.03143 1.04054 0.99347 0.997758
1.02229 1.03565 0.989029 0.998048
0.995232 1.01577 0.98226 0.997472
1.03241 1.04449 0.990459 0.99796
1.01523 1.03081 0.986318 0.998552
1.02898 1.03636 0.994839 0.998031
0.955471 0.984252 0.978962 0.99162
1.00269 1.01935 0.985691 0.997934
0.999604 1 1 0.999604
0.999597 1 1 0.999597
0.99926 1 1 0.99926
0.999291 1 1 0.999291
1.03201 1.04525 0.989437 0.997875
1.01339 1.02975 0.986152 0.997934
1.01879 1.02762 0.993297 0.9981
0.998852 1.00023 1.00077 0.997856
1.0039 1.00168 1.00536 0.996871
1.00332 1.00726 0.998386 0.997696
1.00729 1 1.00898 0.998325
1.01427 1 1.01605 0.998249
0.999636 1 1.00132 0.998315
0.999472 1 1 0.999472
0.998968 1 1.00035 0.998616
0.999 1 1 0.999
0.999577 1 1 0.999577
0.999161 1 1 0.999161
1.02149 1.03714 0.986925 0.997964
0.999211 1 1 0.999211
0.999103 1 1 0.999103
0.998993 1 1 0.998993
1.01309 1.03533 0.980427 0.998053
1.01019 1.01689 0.995499 0.997897
1.0027 1.00001 1.0047 0.998005
1.0011 1.00435 0.999222 0.997537
0.999023 1 1.00031 0.998709
0.999333 1 1.00089 0.998444
1.01913 1 1.02102 0.998152
1.01719 1 1.01904 0.99818
1.00724 1.03267 0.977276 0.998056
1.00368 1.02597 0.980219 0.998011
1.00468 1.00791 0.999183 0.997602
0.996325 1.00034 0.997802 0.998185
0.998845 1 1 0.998845
0.999191 1 1.0004 0.998795
1.00543 1 1.00691 0.998527
1.03063 1 1.03267 0.998031
0.928635 0.972176 0.971177 0.983563
1.00047 1 1.00185 0.998616
0.999167 1 1.00109 0.998075
1.01369 1.02994 0.98578 0.998423
1.01418 1.01901 0.997355 0.997895
1.00263 1.00239 1.0033 0.996953
1.00195 1.00016 1.00447 0.997336
0.999914 1.00692 0.995827 0.997207
1.00024 1 1.00181 0.998438
1.00688 1.01924 0.989475 0.998377
0.999608 1.00013 1.00144 0.998047
1.00384 1.00038 1.00611 0.997363
1.00078 1.00677 0.996537 0.997505
0.94852 0.985196 0.978705 0.983722
0.960947 0.98194 0.988012 0.990495
0.984556 0.994812 0.991243 0.998434
0.838217 0.889297 0.963449 0.97832
0.77163 0.872056 0.910826 0.971471
0.99956 1 1.00095 0.998613
0.862229 0.911624 0.966019 0.979086
0.830609 0.888539 0.958668 0.975106
0.985608 1.00713 0.980332 0.998264
1.0051 1.00035 1.00657 0.998198
1.0113 1.00344 1.01019 0.997667
0.977133 0.990265 0.988151 0.998571
0.944956 0.971484 0.988965 0.983547
0.945866 0.962137 0.993383 0.989637
0.814111 0.89071 0.93376 0.978841
0.844945 0.925853 0.935596 0.975435
0.999502 1 1.00069 0.998813
0.99915 1 1.00037 0.998781
0.999766 1 1.00075 0.999015
0.999378 1 1 0.999378
0.999054 1 1 0.999054
0.998907 1 1.00001 0.998893
0.998833 1 1 0.998833
0.998808 1 1 0.998808
0.999313 1 1 0.999313
0.998832 1 1.00001 0.998826
0.998877 1 1.00001 0.99887
0.999021 1 1 0.999021
0.999071 1 1.00025 0.998819
0.999038 1 1.00023 0.998807
0.999736 1 1.00089 0.998848
0.998832 1 1 0.998832
0.999025 1 1 0.999025
0.999062 1 1 0.999062
0.998976 1 1 0.998976
0.998901 1 1 0.998901
0.998975 1 1 0.998975
0.998925 1 1 0.998925
0.998822 1 1 0.998822
0.999117 1 1 0.999117
0.999139 1 1 0.999139
0.999411 1 1 0.999411
0.999092 1 1 0.999092
0.999372 1 1 0.999372
0.999822 1 1 0.999822
0.999316 1 1 0.999316
0.999825 1 1 0.999825
1 1 1 1
0.999829 1 1 0.999829
1 1 1 1
1 1 1 1
1 1 1 1
1 1 1 1
1 1 1 1
0.999579 1 1 0.999579
0.999955 1 1 0.999955
0.999953 1 1 0.999953
1 1 1 1
0.999939 1 1 0.999939
1 1 1 1
1 1 1 1
1 1 1 1
1 1 1 1
1 1 1 1
0.997636 1.01579 0.984564 0.997525
1.03081 1.04248 0.990833 0.997958
1.02011 1.03326 0.988802 0.998459
0.950425 0.978972 0.978122 0.992554
1.00283 1.01907 0.985998 0.998038
1.03075 1.03938 0.993698 0.997992
1.01589 1.0245 0.993747 0.997831
0.962374 0.981247 0.987342 0.99334
0.950153 0.979841 0.986435 0.983035
0.818919 0.8841 0.947071 0.978041
0.768123 0.855402 0.922691 0.973205
0.999247 1 1 0.999247
0.999603 1 1 0.999603
0.999595 1 1 0.999595
0.999247 1 1 0.999247
0.999034 1 1 0.999034
0.999068 1 1 0.999068
0.999232 1 1 0.999232
0.999267 1 1 0.999267
1.01968 1.03697 0.985322 0.997978
1.0167 1.03842 0.980993 0.998054
1.00908 1.0161 0.995181 0.997895
1.003 1.00009 1.00493 0.997992
1.00181 1.00444 0.999825 0.997564
1.02045 1 1.02234 0.998148
1.01856 1 1.02045 0.998151
0.999113 1 1.0007 0.998409
0.99914 1 1 0.99914
0.998998 1 1.0003 0.998699
0.999256 1 1 0.999256
0.999037 1 1 0.999037
1.00829 1.03295 0.978042 0.998044
0.998871 1 1 0.998871
0.999011 1 1.00019 0.998816
1.0045 1.02543 0.981556 0.997989
1.00278 1.00748 0.997615 0.997713
0.998344 1.00065 0.999581 0.998109
1.00774 1 1.00929 0.998465
1.02743 1 1.02945 0.998043
1.00454 1.02651 0.980515 0.998038
0.98633 1.00792 0.980496 0.998047
0.992731 1.0006 0.994061 0.998061
1.00365 1.00025 1.00517 0.998241
0.99905 1 1.0004 0.998646
1.00304 1 1.00447 0.998578
1.02603 1 1.02782 0.998263
0.850835 0.917145 0.946892 0.979731
0.942857 0.976744 0.979639 0.985369
0.999866 1 1.0014 0.998472
0.999226 1.0001 1.00107 0.998059
1.00781 1.02016 0.989514 0.998367
1.00232 1.00763 0.997199 0.997529
1.00336 1.0003 1.00571 0.997363
0.944805 0.977586 0.982987 0.983194
0.964871 0.987217 0.986096 0.991146
0.985841 0.993462 0.993869 0.998451
0.832969 0.890526 0.955452 0.97898
0.758365 0.860697 0.909114 0.969192
0.999325 1 1.00071 0.998614
0.855424 0.914664 0.954814 0.979492
0.824056 0.88191 0.959262 0.974081
0.987431 1.00795 0.981353 0.998257
1.00474 1.00037 1.00617 0.998222
1.00997 1.00186 1.01031 0.997805
0.968824 0.98483 0.985055 0.998672
0.950889 0.980071 0.98784 0.982167
0.947907 0.966195 0.989455 0.991528
0.817683 0.88519 0.945027 0.977473
0.842923 0.927945 0.931949 0.974705
1.00104 1 1.00216 0.99888
0.858502 0.898274 0.978432 0.976792
0.926793 0.956326 0.986941 0.981942
0.989354 0.999848 0.990724 0.99877
1.01269 1.00197 1.01196 0.998749
0.982006 0.975665 1.00772 0.998791
0.930154 0.950562 0.98585 0.992575
0.933499 0.954203 0.996429 0.981808
0.832123 0.898244 0.947289 0.977937
0.873193 0.950497 0.939309 0.978028
0.999388 1 1.00062 0.998769
0.999432 1 1.00044 0.998992
1.00278 1 1.00359 0.999194
0.999314 1 1 0.999314
0.999047 1 1 0.999047
0.99889 1 1 0.998887
0.99882 1 1 0.99882
0.999166 1 1.00035 0.998821
0.999024 1 1 0.999024
0.998938 1 1.00013 0.99881
0.998834 1 1 0.998834
1.0008 1 1.00193 0.998877
1.01183 0.999976 1.01271 0.999156
0.999119 1 1.00034 0.998779
0.998807 1 1 0.998807
0.999059 1 1 0.999059
0.998965 1 1 0.998965
0.998898 1 1 0.998898
0.998971 1 1 0.998971
0.998942 1 1 0.998942
0.99892 1 1 0.99892
0.998867 1 1 0.998867
0.998929 1 1 0.998929
0.998729 1 1.00003 0.998698
0.999223 1 1.00093 0.998296
0.998813 1 1.00011 0.998699
0.99882 1 1 0.99882
0.999056 1 1 0.999056
0.999115 1 1 0.999115
0.999406 1 1 0.999406
0.999138 1 1 0.999138
0.999412 1 1 0.999412
0.999823 1 1 0.999823
0.99935 1 1 0.99935
0.999823 1 1 0.999823
1 1 1 1
0.999825 1 1 0.999825
1 1 1 1
1 1 1 1
1 1 1 1
1 1 1 1
1 1 1 1
0.999597 1 1 0.999597
0.999944 1 1 0.999944
0.999579 1 1 0.999579
1 1 1 1
0.999955 1 1 0.999955
0.999951 1 1 0.999951
1 1 1 1
1 1 1 1
1 1 1 1
1 1 1 1
1 1 1 1
0.851968 0.905136 0.96176 0.978686
0.833222 0.889959 0.959655 0.975609
0.953024 0.982589 0.976695 0.993055
1.00502 1.01871 0.988392 0.998143
1.03337 1.04223 0.993533 0.997952
0.953048 0.971844 0.985936 0.994649
1.01539 1.02404 0.993646 0.997898
0.955114 0.986052 0.984031 0.984343
0.832191 0.890324 0.955606 0.978128
0.760249 0.856054 0.914688 0.970917
0.980986 0.997916 0.986928 0.996056
0.947534 0.973708 0.988921 0.984021
0.807395 0.885664 0.931785 0.978366
0.834607 0.916889 0.934488 0.974073
0.998938 1 1 0.998938
0.99927 1 1 0.99927
0.999603 1 1 0.999603
0.999235 1 1 0.999235
0.999069 1 1 0.999069
0.999193 1 1.00024 0.998954
0.999066 1 1 0.999066
0.999069 1 1 0.999069
0.999204 1 1 0.999204
0.999243 1 1 0.999243
1.00936 1.03272 0.979299 0.998034
1.00372 1.02368 0.982497 0.997969
1.00094 1.00727 0.995885 0.997825
1.00008 1.00097 1.00108 0.998032
1.02321 1 1.0252 0.998056
1.01027 1 1.01188 0.998403
0.998837 1 1 0.998837
0.998897 1 1 0.998897
1.0039 1.02682 0.979579 0.998057
0.999424 1 1.0008 0.998629
1.00301 1 1.00447 0.998546
0.986338 1.00647 0.981995 0.997967
0.991933 1.00043 0.993319 0.998177
1.00458 1.0008 1.00564 0.998142
1.02305 1 1.02486 0.998237
0.996955 1.00453 0.994094 0.998353
0.985615 1 0.986847 0.998752
1.01338 1.00043 1.01465 0.998322
1.00209 1 1.00349 0.998606
1.00155 1 1.00309 0.998465
1.01554 1 1.01721 0.998354
0.868503 0.906576 0.977597 0.979957
0.859847 0.91616 0.958182 0.979494
0.934646 0.976177 0.973426 0.983594
0.999071 1 1.00046 0.998614
1.00436 1.00032 1.00581 0.998245
0.990045 1.00861 0.983311 0.998251
1.00877 1.00031 1.01054 0.997942
0.848374 0.909144 0.952781 0.979404
0.951141 0.978284 0.988085 0.983979
0.940459 0.964415 0.985291 0.989718
0.96471 0.980305 0.985299 0.998774
0.818022 0.885667 0.945147 0.977226
0.826452 0.886823 0.956723 0.97408
0.832277 0.920508 0.927284 0.975052
1.00171 1 1.00283 0.998886
0.859479 0.901749 0.97484 0.977724
0.933115 0.961551 0.988376 0.98184
0.991545 1.00007 0.992617 0.998852
1.0123 1.00063 1.01296 0.998725
0.979396 0.974608 1.00613 0.998794
0.930781 0.953007 0.985876 0.990671
0.935844 0.958406 0.993357 0.982988
0.845329 0.911783 0.947907 0.978067
0.861588 0.940241 0.936613 0.978363
1.00361 0.999757 1.0044 0.999456
0.931452 0.961559 0.983165 0.985276
0.912782 0.949921 0.9749 0.985643
1.0021 0.988397 1.01415 0.999715
0.950218 0.953364 1.00143 0.995275
0.940999 0.953174 1.00512 0.982194
0.882141 0.930693 0.969265 0.977888
0.880884 0.96407 0.934677 0.977572
0.999213 1 1.00024 0.998969
1.00171 1 1.00251 0.999197
1.01432 1 1.01494 0.999387
0.999023 1 1 0.999023
0.998835 1 1 0.998835
0.998812 1 1 0.998812
1.00142 1 1.00252 0.998906
0.998805 1 1 0.998805
0.999286 1 1.00051 0.998774
1.014 1 1.0148 0.999207
1.0233 0.997734 1.0262 0.999446
1.01165 1 1.01258 0.999087
0.998764 1 1 0.998764
0.998895 1 1 0.998895
0.998966 1 1 0.998966
0.998958 1 1 0.998958
0.998879 1 1 0.998879
0.998919 1 1 0.998919
0.998936 1 1 0.998936
0.998882 1 1.00004 0.998845
0.999827 1 1.00075 0.999074
0.998737 1 1 0.998737
0.998744 1 1.00002 0.998726
0.999128 1 1.00069 0.998434
0.999369 1 1.00153 0.997847
0.999236 1 1.00063 0.998606
0.999184 1 1.00079 0.998394
0.998781 1 1.00005 0.99873
0.999026 1 1.0001 0.998924
0.998817 1 1 0.998817
0.999054 1 1 0.999054
0.999364 1 1 0.999364
0.999113 1 1 0.999113
0.999405 1 1 0.999405
0.99982 1 1 0.99982
0.999412 1 1 0.999412
0.999823 1 1 0.999823
1 1 1 1
0.999824 1 1 0.999824
1 1 1 1
1 1 1 1
1 1 1 1
1 1 1 1
1 1 1 1
0.999456 1 1 0.999456
0.999926 1 1 0.999926
0.999544 1 1 0.999544
1 1 1 1
0.999947 1 1 0.999947
0.999579 1 1 0.999579
1 1 1 1
1 1 1 1
0.999956 1 1 0.999956
1 1 1 1
1 1 1 1
1 1 1 1
0.860421 0.900923 0.975922 0.978607
0.856109 0.911722 0.959441 0.978697
0.930985 0.962666 0.985135 0.981683
0.824991 0.883259 0.958224 0.974751
0.95036 0.976049 0.98086 0.99268
1.01295 1.02368 0.99154 0.997968
0.960008 0.985921 0.98797 0.985573
0.834572 0.893556 0.954709 0.978297
0.75618 0.859797 0.907992 0.968607
0.977535 0.995145 0.986907 0.995336
0.945882 0.973908 0.989069 0.981957
0.819634 0.893242 0.939105 0.977094
0.834276 0.919415 0.932521 0.97306
0.959392 0.9831 0.981578 0.9942
0.944957 0.959454 1.00345 0.9815
0.844657 0.915236 0.944291 0.977331
0.868045 0.950807 0.93512 0.976298
0.999417 1 1.00066 0.998761
0.998971 1 1 0.998971
0.999292 1 1 0.999292
0.999104 1 1 0.999104
0.99876 1 1.00001 0.998754
0.998982 1 1 0.998979
0.999063 1 1 0.999063
0.999036 1 1 0.999036
0.999098 1 1 0.999098
0.999176 1 1 0.999176
1.00472 1.028 0.979238 0.998075
0.988366 1.00595 0.984596 0.997888
0.991015 1.00023 0.992483 0.998292
1.00624 1.00136 1.00683 0.998045
1.01991 1 1.02174 0.99821
1.00258 1 1.00407 0.998514
0.999756 1 1.00115 0.998612
1.00134 1 1.00275 0.998595
0.993374 1.00539 0.98967 0.998365
1.0012 1 1.00273 0.998471
1.01517 1 1.01685 0.998348
0.984507 1.00027 0.985545 0.998676
1.01347 1.00098 1.0142 0.998296
0.966053 0.989952 0.976983 0.998849
1.00149 0.997301 1.00495 0.999257
1.02261 1 1.02411 0.99854
1.00049 1 1.00201 0.99848
1.00827 1 1.00993 0.998358
0.933872 0.958629 0.987005 0.987001
0.8726 0.906448 0.982357 0.979948
0.851576 0.911527 0.953863 0.979418
1.00237 1 1.00348 0.99889
1.01204 0.999404 1.01396 0.9987
0.991291 1 0.992353 0.998929
0.868382 0.907282 0.978138 0.978517
0.944781 0.957656 1.00508 0.981569
0.932324 0.953098 0.986121 0.991971
0.969139 0.970454 0.999875 0.99877
0.846162 0.911332 0.949367 0.978009
0.937972 0.965197 0.989863 0.981746
0.862465 0.941203 0.93652 0.978455
1.00318 0.999382 1.00437 0.99943
0.928367 0.959313 0.981326 0.986157
0.914744 0.951633 0.975229 0.985652
1.00363 0.990687 1.0135 0.999568
0.955985 0.957748 1.00329 0.994886
0.928881 0.950104 0.996742 0.980858
0.883914 0.965785 0.935404 0.978432
0.882738 0.931105 0.969465 0.977916
1.00417 0.992596 1.01195 0.999711
0.910879 0.945944 0.97149 0.991189
0.924701 0.963493 0.972933 0.986439
0.869773 0.951638 0.93609 0.976374
0.987133 0.97391 1.01486 0.998739
0.95951 0.963472 1.01315 0.982959
0.894665 0.932824 0.980349 0.978317
1.00131 1 1.00211 0.999199
1.01349 1 1.01418 0.99932
1.01653 0.995653 1.02141 0.999566
0.998803 1 1 0.998803
0.99945 1 1.00068 0.998769
1.01774 1 1.0185 0.999258
0.998776 1 1 0.998776
1.01107 1 1.01198 0.999095
1.02526 0.997742 1.02817 0.999421
1.01181 0.997027 1.01534 0.999489
1.00736 1 1.00828 0.999088
0.998891 1 1 0.998891
0.998918 1 1 0.998918
0.998944 1 1 0.998944
0.999497 1 1.00044 0.999056
0.998868 1 1.00002 0.998853
0.999582 1 1.00059 0.998996
0.998884 1 1 0.998884
1.00078 1 1.00259 0.998194
0.998754 1 1 0.998754
0.998959 1 1.00057 0.998393
0.998681 1 1.00101 0.99767
0.999047 1 1.00129 0.997761
0.999949 1 1.00156 0.998396
0.999249 1 1.00138 0.99787
0.999607 1 1.00082 0.99879
0.999402 1 1.00083 0.998577
0.999136 1 1.00065 0.998491
0.998762 1 1 0.998762
0.999013 1 1.00006 0.998956
0.999291 1 1 0.999291
0.999053 1 1 0.999053
0.999364 1 1 0.999364
0.999802 1 1 0.999802
0.999404 1 1 0.999404
0.999818 1 1 0.999818
1 1 1 1
0.999822 1 1 0.999822
1 1 1 1
1 1 1 1
1 1 1 1
1 1 1 1
1 1 1 1
0.999292 1 1 0.999292
0.99981 1 1 0.99981
0.999455 1 1 0.999455
1 1 1 1
0.999892 1 1 0.999892
0.99949 1 1 0.99949
1 1 1 1
1 1 1 1
0.99995 1 1 0.99995
1 1 1 1
1 1 1 1
1 1 1 1
0.924515 0.957253 0.979467 0.986047
0.850229 0.898945 0.966372 0.97872
0.855735 0.908307 0.962797 0.978524
0.998935 1 1 0.998935
0.915158 0.947104 0.979283 0.986711
0.931623 0.962732 0.985818 0.981608
0.822214 0.885948 0.951897 0.97496
0.981096 0.996543 0.989989 0.994455
0.947009 0.972388 0.990029 0.983709
0.825911 0.904728 0.934539 0.976827
0.828239 0.91193 0.933241 0.973197
0.960601 0.983031 0.98515 0.991913
0.932 0.953817 0.994062 0.982963
0.855187 0.918847 0.952289 0.977348
0.866354 0.94652 0.937675 0.976143
0.938623 0.96034 0.987246 0.990012
0.939683 0.948192 1.01024 0.980979
0.889201 0.93807 0.969496 0.977729
0.880928 0.962614 0.936151 0.977557
0.999449 1 1.00087 0.998583
0.999766 1 1.00103 0.998735
0.999004 1 1 0.999004
0.998754 1 1 0.998754
0.998914 1 1.00012 0.998795
0.999003 1 1 0.999003
0.999044 1 1 0.999044
0.999127 1 1 0.999127
0.987237 1.00548 0.983452 0.998375
0.982355 1.00015 0.983584 0.9986
1.00058 1 1.002 0.998584
1.01393 1.00158 1.01408 0.998267
1.016 1 1.01769 0.998341
1.0012 1 1.00272 0.998476
1.00077 1 1.00228 0.998489
0.970782 0.991717 0.979981 0.998887
1.0093 1 1.01093 0.998388
1.01904 1.00021 1.02031 0.998546
0.996534 0.997824 0.999415 0.999292
1.00026 1 1.00174 0.998527
0.961136 0.980978 0.980635 0.99912
1.00754 0.994584 1.01358 0.999454
1.03321 1 1.03463 0.998626
1.00207 1 1.00356 0.998512
0.923713 0.948818 0.981143 0.992252
0.933244 0.957904 0.98697 0.987119
0.87782 0.906466 0.98822 0.979942
1.00207 0.998919 1.00375 0.999408
1.00677 0.993311 1.01414 0.999424
0.926502 0.958195 0.97963 0.987029
0.948815 0.952231 1.01393 0.982722
0.950203 0.956208 1.00134 0.992394
0.887125 0.935024 0.971098 0.97701
0.915831 0.952537 0.975454 0.985659
0.888034 0.968586 0.936226 0.979288
1.00575 0.994985 1.01115 0.999671
0.911651 0.946308 0.97194 0.99119
0.922493 0.961566 0.971332 0.98768
0.996104 0.980582 1.01607 0.999768
0.867286 0.947336 0.937839 0.976181
0.946714 0.954305 1.01012 0.982104
0.905199 0.945882 0.978871 0.977646
1.00634 0.990717 1.016 0.999771
0.925747 0.960611 0.971235 0.992248
0.915978 0.948163 0.978999 0.986779
0.833646 0.917453 0.932749 0.974166
0.888811 0.939491 0.967935 0.977396
0.96944 0.966691 1.00515 0.997706
0.962324 0.957329 1.02576 0.979974
1.01093 1 1.01168 0.999253
1.01589 0.995056 1.02141 0.999539
1.00395 0.984161 1.02054 0.999582
0.998787 1 1 0.998787
1.00993 1 1.01084 0.999103
1.02591 0.998478 1.02809 0.999396
1.00441 1 1.00534 0.999073
1.01202 0.997711 1.01486 0.999488
1.00786 0.99679 1.01186 0.999247
0.999037 1 1 0.999037
0.998861 1 1 0.998861
1.00047 1 1.00151 0.998968
1.00631 1 1.00787 0.998447
0.999029 1 1 0.999029
1.00029 1 1.00198 0.998306
1.00169 1 1.00413 0.997568
1.00084 1.00179 1.00188 0.997189
0.998754 1 1.0004 0.998351
0.99893 1.00027 1.00109 0.997564
0.99864 1.00026 1.00053 0.997852
1.00047 1 1.00232 0.998153
0.999072 1 1.00125 0.997821
1.00108 1 1.00245 0.998639
1.00005 1 1.00166 0.998387
0.99917 1 1.00128 0.997894
0.999165 1 1 0.999165
0.999641 1 1.00085 0.998787
0.999659 1 1.00111 0.998548
0.998987 1 1 0.998987
0.999289 1 1 0.999289
0.999765 1 1 0.999765
0.999363 1 1 0.999363
0.999799 1 1 0.999799
1 1 1 1
0.999816 1 1 0.999816
1 1 1 1
1 1 1 1
1 1 1 1
1 1 1 1
1 1 1 1
0.999222 1 1 0.999222
0.999728 1 1 0.999728
0.999322 1 1 0.999322
1 1 1 1
0.999803 1 1 0.999803
0.999453 1 1 0.999453
1 1 1 1
1 1 1 1
0.999858 1 1 0.999858
1 1 1 1
1 1 1 1
1 1 1 1
0.913524 0.946818 0.973319 0.991285
0.926466 0.957526 0.981266 0.986035
0.850226 0.900151 0.964965 0.978831
0.998954 1 1 0.998954
0.9989 1 1 0.9989
0.998797 1 1 0.998797
0.921707 0.962724 0.970629 0.986366
0.912805 0.946586 0.977281 0.98673
0.933266 0.962896 0.987462 0.981534
0.966696 0.98556 0.987196 0.993581
0.92958 0.953519 0.993292 0.981478
0.845131 0.906308 0.953483 0.977991
0.876857 0.953179 0.942796 0.975746
0.941599 0.961525 0.987154 0.992021
0.93649 0.947843 1.00633 0.981807
0.876124 0.921685 0.971077 0.978879
0.882717 0.964718 0.935204 0.978395
0.929597 0.951131 0.986597 0.990636
0.95401 0.958061 1.0137 0.982318
0.895921 0.931331 0.983108 0.978508
0.874107 0.950143 0.940733 0.977934
0.998573 1 1 0.998573
0.999743 1 1.00117 0.998574
0.999841 1 1.00113 0.99871
0.998749 1 1 0.998749
0.998836 1 1 0.998836
0.999052 1 1 0.999052
0.97771 0.994188 0.984493 0.998916
0.992208 0.998293 0.994578 0.999323
1.00096 1 1.00247 0.998497
1.01467 1.00039 1.01574 0.998552
1.01008 1 1.01168 0.998418
1.00007 1 1.00158 0.998502
1.0017 1 1.00317 0.998529
0.971951 0.983506 0.989076 0.999167
1.02865 1 1.02995 0.998734
1.00654 0.99006 1.01718 0.999477
1 1 1.00135 0.99865
0.985912 0.972473 1.01454 0.99929
1.00212 0.98741 1.01538 0.999521
1.02361 1 1.02479 0.998856
0.940276 0.96454 0.981185 0.993536
0.923416 0.948992 0.980293 0.99261
0.932952 0.957047 0.98743 0.987233
1.00856 0.997676 1.01129 0.999632
0.990143 0.981717 1.00943 0.999164
0.912633 0.94682 0.97246 0.99119
0.945567 0.947315 1.01263 0.985708
0.903269 0.94293 0.979288 0.978198
0.921347 0.959956 0.970533 0.988922
0.877947 0.953774 0.943305 0.975822
1.00394 0.98976 1.01455 0.999788
0.926596 0.960867 0.971486 0.992638
0.914432 0.947949 0.977548 0.986799
0.968752 0.963802 1.01036 0.994828
0.832933 0.919286 0.931018 0.973198
0.873496 0.923922 0.966163 0.978532
0.970244 0.961566 1.02735 0.982164
1.00077 0.971661 1.03045 0.999527
0.91424 0.94733 0.973477 0.991365
0.932955 0.964446 0.985253 0.981827
0.766095 0.853374 0.922187 0.973473
0.845247 0.916028 0.944114 0.97735
0.953031 0.956806 1.01439 0.981924
0.947623 0.959136 0.994852 0.993109
1.01588 0.994351 1.02215 0.99951
1.00738 0.988772 1.01924 0.999586
1.01651 0.994269 1.02285 0.999529
1.0015 1 1.00245 0.999059
1.01273 0.997794 1.01549 0.999487
1.00948 0.996532 1.01368 0.999324
1.01427 1 1.01548 0.998815
1.00148 1 1.00254 0.998941
1.00659 1 1.00827 0.998337
1.01488 1 1.01743 0.997492
0.999862 1 1.00145 0.998419
1.00312 1.00052 1.00509 0.997525
1.00484 1.00205 1.00596 0.996838
1.00327 1.0046 1.00191 0.99677
0.999181 1.0006 1.00108 0.997507
1.00076 1.00173 1.00189 0.997148
0.999194 1.0005 1.00124 0.997457
0.999146 1 1.0011 0.99805
0.998578 1.00015 1.00048 0.997945
1.00114 1 1.00279 0.998361
1.00056 1 1.00237 0.998194
0.999048 1 1.00117 0.997881
1.00033 1 1.00138 0.998951
1.00062 1 1.00198 0.998641
1.00002 1 1.00164 0.998379
0.999696 1 1 0.999696
0.999195 1 1.00003 0.999163
0.999571 1 1.00079 0.998784
0.999287 1 1 0.999287
0.99976 1 1 0.99976
1 1 1 1
0.999796 1 1 0.999796
1 1 1 1
1 1 1 1
1 1 1 1
1 1 1 1
1 1 1 1
0.99921 1 1 0.99921
0.999732 1 1 0.999732
0.999242 1 1 0.999242
1 1 1 1
0.999762 1 1 0.999762
0.999353 1 1 0.999353
1 1 1 1
1 1 1 1
0.999795 1 1 0.999795
1 1 1 1
1 1 1 1
1 1 1 1
0.925343 0.960015 0.971465 0.992197
0.913837 0.947241 0.973214 0.991289
0.92652 0.957675 0.981169 0.986037
0.998869 1 1 0.998869
0.998747 1 1 0.998747
0.998972 1 1 0.998972
0.998897 1 1 0.998897
0.998778 1 1 0.998778
0.998782 1 1 0.998782
0.998683 1 1 0.998683
0.910236 0.949653 0.972572 0.985524
0.921471 0.960576 0.971319 0.987616
0.910167 0.945848 0.975196 0.986751
0.885076 0.967244 0.934453 0.979235
0.930432 0.951911 0.987072 0.990237
0.938587 0.947957 1.00747 0.982772
0.881039 0.924652 0.974126 0.978141
0.924285 0.950587 0.982258 0.989893
0.945194 0.949949 1.01425 0.981016
0.907528 0.94712 0.979606 0.978146
0.861142 0.939918 0.936533 0.978277
0.930653 0.952444 0.985121 0.991879
0.953305 0.956653 1.0162 0.980617
0.884888 0.933064 0.969609 0.978094
0.842727 0.924542 0.934718 0.975169
1.00081 1 1.00213 0.998682
0.998692 1 1.00012 0.998574
1.00022 1 1.00166 0.998565
0.998744 1 1 0.998744
0.979402 0.984705 0.995389 0.999222
1.00462 0.986449 1.01893 0.9995
0.99854 1 1.00006 0.998477
1.00144 1 1.00289 0.998546
1.02379 1 1.02497 0.998841
0.999463 1 1.00082 0.998642
1.02413 0.99953 1.0258 0.998842
0.982302 0.971072 1.01304 0.998546
1.00491 0.986105 1.01944 0.999633
1.01112 0.998517 1.01367 0.998959
0.986084 0.968487 1.01982 0.998378
1.02128 0.99204 1.0302 0.999296
0.924294 0.948901 0.981633 0.992294
0.936218 0.962836 0.978246 0.993978
0.922832 0.949196 0.97911 0.992968
1.00027 0.987616 1.01301 0.999805
0.9725 0.966126 1.00874 0.997874
0.926541 0.96053 0.971385 0.99303
0.96547 0.961453 1.0243 0.980355
0.87654 0.924482 0.969719 0.977748
0.911983 0.947706 0.975159 0.986819
0.827732 0.911665 0.932806 0.973337
1.00554 0.97535 1.03134 0.999622
0.914043 0.947747 0.972833 0.99137
0.932852 0.964013 0.985664 0.98175
0.94982 0.958728 0.995357 0.99533
0.759942 0.854961 0.915203 0.971217
0.852093 0.917098 0.950757 0.977241
0.95049 0.951686 1.01766 0.98141
1.00017 0.978145 1.0238 0.998752
0.925986 0.958345 0.979737 0.986219
0.833555 0.889843 0.959885 0.975892
0.810459 0.886873 0.933779 0.978646
0.936735 0.944618 1.00952 0.982306
0.92753 0.95002 0.985378 0.990814
1.01049 0.992783 1.01826 0.99959
1.01715 0.992705 1.02511 0.999522
1.00682 0.996555 1.01095 0.999356
1.01134 0.996492 1.0155 0.999402
1.01326 0.997945 1.01647 0.998893
1.0069 1.0008 1.00812 0.99799
1.00708 1 1.00886 0.998226
1.01396 1 1.01656 0.99744
1.00895 1.00017 1.01198 0.996837
1.00465 1.00114 1.00604 0.997483
1.00506 1.00177 1.00655 0.996761
1.00299 1.00209 1.00438 0.996537
1.00631 1.00952 1 0.99682
1.00561 1.00789 1.00077 0.996974
1.00379 1.00491 1.00218 0.996717
0.999031 1.00116 1.00013 0.997749
0.998868 1.00056 1.00074 0.997565
1.00071 1.00171 1.0019 0.997107
0.999185 1 1.00112 0.998072
0.999289 1.00017 1.00108 0.998041
0.998463 1 1.00043 0.998037
1.00139 1 1.00273 0.998666
1.00109 1 1.00269 0.998406
1.00068 1 1.00245 0.998235
0.999543 1 1 0.999543
1.00007 1 1.00112 0.998952
1.00032 1 1.00168 0.998643
0.999998 1 1 0.999998
0.999689 1 1 0.999689
0.999286 1 1.00013 0.999161
0.999756 1 1 0.999756
1 1 1 1
1 1 1 1
1 1 1 1
1 1 1 1
1 1 1 1
0.998862 1 1 0.998862
0.999146 1 1 0.999146
0.99967 1 1 0.99967
0.999208 1 1 0.999208
0.999999 1 1 0.999999
0.999735 1 1 0.999735
0.999262 1 1 0.999262
1 1 1 1
1 1 1 1
0.999795 1 1 0.999795
1 1 1 1
1 1 1 1
1 1 1 1
0.910163 0.946003 0.970707 0.991148
0.925756 0.960327 0.971195 0.992593
0.914407 0.947811 0.973233 0.99129
0.99888 1 1 0.99888
0.998734 1 1 0.998734
0.998683 1 1 0.998683
0.998735 1 1 0.998735
0.999728 1 1.00108 0.998646
0.998894 1 1 0.998894
0.99876 1 1 0.99876
0.998782 1 1 0.998782
0.998685 1 1 0.998685
1.00036 1 1.00163 0.99873
0.925099 0.954996 0.986735 0.981716
0.913602 0.95139 0.974366 0.985545
0.922187 0.959283 0.972156 0.988864
0.860476 0.940776 0.934852 0.978384
0.904358 0.941494 0.981747 0.978416
0.916623 0.946457 0.979368 0.988881
0.95351 0.957694 1.0138 0.98208
0.931399 0.954929 0.985546 0.989663
0.964506 0.965662 1.01711 0.982004
0.885467 0.932322 0.970712 0.978399
0.842353 0.927392 0.932188 0.974378
0.950923 0.960559 0.998729 0.991228
0.954668 0.957747 1.01454 0.982499
0.831058 0.898473 0.946066 0.977697
0.790234 0.884625 0.918009 0.973083
1.00297 1 1.00385 0.999119
1.00229 1 1.00361 0.99868
0.999486 1 1.00091 0.998576
0.981659 0.970863 1.01336 0.997786
1.00784 0.984204 1.02428 0.999748
0.999791 1 1.00116 0.998634
1.0254 0.99923 1.0274 0.998828
1.01244 0.999381 1.01412 0.998967
1.02257 0.994257 1.02921 0.999285
0.983275 0.966196 1.0193 0.998408
1.01744 0.998163 1.01999 0.999345
0.989928 0.97664 1.01537 0.998261
0.935656 0.960507 0.987087 0.98687
0.924029 0.949078 0.98082 0.992646
0.932138 0.961164 0.975244 0.994419
1.01108 0.979936 1.03209 0.999708
0.949549 0.960534 0.996506 0.99203
0.91481 0.948147 0.973237 0.991372
0.953203 0.959003 1.01433 0.97991
0.843574 0.904669 0.95353 0.977911
0.933531 0.96359 0.986887 0.981678
0.757608 0.859892 0.909295 0.968937
0.999378 0.976763 1.0243 0.99888
0.927784 0.958705 0.981281 0.986208
0.825859 0.884086 0.958053 0.975038
0.930175 0.953542 0.983406 0.991954
0.821821 0.89382 0.940755 0.977352
0.924477 0.942658 0.999734 0.980974
0.972787 0.97474 1.00015 0.997844
0.860912 0.901869 0.975174 0.978889
0.820998 0.884704 0.948526 0.978352
0.944069 0.95986 1.00201 0.981574
0.921781 0.948329 0.979423 0.992428
1.0169 0.991252 1.02637 0.999515
1.00871 0.99505 1.01441 0.999328
0.997647 1.001 0.998001 0.998642
1.01189 0.995527 1.01748 0.99897
1.0067 1.00093 1.00769 0.998086
1.00077 1.00199 1.0013 0.997486
1.01275 1.00001 1.01539 0.997387
1.00734 1.00032 1.01019 0.996852
0.99955 1.00147 1.00113 0.996954
1.00496 1.00145 1.00684 0.996685
1.00319 1.00301 1.00363 0.99656
1.00683 1.00988 1 0.996986
1.01801 1.02088 1 0.99719
1.01133 1.0145 1.00002 0.996864
1.00582 1.00901 1 0.996839
1.00343 1.00619 1 0.997253
1.00387 1.00589 1.00107 0.996928
1.00436 1.00528 1.00244 0.996664
0.998438 1.00054 1 0.997903
0.998702 1.00086 1.00002 0.997816
0.998498 1.00056 1.00032 0.997622
0.999828 1 1.00144 0.998393
0.999391 1.00001 1.00129 0.9981
0.999497 1.00037 1.0011 0.998032
1.00009 1 1.00083 0.999261
1.0011 1 1.00244 0.998668
1.00098 1 1.00253 0.998451
0.999991 1 1 0.999991
0.999642 1 1.00011 0.999535
0.999777 1 1.00082 0.998954
1 1 1 1
0.999997 1 1 0.999997
0.999682 1 1 0.999682
0.999999 1 1 0.999999
1 1 1 1
1 1 1 1
0.998853 1 1.00008 0.998776
0.999074 1 1 0.999074
0.998848 1 1 0.998848
0.999618 1 1 0.999618
0.999145 1 1 0.999145
0.999993 1 1 0.999993
0.999673 1 1 0.999673
0.999206 1 1 0.999206
1 1 1 1
0.999999 1 1 0.999999
0.999738 1 1 0.999738
1 1 1 1
1 1 1 1
1 1 1 1
0.929654 0.961949 0.978997 0.987161
0.910832 0.94624 0.971173 0.991152
0.925755 0.959973 0.971164 0.99299
0.998691 1 1 0.998691
0.998891 1 1 0.998891
0.99872 1 1 0.99872
0.998748 1 1 0.998748
0.998701 1 1 0.998701
0.999346 1 1.00069 0.998658
1.00138 1 1.00286 0.998528
1.00157 1 1.00295 0.998625
0.998783 1 1 0.998783
0.998686 1 1 0.998686
1.00045 1 1.00174 0.998721
1.00204 1 1.00316 0.99889
0.831305 0.889835 0.958439 0.974735
0.931898 0.960885 0.987997 0.981615
0.915395 0.951554 0.97609 0.985564
0.834281 0.921618 0.928703 0.974731
0.891871 0.939382 0.970982 0.977797
0.954768 0.957426 1.01688 0.980673
0.936306 0.955024 0.989884 0.99042
0.949582 0.957335 0.998883 0.99301
0.774239 0.873355 0.91307 0.970913
0.949238 0.952832 1.01571 0.980824
0.84291 0.911131 0.946194 0.977733
0.941342 0.956453 0.990658 0.993482
0.942104 0.950265 1.00834 0.983209
0.814459 0.89139 0.934414 0.977827
1.00059 1 1.00101 0.999578
1.00274 1 1.00362 0.999123
1.00338 1 1.0047 0.998679
0.979718 0.96316 1.01878 0.998442
1.02481 0.997647 1.02797 0.999273
1.01347 0.99993 1.01458 0.998974
1.01725 0.999223 1.01871 0.999344
0.990056 0.978474 1.01355 0.998313
0.999007 0.991087 1.00921 0.998796
0.870821 0.907552 0.980994 0.978118
0.93357 0.959167 0.985059 0.988076
0.923235 0.949174 0.97953 0.992999
0.999562 0.975142 1.02608 0.99899
0.924718 0.952333 0.978112 0.992731
0.927538 0.958954 0.980767 0.986206
0.933024 0.94235 1.00764 0.982595
0.829679 0.906306 0.936882 0.977126
0.822311 0.88607 0.951588 0.975256
0.974778 0.975214 1.00165 0.997906
0.850845 0.899646 0.966049 0.978993
0.834942 0.891365 0.957308 0.978473
0.924641 0.949178 0.983888 0.990102
0.932754 0.956916 0.991635 0.982974
0.964472 0.985134 0.980122 0.998881
0.851483 0.905157 0.960943 0.978936
0.949582 0.976179 0.988787 0.983785
0.936888 0.961839 0.984002 0.989895
1.01148 0.994221 1.01807 0.999301
0.990974 1.00003 0.992187 0.998747
0.98778 1.0027 0.986988 0.998111
1.007 1.00108 1.00775 0.998181
1.0027 1.00241 1.00282 0.997476
1.00039 1.00336 0.999428 0.99762
1.00606 1.00051 1.0087 0.996868
0.999576 1.00113 1.00148 0.996966
1.01282 1.0153 1 0.997551
1.00358 1.00395 1.00307 0.996583
1.0063 1.00933 1 0.996995
1.01747 1.0199 1 0.997621
1.02312 1.02556 1 0.997622
1.02032 1.02327 1 0.997121
1.0174 1.02023 1 0.99722
1.01082 1.01378 1 0.997076
1.01046 1.01359 1 0.996907
1.00516 1.00832 1 0.996858
1.00158 1.00396 1 0.997625
1.00333 1.00593 1.00014 0.997277
1.00224 1.00389 1.00148 0.996881
0.998169 1 1 0.998169
0.999171 1.00128 1 0.997898
0.99825 1.00037 1 0.997883
0.999879 1 1.00094 0.998943
0.999716 1 1.00132 0.998394
0.999642 1.00007 1.00145 0.998128
0.999957 1 1 0.999957
1.00007 1 1.00082 0.999257
1.0007 1 1.00203 0.99867
1 1 1 1
0.999984 1 1 0.999984
0.999722 1 1.00019 0.999528
1 1 1 1
0.999995 1 1 0.999995
1 1 1 1
0.998781 1 1.00005 0.998734
0.998897 1 1.00012 0.998774
0.998981 1 1 0.998981
0.999568 1 1 0.999568
0.999074 1 1 0.999074
0.998834 1 1 0.998834
0.999984 1 1 0.999984
0.999621 1 1 0.999621
0.999144 1 1 0.999144
1 1 1 1
0.999995 1 1 0.999995
0.999676 1 1 0.999676
1 1 1 1
1 1 1 1
1 1 1 1
0.857223 0.897359 0.977835 0.976927
0.927536 0.959702 0.97905 0.987165
0.911988 0.946918 0.971706 0.991156
0.99891 1 1.00024 0.998675
0.999032 1 1.00043 0.998601
1.0004 1 1.00182 0.998581
0.998762 1 1 0.998762
0.998718 1 1 0.998718
0.999508 1 1.00084 0.99867
1.00149 1 1.00288 0.998619
1.00122 1 1.00269 0.998536
1.00206 1 1.00362 0.998444
0.998034 1 0.999 0.999032
1.00011 1 1.0014 0.998712
1.00126 1 1.0024 0.998866
0.830813 0.88769 0.957287 0.977687
0.823674 0.881884 0.959239 0.973682
0.93782 0.965687 0.989421 0.981526
0.759377 0.860278 0.91122 0.968713
0.843901 0.909139 0.949409 0.977705
0.947886 0.954181 1.01044 0.983142
0.951972 0.95662 1.00425 0.990929
0.939771 0.95604 0.991228 0.991682
0.816493 0.884227 0.945256 0.976875
0.931111 0.945258 1.00264 0.982436
0.933764 0.958179 0.981997 0.992385
0.930211 0.958278 0.988541 0.981963
1.00695 1 1.00793 0.999032
1.00025 1 1.00073 0.999515
1.00217 1 1.00305 0.999127
0.989304 0.979112 1.01207 0.998358
1.01672 1 1.01739 0.999344
0.999338 0.991872 1.00884 0.998699
0.990364 0.995339 0.997082 0.997915
0.85128 0.918545 0.945895 0.979781
0.874306 0.907586 0.984027 0.978968
0.932443 0.958076 0.983801 0.989271
0.975382 0.97829 0.999016 0.998009
0.924047 0.94885 0.982877 0.990826
0.850912 0.900862 0.964719 0.979096
0.929037 0.953517 0.992575 0.981615
0.839921 0.897661 0.956123 0.978616
0.968279 0.985328 0.984387 0.998284
0.85692 0.912453 0.959345 0.978938
0.948938 0.977087 0.989032 0.981961
0.944237 0.964453 0.987083 0.99185
0.976747 0.99306 0.984826 0.998728
0.952837 0.98227 0.986848 0.982965
0.957458 0.983171 0.980509 0.993205
0.984544 0.998825 0.986839 0.998848
0.987479 1.00359 0.985834 0.998088
0.9838 1.00697 0.97896 0.997991
1.0038 1.00278 1.00356 0.997466
0.999726 1.00347 0.998648 0.997615
1.01681 1.02211 0.996714 0.998097
0.999421 1.00071 1.00174 0.996979
1.01274 1.01529 0.999948 0.99754
1.0225 1.02506 0.999422 0.998074
1.00561 1.00864 1 0.997003
1.01687 1.0193 1 0.99762
1.02359 1.02564 1 0.998006
1.02098 1.02314 1 0.997888
1.0237 1.02609 1 0.997672
1.02302 1.02558 1 0.997503
1.01969 1.02256 1 0.997197
1.02083 1.02377 1 0.997127
1.01689 1.01969 1 0.997251
1.0078 1.01048 1 0.997348
1.01158 1.01451 1 0.997111
1.0096 1.01269 1 0.996951
0.998626 1.00069 1 0.997941
1.00217 1.00456 1 0.997618
1.00339 1.00593 1.00017 0.997302
0.998775 1 1.00006 0.998715
0.998239 1.00007 1 0.998167
0.999924 1.00204 1 0.997892
0.999855 1 1 0.999855
0.999657 1 1.00071 0.998943
0.999694 1 1.0013 0.998396
1 1 1 1
0.999938 1 1 0.999938
1 1 1.00075 0.999253
1 1 1 1
0.999978 1 1 0.999978
1 1 1 1
0.998669 1 1 0.998669
0.998839 1 1.00011 0.998729
0.998923 1 1.00004 0.99888
0.998915 1 1.00014 0.998772
0.99898 1 1 0.99898
0.999492 1 1 0.999492
0.999975 1 1 0.999975
0.99957 1 1 0.99957
0.999074 1 1 0.999074
1 1 1 1
0.999987 1 1 0.999987
0.999624 1 1 0.999624
1 1 1 1
0.999997 1 1 0.999997
1 1 1 1
0.858901 0.908905 0.965225 0.97903
0.860153 0.901886 0.976436 0.976742
0.925891 0.958101 0.978945 0.987166
0.998955 1 1.0003 0.998659
1.00064 1 1.00212 0.998526
0.998768 1 1.00012 0.998647
0.998256 1 1 0.998256
1.0003 1 1.0018 0.998501
1.00147 1 1.00286 0.998613
1.0007 1 1.00216 0.998543
1.00196 1 1.00349 0.998481
0.998308 1 1 0.998308
0.996353 1.00059 0.99694 0.998819
0.998521 1.00035 1.00021 0.997958
0.999268 1 1.00018 0.999085
1.0008 1 1.00196 0.998842
0.943889 0.975052 0.985439 0.982344
0.833468 0.886 0.961925 0.977944
0.824449 0.884749 0.957028 0.973686
0.814284 0.885228 0.941991 0.976505
0.93744 0.949692 1.00621 0.98101
0.942771 0.953866 0.994719 0.993616
0.935095 0.956856 0.983512 0.99364
0.937353 0.959954 0.992661 0.983676
0.959623 0.983339 0.983096 0.992662
1.00008 1.00132 1.00053 0.998229
1.00566 1 1.00666 0.999009
0.999794 1 1.00034 0.999451
1.00038 0.993764 1.00804 0.998623
0.996041 0.999437 0.998741 0.997859
0.930649 0.97292 0.972532 0.983569
0.860774 0.917635 0.957547 0.979623
0.878869 0.90778 0.98808 0.979832
0.972105 0.986723 0.987496 0.997661
0.940078 0.96068 0.988423 0.990016
0.85785 0.909955 0.963221 0.978735
0.947578 0.97308 0.990096 0.983533
0.978155 0.992987 0.986286 0.998761
0.956371 0.986898 0.98468 0.984145
0.957972 0.982725 0.983408 0.99126
0.99619 1.00463 0.993411 0.998177
0.97592 0.995594 0.984868 0.995301
0.987716 1.00464 0.985051 0.998073
0.985183 1.00639 0.980948 0.997942
1.00533 1.0283 0.979477 0.99815
0.999303 1.00358 0.998123 0.99761
1.01644 1.02183 0.996641 0.998082
1.02422 1.03304 0.993146 0.998305
1.01271 1.01536 0.999863 0.997528
1.02217 1.02522 0.998966 0.998057
1.02088 1.02486 0.997894 0.998218
1.01643 1.01886 1 0.997619
1.02387 1.02601 0.99992 0.997989
1.02269 1.0247 1 0.998046
1.02158 1.0237 1 0.997934
1.02075 1.02308 1 0.997719
1.02424 1.02658 1 0.997723
1.02294 1.02551 1 0.997496
1.02258 1.02527 1 0.997381
1.01503 1.01777 1 0.997304
1.01956 1.02243 1 0.997188
1.0213 1.02424 1 0.997134
1.00144 1.00371 1 0.997734
1.00734 1.00999 1 0.997369
1.01229 1.01518 1 0.997146
0.998535 1 1 0.998535
0.999389 1.00146 1 0.997936
1.00245 1.00485 1 0.997612
0.999703 1 1 0.999703
0.998735 1 1.00002 0.998715
0.998354 1.00019 1 0.998166
1 1 1 1
0.999832 1 1 0.999832
0.999487 1 1.00054 0.998944
1 1 1 1
0.999919 1 1 0.999919
1 1 1 1
0.999163 1.00089 1 0.998271
0.998667 1 1 0.998667
0.998806 1 1.00007 0.998739
0.998922 1 1.0002 0.998724
0.998895 1 1.00004 0.998858
0.999356 1 1 0.999356
0.99898 1 1 0.99898
0.999494 1 1 0.999494
0.999965 1 1 0.999965
1 1 1 1
0.999978 1 1 0.999978
0.999572 1 1 0.999572
1 1 1 1
0.99999 1 1 0.99999
1 1 1 1
0.951873 0.983059 0.983438 0.984583
0.852239 0.911688 0.954337 0.97952
0.870588 0.907922 0.982046 0.97641
1.00109 1 1.00262 0.998471
0.998693 1 1 0.998693
1.00015 1 1.00165 0.998506
0.998446 1.00017 1 0.998277
1.00257 1.0047 1.00002 0.997855
0.99835 1 1 0.99835
1.00203 1 1.00352 0.998518
0.998189 1 1 0.998189
0.99775 1.00033 0.998638 0.998786
0.998642 1.00049 1 0.998149
0.998521 1.00295 0.997442 0.998136
0.99795 1.00129 0.999094 0.997569
0.998078 1.00082 0.999172 0.998088
1.00064 1 1.0015 0.999138
0.958223 0.985172 0.979676 0.992823
0.946761 0.976446 0.986312 0.983056
0.82895 0.886909 0.955149 0.978538
0.950011 0.96652 1.00132 0.981623
0.935285 0.955623 0.984112 0.994518
0.963568 0.983891 0.984254 0.995012
0.992911 1.00377 0.991062 0.998106
0.99794 1.00067 0.999004 0.998267
1.00461 1 1.00563 0.998987
0.996198 1.00112 0.997292 0.997785
0.961311 0.980053 0.987921 0.992868
0.943567 0.9772 0.979951 0.985338
0.851104 0.912131 0.952614 0.979509
0.980404 0.993546 0.987968 0.99879
0.962201 0.985149 0.983914 0.992674
0.960473 0.986663 0.987953 0.985327
0.989836 1.00371 0.987967 0.998193
0.973291 0.993054 0.98538 0.994641
0.995239 1.02398 0.973902 0.997976
1.00532 1.01547 0.992461 0.997527
0.986127 1.00569 0.982626 0.997889
1.00468 1.02743 0.979677 0.998142
1.00899 1.03715 0.974615 0.99819
1.01628 1.02191 0.996414 0.998067
1.02395 1.03291 0.99302 0.998289
1.01647 1.02658 0.991968 0.998164
1.02181 1.02531 0.998545 0.998039
1.02019 1.02433 0.997751 0.998202
1.02302 1.02708 0.998036 0.998013
1.02409 1.02635 0.999824 0.997972
1.02183 1.02395 0.999894 0.998041
1.02112 1.0234 1 0.997778
1.02221 1.02428 1 0.99798
1.02078 1.02308 1 0.997757
1.02259 1.02516 1 0.997488
1.02293 1.0255 1 0.997489
1.02251 1.0252 1 0.997372
1.01856 1.02121 1 0.997402
1.00528 1.00771 1 0.997585
1.01467 1.0174 1 0.997322
1.01939 1.02227 1 0.997178
0.998457 1.0001 1 0.998359
1.00238 1.00466 1 0.997734
1.00712 1.00976 1 0.997389
0.999547 1 1 0.999547
0.998534 1 1 0.998534
1.00013 1.0022 1 0.997932
1 1 1 1
0.999688 1 1 0.999688
0.998715 1 1 0.998715
1 1 1 1
0.999809 1 1 0.999809
1 1 1 1
1.00165 1.00375 1 0.997915
0.998751 1.00047 1 0.998284
0.998485 1 1.00001 0.998471
0.998665 1 1 0.998665
0.998771 1 1.00006 0.998715
0.999167 1 1 0.999167
0.998865 1 1.00003 0.998837
0.999358 1 1 0.999358
0.999944 1 1 0.999944
0.999497 1 1 0.999497
0.999968 1 1 0.999968
1 1 1 1
1 1 1 1
0.99998 1 1 0.99998
1 1 1 1
0.959146 0.983731 0.981636 0.993248
0.94743 0.983489 0.979762 0.983234
0.845693 0.906832 0.952223 0.979371
1.00903 1.01146 1.00007 0.997533
0.99983 1 1.00132 0.998511
0.998673 1.00037 1 0.998298
0.998316 1 1 0.998316
1.0022 1.00424 1.00012 0.997844
1.00046 1.00226 1 0.998195
0.99807 1 1 0.99807
0.999004 1.00012 1.00013 0.998754
0.99869 1.00072 0.999781 0.998187
0.996735 1.00199 0.996645 0.9981
1.0014 1.00392 1 0.997496
1.00271 1.0059 0.999281 0.997545
0.998948 1.00195 0.999475 0.997523
0.997755 1.00134 0.998202 0.998218
0.993724 1.00618 0.988997 0.99861
0.956872 0.985453 0.978948 0.991878
0.950344 0.97797 0.987458 0.984096
0.956916 0.979807 0.983188 0.993337
0.996704 1.00581 0.992424 0.998511
0.998804 1.0002 1.0003 0.998302
0.995772 1.00668 0.991586 0.997555
0.955586 0.972104 0.988778 0.994165
0.934796 0.976099 0.973582 0.983671
0.983071 1.00205 0.982823 0.998205
0.977607 0.994453 0.989187 0.993806
0.997037 1.02504 0.974606 0.998022
1.00428 1.01422 0.9925 0.997679
1.0044 1.0325 0.974735 0.997996
1.0259 1.03199 0.996204 0.997894
1.00387 1.02619 0.98008 0.998135
1.01166 1.03837 0.976047 0.998186
1.00945 1.03206 0.980018 0.998025
1.02329 1.03237 0.992918 0.998274
1.01664 1.0266 0.992126 0.998161
1.02193 1.02936 0.99487 0.997903
1.01951 1.0238 0.997623 0.998186
1.02279 1.0266 0.998251 0.998026
1.02375 1.02626 0.999846 0.99771
1.02098 1.02317 0.999819 0.998036
1.02136 1.02363 1 0.997777
1.02429 1.02685 1 0.997508
1.02077 1.02302 1 0.997795
1.02266 1.02521 1 0.997514
1.0204 1.02307 1 0.997388
1.0224 1.0251 1 0.997363
1.01836 1.02104 1 0.997381
1.00842 1.01087 1 0.997573
0.998918 1.00068 1 0.998234
1.00544 1.00784 1 0.99761
1.01428 1.01699 1 0.99734
0.999412 1 1 0.999412
0.998589 1.00023 1 0.998358
1.00326 1.00554 1 0.997735
1 1 1 1
0.999534 1 1 0.999534
0.998533 1 1 0.998533
1 1 1 1
0.999672 1 1 0.999672
1 1 1 1
1.00398 1.0064 1 0.997597
1.00114 1.00323 1 0.997921
0.999307 1.00113 1 0.998179
0.998304 1 1.00001 0.998297
0.998509 1 1.00003 0.998477
0.999167 1 1.00022 0.998948
0.998764 1 1.00007 0.998692
0.999167 1 1 0.999166
0.999899 1 1 0.999899
0.99936 1 1 0.99936
0.999951 1 1 0.999951
1 1 1 1
0.999971 1 1 0.999971
1 1 1 1
1 1 1 1
0.996114 1.01056 0.987132 0.998557
0.953336 0.981509 0.979707 0.991415
0.945116 0.975471 0.98374 0.984896
1.0073 1.00954 1.00001 0.997771
1.01493 1.01759 1 0.99739
1.00759 1.0099 1.00013 0.997577
0.998281 1 1 0.998281
1.00175 1.00368 1.00024 0.997831
1.00129 1.00315 1 0.99814
1.00946 1.01194 1 0.997549
0.998661 1.0009 0.999533 0.998225
0.994813 1.00085 0.995894 0.998064
1.00219 1.00488 0.999765 0.997561
1.01175 1.0147 0.999846 0.997254
1.01004 1.01854 0.993788 0.997854
1.0031 1.00645 0.999153 0.997518
0.999608 1.00262 0.999515 0.997476
0.997989 1.00843 0.990893 0.998746
0.960041 0.986148 0.982579 0.990787
0.99702 1.00696 0.991189 0.998928
1.01499 1.02477 0.991974 0.998473
0.99482 1.00539 0.99182 0.997645
0.956163 0.977744 0.985441 0.992377
0.999413 1.02637 0.97562 0.998066
1.0025 1.01327 0.991514 0.997838
1.00385 1.0327 0.973941 0.998069
1.02739 1.034 0.995693 0.997902
1.02295 1.03787 0.987698 0.997898
1.04038 1.04784 0.994859 0.998013
1.01454 1.04026 0.977058 0.998182
1.01137 1.03187 0.982073 0.998028
1.02498 1.03621 0.99133 0.997808
1.01699 1.02673 0.992348 0.998158
1.02213 1.02888 0.995527 0.9979
1.02739 1.03122 0.998618 0.99767
1.02251 1.02611 0.998447 0.998039
1.02412 1.02657 0.999905 0.997708
1.0269 1.02951 1 0.997462
1.02159 1.02387 1 0.997777
1.02411 1.02667 1 0.997509
1.02282 1.02554 1 0.99735
1.02275 1.02528 1 0.997539
1.02017 1.02284 1 0.997395
1.01009 1.0126 1 0.997521
1.0182 1.02089 1 0.99736
1.00826 1.01073 1 0.997562
0.999746 1.00159 1 0.99816
0.999336 1 1 0.999336
0.999164 1.00093 1 0.998233
1.00564 1.00802 1 0.997636
1 1 1 1
0.999401 1 1 0.999401
0.998728 1.00037 1 0.998358
1 1 1 1
0.999522 1 1 0.999522
1 1 1 1
1.00815 1.0108 1 0.997384
1.00418 1.00663 1 0.997572
1.00164 1.00377 1 0.997883
1.00062 1.0027 1 0.997926
0.999013 1.00083 1 0.998184
0.998786 1 1.00008 0.99871
0.998508 1 1.00002 0.998483
0.999186 1 1.00024 0.99895
0.999824 1 1.00002 0.999799
0.999166 1 1 0.999166
0.999912 1 1 0.999912
1 1 1 1
0.999958 1 1 0.999958
1 1 1 1
1 1 1 1
1.00904 1.02436 0.986697 0.998315
0.993445 1.00952 0.985916 0.998135
0.951515 0.982479 0.976087 0.99221
1.01662 1.01919 1 0.997476
1.00777 1.00985 1 0.997936
1.02668 1.02943 1 0.997329
1.01538 1.01805 1 0.997376
1.00631 1.00853 1.00018 0.997623
1.02351 1.02634 1 0.997239
1.00219 1.00411 1 0.998088
1.00832 1.01085 1 0.997491
1.0283 1.0333 0.997712 0.997438
1.0029 1.00572 0.999571 0.997626
1.01298 1.01589 0.999916 0.997219
1.00983 1.01828 0.993814 0.997872
1.00298 1.00615 0.999367 0.997488
1.00213 1.0103 0.993024 0.998881
1.03159 1.0427 0.991239 0.998082
1.01497 1.02478 0.991936 0.998479
0.995067 1.00409 0.993268 0.99773
1.0035 1.03239 0.973821 0.998143
1.02781 1.03521 0.994931 0.997911
1.02126 1.03797 0.985963 0.997915
1.04047 1.04882 0.99401 0.998013
1.03599 1.04637 0.992155 0.997911
1.013 1.0314 0.984089 0.998032
1.02482 1.03575 0.991619 0.997816
1.03029 1.03739 0.995464 0.997683
1.02227 1.02841 0.996116 0.997897
1.02701 1.03057 0.998893 0.997652
1.02917 1.03184 1 0.997413
1.02457 1.02697 0.99996 0.997706
1.02669 1.0293 1 0.99746
1.02597 1.02876 1 0.997291
1.02395 1.0265 1 0.99751
1.02277 1.02549 1 0.997353
1.01211 1.01471 1 0.997438
1.01995 1.0226 1 0.997403
1.01023 1.01274 1 0.997524
1.00043 1.00235 1 0.998084
1.00808 1.01056 1 0.997552
0.99994 1.00178 1 0.998158
0.999417 1 1 0.999417
0.999814 1 1 0.999814
0.999375 1 1 0.999375
0.999401 1.00117 1 0.998233
1 1 1 1
0.99939 1 1 0.99939
1 1 1 1
1.03325 1.03597 1 0.99738
1.01885 1.02154 1 0.997366
1.00919 1.01185 1 0.997372
1.00484 1.00716 1 0.997698
1.00437 1.00684 1 0.997546
1.00085 1.00297 1 0.997886
0.99855 1.00006 1 0.998489
0.99875 1.00056 1 0.998189
0.998933 1 1.00022 0.998714
0.999638 1 1 0.999638
0.999174 1 1.00022 0.998951
0.999819 1 1 0.999819
1 1 1 1
0.999925 1 1 0.999925
1 1 1 1
1 1 1 1
1.03097 1.0412 0.99232 0.997835
1.01269 1.02794 0.986749 0.998397
0.991098 1.00962 0.983905 0.997715
1.02687 1.02968 1 0.997279
1.0161 1.01861 1 0.997542
1.00801 1.00993 1 0.998099
1.02607 1.0288 1 0.997348
1.01581 1.0185 1 0.997362
1.03491 1.03863 0.999003 0.997417
1.02091 1.02377 1 0.9972
1.00729 1.00988 1 0.997432
1.02772 1.03264 0.997801 0.997432
1.01525 1.01818 0.99994 0.997185
1.0118 1.02059 0.993481 0.997895
1.03731 1.04698 0.99275 0.998003
1.03346 1.04392 0.991864 0.998098
1.01537 1.02484 0.992264 0.998485
1.02046 1.0389 0.984287 0.997931
1.04137 1.05045 0.993332 0.998013
1.03619 1.04723 0.991518 0.997922
1.0332 1.04055 0.995176 0.997754
1.02457 1.03516 0.991925 0.997825
1.02985 1.03665 0.995757 0.997673
1.03156 1.03449 0.999742 0.997425
1.0266 1.02987 0.999189 0.997633
1.02992 1.03259 1 0.997413
1.029 1.03185 1 0.997239
1.02643 1.02904 1 0.997459
1.02608 1.02886 1 0.997292
1.0142 1.0169 1 0.997348
1.02272 1.02543 1 0.997355
1.01236 1.01496 1 0.99744
1.001 1.00302 1 0.997985
1.01036 1.01286 1 0.997527
1.0006 1.00252 1 0.998082
0.999418 1 1 0.999418
1.00013 1.00198 1 0.998156
0.999412 1 1 0.999412
0.999826 1 1 0.999826
0.99991 1 1 0.99991
0.999418 1 1 0.999418
1 1 1 1
1.03124 1.03405 1 0.997283
1.02459 1.02726 1 0.997397
1.03288 1.03548 1 0.997484
1.00912 1.01157 1 0.997577
1.02043 1.02314 1 0.997357
1.01033 1.01301 1 0.99736
1.00403 1.00635 1 0.997696
0.999351 1.00104 1 0.998309
1.00005 1.00216 1 0.997889
0.998514 1.00002 1 0.998491
0.999471 1 1 0.999471
0.999114 1 1.0004 0.998717
0.999669 1 1.00001 0.999657
1 1 1 1
0.999837 1 1 0.999837
1 1 1 1
1 1 1 1
1.03593 1.04287 0.995618 0.997718
1.03058 1.04074 0.992392 0.997831
1.01472 1.02989 0.986776 0.998472
1.03442 1.03727 0.999924 0.997337
1.0256 1.02839 1 0.997282
1.01574 1.01818 1 0.997609
1.02531 1.02802 1 0.997368
1.03431 1.03806 0.998989 0.997395
1.01828 1.02118 1 0.99716
1.02538 1.03016 0.997935 0.997426
1.03501 1.04239 0.995089 0.997815
1.03666 1.04596 0.993133 0.997964
1.03523 1.04506 0.992473 0.998114
1.03344 1.03897 0.99703 0.99764
1.03616 1.04786 0.990886 0.997933
1.03296 1.04039 0.995111 0.997741
1.03305 1.03636 0.999287 0.997515
1.02947 1.03598 0.996046 0.997663
1.03258 1.03558 0.999676 0.997427
1.03011 1.03298 1 0.997216
1.03067 1.03334 1 0.997414
1.0287 1.03154 1 0.99724
1.01598 1.01875 1 0.997275
1.02614 1.02893 1 0.997292
1.01445 1.01715 1 0.997349
1.0015 1.00363 1 0.997884
1.01259 1.01519 1 0.997442
1.00117 1.00319 1 0.997983
0.999395 1 1 0.999395
1.00077 1.0027 1 0.99808
0.99941 1 1 0.99941
0.99983 1 1 0.99983
0.99941 1 1 0.99941
0.999829 1 1 0.999829
1 1 1 1
1.03161 1.03453 1 0.997184
1.02586 1.02868 1 0.997262
1.03205 1.03484 1 0.997297
1.01227 1.01475 1 0.997563
1.02499 1.02766 1 0.997406
1.0326 1.0351 1 0.997588
1.00079 1.00264 1 0.998155
1.00892 1.01138 1 0.997571
1.02211 1.02483 1 0.997347
1.00309 1.00541 1 0.997694
0.998968 1.00066 1 0.99831
0.999357 1 1 0.999357
0.998492 1 1 0.998492
0.999484 1 1 0.999484
1 1 1 1
0.999675 1 1 0.999675
1 1 1 1
1 1 1 1
1.03571 1.03985 0.998445 0.997572
1.03589 1.04327 0.995211 0.997703
1.03101 1.04117 0.992399 0.997828
1.03385 1.03664 0.999964 0.997347
1.02425 1.02704 1 0.997284
1.03371 1.0375 0.998971 0.997373
1.03391 1.03917 0.997279 0.997645
1.03533 1.04243 0.995364 0.997808
1.03607 1.04503 0.993483 0.997926
1.03398 1.03948 0.997045 0.997661
1.03395 1.03719 0.999415 0.997458
1.03272 1.04023 0.995037 0.997728
1.03331 1.0366 0.999346 0.997478
1.02996 1.03278 1 0.997273
1.0335 1.03657 0.99961 0.99743
1.02975 1.03262 1 0.99722
1.01726 1.0201 1 0.997221
1.02852 1.03137 1 0.997242
1.01634 1.01912 1 0.997276
1.00188 1.00408 1 0.997807
1.0148 1.01749 1 0.99735
1.00164 1.00376 1 0.997883
0.999347 1 1 0.999347
1.00134 1.00336 1 0.997982
0.999383 1 1 0.999383
0.999815 1 1 0.999815
0.999404 1 1 0.999404
0.999839 1 1 0.999839
0.999829 1 1 0.999829
1.0335 1.0362 1 0.997388
1.02802 1.03097 1 0.997135
1.03216 1.03506 1 0.997203
1.01484 1.01746 1 0.997421
1.02546 1.02827 1 0.997262
1.0328 1.03558 1 0.997312
1.00158 1.00354 1 0.998041
1.01234 1.01486 1 0.997518
1.02525 1.0279 1 0.997416
0.999304 1 1 0.999304
1.00036 1.0022 1 0.998157
1.00882 1.01128 1 0.997565
0.998595 1.00028 1 0.998312
0.999367 1 1 0.999367
1 1 1 1
0.999497 1 1 0.999497
1 1 1 1
1 1 1 1
1.03298 1.03677 0.998801 0.997543
1.0348 1.03926 0.998131 0.997568
1.03579 1.04359 0.99483 0.997688
1.03323 1.03597 0.999996 0.997357
1.03334 1.03635 0.999672 0.99742
1.03465 1.03996 0.997235 0.997655
1.03562 1.04241 0.995672 0.9978
1.03454 1.04001 0.997047 0.997681
1.0333 1.03672 0.999226 0.997469
1.03014 1.03295 1 0.997282
1.03367 1.03695 0.999394 0.997441
1.02976 1.03261 1 0.997248
1.01803 1.02088 1 0.997207
1.02938 1.03225 1 0.997223
1.01748 1.02032 1 0.997223
1.00201 1.00427 1 0.99774
1.01654 1.01932 1 0.997277
1.00191 1.00412 1 0.997807
0.999195 1 1 0.999195
1.00173 1.00386 1 0.997883
0.999289 1 1 0.999289
1 1 1 1
0.999372 1 1 0.999372
0.999828 1 1 0.999828
0.999843 1 1 0.999843
1.03227 1.03491 0.999992 0.997457
1.02915 1.03202 1 0.997215
1.03305 1.03576 1 0.997383
1.01725 1.02006 1 0.997242
1.02794 1.03087 1 0.997157
1.0328 1.03568 1 0.997221
1.00218 1.00434 1 0.997851
1.01496 1.01759 1 0.99742
1.02512 1.02794 1 0.997263
0.999284 1 1 0.999284
1.00138 1.00339 1 0.997998
1.01241 1.01497 1 0.997473
1 1 1 1
0.999314 1 1 0.999314
0.999884 1.00173 1 0.99816
0.999378 1 1 0.999378
1 1 1 1
1 1 1 1
1.03181 1.03462 0.999857 0.997433
1.03356 1.03731 0.998826 0.99755
1.03387 1.03867 0.997809 0.997564
1.03014 1.033 1 0.997226
1.03245 1.03554 0.999587 0.99743
1.03533 1.04068 0.99719 0.997665
1.03266 1.03624 0.999057 0.99748
1.03014 1.03295 1 0.997283
1.01733 1.02012 1 0.997266
1.02947 1.03233 1 0.997223
1.01797 1.02079 1 0.997233
1.00202 1.00441 1 0.997613
1.01779 1.02062 1 0.997225
1.00207 1.00434 1 0.997741
0.999143 1 1 0.999143
1.00201 1.00421 1 0.997806
0.999192 1 1 0.999192
1 1 1 1
0.999223 1 1 0.999223
0.999901 1 1 0.999901
0.999839 1 1 0.999839
1.02983 1.03256 0.999941 0.997414
1.02926 1.03208 1 0.997266
1.03214 1.03477 0.999998 0.997461
1.01816 1.02097 1 0.997245
1.02972 1.03261 1 0.997205
1.03264 1.03535 1 0.997379
1.00279 1.00506 1 0.997747
1.01718 1.01995 1 0.997284
1.02782 1.03072 1 0.997178
0.999258 1 1 0.999258
1.00214 1.00432 1 0.997837
1.01508 1.01771 1 0.99742
1 1 1 1
0.999293 1 1 0.999293
1.00121 1.00327 1 0.997954
1 1 1 1
0.999325 1 1 0.999325
1 1 1 1
1.03062 1.03344 1 0.997273
1.03116 1.034 0.999833 0.997422
1.03421 1.03793 0.998849 0.997557
1.01633 1.01912 1 0.997255
1.03021 1.03306 1 0.997245
1.03164 1.03481 0.999492 0.997439
1.03014 1.03294 1 0.997284
1.01739 1.02018 1 0.997265
1.00149 1.00392 1 0.997579
1.01794 1.02073 1 0.997259
1.002 1.00437 1 0.997648
0.99908 1 1 0.99908
1.00208 1.00435 1 0.997742
0.99914 1 1 0.99914
1 1 1 1
0.999189 1 1 0.999189
1 1 1 1
0.99982 1 1 0.99982
1.0296 1.0324 1 0.997289
1.02966 1.03233 0.999981 0.997431
1.01769 1.02049 1 0.99726
1.02946 1.03228 1 0.997265
1.03201 1.03463 1 0.997466
1.00258 1.00482 1 0.997771
1.01791 1.02072 1 0.997242
1.03027 1.03316 1 0.997195
0.99921 1 1 0.99921
1.00288 1.00511 1 0.997776
1.0171 1.01982 1 0.997326
1 1 1 1
0.999263 1 1 0.999263
1.00211 1.00429 1 0.997823
1 1 1 1
0.999301 1 1 0.999301
1 1 1 1
1.01635 1.01911 1 0.997291
1.03048 1.03331 1 0.997264
1.03044 1.03329 0.999829 0.99741
1.00062 1.00305 1 0.997584
1.01637 1.01917 1 0.997255
1.03026 1.03308 1 0.997264
1.01744 1.02024 1 0.997265
1.00149 1.00392 1 0.997581
0.999035 1 1 0.999035
1.00201 1.00434 1 0.997683
0.999077 1 1 0.999077
1 1 1 1
0.999137 1 1 0.999137
1 1 1 1
1 1 1 1
1.01704 1.01983 1 0.997261
1.02934 1.03212 1 0.997309
1.02944 1.03208 1 0.997448
1.0019 1.00416 1 0.997751
1.01759 1.02039 1 0.997257
1.02964 1.03246 1 0.997263
0.99916 1 1 0.99916
1.00274 1.00498 1 0.997769
1.0177 1.02052 1 0.997238
1 1 1 1
0.999214 1 1 0.999214
1.00297 1.00517 1 0.997806
1 1 1 1
0.999269 1 1 0.999269
1 1 1 1
1.00033 1.00266 1 0.997674
1.01626 1.01906 1 0.997255
1.03037 1.03321 1 0.997255
0.999036 1 1 0.999036
1.00066 1.00309 1 0.997582
1.01643 1.01922 1 0.997255
1.00149 1.00392 1 0.997583
0.999035 1 1 0.999035
1 1 1 1
0.999074 1 1 0.999074
1 1 1 1
1 1 1 1
1.00095 1.00324 1 0.997718
1.01675 1.01954 1 0.997262
1.02911 1.03187 1 0.997328
0.999252 1 1 0.999252
1.00214 1.0044 1 0.997749
1.0175 1.0203 1 0.997254
1 1 1 1
0.999161 1 1 0.999161
1.00287 1.00512 1 0.997767
1 1 1 1
0.999218 1 1 0.999218
1 1 1 1
0.999036 1 1 0.999036
1.00046 1.00282 1 0.997643
1.01619 1.01902 1 0.997218
1 1 1 1
0.999036 1 1 0.999036
1.00069 1.00312 1 0.99758
0.999033 1 1 0.999033
1 1 1 1
1 1 1 1
0.999205 1 1 0.999205
1.00124 1.00353 1 0.997718
1.01642 1.01921 1 0.997263
1 1 1 1
0.999122 1 1 0.999122
1.00238 1.00464 1 0.997747
1 1 1 1
0.999163 1 1 0.999163
1 1 1 1
0.999742 1 1 0.999742
0.999122 1 1 0.999122
1.00057 1.00297 1 0.997612
1 1 1 1
0.999037 1 1 0.999037
1 1 1 1
0.999758 1 1 0.999758
0.999149 1 1 0.999149
1.00154 1.00384 1 0.997718
0.999882 1 1 0.999882
0.999121 1 1 0.999121
1 1 1 1
1 1 1 1
0.999058 1 1 0.999058
1 1 1 1
0.999876 1 1 0.999876
0.999088 1 1 0.999088
1 1 1 1
1 1 1 1
1 1 1 1

VECTORS lamdaE float
1.00046 1.00013 0.994756
1.00024 1.00049 0.997477
1.00011 1.00034 0.994965
1.00071 0.999953 0.994572
1.00057 0.999948 0.994804
1.00043 1.00033 0.994583
1.00175 1.00047 0.991878
1.00026 1.0004 0.997479
1.00015 1.00021 0.997808
0.999728 1.00079 0.997838
1.00025 1.00042 0.994748
1.00155 1.00124 0.990816
1.00049 1 0.994728
1.00022 0.999996 0.994952
0.999797 1.00057 0.995147
1.00046 0.999932 0.994827
1.00004 1.00067 0.994768
1.00028 1.00002 0.995029
1.00193 1.0003 0.991787
1.00051 1.00001 0.997424
1.00071 1.00001 0.994493
1.00066 0.999894 0.994723
1.00206 1.00002 0.991814
1.00192 1.00012 0.991947
1.00043 1.00035 0.994503
1.00154 1.00101 0.991681
1.00447 1.00028 0.987453
1.00026 1.00035 0.997498
1.00032 1.00009 0.99627
0.999989 1.00058 0.996275
1.00025 1.00023 0.997566
1.00145 1.00139 0.990818
1.00061 0.999842 0.994661
1.00033 1.00035 0.994736
1.0022 1.00014 0.992197
0.99971 0.999814 0.9982
1.00187 1.00084 0.992145
1.00124 1.00169 0.990883
1.00367 1.0016 0.986799
0.999794 0.998619 0.998591
1.00051 1 0.99741
1.0004 1.00001 0.996173
1.00046 0.99999 0.997437
1.00014 1.00004 0.995046
1.00214 1 0.991059
1.00032 0.999965 0.997723
1.00234 1.00009 0.992039
1.0002 0.99987 0.995082
1 1.00007 0.995239
0.999666 1.00105 0.994936
1.0021 1.00011 0.99171
1.00036 1.00003 0.996209
1.00044 1.00002 0.994754
1.00003 1.00076 0.994673
1.0004 0.999878 0.994963
1.00217 0.999984 0.991704
1.00177 1.00077 0.991594
1.00206 1.00002 0.991854
1.00445 1.00031 0.987455
1.00044 1 0.997448
1.00064 1.00003 0.994581
1.00195 1 0.992607
1.00206 1.00005 0.991782
1.00202 0.999991 0.991908
1.00453 1.00001 0.98754
1.00453 1.00001 0.987398
1.00024 1 0.994918
1.00107 1.0018 0.991616
1.00432 1.00066 0.987356
1.00521 1.00018 0.985528
1.00052 1.00012 0.997464
1.00014 1.00003 0.997742
1.00025 1.00042 0.997479
1.00138 1.00148 0.990814
1.00064 0.999972 0.997416
1.00041 1.00031 0.99748
1.00208 1.0001 0.990954
0.999861 0.999822 0.99683
1.00164 1.00091 0.990917
1.00113 1.00178 0.991693
1.00373 1.00149 0.986795
0.999984 0.99914 0.998224
0.999831 1.00077 0.994351
1.00228 0.999979 0.990804
1.00202 1.00035 0.990918
1.00457 1.00021 0.986621
1.00069 1.00184 0.993119
1.00408 1.00091 0.986776
1.00277 1.00311 0.98686
1.00484 1.00131 0.985031
0.999681 0.998124 0.998879
0.999691 0.99852 0.998713
1.00062 0.999992 0.997374
1.00054 1 0.997403
1.00049 0.999993 0.997437
1.00035 1.00001 0.996229
1.00217 0.999988 0.991705
1.00046 0.999973 0.996168
1.00228 1.0001 0.991428
1.00048 0.999992 0.997447
1.00203 0.999926 0.991266
1.00229 1.00008 0.99216
1.00455 0.999639 0.987269
1.00232 1.00001 0.992093
1.00462 0.999856 0.986936
1.00047 1.00001 0.994767
1.00016 1.00002 0.99502
0.999626 1.00119 0.994847
1.00015 0.999838 0.995199
1.00228 0.999986 0.991593
1.00219 0.99993 0.991767
1.00198 1.00048 0.991515
1.00443 1.00034 0.987457
1.00048 0.999995 0.997447
1.00036 1.00003 0.994843
1.00209 0.999978 0.991513
1.00216 1.00004 0.991661
1.00008 1.00035 0.99625
1.00137 1.00161 0.991759
1.00214 0.999936 0.991808
1.00455 0.999976 0.987492
1.00429 1.0007 0.987357
1.00452 1.00009 0.987441
1.0052 1.00018 0.985553
1.00202 0.999961 0.99128
1.00198 1.00002 0.991902
1.00448 0.999609 0.98788
1.00453 0.999865 0.987534
1.00454 0.999918 0.987447
1.00523 0.999512 0.986446
0.999873 0.999834 0.998046
1.00522 0.999896 0.985805
1.00059 1.0024 0.991135
1.00378 1.0014 0.986788
1.00518 1.00056 0.985278
1.00522 0.999643 0.986031
0.999935 1.00194 0.992759
1.0004 1.00478 0.989294
1.00062 1 0.997436
1.00036 1.00031 0.99748
1.00209 1.00008 0.990948
0.999959 0.999517 0.998118
1.00084 1.00209 0.991076
1.00161 1.00093 0.990933
1.0038 1.00138 0.986792
0.999864 0.999063 0.998364
0.999796 1.00069 0.994406
1.00229 1.00001 0.99148
1.00202 1.00038 0.99156
1.00456 1.00022 0.986611
1.00042 1.00194 0.99209
1.0041 1.00088 0.98678
1.00281 1.00305 0.986847
1.00488 1.00122 0.985
1.00008 1.0015 0.993202
0.999801 0.999923 0.995235
1.00045 1.00398 0.990213
1.00463 1.00008 0.986671
1.0044 1.00046 0.986639
1.00521 1.00006 0.98567
1.00174 1.0043 0.987492
1.00499 1.00075 0.985259
1.00437 1.00234 0.984962
1.0051 1.00123 0.984655
0.999678 0.997769 0.999034
0.999641 0.998046 0.998945
0.999623 0.998392 0.998816
0.99986 1.00131 0.993574
0.999744 0.999395 0.998318
1.00066 0.999974 0.997391
1.00056 1 0.997381
1.00217 1.00012 0.990834
1.00208 0.99999 0.991122
1.00046 0.999996 0.997435
1.00045 0.999994 0.997445
1.00202 0.999935 0.991261
1.00221 1.00006 0.991546
1.00454 0.999639 0.98727
1.00222 1.00004 0.990807
1.00461 0.999855 0.986931
1.00199 0.999931 0.991306
1.00451 0.999579 0.987388
1.00459 0.999732 0.987109
1.00524 0.998629 0.987185
1.00464 0.99997 0.98678
1.00524 0.999113 0.986676
1.00045 0.999993 0.997442
1.00008 1.00006 0.995105
1.0021 0.999973 0.99053
1.00228 1.00003 0.991539
0.999594 1.00074 0.997901
1.00174 1.00129 0.991901
1.00225 0.999907 0.99171
1.00456 0.999929 0.987444
1.00451 1.00016 0.987485
1.00425 1.00077 0.987358
1.00519 1.00019 0.985578
1.002 0.999948 0.991281
1.0021 1.00003 0.991777
1.0045 0.999592 0.98756
1.00455 0.999919 0.987541
0.999945 0.999908 0.997941
1.00084 1.00214 0.991812
1.00366 1.00167 0.98704
1.00454 0.999957 0.987419
1.00523 0.999345 0.986537
1.00513 1.00056 0.985297
1.00522 0.99994 0.985892
1.00522 0.99964 0.986058
1.00002 1.00195 0.99274
1.0005 1.00456 0.989311
1.00447 0.99961 0.987417
1.0045 0.999762 0.987706
1.00524 0.998878 0.987068
1.00522 0.998991 0.986846
1.00523 0.99954 0.986361
1.00522 0.998132 0.987665
1.00023 1.00231 0.991884
1.00521 0.99899 0.986717
1.0026 1.00321 0.987003
1.00501 1.00097 0.984956
1.00522 1.00047 0.985365
1.00518 0.998531 0.987317
1.00084 1.0049 0.988431
1.00029 1.00405 0.990213
1.00132 1.00471 0.988
1.00219 0.999997 0.990878
0.999739 0.998954 0.998508
0.999773 1.00058 0.99446
1.00188 1.00042 0.990966
1.00456 1.00022 0.9866
1.00031 1.00204 0.992011
1.00283 1.00298 0.986833
1.00411 1.00085 0.986785
1.0049 1.00112 0.984968
1.00002 1.00147 0.993232
0.999808 0.99979 0.995277
1.00026 1.00409 0.990204
1.00462 1.00009 0.986657
1.00441 1.00046 0.986633
1.00522 1.00006 0.985651
1.0017 1.00436 0.987507
1.00504 1.00077 0.985224
1.00435 1.00228 0.984956
1.00514 1.00112 0.984646
0.999896 0.999222 0.995726
1.00105 1.00436 0.988669
1.00017 1.00288 0.991643
1.00079 1.00477 0.988861
1.00524 0.999736 0.98599
1.00516 1.00039 0.985396
1.0052 0.999287 0.986444
1.00311 1.00372 0.985859
1.00521 1.00036 0.985465
1.00487 1.00186 0.98443
1.00526 1.00087 0.984669
1.00028 1.00064 0.993682
1.00014 0.998498 0.996003
0.999737 0.997517 0.999089
0.999665 0.997725 0.999055
0.999613 0.997973 0.998994
0.999876 1.00061 0.994283
0.999693 0.998922 0.998536
0.999895 1.00136 0.993546
0.999837 0.999461 0.99822
1.00221 1.00007 0.990804
1.00215 1.00005 0.990957
1.0046 0.999855 0.986926
1.00453 0.99964 0.987271
1.00204 0.999946 0.991261
1.00049 0.999991 0.997441
1.00201 0.999931 0.991307
1.0045 0.999586 0.987389
1.00458 0.999737 0.987106
1.00523 0.998639 0.987182
1.00463 0.999979 0.986766
1.00524 0.999115 0.986661
1.00448 0.999586 0.987431
1.00523 0.998511 0.987316
1.00524 0.998843 0.986959
1.00524 0.996779 0.989077
1.00525 0.999408 0.986339
1.00521 0.997639 0.988207
1.00201 0.999938 0.991286
1.00222 1 0.991651
1.00453 0.99956 0.987243
1.00457 0.999965 0.987548
1.00004 1.00002 0.997827
1.0011 1.00198 0.992343
1.00365 1.00186 0.98729
1.00455 0.999982 0.987392
1.00523 0.999174 0.986629
1.00521 0.999985 0.98598
1.00508 1.00055 0.985317
1.00522 0.999635 0.986085
1.0001 1.00192 0.992721
1.0006 1.00448 0.989326
1.00448 0.999535 0.987409
1.00452 0.999745 0.987689
1.00524 0.998734 0.987242
1.00522 0.999165 0.986725
1.00032 1.00227 0.99187
1.00267 1.00316 0.987009
1.00497 1.00103 0.985014
1.00523 0.999646 0.986268
1.00522 0.997907 0.98792
1.00522 1.00042 0.985415
1.00521 0.998986 0.986735
1.00518 0.998473 0.987307
1.00093 1.00476 0.98843
1.00116 1.00464 0.98802
1.00035 1.00398 0.990215
1.00523 0.998717 0.987245
1.00523 0.998846 0.987149
1.00526 0.99704 0.98874
1.0052 0.997586 0.988244
1.00522 0.998214 0.987464
1.00517 0.996354 0.989404
1.0016 1.00435 0.987658
1.00517 0.997506 0.988129
1.00424 1.00223 0.985172
1.00519 1.00125 0.984424
1.00517 0.999814 0.98601
1.00513 0.997551 0.988275
1.00019 1.00329 0.991171
1.00185 1.00411 0.987465
1.00062 1.00507 0.988491
1.00223 1.00376 0.98758
1.00461 1.0001 0.986642
0.999818 0.999681 0.995317
0.999932 1.00147 0.993261
1.00011 1.00428 0.990197
1.00442 1.00044 0.986627
1.00523 1.00007 0.985633
1.00164 1.00439 0.987525
1.00437 1.00227 0.984949
1.0051 1.0008 0.985188
1.00516 1.00102 0.984635
0.999915 0.999131 0.995753
1.00092 1.00454 0.988684
1.00011 1.00292 0.991667
1.00064 1.00488 0.988828
1.00524 0.999746 0.985974
1.00518 1.00039 0.985374
1.0052 0.999286 0.986433
1.00308 1.00364 0.985888
1.00521 1.00042 0.985406
1.00495 1.00167 0.984441
1.00526 1.00087 0.984735
1.00005 0.998721 0.99593
1.00027 1.00172 0.992649
1.00175 1.00439 0.987545
1.00034 1.0046 0.989956
1.00142 1.00398 0.988602
1.00521 0.998752 0.987
1.0052 0.999803 0.985888
1.00515 0.998376 0.987301
1.00401 1.00245 0.985406
1.00519 0.999957 0.985838
1.00465 1.00184 0.984389
1.0003 1.00071 0.993567
1.00031 1.00203 0.992289
1.0002 1.00069 0.993774
1.00026 1.00065 0.993679
1.00016 0.998324 0.996655
1.00013 0.998479 0.996311
0.999897 0.997322 0.997905
0.999744 0.997479 0.999092
0.999659 0.997673 0.999072
0.999828 0.999987 0.994998
0.999683 0.998489 0.998744
0.999883 1.00068 0.99426
0.999754 0.999015 0.998465
0.999941 1.0014 0.993518
0.999913 0.999522 0.998121
1.00462 0.999985 0.986753
1.00457 0.99974 0.987104
1.00524 0.999133 0.986646
1.00523 0.998648 0.98718
1.00449 0.999594 0.98739
1.002 0.99993 0.991305
1.00447 0.999585 0.987433
1.00523 0.998515 0.987315
1.00524 0.998859 0.986949
1.00523 0.996608 0.989232
1.00525 0.999418 0.986327
1.00521 0.997652 0.988186
1.00523 0.998495 0.987336
1.00526 0.996314 0.989536
1.00521 0.997112 0.988759
1.00514 0.995367 0.990546
1.00522 0.998216 0.987582
1.00521 0.995905 0.989691
1.00449 0.999463 0.987401
1.00455 0.999742 0.987671
1.00524 0.998604 0.987416
1.00522 0.999341 0.986604
1.00043 1.00223 0.99186
1.0026 1.00318 0.987017
1.00493 1.00111 0.985072
1.00523 0.999753 0.986175
1.00522 0.997681 0.988174
1.00521 0.998981 0.986753
1.00522 1.00037 0.985465
1.00518 0.998416 0.987297
1.00104 1.00456 0.988428
1.00112 1.0046 0.988041
1.0004 1.00386 0.990219
1.00523 0.998647 0.987265
1.00523 0.998843 0.987142
1.00526 0.996775 0.989045
1.00519 0.997703 0.988127
1.00161 1.00438 0.987634
1.00429 1.00222 0.985177
1.00517 1.00132 0.984431
1.00522 0.998442 0.987245
1.00519 0.99614 0.989602
1.00517 0.999795 0.985941
1.00517 0.997525 0.988137
1.00514 0.997424 0.988396
1.002 1.00403 0.987448
1.00213 1.0038 0.987542
1.00024 1.0032 0.991165
1.00051 1.00505 0.988601
1.00527 0.996619 0.989207
1.00521 0.997292 0.988611
1.00518 0.995481 0.990314
1.00518 0.995555 0.990122
1.00517 0.996689 0.98896
1.00518 0.995537 0.990186
1.00316 1.00315 0.986217
1.00515 0.996102 0.989367
1.00496 1.0021 0.984157
1.00515 1.00127 0.984449
1.00516 0.999256 0.986329
1.00516 0.997257 0.988528
1.00013 1.00237 0.992122
1.00024 1.00492 0.989319
1.00284 1.00317 0.986731
1.00091 1.00505 0.988216
1.00259 1.00308 0.987672
0.999928 0.999052 0.995779
1.00524 0.999756 0.985958
1.00006 1.00292 0.99169
1.00077 1.00476 0.988696
1.0005 1.00495 0.988795
1.0052 1.00038 0.985353
1.00519 0.999285 0.986423
1.00319 1.00338 0.985918
1.00509 1.00149 0.984454
1.00522 1.00047 0.985348
1.00527 1.00087 0.984801
1.00006 0.998695 0.995945
1.00022 1.00175 0.992678
1.00177 1.00431 0.987559
1.00015 1.00459 0.989943
1.00122 1.00395 0.988628
1.00521 0.998745 0.986988
1.0052 0.999797 0.985874
1.00515 0.998347 0.987275
1.00405 1.00239 0.985437
1.0052 0.999988 0.985699
1.00492 1.00179 0.984373
1.00032 1.00101 0.99328
1.00022 1.00345 0.991192
1.00271 1.00284 0.987418
1.00047 1.00499 0.989423
1.00179 1.00272 0.989197
1.00517 0.997657 0.988041
1.00515 0.999077 0.986542
1.00515 0.997611 0.987681
1.0037 1.00175 0.986177
1.00494 1.00091 0.984893
1.00031 1.0007 0.993564
1.00031 1.00197 0.992245
1.00021 1.00212 0.992247
1.00036 1.00262 0.991775
1.00022 1.00215 0.992308
1.00012 1.00076 0.993824
1.00019 1.00068 0.993775
1.00016 0.998286 0.996687
1.00026 1.00067 0.993676
1.00016 0.998354 0.996659
0.999988 0.997105 0.997936
1.00012 0.998479 0.996613
0.999856 0.997286 0.998506
0.999753 0.997423 0.999095
0.999871 0.999268 0.995652
0.999834 1.00005 0.994969
0.999659 0.998032 0.998944
0.999723 0.998566 0.998666
0.999887 1.00076 0.994236
0.999829 0.999068 0.998383
1.00524 0.999426 0.986314
1.00523 0.99886 0.986939
1.00522 0.997659 0.988165
1.00522 0.996443 0.989387
1.00523 0.998519 0.987315
1.00448 0.999586 0.987434
1.00523 0.998497 0.987337
1.00526 0.996297 0.989546
1.00521 0.997116 0.98875
1.00516 0.995199 0.990669
1.00522 0.998209 0.987561
1.00519 0.995856 0.989788
1.00527 0.996295 0.98954
1.00517 0.995244 0.990658
1.00517 0.995288 0.990482
1.00515 0.994935 0.990914
1.00518 0.996815 0.988892
1.00519 0.995168 0.990368
1.00523 0.998572 0.987285
1.00523 0.998849 0.987135
1.00525 0.9965 0.98935
1.00519 0.997816 0.98801
1.00165 1.00436 0.987612
1.00435 1.00219 0.985181
1.00512 1.00133 0.984437
1.00522 0.998672 0.987025
1.0052 0.995932 0.989801
1.00517 0.997544 0.988145
1.00518 0.999788 0.985874
1.00515 0.997296 0.988516
1.00198 1.00405 0.987432
1.00186 1.00386 0.987504
1.0003 1.00317 0.99116
1.00041 1.005 0.988712
1.00527 0.996626 0.989202
1.00521 0.997398 0.988475
1.00518 0.995271 0.990561
1.00519 0.995584 0.990074
1.00298 1.00352 0.986186
1.00482 1.00207 0.984203
1.00515 1.00123 0.984415
1.00516 0.996902 0.988752
1.00516 0.995342 0.990339
1.00514 0.999312 0.9863
1.00516 0.996122 0.989363
1.00515 0.996974 0.988694
1.003 1.00302 0.986717
1.00251 1.00303 0.987756
1.00091 1.00506 0.988194
1.00014 1.00237 0.992059
1.00015 1.00482 0.989445
1.00518 0.995044 0.990869
1.00514 0.995318 0.990569
1.00521 0.995016 0.990515
1.00516 0.995466 0.990061
1.00401 1.00279 0.985254
1.00517 0.995718 0.989887
1.00509 1.00225 0.983588
1.00509 1.00113 0.984547
1.00512 0.999014 0.986478
1.00002 1.00148 0.993003
1.00007 1.00431 0.990387
1.00058 1.00504 0.98895
1.00338 1.00257 0.986646
1.00118 1.00484 0.987653
1.00287 1.00222 0.987405
1.00007 0.998677 0.995961
1.00017 1.00177 0.992706
1.0052 0.998738 0.986977
0.999949 1.00458 0.989929
1.00162 1.00442 0.987575
1.00104 1.0039 0.988654
1.00521 0.999791 0.985859
1.00515 0.99832 0.987248
1.00404 1.00232 0.985468
1.00515 1.00178 0.984354
1.00521 1.00001 0.985562
1.00029 1.00099 0.99329
1.00008 1.00349 0.991203
1.00274 1.00287 0.987316
1.00027 1.00501 0.989393
1.00169 1.00249 0.989332
1.00517 0.997649 0.988021
1.00515 0.999086 0.986516
1.00515 0.997652 0.987719
1.00389 1.00172 0.985977
1.00497 1.00101 0.984922
1.00027 1.0024 0.99203
0.999757 1.00461 0.990367
1.00329 1.00098 0.988132
1.00047 1.00435 0.989641
1.00241 1.001 0.989486
1.00515 0.996289 0.989126
1.00514 0.999131 0.986399
1.00514 0.997551 0.987644
1.00413 1.00128 0.985949
1.00482 1.00078 0.985167
1.00031 1.00068 0.993561
1.0003 1.00199 0.992271
1.00012 1.00261 0.991887
1.00015 1.0022 0.992205
1.00017 1.00223 0.9923
1.0002 1.00273 0.991743
1.00013 1.00284 0.991827
1.00011 1.00305 0.991447
1.00011 1.00233 0.992318
1.00006 1.0009 0.993798
1.00012 1.00076 0.993823
1.00014 0.998308 0.996706
1.00018 1.00067 0.993776
1.00017 0.998311 0.99669
1.00004 0.996988 0.99795
1.00017 0.998369 0.996666
0.999976 0.997076 0.997943
0.999812 0.997244 0.999121
0.999923 0.99873 0.996117
0.999857 0.999362 0.995612
0.999676 0.99768 0.999072
0.99984 1.00012 0.99494
0.999694 0.998147 0.998881
0.999772 0.998649 0.998598
1.00522 0.998202 0.987539
1.0052 0.997127 0.98874
1.00518 0.995814 0.989885
1.00517 0.995027 0.990793
1.00526 0.99627 0.989556
1.00523 0.998499 0.987338
1.00527 0.996426 0.98941
1.00517 0.995253 0.990682
1.00518 0.995253 0.990532
1.00515 0.99494 0.990899
1.00518 0.996828 0.988889
1.00519 0.995087 0.990449
1.00518 0.995015 0.990928
1.00513 0.994979 0.990949
1.0052 0.994934 0.990707
1.00519 0.995433 0.990099
1.00527 0.996634 0.989196
1.00521 0.9975 0.988339
1.00517 0.995062 0.990806
1.0052 0.995626 0.990027
1.00294 1.00375 0.986156
1.00475 1.00204 0.98425
1.00516 1.00124 0.984382
1.00516 0.997109 0.988543
1.00515 0.995122 0.990492
1.00517 0.996143 0.989358
1.00513 0.999354 0.98627
1.00515 0.996691 0.98886
1.00312 1.00291 0.986703
1.0025 1.00271 0.987838
1.00085 1.00507 0.98817
1.00017 1.00233 0.991998
1.00014 1.00471 0.989571
1.00519 0.995015 0.990862
1.00514 0.995394 0.990471
1.0052 0.995032 0.990508
1.00385 1.00297 0.985249
1.00489 1.00226 0.983666
1.00507 1.00107 0.984538
1.00516 0.995497 0.990035
1.00514 0.998747 0.986809
1.00516 0.995718 0.989746
1.00005 1.00132 0.993143
1.00354 1.00227 0.98657
1.00256 1.0019 0.988202
1.00135 1.00499 0.987604
1.00057 1.00505 0.989065
1.00008 1.00429 0.990313
1.00514 0.994936 0.990966
1.00517 0.994992 0.990683
1.00518 0.994928 0.990525
1.00514 0.995071 0.99049
1.00456 1.00239 0.984824
1.0051 0.996892 0.988571
1.00494 1.00275 0.983089
1.00499 1.00139 0.984327
1.00012 1.00036 0.994003
1.00004 1.00314 0.991632
1.00029 1.00488 0.989608
1.00109 1.00504 0.987996
1.00372 1.00224 0.985874
1.00255 1.00378 0.986658
1.00027 1.00098 0.993299
0.999962 1.00352 0.991215
1.00517 0.997642 0.988
1.00005 1.00505 0.989364
1.00279 1.00289 0.987212
1.00136 1.00239 0.989471
1.00515 0.999096 0.98649
1.00515 0.997698 0.987755
1.00404 1.00173 0.985776
1.00505 1.00109 0.98495
1.00021 1.00243 0.992045
0.999869 1.00467 0.990243
1.00347 1.00097 0.988035
1.00024 1.00457 0.989678
1.00229 1.00073 0.989866
1.00515 0.99624 0.989299
1.00514 0.999083 0.986515
1.00513 0.997695 0.987614
1.0042 1.00147 0.985831
1.00488 1.00084 0.985004
0.999852 1.00319 0.991551
0.999755 1.00505 0.989648
1.00367 1.00004 0.988123
1.00135 1.00238 0.989179
1.00521 0.995179 0.990032
1.00511 0.996709 0.989026
1.005 0.99971 0.985844
1.00448 1.00078 0.98543
1.00033 1.00196 0.992297
1.00016 1.00261 0.991894
0.999816 1.00306 0.992241
1.00011 1.00232 0.992292
1.00005 1.00285 0.991712
1.00009 1.00237 0.992308
1.00004 1.00282 0.991925
1.00014 1.00304 0.991473
0.999991 1.0023 0.992578
1.00005 1.00338 0.991326
1.00011 1.00336 0.991144
1.00008 1.00246 0.992226
1 1.00105 0.993699
1.00005 1.00088 0.993796
1.0001 0.998356 0.99672
1.00011 1.00075 0.993823
1.00014 0.998339 0.996707
1.00006 0.99694 0.99796
1.00017 0.998338 0.996694
1.00003 0.99696 0.997957
0.99996 0.997056 0.997945
1.00002 0.998284 0.996409
0.99993 0.998778 0.996078
0.999729 0.997337 0.999155
0.999843 0.999458 0.995571
0.999693 0.997732 0.999039
0.999736 0.998227 0.998794
1.00518 0.996841 0.988886
1.00519 0.995213 0.990582
1.00519 0.995 0.99053
1.00514 0.994942 0.990884
1.00516 0.995267 0.990707
1.00527 0.996551 0.989281
1.00518 0.995135 0.990788
1.00513 0.994975 0.990965
1.00519 0.994938 0.990702
1.00519 0.99535 0.990187
1.00513 0.994978 0.991015
1.00519 0.994939 0.990782
1.00522 0.994932 0.990543
1.00519 0.994987 0.990856
1.00514 0.995463 0.990374
1.0052 0.995052 0.990501
1.00366 1.00315 0.985243
1.00483 1.00228 0.983738
1.00508 1.001 0.984528
1.00516 0.995543 0.99001
1.00513 0.995688 0.989604
1.00515 0.99847 0.987141
1.00366 1.00207 0.986489
1.00224 1.00179 0.988995
1.00163 1.00505 0.987555
1.00007 1.0012 0.993285
1.00039 1.00505 0.989179
1.00006 1.00427 0.99024
1.00514 0.994937 0.99098
1.00517 0.994954 0.99069
1.00518 0.994955 0.99054
1.00427 1.00266 0.984808
1.00487 1.00274 0.983062
1.00499 1.00117 0.984657
1.00514 0.995028 0.990438
1.00509 0.996861 0.988502
1.00011 1.00032 0.994174
1.00005 1.00313 0.991634
1.00338 1.00208 0.98631
1.00238 1.00381 0.987246
1.00097 1.00504 0.988241
1.00025 1.00489 0.989585
1.00516 0.99493 0.990855
1.00519 0.994919 0.990514
1.00514 0.994901 0.990607
1.00507 0.995045 0.990268
1.00474 1.00306 0.982958
1.00482 1.00021 0.985745
1.00484 1.00324 0.982946
1.00022 0.999852 0.994569
1.00025 1.00097 0.993464
1.00007 1.00178 0.992779
1.00003 1.0042 0.990516
1.00044 1.00496 0.988915
1.00079 1.00463 0.988137
1.00322 1.00205 0.986436
1.00246 1.00391 0.987936
1.00014 1.00251 0.992059
0.999979 1.00476 0.990119
1.00516 0.996186 0.989473
1.00029 1.00459 0.989711
1.00367 1.00101 0.987941
1.00213 1.00052 0.990242
1.00513 0.999018 0.986633
1.00513 0.997819 0.987586
1.00425 1.00161 0.985718
1.00492 1.00088 0.984843
0.999902 1.0033 0.991427
0.999901 1.00504 0.989693
1.00385 1.00007 0.988185
1.00164 1.00253 0.989292
1.0052 0.995134 0.990136
1.00512 0.996708 0.988853
1.00501 0.999651 0.985884
1.00473 1.00081 0.985261
0.999708 1.00389 0.991126
1.00525 0.994895 0.990307
1.00108 1.00466 0.988843
1.00375 1.00051 0.987649
1.00516 0.995629 0.990089
1.00509 0.99838 0.986117
1.00488 1.00143 0.984719
1.00016 1.00266 0.9919
0.999774 1.003 0.992195
0.999449 1.00283 0.993127
1.00008 1.00235 0.992298
1.00016 1.00304 0.991499
0.999747 1.00298 0.992022
1.00006 1.00248 0.992211
1.00004 1.0034 0.991179
0.999708 1.00246 0.992705
1.00016 1.00327 0.991326
0.999952 1.00173 0.993513
0.999856 1.00295 0.992101
1.00011 1.00409 0.990527
1.0003 1.00348 0.990813
1.00008 1.0027 0.991989
0.999963 1.00126 0.993567
0.999986 1.00111 0.99369
1.00006 0.99848 0.996694
1.00004 1.00091 0.993793
1.0001 0.998404 0.996715
1.00005 0.996926 0.997978
1.00015 0.998372 0.99671
1.00006 0.996912 0.997963
1.00003 0.996934 0.997959
1.0002 0.99989 0.994596
1.00009 0.99803 0.996555
1.00002 0.998321 0.996389
0.999819 0.99704 0.999206
0.999933 0.998835 0.99604
0.999738 0.997421 0.999134
0.999717 0.997819 0.999007
1.00519 0.995269 0.990274
1.00518 0.994947 0.990698
1.00514 0.994974 0.990981
1.00518 0.995262 0.990648
1.00513 0.994974 0.991004
1.00519 0.994944 0.990796
1.00522 0.994931 0.990506
1.00518 0.994951 0.990854
1.00524 0.994939 0.990597
1.00528 0.994929 0.990966
1.00513 0.994939 0.990994
1.00517 0.994921 0.990696
1.00517 0.99497 0.990555
1.00389 1.00289 0.984797
1.00498 1.00275 0.983044
1.00494 1.00098 0.984987
1.00515 0.994985 0.990386
1.00509 0.996877 0.988435
1.00316 1.00198 0.986752
1.00227 1.00389 0.987833
1.00071 1.00506 0.988486
1.0001 1.00023 0.994344
1.00012 1.00307 0.991637
1.00022 1.00497 0.989559
1.00517 0.994932 0.990835
1.0002 0.999878 0.994564
1.0002 1.00103 0.993382
1.00519 0.994913 0.990532
1.00513 0.994897 0.990608
1.00461 1.00321 0.983226
1.00484 1.00305 0.983072
1.00484 1.00003 0.985672
1.00507 0.995199 0.990197
1.00007 1.00178 0.992965
1.0001 1.00417 0.990488
1.00352 1.00261 0.986031
1.00178 1.00381 0.988438
1.00088 1.00466 0.988353
1.00041 1.00502 0.989014
1.00523 0.994932 0.990565
1.00519 0.994818 0.990557
1.0051 0.994901 0.990299
1.00471 0.995699 0.989998
1.00409 1.00379 0.98352
1.00428 1.00354 0.983796
1.0001 1.00132 0.993159
1.00022 1.00101 0.993456
1.00048 1.00136 0.992822
1.00022 1.00288 0.991416
1.00008 1.00481 0.989962
1.00143 1.00433 0.988239
1.00004 1.00502 0.988753
1.00253 1.00125 0.988152
0.999951 1.0034 0.991305
1.00012 1.00503 0.98974
1.00519 0.995095 0.99024
1.00511 0.996734 0.988681
1.00193 1.00267 0.989406
1.00405 1.00005 0.988244
1.00502 0.999616 0.985921
1.00502 1.00088 0.985091
0.99985 1.00388 0.991071
1.00525 0.994899 0.990445
1.00088 1.0046 0.988882
1.00396 1.00057 0.987286
1.00517 0.995497 0.990091
1.00508 0.998516 0.986392
1.00484 1.00138 0.984748
0.999957 1.0047 0.990446
1.00455 0.994976 0.99151
1.00248 1.00294 0.988198
1.00429 1.00142 0.986054
1.00487 0.99667 0.9893
1.0037 1.00145 0.985654
0.998506 0.997656 0.989757
0.999681 1.00303 0.99215
0.999237 1.00299 0.993103
0.999649 1.00275 0.993192
1.00002 1.00253 0.992197
1.00003 1.00344 0.991213
1.00032 1.0031 0.991328
0.999541 1.00247 0.992832
1.00006 1.0027 0.991993
1.00023 1.00356 0.990808
0.999899 1.00172 0.993422
1.0001 1.00411 0.990539
1 1.00287 0.991965
0.99982 1.0022 0.993122
1.00031 1.00431 0.990067
1.00016 1.00431 0.990313
1.00039 1.00369 0.990456
1.00011 1.00286 0.991634
1.00023 1.00343 0.991163
1.00011 1.0029 0.991516
0.999964 1.00127 0.993531
0.999969 1.00125 0.99356
1.00003 0.998593 0.99608
0.999995 1.00109 0.99368
1.00006 0.998533 0.996386
1.00002 0.996969 0.999131
1.0001 0.998447 0.996712
1.00006 0.996889 0.997982
1.00006 0.996884 0.997962
1.00014 0.999888 0.994657
1.00021 0.999829 0.994608
1.0001 0.997923 0.996662
1.00007 0.998039 0.996813
0.999892 0.996862 0.999237
1.00002 0.998358 0.996369
0.99981 0.997117 0.999193
0.999748 0.997465 0.999113
1.00521 0.994929 0.990469
1.00518 0.994948 0.990811
1.00513 0.994969 0.990994
1.00518 0.994953 0.990856
1.00524 0.994939 0.990603
1.00528 0.994935 0.990585
1.00529 0.994938 0.990575
1.00112 0.994872 0.985624
1.00447 0.994883 0.992991
1.00002 1.00133 0.993412
1.00517 0.994934 0.990816
1.00519 0.99491 0.99055
1.00513 0.994892 0.990609
1.00421 1.00329 0.983485
1.0049 1.00296 0.983199
1.00489 0.999922 0.985605
1.00507 0.995357 0.990123
1.00404 1.00272 0.985627
1.00104 1.00371 0.988943
1.00102 1.00471 0.988572
1.00016 0.999937 0.994558
1.00042 1.00504 0.989114
1.00005 1.00176 0.993147
1.00022 1.00409 0.99046
1.00019 1.001 0.993299
1.00523 0.99492 0.990565
1.00011 1.00127 0.993261
1.00017 1.00108 0.993454
1.00043 1.00138 0.992807
1.00519 0.994843 0.990532
1.00511 0.994896 0.990329
1.00418 1.00373 0.983563
1.00431 1.00277 0.984411
1.00465 0.996229 0.989885
1.00005 1.003 0.991568
1.00022 1.00471 0.989794
1.00247 1.00227 0.987882
1.00058 1.00482 0.988766
1.00125 1.0042 0.988376
1.00523 0.994962 0.990667
1.00513 0.994777 0.990717
1.00506 0.995375 0.989886
1.00445 0.998137 0.989133
1.00212 1.00373 0.987397
1.00006 1.00229 0.992247
1.00049 1.0015 0.992335
1.00009 1.00217 0.992201
0.999947 1.00438 0.991053
1.00015 1.00472 0.989678
1.00033 1.00459 0.989035
1.001 1.00296 0.989215
1.00007 1.00381 0.991013
1.00057 1.00455 0.98892
1.00526 0.994891 0.990575
1.00519 0.995405 0.990089
1.00508 0.998686 0.986667
1.00414 1.0006 0.986923
1.0048 1.00126 0.984779
1.00011 1.00456 0.990543
1.00452 0.995085 0.99163
1.00238 1.00288 0.988053
1.00418 1.00148 0.985916
1.00499 0.996082 0.989565
1.00392 1.00162 0.98567
0.99851 0.997779 0.987551
1.0003 1.00432 0.990179
1.00253 0.998532 0.991475
1.00242 1.00205 0.988381
1.00252 1.00162 0.987658
1.00353 0.997639 0.989697
1.00003 0.994924 0.95153
0.996983 0.994877 0.970234
0.996264 1.00141 0.989118
0.999786 0.995911 0.888949
0.994728 0.995216 0.860677
0.999051 1.00316 0.993082
0.999145 1.00308 0.99337
0.999537 1.00305 0.992953
1.00004 1.00271 0.991996
1.00031 1.00343 0.990802
1.00008 1.00414 0.990552
1.00016 1.00278 0.991826
0.999806 1.00171 0.993332
1.00021 1.00427 0.990263
1.00011 1.00284 0.991705
1.00038 1.00367 0.990485
0.999887 1.00201 0.992976
1.00019 1.0043 0.990244
1.00023 1.0046 0.990231
0.999642 1.00426 0.99094
1.00022 1.00438 0.990076
1.00035 1.00359 0.990536
1.00017 1.00282 0.991541
1.00031 1.00369 0.990645
1.00014 1.0037 0.991008
1.00006 1.00338 0.991318
1.0002 1.00348 0.991083
1.00019 1.00261 0.991892
1.00014 1.0029 0.991507
1.00002 1.0012 0.993536
0.999976 1.00127 0.993531
1.00003 0.998657 0.996061
0.999957 1.00128 0.993554
1.00003 0.998611 0.996077
1.00001 0.996961 0.999136
1.00006 0.998592 0.996079
1.00003 0.996963 0.998542
1.00007 0.996854 0.997984
1.00006 0.999918 0.994757
1.00015 0.999879 0.994661
1.00011 0.99783 0.996753
1.00022 0.999778 0.99462
1.0001 0.997875 0.99692
0.99994 0.996693 0.999269
1.00008 0.998081 0.996531
0.999881 0.996934 0.999223
0.999807 0.997183 0.999181
1.00523 0.994938 0.990608
1.00518 0.994955 0.990858
1.00529 0.994941 0.990208
1.00083 0.994946 0.985752
1.00528 0.994936 0.990574
1.00433 0.995225 0.992587
1.00506 0.996237 0.991157
0.996476 0.99491 0.969375
1.00046 0.996833 0.98773
1.00005 1.00133 0.993389
1.00009 1.00128 0.9934
0.999994 1.00236 0.992432
0.999965 1.00222 0.992616
1.00522 0.994916 0.990565
1.00519 0.994868 0.990508
1.00512 0.994894 0.990358
1.00481 1.00353 0.983601
1.0042 1.0016 0.985018
1.00457 0.996758 0.989767
1.00213 1.00356 0.987615
1.00128 1.0046 0.988779
1.00109 1.00397 0.988513
1.00011 1.0012 0.993451
1.00026 1.0047 0.989625
1.00005 1.00305 0.99172
1.00012 1.00127 0.993363
1.00031 1.00143 0.992787
1.00524 0.994949 0.990672
1.00012 1.0023 0.992312
1.00048 1.0015 0.992517
0.999765 1.00211 0.992841
1.00514 0.994793 0.990615
1.00495 0.995417 0.989906
1.00276 1.00294 0.987313
1.00409 0.997801 0.989592
1.00007 1.00411 0.990846
1.0003 1.00486 0.989203
1.00116 1.00371 0.989087
1.00108 1.00432 0.988853
1.0045 0.994919 0.991617
1.00505 0.995429 0.990536
1.005 0.996053 0.989686
1.00209 0.999423 0.99171
0.999763 1.00333 0.991764
1.00027 1.00261 0.991596
0.999127 1.00467 0.991476
0.999457 1.00486 0.990114
0.999995 0.994918 0.942201
1.00019 1.00442 0.99064
1.0022 1.00295 0.987906
1.00448 0.994988 0.991757
1.00508 0.995619 0.989827
1.00405 1.00168 0.985675
1.00403 1.00165 0.985772
0.998607 0.997644 0.985275
1.00017 1.00447 0.99038
1.00258 0.997982 0.991506
1.00239 1.00215 0.9884
1.00312 1.00117 0.987628
1.00382 0.997668 0.989614
1.00098 0.994988 0.940882
0.99691 0.99489 0.965878
0.996352 1.00203 0.988986
0.999774 0.995072 0.89271
0.994746 0.995259 0.849528
1 1.00385 0.991259
0.999809 0.99485 0.899646
0.994697 0.995156 0.859225
1.00136 1.00003 0.991374
1.00123 1.00196 0.990215
1.00179 1.00065 0.990196
0.996129 1.0023 0.98958
1.0007 0.996277 0.947419
0.994906 0.995518 0.963469
0.997283 0.99831 0.900052
0.994797 0.995194 0.853756
0.998784 1.00334 0.993546
0.999347 1.00312 0.992847
0.999432 1.00339 0.99291
1.00014 1.00279 0.991775
1.00037 1.00369 0.990515
0.999959 1.00451 0.990214
1.00007 1.00429 0.990422
1 1.00181 0.992829
1.00017 1.00283 0.991545
1.00003 1.00473 0.99018
1.00022 1.0044 0.990062
1.00042 1.00352 0.990588
0.999629 1.00423 0.991063
0.999792 1.00484 0.990668
0.998802 1.00499 0.991512
1.00041 1.00396 0.990203
1.00037 1.00362 0.990613
1.00034 1.00368 0.99063
1.00007 1.00369 0.99109
1.00038 1.00385 0.990359
0.999972 1.00371 0.991182
0.999567 1.00377 0.991332
0.99972 1.00457 0.990616
0.999926 1.00365 0.991265
1.00011 1.00333 0.991319
1.00013 1.00251 0.992089
1.00017 1.0035 0.991002
1.0002 1.00261 0.99182
1.00009 1.00114 0.993491
1.00018 1.0029 0.991498
1 1.00122 0.99354
1.00007 0.998586 0.996647
0.99996 1.0013 0.993531
1.00003 0.998615 0.996364
1.00004 0.996976 0.997947
1.00002 0.998624 0.996073
1.00001 0.996976 0.999136
1.00005 0.99697 0.997952
1.0001 1.0014 0.99322
1 0.999966 0.994797
1.00006 0.999904 0.99476
1.0001 0.997807 0.996787
1.00016 0.999849 0.994665
1.00012 0.997789 0.996756
0.999979 0.996596 0.999285
1.00009 0.99787 0.997154
0.999957 0.996786 0.998749
0.999925 0.996991 0.998179
1.00048 0.995223 0.985897
1.00526 0.994941 0.990575
1.0041 0.99598 0.992175
0.99667 0.994888 0.970465
1.00042 0.996529 0.988047
1.00508 0.99579 0.991027
1.00306 0.997328 0.98807
0.99651 0.996771 0.973353
1.00003 0.995183 0.948586
0.999508 0.997287 0.903327
0.994684 0.995317 0.858668
0.99991 1.0023 0.992509
1.00008 1.00131 0.993384
1.00016 1.0012 0.993389
1.00001 1.00235 0.992432
0.999723 1.0033 0.991945
1.00027 1.00238 0.99191
1.00003 1.00274 0.99219
0.999991 1.00227 0.992497
1.00524 0.994877 0.990673
1.00514 0.994806 0.990513
1.00483 0.995304 0.989927
1.00291 1.00252 0.987238
1.00379 0.997691 0.990058
1.00136 1.00447 0.988953
1.00176 1.00415 0.988671
1.0006 1.00502 0.988732
1.00035 1.00151 0.992703
1.00005 1.00416 0.990638
1.00018 1.00232 0.992379
0.999606 1.00204 0.993478
1.00454 0.994835 0.991775
0.999767 1.00336 0.991822
1.00022 1.00276 0.991798
1.00494 0.99521 0.9905
1.00481 0.9956 0.989834
1.00203 0.999399 0.991321
0.99963 1.00497 0.990788
1.0002 1.00454 0.990206
1.00327 0.995173 0.99199
1.00443 0.996752 0.99063
1.0047 0.995093 0.991049
1.00132 0.999286 0.992716
0.999925 1.00446 0.990441
0.999496 1.00419 0.991328
0.999413 1.00519 0.990991
0.999836 0.994849 0.901179
1.0004 0.994923 0.952797
1.0001 1.00457 0.990584
1.0024 1.00209 0.988425
1.00254 0.997526 0.991544
1.00419 0.997805 0.989535
1.00382 1.00073 0.987614
1.00003 0.994952 0.950092
0.997189 0.994902 0.965124
0.996435 1.00255 0.988806
0.999656 0.996192 0.904501
0.994762 0.99548 0.837943
1.00005 1.00366 0.991209
0.999836 0.995273 0.898667
0.994685 0.995238 0.853384
1.00139 1.00004 0.991429
1.00139 1.0018 0.990273
1.00193 1.00041 0.990773
0.996253 1.00261 0.990216
1.00173 0.996274 0.940448
0.994916 0.995047 0.967218
0.998312 0.998693 0.89959
0.994799 0.995074 0.852306
0.999599 1.00347 0.992713
0.994684 0.995381 0.85575
0.994812 0.994957 0.870291
0.999019 1.00166 0.994156
0.999622 1.00251 0.993592
0.995513 1.00247 0.989733
0.994874 0.997351 0.966766
0.997523 0.99864 0.937502
0.994717 0.999765 0.904894
0.994829 0.994801 0.85593
0.999295 1.00313 0.992745
0.999605 1.00314 0.992735
0.998317 1.00416 0.993061
1.00017 1.00283 0.99155
1.00044 1.00347 0.99064
1.00024 1.00439 0.990047
0.999894 1.00486 0.990129
0.9995 1.00426 0.991187
1.00037 1.00363 0.990611
0.999826 1.00466 0.99053
1.00042 1.00391 0.990229
0.998537 1.00501 0.991769
0.996838 1.00517 0.994281
0.999876 1.00436 0.990864
1.00057 1.00408 0.989906
1.00036 1.00366 0.990615
1.00009 1.0036 0.991172
1.00038 1.00393 0.990311
1.00003 1.00367 0.991135
0.999497 1.00368 0.991759
0.99973 1.00426 0.990939
0.999711 1.00421 0.990845
0.999362 1.00364 0.991886
1.00032 1.00264 0.991621
1.00055 1.00389 0.989327
0.999579 1.00467 0.990576
0.999819 1.0045 0.990622
0.999779 1.00417 0.990975
0.999955 1.00366 0.991255
1.00002 1.00264 0.992083
1.00011 1.00338 0.99132
1.00013 1.0025 0.992097
1.00016 1.001 0.993461
1.0002 1.00262 0.991748
1.00009 1.00112 0.993504
1.00012 0.998564 0.996583
1 1.00122 0.993545
1.00008 0.998559 0.996336
1.00005 0.996907 0.997943
1.00005 0.998587 0.996069
1.00001 0.996977 0.999133
1.00001 0.996971 0.999137
1.00013 1.00166 0.993183
0.999986 1.0001 0.994703
1.00009 1.00144 0.993227
1.0001 0.997811 0.996782
1 0.999971 0.994799
1.00007 0.999911 0.994763
1.0001 0.997795 0.996783
1.00001 0.996536 0.999288
1.0001 0.997762 0.997232
0.999997 0.996605 0.998794
0.999978 0.996797 0.998261
0.999836 0.995283 0.89017
0.99469 0.995286 0.85582
0.998041 0.994883 0.970278
1.00048 0.995462 0.988387
1.00515 0.995026 0.9909
0.99616 0.995844 0.974203
1.00336 0.996241 0.988457
1.00117 0.995537 0.946999
0.999813 0.996038 0.891491
0.994725 0.99532 0.847569
0.9986 0.994874 0.978073
1.00001 0.996877 0.948011
0.997979 0.998526 0.897709
0.994801 0.99498 0.854297
1.00006 1.00327 0.991498
0.999909 1.00225 0.992601
1.00012 1.00126 0.993379
0.999988 1.00234 0.992432
0.999725 1.00312 0.992128
1.00003 1.00356 0.99125
1.00019 1.00274 0.9918
1.00028 1.00318 0.991089
1.00006 1.00267 0.992083
0.999978 1.00238 0.99238
1.00459 0.994812 0.991929
1.00491 0.995003 0.990477
1.00447 0.995316 0.98998
1.00183 0.999485 0.990933
1.00071 1.00456 0.9903
0.999772 1.00513 0.9901
1.00023 1.00269 0.992007
0.999737 1.00343 0.991878
1.00315 0.995306 0.992281
0.999903 1.00462 0.990305
0.999386 1.0043 0.991246
1.00456 0.996138 0.990553
1.00458 0.99521 0.990755
1.00115 0.999295 0.992847
0.999564 1.00513 0.990944
1.0006 0.996616 0.992468
1.00279 0.996437 0.993739
1.00024 1.00129 0.993023
0.99929 1.00472 0.990206
0.999548 1.00498 0.990233
0.999255 1.00509 0.991067
0.994746 0.995733 0.873552
0.999836 0.994872 0.904877
0.999984 0.994902 0.942571
0.999889 1.00365 0.991154
1.00151 1.00173 0.990323
1.00143 1.00004 0.991484
1.00208 1.00014 0.991345
0.999825 0.994845 0.907229
0.999998 0.996129 0.940078
0.994889 0.994857 0.963678
0.996349 1.00221 0.990828
0.997382 0.998397 0.888045
0.994707 0.995199 0.856281
0.994784 0.994842 0.859932
0.999326 1.00331 0.992629
0.994692 0.995143 0.86315
0.994833 0.995032 0.869913
0.998897 1.00144 0.994321
0.999369 1.00223 0.993595
0.995483 0.999551 0.99249
0.994884 0.997142 0.965744
0.997423 0.999617 0.94777
0.996723 0.999911 0.892156
0.994803 0.994794 0.86407
0.997514 1.00341 0.99581
0.994823 0.995453 0.878694
0.994775 0.994779 0.871584
0.995517 1.0021 0.999705
0.994815 0.999297 0.973306
0.9949 0.999955 0.948565
0.994898 0.999004 0.887427
0.994881 0.994822 0.863273
0.999772 1.00278 0.992556
0.998605 1.00412 0.99336
0.996993 1.00492 0.995174
1.00032 1.0037 0.990609
1.00047 1.00386 0.990254
0.999904 1.00442 0.990391
0.998266 1.00509 0.992034
1.00047 1.00416 0.989904
0.999827 1.00438 0.990811
0.996977 1.00512 0.994733
0.995144 1.00529 0.997283
0.997454 1.00494 0.994422
1.00033 1.00404 0.990342
1.00039 1.00401 0.990261
1.00005 1.00365 0.991087
0.999349 1.00367 0.992179
0.999749 1.00412 0.990952
0.999777 1.00423 0.990961
0.999377 1.00385 0.991947
0.999956 1.00358 0.991532
0.997993 1.00425 0.993558
1.00166 0.999364 0.992235
1.00033 1.00248 0.991764
1.00075 1.00299 0.990235
1.00255 1.00381 0.986655
1.00007 1.00459 0.990545
1.00034 1.00404 0.989765
0.99977 1.00458 0.990575
0.999626 1.00448 0.990708
0.999915 1.00442 0.990629
0.999901 1.00403 0.990978
0.999983 1.00302 0.991772
1.00008 1.00356 0.991245
1.0001 1.00259 0.992076
1.0002 1.001 0.993413
1.00018 1.00244 0.992105
1.00019 1.00102 0.993468
1.00016 0.998551 0.996532
1.0001 1.0011 0.993516
1.00013 0.99855 0.996265
1.00005 0.996988 0.99788
1.00009 0.99854 0.996036
1.00003 0.996935 0.998539
1.00001 0.996959 0.999133
1.00016 1.00215 0.992412
1.00005 1.00023 0.994503
1.00009 1.00168 0.993004
1.0001 0.997877 0.996718
0.999993 1.00008 0.994705
1.00006 1.00149 0.993232
1.00003 0.996515 0.999285
1.0001 0.997812 0.996782
1 0.999967 0.994801
1.00011 0.997783 0.996779
1.00001 0.996557 0.999288
0.999979 0.99659 0.999285
0.994674 0.994813 0.861152
0.999859 0.995273 0.897924
0.994826 0.995388 0.86846
0.994707 0.995283 0.85357
0.995893 0.995627 0.971669
1.00343 0.995955 0.988879
1.00006 0.995844 0.944911
0.999822 0.996506 0.903899
0.994776 0.995957 0.836175
0.998243 0.995584 0.977321
1.00151 0.996807 0.936417
0.998198 0.999032 0.898262
0.994807 0.995438 0.848727
0.995481 0.995562 0.971754
0.997592 0.99859 0.937761
0.995343 0.999743 0.886819
0.994811 0.994806 0.851359
1.00012 1.00411 0.990829
1.00003 1.00311 0.99163
0.999899 1.00227 0.992692
0.999728 1.00297 0.992311
1.00043 1.00397 0.990048
0.999977 1.00347 0.991395
1.00002 1.00302 0.991692
1.00054 1.00303 0.991001
1.00032 1.00322 0.99117
1.00009 1.00257 0.991977
1.00312 0.994833 0.992561
1.00463 0.995454 0.990492
1.00464 0.995378 0.990461
1.00113 0.999024 0.992988
1.00003 1.0048 0.990898
0.999494 1.00444 0.991168
0.999828 1.00476 0.99017
0.99995 1.00489 0.989964
1.00044 0.996236 0.992769
0.999859 1.00492 0.990121
0.999562 1.00508 0.991047
1.00292 0.996014 0.993812
1.00091 1.00034 0.992867
0.998125 0.997 0.993386
0.998139 0.999336 0.999436
0.998601 1.00352 0.993068
1 1.00468 0.990131
0.999255 1.00497 0.991198
0.99484 0.995727 0.883171
0.994741 0.995618 0.870664
0.99982 0.994856 0.893162
0.999122 1.0031 0.992551
0.999144 1.0018 0.993584
0.998901 1.00135 0.994498
0.994679 0.994825 0.863129
0.997378 0.998485 0.938714
0.994851 0.996954 0.966004
0.99577 0.997723 0.995475
0.994831 0.999837 0.905596
0.994809 0.995237 0.869678
0.994804 0.994806 0.864358
0.997527 1.00321 0.996181
0.994801 0.995104 0.88145
0.994767 0.994776 0.871726
0.995634 1.00223 0.998678
0.994852 0.998974 0.974926
0.995891 0.999705 0.938421
0.994874 0.994817 0.862256
0.994877 0.999901 0.895014
0.995547 1.00491 0.998445
0.994734 0.994804 0.887916
0.994837 0.994781 0.875007
0.994806 0.994799 0.852061
0.995059 0.999998 0.992051
0.99495 0.999422 0.951994
0.995017 0.999425 0.897247
0.999024 1.00411 0.993656
0.997575 1.00505 0.994283
0.995152 1.00512 0.998388
1.00044 1.00417 0.989902
0.999727 1.00442 0.990755
0.996939 1.00493 0.995172
1.00015 1.00415 0.99035
0.997535 1.00477 0.994442
0.99536 1.00529 0.997145
0.995144 1.00525 0.998208
0.997535 1.00464 0.994201
0.999755 1.0041 0.991065
0.999828 1.0042 0.990983
0.999431 1.00406 0.992015
0.998309 1.00435 0.993415
0.999809 1.00357 0.99148
0.99952 1.00261 0.993118
1.00067 0.999867 0.993508
1.00155 1.00155 0.989628
1.00034 1.00233 0.991909
1.00127 1.00297 0.989865
1.00333 1.00264 0.986238
1.00346 1.00279 0.985854
1.00062 1.00455 0.989349
1.00218 1.00368 0.986814
0.999917 1.00485 0.990212
0.999921 1.00464 0.990516
1.0001 1.00417 0.990203
0.999952 1.00449 0.990573
0.999695 1.00438 0.99077
1.00001 1.0034 0.991364
1 1.00389 0.990982
1.00005 1.00296 0.991776
1.00019 1.00123 0.993207
1.00014 1.00257 0.99207
1.00022 1.001 0.993406
1.00014 0.99855 0.996529
1.00019 1.001 0.993475
1.00016 0.998532 0.996221
1.00003 0.997063 0.997862
1.00015 0.998508 0.995966
1.00003 0.99699 0.998501
1.00001 0.996963 0.999121
1.00034 1.0023 0.991773
1.0001 1.00055 0.993861
1.0002 1.00212 0.99241
1.00012 0.997969 0.996582
1.00004 1.00024 0.994358
1.0001 1.00167 0.992829
1.00003 0.99657 0.999266
1.0001 0.997862 0.996723
0.999996 1.00005 0.994707
1.00002 0.99653 0.999286
1.00009 0.997815 0.996782
1 0.996551 0.999288
0.994836 0.994811 0.877037
0.994685 0.995159 0.868893
0.999844 0.99527 0.898354
1.00067 1.00308 0.990624
0.994754 0.994808 0.878055
0.994805 0.995153 0.868332
0.994735 0.994983 0.860453
0.998503 0.99591 0.976141
0.99967 0.997249 0.946901
0.997864 0.998347 0.885987
0.994782 0.995449 0.852647
0.996595 0.995125 0.968233
0.997429 0.999082 0.947075
0.996478 0.999901 0.890897
0.994806 0.994814 0.85518
0.994885 0.99534 0.963869
0.995187 0.999786 0.94662
0.994861 0.999982 0.89626
0.994887 0.994829 0.862965
1.00011 1.00462 0.990052
1.0001 1.00413 0.990631
1.00008 1.00298 0.991762
1.00048 1.00375 0.990249
1.00032 1.00404 0.990266
0.999999 1.00343 0.991539
1.00058 1.00304 0.991013
1.00032 1.00324 0.991248
0.999901 0.997024 0.992979
1.00312 0.995618 0.99384
1.00013 1.00502 0.989723
1.00141 0.999855 0.992705
0.999831 1.00508 0.991025
1.00001 1.00501 0.990008
0.999886 1.00471 0.990107
0.997324 0.997303 0.994054
0.999489 1.00474 0.991329
0.999177 1.00329 0.993149
0.998008 0.99904 0.999503
0.999993 1.00469 0.990414
0.996019 0.999696 0.99169
0.99509 1.00316 1.00054
0.997514 1.00506 0.993544
0.999533 1.00446 0.991535
0.994755 0.994775 0.893332
0.994849 0.99561 0.882566
0.994734 0.995559 0.867755
0.997483 1.00319 0.996577
0.995437 1.00193 0.997642
0.994805 0.994818 0.884098
0.994893 0.999969 0.948637
0.994865 0.998602 0.972187
0.994826 0.999955 0.894467
0.994787 0.994774 0.871811
0.994858 0.994819 0.861247
0.995838 1.00474 0.998087
0.994759 0.99481 0.887711
0.994825 0.99478 0.878364
0.994889 1.00075 0.995484
0.994802 0.99481 0.855656
0.994923 0.99865 0.945963
0.994989 0.9996 0.901329
0.994962 1.0041 0.998353
0.994775 0.994816 0.891865
0.994735 0.994803 0.878617
0.994785 0.995297 0.854664
0.995471 0.999986 0.895987
0.994895 1.00009 0.980695
0.995003 0.999675 0.938666
0.998294 1.00502 0.993398
0.99552 1.00513 0.997931
0.994919 1.00511 0.999349
0.999983 1.00421 0.990359
0.997579 1.00475 0.994465
0.995819 1.00526 0.997018
0.997727 1.00457 0.994108
0.995233 1.00477 0.998209
0.997602 1.003 0.996742
0.998622 1.0044 0.993265
0.999567 1.00362 0.991429
0.999546 1.00276 0.993323
0.999129 1.00338 0.991805
0.999679 1.00034 0.994755
1.00148 1.00129 0.99029
1.00355 1.00263 0.985704
1.00476 1.00177 0.98449
1.0018 1.00295 0.989487
1.00367 1.00275 0.985477
1.00469 1.00162 0.985776
1.00175 1.0038 0.987472
1.00339 1.0028 0.986046
0.999986 1.00505 0.989609
1.00065 1.00457 0.989289
1.00181 1.00357 0.986975
0.999998 1.00396 0.990729
0.99976 1.00485 0.990319
0.999801 1.00467 0.990485
0.999775 1.0043 0.990832
1.00007 1.00334 0.991369
1.00021 1.00159 0.992803
1.00012 1.00291 0.991781
1.0002 1.00124 0.993198
1.0001 0.998683 0.995881
1.00024 1.00103 0.9934
1.00016 0.998548 0.995913
0.999918 0.997111 0.999098
1.00017 0.998522 0.995915
1.00001 0.997065 0.998476
1 0.997016 0.9991
1.00036 1.0025 0.991497
1.00021 1.00088 0.993344
1.0003 1.00235 0.991885
1.00015 0.998126 0.996383
1.00013 1.00055 0.993798
1.00019 1.00214 0.992407
1.00004 0.996621 0.999235
1.00012 0.997952 0.996594
1.00005 1.00025 0.994215
1.00004 0.996542 0.999273
1.0001 0.997846 0.996729
1.00002 0.996548 0.999288
0.99477 0.994809 0.889896
0.994827 0.995226 0.876966
0.994681 0.995603 0.869066
1.00058 1.00312 0.990735
1.00053 1.00331 0.99049
1.00065 1.00336 0.990522
0.994851 0.994778 0.874432
0.994767 0.994785 0.878144
0.994784 0.995219 0.868206
0.996529 0.99487 0.970354
0.998082 0.998761 0.936444
0.995066 0.99993 0.904542
0.994829 0.994833 0.850998
0.994905 0.995919 0.967386
0.995778 0.999953 0.943061
0.994818 0.999738 0.895215
0.994878 0.994822 0.86183
0.994917 0.996144 0.963286
0.994878 0.999414 0.948495
0.99512 0.999768 0.89695
0.994837 0.994808 0.855902
1.00034 1.00402 0.990138
1.00023 1.00452 0.989895
1.00026 1.00402 0.990432
1.00056 1.00362 0.990217
1.00014 1.00413 0.990488
1.00059 1.00307 0.991026
0.996736 0.997477 0.994718
0.997587 0.998692 0.999612
1.00001 1.00445 0.990082
0.999744 1.00258 0.993226
0.999527 1.00469 0.991459
0.999863 1.0046 0.990341
0.999169 1.00452 0.991693
0.995683 0.999699 0.991853
0.997605 1.00513 0.99418
0.995389 1.00267 0.999681
0.999393 1.00388 0.992167
0.995462 1.00008 0.99016
0.995915 1.00321 0.997115
0.997742 1.00508 0.994366
0.994759 0.99477 0.896451
0.994746 0.994776 0.894043
0.994854 0.995444 0.881953
0.995989 1.0046 0.997704
0.994849 1.00086 0.992169
0.994761 0.994817 0.887513
0.994849 0.999238 0.9471
0.994998 0.99942 0.889284
0.994814 0.994774 0.881706
0.994835 0.994836 0.851653
0.995097 1.00392 0.998857
0.994768 0.994815 0.89324
0.994777 0.994796 0.878715
0.994914 0.999677 0.977572
0.994789 0.995651 0.849214
0.994874 0.999975 0.894571
0.994924 0.999634 0.949746
0.995092 1.0049 0.993924
0.994771 0.994804 0.890187
0.99486 0.995557 0.869047
0.994657 0.995851 0.859382
0.995705 0.998961 0.886641
0.995542 0.999945 0.94701
0.994929 1.00052 0.971525
0.995992 1.00519 0.997481
0.995222 1.00435 0.999264
0.997012 1.00291 0.997912
0.997881 1.00459 0.994018
0.995468 1.00432 0.998214
0.996501 1.00416 0.996945
0.999477 0.999207 0.997369
0.999598 1.00291 0.993526
1.00079 1.00266 0.991394
1.00219 1.0036 0.987405
1.00137 1.00106 0.990981
1.00353 1.00266 0.985859
1.0042 1.00395 0.983314
1.00482 1.0019 0.984094
1.00477 1.0014 0.984916
1.00474 1.00195 0.98432
1.00408 1.0028 0.984715
1.00419 1.00195 0.986306
1.00439 1.00148 0.985949
1.00093 1.00445 0.988141
1.00187 1.00385 0.987653
1.00335 1.00281 0.986239
1.00001 1.00471 0.989708
1.00018 1.00504 0.989583
1.00063 1.00462 0.989229
1.00021 1.0022 0.992249
1.00013 1.00391 0.99073
0.999619 1.00485 0.990426
1.00013 1.00326 0.991375
1.00024 1.0016 0.992795
1.00003 0.998926 0.99576
1.00023 1.00123 0.993188
1.00011 0.998689 0.99587
0.999874 0.99725 0.999085
1.00017 0.998549 0.995909
0.999956 0.997138 0.998476
0.999975 0.997092 0.99909
1.00038 1.00287 0.991308
1.0003 1.00111 0.993151
1.00041 1.00248 0.991564
1.00018 0.99832 0.996124
1.00021 1.00088 0.993429
1.00031 1.00236 0.991998
1.00004 0.996732 0.99919
1.00015 0.998097 0.9964
1.00015 1.00054 0.993734
1.00004 0.996618 0.999245
1.00012 0.997938 0.996606
1.00004 0.996546 0.999279
0.994779 0.994821 0.8915
0.99477 0.994817 0.889696
0.994817 0.995525 0.877004
1.00039 1.00393 0.990061
1.00076 1.00399 0.989695
1.0005 1.00318 0.990849
1.00047 1.00347 0.990444
1.00046 1.00347 0.990525
1.00033 1.0038 0.990374
1.00042 1.00354 0.990516
0.994801 0.994766 0.871053
0.994842 0.994782 0.877851
0.994778 0.994773 0.878244
0.99487 0.99482 0.860742
0.994904 0.995979 0.964303
0.995057 0.999959 0.939581
0.994875 0.999295 0.904183
0.994995 0.996653 0.962306
0.994881 0.999764 0.93865
0.994963 0.999509 0.901508
0.994816 0.994793 0.864092
0.995686 0.996345 0.966092
0.994917 0.999875 0.939019
0.994959 0.999479 0.887965
0.994812 0.995411 0.853108
0.99942 1.00492 0.991056
1.00019 1.00424 0.990186
1.00029 1.00464 0.989738
1.00066 1.00357 0.990186
0.995385 1.00012 0.992191
0.995397 1.00339 0.998781
0.999771 1.00496 0.99027
0.999124 1.00445 0.99185
0.997924 1.00512 0.994805
0.999375 1.00395 0.992081
0.99753 1.00507 0.994355
0.995444 1.00148 0.987246
0.995158 1.0044 0.997682
0.997231 1.0045 0.995407
0.99478 1.00015 0.987333
0.996733 1.00402 0.997749
0.994748 0.994779 0.893457
0.994771 0.99477 0.899252
0.994741 0.994767 0.894749
0.994973 1.00376 0.999301
0.994933 0.99848 0.981436
0.994765 0.99481 0.894659
0.995702 0.99912 0.939369
0.99489 0.999573 0.903618
0.994817 0.994765 0.878817
0.99475 0.995627 0.853131
0.994905 1.00406 0.99464
0.994768 0.994804 0.890004
0.994802 0.995392 0.868937
0.994942 1.00063 0.972115
0.994701 0.995656 0.8484
0.996526 0.999912 0.890414
0.994885 0.999877 0.93811
0.995519 1.00477 0.988424
0.994826 0.994806 0.877714
0.994659 0.995469 0.856681
0.998394 0.997336 0.898416
0.994957 0.999934 0.946667
0.995002 1.00001 0.964938
0.99524 1.00376 0.999439
0.996157 1.0037 0.997961
0.997038 1.00032 0.999509
0.99546 1.00515 0.997136
0.998157 0.999874 0.997613
1.00236 0.998816 0.992883
1.00247 1.00184 0.990983
1.00266 1.00334 0.987326
1.00317 1.00422 0.984317
1.00344 1.0027 0.986016
1.00446 1.00391 0.983017
1.00427 1.00446 0.982642
1.00496 1.00113 0.984758
1.00502 1.00125 0.984597
1.00477 1.00208 0.984061
1.00472 1.0012 0.985302
1.00475 1.00129 0.985066
1.00469 1.00219 0.984149
1.00314 1.00333 0.986225
1.0039 1.00191 0.986265
1.00407 1.00132 0.986119
1.00061 1.00498 0.988497
1.00096 1.00453 0.988384
1.00201 1.00386 0.987839
1.00012 1.00314 0.991322
1.00022 1.00468 0.989729
1.00035 1.00502 0.989557
0.999954 0.999237 0.995577
1.00025 1.00215 0.992234
1.00024 1.00386 0.990731
1.00026 1.0016 0.992788
1.00003 0.998957 0.995742
0.999801 0.997442 0.999065
1.00012 0.99869 0.995859
0.999869 0.997281 0.999081
0.999926 0.997158 0.99909
1.00033 1.00431 0.989927
1.00052 1.00317 0.990828
1.00034 1.00151 0.992703
1.00041 1.00284 0.991298
1.00018 0.998586 0.995844
1.00029 1.00114 0.993149
1.00036 1.00254 0.99163
1.00003 0.996878 0.999129
1.00017 0.998315 0.996141
1.0002 1.00089 0.993512
1.00004 0.996707 0.999204
1.00015 0.998079 0.996417
1.00004 0.996587 0.999255
0.994739 0.994797 0.887495
0.994766 0.994816 0.892919
0.994774 0.994828 0.889475
1.00046 1.00397 0.990082
1.00057 1.00403 0.989759
1.00026 1.00343 0.990356
1.00019 1.00435 0.989866
1.00067 1.00426 0.989967
1.00048 1.00355 0.990397
1.00038 1.00359 0.990527
1.00041 1.00375 0.990382
1.00046 1.00364 0.990563
0.999965 1.00453 0.990536
0.994815 0.995302 0.869722
0.994779 0.994773 0.871268
0.994828 0.99478 0.881236
0.994812 0.994798 0.864385
0.995101 0.999763 0.889192
0.995045 0.997712 0.960735
0.994896 0.999811 0.948296
0.99529 0.996366 0.962901
0.994916 0.998858 0.949097
0.994851 0.999924 0.89626
0.99481 0.995336 0.851394
0.994828 0.995676 0.967623
0.994891 0.999982 0.948915
0.995108 0.999829 0.903617
0.994737 0.9956 0.858154
0.998498 1.004 0.99315
0.999512 1.00477 0.990984
1.00019 1.00423 0.990236
0.995357 1.0018 0.984129
0.995086 1.00455 0.998251
0.999297 1.00388 0.991996
0.9969 1.00516 0.994353
0.997268 1.0041 0.995406
0.996059 1.00363 0.997869
0.994967 0.999981 0.987083
0.995884 1.00203 0.99901
0.995914 0.999714 0.989776
0.994836 0.995424 0.882671
0.994746 0.994779 0.89414
0.994778 0.994782 0.902057
0.994932 1.00287 0.994965
0.994951 1.00062 0.968942
0.994769 0.994821 0.889791
0.995559 0.99996 0.946329
0.994854 0.999926 0.90387
0.994743 0.995601 0.868852
0.994761 0.99599 0.837108
0.995517 1.00467 0.989037
0.994819 0.994999 0.877645
0.99469 0.995545 0.854425
0.994946 0.99999 0.965912
0.99827 0.998745 0.898863
0.995801 0.999919 0.941932
0.994988 1.00474 0.986434
0.994675 0.994816 0.862112
0.999779 0.996717 0.904273
0.997439 0.998336 0.937845
0.994836 0.997381 0.968049
0.995542 1.0045 0.997998
0.996765 1.00065 0.999454
1 1.00264 0.994092
0.996831 1.00067 0.997808
1.00121 0.999288 0.993244
1.00356 0.999413 0.989016
1.00307 1.00304 0.987243
1.00321 1.00417 0.984291
1.00424 1.00186 0.984708
1.00474 1.00393 0.982722
1.00429 1.00407 0.982748
1.00476 1.00105 0.98513
1.00516 0.998923 0.986437
1.0051 1.00048 0.985026
1.00491 1.00103 0.984846
1.00509 1.00141 0.984516
1.00502 1.00129 0.984565
1.00473 1.00221 0.984027
1.00447 1.00193 0.985248
1.00452 1.00122 0.985446
1.00474 1.0012 0.985218
1.00197 1.00412 0.987174
1.00291 1.00332 0.986397
1.00359 1.00189 0.986224
1.00014 1.00444 0.9898
1.00077 1.00499 0.988504
1.00103 1.00461 0.988626
0.999892 0.99984 0.995768
1.00024 1.0031 0.991301
1.00043 1.00467 0.989751
0.999738 0.997705 0.997689
0.99995 0.99935 0.995816
1.00029 1.0021 0.992218
1.00003 0.998989 0.995724
0.999798 0.997474 0.999054
0.999862 0.997294 0.999076
1.00021 1.00459 0.989912
1.00043 1.00379 0.990368
1.00028 1.00436 0.989886
1.00037 1.00191 0.992251
1.0004 1.00335 0.990823
1.00016 0.998908 0.995567
1.00034 1.00149 0.992708
1.00049 1.00275 0.991286
1.00001 0.997082 0.999064
1.00018 0.998566 0.99586
1.00028 1.00115 0.993147
1.00003 0.996866 0.999148
1.00016 0.9983 0.996159
1.00004 0.996691 0.999218
0.994814 0.994824 0.884971
0.994767 0.994805 0.887297
0.994762 0.994811 0.894368
1.00052 1.00304 0.990618
1.00036 1.00417 0.990103
1.00048 1.00399 0.989823
1.00038 1.00441 0.989808
1.00062 1.00327 0.990395
1.00047 1.00402 0.990359
1.00118 1.00359 0.989243
0.999545 1.00482 0.990265
1.00046 1.00368 0.990391
1.00017 1.0037 0.990609
0.999832 1.00444 0.990516
0.999075 1.00511 0.991815
0.994707 0.995667 0.858248
0.994841 0.995277 0.869378
0.994794 0.994777 0.871431
0.994794 0.995121 0.859096
0.994832 0.999938 0.896024
0.995073 0.99955 0.939044
0.995063 0.99613 0.962137
0.994891 0.995748 0.968923
0.994757 0.995854 0.847391
0.994884 0.999354 0.943201
0.996627 0.999931 0.891031
0.994872 0.996129 0.970359
0.994905 0.999948 0.949314
0.998817 0.998462 0.894612
0.999057 1.00151 0.995334
0.998617 1.00409 0.993119
0.999427 1.00467 0.990911
0.994976 1.00026 0.987213
0.995445 1.0033 0.99798
0.997303 1.00373 0.995409
0.996966 1.00191 0.998892
0.995357 0.999455 0.989893
0.996939 0.998529 0.993107
0.994753 0.995861 0.868128
0.994833 0.995131 0.885632
0.994746 0.994766 0.894815
0.995368 1.0046 0.989353
0.994854 0.999984 0.965971
0.994809 0.995189 0.877691
0.994854 0.999948 0.938904
0.998253 0.997323 0.886787
0.99473 0.995285 0.861258
0.994929 1.0046 0.986468
0.994688 0.994995 0.869752
0.999812 0.995673 0.892478
0.994894 0.996895 0.964088
0.997438 0.998805 0.947157
0.995593 1.00321 0.991019
0.999818 0.995198 0.890767
1 0.996604 0.948396
0.994876 0.995066 0.963417
0.996428 1.00073 0.999495
0.999436 1.00165 0.994065
1.00257 1.00247 0.989059
1.00015 0.999805 0.993608
1.00297 1.00008 0.988931
1.00444 0.998664 0.987966
1.00325 1.00412 0.984264
1.00416 1.00193 0.984688
1.00497 0.997579 0.987531
1.00431 1.00364 0.982853
1.00467 1.00084 0.985173
1.00514 0.997184 0.988084
1.00514 0.997118 0.988407
1.00517 0.99917 0.986225
1.00515 0.9988 0.986583
1.00514 1.00053 0.984969
1.0051 1.00048 0.985123
1.00488 1.00093 0.984934
1.00511 1.00122 0.984755
1.00498 1.00134 0.984637
1.00502 1.0013 0.984531
1.00362 1.00253 0.986
1.00439 1.00194 0.98524
1.00438 1.00121 0.985588
1.00086 1.00489 0.988293
1.00209 1.00414 0.987148
1.00263 1.00328 0.986571
0.999796 1.00082 0.994171
1.00043 1.00423 0.989802
1.00097 1.00499 0.988508
0.999647 0.998061 0.998927
0.999882 0.999948 0.994996
1.00035 1.00304 0.991281
0.999744 0.99769 0.999015
0.999924 0.999435 0.99547
0.999798 0.997524 0.999044
1.00084 1.00386 0.989617
1.00026 1.00456 0.989825
1.00043 1.00431 0.98986
1.00029 1.0025 0.991813
1.00039 1.00381 0.990361
1.00033 1.00428 0.989845
1.00014 0.999233 0.995284
1.00034 1.00195 0.992258
1.0003 1.00348 0.990819
0.99998 0.997304 0.998995
1.00017 0.998862 0.995581
1.00035 1.00148 0.992714
1.00001 0.997042 0.999084
1.00018 0.998548 0.995876
1.00003 0.996828 0.999167
0.994719 0.995263 0.857141
0.994821 0.994816 0.884956
0.994769 0.994814 0.887105
1.00037 1.00331 0.990559
1.00191 1.00306 0.98969
1.00061 1.00355 0.990166
1.00042 1.00453 0.989749
1.00098 1.00312 0.990433
1.00006 1.00363 0.99075
0.999843 1.00478 0.990148
1.00086 1.00382 0.989427
1.00059 1.00457 0.989336
0.999847 1.00072 0.99402
1.0001 1.00438 0.990497
0.999195 1.00496 0.991487
0.999807 0.997101 0.886616
0.994712 0.995682 0.8524
0.994826 0.995419 0.869199
0.994775 0.996275 0.836255
0.996315 0.999164 0.903947
0.994854 0.999876 0.940312
0.995127 0.995567 0.966507
0.994866 0.996053 0.968997
0.998268 0.999227 0.897117
0.995875 0.999829 0.939331
0.994885 0.997416 0.970612
0.998228 0.998527 0.937655
1.00168 0.997592 0.995094
0.998966 1.00173 0.995243
0.998701 1.00423 0.993098
0.994867 0.999236 0.989977
0.99776 1.00181 0.998755
0.997489 0.998675 0.992741
0.998593 0.997682 0.990808
0.999846 0.994861 0.900744
0.994736 0.995502 0.867557
0.994845 0.994824 0.888494
0.994901 1.00471 0.986696
0.994864 0.996511 0.962143
0.994686 0.995154 0.869882
0.998493 0.997918 0.936972
0.999823 0.995781 0.904969
0.995418 1.00234 0.988483
0.999842 0.995146 0.898638
1.00137 0.996492 0.937198
0.994891 0.99516 0.966741
0.998073 0.997862 0.990175
1.00002 0.995239 0.949222
0.996068 0.995418 0.969437
0.998837 1.00073 0.993965
1.00231 1.00074 0.989055
1.00485 0.998428 0.988665
1.00233 1.00068 0.988854
1.00413 0.998814 0.987987
1.00493 0.996232 0.989334
1.00419 1.00197 0.984669
1.00493 0.997933 0.987448
1.00514 0.995511 0.989607
1.00461 1.00064 0.985215
1.00515 0.997204 0.988056
1.00515 0.995621 0.989774
1.00514 0.9962 0.989616
1.00515 0.996943 0.988624
1.00514 0.997763 0.987949
1.00518 0.999574 0.986043
1.00516 0.999238 0.986287
1.00515 0.998673 0.986729
1.00518 1.0008 0.984964
1.00516 1.00056 0.984939
1.0051 1.00046 0.98522
1.00467 1.00133 0.985411
1.00503 1.00125 0.984756
1.00485 1.00132 0.984759
1.00197 1.00402 0.98737
1.00362 1.00261 0.985991
1.00435 1.00196 0.985232
0.999988 1.00178 0.992798
1.001 1.00476 0.988297
1.00226 1.00406 0.987123
0.999701 0.998396 0.998759
0.999832 1.0009 0.99412
1.00067 1.00419 0.989805
0.999694 0.99807 0.998189
0.999876 1.00003 0.994988
0.999761 0.997775 0.998969
1.00139 1.00289 0.989609
1.00049 1.00404 0.989787
1.00036 1.00476 0.989346
1.00037 1.00454 0.989738
1.00032 1.00442 0.98985
1.00027 1.00305 0.991295
1.00007 0.99966 0.994993
1.00029 1.00247 0.991818
1.0003 1.0039 0.990353
0.999933 0.997537 0.998918
1.00012 0.999223 0.995297
1.0003 1.00198 0.992265
0.999981 0.997262 0.999016
1.00017 0.998831 0.995595
1.00002 0.997023 0.999103
0.999814 0.994877 0.899125
0.994702 0.995179 0.860548
0.994828 0.994805 0.884896
1.00022 1.00371 0.990499
1.00063 1.00424 0.989425
1.00144 1.00309 0.989971
1.00311 1.00341 0.986191
1.00056 1.00413 0.989856
1.00001 1.00485 0.990035
1.00068 1.0041 0.989613
1.0003 1.00457 0.989592
1.00135 1.00302 0.988539
1.00154 0.99973 0.992708
1.0042 0.996267 0.990901
1.00024 1.0002 0.994059
0.999738 1.00415 0.991156
0.998637 0.997016 0.947729
0.999793 0.997153 0.891676
0.994712 0.995586 0.855105
0.998784 0.99947 0.884495
0.995281 0.99995 0.946736
0.99483 0.995894 0.969935
0.994876 0.997331 0.972256
0.997417 0.998845 0.948776
0.995858 0.996901 0.971803
1.00177 0.995958 0.995533
1.001 0.9983 0.995146
0.99889 1.00205 0.995147
0.998222 0.998215 0.992477
0.998982 0.99758 0.990877
0.999979 0.994995 0.942269
0.999838 0.99489 0.904795
0.994705 0.995171 0.867094
0.994935 1.00181 0.985873
0.994979 0.994888 0.963707
0.999833 0.995251 0.899112
1.00028 0.996639 0.947121
0.997107 0.99886 0.990632
1.001 0.995497 0.947147
0.996631 0.994977 0.966573
1.00137 0.996209 0.989442
0.998981 0.995235 0.975819
1.00219 0.99881 0.989145
1.00477 0.99714 0.988625
1.00499 0.995918 0.990326
1.0038 0.998987 0.988006
1.00473 0.996407 0.989253
1.00518 0.994942 0.990215
1.0048 0.998347 0.987366
1.00514 0.995611 0.989552
1.00512 0.994959 0.99044
1.00515 0.997212 0.988028
1.00515 0.995671 0.989728
1.00516 0.995249 0.990311
1.00513 0.995975 0.989736
1.00513 0.996652 0.989161
1.00516 0.996769 0.988841
1.00514 0.997772 0.987928
1.00518 0.998584 0.987082
1.0052 1.00014 0.985594
1.00518 0.999621 0.986022
1.00516 0.999305 0.98635
1.00505 1.00073 0.985277
1.00515 1.00084 0.984902
1.00517 1.00058 0.984909
1.00311 1.00245 0.986898
1.00457 1.00145 0.985418
1.00492 1.0013 0.984756
1.00051 1.00213 0.991596
1.00198 1.00399 0.98737
1.00349 1.00281 0.98598
0.999834 0.999049 0.998419
1.00008 1.00182 0.992774
1.0012 1.00455 0.9883
0.999773 0.99855 0.998654
0.999884 1.00101 0.994068
0.999766 0.998115 0.998832
1.00308 1.00296 0.986339
1.00149 1.00274 0.989554
1.00058 1.00442 0.989059
1.00017 1.00412 0.989958
1.0003 1.00478 0.989357
1.00032 1.00364 0.990618
1.00022 1.00451 0.98984
1.00024 1.00306 0.991305
1 1.00009 0.994677
0.999865 0.997856 0.998837
1.00006 0.999617 0.995006
1.00028 1.00244 0.991822
0.999935 0.99752 0.998944
1.00011 0.999206 0.995309
0.999986 0.997217 0.999038
1.00004 0.995082 0.951688
0.999863 0.994879 0.898076
0.994697 0.99507 0.856661
1.00065 1.00479 0.988685
1.00108 1.00287 0.990256
1.00093 1.00391 0.989622
1.003 1.00347 0.98644
1.00426 1.00254 0.984367
1.00156 1.00348 0.98793
1.00003 1.00454 0.989844
1.00214 1.00282 0.987733
1.00137 0.999636 0.992763
1.00315 0.999482 0.98904
1.00479 0.995571 0.991016
1.00399 0.996113 0.991487
1.00374 0.996321 0.991328
1.00002 1.00026 0.994099
0.995992 0.995695 0.970905
0.999938 0.996887 0.944465
0.998164 0.996964 0.903641
0.997424 0.999299 0.937662
0.994864 0.997681 0.972723
0.995647 0.997205 0.976845
0.999553 0.997458 0.992184
1.00217 0.995664 0.995353
1.00053 0.99895 0.995201
1.00013 0.998293 0.990948
0.996514 0.997273 0.971799
1.00012 0.995016 0.952727
0.999822 0.99488 0.892974
0.996276 0.9995 0.99091
0.996799 0.994872 0.968353
1.00004 0.996195 0.944892
1.00078 0.996206 0.989544
0.998423 0.995644 0.975234
1.0036 0.995436 0.990516
1.00274 0.998143 0.986699
1.00464 0.996027 0.98855
1.00484 0.99569 0.990363
1.00517 0.994876 0.990627
1.0046 0.996576 0.989173
1.00518 0.994944 0.990174
1.00515 0.994942 0.990497
1.00514 0.995674 0.989496
1.00511 0.995028 0.990406
1.00518 0.995002 0.990498
1.00515 0.99573 0.989682
1.00515 0.995271 0.990251
1.00514 0.995688 0.989886
1.00513 0.995756 0.989854
1.00513 0.996507 0.989292
1.00516 0.997832 0.987993
1.00515 0.997781 0.987907
1.00519 0.998642 0.987055
1.00521 0.999528 0.986281
1.00518 1.00034 0.98541
1.00521 1.00021 0.985514
1.00519 0.999668 0.986001
1.00397 1.00111 0.986744
1.00501 1.00077 0.985291
1.00511 1.00087 0.98484
1.00099 1.00202 0.990886
1.00307 1.00254 0.986904
1.0045 1.00156 0.985424
1.00009 0.99963 0.997981
1.00063 1.00204 0.991584
1.002 1.00392 0.987369
0.999969 0.99917 0.998249
1.00016 1.00183 0.992752
0.99988 0.998636 0.998521
1.00434 1.00238 0.984743
1.00338 1.0029 0.986375
1.00212 1.00398 0.987032
1.00147 1.00272 0.989499
1.00074 1.00433 0.988918
1.00071 1.00395 0.989685
1.00022 1.00479 0.989369
1.0003 1.00364 0.990618
0.999946 1.0006 0.994275
1.00021 1.00305 0.991315
0.999989 1.00005 0.994696
0.999793 0.998186 0.998747
0.99987 0.997795 0.998865
1.00006 0.999584 0.99502
0.999933 0.997467 0.998967
0.996848 0.994854 0.972411
1.00002 0.995467 0.941406
0.999843 0.995042 0.906646
1.00514 1.00077 0.984689
1.00133 1.00381 0.989388
1.00289 1.00355 0.986691
1.00204 1.00332 0.987753
1.00435 1.00275 0.984335
1.00389 1.0007 0.986907
1.00288 1.00279 0.986927
1.00114 0.999557 0.992823
1.00353 0.99941 0.988874
1.00483 0.995652 0.9904
1.00481 0.996097 0.989541
1.00411 0.995514 0.99214
1.00388 0.995735 0.991493
1.00327 0.996342 0.991753
0.999822 0.996906 0.991671
0.995796 0.995475 0.969188
0.999325 0.99616 0.94172
0.995173 0.997001 0.975534
0.999695 0.996643 0.994308
1.00202 0.995125 0.995158
1.0006 0.997515 0.985808
0.996425 0.996043 0.973052
0.999977 0.994901 0.942346
0.999903 0.99673 0.989719
0.998474 0.995933 0.974208
1.00305 0.995477 0.990869
1.00284 0.997535 0.987235
1.00437 0.994854 0.991114
1.00464 0.997471 0.990623
1.00472 0.995449 0.990395
1.00517 0.994878 0.990519
1.00522 0.994866 0.990405
1.00518 0.994946 0.990133
1.00514 0.994933 0.99049
1.00521 0.994925 0.990479
1.0051 0.995102 0.990372
1.00517 0.994974 0.990484
1.00518 0.995326 0.990243
1.00514 0.995271 0.990192
1.00515 0.995701 0.989871
1.00516 0.99688 0.988851
1.00514 0.996363 0.989423
1.00516 0.997684 0.988173
1.00521 0.999011 0.986811
1.00519 0.998699 0.987028
1.0052 0.999525 0.986278
1.0052 1.00014 0.985621
1.00433 1.00045 0.986778
1.00515 1.00042 0.985378
1.00521 1.00028 0.985435
1.00152 1.00139 0.990654
1.00393 1.00118 0.986739
1.00498 1.00082 0.985305
1.00025 1.00005 0.997668
1.00118 1.00177 0.99088
1.00303 1.00258 0.986912
1.00019 0.999715 0.997851
1.00078 1.00189 0.991577
1.00009 0.999294 0.998081
1.00512 1.00128 0.984461
1.0045 1.00229 0.98473
1.00392 1.00266 0.985498
1.00371 1.00284 0.98641
1.00224 1.00399 0.986976
1.00126 1.00435 0.988425
1.00093 1.00422 0.988775
1.00051 1.0042 0.989685
0.999958 1.00121 0.993647
1.00022 1.00369 0.99062
0.999925 1.00055 0.994301
0.999742 0.998572 0.998626
0.999975 1.00001 0.994715
0.999795 0.998127 0.99878
0.999874 0.997761 0.998891
1.00103 0.994868 0.989748
0.996674 0.994871 0.969106
0.999999 0.994913 0.952044
1.00506 0.999524 0.986252
1.00518 0.999109 0.98651
1.00512 1.00065 0.984871
1.00249 1.00307 0.987573
1.00445 1.00296 0.9843
1.00404 1.00053 0.987027
1.005 0.997164 0.988193
1.00394 0.99929 0.98871
1.00485 0.99582 0.989776
1.00483 0.996316 0.989663
1.00503 0.995269 0.990195
1.00415 0.995433 0.991712
1.00379 0.995669 0.992079
1.00403 0.995438 0.991494
1.00016 0.996707 0.991799
0.995814 0.995361 0.967526
1.00001 0.9964 0.996517
1.00428 0.995465 0.991701
1.00054 0.997523 0.986002
0.996318 0.995719 0.970857
1.00287 0.994888 0.991196
1.0029 0.997309 0.987806
1.00444 0.994967 0.991534
1.00466 0.996713 0.990622
1.00526 0.994935 0.990462
1.00532 0.994971 0.990656
1.00518 0.994875 0.990412
1.00523 0.994889 0.990387
1.00522 0.994916 0.990418
1.00514 0.994929 0.990482
1.00521 0.994925 0.990484
1.00521 0.995067 0.990458
1.00517 0.994958 0.99047
1.00518 0.995309 0.990227
1.00516 0.996224 0.989488
1.00516 0.995715 0.989855
1.00516 0.996902 0.988849
1.00522 0.998476 0.987278
1.00517 0.997533 0.988352
1.0052 0.998952 0.986879
1.00522 0.999942 0.985799
1.0052 0.999522 0.986275
1.0052 1.00011 0.98566
1.00446 1.0002 0.98683
1.00179 1.00075 0.990776
1.00432 1.00049 0.986768
1.00511 1.0005 0.985345
1.00034 1.00031 0.997482
1.00157 1.00131 0.990653
1.00385 1.0013 0.986734
1.0003 1.00013 0.997583
1.00129 1.00165 0.990876
1.00027 0.999831 0.997732
1.00523 1.00013 0.985426
1.00513 1.0012 0.984551
1.00488 1.00115 0.985126
1.00462 1.00219 0.984718
1.00386 1.00263 0.985515
1.00224 1.00363 0.987357
1.0023 1.00404 0.986921
1.00101 1.00459 0.988447
1.00019 1.002 0.992541
1.00035 1.0044 0.989686
0.999917 1.00118 0.993676
0.999755 0.999055 0.998414
0.999912 1.0005 0.994328
0.999728 0.998487 0.998674
0.999797 0.998062 0.99881
1.00414 0.994843 0.992444
1.00101 0.994889 0.987925
0.996555 0.994879 0.968315
1.00512 0.998299 0.987559
1.0051 0.999104 0.986516
1.00524 0.997758 0.987764
1.0052 0.99908 0.986506
1.0051 1.00053 0.985055
1.00514 0.996174 0.989053
1.0042 1.00038 0.987147
1.00498 0.997415 0.988183
1.0052 0.994933 0.990272
1.00487 0.996491 0.989787
1.00499 0.995365 0.990076
1.00415 0.995524 0.991856
1.00326 0.995778 0.992013
1.00046 0.996371 0.991826
1.00528 0.994921 0.99048
1.00422 0.996226 0.991794
1.0006 0.99718 0.986188
1.00447 0.99514 0.991944
1.00465 0.996018 0.990625
1.00525 0.994924 0.990503
1.00532 0.994998 0.990588
1.00525 0.994951 0.990648
1.00523 0.994911 0.99037
1.00522 0.994921 0.990434
1.00518 0.994933 0.990651
1.0052 0.994922 0.990489
1.00521 0.995044 0.990431
1.00517 0.995706 0.989998
1.00518 0.995294 0.99021
1.00517 0.996249 0.989478
1.00523 0.99795 0.987813
1.00516 0.996924 0.988846
1.00522 0.998484 0.987295
1.00524 0.999736 0.986008
1.0052 0.998891 0.986946
1.00522 0.999936 0.985819
1.00451 1.00011 0.986837
1.0052 1.00007 0.985699
1.00446 1.0002 0.986829
1.00185 1.00038 0.992453
1.00056 1.00009 0.994583
1.00183 1.00072 0.991492
1.0043 1.00053 0.986759
1.00036 1.00036 0.997449
1.0017 1.00113 0.990648
1.00034 1.00023 0.997504
1.00525 0.997656 0.987968
1.00525 0.999136 0.986494
1.00524 1.00014 0.985547
1.00504 1.00056 0.985387
1.00516 1.00113 0.984639
1.00493 1.0011 0.985106
1.0034 1.0019 0.986926
1.00382 1.00256 0.985532
1.00223 1.00355 0.987356
1.00074 1.00227 0.991281
1.00082 1.00481 0.988467
1.00007 1.00204 0.992568
0.999894 0.999724 0.998002
0.99988 1.00113 0.993705
0.999701 0.99894 0.998502
0.999723 0.998412 0.998717
1.00527 0.994842 0.990482
1.00447 0.994843 0.992311
1.00117 0.994899 0.986151
1.00517 0.996726 0.988661
1.00512 0.998221 0.987402
1.00512 0.998705 0.986777
1.00522 0.997902 0.98773
1.00521 0.999044 0.986502
1.00524 0.995343 0.990119
1.00512 0.996188 0.989014
1.00496 0.997693 0.988171
1.00521 0.994912 0.990278
1.00499 0.995461 0.989957
1.00415 0.995645 0.992019
1.00524 0.994916 0.99074
1.00528 0.994921 0.990657
1.00414 0.996976 0.991892
1.00524 0.994916 0.990536
1.00533 0.994965 0.990522
1.00525 0.994949 0.990595
1.00514 0.994958 0.990913
1.00522 0.994928 0.990451
1.00518 0.994931 0.990616
1.00518 0.99533 0.990422
1.0052 0.995021 0.990403
1.00518 0.995722 0.989994
1.00522 0.997537 0.988254
1.00518 0.996276 0.989467
1.00523 0.997958 0.987824
1.00525 0.999522 0.986234
1.00522 0.998491 0.987313
1.00524 0.999727 0.986026
1.00454 1.0001 0.986804
1.00522 0.99993 0.985839
1.00452 1.0001 0.986842
1.00196 1.0001 0.992565
1.00446 1.00021 0.986827
1.00201 1.00028 0.992369
1.00056 0.999987 0.994743
1.00035 1.00035 0.996049
1.002 1.00066 0.992072
1.00035 1.00043 0.997429
1.00518 0.996972 0.988781
1.00525 0.998749 0.98683
1.00524 0.997462 0.988169
1.00517 1.00007 0.98569
1.00525 0.999214 0.986453
1.00525 1.00015 0.985668
1.0051 1.00053 0.985351
1.00409 1.00083 0.986819
1.00499 1.00106 0.985085
1.00351 1.00174 0.986914
1.0013 1.00181 0.990644
1.00219 1.00353 0.987356
1.00056 1.00245 0.99129
1.00005 1.00046 0.997589
0.999905 1.00212 0.992594
0.999766 0.999606 0.998174
0.999674 0.998823 0.998577
1.00524 0.994886 0.990546
1.00526 0.994844 0.990466
1.00474 0.994854 0.992149
1.00519 0.995858 0.98973
1.00516 0.996818 0.988641
1.00512 0.998148 0.98725
1.00521 0.998048 0.987697
1.00523 0.995341 0.990072
1.00509 0.996213 0.988975
1.00519 0.994908 0.990285
1.00517 0.994926 0.990916
1.00523 0.994918 0.990733
1.00527 0.994924 0.990832
1.00511 0.994958 0.991021
1.00525 0.994944 0.990543
1.00515 0.994955 0.990896
1.00519 0.995173 0.990687
1.00519 0.994928 0.99058
1.00517 0.995352 0.990425
1.00522 0.997305 0.988525
1.00519 0.995742 0.989989
1.00522 0.997547 0.988262
1.00525 0.999293 0.986491
1.00523 0.997968 0.987835
1.00525 0.999511 0.986251
1.00457 1.00007 0.986789
1.00524 0.999717 0.986045
1.00455 1.00008 0.986815
1.00203 1.00005 0.992511
1.00453 1.00009 0.986847
1.0021 1.00004 0.992454
1.00061 0.999886 0.994778
1.00217 1.00018 0.992293
1.00024 1.00015 0.994946
0.999888 1.00065 0.997786
1.00517 0.996898 0.988792
1.00522 0.998162 0.987562
1.0052 0.997037 0.988635
1.00526 0.999705 0.98611
1.00526 0.998534 0.987022
1.00523 0.997275 0.988369
1.00443 1.00024 0.986822
1.0052 1.00005 0.985657
1.00526 0.999292 0.986411
1.00517 1.00051 0.985315
1.00412 1.00075 0.986825
1.0016 1.00123 0.990672
1.00359 1.00157 0.986902
1.00118 1.00197 0.990651
1.00009 1.00088 0.997425
1.00042 1.00257 0.991303
0.99995 1.00029 0.997737
0.999674 0.999418 0.998321
1.00516 0.995251 0.990518
1.00524 0.994885 0.990543
1.00526 0.994842 0.99045
1.00518 0.995747 0.989858
1.00514 0.996901 0.988621
1.00522 0.995329 0.990025
1.00516 0.994926 0.990983
1.00517 0.994934 0.990925
1.00523 0.99492 0.990726
1.00511 0.994958 0.991053
1.00519 0.995385 0.99052
1.00515 0.994952 0.99088
1.00517 0.995347 0.990525
1.00524 0.996845 0.989023
1.00515 0.99537 0.990428
1.00522 0.997281 0.988529
1.00524 0.999046 0.986753
1.00521 0.997546 0.98827
1.00525 0.999279 0.986499
1.00458 0.999997 0.986834
1.00525 0.999499 0.986268
1.00457 1.00007 0.986802
1.00206 1.00012 0.992363
1.00456 1.00007 0.986826
1.00216 1 0.992381
1.00068 0.99989 0.994685
1.00222 0.999994 0.992352
1.00034 0.999937 0.995004
0.999944 1.00033 0.995133
1.00519 0.996269 0.989548
1.00523 0.997947 0.987773
1.00518 0.996711 0.988954
1.00526 0.999239 0.986608
1.00522 0.99826 0.98745
1.00521 0.9971 0.988489
1.00457 0.999919 0.986908
1.00526 0.99956 0.986144
1.00526 0.99832 0.987214
1.00179 1.00062 0.990924
1.00443 1.00022 0.986824
1.00522 1.00005 0.985625
1.00415 1.00068 0.986831
1.00154 1.00131 0.99068
1.00011 1.00094 0.997433
1.00106 1.00214 0.990658
1.00008 1.00075 0.99747
0.999816 1.00016 0.997905
1.00517 0.995046 0.990768
1.00516 0.995274 0.99046
1.00524 0.994883 0.990542
1.00518 0.995648 0.989985
1.00517 0.995419 0.990471
1.00515 0.994933 0.990996
1.00517 0.994942 0.990935
1.0051 0.994958 0.991086
1.00519 0.995376 0.990523
1.00527 0.996872 0.988971
1.00516 0.995519 0.990361
1.00525 0.997103 0.988723
1.00524 0.998617 0.987227
1.00523 0.997268 0.988533
1.00525 0.999041 0.986753
1.00458 0.999889 0.986947
1.00525 0.999274 0.986508
1.00458 0.999993 0.986843
1.00213 1.00018 0.990847
1.00457 1.00006 0.986815
1.00218 1.00009 0.991545
1.00058 0.999946 0.997438
1.00228 0.999973 0.992252
1.00042 0.999878 0.994922
1.00007 0.99998 0.995213
1.0052 0.995817 0.990021
1.00523 0.997573 0.988233
1.00518 0.996329 0.989509
1.00525 0.998957 0.986774
1.00522 0.997956 0.987755
1.00519 0.99652 0.989116
1.0046 0.999688 0.986914
1.00526 0.999239 0.986616
1.00521 0.998356 0.987339
1.00196 1.0001 0.991129
1.00456 0.99987 0.986862
1.00526 0.999408 0.986179
1.00022 1.00069 0.997499
1.00179 1.00061 0.990929
1.00443 1.00019 0.986825
1.00149 1.00136 0.990691
1.00013 1.00085 0.997421
1.00002 1.00067 0.997535
1.00518 0.995306 0.990546
1.00517 0.995087 0.990733
1.00516 0.995294 0.990402
1.00522 0.997018 0.988847
1.00518 0.995292 0.99059
1.00513 0.99494 0.991008
1.0052 0.995365 0.990525
1.00527 0.996848 0.988975
1.00523 0.998589 0.987426
1.00526 0.997364 0.988423
1.00524 0.998807 0.987082
1.00455 0.999647 0.987112
1.00525 0.999027 0.986753
1.00458 0.999887 0.986952
1.00212 1.00013 0.990895
1.00459 0.999992 0.986852
1.00214 1.00016 0.990849
1.00057 0.999991 0.997406
1.00221 1.00007 0.990832
1.00047 0.999943 0.996162
1.00017 0.999845 0.995157
1.0052 0.995851 0.989944
1.00522 0.997411 0.988445
1.0052 0.99576 0.990087
1.00524 0.999009 0.986738
1.00524 0.997633 0.988154
1.00518 0.996391 0.989471
1.00462 0.999612 0.986993
1.00525 0.999105 0.98669
1.00522 0.997966 0.987737
1.00209 0.999866 0.991147
1.00459 0.999682 0.986921
1.00526 0.99924 0.986624
1.00039 1.00031 0.997526
1.00198 1.00007 0.991131
1.00455 0.99982 0.986815
1.00022 1.00065 0.99747
1.00179 1.00059 0.990934
1.0001 1.00081 0.997426
1.00522 0.996899 0.989017
1.00518 0.995435 0.990433
1.00517 0.995121 0.990698
1.00523 0.998481 0.987537
1.00523 0.996874 0.988967
1.00519 0.995171 0.99071
1.00527 0.996825 0.988979
1.00523 0.998588 0.987421
1.00452 0.999548 0.987275
1.00524 0.998999 0.986936
1.00456 0.999716 0.987094
1.00212 1.00004 0.990999
1.00459 0.999882 0.986957
1.00211 1.00014 0.9909
1.00055 1.00002 0.997378
1.00213 1.00015 0.990848
1.00057 1 0.99739
1.00056 0.999902 0.994672
1.00522 0.997305 0.988505
1.00519 0.995646 0.990125
1.00524 0.998876 0.986918
1.00523 0.997417 0.988429
1.00521 0.995709 0.990154
1.0046 0.999688 0.987124
1.00524 0.999019 0.986733
1.00524 0.997693 0.988075
1.00216 0.999857 0.991052
1.00461 0.999667 0.987009
1.00525 0.999257 0.986605
1.00055 1.00005 0.997481
1.00211 0.99986 0.991148
1.00459 0.999669 0.986927
1.00037 1.00033 0.997518
1.00199 1.00006 0.991132
1.00023 1.00063 0.997445
1.00524 0.998476 0.9875
1.00522 0.996982 0.988915
1.00518 0.995549 0.990321
1.0045 0.999502 0.987358
1.00523 0.998486 0.987534
1.00523 0.996726 0.989086
1.00523 0.998591 0.987416
1.00453 0.999538 0.987255
1.00207 1 0.991127
1.00456 0.999786 0.987075
1.0021 1.00005 0.991003
1.00055 1.00001 0.997382
1.00211 1.00014 0.990905
1.00054 1.00003 0.997384
1.00057 1.00001 0.99738
1.00524 0.998749 0.987045
1.00522 0.997056 0.988768
1.00518 0.995462 0.990306
1.00456 0.999671 0.98723
1.00523 0.998885 0.986907
1.00523 0.997423 0.988412
1.00215 0.999943 0.991005
1.00458 0.999696 0.987119
1.00523 0.999028 0.986728
1.00061 0.999952 0.997414
1.00217 0.999873 0.991052
1.0046 0.999717 0.987025
1.00051 1.00009 0.997501
1.00211 0.999871 0.991149
1.00038 1.00033 0.997501
1.0045 0.999629 0.987352
1.00524 0.998402 0.987511
1.00521 0.997067 0.988813
1.00204 0.999941 0.991254
1.0045 0.999483 0.987349
1.00523 0.998488 0.987532
1.00455 0.999524 0.987235
1.00207 0.999984 0.991132
1.00053 1.00001 0.997383
1.00208 1.00006 0.991007
1.00054 1.00002 0.997378
1.00052 1.00004 0.997386
1.00452 0.999646 0.98731
1.00524 0.998598 0.987203
1.00523 0.996808 0.989031
1.0022 0.999996 0.992314
1.00454 0.999672 0.987231
1.00523 0.998894 0.986895
1.00059 0.999959 0.997379
1.00216 0.999964 0.991005
1.00457 0.999704 0.987113
1.0006 0.999981 0.99744
1.00217 0.999898 0.991052
1.00049 1.0001 0.997515
1.0021 0.99994 0.991182
1.0045 0.999555 0.987352
1.00524 0.998327 0.987523
1.00048 0.999992 0.99742
1.00203 0.99994 0.991251
1.00452 0.999467 0.98734
1.00206 0.999966 0.991134
1.00051 1.00001 0.997393
1.00053 1.00003 0.997379
1.00223 0.999972 0.992349
1.00452 0.999645 0.98731
1.00524 0.998444 0.987362
1.00017 0.999997 0.997787
1.00211 1 0.991071
1.00453 0.99967 0.987233
1.0006 0.999971 0.997397
1.00216 0.999986 0.991004
1.00058 1 0.997464
1.00047 0.999972 0.99481
1.00212 0.99994 0.991829
1.0045 0.999482 0.987352
1.0005 0.999993 0.997423
1.00203 0.999941 0.991255
1.00053 1 0.997399
1.00007 0.999997 0.995193
1.00214 0.999964 0.991767
1.00451 0.999649 0.98731
1.00034 0.999991 0.996258
1.0021 1 0.991083
1.0006 0.999981 0.997416
1.00049 0.999984 0.99742
1.00203 0.999935 0.991269
1.00047 0.999992 0.997422
1.00029 0.99998 0.996311
1.00206 0.99996 0.991203
1.00055 0.999984 0.997399
1.0005 0.999982 0.997432
1.00049 0.999983 0.997419

TENSORS stress float
0.00183443 -0.000109551 0.000198837
-0.000109551 0.000765884 -2.91807e-05
0.000198837 -2.91807e-05 0.000743693
0.00572784 -6.44287e-05 0.000202905
-6.44287e-05 0.00313192 2.11983e-05
0.000202905 2.11983e-05 0.00311933
0.0015809 -4.0978e-05 8.948e-05
-4.0978e-05 0.000618036 -1.15385e-05
8.948e-05 -1.15385e-05 0.000586474
0.00193161 -6.42161e-05 0.000197367
-6.42161e-05 0.000799527 -1.78367e-05
0.000197367 -1.78367e-05 0.000782423
0.00189152 -9.78187e-05 0.000194941
-9.78187e-05 0.000790983 -2.60855e-05
0.000194941 -2.60855e-05 0.000770849
0.00177213 -0.000107901 0.000204723
-0.000107901 0.000728056 -2.94253e-05
0.000204723 -2.94253e-05 0.000707023
0.00155435 -8.82777e-05 3.37182e-05
-8.82777e-05 0.00052012 -1.06319e-05
3.37182e-05 -1.06319e-05 0.000430707
0.00566422 -7.17958e-05 -7.02299e-06
-7.17958e-05 0.00308323 -1.22165e-08
-7.02299e-06 -1.22165e-08 0.00307585
0.00562811 0.000106266 9.69171e-05
0.000106266 0.00303373 6.85173e-06
9.69171e-05 6.85173e-06 0.00301756
0.00544058 -0.00016116 3.28594e-05
-0.00016116 0.00294886 2.52285e-06
3.28594e-05 2.52285e-06 0.00292036
0.00171482 0.000120336 0.000203021
0.000120336 0.000687148 2.06136e-05
0.000203021 2.06136e-05 0.00067978
0.000611475 0.000208323 2.44285e-05
0.000208323 -2.91909e-05 1.55907e-05
2.44285e-05 1.55907e-05 -0.000130414
0.00166942 -3.40129e-05 0.000203876
-3.40129e-05 0.000637854 2.88219e-06
0.000203876 2.88219e-06 0.000632168
0.00130972 -6.9933e-06 4.23126e-05
-6.9933e-06 0.000444177 1.21031e-06
4.23126e-05 1.21031e-06 0.000405209
0.00138663 -3.56598e-05 -3.64947e-05
-3.56598e-05 0.000504858 6.49409e-06
-3.64947e-05 6.49409e-06 0.000465473
0.00162002 -6.75123e-05 6.78585e-05
-6.75123e-05 0.000626492 -3.9161e-06
6.78585e-05 -3.9161e-06 0.00059753
0.00157828 -2.48448e-05 9.67967e-05
-2.48448e-05 0.000624005 -1.14789e-05
9.67967e-05 -1.14789e-05 0.000588341
0.00159745 -5.50327e-05 7.97104e-05
-5.50327e-05 0.000617163 -9.67088e-06
7.97104e-05 -9.67088e-06 0.000589484
0.00161926 -0.000128187 -3.33342e-05
-0.000128187 0.000551936 3.78453e-06
-3.33342e-05 3.78453e-06 0.000471084
0.00562346 -0.000116743 0.000251129
-0.000116743 0.00303888 -8.30106e-06
0.000251129 -8.30106e-06 0.00304647
0.0018972 -4.52368e-05 0.0001989
-4.52368e-05 0.000776791 -1.32935e-05
0.0001989 -1.32935e-05 0.000760917
0.0019374 -8.27851e-05 0.000195593
-8.27851e-05 0.000809014 -2.221e-05
0.000195593 -2.221e-05 0.000790913
0.00157371 -0.000112168 5.50627e-05
-0.000112168 0.000507705 -8.39439e-06
5.50627e-05 -8.39439e-06 0.000427435
0.00157071 -0.000101525 4.30048e-05
-0.000101525 0.0005136 -9.85805e-06
4.30048e-05 -9.85805e-06 0.000431462
0.00170884 -8.09769e-05 0.000199609
-8.09769e-05 0.000681996 -2.57959e-05
0.000199609 -2.57959e-05 0.000664421
0.0015383 -7.80751e-05 2.63996e-05
-7.80751e-05 0.000529926 -1.15165e-05
2.63996e-05 -1.15165e-05 0.000430904
0.00200658 -0.00023441 1.4836e-05
-0.00023441 0.000642179 -6.61753e-06
1.4836e-05 -6.61753e-06 0.000487122
0.00562099 -8.5874e-05 -0.000200365
-8.5874e-05 0.00304835 -1.27639e-05
-0.000200365 -1.27639e-05 0.00304547
0.0036311 9.23634e-05 -0.00011463
9.23634e-05 0.00183841 -1.04581e-05
-0.00011463 -1.04581e-05 0.00181945
0.0035133 -1.28695e-05 -0.000109135
-1.28695e-05 0.00178773 -6.77798e-06
-0.000109135 -6.77798e-06 0.00176472
0.00548496 -0.000138558 -1.64888e-06
-0.000138558 0.00299035 6.39065e-07
-1.64888e-06 6.39065e-07 0.00297479
0.000564178 0.00019398 -2.09416e-06
0.00019398 -5.61038e-05 -7.54403e-07
-2.09416e-06 -7.54403e-07 -0.000155647
0.0016343 5.66469e-05 0.000201234
5.66469e-05 0.000626105 1.62934e-05
0.000201234 1.62934e-05 0.000610781
0.00177646 0.000134333 0.000204172
0.000134333 0.000737035 2.46355e-05
0.000204172 2.46355e-05 0.00071469
0.00265836 0.000182637 0.000124239
0.000182637 0.00116115 1.63974e-05
0.000124239 1.63974e-05 0.00109203
0.00444612 -0.000308298 -8.60521e-06
-0.000308298 0.0024129 6.26909e-06
-8.60521e-06 6.26909e-06 0.00235688
0.00275303 0.000235752 0.000125293
0.000235752 0.00124785 1.9208e-05
0.000125293 1.9208e-05 0.00117126
0.000565483 0.000170228 2.75841e-05
0.000170228 -5.15377e-05 1.97626e-05
2.75841e-05 1.97626e-05 -0.000147456
0.000882042 0.000189691 1.07591e-05
0.000189691 3.78866e-05 5.96842e-06
1.07591e-05 5.96842e-06 -0.000133376
0.00347851 -0.000104813 0.000119291
-0.000104813 0.00178081 5.86096e-06
0.000119291 5.86096e-06 0.0017845
0.00562078 7.1496e-05 3.59607e-06
7.1496e-05 0.00302799 -1.46591e-06
3.59607e-06 -1.46591e-06 0.00304081
0.00356077 6.81765e-05 -9.51676e-05
6.81765e-05 0.00179069 -3.64546e-06
-9.51676e-05 -3.64546e-06 0.00177735
0.00551021 6.02538e-05 0.000245334
6.02538e-05 0.00296439 3.0811e-06
0.000245334 3.0811e-06 0.00297728
0.00130534 7.67336e-05 4.55431e-05
7.67336e-05 0.000439866 2.63746e-06
4.55431e-05 2.63746e-06 0.000405552
0.000641584 9.58281e-06 1.6146e-05
9.58281e-06 -7.96427e-05 1.71482e-06
1.6146e-05 1.71482e-06 -0.00015484
0.0055325 0.000198699 0.000130269
0.000198699 0.00300034 1.16388e-05
0.000130269 1.16388e-05 0.00297738
0.00271667 6.18617e-05 0.000120499
6.18617e-05 0.00116254 7.23276e-06
0.000120499 7.23276e-06 0.0011095
0.0012488 -7.46623e-05 -5.6165e-05
-7.46623e-05 0.00041945 6.96055e-06
-5.6165e-05 6.96055e-06 0.000377338
0.00129805 -7.51234e-05 -4.86734e-05
-7.51234e-05 0.00045187 7.71188e-06
-4.86734e-05 7.71188e-06 0.000411133
0.00145629 1.4087e-05 -2.48302e-05
1.4087e-05 0.00055235 6.28795e-06
-2.48302e-05 6.28795e-06 0.000509336
0.00165215 -0.000136241 -0.00010764
-0.000136241 0.00056457 1.79083e-05
-0.00010764 1.79083e-05 0.000491435
0.00352364 4.62135e-06 -0.000100111
4.62135e-06 0.00177535 -1.95958e-06
-0.000100111 -1.95958e-06 0.00176
0.0016094 -5.11364e-05 7.4208e-05
-5.11364e-05 0.000614959 -3.28547e-06
7.4208e-05 -3.28547e-06 0.000588526
0.00153042 -9.55737e-07 9.99107e-05
-9.55737e-07 0.000597984 -9.43512e-06
9.99107e-05 -9.43512e-06 0.000561245
0.00161543 -6.26838e-05 7.24604e-05
-6.26838e-05 0.000622998 -6.6766e-06
7.24604e-05 -6.6766e-06 0.000595858
0.00163159 -9.25594e-05 -2.67852e-05
-9.25594e-05 0.000534482 1.35158e-06
-2.67852e-05 1.35158e-06 0.000462288
0.0016052 -0.000122724 -3.87582e-05
-0.000122724 0.000556474 3.96376e-06
-3.87582e-05 3.96376e-06 0.000469736
0.00162767 -0.000123922 -2.84243e-05
-0.000123922 0.000545867 2.7109e-06
-2.84243e-05 2.7109e-06 0.000469343
0.00200728 -0.000233728 -7.65336e-06
-0.000233728 0.000639735 2.05761e-06
-7.65336e-06 2.05761e-06 0.000484828
0.00548734 3.35887e-05 0.000240167
3.35887e-05 0.00294972 -3.96461e-07
0.000240167 -3.96461e-07 0.00296356
0.0018612 -2.51239e-05 0.00019799
-2.51239e-05 0.000757742 -9.12392e-06
0.00019799 -9.12392e-06 0.000743855
0.00242504 1.23455e-05 3.93982e-05
1.23455e-05 0.0010061 -9.43546e-07
3.93982e-05 -9.43546e-07 0.000944138
0.00157124 -9.08918e-05 4.84961e-05
-9.08918e-05 0.00049778 -5.6585e-06
4.84961e-05 -5.6585e-06 0.00042243
0.00157272 -0.000108572 5.04506e-05
-0.000108572 0.000508186 -9.29394e-06
5.04506e-05 -9.29394e-06 0.000428117
0.00189544 -0.00014709 1.1604e-05
-0.00014709 0.000517594 -3.04973e-06
1.1604e-05 -3.04973e-06 0.000385212
0.00170054 -0.000194708 1.61662e-05
-0.000194708 0.000431763 -5.76596e-06
1.61662e-05 -5.76596e-06 0.000284897
0.00130206 -3.94659e-05 0.000165094
-3.94659e-05 0.000438968 -1.87763e-05
0.000165094 -1.87763e-05 0.000425223
0.00139079 -3.48404e-05 1.74506e-05
-3.48404e-05 0.000463778 -1.14969e-05
1.74506e-05 -1.14969e-05 0.000364738
0.00202193 -0.000255646 1.40785e-05
-0.000255646 0.000679777 -7.2678e-06
1.40785e-05 -7.2678e-06 0.000514669
0.00131602 -0.000253226 7.46499e-06
-0.000253226 9.53665e-05 -2.11566e-06
7.46499e-06 -2.11566e-06 -9.82388e-05
0.00591092 0.000172082 -0.000256812
0.000172082 0.00320433 -2.31334e-05
-0.000256812 -2.31334e-05 0.00320758
0.00519061 -0.000162502 -0.000159521
-0.000162502 0.00281576 -1.04761e-05
-0.000159521 -1.04761e-05 0.00280028
0.00568509 -9.50472e-06 -0.000217748
-9.50472e-06 0.0030751 -1.55741e-05
-0.000217748 -1.55741e-05 0.00307949
0.000517191 0.000187169 -2.43492e-05
0.000187169 -7.94063e-05 -1.57814e-05
-2.43492e-05 -1.57814e-05 -0.000180388
0.00591544 0.000180902 -2.84516e-06
0.000180902 0.00320573 -1.9799e-06
-2.84516e-06 -1.9799e-06 0.0032094
0.00592708 0.000107085 -8.82597e-06
0.000107085 0.00321414 -1.63625e-06
-8.82597e-06 -1.63625e-06 0.00321784
0.000498213 0.000123647 -8.06564e-08
0.000123647 -0.000135699 -2.36661e-07
-8.06564e-08 -2.36661e-07 -0.000227841
0.00286172 -0.000133316 -6.61302e-05
-0.000133316 0.00142497 -2.92615e-06
-6.61302e-05 -2.92615e-06 0.0013934
0.000499973 0.00018683 -3.7325e-07
0.00018683 -9.76183e-05 -4.13212e-07
-3.7325e-07 -4.13212e-07 -0.000199161
0.00160283 0.000156365 4.16259e-05
0.000156365 0.00057732 1.45574e-06
4.16259e-05 1.45574e-06 0.000496872
0.000866039 0.00018635 -1.68199e-08
0.00018635 2.4787e-05 2.75257e-07
-1.68199e-08 2.75257e-07 -0.000145446
0.0041852 -0.00011265 0.000148829
-0.00011265 0.00220502 9.31258e-06
0.000148829 9.31258e-06 0.00220457
0.000663729 -1.46395e-05 6.06791e-06
-1.46395e-05 6.88753e-05 9.43412e-06
6.06791e-06 9.43412e-06 2.32594e-05
0.000609783 9.36142e-05 1.67753e-05
9.36142e-05 -8.94811e-05 9.00094e-06
1.67753e-05 9.00094e-06 -0.000176734
0.000652866 0.000149675 2.17273e-05
0.000149675 -3.02458e-05 1.56084e-05
2.17273e-05 1.56084e-05 -0.000128332
0.000991635 0.000161508 1.39169e-05
0.000161508 -8.21514e-06 5.51514e-06
1.39169e-05 5.51514e-06 -0.0001634
0.00262172 9.24466e-05 9.67046e-05
9.24466e-05 0.00121104 1.2865e-05
9.67046e-05 1.2865e-05 0.00115215
0.000935607 0.000185007 1.22642e-05
0.000185007 3.21614e-05 6.68715e-06
1.22642e-05 6.68715e-06 -0.000132957
0.00084666 0.000197223 1.04553e-05
0.000197223 8.07655e-05 5.21201e-06
1.04553e-05 5.21201e-06 -0.000100566
0.00110679 0.00024378 5.25674e-06
0.00024378 0.000103999 2.00553e-06
5.25674e-06 2.00553e-06 -0.000105535
0.00288886 -0.000120834 6.9285e-05
-0.000120834 0.00142529 2.52714e-06
6.9285e-05 2.52714e-06 0.00142534
0.00325144 -0.000140076 1.26999e-05
-0.000140076 0.00165061 -2.63492e-07
1.26999e-05 -2.63492e-07 0.00164533
0.00583396 3.19361e-05 -0.000249323
3.19361e-05 0.00314749 -1.0815e-05
-0.000249323 -1.0815e-05 0.00315905
0.00568577 6.17664e-05 -0.000251606
6.17664e-05 0.00306397 -6.60333e-06
-0.000251606 -6.60333e-06 0.00307769
0.00558845 8.42815e-05 -1.24086e-07
8.42815e-05 0.00301704 -2.91075e-06
-1.24086e-07 -2.91075e-06 0.00302602
0.00350536 1.76366e-05 -0.000108608
1.76366e-05 0.00175584 -4.65818e-06
-0.000108608 -4.65818e-06 0.00174625
0.00164568 3.41645e-05 5.16769e-05
3.41645e-05 0.000523945 1.10514e-06
5.16769e-05 1.10514e-06 0.000461774
0.00365364 0.000117374 -9.7063e-05
0.000117374 0.00185066 -5.03292e-06
-9.7063e-05 -5.03292e-06 0.00183217
0.00168552 8.05637e-05 5.12552e-05
8.05637e-05 0.000548105 2.11379e-06
5.12552e-05 2.11379e-06 0.000479925
0.00555679 0.000136873 0.000248225
0.000136873 0.00300809 6.23611e-06
0.000248225 6.23611e-06 0.00301108
0.000564911 1.05839e-05 1.86753e-05
1.05839e-05 -0.000121599 5.95835e-07
1.86753e-05 5.95835e-07 -0.000194804
0.00273049 2.85197e-05 0.000120265
2.85197e-05 0.00117033 4.84169e-06
0.000120265 4.84169e-06 0.00112072
0.00102578 3.94118e-05 1.24626e-05
3.94118e-05 -2.05521e-05 1.20319e-06
1.24626e-05 1.20319e-06 -0.000144963
0.0026384 0.000104226 0.000123115
0.000104226 0.00112323 9.29655e-06
0.000123115 9.29655e-06 0.0010658
0.00105551 9.32831e-05 1.22047e-05
9.32831e-05 -7.34734e-06 2.53699e-06
1.22047e-05 2.53699e-06 -0.000142266
0.00168352 4.27038e-05 -0.000202549
4.27038e-05 0.000647153 1.90248e-06
-0.000202549 1.90248e-06 0.000641914
0.00128668 -2.596e-06 -4.31678e-05
-2.596e-06 0.000433412 1.8769e-06
-4.31678e-05 1.8769e-06 0.000395133
0.00143588 5.37172e-05 -1.62351e-05
5.37172e-05 0.000548127 6.56002e-06
-1.62351e-05 6.56002e-06 0.000501315
0.00125282 -8.208e-05 -5.68289e-05
-8.208e-05 0.000423966 8.08949e-06
-5.68289e-05 8.08949e-06 0.000382381
0.00174901 -7.24936e-05 -0.000105674
-7.24936e-05 0.000596495 9.27032e-06
-0.000105674 9.27032e-06 0.000532741
0.00170265 -0.00011579 -0.000105667
-0.00011579 0.000583083 1.53901e-05
-0.000105667 1.53901e-05 0.000514655
0.00161174 -0.000143955 -0.000109584
-0.000143955 0.000551275 1.88462e-05
-0.000109584 1.88462e-05 0.000473406
0.00200949 -0.000233185 -2.84689e-05
-0.000233185 0.000638688 1.00132e-05
-2.84689e-05 1.00132e-05 0.000484026
0.00557762 -8.8199e-05 2.05649e-06
-8.8199e-05 0.0030116 -1.54987e-06
2.05649e-06 -1.54987e-06 0.00301993
0.00154144 4.23786e-05 8.23999e-05
4.23786e-05 0.00057235 -3.27581e-06
8.23999e-05 -3.27581e-06 0.000549923
0.00113371 -3.15076e-06 -5.48293e-05
-3.15076e-06 0.000221601 1.11319e-06
-5.48293e-05 1.11319e-06 0.000157859
0.0016312 -5.64227e-05 -3.05758e-05
-5.64227e-05 0.000528719 1.89291e-06
-3.05758e-05 1.89291e-06 0.000459695
0.00335562 3.36453e-05 0.000177214
3.36453e-05 0.0016993 -5.30228e-06
0.000177214 -5.30228e-06 0.00168655
0.00206035 -0.00010803 -3.43755e-05
-0.00010803 0.000846779 1.27222e-06
-3.43755e-05 1.27222e-06 0.000760418
0.00163461 -0.000110665 -2.61495e-05
-0.000110665 0.000541835 1.8325e-06
-2.61495e-05 1.8325e-06 0.00046799
0.00183884 -0.000142289 -9.09824e-06
-0.000142289 0.000480961 1.62041e-06
-9.09824e-06 1.62041e-06 0.000348608
0.00200684 -0.000255654 -6.50885e-06
-0.000255654 0.000669454 1.87879e-06
-6.50885e-06 1.87879e-06 0.000503947
0.00186284 -0.000201589 -5.11616e-06
-0.000201589 0.000528462 1.2955e-06
-5.11616e-06 1.2955e-06 0.000381966
0.00132842 -0.000253725 3.52566e-07
-0.000253725 0.000102792 -1.22527e-07
3.52566e-07 -1.22527e-07 -9.04314e-05
0.00060376 1.26776e-05 1.92734e-05
1.26776e-05 -0.000101258 -1.09343e-06
1.92734e-05 -1.09343e-06 -0.000171305
0.00150469 1.25019e-05 3.95709e-05
1.25019e-05 0.00045272 -2.60409e-06
3.95709e-05 -2.60409e-06 0.00038386
0.00166811 -3.74265e-05 1.25923e-05
-3.74265e-05 0.000368175 -9.82591e-07
1.25923e-05 -9.82591e-07 0.000253206
0.00167743 -0.000111423 1.24384e-05
-0.000111423 0.000378054 -2.33993e-06
1.24384e-05 -2.33993e-06 0.00025048
0.00167841 -0.000166697 1.46218e-05
-0.000166697 0.000395627 -4.28883e-06
1.46218e-05 -4.28883e-06 0.00025637
0.00173569 -0.000187104 1.31538e-06
-0.000187104 0.000245226 -5.98212e-07
1.31538e-06 -5.98212e-07 8.99763e-05
0.00466053 0.000179162 0.000132162
0.000179162 0.00251454 -8.97832e-06
0.000132162 -8.97832e-06 0.00249445
0.00136 -0.000235234 6.13041e-06
-0.000235234 8.58019e-05 -1.76438e-06
6.13041e-06 -1.76438e-06 -9.57455e-05
0.000345063 -0.000114462 1.83658e-05
-0.000114462 -0.000171757 -1.55241e-05
1.83658e-05 -1.55241e-05 -0.000250485
0.000874931 -0.000192956 1.1004e-05
-0.000192956 2.88357e-05 -6.83442e-06
1.1004e-05 -6.83442e-06 -0.000142562
0.0013696 -0.000276626 8.36972e-06
-0.000276626 0.000168524 -3.33037e-06
8.36972e-06 -3.33037e-06 -3.90963e-05
0.00161865 -0.000327169 3.31048e-06
-0.000327169 0.000157033 7.48984e-07
3.31048e-06 7.48984e-07 -4.72611e-05
0.000325608 -4.78644e-05 1.04579e-05
-4.78644e-05 -0.000140931 -1.25766e-05
1.04579e-05 -1.25766e-05 -0.000202803
0.000657955 -5.12192e-05 6.48955e-07
-5.12192e-05 6.66588e-05 -4.58585e-06
6.48955e-07 -4.58585e-06 -6.54417e-05
0.00593393 0.000198534 -0.000268066
0.000198534 0.0032216 -2.34087e-05
-0.000268066 -2.34087e-05 0.00322283
0.00581156 8.93562e-05 -0.000237762
8.93562e-05 0.00314345 -1.96821e-05
-0.000237762 -1.96821e-05 0.00315036
0.000494319 0.000117768 -1.84605e-05
0.000117768 -0.000139867 -1.08266e-05
-1.84605e-05 -1.08266e-05 -0.000231909
0.00451528 -0.000184255 -0.000127617
-0.000184255 0.00242348 -7.9215e-06
-0.000127617 -7.9215e-06 0.00240533
0.000439773 0.000140201 -2.12889e-05
0.000140201 -0.000123075 -1.52614e-05
-2.12889e-05 -1.52614e-05 -0.000205831
0.000464301 0.000171249 -2.04852e-05
0.000171249 -0.00011528 -1.50566e-05
-2.04852e-05 -1.50566e-05 -0.000218229
0.000873832 0.000186172 -1.21256e-05
0.000186172 2.60235e-05 -5.59854e-06
-1.21256e-05 -5.59854e-06 -0.000143698
0.00397239 -0.000138213 9.96474e-06
-0.000138213 0.00208528 -6.6118e-07
9.96474e-06 -6.6118e-07 0.00207991
0.000528868 -2.61812e-05 4.39284e-07
-2.61812e-05 -7.13258e-06 5.7758e-07
4.39284e-07 5.7758e-07 -5.27479e-05
0.00166069 0.000124311 5.18374e-05
0.000124311 0.000544689 3.65718e-06
5.18374e-05 3.65718e-06 0.000468502
0.00161667 0.000176909 5.06552e-05
0.000176909 0.0005523 3.53741e-06
5.06552e-05 3.53741e-06 0.000465441
0.000972624 0.000161369 9.02488e-08
0.000161369 -1.48774e-05 -2.15413e-07
9.02488e-08 -2.15413e-07 -0.000170556
0.000589313 8.85226e-05 -2.98838e-07
8.85226e-05 -1.0032e-05 -1.74938e-08
-2.98838e-07 -1.74938e-08 -8.0418e-05
0.000921754 0.00018419 6.74995e-07
0.00018419 2.54334e-05 2.66405e-08
6.74995e-07 2.66405e-08 -0.000139528
0.000846129 0.000187461 4.67181e-07
0.000187461 7.6547e-05 -1.28456e-06
4.67181e-07 -1.28456e-06 -0.000102763
0.0010275 0.000240079 -4.92097e-07
0.000240079 5.40338e-05 4.32697e-08
-4.92097e-07 4.32697e-08 -0.000155444
0.000695015 4.15988e-05 1.33848e-05
4.15988e-05 7.34678e-05 1.15516e-05
1.33848e-05 1.15516e-05 1.46188e-05
0.000619481 -5.05856e-05 1.58497e-06
-5.05856e-05 4.85178e-05 7.32164e-06
1.58497e-06 7.32164e-06 1.1003e-05
0.000924284 9.30934e-05 3.06745e-06
9.30934e-05 0.000241619 4.92833e-06
3.06745e-06 4.92833e-06 0.000112332
0.00102522 0.000141162 1.32949e-05
0.000141162 -1.00594e-05 4.38148e-06
1.32949e-05 4.38148e-06 -0.00015867
0.000942877 0.000176366 1.36996e-05
0.000176366 -3.6051e-06 6.30356e-06
1.36996e-05 6.30356e-06 -0.000164687
0.00142343 0.0002512 5.49617e-06
0.0002512 0.000114951 1.37914e-06
5.49617e-06 1.37914e-06 -7.448e-05
0.000818799 0.000194762 7.87644e-06
0.000194762 0.00013224 6.97135e-06
7.87644e-06 6.97135e-06 -4.69804e-05
0.00110688 0.000251955 5.36033e-06
0.000251955 4.49594e-05 1.72016e-06
5.36033e-06 1.72016e-06 -0.000159754
0.00123933 0.000264535 6.07495e-06
0.000264535 0.00023521 1.3722e-06
6.07495e-06 1.3722e-06 7.01187e-06
0.00133526 0.000294737 -1.35477e-06
0.000294737 0.000180107 -8.62282e-07
-1.35477e-06 -8.62282e-07 -4.83159e-05
0.00259164 -0.000123676 3.56632e-05
-0.000123676 0.00124312 2.96782e-06
3.56632e-05 2.96782e-06 0.00124196
0.00277108 -0.000138828 9.18042e-06
-0.000138828 0.00135849 -7.33296e-07
9.18042e-06 -7.33296e-07 0.0013532
0.00304332 -0.000159151 -5.15685e-05
-0.000159151 0.00153025 -2.52113e-06
-5.15685e-05 -2.52113e-06 0.00151917
0.000383586 -2.49168e-05 7.81791e-06
-2.49168e-05 -9.9751e-05 -1.01184e-05
7.81791e-06 -1.01184e-05 -0.000152548
0.00409154 0.00015333 0.000113064
0.00015333 0.00216637 -6.94016e-06
0.000113064 -6.94016e-06 0.00215393
0.0059242 0.000181315 -0.00027056
0.000181315 0.00321392 -2.03445e-05
-0.00027056 -2.03445e-05 0.00321756
0.00570648 7.07684e-05 -0.000249554
7.07684e-05 0.00307424 -9.17088e-06
-0.000249554 -9.17088e-06 0.00308714
0.000580298 9.10937e-05 -1.97146e-05
9.10937e-05 -0.000113799 -4.93723e-06
-1.97146e-05 -4.93723e-06 -0.000193782
0.000565025 4.09233e-05 -1.93197e-05
4.09233e-05 -0.000120524 -2.4043e-06
-1.93197e-05 -2.4043e-06 -0.000196571
0.00552769 -1.21077e-05 -0.000241047
-1.21077e-05 0.00297128 -1.63199e-06
-0.000241047 -1.63199e-06 0.00298595
0.0054943 1.65156e-05 -5.69856e-07
1.65156e-05 0.00295264 -5.46796e-07
-5.69856e-07 -5.46796e-07 0.00296703
0.00054701 8.51497e-07 -1.38378e-07
8.51497e-07 -0.000134732 -7.17282e-09
-1.38378e-07 -7.17282e-09 -0.000206203
0.00163188 3.31308e-05 5.17108e-05
3.31308e-05 0.000513061 1.90352e-06
5.17108e-05 1.90352e-06 0.000450142
0.00100039 4.30774e-05 -2.4853e-08
4.30774e-05 -3.65213e-05 -1.28295e-07
-2.4853e-08 -1.28295e-07 -0.000161406
0.000547855 7.63898e-05 -4.14966e-07
7.63898e-05 -0.000129081 -3.09423e-07
-4.14966e-07 -3.09423e-07 -0.000213178
0.00101186 9.45828e-05 -1.34187e-07
9.45828e-05 -3.26333e-05 -1.37159e-07
-1.34187e-07 -1.37159e-07 -0.000168207
0.000540493 -2.84171e-05 1.91911e-05
-2.84171e-05 -0.000140516 -8.52178e-07
1.91911e-05 -8.52178e-07 -0.000209594
0.0010011 1.68142e-05 1.22634e-05
1.68142e-05 -3.04371e-05 5.49008e-07
1.22634e-05 5.49008e-07 -0.000152569
0.00102385 6.62465e-05 1.21778e-05
6.62465e-05 -2.48901e-05 1.90642e-06
1.21778e-05 1.90642e-06 -0.00015381
0.00151754 6.76839e-05 9.4052e-07
6.76839e-05 6.15275e-05 6.81416e-08
9.4052e-07 6.81416e-08 -6.42275e-05
0.00105283 0.000117535 1.26122e-05
0.000117535 -5.03141e-06 3.32106e-06
1.26122e-05 3.32106e-06 -0.000146604
0.00155173 0.000149098 2.07737e-06
0.000149098 9.00936e-05 1.32286e-07
2.07737e-06 1.32286e-07 -5.48964e-05
0.00550099 -4.83698e-05 -0.00024705
-4.83698e-05 0.00296019 9.5709e-07
-0.00024705 9.5709e-07 0.00297248
0.00126033 -0.000139592 -4.53816e-05
-0.000139592 0.000423669 4.81906e-06
-4.53816e-05 4.81906e-06 0.000384978
-0.000272619 -2.37665e-06 -1.27902e-05
-2.37665e-06 -0.00061907 2.10935e-06
-1.27902e-05 2.10935e-06 -0.000703235
0.00172559 -5.02102e-05 -0.000105642
-5.02102e-05 0.000579912 6.64273e-06
-0.000105642 6.64273e-06 0.000517701
0.00507555 0.000359734 1.38881e-05
0.000359734 0.00281294 7.77332e-06
1.38881e-05 7.77332e-06 0.00273957
0.002725 -0.000194805 -0.000110953
-0.000194805 0.00123519 1.89421e-05
-0.000110953 1.89421e-05 0.00115551
0.00173837 -9.44289e-05 -0.000105434
-9.44289e-05 0.000595224 1.22913e-05
-0.000105434 1.22913e-05 0.00052997
0.00175502 -0.000136333 -2.79863e-05
-0.000136333 0.000427768 5.47859e-06
-2.79863e-05 5.47859e-06 0.000295681
0.00200657 -0.000207286 -2.69291e-05
-0.000207286 0.000613878 8.37145e-06
-2.69291e-05 8.37145e-06 0.000468069
0.00202573 -0.000257756 -2.59749e-05
-0.000257756 0.000680368 1.0551e-05
-2.59749e-05 1.0551e-05 0.000514134
0.0013396 -0.000254142 -6.14182e-06
-0.000254142 0.000109571 1.75781e-06
-6.14182e-06 1.75781e-06 -8.32767e-05
0.000543077 6.93688e-06 -6.1489e-08
6.93688e-06 -0.000135592 1.418e-07
-6.1489e-08 1.418e-07 -0.000206589
0.00163009 -6.99899e-05 -2.97882e-05
-6.99899e-05 0.000528452 3.29639e-07
-2.97882e-05 3.29639e-07 0.000462431
0.00125136 -3.28598e-05 -7.74456e-06
-3.28598e-05 0.000119121 4.21508e-07
-7.74456e-06 4.21508e-07 -3.27495e-07
0.00182667 -0.000112759 -5.97539e-06
-0.000112759 0.000466156 9.12392e-07
-5.97539e-06 9.12392e-07 0.0003396
0.00479984 0.000162379 -7.4791e-06
0.000162379 0.00259258 -1.11161e-06
-7.4791e-06 -1.11161e-06 0.00257577
0.0015555 -0.000103414 -1.40578e-06
-0.000103414 0.000567761 5.20584e-08
-1.40578e-06 5.20584e-08 0.000476183
0.00132896 -0.000219589 1.37925e-06
-0.000219589 0.000309274 -8.43445e-07
1.37925e-06 -8.43445e-07 0.000137296
0.00171292 -0.000167483 -6.23538e-06
-0.000167483 0.000416241 1.42665e-06
-6.23538e-06 1.42665e-06 0.000276782
0.00163807 -0.00018535 -2.16429e-06
-0.00018535 0.000184415 4.03968e-07
-2.16429e-06 4.03968e-07 3.05166e-05
0.00127333 -0.000270855 1.65159e-07
-0.000270855 0.000113919 -1.43226e-07
1.65159e-07 -1.43226e-07 -9.32746e-05
0.00153736 -0.000242899 4.04628e-07
-0.000242899 0.000191257 -1.33593e-07
4.04628e-07 -1.33593e-07 1.06713e-05
0.00164985 -0.000327631 6.50003e-07
-0.000327631 0.000180243 6.11127e-09
6.50003e-07 6.11127e-09 -2.34334e-05
0.000520889 -5.56881e-05 -1.12213e-06
-5.56881e-05 -2.88946e-05 2.20532e-07
-1.12213e-06 2.20532e-07 -9.17233e-05
0.000623668 -7.61816e-05 -2.47945e-08
-7.61816e-05 4.62256e-05 2.31637e-07
-2.47945e-08 2.31637e-07 -8.93665e-05
0.000984982 -1.58173e-05 1.22224e-05
-1.58173e-05 -3.45186e-05 -7.84002e-07
1.22224e-05 -7.84002e-07 -0.000156189
0.00170661 -6.96876e-05 1.17824e-05
-6.96876e-05 0.000390956 -1.59686e-06
1.17824e-05 -1.59686e-06 0.000271277
0.00169157 -6.12634e-05 2.89069e-07
-6.12634e-05 0.000185388 1.13413e-07
2.89069e-07 1.13413e-07 5.93877e-05
0.00154727 -0.000148072 2.21725e-06
-0.000148072 0.000114564 -8.80214e-08
2.21725e-06 -8.80214e-08 -2.7175e-05
0.00169192 -0.000226017 3.08918e-06
-0.000226017 0.000249104 -6.79952e-07
3.08918e-06 -6.79952e-07 8.31541e-05
0.00181035 -0.000226685 -3.67613e-07
-0.000226685 0.000157321 5.19134e-07
-3.67613e-07 5.19134e-07 1.53111e-05
0.000350591 -8.88924e-05 1.60565e-05
-8.88924e-05 -0.000146207 -1.43416e-05
1.60565e-05 -1.43416e-05 -0.000216408
0.00167926 -0.000300445 1.43075e-06
-0.000300445 0.000155391 7.85514e-07
1.43075e-06 7.85514e-07 -2.55207e-05
0.000719206 -0.000175879 6.71999e-06
-0.000175879 1.60556e-05 -7.39506e-06
6.71999e-06 -7.39506e-06 -0.000160991
0.000995977 -0.000257032 9.89647e-06
-0.000257032 1.05646e-05 -3.2982e-06
9.89647e-06 -3.2982e-06 -0.000205097
0.00179637 -0.000369401 3.01394e-06
-0.000369401 0.000316942 9.17777e-08
3.01394e-06 9.17777e-08 8.4717e-05
0.00196978 -0.000362533 -1.64646e-06
-0.000362533 0.000314646 3.24362e-06
-1.64646e-06 3.24362e-06 0.00012733
0.000710634 -0.000127549 1.55021e-06
-0.000127549 0.000103298 -5.42161e-06
1.55021e-06 -5.42161e-06 -5.76111e-05
0.000624582 -3.89284e-05 2.97328e-07
-3.89284e-05 4.88712e-05 -4.25882e-06
2.97328e-07 -4.25882e-06 -6.44517e-05
0.00105856 -0.000182896 -7.97667e-07
-0.000182896 0.000326162 8.96854e-07
-7.97667e-07 8.96854e-07 0.000123057
0.000525336 9.70079e-05 -1.7828e-05
9.70079e-05 -0.000134932 -8.33134e-06
-1.7828e-05 -8.33134e-06 -0.000222845
0.00370737 -0.000166271 -9.07174e-05
-0.000166271 0.00193232 -3.77289e-06
-9.07174e-05 -3.77289e-06 0.00191986
0.000370737 -3.83339e-05 -7.38487e-07
-3.83339e-05 -9.57441e-05 -8.65681e-06
-7.38487e-07 -8.65681e-06 -0.000142428
0.000475367 0.000146303 -1.95956e-05
0.000146303 -0.000129736 -1.35667e-05
-1.95956e-05 -1.35667e-05 -0.000227868
0.000954007 0.000161457 -1.44975e-05
0.000161457 -2.13861e-05 -5.90746e-06
-1.44975e-05 -5.90746e-06 -0.000177575
0.000362958 8.14977e-05 -1.75277e-05
8.14977e-05 -0.000145049 -1.34017e-05
-1.75277e-05 -1.34017e-05 -0.00021196
0.000751913 0.000174284 -8.50153e-06
0.000174284 1.79638e-05 -7.21741e-06
-8.50153e-06 -7.21741e-06 -0.000159283
0.000909026 0.00018333 -1.2025e-05
0.00018333 1.93001e-05 -7.04596e-06
-1.2025e-05 -7.04596e-06 -0.000145503
0.000899085 0.00023211 -6.81219e-06
0.00023211 -2.51576e-05 -1.69591e-06
-6.81219e-06 -1.69591e-06 -0.000233887
0.000530388 3.09742e-05 2.42064e-06
3.09742e-05 -2.29187e-05 4.47081e-07
2.42064e-06 4.47081e-07 -7.93903e-05
0.000497961 -6.11903e-05 3.27484e-07
-6.11903e-05 -2.00781e-05 2.62078e-07
3.27484e-07 2.62078e-07 -5.92482e-05
0.000606229 3.89235e-05 4.41308e-07
3.89235e-05 3.98114e-05 6.45332e-07
4.41308e-07 6.45332e-07 -7.6123e-05
0.00100165 0.000141651 -1.79971e-09
0.000141651 -2.07755e-05 -2.70113e-07
-1.79971e-09 -2.70113e-07 -0.000170092
0.000945866 0.000176856 3.70273e-07
0.000176856 1.97908e-06 -2.17836e-07
3.70273e-07 -2.17836e-07 -0.00015941
0.00142485 0.000251414 1.43875e-07
0.000251414 0.00011578 -1.91686e-08
1.43875e-07 -1.91686e-08 -7.40238e-05
0.000806936 0.000177882 -5.17283e-07
0.000177882 0.000125702 -2.61273e-08
-5.17283e-07 -2.61273e-08 -5.13544e-05
0.00120428 0.000256072 3.16922e-07
0.000256072 0.000105021 4.351e-09
3.16922e-07 4.351e-09 -9.99857e-05
0.001107 0.000253543 3.83882e-07
0.000253543 0.000156342 -1.17829e-06
3.83882e-07 -1.17829e-06 -6.98908e-05
0.00129318 0.000300981 -7.21693e-07
0.000300981 0.000149069 4.55929e-08
-7.21693e-07 4.55929e-08 -8.17215e-05
0.000543695 -6.63712e-05 -1.7943e-06
-6.63712e-05 -4.38888e-07 6.27202e-06
-1.7943e-06 6.27202e-06 -3.30119e-05
0.000791089 0.000133766 5.45052e-06
0.000133766 0.000140922 5.16281e-06
5.45052e-06 5.16281e-06 -1.37095e-05
0.000682839 1.35367e-05 1.97909e-06
1.35367e-05 8.06626e-05 4.18399e-06
1.97909e-06 4.18399e-06 -8.37549e-06
0.00102989 0.000122599 1.49389e-06
0.000122599 0.000331495 -1.33254e-07
1.49389e-06 -1.33254e-07 0.000146598
0.00149821 0.00022391 4.08239e-06
0.00022391 0.000110711 3.3329e-07
4.08239e-06 3.3329e-07 -6.3583e-05
0.00131996 0.000264342 6.12703e-06
0.000264342 0.000108664 1.85898e-06
6.12703e-06 1.85898e-06 -9.2208e-05
0.00177921 0.000328425 1.27039e-06
0.000328425 0.000211684 -1.07923e-07
1.27039e-06 -1.07923e-07 1.66348e-05
0.00120422 0.000238491 4.23951e-06
0.000238491 0.000296863 3.32886e-06
4.23951e-06 3.32886e-06 7.87231e-05
0.00175028 0.000370471 -1.32353e-06
0.000370471 0.000342002 -6.71416e-07
-1.32353e-06 -6.71416e-07 0.000111712
0.00126991 0.000298358 8.21682e-07
0.000298358 0.000186789 -6.78916e-07
8.21682e-07 -6.78916e-07 -6.95357e-05
0.00147162 0.000337984 6.14837e-07
0.000337984 0.000156862 -3.24331e-08
6.14837e-07 -3.24331e-08 -8.09709e-05
0.000607085 1.3174e-05 2.54992e-06
1.3174e-05 1.90691e-05 2.4826e-06
2.54992e-06 2.4826e-06 -3.3982e-05
0.000522953 -4.28677e-05 7.77447e-07
-4.28677e-05 -3.94331e-05 4.84376e-06
7.77447e-07 4.84376e-06 -6.04232e-05
0.00245397 -0.000107641 2.88509e-05
-0.000107641 0.00115177 3.31534e-06
2.88509e-05 3.31534e-06 0.00115466
0.00252473 -0.000121994 3.7617e-06
-0.000121994 0.00120277 -4.06648e-07
3.7617e-06 -4.06648e-07 0.00120183
0.0026659 -0.000139493 -3.61006e-05
-0.000139493 0.00129613 -2.79368e-06
-3.61006e-05 -2.79368e-06 0.0012903
0.000432601 -1.36109e-05 5.98406e-06
-1.36109e-05 -7.15302e-05 -8.63385e-06
5.98406e-06 -8.63385e-06 -0.000115332
0.0035882 0.000133687 9.61677e-05
0.000133687 0.0018562 -5.30473e-06
9.61677e-05 -5.30473e-06 0.00184972
0.000505742 -2.7648e-05 -2.91598e-07
-2.7648e-05 -2.95879e-05 3.89511e-07
-2.91598e-07 3.89511e-07 -8.29754e-05
0.0042824 0.000139859 -7.09643e-06
0.000139859 0.00227562 -9.92935e-07
-7.09643e-06 -9.92935e-07 0.00226642
0.000574103 0.000100864 -1.92812e-05
0.000100864 -0.000111565 -6.57967e-06
-1.92812e-05 -6.57967e-06 -0.000197199
0.000584321 3.32807e-05 -1.84802e-05
3.32807e-05 -0.000113505 -3.32663e-06
-1.84802e-05 -3.32663e-06 -0.00018993
0.000987125 9.57794e-05 -1.20806e-05
9.57794e-05 -4.77579e-05 -2.80187e-06
-1.20806e-05 -2.80187e-06 -0.000183861
0.000974458 4.5084e-05 -1.23386e-05
4.5084e-05 -5.28144e-05 -1.42755e-06
-1.23386e-05 -1.42755e-06 -0.000178029
0.000599541 -6.84957e-06 -1.93852e-05
-6.84957e-06 -0.000106977 -7.60836e-07
-1.93852e-05 -7.60836e-07 -0.000176448
0.00557441 -9.46538e-05 -0.000253958
-9.46538e-05 0.0030095 3.93321e-06
-0.000253958 3.93321e-06 0.00301893
0.000585834 -7.39333e-07 1.28016e-07
-7.39333e-07 -0.000114028 -5.3018e-07
1.28016e-07 -5.3018e-07 -0.000183203
0.00098973 2.1692e-05 -5.22678e-08
2.1692e-05 -3.76636e-05 -6.06699e-08
-5.22678e-08 -6.06699e-08 -0.000160031
0.00101189 6.80099e-05 -1.01688e-07
6.80099e-05 -3.31308e-05 -1.06336e-07
-1.01688e-07 -1.06336e-07 -0.000162486
0.00151095 6.65616e-05 -6.24751e-08
6.65616e-05 5.99303e-05 1.13443e-07
-6.24751e-08 1.13443e-07 -6.59287e-05
0.00101734 0.000119018 -1.611e-07
0.000119018 -2.46028e-05 -2.21525e-07
-1.611e-07 -2.21525e-07 -0.000167079
0.00153294 0.000149253 -7.59518e-08
0.000149253 7.90315e-05 2.51745e-08
-7.59518e-08 2.51745e-08 -6.65019e-05
0.000984245 -1.0747e-06 1.22218e-05
-1.0747e-06 -3.56315e-05 -3.12054e-07
1.22218e-05 -3.12054e-07 -0.000157162
0.00150256 3.47775e-05 1.15655e-06
3.47775e-05 5.80324e-05 1.30773e-07
1.15655e-06 1.30773e-07 -6.35902e-05
0.00152871 0.000107321 1.12895e-06
0.000107321 6.90865e-05 -4.16601e-08
1.12895e-06 -4.16601e-08 -6.47202e-05
0.00184097 9.58669e-05 -1.92362e-06
9.58669e-05 0.00010659 -3.71639e-07
-1.92362e-06 -3.71639e-07 1.07247e-05
0.00154636 0.000190073 3.06146e-06
0.000190073 0.000102451 2.82297e-07
3.06146e-06 2.82297e-07 -5.65854e-05
0.00182833 0.000192424 -2.54023e-07
0.000192424 0.000124288 -1.46447e-06
-2.54023e-07 -1.46447e-06 -1.16217e-06
0.000567124 3.07981e-07 -1.8551e-05
3.07981e-07 -0.000118947 1.10793e-06
-1.8551e-05 1.10793e-06 -0.000191767
0.00171315 -2.75912e-05 -0.000104985
-2.75912e-05 0.000572166 4.37767e-06
-0.000104985 4.37767e-06 0.000512797
0.000805012 -2.70718e-05 -1.50456e-05
-2.70718e-05 -0.00014707 1.72049e-06
-1.50456e-05 1.72049e-06 -0.000271242
0.00195835 -0.000112864 -2.4994e-05
-0.000112864 0.000543365 3.96279e-06
-2.4994e-05 3.96279e-06 0.00041801
0.00504433 0.000137572 -0.00016782
0.000137572 0.00273254 1.28368e-05
-0.00016782 1.28368e-05 0.00271986
0.00276766 -0.000153683 -0.00010869
-0.000153683 0.00128326 1.50092e-05
-0.00010869 1.50092e-05 0.0012118
0.00193312 -0.000262685 -2.10498e-05
-0.000262685 0.00067592 9.03777e-06
-2.10498e-05 9.03777e-06 0.000500622
0.0017271 -0.000166926 -2.65932e-05
-0.000166926 0.000424354 6.80448e-06
-2.65932e-05 6.80448e-06 0.000285014
0.00153666 -0.000183458 -5.23164e-06
-0.000183458 0.000121056 8.81649e-07
-5.23164e-06 8.81649e-07 -3.14814e-05
0.0017157 -0.000250688 -6.39975e-06
-0.000250688 0.000297604 1.89591e-06
-6.39975e-06 1.89591e-06 0.000117955
0.00118494 -0.000266149 -7.2396e-06
-0.000266149 6.38011e-05 2.11036e-06
-7.2396e-06 2.11036e-06 -0.000143202
0.00168265 -0.000328524 -1.6764e-06
-0.000328524 0.000203391 -8.58604e-07
-1.6764e-06 -8.58604e-07 2.37018e-07
0.000659863 -6.59023e-05 -1.36556e-05
-6.59023e-05 5.1826e-05 1.2751e-05
-1.36556e-05 1.2751e-05 -1.31982e-05
0.000786787 -0.000101587 -1.09832e-06
-0.000101587 0.00014575 4.06734e-06
-1.09832e-06 4.06734e-06 5.63332e-06
0.000887007 -1.08684e-05 -1.80684e-07
-1.08684e-05 -9.39812e-05 -4.50918e-09
-1.80684e-07 -4.50918e-09 -0.000215767
0.00171579 -7.08775e-05 -6.4287e-06
-7.08775e-05 0.000395174 6.91466e-07
-6.4287e-06 6.91466e-07 0.000275589
0.00173249 -5.77122e-05 -1.6298e-06
-5.77122e-05 0.000206594 2.27761e-07
-1.6298e-06 2.27761e-07 8.38619e-05
0.00160822 -0.000148465 -8.35185e-07
-0.000148465 0.000152891 3.00052e-07
-8.35185e-07 3.00052e-07 9.40705e-06
0.000510482 -9.89668e-05 3.95413e-07
-9.89668e-05 -5.12487e-05 3.70377e-07
3.95413e-07 3.70377e-07 -0.000125266
0.000845748 -0.000190628 -7.95337e-07
-0.000190628 8.8744e-05 -5.83188e-07
-7.95337e-07 -5.83188e-07 -8.9659e-05
0.00106214 -0.00026303 2.72583e-06
-0.00026303 5.0332e-05 -8.31277e-07
2.72583e-06 -8.31277e-07 -0.000165808
0.00170749 -0.000224736 -2.97006e-06
-0.000224736 0.000258124 7.69978e-07
-2.97006e-06 7.69978e-07 9.09722e-05
0.00186108 -0.00023104 1.05761e-06
-0.00023104 0.000181329 -2.88639e-07
1.05761e-06 -2.88639e-07 4.32648e-05
0.00182826 -0.000376827 -1.47641e-06
-0.000376827 0.000337868 1.93554e-07
-1.47641e-06 1.93554e-07 0.000104087
0.00170132 -0.000301259 5.20062e-07
-0.000301259 0.000169777 -4.21914e-09
5.20062e-07 -4.21914e-09 -1.08521e-05
0.0018982 -0.000360031 7.81494e-07
-0.000360031 0.000264874 6.44309e-07
7.81494e-07 6.44309e-07 7.75569e-05
0.000740041 -0.000137316 -2.62075e-07
-0.000137316 0.000118649 -2.63619e-07
-2.62075e-07 -2.63619e-07 -4.27993e-05
0.000558909 -0.000117108 -4.99539e-07
-0.000117108 1.19562e-05 -5.14361e-07
-4.99539e-07 -5.14361e-07 -0.000174297
0.000680856 -5.3628e-05 -1.77744e-08
-5.3628e-05 8.17383e-05 1.09873e-07
-1.77744e-08 1.09873e-07 -3.42377e-05
0.00167111 -2.49331e-05 5.71034e-08
-2.49331e-05 0.00016935 8.83557e-08
5.71034e-08 8.83557e-08 4.76288e-05
0.00176214 -0.000100399 -2.25031e-07
-0.000100399 0.000227721 5.24811e-07
-2.25031e-07 5.24811e-07 9.92693e-05
0.00174194 -8.10684e-05 -1.65907e-06
-8.10684e-05 6.11859e-05 1.19337e-06
-1.65907e-06 1.19337e-06 -3.8563e-05
0.0017933 -0.00018658 -2.51939e-06
-0.00018658 0.000117073 1.32266e-06
-2.51939e-06 1.32266e-06 -6.46393e-06
0.0016691 -0.000271004 -1.97291e-07
-0.000271004 0.000111371 1.62482e-06
-1.97291e-07 1.62482e-06 -4.61569e-05
0.00189214 -0.000253676 -9.29216e-08
-0.000253676 0.000148363 7.2862e-07
-9.29216e-08 7.2862e-07 3.47096e-05
0.000741352 -0.000167786 4.04065e-06
-0.000167786 9.27469e-05 -6.0983e-06
4.04065e-06 -6.0983e-06 -8.15345e-05
0.00176297 -0.000327779 -1.68832e-06
-0.000327779 0.000138586 1.81665e-06
-1.68832e-06 1.81665e-06 -2.1995e-05
0.000999012 -0.0002489 4.73567e-06
-0.0002489 0.000102846 -5.46074e-06
4.73567e-06 -5.46074e-06 -0.000116404
0.00143453 -0.000372618 3.88789e-06
-0.000372618 0.000199605 -1.21568e-06
3.88789e-06 -1.21568e-06 -6.18419e-05
0.00193181 -0.000411934 1.52979e-06
-0.000411934 0.000340163 3.25803e-06
1.52979e-06 3.25803e-06 0.000106896
0.00204221 -0.000382637 -2.84532e-06
-0.000382637 0.000332482 3.49098e-06
-2.84532e-06 3.49098e-06 0.000159705
0.000632995 -3.58088e-05 2.75844e-07
-3.58088e-05 6.09196e-05 -4.02185e-06
2.75844e-07 -4.02185e-06 -3.90917e-05
0.000754764 -0.0001763 -1.11896e-07
-0.0001763 9.51674e-05 -2.48435e-08
-1.11896e-07 -2.48435e-08 -9.13515e-05
0.000487093 -0.000101619 -1.07244e-06
-0.000101619 4.71002e-06 1.77388e-06
-1.07244e-06 1.77388e-06 -0.000182276
0.00140646 -0.000249028 -3.63305e-06
-0.000249028 0.000491535 2.7442e-06
-3.63305e-06 2.7442e-06 0.000280699
0.000974199 0.000142281 -1.39083e-05
0.000142281 -3.39359e-05 -4.8595e-06
-1.39083e-05 -4.8595e-06 -0.00018398
0.000417656 -6.47493e-05 1.97736e-06
-6.47493e-05 -6.65317e-05 -7.18123e-06
1.97736e-06 -7.18123e-06 -0.000106041
0.000348969 1.13735e-05 -7.07224e-06
1.13735e-05 -0.000125775 -1.11522e-05
-7.07224e-06 -1.11522e-05 -0.000181259
0.000502544 1.19086e-06 -2.76891e-07
1.19086e-06 -1.99638e-05 -4.95016e-06
-2.76891e-07 -4.95016e-06 -0.000132496
0.000937718 0.000176872 -1.38071e-05
0.000176872 1.28213e-06 -6.84468e-06
-1.38071e-05 -6.84468e-06 -0.000160398
0.00142883 0.000251686 -5.3326e-06
0.000251686 0.000118243 -1.36852e-06
-5.3326e-06 -1.36852e-06 -7.19177e-05
0.000713206 0.000157105 -5.18039e-06
0.000157105 6.92724e-05 -5.15491e-06
-5.18039e-06 -5.15491e-06 -0.000104291
0.00111218 0.000254747 -6.54389e-06
0.000254747 0.000159785 -4.05183e-06
-6.54389e-06 -4.05183e-06 -6.61391e-05
0.00132429 0.000261995 -5.57292e-06
0.000261995 0.000178773 -2.31957e-06
-5.57292e-06 -2.31957e-06 -2.68206e-05
0.00120987 0.000302712 -3.08215e-06
0.000302712 9.54212e-05 -2.02468e-07
-3.08215e-06 -2.02468e-07 -0.000136957
0.000497313 -6.53599e-05 -5.84478e-07
-6.53599e-05 -2.94541e-05 2.97524e-07
-5.84478e-07 2.97524e-07 -6.13401e-05
0.000751 0.000129215 3.97123e-07
0.000129215 0.000127124 -5.4025e-07
3.97123e-07 -5.4025e-07 -2.98311e-05
0.000620754 -7.10724e-06 -1.29291e-07
-7.10724e-06 4.63758e-05 5.69786e-07
-1.29291e-07 5.69786e-07 -4.13513e-05
0.00076884 0.000100912 1.25309e-06
0.000100912 0.000172678 -7.65067e-07
1.25309e-06 -7.65067e-07 -7.20321e-06
0.00149126 0.000223376 -1.58532e-07
0.000223376 0.000107383 -4.82114e-07
-1.58532e-07 -4.82114e-07 -6.72018e-05
0.00132814 0.000264009 1.81698e-07
0.000264009 0.000117942 -4.59323e-08
1.81698e-07 -4.59323e-08 -8.30441e-05
0.00175142 0.000326408 2.6974e-07
0.000326408 0.000195493 1.7032e-07
2.6974e-07 1.7032e-07 5.10925e-07
0.00105527 0.000229752 1.70193e-06
0.000229752 0.000210911 4.39201e-08
1.70193e-06 4.39201e-08 -5.73074e-06
0.00175282 0.000364961 -9.74216e-07
0.000364961 0.000344565 -8.33088e-08
-9.74216e-07 -8.33088e-08 0.000115268
0.00125237 0.000298797 -2.16346e-08
0.000298797 0.000172608 -1.33603e-06
-2.16346e-08 -1.33603e-06 -8.45631e-05
0.00156627 0.000343703 -3.74695e-06
0.000343703 0.000213496 8.88528e-07
-3.74695e-06 8.88528e-07 -2.31187e-05
0.000515868 -5.66669e-05 -4.81498e-07
-5.66669e-05 -3.24282e-05 5.34553e-06
-4.81498e-07 5.34553e-06 -5.81276e-05
0.000669855 -3.64765e-06 1.55189e-06
-3.64765e-06 6.50622e-05 3.68282e-06
1.55189e-06 3.68282e-06 -5.71714e-06
0.00104503 0.000200806 9.48981e-07
0.000200806 0.000279618 1.98022e-06
9.48981e-07 1.98022e-06 8.60833e-05
0.00117831 7.67425e-05 -8.8753e-07
7.67425e-05 0.000429364 2.32673e-06
-8.8753e-07 2.32673e-06 0.000270983
0.00114785 0.00019262 -8.19059e-07
0.00019262 0.000373475 -2.17307e-06
-8.19059e-07 -2.17307e-06 0.000175301
0.00182581 0.000289235 8.55885e-07
0.000289235 0.000189973 -1.59084e-06
8.55885e-07 -1.59084e-06 1.92871e-05
0.00169417 0.00035855 6.9098e-07
0.00035855 0.000229766 -1.43814e-09
6.9098e-07 -1.43814e-09 1.22443e-05
0.00185784 0.000362991 1.06656e-07
0.000362991 0.00022301 -1.62969e-07
1.06656e-07 -1.62969e-07 3.50567e-05
0.00122857 0.000295517 3.37882e-06
0.000295517 0.000252972 4.03451e-06
3.37882e-06 4.03451e-06 -6.97337e-07
0.00200151 0.000434561 5.7844e-07
0.000434561 0.000424056 -5.83238e-07
5.7844e-07 -5.83238e-07 0.000183759
0.000868732 0.000289394 4.92722e-06
0.000289394 -0.00011661 -1.56813e-06
4.92722e-06 -1.56813e-06 -0.000374186
0.000606292 7.76115e-06 2.82269e-06
7.76115e-06 1.85339e-05 2.54255e-06
2.82269e-06 2.54255e-06 -3.64064e-05
0.000677937 5.32196e-05 1.945e-07
5.32196e-05 9.14283e-05 1.27439e-06
1.945e-07 1.27439e-06 8.79884e-08
0.000625643 2.349e-05 2.3649e-06
2.349e-05 3.48184e-05 2.51641e-06
2.3649e-06 2.51641e-06 -1.82186e-05
0.00059114 -1.22277e-05 -5.59786e-07
-1.22277e-05 1.17093e-05 -4.16746e-09
-5.59786e-07 -4.16746e-09 -4.2295e-05
0.00124392 -5.05554e-05 1.11993e-06
-5.05554e-05 0.000391314 2.77911e-06
1.11993e-06 2.77911e-06 0.000376332
0.000907395 -5.07177e-05 4.88033e-07
-5.07177e-05 0.000192608 -1.00821e-07
4.88033e-07 -1.00821e-07 0.00017355
0.000890558 -5.29105e-05 2.38595e-05
-5.29105e-05 0.000194222 7.6617e-06
2.38595e-05 7.6617e-06 0.000194844
0.00241816 -0.000105057 4.18327e-06
-0.000105057 0.00112914 -3.76781e-07
4.18327e-06 -3.76781e-07 0.00113257
0.00245695 -0.000118061 -3.35268e-05
-0.000118061 0.00116129 -3.03235e-06
-3.35268e-05 -3.03235e-06 0.00116125
0.000437479 1.02135e-05 1.90003e-06
1.02135e-05 -6.61697e-05 -6.89532e-06
1.90003e-06 -6.89532e-06 -0.000102081
0.00323731 0.000135587 6.47529e-05
0.000135587 0.00163854 -3.50642e-06
6.47529e-05 -3.50642e-06 0.00163238
0.000525361 -1.41633e-05 -5.38856e-07
-1.41633e-05 -1.66573e-05 1.73022e-07
-5.38856e-07 1.73022e-07 -6.12744e-05
0.00377559 0.000123776 -6.50442e-06
0.000123776 0.0019658 -6.12604e-07
-6.50442e-06 -6.12604e-07 0.00196161
0.000658581 -3.06927e-05 -8.60507e-06
-3.06927e-05 5.88062e-05 1.06879e-05
-8.60507e-06 1.06879e-05 4.46458e-06
0.00441896 0.000123686 -0.000145848
0.000123686 0.00235192 9.85193e-06
-0.000145848 9.85193e-06 0.00234621
0.00098645 0.000120498 -1.28474e-05
0.000120498 -4.14875e-05 -3.71653e-06
-1.28474e-05 -3.71653e-06 -0.000184777
0.000985207 7.15962e-05 -1.2104e-05
7.15962e-05 -4.91398e-05 -2.10197e-06
-1.2104e-05 -2.10197e-06 -0.000179176
0.0015329 0.00014631 -2.95698e-06
0.00014631 7.98983e-05 -1.68565e-07
-2.95698e-06 -1.68565e-07 -6.56525e-05
0.00150325 6.55906e-05 -1.3179e-06
6.55906e-05 5.78347e-05 2.03449e-07
-1.3179e-06 2.03449e-07 -6.81399e-05
0.000983362 2.56256e-05 -1.23113e-05
2.56256e-05 -4.23985e-05 -7.12141e-07
-1.23113e-05 -7.12141e-07 -0.000165008
0.000550371 2.80143e-05 -1.91833e-05
2.80143e-05 -0.000135422 -2.08679e-07
-1.91833e-05 -2.08679e-07 -0.000204126
0.000983399 1.61159e-06 -5.89706e-09
1.61159e-06 -3.70247e-05 -1.41598e-07
-5.89706e-09 -1.41598e-07 -0.000158596
0.00149934 3.60912e-05 -7.02512e-08
3.60912e-05 5.70572e-05 6.66396e-08
-7.02512e-08 6.66396e-08 -6.46958e-05
0.00152787 0.000104705 -3.48869e-09
0.000104705 7.07018e-05 -4.0318e-09
-3.48869e-09 -4.0318e-09 -6.3087e-05
0.0018131 9.40573e-05 1.44449e-07
9.40573e-05 8.43616e-05 3.12632e-07
1.44449e-07 3.12632e-07 -8.57304e-06
0.0015314 0.000188878 -2.61573e-07
0.000188878 9.64447e-05 -7.15116e-08
-2.61573e-07 -7.15116e-08 -6.27676e-05
0.00182816 0.000190305 -3.84647e-07
0.000190305 0.000127994 1.4176e-08
-3.84647e-07 1.4176e-08 2.598e-06
0.00149174 4.09686e-06 1.37842e-06
4.09686e-06 5.54924e-05 3.53574e-08
1.37842e-06 3.53574e-08 -6.51081e-05
0.00183194 4.81779e-05 -3.33308e-06
4.81779e-05 0.000102213 -6.33458e-08
-3.33308e-06 -6.33458e-08 1.84883e-05
0.00184366 0.000147333 -1.31694e-06
0.000147333 0.000113114 -9.20528e-07
-1.31694e-06 -9.20528e-07 4.99423e-06
0.00182188 9.54617e-05 4.49277e-06
9.54617e-05 4.05792e-05 7.72799e-07
4.49277e-06 7.72799e-07 -2.59069e-05
0.00184914 0.000241294 1.76918e-07
0.000241294 0.000171418 -1.32864e-06
1.76918e-07 -1.32864e-06 2.48847e-05
0.00178447 0.000211252 6.70845e-07
0.000211252 3.69706e-05 -1.06823e-06
6.70845e-07 -1.06823e-06 -6.1465e-05
0.000792346 -7.42061e-06 -1.21782e-05
-7.42061e-06 -0.000151502 6.96977e-07
-1.21782e-05 6.96977e-07 -0.000273464
0.00174816 -7.33332e-05 -2.45267e-05
-7.33332e-05 0.000413277 2.93911e-06
-2.45267e-05 2.93911e-06 0.000293731
0.00179912 -5.21012e-05 -4.6864e-06
-5.21012e-05 0.000242799 -5.08079e-08
-4.6864e-06 -5.08079e-08 0.000123599
0.00167265 -0.000148912 -3.80296e-06
-0.000148912 0.000193417 9.36864e-07
-3.80296e-06 9.36864e-07 4.8191e-05
0.000733157 -0.000118034 -1.90872e-05
-0.000118034 7.9802e-05 1.50634e-05
-1.90872e-05 1.50634e-05 1.98425e-06
0.000729216 -0.000190294 -9.08399e-06
-0.000190294 2.16269e-05 6.80194e-06
-9.08399e-06 6.80194e-06 -0.000156557
0.00112504 -0.000268216 -5.14302e-06
-0.000268216 8.86931e-05 2.65202e-06
-5.14302e-06 2.65202e-06 -0.000127743
0.00172342 -0.000223326 -7.68111e-06
-0.000223326 0.000267252 2.17289e-06
-7.68111e-06 2.17289e-06 9.89292e-05
0.00191266 -0.000235341 6.07408e-07
-0.000235341 0.000205537 -1.31753e-06
6.07408e-07 -1.31753e-06 7.14563e-05
0.0017215 -0.000301955 -8.46214e-07
-0.000301955 0.000183052 -6.84192e-07
-8.46214e-07 -6.84192e-07 2.7175e-06
0.00184797 -0.000382773 -4.26072e-06
-0.000382773 0.000352188 -8.86554e-07
-4.26072e-06 -8.86554e-07 0.0001172
0.00182652 -0.000356479 3.03492e-06
-0.000356479 0.00021547 -2.55368e-06
3.03492e-06 -2.55368e-06 2.84797e-05
0.000722852 -0.000138576 -3.34378e-06
-0.000138576 0.000100452 5.36047e-06
-3.34378e-06 5.36047e-06 -5.84628e-05
0.000437864 -0.000100719 1.61336e-07
-0.000100719 -5.98758e-05 -1.47486e-06
1.61336e-07 -1.47486e-06 -0.000244448
0.000647394 -6.31967e-05 -1.27863e-06
-6.31967e-05 6.13001e-05 3.75551e-06
-1.27863e-06 3.75551e-06 -5.71858e-05
0.00160251 -2.24367e-05 -1.84183e-06
-2.24367e-05 0.000126689 1.52326e-07
-1.84183e-06 1.52326e-07 5.13232e-06
0.00176015 -0.000108385 -2.90214e-06
-0.000108385 0.000225356 4.35607e-07
-2.90214e-06 4.35607e-07 9.59023e-05
0.00179803 -7.84932e-05 2.01427e-06
-7.84932e-05 9.52533e-05 5.14406e-07
2.01427e-06 5.14406e-07 1.29434e-06
0.00177879 -0.000182191 -1.85354e-06
-0.000182191 0.000107723 6.05336e-07
-1.85354e-06 6.05336e-07 -1.72128e-05
0.000779434 -0.000178117 3.17306e-07
-0.000178117 0.000117344 -2.1314e-08
3.17306e-07 -2.1314e-08 -5.91395e-05
0.00112786 -0.000262507 -1.47717e-06
-0.000262507 0.000173115 -6.6453e-07
-1.47717e-06 -6.6453e-07 -4.83087e-05
0.00146953 -0.000370609 2.27197e-06
-0.000370609 0.000230671 -8.3949e-08
2.27197e-06 -8.3949e-08 -2.99439e-05
0.00166933 -0.000269484 -1.11878e-06
-0.000269484 0.000114254 6.8215e-07
-1.11878e-06 6.8215e-07 -4.69935e-05
0.00191422 -0.000255424 1.77786e-06
-0.000255424 0.000159391 -2.08766e-07
1.77786e-06 -2.08766e-07 4.96774e-05
0.00184628 -0.000412664 -6.22131e-07
-0.000412664 0.000284478 4.26669e-07
-6.22131e-07 4.26669e-07 4.85201e-05
0.0017897 -0.00032831 9.52201e-08
-0.00032831 0.000154573 3.91742e-07
9.52201e-08 3.91742e-07 -5.87348e-06
0.00206279 -0.000378281 1.97927e-06
-0.000378281 0.00034179 -2.77476e-07
1.97927e-06 -2.77476e-07 0.000173027
0.00100641 -0.000205961 4.04516e-07
-0.000205961 0.000247378 8.1091e-07
4.04516e-07 8.1091e-07 5.30244e-05
0.00116084 -0.000235126 -3.18432e-07
-0.000235126 0.000351029 2.98047e-07
-3.18432e-07 2.98047e-07 0.000139003
0.000616961 -4.2682e-05 -1.24087e-07
-4.2682e-05 4.90274e-05 1.5506e-07
-1.24087e-07 1.5506e-07 -5.1383e-05
0.000344825 -5.15783e-05 -1.5896e-07
-5.15783e-05 -9.35553e-05 -7.62758e-07
-1.5896e-07 -7.62758e-07 -0.000266107
0.00181274 -4.27532e-05 -2.33023e-06
-4.27532e-05 0.000100783 3.38364e-07
-2.33023e-06 3.38364e-07 1.09832e-05
0.00183925 -0.000129301 -2.84335e-07
-0.000129301 0.000124345 1.3581e-06
-2.84335e-07 1.3581e-06 1.63527e-05
0.00171557 -8.6545e-05 3.2671e-06
-8.6545e-05 3.0073e-06 -3.58478e-07
3.2671e-06 -3.58478e-07 -6.7734e-05
0.00184765 -0.000208377 -2.4848e-06
-0.000208377 7.67176e-05 5.72667e-07
-2.4848e-06 5.72667e-07 -1.12416e-05
0.00174386 -0.000291406 -2.91725e-06
-0.000291406 9.42957e-05 2.27221e-06
-2.91725e-06 2.27221e-06 -3.88067e-05
0.00196576 -0.000264679 3.71403e-06
-0.000264679 0.000176294 -1.33058e-06
3.71403e-06 -1.33058e-06 7.80598e-05
0.000947193 -0.000230606 1.03017e-06
-0.000230606 0.000151391 -4.67995e-06
1.03017e-06 -4.67995e-06 -5.74335e-05
0.0016816 -0.000338473 -4.0984e-06
-0.000338473 7.19154e-05 2.00807e-06
-4.0984e-06 2.00807e-06 -6.59821e-05
0.00146398 -0.000353524 3.10301e-06
-0.000353524 0.000330592 -3.2929e-06
3.10301e-06 -3.2929e-06 6.58376e-05
0.00172067 -0.000450374 -1.71312e-06
-0.000450374 0.000310673 1.79721e-06
-1.71312e-06 1.79721e-06 2.40096e-05
0.00178789 -0.000419057 2.29812e-06
-0.000419057 0.000204495 4.87586e-06
2.29812e-06 4.87586e-06 -2.57149e-05
0.00213219 -0.000373137 4.20264e-07
-0.000373137 0.00036933 3.51128e-07
4.20264e-07 3.51128e-07 0.000206115
0.00051528 -4.2606e-05 5.7091e-07
-4.2606e-05 -9.99225e-06 -3.65681e-06
5.7091e-07 -3.65681e-06 -9.56487e-05
0.000478421 -5.31948e-05 -2.71194e-06
-5.31948e-05 -8.76396e-07 -7.73207e-07
-2.71194e-06 -7.73207e-07 -0.000154876
0.000915926 -0.000234627 -1.92122e-06
-0.000234627 0.000154508 5.02292e-07
-1.92122e-06 5.02292e-07 -5.42612e-05
0.00081982 -0.000164907 -6.87055e-07
-0.000164907 0.000208184 3.92342e-06
-6.87055e-07 3.92342e-06 -2.10431e-07
0.0014939 -0.000290194 -6.12498e-06
-0.000290194 0.000531445 4.15995e-06
-6.12498e-06 4.15995e-06 0.000315385
0.000451185 -6.282e-05 -2.74391e-07
-6.282e-05 -5.87951e-05 -5.39002e-06
-2.74391e-07 -5.39002e-06 -8.95305e-05
0.0014822 0.000222563 -4.41237e-06
0.000222563 0.00010333 -1.23812e-06
-4.41237e-06 -1.23812e-06 -7.15084e-05
0.000521366 -2.56325e-05 -3.00754e-07
-2.56325e-05 -9.30336e-06 -3.80361e-06
-3.00754e-07 -3.80361e-06 -9.65732e-05
0.000704865 0.000103903 -1.70337e-06
0.000103903 9.53863e-05 -5.17667e-06
-1.70337e-06 -5.17667e-06 -5.43516e-05
0.00045761 7.91317e-05 1.24393e-06
7.91317e-05 -1.73314e-05 -8.03452e-08
1.24393e-06 -8.03452e-08 -0.000191647
0.00133356 0.000263682 -5.95351e-06
0.000263682 0.000125112 -1.92621e-06
-5.95351e-06 -1.92621e-06 -7.6036e-05
0.00172285 0.000324487 -1.57388e-08
0.000324487 0.000178297 6.18397e-07
-1.57388e-08 6.18397e-07 -1.66594e-05
0.000969269 0.000229764 -1.92106e-06
0.000229764 0.000161461 -4.10822e-06
-1.92106e-06 -4.10822e-06 -5.68868e-05
0.00140231 0.000316986 -2.79641e-06
0.000316986 0.000255575 -1.67129e-06
-2.79641e-06 -1.67129e-06 -6.00299e-06
0.00174222 0.000358598 -1.35475e-06
0.000358598 0.000338375 6.8497e-08
-1.35475e-06 6.8497e-08 0.000110208
0.00167518 0.000352579 -3.74324e-06
0.000352579 0.000278701 5.25294e-06
-3.74324e-06 5.25294e-06 4.23814e-05
0.000523237 -5.08645e-05 3.2729e-09
-5.08645e-05 -3.09424e-05 4.9948e-09
3.2729e-09 4.9948e-09 -5.50684e-05
0.000625603 -1.30671e-05 -6.68938e-07
-1.30671e-05 4.20781e-05 3.87423e-07
-6.68938e-07 3.87423e-07 -2.88247e-05
0.000979634 0.000198576 -1.35114e-07
0.000198576 0.000241335 1.03269e-06
-1.35114e-07 1.03269e-06 4.80448e-05
0.000677012 3.32414e-05 -4.89915e-07
3.32414e-05 0.000119762 -6.94457e-08
-4.89915e-07 -6.94457e-08 -2.66856e-05
0.000631018 0.000133221 6.94494e-07
0.000133221 5.33516e-05 -4.64399e-07
6.94494e-07 -4.64399e-07 -0.000130658
0.00180001 0.000289263 -4.6314e-07
0.000289263 0.000171961 -1.00193e-06
-4.6314e-07 -1.00193e-06 8.61084e-07
0.00166809 0.000357548 5.35134e-07
0.000357548 0.000211519 1.39262e-07
5.35134e-07 1.39262e-07 -6.21701e-06
0.00178021 0.000359285 1.73625e-06
0.000359285 0.000179091 2.38974e-07
1.73625e-06 2.38974e-07 -9.13424e-06
0.00127184 0.000297906 1.54821e-06
0.000297906 0.00028814 6.01459e-07
1.54821e-06 6.01459e-07 3.25871e-05
0.00186646 0.000421865 1.26182e-06
0.000421865 0.000325902 1.20574e-07
1.26182e-06 1.20574e-07 8.62016e-05
0.00147481 0.000342842 -1.65228e-06
0.000342842 0.000244456 2.66072e-07
-1.65228e-06 2.66072e-07 -2.05178e-05
0.000681025 1.11453e-06 2.10161e-06
1.11453e-06 6.51637e-05 2.76724e-06
2.10161e-06 2.76724e-06 5.25074e-06
0.000975716 7.61828e-05 7.94118e-07
7.61828e-05 0.000287298 2.65198e-06
7.94118e-07 2.65198e-06 0.000168126
0.00117664 0.000262301 -3.48715e-06
0.000262301 0.000307672 -1.08034e-06
-3.48715e-06 -1.08034e-06 9.78473e-05
0.00136594 0.000103232 -1.80977e-07
0.000103232 0.000538635 3.1927e-07
-1.80977e-07 3.1927e-07 0.000356583
0.00115859 0.000160217 -6.01013e-06
0.000160217 0.000317804 -6.52751e-06
-6.01013e-06 -6.52751e-06 0.000149975
0.00181746 0.00029978 -2.66541e-06
0.00029978 0.000151848 -2.5512e-06
-2.66541e-06 -2.5512e-06 -1.69764e-06
0.00184736 0.000412695 1.07984e-06
0.000412695 0.000263456 3.0922e-07
1.07984e-06 3.0922e-07 4.3198e-05
0.00158704 0.00038313 3.68729e-06
0.00038313 3.801e-05 -5.34329e-07
3.68729e-06 -5.34329e-07 -0.000148416
0.000681288 0.00026214 -1.53205e-06
0.00026214 -5.49791e-05 2.6632e-06
-1.53205e-06 2.6632e-06 -0.000315148
0.00139387 0.000381824 6.86614e-06
0.000381824 0.000119667 -1.3908e-06
6.86614e-06 -1.3908e-06 -0.000136523
0.000612208 4.40725e-07 -1.90623e-07
4.40725e-07 2.09855e-05 3.30138e-08
-1.90623e-07 3.30138e-08 -3.34232e-05
0.000538162 2.95361e-05 1.5273e-06
2.95361e-05 -3.70087e-06 1.83091e-06
1.5273e-06 1.83091e-06 -8.90937e-05
0.000528882 2.18374e-05 -6.01868e-07
2.18374e-05 -6.22162e-06 -1.2854e-07
-6.01868e-07 -1.2854e-07 -9.05395e-05
0.000939447 0.000103511 3.44217e-07
0.000103511 0.000252549 -6.35279e-07
3.44217e-07 -6.35279e-07 0.000145868
0.000673284 7.94532e-05 2.05616e-06
7.94532e-05 9.09004e-05 1.68659e-06
2.05616e-06 1.68659e-06 5.2538e-07
0.000597573 3.55449e-05 2.46354e-06
3.55449e-05 2.43038e-05 2.59788e-06
2.46354e-06 2.59788e-06 -2.99921e-05
0.000595203 -4.30545e-06 -6.17213e-07
-4.30545e-06 1.76312e-05 -1.93952e-08
-6.17213e-07 -1.93952e-08 -3.57121e-05
0.00124534 -3.73645e-05 9.70545e-07
-3.73645e-05 0.000389342 2.64027e-06
9.70545e-07 2.64027e-06 0.000376215
0.000602587 -9.17343e-06 -1.56541e-06
-9.17343e-06 1.63941e-05 -2.5443e-06
-1.56541e-06 -2.5443e-06 -3.60356e-05
0.00129953 -4.72825e-05 -5.63788e-06
-4.72825e-05 0.000424595 -1.42676e-06
-5.63788e-06 -1.42676e-06 0.000410124
0.00085045 -4.10144e-05 2.41368e-05
-4.10144e-05 0.000161616 7.77355e-06
2.41368e-05 7.77355e-06 0.000165601
0.00131862 -5.65311e-05 -9.84471e-06
-5.65311e-05 0.000441598 -3.98852e-06
-9.84471e-06 -3.98852e-06 0.000424865
0.00159561 -7.04341e-05 2.15951e-05
-7.04341e-05 0.000621849 1.88105e-06
2.15951e-05 1.88105e-06 0.000625751
0.00236517 -0.000101763 -2.95485e-05
-0.000101763 0.00109588 -3.60656e-06
-2.95485e-05 -3.60656e-06 0.00110001
0.00043766 6.86366e-05 -3.08112e-06
6.86366e-05 -5.93725e-05 -5.59426e-06
-3.08112e-06 -5.59426e-06 -9.37844e-05
0.000495155 1.24998e-05 4.33583e-07
1.24998e-05 -3.00085e-05 4.00904e-07
4.33583e-07 4.00904e-07 -6.79487e-05
0.00279857 0.000129371 3.16519e-05
0.000129371 0.00136986 -3.66463e-06
3.16519e-05 -3.66463e-06 0.00136536
0.00333525 0.000111299 -7.65837e-06
0.000111299 0.00169459 -5.10126e-07
-7.65837e-06 -5.10126e-07 0.00169427
0.000614273 -1.61557e-05 -6.84888e-06
-1.61557e-05 3.57399e-05 8.72738e-06
-6.84888e-06 8.72738e-06 -9.62762e-06
0.00392326 0.000106508 -0.000128319
0.000106508 0.00204932 8.03098e-06
-0.000128319 8.03098e-06 0.0020491
0.001517 0.000188037 -3.7218e-06
0.000188037 9.0051e-05 -4.07092e-07
-3.7218e-06 -4.07092e-07 -6.94073e-05
0.00151129 0.000104923 -1.81828e-06
0.000104923 6.22155e-05 9.13933e-09
-1.81828e-06 9.13933e-09 -7.20249e-05
0.00182054 0.000189267 -5.72266e-07
0.000189267 0.000126594 1.46723e-06
-5.72266e-07 1.46723e-06 1.05067e-06
0.00179971 9.25345e-05 9.96601e-07
9.25345e-05 7.0146e-05 7.02409e-07
9.96601e-07 7.02409e-07 -1.96122e-05
0.00149077 3.87619e-05 -1.27083e-06
3.87619e-05 5.35998e-05 3.68053e-08
-1.27083e-06 3.68053e-08 -6.83415e-05
0.00098866 6.23904e-06 -1.20862e-05
6.23904e-06 -3.45673e-05 -7.7508e-08
-1.20862e-05 -7.7508e-08 -0.000156105
0.0014889 7.70779e-06 6.88165e-08
7.70779e-06 5.57765e-05 3.44374e-08
6.88165e-08 3.44374e-08 -6.49047e-05
0.0018199 3.96213e-05 -2.06246e-06
3.96213e-05 9.47925e-05 -7.35326e-08
-2.06246e-06 -7.35326e-08 1.15278e-05
0.00183491 0.000145747 -3.39634e-07
0.000145747 0.000107429 2.62735e-07
-3.39634e-07 2.62735e-07 -5.696e-07
0.00182301 9.36715e-05 2.43025e-06
9.36715e-05 3.8181e-05 6.15282e-07
2.43025e-06 6.15282e-07 -2.30841e-05
0.00182025 0.000241818 -2.86384e-07
0.000241818 0.000149325 -1.46757e-07
-2.86384e-07 -1.46757e-07 2.13298e-06
0.00181561 0.000207879 -3.97791e-07
0.000207879 5.50862e-05 7.22687e-07
-3.97791e-07 7.22687e-07 -3.97074e-05
0.00179379 8.14137e-07 -2.4063e-06
8.14137e-07 8.79917e-05 1.01726e-07
-2.4063e-06 1.01726e-07 5.17284e-06
0.00179936 4.30996e-05 4.90772e-06
4.30996e-05 3.42061e-05 2.40341e-07
4.90772e-06 2.40341e-07 -2.09399e-05
0.00185268 0.00015243 1.15552e-06
0.00015243 5.61111e-05 -6.73976e-08
1.15552e-06 -6.73976e-08 -1.71666e-05
0.0019048 9.86825e-05 6.42689e-06
9.86825e-05 6.31096e-05 9.9356e-07
6.42689e-06 9.9356e-07 1.81842e-05
0.0018116 0.000240868 2.9023e-07
0.000240868 0.000101158 -2.07005e-06
2.9023e-07 -2.07005e-06 -1.92625e-05
0.00184474 0.000214306 4.20233e-06
0.000214306 3.46526e-05 1.13302e-06
4.20233e-06 1.13302e-06 -4.46749e-05
0.00152245 -2.01005e-05 -3.184e-06
-2.01005e-05 7.7704e-05 -1.28867e-08
-3.184e-06 -1.28867e-08 -4.36992e-05
0.00177098 -0.000113861 -5.67343e-06
-0.000113861 0.000230463 6.22016e-07
-5.67343e-06 6.22016e-07 0.000100297
0.00183477 -7.70264e-05 3.14425e-06
-7.70264e-05 0.000118151 -1.43746e-06
3.14425e-06 -1.43746e-06 2.98242e-05
0.00175338 -0.000178085 -3.79598e-07
-0.000178085 9.23282e-05 -9.91676e-08
-3.79598e-07 -9.91676e-08 -3.40946e-05
0.000818327 -0.000202017 -5.91409e-06
-0.000202017 0.000143707 7.64017e-06
-5.91409e-06 7.64017e-06 -3.70621e-05
0.00125677 -0.000276083 -7.13056e-06
-0.000276083 0.000242879 3.78164e-06
-7.13056e-06 3.78164e-06 1.9309e-05
0.00133369 -0.000353134 -2.99576e-08
-0.000353134 0.000159954 9.16047e-07
-2.99576e-08 9.16047e-07 -9.7929e-05
0.00167388 -0.000268185 -1.1075e-06
-0.000268185 0.000119685 1.15312e-07
-1.1075e-06 1.15312e-07 -4.53152e-05
0.00194108 -0.000256869 1.97322e-06
-0.000256869 0.000174219 -1.58399e-06
1.97322e-06 -1.58399e-06 6.84866e-05
0.00181921 -0.000329056 2.08799e-06
-0.000329056 0.000172105 -1.00924e-06
2.08799e-06 -1.00924e-06 1.17651e-05
0.00178079 -0.000416167 -7.63063e-07
-0.000416167 0.000240168 -1.95205e-06
-7.63063e-07 -1.95205e-06 8.61316e-07
0.00206758 -0.000373332 5.61802e-06
-0.000373332 0.000343161 -6.093e-06
5.61802e-06 -6.093e-06 0.000178388
0.000973335 -0.000206256 7.38251e-07
-0.000206256 0.000228147 1.81595e-06
7.38251e-07 1.81595e-06 3.27487e-05
0.000512798 -0.000161019 1.48197e-06
-0.000161019 -4.59622e-05 -6.04797e-07
1.48197e-06 -6.04797e-07 -0.00024279
0.000718589 -5.0452e-05 -9.88937e-07
-5.0452e-05 0.000106867 3.7441e-06
-9.88937e-07 3.7441e-06 6.13208e-06
0.00017726 -2.24051e-05 1.57531e-06
-2.24051e-05 -0.000200896 -2.99802e-06
1.57531e-06 -2.99802e-06 -0.000362201
0.00181387 -4.27618e-05 2.62168e-08
-4.27618e-05 0.000102965 1.79509e-07
2.62168e-08 1.79509e-07 1.30638e-05
0.00179709 -0.000128891 8.92372e-07
-0.000128891 0.000102591 -3.62977e-07
8.92372e-07 -3.62977e-07 -7.69663e-06
0.00175424 -8.52442e-05 2.4826e-06
-8.52442e-05 2.60382e-05 -5.75976e-07
2.4826e-06 -5.75976e-07 -4.01147e-05
0.0018197 -0.0002053 -1.98728e-06
-0.0002053 6.52889e-05 6.50953e-07
-1.98728e-06 6.50953e-07 -2.48598e-05
0.00100347 -0.000228169 -1.32083e-06
-0.000228169 0.000189602 4.86078e-07
-1.32083e-06 4.86078e-07 -1.87554e-05
0.00110397 -0.000313006 2.08081e-06
-0.000313006 0.000117004 -1.65996e-06
2.08081e-06 -1.65996e-06 -0.000138102
0.00163652 -0.000449139 -5.83418e-08
-0.000449139 0.000258921 8.18555e-07
-5.83418e-08 8.18555e-07 -3.11527e-05
0.00172303 -0.000288586 -1.56731e-06
-0.000288586 8.87207e-05 7.89758e-07
-1.56731e-06 7.89758e-07 -4.80542e-05
0.00187713 -0.000262178 1.8014e-06
-0.000262178 0.000123549 -9.06127e-07
1.8014e-06 -9.06127e-07 2.89789e-05
0.00177709 -0.000421707 -4.38742e-07
-0.000421707 0.000205992 5.9976e-07
-4.38742e-07 5.9976e-07 -2.60998e-05
0.00173689 -0.000342303 -7.12759e-07
-0.000342303 9.85796e-05 1.06033e-06
-7.12759e-07 1.06033e-06 -3.99714e-05
0.0019484 -0.000360419 3.77015e-06
-0.000360419 0.000249939 -5.68009e-06
3.77015e-06 -5.68009e-06 9.28631e-05
0.0010797 -0.000251398 5.09734e-07
-0.000251398 0.00024589 1.55668e-06
5.09734e-07 1.55668e-06 3.47988e-05
0.00134529 -0.000269839 4.48091e-06
-0.000269839 0.000434595 1.65636e-06
4.48091e-06 1.65636e-06 0.000227761
0.000793016 -0.000132703 -1.22661e-07
-0.000132703 0.00019004 -2.76028e-07
-1.22661e-07 -2.76028e-07 -2.03891e-05
0.000451782 -1.47325e-05 -1.56619e-06
-1.47325e-05 -4.81601e-05 5.41531e-07
-1.56619e-06 5.41531e-07 -0.000135248
0.000283792 -1.5802e-05 -3.08927e-07
-1.5802e-05 -0.00012199 -4.59063e-07
-3.08927e-07 -4.59063e-07 -0.000268358
0.00186246 -5.36562e-05 3.11077e-06
-5.36562e-05 7.18564e-05 -8.91419e-07
3.11077e-06 -8.91419e-07 2.22701e-05
0.00188066 -0.000126391 4.0607e-06
-0.000126391 8.25183e-05 -3.13849e-07
4.0607e-06 -3.13849e-07 1.54764e-05
0.00189804 -0.000250051 2.24984e-06
-0.000250051 7.61494e-05 -1.85808e-06
2.24984e-06 -1.85808e-06 2.0889e-06
0.00172647 -0.000290127 3.30795e-07
-0.000290127 5.41893e-05 -5.90481e-07
3.30795e-07 -5.90481e-07 -5.23955e-05
0.00134475 -0.000297802 -1.73961e-06
-0.000297802 0.000346095 -4.94867e-06
-1.73961e-06 -4.94867e-06 0.000108684
0.00220942 -0.00041156 -2.02073e-06
-0.00041156 0.000310189 -4.57827e-07
-2.02073e-06 -4.57827e-07 0.000169946
0.00145997 -0.000406954 2.52869e-06
-0.000406954 0.000302781 -4.9068e-06
2.52869e-06 -4.9068e-06 5.08042e-06
0.00179843 -0.000503491 -5.28528e-07
-0.000503491 0.000316206 1.83119e-06
-5.28528e-07 1.83119e-06 1.0893e-05
0.00171364 -0.000408285 1.73281e-06
-0.000408285 0.000146327 3.65562e-06
1.73281e-06 3.65562e-06 -7.70508e-05
0.000200539 8.3077e-06 -2.97238e-07
8.3077e-06 -0.000198038 -3.65465e-06
-2.97238e-07 -3.65465e-06 -0.00027062
0.000699868 -5.23337e-05 1.33689e-07
-5.23337e-05 0.000140325 -7.62552e-07
1.33689e-07 -7.62552e-07 3.91772e-06
0.00100785 -8.31859e-05 -1.66294e-06
-8.31859e-05 0.000314464 1.10714e-06
-1.66294e-06 1.10714e-06 0.000136978
0.00137603 -0.000292599 -8.90091e-06
-0.000292599 0.000401462 -2.64583e-07
-8.90091e-06 -2.64583e-07 0.000182222
0.000414466 -0.000133895 2.66853e-06
-0.000133895 -5.22369e-05 5.76703e-06
2.66853e-06 5.76703e-06 -0.000273317
0.000655499 -0.000228237 -2.93906e-06
-0.000228237 -1.53042e-05 -6.91802e-08
-2.93906e-06 -6.91802e-08 -0.0002146
0.000530108 -4.89408e-05 -1.13784e-06
-4.89408e-05 -2.81763e-05 -4.82137e-06
-1.13784e-06 -4.82137e-06 -5.17078e-05
0.000572305 -1.72065e-05 -1.70287e-06
-1.72065e-05 1.29931e-05 -3.09448e-06
-1.70287e-06 -3.09448e-06 -5.78501e-05
0.00177372 0.000289298 -1.75467e-06
0.000289298 0.000153489 -4.2008e-07
-1.75467e-06 -4.2008e-07 -1.80328e-05
0.000125711 -4.4476e-05 1.17859e-06
-4.4476e-05 -0.000213215 -2.58082e-06
1.17859e-06 -2.58082e-06 -0.000351566
0.00079698 0.000183899 -9.25482e-07
0.000183899 0.000135879 5.94829e-08
-9.25482e-07 5.94829e-08 -5.38643e-05
0.000133643 7.5659e-05 1.84657e-06
7.5659e-05 -0.000254266 1.57209e-06
1.84657e-06 1.57209e-06 -0.000425617
0.00164583 0.000356447 3.88141e-07
0.000356447 0.000196737 3.17132e-07
3.88141e-07 3.17132e-07 -2.11335e-05
0.00170268 0.000355142 4.3291e-07
0.000355142 0.000136605 1.1718e-07
4.3291e-07 1.1718e-07 -5.17675e-05
0.00117334 0.000285795 1.53576e-06
0.000285795 0.000239234 -1.4771e-06
1.53576e-06 -1.4771e-06 -1.57097e-05
0.0020415 0.000390782 -1.45224e-06
0.000390782 0.000581325 -9.9554e-07
-1.45224e-06 -9.9554e-07 0.000311885
0.00173216 0.000409172 -2.07117e-06
0.000409172 0.000229436 7.11657e-07
-2.07117e-06 7.11657e-07 -9.66968e-06
0.000605162 1.27641e-06 -4.07063e-07
1.27641e-06 2.08323e-05 3.49507e-07
-4.07063e-07 3.49507e-07 -3.88087e-05
0.000702567 1.20875e-05 -7.84967e-07
1.20875e-05 0.000120162 4.55714e-07
-7.84967e-07 4.55714e-07 8.20841e-06
0.00113595 0.000258701 -9.47448e-07
0.000258701 0.000285285 4.01161e-08
-9.47448e-07 4.01161e-08 7.46949e-05
0.000836402 5.36556e-05 3.48838e-07
5.36556e-05 0.000215707 8.30441e-08
3.48838e-07 8.30441e-08 4.36819e-05
0.000756658 0.000167605 2.25006e-06
0.000167605 9.65038e-05 1.33801e-06
2.25006e-06 1.33801e-06 -7.77119e-05
0.00178972 0.000300859 -2.06177e-06
0.000300859 0.000137531 -1.59241e-06
-2.06177e-06 -1.59241e-06 -1.70982e-05
0.00180745 0.000409041 1.65079e-06
0.000409041 0.000238766 4.12553e-07
1.65079e-06 4.12553e-07 1.87676e-05
0.00170347 0.000385662 4.40941e-07
0.000385662 0.000107586 -1.57945e-07
4.40941e-07 -1.57945e-07 -7.75857e-05
0.00084016 0.000286574 1.12051e-06
0.000286574 2.98618e-05 3.40364e-06
1.12051e-06 3.40364e-06 -0.000234262
0.00164429 0.000403882 -2.44313e-06
0.000403882 0.000279996 -1.3173e-06
-2.44313e-06 -1.3173e-06 1.89319e-05
0.000770703 3.97162e-05 6.50451e-07
3.97162e-05 0.000149601 2.24239e-06
6.50451e-07 2.24239e-06 5.24733e-05
0.000343812 -9.94545e-06 -1.38544e-06
-9.94545e-06 -7.74576e-05 1.92239e-06
-1.38544e-06 1.92239e-06 -0.000213336
0.00108561 0.000271367 -3.90999e-06
0.000271367 0.000209845 -2.30248e-06
-3.90999e-06 -2.30248e-06 3.87224e-07
0.000755959 0.000141983 -5.54647e-06
0.000141983 0.000181024 -4.94962e-06
-5.54647e-06 -4.94962e-06 -1.17363e-05
0.000727743 0.000224745 -1.35332e-06
0.000224745 3.87196e-05 -3.3671e-06
-1.35332e-06 -3.3671e-06 -0.000136148
0.00169991 0.000322423 -3.87759e-07
0.000322423 2.0358e-05 -2.01303e-06
-3.87759e-07 -2.01303e-06 -0.000112129
0.00195198 0.000447941 3.67408e-06
0.000447941 0.000308723 -1.74448e-06
3.67408e-06 -1.74448e-06 7.53055e-05
0.00159463 0.000400401 2.46566e-06
0.000400401 3.4197e-05 1.4004e-07
2.46566e-06 1.4004e-07 -0.000155513
0.000955787 0.000305951 9.70892e-07
0.000305951 5.59948e-05 8.07118e-06
9.70892e-07 8.07118e-06 -0.000222249
0.00146801 0.000417769 -9.65408e-07
0.000417769 0.000189482 -7.16023e-07
-9.65408e-07 -7.16023e-07 -7.71496e-05
0.000592473 -9.43609e-06 -1.86234e-06
-9.43609e-06 9.52977e-06 -2.63726e-06
-1.86234e-06 -2.63726e-06 -4.50757e-05
0.000594635 3.43138e-05 1.09219e-06
3.43138e-05 3.20116e-05 3.83896e-07
1.09219e-06 3.83896e-07 -5.40142e-05
0.000502407 1.62072e-05 8.68226e-08
1.62072e-05 -2.53406e-05 1.16043e-06
8.68226e-08 1.16043e-06 -0.000115015
0.000404432 -2.52278e-05 -8.196e-07
-2.52278e-05 -7.95337e-05 -1.67401e-06
-8.196e-07 -1.67401e-06 -0.000163504
0.000646352 4.22328e-05 -2.91049e-07
4.22328e-05 7.41702e-05 5.55787e-09
-2.91049e-07 5.55787e-09 -1.46182e-05
0.000680866 5.76898e-05 -4.74509e-07
5.76898e-05 8.62348e-05 -3.21947e-07
-4.74509e-07 -3.21947e-07 -9.41227e-06
0.000803659 9.07052e-05 -1.35697e-06
9.07052e-05 0.000169955 -2.31398e-06
-1.35697e-06 -2.31398e-06 6.59162e-05
0.000457619 -5.55935e-06 1.05477e-06
-5.55935e-06 -2.97112e-05 1.61308e-07
1.05477e-06 1.61308e-07 -0.000137335
0.000682281 6.81948e-05 1.05716e-06
6.81948e-05 9.29967e-05 1.86513e-06
1.05716e-06 1.86513e-06 7.48531e-06
0.000615104 4.28849e-05 2.71144e-06
4.28849e-05 3.96777e-05 2.61579e-06
2.71144e-06 2.61579e-06 -1.64467e-05
0.000596641 5.19797e-06 -1.45664e-06
5.19797e-06 2.33811e-05 -7.48086e-09
-1.45664e-06 -7.48086e-09 -3.06038e-05
0.00125138 -2.47129e-05 1.08761e-06
-2.47129e-05 0.00039269 2.58235e-06
1.08761e-06 2.58235e-06 0.000380492
0.000550718 -4.99057e-05 9.62802e-08
-4.99057e-05 -4.18282e-06 -2.5846e-06
9.62802e-08 -2.5846e-06 -6.01142e-05
0.00129908 -3.40452e-05 -4.88979e-06
-3.40452e-05 0.000421428 -1.4852e-06
-4.88979e-06 -1.4852e-06 0.000408656
0.000838611 -3.2746e-05 2.05044e-05
-3.2746e-05 0.000149623 8.16486e-06
2.05044e-05 8.16486e-06 0.0001552
0.00134288 -4.49798e-05 -8.82515e-06
-4.49798e-05 0.000450454 -5.66207e-06
-8.82515e-06 -5.66207e-06 0.000436206
0.000797672 -4.21734e-05 7.41096e-06
-4.21734e-05 0.000129107 3.05128e-06
7.41096e-06 3.05128e-06 0.00013243
0.00229721 -9.52506e-05 -4.25622e-06
-9.52506e-05 0.00104647 -2.05994e-06
-4.25622e-06 -2.05994e-06 0.00105203
0.000469843 4.76443e-05 -1.19048e-06
4.76443e-05 -5.59427e-05 -3.9605e-06
-1.19048e-06 -3.9605e-06 -7.86093e-05
0.000489151 3.92791e-05 -1.70142e-06
3.92791e-05 -3.53466e-05 -3.73595e-08
-1.70142e-06 -3.73595e-08 -6.61411e-05
0.00251682 0.000109028 2.37792e-05
0.000109028 0.00119305 -3.73508e-06
2.37792e-05 -3.73508e-06 0.00119409
0.00058195 -5.46816e-06 -5.19591e-06
-5.46816e-06 1.74623e-05 7.27435e-06
-5.19591e-06 7.27435e-06 -1.88778e-05
0.00296416 0.00012453 -2.02954e-05
0.00012453 0.00146824 -8.60762e-07
-2.02954e-05 -8.60762e-07 0.00146519
0.00348028 9.7789e-05 -0.000106622
9.7789e-05 0.00177899 6.1758e-06
-0.000106622 6.1758e-06 0.00178179
0.00179191 0.000242205 -1.95171e-06
0.000242205 0.000127962 7.59949e-07
-1.95171e-06 7.59949e-07 -1.98546e-05
0.00182506 0.000143015 1.04427e-06
0.000143015 0.000102177 1.51993e-06
1.04427e-06 1.51993e-06 -5.54022e-06
0.001858 0.000204977 5.26531e-08
0.000204977 7.96496e-05 2.05588e-06
5.26531e-08 2.05588e-06 -1.14271e-05
0.00181679 9.16196e-05 -1.29847e-07
9.16196e-05 3.17253e-05 2.66131e-07
-1.29847e-07 2.66131e-07 -2.44409e-05
0.00179772 3.31568e-05 -9.35255e-07
3.31568e-05 8.11944e-05 1.58797e-07
-9.35255e-07 1.58797e-07 -1.83472e-06
0.00149118 1.06227e-05 -1.12672e-06
1.06227e-05 5.82051e-05 5.91027e-08
-1.12672e-06 5.91027e-08 -6.24833e-05
0.00179554 1.85146e-06 -2.03543e-06
1.85146e-06 8.84085e-05 2.38191e-08
-2.03543e-06 2.38191e-08 3.18963e-06
0.00182626 4.18085e-05 2.35887e-06
4.18085e-05 5.46236e-05 8.99929e-08
2.35887e-06 8.99929e-08 -2.21959e-06
0.00189694 0.000152286 -1.06039e-06
0.000152286 8.49465e-05 -3.45437e-07
-1.06039e-06 -3.45437e-07 1.14926e-05
0.00188744 9.98958e-05 1.23228e-06
9.98958e-05 5.023e-05 2.70684e-07
1.23228e-06 2.70684e-07 7.82194e-06
0.00180749 0.000238662 -8.55631e-07
0.000238662 0.000106617 -3.07215e-07
-8.55631e-07 -3.07215e-07 -1.34559e-05
0.00186329 0.000218194 3.33065e-06
0.000218194 4.6451e-05 1.40171e-06
3.33065e-06 1.40171e-06 -3.00337e-05
0.00181998 -6.92028e-06 3.49293e-06
-6.92028e-06 5.9513e-05 -4.07196e-08
3.49293e-06 -4.07196e-08 6.30804e-06
0.00185346 4.53327e-05 5.83739e-06
4.53327e-05 2.01759e-05 1.85727e-07
5.83739e-06 1.85727e-07 -8.80592e-06
0.00193192 0.000154839 4.65795e-06
0.000154839 5.57744e-05 1.33477e-06
4.65795e-06 1.33477e-06 8.00086e-06
0.00194652 0.000277278 4.06633e-07
0.000277278 0.000108491 7.63928e-08
4.06633e-07 7.63928e-08 1.46577e-05
0.00182191 -4.28475e-05 1.40671e-06
-4.28475e-05 0.000108943 5.84402e-08
1.40671e-06 5.84402e-08 1.89621e-05
0.00175015 -0.000129707 2.371e-06
-0.000129707 7.79455e-05 -1.18323e-06
2.371e-06 -1.18323e-06 -3.47833e-05
0.0017962 -8.3803e-05 2.42347e-06
-8.3803e-05 5.10557e-05 -1.62889e-06
2.42347e-06 -1.62889e-06 -1.05322e-05
0.00181562 -0.000202518 -2.36782e-06
-0.000202518 6.67921e-05 6.51325e-07
-2.36782e-06 6.51325e-07 -2.52087e-05
0.00121149 -0.000246306 -2.27614e-06
-0.000246306 0.00031906 4.82397e-06
-2.27614e-06 4.82397e-06 0.000106076
0.00091927 -0.000288888 -9.6e-07
-0.000288888 7.9496e-06 1.92222e-06
-9.6e-07 1.92222e-06 -0.000239749
0.0016181 -0.000454061 1.80226e-06
-0.000454061 0.000247051 -9.48166e-07
1.80226e-06 -9.48166e-07 -4.76553e-05
0.00169158 -0.000285498 -5.60597e-07
-0.000285498 7.71912e-05 -1.49362e-07
-5.60597e-07 -1.49362e-07 -6.32316e-05
0.00175012 -0.000258616 1.18733e-06
-0.000258616 4.74423e-05 -2.06948e-07
1.18733e-06 -2.06948e-07 -4.34287e-05
0.00180414 -0.00034699 2.73792e-06
-0.00034699 0.000131071 1.34175e-07
2.73792e-06 1.34175e-07 -8.22325e-06
0.00176159 -0.00042256 -2.7286e-06
-0.00042256 0.00020336 -2.419e-06
-2.7286e-06 -2.419e-06 -3.00122e-05
0.00178783 -0.00034867 1.97405e-06
-0.00034867 0.000144093 -1.1008e-05
1.97405e-06 -1.1008e-05 -6.91719e-06
0.00122605 -0.000266327 3.72587e-06
-0.000266327 0.000328098 2.04587e-06
3.72587e-06 2.04587e-06 0.000114779
0.000976772 -0.000231584 6.52315e-06
-0.000231584 0.000196513 -1.70422e-06
6.52315e-06 -1.70422e-06 4.79162e-06
0.000639968 -0.000107327 2.72373e-06
-0.000107327 9.9064e-05 -5.35185e-06
2.72373e-06 -5.35185e-06 -0.000115094
0.000355804 4.57082e-06 -5.63954e-07
4.57082e-06 -0.000105341 3.36122e-06
-5.63954e-07 3.36122e-06 -0.000194576
0.000279366 1.67796e-05 2.14596e-06
1.67796e-05 -0.000127452 -5.63785e-08
2.14596e-06 -5.63785e-08 -0.000270036
0.00183178 -5.92242e-05 -3.96152e-07
-5.92242e-05 5.38631e-05 -1.33528e-07
-3.96152e-07 -1.33528e-07 6.59857e-07
0.00185212 -0.000127332 1.4691e-06
-0.000127332 6.39427e-05 -6.59545e-07
1.4691e-06 -6.59545e-07 -5.00782e-06
0.00186529 -0.00024273 -1.76721e-06
-0.00024273 6.73582e-05 3.07836e-07
-1.76721e-06 3.07836e-07 -9.23561e-06
0.0011931 -0.000281892 -1.76002e-06
-0.000281892 0.000256655 -3.96122e-07
-1.76002e-06 -3.96122e-07 2.14837e-05
0.00104364 -0.000356743 8.70602e-07
-0.000356743 4.98159e-05 -1.67805e-06
8.70602e-07 -1.67805e-06 -0.000234592
0.00166144 -0.000494739 -3.55962e-07
-0.000494739 0.000239686 -7.62061e-08
-3.55962e-07 -7.62061e-08 -6.76908e-05
0.00173065 -0.000290172 5.68833e-07
-0.000290172 5.17147e-05 -2.56618e-07
5.68833e-07 -2.56618e-07 -5.55356e-05
0.00182989 -0.000414862 9.25323e-07
-0.000414862 0.0002142 -2.71114e-06
9.25323e-07 -2.71114e-06 -2.80418e-06
0.00192761 -0.000389668 -4.73802e-07
-0.000389668 0.000164224 -1.05292e-06
-4.73802e-07 -1.05292e-06 2.56237e-05
0.000262287 3.89196e-05 -6.38358e-07
3.89196e-05 -0.000167484 -8.88362e-07
-6.38358e-07 -8.88362e-07 -0.000235324
0.00122886 -0.000277201 -5.4291e-07
-0.000277201 0.000296587 6.95142e-07
-5.4291e-07 6.95142e-07 8.2434e-05
0.00054555 -0.000213872 9.61854e-07
-0.000213872 -7.45566e-05 1.44888e-06
9.61854e-07 1.44888e-06 -0.000259776
0.00101658 -0.000188865 -5.85305e-07
-0.000188865 0.000312475 5.72845e-07
-5.85305e-07 5.72845e-07 7.99781e-05
0.00116008 -8.85722e-05 6.56527e-07
-8.85722e-05 0.000406077 -1.81476e-06
6.56527e-07 -1.81476e-06 0.000229675
0.000577503 -6.33643e-06 -6.3398e-07
-6.33643e-06 5.88389e-05 6.2767e-07
-6.3398e-07 6.2767e-07 -7.36481e-05
0.00185672 -6.93974e-05 4.53157e-06
-6.93974e-05 2.86547e-05 -6.74033e-07
4.53157e-06 -6.74033e-07 -4.67949e-06
0.00198473 -0.000168495 2.66364e-06
-0.000168495 5.89849e-05 -2.76859e-07
2.66364e-06 -2.76859e-07 2.52131e-05
0.00183434 -0.000284942 2.44931e-06
-0.000284942 2.43275e-05 -2.00021e-06
2.44931e-06 -2.00021e-06 -3.8261e-05
0.00208739 -0.000361934 9.16398e-07
-0.000361934 0.000170624 -2.86683e-06
9.16398e-07 -2.86683e-06 6.97173e-05
0.00171718 -0.000361146 -4.43046e-06
-0.000361146 0.000524228 -4.84641e-06
-4.43046e-06 -4.84641e-06 0.000267005
0.00188292 -0.000437868 2.0851e-06
-0.000437868 0.000172931 3.35177e-06
2.0851e-06 3.35177e-06 -8.58963e-06
0.00145954 -0.000465314 -3.47412e-06
-0.000465314 0.000259955 1.50483e-06
-3.47412e-06 1.50483e-06 -8.25918e-05
0.00180294 -0.00052466 -4.60092e-06
-0.00052466 0.000322884 2.22499e-06
-4.60092e-06 2.22499e-06 1.0296e-06
0.000273838 5.60154e-05 -2.40609e-06
5.60154e-05 -0.000164962 -2.09081e-06
-2.40609e-06 -2.09081e-06 -0.00022103
0.000688476 2.23774e-06 -8.51526e-07
2.23774e-06 0.000120588 -3.93893e-07
-8.51526e-07 -3.93893e-07 1.01974e-05
0.000988035 -0.000115733 -2.58938e-06
-0.000115733 0.000308314 2.44125e-06
-2.58938e-06 2.44125e-06 0.000152188
0.000962532 -2.98791e-05 -2.6299e-06
-2.98791e-05 0.000276136 4.96669e-06
-2.6299e-06 4.96669e-06 6.40594e-05
0.000798505 -0.000268177 -5.30556e-06
-0.000268177 1.81584e-05 -5.43571e-06
-5.30556e-06 -5.43571e-06 -0.000209008
0.00102959 -0.000256634 -9.00686e-06
-0.000256634 0.00025472 1.86488e-06
-9.00686e-06 1.86488e-06 1.31989e-05
0.000536093 -6.01822e-06 -2.384e-06
-6.01822e-06 -2.01428e-05 -2.54467e-06
-2.384e-06 -2.54467e-06 -7.90962e-05
0.000461047 -2.67821e-05 7.75487e-07
-2.67821e-05 -3.36509e-05 -1.96362e-06
7.75487e-07 -1.96362e-06 -0.000135299
0.00176539 0.000302593 -2.62635e-06
0.000302593 0.000123706 -8.01301e-07
-2.62635e-06 -8.01301e-07 -3.21301e-05
0.000282715 5.37502e-06 4.39441e-07
5.37502e-06 -0.000122536 -1.53819e-07
4.39441e-07 -1.53819e-07 -0.000282089
0.00112893 0.000258137 2.02741e-06
0.000258137 0.000283466 -1.09909e-07
2.02741e-06 -1.09909e-07 7.20399e-05
-2.31946e-05 7.85468e-05 3.564e-06
7.85468e-05 -0.000381917 3.68009e-06
3.564e-06 3.68009e-06 -0.000532515
0.00177108 0.000406123 1.19323e-09
0.000406123 0.000213894 1.08456e-07
1.19323e-09 1.08456e-07 -6.01432e-06
0.0018285 0.000389198 -2.66092e-06
0.000389198 0.000179596 8.80993e-07
-2.66092e-06 8.80993e-07 -4.54837e-06
0.000949487 0.000304868 -1.17949e-06
0.000304868 8.88391e-05 4.99133e-07
-1.17949e-06 4.99133e-07 -0.000178817
0.00199219 0.000434395 -2.71006e-06
0.000434395 0.000497638 7.60072e-07
-2.71006e-06 7.60072e-07 0.000229463
0.000687979 1.61236e-05 -9.79195e-07
1.61236e-05 9.61913e-05 2.08693e-07
-9.79195e-07 2.08693e-07 3.67856e-06
0.000535082 2.9078e-05 9.20848e-07
2.9078e-05 3.66604e-05 7.0536e-07
9.20848e-07 7.0536e-07 -0.000103123
0.00138063 0.000299939 -6.23188e-07
0.000299939 0.00039523 -2.55651e-06
-6.23188e-07 -2.55651e-06 0.000177075
0.000551957 5.12634e-05 -1.17836e-06
5.12634e-05 2.69265e-05 -3.14928e-07
-1.17836e-06 -3.14928e-07 -0.000136361
0.000555058 0.000191302 -1.39202e-06
0.000191302 -7.66397e-05 -5.74285e-07
-1.39202e-06 -5.74285e-07 -0.000231551
0.00190648 0.000334028 -2.96305e-06
0.000334028 0.000136736 -1.24404e-06
-2.96305e-06 -1.24404e-06 6.24434e-06
0.00203518 0.000448519 2.07049e-06
0.000448519 0.000361909 -3.2777e-07
2.07049e-06 -3.2777e-07 0.000131583
0.00176583 0.000419276 1.69659e-06
0.000419276 0.000123145 2.59112e-06
1.69659e-06 2.59112e-06 -7.05119e-05
0.00123948 0.000337912 4.38278e-06
0.000337912 0.000233825 4.58443e-06
4.38278e-06 4.58443e-06 -5.2981e-05
0.00151324 0.000430689 -3.4302e-06
0.000430689 0.000210407 5.34334e-07
-3.4302e-06 5.34334e-07 -6.31917e-05
0.000189954 -1.57801e-05 -1.2273e-06
-1.57801e-05 -0.00019118 3.12767e-06
-1.2273e-06 3.12767e-06 -0.00029212
-6.20903e-05 8.21045e-05 8.10041e-07
8.21045e-05 -0.000282185 8.81015e-08
8.10041e-07 8.81015e-08 -0.000460464
0.000751819 0.000247339 1.86464e-06
0.000247339 -3.37268e-06 2.36955e-06
1.86464e-06 2.36955e-06 -0.000226966
-0.000411878 9.61153e-05 4.28289e-06
9.61153e-05 -0.000603594 -1.2423e-06
4.28289e-06 -1.2423e-06 -0.000769823
0.00199398 0.000340645 -4.67508e-07
0.000340645 -3.43923e-06 2.44065e-07
-4.67508e-07 2.44065e-07 -5.73193e-05
0.00242724 0.000426964 1.23733e-06
0.000426964 0.000437949 -9.94162e-07
1.23733e-06 -9.94162e-07 0.000283177
0.00185536 0.00048309 -3.19871e-06
0.00048309 0.000272998 -3.88424e-06
-3.19871e-06 -3.88424e-06 1.42825e-05
0.000708996 0.000333071 -7.0236e-07
0.000333071 -0.0001446 1.97705e-06
-7.0236e-07 1.97705e-06 -0.000442463
0.000650388 6.70465e-05 -1.12496e-06
6.70465e-05 7.0129e-05 -1.03291e-06
-1.12496e-06 -1.03291e-06 -1.89562e-05
0.000614599 4.52987e-05 -2.41258e-07
4.52987e-05 5.12657e-05 1.85486e-07
-2.41258e-07 1.85486e-07 -4.5208e-05
0.000939338 4.09614e-05 -2.74209e-06
4.09614e-05 0.000244111 -1.59261e-06
-2.74209e-06 -1.59261e-06 0.00015536
0.000634745 1.67695e-05 -1.55836e-06
1.67695e-05 5.46021e-05 -1.74457e-06
-1.55836e-06 -1.74457e-06 -2.48949e-05
0.000419568 5.56997e-06 -6.3428e-07
5.56997e-06 -6.74647e-05 -6.45074e-07
-6.3428e-07 -6.45074e-07 -0.000161143
0.000650038 3.2693e-05 -1.00551e-07
3.2693e-05 7.63146e-05 2.32653e-08
-1.00551e-07 2.32653e-08 -1.02344e-05
0.000660229 8.94693e-05 -8.50743e-07
8.94693e-05 9.56142e-05 -9.75656e-08
-8.50743e-07 -9.75656e-08 -1.18505e-05
0.000573702 2.86442e-05 9.01505e-07
2.86442e-05 4.29856e-05 3.24083e-07
9.01505e-07 3.24083e-07 -6.73637e-05
0.000770565 6.26941e-05 1.17551e-06
6.26941e-05 0.000138477 -1.54327e-06
1.17551e-06 -1.54327e-06 4.99144e-05
0.000667047 -9.44968e-06 2.75223e-06
-9.44968e-06 9.60764e-05 -2.26786e-06
2.75223e-06 -2.26786e-06 -1.6215e-05
0.000486638 5.37547e-05 1.01956e-06
5.37547e-05 -7.92471e-06 1.63588e-06
1.01956e-06 1.63588e-06 -0.000122107
0.000661809 8.02168e-05 1.61162e-06
8.02168e-05 8.75263e-05 2.32904e-06
1.61162e-06 2.32904e-06 -2.71492e-06
0.000552833 5.18321e-05 2.31057e-06
5.18321e-05 8.96555e-06 2.45125e-06
2.31057e-06 2.45125e-06 -5.08251e-05
0.000562955 -6.82094e-07 -1.32381e-06
-6.82094e-07 1.00394e-05 -4.30506e-08
-1.32381e-06 -4.30506e-08 -4.68379e-05
0.00124674 -1.20393e-05 9.43119e-07
-1.20393e-05 0.000391492 2.45231e-06
9.43119e-07 2.45231e-06 0.000379606
0.000556151 -4.69781e-05 9.55936e-08
-4.69781e-05 2.45497e-06 -2.55098e-06
9.55936e-08 -2.55098e-06 -5.33735e-05
0.00130382 -2.14874e-05 -4.17924e-06
-2.14874e-05 0.000424423 -1.56993e-06
-4.17924e-06 -1.56993e-06 0.000412371
0.000831678 -2.41994e-05 1.74521e-05
-2.41994e-05 0.000143172 8.44505e-06
1.74521e-05 8.44505e-06 0.000149693
0.00134846 -3.17775e-05 -7.53298e-06
-3.17775e-05 0.000451315 -5.69609e-06
-7.53298e-06 -5.69609e-06 0.000438579
0.00079277 -3.34748e-05 6.0803e-06
-3.34748e-05 0.00012105 3.15681e-06
6.0803e-06 3.15681e-06 0.000126234
0.00073673 -4.08751e-05 -1.08875e-06
-4.08751e-05 9.17645e-05 -2.26284e-06
-1.08875e-06 -2.26284e-06 9.51249e-05
0.000504887 3.77228e-05 1.45441e-07
3.77228e-05 -4.77836e-05 -3.28449e-06
1.45441e-07 -3.28449e-06 -6.3585e-05
0.00050101 5.73616e-05 1.90507e-08
5.73616e-05 -3.40206e-05 1.5942e-07
1.90507e-08 1.5942e-07 -5.90747e-05
0.00226966 8.96369e-05 1.8932e-05
8.96369e-05 0.00103585 -3.78349e-06
1.8932e-05 -3.78349e-06 0.00104209
0.000533501 3.34136e-05 -3.00852e-06
3.34136e-05 -8.3034e-06 6.04603e-06
-3.00852e-06 6.04603e-06 -3.96164e-05
0.00258675 0.000111446 -6.57397e-06
0.000111446 0.00123525 -5.40425e-07
-6.57397e-06 -5.40425e-07 0.00123572
0.00305776 8.97474e-05 -8.46895e-05
8.97474e-05 0.00152025 4.86645e-06
-8.46895e-05 4.86645e-06 0.00152539
0.0017971 0.000235998 -7.64783e-07
0.000235998 0.000109376 1.88964e-06
-7.64783e-07 1.88964e-06 -1.03054e-05
0.00193643 0.000151981 -2.82953e-06
0.000151981 0.000110382 1.84019e-07
-2.82953e-06 1.84019e-07 3.66827e-05
0.00187038 0.00022144 5.9893e-07
0.00022144 5.13843e-05 1.58984e-07
5.9893e-07 1.58984e-07 -2.22941e-05
0.00186645 0.000101355 -5.28148e-06
0.000101355 3.50939e-05 -9.93078e-07
-5.28148e-06 -9.93078e-07 -4.93346e-06
0.00186078 4.11948e-05 -6.40554e-07
4.11948e-05 7.97866e-05 -1.36858e-07
-6.40554e-07 -1.36858e-07 2.13036e-05
0.00178469 -1.36805e-07 -6.20359e-07
-1.36805e-07 8.10652e-05 6.39884e-08
-6.20359e-07 6.39884e-08 -6.61776e-06
0.00178794 -3.64789e-06 -4.83402e-07
-3.64789e-06 3.90337e-05 -4.72849e-09
-4.83402e-07 -4.72849e-09 -1.3719e-05
0.00187775 4.59881e-05 8.98984e-07
4.59881e-05 4.30191e-05 1.75814e-07
8.98984e-07 1.75814e-07 1.24013e-05
0.00192152 0.000159329 5.05423e-07
0.000159329 5.02748e-05 -1.68926e-08
5.05423e-07 -1.68926e-08 2.24942e-06
0.00197141 0.000273962 3.71122e-07
0.000273962 0.000109691 1.98581e-07
3.71122e-07 1.98581e-07 1.77903e-05
0.00185356 -8.75704e-06 4.1157e-06
-8.75704e-06 3.3123e-05 -2.47961e-07
4.1157e-06 -2.47961e-07 5.90123e-06
0.00196151 9.20662e-05 3.01549e-06
9.20662e-05 1.38899e-05 -9.84521e-10
3.01549e-06 -9.84521e-10 7.1708e-06
0.0020712 0.000238104 3.18801e-06
0.000238104 7.54987e-05 1.23715e-06
3.18801e-06 1.23715e-06 2.50132e-05
0.00180066 -6.47742e-05 -1.91674e-06
-6.47742e-05 3.55867e-05 4.89557e-07
-1.91674e-06 4.89557e-07 -2.11269e-05
0.00181117 -0.000128211 -1.08304e-06
-0.000128211 3.82681e-05 -5.89738e-07
-1.08304e-06 -5.89738e-07 -3.28119e-05
0.00183432 -0.000235471 -3.04017e-06
-0.000235471 6.08815e-05 1.36291e-06
-3.04017e-06 1.36291e-06 -1.87428e-05
0.000982082 -0.000260559 -1.51326e-06
-0.000260559 0.000130542 4.16397e-06
-1.51326e-06 4.16397e-06 -0.00010136
0.000977278 -0.000341719 2.39679e-06
-0.000341719 3.47129e-06 1.16778e-06
2.39679e-06 1.16778e-06 -0.000274082
0.00161046 -0.000495963 1.65556e-06
-0.000495963 0.000210885 -1.13131e-06
1.65556e-06 -1.13131e-06 -9.90227e-05
0.00175619 -0.00029098 -8.83727e-07
-0.00029098 6.2065e-05 5.80923e-07
-8.83727e-07 5.80923e-07 -4.5819e-05
0.00159282 -0.000366533 -2.68073e-07
-0.000366533 -1.45954e-05 -1.79107e-06
-2.68073e-07 -1.79107e-06 -0.00015168
0.00190557 -0.000420133 -2.58348e-06
-0.000420133 0.000257171 -7.75096e-06
-2.58348e-06 -7.75096e-06 4.63655e-05
0.00114785 -0.000269556 3.09658e-06
-0.000269556 0.00023628 5.18581e-06
3.09658e-06 5.18581e-06 2.4416e-05
0.000702157 -0.000223864 -7.58577e-06
-0.000223864 3.28595e-05 3.08792e-06
-7.58577e-06 3.08792e-06 -0.000144407
0.00174391 -0.000245246 1.71633e-06
-0.000245246 0.000758756 -1.66542e-06
1.71633e-06 -1.66542e-06 0.000507563
0.000343943 3.14392e-05 1.03908e-06
3.14392e-05 -0.000120186 6.24116e-07
1.03908e-06 6.24116e-07 -0.000185998
0.00088086 -9.27211e-05 2.42739e-06
-9.27211e-05 0.000233026 -9.9119e-07
2.42739e-06 -9.9119e-07 6.98164e-05
0.000410614 3.23547e-05 3.44604e-06
3.23547e-05 -4.87583e-05 1.65703e-06
3.44604e-06 1.65703e-06 -0.000176869
0.00186438 -6.94124e-05 -3.98025e-07
-6.94124e-05 3.55021e-05 1.64795e-07
-3.98025e-07 1.64795e-07 -1.6046e-06
0.00194305 -0.000174805 2.10671e-07
-0.000174805 3.16061e-05 -1.694e-07
2.10671e-07 -1.694e-07 -3.31509e-06
0.00188415 -0.00028501 -3.47951e-07
-0.00028501 6.0272e-05 4.50767e-07
-3.47951e-07 4.50767e-07 -6.69185e-06
0.00135445 -0.000325738 -2.07936e-06
-0.000325738 0.000312166 7.23023e-07
-2.07936e-06 7.23023e-07 5.97563e-05
0.00117993 -0.000433712 2.78634e-07
-0.000433712 9.69605e-05 -1.21681e-06
2.78634e-07 -1.21681e-06 -0.000236651
0.00193869 -0.00052931 -4.03173e-06
-0.00052931 0.000401444 5.59511e-07
-4.03173e-06 5.59511e-07 8.76439e-05
0.00196014 -0.000361245 6.57791e-07
-0.000361245 9.96392e-05 -2.99407e-07
6.57791e-07 -2.99407e-07 -4.93903e-06
0.00171216 -0.000427825 1.27292e-06
-0.000427825 6.71132e-05 -3.08567e-06
1.27292e-06 -3.08567e-06 -0.000113324
0.000435804 4.97859e-05 -5.03651e-07
4.97859e-05 -7.09118e-05 -1.02696e-06
-5.03651e-07 -1.02696e-06 -0.000122745
0.000703414 -9.7436e-06 -6.50062e-07
-9.7436e-06 0.000127369 3.25816e-07
-6.50062e-07 3.25816e-07 1.80177e-05
0.000312778 -0.000219332 -4.57278e-06
-0.000219332 -0.000266427 6.34146e-06
-4.57278e-06 6.34146e-06 -0.000478099
0.00148524 -0.000279781 1.24717e-06
-0.000279781 0.000540919 -8.49778e-07
1.24717e-06 -8.49778e-07 0.00029602
0.00102345 -8.09561e-05 -1.7719e-07
-8.09561e-05 0.000324666 -1.687e-06
-1.7719e-07 -1.687e-06 0.000111781
0.000847959 -8.83652e-05 -7.34004e-07
-8.83652e-05 0.000225389 1.18014e-06
-7.34004e-07 1.18014e-06 6.97946e-05
0.00191927 -8.57015e-05 1.47008e-06
-8.57015e-05 7.58601e-06 1.42752e-07
1.47008e-06 1.42752e-07 -1.91925e-06
0.00202199 -0.000249679 4.07492e-07
-0.000249679 2.10708e-05 2.73585e-07
4.07492e-07 2.73585e-07 1.54617e-05
0.00197965 -0.000310088 1.71433e-06
-0.000310088 7.84666e-05 -2.11422e-06
1.71433e-06 -2.11422e-06 2.4037e-05
0.00195873 -0.000475548 4.57279e-06
-0.000475548 7.45903e-05 -2.5698e-06
4.57279e-06 -2.5698e-06 -5.52148e-05
0.000797931 -0.000328061 -4.0308e-06
-0.000328061 -4.99916e-05 -7.491e-06
-4.0308e-06 -7.491e-06 -0.000350074
0.00190105 -0.000535248 -2.37145e-06
-0.000535248 0.000334239 1.24581e-05
-2.37145e-06 1.24581e-05 3.86662e-05
0.00196917 -0.000551282 -3.92498e-06
-0.000551282 0.000524856 -6.96637e-07
-3.92498e-06 -6.96637e-07 0.000148829
0.000603927 5.05782e-05 8.12814e-08
5.05782e-05 2.06771e-05 -1.15656e-06
8.12814e-08 -1.15656e-06 -2.30015e-05
0.000672456 -0.000113079 3.08375e-06
-0.000113079 0.00010233 -1.64493e-06
3.08375e-06 -1.64493e-06 1.75228e-05
0.000442011 5.72421e-05 -2.93086e-06
5.72421e-05 -3.92427e-05 -6.30677e-07
-2.93086e-06 -6.30677e-07 -0.000128323
0.000635797 -4.83856e-05 -1.8962e-06
-4.83856e-05 0.000105235 3.41284e-06
-1.8962e-06 3.41284e-06 -3.48394e-05
0.000518631 -4.02553e-05 6.00645e-07
-4.02553e-05 1.14649e-06 2.32117e-07
6.00645e-07 2.32117e-07 -0.000160103
-0.000190859 -6.85005e-05 -1.31485e-06
-6.85005e-05 -0.000396809 1.68852e-06
-1.31485e-06 1.68852e-06 -0.000608258
7.39489e-05 -0.000224827 -6.22807e-06
-0.000224827 -0.000399053 -8.15305e-06
-6.22807e-06 -8.15305e-06 -0.000610804
0.00293265 -0.000420012 -1.42853e-05
-0.000420012 0.00147479 2.97988e-06
-1.42853e-05 2.97988e-06 0.00111289
0.000638752 -3.11004e-06 -1.17364e-06
-3.11004e-06 6.06559e-05 -1.07288e-06
-1.17364e-06 -1.07288e-06 -2.56455e-05
0.000754916 5.79797e-05 3.43371e-07
5.79797e-05 0.000171237 -1.24878e-06
3.43371e-07 -1.24878e-06 2.46151e-05
0.00210026 0.000344503 -1.70536e-06
0.000344503 0.000246867 -7.24995e-07
-1.70536e-06 -7.24995e-07 0.000118612
0.000768238 9.03344e-05 -1.57223e-06
9.03344e-05 0.000169412 3.51414e-06
-1.57223e-06 3.51414e-06 -6.50682e-06
0.00177027 0.000339325 2.67224e-06
0.000339325 0.000636788 -6.45948e-07
2.67224e-06 -6.45948e-07 0.00040656
0.000379292 0.000157241 -8.55109e-07
0.000157241 -0.000189972 2.23542e-06
-8.55109e-07 2.23542e-06 -0.000326333
0.0020878 0.000445249 -3.10591e-06
0.000445249 0.000400447 -2.4333e-07
-3.10591e-06 -2.4333e-07 0.000174096
0.00191214 0.000436353 -1.80082e-06
0.000436353 0.000199178 5.83281e-06
-1.80082e-06 5.83281e-06 2.0307e-06
0.00144117 0.000365032 -1.00595e-06
0.000365032 0.000361239 -5.43913e-07
-1.00595e-06 -5.43913e-07 6.60493e-05
0.00145517 0.00043509 -2.71475e-07
0.00043509 0.000169147 1.27071e-06
-2.71475e-07 1.27071e-06 -0.000109497
0.000295846 1.57368e-05 -1.16799e-07
1.57368e-05 -0.000121447 1.23076e-06
-1.16799e-07 1.23076e-06 -0.000229451
0.000361601 0.000117827 -6.57333e-07
0.000117827 -2.65654e-05 -2.27163e-06
-6.57333e-07 -2.27163e-06 -0.00021142
0.00136805 0.000312888 4.21162e-06
0.000312888 0.000364599 -1.8196e-06
4.21162e-06 -1.8196e-06 0.000128313
0.000714212 0.000184806 -2.61309e-06
0.000184806 6.4223e-05 -2.80749e-06
-2.61309e-06 -2.80749e-06 -0.000112685
0.00205184 0.00033153 9.4138e-07
0.00033153 2.89287e-05 -8.46911e-07
9.4138e-07 -8.46911e-07 -2.43406e-05
0.00217304 0.000419814 3.0618e-06
0.000419814 0.000298001 6.28004e-07
3.0618e-06 6.28004e-07 0.00013905
0.00184717 0.000475371 -7.85412e-07
0.000475371 0.000261734 3.60117e-07
-7.85412e-07 3.60117e-07 6.63929e-06
0.0012231 0.000385639 -1.17524e-07
0.000385639 0.000131088 6.8033e-07
-1.17524e-07 6.8033e-07 -0.000169968
0.000270543 3.9229e-05 -1.29585e-06
3.9229e-05 -0.000141194 3.01332e-06
-1.29585e-06 3.01332e-06 -0.000250942
0.00202413 0.000272275 1.31805e-06
0.000272275 -4.45529e-05 2.43978e-06
1.31805e-06 2.43978e-06 -4.10022e-05
0.00166395 0.000300248 2.56133e-06
0.000300248 0.000727331 4.36908e-06
2.56133e-06 4.36908e-06 0.000493293
0.00115825 0.000306393 6.43757e-06
0.000306393 0.000208488 3.31811e-06
6.43757e-06 3.31811e-06 -2.75309e-05
0.00247289 0.000416055 -1.74555e-05
0.000416055 0.000353867 -5.45571e-06
-1.74555e-05 -5.45571e-06 0.000244674
0.00102258 0.000442649 -6.2729e-06
0.000442649 -0.000304163 -8.08295e-06
-6.2729e-06 -8.08295e-06 -0.000541833
0.00205242 0.00049432 -9.01186e-07
0.00049432 0.000536509 2.59803e-06
-9.01186e-07 2.59803e-06 0.000214992
0.00069315 6.11911e-05 -1.5211e-06
6.11911e-05 9.78215e-05 -8.38844e-07
-1.5211e-06 -8.38844e-07 1.88844e-06
0.000678819 5.5985e-05 -1.77126e-06
5.5985e-05 9.71211e-05 -6.29128e-07
-1.77126e-06 -6.29128e-07 4.4976e-06
0.000966327 4.6072e-05 -2.0038e-06
4.6072e-05 0.000273248 5.20642e-07
-2.0038e-06 5.20642e-07 0.000191353
0.00059941 -2.55786e-06 8.66743e-09
-2.55786e-06 4.90959e-05 -2.4482e-06
8.66743e-09 -2.4482e-06 -3.92827e-05
0.000658621 5.57494e-05 7.55119e-07
5.57494e-05 9.56404e-05 -6.30255e-08
7.55119e-07 -6.30255e-08 -1.60654e-05
0.000303358 3.20607e-05 -1.39606e-06
3.20607e-05 -0.000104575 1.96506e-06
-1.39606e-06 1.96506e-06 -0.000210703
0.000613349 6.45076e-06 -7.39816e-07
6.45076e-06 6.63668e-05 4.66546e-09
-7.39816e-07 4.66546e-09 -2.83897e-05
0.000422043 -1.65485e-05 -5.89987e-07
-1.65485e-05 -3.70471e-05 3.74119e-07
-5.89987e-07 3.74119e-07 -0.000154813
0.000465488 1.5481e-05 2.56558e-07
1.5481e-05 -3.57778e-05 4.85554e-07
2.56558e-07 4.85554e-07 -0.000119322
0.000752417 5.3092e-05 6.78556e-07
5.3092e-05 0.000159168 -5.05155e-07
6.78556e-07 -5.05155e-07 3.66334e-05
0.00119901 6.06484e-05 6.83071e-07
6.06484e-05 0.000380575 -1.04738e-06
6.83071e-07 -1.04738e-06 0.00030856
0.000675158 -8.38303e-06 3.4404e-06
-8.38303e-06 8.82155e-05 -2.945e-06
3.4404e-06 -2.945e-06 -5.7357e-06
0.000665092 5.67362e-05 4.63163e-07
5.67362e-05 0.000112808 8.33954e-07
4.63163e-07 8.33954e-07 -2.11564e-05
0.00063871 3.96934e-05 2.65442e-06
3.96934e-05 9.51604e-05 2.00225e-06
2.65442e-06 2.00225e-06 -3.53919e-05
0.000651681 2.37252e-05 1.8007e-06
2.37252e-05 8.29777e-05 2.38303e-06
1.8007e-06 2.38303e-06 -1.09282e-05
0.000558725 -3.49349e-05 -7.64865e-08
-3.49349e-05 1.139e-05 2.31211e-06
-7.64865e-08 2.31211e-06 -4.8144e-05
0.000571264 -5.49988e-06 -3.70412e-07
-5.49988e-06 1.67875e-05 -3.24711e-08
-3.70412e-07 -3.24711e-08 -4.07133e-05
0.00128443 -4.95323e-07 1.11827e-06
-4.95323e-07 0.000417047 2.37363e-06
1.11827e-06 2.37363e-06 0.000404335
0.000577161 -2.42025e-05 6.24211e-07
-2.42025e-05 1.59663e-05 -2.67521e-06
6.24211e-07 -2.67521e-06 -3.90452e-05
0.00131028 -8.86127e-06 -3.22468e-06
-8.86127e-06 0.000430282 -1.60344e-06
-3.22468e-06 -1.60344e-06 0.000418232
0.000819596 -1.6109e-05 1.31089e-05
-1.6109e-05 0.000135504 8.4685e-06
1.31089e-05 8.4685e-06 0.000142511
0.00136215 -1.93122e-05 -5.49587e-06
-1.93122e-05 0.000459813 -5.83027e-06
-5.49587e-06 -5.83027e-06 0.000447633
0.000806076 -2.51797e-05 4.05268e-06
-2.51797e-05 0.000126108 3.26565e-06
4.05268e-06 3.26565e-06 0.000132348
0.000761209 -3.25171e-05 -7.28834e-07
-3.25171e-05 0.000100402 -2.25641e-06
-7.28834e-07 -2.25641e-06 0.000105736
0.000650754 1.02018e-05 1.28617e-06
1.02018e-05 4.44607e-05 -1.38737e-06
1.28617e-06 -1.38737e-06 4.25805e-06
0.000522228 2.86923e-05 3.99472e-07
2.86923e-05 -4.53057e-05 -3.38972e-06
3.99472e-07 -3.38972e-06 -5.7133e-05
0.000528962 3.901e-05 2.25311e-07
3.901e-05 -3.23952e-05 1.47383e-07
2.25311e-07 1.47383e-07 -4.87095e-05
0.00213614 7.19907e-05 1.75095e-05
7.19907e-05 0.00094623 -3.94031e-06
1.75095e-05 -3.94031e-06 0.000956987
0.000536525 6.12071e-05 3.78333e-06
6.12071e-05 -1.11477e-05 5.15121e-06
3.78333e-06 5.15121e-06 -3.77952e-05
0.00238447 9.39654e-05 -4.67996e-06
9.39654e-05 0.00110579 -3.86239e-07
-4.67996e-06 -3.86239e-07 0.00111098
0.00272716 0.000116565 -2.54571e-05
0.000116565 0.00132011 4.15568e-06
-2.54571e-05 4.15568e-06 0.0013193
0.00199644 0.000270984 -6.2977e-07
0.000270984 0.000110814 6.39195e-07
-6.2977e-07 6.39195e-07 2.06818e-05
0.00191579 0.000163781 -3.85767e-06
0.000163781 4.81628e-05 -7.76718e-07
-3.85767e-06 -7.76718e-07 -2.14229e-07
0.00190589 4.85031e-05 -5.02563e-06
4.85031e-05 6.83253e-05 -2.96721e-07
-5.02563e-06 -2.96721e-07 3.61308e-05
0.00176919 -3.87934e-07 -2.33492e-06
-3.87934e-07 2.67946e-05 3.23749e-08
-2.33492e-06 3.23749e-08 -2.54806e-05
0.00184741 -4.91925e-06 -8.22291e-07
-4.91925e-06 2.5881e-05 -1.38964e-08
-8.22291e-07 -1.38964e-08 2.13514e-06
0.00194529 8.6868e-05 7.20114e-08
8.6868e-05 1.00701e-05 1.03174e-08
7.20114e-08 1.03174e-08 1.28923e-06
0.00201537 0.000240468 -6.98233e-07
0.000240468 4.1671e-05 -6.21812e-08
-6.98233e-07 -6.21812e-08 -7.09649e-06
0.00193807 -2.44726e-06 1.54272e-06
-2.44726e-06 1.56428e-06 -5.46927e-07
1.54272e-06 -5.46927e-07 3.69237e-06
0.00207609 0.000134604 3.16937e-06
0.000134604 8.81605e-06 -3.274e-07
3.16937e-06 -3.274e-07 6.72521e-06
0.00228989 8.84042e-05 -2.54467e-06
8.84042e-05 0.000182898 6.36373e-06
-2.54467e-06 6.36373e-06 0.000228177
0.00187296 -6.96101e-05 -4.97555e-06
-6.96101e-05 4.25924e-05 3.1241e-07
-4.97555e-06 3.1241e-07 1.66456e-06
0.00191484 -0.000182297 -3.6403e-06
-0.000182297 1.0545e-05 6.66968e-07
-3.6403e-06 6.66968e-07 -2.50289e-05
0.00191668 -0.000284236 -3.34782e-06
-0.000284236 8.51063e-05 1.88363e-06
-3.34782e-06 1.88363e-06 1.46393e-05
0.000700792 -0.000259993 1.22091e-06
-0.000259993 -7.1503e-05 6.01673e-06
1.22091e-06 6.01673e-06 -0.000313208
0.00143367 -0.000454587 1.31458e-06
-0.000454587 0.000244417 -7.26179e-07
1.31458e-06 -7.26179e-07 -8.99239e-05
0.00197382 -0.000521233 -2.07426e-06
-0.000521233 0.000427066 -1.47729e-06
-2.07426e-06 -1.47729e-06 0.00012326
0.00182011 -0.000358033 1.13576e-06
-0.000358033 2.19365e-05 1.55288e-06
1.13576e-06 1.55288e-06 -8.59084e-05
0.00161921 -0.000419061 -4.48009e-06
-0.000419061 1.21641e-05 -5.78022e-06
-4.48009e-06 -5.78022e-06 -0.000166777
0.000222391 -0.000207018 -1.20857e-06
-0.000207018 -0.000316685 1.25829e-05
-1.20857e-06 1.25829e-05 -0.000519478
0.00216465 -0.000328201 1.6173e-05
-0.000328201 0.000964945 -3.46939e-06
1.6173e-05 -3.46939e-06 0.000711668
0.000731198 -3.29922e-05 9.90567e-07
-3.29922e-05 0.000139658 -1.00276e-06
9.90567e-07 -1.00276e-06 -5.57293e-05
0.000518047 1.56012e-05 2.88107e-07
1.56012e-05 -2.33671e-05 3.32628e-07
2.88107e-07 3.32628e-07 -7.15367e-05
0.000796876 2.99243e-05 2.39381e-06
2.99243e-05 0.000179378 6.40441e-07
2.39381e-06 6.40441e-07 7.05686e-05
0.000867447 -5.87134e-05 9.56221e-07
-5.87134e-05 0.000239189 1.66449e-06
9.56221e-07 1.66449e-06 8.13483e-05
0.00193655 -8.85261e-05 2.96983e-07
-8.85261e-05 9.61091e-06 -2.35221e-08
2.96983e-07 -2.35221e-08 2.76632e-06
0.000572451 1.85558e-05 1.03607e-06
1.85558e-05 9.19977e-07 1.34373e-07
1.03607e-06 1.34373e-07 -4.17245e-05
0.000516604 -4.54949e-05 -1.7705e-06
-4.54949e-05 -1.11894e-05 -4.86496e-08
-1.7705e-06 -4.86496e-08 -8.31523e-05
0.00200279 -0.000239594 -1.40368e-07
-0.000239594 2.5277e-05 2.46454e-07
-1.40368e-07 2.46454e-07 1.72804e-05
0.00192471 -0.000306987 -1.34702e-06
-0.000306987 4.34357e-05 1.52335e-07
-1.34702e-06 1.52335e-07 -8.79429e-06
0.00102585 -0.000348583 -2.30122e-06
-0.000348583 8.98528e-05 1.40842e-06
-2.30122e-06 1.40842e-06 -0.000208791
0.00184549 -0.00054016 4.40841e-07
-0.00054016 0.000458954 6.57992e-07
4.40841e-07 6.57992e-07 8.00522e-05
0.00160564 -0.000510881 3.51432e-06
-0.000510881 0.0001526 -1.78265e-06
3.51432e-06 -1.78265e-06 -0.000134814
0.00208257 -0.000480096 2.37628e-06
-0.000480096 0.000155414 -8.88475e-07
2.37628e-06 -8.88475e-07 2.3566e-05
0.000705516 -6.81744e-06 7.50731e-07
-6.81744e-06 0.000125285 -1.19985e-06
7.50731e-07 -1.19985e-06 3.47075e-05
0.000714213 -3.06121e-05 2.63118e-07
-3.06121e-05 0.000153074 1.39526e-06
2.63118e-07 1.39526e-06 1.00646e-05
0.00107602 -0.000294531 -3.33499e-06
-0.000294531 0.000185124 -1.84505e-06
-3.33499e-06 -1.84505e-06 -4.16454e-05
0.00173584 -0.000306384 1.56909e-05
-0.000306384 0.000760986 -3.25059e-06
1.56909e-05 -3.25059e-06 0.000456178
0.000410649 -7.88274e-05 -2.91358e-06
-7.88274e-05 -4.78571e-05 -5.11252e-07
-2.91358e-06 -5.11252e-07 -0.000254323
0.00065418 -3.39587e-05 6.29243e-07
-3.39587e-05 9.66132e-05 -7.24188e-07
6.29243e-07 -7.24188e-07 -7.30418e-05
0.00195873 -0.00010384 1.42268e-06
-0.00010384 -5.71561e-05 -1.13281e-06
1.42268e-06 -1.13281e-06 -5.75863e-05
0.00193524 -0.000287721 -2.65205e-07
-0.000287721 -9.0308e-05 6.51632e-07
-2.65205e-07 6.51632e-07 -1.99233e-05
0.00204587 -0.000422529 -4.5852e-06
-0.000422529 3.7049e-05 -1.33232e-06
-4.5852e-06 -1.33232e-06 -3.12827e-05
0.00154943 -0.000544796 6.54673e-07
-0.000544796 -3.03284e-05 -1.01631e-06
6.54673e-07 -1.01631e-06 -0.000198469
0.000941375 -0.000323857 -8.30295e-06
-0.000323857 6.9539e-05 -8.25603e-06
-8.30295e-06 -8.25603e-06 -0.000233398
0.0024139 -0.000638515 -9.55062e-06
-0.000638515 0.000745647 9.42069e-06
-9.55062e-06 9.42069e-06 0.000340818
0.000360505 5.18977e-05 -1.21931e-06
5.18977e-05 -9.4014e-05 -2.06592e-06
-1.21931e-06 -2.06592e-06 -0.000172259
0.000645911 -5.75912e-05 3.53628e-06
-5.75912e-05 6.64175e-05 -6.87917e-07
3.53628e-06 -6.87917e-07 -5.8252e-06
0.000938148 -9.88554e-05 1.36718e-06
-9.88554e-05 0.000252547 2.50904e-06
1.36718e-06 2.50904e-06 0.000153532
0.000462214 1.93234e-05 -2.30561e-06
1.93234e-05 -7.91285e-06 3.92487e-06
-2.30561e-06 3.92487e-06 -0.000135871
0.000882628 -7.47012e-05 -2.90528e-06
-7.47012e-05 0.0002337 4.15103e-06
-2.90528e-06 4.15103e-06 9.09062e-05
0.00116226 -5.34608e-05 1.73003e-06
-5.34608e-05 0.000350219 1.31525e-07
1.73003e-06 1.31525e-07 0.000166853
-0.000669109 -0.000113268 5.38588e-06
-0.000113268 -0.000486096 3.76026e-07
5.38588e-06 3.76026e-07 -0.000889714
-0.000214568 -0.000272221 -2.41447e-05
-0.000272221 -0.000556679 1.61189e-06
-2.41447e-05 1.61189e-06 -0.000781303
0.000382151 4.89748e-05 -3.41655e-07
4.89748e-05 -6.26623e-05 -9.05694e-07
-3.41655e-07 -9.05694e-07 -0.000178252
0.000985757 0.000164854 -6.18789e-06
0.000164854 0.000343143 -3.03946e-06
-6.18789e-06 -3.03946e-06 0.000153355
0.0021037 0.000323087 -4.24758e-06
0.000323087 6.10731e-05 -1.93503e-06
-4.24758e-06 -1.93503e-06 7.50293e-06
0.00195178 0.000414145 -8.38663e-07
0.000414145 0.00017628 1.58329e-06
-8.38663e-07 1.58329e-06 1.29709e-05
0.00183502 0.000249596 -7.97068e-06
0.000249596 0.000714387 -1.04303e-06
-7.97068e-06 -1.04303e-06 0.0005361
0.00194996 0.000373331 -4.96439e-06
0.000373331 0.000710836 -8.56426e-06
-4.96439e-06 -8.56426e-06 0.000464708
0.00187359 0.000471179 1.74368e-06
0.000471179 0.000268273 2.05011e-06
1.74368e-06 2.05011e-06 1.57315e-05
0.00186012 0.0004479 -2.6476e-07
0.0004479 0.000481079 -1.55838e-06
-2.6476e-07 -1.55838e-06 0.000174852
0.000534303 7.11115e-05 7.49994e-07
7.11115e-05 2.8977e-05 -1.02036e-06
7.49994e-07 -1.02036e-06 -9.40361e-05
0.00209845 0.000257689 -1.17512e-06
0.000257689 -5.20164e-06 -8.44881e-07
-1.17512e-06 -8.44881e-07 3.87908e-06
0.00111923 0.000217945 1.23287e-06
0.000217945 0.000388978 1.58529e-06
1.23287e-06 1.58529e-06 0.000175701
0.00125023 0.000317243 1.28983e-06
0.000317243 0.00026645 -1.07413e-06
1.28983e-06 -1.07413e-06 2.21766e-05
0.00229228 0.000408951 2.46469e-06
0.000408951 0.000254658 5.82688e-07
2.46469e-06 5.82688e-07 0.000148518
0.00162134 0.000483666 -1.37908e-06
0.000483666 3.01239e-05 -3.96374e-06
-1.37908e-06 -3.96374e-06 -0.000208804
0.00190902 0.000479455 -1.68449e-07
0.000479455 0.000464028 2.5933e-07
-1.68449e-07 2.5933e-07 0.00014316
0.00114413 0.000170634 -3.77603e-06
0.000170634 0.000416464 3.50737e-06
-3.77603e-06 3.50737e-06 0.000247639
0.00238804 0.000299173 -4.97523e-05
0.000299173 0.000221615 -1.34608e-05
-4.97523e-05 -1.34608e-05 0.000250061
0.00197754 0.000386526 -5.54745e-06
0.000386526 0.000811687 6.78053e-07
-5.54745e-06 6.78053e-07 0.000569198
0.00198291 0.000436353 -7.92917e-06
0.000436353 0.000599448 -7.26927e-07
-7.92917e-06 -7.26927e-07 0.00031258
0.00217065 0.000541789 -2.55286e-05
0.000541789 0.000228429 -1.31545e-05
-2.55286e-05 -1.31545e-05 5.77764e-05
0.000799079 0.000406505 -1.91992e-05
0.000406505 -0.000212169 -1.97063e-06
-1.91992e-05 -1.97063e-06 -0.000505593
0.00112815 0.000420502 3.58866e-05
0.000420502 -0.00043648 -2.26245e-05
3.58866e-05 -2.26245e-05 -0.000678961
0.00040329 7.00916e-05 1.05298e-06
7.00916e-05 -5.45361e-05 -7.12687e-07
1.05298e-06 -7.12687e-07 -0.000151997
0.000612333 5.42493e-05 -1.10585e-07
5.42493e-05 7.98709e-05 1.08566e-06
-1.10585e-07 1.08566e-06 -5.97648e-06
0.00147457 8.97632e-05 8.61098e-07
8.97632e-05 0.000568858 1.65235e-07
8.61098e-07 1.65235e-07 0.000481215
0.000562159 -6.29961e-05 2.87452e-07
-6.29961e-05 4.36024e-05 -2.97922e-06
2.87452e-07 -2.97922e-06 -5.52375e-05
0.000496035 -3.9301e-05 -1.47486e-06
-3.9301e-05 2.08848e-06 -2.24985e-07
-1.47486e-06 -2.24985e-07 -0.000111619
0.000925458 0.000139423 -4.256e-07
0.000139423 0.000263707 9.16715e-07
-4.256e-07 9.16715e-07 0.000135918
0.000240722 -3.29347e-08 -2.12138e-06
-3.29347e-08 -0.000158396 4.88834e-06
-2.12138e-06 4.88834e-06 -0.000242672
0.000609838 -2.25263e-05 -1.89472e-07
-2.25263e-05 7.06801e-05 -3.01522e-08
-1.89472e-07 -3.01522e-08 -3.08147e-05
0.000603543 4.70479e-05 -5.50541e-09
4.70479e-05 5.80276e-05 -4.95127e-07
-5.50541e-09 -4.95127e-07 -6.06639e-05
0.000925652 5.26309e-05 -1.29712e-06
5.26309e-05 0.00022014 8.48242e-07
-1.29712e-06 8.48242e-07 0.000147372
0.000699988 3.44044e-05 9.03896e-07
3.44044e-05 0.000119353 1.23849e-07
9.03896e-07 1.23849e-07 -5.19898e-06
0.000732677 1.5478e-05 -7.02239e-07
1.5478e-05 0.000119006 -5.61951e-07
-7.02239e-07 -5.61951e-07 2.18913e-05
0.000985777 5.40065e-05 1.10431e-06
5.40065e-05 0.00026094 -3.94591e-06
1.10431e-06 -3.94591e-06 0.000183013
0.000867142 6.38017e-05 -1.83258e-06
6.38017e-05 0.00020264 -2.22144e-06
-1.83258e-06 -2.22144e-06 7.40405e-05
0.00082592 8.476e-05 9.76912e-07
8.476e-05 0.000186308 6.8551e-07
9.76912e-07 6.8551e-07 6.26948e-05
0.000676549 4.43854e-05 5.0296e-07
4.43854e-05 0.000117693 1.63922e-06
5.0296e-07 1.63922e-06 -1.97374e-05
0.000457354 -2.41218e-05 -2.34881e-07
-2.41218e-05 -3.68913e-05 2.54328e-06
-2.34881e-07 2.54328e-06 -0.000134016
0.000916989 -3.43701e-05 3.65431e-07
-3.43701e-05 0.000284917 -6.8846e-07
3.65431e-07 -6.8846e-07 0.000146018
0.000358376 -2.0552e-05 -9.72841e-07
-2.0552e-05 -9.33423e-05 2.55364e-06
-9.72841e-07 2.55364e-06 -0.000193943
0.000528392 4.16803e-06 -1.46254e-06
4.16803e-06 -3.72069e-06 2.38104e-06
-1.46254e-06 2.38104e-06 -6.5629e-05
0.000549091 2.53167e-05 1.632e-06
2.53167e-05 7.61609e-06 -3.06187e-08
1.632e-06 -3.06187e-08 -5.33891e-05
0.000504127 1.06933e-05 8.73768e-07
1.06933e-05 -4.98366e-05 3.90515e-06
8.73768e-07 3.90515e-06 -6.75732e-05
0.000550959 1.24102e-06 -2.23093e-06
1.24102e-06 7.0742e-06 -2.52871e-06
-2.23093e-06 -2.52871e-06 -5.23071e-05
0.000927279 3.93898e-06 -2.23844e-06
3.93898e-06 0.000202924 -1.66048e-06
-2.23844e-06 -1.66048e-06 0.000187803
0.00243775 -1.312e-05 9.03854e-06
-1.312e-05 0.00111068 5.28458e-06
9.03854e-06 5.28458e-06 0.0011254
0.00136975 -6.6958e-06 -3.78337e-06
-6.6958e-06 0.000466658 -5.71623e-06
-3.78337e-06 -5.71623e-06 0.000454299
0.000799024 -1.63652e-05 2.3884e-06
-1.63652e-05 0.000121006 3.28693e-06
2.3884e-06 3.28693e-06 0.000128044
0.000776912 -2.37308e-05 -1.4254e-07
-2.37308e-05 0.000106672 -2.27739e-06
-1.4254e-07 -2.27739e-06 0.000113149
0.000580221 1.35568e-05 -8.00472e-07
1.35568e-05 4.97285e-06 -1.33511e-06
-8.00472e-07 -1.33511e-06 -3.45581e-05
0.000604004 -4.01185e-06 1.10848e-06
-4.01185e-06 1.77299e-05 -1.4503e-07
1.10848e-06 -1.4503e-07 -2.34047e-05
0.000555064 2.19842e-05 3.47677e-07
2.19842e-05 -2.86734e-05 -3.31262e-06
3.47677e-07 -3.31262e-06 -3.8333e-05
0.000857044 3.53381e-05 -3.4035e-07
3.53381e-05 0.00015808 5.24178e-08
-3.4035e-07 5.24178e-08 0.000147614
0.00210622 5.76865e-05 1.36704e-05
5.76865e-05 0.000921231 -4.16523e-06
1.36704e-05 -4.16523e-06 0.000934858
0.000540718 4.29876e-05 1.24951e-06
4.29876e-05 -2.34128e-05 3.76575e-06
1.24951e-06 3.76575e-06 -4.07394e-05
0.00220913 7.5766e-05 -2.87766e-06
7.5766e-05 0.000991528 -2.00626e-07
-2.87766e-06 -2.00626e-07 0.0010013
0.00244135 9.68032e-05 -1.87511e-05
9.68032e-05 0.0011405 4.09003e-06
-1.87511e-05 4.09003e-06 0.00114496
0.00196795 0.000243359 -3.93e-06
0.000243359 1.11703e-05 -1.97761e-06
-3.93e-06 -1.97761e-06 -3.54051e-05
0.00192775 8.25444e-05 -1.90296e-06
8.25444e-05 5.08702e-06 3.56191e-07
-1.90296e-06 3.56191e-07 -5.46674e-06
0.00183673 -2.575e-06 -5.00317e-06
-2.575e-06 1.58252e-05 3.57388e-08
-5.00317e-06 3.57388e-08 -4.34133e-06
0.001931 -6.79522e-07 1.47918e-07
-6.79522e-07 -1.51329e-07 -1.97294e-07
1.47918e-07 -1.97294e-07 1.85351e-06
0.00205994 0.00013571 -2.78741e-08
0.00013571 1.44536e-05 2.15171e-07
-2.78741e-08 2.15171e-07 1.11289e-05
0.00198501 7.40916e-05 5.92708e-06
7.40916e-05 -1.18668e-05 -2.21794e-06
5.92708e-06 -2.21794e-06 2.75533e-05
0.00206733 3.39146e-06 -1.12851e-06
3.39146e-06 -2.09852e-05 -1.27328e-06
-1.12851e-06 -1.27328e-06 5.20344e-06
0.00320954 0.000389053 3.66548e-05
0.000389053 -0.000389055 5.6412e-06
3.66548e-05 5.6412e-06 -7.49704e-05
0.00231924 4.79786e-05 -3.03789e-05
4.79786e-05 0.000345961 1.9147e-05
-3.03789e-05 1.9147e-05 0.000445965
0.000566593 8.70468e-05 -9.10873e-07
8.70468e-05 3.37619e-05 -5.90506e-08
-9.10873e-07 -5.90506e-08 -4.18446e-05
0.0019523 -9.0634e-05 -1.61433e-06
-9.0634e-05 1.19239e-05 -1.86588e-07
-1.61433e-06 -1.86588e-07 7.55098e-06
0.00197616 -0.0002296 -3.04308e-07
-0.0002296 2.69148e-05 2.58727e-08
-3.04308e-07 2.58727e-08 1.41441e-05
0.00187893 -0.000306678 -1.0881e-06
-0.000306678 1.38349e-05 2.16347e-06
-1.0881e-06 2.16347e-06 -3.7752e-05
0.000450553 -0.000289716 -3.066e-06
-0.000289716 -0.000241212 9.27551e-06
-3.066e-06 9.27551e-06 -0.000524671
0.00206683 -0.000560559 3.85861e-06
-0.000560559 0.000588867 4.68703e-06
3.85861e-06 4.68703e-06 0.000205129
0.00150008 -0.000506797 1.04089e-06
-0.000506797 7.22996e-05 -8.70177e-06
1.04089e-06 -8.70177e-06 -0.000211424
0.00221826 -0.000486448 -2.46949e-06
-0.000486448 0.000243729 -1.36812e-06
-2.46949e-06 -1.36812e-06 0.000109033
0.00198479 -0.000358517 1.85426e-05
-0.000358517 0.000701064 -6.12821e-08
1.85426e-05 -6.12821e-08 0.000461465
0.000381648 -0.000180286 1.39596e-05
-0.000180286 -4.06161e-05 -4.54609e-06
1.39596e-05 -4.54609e-06 -0.000289955
0.00116151 -0.000114287 2.46808e-06
-0.000114287 0.00039017 -2.32103e-06
2.46808e-06 -2.32103e-06 0.000187192
0.000573231 5.55475e-06 -4.4426e-07
5.55475e-06 9.13644e-07 1.38417e-06
-4.4426e-07 1.38417e-06 -4.07181e-05
0.000863431 -2.06881e-05 2.49687e-06
-2.06881e-05 0.000233337 -1.75425e-06
2.49687e-06 -1.75425e-06 5.5969e-05
0.000875716 -3.40061e-05 2.64377e-06
-3.40061e-05 0.000235653 -9.05619e-07
2.64377e-06 -9.05619e-07 0.000143318
0.000860941 -2.87847e-05 1.86944e-06
-2.87847e-05 0.000237359 -1.57111e-06
1.86944e-06 -1.57111e-06 9.2318e-05
0.00035059 -3.05441e-05 -2.38542e-06
-3.05441e-05 -0.000117308 6.79623e-07
-2.38542e-06 6.79623e-07 -0.000186055
0.00198708 -0.000118188 -3.50672e-07
-0.000118188 -6.3035e-05 1.9305e-07
-3.50672e-07 1.9305e-07 -4.87954e-05
0.000466166 3.6302e-05 -6.76769e-08
3.6302e-05 -2.4176e-05 -1.46458e-06
-6.76769e-08 -1.46458e-06 -0.000105485
0.000627497 -5.39692e-05 1.10247e-06
-5.39692e-05 6.59091e-05 5.18414e-07
1.10247e-06 5.18414e-07 -1.19019e-05
0.000788828 -6.91717e-05 2.91042e-07
-6.91717e-05 0.000160847 7.43642e-07
2.91042e-07 7.43642e-07 6.43495e-05
0.00196898 -0.000290792 1.33296e-06
-0.000290792 -5.48e-05 -2.09728e-07
1.33296e-06 -2.09728e-07 -3.26683e-06
0.00208205 -0.000425056 1.07619e-07
-0.000425056 6.36504e-05 -5.66281e-07
1.07619e-07 -5.66281e-07 -5.07557e-06
0.00116227 -0.000349814 8.08731e-06
-0.000349814 0.000189188 -6.0453e-07
8.08731e-06 -6.0453e-07 -0.00011266
0.00220746 -0.000619623 7.03386e-06
-0.000619623 0.000636419 -1.42097e-07
7.03386e-06 -1.42097e-07 0.000243452
0.00197512 -0.000572821 -1.20166e-06
-0.000572821 0.0002264 1.58878e-06
-1.20166e-06 1.58878e-06 4.42847e-05
0.000415563 -1.55347e-05 -5.41708e-07
-1.55347e-05 -3.21823e-05 -3.36795e-07
-5.41708e-07 -3.36795e-07 -0.000155653
0.00084958 -8.50086e-05 -1.87166e-06
-8.50086e-05 0.000222306 6.2456e-07
-1.87166e-06 6.2456e-07 6.76758e-05
0.000720455 -0.000356552 -6.96655e-06
-0.000356552 -9.27296e-06 -5.20644e-07
-6.96655e-06 -5.20644e-07 -0.000280469
0.000520861 -0.000121723 -5.47633e-08
-0.000121723 0.000119502 -1.86077e-06
-5.47633e-08 -1.86077e-06 -0.000214653
0.000726699 -6.95328e-05 -2.71121e-08
-6.95328e-05 9.07636e-05 4.7301e-07
-2.71121e-08 4.7301e-07 -8.38202e-05
0.00237612 -0.000236664 -3.9308e-06
-0.000236664 0.000148543 -1.59769e-06
-3.9308e-06 -1.59769e-06 0.000167773
0.00179564 -0.000308058 -1.28667e-05
-0.000308058 -0.000182683 2.50335e-06
-1.28667e-05 2.50335e-06 -9.42215e-05
0.00237526 -0.000583817 -1.12284e-05
-0.000583817 0.000269301 -1.09662e-06
-1.12284e-05 -1.09662e-06 0.000123292
0.00295934 -0.000699273 -2.34396e-05
-0.000699273 0.000887172 5.83326e-07
-2.34396e-05 5.83326e-07 0.000637696
0.00118783 -0.00039817 -2.4096e-05
-0.00039817 0.00024727 -2.76197e-06
-2.4096e-05 -2.76197e-06 -6.39076e-05
0.00039366 -3.68038e-06 1.3415e-06
-3.68038e-06 -6.69718e-05 1.94031e-07
1.3415e-06 1.94031e-07 -0.000164917
0.000454632 3.42749e-05 5.55718e-07
3.42749e-05 -4.89289e-05 1.79158e-06
5.55718e-07 1.79158e-06 -0.000147641
0.000252606 -8.59703e-06 -2.46071e-07
-8.59703e-06 -0.000150032 -1.00157e-06
-2.46071e-07 -1.00157e-06 -0.000255514
0.00148838 -0.000180473 -4.55927e-06
-0.000180473 0.000623797 7.8494e-06
-4.55927e-06 7.8494e-06 0.000474782
0.000537691 -6.42164e-05 -2.48676e-06
-6.42164e-05 1.06968e-05 8.72247e-06
-2.48676e-06 8.72247e-06 -0.000134011
-0.000280081 -9.06089e-05 7.86725e-07
-9.06089e-05 -0.000245733 4.88372e-06
7.86725e-07 4.88372e-06 -0.000623293
-0.000193919 -0.000413807 1.40749e-07
-0.000413807 -0.000286401 -4.30914e-07
1.40749e-07 -4.30914e-07 -0.000723082
0.000883855 0.000117406 3.5049e-07
0.000117406 0.000251238 -4.64957e-06
3.5049e-07 -4.64957e-06 0.000111614
0.000294596 0.000104554 -2.74979e-06
0.000104554 -0.000117368 -1.498e-06
-2.74979e-06 -1.498e-06 -0.000303254
0.00216288 0.000239159 7.38959e-06
0.000239159 2.23783e-05 3.68346e-07
7.38959e-06 3.68346e-07 4.25317e-05
0.00217635 0.000404419 1.45075e-05
0.000404419 0.000193361 4.04815e-06
1.45075e-05 4.04815e-06 9.1632e-05
0.00228088 0.000528121 1.37743e-05
0.000528121 0.000401363 3.94987e-06
1.37743e-05 3.94987e-06 0.000160846
0.00120711 0.000315311 -7.47048e-07
0.000315311 0.000242967 -1.28581e-06
-7.47048e-07 -1.28581e-06 -6.93763e-06
0.0016804 0.000456854 1.30853e-06
0.000456854 0.00034213 1.58713e-06
1.30853e-06 1.58713e-06 2.42147e-05
0.00147203 0.000155364 2.35734e-08
0.000155364 0.000587481 1.12424e-07
2.35734e-08 1.12424e-07 0.000432317
0.00240309 0.000266432 -2.65617e-06
0.000266432 0.000262458 8.74841e-07
-2.65617e-06 8.74841e-07 0.000297516
0.00142714 0.00030667 -2.04395e-06
0.00030667 0.000474301 1.00041e-06
-2.04395e-06 1.00041e-06 0.000250611
0.00153575 0.000394006 8.08602e-07
0.000394006 0.000372611 2.24318e-06
8.08602e-07 2.24318e-06 7.91965e-05
0.00205969 0.000527108 -1.44677e-06
0.000527108 0.000159202 -2.69046e-06
-1.44677e-06 -2.69046e-06 3.83869e-06
0.0016582 0.000489451 -3.69662e-06
0.000489451 0.000269862 5.2789e-06
-3.69662e-06 5.2789e-06 -3.94001e-05
0.00241736 0.000553987 5.01948e-05
0.000553987 -8.84115e-05 4.31933e-06
5.01948e-05 4.31933e-06 -0.000394537
0.00107941 0.000214492 -5.57423e-06
0.000214492 0.000374693 -1.60394e-07
-5.57423e-06 -1.60394e-07 0.000192932
0.00321632 0.00046975 -6.4749e-05
0.00046975 0.000840174 -2.82e-05
-6.4749e-05 -2.82e-05 0.000794844
0.00110488 0.000305927 -3.75175e-06
0.000305927 0.000196658 -1.85835e-06
-3.75175e-06 -1.85835e-06 -2.15273e-05
0.000284533 0.000296408 -1.13146e-06
0.000296408 -0.000342389 -6.33185e-06
-1.13146e-06 -6.33185e-06 -0.000625289
0.000521631 0.00048668 -2.2419e-05
0.00048668 -0.000512957 -5.07745e-06
-2.2419e-05 -5.07745e-06 -0.000703292
0.0114822 0.000414692 -0.000246305
0.000414692 0.00236985 -5.70466e-05
-0.000246305 -5.70466e-05 0.00148791
0.00607703 0.000983869 0.000116023
0.000983869 0.000666884 -4.35645e-05
0.000116023 -4.35645e-05 0.00056352
-9.49433e-05 0.000653935 9.71383e-06
0.000653935 -0.000870015 4.86063e-06
9.71383e-06 4.86063e-06 -0.00117619
-0.00370948 -0.000976303 0.000561475
-0.000976303 -0.000339064 9.27336e-05
0.000561475 9.27336e-05 -0.00209017
0.0109484 -0.0035342 -2.63238e-05
-0.0035342 0.00284893 2.72492e-05
-2.63238e-05 2.72492e-05 0.00372063
0.000348578 6.22562e-05 4.3263e-06
6.22562e-05 -6.28745e-05 7.13438e-07
4.3263e-06 7.13438e-07 -0.000151323
0.000915446 6.12165e-05 1.35794e-06
6.12165e-05 0.000262457 -9.97351e-07
1.35794e-06 -9.97351e-07 0.000176224
0.0012506 0.000137465 -1.43256e-06
0.000137465 0.000466686 -1.30009e-07
-1.43256e-06 -1.30009e-07 0.000358857
0.000578384 -6.20393e-05 -2.56941e-07
-6.20393e-05 6.04843e-05 -2.14803e-06
-2.56941e-07 -2.14803e-06 -4.59097e-05
0.000580636 5.94153e-05 -1.51218e-06
5.94153e-05 4.73398e-05 -2.00582e-06
-1.51218e-06 -2.00582e-06 -7.53375e-05
0.000716006 -2.27338e-05 -2.53075e-07
-2.27338e-05 0.000131121 -5.51674e-07
-2.53075e-07 -5.51674e-07 5.82845e-06
0.000788914 3.86245e-05 -2.77413e-06
3.86245e-05 0.000148436 3.86643e-06
-2.77413e-06 3.86643e-06 4.83548e-05
0.000539388 3.90765e-05 -1.50534e-06
3.90765e-05 -6.00828e-06 3.09498e-06
-1.50534e-06 3.09498e-06 -7.90226e-05
0.000797658 9.1187e-05 -1.86677e-06
9.1187e-05 0.000185983 -5.82443e-07
-1.86677e-06 -5.82443e-07 4.99775e-05
0.000519538 -1.01173e-05 5.13374e-08
-1.01173e-05 7.19801e-06 7.36073e-07
5.13374e-08 7.36073e-07 -9.31259e-05
0.00065047 1.90828e-05 2.83215e-07
1.90828e-05 9.7782e-05 2.18118e-07
2.83215e-07 2.18118e-07 -3.60663e-05
0.000670789 5.03496e-05 6.83439e-07
5.03496e-05 7.06034e-05 -7.36119e-07
6.83439e-07 -7.36119e-07 -8.12602e-06
0.000814887 6.58469e-05 -1.0874e-06
6.58469e-05 0.000172001 -2.44064e-07
-1.0874e-06 -2.44064e-07 4.83206e-05
0.00132257 0.000120988 -1.59829e-06
0.000120988 0.000484335 -1.33002e-06
-1.59829e-06 -1.33002e-06 0.000353756
0.000366186 6.03748e-05 5.31647e-07
6.03748e-05 -7.53142e-05 -3.10419e-06
5.31647e-07 -3.10419e-06 -0.000190332
0.000738841 8.52763e-05 1.89804e-06
8.52763e-05 0.000134968 7.91436e-07
1.89804e-06 7.91436e-07 6.46086e-06
0.000548575 -2.4954e-05 1.32346e-06
-2.4954e-05 2.26449e-05 7.89031e-08
1.32346e-06 7.89031e-08 -0.000101179
0.000407682 -5.6661e-05 -1.18771e-06
-5.6661e-05 -6.22961e-05 2.26925e-06
-1.18771e-06 2.26925e-06 -0.000164991
0.000763937 -9.42904e-06 -4.55154e-07
-9.42904e-06 0.000163369 1.72506e-07
-4.55154e-07 1.72506e-07 3.4754e-05
0.000871683 3.07392e-05 1.48789e-07
3.07392e-05 0.000232132 -3.78815e-06
1.48789e-07 -3.78815e-06 0.000106404
0.000646871 -3.10124e-05 -6.04181e-07
-3.10124e-05 0.000104924 2.6816e-07
-6.04181e-07 2.6816e-07 -1.69909e-05
0.000789971 -2.93847e-05 1.29136e-06
-2.93847e-05 0.000187896 -6.42956e-07
1.29136e-06 -6.42956e-07 6.19169e-05
0.000664578 -9.37861e-05 -2.43231e-06
-9.37861e-05 9.32797e-05 1.74444e-06
-2.43231e-06 1.74444e-06 -6.43264e-06
0.000409941 -1.47742e-05 1.67955e-07
-1.47742e-05 -6.02366e-05 9.15723e-07
1.67955e-07 9.15723e-07 -0.000163032
0.000565649 -2.78808e-05 -1.68324e-06
-2.78808e-05 1.06945e-05 2.6803e-06
-1.68324e-06 2.6803e-06 -4.77869e-05
0.000562056 -2.35302e-05 1.23607e-06
-2.35302e-05 1.45774e-05 2.87861e-08
1.23607e-06 2.87861e-08 -4.65561e-05
0.00055292 5.65134e-06 3.85513e-07
5.65134e-06 -1.98596e-05 5.73666e-06
3.85513e-07 5.73666e-06 -3.80947e-05
0.000561973 2.5577e-05 -1.18109e-06
2.5577e-05 1.21425e-05 -2.44083e-06
-1.18109e-06 -2.44083e-06 -4.67129e-05
0.000517859 7.14876e-06 4.49237e-07
7.14876e-06 -4.13258e-05 1.42338e-08
4.49237e-07 1.42338e-08 -5.91561e-05
0.00240728 -1.48502e-06 -8.0212e-07
-1.48502e-06 0.00109258 5.33116e-06
-8.0212e-07 5.33116e-06 0.00110735
0.000569327 7.78738e-06 -1.30818e-06
7.78738e-06 -1.24941e-05 -5.93361e-06
-1.30818e-06 -5.93361e-06 -3.01974e-05
0.00162365 -9.84089e-06 5.84005e-10
-9.84089e-06 0.000618768 9.40153e-08
5.84005e-10 9.40153e-08 0.00062937
0.000773539 -1.46284e-05 2.77054e-07
-1.46284e-05 0.000103467 -2.16066e-06
2.77054e-07 -2.16066e-06 0.000110847
0.000579693 -1.57105e-05 1.00633e-06
-1.57105e-05 7.50796e-06 -1.22984e-06
1.00633e-06 -1.22984e-06 -3.08657e-05
0.000608917 -2.42393e-05 3.80658e-07
-2.42393e-05 2.3066e-05 -5.31074e-08
3.80658e-07 -5.31074e-08 -1.74973e-05
0.000571771 1.39915e-05 5.52826e-07
1.39915e-05 -2.08248e-05 -3.04041e-06
5.52826e-07 -3.04041e-06 -2.86332e-05
0.00057852 -1.83329e-05 -1.38633e-06
-1.83329e-05 1.00937e-06 1.15729e-06
-1.38633e-06 1.15729e-06 -3.94215e-05
0.000839112 2.59801e-05 -5.16454e-08
2.59801e-05 0.000142988 -7.14848e-07
-5.16454e-08 -7.14848e-07 0.000135291
0.00202792 4.28649e-05 1.01716e-05
4.28649e-05 0.000868983 -4.28051e-06
1.01716e-05 -4.28051e-06 0.000885167
0.00054058 3.09446e-05 -3.96587e-07
3.09446e-05 -3.27916e-05 3.36217e-06
-3.96587e-07 3.36217e-06 -4.53268e-05
0.00216195 6.01067e-05 -7.0287e-06
6.01067e-05 0.000957121 1.10914e-06
-7.0287e-06 1.10914e-06 0.000970046
0.002281 7.95912e-05 -1.4557e-05
7.95912e-05 0.00103607 4.11569e-06
-1.4557e-05 4.11569e-06 0.00104489
0.00203705 0.000137098 -2.72857e-06
0.000137098 1.66632e-05 -6.71731e-07
-2.72857e-06 -6.71731e-07 1.22424e-05
0.00192774 1.11894e-07 -1.40357e-06
1.11894e-07 2.80288e-07 2.53928e-07
-1.40357e-06 2.53928e-07 2.08438e-06
0.00169883 5.95843e-05 7.73632e-06
5.95843e-05 -0.000198428 1.13977e-06
7.73632e-06 1.13977e-06 -0.000164413
0.00227268 0.000279588 4.48217e-05
0.000279588 -0.000678016 9.91715e-06
4.48217e-05 9.91715e-06 -0.000471967
0.00202689 -1.24019e-05 -2.16634e-06
-1.24019e-05 -3.18373e-05 -9.77967e-07
-2.16634e-06 -9.77967e-07 -4.93044e-06
0.00193737 5.59119e-05 3.48288e-06
5.59119e-05 0.000126714 -4.34537e-06
3.48288e-06 -4.34537e-06 0.000203869
0.0029609 -1.9877e-05 -2.87504e-05
-1.9877e-05 0.000773395 4.49556e-06
-2.87504e-05 4.49556e-06 0.00075498
0.00187868 -5.97312e-06 3.63771e-05
-5.97312e-06 -0.0016322 -3.1462e-05
3.63771e-05 -3.1462e-05 -0.00130945
0.0024878 0.000106104 4.68315e-05
0.000106104 -0.000227755 2.72973e-05
4.68315e-05 2.72973e-05 -1.20008e-05
0.000608392 7.26434e-05 1.53831e-07
7.26434e-05 6.20428e-05 -4.10806e-07
1.53831e-07 -4.10806e-07 -1.66203e-05
0.00063025 -8.06656e-06 5.53993e-07
-8.06656e-06 7.74832e-05 -1.96464e-07
5.53993e-07 -1.96464e-07 -3.42613e-06
0.000595445 -9.8044e-05 -1.22049e-06
-9.8044e-05 5.70107e-05 1.31673e-06
-1.22049e-06 1.31673e-06 -3.87232e-05
0.000573538 -4.35033e-05 -1.37029e-06
-4.35033e-05 6.60304e-05 1.11617e-06
-1.37029e-06 1.11617e-06 -3.97772e-05
0.00202909 -0.00013134 -3.2805e-06
-0.00013134 -5.97284e-05 4.13244e-07
-3.2805e-06 4.13244e-07 -3.06949e-05
0.00199685 -0.000288711 7.78676e-07
-0.000288711 -1.95425e-05 -6.46323e-07
7.78676e-07 -6.46323e-07 1.72838e-05
0.00210672 -0.000423793 -1.98989e-06
-0.000423793 8.47539e-05 1.73617e-06
-1.98989e-06 1.73617e-06 1.68353e-05
0.00264738 -0.000510117 1.23309e-05
-0.000510117 0.00102366 2.17387e-06
1.23309e-05 2.17387e-06 0.000705697
0.000993584 -0.000508811 1.18209e-05
-0.000508811 -3.02046e-05 -3.57492e-06
1.18209e-05 -3.57492e-06 -0.000403201
0.00236116 -0.000597742 7.71627e-06
-0.000597742 0.000458018 -3.34419e-06
7.71627e-06 -3.34419e-06 0.000264523
0.00131862 -0.000400685 -3.41867e-06
-0.000400685 0.000346468 3.49888e-06
-3.41867e-06 3.49888e-06 4.1667e-05
0.00208168 -0.000159851 2.07248e-06
-0.000159851 0.000938774 -4.03512e-07
2.07248e-06 -4.03512e-07 0.000672979
0.000160497 -6.71373e-05 5.44371e-07
-6.71373e-05 -0.000251733 -1.30136e-06
5.44371e-07 -1.30136e-06 -0.000413274
0.000671659 -4.30237e-05 -3.99447e-08
-4.30237e-05 9.23162e-05 9.50429e-07
-3.99447e-08 9.50429e-07 1.554e-05
0.000683621 -9.34975e-05 1.14396e-06
-9.34975e-05 0.000134729 -3.85784e-06
1.14396e-06 -3.85784e-06 -3.01218e-05
0.000739923 -6.05973e-06 1.25196e-06
-6.05973e-06 0.000164775 -1.68326e-06
1.25196e-06 -1.68326e-06 4.06559e-05
0.000632388 6.37525e-06 1.16068e-07
6.37525e-06 8.20246e-05 -3.15195e-07
1.16068e-07 -3.15195e-07 -2.30927e-06
0.000539675 -8.48515e-06 -3.95143e-06
-8.48515e-06 1.01666e-05 2.28714e-06
-3.95143e-06 2.28714e-06 -8.25341e-05
0.00235522 -0.000220671 1.42188e-06
-0.000220671 0.000143764 7.46159e-07
1.42188e-06 7.46159e-07 0.000177068
0.000628302 -1.6145e-05 1.04481e-06
-1.6145e-05 8.60273e-05 -1.22062e-07
1.04481e-06 -1.22062e-07 -2.04266e-05
0.000707615 -1.81147e-06 2.93419e-06
-1.81147e-06 0.00011358 -2.92605e-07
2.93419e-06 -2.92605e-07 9.47187e-06
0.000273826 2.20253e-05 3.11722e-07
2.20253e-05 -0.00013641 1.19183e-06
3.11722e-07 1.19183e-06 -0.000226141
0.00179003 -0.00031226 -6.90021e-07
-0.00031226 -0.000212205 -1.54234e-06
-6.90021e-07 -1.54234e-06 -0.000128371
0.00211092 -0.000556546 1.70709e-06
-0.000556546 0.000139524 -5.15495e-07
1.70709e-06 -5.15495e-07 3.18183e-06
0.00171291 -0.000483759 -1.58405e-06
-0.000483759 0.000533843 6.31802e-07
-1.58405e-06 6.31802e-07 0.000211428
0.00214569 -0.000635286 -5.96804e-06
-0.000635286 0.000448274 1.91096e-06
-5.96804e-06 1.91096e-06 0.000204236
0.00111198 -8.5839e-05 -9.95835e-07
-8.5839e-05 0.000377396 5.78911e-07
-9.95835e-07 5.78911e-07 0.000238841
0.000439428 -6.95179e-05 7.48406e-07
-6.95179e-05 -5.13188e-05 9.66671e-07
7.48406e-07 9.66671e-07 -0.000201839
0.0011612 -0.000504122 4.23209e-06
-0.000504122 0.000479439 -1.64907e-06
4.23209e-06 -1.64907e-06 2.63164e-05
0.0011691 -0.000215981 -1.75983e-07
-0.000215981 0.000482358 -5.16746e-07
-1.75983e-07 -5.16746e-07 0.000153845
0.00249437 -0.000273528 -2.56059e-05
-0.000273528 0.000129042 -1.6e-06
-2.56059e-05 -1.6e-06 0.000268558
0.00236828 -0.000452031 -3.19418e-05
-0.000452031 0.000174947 7.08891e-06
-3.19418e-05 7.08891e-06 0.000197445
0.00280636 -0.000714917 -1.26423e-05
-0.000714917 0.000619156 -5.02684e-06
-1.26423e-05 -5.02684e-06 0.000391135
0.00169615 -0.000548869 -1.13653e-05
-0.000548869 0.000392792 2.17613e-06
-1.13653e-05 2.17613e-06 0.000162959
0.000495307 -1.87557e-05 -1.27195e-06
-1.87557e-05 2.36713e-05 -1.84415e-06
-1.27195e-06 -1.84415e-06 -9.8419e-05
0.000469655 -8.23621e-05 -1.26685e-06
-8.23621e-05 -4.625e-06 -5.03091e-06
-1.26685e-06 -5.03091e-06 -0.00013861
0.000382329 -0.000128645 -4.15129e-06
-0.000128645 5.99518e-05 1.42013e-05
-4.15129e-06 1.42013e-05 -0.000147722
-0.000492428 -0.000260884 -4.7827e-06
-0.000260884 -0.000196078 -7.85872e-06
-4.7827e-06 -7.85872e-06 -0.000748381
0.00118407 -0.000448959 2.85611e-05
-0.000448959 -0.00351287 -3.87519e-06
2.85611e-05 -3.87519e-06 -0.00370153
0.00162217 0.000144771 4.4532e-07
0.000144771 0.000663091 -4.13613e-06
4.4532e-07 -4.13613e-06 0.000516423
0.00082413 0.00023204 2.05801e-06
0.00023204 0.000118247 2.40591e-06
2.05801e-06 2.40591e-06 -9.31121e-05
0.00210432 0.000234601 5.72458e-05
0.000234601 0.000110748 1.20363e-05
5.72458e-05 1.20363e-05 0.000151448
0.00200572 0.000513969 1.92648e-05
0.000513969 0.00012182 6.37772e-06
1.92648e-05 6.37772e-06 -2.05722e-05
0.00208143 0.000532336 8.59233e-06
0.000532336 0.000518979 8.77088e-06
8.59233e-06 8.77088e-06 0.00019689
0.00113405 0.000355945 6.21824e-06
0.000355945 0.000168706 4.64822e-06
6.21824e-06 4.64822e-06 -0.000131731
0.00350404 0.000671091 8.26384e-05
0.000671091 0.000183544 3.40209e-05
8.26384e-05 3.40209e-05 -0.000227185
0.00126451 0.000201336 4.18352e-06
0.000201336 0.000485867 7.43167e-07
4.18352e-06 7.43167e-07 0.000307839
0.00248076 0.000425448 -1.00105e-05
0.000425448 0.000411432 -7.31664e-07
-1.00105e-05 -7.31664e-07 0.000392918
0.00113314 0.0003095 1.57352e-06
0.0003095 0.00023534 7.8825e-07
1.57352e-06 7.8825e-07 1.45544e-05
0.00117896 0.000401299 1.98029e-06
0.000401299 0.000160585 -3.06173e-06
1.98029e-06 -3.06173e-06 -0.00013875
0.00132222 0.000548435 -5.73849e-06
0.000548435 -9.77578e-05 -1.17594e-06
-5.73849e-06 -1.17594e-06 -0.000297403
0.002717 -0.000369263 -0.000137803
-0.000369263 -0.00303633 -4.14938e-05
-0.000137803 -4.14938e-05 -0.00405424
0.00634903 0.000847002 -3.11692e-05
0.000847002 0.000651262 -5.26454e-05
-3.11692e-05 -5.26454e-05 0.000307742
0.000701572 0.000599007 -8.15399e-06
0.000599007 -0.000344454 7.20848e-06
-8.15399e-06 7.20848e-06 -0.000692388
-0.00240134 -0.000770495 0.00023859
-0.000770495 0.00114443 0.000102268
0.00023859 0.000102268 -0.00078772
0.00285554 -0.00351827 -0.00017968
-0.00351827 0.000260473 -0.000187732
-0.00017968 -0.000187732 0.00128065
0.00128662 0.000231989 -7.67114e-06
0.000231989 0.000473756 -2.24219e-06
-7.67114e-06 -2.24219e-06 0.000309806
0.000733076 0.000489678 0.000291096
0.000489678 0.00237984 3.75388e-06
0.000291096 3.75388e-06 0.00105838
0.00107553 -0.00104787 -0.000133123
-0.00104787 0.00304272 -0.000196909
-0.000133123 -0.000196909 0.000445095
0.00267788 0.00066318 -3.46594e-05
0.00066318 0.000497302 -1.02146e-05
-3.46594e-05 -1.02146e-05 0.000499334
0.000677988 0.000185175 -1.53147e-05
0.000185175 -1.63828e-05 -4.59273e-06
-1.53147e-05 -4.59273e-06 -0.000217585
0.000518682 0.000443003 -2.7473e-05
0.000443003 -0.00018738 -1.84783e-05
-2.7473e-05 -1.84783e-05 -0.000479452
0.000198334 0.000628401 3.63207e-05
0.000628401 -0.000670497 7.58246e-05
3.63207e-05 7.58246e-05 -0.000856339
0.0136352 0.0010991 -8.81611e-06
0.0010991 0.00374211 -5.15713e-05
-8.81611e-06 -5.15713e-05 0.00226714
0.00255294 0.00117791 9.84921e-06
0.00117791 0.00030794 -2.76508e-07
9.84921e-06 -2.76508e-07 -0.000722979
0.00473979 -0.00312094 0.000463202
-0.00312094 0.000405156 0.000305345
0.000463202 0.000305345 0.000208285
0.00730143 -0.00159253 -4.84492e-05
-0.00159253 0.00023367 0.00031232
-4.84492e-05 0.00031232 0.000598542
0.000618048 4.61099e-05 2.63687e-06
4.61099e-05 0.00010625 -2.87261e-06
2.63687e-06 -2.87261e-06 1.9064e-05
0.000714981 0.000104861 4.347e-06
0.000104861 0.000154375 8.54437e-07
4.347e-06 8.54437e-07 4.79788e-05
0.00141592 0.000184296 -1.02729e-06
0.000184296 0.000580871 -2.61239e-06
-1.02729e-06 -2.61239e-06 0.000455903
0.000607895 5.9382e-06 8.40543e-07
5.9382e-06 7.85611e-05 -5.40678e-07
8.40543e-07 -5.40678e-07 -3.31722e-05
0.000723109 3.69054e-05 -1.60956e-08
3.69054e-05 0.000138921 -1.98932e-06
-1.60956e-08 -1.98932e-06 6.96105e-06
0.0004639 2.79341e-06 -1.91447e-06
2.79341e-06 -2.58192e-05 6.80787e-08
-1.91447e-06 6.80787e-08 -0.000147673
0.000749715 6.84213e-05 -3.02244e-06
6.84213e-05 0.000134682 1.21572e-06
-3.02244e-06 1.21572e-06 1.53669e-05
0.000457891 4.78408e-05 -2.4532e-06
4.78408e-05 -6.2081e-05 -3.25697e-07
-2.4532e-06 -3.25697e-07 -0.00014132
0.000418831 -5.81335e-06 2.19437e-07
-5.81335e-06 -5.05588e-05 7.93866e-07
2.19437e-07 7.93866e-07 -0.000156264
0.000930592 5.4045e-05 6.65527e-07
5.4045e-05 0.000252979 6.23185e-07
6.65527e-07 6.23185e-07 0.000126167
0.000757544 3.41971e-05 4.5459e-07
3.41971e-05 0.00014777 4.56217e-07
4.5459e-07 4.56217e-07 1.81497e-05
0.000681056 1.86641e-05 7.52555e-07
1.86641e-05 0.000117794 -2.91511e-07
7.52555e-07 -2.91511e-07 -1.7023e-05
0.000469121 6.48178e-05 -3.04028e-07
6.48178e-05 -1.20635e-05 -1.03167e-06
-3.04028e-07 -1.03167e-06 -0.000127335
0.00120691 7.80889e-05 -1.18781e-06
7.80889e-05 0.000422679 -2.88776e-06
-1.18781e-06 -2.88776e-06 0.000303234
0.000120744 4.80918e-05 -3.28453e-06
4.80918e-05 -0.000166543 -5.14862e-06
-3.28453e-06 -5.14862e-06 -0.000288319
0.000764388 -8.54431e-05 -2.00775e-07
-8.54431e-05 0.000151535 -1.84904e-07
-2.00775e-07 -1.84904e-07 1.91624e-05
0.000754542 -5.88122e-05 -4.15741e-07
-5.88122e-05 0.000169619 -2.42307e-07
-4.15741e-07 -2.42307e-07 3.12245e-05
0.000780257 -2.88518e-05 -3.35443e-07
-2.88518e-05 0.000184545 -3.47294e-07
-3.35443e-07 -3.47294e-07 4.7915e-05
0.000821343 -2.50698e-06 -1.65837e-06
-2.50698e-06 0.000192807 -2.0755e-07
-1.65837e-06 -2.0755e-07 7.53204e-05
0.000742685 2.92532e-05 -3.37676e-06
2.92532e-05 0.000167873 -2.18006e-06
-3.37676e-06 -2.18006e-06 2.02484e-05
0.000733485 3.07912e-08 1.58735e-06
3.07912e-08 0.000142189 -2.19802e-06
1.58735e-06 -2.19802e-06 2.64245e-05
1.73345e-05 -2.33207e-05 -3.18325e-07
-2.33207e-05 -0.000286337 -2.47891e-06
-3.18325e-07 -2.47891e-06 -0.000388595
0.000578328 -1.09342e-05 8.24298e-07
-1.09342e-05 3.43586e-05 -5.18567e-08
8.24298e-07 -5.18567e-08 -7.67278e-05
0.000639529 -5.8003e-05 3.9987e-07
-5.8003e-05 7.56434e-05 7.17938e-07
3.9987e-07 7.17938e-07 -2.88339e-05
0.000712574 -5.5878e-05 -2.57177e-07
-5.5878e-05 0.000137294 -3.28069e-08
-2.57177e-07 -3.28069e-08 1.80487e-05
0.000646589 -6.03414e-05 -2.06973e-06
-6.03414e-05 6.93574e-05 1.42642e-06
-2.06973e-06 1.42642e-06 -1.79969e-05
0.000640122 -4.3503e-05 1.40346e-06
-4.3503e-05 7.66929e-05 -6.8934e-07
1.40346e-06 -6.8934e-07 -3.61553e-05
0.00057945 -8.58883e-05 7.2326e-08
-8.58883e-05 3.96876e-05 2.33542e-07
7.2326e-08 2.33542e-07 -5.95492e-05
0.000610396 -2.66832e-05 -2.11804e-06
-2.66832e-05 3.35806e-05 2.93428e-06
-2.11804e-06 2.93428e-06 -2.49342e-05
0.000470884 -5.56407e-06 1.21956e-06
-5.56407e-06 -1.28872e-05 -8.66422e-07
1.21956e-06 -8.66422e-07 -0.000123556
0.000563953 2.01836e-06 1.44995e-06
2.01836e-06 1.47814e-05 2.62225e-09
1.44995e-06 2.62225e-09 -4.64654e-05
0.00139825 5.89842e-06 -3.60277e-06
5.89842e-06 0.000486915 5.66649e-06
-3.60277e-06 5.66649e-06 0.000473134
0.000556883 4.10432e-05 -8.48768e-07
4.10432e-05 1.19068e-05 -2.48422e-06
-8.48768e-07 -2.48422e-06 -4.9068e-05
0.00093948 6.71995e-07 -2.05099e-06
6.71995e-07 0.000212801 8.02964e-07
-2.05099e-06 8.02964e-07 0.000196964
0.000823469 2.927e-06 -4.24202e-06
2.927e-06 0.000137982 5.07693e-06
-4.24202e-06 5.07693e-06 0.000144522
0.0005229 -7.69369e-07 7.26964e-07
-7.69369e-07 -3.80656e-05 -3.96463e-06
7.26964e-07 -3.96463e-06 -5.59625e-05
0.00242588 2.24295e-07 4.85116e-06
2.24295e-07 0.00110389 -8.11049e-09
4.85116e-06 -8.11049e-09 0.00111859
0.000852875 -2.46135e-06 -4.42678e-06
-2.46135e-06 0.000154816 -5.20902e-06
-4.42678e-06 -5.20902e-06 0.000161443
0.000570214 6.35151e-05 2.11339e-06
6.35151e-05 4.50093e-05 3.05532e-07
2.11339e-06 3.05532e-07 -4.07038e-05
0.000554274 3.24754e-05 -1.538e-06
3.24754e-05 -1.89181e-06 -1.71824e-06
-1.538e-06 -1.71824e-06 -4.20468e-05
0.000568377 -6.20085e-06 1.09102e-06
-6.20085e-06 3.58985e-06 1.84221e-08
1.09102e-06 1.84221e-08 -3.66702e-05
0.000570413 8.28612e-06 4.81913e-07
8.28612e-06 -2.19932e-05 -2.99035e-06
4.81913e-07 -2.99035e-06 -2.91262e-05
0.000600332 -3.86433e-05 -1.72442e-06
-3.86433e-05 2.00775e-05 1.29551e-06
-1.72442e-06 1.29551e-06 -2.22441e-05
0.000539664 1.40354e-05 2.49816e-08
1.40354e-05 -4.07839e-05 -7.55134e-07
2.49816e-08 -7.55134e-07 -4.82695e-05
0.00200771 2.89468e-05 6.86402e-06
2.89468e-05 0.000853142 -4.43607e-06
6.86402e-06 -4.43607e-06 0.000870933
0.00113409 3.27092e-05 -6.02469e-07
3.27092e-05 0.0003221 1.77143e-06
-6.02469e-07 1.77143e-06 0.00031566
0.00147223 3.702e-05 3.70992e-08
3.702e-05 0.000533243 1.38899e-06
3.70992e-08 1.38899e-06 0.000545298
0.00088225 4.02752e-05 -1.25448e-05
4.02752e-05 0.000181746 7.16413e-06
-1.25448e-05 7.16413e-06 0.00018789
0.00152289 0.000190952 7.9555e-05
0.000190952 -0.000941909 1.64469e-05
7.9555e-05 1.64469e-05 -0.000763621
0.0019884 -2.58714e-05 1.83256e-06
-2.58714e-05 -3.66499e-05 1.92119e-06
1.83256e-06 1.92119e-06 -1.39516e-05
0.00189177 6.81205e-05 3.58486e-05
6.81205e-05 0.000115095 -1.3178e-05
3.58486e-05 -1.3178e-05 0.000183746
0.00168462 0.000165953 -2.38255e-05
0.000165953 -0.00130517 -1.58284e-05
-2.38255e-05 -1.58284e-05 -0.000760415
0.00191401 7.1685e-05 2.22027e-05
7.1685e-05 -0.000427472 -3.15859e-07
2.22027e-05 -3.15859e-07 -0.000236799
0.00238436 -2.34022e-05 1.32449e-06
-2.34022e-05 0.000373582 -3.91133e-06
1.32449e-06 -3.91133e-06 0.000363221
0.00369454 -0.000117503 -5.95896e-05
-0.000117503 0.000892499 -1.26376e-07
-5.95896e-05 -1.26376e-07 0.000863693
0.0030768 -8.02714e-05 6.82492e-05
-8.02714e-05 0.000315162 8.03436e-06
6.82492e-05 8.03436e-06 0.000322081
0.0108114 -0.000551177 1.52027e-05
-0.000551177 0.00239113 4.31583e-05
1.52027e-05 4.31583e-05 0.000809168
0.0111616 0.0024564 0.000569552
0.0024564 0.00487583 -0.000244607
0.000569552 -0.000244607 0.00439315
0.00705041 0.00271245 -3.1353e-05
0.00271245 0.00534752 1.77867e-05
-3.1353e-05 1.77867e-05 0.00518573
0.000406258 -9.28546e-05 1.62808e-06
-9.28546e-05 -4.71365e-05 -1.44925e-07
1.62808e-06 -1.44925e-07 -0.000145083
0.000625288 -1.17402e-05 1.34285e-06
-1.17402e-05 7.39755e-05 -1.68087e-07
1.34285e-06 -1.68087e-07 -6.53401e-06
0.000680336 -8.19986e-05 -1.62578e-06
-8.19986e-05 0.000114053 9.99032e-07
-1.62578e-06 9.99032e-07 2.70635e-05
0.000613578 -4.53825e-05 -1.21532e-07
-4.53825e-05 6.95772e-05 2.86615e-07
-1.21532e-07 2.86615e-07 -2.76395e-05
0.000606028 5.84359e-05 -1.71547e-06
5.84359e-05 8.81754e-05 2.10677e-06
-1.71547e-06 2.10677e-06 -2.64303e-05
0.000561369 0.000118079 1.48925e-06
0.000118079 3.51822e-05 4.57819e-06
1.48925e-06 4.57819e-06 -7.55788e-05
0.000885051 -1.5586e-05 3.06065e-06
-1.5586e-05 0.000251896 8.06118e-07
3.06065e-06 8.06118e-07 0.000138589
0.000549011 -2.79621e-05 -1.21051e-06
-2.79621e-05 3.84585e-05 1.04233e-06
-1.21051e-06 1.04233e-06 -6.17585e-05
0.0022497 -0.000206796 6.3977e-06
-0.000206796 8.31044e-05 2.20363e-06
6.3977e-06 2.20363e-06 0.000132473
0.00181844 -0.000326172 1.06326e-05
-0.000326172 -0.000233162 -2.84416e-06
1.06326e-05 -2.84416e-06 -0.000156045
0.00161147 -0.000513066 7.68891e-06
-0.000513066 -0.000119985 2.4112e-06
7.68891e-06 2.4112e-06 -0.000245844
0.00145931 -0.000479436 1.75793e-05
-0.000479436 0.000378994 -6.13653e-08
1.75793e-05 -6.13653e-08 5.3344e-05
0.00180371 -0.000613691 6.65593e-06
-0.000613691 0.000268195 3.26346e-06
6.65593e-06 3.26346e-06 2.61537e-05
0.00259933 -0.000600485 1.08659e-05
-0.000600485 0.0012938 -2.32428e-06
1.08659e-05 -2.32428e-06 0.000818354
0.00254068 -0.000343465 2.29442e-06
-0.000343465 0.00119464 -3.1861e-06
2.29442e-06 -3.1861e-06 0.000894355
0.000754693 -0.00013728 5.97737e-06
-0.00013728 0.000146076 -6.28858e-06
5.97737e-06 -6.28858e-06 -2.53673e-05
0.000642936 -3.04437e-05 3.60609e-07
-3.04437e-05 7.47537e-05 2.40218e-06
3.60609e-07 2.40218e-06 -2.34135e-05
0.000843456 -5.46203e-05 3.00875e-06
-5.46203e-05 0.000198999 -9.43107e-06
3.00875e-06 -9.43107e-06 7.109e-05
0.00091517 -2.442e-05 1.88362e-06
-2.442e-05 0.000261197 -3.06108e-07
1.88362e-06 -3.06108e-07 0.000151459
0.000695041 8.22174e-05 2.0492e-06
8.22174e-05 0.000118943 1.58388e-06
2.0492e-06 1.58388e-06 3.77434e-05
0.00204633 -0.000258564 -6.60092e-07
-0.000258564 -5.44787e-05 2.29211e-06
-6.60092e-07 2.29211e-06 6.76258e-05
0.000632015 5.30839e-06 -1.6544e-06
5.30839e-06 0.000106313 -8.49407e-08
-1.6544e-06 -8.49407e-08 -1.58237e-05
0.000872357 -0.000101598 -3.1398e-06
-0.000101598 0.000226268 2.3017e-06
-3.1398e-06 2.3017e-06 0.000102043
0.00170427 -0.000427621 2.50507e-06
-0.000427621 -0.000188568 -1.79851e-06
2.50507e-06 -1.79851e-06 -0.000162404
0.00162137 -0.000608024 3.62867e-07
-0.000608024 -1.52285e-05 -2.75327e-07
3.62867e-07 -2.75327e-07 -0.000204698
0.000971245 -0.000481998 -1.15074e-06
-0.000481998 -3.48752e-06 -1.98606e-06
-1.15074e-06 -1.98606e-06 -0.000241627
0.0011722 -0.000184675 2.58395e-07
-0.000184675 0.00049564 -6.86666e-06
2.58395e-07 -6.86666e-06 0.000267001
0.00120603 -0.000334275 -2.13838e-06
-0.000334275 0.000703134 1.72277e-06
-2.13838e-06 1.72277e-06 0.000205471
0.00308251 -0.000393754 -3.68552e-05
-0.000393754 0.000454983 5.00255e-06
-3.68552e-05 5.00255e-06 0.000511929
0.00292782 -0.00062444 -3.9607e-05
-0.00062444 0.000625081 7.13704e-06
-3.9607e-05 7.13704e-06 0.000576631
0.00200028 -0.000695245 -1.31962e-05
-0.000695245 0.000273485 -5.6684e-07
-1.31962e-05 -5.6684e-07 7.83747e-05
0.000429439 -0.000343335 -1.65215e-05
-0.000343335 -0.000131457 1.54622e-05
-1.65215e-05 1.54622e-05 -0.000342925
0.000656246 -0.000140486 1.6389e-06
-0.000140486 0.000126775 2.72631e-06
1.6389e-06 2.72631e-06 -2.48071e-05
0.00043013 -0.00012005 3.07072e-06
-0.00012005 3.57964e-05 1.09393e-06
3.07072e-06 1.09393e-06 -0.000139116
0.00117471 -0.000133172 -1.32545e-06
-0.000133172 0.000684226 -4.06538e-06
-1.32545e-06 -4.06538e-06 0.000274346
-0.00550117 -0.000141357 0.000302878
-0.000141357 -0.00406328 1.74601e-06
0.000302878 1.74601e-06 -0.00284231
0.0104088 -0.000168141 2.09271e-05
-0.000168141 0.00253023 1.16082e-06
2.09271e-05 1.16082e-06 0.00201254
0.00155967 0.000182544 6.59681e-06
0.000182544 0.000646141 -4.48952e-06
6.59681e-06 -4.48952e-06 0.000481339
0.00106206 0.000303216 1.86696e-06
0.000303216 0.000214586 -1.04253e-06
1.86696e-06 -1.04253e-06 -7.02078e-06
0.00161245 0.000358012 4.98282e-05
0.000358012 -7.70676e-05 2.54154e-05
4.98282e-05 2.54154e-05 -6.7987e-05
0.00250589 0.000644577 1.72562e-05
0.000644577 0.000520103 5.953e-06
1.72562e-05 5.953e-06 0.000307139
0.002395 0.000538068 1.21911e-05
0.000538068 0.000832537 1.50889e-06
1.21911e-05 1.50889e-06 0.000515021
0.0118957 0.000673063 5.92673e-05
0.000673063 0.00297172 3.08327e-05
5.92673e-05 3.08327e-05 0.00186898
0.00779067 0.00119786 -0.000176853
0.00119786 0.000775499 -8.41703e-06
-0.000176853 -8.41703e-06 0.000526367
0.00121174 0.000552851 3.86264e-06
0.000552851 2.88417e-05 -2.01359e-05
3.86264e-06 -2.01359e-05 -0.000385155
0.0111812 -0.00192832 -0.000166629
-0.00192832 0.00499482 6.96739e-06
-0.000166629 6.96739e-06 0.00402248
-0.0062643 -0.00358316 -0.000969083
-0.00358316 -0.00244112 -0.000732399
-0.000969083 -0.000732399 -0.0015794
0.0010015 0.000219043 -6.24401e-07
0.000219043 0.000319284 -1.00959e-06
-6.24401e-07 -1.00959e-06 0.000153237
-0.00243264 -0.00104342 0.000189572
-0.00104342 -0.00242054 2.99004e-05
0.000189572 2.99004e-05 -0.00288542
-0.00327907 -0.000739571 -0.000220376
-0.000739571 0.00216078 -0.000109071
-0.000220376 -0.000109071 -0.000778043
0.00291995 0.000607182 -1.33442e-05
0.000607182 0.000636046 -1.14184e-06
-1.33442e-05 -1.14184e-06 0.000641427
0.000919297 0.000262432 -4.47576e-06
0.000262432 0.000151221 1.6546e-06
-4.47576e-06 1.6546e-06 -7.62082e-05
0.00127019 0.000532551 5.70774e-06
0.000532551 0.000220007 2.29692e-06
5.70774e-06 2.29692e-06 -8.78612e-05
0.00124162 0.00056349 2.30055e-05
0.00056349 3.46098e-05 1.82532e-05
2.30055e-05 1.82532e-05 -2.77594e-05
0.0103759 0.000891696 -7.93388e-05
0.000891696 0.00143808 -3.81245e-05
-7.93388e-05 -3.81245e-05 -0.000472067
0.00581679 0.00170419 -6.8323e-05
0.00170419 0.00121534 -3.43678e-05
-6.8323e-05 -3.43678e-05 0.000527934
0.0124067 -0.00234759 0.000192824
-0.00234759 0.00534002 -4.49355e-05
0.000192824 -4.49355e-05 0.00474472
0.00708616 -0.00201324 0.00017756
-0.00201324 -0.000564719 0.000402445
0.00017756 0.000402445 -0.000101432
0.00173999 0.000221616 -1.71718e-05
0.000221616 0.000754835 -9.64349e-06
-1.71718e-05 -9.64349e-06 0.000607866
-0.00748321 0.000511138 -9.46176e-05
0.000511138 0.00142295 -7.18639e-05
-9.46176e-05 -7.18639e-05 -0.00218051
0.00352994 0.000429593 -0.00022096
0.000429593 0.00225187 -0.000277077
-0.00022096 -0.000277077 -0.00120921
0.00187183 0.000522135 -2.07701e-05
0.000522135 0.000331837 7.67584e-06
-2.07701e-05 7.67584e-06 0.000333432
0.0017477 0.000480999 -5.61141e-05
0.000480999 0.000687366 -1.98588e-05
-5.61141e-05 -1.98588e-05 0.000432576
0.00226459 0.000477642 -6.09453e-05
0.000477642 0.00131359 -5.91318e-06
-6.09453e-05 -5.91318e-06 0.000846293
0.00102725 0.00110359 -4.94738e-05
0.00110359 -0.000119713 -1.84063e-05
-4.94738e-05 -1.84063e-05 -0.000337274
2.7929e-05 0.00112721 0.000190152
0.00112721 -0.000826699 0.00012603
0.000190152 0.00012603 -0.00374387
0.0114593 -0.00278868 0.000146312
-0.00278868 0.00435349 0.000363275
0.000146312 0.000363275 0.00329353
0.00578219 -0.00106252 -6.61447e-05
-0.00106252 -0.00204499 -7.06073e-05
-6.61447e-05 -7.06073e-05 -0.000847742
0.000432454 0.000114914 2.6668e-06
0.000114914 1.36012e-06 -6.15245e-07
2.6668e-06 -6.15245e-07 -0.000115581
0.00123574 0.000167956 6.85046e-06
0.000167956 0.000463156 3.55256e-06
6.85046e-06 3.55256e-06 0.000342205
-0.00014358 5.99167e-05 3.96511e-06
5.99167e-05 -0.000273843 -8.93895e-06
3.96511e-06 -8.93895e-06 -0.00040461
0.000431483 4.73506e-05 1.46712e-06
4.73506e-05 -4.33029e-05 -5.73702e-07
1.46712e-06 -5.73702e-07 -0.000148789
0.000744459 5.25809e-05 -3.79565e-07
5.25809e-05 0.000162185 -1.24877e-06
-3.79565e-07 -1.24877e-06 2.34641e-05
0.000773338 -8.52954e-06 -6.76372e-07
-8.52954e-06 0.000156806 1.60347e-06
-6.76372e-07 1.60347e-06 2.69418e-05
0.000705098 9.49165e-06 3.42472e-06
9.49165e-06 0.000128676 5.13634e-07
3.42472e-06 5.13634e-07 -1.32623e-06
0.000366992 5.22553e-05 -6.30682e-07
5.22553e-05 -6.76474e-05 2.2307e-06
-6.30682e-07 2.2307e-06 -0.00018162
0.000757064 4.69456e-05 2.70324e-08
4.69456e-05 0.00017174 -8.35494e-07
2.70324e-08 -8.35494e-07 3.29592e-05
0.000821255 5.39352e-05 2.03877e-07
5.39352e-05 0.000189418 1.08149e-07
2.03877e-07 1.08149e-07 7.04831e-05
0.000777733 -4.36589e-05 -7.18581e-07
-4.36589e-05 0.000161307 8.26003e-07
-7.18581e-07 8.26003e-07 2.76573e-05
-0.00016777 3.09481e-05 8.16197e-07
3.09481e-05 -0.000316891 5.9175e-07
8.16197e-07 5.9175e-07 -0.000444533
-0.00071988 1.81436e-05 -7.18876e-07
1.81436e-05 -0.000451306 -1.09544e-06
-7.18876e-07 -1.09544e-06 -0.000665847
0.000977913 -1.9785e-06 -4.04824e-06
-1.9785e-06 0.000295252 -5.65115e-06
-4.04824e-06 -5.65115e-06 0.00017004
0.00091887 5.51093e-06 -6.23752e-08
5.51093e-06 0.000269956 -1.51902e-08
-6.23752e-08 -1.51902e-08 0.000112698
0.000780184 -5.75153e-05 -5.4841e-07
-5.75153e-05 0.000189702 -1.01215e-06
-5.4841e-07 -1.01215e-06 4.9085e-05
0.000857952 -4.99152e-05 2.76379e-07
-4.99152e-05 0.000207616 1.60615e-06
2.76379e-07 1.60615e-06 9.45527e-05
0.000799373 -4.99205e-05 5.05943e-07
-4.99205e-05 0.000190417 -7.17959e-07
5.05943e-07 -7.17959e-07 4.94088e-05
0.000759162 -1.19508e-05 -3.53175e-07
-1.19508e-05 0.000151006 4.79946e-08
-3.53175e-07 4.79946e-08 3.6955e-05
0.000329159 -5.38018e-05 5.8797e-07
-5.38018e-05 -9.06448e-05 1.69435e-06
5.8797e-07 1.69435e-06 -0.000192814
0.000589626 -2.58025e-06 7.82723e-07
-2.58025e-06 5.02872e-05 1.08507e-06
7.82723e-07 1.08507e-06 -5.96602e-05
0.000302939 -4.19672e-06 -3.53348e-06
-4.19672e-06 -9.07906e-05 -3.56627e-06
-3.53348e-06 -3.56627e-06 -0.000218864
0.000100294 -4.41794e-05 2.48542e-06
-4.41794e-05 -0.000225076 -1.16625e-06
2.48542e-06 -1.16625e-06 -0.000324007
0.000766348 -4.79044e-05 3.47281e-06
-4.79044e-05 0.00010698 -6.74806e-06
3.47281e-06 -6.74806e-06 1.0006e-05
-7.20865e-05 -4.55242e-05 -3.40424e-07
-4.55242e-05 -0.000376392 1.87122e-06
-3.40424e-07 1.87122e-06 -0.000526885
0.000311298 -4.47505e-06 -1.51512e-06
-4.47505e-06 -0.000115412 -8.42261e-07
-1.51512e-06 -8.42261e-07 -0.000231476
0.000732539 -2.00221e-05 2.13262e-07
-2.00221e-05 0.000123606 1.29958e-07
2.13262e-07 1.29958e-07 1.02875e-05
0.000623636 -2.16647e-05 2.88872e-07
-2.16647e-05 6.36179e-05 9.32317e-07
2.88872e-07 9.32317e-07 -4.0395e-05
0.000713455 -4.02948e-05 -1.7059e-07
-4.02948e-05 0.000133778 -5.13764e-08
-1.7059e-07 -5.13764e-08 1.91982e-05
0.000549077 -3.29432e-06 -4.10943e-07
-3.29432e-06 1.84944e-05 1.27321e-06
-4.10943e-07 1.27321e-06 -7.11718e-05
0.000766543 -3.61771e-05 -1.90307e-07
-3.61771e-05 0.00016666 -2.74749e-07
-1.90307e-07 -2.74749e-07 4.93066e-05
0.000655202 -5.30139e-05 -5.61754e-07
-5.30139e-05 8.41018e-05 1.15414e-07
-5.61754e-07 1.15414e-07 -9.39274e-06
0.000536651 4.04105e-05 -6.5063e-07
4.04105e-05 -1.173e-05 2.75915e-06
-6.5063e-07 2.75915e-06 -7.15963e-05
0.000501734 -7.55005e-05 1.8354e-06
-7.55005e-05 -1.22047e-05 -1.33404e-06
1.8354e-06 -1.33404e-06 -0.000109162
0.000578242 -9.83945e-06 -4.27027e-07
-9.83945e-06 1.34536e-05 1.46315e-08
-4.27027e-07 1.46315e-08 -4.42091e-05
0.00139438 1.75383e-05 -5.15326e-06
1.75383e-05 0.000482425 5.88931e-06
-5.15326e-06 5.88931e-06 0.000468049
0.000568433 -3.30958e-05 1.18241e-06
-3.30958e-05 1.48039e-05 -2.47072e-06
1.18241e-06 -2.47072e-06 -4.47637e-05
0.000933677 4.91564e-06 -2.97728e-06
4.91564e-06 0.000206552 7.27421e-07
-2.97728e-06 7.27421e-07 0.000190873
0.000759329 1.45452e-05 1.4828e-07
1.45452e-05 9.60123e-05 2.07091e-06
1.4828e-07 2.07091e-06 0.000102694
0.000516776 -4.26984e-06 1.00749e-06
-4.26984e-06 -4.3226e-05 -3.96966e-06
1.00749e-06 -3.96966e-06 -6.08462e-05
0.00242847 1.39289e-05 4.78e-06
1.39289e-05 0.00110554 6.2411e-08
4.78e-06 6.2411e-08 0.00112011
0.002418 1.93713e-06 -5.54908e-07
1.93713e-06 0.00109917 -5.27506e-06
-5.54908e-07 -5.27506e-06 0.00111386
0.000990032 7.25077e-05 -8.90465e-07
7.25077e-05 0.000292558 -3.80542e-07
-8.90465e-07 -3.80542e-07 0.000207816
0.00057561 4.19616e-05 -1.33585e-06
4.19616e-05 1.47163e-05 -2.00983e-06
-1.33585e-06 -2.00983e-06 -2.8713e-05
0.000617561 -1.09747e-05 5.42619e-07
-1.09747e-05 7.32205e-05 8.65386e-07
5.42619e-07 8.65386e-07 -1.20732e-05
0.000571365 3.66613e-06 4.60038e-07
3.66613e-06 -2.15716e-05 -3.22898e-06
4.60038e-07 -3.22898e-06 -2.86489e-05
0.00056711 -1.54055e-05 1.63172e-07
-1.54055e-05 6.4318e-06 -2.13755e-08
1.63172e-07 -2.13755e-08 -3.41728e-05
0.000596448 -3.89139e-05 -1.474e-06
-3.89139e-05 2.17753e-05 1.14375e-06
-1.474e-06 1.14375e-06 -1.95976e-05
0.000554024 7.76884e-06 -2.68977e-07
7.76884e-06 -3.19238e-05 -1.99628e-08
-2.68977e-07 -1.99628e-08 -3.89862e-05
0.00199352 1.58593e-05 2.28517e-06
1.58593e-05 0.000842163 -4.58495e-06
2.28517e-06 -4.58495e-06 0.000860878
0.001123 2.13174e-05 -7.03268e-07
2.13174e-05 0.000312494 1.74881e-06
-7.03268e-07 1.74881e-06 0.000308165
0.00137513 2.44839e-05 4.36163e-07
2.44839e-05 0.00046967 -7.72607e-09
4.36163e-07 -7.72607e-09 0.000484139
0.000852087 2.91724e-05 -1.20647e-05
2.91724e-05 0.000157873 6.97159e-06
-1.20647e-05 6.97159e-06 0.000167078
-0.0089495 0.000573425 0.000258526
0.000573425 -0.00380722 -3.59758e-07
0.000258526 -3.59758e-07 -0.00508384
-0.00225419 -4.49501e-05 0.000380106
-4.49501e-05 0.0029178 -4.66074e-05
0.000380106 -4.66074e-05 0.000780784
0.00444744 0.000248958 -0.000227497
0.000248958 -8.17808e-05 -1.72797e-05
-0.000227497 -1.72797e-05 0.000594652
0.000500019 4.54196e-05 2.67137e-05
4.54196e-05 -0.00111335 -1.9414e-05
2.67137e-05 -1.9414e-05 -0.000992197
0.00146144 -3.28245e-05 1.74382e-05
-3.28245e-05 -0.000241265 2.13616e-06
1.74382e-05 2.13616e-06 -0.000249392
-0.000279815 4.94166e-05 -3.01961e-05
4.94166e-05 -0.000914831 -1.02777e-05
-3.01961e-05 -1.02777e-05 -0.000705887
0.00283852 -0.000158234 -3.28326e-06
-0.000158234 0.000301654 4.73072e-06
-3.28326e-06 4.73072e-06 0.000274628
0.00982055 9.14408e-05 7.66845e-05
9.14408e-05 0.00100909 -3.62123e-05
7.66845e-05 -3.62123e-05 -5.01289e-05
-0.00275741 0.00151625 -1.50402e-05
0.00151625 -0.000546136 -2.38221e-05
-1.50402e-05 -2.38221e-05 -0.00225096
0.000497825 0.00298836 -0.000195915
0.00298836 0.00161939 0.000106187
-0.000195915 0.000106187 0.00203653
0.00193919 -0.000323544 6.77196e-05
-0.000323544 -0.000890682 -1.06287e-05
6.77196e-05 -1.06287e-05 -0.000751935
0.0133899 -0.000712269 0.000129332
-0.000712269 0.00311681 -3.40484e-05
0.000129332 -3.40484e-05 0.00153979
0.00543656 0.00288672 0.000192231
0.00288672 0.000874032 -0.000337393
0.000192231 -0.000337393 0.000881676
0.00897734 0.00206048 -0.000263524
0.00206048 0.00169418 0.000164297
-0.000263524 0.000164297 0.00122426
0.000757836 0.000103507 -2.42125e-06
0.000103507 0.000185886 1.93997e-06
-2.42125e-06 1.93997e-06 5.07973e-05
0.000462015 1.97399e-05 -1.0544e-07
1.97399e-05 -1.96985e-05 -7.96009e-07
-1.0544e-07 -7.96009e-07 -0.000112752
0.000650456 -9.08607e-05 -8.18603e-07
-9.08607e-05 9.47979e-05 7.75962e-07
-8.18603e-07 7.75962e-07 9.63439e-06
0.000550365 -8.20876e-06 1.44115e-06
-8.20876e-06 3.97587e-05 -7.88579e-07
1.44115e-06 -7.88579e-07 -6.18737e-05
0.000608958 5.70939e-05 1.08431e-06
5.70939e-05 9.54541e-05 1.38376e-06
1.08431e-06 1.38376e-06 -2.01679e-05
0.000729762 4.76145e-05 3.27156e-07
4.76145e-05 0.000169268 3.90042e-06
3.27156e-07 3.90042e-06 3.28227e-05
0.000747554 9.06286e-05 1.40971e-06
9.06286e-05 0.000160807 2.04646e-06
1.40971e-06 2.04646e-06 4.14176e-05
0.000583734 2.69986e-05 3.7652e-06
2.69986e-05 4.819e-05 7.02703e-07
3.7652e-06 7.02703e-07 -7.11197e-05
0.000714901 -2.8659e-05 1.64253e-06
-2.8659e-05 0.000150118 -9.57889e-07
1.64253e-06 -9.57889e-07 3.47054e-05
0.000515293 -8.76273e-06 -4.13961e-08
-8.76273e-06 6.60608e-06 -7.66311e-07
-4.13961e-08 -7.66311e-07 -8.75742e-05
0.00173142 -0.00024112 2.25886e-05
-0.00024112 -0.000153741 1.70305e-07
2.25886e-05 1.70305e-07 -5.51053e-05
0.00126969 -0.000406933 2.97623e-05
-0.000406933 -0.000416046 -4.97793e-06
2.97623e-05 -4.97793e-06 -0.00038893
0.000270778 -0.000481546 1.66169e-05
-0.000481546 -0.000739155 3.0305e-06
1.66169e-05 3.0305e-06 -0.000881214
-2.54905e-05 -0.000393265 8.41982e-06
-0.000393265 -0.000535924 -5.82725e-07
8.41982e-06 -5.82725e-07 -0.000770771
0.00278382 -0.000400951 5.67887e-06
-0.000400951 0.00153769 8.05046e-06
5.67887e-06 8.05046e-06 0.00109966
0.000816956 -0.000229526 5.59914e-06
-0.000229526 0.000289892 -3.07136e-06
5.59914e-06 -3.07136e-06 2.73574e-05
0.00111644 -0.000118923 2.92744e-07
-0.000118923 0.000357495 -8.15262e-07
2.92744e-07 -8.15262e-07 0.000245416
0.000735003 -1.65494e-06 -1.89969e-06
-1.65494e-06 0.000166961 1.63917e-06
-1.89969e-06 1.63917e-06 4.67893e-05
0.00219976 -0.000333319 7.45904e-06
-0.000333319 4.88328e-05 -4.34223e-06
7.45904e-06 -4.34223e-06 0.000124512
0.000636904 -6.72372e-05 -1.93109e-07
-6.72372e-05 0.000119565 -2.0793e-07
-1.93109e-07 -2.0793e-07 -3.74373e-05
0.000202264 -0.000103557 9.85573e-07
-0.000103557 -9.27768e-05 -2.19057e-06
9.85573e-07 -2.19057e-06 -0.00026947
0.00202721 -0.000562765 7.71429e-06
-0.000562765 0.000151202 -1.45614e-06
7.71429e-06 -1.45614e-06 0.00011012
0.00156345 -0.000667158 4.71126e-07
-0.000667158 -1.87465e-06 3.04241e-06
4.71126e-07 3.04241e-06 -0.000166407
0.000284095 -0.000377319 9.30946e-06
-0.000377319 -0.000205165 -5.43569e-06
9.30946e-06 -5.43569e-06 -0.00044049
0.00144346 -0.000197742 -1.19666e-06
-0.000197742 0.000812541 -5.78686e-06
-1.19666e-06 -5.78686e-06 0.000423553
0.00240274 -0.000532169 -4.02457e-05
-0.000532169 0.000563375 7.81699e-06
-4.02457e-05 7.81699e-06 0.00026864
0.00167959 -0.00053447 -4.50376e-05
-0.00053447 0.000225363 6.93825e-06
-4.50376e-05 6.93825e-06 0.000136766
0.00068764 -0.00031167 -4.00458e-05
-0.00031167 0.000213266 3.55643e-05
-4.00458e-05 3.55643e-05 -7.39732e-05
-0.000934969 -5.38358e-05 -2.51433e-07
-5.38358e-05 -0.000796768 3.65932e-06
-2.51433e-07 3.65932e-06 -0.000957356
0.000141766 -0.000112381 3.20526e-06
-0.000112381 -0.000132029 3.27575e-06
3.20526e-06 3.27575e-06 -0.000317857
0.000783269 -9.10787e-05 4.67816e-06
-9.10787e-05 0.000332237 1.85234e-06
4.67816e-06 1.85234e-06 5.77177e-05
-0.000429502 0.000447392 -0.000201706
0.000447392 0.00467664 6.82049e-06
-0.000201706 6.82049e-06 0.00224554
0.00147268 -0.000605376 1.28892e-05
-0.000605376 0.00145996 2.63752e-05
1.28892e-05 2.63752e-05 0.00143539
0.00134935 0.000853552 -6.5794e-05
0.000853552 -0.00351325 -3.35007e-06
-6.5794e-05 -3.35007e-06 -0.00386518
0.00046447 0.000172248 5.62931e-06
0.000172248 1.34433e-05 2.348e-06
5.62931e-06 2.348e-06 -0.00014578
0.00117798 0.00034115 8.13466e-06
0.00034115 0.000325865 1.25225e-05
8.13466e-06 1.25225e-05 7.3611e-05
0.00314775 0.000536576 3.62583e-05
0.000536576 0.000783432 1.35177e-05
3.62583e-05 1.35177e-05 0.000781775
0.00196414 0.000589857 1.84971e-05
0.000589857 0.000600238 1.49999e-05
1.84971e-05 1.49999e-05 0.000282443
0.00815831 -0.00119632 8.84146e-05
-0.00119632 0.00283129 4.48676e-05
8.84146e-05 4.48676e-05 0.00300992
0.00351776 0.000276115 -0.000194529
0.000276115 -0.00222041 -5.67893e-06
-0.000194529 -5.67893e-06 -0.00408529
0.00320246 0.00155653 -4.99722e-05
0.00155653 -0.000322724 -7.79782e-06
-4.99722e-05 -7.79782e-06 -0.000847141
0.00107192 0.000403974 2.93615e-05
0.000403974 0.000174028 -2.66776e-05
2.93615e-05 -2.66776e-05 0.000165371
-0.00298233 -0.00142912 -0.000173288
-0.00142912 -0.000467841 -0.000185457
-0.000173288 -0.000185457 -0.00136243
-0.000861933 -0.00122851 -0.00017958
-0.00122851 0.00222917 -4.76654e-05
-0.00017958 -4.76654e-05 -0.000746659
0.0119192 -0.00254704 0.00030417
-0.00254704 0.00200413 0.000206888
0.00030417 0.000206888 0.0025723
0.000648553 0.000156404 8.55968e-06
0.000156404 0.000138217 -2.66911e-06
8.55968e-06 -2.66911e-06 -1.32385e-05
-0.00271847 0.000183507 -0.000110294
0.000183507 0.0028151 -2.74212e-05
-0.000110294 -2.74212e-05 -0.000202718
0.00392606 0.00049213 -2.56623e-05
0.00049213 0.00214528 -0.000101427
-2.56623e-05 -0.000101427 -0.00146951
0.00132518 0.000487146 -3.48441e-06
0.000487146 9.44893e-05 4.85324e-06
-3.48441e-06 4.85324e-06 5.91642e-05
0.000557053 0.000338006 6.02045e-06
0.000338006 9.17377e-05 2.83799e-06
6.02045e-06 2.83799e-06 -0.000169845
-0.000373387 0.000389227 5.76575e-06
0.000389227 -0.000187626 -4.31653e-05
5.76575e-06 -4.31653e-05 -0.0005286
0.00479038 0.00174937 -6.59776e-06
0.00174937 0.00166295 7.92361e-06
-6.59776e-06 7.92361e-06 0.00114285
0.0135882 0.00138093 7.11018e-05
0.00138093 0.00448722 2.48053e-05
7.11018e-05 2.48053e-05 0.00239423
0.00518324 -0.00180678 3.89188e-05
-0.00180678 0.000362356 -5.47185e-05
3.89188e-05 -5.47185e-05 -0.000888978
0.0108352 -0.00149456 -1.07913e-06
-0.00149456 0.00142979 -4.43789e-05
-1.07913e-06 -4.43789e-05 0.00269516
0.000499163 0.000222511 -7.45661e-06
0.000222511 0.000100094 -1.26452e-05
-7.45661e-06 -1.26452e-05 -4.70447e-05
0.00296812 0.000133733 -0.000163149
0.000133733 0.00128873 -2.88076e-05
-0.000163149 -2.88076e-05 -0.00101122
5.77416e-05 0.000171123 -3.38006e-05
0.000171123 -3.59732e-05 -0.000110472
-3.38006e-05 -0.000110472 -0.00156196
-0.000952938 0.000112845 -8.28347e-06
0.000112845 -0.00042655 -1.76412e-05
-8.28347e-06 -1.76412e-05 -0.000603942
0.000928732 0.000365976 -5.80058e-05
0.000365976 0.000987814 3.59901e-05
-5.80058e-05 3.59901e-05 0.000255896
0.0105604 0.0018684 4.78115e-05
0.0018684 0.00404635 -3.21897e-07
4.78115e-05 -3.21897e-07 0.00074104
-0.006567 -0.00261537 -3.66532e-05
-0.00261537 -0.00312995 0.000158332
-3.66532e-05 0.000158332 -0.00578743
0.00879008 0.000530882 2.90877e-05
0.000530882 -0.00117591 -0.000216894
2.90877e-05 -0.000216894 0.00110726
0.000873171 0.000130864 1.05705e-06
0.000130864 0.000229381 8.50123e-06
1.05705e-06 8.50123e-06 0.000118321
0.00097276 0.000156921 -6.27013e-06
0.000156921 0.000384365 -1.32604e-06
-6.27013e-06 -1.32604e-06 0.000246308
0.000397604 9.95045e-05 -1.35878e-06
9.95045e-05 0.000211339 -6.92851e-06
-1.35878e-06 -6.92851e-06 -5.19306e-06
0.000739149 8.04495e-05 -2.52253e-06
8.04495e-05 0.000149873 -1.57147e-06
-2.52253e-06 -1.57147e-06 1.94082e-05
0.00084292 -3.07201e-05 -7.92452e-07
-3.07201e-05 0.000210166 1.94482e-06
-7.92452e-07 1.94482e-06 6.93053e-05
0.000471969 3.80642e-05 1.67276e-06
3.80642e-05 -2.31658e-05 2.22431e-06
1.67276e-06 2.22431e-06 -0.000142062
-0.000361055 2.15114e-05 1.45504e-06
2.15114e-05 -0.000410791 4.28172e-06
1.45504e-06 4.28172e-06 -0.000542496
0.000786398 -9.46384e-06 1.12053e-06
-9.46384e-06 0.00017096 1.52673e-07
1.12053e-06 1.52673e-07 2.89221e-05
0.000802278 2.52287e-05 1.48409e-07
2.52287e-05 0.000195767 -1.26047e-06
1.48409e-07 -1.26047e-06 6.77468e-05
0.000219267 -5.49456e-06 1.05054e-06
-5.49456e-06 9.80938e-05 2.25817e-06
1.05054e-06 2.25817e-06 -0.000116039
-0.000878982 1.63257e-05 -1.39036e-06
1.63257e-05 -0.000301384 2.8132e-06
-1.39036e-06 2.8132e-06 -0.000625443
0.000771029 3.06062e-06 -2.41228e-06
3.06062e-06 0.000369618 -6.23593e-06
-2.41228e-06 -6.23593e-06 0.000181712
0.000883223 3.28812e-05 -1.51387e-06
3.28812e-05 0.000236786 -3.65543e-06
-1.51387e-06 -3.65543e-06 9.65388e-05
0.000880383 -0.000117278 1.12621e-06
-0.000117278 0.000226221 5.32434e-07
1.12621e-06 5.32434e-07 9.20981e-05
0.000723262 -1.33063e-05 -1.92468e-07
-1.33063e-05 0.000122956 -2.42334e-07
-1.92468e-07 -2.42334e-07 1.16673e-05
0.000536727 -6.34646e-05 -9.03354e-07
-6.34646e-05 4.1725e-05 4.09987e-06
-9.03354e-07 4.09987e-06 -5.73595e-05
0.000424172 -2.7741e-05 2.07724e-06
-2.7741e-05 -3.10894e-05 1.95307e-06
2.07724e-06 1.95307e-06 -0.000151084
0.00069389 -9.10501e-06 2.49252e-07
-9.10501e-06 0.000112244 -1.72505e-07
2.49252e-07 -1.72505e-07 5.84507e-07
0.000555495 -3.84685e-05 -1.30299e-07
-3.84685e-05 4.23056e-05 -4.44367e-07
-1.30299e-07 -4.44367e-07 -5.48059e-05
0.00103581 -4.04344e-05 -1.92868e-06
-4.04344e-05 0.00029405 -3.66292e-06
-1.92868e-06 -3.66292e-06 0.000194219
-7.93315e-05 -3.83013e-05 4.27665e-06
-3.83013e-05 -0.000251293 -4.92918e-06
4.27665e-06 -4.92918e-06 -0.000346131
0.000351019 -0.000116221 7.40921e-08
-0.000116221 -0.000200602 2.9356e-08
7.40921e-08 2.9356e-08 -0.000295316
0.000761735 -8.17516e-05 -3.50097e-06
-8.17516e-05 0.000112328 -4.56428e-07
-3.50097e-06 -4.56428e-07 9.57039e-06
0.000423242 -0.000110137 5.30742e-06
-0.000110137 -8.76324e-05 3.75624e-06
5.30742e-06 3.75624e-06 -0.000231532
0.00122169 -0.000268775 -1.99288e-06
-0.000268775 0.000332237 8.97557e-06
-1.99288e-06 8.97557e-06 9.45641e-05
0.00140684 -0.000141057 7.30715e-07
-0.000141057 0.000543231 -9.80783e-07
7.30715e-07 -9.80783e-07 0.000397792
0.000233046 -8.38393e-05 -2.80126e-06
-8.38393e-05 -0.000175128 -5.27775e-06
-2.80126e-06 -5.27775e-06 -0.000328458
0.000675398 -2.40638e-05 -1.06527e-07
-2.40638e-05 8.91442e-05 3.06164e-07
-1.06527e-07 3.06164e-07 -2.56278e-05
0.000305474 -1.22526e-05 -2.34924e-07
-1.22526e-05 -0.000114173 -5.43019e-08
-2.34924e-07 -5.43019e-08 -0.000226709
0.000874185 -3.56505e-05 -7.50287e-07
-3.56505e-05 0.000206054 8.46123e-07
-7.50287e-07 8.46123e-07 9.01706e-05
0.000723285 -5.0793e-05 -6.0208e-07
-5.0793e-05 0.000134716 6.58172e-07
-6.0208e-07 6.58172e-07 1.94914e-05
0.000589515 -2.98244e-05 -4.43573e-07
-2.98244e-05 3.48543e-05 1.32419e-06
-4.43573e-07 1.32419e-06 -5.36112e-05
0.00085535 -7.21811e-05 -4.81866e-07
-7.21811e-05 0.000232527 -1.18296e-06
-4.81866e-07 -1.18296e-06 0.000105138
0.000668587 -6.19162e-05 -5.99997e-07
-6.19162e-05 9.09503e-05 -3.68264e-08
-5.99997e-07 -3.68264e-08 -1.67482e-06
0.000563413 2.73214e-05 -2.01669e-06
2.73214e-05 2.70906e-06 2.22583e-06
-2.01669e-06 2.22583e-06 -5.76357e-05
0.000701315 -9.35377e-05 1.92542e-06
-9.35377e-05 0.000114652 -1.56266e-06
1.92542e-06 -1.56266e-06 1.79785e-05
0.000627713 -2.13419e-05 -2.51663e-07
-2.13419e-05 3.85287e-05 5.96277e-08
-2.51663e-07 5.96277e-08 -1.92079e-05
0.00138946 2.83799e-05 -8.03544e-06
2.83799e-05 0.000478405 5.93947e-06
-8.03544e-06 5.93947e-06 0.000463253
0.00059629 -3.98721e-05 2.09758e-06
-3.98721e-05 2.76059e-05 -2.54567e-06
2.09758e-06 -2.54567e-06 -3.2288e-05
0.000943128 1.47884e-05 -4.02664e-06
1.47884e-05 0.000209975 7.06472e-07
-4.02664e-06 7.06472e-07 0.000193607
0.000769908 2.34563e-05 -5.17459e-08
2.34563e-05 0.000104147 2.2678e-06
-5.17459e-08 2.2678e-06 0.000109261
0.00052302 2.24229e-06 5.61895e-07
2.24229e-06 -4.24298e-05 -4.10418e-06
5.61895e-07 -4.10418e-06 -6.00234e-05
0.00158174 2.35107e-05 6.25964e-06
2.35107e-05 0.000594131 -1.49677e-06
6.25964e-06 -1.49677e-06 0.000604577
0.00240253 1.62458e-05 4.7689e-06
1.62458e-05 0.00108985 -5.1979e-06
4.7689e-06 -5.1979e-06 0.00110447
0.000668896 1.73073e-05 1.57363e-06
1.73073e-05 8.87028e-05 -1.12557e-06
1.57363e-06 -1.12557e-06 4.5682e-07
0.000630866 3.84025e-05 -7.96437e-07
3.84025e-05 4.47704e-05 -1.79909e-06
-7.96437e-07 -1.79909e-06 -6.61803e-07
0.000674829 -3.54537e-06 1.23867e-06
-3.54537e-06 0.000100283 4.02967e-07
1.23867e-06 4.02967e-07 1.63286e-05
0.000557259 -1.50574e-06 6.34863e-07
-1.50574e-06 -2.89388e-05 -3.46478e-06
6.34863e-07 -3.46478e-06 -3.69199e-05
0.000570078 3.09203e-05 9.37814e-08
3.09203e-05 8.99368e-06 -3.67816e-08
9.37814e-08 -3.67816e-08 -3.30239e-05
0.000635302 -9.6787e-05 -3.55271e-06
-9.6787e-05 7.78107e-05 1.21133e-06
-3.55271e-06 1.21133e-06 -3.10525e-06
0.0020095 2.88997e-06 -2.54468e-06
2.88997e-06 0.000850358 -4.71592e-06
-2.54468e-06 -4.71592e-06 0.000869433
0.000551553 3.04281e-06 -1.80964e-07
3.04281e-06 -3.2959e-05 1.3145e-09
-1.80964e-07 1.3145e-09 -4.00433e-05
0.000572951 -1.97421e-05 -1.62659e-06
-1.97421e-05 8.00108e-06 1.55385e-06
-1.62659e-06 1.55385e-06 -3.14535e-05
0.000535054 7.32702e-06 -7.50858e-07
7.32702e-06 -4.34269e-05 3.07631e-06
-7.50858e-07 3.07631e-06 -5.04364e-05
0.00202126 1.73883e-05 -4.18192e-06
1.73883e-05 0.000859103 -5.65987e-08
-4.18192e-06 -5.65987e-08 0.000877647
0.00199934 2.98334e-05 -8.82095e-06
2.98334e-05 0.000848092 4.31233e-06
-8.82095e-06 4.31233e-06 0.000866003
-0.00525332 -0.00062135 -7.00466e-05
-0.00062135 0.00233934 2.68026e-05
-7.00466e-05 2.68026e-05 -0.000394955
3.0312e-06 0.000642047 -0.000118866
0.000642047 -0.000213487 2.85242e-05
-0.000118866 2.85242e-05 -0.00100649
0.00327181 -0.000531681 -0.000349456
-0.000531681 0.00114656 0.00018864
-0.000349456 0.00018864 -0.00218687
-0.00307219 6.25943e-05 0.000506021
6.25943e-05 0.00295176 -0.000206184
0.000506021 -0.000206184 0.000753542
0.00047287 0.000320488 -1.39983e-05
0.000320488 -0.00128533 -2.17411e-06
-1.39983e-05 -2.17411e-06 -0.00109374
0.00249558 -0.000216089 0.000101654
-0.000216089 1.67149e-05 -6.96384e-06
0.000101654 -6.96384e-06 2.32799e-05
0.00111197 -0.000388127 3.05398e-05
-0.000388127 -0.00255993 -7.45713e-05
3.05398e-05 -7.45713e-05 -0.00427674
0.0123835 0.0014791 -0.000226377
0.0014791 0.0058786 -3.52467e-06
-0.000226377 -3.52467e-06 0.0048085
-0.00629276 0.00339879 -0.000899535
0.00339879 -0.00242935 0.000698173
-0.000899535 0.000698173 -0.00151244
0.00310435 -0.000200131 -3.50541e-07
-0.000200131 -0.000268388 -2.41886e-06
-3.50541e-07 -2.41886e-06 -0.000222282
0.00597172 -0.000754848 7.24346e-05
-0.000754848 -0.00031348 -6.79255e-05
7.24346e-05 -6.79255e-05 -0.00257494
0.0132696 0.0026616 -0.000128082
0.0026616 0.0039174 -9.33919e-05
-0.000128082 -9.33919e-05 0.00397288
0.00591348 0.00206195 -8.08259e-05
0.00206195 -0.000442783 0.000217761
-8.08259e-05 0.000217761 -0.000899197
0.00233417 -0.00085144 -7.95913e-05
-0.00085144 -0.00132824 2.35925e-05
-7.95913e-05 2.35925e-05 -0.00104906
0.00318021 -0.00137113 0.000230826
-0.00137113 -5.44239e-05 -0.000155586
0.000230826 -0.000155586 -0.00358529
-0.00280799 0.00165447 -7.14435e-05
0.00165447 -0.00330425 -0.000415317
-7.14435e-05 -0.000415317 -0.00406932
0.0051799 0.00101943 -0.000107579
0.00101943 -0.00297081 6.98992e-06
-0.000107579 6.98992e-06 -0.00167826
0.00117865 -4.70303e-05 1.19703e-06
-4.70303e-05 0.000459987 6.38949e-06
1.19703e-06 6.38949e-06 0.00029374
0.000637005 8.6836e-05 -1.72891e-06
8.6836e-05 0.000102754 -1.49467e-06
-1.72891e-06 -1.49467e-06 -2.21184e-05
0.000604593 7.39761e-05 2.21917e-07
7.39761e-05 6.06244e-05 -1.65137e-06
2.21917e-07 -1.65137e-06 -2.80563e-05
0.000652363 6.09259e-05 4.18226e-06
6.09259e-05 0.000124428 5.44826e-07
4.18226e-06 5.44826e-07 9.55257e-06
0.00061718 5.77259e-05 2.16106e-06
5.77259e-05 8.90165e-05 2.25077e-06
2.16106e-06 2.25077e-06 -6.58705e-05
0.000687586 5.7868e-05 -2.43325e-07
5.7868e-05 0.000141103 1.59889e-06
-2.43325e-07 1.59889e-06 1.07497e-05
0.000568273 3.62439e-05 7.89306e-07
3.62439e-05 5.56126e-05 -7.02452e-07
7.89306e-07 -7.02452e-07 -6.15065e-05
0.000874864 0.000137566 1.84857e-06
0.000137566 0.00024715 2.65666e-06
1.84857e-06 2.65666e-06 0.000103253
0.000841482 8.95272e-05 -1.03159e-07
8.95272e-05 0.000229148 3.44652e-07
-1.03159e-07 3.44652e-07 9.23989e-05
0.00048315 -1.37161e-05 -3.64989e-06
-1.37161e-05 7.2937e-06 -2.603e-06
-3.64989e-06 -2.603e-06 -0.000107509
0.000669703 -0.000251674 4.8789e-05
-0.000251674 -0.000745653 -1.89145e-05
4.8789e-05 -1.89145e-05 -0.000648081
0.000910882 -0.00050148 3.80842e-05
-0.00050148 -0.00044644 -5.00218e-06
3.80842e-05 -5.00218e-06 -0.000484808
0.00172492 -0.000688019 1.63489e-05
-0.000688019 6.49913e-05 6.26775e-06
1.63489e-05 6.26775e-06 -9.14575e-05
0.000182186 -0.000418762 1.08676e-05
-0.000418762 -0.000258943 -1.35979e-05
1.08676e-05 -1.35979e-05 -0.000533346
0.00216591 -0.000241233 -2.65889e-06
-0.000241233 0.00115488 1.83828e-05
-2.65889e-06 1.83828e-05 0.000817989
0.000576977 -0.000102909 -1.46584e-06
-0.000102909 0.000133322 6.6129e-07
-1.46584e-06 6.6129e-07 -5.026e-05
0.000452524 8.28277e-05 -6.99765e-07
8.28277e-05 1.47044e-05 -5.47335e-06
-6.99765e-07 -5.47335e-06 -0.000145628
0.000653851 -7.09443e-05 -6.99881e-07
-7.09443e-05 0.000149 4.19134e-06
-6.99881e-07 4.19134e-06 -3.38256e-05
0.00126056 -0.000409739 -2.82043e-11
-0.000409739 -0.000125353 -2.04639e-06
-2.82043e-11 -2.04639e-06 -0.000280005
0.00068897 -3.09103e-05 1.61661e-07
-3.09103e-05 0.00017293 2.09682e-06
1.61661e-07 2.09682e-06 -1.01257e-05
0.00154653 -0.000167874 -1.93483e-07
-0.000167874 0.000776535 -9.85668e-07
-1.93483e-07 -9.85668e-07 0.000495176
0.0017097 -0.000544838 8.48641e-07
-0.000544838 0.000204262 3.01463e-06
8.48641e-07 3.01463e-06 0.000129927
0.000885756 -0.000384197 -1.41855e-05
-0.000384197 0.000282832 4.94376e-06
-1.41855e-05 4.94376e-06 -6.03591e-06
0.00129342 -0.000716133 7.76597e-07
-0.000716133 -0.000143547 -2.38088e-05
7.76597e-07 -2.38088e-05 -0.000168307
0.00133913 -0.000313033 -1.45274e-05
-0.000313033 0.000514551 1.32369e-05
-1.45274e-05 1.32369e-05 0.000389421
-0.000532293 -5.3604e-05 1.82238e-07
-5.3604e-05 -0.000323175 1.61185e-05
1.82238e-07 1.61185e-05 -0.000663127
0.000734211 1.27683e-05 -9.86274e-07
1.27683e-05 0.000167553 -3.83786e-06
-9.86274e-07 -3.83786e-06 4.91955e-06
0.000806224 4.03902e-05 3.90122e-06
4.03902e-05 0.000327116 9.56422e-07
3.90122e-06 9.56422e-07 8.95287e-05
0.00175612 -3.54616e-05 -2.30271e-05
-3.54616e-05 0.00147459 -1.04965e-05
-2.30271e-05 -1.04965e-05 -0.000788239
-0.00349432 0.000166632 -0.000166837
0.000166632 0.00381944 -6.5413e-06
-0.000166837 -6.5413e-06 0.000894033
-0.0107419 -0.000905342 -0.000364242
-0.000905342 -0.00558411 -3.47972e-06
-0.000364242 -3.47972e-06 -0.00533904
-0.000314183 0.000113826 6.45447e-06
0.000113826 -0.000396362 -1.55394e-06
6.45447e-06 -1.55394e-06 -0.000560898
-0.000766207 0.000216317 1.59252e-07
0.000216317 -0.00059091 6.32714e-06
1.59252e-07 6.32714e-06 -0.000861495
0.00141045 0.000494645 2.62254e-05
0.000494645 0.000128496 8.93079e-06
2.62254e-05 8.93079e-06 0.000104152
-0.00435269 0.00074711 -1.29761e-05
0.00074711 0.00242798 2.64523e-05
-1.29761e-05 2.64523e-05 -0.000542756
0.00186671 0.00119643 -0.000112542
0.00119643 -3.4419e-05 -0.000117642
-0.000112542 -0.000117642 -0.00365854
0.00284735 0.00129428 0.000222192
0.00129428 0.00060247 5.68048e-05
0.000222192 5.68048e-05 0.000267497
-4.1631e-05 0.000409162 7.98461e-06
0.000409162 -0.000165156 -3.43575e-05
7.98461e-06 -3.43575e-05 -0.00024704
0.0145451 -0.00192102 -3.26726e-05
-0.00192102 0.00424255 -0.000159113
-3.26726e-05 -0.000159113 0.00348828
0.00434933 0.000552953 0.000210159
0.000552953 0.00219329 8.15059e-05
0.000210159 8.15059e-05 -0.00159398
0.0108932 -0.00131853 7.0399e-05
-0.00131853 0.00165934 2.21331e-05
7.0399e-05 2.21331e-05 0.00296699
0.000756867 0.000240397 2.54811e-06
0.000240397 0.000308356 -2.38194e-06
2.54811e-06 -2.38194e-06 0.000151657
0.00371201 0.000170135 1.10614e-05
0.000170135 0.00186333 6.69623e-06
1.10614e-05 6.69623e-06 6.2105e-05
0.000676285 0.000194969 2.48101e-05
0.000194969 3.91835e-05 1.02728e-05
2.48101e-05 1.02728e-05 -0.00154036
-0.000440052 0.000251819 -4.656e-06
0.000251819 -0.000228068 -1.92317e-06
-4.656e-06 -1.92317e-06 -0.000452241
0.00177275 0.000695251 -8.64151e-05
0.000695251 0.00109254 -4.07512e-05
-8.64151e-05 -4.07512e-05 0.00013743
0.0026531 0.00212145 0.000101088
0.00212145 0.0010097 6.61854e-05
0.000101088 6.61854e-05 -0.00247799
0.00673833 0.000190862 -1.22451e-05
0.000190862 -0.00284054 -0.000141426
-1.22451e-05 -0.000141426 -0.00023324
0.00277834 -0.00157251 -4.46371e-05
-0.00157251 0.00103822 -6.58819e-05
-4.46371e-05 -6.58819e-05 -0.00127192
0.000969616 0.000196394 -4.901e-06
0.000196394 0.000638586 -1.36163e-05
-4.901e-06 -1.36163e-05 0.000453521
-0.000319466 -2.64309e-05 -1.02301e-07
-2.64309e-05 -6.9624e-05 -2.59113e-06
-1.02301e-07 -2.59113e-06 6.02841e-06
0.00303298 2.98798e-05 4.10019e-05
2.98798e-05 9.44146e-05 -0.000105816
4.10019e-05 -0.000105816 -0.000974166
0.00528196 0.00106769 0.000115381
0.00106769 -0.00284094 -1.34154e-05
0.000115381 -1.34154e-05 -0.00167407
-0.00102479 0.000116108 4.16455e-06
0.000116108 -3.67307e-05 -2.13563e-05
4.16455e-06 -2.13563e-05 -0.000625328
0.0109301 0.00166482 0.000153133
0.00166482 0.00521072 5.20221e-05
0.000153133 5.20221e-05 0.00120649
-0.00790832 -0.000450343 7.79251e-05
-0.000450343 -7.3414e-05 0.000247233
7.79251e-05 0.000247233 -0.00236317
0.00247689 0.000287148 1.93435e-05
0.000287148 0.00128103 1.50875e-05
1.93435e-05 1.50875e-05 0.00112318
0.000817556 0.000161393 -5.50091e-06
0.000161393 0.000436041 -2.71792e-06
-5.50091e-06 -2.71792e-06 0.000204107
-0.000199588 7.19721e-05 -1.94397e-06
7.19721e-05 6.84685e-05 5.41537e-07
-1.94397e-06 5.41537e-07 -0.000188206
0.000710915 0.000142125 1.78186e-07
0.000142125 0.000139155 1.22115e-07
1.78186e-07 1.22115e-07 -1.0184e-05
0.000528414 6.28372e-05 1.22227e-06
6.28372e-05 2.94365e-05 2.31618e-06
1.22227e-06 2.31618e-06 -9.46482e-05
0.000474782 8.37095e-06 7.48619e-06
8.37095e-06 0.00027821 4.87263e-06
7.48619e-06 4.87263e-06 4.03847e-05
0.000629359 4.40016e-05 -2.00166e-07
4.40016e-05 8.19592e-05 -4.6835e-07
-2.00166e-07 -4.6835e-07 -5.08748e-05
0.000750105 -1.45587e-05 -2.30934e-06
-1.45587e-05 0.000358554 -2.2625e-06
-2.30934e-06 -2.2625e-06 0.00016897
-0.00041518 3.81886e-05 4.13262e-06
3.81886e-05 -4.12819e-05 5.30029e-06
4.13262e-06 5.30029e-06 -0.00036834
0.000509162 5.61339e-08 -6.16694e-06
5.61339e-08 0.000361354 -5.3211e-06
-6.16694e-06 -5.3211e-06 0.000185658
0.000219797 -3.8167e-05 -2.34502e-06
-3.8167e-05 1.98835e-05 -7.23018e-06
-2.34502e-06 -7.23018e-06 -0.000141489
0.00058589 -5.65878e-05 2.54678e-06
-5.65878e-05 5.20075e-05 4.51347e-06
2.54678e-06 4.51347e-06 -5.87078e-05
0.000815696 -1.12459e-05 -1.05703e-06
-1.12459e-05 0.000183721 -2.68783e-07
-1.05703e-06 -2.68783e-07 7.07944e-05
0.00110149 -3.99238e-05 -8.80967e-06
-3.99238e-05 0.00036311 5.9442e-06
-8.80967e-06 5.9442e-06 0.000266995
0.00068351 -5.33353e-05 4.37352e-06
-5.33353e-05 0.000181342 -5.63533e-07
4.37352e-06 -5.63533e-07 8.87383e-05
0.000560581 -3.02071e-05 -1.39355e-06
-3.02071e-05 2.04242e-05 9.04617e-09
-1.39355e-06 9.04617e-09 -8.04422e-05
0.000786064 -0.000104913 2.11929e-06
-0.000104913 0.000186874 -1.76838e-07
2.11929e-06 -1.76838e-07 8.30513e-05
0.000357659 -0.000100417 -3.11762e-06
-0.000100417 -0.000154535 -8.73081e-07
-3.11762e-06 -8.73081e-07 -0.000232481
-0.000480293 -0.000162756 7.47683e-06
-0.000162756 -0.000617479 3.54562e-06
7.47683e-06 3.54562e-06 -0.000805685
0.000798681 -0.000115479 7.03062e-07
-0.000115479 0.00014241 9.49804e-07
7.03062e-07 9.49804e-07 3.37457e-05
0.00122932 -0.000196046 -8.29069e-07
-0.000196046 0.000377922 3.53444e-06
-8.29069e-07 3.53444e-06 0.000215193
0.00109346 -0.00029517 -5.12317e-06
-0.00029517 0.000213784 5.23553e-06
-5.12317e-06 5.23553e-06 -3.152e-05
0.000973717 -0.000259183 -5.14879e-06
-0.000259183 0.000133177 1.52112e-07
-5.14879e-06 1.52112e-07 -0.000106256
0.00105032 -0.00020602 -2.83675e-06
-0.00020602 0.00034699 6.1723e-06
-2.83675e-06 6.1723e-06 0.000153284
0.000308217 -0.000171238 2.80779e-06
-0.000171238 -0.000206258 -1.3225e-07
2.80779e-06 -1.3225e-07 -0.000422651
0.000896415 -8.96129e-05 1.00485e-06
-8.96129e-05 0.00024147 -9.15083e-07
1.00485e-06 -9.15083e-07 0.000104196
0.00106333 -0.000131673 -1.83734e-06
-0.000131673 0.000352654 -4.01882e-07
-1.83734e-06 -4.01882e-07 0.000201745
0.000410196 -0.000110514 5.26618e-06
-0.000110514 -5.1804e-05 -1.27983e-05
5.26618e-06 -1.27983e-05 -0.000204717
0.00101422 -4.43541e-05 4.24092e-07
-4.43541e-05 0.000278938 6.51392e-08
4.24092e-07 6.51392e-08 0.000165576
0.000423751 -2.2355e-05 4.44541e-07
-2.2355e-05 -4.17555e-05 -1.84767e-07
4.44541e-07 -1.84767e-07 -0.000156833
0.000616107 -1.92862e-05 -2.07829e-07
-1.92862e-05 4.89706e-05 1.04853e-06
-2.07829e-07 1.04853e-06 -4.51662e-05
0.000792087 -7.07065e-05 -4.47135e-07
-7.07065e-05 0.000186883 -1.68499e-07
-4.47135e-07 -1.68499e-07 6.12987e-05
0.00066699 -4.47294e-05 -8.19084e-08
-4.47294e-05 9.0291e-05 3.54765e-08
-8.19084e-08 3.54765e-08 -5.90836e-06
0.000570833 2.64872e-05 -3.28509e-08
2.64872e-05 1.15065e-05 2.39457e-06
-3.28509e-08 2.39457e-06 -5.35533e-05
0.000730861 -7.76587e-05 4.36683e-07
-7.76587e-05 0.000136533 -1.65801e-06
4.36683e-07 -1.65801e-06 3.72766e-05
0.00058857 1.81399e-05 -1.15927e-06
1.81399e-05 1.86196e-05 -8.43263e-08
-1.15927e-06 -8.43263e-08 -4.27627e-05
0.00135185 4.29231e-05 -9.02387e-06
4.29231e-05 0.00045843 3.99102e-06
-9.02387e-06 3.99102e-06 0.000442142
0.000630149 -3.28296e-05 2.35775e-06
-3.28296e-05 4.17352e-05 -2.60347e-06
2.35775e-06 -2.60347e-06 -1.72598e-05
0.000929599 2.52979e-05 -5.02301e-06
2.52979e-05 0.000201036 6.28378e-07
-5.02301e-06 6.28378e-07 0.000183886
0.000801631 3.26354e-05 -7.25424e-07
3.26354e-05 0.000125715 2.38504e-06
-7.25424e-07 2.38504e-06 0.000129414
0.000512921 1.08259e-05 7.8532e-07
1.08259e-05 -5.12735e-05 -4.42071e-06
7.8532e-07 -4.42071e-06 -6.94176e-05
0.0016001 3.55663e-05 8.58817e-06
3.55663e-05 0.000606796 -1.3467e-06
8.58817e-06 -1.3467e-06 0.000615974
0.00239704 3.16417e-05 8.21034e-06
3.16417e-05 0.0010874 -5.20087e-06
8.21034e-06 -5.20087e-06 0.00110143
0.000414324 7.99284e-06 1.03946e-06
7.99284e-06 -5.315e-05 -2.51473e-07
1.03946e-06 -2.51473e-07 -0.000161628
0.000289655 7.49064e-06 -5.20842e-09
7.49064e-06 -0.000160842 -3.16604e-06
-5.20842e-09 -3.16604e-06 -0.000214605
0.000712613 2.63969e-05 5.31119e-09
2.63969e-05 0.000121438 1.2912e-07
5.31119e-09 1.2912e-07 2.80747e-05
0.000552857 -5.46463e-06 5.22865e-07
-5.46463e-06 -3.16029e-05 -3.59221e-06
5.22865e-07 -3.59221e-06 -4.12782e-05
0.000419203 1.24908e-06 1.27584e-06
1.24908e-06 -8.44017e-05 -5.81325e-08
1.27584e-06 -5.81325e-08 -0.00012989
0.000411319 -8.61764e-05 -1.61974e-06
-8.61764e-05 -5.7385e-05 5.26014e-07
-1.61974e-06 5.26014e-07 -0.000143921
0.00208126 -1.05464e-05 -7.03797e-06
-1.05464e-05 0.000893674 -4.75933e-06
-7.03797e-06 -4.75933e-06 0.000912194
0.0005516 -1.68843e-06 -9.95238e-08
-1.68843e-06 -3.26458e-05 -4.81352e-08
-9.95238e-08 -4.81352e-08 -4.05031e-05
0.000544246 -1.88571e-05 -1.83105e-06
-1.88571e-05 -8.5821e-06 1.84971e-06
-1.83105e-06 1.84971e-06 -4.91783e-05
0.00202627 4.30628e-06 -4.05102e-06
4.30628e-06 0.000860696 1.58936e-08
-4.05102e-06 1.58936e-08 0.000879664
0.000534336 2.68142e-06 -6.44291e-07
2.68142e-06 -4.27795e-05 3.20923e-06
-6.44291e-07 3.20923e-06 -4.9883e-05
0.00201064 1.87671e-05 -1.84778e-06
1.87671e-05 0.000852784 4.51196e-06
-1.84778e-06 4.51196e-06 0.000871304
0.000271675 -0.00026027 -0.000125895
-0.00026027 -0.000260001 3.2808e-05
-0.000125895 3.2808e-05 -0.00203587
0.00129646 0.000215517 -4.07751e-05
0.000215517 0.00423481 -3.97703e-06
-4.07751e-05 -3.97703e-06 0.00235113
0.00106152 -0.000340128 -0.000364896
-0.000340128 0.0023653 3.05325e-05
-0.000364896 3.05325e-05 0.00121822
0.000747535 9.10128e-05 2.43775e-06
9.10128e-05 0.000147395 1.19176e-06
2.43775e-06 1.19176e-06 9.97665e-06
0.00353792 -0.000344642 -1.85862e-05
-0.000344642 0.00252569 0.000117357
-1.85862e-05 0.000117357 0.00101609
0.00370918 -0.000613434 -0.000143254
-0.000613434 0.00137934 9.83182e-06
-0.000143254 9.83182e-06 -0.00201665
0.00346732 0.000991235 0.000246747
0.000991235 0.00415449 -0.00019089
0.000246747 -0.00019089 0.00242973
0.00474058 -0.000344419 4.5252e-05
-0.000344419 0.000493703 -3.73245e-05
4.5252e-05 -3.73245e-05 0.000255899
0.0120337 -0.000765545 0.000148305
-0.000765545 0.00258553 -7.27952e-05
0.000148305 -7.27952e-05 0.000981453
-0.000205081 0.00225753 -0.00021287
0.00225753 -0.00313538 0.00020535
-0.00021287 0.00020535 -0.00288864
0.00693241 0.00217033 3.60633e-05
0.00217033 0.000926796 6.98692e-05
3.60633e-05 6.98692e-05 7.19325e-05
0.00527818 -0.00102293 -0.000100958
-0.00102293 0.000209143 -2.49709e-06
-0.000100958 -2.49709e-06 2.65235e-06
0.0123476 -0.00130988 5.5618e-05
-0.00130988 0.00409027 -1.69707e-05
5.5618e-05 -1.69707e-05 0.00190942
0.00764618 0.00143257 9.21887e-05
0.00143257 0.000976245 -0.00016114
9.21887e-05 -0.00016114 1.13193e-05
0.00697344 0.000948611 5.05973e-06
0.000948611 -0.0014625 1.4044e-05
5.05973e-06 1.4044e-05 -0.000561248
0.00269566 -0.0014062 9.29597e-06
-0.0014062 -0.000157517 1.22407e-05
9.29597e-06 1.22407e-05 -0.000787786
0.0116719 -0.00193088 0.000110059
-0.00193088 0.0052998 -5.99652e-05
0.000110059 -5.99652e-05 0.0014758
0.00442645 -7.34937e-05 9.08634e-05
-7.34937e-05 0.00108954 -0.000241573
9.08634e-05 -0.000241573 0.000128619
0.00847874 0.000512019 -6.16012e-05
0.000512019 -0.0010804 0.000136779
-6.16012e-05 0.000136779 0.000999636
0.000786461 -2.13456e-05 2.37309e-06
-2.13456e-05 0.000211221 2.95937e-06
2.37309e-06 2.95937e-06 4.39721e-05
0.000861088 -7.49195e-05 -4.31074e-07
-7.49195e-05 0.000272674 -3.64561e-08
-4.31074e-07 -3.64561e-08 0.000102649
0.000773171 0.00011038 -2.41603e-07
0.00011038 0.000189272 -3.20552e-06
-2.41603e-07 -3.20552e-06 6.1386e-05
0.00071705 6.12319e-05 1.24414e-06
6.12319e-05 0.000117923 3.81414e-06
1.24414e-06 3.81414e-06 -1.63002e-05
0.000761796 0.000106886 -3.74661e-07
0.000106886 0.000185109 7.36698e-07
-3.74661e-07 7.36698e-07 2.93581e-05
0.000896234 6.50358e-05 -2.82795e-06
6.50358e-05 0.000265273 -1.28497e-06
-2.82795e-06 -1.28497e-06 0.000136457
0.000999248 0.000131368 -1.03669e-06
0.000131368 0.000320479 -7.62803e-08
-1.03669e-06 -7.62803e-08 0.000176427
0.000993883 0.000140311 6.88457e-07
0.000140311 0.000333073 2.07773e-06
6.88457e-07 2.07773e-06 0.000189186
0.000531297 -0.000308957 6.26731e-05
-0.000308957 -0.000577727 -2.55944e-05
6.26731e-05 -2.55944e-05 -0.000570466
0.00188201 -0.000566518 1.1826e-05
-0.000566518 0.000251199 -9.12144e-06
1.1826e-05 -9.12144e-06 0.000199283
0.000942084 -0.000191592 -8.55226e-07
-0.000191592 0.000329202 -6.55072e-06
-8.55226e-07 -6.55072e-06 0.000135085
0.00131641 -0.000455691 1.95726e-05
-0.000455691 0.000501106 -1.95661e-05
1.95726e-05 -1.95661e-05 0.000208432
0.00225014 -0.000251779 -6.57005e-06
-0.000251779 0.00117478 1.82209e-06
-6.57005e-06 1.82209e-06 0.000890777
0.00106805 -8.77537e-05 -1.85401e-06
-8.77537e-05 0.000386703 -9.35471e-06
-1.85401e-06 -9.35471e-06 0.000203267
0.000437135 -1.90592e-05 1.05178e-06
-1.90592e-05 -3.18438e-06 3.3935e-06
1.05178e-06 3.3935e-06 -0.000167074
0.000252974 -0.000634007 -3.70938e-06
-0.000634007 -0.000717155 -1.11907e-06
-3.70938e-06 -1.11907e-06 -0.000690054
0.00127016 4.33125e-05 1.64091e-07
4.33125e-05 0.000601845 6.66035e-07
1.64091e-07 6.66035e-07 0.000353657
0.000870143 -0.000188732 -8.58094e-06
-0.000188732 0.00041495 2.84704e-06
-8.58094e-06 2.84704e-06 0.000108005
0.000504651 -0.000237516 1.75327e-05
-0.000237516 2.86577e-05 2.51102e-06
1.75327e-05 2.51102e-06 -4.80072e-05
0.00114035 8.61416e-05 1.44029e-06
8.61416e-05 0.000380351 -1.88538e-06
1.44029e-06 -1.88538e-06 0.000241705
0.00120954 -0.000570184 1.30345e-05
-0.000570184 1.58719e-05 -3.79613e-05
1.30345e-05 -3.79613e-05 0.000117265
0.000207491 -0.000158795 4.56987e-06
-0.000158795 0.000139505 1.83116e-05
4.56987e-06 1.83116e-05 -6.92299e-06
-0.000490668 4.9287e-05 6.13048e-06
4.9287e-05 -0.000117392 6.30209e-06
6.13048e-06 6.30209e-06 -0.000571112
0.0012993 0.00020338 2.47669e-06
0.00020338 0.000558889 -4.15913e-06
2.47669e-06 -4.15913e-06 0.000375786
3.75506e-05 7.64392e-06 5.43276e-06
7.64392e-06 0.000773122 -6.95877e-06
5.43276e-06 -6.95877e-06 0.00014284
0.00115152 -4.06785e-05 9.47625e-05
-4.06785e-05 0.00113658 -1.56074e-05
9.47625e-05 -1.56074e-05 -0.00114146
-0.00669508 -8.98688e-05 -0.000170378
-8.98688e-05 0.0030693 1.02079e-05
-0.000170378 1.02079e-05 -0.000424729
0.00114134 0.00025916 1.46351e-05
0.00025916 0.000603682 4.49256e-06
1.46351e-05 4.49256e-06 0.000437267
-0.00150387 0.000316296 3.10274e-06
0.000316296 -0.000828919 9.6266e-06
3.10274e-06 9.6266e-06 -0.00112948
0.0044732 0.000167916 0.000122573
0.000167916 0.00236377 1.13353e-05
0.000122573 1.13353e-05 0.00105613
0.00772913 0.00127934 0.000183278
0.00127934 0.00344251 9.57299e-05
0.000183278 9.57299e-05 -0.000333468
0.0033934 0.00108573 -0.000106451
0.00108573 0.00174289 -8.76344e-05
-0.000106451 -8.76344e-05 0.000620167
0.00493316 -0.00108717 -4.68763e-05
-0.00108717 0.00197524 -0.000266691
-4.68763e-05 -0.000266691 2.62249e-05
0.001226 0.000214497 6.45528e-05
0.000214497 0.000120482 0.000137469
6.45528e-05 0.000137469 -0.00144155
0.00486002 -8.29331e-05 -2.09516e-05
-8.29331e-05 -0.00458245 -0.000147738
-2.09516e-05 -0.000147738 -0.00154105
0.000777585 0.000223274 -7.99175e-07
0.000223274 0.000528592 -2.72471e-06
-7.99175e-07 -2.72471e-06 0.000323993
-0.000275703 -3.74222e-05 5.68532e-07
-3.74222e-05 -7.56894e-05 -8.45849e-07
5.68532e-07 -8.45849e-07 -3.81774e-05
0.00305128 6.24736e-05 4.9573e-05
6.24736e-05 0.00022402 1.97605e-05
4.9573e-05 1.97605e-05 -0.000384938
-0.00104517 0.000199004 -8.74717e-06
0.000199004 -0.000348572 -6.19168e-06
-8.74717e-06 -6.19168e-06 -0.000829677
0.00707504 0.00104363 -3.83781e-06
0.00104363 -0.00144898 -1.27142e-05
-3.83781e-06 -1.27142e-05 -0.000593619
0.00470211 0.00113433 0.000137206
0.00113433 0.00322181 7.38819e-05
0.000137206 7.38819e-05 -0.00102821
0.00401817 0.000519588 -9.32379e-05
0.000519588 0.00261365 6.33506e-06
-9.32379e-05 6.33506e-06 0.000923117
0.000194996 0.000220276 -1.22177e-05
0.000220276 0.000226127 -1.75187e-05
-1.22177e-05 -1.75187e-05 -7.35836e-05
0.00155735 8.6139e-05 1.26956e-05
8.6139e-05 -0.000310684 -1.71289e-05
1.26956e-05 -1.71289e-05 -4.81066e-05
0.00348312 -0.000294514 2.41535e-05
-0.000294514 0.00245789 -0.000120989
2.41535e-05 -0.000120989 0.000998352
0.00915236 0.00218898 0.000246002
0.00218898 0.00154284 -0.000162658
0.000246002 -0.000162658 0.00125025
0.00639502 -0.000145014 -9.91186e-05
-0.000145014 0.00179185 0.000241916
-9.91186e-05 0.000241916 0.000944108
0.000977902 0.000191263 4.44397e-06
0.000191263 0.0003126 -8.07312e-05
4.44397e-06 -8.07312e-05 0.000105176
-0.000361592 0.00120717 0.000143425
0.00120717 0.0030361 3.07339e-05
0.000143425 3.07339e-05 -0.00330019
0.00140021 0.000244871 3.69013e-06
0.000244871 0.000728229 1.97859e-05
3.69013e-06 1.97859e-05 0.00049753
0.000267545 0.000115083 2.71785e-06
0.000115083 0.000324664 7.61141e-07
2.71785e-06 7.61141e-07 6.59557e-05
0.000819817 -3.99282e-06 -1.01473e-05
-3.99282e-06 0.000691368 -1.08343e-05
-1.01473e-05 -1.08343e-05 0.000514706
0.000306611 -2.76693e-05 9.9634e-07
-2.76693e-05 -0.000123934 3.81453e-06
9.9634e-07 3.81453e-06 -0.000243187
0.000856291 -9.74089e-06 2.15e-06
-9.74089e-06 0.000417903 3.9986e-06
2.15e-06 3.9986e-06 0.00023151
0.000613114 -7.6137e-06 2.65582e-06
-7.6137e-06 0.000507087 -5.91457e-06
2.65582e-06 -5.91457e-06 0.000203356
0.000478356 -5.39882e-05 5.00055e-07
-5.39882e-05 0.000137769 -1.43528e-07
5.00055e-07 -1.43528e-07 2.01272e-06
1.98949e-05 -1.66545e-05 9.86412e-07
-1.66545e-05 7.98733e-05 1.93366e-06
9.86412e-07 1.93366e-06 -0.000104636
0.00136721 -0.000237026 6.66867e-06
-0.000237026 0.000765982 -1.10952e-05
6.66867e-06 -1.10952e-05 0.000559389
0.00134087 -7.49098e-05 -2.28355e-06
-7.49098e-05 0.000553335 4.58372e-06
-2.28355e-06 4.58372e-06 0.000462758
-5.95873e-05 -1.23734e-05 -5.28152e-07
-1.23734e-05 -0.00033653 1.86709e-06
-5.28152e-07 1.86709e-06 -0.000437246
0.00144238 -0.000171944 1.86555e-06
-0.000171944 0.000561093 2.10628e-06
1.86555e-06 2.10628e-06 0.000443083
-0.00105267 -0.000122243 6.13147e-06
-0.000122243 -0.000778452 2.38002e-06
6.13147e-06 2.38002e-06 -0.00100823
0.000292487 -8.10392e-05 -3.73882e-06
-8.10392e-05 -0.00015157 7.0892e-07
-3.73882e-06 7.0892e-07 -0.000212627
-7.50192e-05 -0.000178408 3.23482e-06
-0.000178408 -0.000390653 -1.20326e-06
3.23482e-06 -1.20326e-06 -0.000564188
0.0011519 -0.000336331 9.08301e-06
-0.000336331 0.000215612 -4.96894e-06
9.08301e-06 -4.96894e-06 -7.30311e-05
0.00137683 -0.000375187 -4.32367e-06
-0.000375187 0.000239762 2.31225e-06
-4.32367e-06 2.31225e-06 -4.83821e-05
0.00202673 -0.000281616 -1.313e-06
-0.000281616 0.000839228 1.79653e-07
-1.313e-06 1.79653e-07 0.000657231
0.00106212 -0.000292463 2.63657e-07
-0.000292463 0.000169339 3.01852e-07
2.63657e-07 3.01852e-07 -8.56985e-05
0.00231989 -0.000406222 2.82696e-06
-0.000406222 0.000889262 -1.71851e-06
2.82696e-06 -1.71851e-06 0.000636514
0.000179659 -0.000145166 -1.81676e-06
-0.000145166 -0.000237233 3.36342e-06
-1.81676e-06 3.36342e-06 -0.000448182
0.00103657 -0.000260386 -6.02911e-07
-0.000260386 0.000178563 -4.68281e-07
-6.02911e-07 -4.68281e-07 -5.78748e-05
0.000493896 -8.05581e-05 2.96018e-07
-8.05581e-05 1.54141e-05 -1.59661e-06
2.96018e-07 -1.59661e-06 -0.000147374
0.00105607 -0.000221482 -4.39025e-06
-0.000221482 0.000355405 2.58658e-06
-4.39025e-06 2.58658e-06 0.000155533
-0.000592605 -7.53734e-05 -2.38313e-06
-7.53734e-05 -0.000735372 -4.47875e-06
-2.38313e-06 -4.47875e-06 -0.000932061
0.000497498 -3.44492e-06 9.64134e-07
-3.44492e-06 -1.41647e-05 1.41088e-06
9.64134e-07 1.41088e-06 -0.000122944
0.000646541 -7.14406e-05 3.80046e-07
-7.14406e-05 0.000102807 -1.8505e-08
3.80046e-07 -1.8505e-08 -3.48534e-05
0.000749142 -0.000124265 4.95308e-06
-0.000124265 0.000178543 -3.06312e-06
4.95308e-06 -3.06312e-06 2.12227e-05
0.000606515 -3.34294e-05 3.28835e-07
-3.34294e-05 6.88239e-05 -3.20383e-07
3.28835e-07 -3.20383e-07 -4.89822e-05
0.000686327 -3.05457e-05 -6.50967e-07
-3.05457e-05 0.000102201 -7.52889e-08
-6.50967e-07 -7.52889e-08 -1.04377e-06
0.000545735 3.05222e-05 1.13297e-07
3.05222e-05 -3.38829e-06 3.09502e-06
1.13297e-07 3.09502e-06 -7.3615e-05
0.000771944 -5.7877e-05 2.84476e-07
-5.7877e-05 0.000161428 -1.11523e-06
2.84476e-07 -1.11523e-06 5.79805e-05
0.000591908 2.35427e-05 -1.05714e-06
2.35427e-05 2.25393e-05 -1.82699e-07
-1.05714e-06 -1.82699e-07 -4.20051e-05
0.000524859 3.96179e-05 -9.12618e-07
3.96179e-05 -3.5777e-05 4.65625e-06
-9.12618e-07 4.65625e-06 -5.84441e-05
0.000668447 -2.49019e-05 2.15184e-06
-2.49019e-05 6.16927e-05 -2.45169e-06
2.15184e-06 -2.45169e-06 2.66909e-06
0.000532798 2.91095e-05 1.89866e-07
2.91095e-05 -3.75616e-05 9.07268e-10
1.89866e-07 9.07268e-10 -5.77348e-05
0.00233936 7.98928e-05 -3.74168e-06
7.98928e-05 0.00106227 2.05843e-06
-3.74168e-06 2.05843e-06 0.00107082
0.000513451 2.0667e-05 9.19442e-07
2.0667e-05 -5.08961e-05 -4.56947e-06
9.19442e-07 -4.56947e-06 -7.01226e-05
0.0016136 4.77348e-05 1.01903e-05
4.77348e-05 0.000618074 -1.14073e-06
1.01903e-05 -1.14073e-06 0.000625637
0.00241889 4.66981e-05 1.33209e-05
4.66981e-05 0.00110274 -5.0748e-06
1.33209e-05 -5.0748e-06 0.00111554
0.000361907 7.29317e-06 8.69685e-07
7.29317e-06 -9.97457e-05 -1.55906e-06
8.69685e-07 -1.55906e-06 -0.000202918
0.00031099 3.13941e-06 3.43087e-07
3.13941e-06 -0.000150654 -2.74834e-06
3.43087e-07 -2.74834e-06 -0.000211946
0.000546252 1.87043e-05 -4.55464e-07
1.87043e-05 2.51529e-05 -1.12197e-06
-4.55464e-07 -1.12197e-06 -8.02242e-05
0.000558458 -1.07613e-05 8.2907e-07
-1.07613e-05 -2.73412e-05 -3.87769e-06
8.2907e-07 -3.87769e-06 -3.9722e-05
0.000274212 6.11709e-06 -5.09004e-07
6.11709e-06 -0.00017058 -1.35302e-06
-5.09004e-07 -1.35302e-06 -0.000225411
0.000714015 3.56035e-05 -3.22461e-07
3.56035e-05 0.000131605 1.40585e-06
-3.22461e-07 1.40585e-06 3.24036e-05
0.00212507 -2.37685e-05 -1.20029e-05
-2.37685e-05 0.000920548 -4.68264e-06
-1.20029e-05 -4.68264e-06 0.000938267
0.000548255 -6.1849e-06 -2.7403e-07
-6.1849e-06 -3.45555e-05 -5.28583e-08
-2.7403e-07 -5.28583e-08 -4.40363e-05
0.000235377 5.99118e-06 8.12598e-07
5.99118e-06 -0.000192977 1.67564e-06
8.12598e-07 1.67564e-06 -0.000241333
0.00205271 -9.02118e-06 -3.74567e-06
-9.02118e-06 0.000876182 4.49419e-08
-3.74567e-06 4.49419e-08 0.00089497
0.00054216 -1.84434e-06 -6.54398e-07
-1.84434e-06 -3.85388e-05 3.41232e-06
-6.54398e-07 3.41232e-06 -4.62285e-05
0.00204762 5.80083e-06 2.86206e-06
5.80083e-06 0.000873817 4.65625e-06
2.86206e-06 4.65625e-06 0.000892603
0.000630236 -4.79101e-06 2.64935e-05
-4.79101e-06 0.000594679 5.37158e-06
2.64935e-05 5.37158e-06 0.000525226
0.00050459 -0.000175769 -7.23949e-06
-0.000175769 7.43445e-05 -1.4368e-05
-7.23949e-06 -1.4368e-05 -0.00192118
0.00119286 0.000122458 3.00129e-05
0.000122458 0.00417188 -2.55948e-05
3.00129e-05 -2.55948e-05 0.00247737
0.000741743 9.79495e-05 -1.14628e-07
9.79495e-05 0.000136482 3.59895e-07
-1.14628e-07 3.59895e-07 7.62219e-06
0.000533448 6.81032e-05 2.27283e-06
6.81032e-05 -4.13213e-06 -4.2422e-09
2.27283e-06 -4.2422e-09 -0.000124405
0.000964626 0.000139742 3.42487e-06
0.000139742 0.000270053 3.2982e-06
3.42487e-06 3.2982e-06 0.000132285
0.00315098 -6.21036e-05 4.34281e-07
-6.21036e-05 -7.71309e-05 0.000185294
4.34281e-07 0.000185294 -0.000903222
0.00351567 -0.000306758 2.61711e-05
-0.000306758 0.00244119 -6.69694e-06
2.61711e-05 -6.69694e-06 0.00117375
0.00414792 -0.000682084 7.3755e-05
-0.000682084 0.00169948 -0.000139124
7.3755e-05 -0.000139124 -0.00186105
0.0067013 -0.00127278 -8.42842e-05
-0.00127278 0.000841625 -9.44466e-06
-8.42842e-05 -9.44466e-06 0.000706908
0.00206277 -0.00125322 -0.000164589
-0.00125322 -0.000393757 9.37312e-05
-0.000164589 9.37312e-05 -0.00310659
0.0138334 0.00202817 0.000121632
0.00202817 0.00503243 5.62718e-05
0.000121632 5.62718e-05 0.00376325
0.00374485 0.000248749 0.000107878
0.000248749 -0.00315504 -0.000124052
0.000107878 -0.000124052 -0.0025889
0.00531314 -0.00167454 -2.35319e-05
-0.00167454 0.0010738 7.25278e-06
-2.35319e-05 7.25278e-06 0.000575472
0.00668278 -0.00161611 -4.25279e-05
-0.00161611 0.00299298 2.37883e-05
-4.25279e-05 2.37883e-05 -0.00064036
-0.00324281 0.00166821 -4.66091e-05
0.00166821 0.000675212 -0.000166091
-4.66091e-05 -0.000166091 -0.0018557
0.00663787 0.000160348 -2.45139e-05
0.000160348 -0.00287029 7.04165e-05
-2.45139e-05 7.04165e-05 -0.000262034
0.00111709 -0.000919869 -4.8385e-05
-0.000919869 0.000105681 -8.64784e-06
-4.8385e-05 -8.64784e-06 -0.000361031
0.011526 -0.00180318 -0.000103426
-0.00180318 0.0051516 7.8605e-05
-0.000103426 7.8605e-05 0.00114057
-0.00794711 -0.000105921 3.76225e-05
-0.000105921 0.000200102 -0.000232801
3.76225e-05 -0.000232801 -0.0023941
0.00545396 -0.00108077 5.19778e-05
-0.00108077 -0.00198619 -2.39511e-06
5.19778e-05 -2.39511e-06 -0.0009375
0.000608699 6.61843e-05 1.84915e-06
6.61843e-05 6.36337e-05 9.12202e-06
1.84915e-06 9.12202e-06 -7.8469e-05
0.000706341 -9.90038e-06 1.45037e-06
-9.90038e-06 0.000160013 -1.21435e-06
1.45037e-06 -1.21435e-06 -1.16324e-05
0.00084392 -9.50875e-05 1.06543e-07
-9.50875e-05 0.000246348 -3.98258e-06
1.06543e-07 -3.98258e-06 7.75126e-05
0.000710965 7.96495e-05 -1.02718e-06
7.96495e-05 0.000114771 -3.0047e-07
-1.02718e-06 -3.0047e-07 -2.25707e-05
0.000763091 0.000119527 4.28106e-07
0.000119527 0.00018893 -1.65929e-06
4.28106e-07 -1.65929e-06 3.95935e-05
0.00110362 0.000143513 -2.7063e-06
0.000143513 0.000387626 -1.49254e-06
-2.7063e-06 -1.49254e-06 0.00024034
-0.000271769 -0.000596375 1.93424e-05
-0.000596375 -0.00102088 8.32887e-06
1.93424e-05 8.32887e-06 -0.00101193
-0.00111942 -0.000172921 1.8458e-05
-0.000172921 -0.000893476 -1.42505e-05
1.8458e-05 -1.42505e-05 -0.000924496
0.000333579 3.40364e-05 -2.27998e-06
3.40364e-05 -5.99267e-05 -3.84306e-06
-2.27998e-06 -3.84306e-06 -0.00023075
0.00152542 -0.000301736 4.10413e-05
-0.000301736 0.000734775 -2.86305e-05
4.10413e-05 -2.86305e-05 0.000445079
0.00148414 2.19181e-06 -4.74224e-06
2.19181e-06 0.000719081 -5.07793e-06
-4.74224e-06 -5.07793e-06 0.000474173
0.000561262 6.44711e-05 3.34613e-07
6.44711e-05 5.13457e-05 2.43903e-06
3.34613e-07 2.43903e-06 -9.26717e-05
0.000689731 0.000128525 4.36476e-07
0.000128525 0.000198188 -1.81409e-06
4.36476e-07 -1.81409e-06 3.29952e-05
0.000328323 -0.000604291 -7.51445e-07
-0.000604291 -0.000432989 -5.29054e-06
-7.51445e-07 -5.29054e-06 -0.000489815
0.000692518 -1.08819e-05 -1.31682e-06
-1.08819e-05 0.000476962 5.81822e-07
-1.31682e-06 5.81822e-07 0.000127832
9.65165e-05 -0.000134588 9.18199e-07
-0.000134588 0.000136732 -3.14564e-06
9.18199e-07 -3.14564e-06 -5.6304e-05
0.00100199 0.000112842 3.15895e-06
0.000112842 0.000334442 -8.31734e-06
3.15895e-06 -8.31734e-06 0.000207511
-0.00222234 -4.91256e-05 -5.28238e-05
-4.91256e-05 -0.000762426 -1.98307e-05
-5.28238e-05 -1.98307e-05 -0.00128506
-0.000283328 -4.72517e-06 1.61825e-05
-4.72517e-06 -4.03047e-05 1.75364e-05
1.61825e-05 1.75364e-05 -0.000224211
0.00115112 3.5025e-05 8.42416e-06
3.5025e-05 0.000685463 3.55644e-06
8.42416e-06 3.55644e-06 0.000411889
0.000646902 -3.66282e-07 -1.26379e-06
-3.66282e-07 -0.000313748 1.16019e-06
-1.26379e-06 1.16019e-06 -0.00076871
-0.000204379 9.78172e-06 -9.19751e-06
9.78172e-06 0.000509022 -1.40065e-05
-9.19751e-06 -1.40065e-05 -1.19672e-06
0.000406092 -4.60945e-05 0.000207115
-4.60945e-05 0.000776965 -5.98934e-06
0.000207115 -5.98934e-06 -0.00156049
0.000208355 0.00021062 5.03339e-06
0.00021062 0.000196525 1.76733e-05
5.03339e-06 1.76733e-05 -2.91234e-05
0.000917563 0.00048405 4.88646e-06
0.00048405 0.000218592 -1.07832e-05
4.88646e-06 -1.07832e-05 -0.000144024
-0.00025781 -4.26181e-05 1.12167e-05
-4.26181e-05 -0.000100268 -9.95923e-08
1.12167e-05 -9.95923e-08 -0.000107273
-0.0032467 0.000597898 4.45017e-05
0.000597898 0.000679903 9.07994e-05
4.45017e-05 9.07994e-05 -0.00351757
-0.00921753 0.000717215 -0.000109571
0.000717215 -0.00356248 -0.000292946
-0.000109571 -0.000292946 -0.00611669
0.00289164 7.86177e-05 4.50085e-05
7.86177e-05 0.000346202 7.62687e-05
4.50085e-05 7.62687e-05 9.59617e-05
0.00378639 0.000323664 -0.00011226
0.000323664 -0.00307233 0.000125213
-0.00011226 0.000125213 -0.00257178
0.000549902 0.000208984 5.42196e-06
0.000208984 0.000432656 -1.00932e-06
5.42196e-06 -1.00932e-06 0.000175923
0.00132662 1.61746e-05 1.74548e-05
1.61746e-05 -0.000433062 -2.84346e-05
1.74548e-05 -2.84346e-05 -0.00014204
0.00347307 -0.000227784 -2.57459e-05
-0.000227784 0.00240064 6.50946e-06
-2.57459e-05 6.50946e-06 0.0011311
0.000944153 0.00028754 -6.30222e-05
0.00028754 0.000701539 -4.93502e-06
-6.30222e-05 -4.93502e-06 -7.29841e-05
0.00581063 0.00213275 7.33332e-05
0.00213275 -0.000592333 -0.000212994
7.33332e-05 -0.000212994 -0.000870217
-0.00254313 0.00144279 4.49229e-05
0.00144279 0.000228946 0.000163208
4.49229e-05 0.000163208 -0.00191078
0.00726412 0.000166472 5.52567e-05
0.000166472 0.00605132 -2.58478e-05
5.52567e-05 -2.58478e-05 0.000315812
0.00142408 -5.31084e-05 5.29053e-05
-5.31084e-05 0.00136992 -2.09178e-05
5.29053e-05 -2.09178e-05 0.000799327
0.000688729 1.79604e-05 -2.62861e-05
1.79604e-05 0.000590258 -1.57591e-06
-2.62861e-05 -1.57591e-06 0.000521245
0.00315475 -0.000485579 0.000364444
-0.000485579 0.00103021 -0.000187596
0.000364444 -0.000187596 -0.00228406
0.00716757 0.00280983 5.51981e-06
0.00280983 0.00549926 -4.64879e-06
5.51981e-06 -4.64879e-06 0.00539589
-0.00250097 0.0016309 2.26914e-05
0.0016309 -0.00331929 0.000411994
2.26914e-05 0.000411994 -0.00402956
0.012991 -0.00178338 0.000142841
-0.00178338 0.00547071 -0.000130492
0.000142841 -0.000130492 0.00133412
0.00306784 -0.000508165 -6.25184e-05
-0.000508165 0.00153862 6.47877e-05
-6.25184e-05 6.47877e-05 0.00108243
0.00111911 0.000181074 8.57077e-06
0.000181074 0.000798754 4.62807e-06
8.57077e-06 4.62807e-06 0.000538798
0.000204583 -4.37556e-06 -2.50639e-05
-4.37556e-06 0.000291922 7.7281e-07
-2.50639e-05 7.7281e-07 0.000104394
0.00148378 -0.000318803 2.37278e-05
-0.000318803 0.000955116 -8.71703e-06
2.37278e-05 -8.71703e-06 0.000622008
0.000786952 -7.92199e-05 1.21386e-06
-7.92199e-05 0.000291637 3.03846e-06
1.21386e-06 3.03846e-06 0.000178134
-1.69273e-05 -4.03496e-05 -1.17194e-06
-4.03496e-05 5.73496e-05 2.80867e-06
-1.17194e-06 2.80867e-06 -0.000136702
0.000509056 -0.000217238 -1.28752e-06
-0.000217238 0.000331978 -7.82711e-07
-1.28752e-06 -7.82711e-07 0.000128187
0.0014888 -0.000378635 2.49705e-05
-0.000378635 0.00068211 -1.90849e-05
2.49705e-05 -1.90849e-05 0.0004611
0.00214962 -0.000240557 -5.24447e-06
-0.000240557 0.000965116 4.08729e-06
-5.24447e-06 4.08729e-06 0.000830386
0.00188046 -0.000408407 6.23117e-06
-0.000408407 0.000794019 -9.80618e-07
6.23117e-06 -9.80618e-07 0.000536453
0.00152575 -0.00040196 1.34191e-05
-0.00040196 0.000598908 1.79535e-06
1.34191e-05 1.79535e-06 0.000171219
0.000350101 -0.000181975 -2.6762e-06
-0.000181975 -0.000156317 -1.85325e-06
-2.6762e-06 -1.85325e-06 -0.000310254
0.00145187 -0.000363632 -2.57343e-06
-0.000363632 0.000359894 1.12839e-06
-2.57343e-06 1.12839e-06 6.54443e-05
0.00185796 -0.000479628 -9.93849e-07
-0.000479628 0.000533493 1.63042e-06
-9.93849e-07 1.63042e-06 0.000148367
0.00166329 -0.000488894 -3.91066e-06
-0.000488894 0.000313502 2.80473e-06
-3.91066e-06 2.80473e-06 -1.58712e-05
0.00127133 -0.000350762 -1.19062e-06
-0.000350762 0.000205882 3.15642e-06
-1.19062e-06 3.15642e-06 -5.95591e-05
0.00137462 -0.00037788 -2.74222e-06
-0.00037788 0.000237638 1.5152e-06
-2.74222e-06 1.5152e-06 -5.4923e-05
0.00115768 -0.000303443 -6.44079e-06
-0.000303443 0.000195569 1.84721e-06
-6.44079e-06 1.84721e-06 -7.12503e-05
0.00218428 -0.000380863 5.47599e-06
-0.000380863 0.000847801 -1.4139e-06
5.47599e-06 -1.4139e-06 0.000601941
0.00157323 -0.000332524 3.07977e-06
-0.000332524 0.000447671 -2.71105e-06
3.07977e-06 -2.71105e-06 0.000212134
-4.7037e-05 -7.39944e-05 1.40159e-06
-7.39944e-05 -0.000348712 1.46854e-06
1.40159e-06 1.46854e-06 -0.000535276
0.000825265 -0.000215065 2.3177e-06
-0.000215065 0.000156852 -1.52654e-06
2.3177e-06 -1.52654e-06 -6.50558e-05
0.00120187 -0.000271989 6.14042e-06
-0.000271989 0.000285086 -5.38541e-06
6.14042e-06 -5.38541e-06 5.00451e-05
0.000167373 -3.65635e-06 8.15003e-07
-3.65635e-06 -0.000198981 1.76468e-06
8.15003e-07 1.76468e-06 -0.000336518
0.000935266 -0.000125864 -5.38788e-07
-0.000125864 0.000284782 9.15979e-08
-5.38788e-07 9.15979e-08 0.000111792
0.00101319 -0.000230431 -1.11769e-06
-0.000230431 0.00033521 -1.68427e-06
-1.11769e-06 -1.68427e-06 0.000131318
0.000637593 9.7499e-06 -9.32949e-07
9.7499e-06 5.18509e-05 3.54901e-06
-9.32949e-07 3.54901e-06 -2.56169e-05
0.00075667 -4.34849e-05 -3.00185e-07
-4.34849e-05 0.000139568 -2.87279e-07
-3.00185e-07 -2.87279e-07 2.69974e-05
0.000426704 -5.19302e-05 2.90301e-07
-5.19302e-05 -1.87732e-05 5.20358e-07
2.90301e-07 5.20358e-07 -0.000156425
0.000745008 -4.96282e-05 2.76779e-07
-4.96282e-05 0.000140932 -1.34615e-06
2.76779e-07 -1.34615e-06 3.33658e-05
0.000625392 -6.63026e-06 -2.33113e-07
-6.63026e-06 3.8845e-05 -2.33319e-07
-2.33113e-07 -2.33319e-07 -2.90079e-05
0.000519413 4.81794e-05 2.24889e-08
4.81794e-05 -3.05487e-05 5.39771e-06
2.24889e-08 5.39771e-06 -5.71296e-05
0.00063512 -1.52622e-05 1.63974e-06
-1.52622e-05 4.28894e-05 -2.46111e-06
1.63974e-06 -2.46111e-06 -1.9016e-05
0.000537845 4.20855e-05 -4.21491e-07
4.20855e-05 -2.75862e-05 -6.52561e-08
-4.21491e-07 -6.52561e-08 -5.06946e-05
0.00240701 8.7904e-05 -2.62999e-05
8.7904e-05 0.00111041 4.0189e-06
-2.62999e-05 4.0189e-06 0.00111762
0.000532154 3.00453e-05 9.95288e-07
3.00453e-05 -3.78075e-05 -4.53908e-06
9.95288e-07 -4.53908e-06 -5.81065e-05
0.00159323 6.01455e-05 1.22268e-05
6.01455e-05 0.000610959 -9.56129e-07
1.22268e-05 -9.56129e-07 0.000616717
0.00243885 6.23162e-05 1.74395e-05
6.23162e-05 0.00111873 -4.74215e-06
1.74395e-05 -4.74215e-06 0.0011298
0.000697232 7.08715e-05 1.02004e-06
7.08715e-05 0.000108905 -8.01384e-07
1.02004e-06 -8.01384e-07 -2.5018e-06
0.000596424 3.02169e-05 1.54057e-08
3.02169e-05 1.90263e-05 -2.36382e-06
1.54057e-08 -2.36382e-06 -4.54286e-05
0.00053536 4.20904e-05 -1.18888e-06
4.20904e-05 1.69549e-05 -1.1936e-06
-1.18888e-06 -1.1936e-06 -9.47209e-05
0.00054285 -1.42527e-05 6.46229e-07
-1.42527e-05 -3.56125e-05 -4.41226e-06
6.46229e-07 -4.41226e-06 -5.14422e-05
0.000417249 2.21172e-05 -1.64973e-06
2.21172e-05 -8.61768e-05 -1.34988e-06
-1.64973e-06 -1.34988e-06 -0.000146384
0.000746736 4.89969e-05 -5.35665e-07
4.89969e-05 0.000145807 -1.08864e-06
-5.35665e-07 -1.08864e-06 4.1359e-05
0.0022226 -3.81118e-05 -1.67145e-05
-3.81118e-05 0.000980877 -4.6595e-06
-1.67145e-05 -4.6595e-06 0.000996971
0.000542772 -1.11534e-05 -1.71252e-07
-1.11534e-05 -3.71253e-05 -8.4065e-08
-1.71252e-07 -8.4065e-08 -4.92297e-05
0.000217175 4.88874e-06 -1.01412e-06
4.88874e-06 -0.000205122 6.31553e-07
-1.01412e-06 6.31553e-07 -0.000260795
0.00213769 -2.26859e-05 -4.33791e-06
-2.26859e-05 0.000927977 1.00911e-07
-4.33791e-06 1.00911e-07 0.000945784
0.000542912 -7.17508e-06 -8.73361e-07
-7.17508e-06 -3.78748e-05 3.44092e-06
-8.73361e-07 3.44092e-06 -4.72091e-05
0.00207374 -7.53974e-06 7.61752e-06
-7.53974e-06 0.000888743 4.71194e-06
7.61752e-06 4.71194e-06 0.000907505
0.00141639 -5.81813e-05 -1.70985e-05
-5.81813e-05 -0.000325941 2.0856e-05
-1.70985e-05 2.0856e-05 -9.10368e-05
0.000603578 -5.93145e-05 1.66407e-05
-5.93145e-05 0.000544129 -1.51322e-06
1.66407e-05 -1.51322e-06 0.000484531
0.00078441 -0.00016508 0.00011992
-0.00016508 0.000256422 -4.42122e-05
0.00011992 -4.42122e-05 -0.00175497
0.000498902 3.07736e-05 1.3959e-06
3.07736e-05 -3.74658e-05 -8.73375e-09
1.3959e-06 -8.73375e-09 -0.000151954
0.00102707 6.87554e-05 -3.54002e-07
6.87554e-05 0.000269817 1.66023e-06
-3.54002e-07 1.66023e-06 0.000140318
0.000783049 0.000108271 -7.35507e-07
0.000108271 0.000160581 -4.61348e-07
-7.35507e-07 -4.61348e-07 3.57569e-05
0.000552877 5.30995e-05 2.73335e-07
5.30995e-05 -5.75957e-07 3.81965e-07
2.73335e-07 3.81965e-07 -0.000114677
0.000662228 7.01645e-05 1.54578e-07
7.01645e-05 8.4324e-05 2.72514e-07
1.54578e-07 2.72514e-07 -4.4793e-05
0.000624664 6.35131e-05 1.88571e-06
6.35131e-05 5.26617e-05 -1.06864e-06
1.88571e-06 -1.06864e-06 -6.89992e-05
0.000652519 0.000155822 4.92852e-06
0.000155822 0.000106883 3.87593e-06
4.92852e-06 3.87593e-06 -4.15673e-05
0.000144375 0.000127107 6.78677e-05
0.000127107 -0.000190582 0.000181671
6.78677e-05 0.000181671 -0.00151965
0.00290722 -4.04584e-05 -1.44801e-05
-4.04584e-05 0.000221394 5.35758e-05
-1.44801e-05 5.35758e-05 -0.000424092
0.00340797 -0.000228638 4.79429e-05
-0.000228638 0.00234155 -7.33495e-05
4.79429e-05 -7.33495e-05 0.00131888
0.00478964 -0.000128277 -7.95219e-06
-0.000128277 -0.00469541 7.87163e-05
-7.95219e-06 7.87163e-05 -0.00149854
0.00308498 -0.0013803 -9.28131e-05
-0.0013803 0.000924173 6.81124e-05
-9.28131e-05 6.81124e-05 0.000225674
-0.00188465 -0.00171716 -4.65363e-05
-0.00171716 -1.41817e-05 9.17238e-05
-4.65363e-05 9.17238e-05 -0.00427502
0.0100483 0.00224365 8.33677e-05
0.00224365 0.0051656 -7.60161e-05
8.33677e-05 -7.60161e-05 0.00281018
0.00310889 -0.00122948 -3.07313e-05
-0.00122948 0.000733404 7.11968e-06
-3.07313e-05 7.11968e-06 0.000400272
-0.000848737 -0.000534508 2.09372e-05
-0.000534508 0.00186679 3.34296e-05
2.09372e-05 3.34296e-05 -0.00306039
0.00497167 0.000232778 4.53138e-05
0.000232778 0.00258964 -1.22699e-05
4.53138e-05 -1.22699e-05 0.000844672
0.0105539 -0.00149941 -3.46423e-05
-0.00149941 0.00138283 -3.69141e-05
-3.46423e-05 -3.69141e-05 0.00265471
-0.000530195 -0.000152216 -0.00011166
-0.000152216 -0.000720623 8.1706e-05
-0.00011166 8.1706e-05 -0.000465033
0.00111014 0.00156864 -7.83633e-05
0.00156864 0.00244912 -8.29e-05
-7.83633e-05 -8.29e-05 -0.00255833
-0.00594561 -0.00250915 5.15605e-05
-0.00250915 -0.00309864 -0.00016149
5.15605e-05 -0.00016149 -0.00568016
0.00690082 -0.00157584 6.87674e-05
-0.00157584 0.000149348 -0.000317483
6.87674e-05 -0.000317483 0.000617221
0.000964166 2.84046e-05 6.82709e-06
2.84046e-05 0.000299143 1.19633e-06
6.82709e-06 1.19633e-06 0.000169359
0.000643171 8.66157e-05 -4.11376e-07
8.66157e-05 9.12566e-05 -1.14053e-06
-4.11376e-07 -1.14053e-06 -5.12514e-05
0.000801742 -1.30006e-05 2.69521e-09
-1.30006e-05 0.000230708 -2.90713e-06
2.69521e-09 -2.90713e-06 4.45756e-05
0.000826669 7.14754e-05 -2.00615e-06
7.14754e-05 0.000198574 -5.32392e-06
-2.00615e-06 -5.32392e-06 4.869e-05
0.000462003 -0.000489825 -5.80723e-06
-0.000489825 -0.000333883 3.58267e-05
-5.80723e-06 3.58267e-05 -0.000445341
0.000932314 -0.000121002 -1.7421e-05
-0.000121002 0.000697327 -1.88987e-05
-1.7421e-05 -1.88987e-05 0.000457296
0.000756772 5.23204e-05 -3.60372e-06
5.23204e-05 0.000146866 -5.91176e-06
-3.60372e-06 -5.91176e-06 2.29861e-05
0.00069866 0.000173184 -1.20064e-06
0.000173184 0.000214978 3.78593e-06
-1.20064e-06 3.78593e-06 4.50459e-05
0.00233916 3.54274e-06 5.32898e-06
3.54274e-06 0.00134454 -1.77533e-05
5.32898e-06 -1.77533e-05 0.00108921
0.000953943 7.86127e-05 3.98482e-06
7.86127e-05 0.000289404 3.6488e-06
3.98482e-06 3.6488e-06 0.00017465
0.000564757 0.000123577 -2.30635e-06
0.000123577 0.00037904 -9.49526e-07
-2.30635e-06 -9.49526e-07 7.61799e-05
0.000774031 -0.000134493 6.18299e-06
-0.000134493 0.00073677 -4.64218e-06
6.18299e-06 -4.64218e-06 8.69255e-05
9.48899e-05 7.47873e-06 2.30577e-05
7.47873e-06 0.000237973 -1.90494e-06
2.30577e-05 -1.90494e-06 3.52238e-05
0.000784596 0.000141723 7.44927e-07
0.000141723 0.000435349 -4.91793e-06
7.44927e-07 -4.91793e-06 0.000233458
-0.000204105 -3.23409e-05 -3.26236e-05
-3.23409e-05 0.00077529 -4.31463e-05
-3.26236e-05 -4.31463e-05 -0.000540009
0.00319911 0.000177657 2.00299e-05
0.000177657 0.00185632 2.25547e-05
2.00299e-05 2.25547e-05 0.00157182
1.70552e-05 2.2266e-05 -1.11759e-05
2.2266e-05 0.000803303 1.46668e-05
-1.11759e-05 1.46668e-05 0.000138737
0.00118181 -2.13126e-05 1.25804e-07
-2.13126e-05 -6.88365e-05 4.72643e-07
1.25804e-07 4.72643e-07 -0.000184475
-0.000385862 5.66914e-06 4.18115e-06
5.66914e-06 0.000236086 -2.29915e-05
4.18115e-06 -2.29915e-05 -0.000120783
0.00010058 0.000127489 -2.91509e-06
0.000127489 0.000248782 6.16762e-06
-2.91509e-06 6.16762e-06 4.08308e-05
-0.00126806 0.000383356 6.97258e-05
0.000383356 -0.000814098 5.95254e-05
6.97258e-05 5.95254e-05 -0.00116001
0.00115794 -1.68514e-05 2.37157e-05
-1.68514e-05 -0.000501397 -6.57158e-06
2.37157e-05 -6.57158e-06 -0.000152631
0.00261399 -0.0013771 0.000133697
-0.0013771 0.00362373 -0.000130664
0.000133697 -0.000130664 -0.00243297
0.0106826 0.00219029 -9.21091e-05
0.00219029 0.00492797 7.17665e-05
-9.21091e-05 7.17665e-05 0.0028721
0.0035152 -0.000162789 -5.44622e-05
-0.000162789 0.00230075 7.86399e-05
-5.44622e-05 7.86399e-05 0.00130192
0.00667573 0.00218815 -2.56314e-05
0.00218815 0.000857487 -6.71002e-05
-2.56314e-05 -6.71002e-05 5.28344e-05
0.000142999 0.000121651 -4.37551e-05
0.000121651 0.000631533 1.15664e-05
-4.37551e-05 1.15664e-05 1.60689e-05
0.000719566 -1.26795e-05 -1.9369e-05
-1.26795e-05 0.000525048 1.83225e-06
-1.9369e-05 1.83225e-06 0.000511974
0.00366809 -0.000572246 0.000140858
-0.000572246 0.00131869 -1.20649e-05
0.000140858 -1.20649e-05 -0.00203304
-0.000404206 -0.00019657 1.56338e-05
-0.00019657 -0.000354586 2.61801e-05
1.56338e-05 2.61801e-05 -0.000527011
0.000378282 0.00305614 0.000202992
0.00305614 0.00173203 -0.000100156
0.000202992 -0.000100156 0.00213453
0.00767776 0.0013936 -8.55673e-05
0.0013936 0.000854182 0.000160843
-8.55673e-05 0.000160843 4.28521e-05
-0.00307647 -0.000814299 7.7987e-05
-0.000814299 0.00106306 -8.5487e-05
7.7987e-05 -8.5487e-05 -0.00446894
0.000407008 -0.000226123 4.12242e-05
-0.000226123 0.000501766 -1.07691e-05
4.12242e-05 -1.07691e-05 -1.4951e-05
0.000422606 -0.000245242 0.000116325
-0.000245242 -0.000270075 -3.27271e-05
0.000116325 -3.27271e-05 -0.00204151
-0.0022374 2.50809e-05 -0.000370176
2.50809e-05 0.00295587 5.47068e-05
-0.000370176 5.47068e-05 0.000837195
0.0057022 0.00288557 -0.00028814
0.00288557 0.000903927 0.000351736
-0.00028814 0.000351736 0.00078625
0.00796438 -0.00126017 -3.69266e-05
-0.00126017 0.00359379 1.10473e-05
-3.69266e-05 1.10473e-05 0.000103808
0.00291428 -0.000702224 -5.72653e-05
-0.000702224 0.00129701 3.92501e-05
-5.72653e-05 3.92501e-05 0.000889876
-0.000551377 2.16397e-05 2.2133e-05
2.16397e-05 -0.000160205 8.86072e-06
2.2133e-05 8.86072e-06 -0.000359872
0.000332272 -0.000231669 -2.55293e-07
-0.000231669 0.000351228 5.11504e-07
-2.55293e-07 5.11504e-07 2.43675e-05
0.000994102 -0.00039556 1.56517e-05
-0.00039556 0.000413205 -2.93207e-06
1.56517e-05 -2.93207e-06 0.000268229
-0.000467883 -0.000188894 -6.00174e-06
-0.000188894 -0.000169191 7.12108e-06
-6.00174e-06 7.12108e-06 -0.000369407
-0.000706197 -0.000208111 -1.69535e-07
-0.000208111 -0.000466203 -2.96809e-06
-1.69535e-07 -2.96809e-06 -0.000688522
0.00306059 -0.000602031 3.538e-05
-0.000602031 0.00123483 -3.56164e-06
3.538e-05 -3.56164e-06 0.00096638
0.00474032 -0.000702621 -1.03409e-05
-0.000702621 0.0023199 3.82077e-06
-1.03409e-05 3.82077e-06 0.00203282
0.00243707 -0.000496588 7.74751e-06
-0.000496588 0.00102468 1.03731e-07
7.74751e-06 1.03731e-07 0.000619196
0.00129533 -0.000461018 8.76622e-06
-0.000461018 0.000247922 -7.57745e-06
8.76622e-06 -7.57745e-06 -0.000187959
0.00158795 -0.000375156 -8.72548e-06
-0.000375156 0.000410457 1.90762e-06
-8.72548e-06 1.90762e-06 0.000112792
0.00214083 -0.000517434 1.08946e-06
-0.000517434 0.000660856 4.66445e-07
1.08946e-06 4.66445e-07 0.000267067
0.0020746 -0.000540843 1.94817e-06
-0.000540843 0.000580934 -6.22246e-06
1.94817e-06 -6.22246e-06 0.000185109
0.00198268 -0.000498965 -1.68369e-06
-0.000498965 0.000402771 -3.29075e-06
-1.68369e-06 -3.29075e-06 0.00011296
0.00180262 -0.000496569 -9.00189e-07
-0.000496569 0.000372559 2.51133e-06
-9.00189e-07 2.51133e-06 6.4962e-05
0.00176136 -0.00050262 -1.24249e-06
-0.00050262 0.000368603 -5.1699e-08
-1.24249e-06 -5.1699e-08 3.21326e-05
0.00125638 -0.000328324 6.1435e-06
-0.000328324 0.000205277 2.81223e-07
6.1435e-06 2.81223e-07 -3.6528e-05
0.00125197 -0.000341243 1.94377e-06
-0.000341243 0.000192983 3.9247e-08
1.94377e-06 3.9247e-08 -6.32386e-05
0.00134317 -0.000376598 1.11744e-06
-0.000376598 0.000221193 -1.16313e-06
1.11744e-06 -1.16313e-06 -7.53118e-05
0.00130828 -0.000276751 3.25954e-06
-0.000276751 0.000373328 2.34479e-06
3.25954e-06 2.34479e-06 0.000138786
0.00134503 -0.00029823 -2.2751e-06
-0.00029823 0.000342746 -1.3829e-06
-2.2751e-06 -1.3829e-06 0.000111222
0.000737598 -0.00024975 6.96079e-06
-0.00024975 -4.61636e-05 -4.36998e-06
6.96079e-06 -4.36998e-06 -0.000262718
0.000367562 -0.000105587 2.12927e-06
-0.000105587 -6.8438e-05 7.60312e-07
2.12927e-06 7.60312e-07 -0.000256825
0.000473853 -0.000126094 -8.77969e-07
-0.000126094 -2.01338e-05 1.31673e-06
-8.77969e-07 1.31673e-06 -0.000217341
0.00145167 -0.000283987 3.53457e-06
-0.000283987 0.000539297 -5.68585e-06
3.53457e-06 -5.68585e-06 0.000306229
0.000467736 1.04009e-05 2.45555e-07
1.04009e-05 -4.60683e-05 4.23688e-06
2.45555e-07 4.23688e-06 -0.000136999
0.000693841 -4.50588e-05 -4.1417e-07
-4.50588e-05 0.000123299 -8.19475e-08
-4.1417e-07 -8.19475e-08 -2.52959e-05
0.00128612 -0.000174219 8.09768e-07
-0.000174219 0.000500778 -5.70381e-07
8.09768e-07 -5.70381e-07 0.000317746
0.000495937 4.73917e-05 -1.61812e-06
4.73917e-05 -3.74039e-05 7.76333e-06
-1.61812e-06 7.76333e-06 -6.73856e-05
0.000638535 5.11302e-06 -3.29828e-07
5.11302e-06 4.94775e-05 -2.66997e-07
-3.29828e-07 -2.66997e-07 -2.7661e-05
0.000976335 -6.95539e-05 -2.02812e-07
-6.95539e-05 0.000276453 -1.47678e-06
-2.02812e-07 -1.47678e-06 0.000156079
0.000663396 -7.40077e-06 1.21474e-06
-7.40077e-06 6.06743e-05 -3.02809e-06
1.21474e-06 -3.02809e-06 -7.33715e-06
0.000530022 4.8325e-05 3.89509e-07
4.8325e-05 -2.37127e-05 1.58902e-08
3.89509e-07 1.58902e-08 -5.05832e-05
0.00247095 0.0001052 -2.78109e-05
0.0001052 0.00115732 3.68652e-06
-2.78109e-05 3.68652e-06 0.0011607
0.000548577 4.5113e-05 -3.88967e-07
4.5113e-05 -2.08847e-05 -5.01208e-06
-3.88967e-07 -5.01208e-06 -4.45349e-05
0.0024326 9.10644e-05 2.96054e-06
9.10644e-05 0.0011267 2.91735e-07
2.96054e-06 2.91735e-07 0.00113328
0.00241187 7.69727e-05 2.09876e-05
7.69727e-05 0.00110781 -4.26741e-06
2.09876e-05 -4.26741e-06 0.00111702
0.000696449 6.71964e-05 1.55783e-07
6.71964e-05 0.00011914 -1.08814e-06
1.55783e-07 -1.08814e-06 -2.06534e-05
0.000767579 9.19614e-05 1.30059e-06
9.19614e-05 0.000161699 -1.27584e-06
1.30059e-06 -1.27584e-06 3.341e-05
0.000625349 2.22256e-05 2.03894e-07
2.22256e-05 3.65126e-05 -2.74009e-06
2.03894e-07 -2.74009e-06 -3.44054e-05
0.000684958 8.38081e-05 1.31993e-09
8.38081e-05 9.97971e-05 -8.20924e-08
1.31993e-09 -8.20924e-08 -1.11756e-05
0.000533175 -1.59946e-05 -3.3502e-07
-1.59946e-05 -3.81925e-05 -5.12605e-06
-3.3502e-07 -5.12605e-06 -5.81312e-05
0.000604734 3.14294e-05 7.10362e-08
3.14294e-05 2.46128e-05 -9.92428e-08
7.10362e-08 -9.92428e-08 -3.98852e-05
0.000614426 4.43524e-05 -2.42168e-06
4.43524e-05 5.31575e-05 8.46535e-08
-2.42168e-06 8.46535e-08 -4.94658e-05
0.00232989 -5.27462e-05 -2.19264e-05
-5.27462e-05 0.00104813 -4.6309e-06
-2.19264e-05 -4.6309e-06 0.00106204
0.000541375 -1.61909e-05 -3.94257e-07
-1.61909e-05 -3.59989e-05 -7.34415e-08
-3.94257e-07 -7.34415e-08 -5.17762e-05
0.000531059 3.49585e-05 -1.65964e-06
3.49585e-05 -1.72416e-05 6.82535e-07
-1.65964e-06 6.82535e-07 -7.63266e-05
0.00220775 -3.68166e-05 -4.22747e-06
-3.68166e-05 0.000971624 1.69825e-07
-4.22747e-06 1.69825e-07 0.000987995
0.000541969 -1.10686e-05 -9.37508e-07
-1.10686e-05 -3.78831e-05 3.64808e-06
-9.37508e-07 3.64808e-06 -4.9744e-05
0.00211251 -2.13961e-05 1.17937e-05
-2.13961e-05 0.000912438 4.66098e-06
1.17937e-05 4.66098e-06 0.000930491
-0.000119269 -5.97801e-05 -2.50252e-06
-5.97801e-05 -7.21209e-05 3.89567e-06
-2.50252e-06 3.89567e-06 5.82712e-05
0.00135882 -9.7505e-05 -1.7302e-05
-9.7505e-05 -0.000412987 2.77486e-05
-1.7302e-05 2.77486e-05 -0.000110953
0.000636366 -9.11838e-05 1.00205e-05
-9.11838e-05 0.000516984 -1.73746e-05
1.00205e-05 -1.73746e-05 0.000449401
0.000733768 6.88145e-05 -2.43989e-07
6.88145e-05 0.000127251 1.52638e-07
-2.43989e-07 1.52638e-07 -4.24022e-06
0.000685219 5.46055e-05 1.51378e-06
5.46055e-05 6.83098e-05 -4.06874e-07
1.51378e-06 -4.06874e-07 -5.65376e-05
-0.000116114 3.11111e-05 -4.26353e-06
3.11111e-05 -0.000404112 -4.6766e-06
-4.26353e-06 -4.6766e-06 -0.00051707
0.000328659 1.76459e-05 1.34961e-06
1.76459e-05 -0.000125819 2.70826e-06
1.34961e-06 2.70826e-06 -0.000248891
0.00159054 0.000189606 -6.80611e-07
0.000189606 0.000650626 -2.36833e-07
-6.80611e-07 -2.36833e-07 0.000486472
0.000653155 3.32422e-05 -2.17255e-06
3.32422e-05 5.19966e-05 1.00263e-07
-2.17255e-06 1.00263e-07 -5.8617e-05
0.000659445 5.94866e-05 -2.86516e-06
5.94866e-05 7.39363e-05 -3.57966e-06
-2.86516e-06 -3.57966e-06 -4.80984e-05
0.000756001 6.79422e-05 -7.8411e-08
6.79422e-05 0.000132364 -2.18819e-07
-7.8411e-08 -2.18819e-07 7.83076e-06
0.000984407 0.000111152 1.19138e-07
0.000111152 0.000281627 -2.04412e-07
1.19138e-07 -2.04412e-07 0.000146753
0.000994491 8.71472e-05 3.31895e-06
8.71472e-05 0.000319795 -2.02949e-06
3.31895e-06 -2.02949e-06 0.000170834
0.00335352 0.000314384 0.000209139
0.000314384 0.00233048 0.000273892
0.000209139 0.000273892 -0.00116614
0.00067685 0.000144835 1.00567e-05
0.000144835 -1.3308e-05 7.14089e-05
1.00567e-05 7.14089e-05 -0.00153119
0.00270135 -4.76972e-05 -1.23735e-05
-4.76972e-05 0.00044833 -8.0308e-06
-1.23735e-05 -8.0308e-06 9.52653e-06
0.0107879 -0.00130564 -0.000112704
-0.00130564 0.00148583 -0.000116187
-0.000112704 -0.000116187 0.00298733
-0.00919462 0.00108392 -9.29293e-06
0.00108392 -0.00319842 0.000286674
-9.29293e-06 0.000286674 -0.00601323
0.00499572 -0.00137749 -0.000120648
-0.00137749 0.00184694 3.1852e-05
-0.000120648 3.1852e-05 0.00154016
0.0110376 -0.00112646 -8.38598e-05
-0.00112646 0.00498149 -2.84595e-06
-8.38598e-05 -2.84595e-06 0.00123996
0.00202217 -0.000319983 -2.77224e-05
-0.000319983 0.000488815 7.15996e-05
-2.77224e-05 7.15996e-05 0.000337641
0.0113861 -0.000151766 -2.56308e-05
-0.000151766 0.00598393 -1.18783e-05
-2.56308e-05 -1.18783e-05 0.0012209
0.0028243 -0.00155379 6.21203e-05
-0.00155379 0.00105319 8.55422e-05
6.21203e-05 8.55422e-05 -0.00119552
0.00656182 -0.00194104 -0.000156764
-0.00194104 -0.000641871 -0.000384316
-0.000156764 -0.000384316 -0.000198177
0.00281814 0.000134249 -0.000117258
0.000134249 0.00101969 5.88702e-05
-0.000117258 5.88702e-05 0.000447373
0.0104607 0.00130042 -6.52362e-05
0.00130042 0.00491493 1.51447e-05
-6.52362e-05 1.51447e-05 0.0010958
0.0119563 -0.0027317 -0.000104784
-0.0027317 0.00436316 -0.000337975
-0.000104784 -0.000337975 0.00360046
0.00989657 -0.00322323 8.47554e-05
-0.00322323 0.00264415 -7.80399e-06
8.47554e-05 -7.80399e-06 0.00337283
0.00019938 8.09822e-05 6.74557e-06
8.09822e-05 -6.50697e-05 -3.03319e-06
6.74557e-06 -3.03319e-06 -0.000214449
0.000848546 2.92215e-05 1.33058e-06
2.92215e-05 0.000251083 2.70491e-06
1.33058e-06 2.70491e-06 9.97597e-05
0.000688197 9.98745e-05 -3.4573e-06
9.98745e-05 0.000119987 -6.71386e-06
-3.4573e-06 -6.71386e-06 -2.5776e-05
0.00165452 -0.000236941 -2.72265e-05
-0.000236941 0.00103964 2.57849e-05
-2.72265e-05 2.57849e-05 0.000251686
0.000778103 -2.97698e-05 -5.10754e-05
-2.97698e-05 0.00064754 -2.19778e-05
-5.10754e-05 -2.19778e-05 0.000463795
0.000522833 7.15077e-06 -5.8745e-06
7.15077e-06 3.18035e-05 2.18351e-06
-5.8745e-06 2.18351e-06 -7.97925e-05
-0.000966163 8.91586e-05 -8.65662e-06
8.91586e-05 -0.000446493 -4.14496e-06
-8.65662e-06 -4.14496e-06 -0.000793536
0.00031066 9.50425e-05 5.04516e-07
9.50425e-05 0.000146221 -1.88718e-06
5.04516e-07 -1.88718e-06 -6.12062e-05
0.000677062 0.000160905 2.11456e-06
0.000160905 0.000502364 2.62048e-06
2.11456e-06 2.62048e-06 0.000172186
-0.000689523 -7.32781e-05 0.000124294
-7.32781e-05 0.00069072 -3.68837e-05
0.000124294 -3.68837e-05 -0.000633627
-0.00203303 4.3831e-05 -1.86891e-05
4.3831e-05 -0.00105407 1.28031e-05
-1.86891e-05 1.28031e-05 -0.00130094
0.00263449 0.000388418 -7.02769e-05
0.000388418 0.00171391 -5.06275e-05
-7.02769e-05 -5.06275e-05 0.000813321
0.00195394 6.97417e-05 9.66306e-05
6.97417e-05 0.00132839 2.25994e-05
9.66306e-05 2.25994e-05 -0.00100522
-0.00021783 2.01263e-05 1.03858e-05
2.01263e-05 0.000542474 1.57535e-05
1.03858e-05 1.57535e-05 -7.34885e-06
0.00172558 -8.02931e-05 -3.60588e-08
-8.02931e-05 0.000181256 -1.84183e-07
-3.60588e-08 -1.84183e-07 0.000388088
-0.00170493 0.000322932 0.000109472
0.000322932 -0.000384109 6.89955e-06
0.000109472 6.89955e-06 -0.00111217
0.00274051 0.000175074 -3.59162e-05
0.000175074 0.00148837 2.35916e-05
-3.59162e-05 2.35916e-05 0.000649333
0.000660635 -5.87638e-05 -1.04816e-05
-5.87638e-05 0.000503024 1.25795e-05
-1.04816e-05 1.25795e-05 0.000449103
0.0159715 -0.00201526 0.000140111
-0.00201526 0.00708618 -4.40156e-05
0.000140111 -4.40156e-05 0.0027054
0.0124577 0.00210276 -6.72253e-05
0.00210276 0.00464148 -5.60551e-05
-6.72253e-05 -5.60551e-05 0.00329578
0.00431107 -0.000625892 -9.25762e-05
-0.000625892 0.00174468 0.000139525
-9.25762e-05 0.000139525 -0.00171439
-0.00637858 0.0034632 0.00093529
0.0034632 -0.00236528 -0.000715811
0.00093529 -0.000715811 -0.00153569
0.000706271 -0.000224895 1.35474e-05
-0.000224895 0.000759073 -4.28456e-06
1.35474e-05 -4.28456e-06 0.000158641
0.00061526 -0.000183926 6.08748e-06
-0.000183926 2.79336e-06 1.39048e-05
6.08748e-06 1.39048e-05 -0.00196422
-0.00286275 0.000155136 -0.000510658
0.000155136 0.00294495 0.000206968
-0.000510658 0.000206968 0.000808575
0.00118258 -0.000403964 -2.1371e-05
-0.000403964 0.000426185 3.50419e-05
-2.1371e-05 3.50419e-05 6.81724e-05
0.0134959 0.00275424 0.000134993
0.00275424 0.00398468 8.47655e-05
0.000134993 8.47655e-05 0.00394299
0.0078971 -0.00193587 0.000102363
-0.00193587 0.00323304 -5.91257e-05
0.000102363 -5.91257e-05 4.68746e-05
0.00230947 -0.000565693 2.77588e-06
-0.000565693 0.00108041 2.40327e-05
2.77588e-06 2.40327e-05 0.000891489
-0.00496512 -0.000599779 4.93901e-05
-0.000599779 0.00231424 -3.08566e-05
4.93901e-05 -3.08566e-05 -0.000280125
0.0114862 0.00253612 -0.000581544
0.00253612 0.00503201 0.000269518
-0.000581544 0.000269518 0.00452048
0.00247689 -0.00125121 -0.000239753
-0.00125121 -0.000493231 0.000152544
-0.000239753 0.000152544 -0.00388266
0.00251321 -0.00110015 0.000113661
-0.00110015 0.000559478 -5.67506e-05
0.000113661 -5.67506e-05 0.000688347
-0.000221038 -0.000207777 -5.31883e-05
-0.000207777 3.49057e-05 1.5661e-05
-5.31883e-05 1.5661e-05 -0.000273191
0.000634751 -0.000344043 -7.0242e-06
-0.000344043 0.00028921 9.91752e-06
-7.0242e-06 9.91752e-06 7.3388e-05
0.00385418 -0.000653076 2.7875e-05
-0.000653076 0.00169547 8.06691e-07
2.7875e-05 8.06691e-07 0.0015021
-0.0028 -6.25733e-05 -1.112e-06
-6.25733e-05 -0.0015454 9.93505e-06
-1.112e-06 9.93505e-06 -0.00177028
0.000826627 -0.000366645 4.74216e-06
-0.000366645 8.49398e-05 1.51893e-06
4.74216e-06 1.51893e-06 -0.00017578
0.00226038 -0.000601569 5.85699e-06
-0.000601569 0.000546811 2.97119e-07
5.85699e-06 2.97119e-07 0.000282071
0.0030984 -0.000562429 -1.67504e-05
-0.000562429 0.0013153 5.83132e-06
-1.67504e-05 5.83132e-06 0.000935596
0.00131299 -0.000450162 -2.45623e-06
-0.000450162 0.000230577 -4.05039e-06
-2.45623e-06 -4.05039e-06 -0.00018279
0.0017206 -0.000573931 5.37481e-06
-0.000573931 0.000231366 -7.50191e-06
5.37481e-06 -7.50191e-06 -9.61978e-05
0.00255623 -0.000566899 -3.46421e-06
-0.000566899 0.00086419 -1.7061e-07
-3.46421e-06 -1.7061e-07 0.000462357
0.00171511 -0.000510442 4.13488e-07
-0.000510442 0.000357963 -3.91102e-06
4.13488e-07 -3.91102e-06 -2.18795e-05
0.00216294 -0.000517049 1.13828e-06
-0.000517049 0.000446127 -7.15054e-06
1.13828e-06 -7.15054e-06 0.000166047
0.00167275 -0.000390374 -4.05742e-06
-0.000390374 0.000100794 -3.33645e-06
-4.05742e-06 -3.33645e-06 -0.000114382
0.00163524 -0.000479407 1.49306e-06
-0.000479407 0.000181789 -8.86187e-07
1.49306e-06 -8.86187e-07 -0.000102207
0.00181453 -0.000482919 2.03991e-06
-0.000482919 0.000309424 -2.55562e-06
2.03991e-06 -2.55562e-06 2.40322e-05
0.0017366 -0.000425652 5.80908e-07
-0.000425652 0.000393778 1.4954e-06
5.80908e-07 1.4954e-06 0.000116223
0.00183027 -0.000499831 -2.05674e-06
-0.000499831 0.000405614 1.31949e-07
-2.05674e-06 1.31949e-07 9.28555e-05
0.00182068 -0.000514091 1.27293e-06
-0.000514091 0.000400798 -3.49823e-06
1.27293e-06 -3.49823e-06 5.77494e-05
0.00140235 -0.00030784 2.79762e-06
-0.00030784 0.000329575 7.33785e-07
2.79762e-06 7.33785e-07 9.51401e-05
0.000953618 -0.000295514 4.2071e-07
-0.000295514 3.27227e-05 -3.52769e-07
4.2071e-07 -3.52769e-07 -0.000199453
0.00128272 -0.00033772 3.92112e-06
-0.00033772 0.000208008 -2.4982e-06
3.92112e-06 -2.4982e-06 -3.94351e-05
0.000715057 -0.000212884 -4.30705e-07
-0.000212884 7.81657e-05 7.6464e-07
-4.30705e-07 7.6464e-07 -0.000131204
0.000958036 -0.000238866 1.65844e-07
-0.000238866 0.00016737 -1.67408e-08
1.65844e-07 -1.67408e-08 -5.88224e-05
0.000478383 -0.000213243 -2.19396e-06
-0.000213243 -0.000177453 -8.63028e-07
-2.19396e-06 -8.63028e-07 -0.000394488
0.000235317 3.46331e-06 -2.18125e-07
3.46331e-06 -0.000178004 5.34746e-06
-2.18125e-07 5.34746e-06 -0.000299252
0.00077789 -0.000125661 1.34406e-06
-0.000125661 0.000182824 3.84399e-07
1.34406e-06 3.84399e-07 -1.42858e-05
0.00111283 -0.00018246 -2.31862e-06
-0.00018246 0.000378557 -1.31189e-07
-2.31862e-06 -1.31189e-07 0.000169481
0.00147851 8.30628e-05 -1.94946e-05
8.30628e-05 0.00056771 5.18994e-06
-1.94946e-05 5.18994e-06 0.000532589
0.000678736 -1.99421e-05 1.92631e-07
-1.99421e-05 7.56738e-05 -6.026e-07
1.92631e-07 -6.026e-07 -1.70906e-05
0.00123721 -8.24573e-05 -2.01157e-06
-8.24573e-05 0.000455836 -1.93053e-06
-2.01157e-06 -1.93053e-06 0.000296287
0.000736502 4.96634e-05 -3.05075e-05
4.96634e-05 0.000114153 3.94171e-06
-3.05075e-05 3.94171e-06 0.000110831
0.000991071 6.31041e-05 -9.52173e-06
6.31041e-05 0.000263808 -2.1069e-07
-9.52173e-06 -2.1069e-07 0.000233972
0.000650569 -1.10032e-06 8.57762e-07
-1.10032e-06 5.33248e-05 -3.91557e-06
8.57762e-07 -3.91557e-06 -2.33519e-05
0.000538217 5.11634e-05 -4.42055e-08
5.11634e-05 -1.75541e-05 -5.72803e-06
-4.42055e-08 -5.72803e-06 -4.51634e-05
0.00249456 0.000106995 4.62179e-06
0.000106995 0.0011723 4.19904e-07
4.62179e-06 4.19904e-07 0.00117535
0.00242652 9.29753e-05 2.3029e-05
9.29753e-05 0.00112393 -4.0318e-06
2.3029e-05 -4.0318e-06 0.00113013
0.000810261 7.63573e-05 1.0049e-06
7.63573e-05 0.000172204 1.72049e-06
1.0049e-06 1.72049e-06 4.14621e-05
0.000789747 8.45247e-05 9.39323e-07
8.45247e-05 0.000176906 -2.20282e-06
9.39323e-07 -2.20282e-06 4.27921e-05
0.00058827 5.34417e-05 -4.68688e-07
5.34417e-05 3.42111e-05 6.05819e-07
-4.68688e-07 6.05819e-07 -9.18017e-05
0.000633033 1.15466e-05 1.63333e-08
1.15466e-05 4.12432e-05 -3.14826e-06
1.63333e-08 -3.14826e-06 -3.59386e-05
0.000724531 7.03784e-05 5.55648e-07
7.03784e-05 0.00012398 3.34363e-08
5.55648e-07 3.34363e-08 6.46094e-06
0.000532285 -1.66038e-05 -9.89799e-07
-1.66038e-05 -3.41104e-05 -5.72329e-06
-9.89799e-07 -5.72329e-06 -5.8487e-05
0.000596982 2.45545e-05 -3.06384e-08
2.45545e-05 2.07202e-05 -1.52994e-07
-3.06384e-08 -1.52994e-07 -5.06761e-05
0.000727127 6.86719e-05 -1.0272e-06
6.86719e-05 0.000142082 1.4873e-06
-1.0272e-06 1.4873e-06 1.82215e-05
0.00248334 -6.83707e-05 -2.86747e-05
-6.83707e-05 0.00114471 -4.49831e-06
-2.86747e-05 -4.49831e-06 0.00115585
0.000523273 -1.84742e-05 -5.77362e-07
-1.84742e-05 -4.40382e-05 -6.05722e-08
-5.77362e-07 -6.05722e-08 -6.38626e-05
0.000594254 3.45012e-05 2.74778e-07
3.45012e-05 1.91531e-05 2.513e-06
2.74778e-07 2.513e-06 -4.53615e-05
0.00233919 -5.21575e-05 -4.64374e-06
-5.21575e-05 0.00105351 2.53868e-07
-4.64374e-06 2.53868e-07 0.00106756
0.000523994 -1.74424e-05 -1.32617e-06
-1.74424e-05 -4.61347e-05 4.23762e-06
-1.32617e-06 4.23762e-06 -6.17964e-05
0.00220955 -3.54788e-05 1.68252e-05
-3.54788e-05 0.000972398 4.56681e-06
1.68252e-05 4.56681e-06 0.000988964
0.00526988 0.000152435 0.000135443
0.000152435 0.00224606 2.42745e-05
0.000135443 2.42745e-05 0.000972431
-0.000104001 -6.28962e-05 -7.80889e-07
-6.28962e-05 -7.9271e-05 -1.26531e-06
-7.80889e-07 -1.26531e-06 1.20345e-05
0.00125028 -7.0604e-05 -2.02071e-05
-7.0604e-05 -0.000446152 3.7427e-06
-2.02071e-05 3.7427e-06 -9.36065e-05
0.00036466 0.000104032 -6.31779e-06
0.000104032 -0.000105616 -2.10515e-06
-6.31779e-06 -2.10515e-06 -0.000232718
0.00080878 6.85242e-05 -1.69783e-06
6.85242e-05 0.000167921 -2.87092e-07
-1.69783e-06 -2.87092e-07 4.21504e-05
0.000500446 4.49478e-05 3.32981e-07
4.49478e-05 -4.41748e-05 -6.00957e-07
3.32981e-07 -6.00957e-07 -0.000164438
0.000827985 4.66532e-05 2.46904e-07
4.66532e-05 0.000161935 -2.97534e-07
2.46904e-07 -2.97534e-07 3.83881e-05
0.000647027 8.298e-05 -9.71564e-07
8.298e-05 4.59686e-05 2.49988e-07
-9.71564e-07 2.49988e-07 -7.46228e-05
0.00129266 0.000157991 5.85963e-07
0.000157991 0.000468529 -1.24274e-06
5.85963e-07 -1.24274e-06 0.000320259
0.000877261 0.000121455 -1.07418e-06
0.000121455 0.000193562 -7.39335e-06
-1.07418e-06 -7.39335e-06 2.08804e-05
-4.58779e-05 2.93996e-05 1.07684e-06
2.93996e-05 -0.000287742 2.19888e-06
1.07684e-06 2.19888e-06 -0.00044121
0.000784233 0.000120749 -1.97817e-06
0.000120749 0.000163414 5.60285e-07
-1.97817e-06 5.60285e-07 2.84157e-05
0.000416935 2.84953e-05 -3.51289e-06
2.84953e-05 -8.19636e-05 -2.9104e-06
-3.51289e-06 -2.9104e-06 -0.000191502
0.000496312 6.06046e-05 -6.31069e-08
6.06046e-05 1.93952e-05 9.29615e-07
-6.31069e-08 9.29615e-07 -0.000123312
0.00145698 0.000178558 1.05491e-05
0.000178558 0.000649402 6.37121e-06
1.05491e-05 6.37121e-06 0.000481106
0.00109319 -0.00110313 0.000134997
-0.00110313 0.00295525 0.000214762
0.000134997 0.000214762 0.000318239
0.00388057 0.000410667 2.94545e-05
0.000410667 0.00219132 0.00010177
2.94545e-05 0.00010177 -0.00144477
0.00103895 0.000134563 -2.37112e-05
0.000134563 0.000241681 -4.67477e-05
-2.37112e-05 -4.67477e-05 -0.00145306
0.011496 -0.00242809 -0.000322239
-0.00242809 0.00199582 -0.000220688
-0.000322239 -0.000220688 0.00240547
0.00594436 -0.000879524 9.29922e-05
-0.000879524 0.00176371 0.000286973
9.29922e-05 0.000286973 8.80405e-05
0.00115874 -0.000896037 -0.000108545
-0.000896037 0.00231956 8.95898e-05
-0.000108545 8.95898e-05 -0.00277676
0.00097855 -0.000388107 1.55313e-05
-0.000388107 0.000336867 5.00161e-05
1.55313e-05 5.00161e-05 -0.000204556
0.00208229 -0.000108966 2.24563e-05
-0.000108966 0.000771687 5.1291e-05
2.24563e-05 5.1291e-05 0.0004203
0.00225719 -0.0033025 0.00016171
-0.0033025 0.00019738 0.000170668
0.00016171 0.000170668 0.00104684
0.00431105 0.00103166 -2.36223e-05
0.00103166 0.00371849 -3.44094e-05
-2.36223e-05 -3.44094e-05 -0.00106141
0.00376901 -0.00165235 -5.1778e-05
-0.00165235 -0.000225362 6.19837e-05
-5.1778e-05 6.19837e-05 -0.00127919
0.000604786 0.000360195 -1.68328e-05
0.000360195 0.000221975 5.49026e-05
-1.68328e-05 5.49026e-05 9.91445e-05
0.00829817 0.00139966 -4.63202e-05
0.00139966 0.00375525 -2.63584e-05
-4.63202e-05 -2.63584e-05 0.000420532
0.00537303 -0.00278095 -0.000329541
-0.00278095 0.000560323 -0.00026722
-0.000329541 -0.00026722 0.000332849
0.000846462 0.000355621 6.93555e-06
0.000355621 0.000192869 -1.11715e-05
6.93555e-06 -1.11715e-05 3.45175e-05
0.000628661 9.67756e-05 2.88474e-06
9.67756e-05 0.000177117 -1.47174e-07
2.88474e-06 -1.47174e-07 3.36662e-05
0.000370791 4.45029e-05 -4.62871e-06
4.45029e-05 -2.4038e-05 -2.64235e-06
-4.62871e-06 -2.64235e-06 -0.000183916
-0.000455177 -0.000125386 -0.000144086
-0.000125386 0.000981216 -4.22806e-05
-0.000144086 -4.22806e-05 -0.000298706
-0.00159507 0.000155926 1.66082e-06
0.000155926 -0.00077126 -1.70201e-05
1.66082e-06 -1.70201e-05 -0.00111944
-0.000151319 9.06507e-05 -7.14754e-06
9.06507e-05 -0.000111711 3.15443e-06
-7.14754e-06 3.15443e-06 -0.000342412
0.000584138 0.000347985 1.33703e-05
0.000347985 0.000302918 3.1051e-06
1.33703e-05 3.1051e-06 2.80292e-05
0.000577759 0.000291743 7.44159e-06
0.000291743 0.000580266 -3.41212e-05
7.44159e-06 -3.41212e-05 -0.000200692
2.55594e-05 0.000605134 3.49582e-05
0.000605134 -0.000402997 6.60922e-06
3.49582e-05 6.60922e-06 -0.000816833
-0.00217215 0.000441886 0.000181252
0.000441886 0.00375319 4.96335e-06
0.000181252 4.96335e-06 0.000402865
0.00221523 -1.39203e-05 -4.93141e-06
-1.39203e-05 0.0014637 2.95075e-05
-4.93141e-06 2.95075e-05 -0.000342559
-0.000469114 -1.80182e-05 -2.02553e-06
-1.80182e-05 0.000239698 1.95153e-05
-2.02553e-06 1.95153e-05 -0.000146614
4.81363e-05 -0.00015181 -5.84616e-05
-0.00015181 0.000522787 5.8273e-06
-5.84616e-05 5.8273e-06 -8.69106e-05
-0.000682013 -0.000128007 -6.86442e-05
-0.000128007 -0.000998895 2.76057e-05
-6.86442e-05 2.76057e-05 -0.000719915
0.000940297 -0.00014369 -0.000104586
-0.00014369 0.000142337 4.31279e-05
-0.000104586 4.31279e-05 -0.00181526
-0.00253078 -0.00169806 9.48973e-05
-0.00169806 0.00018549 -0.000111285
9.48973e-05 -0.000111285 -0.00419465
0.000307474 0.00229229 0.000263627
0.00229229 -0.00297783 -0.000226062
0.000263627 -0.000226062 -0.00288864
0.00341165 0.00105681 -0.000254893
0.00105681 0.00414325 0.00017847
-0.000254893 0.00017847 0.0024792
0.00138015 -0.000297847 -4.19752e-06
-0.000297847 0.00065202 -2.97049e-06
-4.19752e-06 -2.97049e-06 0.000526047
0.00141845 0.000223945 4.21321e-05
0.000223945 0.00415721 4.6532e-06
4.21321e-05 4.6532e-06 0.00234434
-0.00289058 0.00159739 2.3527e-05
0.00159739 -0.000561407 2.15242e-05
2.3527e-05 2.15242e-05 -0.00238017
0.00341053 -0.00129202 5.71732e-05
-0.00129202 0.00120666 -1.64506e-05
5.71732e-05 -1.64506e-05 0.000760159
0.0126644 -0.00120067 1.96762e-05
-0.00120067 0.00378087 -1.26322e-05
1.96762e-05 -1.26322e-05 0.00187366
0.00311281 -0.000816796 -1.31153e-05
-0.000816796 0.0010745 2.23392e-05
-1.31153e-05 2.23392e-05 0.00103063
-0.00870215 0.000598192 -0.000255753
0.000598192 -0.00382266 1.36035e-05
-0.000255753 1.36035e-05 -0.00500397
0.0133622 -0.000734985 -0.00012442
-0.000734985 0.00314343 3.80823e-05
-0.00012442 3.80823e-05 0.00157296
0.00320176 -0.00145344 2.79643e-05
-0.00145344 -0.000227806 -3.08871e-05
2.79643e-05 -3.08871e-05 -0.000583562
-9.36623e-05 -0.000240413 -1.43524e-05
-0.000240413 -3.31815e-05 1.55915e-05
-1.43524e-05 1.55915e-05 -0.000318301
0.00151145 -0.0004886 -3.93079e-06
-0.0004886 0.000328065 6.99896e-07
-3.93079e-06 6.99896e-07 0.000261436
0.00369646 -0.000622608 1.42949e-05
-0.000622608 0.0012739 -3.6855e-06
1.42949e-05 -3.6855e-06 0.00112751
-0.00110635 -0.000165744 -6.62583e-06
-0.000165744 -0.000898949 4.07549e-06
-6.62583e-06 4.07549e-06 -0.00116007
0.00138048 -0.000511932 -6.11549e-06
-0.000511932 0.000121426 -2.58946e-06
-6.11549e-06 -2.58946e-06 -0.000156467
0.00244972 -0.00065444 4.09108e-06
-0.00065444 0.000485067 -1.92807e-06
4.09108e-06 -1.92807e-06 0.000236035
0.00132324 -0.000441035 -1.7145e-05
-0.000441035 0.000213769 -2.24684e-07
-1.7145e-05 -2.24684e-07 -0.00018021
0.00156101 -0.000547792 -8.88439e-08
-0.000547792 0.000154891 4.62275e-07
-8.88439e-08 4.62275e-07 -0.000175539
0.00154783 -0.000477776 2.15964e-06
-0.000477776 -4.58623e-05 -6.10511e-06
2.15964e-06 -6.10511e-06 -0.000259993
0.00126001 -0.000472205 -4.92136e-06
-0.000472205 8.31375e-05 -8.80324e-08
-4.92136e-06 -8.80324e-08 -0.00028145
0.00166917 -0.000468364 -4.66538e-07
-0.000468364 0.000176045 6.66002e-07
-4.66538e-07 6.66002e-07 -9.50572e-05
0.00177765 -0.000384814 -1.57121e-06
-0.000384814 0.000101403 -5.32016e-06
-1.57121e-06 -5.32016e-06 -7.21823e-05
0.00166701 -0.000307203 -4.81364e-06
-0.000307203 5.48661e-05 -2.73763e-06
-4.81364e-06 -2.73763e-06 -9.4149e-05
0.00154113 -0.000380798 -3.97331e-06
-0.000380798 4.40087e-05 -2.21571e-06
-3.97331e-06 -2.21571e-06 -0.000176577
0.00165553 -0.000380756 1.18492e-06
-0.000380756 9.89454e-05 1.77397e-06
1.18492e-06 1.77397e-06 -0.000110934
0.0014452 -0.00041055 -2.525e-06
-0.00041055 0.000118753 -1.39175e-06
-2.525e-06 -1.39175e-06 -0.000144421
0.00174494 -0.00048232 1.75818e-06
-0.00048232 0.000255805 -3.66683e-07
1.75818e-06 -3.66683e-07 -2.55526e-05
0.00171746 -0.000472546 1.83803e-06
-0.000472546 0.0002563 2.87059e-07
1.83803e-06 2.87059e-07 -2.5308e-05
0.00149088 -0.000345804 -2.0443e-06
-0.000345804 0.00030031 1.40299e-06
-2.0443e-06 1.40299e-06 5.35104e-05
0.00153919 -0.000409078 1.0314e-06
-0.000409078 0.000280931 -5.36478e-07
1.0314e-06 -5.36478e-07 6.37508e-06
0.00180023 -0.000496904 -2.70806e-06
-0.000496904 0.000405094 -1.45077e-06
-2.70806e-06 -1.45077e-06 8.77441e-05
0.00100794 -0.000237425 -2.1339e-06
-0.000237425 0.000146945 2.48621e-06
-2.1339e-06 2.48621e-06 -6.15325e-05
0.00119591 -0.000288734 1.41317e-06
-0.000288734 0.000200187 5.48509e-08
1.41317e-06 5.48509e-08 -3.07309e-05
0.000776882 -0.000273905 -1.77834e-07
-0.000273905 -6.47611e-05 -3.41158e-06
-1.77834e-07 -3.41158e-06 -0.000289717
0.000569613 -0.000113307 -1.79283e-06
-0.000113307 9.88385e-06 4.79611e-06
-1.79283e-06 4.79611e-06 -0.000149826
0.00101713 -0.000217778 1.6258e-08
-0.000217778 0.000252197 3.6332e-08
1.6258e-08 3.6332e-08 4.19099e-05
0.000430283 -0.000186022 -3.47962e-06
-0.000186022 -0.000144654 -4.46052e-07
-3.47962e-06 -4.46052e-07 -0.000359657
0.000365014 2.75509e-05 -1.59905e-06
2.75509e-05 -0.000102772 8.85013e-06
-1.59905e-06 8.85013e-06 -0.000151346
0.000676851 -7.34535e-05 -4.27122e-07
-7.34535e-05 8.54728e-05 -2.76564e-07
-4.27122e-07 -2.76564e-07 -4.54118e-05
0.00130256 -0.000146925 9.86602e-07
-0.000146925 0.000499817 -2.15674e-06
9.86602e-07 -2.15674e-06 0.00029461
0.00279133 0.000155933 -5.51705e-06
0.000155933 0.00137018 2.28191e-06
-5.51705e-06 2.28191e-06 0.00135908
0.000512612 4.09631e-05 -2.57267e-07
4.09631e-05 -2.06938e-05 -1.20328e-07
-2.57267e-07 -1.20328e-07 -5.88804e-05
0.00084026 -4.54543e-05 2.6335e-06
-4.54543e-05 0.000171268 -4.98551e-06
2.6335e-06 -4.98551e-06 7.46365e-05
0.00261681 0.00012147 4.52069e-06
0.00012147 0.00125341 3.59598e-07
4.52069e-06 3.59598e-07 0.0012531
0.000561853 4.52576e-05 5.98298e-07
4.52576e-05 3.67024e-06 -6.43017e-06
5.98298e-07 -6.43017e-06 -2.78263e-05
0.00255275 0.000109108 3.03332e-05
0.000109108 0.00120807 -3.45006e-06
3.03332e-05 -3.45006e-06 0.00121073
0.000910451 0.000138679 1.90637e-06
0.000138679 0.000221098 2.73982e-06
1.90637e-06 2.73982e-06 7.42675e-05
0.000766571 8.30941e-05 2.42701e-07
8.30941e-05 0.000149344 3.08127e-07
2.42701e-07 3.08127e-07 1.4279e-05
0.000841423 7.58861e-05 8.24911e-07
7.58861e-05 0.000213213 -2.85456e-06
8.24911e-07 -2.85456e-06 6.67473e-05
0.000653448 1.20345e-05 -5.39383e-07
1.20345e-05 5.99205e-05 -4.07131e-06
-5.39383e-07 -4.07131e-06 -2.50421e-05
0.000709317 5.19215e-05 2.54777e-07
5.19215e-05 0.000118819 2.83185e-07
2.54777e-07 2.83185e-07 -7.76234e-06
0.00053497 7.09277e-05 5.18135e-07
7.09277e-05 9.90553e-06 1.39242e-06
5.18135e-07 1.39242e-06 -0.000122746
0.000540867 -1.53134e-05 -1.77746e-06
-1.53134e-05 -2.54516e-05 -6.41202e-06
-1.77746e-06 -6.41202e-06 -5.4091e-05
0.000616757 1.82195e-05 -2.50997e-08
1.82195e-05 3.52952e-05 -1.03781e-07
-2.50997e-08 -1.03781e-07 -4.31896e-05
0.000672479 6.63808e-05 -2.67909e-07
6.63808e-05 8.91084e-05 1.34236e-06
-2.67909e-07 1.34236e-06 -2.32463e-05
0.00262407 -8.34136e-05 -3.68613e-05
-8.34136e-05 0.00123492 -4.21815e-06
-3.68613e-05 -4.21815e-06 0.00124314
0.000505876 -1.9489e-05 5.35878e-07
-1.9489e-05 -5.01896e-05 -1.11342e-07
5.35878e-07 -1.11342e-07 -7.4338e-05
0.00060165 2.77642e-05 2.91178e-08
2.77642e-05 2.43085e-05 2.82288e-06
2.91178e-08 2.82288e-06 -4.7434e-05
0.00245694 -6.74881e-05 -5.07267e-06
-6.74881e-05 0.00112833 3.25319e-07
-5.07267e-06 3.25319e-07 0.00113971
0.000514372 -2.05943e-05 -1.08721e-06
-2.05943e-05 -4.92161e-05 4.95442e-06
-1.08721e-06 4.95442e-06 -6.89477e-05
0.00230775 -5.0775e-05 2.08788e-05
-5.0775e-05 0.00103424 4.49052e-06
2.08788e-05 4.49052e-06 0.00104863
-0.00682747 0.000402787 -2.00961e-05
0.000402787 0.0017453 5.24929e-05
-2.00961e-05 5.24929e-05 -0.00170108
0.00501758 6.49577e-05 -6.54646e-06
6.49577e-05 0.00238989 1.18282e-06
-6.54646e-06 1.18282e-06 0.00115204
-6.13856e-05 -6.88961e-05 -8.51772e-06
-6.88961e-05 -0.000107989 -5.88348e-06
-8.51772e-06 -5.88348e-06 -6.43207e-05
0.000297675 7.19027e-05 -1.55134e-06
7.19027e-05 -0.000149878 1.61525e-06
-1.55134e-06 1.61525e-06 -0.000271561
0.00264205 0.00038711 1.39356e-06
0.00038711 0.001259 4.67669e-06
1.39356e-06 4.67669e-06 0.00105029
0.00068974 8.00225e-05 -3.75035e-06
8.00225e-05 8.75942e-05 -1.65983e-07
-3.75035e-06 -1.65983e-07 -5.61442e-05
0.00102099 5.02184e-05 -1.7029e-06
5.02184e-05 0.000271698 -3.16299e-06
-1.7029e-06 -3.16299e-06 0.00015006
0.00137378 0.000145409 2.59444e-06
0.000145409 0.000473193 -1.74204e-07
2.59444e-06 -1.74204e-07 0.0003457
0.000249623 5.47517e-05 -3.63286e-06
5.47517e-05 -0.000167189 2.53955e-06
-3.63286e-06 2.53955e-06 -0.000287362
0.000495425 7.28524e-05 -1.17105e-06
7.28524e-05 3.3599e-05 1.57194e-06
-1.17105e-06 1.57194e-06 -0.000129744
0.000648929 9.41225e-05 -2.23464e-06
9.41225e-05 6.55627e-05 -2.66438e-06
-2.23464e-06 -2.66438e-06 -9.93446e-05
0.0010211 0.000180605 3.29961e-06
0.000180605 0.0003301 -5.43707e-06
3.29961e-06 -5.43707e-06 0.00011697
0.000648047 0.000273236 2.26003e-06
0.000273236 4.66024e-06 -1.53477e-06
2.26003e-06 -1.53477e-06 -0.000112513
0.00104535 8.70353e-05 -3.53374e-06
8.70353e-05 0.000350755 6.38471e-07
-3.53374e-06 6.38471e-07 0.000197713
0.00104219 0.000152717 1.00041e-06
0.000152717 0.000409124 3.17624e-06
1.00041e-06 3.17624e-06 0.000241328
-0.00440415 -0.00112913 -0.000551078
-0.00112913 -0.000581574 -5.31553e-05
-0.000551078 -5.31553e-05 -0.00229074
-0.00337219 -0.000825467 0.000223847
-0.000825467 0.0021405 0.000108868
0.000223847 0.000108868 -0.000842572
0.00448646 0.000476695 -0.000200323
0.000476695 0.00219505 -7.92514e-05
-0.000200323 -7.92514e-05 -0.00160731
-0.00670778 -0.00340299 0.000801301
-0.00340299 -0.00227966 0.000632163
0.000801301 0.000632163 -0.0016123
0.015717 -0.00186785 -3.90837e-05
-0.00186785 0.00485799 0.000176779
-3.90837e-05 0.000176779 0.00424504
-0.00170542 0.00119419 -5.15235e-06
0.00119419 0.000626354 -9.7528e-05
-5.15235e-06 -9.7528e-05 -0.00384294
0.00203392 1.69205e-05 -0.000145236
1.69205e-05 0.0011145 1.80468e-05
-0.000145236 1.80468e-05 0.000165444
0.00196898 0.000471006 1.00549e-05
0.000471006 0.000810182 2.83803e-05
1.00549e-05 2.83803e-05 0.000582134
0.0112942 -0.00210328 -0.000234626
-0.00210328 0.00515953 5.38272e-05
-0.000234626 5.38272e-05 0.00454735
-0.000356079 0.00137962 -2.5466e-05
0.00137962 0.000592266 -3.65841e-05
-2.5466e-05 -3.65841e-05 -0.00306524
0.00208154 0.000984979 -2.581e-05
0.000984979 0.000417944 -6.0307e-05
-2.581e-05 -6.0307e-05 0.000558603
0.00416112 0.00203144 -0.000215044
0.00203144 -0.000120722 -0.000124145
-0.000215044 -0.000124145 -0.00259828
0.00233506 0.000717537 1.88116e-05
0.000717537 0.000678689 -1.85431e-05
1.88116e-05 -1.85431e-05 0.000420519
0.000840527 0.000334504 -4.78561e-06
0.000334504 0.000193402 4.60967e-07
-4.78561e-06 4.60967e-07 4.44432e-05
0.00104804 0.000107768 -7.71113e-06
0.000107768 0.000412838 2.59476e-06
-7.71113e-06 2.59476e-06 0.000279068
-0.0012427 0.000213689 -4.26996e-05
0.000213689 -0.000460526 -5.12685e-05
-4.26996e-05 -5.12685e-05 -0.00114542
0.00233803 0.000545946 -2.62534e-05
0.000545946 0.00118882 -1.68637e-05
-2.62534e-05 -1.68637e-05 0.000907298
0.00138168 0.000733893 1.42645e-05
0.000733893 0.000231456 -4.51661e-06
1.42645e-05 -4.51661e-06 -0.000177485
0.00266172 0.00109931 0.000110354
0.00109931 0.000214582 3.27829e-05
0.000110354 3.27829e-05 4.17297e-05
-0.00508517 -0.000133017 -0.000321723
-0.000133017 -0.00417152 9.55938e-06
-0.000321723 9.55938e-06 -0.00290233
-0.00424451 0.000241236 0.000166366
0.000241236 0.00325694 3.53545e-06
0.000166366 3.53545e-06 -0.000181122
0.0024479 -6.47793e-05 -8.10843e-05
-6.47793e-05 0.00161862 3.06379e-05
-8.10843e-05 3.06379e-05 0.000274622
0.00185452 -0.000369523 -5.30935e-05
-0.000369523 0.000673151 -4.06842e-05
-5.30935e-05 -4.06842e-05 0.000548793
0.00108324 -0.0010918 -4.82631e-06
-0.0010918 -0.000181889 1.70673e-05
-4.82631e-06 1.70673e-05 -0.000436495
0.00129267 0.000186644 -1.67281e-05
0.000186644 0.00401936 2.89177e-05
-1.67281e-05 2.89177e-05 0.00234965
0.00292449 -0.00127117 0.000219763
-0.00127117 -0.000131788 -0.000140139
0.000219763 -0.000140139 -0.00266376
0.0120842 0.00154991 0.000222644
0.00154991 0.00552934 -1.83438e-05
0.000222644 -1.83438e-05 0.00433337
0.00279564 -0.000970281 -2.56963e-05
-0.000970281 0.000760201 7.5398e-06
-2.56963e-05 7.5398e-06 0.000515665
-2.76e-05 0.000671769 0.000114464
0.000671769 -0.000345351 -2.83665e-05
0.000114464 -2.83665e-05 -0.00109619
0.00565269 -0.000674481 -7.4561e-05
-0.000674481 -0.000613177 6.73765e-05
-7.4561e-05 6.73765e-05 -0.00281727
0.00546205 -0.00159856 -3.56347e-05
-0.00159856 0.000909207 1.94485e-05
-3.56347e-05 1.94485e-05 0.000482594
0.00188441 -0.000697857 5.66679e-05
-0.000697857 0.00022293 -1.34755e-05
5.66679e-05 -1.34755e-05 -2.88026e-05
0.0112009 -0.000506908 -1.99372e-06
-0.000506908 0.00262497 -2.23667e-05
-1.99372e-06 -2.23667e-05 0.00102449
0.00333234 -0.000862729 8.60722e-05
-0.000862729 -0.00104916 -5.29995e-05
8.60722e-05 -5.29995e-05 -0.000720964
-0.000903079 -0.000306869 -2.31175e-05
-0.000306869 -0.00105096 1.57771e-05
-2.31175e-05 1.57771e-05 -0.0010097
0.000361187 -0.000375847 -1.45436e-05
-0.000375847 -0.000542438 -3.43917e-07
-1.45436e-05 -3.43917e-07 -0.000602105
0.00383825 -0.000658366 3.6691e-05
-0.000658366 0.00106911 -1.82822e-05
3.6691e-05 -1.82822e-05 0.000989515
0.000213951 -0.000392544 -1.53301e-05
-0.000392544 -0.000458075 -7.67619e-06
-1.53301e-05 -7.67619e-06 -0.000736855
0.00175372 -0.000584323 2.80606e-07
-0.000584323 0.000133185 -1.1375e-06
2.80606e-07 -1.1375e-06 -0.000100114
0.00231672 -0.000542805 -2.36789e-08
-0.000542805 0.00022467 -1.88694e-06
-2.36789e-08 -1.88694e-06 7.63355e-05
0.00168049 -0.000547884 -3.33746e-06
-0.000547884 0.000221443 5.36696e-06
-3.33746e-06 5.36696e-06 -0.000113552
0.0018424 -0.000501056 -1.82427e-06
-0.000501056 0.000111467 9.8696e-07
-1.82427e-06 9.8696e-07 -0.000108098
0.00186619 -0.000386574 1.01049e-06
-0.000386574 4.13609e-05 -8.96834e-07
1.01049e-06 -8.96834e-07 -8.74286e-05
0.00125015 -0.000425377 3.16858e-06
-0.000425377 -5.33197e-05 4.90845e-06
3.16858e-06 4.90845e-06 -0.000316153
0.0017509 -0.000375912 -3.60939e-07
-0.000375912 9.32026e-05 1.1435e-06
-3.60939e-07 1.1435e-06 -7.84495e-05
0.00178229 -0.000320761 -3.24513e-06
-0.000320761 6.01306e-05 -8.59562e-07
-3.24513e-06 -8.59562e-07 -5.86138e-05
0.00201986 -0.00030748 -3.35286e-06
-0.00030748 0.000266908 -3.32884e-07
-3.35286e-06 -3.32884e-07 0.000145664
0.00174617 -0.000310036 -2.54074e-06
-0.000310036 9.50274e-05 3.2364e-06
-2.54074e-06 3.2364e-06 -4.94681e-05
0.00178892 -0.000327065 -1.87706e-06
-0.000327065 0.000158942 -5.41842e-06
-1.87706e-06 -5.41842e-06 -5.83638e-06
0.00170878 -0.000384104 -4.5222e-06
-0.000384104 0.000178835 -2.06539e-06
-4.5222e-06 -2.06539e-06 -4.50379e-05
0.0017026 -0.000392852 1.27702e-06
-0.000392852 0.000139816 5.00809e-07
1.27702e-06 5.00809e-07 -8.18074e-05
0.00163811 -0.000371252 4.53017e-06
-0.000371252 9.57185e-05 6.19922e-06
4.53017e-06 6.19922e-06 -0.000108858
0.00156488 -0.000371742 -6.62894e-06
-0.000371742 0.000257225 8.24612e-07
-6.62894e-06 8.24612e-07 9.28807e-06
0.00147041 -0.000414708 -6.56726e-07
-0.000414708 0.000127293 2.96437e-07
-6.56726e-07 2.96437e-07 -0.000137
0.00183448 -0.000484305 2.9903e-06
-0.000484305 0.000317561 4.26076e-07
2.9903e-06 4.26076e-07 3.88178e-05
0.00118728 -0.000262665 -5.51334e-06
-0.000262665 0.000178023 2.7862e-06
-5.51334e-06 2.7862e-06 -3.44225e-05
0.00132302 -0.000332077 5.39089e-07
-0.000332077 0.000196829 3.90647e-07
5.39089e-07 3.90647e-07 -4.80907e-05
0.0013613 -0.000394844 1.92658e-06
-0.000394844 0.000176954 -1.42784e-06
1.92658e-06 -1.42784e-06 -9.44265e-05
0.000812808 -0.000172132 -5.93223e-06
-0.000172132 0.00010917 4.98755e-06
-5.93223e-06 4.98755e-06 -6.64368e-05
0.00110315 -0.000246346 9.75915e-07
-0.000246346 0.000204936 1.0785e-07
9.75915e-07 1.0785e-07 -5.61484e-06
0.00114237 -0.000285055 9.09856e-07
-0.000285055 0.000161414 -1.28989e-06
9.09856e-07 -1.28989e-06 -6.90062e-05
0.000279801 -3.40059e-05 -7.87946e-06
-3.40059e-05 -0.000172477 1.21416e-05
-7.87946e-06 1.21416e-05 -0.00023273
0.000737205 -0.000121799 7.45765e-07
-0.000121799 0.000118325 7.28709e-07
7.45765e-07 7.28709e-07 -5.0325e-05
0.00130947 -0.000238178 3.73226e-07
-0.000238178 0.000422974 -1.3941e-06
3.73226e-07 -1.3941e-06 0.000207942
0.00316451 0.000159959 -5.46933e-05
0.000159959 0.00159842 2.5554e-06
-5.46933e-05 2.5554e-06 0.00158755
0.000509228 1.17812e-05 -1.2689e-07
1.17812e-05 -2.25722e-05 -7.76519e-07
-1.2689e-07 -7.76519e-07 -7.05354e-05
0.00122428 -0.000111257 1.76674e-06
-0.000111257 0.000416776 -5.85287e-06
1.76674e-06 -5.85287e-06 0.000275181
0.00186663 0.000106533 2.70828e-05
0.000106533 0.00080666 6.24145e-07
2.70828e-05 6.24145e-07 0.00079805
0.000611425 3.40407e-05 2.87353e-06
3.40407e-05 3.63308e-05 -7.68466e-06
2.87353e-06 -7.68466e-06 -1.22268e-06
0.00271459 0.000122095 4.28298e-05
0.000122095 0.0013122 -2.91539e-06
4.28298e-05 -2.91539e-06 0.00131185
0.000907176 0.000152793 4.76729e-06
0.000152793 0.000186047 4.38512e-07
4.76729e-06 4.38512e-07 4.07048e-05
0.000525843 8.21472e-05 -9.6362e-08
8.21472e-05 -1.36497e-05 -2.41915e-07
-9.6362e-08 -2.41915e-07 -0.000144853
0.000617208 6.96637e-05 -3.54463e-08
6.96637e-05 5.37811e-05 -1.23424e-06
-3.54463e-08 -1.23424e-06 -8.36082e-05
0.000874118 0.000101587 5.11033e-08
0.000101587 0.000216196 2.15105e-07
5.11033e-08 2.15105e-07 7.54948e-05
0.000711414 4.91718e-05 2.08913e-07
4.91718e-05 0.000113904 -2.23403e-09
2.08913e-07 -2.23403e-09 -1.5451e-05
0.000680115 1.90117e-05 -1.02354e-06
1.90117e-05 7.74361e-05 -4.96284e-06
-1.02354e-06 -4.96284e-06 -1.61687e-05
0.000558955 -1.58916e-05 -2.59712e-06
-1.58916e-05 -8.10118e-06 -7.41514e-06
-2.59712e-06 -7.41514e-06 -4.1838e-05
0.000604972 1.11968e-05 2.75722e-07
1.11968e-05 3.25266e-05 -8.21082e-08
2.75722e-07 -8.21082e-08 -5.31849e-05
0.00062639 2.64953e-05 -8.401e-07
2.64953e-05 4.65463e-05 2.02863e-06
-8.401e-07 2.02863e-06 -6.32786e-05
0.00273115 -9.70128e-05 -4.66494e-05
-9.70128e-05 0.00130598 -3.93711e-06
-4.66494e-05 -3.93711e-06 0.00131143
0.000507725 -1.50176e-05 8.61071e-08
-1.50176e-05 -4.3901e-05 -1.11256e-07
8.61071e-08 -1.11256e-07 -7.2562e-05
0.000577843 2.09515e-05 2.82711e-07
2.09515e-05 1.63131e-05 3.21951e-06
2.82711e-07 3.21951e-06 -6.3795e-05
0.00259586 -8.31874e-05 -5.4316e-06
-8.31874e-05 0.00121748 3.78444e-07
-5.4316e-06 3.78444e-07 0.00122575
0.000496105 -2.4088e-05 -4.23642e-08
-2.4088e-05 -5.5546e-05 5.61154e-06
-4.23642e-08 5.61154e-06 -7.98252e-05
0.00246111 -6.68851e-05 2.61475e-05
-6.68851e-05 0.00113043 4.44586e-06
2.61475e-05 4.44586e-06 0.00114191
-3.79427e-07 0.000309336 -0.000308006
0.000309336 0.00208022 1.3771e-05
-0.000308006 1.3771e-05 0.000752392
-0.00348763 4.98038e-05 2.44828e-05
4.98038e-05 0.00237397 1.33057e-05
2.44828e-05 1.33057e-05 -0.00111426
0.00475653 -1.55271e-05 -9.15652e-05
-1.55271e-05 0.00246081 -1.52608e-05
-9.15652e-05 -1.52608e-05 0.00127123
0.000409448 4.71435e-05 2.23768e-06
4.71435e-05 -8.58167e-05 -2.66894e-06
2.23768e-06 -2.66894e-06 -0.00020262
0.000686593 6.0884e-05 3.09201e-06
6.0884e-05 8.22293e-05 1.27735e-06
3.09201e-06 1.27735e-06 -6.98577e-05
0.00189161 0.000307367 -1.74796e-06
0.000307367 0.000819608 1.44668e-06
-1.74796e-06 1.44668e-06 0.000631094
0.00139459 0.000319327 4.0365e-06
0.000319327 0.000416267 -2.52963e-06
4.0365e-06 -2.52963e-06 0.00017552
0.00103278 0.000225494 -5.17026e-06
0.000225494 0.000350067 3.1899e-07
-5.17026e-06 3.1899e-07 0.000150803
0.000860916 0.000122034 -2.98086e-07
0.000122034 0.000253182 2.56309e-06
-2.98086e-07 2.56309e-06 8.17446e-05
0.000852192 0.000119251 5.43714e-06
0.000119251 0.000199116 3.67707e-06
5.43714e-06 3.67707e-06 3.54182e-05
0.000626408 0.000183744 -5.07207e-06
0.000183744 0.000114273 -3.38516e-06
-5.07207e-06 -3.38516e-06 -9.49244e-05
-0.000345927 0.0001781 2.02164e-06
0.0001781 -0.000549242 -6.66307e-07
2.02164e-06 -6.66307e-07 -0.000745702
0.00180923 0.000400812 4.75271e-06
0.000400812 0.000583386 -2.40104e-06
4.75271e-06 -2.40104e-06 0.000443323
0.00196454 0.000599052 9.47342e-06
0.000599052 0.000385424 -5.28492e-06
9.47342e-06 -5.28492e-06 0.000170418
0.000869881 0.000302005 -5.82051e-06
0.000302005 0.000145187 -8.53663e-07
-5.82051e-06 -8.53663e-07 1.18376e-05
0.000786505 0.000114206 -3.49567e-06
0.000114206 0.000202738 -1.7477e-06
-3.49567e-06 -1.7477e-06 5.03655e-05
0.0121302 0.00111498 -9.89165e-05
0.00111498 0.00272844 4.40269e-05
-9.89165e-05 4.40269e-05 0.0012396
-0.000117902 -0.000897926 -0.000253529
-0.000897926 0.00243035 -8.85089e-05
-0.000253529 -8.85089e-05 0.000651858
-0.00131717 -0.00134127 0.000174611
-0.00134127 0.00226681 2.11502e-05
0.000174611 2.11502e-05 -0.000759781
-0.000146445 -0.00119126 6.44538e-05
-0.00119126 0.000298844 0.000201586
6.44538e-05 0.000201586 -0.000356813
0.0114465 0.00167504 -1.11788e-05
0.00167504 0.00487792 1.46316e-06
-1.11788e-05 1.46316e-06 0.00145249
-0.000753464 0.000270316 -1.64946e-05
0.000270316 -0.000436737 -2.85893e-05
-1.64946e-05 -2.85893e-05 -0.000634313
0.00167053 0.000883637 -2.58004e-05
0.000883637 0.000354303 -1.19532e-05
-2.58004e-05 -1.19532e-05 0.000453978
0.0118673 0.00148544 2.37696e-05
0.00148544 0.00362663 2.49411e-05
2.37696e-05 2.49411e-05 0.00155905
0.00611636 0.00182891 -4.25088e-05
0.00182891 0.00091411 -6.26314e-05
-4.25088e-05 -6.26314e-05 0.000548845
0.00154303 0.000714912 6.94744e-06
0.000714912 0.000115454 -5.83865e-06
6.94744e-06 -5.83865e-06 -6.41969e-05
0.00116447 0.000554446 5.7273e-06
0.000554446 0.000183459 -3.33505e-07
5.7273e-06 -3.33505e-07 -5.5616e-05
0.000971285 0.00031202 -1.86895e-05
0.00031202 0.000288712 1.48879e-05
-1.86895e-05 1.48879e-05 0.000150334
0.00264333 0.000896542 -5.08571e-05
0.000896542 0.000770367 -1.86956e-05
-5.08571e-05 -1.86956e-05 0.000374433
0.00185656 0.00102021 4.98354e-06
0.00102021 -0.000324706 1.90606e-05
4.98354e-06 1.90606e-05 -0.00049344
0.00119181 -0.00038607 -4.951e-05
-0.00038607 -0.00340733 2.88751e-05
-4.951e-05 2.88751e-05 -0.00364931
0.00186982 -0.00065703 3.23932e-07
-0.00065703 0.00129075 -2.43014e-05
3.23932e-07 -2.43014e-05 0.00132631
-0.00658875 2.94569e-06 0.000187932
2.94569e-06 0.00284438 -6.9524e-06
0.000187932 -6.9524e-06 -0.000722821
0.00150698 -0.000968551 -2.47549e-05
-0.000968551 5.04256e-07 5.68791e-06
-2.47549e-05 5.68791e-06 -0.000359966
0.00321047 -0.00144225 4.17598e-05
-0.00144225 0.000369401 -2.14964e-08
4.17598e-05 -2.14964e-08 -0.000359931
0.00129109 -0.000303598 0.000352802
-0.000303598 0.00238598 -4.29714e-05
0.000352802 -4.29714e-05 0.0012634
0.0128655 -0.000831433 -0.000163454
-0.000831433 0.0031199 7.39929e-05
-0.000163454 7.39929e-05 0.00154366
0.00120288 -0.000671824 -3.28229e-05
-0.000671824 -0.000170598 -1.9039e-06
-3.28229e-05 -1.9039e-06 -0.000362649
0.00903005 4.7609e-05 -8.80833e-05
4.7609e-05 0.000696543 3.42809e-05
-8.80833e-05 3.42809e-05 -0.000396315
0.00507374 -0.000954139 8.51064e-05
-0.000954139 -0.000124141 7.37711e-06
8.51064e-05 7.37711e-06 -0.000214657
0.00378927 -0.000668211 6.11725e-05
-0.000668211 0.00104807 -1.72985e-05
6.11725e-05 -1.72985e-05 0.000701944
0.00302396 -0.000351035 -7.99673e-05
-0.000351035 -0.000428486 6.9205e-06
-7.99673e-05 6.9205e-06 -0.000264707
-0.0026833 -0.000161982 -1.47367e-05
-0.000161982 -0.00223226 5.32708e-06
-1.47367e-05 5.32708e-06 -0.00220163
0.00153166 -0.000510382 -1.70832e-06
-0.000510382 -0.000174589 -2.76245e-07
-1.70832e-06 -2.76245e-07 -0.000209567
0.00258287 -0.000460774 2.03497e-05
-0.000460774 0.000243522 -9.54306e-06
2.03497e-05 -9.54306e-06 0.000275783
0.00106171 -0.000518963 -3.34095e-06
-0.000518963 -0.000214318 4.54525e-06
-3.34095e-06 4.54525e-06 -0.000434672
0.00182642 -0.000496537 -2.15281e-06
-0.000496537 -1.43689e-05 6.44853e-07
-2.15281e-06 6.44853e-07 -0.000158497
0.00208472 -0.000397703 2.71892e-06
-0.000397703 1.77844e-05 4.73473e-07
2.71892e-06 4.73473e-07 -3.41062e-05
0.00199781 -0.000509435 -5.6543e-06
-0.000509435 0.000199858 7.29251e-06
-5.6543e-06 7.29251e-06 -2.30605e-05
0.00190977 -0.000387907 3.1324e-07
-0.000387907 6.65604e-05 1.72855e-06
3.1324e-07 1.72855e-06 -5.99048e-05
0.00191531 -0.000352393 -2.391e-07
-0.000352393 7.85472e-05 1.94307e-06
-2.391e-07 1.94307e-06 -1.02855e-05
0.00171307 -0.000367339 3.54816e-06
-0.000367339 7.7392e-05 5.83562e-06
3.54816e-06 5.83562e-06 -9.24346e-05
0.00178611 -0.000324131 -3.18615e-07
-0.000324131 6.05654e-05 1.5127e-06
-3.18615e-07 1.5127e-06 -5.93944e-05
0.00197009 -0.000331931 -1.3865e-06
-0.000331931 0.000176154 6.70827e-07
-1.3865e-06 6.70827e-07 6.66913e-05
0.00187701 -0.00030225 -4.08537e-06
-0.00030225 0.000174748 3.47863e-06
-4.08537e-06 3.47863e-06 5.68324e-05
0.00191598 -0.000311207 8.31204e-07
-0.000311207 0.000227729 -2.99161e-06
8.31204e-07 -2.99161e-06 9.42463e-05
0.00182948 -0.000313742 3.42862e-06
-0.000313742 0.000137964 7.97411e-06
3.42862e-06 7.97411e-06 -2.23309e-06
0.00179284 -0.000327747 3.47348e-07
-0.000327747 0.000159721 -8.574e-07
3.47348e-07 -8.574e-07 -5.45974e-06
0.00171236 -0.000330023 -1.82325e-06
-0.000330023 0.000139937 -3.46708e-06
-1.82325e-06 -3.46708e-06 -4.32672e-05
0.00165361 -0.000351011 -5.0629e-06
-0.000351011 0.000218583 -1.4571e-06
-5.0629e-06 -1.4571e-06 -4.38931e-06
0.00175564 -0.000388799 1.98354e-07
-0.000388799 0.000207759 -2.25122e-07
1.98354e-07 -2.25122e-07 -1.76704e-05
0.00186242 -0.000404619 5.30625e-06
-0.000404619 0.000235502 2.9805e-06
5.30625e-06 2.9805e-06 1.2886e-05
0.00119453 -0.000264439 -7.42648e-06
-0.000264439 0.000116556 3.04432e-06
-7.42648e-06 3.04432e-06 -9.28512e-05
0.00143557 -0.00035756 -1.12766e-06
-0.00035756 0.000185955 2.36698e-07
-1.12766e-06 2.36698e-07 -6.01806e-05
0.00149737 -0.000418189 2.88231e-06
-0.000418189 0.000137464 1.05405e-06
2.88231e-06 1.05405e-06 -0.000127772
0.000798811 -0.000177245 -8.28646e-06
-0.000177245 2.62612e-05 6.28915e-06
-8.28646e-06 6.28915e-06 -0.00014643
0.00112598 -0.00025873 5.22962e-07
-0.00025873 0.000139693 8.8857e-08
5.22962e-07 8.8857e-08 -7.29653e-05
0.00113539 -0.000314858 3.66996e-06
-0.000314858 8.46775e-05 -9.74237e-07
3.66996e-06 -9.74237e-07 -0.00015757
0.000394233 -0.000108365 -1.82524e-05
-0.000108365 -0.000134779 1.38511e-05
-1.82524e-05 1.38511e-05 -0.000208315
0.000794503 -0.000181752 -3.53801e-07
-0.000181752 9.83618e-05 4.317e-07
-3.53801e-07 4.317e-07 -7.80827e-05
0.00103559 -0.000234975 3.18403e-06
-0.000234975 0.000165514 -1.47457e-06
3.18403e-06 -1.47457e-06 -4.25233e-05
0.00396013 0.000181563 -8.65027e-05
0.000181563 0.00208096 3.54385e-06
-8.65027e-05 3.54385e-06 0.00206473
0.000551291 -5.41496e-05 1.24244e-06
-5.41496e-05 -1.40347e-05 -3.83295e-07
1.24244e-06 -3.83295e-07 -7.67814e-05
0.000940097 -0.000172094 4.83855e-06
-0.000172094 0.000240241 -4.66378e-06
4.83855e-06 -4.66378e-06 6.52132e-05
0.00341978 0.000149107 1.0462e-05
0.000149107 0.00174805 2.98807e-07
1.0462e-05 2.98807e-07 0.00174077
0.000736849 -6.60002e-06 8.12605e-06
-6.60002e-06 0.000108327 -9.97359e-06
8.12605e-06 -9.97359e-06 5.99184e-05
0.00302669 0.000127361 6.90203e-05
0.000127361 0.00150416 -2.28957e-06
6.90203e-05 -2.28957e-06 0.00150314
0.000722158 0.00022385 4.4744e-06
0.00022385 6.44292e-06 -4.34508e-06
4.4744e-06 -4.34508e-06 -0.000203365
0.000861949 0.000175227 1.43324e-06
0.000175227 0.000168117 -3.46058e-07
1.43324e-06 -3.46058e-07 1.41508e-05
0.000271712 6.91002e-05 1.52812e-06
6.91002e-05 -0.000164664 -5.88497e-07
1.52812e-06 -5.88497e-07 -0.000306639
9.97315e-05 3.62287e-05 -1.1069e-06
3.62287e-05 -0.00026503 -1.85731e-06
-1.1069e-06 -1.85731e-06 -0.000386754
0.00048715 3.59286e-05 -3.14805e-07
3.59286e-05 -2.81147e-05 9.02168e-07
-3.14805e-07 9.02168e-07 -0.000160659
0.000694411 3.21483e-05 -1.48463e-06
3.21483e-05 8.31025e-05 -4.9575e-06
-1.48463e-06 -4.9575e-06 -2.10428e-05
0.000585446 2.43666e-05 -3.82245e-07
2.43666e-05 2.79346e-05 2.47671e-06
-3.82245e-07 2.47671e-06 -9.17007e-05
0.000600715 1.11272e-05 3.22494e-07
1.11272e-05 3.25221e-05 -2.57236e-07
3.22494e-07 -2.57236e-07 -6.11474e-05
0.000575578 -1.77392e-05 -3.31849e-06
-1.77392e-05 7.33908e-06 -8.45017e-06
-3.31849e-06 -8.45017e-06 -3.16668e-05
0.00290566 -0.000112127 -5.75273e-05
-0.000112127 0.00141978 -3.54327e-06
-5.75273e-05 -3.54327e-06 0.00142177
0.000499281 -1.74444e-05 3.60066e-07
-1.74444e-05 -4.31569e-05 -7.60313e-08
3.60066e-07 -7.60313e-08 -7.6715e-05
0.000562512 1.26502e-05 7.48052e-07
1.26502e-05 8.32214e-06 4.13349e-06
7.48052e-07 4.13349e-06 -7.77696e-05
0.00274997 -9.89439e-05 -5.96043e-06
-9.89439e-05 0.00131721 4.65477e-07
-5.96043e-06 4.65477e-07 0.00132208
0.000459427 -2.69889e-05 -6.23468e-08
-2.69889e-05 -7.07939e-05 6.32698e-06
-6.23468e-08 6.32698e-06 -0.000100009
0.00257499 -8.2617e-05 3.23461e-05
-8.2617e-05 0.00120417 4.29582e-06
3.23461e-05 4.29582e-06 0.0012126
0.0121785 0.000550512 0.000249258
0.000550512 0.00260178 7.12623e-05
0.000249258 7.12623e-05 0.00173164
-0.00320905 -0.00121132 -0.000184078
-0.00121132 -0.00268003 -2.90199e-05
-0.000184078 -2.90199e-05 -0.00317712
-0.00636303 0.000589165 -8.56724e-05
0.000589165 0.00135865 -5.34077e-05
-8.56724e-05 -5.34077e-05 -0.00270999
0.000473082 2.94654e-05 1.16281e-05
2.94654e-05 -5.12896e-05 1.59556e-06
1.16281e-05 1.59556e-06 -0.00021087
0.00104468 0.000221379 -6.13497e-06
0.000221379 0.000314379 1.43528e-06
-6.13497e-06 1.43528e-06 0.000149005
0.0013478 0.000250937 -1.53922e-06
0.000250937 0.000514027 -1.54143e-06
-1.53922e-06 -1.54143e-06 0.000311352
0.00150702 0.000326607 -4.00129e-06
0.000326607 0.000495407 1.12853e-06
-4.00129e-06 1.12853e-06 0.000255838
0.00072433 0.000295379 1.30078e-05
0.000295379 -0.000120977 3.34264e-06
1.30078e-05 3.34264e-06 -0.000377928
2.72185e-05 0.000198442 3.74115e-06
0.000198442 -0.000339409 -1.73779e-06
3.74115e-06 -1.73779e-06 -0.000544394
0.000220217 0.00016118 -4.76559e-06
0.00016118 -0.000105941 -2.70071e-06
-4.76559e-06 -2.70071e-06 -0.000311726
0.000318173 0.000252939 1.82123e-06
0.000252939 -0.000193964 1.72145e-06
1.82123e-06 1.72145e-06 -0.00041373
0.0013383 0.000373854 -8.22597e-07
0.000373854 0.000328399 1.23455e-06
-8.22597e-07 1.23455e-06 0.000178523
0.000573617 0.00035948 6.35695e-06
0.00035948 -0.000209519 2.43634e-06
6.35695e-06 2.43634e-06 -0.000413946
0.00277187 0.000633584 -6.51192e-08
0.000633584 0.000796766 -1.6807e-06
-6.51192e-08 -1.6807e-06 0.0006055
0.00203295 0.000632286 8.06045e-07
0.000632286 0.00034989 6.49253e-06
8.06045e-07 6.49253e-06 0.000146291
0.0013301 0.00053977 4.07997e-06
0.00053977 5.36104e-05 -4.15238e-06
4.07997e-06 -4.15238e-06 -0.000137755
0.000389859 0.000277256 -3.79914e-06
0.000277256 -0.000110605 -8.58425e-08
-3.79914e-06 -8.58425e-08 -0.000251466
0.00590047 0.000834614 -7.24075e-06
0.000834614 0.000193338 1.109e-05
-7.24075e-06 1.109e-05 0.000617725
0.0103947 0.00103015 0.000130768
0.00103015 0.00177788 6.35881e-05
0.000130768 6.35881e-05 8.29751e-05
0.00668401 -0.00185896 0.000148786
-0.00185896 0.00357546 -5.23493e-05
0.000148786 -5.23493e-05 0.00246664
0.00365308 0.00190314 0.000372812
0.00190314 -0.00027241 0.000196255
0.000372812 0.000196255 -0.00399461
0.000621039 0.000654668 -5.96401e-05
0.000654668 3.11283e-05 -7.37457e-06
-5.96401e-05 -7.37457e-06 0.000262422
0.00341532 0.00137455 -9.46807e-05
0.00137455 -0.000141638 -2.89855e-05
-9.46807e-05 -2.89855e-05 -0.000225224
0.00445815 0.00115363 4.8762e-05
0.00115363 0.000855517 1.85681e-05
4.8762e-05 1.85681e-05 0.00076393
0.00328572 0.000891749 1.1481e-05
0.000891749 0.000897621 4.29247e-06
1.1481e-05 4.29247e-06 0.000704114
0.000688674 0.000479653 -1.3399e-05
0.000479653 -1.55265e-05 1.64776e-05
-1.3399e-05 1.64776e-05 -0.000236478
0.00478253 0.00128428 -0.00014102
0.00128428 0.00106033 -2.05814e-05
-0.00014102 -2.05814e-05 0.000829751
0.00303229 -0.000257755 -4.58571e-05
-0.000257755 0.000375811 6.45042e-06
-4.58571e-05 6.45042e-06 0.000300108
0.0102324 -0.000330775 -1.49868e-05
-0.000330775 0.00234216 5.49634e-06
-1.49868e-05 5.49634e-06 0.00180333
-0.0102011 -0.000954218 0.000373701
-0.000954218 -0.00557788 -6.10117e-06
0.000373701 -6.10117e-06 -0.00526466
0.000144852 -0.000606565 -4.87382e-05
-0.000606565 -0.000794722 1.36083e-05
-4.87382e-05 1.36083e-05 -0.000925514
0.00745182 -0.00126047 9.51613e-05
-0.00126047 0.000889353 4.45889e-05
9.51613e-05 4.45889e-05 0.000940435
0.0016801 -0.000335866 -5.01985e-05
-0.000335866 -0.00230596 6.0006e-05
-5.01985e-05 6.0006e-05 -0.00401634
0.00165161 -0.000485447 1.49548e-05
-0.000485447 -0.000164133 1.85397e-06
1.49548e-05 1.85397e-06 -0.000303942
0.00331581 -0.000228725 -1.17504e-05
-0.000228725 -0.000302407 3.98319e-06
-1.17504e-05 3.98319e-06 -0.00022918
0.0044446 -0.00047927 2.84375e-05
-0.00047927 0.00100233 -1.35782e-05
2.84375e-05 -1.35782e-05 0.0011189
0.00377225 -0.000129066 7.24681e-05
-0.000129066 0.000862753 2.45314e-06
7.24681e-05 2.45314e-06 0.000815304
-0.00075085 -0.000370705 -7.5396e-06
-0.000370705 -0.00140698 6.75922e-06
-7.5396e-06 6.75922e-06 -0.00139148
0.00182511 -0.000420125 -6.20529e-07
-0.000420125 -0.000167901 4.40327e-07
-6.20529e-07 4.40327e-07 -0.000115748
0.00189465 -0.000300746 1.58087e-05
-0.000300746 -0.000214893 -3.55215e-06
1.58087e-05 -3.55215e-06 -7.64203e-05
0.00153249 -0.000467063 -9.13807e-07
-0.000467063 -0.000159121 3.4866e-06
-9.13807e-07 3.4866e-06 -0.000300437
0.00202649 -0.000396805 1.69355e-06
-0.000396805 -1.14749e-05 7.0335e-07
1.69355e-06 7.0335e-07 -6.4043e-05
0.00197024 -0.000331368 1.01872e-06
-0.000331368 3.09195e-05 8.09953e-07
1.01872e-06 8.09953e-07 8.52898e-06
0.00190352 -0.000386052 2.19578e-06
-0.000386052 6.24629e-05 3.89986e-06
2.19578e-06 3.89986e-06 -6.13472e-05
0.00190732 -0.000347216 6.43057e-07
-0.000347216 8.32024e-05 3.67373e-07
6.43057e-07 3.67373e-07 -4.33364e-06
0.0019642 -0.000314293 -2.8285e-06
-0.000314293 0.000119238 1.56184e-06
-2.8285e-06 1.56184e-06 3.82044e-05
0.0018013 -0.00032752 4.4704e-06
-0.00032752 6.77361e-05 3.35775e-06
4.4704e-06 3.35775e-06 -5.32653e-05
0.00185615 -0.000326282 1.68604e-07
-0.000326282 0.000119587 3.69213e-07
1.68604e-07 3.69213e-07 1.02028e-05
0.00173866 -0.000301044 2.26302e-06
-0.000301044 8.68494e-05 -1.25054e-06
2.26302e-06 -1.25054e-06 -2.88271e-05
0.00173604 -0.000297083 -1.35927e-06
-0.000297083 8.40103e-05 6.27691e-06
-1.35927e-06 6.27691e-06 -3.06193e-05
0.00191843 -0.00030762 -2.22627e-06
-0.00030762 0.000224966 2.6343e-07
-2.22627e-06 2.6343e-07 9.52482e-05
0.00186382 -0.000307346 4.13647e-07
-0.000307346 0.000215217 -2.03452e-06
4.13647e-07 -2.03452e-06 5.8693e-05
0.00179467 -0.000327642 3.16548e-06
-0.000327642 0.000159188 3.74806e-06
3.16548e-06 3.74806e-06 -6.18212e-06
0.00176248 -0.000334257 4.34862e-07
-0.000334257 0.000170973 -5.54752e-07
4.34862e-07 -5.54752e-07 -1.35641e-05
0.00175895 -0.000315014 -1.87077e-06
-0.000315014 0.000232863 -1.80117e-06
-1.87077e-06 -1.80117e-06 3.9069e-05
0.00126386 -0.000263166 -9.00697e-06
-0.000263166 9.52474e-05 2.14467e-06
-9.00697e-06 2.14467e-06 -0.000106802
0.00165364 -0.00035219 -1.00789e-06
-0.00035219 0.000222263 -3.5972e-07
-1.00789e-06 -3.5972e-07 -2.55149e-06
0.00179772 -0.000393228 4.17754e-06
-0.000393228 0.000234438 1.25806e-06
4.17754e-06 1.25806e-06 7.47453e-06
0.000880993 -0.00018716 -1.09974e-05
-0.00018716 1.53766e-05 6.39702e-06
-1.09974e-05 6.39702e-06 -0.000153427
0.00119353 -0.000266692 1.06507e-07
-0.000266692 0.000110476 2.4232e-07
1.06507e-07 2.4232e-07 -9.96976e-05
0.00127195 -0.000341021 2.58942e-06
-0.000341021 9.24435e-05 5.18506e-08
2.58942e-06 5.18506e-08 -0.00015157
0.000437818 -0.000134285 -1.97354e-05
-0.000134285 -0.000131823 1.49695e-05
-1.97354e-05 1.49695e-05 -0.000216256
0.000837147 -0.000182703 4.47622e-07
-0.000182703 5.19421e-05 3.0501e-07
4.47622e-07 3.0501e-07 -0.000122044
0.00111632 -0.000259689 6.7151e-06
-0.000259689 0.000131535 -2.54809e-06
6.7151e-06 -2.54809e-06 -8.20858e-05
0.00482702 0.000195809 -0.000129357
0.000195809 0.00260488 7.50283e-06
-0.000129357 7.50283e-06 0.00258343
0.000547357 -0.000112587 -8.13961e-07
-0.000112587 -4.32518e-05 -3.02483e-07
-8.13961e-07 -3.02483e-07 -0.000121369
0.000748045 -0.000191912 7.25634e-06
-0.000191912 6.97995e-05 -5.34026e-06
7.25634e-06 -5.34026e-06 -0.000107053
0.00422867 0.000149799 1.15743e-05
0.000149799 0.0022347 6.68473e-07
1.15743e-05 6.68473e-07 0.00222587
0.000736041 -6.45904e-05 1.43493e-05
-6.45904e-05 9.27911e-05 -1.21115e-05
1.43493e-05 -1.21115e-05 2.83172e-05
0.00362257 0.000111338 0.000116631
0.000111338 0.00186193 -5.5221e-06
0.000116631 -5.5221e-06 0.0018637
0.000999704 0.000278076 -3.73545e-06
0.000278076 6.99793e-05 -3.75875e-06
-3.73545e-06 -3.75875e-06 -0.000168173
0.00143461 0.000290433 1.22663e-06
0.000290433 0.000437935 7.10214e-07
1.22663e-06 7.10214e-07 0.000216328
0.000693778 0.000175234 4.61917e-07
0.000175234 3.51273e-05 -5.98363e-06
4.61917e-07 -5.98363e-06 -0.00015347
0.000695746 0.000183134 -3.24784e-06
0.000183134 8.20714e-05 -4.71018e-07
-3.24784e-06 -4.71018e-07 -7.9222e-05
0.000327247 7.95355e-05 7.48253e-07
7.95355e-05 -0.000133659 -5.73349e-07
7.48253e-07 -5.73349e-07 -0.000280622
0.0007806 0.000115951 -2.4951e-06
0.000115951 0.000142411 -5.4915e-06
-2.4951e-06 -5.4915e-06 8.04401e-06
0.000346578 1.26365e-05 -3.61237e-07
1.26365e-05 -0.000118155 1.66551e-06
-3.61237e-07 1.66551e-06 -0.000244656
0.000632049 2.95542e-05 -7.05024e-08
2.95542e-05 4.802e-05 -2.39517e-07
-7.05024e-08 -2.39517e-07 -5.64306e-05
0.00059053 -1.12953e-05 -4.55626e-06
-1.12953e-05 1.96117e-05 -9.53741e-06
-4.55626e-06 -9.53741e-06 -2.50775e-05
0.000537283 7.22251e-06 7.43389e-07
7.22251e-06 -4.64472e-06 4.8783e-06
7.43389e-07 4.8783e-06 -9.74987e-05
0.000501662 -1.5066e-05 2.97213e-07
-1.5066e-05 -3.60836e-05 -1.13442e-07
2.97213e-07 -1.13442e-07 -7.45792e-05
0.00307692 -0.000124372 -7.0537e-05
-0.000124372 0.00153185 -3.13018e-06
-7.0537e-05 -3.13018e-06 0.00153089
0.00286999 -0.000113716 -4.99111e-06
-0.000113716 0.00139787 4.81922e-07
-4.99111e-06 4.81922e-07 0.00139926
0.000461509 -7.1533e-06 3.36192e-06
-7.1533e-06 -6.62463e-05 7.3657e-06
3.36192e-06 7.3657e-06 -9.8933e-05
0.00270056 -9.83543e-05 3.97244e-05
-9.83543e-05 0.00128708 4.02615e-06
3.97244e-05 4.02615e-06 0.00129195
0.00377417 6.56682e-05 4.57957e-05
6.56682e-05 -0.000367849 1.46683e-05
4.57957e-05 1.46683e-05 3.66735e-05
0.00336711 -0.00063028 8.09211e-05
-0.00063028 -0.00257944 3.84342e-05
8.09211e-05 3.84342e-05 -0.00368332
0.0084526 -0.0012679 -0.000111296
-0.0012679 0.00314133 -6.47336e-05
-0.000111296 -6.47336e-05 0.00335285
0.00112394 0.000368996 7.05431e-06
0.000368996 -1.61401e-05 4.99287e-06
7.05431e-06 4.99287e-06 -0.0002747
0.00187623 0.00030164 -5.53767e-07
0.00030164 0.000810569 2.24218e-06
-5.53767e-07 2.24218e-06 0.000599307
0.00168184 0.000341058 -5.8986e-06
0.000341058 0.000612594 7.11338e-06
-5.8986e-06 7.11338e-06 0.000372328
0.000799825 0.00028171 1.91342e-06
0.00028171 0.000103934 2.4347e-06
1.91342e-06 2.4347e-06 -0.000119661
0.00121264 0.000342572 -1.56286e-06
0.000342572 0.000183048 -9.15263e-07
-1.56286e-06 -9.15263e-07 -8.6151e-05
0.0011749 0.000415672 1.02082e-05
0.000415672 0.000114636 7.49445e-06
1.02082e-05 7.49445e-06 -0.000130824
0.00109454 0.000337826 -1.06194e-05
0.000337826 0.000233113 -4.54371e-06
-1.06194e-05 -4.54371e-06 -1.26654e-05
0.000724545 0.000338642 3.63133e-06
0.000338642 -6.43062e-06 2.89981e-06
3.63133e-06 2.89981e-06 -0.000161684
0.00124186 0.000428506 2.03894e-06
0.000428506 0.000156251 -1.2339e-06
2.03894e-06 -1.2339e-06 -5.93815e-05
0.00203666 0.000567717 2.41709e-06
0.000567717 0.000383108 5.84587e-06
2.41709e-06 5.84587e-06 0.000210347
0.00171923 0.00057245 5.93346e-06
0.00057245 0.000141682 9.58236e-07
5.93346e-06 9.58236e-07 -7.32972e-05
0.00173505 0.000533692 9.72131e-06
0.000533692 0.000168172 6.1763e-06
9.72131e-06 6.1763e-06 2.01044e-05
0.00120025 0.000560673 -3.33401e-06
0.000560673 -9.45182e-05 -2.54982e-06
-3.33401e-06 -2.54982e-06 -0.000284933
0.000579966 0.000465159 -4.12923e-06
0.000465159 -0.000336214 -2.0992e-06
-4.12923e-06 -2.0992e-06 -0.00050015
0.0016259 0.000463106 3.50786e-05
0.000463106 -0.000311544 3.54985e-05
3.50786e-05 3.54985e-05 -0.000225099
0.00540791 0.00092672 -6.06324e-05
0.00092672 -0.00034492 -1.70167e-05
-6.06324e-05 -1.70167e-05 8.07446e-05
0.00256741 0.000652274 0.000331237
0.000652274 -0.00245035 4.83465e-05
0.000331237 4.83465e-05 -0.0043242
0.000215999 0.000994711 -3.98154e-05
0.000994711 -0.00143945 -2.62582e-05
-3.98154e-05 -2.62582e-05 -0.00140992
0.00307674 0.000928341 -2.8117e-05
0.000928341 0.00044968 -4.28641e-06
-2.8117e-05 -4.28641e-06 0.000357773
0.002833 0.000845175 -7.76402e-05
0.000845175 0.000655361 -2.4972e-05
-7.76402e-05 -2.4972e-05 0.000458792
0.00242261 -0.000212735 -2.42939e-05
-0.000212735 -4.65804e-05 -1.07952e-05
-2.42939e-05 -1.07952e-05 9.92238e-06
0.000673026 -0.000105282 2.43651e-05
-0.000105282 -0.000279728 7.40661e-06
2.43651e-05 7.40661e-06 -0.000312245
0.00133314 0.000789053 0.000109753
0.000789053 -0.00358538 -1.93454e-05
0.000109753 -1.93454e-05 -0.00392586
-0.000387434 -0.000316984 -2.31355e-05
-0.000316984 -0.00129857 3.53089e-05
-2.31355e-05 3.53089e-05 -0.00122766
0.00428656 -0.000204481 -5.84928e-05
-0.000204481 0.000205251 4.0084e-05
-5.84928e-05 4.0084e-05 -3.56635e-05
0.00229037 -0.000349804 -1.87559e-05
-0.000349804 -0.000111141 6.99434e-06
-1.87559e-05 6.99434e-06 4.39165e-05
0.00335635 -0.00017771 2.29967e-07
-0.00017771 0.00057743 -3.85999e-06
2.29967e-07 -3.85999e-06 0.000535408
0.00165309 -0.000198974 3.5656e-05
-0.000198974 -0.000405545 -2.76555e-06
3.5656e-05 -2.76555e-06 -0.000216072
0.00331819 -5.24223e-05 2.84549e-05
-5.24223e-05 0.000992941 5.16398e-07
2.84549e-05 5.16398e-07 0.000953622
0.00108236 -0.000375124 -1.94033e-05
-0.000375124 -0.000557376 8.57874e-06
-1.94033e-05 8.57874e-06 -0.000490708
0.00185484 -0.000311335 1.14593e-07
-0.000311335 -0.000255005 2.12443e-06
1.14593e-07 2.12443e-06 -0.000128353
0.00205713 -0.000296397 2.5597e-06
-0.000296397 -7.91353e-05 -1.07898e-06
2.5597e-06 -1.07898e-06 1.14779e-05
0.00194719 -0.000392051 -9.89372e-07
-0.000392051 -4.76864e-05 2.33661e-06
-9.89372e-07 2.33661e-06 -0.00010064
0.00197128 -0.000335153 3.79934e-07
-0.000335153 3.219e-05 -1.31235e-08
3.79934e-07 -1.31235e-08 6.33675e-06
0.00198916 -0.000290947 -1.82195e-06
-0.000290947 6.84847e-05 3.85905e-07
-1.82195e-06 3.85905e-07 2.28323e-05
0.00190549 -0.000342597 2.17592e-07
-0.000342597 9.19197e-05 2.07588e-07
2.17592e-07 2.07588e-07 5.36695e-06
0.00189449 -0.000317413 -6.3062e-07
-0.000317413 8.45273e-05 4.04711e-08
-6.3062e-07 4.04711e-08 1.49502e-07
0.00184754 -0.000280108 -5.55629e-07
-0.000280108 0.000109948 6.64786e-07
-5.55629e-07 6.64786e-07 9.90681e-06
0.00171303 -0.00031912 4.20837e-07
-0.00031912 4.62545e-05 5.55144e-07
4.20837e-07 5.55144e-07 -6.30445e-05
0.00176391 -0.000302766 8.85351e-07
-0.000302766 9.83022e-05 -7.23928e-07
8.85351e-07 -7.23928e-07 -1.78375e-05
0.00178838 -0.000289605 1.62199e-06
-0.000289605 0.000133044 -2.05455e-06
1.62199e-06 -2.05455e-06 -2.16167e-06
0.00192109 -0.000303885 -4.09751e-06
-0.000303885 0.000222834 4.71835e-06
-4.09751e-06 4.71835e-06 9.69049e-05
0.00192025 -0.000308241 -1.53053e-06
-0.000308241 0.000245122 4.29113e-07
-1.53053e-06 4.29113e-07 9.22693e-05
0.00177069 -0.000287673 -1.20221e-06
-0.000287673 0.000209035 -1.41982e-06
-1.20221e-06 -1.41982e-06 3.45594e-05
0.00181465 -0.000338982 2.64044e-06
-0.000338982 0.000203091 2.09933e-06
2.64044e-06 2.09933e-06 1.71089e-05
0.00175233 -0.000316823 8.13e-07
-0.000316823 0.000229691 -5.93554e-07
8.13e-07 -5.93554e-07 3.50069e-05
0.00137036 -0.000244742 -7.09593e-06
-0.000244742 0.000114612 1.6211e-06
-7.09593e-06 1.6211e-06 -7.41304e-05
0.000904138 -0.00017928 -1.24545e-05
-0.00017928 -7.60159e-06 6.28411e-06
-1.24545e-05 6.28411e-06 -0.000168862
0.00124483 -0.000261362 -1.27232e-06
-0.000261362 8.59743e-05 2.35776e-07
-1.27232e-06 2.35776e-07 -0.000116475
0.00165691 -0.000353766 3.07038e-06
-0.000353766 0.000227807 1.11636e-07
3.07038e-06 1.11636e-07 1.0583e-06
0.000511475 -0.000186287 -2.21056e-05
-0.000186287 -9.17653e-05 1.55841e-05
-2.21056e-05 1.55841e-05 -0.000193541
0.000864093 -0.000187074 4.92607e-07
-0.000187074 6.37566e-06 1.42023e-07
4.92607e-07 1.42023e-07 -0.000162763
0.00122551 -0.000271525 6.87205e-06
-0.000271525 0.000124436 -2.18034e-06
6.87205e-06 -2.18034e-06 -8.68809e-05
0.00538858 0.000166264 -0.000163577
0.000166264 0.00292745 9.66562e-06
-0.000163577 9.66562e-06 0.00291126
0.000545864 -0.000173766 -1.28386e-06
-0.000173766 -6.25368e-05 1.95916e-07
-1.28386e-06 1.95916e-07 -0.000155669
0.000805396 -0.000186243 9.64543e-06
-0.000186243 3.61058e-05 -6.1049e-06
9.64543e-06 -6.1049e-06 -0.000139173
0.00500863 0.000152929 7.40447e-06
0.000152929 0.00270081 9.34067e-07
7.40447e-06 9.34067e-07 0.00268804
0.000704105 -0.000132716 1.95433e-05
-0.000132716 4.93764e-05 -1.46613e-05
1.95433e-05 -1.46613e-05 -3.3566e-05
0.00448705 0.000114384 0.00015323
0.000114384 0.00238067 -9.91821e-06
0.00015323 -9.91821e-06 0.00237796
0.00120299 0.000318226 -3.08983e-06
0.000318226 0.000100439 6.49027e-07
-3.08983e-06 6.49027e-07 -0.000143938
0.00124443 0.00030116 -2.34156e-06
0.00030116 0.000217429 -7.79969e-07
-2.34156e-06 -7.79969e-07 -2.47716e-05
0.00123521 0.00025735 -5.27267e-06
0.00025735 0.000260236 -2.22497e-06
-5.27267e-06 -2.22497e-06 4.39618e-05
0.00223123 0.000364702 -2.18738e-06
0.000364702 0.000919886 3.32181e-06
-2.18738e-06 3.32181e-06 0.000685173
0.000900327 0.000193784 -1.52852e-06
0.000193784 0.000159472 -2.22809e-06
-1.52852e-06 -2.22809e-06 -3.30792e-05
0.000961512 0.000175715 -4.48619e-06
0.000175715 0.000242612 -6.38692e-06
-4.48619e-06 -6.38692e-06 7.7097e-05
0.000441502 9.40793e-05 -9.1178e-07
9.40793e-05 -6.93694e-05 -1.96442e-07
-9.1178e-07 -1.96442e-07 -0.000221533
0.00067098 6.17576e-05 -5.29869e-07
6.17576e-05 6.80801e-05 -3.58994e-07
-5.29869e-07 -3.58994e-07 -5.49235e-05
0.000612686 9.69686e-06 -7.51415e-06
9.69686e-06 3.03531e-05 -1.0865e-05
-7.51415e-06 -1.0865e-05 -2.21417e-05
0.000518155 7.79127e-06 8.20621e-07
7.79127e-06 -1.79943e-05 5.37409e-06
8.20621e-07 5.37409e-06 -0.00012115
0.000496993 -1.48411e-05 3.76195e-07
-1.48411e-05 -3.4114e-05 -1.81354e-07
3.76195e-07 -1.81354e-07 -7.86371e-05
0.0033323 -0.000132718 -8.87575e-05
-0.000132718 0.00169364 -3.08573e-06
-8.87575e-05 -3.08573e-06 0.00169046
0.00043365 -1.2782e-05 3.62788e-06
-1.2782e-05 -7.60829e-05 8.27863e-06
3.62788e-06 8.27863e-06 -0.000114085
0.00304305 -0.000129289 -4.21442e-06
-0.000129289 0.00151166 4.51028e-07
-4.21442e-06 4.51028e-07 0.00150916
0.00287057 -0.000114711 4.91522e-05
-0.000114711 0.00139781 3.7213e-06
4.91522e-05 3.7213e-06 0.00139882
0.000418753 6.62056e-05 1.54509e-05
6.62056e-05 -0.0010909 1.14965e-05
1.54509e-05 1.14965e-05 -0.000920888
0.0049154 4.24156e-05 5.52393e-05
4.24156e-05 0.000190067 1.37022e-06
5.52393e-05 1.37022e-06 0.000507292
0.0114823 0.000706202 -7.08043e-05
0.000706202 0.00300108 -1.77466e-05
-7.08043e-05 -1.77466e-05 0.00207742
0.00166278 0.000473199 4.02684e-06
0.000473199 0.00025821 2.92478e-06
4.02684e-06 2.92478e-06 4.18782e-06
0.00181324 0.000468238 2.92247e-06
0.000468238 0.000259258 2.22134e-06
2.92247e-06 2.22134e-06 1.95685e-05
0.0012051 0.00038297 9.10036e-07
0.00038297 4.14411e-05 -2.2811e-06
9.10036e-07 -2.2811e-06 -0.000218273
0.00136629 0.000344686 -3.2181e-06
0.000344686 0.000423946 2.99501e-06
-3.2181e-06 2.99501e-06 0.000186247
0.00171997 0.000390242 -2.05967e-06
0.000390242 0.000498574 -1.51748e-06
-2.05967e-06 -1.51748e-06 0.000217235
0.00151571 0.000448874 7.1992e-06
0.000448874 0.000291235 1.26348e-06
7.1992e-06 1.26348e-06 4.32195e-05
0.00168616 0.000531863 -8.42434e-07
0.000531863 0.000100239 -1.53091e-06
-8.42434e-07 -1.53091e-06 -0.000124617
0.0019304 0.000499656 -8.73017e-06
0.000499656 0.00052943 3.01727e-07
-8.73017e-06 3.01727e-07 0.000302523
0.00138807 0.000510804 8.07856e-06
0.000510804 1.71578e-05 1.46737e-05
8.07856e-06 1.46737e-05 -0.000140261
0.00222876 0.000614101 -2.55776e-06
0.000614101 0.000422943 1.16037e-06
-2.55776e-06 1.16037e-06 0.000203996
0.00199057 0.000534986 -8.74984e-06
0.000534986 0.000174042 -3.32539e-07
-8.74984e-06 -3.32539e-07 -2.66048e-06
0.000722365 0.000274986 1.74992e-05
0.000274986 -0.00049813 9.02702e-06
1.74992e-05 9.02702e-06 -0.000524259
0.000950576 0.000471502 1.07997e-05
0.000471502 -0.000231994 3.8054e-08
1.07997e-05 3.8054e-08 -0.000373988
0.00119614 0.000552056 -1.57249e-05
0.000552056 -0.0001024 -1.02081e-05
-1.57249e-05 -1.02081e-05 -0.000289008
0.00214608 0.000483342 4.16241e-06
0.000483342 -4.15668e-05 7.79194e-06
4.16241e-06 7.79194e-06 -1.24712e-05
0.0054733 0.000614887 2.00758e-05
0.000614887 -0.000223512 -2.28967e-05
2.00758e-05 -2.28967e-05 -0.000174986
0.00311806 0.000807263 1.2819e-06
0.000807263 0.000753687 -3.35095e-05
1.2819e-06 -3.35095e-05 0.000683802
0.00151261 -4.79541e-05 2.55237e-05
-4.79541e-05 -5.21789e-05 -1.72741e-06
2.55237e-05 -1.72741e-06 -3.6132e-05
0.00220465 -0.000141382 -3.0466e-05
-0.000141382 -0.000103506 5.19764e-07
-3.0466e-05 5.19764e-07 -6.48829e-05
0.00166438 0.000222948 2.29658e-05
0.000222948 -0.000556454 -8.70504e-06
2.29658e-05 -8.70504e-06 -0.000653045
0.0001921 -0.000242918 -3.49584e-05
-0.000242918 -0.00120563 2.75858e-05
-3.49584e-05 2.75858e-05 -0.00103362
0.00341346 -0.000253964 -9.84718e-05
-0.000253964 0.000520346 -1.62273e-06
-9.84718e-05 -1.62273e-06 0.000527581
0.00197084 -0.000228296 4.84238e-06
-0.000228296 -0.000163869 -3.13659e-06
4.84238e-06 -3.13659e-06 5.2526e-06
0.00238508 -6.14944e-05 -8.39686e-06
-6.14944e-05 0.00040015 4.20308e-07
-8.39686e-06 4.20308e-07 0.000367686
0.00212325 -0.000196877 5.52131e-06
-0.000196877 4.84833e-06 8.22761e-07
5.52131e-06 8.22761e-07 3.7913e-05
0.00205604 -2.14746e-05 6.9503e-06
-2.14746e-05 1.43871e-05 1.09458e-06
6.9503e-06 1.09458e-06 4.61224e-06
0.00184058 -0.000327124 -9.3389e-06
-0.000327124 -0.000291491 3.3699e-06
-9.3389e-06 3.3699e-06 -0.000173773
0.00208165 -0.000296817 -1.94164e-06
-0.000296817 -5.25946e-05 1.63091e-07
-1.94164e-06 1.63091e-07 2.06294e-05
0.00204349 -0.000223047 -1.21431e-06
-0.000223047 1.55062e-06 -5.88217e-07
-1.21431e-06 -5.88217e-07 -5.47583e-07
0.00197954 -0.000339557 -2.12126e-06
-0.000339557 3.66163e-05 -3.89757e-07
-2.12126e-06 -3.89757e-07 6.90002e-06
0.00197171 -0.000286606 5.0687e-08
-0.000286606 6.92154e-05 3.16828e-08
5.0687e-08 3.16828e-08 1.83349e-05
0.00196499 -0.000253574 -1.72407e-06
-0.000253574 0.000100211 5.73684e-07
-1.72407e-06 5.73684e-07 2.38665e-05
0.00183995 -0.000321176 -5.88926e-07
-0.000321176 5.86614e-05 -1.44735e-06
-5.88926e-07 -1.44735e-06 -2.89656e-05
0.0018031 -0.000277705 5.37244e-07
-0.000277705 8.02218e-05 -1.97841e-07
5.37244e-07 -1.97841e-07 -2.01816e-05
0.00178933 -0.000258977 8.05994e-07
-0.000258977 9.30438e-05 -7.87041e-07
8.05994e-07 -7.87041e-07 -2.20893e-05
0.00178932 -0.000304554 -3.63135e-07
-0.000304554 0.000109779 -1.81966e-07
-3.63135e-07 -1.81966e-07 -6.82587e-06
0.00181006 -0.000290071 9.87979e-11
-0.000290071 0.000146899 -3.97146e-07
9.87979e-11 -3.97146e-07 1.16088e-05
0.0017129 -0.000263624 -1.97958e-07
-0.000263624 0.000140746 -1.23248e-06
-1.97958e-07 -1.23248e-06 -1.8602e-05
0.00197571 -0.000309153 -1.83583e-06
-0.000309153 0.000274099 3.69171e-06
-1.83583e-06 3.69171e-06 0.000124921
0.00178005 -0.000288647 -6.18218e-07
-0.000288647 0.000215485 -1.20777e-07
-6.18218e-07 -1.20777e-07 4.20038e-05
0.00137728 -0.000222076 -6.16678e-06
-0.000222076 9.10956e-05 1.42438e-06
-6.16678e-06 1.42438e-06 -8.68819e-05
0.00174617 -0.000318583 3.82442e-06
-0.000318583 0.000226719 7.56869e-07
3.82442e-06 7.56869e-07 3.11605e-05
0.00137501 -0.000246092 -2.65449e-07
-0.000246092 0.000117899 -3.64631e-08
-2.65449e-07 -3.64631e-08 -7.0612e-05
0.00093888 -0.000164882 -1.35901e-05
-0.000164882 -1.12063e-05 6.09892e-06
-1.35901e-05 6.09892e-06 -0.000165032
0.000438258 -0.000172586 -2.02548e-05
-0.000172586 -0.000145441 1.45996e-05
-2.02548e-05 1.45996e-05 -0.000247199
0.00092535 -0.000180723 1.97837e-07
-0.000180723 3.71945e-06 9.27107e-08
1.97837e-07 9.27107e-08 -0.000157935
0.00121376 -0.000258608 5.7048e-06
-0.000258608 6.94676e-05 -1.60666e-06
5.7048e-06 -1.60666e-06 -0.000133266
0.00573447 9.41947e-05 -0.000195644
9.41947e-05 0.00311068 1.08638e-05
-0.000195644 1.08638e-05 0.00310696
0.000529911 -0.000182778 -1.62569e-06
-0.000182778 -8.8052e-05 8.46467e-07
-1.62569e-06 8.46467e-07 -0.000186293
0.000857236 -0.000187911 1.13168e-05
-0.000187911 4.33957e-06 -6.05116e-06
1.13168e-05 -6.05116e-06 -0.00016529
0.00552263 0.000140719 -4.53285e-07
0.000140719 0.00300476 -2.5376e-07
-4.53285e-07 -2.5376e-07 0.00299065
0.000635598 -0.000176725 2.27072e-05
-0.000176725 -1.20112e-05 -1.55638e-05
2.27072e-05 -1.55638e-05 -0.000106845
0.00519632 0.00013519 0.000172214
0.00013519 0.00281114 -1.30852e-05
0.000172214 -1.30852e-05 0.00279929
0.00143321 0.000374104 -2.05219e-06
0.000374104 0.00015486 2.13297e-06
-2.05219e-06 2.13297e-06 -8.41112e-05
0.00124849 0.000325382 1.47429e-08
0.000325382 0.00012518 5.02448e-07
1.47429e-08 5.02448e-07 -0.000119637
0.0010996 0.00025535 -7.06062e-06
0.00025535 8.05318e-05 -1.98622e-06
-7.06062e-06 -1.98622e-06 -0.000131165
0.00139432 0.000315179 -4.61871e-07
0.000315179 0.000308292 2.38863e-06
-4.61871e-07 2.38863e-06 6.37979e-05
0.00106777 0.000240309 -2.04004e-06
0.000240309 0.000162674 1.02175e-06
-2.04004e-06 1.02175e-06 -5.01705e-05
0.000923474 0.000195426 -7.53197e-06
0.000195426 0.00016265 -5.09072e-06
-7.53197e-06 -5.09072e-06 -1.45304e-05
0.0010471 0.000205309 -1.1664e-06
0.000205309 0.000248984 1.02345e-06
-1.1664e-06 1.02345e-06 5.36997e-05
0.000720852 0.000142289 -8.61125e-08
0.000142289 0.000104188 -4.28488e-08
-8.61125e-08 -4.28488e-08 -5.68141e-05
0.00076118 7.26701e-05 -1.43289e-05
7.26701e-05 0.00010948 -1.34076e-05
-1.43289e-05 -1.34076e-05 4.0112e-05
0.000557277 2.50266e-05 1.15856e-06
2.50266e-05 -1.20324e-06 5.36344e-06
1.15856e-06 5.36344e-06 -0.000118363
0.00049431 6.90429e-07 -3.17323e-07
6.90429e-07 -3.70346e-05 -3.4732e-07
-3.17323e-07 -3.4732e-07 -8.89985e-05
0.00376346 -0.00013451 -0.000116033
-0.00013451 0.00195862 -4.44989e-06
-0.000116033 -4.44989e-06 0.00195389
0.000416438 -1.52658e-05 3.9187e-06
-1.52658e-05 -8.10046e-05 9.1983e-06
3.9187e-06 9.1983e-06 -0.000125063
0.00324582 -0.00014297 -4.19794e-06
-0.00014297 0.00164313 4.35819e-07
-4.19794e-06 4.35819e-07 0.00163698
0.00299598 -0.000130365 5.78559e-05
-0.000130365 0.00148303 3.35048e-06
5.78559e-05 3.35048e-06 0.00147998
0.000583845 7.71876e-05 2.15207e-05
7.71876e-05 -0.000606027 6.67233e-06
2.15207e-05 6.67233e-06 -0.000527036
0.00211492 5.34498e-05 -9.11864e-06
5.34498e-05 -0.000394371 -1.93305e-06
-9.11864e-06 -1.93305e-06 -0.000201204
0.00418455 6.78336e-05 0.00015253
6.78336e-05 -0.000633031 4.15105e-05
0.00015253 4.15105e-05 0.000100044
0.00233832 0.00053495 -1.96056e-06
0.00053495 0.000482128 5.26533e-09
-1.96056e-06 5.26533e-09 0.000251921
0.0015905 0.000485124 -2.60607e-06
0.000485124 0.000201519 -3.51892e-06
-2.60607e-06 -3.51892e-06 -5.00436e-05
0.0019771 0.000410722 -3.24996e-07
0.000410722 0.000215617 3.25988e-06
-3.24996e-07 3.25988e-06 2.28882e-05
0.00180544 0.000462205 8.31489e-07
0.000462205 0.000251978 2.68444e-07
8.31489e-07 2.68444e-07 1.40208e-05
0.00128778 0.000397519 1.28629e-06
0.000397519 9.73009e-05 -7.19471e-06
1.28629e-06 -7.19471e-06 -0.000163664
0.00183746 0.00043057 -1.68962e-07
0.00043057 6.168e-05 8.05104e-07
-1.68962e-07 8.05104e-07 -0.000109778
0.00191155 0.000488438 -4.60077e-06
0.000488438 0.000501903 -2.19771e-06
-4.60077e-06 -2.19771e-06 0.000249808
0.00194638 0.00054414 9.85168e-08
0.00054414 0.000264812 -9.36568e-08
9.85168e-08 -9.36568e-08 3.76765e-05
0.00182513 0.00031675 -5.43804e-06
0.00031675 -4.34872e-05 -8.09891e-07
-5.43804e-06 -8.09891e-07 -0.000133843
0.00271328 0.000654378 8.8995e-07
0.000654378 0.000687879 1.8733e-06
8.8995e-07 1.8733e-06 0.000465312
0.0019562 0.000536507 -1.82155e-06
0.000536507 0.000145435 2.06159e-08
-1.82155e-06 2.06159e-08 -3.47573e-05
0.000892351 0.000287651 5.36131e-06
0.000287651 -0.000367919 3.27695e-06
5.36131e-06 3.27695e-06 -0.000403143
-0.000492165 0.000363438 -7.72715e-06
0.000363438 -0.00097265 -2.83747e-06
-7.72715e-06 -2.83747e-06 -0.00110327
0.00224975 0.000502428 -6.34789e-05
0.000502428 -8.23114e-07 -2.94965e-05
-6.34789e-05 -2.94965e-05 -2.23308e-05
0.00190863 4.74684e-05 3.41334e-07
4.74684e-05 -9.10227e-05 -6.57032e-07
3.41334e-07 -6.57032e-07 -7.18031e-05
0.00223159 -4.29496e-05 1.55745e-06
-4.29496e-05 0.000400893 1.13558e-06
1.55745e-06 1.13558e-06 0.000415926
0.00175394 -9.03841e-05 -5.8071e-05
-9.03841e-05 -0.000236466 8.4834e-07
-5.8071e-05 8.4834e-07 -0.000304046
0.00230667 -0.000257416 -3.99304e-05
-0.000257416 8.62253e-05 3.4345e-06
-3.99304e-05 3.4345e-06 0.000228813
0.00147958 -8.05409e-05 -1.06222e-05
-8.05409e-05 -0.000172008 6.51604e-07
-1.06222e-05 6.51604e-07 -0.000196387
0.00204636 -0.000190978 -5.01295e-09
-0.000190978 -4.36038e-05 -8.41334e-07
-5.01295e-09 -8.41334e-07 2.56106e-06
0.00212093 -2.26191e-05 -1.44336e-06
-2.26191e-05 3.08631e-05 1.50546e-06
-1.44336e-06 1.50546e-06 2.74571e-05
0.00212154 -7.0176e-05 -1.42125e-06
-7.0176e-05 2.39253e-05 -2.58463e-07
-1.42125e-06 -2.58463e-07 3.35928e-05
0.00209338 -0.000294766 -4.42538e-06
-0.000294766 -2.95542e-05 7.5628e-07
-4.42538e-06 7.5628e-07 2.67831e-05
0.00202017 -0.000214641 4.15292e-07
-0.000214641 -5.5556e-07 -2.03843e-07
4.15292e-07 -2.03843e-07 -4.1343e-06
0.002007 -0.0001751 -1.78903e-06
-0.0001751 4.28747e-05 -1.09992e-07
-1.78903e-06 -1.09992e-07 1.14075e-05
0.00195319 -0.000282611 1.12931e-06
-0.000282611 6.86525e-05 -9.40883e-07
1.12931e-06 -9.40883e-07 1.30231e-05
0.00188131 -0.00024795 2.37492e-07
-0.00024795 5.83729e-05 6.53866e-08
2.37492e-07 6.53866e-08 -2.01572e-05
0.00181287 -0.00020477 -9.55347e-08
-0.00020477 6.75014e-05 -3.83513e-07
-9.55347e-08 -3.83513e-07 -2.6498e-05
0.0017633 -0.000275607 1.2827e-06
-0.000275607 5.23533e-05 -8.8877e-07
1.2827e-06 -8.8877e-07 -4.84036e-05
0.0018287 -0.000259981 1.08992e-07
-0.000259981 0.000116874 -1.56773e-07
1.08992e-07 -1.56773e-07 1.60116e-06
0.00176618 -0.000233438 5.57545e-07
-0.000233438 0.000130793 -1.01924e-06
5.57545e-07 -1.01924e-06 -1.08668e-05
0.00182719 -0.000290348 -8.89488e-07
-0.000290348 0.000158025 1.08198e-06
-8.89488e-07 1.08198e-06 2.26542e-05
0.00174447 -0.000264671 -3.08926e-07
-0.000264671 0.000160465 -9.21022e-08
-3.08926e-07 -9.21022e-08 1.34863e-06
0.00142508 -0.000202465 -4.49595e-06
-0.000202465 9.17458e-05 1.0752e-06
-4.49595e-06 1.0752e-06 -7.68759e-05
0.00178834 -0.000289493 6.9397e-07
-0.000289493 0.000221134 1.33065e-06
6.9397e-07 1.33065e-06 4.86828e-05
0.00139998 -0.000223206 -2.62426e-07
-0.000223206 0.000103717 6.54896e-08
-2.62426e-07 6.54896e-08 -7.39357e-05
0.000956878 -0.000147878 -1.39356e-05
-0.000147878 -1.69218e-05 5.62712e-06
-1.39356e-05 5.62712e-06 -0.000165216
0.00138004 -0.000247503 6.23709e-06
-0.000247503 0.000121388 -1.26025e-06
6.23709e-06 -1.26025e-06 -6.69041e-05
0.000957446 -0.000165013 1.66584e-07
-0.000165013 -2.18494e-06 6.70011e-08
1.66584e-07 6.70011e-08 -0.000155811
0.0024862 -0.000127463 -3.37032e-05
-0.000127463 0.00107215 9.16238e-06
-3.37032e-05 9.16238e-06 0.000989971
0.00177816 -5.78562e-05 -0.00019478
-5.78562e-05 0.000716278 2.24344e-05
-0.00019478 2.24344e-05 0.000698502
0.0015474 -0.000160903 -6.9707e-06
-0.000160903 0.000515469 -3.71944e-07
-6.9707e-06 -3.71944e-07 0.000420824
0.000945561 -0.000182066 1.25779e-05
-0.000182066 1.46756e-05 -5.94675e-06
1.25779e-05 -5.94675e-06 -0.00014739
0.00581451 7.76482e-05 -6.50183e-06
7.76482e-05 0.00316518 -3.0083e-07
-6.50183e-06 -3.0083e-07 0.00315817
0.000583719 -0.000206521 2.40355e-05
-0.000206521 -5.68962e-05 -1.51764e-05
2.40355e-05 -1.51764e-05 -0.000157837
0.00565112 0.000121886 0.000189332
0.000121886 0.0030867 -1.69345e-05
0.000189332 -1.69345e-05 0.00307011
0.00196804 0.000321477 4.36159e-07
0.000321477 0.000180092 2.42544e-07
4.36159e-07 2.42544e-07 2.00778e-05
0.00175185 0.000382323 1.64333e-06
0.000382323 0.000216511 3.19007e-06
1.64333e-06 3.19007e-06 2.81255e-06
0.00168347 0.000398935 7.41352e-08
0.000398935 0.000292618 1.49372e-07
7.41352e-08 1.49372e-07 5.08544e-05
0.00116419 0.000270855 -6.80258e-06
0.000270855 6.10901e-05 -1.46792e-06
-6.80258e-06 -1.46792e-06 -0.000147328
0.00132956 0.000336325 4.84059e-06
0.000336325 0.000171649 1.17382e-06
4.84059e-06 1.17382e-06 -7.44699e-05
0.00112576 0.00025386 -1.08334e-07
0.00025386 9.90702e-05 2.29857e-08
-1.08334e-07 2.29857e-08 -0.000111571
0.000824677 0.000184719 -1.01105e-05
0.000184719 1.93725e-05 -5.45967e-06
-1.01105e-05 -5.45967e-06 -0.000150948
0.000884679 0.000222226 2.60347e-06
0.000222226 5.42207e-05 4.86123e-06
2.60347e-06 4.86123e-06 -0.000154844
0.000781121 0.000181417 -2.79188e-08
0.000181417 7.75922e-05 8.57339e-07
-2.79188e-08 8.57339e-07 -9.86953e-05
0.000726271 0.000158031 -2.16663e-05
0.000158031 6.82037e-05 -1.49166e-05
-2.16663e-05 -1.49166e-05 -2.13379e-05
0.000601755 0.000107143 1.43168e-06
0.000107143 2.99167e-05 5.08292e-06
1.43168e-06 5.08292e-06 -0.000123011
0.000539601 5.85919e-05 -1.76059e-06
5.85919e-05 -2.0503e-05 -6.78616e-07
-1.76059e-06 -6.78616e-07 -8.56365e-05
0.00449367 -0.000129131 -0.0001548
-0.000129131 0.00240008 -8.94672e-06
-0.0001548 -8.94672e-06 0.00239177
0.000369417 -7.27917e-06 4.66826e-06
-7.27917e-06 -0.000107585 1.04048e-05
4.66826e-06 1.04048e-05 -0.000159456
0.003586 -0.000155896 -5.6421e-06
-0.000155896 0.00185643 4.41934e-07
-5.6421e-06 4.41934e-07 0.00184636
0.00318326 -0.000147204 6.77631e-05
-0.000147204 0.00160595 2.84243e-06
6.77631e-05 2.84243e-06 0.00159841
0.00199035 0.00016556 -5.61815e-08
0.00016556 -4.11753e-05 -6.99436e-07
-5.61815e-08 -6.99436e-07 -4.32178e-05
0.0019284 5.6243e-05 1.88082e-05
5.6243e-05 9.83003e-05 -1.301e-06
1.88082e-05 -1.301e-06 0.000164867
0.00440017 6.90254e-05 -0.000102685
6.90254e-05 0.000576919 -1.50654e-05
-0.000102685 -1.50654e-05 0.000820839
0.00181816 0.000369582 -3.01774e-06
0.000369582 6.49645e-05 1.12936e-06
-3.01774e-06 1.12936e-06 -9.66183e-05
0.00194804 0.000498886 -2.80011e-06
0.000498886 0.000271778 -6.69546e-08
-2.80011e-06 -6.69546e-08 4.55759e-05
0.00151536 0.000496219 -1.01669e-05
0.000496219 0.000145225 -7.78652e-06
-1.01669e-05 -7.78652e-06 -0.000103321
0.0020558 0.000403573 2.83259e-06
0.000403573 0.000275716 1.12647e-06
2.83259e-06 1.12647e-06 8.52412e-05
0.00177982 0.000455244 -1.83314e-06
0.000455244 0.000235182 -2.8308e-06
-1.83314e-06 -2.8308e-06 -1.0363e-06
0.00222562 0.000312596 -1.25303e-08
0.000312596 0.000188671 1.89118e-07
-1.25303e-08 1.89118e-07 8.78206e-05
0.00172973 0.000424578 -2.63372e-07
0.000424578 2.14919e-05 7.43593e-07
-2.63372e-07 7.43593e-07 -0.000150572
0.00225608 0.000560988 -4.42928e-06
0.000560988 0.000456256 -5.10078e-07
-4.42928e-06 -5.10078e-07 0.00022588
0.00184732 0.000320166 -1.01075e-06
0.000320166 -2.60587e-05 -4.22986e-07
-1.01075e-06 -4.22986e-07 -0.000117411
0.00205229 0.000547271 1.65673e-05
0.000547271 0.000177623 3.17008e-06
1.65673e-05 3.17008e-06 -6.46907e-06
0.00112779 0.000288973 -3.02471e-05
0.000288973 -0.000214444 -7.03284e-06
-3.02471e-05 -7.03284e-06 -0.000256483
0.00207237 5.5397e-05 -1.27628e-06
5.5397e-05 7.59995e-06 4.56119e-07
-1.27628e-06 4.56119e-07 1.54591e-05
0.00201588 5.71262e-05 -1.89181e-06
5.71262e-05 -1.68894e-05 1.8779e-07
-1.89181e-06 1.8779e-07 -1.65472e-06
0.00292422 -3.37136e-05 -3.9379e-05
-3.37136e-05 0.000843734 3.18481e-06
-3.9379e-05 3.18481e-06 0.00085361
0.00196234 -0.000183663 -1.03404e-05
-0.000183663 -0.000100392 -3.98112e-07
-1.03404e-05 -3.98112e-07 -4.16252e-05
0.00211275 -2.14118e-05 -3.78108e-06
-2.14118e-05 -1.74497e-06 -2.53288e-06
-3.78108e-06 -2.53288e-06 5.55476e-07
0.00208399 -7.4298e-05 -3.18816e-07
-7.4298e-05 -1.46962e-05 9.41968e-08
-3.18816e-07 9.41968e-08 1.11462e-07
0.00192255 -5.83411e-05 -2.32476e-06
-5.83411e-05 1.31819e-05 2.75156e-07
-2.32476e-06 2.75156e-07 -1.26149e-06
0.00199758 -0.000205145 1.46013e-06
-0.000205145 -5.38574e-07 1.84045e-07
1.46013e-06 1.84045e-07 -5.67441e-06
0.00194158 -0.000176041 9.55665e-08
-0.000176041 1.43727e-05 -2.9148e-09
9.55665e-08 -2.9148e-09 -2.05186e-05
0.00186478 -0.000138106 1.78157e-06
-0.000138106 6.93261e-05 -1.27636e-06
1.78157e-06 -1.27636e-06 -3.882e-06
0.00179367 -0.000241949 1.98067e-06
-0.000241949 1.4985e-05 -5.06685e-07
1.98067e-06 -5.06685e-07 -6.58986e-05
0.00185678 -0.000207174 -8.68895e-08
-0.000207174 8.68043e-05 -5.96093e-09
-8.68895e-08 -5.96093e-09 -7.4788e-06
0.00181704 -0.000191876 6.51191e-07
-0.000191876 0.000118349 -8.99431e-07
6.51191e-07 -8.99431e-07 -6.2424e-06
0.00187134 -0.000261 1.33776e-07
-0.000261 0.000143004 3.90517e-07
1.33776e-07 3.90517e-07 2.76158e-05
0.00179182 -0.000234378 -2.42359e-07
-0.000234378 0.00014562 3.47465e-08
-2.42359e-07 3.47465e-08 4.05338e-06
0.00147627 -0.000177566 -3.36109e-06
-0.000177566 9.33096e-05 6.63933e-07
-3.36109e-06 6.63933e-07 -6.5376e-05
0.00177594 -0.000265744 -2.52201e-07
-0.000265744 0.000180199 9.87597e-07
-2.52201e-07 9.87597e-07 2.13068e-05
0.00144487 -0.000203338 -2.06215e-07
-0.000203338 0.000101632 8.20266e-08
-2.06215e-07 8.20266e-08 -6.66271e-05
0.000968165 -0.000131421 -1.35537e-05
-0.000131421 -2.28134e-05 4.83763e-06
-1.35537e-05 4.83763e-06 -0.000167663
0.0014213 -0.000224272 5.29e-06
-0.000224272 0.000115567 -1.21214e-06
5.29e-06 -1.21214e-06 -6.1759e-05
0.000977554 -0.000147415 1.07627e-07
-0.000147415 -7.02206e-06 1.20379e-07
1.07627e-07 1.20379e-07 -0.000154791
0.00252016 -0.000131911 -4.14898e-05
-0.000131911 0.0010804 8.46063e-06
-4.14898e-05 8.46063e-06 0.00100557
0.000971412 -0.000165157 1.35956e-05
-0.000165157 4.22787e-06 -5.90162e-06
1.35956e-05 -5.90162e-06 -0.000149235
0.00263839 -0.000170944 3.94793e-05
-0.000170944 0.00115998 -5.29648e-06
3.94793e-05 -5.29648e-06 0.00108413
0.00183848 -9.71544e-05 -0.000197819
-9.71544e-05 0.000759241 2.68207e-05
-0.000197819 2.68207e-05 0.000739727
0.00373199 -3.89143e-05 -0.0001944
-3.89143e-05 0.00190891 1.41704e-05
-0.0001944 1.41704e-05 0.00189768
0.00271931 -0.000225069 0.000124194
-0.000225069 0.00121614 -1.77928e-05
0.000124194 -1.77928e-05 0.00114165
0.00587623 6.31144e-05 0.000205863
6.31144e-05 0.0032116 -1.98882e-05
0.000205863 -1.98882e-05 0.0032002
0.00209454 0.000314583 -2.21949e-06
0.000314583 0.000240565 -1.01021e-06
-2.21949e-06 -1.01021e-06 9.8433e-05
0.00163167 0.000302504 2.79523e-06
0.000302504 8.73608e-05 1.02791e-06
2.79523e-06 1.02791e-06 -9.24805e-05
0.00196601 0.000318035 3.73717e-07
0.000318035 0.000178657 -1.33475e-06
3.73717e-07 -1.33475e-06 2.40655e-05
0.00131968 0.000274372 -5.88762e-06
0.000274372 8.92243e-05 -6.83263e-07
-5.88762e-06 -6.83263e-07 -0.000110098
0.00181629 0.00038515 6.03632e-07
0.00038515 0.000244652 4.02546e-07
6.03632e-07 4.02546e-07 3.03285e-05
0.00193566 0.000424296 1.78926e-06
0.000424296 0.00043078 -1.54316e-06
1.78926e-06 -1.54316e-06 0.000186129
0.00121812 0.000272734 -2.85734e-07
0.000272734 9.69961e-05 2.07955e-07
-2.85734e-07 2.07955e-07 -0.000111544
0.00092738 0.000189406 -1.21274e-05
0.000189406 2.18704e-05 -6.08247e-06
-1.21274e-05 -6.08247e-06 -0.000143974
0.00116806 0.000253671 7.83369e-06
0.000253671 0.000127561 2.20278e-06
7.83369e-06 2.20278e-06 -8.22936e-05
0.000832934 0.000181995 -2.85476e-07
0.000181995 1.9011e-05 5.21611e-08
-2.85476e-07 5.21611e-08 -0.000150081
0.00057958 0.000200969 -2.39211e-05
0.000200969 -4.15587e-05 -1.5707e-05
-2.39211e-05 -1.5707e-05 -0.000141999
0.000625701 0.000169357 4.46846e-06
0.000169357 -1.17532e-05 5.62652e-06
4.46846e-06 5.62652e-06 -0.000188393
0.000536252 0.000129175 3.3758e-07
0.000129175 -4.36635e-05 2.61734e-07
3.3758e-07 2.61734e-07 -0.000127779
0.0053565 -0.0001341 -0.00018085
-0.0001341 0.00293078 -1.60067e-05
-0.00018085 -1.60067e-05 0.00290963
0.000276502 2.89502e-05 8.10329e-06
2.89502e-05 -0.000169883 1.23173e-05
8.10329e-06 1.23173e-05 -0.000233201
0.00424543 -0.000174629 -1.04924e-05
-0.000174629 0.00226271 7.4601e-07
-1.04924e-05 7.4601e-07 0.00224548
0.00345755 -0.000165313 7.969e-05
-0.000165313 0.00178091 2.6358e-06
7.969e-05 2.6358e-06 0.00176825
0.00204525 0.000183825 -1.19796e-06
0.000183825 1.39959e-05 3.631e-07
-1.19796e-06 3.631e-07 -2.10024e-05
0.00192582 0.000166851 9.39702e-07
0.000166851 -7.48323e-05 -1.59048e-07
9.39702e-07 -1.59048e-07 -7.76083e-05
0.00306035 4.1501e-05 -7.40414e-05
4.1501e-05 0.000697236 -8.27046e-06
-7.40414e-05 -8.27046e-06 0.00075736
0.00200516 0.000272772 6.28132e-07
0.000272772 0.000114228 4.11904e-07
6.28132e-07 4.11904e-07 2.28911e-06
0.00184309 0.000367574 -2.15384e-07
0.000367574 9.9676e-05 3.46072e-07
-2.15384e-07 3.46072e-07 -6.20103e-05
0.00157361 0.000463602 -2.84731e-07
0.000463602 6.91893e-05 -1.94832e-06
-2.84731e-07 -1.94832e-06 -0.00015306
0.00213475 0.00039602 -5.10969e-07
0.00039602 0.000336501 -2.24955e-06
-5.10969e-07 -2.24955e-06 0.000148427
0.00209998 0.000301786 -7.2294e-07
0.000301786 0.000120264 -3.4032e-08
-7.2294e-07 -3.4032e-08 2.01795e-05
0.00161834 0.0004183 -3.64808e-06
0.0004183 -2.08285e-05 4.45405e-07
-3.64808e-06 4.45405e-07 -0.000193495
0.00181227 0.000320237 8.01015e-06
0.000320237 -2.47526e-05 9.66637e-07
8.01015e-06 9.66637e-07 -0.000117227
0.00194627 5.13414e-05 -6.98872e-07
5.13414e-05 1.24261e-05 5.52248e-07
-6.98872e-07 5.52248e-07 -6.93839e-08
0.00203665 5.48912e-05 7.6332e-08
5.48912e-05 -1.55487e-06 -1.31628e-07
7.6332e-08 -1.31628e-07 2.48939e-06
0.00209255 6.78133e-05 -8.4365e-06
6.78133e-05 4.07877e-05 -2.4714e-07
-8.4365e-06 -2.4714e-07 5.26169e-05
0.00182307 -1.17205e-05 -4.5717e-06
-1.17205e-05 1.48922e-06 4.43508e-07
-4.5717e-06 4.43508e-07 -2.74441e-05
0.00204541 -8.28137e-05 1.54306e-06
-8.28137e-05 -5.31164e-05 -5.75693e-07
1.54306e-06 -5.75693e-07 -3.35312e-05
0.00193258 -6.12803e-05 -6.76019e-07
-6.12803e-05 1.70815e-05 2.63465e-07
-6.76019e-07 2.63465e-07 2.37389e-06
0.00187443 -8.10537e-05 -2.75988e-06
-8.10537e-05 6.84058e-05 2.89245e-08
-2.75988e-06 2.89245e-08 1.03662e-05
0.00187837 -0.000177003 2.5574e-06
-0.000177003 -1.35205e-05 -2.46232e-07
2.5574e-06 -2.46232e-07 -5.17805e-05
0.00186598 -0.000138328 2.07388e-06
-0.000138328 6.18483e-05 -7.71964e-07
2.07388e-06 -7.71964e-07 -1.09838e-05
0.00183959 -0.000135848 3.00495e-06
-0.000135848 0.000113019 -1.07039e-06
3.00495e-06 -1.07039e-06 2.4516e-06
0.00190981 -0.000209353 6.53207e-07
-0.000209353 0.000111431 3.2613e-07
6.53207e-07 3.2613e-07 1.69499e-05
0.00182944 -0.000190582 -1.48507e-07
-0.000190582 0.000128627 -2.38111e-07
-1.48507e-07 -2.38111e-07 4.38416e-06
0.00151506 -0.000144282 -2.52903e-06
-0.000144282 9.00783e-05 2.89028e-07
-2.52903e-06 2.89028e-07 -5.76373e-05
0.00181762 -0.000235189 -5.41853e-07
-0.000235189 0.00016086 9.71175e-07
-5.41853e-07 9.71175e-07 1.94175e-05
0.00148068 -0.000177176 -2.04792e-07
-0.000177176 9.41712e-05 1.08473e-07
-2.04792e-07 1.08473e-07 -6.40465e-05
0.000980472 -0.000112875 -1.29926e-05
-0.000112875 -2.74168e-05 3.87855e-06
-1.29926e-05 3.87855e-06 -0.000168781
0.0014633 -0.000204049 3.93135e-06
-0.000204049 0.000110837 -9.021e-07
3.93135e-06 -9.021e-07 -5.70316e-05
0.000991752 -0.000130321 1.4578e-09
-0.000130321 -1.13025e-05 2.10488e-07
1.4578e-09 2.10488e-07 -0.000155407
0.00254018 -0.000137264 -4.92829e-05
-0.000137264 0.00108711 8.23884e-06
-4.92829e-05 8.23884e-06 0.0010147
0.000999047 -0.000147065 1.38228e-05
-0.000147065 3.12308e-06 -5.42362e-06
1.38228e-05 -5.42362e-06 -0.000144091
0.00261918 -0.000160515 3.59981e-05
-0.000160515 0.00113862 -4.33721e-06
3.59981e-05 -4.33721e-06 0.00106849
0.00188282 -8.41969e-05 -0.000193643
-8.41969e-05 0.000780205 2.38684e-05
-0.000193643 2.38684e-05 0.000762007
0.0027706 -0.000185294 0.000122268
-0.000185294 0.00123524 -1.94965e-05
0.000122268 -1.94965e-05 0.00116544
0.00158843 -3.54838e-05 -8.62276e-05
-3.54838e-05 0.000614329 1.04932e-05
-8.62276e-05 1.04932e-05 0.00058487
0.00556708 0.000138281 4.27795e-05
0.000138281 0.00301405 -2.19624e-06
4.27795e-05 -2.19624e-06 0.0029892
0.00189522 0.000260318 5.39606e-07
0.000260318 0.000109435 2.12452e-07
5.39606e-07 2.12452e-07 -2.02092e-05
0.00188941 0.000288764 -1.43543e-07
0.000288764 0.000197224 -8.45149e-07
-1.43543e-07 -8.45149e-07 3.74053e-05
0.00199668 0.000311334 -3.58506e-06
0.000311334 0.000178217 1.44358e-08
-3.58506e-06 1.44358e-08 3.38837e-05
0.00166887 0.000263209 -3.10287e-06
0.000263209 0.000247291 -5.6872e-07
-3.10287e-06 -5.6872e-07 6.54004e-05
0.00166609 0.000309432 1.6375e-07
0.000309432 9.73879e-05 -1.61346e-06
1.6375e-07 -1.61346e-06 -8.03431e-05
0.00197205 0.000315193 -3.05958e-06
0.000315193 0.000182045 -3.49831e-06
-3.05958e-06 -3.49831e-06 3.28033e-05
0.000967909 0.000184112 -1.35928e-05
0.000184112 3.10856e-06 -5.7365e-06
-1.35928e-05 -5.7365e-06 -0.000156975
0.0013318 0.000275616 1.52351e-07
0.000275616 9.5959e-05 2.84211e-07
1.52351e-07 2.84211e-07 -0.00010396
0.00187922 0.000387751 2.73126e-06
0.000387751 0.000271216 -2.10573e-06
2.73126e-06 -2.10573e-06 5.62879e-05
0.00129295 0.000275883 7.8848e-06
0.000275883 0.000146199 2.45948e-06
7.8848e-06 2.45948e-06 -6.2579e-05
0.000876872 0.000184817 -6.01294e-07
0.000184817 -6.50416e-06 -1.64702e-08
-6.01294e-07 -1.64702e-08 -0.000171244
0.000525898 0.000217686 -2.51255e-05
0.000217686 -8.11192e-05 -1.53725e-05
-2.51255e-05 -1.53725e-05 -0.00018542
0.000749574 0.000174648 9.70097e-06
0.000174648 -3.55142e-05 5.72629e-06
9.70097e-06 5.72629e-06 -0.000202762
0.000513194 0.000191491 2.19491e-06
0.000191491 -7.72578e-05 5.01243e-07
2.19491e-06 5.01243e-07 -0.000176631
0.00583532 -8.95166e-05 -0.000196659
-8.95166e-05 0.00321656 -2.15457e-05
-0.000196659 -2.15457e-05 0.00319233
0.000385619 0.000115923 1.7676e-05
0.000115923 -0.000136662 1.47342e-05
1.7676e-05 1.47342e-05 -0.00021383
0.00508519 -0.000163628 -8.29522e-06
-0.000163628 0.00276323 4.01375e-07
-8.29522e-06 4.01375e-07 0.00274432
0.00395099 -0.000190652 9.58575e-05
-0.000190652 0.00208965 3.56521e-06
9.58575e-05 3.56521e-06 0.00206891
0.00195944 0.000147477 -1.54438e-06
0.000147477 5.76812e-05 9.07982e-07
-1.54438e-06 9.07982e-07 -2.25521e-06
0.00205726 0.000187253 5.27934e-07
0.000187253 1.3475e-05 3.98408e-07
5.27934e-07 3.98408e-07 -1.83741e-05
0.00192234 0.000170808 5.72348e-07
0.000170808 -8.30292e-05 7.06021e-07
5.72348e-07 7.06021e-07 -8.64388e-05
0.00200269 0.000267507 4.30556e-07
0.000267507 0.000118341 3.47466e-08
4.30556e-07 3.47466e-08 9.62489e-06
0.0018537 0.000364429 -1.17261e-06
0.000364429 0.000127021 -6.66828e-07
-1.17261e-06 -6.66828e-07 -3.46216e-05
0.00198852 0.000291144 1.41345e-07
0.000291144 5.97398e-05 -4.51307e-07
1.41345e-07 -4.51307e-07 -3.93854e-05
0.00193199 5.73973e-05 -2.64401e-06
5.73973e-05 5.84438e-05 1.29644e-07
-2.64401e-06 1.29644e-07 2.56175e-05
0.0019546 4.86993e-05 3.36259e-07
4.86993e-05 2.19863e-05 -1.34289e-07
3.36259e-07 -1.34289e-07 7.10902e-06
0.00201667 5.47941e-05 1.30159e-06
5.47941e-05 -2.27162e-06 -1.38816e-07
1.30159e-06 -1.38816e-07 -1.82644e-06
0.00186055 -1.5502e-05 -1.67304e-06
-1.5502e-05 2.0741e-05 9.03575e-08
-1.67304e-06 9.03575e-08 -7.7442e-06
0.00183043 -3.56691e-05 -3.41572e-06
-3.56691e-05 5.07168e-05 6.70424e-09
-3.41572e-06 6.70424e-09 -9.4752e-06
0.00194287 -6.41924e-05 1.8447e-06
-6.41924e-05 2.10363e-05 1.32857e-08
1.8447e-06 1.32857e-08 6.11839e-06
0.00184435 -7.94531e-05 -2.01114e-06
-7.94531e-05 5.23509e-05 6.22591e-07
-2.01114e-06 6.22591e-07 -9.46226e-06
0.00186668 -8.14311e-05 -1.90621e-07
-8.14311e-05 0.000130419 -4.79293e-07
-1.90621e-07 -4.79293e-07 3.50468e-05
0.00185474 -0.000138573 3.19363e-06
-0.000138573 4.78958e-05 -3.54861e-07
3.19363e-06 -3.54861e-07 -2.4647e-05
0.0018224 -0.000136607 2.60671e-06
-0.000136607 0.000105852 -6.90345e-07
2.60671e-06 -6.90345e-07 -4.77949e-06
0.00153073 -0.000103312 -1.11958e-06
-0.000103312 7.73189e-05 -2.4191e-07
-1.11958e-06 -2.4191e-07 -5.99881e-05
0.00182649 -0.000190541 -1.0272e-06
-0.000190541 0.00012897 4.13647e-07
-1.0272e-06 4.13647e-07 4.79212e-06
0.00151031 -0.000144109 -1.21993e-07
-0.000144109 8.42754e-05 3.24514e-08
-1.21993e-07 3.24514e-08 -6.3196e-05
0.000984862 -8.96322e-05 -1.25303e-05
-8.96322e-05 -3.61147e-05 2.96666e-06
-1.25303e-05 2.96666e-06 -0.000172816
0.00148896 -0.00017703 2.79232e-06
-0.00017703 9.65315e-05 -4.61335e-07
2.79232e-06 -4.61335e-07 -6.12388e-05
0.00100122 -0.000111204 -1.39501e-07
-0.000111204 -1.70456e-05 2.18479e-07
-1.39501e-07 2.18479e-07 -0.000157672
0.00251361 -0.000147718 -5.27389e-05
-0.000147718 0.00106808 7.38018e-06
-5.27389e-05 7.38018e-06 0.000995755
0.0010154 -0.000129292 1.346e-05
-0.000129292 4.48488e-08 -4.49782e-06
1.346e-05 -4.49782e-06 -0.000143295
0.00260711 -0.000142949 3.46262e-05
-0.000142949 0.00112345 -3.28666e-06
3.46262e-05 -3.28666e-06 0.00105631
0.00191668 -7.15676e-05 -0.000193505
-7.15676e-05 0.00079391 2.03968e-05
-0.000193505 2.03968e-05 0.000776411
0.00271737 -0.000158513 0.000120443
-0.000158513 0.00119188 -1.68409e-05
0.000120443 -1.68409e-05 0.00112846
0.00159243 -4.58921e-05 -7.82789e-05
-4.58921e-05 0.000610417 8.91512e-06
-7.82789e-05 8.91512e-06 0.00058378
0.00138386 -2.99991e-05 3.91825e-05
-2.99991e-05 0.000496904 -5.98325e-06
3.91825e-05 -5.98325e-06 0.000458672
0.00196053 0.000158457 -1.39319e-06
0.000158457 0.000126996 1.35055e-06
-1.39319e-06 1.35055e-06 3.26191e-05
0.00186661 0.000242893 -1.13275e-06
0.000242893 0.000152892 1.96883e-07
-1.13275e-06 1.96883e-07 8.37984e-06
0.00191546 0.000261795 -6.37243e-07
0.000261795 0.00011243 -6.18925e-08
-6.37243e-07 -6.18925e-08 -1.42772e-05
0.00178184 0.000244384 -2.40555e-06
0.000244384 0.000267289 -3.85707e-07
-2.40555e-06 -3.85707e-07 0.00010101
0.00183464 0.000284219 9.1399e-08
0.000284219 0.000171054 -9.79497e-08
9.1399e-08 -9.79497e-08 1.00153e-05
0.00189459 0.000308097 7.10778e-07
0.000308097 0.000113633 2.58157e-07
7.10778e-07 2.58157e-07 -3.29651e-05
0.00100042 0.000168748 -1.42016e-05
0.000168748 -4.22547e-06 -5.26892e-06
-1.42016e-05 -5.26892e-06 -0.000156411
0.00154337 0.000261003 3.12663e-06
0.000261003 0.000166554 5.39164e-07
3.12663e-06 5.39164e-07 -1.5297e-05
0.00170524 0.000316663 3.00451e-08
0.000316663 0.000110683 -2.33955e-06
3.00451e-08 -2.33955e-06 -6.49453e-05
0.000473508 0.000180092 -2.26701e-05
0.000180092 -0.000123667 -1.33933e-05
-2.26701e-05 -1.33933e-05 -0.000223758
0.000942233 0.000181447 -5.72495e-07
0.000181447 -9.18155e-06 1.49344e-07
-5.72495e-07 1.49344e-07 -0.000168734
0.00133193 0.000276229 7.40064e-06
0.000276229 9.50463e-05 1.66398e-06
7.40064e-06 1.66398e-06 -0.000105458
0.00085714 0.000182537 1.20115e-05
0.000182537 -1.67259e-05 6.411e-06
1.20115e-05 6.411e-06 -0.000180721
0.000508414 0.00019943 1.38941e-06
0.00019943 -8.77321e-05 6.72228e-07
1.38941e-06 6.72228e-07 -0.000193453
0.00602328 5.63708e-06 -0.000211678
5.63708e-06 0.00330788 -2.43388e-05
-0.000211678 -2.43388e-05 0.00329248
0.000466692 0.000176563 2.15848e-05
0.000176563 -0.000103288 1.52683e-05
2.15848e-05 1.52683e-05 -0.000200566
0.00568779 -0.000112687 5.02275e-06
-0.000112687 0.00311587 -9.92472e-07
5.02275e-06 -9.92472e-07 0.00309888
0.00478513 -0.000218456 0.000121531
-0.000218456 0.00260062 6.81354e-06
0.000121531 6.81354e-06 0.00256974
0.00187282 0.000102577 -4.20873e-06
0.000102577 4.74278e-05 8.82207e-07
-4.20873e-06 8.82207e-07 -6.38627e-06
0.0019173 0.000147434 1.25858e-06
0.000147434 3.40721e-05 7.42892e-07
1.25858e-06 7.42892e-07 -2.39218e-05
0.00205297 0.000190672 -1.33032e-07
0.000190672 4.29515e-06 -3.39505e-07
-1.33032e-07 -3.39505e-07 -2.46332e-05
0.00201615 0.000262449 2.59285e-06
0.000262449 0.000132183 2.62289e-08
2.59285e-06 2.62289e-08 2.67628e-05
0.00172036 5.12549e-06 -9.76967e-07
5.12549e-06 -3.94461e-06 2.32592e-07
-9.76967e-07 2.32592e-07 -6.76086e-05
0.00191008 4.94465e-05 2.54518e-07
4.94465e-05 4.0668e-05 6.91735e-08
2.54518e-07 6.91735e-08 8.65648e-06
0.00196348 4.61527e-05 1.58151e-06
4.61527e-05 3.26864e-05 -2.30095e-07
1.58151e-06 -2.30095e-07 1.51132e-05
0.00189709 -1.72183e-05 1.72283e-06
-1.72183e-05 3.92709e-05 -6.79017e-07
1.72283e-06 -6.79017e-07 1.12682e-05
0.00183348 -2.92441e-05 -2.17795e-06
-2.92441e-05 5.42111e-05 1.755e-07
-2.17795e-06 1.755e-07 -3.97829e-06
0.0018334 -3.21574e-05 2.25365e-06
-3.21574e-05 0.000114382 -9.54781e-07
2.25365e-06 -9.54781e-07 2.1452e-05
0.00181241 -7.79557e-05 -5.59148e-07
-7.79557e-05 3.40335e-05 1.0096e-06
-5.59148e-07 1.0096e-06 -3.14534e-05
0.00181968 -8.12942e-05 -3.67146e-07
-8.12942e-05 0.000105885 3.09813e-07
-3.67146e-07 3.09813e-07 5.25494e-06
0.001584 -6.06567e-05 -2.248e-06
-6.06567e-05 9.45452e-05 -2.14958e-07
-2.248e-06 -2.14958e-07 -3.01294e-05
0.00182419 -0.000136365 1.89934e-06
-0.000136365 0.000109695 -2.35642e-07
1.89934e-06 -2.35642e-07 -7.38367e-07
0.00153467 -0.000101415 7.97741e-07
-0.000101415 7.74762e-05 -2.59899e-07
7.97741e-07 -2.59899e-07 -5.93814e-05
0.000984101 -6.28906e-05 -1.23098e-05
-6.28906e-05 -4.47276e-05 2.1021e-06
-1.23098e-05 2.1021e-06 -0.000176483
0.00151335 -0.000141912 2.26927e-06
-0.000141912 8.40899e-05 -2.72981e-07
2.26927e-06 -2.72981e-07 -6.27979e-05
0.000994985 -8.89353e-05 -6.70379e-08
-8.89353e-05 -3.07095e-05 1.96983e-07
-6.70379e-08 1.96983e-07 -0.000167047
0.000559309 -8.32761e-05 -1.98441e-05
-8.32761e-05 -0.000123844 5.07658e-06
-1.98441e-05 5.07658e-06 -0.000202621
0.00102118 -0.000109472 1.28403e-05
-0.000109472 -6.93997e-06 -3.49242e-06
1.28403e-05 -3.49242e-06 -0.000146797
0.00158213 -9.51894e-05 4.93952e-05
-9.51894e-05 0.000497745 -3.35272e-06
4.93952e-05 -3.35272e-06 0.00042738
0.00575411 -0.000127047 -0.000251187
-0.000127047 0.00310593 1.63041e-05
-0.000251187 1.63041e-05 0.0031144
0.00269209 -0.000129118 0.000119331
-0.000129118 0.00116586 -1.35613e-05
0.000119331 -1.35613e-05 0.00110636
0.00160704 -5.40887e-05 -7.06112e-05
-5.40887e-05 0.000616142 6.03934e-06
-7.06112e-05 6.03934e-06 0.00058939
0.0013034 -6.7989e-05 5.04764e-05
-6.7989e-05 0.000450409 -7.15038e-06
5.04764e-05 -7.15038e-06 0.000411312
0.00190677 0.00011214 -1.95669e-06
0.00011214 0.000108901 1.69639e-06
-1.95669e-06 1.69639e-06 3.00042e-05
0.00190833 0.000172713 2.16735e-08
0.000172713 0.000161515 1.36969e-06
2.16735e-08 1.36969e-06 4.02439e-05
0.00197042 0.000155278 4.60931e-07
0.000155278 0.000139625 1.21256e-07
4.60931e-07 1.21256e-07 4.46384e-05
0.00160906 0.000196906 -2.69226e-06
0.000196906 0.000126637 -1.55376e-07
-2.69226e-06 -1.55376e-07 -2.66849e-05
0.00183394 0.00023924 3.94991e-07
0.00023924 0.000134229 1.02915e-08
3.94991e-07 1.02915e-08 -9.76456e-06
0.0019305 0.000263521 4.45341e-07
0.000263521 0.000111629 1.18072e-07
4.45341e-07 1.18072e-07 -1.2231e-05
0.000796509 0.000138289 -1.56799e-05
0.000138289 -0.000148651 -4.57986e-06
-1.56799e-05 -4.57986e-06 -0.000294385
0.00179241 0.000244941 2.56651e-06
0.000244941 0.000273253 6.58175e-07
2.56651e-06 6.58175e-07 0.000107113
0.00177212 0.000279117 1.00021e-07
0.000279117 0.000140337 -3.79822e-07
1.00021e-07 -3.79822e-07 -2.18863e-05
0.000463057 0.000131234 -1.95793e-05
0.000131234 -0.000150131 -1.03127e-05
-1.95793e-05 -1.03127e-05 -0.00024116
0.000841397 0.000160834 4.00564e-07
0.000160834 -9.90471e-05 3.07007e-07
4.00564e-07 3.07007e-07 -0.000251567
0.0014071 0.000258045 8.72133e-06
0.000258045 7.9158e-05 1.29855e-06
8.72133e-06 1.29855e-06 -0.000102519
0.00602475 9.04451e-05 -0.000224122
9.04451e-05 0.00328546 -2.39268e-05
-0.000224122 -2.39268e-05 0.00328049
0.00047488 0.000168268 9.6154e-07
0.000168268 -0.000122868 6.81139e-07
9.6154e-07 6.81139e-07 -0.00022379
0.000904697 0.000178085 1.36574e-05
0.000178085 -2.80579e-05 6.2477e-06
1.36574e-05 6.2477e-06 -0.00018702
0.000443643 0.000182841 2.09624e-05
0.000182841 -0.000122397 1.51821e-05
2.09624e-05 1.51821e-05 -0.000229209
0.00590509 -4.51437e-06 9.37685e-06
-4.51437e-06 0.00322761 -3.382e-07
9.37685e-06 -3.382e-07 0.0032194
0.00552287 -0.000147315 0.000173203
-0.000147315 0.00301216 8.94233e-06
0.000173203 8.94233e-06 0.00299695
0.00181352 6.3867e-05 -3.78646e-06
6.3867e-05 5.34217e-05 -3.33667e-07
-3.78646e-06 -3.33667e-07 -1.22809e-05
0.00189209 0.000102042 5.47532e-07
0.000102042 5.50612e-05 6.68976e-07
5.47532e-07 6.68976e-07 5.83165e-07
0.00186943 0.00014732 2.30699e-06
0.00014732 7.06594e-06 3.49506e-07
2.30699e-06 3.49506e-07 -4.88918e-05
0.00171557 5.12239e-06 2.52093e-06
5.12239e-06 4.77288e-05 -7.42413e-07
2.52093e-06 -7.42413e-07 -4.7873e-05
0.00175727 8.79424e-06 3.22861e-07
8.79424e-06 2.12104e-05 2.43875e-07
3.22861e-07 2.43875e-07 -3.92897e-05
0.00188882 4.01239e-05 2.50155e-06
4.01239e-05 2.35999e-05 -2.69107e-07
2.50155e-06 -2.69107e-07 -7.54858e-06
0.00183483 -2.39255e-05 -9.1514e-07
-2.39255e-05 5.67595e-05 7.80102e-07
-9.1514e-07 7.80102e-07 4.30138e-07
0.00179798 -2.9273e-05 9.98673e-07
-2.9273e-05 9.25595e-05 -1.4731e-07
9.98673e-07 -1.4731e-07 -1.7223e-07
0.00176908 -2.32226e-05 -3.16534e-08
-2.32226e-05 0.000213223 -5.88077e-07
-3.16534e-08 -5.88077e-07 9.44552e-05
0.00177219 -8.09757e-05 -2.22965e-06
-8.09757e-05 8.19807e-05 1.04026e-06
-2.22965e-06 1.04026e-06 -2.39104e-05
0.00164352 -6.13728e-05 9.20238e-08
-6.13728e-05 0.000132739 5.5215e-08
9.20238e-08 5.5215e-08 5.84376e-06
0.000818969 -3.19443e-05 -1.36793e-05
-3.19443e-05 -0.000150662 1.26993e-06
-1.36793e-05 1.26993e-06 -0.000278238
0.00152657 -0.000101478 2.72259e-06
-0.000101478 7.0279e-05 -3.54851e-07
2.72259e-06 -3.54851e-07 -6.64655e-05
0.000993508 -5.98837e-05 -5.94877e-08
-5.98837e-05 -4.03108e-05 1.36825e-07
-5.94877e-08 1.36825e-07 -0.000171563
0.00056556 -2.11325e-05 -1.85593e-05
-2.11325e-05 -0.000123731 3.19305e-06
-1.85593e-05 3.19305e-06 -0.000200414
0.0010209 -8.77084e-05 1.24375e-05
-8.77084e-05 -1.68321e-05 -2.5703e-06
1.24375e-05 -2.5703e-06 -0.000152644
0.000564485 -6.67483e-05 -2.07799e-07
-6.67483e-05 -0.000118736 3.83191e-07
-2.07799e-07 3.83191e-07 -0.000198908
0.00575509 -2.17723e-05 -0.000242418
-2.17723e-05 0.0031026 9.88491e-06
-0.000242418 9.88491e-06 0.00311373
0.000598372 -6.92352e-05 1.58136e-05
-6.92352e-05 -9.69273e-05 -6.9715e-06
1.58136e-05 -6.9715e-06 -0.000179747
0.00362586 -8.34034e-05 0.000111191
-8.34034e-05 0.0018302 -4.50442e-06
0.000111191 -4.50442e-06 0.0018143
0.00126403 -7.57401e-05 5.67288e-05
-7.57401e-05 0.000428084 -7.56652e-06
5.67288e-05 -7.56652e-06 0.000387188
0.00180435 9.67256e-05 -2.50412e-06
9.67256e-05 6.75581e-05 1.20298e-07
-2.50412e-06 1.20298e-07 -1.11265e-05
0.00180541 0.000109299 2.10681e-06
0.000109299 0.000105574 2.39655e-06
2.10681e-06 2.39655e-06 -2.52273e-06
0.00192312 0.000108042 1.32388e-07
0.000108042 0.000119357 -2.81118e-07
1.32388e-07 -2.81118e-07 4.19976e-05
0.00154985 0.000141628 -1.57112e-06
0.000141628 7.76458e-05 5.89128e-08
-1.57112e-06 5.89128e-08 -6.52949e-05
0.00188772 0.000171834 5.29045e-07
0.000171834 0.000144666 2.04848e-07
5.29045e-07 2.04848e-07 2.21696e-05
0.0019854 0.000151923 1.11281e-06
0.000151923 0.000155189 -1.33216e-06
1.11281e-06 -1.33216e-06 5.96374e-05
0.000838472 0.000114748 -1.46897e-05
0.000114748 -0.000139377 -3.45123e-06
-1.46897e-05 -3.45123e-06 -0.00027857
0.0016802 0.000197439 2.28658e-07
0.000197439 0.000173302 3.21386e-07
2.28658e-07 3.21386e-07 1.8987e-05
0.00180564 0.000235686 6.97651e-07
0.000235686 0.000118443 -3.70224e-07
6.97651e-07 -3.70224e-07 -2.50118e-05
0.000477946 9.32144e-05 -1.80411e-05
9.32144e-05 -0.000159934 -7.50473e-06
-1.80411e-05 -7.50473e-06 -0.000243716
0.000766953 0.00013691 -2.59876e-06
0.00013691 -0.000165361 -2.91346e-07
-2.59876e-06 -2.91346e-07 -0.000311118
0.00180685 0.00024592 7.66349e-06
0.00024592 0.0002815 1.82721e-06
7.66349e-06 1.82721e-06 0.000115425
0.00595004 0.000164139 -0.00024218
0.000164139 0.0032288 -2.30065e-05
-0.00024218 -2.30065e-05 0.00322978
0.000476811 0.000126572 2.88238e-07
0.000126572 -0.000142953 3.99587e-07
2.88238e-07 3.99587e-07 -0.000234414
0.000691745 0.000153841 1.3944e-05
0.000153841 -0.000188581 5.20921e-06
1.3944e-05 5.20921e-06 -0.000341547
0.00593884 0.00010469 1.29504e-05
0.00010469 0.0032367 1.68964e-06
1.29504e-05 1.68964e-06 0.00323197
0.000462531 0.000156035 1.96229e-05
0.000156035 -0.000130189 1.32508e-05
1.96229e-05 1.32508e-05 -0.000231795
0.00580426 -3.71842e-05 0.000207224
-3.71842e-05 0.00315662 1.36803e-05
0.000207224 1.36803e-05 0.00315512
0.00185258 4.57567e-05 6.33511e-07
4.57567e-05 0.000119302 -4.90444e-07
6.33511e-07 -4.90444e-07 2.56866e-05
0.00182259 6.24613e-05 -1.81589e-06
6.24613e-05 6.73106e-05 2.59653e-07
-1.81589e-06 2.59653e-07 -1.7099e-07
0.0018974 0.000101027 3.8359e-06
0.000101027 5.38007e-05 2.38242e-07
3.8359e-06 2.38242e-07 -1.29027e-06
0.00176217 -1.96123e-06 9.98044e-07
-1.96123e-06 0.000216023 -4.47613e-07
9.98044e-07 -4.47613e-07 9.95034e-05
0.00169166 4.64603e-06 -3.93418e-08
4.64603e-06 3.0359e-05 -2.69714e-08
-3.93418e-08 -2.69714e-08 -6.2958e-05
0.00180223 1.38577e-05 3.04145e-06
1.38577e-05 5.06043e-05 3.29215e-07
3.04145e-06 3.29215e-07 -6.68796e-06
0.00176132 -2.68279e-05 -3.83426e-07
-2.68279e-05 7.01949e-05 7.35091e-07
-3.83426e-07 7.35091e-07 -2.23584e-05
0.00176154 -2.30406e-05 2.80243e-06
-2.30406e-05 0.000207854 -2.78057e-07
2.80243e-06 -2.78057e-07 8.90311e-05
0.000829757 -1.08277e-05 -1.31841e-05
-1.08277e-05 -0.000141108 5.62575e-07
-1.31841e-05 5.62575e-07 -0.000265572
0.00170734 -6.23112e-05 2.41847e-06
-6.23112e-05 0.000173374 8.73047e-08
2.41847e-06 8.73047e-08 4.42497e-05
0.000909869 -3.18015e-05 -2.0323e-06
-3.18015e-05 -9.56334e-05 1.59373e-07
-2.0323e-06 1.59373e-07 -0.000223048
0.000566753 -6.77541e-06 -1.87987e-05
-6.77541e-06 -0.000125534 2.04326e-06
-1.87987e-05 2.04326e-06 -0.000200423
0.00100669 -5.80447e-05 1.19486e-05
-5.80447e-05 -3.31944e-05 -1.80999e-06
1.19486e-05 -1.80999e-06 -0.000164055
0.000544846 -3.23481e-05 8.76029e-07
-3.23481e-05 -0.000137403 -8.09237e-08
8.76029e-07 -8.09237e-08 -0.000212849
0.00568504 -0.000119493 -0.000250324
-0.000119493 0.00307021 1.05783e-05
-0.000250324 1.05783e-05 0.00307771
0.000538144 -4.99877e-05 1.79163e-05
-4.99877e-05 -0.000134494 -3.92306e-06
1.79163e-05 -3.92306e-06 -0.000214435
0.00572973 -5.80737e-05 7.68413e-06
-5.80737e-05 0.00308854 -5.82867e-08
7.68413e-06 -5.82867e-08 0.00309983
0.00160804 -2.31028e-05 0.000199223
-2.31028e-05 0.000608224 -1.13797e-05
0.000199223 -1.13797e-05 0.000595846
0.00170193 7.67825e-05 2.16891e-06
7.67825e-05 4.02098e-05 4.76045e-07
2.16891e-06 4.76045e-07 -6.36152e-05
0.00177726 9.9718e-05 -3.24656e-06
9.9718e-05 4.82031e-05 -1.01662e-06
-3.24656e-06 -1.01662e-06 -2.77704e-05
0.0015447 8.97328e-05 -6.12361e-07
8.97328e-05 7.45559e-05 2.74867e-07
-6.12361e-07 2.74867e-07 -5.75371e-05
0.00181057 0.000108475 6.90213e-07
0.000108475 0.000106586 2.03239e-07
6.90213e-07 2.03239e-07 -1.62604e-06
0.00195254 0.000104339 1.01309e-06
0.000104339 0.000137668 -2.91115e-06
1.01309e-06 -2.91115e-06 6.18402e-05
0.00105099 8.78446e-05 -1.25703e-05
8.78446e-05 -1.35781e-05 -2.35005e-06
-1.25703e-05 -2.35005e-06 -0.000145029
0.00154708 0.000141094 1.2547e-07
0.000141094 7.822e-05 6.43073e-08
1.2547e-07 6.43073e-08 -6.48629e-05
0.00186362 0.000170822 6.28573e-07
0.000170822 0.000125992 -8.32786e-07
6.28573e-07 -8.32786e-07 2.26911e-06
0.000507288 6.65399e-05 -1.76106e-05
6.65399e-05 -0.000154817 -5.38114e-06
-1.76106e-05 -5.38114e-06 -0.000234584
0.000905543 0.000117422 -2.7689e-06
0.000117422 -9.72201e-05 -2.10244e-07
-2.7689e-06 -2.10244e-07 -0.000236345
0.00175469 0.00019787 3.8084e-06
0.00019787 0.000222262 1.03803e-06
3.8084e-06 1.03803e-06 6.69895e-05
0.0058839 0.000203322 -0.000260566
0.000203322 0.0031924 -2.20564e-05
-0.000260566 -2.20564e-05 0.00319245
0.000504902 9.32227e-05 -2.27795e-09
9.32227e-05 -0.000144964 1.67946e-07
-2.27795e-09 1.67946e-07 -0.000228965
0.000737784 0.000135588 9.92615e-06
0.000135588 -0.000182109 3.76452e-06
9.92615e-06 3.76452e-06 -0.000327831
0.0059073 0.000184824 1.0871e-05
0.000184824 0.00321333 3.27107e-06
1.0871e-05 3.27107e-06 0.00320969
0.000493629 0.000120246 1.84955e-05
0.000120246 -0.000134498 1.03717e-05
1.84955e-05 1.03717e-05 -0.000225942
0.00589221 0.000100619 0.000232263
0.000100619 0.00319803 2.01954e-05
0.000232263 2.01954e-05 0.00320073
0.00174355 3.21676e-05 2.0085e-06
3.21676e-05 0.000203006 -3.72537e-08
2.0085e-06 -3.72537e-08 8.57491e-05
0.00179707 4.14425e-05 -1.7671e-06
4.14425e-05 8.96182e-05 9.68036e-08
-1.7671e-06 9.68036e-08 -5.60441e-06
0.00181653 6.04427e-05 -2.34826e-07
6.04427e-05 7.2483e-05 8.74278e-09
-2.34826e-07 8.74278e-09 3.16176e-06
0.000828631 -7.30541e-06 -1.37245e-05
-7.30541e-06 -0.0001342 -1.22691e-07
-1.37245e-05 -1.22691e-07 -0.00025732
0.00176355 4.01219e-06 3.2815e-06
4.01219e-06 0.000216675 -2.15354e-07
3.2815e-06 -2.15354e-07 0.000100074
0.0016616 4.01318e-06 -1.30936e-06
4.01318e-06 9.26846e-06 6.55637e-07
-1.30936e-06 6.55637e-07 -8.17373e-05
0.00176002 -2.3233e-05 5.42839e-06
-2.3233e-05 0.000206141 7.85105e-08
5.42839e-06 7.85105e-08 8.72623e-05
0.000823151 -1.10734e-05 -1.46495e-06
-1.10734e-05 -0.000145921 9.51467e-08
-1.46495e-06 9.51467e-08 -0.000270568
0.00056826 -3.00712e-05 -1.91856e-05
-3.00712e-05 -0.000125409 8.8074e-07
-1.91856e-05 8.8074e-07 -0.000198029
0.000982399 -3.08066e-05 1.04438e-05
-3.08066e-05 -5.14231e-05 -1.20563e-06
1.04438e-05 -1.20563e-06 -0.0001787
0.000546975 4.24367e-06 3.2842e-07
4.24367e-06 -0.000137826 4.27829e-08
3.2842e-07 4.27829e-08 -0.000211966
0.00568407 -9.52844e-05 -0.000255503
-9.52844e-05 0.00306784 7.57511e-06
-0.000255503 7.57511e-06 0.00307769
0.000554798 -3.70141e-05 1.87524e-05
-3.70141e-05 -0.000129614 -2.64368e-06
1.87524e-05 -2.64368e-06 -0.000206173
0.00570621 -1.35116e-05 -3.04815e-06
-1.35116e-05 0.00307341 1.83979e-06
-3.04815e-06 1.83979e-06 0.00308661
0.00572992 -7.52435e-05 0.000250098
-7.52435e-05 0.0030877 -9.35661e-06
0.000250098 -9.35661e-06 0.00309998
0.0015097 5.34168e-05 -4.34851e-07
5.34168e-05 5.94347e-05 5.37098e-08
-4.34851e-07 5.37098e-08 -6.70806e-05
0.00176248 7.95431e-05 -1.86672e-06
7.95431e-05 7.3618e-05 -1.31303e-06
-1.86672e-06 -1.31303e-06 -2.55026e-05
0.00177197 0.000103499 -3.30618e-06
0.000103499 4.24052e-05 -2.1045e-06
-3.30618e-06 -2.1045e-06 -3.08082e-05
0.00105065 5.21374e-05 -1.22807e-05
5.21374e-05 -1.07132e-05 -1.82517e-06
-1.22807e-05 -1.82517e-06 -0.000136506
0.00153123 8.92008e-05 2.02606e-07
8.92008e-05 6.75767e-05 -1.18792e-08
2.02606e-07 -1.18792e-08 -6.48941e-05
0.00181568 0.000107575 -5.34531e-07
0.000107575 0.000107767 -1.78239e-06
-5.34531e-07 -1.78239e-06 -5.48689e-07
0.000533631 4.22936e-05 -1.72431e-05
4.22936e-05 -0.000143621 -3.85652e-06
-1.72431e-05 -3.85652e-06 -0.000220795
0.0010182 8.90639e-05 2.69719e-07
8.90639e-05 -3.30442e-05 2.35388e-07
2.69719e-07 2.35388e-07 -0.000165122
0.00154479 0.000140607 2.20814e-06
0.000140607 7.86665e-05 1.22032e-07
2.20814e-06 1.22032e-07 -6.45761e-05
0.00579791 0.000187822 -0.00027194
0.000187822 0.00314294 -1.88957e-05
-0.00027194 -1.88957e-05 0.00314493
0.000535251 7.02255e-05 3.39877e-07
7.02255e-05 -0.000138085 1.62889e-07
3.39877e-07 1.62889e-07 -0.000218496
0.000970802 0.000120076 9.94015e-06
0.000120076 -5.63582e-05 3.13542e-06
9.94015e-06 3.13542e-06 -0.000195376
0.00587632 0.000217052 6.36641e-06
0.000217052 0.00319437 2.88813e-06
6.36641e-06 2.88813e-06 0.00319177
0.000535284 9.47356e-05 1.78156e-05
9.47356e-05 -0.000127184 7.9476e-06
1.78156e-05 7.9476e-06 -0.000211663
0.00589086 0.000209024 0.000250184
0.000209024 0.00320496 2.55955e-05
0.000250184 2.55955e-05 0.00320096
0.00100151 1.57081e-05 -1.28937e-05
1.57081e-05 -2.66992e-05 -7.25256e-07
-1.28937e-05 -7.25256e-07 -0.000149389
0.00165386 2.78784e-05 3.76121e-06
2.78784e-05 0.00014948 8.06453e-08
3.76121e-06 8.06453e-08 3.22632e-05
0.00174405 3.66525e-05 -4.47251e-06
3.66525e-05 6.11606e-05 2.57297e-07
-4.47251e-06 2.57297e-07 -3.57029e-05
0.000599982 3.05234e-05 -1.97401e-05
3.05234e-05 -0.000114337 -5.10119e-07
-1.97401e-05 -5.10119e-07 -0.000179955
0.000805273 -1.61318e-06 -1.67974e-06
-1.61318e-06 -0.000148992 5.98227e-08
-1.67974e-06 5.98227e-08 -0.000272249
0.00176216 1.06764e-05 5.58591e-06
1.06764e-05 0.000215599 1.62911e-07
5.58591e-06 1.62911e-07 9.88962e-05
0.000813414 -1.08973e-05 1.03187e-05
-1.08973e-05 -0.000152727 -4.30316e-07
1.03187e-05 -4.30316e-07 -0.000277539
0.0005641 -4.81222e-06 2.88368e-07
-4.81222e-06 -0.000127677 3.4595e-07
2.88368e-07 3.4595e-07 -0.000200555
0.00564371 3.49418e-05 -0.000260201
3.49418e-05 0.00303898 -2.16739e-07
-0.000260201 -2.16739e-07 0.00305316
0.000524727 1.57716e-05 1.82865e-05
1.57716e-05 -0.000152259 -1.23859e-06
1.82865e-05 -1.23859e-06 -0.000225296
0.00565952 -9.3942e-05 -7.79632e-06
-9.3942e-05 0.00305411 1.61595e-06
-7.79632e-06 1.61595e-06 0.00306356
0.00566077 5.82379e-06 0.000240251
5.82379e-06 0.00304665 -4.29867e-06
0.000240251 -4.29867e-06 0.0030596
0.00102329 2.82312e-05 -1.26775e-05
2.82312e-05 -1.92077e-05 -1.42779e-06
-1.26775e-05 -1.42779e-06 -0.000142348
0.001522 5.24002e-05 -1.82198e-07
5.24002e-05 6.70061e-05 -1.02591e-07
-1.82198e-07 -1.02591e-07 -5.67981e-05
0.00182328 8.20142e-05 -4.53463e-06
8.20142e-05 0.000107031 -2.17572e-06
-4.53463e-06 -2.17572e-06 1.26316e-05
0.00263008 5.30875e-05 -0.000123955
5.30875e-05 0.00111348 -4.0726e-06
-0.000123955 -4.0726e-06 0.0010646
0.00101376 5.40129e-05 2.90779e-07
5.40129e-05 -3.33143e-05 1.04117e-07
2.90779e-07 1.04117e-07 -0.000159577
0.00151785 8.85955e-05 1.9443e-06
8.85955e-05 6.06215e-05 -1.47571e-07
1.9443e-06 -1.47571e-07 -7.22401e-05
0.00571062 0.000144632 -0.000273154
0.000144632 0.00308764 -1.38912e-05
-0.000273154 -1.38912e-05 0.00309453
0.000569168 6.00113e-05 8.27883e-07
6.00113e-05 -0.000120389 3.61554e-07
8.27883e-07 3.61554e-07 -0.000199234
0.000988269 9.03721e-05 1.24507e-05
9.03721e-05 -5.07327e-05 2.76643e-06
1.24507e-05 2.76643e-06 -0.000183417
0.00584671 0.000200084 1.83875e-06
0.000200084 0.00317386 1.65938e-06
1.83875e-06 1.65938e-06 0.00317484
0.000573901 7.6718e-05 1.8096e-05
7.6718e-05 -0.000113857 6.24184e-06
1.8096e-05 6.24184e-06 -0.000195543
0.00586764 0.000245638 0.000262184
0.000245638 0.00319866 2.69642e-05
0.000262184 2.69642e-05 0.00319098
0.000649287 9.89492e-06 -1.63186e-05
9.89492e-06 -7.43632e-05 -1.81931e-06
-1.63186e-05 -1.81931e-06 -0.000148388
0.000896895 1.42165e-05 6.20137e-07
1.42165e-05 -9.08958e-05 2.64006e-07
6.20137e-07 2.64006e-07 -0.000213834
0.0015628 2.28766e-05 4.71467e-06
2.28766e-05 9.49411e-05 1.37511e-07
4.71467e-06 1.37511e-07 -2.21891e-05
0.00552133 -9.4969e-05 -0.000244435
-9.4969e-05 0.00298213 1.60514e-06
-0.000244435 1.60514e-06 0.00298637
0.000559848 8.1149e-06 -5.40272e-07
8.1149e-06 -0.000133712 9.90271e-08
-5.40272e-07 9.90271e-08 -0.000201942
0.000797464 3.30912e-06 1.02325e-05
3.30912e-06 -0.000154742 1.07003e-07
1.02325e-05 1.07003e-07 -0.000278087
0.000524371 2.06971e-05 1.85048e-05
2.06971e-05 -0.00015212 1.54497e-07
1.85048e-05 1.54497e-07 -0.000224307
0.00559911 -8.19116e-07 2.40151e-06
-8.19116e-07 0.00301692 -1.05851e-06
2.40151e-06 -1.05851e-06 0.00302757
0.00566632 -1.07684e-05 0.000249149
-1.07684e-05 0.00304828 -2.42281e-06
0.000249149 -2.42281e-06 0.00306271
0.00270795 9.54869e-06 -0.000120357
9.54869e-06 0.00115706 -2.49914e-06
-0.000120357 -2.49914e-06 0.0011098
0.00101482 3.12849e-05 5.33595e-08
3.12849e-05 -2.60201e-05 7.65316e-08
5.33595e-08 7.65316e-08 -0.000149493
0.00152807 5.15501e-05 1.70361e-06
5.15501e-05 7.11295e-05 -2.45675e-07
1.70361e-06 -2.45675e-07 -4.99552e-05
0.0052879 -5.17648e-05 -9.10504e-05
-5.17648e-05 0.00284534 5.26036e-07
-9.10504e-05 5.26036e-07 0.00283194
0.000585683 5.24296e-05 7.41884e-08
5.24296e-05 -0.00011164 2.06959e-07
7.41884e-08 2.06959e-07 -0.000187125
0.00099414 5.64542e-05 1.21755e-05
5.64542e-05 -4.62107e-05 2.06537e-06
1.21755e-05 2.06537e-06 -0.000172882
0.00576661 0.000116351 -1.07272e-05
0.000116351 0.00311644 -1.34258e-06
-1.07272e-05 -1.34258e-06 0.00312494
0.000601478 8.25568e-05 1.95407e-05
8.25568e-05 -0.000100511 5.20575e-06
1.95407e-05 5.20575e-06 -0.000180078
0.00586716 0.000224251 0.000272837
0.000224251 0.0031934 2.43848e-05
0.000272837 2.43848e-05 0.00319091
0.00168783 -5.10952e-05 -0.000203434
-5.10952e-05 0.000651475 8.38211e-07
-0.000203434 8.38211e-07 0.000644725
0.00164483 2.70495e-05 -5.05605e-05
2.70495e-05 0.000516465 2.08356e-07
-5.05605e-05 2.08356e-07 0.000460453
0.000788629 1.52202e-05 1.24748e-05
1.52202e-05 -0.000156929 9.75853e-07
1.24748e-05 9.75853e-07 -0.000280185
0.00558897 -4.17332e-05 7.5786e-06
-4.17332e-05 0.00301686 1.62906e-06
7.5786e-06 1.62906e-06 0.00302559
0.00057643 -1.25559e-05 1.90719e-05
-1.25559e-05 -0.000118191 7.98267e-07
1.90719e-05 7.98267e-07 -0.000189867
0.00563991 -6.7515e-05 0.000263537
-6.7515e-05 0.0030428 -2.62777e-06
0.000263537 -2.62777e-06 0.00305386
0.00127302 1.42633e-05 -4.41254e-05
1.42633e-05 0.000427004 -7.34368e-07
-4.41254e-05 -7.34368e-07 0.000392486
0.00163301 1.38882e-05 -5.09211e-05
1.38882e-05 0.000513207 -7.91856e-07
-5.09211e-05 -7.91856e-07 0.000453952
0.000995623 3.29625e-05 1.2408e-05
3.29625e-05 -3.89797e-05 1.63048e-06
1.2408e-05 1.63048e-06 -0.000162814
0.00349634 5.44542e-05 9.68736e-05
5.44542e-05 0.0017526 2.41303e-06
9.68736e-05 2.41303e-06 0.00174217
0.000593713 6.28877e-05 1.98096e-05
6.28877e-05 -0.000106799 4.00538e-06
1.98096e-05 4.00538e-06 -0.000182303
0.00582502 0.000105267 0.000260967
0.000105267 0.00314537 1.47085e-05
0.000260967 1.47085e-05 0.00315699
0.00554166 -2.11482e-05 -8.92859e-06
-2.11482e-05 0.00299116 -2.24888e-06
-8.92859e-06 -2.24888e-06 0.00299894
0.000576199 4.53901e-05 2.05072e-05
4.53901e-05 -0.000127366 2.0988e-06
2.05072e-05 2.0988e-06 -0.000192684
0.00550529 4.73555e-05 0.00025085
4.73555e-05 0.00296342 1.31538e-07
0.00025085 1.31538e-07 0.00297516
0.0034291 2.75823e-05 0.000110316
2.75823e-05 0.0017162 3.63949e-06
0.000110316 3.63949e-06 0.00170641
0.000605745 5.76777e-06 1.8989e-05
5.76777e-06 -0.000101019 2.68697e-06
1.8989e-05 2.68697e-06 -0.000173131
0.00568838 -1.92808e-05 0.000251318
-1.92808e-05 0.00306595 6.43261e-06
0.000251318 6.43261e-06 0.00307752
0.00557694 -0.000125039 0.000247125
-0.000125039 0.00301762 -3.29971e-06
0.000247125 -3.29971e-06 0.00302063
0.00556012 -5.61151e-06 0.000246787
-5.61151e-06 0.00298756 3.46063e-06
0.000246787 3.46063e-06 0.00300231
