# vtk DataFile Version 2.0
Wound Healing Simulation
ASCII
DATASET UNSTRUCTURED_GRID
POINTS 3012 float
69.9759 18.75 4
67.2507 60.3285 4
69.976 18.75 2
73.0099 25.446 4
71.1327 20.9142 4
68.6801 16.6661 4
67.8257 19.9261 3.98298
67.2507 60.3286 2
71.1327 54.0858 4
68.6801 58.3339 4
65.6939 62.2254 4
65.3123 59.0014 3.98257
74.6784 42.3946 4
73.7221 47.2057 4
69.9759 18.75 0
73.0099 25.446 2
68.6801 16.6661 2
71.1327 20.9142 2
67.8262 19.929 2
74.6792 32.6053 4
73.7222 27.7943 4
72.1454 23.1494 4
70.6143 26.2209 3.98272
68.8859 21.958 3.98347
67.2507 14.6715 4
66.6371 17.972 3.98204
65.7969 21.0255 3.97397
67.2507 60.3285 0
71.1327 54.0858 2
68.6801 58.3339 2
65.694 62.2255 2
65.3134 58.9981 2
72.1454 51.8506 4
69.9759 56.25 4
68.8365 53.113 3.98252
64.0165 64.0165 4
66.6107 57.1338 3.98254
63.8859 60.7663 3.98473
63.4999 57.7707 3.97453
60.3285 67.2507 4
74.6792 42.3947 2
73.7222 47.2057 2
74.9194 39.9526 4
74.2788 44.8158 4
72.1683 42.0856 3.98159
73.0099 49.554 4
71.2494 46.5981 3.98167
73.0099 25.446 0
71.1327 20.9142 0
68.6801 16.6661 0
67.8257 19.9261 0.0170214
74.6792 32.6053 2
73.7222 27.7943 2
67.2508 14.6715 2
72.1455 23.1494 2
70.6144 26.2213 2
66.6378 17.9754 2
68.8862 21.96 2
65.7963 21.026 2
74.9197 35.0474 4
74.2794 30.1841 4
72.185 32.9432 3.98197
71.2784 28.4312 3.98212
69.8158 24.0596 3.98329
68.3468 26.9512 3.97247
66.7624 22.9332 3.97332
65.694 12.7746 4
65.3238 16.1034 3.983
64.713 19.196 3.97397
63.885 22.0368 3.96979
71.1327 54.0858 0
65.6939 62.2254 0
68.6801 58.3339 0
65.3123 59.0014 0.0174315
72.1455 51.8506 2
69.9759 56.25 2
68.8367 53.1111 2
64.0165 64.0165 2
66.6115 57.1304 2
63.8875 60.7638 2
63.4995 57.7709 2
62.2254 65.694 4
58.8949 65.4143 3.99138
69.7691 50.9889 3.98244
67.7838 55.1673 3.98243
66.6491 52.209 3.9723
62.3364 62.4278 3.98754
64.6603 56.0309 3.97417
62.2026 59.4036 3.97623
61.8203 56.6778 3.96971
58.3339 68.6801 4
60.3285 67.2508 2
73.7221 47.2057 0
74.6784 42.3946 0
74.9197 39.9526 2
74.2794 44.8159 2
72.168 42.0856 2
73.0099 49.554 2
71.2494 46.5979 2
75 37.5 4
72.4055 39.8022 3.98184
71.7827 44.3529 3.98173
69.8038 41.7894 3.97156
70.5753 48.8136 3.98202
68.9121 46.0146 3.97146
74.6792 32.6053 0
73.7222 27.7943 0
67.2507 14.6715 0
72.1454 23.1494 0
70.6143 26.2209 0.0172751
68.8859 21.958 0.0165259
66.6371 17.972 0.0179592
65.7969 21.0255 0.0260348
74.9197 35.0474 2
74.2794 30.1841 2
72.1846 32.9434 2
71.2783 28.4316 2
65.694 12.7745 2
65.3251 16.1064 2
69.8159 24.0606 2
68.3468 26.9514 2
64.7124 19.1962 2
66.762 22.9337 2
63.8844 22.0369 2
72.4134 35.2241 3.98194
71.804 30.6762 3.98206
69.8399 33.268 3.97201
68.966 29.0379 3.97217
67.6112 24.9118 3.97281
66.1932 27.6348 3.96885
64.0165 10.9835 4
64.7549 23.8308 3.96945
63.8905 14.3268 3.98579
63.5126 17.4483 3.97501
62.9038 20.3236 3.96977
62.0884 22.9467 3.96828
60.6842 11.0976 3.98842
57.6123 11.4482 3.9811
72.1454 51.8506 0
69.9759 56.25 0
68.8365 53.113 0.0174802
64.0165 64.0165 0
63.8859 60.7663 0.015274
66.6107 57.1338 0.0174602
63.4999 57.7707 0.0254691
62.2255 65.694 2
58.8958 65.414 2
69.7691 50.9879 2
67.7842 55.1644 2
66.6487 52.2084 2
62.3379 62.4262 2
64.6598 56.0308 2
62.2025 59.4045 2
61.8197 56.6785 2
60.6691 63.9772 3.98955
57.0258 66.7349 3.99207
57.5582 63.6919 3.98367
67.5073 50.1766 3.97171
65.7014 54.1728 3.97288
64.5357 51.3839 3.96819
60.7731 60.9375 3.97922
62.8174 55.0651 3.9699
60.6563 58.1562 3.9707
60.3222 55.7786 3.96936
56.25 69.9759 4
58.3339 68.6801 2
60.3285 67.2507 0
58.9214 9.65587 3.98946
62.2254 9.30607 4
73.0099 49.554 0
74.2788 44.8158 0
71.2494 46.5981 0.0183299
72.1683 42.0856 0.018411
74.9194 39.9526 0
75 37.5 2
72.4054 39.8024 2
71.7826 44.3527 2
69.8035 41.7892 2
70.5753 48.8132 2
68.912 46.0142 2
72.4889 37.512 3.98171
70.041 39.6571 3.97154
69.4302 43.9073 3.97152
67.5961 41.4968 3.96873
68.2657 48.107 3.9715
66.7084 45.4389 3.96829
74.9197 35.0474 0
74.2794 30.1841 0
72.185 32.9432 0.0180311
71.2784 28.4312 0.0178787
65.694 12.7746 0
65.3238 16.1034 0.016999
69.8158 24.0596 0.0167058
68.3468 26.9512 0.0275251
66.7624 22.9332 0.0266806
64.713 19.196 0.026031
63.885 22.0368 0.030208
72.4133 35.2241 2
71.804 30.6765 2
69.8395 33.2683 2
68.966 29.0381 2
64.0165 10.9835 2
63.892 14.3291 2
63.5123 17.4479 2
67.611 24.9122 2
66.1931 27.6349 2
62.9032 20.3235 2
64.7544 23.8308 2
62.0878 22.9468 2
60.6856 11.099 2
57.6126 11.4474 2
70.0577 35.3916 3.97181
69.4669 31.1492 3.97188
67.6544 33.5908 3.96898
66.7709 29.6229 3.96874
65.5225 25.6996 3.9691
64.1363 28.2578 3.96921
62.342 12.6548 3.9874
62.852 24.64 3.96858
62.1993 15.7854 3.97833
61.81 18.6895 3.96896
61.2112 21.347 3.96746
60.4106 23.7349 3.96851
59.2464 12.7798 3.97978
55.8744 10.2342 3.98303
56.4048 13.117 3.9772
69.7691 50.9889 0.017558
62.2254 65.694 0
58.8949 65.4143 0.00861652
67.7838 55.1673 0.0175694
66.6491 52.209 0.0277039
62.3364 62.4278 0.012457
62.2026 59.4036 0.0237714
64.6603 56.0309 0.0258327
61.8203 56.6778 0.0302884
60.6703 63.9763 2
57.0264 66.7348 2
57.5584 63.6933 2
67.507 50.1761 2
65.7009 54.1723 2
64.5352 51.3838 2
60.7732 60.9389 2
62.8169 55.0657 2
60.6561 58.1572 2
60.3219 55.7786 2
55.0714 67.9319 3.99244
59.2193 62.3659 3.98068
55.8052 64.9102 3.98653
56.3265 62.089 3.97906
65.3301 49.4071 3.96806
63.7033 53.2904 3.96848
62.4314 50.647 3.96733
59.3324 59.5548 3.97495
61.0709 54.3032 3.96896
59.2844 57.0034 3.9683
59.2337 55.1724 3.97016
48.1031 68.5785 3.98827
50.9491 69.9315 3.99266
54.0858 71.1327 4
56.25 69.976 2
58.3339 68.6801 0
57.0588 8.33585 3.9903
60.3285 7.74928 4
58.9227 9.65678 2
62.2255 9.30602 2
70.5753 48.8136 0.0179776
71.7827 44.3529 0.0182722
68.9121 46.0146 0.0285415
69.8038 41.7894 0.0284423
72.4055 39.8022 0.0181551
75 37.5 0
72.4886 37.5121 2
70.0409 39.657 2
69.4301 43.907 2
67.5959 41.4966 2
68.2657 48.1065 2
66.7083 45.4387 2
70.1291 37.5213 3.97179
67.8334 39.5118 3.96884
67.2223 43.469 3.96847
65.5347 41.2073 3.97019
66.0672 47.417 3.96818
64.6349 44.8444 3.96912
72.4134 35.2241 0.0180553
71.804 30.6762 0.0179387
69.8399 33.268 0.0279947
68.966 29.0379 0.0278255
64.0165 10.9835 0
63.8905 14.3268 0.0142075
63.5126 17.4483 0.0249853
67.6112 24.9118 0.0271908
66.1932 27.6348 0.0311522
64.7549 23.8308 0.0305466
62.9038 20.3236 0.0302269
62.0884 22.9467 0.0317212
60.6842 11.0976 0.011578
57.6123 11.4482 0.0188993
70.0577 35.3918 2
69.4668 31.1494 2
67.6541 33.5909 2
66.7709 29.623 2
62.3434 12.6567 2
62.199 15.7847 2
61.8097 18.6888 2
65.5223 25.6997 2
64.1358 28.2579 2
61.2106 21.347 2
62.8514 24.6401 2
60.4106 23.7351 2
59.2465 12.7792 2
56.4046 13.116 2
55.8746 10.2333 2
67.8696 35.5473 3.96906
67.264 31.6224 3.96878
65.683 33.928 3.97035
64.6503 30.1941 3.96932
63.5305 26.4168 3.96893
62.2274 28.7836 3.97224
60.7757 14.2242 3.97967
61.0273 25.3447 3.97001
60.6109 17.131 3.97339
60.2131 19.8247 3.96529
59.6431 22.2675 3.96595
58.95 24.3315 3.97045
54.0376 9.13655 3.98447
57.9099 14.3352 3.97811
54.7865 12.0154 3.97873
55.3111 14.6531 3.9758
67.5073 50.1766 0.0282943
57.0258 66.7349 0.00792537
60.6691 63.9772 0.010452
57.5582 63.6919 0.0163346
65.7014 54.1728 0.0271162
64.5357 51.3839 0.0318083
60.7731 60.9375 0.0207828
60.6563 58.1562 0.0292965
62.8174 55.0651 0.0300976
60.3222 55.7786 0.0306372
55.0719 67.9319 2
59.2194 62.3672 2
55.8051 64.9113 2
56.3265 62.0904 2
65.3299 49.407 2
63.7027 53.2904 2
62.4319 50.647 2
59.3324 59.5563 2
61.0707 54.3032 2
59.2845 57.0031 2
59.2334 55.1722 2
53.0433 68.9997 3.99256
53.9676 66.013 3.98758
57.88 60.8684 3.9776
54.684 63.2072 3.98234
55.2101 60.6129 3.97685
63.1786 48.656 3.96793
61.7345 52.5702 3.96715
60.2392 50.0072 3.9686
58.0148 58.2561 3.97112
59.3172 53.9366 3.96791
58.1171 55.7979 3.966
50.1099 67.8566 3.98816
47.4635 66.5806 3.98541
46.0567 69.1577 3.9883
48.1031 68.5791 2
48.8032 70.7228 3.99276
50.9495 69.9316 2
51.8506 72.1454 4
54.0858 71.1327 2
56.25 69.9759 0
55.1034 7.14035 3.99114
58.3339 6.31992 4
57.0598 8.33629 2
60.3286 7.74926 2
58.9214 9.65587 0.0105356
62.2254 9.30607 0
68.2657 48.107 0.0285041
69.4302 43.9073 0.0284775
66.7084 45.4389 0.0317132
67.5961 41.4968 0.0312738
70.041 39.6571 0.0284632
72.4889 37.512 0.018289
70.1289 37.5212 2
67.8334 39.5117 2
67.2222 43.4689 2
65.5342 41.2072 2
66.0672 47.4168 2
64.6344 44.8443 2
67.9299 37.5216 3.96907
65.7668 39.3686 3.97046
65.1588 43.0221 3.96973
63.7009 40.9252 3.973
63.9458 46.7119 3.96848
62.7633 44.2089 3.97257
70.0577 35.3916 0.0281916
69.4669 31.1492 0.0281159
67.6544 33.5908 0.0310242
66.7709 29.6229 0.0312643
62.342 12.6548 0.0126024
62.1993 15.7854 0.0216732
61.81 18.6895 0.0310409
65.5225 25.6996 0.0308964
64.1363 28.2578 0.0307913
62.852 24.64 0.0314187
61.2112 21.347 0.0325378
60.4106 23.7349 0.0314875
59.2464 12.7798 0.0202191
56.4048 13.117 0.0227974
55.8744 10.2342 0.0169675
67.8695 35.5473 2
67.2639 31.6225 2
65.6828 33.928 2
64.6498 30.1941 2
60.7756 14.2236 2
60.6106 17.1298 2
60.2131 19.8243 2
63.5302 26.4168 2
62.2265 28.7838 2
59.6449 22.2674 2
61.0268 25.3449 2
58.9494 24.332 2
57.9093 14.3343 2
55.3106 14.6523 2
54.0378 9.13576 2
54.7864 12.0142 2
65.8569 35.6668 3.97042
65.1683 32.1559 3.96973
64.2446 34.2507 3.97283
62.5472 30.641 3.97271
61.6219 27.0793 3.97083
60.798 29.1485 3.97548
59.31 15.6715 3.9771
59.2886 25.8081 3.97326
59.1173 18.3632 3.96993
58.7214 20.8652 3.96447
58.255 23.105 3.96641
57.9245 24.679 3.97227
52.1123 8.1544 3.98568
53.0581 11.0201 3.98053
56.6748 15.7483 3.97711
53.8085 13.6875 3.97638
54.3735 16.0085 3.97699
55.0714 67.9319 0.00755845
65.3301 49.4071 0.0319366
55.8052 64.9102 0.013474
59.2193 62.3659 0.0193204
56.3265 62.089 0.0209425
63.7033 53.2904 0.0315217
62.4314 50.647 0.032674
59.3324 59.5548 0.0250544
59.2844 57.0034 0.0317045
61.0709 54.3032 0.0310446
59.2337 55.1724 0.0298444
53.0437 68.9998 2
53.9675 66.0137 2
57.8798 60.8696 2
54.6839 63.2084 2
55.2101 60.6145 2
63.1783 48.6559 2
61.7348 52.5702 2
60.239 50.0069 2
58.0146 58.258 2
59.3173 53.9363 2
58.1167 55.7973 2
52.071 66.9996 3.98799
52.9538 64.2186 3.98435
56.6462 59.4851 3.97548
53.6807 61.6209 3.9797
54.2575 59.3152 3.97564
60.945 47.8688 3.96929
59.685 52.0932 3.96797
57.9648 49.5986 3.97067
56.7698 56.973 3.96804
57.1012 54.1052 3.96677
50.1098 67.8571 2
49.3374 65.921 3.98528
47.4634 66.5811 2
46.8929 64.7353 3.98382
45.5585 67.0977 3.98544
43.9735 69.59 3.98834
46.0567 69.1583 2
46.6098 71.3673 3.99274
48.1031 68.5785 0.0117334
48.8036 70.723 2
49.554 73.0099 4
50.9491 69.9315 0.0073366
51.8506 72.1455 2
54.0858 71.1327 0
53.0647 6.0719 3.99154
55.1042 7.14049 2
56.25 5.02411 4
58.3339 6.3199 2
57.0588 8.33585 0.00969514
60.3285 7.74928 0
66.0672 47.417 0.0318154
67.2223 43.469 0.0315282
64.6349 44.8444 0.0308807
65.5347 41.2073 0.0298071
67.8334 39.5118 0.0311597
70.1291 37.5213 0.0282059
67.9297 37.5216 2
65.7663 39.3685 2
65.1584 43.0219 2
63.7003 40.9251 2
63.9453 46.7117 2
62.7622 44.2086 2
65.8704 37.5009 3.9704
63.8404 39.2638 3.97284
63.2755 42.5441 3.97276
62.351 40.6922 3.97605
61.9221 45.9096 3.97111
61.3784 43.6733 3.97595
67.8696 35.5473 0.0309445
67.264 31.6224 0.0312175
65.683 33.928 0.0296455
64.6503 30.1941 0.030676
60.7757 14.2242 0.0203291
60.6109 17.131 0.0266086
60.2131 19.8247 0.0347124
63.5305 26.4168 0.0310665
62.2274 28.7836 0.0277634
61.0273 25.3447 0.0299899
59.6431 22.2675 0.0340547
58.95 24.3315 0.0295504
57.9099 14.3352 0.0218884
55.3111 14.6531 0.0242012
54.0376 9.13655 0.0155303
54.7865 12.0154 0.0212691
65.8564 35.6668 2
65.1682 32.1559 2
64.2443 34.2507 2
62.5462 30.6411 2
59.3093 15.6706 2
59.1172 18.362 2
58.7222 20.8656 2
61.6212 27.0795 2
60.7975 29.1488 2
58.2555 23.1055 2
59.2883 25.8086 2
57.9244 24.6797 2
56.6741 15.7473 2
54.3727 16.0079 2
53.8082 13.6864 2
52.1124 8.15375 2
53.0579 11.0191 2
64.0394 35.6323 3.97233
62.8703 33.0493 3.97335
60.543 30.6198 3.97577
59.5114 27.9215 3.97447
57.9362 16.9891 3.97528
57.6839 25.7414 3.97494
57.7015 19.4881 3.96686
57.3393 21.856 3.96314
57.1363 23.9638 3.9687
50.1125 7.28544 3.987
51.2328 10.1271 3.98217
52.1716 12.8025 3.97849
55.5334 16.981 3.97679
52.9757 15.2748 3.97472
53.7535 16.9924 3.97958
53.0433 68.9997 0.0074404
53.9676 66.013 0.0124152
63.1786 48.656 0.0320651
54.684 63.2072 0.0176593
57.88 60.8684 0.022396
55.2101 60.6129 0.0231502
61.7345 52.5702 0.0328524
60.2392 50.0072 0.0313972
58.0148 58.2561 0.0288824
58.1171 55.7979 0.0340023
59.3172 53.9366 0.0320948
52.0709 67.0002 2
52.9536 64.2194 2
56.6459 59.4862 2
53.6805 61.6222 2
54.2577 59.3165 2
60.9438 47.8684 2
59.6862 52.0931 2
57.9626 49.5978 2
56.7692 56.9775 2
57.1002 54.1048 2
51.1684 65.1279 3.98512
52.0463 62.5381 3.98199
55.4764 58.2438 3.97635
52.8326 60.1319 3.97781
53.6351 58.465 3.97908
58.2227 46.8303 3.97379
57.5247 51.769 3.96817
56.1655 49.5319 3.97068
55.4574 55.7714 3.9647
55.325 53.3616 3.96482
50.1099 67.8566 0.0118396
49.3373 65.9215 2
48.6187 64.122 3.984
47.4635 66.5806 0.0145857
45.5585 67.0982 2
46.8927 64.7358 2
46.3826 63.0519 3.98328
45.1331 65.1963 3.98381
43.6317 67.4683 3.98548
41.8606 69.8774 3.98821
43.9735 69.5905 2
44.3771 71.8622 3.99264
46.0567 69.1577 0.011699
46.6101 71.3675 2
47.2057 73.7222 4
48.8032 70.7228 0.00724453
49.554 73.0099 2
51.8506 72.1454 0
50.9546 5.13206 3.99207
53.0652 6.07188 2
54.0858 3.86728 4
55.1034 7.14035 0.00885865
56.25 5.02406 2
58.3339 6.31992 0
63.9458 46.7119 0.0315171
65.1588 43.0221 0.0302713
62.7633 44.2089 0.027428
63.7009 40.9252 0.0269969
65.7668 39.3686 0.0295375
67.9299 37.5216 0.0309345
65.8698 37.5009 2
63.8395 39.2637 2
63.2746 42.5439 2
62.3501 40.6921 2
61.921 45.9093 2
61.3771 43.673 2
63.9027 37.4556 3.9724
62.0666 39.3512 3.97514
61.1284 41.9493 3.97575
60.1777 44.7574 3.9754
65.8569 35.6668 0.0295805
65.1683 32.1559 0.0302707
64.2446 34.2507 0.0271746
62.5472 30.641 0.027292
59.31 15.6715 0.0229046
59.1173 18.3632 0.0300672
58.7214 20.8652 0.0355295
61.6219 27.0793 0.0291726
60.798 29.1485 0.0245183
59.2886 25.8081 0.0267383
58.255 23.105 0.0335896
57.9245 24.679 0.0277301
56.6748 15.7483 0.0228895
54.3735 16.0085 0.0230059
53.8085 13.6875 0.0236154
52.1123 8.1544 0.0143203
53.0581 11.0201 0.019465
64.0389 35.6323 2
62.8693 33.0493 2
60.5426 30.62 2
57.9356 16.9881 2
57.7017 19.4866 2
57.3398 21.8563 2
59.5107 27.9219 2
57.1358 23.9647 2
57.6843 25.7421 2
50.1126 7.28476 2
55.5327 16.9799 2
53.7526 16.9915 2
52.9752 15.2736 2
52.1714 12.8017 2
51.2327 10.1264 2
62.1006 35.3606 3.97398
60.1914 32.752 3.97597
58.5289 30.089 3.97642
57.2112 27.3988 3.97589
56.6288 18.1654 3.97487
56.2263 25.1223 3.97237
56.3342 20.5385 3.96418
56.0595 22.8897 3.96333
48.0565 6.52783 3.9882
49.3249 9.33344 3.9831
50.4332 11.9984 3.97996
51.376 14.506 3.9759
54.407 17.932 3.97787
52.3564 17.0523 3.97397
52.071 66.9996 0.0120053
52.9538 64.2186 0.0156505
60.945 47.8688 0.0307085
53.6807 61.6209 0.020299
56.6462 59.4851 0.0245245
54.2575 59.3152 0.0243572
59.685 52.0932 0.0320334
57.9648 49.5986 0.0293328
56.7698 56.973 0.0319551
57.1012 54.1052 0.0332256
51.1682 65.1285 2
52.046 62.539 2
55.4762 58.2447 2
52.8327 60.1335 2
53.635 58.4656 2
58.2217 46.8297 2
57.5249 51.7686 2
56.164 49.5313 2
55.4578 55.7722 2
55.3258 53.3618 2
50.3468 63.3804 3.98357
51.2436 60.9332 3.97936
54.2108 57.2599 3.97567
52.3085 58.6258 3.97641
56.5731 44.1579 3.97774
55.3866 47.8693 3.97259
55.0183 51.3679 3.96739
53.9779 54.5191 3.96501
49.3374 65.921 0.0147206
48.6185 64.1225 2
47.9626 62.4733 3.98308
45.5585 67.0977 0.0145635
46.8929 64.7353 0.0161788
43.6316 67.4688 2
46.3825 63.0524 2
45.1329 65.1969 2
45.9882 61.5837 3.98325
44.7678 63.4522 3.98276
43.3571 65.5056 3.98369
41.6637 67.687 3.9852
39.7023 70.0244 3.98836
41.8607 69.878 2
42.1113 72.207 3.99258
43.9735 69.59 0.0116555
44.3773 71.8624 2
44.8159 74.2794 4
46.6098 71.3673 0.00725574
47.2057 73.7222 2
49.554 73.0099 0
48.7852 4.32279 3.99254
50.955 5.13186 2
51.8506 2.85458 4
53.0647 6.0719 0.00846437
54.0858 3.86728 2
56.25 5.02411 0
61.9221 45.9096 0.0288883
63.2755 42.5441 0.0272442
61.3784 43.6733 0.0240548
62.351 40.6922 0.0239511
63.8404 39.2638 0.0271566
65.8704 37.5009 0.0295951
63.9019 37.4555 2
62.0657 39.3512 2
61.1272 41.949 2
60.1766 44.7569 2
61.9038 37.4432 3.97431
60.1311 39.8386 3.97694
58.8711 42.902 3.97734
64.0394 35.6323 0.0276714
62.8703 33.0493 0.0266474
60.543 30.6198 0.0242311
57.9362 16.9891 0.0247162
57.7015 19.4881 0.0331426
57.3393 21.856 0.0368625
59.5114 27.9215 0.0255345
57.6839 25.7414 0.0250629
57.1363 23.9638 0.0312954
55.5334 16.981 0.0232055
53.7535 16.9924 0.0204203
52.9757 15.2748 0.0252766
50.1125 7.28544 0.0130009
52.1716 12.8025 0.0215085
51.2328 10.1271 0.0178262
62.0995 35.3606 2
60.1895 32.7523 2
58.5285 30.0896 2
56.6283 18.1643 2
56.3346 20.5357 2
56.0609 22.8903 2
57.2128 27.3995 2
56.2282 25.123 2
48.0566 6.52706 2
49.3249 9.33276 2
54.4066 17.9312 2
52.3554 17.0516 2
51.3753 14.5049 2
50.4329 11.9978 2
59.7744 35.1232 3.97696
57.8584 32.2849 3.97696
56.4406 29.3602 3.97721
55.349 26.6249 3.97575
55.3281 19.2003 3.97388
54.8629 24.0831 3.96638
54.9654 21.5843 3.96234
45.9626 5.88257 3.98886
43.3741 7.47389 3.98579
47.3555 8.62565 3.98441
48.6002 11.2979 3.98086
49.7126 13.7497 3.97905
50.6301 16.1448 3.9772
53.1133 18.6761 3.97339
51.2922 18.066 3.98023
51.1684 65.1279 0.0148764
52.0463 62.5381 0.0180068
58.2227 46.8303 0.0262061
52.8326 60.1319 0.0221886
55.4764 58.2438 0.0236512
53.6351 58.465 0.0209231
57.5247 51.769 0.0318279
56.1655 49.5319 0.0293185
55.4574 55.7714 0.0353048
55.325 53.3616 0.0351789
50.3464 63.3808 2
51.2433 60.9341 2
54.2107 57.2609 2
52.3082 58.6263 2
56.5724 44.1572 2
55.3856 47.8685 2
55.0187 51.3677 2
53.9785 54.5205 2
49.5922 61.7435 3.98211
55.4363 41.6786 3.97655
50.5642 59.3247 3.97567
52.1722 56.4792 3.97008
54.0246 45.5277 3.97596
53.2329 49.3003 3.97048
52.6219 52.8252 3.96588
48.6187 64.122 0.0159991
47.9624 62.4737 2
47.3294 61.0069 3.98352
43.6317 67.4683 0.0145189
45.1331 65.1963 0.0161921
46.3826 63.0519 0.0167203
41.6637 67.6873 2
43.3569 65.5064 2
45.9882 61.5842 2
44.7678 63.4528 2
45.7663 60.6276 3.98145
44.4842 61.8323 3.98239
43.147 63.7242 3.98228
41.5465 65.6431 3.98295
39.6328 67.7665 3.98482
37.5259 70.0494 3.98816
39.7024 70.0251 2
39.8179 72.4041 3.99241
41.8606 69.8774 0.0117855
42.1116 72.2074 2
42.3947 74.6792 4
44.3771 71.8622 0.0073597
44.8159 74.2794 2
47.2057 73.7222 0
43.8519 5.35933 3.98898
46.5711 3.64721 3.99276
48.7854 4.3225 2
49.554 1.99015 4
50.9546 5.13206 0.00793133
51.8506 2.85453 2
54.0858 3.86728 0
60.1777 44.7574 0.0246005
61.1284 41.9493 0.0242499
62.0666 39.3512 0.0248638
63.9027 37.4556 0.0276007
61.9028 37.4431 2
60.13 39.8382 2
58.8701 42.9015 2
59.6281 37.5642 3.97805
57.8373 40.6401 3.97767
54.8761 39.6938 3.97643
62.1006 35.3606 0.026016
60.1914 32.752 0.0240326
58.5289 30.089 0.0235838
56.6288 18.1654 0.0251261
56.3342 20.5385 0.0358191
56.0595 22.8897 0.0366656
57.2112 27.3988 0.0241056
56.2263 25.1223 0.0276292
54.407 17.932 0.0221332
52.3564 17.0523 0.0260323
51.376 14.506 0.0240998
48.0565 6.52783 0.011804
49.3249 9.33344 0.0168989
50.4332 11.9984 0.0200399
59.7722 35.1233 2
45.9625 5.88212 2
43.374 7.47347 2
57.8583 32.2856 2
56.4407 29.361 2
55.3278 19.1996 2
54.9666 21.5834 2
54.8624 24.0844 2
55.3443 26.6263 2
47.3555 8.62452 2
48.6001 11.2972 2
53.1132 18.6751 2
51.2916 18.0655 2
50.6293 16.1443 2
49.712 13.7494 2
57.2223 34.7721 3.97765
55.5871 31.5419 3.97811
54.3699 28.4384 3.97834
53.6931 25.5295 3.97324
53.9483 20.1538 3.97374
53.5291 22.7414 3.95853
41.3993 7.07914 3.98633
45.3602 7.99563 3.98595
42.8662 9.41746 3.98317
46.667 10.6567 3.98184
47.7447 13.1079 3.98084
48.9292 15.4097 3.97676
49.9991 17.7133 3.97746
51.6331 19.3425 3.98021
50.3468 63.3804 0.0164314
51.2436 60.9332 0.0206418
56.5731 44.1579 0.0222631
55.3866 47.8693 0.0274055
52.3085 58.6258 0.0235924
54.2108 57.2599 0.0243314
55.0183 51.3679 0.0326139
53.9779 54.5191 0.0349941
49.5917 61.7436 2
55.4365 41.6782 2
50.564 59.3256 2
52.1719 56.48 2
54.0289 45.527 2
53.2364 49.3002 2
52.6237 52.8248 2
48.8478 60.1999 3.9803
52.2994 42.6026 3.98036
49.7825 57.6166 3.97561
50.5625 54.4097 3.96681
51.664 47.2339 3.97603
51.1371 50.9196 3.96358
47.9431 43.7546 3.99073
47.9626 62.4733 0.0169231
47.3294 61.0073 2
46.6183 59.7927 3.98266
41.6637 67.687 0.0147987
43.3571 65.5056 0.0163054
44.7678 63.4522 0.0172389
45.9882 61.5837 0.0167517
39.633 67.7672 2
41.5464 65.6433 2
45.7661 60.6282 2
43.147 63.7249 2
44.4842 61.8329 2
44.6231 60.2894 3.98239
42.9512 62.0799 3.98076
41.6005 63.8173 3.98227
39.6478 65.6106 3.98204
37.5634 67.7485 3.98457
31.6967 65.129 3.98274
33.3922 67.4858 3.98434
35.3334 69.9593 3.98815
37.526 70.0501 2
37.5095 72.4586 3.99228
39.7023 70.0244 0.011636
39.8181 72.4045 2
39.9526 74.9197 4
42.1113 72.207 0.00742172
42.3947 74.6792 2
44.8159 74.2794 0
41.7365 4.9685 3.98931
43.8519 5.35887 2
44.3264 3.11026 3.99312
46.5713 3.64699 2
47.2057 1.27793 4
48.7852 4.32279 0.00745559
49.554 1.99013 2
51.8506 2.85458 0
58.8711 42.902 0.0226594
60.1311 39.8386 0.0230627
61.9038 37.4432 0.0256907
59.6268 37.5641 2
57.8362 40.6395 2
54.8768 39.6925 2
56.6257 37.8863 3.97787
49.333 41.3084 3.98966
52.8978 39.3025 3.98352
39.4427 6.80274 3.98636
59.7744 35.1232 0.0230353
57.8584 32.2849 0.0230409
56.4406 29.3602 0.0227854
55.3281 19.2003 0.0261153
54.9654 21.5843 0.0376601
54.8629 24.0831 0.0336246
55.349 26.6249 0.0242467
53.1133 18.6761 0.0266132
51.2922 18.066 0.0197749
50.6301 16.1448 0.0228001
45.9626 5.88257 0.011142
49.7126 13.7497 0.02095
47.3555 8.62565 0.0155873
48.6002 11.2979 0.0191399
43.3741 7.47389 0.0142141
57.2192 34.772 2
41.3992 7.07866 2
45.3601 7.99525 2
42.8659 9.41703 2
55.5886 31.5428 2
54.3676 28.4397 2
53.9484 20.1537 2
53.5297 22.7387 2
53.6905 25.531 2
46.6668 10.6551 2
47.7442 13.1069 2
51.6332 19.342 2
49.9982 17.7125 2
48.9282 15.4096 2
54.6682 33.9742 3.97677
53.3263 30.5239 3.97808
52.4694 27.2437 3.97507
52.0732 24.1379 3.97491
52.3596 21.0775 3.97733
41.014 9.05022 3.98336
44.7248 9.99671 3.98358
42.469 10.905 3.98374
46.005 12.7352 3.97918
47.6792 14.5918 3.977
48.1065 16.9966 3.97584
49.8072 19.6645 3.97702
49.5922 61.7435 0.017894
50.5642 59.3247 0.0243304
55.4363 41.6786 0.0234465
54.0246 45.5277 0.0240429
53.2329 49.3003 0.0295171
52.1722 56.4792 0.0299191
52.6219 52.8252 0.0341203
48.8475 60.1993 2
52.3063 42.6028 2
49.782 57.6175 2
50.5627 54.4106 2
51.6676 47.2337 2
51.1389 50.9188 2
47.9496 43.7695 2
47.9835 58.7376 3.979
49.8923 45.2408 3.97985
48.581 55.9082 3.97701
49.079 52.5716 3.97296
49.5641 49.0169 3.97045
45.7374 39.8581 3.88744
46.1809 42.6329 3.92612
46.3117 45.7966 3.98929
43.5634 41.1332 3.821
41.8989 42.0074 3.70955
47.3294 61.0069 0.016477
46.6178 59.7932 2
45.4665 58.7893 3.98145
39.6328 67.7665 0.0151794
41.5465 65.6431 0.017051
43.147 63.7242 0.0177185
44.4842 61.8323 0.017612
45.7663 60.6276 0.0185472
41.6005 63.8175 2
37.5635 67.7492 2
39.6478 65.6113 2
44.623 60.2899 2
42.9513 62.0804 2
41.7541 62.4907 3.98113
42.4804 59.9783 3.98213
39.8941 63.5509 3.98106
37.6423 65.5096 3.98244
35.4635 67.6576 3.98439
33.5752 65.3421 3.98217
31.9591 63.2997 3.9822
29.8828 64.7204 3.98359
31.6968 65.1298 2
31.3767 67.1958 3.98463
33.3922 67.4865 2
33.1564 69.7528 3.98793
35.3334 69.9602 2
35.1947 72.3729 3.99221
37.5259 70.0494 0.0118367
37.5095 72.459 2
37.5 75 4
39.8179 72.4041 0.00759018
39.9526 74.9197 2
42.3947 74.6792 0
39.6242 4.71581 3.98957
41.7365 4.96801 2
42.0627 2.7178 3.99324
43.8519 5.35933 0.0110178
44.3265 3.10996 2
44.8158 0.721173 4
46.5711 3.64721 0.00723526
47.2057 1.27779 2
49.554 1.99015 0
57.8373 40.6401 0.0223262
59.6281 37.5642 0.0219451
54.8761 39.6938 0.0235706
49.3503 41.3115 2
56.6241 37.8864 2
52.8993 39.2995 2
53.7444 36.6308 3.97686
47.2592 40.381 3.93403
50.274 38.5087 3.99375
37.5166 6.67399 3.98643
39.4427 6.80216 2
39.2115 8.69298 3.98411
35.9425 8.49318 3.98416
57.2223 34.7721 0.0223524
55.5871 31.5419 0.0218917
54.3699 28.4384 0.0216615
53.9483 20.1538 0.0262581
53.5291 22.7414 0.0414749
53.6931 25.5295 0.0267555
51.6331 19.3425 0.0197909
49.9991 17.7133 0.0225396
48.9292 15.4097 0.0232358
45.3602 7.99563 0.0140475
47.7447 13.1079 0.0191574
46.667 10.6567 0.0181616
41.3993 7.07914 0.0136656
42.8662 9.41746 0.0168258
54.6676 33.9742 2
41.0138 9.05 2
44.7243 9.99649 2
42.4685 10.905 2
53.323 30.5227 2
52.4745 27.2452 2
52.3603 21.0769 2
52.0748 24.1388 2
46.0045 12.7327 2
47.6785 14.5907 2
49.8072 19.6628 2
48.1055 16.9962 2
52.2284 32.8913 3.98033
51.1471 29.1994 3.97649
50.6817 25.7758 3.97189
49.9105 22.2478 3.97831
40.5702 11.6101 3.98064
43.8588 11.9198 3.97995
45.7994 15.4298 3.98092
47.4971 19.2783 3.97741
46.0782 37.4854 3.89446
48.8478 60.1999 0.0196971
49.7825 57.6166 0.0243941
52.2994 42.6026 0.019637
51.664 47.2339 0.0239697
51.1371 50.9196 0.0364179
50.5625 54.4097 0.0331928
47.9431 43.7546 0.00927236
47.9829 58.7385 2
49.8998 45.2459 2
48.5802 55.9101 2
49.0791 52.5742 2
49.5674 49.017 2
45.7655 39.8649 2
46.2021 42.6495 2
46.3117 45.7918 2
43.5872 41.1552 2
41.9107 42.0178 2
46.8319 57.3397 3.98284
44.3113 39.4157 3.82179
42.2485 40.8712 3.75345
47.9234 47.2061 3.97675
47.1398 54.2271 3.97449
47.5142 50.7255 3.96622
44.6687 47.3823 3.98169
44.8398 41.9413 3.8818
44.7857 44.5291 3.94153
42.4226 42.6472 3.82934
40.81 42.3452 3.74328
46.6183 59.7927 0.0173367
45.4659 58.7897 2
43.8725 57.7123 3.98424
37.5634 67.7485 0.0154286
39.6478 65.6106 0.0179567
41.6005 63.8173 0.0177254
42.9512 62.0799 0.0192362
44.6231 60.2894 0.0176069
35.4635 67.6586 2
41.7541 62.4911 2
39.8941 63.5513 2
37.6424 65.5102 2
42.4804 59.9788 2
40.6237 61.6472 3.98154
40.4427 58.2059 3.98121
37.8372 63.2122 3.98053
35.5729 65.431 3.982
33.5753 65.3426 2
31.9589 63.3005 2
33.6287 63.339 3.98149
30.378 62.8588 3.98256
32.1229 62.0053 3.98282
26.8683 61.5014 3.98165
28.0616 64.1483 3.9832
29.8828 64.7211 2
29.406 66.7596 3.98492
31.6967 65.129 0.0172622
31.3767 67.1965 2
31.0137 69.4177 3.98791
33.3922 67.4858 0.0156601
33.1564 69.7534 2
32.8916 72.1472 3.99227
35.3334 69.9593 0.0118531
35.1947 72.3734 2
35.0474 74.9194 4
37.5095 72.4586 0.00772265
37.5 75 2
39.9526 74.9197 0
35.6212 6.72507 3.98608
37.5236 4.61536 3.98961
39.6242 4.71525 2
39.789 2.47426 3.99324
41.7365 4.9685 0.0106894
42.0627 2.71748 2
42.3946 0.32156 4
44.3264 3.11026 0.00687858
44.8159 0.72056 2
47.2057 1.27793 0
49.333 41.3084 0.0103405
56.6257 37.8863 0.0221267
52.8978 39.3025 0.0164757
47.2765 40.3957 2
50.2861 38.5066 2
53.7514 36.6326 2
51.0654 35.573 3.97858
47.9184 37.7436 3.94638
45.7378 35.1313 3.88844
43.5702 33.8536 3.81732
41.9085 32.9898 3.70585
37.4585 8.5348 3.98448
37.5165 6.67328 2
39.4427 6.80274 0.0136353
39.2114 8.69238 2
38.977 10.1275 3.98318
35.8992 9.77424 3.98255
34.1511 8.82286 3.98367
35.9422 8.49241 2
54.6682 33.9742 0.0232311
53.3263 30.5239 0.0219249
52.4694 27.2437 0.0249334
52.3596 21.0775 0.0226706
52.0732 24.1379 0.0250874
49.8072 19.6645 0.022981
48.1065 16.9966 0.024165
47.6792 14.5918 0.0230047
44.7248 9.99671 0.0164222
46.005 12.7352 0.0208246
41.014 9.05022 0.0166359
42.469 10.905 0.0162568
52.2331 32.8918 2
40.5702 11.6108 2
43.8576 11.9198 2
51.1608 29.2002 2
50.6853 25.7777 2
49.9106 22.2458 2
45.7983 15.4265 2
47.4964 19.2794 2
49.7629 31.436 3.98173
49.1456 27.5466 3.97521
49.3328 24.462 3.98623
47.1683 22.0192 3.97357
38.3032 12.7384 3.97943
42.102 14.3093 3.97839
44.7964 18.481 3.97677
44.616 37.4926 3.82562
46.1243 37.4919 2
47.9835 58.7376 0.0209967
48.581 55.9082 0.0229922
49.8923 45.2408 0.0201486
49.5641 49.0169 0.0295504
49.079 52.5716 0.0270412
45.7374 39.8581 0.112565
46.1809 42.6329 0.073876
46.3117 45.7966 0.0107083
43.5634 41.1332 0.179004
41.8989 42.0074 0.290453
46.8309 57.3408 2
44.3324 39.4317 2
42.2377 40.8735 2
47.9228 47.2094 2
47.1389 54.2313 2
47.5152 50.7286 2
44.673 47.3599 2
44.8615 41.957 2
44.7989 44.5465 2
42.4586 42.6729 2
40.8103 42.3437 2
45.3855 55.9315 3.99025
42.5691 39.2688 3.76521
40.7067 40.785 3.83752
45.9881 48.8895 3.98314
45.4923 52.5193 3.98119
43.3477 48.4062 4.00006
43.293 46.0787 3.92806
43.5114 43.7312 3.87946
41.0061 43.7935 3.82341
39.2763 42.6842 3.75872
45.4665 58.7893 0.0185519
43.8718 57.7124 2
42.1012 56.3339 3.98655
35.4635 67.6576 0.0156091
37.6423 65.5096 0.0175585
39.8941 63.5509 0.0189396
41.7541 62.4907 0.0188695
42.4804 59.9783 0.0178734
35.5731 65.4323 2
40.6237 61.6478 2
37.8371 63.2126 2
40.4425 58.2067 2
38.9216 56.4976 3.9892
38.2506 60.329 3.98025
35.607 63.2046 3.97996
33.5752 65.3421 0.017828
31.9591 63.2997 0.0178006
33.6286 63.3397 2
30.3779 62.8594 2
32.1229 62.006 2
28.6806 62.2035 3.98221
33.3457 61.5169 3.98204
31.0663 61.2224 3.98194
27.5684 59.5966 3.98101
23.7932 59.0837 3.98073
25.0342 60.8739 3.98086
26.8684 61.5019 2
26.2283 63.4803 3.98308
28.0618 64.1489 2
27.4626 66.1836 3.98502
29.8828 64.7204 0.0164126
29.4061 66.7603 2
28.9059 68.9435 3.98784
31.3767 67.1958 0.0153681
31.0137 69.4184 2
30.6139 71.7781 3.99228
33.1564 69.7528 0.012068
32.8915 72.1475 2
32.6054 74.6784 4
35.1947 72.3729 0.00778703
35.0474 74.9197 2
37.5 75 0
33.724 6.97984 3.98562
35.4353 4.6856 3.98943
35.6211 6.72446 2
37.5144 2.38686 3.99324
37.5236 4.61484 2
39.6242 4.71581 0.010428
39.789 2.47391 2
39.9526 0.0806499 4
42.0627 2.7178 0.00676101
42.3947 0.320817 2
44.8158 0.721173 0
44.3266 35.5687 3.81679
42.2597 34.1178 3.74927
47.2592 40.381 0.0659693
50.274 38.5087 0.00624501
53.7444 36.6308 0.0231378
47.9299 37.7486 2
51.0772 35.5737 2
45.7599 35.1162 2
43.5967 33.8333 2
41.9192 32.9791 2
48.0915 34.307 3.97229
44.8455 33.0432 3.87398
42.4372 32.3511 3.82642
40.8213 32.6552 3.74101
37.3114 10.6316 3.98175
37.4583 8.53379 2
37.5166 6.67399 0.0135673
39.2115 8.69298 0.0158909
38.9772 10.1268 2
34.7545 10.3807 3.98159
35.8991 9.77342 2
32.3779 9.37004 3.98269
34.1507 8.82225 2
35.9425 8.49318 0.0158357
52.2284 32.8913 0.0196685
51.1471 29.1994 0.0235087
50.6817 25.7758 0.0281118
49.9105 22.2478 0.0216929
47.4971 19.2783 0.0225865
45.7994 15.4298 0.0190822
43.8588 11.9198 0.0200451
40.5702 11.6101 0.0193564
49.7737 31.4334 2
38.3027 12.7372 2
42.1012 14.3116 2
49.1502 27.5473 2
49.3349 24.459 2
47.1664 22.0155 2
44.7957 18.4904 2
47.6022 29.5397 3.98837
47.0268 25.2071 3.98391
44.2775 21.3928 3.97557
36.583 12.9353 3.97889
38.6825 14.8124 3.97798
41.7479 17.8552 3.97798
42.6865 37.4853 3.77565
44.6341 37.4929 2
46.0782 37.4854 0.105536
46.8319 57.3397 0.0171632
47.1398 54.2271 0.0255063
47.9234 47.2061 0.0232462
47.5142 50.7255 0.0337835
44.3113 39.4157 0.178211
44.8398 41.9413 0.118198
44.7857 44.5291 0.0584699
44.6687 47.3823 0.0183081
42.4226 42.6472 0.170659
42.2485 40.8712 0.246554
40.81 42.3452 0.256723
45.3846 55.9319 2
42.56 39.2674 2
40.6937 40.7737 2
45.9871 48.8947 2
45.4923 52.5241 2
43.3494 48.425 2
43.3209 46.1051 2
43.5351 43.7548 2
41.032 43.8214 2
39.2671 42.6733 2
43.7204 54.4401 3.99671
40.8045 39.1613 3.86879
39.1448 40.8646 3.86156
43.627 50.4626 4.00261
41.9014 47.6236 3.96172
41.8286 45.1544 3.88543
39.3419 44.5073 3.83336
37.499 42.7902 3.78019
43.8725 57.7123 0.015765
42.1005 56.3339 2
40.4107 54.939 3.99006
35.5729 65.431 0.0180046
37.8372 63.2122 0.0194662
40.6237 61.6472 0.0184648
40.4427 58.2059 0.0187873
35.6069 63.2059 2
38.2505 60.3295 2
38.9213 56.4985 2
37.9985 55.2498 3.99158
36.9335 57.6263 3.98092
35.3636 60.9137 3.98107
33.6287 63.339 0.0185058
30.378 62.8588 0.0174386
32.1229 62.0053 0.0171758
33.3457 61.5179 2
28.6807 62.2039 2
31.0663 61.223 2
29.4029 60.2909 3.98088
32.3575 59.7489 3.98538
28.0252 58.3769 3.98691
27.5686 59.5971 2
25.3801 58.5954 3.97894
22.7598 58.2397 3.97248
23.4006 60.353 3.97933
23.7933 59.0846 2
25.0343 60.8747 2
24.4311 62.7725 3.98268
26.8683 61.5014 0.0183485
26.2285 63.481 2
25.5466 65.4935 3.98478
28.0616 64.1483 0.016799
27.4626 66.1842 2
26.8354 68.3318 3.98785
29.406 66.7596 0.0150822
28.9059 68.9439 2
28.3689 71.2633 3.99238
31.0137 69.4177 0.012091
30.6137 71.7785 2
30.1842 74.2788 4
32.8916 72.1472 0.00773253
32.6053 74.6792 2
35.0474 74.9194 0
31.7884 7.41995 3.98498
33.3474 4.92485 3.98907
33.7237 6.9792 2
35.2446 2.46294 3.99321
35.4352 4.68514 2
35.6212 6.72507 0.0139205
37.5 0 4
37.5144 2.38655 2
37.5236 4.61536 0.0103914
39.789 2.47426 0.00675589
39.9526 0.0802889 2
42.3946 0.32156 0
42.5721 35.7093 3.76729
44.3424 35.5547 2
40.7167 34.2112 3.83575
42.2479 34.117 2
47.9184 37.7436 0.0536172
51.0654 35.573 0.0214228
45.7378 35.1313 0.111557
43.5702 33.8536 0.182683
41.9085 32.9898 0.294152
48.1078 34.2877 2
44.8679 33.029 2
42.465 32.3277 2
40.8205 32.6558 2
46.1167 31.5767 3.94685
43.5073 31.2664 3.88037
41.0132 31.2058 3.82338
39.2854 32.322 3.75799
35.6933 11.7777 3.98029
37.3115 10.6304 2
37.4585 8.5348 0.015519
38.977 10.1275 0.0168216
33.0985 11.2184 3.98001
34.7544 10.3799 2
35.8992 9.77424 0.0174464
30.4826 10.0186 3.98196
32.3776 9.36966 2
34.1511 8.82286 0.0163285
49.7629 31.436 0.0182672
49.1456 27.5466 0.0247855
49.3328 24.462 0.01377
47.1683 22.0192 0.0264291
44.7964 18.481 0.0232307
42.102 14.3093 0.021609
38.3032 12.7384 0.0205676
36.5827 12.9343 2
47.607 29.5229 2
38.6813 14.8115 2
41.7468 17.8615 2
47.0308 25.2042 2
44.2751 21.3766 2
45.4212 27.6687 4.00092
43.7574 24.1202 4.00376
41.3352 20.7665 3.97946
35.7732 14.7642 3.97772
38.6823 17.6034 3.97819
40.8521 37.4801 3.87813
42.6851 37.4873 2
44.616 37.4926 0.174375
45.3855 55.9315 0.00975369
45.4923 52.5193 0.0188108
45.9881 48.8895 0.0168571
42.5691 39.2688 0.234785
43.5114 43.7312 0.120537
43.293 46.0787 0.0719441
43.3477 48.4062 -6.47618e-05
41.0061 43.7935 0.176585
40.7067 40.785 0.162482
39.2763 42.6842 0.241278
43.7195 54.4401 2
40.7884 39.1544 2
39.1336 40.8487 2
43.625 50.4775 2
41.8915 47.6408 2
41.8511 45.1778 2
37.4988 42.7785 2
39.3588 44.5269 2
41.8597 53.0106 3.99353
39.1589 39.1649 3.89612
37.4972 40.9024 3.87892
35.7254 42.6874 3.75903
40.8643 49.6778 3.9991
39.806 46.0431 3.86766
37.4966 44.7307 3.81992
42.1012 56.3339 0.0134548
40.4102 54.939 2
38.7256 53.8566 3.99412
35.607 63.2046 0.0200407
38.2506 60.329 0.0197456
38.9216 56.4976 0.0108034
35.3636 60.9147 2
36.9335 57.6271 2
37.9984 55.2494 2
36.3207 55.3609 3.9898
34.4886 58.5238 3.98592
33.3457 61.5169 0.0179615
28.6806 62.2035 0.0177932
31.0663 61.2224 0.0180557
32.3575 59.7499 2
29.4031 60.291 2
30.3021 57.8219 3.98475
28.0253 58.3775 2
26.9531 56.8278 3.9782
27.5684 59.5966 0.0189875
25.3802 58.5963 2
23.8473 56.7976 3.97049
21.3393 57.394 3.97166
21.9945 59.6236 3.9783
22.7597 58.2413 2
22.7353 62.0235 3.98133
23.4007 60.3539 2
23.7932 59.0837 0.0192697
25.0342 60.8739 0.0191414
24.4313 62.7733 2
23.6806 64.7115 3.98446
26.2283 63.4803 0.0169243
25.5467 65.4942 2
24.8076 67.593 3.98773
27.4626 66.1836 0.0149762
26.8354 68.3325 2
26.1641 70.604 3.99245
28.9059 68.9435 0.0121591
28.3687 71.2635 2
27.7943 73.7221 4
30.6139 71.7781 0.00771944
30.1841 74.2794 2
32.6054 74.6784 0
29.8109 7.99353 3.9842
31.2527 5.33202 3.98838
31.7882 7.41938 2
32.9802 2.70116 3.99299
33.3473 4.92429 2
33.724 6.97984 0.0143828
35.0474 0.080333 4
35.2444 2.46267 2
35.4353 4.6856 0.0105718
37.5 0 2
37.5144 2.38686 0.00676011
39.9526 0.0806499 0
40.8056 35.8115 3.8701
42.5625 35.7119 2
44.3266 35.5687 0.183211
28.5433 10.6944 3.98134
39.1521 34.14 3.86087
40.7017 34.2223 2
42.2597 34.1178 0.25073
48.0915 34.307 0.0277108
44.8455 33.0432 0.126024
42.4372 32.3511 0.17358
40.8213 32.6552 0.258988
46.1404 31.5672 2
43.5266 31.2473 2
41.0385 31.1788 2
39.2767 32.3322 2
44.3094 29.7741 3.93727
41.8409 29.8452 3.88688
39.3582 30.4937 3.83292
37.5106 32.2208 3.77949
34.0937 12.9373 3.97891
35.6932 11.7767 2
37.3114 10.6316 0.0182463
31.1864 11.9872 3.98018
33.0985 11.218 2
34.7545 10.3807 0.0184144
30.4823 10.018 2
32.3779 9.37004 0.0173139
47.6022 29.5397 0.0116272
47.0268 25.2071 0.0160873
36.583 12.9353 0.0211113
44.2775 21.3928 0.0244283
41.7479 17.8552 0.0220185
38.6825 14.8124 0.0220195
35.7727 14.7641 2
45.4253 27.6685 2
38.6805 17.6069 2
41.3324 20.7521 2
43.7585 24.1064 2
33.6093 15.8823 3.97716
42.9767 26.5134 3.9969
40.893 23.3328 4.00853
38.4171 20.3762 3.97567
35.85 17.5197 3.97796
39.1727 37.4839 3.90921
40.834 37.4773 2
42.6865 37.4853 0.224349
43.7204 54.4401 0.00328661
43.627 50.4626 -0.00261091
40.8045 39.1613 0.131209
41.8286 45.1544 0.114567
41.9014 47.6236 0.0382752
39.3419 44.5073 0.166641
39.1448 40.8646 0.138445
37.499 42.7902 0.219807
41.8616 53.0093 2
39.1443 39.1611 2
37.4968 40.8873 2
40.8821 49.6912 2
35.7318 42.6766 2
39.8303 46.072 2
37.4938 44.7481 2
39.7963 51.9023 3.99606
37.4964 39.1837 3.91372
35.8482 40.8777 3.86041
34.1869 42.3468 3.74207
35.6442 44.5162 3.83062
38.673 48.6906 3.97861
37.4951 46.3496 3.87339
40.4107 54.939 0.00993533
38.7263 53.8546 2
36.7345 53.1861 4.00069
35.3636 60.9137 0.0189272
36.9335 57.6263 0.019081
37.9985 55.2498 0.00841518
34.4886 58.5252 2
36.3211 55.3666 2
33.236 55.5086 3.99182
32.3575 59.7489 0.0146214
29.4029 60.2909 0.0191202
30.3026 57.8221 2
28.7058 55.3169 3.97881
28.0252 58.3769 0.0130904
26.9527 56.8286 2
25.3276 55.1358 3.97385
21.8241 55.3403 3.9668
25.3801 58.5954 0.0210616
23.8469 56.7998 2
20.2253 57.0225 3.97755
20.6473 58.7782 3.97571
21.339 57.3958 2
21.1663 61.1721 3.97974
21.9945 59.6249 2
22.7598 58.2397 0.0275206
21.8941 63.8392 3.9837
22.7355 62.0244 2
23.4006 60.353 0.0206709
24.4311 62.7725 0.0173225
23.6807 64.7123 2
22.8358 66.7365 3.98749
25.5466 65.4935 0.0152246
24.8076 67.5937 2
24.0083 69.8051 3.99252
26.8354 68.3318 0.0121481
26.1638 70.6043 2
25.446 73.0099 4
28.3689 71.2633 0.0076202
27.7943 73.7222 2
30.1842 74.2788 0
27.8208 8.65343 3.9838
29.1547 5.87784 3.98771
29.8107 7.99282 2
30.7254 3.09836 3.99267
31.2525 5.33153 2
31.7884 7.41995 0.0150151
32.6053 0.320823 4
32.98 2.70085 2
33.3474 4.92485 0.0109299
35.0474 0.0802903 2
35.2446 2.46294 0.00678576
37.5 0 0
39.1674 35.8152 3.89453
40.7887 35.818 2
42.5721 35.7093 0.232707
28.5432 10.694 2
26.622 11.39 3.9816
29.2253 12.6443 3.98095
37.5029 34.1089 3.87741
39.1393 34.1563 2
40.7167 34.2112 0.164247
46.1167 31.5767 0.053146
43.5073 31.2664 0.119633
41.0132 31.2058 0.176624
39.2854 32.322 0.242007
44.3301 29.7579 2
41.8578 29.8294 2
39.375 30.4698 2
37.5112 32.233 2
42.3163 28.4221 3.9177
39.8469 28.9537 3.88654
37.5195 30.2727 3.82015
35.739 32.3199 3.75805
31.9155 14.484 3.97901
34.0937 12.9371 2
35.6933 11.7777 0.0197122
31.1866 11.9868 2
33.0985 11.2184 0.0199871
30.4826 10.0186 0.0180439
45.4212 27.6687 -0.000919559
43.7574 24.1202 -0.003759
35.7732 14.7642 0.0222775
41.3352 20.7665 0.0205423
38.6823 17.6034 0.0218134
33.6082 15.8829 2
35.848 17.5196 2
42.9841 26.5102 2
38.4176 20.3741 2
40.891 23.3194 2
33.5522 17.3942 3.97855
40.367 25.6749 4.0008
38.0692 22.9356 3.99508
35.5818 20.095 3.97867
37.4964 37.4956 3.92967
39.1552 37.4849 2
40.8521 37.4801 0.121875
41.8597 53.0106 0.00647307
40.8643 49.6778 0.000899534
39.1589 39.1649 0.103878
39.806 46.0431 0.132343
37.4966 44.7307 0.180082
37.4972 40.9024 0.121084
35.7254 42.6874 0.240974
39.8052 51.9011 2
37.4956 39.1754 2
35.8611 40.861 2
38.6768 48.725 2
34.186 42.3462 2
35.6274 44.5396 2
37.4927 46.3756 2
37.6384 50.9742 4.01049
35.8355 39.1837 3.89557
34.2891 40.7976 3.83622
33.0923 42.0112 3.70786
33.9807 43.7871 3.82245
35.1569 46.0271 3.87929
36.8692 48.3291 3.94578
38.7256 53.8566 0.00588102
36.7329 53.192 2
34.3758 52.4636 3.99519
34.4886 58.5238 0.014083
36.3207 55.3609 0.0102032
33.2361 55.5096 2
30.5362 53.3605 3.97828
30.3021 57.8219 0.0152527
28.7053 55.3188 2
26.9086 53.4283 3.9729
26.9531 56.8278 0.0217988
25.3271 55.1392 2
23.6029 53.4701 3.96534
20.4982 53.2112 3.96097
19.9435 55.8253 3.97094
21.8229 55.3419 2
23.8473 56.7976 0.029509
19.4417 57.8837 3.97457
20.2247 57.024 2
19.7072 60.2032 3.97717
20.6471 58.7792 2
21.3393 57.394 0.0283389
20.2068 62.8597 3.98177
21.1664 61.1734 2
21.9945 59.6236 0.0217025
20.9372 65.7653 3.98708
21.8942 63.8401 2
22.7353 62.0235 0.0186749
23.6806 64.7115 0.0155384
22.8359 66.7371 2
21.9108 68.8721 3.99237
24.8076 67.593 0.0122673
24.0079 69.8053 2
23.1494 72.1454 4
26.1641 70.604 0.00754685
25.446 73.0099 2
27.7943 73.7221 0
25.86 9.38194 3.98328
27.0695 6.54203 3.98696
27.8205 8.6529 2
28.4875 3.64436 3.99235
29.1544 5.87726 2
29.8109 7.99353 0.0158041
30.1841 0.720592 4
30.7251 3.0981 2
31.2527 5.33202 0.0116172
32.6053 0.320817 2
32.9802 2.70116 0.00701317
35.0474 0.080333 0
37.4982 35.8135 3.91372
39.1511 35.8194 2
40.8056 35.8115 0.129902
24.7767 12.0732 3.98191
23.7516 14.36 3.98101
28.5433 10.6944 0.0186628
26.622 11.3895 2
29.2256 12.6438 2
27.2915 13.377 3.98142
29.7809 14.2049 3.9806
35.8578 34.1349 3.86007
37.502 34.124 2
39.1521 34.14 0.139128
37.5106 32.2208 0.22051
44.3094 29.7741 0.0627283
41.8409 29.8452 0.113119
39.3582 30.4937 0.167083
42.3425 28.3959 2
39.8593 28.924 2
37.5208 30.2611 2
35.7459 32.3316 2
40.0344 27.5877 3.91458
37.5266 28.6526 3.87949
35.6724 30.4991 3.83434
34.2066 32.6585 3.74154
30.9274 16.8431 3.9789
31.9155 14.4839 2
34.0937 12.9373 0.0210851
31.1864 11.9872 0.0198157
42.9767 26.5134 0.00309837
40.893 23.3328 -0.00853012
33.6093 15.8823 0.0228365
35.85 17.5197 0.0220418
38.4171 20.3762 0.0243321
33.5506 17.3964 2
35.5839 20.1015 2
40.3692 25.6611 2
38.0655 22.922 2
32.8624 19.8035 3.98075
37.7954 25.2476 4.00677
35.1946 22.6839 3.98894
35.8252 37.5012 3.90979
37.4937 37.4946 2
39.1727 37.4839 0.0907887
39.7963 51.9023 0.00393744
38.673 48.6906 0.021385
37.4964 39.1837 0.0862798
37.4951 46.3496 0.126607
35.6442 44.5162 0.169378
35.8482 40.8777 0.139592
34.1869 42.3468 0.257929
37.6468 50.9908 2
35.8492 39.1765 2
34.3032 40.7871 2
36.8646 48.3547 2
33.0802 42.0224 2
33.9578 43.8126 2
35.1412 46.0524 2
35.4913 50.1132 3.99936
34.1988 39.1832 3.87112
32.7352 40.8813 3.75168
32.5675 42.6511 3.8295
33.1642 45.1504 3.88437
34.288 47.4018 3.92234
36.7345 53.1861 -0.000685915
34.3742 52.4691 2
32.0373 51.1704 4.00164
33.236 55.5086 0.00818255
30.5355 53.3655 2
28.4599 51.576 3.97722
28.7058 55.3169 0.0211892
26.9077 53.4312 2
25.1188 51.7311 3.96135
25.3276 55.1358 0.0261478
23.6019 53.4726 2
22.0116 51.7906 3.95823
19.2451 51.6231 3.96414
18.9418 54.2993 3.96185
20.4972 53.2106 2
18.4537 56.7158 3.9738
19.9425 55.8269 2
21.8241 55.3403 0.0331965
18.3706 59.1051 3.97394
19.4413 57.8847 2
20.2253 57.0225 0.022453
18.6186 61.7648 3.97845
19.7073 60.2046 2
20.6473 58.7782 0.02429
19.1262 64.6758 3.98607
20.2068 62.861 2
21.1663 61.1721 0.0202553
19.8849 67.8087 3.99228
20.9373 65.7662 2
21.8941 63.8392 0.0163044
22.8358 66.7365 0.0125101
21.9104 68.8722 2
20.9142 71.1327 4
24.0083 69.8051 0.00747651
23.1494 72.1455 2
25.446 73.0099 0
23.0961 12.7883 3.98155
23.9724 10.1689 3.98299
25.0232 7.3125 3.98632
25.8598 9.38148 2
26.2791 4.32867 3.99195
27.0691 6.54159 2
27.8208 8.65343 0.0162025
27.7943 1.27781 4
28.4871 3.64411 2
29.1547 5.87784 0.0122941
30.1841 0.720551 2
30.7254 3.09836 0.00732592
32.6053 0.320823 0
35.8351 35.8204 3.89536
37.4961 35.8223 2
39.1674 35.8152 0.105474
24.7769 12.073 2
23.7523 14.3599 2
22.4806 15.037 3.98062
25.3577 13.909 3.98091
24.0256 15.6233 3.98033
26.622 11.39 0.0184049
29.2253 12.6443 0.0190539
27.292 13.3766 2
29.7811 14.2046 2
28.3574 15.9796 3.98067
34.2995 34.2141 3.83562
35.8685 34.1522 2
37.5029 34.1089 0.122594
35.739 32.3199 0.241946
37.5195 30.2727 0.179849
42.3163 28.4221 0.0822987
39.8469 28.9537 0.113464
40.0433 27.5653 2
37.5275 28.6273 2
35.6482 30.4729 2
34.2004 32.6597 2
37.6078 27.2887 3.92958
35.1898 28.9634 3.88603
34.0021 31.2179 3.82329
33.1186 32.9931 3.70834
30.2092 19.3485 3.98417
30.9268 16.8435 2
31.9155 14.484 0.020993
40.367 25.6749 -0.000796828
38.0692 22.9356 0.00491633
33.5522 17.3942 0.0214476
35.5818 20.095 0.0213287
32.8632 19.8066 2
35.1935 22.6776 2
37.782 25.2323 2
32.3098 22.4353 3.99249
35.0005 25.2298 4.00418
34.1453 37.5035 3.87915
35.8385 37.5005 2
37.4964 37.4956 0.0703267
37.6384 50.9742 -0.0104926
36.8692 48.3291 0.0542213
35.8355 39.1837 0.104429
35.1569 46.0271 0.120706
33.9807 43.7871 0.177553
34.2891 40.7976 0.163782
33.0923 42.0112 0.292136
35.488 50.1316 2
34.2211 39.1735 2
32.7459 40.8833 2
34.2778 47.4364 2
32.5384 42.6738 2
33.1479 45.1721 2
33.2875 49.1091 3.99884
32.4186 39.2854 3.7699
31.4174 41.1417 3.81998
31.4884 43.7332 3.88172
32.3045 46.3265 3.92105
34.3758 52.4636 0.00481255
32.0358 51.1799 2
29.912 49.6915 3.98996
30.5362 53.3605 0.0217159
28.4582 51.5751 2
26.5618 49.9647 3.97175
26.9086 53.4283 0.0270973
25.117 51.7289 2
23.4004 50.1747 3.96757
23.6029 53.4701 0.0346647
22.0104 51.7896 2
20.5203 50.301 3.96648
18.0365 50.3189 3.96833
17.8685 52.7817 3.96288
19.2436 51.6226 2
17.4493 55.3311 3.9658
18.9407 54.2989 2
20.4982 53.2112 0.0390299
17.1388 57.8671 3.97294
18.4529 56.7167 2
19.9435 55.8253 0.0290586
17.1373 60.5453 3.97572
18.3703 59.1062 2
19.4417 57.8837 0.0254313
17.4071 63.4673 3.98321
18.6186 61.7662 2
19.7072 60.2032 0.0228319
17.9413 66.6173 3.99204
19.1261 64.6769 2
20.2068 62.8597 0.0182341
18.75 69.9759 4
19.8845 67.8088 2
20.9372 65.7653 0.0129187
21.9108 68.8721 0.00762682
20.9142 71.1327 2
23.1494 72.1454 0
21.5872 13.6089 3.98101
22.1904 11.0285 3.98247
23.0966 12.7883 2
23.041 8.17823 3.98586
23.9724 10.1685 2
24.1167 5.14354 3.99162
25.0228 7.31202 2
25.86 9.38194 0.0167216
25.446 1.99014 4
26.2787 4.32854 2
27.0695 6.54203 0.013042
27.7943 1.27778 2
28.4875 3.64436 0.00764842
30.1841 0.720592 0
34.1929 35.8256 3.86836
35.8475 35.8274 2
37.4982 35.8135 0.0862823
21.3063 15.8331 3.98098
24.7767 12.0732 0.0180887
23.7516 14.36 0.0189883
25.3583 13.9088 2
22.4814 15.0371 2
24.0263 15.6234 2
23.2653 16.2554 3.97932
25.3812 16.092 3.9806
27.2915 13.377 0.01858
29.7809 14.2049 0.0193988
28.3577 15.98 2
27.4415 18.8041 3.98302
32.7564 34.1236 3.74943
34.3181 34.2262 2
35.8578 34.1349 0.139934
34.2066 32.6585 0.258464
35.6724 30.4991 0.165656
37.5266 28.6526 0.120513
40.0344 27.5877 0.0854157
37.6085 27.2576 2
33.104 32.9836 2
35.1798 28.9353 2
33.9726 31.1839 2
35.0759 27.4179 3.93162
33.1839 29.8558 3.8806
32.59 32.3466 3.81822
29.5839 21.9436 3.99678
30.2103 19.3515 2
30.9274 16.8431 0.0211
37.7954 25.2476 -0.00676895
35.1946 22.6839 0.0110584
32.8624 19.8035 0.0192476
32.3091 22.433 2
35.0139 25.2221 2
31.749 25.6567 4.00592
32.2992 37.5061 3.77769
34.1682 37.5063 2
35.8252 37.5012 0.0902132
35.4913 50.1132 0.000636489
34.288 47.4018 0.0776596
34.1988 39.1832 0.128883
33.1642 45.1504 0.115629
32.5675 42.6511 0.170497
32.7352 40.8813 0.248324
33.2812 49.1012 2
32.4327 39.2831 2
31.3943 41.1604 2
32.2759 46.3515 2
31.4636 43.7561 2
31.2191 47.9428 3.9913
30.6664 39.4268 3.81833
30.1482 41.9535 3.87473
30.5108 44.9173 3.93834
32.0373 51.1704 -0.00164416
29.9092 49.6908 2
27.9569 48.1559 3.96818
28.4599 51.576 0.0227841
26.5602 49.963 2
24.7305 48.4461 3.97257
25.1188 51.7311 0.0386511
23.3996 50.1729 2
21.7461 48.7696 3.96995
22.0116 51.7906 0.041771
20.5187 50.3 2
19.1035 49.0783 3.97203
16.9425 49.3207 3.97225
16.8096 51.3974 3.9663
18.0373 50.3181 2
16.4064 53.8627 3.96483
17.8659 52.7816 2
19.2451 51.6231 0.0358581
15.9841 56.4668 3.96735
17.4486 55.3314 2
18.9418 54.2993 0.0381489
15.7521 59.2056 3.97424
17.1384 57.8683 2
18.4537 56.7158 0.0261967
15.7885 62.1357 3.97941
17.1374 60.5469 2
18.3706 59.1051 0.0260571
16.0883 65.2999 3.99119
17.4069 63.4686 2
18.6186 61.7648 0.021546
16.6661 68.6801 4
17.9407 66.6172 2
19.1262 64.6758 0.0139257
18.75 69.9759 2
19.8849 67.8087 0.00771907
20.9142 71.1327 0
20.2196 14.5983 3.9801
21.5877 13.609 2
20.5297 11.9987 3.98183
21.1438 9.1482 3.9855
22.1906 11.0284 2
23.0961 12.7883 0.0184488
22.0158 6.08263 3.99138
23.0407 8.17779 2
23.9724 10.1689 0.0170117
23.1494 2.85457 4
24.1161 5.14346 2
25.0232 7.3125 0.0136794
25.446 1.99012 2
26.2791 4.32867 0.00804638
27.7943 1.27781 0
32.4229 35.7214 3.76367
34.2115 35.8352 2
35.8351 35.8204 0.10464
21.3072 15.8329 2
20.3047 16.9665 3.98174
22.0986 16.6396 3.97868
25.3577 13.909 0.0190904
22.4806 15.037 0.0193835
24.0256 15.6233 0.0196721
25.3818 16.0922 2
23.2662 16.2556 2
24.2062 18.4584 3.97703
27.024 21.4658 3.99105
28.3574 15.9796 0.0193302
27.4432 18.8046 2
31.4476 33.8682 3.82068
32.7702 34.1216 2
34.2995 34.2141 0.164378
33.1186 32.9931 0.291661
34.0021 31.2179 0.176705
35.1898 28.9634 0.113974
37.6078 27.2887 0.0704203
35.0574 27.381 2
32.5353 32.3236 2
33.1668 29.8328 2
32.6093 28.1384 3.94246
31.4979 31.2768 3.88288
28.8521 24.4186 3.98115
29.5815 21.9484 2
30.2092 19.3485 0.0158276
35.0005 25.2298 -0.00418121
32.3098 22.4353 0.00751087
31.752 25.639 2
29.7244 27.3332 3.962
30.3626 37.4975 3.82494
32.3082 37.5028 2
34.1453 37.5035 0.120853
33.2875 49.1091 0.00115624
32.3045 46.3265 0.0789472
32.4186 39.2854 0.230101
31.4884 43.7332 0.118279
31.4174 41.1417 0.180019
31.2162 47.9452 2
30.6444 39.4425 2
30.126 41.9686 2
30.4998 44.9324 2
29.2948 46.5439 4.00078
29.2442 39.8548 3.88765
28.8616 43.1422 3.93944
29.912 49.6915 0.0100391
27.954 48.1523 2
26.0606 46.6275 3.97567
26.5618 49.9647 0.028248
24.7301 48.4437 2
22.9226 47.0522 3.97412
23.4004 50.1747 0.0324295
21.7459 48.7682 2
20.0755 47.6011 3.97695
20.5203 50.301 0.0335198
19.1045 49.0772 2
17.7331 48.1663 3.97592
16.1863 48.6735 3.97492
16.9436 49.32 2
15.8844 50.1609 3.96936
15.3984 52.4082 3.96608
16.8093 51.397 2
18.0365 50.3189 0.0316677
14.8784 54.9697 3.96711
16.4058 53.8628 2
17.8685 52.7817 0.0371155
14.4636 57.7336 3.97055
15.9838 56.4675 2
17.4493 55.3311 0.0341992
14.2672 60.6892 3.97788
15.7521 59.2071 2
17.1388 57.8671 0.0270606
14.3332 63.8588 3.98887
15.7883 62.1371 2
17.1373 60.5453 0.0242811
14.6715 67.2507 4
16.0874 65.2996 2
17.4071 63.4673 0.0167911
16.6661 68.6801 2
17.9413 66.6173 0.00795877
18.75 69.9759 0
18.934 15.7852 3.98012
20.2202 14.5983 2
18.9796 13.1099 3.98082
21.5872 13.6089 0.0189877
20.5301 11.9987 2
19.343 10.2362 3.98502
19.9904 7.14726 3.99129
21.1437 9.14797 2
22.1904 11.0285 0.0175263
20.9142 3.86727 4
22.0151 6.08273 2
23.041 8.17823 0.0141383
23.1494 2.85451 2
24.1167 5.14354 0.00838271
25.446 1.99014 0
30.685 35.5873 3.82143
32.436 35.7224 2
34.1929 35.8256 0.131641
21.3063 15.8331 0.019024
22.0995 16.6397 2
20.3056 16.9658 2
19.2487 18.4146 3.97732
21.7839 17.8569 3.97983
25.3812 16.092 0.0194005
23.2653 16.2554 0.0206806
24.2075 18.4585 2
22.2875 19.9032 3.97392
24.6049 21.3353 3.98638
26.4613 23.7319 3.96955
27.0242 21.4655 2
27.4415 18.8041 0.016985
30.1791 33.0574 3.88244
31.4259 33.8337 2
32.7564 34.1236 0.250569
32.59 32.3466 0.181778
33.1839 29.8558 0.119402
35.0759 27.4179 0.0683821
32.5983 28.1235 2
31.4764 31.2498 2
30.2173 29.577 3.95677
27.9657 26.5566 3.9806
28.8502 24.4296 2
29.5839 21.9436 0.00322212
31.749 25.6567 -0.00592192
29.7222 27.3008 2
28.9 37.5109 3.89488
30.3523 37.4991 2
32.2992 37.5061 0.222308
31.2191 47.9428 0.00870449
30.5108 44.9173 0.0616585
30.6664 39.4268 0.181671
30.1482 41.9535 0.125267
29.2929 46.558 2
29.2206 39.8731 2
28.8348 43.1602 2
27.4397 44.8388 3.98015
27.0175 40.5838 3.96317
27.9569 48.1559 0.0318166
26.0576 46.6298 2
24.1544 45.1813 3.97612
24.7305 48.4461 0.0274287
22.9234 47.0503 2
21.0473 45.8724 3.97867
21.7461 48.7696 0.0300477
20.0769 47.5999 2
18.4066 46.7231 3.97799
19.1035 49.0783 0.0279711
17.7337 48.1656 2
16.3889 47.7031 3.97603
16.1872 48.6729 2
15.2285 49.0068 3.97251
16.9425 49.3207 0.0277491
15.8854 50.1604 2
14.5108 50.9781 3.96804
13.8383 53.4294 3.96732
15.399 52.408 2
16.8096 51.3974 0.0337003
13.2608 56.1609 3.96838
14.8783 54.9697 2
16.4064 53.8627 0.0351669
12.8506 59.1224 3.97623
14.4636 57.7346 2
15.9841 56.4668 0.0326522
12.679 62.301 3.98638
14.267 60.6902 2
15.7521 59.2056 0.0257564
12.7746 65.6939 4
14.3319 63.858 2
15.7885 62.1357 0.0205905
14.6714 67.2507 2
16.0883 65.2999 0.00881385
16.6661 68.6801 0
17.6704 17.1614 3.9768
18.9346 15.785 2
17.5114 14.3747 3.97975
20.2196 14.5983 0.0199031
18.9801 13.1098 2
17.6385 11.4554 3.984
20.5297 11.9987 0.01817
19.3431 10.236 2
18.0506 8.34 3.99122
18.75 5.0241 4
19.9896 7.14767 2
21.1438 9.1482 0.0144974
20.9142 3.86727 2
22.0158 6.08263 0.00861897
23.1494 2.85457 0
29.2646 35.136 3.89143
30.6601 35.5671 2
32.4229 35.7214 0.236326
22.0986 16.6396 0.0213235
20.3047 16.9665 0.0182554
21.7848 17.8567 2
19.2496 18.4137 2
17.992 19.9481 3.9727
20.8841 19.3876 3.97705
24.2062 18.4584 0.0229668
22.2883 19.9028 2
24.6053 21.3357 2
22.3778 21.7311 3.97746
24.7322 23.1776 3.97342
25.5492 25.96 3.9722
26.4636 23.7319 2
27.024 21.4658 0.00894581
28.5567 32.3571 3.93857
30.1535 33.0436 2
31.4476 33.8682 0.179322
31.4979 31.2768 0.117121
32.6093 28.1384 0.0575426
30.2061 29.5746 2
27.1508 29.1429 4.00493
27.9617 26.5626 2
28.8521 24.4186 0.0188452
29.7244 27.3332 0.0380006
27.1377 37.3661 3.94333
28.8611 37.5054 2
30.3626 37.4975 0.175059
29.2948 46.5439 -0.000779725
28.8616 43.1422 0.0605582
29.2442 39.8548 0.112348
27.4337 44.8579 2
27.0021 40.6006 2
25.4589 43.152 3.9845
24.2701 39.4446 3.97795
26.0606 46.6275 0.0243326
24.1497 45.18 2
22.0462 43.9257 3.97866
22.9226 47.0522 0.0258793
21.0466 45.8711 2
19.0932 44.9535 3.97837
20.0755 47.6011 0.0230544
18.4078 46.7222 2
16.6958 46.2017 3.97655
17.7331 48.1663 0.024084
16.3897 47.7026 2
14.9701 47.6616 3.97403
16.1863 48.6735 0.0250814
15.2295 49.0064 2
13.8081 49.54 3.9696
15.8844 50.1609 0.0306419
14.5117 50.9778 2
12.9052 51.8702 3.96765
12.1481 54.5223 3.96951
13.8387 53.4293 2
15.3984 52.4082 0.0339172
11.5367 57.4544 3.97362
13.261 56.1612 2
14.8784 54.9697 0.0328934
11.1339 60.6268 3.98438
12.8506 59.123 2
14.4636 57.7336 0.0294541
10.9835 64.0165 4
12.6776 62.2993 2
14.2672 60.6892 0.0221165
12.7745 65.694 2
14.3332 63.8588 0.0111314
14.6715 67.2507 0
16.4069 18.6574 3.97305
17.6709 17.1607 2
16.1031 15.7844 3.97864
18.934 15.7852 0.0198777
17.5119 14.3742 2
16.0203 12.8094 3.98213
18.9796 13.1099 0.0191753
17.6388 11.4551 2
16.2019 9.66292 3.99093
19.343 10.2362 0.0149834
18.0498 8.34064 2
16.6661 6.31991 4
18.75 5.02404 2
19.9904 7.14726 0.00871306
20.9142 3.86727 0
27.6623 34.7879 3.93679
29.2397 35.1135 2
30.685 35.5873 0.178572
16.7011 21.387 3.96335
21.7839 17.8569 0.0201729
19.2487 18.4146 0.0226826
20.8849 19.3871 2
17.9928 19.9469 2
19.7438 21.5845 3.97513
22.2875 19.9032 0.0260782
24.6049 21.3353 0.0136197
22.3782 21.7308 2
24.7332 23.1772 2
22.9025 24.6119 3.971
24.6921 28.5392 3.97731
25.547 25.9591 2
26.4613 23.7319 0.0304484
26.4012 31.7208 3.98663
28.5294 32.3397 2
30.1791 33.0574 0.117559
30.2173 29.577 0.0432296
27.1675 29.1328 2
27.9657 26.5566 0.0193954
24.9651 36.8597 3.98725
27.1149 37.3612 2
28.9 37.5109 0.105122
27.4397 44.8388 0.0198484
27.0175 40.5838 0.0368337
25.4454 43.1589 2
24.2562 39.4433 2
23.1662 41.804 3.98003
21.9885 38.5145 3.97759
24.1544 45.1813 0.0238823
22.0448 43.9262 2
19.894 42.8766 3.97759
21.0473 45.8724 0.0213289
19.093 44.9529 2
17.0517 44.3684 3.97697
18.4066 46.7231 0.0220107
16.6967 46.2012 2
14.905 46.0824 3.97476
16.3889 47.7031 0.0239745
14.971 47.6612 2
13.3201 48.0029 3.97078
15.2285 49.0068 0.027494
13.8089 49.5397 2
12.1235 50.2497 3.9681
14.5108 50.9781 0.031957
12.9055 51.8701 2
11.143 52.8337 3.96929
10.3276 55.708 3.9734
12.1485 54.5223 2
13.8383 53.4294 0.032677
9.7009 58.8488 3.98206
11.5369 57.4545 2
13.2608 56.1609 0.0316211
9.30605 62.2254 4
11.1324 60.6245 2
12.8506 59.1224 0.0237734
10.9835 64.0165 2
12.679 62.301 0.0136162
12.7746 65.6939 0
15.1582 20.195 3.96677
16.4074 18.6565 2
14.7508 17.3084 3.97508
17.6704 17.1614 0.0231976
16.1036 15.7833 2
14.4831 14.2921 3.98056
17.5114 14.3747 0.0202468
16.0206 12.8087 2
14.4447 11.114 3.99013
17.6385 11.4554 0.0159956
16.2011 9.66376 2
14.6715 7.74927 4
18.0506 8.34 0.00878441
16.6661 6.31988 2
18.75 5.0241 0
25.6195 34.272 3.99094
27.6415 34.7804 2
29.2646 35.136 0.108574
17.8845 22.3361 3.97317
15.5451 22.9267 3.96852
16.7016 21.3865 2
20.8841 19.3876 0.022953
17.992 19.9481 0.0272998
19.7443 21.584 2
19.723 24.3925 3.96947
22.3778 21.7311 0.0225353
24.7322 23.1776 0.0265808
22.9027 24.6118 2
22.0603 27.84 3.97158
23.9593 31.2044 3.97563
24.7031 28.5407 2
25.5492 25.96 0.0277965
26.3896 31.7019 2
28.5567 32.3571 0.0614306
27.1508 29.1429 -0.00492769
22.7164 36.2856 3.9816
24.9435 36.8553 2
27.1377 37.3661 0.0566719
25.4589 43.152 0.015502
24.2701 39.4446 0.022053
23.1591 41.8026 2
21.9814 38.5131 2
20.9025 40.6398 3.97632
20.3062 37.7974 3.97744
22.0462 43.9257 0.0213434
19.8937 42.8764 2
17.4965 42.0887 3.97686
19.0932 44.9535 0.021626
17.0528 44.3678 2
14.9299 44.1933 3.97506
16.6958 46.2017 0.0234499
14.9058 46.0821 2
13.0019 46.29 3.97129
14.9701 47.6616 0.0259662
13.3206 48.0026 2
11.4958 48.5471 3.96831
13.8081 49.54 0.0304035
12.124 50.2496 2
10.2683 51.0786 3.9691
12.9052 51.8702 0.0323536
11.1435 52.8336 2
9.23609 53.888 3.97356
8.38453 56.9816 3.98181
10.3279 55.7076 2
12.1481 54.5223 0.0304876
7.74927 60.3285 4
9.69969 58.8457 2
11.5367 57.4544 0.0263825
9.306 62.2255 2
11.1339 60.6268 0.0156197
10.9835 64.0165 0
13.9719 21.7591 3.96751
15.1588 20.1944 2
13.4555 18.9081 3.96958
16.4069 18.6574 0.0269535
14.7514 17.3071 2
13.0292 15.8858 3.97888
16.1031 15.7844 0.0213561
14.4833 14.291 2
12.7823 12.6876 3.98853
16.0203 12.8094 0.017875
14.4438 11.1151 2
12.7746 9.30605 4
16.2019 9.66292 0.00906646
14.6715 7.74924 2
16.6661 6.31991 0
23.2939 33.8153 3.9818
25.5995 34.2667 2
27.6623 34.7879 0.0632127
17.6747 24.0532 3.97121
17.8849 22.3356 2
14.3437 24.4573 3.96969
15.5458 22.9264 2
16.7011 21.387 0.0366466
19.158 27.2178 3.97092
19.7438 21.5845 0.0248674
19.7229 24.3922 2
21.354 30.6804 3.97366
22.9025 24.6119 0.0289973
22.0667 27.8408 2
23.9459 31.2051 2
24.6921 28.5392 0.0226886
26.4012 31.7208 0.0133726
20.4275 35.9379 3.97719
22.712 36.2803 2
24.9651 36.8597 0.0127539
23.1662 41.804 0.0199667
21.9885 38.5145 0.0224105
20.9051 40.6402 2
20.3083 37.7973 2
18.2385 39.0035 3.97753
19.894 42.8766 0.0224063
17.4984 42.088 2
14.9041 41.9135 3.97579
17.0517 44.3684 0.0230343
14.9311 44.1931 2
12.756 44.3866 3.97142
14.905 46.0824 0.0252436
13.0024 46.2898 2
10.9999 46.7309 3.96842
13.3201 48.0029 0.0292188
11.4961 48.547 2
9.53125 49.239 3.96873
12.1235 50.2497 0.0319029
10.2687 51.0784 2
8.26888 52.0018 3.97318
11.143 52.8337 0.0307061
9.23649 53.8874 2
7.1934 55.0323 3.98272
6.31991 58.3339 4
8.38368 56.9783 2
10.3276 55.708 0.0266
7.74924 60.3285 2
9.7009 58.8488 0.0179393
9.30605 62.2254 0
13.2507 25.3674 3.97149
12.838 23.2852 3.96792
13.9728 21.7589 2
12.2432 20.5568 3.96886
15.1582 20.195 0.0332274
13.4562 18.9071 2
11.6608 17.5681 3.97552
14.7508 17.3084 0.02492
13.0295 15.8847 2
11.2199 14.3729 3.9863
14.4831 14.2921 0.0194425
12.7812 12.6888 2
10.9835 10.9835 4
14.4447 11.114 0.00987348
12.7745 9.306 2
14.6715 7.74927 0
20.7875 33.4108 3.97549
23.2999 33.8182 2
25.6195 34.272 0.00905714
15.9828 26.4115 3.97157
17.6748 24.0529 2
17.8845 22.3361 0.0268341
14.3439 24.4571 2
15.5451 22.9267 0.0314838
18.5184 30.1864 3.97427
19.1577 27.2179 2
19.723 24.3925 0.0305297
21.3624 30.6811 2
22.0603 27.84 0.0284244
23.9593 31.2044 0.0243707
17.8544 35.9722 3.97801
20.4258 35.9386 2
22.7164 36.2856 0.0183978
20.9025 40.6398 0.0236817
20.3062 37.7974 0.0225621
18.2407 39.0037 2
14.4188 39.1743 3.97671
17.4965 42.0887 0.0231382
14.9055 41.9134 2
12.4571 42.2721 3.97212
14.9299 44.1933 0.0249359
12.7566 44.3864 2
10.5821 44.7996 3.96886
13.0019 46.29 0.0287051
11.0002 46.7308 2
8.91333 47.3183 3.96835
11.4958 48.5471 0.0316894
9.53146 49.2389 2
7.43578 50.0353 3.97262
10.2683 51.0786 0.0308952
8.26923 52.0012 2
6.13401 53.0074 3.98322
9.23609 53.888 0.026442
7.19286 55.0295 2
5.0241 56.25 4
6.31988 58.3339 2
8.38453 56.9816 0.0181863
7.74927 60.3285 0
13.509 26.8206 3.97075
11.9476 24.7909 3.96915
13.2507 25.3672 2
11.1454 22.2384 3.96926
12.8383 23.2849 2
13.9719 21.7591 0.0324894
12.2441 20.5564 2
10.3927 19.3231 3.97335
13.4555 18.9081 0.0304218
11.6614 17.5673 2
9.76116 16.1571 3.98357
13.0292 15.8858 0.0211205
11.2186 14.3748 2
9.30607 12.7746 4
12.7823 12.6876 0.0114655
10.9835 10.9835 2
12.7746 9.30605 0
18.0246 33.1221 3.9767
20.7893 33.4111 2
23.2939 33.8153 0.018203
15.5948 29.6465 3.97322
15.983 26.4115 2
17.6747 24.0532 0.0287917
14.3437 24.4573 0.0303142
18.5183 30.1866 2
19.158 27.2178 0.0290826
21.354 30.6804 0.0263447
15.0379 36.0215 3.97654
17.8569 35.9725 2
20.4275 35.9379 0.0228097
12.6794 37.8289 3.97519
18.2385 39.0035 0.0224716
14.4196 39.1742 2
11.9769 40.1375 3.97268
14.9041 41.9135 0.0242084
12.4578 42.2719 2
10.1899 42.775 3.96896
12.756 44.3866 0.0285776
10.5823 44.7995 2
8.39114 45.3202 3.96814
10.9999 46.7309 0.0315782
8.91342 47.3182 2
6.72703 48.0006 3.97211
9.53125 49.239 0.031273
7.43596 50.0349 2
5.21083 50.9107 3.98304
8.26888 52.0018 0.0268249
6.13372 53.0054 2
3.86727 54.0858 4
7.1934 55.0323 0.0172795
5.02404 56.25 2
6.31991 58.3339 0
12.978 29.039 3.97047
11.385 26.4904 3.96901
13.5086 26.8205 2
10.2029 23.9694 3.9696
11.9481 24.7907 2
13.2507 25.3674 0.0285126
9.24504 21.1404 3.97313
11.1464 22.2381 2
12.838 23.2852 0.0320809
12.2432 20.5568 0.0311366
10.3936 19.3229 2
8.41743 18.0289 3.98172
11.6608 17.5681 0.0244794
9.76002 16.1598 2
7.74928 14.6715 4
11.2199 14.3729 0.0137028
9.30602 12.7745 2
10.9835 10.9835 0
14.5968 32.8689 3.97502
18.0268 33.1225 2
20.7875 33.4108 0.0245066
15.5955 29.6467 2
15.9828 26.4115 0.0284316
18.5184 30.1864 0.0257253
12.9778 36.2105 3.97395
15.0399 36.0217 2
17.8544 35.9722 0.02199
12.6803 37.8289 2
11.3211 38.3086 3.97325
14.4188 39.1743 0.0232934
11.9782 40.1374 2
9.78164 40.752 3.96949
12.4571 42.2721 0.0278826
10.1904 42.7749 2
7.94055 43.269 3.96791
10.5821 44.7996 0.0311431
8.39124 45.32 2
6.13328 45.9056 3.9716
8.91333 47.3183 0.0316506
6.72709 48.0002 2
4.4224 48.7514 3.98249
7.43578 50.0353 0.0273836
5.21069 50.9097 2
2.85457 51.8506 4
6.13401 53.0074 0.0167835
3.86727 54.0858 2
5.0241 56.25 0
12.1251 31.2613 3.97168
10.8038 28.418 3.96891
12.9787 29.039 2
9.41759 25.799 3.96905
11.3851 26.4903 2
13.509 26.8206 0.0292452
8.23147 23.0238 3.97332
10.2035 23.9692 2
11.9476 24.7909 0.030846
7.19956 19.979 3.982
9.24595 21.1405 2
11.1454 22.2384 0.0307351
10.3927 19.3231 0.0266515
8.41684 18.0321 2
6.31992 16.6661 4
9.76116 16.1571 0.0164329
7.74926 14.6714 2
9.30607 12.7746 0
12.155 34.2974 3.9742
14.598 32.8691 2
18.0246 33.1221 0.0232966
15.5948 29.6465 0.0267833
10.8837 36.6112 3.97267
12.9786 36.2105 2
15.0379 36.0215 0.0234638
12.6794 37.8289 0.0248134
11.3219 38.3084 2
9.37211 38.8221 3.97016
11.9769 40.1375 0.0273174
9.78223 40.7518 2
7.55176 41.2105 3.9681
10.1899 42.775 0.0310405
7.94059 43.2688 2
5.64549 43.7684 3.97114
8.39114 45.3202 0.0318628
6.13338 45.9053 2
3.76804 46.5371 3.98192
6.72703 48.0006 0.0278859
4.42238 48.751 2
1.99014 49.554 4
5.21083 50.9107 0.0169562
2.85451 51.8506 2
3.86727 54.0858 0
10.9667 32.922 3.97306
10.1223 30.3849 3.96919
12.1259 31.2614 2
8.72552 27.7324 3.96864
10.8041 28.4179 2
12.978 29.039 0.0295301
7.35698 24.9825 3.97252
9.41788 25.7989 2
11.385 26.4904 0.0309923
6.11632 22.0023 3.98309
8.23212 23.024 2
10.2029 23.9694 0.0304009
5.02411 18.75 4
7.19934 19.9816 2
9.24504 21.1404 0.0268689
8.41743 18.0289 0.0182773
6.3199 16.6661 2
7.74928 14.6715 0
10.4891 35.0012 3.9724
12.1559 34.2974 2
14.5968 32.8689 0.0249799
9.04006 36.9845 3.97044
10.8849 36.6112 2
12.9778 36.2105 0.0260542
11.3211 38.3086 0.0267451
9.37281 38.822 2
7.23199 39.1815 3.96854
9.78164 40.752 0.03051
7.55197 41.2103 2
5.26089 41.6139 3.97077
7.94055 43.269 0.0320916
5.64554 43.7681 2
3.24588 44.2819 3.98159
6.13328 45.9056 0.0284041
3.76817 46.5368 2
1.27781 47.2057 4
4.4224 48.7514 0.0175079
1.99012 49.554 2
2.85457 51.8506 0
10.126 33.8831 3.97277
9.40964 32.1563 3.96989
10.9673 32.922 2
8.07447 29.6958 3.96856
10.1227 30.3848 2
12.1251 31.2613 0.0283183
6.60083 27.0085 3.97197
8.72555 27.7323 2
10.8038 28.418 0.031086
5.1717 24.095 3.98311
7.35731 24.9826 2
9.41759 25.799 0.0309507
3.86728 20.9142 4
6.11627 22.004 2
8.23147 23.0238 0.0266795
5.02406 18.75 2
7.19956 19.979 0.0180027
6.31992 16.6661 0
8.86403 35.2798 3.97072
10.4897 35.0012 2
12.155 34.2974 0.0258013
7.01548 37.2056 3.96877
9.04031 36.9844 2
10.8837 36.6112 0.0273275
9.37211 38.8221 0.0298443
7.23222 39.1814 2
4.98862 39.4672 3.97089
7.55176 41.2105 0.0318992
5.26109 41.6136 2
2.85644 42.0022 3.98135
5.64549 43.7684 0.0288594
3.24597 44.2818 2
0.720592 44.8159 4
3.76804 46.5371 0.0180751
1.27778 47.2057 2
1.99014 49.554 0
8.90185 33.6988 3.97058
10.1266 33.8831 2
7.51187 31.6094 3.96877
9.41001 32.1563 2
10.9667 32.922 0.0269379
5.94597 29.0694 3.97182
8.07441 29.6958 2
10.1223 30.3849 0.0308116
4.35949 26.2475 3.98245
6.6009 27.0085 2
8.72552 27.7324 0.0313608
2.85458 23.1494 4
5.17172 24.0957 2
7.35698 24.9825 0.0274804
3.86728 20.9142 2
6.11632 22.0023 0.01691
5.02411 18.75 0
6.96554 35.3059 3.96895
8.86453 35.2797 2
10.4891 35.0012 0.0276026
4.83856 37.3396 3.97154
7.01554 37.2055 2
9.04006 36.9845 0.0295641
7.23199 39.1815 0.0314629
4.98884 39.467 2
2.60456 39.7139 3.98111
5.26089 41.6139 0.0292342
2.85667 42.0024 2
0.320823 42.3947 4
3.24588 44.2819 0.0184098
0.720551 44.8159 2
1.27781 47.2057 0
7.12552 33.4609 3.96903
8.90208 33.6987 2
10.126 33.8831 0.0272343
5.41681 31.1334 3.97183
7.51191 31.6094 2
9.40964 32.1563 0.0301129
3.68123 28.4434 3.98196
5.94592 29.0695 2
8.07447 29.6958 0.0314385
1.99015 25.446 4
4.35952 26.2476 2
6.60083 27.0085 0.028028
2.85453 23.1494 2
5.1717 24.095 0.0168856
3.86728 20.9142 0
4.85278 35.2513 3.9718
6.96582 35.3059 2
8.86403 35.2798 0.029284
2.4959 37.4285 3.98177
4.8386 37.3396 2
7.01548 37.2056 0.0312267
4.98862 39.4672 0.0291149
2.60482 39.7143 2
0.080333 39.9526 4
2.85644 42.0022 0.0186477
0.320817 42.3947 2
0.720592 44.8159 0
5.04616 33.19 3.97194
7.12564 33.4609 2
8.90185 33.6988 0.02942
3.14555 30.666 3.98167
5.41684 31.1336 2
7.51187 31.6094 0.0312338
1.27793 27.7943 4
3.68129 28.4435 2
5.94597 29.0694 0.0281781
1.99013 25.446 2
4.35949 26.2475 0.0175457
2.85458 23.1494 0
2.548 35.159 3.9818
4.85307 35.2515 2
6.96554 35.3059 0.0310522
0 37.5 4
2.49597 37.4289 2
4.83856 37.3396 0.0284617
2.60456 39.7139 0.018887
0.0802903 39.9526 2
0.320823 42.3947 0
2.76558 32.9057 3.98189
5.04627 33.1902 2
7.12552 33.4609 0.0309679
0.721173 30.1842 4
3.14568 30.6664 2
5.41681 31.1334 0.0281675
1.27779 27.7943 2
3.68123 28.4434 0.0180429
1.99015 25.446 0
0.0806499 35.0474 4
2.54832 35.1594 2
4.85278 35.2513 0.028198
0 37.5 2
2.4959 37.4285 0.0182317
0.080333 39.9526 0
0.32156 32.6054 4
2.7657 32.9062 2
5.04616 33.19 0.0280586
0.72056 30.1841 2
3.14555 30.666 0.0183283
1.27793 27.7943 0
0.0802889 35.0474 2
2.548 35.159 0.0181998
0 37.5 0
0.320817 32.6053 2
2.76558 32.9057 0.0181113
0.721173 30.1842 0
0.0806499 35.0474 0
0.32156 32.6054 0
CELLS 1910 17190
8 18 6 25 56 2 0 5 16
8 57 23 6 18 17 4 0 2
8 78 36 9 29 31 11 1 7
8 31 11 1 7 79 37 10 30
8 110 57 18 50 48 17 2 14
8 50 18 56 111 14 2 16 49
8 116 62 22 55 52 20 3 15
8 56 25 67 118 16 5 24 53
8 119 63 23 57 54 21 4 17
8 55 22 63 119 15 3 21 54
8 58 26 68 121 18 6 25 56
8 122 65 26 58 57 23 6 18
8 73 31 7 27 142 79 30 71
8 143 78 29 72 73 31 7 27
8 83 147 76 34 32 74 28 8
8 84 148 78 36 33 75 29 9
8 76 34 8 28 148 84 33 75
8 37 79 150 86 10 30 77 35
8 151 87 36 78 80 38 11 31
8 80 38 11 31 152 88 37 79
8 175 100 42 94 96 44 12 40
8 44 96 176 101 12 40 95 43
8 101 176 98 46 43 95 41 13
8 46 98 178 103 13 41 97 45
8 178 103 45 97 147 83 32 74
8 189 116 55 109 106 52 15 47
8 111 56 118 191 49 16 53 107
8 192 119 57 110 108 54 17 48
8 109 55 119 192 47 15 54 108
8 194 122 58 112 110 57 18 50
8 112 58 121 195 50 18 56 111
8 115 61 19 51 197 124 59 113
8 115 61 125 198 51 19 60 114
8 198 125 62 116 114 60 20 52
8 200 127 64 120 116 62 22 55
8 118 67 132 202 53 24 66 117
8 121 68 133 203 56 25 67 118
8 120 64 128 204 55 22 63 119
8 204 128 65 122 119 63 23 57
8 206 134 68 121 123 69 26 58
8 123 69 26 58 207 131 65 122
8 226 147 74 138 140 76 28 70
8 229 148 75 139 143 78 29 72
8 140 76 28 70 229 148 75 139
8 142 79 30 71 231 150 77 141
8 144 80 31 73 232 152 79 142
8 233 151 78 143 144 80 31 73
8 150 86 35 77 235 154 81 145
8 235 154 81 145 146 82 39 91
8 146 82 39 91 236 155 90 165
8 238 157 83 147 149 85 34 76
8 239 158 84 148 151 87 36 78
8 149 85 34 76 239 158 84 148
8 152 88 37 79 241 160 86 150
8 242 161 87 151 153 89 38 80
8 153 89 38 80 243 162 88 152
8 171 98 41 92 265 178 97 169
8 265 178 97 169 226 147 74 138
8 172 96 40 93 266 176 95 170
8 266 176 95 170 171 98 41 92
8 269 175 94 173 172 96 40 93
8 271 180 99 174 175 100 42 94
8 197 124 59 113 271 180 99 174
8 272 181 100 175 177 102 44 96
8 273 182 101 176 179 104 46 98
8 177 102 44 96 273 182 101 176
8 179 104 46 98 275 184 103 178
8 275 184 103 178 238 157 83 147
8 188 115 51 105 283 197 113 186
8 188 115 198 284 105 51 114 187
8 284 198 116 189 187 114 52 106
8 286 200 120 193 189 116 55 109
8 191 118 202 288 107 53 117 190
8 195 121 203 289 111 56 118 191
8 193 120 204 290 109 55 119 192
8 290 204 122 194 192 119 57 110
8 196 123 58 112 292 207 122 194
8 293 206 121 195 196 123 58 112
8 199 126 61 115 297 211 124 197
8 298 212 127 200 198 125 62 116
8 199 126 212 298 115 61 125 198
8 205 129 64 120 300 214 127 200
8 301 217 130 201 202 132 66 117
8 209 136 168 264 301 217 130 201
8 302 219 132 202 203 133 67 118
8 303 220 133 203 206 134 68 121
8 205 129 215 304 120 64 128 204
8 304 215 131 207 204 128 65 122
8 306 221 134 206 208 135 69 123
8 208 135 69 123 307 218 131 207
8 210 137 167 263 309 223 136 209
8 328 238 147 226 230 149 76 140
8 228 146 91 166 329 236 165 260
8 231 150 77 141 330 235 145 227
8 330 235 145 227 228 146 91 166
8 332 239 148 229 233 151 78 143
8 230 149 76 140 332 239 148 229
8 232 152 79 142 334 241 150 231
8 234 153 80 144 335 243 152 232
8 336 242 151 233 234 153 80 144
8 236 155 90 165 338 245 164 259
8 241 160 86 150 339 246 154 235
8 339 246 154 235 237 156 82 146
8 237 156 82 146 340 247 155 236
8 342 249 157 238 240 159 85 149
8 343 250 158 239 242 161 87 151
8 240 159 85 149 343 250 158 239
8 243 162 88 152 345 252 160 241
8 244 163 253 346 153 89 161 242
8 244 163 89 153 347 254 162 243
8 311 224 261 371 210 137 167 263
8 263 167 262 372 209 136 168 264
8 267 179 98 171 375 275 178 265
8 375 275 178 265 328 238 147 226
8 376 273 176 266 267 179 98 171
8 268 177 96 172 376 273 176 266
8 379 272 175 269 268 177 96 172
8 380 271 174 270 269 175 94 173
8 283 197 113 186 380 271 174 270
8 381 277 180 271 272 181 100 175
8 297 211 124 197 381 277 180 271
8 382 278 181 272 274 183 102 177
8 274 183 102 177 383 279 182 273
8 383 279 182 273 276 185 104 179
8 385 281 184 275 342 249 157 238
8 276 185 104 179 385 281 184 275
8 285 199 115 188 393 297 197 283
8 394 298 200 286 284 198 116 189
8 285 199 298 394 188 115 198 284
8 291 205 120 193 396 300 200 286
8 397 301 201 287 288 202 117 190
8 295 209 264 374 397 301 201 287
8 398 302 202 288 289 203 118 191
8 399 303 203 289 293 206 121 195
8 291 205 304 400 193 120 204 290
8 400 304 207 292 290 204 122 194
8 294 208 123 196 402 307 207 292
8 403 306 206 293 294 208 123 196
8 296 210 263 373 405 309 209 295
8 408 312 213 299 297 211 126 199
8 299 213 313 409 199 126 212 298
8 409 313 214 300 298 212 127 200
8 305 216 129 205 411 315 214 300
8 412 318 217 301 302 219 132 202
8 309 223 136 209 412 318 217 301
8 413 320 219 302 303 220 133 203
8 306 221 321 414 206 134 220 303
8 307 218 131 207 415 316 215 304
8 305 216 316 415 205 129 215 304
8 417 322 221 306 308 222 135 208
8 308 222 135 208 418 319 218 307
8 310 225 137 210 420 325 223 309
8 423 326 224 311 310 225 137 210
8 329 236 165 260 441 338 259 368
8 442 342 238 328 333 240 149 230
8 331 237 146 228 443 340 236 329
8 334 241 150 231 444 339 235 330
8 444 339 235 330 331 237 146 228
8 446 343 239 332 336 242 151 233
8 333 240 149 230 446 343 239 332
8 335 243 152 232 448 345 241 334
8 337 244 153 234 449 347 243 335
8 337 244 346 450 234 153 242 336
8 338 245 164 259 452 349 258 367
8 340 247 155 236 453 350 245 338
8 345 252 160 241 454 351 246 339
8 454 351 246 339 341 248 156 237
8 341 248 156 237 455 352 247 340
8 240 159 251 344 342 249 354 457
8 242 161 253 346 343 250 355 458
8 343 250 355 458 240 159 251 344
8 347 254 162 243 460 357 252 345
8 348 255 358 461 244 163 253 346
8 348 255 163 244 462 359 254 347
8 473 360 257 365 363 256 364 482
8 452 349 258 367 365 257 366 485
8 422 324 369 488 311 224 261 371
8 371 261 370 490 263 167 262 372
8 407 311 371 491 296 210 263 373
8 373 263 372 492 295 209 264 374
8 493 385 275 375 442 342 238 328
8 377 276 179 267 493 385 275 375
8 378 274 177 268 494 383 273 376
8 494 383 273 376 377 276 179 267
8 497 382 272 379 378 274 177 268
8 498 381 271 380 379 272 175 269
8 393 297 197 283 498 381 271 380
8 499 387 277 381 382 278 181 272
8 408 312 211 297 499 387 277 381
8 500 388 278 382 384 280 183 274
8 501 389 279 383 386 282 185 276
8 384 280 183 274 501 389 279 383
8 386 282 185 276 503 391 281 385
8 503 391 281 385 457 354 249 342
8 511 408 299 395 393 297 199 285
8 395 299 409 512 285 199 298 394
8 512 409 300 396 394 298 200 286
8 401 305 205 291 514 411 300 396
8 515 412 301 397 398 302 202 288
8 405 309 209 295 515 412 301 397
8 516 413 302 398 399 303 203 289
8 403 306 414 517 293 206 303 399
8 402 307 207 292 518 415 304 400
8 401 305 415 518 291 205 304 400
8 404 308 208 294 520 418 307 402
8 521 417 306 403 404 308 208 294
8 406 310 210 296 523 420 309 405
8 526 423 311 407 406 310 210 296
8 410 314 213 299 527 424 312 408
8 528 425 315 411 409 313 214 300
8 410 314 425 528 299 213 313 409
8 416 317 216 305 530 427 315 411
8 531 430 318 412 413 320 219 302
8 420 325 223 309 531 430 318 412
8 532 432 320 413 414 321 220 303
8 417 322 433 533 306 221 321 414
8 418 319 218 307 534 428 316 415
8 416 317 428 534 305 216 316 415
8 419 323 434 536 308 222 322 417
8 419 323 222 308 537 431 319 418
8 421 327 225 310 539 438 325 420
8 421 327 439 541 310 225 326 423
8 543 437 324 422 423 326 224 311
8 441 338 259 368 559 452 367 486
8 443 340 236 329 560 453 338 441
8 333 240 344 447 442 342 457 561
8 445 341 237 331 562 455 340 443
8 448 345 241 334 563 454 339 444
8 563 454 339 444 445 341 237 331
8 336 242 346 450 446 343 458 565
8 446 343 458 565 333 240 344 447
8 449 347 243 335 567 460 345 448
8 451 348 244 337 568 462 347 449
8 451 348 461 569 337 244 346 450
8 570 463 349 452 473 360 257 365
8 453 350 245 338 570 463 349 452
8 455 352 247 340 571 464 350 453
8 460 357 252 345 572 465 351 454
8 572 465 351 454 456 353 248 341
8 456 353 248 341 573 466 352 455
8 344 251 356 459 457 354 468 575
8 458 355 469 576 344 251 356 459
8 346 253 358 461 458 355 469 576
8 462 359 254 347 578 471 357 460
8 348 255 359 462 461 358 472 579
8 591 474 360 473 475 361 256 363
8 475 361 256 363 594 477 362 479
8 363 256 364 482 479 362 480 603
8 590 473 365 484 481 363 482 605
8 482 364 257 365 606 483 366 485
8 559 452 367 486 484 365 485 607
8 542 436 487 609 422 324 369 488
8 525 422 488 611 407 311 371 491
8 488 369 489 612 371 261 370 490
8 491 371 490 613 373 263 372 492
8 495 386 276 377 614 503 385 493
8 614 503 385 493 561 457 342 442
8 615 501 383 494 495 386 276 377
8 496 384 274 378 615 501 383 494
8 618 500 382 497 496 384 274 378
8 619 499 381 498 497 382 272 379
8 511 408 297 393 619 499 381 498
8 620 505 387 499 500 388 278 382
8 527 424 312 408 620 505 387 499
8 502 390 506 621 384 280 388 500
8 622 507 389 501 504 392 282 386
8 502 390 280 384 622 507 389 501
8 504 392 282 386 624 509 391 503
8 624 509 391 503 575 468 354 457
8 513 410 299 395 630 527 408 511
8 631 528 411 514 512 409 300 396
8 513 410 528 631 395 299 409 512
8 519 416 305 401 633 530 411 514
8 634 531 412 515 516 413 302 398
8 523 420 309 405 634 531 412 515
8 635 532 413 516 517 414 303 399
8 521 417 533 636 403 306 414 517
8 520 418 307 402 637 534 415 518
8 519 416 534 637 401 305 415 518
8 522 419 308 404 639 537 418 520
8 522 419 536 640 404 308 417 521
8 524 421 310 406 642 539 420 523
8 524 421 541 644 406 310 423 526
8 646 543 422 525 526 423 311 407
8 529 426 314 410 647 544 424 527
8 528 425 545 648 411 315 427 530
8 529 426 545 648 410 314 425 528
8 535 429 317 416 649 546 427 530
8 650 548 430 531 532 432 320 413
8 539 438 325 420 650 548 430 531
8 533 433 550 651 414 321 432 532
8 536 434 551 652 417 322 433 533
8 537 431 319 418 653 547 428 534
8 535 429 547 653 416 317 428 534
8 538 435 552 654 419 323 434 536
8 538 435 323 419 655 549 431 537
8 540 440 327 421 657 556 438 539
8 540 440 557 659 421 327 439 541
8 541 439 555 660 423 326 437 543
8 661 554 436 542 543 437 324 422
8 676 570 452 559 590 473 365 484
8 560 453 338 441 676 570 452 559
8 562 455 340 443 677 571 453 560
8 447 344 459 566 561 457 575 678
8 564 456 341 445 679 573 455 562
8 567 460 345 448 680 572 454 563
8 680 572 454 563 564 456 341 445
8 565 458 576 682 447 344 459 566
8 450 346 461 569 565 458 576 682
8 568 462 347 449 684 578 460 567
8 451 348 462 568 569 461 579 685
8 686 580 463 570 591 474 360 473
8 571 464 350 453 686 580 463 570
8 573 466 352 455 687 581 464 571
8 572 465 582 688 460 357 471 578
8 574 467 582 688 456 353 465 572
8 574 467 353 456 689 583 466 573
8 459 356 470 577 575 468 585 691
8 576 469 586 692 459 356 470 577
8 461 358 472 579 576 469 586 692
8 462 359 471 578 579 472 588 694
8 704 591 473 590 593 475 363 481
8 595 476 592 705 475 361 474 591
8 593 475 363 481 707 594 479 602
8 594 477 362 479 709 598 478 600
8 595 476 361 475 711 597 477 594
8 479 362 480 603 600 478 601 720
8 481 363 482 605 602 479 603 722
8 603 480 364 482 723 604 483 606
8 605 482 365 484 724 606 485 607
8 656 553 608 726 542 436 487 609
8 645 542 609 728 525 422 488 611
8 609 487 610 729 488 369 489 612
8 611 488 612 730 491 371 490 613
8 616 504 386 495 731 624 503 614
8 731 624 503 614 678 575 457 561
8 732 622 501 615 616 504 386 495
8 617 502 384 496 732 622 501 615
8 617 502 621 735 496 384 500 618
8 736 620 499 619 618 500 382 497
8 630 527 408 511 736 620 499 619
8 621 506 626 737 500 388 505 620
8 647 544 424 527 737 626 505 620
8 623 508 627 738 502 390 506 621
8 623 508 390 502 739 628 507 622
8 625 510 628 739 504 392 507 622
8 740 629 509 624 691 585 468 575
8 625 510 392 504 740 629 509 624
8 632 529 410 513 744 647 527 630
8 631 528 648 745 514 411 530 633
8 632 529 648 745 513 410 528 631
8 638 535 416 519 746 649 530 633
8 747 650 531 634 635 532 413 516
8 642 539 420 523 747 650 531 634
8 636 533 651 748 517 414 532 635
8 640 536 652 749 521 417 533 636
8 639 537 418 520 750 653 534 637
8 638 535 653 750 519 416 534 637
8 641 538 419 522 751 655 537 639
8 641 538 654 752 522 419 536 640
8 643 540 421 524 753 657 539 642
8 643 540 659 755 524 421 541 644
8 644 541 660 757 526 423 543 646
8 758 661 542 645 646 543 422 525
8 529 426 544 647 648 545 662 759
8 530 427 545 648 649 546 663 760
8 535 429 546 649 653 547 664 761
8 762 666 548 650 651 550 432 532
8 657 556 438 539 762 666 548 650
8 652 551 668 763 533 433 550 651
8 654 552 669 764 536 434 551 652
8 655 549 431 537 765 665 547 653
8 538 435 549 655 654 552 667 766
8 661 554 671 768 542 436 553 656
8 658 558 440 540 769 674 556 657
8 658 558 675 770 540 440 557 659
8 659 557 673 771 541 439 555 660
8 660 555 672 772 543 437 554 661
8 788 686 570 676 704 591 473 590
8 677 571 453 560 788 686 570 676
8 679 573 455 562 789 687 571 677
8 566 459 577 683 678 575 691 790
8 681 574 456 564 791 689 573 679
8 680 572 688 792 567 460 578 684
8 681 574 688 792 564 456 572 680
8 682 576 692 794 566 459 577 683
8 569 461 579 685 682 576 692 794
8 568 462 578 684 685 579 694 796
8 687 581 464 571 798 696 580 686
8 798 696 580 686 705 592 474 591
8 689 583 466 573 799 697 581 687
8 688 582 698 800 578 471 588 694
8 690 584 698 800 574 467 582 688
8 690 584 467 574 801 699 583 689
8 693 587 701 803 577 470 585 691
8 693 587 470 577 804 702 586 692
8 695 589 702 804 579 472 586 692
8 695 589 472 579 805 703 588 694
8 708 595 705 813 593 475 591 704
8 710 596 706 814 595 476 592 705
8 707 594 479 602 816 709 600 719
8 708 595 475 593 817 711 594 707
8 709 598 478 600 819 715 599 717
8 711 597 477 594 820 714 598 709
8 710 596 476 595 822 713 597 711
8 600 478 601 720 717 599 718 832
8 602 479 603 722 719 600 720 834
8 720 601 480 603 835 721 604 723
8 722 603 482 605 836 723 606 724
8 767 670 725 839 656 553 608 726
8 756 656 726 841 645 542 609 728
8 726 608 727 842 609 487 610 729
8 728 609 729 843 611 488 612 730
8 844 740 624 731 790 691 575 678
8 733 625 504 616 844 740 624 731
8 734 623 502 617 845 739 622 732
8 733 625 739 845 616 504 622 732
8 734 623 738 846 617 502 621 735
8 735 621 737 847 618 500 620 736
8 744 647 527 630 847 737 620 736
8 621 506 627 738 737 626 741 848
8 647 544 626 737 759 662 741 848
8 623 508 628 739 738 627 742 849
8 740 629 585 691 850 743 700 802
8 625 510 629 740 739 628 743 850
8 632 529 647 744 745 648 759 854
8 633 530 648 745 746 649 760 855
8 638 535 649 746 750 653 761 856
8 857 762 650 747 748 651 532 635
8 753 657 539 642 857 762 650 747
8 749 652 763 858 636 533 651 748
8 752 654 764 859 640 536 652 749
8 751 655 537 639 860 765 653 750
8 641 538 655 751 752 654 766 861
8 754 658 540 643 862 769 657 753
8 754 658 770 863 643 540 659 755
8 755 659 771 864 644 541 660 757
8 758 661 768 866 645 542 656 756
8 757 660 772 867 646 543 661 758
8 759 662 773 868 648 545 663 760
8 649 546 663 760 761 664 774 871
8 765 665 547 653 872 775 664 761
8 873 777 666 762 763 668 550 651
8 769 674 556 657 873 777 666 762
8 764 669 779 874 652 551 668 763
8 654 552 667 766 764 669 778 875
8 655 549 665 765 766 667 776 876
8 768 671 782 877 656 553 670 767
8 772 672 783 878 661 554 671 768
8 658 558 674 769 770 675 786 879
8 659 557 675 770 771 673 785 881
8 882 784 672 772 771 673 555 660
8 789 687 571 677 897 798 686 788
8 897 798 686 788 813 705 591 704
8 791 689 573 679 898 799 687 789
8 795 693 803 900 683 577 691 790
8 793 690 574 681 901 801 689 791
8 792 688 800 902 684 578 694 796
8 793 690 800 902 681 574 688 792
8 795 693 577 683 903 804 692 794
8 797 695 804 903 685 579 692 794
8 797 695 579 685 904 805 694 796
8 905 806 697 799 798 696 581 687
8 814 706 806 905 705 592 696 798
8 689 583 697 799 801 699 808 907
8 800 698 809 908 694 588 703 805
8 690 584 699 801 800 698 809 908
8 803 701 810 909 691 585 700 802
8 693 587 702 804 803 701 811 910
8 695 589 703 805 804 702 812 911
8 818 710 814 919 708 595 705 813
8 821 712 815 920 710 596 706 814
8 816 709 600 719 922 819 717 831
8 817 711 594 707 923 820 709 816
8 818 710 595 708 924 822 711 817
8 819 715 599 717 926 827 716 829
8 820 714 598 709 927 826 715 819
8 929 825 713 822 820 714 597 711
8 821 712 596 710 930 824 713 822
8 717 599 718 832 829 716 830 942
8 719 600 720 834 831 717 832 944
8 832 718 601 720 945 833 721 835
8 834 720 603 722 946 835 723 836
8 869 780 838 950 767 670 725 839
8 865 767 839 952 756 656 726 841
8 839 725 840 953 726 608 727 842
8 841 726 842 954 728 609 729 843
8 844 740 691 790 955 850 802 899
8 733 625 740 844 845 739 850 955
8 734 623 739 845 846 738 849 956
8 735 621 738 846 847 737 848 957
8 744 647 737 847 854 759 848 957
8 738 627 742 849 848 741 851 958
8 848 741 851 958 759 662 773 868
8 850 743 700 802 959 852 807 906
8 849 742 628 739 959 852 743 850
8 854 759 868 965 745 648 760 855
8 746 649 760 855 856 761 871 966
8 860 765 653 750 967 872 761 856
8 968 873 762 857 858 763 651 748
8 862 769 657 753 968 873 762 857
8 859 764 874 969 749 652 763 858
8 752 654 766 861 859 764 875 970
8 751 655 765 860 861 766 876 971
8 754 658 769 862 863 770 879 972
8 755 659 770 863 864 771 881 974
8 976 882 772 867 864 771 660 757
8 866 768 877 977 756 656 767 865
8 867 772 878 978 758 661 768 866
8 760 663 773 868 871 774 883 980
8 870 781 837 948 982 890 780 869
8 982 890 780 869 877 782 670 767
8 761 664 774 871 872 775 884 984
8 876 776 665 765 985 885 775 872
8 873 777 668 763 986 887 779 874
8 769 674 777 873 879 786 887 986
8 764 669 778 875 874 779 888 987
8 766 667 776 876 875 778 886 988
8 878 783 892 989 768 671 782 877
8 878 783 672 772 990 893 784 882
8 880 787 675 770 991 896 786 879
8 880 787 895 992 770 675 785 881
8 881 785 894 993 771 673 784 882
8 1006 905 799 898 897 798 687 789
8 919 814 905 1006 813 705 798 897
8 791 689 799 898 901 801 907 1007
8 900 803 909 1009 790 691 802 899
8 795 693 804 903 900 803 910 1010
8 902 800 908 1011 796 694 805 904
8 793 690 801 901 902 800 908 1011
8 797 695 805 904 903 804 911 1012
8 799 697 806 905 907 808 912 1013
8 920 815 912 1013 814 706 806 905
8 802 700 810 909 906 807 913 1014
8 801 699 808 907 908 809 914 1015
8 805 703 809 908 911 812 915 1016
8 803 701 811 910 909 810 916 1017
8 911 812 917 1018 804 702 811 910
8 925 821 920 1030 818 710 814 919
8 928 823 921 1031 821 712 815 920
8 922 819 717 831 1033 926 829 941
8 923 820 709 816 1034 927 819 922
8 1035 929 822 924 923 820 711 817
8 925 821 710 818 1036 930 822 924
8 1038 933 825 929 927 826 714 820
8 926 827 716 829 1039 935 828 939
8 927 826 715 819 1040 934 827 926
8 928 823 712 821 1041 931 824 930
8 1042 932 824 930 929 825 713 822
8 829 716 830 942 939 828 940 1058
8 831 717 832 944 941 829 942 1060
8 942 830 718 832 1061 943 833 945
8 944 832 720 834 1062 945 835 946
8 981 889 947 1064 870 781 837 948
8 948 837 949 1067 869 780 838 950
8 975 869 950 1069 865 767 839 952
8 950 838 951 1070 839 725 840 953
8 952 839 953 1071 841 726 842 954
8 955 850 802 899 1072 959 906 1008
8 956 849 739 845 1072 959 850 955
8 846 738 849 956 957 848 958 1073
8 957 848 958 1073 854 759 868 965
8 849 742 852 959 958 851 961 1076
8 960 853 961 1076 906 807 852 959
8 958 851 961 1076 868 773 883 980
8 960 853 807 906 1077 963 913 1014
8 855 760 868 965 966 871 980 1085
8 856 761 871 966 967 872 984 1086
8 971 876 765 860 1087 985 872 967
8 968 873 763 858 1088 986 874 969
8 862 769 873 968 972 879 986 1088
8 859 764 875 970 969 874 987 1089
8 861 766 876 971 970 875 988 1090
8 973 880 770 863 1091 991 879 972
8 973 880 992 1092 863 770 881 974
8 974 881 993 1093 864 771 882 976
8 979 870 948 1066 1094 982 869 975
8 1094 982 869 975 977 877 767 865
8 978 878 772 867 1095 990 882 976
8 978 878 989 1096 866 768 877 977
8 871 774 883 980 984 884 994 1099
8 983 891 999 1100 870 781 889 981
8 1101 1000 890 982 989 892 782 877
8 983 891 781 870 1101 1000 890 982
8 872 775 884 984 985 885 995 1103
8 876 776 885 985 988 886 996 1104
8 986 887 779 874 1105 998 888 987
8 879 786 887 986 991 896 998 1105
8 875 778 886 988 987 888 997 1106
8 990 893 1002 1107 878 783 892 989
8 1108 1003 893 990 993 894 784 882
8 880 787 896 991 992 895 1005 1109
8 993 894 785 881 1110 1004 895 992
8 898 799 905 1006 1007 907 1013 1120
8 1030 920 1013 1120 919 814 905 1006
8 901 801 907 1007 1011 908 1015 1121
8 899 802 909 1009 1008 906 1014 1122
8 900 803 910 1010 1009 909 1017 1123
8 1012 911 1018 1124 903 804 910 1010
8 904 805 908 1011 1012 911 1016 1125
8 1013 912 1020 1127 907 808 914 1015
8 1031 921 1020 1127 920 815 912 1013
8 1019 918 962 1075 1128 1021 913 1014
8 1128 1021 913 1014 1017 916 810 909
8 1015 914 1022 1129 908 809 915 1016
8 1016 915 1023 1130 911 812 917 1018
8 1018 917 1024 1131 910 811 916 1017
8 1037 928 1031 1148 925 821 920 1030
8 928 823 931 1041 1031 921 1032 1149
8 1033 926 829 941 1151 1039 939 1057
8 1034 927 819 922 1152 1040 926 1033
8 1153 1038 929 1035 1034 927 820 923
8 1154 1042 930 1036 1035 929 822 924
8 1037 928 821 925 1155 1041 930 1036
8 1039 935 828 939 1156 1047 938 1055
8 1157 1043 932 1042 1038 933 825 929
8 1038 933 826 927 1158 1045 934 1040
8 1040 934 827 926 1159 1046 935 1039
8 930 824 932 1042 1041 931 1044 1160
8 1051 936 1048 1165 1175 1052 937 1053
8 1156 1047 938 1055 1053 937 1054 1178
8 939 828 940 1058 1055 938 1056 1181
8 941 829 942 1060 1057 939 1058 1183
8 942 830 943 1061 1058 940 1059 1184
8 1060 942 832 944 1185 1061 945 1062
8 1082 964 1063 1188 981 889 947 1064
8 1097 981 1064 1190 979 870 948 1066
8 1064 947 1065 1191 948 837 949 1067
8 1066 948 1067 1193 975 869 950 1069
8 1067 949 1068 1194 950 838 951 1070
8 1069 950 1070 1195 952 839 953 1071
8 956 849 959 1072 1073 958 1076 1197
8 1074 960 1076 1197 1008 906 959 1072
8 1073 958 1076 1197 965 868 980 1085
8 1074 960 906 1008 1198 1077 1014 1122
8 1133 1026 1079 1199 1019 918 962 1075
8 1077 963 913 1014 1200 1080 962 1075
8 960 853 963 1077 1076 961 1078 1201
8 980 883 961 1076 1099 994 1078 1201
8 1210 1083 964 1082 1100 999 889 981
8 966 871 980 1085 1086 984 1099 1215
8 967 872 984 1086 1087 985 1103 1216
8 971 876 985 1087 1090 988 1104 1217
8 1088 986 874 969 1218 1105 987 1089
8 972 879 986 1088 1091 991 1105 1218
8 970 875 988 1090 1089 987 1106 1219
8 973 880 991 1091 1092 992 1109 1220
8 1093 993 881 974 1221 1110 992 1092
8 1222 1108 990 1095 1093 993 882 976
8 1223 1101 982 1094 1096 989 877 977
8 1098 983 870 979 1223 1101 982 1094
8 1095 990 1107 1224 978 878 989 1096
8 1098 983 1100 1225 979 870 981 1097
8 984 884 994 1099 1103 995 1111 1227
8 1102 1001 1115 1228 983 891 999 1100
8 1101 1000 892 989 1229 1116 1002 1107
8 1102 1001 891 983 1229 1116 1000 1101
8 985 885 995 1103 1104 996 1112 1230
8 988 886 996 1104 1106 997 1113 1231
8 1105 998 888 987 1232 1114 997 1106
8 991 896 998 1105 1109 1005 1114 1232
8 1108 1003 1117 1233 990 893 1002 1107
8 1108 1003 894 993 1233 1117 1004 1110
8 992 895 1005 1109 1110 1004 1118 1234
8 1120 1013 1127 1244 1007 907 1015 1121
8 1148 1031 1127 1244 1030 920 1013 1120
8 1121 1015 1129 1245 1011 908 1016 1125
8 1126 1019 1075 1196 1246 1128 1014 1122
8 1246 1128 1014 1122 1123 1017 909 1009
8 1124 1018 1131 1247 1010 910 1017 1123
8 1125 1016 1130 1248 1012 911 1018 1124
8 1127 1020 1137 1254 1015 914 1022 1129
8 1031 921 1032 1149 1127 1020 1137 1254
8 1134 1027 918 1019 1257 1140 1021 1128
8 1257 1140 1021 1128 1131 1024 916 1017
8 1129 1022 1141 1258 1016 915 1023 1130
8 1130 1023 1142 1259 1018 917 1024 1131
8 1261 1144 1025 1132 1133 1026 1079 1199
8 1255 1138 1025 1132 1135 1028 1144 1261
8 1133 1026 918 1019 1262 1145 1027 1134
8 1136 1029 1139 1256 1263 1146 1028 1135
8 1037 928 1041 1155 1148 1031 1149 1275
8 1041 931 1044 1160 1149 1032 1150 1276
8 1151 1039 939 1057 1278 1156 1055 1180
8 1152 1040 926 1033 1279 1159 1039 1151
8 1153 1038 927 1034 1280 1158 1040 1152
8 1281 1157 1042 1154 1153 1038 929 1035
8 1036 930 1042 1154 1155 1041 1160 1282
8 1283 1164 1046 1159 1156 1047 935 1039
8 1165 1048 1164 1283 1053 937 1047 1156
8 1157 1043 933 1038 1284 1161 1045 1158
8 1157 1043 1161 1284 1042 932 1044 1160
8 1040 934 1046 1159 1158 1045 1163 1285
8 1166 1049 1167 1292 1051 936 1048 1165
8 1166 1049 936 1051 1293 1168 1050 1172
8 1051 936 1052 1175 1172 1050 1173 1306
8 1174 1051 1165 1290 1308 1175 1053 1177
8 1053 937 1054 1178 1175 1052 1176 1309
8 1278 1156 1055 1180 1177 1053 1178 1311
8 1055 938 1056 1181 1178 1054 1179 1312
8 1057 939 1058 1183 1180 1055 1181 1314
8 1058 940 1059 1184 1181 1056 1182 1315
8 1060 942 1061 1185 1183 1058 1184 1316
8 1208 1081 1187 1321 1082 964 1063 1188
8 1209 1082 1188 1322 1097 981 1064 1190
8 1188 1063 1189 1323 1064 947 1065 1191
8 1190 1064 1191 1325 1066 948 1067 1193
8 1191 1065 1192 1326 1067 949 1068 1194
8 1067 1193 1069 950 1194 1327 1195 1070
8 1250 1133 1199 1330 1126 1019 1075 1196
8 1198 1077 1014 1122 1331 1200 1075 1196
8 1074 960 1077 1198 1197 1076 1201 1332
8 1085 980 1076 1197 1215 1099 1201 1332
8 1199 1079 1203 1333 1075 962 1080 1200
8 1132 1025 1119 1243 1199 1079 1203 1333
8 1201 1078 963 1077 1334 1202 1080 1200
8 1099 994 1078 1201 1227 1111 1202 1334
8 1343 1207 1081 1208 1210 1083 964 1082
8 1214 1084 1186 1319 1343 1207 1081 1208
8 1345 1210 1082 1209 1225 1100 981 1097
8 1346 1211 1083 1210 1228 1115 999 1100
8 1086 984 1099 1215 1216 1103 1227 1352
8 1087 985 1103 1216 1217 1104 1230 1353
8 1090 988 1104 1217 1219 1106 1231 1354
8 1218 1105 987 1089 1355 1232 1106 1219
8 1091 991 1105 1218 1220 1109 1232 1355
8 1092 992 1109 1220 1221 1110 1234 1356
8 1222 1108 1233 1357 1095 990 1107 1224
8 1222 1108 993 1093 1357 1233 1110 1221
8 1223 1101 989 1096 1358 1229 1107 1224
8 1226 1102 983 1098 1358 1229 1101 1223
8 1226 1102 1228 1359 1098 983 1100 1225
8 1103 995 1111 1227 1230 1112 1235 1360
8 1107 1002 1117 1233 1229 1116 1240 1362
8 1102 1001 1116 1229 1228 1115 1240 1362
8 1104 996 1112 1230 1231 1113 1236 1363
8 1364 1237 1114 1232 1231 1113 997 1106
8 1109 1005 1114 1232 1234 1118 1238 1365
8 1110 1004 1118 1234 1233 1117 1241 1366
8 1242 1374 1255 1138 1119 1243 1132 1025
8 1244 1127 1254 1376 1121 1015 1129 1245
8 1148 1031 1149 1275 1244 1127 1254 1376
8 1245 1129 1258 1377 1125 1016 1130 1248
8 1251 1134 1019 1126 1378 1257 1128 1246
8 1378 1257 1128 1246 1247 1131 1017 1123
8 1248 1130 1259 1379 1124 1018 1131 1247
8 1261 1381 1250 1133 1132 1249 1330 1199
8 1255 1380 1252 1135 1132 1249 1381 1261
8 1250 1133 1019 1126 1382 1262 1134 1251
8 1253 1136 1256 1385 1384 1263 1135 1252
8 1254 1137 1265 1387 1129 1022 1141 1258
8 1149 1032 1150 1276 1254 1137 1265 1387
8 1028 1135 1255 1138 1139 1256 1388 1266
8 1136 1029 1147 1264 1256 1139 1267 1389
8 1390 1268 1140 1257 1259 1142 1024 1131
8 1260 1143 1027 1134 1390 1268 1140 1257
8 1258 1141 1269 1391 1130 1023 1142 1259
8 1262 1145 1027 1134 1393 1271 1143 1260
8 1261 1144 1026 1133 1394 1272 1145 1262
8 1135 1028 1144 1261 1263 1146 1272 1394
8 1136 1029 1146 1263 1264 1147 1273 1395
8 1155 1041 1160 1282 1275 1149 1276 1405
8 1276 1150 1044 1160 1406 1277 1162 1286
8 1408 1283 1159 1279 1278 1156 1039 1151
8 1290 1165 1283 1408 1177 1053 1156 1278
8 1152 1040 1159 1279 1280 1158 1285 1409
8 1281 1157 1038 1153 1410 1284 1158 1280
8 1281 1157 1284 1410 1154 1042 1160 1282
8 1159 1046 1164 1283 1285 1163 1289 1412
8 1292 1167 1289 1412 1165 1048 1164 1283
8 1158 1045 1163 1285 1284 1161 1288 1413
8 1284 1161 1288 1413 1160 1044 1162 1286
8 1291 1166 1292 1418 1174 1051 1165 1290
8 1291 1166 1051 1174 1419 1293 1172 1305
8 1294 1169 1296 1421 1166 1049 1167 1292
8 1293 1168 1050 1172 1422 1295 1171 1303
8 1294 1169 1049 1166 1423 1297 1168 1293
8 1422 1295 1171 1303 1301 1170 1302 1435
8 1172 1050 1173 1306 1303 1171 1304 1438
8 1174 1051 1175 1308 1305 1172 1306 1440
8 1175 1052 1176 1309 1306 1173 1307 1441
8 1177 1053 1178 1311 1308 1175 1309 1443
8 1178 1054 1179 1312 1309 1176 1310 1444
8 1180 1055 1181 1314 1311 1178 1312 1446
8 1056 1181 1312 1179 1182 1315 1447 1313
8 1183 1058 1184 1316 1314 1181 1315 1448
8 1319 1186 1084 1214 1451 1317 1213 1350
8 1319 1186 1318 1453 1208 1081 1187 1321
8 1321 1187 1320 1456 1188 1063 1189 1323
8 1344 1208 1321 1457 1209 1082 1188 1322
8 1322 1188 1323 1458 1190 1064 1191 1325
8 1323 1189 1324 1459 1191 1065 1192 1326
8 1191 1325 1193 1067 1326 1460 1327 1194
8 1242 1374 1243 1119 1328 1462 1335 1204
8 1330 1199 1333 1465 1196 1075 1200 1331
8 1132 1249 1330 1199 1243 1375 1465 1333
8 1332 1201 1077 1198 1466 1334 1200 1331
8 1215 1099 1201 1332 1352 1227 1334 1466
8 1119 1243 1333 1203 1204 1335 1470 1338
8 1333 1203 1338 1470 1200 1080 1202 1334
8 1227 1111 1202 1334 1360 1235 1338 1470
8 1328 1462 1335 1204 1205 1336 1471 1339
8 1337 1206 1340 1472 1464 1329 1205 1336
8 1346 1211 1342 1479 1210 1083 1207 1343
8 1346 1211 1115 1228 1479 1342 1239 1361
8 1348 1212 1084 1214 1479 1342 1207 1343
8 1480 1343 1208 1344 1345 1210 1082 1209
8 1351 1214 1319 1454 1480 1343 1208 1344
8 1481 1346 1210 1345 1359 1228 1100 1225
8 1348 1212 1347 1483 1214 1084 1213 1350
8 1216 1103 1227 1352 1353 1230 1360 1488
8 1217 1104 1230 1353 1354 1231 1363 1489
8 1490 1364 1232 1355 1354 1231 1106 1219
8 1220 1109 1232 1355 1356 1234 1365 1491
8 1221 1110 1234 1356 1357 1233 1366 1492
8 1224 1107 1233 1357 1358 1229 1362 1493
8 1226 1102 1229 1358 1359 1228 1362 1493
8 1230 1112 1235 1360 1363 1236 1367 1496
8 1361 1239 1115 1228 1497 1371 1240 1362
8 1366 1241 1372 1498 1233 1117 1240 1362
8 1364 1237 1113 1231 1499 1368 1236 1363
8 1364 1237 1368 1499 1232 1114 1238 1365
8 1234 1118 1238 1365 1366 1241 1369 1500
8 1507 1373 1242 1374 1388 1266 1138 1255
8 1508 1374 1243 1375 1380 1255 1132 1249
8 1376 1254 1387 1509 1245 1129 1258 1377
8 1275 1149 1276 1405 1376 1254 1387 1509
8 1377 1258 1391 1510 1248 1130 1259 1379
8 1511 1390 1257 1378 1379 1259 1131 1247
8 1383 1260 1134 1251 1511 1390 1257 1378
8 1252 1135 1256 1385 1380 1255 1388 1512
8 1261 1381 1513 1394 1133 1250 1382 1262
8 1135 1252 1384 1263 1261 1381 1513 1394
8 1382 1262 1134 1251 1514 1393 1260 1383
8 1253 1136 1263 1384 1386 1264 1395 1516
8 1253 1136 1264 1386 1385 1256 1389 1517
8 1387 1265 1397 1519 1258 1141 1269 1391
8 1276 1150 1277 1406 1387 1265 1397 1519
8 1256 1139 1267 1389 1388 1266 1398 1520
8 1264 1147 1274 1396 1389 1267 1399 1521
8 1392 1270 1143 1260 1522 1400 1268 1390
8 1390 1268 1142 1259 1522 1400 1269 1391
8 1392 1270 1401 1523 1260 1143 1271 1393
8 1272 1394 1524 1402 1145 1262 1393 1271
8 1395 1273 1146 1263 1524 1402 1272 1394
8 1273 1395 1264 1147 1403 1526 1396 1274
8 1405 1276 1160 1282 1534 1406 1286 1411
8 1414 1287 1407 1535 1286 1162 1277 1406
8 1279 1159 1283 1408 1409 1285 1412 1537
8 1418 1292 1412 1537 1290 1165 1283 1408
8 1280 1158 1285 1409 1410 1284 1413 1538
8 1410 1284 1413 1538 1282 1160 1286 1411
8 1285 1163 1289 1412 1413 1288 1417 1540
8 1421 1296 1417 1540 1292 1167 1289 1412
8 1414 1287 1162 1286 1541 1416 1288 1413
8 1420 1294 1421 1545 1291 1166 1292 1418
8 1419 1293 1172 1305 1546 1422 1303 1437
8 1420 1294 1166 1291 1547 1423 1293 1419
8 1294 1169 1297 1423 1421 1296 1425 1548
8 1423 1297 1168 1293 1549 1424 1295 1422
8 1301 1170 1298 1427 1422 1295 1424 1549
8 1432 1300 1428 1554 1301 1170 1298 1427
8 1431 1299 1428 1554 1560 1430 1300 1432
8 1563 1433 1300 1432 1435 1302 1170 1301
8 1546 1422 1303 1437 1434 1301 1435 1565
8 1303 1171 1304 1438 1435 1302 1436 1566
8 1305 1172 1306 1440 1437 1303 1438 1568
8 1306 1173 1307 1441 1438 1304 1439 1569
8 1308 1175 1309 1443 1440 1306 1441 1571
8 1309 1176 1310 1444 1441 1307 1442 1572
8 1311 1178 1312 1446 1443 1309 1444 1574
8 1179 1312 1444 1310 1313 1447 1575 1445
8 1314 1181 1315 1448 1446 1312 1447 1576
8 1350 1213 1349 1486 1451 1317 1449 1579
8 1451 1317 1450 1581 1319 1186 1318 1453
8 1454 1319 1214 1351 1582 1451 1350 1487
8 1453 1318 1452 1584 1321 1187 1320 1456
8 1454 1319 1453 1585 1344 1208 1321 1457
8 1456 1320 1455 1586 1323 1189 1324 1459
8 1457 1321 1456 1587 1322 1188 1323 1458
8 1458 1323 1459 1588 1325 1191 1326 1460
8 1205 1336 1464 1329 1328 1462 1590 1461
8 1507 1373 1461 1590 1374 1242 1328 1462
8 1508 1374 1462 1591 1375 1243 1335 1467
8 1337 1206 1329 1464 1473 1341 1463 1594
8 1375 1243 1335 1467 1465 1333 1470 1596
8 1465 1333 1470 1596 1331 1200 1334 1466
8 1352 1227 1334 1466 1488 1360 1470 1596
8 1591 1462 1336 1468 1467 1335 1471 1597
8 1469 1337 1472 1598 1595 1464 1336 1468
8 1471 1339 1474 1600 1335 1204 1338 1470
8 1600 1474 1367 1496 1470 1338 1235 1360
8 1336 1205 1340 1472 1471 1339 1475 1601
8 1337 1206 1341 1473 1472 1340 1476 1602
8 1495 1370 1478 1609 1361 1239 1342 1479
8 1348 1212 1342 1479 1483 1347 1478 1609
8 1481 1346 1479 1610 1345 1210 1343 1480
8 1481 1346 1228 1359 1610 1479 1361 1494
8 1484 1348 1214 1351 1610 1479 1343 1480
8 1483 1347 1482 1612 1350 1213 1349 1486
8 1484 1348 1483 1613 1351 1214 1350 1487
8 1353 1230 1360 1488 1489 1363 1496 1616
8 1490 1364 1231 1354 1617 1499 1363 1489
8 1490 1364 1499 1617 1355 1232 1365 1491
8 1356 1234 1365 1491 1492 1366 1500 1619
8 1492 1366 1498 1620 1357 1233 1362 1493
8 1494 1361 1228 1359 1621 1497 1362 1493
8 1495 1370 1239 1361 1622 1504 1371 1497
8 1363 1236 1367 1496 1499 1368 1501 1623
8 1497 1371 1240 1362 1624 1505 1372 1498
8 1625 1503 1372 1498 1500 1369 1241 1366
8 1365 1238 1368 1499 1500 1369 1502 1626
8 1520 1398 1506 1633 1388 1266 1373 1507
8 1634 1507 1374 1508 1512 1388 1255 1380
8 1509 1387 1519 1635 1377 1258 1391 1510
8 1405 1276 1406 1534 1509 1387 1519 1635
8 1515 1392 1260 1383 1636 1522 1390 1511
8 1511 1390 1259 1379 1636 1522 1391 1510
8 1385 1256 1389 1517 1512 1388 1520 1637
8 1513 1394 1262 1382 1638 1524 1393 1514
8 1395 1516 1638 1524 1263 1384 1513 1394
8 1515 1392 1523 1639 1383 1260 1393 1514
8 1516 1395 1526 1640 1386 1264 1396 1518
8 1386 1264 1396 1518 1517 1389 1521 1641
8 1519 1397 1527 1643 1391 1269 1400 1522
8 1535 1407 1527 1643 1406 1277 1397 1519
8 1389 1267 1399 1521 1520 1398 1528 1644
8 1645 1529 1399 1521 1525 1404 1274 1396
8 1392 1270 1400 1522 1523 1401 1531 1646
8 1524 1402 1271 1393 1648 1532 1401 1523
8 1403 1526 1648 1532 1273 1395 1524 1402
8 1525 1404 1274 1396 1649 1533 1403 1526
8 1539 1414 1535 1657 1411 1286 1406 1534
8 1542 1415 1536 1658 1414 1287 1407 1535
8 1409 1285 1412 1537 1538 1413 1540 1660
8 1545 1421 1540 1660 1418 1292 1412 1537
8 1539 1414 1286 1411 1661 1541 1413 1538
8 1540 1417 1544 1663 1413 1288 1416 1541
8 1421 1296 1425 1548 1540 1417 1544 1663
8 1542 1415 1287 1414 1664 1543 1416 1541
8 1420 1294 1423 1547 1545 1421 1548 1666
8 1547 1423 1293 1419 1667 1549 1422 1546
8 1434 1301 1427 1553 1546 1422 1549 1667
8 1423 1297 1424 1549 1548 1425 1550 1668
8 1551 1426 1550 1668 1427 1298 1424 1549
8 1551 1426 1298 1427 1671 1552 1428 1554
8 1562 1432 1554 1674 1434 1301 1427 1553
8 1431 1299 1429 1558 1554 1428 1555 1675
8 1431 1299 1430 1560 1558 1429 1557 1680
8 1560 1430 1300 1432 1683 1559 1433 1563
8 1561 1431 1554 1674 1684 1560 1432 1562
8 1685 1563 1432 1562 1565 1435 1301 1434
8 1435 1302 1436 1566 1563 1433 1564 1686
8 1437 1303 1438 1568 1565 1435 1566 1688
8 1438 1304 1439 1569 1566 1436 1567 1689
8 1440 1306 1441 1571 1568 1438 1569 1691
8 1441 1307 1442 1572 1569 1439 1570 1692
8 1443 1309 1444 1574 1571 1441 1572 1694
8 1310 1444 1572 1442 1445 1575 1695 1573
8 1446 1312 1447 1576 1574 1444 1575 1696
8 1486 1349 1485 1614 1579 1449 1577 1699
8 1451 1317 1449 1579 1581 1450 1578 1701
8 1487 1350 1486 1615 1582 1451 1579 1702
8 1581 1450 1580 1704 1453 1318 1452 1584
8 1582 1451 1581 1705 1454 1319 1453 1585
8 1584 1452 1583 1706 1456 1320 1455 1586
8 1585 1453 1584 1707 1457 1321 1456 1587
8 1587 1456 1586 1708 1458 1323 1459 1588
8 1633 1506 1589 1710 1507 1373 1461 1590
8 1464 1329 1461 1590 1594 1463 1589 1710
8 1468 1336 1462 1591 1595 1464 1590 1711
8 1634 1507 1590 1711 1508 1374 1462 1591
8 1473 1341 1463 1594 1603 1477 1593 1716
8 1469 1337 1464 1595 1599 1473 1594 1717
8 1471 1597 1467 1335 1600 1718 1596 1470
8 1718 1600 1496 1616 1596 1470 1360 1488
8 1336 1468 1597 1471 1472 1598 1719 1601
8 1469 1337 1473 1599 1598 1472 1602 1720
8 1722 1604 1501 1623 1600 1474 1367 1496
8 1475 1601 1471 1339 1604 1722 1600 1474
8 1602 1476 1605 1723 1472 1340 1475 1601
8 1476 1602 1724 1606 1341 1473 1603 1477
8 1483 1347 1478 1609 1612 1482 1608 1731
8 1495 1370 1504 1622 1609 1478 1608 1731
8 1618 1495 1609 1732 1494 1361 1479 1610
8 1484 1348 1479 1610 1613 1483 1609 1732
8 1486 1349 1482 1612 1614 1485 1611 1733
8 1613 1483 1612 1734 1487 1350 1486 1615
8 1489 1363 1496 1616 1617 1499 1623 1736
8 1491 1365 1499 1617 1619 1500 1626 1737
8 1618 1495 1361 1494 1738 1622 1497 1621
8 1739 1625 1498 1620 1619 1500 1366 1492
8 1621 1497 1362 1493 1740 1624 1498 1620
8 1742 1631 1504 1622 1624 1505 1371 1497
8 1743 1628 1502 1626 1623 1501 1368 1499
8 1744 1630 1505 1624 1625 1503 1372 1498
8 1745 1629 1503 1625 1626 1502 1369 1500
8 1520 1398 1528 1644 1633 1506 1632 1751
8 1637 1520 1633 1752 1512 1388 1507 1634
8 1635 1519 1643 1753 1510 1391 1522 1636
8 1657 1535 1643 1753 1534 1406 1519 1635
8 1515 1392 1522 1636 1639 1523 1646 1754
8 1517 1389 1521 1641 1637 1520 1644 1755
8 1524 1638 1756 1648 1393 1514 1639 1523
8 1640 1526 1395 1516 1756 1648 1524 1638
8 1642 1525 1396 1518 1757 1649 1526 1640
8 1758 1645 1521 1641 1642 1525 1396 1518
8 1646 1531 1400 1522 1760 1650 1527 1643
8 1535 1407 1536 1658 1643 1527 1650 1760
8 1521 1399 1529 1645 1644 1528 1651 1761
8 1647 1530 1652 1762 1525 1404 1529 1645
8 1401 1523 1648 1532 1531 1646 1763 1655
8 1525 1404 1533 1649 1647 1530 1654 1765
8 1533 1649 1766 1656 1403 1526 1648 1532
8 1662 1542 1658 1774 1539 1414 1535 1657
8 1542 1415 1543 1664 1658 1536 1659 1775
8 1660 1540 1663 1777 1538 1413 1541 1661
8 1545 1421 1548 1666 1660 1540 1663 1777
8 1662 1542 1414 1539 1778 1664 1541 1661
8 1664 1543 1416 1541 1779 1665 1544 1663
8 1548 1425 1550 1668 1663 1544 1665 1779
8 1547 1423 1549 1667 1666 1548 1668 1781
8 1670 1551 1668 1781 1553 1427 1549 1667
8 1551 1426 1552 1671 1668 1550 1669 1782
8 1670 1551 1427 1553 1784 1671 1554 1674
8 1675 1555 1672 1785 1554 1428 1552 1671
8 1678 1556 1673 1789 1558 1429 1555 1675
8 1561 1431 1558 1681 1674 1554 1675 1790
8 1794 1677 1556 1678 1680 1557 1429 1558
8 1560 1430 1559 1683 1680 1557 1679 1797
8 1561 1431 1560 1684 1681 1558 1680 1798
8 1563 1433 1564 1686 1683 1559 1682 1800
8 1684 1560 1432 1562 1801 1683 1563 1685
8 1565 1435 1566 1688 1685 1563 1686 1802
8 1566 1436 1567 1689 1686 1564 1687 1803
8 1568 1438 1569 1691 1688 1566 1689 1805
8 1569 1439 1570 1692 1689 1567 1690 1806
8 1571 1441 1572 1694 1691 1569 1692 1808
8 1442 1572 1692 1570 1573 1695 1809 1693
8 1574 1444 1575 1696 1694 1572 1695 1810
8 1614 1485 1592 1712 1699 1577 1697 1813
8 1579 1449 1577 1699 1701 1578 1698 1815
8 1615 1486 1614 1735 1702 1579 1699 1816
8 1701 1578 1700 1818 1581 1450 1580 1704
8 1582 1451 1579 1702 1705 1581 1701 1819
8 1704 1580 1703 1820 1584 1452 1583 1706
8 1705 1581 1704 1821 1585 1453 1584 1707
8 1707 1584 1706 1822 1587 1456 1586 1708
8 1710 1589 1506 1633 1824 1709 1632 1751
8 1594 1463 1589 1710 1716 1593 1709 1824
8 1752 1633 1710 1825 1634 1507 1590 1711
8 1595 1464 1590 1711 1717 1594 1710 1825
8 1830 1714 1592 1712 1733 1611 1485 1614
8 1603 1477 1593 1716 1725 1607 1715 1834
8 1599 1473 1594 1717 1721 1603 1716 1835
8 1837 1722 1623 1736 1718 1600 1496 1616
8 1719 1601 1722 1837 1597 1471 1600 1718
8 1602 1720 1598 1472 1723 1838 1719 1601
8 1720 1602 1473 1599 1839 1724 1603 1721
8 1723 1605 1726 1840 1601 1475 1604 1722
8 1840 1726 1628 1743 1722 1604 1501 1623
8 1724 1606 1727 1841 1602 1476 1605 1723
8 1725 1607 1728 1842 1603 1477 1606 1724
8 1612 1482 1608 1731 1733 1611 1730 1849
8 1741 1627 1730 1849 1622 1504 1608 1731
8 1613 1483 1609 1732 1734 1612 1731 1850
8 1618 1495 1622 1738 1732 1609 1731 1850
8 1615 1486 1612 1734 1735 1614 1733 1851
8 1852 1743 1626 1737 1736 1623 1499 1617
8 1853 1745 1625 1739 1737 1626 1500 1619
8 1855 1742 1622 1738 1740 1624 1497 1621
8 1856 1744 1624 1740 1739 1625 1498 1620
8 1741 1627 1504 1622 1857 1746 1631 1742
8 1742 1631 1505 1624 1858 1749 1630 1744
8 1859 1747 1629 1745 1743 1628 1502 1626
8 1860 1748 1630 1744 1745 1629 1503 1625
8 1644 1528 1651 1761 1751 1632 1750 1865
8 1637 1520 1644 1755 1752 1633 1751 1866
8 1754 1646 1522 1636 1867 1760 1643 1753
8 1657 1535 1658 1774 1753 1643 1760 1867
8 1639 1523 1646 1754 1756 1648 1763 1868
8 1641 1521 1645 1758 1755 1644 1761 1869
8 1757 1649 1526 1640 1870 1766 1648 1756
8 1642 1525 1649 1757 1759 1647 1765 1871
8 1759 1647 1762 1872 1642 1525 1645 1758
8 1760 1650 1767 1874 1646 1531 1655 1763
8 1658 1536 1659 1775 1760 1650 1767 1874
8 1762 1652 1768 1875 1645 1529 1651 1761
8 1764 1653 1769 1876 1647 1530 1652 1762
8 1656 1766 1877 1773 1532 1648 1763 1655
8 1771 1879 1765 1654 1653 1764 1647 1530
8 1533 1649 1765 1654 1656 1766 1880 1772
8 1662 1542 1664 1778 1774 1658 1775 1887
8 1664 1543 1665 1779 1775 1659 1776 1888
8 1778 1664 1541 1661 1890 1779 1663 1777
8 1666 1548 1668 1781 1777 1663 1779 1890
8 1782 1669 1780 1891 1668 1550 1665 1779
8 1670 1551 1671 1784 1781 1668 1782 1893
8 1671 1552 1672 1785 1782 1669 1783 1894
8 1790 1675 1785 1896 1674 1554 1671 1784
8 1675 1555 1673 1789 1785 1672 1786 1897
8 1792 1676 1788 1903 1678 1556 1673 1789
8 1795 1678 1789 1904 1681 1558 1675 1790
8 1792 1676 1556 1678 1906 1791 1677 1794
8 1680 1557 1679 1797 1794 1677 1793 1909
8 1910 1794 1678 1795 1798 1680 1558 1681
8 1683 1559 1682 1800 1797 1679 1796 1912
8 1684 1560 1683 1801 1798 1680 1797 1913
8 1686 1564 1687 1803 1800 1682 1799 1915
8 1685 1563 1686 1802 1801 1683 1800 1916
8 1688 1566 1689 1805 1802 1686 1803 1917
8 1689 1567 1690 1806 1803 1687 1804 1918
8 1691 1569 1692 1808 1805 1689 1806 1920
8 1692 1570 1693 1809 1806 1690 1807 1921
8 1694 1572 1695 1810 1808 1692 1809 1922
8 1829 1713 1811 1926 1712 1592 1697 1813
8 1813 1697 1812 1928 1699 1577 1698 1815
8 1735 1614 1712 1828 1816 1699 1813 1929
8 1815 1698 1814 1931 1701 1578 1700 1818
8 1702 1579 1699 1816 1819 1701 1815 1932
8 1818 1700 1817 1933 1704 1580 1703 1820
8 1819 1701 1818 1934 1705 1581 1704 1821
8 1821 1704 1820 1935 1707 1584 1706 1822
8 1824 1709 1632 1751 1937 1823 1750 1865
8 1716 1593 1709 1824 1834 1715 1823 1937
8 1825 1710 1633 1752 1938 1824 1751 1866
8 1717 1594 1710 1825 1835 1716 1824 1938
8 1945 1830 1712 1828 1851 1733 1614 1735
8 1830 1714 1831 1946 1712 1592 1713 1829
8 1947 1832 1714 1830 1849 1730 1611 1733
8 1843 1729 1607 1725 1950 1833 1715 1834
8 1721 1603 1716 1835 1836 1725 1834 1951
8 1836 1725 1842 1953 1721 1603 1724 1839
8 1723 1838 1719 1601 1840 1954 1837 1722
8 1954 1840 1743 1852 1837 1722 1623 1736
8 1724 1839 1720 1602 1841 1955 1838 1723
8 1841 1727 1844 1956 1723 1605 1726 1840
8 1956 1844 1747 1859 1840 1726 1628 1743
8 1728 1842 1724 1606 1845 1957 1841 1727
8 1725 1607 1729 1843 1842 1728 1846 1958
8 1741 1627 1746 1857 1849 1730 1848 1965
8 1734 1612 1731 1850 1851 1733 1849 1966
8 1854 1741 1849 1966 1738 1622 1731 1850
8 1967 1859 1745 1853 1852 1743 1626 1737
8 1968 1860 1744 1856 1853 1745 1625 1739
8 1854 1741 1622 1738 1969 1857 1742 1855
8 1855 1742 1624 1740 1970 1858 1744 1856
8 1857 1746 1631 1742 1971 1861 1749 1858
8 1858 1749 1630 1744 1972 1863 1748 1860
8 1859 1747 1862 1973 1745 1629 1748 1860
8 1875 1768 1864 1977 1761 1651 1750 1865
8 1755 1644 1761 1869 1866 1751 1865 1978
8 1867 1760 1874 1979 1754 1646 1763 1868
8 1774 1658 1775 1887 1867 1760 1874 1979
8 1870 1766 1648 1756 1980 1877 1763 1868
8 1872 1762 1875 1981 1758 1645 1761 1869
8 1757 1649 1766 1870 1871 1765 1880 1982
8 1983 1879 1764 1873 1871 1765 1647 1759
8 1873 1764 1876 1984 1759 1647 1762 1872
8 1877 1773 1655 1763 1986 1881 1767 1874
8 1775 1659 1776 1888 1874 1767 1881 1986
8 1876 1769 1882 1987 1762 1652 1768 1875
8 1878 1770 1883 1988 1764 1653 1769 1876
8 1880 1772 1656 1766 1989 1886 1773 1877
8 1878 1770 1653 1764 1990 1884 1771 1879
8 1765 1654 1772 1880 1879 1771 1885 1991
8 1778 1664 1779 1890 1887 1775 1888 1997
8 1998 1889 1776 1888 1891 1780 1665 1779
8 1893 1782 1891 2000 1781 1668 1779 1890
8 1894 1783 1892 2001 1782 1669 1780 1891
8 1784 1671 1785 1896 1893 1782 1894 2003
8 1897 1786 1895 2004 1785 1672 1783 1894
8 1790 1675 1789 1904 1896 1785 1897 2006
8 1901 1787 1898 2007 1789 1673 1786 1897
8 1903 1788 1900 2013 1789 1673 1787 1901
8 1792 1676 1791 1906 1903 1788 1902 2016
8 1907 1792 1903 2017 1795 1678 1789 1904
8 1906 1791 1677 1794 2019 1905 1793 1909
8 1907 1792 1678 1795 2020 1906 1794 1910
8 1797 1679 1796 1912 1909 1793 1908 2022
8 1798 1680 1797 1913 1910 1794 1909 2023
8 1800 1682 1799 1915 1912 1796 1911 2025
8 1801 1683 1800 1916 1913 1797 1912 2026
8 1803 1687 1804 1918 1915 1799 1914 2028
8 1802 1686 1803 1917 1916 1800 1915 2029
8 1805 1689 1806 1920 1917 1803 1918 2030
8 1806 1690 1807 1921 1918 1804 1919 2031
8 1808 1692 1809 1922 1920 1806 1921 2032
8 1939 1826 1924 2037 1829 1713 1811 1926
8 1926 1811 1925 2039 1813 1697 1812 1928
8 1944 1829 1926 2040 1828 1712 1813 1929
8 1928 1812 1927 2042 1815 1698 1814 1931
8 1929 1813 1928 2043 1816 1699 1815 1932
8 1931 1814 1930 2044 1818 1700 1817 1933
8 1932 1815 1931 2045 1819 1701 1818 1934
8 1934 1818 1933 2046 1821 1704 1820 1935
8 2048 1936 1823 1937 1977 1864 1750 1865
8 1950 1833 1715 1834 2048 1936 1823 1937
8 1938 1824 1751 1866 2049 1937 1865 1978
8 1835 1716 1824 1938 1951 1834 1937 2049
8 1939 1826 1713 1829 2053 1942 1831 1946
8 1940 1827 1923 2035 2053 1942 1826 1939
8 1945 1830 1946 2058 1828 1712 1829 1944
8 2059 1947 1830 1945 1966 1849 1733 1851
8 1947 1832 1730 1849 2060 1948 1848 1965
8 1947 1832 1948 2060 1830 1714 1831 1946
8 1959 1847 1729 1843 2063 1949 1833 1950
8 1952 1843 1725 1836 2064 1950 1834 1951
8 1836 1725 1843 1952 1953 1842 1958 2066
8 1953 1842 1957 2067 1839 1724 1841 1955
8 1841 1955 1838 1723 1956 2068 1954 1840
8 2068 1956 1859 1967 1954 1840 1743 1852
8 1956 1844 1960 2069 1859 1747 1862 1973
8 1845 1957 1841 1727 1960 2069 1956 1844
8 1728 1842 1957 1845 1846 1958 2071 1961
8 1962 2072 1959 1847 1846 1958 1843 1729
8 1971 1861 1964 2077 1857 1746 1848 1965
8 1854 1741 1857 1969 1966 1849 1965 2078
8 1967 1859 1973 2079 1853 1745 1860 1968
8 1970 1858 1744 1856 2080 1972 1860 1968
8 1969 1857 1742 1855 2081 1971 1858 1970
8 1971 1861 1749 1858 2082 1974 1863 1972
8 1973 1862 1975 2083 1860 1748 1863 1972
8 1987 1882 1976 2086 1875 1768 1864 1977
8 1981 1875 1977 2087 1869 1761 1865 1978
8 1980 1877 1763 1868 2088 1986 1874 1979
8 1887 1775 1888 1997 1979 1874 1986 2088
8 1880 1982 2089 1989 1766 1870 1980 1877
8 1984 1876 1987 2090 1872 1762 1875 1981
8 1765 1871 1983 1879 1880 1982 2091 1991
8 1985 1878 1764 1873 2092 1990 1879 1983
8 1985 1878 1988 2093 1873 1764 1876 1984
8 2094 1992 1881 1986 1998 1889 1776 1888
8 1986 1881 1992 2094 1877 1773 1886 1989
8 1988 1883 1993 2095 1876 1769 1882 1987
8 1878 1770 1884 1990 1988 1883 1994 2096
8 1991 1885 1772 1880 2097 1996 1886 1989
8 1879 1771 1885 1991 1990 1884 1995 2098
8 2103 1998 1888 1997 2000 1891 1779 1890
8 2104 1999 1889 1998 2001 1892 1780 1891
8 2003 1894 2001 2106 1893 1782 1891 2000
8 2004 1895 2002 2107 1894 1783 1892 2001
8 2006 1897 2004 2109 1896 1785 1894 2003
8 2007 1898 2005 2110 1897 1786 1895 2004
8 2014 1901 2007 2112 1904 1789 1897 2006
8 2011 1899 2008 2113 1901 1787 1898 2007
8 2119 2010 1899 2011 2013 1900 1787 1901
8 2016 1902 2012 2122 1903 1788 1900 2013
8 2017 1903 2013 2123 1904 1789 1901 2014
8 1906 1791 1905 2019 2016 1902 2015 2125
8 1907 1792 1906 2020 2017 1903 2016 2126
8 1909 1793 1908 2022 2019 1905 2018 2128
8 2020 1906 1794 1910 2129 2019 1909 2023
8 1912 1796 1911 2025 2022 1908 2021 2131
8 1913 1797 1912 2026 2023 1909 2022 2132
8 1915 1799 1914 2028 2025 1911 2024 2134
8 1916 1800 1915 2029 2026 1912 2025 2135
8 1918 1804 1919 2031 2028 1914 2027 2136
8 1917 1803 1918 2030 2029 1915 2028 2137
8 1920 1806 1921 2032 2030 1918 2031 2138
8 1940 1827 1941 2054 2035 1923 2033 2140
8 2035 1923 2034 2143 1939 1826 1924 2037
8 2037 1924 2036 2146 1926 1811 1925 2039
8 2051 1939 2037 2147 1944 1829 1926 2040
8 2039 1925 2038 2149 1928 1812 1927 2042
8 2040 1926 2039 2150 1929 1813 1928 2043
8 2042 1927 2041 2151 1931 1814 1930 2044
8 2043 1928 2042 2152 1932 1815 1931 2045
8 2045 1931 2044 2153 1934 1818 1933 2046
8 2155 2047 1936 2048 2086 1976 1864 1977
8 2063 1949 1833 1950 2155 2047 1936 2048
8 2156 2048 1937 2049 2087 1977 1865 1978
8 2064 1950 1834 1951 2156 2048 1937 2049
8 2051 1939 1829 1944 2160 2053 1946 2058
8 2052 1940 2035 2144 2160 2053 1939 2051
8 2053 1942 1831 1946 2163 2057 1948 2060
8 2055 1943 1827 1940 2163 2057 1942 2053
8 2055 1943 2056 2164 1940 1827 1941 2054
8 2059 1947 1849 1966 2167 2060 1965 2078
8 2059 1947 2060 2167 1945 1830 1946 2058
8 2077 1964 2061 2168 1965 1848 1948 2060
8 2070 1963 1847 1959 2170 2062 1949 2063
8 2065 1959 1843 1952 2171 2063 1950 2064
8 2173 2072 1958 2066 2065 1959 1843 1952
8 1953 1842 1958 2066 2067 1957 2071 2174
8 2068 1956 2069 2175 1967 1859 1973 2079
8 2067 1957 2069 2175 1955 1841 1956 2068
8 1845 1957 2069 1960 1961 2071 2176 2073
8 2069 1960 2073 2176 1973 1862 1975 2083
8 2070 1963 2075 2177 1959 1847 1962 2072
8 1846 1958 2071 1961 1962 2072 2178 2074
8 2077 1964 1861 1971 2182 2076 1974 2082
8 2081 1971 2077 2183 1969 1857 1965 2078
8 2079 1973 2083 2184 1968 1860 1972 2080
8 2081 1971 1858 1970 2185 2082 1972 2080
8 2083 1975 2084 2186 1972 1863 1974 2082
8 2086 1976 1882 1987 2189 2085 1993 2095
8 2090 1987 2086 2190 1981 1875 1977 2087
8 2191 2094 1986 2088 2103 1998 1888 1997
8 2088 1986 2094 2191 1980 1877 1989 2089
8 1991 2091 2192 2097 1880 1982 2089 1989
8 2093 1988 2095 2193 1984 1876 1987 2090
8 1879 1983 2092 1990 1991 2091 2194 2098
8 1985 1878 1990 2092 2093 1988 2096 2195
8 2097 1996 1886 1989 2196 2099 1992 2094
8 2196 2099 1992 2094 2104 1999 1889 1998
8 1994 2096 1988 1883 2100 2197 2095 1993
8 2096 1994 1884 1990 2198 2101 1995 2098
8 1995 2098 2199 2102 1885 1991 2097 1996
8 2203 2104 1998 2103 2106 2001 1891 2000
8 2107 2002 2105 2204 2001 1892 1999 2104
8 2109 2004 2107 2206 2003 1894 2001 2106
8 2110 2005 2108 2207 2004 1895 2002 2107
8 2112 2007 2110 2209 2006 1897 2004 2109
8 2113 2008 2111 2210 2007 1898 2005 2110
8 2120 2011 2113 2212 2014 1901 2007 2112
8 2117 2009 2114 2213 2011 1899 2008 2113
8 2219 2116 2009 2117 2119 2010 1899 2011
8 2222 2118 2010 2119 2122 2012 1900 2013
8 2223 2119 2011 2120 2123 2013 1901 2014
8 2016 1902 2015 2125 2122 2012 2121 2225
8 2126 2016 2122 2226 2017 1903 2013 2123
8 2019 1905 2018 2128 2125 2015 2124 2228
8 2020 1906 2019 2129 2126 2016 2125 2229
8 2022 1908 2021 2131 2128 2018 2127 2231
8 2023 1909 2022 2132 2129 2019 2128 2232
8 2025 1911 2024 2134 2131 2021 2130 2234
8 2026 1912 2025 2135 2132 2022 2131 2235
8 1914 2028 2134 2024 2027 2136 2236 2133
8 2029 1915 2028 2137 2135 2025 2134 2237
8 2030 1918 2031 2138 2137 2028 2136 2238
8 2157 2050 2139 2240 2054 1941 2033 2140
8 2052 1940 2054 2161 2144 2035 2140 2242
8 2140 2033 2141 2243 2035 1923 2034 2143
8 2143 2034 2142 2246 2037 1924 2036 2146
8 2144 2035 2143 2247 2051 1939 2037 2147
8 2146 2036 2145 2249 2039 1925 2038 2149
8 2147 2037 2146 2250 2040 1926 2039 2150
8 2149 2038 2148 2251 2042 1927 2041 2151
8 2150 2039 2149 2252 2043 1928 2042 2152
8 2152 2042 2151 2253 2045 1931 2044 2153
8 2255 2154 2047 2155 2189 2085 1976 2086
8 2170 2062 1949 2063 2255 2154 2047 2155
8 2256 2155 2048 2156 2190 2086 1977 2087
8 2171 2063 1950 2064 2256 2155 2048 2156
8 2258 2159 2050 2157 2164 2056 1941 2054
8 2160 2053 1946 2058 2262 2163 2060 2167
8 2162 2055 1940 2052 2262 2163 2053 2160
8 2162 2055 2164 2263 2052 1940 2054 2161
8 2163 2057 1948 2060 2264 2165 2061 2168
8 2055 1943 2057 2163 2164 2056 2165 2264
8 2182 2076 2166 2268 2077 1964 2061 2168
8 2183 2077 2168 2269 2078 1965 2060 2167
8 2070 1963 2062 2170 2177 2075 2169 2271
8 2172 2070 1959 2065 2272 2170 2063 2171
8 2172 2070 2177 2273 2065 1959 2072 2173
8 2066 1958 2072 2173 2174 2071 2178 2274
8 2067 1957 2071 2174 2175 2069 2176 2275
8 2175 2069 2176 2275 2079 1973 2083 2184
8 2071 1961 2074 2178 2176 2073 2179 2276
8 2176 2073 2179 2276 2083 1975 2084 2186
8 2072 1962 2075 2177 2178 2074 2180 2277
8 2182 2076 1974 2082 2280 2181 2084 2186
8 2183 2077 1971 2081 2281 2182 2082 2185
8 2184 2083 2186 2282 2080 1972 2082 2185
8 2189 2085 1993 2095 2285 2188 2100 2197
8 2190 2086 1987 2090 2286 2189 2095 2193
8 2192 2097 1989 2089 2287 2196 2094 2191
8 2287 2196 2094 2191 2203 2104 1998 2103
8 2194 2098 1991 2091 2288 2199 2097 2192
8 2195 2096 2197 2289 2093 1988 2095 2193
8 2096 2195 2290 2198 1990 2092 2194 2098
8 2097 1996 2099 2196 2199 2102 2200 2291
8 2196 2099 1999 2104 2291 2200 2105 2204
8 2100 2197 2292 2201 1994 2096 2198 2101
8 1995 2098 2198 2101 2102 2199 2293 2202
8 2206 2107 2204 2296 2106 2001 2104 2203
8 2207 2108 2205 2297 2107 2002 2105 2204
8 2209 2110 2207 2299 2109 2004 2107 2206
8 2210 2111 2208 2300 2110 2005 2108 2207
8 2212 2113 2210 2302 2112 2007 2110 2209
8 2213 2114 2211 2303 2113 2008 2111 2210
8 2220 2117 2213 2305 2120 2011 2113 2212
8 2216 2115 2214 2306 2117 2009 2114 2213
8 2216 2115 2009 2117 2311 2217 2116 2219
8 2219 2116 2010 2119 2314 2218 2118 2222
8 2315 2219 2117 2220 2223 2119 2011 2120
8 2122 2012 2121 2225 2222 2118 2221 2317
8 2318 2222 2119 2223 2226 2122 2013 2123
8 2125 2015 2124 2228 2225 2121 2224 2320
8 2126 2016 2125 2229 2226 2122 2225 2321
8 2128 2018 2127 2231 2228 2124 2227 2323
8 2129 2019 2128 2232 2229 2125 2228 2324
8 2131 2021 2130 2234 2231 2127 2230 2326
8 2132 2022 2131 2235 2232 2128 2231 2327
8 2134 2024 2133 2236 2234 2130 2233 2328
8 2135 2025 2134 2237 2235 2131 2234 2329
8 2137 2028 2136 2238 2237 2134 2236 2330
8 2157 2050 2158 2259 2240 2139 2239 2332
8 2257 2157 2240 2334 2161 2054 2140 2242
8 2240 2139 2241 2335 2140 2033 2141 2243
8 2242 2140 2243 2337 2144 2035 2143 2247
8 2243 2141 2244 2338 2143 2034 2142 2246
8 2246 2142 2245 2341 2146 2036 2145 2249
8 2247 2143 2246 2342 2147 2037 2146 2250
8 2249 2145 2248 2343 2149 2038 2148 2251
8 2250 2146 2249 2344 2150 2039 2149 2252
8 2252 2149 2251 2345 2152 2042 2151 2253
8 2169 2271 2347 2254 2062 2170 2255 2154
8 2189 2085 2188 2285 2255 2154 2254 2347
8 2348 2255 2155 2256 2286 2189 2086 2190
8 2272 2170 2063 2171 2348 2255 2155 2256
8 2349 2258 2157 2257 2263 2164 2054 2161
8 2258 2159 2261 2351 2157 2050 2158 2259
8 2258 2159 2056 2164 2351 2261 2165 2264
8 2262 2163 2060 2167 2355 2264 2168 2269
8 2162 2055 2163 2262 2263 2164 2264 2355
8 2357 2266 2165 2264 2268 2166 2061 2168
8 2268 2166 2076 2182 2361 2267 2181 2280
8 2281 2182 2268 2362 2183 2077 2168 2269
8 2271 2169 2270 2364 2177 2075 2180 2277
8 2172 2070 2170 2272 2273 2177 2271 2365
8 2072 2173 2274 2178 2177 2273 2366 2277
8 2071 2174 2275 2176 2178 2274 2367 2276
8 2275 2176 2276 2367 2184 2083 2186 2282
8 2283 2187 2084 2186 2368 2278 2179 2276
8 2178 2074 2180 2277 2276 2179 2278 2368
8 2283 2187 2279 2370 2186 2084 2181 2280
8 2281 2182 2082 2185 2371 2280 2186 2282
8 2188 2285 2374 2284 2100 2197 2292 2201
8 2286 2189 2095 2193 2375 2285 2197 2289
8 2192 2097 2196 2287 2288 2199 2291 2376
8 2287 2196 2104 2203 2376 2291 2204 2296
8 2194 2098 2199 2288 2290 2198 2293 2377
8 2289 2197 2096 2195 2378 2292 2198 2290
8 2291 2200 2105 2204 2379 2294 2205 2297
8 2199 2102 2200 2291 2293 2202 2294 2379
8 2198 2101 2202 2293 2292 2201 2295 2380
8 2299 2207 2297 2383 2206 2107 2204 2296
8 2300 2208 2298 2384 2207 2108 2205 2297
8 2302 2210 2300 2386 2209 2110 2207 2299
8 2303 2211 2301 2387 2210 2111 2208 2300
8 2305 2213 2303 2389 2212 2113 2210 2302
8 2306 2214 2304 2390 2213 2114 2211 2303
8 2310 2216 2306 2392 2220 2117 2213 2305
8 2308 2215 2307 2393 2216 2115 2214 2306
8 2308 2215 2115 2216 2396 2309 2217 2311
8 2310 2216 2117 2220 2398 2311 2219 2315
8 2311 2217 2116 2219 2399 2312 2218 2314
8 2314 2218 2118 2222 2402 2313 2221 2317
8 2315 2219 2119 2223 2403 2314 2222 2318
8 2225 2121 2224 2320 2317 2221 2316 2405
8 2226 2122 2225 2321 2318 2222 2317 2406
8 2228 2124 2227 2323 2320 2224 2319 2408
8 2229 2125 2228 2324 2321 2225 2320 2409
8 2231 2127 2230 2326 2323 2227 2322 2411
8 2232 2128 2231 2327 2324 2228 2323 2412
8 2234 2130 2233 2328 2326 2230 2325 2413
8 2235 2131 2234 2329 2327 2231 2326 2414
8 2237 2134 2236 2330 2329 2234 2328 2415
8 2259 2158 2260 2352 2332 2239 2331 2417
8 2257 2157 2259 2350 2334 2240 2332 2419
8 2240 2139 2239 2332 2335 2241 2333 2420
8 2334 2240 2335 2422 2242 2140 2243 2337
8 2335 2241 2336 2423 2243 2141 2244 2338
8 2337 2243 2338 2425 2247 2143 2246 2342
8 2338 2244 2339 2426 2246 2142 2245 2341
8 2341 2245 2340 2428 2249 2145 2248 2343
8 2342 2246 2341 2429 2250 2146 2249 2344
8 2344 2249 2343 2430 2252 2149 2251 2345
8 2188 2285 2347 2254 2284 2374 2432 2346
8 2347 2254 2346 2432 2271 2169 2270 2364
8 2365 2271 2170 2272 2433 2347 2255 2348
8 2286 2189 2285 2375 2348 2255 2347 2433
8 2349 2258 2351 2435 2257 2157 2259 2350
8 2349 2258 2164 2263 2435 2351 2264 2355
8 2259 2158 2261 2351 2352 2260 2354 2437
8 2356 2265 2354 2437 2264 2165 2261 2351
8 2441 2357 2264 2355 2362 2268 2168 2269
8 2356 2265 2165 2264 2442 2358 2266 2357
8 2443 2359 2266 2357 2361 2267 2166 2268
8 2370 2279 2360 2446 2280 2181 2267 2361
8 2362 2268 2182 2281 2447 2361 2280 2371
8 2180 2277 2368 2278 2270 2364 2449 2363
8 2271 2365 2273 2177 2364 2450 2366 2277
8 2372 2283 2186 2282 2451 2368 2276 2367
8 2178 2274 2367 2276 2277 2366 2451 2368
8 2283 2187 2278 2368 2370 2279 2369 2452
8 2372 2283 2370 2453 2282 2186 2280 2371
8 2284 2374 2455 2373 2201 2292 2380 2295
8 2375 2285 2197 2289 2456 2374 2292 2378
8 2376 2291 2204 2296 2457 2379 2297 2383
8 2288 2199 2291 2376 2377 2293 2379 2457
8 2198 2290 2378 2292 2293 2377 2458 2380
8 2293 2202 2294 2379 2380 2295 2381 2459
8 2384 2298 2381 2459 2297 2205 2294 2379
8 2386 2300 2384 2463 2299 2207 2297 2383
8 2387 2301 2385 2464 2300 2208 2298 2384
8 2389 2303 2387 2466 2302 2210 2300 2386
8 2390 2304 2388 2467 2303 2211 2301 2387
8 2392 2306 2390 2469 2305 2213 2303 2389
8 2393 2307 2391 2470 2306 2214 2304 2390
8 2395 2308 2393 2472 2310 2216 2306 2392
8 2308 2215 2309 2396 2393 2307 2394 2473
8 2395 2308 2216 2310 2475 2396 2311 2398
8 2396 2309 2217 2311 2476 2397 2312 2399
8 2398 2311 2219 2315 2478 2399 2314 2403
8 2399 2312 2218 2314 2479 2400 2313 2402
8 2317 2221 2316 2405 2402 2313 2401 2482
8 2403 2314 2222 2318 2483 2402 2317 2406
8 2320 2224 2319 2408 2405 2316 2404 2485
8 2321 2225 2320 2409 2406 2317 2405 2486
8 2323 2227 2322 2411 2408 2319 2407 2488
8 2324 2228 2323 2412 2409 2320 2408 2489
8 2326 2230 2325 2413 2411 2322 2410 2490
8 2327 2231 2326 2414 2412 2323 2411 2491
8 2329 2234 2328 2415 2414 2326 2413 2492
8 2417 2331 2260 2352 2494 2416 2353 2438
8 2350 2259 2352 2436 2419 2332 2417 2496
8 2332 2239 2331 2417 2420 2333 2418 2497
8 2334 2240 2332 2419 2422 2335 2420 2499
8 2420 2333 2421 2500 2335 2241 2336 2423
8 2422 2335 2423 2502 2337 2243 2338 2425
8 2423 2336 2424 2503 2338 2244 2339 2426
8 2425 2338 2426 2505 2342 2246 2341 2429
8 2426 2339 2427 2506 2341 2245 2340 2428
8 2429 2341 2428 2507 2344 2249 2343 2430
8 2432 2346 2284 2374 2509 2431 2373 2455
8 2432 2346 2431 2509 2364 2270 2363 2449
8 2375 2285 2374 2456 2433 2347 2432 2510
8 2347 2433 2365 2271 2432 2510 2450 2364
8 2350 2259 2351 2435 2436 2352 2437 2514
8 2440 2356 2437 2514 2355 2264 2351 2435
8 2352 2260 2354 2437 2438 2353 2439 2516
8 2356 2265 2358 2442 2437 2354 2439 2516
8 2440 2356 2264 2355 2518 2442 2357 2441
8 2519 2443 2357 2441 2447 2361 2268 2362
8 2443 2359 2444 2520 2357 2266 2358 2442
8 2443 2359 2267 2361 2520 2444 2360 2446
8 2446 2360 2279 2370 2523 2445 2369 2452
8 2453 2370 2446 2524 2371 2280 2361 2447
8 2449 2363 2448 2525 2368 2278 2369 2452
8 2366 2277 2364 2450 2451 2368 2449 2526
8 2372 2283 2368 2451 2453 2370 2452 2527
8 2455 2373 2295 2380 2529 2454 2382 2460
8 2456 2374 2292 2378 2530 2455 2380 2458
8 2377 2293 2379 2457 2458 2380 2459 2531
8 2463 2384 2459 2531 2383 2297 2379 2457
8 2533 2461 2382 2460 2459 2381 2295 2380
8 2464 2385 2461 2533 2384 2298 2381 2459
8 2466 2387 2464 2537 2386 2300 2384 2463
8 2467 2388 2465 2538 2387 2301 2385 2464
8 2469 2390 2467 2540 2389 2303 2387 2466
8 2470 2391 2468 2541 2390 2304 2388 2467
8 2472 2393 2470 2543 2392 2306 2390 2469
8 2393 2307 2394 2473 2470 2391 2471 2544
8 2395 2308 2396 2475 2472 2393 2473 2546
8 2396 2309 2397 2476 2473 2394 2474 2547
8 2475 2396 2311 2398 2549 2476 2399 2478
8 2476 2397 2312 2399 2550 2477 2400 2479
8 2478 2399 2314 2403 2552 2479 2402 2483
8 2479 2400 2313 2402 2553 2480 2401 2482
8 2405 2316 2404 2485 2482 2401 2481 2556
8 2406 2317 2405 2486 2483 2402 2482 2557
8 2408 2319 2407 2488 2485 2404 2484 2559
8 2409 2320 2408 2489 2486 2405 2485 2560
8 2411 2322 2410 2490 2488 2407 2487 2561
8 2412 2323 2411 2491 2489 2408 2488 2562
8 2414 2326 2413 2492 2491 2411 2490 2563
8 2513 2434 2493 2565 2438 2353 2416 2494
8 2496 2417 2352 2436 2567 2494 2438 2515
8 2494 2416 2495 2568 2417 2331 2418 2497
8 2419 2332 2417 2496 2499 2420 2497 2570
8 2497 2418 2498 2571 2420 2333 2421 2500
8 2499 2420 2500 2573 2422 2335 2423 2502
8 2500 2421 2501 2574 2423 2336 2424 2503
8 2502 2423 2503 2576 2425 2338 2426 2505
8 2503 2424 2504 2577 2426 2339 2427 2506
8 2505 2426 2506 2578 2429 2341 2428 2507
8 2509 2431 2373 2455 2580 2508 2454 2529
8 2509 2431 2508 2580 2449 2363 2448 2525
8 2432 2510 2581 2509 2374 2456 2530 2455
8 2432 2510 2450 2364 2509 2581 2526 2449
8 2583 2511 2434 2513 2516 2439 2353 2438
8 2436 2352 2437 2514 2515 2438 2516 2588
8 2440 2356 2442 2518 2514 2437 2516 2588
8 2442 2358 2444 2520 2516 2439 2517 2589
8 2519 2443 2520 2591 2441 2357 2442 2518
8 2519 2443 2361 2447 2591 2520 2446 2524
8 2446 2360 2445 2523 2520 2444 2521 2592
8 2525 2448 2522 2593 2452 2369 2445 2523
8 2524 2446 2370 2453 2594 2523 2452 2527
8 2526 2449 2525 2595 2451 2368 2452 2527
8 2534 2462 2528 2597 2460 2382 2454 2529
8 2530 2455 2380 2458 2598 2529 2460 2532
8 2599 2533 2460 2532 2531 2459 2380 2458
8 2537 2464 2533 2599 2463 2384 2459 2531
8 2534 2462 2382 2460 2601 2535 2461 2533
8 2538 2465 2535 2601 2464 2385 2461 2533
8 2540 2467 2538 2604 2466 2387 2464 2537
8 2541 2468 2539 2605 2467 2388 2465 2538
8 2543 2470 2541 2607 2469 2390 2467 2540
8 2470 2391 2471 2544 2541 2468 2542 2608
8 2472 2393 2473 2546 2543 2470 2544 2610
8 2473 2394 2474 2547 2544 2471 2545 2611
8 2475 2396 2476 2549 2546 2473 2547 2613
8 2476 2397 2477 2550 2547 2474 2548 2614
8 2549 2476 2399 2478 2616 2550 2479 2552
8 2479 2400 2480 2553 2550 2477 2551 2617
8 2552 2479 2402 2483 2619 2553 2482 2557
8 2482 2401 2481 2556 2553 2480 2554 2620
8 2485 2404 2484 2559 2556 2481 2555 2623
8 2486 2405 2485 2560 2557 2482 2556 2624
8 2488 2407 2487 2561 2559 2484 2558 2625
8 2489 2408 2488 2562 2560 2485 2559 2626
8 2491 2411 2490 2563 2562 2488 2561 2627
8 2513 2434 2512 2585 2565 2493 2564 2630
8 2586 2513 2565 2632 2515 2438 2494 2567
8 2565 2493 2566 2633 2494 2416 2495 2568
8 2567 2494 2568 2635 2496 2417 2497 2570
8 2568 2495 2569 2636 2497 2418 2498 2571
8 2570 2497 2571 2638 2499 2420 2500 2573
8 2571 2498 2572 2639 2500 2421 2501 2574
8 2573 2500 2574 2641 2502 2423 2503 2576
8 2574 2501 2575 2642 2503 2424 2504 2577
8 2576 2503 2577 2643 2505 2426 2506 2578
8 2597 2528 2579 2645 2529 2454 2508 2580
8 2580 2508 2579 2645 2525 2448 2522 2593
8 2581 2509 2455 2530 2646 2580 2529 2598
8 2581 2509 2580 2646 2526 2449 2525 2595
8 2583 2511 2582 2648 2513 2434 2512 2585
8 2583 2511 2439 2516 2648 2582 2517 2589
8 2649 2583 2513 2586 2588 2516 2438 2515
8 2589 2517 2444 2520 2653 2587 2521 2592
8 2518 2442 2520 2591 2588 2516 2589 2654
8 2593 2522 2590 2655 2523 2445 2521 2592
8 2524 2446 2523 2594 2591 2520 2592 2656
8 2595 2525 2593 2657 2527 2452 2523 2594
8 2602 2536 2596 2659 2534 2462 2528 2597
8 2600 2534 2597 2660 2532 2460 2529 2598
8 2600 2534 2460 2532 2661 2601 2533 2599
8 2604 2538 2601 2661 2537 2464 2533 2599
8 2602 2536 2462 2534 2663 2603 2535 2601
8 2601 2535 2465 2538 2663 2603 2539 2605
8 2607 2541 2605 2665 2540 2467 2538 2604
8 2608 2542 2606 2666 2541 2468 2539 2605
8 2543 2470 2544 2610 2607 2541 2608 2668
8 2544 2471 2545 2611 2608 2542 2609 2669
8 2546 2473 2547 2613 2610 2544 2611 2671
8 2547 2474 2548 2614 2611 2545 2612 2672
8 2549 2476 2550 2616 2613 2547 2614 2674
8 2550 2477 2551 2617 2614 2548 2615 2675
8 2552 2479 2553 2619 2616 2550 2617 2677
8 2553 2480 2554 2620 2617 2551 2618 2678
8 2557 2482 2556 2624 2619 2553 2620 2680
8 2556 2481 2555 2623 2620 2554 2621 2681
8 2559 2484 2558 2625 2623 2555 2622 2683
8 2560 2485 2559 2626 2624 2556 2623 2684
8 2562 2488 2561 2627 2626 2559 2625 2685
8 2690 2629 2564 2630 2650 2584 2512 2585
8 2586 2513 2585 2651 2632 2565 2630 2691
8 2630 2564 2631 2692 2565 2493 2566 2633
8 2632 2565 2633 2694 2567 2494 2568 2635
8 2633 2566 2634 2695 2568 2495 2569 2636
8 2635 2568 2636 2697 2570 2497 2571 2638
8 2636 2569 2637 2698 2571 2498 2572 2639
8 2638 2571 2639 2700 2573 2500 2574 2641
8 2639 2572 2640 2701 2574 2501 2575 2642
8 2641 2574 2642 2702 2576 2503 2577 2643
8 2597 2528 2596 2659 2645 2579 2644 2704
8 2645 2579 2644 2704 2593 2522 2590 2655
8 2660 2597 2645 2705 2598 2529 2580 2646
8 2646 2580 2645 2705 2595 2525 2593 2657
8 2650 2584 2512 2585 2707 2647 2582 2648
8 2648 2582 2517 2589 2707 2647 2587 2653
8 2649 2583 2648 2708 2586 2513 2585 2651
8 2649 2583 2516 2588 2708 2648 2589 2654
8 2655 2590 2652 2710 2592 2521 2587 2653
8 2654 2589 2520 2591 2711 2653 2592 2656
8 2657 2593 2655 2712 2594 2523 2592 2656
8 2602 2536 2603 2663 2659 2596 2658 2714
8 2662 2602 2659 2715 2600 2534 2597 2660
8 2662 2602 2534 2600 2717 2663 2601 2661
8 2661 2601 2538 2604 2717 2663 2605 2665
8 2666 2606 2664 2718 2605 2539 2603 2663
8 2668 2608 2666 2720 2607 2541 2605 2665
8 2608 2542 2609 2669 2666 2606 2667 2721
8 2610 2544 2611 2671 2668 2608 2669 2723
8 2611 2545 2612 2672 2669 2609 2670 2724
8 2613 2547 2614 2674 2671 2611 2672 2726
8 2614 2548 2615 2675 2672 2612 2673 2727
8 2616 2550 2617 2677 2674 2614 2675 2729
8 2617 2551 2618 2678 2675 2615 2676 2730
8 2619 2553 2620 2680 2677 2617 2678 2732
8 2620 2554 2621 2681 2678 2618 2679 2733
8 2624 2556 2623 2684 2680 2620 2681 2735
8 2681 2621 2555 2623 2736 2682 2622 2683
8 2626 2559 2625 2685 2684 2623 2683 2737
8 2688 2628 2584 2650 2740 2686 2647 2707
8 2688 2628 2687 2742 2650 2584 2629 2690
8 2690 2629 2689 2745 2630 2564 2631 2692
8 2746 2690 2630 2691 2709 2650 2585 2651
8 2691 2630 2692 2747 2632 2565 2633 2694
8 2692 2631 2693 2748 2633 2566 2634 2695
8 2694 2633 2695 2750 2635 2568 2636 2697
8 2695 2634 2696 2751 2636 2569 2637 2698
8 2697 2636 2698 2753 2638 2571 2639 2700
8 2698 2637 2699 2754 2639 2572 2640 2701
8 2700 2639 2701 2755 2641 2574 2642 2702
8 2659 2596 2658 2714 2704 2644 2703 2757
8 2704 2644 2703 2757 2655 2590 2652 2710
8 2660 2597 2659 2715 2705 2645 2704 2758
8 2705 2645 2704 2758 2657 2593 2655 2712
8 2759 2706 2647 2707 2710 2652 2587 2653
8 2709 2650 2585 2651 2760 2707 2648 2708
8 2708 2648 2589 2654 2760 2707 2653 2711
8 2712 2655 2710 2761 2656 2592 2653 2711
8 2763 2713 2658 2714 2718 2664 2603 2663
8 2662 2602 2663 2717 2715 2659 2714 2764
8 2720 2666 2718 2767 2665 2605 2663 2717
8 2768 2719 2664 2718 2721 2667 2606 2666
8 2668 2608 2669 2723 2720 2666 2721 2770
8 2669 2609 2670 2724 2721 2667 2722 2771
8 2671 2611 2672 2726 2723 2669 2724 2773
8 2672 2612 2673 2727 2724 2670 2725 2774
8 2674 2614 2675 2729 2726 2672 2727 2776
8 2675 2615 2676 2730 2727 2673 2728 2777
8 2677 2617 2678 2732 2729 2675 2730 2779
8 2678 2618 2679 2733 2730 2676 2731 2780
8 2680 2620 2681 2735 2732 2678 2733 2782
8 2733 2679 2621 2681 2783 2734 2682 2736
8 2735 2681 2623 2684 2784 2736 2683 2737
8 2740 2686 2647 2707 2787 2738 2706 2759
8 2688 2628 2686 2740 2742 2687 2739 2789
8 2743 2688 2650 2709 2790 2740 2707 2760
8 2742 2687 2741 2792 2690 2629 2689 2745
8 2743 2688 2742 2793 2709 2650 2690 2746
8 2745 2689 2744 2795 2692 2631 2693 2748
8 2746 2690 2745 2796 2691 2630 2692 2747
8 2747 2692 2748 2797 2694 2633 2695 2750
8 2748 2693 2749 2798 2695 2634 2696 2751
8 2750 2695 2751 2800 2697 2636 2698 2753
8 2751 2696 2752 2801 2698 2637 2699 2754
8 2753 2698 2754 2802 2700 2639 2701 2755
8 2763 2713 2756 2804 2714 2658 2703 2757
8 2759 2706 2652 2710 2804 2756 2703 2757
8 2715 2659 2714 2764 2758 2704 2757 2805
8 2758 2704 2757 2805 2712 2655 2710 2761
8 2806 2759 2707 2760 2761 2710 2653 2711
8 2765 2716 2762 2808 2718 2664 2713 2763
8 2809 2763 2714 2764 2767 2718 2663 2717
8 2765 2716 2664 2718 2811 2766 2719 2768
8 2813 2768 2718 2767 2770 2721 2666 2720
8 2814 2769 2719 2768 2771 2722 2667 2721
8 2723 2669 2724 2773 2770 2721 2771 2816
8 2724 2670 2725 2774 2771 2722 2772 2817
8 2726 2672 2727 2776 2773 2724 2774 2819
8 2727 2673 2728 2777 2774 2725 2775 2820
8 2729 2675 2730 2779 2776 2727 2777 2822
8 2730 2676 2731 2780 2777 2728 2778 2823
8 2732 2678 2733 2782 2779 2730 2780 2825
8 2780 2731 2679 2733 2826 2781 2734 2783
8 2782 2733 2681 2735 2827 2783 2736 2784
8 2830 2785 2738 2787 2804 2756 2706 2759
8 2789 2739 2686 2740 2832 2786 2738 2787
8 2790 2740 2707 2760 2833 2787 2759 2806
8 2742 2687 2739 2789 2792 2741 2788 2835
8 2743 2688 2740 2790 2793 2742 2789 2836
8 2792 2741 2791 2838 2745 2689 2744 2795
8 2793 2742 2792 2839 2746 2690 2745 2796
8 2795 2744 2794 2841 2748 2693 2749 2798
8 2796 2745 2795 2842 2747 2692 2748 2797
8 2797 2748 2798 2843 2750 2695 2751 2800
8 2798 2749 2799 2844 2751 2696 2752 2801
8 2800 2751 2801 2845 2753 2698 2754 2802
8 2808 2762 2803 2847 2763 2713 2756 2804
8 2809 2763 2804 2848 2764 2714 2757 2805
8 2806 2759 2710 2761 2848 2804 2757 2805
8 2765 2716 2766 2811 2808 2762 2807 2850
8 2810 2765 2808 2851 2767 2718 2763 2809
8 2810 2765 2718 2767 2852 2811 2768 2813
8 2811 2766 2719 2768 2853 2812 2769 2814
8 2855 2814 2768 2813 2816 2771 2721 2770
8 2856 2815 2769 2814 2817 2772 2722 2771
8 2773 2724 2774 2819 2816 2771 2817 2858
8 2774 2725 2775 2820 2817 2772 2818 2859
8 2776 2727 2777 2822 2819 2774 2820 2861
8 2777 2728 2778 2823 2820 2775 2821 2862
8 2779 2730 2780 2825 2822 2777 2823 2864
8 2823 2778 2731 2780 2865 2824 2781 2826
8 2825 2780 2733 2782 2866 2826 2783 2827
8 2869 2828 2785 2830 2847 2803 2756 2804
8 2871 2829 2786 2832 2830 2785 2738 2787
8 2872 2830 2787 2833 2848 2804 2759 2806
8 2789 2739 2786 2832 2835 2788 2831 2874
8 2836 2789 2740 2790 2875 2832 2787 2833
8 2792 2741 2788 2835 2838 2791 2834 2877
8 2793 2742 2789 2836 2839 2792 2835 2878
8 2838 2791 2837 2880 2795 2744 2794 2841
8 2839 2792 2838 2881 2796 2745 2795 2842
8 2841 2794 2840 2882 2798 2749 2799 2844
8 2842 2795 2841 2883 2797 2748 2798 2843
8 2843 2798 2844 2884 2800 2751 2801 2845
8 2886 2846 2803 2847 2850 2807 2762 2808
8 2851 2808 2847 2887 2809 2763 2804 2848
8 2850 2807 2766 2811 2889 2849 2812 2853
8 2810 2765 2811 2852 2851 2808 2850 2890
8 2852 2811 2768 2813 2891 2853 2814 2855
8 2853 2812 2769 2814 2892 2854 2815 2856
8 2894 2856 2814 2855 2858 2817 2771 2816
8 2817 2772 2818 2859 2856 2815 2857 2895
8 2819 2774 2820 2861 2858 2817 2859 2897
8 2820 2775 2821 2862 2859 2818 2860 2898
8 2822 2777 2823 2864 2861 2820 2862 2900
8 2823 2778 2824 2865 2862 2821 2863 2901
8 2864 2823 2780 2825 2902 2865 2826 2866
8 2904 2867 2828 2869 2886 2846 2803 2847
8 2869 2828 2868 2906 2830 2785 2829 2871
8 2907 2869 2830 2872 2887 2847 2804 2848
8 2871 2829 2870 2909 2832 2786 2831 2874
8 2910 2871 2832 2875 2872 2830 2787 2833
8 2835 2788 2831 2874 2877 2834 2873 2912
8 2836 2789 2832 2875 2878 2835 2874 2913
8 2877 2834 2876 2915 2838 2791 2837 2880
8 2839 2792 2835 2878 2881 2838 2877 2916
8 2880 2837 2879 2917 2841 2794 2840 2882
8 2881 2838 2880 2918 2842 2795 2841 2883
8 2883 2841 2882 2919 2843 2798 2844 2884
8 2921 2885 2846 2886 2889 2849 2807 2850
8 2922 2886 2847 2887 2890 2850 2808 2851
8 2889 2849 2812 2853 2924 2888 2854 2892
8 2890 2850 2811 2852 2925 2889 2853 2891
8 2891 2853 2814 2855 2926 2892 2856 2894
8 2892 2854 2815 2856 2927 2893 2857 2895
8 2858 2817 2859 2897 2894 2856 2895 2929
8 2859 2818 2860 2898 2895 2857 2896 2930
8 2861 2820 2862 2900 2897 2859 2898 2932
8 2862 2821 2863 2901 2898 2860 2899 2933
8 2864 2823 2865 2902 2900 2862 2901 2934
8 2904 2867 2846 2886 2936 2903 2885 2921
8 2904 2867 2903 2936 2869 2828 2868 2906
8 2937 2904 2869 2907 2922 2886 2847 2887
8 2906 2868 2905 2939 2871 2829 2870 2909
8 2907 2869 2906 2940 2872 2830 2871 2910
8 2909 2870 2908 2942 2874 2831 2873 2912
8 2910 2871 2909 2943 2875 2832 2874 2913
8 2912 2873 2911 2945 2877 2834 2876 2915
8 2878 2835 2874 2913 2916 2877 2912 2946
8 2915 2876 2914 2947 2880 2837 2879 2917
8 2916 2877 2915 2948 2881 2838 2880 2918
8 2918 2880 2917 2949 2883 2841 2882 2919
8 2921 2885 2849 2889 2951 2920 2888 2924
8 2952 2921 2886 2922 2925 2889 2850 2890
8 2924 2888 2854 2892 2954 2923 2893 2927
8 2925 2889 2853 2891 2955 2924 2892 2926
8 2926 2892 2856 2894 2956 2927 2895 2929
8 2895 2857 2896 2930 2927 2893 2928 2957
8 2897 2859 2898 2932 2929 2895 2930 2959
8 2898 2860 2899 2933 2930 2896 2931 2960
8 2900 2862 2901 2934 2932 2898 2933 2961
8 2936 2903 2885 2921 2963 2935 2920 2951
8 2936 2903 2935 2963 2906 2868 2905 2939
8 2937 2904 2886 2922 2964 2936 2921 2952
8 2937 2904 2936 2964 2907 2869 2906 2940
8 2939 2905 2938 2966 2909 2870 2908 2942
8 2940 2906 2939 2967 2910 2871 2909 2943
8 2942 2908 2941 2969 2912 2873 2911 2945
8 2943 2909 2942 2970 2913 2874 2912 2946
8 2945 2911 2944 2971 2915 2876 2914 2947
8 2946 2912 2945 2972 2916 2877 2915 2948
8 2948 2915 2947 2973 2918 2880 2917 2949
8 2951 2920 2888 2924 2975 2950 2923 2954
8 2952 2921 2889 2925 2976 2951 2924 2955
8 2927 2893 2928 2957 2954 2923 2953 2978
8 2955 2924 2892 2926 2979 2954 2927 2956
8 2929 2895 2930 2959 2956 2927 2957 2980
8 2930 2896 2931 2960 2957 2928 2958 2981
8 2932 2898 2933 2961 2959 2930 2960 2982
8 2951 2920 2950 2975 2963 2935 2962 2984
8 2963 2935 2962 2984 2939 2905 2938 2966
8 2964 2936 2921 2952 2985 2963 2951 2976
8 2964 2936 2963 2985 2940 2906 2939 2967
8 2966 2938 2965 2987 2942 2908 2941 2969
8 2967 2939 2966 2988 2943 2909 2942 2970
8 2969 2941 2968 2989 2945 2911 2944 2971
8 2970 2942 2969 2990 2946 2912 2945 2972
8 2972 2945 2971 2991 2948 2915 2947 2973
8 2954 2923 2953 2978 2975 2950 2974 2993
8 2976 2951 2924 2955 2994 2975 2954 2979
8 2957 2928 2958 2981 2978 2953 2977 2995
8 2956 2927 2957 2980 2979 2954 2978 2996
8 2959 2930 2960 2982 2980 2957 2981 2997
8 2984 2962 2983 2999 2966 2938 2965 2987
8 2975 2950 2974 2993 2984 2962 2983 2999
8 2976 2951 2975 2994 2985 2963 2984 3000
8 2985 2963 2984 3000 2967 2939 2966 2988
8 2987 2965 2986 3001 2969 2941 2968 2989
8 2988 2966 2987 3002 2970 2942 2969 2990
8 2990 2969 2989 3003 2972 2945 2971 2991
8 2978 2953 2977 2995 2993 2974 2992 3004
8 2979 2954 2978 2996 2994 2975 2993 3005
8 2980 2957 2981 2997 2996 2978 2995 3006
8 2974 2993 2999 2983 2992 3004 3007 2998
8 2983 2999 2987 2965 2998 3007 3001 2986
8 3000 2984 2999 3008 2988 2966 2987 3002
8 2994 2975 2993 3005 3000 2984 2999 3008
8 3002 2987 3001 3009 2990 2969 2989 3003
8 2996 2978 2995 3006 3005 2993 3004 3010
8 3005 2993 3004 3010 3008 2999 3007 3011
8 3008 2999 3007 3011 3002 2987 3001 3009

CELL_TYPES 1910
12
12
12
12
12
12
12
12
12
12
12
12
12
12
12
12
12
12
12
12
12
12
12
12
12
12
12
12
12
12
12
12
12
12
12
12
12
12
12
12
12
12
12
12
12
12
12
12
12
12
12
12
12
12
12
12
12
12
12
12
12
12
12
12
12
12
12
12
12
12
12
12
12
12
12
12
12
12
12
12
12
12
12
12
12
12
12
12
12
12
12
12
12
12
12
12
12
12
12
12
12
12
12
12
12
12
12
12
12
12
12
12
12
12
12
12
12
12
12
12
12
12
12
12
12
12
12
12
12
12
12
12
12
12
12
12
12
12
12
12
12
12
12
12
12
12
12
12
12
12
12
12
12
12
12
12
12
12
12
12
12
12
12
12
12
12
12
12
12
12
12
12
12
12
12
12
12
12
12
12
12
12
12
12
12
12
12
12
12
12
12
12
12
12
12
12
12
12
12
12
12
12
12
12
12
12
12
12
12
12
12
12
12
12
12
12
12
12
12
12
12
12
12
12
12
12
12
12
12
12
12
12
12
12
12
12
12
12
12
12
12
12
12
12
12
12
12
12
12
12
12
12
12
12
12
12
12
12
12
12
12
12
12
12
12
12
12
12
12
12
12
12
12
12
12
12
12
12
12
12
12
12
12
12
12
12
12
12
12
12
12
12
12
12
12
12
12
12
12
12
12
12
12
12
12
12
12
12
12
12
12
12
12
12
12
12
12
12
12
12
12
12
12
12
12
12
12
12
12
12
12
12
12
12
12
12
12
12
12
12
12
12
12
12
12
12
12
12
12
12
12
12
12
12
12
12
12
12
12
12
12
12
12
12
12
12
12
12
12
12
12
12
12
12
12
12
12
12
12
12
12
12
12
12
12
12
12
12
12
12
12
12
12
12
12
12
12
12
12
12
12
12
12
12
12
12
12
12
12
12
12
12
12
12
12
12
12
12
12
12
12
12
12
12
12
12
12
12
12
12
12
12
12
12
12
12
12
12
12
12
12
12
12
12
12
12
12
12
12
12
12
12
12
12
12
12
12
12
12
12
12
12
12
12
12
12
12
12
12
12
12
12
12
12
12
12
12
12
12
12
12
12
12
12
12
12
12
12
12
12
12
12
12
12
12
12
12
12
12
12
12
12
12
12
12
12
12
12
12
12
12
12
12
12
12
12
12
12
12
12
12
12
12
12
12
12
12
12
12
12
12
12
12
12
12
12
12
12
12
12
12
12
12
12
12
12
12
12
12
12
12
12
12
12
12
12
12
12
12
12
12
12
12
12
12
12
12
12
12
12
12
12
12
12
12
12
12
12
12
12
12
12
12
12
12
12
12
12
12
12
12
12
12
12
12
12
12
12
12
12
12
12
12
12
12
12
12
12
12
12
12
12
12
12
12
12
12
12
12
12
12
12
12
12
12
12
12
12
12
12
12
12
12
12
12
12
12
12
12
12
12
12
12
12
12
12
12
12
12
12
12
12
12
12
12
12
12
12
12
12
12
12
12
12
12
12
12
12
12
12
12
12
12
12
12
12
12
12
12
12
12
12
12
12
12
12
12
12
12
12
12
12
12
12
12
12
12
12
12
12
12
12
12
12
12
12
12
12
12
12
12
12
12
12
12
12
12
12
12
12
12
12
12
12
12
12
12
12
12
12
12
12
12
12
12
12
12
12
12
12
12
12
12
12
12
12
12
12
12
12
12
12
12
12
12
12
12
12
12
12
12
12
12
12
12
12
12
12
12
12
12
12
12
12
12
12
12
12
12
12
12
12
12
12
12
12
12
12
12
12
12
12
12
12
12
12
12
12
12
12
12
12
12
12
12
12
12
12
12
12
12
12
12
12
12
12
12
12
12
12
12
12
12
12
12
12
12
12
12
12
12
12
12
12
12
12
12
12
12
12
12
12
12
12
12
12
12
12
12
12
12
12
12
12
12
12
12
12
12
12
12
12
12
12
12
12
12
12
12
12
12
12
12
12
12
12
12
12
12
12
12
12
12
12
12
12
12
12
12
12
12
12
12
12
12
12
12
12
12
12
12
12
12
12
12
12
12
12
12
12
12
12
12
12
12
12
12
12
12
12
12
12
12
12
12
12
12
12
12
12
12
12
12
12
12
12
12
12
12
12
12
12
12
12
12
12
12
12
12
12
12
12
12
12
12
12
12
12
12
12
12
12
12
12
12
12
12
12
12
12
12
12
12
12
12
12
12
12
12
12
12
12
12
12
12
12
12
12
12
12
12
12
12
12
12
12
12
12
12
12
12
12
12
12
12
12
12
12
12
12
12
12
12
12
12
12
12
12
12
12
12
12
12
12
12
12
12
12
12
12
12
12
12
12
12
12
12
12
12
12
12
12
12
12
12
12
12
12
12
12
12
12
12
12
12
12
12
12
12
12
12
12
12
12
12
12
12
12
12
12
12
12
12
12
12
12
12
12
12
12
12
12
12
12
12
12
12
12
12
12
12
12
12
12
12
12
12
12
12
12
12
12
12
12
12
12
12
12
12
12
12
12
12
12
12
12
12
12
12
12
12
12
12
12
12
12
12
12
12
12
12
12
12
12
12
12
12
12
12
12
12
12
12
12
12
12
12
12
12
12
12
12
12
12
12
12
12
12
12
12
12
12
12
12
12
12
12
12
12
12
12
12
12
12
12
12
12
12
12
12
12
12
12
12
12
12
12
12
12
12
12
12
12
12
12
12
12
12
12
12
12
12
12
12
12
12
12
12
12
12
12
12
12
12
12
12
12
12
12
12
12
12
12
12
12
12
12
12
12
12
12
12
12
12
12
12
12
12
12
12
12
12
12
12
12
12
12
12
12
12
12
12
12
12
12
12
12
12
12
12
12
12
12
12
12
12
12
12
12
12
12
12
12
12
12
12
12
12
12
12
12
12
12
12
12
12
12
12
12
12
12
12
12
12
12
12
12
12
12
12
12
12
12
12
12
12
12
12
12
12
12
12
12
12
12
12
12
12
12
12
12
12
12
12
12
12
12
12
12
12
12
12
12
12
12
12
12
12
12
12
12
12
12
12
12
12
12
12
12
12
12
12
12
12
12
12
12
12
12
12
12
12
12
12
12
12
12
12
12
12
12
12
12
12
12
12
12
12
12
12
12
12
12
12
12
12
12
12
12
12
12
12
12
12
12
12
12
12
12
12
12
12
12
12
12
12
12
12
12
12
12
12
12
12
12
12
12
12
12
12
12
12
12
12
12
12
12
12
12
12
12
12
12
12
12
12
12
12
12
12
12
12
12
12
12
12
12
12
12
12
12
12
12
12
12
12
12
12
12
12
12
12
12
12
12
12
12
12
12
12
12
12
12
12
12
12
12
12
12
12
12
12
12
12
12
12
12
12
12
12
12
12
12
12
12
12
12
12
12
12
12
12
12
12
12
12
12
12
12
12
12
12
12
12
12
12
12
12
12
12
12
12
12
12
12
12
12
12
12
12
12
12
12
12
12
12
12
12
12
12
12
12
12
12
12
12
12
12
12
12
12
12
12
12
12
12
12
12
12
12
12
12
12
12
12
12
12
12
12
12
12
12
12
12
12
12
12
12
12
12
12
12
12
12
12
12
12
12
12
12
12
12
12
12
12
12
12
12
12
12
12
12
12
12
12
12
12
12
12
12
12
12
12
12
12
12
12
12
12
12
12
12
12
12
12
12
12
12
12
12
12
12
12
12
12
12
12
12
12
12
12
12
12
12
12
12
12
12
12
12
12
12
12
12
12
12
12
12
12
12
12
12
12
12
12
12
12
12
12
12
12
12
12
12
12
12
12
12
12
12
12
12
12
12
12
12
12
12
12
12
12
12
12
12
12
12
12
12
12
12
12
12
12
12
12
12
12
12
12
12
12
12
12
12
12
12
12
12
12
12
12
12
12
12
12
12
12
12
12
12
12
12
12
12
12
12
12
12
12
12
12
12
12
12
12
12
12
12
12
12
12
12
12
12
12
12
12
12
12
12
12
12
12
12
12
12
12
12
12
12
12
12
12
12
12
12
12
12
12
12
12
12
12
12
12
12
12
12
12
12
12
12
12
12
12
12
12
12
12
12
12
12
12
12
12
12
12
12
12
12
12
12
12
12
12
12
12
12
12
12
12
12
12
12
12
12
12
12
12
12
12
12
12
12
12
12
12
12
12
12
12
12
12
12
12
12
12
12
12
12
12
12
12
12
12
12
12
12
12
12
12
12
12
12
12
12
12
12
12
12
12
12
12
12
12
12
12
12
12
12
12
12
12
12
12
12
12
12
12
12
12
12
12
12
12
12
12
12
12
12
12
12
12
12
12
12
12
12
12
12

POINT_DATA 3012
SCALARS Jp_lamdaP float 4
LOOKUP_TABLE default
0.999936 1 1 0.999936
1 1 1 1
0.999939 1 1 0.999939
0.999906 1 1 0.999906
0.999933 1 1 0.999933
0.99994 1 1 0.99994
0.999584 1 1 0.999584
1 1 1 1
1 1 1 1
1 1 1 1
0.999991 1 1 0.999991
0.999754 1 1 0.999754
0.999865 1 1 0.999865
0.999897 1 1 0.999897
0.999939 1 1 0.999939
0.999914 1 1 0.999914
0.999944 1 1 0.999944
0.999938 1 1 0.999938
0.999587 1 1 0.999587
1 1 1 1
0.999892 1 1 0.999892
0.999921 1 1 0.999921
0.999466 1 1 0.999466
0.999551 1 1 0.999551
0.999964 1 1 0.999964
0.99963 1 1 0.99963
0.999016 1 1 0.999016
1 1 1 1
0.999958 1 1 0.999958
0.999972 1 1 0.999972
1 1 1 1
0.999762 1 1 0.999762
0.999913 1 1 0.999913
0.999934 1 1 0.999934
0.999637 1 1 0.999637
1 1 1 1
0.999728 1 1 0.999728
0.999826 1 1 0.999826
0.999109 1 1 0.999109
1 1 1 1
1 1 1 1
0.999947 1 1 0.999947
1 1 1 1
0.999887 1 1 0.999887
0.999406 1 1 0.999406
1 1 1 1
0.999559 1 1 0.999559
0.999922 1 1 0.999922
0.99994 1 1 0.99994
0.999947 1 1 0.999947
0.999592 1 1 0.999592
0.999932 1 1 0.999932
0.999901 1 1 0.999901
0.999969 1 1 0.999969
0.999928 1 1 0.999928
0.999467 1 1 0.999467
0.999634 1 1 0.999634
0.999554 1 1 0.999554
0.999002 1 1 0.999002
1 1 1 1
0.999877 1 1 0.999877
0.999512 1 1 0.999512
0.999437 1 1 0.999437
0.999507 1 1 0.999507
0.998733 1 1 0.998733
0.998868 1 1 0.998868
0.999991 1 1 0.999991
0.999736 1 1 0.999736
0.999129 1 1 0.999129
0.998479 1.00003 1 0.998453
1 1 1 1
1 1 1 1
1 1 1 1
0.99977 1 1 0.99977
1 1 1 1
1 1 1 1
0.999601 1 1 0.999601
1 1 1 1
0.999708 1 1 0.999708
0.999848 1 1 0.999848
0.999107 1 1 0.999107
1 1 1 1
0.999993 1 1 0.999993
0.999551 1 1 0.999551
0.999639 1 1 0.999639
0.998724 1 1 0.998724
0.999912 1 1 0.999912
0.999014 1 1 0.999014
0.999214 1 1 0.999214
0.998708 1 1 0.998708
1 1 1 1
1 1 1 1
1 1 1 1
1 1 1 1
1 1 1 1
0.999939 1 1 0.999939
0.999458 1 1 0.999458
0.999951 1 1 0.999951
0.999537 1 1 0.999537
1 1 1 1
0.999379 1 1 0.999379
0.999528 1 1 0.999528
0.998408 1 1 0.998408
0.999587 1 1 0.999587
0.998513 1 1 0.998513
0.999878 1 1 0.999878
0.999909 1 1 0.999909
0.999975 1 1 0.999975
0.999934 1 1 0.999934
0.999469 1 1 0.999469
0.999558 1 1 0.999558
0.999639 1 1 0.999639
0.998988 1 1 0.998988
1 1 1 1
0.999887 1 1 0.999887
0.999404 1 1 0.999404
0.999437 1 1 0.999437
0.999995 1 1 0.999995
0.999773 1 1 0.999773
0.99951 1 1 0.99951
0.9987 1 1 0.9987
0.999109 1 1 0.999109
0.998891 1 1 0.998891
0.998523 1.00007 1 0.998455
0.999398 1 1 0.999398
0.99941 1 1 0.99941
0.998524 1 1 0.998524
0.998631 1 1 0.998631
0.998756 1 1 0.998756
0.999921 1.00171 1 0.998214
1 1 1 1
0.998634 1.00026 1 0.998374
0.999895 1 1 0.999895
0.999198 1 1 0.999198
0.998533 1 1 0.998533
1.00047 1.00224 1 0.998232
0.999965 1 1 0.999965
0.999527 1 1 0.999527
1 1 1 1
1 1 1 1
0.999608 1 1 0.999608
1 1 1 1
0.999861 1 1 0.999861
0.999712 1 1 0.999712
0.999105 1 1 0.999105
1 1 1 1
0.999996 1 1 0.999996
0.999584 1 1 0.999584
0.999669 1 1 0.999669
0.998726 1 1 0.998726
0.999929 1 1 0.999929
0.999017 1 1 0.999017
0.999214 1 1 0.999214
0.998694 1 1 0.998694
0.999966 1 1 0.999966
1 1 1 1
0.999638 1 1 0.999638
0.998616 1 1 0.998616
0.998874 1 1 0.998874
1.00001 1.00175 1 0.998266
0.99935 1 1 0.99935
0.998621 1.00003 1 0.998595
0.999063 1 1.00027 0.99879
0.998559 1 1 0.998559
1 1 1 1
1 1 1 1
1 1 1 1
0.999984 1 1 0.999984
1 1 1 1
1 1 1 1
1 1 1 1
0.999512 1 1 0.999512
0.999427 1 1 0.999427
1 1 1 1
1 1 1 1
0.999381 1 1 0.999381
0.999505 1 1 0.999505
0.998408 1 1 0.998408
0.999536 1 1 0.999536
0.998513 1 1 0.998513
0.999369 1 1 0.999369
0.998349 1 1 0.998349
0.998471 1 1 0.998471
1.00258 1.00459 1 0.997996
0.998553 1 1 0.998553
1.00165 1.00356 1 0.998098
1 1 1 1
0.999897 1 1 0.999897
0.999289 1 1 0.999289
0.999438 1 1 0.999438
1 1 1 1
0.999811 1 1 0.999811
0.999513 1 1 0.999513
0.998668 1 1 0.998668
0.998914 1 1 0.998914
0.99909 1 1 0.99909
0.998564 1.00011 1 0.998458
0.999395 1 1 0.999395
0.99941 1 1 0.99941
0.998456 1 1 0.998456
0.998656 1 1 0.998656
1 1 1 1
0.999882 1 1 0.999882
0.999228 1 1 0.999228
0.998757 1 1 0.998757
0.999944 1.00177 1 0.998177
0.998527 1 1 0.998527
0.998794 1.0004 1 0.998396
1.00047 1.00224 1 0.998236
0.999958 1 1 0.999958
0.999527 1 1 0.999527
0.998365 1 1 0.998365
0.998585 1 1 0.998585
1.0015 1.00343 1 0.998082
1.00019 1.0021 1 0.998093
0.999077 1.00077 1 0.998307
1.00502 1.00698 1 0.998054
0.999937 1 1 0.999937
1.00127 1.00309 1 0.99818
0.999304 1 1 0.999304
0.998686 1 1 0.998686
1.00007 1.00177 1 0.998306
1.00411 1.00594 1 0.998182
0.999425 1 1 0.999425
0.999652 1 1 0.999652
0.999103 1 1 0.999103
0.999566 1 1 0.999566
1 1 1 1
0.999999 1 1 0.999999
0.999662 1 1 0.999662
0.998729 1 1 0.998729
0.999942 1 1 0.999942
0.999213 1 1 0.999213
0.999019 1 1 0.999019
0.998679 1 1 0.998679
0.999975 1 1 0.999975
1 1 1 1
0.99964 1 1 0.99964
0.998617 1 1 0.998617
0.998878 1 1 0.998878
0.999629 1.00137 1 0.998265
0.999351 1 1 0.999351
0.99864 1.00003 1 0.998605
0.998882 1 1.0001 0.998787
0.998548 1 1 0.998548
1 1 1 1
0.999486 1 1 0.999486
0.999784 1 1 0.999784
0.999219 1 1 0.999219
1.0011 1.00294 1 0.99817
0.999018 1.00058 1 0.998438
1.00419 1.00614 1 0.998061
0.999128 1 1.00018 0.998944
0.999738 1.0013 1 0.998437
0.999807 1 1.00128 0.998531
0.998992 1.00056 1 0.998429
0.999938 1 1 0.999938
1 1 1 1
1 1 1 1
1 1 1 1
1 1 1 1
0.999995 1 1 0.999995
1 1 1 1
0.999979 1 1 0.999979
1 1 1 1
0.999537 1 1 0.999537
0.999476 1 1 0.999476
0.998513 1 1 0.998513
0.998408 1 1 0.998408
0.999383 1 1 0.999383
1 1 1 1
0.999368 1 1 0.999368
0.998349 1 1 0.998349
0.99847 1 1 0.99847
1.00243 1.00445 1 0.997995
0.998553 1 1 0.998553
1.00171 1.00361 1 0.998098
0.998336 1 1 0.998336
1.00267 1.00474 1 0.99794
1.00205 1.00401 1 0.998054
1.01144 1.01354 1 0.997929
1.00166 1.00353 1 0.998128
1.00927 1.0113 1 0.997997
0.999392 1 1 0.999392
0.99941 1 1 0.99941
0.998389 1 1 0.998389
0.99868 1 1 0.99868
1 1 1 1
0.99987 1 1 0.99987
0.999257 1 1 0.999257
0.998757 1 1 0.998757
0.999964 1.00183 1 0.998141
0.998959 1.00054 1 0.998418
0.998522 1 1 0.998522
1.00053 1.0023 1 0.99824
0.999951 1 1 0.999951
0.999527 1 1 0.999527
0.998344 1 1 0.998344
0.998583 1 1 0.998583
1.00169 1.00363 1 0.99807
1.00038 1.00225 1 0.99813
0.999928 1 1 0.999928
0.999302 1 1 0.999302
0.998717 1 1 0.998717
0.99921 1.0009 1 0.998308
1.00536 1.00732 1 0.99805
1.00003 1.00176 1 0.998275
1.00153 1.00335 1 0.998182
1.00434 1.00617 1 0.998182
0.999427 1 1 0.999427
0.999102 1 1 0.999102
0.99965 1 1 0.99965
1.00209 1.00408 1 0.998019
1.00153 1.00343 1 0.998105
1.01026 1.01235 1 0.997926
1.00688 1.00892 1 0.997982
1.00305 1.00494 1 0.998119
1.01099 1.01292 1 0.998097
0.99937 1 1 0.99937
1.00632 1.00817 1 0.998163
0.998929 1 1 0.998929
0.998835 1.00046 1 0.998371
1.0023 1.00418 1 0.998135
1.0082 1.00996 1 0.998262
0.999751 1 1 0.999751
0.999085 1 1 0.999085
0.999163 1 1 0.999163
0.998954 1 1 0.998954
0.998618 1 1 0.998618
1 1 1 1
0.999984 1 1 0.999984
0.999642 1 1 0.999642
0.998883 1 1 0.998883
0.999285 1.00102 1 0.998264
0.999352 1 1 0.999352
0.998784 1 1 0.998784
0.998616 1 1 0.998616
0.998537 1 1 0.998537
1 1 1 1
0.999486 1 1 0.999486
0.999788 1 1 0.999788
0.999217 1 1 0.999217
1.00077 1.00261 1 0.998168
0.99884 1.0004 1 0.99844
1.00409 1.00604 1 0.99806
0.999084 1 1.00014 0.998947
0.999281 1.00083 1 0.998451
0.999821 1 1.0013 0.99852
0.99874 1.00024 1 0.998498
1 1 1 1
0.99987 1 1 0.99987
0.999092 1 1 0.999092
0.999363 1 1 0.999363
0.999121 1 1.00014 0.998985
1.00594 1.00795 1 0.998004
1.00198 1.00375 1 0.998237
1.00711 1.00911 1 0.998019
1.00028 1 1.00164 0.998646
0.999841 1.00148 1 0.998361
0.999385 1.00025 1.00086 0.998274
0.999927 1 1 0.999927
0.999647 1 1 0.999647
0.999946 1 1 0.999946
0.999941 1 1 0.999941
1 1 1 1
1 1 1 1
1 1 1 1
1 1 1 1
1 1 1 1
0.999999 1 1 0.999999
1 1 1 1
0.999992 1 1 0.999992
1 1 1 1
0.999974 1 1 0.999974
1 1 1 1
0.998553 1 1 0.998553
0.99847 1 1 0.99847
1.00175 1.00366 1 0.998097
1.00227 1.00429 1 0.997994
0.998349 1 1 0.998349
0.999367 1 1 0.999367
0.998336 1 1 0.998336
1.00268 1.00475 1 0.99794
1.00188 1.00384 1 0.998054
1.01163 1.01373 1 0.99793
1.00156 1.00344 1 0.998127
1.00872 1.01074 1 0.997997
1.00258 1.00467 1 0.997926
1.01282 1.01496 1 0.997889
1.01048 1.01254 1 0.997964
1.01699 1.01905 1 0.997986
1.00739 1.0094 1 0.998007
1.01326 1.01518 1 0.998111
0.998323 1 1 0.998323
0.998581 1 1 0.998581
1.00186 1.00381 1 0.998059
1.00057 1.0024 1 0.998168
0.99992 1 1 0.99992
0.9993 1 1 0.9993
0.998749 1 1 0.998749
0.999345 1.00104 1 0.998308
1.00569 1.00766 1 0.998047
1.00178 1.0036 1 0.998184
0.999941 1.0017 1 0.998244
1.00455 1.00638 1 0.998182
0.99943 1 1 0.99943
0.9991 1 1 0.9991
0.999648 1 1 0.999648
1.00225 1.00427 1 0.997987
1.00149 1.00339 1 0.998104
1.01018 1.01228 1 0.997923
1.00739 1.00942 1 0.997989
0.999371 1 1 0.999371
0.998923 1 1 0.998923
0.99895 1.0005 1.00003 0.998415
1.00331 1.00519 1 0.998128
1.01045 1.01236 1 0.998115
1.00243 1.00432 1 0.99811
1.00632 1.00817 1 0.998165
1.00761 1.00934 1 0.998277
0.999088 1 1 0.999088
0.998937 1 1 0.998937
0.999747 1 1 0.999747
0.99918 1 1 0.99918
1.01116 1.01331 1 0.997873
1.00986 1.01192 1 0.997961
1.01692 1.01904 1 0.997921
1.01256 1.01453 1 0.998057
1.00901 1.01088 1 0.99815
1.01286 1.01469 1 0.998197
0.999051 1 1 0.999051
1.00898 1.01068 1 0.998313
0.998658 1 1 0.998658
1.00005 1.00172 1.00018 0.998154
1.00611 1.00808 1 0.998051
1.00888 1.0106 1 0.998294
0.999808 1 1 0.999808
0.999283 1 1 0.999283
0.998943 1 1 0.998943
0.999103 1 1.00013 0.998975
0.998891 1 1 0.998891
1 1 1 1
1.00039 1.00223 1 0.998165
0.999793 1 1 0.999793
0.999486 1 1 0.999486
0.999214 1 1 0.999214
0.998701 1.00026 1 0.998442
1.00389 1.00584 1 0.998059
0.998957 1 1.00001 0.99895
0.999857 1 1.00135 0.99851
0.998843 1.00038 1 0.998464
0.998567 1 1 0.998567
1 1 1 1
0.999875 1 1 0.999875
0.999092 1 1 0.999092
0.999364 1 1 0.999364
0.999059 1 1.00009 0.998967
1.00619 1.00821 1 0.998
1.0014 1.00317 1 0.998238
1.00707 1.00908 1 0.998012
1.0003 1 1.00165 0.99865
1.00019 1.00181 1 0.998376
0.999633 1.00038 1.00096 0.998294
0.999907 1 1 0.999907
0.999491 1 1 0.999491
0.999271 1 1.00045 0.998824
0.999233 1 1.00013 0.999103
0.999296 1 1.00045 0.998844
1.00941 1.01142 1 0.998011
1.00338 1.00522 1 0.998169
1.00734 1.0092 1 0.998155
1.00218 1 1.00377 0.998418
0.999615 1.00147 1 0.99815
0.99993 1 1 0.99993
0.999586 1 1 0.999586
0.999629 1 1 0.999629
0.999457 1 1 0.999457
0.999654 1 1 0.999654
0.999948 1 1 0.999948
0.999947 1 1 0.999947
1 1 1 1
0.999943 1 1 0.999943
1 1 1 1
1 1 1 1
1 1 1 1
1 1 1 1
1 1 1 1
1 1 1 1
0.999998 1 1 0.999998
1 1 1 1
1 1 1 1
0.999989 1 1 0.999989
1 1 1 1
1.00148 1.00336 1 0.998125
1.00172 1.00367 1 0.998054
1.00818 1.0102 1 0.997997
1.01182 1.01391 1 0.997932
1.0027 1.00477 1 0.99794
0.998336 1 1 0.998336
1.00262 1.0047 1 0.997926
1.01284 1.01499 1 0.997882
1.01028 1.01234 1 0.997964
1.01677 1.0188 1 0.997999
1.00755 1.00957 1 0.998003
1.01342 1.01533 1 0.998119
1.01212 1.01429 1 0.997857
1.01801 1.02012 1 0.997932
1.01491 1.01688 1 0.998066
1.01625 1.01823 1 0.998061
1.01182 1.01376 1 0.998079
1.015 1.0168 1 0.998225
1.00242 1.00448 1 0.997955
1.00144 1.00334 1 0.998103
1.01013 1.01224 1 0.997919
1.00791 1.00994 1 0.997995
0.999372 1 1 0.999372
0.998918 1 1 0.998918
0.999147 1.00051 1.00018 0.998458
1.0036 1.00547 1 0.998137
1.00991 1.0118 1 0.998133
1.00628 1.00813 1 0.998167
1.00257 1.00449 1 0.998086
1.007 1.00872 1 0.998292
0.999091 1 1 0.999091
0.99892 1 1 0.99892
0.999743 1 1 0.999743
0.999197 1 1 0.999197
1.01117 1.01332 1 0.997874
1.00983 1.0119 1 0.997956
1.01667 1.01878 1 0.997929
1.01199 1.01396 1 0.99805
0.999048 1 1 0.999048
0.998726 1 1.00003 0.998695
1.00027 1.00173 1.00039 0.998149
1.00866 1.01054 1 0.998136
1.01302 1.01481 1 0.998235
1.00594 1.00791 1 0.99804
1.00865 1.01036 1 0.998315
1.00951 1.0112 1 0.998327
0.998943 1 1 0.998943
0.998889 1 1 0.998889
0.9992 1 1.00023 0.998971
0.999779 1 1 0.999779
0.999298 1 1 0.999298
1.01798 1.02011 1 0.997905
1.0159 1.01798 1 0.99796
1.01371 1.01556 1 0.998177
1.01098 1.01272 1 0.998283
0.998891 1 1 0.998891
1.01051 1.01211 1 0.998421
0.998776 1 1.00029 0.998488
1.00205 1.00362 1.00051 0.997927
1.00798 1.01 1 0.997999
0.999801 1 1 0.999801
0.999435 1 1 0.999435
0.999198 1 1.0001 0.999102
0.998904 1 1 0.998904
0.99936 1 1.00053 0.998828
0.99884 1 1 0.99884
1 1 1 1
0.99988 1 1 0.99988
1.0065 1.00852 1 0.997996
0.999364 1 1 0.999364
0.999092 1 1 0.999092
0.99902 1 1.00007 0.998948
1.00087 1.00264 1 0.998238
1.00698 1.00899 1 0.998005
1.00038 1 1.00173 0.998654
0.999566 1.00048 1.00077 0.998314
1.00049 1.00211 1 0.998391
0.999912 1 1 0.999912
0.999493 1 1 0.999493
0.999213 1 1.00038 0.998832
0.999206 1 1.0001 0.999102
0.999449 1 1.00062 0.998831
1.00947 1.01149 1 0.998007
1.00354 1.00539 1 0.998162
1.00726 1.0091 1 0.998176
1.00162 1 1.00322 0.9984
0.999645 1.00147 1.00006 0.99812
0.999572 1 1 0.999572
0.999198 1 1 0.999198
1.00063 1 1.00197 0.998663
0.999718 1 1.00085 0.998867
0.99942 1 1.00069 0.998732
1.01283 1.01454 1 0.998313
1.0035 1.00542 1 0.998087
1.0064 1.00821 1 0.998202
1.00291 1.00032 1.00433 0.998262
0.998913 1.001 1 0.997918
0.999933 1 1 0.999933
0.999601 1 1 0.999601
0.999371 1 1 0.999371
0.999612 1 1 0.999612
0.999654 1 1 0.999654
0.999431 1 1 0.999431
0.9993 1 1 0.9993
0.999418 1 1 0.999418
0.999658 1 1 0.999658
0.999946 1 1 0.999946
0.999948 1 1 0.999948
1 1 1 1
0.999949 1 1 0.999949
1 1 1 1
1 1 1 1
1 1 1 1
1 1 1 1
1 1 1 1
1 1 1 1
1 1 1 1
1 1 1 1
0.999997 1 1 0.999997
1 1 1 1
1 1 1 1
1.00769 1.00971 1 0.997999
1.01009 1.01215 1 0.997964
1.01357 1.01547 1 0.998127
1.01656 1.01858 1 0.998012
1.01284 1.015 1 0.997875
1.00264 1.00472 1 0.997927
1.0122 1.01438 1 0.997849
1.01802 1.02013 1 0.997928
1.01509 1.01707 1 0.99805
1.01623 1.0182 1 0.998066
1.01123 1.01317 1 0.99808
1.01476 1.01654 1 0.998251
1.01748 1.01962 1 0.997897
1.01776 1.01977 1 0.99803
1.0168 1.01867 0.999996 0.998171
1.01415 1.01586 1 0.998324
1.01115 1.01331 1 0.997874
1.00978 1.01186 1 0.99795
1.01641 1.01851 1 0.997937
1.01141 1.01339 1 0.998043
0.999045 1 1 0.999045
0.998732 1 1 0.998732
1.00052 1.0018 1.00058 0.998144
1.00829 1.01019 1 0.998121
1.01317 1.01492 1 0.998272
1.00842 1.01012 1 0.998317
1.0057 1.00769 1 0.99803
1.01 1.01166 1 0.99836
0.998943 1 1 0.998943
0.998886 1 1 0.998886
0.9993 1 1.00033 0.998968
0.999751 1 1 0.999751
0.999313 1 1 0.999313
1.01772 1.01985 1 0.997908
1.01582 1.01789 1 0.997966
1.01354 1.0154 1 0.998175
0.998886 1 1 0.998886
0.998779 1 1.00026 0.998523
1.00211 1.00343 1.00076 0.997919
1.01128 1.01303 1 0.998273
1.00771 1.00968 1 0.99805
1.01001 1.01161 1 0.998412
0.999806 1 1 0.999806
0.998901 1 1 0.998901
0.998868 1 1 0.998868
0.999426 1 1.00061 0.998819
0.999154 1 1.00004 0.999111
0.999413 1 1 0.999413
1.01723 1.01932 1 0.997951
1.01666 1.019 0.99962 0.99808
1.01317 1.01496 0.99998 0.998261
1.01402 1.01563 0.99999 0.998424
0.998789 1 1 0.998789
1.00786 1.00968 1 0.998198
0.999795 1 1.00165 0.998153
1.00287 1.00404 1.00104 0.997796
0.999855 1 1 0.999855
0.999514 1 1 0.999514
0.999209 1 1 0.999209
0.999486 1 1.0006 0.998885
0.99883 1 1 0.99883
0.999007 1 1.00026 0.998748
0.999916 1 1 0.999916
0.999495 1 1 0.999495
1.00962 1.01164 1 0.998003
0.999156 1 1.00006 0.999101
0.999074 1 1.00023 0.99884
0.999688 1 1.00087 0.998818
1.00365 1.0055 1 0.998155
1.00727 1.00909 1 0.998197
1.00109 1 1.00271 0.998382
0.999796 1.00144 1.00027 0.99809
0.999573 1 1 0.999573
0.999208 1 1 0.999208
1.00064 1 1.00196 0.99868
1.00001 1 1.00114 0.998872
0.999126 1 1.00036 0.998764
1.01289 1.01458 1 0.99833
1.00338 1.00531 1 0.998086
1.00678 1.00852 1 0.998276
1.00296 1.00014 1.00458 0.998243
0.999084 1.00118 1.00003 0.997881
0.999317 1 1 0.999317
0.998951 1 1 0.998951
1.00232 1 1.00378 0.998538
0.999583 1 1.00094 0.998643
1.01854 1.02082 0.999315 0.998454
1.01172 1.01345 0.999872 0.998427
1.00345 1.00555 1 0.997912
1.00252 1.00036 1.00426 0.997918
0.999616 1 1 0.999616
0.999382 1 1 0.999382
0.999242 1 1 0.999242
0.999654 1 1 0.999654
0.999405 1 1 0.999405
0.999658 1 1 0.999658
0.999281 1 1 0.999281
0.999428 1 1 0.999428
0.999175 1 1 0.999175
0.999273 1 1 0.999273
0.999416 1 1 0.999416
0.999651 1 1 0.999651
0.999941 1 1 0.999941
0.999945 1 1 0.999945
1 1 1 1
0.999948 1 1 0.999948
1 1 1 1
1 1 1 1
1 1 1 1
1 1 1 1
1 1 1 1
1 1 1 1
1 1 1 1
1 1 1 1
1 1 1 1
1 1 1 1
1 1 1 1
1.01065 1.01259 1 0.998081
1.01524 1.01725 1 0.998033
1.01452 1.01627 1 0.998277
1.01619 1.01815 1 0.998071
1.01803 1.02015 1 0.997924
1.0123 1.01449 1 0.997842
1.01738 1.01952 1 0.997902
1.01709 1.0191 1 0.998026
1.01655 1.01841 0.999996 0.998173
1.0153 1.01701 1 0.998321
1.01758 1.01964 1 0.997985
1.02018 1.0227 0.999344 0.998188
1.01959 1.02146 0.999863 0.998307
1.01746 1.01959 1 0.997911
1.01576 1.01782 1 0.997972
1.01335 1.0152 1 0.998173
0.998882 1 1 0.998882
0.998736 1 1.00018 0.998557
1.00205 1.0033 1.00085 0.997911
1.01151 1.01327 1 0.998263
1.00969 1.01131 1 0.998403
1.00779 1.00971 1 0.9981
0.998898 1 1 0.998898
0.998897 1 1 0.998897
0.999444 1 1.00063 0.99881
0.999811 1 1 0.999811
0.99912 1 1 0.99912
0.999391 1 1 0.999391
1.01781 1.01989 1 0.997955
1.01695 1.01915 0.999759 0.998084
1.01304 1.01483 0.999982 0.99825
0.998781 1 1 0.998781
0.999698 1.00008 1.0014 0.99822
1.00296 1.00425 1.0009 0.997812
1.01414 1.01576 0.999969 0.998437
1.00825 1.01008 1 0.99819
0.999882 1 1 0.999882
0.999514 1 1 0.999514
0.998837 1 1 0.998837
0.999049 1 1.00026 0.998787
0.999507 1 1.00062 0.998889
0.999192 1 1 0.999192
1.02036 1.02291 0.999401 0.998103
1.01465 1.01865 0.997868 0.998205
1.01506 1.01729 0.999358 0.99844
1.01202 1.01357 1 0.998477
0.999501 1 1.00088 0.998618
1.00287 1.00365 1.0014 0.997822
1.00086 1.00024 1.00264 0.997982
0.999942 1 1 0.999942
0.99967 1 1 0.99967
0.999532 1 1 0.999532
0.999248 1 1 0.999248
0.999049 1 1.00006 0.998994
0.999211 1 1.00046 0.998756
0.998862 1 1 0.998862
1.00527 1 1.0064 0.998876
0.999575 1 1 0.999575
0.999218 1 1 0.999218
1.01282 1.0145 1 0.998348
1.00018 1 1.0013 0.998876
1.00084 1 1.00214 0.998698
0.998831 1 1.00004 0.998795
1.00325 1.00518 1 0.998085
1.00711 1.00878 1 0.998351
1.00304 1.00001 1.00482 0.998223
0.999301 1.00146 1 0.997845
0.999305 1 1 0.999305
0.999075 1 1.00012 0.99896
1.0027 1 1.00415 0.998556
0.999411 1 1.00075 0.998664
1.01866 1.02092 0.99933 0.998455
1.01101 1.01267 0.999949 0.998406
1.00408 1.00614 1 0.997949
1.00212 1.00047 1.00377 0.997888
0.99915 1 1 0.99915
1.01794 1.02187 0.997722 0.998429
0.999724 1 1.00096 0.998763
1.00102 1 1.00268 0.998348
1.01667 1.01899 0.999177 0.998548
1.00617 1.00819 1 0.997998
1.00386 1.00288 1.00323 0.997754
0.999394 1 1 0.999394
0.99924 1 1 0.99924
0.999117 1 1 0.999117
0.999657 1 1 0.999657
0.999437 1 1 0.999437
0.999263 1 1 0.999263
0.999651 1 1 0.999651
0.999417 1 1 0.999417
0.999158 1 1 0.999158
0.999292 1 1 0.999292
0.999076 1 1 0.999076
0.99915 1 1 0.99915
0.99929 1 1 0.99929
0.999418 1 1 0.999418
0.999636 1 1 0.999636
0.999936 1 1 0.999936
0.99994 1 1 0.99994
1 1 1 1
0.999944 1 1 0.999944
1 1 1 1
1 1 1 1
1 1 1 1
1 1 1 1
1 1 1 1
0.999962 1 1 0.999962
1 1 1 1
1 1 1 1
1 1 1 1
1 1 1 1
1 1 1 1
1 1 1 1
1.01645 1.01816 1 0.998317
1.0163 1.01816 0.999997 0.998176
1.01642 1.01843 1 0.998022
1.01728 1.01941 1 0.997908
1.01756 1.01961 1 0.997997
1.02034 1.02286 0.999365 0.998176
1.01996 1.02185 0.999829 0.99832
1.02081 1.02385 0.998867 0.998156
1.02321 1.02671 0.998282 0.998307
1.00959 1.01882 0.992438 0.998494
1.01834 1.02042 1 0.997959
1.01725 1.01933 0.999874 0.998089
1.01297 1.01478 0.999979 0.998239
0.998829 1 1.00006 0.998772
0.999667 1.00012 1.00126 0.998287
1.00274 1.00414 1.00078 0.997827
1.01437 1.016 0.999948 0.998451
1.00808 1.00992 1 0.998182
0.998844 1 1 0.998844
0.999108 1 1.00028 0.998825
0.999623 1 1.00073 0.998893
0.999909 1 1 0.999909
0.999514 1 1 0.999514
0.999174 1 1 0.999174
1.01996 1.02256 0.999335 0.998119
0.999938 1 1 0.999938
0.999654 1 1 0.999654
1.01478 1.01816 0.998472 0.998204
1.016 1.01815 0.999479 0.998409
0.999508 1 1.00084 0.998669
1.00166 1.00042 1.0033 0.997946
1.00269 1.00403 1.00084 0.997828
1.0112 1.01275 1 0.998466
0.999578 1 1 0.999578
0.999247 1 1 0.999247
0.998817 1 1 0.998817
1.00273 1 1.00378 0.998954
0.999309 1 1.00057 0.998737
0.999048 1 1.00005 0.999
1.0219 1.02569 0.998027 0.998275
1.01285 1.01885 0.995769 0.998336
1.01389 1.01748 0.997831 0.998638
1.00385 1.00573 0.999911 0.998217
1.00097 1 1.00234 0.998632
1.0041 1.00088 1.00547 0.99777
0.999674 1 1 0.999674
0.999624 1 1 0.999624
0.999449 1 1 0.999449
0.99925 1 1 0.99925
0.999086 1 1 0.999086
0.998885 1 1.00008 0.998807
1.00887 1 1.01021 0.998676
0.999798 1 1.00082 0.998982
0.999294 1 1 0.999294
0.999181 1 1.00021 0.998969
1.01886 1.02111 0.999346 0.998457
1.01053 1.01217 1 0.998385
0.999282 1 1.0006 0.998685
1.00298 1 1.00441 0.998573
1.00483 1.00682 1.00004 0.997987
1.0017 1.0005 1.00335 0.997858
0.999146 1 1 0.999146
1.01796 1.0226 0.99701 0.99845
0.999654 1 1.00088 0.998773
1.00101 1 1.00269 0.998326
1.01635 1.01863 0.999229 0.998525
1.00695 1.00894 1 0.998029
1.00366 1.00241 1.00348 0.997764
0.999413 1 1.00048 0.998932
1.017 1.02419 0.994285 0.998685
0.999642 1 1.00105 0.998597
1.00229 1.00041 1.00379 0.9981
1.00812 1.0127 0.997225 0.99825
1.0019 1.00187 1.00221 0.997818
1.00548 1.00821 0.998499 0.998792
0.999239 1 1 0.999239
0.999116 1 1 0.999116
0.99901 1 1 0.99901
0.99965 1 1 0.99965
0.999418 1 1 0.999418
0.999312 1 1 0.999312
0.999141 1 1 0.999141
0.999636 1 1 0.999636
0.999409 1 1 0.999409
0.999065 1 1 0.999065
0.999289 1 1 0.999289
0.999166 1 1 0.999166
0.999055 1 1 0.999055
0.999186 1 1 0.999186
0.999289 1 1 0.999289
0.999369 1 1 0.999369
0.999587 1 1 0.999587
0.999449 1 1 0.999449
0.999588 1 1 0.999588
0.999932 1 1 0.999932
0.999935 1 1 0.999935
1 1 1 1
0.999939 1 1 0.999939
1 1 1 1
1 1 1 1
1 1 1 1
1 1 1 1
1 1 1 1
0.999974 1 1 0.999974
0.999959 1 1 0.999959
1 1 1 1
1 1 1 1
1 1 1 1
1 1 1 1
1 1 1 1
1 1 1 1
1.0203 1.02221 0.9998 0.998333
1.02051 1.02302 0.999387 0.998164
1.01758 1.01961 1 0.99801
1.02063 1.02365 0.99889 0.998154
1.0222 1.02564 0.998338 0.998304
1.01051 1.01905 0.993115 0.99849
1.01844 1.02553 0.994698 0.998375
1.00609 1.01596 0.991965 0.998307
1.01402 1.02412 0.991308 0.998817
0.999738 1 1 0.999738
1.01959 1.02223 0.999288 0.998134
1.01489 1.01763 0.999106 0.998203
1.01669 1.01884 0.999518 0.998378
0.99954 1 1.00082 0.998721
1.00263 1.00071 1.00402 0.997911
1.003 1.00472 1.00045 0.997835
1.01043 1.01199 1 0.998456
0.998772 1 1 0.998772
1.00013 1 1.00109 0.999034
0.999347 1 1.00063 0.998717
0.999934 1 1 0.999934
0.999017 1 1.00001 0.999007
0.999623 1 1 0.999623
0.999245 1 1 0.999245
0.999638 1 1 0.999638
1.02144 1.02638 0.996899 0.998282
0.999696 1 1 0.999696
0.999623 1 1 0.999623
0.999415 1 1 0.999415
1.01321 1.01899 0.995987 0.99834
1.01338 1.01672 0.998124 0.998592
1.00026 1 1.00162 0.998649
1.00379 1.00048 1.00554 0.997779
1.00374 1.00543 1.0001 0.998219
0.999273 1 1 0.999273
0.999071 1 1 0.999071
1.00139 1 1.00247 0.998927
1.00729 1 1.00859 0.998711
0.998859 1 1.00003 0.998826
1.01403 1.02137 0.994445 0.998354
1.01248 1.0212 0.992992 0.998457
1.00823 1.01143 0.998437 0.998398
1.00457 1.00329 1.0032 0.998082
1.00339 1 1.00479 0.998606
0.999413 1 1 0.999413
0.999323 1 1 0.999323
0.99923 1 1 0.99923
0.999082 1 1 0.999082
0.99893 1 1 0.99893
1.00598 1 1.00728 0.998712
1.00958 1 1.01097 0.998618
0.999141 1 1 0.999141
0.999549 1 1.00077 0.998784
1.01778 1.02323 0.996189 0.998471
1.0158 1.01812 0.999213 0.998501
1.00743 1.00939 1 0.998061
1.00098 1 1.00268 0.998303
1.00318 1.00181 1.0036 0.997774
0.999317 1 1.00036 0.99896
1.01641 1.02419 0.993712 0.998691
0.999563 1 1.00095 0.998616
1.00236 1.00018 1.00408 0.998111
1.00921 1.01311 0.99784 0.998309
1.00243 1.00193 1.00269 0.997806
1.00541 1.00844 0.998512 0.99849
0.999263 1 1.00045 0.998813
1.00448 1.01556 0.990398 0.998672
1.00051 1 1.00194 0.99857
1.0044 1 1.00636 0.998047
1.0033 1.00422 1.00104 0.998044
0.958206 0.976087 0.991597 0.99
0.984961 0.989067 1.00046 0.995389
0.981182 1.00056 0.981703 0.998914
0.890545 0.921896 0.975695 0.990057
0.865515 0.926386 0.944369 0.989329
0.999114 1 1 0.999114
0.999022 1 1 0.999022
0.999026 1 1 0.999026
0.999635 1 1 0.999635
0.999399 1 1 0.999399
0.999288 1 1 0.999288
0.999183 1 1 0.999183
0.999054 1 1 0.999054
0.999271 1 1 0.999271
0.999605 1 1 0.999605
0.999382 1 1 0.999382
0.999061 1 1 0.999061
0.999184 1 1 0.999184
0.999192 1 1 0.999192
0.999126 1 1 0.999126
0.999227 1 1 0.999227
0.999344 1 1 0.999344
0.999582 1 1 0.999582
0.999401 1 1 0.999401
0.999298 1 1 0.999298
0.999422 1 1 0.999422
0.999423 1 1 0.999423
0.99963 1 1 0.99963
0.999587 1 1 0.999587
0.999929 1 1 0.999929
0.999932 1 1 0.999932
1 1 1 1
0.999935 1 1 0.999935
1 1 1 1
1 1 1 1
1 1 1 1
1 1 1 1
1 1 1 1
0.999979 1 1 0.999979
0.999972 1 1 0.999972
1 1 1 1
0.999956 1 1 0.999956
1 1 1 1
1 1 1 1
1 1 1 1
1 1 1 1
1 1 1 1
1.02126 1.02463 0.998404 0.998302
1.02042 1.02342 0.99892 0.998152
1.01135 1.01914 0.993857 0.998485
1.00624 1.01572 0.992315 0.99834
1.01774 1.02479 0.994733 0.998374
1.01696 1.02549 0.992917 0.998759
1.02123 1.02672 0.996268 0.998379
0.970127 0.984914 0.990292 0.994643
1.01212 1.01935 0.994273 0.998624
0.999748 1 1 0.999748
0.999737 1 1 0.999737
0.999487 1 1 0.999487
0.999515 1 1 0.999515
1.02099 1.02706 0.995794 0.998289
1.01357 1.01896 0.996359 0.998343
1.01306 1.01598 0.998573 0.998546
0.999438 1 1.00077 0.998667
1.00324 1.00011 1.00536 0.997788
1.00368 1.00533 1.00013 0.998222
1.003 1 1.00414 0.99887
1.0058 1 1.00706 0.998745
0.998864 1 1.00002 0.998845
0.999623 1 1 0.999623
0.999056 1 1 0.999056
0.999297 1 1 0.999297
0.999719 1 1 0.999719
0.999381 1 1 0.999381
1.01238 1.01977 0.994368 0.998369
0.999449 1 1 0.999449
0.999344 1 1 0.999344
0.999237 1 1 0.999237
1.01452 1.0227 0.993532 0.998467
1.00704 1.01058 0.998103 0.998394
1.00329 1 1.0047 0.9986
1.00457 1.00369 1.0028 0.998073
0.999084 1 1 0.999084
0.998932 1 1 0.998932
1.00953 1 1.01093 0.998618
1.00688 1 1.00819 0.998691
1.01469 1.02433 0.992188 0.998385
1.00039 1.01709 0.985104 0.998451
1.00473 1.0059 1.00073 0.998114
1.00158 1 1.00306 0.998524
0.999162 1 1 0.999162
0.999129 1 1 0.999129
1.00068 1 1.0018 0.998881
1.0166 1 1.01814 0.998478
0.946649 0.972581 0.983559 0.989608
0.999381 1 1.00039 0.998989
0.999604 1 1.00097 0.998635
1.01557 1.02403 0.993029 0.998696
1.0104 1.0135 0.99857 0.998367
1.00321 1.00212 1.0033 0.997794
1.00258 1 1.00447 0.998122
1.00466 1.00834 0.998156 0.998183
0.999504 1 1.00067 0.998836
1.00357 1.01525 0.989828 0.998658
1.00002 1 1.00144 0.99858
1.00415 1 1.00611 0.998049
1.00366 1.00542 1.00018 0.998065
0.955828 0.976025 0.989243 0.989956
0.980476 0.987683 0.998681 0.994014
0.982854 0.999145 0.984719 0.99896
0.893999 0.92195 0.979699 0.989776
0.851167 0.915287 0.940808 0.988455
0.999591 1 1.00067 0.998926
0.90701 0.933767 0.981477 0.989678
0.900237 0.931262 0.976387 0.990063
0.980942 1.00601 0.97642 0.998625
1.00492 1 1.0063 0.998626
1.00994 1.00157 1.01017 0.998211
0.98176 0.995833 0.986758 0.999098
0.960444 0.972864 0.997701 0.989507
0.97201 0.975333 1.00307 0.993546
0.873318 0.92183 0.956889 0.990057
0.903268 0.955783 0.953637 0.991001
0.999034 1 1 0.999034
0.999022 1 1 0.999022
0.999176 1 1 0.999176
0.999624 1 1 0.999624
0.999395 1 1 0.999395
0.999254 1 1 0.999254
0.999182 1 1 0.999182
0.999066 1 1 0.999066
0.999582 1 1 0.999582
0.99919 1 1 0.99919
0.999244 1 1 0.999244
0.999364 1 1 0.999364
0.999121 1 1 0.999121
0.999144 1 1 0.999144
0.999335 1 1.0002 0.999138
0.99922 1 1 0.99922
0.999378 1 1 0.999378
0.9994 1 1 0.9994
0.999284 1 1 0.999284
0.999257 1 1 0.999257
0.999276 1 1 0.999276
0.999217 1 1 0.999217
0.999167 1 1 0.999167
0.999403 1 1 0.999403
0.999422 1 1 0.999422
0.999632 1 1 0.999632
0.999398 1 1 0.999398
0.999615 1 1 0.999615
0.999928 1 1 0.999928
0.999586 1 1 0.999586
0.999929 1 1 0.999929
1 1 1 1
0.999931 1 1 0.999931
1 1 1 1
1 1 1 1
1 1 1 1
1 1 1 1
1 1 1 1
0.999737 1 1 0.999737
0.99998 1 1 0.99998
0.999978 1 1 0.999978
1 1 1 1
0.999969 1 1 0.999969
1 1 1 1
1 1 1 1
1 1 1 1
1 1 1 1
1 1 1 1
1.00738 1.01579 0.993332 0.998374
1.01717 1.0242 0.994759 0.998372
1.01996 1.02709 0.994353 0.9987
0.971513 0.983377 0.992512 0.995389
1.0121 1.01907 0.994474 0.998683
1.02251 1.02866 0.995658 0.998356
1.01738 1.0232 0.995866 0.99844
0.976271 0.986006 0.994326 0.995777
0.957966 0.976108 0.992491 0.98884
0.871662 0.913791 0.96458 0.988925
0.851906 0.907217 0.949392 0.989087
0.999477 1 1 0.999477
0.999748 1 1 0.999748
0.999737 1 1 0.999737
0.999476 1 1 0.999476
0.999316 1 1 0.999316
0.999354 1 1 0.999354
0.999486 1 1 0.999486
0.999499 1 1 0.999499
1.01073 1.01836 0.994117 0.998384
1.01676 1.02478 0.993684 0.998478
1.00587 1.00974 0.997765 0.99839
1.00344 1 1.00485 0.998595
1.00457 1.00379 1.00272 0.998064
1.0094 1 1.01079 0.998619
1.00796 1 1.0093 0.998671
0.998934 1 1 0.998934
0.999366 1 1 0.999366
0.999087 1 1 0.999087
0.999485 1 1 0.999485
0.999244 1 1 0.999244
1.01509 1.02472 0.992228 0.998364
0.999182 1 1 0.999182
0.999135 1 1 0.999135
1.00184 1.01597 0.98764 0.998434
1.00436 1.00631 0.999867 0.9982
1.00343 1.00017 1.0048 0.998474
1.00168 1 1.00282 0.998864
1.01478 1 1.01632 0.998484
1.01391 1.02282 0.992944 0.998334
0.984182 1.00483 0.980974 0.998446
0.999443 1 1.00103 0.998413
1.00716 1 1.00863 0.99854
0.999056 1 1 0.999056
1.00018 1 1.00123 0.998944
1.01121 1 1.01256 0.998665
0.895794 0.935764 0.966959 0.989997
0.953943 0.973667 0.989174 0.990466
0.999519 1 1.00066 0.998858
0.999655 1 1.00107 0.998589
1.0037 1.01535 0.989863 0.998645
1.00409 1.0068 0.999224 0.998085
1.00375 1 1.00571 0.998051
0.95638 0.975555 0.991457 0.988792
0.982011 0.990102 0.997079 0.994733
0.985326 0.998331 0.987958 0.999003
0.888137 0.922816 0.972615 0.989518
0.837148 0.903383 0.93834 0.987575
0.999329 1 1.0004 0.998927
0.900818 0.936736 0.971296 0.990075
0.898188 0.927563 0.978367 0.989742
0.983719 1.00683 0.978398 0.998614
1.00454 1 1.0059 0.998644
1.00919 1.00083 1.01008 0.998297
0.974655 0.992599 0.982768 0.99914
0.9631 0.976734 0.99719 0.98882
0.974458 0.979162 1.00033 0.994869
0.875032 0.917229 0.964639 0.988966
0.902265 0.956 0.952771 0.990576
1.00108 1 1.00202 0.999068
0.920289 0.935582 0.99232 0.991266
0.973108 0.979276 0.99963 0.994069
0.988141 1.00084 0.988299 0.999006
1.01091 1.00045 1.01147 0.998995
0.996207 0.989181 1.00767 0.999437
0.963939 0.973072 0.994625 0.995968
0.959052 0.965527 1.00453 0.988819
0.896051 0.939057 0.964723 0.989096
0.928232 0.973714 0.960457 0.992538
0.999018 1 1 0.999018
0.999154 1 1 0.999154
0.999749 1 1.00042 0.999328
0.999582 1 1 0.999582
0.999385 1 1 0.999385
0.999262 1 1 0.999262
0.999189 1 1 0.999189
0.999115 1 1 0.999115
0.999378 1 1 0.999378
0.999155 1 1 0.999155
0.999219 1 1 0.999219
0.999397 1 1.00024 0.999152
0.999825 1 1.00055 0.999271
0.999224 1 1.00009 0.999138
0.999223 1 1 0.999223
0.999399 1 1 0.999399
0.999269 1 1 0.999269
0.999256 1 1 0.999256
0.999274 1 1 0.999274
0.999218 1 1 0.999218
0.999239 1 1 0.999239
0.999194 1 1 0.999194
0.999193 1 1 0.999193
0.999015 1 1 0.999015
0.999474 1 1.00068 0.998798
0.999066 1 1 0.999066
0.999165 1 1 0.999165
0.999359 1 1 0.999359
0.999401 1 1 0.999401
0.999625 1 1 0.999625
0.999422 1 1 0.999422
0.999632 1 1 0.999632
0.999929 1 1 0.999929
0.999599 1 1 0.999599
0.999928 1 1 0.999928
1 1 1 1
0.999929 1 1 0.999929
1 1 1 1
1 1 1 1
1 1 1 1
1 1 1 1
1 1 1 1
0.999755 1 1 0.999755
0.999975 1 1 0.999975
0.999737 1 1 0.999737
1 1 1 1
0.99998 1 1 0.99998
0.999977 1 1 0.999977
1 1 1 1
1 1 1 1
1 1 1 1
1 1 1 1
1 1 1 1
0.897906 0.929196 0.976009 0.990078
0.905845 0.932177 0.98097 0.990603
0.973866 0.985009 0.99278 0.995878
1.01272 1.01871 0.995365 0.998743
1.02379 1.03033 0.995313 0.998332
0.974232 0.983208 0.993921 0.996931
1.01777 1.023 0.996419 0.998464
0.960163 0.977607 0.992014 0.990064
0.885426 0.91934 0.973024 0.989812
0.842194 0.90416 0.942592 0.988197
0.99488 0.999825 0.997245 0.997804
0.960035 0.972567 0.997192 0.989894
0.866656 0.917408 0.954386 0.989829
0.901078 0.950679 0.957307 0.990096
0.999257 1 1 0.999257
0.999492 1 1 0.999492
0.999747 1 1 0.999747
0.999466 1 1 0.999466
0.999337 1 1 0.999337
0.999286 1 1 0.999286
0.999353 1 1 0.999353
0.999391 1 1 0.999391
0.999466 1 1 0.999466
0.999482 1 1 0.999482
1.01513 1.02481 0.992206 0.998344
1.00237 1.01401 0.990087 0.998419
1.00404 1.00677 0.998995 0.998286
1.00506 1.00038 1.00626 0.998424
1.01223 1 1.01376 0.998489
1.00255 1 1.00371 0.998846
0.999142 1 1 0.999142
0.999202 1 1 0.999202
1.01173 1.0229 0.99074 0.998326
0.999049 1 1 0.999049
1.0001 1 1.00118 0.998922
0.985722 1.00427 0.983113 0.998386
0.99984 1 1.00133 0.998509
1.00707 1 1.00861 0.998466
1.00979 1 1.01116 0.998647
1.00173 1.00718 0.996003 0.998586
0.990587 1 0.991654 0.998924
1.01078 1 1.01218 0.998616
0.999038 1 1 0.999038
0.999312 1 1.00041 0.998905
1.00483 1 1.00608 0.998749
0.922468 0.939308 0.989751 0.992242
0.902881 0.935583 0.97523 0.989558
0.951111 0.97576 0.984988 0.989594
0.998928 1 1 0.998928
1.00415 1 1.0055 0.998662
0.986457 1.00741 0.980567 0.998603
1.0085 1 1.01013 0.998382
0.896955 0.934005 0.970571 0.98945
0.961563 0.974481 0.996331 0.990377
0.972156 0.980075 0.998299 0.99361
0.971638 0.990084 0.982169 0.999186
0.877938 0.917701 0.966646 0.989681
0.900124 0.931151 0.976832 0.989606
0.896691 0.953346 0.949721 0.990368
1.00161 1 1.00254 0.99907
0.92051 0.938366 0.989426 0.991455
0.975678 0.98111 1.00043 0.994037
0.990288 1.00036 0.990872 0.999055
1.01064 1.00011 1.01156 0.998982
0.99569 0.990244 1.00636 0.999151
0.964813 0.972765 0.997493 0.994318
0.959035 0.96927 1.00034 0.989103
0.900357 0.944584 0.962666 0.990144
0.920198 0.966855 0.959097 0.992333
1.0021 0.999758 1.00285 0.999489
0.974903 0.980763 0.998511 0.995508
0.970886 0.975573 0.999081 0.996111
1.00946 0.996702 1.01308 0.999715
0.980142 0.977466 1.00506 0.997688
0.963926 0.966572 1.00876 0.9886
0.93327 0.961172 0.98035 0.990432
0.934844 0.982303 0.959338 0.992024
0.999133 1 1 0.999133
0.999685 1 1.00036 0.99933
1.00109 1 1.00164 0.999451
0.999377 1 1 0.999377
0.999218 1 1 0.999218
0.999165 1 1 0.999165
0.999448 1 1.00028 0.999166
0.999222 1 1 0.999222
0.999167 1 1.00003 0.999136
1.00066 1 1.00137 0.999299
1.00117 0.999173 1.00255 0.999446
1.00041 1 1.00119 0.99922
0.999158 1 1 0.999158
0.999256 1 1 0.999256
0.999273 1 1 0.999273
0.999218 1 1 0.999218
0.999197 1 1 0.999197
0.999238 1 1 0.999238
0.999197 1 1 0.999197
0.99914 1 1 0.99914
0.999228 1 1 0.999228
0.999019 1 1 0.999019
0.999031 1 1 0.999031
0.999555 1 1.00069 0.998861
0.999816 1 1.00127 0.998545
0.999008 1 1 0.999008
0.999392 1 1.00053 0.998859
0.999092 1 1 0.999092
0.999257 1 1 0.999257
0.999163 1 1 0.999163
0.999358 1 1 0.999358
0.9996 1 1 0.9996
0.9994 1 1 0.9994
0.999624 1 1 0.999624
0.999927 1 1 0.999927
0.999632 1 1 0.999632
0.999928 1 1 0.999928
1 1 1 1
0.999928 1 1 0.999928
1 1 1 1
1 1 1 1
1 1 1 1
1 1 1 1
1 1 1 1
0.999669 1 1 0.999669
0.999969 1 1 0.999969
0.999717 1 1 0.999717
1 1 1 1
0.999977 1 1 0.999977
0.999737 1 1 0.999737
1 1 1 1
1 1 1 1
0.99998 1 1 0.99998
1 1 1 1
1 1 1 1
1 1 1 1
0.925407 0.939826 0.992508 0.992091
0.899478 0.932464 0.974798 0.989564
0.974431 0.982685 0.997662 0.993924
0.896867 0.925827 0.978302 0.990205
0.970406 0.982575 0.992221 0.995357
1.01729 1.02288 0.996047 0.998487
0.961314 0.978229 0.991348 0.991285
0.886549 0.923213 0.970866 0.989103
0.834216 0.902517 0.936207 0.987305
0.99128 0.998306 0.99574 0.997211
0.962009 0.973665 0.999073 0.988946
0.873667 0.922178 0.958204 0.98872
0.898338 0.949902 0.95553 0.98973
0.984356 0.991506 0.995975 0.996801
0.96719 0.969327 1.00935 0.98855
0.900365 0.946086 0.961372 0.989911
0.925707 0.974173 0.958134 0.991771
0.999138 1 1 0.999138
0.999279 1 1 0.999279
0.999508 1 1 0.999508
0.999358 1 1 0.999358
0.999166 1 1 0.999166
0.999301 1 1 0.999301
0.999353 1 1 0.999353
0.999371 1 1 0.999371
0.999413 1 1 0.999413
0.999446 1 1 0.999446
1.00988 1.02353 0.988329 0.99832
0.988282 1.00415 0.98585 0.998326
1.00019 1 1.00159 0.998604
1.00774 1 1.00936 0.998394
1.00903 1 1.01042 0.998628
0.999956 1 1.00106 0.9989
0.999041 1 1 0.999041
0.999041 1 1 0.999041
0.996069 1.00657 0.990949 0.998603
0.999112 1 1.0002 0.998916
1.0051 1 1.00636 0.998744
0.989047 1 0.990175 0.998862
1.00941 1 1.01082 0.998605
0.973079 0.995483 0.978417 0.999057
1.00717 1 1.00788 0.999286
1.00527 1 1.00648 0.998795
0.998945 1 1 0.998941
1.00388 1 1.00513 0.998748
0.972005 0.977253 0.998378 0.996246
0.926277 0.939501 0.993466 0.992409
0.89854 0.933085 0.972416 0.990294
1.00217 1 1.0031 0.999072
1.01017 0.999617 1.0116 0.998968
0.990923 1 0.991814 0.999102
0.92888 0.942589 0.993422 0.991981
0.967159 0.969377 1.00927 0.988546
0.966905 0.973847 0.997372 0.995488
0.988038 0.988859 1.00033 0.998837
0.900396 0.942937 0.965415 0.989093
0.977565 0.982151 1.00133 0.994005
0.91617 0.963821 0.957838 0.992402
1.00199 0.999672 1.00285 0.999479
0.973929 0.979333 0.998535 0.995942
0.974928 0.9787 1.00002 0.996123
1.01023 0.997749 1.01294 0.999576
0.97915 0.97727 1.0047 0.99724
0.96376 0.968849 1.00669 0.988136
0.935139 0.985008 0.956482 0.992566
0.922297 0.954872 0.975739 0.989901
1.00435 0.99804 1.00661 0.999711
0.970494 0.976546 0.99545 0.998345
0.980831 0.987616 0.996619 0.996499
0.928346 0.975778 0.959267 0.991789
0.997202 0.983149 1.01496 0.999346
0.975863 0.973416 1.01359 0.989077
0.916261 0.940473 0.983768 0.990331
0.9996 1 1.00027 0.999333
1.00068 1 1.00127 0.999409
1.00355 0.999179 1.00481 0.999566
0.999222 1 1 0.999222
0.999133 1 1 0.999133
1.00178 1 1.00245 0.999326
0.999164 1 1 0.999164
1.00067 1 1.00145 0.999224
1.00211 0.999453 1.00324 0.999421
1.00104 0.999998 1.00155 0.999489
1.0004 1 1.00118 0.999216
0.999201 1 1 0.999201
0.999236 1 1 0.999236
0.999201 1 1 0.999201
0.999221 1 1 0.999221
0.999149 1 1 0.999149
0.999489 1 1.0003 0.999186
0.999082 1 1 0.999082
1.00124 1 1.00258 0.998664
0.999048 1 1 0.999048
0.999407 1 1.00056 0.998844
0.99941 1 1.00101 0.998399
0.999687 1 1.00118 0.99851
0.999402 1 1.00052 0.998887
0.999695 1 1.00114 0.998558
0.999178 1 1 0.999178
0.999004 1 1.00002 0.998984
0.999301 1 1.00038 0.99892
0.999119 1 1 0.999119
0.99928 1 1 0.99928
0.999553 1 1 0.999553
0.999356 1 1 0.999356
0.999599 1 1 0.999599
0.999921 1 1 0.999921
0.999623 1 1 0.999623
0.999926 1 1 0.999926
1 1 1 1
0.999927 1 1 0.999927
1 1 1 1
1 1 1 1
1 1 1 1
1 1 1 1
1 1 1 1
0.999558 1 1 0.999558
0.999903 1 1 0.999903
0.999668 1 1 0.999668
1 1 1 1
0.999947 1 1 0.999947
0.999679 1 1 0.999679
1 1 1 1
1 1 1 1
0.999979 1 1 0.999979
1 1 1 1
1 1 1 1
1 1 1 1
0.971802 0.978114 0.997602 0.995935
0.91615 0.938114 0.984724 0.991737
0.900678 0.930351 0.978528 0.989349
0.999306 1 1 0.999306
0.967843 0.97333 0.997834 0.996522
0.976762 0.98294 0.999815 0.993899
0.890139 0.925132 0.971896 0.989999
0.990721 0.998593 0.995569 0.996532
0.966992 0.975487 1.00158 0.989728
0.879422 0.930175 0.955531 0.989436
0.891977 0.945716 0.953098 0.989589
0.986078 0.993316 0.997621 0.995081
0.957423 0.96481 1.00323 0.989149
0.907219 0.948047 0.966968 0.989624
0.924421 0.972626 0.958614 0.991472
0.972959 0.979801 0.999138 0.993874
0.969281 0.964032 1.0181 0.987567
0.921727 0.956525 0.973791 0.989556
0.931618 0.98038 0.957908 0.992018
0.999029 1 1 0.999029
0.999126 1 1 0.999126
0.999301 1 1 0.999301
0.999163 1 1 0.999163
0.999192 1 1 0.999192
0.999316 1 1 0.999316
0.999377 1 1 0.999377
0.999434 1 1 0.999434
0.990289 1.00572 0.986017 0.998617
0.986972 1 0.988159 0.998799
0.999043 1 1 0.999043
1.00759 1 1.00901 0.998593
1.00512 1 1.00639 0.998739
0.999123 1 1.0002 0.998928
0.998994 1 1.00005 0.998946
0.978704 0.99783 0.981745 0.99907
1.00373 1 1.00496 0.998775
1.00532 1 1.00653 0.998795
1.00152 0.999969 1.00225 0.999306
0.998999 1 1.00002 0.998977
0.971383 0.98919 0.982545 0.999444
1.01156 0.998547 1.01358 0.999454
1.00429 1 1.00542 0.998876
1.00047 1 1.00158 0.998897
0.975134 0.977795 0.998631 0.998646
0.971547 0.976503 0.998611 0.996309
0.930548 0.940139 0.997198 0.992581
1.00184 0.999685 1.00269 0.99947
1.01203 0.998868 1.01374 0.999439
0.973008 0.978213 0.998299 0.996373
0.971411 0.967605 1.01515 0.988946
0.976289 0.974415 1.0066 0.995352
0.926686 0.957694 0.978185 0.9892
0.978091 0.980888 1.00102 0.996134
0.936955 0.988967 0.953983 0.993107
1.00465 0.998197 1.00679 0.999678
0.96914 0.97581 0.994797 0.998359
0.980028 0.98572 0.997192 0.997025
1.00607 0.990256 1.01606 0.999904
0.926319 0.974494 0.958737 0.991475
0.969947 0.968983 1.01226 0.988868
0.925908 0.95432 0.980741 0.989282
1.00758 0.995398 1.01247 0.999771
0.979268 0.986317 0.994077 0.998769
0.968722 0.974873 0.997139 0.996541
0.901977 0.95334 0.955544 0.990141
0.921596 0.95874 0.971589 0.989366
0.982851 0.97826 1.00552 0.999174
0.977275 0.966444 1.0238 0.987701
1.00026 1 1.00089 0.999366
1.00319 0.998906 1.00474 0.99955
1.00385 0.991115 1.01327 0.999582
0.999169 1 1 0.999169
1.00044 1 1.00122 0.999227
1.00292 1 1.00352 0.999396
0.999698 1 1.00049 0.99921
1.00107 0.999805 1.00178 0.999488
1.00589 0.998923 1.00766 0.999315
0.999215 1 1 0.999215
0.999158 1 1 0.999158
1.0001 1 1.00094 0.999158
1.0065 1 1.00771 0.998791
0.999145 1 1 0.999145
1.0007 1 1.00197 0.998731
1.0024 1 1.00413 0.998279
0.999979 1 1.00188 0.998106
0.99923 1 1.0004 0.998826
0.999444 1 1.00109 0.998351
0.99912 1 1.00053 0.998595
1.00032 1 1.00156 0.998762
0.999633 1 1.00108 0.99855
0.999181 1 1.00009 0.999088
0.999372 1 1.00049 0.998882
0.999612 1 1.00104 0.998572
0.999474 1 1 0.999474
0.99917 1 1 0.99917
0.999003 1 1.00004 0.998961
0.999304 1 1 0.999304
0.999551 1 1 0.999551
0.999907 1 1 0.999907
0.999598 1 1 0.999598
0.999919 1 1 0.999919
1 1 1 1
0.999924 1 1 0.999924
1 1 1 1
1 1 1 1
1 1 1 1
1 1 1 1
1 1 1 1
0.999515 1 1 0.999515
0.999862 1 1 0.999862
0.99958 1 1 0.99958
1 1 1 1
0.999901 1 1 0.999901
0.999666 1 1 0.999666
1 1 1 1
1 1 1 1
0.999925 1 1 0.999925
1 1 1 1
1 1 1 1
1 1 1 1
0.968238 0.974407 0.995315 0.998346
0.971864 0.978119 0.997655 0.995941
0.916443 0.939097 0.983957 0.991789
0.999316 1 1 0.999316
0.999279 1 1 0.999279
0.999191 1 1 0.999191
0.979906 0.98639 0.99693 0.996486
0.969697 0.974143 0.998891 0.996542
0.978731 0.983148 1.00164 0.993873
0.991598 0.993045 1.00215 0.996402
0.959561 0.966276 1.0045 0.988606
0.899747 0.940728 0.966934 0.989144
0.928312 0.976016 0.959324 0.991452
0.969868 0.975628 0.998724 0.995366
0.964098 0.963922 1.01172 0.988593
0.918219 0.948359 0.977358 0.990649
0.932963 0.983441 0.955785 0.992558
0.959448 0.968784 0.995671 0.99467
0.979355 0.970833 1.02022 0.988782
0.915993 0.938704 0.985258 0.990406
0.927233 0.972356 0.960814 0.992486
0.999024 1 1 0.999024
0.999027 1 1 0.999027
0.999113 1 1 0.999113
0.99916 1 1 0.99916
0.999219 1 1 0.999219
0.999382 1 1 0.999382
0.985219 1.0002 0.985926 0.999082
0.99655 1 0.997225 0.999324
0.998952 1 1 0.998952
1.00611 1 1.00732 0.998794
1.00398 1 1.00518 0.998803
0.998981 1 1.00002 0.99896
1.00041 1 1.00151 0.998905
0.982797 0.992762 0.990512 0.999445
1.00604 1 1.0071 0.998948
1.00674 0.995284 1.01204 0.99948
0.999035 1 1.00002 0.999014
0.999095 0.983911 1.01574 0.999694
0.993825 0.9916 1.00268 0.999562
1.00318 1 1.00412 0.999067
0.988586 0.990036 0.999384 0.999151
0.974399 0.9775 0.99804 0.998787
0.971319 0.975671 0.999165 0.996371
1.00525 0.998638 1.00698 0.999644
1.00136 0.99222 1.00956 0.999648
0.967882 0.975203 0.994112 0.998372
0.974147 0.967383 1.01533 0.991785
0.928473 0.951934 0.984596 0.990613
0.979155 0.98403 0.997487 0.997553
0.930012 0.977474 0.959625 0.991475
1.00686 0.995419 1.01171 0.999788
0.977836 0.986003 0.992818 0.998891
0.970994 0.975793 0.998517 0.996561
0.981277 0.974355 1.01014 0.996998
0.898368 0.951525 0.953868 0.989796
0.916217 0.952098 0.97158 0.990462
0.987339 0.972329 1.02704 0.988703
1.00584 0.980308 1.02623 0.999815
0.969295 0.975315 0.995448 0.998372
0.975551 0.98423 0.997178 0.993987
0.850868 0.906882 0.948461 0.989218
0.902254 0.947954 0.961457 0.989946
0.978847 0.972275 1.01832 0.988644
0.956123 0.968889 0.990785 0.996002
1.00256 0.998277 1.00476 0.999534
1.00736 0.993745 1.01412 0.999586
1.01897 0.998623 1.02086 0.999529
0.999205 1 1 0.999205
1.00124 0.999426 1.00233 0.999487
1.00617 0.999449 1.00737 0.999359
1.01665 1 1.01767 0.998992
1.00065 1 1.00152 0.999129
1.00669 1 1.00798 0.998718
1.0134 1 1.01525 0.998176
1.00024 1 1.00145 0.998799
1.00325 1 1.005 0.998261
1.00304 1 1.00521 0.997843
1.00061 1.00094 1.00191 0.997771
0.999441 1 1.00108 0.998366
1.0001 1.00013 1.00189 0.998078
0.999528 1 1.00123 0.998304
0.999799 1 1.00106 0.998739
0.999138 1 1.00048 0.998659
1.00007 1 1.00116 0.998919
1.00038 1 1.00159 0.998789
0.999536 1 1.00095 0.99859
0.999355 1 1 0.999355
0.999181 1 1.00009 0.99909
0.999347 1 1.00047 0.998878
0.999872 1 1 0.999872
0.999473 1 1 0.999473
0.999163 1 1 0.999163
0.999549 1 1 0.999549
0.999903 1 1 0.999903
1 1 1 1
0.999916 1 1 0.999916
1 1 1 1
1 1 1 1
1 1 1 1
1 1 1 1
1 1 1 1
0.999513 1 1 0.999513
0.999879 1 1 0.999879
0.999529 1 1 0.999529
1 1 1 1
0.999887 1 1 0.999887
0.999602 1 1 0.999602
1 1 1 1
1 1 1 1
0.999898 1 1 0.999898
1 1 1 1
1 1 1 1
1 1 1 1
0.978844 0.985991 0.993983 0.998761
0.969294 0.975607 0.99516 0.998361
0.971994 0.978061 0.997837 0.995952
0.999262 1 1 0.999262
0.999164 1 1 0.999164
0.999327 1 1 0.999327
0.999278 1 1 0.999278
0.999175 1 1 0.999175
0.999181 1 1 0.999181
0.999098 1 1 0.999098
0.970037 0.975139 0.99868 0.996082
0.978187 0.984039 0.997029 0.997015
0.97209 0.974913 1.00054 0.996561
0.936451 0.98812 0.954295 0.993099
0.961366 0.968906 0.998197 0.99401
0.970195 0.967304 1.01342 0.989707
0.922183 0.94605 0.985216 0.9894
0.958267 0.968949 0.994901 0.994043
0.969065 0.965181 1.01586 0.988345
0.927526 0.955164 0.981271 0.989599
0.919837 0.966438 0.959187 0.992278
0.954219 0.967262 0.990948 0.995526
0.970206 0.968861 1.01348 0.988072
0.935605 0.962997 0.980888 0.990485
0.901058 0.95433 0.952868 0.990881
0.99908 1 1 0.99908
0.999023 1 1 0.999023
0.999025 1 1 0.999025
0.999157 1 1 0.999157
0.992112 0.995964 0.996685 0.999447
1.00157 0.992427 1.00971 0.999505
0.998942 1 1 0.998942
1.00006 1 1.00114 0.998912
1.00657 1 1.00756 0.99902
0.999018 1 1.00001 0.999009
1.00396 1 1.00491 0.999053
0.994859 0.982323 1.0135 0.999271
0.994785 0.992833 1.00231 0.999653
1.00071 1 1.00159 0.999126
1.00091 0.979908 1.0222 0.999258
1.00548 0.996223 1.00996 0.999338
0.975254 0.977787 0.998735 0.998673
0.985371 0.987799 0.998284 0.999257
0.974562 0.977281 0.998289 0.998927
1.00636 0.995495 1.01112 0.999805
0.983206 0.974871 1.00936 0.999195
0.976501 0.985579 0.991766 0.999014
0.97579 0.966881 1.02156 0.987913
0.920288 0.94891 0.980435 0.989191
0.973746 0.976706 1.00039 0.99658
0.892391 0.946542 0.952645 0.989656
1.01109 0.983004 1.02874 0.999834
0.969332 0.975916 0.994858 0.998387
0.977893 0.984497 0.999327 0.99396
0.959364 0.97047 0.990633 0.997903
0.842785 0.904596 0.942672 0.98833
0.905061 0.947415 0.965347 0.989587
0.978845 0.969427 1.02114 0.988814
0.998705 0.983083 1.01644 0.999462
0.972273 0.978797 0.997324 0.995999
0.907024 0.933251 0.980987 0.990734
0.868955 0.917708 0.956454 0.989985
0.967405 0.963506 1.01537 0.988845
0.947557 0.966269 0.985941 0.994617
1.01174 0.997323 1.01487 0.99959
1.01896 0.997119 1.02239 0.999522
1.01332 1 1.01395 0.999383
1.00643 1 1.00704 0.999403
1.0163 0.999653 1.01762 0.999048
1.00997 1.00009 1.0115 0.998391
1.00705 1 1.00842 0.998644
1.01274 1 1.01464 0.998132
1.0068 1.00017 1.00887 0.997778
1.00408 1 1.00585 0.998242
1.0033 1 1.00552 0.997801
1.00285 1.00172 1.00349 0.997643
1.00132 1.00356 1 0.997765
0.999828 1.00111 1.00077 0.997952
1.0009 1.00101 1.00218 0.997723
0.998688 1 1.00013 0.998562
0.999147 1 1.00074 0.998405
1.00019 1.00024 1.0019 0.99805
0.999793 1 1.00102 0.998775
0.999799 1 1.00107 0.998732
0.999148 1 1.00043 0.998722
0.999187 1 1 0.999187
0.999949 1 1.001 0.998946
1.00041 1 1.0016 0.998817
0.999787 1 1 0.999787
0.999355 1 1 0.999355
0.999176 1 1.00008 0.999092
1 1 1 1
0.999867 1 1 0.999867
0.999472 1 1 0.999472
0.999899 1 1 0.999899
1 1 1 1
1 1 1 1
1 1 1 1
1 1 1 1
1 1 1 1
0.999258 1 1 0.999258
0.999477 1 1 0.999477
0.999852 1 1 0.999852
0.999512 1 1 0.999512
1 1 1 1
0.999883 1 1 0.999883
0.999544 1 1 0.999544
1 1 1 1
1 1 1 1
0.999913 1 1 0.999913
1 1 1 1
1 1 1 1
1 1 1 1
0.969081 0.975841 0.994708 0.998356
0.977461 0.985694 0.992754 0.998885
0.968879 0.976808 0.993496 0.998376
0.999271 1 1 0.999271
0.99915 1 1 0.99915
0.99909 1 1 0.99909
0.999152 1 1 0.999152
0.999077 1 1 0.999077
0.999276 1 1 0.999276
0.999158 1 1 0.999158
0.999182 1 1 0.999182
0.999094 1 1 0.999094
0.999131 1 1 0.999131
0.971191 0.977713 0.999333 0.993992
0.973282 0.977642 0.99944 0.996098
0.975848 0.981531 0.996658 0.997543
0.916685 0.964232 0.958012 0.992356
0.927274 0.94965 0.985578 0.990727
0.950107 0.963587 0.99267 0.993292
0.976245 0.972663 1.01522 0.988636
0.9558 0.968252 0.993258 0.993841
0.982419 0.976783 1.01741 0.988557
0.923882 0.956142 0.975914 0.990107
0.901403 0.9554 0.952596 0.990432
0.974313 0.975377 1.00415 0.994783
0.971715 0.970907 1.01205 0.988917
0.893558 0.93845 0.962754 0.989001
0.865026 0.92608 0.94439 0.989075
0.999349 1 1 0.999349
0.999083 1 1 0.999083
0.999023 1 1 0.999023
0.991509 0.980328 1.01257 0.998846
0.995244 0.993015 1.0025 0.999748
0.999037 1 1.00003 0.999005
1.00529 1 1.00626 0.99904
1.00095 1 1.00181 0.999133
1.00589 0.997268 1.00932 0.999329
0.99874 0.978449 1.02147 0.999287
1.00594 1 1.00658 0.999365
1.00108 0.987027 1.0152 0.999053
0.972894 0.97845 0.998115 0.996199
0.973984 0.977104 0.997992 0.998812
0.98156 0.985447 0.99669 0.999363
1.01533 0.984657 1.03131 0.999849
0.960879 0.973135 0.992027 0.995341
0.968442 0.97654 0.993294 0.998402
0.9746 0.97149 1.01648 0.986938
0.900736 0.941195 0.967515 0.989145
0.979569 0.984785 1.00077 0.993936
0.83641 0.90383 0.937177 0.987441
0.997201 0.981666 1.01629 0.999538
0.973315 0.979562 0.997609 0.996005
0.898022 0.926958 0.978237 0.990337
0.948844 0.967972 0.984631 0.995539
0.875894 0.922823 0.959829 0.988869
0.95771 0.961409 1.00827 0.987977
0.978207 0.983213 0.996002 0.998902
0.926454 0.940623 0.992666 0.992214
0.8743 0.915037 0.966042 0.989068
0.969591 0.971357 1.00965 0.988642
0.957942 0.968692 0.993133 0.995741
1.01796 0.995353 1.02321 0.999515
1.01515 0.999644 1.01615 0.999365
0.993278 1.00009 0.994269 0.998914
1.01566 0.999287 1.0173 0.999105
1.01044 1.00036 1.01163 0.998467
1.00242 1.00161 1.00272 0.998092
1.01183 1 1.01377 0.998088
1.00557 1.00031 1.00748 0.997789
0.999371 1.00147 1.00003 0.997875
1.00339 1 1.00565 0.997758
1.00313 1.00273 1.00275 0.997658
1.00437 1.00649 1 0.997892
1.0058 1.00781 1 0.997999
1.00183 1.00401 1.00002 0.997819
1.00138 1.00361 1 0.997777
0.998744 1.00054 1 0.998208
0.999611 1.00063 1.00107 0.997909
1.00119 1.00108 1.00244 0.997675
0.998706 1 1 0.998706
0.998634 1 1.00002 0.99861
0.998763 1 1.00032 0.998445
0.999018 1 1 0.999018
0.999863 1 1.00107 0.99879
0.999819 1 1.0011 0.998725
0.999631 1 1 0.999631
0.999275 1 1.00009 0.999188
0.999851 1 1.00088 0.998972
1 1 1 1
0.999782 1 1 0.999782
0.999356 1 1 0.999356
1 1 1 1
1 1 1 1
0.999862 1 1 0.999862
1 1 1 1
1 1 1 1
1 1 1 1
0.999187 1 1 0.999187
0.999432 1 1 0.999432
0.999247 1 1 0.999247
0.999831 1 1 0.999831
0.999477 1 1 0.999477
1 1 1 1
0.999855 1 1 0.999855
0.999511 1 1 0.999511
1 1 1 1
1 1 1 1
0.999886 1 1 0.999886
1 1 1 1
1 1 1 1
1 1 1 1
0.974567 0.980533 0.997493 0.996413
0.968317 0.975221 0.99454 0.998371
0.976671 0.98532 0.992206 0.999009
0.999081 1 1 0.999081
0.999279 1 1 0.999279
0.999137 1 1 0.999137
0.999165 1 1 0.999165
0.999103 1 1 0.999103
0.999072 1 1 0.999072
0.999006 1 1 0.999006
0.999056 1 1 0.999056
0.999182 1 1 0.999182
0.999089 1 1 0.999089
0.999124 1 1 0.999124
0.999185 1 1 0.999185
0.899177 0.930128 0.976577 0.989911
0.973664 0.9796 0.999981 0.993959
0.975437 0.979025 1.00022 0.996114
0.896836 0.953186 0.950185 0.99021
0.931017 0.962333 0.977628 0.989598
0.970706 0.968323 1.01451 0.988122
0.957639 0.967179 0.995332 0.994779
0.974293 0.974372 1.00368 0.996249
0.851511 0.915634 0.941047 0.988228
0.973604 0.969641 1.01646 0.987829
0.898761 0.944372 0.961363 0.989951
0.967628 0.975037 0.995827 0.99656
0.964866 0.962881 1.01277 0.989424
0.872201 0.921413 0.956475 0.989666
1.00004 1 1.00041 0.999636
0.99935 1 1 0.99935
0.999086 1 1 0.999086
0.999402 0.980046 1.02045 0.99931
1.00712 0.99918 1.00863 0.999321
1.00104 1 1.0019 0.99914
1.00572 1 1.00636 0.999365
0.999988 0.987443 1.01362 0.999095
1.00418 0.995524 1.00939 0.999318
0.923152 0.94009 0.990537 0.991365
0.9727 0.977736 0.998072 0.996771
0.973003 0.976322 0.997647 0.998951
0.995636 0.979906 1.01645 0.999613
0.948101 0.969932 0.981204 0.996217
0.974312 0.980297 0.997873 0.996013
0.965289 0.964041 1.01173 0.989683
0.884137 0.932988 0.957613 0.989586
0.890791 0.925806 0.97177 0.99013
0.977699 0.983964 0.994673 0.998954
0.916743 0.938598 0.984732 0.991858
0.88818 0.920075 0.975118 0.989967
0.95763 0.966447 0.99682 0.994039
0.958839 0.967844 1.00152 0.989188
0.967813 0.98991 0.97836 0.999303
0.898424 0.929929 0.975689 0.990193
0.961938 0.973968 0.99796 0.989668
0.971461 0.980863 0.996564 0.993829
1.01788 0.999305 1.01926 0.999347
0.989682 1.00005 0.990637 0.998988
0.982169 1.00192 0.981634 0.99863
1.01131 1.00063 1.01215 0.998542
1.00295 1.00194 1.00293 0.998085
1.00068 1.00299 0.999428 0.998273
1.00472 1.00049 1.00644 0.997799
0.999467 1.00108 1.0005 0.997889
1.00702 1.00878 1 0.998259
1.0035 1.00375 1.00208 0.997674
1.00421 1.00633 1 0.997897
1.00994 1.01168 1 0.99828
1.01071 1.01245 1 0.998275
1.00539 1.00744 1 0.997967
1.00591 1.0079 1 0.998019
1.0011 1.00309 1 0.99802
1.00175 1.00391 1 0.997853
1.00146 1.00368 1 0.997789
0.998512 1 1 0.998512
0.999251 1.0009 1.00014 0.99822
0.999608 1.00027 1.00148 0.997867
0.998902 1 1 0.998902
0.998702 1 1 0.998702
0.998658 1 1 0.998658
0.999445 1 1 0.999445
0.9991 1 1.00008 0.999021
0.999911 1 1.00111 0.998804
0.999997 1 1 0.999997
0.999627 1 1 0.999627
0.999346 1 1.00016 0.999188
1 1 1 1
1 1 1 1
0.999778 1 1 0.999778
1 1 1 1
1 1 1 1
1 1 1 1
0.999164 1 1 0.999164
0.999189 1 1 0.999189
0.99937 1 1 0.99937
0.999807 1 1 0.999807
0.999432 1 1 0.999432
0.999236 1 1 0.999236
1 1 1 1
0.999833 1 1 0.999833
0.999477 1 1 0.999477
1 1 1 1
1 1 1 1
0.999858 1 1 0.999858
1 1 1 1
1 1 1 1
1 1 1 1
0.919853 0.935704 0.991671 0.991317
0.973789 0.979556 0.997676 0.996427
0.967893 0.974968 0.994349 0.998386
0.999069 1 1 0.999069
0.999023 1 1 0.999023
0.999003 1 1 0.999003
0.999178 1 1 0.999178
0.999117 1 1 0.999117
0.999067 1 1 0.999067
0.999054 1 1 0.999054
0.999004 1 1 0.999004
0.99893 1 1 0.99893
0.999171 1 1 0.999171
0.999117 1 1 0.999117
0.999182 1 1 0.999182
0.885831 0.91855 0.974314 0.989804
0.895512 0.92554 0.977746 0.989578
0.97671 0.981988 1.0007 0.993929
0.837235 0.90325 0.938763 0.987378
0.898351 0.941405 0.964911 0.988968
0.978204 0.974097 1.01429 0.990071
0.975411 0.971864 1.00911 0.994587
0.964449 0.971526 0.997661 0.995042
0.872459 0.916147 0.963204 0.988693
0.95836 0.960662 1.00823 0.989458
0.965124 0.972758 0.99665 0.995487
0.959623 0.970424 0.999931 0.988939
1.00734 1 1.00819 0.999157
0.999863 1 1.00027 0.999597
0.999352 1 1 0.999352
0.995851 0.984824 1.01207 0.999135
1.00562 1 1.00625 0.999366
1.00474 0.996378 1.00918 0.999223
0.998551 1.00062 0.999341 0.998585
0.895381 0.936381 0.96581 0.990064
0.927169 0.940564 0.993745 0.991964
0.973594 0.977684 0.998474 0.997339
0.976078 0.98452 0.992391 0.999026
0.957281 0.96617 0.995818 0.994961
0.91709 0.939469 0.984144 0.991907
0.959849 0.966272 1.00469 0.988718
0.890314 0.925644 0.972294 0.98924
0.971288 0.990592 0.981516 0.998978
0.900956 0.93342 0.975307 0.989657
0.964502 0.975716 0.999607 0.988895
0.974912 0.979448 1.00011 0.995256
0.98538 0.997653 0.988591 0.999098
0.959044 0.977718 0.992093 0.988718
0.981366 0.989812 0.995312 0.996137
0.986021 1 0.986946 0.999063
0.983054 1.00233 0.982134 0.99861
0.983508 1.00508 0.979979 0.99853
1.00316 1.00229 1.00279 0.998079
1.0002 1.00329 0.998648 0.998268
1.00797 1.01214 0.997227 0.998648
0.999338 1.00062 1.00081 0.997904
1.00691 1.00867 1 0.998254
1.01442 1.01585 1 0.998594
1.00399 1.0061 1 0.997902
1.00944 1.01118 1 0.998279
1.01249 1.01399 1 0.998518
1.01043 1.01201 1 0.998433
1.01051 1.01222 1 0.998307
1.00913 1.01095 1 0.998207
1.00519 1.00715 1 0.998056
1.00583 1.00788 1 0.99797
1.00602 1.008 1 0.998038
0.998936 1.00068 1 0.998258
1.0015 1.00345 1 0.998053
1.00157 1.00369 1 0.997887
0.998764 1 1 0.998764
0.99864 1.00013 1 0.998506
0.999553 1.00115 1.00017 0.998231
0.999305 1 1 0.999305
0.998902 1 1 0.998902
0.998698 1 1 0.998698
0.999975 1 1 0.999975
0.999445 1 1 0.999445
0.999199 1 1.00018 0.999024
1 1 1 1
0.999992 1 1 0.999992
0.999624 1 1 0.999624
1 1 1 1
1 1 1 1
1 1 1 1
0.999094 1 1 0.999094
0.999152 1 1 0.999152
0.999302 1 1 0.999302
0.999191 1 1 0.999191
0.99937 1 1 0.99937
0.999761 1 1 0.999761
1 1 1 1
0.999809 1 1 0.999809
0.999433 1 1 0.999433
1 1 1 1
1 1 1 1
0.999835 1 1 0.999835
1 1 1 1
1 1 1 1
1 1 1 1
0.905782 0.932755 0.981207 0.98968
0.919933 0.937864 0.989788 0.991
0.972213 0.977798 0.99784 0.996441
0.999057 1 1 0.999057
0.998982 1 1 0.998982
0.999046 1 1 0.999046
0.9989 1 1 0.9989
0.998943 1 1 0.998943
0.999052 1 1 0.999052
0.999002 1 1 0.999002
0.998944 1 1 0.998944
0.998848 1 1 0.998848
0.999011 1 1 0.999011
0.998957 1.00025 1.00026 0.998455
0.999328 1 1.00012 0.999206
0.99918 1 1 0.99918
0.960016 0.977624 0.993552 0.988362
0.889614 0.919069 0.97816 0.989562
0.897098 0.928381 0.976608 0.989448
0.872057 0.916099 0.96215 0.989373
0.963889 0.963139 1.01329 0.987653
0.966641 0.970368 0.999476 0.996681
0.967297 0.974561 0.996108 0.996425
0.962038 0.971573 1.00054 0.98965
0.980143 0.993195 0.991395 0.995424
1.00286 1.00132 1.00317 0.998377
1.00579 1 1.00666 0.999138
0.999557 1 1 0.999557
1.00517 0.998015 1.00804 0.999138
0.999093 1.00101 0.999576 0.998506
0.948063 0.974043 0.983563 0.989594
0.902448 0.936237 0.973977 0.989663
0.931252 0.941042 0.997005 0.992569
0.974546 0.991321 0.984416 0.998642
0.969385 0.974035 1.00134 0.993895
0.901772 0.931786 0.978141 0.989417
0.965584 0.97447 1.00131 0.989589
0.98363 0.998029 0.98647 0.99909
0.960437 0.978613 0.991468 0.989873
0.982746 0.991173 0.996827 0.994654
1.00065 1.00547 0.99659 0.998604
0.990063 0.996936 0.995742 0.997353
0.983736 1.00284 0.982333 0.998592
0.985657 1.00459 0.982638 0.998485
1.00375 1.02014 0.985327 0.998588
0.999957 1.00358 0.998123 0.998263
1.00687 1.01108 0.997193 0.99864
1.01432 1.01955 0.996101 0.998758
1.00679 1.00855 1 0.998249
1.01444 1.01602 0.999866 0.99858
1.01525 1.01673 0.999897 0.998648
1.00901 1.01075 1 0.998279
1.01258 1.0141 1 0.998505
1.01057 1.01208 1 0.998509
1.01085 1.01241 1 0.998466
1.00954 1.01124 1 0.998319
1.01034 1.01202 1 0.998339
1.00895 1.01076 1 0.998202
1.00624 1.0081 1 0.998159
1.00097 1.0028 1 0.998179
1.00496 1.00693 1 0.998049
1.00623 1.00828 1 0.997973
0.998591 1 1 0.998587
0.999178 1.0009 1 0.998279
1.002 1.00393 1 0.998086
0.999191 1 1 0.999191
0.99876 1 1 0.99876
0.998793 1.00029 1 0.9985
0.999919 1 1 0.999919
0.999306 1 1 0.999306
0.998902 1 1 0.998902
1 1 1 1
0.999961 1 1 0.999961
0.999445 1 1 0.999445
1 1 1 1
0.999987 1 1 0.999987
1 1 1 1
0.99893 1 1 0.99893
0.999094 1 1 0.999094
0.999193 1 1 0.999193
0.999139 1 1 0.999139
0.999284 1 1 0.999284
0.999669 1 1 0.999669
0.99937 1 1 0.99937
0.999763 1 1 0.999763
1 1 1 1
1 1 1 1
1 1 1 1
0.999811 1 1 0.999811
1 1 1 1
1 1 1 1
1 1 1 1
0.96177 0.978829 0.992581 0.989915
0.899466 0.935068 0.971506 0.990139
0.927743 0.942356 0.993412 0.991022
0.99896 1 1 0.99896
0.999069 1 1 0.999069
0.998953 1 1 0.998953
0.998908 1 1 0.998908
0.998725 1 1.00002 0.998703
0.998898 1 1 0.998898
0.998958 1 1 0.998958
0.998791 1 1 0.998791
0.9991 1 1.00012 0.998978
0.998693 1 1 0.998693
1.00068 1.00213 1 0.998549
0.999001 1.00117 0.999837 0.997996
0.999321 1.00074 1.00006 0.998526
0.999485 1 1.00024 0.999241
0.978075 0.990769 0.991557 0.995593
0.961056 0.976969 0.994409 0.989242
0.884258 0.920007 0.971617 0.989219
0.971898 0.976131 1.00704 0.988705
0.965614 0.975362 0.992804 0.997181
0.984974 0.994791 0.99302 0.997091
0.994686 1.00417 0.992013 0.998536
1.00037 1.00067 1.00123 0.998465
1.00474 1 1.00563 0.999119
0.997738 1.00112 0.998203 0.998416
0.976359 0.985518 0.995201 0.995484
0.955139 0.974522 0.989581 0.990431
0.897085 0.933342 0.970493 0.990376
0.984235 0.999674 0.985462 0.999081
0.988968 0.99282 1.00035 0.995772
0.961886 0.979378 0.990999 0.991061
0.994803 1.00464 0.991586 0.998613
0.987794 0.996015 0.994941 0.996789
1.00734 1.02129 0.98796 0.998365
1.00722 1.01461 0.994448 0.998265
0.98769 1.00398 0.985311 0.998439
1.00494 1.02018 0.986461 0.99858
1.00983 1.02345 0.98808 0.998594
1.00588 1.01028 0.997009 0.998631
1.01416 1.01913 0.996371 0.998747
1.01288 1.0172 0.997174 0.998575
1.01451 1.01625 0.999727 0.998566
1.01488 1.01648 0.999788 0.998635
1.01207 1.01376 0.999892 0.998441
1.01261 1.01414 1 0.998492
1.01022 1.01173 1 0.998512
1.01015 1.01186 1 0.998306
1.01126 1.01277 1 0.998499
1.00926 1.01094 1 0.998343
1.00674 1.00856 1 0.998197
1.0088 1.01062 1 0.998197
1.00617 1.00804 1 0.998153
1.00151 1.0033 1 0.998224
0.998454 1.00002 1 0.998432
1.00092 1.00272 1 0.998198
1.00474 1.00672 1 0.998042
0.99905 1 1 0.99905
0.998597 1.00001 1 0.998587
0.999431 1.00113 1 0.9983
0.999839 1 1 0.999839
0.999189 1 1 0.999189
0.998756 1 1 0.998756
1 1 1 1
0.999905 1 1 0.999905
0.999307 1 1 0.999307
1 1 1 1
0.999948 1 1 0.999948
1 1 1 1
0.998752 1 1 0.998752
0.998942 1 1 0.998942
0.999072 1 1 0.999072
0.999094 1 1 0.999094
0.999179 1 1 0.999179
0.999542 1 1 0.999542
0.999266 1 1 0.999266
0.999671 1 1 0.999671
0.999996 1 1 0.999996
0.999764 1 1 0.999764
1 1 1 1
1 1 1 1
1 1 1 1
1 1 1 1
1 1 1 1
0.973793 0.986272 0.991508 0.995803
0.956632 0.977268 0.989354 0.989418
0.89539 0.932543 0.970382 0.989465
0.999981 1.00145 1.00007 0.998464
0.998963 1 1 0.998963
0.998916 1 1 0.998916
0.998885 1 1 0.998885
0.998815 1 1.00012 0.998693
0.999067 1.00021 1 0.998858
0.998734 1 1 0.998734
0.99919 1 1.00024 0.998946
0.998736 1 1 0.998736
1.00001 1.00147 1 0.998542
1.00106 1.003 1 0.998067
1.0036 1.0058 0.999962 0.997851
0.999985 1.0019 1.00013 0.997959
0.999919 1.00132 1 0.998598
0.999389 1.00616 0.994317 0.998945
0.978626 0.991935 0.991635 0.994905
0.963991 0.977782 0.995538 0.990314
0.981239 0.991802 0.993521 0.995801
0.999178 1.00611 0.994364 0.998743
1.00004 1.0002 1.00128 0.998554
1.00251 1.00668 0.997439 0.998412
0.975396 0.983399 0.995265 0.99658
0.951768 0.975394 0.985971 0.989663
0.988182 1.00293 0.986655 0.998619
0.987889 0.996206 0.995501 0.996133
1.00725 1.02193 0.98724 0.998375
1.00659 1.01279 0.995505 0.998366
1.01392 1.02617 0.989703 0.998343
1.015 1.01897 0.997825 0.998283
1.0063 1.02016 0.987825 0.998572
1.01168 1.02445 0.988924 0.9986
1.00714 1.01645 0.992388 0.998443
1.01393 1.01854 0.996742 0.998736
1.01403 1.01793 0.997595 0.998573
1.01208 1.0147 0.999092 0.998321
1.01457 1.01627 0.999697 0.998622
1.01227 1.0139 0.999931 0.998458
1.01147 1.01329 1 0.998197
1.0099 1.0114 1 0.998515
1.00972 1.01143 1 0.998307
1.00862 1.01049 1 0.99815
1.00899 1.01064 1 0.998367
1.00684 1.00865 1 0.998207
1.00194 1.00377 1 0.998183
1.0061 1.00797 1 0.998147
1.00153 1.00333 1 0.998207
0.998702 1.0003 1 0.998401
0.998925 1 1 0.998925
0.998476 1.00002 1 0.998455
1.00084 1.00262 1 0.998217
0.999747 1 1 0.999747
0.999048 1 1 0.999048
0.998586 1 1 0.998586
1 1 1 1
0.999828 1 1 0.999828
0.999188 1 1 0.999188
1 1 1 1
0.999891 1 1 0.999891
1 1 1 1
0.998743 1.00023 1 0.998512
0.998755 1 1 0.998755
0.998929 1 1 0.998929
0.998953 1 1 0.998953
0.999078 1 1 0.999078
0.999416 1 1 0.999416
0.999165 1 1 0.999165
0.999542 1 1 0.999542
0.999979 1 1 0.999979
0.999672 1 1 0.999672
0.999997 1 1 0.999997
1 1 1 1
1 1 1 1
1 1 1 1
1 1 1 1
1.00459 1.0104 0.995305 0.998945
0.973005 0.986626 0.991696 0.994453
0.960214 0.975135 0.994534 0.990111
1.00141 1.00283 1.00001 0.99857
1.00298 1.00478 1 0.998201
0.999703 1.00108 1.00013 0.998496
0.998872 1 1 0.998872
0.998926 1 1.00024 0.998682
0.999311 1.00049 1 0.998813
1.00293 1.00474 1 0.998201
0.998779 1 1 0.998779
0.999209 1.00068 1 0.998535
1.00123 1.00312 1 0.998111
1.00643 1.00869 1 0.997757
1.01202 1.01519 0.998711 0.99817
1.00292 1.00531 0.999784 0.99784
1.00053 1.00261 1 0.997922
1.00253 1.0088 0.994758 0.999021
0.97754 0.991228 0.992069 0.994074
1.00105 1.00748 0.994654 0.998954
1.01402 1.0173 0.998035 0.998746
1.00147 1.00539 0.997622 0.998476
0.973325 0.984368 0.993618 0.995132
1.00704 1.02268 0.986299 0.998386
1.00542 1.01108 0.995928 0.998469
1.01262 1.02613 0.988431 0.998387
1.01729 1.02084 0.99822 0.998297
1.01197 1.01994 0.993862 0.998318
1.02214 1.02532 0.998474 0.998417
1.01321 1.02561 0.989288 0.998607
1.00724 1.01612 0.992803 0.998448
1.01473 1.01956 0.997025 0.998232
1.01507 1.01861 0.99796 0.998571
1.01225 1.01459 0.999369 0.998321
1.01362 1.01553 1 0.998122
1.01239 1.01398 0.999957 0.998474
1.01117 1.013 1 0.998196
1.01147 1.01344 1 0.998053
1.00929 1.011 1 0.998307
1.00861 1.01048 1 0.99815
1.00301 1.00491 1 0.998117
1.00693 1.00872 1 0.998218
1.00203 1.00386 1 0.998185
0.998778 1.00043 1 0.998346
1.00154 1.00336 1 0.99819
0.998674 1.00028 1 0.998391
0.998848 1 1 0.998848
0.999672 1 1 0.999672
0.998925 1 1 0.998925
0.998514 1.00004 1 0.998479
1 1 1 1
0.999736 1 1 0.999736
0.999047 1 1 0.999047
1 1 1 1
0.999816 1 1 0.999816
1 1 1 1
0.999162 1.0009 1 0.998263
0.998709 1.00022 1 0.998487
0.998718 1 1 0.998718
0.998759 1 1 0.998759
0.998933 1 1 0.998933
0.999291 1 1 0.999291
0.999085 1 1 0.999085
0.999416 1 1 0.999416
0.999938 1 1 0.999938
0.999542 1 1 0.999542
0.999985 1 1 0.999985
1 1 1 1
0.999999 1 1 0.999999
1 1 1 1
1 1 1 1
1.01266 1.01751 0.996674 0.998554
1.00259 1.00944 0.994475 0.998738
0.971896 0.985914 0.99049 0.995246
1.00647 1.0083 1 0.99819
1.00048 1.00175 1 0.998728
1.01008 1.01207 1 0.998035
1.00276 1.00458 1 0.998185
0.999412 1.0007 1.00018 0.99853
1.01268 1.01488 1 0.997832
0.999553 1.00078 1 0.99877
1.00299 1.00484 1 0.99815
1.01712 1.01925 1 0.997916
1.0013 1.00315 1 0.998156
1.00698 1.00927 1 0.997732
1.01099 1.01382 0.999023 0.998177
1.00196 1.00414 1 0.997828
1.00505 1.01074 0.995266 0.9991
1.02202 1.0243 0.999268 0.998503
1.0137 1.0171 0.997915 0.998746
1.00078 1.00409 0.998158 0.998538
1.01139 1.02602 0.987293 0.998433
1.01881 1.02212 0.998441 0.998311
1.01216 1.02034 0.993647 0.998331
1.02283 1.02644 0.998053 0.998425
1.02271 1.02652 0.997966 0.998318
1.00737 1.0157 0.993341 0.998452
1.01497 1.01929 0.997524 0.998238
1.0169 1.01974 0.999109 0.998107
1.01245 1.01451 0.999645 0.998321
1.01317 1.01509 1 0.998108
1.0139 1.01596 1 0.99797
1.0109 1.01273 1 0.998194
1.0113 1.01327 1 0.998052
1.00517 1.00716 1 0.998024
1.00861 1.01048 1 0.99815
1.00325 1.00514 1 0.998117
0.998973 1.00072 1 0.998258
1.00213 1.00395 1 0.998187
0.998824 1.00048 1 0.998347
0.998777 1 1 0.998777
0.998641 1.00026 1 0.998381
0.998846 1 1 0.998846
0.999677 1 1 0.999677
0.999924 1 1 0.999924
0.999683 1 1 0.999683
0.998925 1 1 0.998925
1 1 1 1
0.999725 1 1 0.999725
1 1 1 1
1.01279 1.01474 1 0.998078
1.00241 1.00424 1 0.998172
0.998862 1.00062 1 0.998243
0.998726 1.00019 1 0.998538
0.998676 1.00021 1 0.998463
0.998722 1 1 0.998722
0.999153 1 1 0.999153
0.998937 1 1 0.998937
0.999293 1 1 0.999293
0.999871 1 1 0.999871
0.999415 1 1 0.999415
0.999951 1 1 0.999951
1 1 1 1
0.999991 1 1 0.999991
1 1 1 1
1 1 1 1
1.02225 1.02424 0.999786 0.998271
1.01662 1.02095 0.997121 0.998634
1.00204 1.00962 0.993954 0.99853
1.01473 1.01686 1 0.997906
1.00546 1.0072 1 0.998269
0.999531 1.00065 1 0.998884
1.01049 1.01245 1 0.998059
1.00254 1.00438 1 0.99817
1.01992 1.02207 1 0.997893
1.01186 1.01409 1 0.997798
1.0032 1.00511 1 0.998099
1.01706 1.01919 1 0.997909
1.00857 1.01089 1 0.997707
1.01214 1.01485 0.999135 0.998187
1.02518 1.02742 0.999412 0.998403
1.02336 1.02545 0.999455 0.998505
1.01418 1.01721 0.998273 0.998747
1.01286 1.02124 0.993444 0.998343
1.02395 1.02782 0.997798 0.998432
1.02262 1.02713 0.997272 0.998333
1.02211 1.02406 0.999947 0.998155
1.01521 1.01899 0.998051 0.998244
1.0172 1.01958 0.999559 0.998101
1.01587 1.01795 1 0.997955
1.0127 1.01463 1 0.998095
1.01396 1.01602 1 0.99797
1.00796 1.01004 1 0.997943
1.01111 1.01308 1 0.998051
1.00538 1.00738 1 0.998023
0.999509 1.00135 1 0.998162
1.00348 1.00537 1 0.998118
0.999126 1.00087 1 0.998259
0.998687 1 1 0.998687
0.998874 1.00053 1 0.998349
0.998775 1 1 0.998775
0.999668 1 1 0.999668
0.998845 1 1 0.998845
0.999673 1 1 0.999673
0.999926 1 1 0.999926
0.999963 1 1 0.999963
0.999695 1 1 0.999695
1 1 1 1
1.01515 1.01727 1 0.997918
1.00395 1.00579 1 0.998178
1.01244 1.0143 1 0.998168
0.998839 1.00044 1 0.9984
1.00287 1.00471 1 0.998168
0.998547 1.00033 1 0.998222
0.998669 1.00013 1 0.998537
0.999003 1 1 0.999003
0.998727 1 1 0.998727
0.999155 1 1 0.999155
0.999786 1 1 0.999786
0.999295 1 1 0.999295
0.999887 1 1 0.999887
1 1 1 1
0.999964 1 1 0.999964
1 1 1 1
1 1 1 1
1.02251 1.02441 1 0.998149
1.02138 1.02341 0.999749 0.998269
1.01847 1.02253 0.997313 0.998712
1.01937 1.02154 1 0.997871
1.01425 1.01637 1 0.99791
1.00445 1.00611 1 0.998348
1.01085 1.01279 1 0.998082
1.01966 1.02182 1 0.99788
1.0108 1.01306 1 0.997764
1.01499 1.01713 1 0.997902
1.02441 1.02623 1 0.998218
1.02481 1.02708 0.999422 0.998367
1.0246 1.02664 0.999509 0.998507
1.02089 1.02286 1 0.998074
1.02242 1.02768 0.996529 0.998349
1.02178 1.024 0.999675 0.998151
1.01769 1.01972 1 0.998009
1.0175 1.01946 0.999981 0.998095
1.01593 1.01801 1 0.997957
1.0106 1.01273 1 0.997897
1.01401 1.01608 1 0.99797
1.00786 1.00994 1 0.997944
1.00048 1.00241 1 0.998079
1.00559 1.00758 1 0.998023
0.999782 1.00162 1 0.998162
0.998596 1 1 0.998596
0.999281 1.00102 1 0.998259
0.998685 1 1 0.998685
0.99965 1 1 0.99965
0.998773 1 1 0.998773
0.999663 1 1 0.999663
0.999927 1 1 0.999927
0.999669 1 1 0.999669
0.999927 1 1 0.999927
1 1 1 1
1.01581 1.01802 1 0.99782
1.00703 1.00906 1 0.99799
1.01547 1.01756 1 0.997945
0.998994 1.00064 1 0.998356
1.00392 1.00575 1 0.998176
1.01213 1.0139 1 0.998257
0.998849 1 1 0.998849
0.998838 1.00044 1 0.998397
1.0034 1.00524 1 0.998165
0.998634 1.0001 1 0.998537
0.999004 1 1 0.999004
0.999698 1 1 0.999698
0.999158 1 1 0.999158
0.999798 1 1 0.999798
1 1 1 1
0.999902 1 1 0.999902
1 1 1 1
1 1 1 1
1.02186 1.02387 1 0.998037
1.02291 1.02482 1 0.998133
1.02177 1.0238 0.999758 0.998267
1.01886 1.02103 1 0.997874
1.0138 1.01592 1 0.997913
1.01968 1.02185 1 0.997868
1.02079 1.02276 1 0.998076
1.02425 1.02609 1 0.99821
1.02416 1.02645 0.99943 0.99833
1.02099 1.02295 1 0.998086
1.0178 1.01987 1 0.997975
1.02139 1.02388 0.99942 0.998148
1.01749 1.01954 1 0.997991
1.01263 1.01475 1 0.997911
1.01594 1.01802 1 0.997959
1.01031 1.01244 1 0.9979
1.00195 1.00395 1 0.998009
1.00782 1.00989 1 0.997945
1.00093 1.00285 1 0.998079
0.998523 1 1 0.998523
1.00006 1.0019 1 0.998162
0.998594 1 1 0.998594
0.999616 1 1 0.999616
0.998683 1 1 0.998683
0.999642 1 1 0.999642
0.999919 1 1 0.999919
0.999658 1 1 0.999658
0.999932 1 1 0.999932
0.999927 1 1 0.999927
1.01768 1.01977 1 0.997951
1.0094 1.01157 1 0.997855
1.01605 1.01827 1 0.997824
1.00026 1.00207 1 0.998194
1.00685 1.00887 1 0.997999
1.01572 1.01778 1 0.997972
0.99873 1 1 0.99873
0.998882 1.00057 1 0.998316
1.00383 1.00567 1 0.998173
0.99963 1 1 0.99963
0.998851 1 1 0.998851
0.998797 1.0004 1 0.998393
0.999006 1 1 0.999006
0.999708 1 1 0.999708
1 1 1 1
0.99981 1 1 0.99981
1 1 1 1
1 1 1 1
1.01917 1.02121 1 0.998004
1.0215 1.02351 1 0.998036
1.02322 1.02515 1 0.998117
1.01837 1.02053 1 0.997877
1.01853 1.02063 1 0.997944
1.02125 1.02321 1 0.998083
1.02411 1.02595 1 0.998203
1.0211 1.02305 1 0.998097
1.01769 1.01975 1 0.997981
1.01211 1.01422 1 0.997919
1.01736 1.01942 1 0.997973
1.01238 1.0145 1 0.997907
1.00347 1.00552 1 0.997963
1.01 1.01212 1 0.997903
1.00245 1.00445 1 0.998011
0.998456 1 1 0.998456
1.00135 1.00327 1 0.998079
0.998523 1 1 0.998523
0.999532 1 1 0.999532
0.998593 1 1 0.998593
0.999588 1 1 0.999588
1 1 1 1
0.999634 1 1 0.999634
0.999926 1 1 0.999926
0.999933 1 1 0.999933
1.01695 1.019 1 0.997985
1.01064 1.01277 1 0.997897
1.01742 1.01951 1 0.99795
1.00213 1.00412 1 0.998018
1.00947 1.01162 1 0.997875
1.01637 1.01858 1 0.997828
0.998555 1 1 0.998555
1.00028 1.00209 1 0.998192
1.00671 1.00872 1 0.998009
0.99959 1 1 0.99959
0.998694 1 1 0.998694
0.998788 1.00051 1 0.998275
1 1 1 1
0.99964 1 1 0.99964
0.998853 1 1 0.998853
0.999718 1 1 0.999718
1 1 1 1
1 1 1 1
1.0181 1.02019 1 0.997951
1.01962 1.02165 1 0.998013
1.02112 1.02313 1 0.998034
1.01299 1.01515 1 0.997872
1.01783 1.01992 1 0.997947
1.0217 1.02366 1 0.99809
1.01757 1.01963 1 0.997987
1.0122 1.01431 1 0.997919
1.00366 1.00568 1 0.997997
1.0121 1.01422 1 0.997903
1.0037 1.00572 1 0.997994
0.99833 1 1 0.99833
1.00296 1.00496 1 0.998013
0.998456 1 1 0.998456
0.999484 1 1 0.999484
0.998522 1 1 0.998522
0.999529 1 1 0.999529
1 1 1 1
0.999556 1 1 0.999556
0.999956 1 1 0.999956
0.999931 1 1 0.999931
1.01522 1.01729 1 0.997966
1.01107 1.01316 1 0.997935
1.01687 1.01893 1 0.997986
1.00287 1.00486 1 0.998024
1.01098 1.01312 1 0.997895
1.01715 1.01924 1 0.997949
0.998454 1 1 0.998454
1.00204 1.00399 1 0.99806
1.0095 1.01163 1 0.997896
0.999562 1 1 0.999562
0.998542 1 1 0.998542
1.00029 1.0021 1 0.998191
1 1 1 1
0.999599 1 1 0.999599
0.998659 1 1 0.998659
1 1 1 1
0.99965 1 1 0.99965
1 1 1 1
1.01324 1.01537 1 0.997903
1.01762 1.01971 1 0.997948
1.0201 1.02212 1 0.998022
1.00316 1.0052 1 0.997973
1.01301 1.01516 1 0.997882
1.01718 1.01927 1 0.997949
1.0123 1.01442 1 0.997919
1.0037 1.00571 1 0.997996
0.998282 1 1 0.998282
1.00393 1.00592 1 0.998026
0.998362 1 1 0.998362
0.999418 1 1 0.999418
0.998457 1 1 0.998457
0.99948 1 1 0.99948
1 1 1 1
0.999527 1 1 0.999527
1 1 1 1
0.999921 1 1 0.999921
1.01112 1.0132 1 0.997953
1.0154 1.01747 1 0.99797
1.00246 1.00444 1 0.998027
1.01093 1.01302 1 0.997935
1.0168 1.01885 1 0.997987
0.998465 1 1 0.998465
1.0028 1.00479 1 0.998021
1.01132 1.01346 1 0.997892
0.999527 1 1 0.999527
0.998479 1 1 0.998479
1.00195 1.00385 1 0.998103
1 1 1 1
0.999567 1 1 0.999567
0.998528 1 1 0.998528
1 1 1 1
0.999607 1 1 0.999607
1 1 1 1
1.00288 1.00489 1 0.998007
1.01315 1.01528 1 0.997901
1.01706 1.01916 1 0.997944
0.998273 1 1 0.998273
1.00318 1.00522 1 0.997973
1.01298 1.01512 1 0.997892
1.00373 1.00574 1 0.997996
0.998286 1 1 0.998286
0.999365 1 1 0.999365
0.998394 1 1 0.998394
0.999415 1 1 0.999415
1 1 1 1
0.999477 1 1 0.999477
1 1 1 1
1 1 1 1
1.0022 1.00419 1 0.998017
1.0108 1.01288 1 0.997953
1.01559 1.01765 1 0.997974
0.998438 1 1 0.998438
1.00268 1.00466 1 0.998025
1.01077 1.01287 1 0.997935
0.999487 1 1 0.999487
0.998464 1 1 0.998464
1.00274 1.00473 1 0.998018
1 1 1 1
0.999531 1 1 0.999531
0.998503 1 1 0.998503
1 1 1 1
0.999573 1 1 0.999573
1 1 1 1
0.998349 1 1 0.998349
1.00287 1.0049 1 0.997974
1.0131 1.01523 1 0.9979
0.999353 1 1 0.999353
0.998273 1 1 0.998273
1.00321 1.00524 1 0.997973
0.99829 1 1 0.99829
0.999364 1 1 0.999364
1 1 1 1
0.999411 1 1 0.999411
1 1 1 1
1 1 1 1
0.998397 1 1 0.998397
1.00227 1.00427 1 0.998007
1.0105 1.01258 1 0.997954
0.999519 1 1 0.999519
0.998437 1 1 0.998437
1.00291 1.00489 1 0.998023
1 1 1 1
0.999489 1 1 0.999489
0.998463 1 1 0.998463
1 1 1 1
0.999534 1 1 0.999534
1 1 1 1
0.999354 1 1 0.999354
0.998323 1 1 0.998323
1.00285 1.00492 1 0.997941
1 1 1 1
0.999352 1 1 0.999352
0.998273 1 1 0.998273
0.999362 1 1 0.999362
1 1 1 1
1 1 1 1
0.999471 1 1 0.999471
0.998397 1 1 0.998397
1.00233 1.00434 1 0.997998
1 1 1 1
0.999448 1 1 0.999448
0.998435 1 1 0.998435
1 1 1 1
0.99949 1 1 0.99949
1 1 1 1
0.999839 1 1 0.999839
0.999409 1 1 0.999409
0.998297 1 1 0.998297
1 1 1 1
0.999353 1 1 0.999353
1 1 1 1
0.999857 1 1 0.999857
0.999441 1 1 0.999441
0.998398 1 1 0.998398
0.999933 1 1 0.999933
0.999446 1 1 0.999446
1 1 1 1
1 1 1 1
0.99937 1 1 0.99937
1 1 1 1
0.999925 1 1 0.999925
0.999405 1 1 0.999405
1 1 1 1
1 1 1 1
1 1 1 1

VECTORS lamdaE float
0.999844 1.00017 0.995523
0.999752 1.00022 0.997943
0.999605 1.00036 0.995658
1.00011 0.999921 0.995379
0.999925 0.999988 0.9956
0.999829 1.00027 0.99537
1.00103 1.0005 0.992852
0.999726 1.00008 0.997994
0.99969 1.00023 0.998126
0.999383 1.0006 0.998158
0.999726 0.999881 0.996007
1.00073 1.00118 0.992224
1.00009 1.00002 0.995235
0.999826 0.999964 0.995522
0.999392 1.00057 0.995767
0.999928 0.999898 0.995563
0.999582 1.00055 0.995498
0.999718 1.00007 0.995751
1.00117 1.00035 0.992791
1.00007 1 0.99778
1.00016 0.999979 0.995235
1.00004 0.999892 0.995533
1.0014 0.999965 0.992721
1.0012 1.00013 0.992918
0.999731 1.00006 0.995602
1.00082 1.00102 0.992665
1.0035 1.00033 0.988811
0.999674 0.999991 0.998069
0.999814 1.00011 0.996786
0.999566 1.00044 0.996801
0.999669 0.999682 0.998192
1.00063 1.00129 0.992238
1.00006 0.999842 0.995408
0.999818 1.00037 0.995431
1.00149 1.00016 0.993093
0.999409 0.999064 0.998672
1.00113 1.00083 0.993113
1.0004 1.0012 0.992779
1.00228 1.00218 0.988493
0.999499 0.998226 0.998949
1.0001 1.00001 0.997743
0.99996 0.99999 0.996645
1.00008 1 0.99775
0.999804 1.00002 0.995529
1.00163 1.00005 0.991706
0.999855 0.999953 0.998057
1.0017 1.00009 0.992822
0.999741 0.999839 0.995749
0.999524 1.00015 0.995889
0.999334 1.00088 0.995616
1.0013 1.00018 0.992743
0.99997 1.00001 0.996634
0.99996 0.999974 0.99543
0.999532 1.00031 0.995728
0.999855 0.999886 0.995701
1.00148 0.999926 0.992651
1.00095 1.0009 0.992612
1.00131 1.00003 0.992859
1.00348 1.00035 0.988809
1.00005 1 0.997777
1.00015 1.00001 0.995211
1.00147 1.00001 0.993172
1.00146 1.00001 0.992583
1.00134 0.999951 0.992856
1.00381 0.999921 0.98858
1.00365 0.999974 0.988585
0.999655 0.999395 0.996289
1.00015 1.00151 0.993136
1.00311 1.00108 0.988723
1.00461 0.99994 0.986495
0.99996 1.00014 0.997878
0.999597 0.999459 0.998352
0.999733 1.00028 0.997922
1.00054 1.00136 0.992257
1.00007 0.999971 0.997854
0.999868 1.00031 0.997889
1.0014 1.00011 0.991971
0.99949 0.999141 0.997665
1.00094 1.00091 0.992007
1.00027 1.00125 0.993445
1.0023 1.00211 0.988485
0.999573 0.998614 0.998722
0.999633 0.999764 0.995587
1.00158 0.999949 0.991871
1.00131 1.00041 0.991947
1.00381 1.00016 0.987712
1 1.00084 0.994818
1.00304 1.00112 0.988142
1.00135 1.00316 0.989219
1.00328 1.00228 0.986495
0.999487 0.997885 0.999102
0.999452 0.998157 0.999015
1.00011 0.999972 0.99779
1.0001 1 0.99775
1.0001 1 0.997748
0.999951 1.00001 0.996644
1.00165 1.00004 0.992317
0.999967 0.999956 0.996693
1.00165 1.00011 0.992273
1.00009 0.999999 0.997757
1.00157 0.999986 0.991834
1.0017 1.00011 0.992833
1.00402 0.999795 0.987716
1.00165 0.999994 0.992964
1.00401 0.999968 0.987575
1.00006 1.00001 0.995306
0.999761 0.999962 0.995631
0.9993 1.00059 0.995884
0.999673 0.999861 0.995865
1.00156 0.999923 0.992579
1.00141 0.999943 0.992808
1.00109 1.00072 0.992564
1.00347 1.00037 0.988808
1.00008 1 0.997765
0.999947 1.00001 0.99541
1.00157 0.999988 0.992161
1.00153 0.999994 0.992503
0.999541 0.999564 0.997299
1.0004 1.00141 0.99327
1.00142 0.999899 0.992792
1.00383 0.999903 0.988454
1.00309 1.00114 0.98872
1.00364 1.00004 0.988681
1.0046 0.99996 0.986507
1.00154 1 0.991885
1.00147 1 0.992554
1.00393 0.999728 0.988304
1.00387 0.999871 0.98828
1.00376 0.999843 0.988476
1.0049 0.999587 0.986654
0.999559 0.998974 0.998594
1.00473 0.999754 0.986501
0.999863 1.00139 0.993404
1.00193 1.00237 0.988788
1.00432 1.00062 0.986394
1.0051 0.999684 0.98587
0.99979 1.00055 0.994426
1.0002 1.00299 0.991337
1.00005 1 0.997865
0.999822 1.00028 0.997893
1.00141 1.0001 0.991973
0.999533 0.998911 0.998644
1.00007 1.00145 0.992978
1.00088 1.00097 0.992017
1.00233 1.00206 0.988477
0.999508 0.998545 0.998809
0.999635 0.99968 0.995629
1.00159 0.999982 0.992466
1.00129 1.00043 0.99253
1.00381 1.00016 0.987712
0.999874 1.00087 0.994037
1.00305 1.00112 0.988148
1.00132 1.00315 0.989223
1.00332 1.00222 0.986474
0.999707 1.00037 0.994857
0.999701 0.999157 0.996078
1.00015 1.00211 0.992338
1.00393 1.00005 0.987617
1.00351 1.00052 0.987884
1.00484 1.00004 0.98601
1.00075 1.00321 0.990267
1.00417 1.00082 0.986256
1.00216 1.00376 0.98712
1.00378 1.00195 0.986061
0.999542 0.997613 0.999161
0.99947 0.997836 0.999124
0.999414 0.998089 0.999064
0.999775 1.00014 0.994874
0.999563 0.998657 0.998734
1.0001 0.999964 0.997827
1.00009 0.999994 0.997762
1.00158 1.00011 0.991712
1.00158 1.00005 0.991759
1.00008 1 0.997753
1.00007 1 0.997757
1.00156 0.999993 0.99183
1.00164 1.0001 0.99227
1.00402 0.999792 0.987713
1.00157 1.00002 0.991808
1.00401 0.999969 0.98757
1.00154 0.999979 0.991873
1.004 0.999726 0.987811
1.00402 0.999877 0.987633
1.005 0.999238 0.986554
1.00398 1.00002 0.987567
1.005 0.999564 0.986248
1.00007 0.999999 0.997759
0.999753 1.00001 0.995607
1.00158 0.999983 0.991237
1.00161 0.999985 0.992421
0.999316 0.999655 0.998483
1.00069 1.00123 0.993391
1.0015 0.999868 0.992731
1.00384 0.99987 0.988327
1.00364 1.0001 0.988776
1.00307 1.00123 0.988715
1.00459 0.999983 0.986518
1.00153 0.999989 0.991886
1.00156 1 0.992464
1.00394 0.999716 0.988001
1.00389 0.999906 0.988356
0.999573 0.999051 0.998537
1.00005 1.00124 0.993835
1.00196 1.00247 0.989009
1.00376 0.999874 0.988462
1.00489 0.999491 0.986569
1.00429 1.00064 0.986297
1.00473 0.999799 0.986618
1.00508 0.999688 0.9859
0.999796 1.00057 0.994421
1.00025 1.00289 0.991346
1.00396 0.99972 0.987896
1.00393 0.999819 0.988235
1.00495 0.999303 0.986824
1.00492 0.999351 0.986521
1.00483 0.999588 0.986693
1.00519 0.998878 0.986641
0.999818 1.00094 0.993951
1.00513 0.99932 0.986179
1.00095 1.00312 0.989794
1.00335 1.00233 0.986276
1.00497 1.00045 0.985622
1.00518 0.999326 0.986174
1.00044 1.00302 0.990909
1.00012 1.00247 0.991986
1.00065 1.00388 0.989768
1.00152 0.999962 0.991922
0.999452 0.998458 0.998898
0.999639 0.999588 0.99567
1.00117 1.00049 0.991988
1.00381 1.00017 0.987713
0.99981 1.00093 0.993978
1.00127 1.00315 0.989228
1.00304 1.00111 0.988154
1.00334 1.00215 0.986452
0.999695 1.00031 0.994884
0.999708 0.999087 0.996107
1.00006 1.00221 0.992353
1.00392 1.00007 0.987613
1.00352 1.00051 0.987893
1.00484 1.00003 0.985996
1.00067 1.00326 0.990283
1.00419 1.00087 0.986282
1.00215 1.00385 0.987101
1.00383 1.00181 0.98603
0.999809 0.998716 0.996318
1.00038 1.00277 0.991286
1.00004 1.00131 0.99332
1.00033 1.00357 0.99064
1.00491 0.99986 0.986063
1.00463 1.00034 0.986088
1.00512 0.999782 0.985746
1.00129 1.00417 0.988363
1.00468 1.00038 0.985809
1.00258 1.00385 0.986167
1.00448 1.0011 0.985647
1.00027 0.999968 0.99427
0.999991 0.998225 0.996471
0.999631 0.997362 0.99919
0.999544 0.997563 0.999171
0.99946 0.99778 0.999143
0.99979 0.999701 0.995303
0.999559 0.998364 0.998856
0.999777 1.00019 0.994853
0.999587 0.998708 0.998685
1.00156 1.00004 0.991801
1.00159 1.00009 0.991707
1.00401 0.999971 0.987566
1.00402 0.999789 0.987711
1.00157 1 0.991828
1.00009 1 0.997748
1.00155 0.999981 0.991872
1.004 0.99973 0.987809
1.00402 0.999884 0.987629
1.005 0.999241 0.98655
1.00397 1.00003 0.98756
1.00499 0.999565 0.986239
1.00397 0.999718 0.987883
1.00499 0.999132 0.98669
1.00501 0.999394 0.986393
1.0052 0.99829 0.987171
1.00497 0.999709 0.98614
1.00521 0.998758 0.986666
1.00154 0.999977 0.991887
1.00164 0.999989 0.992375
1.00396 0.99969 0.9877
1.00391 0.999939 0.988432
0.999593 0.999131 0.998473
1.00023 1.00118 0.994189
1.00206 1.00253 0.989229
1.00376 0.999893 0.988449
1.00489 0.999393 0.986484
1.00473 0.999845 0.986735
1.00425 1.00066 0.986201
1.00507 0.999694 0.98593
0.999808 1.0006 0.994416
1.00031 1.00279 0.991355
1.00396 0.999679 0.987822
1.00394 0.999807 0.988221
1.00495 0.999231 0.98688
1.00492 0.999444 0.986585
0.999866 1.00093 0.993949
1.00106 1.00308 0.989766
1.0033 1.00237 0.986343
1.00483 0.999638 0.986684
1.00519 0.998745 0.986759
1.00498 1.00042 0.985528
1.00512 0.999319 0.986201
1.00518 0.999293 0.986173
1.00048 1.00294 0.990921
1.00053 1.00393 0.98979
1.00015 1.00245 0.991976
1.00495 0.999221 0.986896
1.00495 0.999298 0.986789
1.00518 0.998362 0.98717
1.0052 0.99863 0.986801
1.00516 0.998891 0.986553
1.00518 0.997654 0.987792
1.00062 1.003 0.990583
1.00518 0.998573 0.986801
1.00193 1.00352 0.987783
1.00444 1.00208 0.984664
1.00517 1.00035 0.985271
1.00515 0.998597 0.986937
1.00014 1.00182 0.992614
1.00094 1.00327 0.989775
1.00022 1.00418 0.990044
1.00097 1.00386 0.989355
1.00391 1.00008 0.987608
0.999709 0.999028 0.996136
0.999679 1.00026 0.994911
1.00001 1.00229 0.992368
1.00352 1.0005 0.987903
1.00484 1.00003 0.985982
1.00059 1.00332 0.990299
1.00215 1.00393 0.987082
1.00424 1.00093 0.986308
1.00388 1.00169 0.985998
0.99981 0.998685 0.996329
1.00034 1.00283 0.991289
1.00003 1.00129 0.993347
1.00024 1.0037 0.99063
1.00491 0.999862 0.986051
1.00463 1.00034 0.986084
1.00513 0.999795 0.985734
1.00124 1.00422 0.98838
1.00474 1.00047 0.985838
1.00265 1.00387 0.986121
1.00441 1.00093 0.985844
0.999913 0.998415 0.996422
1.00012 1.00061 0.993907
1.00074 1.00391 0.989603
1.00014 1.00283 0.991718
1.00029 1.0045 0.989783
1.00515 0.99945 0.986045
1.00498 1.00003 0.985662
1.00513 0.999156 0.986353
1.00164 1.00478 0.987123
1.00497 1.00008 0.985679
1.00352 1.0026 0.98529
1.00025 1.00004 0.994231
1.00024 1.00121 0.993122
1.00027 0.999951 0.994286
1.00026 0.999978 0.994269
1.00003 0.998045 0.997036
0.999979 0.998215 0.99674
0.999786 0.997171 0.99815
0.999641 0.997317 0.999195
0.999549 0.997509 0.999181
0.999836 0.999271 0.99566
0.999573 0.998067 0.998966
0.999791 0.999751 0.99528
0.999586 0.998413 0.998814
0.99978 1.00024 0.994833
0.99961 0.998764 0.998636
1.00397 1.00005 0.987552
1.00402 0.99989 0.987626
1.00498 0.999577 0.98623
1.005 0.999243 0.986545
1.004 0.999735 0.987807
1.00154 0.999984 0.99187
1.00397 0.999716 0.987883
1.00498 0.999134 0.98669
1.005 0.999408 0.986386
1.0052 0.998204 0.987276
1.00496 0.999714 0.98613
1.00521 0.998779 0.986656
1.00496 0.999109 0.986765
1.00517 0.998059 0.987502
1.00522 0.998459 0.986955
1.00518 0.997218 0.988262
1.00518 0.99912 0.986358
1.00518 0.997419 0.987997
1.00396 0.99964 0.987749
1.00396 0.999803 0.988208
1.00495 0.999166 0.986937
1.00493 0.999537 0.986649
0.999922 1.00091 0.993945
1.0011 1.00309 0.989738
1.00326 1.00243 0.986408
1.00484 0.999687 0.986674
1.00519 0.998609 0.986876
1.00511 0.999317 0.986222
1.00498 1.00038 0.985433
1.00518 0.999255 0.986171
1.00051 1.00286 0.990933
1.00049 1.00393 0.989811
1.00018 1.00243 0.991966
1.00495 0.999182 0.986827
1.00496 0.999296 0.986779
1.00518 0.998214 0.987314
1.0052 0.998672 0.986792
1.00067 1.00297 0.990565
1.00201 1.00346 0.987747
1.00423 1.0021 0.984897
1.00516 0.999025 0.986478
1.00518 0.997485 0.987997
1.00517 1.00037 0.985141
1.00517 0.998571 0.986824
1.00515 0.998508 0.987059
1.00099 1.00327 0.989779
1.00094 1.00387 0.989327
1.00015 1.00183 0.992601
1.00016 1.00413 0.990142
1.00516 0.998221 0.987342
1.0052 0.998449 0.98717
1.00516 0.997392 0.988075
1.00517 0.996964 0.988491
1.00517 0.997912 0.987546
1.00512 0.996648 0.988902
1.00133 1.00311 0.989242
1.00512 0.99737 0.988013
1.00235 1.0037 0.986275
1.00495 1.00193 0.984273
1.00514 1.00004 0.985403
1.0051 0.9982 0.987385
1.00014 1.00135 0.993082
1.00011 1.00361 0.99079
1.00127 1.00321 0.989296
1.00035 1.00472 0.989415
1.0012 1.00331 0.989503
0.999809 0.998664 0.996341
1.00492 0.999863 0.986038
1.00002 1.00125 0.993375
1.00029 1.00291 0.991293
1.00015 1.00382 0.99062
1.00461 1.00033 0.98608
1.00514 0.999808 0.985722
1.00125 1.00421 0.988399
1.00275 1.00387 0.986075
1.0048 1.00055 0.985866
1.00432 1.00077 0.986039
0.999912 0.998407 0.996426
1.00011 1.00059 0.993919
1.00075 1.00386 0.989613
1.00005 1.00291 0.991726
1.00021 1.0046 0.989714
1.00515 0.999462 0.98603
1.00503 1.00003 0.985643
1.00513 0.999143 0.986323
1.00158 1.00484 0.987145
1.00497 1.00012 0.985721
1.00369 1.00251 0.985326
1.00021 1.00022 0.994141
1.00015 1.00195 0.992569
1.00098 1.00446 0.988635
0.999976 1.00413 0.990711
1.00055 1.00448 0.989525
1.00513 0.998618 0.986892
1.00511 0.999604 0.985896
1.00512 0.998309 0.986915
1.00198 1.00468 0.986454
1.00479 1.00081 0.985145
1.00024 1.00005 0.994229
1.00023 1.00123 0.993027
1.00021 1.00124 0.993079
1.00018 1.00195 0.992617
1.00022 1.00125 0.99313
1.00025 0.999987 0.994279
1.00027 0.999953 0.994286
1.00008 0.997941 0.99704
1.00026 0.999989 0.994267
1.00004 0.998051 0.997036
0.999889 0.996944 0.998176
0.999968 0.998212 0.997005
0.999757 0.997128 0.998682
0.999653 0.997272 0.9992
0.999894 0.998896 0.99594
0.999832 0.999318 0.99564
0.999609 0.997797 0.999046
0.999594 0.998123 0.998929
0.999792 0.999804 0.995256
0.999613 0.99846 0.998768
1.00496 0.999719 0.986121
1.00499 0.999412 0.986379
1.00521 0.998796 0.986646
1.0052 0.998117 0.987381
1.00498 0.999135 0.98669
1.00397 0.999714 0.987882
1.00495 0.999108 0.986767
1.00517 0.998065 0.987512
1.00522 0.99847 0.986955
1.00518 0.997054 0.988453
1.00518 0.999129 0.986338
1.00518 0.997296 0.988119
1.00515 0.998093 0.987507
1.00513 0.997151 0.988421
1.00519 0.996943 0.988513
1.00517 0.996151 0.989314
1.00515 0.997965 0.987499
1.00515 0.996411 0.989087
1.00495 0.999139 0.986759
1.00497 0.999303 0.986769
1.00518 0.998062 0.987459
1.0052 0.998709 0.986783
1.00074 1.00293 0.990547
1.00209 1.0034 0.987712
1.00402 1.00206 0.985129
1.00515 0.999161 0.986404
1.00517 0.997314 0.988201
1.00517 0.99857 0.986848
1.00516 1.00043 0.985011
1.00514 0.998423 0.987181
1.00096 1.00332 0.989783
1.00081 1.00398 0.989299
1.00017 1.00184 0.992587
1.00013 1.00408 0.990241
1.00516 0.998226 0.987337
1.00519 0.998503 0.987064
1.00516 0.997321 0.988179
1.00517 0.997058 0.988371
1.00133 1.00324 0.989201
1.00237 1.00372 0.986465
1.00491 1.00174 0.984242
1.00517 0.998062 0.987362
1.00513 0.996445 0.989041
1.00513 1.00008 0.985376
1.00512 0.997391 0.988022
1.00511 0.997998 0.987476
1.00133 1.00319 0.98928
1.00117 1.00325 0.989571
1.00033 1.00478 0.989385
1.00015 1.00134 0.993012
1.00009 1.00353 0.990894
1.00515 0.997214 0.98837
1.00516 0.996882 0.988633
1.00513 0.995925 0.989602
1.00511 0.996538 0.988839
1.00151 1.00367 0.988388
1.0051 0.996945 0.988648
1.00267 1.00343 0.985661
1.00511 1.00159 0.984079
1.00508 0.999579 0.985776
1.00011 1.00091 0.993397
1.00011 1.00292 0.991673
1.00021 1.00425 0.990199
1.00151 1.00281 0.989353
1.00054 1.00473 0.989019
1.00147 1.00253 0.989453
0.99991 0.998403 0.996431
1.00011 1.00056 0.993931
1.00516 0.999473 0.986015
0.99997 1.003 0.991736
1.00069 1.0039 0.989622
1.00013 1.00471 0.989646
1.00508 1.00003 0.985624
1.00513 0.999131 0.986293
1.0015 1.00491 0.987167
1.00381 1.00248 0.98536
1.00498 1.00016 0.985766
1.0002 1.00022 0.994142
1.00011 1.00196 0.992585
1.00095 1.00452 0.988605
0.99989 1.00425 0.9907
1.00048 1.0044 0.989561
1.00513 0.998636 0.986869
1.00512 0.9996 0.985861
1.00512 0.998344 0.986959
1.00197 1.00456 0.986351
1.00481 1.00097 0.985119
1.00022 1.00144 0.992966
0.999877 1.00331 0.991522
1.00123 1.00419 0.988353
0.999987 1.00483 0.989937
1.00098 1.00365 0.989375
1.00513 0.997059 0.988227
1.00511 0.999454 0.986011
1.00508 0.998243 0.986972
1.0031 1.00353 0.985911
1.0049 1.00054 0.985103
1.00024 1.00006 0.994227
1.00024 1.00123 0.993058
1.00006 1.002 0.992553
1.00019 1.00126 0.993037
1.0002 1.00127 0.993129
1.00011 1.00199 0.992561
1.00003 1.00242 0.992344
1.00011 1.00205 0.99243
1.00018 1.00133 0.9931
1.00021 1.00008 0.994261
1.00025 0.999996 0.994278
1.00012 0.9979 0.997018
1.00026 0.999958 0.994286
1.00009 0.997957 0.997037
0.999964 0.996813 0.998174
1.00005 0.998055 0.997038
0.999877 0.996916 0.998182
0.999723 0.997073 0.999224
0.999948 0.998555 0.996197
0.99989 0.998936 0.99592
0.999662 0.997537 0.999107
0.999826 0.999371 0.995621
0.999621 0.997847 0.999022
0.999617 0.998171 0.99889
1.00518 0.999138 0.986318
1.00522 0.998485 0.986955
1.00518 0.997171 0.988241
1.00517 0.996887 0.988644
1.00516 0.998071 0.987522
1.00495 0.999109 0.986769
1.00515 0.998154 0.98744
1.00512 0.997251 0.988349
1.00518 0.997017 0.988429
1.00515 0.995975 0.989485
1.00515 0.997991 0.987491
1.00515 0.99619 0.989243
1.00514 0.997342 0.988292
1.00517 0.995998 0.989463
1.00517 0.995754 0.989672
1.00512 0.99625 0.989232
1.00516 0.998231 0.987332
1.00519 0.998555 0.986958
1.00517 0.997253 0.988284
1.00517 0.997157 0.988251
1.00139 1.00329 0.989161
1.00238 1.00376 0.986656
1.00486 1.00153 0.984211
1.00517 0.998212 0.987178
1.00513 0.996249 0.989178
1.00512 0.997413 0.98803
1.00513 1.0001 0.985348
1.00512 0.997796 0.987567
1.0014 1.00317 0.989265
1.00121 1.00309 0.989638
1.0003 1.00484 0.989355
1.00015 1.00133 0.992943
1.00007 1.00345 0.990998
1.00516 0.997235 0.988368
1.00517 0.996929 0.988588
1.00513 0.996002 0.989469
1.00158 1.00367 0.988354
1.00289 1.00354 0.985773
1.0051 1.00147 0.984031
1.00511 0.996574 0.988819
1.00508 0.999358 0.986034
1.0051 0.996897 0.988497
1.00011 1.00085 0.993469
1.00159 1.00273 0.989317
1.00134 1.00241 0.989839
1.00062 1.00477 0.988942
1.00021 1.00429 0.990212
1.00011 1.00289 0.99162
1.00517 0.99644 0.988926
1.00519 0.995685 0.98977
1.00512 0.995486 0.989786
1.00515 0.995813 0.989544
1.00185 1.00358 0.987929
1.00511 0.997695 0.987605
1.00381 1.0032 0.984316
1.00508 1.0014 0.984023
1.00014 1.00029 0.993961
1.00011 1.00235 0.992254
1.00019 1.00361 0.990958
1.00026 1.00497 0.989317
1.00178 1.00228 0.989185
1.00145 1.00337 0.988807
1.0002 1.00021 0.994143
1.00008 1.00196 0.992602
1.00513 0.998653 0.986846
0.999808 1.00435 0.990689
1.00093 1.00455 0.988575
1.00032 1.00428 0.989597
1.00513 0.999594 0.985826
1.00512 0.998389 0.987003
1.00201 1.00447 0.986247
1.00485 1.00112 0.985092
1.0002 1.00142 0.992976
0.999934 1.00327 0.991544
1.00126 1.00423 0.988366
0.999877 1.00489 0.989899
1.0008 1.00348 0.989738
1.00512 0.99704 0.988423
1.00511 0.999435 0.986069
1.0051 0.998334 0.986934
1.00303 1.00365 0.985754
1.00502 1.00052 0.984964
0.99997 1.0023 0.992336
0.999797 1.00432 0.990501
1.00183 1.00355 0.987956
1.00021 1.00452 0.989064
1.00512 0.995579 0.989692
1.00495 0.997487 0.988253
1.00505 0.999537 0.985863
1.00362 1.00181 0.985329
1.00025 1.00122 0.99309
1.00007 1.00202 0.99257
0.999859 1.00266 0.992408
1.00018 1.00129 0.993127
1.00006 1.00202 0.992505
1.00018 1.00134 0.993095
0.999998 1.0024 0.992336
1.00012 1.00205 0.99246
0.999943 1.0026 0.992272
1.00007 1.00248 0.992133
1.00013 1.00214 0.992284
1.00018 1.00144 0.992991
1.00016 1.00018 0.994237
1.00021 1.00007 0.994258
1.00014 0.997892 0.996988
1.00025 0.99999 0.994278
1.00012 0.997925 0.997012
1.00002 0.99673 0.998154
1.00009 0.997973 0.997035
0.999956 0.99678 0.998181
0.999866 0.996892 0.998185
1.00002 0.998212 0.996418
0.999953 0.998574 0.996178
0.999732 0.997243 0.999165
0.999883 0.998981 0.9959
0.999667 0.997589 0.999089
0.999636 0.997891 0.998995
1.00515 0.998016 0.987483
1.00518 0.997093 0.988346
1.00514 0.995972 0.989398
1.00514 0.995802 0.989655
1.00512 0.997352 0.988277
1.00515 0.998215 0.987373
1.00514 0.997333 0.988296
1.00516 0.996071 0.989384
1.00517 0.995761 0.989644
1.00513 0.996217 0.98929
1.00518 0.996374 0.98914
1.0052 0.995137 0.990283
1.00516 0.995215 0.989987
1.00516 0.997256 0.988366
1.00517 0.996975 0.988544
1.00513 0.996082 0.989338
1.00165 1.00367 0.988319
1.00312 1.00365 0.985884
1.00508 1.00142 0.983983
1.00512 0.996605 0.988799
1.00509 0.996848 0.988345
1.00508 0.999147 0.986293
1.00167 1.00266 0.989281
1.00117 1.00233 0.990225
1.0007 1.00485 0.988865
1.00012 1.00078 0.993541
1.0002 1.0043 0.990224
1.0001 1.00287 0.991567
1.00518 0.996508 0.988955
1.00518 0.995612 0.98983
1.00513 0.995493 0.989816
1.00186 1.00362 0.987889
1.00362 1.00324 0.984671
1.00507 1.00122 0.984263
1.00515 0.99586 0.989475
1.00511 0.99767 0.987565
1.00014 1.00027 0.994099
1.00011 1.00235 0.992249
1.0016 1.00223 0.989313
1.00136 1.00345 0.989139
1.00026 1.00488 0.989462
1.00017 1.00364 0.990882
1.00519 0.995158 0.990306
1.00516 0.995048 0.990249
1.00513 0.995225 0.990076
1.00513 0.996066 0.98922
1.00202 1.00324 0.987303
1.005 0.999965 0.985509
1.00459 1.00319 0.983875
1.00018 0.999924 0.994472
1.00018 1.00115 0.993293
1.00011 1.00174 0.99268
1.00006 1.00325 0.991431
1.00005 1.00435 0.990239
1.00004 1.00476 0.989511
1.0022 1.00111 0.989229
1.00143 1.00329 0.989856
1.00018 1.00143 0.992985
0.999984 1.00326 0.991566
1.00512 0.997025 0.98862
0.999917 1.00497 0.989859
1.00126 1.00432 0.98838
1.00059 1.00337 0.9901
1.0051 0.999404 0.986127
1.00511 0.998412 0.986897
1.00294 1.00372 0.9856
1.00509 1.00048 0.984825
0.999995 1.00235 0.99227
0.999866 1.00428 0.990519
1.00174 1.00365 0.988057
1.00049 1.00457 0.989144
1.00514 0.995454 0.989847
1.00501 0.997525 0.988044
1.00506 0.999492 0.985889
1.00394 1.00196 0.985188
0.999822 1.00318 0.991817
1.00508 0.995145 0.990191
1.0003 1.00491 0.989701
1.00191 1.00396 0.987356
1.00496 0.996037 0.989828
1.00483 0.998737 0.986504
1.00457 1.00112 0.985309
1.00007 1.00206 0.992586
0.999847 1.00264 0.992389
0.999636 1.00314 0.992317
1.00018 1.00132 0.993089
1.00012 1.00205 0.99249
0.999931 1.00241 0.992329
1.00018 1.00143 0.992979
1.00012 1.00214 0.992306
0.99989 1.00263 0.992244
1.00011 1.00243 0.99217
1.00009 1.00251 0.992165
1.00003 1.0026 0.992074
1.00015 1.00266 0.991859
1.00026 1.00221 0.992063
1.0002 1.00156 0.992841
1.00013 1.00027 0.994195
1.00016 1.00018 0.994236
1.00015 0.997929 0.996937
1.00021 1.00009 0.994256
1.00014 0.997925 0.996983
1.00007 0.996667 0.998136
1.00013 0.997951 0.997008
1.00002 0.996694 0.99816
0.999949 0.996749 0.998185
1.00017 0.999823 0.994604
1.00007 0.997968 0.996571
1.00003 0.998228 0.996404
0.999816 0.996973 0.999208
0.999956 0.998602 0.996159
0.999731 0.997312 0.999147
0.999673 0.997641 0.999071
1.00514 0.996183 0.989348
1.00517 0.995768 0.989616
1.00515 0.996146 0.989304
1.00513 0.997323 0.9883
1.00519 0.996295 0.989201
1.00521 0.995133 0.990281
1.00516 0.995271 0.989993
1.0052 0.994925 0.990439
1.00518 0.994962 0.990425
1.00491 0.995034 0.990824
1.00519 0.996575 0.988984
1.00519 0.995528 0.989891
1.00513 0.995497 0.989845
1.00188 1.00365 0.98785
1.00345 1.00328 0.985028
1.00505 1.00102 0.984504
1.00514 0.99591 0.989406
1.00512 0.997636 0.987525
1.00144 1.0022 0.989441
1.00133 1.00351 0.989466
1.00017 1.00485 0.989607
1.00013 1.00023 0.994237
1.00014 1.00234 0.992244
1.00015 1.00368 0.990806
1.00518 0.995132 0.990284
1.00017 0.999937 0.99447
1.00015 1.00118 0.993234
1.00516 0.995049 0.990263
1.00512 0.995229 0.990048
1.00179 1.00343 0.987701
1.00438 1.00308 0.983917
1.00501 0.999858 0.985457
1.00512 0.996138 0.989103
1.00012 1.00172 0.992854
1.00009 1.0032 0.991417
1.0024 1.00142 0.988993
1.00092 1.00333 0.990147
1.0001 1.00477 0.989595
1.00003 1.00435 0.990309
1.00516 0.994963 0.99035
1.00508 0.994893 0.990536
1.00509 0.995157 0.989953
1.00498 0.996571 0.988565
1.00206 1.00278 0.988036
1.00447 1.00293 0.984338
1.00012 1.00114 0.99324
1.00016 1.00129 0.993177
1.00018 1.00206 0.992512
1.00007 1.0029 0.991554
0.999998 1.00384 0.991044
1.00042 1.00437 0.989643
0.999619 1.00489 0.989961
1.0016 1.00123 0.990282
1.00003 1.00238 0.992204
0.999949 1.00422 0.990539
1.00515 0.99532 0.990002
1.00506 0.997588 0.987835
1.00074 1.00462 0.989223
1.00165 1.00371 0.988155
1.00507 0.999451 0.985913
1.00431 1.00215 0.985044
0.999859 1.00318 0.991777
1.0051 0.995024 0.990299
1.00011 1.00483 0.989801
1.00192 1.00378 0.987294
1.00499 0.995898 0.989734
1.00474 0.998811 0.986728
1.00457 1.00131 0.985345
0.999852 1.00441 0.990925
1.00462 0.995067 0.991743
1.00117 1.00449 0.989078
1.00278 1.00363 0.986763
1.00477 0.99681 0.988901
1.00407 1.00066 0.986151
0.99957 0.99735 0.991731
0.999832 1.00263 0.99237
0.999581 1.0032 0.992309
0.999858 1.00324 0.991967
1.00018 1.00145 0.992967
1.00011 1.00216 0.992328
1.00014 1.00238 0.992207
0.99986 1.00263 0.992217
1.0002 1.00155 0.992838
1.00023 1.00224 0.99206
1.00009 1.00258 0.992036
1.00013 1.00268 0.991863
1.00008 1.00255 0.992081
1.00021 1.00238 0.99203
1.00026 1.00283 0.991517
1.00019 1.00271 0.991744
1.00034 1.00232 0.991805
1.00023 1.00163 0.992612
1.00027 1.00219 0.992191
1.00022 1.0017 0.992536
1.00013 1.00032 0.994143
1.00013 1.00027 0.994193
1.00018 0.998012 0.99634
1.00016 1.00018 0.994234
1.00017 0.997968 0.996659
1.00003 0.996616 0.999197
1.00014 0.997959 0.996978
1.00006 0.996628 0.998141
1.00002 0.99666 0.998164
1.00014 0.999746 0.99472
1.00017 0.999806 0.994608
1.0001 0.997815 0.996688
1.00006 0.997972 0.996823
0.999889 0.996763 0.999243
1.00003 0.99824 0.99639
0.999808 0.997035 0.999197
0.999731 0.997376 0.999129
1.00516 0.995328 0.989999
1.00523 0.995124 0.990279
1.0052 0.996215 0.989261
1.0052 0.994929 0.990432
1.00516 0.994964 0.990403
1.00492 0.995139 0.990528
1.00517 0.99493 0.990439
1.00084 0.996262 0.988418
1.0042 0.99491 0.993294
1.00007 1.00112 0.993495
1.00516 0.99511 0.990262
1.00517 0.995066 0.990277
1.00512 0.995231 0.990021
1.00156 1.00359 0.9881
1.00415 1.00301 0.983959
1.00502 0.999754 0.985409
1.0051 0.996234 0.988985
1.00267 1.00159 0.988762
1.00038 1.00337 0.990446
1.00019 1.00477 0.989681
1.00016 0.999962 0.994467
1.00002 1.00435 0.99038
1.00012 1.00169 0.993028
1.00011 1.00317 0.991402
1.00014 1.00117 0.993175
1.00516 0.994946 0.990372
1.00011 1.00113 0.993337
1.00015 1.00131 0.993175
1.00019 1.00205 0.992415
1.00506 0.99491 0.990527
1.0051 0.99526 0.989875
1.00217 1.00271 0.988079
1.00415 1.0025 0.984703
1.00494 0.996888 0.988503
1.00005 1.00291 0.991654
1.00003 1.00382 0.990896
1.00148 1.00176 0.990107
0.999861 1.00483 0.990021
1.0004 1.00426 0.989728
1.0051 0.994973 0.990546
1.00508 0.994896 0.990513
1.00505 0.996043 0.989152
1.00454 0.998869 0.988124
1.00139 1.00303 0.989153
1.00009 1.00217 0.992265
1.0002 1.00224 0.991979
1.00001 1.00303 0.991643
0.999917 1.00408 0.991054
0.999999 1.00421 0.990481
0.999952 1.00461 0.989876
1.00012 1.00406 0.990264
0.999911 1.00316 0.991736
0.999892 1.00475 0.989902
1.00512 0.994949 0.990406
1.00502 0.995757 0.98964
1.00469 0.998853 0.986952
1.00193 1.00358 0.987234
1.0046 1.00148 0.985381
0.999821 1.00431 0.991067
1.00453 0.99503 0.991834
1.00082 1.00436 0.989254
1.00251 1.00373 0.986734
1.00474 0.996642 0.989224
1.0042 1.00059 0.986094
0.999588 0.997343 0.98982
0.999957 1.00448 0.990628
1.00389 0.995915 0.991942
1.00075 1.00418 0.989374
1.00255 1.0024 0.987332
1.00412 0.998101 0.987841
1.00054 0.995615 0.955869
0.996535 0.996353 0.974846
0.997606 1.00204 0.991041
0.999833 0.996732 0.914312
0.994878 0.998099 0.896142
0.999532 1.00321 0.9923
0.999674 1.00338 0.992025
1.00008 1.0025 0.9922
1.0002 1.00155 0.992835
1.00026 1.00217 0.992056
1.00012 1.00269 0.991867
1.00013 1.0025 0.992088
1.00009 1.00267 0.991907
1.00022 1.00267 0.991697
1.00023 1.0016 0.992683
1.00034 1.00231 0.991819
1.00022 1.00239 0.991987
1.00022 1.00284 0.99157
1.00027 1.00284 0.991556
1.0001 1.00261 0.991834
1.00032 1.00276 0.991486
1.00038 1.00231 0.991708
1.00024 1.0017 0.992515
1.00035 1.00231 0.991886
1.00028 1.0024 0.99191
1.00014 1.00223 0.992252
1.00026 1.00222 0.992126
1.00022 1.00157 0.992772
1.00023 1.0017 0.992528
1.00016 1.00033 0.994097
1.00013 1.00033 0.994141
1.00016 0.998085 0.996311
1.00013 1.00028 0.994192
1.00018 0.998021 0.996338
1.00004 0.996625 0.999189
1.00018 0.998006 0.996381
1.00006 0.996619 0.998651
1.00006 0.996589 0.998145
1.0001 0.999726 0.99481
1.00014 0.999747 0.994719
1.00012 0.997706 0.996762
1.00018 0.999786 0.994611
1.0001 0.997783 0.996942
0.999945 0.996588 0.999272
1.00007 0.99801 0.996538
0.999878 0.996847 0.999226
0.999802 0.997087 0.999185
1.00514 0.994969 0.990382
1.00519 0.994929 0.990425
1.00492 0.995201 0.990232
1.00073 0.996166 0.988518
1.00515 0.99493 0.990415
1.0041 0.995371 0.992876
1.00492 0.996138 0.991208
0.997215 0.996347 0.973139
1.00121 0.996226 0.990246
1.00008 1.00113 0.993479
1.0001 1.00109 0.99349
0.99999 1.00218 0.992553
1.00006 1.00206 0.992585
1.00516 0.994923 0.990393
1.00503 0.994915 0.990518
1.0051 0.995356 0.989796
1.00246 1.00248 0.988124
1.00379 1.00192 0.985064
1.00493 0.997233 0.988438
1.00128 1.00242 0.989927
1.00015 1.0048 0.990078
1.00036 1.0041 0.989812
1.00013 1.00135 0.993172
1.00004 1.00378 0.990748
1.00006 1.00292 0.991755
1.00011 1.00113 0.993434
1.00016 1.00208 0.992316
1.00511 0.994928 0.990534
1.00007 1.00223 0.992387
1.00019 1.00226 0.992112
0.999925 1.00288 0.991904
1.00507 0.99489 0.99045
1.005 0.995879 0.98917
1.00176 1.00256 0.989088
1.0043 0.998748 0.98837
0.999953 1.004 0.991001
1.00012 1.00418 0.990238
1.00011 1.00434 0.99026
1.00028 1.00451 0.989827
1.00483 0.994814 0.991187
1.00508 0.995328 0.990196
1.00479 0.996933 0.989101
1.00198 1.00091 0.990441
0.999985 1.00336 0.991333
1.00003 1.00352 0.99109
0.99953 1.00454 0.990935
0.999693 1.0052 0.989955
1.00002 0.994937 0.950486
0.999772 1.00416 0.991208
1.0004 1.00429 0.98943
1.00448 0.994955 0.991921
1.00469 0.99649 0.989548
1.00434 1.00049 0.986035
1.00219 1.00383 0.986703
0.999723 0.997163 0.987861
0.999813 1.00452 0.990752
1.00403 0.995732 0.99193
1.00063 1.00424 0.989429
1.00279 1.00209 0.987325
1.00435 0.998143 0.987984
1.00152 0.995856 0.949213
0.996291 0.996472 0.970854
0.997504 1.00197 0.990861
0.99981 0.997466 0.917054
0.994729 0.998051 0.887644
0.999767 1.00373 0.991655
0.999884 0.995321 0.921999
0.995328 0.998047 0.897791
1.0026 0.999803 0.990694
1.00031 1.0039 0.99033
1.00261 1.00124 0.987815
0.997046 1.00348 0.990825
1.00003 0.997084 0.954204
0.994879 0.997335 0.969097
0.99846 0.998605 0.920187
0.994757 0.999401 0.895841
0.99951 1.00353 0.992083
0.999951 1.00279 0.992122
0.999917 1.00164 0.993624
1.00023 1.00157 0.992753
1.00034 1.00233 0.991833
1.00015 1.00273 0.991651
1.00018 1.00285 0.991622
1.00022 1.0024 0.991944
1.00025 1.00167 0.992523
1.00023 1.0029 0.991503
1.00031 1.00274 0.99151
1.00039 1.00229 0.991766
1.00012 1.00254 0.991898
1.0002 1.00297 0.991591
1.00001 1.00248 0.992033
1.00042 1.00275 0.991256
1.00042 1.00235 0.991714
1.00037 1.00228 0.991872
1.00028 1.00241 0.991913
1.00044 1.0024 0.991626
1.00012 1.0026 0.99195
1.00017 1.00232 0.991961
0.999775 1.00343 0.991648
1.00002 1.00243 0.992261
1.00015 1.00224 0.99225
1.00018 1.00155 0.992871
1.00025 1.00224 0.992061
1.00023 1.00158 0.992716
1.0002 1.00028 0.994076
1.00023 1.00171 0.99252
1.00016 1.00033 0.994098
1.00013 0.998108 0.996871
1.00013 1.00034 0.99414
1.00015 0.998073 0.996593
1.00009 0.996658 0.998058
1.00018 0.998032 0.996337
1.00004 0.996633 0.999186
1.0001 0.996623 0.998104
1.00011 1.00121 0.993359
1.00008 0.999752 0.994819
1.0001 0.999719 0.99481
1.00014 0.997663 0.996783
1.00014 0.999748 0.994718
1.00013 0.997682 0.996761
0.99999 0.996482 0.999284
1.00008 0.997791 0.997176
0.999959 0.99666 0.998761
0.999921 0.996896 0.99819
1.0005 0.99615 0.988642
1.00513 0.994938 0.990393
1.00399 0.995977 0.992457
0.996576 0.996194 0.974645
1.00096 0.996151 0.990496
1.00498 0.995628 0.990976
1.00356 0.996488 0.989816
0.997233 0.996583 0.977524
1.00004 0.995566 0.954074
0.9994 0.99797 0.922793
0.994658 0.998056 0.894818
0.999964 1.00212 0.992502
1.00008 1.00113 0.993478
1.00013 1.00105 0.993484
1.00001 1.00219 0.992509
0.999958 1.00299 0.991868
1.00017 1.0026 0.991922
1.00008 1.0023 0.992351
1.00002 1.00215 0.992513
1.00514 0.994898 0.99052
1.00506 0.994884 0.990382
1.00503 0.995627 0.989191
1.00193 1.00224 0.989027
1.00411 0.998676 0.988617
1.00011 1.00447 0.990257
1.00058 1.00444 0.989779
1.00028 1.0042 0.989995
1.00015 1.00227 0.992244
0.999956 1.00399 0.990948
1.00007 1.00229 0.99251
0.999943 1.00268 0.992165
1.00484 0.994849 0.99123
0.999978 1.00335 0.991418
1.00002 1.0035 0.99124
1.00503 0.995186 0.990098
1.00424 0.996766 0.989544
1.00203 1.00075 0.990344
0.999745 1.00468 0.990591
0.999954 1.00491 0.989998
1.00305 0.997268 0.991796
1.00457 0.996033 0.990858
1.00349 0.996606 0.990987
1.00112 1.00156 0.990774
1 1.00396 0.990699
0.999711 1.00443 0.990717
0.99967 1.00523 0.990239
0.999918 0.99486 0.92258
1.00059 0.995072 0.958467
0.999721 1.0046 0.990877
1.00052 1.00421 0.989486
1.00408 0.995559 0.991922
1.00455 0.998244 0.988127
1.00302 1.00187 0.987323
1.00046 0.99525 0.954215
0.996761 0.996752 0.970181
0.997393 1.00173 0.99066
0.998906 0.997154 0.924378
0.994699 0.99805 0.879018
0.999728 1.00368 0.991675
0.999907 0.995837 0.92094
0.995353 0.997969 0.893576
1.00255 0.999638 0.990701
1.00023 1.0038 0.990423
1.0024 1.00125 0.988446
0.9974 1.00316 0.991433
1.00121 0.996998 0.949029
0.994891 0.996754 0.972772
0.99856 0.999223 0.920724
0.994947 0.999288 0.893762
0.99934 1.00302 0.993412
0.99552 0.997458 0.898629
0.995109 0.999173 0.913933
0.99987 1.00188 0.992531
0.999401 1.004 0.992227
0.996453 1.00295 0.992131
0.994831 0.999318 0.972827
0.998055 0.998893 0.947332
0.995288 0.999906 0.925863
0.994777 0.997537 0.902892
0.999904 1.00299 0.992046
0.999987 1.00148 0.993572
0.999622 1.00067 0.994569
1.00025 1.00165 0.992532
1.00038 1.00229 0.991823
1.0003 1.00271 0.991534
1.00021 1.00296 0.991451
1.00011 1.00249 0.991963
1.00041 1.00236 0.991706
1.00021 1.0029 0.991558
1.00043 1.00277 0.99126
0.999803 1.00259 0.992206
0.99837 1.00339 0.993752
1.00022 1.00314 0.991342
1.00056 1.00266 0.991226
1.00039 1.00226 0.991858
1.0003 1.00239 0.991916
1.00044 1.00241 0.991618
1.00013 1.0026 0.991933
1.0002 1.00231 0.992015
0.999936 1.00297 0.991843
1.00024 1.00235 0.991844
1.00001 1.00249 0.992141
1.00018 1.00292 0.991543
0.999713 1.00491 0.989936
0.999541 1.00396 0.991325
0.999796 1.00345 0.991639
0.999913 1.0027 0.992163
1.00003 1.00244 0.992257
1.00012 1.00159 0.992907
1.00014 1.00227 0.992247
1.00019 1.00154 0.992875
1.00023 1.0002 0.99408
1.00024 1.00159 0.99266
1.0002 1.00026 0.99408
1.00011 0.998126 0.996876
1.00016 1.00033 0.9941
1.00014 0.998092 0.996592
1.00006 0.996675 0.998067
1.00017 0.998053 0.99631
1.00003 0.996666 0.999179
1.00004 0.996644 0.999183
1.00013 1.00132 0.9934
1.00009 0.99982 0.994736
1.00009 1.00122 0.993361
1.00015 0.997648 0.996779
1.00008 0.999745 0.994821
1.0001 0.999719 0.994811
1.00014 0.997656 0.996781
1.00002 0.996424 0.999286
1.00011 0.99767 0.997242
1.00001 0.996498 0.998793
0.999989 0.996653 0.998277
0.999851 0.996035 0.915847
0.995109 0.997373 0.897286
0.997682 0.995935 0.975159
1.00075 0.995892 0.990758
1.00505 0.994956 0.990747
0.996697 0.995786 0.979042
1.00365 0.995966 0.990086
1.00122 0.99589 0.953656
0.999823 0.997247 0.915569
0.994675 0.998013 0.886219
0.998336 0.995924 0.982434
0.999763 0.99767 0.954624
0.998383 0.998811 0.919139
0.994757 0.998794 0.894787
1.00008 1.00302 0.991582
0.999982 1.00212 0.992575
1.0001 1.0011 0.993477
1.00002 1.00216 0.992464
0.999954 1.00288 0.991954
1.00019 1.00293 0.991564
1.00016 1.00259 0.991919
1.00017 1.00254 0.991888
1.00009 1.00228 0.992273
0.999991 1.00222 0.992442
1.00482 0.994876 0.991282
1.0051 0.995086 0.990018
1.00364 0.996633 0.989994
1.00197 1.00074 0.990246
1.00022 1.00476 0.990039
0.999934 1.00482 0.990247
0.999994 1.00347 0.991391
0.999925 1.00336 0.991502
1.00319 0.99676 0.992014
0.999977 1.00405 0.990643
0.999708 1.00454 0.990597
1.0045 0.99599 0.990572
1.00301 0.996478 0.991932
1.00145 1.00168 0.990193
0.999886 1.00519 0.990095
1.0002 0.998393 0.993282
1.002 0.996899 0.994475
0.999759 1.00365 0.990885
0.999863 1.0043 0.990538
0.999832 1.00464 0.990258
0.999636 1.00514 0.990232
0.99485 0.997346 0.912175
0.999905 0.994895 0.92555
1.00003 0.994947 0.950396
0.999603 1.0038 0.991695
1.00014 1.00366 0.990517
1.00251 0.999461 0.990713
1.00228 1.00128 0.989072
0.999877 0.995565 0.926097
0.999712 0.996975 0.949115
0.994892 0.996051 0.969202
0.99772 1.00219 0.991982
0.998569 0.998607 0.912744
0.99529 0.997831 0.894709
0.995008 0.999156 0.898262
0.999098 1.00295 0.993414
0.995453 0.996738 0.903796
0.995334 0.999355 0.913359
1.00021 1.00189 0.992442
0.999064 1.00403 0.992223
0.996253 1.00068 0.994787
0.994844 0.998402 0.971216
0.997441 0.998902 0.955023
0.997283 0.999907 0.917811
0.994772 0.997508 0.907735
0.998144 1.00246 0.995659
0.995242 0.997001 0.924698
0.994665 0.997426 0.925642
0.996063 1.00246 0.99894
0.994842 1.00001 0.979195
0.995542 1.00001 0.954825
0.994812 0.999932 0.916238
0.994853 0.99574 0.905106
1.00004 1.00136 0.99352
0.999661 1.00073 0.994758
0.998142 1.00265 0.996078
1.00041 1.00239 0.991698
1.00044 1.00278 0.991264
1.00023 1.0028 0.991524
0.999631 1.00271 0.992381
1.00051 1.00271 0.991211
1.00019 1.00314 0.991344
0.998367 1.00337 0.994072
0.996433 1.00476 0.996078
0.998782 1.00402 0.993048
1.00038 1.00286 0.991375
1.00045 1.00241 0.991611
1.00014 1.0026 0.991916
1.0002 1.00232 0.992068
1.00023 1.00238 0.991864
0.99994 1.003 0.991841
1.00006 1.00249 0.992156
1.00011 1.00272 0.991941
0.999564 1.00223 0.993097
1.00084 1.00109 0.991951
1.00021 1.00279 0.991665
0.999871 1.00405 0.990683
1.00097 1.00494 0.988126
0.999797 1.00455 0.990849
0.999569 1.00492 0.990324
0.999629 1.00394 0.991396
0.999782 1.00308 0.99184
0.999821 1.00348 0.991631
0.99996 1.00267 0.992159
1.00008 1.00174 0.992841
1.00008 1.00242 0.992252
1.00015 1.00158 0.992905
1.00023 1.00022 0.994077
1.00021 1.00153 0.992879
1.00024 1.00022 0.994082
1.00009 0.998142 0.996896
1.0002 1.00027 0.994084
1.00013 0.998112 0.996602
1.00001 0.996763 0.998074
1.00016 0.998067 0.99631
1.00004 0.99669 0.998622
1.00003 0.996676 0.99918
1.00015 1.00155 0.99296
1.00013 0.999908 0.994599
1.0001 1.00136 0.993241
1.00015 0.997673 0.996739
1.00009 0.999811 0.994739
1.00006 1.00126 0.993363
1.00003 0.996402 0.999285
1.00015 0.997647 0.99678
1.00008 0.999729 0.994823
1.00014 0.99765 0.996779
1.00002 0.996435 0.999286
0.999988 0.99649 0.999282
0.99501 0.995774 0.90562
0.99988 0.995577 0.920219
0.995182 0.999572 0.913278
0.995257 0.997806 0.894816
0.997277 0.995154 0.97609
1.00367 0.995998 0.990371
1.00053 0.996294 0.952809
0.999827 0.996944 0.923554
0.994691 0.998112 0.877559
0.998317 0.996465 0.98137
1.00126 0.997306 0.945852
0.998571 0.999101 0.919766
0.994767 0.999175 0.890233
0.995229 0.99775 0.977091
0.997805 0.999326 0.94748
0.995843 0.999745 0.913926
0.994797 0.997133 0.897257
1.00005 1.00361 0.991088
1.00004 1.003 0.991682
0.999962 1.00217 0.992646
0.999937 1.00278 0.99204
1.00031 1.00315 0.99101
1.00018 1.00287 0.991635
1.00012 1.0026 0.991916
1.00031 1.00252 0.991778
1.00021 1.00248 0.991977
1.00011 1.00228 0.992193
1.00344 0.996458 0.992219
1.00434 0.99593 0.990287
1.00262 0.996404 0.992867
1.00184 1.00157 0.989625
1.00003 1.00515 0.989953
0.999767 1.00464 0.990478
0.999986 1.00409 0.990587
0.999968 1.00427 0.990494
1.00049 0.99844 0.99358
0.999913 1.00468 0.990262
0.999792 1.00515 0.99023
1.00213 0.996828 0.994056
1.0003 1.00351 0.990733
0.998652 0.997078 0.994964
0.998502 0.998507 0.999334
0.999163 1.00479 0.991313
0.999977 1.0047 0.990017
0.999666 1.00506 0.990213
0.994757 0.996878 0.930394
0.994819 0.996996 0.910625
0.999891 0.994874 0.918288
0.998891 1.00285 0.993416
0.998821 1.00405 0.992205
1.00046 1.00188 0.992364
0.995467 0.995757 0.90511
0.997896 0.998813 0.947931
0.994847 0.997738 0.971856
0.996354 0.999733 0.997656
0.996162 0.99981 0.92572
0.995713 0.999508 0.912796
0.994797 0.997461 0.907852
0.998124 1.00248 0.995861
0.995318 0.995923 0.927524
0.994652 0.997356 0.925584
0.99632 1.00292 0.998075
0.994855 0.999904 0.980297
0.996154 0.999974 0.947692
0.994832 0.996335 0.906314
0.994856 0.999954 0.922021
0.996486 1.0038 0.998016
0.994497 0.994611 0.946565
0.994704 0.99646 0.92882
0.994792 0.997228 0.897538
0.994927 1.00151 0.993738
0.995292 0.99988 0.957625
0.994912 1.00001 0.920399
0.999778 1.00078 0.994948
0.998336 1.0024 0.995793
0.995713 1.00518 0.99785
1.00047 1.00274 0.991195
1.00014 1.00314 0.991344
0.998328 1.00338 0.994391
1.00029 1.00277 0.991447
0.998825 1.00389 0.993049
0.996573 1.0044 0.996184
0.996405 1.00507 0.996548
0.999047 1.00315 0.993183
1.00023 1.0024 0.991885
0.999941 1.00303 0.99184
1.00011 1.00248 0.992172
0.999695 1.00229 0.993007
1.0001 1.00263 0.991946
0.999765 1.00228 0.992884
1.00029 1.0015 0.99258
1.00065 1.003 0.990286
1.00026 1.00265 0.991787
1.00022 1.00396 0.990523
1.00124 1.00401 0.987966
1.00133 1.00443 0.987688
1 1.00485 0.989988
1.00079 1.00485 0.988275
0.999878 1.00366 0.991365
0.999729 1.00461 0.990776
0.999416 1.00492 0.990713
0.999719 1.00392 0.991468
0.999821 1.00302 0.991924
1.00005 1.00194 0.99269
0.999998 1.00265 0.992154
1.0001 1.00172 0.99284
1.0002 1.00032 0.994029
1.00017 1.00157 0.992903
1.00024 1.00021 0.994076
1.00004 0.998182 0.996923
1.00024 1.00021 0.994084
1.0001 0.99813 0.996626
0.999945 0.996858 0.998097
1.00015 0.998074 0.996324
0.999989 0.996772 0.998625
0.999997 0.996738 0.999181
1.00024 1.00172 0.992458
1.00017 1.0001 0.994132
1.00016 1.00156 0.992959
1.00016 0.99776 0.996636
1.00012 0.999917 0.994477
1.00008 1.00138 0.993083
1.00003 0.99644 0.999273
1.00015 0.997672 0.996743
1.00009 0.999798 0.994741
1.00003 0.996408 0.999285
1.00014 0.997645 0.996781
1.00002 0.996441 0.999286
0.994971 0.995469 0.928022
0.994999 0.996201 0.909145
0.999863 0.996046 0.921181
1.0004 1.00254 0.991501
0.994693 0.998049 0.929209
0.995299 0.999473 0.912823
0.995361 0.997901 0.898008
0.998341 0.996813 0.979922
0.999646 0.997757 0.954349
0.998395 0.99866 0.911355
0.994752 0.999472 0.892466
0.995981 0.997707 0.973169
0.997442 0.998982 0.954499
0.99735 0.999893 0.917395
0.994784 0.997585 0.898855
0.994875 0.998289 0.96939
0.995393 1.00027 0.953609
0.994857 0.999934 0.921602
0.994841 0.996161 0.90491
1.0002 1.00389 0.990498
1.00006 1.00365 0.990997
1.00005 1.00297 0.991781
1.00034 1.00305 0.991056
1.00031 1.00312 0.991125
1.00017 1.00282 0.991706
1.00033 1.00252 0.991802
1.00024 1.00244 0.992065
1.00067 0.998595 0.993853
1.00223 0.996825 0.993615
1.00002 1.00425 0.99045
1.00083 1.00337 0.99057
0.999995 1.00515 0.990226
0.999903 1.00474 0.990264
1 1.00467 0.990091
0.998418 0.997883 0.995456
0.99981 1.00509 0.99013
0.999663 1.00403 0.991379
0.998621 0.998197 0.999342
0.999965 1.00457 0.990135
0.996985 0.998513 0.995561
0.9967 0.99959 1.0018
0.999362 1.00522 0.990778
0.999992 1.00495 0.990109
0.994516 0.995089 0.950898
0.99476 0.997128 0.930939
0.994784 0.996957 0.909083
0.998001 1.00251 0.996082
0.996305 1.003 0.997187
0.995315 0.995186 0.930301
0.995614 1 0.955421
0.994863 0.998992 0.976954
0.994844 0.999934 0.921131
0.994656 0.997298 0.925525
0.994815 0.996849 0.907502
0.99657 1.00351 0.997849
0.994526 0.994774 0.946475
0.994691 0.996214 0.933211
0.994935 1.00244 0.996902
0.994789 0.997677 0.89905
0.995118 0.999317 0.953345
0.995169 0.999997 0.924249
0.995244 1.00494 0.998143
0.994589 0.994629 0.951305
0.994694 0.998186 0.929379
0.994761 0.998974 0.895018
0.995821 0.999952 0.920837
0.994906 0.998747 0.987546
0.995693 1.00093 0.945742
0.99844 1.00192 0.995496
0.995845 1.00505 0.997515
0.995214 1.00483 0.999929
1.00022 1.00269 0.99152
0.998851 1.00385 0.993048
0.996752 1.00377 0.996283
0.999138 1.00318 0.993135
0.996521 1.00415 0.996551
0.997815 1.00393 0.995121
0.999845 1.00236 0.992917
1.00005 1.00257 0.991952
0.999906 1.00237 0.992889
0.999447 1.00409 0.991182
0.999703 1.00189 0.993202
1.00045 1.00285 0.990659
1.0014 1.00397 0.988221
1.00339 1.00281 0.985751
1.00057 1.00387 0.990359
1.00146 1.00413 0.987693
1.00221 1.00333 0.987989
1.00022 1.00489 0.989011
1.00136 1.0043 0.987931
0.999783 1.00443 0.990657
1.00005 1.00485 0.989956
1.00062 1.00479 0.988426
1.00002 1.00236 0.99231
0.999835 1.00366 0.991353
0.999664 1.00468 0.990702
0.999862 1.00297 0.992009
1.00008 1.00193 0.992683
1.00016 1.00051 0.993921
1.00013 1.00171 0.99284
1.00021 1.00032 0.994028
0.999995 0.998304 0.996383
1.00025 1.00022 0.994075
1.00007 0.998178 0.996382
0.999818 0.996959 0.999202
1.00011 0.998106 0.99635
0.999928 0.996865 0.998638
0.999951 0.996813 0.999185
1.00028 1.00185 0.992252
1.00022 1.00032 0.993792
1.00024 1.00174 0.992543
1.00017 0.997901 0.996486
1.00017 1.00011 0.99409
1.00016 1.00157 0.992958
1.00002 0.996534 0.999247
1.00016 0.997758 0.996644
1.00012 0.999932 0.994355
1.00003 0.996427 0.999277
1.00015 0.997671 0.996748
1.00003 0.996414 0.999286
0.994571 0.994876 0.947159
0.994951 0.996365 0.927814
0.994987 0.996917 0.909317
1.00037 1.00255 0.99158
1.00037 1.00247 0.991567
1.00041 1.00285 0.991253
0.994733 0.99622 0.928404
0.994672 0.997557 0.929154
0.995499 0.999732 0.912367
0.995547 0.997416 0.975476
0.998291 0.999616 0.946498
0.995223 0.9999 0.925676
0.994802 0.998076 0.895737
0.995087 0.997863 0.972445
0.996422 0.999997 0.951214
0.994817 0.999956 0.922886
0.994827 0.99641 0.90601
0.994889 0.998296 0.96831
0.995521 1 0.954911
0.994909 0.999993 0.920877
0.994792 0.997863 0.90254
1.00035 1.00362 0.990501
1.0002 1.00388 0.990499
1.00009 1.00366 0.990906
1.00036 1.00307 0.991036
1.0003 1.00309 0.99124
1.00036 1.0025 0.991827
0.998104 0.998346 0.995933
0.998366 0.998117 0.999364
1.00003 1.00465 0.990167
1.00017 1.00314 0.991446
0.999921 1.00511 0.990048
1.00008 1.00455 0.990003
0.999742 1.00496 0.990147
0.996818 0.997965 0.995931
0.999438 1.00454 0.991378
0.996322 1.00051 1.0012
1.00002 1.00454 0.990443
0.995575 0.997563 0.996432
0.996757 1.00263 0.9978
0.999149 1.0052 0.991593
0.994526 0.995048 0.956782
0.994479 0.995054 0.952512
0.994759 0.997186 0.931464
0.996813 1.00345 0.997676
0.995119 1.00239 0.994503
0.994524 0.994945 0.946384
0.994911 0.9992 0.957067
0.994893 0.999999 0.916996
0.994668 0.996014 0.937605
0.9948 0.998192 0.896026
0.99529 1.00501 0.998452
0.994577 0.99465 0.95298
0.994677 0.997652 0.92933
0.994906 0.998911 0.983295
0.994756 0.999297 0.890612
0.994826 0.999978 0.922051
0.995436 1.00071 0.95411
0.994886 1.00361 0.998555
0.994592 0.994721 0.947471
0.995254 0.999621 0.913654
0.99465 0.99808 0.895668
0.996129 0.998989 0.913945
0.996073 1.00001 0.953806
0.995735 0.999807 0.976733
0.996148 1.00493 0.997239
0.995332 1.00375 0.999897
0.996565 1.00339 0.998386
0.99922 1.00318 0.993088
0.996625 1.00345 0.996567
0.997187 1.00417 0.995434
0.999495 1.00294 0.993123
1.00005 1.00251 0.992894
1.00029 1.00387 0.990797
1.00112 1.00481 0.987858
1.00024 1.00274 0.99104
1.00153 1.00398 0.98799
1.00357 1.004 0.985006
1.00477 1.00234 0.983851
1.00289 1.00244 0.986622
1.00329 1.0031 0.98565
1.00167 1.00423 0.98742
1.00171 1.00362 0.98854
1.00189 1.00301 0.988519
0.999942 1.00498 0.989516
1.00034 1.0049 0.989126
1.0014 1.00417 0.988179
0.999952 1.00331 0.991472
0.999891 1.00434 0.990668
1.00008 1.00482 0.989923
1.0001 1.00081 0.993706
1.00006 1.00234 0.992299
0.999796 1.00365 0.991341
1.0001 1.00192 0.992677
1.00016 1.00051 0.993918
0.99991 0.998493 0.996339
1.00022 1.00032 0.994027
0.999998 0.998301 0.99638
0.999751 0.997118 0.999194
1.00007 0.998166 0.996379
0.999848 0.996985 0.998651
0.99989 0.996911 0.99919
1.00034 1.00191 0.992233
1.00029 1.0005 0.993705
1.0003 1.00184 0.992301
1.00016 0.998076 0.996315
1.00023 1.00033 0.993871
1.00025 1.00175 0.992629
0.999987 0.996674 0.999212
1.00016 0.997895 0.996496
1.00018 1.00013 0.994049
1.00002 0.996513 0.999255
1.00015 0.997757 0.996652
1.00004 0.99642 0.999281
0.994583 0.994589 0.951055
0.994533 0.994669 0.947069
0.994938 0.996815 0.92771
1.00027 1.00261 0.991573
1.00022 1.00308 0.991338
1.00032 1.00257 0.991659
1.00034 1.00251 0.991575
1.00035 1.00291 0.991224
1.00029 1.00282 0.991427
1.00051 1.00293 0.991028
0.994693 0.997293 0.92507
0.994708 0.996295 0.932849
0.994649 0.99698 0.929102
0.994804 0.996619 0.907105
0.994866 0.998066 0.969734
0.995236 1.00001 0.949645
0.994863 0.999952 0.926679
0.994875 0.998547 0.967689
0.995085 1.00002 0.948459
0.995118 0.999982 0.92526
0.994777 0.997605 0.907461
0.995608 0.996961 0.971619
0.994998 1.00063 0.947663
0.994809 0.99994 0.916845
0.994757 0.999475 0.895204
0.99997 1.0038 0.990969
1.00033 1.00361 0.990501
1.00019 1.00388 0.9905
1.00038 1.00308 0.991015
0.99684 0.997815 0.996316
0.996258 1.00125 1.00061
1.0001 1.00454 0.989872
0.999738 1.00497 0.990185
0.999681 1.00407 0.99198
0.999888 1.00444 0.990465
0.999003 1.0052 0.991583
0.995475 0.998705 0.993833
0.996307 1.00367 0.998115
0.998497 1.00474 0.992425
0.995281 0.999032 0.992164
0.997715 1.0047 0.996102
0.994549 0.994935 0.951036
0.994521 0.99483 0.959226
0.994446 0.994804 0.954123
0.995175 1.00503 0.998696
0.994921 0.997508 0.988502
0.994575 0.994638 0.954675
0.996763 1.00089 0.946335
0.994993 0.999957 0.925715
0.994658 0.997082 0.929277
0.994729 0.999526 0.892826
0.994889 1.00225 0.998974
0.994562 0.994695 0.947397
0.99545 0.999372 0.913191
0.994891 1.00062 0.978235
0.994668 0.998009 0.887101
0.997367 0.999905 0.91703
0.994976 1.00001 0.947861
0.99529 1.0042 0.993022
0.995195 0.995058 0.928662
0.995166 0.997354 0.898151
0.998703 0.997693 0.920197
0.995424 0.999973 0.954133
0.994901 0.999582 0.971311
0.995429 1.00263 0.999776
0.995907 1.00418 0.998375
0.998417 1.00012 0.997795
0.996555 1.0044 0.995747
0.998534 1.00317 0.993563
1.00282 1.00022 0.989871
1.00115 1.00357 0.990409
1.00145 1.00475 0.987726
1.00277 1.0037 0.985393
1.00168 1.00401 0.987759
1.00349 1.00404 0.984792
1.00447 1.00317 0.983567
1.00504 1.00119 0.984353
1.00494 1.00251 0.983929
1.00485 1.00237 0.983674
1.00238 1.00278 0.987162
1.00288 1.00256 0.986846
1.00321 1.00345 0.985548
1.00117 1.00445 0.988332
1.00159 1.00355 0.988566
1.00157 1.00271 0.989044
1.00005 1.0044 0.990244
1.00001 1.00493 0.989646
1.00048 1.00491 0.989243
1.00001 1.00148 0.993159
1.00005 1.00318 0.991469
0.999983 1.00426 0.990678
0.999822 0.998707 0.996274
1.00011 1.00083 0.993693
1.00011 1.00232 0.992289
1.00017 1.0005 0.993916
0.999911 0.998502 0.996334
0.99966 0.997309 0.999185
1 0.998296 0.996377
0.999742 0.997152 0.999192
0.999817 0.99702 0.999195
1.00027 1.00271 0.991549
1.00039 1.00201 0.992084
1.00033 1.00068 0.993446
1.00035 1.00192 0.992221
1.00013 0.998295 0.996135
1.00028 1.00051 0.993702
1.00029 1.00188 0.992349
0.999946 0.996846 0.999172
1.00015 0.998075 0.996326
1.00023 1.00033 0.993949
0.999992 0.996642 0.999222
1.00016 0.997891 0.996507
1.00002 0.996485 0.999264
0.994557 0.994629 0.946258
0.99459 0.994645 0.952766
0.994497 0.994716 0.946969
1.00033 1.00256 0.991596
1.00016 1.00314 0.991303
1.00007 1.00342 0.99112
1.00014 1.00304 0.991325
1.00023 1.00348 0.991005
1.00033 1.00255 0.991582
1.0003 1.00296 0.991195
1.0003 1.0028 0.991422
1.00043 1.00297 0.991078
1.00015 1.00315 0.99144
0.995142 0.9991 0.913225
0.994691 0.997466 0.925038
0.994699 0.996419 0.937287
0.99479 0.997328 0.907581
0.994914 0.999973 0.917478
0.994896 0.998838 0.966306
0.994947 1.00025 0.954478
0.994962 0.997292 0.968366
0.995277 1.00033 0.954646
0.994832 0.999965 0.9231
0.994962 0.999261 0.892987
0.995059 0.995392 0.973161
0.994936 1.00037 0.955474
0.995705 0.999891 0.925106
0.994876 0.998147 0.894354
0.998934 1.00296 0.993444
0.99995 1.00396 0.990989
1.0003 1.00368 0.990501
0.995281 0.999485 0.991187
0.995836 1.00444 0.998409
0.999855 1.00438 0.990487
0.998527 1.0052 0.991571
0.998584 1.00476 0.992471
0.99706 1.00435 0.996067
0.994969 0.999352 0.99243
0.996625 1.00295 0.997006
0.995938 1.00052 0.992234
0.994952 0.99673 0.930077
0.994519 0.994905 0.95262
0.994504 0.994746 0.961675
0.994913 1.00076 0.999427
0.994905 1.00097 0.974047
0.994533 0.994704 0.94731
0.996758 1.00007 0.951868
0.995266 0.999908 0.925227
0.995638 0.999622 0.912742
0.99469 0.998107 0.878464
0.995316 1.00421 0.993409
0.99511 0.995908 0.928456
0.995344 0.99767 0.895688
0.994906 0.999516 0.972346
0.998569 0.998991 0.920513
0.996371 0.999971 0.950028
0.996032 1.0014 0.991035
0.995039 0.995521 0.906574
0.999352 0.997693 0.923656
0.997855 0.998568 0.947782
0.994854 0.997846 0.97364
0.99543 1.00487 0.998339
0.998199 1.00034 0.997731
1.003 0.99866 0.992674
0.997627 1.00336 0.993952
1.00184 1.00063 0.990342
1.00393 0.998664 0.988333
1.00177 1.00466 0.987591
1.00286 1.00368 0.985468
1.0044 1.00102 0.985474
1.00342 1.00405 0.98458
1.00433 1.003 0.983639
1.00496 1.00043 0.98517
1.0051 0.999444 0.985882
1.00509 1.00159 0.983768
1.00498 1.00115 0.984413
1.00443 1.00214 0.984861
1.00483 1.00238 0.983812
1.0049 1.00236 0.983498
1.00197 1.00393 0.987311
1.00232 1.00277 0.987458
1.00286 1.00269 0.987073
1.00073 1.00438 0.989108
1.00104 1.00443 0.988442
1.00146 1.00348 0.988591
0.999947 1.00266 0.99206
1.00014 1.00425 0.990251
1.00009 1.00487 0.989774
0.999729 0.999061 0.996629
1.00004 1.0015 0.993132
1.00015 1.00306 0.991467
0.99958 0.997546 0.998045
0.999819 0.998755 0.996525
1.00012 1.00084 0.99368
0.99991 0.998513 0.996329
0.999653 0.997351 0.999179
0.999733 0.997183 0.99919
1.00019 1.00307 0.991284
1.00037 1.00223 0.991895
1.00024 1.00278 0.991517
1.00033 1.00088 0.993244
1.00035 1.00206 0.992078
1.00009 0.99852 0.995975
1.00032 1.00069 0.993445
1.00037 1.00192 0.992209
0.999894 0.997056 0.999129
1.00013 0.998287 0.996145
1.00028 1.00052 0.9937
0.999952 0.996813 0.999184
1.00015 0.998072 0.996337
0.999997 0.996614 0.999233
0.995553 0.994804 0.931101
0.994565 0.994706 0.946177
0.994601 0.994626 0.95449
1.00024 1.00314 0.991181
1.00033 1.00259 0.99162
1.00012 1.00319 0.991268
1.0002 1.00306 0.991356
1.00017 1.00334 0.991163
1.00015 1.00347 0.991036
1.00017 1.0038 0.990648
0.999946 1.00367 0.990937
1.00035 1.00274 0.991418
1.00033 1.00299 0.991128
1.0001 1.0032 0.991392
0.999455 1.00359 0.992568
0.995265 0.998403 0.896798
0.995525 0.999282 0.912649
0.994674 0.997654 0.925004
0.995241 0.999012 0.897546
0.99488 0.999943 0.922747
0.994949 1.00063 0.947656
0.995628 0.997294 0.966182
0.995187 0.995559 0.974939
0.994764 0.998129 0.886174
0.994974 1.00001 0.951586
0.9973 0.999809 0.917088
0.994879 0.996337 0.975959
0.995625 1.00002 0.955727
0.999326 0.997784 0.917198
0.998874 1.00141 0.995373
0.999156 1.00289 0.99341
0.999917 1.00408 0.991009
0.994854 0.999552 0.992673
0.996646 1.004 0.996032
0.998685 1.00471 0.992517
0.997826 1.00275 0.996783
0.995537 1.00066 0.992348
0.997063 1.00044 0.993769
0.994899 0.998633 0.905978
0.994919 0.995863 0.934307
0.994485 0.994826 0.954204
0.995226 1.00471 0.993806
0.994905 0.99936 0.972857
0.994973 0.996482 0.928331
0.995281 0.999989 0.948932
0.998679 0.997575 0.912366
0.995574 0.997477 0.898858
0.996211 1.00181 0.991052
0.995105 0.995818 0.909999
0.999831 0.996784 0.916595
0.994873 0.998025 0.969641
0.997528 0.998621 0.954687
0.997934 0.999448 0.993394
0.999855 0.995826 0.916486
0.999684 0.997916 0.954331
0.994872 0.997167 0.969176
0.997937 1.00076 0.99774
1.00222 0.997921 0.993262
1.00396 0.998618 0.989937
1.00086 1.00103 0.990814
1.00357 0.999295 0.988269
1.00472 0.997902 0.987825
1.00292 1.00362 0.985542
1.0042 1.00111 0.985468
1.00492 0.9983 0.98725
1.00419 1.00286 0.983708
1.00496 1.00027 0.985179
1.00509 0.997803 0.987533
1.00513 0.997971 0.987319
1.00513 1.00019 0.985155
1.0051 0.999371 0.98594
1.00509 1.00095 0.984422
1.00508 1.00152 0.983949
1.00492 1.0011 0.984472
1.00341 1.00281 0.985894
1.00411 1.00215 0.984996
1.00471 1.00223 0.983694
1.00166 1.00372 0.988074
1.00204 1.00385 0.987289
1.00227 1.00274 0.987753
1.0003 1.00336 0.990796
1.00077 1.00432 0.989113
1.00091 1.00439 0.988552
0.999664 0.999673 0.995534
1.00007 1.00254 0.992042
1.00025 1.00409 0.990258
0.999474 0.997774 0.99915
0.99972 0.999141 0.996034
1.00007 1.00151 0.993105
0.999573 0.997547 0.999162
0.999809 0.99879 0.99624
0.999647 0.997398 0.999174
1.00037 1.00304 0.991106
1.00023 1.00306 0.991267
1.00035 1.00253 0.991619
1.0003 1.00111 0.993068
1.00033 1.00226 0.991895
1.00024 1.00279 0.991484
1.00004 0.998731 0.995862
1.00033 1.00088 0.993245
1.00033 1.00209 0.992073
0.999835 0.997263 0.999091
1.0001 0.99851 0.995983
1.00031 1.00071 0.993445
0.9999 0.997012 0.999142
1.00013 0.998281 0.996156
0.999958 0.996773 0.999196
0.995367 0.997506 0.89903
0.99534 0.994962 0.930919
0.994571 0.994787 0.946095
1.00012 1.00331 0.991149
1.00061 1.00318 0.990858
1.00012 1.00361 0.990874
1.00023 1.00308 0.991387
1.00027 1.00325 0.991205
1.00002 1.00352 0.991067
1.00007 1.00361 0.990921
1.00012 1.00383 0.990676
1.00005 1.00425 0.990462
0.999955 1.00124 0.993223
1.00018 1.00309 0.991344
0.999538 1.00329 0.992387
0.999805 0.997045 0.913274
0.995229 0.998374 0.892419
0.995773 0.999494 0.912105
0.994694 0.998143 0.877897
0.996774 0.998702 0.924767
0.994889 1.00004 0.951126
0.995446 0.995276 0.972498
0.99491 0.99664 0.974266
0.998553 0.998982 0.919483
0.99624 0.999983 0.94936
0.995189 0.998186 0.974744
0.998861 0.998431 0.947668
1.002 0.998546 0.99309
0.999093 1.00135 0.99512
0.99933 1.00279 0.993389
0.995 1.00097 0.992432
0.99869 1.00259 0.996547
0.99771 1.00068 0.993064
0.999771 0.999533 0.989915
0.999926 0.994852 0.922435
0.994927 0.997665 0.907322
0.994797 0.994956 0.938461
0.996369 1.00188 0.991188
0.994877 0.998127 0.96812
0.995225 0.996392 0.910141
0.998482 0.998198 0.947012
0.99983 0.997319 0.924517
0.997751 0.99919 0.991467
0.999887 0.995504 0.920845
1.00131 0.997165 0.946066
0.994891 0.996841 0.972451
0.99906 0.996416 0.993071
1.00005 0.996246 0.953942
0.996071 0.996928 0.974876
1.00146 0.99704 0.993817
1.00375 0.997792 0.989897
1.00496 0.997063 0.989123
1.00311 0.999931 0.988208
1.00448 0.998056 0.987825
1.00482 0.996806 0.988715
1.00406 1.00123 0.985464
1.00481 0.998414 0.987194
1.00508 0.996081 0.989062
1.00496 1.00012 0.98519
1.00509 0.99775 0.987532
1.00512 0.996338 0.988971
1.00511 0.997104 0.988416
1.00513 0.997816 0.987503
1.00516 0.998798 0.986649
1.00516 1.00028 0.985199
1.00514 1.00021 0.985176
1.00509 0.9993 0.985998
1.00472 1.00099 0.985175
1.00504 1.00095 0.984527
1.00508 1.00141 0.984129
1.00264 1.00321 0.986844
1.00339 1.00281 0.985876
1.0038 1.00219 0.985131
1.0009 1.00322 0.989855
1.00174 1.00368 0.988048
1.0021 1.00378 0.987268
0.999739 1.00045 0.994602
1.0004 1.00322 0.990799
1.00085 1.00421 0.989118
0.999483 0.998033 0.999046
0.999666 0.999768 0.995488
1.00017 1.00246 0.992024
0.999506 0.997797 0.998555
0.99971 0.999206 0.996011
0.999576 0.997607 0.999151
1.00052 1.00292 0.99097
1.00024 1.00313 0.991128
1.00027 1.00294 0.991305
1.00029 1.00305 0.99125
1.0003 1.00259 0.991618
1.00025 1.00143 0.992837
0.99996 0.998947 0.995791
1.00029 1.00111 0.993073
1.00028 1.00232 0.991895
0.99977 0.997449 0.999064
1.00004 0.998723 0.995869
1.00032 1.00089 0.993246
0.99984 0.997227 0.999102
1.00009 0.998505 0.995992
0.999907 0.996971 0.999154
0.999866 0.995254 0.922092
0.995422 0.997718 0.900415
0.995274 0.99509 0.930727
1 1.00349 0.991117
1.00004 1.00385 0.990747
1.0004 1.00318 0.991052
1.0013 1.00332 0.989409
1.00011 1.00414 0.99051
1.00016 1.00361 0.990905
1.00011 1.00383 0.990704
0.99996 1.0041 0.990652
1.00026 1.00364 0.989731
1.00074 1.00087 0.992568
1.00414 0.998908 0.988412
0.999808 1.00135 0.993519
0.999729 1.00295 0.992203
0.999643 0.997533 0.953449
0.999718 0.997534 0.916554
0.995246 0.998113 0.89373
0.99913 0.998971 0.910762
0.995883 0.999938 0.953123
0.994925 0.996503 0.976165
0.994953 0.998154 0.976843
0.997432 0.998551 0.956154
0.996137 0.998822 0.975776
1.00366 0.996381 0.991786
1.00144 0.998924 0.993188
0.999317 1.00136 0.994856
0.99836 1.00073 0.992418
1.00117 1.00006 0.988018
1.00003 0.995077 0.950423
0.999912 0.994886 0.925654
0.995042 0.996781 0.908752
0.997466 0.999104 0.989503
0.994871 0.99674 0.969465
0.999869 0.995921 0.921775
0.999937 0.998 0.954106
0.998542 0.997814 0.993431
1.00129 0.996199 0.953163
0.996311 0.996722 0.971722
1.0011 0.997408 0.991569
0.99916 0.996011 0.980156
1.00356 0.997013 0.989897
1.00495 0.996481 0.98905
1.00502 0.995691 0.989972
1.00427 0.99827 0.987825
1.00475 0.996844 0.988675
1.00509 0.995284 0.989919
1.00469 0.998533 0.987138
1.00507 0.996146 0.989036
1.00512 0.995204 0.989978
1.00509 0.997697 0.987532
1.00512 0.996345 0.988931
1.0051 0.996156 0.989395
1.00512 0.996899 0.988548
1.00513 0.997803 0.987728
1.00513 0.99766 0.987687
1.00515 0.998822 0.986631
1.00516 0.999495 0.985985
1.00508 1.00011 0.985441
1.00515 1.00035 0.98516
1.00514 1.00023 0.985197
1.00388 1.00174 0.986132
1.00467 1.00103 0.985223
1.00496 1.00097 0.984633
1.00158 1.00286 0.988975
1.00268 1.00315 0.986835
1.00337 1.00281 0.985856
0.999986 1.00098 0.993611
1.00096 1.00317 0.989849
1.00176 1.00368 0.988023
0.999541 0.998442 0.998846
0.999776 1.00048 0.994573
1.00051 1.00306 0.990803
0.999524 0.998106 0.998989
0.999673 0.999859 0.995441
0.999542 0.997831 0.999091
1.00135 1.00306 0.989322
1.00056 1.00281 0.990959
1.00033 1.00311 0.990902
1.00012 1.00319 0.991149
1.00023 1.003 0.991259
1.00021 1.00189 0.99243
1.00025 1.00263 0.991618
1.00024 1.00143 0.992845
0.999869 0.999201 0.995704
0.999701 0.997621 0.999046
0.999963 0.998926 0.995797
1.00029 1.0011 0.993078
0.999775 0.997428 0.999072
1.00004 0.998716 0.995875
0.999847 0.997185 0.999113
1.00062 0.995087 0.956811
0.999879 0.99576 0.92086
0.995322 0.998148 0.897873
0.999967 1.00409 0.990621
1.00023 1.00312 0.991245
1.00019 1.00409 0.990548
1.00119 1.00327 0.989506
1.00229 1.00366 0.98731
1.00045 1.00381 0.989762
0.999863 1.00397 0.990843
1.00071 1.00371 0.989313
1.00058 1.00125 0.992398
1.00228 1.00084 0.989083
1.00428 0.998346 0.989455
1.00451 0.997199 0.989114
1.00363 0.99876 0.989133
0.999452 1.00168 0.993818
0.995874 0.997126 0.975255
1.00033 0.996686 0.951671
0.998728 0.997673 0.924271
0.9983 0.999081 0.94758
0.994857 0.998419 0.978129
0.996347 0.998608 0.980137
1.00031 0.998383 0.992273
1.00373 0.99615 0.991891
1.00118 0.999191 0.993291
1.00277 1.00043 0.98605
0.997153 0.997142 0.976175
1.00043 0.995246 0.958491
0.999895 0.994864 0.918281
0.99816 0.998678 0.993686
0.996295 0.996184 0.973803
1.00054 0.996489 0.952167
1.00102 0.997474 0.991705
0.998655 0.996251 0.979216
1.00367 0.996744 0.991073
1.00337 0.997432 0.988862
1.00488 0.995903 0.988954
1.00498 0.995585 0.989932
1.0051 0.994867 0.990477
1.00469 0.996859 0.988635
1.00509 0.995262 0.98988
1.00509 0.994971 0.990409
1.00507 0.996201 0.989009
1.00512 0.995297 0.989948
1.00511 0.995625 0.989915
1.00513 0.996351 0.988891
1.0051 0.996141 0.989298
1.00511 0.996922 0.988528
1.00512 0.996701 0.988679
1.00513 0.997673 0.987887
1.00517 0.998916 0.986605
1.00515 0.998846 0.986613
1.00516 0.999566 0.985949
1.00512 0.999781 0.98588
1.00456 1.00029 0.986106
1.00508 1.00021 0.985462
1.00515 1.00043 0.985121
1.00256 1.00192 0.988205
1.00382 1.00173 0.986153
1.00461 1.00107 0.985272
1.00023 1.00141 0.99273
1.00162 1.00288 0.988963
1.00272 1.0031 0.986827
0.999656 0.998935 0.998555
1.00005 1.00096 0.993599
1.00104 1.00311 0.98984
0.999606 0.998552 0.998743
0.999806 1.00052 0.994545
0.999577 0.998178 0.998916
1.00216 1.00351 0.987472
1.00143 1.00308 0.989341
1.00094 1.00317 0.989867
1.00055 1.00276 0.990947
1.0004 1.00309 0.990819
1.00034 1.00229 0.991839
1.00019 1.00306 0.991214
1.0002 1.0019 0.992436
0.999786 0.999558 0.995498
1.00023 1.00142 0.992852
0.999877 0.99916 0.995716
0.999639 0.997792 0.99902
0.999706 0.997602 0.999052
0.999967 0.998906 0.995804
0.999778 0.997399 0.99908
0.996655 0.99639 0.976873
1.00063 0.995266 0.949342
0.999863 0.99501 0.926206
1.00408 1.00226 0.985332
1.00027 1.00403 0.990585
1.00109 1.00324 0.989605
1.00066 1.00384 0.989603
1.00216 1.00365 0.987285
1.0023 1.00164 0.988627
1.00115 1.00377 0.988896
1.00043 1.00159 0.992232
1.00255 1.00077 0.989192
1.0043 0.998137 0.989068
1.00479 0.997784 0.987824
1.00421 0.995993 0.991012
1.00442 0.996995 0.988882
1.00303 0.998532 0.989855
0.999987 0.997943 0.993526
0.995969 0.997263 0.973586
1.00007 0.99651 0.950456
0.996594 0.998153 0.977918
1.00041 0.997415 0.994401
1.00329 0.996067 0.991971
1.00135 0.996663 0.988716
0.996753 0.996002 0.978004
1.00003 0.994977 0.950582
1.00069 0.997974 0.991879
0.998511 0.996749 0.977917
1.00343 0.996299 0.991335
1.00326 0.997037 0.989111
1.00474 0.994918 0.9911
1.00457 0.997172 0.990735
1.00499 0.995462 0.989897
1.0051 0.994902 0.990379
1.00512 0.99488 0.990402
1.00507 0.995243 0.989841
1.00507 0.994962 0.990401
1.00513 0.995229 0.990185
1.00513 0.995398 0.989917
1.00511 0.995604 0.989852
1.00511 0.996446 0.989023
1.0051 0.996126 0.9892
1.00511 0.996937 0.988527
1.00517 0.998271 0.987165
1.00513 0.997543 0.988046
1.00517 0.998806 0.986744
1.00515 0.999559 0.985965
1.00516 0.999633 0.985914
1.00512 0.9998 0.9858
1.00471 0.999942 0.986341
1.00331 1.00078 0.988022
1.00453 1.00034 0.986167
1.00508 1.0003 0.985483
1.00069 1.00131 0.992045
1.00253 1.00197 0.988217
1.00378 1.00172 0.986173
0.99972 0.999437 0.998278
1.00039 1.00124 0.99271
1.00164 1.00288 0.988952
0.999711 0.999029 0.998454
1.00013 1.00091 0.993586
0.999676 0.998639 0.998636
1.00364 1.00246 0.985659
1.0021 1.00355 0.987506
1.00171 1.00342 0.988407
1.00149 1.0031 0.989359
1.00098 1.00314 0.989882
1.00054 1.0027 0.99112
1.00047 1.00306 0.990736
1.00024 1.00242 0.991837
0.999747 1.00004 0.995081
1.00016 1.00192 0.992442
0.999796 0.999496 0.995518
0.999598 0.998008 0.998958
0.999885 0.999124 0.995727
0.99964 0.997772 0.99903
0.999709 0.997588 0.999057
1.00086 0.996714 0.991853
0.99695 0.99575 0.973206
1.00011 0.995149 0.957637
1.00354 1.0009 0.986658
1.00511 0.999342 0.986184
1.00396 1.002 0.985473
1.00085 1.00388 0.989444
1.00202 1.00363 0.987251
1.00264 1.00157 0.988381
1.00507 0.998151 0.987599
1.00283 1.0007 0.989297
1.00429 0.997927 0.988676
1.00476 0.997797 0.988079
1.00501 0.996753 0.988692
1.00443 0.995501 0.991012
1.0042 0.996206 0.990701
1.00453 0.996999 0.988649
1.00014 0.99817 0.993652
0.995913 0.997425 0.971533
1.00064 0.996739 0.996574
1.0043 0.995436 0.99207
1.00106 0.997071 0.988877
0.996967 0.995359 0.975507
1.00344 0.995907 0.991571
1.00319 0.997119 0.989381
1.00478 0.994985 0.99131
1.00466 0.99641 0.990621
1.00514 0.994942 0.990296
1.00515 0.995123 0.990385
1.00511 0.994964 0.990279
1.00511 0.994892 0.990391
1.00519 0.995114 0.990128
1.00507 0.994953 0.990392
1.00512 0.99526 0.990114
1.00511 0.995941 0.989469
1.00512 0.995583 0.98979
1.00511 0.996456 0.989027
1.00517 0.99789 0.987558
1.00511 0.996954 0.988527
1.00517 0.99828 0.98718
1.00516 0.999363 0.986127
1.00517 0.998696 0.986882
1.00514 0.999517 0.98601
1.00477 0.999879 0.986306
1.00512 0.999828 0.98572
1.0047 0.999952 0.986299
1.00357 1.00022 0.988118
1.00106 1.00084 0.991807
1.00328 1.0008 0.988024
1.0045 1.0004 0.986229
0.999771 0.999931 0.998034
1.00076 1.00125 0.992024
1.00247 1.00205 0.988228
0.999772 0.999561 0.998183
1.00051 1.00115 0.992687
0.999763 0.999129 0.998356
1.00481 1.0004 0.985534
1.00364 1.00239 0.98564
1.00284 1.00285 0.986797
1.00204 1.00357 0.987539
1.00163 1.00345 0.988441
1.00093 1.00306 0.990101
1.00101 1.00311 0.989898
1.00044 1.0028 0.991128
0.999844 1.00056 0.99442
1.00017 1.00252 0.991836
0.999751 0.99998 0.995103
0.999584 0.99833 0.998822
0.999806 0.999438 0.995538
0.99959 0.997972 0.998983
0.999642 0.997754 0.999039
1.00446 0.994978 0.991786
1.00101 0.996246 0.990491
0.996552 0.995207 0.973641
1.00512 0.998328 0.987131
1.0038 1.00047 0.986857
1.00514 0.998564 0.986961
1.00508 0.999443 0.986179
1.00385 1.00174 0.985625
1.0051 0.997373 0.98792
1.00296 1.00148 0.988142
1.00505 0.998228 0.98741
1.00513 0.996043 0.989084
1.00474 0.997845 0.988338
1.00495 0.996861 0.98861
1.00441 0.995603 0.991128
1.00402 0.996219 0.990379
1.00012 0.99837 0.993762
1.00512 0.99504 0.990145
1.00431 0.995956 0.992129
1.00082 0.997137 0.989014
1.00479 0.995054 0.991525
1.00468 0.99557 0.990511
1.00512 0.99495 0.990354
1.00515 0.994992 0.990342
1.0052 0.994939 0.990309
1.00511 0.994902 0.99038
1.00519 0.99506 0.99015
1.00515 0.995703 0.989777
1.00511 0.995284 0.990043
1.00512 0.99599 0.989396
1.00516 0.997661 0.987826
1.00511 0.996466 0.989031
1.00517 0.997904 0.987563
1.00518 0.999154 0.986328
1.00516 0.998289 0.987195
1.00516 0.999354 0.986145
1.00482 0.999838 0.986251
1.00514 0.999473 0.986054
1.00476 0.999886 0.986317
1.00367 1.0001 0.988074
1.00469 0.999958 0.986256
1.00356 1.00023 0.988105
1.00116 1.00043 0.993282
1 0.999998 0.99533
1.00111 1.00078 0.992463
1.00325 1.00083 0.988026
0.999832 1.00002 0.997954
1.00088 1.00111 0.992011
0.999826 0.999662 0.99808
1.0052 0.998535 0.986934
1.0051 0.999457 0.986148
1.00482 1.00038 0.985625
1.00407 1.0012 0.986194
1.00364 1.00232 0.985622
1.00283 1.00291 0.986794
1.00172 1.00281 0.988881
1.00155 1.00348 0.988475
1.00085 1.00309 0.990132
1.00011 1.00108 0.993496
1.00035 1.00291 0.991137
0.999799 1.00056 0.994433
0.999581 0.998798 0.998597
0.999754 0.999917 0.995123
0.999562 0.998259 0.998877
0.999586 0.99794 0.999005
1.00514 0.995383 0.989757
1.00468 0.994967 0.991968
1.00142 0.995669 0.989148
1.00512 0.997625 0.987691
1.00509 0.99836 0.987071
1.00407 1.00006 0.987043
1.00513 0.998636 0.986914
1.00506 0.999544 0.986173
1.00511 0.99631 0.98926
1.00509 0.997394 0.987831
1.00505 0.998307 0.987221
1.00513 0.996043 0.989101
1.00494 0.996949 0.988527
1.00447 0.995783 0.991267
1.00518 0.995089 0.990352
1.00513 0.995074 0.990284
1.00436 0.996518 0.992191
1.00513 0.994921 0.990408
1.00517 0.994952 0.990298
1.00521 0.994937 0.990302
1.00513 0.995655 0.989945
1.00519 0.995012 0.990172
1.00516 0.995669 0.989735
1.00512 0.997482 0.988094
1.00513 0.996042 0.989324
1.00516 0.997664 0.98783
1.00519 0.998967 0.98652
1.00517 0.997919 0.987568
1.00517 0.99915 0.986338
1.00488 0.999804 0.986196
1.00515 0.999346 0.986164
1.00482 0.999838 0.986261
1.00375 1.00008 0.987935
1.00476 0.999894 0.986328
1.00367 1.00009 0.988069
1.00125 1.00012 0.99344
1.00356 1.00024 0.988093
1.00129 1.00034 0.99324
0.999978 1.00001 0.995471
0.999864 1.00022 0.996597
1.00126 1.0007 0.993009
0.99987 1.00014 0.99789
1.00517 0.99811 0.987411
1.00515 0.999132 0.986394
1.0052 0.998364 0.987041
1.00468 0.999969 0.986362
1.00511 0.999478 0.986097
1.00483 1.00036 0.985715
1.00411 1.00118 0.986168
1.00275 1.00164 0.988099
1.00281 1.00297 0.98679
1.0017 1.00278 0.988893
1.00047 1.00143 0.992499
1.00075 1.00312 0.990162
0.999968 1.00118 0.993521
0.999588 0.999458 0.998293
0.999746 1.00057 0.994446
0.999553 0.998696 0.998687
0.999551 0.998194 0.998923
1.00514 0.995533 0.989798
1.00515 0.995406 0.989744
1.0048 0.994934 0.992118
1.00514 0.996984 0.988527
1.00511 0.997664 0.987677
1.00505 0.998394 0.987008
1.00513 0.998704 0.986868
1.00512 0.996295 0.989135
1.00507 0.997421 0.98774
1.00512 0.996036 0.989118
1.00518 0.995668 0.989857
1.00518 0.99512 0.990282
1.00516 0.995064 0.990424
1.00511 0.996314 0.989213
1.00521 0.994937 0.990294
1.00513 0.995765 0.989794
1.0051 0.997223 0.988553
1.00517 0.995634 0.989694
1.00511 0.997471 0.9881
1.00518 0.998794 0.986702
1.00516 0.997672 0.987834
1.00518 0.998967 0.986529
1.00494 0.999736 0.986165
1.00517 0.999145 0.986347
1.00488 0.9998 0.986209
1.00383 1.0001 0.987773
1.00483 0.999839 0.986272
1.00376 1.00007 0.987937
1.00134 1.00003 0.993411
1.00367 1.00008 0.988064
1.00136 1.00007 0.993366
1 0.999926 0.995542
1.00142 1.00024 0.993206
0.999748 1.00017 0.995602
0.999523 1.00049 0.998091
1.00516 0.998026 0.987407
1.00516 0.998839 0.986712
1.00517 0.998133 0.98731
1.00478 0.999668 0.986787
1.00515 0.999012 0.986452
1.00521 0.998199 0.987148
1.00347 1.00044 0.987997
1.00468 0.999933 0.986353
1.00512 0.999503 0.986046
1.00415 1.00117 0.986142
1.00279 1.00161 0.988089
1.00086 1.00124 0.99189
1.00168 1.00275 0.988905
1.00032 1.00155 0.99253
0.999641 1.00017 0.997996
0.999855 1.00127 0.993543
0.999544 0.999316 0.998413
0.999532 0.99858 0.998766
1.00516 0.996274 0.989101
1.00514 0.995463 0.989822
1.00515 0.995443 0.98973
1.00513 0.996905 0.988577
1.00511 0.997697 0.987662
1.00511 0.996279 0.989011
1.00513 0.996464 0.989173
1.00517 0.995703 0.989814
1.00518 0.995151 0.990213
1.00511 0.996326 0.989284
1.00512 0.997317 0.988293
1.00513 0.995874 0.989643
1.0051 0.997334 0.98833
1.00518 0.998461 0.987099
1.00511 0.997454 0.988105
1.00518 0.998782 0.986709
1.005 0.999615 0.986179
1.00517 0.998958 0.986538
1.00493 0.999734 0.986177
1.00393 1.00008 0.987609
1.00487 0.999796 0.986221
1.00383 1.00009 0.987779
1.0014 1.00008 0.993237
1.00376 1.00005 0.987938
1.00144 0.999989 0.993314
1.00006 0.999904 0.995477
1.00147 1.00003 0.993302
0.999797 0.999985 0.995696
0.999532 1.00035 0.995715
1.00515 0.997406 0.988137
1.00517 0.998789 0.986667
1.00516 0.997877 0.987557
1.00487 0.999442 0.986734
1.00516 0.998902 0.986644
1.00518 0.998155 0.987209
1.00369 0.999953 0.988139
1.00477 0.999573 0.986671
1.00515 0.998892 0.98651
1.00114 1.00067 0.991898
1.00349 1.00043 0.988
1.00469 0.999898 0.986343
1.00283 1.00158 0.988079
1.00078 1.00134 0.991901
0.999697 1.0006 0.997859
1.00018 1.00166 0.992562
0.999569 1.00001 0.998106
0.999511 0.99915 0.998523
1.00513 0.996602 0.988898
1.00515 0.996271 0.989118
1.00515 0.995393 0.989847
1.00513 0.996828 0.988627
1.00513 0.997414 0.988204
1.00513 0.996448 0.989205
1.00517 0.995737 0.98977
1.0051 0.996341 0.989356
1.00511 0.99725 0.988354
1.00515 0.998379 0.987284
1.0051 0.997445 0.988106
1.00518 0.998588 0.986939
1.00504 0.999341 0.986371
1.00517 0.998779 0.986716
1.00499 0.999615 0.986189
1.00403 1.00002 0.987471
1.00492 0.999736 0.986189
1.00393 1.00007 0.987613
1.00151 1.00013 0.991792
1.00384 1.00007 0.987785
1.0015 1.00005 0.992528
1.00002 0.999946 0.997876
1.00154 0.999965 0.99322
0.99988 0.999896 0.995643
0.999605 1.00005 0.995832
1.00514 0.997265 0.988366
1.00518 0.998533 0.987
1.00515 0.99749 0.988087
1.00497 0.999253 0.986497
1.00518 0.99878 0.986715
1.00516 0.997728 0.987707
1.00381 0.999758 0.987842
1.00487 0.999452 0.986742
1.00516 0.998963 0.986577
1.00127 1.00016 0.992145
1.00369 0.999907 0.988025
1.00476 0.999472 0.986555
0.99974 1.00057 0.997892
1.00112 1.0007 0.991897
1.00351 1.00041 0.988004
1.00069 1.00139 0.991922
0.999665 1.00046 0.997892
0.9995 0.999842 0.998223
1.00513 0.997342 0.988259
1.00513 0.996616 0.988899
1.00514 0.996269 0.989136
1.00516 0.998349 0.987231
1.00513 0.997349 0.988263
1.00513 0.996428 0.989238
1.00511 0.997177 0.988415
1.00515 0.998361 0.987289
1.00502 0.999229 0.986739
1.00518 0.998717 0.98678
1.00504 0.999442 0.986389
1.0041 0.999857 0.987289
1.00499 0.999609 0.986198
1.00403 1.00002 0.987475
1.00158 1.00013 0.991666
1.00393 1.00007 0.987618
1.00152 1.00013 0.991786
1.00004 0.999976 0.997833
1.00152 1.00003 0.991899
0.999945 0.999936 0.996729
0.999699 0.999869 0.995806
1.00513 0.997563 0.988044
1.00517 0.998413 0.987073
1.00514 0.997244 0.988378
1.005 0.999286 0.986478
1.00518 0.998581 0.986918
1.00515 0.997575 0.988037
1.00396 0.999643 0.987681
1.00497 0.999338 0.986566
1.00518 0.998772 0.986763
1.0014 0.999902 0.992176
1.00381 0.999759 0.987818
1.00487 0.999464 0.986751
0.999841 1.00029 0.997941
1.00128 1.00014 0.99215
1.00369 0.999863 0.98791
0.999752 1.0005 0.997865
1.00109 1.00071 0.991896
0.999585 1.00038 0.997954
1.00516 0.998209 0.987402
1.00513 0.99738 0.988199
1.00513 0.996633 0.9889
1.00498 0.999097 0.986931
1.00516 0.99829 0.987314
1.00512 0.997292 0.988321
1.00515 0.998345 0.987294
1.00502 0.999232 0.986737
1.00408 0.999737 0.987436
1.00503 0.999545 0.986407
1.0041 0.999901 0.987354
1.00165 1.00007 0.991606
1.00403 1.00001 0.987479
1.00158 1.00012 0.991663
1.00008 1 0.997769
1.00152 1.00013 0.991779
1.00005 0.999988 0.997806
1.00002 0.999887 0.99542
1.00517 0.99837 0.987161
1.00513 0.997428 0.988139
1.00501 0.99922 0.986566
1.00517 0.99842 0.987068
1.00514 0.997221 0.988391
1.00402 0.999693 0.987803
1.005 0.999289 0.986472
1.00518 0.998627 0.986836
1.00153 0.99985 0.992002
1.00396 0.999694 0.987755
1.00497 0.999427 0.986634
0.999992 1.00005 0.997903
1.0014 0.999894 0.992184
1.00382 0.999755 0.987793
0.999825 1.0003 0.997924
1.00128 1.00014 0.992152
0.999741 1.00048 0.997848
1.00496 0.99906 0.987014
1.00516 0.998256 0.987345
1.00513 0.997421 0.988139
1.004 0.999664 0.987647
1.00498 0.999111 0.986932
1.00516 0.998227 0.987396
1.00502 0.999236 0.986735
1.0041 0.999733 0.987409
1.00165 1.00003 0.991648
1.00409 0.999942 0.987419
1.00164 1.00007 0.991606
1.00013 1.00001 0.997725
1.00159 1.00012 0.991659
1.0001 1.00001 0.997755
1.00007 0.999997 0.997782
1.00499 0.999157 0.986671
1.00517 0.998231 0.987297
1.00513 0.997294 0.988233
1.00401 0.999697 0.987822
1.00499 0.999222 0.986559
1.00517 0.998427 0.987064
1.00159 0.999931 0.991837
1.00401 0.999701 0.987797
1.00499 0.999292 0.986467
1.00009 0.999944 0.997822
1.00153 0.999866 0.992006
1.00396 0.999737 0.98783
0.999943 1.00009 0.997923
1.0014 0.999901 0.992193
0.999832 1.0003 0.997899
1.00397 0.999715 0.987896
1.00495 0.999023 0.98694
1.00516 0.998299 0.987289
1.0016 0.999979 0.991794
1.00402 0.999651 0.987621
1.00498 0.999123 0.986934
1.00411 0.999725 0.987382
1.00165 1.00002 0.991657
1.00016 1.00001 0.997695
1.00163 1.00007 0.991607
1.00014 1.00001 0.997709
1.0001 1.00002 0.997742
1.00398 0.999693 0.987877
1.00498 0.999076 0.98673
1.00517 0.998095 0.987434
1.00166 1 0.992959
1.00401 0.999694 0.98782
1.00498 0.999225 0.986551
1.00012 0.999948 0.997759
1.00159 0.999951 0.99184
1.00401 0.999708 0.987792
1.00006 0.999978 0.997853
1.00152 0.999893 0.992012
0.999915 1.0001 0.997936
1.00161 0.999976 0.991814
1.00397 0.999671 0.987812
1.00495 0.998985 0.986866
1.00012 1 0.997722
1.00159 0.99998 0.991797
1.00404 0.999639 0.987594
1.00164 1.00001 0.991662
1.00015 1.00001 0.9977
1.00015 1.00002 0.997699
1.0017 0.999986 0.992943
1.00399 0.999688 0.987876
1.00497 0.998993 0.986789
0.999822 0.999986 0.998044
1.00159 1 0.991788
1.00402 0.999689 0.987817
1.00011 0.99996 0.997787
1.00159 0.999972 0.991843
1.00003 0.999998 0.997883
1.00008 1 0.995296
1.00163 0.999974 0.992415
1.00398 0.999629 0.987728
1.00012 0.999999 0.997729
1.00159 0.99998 0.991805
1.00015 1.00001 0.997701
0.999777 1 0.995593
1.00163 0.999986 0.992388
1.00399 0.999685 0.987876
0.999954 0.999986 0.996657
1.00159 1 0.991795
1.0001 0.999972 0.997814
1.00009 0.999994 0.997745
1.00155 0.999976 0.991878
1.00009 0.999998 0.997737
0.999933 0.999995 0.996675
1.00158 0.99999 0.991843
1.00011 0.999973 0.997768
1.00009 0.99999 0.997757
1.00008 0.999985 0.997757

TENSORS stress float
0.00161084 -7.57188e-05 0.000153904
-7.57188e-05 0.000582851 -1.9199e-05
0.000153904 -1.9199e-05 0.000562011
0.00495398 -0.000116527 0.000145582
-0.000116527 0.00253619 1.32949e-05
0.000145582 1.32949e-05 0.0025166
0.00146031 -2.0154e-06 7.48326e-05
-2.0154e-06 0.000507271 -6.9903e-06
7.48326e-05 -6.9903e-06 0.000476501
0.00175419 -4.6908e-05 0.000153986
-4.6908e-05 0.000643468 -1.25663e-05
0.000153986 -1.25663e-05 0.000624905
0.00167756 -6.84577e-05 0.000150307
-6.84577e-05 0.000614654 -1.75337e-05
0.000150307 -1.75337e-05 0.000594807
0.00149897 -6.93334e-05 0.000155311
-6.93334e-05 0.00051555 -1.85136e-05
0.000155311 -1.85136e-05 0.000496427
0.00143338 -4.31746e-05 2.01633e-05
-4.31746e-05 0.000414144 -8.16563e-06
2.01633e-05 -8.16563e-06 0.000338731
0.0047642 -0.000131528 6.33291e-06
-0.000131528 0.00242208 -9.20346e-07
6.33291e-06 -9.20346e-07 0.00240554
0.00512187 -6.1946e-06 5.50984e-05
-6.1946e-06 0.00258961 2.68705e-06
5.50984e-05 2.68705e-06 0.00257698
0.00485586 -0.000282323 -5.85846e-06
-0.000282323 0.00250752 4.97627e-06
-5.85846e-06 4.97627e-06 0.0024585
0.00159144 3.63216e-05 0.000139473
3.63216e-05 0.000571338 1.17322e-05
0.000139473 1.17322e-05 0.000560736
0.000721828 0.000146106 1.88302e-05
0.000146106 2.14982e-05 1.21699e-05
1.88302e-05 1.21699e-05 -5.62703e-05
0.0016292 -2.71776e-05 0.000167558
-2.71776e-05 0.00056571 1.96294e-06
0.000167558 1.96294e-06 0.000552262
0.00126737 -2.28403e-05 2.11525e-05
-2.28403e-05 0.000376961 1.2618e-06
2.11525e-05 1.2618e-06 0.000342362
0.00138251 1.67032e-05 -1.93043e-05
1.67032e-05 0.00046222 4.35109e-06
-1.93043e-05 4.35109e-06 0.000428683
0.00150168 -4.59674e-05 5.782e-05
-4.59674e-05 0.00050832 -3.32878e-06
5.782e-05 -3.32878e-06 0.00048266
0.00144124 1.7814e-05 8.09347e-05
1.7814e-05 0.000503882 -6.24043e-06
8.09347e-05 -6.24043e-06 0.000468403
0.00147355 -2.21108e-05 6.62561e-05
-2.21108e-05 0.000502243 -6.70593e-06
6.62561e-05 -6.70593e-06 0.000476852
0.00149567 -8.80364e-05 -2.81643e-05
-8.80364e-05 0.000437444 2.36676e-06
-2.81643e-05 2.36676e-06 0.000371082
0.00524412 -0.000104315 0.000187752
-0.000104315 0.00266447 -4.60324e-06
0.000187752 -4.60324e-06 0.0026629
0.00173793 -3.111e-05 0.000157342
-3.111e-05 0.000630854 -9.51644e-06
0.000157342 -9.51644e-06 0.000612472
0.00174224 -5.97645e-05 0.000151399
-5.97645e-05 0.00064257 -1.52605e-05
0.000151399 -1.52605e-05 0.000623811
0.00146494 -8.31479e-05 3.92996e-05
-8.31479e-05 0.000396756 -5.93918e-06
3.92996e-05 -5.93918e-06 0.000330694
0.00144903 -6.17614e-05 2.87291e-05
-6.17614e-05 0.000402691 -7.1874e-06
2.87291e-05 -7.1874e-06 0.000335433
0.00127976 -3.68818e-05 0.000136267
-3.68818e-05 0.000387861 -1.48764e-05
0.000136267 -1.48764e-05 0.000372767
0.00136676 -2.44061e-05 1.31274e-05
-2.44061e-05 0.0003982 -9.33841e-06
1.31274e-05 -9.33841e-06 0.000313654
0.0020035 -0.000194518 1.18179e-05
-0.000194518 0.000596393 -4.63506e-06
1.18179e-05 -4.63506e-06 0.000471555
0.00459327 -0.000180302 -0.000114227
-0.000180302 0.0023354 -8.35788e-06
-0.000114227 -8.35788e-06 0.00231125
0.00330078 2.87488e-05 -8.86539e-05
2.87488e-05 0.00154847 -5.64251e-06
-8.86539e-05 -5.64251e-06 0.00153009
0.00314549 -8.78896e-05 -8.14145e-05
-8.78896e-05 0.00149214 -2.18355e-06
-8.14145e-05 -2.18355e-06 0.00146164
0.00431144 -0.000147999 8.48959e-06
-0.000147999 0.00216129 -7.43735e-07
8.48959e-06 -7.43735e-07 0.00214657
0.000628881 0.000132289 -1.04693e-06
0.000132289 -2.93477e-05 -4.8782e-07
-1.04693e-06 -4.8782e-07 -0.000104992
0.00153604 4.899e-05 0.000156994
4.899e-05 0.000522638 1.1249e-05
0.000156994 1.1249e-05 0.000504626
0.00171974 0.000108417 0.000159114
0.000108417 0.000643339 1.60898e-05
0.000159114 1.60898e-05 0.000623594
0.00252614 0.000152981 9.69687e-05
0.000152981 0.0010111 1.16494e-05
9.69687e-05 1.16494e-05 0.000953098
0.00342107 -0.000192286 1.02321e-05
-0.000192286 0.00165707 2.42384e-06
1.02321e-05 2.42384e-06 0.00163386
0.00256874 0.00017011 9.3939e-05
0.00017011 0.00106401 1.286e-05
9.3939e-05 1.286e-05 0.00100209
0.000688442 9.48902e-05 1.80717e-05
9.48902e-05 1.15848e-05 1.47886e-05
1.80717e-05 1.47886e-05 -5.53566e-05
0.000942539 0.000155183 8.04752e-06
0.000155183 7.78182e-05 4.24907e-06
8.04752e-06 4.24907e-06 -6.11512e-05
0.0028304 -0.000102531 7.32851e-05
-0.000102531 0.00129537 2.62605e-06
7.32851e-05 2.62605e-06 0.00129838
0.00529605 5.41459e-05 3.99144e-06
5.41459e-05 0.00268376 -1.05233e-06
3.99144e-06 -1.05233e-06 0.00268771
0.00330081 3.82371e-05 -7.21242e-05
3.82371e-05 0.00154043 -2.35955e-06
-7.21242e-05 -2.35955e-06 0.00152469
0.00523847 5.63954e-05 0.000185442
5.63954e-05 0.00265311 1.51353e-06
0.000185442 1.51353e-06 0.00265654
0.00130707 4.12759e-05 2.39853e-05
4.12759e-05 0.000397756 1.51275e-06
2.39853e-05 1.51275e-06 0.000365515
0.000712739 4.58706e-06 1.60981e-05
4.58706e-06 -6.30785e-05 1.74309e-06
1.60981e-05 1.74309e-06 -0.000130353
0.00502675 0.000164271 8.5288e-05
0.000164271 0.00255047 7.00717e-06
8.5288e-05 7.00717e-06 0.00253045
0.00260461 4.28418e-05 9.67937e-05
4.28418e-05 0.00102511 5.58463e-06
9.67937e-05 5.58463e-06 0.000976378
0.00118606 -7.63588e-05 -3.56407e-05
-7.63588e-05 0.000343248 4.78447e-06
-3.56407e-05 4.78447e-06 0.000306474
0.00128578 -3.48309e-05 -3.08049e-05
-3.48309e-05 0.000400546 4.57294e-06
-3.08049e-05 4.57294e-06 0.000369501
0.00145559 8.40872e-05 -6.0769e-06
8.40872e-05 0.000522969 5.66958e-06
-6.0769e-06 5.66958e-06 0.000477643
0.00151419 -0.000104552 -8.33121e-05
-0.000104552 0.000440745 1.20023e-05
-8.33121e-05 1.20023e-05 0.000379969
0.00333408 1.90446e-05 -7.75128e-05
1.90446e-05 0.00156584 -1.30312e-06
-7.75128e-05 -1.30312e-06 0.00154668
0.0015023 -3.6321e-05 6.51886e-05
-3.6321e-05 0.000505482 -2.67183e-06
6.51886e-05 -2.67183e-06 0.000479721
0.00129313 3.09054e-05 7.07788e-05
3.09054e-05 0.000418243 -4.86948e-06
7.07788e-05 -4.86948e-06 0.000387278
0.00149747 -3.72152e-05 6.05151e-05
-3.72152e-05 0.000507044 -5.237e-06
6.05151e-05 -5.237e-06 0.000483256
0.00150944 -7.666e-05 -2.2666e-05
-7.666e-05 0.000417993 7.83793e-07
-2.2666e-05 7.83793e-07 0.000356354
0.00145974 -7.14735e-05 -3.25479e-05
-7.14735e-05 0.00043587 1.75805e-06
-3.25479e-05 1.75805e-06 0.000362739
0.0015043 -9.06374e-05 -2.36222e-05
-9.06374e-05 0.000429768 1.76502e-06
-2.36222e-05 1.76502e-06 0.000367329
0.00199907 -0.0001926 -5.64781e-06
-0.0001926 0.000592715 1.53945e-06
-5.64781e-06 1.53945e-06 0.000468209
0.00519618 5.31371e-05 0.000178489
5.31371e-05 0.00263011 -8.59733e-08
0.000178489 -8.59733e-08 0.00263354
0.00173322 -1.50213e-05 0.000159796
-1.50213e-05 0.000628039 -6.44596e-06
0.000159796 -6.44596e-06 0.000610402
0.00237365 3.74375e-05 2.41793e-05
3.74375e-05 0.000907159 -1.04469e-06
2.41793e-05 -1.04469e-06 0.000850001
0.00146853 -7.00264e-05 3.32198e-05
-7.00264e-05 0.000392078 -4.32703e-06
3.32198e-05 -4.32703e-06 0.000326891
0.00146603 -7.5519e-05 3.55759e-05
-7.5519e-05 0.00040048 -6.50874e-06
3.55759e-05 -6.50874e-06 0.000335728
0.00195473 -0.000118705 1.06988e-05
-0.000118705 0.000519195 -2.48803e-06
1.06988e-05 -2.48803e-06 0.000408669
0.00158576 -0.00015291 1.3808e-05
-0.00015291 0.000334491 -4.75312e-06
1.3808e-05 -4.75312e-06 0.000215039
0.00109686 1.68904e-05 9.87675e-05
1.68904e-05 0.000286446 -1.08385e-05
9.87675e-05 -1.08385e-05 0.000272677
0.000996736 9.48895e-06 8.90127e-06
9.48895e-06 0.000217223 -8.52199e-06
8.90127e-06 -8.52199e-06 0.00014217
0.00192381 -0.000203912 1.06386e-05
-0.000203912 0.000586153 -4.94548e-06
1.06386e-05 -4.94548e-06 0.000452655
0.00123659 -0.000177026 7.34217e-06
-0.000177026 6.83327e-05 -1.9959e-06
7.34217e-06 -1.9959e-06 -8.3151e-05
0.00531854 7.94333e-05 -0.000187022
7.94333e-05 0.00269946 -1.28941e-05
-0.000187022 -1.28941e-05 0.00270039
0.00402785 -0.000163347 -9.98344e-05
-0.000163347 0.00200055 -4.8496e-06
-9.98344e-05 -4.8496e-06 0.00198513
0.00496794 -0.000112215 -0.000144014
-0.000112215 0.00252951 -9.25428e-06
-0.000144014 -9.25428e-06 0.00251737
0.000523905 0.000131372 -1.84558e-05
0.000131372 -8.78745e-05 -1.23781e-05
-1.84558e-05 -1.23781e-05 -0.000161584
0.00534486 0.000118978 -2.75091e-06
0.000118978 0.00271251 -1.5343e-06
-2.75091e-06 -1.5343e-06 0.00271241
0.00533915 4.56138e-06 -8.28966e-06
4.56138e-06 0.00272237 -3.8243e-07
-8.28966e-06 -3.8243e-07 0.00271817
0.000571864 0.000112395 -3.63638e-07
0.000112395 -0.000109325 -2.1336e-07
-3.63638e-07 -2.1336e-07 -0.000184769
0.0022892 -0.000107654 -4.35993e-05
-0.000107654 0.000993263 -3.96639e-07
-4.35993e-05 -3.96639e-07 0.000976047
0.000573959 0.000153601 -1.10693e-06
0.000153601 -7.6934e-05 -2.06916e-07
-1.10693e-06 -2.06916e-07 -0.000155276
0.00136549 7.28952e-05 2.84981e-05
7.28952e-05 0.000410835 3.62858e-07
2.84981e-05 3.62858e-07 0.000352604
0.000900637 0.000148435 4.668e-07
0.000148435 5.1159e-05 -4.11567e-07
4.668e-07 -4.11567e-07 -8.65148e-05
0.00326592 -0.000103954 9.62126e-05
-0.000103954 0.00154564 3.91231e-06
9.62126e-05 3.91231e-06 0.00154708
0.000606652 -6.17743e-05 3.37116e-07
-6.17743e-05 9.87518e-06 6.63989e-06
3.37116e-07 6.63989e-06 -2.60729e-05
0.000687386 8.16333e-05 1.70787e-05
8.16333e-05 -6.1823e-05 7.99696e-06
1.70787e-05 7.99696e-06 -0.000133656
0.000714126 0.000132454 2.1564e-05
0.000132454 -1.62684e-05 1.3101e-05
2.1564e-05 1.3101e-05 -9.57402e-05
0.00102626 0.000129525 1.23214e-05
0.000129525 -6.36632e-07 4.84485e-06
1.23214e-05 4.84485e-06 -0.000128854
0.00205786 9.03025e-06 5.78068e-05
9.03025e-06 0.000822404 7.19042e-06
5.78068e-05 7.19042e-06 0.000781304
0.000970418 0.000153616 9.89064e-06
0.000153616 3.6426e-05 5.18399e-06
9.89064e-06 5.18399e-06 -9.89777e-05
0.000958103 0.000146808 6.83183e-06
0.000146808 0.000148753 4.81001e-06
6.83183e-06 4.81001e-06 1.24329e-05
0.000949282 0.000184724 3.86939e-06
0.000184724 2.4807e-05 4.89077e-07
3.86939e-06 4.89077e-07 -0.00014776
0.00252208 -0.000106611 4.25658e-05
-0.000106611 0.00111561 2.43724e-06
4.25658e-05 2.43724e-06 0.00111775
0.00270152 -0.000119041 5.78866e-06
-0.000119041 0.00122488 -3.69592e-07
5.78866e-06 -3.69592e-07 0.00122353
0.00533295 5.16519e-06 -0.000180377
5.16519e-06 0.0027019 -7.2032e-06
-0.000180377 -7.2032e-06 0.00270457
0.00531572 4.62687e-05 -0.000188281
4.62687e-05 0.00269367 -3.82978e-06
-0.000188281 -3.82978e-06 0.00269814
0.00528343 7.79269e-05 -1.3304e-07
7.79269e-05 0.00268501 -1.84343e-06
-1.3304e-07 -1.84343e-06 0.00268433
0.00329849 1.85659e-06 -8.70561e-05
1.85659e-06 0.00153752 -2.62035e-06
-8.70561e-05 -2.62035e-06 0.0015239
0.00164873 2.43277e-05 4.12171e-05
2.43277e-05 0.000475715 6.25295e-07
4.12171e-05 6.25295e-07 0.000418261
0.00334095 8.00888e-05 -7.30507e-05
8.00888e-05 0.00156459 -3.43983e-06
-7.30507e-05 -3.43983e-06 0.00154742
0.00166958 6.0169e-05 3.98251e-05
6.0169e-05 0.000492612 1.26199e-06
3.98251e-05 1.26199e-06 0.000432585
0.0052563 0.000142413 0.000188792
0.000142413 0.00267973 4.06686e-06
0.000188792 4.06686e-06 0.00267272
0.000644175 4.85709e-06 1.73431e-05
4.85709e-06 -9.99827e-05 3.89879e-07
1.73431e-05 3.89879e-07 -0.000166231
0.00263033 1.3062e-05 9.77435e-05
1.3062e-05 0.00103794 3.66204e-06
9.77435e-05 3.66204e-06 0.000990581
0.00107636 2.96381e-05 1.18907e-05
2.96381e-05 -8.92657e-06 1.25465e-06
1.18907e-05 1.25465e-06 -0.000122718
0.00252409 8.51636e-05 9.71661e-05
8.51636e-05 0.000987778 6.8982e-06
9.71661e-05 6.8982e-06 0.000936578
0.00108622 7.08132e-05 1.16459e-05
7.08132e-05 5.42918e-06 2.44805e-06
1.16459e-05 2.44805e-06 -0.00011354
0.00163389 3.3702e-05 -0.000165364
3.3702e-05 0.000570759 1.16509e-06
-0.000165364 1.16509e-06 0.000557407
0.00125159 7.49219e-06 -2.20826e-05
7.49219e-06 0.000370531 1.6457e-06
-2.20826e-05 1.6457e-06 0.000337555
0.00131232 0.00013081 3.18761e-06
0.00013081 0.000462031 6.91412e-06
3.18761e-06 6.91412e-06 0.00040821
0.00122015 -5.62123e-05 -3.72061e-05
-5.62123e-05 0.000359871 4.82756e-06
-3.72061e-05 4.82756e-06 0.000327534
0.00161496 -5.55477e-05 -8.31904e-05
-5.55477e-05 0.000471304 6.73944e-06
-8.31904e-05 6.73944e-06 0.000415879
0.00155572 -8.9921e-05 -8.18987e-05
-8.9921e-05 0.000453784 1.07277e-05
-8.18987e-05 1.07277e-05 0.000396151
0.00148934 -0.000106705 -8.41695e-05
-0.000106705 0.000442025 1.23943e-05
-8.41695e-05 1.23943e-05 0.000377272
0.00200162 -0.000191528 -2.24776e-05
-0.000191528 0.000593481 7.35015e-06
-2.24776e-05 7.35015e-06 0.000469207
0.00525549 -8.12614e-05 2.10656e-06
-8.12614e-05 0.0026699 -1.21977e-06
2.10656e-06 -1.21977e-06 0.00266884
0.00148531 4.49822e-05 7.44801e-05
4.49822e-05 0.000494938 -2.10789e-06
7.44801e-05 -2.10789e-06 0.00046988
0.00112873 2.64631e-06 -4.38309e-05
2.64631e-06 0.000181943 6.79077e-07
-4.38309e-05 6.79077e-07 0.000123026
0.0015305 -4.12667e-05 -2.69154e-05
-4.12667e-05 0.000422741 1.0879e-06
-2.69154e-05 1.0879e-06 0.000362415
0.00250863 6.32687e-05 0.000100951
6.32687e-05 0.00111398 -1.10023e-06
0.000100951 -1.10023e-06 0.00110354
0.00168469 -3.36905e-05 -2.69066e-05
-3.36905e-05 0.000598642 -8.07552e-07
-2.69066e-05 -8.07552e-07 0.000529413
0.00151449 -8.45605e-05 -2.17854e-05
-8.45605e-05 0.000425793 1.23111e-06
-2.17854e-05 1.23111e-06 0.000364741
0.00179095 -0.000110557 -7.65129e-06
-0.000110557 0.000424086 1.31797e-06
-7.65129e-06 1.31797e-06 0.000312544
0.0019606 -0.000206773 -4.61226e-06
-0.000206773 0.000607744 1.30576e-06
-4.61226e-06 1.30576e-06 0.000473438
0.00181394 -0.00016188 -3.05948e-06
-0.00016188 0.000465071 6.81088e-07
-3.05948e-06 6.81088e-07 0.000346361
0.00126178 -0.000177871 2.25322e-07
-0.000177871 8.27193e-05 3.10661e-09
2.25322e-07 3.10661e-09 -6.86986e-05
0.000679555 1.03152e-05 1.77197e-05
1.03152e-05 -7.99452e-05 -1.16848e-06
1.77197e-05 -1.16848e-06 -0.000143988
0.00145777 1.85465e-05 2.47936e-05
1.85465e-05 0.000381045 -2.49981e-06
2.47936e-05 -2.49981e-06 0.000317798
0.00160925 -2.54549e-05 1.22157e-05
-2.54549e-05 0.000301208 -1.02456e-06
1.22157e-05 -1.02456e-06 0.000195361
0.00160154 -8.62969e-05 1.20289e-05
-8.62969e-05 0.000309497 -2.18567e-06
1.20289e-05 -2.18567e-06 0.000198289
0.00155941 -0.000128755 1.31842e-05
-0.000128755 0.000302339 -3.72777e-06
1.31842e-05 -3.72777e-06 0.000186916
0.00174338 -0.000128907 2.9819e-06
-0.000128907 0.00030061 -6.8826e-07
2.9819e-06 -6.8826e-07 0.000166552
0.00357286 0.000138863 8.96368e-05
0.000138863 0.00172887 -3.03157e-06
8.96368e-05 -3.03157e-06 0.00172124
0.00130167 -0.00016077 6.58278e-06
-0.00016077 8.56005e-05 -1.91285e-06
6.58278e-06 -1.91285e-06 -5.99361e-05
0.000434171 -2.39235e-05 7.95581e-06
-2.39235e-05 -0.000109269 -9.83839e-06
7.95581e-06 -9.83839e-06 -0.00016511
0.000732608 -0.00013811 6.31347e-06
-0.00013811 -2.27775e-05 -5.76504e-06
6.31347e-06 -5.76504e-06 -0.000157838
0.0012682 -0.000200074 8.13107e-06
-0.000200074 0.000122022 -1.70962e-06
8.13107e-06 -1.70962e-06 -4.13664e-05
0.00141747 -0.000200559 4.35181e-06
-0.000200559 0.000108618 -7.28137e-08
4.35181e-06 -7.28137e-08 -5.3164e-05
0.000483458 1.95802e-05 4.07917e-06
1.95802e-05 -7.38717e-05 -8.29996e-06
4.07917e-06 -8.29996e-06 -0.000117972
0.00066632 -3.6968e-06 1.27508e-06
-3.6968e-06 2.25564e-05 -3.91472e-06
1.27508e-06 -3.91472e-06 -6.8318e-05
0.00534942 0.000128574 -0.000197554
0.000128574 0.00271753 -1.37126e-05
-0.000197554 -1.37126e-05 0.00271658
0.00518457 -1.33729e-05 -0.000167689
-1.33729e-05 0.00263315 -1.0855e-05
-0.000167689 -1.0855e-05 0.00263159
0.000570059 0.000104134 -1.70462e-05
0.000104134 -0.000111484 -9.15919e-06
-1.70462e-05 -9.15919e-06 -0.000186852
0.003479 -0.000142005 -8.49564e-05
-0.000142005 0.00167784 -2.93376e-06
-8.49564e-05 -2.93376e-06 0.00167006
0.000463034 5.87325e-05 -1.04545e-05
5.87325e-05 -0.00010456 -1.11839e-05
-1.04545e-05 -1.11839e-05 -0.000165028
0.000515203 0.000140843 -1.87077e-05
0.000140843 -0.000106212 -1.18656e-05
-1.87077e-05 -1.18656e-05 -0.000185459
0.000877588 0.000144398 -8.2259e-06
0.000144398 3.55595e-05 -5.34507e-06
-8.2259e-06 -5.34507e-06 -0.000101219
0.003119 -0.000118938 5.37271e-06
-0.000118938 0.00146565 -2.69497e-07
5.37271e-06 -2.69497e-07 0.00146408
0.000547969 -6.80455e-05 4.37964e-07
-6.80455e-05 -2.19601e-05 2.71213e-07
4.37964e-07 2.71213e-07 -5.81882e-05
0.00161666 0.000103078 3.9263e-05
0.000103078 0.000474459 2.08686e-06
3.9263e-05 2.08686e-06 0.000410685
0.0015494 0.000145418 3.73409e-05
0.000145418 0.000466109 1.69791e-06
3.73409e-05 1.69791e-06 0.000395924
0.00103534 0.000131975 1.47004e-07
0.000131975 5.56674e-06 -1.2623e-07
1.47004e-07 -1.2623e-07 -0.00012326
0.000625307 9.58796e-06 -5.90278e-07
9.58796e-06 8.28312e-07 1.26276e-07
-5.90278e-07 1.26276e-07 -4.83793e-05
0.000968231 0.000153357 5.25241e-07
0.000153357 3.59845e-05 2.08273e-07
5.25241e-07 2.08273e-07 -9.94223e-05
0.000850043 0.000133234 1.94851e-07
0.000133234 8.60848e-05 -3.60281e-07
1.94851e-07 -3.60281e-07 -4.78252e-05
0.000953422 0.000185509 1.13142e-07
0.000185509 2.48737e-05 -1.84679e-07
1.13142e-07 -1.84679e-07 -0.000147927
0.000634127 -2.23928e-05 5.49841e-06
-2.23928e-05 1.77837e-05 7.68086e-06
5.49841e-06 7.68086e-06 -2.39963e-05
0.000614931 -7.05729e-05 -1.81752e-06
-7.05729e-05 8.78273e-06 5.6e-06
-1.81752e-06 5.6e-06 -2.06885e-05
0.000694404 2.29566e-05 2.46309e-06
2.29566e-05 5.13592e-05 3.74142e-06
2.46309e-06 3.74142e-06 -3.40147e-05
0.00106263 0.000109887 1.20836e-05
0.000109887 5.55334e-06 4.03276e-06
1.20836e-05 4.03276e-06 -0.000119182
0.000993578 0.000145899 1.16328e-05
0.000145899 9.52462e-06 5.18203e-06
1.16328e-05 5.18203e-06 -0.000122795
0.00133141 0.00016969 6.64344e-06
0.00016969 8.65313e-05 1.70543e-06
6.64344e-06 1.70543e-06 -6.88232e-05
0.000918021 0.000120579 5.3863e-06
0.000120579 0.000162096 4.68035e-06
5.3863e-06 4.68035e-06 3.91534e-05
0.000928609 0.000176707 4.54595e-06
0.000176707 -6.32482e-05 1.69899e-06
4.54595e-06 1.69899e-06 -0.000226141
0.00100343 0.000185602 3.06925e-06
0.000185602 0.000138418 1.60661e-06
3.06925e-06 1.60661e-06 -3.95865e-05
0.00132725 0.000228199 -1.4557e-06
0.000228199 0.000203004 -3.23598e-07
-1.4557e-06 -3.23598e-07 1.83414e-05
0.00235817 -9.49014e-05 3.40537e-05
-9.49014e-05 0.00101402 2.84726e-06
3.40537e-05 2.84726e-06 0.0010192
0.00243768 -0.000106159 2.62242e-06
-0.000106159 0.00106746 -2.66282e-07
2.62242e-06 -2.66282e-07 0.00106948
0.00257188 -0.000119267 -4.06241e-05
-0.000119267 0.0011519 -2.39698e-06
-4.06241e-05 -2.39698e-06 0.00115012
0.000498906 3.14121e-05 2.89484e-06
3.14121e-05 -6.37377e-05 -7.26395e-06
2.89484e-06 -7.26395e-06 -0.000102891
0.00332256 0.000127833 7.68735e-05
0.000127833 0.00158002 -2.87546e-06
7.68735e-05 -2.87546e-06 0.00157563
0.0053504 0.000145905 -0.000200037
0.000145905 0.00272161 -1.28745e-05
-0.000200037 -1.28745e-05 0.00271854
0.0052934 3.87945e-05 -0.000183702
3.87945e-05 0.00267917 -5.51873e-06
-0.000183702 -5.51873e-06 0.00268365
0.000672752 6.99998e-05 -1.80126e-05
6.99998e-05 -7.79436e-05 -4.36e-06
-1.80126e-05 -4.36e-06 -0.000147168
0.000656611 2.99701e-05 -1.79928e-05
2.99701e-05 -9.03505e-05 -2.10431e-06
-1.79928e-05 -2.10431e-06 -0.000158408
0.00524484 -3.07487e-05 -0.000180108
-3.07487e-05 0.00265473 -8.49273e-07
-0.000180108 -8.49273e-07 0.00265943
0.00522507 1.7265e-05 -6.35128e-07
1.7265e-05 0.00264465 1.10867e-07
-6.35128e-07 1.10867e-07 0.00264883
0.000637802 -9.03109e-07 -1.2463e-07
-9.03109e-07 -0.000104638 -1.76823e-07
-1.2463e-07 -1.76823e-07 -0.00017009
0.00163361 2.43612e-05 4.08345e-05
2.43612e-05 0.000468166 1.11234e-06
4.08345e-05 1.11234e-06 0.000410639
0.00108267 3.38353e-05 9.54505e-08
3.38353e-05 -5.23039e-06 -1.26809e-07
9.54505e-08 -1.26809e-07 -0.000119255
0.000646398 6.2204e-05 -2.50753e-07
6.2204e-05 -8.88251e-05 -2.08918e-07
-2.50753e-07 -2.08918e-07 -0.000158911
0.00108 7.3304e-05 -4.62531e-08
7.3304e-05 2.25492e-06 -1.65506e-07
-4.62531e-08 -1.65506e-07 -0.000117147
0.000626993 -2.0809e-05 1.76769e-05
-2.0809e-05 -0.000111518 -5.77719e-07
1.76769e-05 -5.77719e-07 -0.000175524
0.00107734 1.30001e-05 1.17363e-05
1.30001e-05 -9.57035e-06 4.19973e-07
1.17363e-05 4.19973e-07 -0.000121904
0.00107533 5.07379e-05 1.18083e-05
5.07379e-05 -5.74278e-06 1.855e-06
1.18083e-05 1.855e-06 -0.000121854
0.00140609 4.466e-05 3.86275e-06
4.466e-05 6.34881e-05 3.20843e-07
3.86275e-06 3.20843e-07 -6.29327e-05
0.00108005 8.94852e-05 1.17041e-05
8.94852e-05 7.35209e-06 3.18379e-06
1.17041e-05 3.18379e-06 -0.000114394
0.00140276 9.28613e-05 4.00407e-06
9.28613e-05 8.00642e-05 5.75233e-07
4.00407e-06 5.75233e-07 -5.54752e-05
0.00521845 -4.48249e-05 -0.000186993
-4.48249e-05 0.00264318 -2.41914e-07
-0.000186993 -2.41914e-07 0.00264587
0.00127069 -0.000102513 -2.34571e-05
-0.000102513 0.000385907 2.57243e-06
-2.34571e-05 2.57243e-06 0.000350319
-0.000206937 -7.48151e-07 -1.33375e-05
-7.48151e-07 -0.000584423 2.07322e-06
-1.33375e-05 2.07322e-06 -0.000658739
0.00160677 -3.78347e-05 -8.43792e-05
-3.78347e-05 0.000462262 4.96708e-06
-8.43792e-05 4.96708e-06 0.000406595
0.00376197 0.000229138 -8.1829e-06
0.000229138 0.00187036 2.92055e-06
-8.1829e-06 2.92055e-06 0.00183548
0.00236842 -0.000114926 -7.62477e-05
-0.000114926 0.000970424 1.1554e-05
-7.62477e-05 1.1554e-05 0.000911724
0.00159776 -7.37495e-05 -8.22907e-05
-7.37495e-05 0.00046772 8.80656e-06
-8.22907e-05 8.80656e-06 0.000411902
0.00160154 -0.000101794 -2.39958e-05
-0.000101794 0.000314091 4.56841e-06
-2.39958e-05 4.56841e-06 0.0002017
0.00203059 -0.000170398 -2.11744e-05
-0.000170398 0.00058931 6.30612e-06
-2.11744e-05 6.30612e-06 0.00047147
0.00203745 -0.000211919 -1.99973e-05
-0.000211919 0.000652723 7.542e-06
-1.99973e-05 7.542e-06 0.000517252
0.00127653 -0.000178123 -6.413e-06
-0.000178123 9.1427e-05 1.79164e-06
-6.413e-06 1.79164e-06 -5.98967e-05
0.000632364 8.63793e-06 -3.17157e-08
8.63793e-06 -0.000105812 -8.09041e-08
-3.17157e-08 -8.09041e-08 -0.000170368
0.00155487 -5.15052e-05 -2.71702e-05
-5.15052e-05 0.000434036 2.92333e-07
-2.71702e-05 2.92333e-07 0.000374178
0.00117909 -2.18109e-05 -5.63291e-06
-2.18109e-05 5.48448e-05 2.60454e-07
-5.63291e-06 2.60454e-07 -5.49817e-05
0.00181803 -8.88502e-05 -4.01473e-06
-8.88502e-05 0.000431455 5.7494e-07
-4.01473e-06 5.7494e-07 0.000321892
0.00363679 0.000131337 -2.9764e-06
0.000131337 0.00176481 -4.66738e-07
-2.9764e-06 -4.66738e-07 0.00175842
0.00133386 -3.02942e-05 8.34693e-07
-3.02942e-05 0.000407293 5.64897e-07
8.34693e-07 5.64897e-07 0.000346932
0.00129291 -0.000168326 5.28301e-07
-0.000168326 0.000299785 -1.15485e-06
5.28301e-07 -1.15485e-06 0.000164159
0.00158223 -0.000128152 -4.35553e-06
-0.000128152 0.000315173 8.78257e-07
-4.35553e-06 8.78257e-07 0.000199791
0.00148176 -0.000120425 -2.61326e-06
-0.000120425 0.000149533 5.69542e-07
-2.61326e-06 5.69542e-07 1.47481e-05
0.00107865 -0.000187303 1.16184e-07
-0.000187303 1.38941e-05 1.97495e-07
1.16184e-07 1.97495e-07 -0.00014938
0.00153547 -0.000170134 2.37286e-07
-0.000170134 0.000218548 -1.58402e-07
2.37286e-07 -1.58402e-07 7.39694e-05
0.00141588 -0.000200217 4.67132e-07
-0.000200217 0.000109213 2.07086e-08
4.67132e-07 2.07086e-08 -5.21934e-05
0.000533693 1.41612e-05 -6.84612e-07
1.41612e-05 -4.65092e-05 1.06069e-07
-6.84612e-07 1.06069e-07 -9.07052e-05
0.000666813 -1.8543e-05 -4.30816e-07
-1.8543e-05 2.19205e-05 9.30478e-09
-4.30816e-07 9.30478e-09 -7.0109e-05
0.0010694 -1.0575e-05 1.16203e-05
-1.0575e-05 -1.11596e-05 -8.89861e-07
1.16203e-05 -8.89861e-07 -0.000122321
0.00162111 -5.10144e-05 1.17703e-05
-5.10144e-05 0.000311605 -1.54066e-06
1.17703e-05 -1.54066e-06 0.000203627
0.00172481 -3.5777e-05 2.67442e-06
-3.5777e-05 0.000258202 -1.22063e-07
2.67442e-06 -1.22063e-07 0.000136626
0.00129771 -9.26907e-05 4.90295e-06
-9.26907e-05 3.33314e-05 -6.37865e-07
4.90295e-06 -6.37865e-07 -9.83635e-05
0.00162388 -0.000155117 4.81472e-06
-0.000155117 0.00025084 -1.04981e-06
4.81472e-06 -1.04981e-06 0.000112024
0.00165832 -0.000141203 -3.1997e-07
-0.000141203 0.000169463 5.43787e-07
-3.1997e-07 5.43787e-07 3.61179e-05
0.00044056 -4.3622e-06 6.46161e-06
-4.3622e-06 -0.000102205 -8.98747e-06
6.46161e-06 -8.98747e-06 -0.00015112
0.00145827 -0.000184113 2.71678e-06
-0.000184113 0.00010902 5.79452e-08
2.71678e-06 5.79452e-08 -4.21201e-05
0.000628811 -0.000107287 3.98746e-06
-0.000107287 -2.16404e-05 -4.06363e-06
3.98746e-06 -4.06363e-06 -0.00014564
0.000938265 -0.000189357 7.59254e-06
-0.000189357 1.59405e-05 -4.61006e-06
7.59254e-06 -4.61006e-06 -0.000161579
0.00181128 -0.000251417 3.91211e-06
-0.000251417 0.000368292 3.60147e-07
3.91211e-06 3.60147e-07 0.000188546
0.00173114 -0.000230987 -4.25622e-07
-0.000230987 0.000233595 2.85391e-06
-4.25622e-07 2.85391e-06 7.31973e-05
0.000739086 -5.68304e-05 2.80134e-06
-5.68304e-05 6.39427e-05 -3.52466e-06
2.80134e-06 -3.52466e-06 -4.10901e-05
0.000619325 2.14059e-06 1.21203e-06
2.14059e-06 -2.54786e-07 -3.4434e-06
1.21203e-06 -3.4434e-06 -8.15105e-05
0.000896799 -9.83989e-05 1.36224e-06
-9.83989e-05 0.000159086 -7.00306e-07
1.36224e-06 -7.00306e-07 2.64504e-05
0.000607929 8.30193e-05 -1.65234e-05
8.30193e-05 -0.000102915 -7.11486e-06
-1.65234e-05 -7.11486e-06 -0.000175097
0.00297364 -0.000135567 -5.60681e-05
-0.000135567 0.00138614 -2.12694e-06
-5.60681e-05 -2.12694e-06 0.00138039
0.000477901 -7.52881e-05 1.77868e-06
-7.52881e-05 -5.88979e-05 -6.1806e-06
1.77868e-06 -6.1806e-06 -9.641e-05
0.00052766 0.000126548 -1.78275e-05
0.000126548 -0.000116508 -1.10573e-05
-1.78275e-05 -1.10573e-05 -0.000195071
0.00104263 0.000134633 -1.27305e-05
0.000134633 1.07062e-05 -5.08766e-06
-1.27305e-05 -5.08766e-06 -0.000118753
0.000441515 1.01449e-06 -6.3873e-06
1.01449e-06 -0.000101321 -9.2173e-06
-6.3873e-06 -9.2173e-06 -0.000149879
0.000714685 0.00011771 -5.11724e-06
0.00011771 8.23321e-06 -5.22624e-06
-5.11724e-06 -5.22624e-06 -0.000123041
0.000955745 0.000152171 -9.55914e-06
0.000152171 2.97608e-05 -4.92325e-06
-9.55914e-06 -4.92325e-06 -0.00010552
0.000894533 0.00018168 -5.06196e-06
0.00018168 -1.11499e-05 -1.98356e-06
-5.06196e-06 -1.98356e-06 -0.000183492
0.000541701 -3.31823e-05 1.34623e-06
-3.31823e-05 -3.32144e-05 3.27689e-07
1.34623e-06 3.27689e-07 -7.47773e-05
0.000570537 -7.03893e-05 -2.41409e-07
-7.03893e-05 -1.71412e-05 1.83898e-07
-2.41409e-07 1.83898e-07 -4.6212e-05
0.000640714 -1.49465e-05 4.48047e-07
-1.49465e-05 1.64862e-05 3.75884e-07
4.48047e-07 3.75884e-07 -6.30269e-05
0.00106101 0.000111997 5.51736e-08
0.000111997 5.70877e-06 -2.21423e-07
5.51736e-08 -2.21423e-07 -0.000119667
0.00100725 0.000147888 4.17109e-07
0.000147888 1.82864e-05 -2.41069e-07
4.17109e-07 -2.41069e-07 -0.000114387
0.00131396 0.000168572 1.6467e-07
0.000168572 7.93678e-05 2.0133e-08
1.6467e-07 2.0133e-08 -7.60364e-05
0.000794422 0.000106458 -1.41173e-07
0.000106458 9.33371e-05 1.82984e-07
-1.41173e-07 1.82984e-07 -2.76091e-05
0.0011001 0.000188337 -2.84966e-07
0.000188337 3.61052e-05 -2.26611e-07
-2.84966e-07 -2.26611e-07 -0.000128106
0.00109231 0.000190997 6.31792e-07
0.000190997 0.000190977 -6.78069e-07
6.31792e-07 -6.78069e-07 1.29126e-05
0.00122745 0.000224055 -3.98782e-07
0.000224055 0.000140471 9.38282e-07
-3.98782e-07 9.38282e-07 -4.36223e-05
0.000612467 -6.08613e-05 2.02689e-07
-6.08613e-05 -6.10736e-06 4.48023e-06
2.02689e-07 4.48023e-06 -2.8776e-05
0.000738842 6.67328e-05 3.60606e-06
6.67328e-05 6.96924e-05 3.47172e-06
3.60606e-06 3.47172e-06 -3.24228e-05
0.000667156 -2.83351e-05 5.4847e-07
-2.83351e-05 2.52221e-05 3.08758e-06
5.4847e-07 3.08758e-06 -3.66824e-05
0.000848946 6.69038e-05 6.28631e-07
6.69038e-05 0.000151818 1.2008e-06
6.28631e-07 1.2008e-06 2.78622e-05
0.00136247 0.000144765 6.08373e-06
0.000144765 7.95781e-05 1.22989e-06
6.08373e-06 1.22989e-06 -6.85529e-05
0.00129656 0.000188813 6.86602e-06
0.000188813 0.000101707 2.31062e-06
6.86602e-06 2.31062e-06 -5.93362e-05
0.00152179 0.000207481 1.9918e-06
0.000207481 0.000126062 1.43736e-07
1.9918e-06 1.43736e-07 -3.89381e-05
0.0010328 0.000158571 2.59382e-06
0.000158571 0.000208149 3.17657e-06
2.59382e-06 3.17657e-06 4.79594e-05
0.0011911 0.000213473 6.71219e-07
0.000213473 3.11156e-05 1.71454e-06
6.71219e-07 1.71454e-06 -0.00014179
0.00100358 0.000202453 1.44994e-07
0.000202453 0.000113852 -5.50027e-07
1.44994e-07 -5.50027e-07 -9.09221e-05
0.00151577 0.000249609 7.7368e-07
0.000249609 0.000241441 5.87346e-07
7.7368e-07 5.87346e-07 5.41704e-05
0.000678492 -1.52764e-05 1.73822e-06
-1.52764e-05 8.67608e-06 1.96475e-06
1.73822e-06 1.96475e-06 -3.37831e-05
0.000610595 -4.37591e-05 8.47172e-07
-4.37591e-05 -2.73803e-05 4.0529e-06
8.47172e-07 4.0529e-06 -4.26528e-05
0.00226827 -8.29324e-05 2.9052e-05
-8.29324e-05 0.000953433 3.26729e-06
2.9052e-05 3.26729e-06 0.000961709
0.0023033 -9.31722e-05 2.27913e-06
-9.31722e-05 0.000981723 -2.15327e-07
2.27913e-06 -2.15327e-07 0.000987274
0.00235621 -0.000103819 -3.55291e-05
-0.000103819 0.00102046 -2.6641e-06
-3.55291e-05 -2.6641e-06 0.00102293
0.000520987 3.58025e-05 2.0918e-06
3.58025e-05 -5.42326e-05 -6.27111e-06
2.0918e-06 -6.27111e-06 -8.76225e-05
0.00305998 0.000118781 6.23044e-05
0.000118781 0.00142546 -2.9236e-06
6.23044e-05 -2.9236e-06 0.00142339
0.000549587 2.91364e-05 -2.80328e-07
2.91364e-05 -3.56308e-05 1.27966e-07
-2.80328e-07 1.27966e-07 -7.49198e-05
0.00338923 0.000120327 -2.4837e-06
0.000120327 0.00161668 -3.22576e-07
-2.4837e-06 -3.22576e-07 0.00161395
0.000664971 8.18306e-05 -1.78097e-05
8.18306e-05 -7.67129e-05 -5.66415e-06
-1.78097e-05 -5.66415e-06 -0.000148007
0.00066429 3.08819e-05 -1.74928e-05
3.08819e-05 -8.63822e-05 -3.09649e-06
-1.74928e-05 -3.09649e-06 -0.000154198
0.0010791 7.52084e-05 -1.15049e-05
7.52084e-05 1.93094e-06 -2.7598e-06
-1.15049e-05 -2.7598e-06 -0.000117815
0.00108279 3.60594e-05 -1.19779e-05
3.60594e-05 -5.05065e-06 -1.49243e-06
-1.19779e-05 -1.49243e-06 -0.000119211
0.000676274 -4.04443e-06 -1.79887e-05
-4.04443e-06 -8.55089e-05 -8.63267e-07
-1.79887e-05 -8.63267e-07 -0.000149432
0.0052729 -9.63426e-05 -0.000194906
-9.63426e-05 0.00267922 2.60408e-06
-0.000194906 2.60408e-06 0.0026791
0.000659918 -7.97163e-07 1.3597e-07
-7.97163e-07 -9.38815e-05 -3.06739e-07
1.3597e-07 -3.06739e-07 -0.000157577
0.00108236 1.75964e-05 -1.76005e-08
1.75964e-05 -6.57004e-06 -1.71426e-07
-1.76005e-08 -1.71426e-07 -0.000119012
0.00108127 5.23197e-05 -1.38637e-08
5.23197e-05 -2.06984e-06 -1.33729e-07
-1.38637e-08 -1.33729e-07 -0.000118422
0.00139325 4.39316e-05 -5.84754e-08
4.39316e-05 5.74282e-05 4.19601e-09
-5.84754e-08 4.19601e-09 -6.9074e-05
0.0010715 9.20717e-05 -3.91199e-08
9.20717e-05 3.44668e-06 -1.84354e-07
-3.91199e-08 -1.84354e-07 -0.000118984
0.00138648 9.46006e-05 -4.21833e-08
9.46006e-05 7.09289e-05 -7.42149e-08
-4.21833e-08 -7.42149e-08 -6.50953e-05
0.00108263 -2.76481e-07 1.16765e-05
-2.76481e-07 -4.8688e-06 -2.06357e-07
1.16765e-05 -2.06357e-07 -0.000116327
0.00140391 2.55954e-05 3.70676e-06
2.55954e-05 5.98297e-05 9.91585e-08
3.70676e-06 9.91585e-08 -6.40661e-05
0.00141019 7.00441e-05 4.00771e-06
7.00441e-05 7.46794e-05 3.84259e-07
4.00771e-06 3.84259e-07 -5.59327e-05
0.00163975 6.35716e-05 -6.38014e-07
6.35716e-05 8.63481e-05 -2.87202e-07
-6.38014e-07 -2.87202e-07 -2.94418e-05
0.00139923 0.000119594 4.40197e-06
0.000119594 8.53633e-05 8.4103e-07
4.40197e-06 8.4103e-07 -5.6121e-05
0.00159944 0.000117069 -3.33593e-07
0.000117069 9.32114e-05 -8.04883e-07
-3.33593e-07 -8.04883e-07 -3.62426e-05
0.000643744 6.81164e-06 -1.71001e-05
6.81164e-06 -9.88114e-05 8.35315e-07
-1.71001e-05 8.35315e-07 -0.000164122
0.00161859 -1.74877e-05 -8.52e-05
-1.74877e-05 0.000465521 3.25163e-06
-8.52e-05 3.25163e-06 0.000410571
0.000731794 -1.68471e-05 -1.30918e-05
-1.68471e-05 -0.000201179 1.56356e-06
-1.30918e-05 1.56356e-06 -0.000315081
0.00202818 -9.0244e-05 -2.11526e-05
-9.0244e-05 0.000549533 3.25898e-06
-2.11526e-05 3.25898e-06 0.000441765
0.00371651 0.000116373 -0.000108394
0.000116373 0.00180827 4.47723e-06
-0.000108394 4.47723e-06 0.00180434
0.00225399 -5.37273e-05 -6.41032e-05
-5.37273e-05 0.000927137 8.45708e-06
-6.41032e-05 8.45708e-06 0.000876041
0.00196241 -0.00020851 -1.48537e-05
-0.00020851 0.000681959 6.35857e-06
-1.48537e-05 6.35857e-06 0.00054449
0.0015874 -0.000126651 -2.14914e-05
-0.000126651 0.000317688 5.22918e-06
-2.14914e-05 5.22918e-06 0.000202569
0.0012179 -0.000111746 -6.71773e-06
-0.000111746 -2.8499e-06 1.38377e-06
-6.71773e-06 1.38377e-06 -0.000138335
0.00177772 -0.000180065 -7.54227e-06
-0.000180065 0.000356151 1.90983e-06
-7.54227e-06 1.90983e-06 0.000212475
0.000856899 -0.000172096 -6.95654e-06
-0.000172096 -0.000112804 1.36059e-06
-6.95654e-06 1.36059e-06 -0.000275565
0.00143292 -0.000201215 -2.8363e-06
-0.000201215 0.000119608 -1.4604e-07
-2.8363e-06 -1.4604e-07 -4.15762e-05
0.000596335 5.48063e-06 -6.27722e-06
5.48063e-06 -1.14951e-05 8.09039e-06
-6.27722e-06 8.09039e-06 -5.62127e-05
0.000692836 -3.54807e-05 -2.65727e-06
-3.54807e-05 3.71603e-05 3.24216e-06
-2.65727e-06 3.24216e-06 -5.70273e-05
0.000905116 -6.21408e-06 -4.02353e-07
-6.21408e-06 -0.000104642 -1.18203e-07
-4.02353e-07 -1.18203e-07 -0.000216938
0.00162756 -5.20804e-05 -4.65912e-06
-5.20804e-05 0.000314276 4.64848e-07
-4.65912e-06 4.64848e-07 0.000206304
0.00171153 -3.23078e-05 -2.38124e-06
-3.23078e-05 0.000247544 2.67464e-07
-2.38124e-06 2.67464e-07 0.000127034
0.00152401 -9.66867e-05 5.56692e-07
-9.66867e-05 0.000162094 -9.64551e-08
5.56692e-07 -9.64551e-08 3.13237e-05
0.000552893 -1.47459e-05 1.25455e-07
-1.47459e-05 -4.07933e-05 2.20662e-07
1.25455e-07 2.20662e-07 -9.02913e-05
0.000839323 -0.000128912 -9.01652e-08
-0.000128912 9.60641e-05 3.7267e-07
-9.01652e-08 3.7267e-07 -3.11541e-05
0.000948202 -0.000189496 1.79454e-06
-0.000189496 2.491e-05 -1.7862e-06
1.79454e-06 -1.7862e-06 -0.000151671
0.00169494 -0.000155899 -1.91266e-06
-0.000155899 0.00029009 4.75338e-07
-1.91266e-06 4.75338e-07 0.000151269
0.00164473 -0.000140348 -1.94057e-07
-0.000140348 0.000156708 2.46969e-07
-1.94057e-07 2.46969e-07 2.55069e-05
0.00165654 -0.000241818 -2.0246e-06
-0.000241818 0.000277277 2.91032e-07
-2.0246e-06 2.91032e-07 9.73288e-05
0.00145403 -0.000184202 3.04329e-07
-0.000184202 0.000105464 -7.68154e-08
3.04329e-07 -7.68154e-08 -4.54813e-05
0.00169041 -0.000230179 6.30762e-07
-0.000230179 0.000207354 4.40936e-07
6.30762e-07 4.40936e-07 4.69145e-05
0.000730438 -6.48691e-05 -2.43181e-07
-6.48691e-05 5.87831e-05 -1.79284e-07
-2.43181e-07 -1.79284e-07 -4.71366e-05
0.000704841 -6.41269e-05 -6.41444e-07
-6.41269e-05 4.35056e-05 -5.38712e-07
-6.41444e-07 -5.38712e-07 -8.11924e-05
0.000666246 -7.35046e-06 2.35775e-07
-7.35046e-06 2.47347e-05 2.06125e-07
2.35775e-07 2.06125e-07 -5.67686e-05
0.00171658 -1.17015e-05 2.33325e-06
-1.17015e-05 0.000245814 -8.70561e-08
2.33325e-06 -8.70561e-08 0.000125625
0.00168242 -6.23184e-05 2.85068e-06
-6.23184e-05 0.000235054 4.39212e-08
2.85068e-06 4.39212e-08 0.000111344
0.00165102 -4.56088e-05 -7.51041e-07
-4.56088e-05 0.000106908 7.3513e-07
-7.51041e-07 7.3513e-07 -7.91074e-06
0.00158035 -0.000114587 -1.12859e-06
-0.000114587 9.81455e-05 8.29019e-07
-1.12859e-06 8.29019e-07 -2.86421e-05
0.00146991 -0.000164705 1.44268e-06
-0.000164705 8.66703e-05 9.40826e-07
1.44268e-06 9.40826e-07 -5.3314e-05
0.00169295 -0.000159415 -2.2012e-06
-0.000159415 0.000113017 1.49343e-06
-2.2012e-06 1.49343e-06 -1.94864e-06
0.000699535 -8.87434e-05 3.60845e-06
-8.87434e-05 3.90662e-05 -2.88488e-06
3.60845e-06 -2.88488e-06 -7.52537e-05
0.0015754 -0.000214791 -9.72405e-07
-0.000214791 0.000107856 1.85949e-06
-9.72405e-07 1.85949e-06 -3.70965e-05
0.000969841 -0.000178162 1.86349e-06
-0.000178162 0.000135807 -3.31045e-06
1.86349e-06 -3.31045e-06 -3.00815e-05
0.00133204 -0.000243809 5.18307e-06
-0.000243809 0.00016201 -4.00174e-06
5.18307e-06 -4.00174e-06 -4.40413e-05
0.00187442 -0.000268224 1.25189e-06
-0.000268224 0.000353492 2.8331e-06
1.25189e-06 2.8331e-06 0.000166006
0.00187693 -0.00026189 -3.38846e-06
-0.00026189 0.000261194 3.88306e-06
-3.38846e-06 3.88306e-06 0.000109064
0.000627406 -4.52647e-06 1.30777e-06
-4.52647e-06 1.53488e-06 -3.02006e-06
1.30777e-06 -3.02006e-06 -6.98395e-05
0.000796856 -0.000110432 2.20341e-06
-0.000110432 8.16135e-05 6.64984e-07
2.20341e-06 6.64984e-07 -4.76329e-05
0.000592217 -4.20456e-05 1.30296e-06
-4.20456e-05 -1.31977e-06 -2.09689e-06
1.30296e-06 -2.09689e-06 -0.000123964
0.00114759 -0.00016662 -1.14534e-07
-0.00016662 0.000296777 2.08205e-06
-1.14534e-07 2.08205e-06 0.000148182
0.00105167 0.000114048 -1.25343e-05
0.000114048 1.48952e-06 -4.42394e-06
-1.25343e-05 -4.42394e-06 -0.000124525
0.000530263 -6.4635e-05 -3.56492e-07
-6.4635e-05 -4.26881e-05 -4.74591e-06
-3.56492e-07 -4.74591e-06 -7.00679e-05
0.000461948 -5.09213e-05 3.99013e-07
-5.09213e-05 -7.4042e-05 -7.92396e-06
3.99013e-07 -7.92396e-06 -0.000116887
0.000627905 -4.65945e-05 1.25215e-06
-4.65945e-05 1.32176e-05 -3.75296e-06
1.25215e-06 -3.75296e-06 -6.65856e-05
0.00102101 0.000150234 -1.11829e-05
0.000150234 2.72213e-05 -5.64928e-06
-1.11829e-05 -5.64928e-06 -0.000105907
0.00128431 0.000166804 -6.37332e-06
0.000166804 6.51914e-05 -1.68376e-06
-6.37332e-06 -1.68376e-06 -9.0237e-05
0.000675646 9.04463e-05 -3.39499e-06
9.04463e-05 2.72804e-05 -3.61476e-06
-3.39499e-06 -3.61476e-06 -9.13768e-05
0.00116402 0.000195139 -4.26671e-06
0.000195139 0.00023352 -3.91045e-06
-4.26671e-06 -3.91045e-06 5.50295e-05
0.00135153 0.00020514 -5.28592e-06
0.00020514 0.000180453 -1.70022e-06
-5.28592e-06 -1.70022e-06 1.43901e-05
0.00114871 0.000221109 -2.69456e-06
0.000221109 9.06444e-05 -6.22598e-07
-2.69456e-06 -6.22598e-07 -9.31341e-05
0.000587375 -5.74283e-05 -5.68945e-08
-5.74283e-05 -2.19468e-05 6.70805e-08
-5.68945e-08 6.70805e-08 -4.37763e-05
0.000736115 5.7663e-05 4.26368e-07
5.7663e-05 7.31241e-05 -1.76042e-07
4.26368e-07 -1.76042e-07 -3.08685e-05
0.000635164 -4.40793e-05 -7.33502e-07
-4.40793e-05 1.03739e-05 6.06431e-07
-7.33502e-07 6.06431e-07 -5.26275e-05
0.000788599 3.95754e-05 8.45245e-07
3.95754e-05 0.000115863 -4.18955e-07
8.45245e-07 -4.18955e-07 -4.2694e-06
0.00134749 0.000144047 6.81741e-07
0.000144047 7.36391e-05 -3.46421e-08
6.81741e-07 -3.46421e-08 -7.46386e-05
0.00128032 0.000188912 2.2962e-07
0.000188912 9.4701e-05 5.608e-08
2.2962e-07 5.608e-08 -6.66618e-05
0.00153828 0.00020815 2.54275e-07
0.00020815 0.000135818 1.6334e-07
2.54275e-07 1.6334e-07 -2.94348e-05
0.000978574 0.000156143 5.60915e-07
0.000156143 0.000179854 5.76155e-07
5.60915e-07 5.76155e-07 2.07809e-05
0.00152699 0.000234005 -9.02819e-07
0.000234005 0.000225725 -7.85194e-07
-9.02819e-07 -7.85194e-07 5.0889e-05
0.00113655 0.000215333 1.42997e-07
0.000215333 0.000189211 -1.51071e-06
1.42997e-07 -1.51071e-06 -1.90863e-05
0.00133782 0.000236816 -2.29449e-06
0.000236816 0.000146223 -4.25596e-07
-2.29449e-06 -4.25596e-07 -3.57816e-05
0.000605199 -5.12228e-05 9.30557e-07
-5.12228e-05 -2.21264e-05 4.13224e-06
9.30557e-07 4.13224e-06 -4.02175e-05
0.000686875 -3.03535e-05 1.1724e-06
-3.03535e-05 2.88784e-05 2.33243e-06
1.1724e-06 2.33243e-06 -2.25407e-05
0.000961244 0.000109808 2.10617e-06
0.000109808 0.000194584 1.74181e-06
2.10617e-06 1.74181e-06 5.61305e-05
0.000801247 4.03557e-05 -3.8256e-07
4.03557e-05 0.000125634 2.20007e-06
-3.8256e-07 2.20007e-06 2.2368e-05
0.000879506 0.000116648 2.49141e-07
0.000116648 0.000179565 -3.79002e-07
2.49141e-07 -3.79002e-07 3.43465e-05
0.00156999 0.000177955 1.71058e-06
0.000177955 0.000122795 -8.02839e-07
1.71058e-06 -8.02839e-07 -2.92236e-05
0.00136462 0.000217649 1.66501e-06
0.000217649 7.73749e-05 1.65185e-06
1.66501e-06 1.65185e-06 -9.43423e-05
0.00171651 0.000245451 -3.87875e-07
0.000245451 0.000187162 -4.96076e-07
-3.87875e-07 -4.96076e-07 2.54692e-05
0.00114345 0.000200756 3.94166e-06
0.000200756 0.000265461 4.55361e-06
3.94166e-06 4.55361e-06 6.46507e-05
0.0015343 0.000256772 2.84939e-06
0.000256772 0.000185881 2.08247e-06
2.84939e-06 2.08247e-06 5.67489e-06
0.000569045 0.000188682 3.28055e-06
0.000188682 -0.000217386 -1.79073e-06
3.28055e-06 -1.79073e-06 -0.000425147
0.000673171 -1.86583e-05 2.15827e-06
-1.86583e-05 8.2674e-06 1.94512e-06
2.15827e-06 1.94512e-06 -3.5412e-05
0.000719584 2.79164e-05 3.1098e-07
2.79164e-05 5.59621e-05 8.4361e-07
3.1098e-07 8.4361e-07 -1.40566e-05
0.000696023 -5.55794e-06 1.4451e-06
-5.55794e-06 1.7572e-05 1.98973e-06
1.4451e-06 1.98973e-06 -2.43223e-05
0.000677985 -2.58999e-05 -2.808e-07
-2.58999e-05 9.85161e-06 6.26098e-09
-2.808e-07 6.26098e-09 -3.33793e-05
0.00125962 -4.94987e-05 1.14998e-06
-4.94987e-05 0.000342597 2.40932e-06
1.14998e-06 2.40932e-06 0.000332749
0.000946007 -4.96497e-05 7.24209e-07
-4.96497e-05 0.000167013 -5.97962e-08
7.24209e-07 -5.97962e-08 0.000153436
0.00091748 -4.41604e-05 2.41594e-05
-4.41604e-05 0.000160073 6.85432e-06
2.41594e-05 6.85432e-06 0.000165028
0.00223572 -8.13757e-05 2.27149e-06
-8.13757e-05 0.00093358 -1.95197e-07
2.27149e-06 -1.95197e-07 0.000942248
0.00225183 -9.1073e-05 -3.19003e-05
-9.1073e-05 0.000951152 -3.04776e-06
-3.19003e-05 -3.04776e-06 0.000957201
0.000534919 4.71969e-05 6.46893e-08
4.71969e-05 -4.9766e-05 -5.51107e-06
6.46893e-08 -5.51107e-06 -7.91689e-05
0.00282266 0.000109893 4.73563e-05
0.000109893 0.00128429 -3.12989e-06
4.73563e-05 -3.12989e-06 0.0012845
0.000564598 3.43566e-05 -2.57137e-07
3.43566e-05 -2.95706e-05 1.32859e-07
-2.57137e-07 1.32859e-07 -6.3177e-05
0.00314245 0.000113156 -3.41985e-06
0.000113156 0.00147114 -2.74233e-07
-3.41985e-06 -2.74233e-07 0.00147051
0.000596625 2.60259e-05 -3.4164e-06
2.60259e-05 -9.69995e-06 7.41621e-06
-3.4164e-06 7.41621e-06 -4.9149e-05
0.00346016 0.000111537 -9.51829e-05
0.000111537 0.00165555 3.7986e-06
-9.51829e-05 3.7986e-06 0.00165459
0.0010747 9.4914e-05 -1.19175e-05
9.4914e-05 5.78028e-06 -3.49996e-06
-1.19175e-05 -3.49996e-06 -0.000117266
0.0010897 5.6405e-05 -1.17269e-05
5.6405e-05 3.15789e-06 -2.09145e-06
-1.17269e-05 -2.09145e-06 -0.000113599
0.00136428 9.28153e-05 -4.34527e-06
9.28153e-05 5.84362e-05 -7.52505e-07
-4.34527e-06 -7.52505e-07 -7.77684e-05
0.00137981 4.33947e-05 -4.08438e-06
4.33947e-05 5.11427e-05 -2.78066e-07
-4.08438e-06 -2.78066e-07 -7.54482e-05
0.00108635 2.09381e-05 -1.19084e-05
2.09381e-05 -4.12251e-06 -8.16113e-07
-1.19084e-05 -8.16113e-07 -0.000116689
0.000638508 1.97157e-05 -1.76516e-05
1.97157e-05 -0.000105298 -4.47515e-08
-1.76516e-05 -4.47515e-08 -0.000169233
0.00107918 2.00223e-06 1.23405e-08
2.00223e-06 -6.88018e-06 -6.20428e-08
1.23405e-08 -6.20428e-08 -0.000118375
0.00139227 2.7205e-05 -9.4783e-08
2.7205e-05 5.35515e-05 -4.34782e-08
-9.4783e-08 -4.34782e-08 -7.04547e-05
0.00138664 6.70651e-05 1.3726e-09
6.70651e-05 6.30676e-05 -5.51028e-08
1.3726e-09 -5.51028e-08 -6.75525e-05
0.00168147 6.46286e-05 -6.48916e-08
6.46286e-05 0.000106623 1.83523e-07
-6.48916e-08 1.83523e-07 -7.4484e-06
0.00137678 0.000119026 -1.81612e-07
0.000119026 7.36449e-05 -7.02386e-08
-1.81612e-07 -7.02386e-08 -6.80489e-05
0.00160898 0.00011562 -1.66681e-07
0.00011562 0.000103256 4.24035e-08
-1.66681e-07 4.24035e-08 -2.62099e-05
0.00139469 6.69473e-06 3.89483e-06
6.69473e-06 5.66852e-05 1.29309e-08
3.89483e-06 1.29309e-08 -6.60208e-05
0.00169733 3.92992e-05 -1.28908e-06
3.92992e-05 0.000108203 8.23584e-08
-1.28908e-06 8.23584e-08 -1.53708e-06
0.0016187 9.58549e-05 -5.55704e-07
9.58549e-05 8.53066e-05 -6.27011e-07
-5.55704e-07 -6.27011e-07 -3.66303e-05
0.00176189 7.39221e-05 -1.28208e-06
7.39221e-05 8.91826e-05 4.31868e-08
-1.28208e-06 4.31868e-08 -8.33506e-06
0.00159264 0.000140494 -1.72559e-08
0.000140494 0.000113704 -8.9085e-07
-1.72559e-08 -8.9085e-07 -2.5113e-05
0.00169251 0.000138941 -2.93999e-06
0.000138941 8.09873e-05 -1.06062e-06
-2.93999e-06 -1.06062e-06 -2.64826e-05
0.000737432 -3.441e-06 -1.15032e-05
-3.441e-06 -0.000199827 5.39555e-07
-1.15032e-05 5.39555e-07 -0.000313312
0.00165485 -5.46131e-05 -2.08938e-05
-5.46131e-05 0.000328706 2.41384e-06
-2.08938e-05 2.41384e-06 0.000220729
0.00170178 -2.59609e-05 -7.16109e-06
-2.59609e-05 0.000238992 3.97244e-07
-7.16109e-06 3.97244e-07 0.000119698
0.00174893 -0.000100922 -5.20396e-06
-0.000100922 0.000290124 8.3265e-07
-5.20396e-06 8.3265e-07 0.000160261
0.000672664 -2.62351e-05 -8.72881e-06
-2.62351e-05 2.63766e-05 9.09453e-06
-8.72881e-06 9.09453e-06 -2.49241e-05
0.000918186 -0.000142924 -6.09848e-06
-0.000142924 0.000141924 5.50946e-06
-6.09848e-06 5.50946e-06 1.22441e-05
0.00102838 -0.000195085 -3.67022e-06
-0.000195085 7.40209e-05 1.08452e-06
-3.67022e-06 1.08452e-06 -0.000102467
0.00176377 -0.000156505 -8.16663e-06
-0.000156505 0.000328125 2.03501e-06
-8.16663e-06 2.03501e-06 0.000189322
0.00162547 -0.000139199 -6.50936e-07
-0.000139199 0.000140676 -5.20998e-07
-6.50936e-07 -5.20998e-07 1.16474e-05
0.00144951 -0.000184249 -2.16279e-06
-0.000184249 0.000101781 -2.47185e-07
-2.16279e-06 -2.47185e-07 -4.89628e-05
0.00148095 -0.000230536 -5.77391e-06
-0.000230536 0.000174615 -1.35019e-07
-5.77391e-06 -1.35019e-07 -5.23522e-06
0.00163577 -0.000228285 2.02437e-06
-0.000228285 0.000173327 -2.39937e-06
2.02437e-06 -2.39937e-06 1.30066e-05
0.000715036 -6.98652e-05 -3.84654e-06
-6.98652e-05 4.75527e-05 3.03048e-06
-3.84654e-06 3.03048e-06 -5.78253e-05
0.000602633 -5.63431e-05 -2.47056e-06
-5.63431e-05 -1.29047e-05 -2.91579e-07
-2.47056e-06 -2.91579e-07 -0.000136966
0.000699019 -1.42826e-05 -1.40075e-06
-1.42826e-05 4.22506e-05 3.49204e-06
-1.40075e-06 3.49204e-06 -3.98347e-05
0.00156147 -9.86031e-06 -2.38108e-06
-9.86031e-06 0.000155913 1.33192e-07
-2.38108e-06 1.33192e-07 3.45298e-05
0.00168859 -6.87578e-05 -2.0514e-06
-6.87578e-05 0.000238646 3.61207e-07
-2.0514e-06 3.61207e-07 0.000114436
0.00164006 -4.2196e-05 8.32359e-08
-4.2196e-05 9.94878e-05 2.4725e-07
8.32359e-08 2.4725e-07 -1.27054e-05
0.00162388 -0.000112566 -1.0896e-06
-0.000112566 0.000119286 2.55317e-07
-1.0896e-06 2.55317e-07 -7.38814e-06
0.000768149 -0.000102129 2.51128e-07
-0.000102129 7.75997e-05 7.48615e-08
2.51128e-07 7.48615e-08 -3.83969e-05
0.00105204 -0.000185506 -8.52605e-07
-0.000185506 0.000178166 5.41423e-07
-8.52605e-07 5.41423e-07 1.12991e-05
0.00112444 -0.000225489 3.87114e-07
-0.000225489 5.47412e-05 -1.11189e-06
3.87114e-07 -1.11189e-06 -0.000146392
0.00154477 -0.000167987 -3.20149e-07
-0.000167987 0.000129458 2.53235e-07
-3.20149e-07 2.53235e-07 -1.22479e-05
0.00172775 -0.000159701 1.13486e-06
-0.000159701 0.00013521 1.89929e-07
1.13486e-06 1.89929e-07 2.38871e-05
0.00170995 -0.000259965 -1.0326e-06
-0.000259965 0.000257887 5.41789e-07
-1.0326e-06 5.41789e-07 6.89372e-05
0.00159631 -0.000214731 2.12022e-07
-0.000214731 0.000120189 2.31933e-07
2.12022e-07 2.31933e-07 -2.42916e-05
0.00191908 -0.000262981 1.13029e-06
-0.000262981 0.000287411 -5.51711e-07
1.13029e-06 -5.51711e-07 0.000137491
0.000919444 -0.000127201 1.06728e-07
-0.000127201 0.0001548 2.30672e-07
1.06728e-07 2.30672e-07 2.18462e-05
0.00103553 -0.000162413 -3.88636e-07
-0.000162413 0.00023558 4.02649e-07
-3.88636e-07 4.02649e-07 8.5805e-05
0.000669622 -1.08929e-05 1.58829e-07
-1.08929e-05 2.51813e-05 1.92507e-07
1.58829e-07 1.92507e-07 -4.67496e-05
0.000520468 -1.61147e-05 -1.5057e-07
-1.61147e-05 -4.7159e-05 -8.56013e-07
-1.5057e-07 -8.56013e-07 -0.000163402
0.00164906 -2.45076e-05 -4.06044e-07
-2.45076e-05 9.75814e-05 1.40714e-07
-4.06044e-07 1.40714e-07 -1.44831e-05
0.00183786 -7.69003e-05 -3.26707e-07
-7.69003e-05 0.000218786 9.12506e-07
-3.26707e-07 9.12506e-07 0.00010191
0.00163869 -5.8851e-05 4.9028e-07
-5.8851e-05 2.49306e-05 1.40032e-07
4.9028e-07 1.40032e-07 -7.55424e-05
0.00174187 -0.000140229 -3.73362e-06
-0.000140229 0.000108287 9.83789e-07
-3.73362e-06 9.83789e-07 8.64398e-06
0.00169891 -0.000190835 -2.99633e-06
-0.000190835 0.000142705 2.63252e-06
-2.99633e-06 2.63252e-06 1.67019e-05
0.00178953 -0.000161353 5.05616e-07
-0.000161353 0.000134183 1.10719e-07
5.05616e-07 1.10719e-07 3.89323e-05
0.000827132 -0.0001549 1.59973e-06
-0.0001549 8.87899e-05 -7.46417e-07
1.59973e-06 -7.46417e-07 -5.49552e-05
0.00162317 -0.000234583 -4.47442e-06
-0.000234583 8.58515e-05 3.11212e-06
-4.47442e-06 3.11212e-06 -4.01785e-05
0.000260056 -0.000147245 -1.9133e-07
-0.000147245 -0.00030339 -5.15791e-06
-1.9133e-07 -5.15791e-06 -0.000488822
0.0020998 -0.00031835 3.86094e-06
-0.00031835 0.000548749 -1.19881e-06
3.86094e-06 -1.19881e-06 0.000324852
0.00170162 -0.000275201 -8.28351e-07
-0.000275201 0.000204839 5.44703e-06
-8.28351e-07 5.44703e-06 1.66561e-05
0.00192016 -0.000263006 -1.31785e-06
-0.000263006 0.000263513 1.55041e-06
-1.31785e-06 1.55041e-06 0.000119153
0.000633157 -1.28095e-05 1.66119e-06
-1.28095e-05 2.6378e-06 -2.86472e-06
1.66119e-06 -2.86472e-06 -6.1719e-05
0.000530938 -1.92228e-05 5.83533e-08
-1.92228e-05 -2.84651e-05 -2.38373e-06
5.83533e-08 -2.38373e-06 -0.000141687
0.000891081 -0.000169409 5.76952e-07
-0.000169409 0.000135237 2.1818e-06
5.76952e-07 2.1818e-06 -1.43452e-05
0.00084281 -0.000120427 1.7708e-06
-0.000120427 0.000149957 4.01486e-07
1.7708e-06 4.01486e-07 5.45149e-06
0.00114706 -0.000192549 -9.51083e-07
-0.000192549 0.000290748 4.04536e-06
-9.51083e-07 4.04536e-06 0.000137841
0.00056973 -5.49888e-05 -1.19139e-06
-5.49888e-05 -3.30168e-05 -4.20932e-06
-1.19139e-06 -4.20932e-06 -5.42665e-05
0.00133545 0.000143395 -4.6899e-06
0.000143395 6.96798e-05 -1.2941e-06
-4.6899e-06 -1.2941e-06 -7.87367e-05
0.000587044 -6.08254e-05 -4.71649e-08
-6.08254e-05 -1.24649e-05 -2.46576e-06
-4.71649e-08 -2.46576e-06 -7.74705e-05
0.000718922 3.79093e-05 -8.92639e-07
3.79093e-05 6.01936e-05 -3.74323e-06
-8.92639e-07 -3.74323e-06 -3.97337e-05
0.000714149 1.12575e-05 1.64693e-06
1.12575e-05 7.07609e-05 -1.7034e-06
1.64693e-06 -1.7034e-06 -4.47521e-05
0.00122634 0.000186572 -6.31025e-06
0.000186572 6.65807e-05 -2.20829e-06
-6.31025e-06 -2.20829e-06 -9.48904e-05
0.0015635 0.000209199 -8.38824e-07
0.000209199 0.000151086 2.9573e-07
-8.38824e-07 2.9573e-07 -1.44192e-05
0.00103679 0.00016979 -2.08974e-06
0.00016979 0.000217201 -2.3261e-06
-2.08974e-06 -2.3261e-06 5.63052e-05
0.0013466 0.000234937 -3.03512e-06
0.000234937 0.000306395 -2.87192e-06
-3.03512e-06 -2.87192e-06 9.38822e-05
0.00182653 0.000252132 -3.96271e-06
0.000252132 0.000400011 -2.09846e-06
-3.96271e-06 -2.09846e-06 0.000223507
0.00114584 0.000223421 -6.43591e-06
0.000223421 4.32335e-05 -5.43381e-07
-6.43591e-06 -5.43381e-07 -0.000133511
0.000598282 -4.95373e-05 6.0477e-08
-4.95373e-05 -2.6711e-05 1.08129e-09
6.0477e-08 1.08129e-09 -4.4485e-05
0.000658972 -3.87712e-05 -6.03167e-07
-3.87712e-05 1.46946e-05 2.32902e-07
-6.03167e-07 2.32902e-07 -3.74242e-05
0.000918382 0.000110984 5.45469e-07
0.000110984 0.000169296 2.45849e-07
5.45469e-07 2.45849e-07 3.17275e-05
0.000719484 -6.91991e-06 -4.50248e-07
-6.91991e-06 7.60596e-05 3.29848e-07
-4.50248e-07 3.29848e-07 -2.24546e-05
0.000725757 8.03094e-05 1.06091e-06
8.03094e-05 8.62723e-05 -4.44301e-07
1.06091e-06 -4.44301e-07 -5.34195e-05
0.00157031 0.000179289 5.37975e-07
0.000179289 0.000120635 -3.81963e-07
5.37975e-07 -3.81963e-07 -3.19307e-05
0.00146045 0.000223026 6.97012e-07
0.000223026 0.000133716 7.61792e-07
6.97012e-07 7.61792e-07 -3.85715e-05
0.00165768 0.000244112 1.45478e-06
0.000244112 0.00015384 2.64587e-07
1.45478e-06 2.64587e-07 -8.47403e-06
0.0010947 0.000196218 1.31896e-06
0.000196218 0.000243713 1.34604e-06
1.31896e-06 1.34604e-06 4.24405e-05
0.00163971 0.000263923 1.09511e-06
0.000263923 0.000246242 -3.55362e-07
1.09511e-06 -3.55362e-07 6.55465e-05
0.000965523 0.000218664 -2.45609e-06
0.000218664 2.39726e-08 -6.91809e-07
-2.45609e-06 -6.91809e-07 -0.000210345
0.00069305 -2.48843e-05 2.02267e-06
-2.48843e-05 2.43429e-05 2.01111e-06
2.02267e-06 2.01111e-06 -2.18671e-05
0.000779914 2.67005e-05 4.29482e-07
2.67005e-05 0.000100225 1.76682e-06
4.29482e-07 1.76682e-06 1.74177e-05
0.00103729 0.000179344 -8.99515e-07
0.000179344 0.000238311 -3.95517e-07
-8.99515e-07 -3.95517e-07 6.99525e-05
0.00085843 3.68184e-05 -2.91177e-07
3.68184e-05 0.000163691 1.02456e-06
-2.91177e-07 1.02456e-06 4.42867e-05
0.00122292 9.60359e-05 -3.37163e-06
9.60359e-05 0.000349668 -3.652e-06
-3.37163e-06 -3.652e-06 0.000204096
0.00164392 0.000189595 -2.74676e-06
0.000189595 0.000116256 -2.71527e-06
-2.74676e-06 -2.71527e-06 -2.30416e-05
0.0016483 0.000268636 1.35233e-06
0.000268636 0.00019284 5.88099e-07
1.35233e-06 5.88099e-07 1.60099e-05
0.00150668 0.000263229 8.56202e-07
0.000263229 3.43447e-05 -1.21918e-06
8.56202e-07 -1.21918e-06 -0.000120787
0.00104722 0.000204058 -8.38884e-07
0.000204058 0.000194636 2.71352e-06
-8.38884e-07 2.71352e-06 -3.56394e-05
0.00142292 0.000270655 5.6197e-06
0.000270655 0.000139981 -5.54723e-07
5.6197e-06 -5.54723e-07 -5.97319e-05
0.000674642 -2.72351e-05 -1.63026e-07
-2.72351e-05 1.01488e-05 1.52673e-10
-1.63026e-07 1.52673e-10 -3.40697e-05
0.000604905 6.63137e-06 1.3958e-06
6.63137e-06 -1.75102e-05 1.25069e-06
1.3958e-06 1.25069e-06 -8.44856e-05
0.000621482 -9.68493e-06 -5.76292e-07
-9.68493e-06 -3.21756e-06 -6.66753e-08
-5.76292e-07 -6.66753e-08 -7.11901e-05
0.000919963 5.97745e-05 7.78227e-07
5.97745e-05 0.000180234 -3.4253e-07
7.78227e-07 -3.4253e-07 9.68092e-05
0.000726047 4.44758e-05 1.68879e-06
4.44758e-05 5.91911e-05 1.04668e-06
1.68879e-06 1.04668e-06 -9.77792e-06
0.000682665 7.15488e-06 1.41175e-06
7.15488e-06 1.14172e-05 1.99307e-06
1.41175e-06 1.99307e-06 -3.0852e-05
0.000684057 -1.87626e-05 -4.5876e-07
-1.87626e-05 1.20251e-05 1.82855e-08
-4.5876e-07 1.82855e-08 -3.04767e-05
0.00125798 -3.90668e-05 7.82729e-07
-3.90668e-05 0.000336018 2.37216e-06
7.82729e-07 2.37216e-06 0.000327927
0.000679899 -3.40903e-05 -9.80456e-07
-3.40903e-05 1.19433e-05 -1.99092e-06
-9.80456e-07 -1.99092e-06 -3.17612e-05
0.00128744 -4.65107e-05 -4.95375e-06
-4.65107e-05 0.000358133 -1.30697e-06
-4.95375e-06 -1.30697e-06 0.000348721
0.00089556 -3.6064e-05 2.21028e-05
-3.6064e-05 0.000138683 7.0521e-06
2.21028e-05 7.0521e-06 0.000146184
0.00129141 -5.31464e-05 -9.69261e-06
-5.31464e-05 0.000367439 -3.55183e-06
-9.69261e-06 -3.55183e-06 0.000355985
0.00153851 -5.70364e-05 2.02145e-05
-5.70364e-05 0.000520648 1.94504e-06
2.02145e-05 1.94504e-06 0.000528794
0.00220883 -7.98109e-05 -2.83362e-05
-7.98109e-05 0.000916934 -3.46386e-06
-2.83362e-05 -3.46386e-06 0.000925994
0.000551398 4.81527e-05 2.45247e-07
4.81527e-05 -4.73582e-05 -4.83423e-06
2.45247e-07 -4.83423e-06 -7.20124e-05
0.000565258 4.04987e-05 -5.46358e-08
4.04987e-05 -3.36897e-05 1.43045e-07
-5.46358e-08 1.43045e-07 -6.2399e-05
0.00263893 9.76366e-05 3.80928e-05
9.76366e-05 0.00117257 -3.44366e-06
3.80928e-05 -3.44366e-06 0.00117584
0.0029074 0.000106733 -5.10882e-06
0.000106733 0.00133197 -2.90331e-07
-5.10882e-06 -2.90331e-07 0.00133309
0.000610582 3.26215e-05 -2.58855e-06
3.26215e-05 -3.63617e-06 6.49253e-06
-2.58855e-06 6.49253e-06 -3.74757e-05
0.00321664 0.000104733 -8.23594e-05
0.000104733 0.00151186 3.52969e-06
-8.23594e-05 3.52969e-06 0.00151315
0.00135458 0.00011862 -4.78521e-06
0.00011862 6.19398e-05 -9.94836e-07
-4.78521e-06 -9.94836e-07 -7.99879e-05
0.00136574 6.72365e-05 -4.24241e-06
6.72365e-05 5.30277e-05 -4.81135e-07
-4.24241e-06 -4.81135e-07 -7.78823e-05
0.00161314 0.00011523 1.87211e-08
0.00011523 0.000110358 8.7737e-07
1.87211e-08 8.7737e-07 -1.9242e-05
0.0017235 6.56862e-05 5.3591e-07
6.56862e-05 0.000127007 5.30649e-07
5.3591e-07 5.30649e-07 1.46668e-05
0.00138296 3.02441e-05 -3.71197e-06
3.02441e-05 4.84349e-05 -1.57633e-07
-3.71197e-06 -1.57633e-07 -7.5722e-05
0.00108532 6.7326e-06 -1.1625e-05
6.7326e-06 -3.71182e-06 -1.8211e-08
-1.1625e-05 -1.8211e-08 -0.000115175
0.00139139 1.01492e-05 6.54942e-08
1.01492e-05 5.48124e-05 2.91776e-08
6.54942e-08 2.91776e-08 -6.79894e-05
0.00170215 2.91201e-05 -9.17718e-07
2.91201e-05 0.000111638 -2.84607e-09
-9.17718e-07 -2.84607e-09 2.20326e-06
0.00163807 9.47472e-05 -1.08467e-07
9.47472e-05 9.7717e-05 4.82761e-08
-1.08467e-07 4.82761e-08 -2.40571e-05
0.0018033 7.58595e-05 1.31224e-06
7.58595e-05 0.000111658 9.01649e-07
1.31224e-06 9.01649e-07 1.741e-05
0.00158361 0.000141452 -2.11284e-07
0.000141452 0.000107032 -6.69199e-08
-2.11284e-07 -6.69199e-08 -3.23471e-05
0.00170088 0.000136298 -2.77328e-07
0.000136298 8.29482e-05 8.64149e-07
-2.77328e-07 8.64149e-07 -2.19743e-05
0.00167658 -7.5751e-08 -3.56357e-07
-7.5751e-08 0.000105991 2.23975e-07
-3.56357e-07 2.23975e-07 -3.27187e-06
0.00170942 4.38477e-05 -2.40404e-08
4.38477e-05 5.79153e-05 8.39705e-07
-2.40404e-08 8.39705e-07 -3.66379e-05
0.00180296 0.000111071 -3.64167e-06
0.000111071 0.000121066 -7.78676e-07
-3.64167e-06 -7.78676e-07 2.5491e-05
0.00180767 8.21531e-05 1.12583e-06
8.21531e-05 0.000100581 2.02723e-07
1.12583e-06 2.02723e-07 2.17601e-05
0.00161387 0.000145528 -1.82405e-06
0.000145528 6.59063e-05 -2.43907e-06
-1.82405e-06 -2.43907e-06 -5.28515e-05
0.00190391 0.000149197 1.21752e-06
0.000149197 0.000160343 4.96983e-08
1.21752e-06 4.96983e-08 7.21105e-05
0.00140214 -8.42726e-06 -5.75988e-06
-8.42726e-06 6.34493e-05 1.77886e-07
-5.75988e-06 1.77886e-07 -5.91323e-05
0.00170127 -7.21445e-05 -7.04913e-06
-7.21445e-05 0.000245827 7.03741e-07
-7.04913e-06 7.03741e-07 0.000121289
0.00162561 -4.02498e-05 3.01337e-07
-4.02498e-05 8.9975e-05 -6.65167e-07
3.01337e-07 -6.65167e-07 -1.96808e-05
0.00166275 -0.000110917 -8.8093e-07
-0.000110917 0.000137674 -1.90632e-07
-8.8093e-07 -1.90632e-07 1.107e-05
0.000873127 -0.000118498 -4.79971e-06
-0.000118498 0.000136903 3.8591e-06
-4.79971e-06 3.8591e-06 1.88582e-05
0.00112632 -0.000192165 -3.21586e-06
-0.000192165 0.000216198 4.2082e-06
-3.21586e-06 4.2082e-06 4.84229e-05
0.000819127 -0.000199116 -3.41951e-06
-0.000199116 -0.000108015 5.73201e-07
-3.41951e-06 5.73201e-07 -0.000303924
0.00162312 -0.000171438 -1.86697e-06
-0.000171438 0.000174124 6.7286e-08
-1.86697e-06 6.7286e-08 3.06732e-05
0.00176243 -0.00015986 3.37424e-06
-0.00015986 0.000157293 -1.81958e-06
3.37424e-06 -1.81958e-06 4.96371e-05
0.0016221 -0.000214853 1.63734e-06
-0.000214853 0.00013565 -1.36434e-06
1.63734e-06 -1.36434e-06 -8.35658e-06
0.00161008 -0.000256725 -1.60335e-06
-0.000256725 0.000199508 -1.284e-06
-1.60335e-06 -1.284e-06 8.20919e-06
0.00196457 -0.000263668 5.12516e-06
-0.000263668 0.000315916 -6.07888e-06
5.12516e-06 -6.07888e-06 0.000168297
0.000935873 -0.00012714 -1.639e-06
-0.00012714 0.000165287 -3.86633e-08
-1.639e-06 -3.86633e-08 3.23709e-05
0.000811976 -0.000123003 -1.82055e-06
-0.000123003 0.000101206 -1.42806e-06
-1.82055e-06 -1.42806e-06 -4.01092e-05
0.000713097 -1.46876e-05 -1.56905e-06
-1.46876e-05 4.89713e-05 3.19456e-06
-1.56905e-06 3.19456e-06 -2.31882e-05
0.000488663 2.41062e-06 -2.62496e-07
2.41062e-06 -6.68422e-05 4.63213e-07
-2.62496e-07 4.63213e-07 -0.000179611
0.00164611 -2.42671e-05 -6.27085e-09
-2.42671e-05 9.60567e-05 3.53436e-08
-6.27085e-09 3.53436e-08 -1.60926e-05
0.0017525 -7.57851e-05 -3.1949e-07
-7.57851e-05 0.000169687 -1.0867e-07
-3.1949e-07 -1.0867e-07 5.11432e-05
0.00169688 -5.84662e-05 9.90059e-07
-5.84662e-05 5.98919e-05 -2.08677e-07
9.90059e-07 -2.08677e-07 -3.87116e-05
0.00168583 -0.000137846 -1.14978e-06
-0.000137846 8.35964e-05 4.90853e-07
-1.14978e-06 4.90853e-07 -1.80052e-05
0.00095521 -0.000154983 -3.53671e-07
-0.000154983 0.000159911 9.03356e-07
-3.53671e-07 9.03356e-07 1.64077e-05
0.000607417 -0.000171352 1.11091e-06
-0.000171352 -0.000103083 -1.8415e-06
1.11091e-06 -1.8415e-06 -0.000289083
0.00166923 -0.000287371 -2.40861e-07
-0.000287371 0.000302169 5.43626e-07
-2.40861e-07 5.43626e-07 8.04891e-05
0.00163775 -0.000188082 -1.29162e-06
-0.000188082 0.000112875 6.14303e-07
-1.29162e-06 6.14303e-07 -1.60713e-05
0.00171342 -0.000161691 1.95248e-06
-0.000161691 8.70109e-05 -9.97592e-07
1.95248e-06 -9.97592e-07 -5.43828e-06
0.00170029 -0.000276557 -8.27346e-07
-0.000276557 0.000206001 1.17239e-06
-8.27346e-07 1.17239e-06 1.67508e-05
0.00165922 -0.000235704 -3.2135e-07
-0.000235704 0.000109021 8.77542e-07
-3.2135e-07 8.77542e-07 -1.70812e-05
0.00180036 -0.000257465 2.93807e-06
-0.000257465 0.000187018 -4.19879e-06
2.93807e-06 -4.19879e-06 4.58745e-05
0.00101122 -0.000179636 2.9058e-07
-0.000179636 0.000202136 6.83244e-07
2.9058e-07 6.83244e-07 5.09856e-05
0.00108975 -0.000180414 1.52332e-06
-0.000180414 0.000253911 6.45758e-07
1.52332e-06 6.45758e-07 0.000105392
0.000825539 -9.07268e-05 -4.20114e-07
-9.07268e-05 0.000135349 2.05893e-07
-4.20114e-07 2.05893e-07 -6.12017e-06
0.000531345 4.90634e-06 -8.31538e-07
4.90634e-06 -5.55857e-05 1.66106e-07
-8.31538e-07 1.66106e-07 -0.000121407
0.000511497 9.65926e-06 -1.49676e-07
9.65926e-06 -4.3132e-05 -6.97452e-07
-1.49676e-07 -6.97452e-07 -0.000151968
0.00178214 -3.70845e-05 4.65809e-07
-3.70845e-05 9.89248e-05 -3.15294e-07
4.65809e-07 -3.15294e-07 3.75641e-06
0.00178071 -8.34296e-05 6.00383e-07
-8.34296e-05 0.000103276 2.14463e-07
6.00383e-07 2.14463e-07 1.12675e-05
0.0018488 -0.000160883 -1.65533e-06
-0.000160883 0.000138321 -5.32016e-07
-1.65533e-06 -5.32016e-07 5.6737e-05
0.00155818 -0.000187593 -1.59993e-06
-0.000187593 1.75617e-05 9.59275e-07
-1.59993e-06 9.59275e-07 -8.34515e-05
0.00092696 -0.000179615 -7.07052e-07
-0.000179615 0.000141934 -6.33944e-07
-7.07052e-07 -6.33944e-07 -2.19388e-05
0.00210333 -0.000273802 -4.04341e-06
-0.000273802 0.000312019 1.74562e-06
-4.04341e-06 1.74562e-06 0.000192244
-5.23186e-05 -0.000139135 -4.10073e-07
-0.000139135 -0.000506878 -5.77011e-06
-4.10073e-07 -5.77011e-06 -0.000703988
0.00193817 -0.000327856 3.20836e-06
-0.000327856 0.000407858 1.14935e-06
3.20836e-06 1.14935e-06 0.000175332
0.0015865 -0.000278196 5.28568e-07
-0.000278196 0.000101131 3.90902e-06
5.28568e-07 3.90902e-06 -8.18034e-05
0.000344677 1.55383e-05 9.94946e-07
1.55383e-05 -0.000163002 -3.62115e-06
9.94946e-07 -3.62115e-06 -0.00022305
0.000800432 -2.15947e-05 1.13468e-06
-2.15947e-05 0.000126786 -1.4634e-06
1.13468e-06 -1.4634e-06 2.54067e-05
0.000920424 -5.75083e-05 -3.67139e-07
-5.75083e-05 0.0001917 -7.572e-07
-3.67139e-07 -7.572e-07 6.51639e-05
0.00104486 -0.000188055 -2.66229e-06
-0.000188055 0.000208435 2.81335e-06
-2.66229e-06 2.81335e-06 5.78068e-05
0.000797296 -0.000114548 2.66338e-06
-0.000114548 0.000109578 2.70656e-06
2.66338e-06 2.70656e-06 -4.1889e-05
0.000678953 -0.000162617 3.31169e-07
-0.000162617 -5.785e-06 1.81224e-06
3.31169e-07 1.81224e-06 -0.000151354
0.000593783 -4.82776e-05 -1.20441e-06
-4.82776e-05 -2.96622e-05 -4.09663e-06
-1.20441e-06 -4.09663e-06 -4.72183e-05
0.000633213 -4.15828e-05 -1.78783e-06
-4.15828e-05 4.04496e-07 -1.91289e-06
-1.78783e-06 -1.91289e-06 -5.16785e-05
0.00157281 0.000180841 -8.33766e-07
0.000180841 0.000119244 -4.9931e-09
-8.33766e-07 -4.9931e-09 -3.39049e-05
0.000648408 -6.51511e-05 1.3243e-06
-6.51511e-05 3.47771e-05 -1.72327e-06
1.3243e-06 -1.72327e-06 -6.03948e-05
0.000824155 0.000103095 -7.5029e-07
0.000103095 0.000113986 -8.44832e-07
-7.5029e-07 -8.44832e-07 -2.0191e-05
0.000588979 4.7523e-05 1.76956e-06
4.7523e-05 2.49199e-06 -3.44657e-07
1.76956e-06 -3.44657e-07 -0.000131641
0.00157095 0.000229551 -1.7285e-06
0.000229551 0.000197702 -5.35221e-07
-1.7285e-06 -5.35221e-07 2.47105e-05
0.00159717 0.000242441 1.26578e-06
0.000242441 0.000120097 6.9972e-07
1.26578e-06 6.9972e-07 -4.27743e-05
0.00100576 0.000188374 -2.90632e-08
0.000188374 0.000200843 -1.02168e-06
-2.90632e-08 -1.02168e-06 -1.17668e-06
0.00130194 0.000243658 -2.01865e-06
0.000243658 0.000183571 -9.60299e-07
-2.01865e-06 -9.60299e-07 -2.69461e-05
0.00177839 0.000273688 -4.16624e-06
0.000273688 0.000325017 -1.6405e-06
-4.16624e-06 -1.6405e-06 0.000143516
0.000673536 -2.57978e-05 -2.33941e-07
-2.57978e-05 1.36504e-05 6.04879e-08
-2.33941e-07 6.04879e-08 -3.26297e-05
0.000722423 -1.77108e-05 -8.4766e-07
-1.77108e-05 6.59147e-05 3.73659e-07
-8.4766e-07 3.73659e-07 -1.44047e-05
0.00100537 0.000176159 -8.71288e-07
0.000176159 0.000222319 -3.51641e-07
-8.71288e-07 -3.51641e-07 5.41325e-05
0.000794631 -4.03664e-07 1.49304e-07
-4.03664e-07 0.000123904 1.41992e-07
1.49304e-07 1.41992e-07 9.70983e-06
0.000952055 0.00011057 3.63666e-07
0.00011057 0.000207373 2.52962e-07
3.63666e-07 2.52962e-07 5.62237e-05
0.00165301 0.000192655 -1.71905e-06
0.000192655 0.000121128 -1.25602e-06
-1.71905e-06 -1.25602e-06 -1.92692e-05
0.00161835 0.00026571 1.32902e-06
0.00026571 0.000174021 4.55555e-07
1.32902e-06 4.55555e-07 -2.74908e-06
0.00161759 0.000265724 5.37235e-07
0.000265724 9.77884e-05 8.69546e-08
5.37235e-07 8.69546e-08 -5.64034e-05
0.000699723 0.000179293 4.22045e-07
0.000179293 -6.47086e-06 3.63807e-06
4.22045e-07 3.63807e-06 -0.000232153
0.00168179 0.000290814 -1.56061e-06
0.000290814 0.00028959 -6.59095e-07
-1.56061e-06 -6.59095e-07 8.52172e-05
0.000774592 2.06661e-05 9.91058e-07
2.06661e-05 8.64844e-05 1.26801e-06
9.91058e-07 1.26801e-06 1.45246e-05
0.000558321 -2.33011e-05 -9.16314e-07
-2.33011e-05 -1.9655e-05 2.25464e-06
-9.16314e-07 2.25464e-06 -0.000115564
0.000951917 0.000180032 -2.94101e-06
0.000180032 0.000176395 -8.92599e-07
-2.94101e-06 -8.92599e-07 -7.89119e-06
0.000801092 5.9845e-05 -2.65896e-06
5.9845e-05 0.000142863 -1.62362e-06
-2.65896e-06 -1.62362e-06 -1.02955e-06
0.000917751 0.000165968 -1.24848e-06
0.000165968 0.000165031 -1.57003e-06
-1.24848e-06 -1.57003e-06 6.39012e-06
0.00159455 0.000208232 -1.06212e-06
0.000208232 1.28838e-05 -2.62844e-06
-1.06212e-06 -2.62844e-06 -0.000101314
0.00183632 0.000308264 1.70895e-06
0.000308264 0.000271512 -1.68342e-06
1.70895e-06 -1.68342e-06 8.77061e-05
0.00151176 0.000271008 2.08217e-06
0.000271008 2.54385e-05 5.41419e-08
2.08217e-06 5.41419e-08 -0.000129186
0.00169391 0.000266123 2.88705e-06
0.000266123 0.000484267 6.31786e-06
2.88705e-06 6.31786e-06 0.00024019
0.00142899 0.000286709 -4.79656e-07
0.000286709 0.000121429 -9.62234e-07
-4.79656e-07 -9.62234e-07 -8.38815e-05
0.000671542 -3.04593e-05 -1.4516e-06
-3.04593e-05 9.29154e-06 -1.9804e-06
-1.4516e-06 -1.9804e-06 -3.53683e-05
0.000661768 9.66026e-06 5.87916e-07
9.66026e-06 1.68152e-05 4.08374e-07
5.87916e-07 4.08374e-07 -5.07569e-05
0.000615945 -1.66277e-05 -2.07982e-07
-1.66277e-05 -2.03957e-06 5.74789e-07
-2.07982e-07 5.74789e-07 -7.86452e-05
0.000534844 -3.86962e-05 -7.95576e-07
-3.86962e-05 -5.48735e-05 -9.33219e-07
-7.95576e-07 -9.33219e-07 -0.000121659
0.000712471 1.69594e-05 -9.21472e-08
1.69594e-05 4.99494e-05 2.59307e-08
-9.21472e-08 2.59307e-08 -1.76368e-05
0.000738128 1.91082e-05 -6.8816e-08
1.91082e-05 6.83117e-05 -3.62116e-07
-6.8816e-08 -3.62116e-07 -8.99021e-06
0.000839084 4.70224e-05 -3.96515e-07
4.70224e-05 0.000134524 -8.88337e-07
-3.96515e-07 -8.88337e-07 4.85313e-05
0.000618565 -2.49647e-05 7.12692e-07
-2.49647e-05 8.52254e-06 2.80632e-07
7.12692e-07 2.80632e-07 -7.58065e-05
0.000734078 3.38149e-05 6.39136e-07
3.38149e-05 5.87944e-05 9.92382e-07
6.39136e-07 9.92382e-07 -6.29143e-06
0.000684753 1.394e-05 1.37788e-06
1.394e-05 1.57769e-05 1.94175e-06
1.37788e-06 1.94175e-06 -2.73669e-05
0.00068857 -6.56257e-06 -5.93937e-07
-6.56257e-06 1.5265e-05 1.40611e-08
-5.93937e-07 1.40611e-08 -2.71984e-05
0.00126512 -2.83523e-05 8.17755e-07
-2.83523e-05 0.000336317 2.32988e-06
8.17755e-07 2.32988e-06 0.000329137
0.0006752 -3.24194e-05 -6.46818e-07
-3.24194e-05 8.24208e-06 -2.00654e-06
-6.46818e-07 -2.00654e-06 -3.48574e-05
0.00129123 -3.62768e-05 -4.2463e-06
-3.62768e-05 0.000354956 -1.36819e-06
-4.2463e-06 -1.36819e-06 0.000347069
0.000903135 -2.97582e-05 1.82787e-05
-2.97582e-05 0.000136924 7.3531e-06
1.82787e-05 7.3531e-06 0.000145696
0.00131414 -4.43407e-05 -8.31713e-06
-4.43407e-05 0.000373101 -5.10027e-06
-8.31713e-06 -5.10027e-06 0.000363891
0.000838725 -3.70218e-05 6.98932e-06
-3.70218e-05 0.00010576 2.7446e-06
6.98932e-06 2.7446e-06 0.000112822
0.00213985 -7.52332e-05 -5.62144e-06
-7.52332e-05 0.000869436 -1.74009e-06
-5.62144e-06 -1.74009e-06 0.000879751
0.000577886 3.98762e-05 3.53163e-07
3.98762e-05 -4.08791e-05 -4.20857e-06
3.53163e-07 -4.20857e-06 -6.00645e-05
0.000570082 4.76974e-05 -1.48712e-08
4.76974e-05 -3.60768e-05 7.90649e-08
-1.48712e-08 7.90649e-08 -6.10865e-05
0.00248812 8.5551e-05 2.99301e-05
8.5551e-05 0.00107898 -3.75219e-06
2.99301e-05 -3.75219e-06 0.00108527
0.000600082 3.72193e-05 -2.03812e-06
3.72193e-05 -1.39114e-05 5.62487e-06
-2.03812e-06 5.62487e-06 -4.25674e-05
0.00270813 9.80887e-05 -4.33227e-06
9.80887e-05 0.00121221 -2.87735e-07
-4.33227e-06 -2.87735e-07 0.00121546
0.0029795 9.971e-05 -6.69883e-05
9.971e-05 0.00137191 3.27382e-06
-6.69883e-05 3.27382e-06 0.00137473
0.00157325 0.000142264 -1.35925e-06
0.000142264 9.98364e-05 5.43913e-07
-1.35925e-06 5.43913e-07 -4.00871e-05
0.00166219 9.27904e-05 7.77551e-07
9.27904e-05 0.000112595 8.12023e-07
7.77551e-07 8.12023e-07 -8.91464e-06
0.00170605 0.000133616 2.6634e-06
0.000133616 8.3072e-05 2.06619e-06
2.6634e-06 2.06619e-06 -1.92956e-05
0.00184368 7.76549e-05 3.04386e-06
7.76549e-05 0.000133253 6.28107e-07
3.04386e-06 6.28107e-07 4.22964e-05
0.0017058 2.14864e-05 -8.01101e-07
2.14864e-05 0.00011473 2.12796e-08
-8.01101e-07 2.12796e-08 5.55035e-06
0.00138727 1.29138e-05 -3.58071e-06
1.29138e-05 5.25184e-05 7.07146e-08
-3.58071e-06 7.07146e-08 -7.03276e-05
0.0016627 2.5408e-06 -7.2833e-07
2.5408e-06 9.81639e-05 -1.1338e-08
-7.2833e-07 -1.1338e-08 -1.23614e-05
0.00172307 3.82229e-05 9.08636e-07
3.82229e-05 6.86787e-05 -7.60972e-08
9.08636e-07 -7.60972e-08 -2.71104e-05
0.00177184 0.000109314 -1.20883e-06
0.000109314 0.000102747 -3.5316e-07
-1.20883e-06 -3.5316e-07 5.80807e-06
0.0017633 8.19528e-05 2.18808e-06
8.19528e-05 7.34268e-05 2.30961e-07
2.18808e-06 2.30961e-07 -2.48313e-06
0.00163245 0.000144387 -7.45732e-07
0.000144387 8.25925e-05 -1.26661e-07
-7.45732e-07 -1.26661e-07 -3.61284e-05
0.00180773 0.00015001 3.44987e-06
0.00015001 0.000103477 1.08698e-06
3.44987e-06 1.08698e-06 1.81698e-05
0.00176454 -2.1403e-06 -4.02602e-07
-2.1403e-06 0.000101957 3.38572e-07
-4.02602e-07 3.38572e-07 5.82335e-06
0.00172515 4.73977e-05 9.37464e-07
4.73977e-05 4.8619e-05 9.43248e-07
9.37464e-07 9.43248e-07 -2.66877e-05
0.00182867 0.000110838 6.07957e-07
0.000110838 9.46375e-05 -1.70721e-07
6.07957e-07 -1.70721e-07 2.08059e-05
0.00185377 0.000179907 -4.8584e-07
0.000179907 0.000134643 -1.28225e-06
-4.8584e-07 -1.28225e-06 4.53345e-05
0.00164079 -2.40158e-05 1.07471e-09
-2.40158e-05 9.34184e-05 -3.20137e-08
1.07471e-09 -3.20137e-08 -1.88192e-05
0.0016638 -7.65002e-05 1.49126e-07
-7.65002e-05 0.000118971 -9.04082e-07
1.49126e-07 -9.04082e-07 -1.34132e-06
0.0017554 -5.83557e-05 2.45042e-06
-5.83557e-05 9.528e-05 -4.59285e-07
2.45042e-06 -4.59285e-07 -1.48064e-06
0.00163673 -0.000135331 6.48093e-07
-0.000135331 6.26563e-05 -3.43362e-07
6.48093e-07 -3.43362e-07 -4.08714e-05
0.0011264 -0.000167585 -1.73055e-06
-0.000167585 0.000257433 2.36861e-06
-1.73055e-06 2.36861e-06 0.000111214
0.000965207 -0.000196976 7.01191e-07
-0.000196976 0.000103408 2.01683e-06
7.01191e-07 2.01683e-06 -8.28664e-05
0.001198 -0.000253819 -2.64654e-06
-0.000253819 3.21576e-05 1.30815e-06
-2.64654e-06 1.30815e-06 -0.000186887
0.00157502 -0.000185318 2.05558e-07
-0.000185318 8.23495e-05 -7.37659e-07
2.05558e-07 -7.37659e-07 -4.95419e-05
0.00164792 -0.000162637 4.02993e-06
-0.000162637 4.60805e-05 -2.38335e-06
4.02993e-06 -2.38335e-06 -4.36632e-05
0.00169892 -0.000237049 3.63728e-06
-0.000237049 0.000133458 -1.2475e-06
3.63728e-06 -1.2475e-06 7.25897e-06
0.00166237 -0.000276065 -9.09942e-07
-0.000276065 0.000186101 -3.30328e-06
-9.09942e-07 -3.30328e-06 -3.96187e-06
0.00168622 -0.000252508 3.75673e-06
-0.000252508 0.000114844 -9.9271e-06
3.75673e-06 -9.9271e-06 -2.31867e-05
0.00113662 -0.00019023 4.31174e-07
-0.00019023 0.000272274 -6.73015e-07
4.31174e-07 -6.73015e-07 0.000119449
0.00107116 -0.000179091 8.00012e-07
-0.000179091 0.000238987 -3.95552e-06
8.00012e-07 -3.95552e-06 9.25245e-05
0.000816969 -7.21727e-05 -2.93831e-07
-7.21727e-05 0.000125239 2.40138e-07
-2.93831e-07 2.40138e-07 -1.29494e-05
0.000419754 1.54261e-05 -1.71576e-06
1.54261e-05 -0.000118789 2.84955e-06
-1.71576e-06 2.84955e-06 -0.000186407
0.000497851 3.42626e-05 3.842e-07
3.42626e-05 -5.26826e-05 8.14512e-07
3.842e-07 8.14512e-07 -0.000158445
0.00182444 -4.01916e-05 2.09766e-07
-4.01916e-05 0.000125352 -2.38391e-08
2.09766e-07 -2.38391e-08 3.00911e-05
0.0017993 -8.65617e-05 6.05278e-07
-8.65617e-05 0.000114114 -5.85737e-07
6.05278e-07 -5.85737e-07 2.11041e-05
0.00176858 -0.000156644 -1.55198e-06
-0.000156644 9.6123e-05 1.11656e-07
-1.55198e-06 1.11656e-07 1.26155e-05
0.00106124 -0.000189651 -1.23904e-07
-0.000189651 0.000215243 1.19141e-06
-1.23904e-07 1.19141e-06 4.99373e-05
0.000837913 -0.000205982 1.95911e-06
-0.000205982 -7.31633e-06 -2.93773e-06
1.95911e-06 -2.93773e-06 -0.000210469
0.00166397 -0.00030901 -7.83872e-07
-0.00030901 0.000253768 8.82998e-07
-7.83872e-07 8.82998e-07 2.05565e-05
0.00159549 -0.000188982 3.84662e-07
-0.000188982 3.54416e-05 -1.74488e-07
3.84662e-07 -1.74488e-07 -6.61515e-05
0.00159688 -0.000275872 8.47482e-07
-0.000275872 0.000109336 -2.38215e-06
8.47482e-07 -2.38215e-06 -6.79998e-05
0.00180045 -0.000258816 -5.10202e-07
-0.000258816 0.000147364 -1.01608e-06
-5.10202e-07 -1.01608e-06 2.70446e-05
0.000373492 2.17244e-05 1.47378e-07
2.17244e-05 -0.000148359 -7.9165e-07
1.47378e-07 -7.9165e-07 -0.000206593
0.00109685 -0.000191404 -1.86377e-07
-0.000191404 0.000233064 7.42986e-07
-1.86377e-07 7.42986e-07 8.23901e-05
0.000733732 -0.000165101 -6.15102e-07
-0.000165101 3.18943e-05 1.82019e-07
-6.15102e-07 1.82019e-07 -0.000109219
0.000970651 -0.000132463 -5.03995e-07
-0.000132463 0.000212003 6.01186e-07
-5.03995e-07 6.01186e-07 5.40064e-05
0.000996142 -5.71934e-05 -1.24944e-07
-5.71934e-05 0.000235041 -1.10871e-07
-1.24944e-07 -1.10871e-07 0.000108779
0.000666323 6.49066e-06 -3.46349e-07
6.49066e-06 4.53651e-05 3.42124e-07
-3.46349e-07 3.42124e-07 -5.36946e-05
0.00158674 -4.67888e-05 -3.49887e-07
-4.67888e-05 -2.37521e-05 -1.50096e-07
-3.49887e-07 -1.50096e-07 -0.000108429
0.00198214 -0.000120702 4.94848e-07
-0.000120702 0.000165764 -1.47656e-07
4.94848e-07 -1.47656e-07 9.59206e-05
0.00155334 -0.000177209 -1.66709e-07
-0.000177209 -3.73563e-05 -3.45948e-07
-1.66709e-07 -3.45948e-07 -0.00011674
0.00197386 -0.000237074 -1.77949e-06
-0.000237074 0.000182576 -8.12296e-07
-1.77949e-06 -8.12296e-07 8.89257e-05
0.00110101 -0.0002037 -2.39563e-06
-0.0002037 0.000219561 -6.74022e-07
-2.39563e-06 -6.74022e-07 4.57323e-05
0.00178282 -0.000288713 6.15109e-07
-0.000288713 0.000157888 4.11362e-06
6.15109e-07 4.11362e-06 1.17895e-05
0.000927289 -0.000244366 -6.71006e-07
-0.000244366 -2.09001e-05 -2.4726e-06
-6.71006e-07 -2.4726e-06 -0.000262249
0.00168208 -0.000326964 8.15812e-10
-0.000326964 0.000240737 3.63357e-06
8.15812e-10 3.63357e-06 8.26538e-08
0.000358192 4.14001e-05 -9.3102e-07
4.14001e-05 -0.000161461 -2.92695e-06
-9.3102e-07 -2.92695e-06 -0.000212418
0.000797609 -9.79458e-06 8.75915e-07
-9.79458e-06 0.000118695 -1.40663e-06
8.75915e-07 -1.40663e-06 2.92741e-05
0.000996258 -7.92566e-05 -2.70498e-07
-7.92566e-05 0.000238434 4.38645e-07
-2.70498e-07 4.38645e-07 0.000121513
0.000839358 -2.12204e-05 -4.36993e-07
-2.12204e-05 0.000143649 5.68148e-10
-4.36993e-07 5.68148e-10 -2.03248e-07
0.000801465 -0.000180191 -1.19136e-06
-0.000180191 4.41904e-05 4.92009e-07
-1.19136e-06 4.92009e-07 -0.000105962
0.000943212 -0.000180701 -3.77619e-06
-0.000180701 0.000153458 2.81378e-06
-3.77619e-06 2.81378e-06 -8.0489e-06
0.000654078 -3.38696e-05 -1.9028e-06
-3.38696e-05 3.51529e-06 -1.91959e-06
-1.9028e-06 -1.91959e-06 -4.32099e-05
0.000645402 -5.77834e-05 7.09458e-08
-5.77834e-05 2.14195e-05 -1.13127e-06
7.09458e-08 -1.13127e-06 -5.71362e-05
0.00166389 0.00019597 -1.16378e-06
0.00019597 0.000126375 1.26743e-07
-1.16378e-06 1.26743e-07 -1.51712e-05
0.000712794 -3.60049e-05 8.32557e-07
-3.60049e-05 7.46042e-05 -9.21895e-07
8.32557e-07 -9.21895e-07 -3.49265e-05
0.00092374 0.000168764 6.73248e-07
0.000168764 0.000176977 -6.30453e-07
6.73248e-07 -6.30453e-07 1.02133e-05
0.000406556 6.32967e-05 2.15091e-06
6.32967e-05 -0.000108596 6.34052e-07
2.15091e-06 6.34052e-07 -0.000251225
0.00159145 0.000262884 -3.75699e-08
0.000262884 0.000157272 1.4596e-07
-3.75699e-08 1.4596e-07 -1.94256e-05
0.00174837 0.000269649 -1.47537e-07
0.000269649 0.000171109 1.33234e-06
-1.47537e-07 1.33234e-06 1.76338e-05
0.000501449 0.00016589 -5.34666e-07
0.00016589 -0.000123572 6.53523e-07
-5.34666e-07 6.53523e-07 -0.000345718
0.00196295 0.000312258 -1.74558e-06
0.000312258 0.000452404 7.96296e-07
-1.74558e-06 7.96296e-07 0.000242316
0.000721202 -4.55871e-06 -7.10047e-07
-4.55871e-06 5.4835e-05 1.33328e-07
-7.10047e-07 1.33328e-07 -1.55777e-05
0.00067877 -4.12478e-06 1.96428e-07
-4.12478e-06 4.88793e-05 1.08376e-06
1.96428e-07 1.08376e-06 -4.82937e-05
0.0010941 0.000191349 -9.96349e-08
0.000191349 0.000264769 -2.3832e-06
-9.96349e-08 -2.3832e-06 7.70562e-05
0.000556965 3.18412e-06 -5.0772e-07
3.18412e-06 -1.05736e-05 -1.86638e-07
-5.0772e-07 -1.86638e-07 -0.000142329
0.00072912 0.00013567 -1.67947e-06
0.00013567 5.44882e-05 -6.95258e-07
-1.67947e-06 -6.95258e-07 -9.02348e-05
0.00184986 0.000217183 -2.39586e-06
0.000217183 0.000156664 -1.22579e-06
-2.39586e-06 -1.22579e-06 4.46326e-05
0.00187466 0.000307265 1.14401e-06
0.000307265 0.000293874 -1.86287e-07
1.14401e-06 -1.86287e-07 0.00011168
0.00163062 0.000283991 6.89822e-07
0.000283991 8.90909e-05 1.6714e-06
6.89822e-07 1.6714e-06 -6.77191e-05
0.00144767 0.000250688 2.79362e-06
0.000250688 0.000353487 3.78027e-06
2.79362e-06 3.78027e-06 0.000104947
0.00152988 0.000298458 -2.28953e-06
0.000298458 0.000172806 4.83917e-07
-2.28953e-06 4.83917e-07 -3.66044e-05
0.000491884 -2.88387e-05 -2.96546e-07
-2.88387e-05 -6.48348e-05 1.72109e-06
-2.96546e-07 1.72109e-06 -0.000147311
0.000356594 6.16151e-05 -3.66973e-07
6.16151e-05 -0.000112753 8.22287e-07
-3.66973e-07 8.22287e-07 -0.000236801
0.0010634 0.000193888 1.1006e-06
0.000193888 0.000219123 2.98515e-06
1.1006e-06 2.98515e-06 1.34631e-05
-0.000303313 5.18167e-05 1.92412e-06
5.18167e-05 -0.000507903 2.71223e-07
1.92412e-06 2.71223e-07 -0.000659083
0.00189755 0.000222081 -2.82176e-06
0.000222081 6.66891e-05 -8.18718e-07
-2.82176e-06 -8.18718e-07 -1.19459e-05
0.00203774 0.000268729 6.49405e-07
0.000268729 0.000252604 -4.07463e-07
6.49405e-07 -4.07463e-07 0.000128387
0.00177452 0.000336427 -1.67539e-06
0.000336427 0.000216299 -2.6778e-06
-1.67539e-06 -2.6778e-06 2.07039e-05
-7.87966e-05 0.000154079 -8.5154e-07
0.000154079 -0.000582649 1.3808e-06
-8.5154e-07 1.3808e-06 -0.000826302
0.000714867 3.1066e-05 -8.16998e-07
3.1066e-05 5.20403e-05 -4.05795e-07
-8.16998e-07 -4.05795e-07 -1.82948e-05
0.000690222 1.06863e-05 -2.87016e-07
1.06863e-05 4.58142e-05 3.90224e-07
-2.87016e-07 3.90224e-07 -3.41334e-05
0.000852992 -4.97231e-06 -7.51623e-07
-4.97231e-06 0.000141585 -3.95017e-07
-7.51623e-07 -3.95017e-07 6.08457e-05
0.000696492 -1.93e-05 -1.2303e-06
-1.93e-05 3.68238e-05 -9.33747e-07
-1.2303e-06 -9.33747e-07 -2.75903e-05
0.00056405 -2.38548e-05 -2.31989e-07
-2.38548e-05 -2.90828e-05 -5.92724e-07
-2.31989e-07 -5.92724e-07 -0.000107051
0.000720616 7.76458e-06 1.37901e-08
7.76458e-06 5.27804e-05 -8.59064e-09
1.37901e-08 -8.59064e-09 -1.33486e-05
0.00071602 4.7155e-05 -4.54442e-07
4.7155e-05 7.2071e-05 -2.80326e-07
-4.54442e-07 -2.80326e-07 -1.82776e-05
0.000677349 4.44399e-06 5.33108e-07
4.44399e-06 4.44321e-05 3.32154e-07
5.33108e-07 3.32154e-07 -4.10985e-05
0.000785258 1.74727e-05 8.9952e-07
1.74727e-05 0.000102338 1.133e-07
8.9952e-07 1.133e-07 1.62117e-05
0.000743743 -3.21229e-05 9.88919e-07
-3.21229e-05 8.24737e-05 -4.51011e-07
9.88919e-07 -4.51011e-07 -8.82644e-06
0.000600111 2.79262e-05 5.04757e-07
2.79262e-05 -2.73487e-06 8.35241e-07
5.04757e-07 8.35241e-07 -8.88324e-05
0.000710547 4.70914e-05 9.32485e-07
4.70914e-05 4.88118e-05 1.19717e-06
9.32485e-07 1.19717e-06 -1.94421e-05
0.000658814 2.48777e-05 9.33902e-07
2.48777e-05 5.65683e-06 1.8321e-06
9.33902e-07 1.8321e-06 -3.91388e-05
0.000669437 -5.09831e-06 -4.96058e-07
-5.09831e-06 7.68612e-06 1.8405e-08
-4.96058e-07 1.8405e-08 -3.58805e-05
0.00127267 -1.81318e-05 6.39049e-07
-1.81318e-05 0.000338474 2.25042e-06
6.39049e-07 2.25042e-06 0.000331661
0.000672825 -2.74359e-05 -3.70447e-07
-2.74359e-05 7.15829e-06 -2.01844e-06
-3.70447e-07 -2.01844e-06 -3.58108e-05
0.00129995 -2.58053e-05 -3.52542e-06
-2.58053e-05 0.000356552 -1.44367e-06
-3.52542e-06 -1.44367e-06 0.000349392
0.000909399 -2.27519e-05 1.52451e-05
-2.27519e-05 0.000135859 7.66458e-06
1.52451e-05 7.66458e-06 0.00014542
0.00132324 -3.41861e-05 -6.86179e-06
-3.41861e-05 0.000373299 -5.14278e-06
-6.86179e-06 -5.14278e-06 0.000365433
0.00084799 -3.01916e-05 5.65673e-06
-3.01916e-05 0.000104692 2.84812e-06
5.65673e-06 2.84812e-06 0.000113306
0.000781748 -3.63985e-05 -1.72838e-06
-3.63985e-05 7.2625e-05 -1.93511e-06
-1.72838e-06 -1.93511e-06 7.97053e-05
0.000590717 3.37545e-05 4.6534e-07
3.37545e-05 -4.2306e-05 -3.77316e-06
4.6534e-07 -3.77316e-06 -5.67368e-05
0.000589391 4.22294e-05 -1.28315e-07
4.22294e-05 -3.37558e-05 8.53267e-08
-1.28315e-07 8.53267e-08 -5.34472e-05
0.0023262 7.21028e-05 2.39737e-05
7.21028e-05 0.000977937 -3.94364e-06
2.39737e-05 -3.94364e-06 0.000987739
0.000590978 4.19499e-05 -1.33694e-06
4.19499e-05 -2.48811e-05 5.01297e-06
-1.33694e-06 5.01297e-06 -4.93431e-05
0.0025489 8.65613e-05 -4.14631e-06
8.65613e-05 0.00111429 -2.69604e-07
-4.14631e-06 -2.69604e-07 0.00112035
0.00277426 9.55434e-05 -4.97217e-05
9.55434e-05 0.00124958 3.31606e-06
-4.97217e-05 3.31606e-06 0.00125357
0.00164874 0.000143271 1.23438e-06
0.000143271 9.79299e-05 2.28666e-06
1.23438e-06 2.28666e-06 -2.07634e-05
0.00174343 0.000107525 5.71438e-07
0.000107525 8.61382e-05 4.57818e-07
5.71438e-07 4.57818e-07 -1.21708e-05
0.00171227 0.000150752 4.56969e-06
0.000150752 4.70829e-05 1.6036e-06
4.56969e-06 1.6036e-06 -3.531e-05
0.00172141 8.19201e-05 2.76593e-06
8.19201e-05 4.79645e-05 2.09573e-07
2.76593e-06 2.09573e-07 -2.50716e-05
0.0017392 3.34839e-05 2.28298e-06
3.34839e-05 8.08682e-05 -3.61452e-07
2.28298e-06 -3.61452e-07 -1.61971e-05
0.00165192 1.41937e-06 -8.94166e-07
1.41937e-06 9.18334e-05 -5.29752e-08
-8.94166e-07 -5.29752e-08 -1.98866e-05
0.00174645 4.46169e-07 -1.79886e-07
4.46169e-07 9.23689e-05 1.43425e-08
-1.79886e-07 1.43425e-08 -3.72612e-06
0.00168886 4.50501e-05 1.78639e-06
4.50501e-05 3.46308e-05 -4.74458e-07
1.78639e-06 -4.74458e-07 -4.20365e-05
0.00181468 0.000114184 6.07977e-07
0.000114184 8.75908e-05 -3.86416e-07
6.07977e-07 -3.86416e-07 1.30301e-05
0.00192217 0.000177531 3.31762e-07
0.000177531 0.000163013 2.95229e-07
3.31762e-07 2.95229e-07 7.51754e-05
0.00175961 -1.46503e-06 -1.64839e-06
-1.46503e-06 8.18627e-05 7.94106e-07
-1.64839e-06 7.94106e-07 1.611e-06
0.00190773 8.25035e-05 2.39956e-06
8.25035e-05 9.44329e-05 3.1371e-07
2.39956e-06 3.1371e-07 3.9586e-05
0.00169203 0.000162517 1.24613e-06
0.000162517 -3.43462e-05 -3.38679e-07
1.24613e-06 -3.38679e-07 -0.000105387
0.00187023 -4.30795e-05 8.61256e-07
-4.30795e-05 0.000153672 1.22574e-07
8.61256e-07 1.22574e-07 5.83344e-05
0.00181395 -8.93277e-05 8.04493e-07
-8.93277e-05 0.000122692 -6.71831e-07
8.04493e-07 -6.71831e-07 2.86962e-05
0.00169148 -0.000151832 -5.50707e-08
-0.000151832 5.6361e-05 -1.81136e-08
-5.50707e-08 -1.81136e-08 -2.90139e-05
0.00119991 -0.000199995 6.77258e-08
-0.000199995 0.000291036 3.11348e-06
6.77258e-08 3.11348e-06 0.000124259
0.00180514 -0.00027879 -7.28469e-07
-0.00027879 0.000535481 1.90848e-06
-7.28469e-07 1.90848e-06 0.00032614
0.00149677 -0.000298003 -3.21131e-06
-0.000298003 0.000159492 9.03339e-07
-3.21131e-06 9.03339e-07 -7.4203e-05
0.00162617 -0.000190047 1.19007e-06
-0.000190047 5.00964e-05 -8.25711e-07
1.19007e-06 -8.25711e-07 -5.20178e-05
0.00149655 -0.000246018 1.03575e-06
-0.000246018 -2.07403e-05 -3.154e-06
1.03575e-06 -3.154e-06 -0.000142013
0.00164633 -0.000276742 -8.44194e-07
-0.000276742 0.000136693 -8.37456e-06
-8.44194e-07 -8.37456e-06 -3.55033e-05
0.00113954 -0.000194094 1.31461e-06
-0.000194094 0.000253029 -5.14158e-07
1.31461e-06 -5.14158e-07 0.000102291
0.000710336 -0.000160676 -5.7367e-06
-0.000160676 2.61831e-05 -1.97159e-06
-5.7367e-06 -1.97159e-06 -0.000109584
0.0011949 -0.00015432 -2.93575e-07
-0.00015432 0.000350522 -5.24074e-07
-2.93575e-07 -5.24074e-07 0.000181565
0.000407743 1.91274e-05 -3.24794e-07
1.91274e-05 -0.000129509 1.53581e-06
-3.24794e-07 1.53581e-06 -0.000186766
0.000992982 -5.24843e-05 4.13047e-07
-5.24843e-05 0.000229366 8.55666e-07
4.13047e-07 8.55666e-07 0.000106299
0.000545553 3.18299e-05 1.03511e-06
3.18299e-05 -2.93673e-05 1.92558e-06
1.03511e-06 1.92558e-06 -0.000125697
0.00174711 -4.67179e-05 -8.77726e-07
-4.67179e-05 6.48453e-05 4.37631e-08
-8.77726e-07 4.37631e-08 -1.95554e-05
0.00195593 -0.000122643 1.90052e-08
-0.000122643 0.000151244 -1.06641e-07
1.90052e-08 -1.06641e-07 8.09923e-05
0.0016166 -0.000177345 -2.19335e-07
-0.000177345 -5.11713e-07 3.78783e-07
-2.19335e-07 3.78783e-07 -7.9382e-05
0.00113117 -0.000204037 1.1037e-07
-0.000204037 0.000233494 1.91249e-06
1.1037e-07 1.91249e-06 5.974e-05
0.000974395 -0.000243751 -7.94645e-07
-0.000243751 1.5925e-05 -6.57224e-08
-7.94645e-07 -6.57224e-08 -0.000218784
0.00172008 -0.000327477 -3.04169e-06
-0.000327477 0.000258064 4.9362e-07
-3.04169e-06 4.9362e-07 2.29531e-05
0.00191683 -0.000239069 9.25237e-07
-0.000239069 0.000151304 -5.73819e-07
9.25237e-07 -5.73819e-07 5.60283e-05
0.00170467 -0.000287503 1.17381e-06
-0.000287503 0.000108504 -1.54395e-06
1.17381e-06 -1.54395e-06 -3.81098e-05
0.000512266 2.94895e-05 1.81871e-07
2.94895e-05 -7.47473e-05 -7.87453e-07
1.81871e-07 -7.87453e-07 -0.000122758
0.000805145 -4.89894e-06 -4.6271e-07
-4.89894e-06 0.000121744 2.97715e-07
-4.6271e-07 2.97715e-07 3.29515e-05
0.000423886 -0.000148742 -2.4694e-06
-0.000148742 -0.000169195 2.08503e-06
-2.4694e-06 2.08503e-06 -0.000312815
0.00129607 -0.000196883 -1.83332e-07
-0.000196883 0.000362084 -1.48187e-07
-1.83332e-07 -1.48187e-07 0.000203366
0.000916212 -4.92506e-05 -1.08006e-07
-4.92506e-05 0.0001921 -2.22646e-07
-1.08006e-07 -2.22646e-07 4.70354e-05
0.000878825 -5.63179e-05 -4.30948e-07
-5.63179e-05 0.000170912 1.26347e-06
-4.30948e-07 1.26347e-06 5.37717e-05
0.00194498 -7.31758e-05 2.07647e-06
-7.31758e-05 0.000116715 4.36106e-07
2.07647e-06 4.36106e-07 6.152e-05
0.00185844 -0.000172611 -6.51717e-07
-0.000172611 5.26373e-05 -1.11089e-06
-6.51717e-07 -1.11089e-06 3.46054e-06
0.00180775 -0.000199083 2.21926e-07
-0.000199083 6.17809e-05 -6.17564e-07
2.21926e-07 -6.17564e-07 -8.64699e-06
0.00212363 -0.000326925 5.65994e-06
-0.000326925 0.000238993 -9.16795e-07
5.65994e-06 -9.16795e-07 0.000122397
0.000205538 -0.000148913 -3.03547e-06
-0.000148913 -0.000306531 -1.90802e-06
-3.03547e-06 -1.90802e-06 -0.000491839
0.00174589 -0.000340152 -2.04453e-06
-0.000340152 0.000233972 9.21762e-06
-2.04453e-06 9.21762e-06 1.52002e-05
0.0026104 -0.000400538 2.61325e-06
-0.000400538 0.000876293 -3.66888e-06
2.61325e-06 -3.66888e-06 0.000602211
0.000680449 2.964e-05 4.87176e-07
2.964e-05 1.55092e-05 -1.9167e-06
4.87176e-07 -1.9167e-06 -2.57577e-05
0.000720303 -8.67519e-05 1.83517e-06
-8.67519e-05 7.19225e-05 -2.02461e-06
1.83517e-06 -2.02461e-06 -4.53764e-06
0.000514194 2.14052e-05 -3.40703e-07
2.14052e-05 -4.47936e-05 -2.11555e-06
-3.40703e-07 -2.11555e-06 -0.000128624
0.000801325 -3.67118e-05 7.41753e-07
-3.67118e-05 0.000134445 5.84782e-07
7.41753e-07 5.84782e-07 2.32793e-05
0.000710936 -7.80447e-06 1.26446e-06
-7.80447e-06 6.69136e-05 -1.84017e-06
1.26446e-06 -1.84017e-06 -5.32347e-05
0.000216449 -9.64492e-05 1.07053e-06
-9.64492e-05 -0.000189989 1.79098e-06
1.07053e-06 1.79098e-06 -0.000339265
0.000274566 -0.0001456 -8.31978e-07
-0.0001456 -0.00030057 -3.61888e-07
-8.31978e-07 -3.61888e-07 -0.00043562
0.00229766 -0.00027829 -7.93552e-06
-0.00027829 0.000977853 3.48313e-06
-7.93552e-06 3.48313e-06 0.000764304
0.00069216 -2.63339e-05 -9.07472e-07
-2.63339e-05 3.4681e-05 -7.96245e-07
-9.07472e-07 -7.96245e-07 -3.25303e-05
0.000832277 1.53669e-06 4.70387e-08
1.53669e-06 0.000138395 -2.51988e-07
4.70387e-08 -2.51988e-07 3.88269e-05
0.0021046 0.000225108 -4.55288e-07
0.000225108 0.000301712 3.63288e-07
-4.55288e-07 3.63288e-07 0.000192015
0.000721512 3.17614e-05 -1.17325e-07
3.17614e-05 9.04585e-05 9.96273e-09
-1.17325e-07 9.96273e-09 -4.85459e-05
0.00124577 0.000204065 1.50252e-06
0.000204065 0.000361056 -3.14967e-06
1.50252e-06 -3.14967e-06 0.000167662
0.000544107 0.000106118 4.27244e-07
0.000106118 -5.12256e-05 2.98215e-07
4.27244e-07 2.98215e-07 -0.000182806
0.00189082 0.000304258 -3.00653e-07
0.000304258 0.000304005 4.73245e-07
-3.00653e-07 4.73245e-07 0.000123791
0.00174514 0.000296653 4.57958e-07
0.000296653 0.000150009 3.87952e-06
4.57958e-07 3.87952e-06 -8.78127e-06
0.00110008 0.000228418 5.55939e-07
0.000228418 0.000164998 -1.26662e-07
5.55939e-07 -1.26662e-07 -8.74458e-05
0.00144488 0.000296156 -2.93748e-06
0.000296156 0.000119682 1.88811e-06
-2.93748e-06 1.88811e-06 -9.15924e-05
0.000539326 -7.54697e-06 3.22083e-08
-7.54697e-06 -3.18542e-05 8.47141e-07
3.22083e-08 8.47141e-07 -0.000119722
0.000516989 6.83512e-05 -5.85174e-07
6.83512e-05 -2.23899e-05 -1.56709e-06
-5.85174e-07 -1.56709e-06 -0.000147983
0.00110658 0.000199167 1.81291e-06
0.000199167 0.000255055 -2.01349e-06
1.81291e-06 -2.01349e-06 4.47309e-05
0.00063614 0.000117182 -1.05869e-06
0.000117182 2.0503e-05 -2.36448e-06
-1.05869e-06 -2.36448e-06 -0.000136196
0.00196853 0.000220042 6.28585e-07
0.000220042 0.000105923 -9.87027e-07
6.28585e-07 -9.87027e-07 3.04118e-05
0.00194644 0.00027107 2.37788e-06
0.00027107 0.000207576 8.12604e-07
2.37788e-06 8.12604e-07 7.86821e-05
0.00177224 0.000330611 -1.79497e-06
0.000330611 0.000209866 -3.22939e-09
-1.79497e-06 -3.22939e-09 1.66648e-05
0.000847352 0.000229605 6.27842e-07
0.000229605 -8.37944e-05 1.09901e-06
6.27842e-07 1.09901e-06 -0.000328922
0.000671385 1.19575e-05 -3.36965e-07
1.19575e-05 4.0105e-05 1.52952e-06
-3.36965e-07 1.52952e-06 -4.93692e-05
0.0019228 0.000172792 -1.54737e-06
0.000172792 5.40541e-05 1.59112e-06
-1.54737e-06 1.59112e-06 5.44229e-06
0.001436 0.0002016 9.21743e-08
0.0002016 0.000513304 3.04851e-06
9.21743e-08 3.04851e-06 0.000344636
0.00109418 0.000207776 1.75398e-06
0.000207776 0.000220806 4.21535e-06
1.75398e-06 4.21535e-06 7.15463e-06
0.00240339 0.000269638 -1.17392e-05
0.000269638 0.000364916 -1.95607e-06
-1.17392e-05 -1.95607e-06 0.000279343
0.00127977 0.000317003 -3.17213e-06
0.000317003 -0.000131315 -4.72358e-06
-3.17213e-06 -4.72358e-06 -0.000310491
0.00174906 0.000326461 -2.79796e-06
0.000326461 0.000329214 -1.26345e-08
-2.79796e-06 -1.26345e-08 8.56146e-05
0.00075929 2.06943e-05 -1.4031e-06
2.06943e-05 8.58722e-05 -1.04885e-07
-1.4031e-06 -1.04885e-07 6.16273e-06
0.000754306 1.00822e-05 -5.30503e-07
1.00822e-05 8.81522e-05 -9.62033e-08
-5.30503e-07 -9.62033e-08 5.80426e-06
0.000844599 -2.91858e-06 -2.58669e-07
-2.91858e-06 0.000149839 6.42515e-07
-2.58669e-07 6.42515e-07 6.36953e-05
0.000691995 -1.65644e-05 -3.20228e-07
-1.65644e-05 3.80603e-05 -1.26066e-06
-3.20228e-07 -1.26066e-06 -2.92888e-05
0.000717113 2.34879e-05 4.79453e-07
2.34879e-05 6.86882e-05 1.19117e-07
4.79453e-07 1.19117e-07 -1.73082e-05
0.000541203 -4.88941e-06 -8.4354e-07
-4.88941e-06 -2.01902e-05 2.75102e-07
-8.4354e-07 2.75102e-07 -0.000113439
0.000698763 -5.75743e-06 -2.74742e-07
-5.75743e-06 4.71484e-05 -4.60205e-08
-2.74742e-07 -4.60205e-08 -2.4728e-05
0.000592357 -2.49621e-05 -6.01626e-07
-2.49621e-05 -1.42912e-06 3.59805e-07
-6.01626e-07 3.59805e-07 -9.05228e-05
0.000662344 -2.54222e-05 7.04726e-07
-2.54222e-05 3.34745e-05 -2.65607e-07
7.04726e-07 -2.65607e-07 -5.21375e-05
0.000801199 2.12171e-05 3.32154e-07
2.12171e-05 0.000124001 1.0189e-07
3.32154e-07 1.0189e-07 2.67702e-05
0.000922008 3.30217e-06 8.35897e-07
3.30217e-06 0.000162786 -6.00475e-07
8.35897e-07 -6.00475e-07 8.0128e-05
0.000749225 -4.5396e-05 1.01064e-06
-4.5396e-05 7.86671e-05 -1.17095e-07
1.01064e-06 -1.17095e-07 -1.02425e-05
0.00079499 2.18189e-05 4.80905e-07
2.18189e-05 0.000117132 2.28293e-07
4.80905e-07 2.28293e-07 1.74826e-05
0.000699051 2.51967e-05 1.86311e-06
2.51967e-05 6.01156e-05 8.2499e-07
1.86311e-06 8.2499e-07 -3.60379e-05
0.000722703 1.42919e-05 1.10453e-06
1.42919e-05 5.53876e-05 1.3187e-06
1.10453e-06 1.3187e-06 -1.5066e-05
0.000651713 -9.74229e-06 -7.95594e-09
-9.74229e-06 2.41277e-06 1.73595e-06
-7.95594e-09 1.73595e-06 -4.22299e-05
0.000664643 -8.47767e-06 -2.33421e-07
-8.47767e-06 7.98704e-06 4.71592e-08
-2.33421e-07 4.71592e-08 -3.6077e-05
0.00127821 -8.18939e-06 5.05047e-07
-8.18939e-06 0.000341068 2.15795e-06
5.05047e-07 2.15795e-06 0.000333917
0.000682626 -1.90049e-05 3.00347e-07
-1.90049e-05 1.50803e-05 -2.07981e-06
3.00347e-07 -2.07981e-06 -2.83194e-05
0.00130807 -1.5865e-05 -2.64347e-06
-1.5865e-05 0.000359492 -1.49959e-06
-2.64347e-06 -1.49959e-06 0.000352537
0.000906145 -1.55615e-05 1.14377e-05
-1.55615e-05 0.000130539 7.85173e-06
1.14377e-05 7.85173e-06 0.000140631
0.0013379 -2.4063e-05 -4.97798e-06
-2.4063e-05 0.000378652 -5.2398e-06
-4.97798e-06 -5.2398e-06 0.000371341
0.000859634 -2.31006e-05 3.89966e-06
-2.31006e-05 0.000106406 2.96285e-06
3.89966e-06 2.96285e-06 0.000115943
0.000796177 -2.93593e-05 -1.20512e-06
-2.93593e-05 7.41885e-05 -1.93282e-06
-1.20512e-06 -1.93282e-06 8.29761e-05
0.000699812 5.4715e-06 7.88848e-07
5.4715e-06 2.43255e-05 -2.07073e-06
7.88848e-07 -2.07073e-06 -1.38818e-05
0.000608399 2.68836e-05 4.53923e-07
2.68836e-05 -3.89313e-05 -3.73806e-06
4.53923e-07 -3.73806e-06 -4.98534e-05
0.000610441 3.45557e-05 -4.40932e-08
3.45557e-05 -3.09311e-05 7.33321e-08
-4.40932e-08 7.33321e-08 -4.56007e-05
0.00221713 5.90035e-05 1.99515e-05
5.90035e-05 0.000907003 -4.13868e-06
1.99515e-05 -4.13868e-06 0.000920042
0.000608809 4.58916e-05 3.72879e-07
4.58916e-05 -2.16275e-05 4.56998e-06
3.72879e-07 4.56998e-06 -4.21166e-05
0.00239891 7.41179e-05 -3.22083e-06
7.41179e-05 0.0010206 -2.09838e-07
-3.22083e-06 -2.09838e-07 0.00102981
0.00261816 8.72358e-05 -3.62758e-05
8.72358e-05 0.00115428 3.63375e-06
-3.62758e-05 3.63375e-06 0.0011602
0.00199126 0.000175153 1.23002e-06
0.000175153 0.000191831 2.23342e-06
1.23002e-06 2.23342e-06 0.000105475
0.00180281 0.00011749 4.7059e-07
0.00011749 8.17418e-05 -1.06442e-07
4.7059e-07 -1.06442e-07 6.46479e-06
0.00165471 4.53851e-05 1.32069e-06
4.53851e-05 2.18984e-05 -1.06911e-06
1.32069e-06 -1.06911e-06 -5.61304e-05
0.00172507 3.10662e-06 6.18078e-07
3.10662e-06 8.10043e-05 -2.12408e-07
6.18078e-07 -2.12408e-07 -1.50454e-05
0.00176744 1.54677e-06 -7.23462e-07
1.54677e-06 8.42301e-05 2.38412e-07
-7.23462e-07 2.38412e-07 5.37204e-06
0.00193628 7.92825e-05 2.17136e-07
7.92825e-05 0.00010989 1.68993e-07
2.17136e-07 1.68993e-07 5.50901e-05
0.00178359 0.000166386 -9.3131e-07
0.000166386 1.51831e-05 -3.00925e-07
-9.3131e-07 -3.00925e-07 -5.59255e-05
0.00179999 3.51382e-06 2.0004e-06
3.51382e-06 2.30957e-05 -1.05419e-07
2.0004e-06 -1.05419e-07 -2.32474e-05
0.00197512 0.000112309 2.88325e-06
0.000112309 7.64348e-05 5.57206e-07
2.88325e-06 5.57206e-07 3.21878e-05
0.00190098 6.20217e-05 -3.09704e-06
6.20217e-05 6.61102e-05 1.39394e-06
-3.09704e-06 1.39394e-06 7.9738e-05
0.00190772 -4.68371e-05 -7.04665e-07
-4.68371e-05 0.000153775 2.812e-08
-7.04665e-07 2.812e-08 6.96529e-05
0.00192291 -0.000125758 -1.14321e-06
-0.000125758 0.000131516 3.09027e-07
-1.14321e-06 3.09027e-07 6.10126e-05
0.00167412 -0.00017801 -9.21216e-07
-0.00017801 3.19771e-05 7.94066e-07
-9.21216e-07 7.94066e-07 -4.64529e-05
0.00115963 -0.000204677 3.06802e-07
-0.000204677 0.000246231 4.81551e-06
3.06802e-07 4.81551e-06 7.21383e-05
0.00107769 -0.000247801 5.29026e-07
-0.000247801 8.34763e-05 4.92903e-06
5.29026e-07 4.92903e-06 -0.000146242
0.00169643 -0.000322272 -3.33483e-06
-0.000322272 0.000244775 -2.68311e-06
-3.33483e-06 -2.68311e-06 1.60185e-05
0.00185987 -0.000238827 3.34716e-06
-0.000238827 0.000120345 -7.45606e-07
3.34716e-06 -7.45606e-07 2.38419e-05
0.00159415 -0.000279949 -6.42944e-07
-0.000279949 4.77539e-05 -5.43122e-06
-6.42944e-07 -5.43122e-06 -9.82372e-05
0.000138181 -0.000124674 -3.4532e-06
-0.000124674 -0.000329526 3.29467e-06
-3.4532e-06 3.29467e-06 -0.00046789
0.00175765 -0.000225773 9.50531e-06
-0.000225773 0.000633613 -4.18585e-06
9.50531e-06 -4.18585e-06 0.00047517
0.00084012 -1.7701e-05 -4.78412e-07
-1.7701e-05 0.000137559 -6.8665e-08
-4.78412e-07 -6.8665e-08 4.12778e-06
0.000659262 1.12046e-05 -3.80229e-07
1.12046e-05 8.29761e-06 1.20034e-06
-3.80229e-07 1.20034e-06 -3.71542e-05
0.000836526 1.52516e-05 -5.38967e-07
1.52516e-05 0.000138132 1.77811e-06
-5.38967e-07 1.77811e-06 4.95522e-05
0.000790643 -2.61379e-05 -9.58578e-08
-2.61379e-05 0.000119767 2.37447e-06
-9.58578e-08 2.37447e-06 2.51082e-06
0.00184915 -7.30682e-05 1.27582e-07
-7.30682e-05 6.31148e-05 4.37693e-08
1.27582e-07 4.37693e-08 8.20733e-06
0.00066634 8.04997e-06 1.04794e-06
8.04997e-06 8.26246e-06 6.48375e-08
1.04794e-06 6.48375e-08 -3.32945e-05
0.000606298 -2.44654e-05 -1.27847e-06
-2.44654e-05 -7.13906e-06 -4.32205e-08
-1.27847e-06 -4.32205e-08 -7.49747e-05
0.0018674 -0.000168265 -8.89119e-08
-0.000168265 6.93258e-05 2.77247e-07
-8.89119e-08 2.77247e-07 1.52801e-05
0.00171641 -0.000197173 -1.75083e-06
-0.000197173 8.33109e-06 4.88153e-07
-1.75083e-06 4.88153e-07 -6.36753e-05
0.000453849 -0.000165972 1.01817e-06
-0.000165972 -0.00015406 3.38896e-06
1.01817e-06 3.38896e-06 -0.000336391
0.00188953 -0.000340771 -3.14431e-06
-0.000340771 0.000483677 9.64411e-07
-3.14431e-06 9.64411e-07 0.000208352
0.00152604 -0.00032272 1.95207e-06
-0.00032272 0.000103311 -1.43749e-06
1.95207e-06 -1.43749e-06 -0.000108353
0.00204358 -0.000322958 2.48472e-06
-0.000322958 0.000205175 -1.1435e-06
2.48472e-06 -1.1435e-06 8.69865e-05
0.000766371 -2.00043e-05 1.04463e-06
-2.00043e-05 9.894e-05 -8.96943e-07
1.04463e-06 -8.96943e-07 1.77339e-05
0.000784114 -2.53974e-05 9.53363e-08
-2.53974e-05 0.000124831 9.81199e-07
9.53363e-08 9.81199e-07 1.24749e-05
0.000909158 -0.000178675 -2.12018e-06
-0.000178675 5.81137e-05 -5.31109e-07
-2.12018e-06 -5.31109e-07 -8.37313e-05
0.00143602 -0.000215315 1.02406e-05
-0.000215315 0.00048426 -2.44559e-06
1.02406e-05 -2.44559e-06 0.000304606
0.000543333 -8.25535e-05 -1.59259e-06
-8.25535e-05 -1.56111e-05 1.98212e-07
-1.59259e-06 1.98212e-07 -0.00016035
0.000746026 -7.50901e-06 2.09126e-07
-7.50901e-06 9.14768e-05 -6.47166e-07
2.09126e-07 -6.47166e-07 -2.97581e-05
0.00187271 -8.23206e-05 1.82856e-06
-8.23206e-05 1.53502e-05 1.67592e-07
1.82856e-06 1.67592e-07 -2.58596e-05
0.00181614 -0.000172402 5.64287e-07
-0.000172402 1.62166e-05 -9.7517e-07
5.64287e-07 -9.7517e-07 -9.07855e-06
0.00196094 -0.000300746 -5.40122e-07
-0.000300746 6.51914e-05 -1.24607e-06
-5.40122e-07 -1.24607e-06 -9.11358e-06
0.00152407 -0.000350518 2.69438e-06
-0.000350518 -1.47383e-05 1.37002e-06
2.69438e-06 1.37002e-06 -0.000157359
0.000696939 -0.000147405 -6.60757e-06
-0.000147405 -2.65388e-05 -5.48773e-06
-6.60757e-06 -5.48773e-06 -0.000208943
0.00288365 -0.000452954 -4.6302e-06
-0.000452954 0.000977982 5.00006e-06
-4.6302e-06 5.00006e-06 0.000683154
0.000469056 5.50187e-05 -1.19696e-06
5.50187e-05 -7.9079e-05 -2.76126e-06
-1.19696e-06 -2.76126e-06 -0.000149656
0.000724913 -5.19944e-05 2.22831e-06
-5.19944e-05 6.3405e-05 -1.47009e-06
2.22831e-06 -1.47009e-06 -7.36778e-06
0.000944929 -6.89822e-05 1.5091e-06
-6.89822e-05 0.000204445 -3.37105e-08
1.5091e-06 -3.37105e-08 0.000112293
0.000502422 1.66862e-05 -3.7026e-07
1.66862e-05 -3.60033e-05 5.01774e-07
-3.7026e-07 5.01774e-07 -0.000146489
0.00098546 -4.42326e-05 1.45605e-07
-4.42326e-05 0.000228806 -1.46084e-07
1.45605e-07 -1.46084e-07 0.000117359
0.000879983 -4.67125e-05 2.27353e-06
-4.67125e-05 0.000145461 -5.28485e-07
2.27353e-06 -5.28485e-07 1.22931e-05
-6.91103e-05 -7.91654e-05 5.63084e-06
-7.91654e-05 -0.000258863 1.13081e-06
5.63084e-06 1.13081e-06 -0.000492719
0.000456827 -0.000192821 -1.54546e-05
-0.000192821 -0.000175512 4.2554e-06
-1.54546e-05 4.2554e-06 -0.000318065
0.000563754 1.87867e-05 -2.07899e-07
1.87867e-05 -1.44474e-05 -3.65624e-07
-2.07899e-07 -3.65624e-07 -0.000106356
0.000667859 8.59287e-05 -3.06783e-06
8.59287e-05 6.25472e-05 -3.06216e-06
-3.06783e-06 -3.06216e-06 -6.50257e-05
0.00202848 0.000218619 -1.47739e-06
0.000218619 0.000137695 -9.29255e-07
-1.47739e-06 -9.29255e-07 6.52261e-05
0.00185285 0.000273665 2.72311e-07
0.000273665 0.000160538 2.40686e-06
2.72311e-07 2.40686e-06 2.68549e-05
0.00150558 0.000159019 -4.74514e-06
0.000159019 0.000502684 -2.5191e-06
-4.74514e-06 -2.5191e-06 0.000345407
0.00109505 0.000199323 -1.80551e-06
0.000199323 0.000257875 -7.69498e-06
-1.80551e-06 -7.69498e-06 4.48236e-05
0.00176525 0.000324574 1.42638e-06
0.000324574 0.000201125 1.41263e-06
1.42638e-06 1.41263e-06 9.96546e-06
0.00194027 0.000316667 3.19638e-07
0.000316667 0.000509962 1.29699e-07
3.19638e-07 1.29699e-07 0.00026078
0.000701995 3.3203e-05 6.57483e-07
3.3203e-05 6.6485e-05 -7.5809e-07
6.57483e-07 -7.5809e-07 -3.02792e-05
0.00190056 0.000167157 5.37939e-08
0.000167157 3.17865e-05 -8.90438e-08
5.37939e-08 -8.90438e-08 -8.76302e-06
0.000948143 0.000141606 7.90001e-07
0.000141606 0.000231506 1.7011e-06
7.90001e-07 1.7011e-06 7.48945e-05
0.000758176 0.000181476 1.04718e-06
0.000181476 3.15479e-05 6.76863e-08
1.04718e-06 6.76863e-08 -0.000181132
0.00212156 0.000258871 2.54043e-06
0.000258871 0.000208586 2.3566e-07
2.54043e-06 2.3566e-07 0.000122937
0.00148024 0.000327715 -5.79387e-07
0.000327715 -2.14955e-05 -1.78962e-06
-5.79387e-07 -1.78962e-06 -0.000199196
0.00206159 0.000351378 3.31207e-07
0.000351378 0.000515383 2.35481e-07
3.31207e-07 2.35481e-07 0.000268681
0.00127389 8.86449e-05 -2.5249e-06
8.86449e-05 0.000409484 2.32016e-06
-2.5249e-06 2.32016e-06 0.00028287
0.00234379 0.000182285 -2.82912e-05
0.000182285 0.000316572 -4.66683e-06
-2.82912e-05 -4.66683e-06 0.00030603
0.00231786 0.000296295 -3.86306e-06
0.000296295 0.000970654 1.80352e-07
-3.86306e-06 1.80352e-07 0.000781011
0.00228107 0.000329216 -6.51526e-06
0.000329216 0.000806865 1.52865e-06
-6.51526e-06 1.52865e-06 0.000573071
0.00176916 0.000348695 -1.09627e-05
0.000348695 3.41294e-05 -9.54277e-06
-1.09627e-05 -9.54277e-06 -8.01698e-05
0.00132757 0.000324003 -9.36565e-06
0.000324003 4.17814e-05 -9.33225e-07
-9.36565e-06 -9.33225e-07 -0.000184236
0.000443062 0.000207427 1.74694e-05
0.000207427 -0.000576739 -6.46342e-06
1.74694e-05 -6.46342e-06 -0.000783585
0.000677229 2.01078e-05 3.50342e-07
2.01078e-05 4.93332e-05 -2.50436e-07
3.50342e-07 -2.50436e-07 -3.59725e-05
0.000762163 2.58363e-06 -1.83099e-07
2.58363e-06 0.000108044 5.60143e-07
-1.83099e-07 5.60143e-07 2.0412e-05
0.00108073 1.98859e-05 6.58181e-07
1.98859e-05 0.000271884 -7.68758e-07
6.58181e-07 -7.68758e-07 0.000180868
0.000687161 -5.42833e-05 -2.02347e-07
-5.42833e-05 4.52632e-05 -1.58881e-06
-2.02347e-07 -1.58881e-06 -2.96982e-05
0.000637486 -4.56012e-05 -1.22773e-06
-4.56012e-05 2.17053e-05 1.68137e-07
-1.22773e-06 1.68137e-07 -6.50669e-05
0.000877796 9.48581e-05 -4.29726e-07
9.48581e-05 0.000169396 5.21432e-07
-4.29726e-07 5.21432e-07 7.06254e-05
0.00053006 -3.5162e-05 -9.01763e-07
-3.5162e-05 -3.72644e-05 6.66477e-07
-9.01763e-07 6.66477e-07 -0.0001253
0.000697073 -2.4307e-05 2.02098e-08
-2.4307e-05 5.00448e-05 -1.98786e-08
2.02098e-08 -1.98786e-08 -2.63636e-05
0.000676533 2.56223e-05 -7.31196e-08
2.56223e-05 3.66422e-05 -2.69449e-07
-7.31196e-08 -2.69449e-07 -5.19186e-05
0.00081624 -1.2973e-06 -5.08052e-07
-1.2973e-06 0.000103674 -4.98863e-07
-5.08052e-07 -4.98863e-07 1.90515e-05
0.000790772 3.52325e-06 3.30283e-07
3.52325e-06 0.000106205 3.13599e-08
3.30283e-07 3.13599e-08 1.26791e-05
0.000811798 -2.38774e-05 -1.3717e-07
-2.38774e-05 0.000113113 -8.87111e-08
-1.3717e-07 -8.87111e-08 2.36854e-05
0.000851265 -2.99146e-06 -4.02422e-08
-2.99146e-06 0.00011626 -9.04851e-07
-4.02422e-08 -9.04851e-07 3.2613e-05
0.000853022 1.6928e-05 -3.69064e-07
1.6928e-05 0.00012968 -1.29486e-06
-3.69064e-07 -1.29486e-06 3.36428e-05
0.000832172 4.79969e-05 4.32951e-07
4.79969e-05 0.000121917 2.65706e-07
4.32951e-07 2.65706e-07 3.04619e-05
0.000715505 3.27957e-05 2.99298e-07
3.27957e-05 6.82205e-05 7.17875e-07
2.99298e-07 7.17875e-07 -3.2834e-05
0.00057393 -1.59243e-05 -1.44995e-07
-1.59243e-05 -3.23466e-05 1.63379e-06
-1.44995e-07 1.63379e-06 -0.00010519
0.000890626 -1.37275e-05 2.93983e-07
-1.37275e-05 0.000183492 -8.93619e-07
2.93983e-07 -8.93619e-07 8.02082e-05
0.000533972 -2.26712e-06 -5.67244e-07
-2.26712e-06 -4.98907e-05 1.66505e-06
-5.67244e-07 1.66505e-06 -0.000126758
0.000636577 9.33651e-06 -5.93449e-07
9.33651e-06 -4.14729e-06 1.68559e-06
-5.93449e-07 1.68559e-06 -5.04524e-05
0.000645975 1.25779e-05 5.41414e-07
1.25779e-05 2.25732e-07 4.18645e-09
5.41414e-07 4.18645e-09 -4.50341e-05
0.000615106 1.74762e-06 1.43978e-07
1.74762e-06 -4.25659e-05 3.59325e-06
1.43978e-07 3.59325e-06 -5.42868e-05
0.000655895 -3.62418e-06 -7.01536e-07
-3.62418e-06 3.63362e-06 -1.89829e-06
-7.01536e-07 -1.89829e-06 -4.08614e-05
0.000971725 -5.56217e-06 -1.73892e-06
-5.56217e-06 0.000163951 -1.58176e-06
-1.73892e-06 -1.58176e-06 0.0001547
0.00226166 -1.15837e-05 7.25113e-06
-1.15837e-05 0.000914086 4.93555e-06
7.25113e-06 4.93555e-06 0.000931833
0.00134673 -1.43794e-05 -2.89476e-06
-1.43794e-05 0.000382363 -5.18275e-06
-2.89476e-06 -5.18275e-06 0.000375152
0.000859284 -1.56066e-05 2.05587e-06
-1.56066e-05 0.000102464 3.04114e-06
2.05587e-06 3.04114e-06 0.000112698
0.000809849 -2.19157e-05 -6.49956e-07
-2.19157e-05 7.6829e-05 -1.96225e-06
-6.49956e-07 -1.96225e-06 8.66458e-05
0.000661637 1.00918e-05 -3.72732e-07
1.00918e-05 4.34483e-06 -2.05671e-06
-3.72732e-07 -2.05671e-06 -3.27621e-05
0.000683688 -2.8105e-06 5.28204e-07
-2.8105e-06 1.58665e-05 -5.20077e-08
5.28204e-07 -5.20077e-08 -2.29049e-05
0.000632457 2.04412e-05 3.42197e-07
2.04412e-05 -2.91387e-05 -3.62856e-06
3.42197e-07 -3.62856e-06 -3.76242e-05
0.00094292 3.18276e-05 -4.40453e-07
3.18276e-05 0.000155299 4.25392e-08
-4.40453e-07 4.25392e-08 0.000145894
0.00215604 4.6824e-05 1.5937e-05
4.6824e-05 0.000864976 -4.28835e-06
1.5937e-05 -4.28835e-06 0.000880564
0.000619334 3.56437e-05 -2.12214e-07
3.56437e-05 -2.56373e-05 4.01645e-06
-2.12214e-07 4.01645e-06 -4.0581e-05
0.00227137 6.09856e-05 -2.69129e-06
6.09856e-05 0.000939254 -1.52952e-07
-2.69129e-06 -1.52952e-07 0.00095171
0.00246701 7.58273e-05 -2.70813e-05
7.58273e-05 0.00106052 3.98895e-06
-2.70813e-05 3.98895e-06 0.0010692
0.00187711 0.000170452 -2.91855e-06
0.000170452 6.58266e-05 -8.20055e-07
-2.91855e-06 -8.20055e-07 -5.42194e-06
0.00195852 7.66372e-05 -2.38342e-07
7.66372e-05 0.000121669 -1.43639e-07
-2.38342e-07 -1.43639e-07 6.68965e-05
0.00177553 2.01278e-06 -3.5705e-07
2.01278e-06 8.64361e-05 -3.76551e-07
-3.5705e-07 -3.76551e-07 8.99e-06
0.0017756 6.59909e-06 9.92451e-08
6.59909e-06 1.24689e-05 -2.72269e-07
9.92451e-08 -2.72269e-07 -3.4221e-05
0.00187844 0.00010949 -3.24848e-07
0.00010949 3.2027e-05 -2.1796e-07
-3.24848e-07 -2.1796e-07 -1.31691e-05
0.00176403 5.79498e-05 2.65922e-06
5.79498e-05 -1.75745e-05 8.76353e-07
2.65922e-06 8.76353e-07 -1.20472e-05
0.00188741 1.58e-05 1.49099e-06
1.58e-05 1.05643e-05 3.27115e-08
1.49099e-06 3.27115e-08 3.15544e-06
0.00276072 0.000191097 2.33862e-05
0.000191097 6.26124e-05 -1.02195e-06
2.33862e-05 -1.02195e-06 4.01005e-05
0.00196632 3.09955e-05 -2.32469e-05
3.09955e-05 0.000225294 2.62438e-06
-2.32469e-05 2.62438e-06 0.000259371
0.000686902 6.4104e-05 -6.64982e-07
6.4104e-05 4.50685e-05 -1.34118e-06
-6.64982e-07 -1.34118e-06 -1.99497e-05
0.00175496 -7.26675e-05 -2.39422e-06
-7.26675e-05 1.09801e-05 -2.89672e-07
-2.39422e-06 -2.89672e-07 -4.38179e-05
0.00189914 -0.000162873 1.12088e-07
-0.000162873 0.000100594 1.06378e-06
1.12088e-07 1.06378e-06 4.15595e-05
0.00162666 -0.000195849 1.39515e-06
-0.000195849 -4.35105e-05 1.27595e-06
1.39515e-06 1.27595e-06 -0.00011642
0.00062727 -0.000176385 2.74078e-06
-0.000176385 -4.45976e-05 6.81319e-06
2.74078e-06 6.81319e-06 -0.000222807
0.00121249 -0.000284355 1.6627e-06
-0.000284355 0.000116956 6.05163e-06
1.6627e-06 6.05163e-06 -0.000160571
0.00134242 -0.000310829 -8.83161e-07
-0.000310829 -1.03567e-05 -7.24969e-06
-8.83161e-07 -7.24969e-06 -0.00021722
0.00194801 -0.000320838 -5.68384e-06
-0.000320838 0.000162289 -2.96087e-06
-5.68384e-06 -2.96087e-06 4.18631e-05
0.00152743 -0.000214665 9.664e-06
-0.000214665 0.000404274 -3.23354e-06
9.664e-06 -3.23354e-06 0.000255413
0.000479316 -0.000146201 7.2292e-06
-0.000146201 -6.06373e-05 -6.95141e-06
7.2292e-06 -6.95141e-06 -0.000206101
0.000906228 -9.75323e-05 -5.61735e-08
-9.75323e-05 0.000186859 -1.63016e-06
-5.61735e-08 -1.63016e-06 4.12088e-05
0.000662786 -5.43302e-06 -1.24996e-06
-5.43302e-06 6.27902e-06 2.07251e-06
-1.24996e-06 2.07251e-06 -3.49053e-05
0.000821319 -1.03588e-05 3.23698e-07
-1.03588e-05 0.000140974 6.41498e-07
3.23698e-07 6.41498e-07 1.68866e-05
0.00098926 -4.95378e-05 6.43666e-07
-4.95378e-05 0.000231675 4.50864e-07
6.43666e-07 4.50864e-07 0.000149516
0.000771861 -1.87377e-05 -6.17061e-07
-1.87377e-05 0.000115869 7.27962e-07
-6.17061e-07 7.27962e-07 3.92345e-06
0.000482382 -1.63575e-05 -1.2276e-06
-1.63575e-05 -8.2919e-05 1.6378e-06
-1.2276e-06 1.6378e-06 -0.00014825
0.00190131 -9.17118e-05 -6.87362e-08
-9.17118e-05 1.42925e-05 4.70624e-08
-6.87362e-08 4.70624e-08 -1.70808e-05
0.000577914 3.38519e-05 1.00309e-07
3.38519e-05 -1.36784e-05 -9.95446e-07
1.00309e-07 -9.95446e-07 -8.47287e-05
0.000719149 -5.44333e-05 1.12368e-07
-5.44333e-05 6.72678e-05 2.7049e-07
1.12368e-07 2.7049e-07 -8.0062e-06
0.000804928 -3.88413e-05 -4.42901e-07
-3.88413e-05 0.000126009 7.5894e-07
-4.42901e-07 7.5894e-07 3.11158e-05
0.00179217 -0.000178042 9.02618e-07
-0.000178042 5.5097e-08 -2.16725e-07
9.02618e-07 -2.16725e-07 -2.77796e-05
0.00197987 -0.000299549 -1.15002e-06
-0.000299549 8.95393e-05 -4.85558e-07
-1.15002e-06 -4.85558e-07 1.03011e-05
0.000950761 -0.000186272 2.98108e-06
-0.000186272 0.000104722 2.60476e-08
2.98108e-06 2.60476e-08 -7.43639e-05
0.00179565 -0.000365707 3.76378e-06
-0.000365707 0.000408972 4.47309e-09
3.76378e-06 4.47309e-09 0.000120868
0.00179314 -0.000371367 1.22889e-07
-0.000371367 0.000137809 1.51155e-06
1.22889e-07 1.51155e-06 -1.13632e-05
0.00060448 -8.6844e-06 -2.82239e-07
-8.6844e-06 2.37225e-05 -6.34289e-08
-2.82239e-07 -6.34289e-08 -8.55176e-05
0.000818819 -5.51422e-05 -9.19141e-07
-5.51422e-05 0.000138598 2.60044e-07
-9.19141e-07 2.60044e-07 2.13815e-05
0.000646679 -0.000207027 -4.08495e-06
-0.000207027 -4.98896e-05 1.05506e-06
-4.08495e-06 1.05506e-06 -0.000212911
0.000602416 -9.10673e-05 -2.02939e-07
-9.10673e-05 8.53671e-05 -6.71198e-07
-2.02939e-07 -6.71198e-07 -0.000124967
0.000799071 -6.72693e-05 -1.92001e-07
-6.72693e-05 0.000101594 -8.54196e-08
-1.92001e-07 -8.54196e-08 -3.08863e-05
0.0021307 -0.000177344 -4.11271e-06
-0.000177344 0.000124529 -5.85463e-07
-4.11271e-06 -5.85463e-07 0.000107868
0.00183806 -0.000197804 -5.83365e-06
-0.000197804 -1.22631e-05 1.2937e-06
-5.83365e-06 1.2937e-06 -1.95899e-05
0.00228878 -0.000409284 -3.32493e-06
-0.000409284 0.000270942 -3.32645e-07
-3.32493e-06 -3.32645e-07 0.000151511
0.00286833 -0.000474063 -1.93816e-05
-0.000474063 0.000845995 3.09257e-06
-1.93816e-05 3.09257e-06 0.000637027
0.000939245 -0.000201993 -8.10248e-06
-0.000201993 0.000134996 -2.95769e-06
-8.10248e-06 -2.95769e-06 -7.84792e-05
0.000491281 1.96955e-05 1.12522e-06
1.96955e-05 -5.59798e-05 -2.29231e-06
1.12522e-06 -2.29231e-06 -0.000147159
0.000483967 4.69969e-05 7.45491e-07
4.69969e-05 -6.36469e-05 -6.56801e-07
7.45491e-07 -6.56801e-07 -0.000161297
0.0006758 7.94865e-06 9.76406e-07
7.94865e-06 5.85273e-05 -1.13363e-06
9.76406e-07 -1.13363e-06 -4.79079e-05
0.00112697 -0.000118305 8.05564e-07
-0.000118305 0.000329963 1.48512e-06
8.05564e-07 1.48512e-06 0.000207349
0.000730284 -4.75036e-05 9.33407e-07
-4.75036e-05 7.03133e-05 1.64687e-06
9.33407e-07 1.64687e-06 -4.25552e-05
0.000284155 -5.77429e-05 2.66008e-06
-5.77429e-05 -9.6855e-05 4.53032e-07
2.66008e-06 4.53032e-07 -0.000302661
0.000593494 -0.000214363 4.70734e-06
-0.000214363 8.5534e-05 1.00722e-06
4.70734e-06 1.00722e-06 -0.000175488
0.000746176 6.42934e-05 9.52959e-07
6.42934e-05 0.000102103 -3.27566e-06
9.52959e-07 -3.27566e-06 -3.49127e-06
0.00039233 6.81561e-05 6.9141e-07
6.81561e-05 -9.11139e-05 -8.49542e-07
6.9141e-07 -8.49542e-07 -0.000232752
0.00196138 0.000162248 5.01569e-06
0.000162248 5.69015e-05 -4.58139e-07
5.01569e-06 -4.58139e-07 2.44893e-05
0.00185924 0.00024868 8.8113e-06
0.00024868 6.41183e-05 1.4441e-06
8.8113e-06 1.4441e-06 -2.11019e-05
0.00177173 0.00034278 7.13079e-06
0.00034278 0.000137147 2.34765e-06
7.13079e-06 2.34765e-06 -3.8998e-05
0.000391702 0.000153431 1.37332e-06
0.000153431 -0.000176123 -1.41971e-06
1.37332e-06 -1.41971e-06 -0.000387124
0.00244668 0.000382804 3.74622e-06
0.000382804 0.000738816 1.36458e-06
3.74622e-06 1.36458e-06 0.000490332
0.0012471 7.17343e-05 -2.61766e-07
7.17343e-05 0.000386266 6.07208e-07
-2.61766e-07 6.07208e-07 0.000269153
0.00206198 0.000158792 -2.23747e-06
0.000158792 0.000172116 1.018e-09
-2.23747e-06 1.018e-09 0.000169328
0.00141742 0.000210935 -1.39339e-06
0.000210935 0.000463961 -4.05947e-07
-1.39339e-06 -4.05947e-07 0.000289941
0.00162541 0.000276916 -7.59636e-07
0.000276916 0.000464037 1.4107e-06
-7.59636e-07 1.4107e-06 0.000226689
0.00192206 0.00034538 -6.88428e-07
0.00034538 0.000120449 -2.3985e-06
-6.88428e-07 -2.3985e-06 9.39085e-06
0.00152565 0.000344792 -1.34445e-06
0.000344792 0.000148496 2.98884e-06
-1.34445e-06 2.98884e-06 -8.43383e-05
0.00163021 0.000267641 2.48573e-05
0.000267641 -0.000189647 1.00198e-06
2.48573e-05 1.00198e-06 -0.00046642
0.00123425 0.000126824 -3.15679e-06
0.000126824 0.000389665 -1.30565e-06
-3.15679e-06 -1.30565e-06 0.000253938
0.00228731 0.00025891 -3.45715e-05
0.00025891 0.000320443 -1.66643e-05
-3.45715e-05 -1.66643e-05 0.000323302
0.00125421 0.00021993 -5.67767e-06
0.00021993 0.000345309 -9.33284e-07
-5.67767e-06 -9.33284e-07 0.000166921
0.00106224 0.000264558 -4.04735e-06
0.000264558 7.19826e-05 -1.4472e-06
-4.04735e-06 -1.4472e-06 -0.000172071
0.000461997 0.000352146 -9.72158e-06
0.000352146 -0.000550899 -7.95854e-06
-9.72158e-06 -7.95854e-06 -0.000742607
0.00889343 0.000242968 -0.000130567
0.000242968 0.00229581 -3.88706e-05
-0.000130567 -3.88706e-05 0.00134596
0.0048332 0.000537815 0.00011951
0.000537815 0.000758801 -7.97112e-06
0.00011951 -7.97112e-06 0.000187917
0.00109107 0.000378718 1.83892e-05
0.000378718 -0.000141146 1.67182e-05
1.83892e-05 1.67182e-05 -0.000299659
-0.00470992 -0.000487827 0.00020429
-0.000487827 -0.00163092 -3.98543e-06
0.00020429 -3.98543e-06 -0.00237316
0.00553362 -0.00139843 -1.1197e-05
-0.00139843 0.000930056 4.49629e-06
-1.1197e-05 4.49629e-06 0.00250056
0.000640669 1.10925e-05 1.21046e-06
1.10925e-05 4.27185e-05 -8.62948e-08
1.21046e-06 -8.62948e-08 -4.57436e-05
0.000876447 3.70355e-06 7.7002e-07
3.70355e-06 0.000165775 -4.89059e-07
7.7002e-07 -4.89059e-07 7.5084e-05
0.000909931 5.56978e-05 -1.29731e-06
5.56978e-05 0.000171776 -1.95392e-06
-1.29731e-06 -1.95392e-06 7.91061e-05
0.000680405 -5.75287e-05 1.2338e-07
-5.75287e-05 4.67973e-05 -1.35451e-06
1.2338e-07 -1.35451e-06 -3.36646e-05
0.000647558 5.27954e-05 -1.13809e-06
5.27954e-05 2.25379e-05 -7.4149e-07
-1.13809e-06 -7.4149e-07 -6.86524e-05
0.00079372 -3.51188e-05 -2.63321e-09
-3.51188e-05 0.000108977 -2.06094e-07
-2.63321e-09 -2.06094e-07 1.50294e-05
0.00087023 5.30324e-07 -1.44977e-06
5.30324e-07 0.00014412 9.5858e-07
-1.44977e-06 9.5858e-07 5.4884e-05
0.00076255 -1.0975e-05 -9.87016e-07
-1.0975e-05 7.36646e-05 -4.34188e-07
-9.87016e-07 -4.34188e-07 -1.2872e-05
0.000766564 6.09581e-05 -1.05933e-06
6.09581e-05 9.38548e-05 -3.42491e-07
-1.05933e-06 -3.42491e-07 -5.23119e-06
0.000629276 -6.97179e-06 -7.58138e-08
-6.97179e-06 4.56356e-06 6.69377e-07
-7.58138e-08 6.69377e-07 -7.05559e-05
0.000719573 2.0769e-05 8.37906e-09
2.0769e-05 6.8019e-05 -1.19964e-08
8.37906e-09 -1.19964e-08 -3.11084e-05
0.000810282 -6.00372e-07 5.20377e-07
-6.00372e-07 9.23884e-05 5.81665e-07
5.20377e-07 5.81665e-07 8.48468e-06
0.000846274 2.03406e-05 -5.16633e-07
2.03406e-05 0.000124862 -3.00837e-07
-5.16633e-07 -3.00837e-07 3.13409e-05
0.000966097 5.90589e-05 -6.01554e-07
5.90589e-05 0.000192469 -8.02777e-07
-6.01554e-07 -8.02777e-07 9.81085e-05
0.000586972 2.35309e-05 6.53142e-07
2.35309e-05 -2.45552e-05 -1.7339e-06
6.53142e-07 -1.7339e-06 -0.000111776
0.0008604 5.7648e-05 1.41153e-06
5.7648e-05 0.000134066 4.73887e-07
1.41153e-06 4.73887e-07 3.79609e-05
0.000648485 -1.19077e-05 9.31463e-07
-1.19077e-05 1.4821e-05 8.38956e-08
9.31463e-07 8.38956e-08 -7.89383e-05
0.000561404 -4.7848e-05 -1.16109e-06
-4.7848e-05 -3.30753e-05 1.40867e-06
-1.16109e-06 1.40867e-06 -0.000111493
0.000822524 1.05315e-05 -6.06074e-07
1.05315e-05 0.00012637 -2.30597e-07
-6.06074e-07 -2.30597e-07 2.86968e-05
0.000832838 4.97381e-05 1.99656e-07
4.97381e-05 0.000130885 -1.71859e-06
1.99656e-07 -1.71859e-06 3.36443e-05
0.000697681 -4.60257e-06 -7.78649e-07
-4.60257e-06 6.45804e-05 -2.79344e-07
-7.78649e-07 -2.79344e-07 -2.94446e-05
0.000819535 -4.31575e-06 9.5713e-07
-4.31575e-06 0.000130123 -5.01137e-07
9.5713e-07 -5.01137e-07 3.41212e-05
0.000709418 -6.11847e-05 -1.75512e-06
-6.11847e-05 5.2129e-05 9.2047e-07
-1.75512e-06 9.2047e-07 -2.27651e-05
0.000556939 -8.0042e-07 1.21786e-07
-8.0042e-07 -3.39049e-05 6.76218e-07
1.21786e-07 6.76218e-07 -0.000112963
0.000656573 3.0236e-06 -8.535e-07
3.0236e-06 4.55949e-06 1.84745e-06
-8.535e-07 1.84745e-06 -4.15086e-05
0.000647562 -6.7854e-06 4.61394e-07
-6.7854e-06 1.4747e-06 -2.58276e-08
4.61394e-07 -2.58276e-08 -4.44334e-05
0.000639048 7.32561e-06 -3.81301e-07
7.32561e-06 -2.71319e-05 5.18594e-06
-3.81301e-07 5.18594e-06 -3.9657e-05
0.000645502 2.98693e-06 -2.46193e-07
2.98693e-06 -2.84372e-07 -1.76719e-06
-2.46193e-07 -1.76719e-06 -4.52525e-05
0.000623302 1.85252e-06 2.8762e-07
1.85252e-06 -3.77202e-05 -1.60449e-08
2.8762e-07 -1.60449e-08 -4.95109e-05
0.0022789 -1.25047e-06 -1.52196e-07
-1.25047e-06 0.000923528 5.03152e-06
-1.52196e-07 5.03152e-06 0.000941142
0.000655292 -3.86583e-06 -4.86351e-07
-3.86583e-06 -1.93108e-05 -5.22949e-06
-4.86351e-07 -5.22949e-06 -3.07178e-05
0.00156286 -8.87532e-06 -2.13472e-07
-8.87532e-06 0.000508376 5.99576e-08
-2.13472e-07 5.99576e-08 0.000522331
0.000807771 -1.40837e-05 -1.47447e-07
-1.40837e-05 7.17743e-05 -1.9471e-06
-1.47447e-07 -1.9471e-06 8.23617e-05
0.00066552 3.94648e-06 2.61969e-07
3.94648e-06 7.44719e-06 -1.92498e-06
2.61969e-07 -1.92498e-06 -2.82079e-05
0.000673063 -6.09628e-06 2.95534e-07
-6.09628e-06 1.05394e-05 2.2135e-08
2.95534e-07 2.2135e-08 -2.65727e-05
0.000642414 1.38088e-05 2.05677e-07
1.38088e-05 -2.64102e-05 -3.49484e-06
2.05677e-07 -3.49484e-06 -3.32161e-05
0.000664384 -1.51634e-05 -1.76129e-06
-1.51634e-05 4.98597e-06 2.05395e-06
-1.76129e-06 2.05395e-06 -3.3964e-05
0.000930473 2.3556e-05 -1.2655e-07
2.3556e-05 0.000143419 -7.324e-07
-1.2655e-07 -7.324e-07 0.00013681
0.00208988 3.45298e-05 1.2201e-05
3.45298e-05 0.000821564 -4.42718e-06
1.2201e-05 -4.42718e-06 0.000839257
0.000619947 2.82428e-05 -4.24125e-07
2.82428e-05 -3.14626e-05 3.75334e-06
-4.24125e-07 3.75334e-06 -4.29902e-05
0.0022235 4.79587e-05 -7.54011e-06
4.79587e-05 0.000905839 1.17185e-06
-7.54011e-06 1.17185e-06 0.000920802
0.00231427 6.26066e-05 -2.08228e-05
6.26066e-05 0.000964886 4.15932e-06
-2.08228e-05 4.15932e-06 0.000976852
0.0017808 0.000106504 -2.93927e-06
0.000106504 -1.29359e-05 -6.02072e-07
-2.93927e-06 -6.02072e-07 -5.91778e-05
0.00174422 9.14032e-06 -1.58634e-06
9.14032e-06 -2.02179e-06 -6.75179e-07
-1.58634e-06 -6.75179e-07 -4.90789e-05
0.00155756 5.30144e-05 9.84693e-06
5.30144e-05 -0.000140422 -6.89881e-07
9.84693e-06 -6.89881e-07 -0.000142592
0.00217436 0.000133913 2.50107e-05
0.000133913 -0.000168951 5.53459e-06
2.50107e-05 5.53459e-06 -0.000192837
0.001852 6.8118e-06 -2.62907e-06
6.8118e-06 -7.66035e-06 -4.78571e-07
-2.62907e-06 -4.78571e-07 -1.53053e-05
0.00179832 4.01608e-05 4.35393e-06
4.01608e-05 0.000140104 -5.3367e-07
4.35393e-06 -5.3367e-07 0.000162001
0.00290198 -4.71779e-06 -2.13813e-05
-4.71779e-06 0.000733102 1.09904e-06
-2.13813e-05 1.09904e-06 0.000710677
0.00271411 -1.73601e-05 0.000131215
-1.73601e-05 -0.0003307 -1.71085e-05
0.000131215 -1.71085e-05 -0.000465957
0.00259555 1.53891e-05 -2.38952e-06
1.53891e-05 0.000246703 3.6359e-06
-2.38952e-06 3.6359e-06 0.000249207
0.000702032 5.99686e-05 -3.32802e-07
5.99686e-05 5.64889e-05 -1.40417e-06
-3.32802e-07 -1.40417e-06 -1.06602e-05
0.000713236 -8.68096e-06 7.27405e-07
-8.68096e-06 6.48446e-05 -1.07836e-07
7.27405e-07 -1.07836e-07 -4.28211e-06
0.00067944 -7.39503e-05 1.99741e-07
-7.39503e-05 4.97302e-05 -8.75889e-07
1.99741e-07 -8.75889e-07 -3.31143e-05
0.000717088 -2.9791e-05 -1.04631e-06
-2.9791e-05 8.51559e-05 -2.28764e-07
-1.04631e-06 -2.28764e-07 -7.67011e-06
0.00191972 -0.000101101 -4.06884e-06
-0.000101101 7.16203e-06 1.63318e-07
-4.06884e-06 1.63318e-07 -1.45447e-05
0.00176156 -0.000182928 -7.24215e-07
-0.000182928 -1.71384e-05 1.083e-06
-7.24215e-07 1.083e-06 -4.90366e-05
0.00198072 -0.000296166 -5.26395e-06
-0.000296166 0.000105242 4.99223e-07
-5.26395e-06 4.99223e-07 2.02835e-05
0.00150204 -0.000258593 3.22538e-06
-0.000258593 0.000399801 4.64103e-06
3.22538e-06 4.64103e-06 0.000219225
0.000395395 -0.000254822 6.92365e-06
-0.000254822 -0.000335458 -3.74009e-06
6.92365e-06 -3.74009e-06 -0.000613549
0.00220811 -0.000401913 3.82682e-06
-0.000401913 0.000367839 -3.51781e-06
3.82682e-06 -3.51781e-06 0.000211644
0.000795868 -0.000207399 -5.45283e-06
-0.000207399 5.03147e-05 -2.97879e-07
-5.45283e-06 -2.97879e-07 -0.000129561
0.00143676 -0.000106778 -9.05383e-07
-0.000106778 0.00051857 -1.61797e-06
-9.05383e-07 -1.61797e-06 0.000332106
0.000564342 -8.17872e-05 -1.76251e-06
-8.17872e-05 -3.1155e-05 1.23801e-06
-1.76251e-06 1.23801e-06 -0.000161063
0.000728825 -2.69157e-05 -7.90448e-07
-2.69157e-05 6.81659e-05 1.74551e-06
-7.90448e-07 1.74551e-06 -3.67781e-06
0.000578635 -6.44705e-05 -7.53832e-07
-6.44705e-05 7.7865e-06 -2.00559e-08
-7.53832e-07 -2.00559e-08 -0.000115467
0.000786785 -1.03154e-05 -8.55682e-07
-1.03154e-05 0.00012643 3.99329e-07
-8.55682e-07 3.99329e-07 1.91868e-05
0.000717501 4.83187e-06 1.29686e-07
4.83187e-06 7.09345e-05 9.73771e-07
1.29686e-07 9.73771e-07 -1.79492e-06
0.000621676 1.58412e-05 -1.58985e-06
1.58412e-05 2.44903e-05 2.77015e-06
-1.58985e-06 2.77015e-06 -7.29677e-05
0.00208299 -0.000158642 1.02237e-06
-0.000158642 0.000118023 5.86015e-07
1.02237e-06 5.86015e-07 0.000104855
0.000700715 -2.90112e-07 8.73403e-07
-2.90112e-07 7.08777e-05 -4.7291e-07
8.73403e-07 -4.7291e-07 -2.24463e-05
0.000681003 8.95967e-06 1.16704e-06
8.95967e-06 5.56023e-05 -2.26372e-07
1.16704e-06 -2.26372e-07 -4.42985e-05
0.000595822 6.08451e-05 -1.53622e-07
6.08451e-05 1.80895e-05 1.48322e-06
-1.53622e-07 1.48322e-06 -8.5624e-05
0.00182798 -0.000199905 -1.84696e-06
-0.000199905 -3.63068e-05 -8.95687e-07
-1.84696e-06 -8.95687e-07 -4.88024e-05
0.00192588 -0.000382642 1.39896e-06
-0.000382642 8.29228e-05 -3.35575e-07
1.39896e-06 -3.35575e-07 -2.90789e-05
0.00116773 -0.000255099 -6.90539e-07
-0.000255099 0.000241265 -1.27444e-06
-6.90539e-07 -1.27444e-06 2.38813e-05
0.00239398 -0.000442709 -4.02532e-06
-0.000442709 0.000592212 1.65573e-06
-4.02532e-06 1.65573e-06 0.000385006
0.00103675 -5.44344e-05 -6.91823e-07
-5.44344e-05 0.00026816 3.60035e-07
-6.91823e-07 3.60035e-07 0.000150731
0.000656979 -6.45761e-05 -3.01821e-07
-6.45761e-05 2.96432e-05 1.01161e-06
-3.01821e-07 1.01161e-06 -9.08472e-05
0.00097913 -0.000247957 2.65904e-06
-0.000247957 0.000302644 -5.99821e-07
2.65904e-06 -5.99821e-07 3.77271e-05
0.000987777 -0.000123065 4.93248e-07
-0.000123065 0.000283715 6.48989e-08
4.93248e-07 6.48989e-08 7.53367e-05
0.00198788 -0.000152505 -1.63323e-05
-0.000152505 2.61828e-05 9.68506e-07
-1.63323e-05 9.68506e-07 3.79074e-05
0.00223205 -0.000319124 -1.5102e-05
-0.000319124 0.000141322 3.87311e-06
-1.5102e-05 3.87311e-06 0.000158231
0.00267767 -0.000489275 -1.14891e-05
-0.000489275 0.000585791 -4.43419e-06
-1.14891e-05 -4.43419e-06 0.000412086
0.00180229 -0.000381295 -2.16258e-06
-0.000381295 0.00049873 4.99951e-06
-2.16258e-06 4.99951e-06 0.000289789
0.000630321 1.54257e-05 -5.75783e-07
1.54257e-05 4.23617e-05 -2.85157e-06
-5.75783e-07 -2.85157e-06 -7.39682e-05
0.000642525 -7.11432e-05 1.35753e-06
-7.11432e-05 4.92445e-05 -3.17226e-06
1.35753e-06 -3.17226e-06 -7.25153e-05
0.000608277 -7.47359e-05 4.87995e-07
-7.47359e-05 5.83072e-05 1.46118e-06
4.87995e-07 1.46118e-06 -7.84624e-05
0.000572364 -8.14118e-05 1.70813e-06
-8.14118e-05 0.00017226 -2.54619e-06
1.70813e-06 -2.54619e-06 -0.000144379
0.000477069 -0.000256409 2.20394e-05
-0.000256409 -0.00233582 -1.23408e-06
2.20394e-05 -1.23408e-06 -0.00282979
0.00109895 5.46553e-05 9.57133e-07
5.46553e-05 0.000297152 -2.76427e-06
9.57133e-07 -2.76427e-06 0.000187621
0.000430448 0.0001238 2.79541e-06
0.0001238 -8.67199e-05 6.20839e-07
2.79541e-06 6.20839e-07 -0.000246346
0.00180886 0.00014049 3.07838e-05
0.00014049 4.3684e-05 4.06557e-06
3.07838e-05 4.06557e-06 4.71075e-05
0.00206069 0.000341793 1.06673e-05
0.000341793 0.000198569 3.82318e-06
1.06673e-05 3.82318e-06 8.98472e-05
0.00168691 0.000363833 5.20841e-06
0.000363833 0.000235428 4.56925e-06
5.20841e-06 4.56925e-06 -5.52164e-06
0.000837862 0.000213427 4.37126e-06
0.000213427 4.88801e-05 1.98308e-06
4.37126e-06 1.98308e-06 -0.000191825
0.00279174 0.000339099 3.91367e-05
0.000339099 0.000206192 1.027e-05
3.91367e-05 1.027e-05 -0.000153076
0.00107609 0.000105944 1.444e-06
0.000105944 0.000305157 -2.67751e-07
1.444e-06 -2.67751e-07 0.000171368
0.00235119 0.000262183 -9.19706e-06
0.000262183 0.000347613 -1.37154e-06
-9.19706e-06 -1.37154e-06 0.000359325
0.00105543 0.0002033 8.14963e-07
0.0002033 0.000246653 -1.5134e-07
8.14963e-07 -1.5134e-07 7.10072e-05
0.00123659 0.000289248 3.93736e-07
0.000289248 0.000171787 -4.79673e-07
3.93736e-07 -4.79673e-07 -7.65114e-05
0.00142147 0.000418969 -4.05317e-06
0.000418969 -7.13578e-05 -1.56734e-06
-4.05317e-06 -1.56734e-06 -0.000257772
0.00315908 -0.000169839 -8.06231e-05
-0.000169839 -0.000765926 -2.71996e-05
-8.06231e-05 -2.71996e-05 -0.00170618
0.00472224 0.00043057 -4.79052e-06
0.00043057 0.000467629 -2.30056e-05
-4.79052e-06 -2.30056e-05 -0.000201183
0.00024233 0.000280213 1.10301e-06
0.000280213 -0.000500554 7.4837e-06
1.10301e-06 7.4837e-06 -0.000681243
-0.000890982 -0.000374713 0.000100712
-0.000374713 0.000649279 3.73166e-05
0.000100712 3.73166e-05 -0.000304923
-0.000524166 -0.00137771 -4.97231e-05
-0.00137771 -0.001371 -6.83795e-05
-4.97231e-05 -6.83795e-05 0.000379941
0.00111483 0.00014753 -3.58396e-06
0.00014753 0.000324132 -4.16654e-06
-3.58396e-06 -4.16654e-06 0.000198361
0.00035143 0.000284577 7.041e-05
0.000284577 0.00109361 -2.82147e-05
7.041e-05 -2.82147e-05 0.000264016
0.00133805 -0.000484205 -6.85516e-05
-0.000484205 0.00165264 -0.000109863
-6.85516e-05 -0.000109863 0.000880338
0.00285944 0.000396646 -2.48157e-05
0.000396646 0.000688126 -1.01229e-05
-2.48157e-05 -1.01229e-05 0.000699554
0.00117057 0.000144809 -1.19972e-05
0.000144809 0.000301816 -1.86527e-06
-1.19972e-05 -1.86527e-06 0.000120311
0.000629506 0.000378579 -1.67849e-05
0.000378579 -0.000192688 -1.21415e-05
-1.67849e-05 -1.21415e-05 -0.000463831
-1.10442e-05 0.000326913 2.5389e-05
0.000326913 -0.000648304 5.48695e-05
2.5389e-05 5.48695e-05 -0.000736397
0.00982916 0.000353587 -3.40984e-05
0.000353587 0.00327304 -2.49485e-05
-3.40984e-05 -2.49485e-05 0.00181262
0.0035914 0.00074399 2.19899e-06
0.00074399 0.000844014 1.09802e-05
2.19899e-06 1.09802e-05 -0.000346231
0.00150787 -0.00118154 0.00013223
-0.00118154 -0.000367503 0.000102983
0.00013223 0.000102983 8.01768e-05
0.00286149 -0.000700869 3.7738e-06
-0.000700869 -0.00149826 0.000148553
3.7738e-06 0.000148553 -6.09899e-05
0.000738632 -5.79183e-06 7.89881e-07
-5.79183e-06 9.68978e-05 -1.21821e-06
7.89881e-07 -1.21821e-06 6.19188e-06
0.000879554 5.55501e-05 8.35344e-07
5.55501e-05 0.000160787 9.9189e-07
8.35344e-07 9.9189e-07 6.68007e-05
0.00128016 0.000107014 -1.81558e-06
0.000107014 0.000394243 -3.02143e-06
-1.81558e-06 -3.02143e-06 0.000315163
0.000685652 3.98093e-06 3.46034e-07
3.98093e-06 5.09924e-05 -3.39488e-07
3.46034e-07 -3.39488e-07 -3.23333e-05
0.000769652 2.61504e-05 -9.53928e-08
2.61504e-05 9.49978e-05 -8.27738e-07
-9.53928e-08 -8.27738e-07 -2.78922e-06
0.000602177 -1.71031e-05 -8.85811e-07
-1.71031e-05 -9.87697e-06 -1.71922e-07
-8.85811e-07 -1.71922e-07 -0.00010103
0.000834994 2.50475e-05 -7.7076e-07
2.50475e-05 0.000117872 3.41359e-07
-7.7076e-07 3.41359e-07 2.65025e-05
0.00077848 1.12253e-06 -5.94995e-07
1.12253e-06 7.35832e-05 2.92355e-07
-5.94995e-07 2.92355e-07 -1.06363e-05
0.00054937 -9.88878e-07 4.09862e-07
-9.88878e-07 -3.74414e-05 6.88623e-07
4.09862e-07 6.88623e-07 -0.000117676
0.000858373 1.97821e-05 3.71501e-08
1.97821e-05 0.00013161 -7.707e-10
3.71501e-08 -7.707e-10 3.76583e-05
0.000844854 1.75101e-05 3.63765e-08
1.75101e-05 0.000126609 2.75163e-07
3.63765e-08 2.75163e-07 3.02948e-05
0.000730728 1.74923e-05 5.97331e-07
1.74923e-05 7.44025e-05 -3.63587e-07
5.97331e-07 -3.63587e-07 -2.67018e-05
0.000626784 2.65914e-05 -7.85386e-08
2.65914e-05 -2.90573e-06 4.14886e-08
-7.85386e-08 4.14886e-08 -8.93961e-05
0.00101887 2.48077e-05 3.4462e-08
2.48077e-05 0.000220151 -1.06379e-06
3.4462e-08 -1.06379e-06 0.00012977
0.000427985 4.30778e-05 -1.47918e-06
4.30778e-05 -0.000104612 -4.64658e-06
-1.47918e-06 -4.64658e-06 -0.000194666
0.000790762 -6.6599e-05 -2.1239e-07
-6.6599e-05 9.37451e-05 9.86734e-08
-2.1239e-07 9.86734e-08 -7.67898e-06
0.000816882 -5.42949e-05 -7.68699e-07
-5.42949e-05 0.000127318 -9.33348e-07
-7.68699e-07 -9.33348e-07 2.25973e-05
0.000831027 -1.87317e-05 -5.16876e-07
-1.87317e-05 0.000135078 -3.28706e-07
-5.16876e-07 -3.28706e-07 3.39726e-05
0.000848322 2.80396e-05 -4.60672e-07
2.80396e-05 0.000132837 -3.10529e-07
-4.60672e-07 -3.10529e-07 3.99234e-05
0.000843243 1.47944e-05 -1.1077e-06
1.47944e-05 0.000144168 -1.79043e-06
-1.1077e-06 -1.79043e-06 3.40256e-05
0.000759326 3.65686e-05 7.2148e-07
3.65686e-05 9.14124e-05 -8.25106e-07
7.2148e-07 -8.25106e-07 -2.87697e-06
0.000532242 4.69089e-06 7.05968e-07
4.69089e-06 -5.96146e-05 -1.77765e-06
7.05968e-07 -1.77765e-06 -0.000142706
0.000660204 3.33224e-05 1.20884e-06
3.33224e-05 4.00966e-05 6.75553e-07
1.20884e-06 6.75553e-07 -5.38968e-05
0.000705645 -1.85419e-05 2.87116e-08
-1.85419e-05 5.39652e-05 6.40164e-08
2.87116e-08 6.40164e-08 -2.73809e-05
0.000735909 -2.03929e-05 -2.01707e-07
-2.03929e-05 8.17727e-05 -3.63304e-09
-2.01707e-07 -3.63304e-09 -9.67503e-06
0.000704291 -2.59694e-05 -1.38705e-06
-2.59694e-05 4.18015e-05 6.75281e-07
-1.38705e-06 6.75281e-07 -2.60391e-05
0.000740393 -1.18097e-05 1.06764e-06
-1.18097e-05 7.04407e-05 -2.38983e-07
1.06764e-06 -2.38983e-07 -1.7121e-05
0.000666399 -5.59082e-05 -8.16792e-09
-5.59082e-05 2.59961e-05 1.06705e-07
-8.16792e-09 1.06705e-07 -4.90315e-05
0.000679003 4.54086e-06 -1.33278e-06
4.54086e-06 1.44171e-05 1.91811e-06
-1.33278e-06 1.91811e-06 -3.15263e-05
0.000562698 -1.52139e-06 8.64685e-07
-1.52139e-06 -2.47091e-05 -3.34865e-07
8.64685e-07 -3.34865e-07 -0.000107741
0.000659671 6.92556e-06 6.04744e-07
6.92556e-06 7.05016e-06 -2.4383e-08
6.04744e-07 -2.4383e-08 -3.95146e-05
0.00136895 1.68602e-05 -2.74651e-06
1.68602e-05 0.000397499 5.12082e-06
-2.74651e-06 5.12082e-06 0.000388413
0.000651708 1.75593e-05 -2.23596e-08
1.75593e-05 3.69999e-06 -1.69793e-06
-2.23596e-08 -1.69793e-06 -4.21522e-05
0.000997181 8.89424e-06 -1.54861e-06
8.89424e-06 0.000180366 7.81385e-07
-1.54861e-06 7.81385e-07 0.000169853
0.000864133 3.90537e-06 -3.57262e-06
3.90537e-06 0.000104071 4.89021e-06
-3.57262e-06 4.89021e-06 0.000113752
0.000632873 1.9218e-06 7.03211e-08
1.9218e-06 -3.20587e-05 -3.57718e-06
7.03211e-08 -3.57718e-06 -4.39285e-05
0.00228493 1.80037e-07 3.7189e-06
1.80037e-07 0.000927087 -3.68348e-09
3.7189e-06 -3.68348e-09 0.000944639
0.00088234 -3.61139e-06 -3.58794e-06
-3.61139e-06 0.000114099 -4.91778e-06
-3.58794e-06 -4.91778e-06 0.000124391
0.0007168 6.63513e-05 1.32583e-06
6.63513e-05 7.15572e-05 -6.51427e-07
1.32583e-06 -6.51427e-07 -2.13386e-06
0.000669067 1.39419e-05 -6.77837e-07
1.39419e-05 1.11765e-05 -2.03544e-06
-6.77837e-07 -2.03544e-06 -2.49916e-05
0.000660633 -1.2996e-06 6.70965e-07
-1.2996e-06 5.40277e-06 1.84725e-08
6.70965e-07 1.84725e-08 -3.08455e-05
0.000642077 7.61995e-06 1.57049e-08
7.61995e-06 -2.80752e-05 -3.47076e-06
1.57049e-08 -3.47076e-06 -3.4204e-05
0.000682765 -1.73068e-05 -1.23443e-06
-1.73068e-05 1.64748e-05 2.05567e-06
-1.23443e-06 2.05567e-06 -2.1109e-05
0.000625565 1.37457e-05 6.89935e-09
1.37457e-05 -3.66323e-05 -7.56649e-07
6.89935e-09 -7.56649e-07 -4.3265e-05
0.00206943 2.2847e-05 8.17366e-06
2.2847e-05 0.000805879 -4.59527e-06
8.17366e-06 -4.59527e-06 0.000824862
0.00124283 2.89836e-05 -8.2788e-07
2.89836e-05 0.00032491 2.12719e-06
-8.2788e-07 2.12719e-06 0.000319618
0.001506 2.95638e-05 2.65423e-07
2.95638e-05 0.000483834 1.4568e-06
2.65423e-07 1.4568e-06 0.000497585
0.000933648 3.26203e-05 -1.5754e-05
3.26203e-05 0.000157776 7.36059e-06
-1.5754e-05 7.36059e-06 0.000165746
0.00144776 7.48186e-05 4.93255e-05
7.48186e-05 -0.000471612 1.40778e-05
4.93255e-05 1.40778e-05 -0.000512577
0.00183488 -1.96428e-06 1.02294e-06
-1.96428e-06 -1.67278e-05 4.40843e-08
1.02294e-06 4.40843e-08 -2.47882e-05
0.00180328 4.89205e-05 2.69647e-05
4.89205e-05 0.000156611 -4.2323e-06
2.69647e-05 -4.2323e-06 0.000167699
0.000928113 5.5922e-05 -2.73287e-08
5.5922e-05 -0.000906139 -5.65537e-06
-2.73287e-08 -5.65537e-06 -0.00107563
0.00172832 2.58764e-05 1.2458e-05
2.58764e-05 -0.000164803 1.15122e-06
1.2458e-05 1.15122e-06 -0.000156803
0.00227927 -1.2812e-05 -9.21089e-07
-1.2812e-05 0.000319307 -1.11904e-06
-9.21089e-07 -1.11904e-06 0.000300265
0.00313729 -3.9201e-05 -5.58033e-05
-3.9201e-05 0.000667031 5.01649e-06
-5.58033e-05 5.01649e-06 0.000656477
0.00314729 -8.69833e-05 0.000131577
-8.69833e-05 0.00044066 -7.61297e-06
0.000131577 -7.61297e-06 0.000214469
0.00829701 -0.000285802 -2.22447e-06
-0.000285802 0.00203547 1.73016e-05
-2.22447e-06 1.73016e-05 0.00083151
0.00707229 0.00116573 0.000198519
0.00116573 0.00348787 -8.89952e-05
0.000198519 -8.89952e-05 0.0036138
0.00312026 0.00118011 9.95533e-06
0.00118011 0.00199522 1.17214e-05
9.95533e-06 1.17214e-05 0.00291844
0.000440444 -6.83975e-05 2.03557e-06
-6.83975e-05 -8.19517e-05 -1.34561e-06
2.03557e-06 -1.34561e-06 -0.000167586
0.000709311 -9.00871e-06 1.07878e-06
-9.00871e-06 6.26948e-05 -1.04938e-07
1.07878e-06 -1.04938e-07 -5.95977e-06
0.000727004 -7.00499e-05 -1.43378e-06
-7.00499e-05 7.76213e-05 1.83954e-06
-1.43378e-06 1.83954e-06 4.3695e-06
0.000659871 -2.57531e-05 -3.95186e-07
-2.57531e-05 4.09085e-05 1.65047e-07
-3.95186e-07 1.65047e-07 -4.45278e-05
0.000788133 7.0038e-05 1.23852e-07
7.0038e-05 0.000129403 1.89065e-07
1.23852e-07 1.89065e-07 2.48094e-05
0.000862819 0.000114828 1.19178e-06
0.000114828 0.000161201 8.62838e-07
1.19178e-06 8.62838e-07 5.89577e-05
0.000781369 -8.72779e-06 1.48196e-06
-8.72779e-06 0.000114775 -2.12406e-06
1.48196e-06 -2.12406e-06 2.30647e-05
0.000648641 -2.79964e-05 -6.65126e-07
-2.79964e-05 3.83784e-05 6.77106e-07
-6.65126e-07 6.77106e-07 -4.93964e-05
0.00206844 -0.000142056 5.31352e-06
-0.000142056 0.000126739 6.78824e-07
5.31352e-06 6.78824e-07 0.000118244
0.00182497 -0.000206181 4.23635e-06
-0.000206181 -6.69009e-05 -1.68715e-06
4.23635e-06 -1.68715e-06 -8.18906e-05
0.00164066 -0.000361122 1.09894e-06
-0.000361122 -6.84835e-05 1.82822e-06
1.09894e-06 1.82822e-06 -0.000173524
0.00112101 -0.000275749 4.85849e-06
-0.000275749 0.000199709 3.34662e-06
4.85849e-06 3.34662e-06 -1.91992e-05
0.00212937 -0.000425908 4.57652e-06
-0.000425908 0.000452742 -2.74484e-07
4.57652e-06 -2.74484e-07 0.000245452
0.00112857 -0.000262763 -3.03972e-07
-0.000262763 0.000387551 -1.73501e-06
-3.03972e-07 -1.73501e-06 0.000119382
0.00161872 -0.000187031 -1.16436e-06
-0.000187031 0.000631381 -5.02547e-07
-1.16436e-06 -5.02547e-07 0.000415119
0.000770861 -9.72709e-05 -5.53474e-07
-9.72709e-05 9.60011e-05 1.08602e-06
-5.53474e-07 1.08602e-06 -3.4095e-05
0.000773399 -2.26657e-05 -3.81933e-07
-2.26657e-05 0.000113287 2.21107e-06
-3.81933e-07 2.21107e-06 1.31063e-05
0.000951717 -1.42145e-05 -1.51751e-06
-1.42145e-05 0.000210481 -2.66681e-06
-1.51751e-06 -2.66681e-06 9.8437e-05
0.000979475 -1.38872e-05 9.44265e-07
-1.38872e-05 0.000232773 1.19532e-06
9.44265e-07 1.19532e-06 0.000139533
0.000724876 0.000118628 2.21983e-06
0.000118628 9.65498e-05 3.47937e-06
2.21983e-06 3.47937e-06 -7.58989e-06
0.00174294 -0.000150901 -5.90248e-07
-0.000150901 -7.86469e-05 -1.58023e-07
-5.90248e-07 -1.58023e-07 -6.71344e-05
0.000730354 2.78893e-05 -1.08616e-06
2.78893e-05 9.99678e-05 2.26672e-07
-1.08616e-06 2.26672e-07 -1.51479e-05
0.00081548 -6.22473e-05 -9.83014e-07
-6.22473e-05 0.000142692 2.36023e-07
-9.83014e-07 2.36023e-07 2.63659e-05
0.0018027 -0.000311604 8.5182e-07
-0.000311604 -7.54413e-05 -1.49376e-06
8.5182e-07 -1.49376e-06 -7.1787e-05
0.00141659 -0.000397265 -1.26491e-07
-0.000397265 -6.27974e-05 2.67702e-06
-1.26491e-07 2.67702e-06 -0.000212726
0.00159467 -0.000365242 1.73761e-06
-0.000365242 0.000385694 -1.49958e-06
1.73761e-06 -1.49958e-06 0.00016392
0.000895154 -9.09765e-05 3.72428e-07
-9.09765e-05 0.000219678 -2.28977e-06
3.72428e-07 -2.28977e-06 6.83101e-05
0.000920852 -0.000113939 -3.20302e-07
-0.000113939 0.000340389 1.24751e-07
-3.20302e-07 1.24751e-07 4.22039e-05
0.00259453 -0.00021878 -1.99527e-05
-0.00021878 0.000465633 4.11802e-06
-1.99527e-05 4.11802e-06 0.000416118
0.00280725 -0.000432747 -2.58377e-05
-0.000432747 0.000534788 3.27818e-06
-2.58377e-05 3.27818e-06 0.000552602
0.000811349 -0.000389782 -7.19187e-06
-0.000389782 -0.000248833 1.7658e-06
-7.19187e-06 1.7658e-06 -0.000405021
0.000634435 -0.000242931 -2.93433e-06
-0.000242931 -1.6834e-05 1.58928e-05
-2.93433e-06 1.58928e-05 -0.000248153
0.000662543 -0.000108814 1.47628e-06
-0.000108814 5.75527e-05 -1.11365e-06
1.47628e-06 -1.11365e-06 -6.63378e-05
0.000599569 -6.91483e-05 2.26206e-06
-6.91483e-05 4.07458e-05 -4.1383e-06
2.26206e-06 -4.1383e-06 -9.21648e-05
0.000962615 -3.72674e-05 6.66559e-07
-3.72674e-05 0.000345433 -3.90256e-06
6.66559e-07 -3.90256e-06 9.87846e-05
-0.00427386 -3.14162e-05 0.000206189
-3.14162e-05 -0.00247101 6.90564e-07
0.000206189 6.90564e-07 -0.00191664
0.00943943 -0.00011459 -1.49365e-05
-0.00011459 0.00294473 1.00878e-06
-1.49365e-05 1.00878e-06 0.00229967
0.00113958 8.95496e-05 3.05182e-06
8.95496e-05 0.000340151 -5.78028e-07
3.05182e-06 -5.78028e-07 0.000211147
0.000768599 0.000179435 3.85527e-06
0.000179435 9.56872e-05 -1.42858e-06
3.85527e-06 -1.42858e-06 -7.61632e-05
0.00215712 0.000247725 2.38539e-05
0.000247725 0.000239453 1.5291e-05
2.38539e-05 1.5291e-05 0.000261921
0.00237219 0.000482915 7.07459e-06
0.000482915 0.000407487 7.01847e-06
7.07459e-06 7.01847e-06 0.000227614
0.00150929 0.000321765 6.76031e-06
0.000321765 0.000328177 8.45699e-07
6.76031e-06 8.45699e-07 7.59179e-05
0.00829789 0.000390879 5.58287e-05
0.000390879 0.00202661 6.15857e-06
5.58287e-05 6.15857e-06 0.000952852
0.00673856 0.000642458 -0.00012317
0.000642458 0.00118818 -3.10604e-05
-0.00012317 -3.10604e-05 0.000614625
-0.000912263 0.00016723 -5.5216e-07
0.00016723 -0.00103044 -1.92908e-05
-5.5216e-07 -1.92908e-05 -0.00122762
0.00558091 -0.000942375 -3.27545e-05
-0.000942375 0.00279196 2.8091e-05
-3.27545e-05 2.8091e-05 0.00241881
-0.00686285 -0.0014025 -0.000301874
-0.0014025 -0.00364793 -0.00024474
-0.000301874 -0.00024474 -0.00177125
0.000952301 0.000145081 1.29015e-08
0.000145081 0.000240992 -1.73545e-06
1.29015e-08 -1.73545e-06 0.000114425
-0.00242761 -0.000397411 7.61464e-05
-0.000397411 -0.00172338 7.83994e-06
7.61464e-05 7.83994e-06 -0.00182795
-0.00164403 -0.000392623 -8.59843e-05
-0.000392623 0.000612676 -4.05107e-05
-8.59843e-05 -4.05107e-05 -0.000443849
0.00255506 0.00035999 -5.06595e-06
0.00035999 0.00049463 -1.08051e-06
-5.06595e-06 -1.08051e-06 0.000533253
0.000884501 0.000162454 -1.8872e-06
0.000162454 0.000173196 4.53402e-07
-1.8872e-06 4.53402e-07 -1.9344e-05
0.000757641 0.000341899 4.57337e-06
0.000341899 -9.52921e-05 1.68784e-06
4.57337e-06 1.68784e-06 -0.000359041
0.000800385 0.000273746 1.20413e-05
0.000273746 -0.000144661 1.06114e-05
1.20413e-05 1.06114e-05 -0.0001477
0.00763711 0.000259105 -3.17199e-05
0.000259105 0.00172933 -1.97933e-05
-3.17199e-05 -1.97933e-05 9.79881e-05
0.0063718 0.000960875 -4.43807e-05
0.000960875 0.00166939 -1.75724e-05
-4.43807e-05 -1.75724e-05 0.000860972
0.00782541 -0.00116755 7.06001e-05
-0.00116755 0.00371625 -3.44257e-05
7.06001e-05 -3.44257e-05 0.00379203
0.00242067 -0.000844069 8.96629e-05
-0.000844069 -0.00186537 0.000187518
8.96629e-05 0.000187518 -0.000386247
0.00147163 0.00012594 -1.23965e-05
0.00012594 0.000553647 -7.74488e-06
-1.23965e-05 -7.74488e-06 0.000446155
-0.00398755 7.15733e-05 -7.62897e-05
7.15733e-05 0.000257914 -4.1583e-05
-7.62897e-05 -4.1583e-05 -0.00138486
0.00236774 0.000132993 -0.000103363
0.000132993 0.0008625 -0.000150636
-0.000103363 -0.000150636 -0.000796286
0.000269888 0.00029286 -1.47721e-05
0.00029286 -0.000392325 1.12688e-06
-1.47721e-05 1.12688e-06 -0.00040635
0.00154381 0.000361714 -3.95857e-05
0.000361714 0.000600871 -1.11895e-05
-3.95857e-05 -1.11895e-05 0.000379182
0.00266969 0.000281364 -7.07929e-05
0.000281364 0.0011943 -5.88244e-06
-7.07929e-05 -5.88244e-06 0.000910706
0.00352017 0.000810506 -5.69303e-05
0.000810506 0.000485964 -1.40568e-05
-5.69303e-05 -1.40568e-05 0.000111071
0.00025334 0.000380624 0.000111992
0.000380624 -0.000408467 8.32958e-05
0.000111992 8.32958e-05 -0.00275889
0.00849543 -0.00120292 1.21445e-05
-0.00120292 0.00260707 0.000153733
1.21445e-05 0.000153733 0.00240449
0.00292254 -0.000513666 -1.04652e-05
-0.000513666 -0.00210236 -1.96199e-05
-1.04652e-05 -1.96199e-05 -0.000723359
0.000933273 7.36341e-05 2.16302e-06
7.36341e-05 0.000200457 3.68227e-06
2.16302e-06 3.68227e-06 0.000100382
0.00116057 0.000100129 4.10511e-06
0.000100129 0.000321287 2.61986e-06
4.10511e-06 2.61986e-06 0.000242382
0.000465191 7.02196e-05 -8.72577e-07
7.02196e-05 -6.37282e-05 -6.36416e-06
-8.72577e-07 -6.36416e-06 -0.000127914
0.000542186 4.38233e-05 9.45158e-07
4.38233e-05 -4.24878e-05 -4.63239e-08
9.45158e-07 -4.63239e-08 -0.000122184
0.000775407 4.11767e-05 -7.0117e-07
4.11767e-05 0.000106104 -1.03172e-06
-7.0117e-07 -1.03172e-06 2.28891e-06
0.000807002 -7.78585e-06 -3.30191e-07
-7.78585e-06 0.000104961 7.07929e-07
-3.30191e-07 7.07929e-07 9.31872e-06
0.000813339 -4.90581e-06 9.61038e-07
-4.90581e-06 0.000109858 -2.50713e-07
9.61038e-07 -2.50713e-07 1.34833e-05
0.000616255 2.01679e-05 -3.36767e-07
2.01679e-05 -9.10766e-06 2.44035e-06
-3.36767e-07 2.44035e-06 -9.43239e-05
0.00081914 3.81564e-05 6.31195e-08
3.81564e-05 0.000129307 -6.89843e-07
6.31195e-08 -6.89843e-07 2.41627e-05
0.000892049 2.29032e-05 -7.99922e-08
2.29032e-05 0.000146986 2.85406e-07
-7.99922e-08 2.85406e-07 5.63896e-05
0.000826947 -3.14704e-05 -1.37152e-07
-3.14704e-05 0.000117376 4.67083e-07
-1.37152e-07 4.67083e-07 1.39709e-05
0.000302163 3.06917e-05 5.98283e-07
3.06917e-05 -0.000166638 -2.56814e-07
5.98283e-07 -2.56814e-07 -0.000254327
-9.01246e-05 1.91121e-05 7.46787e-07
1.91121e-05 -0.000303397 -3.90029e-06
7.46787e-07 -3.90029e-06 -0.000384103
0.000958771 -5.36426e-06 -2.09967e-06
-5.36426e-06 0.000194631 -2.6678e-06
-2.09967e-06 -2.6678e-06 9.49993e-05
0.000965349 1.71374e-06 -8.04663e-10
1.71374e-06 0.000212473 -1.61742e-06
-8.04663e-10 -1.61742e-06 9.45461e-05
0.000832132 -4.74816e-05 -3.89227e-08
-4.74816e-05 0.000138877 -4.79132e-07
-3.89227e-08 -4.79132e-07 3.49365e-05
0.000880456 -6.03317e-06 -6.64613e-07
-6.03317e-06 0.000146208 9.44358e-07
-6.64613e-07 9.44358e-07 5.57675e-05
0.000836382 -3.24094e-05 4.63153e-07
-3.24094e-05 0.000131872 -3.83086e-07
4.63153e-07 -3.83086e-07 2.71424e-05
0.000781544 3.16204e-05 -2.06698e-07
3.16204e-05 0.000101212 -8.41121e-08
-2.06698e-07 -8.41121e-08 7.97755e-06
0.000655155 -2.19456e-05 -1.69069e-07
-2.19456e-05 1.18403e-05 5.29703e-07
-1.69069e-07 5.29703e-07 -7.20605e-05
0.000684814 3.87681e-05 9.14694e-07
3.87681e-05 4.91379e-05 4.28478e-07
9.14694e-07 4.28478e-07 -4.22559e-05
0.000556081 2.34281e-06 -1.31921e-07
2.34281e-06 -2.84327e-05 -3.12757e-06
-1.31921e-07 -3.12757e-06 -0.000125926
0.000611418 -1.07181e-05 1.61135e-06
-1.07181e-05 -5.0727e-06 -1.16028e-06
1.61135e-06 -1.16028e-06 -8.78213e-05
0.000847223 4.2779e-06 2.90244e-06
4.2779e-06 0.000119743 -3.31166e-06
2.90244e-06 -3.31166e-06 2.55733e-05
0.000210125 -3.40085e-05 8.60562e-07
-3.40085e-05 -0.000194074 2.41562e-07
8.60562e-07 2.41562e-07 -0.000330929
0.000347566 2.95404e-05 -3.78154e-07
2.95404e-05 -0.000122893 -5.26692e-07
-3.78154e-07 -5.26692e-07 -0.000224541
0.000738286 2.61202e-05 3.95483e-07
2.61202e-05 8.37792e-05 3.91422e-07
3.95483e-07 3.91422e-07 -1.09008e-05
0.000685136 1.59165e-05 -2.35648e-09
1.59165e-05 4.49097e-05 4.20761e-07
-2.35648e-09 4.20761e-07 -3.7167e-05
0.000742025 -5.91331e-06 -4.93075e-08
-5.91331e-06 8.3992e-05 -7.68048e-10
-4.93075e-08 -7.68048e-10 -3.93449e-06
0.000661924 1.30162e-05 -6.1295e-07
1.30162e-05 2.28758e-05 6.11727e-07
-6.1295e-07 6.11727e-07 -4.64563e-05
0.000773679 -3.61574e-06 2.294e-07
-3.61574e-06 0.000101562 1.84322e-07
2.294e-07 1.84322e-07 1.12176e-05
0.000717852 -2.65098e-05 -2.48057e-07
-2.65098e-05 5.49973e-05 3.79626e-08
-2.48057e-07 3.79626e-08 -1.65895e-05
0.000645962 3.73563e-05 -7.20013e-07
3.73563e-05 -3.89244e-06 1.90789e-06
-7.20013e-07 1.90789e-06 -5.10528e-05
0.000618728 -4.75311e-05 1.08935e-06
-4.75311e-05 -5.20173e-06 -6.18394e-07
1.08935e-06 -6.18394e-07 -7.8843e-05
0.000663371 1.35212e-05 -1.93065e-07
1.35212e-05 5.8727e-06 -2.96042e-08
-1.93065e-07 -2.96042e-08 -4.02882e-05
0.00136878 2.5694e-05 -4.81453e-06
2.5694e-05 0.000398877 5.13923e-06
-4.81453e-06 5.13923e-06 0.00038932
0.000656219 -6.2917e-06 6.74742e-07
-6.2917e-06 4.66513e-06 -1.73266e-06
6.74742e-07 -1.73266e-06 -4.15938e-05
0.000992104 1.61183e-05 -2.45332e-06
1.61183e-05 0.000178613 7.48779e-07
-2.45332e-06 7.48779e-07 0.000167743
0.000811266 1.41201e-05 -4.0673e-07
1.41201e-05 7.46008e-05 1.92023e-06
-4.0673e-07 1.92023e-06 8.39762e-05
0.00061744 7.32232e-06 3.4556e-07
7.32232e-06 -4.03752e-05 -3.60963e-06
3.4556e-07 -3.60963e-06 -5.26703e-05
0.00230023 1.20982e-05 3.35681e-06
1.20982e-05 0.000936714 3.48582e-08
3.35681e-06 3.48582e-08 0.000953911
0.00229612 1.63191e-06 -1.29315e-07
1.63191e-06 0.00093363 -5.06036e-06
-1.29315e-07 -5.06036e-06 0.000951057
0.00101999 6.99414e-05 -1.30341e-06
6.99414e-05 0.000239975 -1.37767e-06
-1.30341e-06 -1.37767e-06 0.000169335
0.000677998 1.9431e-05 -8.3805e-07
1.9431e-05 1.66676e-05 -2.18156e-06
-8.3805e-07 -2.18156e-06 -2.10071e-05
0.000694504 -2.35628e-06 6.83804e-07
-2.35628e-06 5.7283e-05 7.99062e-07
6.83804e-07 7.99062e-07 -1.50023e-05
0.000642478 1.6507e-06 -1.04957e-07
1.6507e-06 -2.8733e-05 -3.55973e-06
-1.04957e-07 -3.55973e-06 -3.46951e-05
0.000665521 -3.65092e-06 2.29267e-07
-3.65092e-06 8.92106e-06 -3.17351e-08
2.29267e-07 -3.17351e-08 -2.71229e-05
0.000667906 -1.63361e-05 -1.05562e-06
-1.63361e-05 9.51575e-06 1.906e-06
-1.05562e-06 1.906e-06 -2.68179e-05
0.000635529 7.61701e-06 -1.67533e-07
7.61701e-06 -3.19562e-05 -1.88525e-08
-1.67533e-07 -1.88525e-08 -3.80492e-05
0.00206693 1.13356e-05 3.80234e-06
1.13356e-05 0.000802007 -4.72776e-06
3.80234e-06 -4.72776e-06 0.000821677
0.00123074 1.93983e-05 -6.42895e-07
1.93983e-05 0.00031457 2.1292e-06
-6.42895e-07 2.1292e-06 0.000311123
0.00144898 1.97594e-05 1.64601e-06
1.97594e-05 0.000445719 7.10294e-08
1.64601e-06 7.10294e-08 0.000461277
0.00088578 2.33815e-05 -1.40979e-05
2.33815e-05 0.000123552 7.22542e-06
-1.40979e-05 7.22542e-06 0.000134509
-0.00710401 0.000210786 0.000146936
0.000210786 -0.00330077 -1.18002e-07
0.000146936 -1.18002e-07 -0.00381821
-0.00209906 0.000143846 0.000145276
0.000143846 0.000679749 1.60662e-05
0.000145276 1.60662e-05 -0.000236572
0.00379437 0.000150109 -0.00018018
0.000150109 0.000456908 5.73658e-08
-0.00018018 5.73658e-08 0.000327687
0.000706525 3.04474e-05 3.32622e-05
3.04474e-05 -0.000655146 -1.81777e-06
3.32622e-05 -1.81777e-06 -0.000667256
0.00142763 -2.06323e-05 1.63907e-05
-2.06323e-05 -0.000228968 -2.22155e-08
1.63907e-05 -2.22155e-08 -0.000245833
0.000824976 3.72516e-05 1.22302e-05
3.72516e-05 -0.00062991 -3.55743e-06
1.22302e-05 -3.55743e-06 -0.000699234
0.00236036 -6.93365e-05 2.154e-06
-6.93365e-05 0.000218769 2.67535e-06
2.154e-06 2.67535e-06 0.000184411
0.00784177 0.000140292 2.28296e-05
0.000140292 0.00168835 -2.56089e-05
2.28296e-05 -2.56089e-05 0.000731245
-0.00357141 0.000622451 -3.24442e-05
0.000622451 -0.00117496 -5.07752e-06
-3.24442e-05 -5.07752e-06 -0.00183539
-0.00189191 0.00125664 -6.4454e-05
0.00125664 -0.000837308 2.76483e-05
-6.4454e-05 2.76483e-05 0.00063759
0.0011787 -0.000154029 4.61486e-05
-0.000154029 -0.000626656 1.11062e-05
4.61486e-05 1.11062e-05 -0.0008964
0.00978528 -1.65389e-05 5.40173e-05
-1.65389e-05 0.00301622 -2.63932e-05
5.40173e-05 -2.63932e-05 0.00165135
0.00101784 0.00116943 9.58763e-05
0.00116943 -0.000423586 -0.000158998
9.58763e-05 -0.000158998 0.000205508
0.00476606 0.000910247 -0.000106415
0.000910247 9.6871e-05 8.0154e-05
-0.000106415 8.0154e-05 0.000801633
0.000733524 6.72997e-05 -1.0472e-06
6.72997e-05 0.00010135 -7.26593e-07
-1.0472e-06 -7.26593e-07 -1.2845e-05
0.000593113 1.14592e-05 -2.63508e-07
1.14592e-05 2.14804e-06 -6.6445e-07
-2.63508e-07 -6.6445e-07 -8.11186e-05
0.000712786 -7.60096e-05 -1.11114e-06
-7.60096e-05 6.89263e-05 1.48482e-06
-1.11114e-06 1.48482e-06 -2.99445e-06
0.000599055 2.19982e-06 6.84544e-08
2.19982e-06 1.04407e-05 1.19814e-06
6.84544e-08 1.19814e-06 -7.88884e-05
0.00074828 6.76863e-05 9.45596e-07
6.76863e-05 0.000109178 1.43176e-06
9.45596e-07 1.43176e-06 4.44434e-06
0.000882643 7.01387e-05 -1.85762e-07
7.01387e-05 0.000178944 -3.8739e-07
-1.85762e-07 -3.8739e-07 6.651e-05
0.000800031 8.15168e-05 1.62646e-06
8.15168e-05 0.000129903 1.59292e-06
1.62646e-06 1.59292e-06 2.52663e-05
0.000712311 2.26559e-06 1.31704e-06
2.26559e-06 6.83684e-05 -8.99557e-07
1.31704e-06 -8.99557e-07 -2.84782e-05
0.000686531 -1.6362e-05 4.94085e-07
-1.6362e-05 6.33202e-05 -9.28091e-07
4.94085e-07 -9.28091e-07 -3.18553e-05
0.000577306 -9.04211e-06 -3.80418e-07
-9.04211e-06 -9.58807e-06 1.34419e-06
-3.80418e-07 1.34419e-06 -9.29021e-05
0.00145564 -0.000143514 1.3915e-05
-0.000143514 -0.000206149 -1.2837e-06
1.3915e-05 -1.2837e-06 -0.000193251
0.00177662 -0.000317244 1.5372e-05
-0.000317244 -6.68947e-05 -2.97355e-06
1.5372e-05 -2.97355e-06 -8.53959e-05
3.87353e-05 -0.000296935 1.2132e-05
-0.000296935 -0.0007722 2.38606e-06
1.2132e-05 2.38606e-06 -0.000896388
0.00128361 -0.000344327 2.1437e-06
-0.000344327 0.00022444 -1.46806e-06
2.1437e-06 -1.46806e-06 -5.30414e-06
0.0014978 -0.000151113 -2.54934e-07
-0.000151113 0.000632023 3.74108e-06
-2.54934e-07 3.74108e-06 0.000357138
0.00109145 -0.000122967 -7.48696e-07
-0.000122967 0.000334196 1.13708e-06
-7.48696e-07 1.13708e-06 0.00016692
0.000923285 -5.40224e-05 -1.16278e-06
-5.40224e-05 0.000195683 7.84369e-07
-1.16278e-06 7.84369e-07 8.75484e-05
0.000722209 3.66837e-05 -1.47813e-06
3.66837e-05 9.56672e-05 2.37586e-06
-1.47813e-06 2.37586e-06 -1.65957e-05
0.00163693 -0.000179794 -1.39853e-06
-0.000179794 -2.49144e-05 -6.06731e-07
-1.39853e-06 -6.06731e-07 -4.89467e-05
0.000637263 -4.45008e-05 -2.24286e-07
-4.45008e-05 4.58346e-05 -7.02403e-08
-2.24286e-07 -7.02403e-08 -7.9633e-05
0.000573871 -6.1007e-05 7.90443e-07
-6.1007e-05 2.88691e-05 -1.16665e-06
7.90443e-07 -1.16665e-06 -0.00010724
0.00199057 -0.000387317 4.89875e-06
-0.000387317 0.000125881 -9.18185e-07
4.89875e-06 -9.18185e-07 0.000133958
0.000698589 -0.000376903 1.40005e-06
-0.000376903 -0.000287431 2.59509e-06
1.40005e-06 2.59509e-06 -0.000432373
0.000964046 -0.00028402 6.71465e-06
-0.00028402 0.00015774 -2.51857e-06
6.71465e-06 -2.51857e-06 -8.71572e-05
0.00128525 -8.45011e-05 -4.40864e-07
-8.45011e-05 0.000505055 -2.62426e-06
-4.40864e-07 -2.62426e-06 0.00026919
0.000543522 -0.000231341 -1.24924e-05
-0.000231341 -0.000292831 -1.21157e-06
-1.24924e-05 -1.21157e-06 -0.000525315
0.00142842 -0.00032135 -2.518e-05
-0.00032135 0.000148825 9.09106e-06
-2.518e-05 9.09106e-06 0.00010467
-5.93532e-05 -0.00014254 -1.65839e-05
-0.00014254 -0.000236587 3.36507e-05
-1.65839e-05 3.36507e-05 -0.000493983
0.000560937 3.21993e-05 6.17352e-07
3.21993e-05 1.82542e-06 8.38674e-07
6.17352e-07 8.38674e-07 -0.000121056
0.00055474 -9.80604e-05 2.50816e-06
-9.80604e-05 1.12204e-05 -1.83735e-06
2.50816e-06 -1.83735e-06 -0.000125073
0.000751284 -5.87565e-05 2.11421e-06
-5.87565e-05 0.000160333 -6.21482e-06
2.11421e-06 -6.21482e-06 -1.65671e-05
0.000777579 0.000101228 -0.000116718
0.000101228 0.00262699 1.87576e-06
-0.000116718 1.87576e-06 0.00161237
0.00209682 -0.000233022 1.80517e-05
-0.000233022 0.00145094 1.43908e-05
1.80517e-05 1.43908e-05 0.00132361
0.000140104 0.000474187 -5.6327e-05
0.000474187 -0.00263445 2.06806e-05
-5.6327e-05 2.06806e-05 -0.00322452
0.000813373 0.000134273 4.82711e-06
0.000134273 0.000171169 1.95549e-06
4.82711e-06 1.95549e-06 4.694e-05
0.000522805 0.000173868 6.2816e-06
0.000173868 1.322e-07 4.70027e-06
6.2816e-06 4.70027e-06 -0.0002015
0.00227549 0.000321283 1.45331e-05
0.000321283 0.00032725 1.00899e-05
1.45331e-05 1.00899e-05 0.00037939
0.00116291 0.000320305 1.27199e-05
0.000320305 0.000136975 9.90069e-06
1.27199e-05 9.90069e-06 -0.000125467
0.00561678 -0.000499886 4.48799e-05
-0.000499886 0.00224457 2.82086e-05
4.48799e-05 2.82086e-05 0.00237082
0.000559773 -6.86995e-05 -9.20074e-05
-6.86995e-05 -0.00170252 -6.61501e-06
-9.20074e-05 -6.61501e-06 -0.00318158
0.00315523 0.000854518 -9.17805e-05
0.000854518 -0.000216094 -2.67389e-05
-9.17805e-05 -2.67389e-05 -0.00102935
0.000415349 0.000168176 2.34309e-05
0.000168176 -0.000231966 -1.76788e-05
2.34309e-05 -1.76788e-05 -0.000206375
-0.00400746 -0.000565734 -4.63941e-05
-0.000565734 -0.00141667 -6.78251e-05
-4.63941e-05 -6.78251e-05 -0.0016238
-5.47493e-05 -0.000538621 -2.82604e-05
-0.000538621 0.000754852 1.43703e-05
-2.82604e-05 1.43703e-05 -0.000329545
0.00690158 -0.00112364 0.000129143
-0.00112364 0.000483566 0.000108253
0.000129143 0.000108253 0.00202968
0.000706789 9.62836e-05 4.74685e-06
9.62836e-05 0.000140059 -2.60576e-06
4.74685e-06 -2.60576e-06 2.59269e-05
-0.00105192 -4.76113e-05 -5.72473e-05
-4.76113e-05 0.00128136 -1.77145e-05
-5.72473e-05 -1.77145e-05 -5.01991e-05
0.00272025 0.00015446 -8.05642e-06
0.00015446 0.0010419 -4.16688e-05
-8.05642e-06 -4.16688e-05 -0.000677837
0.000950158 0.000283669 -8.25381e-06
0.000283669 9.17308e-06 3.60387e-06
-8.25381e-06 3.60387e-06 -5.14228e-05
0.000615156 0.000210328 6.85968e-07
0.000210328 0.000127053 1.7474e-06
6.85968e-07 1.7474e-06 -9.57899e-05
7.17152e-05 0.000205542 3.5547e-05
0.000205542 -0.000217469 -2.8044e-05
3.5547e-05 -2.8044e-05 -0.000423771
0.00525128 0.00105511 -9.03621e-06
0.00105511 0.00155751 1.65726e-06
-9.03621e-06 1.65726e-06 0.00080367
0.00976957 0.000266944 4.47275e-05
0.000266944 0.00355858 1.65467e-05
4.47275e-05 1.65467e-05 0.00179903
0.00211085 -0.000753753 1.01456e-05
-0.000753753 -0.00105448 -2.08656e-05
1.01456e-05 -2.08656e-05 -0.00103875
0.00749712 -0.00072284 7.07978e-06
-0.00072284 0.000875572 -2.18815e-05
7.07978e-06 -2.18815e-05 0.00217533
0.000671966 0.000142869 -1.11722e-05
0.000142869 0.000153534 -7.49256e-06
-1.11722e-05 -7.49256e-06 5.61667e-05
0.0021924 -4.79357e-06 -7.95834e-05
-4.79357e-06 0.000650769 -3.67382e-05
-7.95834e-05 -3.67382e-05 -0.000508772
0.000682009 6.6959e-05 -1.03492e-05
6.6959e-05 0.000303164 -7.35939e-05
-1.03492e-05 -7.35939e-05 -0.000921632
-0.000981661 3.05602e-05 -1.96926e-05
3.05602e-05 -0.000498041 -1.59692e-05
-1.96926e-05 -1.59692e-05 -0.000644627
0.00228415 0.000364459 -1.22018e-05
0.000364459 0.000695092 4.86356e-05
-1.22018e-05 4.86356e-05 7.24137e-05
0.00950047 0.000529701 3.23657e-05
0.000529701 0.00394479 -1.58403e-06
3.23657e-05 -1.58403e-06 0.00144108
-0.00694155 -0.00107011 -3.92558e-05
-0.00107011 -0.00413247 7.24407e-05
-3.92558e-05 7.24407e-05 -0.00559587
0.00555643 0.000250296 2.85383e-06
0.000250296 -0.000784061 -0.000110033
2.85383e-06 -0.000110033 0.000670109
0.00103482 8.68369e-05 1.65837e-06
8.68369e-05 0.000242297 6.85836e-06
1.65837e-06 6.85836e-06 0.000166125
0.000925119 0.000102708 -4.52969e-06
0.000102708 0.000204688 -1.05138e-06
-4.52969e-06 -1.05138e-06 0.000137207
0.00158058 0.000102167 -7.53842e-06
0.000102167 0.000671213 -2.13255e-06
-7.53842e-06 -2.13255e-06 0.000601218
0.000829379 7.54557e-05 -1.84754e-06
7.54557e-05 0.000126404 -5.7307e-07
-1.84754e-06 -5.7307e-07 2.69672e-05
0.000881413 -3.48434e-05 -3.99293e-07
-3.48434e-05 0.000157282 7.93717e-07
-3.99293e-07 7.93717e-07 4.79503e-05
0.00075755 2.86254e-05 2.81775e-07
2.86254e-05 6.99857e-05 1.12575e-06
2.81775e-07 1.12575e-06 -2.15972e-05
0.000272714 2.26753e-05 3.6822e-07
2.26753e-05 -0.00017381 2.64691e-06
3.6822e-07 2.64691e-06 -0.00026004
0.000870971 -4.65078e-07 8.07767e-07
-4.65078e-07 0.000144706 1.0003e-07
8.07767e-07 1.0003e-07 3.71454e-05
0.000886227 1.02862e-05 4.38679e-09
1.02862e-05 0.000156653 -4.50319e-07
4.38679e-09 -4.50319e-07 5.59554e-05
0.000342255 5.0212e-06 -5.52426e-07
5.0212e-06 -5.03615e-05 1.68777e-06
-5.52426e-07 1.68777e-06 -0.000135329
0.000114738 1.98706e-05 -4.48011e-06
1.98706e-05 -4.78584e-05 -3.91694e-06
-4.48011e-06 -3.91694e-06 -0.000130096
0.00089514 -1.93986e-05 1.16181e-06
-1.93986e-05 0.000242349 -6.77714e-06
1.16181e-06 -6.77714e-06 0.000148753
0.000997326 3.88724e-05 -3.82887e-07
3.88724e-05 0.000225946 -3.42166e-06
-3.82887e-07 -3.42166e-06 0.000117152
0.000859459 -7.77112e-05 9.87439e-07
-7.77112e-05 0.000135342 9.47653e-07
9.87439e-07 9.47653e-07 3.63975e-05
0.000772843 3.43528e-05 -6.62578e-07
3.43528e-05 9.38523e-05 1.53247e-07
-6.62578e-07 1.53247e-07 1.73308e-06
0.000768781 -2.8856e-05 -1.8648e-06
-2.8856e-05 7.75088e-05 2.13643e-06
-1.8648e-06 2.13643e-06 -6.32156e-06
0.000630727 -8.64177e-06 7.61487e-07
-8.64177e-06 6.62867e-06 6.96107e-07
7.61487e-07 6.96107e-07 -8.56768e-05
0.00074288 3.55383e-05 2.91018e-07
3.55383e-05 8.35974e-05 2.55461e-07
2.91018e-07 2.55461e-07 -9.11623e-06
0.000747977 6.99398e-06 -6.31834e-07
6.99398e-06 7.1279e-05 1.37812e-07
-6.31834e-07 1.37812e-07 -1.16318e-05
0.000927692 1.6338e-05 7.34779e-07
1.6338e-05 0.000171267 -1.64228e-06
7.34779e-07 -1.64228e-06 8.38196e-05
0.000418051 -1.54745e-05 3.02206e-06
-1.54745e-05 -9.18313e-05 -3.78873e-06
3.02206e-06 -3.78873e-06 -0.00016459
0.00053835 -8.21494e-05 1.36327e-06
-8.21494e-05 -8.82177e-05 -7.92005e-07
1.36327e-06 -7.92005e-07 -0.000181711
0.000920675 -1.8223e-05 -1.61425e-06
-1.8223e-05 0.000166784 -2.93344e-07
-1.61425e-06 -2.93344e-07 6.91033e-05
0.000446263 -5.95857e-05 2.89166e-06
-5.95857e-05 -6.84977e-05 1.42619e-06
2.89166e-06 1.42619e-06 -0.000196116
0.00104658 -0.0001895 2.01106e-07
-0.0001895 0.000241258 4.93497e-06
2.01106e-07 4.93497e-06 5.22431e-05
0.00122417 -7.38485e-05 1.43202e-06
-7.38485e-05 0.000374792 -1.50894e-06
1.43202e-06 -1.50894e-06 0.000256833
0.000399102 -5.54579e-05 -1.37609e-06
-5.54579e-05 -7.38903e-05 -3.17394e-06
-1.37609e-06 -3.17394e-06 -0.000209208
0.000658793 2.04697e-05 -4.32497e-07
2.04697e-05 4.76226e-05 -5.39247e-07
-4.32497e-07 -5.39247e-07 -5.20029e-05
0.000422286 1.82463e-05 5.9551e-07
1.82463e-05 -9.58347e-05 4.40793e-07
5.9551e-07 4.40793e-07 -0.000185161
0.000829735 1.4917e-05 -2.03479e-07
1.4917e-05 0.00013528 3.81038e-07
-2.03479e-07 3.81038e-07 3.9698e-05
0.000761029 -1.24388e-05 -5.76666e-07
-1.24388e-05 9.45471e-05 4.65013e-07
-5.76666e-07 4.65013e-07 6.65871e-06
0.000675535 5.92638e-06 -7.46759e-07
5.92638e-06 2.87117e-05 6.92248e-07
-7.46759e-07 6.92248e-07 -3.92832e-05
0.000814544 -3.29465e-05 3.85424e-07
-3.29465e-05 0.000134519 -1.37162e-07
3.85424e-07 -1.37162e-07 3.91838e-05
0.000717878 -2.98041e-05 -4.46442e-07
-2.98041e-05 5.61845e-05 3.66719e-08
-4.46442e-07 3.66719e-08 -1.48527e-05
0.000657084 3.38271e-05 -1.46791e-06
3.38271e-05 2.28222e-06 1.74242e-06
-1.46791e-06 1.74242e-06 -4.47129e-05
0.000753529 -5.82997e-05 1.36952e-06
-5.82997e-05 7.80384e-05 -7.07415e-07
1.36952e-06 -7.07415e-07 4.30293e-06
0.0006859 8.87134e-06 -2.78928e-07
8.87134e-06 1.62763e-05 4.7673e-09
-2.78928e-07 4.7673e-09 -2.93624e-05
0.00136042 3.48554e-05 -6.9604e-06
3.48554e-05 0.000396452 5.08053e-06
-6.9604e-06 5.08053e-06 0.000386386
0.000673803 -1.11398e-05 1.55675e-06
-1.11398e-05 1.15502e-05 -1.7616e-06
1.55675e-06 -1.7616e-06 -3.44737e-05
0.000993142 2.39955e-05 -3.33643e-06
2.39955e-05 0.000180949 7.03909e-07
-3.33643e-06 7.03909e-07 0.000169635
0.000812892 2.18914e-05 -8.35177e-07
2.18914e-05 7.97329e-05 1.91503e-06
-8.35177e-07 1.91503e-06 8.81344e-05
0.000607764 1.3725e-05 4.3533e-07
1.3725e-05 -4.48017e-05 -3.66921e-06
4.3533e-07 -3.66921e-06 -5.74263e-05
0.00155704 2.08023e-05 5.26249e-06
2.08023e-05 0.000507324 -1.45745e-06
5.26249e-06 -1.45745e-06 0.000520316
0.00230477 1.42567e-05 4.31544e-06
1.42567e-05 0.000939707 -4.97992e-06
4.31544e-06 -4.97992e-06 0.000956779
0.000766629 -4.8007e-06 7.71302e-07
-4.8007e-06 8.68767e-05 -1.50653e-06
7.71302e-07 -1.50653e-06 1.49921e-05
0.000698891 1.37181e-05 -4.71572e-07
1.37181e-05 2.70553e-05 -2.19376e-06
-4.71572e-07 -2.19376e-06 -1.20949e-05
0.000758106 -1.6433e-06 7.46212e-07
-1.6433e-06 8.79251e-05 1.61594e-07
7.46212e-07 1.61594e-07 1.75119e-05
0.000638657 -4.59703e-06 -1.39227e-07
-4.59703e-06 -3.09388e-05 -3.65002e-06
-1.39227e-07 -3.65002e-06 -3.73982e-05
0.00066845 1.22155e-05 4.17378e-08
1.22155e-05 1.07222e-05 -2.25229e-08
4.17378e-08 -2.25229e-08 -2.65744e-05
0.000683402 -6.89566e-05 -2.78628e-06
-6.89566e-05 4.60059e-05 2.10475e-06
-2.78628e-06 2.10475e-06 -2.22762e-05
0.00206974 -1.57344e-07 -7.78313e-07
-1.57344e-07 0.000802537 -4.77832e-06
-7.78313e-07 -4.77832e-06 0.000822463
0.000638076 1.64365e-06 -1.45117e-07
1.64365e-06 -3.11629e-05 -5.23178e-09
-1.45117e-07 -5.23178e-09 -3.71051e-05
0.000651452 -1.16057e-05 -8.55103e-07
-1.16057e-05 5.98615e-07 1.97986e-06
-8.55103e-07 1.97986e-06 -3.53306e-05
0.000629481 7.63292e-06 -1.78363e-07
7.63292e-06 -3.554e-05 3.51413e-06
-1.78363e-07 3.51413e-06 -4.16081e-05
0.00207699 1.2549e-05 -3.29757e-06
1.2549e-05 0.000808008 -3.67342e-08
-3.29757e-06 -3.67342e-08 0.000827604
0.00207429 2.33687e-05 -1.06443e-05
2.33687e-05 0.000808847 4.47457e-06
-1.06443e-05 4.47457e-06 0.000827877
-0.00293133 -0.000125081 -3.64085e-05
-0.000125081 0.00059115 1.22327e-05
-3.64085e-05 1.22327e-05 -0.000800536
-0.00110475 0.000348799 -3.95463e-05
0.000348799 -0.000506424 9.99132e-06
-3.95463e-05 9.99132e-06 -0.000846106
0.00289661 -0.000161377 -0.000143449
-0.000161377 0.000724562 0.000118656
-0.000143449 0.000118656 -0.000808573
-0.00265314 0.000181727 0.000197944
0.000181727 0.000789803 -8.72659e-05
0.000197944 -8.72659e-05 8.60669e-06
0.00170773 0.00016538 -8.4058e-05
0.00016538 -0.000361695 1.41e-05
-8.4058e-05 1.41e-05 -0.000554128
0.00214679 -0.000109117 8.63036e-05
-0.000109117 6.96929e-05 -9.93041e-06
8.63036e-05 -9.93041e-06 3.79645e-05
0.00178462 -0.000411143 -8.65563e-05
-0.000411143 -0.00125745 -4.62062e-05
-8.65563e-05 -4.62062e-05 -0.00228456
0.00794252 0.000693228 -4.19712e-05
0.000693228 0.00388239 -1.26141e-05
-4.19712e-05 -1.26141e-05 0.00359448
-0.00695596 0.00137122 -0.000306849
0.00137122 -0.00379886 0.00025157
-0.000306849 0.00025157 -0.00176102
0.00240623 -4.49377e-05 -8.96498e-06
-4.49377e-05 -0.000116024 -5.58329e-06
-8.96498e-06 -5.58329e-06 -0.000338699
0.00400711 -0.000158624 3.0183e-05
-0.000158624 0.000202121 -4.10131e-05
3.0183e-05 -4.10131e-05 -0.00172609
0.00829128 0.00131468 -4.32584e-05
0.00131468 0.00268906 -5.01132e-05
-4.32584e-05 -5.01132e-05 0.00337204
0.00207101 0.000858837 -4.63724e-05
0.000858837 -0.00151247 0.000100162
-4.63724e-05 0.000100162 -0.000718915
0.0025836 -0.000497906 -5.57927e-05
-0.000497906 -0.000278089 1.58759e-05
-5.57927e-05 1.58759e-05 -0.000669359
0.00251455 -0.000479403 0.000143495
-0.000479403 0.000427077 -0.000106544
0.000143495 -0.000106544 -0.00232703
-0.0054922 0.000538339 -4.63355e-05
0.000538339 -0.00458485 -0.000199049
-4.63355e-05 -0.000199049 -0.00440868
0.00189661 0.000528595 -3.11222e-05
0.000528595 -0.00295421 -3.35733e-06
-3.11222e-05 -3.35733e-06 -0.00165477
0.000810355 -1.30938e-05 9.21761e-07
-1.30938e-05 0.000146231 -2.25375e-07
9.21761e-07 -2.25375e-07 2.44018e-05
0.000758782 5.77574e-05 -1.74001e-06
5.77574e-05 0.000112772 -7.45531e-07
-1.74001e-06 -7.45531e-07 2.96778e-06
0.000719004 4.7626e-05 1.83305e-07
4.7626e-05 7.24218e-05 -8.01994e-08
1.83305e-07 -8.01994e-08 -8.19164e-06
0.000678195 6.95821e-05 2.4728e-06
6.95821e-05 7.03431e-05 2.58956e-06
2.4728e-06 2.58956e-06 -3.31878e-05
0.000721408 3.45408e-05 -2.15127e-07
3.45408e-05 8.56354e-05 -4.93786e-07
-2.15127e-07 -4.93786e-07 -3.7996e-05
0.000866892 7.12457e-05 2.05144e-07
7.12457e-05 0.00017135 9.33617e-07
2.05144e-07 9.33617e-07 5.94009e-05
0.000697843 1.85758e-05 -6.18659e-07
1.85758e-05 6.81108e-05 2.3832e-06
-6.18659e-07 2.3832e-06 -3.29323e-05
0.000897335 0.000103556 -2.75386e-07
0.000103556 0.000191477 -4.21454e-07
-2.75386e-07 -4.21454e-07 7.75386e-05
0.000850067 5.77163e-05 -1.46937e-07
5.77163e-05 0.000163004 5.27059e-07
-1.46937e-07 5.27059e-07 5.60124e-05
0.000615778 -6.4079e-06 -1.64389e-06
-6.4079e-06 2.53532e-05 4.27883e-07
-1.64389e-06 4.27883e-07 -7.32026e-05
0.00125748 -0.000178314 2.9563e-05
-0.000178314 -0.000212129 -1.27379e-05
2.9563e-05 -1.27379e-05 -0.000214565
0.000893411 -0.000335255 2.39111e-05
-0.000335255 -0.000431365 -3.71037e-06
2.39111e-05 -3.71037e-06 -0.000434335
0.000944838 -0.000391598 1.39819e-05
-0.000391598 -0.000138906 -2.01381e-06
1.39819e-05 -2.01381e-06 -0.000276579
0.00116727 -0.000316193 8.36604e-06
-0.000316193 0.000259847 -1.50586e-05
8.36604e-06 -1.50586e-05 -6.83436e-06
0.00141232 -0.000108627 -9.3687e-07
-0.000108627 0.000555668 8.52442e-06
-9.3687e-07 8.52442e-06 0.000329751
0.000699608 -7.94404e-05 -1.50548e-06
-7.94404e-05 0.000107682 4.29991e-06
-1.50548e-06 4.29991e-06 -3.6478e-05
0.000634566 6.43779e-05 -5.08698e-07
6.43779e-05 4.75579e-05 -2.66104e-08
-5.08698e-07 -2.66104e-08 -8.11059e-05
0.000723033 -4.73901e-05 -4.35229e-07
-4.73901e-05 9.79959e-05 1.24865e-06
-4.35229e-07 1.24865e-06 -3.13766e-05
0.00124214 -0.000228451 -1.97583e-06
-0.000228451 4.81866e-05 -2.31637e-07
-1.97583e-06 -2.31637e-07 -0.000105653
0.000846128 -7.53841e-06 6.44775e-08
-7.53841e-06 0.000177055 1.27261e-07
6.44775e-08 1.27261e-07 3.83403e-05
0.00117775 -9.0451e-05 -5.1731e-08
-9.0451e-05 0.000409866 1.67307e-07
-5.1731e-08 1.67307e-07 0.000222072
0.00114795 -0.00030697 -2.48657e-06
-0.00030697 -2.65189e-05 -1.59089e-06
-2.48657e-06 -1.59089e-06 -5.49443e-05
0.00105618 -0.00018357 -1.08824e-05
-0.00018357 0.000340106 4.03478e-06
-1.08824e-05 4.03478e-06 9.85929e-05
-0.000530568 -0.000286295 -1.2271e-05
-0.000286295 -0.000926168 -1.60254e-05
-1.2271e-05 -1.60254e-05 -0.000908898
0.000597292 -0.000144675 -1.7948e-05
-0.000144675 8.99433e-05 2.33873e-05
-1.7948e-05 2.33873e-05 -5.27791e-06
0.00061176 -4.40149e-05 -6.30502e-06
-4.40149e-05 0.000108489 2.62879e-05
-6.30502e-06 2.62879e-05 -6.62714e-05
0.000700679 -4.27456e-06 5.41964e-07
-4.27456e-06 7.21331e-05 -5.27797e-07
5.41964e-07 -5.27797e-07 -5.53193e-05
0.000658364 2.12872e-05 1.64409e-06
2.12872e-05 0.000115853 -4.55369e-06
1.64409e-06 -4.55369e-06 -6.36226e-05
0.00156438 -2.68383e-05 -2.00181e-05
-2.68383e-05 0.000557211 -1.30919e-06
-2.00181e-05 -1.30919e-06 -0.000399163
-0.00148034 3.55258e-05 -8.26244e-05
3.55258e-05 0.00165892 -3.87171e-06
-8.26244e-05 -3.87171e-06 0.00035505
-0.00822766 -0.000291043 -0.000229901
-0.000291043 -0.00421454 5.01431e-06
-0.000229901 5.01431e-06 -0.00416384
-7.75405e-06 7.72578e-05 6.54462e-06
7.72578e-05 -0.000243231 -8.90113e-07
6.54462e-06 -8.90113e-07 -0.000367789
-8.34788e-05 8.83212e-05 4.69552e-06
8.83212e-05 -0.000231613 2.51067e-06
4.69552e-06 2.51067e-06 -0.000452465
0.00140412 0.000253506 1.34388e-05
0.000253506 0.000258012 3.82396e-06
1.34388e-05 3.82396e-06 0.000193553
-0.00282079 0.00015903 -1.56199e-05
0.00015903 0.000500475 9.46275e-06
-1.56199e-05 9.46275e-06 -0.00099761
0.00218842 0.000301359 -6.20294e-05
0.000301359 0.000372507 -5.30107e-05
-6.20294e-05 -5.30107e-05 -0.00234966
0.00348372 0.000866258 8.55852e-05
0.000866258 0.000482901 1.22525e-05
8.55852e-05 1.22525e-05 -8.17939e-05
0.000742432 0.000257916 5.27511e-06
0.000257916 7.17894e-05 -1.3733e-05
5.27511e-06 -1.3733e-05 2.33934e-05
0.010593 -0.000960235 2.00204e-05
-0.000960235 0.0032589 -5.62008e-05
2.00204e-05 -5.62008e-05 0.0032694
0.00315765 0.000166482 8.91007e-05
0.000166482 0.00133668 6.52497e-05
8.91007e-05 6.52497e-05 -0.000444587
0.00736445 -0.000635976 2.69086e-05
-0.000635976 0.00107202 2.37232e-06
2.69086e-05 2.37232e-06 0.00244213
0.000941158 0.000159449 -2.34909e-07
0.000159449 0.000335872 -2.48108e-06
-2.34909e-07 -2.48108e-06 0.000231593
0.0023736 6.89463e-08 5.93055e-06
6.89463e-08 0.000896717 -7.69974e-06
5.93055e-06 -7.69974e-06 -0.000132911
0.00101781 9.11083e-05 7.76194e-06
9.11083e-05 0.00025658 1.41106e-05
7.76194e-06 1.41106e-05 -0.00101664
-3.31747e-05 0.000152917 -8.42768e-06
0.000152917 -4.26638e-05 -1.25692e-06
-8.42768e-06 -1.25692e-06 -0.000219406
0.00276014 0.000509067 -5.98489e-05
0.000509067 0.000774261 -3.55358e-05
-5.98489e-05 -3.55358e-05 0.000179721
0.00220374 0.000972823 5.31893e-05
0.000972823 0.000481833 3.95974e-05
5.31893e-05 3.95974e-05 -0.00233767
0.00453974 9.28212e-05 -6.7044e-06
9.28212e-05 -0.00199193 -7.54792e-05
-6.7044e-06 -7.54792e-05 -4.18103e-05
0.00112612 -0.000619753 -2.13654e-05
-0.000619753 -0.00014111 -1.58228e-05
-2.13654e-05 -1.58228e-05 -0.00109997
0.00119107 0.000101291 -3.24157e-06
0.000101291 0.000619829 -7.40327e-06
-3.24157e-06 -7.40327e-06 0.000513398
0.000836781 -4.70853e-05 9.10468e-08
-4.70853e-05 0.000129427 -2.72155e-05
9.10468e-08 -2.72155e-05 -0.000184201
0.00231539 -5.49829e-06 1.6677e-05
-5.49829e-06 0.000284813 -6.42942e-05
1.6677e-05 -6.42942e-05 -0.000677578
0.00207634 0.000556581 3.73639e-05
0.000556581 -0.00286104 2.24958e-06
3.73639e-05 2.24958e-06 -0.00165363
-0.00105389 4.28432e-05 -6.42649e-06
4.28432e-05 -0.000305778 -1.43385e-05
-6.42649e-06 -1.43385e-05 -0.000714658
0.00981243 0.000714686 0.000102583
0.000714686 0.00446901 4.34596e-05
0.000102583 4.34596e-05 0.00150239
-0.00851911 -0.000274546 5.42243e-05
-0.000274546 -0.0010731 0.000102521
5.42243e-05 0.000102521 -0.00249222
0.00159221 0.000160168 1.41693e-05
0.000160168 0.000590931 6.83999e-06
1.41693e-05 6.83999e-06 0.000516732
0.00132295 0.000115063 -2.73591e-06
0.000115063 0.000517905 9.30101e-07
-2.73591e-06 9.30101e-07 0.000443324
0.000710054 9.49545e-05 -1.45793e-05
9.49545e-05 0.000371019 -3.47289e-06
-1.45793e-05 -3.47289e-06 0.000279652
0.000791589 0.000117096 1.0313e-06
0.000117096 0.000108044 1.61002e-06
1.0313e-06 1.61002e-06 -4.08806e-06
0.000750441 3.96017e-05 5.139e-07
3.96017e-05 7.55773e-05 1.58512e-06
5.139e-07 1.58512e-06 -2.12073e-05
0.000729001 -2.72065e-06 1.17444e-06
-2.72065e-06 0.000177681 8.9555e-06
1.17444e-06 8.9555e-06 8.85459e-05
0.000747905 3.6104e-05 -2.19606e-07
3.6104e-05 7.83394e-05 -4.59337e-07
-2.19606e-07 -4.59337e-07 -2.36444e-05
0.000813953 -3.1246e-05 -2.20462e-07
-3.1246e-05 0.000199187 -1.35663e-06
-2.20462e-07 -1.35663e-06 0.00010167
0.000145768 1.7094e-05 6.60759e-06
1.7094e-05 -3.98406e-05 3.2914e-06
6.60759e-06 3.2914e-06 -0.000125801
0.00125442 -6.29307e-06 -5.71763e-06
-6.29307e-06 0.000577033 -1.04481e-05
-5.71763e-06 -1.04481e-05 0.000507703
0.000509113 -2.76705e-05 -1.34216e-06
-2.76705e-05 6.24352e-06 -6.38035e-06
-1.34216e-06 -6.38035e-06 -8.2401e-05
0.000677707 -1.69875e-05 -1.73142e-07
-1.69875e-05 2.45961e-05 3.09756e-06
-1.73142e-07 3.09756e-06 -6.15674e-05
0.000790104 3.60849e-05 -3.48748e-07
3.60849e-05 0.000111846 1.85826e-07
-3.48748e-07 1.85826e-07 1.79567e-05
0.000901264 1.82237e-05 -3.93737e-06
1.82237e-05 0.000157174 2.88476e-06
-3.93737e-06 2.88476e-06 7.39103e-05
0.000740522 -1.56845e-05 1.26421e-06
-1.56845e-05 8.56711e-05 8.98487e-08
1.26421e-06 8.98487e-08 1.2031e-05
0.000775135 2.23542e-05 5.63891e-08
2.23542e-05 8.70534e-05 1.52826e-07
5.63891e-08 1.52826e-07 -1.5101e-06
0.000712207 -6.0479e-05 2.27833e-06
-6.0479e-05 7.84831e-05 1.09995e-07
2.27833e-06 1.09995e-07 -1.04084e-05
0.000580805 -6.31548e-05 -1.38883e-06
-6.31548e-05 -3.88382e-05 -8.43575e-07
-1.38883e-06 -8.43575e-07 -0.00012283
0.000392192 -0.000123982 5.1646e-06
-0.000123982 -0.000117338 8.89196e-08
5.1646e-06 8.89196e-08 -0.000273585
0.00103535 -4.23041e-05 -9.74394e-07
-4.23041e-05 0.000235599 6.99709e-07
-9.74394e-07 6.99709e-07 0.000134768
0.0010319 -0.000110558 -7.97536e-07
-0.000110558 0.000252928 1.93809e-06
-7.97536e-07 1.93809e-06 0.000117551
0.000241117 -0.000142033 5.96392e-07
-0.000142033 -0.000243801 2.74917e-06
5.96392e-07 2.74917e-06 -0.000425934
0.00063453 -0.000159802 -5.60851e-06
-0.000159802 -2.01396e-05 -4.52997e-07
-5.60851e-06 -4.52997e-07 -0.000207706
0.000951405 -0.000142874 -1.46922e-06
-0.000142874 0.000235515 2.49784e-06
-1.46922e-06 2.49784e-06 8.60072e-05
0.00065952 -0.000153677 7.75944e-07
-0.000153677 2.45345e-05 3.80123e-07
7.75944e-07 3.80123e-07 -0.000156492
0.000860552 -3.7802e-05 4.49792e-07
-3.7802e-05 0.000155447 4.50306e-07
4.49792e-07 4.50306e-07 5.41195e-05
0.00101473 -6.6703e-05 -1.13712e-06
-6.6703e-05 0.00026293 -7.10305e-07
-1.13712e-06 -7.10305e-07 0.000141234
0.000552141 -7.22468e-05 6.79121e-07
-7.22468e-05 2.49351e-05 -6.22365e-06
6.79121e-07 -6.22365e-06 -0.000107859
0.000979347 1.06909e-05 -1.15618e-06
1.06909e-05 0.000222917 -6.94624e-07
-1.15618e-06 -6.94624e-07 0.000125593
0.000570616 1.0288e-05 1.94713e-07
1.0288e-05 -1.00641e-05 -2.70241e-08
1.94713e-07 -2.70241e-08 -0.000100377
0.000671441 1.9196e-05 -3.19633e-07
1.9196e-05 2.96762e-05 6.54948e-07
-3.19633e-07 6.54948e-07 -4.20768e-05
0.000809845 -2.96813e-05 -7.61921e-08
-2.96813e-05 0.000129143 2.16175e-07
-7.61921e-08 2.16175e-07 3.54585e-05
0.00071669 -1.41233e-05 -4.01177e-07
-1.41233e-05 5.69219e-05 -4.24354e-09
-4.01177e-07 -4.24354e-09 -1.49756e-05
0.000659984 3.32077e-05 -1.09214e-06
3.32077e-05 7.39699e-06 1.74187e-06
-1.09214e-06 1.74187e-06 -4.11909e-05
0.000756953 -4.79098e-05 9.21382e-07
-4.79098e-05 8.2849e-05 -7.70436e-07
9.21382e-07 -7.70436e-07 8.30244e-06
0.000674704 2.49174e-05 -5.4347e-07
2.49174e-05 1.17108e-05 -2.39986e-08
-5.4347e-07 -2.39986e-08 -3.5183e-05
0.0013321 4.4917e-05 -8.02979e-06
4.4917e-05 0.000384644 3.45013e-06
-8.02979e-06 3.45013e-06 0.000373653
0.000692104 -4.30513e-06 1.84701e-06
-4.30513e-06 1.9407e-05 -1.79549e-06
1.84701e-06 -1.79549e-06 -2.61593e-05
0.000980788 3.23076e-05 -4.18405e-06
3.23076e-05 0.000176554 6.36468e-07
-4.18405e-06 6.36468e-07 0.000164721
0.000816004 2.94423e-05 -1.36883e-06
2.94423e-05 8.66034e-05 1.93261e-06
-1.36883e-06 1.93261e-06 9.39455e-05
0.000595624 2.04371e-05 6.71366e-07
2.04371e-05 -5.01564e-05 -3.75872e-06
6.71366e-07 -3.75872e-06 -6.31118e-05
0.00155794 3.08646e-05 7.06699e-06
3.08646e-05 0.000511849 -1.35092e-06
7.06699e-06 -1.35092e-06 0.00052385
0.00231559 2.69227e-05 8.43965e-06
2.69227e-05 0.000948663 -4.83902e-06
8.43965e-06 -4.83902e-06 0.000964997
0.000489163 3.06494e-06 -3.31757e-10
3.06494e-06 -6.39949e-05 -2.19498e-06
-3.31757e-10 -2.19498e-06 -0.000150345
0.000406511 -3.35912e-06 -2.95932e-07
-3.35912e-06 -0.000141317 -3.14338e-06
-2.95932e-07 -3.14338e-06 -0.000186629
0.000793518 6.90305e-06 7.24621e-08
6.90305e-06 0.00010706 6.17375e-08
7.24621e-08 6.17375e-08 3.19358e-05
0.000634902 -1.09793e-05 -7.83699e-08
-1.09793e-05 -3.2342e-05 -3.78786e-06
-7.83699e-08 -3.78786e-06 -4.03231e-05
0.000527199 5.26428e-06 6.95955e-07
5.26428e-06 -7.11592e-05 -5.3488e-08
6.95955e-07 -5.3488e-08 -0.000111825
0.000490102 -6.48582e-05 -4.16924e-07
-6.48582e-05 -6.35628e-05 1.65902e-06
-4.16924e-07 1.65902e-06 -0.00013679
0.00210261 -1.18611e-05 -5.22802e-06
-1.18611e-05 0.000822005 -4.79277e-06
-5.22802e-06 -4.79277e-06 0.000841507
0.000639666 -4.48163e-06 -1.46075e-07
-4.48163e-06 -3.03265e-05 -2.07484e-08
-1.46075e-07 -2.07484e-08 -3.67537e-05
0.000651232 -3.65303e-06 -7.49764e-07
-3.65303e-06 6.18441e-07 2.0855e-06
-7.49764e-07 2.0855e-06 -3.64014e-05
0.00207873 9.912e-07 -3.37725e-06
9.912e-07 0.000807791 4.41435e-09
-3.37725e-06 4.41435e-09 0.000827683
0.000632977 1.66726e-06 7.40215e-09
1.66726e-06 -3.39943e-05 3.52313e-06
7.40215e-09 3.52313e-06 -3.99166e-05
0.00207981 1.37357e-05 -3.88897e-06
1.37357e-05 0.000809813 4.64391e-06
-3.88897e-06 4.64391e-06 0.00082934
0.000937231 -7.44266e-05 -6.9493e-05
-7.44266e-05 -3.52034e-05 2.95256e-05
-6.9493e-05 2.95256e-05 -0.00104875
0.00151298 0.000146693 -1.39044e-05
0.000146693 0.00240286 -9.57309e-06
-1.39044e-05 -9.57309e-06 0.00158087
0.00132752 -0.000271462 -0.000148901
-0.000271462 0.00154599 -8.20324e-06
-0.000148901 -8.20324e-06 0.000890748
0.000757489 5.87505e-05 -9.83547e-08
5.87505e-05 9.45832e-05 -1.48749e-07
-9.83547e-08 -1.48749e-07 -1.50064e-05
0.00318944 -0.000133954 -2.00107e-05
-0.000133954 0.00173684 7.56176e-05
-2.00107e-05 7.56176e-05 0.000822461
0.00302289 -0.00019415 -4.97507e-05
-0.00019415 0.000901761 4.29995e-06
-4.97507e-05 4.29995e-06 -0.000779831
0.00148328 0.000469193 0.000108558
0.000469193 0.00223143 -0.000106714
0.000108558 -0.000106714 0.00187859
0.00332944 -0.000158562 5.6756e-06
-0.000158562 0.000107038 -2.70222e-05
5.6756e-06 -2.70222e-05 -0.000153482
0.0100087 -1.00411e-05 7.32727e-05
-1.00411e-05 0.00316718 -3.70794e-05
7.32727e-05 -3.70794e-05 0.00146076
-0.00347788 0.000899815 -8.04674e-05
0.000899815 -0.00360891 9.23827e-05
-8.04674e-05 9.23827e-05 -0.00273443
0.00407442 0.000951319 1.0106e-05
0.000951319 -0.000340392 2.77685e-05
1.0106e-05 2.77685e-05 0.000417894
0.00468019 -0.000611071 -7.6831e-05
-0.000611071 0.000477585 1.79354e-07
-7.6831e-05 1.79354e-07 -0.000195645
0.00889678 -0.000286906 4.84943e-05
-0.000286906 0.00356623 -1.3951e-05
4.84943e-05 -1.3951e-05 0.00157363
0.00545169 0.000688685 3.69074e-05
0.000688685 0.000315205 -6.77704e-05
3.69074e-05 -6.77704e-05 0.000325041
0.00407337 0.000528351 -1.44571e-05
0.000528351 -0.00163001 6.31295e-06
-1.44571e-05 6.31295e-06 -0.000452043
0.00488877 -0.00105297 -7.30095e-06
-0.00105297 0.00080423 -7.02529e-06
-7.30095e-06 -7.02529e-06 -0.0002161
0.0101038 -0.000761799 5.79193e-05
-0.000761799 0.00500139 -3.44324e-05
5.79193e-05 -3.44324e-05 0.00166099
0.00201211 -0.000108407 5.01079e-05
-0.000108407 -0.000343314 -0.000109086
5.01079e-05 -0.000109086 -0.000523428
0.00560024 0.000139059 -1.6501e-05
0.000139059 -0.00074571 4.92206e-05
-1.6501e-05 4.92206e-05 0.000816041
0.00078009 -2.59639e-05 1.56975e-07
-2.59639e-05 0.000121769 -1.1861e-06
1.56975e-07 -1.1861e-06 -8.19165e-06
0.000770333 -3.82755e-05 3.89072e-07
-3.82755e-05 0.000126221 4.11253e-08
3.89072e-07 4.11253e-08 9.54679e-07
0.000882821 8.35948e-05 -1.07357e-06
8.35948e-05 0.000188479 2.42703e-07
-1.07357e-06 2.42703e-07 7.66161e-05
0.000726031 2.052e-05 -7.07523e-07
2.052e-05 6.48668e-05 -9.71498e-07
-7.07523e-07 -9.71498e-07 -4.37454e-05
0.000845422 7.48179e-05 -6.8432e-07
7.48179e-05 0.000157949 6.83923e-07
-6.8432e-07 6.83923e-07 3.49773e-05
0.000866049 5.61909e-05 3.60542e-07
5.61909e-05 0.000169711 2.19206e-06
3.60542e-07 2.19206e-06 5.99575e-05
0.0009639 9.80561e-05 -7.25123e-07
9.80561e-05 0.000227081 1.52953e-08
-7.25123e-07 1.52953e-08 0.000114627
0.000990105 0.000104642 9.15546e-07
0.000104642 0.000250399 2.5373e-06
9.15546e-07 2.5373e-06 0.000139109
0.00171797 -0.00021819 4.65843e-05
-0.00021819 0.000256038 -1.5857e-05
4.65843e-05 -1.5857e-05 0.000189238
0.00084922 -0.000290342 8.58236e-06
-0.000290342 -0.000211396 -1.51672e-05
8.58236e-06 -1.51672e-05 -0.000219834
0.000765682 -0.000140817 -1.43571e-06
-0.000140817 0.000132415 1.06517e-06
-1.43571e-06 1.06517e-06 -5.54228e-06
0.00209012 -0.000208341 5.92558e-06
-0.000208341 0.000872859 -2.22401e-05
5.92558e-06 -2.22401e-05 0.000649055
0.00172922 -0.000121094 -2.43369e-06
-0.000121094 0.000718697 6.09755e-06
-2.43369e-06 6.09755e-06 0.000527211
0.000911334 -4.68092e-05 -2.16489e-06
-4.68092e-05 0.000206895 -1.37124e-07
-2.16489e-06 -1.37124e-07 7.28698e-05
0.000811389 1.23331e-05 1.31015e-07
1.23331e-05 0.00014441 -2.5521e-07
1.31015e-07 -2.5521e-07 1.10551e-05
0.000508729 -0.000361194 -9.90226e-06
-0.000361194 -0.000432552 -6.39919e-08
-9.90226e-06 -6.39919e-08 -0.00043797
0.00100613 3.46733e-05 -2.9024e-07
3.46733e-05 0.000314999 1.73102e-06
-2.9024e-07 1.73102e-06 0.000128907
0.000961048 -0.000102147 -5.60356e-07
-0.000102147 0.000277445 1.14556e-06
-5.60356e-07 1.14556e-06 9.82171e-05
0.000373037 -0.000127235 7.793e-07
-0.000127235 -6.64329e-05 3.9402e-06
7.793e-07 3.9402e-06 -0.000115466
0.000626332 2.48372e-05 1.10421e-06
2.48372e-05 1.62844e-05 -1.06879e-06
1.10421e-06 -1.06879e-06 -9.91528e-05
0.00117111 -0.000305143 2.77718e-05
-0.000305143 -2.60158e-05 -2.89028e-05
2.77718e-05 -2.89028e-05 0.000116243
0.000474527 -9.76009e-05 -9.27258e-06
-9.76009e-05 0.000227907 2.96255e-05
-9.27258e-06 2.96255e-05 0.00012504
0.000932632 -1.27371e-05 -1.37375e-06
-1.27371e-05 0.00028884 9.67086e-06
-1.37375e-06 9.67086e-06 0.000110976
0.0012976 0.000164556 1.93836e-06
0.000164556 0.00044754 -3.03405e-06
1.93836e-06 -3.03405e-06 0.000288572
0.0011896 -3.235e-05 -8.8767e-06
-3.235e-05 0.00048076 -3.75775e-06
-8.8767e-06 -3.75775e-06 9.01471e-05
0.00140027 -4.62368e-05 5.50206e-05
-4.62368e-05 0.000524055 -5.85061e-06
5.50206e-05 -5.85061e-06 -0.000436383
-0.00356 -4.85349e-05 -7.43506e-05
-4.85349e-05 0.000794097 4.29751e-06
-7.43506e-05 4.29751e-06 -0.000806582
0.000953405 0.000148146 1.55888e-05
0.000148146 0.000378211 1.95542e-06
1.55888e-05 1.95542e-06 0.000269844
-0.000487275 0.000196446 1.49609e-05
0.000196446 -0.000308493 1.08847e-05
1.49609e-05 1.08847e-05 -0.000530536
0.00268712 -5.38994e-06 6.95387e-05
-5.38994e-06 0.00118406 6.78767e-06
6.95387e-05 6.78767e-06 0.000307151
0.00813838 0.000237518 0.00011261
0.000237518 0.00366015 5.89936e-05
0.00011261 5.89936e-05 0.000793597
0.00254901 0.00053496 -8.7142e-05
0.00053496 0.000873615 -8.17818e-05
-8.7142e-05 -8.17818e-05 -9.48219e-05
0.00321631 -0.000371614 4.70903e-06
-0.000371614 0.000604224 -0.000107093
4.70903e-06 -0.000107093 -0.000405867
0.00131107 0.000108468 2.6487e-05
0.000108468 0.000236725 0.000101247
2.6487e-05 0.000101247 -0.00109047
0.00359829 6.02453e-06 6.87982e-07
6.02453e-06 -0.00325758 -7.29756e-05
6.87982e-07 -7.29756e-05 -0.000822025
0.000659989 0.000119716 2.32226e-06
0.000119716 0.000333155 -8.89826e-07
2.32226e-06 -8.89826e-07 0.000211441
0.000969164 -4.57871e-05 -2.00743e-07
-4.57871e-05 0.000192368 -9.50039e-06
-2.00743e-07 -9.50039e-06 -8.03281e-05
0.00244344 1.30413e-05 2.79563e-05
1.30413e-05 0.000564589 6.6976e-06
2.79563e-05 6.6976e-06 -0.000265718
-0.000892958 9.92246e-05 -1.38962e-05
9.92246e-05 -0.000369165 -5.57585e-06
-1.38962e-05 -5.57585e-06 -0.000700112
0.00433913 0.000613515 1.23201e-05
0.000613515 -0.00159943 -6.61003e-06
1.23201e-05 -6.61003e-06 -0.000437682
0.00555056 0.000779031 7.80651e-05
0.000779031 0.00264801 3.3411e-05
7.80651e-05 3.3411e-05 -0.000408029
0.00312215 0.000177205 -4.68156e-05
0.000177205 0.00201543 6.26076e-06
-4.68156e-05 6.26076e-06 0.00121122
0.000129472 0.000142819 -2.65526e-05
0.000142819 0.000124096 -1.23004e-05
-2.65526e-05 -1.23004e-05 -6.9641e-05
0.0016637 2.52564e-05 5.74859e-07
2.52564e-05 0.000114486 -2.60373e-05
5.74859e-07 -2.60373e-05 -4.08035e-05
0.00327741 -0.000102281 2.31332e-05
-0.000102281 0.0016894 -7.46621e-05
2.31332e-05 -7.46621e-05 0.000819609
0.005142 0.000975124 0.000107095
0.000975124 -6.46264e-05 -7.95026e-05
0.000107095 -7.95026e-05 0.000801228
0.00484134 -2.56013e-05 -6.45908e-05
-2.56013e-05 0.000598215 9.87629e-05
-6.45908e-05 9.87629e-05 0.00065945
0.00146929 0.000212011 -1.09339e-05
0.000212011 0.000142171 -3.86973e-05
-1.09339e-05 -3.86973e-05 0.000170337
-0.000208954 0.000559199 0.000100834
0.000559199 0.00188834 3.66202e-05
0.000100834 3.66202e-05 -0.00266777
0.000453685 0.000101165 1.45472e-06
0.000101165 2.03945e-05 4.976e-06
1.45472e-06 4.976e-06 -5.57066e-05
0.000495032 8.43666e-05 8.72768e-06
8.43666e-05 0.000244335 1.737e-06
8.72768e-06 1.737e-06 0.000148415
0.0014267 2.8916e-05 -2.22513e-05
2.8916e-05 0.000866205 -1.82133e-05
-2.22513e-05 -1.82133e-05 0.000779003
0.000535378 -1.11126e-05 6.35431e-07
-1.11126e-05 -5.31067e-05 3.39713e-06
6.35431e-07 3.39713e-06 -0.000145635
0.000834117 -3.56109e-05 1.29927e-06
-3.56109e-05 0.000208163 4.46215e-06
1.29927e-06 4.46215e-06 0.000112305
-0.000117556 3.44941e-06 -2.16291e-06
3.44941e-06 -0.000204802 7.58464e-06
-2.16291e-06 7.58464e-06 -0.000292172
0.000725771 -4.47766e-05 3.85457e-07
-4.47766e-05 0.000122023 -3.42402e-07
3.85457e-07 -3.42402e-07 3.72949e-05
0.000200843 -3.87203e-06 -4.79317e-07
-3.87203e-06 -2.40598e-05 1.15168e-06
-4.79317e-07 1.15168e-06 -9.48497e-05
0.00103787 -0.000166326 6.89775e-06
-0.000166326 0.00047953 -6.64012e-06
6.89775e-06 -6.64012e-06 0.000317534
0.00110217 -2.53631e-05 -2.01868e-06
-2.53631e-05 0.000286038 3.8751e-06
-2.01868e-06 3.8751e-06 0.000210657
0.000566757 3.75314e-05 -1.17951e-06
3.75314e-05 -2.74987e-05 1.57909e-06
-1.17951e-06 1.57909e-06 -0.000116942
0.00126925 -9.88903e-05 1.05882e-06
-9.88903e-05 0.000383443 1.48561e-06
1.05882e-06 1.48561e-06 0.000286477
5.02595e-05 -0.000106872 4.13739e-06
-0.000106872 -0.00019715 1.5145e-06
4.13739e-06 1.5145e-06 -0.00040055
0.000483209 -3.86148e-05 -4.33749e-06
-3.86148e-05 -6.77595e-05 1.30262e-06
-4.33749e-06 1.30262e-06 -0.000142086
0.000195549 -0.000110651 1.63751e-06
-0.000110651 -0.000227547 -9.3575e-07
1.63751e-06 -9.3575e-07 -0.000371876
0.00104009 -0.000217495 6.80125e-06
-0.000217495 0.00021001 -1.8678e-06
6.80125e-06 -1.8678e-06 -5.30412e-06
0.00124407 -0.000250002 -1.72641e-06
-0.000250002 0.000185254 4.80819e-06
-1.72641e-06 4.80819e-06 -3.86951e-05
0.00161373 -0.000162171 -2.24076e-06
-0.000162171 0.000572867 7.35102e-09
-2.24076e-06 7.35102e-09 0.000429363
0.000608587 -0.000172975 -1.59385e-07
-0.000172975 -4.44486e-05 -4.94449e-08
-1.59385e-07 -4.94449e-08 -0.000235417
0.00182604 -0.000268139 1.935e-06
-0.000268139 0.000619849 -1.70066e-06
1.935e-06 -1.70066e-06 0.000432793
0.0001917 -9.74003e-05 -2.257e-06
-9.74003e-05 -0.000206636 -4.12248e-07
-2.257e-06 -4.12248e-07 -0.00037344
0.00088761 -0.000178899 -4.00015e-07
-0.000178899 0.000125417 9.95467e-07
-4.00015e-07 9.95467e-07 -6.01843e-05
0.000719067 -3.38277e-05 5.8529e-08
-3.38277e-05 8.54944e-05 2.8143e-07
5.8529e-08 2.8143e-07 -2.96587e-05
0.00103525 -0.000154579 -3.11545e-06
-0.000154579 0.000283298 2.22682e-06
-3.11545e-06 2.22682e-06 0.000131347
0.000312448 -0.00012148 -1.8483e-06
-0.00012148 -0.000168176 -1.28489e-06
-1.8483e-06 -1.28489e-06 -0.000342502
0.000663733 3.53282e-05 3.42659e-07
3.53282e-05 3.36836e-05 9.0265e-07
3.42659e-07 9.0265e-07 -4.85322e-05
0.000716883 -2.30649e-05 8.07699e-07
-2.30649e-05 7.88596e-05 -8.82798e-08
8.07699e-07 -8.82798e-08 -2.45554e-05
0.000841348 -6.29823e-05 2.26057e-06
-6.29823e-05 0.00017244 -2.73496e-06
2.26057e-06 -2.73496e-06 4.61828e-05
0.000731221 -2.09469e-07 2.97932e-07
-2.09469e-07 8.25333e-05 -4.29164e-07
2.97932e-07 -4.29164e-07 -8.69707e-06
0.000726145 -8.223e-08 -5.41137e-07
-8.223e-08 6.47924e-05 -1.20559e-07
-5.41137e-07 -1.20559e-07 -1.06385e-05
0.000655791 3.66185e-05 -1.36166e-06
3.66185e-05 8.89515e-06 1.78221e-06
-1.36166e-06 1.78221e-06 -4.18982e-05
0.000765469 -3.15703e-05 7.51956e-07
-3.15703e-05 8.86659e-05 -7.42626e-07
7.51956e-07 -7.42626e-07 1.33965e-05
0.000673833 2.89688e-05 -3.52549e-07
2.89688e-05 1.40735e-05 -3.73352e-08
-3.52549e-07 -3.73352e-08 -3.39923e-05
0.000609556 4.26919e-05 -1.07185e-06
4.26919e-05 -2.7959e-05 3.81587e-06
-1.07185e-06 3.81587e-06 -4.43133e-05
0.000707204 5.77494e-06 1.83179e-06
5.77494e-06 2.80003e-05 -1.76478e-06
1.83179e-06 -1.76478e-06 -1.77135e-05
0.000613569 3.55038e-05 1.29304e-07
3.55038e-05 -3.22344e-05 2.36196e-08
1.29304e-07 2.36196e-08 -4.68106e-05
0.00219689 6.46306e-05 -4.45017e-06
6.46306e-05 0.000894252 1.78147e-06
-4.45017e-06 1.78147e-06 0.000906437
0.000593724 2.80778e-05 8.15501e-07
2.80778e-05 -4.81673e-05 -3.80429e-06
8.15501e-07 -3.80429e-06 -6.17407e-05
0.0015476 4.05175e-05 8.56492e-06
4.05175e-05 0.000510988 -1.1901e-06
8.56492e-06 -1.1901e-06 0.000521828
0.00230835 3.9065e-05 1.26365e-05
3.9065e-05 0.000948501 -4.6078e-06
1.26365e-05 -4.6078e-06 0.00096385
0.00049311 -7.10587e-06 -2.22915e-07
-7.10587e-06 -7.17699e-05 -1.9647e-06
-2.22915e-07 -1.9647e-06 -0.000155578
0.000383547 -5.73344e-06 -2.66291e-07
-5.73344e-06 -0.00015533 -3.14542e-06
-2.66291e-07 -3.14542e-06 -0.000205444
0.000656746 1.12819e-05 -4.25119e-07
1.12819e-05 3.12201e-05 -7.76311e-07
-4.25119e-07 -7.76311e-07 -5.34625e-05
0.000630475 -1.75019e-05 -1.21016e-07
-1.75019e-05 -3.3046e-05 -3.96489e-06
-1.21016e-07 -3.96489e-06 -4.34115e-05
0.000381547 -4.13992e-06 -2.43627e-07
-4.13992e-06 -0.00015542 -9.51949e-07
-2.43627e-07 -9.51949e-07 -0.000201399
0.000812641 1.7588e-05 -1.08714e-07
1.7588e-05 0.00012514 1.76656e-06
-1.08714e-07 1.76656e-06 4.53565e-05
0.00215975 -2.38236e-05 -9.45349e-06
-2.38236e-05 0.000856841 -4.77893e-06
-9.45349e-06 -4.77893e-06 0.00087523
0.000634592 -1.0897e-05 -1.40828e-07
-1.0897e-05 -3.24224e-05 -3.97033e-08
-1.40828e-07 -3.97033e-08 -4.03359e-05
0.000362885 -3.16823e-06 4.0895e-07
-3.16823e-06 -0.000165226 2.17564e-06
4.0895e-07 2.17564e-06 -0.000207345
0.00209481 -1.06757e-05 -3.31839e-06
-1.06757e-05 0.000817263 3.75209e-08
-3.31839e-06 3.75209e-08 0.000836908
0.00063957 -4.38034e-06 9.8668e-08
-4.38034e-06 -3.03452e-05 3.59732e-06
9.8668e-08 3.59732e-06 -3.67331e-05
0.00208701 2.15043e-06 5.57341e-07
2.15043e-06 0.00081263 4.74475e-06
5.57341e-07 4.74475e-06 0.000832459
0.00136267 9.2178e-06 -1.77166e-06
9.2178e-06 0.000561255 2.11109e-05
-1.77166e-06 2.11109e-05 0.000254447
0.00143308 -5.77664e-05 9.55037e-06
-5.77664e-05 0.000297338 -4.68221e-06
9.55037e-06 -4.68221e-06 -0.000720391
0.00179458 9.10791e-05 2.81384e-05
9.10791e-05 0.00255781 -3.16787e-05
2.81384e-05 -3.16787e-05 0.00184246
0.000816436 6.4532e-05 -1.27122e-07
6.4532e-05 0.000122787 2.78558e-07
-1.27122e-07 2.78558e-07 1.87072e-05
0.000675519 3.51664e-05 -9.29503e-08
3.51664e-05 2.78591e-05 8.23697e-08
-9.29503e-08 8.23697e-08 -6.74156e-05
0.000910505 8.92241e-05 -2.73523e-07
8.92241e-05 0.000172419 6.23128e-07
-2.73523e-07 6.23128e-07 6.27494e-05
0.0020422 -4.18786e-05 1.04235e-05
-4.18786e-05 0.000171097 0.000120532
1.04235e-05 0.000120532 -0.000815238
0.00297373 -0.000112214 -4.18431e-06
-0.000112214 0.0016293 8.31234e-07
-4.18431e-06 8.31234e-07 0.000672229
0.00341785 -0.000221848 4.36718e-05
-0.000221848 0.00122197 -9.03477e-05
4.36718e-05 -9.03477e-05 -0.000571336
0.00486237 -0.000647782 -4.44455e-05
-0.000647782 0.00086382 -2.3505e-07
-4.44455e-05 -2.3505e-07 0.000137263
0.00170898 -0.000440948 -8.03043e-05
-0.000440948 0.000150431 6.69933e-05
-8.03043e-05 6.69933e-05 -0.00226119
0.00780679 0.000929325 6.69501e-05
0.000929325 0.00242491 3.44238e-05
6.69501e-05 3.44238e-05 0.00219696
0.00169102 0.000198014 1.92906e-05
0.000198014 -0.00305253 -5.08707e-05
1.92906e-05 -5.08707e-05 -0.00184206
0.00547498 -0.00105067 -1.38239e-05
-0.00105067 0.00147331 4.48592e-06
-1.38239e-05 4.48592e-06 0.000704002
0.00661626 -0.000648627 3.75256e-06
-0.000648627 0.00296625 7.99178e-06
3.75256e-06 7.99178e-06 0.000136054
-0.00214804 0.000433407 -1.34916e-05
0.000433407 -0.000553593 -6.74058e-05
-1.34916e-05 -6.74058e-05 -0.00165822
0.00443573 -4.39198e-05 -1.3287e-05
-4.39198e-05 -0.00203644 2.89776e-05
-1.3287e-05 2.89776e-05 -6.47257e-05
0.00276966 -0.000751699 -3.62234e-05
-0.000751699 0.000357618 -1.48258e-05
-3.62234e-05 -1.48258e-05 -0.000313785
0.0108263 -0.000921796 2.79765e-06
-0.000921796 0.00505138 3.2845e-05
2.79765e-06 3.2845e-05 0.00164954
-0.00864933 -0.000105303 5.17324e-05
-0.000105303 -0.000956899 -0.00013702
5.17324e-05 -0.00013702 -0.00253655
0.00287771 -0.000517244 4.29537e-06
-0.000517244 -0.00198456 -2.66226e-05
4.29537e-06 -2.66226e-05 -0.000644586
0.000798779 3.73444e-05 -7.42138e-07
3.73444e-05 0.000110177 -4.65664e-07
-7.42138e-07 -4.65664e-07 -1.00481e-05
0.000754251 2.65554e-06 9.2364e-08
2.65554e-06 0.000106678 -5.68104e-07
9.2364e-08 -5.68104e-07 -2.3128e-05
0.0007469 -5.55812e-05 2.75091e-07
-5.55812e-05 0.000112994 3.18432e-07
2.75091e-07 3.18432e-07 -1.47403e-05
0.00077213 4.39825e-05 -4.76714e-07
4.39825e-05 9.3976e-05 -5.07088e-07
-4.76714e-07 -5.07088e-07 -1.72728e-05
0.000924504 0.000113884 1.24702e-06
0.000113884 0.000203072 1.54095e-06
1.24702e-06 1.54095e-06 8.2201e-05
0.00105134 0.000109979 -6.04165e-07
0.000109979 0.00027904 1.14839e-06
-6.04165e-07 1.14839e-06 0.00016481
0.000836235 -0.000380387 1.43194e-05
-0.000380387 -0.000271617 5.54787e-06
1.43194e-05 5.54787e-06 -0.000317077
-0.000539352 -7.76069e-05 1.28307e-05
-7.76069e-05 -0.000573425 -2.15791e-05
1.28307e-05 -2.15791e-05 -0.000580448
0.000965969 5.93943e-05 -1.05738e-06
5.93943e-05 0.000239725 3.38024e-07
-1.05738e-06 3.38024e-07 0.000101643
0.00113022 -0.000134608 1.59235e-05
-0.000134608 0.000335748 -2.94501e-05
1.59235e-05 -2.94501e-05 0.000157139
0.00125322 1.47835e-05 -2.01402e-06
1.47835e-05 0.000448033 1.63481e-06
-2.01402e-06 1.63481e-06 0.000260089
0.000725601 1.74249e-05 1.4265e-07
1.74249e-05 7.28188e-05 5.20228e-08
1.4265e-07 5.20228e-08 -4.80713e-05
0.000687345 8.54434e-05 2.1212e-07
8.54434e-05 9.52541e-05 7.32818e-08
2.1212e-07 7.32818e-08 -5.06614e-05
0.000242815 -0.00030448 -2.84685e-06
-0.00030448 -0.000498452 -2.94911e-06
-2.84685e-06 -2.94911e-06 -0.000481219
0.000890252 -2.42781e-05 3.95122e-06
-2.42781e-05 0.000263294 -2.2004e-06
3.95122e-06 -2.2004e-06 8.83425e-05
0.000406873 -4.6121e-05 2.20864e-05
-4.6121e-05 0.000205262 2.31331e-07
2.20864e-05 2.31331e-07 0.000103173
0.0012097 6.28876e-05 1.70952e-06
6.28876e-05 0.000352681 -2.36025e-06
1.70952e-06 -2.36025e-06 0.000235425
-0.00244174 0.000123399 -4.85663e-05
0.000123399 -0.00112114 -1.6349e-05
-4.85663e-05 -1.6349e-05 -0.00147305
0.000183082 1.46568e-05 7.23415e-06
1.46568e-05 4.05561e-05 3.1979e-05
7.23415e-06 3.1979e-05 -4.15901e-05
0.00129443 1.11643e-05 1.74071e-06
1.11643e-05 0.000498655 -7.45739e-08
1.74071e-06 -7.45739e-08 0.000351954
0.00129234 -2.58542e-05 3.4922e-06
-2.58542e-05 5.10767e-05 4.22115e-07
3.4922e-06 4.22115e-07 -0.000267442
0.00101454 -2.5255e-05 -1.36169e-05
-2.5255e-05 0.000353319 -5.02202e-06
-1.36169e-05 -5.02202e-06 1.94246e-05
0.00110203 -3.4627e-05 0.00013277
-3.4627e-05 0.000427572 -3.00193e-06
0.00013277 -3.00193e-06 -0.000561342
0.000908946 0.000172395 1.9941e-05
0.000172395 0.000465456 1.24636e-05
1.9941e-05 1.24636e-05 0.000332612
0.00214642 0.000384189 1.72521e-05
0.000384189 0.000776977 -1.36872e-05
1.72521e-05 -1.36872e-05 0.000570924
0.00108815 -4.7551e-05 -8.03922e-07
-4.7551e-05 0.000240893 7.93191e-06
-8.03922e-07 7.93191e-06 1.08634e-05
-0.00146779 0.00041099 1.71175e-05
0.00041099 -3.39123e-05 2.8648e-05
1.71175e-05 2.8648e-05 -0.0031591
-0.0103047 0.000145438 -5.41731e-05
0.000145438 -0.00372096 -0.000132949
-5.41731e-05 -0.000132949 -0.00531309
0.00257753 2.72226e-05 2.9666e-05
2.72226e-05 0.000841566 5.89071e-05
2.9666e-05 5.89071e-05 0.000174106
0.00192656 0.000324399 -2.64387e-05
0.000324399 -0.00297043 5.11185e-05
-2.64387e-05 5.11185e-05 -0.00179577
0.000435911 0.000133534 4.8902e-06
0.000133534 0.000309253 -1.09982e-06
4.8902e-06 -1.09982e-06 0.000134236
0.00154201 -3.48955e-06 7.8671e-06
-3.48955e-06 3.03132e-05 -1.4881e-05
7.8671e-06 -1.4881e-05 -4.78511e-05
0.00305454 -8.12933e-05 3.07475e-06
-8.12933e-05 0.00158298 -1.07316e-06
3.07475e-06 -1.07316e-06 0.000652594
0.0013731 0.000208612 2.81838e-06
0.000208612 0.000164894 -4.31475e-06
2.81838e-06 -4.31475e-06 -0.000186934
0.00232116 0.000894147 4.35389e-05
0.000894147 -0.00163642 -9.91405e-05
4.35389e-05 -9.91405e-05 -0.000690496
-0.00194043 0.000416301 1.17271e-05
0.000416301 -0.00123616 6.58879e-05
1.17271e-05 6.58879e-05 -0.0018476
0.00680355 2.29828e-06 6.07545e-05
2.29828e-06 0.0046312 -2.09322e-05
6.07545e-05 -2.09322e-05 0.000263443
0.00155257 -6.36151e-06 2.693e-05
-6.36151e-06 0.00115454 -1.41464e-05
2.693e-05 -1.41464e-05 0.000853997
0.00134557 3.09836e-05 3.194e-06
3.09836e-05 0.000504405 -1.68638e-05
3.194e-06 -1.68638e-05 0.000199497
0.00300291 -0.000129827 0.000141737
-0.000129827 0.000676846 -0.000119134
0.000141737 -0.000119134 -0.000805115
0.00335 0.00122011 -8.64578e-06
0.00122011 0.00203211 -1.21901e-05
-8.64578e-06 -1.21901e-05 0.00301916
-0.00537652 0.000508642 4.32442e-05
0.000508642 -0.00468946 0.000190678
4.32442e-05 0.000190678 -0.00448844
0.0118058 -0.000761569 7.97673e-05
-0.000761569 0.00493451 -8.01856e-05
7.97673e-05 -8.01856e-05 0.00170667
0.00437266 -0.000386679 -9.00338e-05
-0.000386679 0.00134067 0.000106569
-9.00338e-05 0.000106569 0.00126521
0.000848771 0.000101849 6.44635e-06
0.000101849 0.000442046 4.58857e-06
6.44635e-06 4.58857e-06 0.000337181
4.38652e-05 -1.17778e-05 -7.49211e-06
-1.17778e-05 0.000100319 1.81936e-06
-7.49211e-06 1.81936e-06 -1.74595e-05
0.000717682 -0.000214832 9.53371e-06
-0.000214832 0.000500467 -1.427e-05
9.53371e-06 -1.427e-05 0.000259158
0.000869935 -5.60336e-05 1.12056e-06
-5.60336e-05 0.000199673 2.48921e-06
1.12056e-06 2.48921e-06 0.000116339
-0.000549813 -1.87159e-05 5.51485e-06
-1.87159e-05 -0.000447191 1.36072e-05
5.51485e-06 1.36072e-05 -0.000523867
0.000193026 -0.000125926 -1.75458e-06
-0.000125926 2.19798e-05 -3.01061e-09
-1.75458e-06 -3.01061e-09 -0.00012806
0.00119618 -0.000224208 2.2896e-05
-0.000224208 0.000515925 -1.47278e-05
2.2896e-05 -1.47278e-05 0.000250854
0.00191355 -0.000140662 -3.55944e-06
-0.000140662 0.000738473 3.11176e-06
-3.55944e-06 3.11176e-06 0.00063287
0.0015299 -0.000242181 1.57825e-06
-0.000242181 0.000570704 2.22543e-07
1.57825e-06 2.22543e-07 0.000358226
0.00110277 -0.000243502 8.53135e-06
-0.000243502 0.000346292 2.42475e-06
8.53135e-06 2.42475e-06 6.59429e-06
3.94234e-05 -9.23597e-05 -1.84977e-06
-9.23597e-05 -0.000316456 -7.11871e-07
-1.84977e-06 -7.11871e-07 -0.000447016
0.00112698 -0.000222439 -3.81e-07
-0.000222439 0.00024009 1.37895e-06
-3.81e-07 1.37895e-06 1.76041e-05
0.00269156 -0.000396584 2.982e-06
-0.000396584 0.000984223 3.01074e-06
2.982e-06 3.01074e-06 0.000695385
0.00188598 -0.000334994 -2.80436e-06
-0.000334994 0.000421687 2.59012e-06
-2.80436e-06 2.59012e-06 0.000164746
0.000492536 -0.000179071 1.21008e-06
-0.000179071 -0.000206411 6.74942e-06
1.21008e-06 6.74942e-06 -0.000400987
0.00127474 -0.000253381 -3.23967e-06
-0.000253381 0.000207802 2.04002e-06
-3.23967e-06 2.04002e-06 -1.94177e-05
0.000928249 -0.000200139 -5.06127e-06
-0.000200139 0.000127172 1.4315e-06
-5.06127e-06 1.4315e-06 -7.20594e-05
0.0016643 -0.000244554 4.81082e-06
-0.000244554 0.000562087 -3.2256e-06
4.81082e-06 -3.2256e-06 0.000380729
0.00125677 -0.000218404 2.73683e-06
-0.000218404 0.000303646 -2.30275e-06
2.73683e-06 -2.30275e-06 0.000131777
0.000298549 -4.55057e-05 1.93829e-06
-4.55057e-05 -0.000147959 8.44495e-07
1.93829e-06 8.44495e-07 -0.000292328
0.00070089 -0.00014127 1.39118e-06
-0.00014127 8.44474e-05 -5.01863e-07
1.39118e-06 -5.01863e-07 -8.65822e-05
0.001131 -0.000196985 5.48144e-06
-0.000196985 0.000264936 -3.72135e-06
5.48144e-06 -3.72135e-06 8.19858e-05
0.000668745 4.38904e-05 1.15867e-06
4.38904e-05 4.55884e-05 1.3439e-06
1.15867e-06 1.3439e-06 -5.21276e-05
0.000889693 -6.32095e-05 -4.33661e-07
-6.32095e-05 0.000186714 -4.57622e-08
-4.33661e-07 -4.57622e-08 6.52372e-05
0.0010467 -0.000159577 -7.08099e-07
-0.000159577 0.000289143 -3.82135e-07
-7.08099e-07 -3.82135e-07 0.000135966
0.000642724 3.82028e-05 -1.17044e-06
3.82028e-05 6.98289e-06 1.85674e-06
-1.17044e-06 1.85674e-06 -4.81953e-05
0.000736813 6.68341e-06 -6.90137e-07
6.68341e-06 7.34305e-05 -2.86015e-07
-6.90137e-07 -2.86015e-07 -9.21671e-06
0.000579815 -1.13345e-05 1.66691e-07
-1.13345e-05 5.50241e-06 -6.10532e-07
1.66691e-07 -6.10532e-07 -9.98329e-05
0.000775621 -2.10222e-05 7.03691e-07
-2.10222e-05 9.42406e-05 -9.96124e-07
7.03691e-07 -9.96124e-07 1.69525e-05
0.000678093 2.48046e-05 -2.66048e-07
2.48046e-05 1.99352e-05 -6.79302e-08
-2.66048e-07 -6.79302e-08 -3.00718e-05
0.00059333 5.02728e-05 -9.9079e-07
5.02728e-05 -2.86581e-05 3.99527e-06
-9.9079e-07 3.99527e-06 -4.77991e-05
0.000693298 1.52156e-05 1.83248e-06
1.52156e-05 2.32061e-05 -1.74584e-06
1.83248e-06 -1.74584e-06 -2.38568e-05
0.00060977 4.37898e-05 1.82471e-08
4.37898e-05 -2.76956e-05 -3.49393e-10
1.82471e-08 -3.49393e-10 -4.41717e-05
0.00223801 7.05731e-05 -2.34729e-05
7.05731e-05 0.000925316 3.76686e-06
-2.34729e-05 3.76686e-06 0.000936258
0.000602213 3.62081e-05 8.86092e-07
3.62081e-05 -3.88176e-05 -3.79719e-06
8.86092e-07 -3.79719e-06 -5.34137e-05
0.00153091 5.03916e-05 1.01395e-05
5.03916e-05 0.00050808 -1.04062e-06
1.01395e-05 -1.04062e-06 0.000517341
0.00229778 5.09322e-05 1.65109e-05
5.09322e-05 0.000947697 -4.29825e-06
1.65109e-05 -4.29825e-06 0.000961742
0.000722788 4.86168e-05 -6.30159e-07
4.86168e-05 5.93061e-05 -9.42174e-07
-6.30159e-07 -9.42174e-07 -2.63368e-05
0.000670868 7.684e-06 -7.59102e-07
7.684e-06 7.99775e-06 -2.38076e-06
-7.59102e-07 -2.38076e-06 -4.3397e-05
0.000609012 3.04796e-05 -9.78722e-07
3.04796e-05 2.20594e-06 -7.42928e-07
-9.78722e-07 -7.42928e-07 -8.64019e-05
0.00061949 -2.44027e-05 3.25658e-08
-2.44027e-05 -3.62958e-05 -4.20227e-06
3.25658e-08 -4.20227e-06 -4.96069e-05
0.000514493 3.476e-06 -9.30259e-07
3.476e-06 -8.02499e-05 -9.36697e-07
-9.30259e-07 -9.36697e-07 -0.000129238
0.00082806 2.73952e-05 3.511e-07
2.73952e-05 0.000129839 6.89805e-07
3.511e-07 6.89805e-07 4.58789e-05
0.00223802 -3.60626e-05 -1.39512e-05
-3.60626e-05 0.000905137 -4.69947e-06
-1.39512e-05 -4.69947e-06 0.00092187
0.000627806 -1.72264e-05 -2.29533e-07
-1.72264e-05 -3.45881e-05 -3.45911e-08
-2.29533e-07 -3.45911e-08 -4.48367e-05
0.000347424 -4.42745e-06 -3.79765e-07
-4.42745e-06 -0.000174801 1.42438e-06
-3.79765e-07 1.42438e-06 -0.000221372
0.0021515 -2.26776e-05 -3.30877e-06
-2.26776e-05 0.00085167 7.60424e-08
-3.30877e-06 7.60424e-08 0.000870293
0.000634465 -1.08446e-05 9.88609e-08
-1.08446e-05 -3.23761e-05 3.70827e-06
9.88609e-08 3.70827e-06 -4.02337e-05
0.00209718 -9.48656e-06 5.12045e-06
-9.48656e-06 0.000818438 4.76185e-06
5.12045e-06 4.76185e-06 0.000838141
0.00158835 -2.03414e-05 1.64676e-06
-2.03414e-05 7.99967e-05 2.77462e-05
1.64676e-06 2.77462e-05 -7.59148e-05
0.00127189 4.36533e-06 -4.52289e-06
4.36533e-06 0.000446368 -8.46657e-07
-4.52289e-06 -8.46657e-07 0.000150489
0.0017031 -5.12712e-05 9.00988e-05
-5.12712e-05 0.000504866 -2.78926e-05
9.00988e-05 -2.78926e-05 -0.000517391
0.000646923 -4.26589e-06 -2.88157e-07
-4.26589e-06 4.00292e-06 -4.9437e-07
-2.88157e-07 -4.9437e-07 -8.38394e-05
0.000877698 2.0846e-05 -1.18731e-06
2.0846e-05 0.000144226 -5.97714e-07
-1.18731e-06 -5.97714e-07 4.67038e-05
0.000823874 6.29716e-05 1.38672e-06
6.29716e-05 0.000124505 7.54642e-07
1.38672e-06 7.54642e-07 2.46108e-05
0.000682067 1.96464e-05 1.89111e-07
1.96464e-05 2.6099e-05 1.62843e-07
1.89111e-07 1.62843e-07 -6.48163e-05
0.000791695 4.33838e-05 3.62848e-08
4.33838e-05 0.000103111 1.99807e-07
3.62848e-08 1.99807e-07 -4.26575e-06
0.000785128 2.73434e-05 -1.09385e-06
2.73434e-05 9.23153e-05 7.12791e-08
-1.09385e-06 7.12791e-08 -5.96688e-06
0.000954405 0.000157533 5.32173e-07
0.000157533 0.00021157 2.4179e-07
5.32173e-07 2.4179e-07 8.48643e-05
0.000518939 2.75209e-05 3.15869e-05
2.75209e-05 0.000200602 0.000114936
3.15869e-05 0.000114936 -0.00101676
0.00232697 -2.54623e-05 -5.86952e-06
-2.54623e-05 0.000575942 4.14452e-05
-5.86952e-06 4.14452e-05 -0.000241346
0.00268881 -8.62807e-05 6.65044e-06
-8.62807e-05 0.00151184 -6.17541e-05
6.65044e-06 -6.17541e-05 0.000481231
0.00324843 -0.000131624 -2.39492e-05
-0.000131624 -0.00339224 3.49647e-05
-2.39492e-05 3.49647e-05 -0.0010031
0.00378141 -0.000900072 -4.24511e-05
-0.000900072 0.00122392 5.43879e-05
-4.24511e-05 5.43879e-05 0.000255929
-0.00181958 -0.000882648 2.55987e-05
-0.000882648 -0.000722774 5.00058e-05
2.55987e-05 5.00058e-05 -0.0039487
0.00639402 0.00106629 5.16621e-05
0.00106629 0.00373796 -2.19759e-05
5.16621e-05 -2.19759e-05 0.00215577
0.00407565 -0.000864672 -1.90164e-05
-0.000864672 0.000971346 5.35548e-06
-1.90164e-05 5.35548e-06 0.000201744
0.000454737 -0.000408072 3.93086e-05
-0.000408072 0.000918825 4.00056e-06
3.93086e-05 4.00056e-06 -0.00257108
0.00422235 -8.16538e-05 -1.68118e-05
-8.16538e-05 0.00225019 -4.46151e-06
-1.68118e-05 -4.46151e-06 0.00146349
0.00737607 -0.000730287 -2.44265e-05
-0.000730287 0.000875204 -3.0882e-05
-2.44265e-05 -3.0882e-05 0.00216999
0.00124854 1.53592e-05 -7.25428e-05
1.53592e-05 -0.000546642 5.14587e-05
-7.25428e-05 5.14587e-05 -0.000451085
0.000723364 0.000638522 1.92652e-07
0.000638522 0.000841794 -9.13271e-05
1.92652e-07 -9.13271e-05 -0.00246558
-0.00685081 -0.00105931 5.43428e-05
-0.00105931 -0.0042189 -8.65685e-05
5.43428e-05 -8.65685e-05 -0.00567845
0.00266252 -0.000699235 1.19554e-05
-0.000699235 -0.00154236 -0.000148036
1.19554e-05 -0.000148036 -3.15651e-05
0.000731384 6.68007e-07 -1.80616e-06
6.68007e-07 6.98004e-05 5.88391e-08
-1.80616e-06 5.88391e-08 -3.11491e-05
0.000724219 3.8024e-05 2.59646e-07
3.8024e-05 6.9878e-05 1.57539e-07
2.59646e-07 1.57539e-07 -5.09164e-05
0.000723346 1.31699e-05 -2.68816e-07
1.31699e-05 9.58084e-05 3.42638e-08
-2.68816e-07 3.42638e-08 -3.80633e-05
0.000817308 4.00039e-05 1.55451e-07
4.00039e-05 0.000129649 -6.50761e-07
1.55451e-07 -6.50761e-07 1.09376e-05
0.000495934 -0.000341485 7.87782e-07
-0.000341485 -0.000422588 1.82182e-05
7.87782e-07 1.82182e-05 -0.00047591
0.00101229 -3.86662e-05 -6.47384e-06
-3.86662e-05 0.000541694 -2.63398e-05
-6.47384e-06 -2.63398e-05 0.000456776
0.000563845 1.22819e-05 -8.56045e-07
1.22819e-05 -2.84812e-05 8.08397e-07
-8.56045e-07 8.08397e-07 -0.000145475
0.000742264 8.67241e-05 -1.57862e-06
8.67241e-05 0.000130431 2.72489e-06
-1.57862e-06 2.72489e-06 -1.54967e-05
0.00162603 -4.75465e-05 5.97567e-06
-4.75465e-05 0.000682565 -2.28615e-05
5.97567e-06 -2.28615e-05 0.000505486
0.000742142 3.7867e-05 -3.94363e-07
3.7867e-05 8.98809e-05 5.06764e-07
-3.94363e-07 5.06764e-07 -2.49582e-05
0.000919504 4.61129e-05 -1.45655e-06
4.61129e-05 0.000299342 -2.2599e-06
-1.45655e-06 -2.2599e-06 0.000144312
-0.000261026 2.56726e-05 1.37384e-05
2.56726e-05 -8.32199e-05 -1.20981e-05
1.37384e-05 -1.20981e-05 -0.000505363
0.000840998 -2.01085e-05 2.64732e-05
-2.01085e-05 0.000418066 -1.03065e-07
2.64732e-05 -1.03065e-07 0.000358904
0.000326868 7.65455e-05 -1.08003e-06
7.65455e-05 -5.6232e-05 -6.95197e-07
-1.08003e-06 -6.95197e-07 -0.000168302
0.000237974 -3.91681e-05 -2.45617e-05
-3.91681e-05 0.000678878 -4.02602e-05
-2.45617e-05 -4.02602e-05 -0.000416759
0.00305543 6.45665e-05 1.1214e-05
6.45665e-05 0.0015783 2.00033e-05
1.1214e-05 2.00033e-05 0.0014346
0.00116365 -1.7004e-05 1.09669e-05
-1.7004e-05 0.000460928 4.11083e-06
1.09669e-05 4.11083e-06 6.93362e-05
0.00133384 -2.48947e-05 7.86121e-08
-2.48947e-05 0.000150824 5.36255e-07
7.86121e-08 5.36255e-07 -8.80176e-05
0.000697986 -2.37642e-05 -8.61209e-06
-2.37642e-05 0.000180929 -6.31393e-06
-8.61209e-06 -6.31393e-06 -0.000132615
0.000170329 0.000105469 1.63966e-05
0.000105469 0.000183878 6.75662e-06
1.63966e-05 6.75662e-06 2.74923e-05
-2.55917e-05 0.000190954 3.85736e-06
0.000190954 -0.000551382 3.0864e-05
3.85736e-06 3.0864e-05 -0.000643349
0.00141146 -1.74596e-05 8.34019e-06
-1.74596e-05 -4.37019e-05 3.03247e-06
8.34019e-06 3.03247e-06 -5.84366e-05
0.00374782 -0.000709392 0.000136257
-0.000709392 0.00325258 -0.000126089
0.000136257 -0.000126089 -0.000890282
0.00677377 0.00110591 -5.10324e-05
0.00110591 0.00328652 2.99695e-05
-5.10324e-05 2.99695e-05 0.00202495
0.00279286 -6.24848e-05 -1.21447e-05
-6.24848e-05 0.00147842 6.13347e-05
-1.21447e-05 6.13347e-05 0.000459894
0.00413387 0.000960192 -1.32945e-05
0.000960192 -0.000382246 -2.43171e-05
-1.32945e-05 -2.43171e-05 0.000422694
-0.000400806 6.77181e-05 1.72396e-05
6.77181e-05 0.000174681 5.15834e-06
1.72396e-05 5.15834e-06 -0.000221233
0.00134472 2.00842e-05 4.38658e-06
2.00842e-05 0.00046036 7.20535e-07
4.38658e-06 7.20535e-07 0.000183704
0.00311107 -0.000168959 4.84058e-05
-0.000168959 0.000844627 -4.27109e-06
4.84058e-05 -4.27109e-06 -0.000790349
0.000586173 -0.000106681 1.6407e-06
-0.000106681 -0.000680776 2.4437e-05
1.6407e-06 2.4437e-05 -0.000523751
-0.00170649 0.00130057 6.76594e-05
0.00130057 -0.000795309 -2.6463e-05
6.76594e-05 -2.6463e-05 0.000679924
0.00549525 0.000690093 -3.13077e-05
0.000690093 0.000169179 6.77616e-05
-3.13077e-05 6.77616e-05 0.000332494
-0.00213415 -0.00070205 5.75448e-05
-0.00070205 -0.00010892 -5.03582e-05
5.75448e-05 -5.03582e-05 -0.00423993
0.000639508 -2.70294e-05 3.59279e-05
-2.70294e-05 0.000277283 -9.324e-06
3.59279e-05 -9.324e-06 0.000137578
0.00101417 -6.30807e-05 5.74219e-05
-6.30807e-05 -4.31225e-05 -2.49376e-05
5.74219e-05 -2.49376e-05 -0.00102604
-0.00185692 0.000188303 -0.000147389
0.000188303 0.000711263 -1.77316e-05
-0.000147389 -1.77316e-05 -0.000180469
0.00119378 0.00114408 -9.74708e-05
0.00114408 -0.000284716 0.000152374
-9.74708e-05 0.000152374 0.000214236
0.00787943 -0.000371626 2.25663e-05
-0.000371626 0.00361948 -2.2678e-05
2.25663e-05 -2.2678e-05 0.000664679
0.00336761 -0.000353568 -6.82847e-05
-0.000353568 0.000736118 6.66622e-05
-6.82847e-05 6.66622e-05 0.000412939
-0.00163818 4.32833e-06 -2.86527e-07
4.32833e-06 -0.000801193 1.25556e-05
-2.86527e-07 1.25556e-05 -0.000962648
5.52567e-05 -0.000151111 -1.40627e-06
-0.000151111 0.000161086 -5.61912e-08
-1.40627e-06 -5.61912e-08 -7.2607e-05
0.00075251 -0.000225075 2.11793e-05
-0.000225075 0.000249075 -8.07227e-06
2.11793e-05 -8.07227e-06 0.000105277
-0.000682796 -8.6228e-05 -3.58298e-06
-8.6228e-05 -0.000452492 5.70656e-06
-3.58298e-06 5.70656e-06 -0.000589492
-0.000470683 -0.000114817 8.41573e-07
-0.000114817 -0.000346121 -3.52029e-06
8.41573e-07 -3.52029e-06 -0.000615603
0.00246628 -0.000406859 2.54483e-05
-0.000406859 0.000845888 -5.60117e-06
2.54483e-05 -5.60117e-06 0.000590191
0.00295808 -0.00038055 -5.96134e-06
-0.00038055 0.001307 1.98237e-06
-5.96134e-06 1.98237e-06 0.00108424
0.00177554 -0.000293861 3.12466e-06
-0.000293861 0.000669768 8.05882e-07
3.12466e-06 8.05882e-07 0.00034563
0.000919589 -0.000282677 7.41157e-06
-0.000282677 1.5277e-05 -4.01749e-06
7.41157e-06 -4.01749e-06 -0.000300451
0.00131456 -0.000236611 -5.17702e-06
-0.000236611 0.000324436 1.00349e-06
-5.17702e-06 1.00349e-06 9.47335e-05
0.00223721 -0.000361556 2.44401e-06
-0.000361556 0.000724413 6.54742e-08
2.44401e-06 6.54742e-08 0.000436666
0.00206146 -0.000366835 2.63561e-06
-0.000366835 0.000506931 -5.00997e-06
2.63561e-06 -5.00997e-06 0.000223931
0.00174251 -0.000312078 4.42562e-07
-0.000312078 0.000260674 -3.60325e-06
4.42562e-07 -3.60325e-06 4.03593e-05
0.00257845 -0.000378114 -6.15479e-06
-0.000378114 0.000816746 6.34049e-06
-6.15479e-06 6.34049e-06 0.000568108
0.00188795 -0.000337276 -1.41961e-06
-0.000337276 0.000417288 -3.22834e-07
-1.41961e-06 -3.22834e-07 0.000155607
0.000326494 -0.00015468 5.1956e-06
-0.00015468 -0.00027639 1.2334e-07
5.1956e-06 1.2334e-07 -0.000450623
0.000950684 -0.000212705 2.66959e-06
-0.000212705 5.35399e-05 -4.12053e-07
2.66959e-06 -4.12053e-07 -0.000138691
0.00143694 -0.00026709 -1.82323e-06
-0.00026709 0.000303698 -1.66628e-06
-1.82323e-06 -1.66628e-06 7.25285e-05
0.0011211 -0.000188654 1.97301e-06
-0.000188654 0.000279176 -5.18489e-08
1.97301e-06 -5.18489e-08 0.00010055
0.00127548 -0.000210609 -1.98325e-06
-0.000210609 0.000339698 -1.48525e-06
-1.98325e-06 -1.48525e-06 0.000163222
0.000699704 -0.000169812 4.03969e-06
-0.000169812 -5.00656e-06 -2.07247e-06
4.03969e-06 -2.07247e-06 -0.000162062
0.00075799 -2.31398e-05 2.02222e-06
-2.31398e-05 0.000106285 1.44827e-06
2.02222e-06 1.44827e-06 -1.84247e-05
0.000589583 -7.37533e-05 1.10181e-07
-7.37533e-05 2.22589e-05 7.85833e-07
1.10181e-07 7.85833e-07 -0.000125289
0.00124623 -0.000188737 2.20293e-06
-0.000188737 0.000396256 -2.01826e-06
2.20293e-06 -2.01826e-06 0.000220323
0.000588559 5.26946e-05 -5.22145e-08
5.26946e-05 -1.18755e-05 2.39365e-06
-5.22145e-08 2.39365e-06 -7.9054e-05
0.000738793 1.23551e-06 -4.4301e-07
1.23551e-06 8.70173e-05 -4.01758e-07
-4.4301e-07 -4.01758e-07 -1.50506e-05
0.00102644 -8.5942e-05 -6.10622e-07
-8.5942e-05 0.000268786 -6.45253e-07
-6.10622e-07 -6.45253e-07 0.000141511
0.000566863 5.75511e-05 -1.69059e-06
5.75511e-05 -3.40502e-05 5.57274e-06
-1.69059e-06 5.57274e-06 -5.64906e-05
0.000665651 3.52353e-05 -2.84897e-07
3.52353e-05 1.91416e-05 -2.05914e-07
-2.84897e-07 -2.05914e-07 -3.59553e-05
0.000806173 -1.58628e-05 -8.74182e-09
-1.58628e-05 0.000113684 -1.26963e-06
-8.74182e-09 -1.26963e-06 2.89542e-05
0.000687221 2.31859e-05 1.4618e-06
2.31859e-05 2.44141e-05 -1.88134e-06
1.4618e-06 -1.88134e-06 -2.54322e-05
0.000599455 5.18869e-05 3.1372e-08
5.18869e-05 -2.45077e-05 -3.62604e-09
3.1372e-08 -3.62604e-09 -4.39632e-05
0.00226015 8.21644e-05 -2.6416e-05
8.21644e-05 0.000946397 3.40114e-06
-2.6416e-05 3.40114e-06 0.000954752
0.000609128 4.50072e-05 7.42023e-07
4.50072e-05 -2.79295e-05 -3.87992e-06
7.42023e-07 -3.87992e-06 -4.45461e-05
0.00226031 7.23107e-05 2.22756e-06
7.23107e-05 0.00093909 1.70439e-07
2.22756e-06 1.70439e-07 0.000949682
0.00226982 6.22172e-05 1.9882e-05
6.22172e-05 0.000937926 -3.93253e-06
1.9882e-05 -3.93253e-06 0.000950412
0.000756183 3.14079e-05 -4.93556e-07
3.14079e-05 8.63005e-05 -7.58676e-07
-4.93556e-07 -7.58676e-07 -1.50685e-05
0.000780247 6.3298e-05 -7.13085e-07
6.3298e-05 0.00010041 -1.31478e-06
-7.13085e-07 -1.31478e-06 5.84507e-06
0.000673796 -6.30983e-07 -9.37848e-07
-6.30983e-07 8.7159e-06 -2.41079e-06
-9.37848e-07 -2.41079e-06 -4.61069e-05
0.000745695 5.73383e-05 -9.69998e-08
5.73383e-05 7.2366e-05 1.73577e-08
-9.69998e-08 1.73577e-08 -1.3487e-05
0.000605323 -3.15964e-05 -5.51153e-08
-3.15964e-05 -3.95574e-05 -4.46258e-06
-5.51153e-08 -4.46258e-06 -5.6354e-05
0.000674714 7.06406e-06 -1.17541e-07
7.06406e-06 1.05599e-05 -5.32762e-08
-1.17541e-07 -5.32762e-08 -4.08404e-05
0.000710787 3.37002e-05 -6.36688e-07
3.37002e-05 5.06888e-05 7.43427e-07
-6.36688e-07 7.43427e-07 -3.05171e-05
0.00232461 -4.8588e-05 -1.83519e-05
-4.8588e-05 0.000959438 -4.59528e-06
-1.83519e-05 -4.59528e-06 0.000974074
0.000620882 -2.39523e-05 -1.87878e-07
-2.39523e-05 -3.54569e-05 -4.21798e-08
-1.87878e-07 -4.21798e-08 -4.86585e-05
0.000653226 1.08505e-05 -4.38632e-07
1.08505e-05 -8.38412e-07 1.51417e-06
-4.38632e-07 1.51417e-06 -4.86955e-05
0.00222057 -3.49025e-05 -3.44543e-06
-3.49025e-05 0.000894497 1.18046e-07
-3.44543e-06 1.18046e-07 0.000911547
0.000627793 -1.69898e-05 2.75658e-08
-1.69898e-05 -3.45676e-05 3.86335e-06
2.75658e-08 3.86335e-06 -4.47134e-05
0.00213389 -2.14464e-05 9.38353e-06
-2.14464e-05 0.00084107 4.70952e-06
9.38353e-06 4.70952e-06 0.00085995
0.000880939 -6.35787e-05 4.37585e-06
-6.35787e-05 0.000138121 2.49678e-05
4.37585e-06 2.49678e-05 -0.000143732
0.00152899 -3.50316e-05 -8.97566e-06
-3.50316e-05 2.93613e-05 1.56789e-05
-8.97566e-06 1.56789e-05 -5.01005e-05
0.00135595 -5.77811e-06 -1.91046e-06
-5.77811e-06 0.000365812 -1.70788e-05
-1.91046e-06 -1.70788e-05 0.000152424
0.000752554 3.14464e-05 -1.53803e-07
3.14464e-05 7.66092e-05 -4.39527e-08
-1.53803e-07 -4.39527e-08 -2.04952e-05
0.00074315 7.56699e-06 9.12629e-08
7.56699e-06 6.76945e-05 1.38701e-07
9.12629e-08 1.38701e-07 -2.85814e-05
0.000661065 1.03766e-05 -2.02761e-06
1.03766e-05 2.22484e-05 -1.88992e-06
-2.02761e-06 -1.88992e-06 -7.56733e-05
0.00058296 -1.13936e-05 -8.83692e-07
-1.13936e-05 -2.37676e-05 -8.65741e-07
-8.83692e-07 -8.65741e-07 -0.000118857
0.00100284 9.04033e-05 -1.56873e-06
9.04033e-05 0.000230057 -7.08304e-07
-1.56873e-06 -7.08304e-07 0.000116666
0.000706462 9.34459e-07 1.0595e-07
9.34459e-07 3.64918e-05 1.53871e-07
1.0595e-07 1.53871e-07 -5.15951e-05
0.000708262 2.2904e-05 9.71827e-07
2.2904e-05 4.77056e-05 -2.61813e-07
9.71827e-07 -2.61813e-07 -5.3622e-05
0.00077707 3.74316e-05 -1.04153e-07
3.74316e-05 9.11278e-05 -4.74813e-08
-1.04153e-07 -4.74813e-08 -9.85421e-06
0.000883799 7.05704e-05 3.71352e-07
7.05704e-05 0.000152017 3.56546e-07
3.71352e-07 3.56546e-07 4.1232e-05
0.000946053 4.20139e-05 -1.00172e-06
4.20139e-05 0.000201926 -2.14692e-07
-1.00172e-06 -2.14692e-07 9.43768e-05
0.00210014 7.10159e-05 9.92585e-05
7.10159e-05 0.000816148 0.000148707
9.92585e-05 0.000148707 -0.000848723
0.000964721 5.8295e-05 9.5826e-06
5.8295e-05 0.000253375 3.76012e-05
9.5826e-06 3.76012e-05 -0.000998662
0.00264416 -9.95419e-06 -1.47405e-05
-9.95419e-06 0.000980745 -1.70162e-05
-1.47405e-05 -1.70162e-05 0.000360313
0.00717462 -0.000646357 -5.18195e-05
-0.000646357 0.000938596 -6.34811e-05
-5.18195e-05 -6.34811e-05 0.00228282
-0.0104265 0.000421514 -4.83316e-05
0.000421514 -0.0035642 0.000163815
-4.83316e-05 0.000163815 -0.00525124
0.00509235 -0.000860022 -9.34889e-05
-0.000860022 0.00170949 5.06934e-05
-9.34889e-05 5.06934e-05 0.000952046
0.00931435 -0.000485515 -3.70492e-05
-0.000485515 0.00369738 -2.80718e-05
-3.70492e-05 -2.80718e-05 0.000844196
0.00278333 -0.000132431 -2.93279e-05
-0.000132431 0.000316831 5.0471e-05
-2.93279e-05 5.0471e-05 -2.20241e-05
0.0109382 -0.000179213 3.75477e-05
-0.000179213 0.00507607 -1.61831e-05
3.75477e-05 -1.61831e-05 0.00164756
0.00142191 -0.000604533 3.92441e-05
-0.000604533 -0.000137317 3.65419e-05
3.92441e-05 3.65419e-05 -0.000971561
0.00217435 -0.000831821 -8.31968e-05
-0.000831821 -0.00194785 -0.000181865
-8.31968e-05 -0.000181865 -0.000450053
0.00358727 0.000153043 -8.32289e-05
0.000153043 0.000568873 9.57748e-06
-8.32289e-05 9.57748e-06 0.000130602
0.00892186 0.000444465 -4.05439e-06
0.000444465 0.00388585 2.60544e-05
-4.05439e-06 2.60544e-05 0.00123113
0.00931028 -0.00135269 -4.04677e-06
-0.00135269 0.00285025 -0.000134806
-4.04677e-06 -0.000134806 0.00291753
0.0049634 -0.00128684 4.09056e-05
-0.00128684 0.000734222 4.06545e-06
4.09056e-05 4.06545e-06 0.00231306
0.000352415 4.12199e-05 -1.1778e-07
4.12199e-05 -8.03931e-05 5.69544e-07
-1.1778e-07 5.69544e-07 -0.000164399
0.000940914 -1.88594e-06 -3.53898e-08
-1.88594e-06 0.000196287 9.00357e-07
-3.53898e-08 9.00357e-07 9.14273e-05
0.000740533 3.57019e-05 2.48735e-07
3.57019e-05 7.90079e-05 5.38826e-07
2.48735e-07 5.38826e-07 -4.05437e-05
0.000782646 2.07284e-05 -3.85587e-05
2.07284e-05 0.000414413 1.48478e-05
-3.85587e-05 1.48478e-05 -0.000101538
0.000987024 -5.57347e-05 -6.60455e-05
-5.57347e-05 0.000527793 -2.54131e-05
-6.60455e-05 -2.54131e-05 0.000484085
0.000602669 -6.7567e-06 -3.25664e-07
-6.7567e-06 1.30611e-05 2.13677e-06
-3.25664e-07 2.13677e-06 -0.000102122
-0.000348694 3.7022e-05 1.70229e-07
3.7022e-05 -0.000396511 -3.0418e-06
1.70229e-07 -3.0418e-06 -0.000559114
0.000676574 7.19534e-05 -2.18351e-07
7.19534e-05 0.000149496 -2.52182e-06
-2.18351e-07 -2.52182e-06 2.7397e-05
0.000530755 5.64249e-05 -4.10288e-06
5.64249e-05 0.000229587 4.65251e-06
-4.10288e-06 4.65251e-06 7.65352e-05
-9.93103e-05 -5.12896e-06 8.29319e-05
-5.12896e-06 0.000625876 -3.68908e-05
8.29319e-05 -3.68908e-05 -0.000461042
-0.00207708 -1.1102e-05 -2.03648e-05
-1.1102e-05 -0.00119771 1.23616e-05
-2.03648e-05 1.23616e-05 -0.00131563
0.00180782 0.000196771 -1.42065e-05
0.000196771 0.000971853 -3.34149e-05
-1.42065e-05 -3.34149e-05 0.000299703
0.00178745 -4.36298e-06 6.11655e-05
-4.36298e-06 0.000600366 7.28577e-06
6.11655e-05 7.28577e-06 -0.00036282
0.000975504 -1.99092e-05 1.52599e-05
-1.99092e-05 0.00033976 5.53636e-06
1.52599e-05 5.53636e-06 1.27792e-05
0.00146583 -2.84907e-05 -4.24187e-06
-2.84907e-05 0.000282383 -1.07927e-06
-4.24187e-06 -1.07927e-06 0.000133624
-0.00248266 5.6729e-05 7.55665e-06
5.6729e-05 -0.000872705 1.05311e-05
7.55665e-06 1.05311e-05 -0.00138287
0.00320054 6.1899e-05 -1.50917e-05
6.1899e-05 0.000619003 -2.2492e-05
-1.50917e-05 -2.2492e-05 0.00027173
0.00138781 6.57611e-06 1.03108e-06
6.57611e-06 0.000390321 1.22007e-05
1.03108e-06 1.22007e-05 0.000192852
0.0150777 -0.000865523 0.000106366
-0.000865523 0.00666539 -1.80759e-05
0.000106366 -1.80759e-05 0.0033783
0.00776692 0.000970904 -5.7818e-05
0.000970904 0.00237812 -2.67849e-05
-5.7818e-05 -2.67849e-05 0.00208411
0.00351795 -0.000197968 -4.4505e-05
-0.000197968 0.00114506 9.05846e-05
-4.4505e-05 9.05846e-05 -0.000579273
-0.00674605 0.00143316 0.000313758
0.00143316 -0.00373838 -0.000252045
0.000313758 -0.000252045 -0.00176399
0.000690828 -6.83289e-05 -2.66897e-06
-6.83289e-05 0.000412232 -4.23657e-07
-2.66897e-06 -4.23657e-07 0.000231777
0.00147357 -5.54948e-05 -9.85237e-06
-5.54948e-05 0.000233641 4.97077e-06
-9.85237e-06 4.97077e-06 -0.000766663
-0.00243841 0.000231408 -0.00019761
0.000231408 0.00079572 8.80211e-05
-0.00019761 8.80211e-05 4.1536e-05
0.00181968 -0.000294612 -1.99113e-05
-0.000294612 9.78574e-06 2.96742e-05
-1.99113e-05 2.96742e-05 -0.000257869
0.00862823 0.00139437 4.46546e-05
0.00139437 0.00285527 4.76186e-05
4.46546e-05 4.76186e-05 0.00343469
0.00749422 -0.000803399 6.4725e-05
-0.000803399 0.00312777 -4.00933e-05
6.4725e-05 -4.00933e-05 0.00045753
0.00117583 -0.000220953 8.54584e-06
-0.000220953 0.000198374 2.56897e-05
8.54584e-06 2.56897e-05 0.000334511
-0.00283135 -0.000109725 2.16506e-05
-0.000109725 0.000592125 -1.11397e-05
2.16506e-05 -1.11397e-05 -0.000780022
0.0067308 0.00120512 -0.000195922
0.00120512 0.0033278 9.05547e-05
-0.000195922 9.05547e-05 0.00337424
0.00253666 -0.000383692 -0.000135757
-0.000383692 0.00019557 9.31326e-05
-0.000135757 9.31326e-05 -0.00255216
0.00256788 -0.00076938 5.21333e-05
-0.00076938 0.000344632 -1.3469e-05
5.21333e-05 -1.3469e-05 -0.000131159
-0.00040594 -9.99656e-05 -4.51868e-06
-9.99656e-05 -7.4365e-05 1.21097e-05
-4.51868e-06 1.21097e-05 -0.000294246
0.000392656 -0.00020109 -4.4841e-06
-0.00020109 8.97341e-05 2.66032e-06
-4.4841e-06 2.66032e-06 -0.000101423
0.00403506 -0.00049573 3.03129e-05
-0.00049573 0.00155403 2.832e-06
3.03129e-05 2.832e-06 0.00148117
-0.0021146 -1.11279e-05 -5.41512e-06
-1.11279e-05 -0.00120004 8.24602e-06
-5.41512e-06 8.24602e-06 -0.00147006
0.000730881 -0.000260662 2.92939e-06
-0.000260662 -1.66118e-05 -1.44242e-07
2.92939e-06 -1.44242e-07 -0.000278403
0.00153885 -0.000391368 5.97517e-06
-0.000391368 0.000110025 1.109e-06
5.97517e-06 1.109e-06 -9.42476e-05
0.00235099 -0.000334159 -8.44327e-06
-0.000334159 0.000938564 2.05629e-06
-8.44327e-06 2.05629e-06 0.000633298
0.00125431 -0.000304245 -2.76984e-06
-0.000304245 0.000175105 -2.61455e-06
-2.76984e-06 -2.61455e-06 -0.000122826
0.00197075 -0.000404482 5.14329e-06
-0.000404482 0.000342692 -2.61895e-06
5.14329e-06 -2.61895e-06 0.000116975
0.00174299 -0.000322467 -3.62112e-06
-0.000322467 0.000442222 -1.03314e-06
-3.62112e-06 -1.03314e-06 0.000156556
0.0015508 -0.000326582 -4.05747e-07
-0.000326582 0.000216006 -3.52136e-06
-4.05747e-07 -3.52136e-06 -5.64071e-05
0.00184962 -0.000339955 7.36876e-07
-0.000339955 0.000252638 -5.48346e-06
7.36876e-07 -5.48346e-06 4.47698e-05
0.00157585 -0.000266643 -7.91596e-07
-0.000266643 0.000103152 -3.26611e-06
-7.91596e-07 -3.26611e-06 -7.31995e-05
0.00146775 -0.000288452 1.54585e-06
-0.000288452 0.000124688 -1.39988e-06
1.54585e-06 -1.39988e-06 -0.000102305
0.00158804 -0.0003008 1.45979e-06
-0.0003008 0.000176623 -1.16282e-06
1.45979e-06 -1.16282e-06 -4.13904e-05
0.00179585 -0.000291685 -1.34691e-06
-0.000291685 0.000418101 5.47754e-06
-1.34691e-06 5.47754e-06 0.000203988
0.0019176 -0.000328336 -4.41003e-07
-0.000328336 0.000450672 2.89284e-07
-4.41003e-07 2.89284e-07 0.00020311
0.00177667 -0.000330732 -9.53481e-07
-0.000330732 0.000350982 -3.06886e-06
-9.53481e-07 -3.06886e-06 8.51386e-05
0.00105672 -0.000198246 2.88074e-06
-0.000198246 0.000183934 -3.4545e-07
2.88074e-06 -3.4545e-07 3.13193e-06
0.000569299 -0.000171019 -1.17335e-06
-0.000171019 -0.000133874 -2.03334e-06
-1.17335e-06 -2.03334e-06 -0.000305219
0.00141705 -0.000247287 5.40533e-06
-0.000247287 0.000317825 -6.15994e-06
5.40533e-06 -6.15994e-06 0.000128317
0.000907751 -0.000122599 3.08798e-07
-0.000122599 0.000168233 8.21504e-07
3.08798e-07 8.21504e-07 1.89981e-05
0.000879533 -0.000162052 1.39814e-07
-0.000162052 0.000143084 2.48831e-07
1.39814e-07 2.48831e-07 -3.0281e-05
0.000873242 -0.000175352 -1.72138e-06
-0.000175352 0.000109574 1.16197e-06
-1.72138e-06 1.16197e-06 -6.18659e-05
0.000557709 5.50474e-05 1.2799e-06
5.50474e-05 -2.11296e-05 3.71317e-06
1.2799e-06 3.71317e-06 -0.000106517
0.000792839 -4.37535e-05 5.49348e-07
-4.37535e-05 0.000129975 9.01679e-08
5.49348e-07 9.01679e-08 -8.14292e-07
0.000892878 -0.000107458 -1.65273e-06
-0.000107458 0.000200093 5.98709e-07
-1.65273e-06 5.98709e-07 4.86678e-05
0.00133747 8.96321e-05 -1.37954e-05
8.96321e-05 0.000425851 3.64202e-06
-1.37954e-05 3.64202e-06 0.00040021
0.00065307 3.01311e-05 -5.42242e-07
3.01311e-05 2.02993e-05 -5.56498e-07
-5.42242e-07 -5.56498e-07 -4.54713e-05
0.00080978 -3.38721e-05 -7.50101e-07
-3.38721e-05 0.000129592 -1.77841e-06
-7.50101e-07 -1.77841e-06 2.29238e-05
0.000767864 4.54543e-05 -2.61182e-05
4.54543e-05 9.00413e-05 3.3752e-06
-2.61182e-05 3.3752e-06 9.10844e-05
0.000989574 7.12709e-05 -7.50611e-06
7.12709e-05 0.000212355 1.67095e-07
-7.50611e-06 1.67095e-07 0.000190464
0.000684711 3.09416e-05 7.94474e-07
3.09416e-05 2.87883e-05 -2.23884e-06
7.94474e-07 -2.23884e-06 -2.60676e-05
0.000606729 5.40674e-05 4.78658e-07
5.40674e-05 -1.94474e-05 -4.07568e-06
4.78658e-07 -4.07568e-06 -3.93404e-05
0.00229467 8.39028e-05 2.21963e-06
8.39028e-05 0.000967198 1.94068e-07
2.21963e-06 1.94068e-07 0.00097516
0.00227765 7.37302e-05 2.33858e-05
7.37302e-05 0.000950028 -3.61118e-06
2.33858e-05 -3.61118e-06 0.000960322
0.000697661 2.14787e-05 -3.8674e-07
2.14787e-05 4.40358e-05 -8.43905e-07
-3.8674e-07 -8.43905e-07 -5.39388e-05
0.000791268 4.61481e-05 -4.20054e-07
4.61481e-05 0.000104899 -1.70927e-06
-4.20054e-07 -1.70927e-06 8.93775e-06
0.000721259 1.59145e-05 8.11115e-08
1.59145e-05 5.71696e-05 6.88052e-09
8.11115e-08 6.88052e-09 -3.77264e-05
0.000677745 -1.20044e-05 -1.17078e-06
-1.20044e-05 1.22436e-05 -2.57978e-06
-1.17078e-06 -2.57978e-06 -4.57094e-05
0.000750585 3.73421e-05 6.67644e-07
3.73421e-05 7.42937e-05 8.90018e-09
6.67644e-07 8.90018e-09 -1.32591e-05
0.000591116 -3.87948e-05 -1.00846e-07
-3.87948e-05 -4.16734e-05 -4.70782e-06
-1.00846e-07 -4.70782e-06 -6.20379e-05
0.000669369 2.78643e-06 -1.4781e-07
2.78643e-06 7.26222e-06 -4.43896e-08
-1.4781e-07 -4.43896e-08 -4.78939e-05
0.000765834 5.5413e-05 7.04662e-07
5.5413e-05 9.65552e-05 1.49096e-06
7.04662e-07 1.49096e-06 1.88701e-06
0.00243302 -6.11841e-05 -2.38358e-05
-6.11841e-05 0.00102744 -4.3965e-06
-2.38358e-05 -4.3965e-06 0.00103962
0.000607093 -3.07199e-05 -3.5006e-07
-3.07199e-05 -3.88152e-05 -2.63561e-08
-3.5006e-07 -2.63561e-08 -5.54235e-05
0.000669522 7.52636e-06 5.8811e-07
7.52636e-06 7.98554e-06 2.52065e-06
5.8811e-07 2.52065e-06 -4.34343e-05
0.00230913 -4.75487e-05 -3.30727e-06
-4.75487e-05 0.000949834 1.53855e-07
-3.30727e-06 1.53855e-07 0.000964792
0.000619993 -2.35733e-05 8.26787e-08
-2.35733e-05 -3.59002e-05 4.09442e-06
8.26787e-08 4.09442e-06 -4.9002e-05
0.00220939 -3.37544e-05 1.35267e-05
-3.37544e-05 0.000887467 4.65452e-06
1.35267e-05 4.65452e-06 0.000904783
0.00281173 -1.78552e-05 6.3532e-05
-1.78552e-05 0.00101049 3.30197e-05
6.3532e-05 3.30197e-05 0.000169833
0.000932548 -6.01049e-05 4.66892e-07
-6.01049e-05 0.000174116 9.66078e-06
4.66892e-07 9.66078e-06 -8.91908e-05
0.00142237 -4.51883e-05 -1.44909e-05
-4.51883e-05 -1.63587e-05 -4.63085e-06
-1.44909e-05 -4.63085e-06 -5.33926e-05
0.000797281 8.45584e-05 -3.12274e-06
8.45584e-05 0.000108046 -4.45563e-07
-3.12274e-06 -4.45563e-07 -1.26428e-06
0.000821901 3.33882e-05 5.1927e-07
3.33882e-05 0.000113431 4.43493e-07
5.1927e-07 4.43493e-07 1.84376e-05
0.000655556 1.30823e-06 8.60649e-07
1.30823e-06 1.74257e-05 7.42477e-07
8.60649e-07 7.42477e-07 -7.77678e-05
0.000813941 6.70068e-06 4.17788e-08
6.70068e-06 0.00010351 -9.60608e-08
4.17788e-08 -9.60608e-08 9.82533e-06
0.000884261 4.44024e-05 -1.57394e-07
4.44024e-05 0.000151895 -1.81166e-07
-1.57394e-07 -1.81166e-07 4.98991e-05
0.000823175 6.85804e-05 4.63824e-07
6.85804e-05 0.000126009 7.62104e-07
4.63824e-07 7.62104e-07 1.66441e-05
0.000804362 5.55681e-05 -1.99468e-06
5.55681e-05 0.000113174 -2.46102e-06
-1.99468e-06 -2.46102e-06 -1.36753e-06
0.000429658 -1.03015e-06 -9.02654e-07
-1.03015e-06 -0.000101533 -8.41845e-07
-9.02654e-07 -8.41845e-07 -0.000203483
0.000831832 9.12863e-05 4.89009e-07
9.12863e-05 0.000127555 -1.03257e-07
4.89009e-07 -1.03257e-07 2.12732e-05
0.000740952 -8.14113e-06 1.64359e-06
-8.14113e-06 5.20487e-05 2.64028e-07
1.64359e-06 2.64028e-07 -4.29903e-05
0.000809037 3.74637e-05 -3.67109e-07
3.74637e-05 0.00011971 7.23169e-08
-3.67109e-07 7.23169e-08 1.59183e-05
0.00139935 8.28886e-05 4.17475e-06
8.28886e-05 0.000494367 4.26855e-06
4.17475e-06 4.26855e-06 0.000394618
0.00114262 -0.00050818 5.9655e-05
-0.00050818 0.00168369 0.000118371
5.9655e-05 0.000118371 0.00087867
0.00264638 0.000109808 9.99085e-06
0.000109808 0.00108687 4.10436e-05
9.99085e-06 4.10436e-05 -0.000626852
0.00131547 7.81267e-05 -9.16782e-06
7.81267e-05 0.000345536 -3.82954e-05
-9.16782e-06 -3.82954e-05 -0.000936323
0.00683866 -0.00109488 -0.000144228
-0.00109488 0.000548592 -0.000117097
-0.000144228 -0.000117097 0.00205193
0.00446916 -0.000315543 1.18291e-05
-0.000315543 0.000616687 0.000133325
1.18291e-05 0.000133325 -0.000107769
0.000450659 -0.000533683 -9.33818e-05
-0.000533683 0.000705621 9.01043e-05
-9.33818e-05 9.01043e-05 -0.0026924
0.0024117 -0.000182916 -5.61209e-05
-0.000182916 0.000388654 7.76761e-05
-5.61209e-05 7.76761e-05 -0.000127833
0.00384368 -8.29919e-05 1.43594e-05
-8.29919e-05 0.000744411 4.30826e-05
1.43594e-05 4.30826e-05 0.000497236
-0.000775043 -0.00130159 4.4656e-05
-0.00130159 -0.0014675 6.10334e-05
4.4656e-05 6.10334e-05 0.000283338
0.00527996 0.000505629 5.13955e-06
0.000505629 0.00296639 7.72208e-07
5.13955e-06 7.72208e-07 -0.000416595
0.00158286 -0.000703241 -1.81774e-05
-0.000703241 -0.00134224 2.5921e-05
-1.81774e-05 2.5921e-05 -0.00121133
0.00142029 0.000313288 -1.30411e-05
0.000313288 -0.000316046 1.83134e-05
-1.30411e-05 1.83134e-05 -0.000462144
0.00790447 0.000218483 -2.99383e-05
0.000218483 0.00398319 1.34979e-05
-2.99383e-05 1.34979e-05 0.00129937
0.000780027 -0.00109382 -7.0581e-05
-0.00109382 -0.000727069 -9.2732e-05
-7.0581e-05 -9.2732e-05 -0.000242268
0.00052726 0.000202381 9.72112e-07
0.000202381 -1.02186e-05 -4.82844e-06
9.72112e-07 -4.82844e-06 -0.000103983
0.000801878 5.806e-05 5.85938e-06
5.806e-05 0.000165495 -2.17246e-07
5.85938e-06 -2.17246e-07 8.13809e-05
0.00106845 2.38071e-05 -4.93533e-08
2.38071e-05 0.000271766 1.30495e-06
-4.93533e-08 1.30495e-06 0.000165852
0.000171974 3.05058e-07 -0.000136347
3.05058e-07 0.000703123 -3.63491e-05
-0.000136347 -3.63491e-05 -0.000343161
-0.00135512 7.61164e-05 8.76173e-06
7.61164e-05 -0.000794174 -1.07117e-05
8.76173e-06 -1.07117e-05 -0.000951429
0.000955821 0.000105578 2.7606e-06
0.000105578 0.000311576 -2.70575e-06
2.7606e-06 -2.70575e-06 0.000181457
0.000731744 0.00020007 7.1089e-06
0.00020007 0.000260176 2.91541e-06
7.1089e-06 2.91541e-06 0.000129804
0.000737057 0.000208312 -4.95865e-06
0.000208312 0.000369767 -2.84466e-05
-4.95865e-06 -2.84466e-05 -0.000186407
-0.000147498 0.000324476 1.37166e-05
0.000324476 -0.000465092 6.83198e-07
1.37166e-05 6.83198e-07 -0.000698646
0.000221027 9.06092e-05 0.000110517
9.06092e-05 0.00226869 8.83627e-06
0.000110517 8.83627e-06 0.000951042
0.00175491 -2.47442e-05 -5.09871e-06
-2.47442e-05 0.000645868 1.15791e-05
-5.09871e-06 1.15791e-05 -0.000159412
0.000739341 -1.94604e-05 2.87081e-06
-1.94604e-05 0.000218003 6.60501e-06
2.87081e-06 6.60501e-06 -6.47308e-05
0.00124503 -9.05625e-05 -3.81618e-05
-9.05625e-05 0.000792213 8.55412e-06
-3.81618e-05 8.55412e-06 0.000613237
0.000786018 -0.000143418 -2.80173e-05
-0.000143418 -0.000941115 -1.30788e-05
-2.80173e-05 -1.30788e-05 -0.000839397
0.00174239 -5.38545e-05 -7.69195e-05
-5.38545e-05 0.000400199 2.31815e-05
-7.69195e-05 2.31815e-05 -0.000612083
-0.00119928 -0.000874044 4.82931e-05
-0.000874044 -0.000468645 -6.17628e-05
4.82931e-05 -6.17628e-05 -0.00357915
-0.00323798 0.000919625 7.62293e-05
0.000919625 -0.00362586 -9.21068e-05
7.62293e-05 -9.21068e-05 -0.00287787
0.00158184 0.000518244 -0.000106148
0.000518244 0.00220792 0.000107183
-0.000106148 0.000107183 0.00187834
0.00210261 -0.000102952 -5.48888e-06
-0.000102952 0.000467559 1.62957e-06
-5.48888e-06 1.62957e-06 0.000745886
0.00154853 0.000152776 1.33537e-05
0.000152776 0.00238458 9.05555e-06
1.33537e-05 9.05555e-06 0.00158825
-0.0036998 0.000674435 3.14116e-05
0.000674435 -0.00115187 5.64896e-06
3.14116e-05 5.64896e-06 -0.00194883
0.00379154 -0.000841006 9.98628e-06
-0.000841006 0.00125026 -1.82931e-06
9.98628e-06 -1.82931e-06 0.000363037
0.0096533 -0.000191981 4.66745e-06
-0.000191981 0.00355032 -6.50609e-06
4.66745e-06 -6.50609e-06 0.00171757
0.00167439 -0.000373101 1.96634e-06
-0.000373101 0.000260228 2.15067e-05
1.96634e-06 2.15067e-05 0.000356832
-0.0070934 0.000260406 -0.000146402
0.000260406 -0.0034099 -2.02971e-06
-0.000146402 -2.02971e-06 -0.00389445
0.00946136 -5.11283e-05 -4.4296e-05
-5.11283e-05 0.00297086 1.92079e-05
-4.4296e-05 1.92079e-05 0.00150649
0.00481306 -0.00095162 -3.20548e-06
-0.00095162 0.00050519 5.41204e-07
-3.20548e-06 5.41204e-07 -0.000270813
0.000359589 -0.000186466 -2.18572e-05
-0.000186466 0.000112931 1.56017e-05
-2.18572e-05 1.56017e-05 -0.00013475
0.00174567 -0.000349537 -2.84367e-06
-0.000349537 0.000297053 1.04866e-06
-2.84367e-06 1.04866e-06 0.000298394
0.00277688 -0.000398374 1.50747e-05
-0.000398374 0.00064119 -2.24353e-06
1.50747e-05 -2.24353e-06 0.000640582
-0.000981841 -0.000115344 -5.09638e-06
-0.000115344 -0.000867854 5.3221e-07
-5.09638e-06 5.3221e-07 -0.00114054
0.00133632 -0.000371398 -3.28857e-06
-0.000371398 2.74815e-05 -8.44568e-07
-3.28857e-06 -8.44568e-07 -0.00018491
0.00215287 -0.00043993 1.92729e-06
-0.00043993 0.000298245 7.8258e-07
1.92729e-06 7.8258e-07 0.000128502
0.00144458 -0.000316148 -9.59226e-06
-0.000316148 0.000262162 -2.74674e-06
-9.59226e-06 -2.74674e-06 -2.15401e-05
0.00150696 -0.00036663 5.14048e-07
-0.00036663 0.000110264 4.79486e-07
5.14048e-07 4.79486e-07 -0.000116515
0.00197664 -0.000358785 -1.683e-06
-0.000358785 0.000228652 -4.10997e-06
-1.683e-06 -4.10997e-06 6.16185e-05
0.00103791 -0.000286604 -7.01792e-06
-0.000286604 -7.4711e-05 -4.23065e-07
-7.01792e-06 -4.23065e-07 -0.00033734
0.00164051 -0.000323072 -3.86542e-07
-0.000323072 0.000134393 5.5056e-07
-3.86542e-07 5.5056e-07 -7.03335e-05
0.00179557 -0.000285757 -8.03723e-07
-0.000285757 0.000138269 -5.17555e-06
-8.03723e-07 -5.17555e-06 -6.36949e-06
0.00157405 -0.000224993 -2.23656e-06
-0.000224993 4.44556e-05 -3.40489e-06
-2.23656e-06 -3.40489e-06 -9.23047e-05
0.00151215 -0.000252783 -7.23474e-07
-0.000252783 9.88196e-05 -2.59719e-06
-7.23474e-07 -2.59719e-06 -8.90122e-05
0.00152002 -0.000257936 5.50596e-07
-0.000257936 7.19683e-05 1.40086e-06
5.50596e-07 1.40086e-06 -0.00010156
0.00130121 -0.000256477 -3.5434e-06
-0.000256477 5.16591e-05 8.07832e-07
-3.5434e-06 8.07832e-07 -0.000155266
0.00157304 -0.000292425 2.12525e-06
-0.000292425 0.00018694 -6.03616e-07
2.12525e-06 -6.03616e-07 -3.68066e-05
0.00145198 -0.000290873 8.32135e-07
-0.000290873 0.000102372 2.17534e-06
8.32135e-07 2.17534e-06 -0.000113451
0.00131568 -0.000232869 1.10699e-06
-0.000232869 0.000231915 3.57922e-06
1.10699e-06 3.57922e-06 3.68018e-05
0.00112704 -0.000240763 3.01922e-06
-0.000240763 5.09808e-05 -1.0772e-06
3.01922e-06 -1.0772e-06 -0.000157228
0.00120115 -0.000274029 -5.86099e-07
-0.000274029 5.31726e-05 -4.1874e-06
-5.86099e-07 -4.1874e-06 -0.000193453
0.000931235 -0.000166768 -1.22745e-06
-0.000166768 0.000128634 7.7524e-07
-1.22745e-06 7.7524e-07 -3.27309e-05
0.00109407 -0.00020015 2.6422e-09
-0.00020015 0.000199257 -1.34444e-06
2.6422e-09 -1.34444e-06 1.89019e-05
0.000810156 -0.000187068 -2.28607e-06
-0.000187068 7.4802e-06 -5.29775e-06
-2.28607e-06 -5.29775e-06 -0.000161582
0.000697573 -3.96713e-05 -3.10223e-07
-3.96713e-05 4.61871e-05 4.09621e-06
-3.10223e-07 4.09621e-06 -6.01122e-05
0.000928665 -0.000124555 7.82385e-07
-0.000124555 0.000178214 4.04239e-07
7.82385e-07 4.04239e-07 2.83192e-05
0.000635169 -0.000132975 -2.26282e-06
-0.000132975 4.49531e-06 1.24061e-06
-2.26282e-06 1.24061e-06 -0.000163112
0.000472514 7.39562e-05 2.25803e-06
7.39562e-05 -6.36074e-05 6.25042e-06
2.25803e-06 6.25042e-06 -0.000102324
0.000682235 -7.89755e-06 -5.24503e-07
-7.89755e-06 4.58569e-05 -4.38496e-07
-5.24503e-07 -4.38496e-07 -4.14082e-05
0.000852289 -7.25125e-05 -1.0079e-08
-7.25125e-05 0.00016572 -1.60001e-06
-1.0079e-08 -1.60001e-06 2.96432e-05
0.00239965 0.000115672 -8.74271e-06
0.000115672 0.00104462 1.39144e-06
-8.74271e-06 1.39144e-06 0.00104418
0.000577925 7.16763e-05 -2.12552e-07
7.16763e-05 -1.28547e-05 -1.70174e-07
-2.12552e-07 -1.70174e-07 -4.29969e-05
0.000713576 9.59435e-06 1.52219e-06
9.59435e-06 5.23324e-05 -3.10559e-06
1.52219e-06 -3.10559e-06 -1.34806e-05
0.00234351 9.42896e-05 2.2856e-06
9.42896e-05 0.00100308 1.95641e-07
2.2856e-06 1.95641e-07 0.00100853
0.000606169 6.4919e-05 -6.71916e-07
6.4919e-05 -7.56889e-06 -4.50294e-06
-6.71916e-07 -4.50294e-06 -3.21484e-05
0.00234016 8.56433e-05 2.77175e-05
8.56433e-05 0.000994305 -3.20521e-06
2.77175e-05 -3.20521e-06 0.00100187
0.000876421 8.30287e-05 -7.934e-07
8.30287e-05 0.000148408 3.08458e-07
-7.934e-07 3.08458e-07 3.97063e-05
0.000769855 3.44562e-05 -1.09067e-07
3.44562e-05 8.6469e-05 -2.61342e-07
-1.09067e-07 -2.61342e-07 -1.36909e-05
0.000788955 2.62264e-05 -3.20872e-07
2.62264e-05 0.000109838 -2.08135e-06
-3.20872e-07 -2.08135e-06 5.65746e-06
0.000679708 -1.71191e-05 -1.26765e-06
-1.71191e-05 1.71895e-05 -2.98479e-06
-1.26765e-06 -2.98479e-06 -4.43584e-05
0.000737732 1.80602e-05 5.49403e-07
1.80602e-05 7.10103e-05 6.6061e-08
5.49403e-07 6.6061e-08 -2.15896e-05
0.000684863 2.56891e-05 1.10873e-06
2.56891e-05 4.13048e-05 9.19923e-07
1.10873e-06 9.19923e-07 -5.72201e-05
0.000584786 -4.63471e-05 -1.85796e-07
-4.63471e-05 -3.82829e-05 -5.02107e-06
-1.85796e-07 -5.02107e-06 -6.19719e-05
0.000666031 -5.32786e-06 -9.46051e-08
-5.32786e-06 6.57856e-06 -5.20671e-08
-9.46051e-08 -5.20671e-08 -5.16812e-05
0.000738472 3.3873e-05 1.41628e-06
3.3873e-05 6.44522e-05 1.31654e-06
1.41628e-06 1.31654e-06 -2.05493e-05
0.00252343 -7.32444e-05 -2.97215e-05
-7.32444e-05 0.00108574 -4.08737e-06
-2.97215e-05 -4.08737e-06 0.00109549
0.000591048 -3.71773e-05 -3.42859e-07
-3.71773e-05 -4.22483e-05 -6.90852e-09
-3.42859e-07 -6.90852e-09 -6.23139e-05
0.00067114 5.00893e-06 9.94151e-07
5.00893e-06 8.91041e-06 2.54973e-06
9.94151e-07 2.54973e-06 -4.63704e-05
0.00240204 -6.01412e-05 -3.67476e-06
-6.01412e-05 0.00100883 1.9923e-07
-3.67476e-06 1.9923e-07 0.00102137
0.000608012 -3.00013e-05 1.5772e-08
-3.00013e-05 -3.84392e-05 4.38238e-06
1.5772e-08 4.38238e-06 -5.48883e-05
0.00228423 -4.62403e-05 1.77856e-05
-4.62403e-05 0.000934768 4.55583e-06
1.77856e-05 4.55583e-06 0.000950102
-0.00384844 -2.72278e-06 8.44674e-07
-2.72278e-06 0.00026726 4.24697e-05
8.44674e-07 4.24697e-05 -0.00130507
0.00268103 -5.11263e-05 7.01136e-07
-5.11263e-05 0.00102588 1.1924e-05
7.01136e-07 1.1924e-05 0.000185342
0.00100617 -5.95958e-05 -3.03676e-06
-5.95958e-05 0.000202992 -5.27445e-06
-3.03676e-06 -5.27445e-06 -4.02348e-05
0.000666454 4.80137e-05 -5.81407e-07
4.80137e-05 3.03321e-05 3.95139e-07
-5.81407e-07 3.95139e-07 -7.32268e-05
0.0013958 0.00019511 -9.75166e-07
0.00019511 0.000458922 8.49594e-07
-9.75166e-07 8.49594e-07 0.00032245
0.000718571 4.88394e-05 -2.46656e-06
4.88394e-05 6.59608e-05 -2.45428e-07
-2.46656e-06 -2.45428e-07 -4.61344e-05
0.000961814 4.17003e-06 7.38253e-07
4.17003e-06 0.000184907 5.55141e-08
7.38253e-07 5.55141e-08 9.28015e-05
0.00107627 7.91645e-05 1.86641e-06
7.91645e-05 0.000260525 5.84013e-07
1.86641e-06 5.84013e-07 0.0001567
0.000591324 1.92607e-05 4.19473e-07
1.92607e-05 -1.41446e-05 2.40392e-06
4.19473e-07 2.40392e-06 -0.000113512
0.000655399 3.21918e-05 -1.08724e-06
3.21918e-05 3.39554e-05 1.90269e-07
-1.08724e-06 1.90269e-07 -7.68498e-05
0.00077593 4.13553e-05 -1.49762e-07
4.13553e-05 9.52437e-05 -2.92691e-07
-1.49762e-07 -2.92691e-07 -1.63596e-05
0.000898581 8.1746e-05 -1.94453e-07
8.1746e-05 0.00018887 -2.01564e-06
-1.94453e-07 -2.01564e-06 5.47113e-05
0.000488398 0.000127274 3.10866e-06
0.000127274 -9.51582e-05 -6.23218e-06
3.10866e-06 -6.23218e-06 -0.000190266
0.000785417 5.70976e-05 6.53733e-07
5.70976e-05 0.00010938 -2.43452e-07
6.53733e-07 -2.43452e-07 2.70903e-07
0.000892908 8.04991e-05 6.39543e-07
8.04991e-05 0.000207025 1.77334e-06
6.39543e-07 1.77334e-06 0.000103685
-0.00528342 -0.000592221 -0.000217466
-0.000592221 -0.00174503 2.45849e-05
-0.000217466 2.45849e-05 -0.0024323
-0.00196759 -0.000421936 9.45901e-05
-0.000421936 0.000602732 4.26979e-05
9.45901e-05 4.26979e-05 -0.000432135
0.00310529 0.000125225 -8.36864e-05
0.000125225 0.00127588 -6.52445e-05
-8.36864e-05 -6.52445e-05 -0.000492181
-0.00704346 -0.00134423 0.000234765
-0.00134423 -0.00364676 0.000216979
0.000234765 0.000216979 -0.00178739
0.0094545 -0.000946867 -5.86157e-05
-0.000946867 0.00287459 5.92844e-05
-5.86157e-05 5.92844e-05 0.00291751
-0.000118552 0.000717687 5.3241e-06
0.000717687 -2.2202e-05 -3.12176e-05
5.3241e-06 -3.12176e-05 -0.00327495
0.00370985 -5.92755e-05 -0.000147105
-5.92755e-05 0.000949706 5.49505e-05
-0.000147105 5.49505e-05 0.000217871
0.00287191 0.000259518 -2.01249e-05
0.000259518 0.000597626 1.40093e-05
-2.01249e-05 1.40093e-05 0.00029596
0.00717558 -0.00110973 -8.80995e-05
-0.00110973 0.00349607 4.09369e-05
-8.80995e-05 4.09369e-05 0.00367593
0.000689467 0.000497618 2.44638e-06
0.000497618 0.000620088 -9.3305e-06
2.44638e-06 -9.3305e-06 -0.00204668
0.00180764 0.000526819 -8.4607e-05
0.000526819 0.000460026 -7.19733e-05
-8.4607e-05 -7.19733e-05 -0.000118267
0.00363403 0.000914236 -0.00014267
0.000914236 0.000482007 -7.76772e-05
-0.00014267 -7.76772e-05 -0.00159408
0.00208107 0.000480835 1.29592e-05
0.000480835 0.0005105 -1.74239e-05
1.29592e-05 -1.74239e-05 0.000324059
0.00074525 0.000205088 -5.15394e-06
0.000205088 0.00010377 1.19649e-06
-5.15394e-06 1.19649e-06 1.09198e-05
0.00109477 6.22269e-05 7.2361e-07
6.22269e-05 0.000322806 -2.08509e-06
7.2361e-07 -2.08509e-06 0.000239397
-0.000580838 0.000163588 -3.37767e-05
0.000163588 -0.00023113 -3.43746e-05
-3.37767e-05 -3.43746e-05 -0.000685357
0.00260136 0.000316626 -1.10066e-05
0.000316626 0.00122486 -1.08548e-05
-1.10066e-05 -1.08548e-05 0.00108143
0.00121209 0.000433683 1.23734e-05
0.000433683 0.000141262 -3.77629e-06
1.23734e-05 -3.77629e-06 -0.000100565
0.00254806 0.000652475 7.22676e-05
0.000652475 0.000191804 2.79077e-05
7.22676e-05 2.79077e-05 0.000146656
-0.00420563 -3.43104e-05 -0.000225688
-3.43104e-05 -0.00261985 -3.96925e-06
-0.000225688 -3.96925e-06 -0.00197654
-0.00156274 5.34608e-05 7.91796e-05
5.34608e-05 0.00150057 1.199e-06
7.91796e-05 1.199e-06 3.95971e-05
0.00162346 -4.90273e-05 -5.4162e-05
-4.90273e-05 0.000605397 1.55197e-05
-5.4162e-05 1.55197e-05 -6.88996e-05
0.00276099 -0.000207462 -5.39845e-05
-0.000207462 0.000732171 -3.2051e-05
-5.39845e-05 -3.2051e-05 0.00099336
0.00258101 -0.000796021 -3.94549e-05
-0.000796021 0.000397021 1.12611e-07
-3.94549e-05 1.12611e-07 -0.000299855
0.00193434 0.00010345 -1.82766e-05
0.00010345 0.00258453 3.01291e-05
-1.82766e-05 3.01291e-05 0.00187075
0.000996376 -0.000456312 0.000110355
-0.000456312 -0.000204192 -9.17035e-05
0.000110355 -9.17035e-05 -0.00258217
0.00898927 0.000716058 2.28113e-05
0.000716058 0.00435856 1.16532e-05
2.28113e-05 1.16532e-05 0.00398161
0.00229088 -0.000512772 -1.4992e-05
-0.000512772 0.000454134 5.50716e-06
-1.4992e-05 5.50716e-06 0.000424356
-0.00108685 0.000391295 2.88902e-05
0.000391295 -0.000519829 -9.70372e-06
2.88902e-05 -9.70372e-06 -0.000887161
0.00381456 -8.12213e-05 -2.98246e-05
-8.12213e-05 9.25332e-05 4.08496e-05
-2.98246e-05 4.08496e-05 -0.00186947
0.0058303 -0.000955008 -3.06657e-05
-0.000955008 0.00140547 1.15064e-05
-3.06657e-05 1.15064e-05 0.000619996
-0.000340124 -0.000250216 2.98105e-05
-0.000250216 -0.00074645 -6.78781e-06
2.98105e-05 -6.78781e-06 -0.000979599
0.00862865 -0.00029972 3.21695e-05
-0.00029972 0.00216376 -2.69803e-05
3.21695e-05 -2.69803e-05 0.000977774
0.00357134 -0.000426255 4.36885e-05
-0.000426255 4.36987e-05 -2.5702e-05
4.36885e-05 -2.5702e-05 -0.000314071
-0.000679339 -0.000198144 -2.05516e-05
-0.000198144 -0.00103368 6.68899e-06
-2.05516e-05 6.68899e-06 -0.000953712
0.000836499 -0.000294286 -5.03338e-06
-0.000294286 -0.000393897 -8.73776e-07
-5.03338e-06 -8.73776e-07 -0.00036003
0.00261421 -0.000403955 1.74889e-05
-0.000403955 0.000400385 -1.4808e-05
1.74889e-05 -1.4808e-05 0.000410184
0.000837309 -0.000328622 -1.02583e-05
-0.000328622 -0.000206066 -3.76537e-06
-1.02583e-05 -3.76537e-06 -0.000420576
0.00168383 -0.000403862 -7.04539e-07
-0.000403862 5.97717e-05 -4.28674e-07
-7.04539e-07 -4.28674e-07 -0.000100324
0.00207867 -0.000368993 -5.20239e-06
-0.000368993 0.000162009 -1.83103e-07
-5.20239e-06 -1.83103e-07 5.3223e-05
0.00124045 -0.000342821 -1.36924e-06
-0.000342821 -1.86375e-05 1.3723e-06
-1.36924e-06 1.3723e-06 -0.000246142
0.00177296 -0.000344679 -2.35774e-06
-0.000344679 0.000121761 -2.5981e-07
-2.35774e-06 -2.5981e-07 -4.49638e-05
0.00180265 -0.000280832 -3.04486e-06
-0.000280832 4.6757e-05 -1.27664e-06
-3.04486e-06 -1.27664e-06 -6.16921e-05
0.00142571 -0.000305596 1.97229e-06
-0.000305596 1.40124e-05 4.29303e-06
1.97229e-06 4.29303e-06 -0.000187562
0.00170422 -0.000275997 -9.73534e-08
-0.000275997 9.27778e-05 4.56738e-07
-9.73534e-08 4.56738e-07 -4.98793e-05
0.00177715 -0.000233543 -1.24781e-06
-0.000233543 9.81019e-05 -2.02235e-06
-1.24781e-06 -2.02235e-06 -5.73494e-06
0.00179711 -0.000211172 -1.16003e-06
-0.000211172 0.000164763 -1.09688e-06
-1.16003e-06 -1.09688e-06 5.26765e-05
0.00159746 -0.000223706 -2.38248e-06
-0.000223706 5.82969e-05 2.77404e-06
-2.38248e-06 2.77404e-06 -7.44832e-05
0.00171343 -0.000226203 -1.0156e-07
-0.000226203 0.000162842 -5.52635e-06
-1.0156e-07 -5.52635e-06 1.29397e-05
0.0016316 -0.000249666 -3.70028e-06
-0.000249666 0.00018686 -1.32769e-06
-3.70028e-06 -1.32769e-06 1.50296e-06
0.00157464 -0.000255614 1.19548e-06
-0.000255614 0.00013184 4.97551e-07
1.19548e-06 4.97551e-07 -5.587e-05
0.0014674 -0.000249112 4.48795e-07
-0.000249112 4.24755e-05 6.19887e-06
4.48795e-07 6.19887e-06 -0.000128185
0.00125364 -0.000230653 -6.31089e-06
-0.000230653 8.43049e-05 1.80572e-06
-6.31089e-06 1.80572e-06 -0.000106524
0.00129498 -0.000254609 5.37523e-07
-0.000254609 4.94739e-05 -3.59102e-07
5.37523e-07 -3.59102e-07 -0.000155554
0.0016588 -0.000294966 3.47588e-06
-0.000294966 0.000238188 -2.04685e-07
3.47588e-06 -2.04685e-07 1.79113e-05
0.00109514 -0.00019265 -1.74982e-06
-0.00019265 0.000160279 3.15697e-06
-1.74982e-06 3.15697e-06 -1.60705e-05
0.00123895 -0.000225231 1.2685e-06
-0.000225231 0.000185352 1.16991e-06
1.2685e-06 1.16991e-06 -8.39945e-06
0.000555829 -0.000197258 3.23647e-07
-0.000197258 -0.000261316 -5.77761e-06
3.23647e-07 -5.77761e-06 -0.000463627
0.000742245 -0.000102041 -4.13076e-06
-0.000102041 4.57714e-05 3.63166e-06
-4.13076e-06 3.63166e-06 -7.67929e-05
0.00105036 -0.00017765 7.35905e-08
-0.00017765 0.000193511 -6.86255e-07
7.35905e-08 -6.86255e-07 3.04882e-05
0.00113032 -0.000202094 -1.79663e-06
-0.000202094 0.000214539 -2.71157e-06
-1.79663e-06 -2.71157e-06 3.45192e-05
0.000462345 3.5359e-05 -9.25119e-08
3.5359e-05 -8.04096e-05 8.08446e-06
-9.25119e-08 8.08446e-06 -0.000124766
0.000743748 -6.0825e-05 3.61108e-07
-6.0825e-05 7.48718e-05 3.43125e-07
3.61108e-07 3.43125e-07 -3.62154e-05
0.000981303 -0.000131443 8.12419e-07
-0.000131443 0.000207628 -1.9298e-07
8.12419e-07 -1.9298e-07 5.49522e-05
0.00264626 0.000121009 -4.09704e-05
0.000121009 0.00119036 2.28655e-06
-4.09704e-05 2.28655e-06 0.0011888
0.000558831 5.91068e-05 -2.11389e-07
5.91068e-05 -2.00358e-05 -4.4485e-07
-2.11389e-07 -4.4485e-07 -5.62126e-05
0.000792276 -5.00553e-05 2.65077e-06
-5.00553e-05 0.00010715 -4.14461e-06
2.65077e-06 -4.14461e-06 1.71051e-05
0.00166768 8.61619e-05 1.78087e-05
8.61619e-05 0.000618661 -1.46777e-07
1.78087e-05 -1.46777e-07 0.000617503
0.000615479 6.72106e-05 -9.66738e-07
6.72106e-05 7.49898e-06 -5.352e-06
-9.66738e-07 -5.352e-06 -2.18832e-05
0.00242415 9.68518e-05 3.36486e-05
9.68518e-05 0.00105014 -2.71807e-06
3.36486e-05 -2.71807e-06 0.00105509
0.000900828 9.613e-05 8.77915e-07
9.613e-05 0.000153936 6.65289e-07
8.77915e-07 6.65289e-07 4.21446e-05
0.000695926 4.15341e-05 -2.42487e-07
4.15341e-05 3.96946e-05 4.92353e-07
-2.42487e-07 4.92353e-07 -6.0823e-05
0.000718 2.84524e-06 -2.01217e-07
2.84524e-06 6.12534e-05 -1.6862e-06
-2.01217e-07 -1.6862e-06 -4.06563e-05
0.000881585 5.60891e-05 8.4785e-07
5.60891e-05 0.000151947 7.09008e-07
8.4785e-07 7.09008e-07 4.87741e-05
0.000733202 3.14136e-06 2.42223e-07
3.14136e-06 6.55679e-05 2.01626e-08
2.42223e-07 2.01626e-08 -2.88023e-05
0.000676525 -1.75409e-05 -1.3353e-06
-1.75409e-05 1.97708e-05 -3.39382e-06
-1.3353e-06 -3.39382e-06 -4.67107e-05
0.000583899 -5.36629e-05 -1.33081e-07
-5.36629e-05 -3.03576e-05 -5.45715e-06
-1.33081e-07 -5.45715e-06 -5.72261e-05
0.000662029 -1.38115e-05 2.10202e-07
-1.38115e-05 7.80444e-06 -8.76735e-08
2.10202e-07 -8.76735e-08 -5.38604e-05
0.000685376 -1.21629e-05 2.67949e-07
-1.21629e-05 2.87978e-05 1.48172e-06
2.67949e-07 1.48172e-06 -5.41982e-05
0.00258198 -8.45426e-05 -3.56421e-05
-8.45426e-05 0.00112609 -3.67406e-06
-3.56421e-05 -3.67406e-06 0.00113361
0.000578487 -4.36912e-05 -4.11694e-07
-4.36912e-05 -4.25093e-05 3.83379e-08
-4.11694e-07 3.83379e-08 -6.57511e-05
0.000661826 2.14707e-06 1.76987e-06
2.14707e-06 5.33748e-06 2.68084e-06
1.76987e-06 2.68084e-06 -5.33577e-05
0.00250134 -7.25148e-05 -3.65797e-06
-7.25148e-05 0.00107237 2.32818e-07
-3.65797e-06 2.32818e-07 0.00108232
0.000593266 -3.61181e-05 2.66266e-07
-3.61181e-05 -4.12456e-05 4.6542e-06
2.66266e-07 4.6542e-06 -6.11283e-05
0.00237979 -5.91512e-05 2.1906e-05
-5.91512e-05 0.000995201 4.41118e-06
2.1906e-05 4.41118e-06 0.00100805
0.000583585 0.000259291 -8.36326e-05
0.000259291 0.00119221 5.52908e-05
-8.36326e-05 5.52908e-05 0.000372362
-0.00131699 -0.000104713 6.38693e-06
-0.000104713 0.0011502 1.21969e-05
6.38693e-06 1.21969e-05 -0.00034089
0.00261462 -7.55754e-05 -5.34449e-05
-7.55754e-05 0.00113063 -7.05448e-06
-5.34449e-05 -7.05448e-06 0.000295723
0.000589353 1.77005e-05 1.90527e-06
1.77005e-05 -1.53414e-05 -3.10784e-07
1.90527e-06 -3.10784e-07 -0.000114464
0.000687144 2.68925e-05 1.02374e-06
2.68925e-05 4.64517e-05 5.11479e-07
1.02374e-06 5.11479e-07 -6.38995e-05
0.00110165 0.000165792 -7.94473e-07
0.000165792 0.000298192 4.94765e-07
-7.94473e-07 4.94765e-07 0.000167616
0.00135459 0.000218816 8.67638e-07
0.000218816 0.000397181 -5.3812e-07
8.67638e-07 -5.3812e-07 0.000238007
0.000949515 0.000124651 -4.4967e-06
0.000124651 0.000224634 -1.6832e-06
-4.4967e-06 -1.6832e-06 8.64899e-05
0.000883478 8.05961e-05 1.8906e-06
8.05961e-05 0.000163011 1.91373e-06
1.8906e-06 1.91373e-06 4.94843e-05
0.000774149 4.89279e-05 2.56374e-06
4.89279e-05 9.49723e-05 1.7388e-06
2.56374e-06 1.7388e-06 -1.6177e-05
0.000701401 9.76944e-05 -2.30447e-06
9.76944e-05 7.82176e-05 -2.19533e-06
-2.30447e-06 -2.19533e-06 -5.0064e-05
-0.000475684 7.04077e-05 -1.22593e-06
7.04077e-05 -0.000611048 -2.33497e-08
-1.22593e-06 -2.33497e-08 -0.000748346
0.00111985 0.000199387 1.08152e-07
0.000199387 0.000215085 -4.20865e-06
1.08152e-07 -4.20865e-06 0.000104192
0.0022425 0.000427476 4.03014e-06
0.000427476 0.000535197 -1.26677e-05
4.03014e-06 -1.26677e-05 0.000350849
0.000590186 0.000137816 -3.99537e-06
0.000137816 -1.55921e-05 -4.22307e-07
-3.99537e-06 -4.22307e-07 -0.000111889
0.000639848 3.08646e-05 1.53403e-06
3.08646e-05 3.98489e-05 -1.11445e-06
1.53403e-06 -1.11445e-06 -5.52769e-05
0.0113121 0.000386352 -6.51773e-05
0.000386352 0.00340216 2.75615e-05
-6.51773e-05 2.75615e-05 0.00211069
-0.001143 -0.000482894 -0.000114178
-0.000482894 0.000655766 -3.0347e-05
-0.000114178 -3.0347e-05 -0.00019529
-0.000274195 -0.000596389 3.67668e-05
-0.000596389 0.000853742 -3.02963e-05
3.67668e-05 -3.02963e-05 -0.000227334
-0.00334884 -0.000521611 -8.88422e-06
-0.000521611 -0.00136004 8.00776e-05
-8.88422e-06 8.00776e-05 -0.00124196
0.0100992 0.000359836 2.67089e-05
0.000359836 0.00487974 -5.92057e-06
2.67089e-05 -5.92057e-06 0.00189652
0.00143105 0.000297186 -4.23392e-05
0.000297186 -5.03323e-05 -1.06585e-05
-4.23392e-05 -1.06585e-05 -0.000223195
0.00134554 0.000515673 -2.52278e-05
0.000515673 0.000111125 -1.16746e-05
-2.52278e-05 -1.16746e-05 -0.000339163
0.00879515 0.000308897 3.71793e-05
0.000308897 0.00307025 1.72565e-05
3.71793e-05 1.72565e-05 0.00133906
0.00509088 0.000955188 -9.61057e-06
0.000955188 0.000901345 -3.62182e-05
-9.61057e-06 -3.62182e-05 0.000356707
0.00208194 0.000540667 2.53164e-07
0.000540667 0.000316429 4.14572e-06
2.53164e-07 4.14572e-06 0.00015344
0.000948415 0.000353356 4.64126e-06
0.000353356 3.50126e-05 -3.21926e-06
4.64126e-06 -3.21926e-06 -0.000147741
0.00101415 0.000203377 -1.46197e-05
0.000203377 0.000257263 9.77589e-06
-1.46197e-05 9.77589e-06 0.000167143
0.00231272 0.000540528 -3.12886e-05
0.000540528 0.000580533 -1.39366e-05
-3.12886e-05 -1.39366e-05 0.000352824
0.0023963 0.000639843 -2.99647e-06
0.000639843 0.00012431 1.59846e-05
-2.99647e-06 1.59846e-05 2.88324e-05
0.000465544 -0.000256414 -2.13267e-05
-0.000256414 -0.00243071 -5.67036e-06
-2.13267e-05 -5.67036e-06 -0.00291128
0.00237625 -0.000244788 -7.63808e-07
-0.000244788 0.00138779 -1.41674e-05
-7.63808e-07 -1.41674e-05 0.00136648
-0.00330175 8.3977e-06 8.86912e-05
8.3977e-06 0.000834436 -7.65904e-06
8.86912e-05 -7.65904e-06 -0.000769232
0.00244174 -0.000583494 -4.31598e-05
-0.000583494 0.000465653 3.46271e-06
-4.31598e-05 3.46271e-06 0.000364243
0.00363441 -0.000863574 1.99373e-05
-0.000863574 0.00086807 -1.50355e-05
1.99373e-05 -1.50355e-05 -0.00022672
0.00123904 -0.000230637 0.000124989
-0.000230637 0.00137759 1.56227e-05
0.000124989 1.56227e-05 0.000780719
0.0106337 -5.04583e-05 -9.0004e-05
-5.04583e-05 0.0037161 4.81944e-05
-9.0004e-05 4.81944e-05 0.002029
0.000727257 -0.000308742 -1.73484e-05
-0.000308742 -0.000295364 -1.82115e-06
-1.73484e-05 -1.82115e-06 -0.000426715
0.00756923 6.71188e-05 -1.80647e-05
6.71188e-05 0.00154377 2.40363e-05
-1.80647e-05 2.40363e-05 0.000597421
0.00446256 -0.000515389 6.24258e-05
-0.000515389 0.000272006 1.08504e-08
6.24258e-05 1.08504e-08 -0.0003631
0.00189623 -0.000302788 2.77397e-05
-0.000302788 0.000298464 -7.27604e-06
2.77397e-05 -7.27604e-06 1.40105e-05
0.00293427 -0.000153899 -7.52348e-05
-0.000153899 0.000182053 -1.06612e-05
-7.52348e-05 -1.06612e-05 -5.6939e-05
-0.000873417 -0.000203961 -1.74022e-05
-0.000203961 -0.00131835 4.74627e-06
-1.74022e-05 4.74627e-06 -0.00124835
0.00155028 -0.000354438 6.03736e-07
-0.000354438 -0.000145319 -8.21518e-07
6.03736e-07 -8.21518e-07 -0.000141135
0.00202033 -0.000278069 7.74942e-06
-0.000278069 9.23849e-06 -5.95975e-06
7.74942e-06 -5.95975e-06 3.5406e-05
0.00137057 -0.000380116 -1.6916e-06
-0.000380116 -9.52134e-05 5.79807e-07
-1.6916e-06 5.79807e-07 -0.000249651
0.00180819 -0.000343198 -1.59865e-06
-0.000343198 3.81777e-05 -3.70863e-08
-1.59865e-06 -3.70863e-08 -6.82668e-05
0.00202859 -0.00025685 -1.58424e-06
-0.00025685 8.4124e-05 1.66244e-06
-1.58424e-06 1.66244e-06 3.37433e-05
0.00152385 -0.000326723 -2.04457e-06
-0.000326723 -8.27519e-06 3.68581e-06
-2.04457e-06 3.68581e-06 -0.000174347
0.00182418 -0.000279858 5.10652e-07
-0.000279858 6.02526e-05 1.35846e-06
5.10652e-07 1.35846e-06 -4.788e-05
0.00177177 -0.000231976 -5.22874e-07
-0.000231976 3.10115e-05 1.00436e-06
-5.22874e-07 1.00436e-06 -4.99292e-05
0.00161499 -0.000266847 2.39957e-06
-0.000266847 4.75935e-05 5.07591e-06
2.39957e-06 5.07591e-06 -9.3184e-05
0.00173319 -0.000232889 1.42195e-08
-0.000232889 7.38146e-05 1.22565e-06
1.42195e-08 1.22565e-06 -3.09041e-05
0.00195934 -0.00022499 7.60647e-07
-0.00022499 0.000224848 -2.73035e-07
7.60647e-07 -2.73035e-07 0.000129925
0.00172814 -0.000211098 -3.60339e-06
-0.000211098 0.000118689 3.38263e-06
-3.60339e-06 3.38263e-06 9.3312e-06
0.00176268 -0.000213075 2.3107e-06
-0.000213075 0.000172181 -3.3864e-06
2.3107e-06 -3.3864e-06 4.62784e-05
0.00161825 -0.000222875 8.19294e-07
-0.000222875 7.04205e-05 7.69531e-06
8.19294e-07 7.69531e-06 -5.84981e-05
0.00171327 -0.000227516 7.36036e-07
-0.000227516 0.000163692 -8.60616e-07
7.36036e-07 -8.60616e-07 1.31749e-05
0.00162028 -0.000216245 -1.82779e-06
-0.000216245 0.000154578 -2.80144e-06
-1.82779e-06 -2.80144e-06 -6.31189e-06
0.00136584 -0.000216592 -6.70837e-06
-0.000216592 8.82872e-05 9.06797e-07
-6.70837e-06 9.06797e-07 -8.69669e-05
0.00167088 -0.000253022 5.10273e-07
-0.000253022 0.000212161 -7.41855e-07
5.10273e-07 -7.41855e-07 2.53586e-05
0.00164609 -0.000259235 2.42861e-06
-0.000259235 0.000170489 3.62842e-06
2.42861e-06 3.62842e-06 -1.72287e-05
0.0012945 -0.000212385 -5.72745e-06
-0.000212385 0.000183041 3.15242e-06
-5.72745e-06 3.15242e-06 5.6657e-06
0.00123534 -0.000228177 -1.65304e-06
-0.000228177 7.53536e-05 7.94556e-07
-1.65304e-06 7.94556e-07 -0.000114577
0.00124805 -0.000249725 3.81382e-06
-0.000249725 2.47237e-05 -1.60824e-06
3.81382e-06 -1.60824e-06 -0.000178225
0.00075498 -0.000123675 -4.9981e-06
-0.000123675 1.22505e-05 4.67216e-06
-4.9981e-06 4.67216e-06 -0.000120332
0.00110032 -0.0001934 9.26384e-07
-0.0001934 0.00015986 1.77743e-07
9.26384e-07 1.77743e-07 -1.61873e-05
0.00116014 -0.00021782 2.67177e-06
-0.00021782 0.000137984 -1.8531e-06
2.67177e-06 -1.8531e-06 -5.45849e-05
0.000455013 -2.48521e-05 -7.44623e-06
-2.48521e-05 -0.00010505 9.42317e-06
-7.44623e-06 9.42317e-06 -0.000156343
0.000809154 -0.000114779 -1.87528e-07
-0.000114779 8.30696e-05 1.32144e-07
-1.87528e-07 1.32144e-07 -4.12424e-05
0.00109481 -0.000178942 1.14018e-06
-0.000178942 0.000215869 -2.00419e-06
1.14018e-06 -2.00419e-06 5.30159e-05
0.00310987 0.000141511 -5.40273e-05
0.000141511 0.00145956 2.20356e-06
-5.40273e-05 2.20356e-06 0.00145273
0.000563644 1.65778e-05 4.79298e-07
1.65778e-05 -2.72835e-05 -4.10704e-07
4.79298e-07 -4.10704e-07 -7.10532e-05
0.000828866 -0.000102808 3.83046e-06
-0.000102808 0.000121855 -3.4555e-06
3.83046e-06 -3.4555e-06 7.79507e-06
0.00277947 0.000121307 4.06353e-06
0.000121307 0.00126522 3.16071e-07
4.06353e-06 3.16071e-07 0.0012638
0.000646053 4.70715e-05 2.15483e-06
4.70715e-05 2.69262e-05 -6.61113e-06
2.15483e-06 -6.61113e-06 -8.63736e-06
0.00257406 0.000107064 4.35961e-05
0.000107064 0.00114187 -2.31286e-06
4.35961e-05 -2.31286e-06 0.00114443
0.00096608 0.000173414 1.22058e-06
0.000173414 0.000167323 -1.71151e-06
1.22058e-06 -1.71151e-06 1.91189e-05
0.000823756 0.000123714 7.38343e-07
0.000123714 0.000117754 -1.0432e-07
7.38343e-07 -1.0432e-07 -3.44473e-07
0.000581528 1.7055e-05 -8.72751e-07
1.7055e-05 -2.22996e-05 -7.97269e-07
-8.72751e-07 -7.97269e-07 -0.000129719
0.000505843 8.70439e-06 6.92894e-07
8.70439e-06 -6.96427e-05 5.53748e-07
6.92894e-07 5.53748e-07 -0.000165711
0.000638629 -1.20048e-05 -1.35593e-07
-1.20048e-05 1.15493e-05 3.26995e-07
-1.35593e-07 3.26995e-07 -8.70602e-05
0.000661921 -1.59408e-05 -1.40924e-06
-1.59408e-05 1.53483e-05 -3.54793e-06
-1.40924e-06 -3.54793e-06 -5.90058e-05
0.000670964 -1.45153e-05 3.45728e-07
-1.45153e-05 2.41738e-05 1.76033e-06
3.45728e-07 1.76033e-06 -6.49743e-05
0.000647165 -2.21689e-05 3.35249e-07
-2.21689e-05 4.46691e-06 -1.87415e-07
3.35249e-07 -1.87415e-07 -6.22032e-05
0.000583887 -5.95075e-05 -8.9706e-08
-5.95075e-05 -2.13192e-05 -5.95896e-06
-8.9706e-08 -5.95896e-06 -5.15965e-05
0.00262325 -9.54794e-05 -4.10006e-05
-9.54794e-05 0.00115681 -3.17665e-06
-4.10006e-05 -3.17665e-06 0.00116214
0.000569747 -5.14394e-05 -8.67411e-08
-5.14394e-05 -3.92685e-05 3.34522e-08
-8.67411e-08 3.34522e-08 -6.56442e-05
0.000634487 -1.19531e-05 1.98339e-06
-1.19531e-05 -7.07579e-06 2.95292e-06
1.98339e-06 2.95292e-06 -6.88549e-05
0.00257617 -8.41473e-05 -3.46446e-06
-8.41473e-05 0.00112226 2.63693e-07
-3.46446e-06 2.63693e-07 0.00112979
0.000574618 -4.19131e-05 5.39326e-07
-4.19131e-05 -4.51533e-05 4.96244e-06
5.39326e-07 4.96244e-06 -6.81155e-05
0.00247099 -7.15377e-05 2.71796e-05
-7.15377e-05 0.00105412 4.20021e-06
2.71796e-05 4.20021e-06 0.00106435
0.010058 0.000373737 0.000140582
0.000373737 0.00270868 6.8723e-05
0.000140582 6.8723e-05 0.00175895
-0.00239626 -0.000465865 -7.67684e-05
-0.000465865 -0.00159998 -7.7752e-06
-7.67684e-05 -7.7752e-06 -0.00174316
-0.00329684 9.90692e-05 -3.86861e-05
9.90692e-05 0.000169247 -2.70479e-05
-3.86861e-05 -2.70479e-05 -0.0016208
0.000660182 -3.2462e-07 4.35213e-06
-3.2462e-07 2.70448e-05 1.60645e-06
4.35213e-06 1.60645e-06 -8.01296e-05
0.000814385 0.000147619 -5.62231e-07
0.000147619 0.00014041 1.30826e-06
-5.62231e-07 1.30826e-06 1.5247e-05
0.00113858 0.000143243 2.83339e-07
0.000143243 0.000328508 -8.47315e-08
2.83339e-07 -8.47315e-08 0.000189818
0.00112922 0.000199067 -2.09467e-06
0.000199067 0.000272939 2.39896e-07
-2.09467e-06 2.39896e-07 0.000117972
0.0015805 0.000252396 1.77234e-05
0.000252396 0.000458922 -1.06912e-06
1.77234e-05 -1.06912e-06 0.000270255
0.000326651 0.000135142 -2.01191e-06
0.000135142 -0.00015376 -1.687e-06
-2.01191e-06 -1.687e-06 -0.000300939
0.000514271 0.000100751 -1.03107e-06
0.000100751 -2.01761e-05 -1.71882e-06
-1.03107e-06 -1.71882e-06 -0.000146752
0.000242656 0.000134086 4.10257e-07
0.000134086 -0.000218761 1.09447e-06
4.10257e-07 1.09447e-06 -0.000371059
0.00101735 0.000192088 -1.08542e-06
0.000192088 0.000165696 3.14651e-07
-1.08542e-06 3.14651e-07 5.04373e-05
0.00028235 0.00018856 2.26789e-06
0.00018856 -0.000340677 -6.73176e-07
2.26789e-06 -6.73176e-07 -0.000488304
0.00322614 0.000462566 -3.49751e-06
0.000462566 0.00106925 -4.45852e-06
-3.49751e-06 -4.45852e-06 0.000901585
0.00191536 0.000435015 -3.76794e-06
0.000435015 0.000249326 1.98638e-06
-3.76794e-06 1.98638e-06 8.43132e-05
0.00160106 0.00037763 3.97699e-06
0.00037763 0.000211877 -3.2111e-06
3.97699e-06 -3.2111e-06 4.27864e-05
0.000497348 0.000145262 -2.57156e-06
0.000145262 -4.86864e-05 5.46306e-06
-2.57156e-06 5.46306e-06 -0.00014578
0.00426205 0.000375642 -9.82272e-06
0.000375642 0.000153999 1.04266e-05
-9.82272e-06 1.04266e-05 5.50748e-05
0.00726658 0.000263449 4.26981e-05
0.000263449 0.00148943 3.16757e-05
4.26981e-05 3.16757e-05 0.000120748
0.00583573 -0.000945381 3.31189e-05
-0.000945381 0.0031739 -5.89439e-05
3.31189e-05 -5.89439e-05 0.00284184
0.00441411 0.000737596 0.000287711
0.000737596 0.000728682 0.000103015
0.000287711 0.000103015 -0.00195459
0.0016365 0.000505883 1.38364e-05
0.000505883 7.05017e-05 2.22821e-05
1.38364e-05 2.22821e-05 -2.30521e-05
0.00305869 0.00074082 -7.14707e-05
0.00074082 -1.20398e-05 -2.33254e-05
-7.14707e-05 -2.33254e-05 -0.000330263
0.00330394 0.000631457 4.81619e-05
0.000631457 0.000578061 2.32051e-05
4.81619e-05 2.32051e-05 0.00058451
0.00263687 0.00057835 2.97435e-06
0.00057835 0.00054478 8.00486e-06
2.97435e-06 8.00486e-06 0.000397537
0.000665416 0.00030833 -4.73151e-06
0.00030833 -6.45375e-05 1.18881e-05
-4.73151e-06 1.18881e-05 -0.000237731
0.00282036 0.000690693 -9.51652e-05
0.000690693 0.000299778 -3.72928e-05
-9.51652e-05 -3.72928e-05 0.000142356
0.00316865 -0.000182928 -0.00010791
-0.000182928 0.000513132 6.2282e-06
-0.00010791 6.2282e-06 0.000177773
0.00963712 -0.000199066 4.76481e-06
-0.000199066 0.00298591 -3.81105e-06
4.76481e-06 -3.81105e-06 0.00231218
-0.00803123 -0.000315645 0.000244465
-0.000315645 -0.00433347 -4.77431e-06
0.000244465 -4.77431e-06 -0.00413989
0.00126066 -0.000357366 -3.63274e-05
-0.000357366 -0.000130818 8.56581e-06
-3.63274e-05 8.56581e-06 -0.000206181
0.00590087 -0.000613265 9.78905e-05
-0.000613265 0.0010915 1.24646e-05
9.78905e-05 1.24646e-05 0.000443263
0.00142717 -0.000392506 6.03262e-05
-0.000392506 -0.00157394 5.51568e-05
6.03262e-05 5.51568e-05 -0.00259903
0.00132823 -0.000247867 1.91138e-05
-0.000247867 -3.00202e-05 -6.42057e-07
1.91138e-05 -6.42057e-07 -0.000211277
0.00231661 -5.42332e-05 -2.20678e-06
-5.42332e-05 -0.000269723 6.66971e-06
-2.20678e-06 6.66971e-06 -0.000497395
0.00380878 -0.000268882 1.5565e-05
-0.000268882 0.000987398 -5.48008e-06
1.5565e-05 -5.48008e-06 0.000973409
0.00331283 -4.75027e-05 6.57169e-05
-4.75027e-05 0.000752986 -2.41292e-06
6.57169e-05 -2.41292e-06 0.000731419
0.000255219 -0.000298657 -7.45238e-06
-0.000298657 -0.000813157 5.26241e-06
-7.45238e-06 5.26241e-06 -0.00080723
0.00173207 -0.000274893 -4.2313e-07
-0.000274893 -0.000141484 8.58746e-07
-4.2313e-07 8.58746e-07 -0.00012152
0.00170575 -0.000165739 8.96457e-06
-0.000165739 -0.00014871 -5.08819e-07
8.96457e-06 -5.08819e-07 -0.00010344
0.0015738 -0.000321566 3.61298e-06
-0.000321566 -7.34242e-05 -2.68323e-07
3.61298e-06 -2.68323e-07 -0.000176542
0.00191243 -0.000253408 2.12408e-06
-0.000253408 2.88784e-05 9.42951e-07
2.12408e-06 9.42951e-07 -2.41459e-05
0.00184564 -0.000188428 1.12918e-06
-0.000188428 5.16693e-05 1.74177e-06
1.12918e-06 1.74177e-06 1.03038e-05
0.00182121 -0.000278145 6.66603e-06
-0.000278145 5.91143e-05 3.34885e-06
6.66603e-06 3.34885e-06 -4.85673e-05
0.0018403 -0.000233078 1.08816e-06
-0.000233078 7.58478e-05 4.28194e-07
1.08816e-06 4.28194e-07 -5.11611e-06
0.00198664 -0.000199911 -6.59145e-07
-0.000199911 0.000211996 1.04e-06
-6.59145e-07 1.04e-06 0.000132737
0.00168735 -0.000231435 2.07008e-06
-0.000231435 4.91417e-05 3.97547e-06
2.07008e-06 3.97547e-06 -5.63191e-05
0.00179083 -0.000218654 1.34855e-08
-0.000218654 0.000134748 5.47599e-07
1.34855e-08 5.47599e-07 3.88753e-05
0.00165302 -0.000204305 4.01983e-06
-0.000204305 8.69693e-05 -1.96543e-06
4.01983e-06 -1.96543e-06 -2.2699e-05
0.00166593 -0.000211318 -3.17568e-06
-0.000211318 7.68686e-05 7.20625e-06
-3.17568e-06 7.20625e-06 -2.98185e-05
0.00181483 -0.00021371 -1.84842e-06
-0.00021371 0.000201281 4.98342e-08
-1.84842e-06 4.98342e-08 7.84144e-05
0.00170309 -0.000198712 8.16121e-07
-0.000198712 0.000185294 -1.76169e-06
8.16121e-07 -1.76169e-06 4.10012e-05
0.00171472 -0.000228601 1.65894e-06
-0.000228601 0.000165215 3.34453e-06
1.65894e-06 3.34453e-06 1.41517e-05
0.00167748 -0.000219029 7.0029e-07
-0.000219029 0.000188157 -7.39956e-07
7.0029e-07 -7.39956e-07 2.62622e-05
0.00162187 -0.000202223 -3.0948e-06
-0.000202223 0.000214093 -3.7839e-07
-3.0948e-06 -3.7839e-07 5.37704e-05
0.00100731 -0.000179698 -8.71235e-06
-0.000179698 -4.76827e-05 1.9092e-06
-8.71235e-06 1.9092e-06 -0.000209657
0.00152759 -0.000227661 -1.19381e-06
-0.000227661 0.000183622 8.33656e-09
-1.19381e-06 8.33656e-09 6.83357e-06
0.00171086 -0.000256195 4.3314e-06
-0.000256195 0.000237768 -1.43714e-07
4.3314e-06 -1.43714e-07 4.95887e-05
0.000932775 -0.000150618 -7.68968e-06
-0.000150618 5.12705e-05 6.01021e-06
-7.68968e-06 6.01021e-06 -8.86144e-05
0.00116802 -0.000201471 4.37389e-07
-0.000201471 0.000111537 8.53057e-07
4.37389e-07 8.53057e-07 -6.38022e-05
0.0011961 -0.000223943 2.61931e-06
-0.000223943 5.4098e-05 -5.50391e-07
2.61931e-06 -5.50391e-07 -0.000134586
0.000461989 -5.69424e-05 -1.11543e-05
-5.69424e-05 -0.000115103 1.06923e-05
-1.11543e-05 1.06923e-05 -0.000176811
0.000870027 -0.000136614 1.47562e-07
-0.000136614 7.82118e-05 -9.20933e-08
1.47562e-07 -9.20933e-08 -5.65117e-05
0.00112587 -0.000195736 3.53777e-06
-0.000195736 0.000171291 -2.61654e-06
3.53777e-06 -2.61654e-06 -4.71687e-06
0.00371656 0.000151467 -8.48351e-05
0.000151467 0.00180769 2.70736e-06
-8.48351e-05 2.70736e-06 0.00179796
0.000594822 -3.21906e-05 4.69135e-07
-3.21906e-05 -2.74863e-05 -2.4612e-07
4.69135e-07 -2.4612e-07 -8.04627e-05
0.000905656 -0.000127294 5.30265e-06
-0.000127294 0.00013622 -4.03027e-06
5.30265e-06 -4.03027e-06 1.03572e-05
0.00329536 0.000127568 5.8241e-06
0.000127568 0.00156186 2.67282e-07
5.8241e-06 2.67282e-07 0.00155846
0.000673244 6.42686e-06 6.13478e-06
6.42686e-06 3.1733e-05 -7.88493e-06
6.13478e-06 -7.88493e-06 -1.1827e-05
0.00291853 0.000108238 6.99457e-05
0.000108238 0.00134146 -2.51355e-06
6.99457e-05 -2.51355e-06 0.00134344
0.00118653 0.000205861 -8.27322e-07
0.000205861 0.000244396 -5.62181e-06
-8.27322e-07 -5.62181e-06 6.79819e-05
0.00121137 0.000193264 4.94109e-07
0.000193264 0.000309209 1.40862e-07
4.94109e-07 1.40862e-07 0.00015802
0.000782862 0.000110842 -1.49409e-06
0.000110842 7.27316e-05 -2.75008e-06
-1.49409e-06 -2.75008e-06 -5.74388e-05
0.000714989 0.000139295 -6.69699e-08
0.000139295 6.41814e-05 3.32316e-07
-6.69699e-08 3.32316e-07 -5.92008e-05
0.000601017 3.49349e-05 -4.45938e-07
3.49349e-05 -1.08274e-05 -2.10507e-07
-4.45938e-07 -2.10507e-07 -0.000121872
0.000734694 4.30113e-05 -2.4576e-06
4.30113e-05 6.59306e-05 -3.22567e-06
-2.4576e-06 -3.22567e-06 -2.71593e-05
0.000563844 -2.68196e-05 5.07391e-07
-2.68196e-05 -3.32992e-05 1.57723e-06
5.07391e-07 1.57723e-06 -0.000130075
0.000650781 -1.79546e-05 3.07426e-07
-1.79546e-05 1.14723e-05 -2.92483e-07
3.07426e-07 -2.92483e-07 -6.37898e-05
0.000584763 -5.74189e-05 -4.71746e-07
-5.74189e-05 -1.43955e-05 -6.54079e-06
-4.71746e-07 -6.54079e-06 -4.82934e-05
0.000620335 -2.54217e-05 1.44584e-06
-2.54217e-05 -9.67741e-06 3.29085e-06
1.44584e-06 3.29085e-06 -7.64202e-05
0.000560993 -5.77667e-05 2.07721e-07
-5.77667e-05 -3.54249e-05 -3.66203e-08
2.07721e-07 -3.66203e-08 -6.5172e-05
0.00267341 -0.000105735 -4.72034e-05
-0.000105735 0.00119233 -2.63433e-06
-4.72034e-05 -2.63433e-06 0.00119549
0.00261745 -9.51259e-05 -2.53258e-06
-9.51259e-05 0.00115301 2.54489e-07
-2.53258e-06 2.54489e-07 0.00115828
0.000559679 -4.76622e-05 1.08157e-06
-4.76622e-05 -4.62726e-05 5.3106e-06
1.08157e-06 5.3106e-06 -7.19362e-05
0.00255405 -8.34234e-05 3.28997e-05
-8.34234e-05 0.00110902 3.87967e-06
3.28997e-05 3.87967e-06 0.00111664
0.00316446 -1.85576e-05 -1.84014e-05
-1.85576e-05 5.30435e-06 2.6086e-05
-1.84014e-05 2.6086e-05 1.01064e-06
0.00171546 -0.000448019 3.71018e-05
-0.000448019 -0.00160366 1.85363e-05
3.71018e-05 1.85363e-05 -0.00262136
0.00519362 -0.000566415 -3.50939e-05
-0.000566415 0.00208648 -5.16331e-05
-3.50939e-05 -5.16331e-05 0.00224085
0.00165167 0.00027368 9.03322e-06
0.00027368 0.00035641 5.21626e-06
9.03322e-06 5.21626e-06 0.000151891
0.00134484 0.000166807 2.55788e-06
0.000166807 0.000443519 1.25382e-06
2.55788e-06 1.25382e-06 0.000302891
0.000951016 0.000183511 -1.62578e-06
0.000183511 0.000176056 2.31973e-06
-1.62578e-06 2.31973e-06 2.4497e-05
0.000709555 0.000169589 8.30555e-07
0.000169589 5.79768e-05 1.20097e-06
8.30555e-07 1.20097e-06 -9.67198e-05
0.00115703 0.000220086 -8.1663e-08
0.000220086 0.00022442 -3.40574e-06
-8.1663e-08 -3.40574e-06 3.80173e-05
0.000797154 0.000212297 9.2774e-07
0.000212297 -4.07784e-05 -3.3381e-07
9.2774e-07 -3.3381e-07 -0.000197966
0.000920713 0.000195362 -1.34692e-06
0.000195362 0.000151787 -1.03826e-06
-1.34692e-06 -1.03826e-06 -1.53347e-05
0.00087257 0.000184439 6.60558e-07
0.000184439 9.36156e-05 5.40825e-06
6.60558e-07 5.40825e-06 -2.57202e-05
0.00112241 0.000254277 1.18923e-06
0.000254277 0.000118497 -3.37419e-07
1.18923e-06 -3.37419e-07 -3.61357e-05
0.00234415 0.000398211 2.15559e-06
0.000398211 0.000592781 6.56687e-06
2.15559e-06 6.56687e-06 0.000430956
0.00168634 0.000382922 -1.40537e-06
0.000382922 0.000129746 -5.19702e-07
-1.40537e-06 -5.19702e-07 -4.289e-05
0.00139976 0.000338475 7.07941e-06
0.000338475 -1.94995e-05 6.38311e-06
7.07941e-06 6.38311e-06 -0.000130908
0.00107828 0.000379094 -1.59018e-06
0.000379094 -0.000196202 -2.82862e-06
-1.59018e-06 -2.82862e-06 -0.000359118
0.000574215 0.000295274 1.02563e-06
0.000295274 -0.000313118 3.58079e-06
1.02563e-06 3.58079e-06 -0.000462149
0.000767858 0.000238277 1.62778e-05
0.000238277 -0.000347604 1.76309e-05
1.62778e-05 1.76309e-05 -0.000340491
0.00504732 0.000520759 -3.34737e-05
0.000520759 0.000382559 -4.02445e-06
-3.34737e-05 -4.02445e-06 0.000173605
0.00190512 7.90597e-05 0.000158229
7.90597e-05 -0.00118007 2.09595e-05
0.000158229 2.09595e-05 -0.00257702
0.00155436 0.000626331 1.89038e-05
0.000626331 -0.000626252 -5.12617e-06
1.89038e-05 -5.12617e-06 -0.00104107
0.00210648 0.000496699 -2.43359e-05
0.000496699 0.000222955 -2.28961e-06
-2.43359e-05 -2.28961e-06 0.000199559
0.00167512 0.000483379 -4.30159e-05
0.000483379 9.9089e-05 -2.25612e-05
-4.30159e-05 -2.25612e-05 -5.18506e-05
0.00233296 -0.000148019 1.40083e-05
-0.000148019 0.00018261 1.6139e-06
1.40083e-05 1.6139e-06 0.000128159
0.00127935 -6.06368e-07 -8.67014e-06
-6.06368e-07 -0.000373611 3.73377e-06
-8.67014e-06 3.73377e-06 -0.000556374
0.000637879 0.000495081 7.36061e-05
0.000495081 -0.00234396 -2.4262e-05
7.36061e-05 -2.4262e-05 -0.00299548
0.000747149 -0.000178025 -1.12766e-05
-0.000178025 -0.000357474 2.20322e-05
-1.12766e-05 2.20322e-05 -0.000416691
0.00292013 -8.10479e-05 -1.36648e-05
-8.10479e-05 -0.000114681 3.0877e-05
-1.36648e-05 3.0877e-05 -0.00043525
0.00182992 -0.000183415 -6.66371e-06
-0.000183415 -2.88138e-05 2.34183e-06
-6.66371e-06 2.34183e-06 -1.16152e-05
0.00259829 -7.98227e-05 -6.62958e-06
-7.98227e-05 0.000361131 -2.49119e-06
-6.62958e-06 -2.49119e-06 0.000316043
0.00145579 -0.000104847 2.32011e-05
-0.000104847 -0.000267488 -8.18893e-07
2.32011e-05 -8.18893e-07 -0.000230375
0.00299631 -4.8875e-05 2.21162e-05
-4.8875e-05 0.000812598 1.14905e-06
2.21162e-05 1.14905e-06 0.000769054
0.00158703 -0.000279026 -9.27883e-06
-0.000279026 -0.000215543 4.6862e-06
-9.27883e-06 4.6862e-06 -0.000207645
0.00174953 -0.000175566 1.66599e-06
-0.000175566 -0.000137541 1.66568e-06
1.66599e-06 1.66568e-06 -0.000101904
0.00185072 -0.000183353 8.5115e-07
-0.000183353 -3.23515e-06 9.13677e-07
8.5115e-07 9.13677e-07 1.25052e-06
0.00175146 -0.000247587 3.43515e-06
-0.000247587 -4.75309e-05 8.8779e-07
3.43515e-06 8.8779e-07 -0.000103848
0.00180736 -0.000198784 4.77539e-07
-0.000198784 2.43949e-05 1.48372e-07
4.77539e-07 1.48372e-07 -2.22783e-05
0.00186428 -0.000187642 4.43823e-07
-0.000187642 0.000111695 1.26376e-06
4.43823e-07 1.26376e-06 4.79462e-05
0.00192243 -0.000235504 1.09051e-06
-0.000235504 0.000128212 1.04506e-06
1.09051e-06 1.04506e-06 4.68459e-05
0.0018794 -0.000203871 -9.74803e-07
-0.000203871 0.000150767 5.89315e-08
-9.74803e-07 5.89315e-08 6.94572e-05
0.00167266 -0.000182841 1.93619e-06
-0.000182841 7.60415e-05 -2.25482e-07
1.93619e-06 -2.25482e-07 -2.07526e-05
0.00162181 -0.000212589 -2.0026e-06
-0.000212589 4.41521e-05 1.75355e-06
-2.0026e-06 1.75355e-06 -5.27191e-05
0.00166947 -0.000204948 4.60877e-07
-0.000204948 9.96068e-05 -5.83621e-07
4.60877e-07 -5.83621e-07 -1.02086e-05
0.00162201 -0.000187782 2.03455e-06
-0.000187782 0.000109758 -1.65185e-06
2.03455e-06 -1.65185e-06 -2.23979e-05
0.00186504 -0.000214051 -4.83655e-06
-0.000214051 0.000229263 4.8618e-06
-4.83655e-06 4.8618e-06 0.000109482
0.00174877 -0.00019934 -7.9793e-07
-0.00019934 0.000208482 -1.32845e-08
-7.9793e-07 -1.32845e-08 6.67507e-05
0.00150129 -0.000173037 -2.28747e-06
-0.000173037 0.000129717 -1.449e-07
-2.28747e-06 -1.449e-07 -2.21849e-05
0.00172851 -0.000221595 2.96141e-06
-0.000221595 0.000218131 1.11583e-06
2.96141e-06 1.11583e-06 5.52485e-05
0.00154314 -0.000198603 8.99871e-07
-0.000198603 0.000168383 -6.71308e-07
8.99871e-07 -6.71308e-07 7.07295e-06
0.00126939 -0.000169336 -7.04125e-06
-0.000169336 7.65973e-05 2.30826e-06
-7.04125e-06 2.30826e-06 -7.42923e-05
0.00101254 -0.000153842 -1.03589e-05
-0.000153842 4.06802e-05 5.066e-06
-1.03589e-05 5.066e-06 -9.40683e-05
0.00110796 -0.000184794 -2.08886e-06
-0.000184794 1.17917e-05 3.79059e-07
-2.08886e-06 3.79059e-07 -0.000149942
0.00172028 -0.000240938 3.90352e-06
-0.000240938 0.000296078 -9.27498e-07
3.90352e-06 -9.27498e-07 0.000117539
0.000536222 -0.00013504 -1.75974e-05
-0.00013504 -9.08026e-05 1.20719e-05
-1.75974e-05 1.20719e-05 -0.000165604
0.000914358 -0.000151692 7.60726e-07
-0.000151692 4.29578e-05 5.29574e-07
7.60726e-07 5.29574e-07 -9.72886e-05
0.00106367 -0.000192255 6.23971e-06
-0.000192255 5.21434e-05 -1.43735e-06
6.23971e-06 -1.43735e-06 -0.000121331
0.00421559 0.000166666 -0.000103975
0.000166666 0.00210042 4.46816e-06
-0.000103975 4.46816e-06 0.00208476
0.00061622 -9.48762e-05 5.76762e-07
-9.48762e-05 -2.88036e-05 -8.61136e-08
5.76762e-07 -8.61136e-08 -9.5304e-05
0.00093003 -0.000146717 6.53538e-06
-0.000146717 0.000112922 -5.31674e-06
6.53538e-06 -5.31674e-06 -2.36472e-05
0.00385008 0.000132886 4.63178e-06
0.000132886 0.00188058 5.09203e-07
4.63178e-06 5.09203e-07 0.00187407
0.000722935 -4.99981e-05 1.08355e-05
-4.99981e-05 4.36554e-05 -9.53711e-06
1.08355e-05 -9.53711e-06 -1.15739e-05
0.00345052 0.000105419 9.87087e-05
0.000105419 0.00164576 -4.16568e-06
9.87087e-05 -4.16568e-06 0.00164642
0.00110606 0.000214668 -4.53323e-06
0.000214668 8.75676e-05 -7.30203e-07
-4.53323e-06 -7.30203e-07 -0.000104105
0.00109798 0.000198493 -6.61988e-09
0.000198493 0.000198129 -1.73749e-06
-6.61988e-09 -1.73749e-06 2.27065e-05
0.00112428 0.000179878 -1.42675e-06
0.000179878 0.000233724 -3.43895e-06
-1.42675e-06 -3.43895e-06 7.63318e-05
0.0014421 0.000211822 -6.08972e-07
0.000211822 0.000442577 9.56796e-07
-6.08972e-07 9.56796e-07 0.000288655
0.000867144 0.000119987 -1.13509e-06
0.000119987 0.000119869 -1.15554e-06
-1.13509e-06 -1.15554e-06 -1.05426e-05
0.000827966 7.95498e-05 -3.38217e-06
7.95498e-05 0.000115718 -2.96248e-06
-3.38217e-06 -2.96248e-06 8.24746e-06
0.000630944 5.73241e-05 2.59185e-07
5.73241e-05 3.76763e-06 3.62433e-07
2.59185e-07 3.62433e-07 -0.000109323
0.000667632 1.80646e-06 -4.72333e-07
1.80646e-06 2.42295e-05 -7.25669e-08
-4.72333e-07 -7.25669e-08 -6.34941e-05
0.00058531 -4.45957e-05 -2.41483e-06
-4.45957e-05 -1.27523e-05 -6.97709e-06
-2.41483e-06 -6.97709e-06 -5.14611e-05
0.000603602 -3.31748e-05 1.12878e-06
-3.31748e-05 -1.33474e-05 3.57114e-06
1.12878e-06 3.57114e-06 -8.85086e-05
0.000547506 -6.12639e-05 4.00574e-07
-6.12639e-05 -3.48977e-05 -1.67103e-07
4.00574e-07 -1.67103e-07 -6.91644e-05
0.00278792 -0.000115094 -5.65685e-05
-0.000115094 0.00126392 -2.15784e-06
-5.65685e-05 -2.15784e-06 0.00126486
0.000543123 -5.62094e-05 7.99502e-07
-5.62094e-05 -4.66297e-05 5.73426e-06
7.99502e-07 5.73426e-06 -7.58387e-05
0.00266088 -0.000106057 -1.90222e-06
-0.000106057 0.00118491 2.34076e-07
-1.90222e-06 2.34076e-07 0.00118783
0.00261477 -9.45894e-05 3.89189e-05
-9.45894e-05 0.00115109 3.45487e-06
3.89189e-05 3.45487e-06 0.00115634
0.000474718 2.79303e-05 9.37667e-06
2.79303e-05 -0.000627714 8.43141e-06
9.37667e-06 8.43141e-06 -0.000623807
0.00416487 3.78227e-05 3.7294e-05
3.78227e-05 0.000355821 9.01224e-06
3.7294e-05 9.01224e-06 0.000143867
0.0091366 0.000444923 -8.37801e-05
0.000444923 0.00277312 -4.52364e-05
-8.37801e-05 -4.52364e-05 0.00165642
0.000254461 0.000170277 1.3436e-06
0.000170277 -0.000461877 2.03763e-06
1.3436e-06 2.03763e-06 -0.000628328
0.00163787 0.00027502 1.87991e-06
0.00027502 0.000200109 2.15712e-06
1.87991e-06 2.15712e-06 2.59077e-05
0.00118335 0.00024176 -2.66469e-06
0.00024176 9.20965e-05 2.82685e-07
-2.66469e-06 2.82685e-07 -0.00010649
0.00104779 0.000200025 -2.90063e-07
0.000200025 0.000244359 9.7085e-07
-2.90063e-07 9.7085e-07 8.28402e-05
0.000708758 0.000184932 -1.33377e-06
0.000184932 -2.52291e-05 2.10565e-08
-1.33377e-06 2.10565e-08 -0.000208972
0.00125897 0.000253273 6.34288e-06
0.000253273 0.00019941 1.3203e-06
6.34288e-06 1.3203e-06 3.40838e-05
0.00243849 0.000401908 -8.59928e-06
0.000401908 0.000554503 -4.0069e-06
-8.59928e-06 -4.0069e-06 0.000380806
0.00194712 0.000319051 -1.0711e-06
0.000319051 0.000569257 1.77209e-06
-1.0711e-06 1.77209e-06 0.0004077
0.00136543 0.000327833 9.7215e-06
0.000327833 6.30272e-05 1.66443e-05
9.7215e-06 1.66443e-05 -9.25191e-05
0.00198514 0.000398279 -1.75375e-06
0.000398279 0.000297971 1.00525e-06
-1.75375e-06 1.00525e-06 0.00012708
0.00212972 0.000374411 -1.17486e-05
0.000374411 0.00028033 1.40818e-06
-1.17486e-05 1.40818e-06 0.000133245
0.000780875 0.000163461 1.4068e-05
0.000163461 -0.000418995 4.81152e-06
1.4068e-05 4.81152e-06 -0.000477343
0.00128004 0.000325317 8.52507e-06
0.000325317 -7.70782e-05 8.65851e-07
8.52507e-06 8.65851e-07 -0.000190556
0.00112334 0.00037669 -6.80696e-06
0.00037669 -0.000182771 -7.11691e-06
-6.80696e-06 -7.11691e-06 -0.00034662
0.00135392 0.000236916 -2.1297e-06
0.000236916 -5.57812e-05 3.86786e-06
-2.1297e-06 3.86786e-06 -6.1638e-05
0.00484928 0.00030418 3.42798e-05
0.00030418 0.000198281 -7.70255e-06
3.42798e-05 -7.70255e-06 -8.9863e-05
0.00181463 0.000419609 8.60205e-06
0.000419609 0.000289148 -1.82082e-05
8.60205e-06 -1.82082e-05 0.000263239
0.00134457 -3.61005e-05 2.24389e-05
-3.61005e-05 -6.27807e-05 3.52287e-06
2.24389e-05 3.52287e-06 -9.05515e-05
0.00204298 -7.95577e-05 -1.66775e-05
-7.95577e-05 8.4528e-05 -7.20935e-07
-1.66775e-05 -7.20935e-07 2.26899e-05
0.00138636 0.000143917 3.61385e-05
0.000143917 -0.000634762 -9.18107e-06
3.61385e-05 -9.18107e-06 -0.000885712
0.00058887 -0.000147503 -2.43962e-05
-0.000147503 -0.000658731 1.67892e-05
-2.43962e-05 1.67892e-05 -0.000619466
0.00267797 -0.000131792 -8.01962e-05
-0.000131792 0.000379974 3.22353e-06
-8.01962e-05 3.22353e-06 0.00033771
0.00169701 -0.000133205 1.47405e-06
-0.000133205 -0.000127314 -8.4355e-07
1.47405e-06 -8.4355e-07 -8.50245e-05
0.00230612 -5.71648e-05 -5.95043e-06
-5.71648e-05 0.000378626 3.52354e-07
-5.95043e-06 3.52354e-07 0.000332896
0.00195383 -0.000155293 3.64356e-06
-0.000155293 1.99505e-05 6.40976e-07
3.64356e-06 6.40976e-07 1.26859e-05
0.00212777 -2.66201e-05 4.0973e-06
-2.66201e-05 0.000170776 4.2395e-07
4.0973e-06 4.2395e-07 0.000129002
0.00184863 -0.000187184 -2.70112e-06
-0.000187184 -0.000100571 1.36514e-06
-2.70112e-06 1.36514e-06 -7.10697e-05
0.00185482 -0.000179381 -1.76848e-06
-0.000179381 3.7693e-06 -7.95715e-08
-1.76848e-06 -7.95715e-08 4.98559e-06
0.0019762 -0.000159579 -1.15665e-06
-0.000159579 8.92118e-05 8.40641e-07
-1.15665e-06 8.40641e-07 4.82743e-05
0.00181682 -0.000209622 -1.30973e-06
-0.000209622 2.29581e-05 -1.28195e-06
-1.30973e-06 -1.28195e-06 -2.84146e-05
0.00178592 -0.000183587 6.22356e-08
-0.000183587 7.20943e-05 -2.86571e-07
6.22356e-08 -2.86571e-07 5.06536e-06
0.00168887 -0.000161235 7.37456e-07
-0.000161235 4.20121e-05 4.10807e-07
7.37456e-07 4.10807e-07 -4.18882e-05
0.0017713 -0.00020707 -3.4433e-06
-0.00020707 8.93601e-05 -2.93117e-07
-3.4433e-06 -2.93117e-07 6.23511e-06
0.00169039 -0.000183295 2.12158e-07
-0.000183295 8.74796e-05 -2.27471e-07
2.12158e-07 -2.27471e-07 -9.27992e-06
0.00166225 -0.000169562 2.12843e-06
-0.000169562 9.69329e-05 -5.98174e-07
2.12843e-06 -5.98174e-07 -2.4878e-05
0.00168648 -0.000205586 -2.43888e-06
-0.000205586 0.000112519 7.24531e-07
-2.43888e-06 7.24531e-07 2.56076e-06
0.00164464 -0.000187931 -8.70989e-08
-0.000187931 0.000123206 -3.28672e-07
-8.70989e-08 -3.28672e-07 -8.72281e-06
0.00150145 -0.000160334 -1.33385e-06
-0.000160334 0.000112763 -1.01916e-07
-1.33385e-06 -1.01916e-07 -3.37242e-05
0.00179271 -0.000200028 -1.29805e-06
-0.000200028 0.000230709 2.69e-06
-1.29805e-06 2.69e-06 9.15205e-05
0.00150047 -0.000173522 -4.86275e-07
-0.000173522 0.000127937 -1.14159e-07
-4.86275e-07 -1.14159e-07 -2.33121e-05
0.00128649 -0.000150913 -6.68012e-06
-0.000150913 7.3945e-05 2.06466e-06
-6.68012e-06 2.06466e-06 -7.24123e-05
0.00147867 -0.000195961 4.92895e-06
-0.000195961 0.000131016 -7.53984e-07
4.92895e-06 -7.53984e-07 -3.14387e-05
0.0012009 -0.000165887 5.91152e-08
-0.000165887 3.79264e-05 -1.78366e-08
5.91152e-08 -1.78366e-08 -0.000113417
0.00103087 -0.000139667 -1.12928e-05
-0.000139667 2.43543e-05 4.91491e-06
-1.12928e-05 4.91491e-06 -0.00010203
0.000488351 -0.000146156 -1.90211e-05
-0.000146156 -0.00013581 1.18068e-05
-1.90211e-05 1.18068e-05 -0.000214863
0.000976314 -0.000151457 2.50828e-07
-0.000151457 2.0948e-05 1.37416e-07
2.50828e-07 1.37416e-07 -0.000113554
0.00118669 -0.000188406 4.9263e-06
-0.000188406 5.92224e-05 -1.39829e-06
4.9263e-06 -1.39829e-06 -0.000102143
0.00471627 0.000187737 -0.00011195
0.000187737 0.00239851 7.20119e-06
-0.00011195 7.20119e-06 0.0023741
0.000613115 -0.000125036 -8.92815e-07
-0.000125036 -4.8856e-05 4.36221e-07
-8.92815e-07 4.36221e-07 -0.00012484
0.000907482 -0.000154672 8.4307e-06
-0.000154672 4.24343e-05 -4.63959e-06
8.4307e-06 -4.63959e-06 -9.84779e-05
0.00439593 0.000151845 9.11207e-06
0.000151845 0.0022012 9.47227e-07
9.11207e-06 9.47227e-07 0.00218716
0.000774331 -9.71854e-05 1.48905e-05
-9.71854e-05 5.57204e-05 -1.13961e-05
1.48905e-05 -1.13961e-05 -1.1944e-05
0.00399662 0.00011537 0.00011707
0.00011537 0.00196027 -5.4401e-06
0.00011707 -5.4401e-06 0.00195628
0.00121679 0.000220613 -5.02617e-06
0.000220613 4.09986e-05 1.87853e-06
-5.02617e-06 1.87853e-06 -0.000138836
0.000991268 0.000206498 -1.41091e-06
0.000206498 2.08712e-05 2.28713e-06
-1.41091e-06 2.28713e-06 -0.000170076
0.00105939 0.000187176 -4.70073e-06
0.000187176 0.000118065 -1.72284e-06
-4.70073e-06 -1.72284e-06 -5.47826e-05
0.00102932 0.000192934 -2.96833e-07
0.000192934 0.000162871 1.48838e-06
-2.96833e-07 1.48838e-06 -1.17906e-05
0.00100282 0.000169098 -4.76319e-07
0.000169098 0.000167557 -8.27323e-07
-4.76319e-07 -8.27323e-07 1.19748e-05
0.000954763 0.000124683 -4.9979e-06
0.000124683 0.000170411 -4.2988e-06
-4.9979e-06 -4.2988e-06 4.613e-05
0.000930429 0.000127041 2.1315e-07
0.000127041 0.000155212 -2.13531e-07
2.1315e-07 -2.13531e-07 2.47637e-05
0.00073776 5.97676e-05 -3.39354e-07
5.97676e-05 6.61983e-05 3.27341e-08
-3.39354e-07 3.27341e-08 -3.9383e-05
0.000646199 -5.45928e-06 -6.58433e-06
-5.45928e-06 1.55808e-05 -7.83681e-06
-6.58433e-06 -7.83681e-06 -3.06907e-05
0.000627749 -2.58184e-05 9.59804e-07
-2.58184e-05 1.83154e-06 3.47525e-06
9.59804e-07 3.47525e-06 -8.37553e-05
0.000534089 -5.28742e-05 2.98465e-09
-5.28742e-05 -3.99915e-05 -2.49928e-07
2.98465e-09 -2.49928e-07 -7.93417e-05
0.00302362 -0.000121633 -7.25299e-05
-0.000121633 0.001404 -1.98297e-06
-7.25299e-05 -1.98297e-06 0.00140286
0.000517161 -6.2728e-05 3.26227e-07
-6.2728e-05 -5.22787e-05 6.29166e-06
3.26227e-07 6.29166e-06 -8.64504e-05
0.00275112 -0.000117251 -1.83514e-06
-0.000117251 0.00124316 2.3199e-07
-1.83514e-06 2.3199e-07 0.00124341
0.00265299 -0.00010563 4.37506e-05
-0.00010563 0.0011801 2.94314e-06
4.37506e-05 2.94314e-06 0.00118299
0.00095156 4.88277e-05 1.16296e-05
4.88277e-05 -0.000336352 7.70227e-07
1.16296e-05 7.70227e-07 -0.000350957
0.00175656 -3.9038e-06 -5.17473e-06
-3.9038e-06 -0.00010165 1.96981e-06
-5.17473e-06 1.96981e-06 -0.000107692
0.00348778 -3.32825e-06 0.000101935
-3.32825e-06 -0.000107434 -3.91826e-06
0.000101935 -3.91826e-06 -0.000131261
0.00180478 0.000312145 -1.98399e-06
0.000312145 0.000222079 -1.02681e-08
-1.98399e-06 -1.02681e-08 5.92614e-05
0.000648407 0.00021307 1.13961e-06
0.00021307 -0.000245529 -9.70442e-07
1.13961e-06 -9.70442e-07 -0.000412938
0.00186024 0.000277363 -1.40156e-06
0.000277363 0.000233734 2.6624e-06
-1.40156e-06 2.6624e-06 7.54013e-05
0.00169345 0.000278398 1.11029e-06
0.000278398 0.000236908 4.76267e-07
1.11029e-06 4.76267e-07 6.14921e-05
0.000742781 0.000213222 -3.30509e-06
0.000213222 -0.00015763 2.34184e-06
-3.30509e-06 2.34184e-06 -0.000350788
0.0018648 0.000307624 -5.89155e-06
0.000307624 0.000137596 1.40755e-06
-5.89155e-06 1.40755e-06 -9.20376e-06
0.00168677 0.000291692 -7.25697e-07
0.000291692 0.000421845 1.07199e-07
-7.25697e-07 1.07199e-07 0.000248734
0.0021962 0.000383196 -1.97176e-07
0.000383196 0.000424702 -1.50479e-06
-1.97176e-07 -1.50479e-06 0.000250738
0.0018012 0.000211923 -9.18132e-06
0.000211923 3.14965e-05 5.13757e-07
-9.18132e-06 5.13757e-07 -6.9711e-05
0.0023321 0.000417781 5.27726e-06
0.000417781 0.000492977 3.75841e-06
5.27726e-06 3.75841e-06 0.000323076
0.00203548 0.000370643 -1.00352e-06
0.000370643 0.000227964 5.82596e-07
-1.00352e-06 5.82596e-07 7.91537e-05
0.00098863 0.000180684 1.17247e-06
0.000180684 -0.000282204 2.1284e-06
1.17247e-06 2.1284e-06 -0.000344042
0.00034685 0.000267385 -1.16397e-06
0.000267385 -0.000551924 -1.94948e-06
-1.16397e-06 -1.94948e-06 -0.000666152
0.00131655 0.000231018 -3.23734e-05
0.000231018 -8.02192e-05 -1.18909e-05
-3.23734e-05 -1.18909e-05 -9.67881e-05
0.00170685 3.0862e-05 2.63903e-06
3.0862e-05 -6.60573e-05 3.97606e-07
2.63903e-06 3.97606e-07 -0.000117144
0.00202505 -1.79565e-05 -1.4294e-07
-1.79565e-05 0.000333853 1.51338e-06
-1.4294e-07 1.51338e-06 0.000309378
0.00133137 -5.68424e-06 -5.53997e-05
-5.68424e-06 -0.000241579 -7.20876e-06
-5.53997e-05 -7.20876e-06 -0.000337852
0.00194402 -0.000159123 -2.14649e-05
-0.000159123 1.23554e-05 9.45847e-07
-2.14649e-05 9.45847e-07 5.93457e-05
0.00130873 -6.57077e-05 -8.98423e-06
-6.57077e-05 -0.000225963 -7.13718e-09
-8.98423e-06 -7.13718e-09 -0.000272428
0.0019232 -0.000147861 6.61115e-09
-0.000147861 8.67565e-06 -2.78601e-07
6.61115e-09 -2.78601e-07 2.96567e-06
0.00195291 -2.63885e-05 -1.60145e-06
-2.63885e-05 5.36857e-05 5.86172e-07
-1.60145e-06 5.86172e-07 1.60692e-05
0.001884 -5.79403e-05 -4.60294e-06
-5.79403e-05 1.36089e-05 -9.12809e-07
-4.60294e-06 -9.12809e-07 -2.57712e-05
0.00185069 -0.000174849 -2.5391e-06
-0.000174849 8.46196e-06 -1.17769e-06
-2.5391e-06 -1.17769e-06 5.48111e-06
0.00190676 -0.000153838 5.67823e-07
-0.000153838 5.92009e-05 -1.57383e-07
5.67823e-07 -1.57383e-07 1.4867e-05
0.00201045 -0.000122005 -3.25284e-07
-0.000122005 0.000160202 -3.29163e-07
-3.25284e-07 -3.29163e-07 9.51742e-05
0.00169903 -0.000179933 -1.13271e-06
-0.000179933 2.72388e-05 -1.1916e-06
-1.13271e-06 -1.1916e-06 -4.31381e-05
0.00166554 -0.000159266 1.9049e-07
-0.000159266 3.26186e-05 -8.47567e-08
1.9049e-07 -8.47567e-08 -5.24016e-05
0.00174312 -0.000137 1.66258e-06
-0.000137 0.000106886 -2.25481e-07
1.66258e-06 -2.25481e-07 -4.98788e-06
0.00171201 -0.000183798 -1.54148e-06
-0.000183798 0.000100833 -2.15226e-07
-1.54148e-06 -2.15226e-07 4.11667e-06
0.00169279 -0.000169127 3.99339e-08
-0.000169127 0.000115843 -1.79489e-07
3.99339e-08 -1.79489e-07 -5.74909e-06
0.00155705 -0.000143296 -5.21342e-07
-0.000143296 0.000116055 -1.43076e-07
-5.21342e-07 -1.43076e-07 -2.38291e-05
0.00166748 -0.00018813 -1.8433e-06
-0.00018813 0.000136712 8.9343e-07
-1.8433e-06 8.9343e-07 5.00491e-06
0.00151066 -0.000160399 -1.48699e-07
-0.000160399 0.000116186 -2.91981e-08
-1.48699e-07 -2.91981e-08 -2.99837e-05
0.00130879 -0.000134444 -5.7669e-06
-0.000134444 7.50274e-05 1.78504e-06
-5.7669e-06 1.78504e-06 -6.85025e-05
0.00149837 -0.000173872 1.96137e-06
-0.000173872 0.000125305 1.56235e-07
1.96137e-06 1.56235e-07 -2.52687e-05
0.00130583 -0.00015119 -1.52355e-07
-0.00015119 8.47667e-05 4.77917e-08
-1.52355e-07 4.77917e-08 -6.13971e-05
0.00105689 -0.000123944 -1.20705e-05
-0.000123944 2.59574e-05 4.9443e-06
-1.20705e-05 4.9443e-06 -9.64178e-05
0.00112351 -0.000161873 6.48726e-06
-0.000161873 -5.82245e-06 -1.9636e-06
6.48726e-06 -1.9636e-06 -0.00015755
0.00101857 -0.000137749 1.72215e-07
-0.000137749 1.70801e-05 -3.71569e-08
1.72215e-07 -3.71569e-08 -0.000109111
0.0023018 -7.45225e-05 -1.96393e-05
-7.45225e-05 0.000904072 7.33964e-06
-1.96393e-05 7.33964e-06 0.000834512
0.00149868 -2.60183e-05 -0.000145736
-2.60183e-05 0.000502387 1.45413e-05
-0.000145736 1.45413e-05 0.000483406
0.00149838 -0.000112445 -1.76795e-06
-0.000112445 0.000445692 -1.45949e-07
-1.76795e-06 -1.45949e-07 0.000368639
0.000948934 -0.000149689 1.01588e-05
-0.000149689 6.21413e-06 -4.60149e-06
1.01588e-05 -4.60149e-06 -0.000128136
0.00489756 0.000137169 6.46557e-06
0.000137169 0.00248921 5.15274e-07
6.46557e-06 5.15274e-07 0.00247332
0.000709624 -0.000146838 1.90272e-05
-0.000146838 3.77473e-06 -1.19636e-05
1.90272e-05 -1.19636e-05 -7.47728e-05
0.00454073 0.000114038 0.000138237
0.000114038 0.00227737 -8.15582e-06
0.000138237 -8.15582e-06 0.00226809
0.00185436 0.00022737 3.04462e-07
0.00022737 0.000208477 8.44665e-07
3.04462e-07 8.44665e-07 6.37527e-05
0.00159732 0.000234702 -2.61487e-07
0.000234702 0.000191026 2.21418e-06
-2.61487e-07 2.21418e-06 2.53677e-05
0.00134141 0.000230181 -5.02938e-07
0.000230181 0.000114596 -9.76654e-08
-5.02938e-07 -9.76654e-08 -6.54181e-05
0.00113386 0.000193103 -6.6627e-06
0.000193103 6.42915e-05 -7.81384e-07
-6.6627e-06 -7.81384e-07 -0.000104811
0.000859743 0.000197059 1.64167e-06
0.000197059 -5.50469e-05 3.69082e-06
1.64167e-06 3.69082e-06 -0.000245122
0.00109565 0.000189002 -1.22233e-06
0.000189002 0.000141278 8.68961e-07
-1.22233e-06 8.68961e-07 -3.21612e-05
0.00094942 0.000147042 -6.91598e-06
0.000147042 0.000116464 -4.47769e-06
-6.91598e-06 -4.47769e-06 -2.05889e-05
0.000885603 0.000158575 1.56795e-06
0.000158575 0.000103855 2.38759e-06
1.56795e-06 2.38759e-06 -4.99598e-05
0.000801684 0.000110025 -2.26045e-08
0.000110025 8.44759e-05 -3.1301e-07
-2.26045e-08 -3.1301e-07 -3.70932e-05
0.000767663 5.94575e-05 -1.11077e-05
5.94575e-05 7.36723e-05 -9.80351e-06
-1.11077e-05 -9.80351e-06 1.44835e-05
0.000667743 4.02833e-05 1.65817e-06
4.02833e-05 2.4759e-05 2.60663e-06
1.65817e-06 2.60663e-06 -7.68589e-05
0.000544343 -1.70887e-05 -5.66656e-07
-1.70887e-05 -4.02319e-05 -3.30473e-07
-5.66656e-07 -3.30473e-07 -8.55886e-05
0.00337334 -0.000120367 -9.5059e-05
-0.000120367 0.00160947 -2.88772e-06
-9.5059e-05 -2.88772e-06 0.00160651
0.000476219 -6.16013e-05 -1.61447e-08
-6.16013e-05 -6.97826e-05 7.09138e-06
-1.61447e-08 7.09138e-06 -0.000110411
0.00294239 -0.000129518 -2.40078e-06
-0.000129518 0.00135891 2.73556e-07
-2.40078e-06 2.73556e-07 0.00135581
0.00272595 -0.000117482 4.85917e-05
-0.000117482 0.00122869 2.38692e-06
4.85917e-05 2.38692e-06 0.00122882
0.00179125 0.000116185 -1.81296e-06
0.000116185 -2.40154e-05 9.10782e-07
-1.81296e-06 9.10782e-07 -9.25894e-05
0.00188888 4.18101e-05 9.78898e-06
4.18101e-05 0.000153126 3.63194e-07
9.78898e-06 3.63194e-07 0.000133896
0.00367235 -3.04985e-05 -6.20528e-05
-3.04985e-05 0.000750253 -1.47317e-05
-6.20528e-05 -1.47317e-05 0.00072424
0.00168233 0.00026213 -3.522e-06
0.00026213 5.27254e-05 1.00875e-06
-3.522e-06 1.00875e-06 -8.82251e-05
0.00162408 0.000298388 -1.35235e-06
0.000298388 0.000138431 -1.32113e-07
-1.35235e-06 -1.32113e-07 -2.3318e-05
0.00107824 0.000258034 -1.50929e-05
0.000258034 -8.05009e-06 -4.86462e-06
-1.50929e-05 -4.86462e-06 -0.000176608
0.00186007 0.000267164 2.09155e-06
0.000267164 0.000233901 5.74051e-07
2.09155e-06 5.74051e-07 7.74411e-05
0.00176422 0.000282441 -2.16089e-07
0.000282441 0.000282876 -2.79527e-06
-2.16089e-07 -2.79527e-06 0.000106242
0.00213767 0.000209656 -3.79115e-06
0.000209656 0.000234607 1.21073e-06
-3.79115e-06 1.21073e-06 0.000136601
0.00172768 0.000303229 -1.33812e-06
0.000303229 6.67825e-05 7.73181e-07
-1.33812e-06 7.73181e-07 -8.16589e-05
0.00201627 0.000368951 3.46386e-06
0.000368951 0.000326127 8.0358e-08
3.46386e-06 8.0358e-08 0.000151439
0.0018272 0.000213007 -8.41103e-07
0.000213007 4.76336e-05 6.78954e-08
-8.41103e-07 6.78954e-08 -5.36383e-05
0.00208104 0.000374844 1.49749e-05
0.000374844 0.000239502 1.20113e-06
1.49749e-05 1.20113e-06 8.87478e-05
0.00154244 0.000201568 -1.9181e-05
0.000201568 2.40611e-05 -2.78464e-06
-1.9181e-05 -2.78464e-06 -4.05122e-05
0.00196628 3.56196e-05 -4.48281e-06
3.56196e-05 8.63417e-05 -1.36235e-07
-4.48281e-06 -1.36235e-07 3.56638e-05
0.00189737 3.9384e-05 -1.54622e-06
3.9384e-05 4.19792e-05 1.18583e-07
-1.54622e-06 1.18583e-07 -9.23127e-06
0.00286403 7.83966e-07 -3.6184e-05
7.83966e-07 0.000822867 -5.84077e-06
-3.6184e-05 -5.84077e-06 0.000796485
0.00187279 -0.000140084 -8.90698e-06
-0.000140084 -1.82054e-05 -1.03747e-06
-8.90698e-06 -1.03747e-06 -2.22336e-05
0.0019243 -2.60386e-05 1.84861e-06
-2.60386e-05 1.97567e-05 -1.25272e-07
1.84861e-06 -1.25272e-07 -1.54996e-05
0.00191253 -6.17191e-05 3.20832e-07
-6.17191e-05 1.61629e-05 5.20179e-08
3.20832e-07 5.20179e-08 -1.7076e-05
0.00194017 -4.52131e-05 -1.15895e-06
-4.52131e-05 0.00012455 4.71097e-08
-1.15895e-06 4.71097e-08 5.87954e-05
0.00183715 -0.000148043 2.42807e-06
-0.000148043 2.98072e-05 -1.17437e-06
2.42807e-06 -1.17437e-06 -1.81982e-05
0.00191651 -0.000122012 3.61166e-07
-0.000122012 0.000112995 -9.5157e-08
3.61166e-07 -9.5157e-08 4.339e-05
0.00181214 -9.98352e-05 3.0805e-06
-9.98352e-05 0.000122105 -1.38882e-06
3.0805e-06 -1.38882e-06 1.90234e-05
0.00164823 -0.000157542 -8.10314e-07
-0.000157542 2.67921e-05 -7.96308e-08
-8.10314e-07 -7.96308e-08 -5.93842e-05
0.00175463 -0.000137222 -5.06847e-08
-0.000137222 0.000113192 1.28001e-07
-5.06847e-08 1.28001e-07 1.34699e-06
0.00162917 -0.000119128 -2.83863e-07
-0.000119128 0.000121145 -2.95884e-07
-2.83863e-07 -2.95884e-07 -1.15604e-05
0.00172301 -0.000168584 -1.77134e-06
-0.000168584 0.000134649 2.17614e-07
-1.77134e-06 2.17614e-07 1.32923e-05
0.00155768 -0.000142916 -1.92632e-07
-0.000142916 0.000114854 9.24655e-08
-1.92632e-07 9.24655e-08 -2.48241e-05
0.0013426 -0.000115563 -5.18155e-06
-0.000115563 7.98695e-05 1.42655e-06
-5.18155e-06 1.42655e-06 -6.10108e-05
0.00151885 -0.000160451 9.94533e-07
-0.000160451 0.000119133 5.84414e-08
9.94533e-07 5.84414e-08 -2.67234e-05
0.00132685 -0.000134688 -1.05632e-07
-0.000134688 8.39279e-05 8.10006e-08
-1.05632e-07 8.10006e-08 -5.93881e-05
0.00106483 -0.000108971 -1.21047e-05
-0.000108971 2.04179e-05 4.34167e-06
-1.21047e-05 4.34167e-06 -0.000100678
0.00132859 -0.000151681 6.17265e-06
-0.000151681 9.74484e-05 -1.88217e-06
6.17265e-06 -1.88217e-06 -4.85389e-05
0.00104822 -0.000121815 2.14984e-07
-0.000121815 2.02404e-05 6.47311e-08
2.14984e-07 6.47311e-08 -0.00010171
0.00234466 -8.61565e-05 -2.65721e-05
-8.61565e-05 0.000914685 6.34796e-06
-2.65721e-05 6.34796e-06 0.000852992
0.00100207 -0.000135879 1.13492e-05
-0.000135879 7.48768e-06 -5.00183e-06
1.13492e-05 -5.00183e-06 -0.000118538
0.00246151 -0.000123349 3.32131e-05
-0.000123349 0.000986766 -3.55719e-06
3.32131e-05 -3.55719e-06 0.000924166
0.00166602 -6.72451e-05 -0.000154786
-6.72451e-05 0.000604145 1.82567e-05
-0.000154786 1.82567e-05 0.000584757
0.00331002 2.3624e-05 -0.00015333
2.3624e-05 0.00156869 6.21286e-06
-0.00015333 6.21286e-06 0.00154936
0.00256123 -0.000165769 9.39976e-05
-0.000165769 0.00104975 -1.20303e-05
9.39976e-05 -1.20303e-05 0.00098846
0.00508047 0.00011842 0.000147206
0.00011842 0.00260049 -1.27086e-05
0.000147206 -1.27086e-05 0.00258098
0.00192579 0.000222531 -2.11552e-06
0.000222531 0.000212951 -2.238e-07
-2.11552e-06 -2.238e-07 7.76277e-05
0.00160199 0.000201871 1.95827e-06
0.000201871 0.00016456 1.043e-06
1.95827e-06 1.043e-06 1.37508e-05
0.001787 0.000227049 4.85635e-07
0.000227049 0.000169419 -5.72466e-07
4.85635e-07 -5.72466e-07 2.74104e-05
0.0013026 0.000191266 -6.80882e-06
0.000191266 0.000100136 -6.17829e-07
-6.80882e-06 -6.17829e-07 -5.67958e-05
0.00157612 0.000230656 3.18732e-07
0.000230656 0.00017446 2.95479e-07
3.18732e-07 2.95479e-07 9.06148e-06
0.00144481 0.000238331 3.35646e-06
0.000238331 0.000176864 -1.0419e-06
3.35646e-06 -1.0419e-06 -3.19409e-06
0.00118368 0.000197866 -2.57196e-07
0.000197866 9.22542e-05 3.86312e-07
-2.57196e-07 3.86312e-07 -7.79176e-05
0.000899207 0.000149859 -9.50268e-06
0.000149859 1.43042e-05 -3.97676e-06
-9.50268e-06 -3.97676e-06 -0.000124767
0.00113702 0.000191138 2.97211e-06
0.000191138 0.000167479 3.80007e-06
2.97211e-06 3.80007e-06 -6.60682e-06
0.000860992 0.000137874 -6.15642e-07
0.000137874 6.59985e-05 2.09557e-07
-6.15642e-07 2.09557e-07 -6.95143e-05
0.000784289 0.000118676 -1.65501e-05
0.000118676 6.71126e-05 -1.12272e-05
-1.65501e-05 -1.12272e-05 -5.63186e-06
0.000642994 9.42437e-05 2.88905e-06
9.42437e-05 -4.11311e-06 2.97103e-06
2.88905e-06 2.97103e-06 -0.00012305
0.000578662 3.53622e-05 -1.08213e-08
3.53622e-05 -2.91451e-05 -3.09732e-07
-1.08213e-08 -3.09732e-07 -8.59426e-05
0.0039166 -0.000110643 -0.000121713
-0.000110643 0.0019287 -5.98767e-06
-0.000121713 -5.98767e-06 0.00192186
0.000438275 -4.10373e-05 1.58708e-06
-4.10373e-05 -9.41904e-05 7.92751e-06
1.58708e-06 7.92751e-06 -0.000141067
0.00328158 -0.000141797 -4.30344e-06
-0.000141797 0.00156008 3.79368e-07
-4.30344e-06 3.79368e-07 0.001553
0.00288589 -0.000131379 5.4781e-05
-0.000131379 0.00132677 1.91744e-06
5.4781e-05 1.91744e-06 0.00132328
0.0018345 0.00012086 -3.5836e-06
0.00012086 2.50032e-05 1.01342e-06
-3.5836e-06 1.01342e-06 -4.74615e-05
0.00182932 0.000115278 6.26285e-07
0.000115278 4.47729e-06 -4.11415e-07
6.26285e-07 -4.11415e-07 -6.37906e-05
0.002451 3.58222e-05 -4.49879e-05
3.58222e-05 0.000455573 -7.76338e-06
-4.49879e-05 -7.76338e-06 0.000436519
0.00196983 0.000187028 -2.45149e-08
0.000187028 0.000167216 1.27635e-06
-2.45149e-08 1.27635e-06 5.83614e-05
0.00168111 0.0002564 -6.10909e-07
0.0002564 6.20815e-05 -3.8769e-09
-6.10909e-07 -3.8769e-09 -7.80447e-05
0.0014435 0.000284766 -7.00776e-08
0.000284766 5.42426e-05 -2.77908e-06
-7.00776e-08 -2.77908e-06 -0.000106518
0.00185307 0.000256307 2.87492e-07
0.000256307 0.000230197 -2.07581e-06
2.87492e-07 -2.07581e-06 7.57254e-05
0.00194238 0.000200173 -4.13458e-07
0.000200173 0.000124589 -1.72234e-07
-4.13458e-07 -1.72234e-07 2.56817e-05
0.00159151 0.000298433 1.70096e-06
0.000298433 -1.82157e-06 -4.96023e-07
1.70096e-06 -4.96023e-07 -0.000151815
0.00181436 0.000210492 1.05914e-05
0.000210492 5.96544e-05 -2.4199e-07
1.05914e-05 -2.4199e-07 -4.12859e-05
0.00193145 2.625e-05 -5.77688e-07
2.625e-05 0.000103474 7.27452e-07
-5.77688e-07 7.27452e-07 3.68293e-05
0.00190792 3.49052e-05 -4.23759e-08
3.49052e-05 5.64155e-05 -5.18884e-09
-4.23759e-08 -5.18884e-09 4.15828e-06
0.00204508 4.81148e-05 -6.72436e-06
4.81148e-05 0.00012434 -1.77474e-06
-6.72436e-06 -1.77474e-06 7.43776e-05
0.00161876 -1.50563e-05 -1.45677e-06
-1.50563e-05 -2.60764e-05 2.13525e-07
-1.45677e-06 2.13525e-07 -0.000104799
0.00193759 -6.72727e-05 3.94162e-06
-6.72727e-05 1.69476e-05 2.93297e-07
3.94162e-06 2.93297e-07 -9.77415e-06
0.00188639 -4.70834e-05 -1.0645e-06
-4.70834e-05 9.05044e-05 5.96575e-07
-1.0645e-06 5.96575e-07 2.43995e-05
0.00197816 -5.13397e-05 4.20057e-07
-5.13397e-05 0.000212279 -6.90846e-07
4.20057e-07 -6.90846e-07 0.00011958
0.00181886 -0.000121918 8.87151e-07
-0.000121918 6.30783e-05 -1.826e-07
8.87151e-07 -1.826e-07 -1.0856e-05
0.00178486 -9.95015e-05 1.70301e-06
-9.95015e-05 0.000106584 -6.42972e-07
1.70301e-06 -6.42972e-07 3.57033e-06
0.00166904 -8.66339e-05 2.89639e-07
-8.66339e-05 0.000111548 -7.12972e-07
2.89639e-07 -7.12972e-07 -1.43418e-05
0.00177018 -0.000136943 -1.20707e-06
-0.000136943 0.000121816 4.66832e-07
-1.20707e-06 4.66832e-07 1.00699e-05
0.00161197 -0.000117167 -1.79956e-07
-0.000117167 0.000112724 -3.18448e-08
-1.79956e-07 -3.18448e-08 -1.97029e-05
0.00137792 -9.27352e-05 -4.73092e-06
-9.27352e-05 8.10901e-05 1.0518e-06
-4.73092e-06 1.0518e-06 -5.66264e-05
0.00155879 -0.000142466 6.6115e-07
-0.000142466 0.000113996 2.30666e-07
6.6115e-07 2.30666e-07 -2.54602e-05
0.00134498 -0.000115202 -1.17114e-07
-0.000115202 7.90939e-05 1.20747e-07
-1.17114e-07 1.20747e-07 -6.15524e-05
0.00107155 -9.23381e-05 -1.18908e-05
-9.23381e-05 1.49383e-05 3.58822e-06
-1.18908e-05 3.58822e-06 -0.000105522
0.0013454 -0.000134894 5.54783e-06
-0.000134894 9.30676e-05 -1.60274e-06
5.54783e-06 -1.60274e-06 -5.00211e-05
0.00106402 -0.000106557 1.0694e-07
-0.000106557 1.8913e-05 1.57035e-07
1.0694e-07 1.57035e-07 -0.000101583
0.00239217 -0.000101304 -3.38418e-05
-0.000101304 0.000933184 5.80949e-06
-3.38418e-05 5.80949e-06 0.000874455
0.00103168 -0.000119374 1.19841e-05
-0.000119374 1.00328e-05 -4.8322e-06
1.19841e-05 -4.8322e-06 -0.000111448
0.00245166 -0.000121793 2.98111e-05
-0.000121793 0.000972078 -3.17294e-06
2.98111e-05 -3.17294e-06 0.000914436
0.00170358 -5.89224e-05 -0.000150389
-5.89224e-05 0.000623468 1.65072e-05
-0.000150389 1.65072e-05 0.000604463
0.00259288 -0.000146254 9.51842e-05
-0.000146254 0.00105743 -1.39837e-05
9.51842e-05 -1.39837e-05 0.000998912
0.00148083 8.48077e-07 -7.33247e-05
8.48077e-07 0.000508909 6.63591e-06
-7.33247e-05 6.63591e-06 0.000479618
0.00498274 0.000261338 2.02852e-06
0.000261338 0.00256371 -4.00948e-06
2.02852e-06 -4.00948e-06 0.00252038
0.00176211 0.000175935 5.57475e-07
0.000175935 0.000104687 8.63134e-07
5.57475e-07 8.63134e-07 -2.26786e-05
0.00172243 0.000191151 -8.22558e-07
0.000191151 0.000188119 -3.17517e-07
-8.22558e-07 -3.17517e-07 4.56459e-05
0.00181717 0.00021882 -2.65135e-06
0.00021882 0.000149863 5.74499e-08
-2.65135e-06 5.74499e-08 1.33054e-05
0.0017724 0.000192143 -4.27875e-06
0.000192143 0.000347409 -6.14414e-07
-4.27875e-06 -6.14414e-07 0.000201692
0.00153817 0.000204098 8.12933e-07
0.000204098 0.0001247 -6.68979e-07
8.12933e-07 -6.68979e-07 -2.5708e-05
0.00172885 0.000227205 1.09462e-07
0.000227205 0.000135495 -2.23014e-06
1.09462e-07 -2.23014e-06 -3.77425e-06
0.000950145 0.000147238 -1.15073e-05
0.000147238 -1.43135e-05 -3.83083e-06
-1.15073e-05 -3.83083e-06 -0.000146178
0.00124708 0.0001887 9.34325e-08
0.0001887 6.81018e-05 1.45537e-07
9.34325e-08 1.45537e-07 -8.87041e-05
0.00157105 0.000228021 3.24949e-06
0.000228021 0.000166535 -1.00137e-06
3.24949e-06 -1.00137e-06 1.14017e-06
0.00123397 0.000202891 6.56467e-06
0.000202891 0.0001203 1.61765e-06
6.56467e-06 1.61765e-06 -5.10041e-05
0.000930012 0.000150781 -8.7177e-07
0.000150781 3.04688e-05 3.80152e-07
-8.7177e-07 3.80152e-07 -0.000108581
0.000676808 0.000166295 -2.11857e-05
0.000166295 -1.10545e-05 -1.1329e-05
-2.11857e-05 -1.1329e-05 -9.31135e-05
0.00076665 0.000128263 5.23398e-06
0.000128263 1.2366e-05 4.87807e-06
5.23398e-06 4.87807e-06 -0.00012151
0.000617874 0.000110325 -3.84887e-07
0.000110325 -2.01686e-05 1.56019e-07
-3.84887e-07 1.56019e-07 -9.22816e-05
0.00466213 -0.000103047 -0.000142781
-0.000103047 0.00236898 -1.1271e-05
-0.000142781 -1.1271e-05 0.00235206
0.000437676 2.3074e-05 6.88535e-06
2.3074e-05 -0.000106904 9.09125e-06
6.88535e-06 9.09125e-06 -0.000160881
0.00376753 -0.000152412 -7.80692e-06
-0.000152412 0.00184895 6.10935e-07
-7.80692e-06 6.10935e-07 0.00183635
0.00317076 -0.000149 6.40985e-05
-0.000149 0.00149737 1.64156e-06
6.40985e-05 1.64156e-06 0.00148874
0.0017692 0.000101371 -5.77453e-07
0.000101371 2.19362e-05 1.52882e-06
-5.77453e-07 1.52882e-06 -6.28076e-05
0.00178398 0.0001222 -3.94769e-07
0.0001222 -8.37303e-06 2.78848e-07
-3.94769e-07 2.78848e-07 -8.06025e-05
0.00188638 0.000117999 2.51772e-06
0.000117999 3.2586e-05 -7.44019e-07
2.51772e-06 -7.44019e-07 -3.61218e-05
0.00191808 0.000183385 7.6882e-07
0.000183385 0.000140571 -1.47392e-07
7.6882e-07 -1.47392e-07 3.33054e-05
0.00167095 0.000250163 2.47397e-07
0.000250163 6.63312e-05 -1.29862e-06
2.47397e-07 -1.29862e-06 -7.29125e-05
0.00173253 0.000190354 3.39186e-06
0.000190354 4.86183e-06 -1.33165e-06
3.39186e-06 -1.33165e-06 -9.49572e-05
0.00188494 2.69718e-05 -6.70605e-07
2.69718e-05 0.000123005 4.64523e-07
-6.70605e-07 4.64523e-07 4.267e-05
0.00190128 2.70093e-05 5.71001e-07
2.70093e-05 8.89913e-05 -2.19412e-07
5.71001e-07 -2.19412e-07 2.15111e-05
0.00183726 3.48028e-05 4.8249e-06
3.48028e-05 2.17231e-05 1.69748e-07
4.8249e-06 1.69748e-07 -3.21273e-05
0.00172655 -2.1537e-05 -1.83633e-06
-2.1537e-05 3.72685e-05 -5.08721e-08
-1.83633e-06 -5.08721e-08 -4.05746e-05
0.00169231 -2.60541e-05 7.68574e-07
-2.60541e-05 5.66161e-05 -5.06503e-07
7.68574e-07 -5.06503e-07 -3.92177e-05
0.00183556 -4.88129e-05 7.03728e-07
-4.88129e-05 5.87839e-05 8.27454e-07
7.03728e-07 8.27454e-07 -7.80483e-06
0.0018042 -5.08651e-05 -8.57003e-07
-5.08651e-05 0.000114428 3.50994e-07
-8.57003e-07 3.50994e-07 1.80346e-05
0.00174453 -4.69541e-05 8.38474e-08
-4.69541e-05 0.000136983 -5.76587e-07
8.38474e-08 -5.76587e-07 2.02604e-05
0.00175114 -9.959e-05 8.66298e-07
-9.959e-05 8.78636e-05 9.1372e-08
8.66298e-07 9.1372e-08 -1.51497e-05
0.00164367 -8.76716e-05 6.02244e-07
-8.76716e-05 0.000100285 -3.72752e-07
6.02244e-07 -3.72752e-07 -2.56425e-05
0.00139796 -6.1682e-05 -4.7557e-06
-6.1682e-05 6.93073e-05 6.98663e-07
-4.7557e-06 6.98663e-07 -6.48031e-05
0.00158359 -0.000116676 1.09088e-07
-0.000116676 9.77994e-05 1.66119e-07
1.09088e-07 1.66119e-07 -3.45362e-05
0.00136648 -9.18276e-05 -2.67894e-08
-9.18276e-05 7.1463e-05 4.11108e-08
-2.67894e-08 4.11108e-08 -6.60854e-05
0.00106984 -7.20157e-05 -1.17447e-05
-7.20157e-05 3.13336e-06 2.9566e-06
-1.17447e-05 2.9566e-06 -0.000116416
0.00134533 -0.000114717 4.83242e-06
-0.000114717 7.71417e-05 -1.16825e-06
4.83242e-06 -1.16825e-06 -6.32643e-05
0.00107047 -8.96733e-05 -2.71964e-08
-8.96733e-05 1.35264e-05 1.56263e-07
-2.71964e-08 1.56263e-07 -0.000106347
0.00238471 -0.000116708 -3.70295e-05
-0.000116708 0.000925584 5.27201e-06
-3.70295e-05 5.27201e-06 0.000865078
0.00106032 -0.000104116 1.20991e-05
-0.000104116 1.56601e-05 -4.11714e-06
1.20991e-05 -4.11714e-06 -0.000104213
0.00245351 -0.000113786 2.87433e-05
-0.000113786 0.000965551 -2.47149e-06
2.87433e-05 -2.47149e-06 0.000909626
0.00174216 -5.12628e-05 -0.000150267
-5.12628e-05 0.000640203 1.4262e-05
-0.000150267 1.4262e-05 0.000621434
0.00255499 -0.000127522 9.39732e-05
-0.000127522 0.00102738 -1.23456e-05
9.39732e-05 -1.23456e-05 0.000973378
0.00148097 -1.52093e-05 -6.61868e-05
-1.52093e-05 0.000501711 6.30233e-06
-6.61868e-05 6.30233e-06 0.000476499
0.00136084 1.84233e-05 2.05858e-05
1.84233e-05 0.000441988 -4.26357e-06
2.05858e-05 -4.26357e-06 0.000408954
0.00188432 0.00010568 3.68406e-08
0.00010568 0.000146608 1.99504e-06
3.68406e-08 1.99504e-06 4.33728e-05
0.00164427 0.000155455 -1.53184e-06
0.000155455 0.000112605 3.4883e-07
-1.53184e-06 3.4883e-07 -2.43397e-05
0.00178339 0.000177028 -8.96056e-07
0.000177028 0.000111332 -8.9117e-08
-8.96056e-07 -8.9117e-08 -1.35442e-05
0.00163892 0.000163053 -4.24375e-06
0.000163053 0.000239652 -7.45488e-07
-4.24375e-06 -7.45488e-07 9.96075e-05
0.00170509 0.000188414 9.62573e-07
0.000188414 0.000181708 2.21032e-07
9.62573e-07 2.21032e-07 3.86321e-05
0.00170484 0.00021501 1.38392e-06
0.00021501 8.54376e-05 -2.27378e-07
1.38392e-06 -2.27378e-07 -5.24066e-05
0.00103664 0.000136989 -1.21708e-05
0.000136989 1.14094e-05 -4.17697e-06
-1.21708e-05 -4.17697e-06 -0.000113096
0.00144982 0.00017908 3.22842e-06
0.00017908 0.000162608 7.4229e-07
3.22842e-06 7.4229e-07 1.61882e-05
0.00147033 0.000206034 2.20771e-06
0.000206034 8.25811e-05 -1.27679e-06
2.20771e-06 -1.27679e-06 -6.73882e-05
0.000590815 0.000161016 -2.16133e-05
0.000161016 -7.93545e-05 -9.95963e-06
-2.16133e-05 -9.95963e-06 -0.000158697
0.000994624 0.000149971 -5.66358e-07
0.000149971 1.07105e-05 1.40516e-07
-5.66358e-07 1.40516e-07 -0.000121402
0.00118902 0.000185832 7.31271e-06
0.000185832 3.49806e-05 9.94438e-07
7.31271e-06 9.94438e-07 -0.00012165
0.000968752 0.000152406 9.10218e-06
0.000152406 5.14473e-05 5.11581e-06
9.10218e-06 5.11581e-06 -8.7751e-05
0.000612393 0.000154005 1.3415e-06
0.000154005 -4.56846e-05 4.12682e-07
1.3415e-06 4.12682e-07 -0.000126597
0.00523853 -0.00010172 -0.00014514
-0.00010172 0.0027141 -1.65833e-05
-0.00014514 -1.65833e-05 0.00268362
0.000458449 9.73312e-05 1.22564e-05
9.73312e-05 -0.000107909 1.08422e-05
1.22564e-05 1.08422e-05 -0.00017694
0.00440474 -0.000153332 -1.14476e-05
-0.000153332 0.00222609 9.86633e-07
-1.14476e-05 9.86633e-07 0.00220624
0.00359666 -0.000169822 7.91803e-05
-0.000169822 0.00175258 1.97735e-06
7.91803e-05 1.97735e-06 0.00173711
0.00176336 7.41509e-05 -5.41807e-07
7.41509e-05 5.7403e-05 3.93438e-07
-5.41807e-07 3.93438e-07 -2.934e-05
0.00177267 0.000100804 5.51929e-07
0.000100804 2.78259e-05 5.26431e-07
5.51929e-07 5.26431e-07 -5.66636e-05
0.00174935 0.000123232 5.37029e-06
0.000123232 -3.20685e-05 -3.05773e-07
5.37029e-06 -3.05773e-07 -0.000103961
0.00187302 0.000179822 1.23829e-06
0.000179822 0.000117315 -1.10044e-06
1.23829e-06 -1.10044e-06 1.1677e-05
0.001734 -7.83507e-06 1.48289e-06
-7.83507e-06 7.56958e-05 5.44813e-08
1.48289e-06 5.44813e-08 -2.19573e-05
0.00190655 2.18849e-05 -1.02283e-07
2.18849e-05 0.000133031 -2.23833e-07
-1.02283e-07 -2.23833e-07 5.32864e-05
0.00186181 2.71051e-05 1.93026e-06
2.71051e-05 6.93363e-05 -2.68507e-07
1.93026e-06 -2.68507e-07 1.03876e-06
0.00183887 -2.55431e-05 -3.49081e-06
-2.55431e-05 0.000103002 -1.04053e-06
-3.49081e-06 -1.04053e-06 2.60666e-05
0.0016744 -1.88978e-05 -1.35914e-06
-1.88978e-05 4.63291e-05 -2.61742e-08
-1.35914e-06 -2.61742e-08 -4.82097e-05
0.00175561 -1.66084e-05 1.53003e-06
-1.66084e-05 0.000154471 -5.31468e-07
1.53003e-06 -5.31468e-07 4.17188e-05
0.00163044 -5.03412e-05 -1.92504e-06
-5.03412e-05 1.60526e-05 1.36372e-06
-1.92504e-06 1.36372e-06 -8.40384e-05
0.00169423 -4.75207e-05 2.57551e-07
-4.75207e-05 0.000111501 2.09184e-07
2.57551e-07 2.09184e-07 -7.88894e-06
0.00140855 -3.05043e-05 -4.15952e-06
-3.05043e-05 5.32898e-05 1.29926e-07
-4.15952e-06 1.29926e-07 -7.5371e-05
0.0016325 -8.73188e-05 8.88076e-07
-8.73188e-05 9.69483e-05 -4.24553e-08
8.88076e-07 -4.24553e-08 -2.88315e-05
0.00138926 -5.97599e-05 -1.26151e-07
-5.97599e-05 6.06885e-05 3.34359e-08
-1.26151e-07 3.34359e-08 -7.3158e-05
0.00107265 -4.77064e-05 -1.1797e-05
-4.77064e-05 -6.47406e-06 2.371e-06
-1.1797e-05 2.371e-06 -0.000125144
0.00135141 -8.88755e-05 4.30974e-06
-8.88755e-05 5.99012e-05 -9.42261e-07
4.30974e-06 -9.42261e-07 -7.72876e-05
0.0010726 -7.10116e-05 4.29464e-09
-7.10116e-05 4.34512e-06 1.37285e-07
4.29464e-09 1.37285e-07 -0.000114957
0.000637573 -6.36473e-05 -1.78381e-05
-6.36473e-05 -9.42945e-05 4.3016e-06
-1.78381e-05 4.3016e-06 -0.000161955
0.00107878 -8.73627e-05 1.18098e-05
-8.73627e-05 1.71865e-05 -3.32461e-06
1.18098e-05 -3.32461e-06 -0.000102084
0.00155514 -7.4175e-05 3.811e-05
-7.4175e-05 0.000440119 -2.29365e-06
3.811e-05 -2.29365e-06 0.000380433
0.00518451 -0.00010755 -0.000182636
-0.00010755 0.00262397 1.05941e-05
-0.000182636 1.05941e-05 0.00262426
0.0025348 -0.000104401 9.35848e-05
-0.000104401 0.00100608 -1.00991e-05
9.35848e-05 -1.00991e-05 0.000954676
0.00149451 -3.23666e-05 -5.95394e-05
-3.23666e-05 0.000503873 4.78081e-06
-5.95394e-05 4.78081e-06 0.000479732
0.00127577 -3.08293e-05 3.12318e-05
-3.08293e-05 0.000389687 -4.42724e-06
3.12318e-05 -4.42724e-06 0.000359164
0.00189773 7.64508e-05 8.63814e-07
7.64508e-05 0.00016617 1.24925e-06
8.63814e-07 1.24925e-06 6.97358e-05
0.00174542 0.000104498 -5.16351e-08
0.000104498 0.000151876 1.47283e-06
-5.16351e-08 1.47283e-06 2.85229e-05
0.00190951 0.000103119 3.72822e-07
0.000103119 0.000166633 1.88449e-08
3.72822e-07 1.88449e-08 6.2512e-05
0.00131802 0.000124134 -5.11845e-06
0.000124134 2.31307e-05 -6.90972e-07
-5.11845e-06 -6.90972e-07 -0.000114083
0.00170554 0.000155375 1.13333e-07
0.000155375 0.000147057 -1.07068e-08
1.13333e-07 -1.07068e-08 1.12897e-05
0.00180665 0.000178459 -3.71369e-07
0.000178459 0.000118527 -9.18188e-07
-3.71369e-07 -9.18188e-07 -3.92735e-06
0.000663222 0.000100447 -1.40341e-05
0.000100447 -0.000219658 -4.18931e-06
-1.40341e-05 -4.18931e-06 -0.000341998
0.00167652 0.00016606 1.79155e-06
0.00016606 0.000261145 4.788e-07
1.79155e-06 4.788e-07 0.000120844
0.00168527 0.000185742 2.16984e-06
0.000185742 0.000173836 9.63032e-08
2.16984e-06 9.63032e-08 3.01168e-05
0.000563464 0.000121979 -1.86746e-05
0.000121979 -0.000107165 -8.25965e-06
-1.86746e-05 -8.25965e-06 -0.000181431
0.000811241 0.000126796 5.8828e-07
0.000126796 -0.000118025 1.93848e-08
5.8828e-07 1.93848e-08 -0.000243404
0.00112413 0.00016584 8.94821e-06
0.00016584 -2.42487e-05 1.65462e-06
8.94821e-06 1.65462e-06 -0.000171329
0.00538217 -1.97047e-05 -0.000157715
-1.97047e-05 0.00276562 -1.49929e-05
-0.000157715 -1.49929e-05 0.00275098
0.000570201 0.000147428 1.48062e-06
0.000147428 -8.90285e-05 5.63706e-07
1.48062e-06 5.63706e-07 -0.000169591
0.00103033 0.000152393 1.16633e-05
0.000152393 3.07697e-05 4.23904e-06
1.16633e-05 4.23904e-06 -0.000101585
0.000494018 0.000144306 1.82148e-05
0.000144306 -0.000110006 1.14733e-05
1.82148e-05 1.14733e-05 -0.000190104
0.00500748 -9.28687e-05 1.11435e-06
-9.28687e-05 0.0025624 -6.89695e-07
1.11435e-06 -6.89695e-07 0.00254548
0.00414038 -0.000190937 9.49298e-05
-0.000190937 0.00208056 4.40772e-06
9.49298e-05 4.40772e-06 0.00205595
0.0017951 4.65353e-05 -8.99681e-07
4.65353e-05 0.000101719 -4.34477e-07
-8.99681e-07 -4.34477e-07 4.28519e-06
0.00178628 7.34867e-05 -2.22149e-07
7.34867e-05 6.69104e-05 4.23129e-07
-2.22149e-07 4.23129e-07 -1.97777e-05
0.00177455 0.000100502 2.00893e-06
0.000100502 3.29162e-05 -4.6369e-07
2.00893e-06 -4.6369e-07 -5.13474e-05
0.00166373 2.39331e-06 1.74608e-06
2.39331e-06 9.32388e-05 -3.45299e-07
1.74608e-06 -3.45299e-07 -2.05941e-05
0.00171942 -5.63187e-06 1.71242e-07
-5.63187e-06 7.14878e-05 8.95715e-08
1.71242e-07 8.95715e-08 -2.49676e-05
0.00192535 1.51782e-05 -5.44211e-07
1.51782e-05 0.000141528 -1.79523e-07
-5.44211e-07 -1.79523e-07 6.23434e-05
0.00165091 -1.30786e-05 -2.30662e-06
-1.30786e-05 3.28237e-05 6.04864e-07
-2.30662e-06 6.04864e-07 -6.04261e-05
0.00174348 -1.23289e-05 1.0927e-06
-1.23289e-05 0.000146428 -1.86279e-07
1.0927e-06 -1.86279e-07 3.38522e-05
0.00172279 -1.0309e-05 -1.97349e-06
-1.0309e-05 0.000230122 -1.91566e-07
-1.97349e-06 -1.91566e-07 0.000107981
0.00164274 -4.81136e-05 1.7347e-07
-4.81136e-05 8.56669e-05 7.88903e-07
1.7347e-07 7.88903e-07 -3.6402e-05
0.00155958 -3.06199e-05 -1.23785e-09
-3.06199e-05 0.000138919 6.73078e-08
-1.23785e-09 6.73078e-08 1.05755e-05
0.000783323 -2.12103e-05 -1.36053e-05
-2.12103e-05 -0.000180389 1.6125e-06
-1.36053e-05 1.6125e-06 -0.000300179
0.00138576 -6.00561e-05 4.1568e-06
-6.00561e-05 5.49132e-05 -6.28742e-07
4.1568e-06 -6.28742e-07 -7.88621e-05
0.00106851 -4.46757e-05 3.46371e-08
-4.46757e-05 -9.34715e-06 1.61291e-07
3.46371e-08 1.61291e-07 -0.000127673
0.000641447 -2.03416e-05 -1.73104e-05
-2.03416e-05 -9.91022e-05 2.89715e-06
-1.73104e-05 2.89715e-06 -0.000167037
0.0010763 -6.89768e-05 1.17714e-05
-6.89768e-05 6.01435e-06 -2.68492e-06
1.17714e-05 -2.68492e-06 -0.000112926
0.000650764 -4.88318e-05 -2.07799e-07
-4.88318e-05 -8.61153e-05 2.69021e-07
-2.07799e-07 2.69021e-07 -0.000154568
0.00523704 1.07106e-08 -0.000173448
1.07106e-08 0.00264982 6.66386e-06
-0.000173448 6.66386e-06 0.00265221
0.000682138 -5.9201e-05 1.6178e-05
-5.9201e-05 -6.49767e-05 -6.12373e-06
1.6178e-05 -6.12373e-06 -0.000133685
0.00330528 -6.78933e-05 8.52258e-05
-6.78933e-05 0.00154487 -2.21696e-06
8.52258e-05 -2.21696e-06 0.00152836
0.00121232 -5.6958e-05 3.64431e-05
-5.6958e-05 0.00035441 -4.79809e-06
3.64431e-05 -4.79809e-06 0.000321408
0.00180602 6.93427e-05 9.60859e-08
6.93427e-05 0.000132389 2.20991e-07
9.60859e-08 2.20991e-07 3.08717e-05
0.00161634 5.98428e-05 1.25232e-06
5.98428e-05 7.6028e-05 1.64969e-06
1.25232e-06 1.64969e-06 -4.13784e-05
0.00188084 7.37796e-05 -1.88393e-07
7.37796e-05 0.0001568 -2.19228e-07
-1.88393e-07 -2.19228e-07 6.07692e-05
0.00141481 8.83335e-05 -3.90622e-06
8.83335e-05 6.56206e-05 -1.61713e-07
-3.90622e-06 -1.61713e-07 -6.60924e-05
0.00169845 0.000102816 5.04791e-07
0.000102816 0.00012259 1.42071e-07
5.04791e-07 1.42071e-07 -1.98029e-06
0.001935 0.000100346 -5.95464e-07
0.000100346 0.000186935 -1.77608e-06
-5.95464e-07 -1.77608e-06 8.1956e-05
0.000675631 8.01784e-05 -1.36898e-05
8.01784e-05 -0.000228643 -3.16013e-06
-1.36898e-05 -3.16013e-06 -0.000348743
0.00153223 0.000130524 -9.06049e-07
0.000130524 0.000147798 -6.11304e-08
-9.06049e-07 -6.11304e-08 1.13741e-05
0.00176748 0.000155201 1.65572e-06
0.000155201 0.000182122 -5.45486e-07
1.65572e-06 -5.45486e-07 4.75513e-05
0.000580051 8.71641e-05 -1.71698e-05
8.71641e-05 -0.000112801 -6.35871e-06
-1.71698e-05 -6.35871e-06 -0.000182467
0.000649213 0.000100597 -2.80346e-06
0.000100597 -0.000227688 -5.88976e-07
-2.80346e-06 -5.88976e-07 -0.000350579
0.00171649 0.000169261 8.02369e-06
0.000169261 0.000284007 1.81635e-06
8.02369e-06 1.81635e-06 0.000143427
0.00533156 6.55996e-05 -0.000175164
6.55996e-05 0.00271376 -1.34987e-05
-0.000175164 -1.34987e-05 0.00271143
0.000559755 0.000114632 7.08422e-07
0.000114632 -0.000108976 2.67165e-07
7.08422e-07 2.67165e-07 -0.000183876
0.000585337 0.000116802 1.2092e-05
0.000116802 -0.00024778 3.72817e-06
1.2092e-05 3.72817e-06 -0.000374065
0.00527836 -4.97483e-06 1.17162e-05
-4.97483e-06 0.0027036 -5.76958e-08
1.17162e-05 -5.76958e-08 0.00269179
0.000530808 0.000133808 1.82985e-05
0.000133808 -0.000109243 1.01928e-05
1.82985e-05 1.01928e-05 -0.000190967
0.00477412 -0.000144949 0.000123748
-0.000144949 0.00243262 7.37877e-06
0.000123748 7.37877e-06 0.00241374
0.00176657 3.33771e-05 2.3421e-07
3.33771e-05 0.000143031 -3.43067e-07
2.3421e-07 -3.43067e-07 3.17189e-05
0.00175005 4.45845e-05 -7.3582e-07
4.45845e-05 8.14734e-05 2.104e-07
-7.3582e-07 2.104e-07 -1.68816e-05
0.00180993 7.25952e-05 5.45994e-07
7.25952e-05 7.68685e-05 -6.22314e-08
5.45994e-07 -6.22314e-08 -9.76806e-06
0.00169359 -3.46529e-06 -1.63961e-06
-3.46529e-06 0.00021829 -2.82636e-07
-1.63961e-06 -2.82636e-07 9.86916e-05
0.00169703 8.87765e-07 5.01311e-07
8.87765e-07 0.000111673 4.96244e-08
5.01311e-07 4.96244e-08 -7.62191e-07
0.00171585 -1.68911e-06 6.95526e-07
-1.68911e-06 7.31683e-05 -2.94078e-08
6.95526e-07 -2.94078e-08 -2.20788e-05
0.00173205 -8.50125e-06 3.60767e-07
-8.50125e-06 0.000138796 5.17403e-07
3.60767e-07 5.17403e-07 2.63739e-05
0.00172715 -9.62229e-06 2.1854e-06
-9.62229e-06 0.00023216 -2.43071e-07
2.1854e-06 -2.43071e-07 0.000110001
0.000785007 -7.78833e-06 -1.28516e-05
-7.78833e-06 -0.000180913 6.1172e-07
-1.28516e-05 6.1172e-07 -0.000298463
0.0017142 -3.08944e-05 4.96847e-06
-3.08944e-05 0.000226595 -2.43249e-07
4.96847e-06 -2.43249e-07 9.85712e-05
0.000926542 -2.01257e-05 -2.53758e-06
-2.01257e-05 -9.8582e-05 3.14175e-07
-2.53758e-06 3.14175e-07 -0.000217154
0.000655153 -5.96674e-06 -1.77045e-05
-5.96674e-06 -9.83428e-05 1.88299e-06
-1.77045e-05 1.88299e-06 -0.000166038
0.00106978 -4.29282e-05 1.15383e-05
-4.29282e-05 -9.16132e-06 -2.03951e-06
1.15383e-05 -2.03951e-06 -0.000127241
0.000637515 -2.45467e-05 5.46292e-07
-2.45467e-05 -0.000102715 9.00143e-09
5.46292e-07 9.00143e-09 -0.000169917
0.00527419 -9.31061e-05 -0.000184884
-9.31061e-05 0.00267504 6.15897e-06
-0.000184884 6.15897e-06 0.00267519
0.000642032 -3.38921e-05 1.64941e-05
-3.38921e-05 -9.21891e-05 -3.45567e-06
1.64941e-05 -3.45567e-06 -0.000160095
0.00523868 -3.41013e-05 8.27015e-06
-3.41013e-05 0.0026519 5.15373e-08
8.27015e-06 5.15373e-08 0.00265388
0.00151151 -1.3278e-05 0.000155989
-1.3278e-05 0.000507359 -7.7117e-06
0.000155989 -7.7117e-06 0.000491833
0.00166048 4.71642e-05 1.25704e-06
4.71642e-05 0.000101634 3.84683e-07
1.25704e-06 3.84683e-07 -1.33317e-05
0.00177964 7.32996e-05 -2.00213e-06
7.32996e-05 0.00011139 -2.87012e-07
-2.00213e-06 -2.87012e-07 1.14521e-05
0.00143498 5.06664e-05 -3.35732e-06
5.06664e-05 7.68942e-05 1.08771e-07
-3.35732e-06 1.08771e-07 -4.93063e-05
0.00161863 5.88519e-05 4.62281e-07
5.88519e-05 7.84231e-05 1.75933e-08
4.62281e-07 1.75933e-08 -3.90197e-05
0.00186214 7.12283e-05 -1.06711e-06
7.12283e-05 0.000146167 -2.05121e-06
-1.06711e-06 -2.05121e-06 5.05418e-05
0.00108217 6.6048e-05 -1.16636e-05
6.6048e-05 -4.84838e-06 -2.0075e-06
-1.16636e-05 -2.0075e-06 -0.000119823
0.00139683 8.78545e-05 5.64364e-08
8.78545e-05 5.62802e-05 1.3479e-07
5.64364e-08 1.3479e-07 -7.55635e-05
0.00165015 0.000101152 3.00289e-07
0.000101152 9.25571e-05 -9.15322e-07
3.00289e-07 -9.15322e-07 -3.32379e-05
0.00060415 6.09641e-05 -1.67307e-05
6.09641e-05 -0.000113696 -4.61987e-06
-1.67307e-05 -4.61987e-06 -0.000181196
0.000852805 8.741e-05 -3.24544e-06
8.741e-05 -0.000126891 -4.31842e-07
-3.24544e-06 -4.31842e-07 -0.000246464
0.00175409 0.000137108 5.2047e-06
0.000137108 0.000276779 9.47741e-07
5.2047e-06 9.47741e-07 0.000141142
0.00531792 0.000122781 -0.000194137
0.000122781 0.00269951 -1.29795e-05
-0.000194137 -1.29795e-05 0.00269938
0.000584935 8.47029e-05 7.51621e-08
8.47029e-05 -0.000110152 1.1796e-07
7.51621e-08 1.1796e-07 -0.000179937
0.000631611 0.000100713 8.39585e-06
0.000100713 -0.000237922 2.90839e-06
8.39585e-06 2.90839e-06 -0.000361337
0.00527085 8.38745e-05 1.03071e-05
8.38745e-05 0.00268502 1.64567e-06
1.03071e-05 1.64567e-06 0.00268013
0.000560895 0.00010614 1.72266e-05
0.00010614 -0.00010857 8.01689e-06
1.72266e-05 8.01689e-06 -0.000183691
0.00519204 -1.12752e-05 0.000162727
-1.12752e-05 0.00264253 1.06392e-05
0.000162727 1.06392e-05 0.00263877
0.00170844 2.34442e-05 -1.56716e-06
2.34442e-05 0.000229329 -1.58492e-07
-1.56716e-06 -1.58492e-07 0.000110978
0.00173559 2.88314e-05 -4.81906e-07
2.88314e-05 0.000128078 1.29432e-07
-4.81906e-07 1.29432e-07 1.59364e-05
0.00170833 4.24304e-05 -1.02407e-06
4.24304e-05 6.37496e-05 2.4714e-07
-1.02407e-06 2.4714e-07 -3.54905e-05
0.000767573 -9.83266e-06 -1.32747e-05
-9.83266e-06 -0.000186505 -2.92345e-07
-1.32747e-05 -2.92345e-07 -0.000301715
0.00171671 2.80916e-06 2.37269e-06
2.80916e-06 0.000231506 -6.91922e-08
2.37269e-06 -6.91922e-08 0.000111915
0.00172409 -7.15575e-07 2.74597e-07
-7.15575e-07 0.000126802 2.42756e-07
2.74597e-07 2.42756e-07 1.57754e-05
0.00173213 -9.27735e-06 6.23547e-06
-9.27735e-06 0.000234574 3.32534e-10
6.23547e-06 3.32534e-10 0.000112394
0.00077136 -7.61117e-06 -1.93994e-06
-7.61117e-06 -0.000189392 1.19942e-07
-1.93994e-06 1.19942e-07 -0.000307218
0.00066383 -2.01272e-05 -1.78067e-05
-2.01272e-05 -9.5735e-05 6.65068e-07
-1.78067e-05 6.65068e-07 -0.000162732
0.00106192 -1.82971e-05 9.32265e-06
-1.82971e-05 -2.12548e-05 -1.20226e-06
9.32265e-06 -1.20226e-06 -0.000138593
0.000639667 3.52187e-06 1.9356e-07
3.52187e-06 -0.000107355 9.04735e-08
1.9356e-07 9.04735e-08 -0.000174804
0.00536055 -7.32788e-05 -0.000194517
-7.32788e-05 0.00272133 4.10943e-06
-0.000194517 4.10943e-06 0.00272306
0.00064399 -2.09636e-05 1.72045e-05
-2.09636e-05 -9.87151e-05 -2.29333e-06
1.72045e-05 -2.29333e-06 -0.000166408
0.00531852 1.26248e-05 -2.92719e-06
1.26248e-05 0.00269354 9.60184e-07
-2.92719e-06 9.60184e-07 0.00269759
0.0052706 -5.63245e-05 0.000185986
-5.63245e-05 0.00266717 -5.7371e-06
0.000185986 -5.7371e-06 0.00267098
0.00143731 3.23952e-05 -3.36776e-06
3.23952e-05 8.11985e-05 -1.24812e-07
-3.36776e-06 -1.24812e-07 -4.23872e-05
0.0016711 4.99806e-05 -3.25603e-07
4.99806e-05 0.000106682 -7.10599e-07
-3.25603e-07 -7.10599e-07 -6.04846e-06
0.0017517 7.74514e-05 -3.3316e-06
7.74514e-05 8.9562e-05 -3.24636e-07
-3.3316e-06 -3.24636e-07 -8.80654e-06
0.0010788 3.56539e-05 -1.14979e-05
3.56539e-05 -8.95526e-06 -1.45531e-06
-1.14979e-05 -1.45531e-06 -0.000121168
0.00140028 5.07075e-05 2.09883e-07
5.07075e-05 5.61223e-05 6.976e-08
2.09883e-07 6.976e-08 -7.04033e-05
0.00162019 5.7806e-05 -5.57155e-07
5.7806e-05 8.06309e-05 -1.55199e-06
-5.57155e-07 -1.55199e-06 -3.68464e-05
0.00063045 3.62786e-05 -1.63115e-05
3.62786e-05 -0.000106523 -3.46028e-06
-1.63115e-05 -3.46028e-06 -0.000173094
0.00107258 6.76972e-05 1.11404e-07
6.76972e-05 -9.90237e-06 2.10834e-07
1.11404e-07 2.10834e-07 -0.000125268
0.00137815 8.73417e-05 4.33274e-06
8.73417e-05 4.64566e-05 5.07023e-07
4.33274e-06 5.07023e-07 -8.5523e-05
0.00530466 0.000133062 -0.000206286
0.000133062 0.00269243 -1.14544e-05
-0.000206286 -1.14544e-05 0.00269168
0.000621914 6.20121e-05 2.41353e-07
6.20121e-05 -0.000103295 1.74208e-07
2.41353e-07 1.74208e-07 -0.000171003
0.00102527 9.45505e-05 8.58419e-06
9.45505e-05 -2.78835e-05 2.43362e-06
8.58419e-06 2.43362e-06 -0.000146887
0.00526889 0.000135923 5.32137e-06
0.000135923 0.00267831 1.92138e-06
5.32137e-06 1.92138e-06 0.00267548
0.000592825 8.26511e-05 1.63336e-05
8.26511e-05 -0.000105561 6.45456e-06
1.63336e-05 6.45456e-06 -0.000175348
0.00524423 0.000104175 0.000183119
0.000104175 0.00266633 1.40295e-05
0.000183119 1.40295e-05 0.00266427
0.00110122 1.04937e-05 -1.21333e-05
1.04937e-05 5.32068e-06 -7.27574e-07
-1.21333e-05 -7.27574e-07 -0.000105992
0.00154391 1.82774e-05 2.67992e-06
1.82774e-05 0.000135896 7.97065e-08
2.67992e-06 7.97065e-08 1.62849e-05
0.00170127 2.33363e-05 -9.5092e-07
2.33363e-05 0.00011077 2.27437e-07
-9.5092e-07 2.27437e-07 -2.21166e-06
0.000678085 2.52919e-05 -1.82061e-05
2.52919e-05 -9.23724e-05 -4.81499e-07
-1.82061e-05 -4.81499e-07 -0.000153415
0.000755073 -4.28638e-06 -2.14685e-06
-4.28638e-06 -0.000194789 4.1488e-09
-2.14685e-06 4.1488e-09 -0.000310224
0.00174058 9.12087e-06 6.44385e-06
9.12087e-06 0.000245107 1.37774e-07
6.44385e-06 1.37774e-07 0.000125514
0.000753027 -7.014e-06 8.92814e-06
-7.014e-06 -0.000200566 -3.37203e-07
8.92814e-06 -3.37203e-07 -0.000318661
0.000648624 -2.01738e-06 1.93829e-07
-2.01738e-06 -0.000104493 3.09028e-07
1.93829e-07 3.09028e-07 -0.000171227
0.00538778 5.1202e-05 -0.000202383
5.1202e-05 0.00273352 -8.95606e-07
-0.000202383 -8.95606e-07 0.00273743
0.00062104 1.2742e-05 1.69021e-05
1.2742e-05 -0.000118307 -1.13605e-06
1.69021e-05 -1.13605e-06 -0.000185378
0.00536937 -7.27904e-05 -7.88305e-06
-7.27904e-05 0.00272623 1.30764e-06
-7.88305e-06 1.30764e-06 0.00272773
0.00532535 3.64779e-05 0.000179423
3.64779e-05 0.00269794 -2.52488e-06
0.000179423 -2.52488e-06 0.00270117
0.00108573 1.85143e-05 -1.19978e-05
1.85143e-05 -4.51538e-06 -1.22254e-06
-1.19978e-05 -1.22254e-06 -0.000115524
0.00137881 3.1714e-05 2.84175e-08
3.1714e-05 4.64486e-05 -6.7196e-08
2.84175e-08 -6.7196e-08 -7.62975e-05
0.00168555 5.26447e-05 -1.87482e-06
5.26447e-05 0.000113817 -1.31134e-06
-1.87482e-06 -1.31134e-06 3.31982e-06
0.00256996 3.5849e-05 -0.00010017
3.5849e-05 0.00100452 -2.93716e-06
-0.00010017 -2.93716e-06 0.000957797
0.00108428 3.7904e-05 1.64318e-07
3.7904e-05 -6.2719e-06 1.88061e-07
1.64318e-07 1.88061e-07 -0.000118672
0.00136491 5.06125e-05 3.95848e-06
5.06125e-05 3.49439e-05 1.05807e-07
3.95848e-06 1.05807e-07 -9.19107e-05
0.00528051 0.000120769 -0.000209698
0.000120769 0.00268066 -8.95703e-06
-0.000209698 -8.95703e-06 0.00267957
0.000660616 4.73873e-05 5.68537e-07
4.73873e-05 -8.79314e-05 2.58738e-07
5.68537e-07 2.58738e-07 -0.000155454
0.00107411 6.96568e-05 1.16479e-05
6.96568e-05 -8.8665e-06 2.41769e-06
1.16479e-05 2.41769e-06 -0.000124604
0.00531289 0.000147087 9.4742e-07
0.000147087 0.00270108 1.58602e-06
9.4742e-07 1.58602e-06 0.00269865
0.000648078 6.34913e-05 1.68157e-05
6.34913e-05 -8.76581e-05 5.23891e-06
1.68157e-05 5.23891e-06 -0.000155736
0.0052285 0.000156393 0.000192141
0.000156393 0.00266 1.52521e-05
0.000192141 1.52521e-05 0.00265514
0.000713267 7.90119e-06 -1.62175e-05
7.90119e-06 -6.30144e-05 -1.74402e-06
-1.62175e-05 -1.74402e-06 -0.000129331
0.000924211 8.21467e-06 6.29878e-07
8.21467e-06 -9.55525e-05 2.16193e-07
6.29878e-07 2.16193e-07 -0.000208218
0.0013738 1.28927e-05 6.02779e-06
1.28927e-05 3.9312e-05 2.25169e-07
6.02779e-06 2.25169e-07 -8.15338e-05
0.00528954 -9.21182e-05 -0.000186563
-9.21182e-05 0.00269297 -5.12367e-07
-0.000186563 -5.12367e-07 0.00268768
0.00064807 7.7335e-06 -3.33006e-07
7.7335e-06 -0.000104885 2.04131e-07
-3.33006e-07 2.04131e-07 -0.000168409
0.00074875 9.42962e-07 8.90619e-06
9.42962e-07 -0.000199594 1.69946e-07
8.90619e-06 1.69946e-07 -0.000315243
0.00062006 1.8909e-05 1.72622e-05
1.8909e-05 -0.000120573 2.0735e-07
1.72622e-05 2.0735e-07 -0.000187075
0.00535867 1.64126e-05 2.82609e-06
1.64126e-05 0.00272032 -2.72373e-07
2.82609e-06 -2.72373e-07 0.0027216
0.00539242 1.99862e-05 0.00019101
1.99862e-05 0.00273195 -7.04936e-07
0.00019101 -7.04936e-07 0.00273696
0.00261366 1.62101e-06 -9.84112e-05
1.62101e-06 0.00102593 -1.98733e-06
-9.84112e-05 -1.98733e-06 0.000979894
0.00110001 2.11619e-05 8.15702e-09
2.11619e-05 3.11208e-06 5.5426e-08
8.15702e-09 5.5426e-08 -0.000107979
0.00131827 3.12309e-05 3.68465e-06
3.12309e-05 1.05967e-05 -8.06021e-08
3.68465e-06 -8.06021e-08 -0.000111311
0.00496883 -6.55628e-05 -4.64882e-05
-6.55628e-05 0.00251183 -8.35502e-08
-4.64882e-05 -8.35502e-08 0.00249699
0.000671773 3.79175e-05 -3.74833e-08
3.79175e-05 -8.38371e-05 2.3834e-07
-3.74833e-08 2.3834e-07 -0.000150612
0.0011024 4.06715e-05 1.16028e-05
4.06715e-05 3.28739e-06 1.87697e-06
1.16028e-05 1.87697e-06 -0.000109263
0.00531974 8.5136e-05 -1.12786e-05
8.5136e-05 0.00269821 -5.75498e-07
-1.12786e-05 -5.75498e-07 0.00269967
0.000689618 6.54008e-05 1.80896e-05
6.54008e-05 -7.01152e-05 4.38128e-06
1.80896e-05 4.38128e-06 -0.000138455
0.00529929 0.000169139 0.000202183
0.000169139 0.00269971 1.48087e-05
0.000202183 1.48087e-05 0.00269423
0.00165687 -3.9649e-05 -0.00016692
-3.9649e-05 0.000583404 4.46504e-07
-0.00016692 4.46504e-07 0.000568978
0.0016417 2.02145e-05 -4.04356e-05
2.02145e-05 0.000465724 2.26076e-07
-4.04356e-05 2.26076e-07 0.000412695
0.000754078 8.38765e-06 1.18046e-05
8.38765e-06 -0.000192535 9.20656e-07
1.18046e-05 9.20656e-07 -0.000306573
0.00530556 -3.77094e-05 8.38481e-06
-3.77094e-05 0.00269765 3.21961e-07
8.38481e-06 3.21961e-07 0.002696
0.000648877 -8.95395e-06 1.77297e-05
-8.95395e-06 -0.000100988 9.6744e-07
1.77297e-05 9.6744e-07 -0.000166393
0.00537229 -5.40853e-05 0.000206265
-5.40853e-05 0.00272815 -8.30705e-07
0.000206265 -8.30705e-07 0.00273031
0.00129717 -1.17435e-05 -2.23522e-05
-1.17435e-05 0.000397325 -7.38324e-07
-2.23522e-05 -7.38324e-07 0.000363521
0.00163588 1.06226e-05 -4.07122e-05
1.06226e-05 0.000466192 -3.1457e-07
-4.07122e-05 -3.1457e-07 0.000410782
0.00110171 2.22823e-05 1.17621e-05
2.22823e-05 3.90805e-06 1.36344e-06
1.17621e-05 1.36344e-06 -0.000107291
0.00329641 3.69889e-05 7.56873e-05
3.69889e-05 0.00153676 1.51329e-06
7.56873e-05 1.51329e-06 0.00152266
0.000680904 4.64008e-05 1.81703e-05
4.64008e-05 -7.83948e-05 3.55793e-06
1.81703e-05 3.55793e-06 -0.000145447
0.00534022 8.27183e-05 0.000192928
8.27183e-05 0.00270726 9.48832e-06
0.000192928 9.48832e-06 0.00271043
0.00523599 -2.5941e-05 -8.87809e-06
-2.5941e-05 0.00266042 -9.61914e-07
-8.87809e-06 -9.61914e-07 0.00265822
0.000661103 3.41324e-05 1.86447e-05
3.41324e-05 -9.74832e-05 1.75822e-06
1.86447e-05 1.75822e-06 -0.00015837
0.00524107 5.57467e-05 0.000190907
5.57467e-05 0.00265814 -5.0005e-07
0.000190907 -5.0005e-07 0.00265894
0.00327394 2.80155e-05 9.0099e-05
2.80155e-05 0.00152825 2.0947e-06
9.0099e-05 2.0947e-06 0.00151324
0.000686947 5.81861e-06 1.77072e-05
5.81861e-06 -7.66721e-05 2.49594e-06
1.77072e-05 2.49594e-06 -0.000141856
0.0053018 -3.82439e-05 0.000185922
-3.82439e-05 0.00268768 4.62181e-06
0.000185922 4.62181e-06 0.00268938
0.00524487 -0.000133591 0.000185424
-0.000133591 0.00267233 -1.7092e-06
0.000185424 -1.7092e-06 0.00266496
0.00524567 -2.42536e-05 0.00018408
-2.42536e-05 0.00265267 2.19288e-06
0.00018408 2.19288e-06 0.00265742
