# vtk DataFile Version 2.0
Wound Healing Simulation
ASCII
DATASET UNSTRUCTURED_GRID
POINTS 3012 float
69.9759 18.75 4
67.2507 60.3285 4
69.976 18.75 2
73.0099 25.446 4
71.1327 20.9142 4
68.6801 16.6661 4
67.827 19.9258 3.98562
67.2507 60.3286 2
71.1327 54.0858 4
68.6801 58.3339 4
65.6939 62.2254 4
65.3136 59.0027 3.98668
74.6784 42.3946 4
73.7221 47.2057 4
69.9759 18.75 0
73.0099 25.446 2
68.6801 16.6661 2
71.1327 20.9142 2
67.8275 19.9281 2
74.6792 32.6053 4
73.7222 27.7943 4
72.1454 23.1494 4
70.6152 26.2217 3.98505
68.887 21.9586 3.98544
67.2507 14.6715 4
66.6386 17.9706 3.98621
65.8006 21.0239 3.97865
67.2507 60.3285 0
71.1327 54.0858 2
68.6801 58.3339 2
65.694 62.2255 2
65.3146 59.0011 2
72.1454 51.8506 4
69.9759 56.25 4
68.8375 53.1128 3.98457
64.0165 64.0165 4
66.6121 57.1349 3.98627
63.8871 60.7676 3.98834
63.5036 57.7756 3.98097
60.3285 67.2507 4
74.6792 42.3947 2
73.7222 47.2057 2
74.9194 39.9526 4
74.2788 44.8158 4
72.1687 42.0857 3.98315
73.0099 49.554 4
71.2502 46.5981 3.98422
73.0099 25.446 0
71.1327 20.9142 0
68.6801 16.6661 0
67.827 19.9258 0.014383
74.6792 32.6053 2
73.7222 27.7943 2
67.2508 14.6715 2
72.1455 23.1494 2
70.6152 26.2223 2
66.6394 17.9726 2
68.8873 21.9605 2
65.8003 21.0237 2
74.9197 35.0474 4
74.2794 30.1841 4
72.1854 32.9433 3.98351
71.2792 28.4317 3.98474
69.8167 24.0606 3.98519
68.3493 26.9514 3.97617
66.7654 22.9329 3.97725
65.694 12.7746 4
65.3253 16.1016 3.98746
64.7176 19.1918 3.98025
63.8912 22.0331 3.97467
71.1327 54.0858 0
65.6939 62.2254 0
68.6801 58.3339 0
65.3136 59.0027 0.0133223
72.1455 51.8506 2
69.9759 56.25 2
68.8378 53.1107 2
64.0165 64.0165 2
66.613 57.1326 2
63.888 60.7667 2
63.5038 57.7764 2
62.2254 65.694 4
58.8951 65.4151 3.9925
69.7699 50.9884 3.98432
67.785 55.1677 3.9853
66.6517 52.2099 3.97619
62.3373 62.4288 3.99026
64.6644 56.0345 3.98042
62.2054 59.409 3.98207
61.8274 56.6868 3.9776
58.3339 68.6801 4
60.3285 67.2508 2
73.7221 47.2057 0
74.6784 42.3946 0
74.9197 39.9526 2
74.2794 44.8159 2
72.1685 42.0856 2
73.0099 49.554 2
71.2502 46.5977 2
75 37.5 4
72.4058 39.8023 3.9829
71.7833 44.3531 3.98376
69.8054 41.7901 3.97419
70.576 48.8133 3.98427
68.9146 46.0156 3.97533
74.6792 32.6053 0
73.7222 27.7943 0
67.2507 14.6715 0
72.1454 23.1494 0
70.6152 26.2217 0.0149525
68.887 21.9586 0.0145584
66.6386 17.9706 0.0137928
65.8006 21.0239 0.021354
74.9197 35.0474 2
74.2794 30.1841 2
72.1852 32.9434 2
71.2792 28.4318 2
65.694 12.7745 2
65.3261 16.1027 2
69.8168 24.0618 2
68.3492 26.9516 2
64.7177 19.1911 2
66.7651 22.933 2
63.8911 22.0326 2
72.4136 35.2242 3.98291
71.8046 30.6764 3.98398
69.8415 33.2682 3.97475
68.9687 29.0379 3.97603
67.6137 24.9121 3.97632
66.1975 27.6338 3.97286
64.0165 10.9835 4
64.7597 23.829 3.97348
63.8914 14.3252 3.98885
63.5169 17.4421 3.98221
62.9119 20.3162 3.97604
62.0966 22.9406 3.97243
60.6848 11.0962 3.991
57.6132 11.4427 3.98541
72.1454 51.8506 0
69.9759 56.25 0
68.8375 53.1128 0.0154295
64.0165 64.0165 0
63.8871 60.7676 0.0116638
66.6121 57.1349 0.0137291
63.5036 57.7756 0.0190333
62.2255 65.694 2
58.8956 65.4151 2
69.77 50.987 2
67.7856 55.1652 2
66.6515 52.2096 2
62.338 62.4284 2
64.6645 56.0351 2
62.2056 59.41 2
61.8276 56.6878 2
60.6697 63.9782 3.99153
57.0258 66.736 3.99311
57.5591 63.6954 3.98683
67.5094 50.1772 3.97523
65.7049 54.1748 3.97798
64.5398 51.387 3.97197
60.7749 60.9425 3.98355
62.8248 55.0724 3.97722
60.6618 58.1659 3.97816
60.3324 55.7919 3.97665
56.25 69.9759 4
58.3339 68.6801 2
60.3285 67.2507 0
58.922 9.65454 3.99179
62.2254 9.30607 4
73.0099 49.554 0
74.2788 44.8158 0
71.2502 46.5981 0.0157814
72.1687 42.0857 0.0168546
74.9194 39.9526 0
75 37.5 2
72.4057 39.8024 2
71.7832 44.3527 2
69.8053 41.79 2
70.5761 48.8125 2
68.9146 46.0153 2
72.4891 37.5121 3.9827
70.0421 39.6576 3.97354
69.4323 43.9082 3.97488
67.5989 41.4985 3.9707
68.2679 48.1078 3.97516
66.7126 45.4417 3.97188
74.9197 35.0474 0
74.2794 30.1841 0
72.1854 32.9433 0.0164852
71.2792 28.4317 0.0152647
65.694 12.7746 0
65.3253 16.1016 0.0125401
69.8167 24.0606 0.0148103
68.3493 26.9514 0.0238279
66.7654 22.9329 0.0227458
64.7176 19.1918 0.01975
63.8912 22.0331 0.0253285
72.4136 35.2241 2
71.8047 30.6765 2
69.8413 33.2684 2
68.9687 29.0381 2
64.0165 10.9835 2
63.8921 14.3259 2
63.5172 17.4411 2
67.6135 24.9123 2
66.1974 27.6337 2
62.9121 20.3154 2
64.7595 23.8288 2
62.0965 22.9402 2
60.6854 11.0966 2
57.6134 11.4419 2
70.0588 35.3919 3.97375
69.4689 31.1493 3.97505
67.6572 33.5904 3.97134
66.7753 29.6217 3.97226
65.5266 25.6987 3.97284
64.1493 28.2541 3.97203
62.3426 12.6533 3.98996
62.8595 24.6359 3.97161
62.2017 15.7795 3.98337
61.8186 18.6786 3.97824
61.2223 21.3373 3.97341
60.4283 23.7248 3.97191
59.2474 12.7741 3.98383
55.8751 10.2294 3.98691
56.4062 13.1068 3.98216
69.7699 50.9884 0.0156766
62.2254 65.694 0
58.8951 65.4151 0.00750369
67.785 55.1677 0.014702
66.6517 52.2099 0.0238087
62.3373 62.4288 0.00974456
62.2054 59.409 0.0179346
64.6644 56.0345 0.0195801
61.8274 56.6868 0.0223997
60.6702 63.9779 2
57.0261 66.7361 2
57.5591 63.6964 2
67.5092 50.1768 2
65.7048 54.175 2
64.5396 51.3871 2
60.7751 60.9436 2
62.825 55.0733 2
60.662 58.167 2
60.3327 55.7928 2
55.0712 67.933 3.99336
59.2206 62.3703 3.98461
55.8057 64.9132 3.98879
56.3282 62.0958 3.98319
65.3335 49.4097 3.9713
63.7091 53.2949 3.97376
62.4427 50.6544 3.96995
59.3357 59.5635 3.9808
61.0814 54.3143 3.97609
59.2926 57.019 3.97524
59.2464 55.1887 3.97786
48.1037 68.5809 3.98989
50.9488 69.9326 3.99371
54.0858 71.1327 4
56.25 69.976 2
58.3339 68.6801 0
57.0592 8.33461 3.9921
60.3285 7.74928 4
58.9225 9.65474 2
62.2255 9.30602 2
70.576 48.8133 0.0157305
71.7833 44.3531 0.0162396
68.9146 46.0156 0.0246743
69.8054 41.7901 0.0258146
72.4058 39.8023 0.0171032
75 37.5 0
72.489 37.5121 2
70.0421 39.6576 2
69.4322 43.908 2
67.5987 41.4985 2
68.2679 48.1074 2
66.7125 45.4417 2
70.1301 37.5216 3.97361
67.8354 39.5129 3.97013
67.2259 43.4713 3.9712
65.5575 41.211 3.97018
66.071 47.4197 3.97186
64.6552 44.8506 3.9706
72.4136 35.2242 0.0170908
71.8046 30.6764 0.0160218
69.8415 33.2682 0.0252485
68.9687 29.0379 0.0239713
64.0165 10.9835 0
63.8914 14.3252 0.0111485
63.5169 17.4421 0.0177882
67.6137 24.9121 0.0236769
66.1975 27.6338 0.027136
64.7597 23.829 0.0265176
62.9119 20.3162 0.023957
62.0966 22.9406 0.0275657
60.6848 11.0962 0.00899762
57.6132 11.4427 0.0145897
70.0587 35.3921 2
69.469 31.1494 2
67.6571 33.5904 2
66.7753 29.6216 2
62.3432 12.6539 2
62.2018 15.7787 2
61.8189 18.6775 2
65.5264 25.6986 2
64.1492 28.2539 2
61.2225 21.3366 2
62.8593 24.6357 2
60.4283 23.7245 2
59.2474 12.7736 2
56.4062 13.1058 2
55.8752 10.2286 2
67.8714 35.5474 3.97035
67.2673 31.6218 3.9713
65.6996 33.9267 3.97054
64.6659 30.1907 3.97081
63.5403 26.4132 3.97174
62.2604 28.776 3.97211
60.7769 14.2187 3.98354
61.0463 25.336 3.97116
60.6164 17.121 3.98056
60.2272 19.8103 3.97549
59.6645 22.2545 3.97162
58.9792 24.3174 3.97288
54.0381 9.13259 3.98765
57.9116 14.3256 3.98188
54.7874 12.006 3.98355
55.3134 14.6386 3.98068
67.5094 50.1772 0.0247748
57.0258 66.736 0.00689367
60.6697 63.9782 0.00846758
57.5591 63.6954 0.0131698
65.7049 54.1748 0.0220169
64.5398 51.387 0.0280317
60.7749 60.9425 0.0164477
60.6618 58.1659 0.0218409
62.8248 55.0724 0.0227754
60.3324 55.7919 0.0233456
55.0715 67.9331 2
59.2207 62.3713 2
55.8057 64.914 2
56.3282 62.097 2
65.3334 49.4096 2
63.7092 53.2955 2
62.4425 50.6544 2
59.336 59.5648 2
61.0818 54.3151 2
59.293 57.0199 2
59.2468 55.1892 2
53.043 69.0008 3.99359
53.968 66.0154 3.98943
57.8823 60.876 3.98202
54.685 63.2128 3.98511
55.2127 60.6232 3.98141
63.1951 48.6634 3.96993
61.7433 52.5783 3.97146
60.2724 50.0225 3.96881
58.0207 58.2678 3.97751
59.3307 53.952 3.97559
58.1295 55.8172 3.97332
50.1104 67.8589 3.98984
47.4643 66.5849 3.98753
46.0573 69.1603 3.98998
48.1037 68.5813 2
48.8029 70.7239 3.9938
50.9491 69.9327 2
51.8506 72.1454 4
54.0858 71.1327 2
56.25 69.9759 0
55.1035 7.13913 3.99239
58.3339 6.31992 4
57.0596 8.33459 2
60.3286 7.74926 2
58.922 9.65454 0.00820706
62.2254 9.30607 0
68.2679 48.1078 0.0248432
69.4323 43.9082 0.0251185
66.7126 45.4417 0.0281167
67.5989 41.4985 0.0292991
70.0421 39.6576 0.0264621
72.4891 37.5121 0.0172993
70.13 37.5216 2
67.8353 39.5129 2
67.2258 43.4713 2
65.5573 41.211 2
66.0709 47.4196 2
64.6551 44.8507 2
67.9317 37.5222 3.97017
65.7885 39.3709 3.96984
65.1783 43.027 3.97031
63.7542 40.931 3.9711
63.9677 46.7192 3.9706
62.8104 44.219 3.97177
70.0588 35.3919 0.0262475
69.4689 31.1493 0.0249463
67.6572 33.5904 0.0286587
66.7753 29.6217 0.0277441
62.3426 12.6533 0.0100439
62.2017 15.7795 0.0166331
61.8186 18.6786 0.0217581
65.5266 25.6987 0.0271581
64.1493 28.2541 0.0279732
62.8595 24.6359 0.0283906
61.2223 21.3373 0.0265944
60.4283 23.7248 0.0280867
59.2474 12.7741 0.01617
56.4062 13.1068 0.0178403
55.8751 10.2294 0.0130901
67.8714 35.5474 2
67.2674 31.6217 2
65.6995 33.9266 2
64.6659 30.1905 2
60.777 14.2181 2
60.6165 17.1199 2
60.2276 19.8093 2
63.5402 26.4131 2
62.2603 28.7759 2
59.6648 22.2539 2
61.0462 25.3359 2
58.9793 24.3174 2
57.9114 14.3248 2
55.3132 14.6377 2
54.0382 9.13192 2
54.7875 12.005 2
65.8771 35.6667 3.96981
65.1878 32.1534 3.9701
64.2846 34.2494 3.97072
62.5979 30.6344 3.97128
61.653 27.0705 3.97153
60.8531 29.1385 3.97305
59.3128 15.6624 3.98162
59.3304 25.794 3.97215
59.1272 18.3485 3.97876
58.7433 20.8488 3.97257
58.2862 23.089 3.971
57.9677 24.662 3.97531
52.1128 8.15094 3.98822
53.0584 11.0122 3.98442
56.6779 15.7352 3.98094
53.8101 13.6734 3.98198
54.3772 15.9906 3.98051
55.0712 67.933 0.0066352
65.3335 49.4097 0.0287009
55.8057 64.9132 0.0112051
59.2206 62.3703 0.0153867
56.3282 62.0958 0.0168108
63.7091 53.2949 0.026243
62.4427 50.6544 0.0300524
59.3357 59.5635 0.0191992
59.2926 57.019 0.0247565
61.0814 54.3143 0.0239102
59.2464 55.1887 0.0221421
53.0433 69.0009 2
53.9679 66.0161 2
57.8823 60.8771 2
54.6849 63.2139 2
55.2127 60.6246 2
63.195 48.6634 2
61.7437 52.5788 2
60.2722 50.0225 2
58.0212 58.2692 2
59.3312 53.9524 2
58.1301 55.8174 2
52.0716 67.0019 3.98972
52.9543 64.2233 3.98659
56.65 59.4957 3.98016
53.6822 61.6294 3.983
54.2615 59.3289 3.97927
60.9922 47.8838 3.96937
59.7093 52.1086 3.97155
58.0212 49.6207 3.96949
56.7791 56.9942 3.97461
57.1224 54.1251 3.97353
50.1103 67.8594 2
49.338 65.9253 3.98753
47.4641 66.5855 2
46.8932 64.7419 3.98622
45.5592 67.1023 3.98731
43.9741 69.5925 3.98985
46.0573 69.1607 2
46.6095 71.3683 3.99386
48.1037 68.5809 0.0101082
48.8032 70.724 2
49.554 73.0099 4
50.9488 69.9326 0.00628941
51.8506 72.1455 2
54.0858 71.1327 0
53.0645 6.07057 3.99266
55.1038 7.13905 2
56.25 5.02411 4
58.3339 6.3199 2
57.0592 8.33461 0.00790185
60.3285 7.74928 0
66.071 47.4197 0.0281423
67.2259 43.4713 0.0287988
64.6552 44.8506 0.0294025
65.5575 41.211 0.0298156
67.8354 39.5129 0.0298728
70.1301 37.5216 0.0263918
67.9316 37.5222 2
65.7884 39.3709 2
65.1782 43.027 2
63.7542 40.931 2
63.9676 46.7192 2
62.8103 44.219 2
65.8914 37.502 3.96968
63.8903 39.2676 3.97071
63.3297 42.5521 3.97097
62.422 40.6994 3.97227
61.9702 45.9224 3.9711
61.4512 43.6863 3.97311
67.8714 35.5474 0.0296512
67.2673 31.6218 0.028698
65.6996 33.9267 0.0294617
64.6659 30.1907 0.0291913
60.7769 14.2187 0.016463
60.6164 17.121 0.0194433
60.2272 19.8103 0.0245072
63.5403 26.4132 0.0282627
62.2604 28.776 0.0278917
61.0463 25.336 0.0288421
59.6645 22.2545 0.0283752
58.9792 24.3174 0.0271227
57.9116 14.3256 0.0181231
55.3134 14.6386 0.0193191
54.0381 9.13259 0.0123519
54.7874 12.006 0.0164519
65.8771 35.6666 2
65.1879 32.1533 2
64.2847 34.2493 2
62.5979 30.6342 2
59.3126 15.6615 2
59.1274 18.3474 2
58.7439 20.8479 2
61.6528 27.0704 2
60.853 29.1385 2
58.2866 23.0889 2
59.3305 25.7941 2
57.9678 24.6621 2
56.6776 15.7343 2
54.3769 15.9897 2
53.8101 13.6723 2
52.1127 8.15037 2
53.0584 11.0113 2
64.0855 35.6322 3.97044
62.9292 33.0456 3.97088
60.6175 30.6105 3.97278
59.5705 27.908 3.97254
57.9416 16.9762 3.98062
57.7376 25.7229 3.97294
57.7176 19.4694 3.97679
57.3718 21.8369 3.97013
57.1854 23.9453 3.97176
50.1128 7.28281 3.98867
51.2329 10.1203 3.98526
52.1724 12.7907 3.98311
55.5387 16.9646 3.98077
52.9781 15.2554 3.98005
53.759 16.9725 3.98076
53.043 69.0008 0.00640622
53.968 66.0154 0.0105681
63.1951 48.6634 0.0300676
54.685 63.2128 0.0148862
57.8823 60.876 0.0179796
55.2127 60.6232 0.0185893
61.7433 52.5783 0.0285375
60.2724 50.0225 0.0311865
58.0207 58.2678 0.0224925
58.1295 55.8172 0.0266779
59.3307 53.952 0.024409
52.0714 67.0025 2
52.9541 64.2242 2
56.6501 59.4969 2
53.6821 61.6306 2
54.2615 59.3306 2
60.9921 47.8838 2
59.7099 52.1089 2
58.0209 49.6205 2
56.7794 56.9964 2
57.123 54.1253 2
51.1689 65.1323 3.98727
52.0471 62.5451 3.98469
55.4825 58.2566 3.97918
52.8355 60.1429 3.98093
53.6412 58.479 3.98006
58.3032 46.8527 3.97285
57.5567 51.7893 3.97157
56.24 49.5565 3.9732
55.4733 55.7943 3.97246
55.355 53.3825 3.9697
50.1104 67.8589 0.0101602
49.3378 65.9259 2
48.619 64.1284 3.98592
47.4643 66.5849 0.0124672
45.559 67.1028 2
46.893 64.7426 2
46.3826 63.0605 3.98517
45.1335 65.2032 3.98619
43.6322 67.4729 3.9873
41.8611 69.8799 3.98964
43.9742 69.593 2
44.3768 71.8631 3.99374
46.0573 69.1603 0.0100151
46.6098 71.3685 2
47.2057 73.7222 4
48.8029 70.7239 0.00620407
49.554 73.0099 2
51.8506 72.1454 0
50.9542 5.13087 3.99294
53.0648 6.07046 2
54.0858 3.86728 4
55.1035 7.13913 0.00760846
56.25 5.02406 2
58.3339 6.31992 0
63.9677 46.7192 0.0294049
65.1783 43.027 0.029687
62.8104 44.219 0.0282339
63.7542 40.931 0.0289008
65.7885 39.3709 0.0301618
67.9317 37.5222 0.0298282
65.8913 37.502 2
63.8904 39.2676 2
63.3296 42.5521 2
62.4222 40.6994 2
61.97 45.9223 2
61.451 43.6863 2
63.9512 37.4574 3.97054
62.1381 39.3562 3.97181
61.2084 41.9607 3.97282
60.2534 44.7742 3.97359
65.8771 35.6667 0.0301944
65.1878 32.1534 0.0299004
64.2846 34.2494 0.029275
62.5979 30.6344 0.028719
59.3128 15.6624 0.0183785
59.1272 18.3485 0.021239
58.7433 20.8488 0.0274331
61.653 27.0705 0.0284672
60.8531 29.1385 0.0269491
59.3304 25.794 0.027846
58.2862 23.089 0.0290006
57.9677 24.662 0.0246903
56.6779 15.7352 0.0190576
54.3772 15.9906 0.0194914
53.8101 13.6734 0.0180246
52.1128 8.15094 0.0117757
53.0584 11.0122 0.0155806
64.0855 35.6322 2
62.9295 33.0455 2
60.6174 30.6105 2
57.9415 16.9752 2
57.7181 19.4684 2
57.3726 21.8367 2
59.5708 27.908 2
57.1856 23.9456 2
57.7378 25.7231 2
50.1128 7.28227 2
55.5385 16.9636 2
53.7587 16.9715 2
52.9779 15.2543 2
52.1723 12.7898 2
51.2328 10.1197 2
62.1734 35.3595 3.97137
60.2822 32.7449 3.97269
58.6207 30.0742 3.97381
57.2824 27.3793 3.97373
56.6378 18.149 3.98018
56.2885 25.0994 3.97313
56.3583 20.5166 3.97231
56.1075 22.8688 3.96802
48.0565 6.52591 3.98908
49.3246 9.32811 3.98573
50.4334 11.9886 3.98356
51.3779 14.4909 3.98181
54.4158 17.9136 3.98111
52.3614 17.0281 3.97941
52.0716 67.0019 0.0102815
52.9543 64.2233 0.0134121
60.9922 47.8838 0.0306291
53.6822 61.6294 0.0170013
56.65 59.4957 0.0198428
54.2615 59.3289 0.0207252
59.7093 52.1086 0.0284463
58.0212 49.6207 0.0305142
56.7791 56.9942 0.0253942
57.1224 54.1251 0.0264667
51.1687 65.133 2
52.0468 62.5461 2
55.4825 58.2583 2
52.8354 60.1443 2
53.6412 58.4805 2
58.3032 46.8525 2
57.5575 51.7894 2
56.2398 49.5562 2
55.4739 55.7952 2
55.3558 53.383 2
50.3471 63.3867 3.98546
51.245 60.9429 3.9825
54.2205 57.273 3.97905
52.3136 58.6418 3.97898
56.7007 44.187 3.97635
55.4875 47.8995 3.97494
55.0619 51.3874 3.97059
54.0029 54.5425 3.97094
49.338 65.9253 0.0124705
48.6188 64.1291 2
47.9628 62.4817 3.98474
45.5592 67.1023 0.0126922
46.8932 64.7419 0.0137838
43.632 67.4735 2
46.3824 63.0613 2
45.1332 65.2038 2
45.9882 61.5939 3.98448
44.7679 63.4615 3.98565
43.3573 65.5128 3.98613
41.664 67.6917 3.98716
39.7026 70.0271 3.98952
41.8612 69.8804 2
42.1112 72.2079 3.99358
43.9741 69.5925 0.0101495
44.3771 71.8634 2
44.8159 74.2794 4
46.6095 71.3683 0.0061401
47.2057 73.7222 2
49.554 73.0099 0
48.7846 4.32187 3.99317
50.9545 5.1307 2
51.8506 2.85458 4
53.0645 6.07057 0.00734341
54.0858 3.86728 2
56.25 5.02411 0
61.9702 45.9224 0.0288988
63.3297 42.5521 0.0290298
61.4512 43.6863 0.026886
62.422 40.6994 0.0277288
63.8903 39.2676 0.029288
65.8914 37.502 0.0303197
63.9509 37.4573 2
62.1381 39.3562 2
61.2084 41.9607 2
60.2532 44.7741 2
61.9715 37.4452 3.9716
60.2258 39.849 3.97351
58.9788 42.9215 3.97406
64.0855 35.6322 0.0295622
62.9292 33.0456 0.0291172
60.6175 30.6105 0.0272185
57.9416 16.9762 0.0193818
57.7176 19.4694 0.0232147
57.3718 21.8369 0.0298677
59.5705 27.908 0.0274617
57.7376 25.7229 0.0270626
57.1854 23.9453 0.0282356
55.5387 16.9646 0.019231
53.759 16.9725 0.0192429
52.9781 15.2554 0.0199478
50.1128 7.28281 0.0113303
52.1724 12.7907 0.016894
51.2329 10.1203 0.0147395
62.1732 35.3595 2
60.283 32.7448 2
58.62 30.0742 2
56.638 18.1478 2
56.359 20.5151 2
56.1082 22.8695 2
57.2836 27.3794 2
56.2886 25.1 2
48.0565 6.52534 2
49.3245 9.32757 2
54.4158 17.9124 2
52.3611 17.0272 2
51.3778 14.4899 2
50.4332 11.9879 2
59.8663 35.1198 3.97259
57.9831 32.2695 3.97517
56.5391 29.3385 3.97502
55.4375 26.5966 3.97481
55.3428 19.1832 3.97901
54.9254 24.057 3.96976
55.0001 21.5602 3.97101
45.9623 5.88086 3.98944
43.3735 7.47123 3.98712
47.3549 8.6218 3.98629
48.6001 11.29 3.98406
49.714 13.7379 3.98253
50.6335 16.125 3.98025
53.1249 18.6527 3.97774
51.3019 18.0413 3.9848
51.1689 65.1323 0.0127273
52.0471 62.5451 0.015308
58.3032 46.8527 0.0271545
52.8355 60.1429 0.0190715
55.4825 58.2566 0.020819
53.6412 58.479 0.019935
57.5567 51.7893 0.0284296
56.24 49.5565 0.026797
55.4733 55.7943 0.0275421
55.355 53.3825 0.0302959
50.3468 63.3874 2
51.2449 60.944 2
54.2208 57.2747 2
52.3135 58.643 2
56.6999 44.1869 2
55.4869 47.8991 2
55.0629 51.3872 2
54.0037 54.5442 2
49.5926 61.7516 3.98411
55.5982 41.7089 3.97677
50.5677 59.3362 3.97917
52.1853 56.4963 3.97518
54.1607 45.567 3.977
53.3228 49.3293 3.97382
52.6622 52.8432 3.96805
48.619 64.1284 0.0140809
47.9626 62.4823 2
47.3301 61.0168 3.98405
43.6322 67.4729 0.0127
45.1335 65.2032 0.0138089
46.3826 63.0605 0.0148314
41.6638 67.6923 2
43.3571 65.5134 2
45.9881 61.5947 2
44.7676 63.4622 2
45.767 60.6385 3.98347
44.4841 61.8436 3.98432
43.1471 63.7338 3.98538
41.5466 65.6504 3.98583
39.6328 67.7714 3.98693
37.5259 70.0522 3.98939
39.7026 70.0277 2
39.8179 72.405 3.99348
41.8611 69.8799 0.0103587
42.1114 72.2082 2
42.3947 74.6792 4
44.3768 71.8631 0.00626253
44.8159 74.2794 2
47.2057 73.7222 0
43.8516 5.35794 3.98961
46.5706 3.64636 3.99343
48.7849 4.32164 2
49.554 1.99015 4
50.9542 5.13087 0.00706239
51.8506 2.85453 2
54.0858 3.86728 0
60.2534 44.7742 0.0264093
61.2084 41.9607 0.0271835
62.1381 39.3562 0.0281867
63.9512 37.4574 0.0294618
61.9713 37.4452 2
60.2257 39.8489 2
58.9786 42.9214 2
59.7228 37.5676 3.97256
57.9625 40.6592 3.97416
55.0615 39.7235 3.97664
62.1734 35.3595 0.0286347
60.2822 32.7449 0.0273102
58.6207 30.0742 0.0261917
56.6378 18.149 0.0198227
56.3583 20.5166 0.0276879
56.1075 22.8688 0.0319802
57.2824 27.3793 0.0262657
56.2885 25.0994 0.0268654
54.4158 17.9136 0.0188901
52.3614 17.0281 0.0205896
51.3779 14.4909 0.01819
48.0565 6.52591 0.0109161
49.3246 9.32811 0.0142733
50.4334 11.9886 0.0164364
59.8656 35.1198 2
45.9623 5.88037 2
43.3735 7.4708 2
57.9849 32.2694 2
56.5385 29.3386 2
55.3431 19.1818 2
55.001 21.559 2
54.9257 24.058 2
55.4355 26.5974 2
47.3549 8.62116 2
48.5999 11.2894 2
53.125 18.6517 2
51.3019 18.0405 2
50.6333 16.124 2
49.7138 13.737 2
57.3601 34.7606 3.97583
55.7139 31.5189 3.97621
54.4763 28.4037 3.97679
53.7644 25.4966 3.9749
53.9688 20.1323 3.97817
53.5767 22.7121 3.96742
41.3985 7.07662 3.98748
45.3596 7.99305 3.9866
42.8653 9.41325 3.98546
46.6664 10.6506 3.98447
47.7453 13.098 3.98289
48.9311 15.3959 3.98128
50.006 17.6943 3.97981
51.6498 19.3165 3.98737
50.3471 63.3867 0.0145426
51.245 60.9429 0.0174992
56.7007 44.187 0.0236539
55.4875 47.8995 0.0250593
52.3136 58.6418 0.0210234
54.2205 57.273 0.0209468
55.0619 51.3874 0.0294104
54.0029 54.5425 0.0290587
49.5923 61.7523 2
55.5983 41.7089 2
50.5676 59.3373 2
52.1857 56.4976 2
54.1639 45.5667 2
53.3243 49.3281 2
52.6635 52.8431 2
48.8497 60.2096 3.98269
52.4827 42.6441 3.97713
49.7899 57.634 3.9779
50.5899 54.4301 3.97283
51.7766 47.2703 3.97585
51.2007 50.9402 3.96945
48.1087 43.8073 3.99277
47.9628 62.4817 0.0152573
47.3299 61.0174 2
46.6195 59.8037 3.98315
41.664 67.6917 0.0128431
43.3573 65.5128 0.0138688
44.7679 63.4615 0.014352
45.9882 61.5939 0.0155173
39.6328 67.7721 2
41.5464 65.6509 2
45.7668 60.6394 2
43.1468 63.7343 2
44.484 61.8443 2
44.6243 60.3012 3.98352
42.9512 62.092 3.98464
41.6005 63.8271 3.98532
39.6479 65.6185 3.98542
37.5633 67.7538 3.9869
31.6964 65.1372 3.98566
33.3917 67.4913 3.98685
35.333 69.9623 3.98938
37.5259 70.0528 2
37.5095 72.4595 3.99335
39.7026 70.0271 0.0104839
39.818 72.4053 2
39.9526 74.9197 4
42.1112 72.2079 0.00642466
42.3947 74.6792 2
44.8159 74.2794 0
41.7361 4.96721 3.9898
43.8516 5.35749 2
44.3258 3.10962 3.99355
46.5708 3.64612 2
47.2057 1.27793 4
48.7846 4.32187 0.00682866
49.554 1.99013 2
51.8506 2.85458 0
58.9788 42.9215 0.0259421
60.2258 39.849 0.0264855
61.9715 37.4452 0.0283965
59.7229 37.5676 2
57.962 40.659 2
55.0613 39.7234 2
56.7786 37.8969 3.97632
49.5176 41.3413 3.98783
53.0856 39.3063 3.9779
39.4419 6.80018 3.98753
59.8663 35.1198 0.0274138
57.9831 32.2695 0.0248256
56.5391 29.3385 0.0249843
55.3428 19.1832 0.0209915
55.0001 21.5602 0.0289857
54.9254 24.057 0.0302385
55.4375 26.5966 0.0251884
53.1249 18.6527 0.0222617
51.3019 18.0413 0.0152011
50.6335 16.125 0.0197549
45.9623 5.88086 0.0105602
49.714 13.7379 0.0174702
47.3549 8.6218 0.0137102
48.6001 11.29 0.0159358
43.3735 7.47123 0.012882
57.3593 34.7605 2
41.3986 7.07609 2
45.3596 7.99259 2
42.8653 9.41279 2
55.7126 31.5192 2
54.4783 28.4045 2
53.9694 20.131 2
53.5772 22.7088 2
53.7637 25.4974 2
46.6662 10.6499 2
47.745 13.0974 2
51.65 19.3158 2
50.0059 17.6933 2
48.9309 15.3949 2
54.8459 33.9724 3.97696
53.4627 30.4866 3.9755
52.5683 27.1992 3.97536
52.1363 24.097 3.9724
52.388 21.0521 3.98079
41.0133 9.04646 3.98535
44.7235 9.99349 3.98471
42.4682 10.8999 3.98407
46.005 12.7262 3.98258
47.6814 14.5805 3.98226
48.1134 16.9849 3.97896
49.8172 19.6047 3.9761
49.5926 61.7516 0.0158867
50.5677 59.3362 0.0208305
55.5982 41.7089 0.0232305
54.1607 45.567 0.0230019
53.3228 49.3293 0.02618
52.1853 56.4963 0.0248216
52.6622 52.8432 0.0319543
48.8495 60.2102 2
52.4835 42.6426 2
49.7899 57.6352 2
50.5906 54.4319 2
51.776 47.2686 2
51.2026 50.9388 2
48.1098 43.8159 2
47.9877 58.7512 3.98102
50.0469 45.2796 3.97625
48.5967 55.9246 3.97862
49.1207 52.5945 3.97231
49.6462 49.0466 3.97413
45.9209 39.8803 3.89825
46.3526 42.6919 3.94319
46.4494 45.859 3.9951
43.7695 41.1786 3.88182
41.9907 42.0283 3.82608
47.3301 61.0168 0.0159454
46.6192 59.8043 2
45.4693 58.8006 3.9837
39.6328 67.7714 0.0130676
41.5466 65.6504 0.0141707
43.1471 63.7338 0.0146232
44.4841 61.8436 0.0156799
45.767 60.6385 0.0165298
41.6002 63.8277 2
37.5632 67.7544 2
39.6477 65.6191 2
44.6241 60.302 2
42.951 62.0926 2
41.7541 62.5027 3.98469
42.4819 59.994 3.98519
39.8939 63.5622 3.98482
37.6422 65.5175 3.98499
35.4632 67.6631 3.98685
33.5749 65.3505 3.98525
31.9588 63.3104 3.98481
29.8824 64.7281 3.98592
31.6965 65.1379 2
31.3761 67.2012 3.98697
33.3918 67.492 2
33.1556 69.7555 3.98941
35.333 69.9629 2
35.1948 72.3739 3.99334
37.5259 70.0522 0.010608
37.5095 72.4599 2
37.5 75 4
39.8179 72.405 0.00651889
39.9526 74.9197 2
42.3947 74.6792 0
39.6236 4.71434 3.9899
41.7362 4.96671 2
42.0621 2.71727 3.99361
43.8516 5.35794 0.0103916
44.326 3.10935 2
44.8158 0.721173 4
46.5706 3.64636 0.00657496
47.2057 1.27779 2
49.554 1.99015 0
57.9625 40.6592 0.0258414
59.7228 37.5676 0.0274377
55.0615 39.7235 0.0233558
49.5295 41.3435 2
56.7785 37.8967 2
53.0848 39.3065 2
53.9368 36.63 3.97775
47.4444 40.4224 3.94586
50.4579 38.5135 3.98644
37.5157 6.67117 3.9876
39.442 6.79966 2
39.2107 8.68907 3.98567
35.9411 8.48869 3.98592
57.3601 34.7606 0.0241667
55.7139 31.5189 0.023786
54.4763 28.4037 0.0232089
53.9688 20.1323 0.021834
53.5767 22.7121 0.0325832
53.7644 25.4966 0.025102
51.6498 19.3165 0.0126317
50.006 17.6943 0.0201893
48.9311 15.3959 0.0187153
45.3596 7.99305 0.0134045
47.7453 13.098 0.0171092
46.6664 10.6506 0.0155343
41.3985 7.07662 0.0125152
42.8653 9.41325 0.0145371
54.847 33.9724 2
41.0133 9.04599 2
44.7233 9.99313 2
42.4679 10.8994 2
53.4592 30.487 2
52.5728 27.2001 2
52.3888 21.051 2
52.1371 24.0978 2
46.0047 12.7253 2
47.6811 14.5796 2
49.8175 19.6036 2
48.1132 16.9836 2
52.4036 32.8779 3.97932
51.2902 29.1586 3.97721
50.7748 25.7267 3.97155
49.9375 22.1876 3.9777
40.5691 11.6039 3.98325
43.8578 11.9155 3.98357
45.8026 15.4173 3.98135
47.5036 19.2205 3.97689
46.2539 37.4992 3.90369
48.8497 60.2096 0.0173075
49.7899 57.634 0.0221021
52.4827 42.6441 0.0228685
51.7766 47.2703 0.0241477
51.2007 50.9402 0.0305482
50.5899 54.4301 0.0271729
48.1087 43.8073 0.00723334
47.9875 58.7521 2
50.0509 45.2813 2
48.5969 55.926 2
49.1218 52.5969 2
49.6481 49.0455 2
45.941 39.8883 2
46.3678 42.7023 2
46.4494 45.8517 2
43.7876 41.1917 2
41.9971 42.0342 2
46.8389 57.3542 3.98326
44.5151 39.4626 3.87383
42.3437 40.8928 3.84883
48.0461 47.247 3.97607
47.1633 54.254 3.97852
47.572 50.7497 3.97153
44.7682 47.4379 3.99527
45.0193 41.9743 3.90203
44.8901 44.5956 3.94935
42.613 42.7037 3.8816
40.8803 42.3765 3.85537
46.6195 59.8037 0.0168508
45.4688 58.8014 2
43.8773 57.7269 3.98448
37.5633 67.7538 0.0130978
39.6479 65.6185 0.0145752
41.6005 63.8271 0.0146848
42.9512 62.092 0.0153636
44.6243 60.3012 0.0164789
35.4632 67.6638 2
41.7539 62.5032 2
39.8937 63.5627 2
37.6422 65.5181 2
42.4818 59.9948 2
40.6235 61.6615 3.98429
40.4459 58.2283 3.98597
37.837 63.2232 3.98416
35.5727 65.4396 3.98512
33.575 65.3511 2
31.9588 63.311 2
33.6286 63.3502 3.98441
30.3776 62.8689 3.98502
32.1225 62.0175 3.9849
26.8673 61.5125 3.98454
28.0612 64.1562 3.98593
29.8825 64.7288 2
29.4054 66.7648 3.98705
31.6964 65.1372 0.0143379
31.3762 67.2018 2
31.0127 69.4205 3.98947
33.3917 67.4913 0.0131486
33.1556 69.7562 2
32.8917 72.1481 3.99338
35.333 69.9623 0.0106162
35.1947 72.3743 2
35.0474 74.9194 4
37.5095 72.4595 0.00664925
37.5 75 2
39.9526 74.9197 0
35.6203 6.72215 3.98759
37.5227 4.61381 3.99006
39.6237 4.71388 2
39.7885 2.47369 3.99372
41.7361 4.96721 0.0101954
42.0622 2.71697 2
42.3946 0.32156 4
44.3258 3.10962 0.00645287
44.8159 0.72056 2
47.2057 1.27793 0
49.5176 41.3413 0.0121703
56.7786 37.8969 0.0236792
53.0856 39.3063 0.0221028
47.4567 40.4316 2
50.4673 38.5128 2
53.9395 36.6306 2
51.2594 35.5845 3.97722
48.0993 37.7567 3.9636
45.9262 35.1428 3.90112
43.7789 33.8322 3.87814
41.999 32.9874 3.82342
37.4574 8.53076 3.98562
37.5158 6.67049 2
39.4419 6.80018 0.0124744
39.2108 8.68855 2
38.976 10.122 3.98517
35.8978 9.7686 3.98459
34.1496 8.81809 3.98575
35.9412 8.488 2
54.8459 33.9724 0.0230358
53.4627 30.4866 0.024498
52.5683 27.1992 0.0246411
52.388 21.0521 0.0192099
52.1363 24.097 0.0275969
49.8172 19.6047 0.0238972
48.1134 16.9849 0.0210373
47.6814 14.5805 0.0177371
44.7235 9.99349 0.0152947
46.005 12.7262 0.0174247
41.0133 9.04646 0.0146482
42.4682 10.8999 0.0159276
52.4034 32.8779 2
40.5687 11.6036 2
43.8574 11.9151 2
51.3024 29.1588 2
50.7756 25.7285 2
49.9385 22.1865 2
45.8022 15.4161 2
47.5039 19.2191 2
49.9351 31.4147 3.96935
49.2619 27.4783 3.97597
49.3954 24.4008 3.9786
47.1855 21.944 3.97552
38.3014 12.7288 3.98362
42.1013 14.3 3.98263
44.8005 18.4549 3.98004
44.8035 37.508 3.87203
46.2787 37.5065 2
47.9877 58.7512 0.0189828
48.5967 55.9246 0.0213848
50.0469 45.2796 0.0237462
49.6462 49.0466 0.025873
49.1207 52.5945 0.0276862
45.9209 39.8803 0.101751
46.3526 42.6919 0.0568149
46.4494 45.859 0.00489734
43.7695 41.1786 0.118178
41.9907 42.0283 0.173916
46.8387 57.3554 2
44.5272 39.4707 2
42.3408 40.8933 2
48.0479 47.2483 2
47.164 54.2566 2
47.5739 50.7513 2
44.7723 47.414 2
45.0338 41.985 2
44.9049 44.6095 2
42.6365 42.7216 2
40.8792 42.3761 2
45.3978 55.9418 3.98575
42.6743 39.2778 3.86218
40.8019 40.8178 3.90983
46.0685 48.9224 3.98609
45.5341 52.5462 3.98083
43.4297 48.4684 4.01187
43.344 46.1589 3.95175
43.6305 43.792 3.90003
41.1289 43.8784 3.87695
39.2965 42.7367 3.86998
45.4693 58.8006 0.0163025
43.8768 57.7275 2
42.1074 56.3554 3.98817
35.4632 67.6631 0.0131468
37.6422 65.5175 0.0150094
39.8939 63.5622 0.0151834
41.7541 62.5027 0.015312
42.4819 59.994 0.0148149
35.5727 65.4404 2
40.6233 61.662 2
37.8368 63.2237 2
40.4457 58.2292 2
38.926 56.5264 3.99102
38.2505 60.3454 3.9847
35.6069 63.2168 3.98398
33.5749 65.3505 0.0147473
31.9588 63.3104 0.0151884
33.6285 63.3508 2
30.3777 62.8695 2
32.1224 62.0181 2
28.68 62.2143 3.98509
33.3453 61.5305 3.98462
31.0655 61.2349 3.98507
27.5665 59.6108 3.98296
23.7895 59.0954 3.98094
25.0328 60.8848 3.98339
26.8674 61.5129 2
26.2277 63.4885 3.98574
28.0614 64.1568 2
27.4618 66.1887 3.98719
29.8824 64.7281 0.0140791
29.4055 66.7655 2
28.9048 68.946 3.98954
31.3761 67.2012 0.0130308
31.0127 69.4211 2
30.6141 71.7792 3.99345
33.1556 69.7555 0.0105916
32.8916 72.1485 2
32.6054 74.6784 4
35.1948 72.3739 0.0066621
35.0474 74.9197 2
37.5 75 0
33.7228 6.97663 3.98721
35.4341 4.68419 3.98995
35.6202 6.72153 2
37.5139 2.38634 3.99379
37.5228 4.61328 2
39.6236 4.71434 0.0100963
39.7886 2.4734 2
39.9526 0.0806499 4
42.0621 2.71727 0.00639093
42.3947 0.320817 2
44.8158 0.721173 0
44.5344 35.5492 3.86938
42.3554 34.1164 3.84584
47.4444 40.4224 0.0541351
50.4579 38.5135 0.0135616
53.9368 36.63 0.0222533
48.1092 37.7614 2
51.2668 35.5835 2
45.9406 35.1285 2
43.7986 33.818 2
42.0051 32.9818 2
48.2819 34.2989 3.98334
45.0241 33.0403 3.89824
42.6205 32.3136 3.87974
40.8885 32.6381 3.85336
37.3099 10.6255 3.98419
37.4575 8.52988 2
37.5157 6.67117 0.0123998
39.2107 8.68907 0.0143253
38.9759 10.1214 2
34.7529 10.3741 3.9844
35.8978 9.76786 2
32.3762 9.36451 3.98524
34.1495 8.81732 2
35.9411 8.48869 0.0140823
52.4036 32.8779 0.0206821
51.2902 29.1586 0.022793
50.7748 25.7267 0.0284488
49.9375 22.1876 0.0223022
47.5036 19.2205 0.0231124
45.8026 15.4173 0.018646
43.8578 11.9155 0.0164331
40.5691 11.6039 0.0167543
49.9384 31.4113 2
38.3009 12.7284 2
42.1007 14.2997 2
49.2624 27.4803 2
49.3964 24.4 2
47.1868 21.9446 2
44.8007 18.4537 2
47.7604 29.5563 3.99082
47.0933 25.1354 3.98171
44.2894 21.3087 3.97714
36.5809 12.9251 3.98316
38.6808 14.7978 3.98292
41.7498 17.8284 3.9813
42.8205 37.4952 3.86174
44.8239 37.5059 2
46.2539 37.4992 0.0963129
46.8389 57.3542 0.0167353
47.1633 54.254 0.0214804
48.0461 47.247 0.0239308
47.572 50.7497 0.0284747
44.5151 39.4626 0.126174
45.0193 41.9743 0.097969
44.8901 44.5956 0.0506471
44.7682 47.4379 0.00472538
42.613 42.7037 0.118398
42.3437 40.8928 0.151172
40.8803 42.3765 0.144632
45.3978 55.9434 2
42.6756 39.2772 2
40.7983 40.8141 2
46.0698 48.9237 2
45.5358 52.5493 2
43.4327 48.4857 2
43.3665 46.1771 2
43.6469 43.8052 2
41.1467 43.8925 2
39.2924 42.7306 2
43.7354 54.4594 3.99535
40.913 39.1809 3.9373
39.188 40.9094 3.94031
43.6884 50.5201 3.99656
41.9439 47.6991 3.98144
41.8618 45.2062 3.90162
39.3885 44.6151 3.89107
37.4903 42.8652 3.87788
43.8773 57.7269 0.0155178
42.1068 56.356 2
40.4193 54.9673 3.99067
35.5727 65.4396 0.01488
37.837 63.2232 0.0158404
40.6235 61.6615 0.0157071
40.4459 58.2283 0.014029
35.6067 63.2174 2
38.2502 60.3459 2
38.9256 56.5283 2
37.9998 55.2853 3.99015
36.9346 57.6517 3.98641
35.3633 60.9297 3.98434
33.6286 63.3502 0.015594
30.3776 62.8689 0.0149772
32.1225 62.0175 0.0150968
33.3452 61.5311 2
28.6801 62.2148 2
31.0655 61.2354 2
29.4016 60.3047 3.98426
32.3553 59.7637 3.98554
28.0195 58.3905 3.98477
27.5665 59.6112 2
25.3764 58.6088 3.98042
22.753 58.2524 3.9763
23.3986 60.3634 3.98113
23.7894 59.0963 2
25.0329 60.8855 2
24.4302 62.7806 3.98511
26.8673 61.5125 0.0154648
26.2279 63.489 2
25.5458 65.4986 3.98725
28.0612 64.1562 0.0140665
27.4619 66.1892 2
26.8343 68.3343 3.98959
29.4054 66.7648 0.0129461
28.9048 68.9465 2
28.3691 71.2643 3.99351
31.0127 69.4205 0.0105268
30.6139 71.7795 2
30.1842 74.2788 4
32.8917 72.1481 0.00662251
32.6053 74.6792 2
35.0474 74.9194 0
31.7871 7.41633 3.98694
33.3459 4.92332 3.98984
33.7228 6.97599 2
35.2441 2.46249 3.99376
35.4341 4.68368 2
35.6203 6.72215 0.0124074
37.5 0 4
37.514 2.38601 2
37.5227 4.61381 0.00994225
39.7885 2.47369 0.00628265
39.9526 0.0802889 2
42.3946 0.32156 0
42.6878 35.7203 3.86142
44.5478 35.541 2
40.813 34.1924 3.90871
42.3526 34.1175 2
48.0993 37.7567 0.0364034
51.2594 35.5845 0.0227818
45.9262 35.1428 0.09888
43.7789 33.8322 0.121857
41.999 32.9874 0.176583
48.292 34.2893 2
45.0388 33.0292 2
42.6404 32.2984 2
40.8862 32.6379 2
46.2791 31.5613 3.96406
43.6341 31.2306 3.898
41.1426 31.1427 3.87863
39.3032 32.2743 3.86952
35.6911 11.7697 3.98333
37.3099 10.6247 2
37.4574 8.53076 0.0143838
38.976 10.122 0.0148337
33.0966 11.2105 3.9833
34.7529 10.3733 2
35.8978 9.7686 0.0154087
30.4807 10.0124 3.98475
32.3761 9.36375 2
34.1496 8.81809 0.0142504
49.9351 31.4147 0.0306505
49.2619 27.4783 0.024027
49.3954 24.4008 0.0214022
47.1855 21.944 0.0244829
44.8005 18.4549 0.0199564
42.1013 14.3 0.0173663
38.3014 12.7288 0.0163772
36.5805 12.9245 2
47.7613 29.5505 2
38.68 14.7975 2
41.7493 17.8276 2
47.0947 25.1361 2
44.2905 21.3064 2
45.5364 27.6499 3.99811
43.7979 24.0348 3.99715
41.3411 20.704 3.9817
35.7708 14.7497 3.9829
38.6808 17.5834 3.98149
40.9625 37.4871 3.94865
42.8259 37.497 2
44.8035 37.508 0.127971
45.3978 55.9418 0.0142529
45.5341 52.5462 0.0191707
46.0685 48.9224 0.0139149
42.6743 39.2778 0.137816
43.6305 43.792 0.0999724
43.344 46.1589 0.0482529
43.4297 48.4684 -0.0118745
41.1289 43.8784 0.123051
40.8019 40.8178 0.0901678
39.2965 42.7367 0.130016
43.7359 54.4613 2
40.9093 39.1783 2
39.1844 40.9024 2
43.6904 50.5313 2
41.9484 47.7121 2
41.8848 45.2208 2
37.4915 42.8576 2
39.4087 44.6203 2
41.8795 53.0369 3.99551
39.2022 39.1818 3.96833
37.4916 40.9599 3.95307
35.6911 42.7349 3.87054
40.9227 49.7542 4.00322
39.8028 46.1096 3.88427
37.4927 44.8558 3.88897
42.1074 56.3554 0.01183
40.4186 54.9679 2
38.7293 53.9008 3.99349
35.6069 63.2168 0.0160172
38.2505 60.3454 0.0153033
38.926 56.5264 0.00897617
35.363 60.9301 2
36.9342 57.6522 2
37.9992 55.2862 2
36.319 55.4163 3.99268
34.4867 58.5428 3.98567
33.3453 61.5305 0.0153845
28.68 62.2143 0.0149141
31.0655 61.2349 0.0149267
32.3552 59.7642 2
29.4017 60.3052 2
30.295 57.8371 3.98596
28.0194 58.391 2
26.941 56.8395 3.98016
27.5665 59.6108 0.0170353
25.3763 58.6095 2
23.8346 56.8149 3.97477
21.3294 57.4103 3.97617
21.991 59.6342 3.98051
22.7528 58.2535 2
22.734 62.0315 3.98362
23.3986 60.3643 2
23.7895 59.0954 0.0190553
25.0328 60.8848 0.0166143
24.4304 62.7813 2
23.6796 64.7167 3.98689
26.2277 63.4885 0.0142572
25.546 65.4991 2
24.8065 67.5953 3.98956
27.4618 66.1887 0.0128108
26.8343 68.3348 2
26.1642 70.6051 3.99357
28.9048 68.946 0.0104611
28.3688 71.2646 2
27.7943 73.7221 4
30.6141 71.7792 0.00654688
30.1841 74.2794 2
32.6054 74.6784 0
29.8095 7.98943 3.98648
31.251 5.33046 3.98953
31.787 7.41562 2
32.9798 2.70063 3.99367
33.3459 4.92275 2
33.7228 6.97663 0.01279
35.0474 0.080333 4
35.2441 2.46217 2
35.4341 4.68419 0.0100532
37.5 0 2
37.5139 2.38634 0.00620777
39.9526 0.0806499 0
40.9207 35.8052 3.93827
42.6892 35.723 2
44.5344 35.5492 0.130619
28.5414 10.6874 3.9848
39.1952 34.1005 3.94018
40.8085 34.1965 2
42.3554 34.1164 0.154155
48.2819 34.2989 0.0166583
45.0241 33.0403 0.101759
42.6205 32.3136 0.120263
40.8885 32.6381 0.146642
46.2932 31.5531 2
43.6443 31.2183 2
41.1602 31.1279 2
39.2996 32.2786 2
44.3918 29.7427 3.94976
41.8779 29.8131 3.90461
39.4051 30.3932 3.89152
37.497 32.1436 3.87868
34.0909 12.9275 3.98269
35.691 11.7689 2
37.3099 10.6255 0.0158088
31.1844 11.9783 3.98384
33.0966 11.2097 2
34.7529 10.3741 0.0155957
30.4807 10.0115 2
32.3762 9.36451 0.0147563
47.7604 29.5563 0.009176
47.0933 25.1354 0.0182863
36.5809 12.9251 0.0168385
44.2894 21.3087 0.0228583
41.7498 17.8284 0.0186993
38.6808 14.7978 0.0170796
35.7701 14.7492 2
45.5368 27.6481 2
38.6799 17.5827 2
41.3413 20.7015 2
43.7996 24.0362 2
33.6058 15.8654 3.98272
43.0502 26.4709 3.99883
40.9167 23.2705 3.99701
38.4208 20.3111 3.98295
35.8469 17.496 3.984
39.2167 37.4866 3.97557
40.9554 37.487 2
42.8205 37.4952 0.138265
43.7354 54.4594 0.00464876
43.6884 50.5201 0.00344235
40.913 39.1809 0.062698
41.8618 45.2062 0.0983845
41.9439 47.6991 0.0185594
39.3885 44.6151 0.108926
39.188 40.9094 0.0596851
37.4903 42.8652 0.122119
41.8811 53.0394 2
39.1986 39.1807 2
37.4917 40.9537 2
40.9268 49.7587 2
35.694 42.7307 2
39.8258 46.1282 2
37.4912 44.8541 2
39.8202 51.9541 3.99589
37.4903 39.1957 3.98118
35.7953 40.9171 3.93956
34.1042 42.3723 3.85494
35.5773 44.6158 3.8886
38.7137 48.7656 3.99239
37.4866 46.4394 3.88663
40.4193 54.9673 0.0093341
38.7288 53.9007 2
36.7201 53.2566 4.00611
35.3633 60.9297 0.0156615
36.9346 57.6517 0.0135943
37.9998 55.2853 0.00984746
34.4865 58.543 2
36.3185 55.4167 2
33.2237 55.5293 3.98836
32.3553 59.7637 0.0144572
29.4016 60.3047 0.015736
30.2951 57.8377 2
28.6851 55.3296 3.97961
28.0195 58.3905 0.0152258
26.9406 56.8401 2
25.3046 55.1528 3.97571
21.8027 55.3564 3.9717
25.3764 58.6088 0.0195811
23.8343 56.8163 2
20.2137 57.0381 3.97909
20.6417 58.7913 3.97879
21.329 57.4115 2
21.1643 61.1802 3.98222
21.991 59.6353 2
22.753 58.2524 0.0236974
21.893 63.8446 3.98619
22.7342 62.0325 2
23.3986 60.3634 0.0188665
24.4302 62.7806 0.0148893
23.6799 64.7174 2
22.8347 66.7389 3.98953
25.5458 65.4986 0.012746
24.8066 67.5958 2
24.0084 69.8062 3.99354
26.8343 68.3343 0.0104116
26.164 70.6053 2
25.446 73.0099 4
28.3691 71.2643 0.00648747
27.7943 73.7222 2
30.1842 74.2788 0
27.8193 8.64894 3.98626
29.1529 5.87617 3.9892
29.8094 7.98867 2
30.7249 3.09781 3.99349
31.2509 5.32986 2
31.7871 7.41633 0.0130576
32.6053 0.320823 4
32.9797 2.7003 2
33.3459 4.92332 0.01016
35.0474 0.0802903 2
35.2441 2.46249 0.00624418
37.5 0 0
39.2149 35.8039 3.96779
40.9166 35.8078 2
42.6878 35.7203 0.13858
28.5414 10.6865 2
26.6202 11.3821 3.98487
29.2232 12.6344 3.98433
37.4966 34.0483 3.95337
39.1911 34.1068 2
40.813 34.1924 0.0912913
46.2791 31.5613 0.0359353
43.6341 31.2306 0.102002
41.1426 31.1427 0.121367
39.3032 32.2743 0.13048
44.4083 29.7297 2
41.8992 29.7962 2
39.4209 30.384 2
37.4974 32.1513 2
42.3553 28.3798 3.93718
39.8501 28.8983 3.8991
37.5085 30.1417 3.88786
35.6943 32.2664 3.8693
31.9121 14.4715 3.9834
34.0907 12.9266 2
35.6911 11.7697 0.0166739
31.1844 11.9775 2
33.0966 11.2105 0.0167049
30.4807 10.0124 0.0152537
45.5364 27.6499 0.00189467
43.7979 24.0348 0.00285151
35.7708 14.7497 0.0171023
41.3411 20.704 0.0182995
38.6808 17.5834 0.0185128
33.6051 15.865 2
35.8458 17.4958 2
43.0529 26.4745 2
38.4202 20.3103 2
40.9169 23.2649 2
33.5478 17.3731 3.98442
40.4254 25.612 4.00884
38.0762 22.8385 3.99343
35.5824 20.0597 3.98715
37.4962 37.4951 3.98664
39.2114 37.4865 2
40.9625 37.4871 0.0513491
41.8795 53.0369 0.00449108
40.9227 49.7542 -0.00322181
39.2022 39.1818 0.0316734
39.8028 46.1096 0.115734
37.4927 44.8558 0.111031
37.4916 40.9599 0.0469252
35.6911 42.7349 0.12946
39.8237 51.9568 2
37.4915 39.1942 2
35.7994 40.9112 2
38.7135 48.7948 2
34.1058 42.3712 2
35.5663 44.6295 2
37.4856 46.4593 2
37.6594 51.0543 4.01053
35.7838 39.1966 3.96891
34.1853 40.8234 3.90958
32.9897 42.0236 3.82483
33.8394 43.871 3.87577
35.1546 46.1016 3.89494
36.8479 48.4146 3.9751
38.7293 53.9008 0.00651067
36.7202 53.2568 2
34.3601 52.5081 3.99304
34.4867 58.5428 0.0143293
36.319 55.4163 0.00732056
33.2234 55.5292 2
30.5139 53.4099 3.98237
30.295 57.8371 0.0140397
28.6846 55.3308 2
26.8748 53.4432 3.97507
26.941 56.8395 0.0198389
25.3042 55.1551 2
23.5656 53.4874 3.97025
20.4598 53.226 3.96654
19.9261 55.8399 3.97527
21.8021 55.3576 2
23.8346 56.8149 0.0252309
19.4341 57.9003 3.97808
20.2132 57.0389 2
19.7038 60.213 3.98107
20.6415 58.7925 2
21.3294 57.4103 0.0238284
20.2056 62.8653 3.98456
21.1643 61.1813 2
21.991 59.6342 0.0194947
20.9362 65.7679 3.98933
21.8932 63.8455 2
22.734 62.0315 0.0163841
23.6796 64.7167 0.0131055
22.8348 66.7395 2
21.9109 68.8732 3.99348
24.8065 67.5953 0.0104379
24.0082 69.8063 2
23.1494 72.1454 4
26.1642 70.6051 0.00643335
25.446 73.0099 2
27.7943 73.7221 0
25.8583 9.3768 3.9861
27.0676 6.5402 3.98886
27.8191 8.6481 2
28.4871 3.64374 3.99331
29.1528 5.87552 2
29.8095 7.98943 0.0135154
30.1841 0.720592 4
30.7248 3.09749 2
31.251 5.33046 0.0104663
32.6053 0.320817 2
32.9798 2.70063 0.00632743
35.0474 0.080333 0
37.4993 35.8003 3.98177
39.2088 35.8048 2
40.9207 35.8052 0.0617254
24.775 12.0648 3.98498
23.7493 14.3489 3.98409
28.5414 10.6874 0.015199
26.6203 11.3815 2
29.2232 12.6335 2
27.2893 13.3666 3.98435
29.7779 14.1931 3.9837
35.8037 34.0892 3.94041
37.4967 34.0544 2
39.1952 34.1005 0.0598161
37.497 32.1436 0.121323
44.3918 29.7427 0.0502384
41.8779 29.8131 0.0953912
39.4051 30.3932 0.108476
42.3734 28.3634 2
39.8655 28.8774 2
37.5096 30.1422 2
35.6989 32.2712 2
40.0439 27.5239 3.93614
37.5205 28.5644 3.8959
35.5974 30.3892 3.89176
34.1135 32.6242 3.85333
30.9234 16.8267 3.9838
31.9119 14.4708 2
34.0909 12.9275 0.0173065
31.1844 11.9783 0.0161603
43.0502 26.4709 0.00117045
40.9167 23.2705 0.00298642
33.6058 15.8654 0.0172799
35.8469 17.496 0.0160043
38.4208 20.3111 0.0170499
33.547 17.3731 2
35.5819 20.0589 2
40.4264 25.607 2
38.0763 22.8378 2
32.8606 19.7772 3.98541
37.8001 25.1482 4.01879
35.2008 22.6116 3.99289
35.7792 37.5 3.97684
37.496 37.4946 2
39.2167 37.4866 0.0244321
39.8202 51.9541 0.00411498
38.7137 48.7656 0.00760531
37.4903 39.1957 0.018822
37.4866 46.4394 0.113367
35.5773 44.6158 0.111405
35.7953 40.9171 0.0604447
34.1042 42.3723 0.145058
37.6638 51.0644 2
35.7904 39.1948 2
34.1892 40.8192 2
36.8483 48.4304 2
32.9836 42.0275 2
33.8277 43.8806 2
35.1355 46.1158 2
35.4574 50.1859 4.01259
34.0822 39.193 3.93843
32.6322 40.8926 3.84709
32.363 42.6956 3.88092
33.1247 45.1966 3.90308
34.264 47.4742 3.94622
36.7201 53.2566 -0.00611137
34.3605 52.5101 2
31.9945 51.2182 3.99678
33.2237 55.5293 0.0116362
30.5133 53.4127 2
28.4198 51.6185 3.97861
28.6851 55.3296 0.020395
26.8741 53.4446 2
25.0696 51.7581 3.96749
25.3046 55.1528 0.0242923
23.565 53.4885 2
21.9562 51.8078 3.96587
19.1929 51.6379 3.969
18.9149 54.3136 3.96903
20.4591 53.2257 2
18.4421 56.7313 3.97778
19.9254 55.8408 2
21.8027 55.3564 0.0283019
18.3659 59.1185 3.97786
19.4338 57.9012 2
20.2137 57.0381 0.0209122
18.6166 61.7719 3.98281
19.7037 60.2141 2
20.6417 58.7913 0.0212079
19.1252 64.6786 3.98839
20.2057 62.8663 2
21.1643 61.1802 0.0177801
19.8849 67.8098 3.99333
20.9363 65.7686 2
21.893 63.8446 0.0138111
22.8347 66.7389 0.0104695
21.9106 68.8734 2
20.9142 71.1327 4
24.0084 69.8062 0.00646483
23.1494 72.1455 2
25.446 73.0099 0
23.0944 12.7792 3.98458
23.9708 10.1631 3.98602
25.0213 7.31027 3.98867
25.8583 9.37614 2
26.2788 4.32796 3.99314
27.0674 6.5395 2
27.8193 8.64894 0.0137404
27.7943 1.27781 4
28.4869 3.64344 2
29.1529 5.87617 0.0107961
30.1841 0.720551 2
30.7249 3.09781 0.00651179
32.6053 0.320823 0
35.7871 35.8059 3.9696
37.4986 35.8011 2
39.2149 35.8039 0.0322134
24.7752 12.0643 2
23.7496 14.3487 2
22.478 15.0254 3.98354
25.3554 13.8983 3.98392
24.0224 15.6108 3.98296
26.6202 11.3821 0.0151266
29.2232 12.6344 0.0156741
27.2894 13.3662 2
29.7778 14.1922 2
28.3537 15.9663 3.98403
34.198 34.1818 3.90863
35.8073 34.0953 2
37.4966 34.0483 0.0466343
35.6943 32.2664 0.1307
37.5085 30.1417 0.112137
42.3553 28.3798 0.0628233
39.8501 28.8983 0.100899
40.0555 27.5097 2
37.5228 28.5435 2
35.5822 30.3782 2
34.116 32.6238 2
37.619 27.2015 3.94443
35.1777 28.8836 3.89738
33.8499 31.1302 3.87814
33.0069 32.974 3.82482
30.2049 19.328 3.98645
30.9229 16.8262 2
31.9121 14.4715 0.0166019
40.4254 25.612 -0.00883908
38.0762 22.8385 0.00657453
33.5478 17.3731 0.0155759
35.5824 20.0597 0.0128461
32.8594 19.7777 2
35.1981 22.607 2
37.7893 25.1491 2
32.3079 22.3886 3.99008
34.9754 25.1375 4.00815
34.0346 37.5003 3.94797
35.7841 37.4994 2
37.4962 37.4951 0.0133647
37.6594 51.0543 -0.0105262
36.8479 48.4146 0.0249021
35.7838 39.1966 0.0310907
35.1546 46.1016 0.10506
33.8394 43.871 0.124226
34.1853 40.8234 0.090416
32.9897 42.0236 0.175169
35.4554 50.1959 2
34.0899 39.1903 2
32.6338 40.8913 2
34.2588 47.5067 2
32.3447 42.7086 2
33.1048 45.215 2
33.2318 49.177 4.00711
32.3032 39.2833 3.8629
31.2027 41.1734 3.87967
31.3566 43.7831 3.89919
32.2386 46.3929 3.94533
34.3601 52.5081 0.00695687
31.9937 51.2243 2
29.8448 49.732 3.98761
30.5139 53.4099 0.0176331
28.4186 51.6163 2
26.4965 49.9992 3.97115
26.8748 53.4432 0.0249323
25.0687 51.7568 2
23.3317 50.2034 3.97429
23.5656 53.4874 0.0297455
21.9557 51.8072 2
20.456 50.3214 3.97134
17.9808 50.3343 3.97157
17.8274 52.7947 3.96777
19.1924 51.6378 2
17.4314 55.3461 3.97305
18.9141 54.3142 2
20.4598 53.226 0.0334579
17.1312 57.8798 3.97828
18.4416 56.7323 2
19.9261 55.8399 0.0247256
17.1342 60.5542 3.98039
18.3658 59.1196 2
19.4341 57.9003 0.02192
17.4059 63.4707 3.98655
18.6167 61.773 2
19.7038 60.213 0.0189328
17.9411 66.6182 3.99305
19.1253 64.6794 2
20.2056 62.8653 0.0154371
18.75 69.9759 4
19.8846 67.8099 2
20.9362 65.7679 0.0106696
21.9109 68.8732 0.00652058
20.9142 71.1327 2
23.1494 72.1454 0
21.5853 13.5994 3.98406
22.1888 11.0222 3.98569
23.0947 12.7791 2
23.0392 8.17555 3.98856
23.9708 10.1628 2
24.1164 5.14267 3.99297
25.0211 7.30974 2
25.8583 9.3768 0.0138982
25.446 1.99014 4
26.2784 4.3277 2
27.0676 6.5402 0.011139
27.7943 1.27778 2
28.4871 3.64374 0.00668643
30.1841 0.720592 0
34.0811 35.8087 3.93706
35.7915 35.8067 2
37.4993 35.8003 0.018232
21.3031 15.8211 3.98282
24.775 12.0648 0.0150161
23.7493 14.3489 0.0159087
25.3556 13.898 2
22.4784 15.0254 2
24.0228 15.6107 2
23.2616 16.2424 3.98275
25.3777 16.0788 3.98386
27.2893 13.3666 0.0156474
29.7779 14.1931 0.0162968
28.3539 15.9661 2
27.4367 18.7875 3.9851
32.6561 34.1064 3.84727
34.203 34.1849 2
35.8037 34.0892 0.0595868
34.1135 32.6242 0.146674
35.5974 30.3892 0.108239
37.5205 28.5644 0.104099
40.0439 27.5239 0.0638557
37.6189 27.1704 2
32.9999 32.9707 2
35.1622 28.8648 2
33.8331 31.1114 2
35.0666 27.3277 3.9501
33.1334 29.8069 3.89714
32.3715 32.2949 3.87707
29.5716 21.9207 3.99486
30.2045 19.3287 2
30.9234 16.8267 0.0161972
37.8001 25.1482 -0.0187894
35.2008 22.6116 0.00711106
32.8606 19.7772 0.0145896
32.3052 22.3896 2
34.9842 25.1382 2
31.6849 25.6025 4.00105
32.1679 37.5029 3.86288
34.0426 37.5002 2
35.7792 37.5 0.0231618
35.4574 50.1859 -0.0125944
34.264 47.4742 0.0537784
34.0822 39.193 0.0615726
33.1247 45.1966 0.0969248
32.363 42.6956 0.119084
32.6322 40.8926 0.152912
33.2286 49.1659 2
32.3026 39.2803 2
31.1833 41.1833 2
32.215 46.4125 2
31.3426 43.7951 2
31.1324 48.0008 3.99634
30.4526 39.4566 3.87058
29.9608 41.9695 3.89604
30.4106 44.9739 3.94845
31.9945 51.2182 0.00321544
29.8435 49.7294 2
27.8591 48.1967 3.97445
28.4198 51.6185 0.0213874
26.4958 49.9975 2
24.6377 48.4838 3.97799
25.0696 51.7581 0.0325059
23.3313 50.2026 2
21.6493 48.801 3.97173
21.9562 51.8078 0.0341333
20.4555 50.3211 2
19.024 49.0997 3.97349
16.8869 49.3357 3.97302
16.7682 51.4091 3.96978
17.9808 50.3341 2
16.3848 53.8734 3.97014
17.827 52.795 2
19.1929 51.6379 0.0309994
15.9726 56.4805 3.97604
17.4308 55.347 2
18.9149 54.3136 0.0309725
15.7475 59.2144 3.97962
17.131 57.8809 2
18.4421 56.7313 0.0222186
15.7867 62.1405 3.98397
17.1342 60.5554 2
18.3659 59.1185 0.0221401
16.0878 65.3006 3.99236
17.4059 63.4715 2
18.6166 61.7719 0.017192
16.6661 68.6801 4
17.9407 66.6182 2
19.1252 64.6786 0.0116059
18.75 69.9759 2
19.8849 67.8098 0.00666763
20.9142 71.1327 0
20.2173 14.5882 3.98328
21.5856 13.5993 2
20.5281 11.992 3.98508
21.1421 9.14523 3.98855
22.189 11.022 2
23.0944 12.7792 0.0154237
22.0154 6.08162 3.99291
23.0391 8.17518 2
23.9708 10.1631 0.0139801
23.1494 2.85457 4
24.116 5.14254 2
25.0213 7.31027 0.0113267
25.446 1.99012 2
26.2788 4.32796 0.00686243
27.7943 1.27781 0
32.3149 35.7175 3.86193
34.0869 35.8111 2
35.7871 35.8059 0.030396
21.3034 15.8206 2
20.3006 16.9555 3.98267
22.0948 16.6267 3.98126
25.3554 13.8983 0.0160779
22.478 15.0254 0.016461
24.0224 15.6108 0.0170356
25.378 16.0786 2
23.262 16.2424 2
24.2011 18.4417 3.98088
27.0091 21.4454 3.98749
28.3537 15.9663 0.0159741
27.4367 18.7875 2
31.2309 33.8272 3.87997
32.6565 34.1093 2
34.198 34.1818 0.0913702
33.0069 32.974 0.175184
33.8499 31.1302 0.121859
35.1777 28.8836 0.102622
37.619 27.2015 0.0555654
35.0499 27.3045 2
32.3601 32.2903 2
33.1149 29.7823 2
32.5365 28.0624 3.96888
31.3522 31.2216 3.89955
28.7938 24.3871 3.98606
29.569 21.9227 2
30.2049 19.328 0.0135494
34.9754 25.1375 -0.00814582
32.3079 22.3886 0.0099243
31.6907 25.5899 2
29.6391 27.2958 3.96883
30.1765 37.4944 3.8728
32.1686 37.5016 2
34.0346 37.5003 0.0520288
33.2318 49.177 -0.00710689
32.2386 46.3929 0.0546697
32.3032 39.2833 0.137104
31.3566 43.7831 0.100814
31.2027 41.1734 0.120334
31.132 48.0007 2
30.4381 39.4666 2
29.9467 41.9821 2
30.3887 44.9875 2
29.168 46.5935 3.99975
29.0555 39.8581 3.89821
28.6828 43.1845 3.9548
29.8448 49.732 0.012394
27.8584 48.1918 2
25.936 46.6768 3.97682
26.4965 49.9992 0.0288497
24.6373 48.4822 2
22.8031 47.0924 3.97725
23.3317 50.2034 0.0257135
21.6488 48.8004 2
19.971 47.628 3.97675
20.456 50.3214 0.0286647
19.0248 49.0993 2
17.6633 48.1839 3.9746
16.1375 48.6864 3.97405
16.8872 49.3355 2
15.8458 50.1723 3.97267
15.3751 52.4171 3.97052
16.7681 51.4091 2
17.9808 50.3343 0.0284267
14.8654 54.9798 3.97298
16.3843 53.874 2
17.8274 52.7947 0.0322255
14.4566 57.7428 3.97838
15.9722 56.4815 2
17.4314 55.3461 0.0269478
14.2649 60.6943 3.98256
15.7474 59.2156 2
17.1312 57.8798 0.021717
14.3323 63.8597 3.99124
15.7866 62.1415 2
17.1342 60.5542 0.0196071
14.6715 67.2507 4
16.0874 65.3005 2
17.4059 63.4707 0.0134485
16.6661 68.6801 2
17.9411 66.6182 0.0069451
18.75 69.9759 0
18.9313 15.7758 3.98225
20.2175 14.5879 2
18.9778 13.1028 3.98423
21.5853 13.5994 0.0159445
20.5285 11.9918 2
19.3415 10.233 3.98831
19.9899 7.14627 3.9929
21.1422 9.14489 2
22.1888 11.0222 0.0143071
20.9142 3.86727 4
22.0149 6.08164 2
23.0392 8.17555 0.0114368
23.1494 2.85451 2
24.1164 5.14267 0.00702771
25.446 1.99014 0
30.4758 35.5489 3.87491
32.3161 35.7198 2
34.0811 35.8087 0.0629404
21.3031 15.8211 0.0171792
22.0951 16.6263 2
20.3008 16.9548 2
19.2401 18.403 3.9809
21.7792 17.8433 3.98171
25.3777 16.0788 0.0161433
23.2616 16.2424 0.0172451
24.2013 18.4418 2
22.2744 19.8861 3.9777
24.5867 21.3141 3.98236
26.4119 23.71 3.97824
27.0083 21.4457 2
27.4367 18.7875 0.0149024
29.9793 33.0283 3.89657
31.206 33.8056 2
32.6561 34.1064 0.152731
32.3715 32.2949 0.122934
33.1334 29.8069 0.102861
35.0666 27.3277 0.0499035
32.5284 28.054 2
31.354 31.2153 2
30.112 29.5252 3.96303
27.8779 26.5289 3.97287
28.7954 24.3941 2
29.5716 21.9207 0.00513673
31.6849 25.6025 -0.00104581
29.6351 27.2576 2
28.7226 37.5088 3.90363
30.1681 37.496 2
32.1679 37.5029 0.137122
31.1324 48.0008 0.00365885
30.4106 44.9739 0.0515534
30.4526 39.4566 0.129416
29.9608 41.9695 0.10396
29.168 46.6081 2
29.0387 39.8694 2
28.6662 43.1962 2
27.2718 44.8694 3.98787
26.8255 40.6029 3.97368
27.8591 48.1967 0.0255468
25.9345 46.6787 2
24.0038 45.2298 3.97866
24.6377 48.4838 0.0220145
22.803 47.0915 2
20.9308 45.9065 3.97881
21.6493 48.801 0.0282687
19.9728 47.6275 2
18.3128 46.7435 3.97666
19.024 49.0997 0.0265084
17.6631 48.1837 2
16.3274 47.7167 3.97429
16.1377 48.6864 2
15.1922 49.0175 3.97333
16.8869 49.3357 0.0269822
15.8459 50.1722 2
14.4892 50.9857 3.97164
13.8285 53.435 3.97201
15.375 52.4173 2
16.7682 51.4091 0.0302185
13.2524 56.1694 3.976
14.865 54.9806 2
16.3848 53.8734 0.0298596
12.8472 59.1277 3.98194
14.4564 57.7439 2
15.9726 56.4805 0.0239574
12.6779 62.3021 3.98942
14.2647 60.6952 2
15.7475 59.2144 0.0203841
12.7746 65.6939 4
14.3317 63.8595 2
15.7867 62.1405 0.016029
14.6714 67.2507 2
16.0878 65.3006 0.00764324
16.6661 68.6801 0
17.6656 17.1518 3.98086
18.9314 15.7753 2
17.5096 14.3677 3.98298
20.2173 14.5882 0.0167203
18.9782 13.1024 2
17.6372 11.4519 3.9875
20.5281 11.992 0.0149199
19.3417 10.2327 2
18.0501 8.33914 3.99282
18.75 5.0241 4
19.9895 7.14641 2
21.1421 9.14523 0.0114531
20.9142 3.86727 2
22.0154 6.08162 0.00708529
23.1494 2.85457 0
29.0712 35.1197 3.89811
30.458 35.5384 2
32.3149 35.7175 0.138069
22.0948 16.6267 0.0187441
20.3006 16.9555 0.0173263
21.7793 17.8427 2
19.2403 18.4022 2
17.977 19.9364 3.97817
20.8727 19.3724 3.98017
24.2011 18.4417 0.0191244
22.2745 19.8855 2
24.5866 21.3151 2
22.3529 21.7128 3.98005
24.69 23.1599 3.97581
25.4597 25.938 3.96555
26.4144 23.7103 2
27.0091 21.4454 0.012505
28.352 32.3094 3.94549
29.9639 33.0221 2
31.2309 33.8272 0.120032
31.3522 31.2216 0.100454
32.5365 28.0624 0.0311153
30.0915 29.511 2
27.0253 29.1222 3.99663
27.8742 26.5265 2
28.7938 24.3871 0.0139411
29.6391 27.2958 0.0311712
26.9513 37.3672 3.95942
28.7029 37.5022 2
30.1765 37.4944 0.127201
29.168 46.5935 0.000246644
28.6828 43.1845 0.0452024
29.0555 39.8581 0.101789
27.2721 44.8779 2
26.8142 40.6161 2
25.2791 43.1832 3.97026
24.0727 39.4273 3.97882
25.936 46.6768 0.0231846
23.9975 45.23 2
21.906 43.9618 3.97838
22.8031 47.0924 0.0227485
20.9336 45.9058 2
18.9739 44.9759 3.97768
19.971 47.628 0.0232501
18.3127 46.7434 2
16.6171 46.2158 3.97434
17.6633 48.1839 0.0253993
16.3274 47.7167 2
14.9211 47.6723 3.97285
16.1375 48.6864 0.0259493
15.1924 49.0175 2
13.7873 49.5469 3.97221
15.8458 50.1723 0.0273268
14.4894 50.9858 2
12.8959 51.874 3.97213
12.1408 54.527 3.97455
13.8284 53.4355 2
15.3751 52.4171 0.0294775
11.5322 57.4592 3.98029
13.2521 56.1704 2
14.8654 54.9798 0.0270184
11.1326 60.628 3.988
12.8471 59.1285 2
14.4566 57.7428 0.0216231
10.9835 64.0165 4
12.6773 62.3016 2
14.2649 60.6943 0.0174445
12.7745 65.694 2
14.3323 63.8597 0.008759
14.6715 67.2507 0
16.3984 18.6467 3.97937
17.6656 17.1511 2
16.1007 15.7771 3.98235
18.9313 15.7758 0.0177542
17.5098 14.367 2
16.0192 12.8056 3.98549
18.9778 13.1028 0.0157661
17.6375 11.4513 2
16.2012 9.66224 3.99264
19.3415 10.233 0.0116861
18.0497 8.33939 2
16.6661 6.31991 4
18.75 5.02404 2
19.9899 7.14627 0.00709601
20.9142 3.86727 0
27.4633 34.7645 3.94447
29.0499 35.1097 2
30.4758 35.5489 0.125092
16.6792 21.3745 3.97389
21.7792 17.8433 0.0182871
19.2401 18.403 0.0190961
20.8728 19.3717 2
17.9772 19.9356 2
19.7203 21.5684 3.98045
22.2744 19.8861 0.0223002
24.5867 21.3141 0.0176429
22.3532 21.7122 2
24.691 23.1601 2
22.8414 24.5968 3.97097
24.5673 28.5209 3.9691
25.4565 25.9368 2
26.4119 23.71 0.0217575
26.1931 31.6937 3.99127
28.336 32.2967 2
29.9793 33.0283 0.103427
30.112 29.5252 0.0369674
27.0329 29.1219 2
27.8779 26.5289 0.0271269
24.7734 36.8553 3.98478
26.9367 37.3678 2
28.7226 37.5088 0.0963658
27.2718 44.8694 0.0121258
26.8255 40.6029 0.0263247
25.2727 43.1874 2
24.0635 39.4277 2
22.9818 41.804 3.97995
21.7894 38.5016 3.97624
24.0038 45.2298 0.0213445
21.9068 43.9615 2
19.7413 42.8924 3.97783
20.9308 45.9065 0.0211933
18.9732 44.9758 2
16.9509 44.3826 3.97416
18.3128 46.7435 0.0233399
16.617 46.2157 2
14.8401 46.0925 3.97223
16.3274 47.7167 0.025708
14.9212 47.6723 2
13.2938 48.0097 3.97198
15.1922 49.0175 0.026671
13.7875 49.547 2
12.1154 50.2526 3.97213
14.4892 50.9857 0.0283648
12.8961 51.8742 2
11.1371 52.8358 3.97397
10.3233 55.7106 3.97871
12.1408 54.5277 2
13.8285 53.435 0.0279853
9.69928 58.8501 3.98651
11.5319 57.4601 2
13.2524 56.1694 0.0240015
9.30605 62.2254 4
11.1317 60.6272 2
12.8472 59.1277 0.0180641
10.9835 64.0165 2
12.6779 62.3021 0.0105836
12.7746 65.6939 0
15.1447 20.1829 3.97554
16.3984 18.6459 2
14.7464 17.3004 3.98045
17.6656 17.1518 0.0191354
16.1008 15.7762 2
14.4818 14.2879 3.98405
17.5096 14.3677 0.0170212
16.0193 12.8049 2
14.4441 11.1134 3.99202
17.6372 11.4519 0.0125026
16.2009 9.6625 2
14.6715 7.74927 4
18.0501 8.33914 0.00718022
16.6661 6.31988 2
18.75 5.0241 0
25.4148 34.2594 3.98788
27.4476 34.7598 2
29.0712 35.1197 0.101895
17.8536 22.3203 3.9824
15.5266 22.9191 3.97063
16.6794 21.3737 2
20.8727 19.3724 0.0198293
17.977 19.9364 0.021833
19.7206 21.5676 2
19.6621 24.378 3.97017
22.3529 21.7128 0.0199494
24.69 23.1599 0.024195
22.8411 24.5958 2
21.9343 27.8172 3.9707
23.7615 31.181 3.97393
24.5721 28.5206 2
25.4597 25.938 0.0344491
26.1906 31.6866 2
28.352 32.3094 0.0545087
27.0253 29.1222 0.00337252
22.5238 36.2733 3.97743
24.7599 36.8545 2
26.9513 37.3672 0.0405757
25.2791 43.1832 0.0297374
24.0727 39.4273 0.0211807
22.979 41.8025 2
21.7865 38.5016 2
20.7177 40.6335 3.97702
20.1278 37.7817 3.97663
21.906 43.9618 0.021622
19.7421 42.8926 2
17.3697 42.1019 3.97442
18.9739 44.9759 0.0223176
16.9509 44.3825 2
14.8441 44.2019 3.97182
16.6171 46.2158 0.0256583
14.84 46.0925 2
12.9646 46.297 3.97125
14.9211 47.6723 0.0271467
13.294 48.0098 2
11.4867 48.55 3.97181
13.7873 49.5469 0.0277883
12.1156 50.2527 2
10.2633 51.0796 3.97351
12.8959 51.874 0.0278746
11.1373 52.8361 2
9.23261 53.8886 3.97788
8.38304 56.9824 3.98533
10.3232 55.7111 2
12.1408 54.527 0.0254529
7.74927 60.3285 4
9.6983 58.8487 2
11.5322 57.4592 0.0197116
9.306 62.2255 2
11.1326 60.628 0.0120035
10.9835 64.0165 0
13.9585 21.7509 3.97225
15.1449 20.182 2
13.4479 18.8986 3.97779
16.3984 18.6467 0.020633
14.7465 17.2993 2
13.0272 15.881 3.98312
16.1007 15.7771 0.0176543
14.4819 14.287 2
12.7816 12.6867 3.99076
16.0192 12.8056 0.0145087
14.4437 11.1137 2
12.7746 9.30605 4
16.2012 9.66224 0.00736159
14.6715 7.74924 2
16.6661 6.31991 0
23.0934 33.7956 3.97602
25.4 34.2572 2
27.4633 34.7645 0.0555343
17.6266 24.0401 3.97179
17.8538 22.3195 2
14.3101 24.4499 3.97064
15.5268 22.9185 2
16.6792 21.3745 0.0261097
19.0459 27.198 3.9703
19.7203 21.5684 0.0195534
19.6617 24.3777 2
21.1948 30.6577 3.97195
22.8414 24.5968 0.0290297
21.9359 27.8172 2
23.7534 31.1813 2
24.5673 28.5209 0.0308968
26.1931 31.6937 0.00872673
20.2674 35.9198 3.97589
22.5223 36.2735 2
24.7734 36.8553 0.0152217
22.9818 41.804 0.0200504
21.7894 38.5016 0.023761
20.7155 40.6337 2
20.1258 37.7818 2
18.0956 39.001 3.9749
19.7413 42.8924 0.0221676
17.3693 42.1019 2
14.8097 41.9187 3.9722
16.9509 44.3826 0.0258353
14.844 44.2019 2
12.7041 44.3929 3.97044
14.8401 46.0925 0.027768
12.9646 46.2971 2
10.9876 46.7343 3.97128
13.2938 48.0097 0.0280239
11.4868 48.5501 2
9.52679 49.2397 3.97296
12.1154 50.2526 0.0278693
10.2636 51.0797 2
8.26589 52.0016 3.97719
11.1371 52.8358 0.0260322
9.23285 53.8886 2
7.19218 55.0322 3.98502
6.31991 58.3339 4
8.38217 56.9802 2
10.3233 55.7106 0.0212869
7.74924 60.3285 2
9.69928 58.8501 0.0134943
9.30605 62.2254 0
13.2287 25.3621 3.97261
12.827 23.2813 3.9716
13.9588 21.7502 2
12.2344 20.5487 3.97579
15.1447 20.1829 0.0244556
13.448 18.8975 2
11.6573 17.5625 3.98178
14.7464 17.3004 0.0195477
13.0273 15.88 2
11.2191 14.3717 3.98905
14.4818 14.2879 0.0159542
12.7812 12.687 2
10.9835 10.9835 4
14.4441 11.1134 0.00797984
12.7745 9.306 2
14.6715 7.74927 0
20.6341 33.3905 3.97429
23.0956 33.7957 2
25.4148 34.2594 0.012121
15.9009 26.3974 3.97085
17.6266 24.0396 2
17.8536 22.3203 0.0176033
14.3101 24.4495 2
15.5266 22.9191 0.0293718
18.3996 30.1681 3.97237
19.0453 27.1978 2
19.6621 24.378 0.0298312
21.1983 30.6577 2
21.9343 27.8172 0.0293044
23.7615 31.181 0.0260726
17.7316 35.9618 3.97488
20.2689 35.9199 2
22.5238 36.2733 0.0225661
20.7177 40.6335 0.0229778
20.1278 37.7817 0.0233678
18.0962 39.001 2
14.3403 39.1757 3.97275
17.3697 42.1019 0.0255836
14.8094 41.9187 2
12.397 42.277 3.9703
14.8441 44.2019 0.0281795
12.7041 44.393 2
10.5645 44.8031 3.97048
12.9646 46.297 0.0287485
10.9876 46.7345 2
8.90892 47.3193 3.97253
11.4867 48.55 0.0281887
9.52697 49.2398 2
7.43312 50.0349 3.97643
10.2633 51.0796 0.0264919
8.26619 52.0014 2
6.1329 53.0066 3.98519
9.23261 53.8886 0.0221229
7.19165 55.0297 2
5.0241 56.25 4
6.31988 58.3339 2
8.38304 56.9824 0.0146713
7.74927 60.3285 0
13.4651 26.8133 3.97051
11.9406 24.7883 3.97247
13.2289 25.3618 2
11.139 22.2345 3.97367
12.8273 23.2805 2
13.9585 21.7509 0.0277529
12.2347 20.5477 2
10.388 19.318 3.98011
13.4479 18.8986 0.0222101
11.6573 17.5614 2
9.76001 16.1555 3.9874
13.0272 15.881 0.0168757
11.2185 14.3722 2
9.30607 12.7746 4
12.7816 12.6867 0.00924399
10.9835 10.9835 2
12.7746 9.30605 0
17.8934 33.1073 3.97403
20.6354 33.3906 2
23.0934 33.7956 0.0239762
15.4978 29.6333 3.97181
15.8999 26.3971 2
17.6266 24.0401 0.0282083
14.3101 24.4499 0.0293589
18.4012 30.1681 2
19.0459 27.198 0.0297034
21.1948 30.6577 0.0280495
14.9471 36.0167 3.9733
17.732 35.9619 2
20.2674 35.9198 0.0241063
12.6196 37.8288 3.9726
18.0956 39.001 0.0251024
14.3406 39.1757 2
11.9191 40.1404 3.97085
14.8097 41.9187 0.0277999
12.3967 42.277 2
10.1648 42.7782 3.96974
12.7041 44.3929 0.0295628
10.5645 44.8032 2
8.38684 45.3214 3.97181
10.9876 46.7343 0.028724
8.90897 47.3194 2
6.72441 48.0003 3.97601
9.52679 49.2397 0.0270414
7.43331 50.0347 2
5.20985 50.9098 3.98514
8.26589 52.0016 0.0228111
6.13262 53.0047 2
3.86727 54.0858 4
7.19218 55.0322 0.0149805
5.02404 56.25 2
6.31991 58.3339 0
12.9199 29.0314 3.97032
11.3702 26.487 3.97107
13.4649 26.8131 2
10.1987 23.9682 3.97279
11.9408 24.7879 2
13.2287 25.3621 0.0273888
9.24123 21.1379 3.97796
11.1394 22.2337 2
12.827 23.2813 0.0283994
12.2344 20.5487 0.024209
10.3883 19.3171 2
8.41594 18.0271 3.98619
11.6573 17.5625 0.0182213
9.75923 16.1565 2
7.74928 14.6715 4
11.2191 14.3717 0.0109548
9.30602 12.7745 2
10.9835 10.9835 0
14.509 32.8602 3.97274
17.8949 33.1073 2
20.6341 33.3905 0.0257086
15.498 29.6332 2
15.9009 26.3974 0.029152
18.3996 30.1681 0.0276307
12.9136 36.2083 3.97196
14.9475 36.0167 2
17.7316 35.9618 0.025123
12.6198 37.8288 2
11.2762 38.3096 3.97143
14.3403 39.1757 0.0272548
11.9192 40.1404 2
9.75165 40.7546 3.96948
12.397 42.277 0.0296969
10.1648 42.7783 2
7.93693 43.2701 3.97059
10.5645 44.8031 0.0295151
8.38682 45.3215 2
6.13071 45.9056 3.9755
8.90892 47.3193 0.0274685
6.72447 48.0001 2
4.42152 48.7507 3.98498
7.43312 50.0349 0.0235654
5.20969 50.9085 2
2.85457 51.8506 4
6.1329 53.0066 0.0148079
3.86727 54.0858 2
5.0241 56.25 0
12.0655 31.255 3.97113
10.7819 28.4142 3.97013
12.9197 29.0312 2
9.41359 25.7982 3.97246
11.3701 26.4867 2
13.4651 26.8133 0.029492
8.22898 23.0234 3.97652
10.1992 23.9677 2
11.9406 24.7883 0.0275272
7.19834 19.978 3.98512
9.24169 21.1374 2
11.139 22.2345 0.026331
10.388 19.318 0.019894
8.41527 18.0289 2
6.31992 16.6661 4
9.76001 16.1555 0.0125976
7.74926 14.6714 2
9.30607 12.7746 0
12.0995 34.2938 3.97201
14.5085 32.8601 2
17.8934 33.1073 0.0259701
15.4978 29.6333 0.0281872
10.8396 36.6108 3.97124
12.9139 36.2082 2
14.9471 36.0167 0.0266957
12.6196 37.8288 0.027405
11.2763 38.3095 2
9.34756 38.8236 3.96971
11.9191 40.1404 0.0291468
9.75188 40.7546 2
7.54934 41.2113 3.96983
10.1648 42.7782 0.030257
7.93693 43.2702 2
5.64325 43.7686 3.97462
8.38684 45.3214 0.0281922
6.1307 45.9055 2
3.76726 46.5368 3.98455
6.72441 48.0003 0.0239903
4.42144 48.7501 2
1.99014 49.554 4
5.20985 50.9098 0.0148582
2.85451 51.8506 2
3.86727 54.0858 0
10.9236 32.9183 3.97156
10.095 30.3815 3.96994
12.0654 31.2549 2
8.7216 27.7317 3.97177
10.7819 28.414 2
12.9199 29.0314 0.0296761
7.35463 24.9826 3.97598
9.41371 25.7979 2
11.3702 26.487 0.0289263
6.11548 22.0024 3.98472
8.22948 23.0233 2
10.1987 23.9682 0.0272092
5.02411 18.75 4
7.19799 19.98 2
9.24123 21.1379 0.0220443
8.41594 18.0271 0.0138117
6.3199 16.6661 2
7.74928 14.6715 0
10.4474 34.9996 3.97106
12.0996 34.2937 2
14.509 32.8602 0.0272587
9.0185 36.9849 3.96988
10.8401 36.6108 2
12.9136 36.2083 0.0280387
11.2762 38.3096 0.0285653
9.34756 38.8236 2
7.23015 39.182 3.96989
9.75165 40.7546 0.0305197
7.54952 41.2113 2
5.25939 41.6141 3.97341
7.93693 43.2701 0.0294141
5.64325 43.7684 2
3.24523 44.282 3.98377
6.13071 45.9056 0.0244969
3.76726 46.5366 2
1.27781 47.2057 4
4.42152 48.7507 0.0150221
1.99012 49.554 2
2.85457 51.8506 0
10.0899 33.881 3.97116
9.38815 32.1541 3.97054
10.9236 32.9182 2
8.07109 29.6953 3.97116
10.0949 30.3814 2
12.0655 31.255 0.0288687
6.59844 27.0085 3.97547
8.72159 27.7315 2
10.7819 28.4142 0.0298732
5.17089 24.0956 3.98489
7.35486 24.9825 2
9.41359 25.7982 0.0275369
3.86728 20.9142 4
6.11542 22.004 2
8.22898 23.0234 0.0234841
5.02406 18.75 2
7.19834 19.978 0.0148838
6.31992 16.6661 0
8.84416 35.2792 3.97019
10.4474 34.9996 2
12.0995 34.2938 0.0279905
7.01388 37.2058 3.97006
9.01842 36.9848 2
10.8396 36.6108 0.0287557
9.34756 38.8236 0.0302906
7.23021 39.182 2
4.98756 39.4675 3.97305
7.54934 41.2113 0.0301672
5.25957 41.6139 2
2.85603 42.0024 3.98278
5.64325 43.7686 0.0253817
3.24525 44.282 2
0.720592 44.8159 4
3.76726 46.5368 0.015453
1.27778 47.2057 2
1.99014 49.554 0
8.88468 33.6975 3.97095
10.09 33.8809 2
7.50883 31.609 3.97142
9.38809 32.154 2
10.9236 32.9183 0.0284377
5.94388 29.0695 3.97499
8.07099 29.6952 2
10.095 30.3815 0.0300568
4.35867 26.248 3.98465
6.5985 27.0085 2
8.7216 27.7317 0.0282342
2.85458 23.1494 4
5.17084 24.0964 2
7.35463 24.9826 0.0240216
3.86728 20.9142 2
6.11548 22.0024 0.0152824
5.02411 18.75 0
6.96413 35.3059 3.97019
8.84434 35.2791 2
10.4474 34.9996 0.0289447
4.83768 37.3399 3.97342
7.01396 37.2058 2
9.0185 36.9849 0.0301196
7.23015 39.182 0.0301146
4.98761 39.4674 2
2.60431 39.7141 3.98219
5.25939 41.6141 0.0265921
2.85623 42.0026 2
0.320823 42.3947 4
3.24523 44.282 0.0162279
0.720551 44.8159 2
1.27781 47.2057 0
7.12318 33.4607 3.97127
8.88473 33.6974 2
10.0899 33.881 0.0288442
5.41504 31.1334 3.9748
7.50874 31.6089 2
9.38815 32.1541 0.0294582
3.68057 28.4437 3.98411
5.9438 29.0696 2
8.07109 29.6953 0.0288419
1.99015 25.446 4
4.35866 26.2483 2
6.59844 27.0085 0.0245256
2.85453 23.1494 2
5.17089 24.0956 0.0151149
3.86728 20.9142 0
4.85199 35.2516 3.97344
6.96431 35.3058 2
8.84416 35.2792 0.0298148
2.49569 37.4286 3.98256
4.83776 37.34 2
7.01388 37.2058 0.0299409
4.98756 39.4675 0.0269534
2.6044 39.7144 2
0.080333 39.9526 4
2.85603 42.0024 0.0172186
0.320817 42.3947 2
0.720592 44.8159 0
5.04483 33.1901 3.97437
7.12322 33.4607 2
8.88468 33.6975 0.0290524
3.14505 30.6662 3.98348
5.41493 31.1336 2
7.50883 31.609 0.0285822
1.27793 27.7943 4
3.68057 28.4437 2
5.94388 29.0695 0.0250109
1.99013 25.446 2
4.35867 26.248 0.0153456
2.85458 23.1494 0
2.54783 35.1591 3.98264
4.85217 35.2518 2
6.96413 35.3059 0.0298062
0 37.5 4
2.49583 37.4289 2
4.83768 37.3399 0.0265833
2.60431 39.7141 0.0178084
0.0802903 39.9526 2
0.320823 42.3947 0
2.76524 32.9058 3.98311
5.04488 33.1903 2
7.12318 33.4607 0.0287316
0.721173 30.1842 4
3.14507 30.6664 2
5.41504 31.1334 0.0251957
1.27779 27.7943 2
3.68057 28.4437 0.0158936
1.99015 25.446 0
0.0806499 35.0474 4
2.54803 35.1594 2
4.85199 35.2516 0.0265575
0 37.5 2
2.49569 37.4286 0.01744
0.080333 39.9526 0
0.32156 32.6054 4
2.76534 32.9062 2
5.04483 33.1901 0.0256319
0.72056 30.1841 2
3.14505 30.6662 0.0165181
1.27793 27.7943 0
0.0802889 35.0474 2
2.54783 35.1591 0.0173616
0 37.5 0
0.320817 32.6053 2
2.76524 32.9058 0.0168855
0.721173 30.1842 0
0.0806499 35.0474 0
0.32156 32.6054 0
CELLS 1910 17190
8 18 6 25 56 2 0 5 16
8 57 23 6 18 17 4 0 2
8 78 36 9 29 31 11 1 7
8 31 11 1 7 79 37 10 30
8 110 57 18 50 48 17 2 14
8 50 18 56 111 14 2 16 49
8 116 62 22 55 52 20 3 15
8 56 25 67 118 16 5 24 53
8 119 63 23 57 54 21 4 17
8 55 22 63 119 15 3 21 54
8 58 26 68 121 18 6 25 56
8 122 65 26 58 57 23 6 18
8 73 31 7 27 142 79 30 71
8 143 78 29 72 73 31 7 27
8 83 147 76 34 32 74 28 8
8 84 148 78 36 33 75 29 9
8 76 34 8 28 148 84 33 75
8 37 79 150 86 10 30 77 35
8 151 87 36 78 80 38 11 31
8 80 38 11 31 152 88 37 79
8 175 100 42 94 96 44 12 40
8 44 96 176 101 12 40 95 43
8 101 176 98 46 43 95 41 13
8 46 98 178 103 13 41 97 45
8 178 103 45 97 147 83 32 74
8 189 116 55 109 106 52 15 47
8 111 56 118 191 49 16 53 107
8 192 119 57 110 108 54 17 48
8 109 55 119 192 47 15 54 108
8 194 122 58 112 110 57 18 50
8 112 58 121 195 50 18 56 111
8 115 61 19 51 197 124 59 113
8 115 61 125 198 51 19 60 114
8 198 125 62 116 114 60 20 52
8 200 127 64 120 116 62 22 55
8 118 67 132 202 53 24 66 117
8 121 68 133 203 56 25 67 118
8 120 64 128 204 55 22 63 119
8 204 128 65 122 119 63 23 57
8 206 134 68 121 123 69 26 58
8 123 69 26 58 207 131 65 122
8 226 147 74 138 140 76 28 70
8 229 148 75 139 143 78 29 72
8 140 76 28 70 229 148 75 139
8 142 79 30 71 231 150 77 141
8 144 80 31 73 232 152 79 142
8 233 151 78 143 144 80 31 73
8 150 86 35 77 235 154 81 145
8 235 154 81 145 146 82 39 91
8 146 82 39 91 236 155 90 165
8 238 157 83 147 149 85 34 76
8 239 158 84 148 151 87 36 78
8 149 85 34 76 239 158 84 148
8 152 88 37 79 241 160 86 150
8 242 161 87 151 153 89 38 80
8 153 89 38 80 243 162 88 152
8 171 98 41 92 265 178 97 169
8 265 178 97 169 226 147 74 138
8 172 96 40 93 266 176 95 170
8 266 176 95 170 171 98 41 92
8 269 175 94 173 172 96 40 93
8 271 180 99 174 175 100 42 94
8 197 124 59 113 271 180 99 174
8 272 181 100 175 177 102 44 96
8 273 182 101 176 179 104 46 98
8 177 102 44 96 273 182 101 176
8 179 104 46 98 275 184 103 178
8 275 184 103 178 238 157 83 147
8 188 115 51 105 283 197 113 186
8 188 115 198 284 105 51 114 187
8 284 198 116 189 187 114 52 106
8 286 200 120 193 189 116 55 109
8 191 118 202 288 107 53 117 190
8 195 121 203 289 111 56 118 191
8 193 120 204 290 109 55 119 192
8 290 204 122 194 192 119 57 110
8 196 123 58 112 292 207 122 194
8 293 206 121 195 196 123 58 112
8 199 126 61 115 297 211 124 197
8 298 212 127 200 198 125 62 116
8 199 126 212 298 115 61 125 198
8 205 129 64 120 300 214 127 200
8 301 217 130 201 202 132 66 117
8 209 136 168 264 301 217 130 201
8 302 219 132 202 203 133 67 118
8 303 220 133 203 206 134 68 121
8 205 129 215 304 120 64 128 204
8 304 215 131 207 204 128 65 122
8 306 221 134 206 208 135 69 123
8 208 135 69 123 307 218 131 207
8 210 137 167 263 309 223 136 209
8 328 238 147 226 230 149 76 140
8 228 146 91 166 329 236 165 260
8 231 150 77 141 330 235 145 227
8 330 235 145 227 228 146 91 166
8 332 239 148 229 233 151 78 143
8 230 149 76 140 332 239 148 229
8 232 152 79 142 334 241 150 231
8 234 153 80 144 335 243 152 232
8 336 242 151 233 234 153 80 144
8 236 155 90 165 338 245 164 259
8 241 160 86 150 339 246 154 235
8 339 246 154 235 237 156 82 146
8 237 156 82 146 340 247 155 236
8 342 249 157 238 240 159 85 149
8 343 250 158 239 242 161 87 151
8 240 159 85 149 343 250 158 239
8 243 162 88 152 345 252 160 241
8 244 163 253 346 153 89 161 242
8 244 163 89 153 347 254 162 243
8 311 224 261 371 210 137 167 263
8 263 167 262 372 209 136 168 264
8 267 179 98 171 375 275 178 265
8 375 275 178 265 328 238 147 226
8 376 273 176 266 267 179 98 171
8 268 177 96 172 376 273 176 266
8 379 272 175 269 268 177 96 172
8 380 271 174 270 269 175 94 173
8 283 197 113 186 380 271 174 270
8 381 277 180 271 272 181 100 175
8 297 211 124 197 381 277 180 271
8 382 278 181 272 274 183 102 177
8 274 183 102 177 383 279 182 273
8 383 279 182 273 276 185 104 179
8 385 281 184 275 342 249 157 238
8 276 185 104 179 385 281 184 275
8 285 199 115 188 393 297 197 283
8 394 298 200 286 284 198 116 189
8 285 199 298 394 188 115 198 284
8 291 205 120 193 396 300 200 286
8 397 301 201 287 288 202 117 190
8 295 209 264 374 397 301 201 287
8 398 302 202 288 289 203 118 191
8 399 303 203 289 293 206 121 195
8 291 205 304 400 193 120 204 290
8 400 304 207 292 290 204 122 194
8 294 208 123 196 402 307 207 292
8 403 306 206 293 294 208 123 196
8 296 210 263 373 405 309 209 295
8 408 312 213 299 297 211 126 199
8 299 213 313 409 199 126 212 298
8 409 313 214 300 298 212 127 200
8 305 216 129 205 411 315 214 300
8 412 318 217 301 302 219 132 202
8 309 223 136 209 412 318 217 301
8 413 320 219 302 303 220 133 203
8 306 221 321 414 206 134 220 303
8 307 218 131 207 415 316 215 304
8 305 216 316 415 205 129 215 304
8 417 322 221 306 308 222 135 208
8 308 222 135 208 418 319 218 307
8 310 225 137 210 420 325 223 309
8 423 326 224 311 310 225 137 210
8 329 236 165 260 441 338 259 368
8 442 342 238 328 333 240 149 230
8 331 237 146 228 443 340 236 329
8 334 241 150 231 444 339 235 330
8 444 339 235 330 331 237 146 228
8 446 343 239 332 336 242 151 233
8 333 240 149 230 446 343 239 332
8 335 243 152 232 448 345 241 334
8 337 244 153 234 449 347 243 335
8 337 244 346 450 234 153 242 336
8 338 245 164 259 452 349 258 367
8 340 247 155 236 453 350 245 338
8 345 252 160 241 454 351 246 339
8 454 351 246 339 341 248 156 237
8 341 248 156 237 455 352 247 340
8 240 159 251 344 342 249 354 457
8 242 161 253 346 343 250 355 458
8 343 250 355 458 240 159 251 344
8 347 254 162 243 460 357 252 345
8 348 255 358 461 244 163 253 346
8 348 255 163 244 462 359 254 347
8 473 360 257 365 363 256 364 482
8 452 349 258 367 365 257 366 485
8 422 324 369 488 311 224 261 371
8 371 261 370 490 263 167 262 372
8 407 311 371 491 296 210 263 373
8 373 263 372 492 295 209 264 374
8 493 385 275 375 442 342 238 328
8 377 276 179 267 493 385 275 375
8 378 274 177 268 494 383 273 376
8 494 383 273 376 377 276 179 267
8 497 382 272 379 378 274 177 268
8 498 381 271 380 379 272 175 269
8 393 297 197 283 498 381 271 380
8 499 387 277 381 382 278 181 272
8 408 312 211 297 499 387 277 381
8 500 388 278 382 384 280 183 274
8 501 389 279 383 386 282 185 276
8 384 280 183 274 501 389 279 383
8 386 282 185 276 503 391 281 385
8 503 391 281 385 457 354 249 342
8 511 408 299 395 393 297 199 285
8 395 299 409 512 285 199 298 394
8 512 409 300 396 394 298 200 286
8 401 305 205 291 514 411 300 396
8 515 412 301 397 398 302 202 288
8 405 309 209 295 515 412 301 397
8 516 413 302 398 399 303 203 289
8 403 306 414 517 293 206 303 399
8 402 307 207 292 518 415 304 400
8 401 305 415 518 291 205 304 400
8 404 308 208 294 520 418 307 402
8 521 417 306 403 404 308 208 294
8 406 310 210 296 523 420 309 405
8 526 423 311 407 406 310 210 296
8 410 314 213 299 527 424 312 408
8 528 425 315 411 409 313 214 300
8 410 314 425 528 299 213 313 409
8 416 317 216 305 530 427 315 411
8 531 430 318 412 413 320 219 302
8 420 325 223 309 531 430 318 412
8 532 432 320 413 414 321 220 303
8 417 322 433 533 306 221 321 414
8 418 319 218 307 534 428 316 415
8 416 317 428 534 305 216 316 415
8 419 323 434 536 308 222 322 417
8 419 323 222 308 537 431 319 418
8 421 327 225 310 539 438 325 420
8 421 327 439 541 310 225 326 423
8 543 437 324 422 423 326 224 311
8 441 338 259 368 559 452 367 486
8 443 340 236 329 560 453 338 441
8 333 240 344 447 442 342 457 561
8 445 341 237 331 562 455 340 443
8 448 345 241 334 563 454 339 444
8 563 454 339 444 445 341 237 331
8 336 242 346 450 446 343 458 565
8 446 343 458 565 333 240 344 447
8 449 347 243 335 567 460 345 448
8 451 348 244 337 568 462 347 449
8 451 348 461 569 337 244 346 450
8 570 463 349 452 473 360 257 365
8 453 350 245 338 570 463 349 452
8 455 352 247 340 571 464 350 453
8 460 357 252 345 572 465 351 454
8 572 465 351 454 456 353 248 341
8 456 353 248 341 573 466 352 455
8 344 251 356 459 457 354 468 575
8 458 355 469 576 344 251 356 459
8 346 253 358 461 458 355 469 576
8 462 359 254 347 578 471 357 460
8 348 255 359 462 461 358 472 579
8 591 474 360 473 475 361 256 363
8 475 361 256 363 594 477 362 479
8 363 256 364 482 479 362 480 603
8 590 473 365 484 481 363 482 605
8 482 364 257 365 606 483 366 485
8 559 452 367 486 484 365 485 607
8 542 436 487 609 422 324 369 488
8 525 422 488 611 407 311 371 491
8 488 369 489 612 371 261 370 490
8 491 371 490 613 373 263 372 492
8 495 386 276 377 614 503 385 493
8 614 503 385 493 561 457 342 442
8 615 501 383 494 495 386 276 377
8 496 384 274 378 615 501 383 494
8 618 500 382 497 496 384 274 378
8 619 499 381 498 497 382 272 379
8 511 408 297 393 619 499 381 498
8 620 505 387 499 500 388 278 382
8 527 424 312 408 620 505 387 499
8 502 390 506 621 384 280 388 500
8 622 507 389 501 504 392 282 386
8 502 390 280 384 622 507 389 501
8 504 392 282 386 624 509 391 503
8 624 509 391 503 575 468 354 457
8 513 410 299 395 630 527 408 511
8 631 528 411 514 512 409 300 396
8 513 410 528 631 395 299 409 512
8 519 416 305 401 633 530 411 514
8 634 531 412 515 516 413 302 398
8 523 420 309 405 634 531 412 515
8 635 532 413 516 517 414 303 399
8 521 417 533 636 403 306 414 517
8 520 418 307 402 637 534 415 518
8 519 416 534 637 401 305 415 518
8 522 419 308 404 639 537 418 520
8 522 419 536 640 404 308 417 521
8 524 421 310 406 642 539 420 523
8 524 421 541 644 406 310 423 526
8 646 543 422 525 526 423 311 407
8 529 426 314 410 647 544 424 527
8 528 425 545 648 411 315 427 530
8 529 426 545 648 410 314 425 528
8 535 429 317 416 649 546 427 530
8 650 548 430 531 532 432 320 413
8 539 438 325 420 650 548 430 531
8 533 433 550 651 414 321 432 532
8 536 434 551 652 417 322 433 533
8 537 431 319 418 653 547 428 534
8 535 429 547 653 416 317 428 534
8 538 435 552 654 419 323 434 536
8 538 435 323 419 655 549 431 537
8 540 440 327 421 657 556 438 539
8 540 440 557 659 421 327 439 541
8 541 439 555 660 423 326 437 543
8 661 554 436 542 543 437 324 422
8 676 570 452 559 590 473 365 484
8 560 453 338 441 676 570 452 559
8 562 455 340 443 677 571 453 560
8 447 344 459 566 561 457 575 678
8 564 456 341 445 679 573 455 562
8 567 460 345 448 680 572 454 563
8 680 572 454 563 564 456 341 445
8 565 458 576 682 447 344 459 566
8 450 346 461 569 565 458 576 682
8 568 462 347 449 684 578 460 567
8 451 348 462 568 569 461 579 685
8 686 580 463 570 591 474 360 473
8 571 464 350 453 686 580 463 570
8 573 466 352 455 687 581 464 571
8 572 465 582 688 460 357 471 578
8 574 467 582 688 456 353 465 572
8 574 467 353 456 689 583 466 573
8 459 356 470 577 575 468 585 691
8 576 469 586 692 459 356 470 577
8 461 358 472 579 576 469 586 692
8 462 359 471 578 579 472 588 694
8 704 591 473 590 593 475 363 481
8 595 476 592 705 475 361 474 591
8 593 475 363 481 707 594 479 602
8 594 477 362 479 709 598 478 600
8 595 476 361 475 711 597 477 594
8 479 362 480 603 600 478 601 720
8 481 363 482 605 602 479 603 722
8 603 480 364 482 723 604 483 606
8 605 482 365 484 724 606 485 607
8 656 553 608 726 542 436 487 609
8 645 542 609 728 525 422 488 611
8 609 487 610 729 488 369 489 612
8 611 488 612 730 491 371 490 613
8 616 504 386 495 731 624 503 614
8 731 624 503 614 678 575 457 561
8 732 622 501 615 616 504 386 495
8 617 502 384 496 732 622 501 615
8 617 502 621 735 496 384 500 618
8 736 620 499 619 618 500 382 497
8 630 527 408 511 736 620 499 619
8 621 506 626 737 500 388 505 620
8 647 544 424 527 737 626 505 620
8 623 508 627 738 502 390 506 621
8 623 508 390 502 739 628 507 622
8 625 510 628 739 504 392 507 622
8 740 629 509 624 691 585 468 575
8 625 510 392 504 740 629 509 624
8 632 529 410 513 744 647 527 630
8 631 528 648 745 514 411 530 633
8 632 529 648 745 513 410 528 631
8 638 535 416 519 746 649 530 633
8 747 650 531 634 635 532 413 516
8 642 539 420 523 747 650 531 634
8 636 533 651 748 517 414 532 635
8 640 536 652 749 521 417 533 636
8 639 537 418 520 750 653 534 637
8 638 535 653 750 519 416 534 637
8 641 538 419 522 751 655 537 639
8 641 538 654 752 522 419 536 640
8 643 540 421 524 753 657 539 642
8 643 540 659 755 524 421 541 644
8 644 541 660 757 526 423 543 646
8 758 661 542 645 646 543 422 525
8 529 426 544 647 648 545 662 759
8 530 427 545 648 649 546 663 760
8 535 429 546 649 653 547 664 761
8 762 666 548 650 651 550 432 532
8 657 556 438 539 762 666 548 650
8 652 551 668 763 533 433 550 651
8 654 552 669 764 536 434 551 652
8 655 549 431 537 765 665 547 653
8 538 435 549 655 654 552 667 766
8 661 554 671 768 542 436 553 656
8 658 558 440 540 769 674 556 657
8 658 558 675 770 540 440 557 659
8 659 557 673 771 541 439 555 660
8 660 555 672 772 543 437 554 661
8 788 686 570 676 704 591 473 590
8 677 571 453 560 788 686 570 676
8 679 573 455 562 789 687 571 677
8 566 459 577 683 678 575 691 790
8 681 574 456 564 791 689 573 679
8 680 572 688 792 567 460 578 684
8 681 574 688 792 564 456 572 680
8 682 576 692 794 566 459 577 683
8 569 461 579 685 682 576 692 794
8 568 462 578 684 685 579 694 796
8 687 581 464 571 798 696 580 686
8 798 696 580 686 705 592 474 591
8 689 583 466 573 799 697 581 687
8 688 582 698 800 578 471 588 694
8 690 584 698 800 574 467 582 688
8 690 584 467 574 801 699 583 689
8 693 587 701 803 577 470 585 691
8 693 587 470 577 804 702 586 692
8 695 589 702 804 579 472 586 692
8 695 589 472 579 805 703 588 694
8 708 595 705 813 593 475 591 704
8 710 596 706 814 595 476 592 705
8 707 594 479 602 816 709 600 719
8 708 595 475 593 817 711 594 707
8 709 598 478 600 819 715 599 717
8 711 597 477 594 820 714 598 709
8 710 596 476 595 822 713 597 711
8 600 478 601 720 717 599 718 832
8 602 479 603 722 719 600 720 834
8 720 601 480 603 835 721 604 723
8 722 603 482 605 836 723 606 724
8 767 670 725 839 656 553 608 726
8 756 656 726 841 645 542 609 728
8 726 608 727 842 609 487 610 729
8 728 609 729 843 611 488 612 730
8 844 740 624 731 790 691 575 678
8 733 625 504 616 844 740 624 731
8 734 623 502 617 845 739 622 732
8 733 625 739 845 616 504 622 732
8 734 623 738 846 617 502 621 735
8 735 621 737 847 618 500 620 736
8 744 647 527 630 847 737 620 736
8 621 506 627 738 737 626 741 848
8 647 544 626 737 759 662 741 848
8 623 508 628 739 738 627 742 849
8 740 629 585 691 850 743 700 802
8 625 510 629 740 739 628 743 850
8 632 529 647 744 745 648 759 854
8 633 530 648 745 746 649 760 855
8 638 535 649 746 750 653 761 856
8 857 762 650 747 748 651 532 635
8 753 657 539 642 857 762 650 747
8 749 652 763 858 636 533 651 748
8 752 654 764 859 640 536 652 749
8 751 655 537 639 860 765 653 750
8 641 538 655 751 752 654 766 861
8 754 658 540 643 862 769 657 753
8 754 658 770 863 643 540 659 755
8 755 659 771 864 644 541 660 757
8 758 661 768 866 645 542 656 756
8 757 660 772 867 646 543 661 758
8 759 662 773 868 648 545 663 760
8 649 546 663 760 761 664 774 871
8 765 665 547 653 872 775 664 761
8 873 777 666 762 763 668 550 651
8 769 674 556 657 873 777 666 762
8 764 669 779 874 652 551 668 763
8 654 552 667 766 764 669 778 875
8 655 549 665 765 766 667 776 876
8 768 671 782 877 656 553 670 767
8 772 672 783 878 661 554 671 768
8 658 558 674 769 770 675 786 879
8 659 557 675 770 771 673 785 881
8 882 784 672 772 771 673 555 660
8 789 687 571 677 897 798 686 788
8 897 798 686 788 813 705 591 704
8 791 689 573 679 898 799 687 789
8 795 693 803 900 683 577 691 790
8 793 690 574 681 901 801 689 791
8 792 688 800 902 684 578 694 796
8 793 690 800 902 681 574 688 792
8 795 693 577 683 903 804 692 794
8 797 695 804 903 685 579 692 794
8 797 695 579 685 904 805 694 796
8 905 806 697 799 798 696 581 687
8 814 706 806 905 705 592 696 798
8 689 583 697 799 801 699 808 907
8 800 698 809 908 694 588 703 805
8 690 584 699 801 800 698 809 908
8 803 701 810 909 691 585 700 802
8 693 587 702 804 803 701 811 910
8 695 589 703 805 804 702 812 911
8 818 710 814 919 708 595 705 813
8 821 712 815 920 710 596 706 814
8 816 709 600 719 922 819 717 831
8 817 711 594 707 923 820 709 816
8 818 710 595 708 924 822 711 817
8 819 715 599 717 926 827 716 829
8 820 714 598 709 927 826 715 819
8 929 825 713 822 820 714 597 711
8 821 712 596 710 930 824 713 822
8 717 599 718 832 829 716 830 942
8 719 600 720 834 831 717 832 944
8 832 718 601 720 945 833 721 835
8 834 720 603 722 946 835 723 836
8 869 780 838 950 767 670 725 839
8 865 767 839 952 756 656 726 841
8 839 725 840 953 726 608 727 842
8 841 726 842 954 728 609 729 843
8 844 740 691 790 955 850 802 899
8 733 625 740 844 845 739 850 955
8 734 623 739 845 846 738 849 956
8 735 621 738 846 847 737 848 957
8 744 647 737 847 854 759 848 957
8 738 627 742 849 848 741 851 958
8 848 741 851 958 759 662 773 868
8 850 743 700 802 959 852 807 906
8 849 742 628 739 959 852 743 850
8 854 759 868 965 745 648 760 855
8 746 649 760 855 856 761 871 966
8 860 765 653 750 967 872 761 856
8 968 873 762 857 858 763 651 748
8 862 769 657 753 968 873 762 857
8 859 764 874 969 749 652 763 858
8 752 654 766 861 859 764 875 970
8 751 655 765 860 861 766 876 971
8 754 658 769 862 863 770 879 972
8 755 659 770 863 864 771 881 974
8 976 882 772 867 864 771 660 757
8 866 768 877 977 756 656 767 865
8 867 772 878 978 758 661 768 866
8 760 663 773 868 871 774 883 980
8 870 781 837 948 982 890 780 869
8 982 890 780 869 877 782 670 767
8 761 664 774 871 872 775 884 984
8 876 776 665 765 985 885 775 872
8 873 777 668 763 986 887 779 874
8 769 674 777 873 879 786 887 986
8 764 669 778 875 874 779 888 987
8 766 667 776 876 875 778 886 988
8 878 783 892 989 768 671 782 877
8 878 783 672 772 990 893 784 882
8 880 787 675 770 991 896 786 879
8 880 787 895 992 770 675 785 881
8 881 785 894 993 771 673 784 882
8 1006 905 799 898 897 798 687 789
8 919 814 905 1006 813 705 798 897
8 791 689 799 898 901 801 907 1007
8 900 803 909 1009 790 691 802 899
8 795 693 804 903 900 803 910 1010
8 902 800 908 1011 796 694 805 904
8 793 690 801 901 902 800 908 1011
8 797 695 805 904 903 804 911 1012
8 799 697 806 905 907 808 912 1013
8 920 815 912 1013 814 706 806 905
8 802 700 810 909 906 807 913 1014
8 801 699 808 907 908 809 914 1015
8 805 703 809 908 911 812 915 1016
8 803 701 811 910 909 810 916 1017
8 911 812 917 1018 804 702 811 910
8 925 821 920 1030 818 710 814 919
8 928 823 921 1031 821 712 815 920
8 922 819 717 831 1033 926 829 941
8 923 820 709 816 1034 927 819 922
8 1035 929 822 924 923 820 711 817
8 925 821 710 818 1036 930 822 924
8 1038 933 825 929 927 826 714 820
8 926 827 716 829 1039 935 828 939
8 927 826 715 819 1040 934 827 926
8 928 823 712 821 1041 931 824 930
8 1042 932 824 930 929 825 713 822
8 829 716 830 942 939 828 940 1058
8 831 717 832 944 941 829 942 1060
8 942 830 718 832 1061 943 833 945
8 944 832 720 834 1062 945 835 946
8 981 889 947 1064 870 781 837 948
8 948 837 949 1067 869 780 838 950
8 975 869 950 1069 865 767 839 952
8 950 838 951 1070 839 725 840 953
8 952 839 953 1071 841 726 842 954
8 955 850 802 899 1072 959 906 1008
8 956 849 739 845 1072 959 850 955
8 846 738 849 956 957 848 958 1073
8 957 848 958 1073 854 759 868 965
8 849 742 852 959 958 851 961 1076
8 960 853 961 1076 906 807 852 959
8 958 851 961 1076 868 773 883 980
8 960 853 807 906 1077 963 913 1014
8 855 760 868 965 966 871 980 1085
8 856 761 871 966 967 872 984 1086
8 971 876 765 860 1087 985 872 967
8 968 873 763 858 1088 986 874 969
8 862 769 873 968 972 879 986 1088
8 859 764 875 970 969 874 987 1089
8 861 766 876 971 970 875 988 1090
8 973 880 770 863 1091 991 879 972
8 973 880 992 1092 863 770 881 974
8 974 881 993 1093 864 771 882 976
8 979 870 948 1066 1094 982 869 975
8 1094 982 869 975 977 877 767 865
8 978 878 772 867 1095 990 882 976
8 978 878 989 1096 866 768 877 977
8 871 774 883 980 984 884 994 1099
8 983 891 999 1100 870 781 889 981
8 1101 1000 890 982 989 892 782 877
8 983 891 781 870 1101 1000 890 982
8 872 775 884 984 985 885 995 1103
8 876 776 885 985 988 886 996 1104
8 986 887 779 874 1105 998 888 987
8 879 786 887 986 991 896 998 1105
8 875 778 886 988 987 888 997 1106
8 990 893 1002 1107 878 783 892 989
8 1108 1003 893 990 993 894 784 882
8 880 787 896 991 992 895 1005 1109
8 993 894 785 881 1110 1004 895 992
8 898 799 905 1006 1007 907 1013 1120
8 1030 920 1013 1120 919 814 905 1006
8 901 801 907 1007 1011 908 1015 1121
8 899 802 909 1009 1008 906 1014 1122
8 900 803 910 1010 1009 909 1017 1123
8 1012 911 1018 1124 903 804 910 1010
8 904 805 908 1011 1012 911 1016 1125
8 1013 912 1020 1127 907 808 914 1015
8 1031 921 1020 1127 920 815 912 1013
8 1019 918 962 1075 1128 1021 913 1014
8 1128 1021 913 1014 1017 916 810 909
8 1015 914 1022 1129 908 809 915 1016
8 1016 915 1023 1130 911 812 917 1018
8 1018 917 1024 1131 910 811 916 1017
8 1037 928 1031 1148 925 821 920 1030
8 928 823 931 1041 1031 921 1032 1149
8 1033 926 829 941 1151 1039 939 1057
8 1034 927 819 922 1152 1040 926 1033
8 1153 1038 929 1035 1034 927 820 923
8 1154 1042 930 1036 1035 929 822 924
8 1037 928 821 925 1155 1041 930 1036
8 1039 935 828 939 1156 1047 938 1055
8 1157 1043 932 1042 1038 933 825 929
8 1038 933 826 927 1158 1045 934 1040
8 1040 934 827 926 1159 1046 935 1039
8 930 824 932 1042 1041 931 1044 1160
8 1051 936 1048 1165 1175 1052 937 1053
8 1156 1047 938 1055 1053 937 1054 1178
8 939 828 940 1058 1055 938 1056 1181
8 941 829 942 1060 1057 939 1058 1183
8 942 830 943 1061 1058 940 1059 1184
8 1060 942 832 944 1185 1061 945 1062
8 1082 964 1063 1188 981 889 947 1064
8 1097 981 1064 1190 979 870 948 1066
8 1064 947 1065 1191 948 837 949 1067
8 1066 948 1067 1193 975 869 950 1069
8 1067 949 1068 1194 950 838 951 1070
8 1069 950 1070 1195 952 839 953 1071
8 956 849 959 1072 1073 958 1076 1197
8 1074 960 1076 1197 1008 906 959 1072
8 1073 958 1076 1197 965 868 980 1085
8 1074 960 906 1008 1198 1077 1014 1122
8 1133 1026 1079 1199 1019 918 962 1075
8 1077 963 913 1014 1200 1080 962 1075
8 960 853 963 1077 1076 961 1078 1201
8 980 883 961 1076 1099 994 1078 1201
8 1210 1083 964 1082 1100 999 889 981
8 966 871 980 1085 1086 984 1099 1215
8 967 872 984 1086 1087 985 1103 1216
8 971 876 985 1087 1090 988 1104 1217
8 1088 986 874 969 1218 1105 987 1089
8 972 879 986 1088 1091 991 1105 1218
8 970 875 988 1090 1089 987 1106 1219
8 973 880 991 1091 1092 992 1109 1220
8 1093 993 881 974 1221 1110 992 1092
8 1222 1108 990 1095 1093 993 882 976
8 1223 1101 982 1094 1096 989 877 977
8 1098 983 870 979 1223 1101 982 1094
8 1095 990 1107 1224 978 878 989 1096
8 1098 983 1100 1225 979 870 981 1097
8 984 884 994 1099 1103 995 1111 1227
8 1102 1001 1115 1228 983 891 999 1100
8 1101 1000 892 989 1229 1116 1002 1107
8 1102 1001 891 983 1229 1116 1000 1101
8 985 885 995 1103 1104 996 1112 1230
8 988 886 996 1104 1106 997 1113 1231
8 1105 998 888 987 1232 1114 997 1106
8 991 896 998 1105 1109 1005 1114 1232
8 1108 1003 1117 1233 990 893 1002 1107
8 1108 1003 894 993 1233 1117 1004 1110
8 992 895 1005 1109 1110 1004 1118 1234
8 1120 1013 1127 1244 1007 907 1015 1121
8 1148 1031 1127 1244 1030 920 1013 1120
8 1121 1015 1129 1245 1011 908 1016 1125
8 1126 1019 1075 1196 1246 1128 1014 1122
8 1246 1128 1014 1122 1123 1017 909 1009
8 1124 1018 1131 1247 1010 910 1017 1123
8 1125 1016 1130 1248 1012 911 1018 1124
8 1127 1020 1137 1254 1015 914 1022 1129
8 1031 921 1032 1149 1127 1020 1137 1254
8 1134 1027 918 1019 1257 1140 1021 1128
8 1257 1140 1021 1128 1131 1024 916 1017
8 1129 1022 1141 1258 1016 915 1023 1130
8 1130 1023 1142 1259 1018 917 1024 1131
8 1261 1144 1025 1132 1133 1026 1079 1199
8 1255 1138 1025 1132 1135 1028 1144 1261
8 1133 1026 918 1019 1262 1145 1027 1134
8 1136 1029 1139 1256 1263 1146 1028 1135
8 1037 928 1041 1155 1148 1031 1149 1275
8 1041 931 1044 1160 1149 1032 1150 1276
8 1151 1039 939 1057 1278 1156 1055 1180
8 1152 1040 926 1033 1279 1159 1039 1151
8 1153 1038 927 1034 1280 1158 1040 1152
8 1281 1157 1042 1154 1153 1038 929 1035
8 1036 930 1042 1154 1155 1041 1160 1282
8 1283 1164 1046 1159 1156 1047 935 1039
8 1165 1048 1164 1283 1053 937 1047 1156
8 1157 1043 933 1038 1284 1161 1045 1158
8 1157 1043 1161 1284 1042 932 1044 1160
8 1040 934 1046 1159 1158 1045 1163 1285
8 1166 1049 1167 1292 1051 936 1048 1165
8 1166 1049 936 1051 1293 1168 1050 1172
8 1051 936 1052 1175 1172 1050 1173 1306
8 1174 1051 1165 1290 1308 1175 1053 1177
8 1053 937 1054 1178 1175 1052 1176 1309
8 1278 1156 1055 1180 1177 1053 1178 1311
8 1055 938 1056 1181 1178 1054 1179 1312
8 1057 939 1058 1183 1180 1055 1181 1314
8 1058 940 1059 1184 1181 1056 1182 1315
8 1060 942 1061 1185 1183 1058 1184 1316
8 1208 1081 1187 1321 1082 964 1063 1188
8 1209 1082 1188 1322 1097 981 1064 1190
8 1188 1063 1189 1323 1064 947 1065 1191
8 1190 1064 1191 1325 1066 948 1067 1193
8 1191 1065 1192 1326 1067 949 1068 1194
8 1067 1193 1069 950 1194 1327 1195 1070
8 1250 1133 1199 1330 1126 1019 1075 1196
8 1198 1077 1014 1122 1331 1200 1075 1196
8 1074 960 1077 1198 1197 1076 1201 1332
8 1085 980 1076 1197 1215 1099 1201 1332
8 1199 1079 1203 1333 1075 962 1080 1200
8 1132 1025 1119 1243 1199 1079 1203 1333
8 1201 1078 963 1077 1334 1202 1080 1200
8 1099 994 1078 1201 1227 1111 1202 1334
8 1343 1207 1081 1208 1210 1083 964 1082
8 1214 1084 1186 1319 1343 1207 1081 1208
8 1345 1210 1082 1209 1225 1100 981 1097
8 1346 1211 1083 1210 1228 1115 999 1100
8 1086 984 1099 1215 1216 1103 1227 1352
8 1087 985 1103 1216 1217 1104 1230 1353
8 1090 988 1104 1217 1219 1106 1231 1354
8 1218 1105 987 1089 1355 1232 1106 1219
8 1091 991 1105 1218 1220 1109 1232 1355
8 1092 992 1109 1220 1221 1110 1234 1356
8 1222 1108 1233 1357 1095 990 1107 1224
8 1222 1108 993 1093 1357 1233 1110 1221
8 1223 1101 989 1096 1358 1229 1107 1224
8 1226 1102 983 1098 1358 1229 1101 1223
8 1226 1102 1228 1359 1098 983 1100 1225
8 1103 995 1111 1227 1230 1112 1235 1360
8 1107 1002 1117 1233 1229 1116 1240 1362
8 1102 1001 1116 1229 1228 1115 1240 1362
8 1104 996 1112 1230 1231 1113 1236 1363
8 1364 1237 1114 1232 1231 1113 997 1106
8 1109 1005 1114 1232 1234 1118 1238 1365
8 1110 1004 1118 1234 1233 1117 1241 1366
8 1242 1374 1255 1138 1119 1243 1132 1025
8 1244 1127 1254 1376 1121 1015 1129 1245
8 1148 1031 1149 1275 1244 1127 1254 1376
8 1245 1129 1258 1377 1125 1016 1130 1248
8 1251 1134 1019 1126 1378 1257 1128 1246
8 1378 1257 1128 1246 1247 1131 1017 1123
8 1248 1130 1259 1379 1124 1018 1131 1247
8 1261 1381 1250 1133 1132 1249 1330 1199
8 1255 1380 1252 1135 1132 1249 1381 1261
8 1250 1133 1019 1126 1382 1262 1134 1251
8 1253 1136 1256 1385 1384 1263 1135 1252
8 1254 1137 1265 1387 1129 1022 1141 1258
8 1149 1032 1150 1276 1254 1137 1265 1387
8 1028 1135 1255 1138 1139 1256 1388 1266
8 1136 1029 1147 1264 1256 1139 1267 1389
8 1390 1268 1140 1257 1259 1142 1024 1131
8 1260 1143 1027 1134 1390 1268 1140 1257
8 1258 1141 1269 1391 1130 1023 1142 1259
8 1262 1145 1027 1134 1393 1271 1143 1260
8 1261 1144 1026 1133 1394 1272 1145 1262
8 1135 1028 1144 1261 1263 1146 1272 1394
8 1136 1029 1146 1263 1264 1147 1273 1395
8 1155 1041 1160 1282 1275 1149 1276 1405
8 1276 1150 1044 1160 1406 1277 1162 1286
8 1408 1283 1159 1279 1278 1156 1039 1151
8 1290 1165 1283 1408 1177 1053 1156 1278
8 1152 1040 1159 1279 1280 1158 1285 1409
8 1281 1157 1038 1153 1410 1284 1158 1280
8 1281 1157 1284 1410 1154 1042 1160 1282
8 1159 1046 1164 1283 1285 1163 1289 1412
8 1292 1167 1289 1412 1165 1048 1164 1283
8 1158 1045 1163 1285 1284 1161 1288 1413
8 1284 1161 1288 1413 1160 1044 1162 1286
8 1291 1166 1292 1418 1174 1051 1165 1290
8 1291 1166 1051 1174 1419 1293 1172 1305
8 1294 1169 1296 1421 1166 1049 1167 1292
8 1293 1168 1050 1172 1422 1295 1171 1303
8 1294 1169 1049 1166 1423 1297 1168 1293
8 1422 1295 1171 1303 1301 1170 1302 1435
8 1172 1050 1173 1306 1303 1171 1304 1438
8 1174 1051 1175 1308 1305 1172 1306 1440
8 1175 1052 1176 1309 1306 1173 1307 1441
8 1177 1053 1178 1311 1308 1175 1309 1443
8 1178 1054 1179 1312 1309 1176 1310 1444
8 1180 1055 1181 1314 1311 1178 1312 1446
8 1056 1181 1312 1179 1182 1315 1447 1313
8 1183 1058 1184 1316 1314 1181 1315 1448
8 1319 1186 1084 1214 1451 1317 1213 1350
8 1319 1186 1318 1453 1208 1081 1187 1321
8 1321 1187 1320 1456 1188 1063 1189 1323
8 1344 1208 1321 1457 1209 1082 1188 1322
8 1322 1188 1323 1458 1190 1064 1191 1325
8 1323 1189 1324 1459 1191 1065 1192 1326
8 1191 1325 1193 1067 1326 1460 1327 1194
8 1242 1374 1243 1119 1328 1462 1335 1204
8 1330 1199 1333 1465 1196 1075 1200 1331
8 1132 1249 1330 1199 1243 1375 1465 1333
8 1332 1201 1077 1198 1466 1334 1200 1331
8 1215 1099 1201 1332 1352 1227 1334 1466
8 1119 1243 1333 1203 1204 1335 1470 1338
8 1333 1203 1338 1470 1200 1080 1202 1334
8 1227 1111 1202 1334 1360 1235 1338 1470
8 1328 1462 1335 1204 1205 1336 1471 1339
8 1337 1206 1340 1472 1464 1329 1205 1336
8 1346 1211 1342 1479 1210 1083 1207 1343
8 1346 1211 1115 1228 1479 1342 1239 1361
8 1348 1212 1084 1214 1479 1342 1207 1343
8 1480 1343 1208 1344 1345 1210 1082 1209
8 1351 1214 1319 1454 1480 1343 1208 1344
8 1481 1346 1210 1345 1359 1228 1100 1225
8 1348 1212 1347 1483 1214 1084 1213 1350
8 1216 1103 1227 1352 1353 1230 1360 1488
8 1217 1104 1230 1353 1354 1231 1363 1489
8 1490 1364 1232 1355 1354 1231 1106 1219
8 1220 1109 1232 1355 1356 1234 1365 1491
8 1221 1110 1234 1356 1357 1233 1366 1492
8 1224 1107 1233 1357 1358 1229 1362 1493
8 1226 1102 1229 1358 1359 1228 1362 1493
8 1230 1112 1235 1360 1363 1236 1367 1496
8 1361 1239 1115 1228 1497 1371 1240 1362
8 1366 1241 1372 1498 1233 1117 1240 1362
8 1364 1237 1113 1231 1499 1368 1236 1363
8 1364 1237 1368 1499 1232 1114 1238 1365
8 1234 1118 1238 1365 1366 1241 1369 1500
8 1507 1373 1242 1374 1388 1266 1138 1255
8 1508 1374 1243 1375 1380 1255 1132 1249
8 1376 1254 1387 1509 1245 1129 1258 1377
8 1275 1149 1276 1405 1376 1254 1387 1509
8 1377 1258 1391 1510 1248 1130 1259 1379
8 1511 1390 1257 1378 1379 1259 1131 1247
8 1383 1260 1134 1251 1511 1390 1257 1378
8 1252 1135 1256 1385 1380 1255 1388 1512
8 1261 1381 1513 1394 1133 1250 1382 1262
8 1135 1252 1384 1263 1261 1381 1513 1394
8 1382 1262 1134 1251 1514 1393 1260 1383
8 1253 1136 1263 1384 1386 1264 1395 1516
8 1253 1136 1264 1386 1385 1256 1389 1517
8 1387 1265 1397 1519 1258 1141 1269 1391
8 1276 1150 1277 1406 1387 1265 1397 1519
8 1256 1139 1267 1389 1388 1266 1398 1520
8 1264 1147 1274 1396 1389 1267 1399 1521
8 1392 1270 1143 1260 1522 1400 1268 1390
8 1390 1268 1142 1259 1522 1400 1269 1391
8 1392 1270 1401 1523 1260 1143 1271 1393
8 1272 1394 1524 1402 1145 1262 1393 1271
8 1395 1273 1146 1263 1524 1402 1272 1394
8 1273 1395 1264 1147 1403 1526 1396 1274
8 1405 1276 1160 1282 1534 1406 1286 1411
8 1414 1287 1407 1535 1286 1162 1277 1406
8 1279 1159 1283 1408 1409 1285 1412 1537
8 1418 1292 1412 1537 1290 1165 1283 1408
8 1280 1158 1285 1409 1410 1284 1413 1538
8 1410 1284 1413 1538 1282 1160 1286 1411
8 1285 1163 1289 1412 1413 1288 1417 1540
8 1421 1296 1417 1540 1292 1167 1289 1412
8 1414 1287 1162 1286 1541 1416 1288 1413
8 1420 1294 1421 1545 1291 1166 1292 1418
8 1419 1293 1172 1305 1546 1422 1303 1437
8 1420 1294 1166 1291 1547 1423 1293 1419
8 1294 1169 1297 1423 1421 1296 1425 1548
8 1423 1297 1168 1293 1549 1424 1295 1422
8 1301 1170 1298 1427 1422 1295 1424 1549
8 1432 1300 1428 1554 1301 1170 1298 1427
8 1431 1299 1428 1554 1560 1430 1300 1432
8 1563 1433 1300 1432 1435 1302 1170 1301
8 1546 1422 1303 1437 1434 1301 1435 1565
8 1303 1171 1304 1438 1435 1302 1436 1566
8 1305 1172 1306 1440 1437 1303 1438 1568
8 1306 1173 1307 1441 1438 1304 1439 1569
8 1308 1175 1309 1443 1440 1306 1441 1571
8 1309 1176 1310 1444 1441 1307 1442 1572
8 1311 1178 1312 1446 1443 1309 1444 1574
8 1179 1312 1444 1310 1313 1447 1575 1445
8 1314 1181 1315 1448 1446 1312 1447 1576
8 1350 1213 1349 1486 1451 1317 1449 1579
8 1451 1317 1450 1581 1319 1186 1318 1453
8 1454 1319 1214 1351 1582 1451 1350 1487
8 1453 1318 1452 1584 1321 1187 1320 1456
8 1454 1319 1453 1585 1344 1208 1321 1457
8 1456 1320 1455 1586 1323 1189 1324 1459
8 1457 1321 1456 1587 1322 1188 1323 1458
8 1458 1323 1459 1588 1325 1191 1326 1460
8 1205 1336 1464 1329 1328 1462 1590 1461
8 1507 1373 1461 1590 1374 1242 1328 1462
8 1508 1374 1462 1591 1375 1243 1335 1467
8 1337 1206 1329 1464 1473 1341 1463 1594
8 1375 1243 1335 1467 1465 1333 1470 1596
8 1465 1333 1470 1596 1331 1200 1334 1466
8 1352 1227 1334 1466 1488 1360 1470 1596
8 1591 1462 1336 1468 1467 1335 1471 1597
8 1469 1337 1472 1598 1595 1464 1336 1468
8 1471 1339 1474 1600 1335 1204 1338 1470
8 1600 1474 1367 1496 1470 1338 1235 1360
8 1336 1205 1340 1472 1471 1339 1475 1601
8 1337 1206 1341 1473 1472 1340 1476 1602
8 1495 1370 1478 1609 1361 1239 1342 1479
8 1348 1212 1342 1479 1483 1347 1478 1609
8 1481 1346 1479 1610 1345 1210 1343 1480
8 1481 1346 1228 1359 1610 1479 1361 1494
8 1484 1348 1214 1351 1610 1479 1343 1480
8 1483 1347 1482 1612 1350 1213 1349 1486
8 1484 1348 1483 1613 1351 1214 1350 1487
8 1353 1230 1360 1488 1489 1363 1496 1616
8 1490 1364 1231 1354 1617 1499 1363 1489
8 1490 1364 1499 1617 1355 1232 1365 1491
8 1356 1234 1365 1491 1492 1366 1500 1619
8 1492 1366 1498 1620 1357 1233 1362 1493
8 1494 1361 1228 1359 1621 1497 1362 1493
8 1495 1370 1239 1361 1622 1504 1371 1497
8 1363 1236 1367 1496 1499 1368 1501 1623
8 1497 1371 1240 1362 1624 1505 1372 1498
8 1625 1503 1372 1498 1500 1369 1241 1366
8 1365 1238 1368 1499 1500 1369 1502 1626
8 1520 1398 1506 1633 1388 1266 1373 1507
8 1634 1507 1374 1508 1512 1388 1255 1380
8 1509 1387 1519 1635 1377 1258 1391 1510
8 1405 1276 1406 1534 1509 1387 1519 1635
8 1515 1392 1260 1383 1636 1522 1390 1511
8 1511 1390 1259 1379 1636 1522 1391 1510
8 1385 1256 1389 1517 1512 1388 1520 1637
8 1513 1394 1262 1382 1638 1524 1393 1514
8 1395 1516 1638 1524 1263 1384 1513 1394
8 1515 1392 1523 1639 1383 1260 1393 1514
8 1516 1395 1526 1640 1386 1264 1396 1518
8 1386 1264 1396 1518 1517 1389 1521 1641
8 1519 1397 1527 1643 1391 1269 1400 1522
8 1535 1407 1527 1643 1406 1277 1397 1519
8 1389 1267 1399 1521 1520 1398 1528 1644
8 1645 1529 1399 1521 1525 1404 1274 1396
8 1392 1270 1400 1522 1523 1401 1531 1646
8 1524 1402 1271 1393 1648 1532 1401 1523
8 1403 1526 1648 1532 1273 1395 1524 1402
8 1525 1404 1274 1396 1649 1533 1403 1526
8 1539 1414 1535 1657 1411 1286 1406 1534
8 1542 1415 1536 1658 1414 1287 1407 1535
8 1409 1285 1412 1537 1538 1413 1540 1660
8 1545 1421 1540 1660 1418 1292 1412 1537
8 1539 1414 1286 1411 1661 1541 1413 1538
8 1540 1417 1544 1663 1413 1288 1416 1541
8 1421 1296 1425 1548 1540 1417 1544 1663
8 1542 1415 1287 1414 1664 1543 1416 1541
8 1420 1294 1423 1547 1545 1421 1548 1666
8 1547 1423 1293 1419 1667 1549 1422 1546
8 1434 1301 1427 1553 1546 1422 1549 1667
8 1423 1297 1424 1549 1548 1425 1550 1668
8 1551 1426 1550 1668 1427 1298 1424 1549
8 1551 1426 1298 1427 1671 1552 1428 1554
8 1562 1432 1554 1674 1434 1301 1427 1553
8 1431 1299 1429 1558 1554 1428 1555 1675
8 1431 1299 1430 1560 1558 1429 1557 1680
8 1560 1430 1300 1432 1683 1559 1433 1563
8 1561 1431 1554 1674 1684 1560 1432 1562
8 1685 1563 1432 1562 1565 1435 1301 1434
8 1435 1302 1436 1566 1563 1433 1564 1686
8 1437 1303 1438 1568 1565 1435 1566 1688
8 1438 1304 1439 1569 1566 1436 1567 1689
8 1440 1306 1441 1571 1568 1438 1569 1691
8 1441 1307 1442 1572 1569 1439 1570 1692
8 1443 1309 1444 1574 1571 1441 1572 1694
8 1310 1444 1572 1442 1445 1575 1695 1573
8 1446 1312 1447 1576 1574 1444 1575 1696
8 1486 1349 1485 1614 1579 1449 1577 1699
8 1451 1317 1449 1579 1581 1450 1578 1701
8 1487 1350 1486 1615 1582 1451 1579 1702
8 1581 1450 1580 1704 1453 1318 1452 1584
8 1582 1451 1581 1705 1454 1319 1453 1585
8 1584 1452 1583 1706 1456 1320 1455 1586
8 1585 1453 1584 1707 1457 1321 1456 1587
8 1587 1456 1586 1708 1458 1323 1459 1588
8 1633 1506 1589 1710 1507 1373 1461 1590
8 1464 1329 1461 1590 1594 1463 1589 1710
8 1468 1336 1462 1591 1595 1464 1590 1711
8 1634 1507 1590 1711 1508 1374 1462 1591
8 1473 1341 1463 1594 1603 1477 1593 1716
8 1469 1337 1464 1595 1599 1473 1594 1717
8 1471 1597 1467 1335 1600 1718 1596 1470
8 1718 1600 1496 1616 1596 1470 1360 1488
8 1336 1468 1597 1471 1472 1598 1719 1601
8 1469 1337 1473 1599 1598 1472 1602 1720
8 1722 1604 1501 1623 1600 1474 1367 1496
8 1475 1601 1471 1339 1604 1722 1600 1474
8 1602 1476 1605 1723 1472 1340 1475 1601
8 1476 1602 1724 1606 1341 1473 1603 1477
8 1483 1347 1478 1609 1612 1482 1608 1731
8 1495 1370 1504 1622 1609 1478 1608 1731
8 1618 1495 1609 1732 1494 1361 1479 1610
8 1484 1348 1479 1610 1613 1483 1609 1732
8 1486 1349 1482 1612 1614 1485 1611 1733
8 1613 1483 1612 1734 1487 1350 1486 1615
8 1489 1363 1496 1616 1617 1499 1623 1736
8 1491 1365 1499 1617 1619 1500 1626 1737
8 1618 1495 1361 1494 1738 1622 1497 1621
8 1739 1625 1498 1620 1619 1500 1366 1492
8 1621 1497 1362 1493 1740 1624 1498 1620
8 1742 1631 1504 1622 1624 1505 1371 1497
8 1743 1628 1502 1626 1623 1501 1368 1499
8 1744 1630 1505 1624 1625 1503 1372 1498
8 1745 1629 1503 1625 1626 1502 1369 1500
8 1520 1398 1528 1644 1633 1506 1632 1751
8 1637 1520 1633 1752 1512 1388 1507 1634
8 1635 1519 1643 1753 1510 1391 1522 1636
8 1657 1535 1643 1753 1534 1406 1519 1635
8 1515 1392 1522 1636 1639 1523 1646 1754
8 1517 1389 1521 1641 1637 1520 1644 1755
8 1524 1638 1756 1648 1393 1514 1639 1523
8 1640 1526 1395 1516 1756 1648 1524 1638
8 1642 1525 1396 1518 1757 1649 1526 1640
8 1758 1645 1521 1641 1642 1525 1396 1518
8 1646 1531 1400 1522 1760 1650 1527 1643
8 1535 1407 1536 1658 1643 1527 1650 1760
8 1521 1399 1529 1645 1644 1528 1651 1761
8 1647 1530 1652 1762 1525 1404 1529 1645
8 1401 1523 1648 1532 1531 1646 1763 1655
8 1525 1404 1533 1649 1647 1530 1654 1765
8 1533 1649 1766 1656 1403 1526 1648 1532
8 1662 1542 1658 1774 1539 1414 1535 1657
8 1542 1415 1543 1664 1658 1536 1659 1775
8 1660 1540 1663 1777 1538 1413 1541 1661
8 1545 1421 1548 1666 1660 1540 1663 1777
8 1662 1542 1414 1539 1778 1664 1541 1661
8 1664 1543 1416 1541 1779 1665 1544 1663
8 1548 1425 1550 1668 1663 1544 1665 1779
8 1547 1423 1549 1667 1666 1548 1668 1781
8 1670 1551 1668 1781 1553 1427 1549 1667
8 1551 1426 1552 1671 1668 1550 1669 1782
8 1670 1551 1427 1553 1784 1671 1554 1674
8 1675 1555 1672 1785 1554 1428 1552 1671
8 1678 1556 1673 1789 1558 1429 1555 1675
8 1561 1431 1558 1681 1674 1554 1675 1790
8 1794 1677 1556 1678 1680 1557 1429 1558
8 1560 1430 1559 1683 1680 1557 1679 1797
8 1561 1431 1560 1684 1681 1558 1680 1798
8 1563 1433 1564 1686 1683 1559 1682 1800
8 1684 1560 1432 1562 1801 1683 1563 1685
8 1565 1435 1566 1688 1685 1563 1686 1802
8 1566 1436 1567 1689 1686 1564 1687 1803
8 1568 1438 1569 1691 1688 1566 1689 1805
8 1569 1439 1570 1692 1689 1567 1690 1806
8 1571 1441 1572 1694 1691 1569 1692 1808
8 1442 1572 1692 1570 1573 1695 1809 1693
8 1574 1444 1575 1696 1694 1572 1695 1810
8 1614 1485 1592 1712 1699 1577 1697 1813
8 1579 1449 1577 1699 1701 1578 1698 1815
8 1615 1486 1614 1735 1702 1579 1699 1816
8 1701 1578 1700 1818 1581 1450 1580 1704
8 1582 1451 1579 1702 1705 1581 1701 1819
8 1704 1580 1703 1820 1584 1452 1583 1706
8 1705 1581 1704 1821 1585 1453 1584 1707
8 1707 1584 1706 1822 1587 1456 1586 1708
8 1710 1589 1506 1633 1824 1709 1632 1751
8 1594 1463 1589 1710 1716 1593 1709 1824
8 1752 1633 1710 1825 1634 1507 1590 1711
8 1595 1464 1590 1711 1717 1594 1710 1825
8 1830 1714 1592 1712 1733 1611 1485 1614
8 1603 1477 1593 1716 1725 1607 1715 1834
8 1599 1473 1594 1717 1721 1603 1716 1835
8 1837 1722 1623 1736 1718 1600 1496 1616
8 1719 1601 1722 1837 1597 1471 1600 1718
8 1602 1720 1598 1472 1723 1838 1719 1601
8 1720 1602 1473 1599 1839 1724 1603 1721
8 1723 1605 1726 1840 1601 1475 1604 1722
8 1840 1726 1628 1743 1722 1604 1501 1623
8 1724 1606 1727 1841 1602 1476 1605 1723
8 1725 1607 1728 1842 1603 1477 1606 1724
8 1612 1482 1608 1731 1733 1611 1730 1849
8 1741 1627 1730 1849 1622 1504 1608 1731
8 1613 1483 1609 1732 1734 1612 1731 1850
8 1618 1495 1622 1738 1732 1609 1731 1850
8 1615 1486 1612 1734 1735 1614 1733 1851
8 1852 1743 1626 1737 1736 1623 1499 1617
8 1853 1745 1625 1739 1737 1626 1500 1619
8 1855 1742 1622 1738 1740 1624 1497 1621
8 1856 1744 1624 1740 1739 1625 1498 1620
8 1741 1627 1504 1622 1857 1746 1631 1742
8 1742 1631 1505 1624 1858 1749 1630 1744
8 1859 1747 1629 1745 1743 1628 1502 1626
8 1860 1748 1630 1744 1745 1629 1503 1625
8 1644 1528 1651 1761 1751 1632 1750 1865
8 1637 1520 1644 1755 1752 1633 1751 1866
8 1754 1646 1522 1636 1867 1760 1643 1753
8 1657 1535 1658 1774 1753 1643 1760 1867
8 1639 1523 1646 1754 1756 1648 1763 1868
8 1641 1521 1645 1758 1755 1644 1761 1869
8 1757 1649 1526 1640 1870 1766 1648 1756
8 1642 1525 1649 1757 1759 1647 1765 1871
8 1759 1647 1762 1872 1642 1525 1645 1758
8 1760 1650 1767 1874 1646 1531 1655 1763
8 1658 1536 1659 1775 1760 1650 1767 1874
8 1762 1652 1768 1875 1645 1529 1651 1761
8 1764 1653 1769 1876 1647 1530 1652 1762
8 1656 1766 1877 1773 1532 1648 1763 1655
8 1771 1879 1765 1654 1653 1764 1647 1530
8 1533 1649 1765 1654 1656 1766 1880 1772
8 1662 1542 1664 1778 1774 1658 1775 1887
8 1664 1543 1665 1779 1775 1659 1776 1888
8 1778 1664 1541 1661 1890 1779 1663 1777
8 1666 1548 1668 1781 1777 1663 1779 1890
8 1782 1669 1780 1891 1668 1550 1665 1779
8 1670 1551 1671 1784 1781 1668 1782 1893
8 1671 1552 1672 1785 1782 1669 1783 1894
8 1790 1675 1785 1896 1674 1554 1671 1784
8 1675 1555 1673 1789 1785 1672 1786 1897
8 1792 1676 1788 1903 1678 1556 1673 1789
8 1795 1678 1789 1904 1681 1558 1675 1790
8 1792 1676 1556 1678 1906 1791 1677 1794
8 1680 1557 1679 1797 1794 1677 1793 1909
8 1910 1794 1678 1795 1798 1680 1558 1681
8 1683 1559 1682 1800 1797 1679 1796 1912
8 1684 1560 1683 1801 1798 1680 1797 1913
8 1686 1564 1687 1803 1800 1682 1799 1915
8 1685 1563 1686 1802 1801 1683 1800 1916
8 1688 1566 1689 1805 1802 1686 1803 1917
8 1689 1567 1690 1806 1803 1687 1804 1918
8 1691 1569 1692 1808 1805 1689 1806 1920
8 1692 1570 1693 1809 1806 1690 1807 1921
8 1694 1572 1695 1810 1808 1692 1809 1922
8 1829 1713 1811 1926 1712 1592 1697 1813
8 1813 1697 1812 1928 1699 1577 1698 1815
8 1735 1614 1712 1828 1816 1699 1813 1929
8 1815 1698 1814 1931 1701 1578 1700 1818
8 1702 1579 1699 1816 1819 1701 1815 1932
8 1818 1700 1817 1933 1704 1580 1703 1820
8 1819 1701 1818 1934 1705 1581 1704 1821
8 1821 1704 1820 1935 1707 1584 1706 1822
8 1824 1709 1632 1751 1937 1823 1750 1865
8 1716 1593 1709 1824 1834 1715 1823 1937
8 1825 1710 1633 1752 1938 1824 1751 1866
8 1717 1594 1710 1825 1835 1716 1824 1938
8 1945 1830 1712 1828 1851 1733 1614 1735
8 1830 1714 1831 1946 1712 1592 1713 1829
8 1947 1832 1714 1830 1849 1730 1611 1733
8 1843 1729 1607 1725 1950 1833 1715 1834
8 1721 1603 1716 1835 1836 1725 1834 1951
8 1836 1725 1842 1953 1721 1603 1724 1839
8 1723 1838 1719 1601 1840 1954 1837 1722
8 1954 1840 1743 1852 1837 1722 1623 1736
8 1724 1839 1720 1602 1841 1955 1838 1723
8 1841 1727 1844 1956 1723 1605 1726 1840
8 1956 1844 1747 1859 1840 1726 1628 1743
8 1728 1842 1724 1606 1845 1957 1841 1727
8 1725 1607 1729 1843 1842 1728 1846 1958
8 1741 1627 1746 1857 1849 1730 1848 1965
8 1734 1612 1731 1850 1851 1733 1849 1966
8 1854 1741 1849 1966 1738 1622 1731 1850
8 1967 1859 1745 1853 1852 1743 1626 1737
8 1968 1860 1744 1856 1853 1745 1625 1739
8 1854 1741 1622 1738 1969 1857 1742 1855
8 1855 1742 1624 1740 1970 1858 1744 1856
8 1857 1746 1631 1742 1971 1861 1749 1858
8 1858 1749 1630 1744 1972 1863 1748 1860
8 1859 1747 1862 1973 1745 1629 1748 1860
8 1875 1768 1864 1977 1761 1651 1750 1865
8 1755 1644 1761 1869 1866 1751 1865 1978
8 1867 1760 1874 1979 1754 1646 1763 1868
8 1774 1658 1775 1887 1867 1760 1874 1979
8 1870 1766 1648 1756 1980 1877 1763 1868
8 1872 1762 1875 1981 1758 1645 1761 1869
8 1757 1649 1766 1870 1871 1765 1880 1982
8 1983 1879 1764 1873 1871 1765 1647 1759
8 1873 1764 1876 1984 1759 1647 1762 1872
8 1877 1773 1655 1763 1986 1881 1767 1874
8 1775 1659 1776 1888 1874 1767 1881 1986
8 1876 1769 1882 1987 1762 1652 1768 1875
8 1878 1770 1883 1988 1764 1653 1769 1876
8 1880 1772 1656 1766 1989 1886 1773 1877
8 1878 1770 1653 1764 1990 1884 1771 1879
8 1765 1654 1772 1880 1879 1771 1885 1991
8 1778 1664 1779 1890 1887 1775 1888 1997
8 1998 1889 1776 1888 1891 1780 1665 1779
8 1893 1782 1891 2000 1781 1668 1779 1890
8 1894 1783 1892 2001 1782 1669 1780 1891
8 1784 1671 1785 1896 1893 1782 1894 2003
8 1897 1786 1895 2004 1785 1672 1783 1894
8 1790 1675 1789 1904 1896 1785 1897 2006
8 1901 1787 1898 2007 1789 1673 1786 1897
8 1903 1788 1900 2013 1789 1673 1787 1901
8 1792 1676 1791 1906 1903 1788 1902 2016
8 1907 1792 1903 2017 1795 1678 1789 1904
8 1906 1791 1677 1794 2019 1905 1793 1909
8 1907 1792 1678 1795 2020 1906 1794 1910
8 1797 1679 1796 1912 1909 1793 1908 2022
8 1798 1680 1797 1913 1910 1794 1909 2023
8 1800 1682 1799 1915 1912 1796 1911 2025
8 1801 1683 1800 1916 1913 1797 1912 2026
8 1803 1687 1804 1918 1915 1799 1914 2028
8 1802 1686 1803 1917 1916 1800 1915 2029
8 1805 1689 1806 1920 1917 1803 1918 2030
8 1806 1690 1807 1921 1918 1804 1919 2031
8 1808 1692 1809 1922 1920 1806 1921 2032
8 1939 1826 1924 2037 1829 1713 1811 1926
8 1926 1811 1925 2039 1813 1697 1812 1928
8 1944 1829 1926 2040 1828 1712 1813 1929
8 1928 1812 1927 2042 1815 1698 1814 1931
8 1929 1813 1928 2043 1816 1699 1815 1932
8 1931 1814 1930 2044 1818 1700 1817 1933
8 1932 1815 1931 2045 1819 1701 1818 1934
8 1934 1818 1933 2046 1821 1704 1820 1935
8 2048 1936 1823 1937 1977 1864 1750 1865
8 1950 1833 1715 1834 2048 1936 1823 1937
8 1938 1824 1751 1866 2049 1937 1865 1978
8 1835 1716 1824 1938 1951 1834 1937 2049
8 1939 1826 1713 1829 2053 1942 1831 1946
8 1940 1827 1923 2035 2053 1942 1826 1939
8 1945 1830 1946 2058 1828 1712 1829 1944
8 2059 1947 1830 1945 1966 1849 1733 1851
8 1947 1832 1730 1849 2060 1948 1848 1965
8 1947 1832 1948 2060 1830 1714 1831 1946
8 1959 1847 1729 1843 2063 1949 1833 1950
8 1952 1843 1725 1836 2064 1950 1834 1951
8 1836 1725 1843 1952 1953 1842 1958 2066
8 1953 1842 1957 2067 1839 1724 1841 1955
8 1841 1955 1838 1723 1956 2068 1954 1840
8 2068 1956 1859 1967 1954 1840 1743 1852
8 1956 1844 1960 2069 1859 1747 1862 1973
8 1845 1957 1841 1727 1960 2069 1956 1844
8 1728 1842 1957 1845 1846 1958 2071 1961
8 1962 2072 1959 1847 1846 1958 1843 1729
8 1971 1861 1964 2077 1857 1746 1848 1965
8 1854 1741 1857 1969 1966 1849 1965 2078
8 1967 1859 1973 2079 1853 1745 1860 1968
8 1970 1858 1744 1856 2080 1972 1860 1968
8 1969 1857 1742 1855 2081 1971 1858 1970
8 1971 1861 1749 1858 2082 1974 1863 1972
8 1973 1862 1975 2083 1860 1748 1863 1972
8 1987 1882 1976 2086 1875 1768 1864 1977
8 1981 1875 1977 2087 1869 1761 1865 1978
8 1980 1877 1763 1868 2088 1986 1874 1979
8 1887 1775 1888 1997 1979 1874 1986 2088
8 1880 1982 2089 1989 1766 1870 1980 1877
8 1984 1876 1987 2090 1872 1762 1875 1981
8 1765 1871 1983 1879 1880 1982 2091 1991
8 1985 1878 1764 1873 2092 1990 1879 1983
8 1985 1878 1988 2093 1873 1764 1876 1984
8 2094 1992 1881 1986 1998 1889 1776 1888
8 1986 1881 1992 2094 1877 1773 1886 1989
8 1988 1883 1993 2095 1876 1769 1882 1987
8 1878 1770 1884 1990 1988 1883 1994 2096
8 1991 1885 1772 1880 2097 1996 1886 1989
8 1879 1771 1885 1991 1990 1884 1995 2098
8 2103 1998 1888 1997 2000 1891 1779 1890
8 2104 1999 1889 1998 2001 1892 1780 1891
8 2003 1894 2001 2106 1893 1782 1891 2000
8 2004 1895 2002 2107 1894 1783 1892 2001
8 2006 1897 2004 2109 1896 1785 1894 2003
8 2007 1898 2005 2110 1897 1786 1895 2004
8 2014 1901 2007 2112 1904 1789 1897 2006
8 2011 1899 2008 2113 1901 1787 1898 2007
8 2119 2010 1899 2011 2013 1900 1787 1901
8 2016 1902 2012 2122 1903 1788 1900 2013
8 2017 1903 2013 2123 1904 1789 1901 2014
8 1906 1791 1905 2019 2016 1902 2015 2125
8 1907 1792 1906 2020 2017 1903 2016 2126
8 1909 1793 1908 2022 2019 1905 2018 2128
8 2020 1906 1794 1910 2129 2019 1909 2023
8 1912 1796 1911 2025 2022 1908 2021 2131
8 1913 1797 1912 2026 2023 1909 2022 2132
8 1915 1799 1914 2028 2025 1911 2024 2134
8 1916 1800 1915 2029 2026 1912 2025 2135
8 1918 1804 1919 2031 2028 1914 2027 2136
8 1917 1803 1918 2030 2029 1915 2028 2137
8 1920 1806 1921 2032 2030 1918 2031 2138
8 1940 1827 1941 2054 2035 1923 2033 2140
8 2035 1923 2034 2143 1939 1826 1924 2037
8 2037 1924 2036 2146 1926 1811 1925 2039
8 2051 1939 2037 2147 1944 1829 1926 2040
8 2039 1925 2038 2149 1928 1812 1927 2042
8 2040 1926 2039 2150 1929 1813 1928 2043
8 2042 1927 2041 2151 1931 1814 1930 2044
8 2043 1928 2042 2152 1932 1815 1931 2045
8 2045 1931 2044 2153 1934 1818 1933 2046
8 2155 2047 1936 2048 2086 1976 1864 1977
8 2063 1949 1833 1950 2155 2047 1936 2048
8 2156 2048 1937 2049 2087 1977 1865 1978
8 2064 1950 1834 1951 2156 2048 1937 2049
8 2051 1939 1829 1944 2160 2053 1946 2058
8 2052 1940 2035 2144 2160 2053 1939 2051
8 2053 1942 1831 1946 2163 2057 1948 2060
8 2055 1943 1827 1940 2163 2057 1942 2053
8 2055 1943 2056 2164 1940 1827 1941 2054
8 2059 1947 1849 1966 2167 2060 1965 2078
8 2059 1947 2060 2167 1945 1830 1946 2058
8 2077 1964 2061 2168 1965 1848 1948 2060
8 2070 1963 1847 1959 2170 2062 1949 2063
8 2065 1959 1843 1952 2171 2063 1950 2064
8 2173 2072 1958 2066 2065 1959 1843 1952
8 1953 1842 1958 2066 2067 1957 2071 2174
8 2068 1956 2069 2175 1967 1859 1973 2079
8 2067 1957 2069 2175 1955 1841 1956 2068
8 1845 1957 2069 1960 1961 2071 2176 2073
8 2069 1960 2073 2176 1973 1862 1975 2083
8 2070 1963 2075 2177 1959 1847 1962 2072
8 1846 1958 2071 1961 1962 2072 2178 2074
8 2077 1964 1861 1971 2182 2076 1974 2082
8 2081 1971 2077 2183 1969 1857 1965 2078
8 2079 1973 2083 2184 1968 1860 1972 2080
8 2081 1971 1858 1970 2185 2082 1972 2080
8 2083 1975 2084 2186 1972 1863 1974 2082
8 2086 1976 1882 1987 2189 2085 1993 2095
8 2090 1987 2086 2190 1981 1875 1977 2087
8 2191 2094 1986 2088 2103 1998 1888 1997
8 2088 1986 2094 2191 1980 1877 1989 2089
8 1991 2091 2192 2097 1880 1982 2089 1989
8 2093 1988 2095 2193 1984 1876 1987 2090
8 1879 1983 2092 1990 1991 2091 2194 2098
8 1985 1878 1990 2092 2093 1988 2096 2195
8 2097 1996 1886 1989 2196 2099 1992 2094
8 2196 2099 1992 2094 2104 1999 1889 1998
8 1994 2096 1988 1883 2100 2197 2095 1993
8 2096 1994 1884 1990 2198 2101 1995 2098
8 1995 2098 2199 2102 1885 1991 2097 1996
8 2203 2104 1998 2103 2106 2001 1891 2000
8 2107 2002 2105 2204 2001 1892 1999 2104
8 2109 2004 2107 2206 2003 1894 2001 2106
8 2110 2005 2108 2207 2004 1895 2002 2107
8 2112 2007 2110 2209 2006 1897 2004 2109
8 2113 2008 2111 2210 2007 1898 2005 2110
8 2120 2011 2113 2212 2014 1901 2007 2112
8 2117 2009 2114 2213 2011 1899 2008 2113
8 2219 2116 2009 2117 2119 2010 1899 2011
8 2222 2118 2010 2119 2122 2012 1900 2013
8 2223 2119 2011 2120 2123 2013 1901 2014
8 2016 1902 2015 2125 2122 2012 2121 2225
8 2126 2016 2122 2226 2017 1903 2013 2123
8 2019 1905 2018 2128 2125 2015 2124 2228
8 2020 1906 2019 2129 2126 2016 2125 2229
8 2022 1908 2021 2131 2128 2018 2127 2231
8 2023 1909 2022 2132 2129 2019 2128 2232
8 2025 1911 2024 2134 2131 2021 2130 2234
8 2026 1912 2025 2135 2132 2022 2131 2235
8 1914 2028 2134 2024 2027 2136 2236 2133
8 2029 1915 2028 2137 2135 2025 2134 2237
8 2030 1918 2031 2138 2137 2028 2136 2238
8 2157 2050 2139 2240 2054 1941 2033 2140
8 2052 1940 2054 2161 2144 2035 2140 2242
8 2140 2033 2141 2243 2035 1923 2034 2143
8 2143 2034 2142 2246 2037 1924 2036 2146
8 2144 2035 2143 2247 2051 1939 2037 2147
8 2146 2036 2145 2249 2039 1925 2038 2149
8 2147 2037 2146 2250 2040 1926 2039 2150
8 2149 2038 2148 2251 2042 1927 2041 2151
8 2150 2039 2149 2252 2043 1928 2042 2152
8 2152 2042 2151 2253 2045 1931 2044 2153
8 2255 2154 2047 2155 2189 2085 1976 2086
8 2170 2062 1949 2063 2255 2154 2047 2155
8 2256 2155 2048 2156 2190 2086 1977 2087
8 2171 2063 1950 2064 2256 2155 2048 2156
8 2258 2159 2050 2157 2164 2056 1941 2054
8 2160 2053 1946 2058 2262 2163 2060 2167
8 2162 2055 1940 2052 2262 2163 2053 2160
8 2162 2055 2164 2263 2052 1940 2054 2161
8 2163 2057 1948 2060 2264 2165 2061 2168
8 2055 1943 2057 2163 2164 2056 2165 2264
8 2182 2076 2166 2268 2077 1964 2061 2168
8 2183 2077 2168 2269 2078 1965 2060 2167
8 2070 1963 2062 2170 2177 2075 2169 2271
8 2172 2070 1959 2065 2272 2170 2063 2171
8 2172 2070 2177 2273 2065 1959 2072 2173
8 2066 1958 2072 2173 2174 2071 2178 2274
8 2067 1957 2071 2174 2175 2069 2176 2275
8 2175 2069 2176 2275 2079 1973 2083 2184
8 2071 1961 2074 2178 2176 2073 2179 2276
8 2176 2073 2179 2276 2083 1975 2084 2186
8 2072 1962 2075 2177 2178 2074 2180 2277
8 2182 2076 1974 2082 2280 2181 2084 2186
8 2183 2077 1971 2081 2281 2182 2082 2185
8 2184 2083 2186 2282 2080 1972 2082 2185
8 2189 2085 1993 2095 2285 2188 2100 2197
8 2190 2086 1987 2090 2286 2189 2095 2193
8 2192 2097 1989 2089 2287 2196 2094 2191
8 2287 2196 2094 2191 2203 2104 1998 2103
8 2194 2098 1991 2091 2288 2199 2097 2192
8 2195 2096 2197 2289 2093 1988 2095 2193
8 2096 2195 2290 2198 1990 2092 2194 2098
8 2097 1996 2099 2196 2199 2102 2200 2291
8 2196 2099 1999 2104 2291 2200 2105 2204
8 2100 2197 2292 2201 1994 2096 2198 2101
8 1995 2098 2198 2101 2102 2199 2293 2202
8 2206 2107 2204 2296 2106 2001 2104 2203
8 2207 2108 2205 2297 2107 2002 2105 2204
8 2209 2110 2207 2299 2109 2004 2107 2206
8 2210 2111 2208 2300 2110 2005 2108 2207
8 2212 2113 2210 2302 2112 2007 2110 2209
8 2213 2114 2211 2303 2113 2008 2111 2210
8 2220 2117 2213 2305 2120 2011 2113 2212
8 2216 2115 2214 2306 2117 2009 2114 2213
8 2216 2115 2009 2117 2311 2217 2116 2219
8 2219 2116 2010 2119 2314 2218 2118 2222
8 2315 2219 2117 2220 2223 2119 2011 2120
8 2122 2012 2121 2225 2222 2118 2221 2317
8 2318 2222 2119 2223 2226 2122 2013 2123
8 2125 2015 2124 2228 2225 2121 2224 2320
8 2126 2016 2125 2229 2226 2122 2225 2321
8 2128 2018 2127 2231 2228 2124 2227 2323
8 2129 2019 2128 2232 2229 2125 2228 2324
8 2131 2021 2130 2234 2231 2127 2230 2326
8 2132 2022 2131 2235 2232 2128 2231 2327
8 2134 2024 2133 2236 2234 2130 2233 2328
8 2135 2025 2134 2237 2235 2131 2234 2329
8 2137 2028 2136 2238 2237 2134 2236 2330
8 2157 2050 2158 2259 2240 2139 2239 2332
8 2257 2157 2240 2334 2161 2054 2140 2242
8 2240 2139 2241 2335 2140 2033 2141 2243
8 2242 2140 2243 2337 2144 2035 2143 2247
8 2243 2141 2244 2338 2143 2034 2142 2246
8 2246 2142 2245 2341 2146 2036 2145 2249
8 2247 2143 2246 2342 2147 2037 2146 2250
8 2249 2145 2248 2343 2149 2038 2148 2251
8 2250 2146 2249 2344 2150 2039 2149 2252
8 2252 2149 2251 2345 2152 2042 2151 2253
8 2169 2271 2347 2254 2062 2170 2255 2154
8 2189 2085 2188 2285 2255 2154 2254 2347
8 2348 2255 2155 2256 2286 2189 2086 2190
8 2272 2170 2063 2171 2348 2255 2155 2256
8 2349 2258 2157 2257 2263 2164 2054 2161
8 2258 2159 2261 2351 2157 2050 2158 2259
8 2258 2159 2056 2164 2351 2261 2165 2264
8 2262 2163 2060 2167 2355 2264 2168 2269
8 2162 2055 2163 2262 2263 2164 2264 2355
8 2357 2266 2165 2264 2268 2166 2061 2168
8 2268 2166 2076 2182 2361 2267 2181 2280
8 2281 2182 2268 2362 2183 2077 2168 2269
8 2271 2169 2270 2364 2177 2075 2180 2277
8 2172 2070 2170 2272 2273 2177 2271 2365
8 2072 2173 2274 2178 2177 2273 2366 2277
8 2071 2174 2275 2176 2178 2274 2367 2276
8 2275 2176 2276 2367 2184 2083 2186 2282
8 2283 2187 2084 2186 2368 2278 2179 2276
8 2178 2074 2180 2277 2276 2179 2278 2368
8 2283 2187 2279 2370 2186 2084 2181 2280
8 2281 2182 2082 2185 2371 2280 2186 2282
8 2188 2285 2374 2284 2100 2197 2292 2201
8 2286 2189 2095 2193 2375 2285 2197 2289
8 2192 2097 2196 2287 2288 2199 2291 2376
8 2287 2196 2104 2203 2376 2291 2204 2296
8 2194 2098 2199 2288 2290 2198 2293 2377
8 2289 2197 2096 2195 2378 2292 2198 2290
8 2291 2200 2105 2204 2379 2294 2205 2297
8 2199 2102 2200 2291 2293 2202 2294 2379
8 2198 2101 2202 2293 2292 2201 2295 2380
8 2299 2207 2297 2383 2206 2107 2204 2296
8 2300 2208 2298 2384 2207 2108 2205 2297
8 2302 2210 2300 2386 2209 2110 2207 2299
8 2303 2211 2301 2387 2210 2111 2208 2300
8 2305 2213 2303 2389 2212 2113 2210 2302
8 2306 2214 2304 2390 2213 2114 2211 2303
8 2310 2216 2306 2392 2220 2117 2213 2305
8 2308 2215 2307 2393 2216 2115 2214 2306
8 2308 2215 2115 2216 2396 2309 2217 2311
8 2310 2216 2117 2220 2398 2311 2219 2315
8 2311 2217 2116 2219 2399 2312 2218 2314
8 2314 2218 2118 2222 2402 2313 2221 2317
8 2315 2219 2119 2223 2403 2314 2222 2318
8 2225 2121 2224 2320 2317 2221 2316 2405
8 2226 2122 2225 2321 2318 2222 2317 2406
8 2228 2124 2227 2323 2320 2224 2319 2408
8 2229 2125 2228 2324 2321 2225 2320 2409
8 2231 2127 2230 2326 2323 2227 2322 2411
8 2232 2128 2231 2327 2324 2228 2323 2412
8 2234 2130 2233 2328 2326 2230 2325 2413
8 2235 2131 2234 2329 2327 2231 2326 2414
8 2237 2134 2236 2330 2329 2234 2328 2415
8 2259 2158 2260 2352 2332 2239 2331 2417
8 2257 2157 2259 2350 2334 2240 2332 2419
8 2240 2139 2239 2332 2335 2241 2333 2420
8 2334 2240 2335 2422 2242 2140 2243 2337
8 2335 2241 2336 2423 2243 2141 2244 2338
8 2337 2243 2338 2425 2247 2143 2246 2342
8 2338 2244 2339 2426 2246 2142 2245 2341
8 2341 2245 2340 2428 2249 2145 2248 2343
8 2342 2246 2341 2429 2250 2146 2249 2344
8 2344 2249 2343 2430 2252 2149 2251 2345
8 2188 2285 2347 2254 2284 2374 2432 2346
8 2347 2254 2346 2432 2271 2169 2270 2364
8 2365 2271 2170 2272 2433 2347 2255 2348
8 2286 2189 2285 2375 2348 2255 2347 2433
8 2349 2258 2351 2435 2257 2157 2259 2350
8 2349 2258 2164 2263 2435 2351 2264 2355
8 2259 2158 2261 2351 2352 2260 2354 2437
8 2356 2265 2354 2437 2264 2165 2261 2351
8 2441 2357 2264 2355 2362 2268 2168 2269
8 2356 2265 2165 2264 2442 2358 2266 2357
8 2443 2359 2266 2357 2361 2267 2166 2268
8 2370 2279 2360 2446 2280 2181 2267 2361
8 2362 2268 2182 2281 2447 2361 2280 2371
8 2180 2277 2368 2278 2270 2364 2449 2363
8 2271 2365 2273 2177 2364 2450 2366 2277
8 2372 2283 2186 2282 2451 2368 2276 2367
8 2178 2274 2367 2276 2277 2366 2451 2368
8 2283 2187 2278 2368 2370 2279 2369 2452
8 2372 2283 2370 2453 2282 2186 2280 2371
8 2284 2374 2455 2373 2201 2292 2380 2295
8 2375 2285 2197 2289 2456 2374 2292 2378
8 2376 2291 2204 2296 2457 2379 2297 2383
8 2288 2199 2291 2376 2377 2293 2379 2457
8 2198 2290 2378 2292 2293 2377 2458 2380
8 2293 2202 2294 2379 2380 2295 2381 2459
8 2384 2298 2381 2459 2297 2205 2294 2379
8 2386 2300 2384 2463 2299 2207 2297 2383
8 2387 2301 2385 2464 2300 2208 2298 2384
8 2389 2303 2387 2466 2302 2210 2300 2386
8 2390 2304 2388 2467 2303 2211 2301 2387
8 2392 2306 2390 2469 2305 2213 2303 2389
8 2393 2307 2391 2470 2306 2214 2304 2390
8 2395 2308 2393 2472 2310 2216 2306 2392
8 2308 2215 2309 2396 2393 2307 2394 2473
8 2395 2308 2216 2310 2475 2396 2311 2398
8 2396 2309 2217 2311 2476 2397 2312 2399
8 2398 2311 2219 2315 2478 2399 2314 2403
8 2399 2312 2218 2314 2479 2400 2313 2402
8 2317 2221 2316 2405 2402 2313 2401 2482
8 2403 2314 2222 2318 2483 2402 2317 2406
8 2320 2224 2319 2408 2405 2316 2404 2485
8 2321 2225 2320 2409 2406 2317 2405 2486
8 2323 2227 2322 2411 2408 2319 2407 2488
8 2324 2228 2323 2412 2409 2320 2408 2489
8 2326 2230 2325 2413 2411 2322 2410 2490
8 2327 2231 2326 2414 2412 2323 2411 2491
8 2329 2234 2328 2415 2414 2326 2413 2492
8 2417 2331 2260 2352 2494 2416 2353 2438
8 2350 2259 2352 2436 2419 2332 2417 2496
8 2332 2239 2331 2417 2420 2333 2418 2497
8 2334 2240 2332 2419 2422 2335 2420 2499
8 2420 2333 2421 2500 2335 2241 2336 2423
8 2422 2335 2423 2502 2337 2243 2338 2425
8 2423 2336 2424 2503 2338 2244 2339 2426
8 2425 2338 2426 2505 2342 2246 2341 2429
8 2426 2339 2427 2506 2341 2245 2340 2428
8 2429 2341 2428 2507 2344 2249 2343 2430
8 2432 2346 2284 2374 2509 2431 2373 2455
8 2432 2346 2431 2509 2364 2270 2363 2449
8 2375 2285 2374 2456 2433 2347 2432 2510
8 2347 2433 2365 2271 2432 2510 2450 2364
8 2350 2259 2351 2435 2436 2352 2437 2514
8 2440 2356 2437 2514 2355 2264 2351 2435
8 2352 2260 2354 2437 2438 2353 2439 2516
8 2356 2265 2358 2442 2437 2354 2439 2516
8 2440 2356 2264 2355 2518 2442 2357 2441
8 2519 2443 2357 2441 2447 2361 2268 2362
8 2443 2359 2444 2520 2357 2266 2358 2442
8 2443 2359 2267 2361 2520 2444 2360 2446
8 2446 2360 2279 2370 2523 2445 2369 2452
8 2453 2370 2446 2524 2371 2280 2361 2447
8 2449 2363 2448 2525 2368 2278 2369 2452
8 2366 2277 2364 2450 2451 2368 2449 2526
8 2372 2283 2368 2451 2453 2370 2452 2527
8 2455 2373 2295 2380 2529 2454 2382 2460
8 2456 2374 2292 2378 2530 2455 2380 2458
8 2377 2293 2379 2457 2458 2380 2459 2531
8 2463 2384 2459 2531 2383 2297 2379 2457
8 2533 2461 2382 2460 2459 2381 2295 2380
8 2464 2385 2461 2533 2384 2298 2381 2459
8 2466 2387 2464 2537 2386 2300 2384 2463
8 2467 2388 2465 2538 2387 2301 2385 2464
8 2469 2390 2467 2540 2389 2303 2387 2466
8 2470 2391 2468 2541 2390 2304 2388 2467
8 2472 2393 2470 2543 2392 2306 2390 2469
8 2393 2307 2394 2473 2470 2391 2471 2544
8 2395 2308 2396 2475 2472 2393 2473 2546
8 2396 2309 2397 2476 2473 2394 2474 2547
8 2475 2396 2311 2398 2549 2476 2399 2478
8 2476 2397 2312 2399 2550 2477 2400 2479
8 2478 2399 2314 2403 2552 2479 2402 2483
8 2479 2400 2313 2402 2553 2480 2401 2482
8 2405 2316 2404 2485 2482 2401 2481 2556
8 2406 2317 2405 2486 2483 2402 2482 2557
8 2408 2319 2407 2488 2485 2404 2484 2559
8 2409 2320 2408 2489 2486 2405 2485 2560
8 2411 2322 2410 2490 2488 2407 2487 2561
8 2412 2323 2411 2491 2489 2408 2488 2562
8 2414 2326 2413 2492 2491 2411 2490 2563
8 2513 2434 2493 2565 2438 2353 2416 2494
8 2496 2417 2352 2436 2567 2494 2438 2515
8 2494 2416 2495 2568 2417 2331 2418 2497
8 2419 2332 2417 2496 2499 2420 2497 2570
8 2497 2418 2498 2571 2420 2333 2421 2500
8 2499 2420 2500 2573 2422 2335 2423 2502
8 2500 2421 2501 2574 2423 2336 2424 2503
8 2502 2423 2503 2576 2425 2338 2426 2505
8 2503 2424 2504 2577 2426 2339 2427 2506
8 2505 2426 2506 2578 2429 2341 2428 2507
8 2509 2431 2373 2455 2580 2508 2454 2529
8 2509 2431 2508 2580 2449 2363 2448 2525
8 2432 2510 2581 2509 2374 2456 2530 2455
8 2432 2510 2450 2364 2509 2581 2526 2449
8 2583 2511 2434 2513 2516 2439 2353 2438
8 2436 2352 2437 2514 2515 2438 2516 2588
8 2440 2356 2442 2518 2514 2437 2516 2588
8 2442 2358 2444 2520 2516 2439 2517 2589
8 2519 2443 2520 2591 2441 2357 2442 2518
8 2519 2443 2361 2447 2591 2520 2446 2524
8 2446 2360 2445 2523 2520 2444 2521 2592
8 2525 2448 2522 2593 2452 2369 2445 2523
8 2524 2446 2370 2453 2594 2523 2452 2527
8 2526 2449 2525 2595 2451 2368 2452 2527
8 2534 2462 2528 2597 2460 2382 2454 2529
8 2530 2455 2380 2458 2598 2529 2460 2532
8 2599 2533 2460 2532 2531 2459 2380 2458
8 2537 2464 2533 2599 2463 2384 2459 2531
8 2534 2462 2382 2460 2601 2535 2461 2533
8 2538 2465 2535 2601 2464 2385 2461 2533
8 2540 2467 2538 2604 2466 2387 2464 2537
8 2541 2468 2539 2605 2467 2388 2465 2538
8 2543 2470 2541 2607 2469 2390 2467 2540
8 2470 2391 2471 2544 2541 2468 2542 2608
8 2472 2393 2473 2546 2543 2470 2544 2610
8 2473 2394 2474 2547 2544 2471 2545 2611
8 2475 2396 2476 2549 2546 2473 2547 2613
8 2476 2397 2477 2550 2547 2474 2548 2614
8 2549 2476 2399 2478 2616 2550 2479 2552
8 2479 2400 2480 2553 2550 2477 2551 2617
8 2552 2479 2402 2483 2619 2553 2482 2557
8 2482 2401 2481 2556 2553 2480 2554 2620
8 2485 2404 2484 2559 2556 2481 2555 2623
8 2486 2405 2485 2560 2557 2482 2556 2624
8 2488 2407 2487 2561 2559 2484 2558 2625
8 2489 2408 2488 2562 2560 2485 2559 2626
8 2491 2411 2490 2563 2562 2488 2561 2627
8 2513 2434 2512 2585 2565 2493 2564 2630
8 2586 2513 2565 2632 2515 2438 2494 2567
8 2565 2493 2566 2633 2494 2416 2495 2568
8 2567 2494 2568 2635 2496 2417 2497 2570
8 2568 2495 2569 2636 2497 2418 2498 2571
8 2570 2497 2571 2638 2499 2420 2500 2573
8 2571 2498 2572 2639 2500 2421 2501 2574
8 2573 2500 2574 2641 2502 2423 2503 2576
8 2574 2501 2575 2642 2503 2424 2504 2577
8 2576 2503 2577 2643 2505 2426 2506 2578
8 2597 2528 2579 2645 2529 2454 2508 2580
8 2580 2508 2579 2645 2525 2448 2522 2593
8 2581 2509 2455 2530 2646 2580 2529 2598
8 2581 2509 2580 2646 2526 2449 2525 2595
8 2583 2511 2582 2648 2513 2434 2512 2585
8 2583 2511 2439 2516 2648 2582 2517 2589
8 2649 2583 2513 2586 2588 2516 2438 2515
8 2589 2517 2444 2520 2653 2587 2521 2592
8 2518 2442 2520 2591 2588 2516 2589 2654
8 2593 2522 2590 2655 2523 2445 2521 2592
8 2524 2446 2523 2594 2591 2520 2592 2656
8 2595 2525 2593 2657 2527 2452 2523 2594
8 2602 2536 2596 2659 2534 2462 2528 2597
8 2600 2534 2597 2660 2532 2460 2529 2598
8 2600 2534 2460 2532 2661 2601 2533 2599
8 2604 2538 2601 2661 2537 2464 2533 2599
8 2602 2536 2462 2534 2663 2603 2535 2601
8 2601 2535 2465 2538 2663 2603 2539 2605
8 2607 2541 2605 2665 2540 2467 2538 2604
8 2608 2542 2606 2666 2541 2468 2539 2605
8 2543 2470 2544 2610 2607 2541 2608 2668
8 2544 2471 2545 2611 2608 2542 2609 2669
8 2546 2473 2547 2613 2610 2544 2611 2671
8 2547 2474 2548 2614 2611 2545 2612 2672
8 2549 2476 2550 2616 2613 2547 2614 2674
8 2550 2477 2551 2617 2614 2548 2615 2675
8 2552 2479 2553 2619 2616 2550 2617 2677
8 2553 2480 2554 2620 2617 2551 2618 2678
8 2557 2482 2556 2624 2619 2553 2620 2680
8 2556 2481 2555 2623 2620 2554 2621 2681
8 2559 2484 2558 2625 2623 2555 2622 2683
8 2560 2485 2559 2626 2624 2556 2623 2684
8 2562 2488 2561 2627 2626 2559 2625 2685
8 2690 2629 2564 2630 2650 2584 2512 2585
8 2586 2513 2585 2651 2632 2565 2630 2691
8 2630 2564 2631 2692 2565 2493 2566 2633
8 2632 2565 2633 2694 2567 2494 2568 2635
8 2633 2566 2634 2695 2568 2495 2569 2636
8 2635 2568 2636 2697 2570 2497 2571 2638
8 2636 2569 2637 2698 2571 2498 2572 2639
8 2638 2571 2639 2700 2573 2500 2574 2641
8 2639 2572 2640 2701 2574 2501 2575 2642
8 2641 2574 2642 2702 2576 2503 2577 2643
8 2597 2528 2596 2659 2645 2579 2644 2704
8 2645 2579 2644 2704 2593 2522 2590 2655
8 2660 2597 2645 2705 2598 2529 2580 2646
8 2646 2580 2645 2705 2595 2525 2593 2657
8 2650 2584 2512 2585 2707 2647 2582 2648
8 2648 2582 2517 2589 2707 2647 2587 2653
8 2649 2583 2648 2708 2586 2513 2585 2651
8 2649 2583 2516 2588 2708 2648 2589 2654
8 2655 2590 2652 2710 2592 2521 2587 2653
8 2654 2589 2520 2591 2711 2653 2592 2656
8 2657 2593 2655 2712 2594 2523 2592 2656
8 2602 2536 2603 2663 2659 2596 2658 2714
8 2662 2602 2659 2715 2600 2534 2597 2660
8 2662 2602 2534 2600 2717 2663 2601 2661
8 2661 2601 2538 2604 2717 2663 2605 2665
8 2666 2606 2664 2718 2605 2539 2603 2663
8 2668 2608 2666 2720 2607 2541 2605 2665
8 2608 2542 2609 2669 2666 2606 2667 2721
8 2610 2544 2611 2671 2668 2608 2669 2723
8 2611 2545 2612 2672 2669 2609 2670 2724
8 2613 2547 2614 2674 2671 2611 2672 2726
8 2614 2548 2615 2675 2672 2612 2673 2727
8 2616 2550 2617 2677 2674 2614 2675 2729
8 2617 2551 2618 2678 2675 2615 2676 2730
8 2619 2553 2620 2680 2677 2617 2678 2732
8 2620 2554 2621 2681 2678 2618 2679 2733
8 2624 2556 2623 2684 2680 2620 2681 2735
8 2681 2621 2555 2623 2736 2682 2622 2683
8 2626 2559 2625 2685 2684 2623 2683 2737
8 2688 2628 2584 2650 2740 2686 2647 2707
8 2688 2628 2687 2742 2650 2584 2629 2690
8 2690 2629 2689 2745 2630 2564 2631 2692
8 2746 2690 2630 2691 2709 2650 2585 2651
8 2691 2630 2692 2747 2632 2565 2633 2694
8 2692 2631 2693 2748 2633 2566 2634 2695
8 2694 2633 2695 2750 2635 2568 2636 2697
8 2695 2634 2696 2751 2636 2569 2637 2698
8 2697 2636 2698 2753 2638 2571 2639 2700
8 2698 2637 2699 2754 2639 2572 2640 2701
8 2700 2639 2701 2755 2641 2574 2642 2702
8 2659 2596 2658 2714 2704 2644 2703 2757
8 2704 2644 2703 2757 2655 2590 2652 2710
8 2660 2597 2659 2715 2705 2645 2704 2758
8 2705 2645 2704 2758 2657 2593 2655 2712
8 2759 2706 2647 2707 2710 2652 2587 2653
8 2709 2650 2585 2651 2760 2707 2648 2708
8 2708 2648 2589 2654 2760 2707 2653 2711
8 2712 2655 2710 2761 2656 2592 2653 2711
8 2763 2713 2658 2714 2718 2664 2603 2663
8 2662 2602 2663 2717 2715 2659 2714 2764
8 2720 2666 2718 2767 2665 2605 2663 2717
8 2768 2719 2664 2718 2721 2667 2606 2666
8 2668 2608 2669 2723 2720 2666 2721 2770
8 2669 2609 2670 2724 2721 2667 2722 2771
8 2671 2611 2672 2726 2723 2669 2724 2773
8 2672 2612 2673 2727 2724 2670 2725 2774
8 2674 2614 2675 2729 2726 2672 2727 2776
8 2675 2615 2676 2730 2727 2673 2728 2777
8 2677 2617 2678 2732 2729 2675 2730 2779
8 2678 2618 2679 2733 2730 2676 2731 2780
8 2680 2620 2681 2735 2732 2678 2733 2782
8 2733 2679 2621 2681 2783 2734 2682 2736
8 2735 2681 2623 2684 2784 2736 2683 2737
8 2740 2686 2647 2707 2787 2738 2706 2759
8 2688 2628 2686 2740 2742 2687 2739 2789
8 2743 2688 2650 2709 2790 2740 2707 2760
8 2742 2687 2741 2792 2690 2629 2689 2745
8 2743 2688 2742 2793 2709 2650 2690 2746
8 2745 2689 2744 2795 2692 2631 2693 2748
8 2746 2690 2745 2796 2691 2630 2692 2747
8 2747 2692 2748 2797 2694 2633 2695 2750
8 2748 2693 2749 2798 2695 2634 2696 2751
8 2750 2695 2751 2800 2697 2636 2698 2753
8 2751 2696 2752 2801 2698 2637 2699 2754
8 2753 2698 2754 2802 2700 2639 2701 2755
8 2763 2713 2756 2804 2714 2658 2703 2757
8 2759 2706 2652 2710 2804 2756 2703 2757
8 2715 2659 2714 2764 2758 2704 2757 2805
8 2758 2704 2757 2805 2712 2655 2710 2761
8 2806 2759 2707 2760 2761 2710 2653 2711
8 2765 2716 2762 2808 2718 2664 2713 2763
8 2809 2763 2714 2764 2767 2718 2663 2717
8 2765 2716 2664 2718 2811 2766 2719 2768
8 2813 2768 2718 2767 2770 2721 2666 2720
8 2814 2769 2719 2768 2771 2722 2667 2721
8 2723 2669 2724 2773 2770 2721 2771 2816
8 2724 2670 2725 2774 2771 2722 2772 2817
8 2726 2672 2727 2776 2773 2724 2774 2819
8 2727 2673 2728 2777 2774 2725 2775 2820
8 2729 2675 2730 2779 2776 2727 2777 2822
8 2730 2676 2731 2780 2777 2728 2778 2823
8 2732 2678 2733 2782 2779 2730 2780 2825
8 2780 2731 2679 2733 2826 2781 2734 2783
8 2782 2733 2681 2735 2827 2783 2736 2784
8 2830 2785 2738 2787 2804 2756 2706 2759
8 2789 2739 2686 2740 2832 2786 2738 2787
8 2790 2740 2707 2760 2833 2787 2759 2806
8 2742 2687 2739 2789 2792 2741 2788 2835
8 2743 2688 2740 2790 2793 2742 2789 2836
8 2792 2741 2791 2838 2745 2689 2744 2795
8 2793 2742 2792 2839 2746 2690 2745 2796
8 2795 2744 2794 2841 2748 2693 2749 2798
8 2796 2745 2795 2842 2747 2692 2748 2797
8 2797 2748 2798 2843 2750 2695 2751 2800
8 2798 2749 2799 2844 2751 2696 2752 2801
8 2800 2751 2801 2845 2753 2698 2754 2802
8 2808 2762 2803 2847 2763 2713 2756 2804
8 2809 2763 2804 2848 2764 2714 2757 2805
8 2806 2759 2710 2761 2848 2804 2757 2805
8 2765 2716 2766 2811 2808 2762 2807 2850
8 2810 2765 2808 2851 2767 2718 2763 2809
8 2810 2765 2718 2767 2852 2811 2768 2813
8 2811 2766 2719 2768 2853 2812 2769 2814
8 2855 2814 2768 2813 2816 2771 2721 2770
8 2856 2815 2769 2814 2817 2772 2722 2771
8 2773 2724 2774 2819 2816 2771 2817 2858
8 2774 2725 2775 2820 2817 2772 2818 2859
8 2776 2727 2777 2822 2819 2774 2820 2861
8 2777 2728 2778 2823 2820 2775 2821 2862
8 2779 2730 2780 2825 2822 2777 2823 2864
8 2823 2778 2731 2780 2865 2824 2781 2826
8 2825 2780 2733 2782 2866 2826 2783 2827
8 2869 2828 2785 2830 2847 2803 2756 2804
8 2871 2829 2786 2832 2830 2785 2738 2787
8 2872 2830 2787 2833 2848 2804 2759 2806
8 2789 2739 2786 2832 2835 2788 2831 2874
8 2836 2789 2740 2790 2875 2832 2787 2833
8 2792 2741 2788 2835 2838 2791 2834 2877
8 2793 2742 2789 2836 2839 2792 2835 2878
8 2838 2791 2837 2880 2795 2744 2794 2841
8 2839 2792 2838 2881 2796 2745 2795 2842
8 2841 2794 2840 2882 2798 2749 2799 2844
8 2842 2795 2841 2883 2797 2748 2798 2843
8 2843 2798 2844 2884 2800 2751 2801 2845
8 2886 2846 2803 2847 2850 2807 2762 2808
8 2851 2808 2847 2887 2809 2763 2804 2848
8 2850 2807 2766 2811 2889 2849 2812 2853
8 2810 2765 2811 2852 2851 2808 2850 2890
8 2852 2811 2768 2813 2891 2853 2814 2855
8 2853 2812 2769 2814 2892 2854 2815 2856
8 2894 2856 2814 2855 2858 2817 2771 2816
8 2817 2772 2818 2859 2856 2815 2857 2895
8 2819 2774 2820 2861 2858 2817 2859 2897
8 2820 2775 2821 2862 2859 2818 2860 2898
8 2822 2777 2823 2864 2861 2820 2862 2900
8 2823 2778 2824 2865 2862 2821 2863 2901
8 2864 2823 2780 2825 2902 2865 2826 2866
8 2904 2867 2828 2869 2886 2846 2803 2847
8 2869 2828 2868 2906 2830 2785 2829 2871
8 2907 2869 2830 2872 2887 2847 2804 2848
8 2871 2829 2870 2909 2832 2786 2831 2874
8 2910 2871 2832 2875 2872 2830 2787 2833
8 2835 2788 2831 2874 2877 2834 2873 2912
8 2836 2789 2832 2875 2878 2835 2874 2913
8 2877 2834 2876 2915 2838 2791 2837 2880
8 2839 2792 2835 2878 2881 2838 2877 2916
8 2880 2837 2879 2917 2841 2794 2840 2882
8 2881 2838 2880 2918 2842 2795 2841 2883
8 2883 2841 2882 2919 2843 2798 2844 2884
8 2921 2885 2846 2886 2889 2849 2807 2850
8 2922 2886 2847 2887 2890 2850 2808 2851
8 2889 2849 2812 2853 2924 2888 2854 2892
8 2890 2850 2811 2852 2925 2889 2853 2891
8 2891 2853 2814 2855 2926 2892 2856 2894
8 2892 2854 2815 2856 2927 2893 2857 2895
8 2858 2817 2859 2897 2894 2856 2895 2929
8 2859 2818 2860 2898 2895 2857 2896 2930
8 2861 2820 2862 2900 2897 2859 2898 2932
8 2862 2821 2863 2901 2898 2860 2899 2933
8 2864 2823 2865 2902 2900 2862 2901 2934
8 2904 2867 2846 2886 2936 2903 2885 2921
8 2904 2867 2903 2936 2869 2828 2868 2906
8 2937 2904 2869 2907 2922 2886 2847 2887
8 2906 2868 2905 2939 2871 2829 2870 2909
8 2907 2869 2906 2940 2872 2830 2871 2910
8 2909 2870 2908 2942 2874 2831 2873 2912
8 2910 2871 2909 2943 2875 2832 2874 2913
8 2912 2873 2911 2945 2877 2834 2876 2915
8 2878 2835 2874 2913 2916 2877 2912 2946
8 2915 2876 2914 2947 2880 2837 2879 2917
8 2916 2877 2915 2948 2881 2838 2880 2918
8 2918 2880 2917 2949 2883 2841 2882 2919
8 2921 2885 2849 2889 2951 2920 2888 2924
8 2952 2921 2886 2922 2925 2889 2850 2890
8 2924 2888 2854 2892 2954 2923 2893 2927
8 2925 2889 2853 2891 2955 2924 2892 2926
8 2926 2892 2856 2894 2956 2927 2895 2929
8 2895 2857 2896 2930 2927 2893 2928 2957
8 2897 2859 2898 2932 2929 2895 2930 2959
8 2898 2860 2899 2933 2930 2896 2931 2960
8 2900 2862 2901 2934 2932 2898 2933 2961
8 2936 2903 2885 2921 2963 2935 2920 2951
8 2936 2903 2935 2963 2906 2868 2905 2939
8 2937 2904 2886 2922 2964 2936 2921 2952
8 2937 2904 2936 2964 2907 2869 2906 2940
8 2939 2905 2938 2966 2909 2870 2908 2942
8 2940 2906 2939 2967 2910 2871 2909 2943
8 2942 2908 2941 2969 2912 2873 2911 2945
8 2943 2909 2942 2970 2913 2874 2912 2946
8 2945 2911 2944 2971 2915 2876 2914 2947
8 2946 2912 2945 2972 2916 2877 2915 2948
8 2948 2915 2947 2973 2918 2880 2917 2949
8 2951 2920 2888 2924 2975 2950 2923 2954
8 2952 2921 2889 2925 2976 2951 2924 2955
8 2927 2893 2928 2957 2954 2923 2953 2978
8 2955 2924 2892 2926 2979 2954 2927 2956
8 2929 2895 2930 2959 2956 2927 2957 2980
8 2930 2896 2931 2960 2957 2928 2958 2981
8 2932 2898 2933 2961 2959 2930 2960 2982
8 2951 2920 2950 2975 2963 2935 2962 2984
8 2963 2935 2962 2984 2939 2905 2938 2966
8 2964 2936 2921 2952 2985 2963 2951 2976
8 2964 2936 2963 2985 2940 2906 2939 2967
8 2966 2938 2965 2987 2942 2908 2941 2969
8 2967 2939 2966 2988 2943 2909 2942 2970
8 2969 2941 2968 2989 2945 2911 2944 2971
8 2970 2942 2969 2990 2946 2912 2945 2972
8 2972 2945 2971 2991 2948 2915 2947 2973
8 2954 2923 2953 2978 2975 2950 2974 2993
8 2976 2951 2924 2955 2994 2975 2954 2979
8 2957 2928 2958 2981 2978 2953 2977 2995
8 2956 2927 2957 2980 2979 2954 2978 2996
8 2959 2930 2960 2982 2980 2957 2981 2997
8 2984 2962 2983 2999 2966 2938 2965 2987
8 2975 2950 2974 2993 2984 2962 2983 2999
8 2976 2951 2975 2994 2985 2963 2984 3000
8 2985 2963 2984 3000 2967 2939 2966 2988
8 2987 2965 2986 3001 2969 2941 2968 2989
8 2988 2966 2987 3002 2970 2942 2969 2990
8 2990 2969 2989 3003 2972 2945 2971 2991
8 2978 2953 2977 2995 2993 2974 2992 3004
8 2979 2954 2978 2996 2994 2975 2993 3005
8 2980 2957 2981 2997 2996 2978 2995 3006
8 2974 2993 2999 2983 2992 3004 3007 2998
8 2983 2999 2987 2965 2998 3007 3001 2986
8 3000 2984 2999 3008 2988 2966 2987 3002
8 2994 2975 2993 3005 3000 2984 2999 3008
8 3002 2987 3001 3009 2990 2969 2989 3003
8 2996 2978 2995 3006 3005 2993 3004 3010
8 3005 2993 3004 3010 3008 2999 3007 3011
8 3008 2999 3007 3011 3002 2987 3001 3009

CELL_TYPES 1910
12
12
12
12
12
12
12
12
12
12
12
12
12
12
12
12
12
12
12
12
12
12
12
12
12
12
12
12
12
12
12
12
12
12
12
12
12
12
12
12
12
12
12
12
12
12
12
12
12
12
12
12
12
12
12
12
12
12
12
12
12
12
12
12
12
12
12
12
12
12
12
12
12
12
12
12
12
12
12
12
12
12
12
12
12
12
12
12
12
12
12
12
12
12
12
12
12
12
12
12
12
12
12
12
12
12
12
12
12
12
12
12
12
12
12
12
12
12
12
12
12
12
12
12
12
12
12
12
12
12
12
12
12
12
12
12
12
12
12
12
12
12
12
12
12
12
12
12
12
12
12
12
12
12
12
12
12
12
12
12
12
12
12
12
12
12
12
12
12
12
12
12
12
12
12
12
12
12
12
12
12
12
12
12
12
12
12
12
12
12
12
12
12
12
12
12
12
12
12
12
12
12
12
12
12
12
12
12
12
12
12
12
12
12
12
12
12
12
12
12
12
12
12
12
12
12
12
12
12
12
12
12
12
12
12
12
12
12
12
12
12
12
12
12
12
12
12
12
12
12
12
12
12
12
12
12
12
12
12
12
12
12
12
12
12
12
12
12
12
12
12
12
12
12
12
12
12
12
12
12
12
12
12
12
12
12
12
12
12
12
12
12
12
12
12
12
12
12
12
12
12
12
12
12
12
12
12
12
12
12
12
12
12
12
12
12
12
12
12
12
12
12
12
12
12
12
12
12
12
12
12
12
12
12
12
12
12
12
12
12
12
12
12
12
12
12
12
12
12
12
12
12
12
12
12
12
12
12
12
12
12
12
12
12
12
12
12
12
12
12
12
12
12
12
12
12
12
12
12
12
12
12
12
12
12
12
12
12
12
12
12
12
12
12
12
12
12
12
12
12
12
12
12
12
12
12
12
12
12
12
12
12
12
12
12
12
12
12
12
12
12
12
12
12
12
12
12
12
12
12
12
12
12
12
12
12
12
12
12
12
12
12
12
12
12
12
12
12
12
12
12
12
12
12
12
12
12
12
12
12
12
12
12
12
12
12
12
12
12
12
12
12
12
12
12
12
12
12
12
12
12
12
12
12
12
12
12
12
12
12
12
12
12
12
12
12
12
12
12
12
12
12
12
12
12
12
12
12
12
12
12
12
12
12
12
12
12
12
12
12
12
12
12
12
12
12
12
12
12
12
12
12
12
12
12
12
12
12
12
12
12
12
12
12
12
12
12
12
12
12
12
12
12
12
12
12
12
12
12
12
12
12
12
12
12
12
12
12
12
12
12
12
12
12
12
12
12
12
12
12
12
12
12
12
12
12
12
12
12
12
12
12
12
12
12
12
12
12
12
12
12
12
12
12
12
12
12
12
12
12
12
12
12
12
12
12
12
12
12
12
12
12
12
12
12
12
12
12
12
12
12
12
12
12
12
12
12
12
12
12
12
12
12
12
12
12
12
12
12
12
12
12
12
12
12
12
12
12
12
12
12
12
12
12
12
12
12
12
12
12
12
12
12
12
12
12
12
12
12
12
12
12
12
12
12
12
12
12
12
12
12
12
12
12
12
12
12
12
12
12
12
12
12
12
12
12
12
12
12
12
12
12
12
12
12
12
12
12
12
12
12
12
12
12
12
12
12
12
12
12
12
12
12
12
12
12
12
12
12
12
12
12
12
12
12
12
12
12
12
12
12
12
12
12
12
12
12
12
12
12
12
12
12
12
12
12
12
12
12
12
12
12
12
12
12
12
12
12
12
12
12
12
12
12
12
12
12
12
12
12
12
12
12
12
12
12
12
12
12
12
12
12
12
12
12
12
12
12
12
12
12
12
12
12
12
12
12
12
12
12
12
12
12
12
12
12
12
12
12
12
12
12
12
12
12
12
12
12
12
12
12
12
12
12
12
12
12
12
12
12
12
12
12
12
12
12
12
12
12
12
12
12
12
12
12
12
12
12
12
12
12
12
12
12
12
12
12
12
12
12
12
12
12
12
12
12
12
12
12
12
12
12
12
12
12
12
12
12
12
12
12
12
12
12
12
12
12
12
12
12
12
12
12
12
12
12
12
12
12
12
12
12
12
12
12
12
12
12
12
12
12
12
12
12
12
12
12
12
12
12
12
12
12
12
12
12
12
12
12
12
12
12
12
12
12
12
12
12
12
12
12
12
12
12
12
12
12
12
12
12
12
12
12
12
12
12
12
12
12
12
12
12
12
12
12
12
12
12
12
12
12
12
12
12
12
12
12
12
12
12
12
12
12
12
12
12
12
12
12
12
12
12
12
12
12
12
12
12
12
12
12
12
12
12
12
12
12
12
12
12
12
12
12
12
12
12
12
12
12
12
12
12
12
12
12
12
12
12
12
12
12
12
12
12
12
12
12
12
12
12
12
12
12
12
12
12
12
12
12
12
12
12
12
12
12
12
12
12
12
12
12
12
12
12
12
12
12
12
12
12
12
12
12
12
12
12
12
12
12
12
12
12
12
12
12
12
12
12
12
12
12
12
12
12
12
12
12
12
12
12
12
12
12
12
12
12
12
12
12
12
12
12
12
12
12
12
12
12
12
12
12
12
12
12
12
12
12
12
12
12
12
12
12
12
12
12
12
12
12
12
12
12
12
12
12
12
12
12
12
12
12
12
12
12
12
12
12
12
12
12
12
12
12
12
12
12
12
12
12
12
12
12
12
12
12
12
12
12
12
12
12
12
12
12
12
12
12
12
12
12
12
12
12
12
12
12
12
12
12
12
12
12
12
12
12
12
12
12
12
12
12
12
12
12
12
12
12
12
12
12
12
12
12
12
12
12
12
12
12
12
12
12
12
12
12
12
12
12
12
12
12
12
12
12
12
12
12
12
12
12
12
12
12
12
12
12
12
12
12
12
12
12
12
12
12
12
12
12
12
12
12
12
12
12
12
12
12
12
12
12
12
12
12
12
12
12
12
12
12
12
12
12
12
12
12
12
12
12
12
12
12
12
12
12
12
12
12
12
12
12
12
12
12
12
12
12
12
12
12
12
12
12
12
12
12
12
12
12
12
12
12
12
12
12
12
12
12
12
12
12
12
12
12
12
12
12
12
12
12
12
12
12
12
12
12
12
12
12
12
12
12
12
12
12
12
12
12
12
12
12
12
12
12
12
12
12
12
12
12
12
12
12
12
12
12
12
12
12
12
12
12
12
12
12
12
12
12
12
12
12
12
12
12
12
12
12
12
12
12
12
12
12
12
12
12
12
12
12
12
12
12
12
12
12
12
12
12
12
12
12
12
12
12
12
12
12
12
12
12
12
12
12
12
12
12
12
12
12
12
12
12
12
12
12
12
12
12
12
12
12
12
12
12
12
12
12
12
12
12
12
12
12
12
12
12
12
12
12
12
12
12
12
12
12
12
12
12
12
12
12
12
12
12
12
12
12
12
12
12
12
12
12
12
12
12
12
12
12
12
12
12
12
12
12
12
12
12
12
12
12
12
12
12
12
12
12
12
12
12
12
12
12
12
12
12
12
12
12
12
12
12
12
12
12
12
12
12
12
12
12
12
12
12
12
12
12
12
12
12
12
12
12
12
12
12
12
12
12
12
12
12
12
12
12
12
12
12
12
12
12
12
12
12
12
12
12
12
12
12
12
12
12
12
12
12
12
12
12
12
12
12
12
12
12
12
12
12
12
12
12
12
12
12
12
12
12
12
12
12
12
12
12
12
12
12
12
12
12
12
12
12
12
12
12
12
12
12
12
12
12
12
12
12
12
12
12
12
12
12
12
12
12
12
12
12
12
12
12
12
12
12
12
12
12
12
12
12
12
12
12
12
12
12
12
12
12
12
12
12
12
12
12
12
12
12
12
12
12
12
12
12
12
12
12
12
12
12
12
12
12
12
12
12
12
12
12
12
12
12
12
12
12
12
12
12
12
12
12
12
12
12
12
12
12
12
12
12
12
12
12
12
12
12
12
12
12
12
12
12
12
12
12
12
12
12
12
12
12
12
12
12
12
12
12
12
12
12
12
12
12
12
12
12
12
12
12
12
12
12
12
12
12
12
12
12
12
12
12
12
12
12
12
12
12
12
12
12
12
12
12
12
12
12
12
12
12
12
12
12
12
12
12
12
12
12
12
12
12
12
12
12
12
12
12
12
12
12
12
12
12
12
12
12
12
12
12
12
12
12
12
12
12
12
12
12
12
12
12
12
12
12
12
12
12
12
12
12
12
12
12
12
12
12
12
12
12
12
12
12
12
12
12
12
12
12
12
12
12
12
12
12
12
12
12
12
12
12
12
12
12
12
12
12
12
12
12
12
12
12
12

POINT_DATA 3012
SCALARS Jp_lamdaP float 4
LOOKUP_TABLE default
0.999991 1 1 0.999991
1 1 1 1
0.999992 1 1 0.999992
0.999969 1 1 0.999969
0.999985 1 1 0.999985
0.999996 1 1 0.999996
0.99981 1 1 0.99981
1 1 1 1
1 1 1 1
1 1 1 1
1 1 1 1
0.999925 1 1 0.999925
0.999942 1 1 0.999942
0.999968 1 1 0.999968
0.999993 1 1 0.999993
0.999972 1 1 0.999972
0.999997 1 1 0.999997
0.999987 1 1 0.999987
0.999812 1 1 0.999812
1 1 1 1
0.999964 1 1 0.999964
0.999977 1 1 0.999977
0.999703 1 1 0.999703
0.999775 1 1 0.999775
1 1 1 1
0.999849 1 1 0.999849
0.9995 1 1 0.9995
1 1 1 1
0.99999 1 1 0.99999
0.999998 1 1 0.999998
1 1 1 1
0.999931 1 1 0.999931
0.999976 1 1 0.999976
0.999992 1 1 0.999992
0.999837 1 1 0.999837
1 1 1 1
0.999904 1 1 0.999904
0.999951 1 1 0.999951
0.999571 1 1 0.999571
1 1 1 1
1 1 1 1
0.999982 1 1 0.999982
1 1 1 1
0.999959 1 1 0.999959
0.999676 1 1 0.999676
1 1 1 1
0.999777 1 1 0.999777
0.999975 1 1 0.999975
0.999989 1 1 0.999989
0.999998 1 1 0.999998
0.999815 1 1 0.999815
0.999972 1 1 0.999972
0.999967 1 1 0.999967
1 1 1 1
0.99998 1 1 0.99998
0.999704 1 1 0.999704
0.999851 1 1 0.999851
0.999778 1 1 0.999778
0.999489 1 1 0.999489
1 1 1 1
0.999955 1 1 0.999955
0.999728 1 1 0.999728
0.999686 1 1 0.999686
0.999737 1 1 0.999737
0.99925 1 1 0.99925
0.999384 1 1 0.999384
1 1 1 1
0.9999 1 1 0.9999
0.999586 1 1 0.999586
0.999144 1 1 0.999144
1 1 1 1
1 1 1 1
1 1 1 1
0.999938 1 1 0.999938
1 1 1 1
1 1 1 1
0.999834 1 1 0.999834
1 1 1 1
0.999907 1 1 0.999907
0.999961 1 1 0.999961
0.999569 1 1 0.999569
1 1 1 1
1 1 1 1
0.999794 1 1 0.999794
0.999865 1 1 0.999865
0.999319 1 1 0.999319
0.999982 1 1 0.999982
0.999525 1 1 0.999525
0.999616 1 1 0.999616
0.999325 1 1 0.999325
1 1 1 1
1 1 1 1
1 1 1 1
1 1 1 1
1 1 1 1
0.999976 1 1 0.999976
0.999702 1 1 0.999702
0.999985 1 1 0.999985
0.999772 1 1 0.999772
1 1 1 1
0.999645 1 1 0.999645
0.99975 1 1 0.99975
0.99903 1 1 0.99903
0.999795 1 1 0.999795
0.999126 1 1 0.999126
0.99995 1 1 0.99995
0.99997 1 1 0.99997
1 1 1 1
0.999983 1 1 0.999983
0.999706 1 1 0.999706
0.999781 1 1 0.999781
0.999853 1 1 0.999853
0.999477 1 1 0.999477
1 1 1 1
0.99996 1 1 0.99996
0.999665 1 1 0.999665
0.999686 1 1 0.999686
1 1 1 1
0.999923 1 1 0.999923
0.99974 1 1 0.99974
0.999229 1 1 0.999229
0.999573 1 1 0.999573
0.999398 1 1 0.999398
0.999145 1 1 0.999145
0.999661 1 1 0.999661
0.999672 1 1 0.999672
0.9991 1 1 0.9991
0.999181 1 1 0.999181
0.999286 1 1 0.999286
0.99891 1 1 0.99891
1 1 1 1
0.999072 1 1 0.999072
0.999977 1 1 0.999977
0.999617 1 1 0.999617
0.999217 1 1 0.999217
0.998996 1 1 0.998996
0.999999 1 1 0.999999
0.999771 1 1 0.999771
1 1 1 1
1 1 1 1
0.99984 1 1 0.99984
1 1 1 1
0.999971 1 1 0.999971
0.999911 1 1 0.999911
0.999568 1 1 0.999568
1 1 1 1
1 1 1 1
0.999807 1 1 0.999807
0.999876 1 1 0.999876
0.999321 1 1 0.999321
0.999988 1 1 0.999988
0.999526 1 1 0.999526
0.999615 1 1 0.999615
0.999317 1 1 0.999317
0.999997 1 1 0.999997
1 1 1 1
0.999808 1 1 0.999808
0.999226 1 1 0.999226
0.999435 1 1 0.999435
0.999022 1 1 0.999022
0.999677 1 1 0.999677
0.999271 1 1 0.999271
0.999355 1 1 0.999355
0.999221 1 1 0.999221
1 1 1 1
1 1 1 1
1 1 1 1
1 1 1 1
1 1 1 1
1 1 1 1
1 1 1 1
0.999765 1 1 0.999765
0.999691 1 1 0.999691
1 1 1 1
1 1 1 1
0.999647 1 1 0.999647
0.999745 1 1 0.999745
0.999031 1 1 0.999031
0.999782 1 1 0.999782
0.999126 1 1 0.999126
0.999635 1 1 0.999635
0.998974 1 1 0.998974
0.999086 1 1 0.999086
0.998745 1 1 0.998745
0.999166 1 1 0.999166
0.998848 1 1 0.998848
1 1 1 1
0.999965 1 1 0.999965
0.9996 1 1 0.9996
0.999687 1 1 0.999687
1 1 1 1
0.999945 1 1 0.999945
0.999743 1 1 0.999743
0.999208 1 1 0.999208
0.999412 1 1 0.999412
0.999559 1 1 0.999559
0.999147 1 1 0.999147
0.999658 1 1 0.999658
0.999673 1 1 0.999673
0.999057 1 1 0.999057
0.999197 1 1 0.999197
1 1 1 1
0.999971 1 1 0.999971
0.999635 1 1 0.999635
0.999288 1 1 0.999288
0.998884 1 1 0.998884
0.999213 1 1 0.999213
0.999084 1 1 0.999084
0.998998 1 1 0.998998
0.999997 1 1 0.999997
0.999771 1 1 0.999771
0.998986 1 1 0.998986
0.999154 1 1 0.999154
0.9988 1 1 0.9988
0.99882 1 1 0.99882
0.998999 1 1 0.998999
0.998787 1 1 0.998787
0.999992 1 1 0.999992
0.99893 1 1 0.99893
0.999656 1 1 0.999656
0.999314 1 1 0.999314
0.999069 1 1 0.999069
0.998947 1 1 0.998947
0.999709 1 1 0.999709
0.999846 1 1 0.999846
0.999476 1 1 0.999476
0.999805 1 1 0.999805
1 1 1 1
1 1 1 1
0.999882 1 1 0.999882
0.999323 1 1 0.999323
0.999993 1 1 0.999993
0.999615 1 1 0.999615
0.999528 1 1 0.999528
0.999308 1 1 0.999308
0.999999 1 1 0.999999
1 1 1 1
0.999808 1 1 0.999808
0.999226 1 1 0.999226
0.999438 1 1 0.999438
0.999022 1 1 0.999022
0.999677 1 1 0.999677
0.999279 1 1 0.999279
0.999353 1 1 0.999353
0.999211 1 1 0.999211
1 1 1 1
0.999738 1 1 0.999738
0.999878 1 1 0.999878
0.999529 1 1 0.999529
0.998931 1 1 0.998931
0.999164 1 1 0.999164
0.998951 1.00008 1 0.998874
0.999419 1 1 0.999419
0.999167 1 1 0.999167
0.999387 1 1.0002 0.999189
0.999133 1 1 0.999133
0.999975 1 1 0.999975
1 1 1 1
1 1 1 1
1 1 1 1
1 1 1 1
1 1 1 1
1 1 1 1
1 1 1 1
1 1 1 1
0.999784 1 1 0.999784
0.999735 1 1 0.999735
0.999126 1 1 0.999126
0.999031 1 1 0.999031
0.999649 1 1 0.999649
1 1 1 1
0.999634 1 1 0.999634
0.998974 1 1 0.998974
0.999086 1 1 0.999086
0.998745 1 1 0.998745
0.999166 1 1 0.999166
0.998848 1 1 0.998848
0.99896 1 1 0.99896
0.998691 1 1 0.998687
0.998803 1 1 0.998803
0.999666 1.001 1 0.998667
0.998886 1 1 0.998886
0.998903 1.00015 1 0.998755
0.999655 1 1 0.999655
0.999673 1 1 0.999673
0.999014 1 1 0.999014
0.999213 1 1 0.999213
1 1 1 1
0.999964 1 1 0.999964
0.999653 1 1 0.999653
0.999289 1 1 0.999289
0.998859 1 1 0.998859
0.999096 1 1 0.999096
0.99921 1 1 0.99921
0.999 1 1 0.999
0.999996 1 1 0.999996
0.999771 1 1 0.999771
0.998971 1 1 0.998971
0.999154 1 1 0.999154
0.998789 1 1 0.998789
0.998846 1 1 0.998846
0.999988 1 1 0.999988
0.999656 1 1 0.999656
0.999333 1 1 0.999333
0.998999 1 1 0.998999
0.998781 1 1 0.998781
0.999049 1 1 0.999049
0.998931 1 1 0.998931
0.998947 1 1 0.998947
0.99971 1 1 0.99971
0.999473 1 1 0.999473
0.999845 1 1 0.999845
0.998747 1 1 0.998745
0.998826 1 1 0.998826
0.999294 1.00063 1 0.998661
0.998751 1.00003 1 0.998725
0.998856 1 1 0.998856
0.999082 1.0003 1 0.998783
0.999678 1 1 0.999678
0.998996 1.0001 1 0.998898
0.999425 1 1 0.999425
0.999142 1 1 0.999142
0.998944 1 1 0.998944
0.998989 1 1 0.998989
0.999903 1 1 0.999903
0.999465 1 1 0.999465
0.999507 1 1 0.999507
0.999365 1 1 0.999365
0.999227 1 1 0.999227
1 1 1 1
1 1 1 1
0.999809 1 1 0.999809
0.999442 1 1 0.999442
0.999022 1 1 0.999022
0.999678 1 1 0.999678
0.999352 1 1 0.999352
0.999288 1 1 0.999288
0.999201 1 1 0.999201
1 1 1 1
0.999738 1 1 0.999738
0.999881 1 1 0.999881
0.999527 1 1 0.999527
0.99893 1 1 0.99893
0.999166 1 1 0.999166
0.998926 1.00005 1 0.998874
0.99942 1 1 0.99942
0.999177 1 1 0.999177
0.99926 1 1.00008 0.999184
0.999167 1 1 0.999167
1 1 1 1
0.999924 1 1 0.999924
0.999478 1 1 0.999478
0.999593 1 1 0.999593
0.99937 1 1 0.99937
0.998902 1.0001 1 0.998802
0.999029 1 1 0.999029
0.99892 1.0001 1 0.998821
0.999364 1 1.00013 0.999237
0.999106 1 1 0.999106
0.999246 1 1.00023 0.999018
0.999964 1 1 0.999964
0.999775 1 1 0.999775
0.999983 1 1 0.999983
0.999977 1 1 0.999977
1 1 1 1
1 1 1 1
1 1 1 1
1 1 1 1
1 1 1 1
1 1 1 1
1 1 1 1
1 1 1 1
1 1 1 1
1 1 1 1
1 1 1 1
0.999167 1 1 0.999167
0.999086 1 1 0.999086
0.998849 1 1 0.998849
0.998744 1 1 0.998744
0.998975 1 1 0.998975
0.999633 1 1 0.999633
0.998959 1 1 0.998959
0.998694 1.00001 1 0.998688
0.998803 1 1 0.998803
0.999568 1.00091 1 0.998662
0.998885 1 1 0.998885
0.998834 1.00008 1 0.998755
0.998678 1.00001 1 0.998672
1.0012 1.00259 1 0.998611
0.999236 1.00053 1 0.998709
1.00255 1.0039 1 0.998658
0.998809 1.00003 1 0.998784
1.00008 1.00129 1 0.998786
0.998957 1 1 0.998957
0.999153 1 1 0.999153
0.998778 1 1 0.998778
0.998873 1 1 0.998873
0.999984 1 1 0.999984
0.999656 1 1 0.999656
0.999352 1 1 0.999352
0.998999 1 1 0.998999
0.998775 1 1 0.998775
0.998931 1 1 0.998931
0.999028 1 1 0.999028
0.998947 1 1 0.998947
0.999711 1 1 0.999711
0.99947 1 1 0.99947
0.999843 1 1 0.999843
0.998725 1 1 0.998722
0.998826 1 1 0.998826
0.999489 1.00084 1 0.998651
0.99883 1.0001 1 0.998729
0.999679 1 1 0.999679
0.999422 1 1 0.999422
0.999165 1 1 0.999165
0.998866 1 1 0.998866
0.999137 1.00035 1 0.998789
0.998929 1 1 0.998929
0.999074 1.00018 1 0.998898
0.998997 1 1 0.998997
0.999467 1 1 0.999467
0.999352 1 1 0.999352
0.9999 1 1 0.9999
0.999517 1 1 0.999517
0.999957 1.00135 1 0.998606
0.999069 1.00038 1 0.998692
1.00208 1.00347 1 0.998611
0.999352 1.00064 1 0.998711
0.999403 1.00056 1 0.998844
1.00037 1.00157 1 0.998809
0.99946 1 1 0.99946
0.999425 1.00045 1 0.998978
0.999276 1 1 0.999276
0.998999 1 1 0.998999
0.998865 1 1 0.998865
0.999047 1.00005 1 0.998994
0.999932 1 1 0.999932
0.999577 1 1 0.999577
0.999361 1 1 0.999361
0.999373 1 1 0.999373
0.99931 1 1 0.99931
1 1 1 1
0.998928 1 1 0.998928
0.999884 1 1 0.999884
0.999737 1 1 0.999737
0.999525 1 1 0.999525
0.999168 1 1 0.999168
0.998899 1.00003 1 0.998874
0.999421 1 1 0.999421
0.999181 1 1 0.999178
0.999188 1 1 0.999188
0.999201 1 1 0.999201
1 1 1 1
0.999928 1 1 0.999928
0.999478 1 1 0.999478
0.999593 1 1 0.999593
0.999361 1 1 0.999361
0.998938 1.00014 1 0.9988
0.99903 1 1 0.99903
0.998936 1.00012 1 0.998817
0.999339 1 1.0001 0.999239
0.999114 1 1 0.999114
0.999398 1 1.00037 0.999033
0.999948 1 1 0.999948
0.999659 1 1 0.999659
0.999306 1 1 0.999306
0.999418 1 1 0.999418
0.999276 1 1 0.999276
0.999302 1.00053 1 0.998771
0.998973 1 1 0.998969
0.999052 1.00016 1 0.998897
1.00042 1 1.00135 0.999072
0.99894 1 1 0.99894
0.999967 1 1 0.999967
0.999721 1 1 0.999721
0.999761 1 1 0.999761
0.999627 1 1 0.999627
0.999784 1 1 0.999784
0.999987 1 1 0.999987
0.999984 1 1 0.999984
1 1 1 1
0.99998 1 1 0.99998
1 1 1 1
1 1 1 1
1 1 1 1
1 1 1 1
1 1 1 1
1 1 1 1
1 1 1 1
1 1 1 1
1 1 1 1
1 1 1 1
1 1 1 1
0.998884 1 1 0.998884
0.998803 1 1 0.998803
0.998765 1.00001 1 0.998756
0.999459 1.0008 1 0.998657
0.998697 1.00001 1 0.998688
0.998959 1 1 0.998959
0.99868 1.00001 1 0.998672
1.00121 1.0026 1 0.998604
0.999099 1.00039 1 0.998709
1.00251 1.00385 1 0.998659
0.998868 1.00009 1 0.998782
0.999882 1.0011 1 0.998786
1.00093 1.00235 1 0.998581
1.00526 1.00667 1 0.9986
1.00149 1.00278 1 0.998713
1.00462 1.00597 1 0.998663
0.999734 1.00095 1 0.998789
1.00214 1.00332 1 0.99882
0.998702 1 1 0.9987
0.998826 1 1 0.998826
0.999678 1.00104 1 0.998641
0.998901 1.00017 1 0.998734
0.99968 1 1 0.99968
0.99942 1 1 0.99942
0.999187 1 1 0.999187
0.998875 1 1 0.998875
0.999183 1.00039 1 0.998796
0.999163 1.00027 1 0.998898
0.998914 1 1 0.998914
0.999005 1 1 0.999005
0.999469 1 1 0.999469
0.999339 1 1 0.999339
0.999898 1 1 0.999898
0.999527 1 1 0.999527
1.00029 1.00168 1 0.998607
0.999122 1.00043 1 0.998694
1.00166 1.00305 1 0.998614
0.999293 1.00058 1 0.998712
0.999459 1 1 0.999459
0.999294 1 1 0.999294
0.999002 1 1 0.998997
0.999425 1.00059 1 0.99884
1.00035 1.00151 1 0.998838
0.998856 1 1 0.998856
0.999667 1.00069 1 0.998979
0.999045 1.00002 1 0.999022
0.999361 1 1 0.999361
0.999307 1 1 0.999307
0.99937 1 1 0.99937
0.999911 1 1 0.999911
0.999586 1 1 0.999586
1.00438 1.00581 1 0.998576
1.002 1.00338 1 0.998616
1.00131 1.00257 1 0.99874
1.00093 1.00204 1 0.998892
0.99936 1 1 0.99936
1.00081 1.00177 1 0.999042
0.999171 1 1 0.999171
0.999015 1 1.0002 0.998816
0.998829 1.00003 1 0.998794
0.999914 1 1 0.999914
0.999672 1 1 0.999672
0.99944 1 1 0.99944
0.999329 1 1 0.999329
0.999267 1 1 0.999267
0.999271 1 1 0.999271
1 1 1 1
0.999932 1 1 0.999932
0.998976 1.00018 1 0.998797
0.999593 1 1 0.999593
0.999478 1 1 0.999478
0.999351 1 1 0.999351
0.999031 1 1 0.999031
0.998953 1.00014 1 0.998812
0.999267 1 1.00003 0.999241
0.999402 1 1.00036 0.999047
0.999122 1 1 0.999122
0.999952 1 1 0.999952
0.999659 1 1 0.999659
0.999315 1 1 0.999315
0.999417 1 1 0.999417
0.999264 1 1 0.999264
0.999269 1.0005 1 0.998769
0.998967 1 1 0.998964
0.99907 1.00016 1 0.99891
1.00003 1 1.00096 0.999064
0.998944 1 1.00003 0.998913
0.99971 1 1 0.99971
0.999453 1 1 0.999453
0.999855 1 1.00067 0.999185
0.99927 1 1 0.99927
0.999191 1 1 0.999191
1.00161 1.00267 1 0.99894
0.99888 1.00001 1 0.998871
1.00003 1.00113 1 0.998906
1.00135 1 1.00238 0.998968
0.998734 1 1 0.998734
0.99997 1 1 0.99997
0.999732 1 1 0.999732
0.999549 1 1 0.999549
0.999746 1 1 0.999746
0.999784 1 1 0.999784
0.999606 1 1 0.999606
0.999497 1 1 0.999497
0.999602 1 1 0.999602
0.999793 1 1 0.999793
0.999988 1 1 0.999988
0.999988 1 1 0.999988
1 1 1 1
0.999986 1 1 0.999986
1 1 1 1
1 1 1 1
1 1 1 1
1 1 1 1
1 1 1 1
1 1 1 1
1 1 1 1
1 1 1 1
1 1 1 1
1 1 1 1
1 1 1 1
0.998929 1.00015 1 0.99878
0.998972 1.00026 1 0.998709
0.999697 1.00091 1 0.998786
1.00246 1.00381 1 0.99866
1.00121 1.00262 1 0.998596
0.998683 1.00001 1 0.998673
1.00106 1.00249 1 0.998578
1.00513 1.00654 1 0.998601
1.00158 1.00288 1 0.998704
1.00487 1.00622 1 0.998659
0.999514 1.00073 1 0.998789
1.0019 1.00307 1 0.998838
1.0057 1.00714 1 0.998571
1.00646 1.00784 1 0.998632
1.00505 1.00633 1 0.99873
1.00238 1.00349 1 0.998897
1.00061 1.002 1 0.998607
0.999181 1.00049 1 0.998695
1.00128 1.00266 1 0.998617
0.999242 1.00053 1 0.998714
0.999459 1 1 0.999459
0.999312 1 1 0.999312
0.999104 1 1.00011 0.998995
0.999442 1.00061 1 0.998835
1.00037 1.0015 1 0.998867
0.99993 1.00095 1 0.99898
0.998848 1 1 0.998848
0.999051 1 1 0.999051
0.999362 1 1 0.999362
0.999303 1 1 0.999303
0.999368 1 1 0.999368
0.999889 1 1 0.999889
0.999595 1 1 0.999595
1.00401 1.00544 1 0.998579
1.0021 1.00349 1 0.998623
1.00128 1.00254 1 0.998748
0.999359 1 1 0.999359
0.999198 1 1.00001 0.999193
0.999226 1 1.00042 0.998811
1.00112 1.00224 1 0.998883
0.998849 1.00002 1 0.99883
1.00046 1.00142 1 0.999044
0.999915 1 1 0.999915
0.999327 1 1 0.999327
0.999281 1 1 0.999281
0.999264 1 1 0.999264
0.999447 1 1 0.999447
0.999656 1 1 0.999656
1.0057 1.00713 1 0.998585
1.0041 1.00547 1 0.998634
1.00314 1.00436 1 0.998793
1.00322 1.00426 1 0.998969
0.999301 1 1 0.999301
0.999665 1.00079 1 0.998877
0.99939 1 1.00043 0.998959
0.999613 1 1.00093 0.998683
0.999936 1 1 0.999936
0.99972 1 1 0.99972
0.999503 1 1 0.999503
0.999283 1 1 0.999283
0.999276 1 1 0.999276
0.999217 1 1 0.999217
0.999956 1 1 0.999956
0.99966 1 1 0.99966
0.999237 1.00047 1 0.998767
0.999416 1 1 0.999416
0.999323 1 1 0.999323
0.999252 1 1 0.999252
0.99896 1 1 0.99896
0.99909 1.00017 1 0.998923
0.999699 1 1.00064 0.999056
0.999028 1 1.00014 0.998887
0.99971 1 1 0.99971
0.99946 1 1 0.99946
0.999599 1 1.0004 0.9992
0.999276 1 1 0.999276
0.999197 1 1 0.999197
1.0016 1.00266 1 0.998942
0.998876 1 1 0.998874
0.999695 1.00072 1 0.99898
1.00148 1 1.00253 0.998958
0.998726 1 1.00003 0.998697
0.999513 1 1 0.999513
0.999295 1 1 0.999295
1.00111 1 1.00202 0.99909
0.999136 1 1 0.999136
1.00741 1.00847 1 0.998952
1.00423 1.00535 0.999872 0.999013
0.999351 1.00065 1 0.998701
1.00209 1 1.00338 0.998715
0.999743 1 1 0.999743
0.999559 1 1 0.999559
0.999444 1 1 0.999444
0.999784 1 1 0.999784
0.999585 1 1 0.999585
0.999793 1 1 0.999793
0.999481 1 1 0.999481
0.999609 1 1 0.999609
0.99939 1 1 0.99939
0.999482 1 1 0.999482
0.999611 1 1 0.999611
0.999795 1 1 0.999795
0.999986 1 1 0.999986
0.999988 1 1 0.999988
1 1 1 1
0.999988 1 1 0.999988
1 1 1 1
1 1 1 1
1 1 1 1
1 1 1 1
1 1 1 1
1 1 1 1
1 1 1 1
1 1 1 1
1 1 1 1
1 1 1 1
1 1 1 1
0.999289 1.0005 1 0.99879
1.00167 1.00298 1 0.998695
1.00166 1.00281 1 0.998855
1.00512 1.00647 1 0.998655
1.00501 1.00641 1 0.998602
1.00121 1.00264 1 0.998574
1.00542 1.00685 1 0.998577
1.00632 1.0077 1 0.998631
1.00497 1.00624 1 0.998736
1.00289 1.00401 1 0.998892
1.00738 1.00879 1 0.998605
1.00766 1.00896 1 0.998707
1.00626 1.00745 1 0.998822
1.00364 1.00506 1 0.998583
1.00222 1.0036 1 0.998629
1.00123 1.00247 1 0.998757
0.999357 1 1 0.999357
0.999214 1 1 0.999214
0.99934 1 1.00053 0.998807
1.00127 1.00239 1 0.998874
1.00013 1.00108 1 0.999045
0.998865 1 1 0.998865
0.999326 1 1 0.999326
0.999291 1 1 0.999291
0.999261 1 1 0.999261
0.999917 1 1 0.999917
0.999454 1 1 0.999454
0.999639 1 1 0.999639
1.00622 1.00764 1 0.998586
1.00387 1.00524 1 0.998633
1.00312 1.00435 1 0.99878
0.999296 1 1 0.999296
0.999448 1 1.00045 0.998997
0.99957 1 1.00088 0.998688
1.0036 1.00462 1 0.998988
0.999783 1.00091 1 0.998872
0.999952 1 1 0.999952
0.99972 1 1 0.99972
0.999276 1 1 0.999276
0.999231 1 1 0.999231
0.999286 1 1 0.999286
0.999491 1 1 0.999491
1.00708 1.00845 1 0.99864
1.00557 1.0069 1 0.998682
1.00622 1.00739 0.999905 0.998931
1.00436 1.00534 1 0.999024
0.999391 1 1.00019 0.999198
1.00008 1.00006 1.0014 0.998618
1.00062 1 1.0018 0.998825
0.999985 1 1 0.999985
0.999813 1 1 0.999813
0.999723 1 1 0.999723
0.999523 1 1 0.999523
0.999343 1 1 0.999343
0.999169 1 1 0.999169
0.999284 1 1 0.999284
1.00045 1 1.00121 0.99924
0.99971 1 1 0.99971
0.999467 1 1 0.999467
1.00152 1.00258 1 0.998944
0.999281 1 1 0.999281
0.999378 1 1.00016 0.999215
0.999204 1 1 0.999204
0.998877 1 1 0.998877
0.999333 1.00028 1 0.999054
1.00163 1 1.00268 0.998947
0.998659 1 1 0.998659
0.999507 1 1 0.999507
0.999303 1 1 0.999303
1.00134 1 1.00224 0.999102
0.999147 1 1 0.999147
1.00697 1.00804 1 0.998944
1.00366 1.0047 0.999949 0.99901
0.999606 1.00087 1 0.998733
1.00163 1 1.00294 0.998697
0.999394 1 1 0.999394
1.00768 1.00884 0.999969 0.99888
0.999183 1 1 0.999183
1.00069 1 1.00172 0.998971
1.01063 1.0119 0.999722 0.999022
1.00386 1.00514 1 0.998719
1.00179 1 1.00321 0.998586
0.999569 1 1 0.999569
0.999444 1 1 0.999444
0.999344 1 1 0.999344
0.999793 1 1 0.999793
0.999617 1 1 0.999617
0.999465 1 1 0.999465
0.999795 1 1 0.999795
0.999611 1 1 0.999611
0.999377 1 1 0.999377
0.999498 1 1 0.999498
0.999311 1 1 0.999311
0.999378 1 1 0.999378
0.999513 1 1 0.999513
0.999628 1 1 0.999628
0.999791 1 1 0.999791
0.999984 1 1 0.999984
0.999986 1 1 0.999986
1 1 1 1
0.999987 1 1 0.999987
1 1 1 1
1 1 1 1
1 1 1 1
1 1 1 1
1 1 1 1
0.999993 1 1 0.999993
1 1 1 1
1 1 1 1
1 1 1 1
1 1 1 1
1 1 1 1
1 1 1 1
1.00342 1.00454 1 0.998886
1.00488 1.00614 1 0.998742
1.00619 1.00757 1 0.99863
1.00513 1.00656 1 0.998582
1.00728 1.00868 1 0.998612
1.00808 1.00939 1 0.998697
1.00677 1.00794 1 0.998836
1.00726 1.00859 1 0.998683
1.00887 1.01012 1 0.99877
1.00621 1.00766 0.999648 0.998912
1.00668 1.00811 1 0.998588
1.00363 1.005 1 0.998632
1.0032 1.00444 1 0.998767
0.999292 1 1 0.999292
0.999513 1 1.00048 0.999036
0.999469 1 1.00078 0.998694
1.00419 1.00519 1 0.999006
0.999805 1.00094 1 0.998866
0.999276 1 1 0.999276
0.999245 1 1 0.999245
0.999289 1 1 0.999289
0.999969 1 1 0.999969
0.999721 1 1 0.999721
0.999479 1 1 0.999479
1.00657 1.00793 1 0.99865
0.999982 1 1 0.999982
0.999802 1 1 0.999802
1.00539 1.00672 1 0.998681
1.00731 1.00841 1 0.998904
0.999364 1 1.00014 0.99922
1.00118 1 1.00239 0.998795
0.999607 1.00014 1.00084 0.998626
1.00398 1.00496 1 0.999023
0.999754 1 1 0.999754
0.999522 1 1 0.999522
0.999263 1 1 0.999263
0.999895 1 1.00061 0.99929
0.99915 1 1 0.99915
0.999346 1 1 0.999346
1.0076 1.00887 1 0.99874
1.00848 1.00971 1 0.998779
1.0082 1.00951 0.999601 0.999109
1.0003 1.00149 1 0.998818
1.00067 1 1.0015 0.999167
1.00341 1 1.0048 0.998618
0.999815 1 1 0.999815
0.999782 1 1 0.999782
0.999658 1 1 0.999658
0.999527 1 1 0.999527
0.999395 1 1 0.999395
0.999207 1 1 0.999207
1.00031 1 1.00124 0.999072
0.999302 1 1 0.999302
0.9995 1 1 0.9995
0.999312 1 1 0.999312
1.00674 1.00781 1 0.998937
1.00329 1.00428 1 0.999007
0.999159 1 1 0.999159
1.00151 1 1.0024 0.999113
0.999903 1.0011 1.00004 0.998765
1.00123 1 1.00256 0.998678
0.999392 1 1 0.999392
1.00793 1.0091 0.999941 0.998896
0.999185 1 1 0.999185
1.00083 1 1.00188 0.998954
1.01023 1.0115 0.99974 0.999009
1.00418 1.00546 1 0.998731
1.002 1 1.00341 0.998592
0.999257 1 1 0.999257
1.01707 1.01949 0.998607 0.999023
0.99908 1 1 0.99908
1.00204 1 1.00326 0.99879
1.00495 1.00895 0.997225 0.998803
1.00189 1.00111 1.00221 0.998567
1.00716 1.00941 0.998715 0.999058
0.999444 1 1 0.999444
0.999344 1 1 0.999344
0.999271 1 1 0.999271
0.999795 1 1 0.999795
0.99961 1 1 0.99961
0.999514 1 1 0.999514
0.999364 1 1 0.999364
0.99979 1 1 0.99979
0.999619 1 1 0.999619
0.999306 1 1 0.999306
0.999512 1 1 0.999512
0.999391 1 1 0.999391
0.999295 1 1 0.999295
0.999432 1 1 0.999432
0.99952 1 1 0.99952
0.999598 1 1 0.999598
0.999758 1 1 0.999758
0.999647 1 1 0.999647
0.99976 1 1 0.99976
0.999982 1 1 0.999982
0.999983 1 1 0.999983
1 1 1 1
0.999985 1 1 0.999985
1 1 1 1
1 1 1 1
1 1 1 1
1 1 1 1
1 1 1 1
0.999996 1 1 0.999996
0.999991 1 1 0.999991
1 1 1 1
1 1 1 1
1 1 1 1
1 1 1 1
1 1 1 1
1 1 1 1
1.00723 1.00839 1 0.99885
1.00849 1.00982 1 0.998687
1.0072 1.0086 1 0.998619
1.00769 1.00902 1 0.998682
1.00816 1.0094 1 0.998774
1.0069 1.00811 0.999882 0.998917
1.00778 1.00908 0.999894 0.998823
1.01044 1.01588 0.995662 0.998983
1.01969 1.02223 0.998423 0.999088
0.999856 1 1 0.999856
1.00612 1.00747 1 0.998659
1.00509 1.00642 1 0.99868
1.00809 1.00923 1 0.998877
0.999347 1 1.0001 0.999243
1.00188 1 1.00312 0.998765
0.999345 1.00026 1.00045 0.998633
1.00347 1.00445 1 0.999022
0.999243 1 1 0.999243
0.999341 1 1 0.999341
0.99913 1 1 0.99913
0.999978 1 1 0.999978
0.999349 1 1 0.999349
0.999786 1 1 0.999786
0.999521 1 1 0.999521
0.99979 1 1 0.99979
1.00774 1.00901 1 0.998739
0.99983 1 1 0.99983
0.999781 1 1 0.999781
0.999634 1 1 0.999634
1.00892 1.01015 1 0.998783
1.00673 1.0082 0.999469 0.999074
1.00005 1 1.00087 0.999179
1.00362 1 1.00502 0.99861
1.00051 1.00153 1.00016 0.998823
0.999544 1 1 0.999544
0.999388 1 1 0.999388
0.999627 1 1.00036 0.999271
1.00033 1 1.00124 0.999096
0.99922 1 1 0.99922
1.00964 1.0112 0.999689 0.998768
1.00848 1.01224 0.997374 0.998908
1.00292 1.00428 0.999716 0.998923
1.00241 1.00066 1.00303 0.99871
1.00328 1 1.00421 0.999078
0.999636 1 1 0.999636
0.999575 1 1 0.999575
0.999507 1 1 0.999507
0.999406 1 1 0.999406
0.999288 1 1 0.999288
0.999469 1 1.00035 0.999123
1.00329 1 1.00426 0.999028
0.99939 1 1 0.99939
0.999188 1 1 0.999188
1.00811 1.00926 0.999947 0.998913
1.00966 1.01097 0.999712 0.998996
1.00431 1.00557 1 0.998744
1.00095 1 1.00202 0.998936
1.00207 1 1.00348 0.998599
0.999272 1 1 0.999272
1.01689 1.01981 0.998105 0.999028
0.999086 1 1 0.999086
1.00221 1 1.00341 0.998798
1.00613 1.00947 0.99784 0.998841
1.00209 1.00084 1.00269 0.998561
1.00851 1.01075 0.998827 0.998954
0.999179 1 1 0.999179
1.00199 1.01255 0.990577 0.998979
1.00009 1 1.00105 0.999045
1.00487 1 1.00616 0.998716
1.0012 1.00149 1.00105 0.998667
0.960088 0.968318 0.99741 0.994075
0.999564 0.995926 1.00618 0.997486
0.987542 1.00677 0.981703 0.999186
0.918047 0.937524 0.982837 0.996325
0.915711 0.953811 0.963163 0.996773
0.999343 1 1 0.999343
0.999277 1 1 0.999277
0.99926 1 1 0.99926
0.99979 1 1 0.99979
0.999609 1 1 0.999609
0.999512 1 1 0.999512
0.999405 1 1 0.999405
0.999302 1 1 0.999302
0.999506 1 1 0.999506
0.999771 1 1 0.999771
0.999609 1 1 0.999609
0.999301 1 1 0.999301
0.999428 1 1 0.999428
0.999439 1 1 0.999439
0.999355 1 1 0.999355
0.999478 1 1 0.999478
0.999587 1 1 0.999587
0.999757 1 1 0.999757
0.999623 1 1 0.999623
0.999523 1 1 0.999523
0.999617 1 1 0.999617
0.999628 1 1 0.999628
0.999784 1 1 0.999784
0.999759 1 1 0.999759
0.999981 1 1 0.999981
0.999982 1 1 0.999982
1 1 1 1
0.999983 1 1 0.999983
1 1 1 1
1 1 1 1
1 1 1 1
1 1 1 1
1 1 1 1
0.999997 1 1 0.999997
0.999995 1 1 0.999995
1 1 1 1
0.999989 1 1 0.999989
1 1 1 1
1 1 1 1
1 1 1 1
1 1 1 1
1 1 1 1
1.00747 1.0087 1 0.998778
1.00808 1.00941 1 0.998681
1.00734 1.00843 1 0.998921
1.01085 1.01568 0.996238 0.999001
1.00763 1.00888 0.999937 0.998822
1.02044 1.02288 0.998571 0.999046
1.0198 1.02138 0.9997 0.998753
0.977351 0.984914 0.995346 0.996962
1.01666 1.01923 0.998349 0.999135
0.999864 1 1 0.999864
0.999856 1 1 0.999856
0.999685 1 1 0.999685
0.999704 1 1 0.999704
1.00793 1.0092 1 0.998739
1.0094 1.01063 1 0.998787
1.00523 1.00672 0.999481 0.99904
0.999292 1 1.0001 0.99919
1.00346 1 1.00486 0.998602
1.00067 1.00171 1.00013 0.998828
0.999949 1 1.00071 0.99924
1.00034 1 1.00122 0.99912
0.999234 1 1 0.999234
0.99978 1 1 0.99978
0.999381 1 1 0.999381
0.999561 1 1 0.999561
0.999844 1 1 0.999844
0.99961 1 1 0.99961
1.00819 1.0096 0.999819 0.998785
0.999661 1 1 0.999661
0.999588 1 1 0.999588
0.999503 1 1 0.999503
1.00992 1.01273 0.998305 0.998918
1.00156 1.00311 0.999541 0.99892
1.00298 1 1.00391 0.999075
1.00208 1.00072 1.00267 0.998696
0.999409 1 1 0.999409
0.999295 1 1 0.999295
1.00224 1 1.00322 0.999028
0.999884 1 1.00078 0.999105
1.01768 1.01927 0.999633 0.998809
1.00461 1.01025 0.995521 0.99889
1.00118 1.00179 1.00073 0.998659
1.0018 1 1.00285 0.998958
0.99946 1 1 0.99946
0.999444 1 1 0.999444
0.999245 1 1 0.999245
1.00387 1 1.00493 0.998945
0.949353 0.965201 0.989583 0.993935
0.999287 1 1 0.999287
0.999091 1 1 0.999091
1.01638 1.01996 0.997453 0.999033
1.00733 1.0099 0.99857 0.99888
1.00246 1.00061 1.0033 0.998554
1.00246 1 1.00365 0.998806
1.00942 1.01184 0.998757 0.998848
0.999189 1 1 0.999189
1.00131 1.01222 0.990237 0.998968
0.999777 1 1.00073 0.99905
1.00464 1 1.00593 0.998719
1.00097 1.00206 1.00024 0.998677
0.957669 0.967527 0.995481 0.994304
0.994464 0.993685 1.00424 0.996562
0.990436 1.00709 0.984217 0.999233
0.925066 0.940378 0.987723 0.995944
0.906047 0.947054 0.960027 0.996535
0.999343 1 1.00013 0.999218
0.928698 0.942133 0.990136 0.99556
0.935093 0.955452 0.981588 0.997049
0.978235 1.0029 0.9764 0.998985
1.00329 1 1.00425 0.999051
1.00889 1 1.01007 0.998831
0.990123 1.00532 0.985565 0.999306
0.968832 0.971834 1.00314 0.993787
0.99675 0.993275 1.00719 0.996335
0.914528 0.942807 0.973699 0.996207
0.946938 0.97983 0.968671 0.997688
0.999283 1 1 0.999283
0.99926 1 1 0.99926
0.999298 1 1 0.999298
0.999784 1 1 0.999784
0.99962 1 1 0.99962
0.999492 1 1 0.999492
0.999424 1 1 0.999424
0.999307 1 1 0.999307
0.999757 1 1 0.999757
0.999441 1 1 0.999441
0.999493 1 1 0.999493
0.999601 1 1 0.999601
0.999344 1 1 0.999344
0.999394 1 1 0.999394
0.999527 1 1.0002 0.99933
0.99949 1 1 0.99949
0.999613 1 1 0.999613
0.999623 1 1 0.999623
0.999508 1 1 0.999508
0.999503 1 1 0.999503
0.999495 1 1 0.999495
0.999439 1 1 0.999439
0.999411 1 1 0.999411
0.999594 1 1 0.999594
0.999617 1 1 0.999617
0.99978 1 1 0.99978
0.999608 1 1 0.999608
0.999773 1 1 0.999773
0.999981 1 1 0.999981
0.999759 1 1 0.999759
0.999981 1 1 0.999981
1 1 1 1
0.999982 1 1 0.999982
1 1 1 1
1 1 1 1
1 1 1 1
1 1 1 1
1 1 1 1
0.999859 1 1 0.999859
0.999998 1 1 0.999998
0.999997 1 1 0.999997
1 1 1 1
0.999995 1 1 0.999995
1 1 1 1
1 1 1 1
1 1 1 1
1 1 1 1
1 1 1 1
1.01214 1.01592 0.997258 0.99902
1.00758 1.00877 1 0.99882
1.02151 1.02366 0.998901 0.999003
0.979729 0.98446 0.997675 0.997514
1.01642 1.01896 0.998339 0.999164
1.02055 1.02258 0.999273 0.99874
1.02063 1.02182 0.999959 0.998884
0.982674 0.986526 0.998524 0.997567
0.957882 0.968066 0.996258 0.993197
0.90788 0.935067 0.975617 0.99519
0.907684 0.943469 0.965242 0.996715
0.999677 1 1 0.999677
0.999863 1 1 0.999863
0.999855 1 1 0.999855
0.999678 1 1 0.999678
0.999568 1 1 0.999568
0.999594 1 1 0.999594
0.999686 1 1 0.999686
0.999693 1 1 0.999693
1.00658 1.00787 0.99991 0.998803
1.01184 1.01381 0.999126 0.998927
1.0005 1.00227 0.999317 0.998917
1.00295 1 1.00388 0.999073
1.00202 1.00062 1.00272 0.998683
1.00126 1 1.00223 0.999028
1.00031 1 1.00122 0.999087
0.999302 1 1 0.999302
0.999602 1 1 0.999602
0.999413 1 1 0.999413
0.999686 1 1 0.999686
0.999499 1 1 0.999499
1.01809 1.02011 0.999229 0.998785
0.999473 1 1 0.999473
0.999444 1 1 0.999444
1.00447 1.00933 0.996295 0.998884
1.0011 1.00199 1.0004 0.998712
1.00303 1 1.00412 0.998921
0.999238 1 1 0.999238
1.00365 1 1.00471 0.998949
1.01063 1.01972 0.992339 0.998739
0.994561 1.00217 0.99359 0.998813
0.999858 1 1.00103 0.998828
1.00583 1 1.00688 0.998951
0.999386 1 1 0.999386
0.999298 1 1 0.999298
0.999848 1 1.00076 0.999086
0.919401 0.942035 0.979979 0.995912
0.955568 0.966812 0.994044 0.994292
0.999199 1 1 0.999199
0.999536 1 1.00048 0.999054
1.00153 1.01237 0.990328 0.998956
1.00078 1.00269 0.999411 0.998688
1.0043 1 1.00558 0.998722
0.959121 0.968856 0.996841 0.993089
0.994647 0.994681 1.00269 0.997288
0.993612 1.00759 0.986843 0.999278
0.919626 0.941319 0.981392 0.995478
0.895611 0.939349 0.956983 0.996295
0.999308 1 1.00009 0.999217
0.923683 0.945349 0.980982 0.996023
0.936939 0.95378 0.985288 0.997011
0.98075 1.00342 0.978408 0.998975
1.0027 1 1.00365 0.999059
1.00805 1 1.0092 0.998859
0.983813 1.00272 0.981821 0.999311
0.969535 0.972937 1.00312 0.9934
0.994344 0.991795 1.00534 0.997243
0.916547 0.941976 0.977568 0.995332
0.946128 0.979562 0.968277 0.997513
0.999688 1 1.00045 0.999241
0.949923 0.955179 0.996859 0.997631
0.996847 0.998252 0.999915 0.998677
0.986594 1 0.987361 0.999223
1.0083 1 1.00904 0.999264
1.00525 0.999702 1.00592 0.999633
0.987112 0.989265 0.999686 0.998137
0.972902 0.971664 1.00777 0.99355
0.935142 0.964081 0.974546 0.995318
0.96874 0.998737 0.971655 0.99826
0.999261 1 1 0.999261
0.999283 1 1 0.999283
0.999776 1 1.00042 0.999355
0.999757 1 1 0.999757
0.999616 1 1 0.999616
0.999509 1 1 0.999509
0.999442 1 1 0.999442
0.999333 1 1 0.999333
0.999613 1 1 0.999613
0.999404 1 1 0.999404
0.999489 1 1 0.999489
0.999577 1 1.00024 0.999332
0.999914 1 1.00055 0.999359
0.999475 1 1.00009 0.999389
0.999492 1 1 0.999492
0.999622 1 1 0.999622
0.999494 1 1 0.999494
0.999503 1 1 0.999503
0.999494 1 1 0.999494
0.999436 1 1 0.999436
0.999462 1 1 0.999462
0.999427 1 1 0.999427
0.999394 1 1 0.999394
0.999293 1 1 0.999293
0.999509 1 1.00029 0.999221
0.999355 1 1 0.999355
0.99941 1 1 0.99941
0.999558 1 1 0.999558
0.999593 1 1 0.999593
0.999768 1 1 0.999768
0.999616 1 1 0.999616
0.999779 1 1 0.999779
0.999979 1 1 0.999979
0.999762 1 1 0.999762
0.99998 1 1 0.99998
1 1 1 1
0.999981 1 1 0.999981
1 1 1 1
1 1 1 1
1 1 1 1
1 1 1 1
1 1 1 1
0.999873 1 1 0.999873
0.999997 1 1 0.999997
0.999859 1 1 0.999859
1 1 1 1
0.999998 1 1 0.999998
0.999997 1 1 0.999997
1 1 1 1
1 1 1 1
1 1 1 1
1 1 1 1
1 1 1 1
0.921227 0.940514 0.9832 0.99623
0.941701 0.956405 0.987203 0.997389
0.982636 0.98512 0.999558 0.997919
1.01629 1.01864 0.998493 0.999192
1.02125 1.02371 0.998866 0.998727
0.982221 0.985026 0.998659 0.998491
1.0204 1.02161 0.999931 0.998892
0.960161 0.969599 0.996032 0.994211
0.918476 0.937786 0.983181 0.996162
0.900296 0.940883 0.960245 0.996478
0.999298 0.999552 1.00078 0.998962
0.96721 0.971105 1.00189 0.994108
0.909068 0.939701 0.971138 0.996153
0.94612 0.97729 0.970758 0.997267
0.999527 1 1 0.999527
0.999687 1 1 0.999687
0.999863 1 1 0.999863
0.99967 1 1 0.99967
0.999582 1 1 0.999582
0.999547 1 1 0.999547
0.999595 1 1 0.999595
0.99962 1 1 0.99962
0.999673 1 1 0.999673
0.999682 1 1 0.999682
1.01846 1.02083 0.998915 0.998762
1.00337 1.00746 0.997058 0.998877
1.00104 1.00215 1.00013 0.998765
1.00403 1 1.00515 0.998885
1.00327 1 1.00432 0.998953
0.999232 1 1 0.999232
0.999444 1 1 0.999444
0.999485 1 1 0.999485
1.01149 1.01977 0.993162 0.998713
0.999381 1 1 0.999381
0.999283 1 1 0.999283
0.995879 1.00229 0.994821 0.998776
1.0002 1 1.00133 0.998871
1.00467 1 1.00576 0.998918
1.00093 1 1.00185 0.999078
1.0096 1.01073 1.00011 0.998769
0.997989 1 0.998884 0.999104
1.00512 1 1.00612 0.999002
0.999368 1 1 0.999368
0.999274 1 1 0.999274
0.999147 1 1 0.999147
0.951101 0.95868 0.99438 0.997702
0.923367 0.942007 0.984782 0.995359
0.953428 0.967585 0.991412 0.993904
0.999216 1 1 0.999216
1.00215 1 1.00309 0.999067
0.983261 1.00382 0.980537 0.998966
1.00738 1 1.0085 0.998886
0.921216 0.944406 0.980048 0.995303
0.968137 0.97214 1.0012 0.994691
0.994752 0.993426 1.00496 0.996388
0.98107 1.0004 0.981338 0.999323
0.919459 0.940862 0.980932 0.996247
0.938261 0.955649 0.984848 0.99691
0.94172 0.977761 0.965751 0.997296
0.999732 1 1.00049 0.999239
0.947938 0.956617 0.993337 0.997575
0.996756 0.997922 1.00015 0.99868
0.989623 1 0.990377 0.999239
1.00832 1 1.00906 0.999263
1.00516 1.00058 1.00533 0.999247
0.988233 0.989001 1.00239 0.996845
0.970491 0.97258 1.00439 0.993492
0.937119 0.966051 0.973505 0.996452
0.962908 0.993039 0.971555 0.998048
1.00044 1 1.00094 0.999503
0.999316 1.00047 0.999791 0.999057
1.0103 1.00679 1.0042 0.999291
1.0084 0.999655 1.00904 0.999715
0.994066 0.989399 1.00566 0.999058
0.974024 0.975203 1.00549 0.993341
0.963737 0.98086 0.985798 0.996698
0.968636 1.00213 0.968524 0.997994
0.999269 1 1 0.999269
0.999724 1 1.00036 0.999369
1.00075 1 1.0013 0.999451
0.999613 1 1 0.999613
0.999489 1 1 0.999489
0.999415 1 1 0.999415
0.999615 1 1.00028 0.999334
0.999492 1 1 0.999492
0.999419 1 1.00003 0.999388
1.0003 1 1.00093 0.999369
1.00031 1 1.00086 0.999456
0.999571 1 1.00021 0.999358
0.999416 1 1 0.999416
0.999503 1 1 0.999503
0.999494 1 1 0.999494
0.999433 1 1 0.999433
0.999429 1 1 0.999429
0.999461 1 1 0.999461
0.999399 1 1 0.999399
0.999357 1 1 0.999357
0.999376 1 1 0.999376
0.999269 1 1 0.999269
0.9993 1 1 0.9993
0.999541 1 1.00032 0.999224
0.999334 1 1.00023 0.9991
0.99935 1 1 0.99935
0.999425 1 1.00016 0.999262
0.999373 1 1 0.999373
0.999491 1 1 0.999491
0.999409 1 1 0.999409
0.999557 1 1 0.999557
0.999744 1 1 0.999744
0.999592 1 1 0.999592
0.999767 1 1 0.999767
0.999976 1 1 0.999976
0.999779 1 1 0.999779
0.999978 1 1 0.999978
1 1 1 1
0.99998 1 1 0.99998
1 1 1 1
1 1 1 1
1 1 1 1
1 1 1 1
1 1 1 1
0.999816 1 1 0.999816
0.999996 1 1 0.999996
0.999847 1 1 0.999847
1 1 1 1
0.999998 1 1 0.999998
0.999859 1 1 0.999859
1 1 1 1
1 1 1 1
0.999998 1 1 0.999998
1 1 1 1
1 1 1 1
1 1 1 1
0.953441 0.958618 0.996722 0.99787
0.921811 0.941369 0.983461 0.995693
0.996277 0.999316 0.998343 0.998614
0.936482 0.952998 0.985372 0.997257
0.978229 0.983685 0.997104 0.997342
1.01969 1.02142 0.999405 0.998899
0.960346 0.969652 0.995136 0.995243
0.915914 0.939119 0.979911 0.995285
0.892909 0.938452 0.955061 0.99624
0.996897 0.999459 0.998919 0.998517
0.967963 0.970205 1.00399 0.993722
0.912857 0.943511 0.972142 0.995236
0.943698 0.97632 0.969297 0.997204
0.996044 0.998735 0.998739 0.998564
0.97025 0.970034 1.0068 0.993467
0.938672 0.967403 0.97382 0.996386
0.967817 0.99928 0.970405 0.998052
0.999438 1 1 0.999438
0.999541 1 1 0.999541
0.999697 1 1 0.999697
0.999595 1 1 0.999595
0.99946 1 1 0.99946
0.999558 1 1 0.999558
0.999596 1 1 0.999596
0.999604 1 1 0.999604
0.999635 1 1 0.999635
0.999659 1 1 0.999659
1.01314 1.02063 0.993967 0.998689
0.997724 1.00284 0.996155 0.998739
1.0005 1 1.00159 0.998914
1.00382 1 1.00494 0.998884
1.00212 1 1.00305 0.999069
0.999268 1 1 0.999268
0.999375 1 1 0.999375
0.999369 1 1 0.999369
1.00497 1.00947 0.996748 0.998789
0.999284 1 1 0.999284
0.999235 1 1.00009 0.999144
0.996922 1 0.997862 0.999058
1.00441 1 1.00541 0.999001
0.994889 1.00463 0.991176 0.999124
1.01148 1 1.01215 0.999333
0.999898 1 1.00078 0.999118
0.999296 1 1 0.999296
0.999159 1 1 0.999159
1.00045 1.00145 0.999768 0.999232
0.952862 0.958475 0.996291 0.997845
0.922434 0.942092 0.982851 0.996217
0.999726 1 1.00049 0.999238
1.00819 1 1.00894 0.999263
0.991074 1 0.991814 0.999253
0.953684 0.958752 0.996884 0.997823
0.97196 0.970921 1.00778 0.993341
0.990354 0.990365 1.00216 0.997831
0.999767 1.0006 1.00033 0.998837
0.936598 0.963767 0.976383 0.995315
0.995979 0.996875 1.00042 0.998683
0.958025 0.989064 0.970474 0.998087
1.00069 1 1.00118 0.999513
0.997734 0.998577 0.999952 0.999203
1.01233 1.00845 1.00455 0.9993
1.00806 0.999613 1.00886 0.999594
0.993273 0.990391 1.00424 0.998677
0.9778 0.977302 1.00737 0.993194
0.970112 1.00564 0.966403 0.998208
0.948321 0.972984 0.978453 0.996116
1.0013 0.99955 1.00204 0.999711
1.01136 1.01124 1.00033 0.999789
1.01946 1.01493 1.00508 0.999392
0.969523 0.999333 0.97206 0.998056
1.00242 0.990184 1.01266 0.999698
0.978747 0.977665 1.00744 0.993715
0.942632 0.96103 0.984244 0.996557
0.99965 1 1.00027 0.999382
1.00051 1 1.00109 0.999414
1.00312 1 1.00355 0.999566
0.999492 1 1 0.999492
0.999387 1 1 0.999387
1.00075 1 1.00138 0.999379
0.999418 1 1 0.999418
0.999683 1 1.00033 0.999358
1.00069 1 1.00126 0.999429
0.999852 1 1.00035 0.999498
0.999359 1 1 0.999359
0.999431 1 1 0.999431
0.99946 1 1 0.99946
0.999403 1 1 0.999403
0.999375 1 1 0.999375
0.999363 1 1 0.999363
0.999347 1 1 0.999346
0.999297 1 1 0.999297
1.00122 1 1.00216 0.999067
0.999307 1 1 0.999307
0.999459 1 1.00024 0.999217
0.999537 1 1.00056 0.998979
0.99937 1 1.00028 0.999095
0.999299 1 1 0.999299
0.999405 1 1.0003 0.999105
0.999459 1 1 0.999459
0.999336 1 1 0.999336
0.999304 1 1 0.999304
0.999391 1 1 0.999391
0.999506 1 1 0.999506
0.999708 1 1 0.999708
0.999556 1 1 0.999556
0.999744 1 1 0.999744
0.99997 1 1 0.99997
0.999766 1 1 0.999766
0.999974 1 1 0.999974
1 1 1 1
0.999977 1 1 0.999977
1 1 1 1
1 1 1 1
1 1 1 1
1 1 1 1
1 1 1 1
0.99974 1 1 0.99974
0.999959 1 1 0.999959
0.999815 1 1 0.999815
1 1 1 1
0.999982 1 1 0.999982
0.999822 1 1 0.999822
1 1 1 1
1 1 1 1
0.999998 1 1 0.999998
1 1 1 1
1 1 1 1
1 1 1 1
0.998067 0.999253 0.999662 0.99915
0.946663 0.95769 0.990893 0.997571
0.923884 0.940621 0.986718 0.995427
0.999553 1 1 0.999553
1.0086 1.00557 1.0036 0.999413
0.997987 0.999441 0.999928 0.998617
0.930337 0.952469 0.979654 0.997049
0.995082 0.999774 0.99727 0.998032
0.970442 0.972091 1.0043 0.994026
0.916938 0.947577 0.971405 0.99615
0.938743 0.973961 0.966673 0.997068
0.998516 1.00141 0.999776 0.997334
0.967635 0.969335 1.0046 0.993676
0.940436 0.966758 0.976699 0.99598
0.966779 0.998727 0.970081 0.997867
0.990894 0.991917 1.00229 0.996684
0.975274 0.970746 1.01231 0.992449
0.94936 0.974783 0.978118 0.995706
0.96835 1.0026 0.967792 0.997983
0.999356 1 1 0.999356
0.99943 1 1 0.99943
0.999556 1 1 0.999556
0.999448 1 1 0.999448
0.999478 1 1 0.999478
0.999568 1 1 0.999568
0.999608 1 1 0.999608
0.99965 1 1 0.99965
0.999983 1.00779 0.993438 0.998808
0.995624 1 0.996609 0.999011
0.99937 1 1 0.99937
1.00356 1 1.00456 0.998999
0.999307 1 1.00017 0.99914
0.999294 1 1 0.999294
0.999299 1 1 0.999299
0.998498 1.00591 0.993501 0.999129
0.999175 1 1 0.999175
1.00072 1 1.0016 0.999114
1.00778 1 1.00846 0.999329
0.999309 1 1 0.999309
0.988323 0.997879 0.990879 0.999539
1.01305 0.999976 1.01363 0.999454
0.999208 1 1 0.999208
0.999248 1 1 0.999248
1.01231 1.01314 0.99935 0.999834
0.999921 1.00096 0.999723 0.999243
0.954805 0.958111 0.998555 0.997992
1.00085 1 1.00132 0.999524
1.00871 0.999579 1.00967 0.999473
0.996218 0.996872 0.999995 0.999349
0.97692 0.974286 1.0093 0.993465
0.994601 0.989715 1.00754 0.997414
0.950694 0.974571 0.979803 0.995609
1.01426 1.00999 1.00492 0.99931
0.973373 1.01039 0.964886 0.998422
1.00147 0.999534 1.00226 0.999678
1.0109 1.01116 0.999948 0.999795
1.01904 1.01464 1.00482 0.999516
1.00637 0.99377 1.01275 0.999931
0.967592 0.998596 0.971027 0.997864
0.977876 0.976858 1.00729 0.993795
0.947795 0.970244 0.981245 0.995534
1.00582 0.996563 1.00952 0.999771
1.01858 1.01759 1.00111 0.999854
1.00846 1.0063 1.00274 0.999415
0.947986 0.978177 0.971774 0.997284
0.948157 0.975326 0.976384 0.995657
0.99595 0.989413 1.00668 0.999928
0.979568 0.97196 1.01466 0.993266
1.00027 1 1.00089 0.999377
1.00223 1 1.00268 0.99955
1.00961 0.997443 1.01262 0.999582
0.99942 1 1 0.99942
0.999724 1 1.00037 0.999358
1.00094 1 1.00154 0.999403
0.999356 1 1 0.999356
0.99993 1 1.00043 0.999497
1.00377 1 1.00438 0.999392
0.999374 1 1 0.999374
0.99937 1 1 0.99937
0.999682 1 1.00035 0.999327
1.00466 1 1.00555 0.999117
0.999325 1 1 0.999325
1.00067 1 1.00157 0.999104
1.0027 1 1.00384 0.998862
1.00036 1 1.0015 0.99886
0.999381 1 1.00017 0.999211
0.999527 1 1.00058 0.99895
0.999465 1 1.0003 0.999164
0.999446 1 1.0002 0.999245
0.999334 1 1.00022 0.999119
0.999428 1 1 0.999428
0.999296 1 1 0.999296
0.999497 1 1.00039 0.999109
0.999662 1 1 0.999662
0.999454 1 1 0.999454
0.999322 1 1 0.999322
0.999522 1 1 0.999522
0.999707 1 1 0.999707
0.999959 1 1 0.999959
0.999743 1 1 0.999743
0.999967 1 1 0.999967
1 1 1 1
0.999973 1 1 0.999973
1 1 1 1
1 1 1 1
1 1 1 1
1 1 1 1
1 1 1 1
0.999708 1 1 0.999708
0.999937 1 1 0.999937
0.999755 1 1 0.999755
1 1 1 1
0.999958 1 1 0.999958
0.999814 1 1 0.999814
1 1 1 1
1 1 1 1
0.999968 1 1 0.999968
1 1 1 1
1 1 1 1
1 1 1 1
1.01116 1.01137 1.00002 0.999777
0.99802 0.999156 0.999705 0.999157
0.947528 0.957952 0.99151 0.997587
0.999559 1 1 0.999559
0.999521 1 1 0.999521
0.999458 1 1 0.999458
1.01961 1.0141 1.00605 0.999388
1.00898 1.00584 1.0037 0.999425
0.999322 0.999585 1.00112 0.998621
1.00441 1.00256 1.0035 0.998346
0.969632 0.970049 1.00607 0.993537
0.938167 0.964871 0.976894 0.995321
0.967494 1.00033 0.969168 0.997947
0.986023 0.98711 1.00113 0.99777
0.971489 0.970206 1.00796 0.993411
0.949549 0.971839 0.980397 0.996599
0.970969 1.0062 0.966727 0.998201
0.979325 0.982551 0.999131 0.997584
0.98092 0.973971 1.01367 0.99355
0.943289 0.961403 0.984561 0.996544
0.968055 0.997471 0.972218 0.998242
0.99934 1 1 0.99934
0.999355 1 1 0.999355
0.999421 1 1 0.999421
0.999447 1 1 0.999447
0.999497 1 1 0.999497
0.999613 1 1 0.999613
1.00238 1.00705 0.996235 0.999133
1.00418 1 1.00486 0.999325
0.999302 1 1 0.999302
1.00142 1 1.00231 0.99911
0.99919 1 1 0.99919
0.9993 1 1 0.9993
0.999249 1 1 0.999249
0.996925 1.00015 0.997247 0.999531
0.999239 1 1 0.999239
1.01049 0.998004 1.01304 0.99948
0.999307 1 1 0.999307
1.01071 0.992366 1.01874 0.999754
0.995913 0.995847 1.00044 0.99963
0.999279 1 1 0.999279
1.01959 1.02019 0.999502 0.999907
1.01237 1.01322 0.999306 0.999855
0.999451 1.00055 0.99965 0.999254
1.0016 0.99952 1.00243 0.999644
1.00075 0.994243 1.00663 0.999911
1.01056 1.01117 0.99959 0.9998
0.985713 0.980321 1.00972 0.995819
0.95476 0.971444 0.986023 0.996757
1.01845 1.01431 1.00444 0.99964
0.967627 1.00019 0.969434 0.99795
1.00513 0.997685 1.00767 0.999788
1.01883 1.01792 1.00102 0.999869
1.00916 1.00657 1.00315 0.999427
0.995177 0.986367 1.01047 0.998475
0.94603 0.977394 0.970609 0.997221
0.947737 0.973138 0.97728 0.996539
0.989289 0.97766 1.01833 0.993684
1.01923 0.993763 1.02574 0.99989
1.0116 1.01189 0.999943 0.999776
0.997229 1.00039 0.998218 0.998619
0.908757 0.944481 0.965326 0.996737
0.93931 0.966806 0.975055 0.996415
0.984917 0.976756 1.01488 0.993576
0.9698 0.980727 0.990821 0.998019
1.0012 1 1.00167 0.999534
1.01154 0.998293 1.01369 0.999586
1.0195 1 1.01998 0.999529
0.999354 1 1 0.999354
1.00005 1 1.00055 0.999497
1.00302 1 1.00361 0.999409
1.01257 1 1.01338 0.999199
0.999965 1 1.00066 0.999308
1.00463 1 1.00556 0.999077
1.00983 1 1.01107 0.998779
1.00021 1 1.00107 0.99914
1.00344 1 1.00459 0.998854
1.00366 1 1.00501 0.998658
1.00016 1 1.00148 0.998682
0.999796 1 1.00075 0.999051
1.00034 1 1.0015 0.998842
0.999548 1 1.00063 0.99892
0.999453 1 1.0002 0.999251
0.999507 1 1.00031 0.999192
0.999357 1 1.00001 0.999351
0.999449 1 1.00019 0.999262
0.999294 1 1.00015 0.999142
0.999607 1 1 0.999607
0.99943 1 1 0.99943
0.999293 1 1 0.999293
0.999939 1 1 0.999939
0.999662 1 1 0.999662
0.999448 1 1 0.999448
0.999707 1 1 0.999707
0.999955 1 1 0.999955
1 1 1 1
0.999965 1 1 0.999965
1 1 1 1
1 1 1 1
1 1 1 1
1 1 1 1
1 1 1 1
0.999705 1 1 0.999705
0.999957 1 1 0.999957
0.999719 1 1 0.999719
1 1 1 1
0.999956 1 1 0.999956
0.99977 1 1 0.99977
1 1 1 1
1 1 1 1
0.999958 1 1 0.999958
1 1 1 1
1 1 1 1
1 1 1 1
1.0194 1.01737 1.00214 0.999851
1.01245 1.0118 1.00086 0.999783
0.998198 0.998972 1.00006 0.999165
0.999505 1 1 0.999505
0.99943 1 1 0.99943
0.999564 1 1 0.999564
0.999519 1 1 0.999519
0.999444 1 1 0.999444
0.999435 1 1 0.999435
0.999378 1 1 0.999378
1.01004 1.00573 1.00501 0.999283
1.01834 1.01345 1.00532 0.999512
1.00968 1.00609 1.00414 0.999437
0.974807 1.01066 0.966054 0.99842
0.984988 0.987072 1.00113 0.996764
0.97696 0.974081 1.00864 0.994366
0.951649 0.967861 0.987705 0.995489
0.97872 0.982713 0.998895 0.997039
0.97647 0.972582 1.01066 0.993407
0.949868 0.971436 0.982085 0.995634
0.963416 0.993297 0.971849 0.998012
0.970561 0.977642 0.994634 0.998113
0.973238 0.974278 1.00569 0.993282
0.967612 0.983932 0.986716 0.996653
0.945879 0.978553 0.968883 0.997653
0.999346 1 1 0.999346
0.999339 1 1 0.999339
0.999353 1 1 0.999353
0.999445 1 1 0.999445
1.00435 1.00232 1.00251 0.999523
1.00856 0.996459 1.01265 0.999505
0.999292 1 1 0.999292
0.999251 1 1 0.999251
0.99927 1 1 0.99927
0.999305 1 1 0.999305
0.999268 1 1 0.999268
1.00594 0.991038 1.0154 0.999644
0.997523 0.997399 1.00044 0.999686
0.999299 1 1 0.999299
1.01117 0.986879 1.02483 0.999792
1.00192 0.998543 1.00399 0.999389
1.01323 1.01365 0.999753 0.999831
1.01873 1.01935 0.999468 0.999916
1.01238 1.01319 0.999332 0.999876
1.00457 0.998749 1.00602 0.999805
0.99626 0.986005 1.01052 0.999883
1.01899 1.01818 1.00091 0.999885
0.978526 0.971516 1.01397 0.993341
0.951904 0.968998 0.986861 0.995439
1.0101 1.00684 1.0038 0.999438
0.941363 0.974976 0.96834 0.997092
1.02163 0.99332 1.02863 0.999873
1.01238 1.01212 1.00048 0.999781
0.998877 1.00053 0.999728 0.998623
0.973808 0.983681 0.990515 0.999444
0.902032 0.942148 0.960779 0.996504
0.939208 0.965092 0.977092 0.995997
0.988257 0.977163 1.01756 0.993899
1.00527 0.989665 1.01598 0.999789
0.999341 1.00016 1.00004 0.99915
0.942656 0.95723 0.987324 0.997418
0.911217 0.93941 0.973724 0.996163
0.979202 0.973247 1.01265 0.993552
0.965817 0.979193 0.989077 0.997233
1.01393 0.999478 1.01487 0.99959
1.01934 0.999183 1.02066 0.999523
1.01326 1 1.01386 0.999411
1.00233 1 1.0029 0.999426
1.01305 1 1.01383 0.999232
1.00917 1 1.01034 0.998838
1.00471 1 1.00568 0.999036
1.00977 1 1.01103 0.998748
1.00463 1 1.00608 0.998559
1.00412 1 1.00528 0.998847
1.00361 1 1.00498 0.998632
1.00183 1.00013 1.00316 0.998549
0.998679 1.00003 1 0.998648
0.999339 1 1.00049 0.998848
1.00041 1 1.00176 0.998654
0.99918 1 1 0.99918
0.999483 1 1.00041 0.999069
1.00027 1 1.00145 0.998824
0.999294 1 1 0.999293
0.999563 1 1.00032 0.999244
0.999536 1 1.00032 0.99922
0.999531 1 1 0.999531
0.999375 1 1.00001 0.999366
0.999458 1 1.00018 0.99928
0.999896 1 1 0.999896
0.999608 1 1 0.999608
0.999431 1 1 0.999431
1 1 1 1
0.999935 1 1 0.999935
0.999662 1 1 0.999662
0.999952 1 1 0.999952
1 1 1 1
1 1 1 1
1 1 1 1
1 1 1 1
1 1 1 1
0.999503 1 1 0.999503
0.999677 1 1 0.999677
0.999945 1 1 0.999945
0.999705 1 1 0.999705
1 1 1 1
0.99996 1 1 0.99996
0.99973 1 1 0.99973
1 1 1 1
1 1 1 1
0.999975 1 1 0.999975
1 1 1 1
1 1 1 1
1 1 1 1
1.01196 1.01071 1.00146 0.999788
1.0197 1.0178 1.002 0.999867
1.01333 1.01225 1.00128 0.999788
0.999511 1 1 0.999511
0.99942 1 1 0.99942
0.999383 1 1 0.999383
0.999418 1 1 0.999418
0.999371 1 1 0.999371
0.999517 1 1 0.999517
0.999431 1 1 0.999431
0.999436 1 1 0.999436
0.999373 1 1 0.999373
0.999382 1 1 0.999382
0.99608 0.996743 1.00068 0.998653
1.01179 1.00719 1.00527 0.999293
1.01698 1.01288 1.00441 0.999636
0.9592 0.989851 0.970923 0.998056
0.953005 0.970146 0.985513 0.996772
0.972589 0.9786 0.997361 0.996487
0.978169 0.97714 1.00759 0.993509
0.971523 0.977575 0.996902 0.996898
0.981817 0.977903 1.01061 0.993461
0.953489 0.976105 0.980627 0.996128
0.945441 0.97845 0.96871 0.997475
0.98475 0.979705 1.0078 0.997371
0.97571 0.977433 1.0046 0.993667
0.935664 0.964319 0.974872 0.995294
0.913146 0.952705 0.961634 0.996718
0.99948 1 1 0.99948
0.999346 1 1 0.999346
0.999337 1 1 0.999337
1.00155 0.989298 1.01286 0.999533
0.997977 0.997824 1.00041 0.999747
0.999303 1 1 0.999303
0.999257 1 1 0.999257
0.999343 1 1.00003 0.999309
1.00271 0.998887 1.00444 0.999385
1.00955 0.987157 1.02288 0.999802
1.00375 1 1.00435 0.999402
1.00794 0.994436 1.01406 0.999529
0.999778 1.00057 1 0.999206
1.01331 1.01375 0.999712 0.999853
1.01798 1.01866 0.999408 0.999924
1.02375 0.992816 1.03131 0.999855
0.973291 0.983324 0.992118 0.99766
1.01291 1.01237 1.00075 0.999787
0.979174 0.975556 1.01149 0.992304
0.938235 0.964127 0.977664 0.995377
1.00019 1.0007 1.00087 0.998627
0.895409 0.940174 0.955951 0.996271
1.006 0.990366 1.01598 0.999811
0.99945 1.0003 0.999993 0.999157
0.93754 0.954013 0.985407 0.997286
0.964755 0.979872 0.986618 0.997927
0.914289 0.94348 0.973667 0.995269
0.972282 0.971803 1.0076 0.992946
0.986328 0.990523 0.996315 0.999448
0.953587 0.958514 0.996959 0.997895
0.909292 0.935701 0.976445 0.995218
0.973401 0.971222 1.00883 0.993469
0.984194 0.986409 0.999764 0.997991
1.01861 0.998239 1.02091 0.999516
1.0156 1 1.0162 0.999405
0.993532 1 0.994406 0.99912
1.01332 1 1.01406 0.999265
1.0089 1 1.01003 0.998876
1.00197 1.00058 1.00272 0.998671
1.00954 1 1.01084 0.998716
1.00397 1 1.00542 0.998565
0.998816 1.00015 1.00003 0.998634
1.00343 1 1.00483 0.998606
1.00137 1.00038 1.00243 0.998559
1.00018 1.0015 1 0.99869
0.999096 1.00032 1 0.998781
0.998767 1 1.00002 0.99875
0.998661 1 1 0.998656
0.999022 1 1 0.999022
0.999553 1 1.00074 0.998817
1.00069 1 1.00206 0.998625
0.999284 1 1 0.999284
0.999202 1 1 0.999202
0.999207 1 1.00012 0.999088
0.999454 1 1 0.999454
0.999379 1 1.00008 0.999299
0.999668 1 1.00043 0.999238
0.999822 1 1 0.999822
0.999531 1 1 0.999531
0.999382 1 1 0.999382
1 1 1 1
0.999893 1 1 0.999893
0.999608 1 1 0.999608
1 1 1 1
1 1 1 1
0.999931 1 1 0.999931
1 1 1 1
1 1 1 1
1 1 1 1
0.999459 1 1 0.999459
0.999645 1 1 0.999645
0.999496 1 1 0.999496
0.999934 1 1 0.999934
0.999677 1 1 0.999677
1 1 1 1
0.999948 1 1 0.999948
0.999704 1 1 0.999704
1 1 1 1
1 1 1 1
0.999964 1 1 0.999964
1 1 1 1
1 1 1 1
1 1 1 1
0.999688 1.00037 1 0.999322
1.01178 1.01083 1.00115 0.999793
1.01992 1.01812 1.00188 0.999883
0.99938 1 1 0.99938
0.999518 1 1 0.999518
0.999411 1 1 0.999411
0.999428 1 1 0.999428
0.999393 1 1 0.999393
0.999368 1 1 0.999368
0.99933 1 1 0.99933
0.999353 1 1 0.999353
0.999436 1 1 0.999436
0.999368 1 1 0.999368
0.999379 1 1 0.999379
0.99938 1 1 0.99938
0.935514 0.954939 0.982595 0.997011
0.99603 0.996436 1.00094 0.998655
1.01327 1.00838 1.00554 0.999303
0.941866 0.977468 0.966247 0.997236
0.957278 0.978743 0.982292 0.995701
0.972878 0.97411 1.00546 0.993309
0.973367 0.976111 0.999188 0.998
0.984609 0.978983 1.00721 0.998545
0.904352 0.945717 0.959625 0.996494
0.980849 0.976264 1.01186 0.992918
0.934085 0.963519 0.97301 0.996343
0.98398 0.985571 0.999717 0.998669
0.974862 0.972302 1.00876 0.993928
0.909722 0.939227 0.972373 0.996105
1.00007 1 1.00041 0.999662
0.999482 1 1 0.999482
0.999346 1 1 0.999346
1.01028 0.989923 1.02076 0.999807
1.00442 0.999985 1.00506 0.99938
0.999369 1 1.00005 0.999319
1.00405 1 1.00465 0.999406
1.00697 0.994953 1.01253 0.99955
1.00729 0.998306 1.00939 0.999613
0.951625 0.958394 0.995503 0.997423
1.00037 1.00102 0.999986 0.99937
1.01333 1.01372 0.999735 0.999876
1.00635 0.990707 1.01596 0.999835
0.965733 0.98187 0.985106 0.998436
0.999725 1.0004 1.00017 0.999164
0.976117 0.974172 1.00757 0.994466
0.918706 0.947536 0.973297 0.996174
0.930904 0.953413 0.97925 0.997081
0.98538 0.99094 0.994902 0.999484
0.946836 0.957608 0.991134 0.997596
0.919612 0.937248 0.984919 0.996207
0.983396 0.983421 1.00316 0.996825
0.971486 0.972059 1.00581 0.993636
0.975968 0.997708 0.978741 0.999457
0.9221 0.941671 0.982886 0.996266
0.971015 0.972113 1.00499 0.993911
0.994468 0.994744 1.00309 0.99664
1.0188 1 1.01942 0.999398
0.989959 1 0.990799 0.999152
0.981864 1.00087 0.981981 0.999007
1.00892 1 1.01002 0.998913
1.00196 1.00077 1.00252 0.998671
0.999703 1.00141 0.999428 0.998866
1.00343 1 1.00486 0.99857
0.999147 1.00013 1.00037 0.998648
1.00319 1.00429 1 0.998906
1.00102 1.00063 1.00182 0.99857
1.00004 1.00135 1 0.998696
1.00098 1.00205 1 0.99894
0.99941 1.00043 1 0.998977
0.998838 1.00003 1 0.998811
0.999053 1.00025 1 0.998799
0.998904 1 1 0.998904
0.998771 1 1 0.998771
0.998664 1 1 0.998664
0.999207 1 1 0.999207
0.999024 1 1 0.999022
0.999721 1 1.00094 0.998786
0.999409 1 1 0.999409
0.999282 1 1 0.999282
0.999224 1 1 0.999224
0.999733 1 1 0.999733
0.999456 1 1 0.999456
0.999477 1 1.00017 0.999304
1 1 1 1
0.99982 1 1 0.99982
0.999531 1 1 0.999531
1 1 1 1
1 1 1 1
0.99989 1 1 0.99989
1 1 1 1
1 1 1 1
1 1 1 1
0.999453 1 1 0.999453
0.999462 1 1 0.999462
0.999605 1 1 0.999605
0.999919 1 1 0.999919
0.999645 1 1 0.999645
0.999488 1 1 0.999488
1 1 1 1
0.999936 1 1 0.999936
0.999677 1 1 0.999677
1 1 1 1
1 1 1 1
0.99995 1 1 0.99995
1 1 1 1
1 1 1 1
1 1 1 1
0.951556 0.956831 0.996837 0.997642
0.998696 0.999363 1 0.999333
1.01175 1.0111 1.00084 0.999799
0.999371 1 1 0.999371
0.999363 1 1 0.999363
0.99933 1 1 0.99933
0.999438 1 1 0.999438
0.999402 1 1 0.999402
0.999365 1 1 0.999365
0.999353 1 1 0.999353
0.999329 1 1 0.999329
0.999278 1 1 0.999278
0.999373 1 1 0.999373
0.999376 1 1 0.999376
0.999381 1 1 0.999381
0.917131 0.937318 0.982177 0.996219
0.93583 0.952966 0.984992 0.996981
0.995697 0.995798 1.00124 0.998658
0.895722 0.938882 0.957603 0.996269
0.933189 0.96124 0.975414 0.995287
0.989017 0.981864 1.01262 0.994728
0.989069 0.97828 1.01379 0.997273
0.982388 0.983505 1.00142 0.997451
0.912766 0.940017 0.975649 0.995246
0.97643 0.97353 1.0088 0.994228
0.986798 0.985103 1.00409 0.997643
0.974622 0.974474 1.00647 0.993722
1.00755 1 1.00819 0.999365
0.999916 1 1.00027 0.999649
0.999484 1 1 0.999484
1.00356 0.993171 1.0109 0.99957
1.00435 1 1.00494 0.99941
1.00762 0.998901 1.00918 0.999551
1.00127 1.00067 1.00146 0.999137
0.919973 0.943193 0.979346 0.995952
0.952312 0.957397 0.996977 0.997705
1.00112 1.00167 0.999918 0.999534
0.983298 0.990972 0.992727 0.999526
0.983827 0.983605 1.00247 0.997766
0.948043 0.957937 0.992041 0.997611
0.974625 0.972031 1.0092 0.993524
0.916426 0.938574 0.981005 0.995308
0.979527 0.998271 0.98187 0.999342
0.922503 0.941715 0.983828 0.995702
0.971177 0.971572 1.00601 0.993626
0.994601 0.990956 1.00601 0.997683
0.995929 1.00454 0.99219 0.999229
0.958578 0.969089 0.996036 0.993091
0.994975 0.996329 1.00048 0.998161
0.986389 1 0.987195 0.999184
0.983312 1.00098 0.983343 0.998989
0.984178 1.00213 0.983071 0.998998
1.00162 1.00091 1.00205 0.998672
0.999454 1.00181 0.998783 0.998861
1.00399 1.0072 0.997637 0.99917
0.999498 1.00012 1.00071 0.998662
1.00372 1.00483 1 0.998905
1.00609 1.00696 1 0.999134
0.999887 1.00119 1 0.998701
1.00085 1.00191 1 0.998939
1.00077 1.00168 1 0.999097
0.99921 1.00014 1 0.999069
0.99926 1.00026 1 0.998998
0.998956 1 1 0.998956
0.998894 1 1 0.998894
0.998828 1.00001 1 0.998814
0.998945 1.00013 1 0.998817
0.999062 1 1 0.999062
0.998927 1 1 0.998927
0.998792 1 1 0.998792
0.999357 1 1 0.999357
0.999204 1 1 0.999204
0.999022 1 1 0.999022
0.999665 1 1 0.999665
0.99941 1 1 0.99941
0.99928 1 1 0.99928
0.999999 1 1 0.999999
0.999733 1 1 0.999733
0.999458 1 1 0.999458
1 1 1 1
1 1 1 1
0.999818 1 1 0.999818
1 1 1 1
1 1 1 1
1 1 1 1
0.999415 1 1 0.999415
0.999441 1 1 0.999441
0.999565 1 1 0.999565
0.999465 1 1 0.999465
0.999605 1 1 0.999605
0.999888 1 1 0.999888
1 1 1 1
0.99992 1 1 0.99992
0.999645 1 1 0.999645
1 1 1 1
1 1 1 1
0.999938 1 1 0.999938
1 1 1 1
1 1 1 1
1 1 1 1
0.928842 0.941929 0.990493 0.995571
0.9493 0.957364 0.994119 0.997443
0.997454 0.998109 1 0.999343
0.999363 1 1 0.999363
0.99932 1 1 0.99932
0.999373 1 1 0.999373
0.999334 1 1 0.999334
0.999309 1 1 0.999309
0.999353 1 1 0.999353
0.999329 1 1 0.999329
0.999284 1 1 0.999284
0.999268 1 1 0.999268
0.99928 1 1 0.99928
0.99931 1 1.00026 0.999053
0.999377 1 1 0.999377
0.999383 1 1 0.999383
0.96967 0.976845 0.999742 0.992911
0.922839 0.939202 0.986678 0.995844
0.936523 0.95383 0.984938 0.99687
0.913522 0.939635 0.975963 0.996154
0.976823 0.972216 1.01223 0.992599
0.984194 0.983137 1.00235 0.998726
0.989634 0.988238 1.00312 0.9983
0.974167 0.975797 1.00438 0.993973
0.989836 0.998111 0.994196 0.997499
1.00575 1.00132 1.0057 0.998738
1.00601 1 1.00666 0.999352
0.999636 1 1 0.999636
1.00752 0.999984 1.00804 0.999493
1.00032 1.00101 1.00017 0.999133
0.950929 0.967808 0.988565 0.993925
0.923959 0.943037 0.984266 0.995432
0.953721 0.956599 0.999 0.997989
0.983326 0.999369 0.984711 0.999224
0.995574 0.9912 1.00777 0.996668
0.924286 0.941061 0.986697 0.995416
0.97313 0.97225 1.00707 0.993881
0.992907 1.00523 0.98852 0.999214
0.961333 0.970588 0.996366 0.994077
0.997528 0.998509 1.00194 0.99708
1.00455 1.00789 0.997801 0.998883
0.996577 0.99658 1.00123 0.998769
0.984095 1.00111 0.984015 0.998972
0.987062 1.00192 0.986189 0.998968
1.00404 1.01366 0.991482 0.999026
0.999383 1.00214 0.998386 0.998857
1.00277 1.0059 0.997724 0.999163
1.00921 1.01231 0.99772 0.999211
1.00423 1.00533 1 0.998903
1.0063 1.00719 0.999994 0.999121
1.00414 1.00502 0.999987 0.999138
1.00074 1.0018 1 0.998938
1.00073 1.00164 1 0.999086
1.00005 1.00098 1 0.999073
0.999196 1.0001 1 0.999095
0.999009 1 1 0.999006
0.999162 1.00014 1 0.999019
0.998952 1 1 0.998952
0.99894 1 1 0.99894
0.998987 1 1 0.998987
0.998889 1 1 0.998889
0.998817 1 1 0.998817
0.999267 1 1 0.999267
0.999078 1 1 0.999078
0.998951 1 1 0.998951
0.999614 1 1 0.999614
0.999355 1 1 0.999355
0.9992 1 1 0.9992
0.999988 1 1 0.999988
0.999666 1 1 0.999666
0.999411 1 1 0.999411
1 1 1 1
0.999996 1 1 0.999996
0.999733 1 1 0.999733
1 1 1 1
1 1 1 1
1 1 1 1
0.999358 1 1 0.999358
0.999416 1 1 0.999416
0.999501 1 1 0.999501
0.99943 1 1 0.99943
0.999552 1 1 0.999552
0.999832 1 1 0.999832
0.999605 1 1 0.999605
0.999889 1 1 0.999889
1 1 1 1
1 1 1 1
1 1 1 1
0.999922 1 1 0.999922
1 1 1 1
1 1 1 1
1 1 1 1
0.9651 0.972691 0.998211 0.993974
0.923904 0.944788 0.981727 0.996097
0.95334 0.958496 0.997075 0.997539
0.999309 1 1 0.999309
0.999383 1 1 0.999383
0.999315 1 1 0.999315
0.999336 1 1 0.999336
0.999261 1 1 0.999261
0.999312 1 1 0.999312
0.999289 1 1 0.999289
0.999241 1 1 0.999241
0.999269 1 1 0.999269
0.999193 1 1 0.999193
0.999537 1.00045 1 0.999084
0.998893 1.00016 1.00011 0.998615
0.999194 1.00006 1.00006 0.999075
0.999382 1 1 0.999382
0.987591 0.993965 0.995865 0.997712
0.968542 0.974248 1.00043 0.993719
0.916704 0.939849 0.979987 0.995293
0.97426 0.97403 1.00669 0.993587
0.985369 0.988004 0.998423 0.998908
0.992428 0.997044 0.996775 0.99859
0.996701 1.00479 0.993039 0.998905
1.00287 1.00067 1.00337 0.998827
1.00496 1 1.00563 0.999338
0.998175 1.00112 0.997932 0.999124
0.983214 0.986386 0.999378 0.997405
0.958436 0.969373 0.994413 0.994272
0.922293 0.942921 0.981782 0.996274
0.991635 1.00592 0.986593 0.999197
1.003 0.99972 1.00536 0.997932
0.961429 0.970445 0.995586 0.995102
0.998783 1.00628 0.99364 0.998901
0.994404 0.996616 0.999446 0.998334
1.00845 1.01807 0.991735 0.998811
1.01247 1.01376 0.99995 0.998775
0.990209 1.00176 0.98952 0.998938
1.00488 1.01326 0.992697 0.999023
1.01205 1.01618 0.996929 0.999009
1.00166 1.00478 0.997734 0.999155
1.0096 1.01227 0.998151 0.999203
1.00678 1.00842 0.999353 0.999017
1.00652 1.00742 1 0.999108
1.00345 1.00432 1 0.999128
1.00154 1.00259 1 0.99896
1.00066 1.00158 1 0.999076
0.999929 1.00085 1 0.999083
0.999062 1.00011 1 0.998952
0.999157 1.00004 1 0.999121
0.999031 1.00001 1 0.99902
0.998941 1 1 0.998941
0.998947 1 1 0.998947
0.998936 1 1 0.998936
0.99899 1 1 0.99899
0.999156 1 1 0.999156
0.999002 1 1 0.999002
0.998885 1 1 0.998885
0.999546 1 1 0.999546
0.999266 1 1 0.999266
0.999094 1 1 0.999094
0.999966 1 1 0.999966
0.999614 1 1 0.999614
0.999353 1 1 0.999353
1 1 1 1
0.999982 1 1 0.999982
0.999667 1 1 0.999667
1 1 1 1
0.999994 1 1 0.999994
1 1 1 1
0.999294 1 1 0.999294
0.999366 1 1 0.999366
0.999451 1 1 0.999451
0.999417 1 1 0.999417
0.999494 1 1 0.999494
0.999759 1 1 0.999759
0.999539 1 1 0.999539
0.999833 1 1 0.999833
1 1 1 1
0.99989 1 1 0.99989
1 1 1 1
1 1 1 1
1 1 1 1
1 1 1 1
1 1 1 1
0.98088 0.986272 0.996792 0.997734
0.958718 0.96996 0.994528 0.993849
0.92197 0.945051 0.980155 0.995329
0.999149 1 1 0.999149
0.999321 1 1 0.999321
0.999337 1 1 0.999337
0.999308 1 1 0.999308
0.999255 1 1 0.999255
0.999333 1 1 0.999333
0.999214 1 1 0.999214
0.999257 1 1 0.999257
0.999219 1 1 0.999219
0.999359 1.00025 1 0.99911
0.999413 1.00066 1 0.998752
1.00374 1.00541 1 0.998337
0.998944 1.00021 1.00013 0.998609
0.999218 1.00012 1 0.999097
1.00058 1.00588 0.995595 0.99914
0.988858 0.995332 0.996257 0.997229
0.971403 0.976093 1.00056 0.994635
0.994 0.997583 0.998779 0.997627
1.00158 1.00642 0.996249 0.998932
1.00143 1.0002 1.00231 0.998918
1.00497 1.00601 0.999973 0.998993
0.983867 0.985341 1.00026 0.998249
0.956221 0.969471 0.992324 0.993963
0.992323 1.00444 0.989006 0.998917
0.993227 0.99638 0.998987 0.997846
1.00951 1.01842 0.992438 0.9988
1.01098 1.01199 1.00014 0.998867
1.01957 1.02186 0.99901 0.998751
1.01201 1.01351 0.999844 0.998672
1.00558 1.01263 0.994004 0.99902
1.01337 1.01716 0.997258 0.999017
1.00601 1.00733 0.999819 0.998869
1.00999 1.01226 0.998563 0.999195
1.00764 1.00909 0.999547 0.999015
1.00211 1.0033 1 0.99881
1.00278 1.00366 1 0.999117
1.00151 1.00253 1 0.998982
0.999697 1.00088 1 0.998817
0.999834 1.00074 1 0.999093
0.999135 1.00018 1 0.998952
0.998886 1.00001 1 0.998875
0.999061 1.00003 1 0.999034
0.998945 1 1 0.998945
0.998944 1 1 0.998944
0.998932 1 1 0.998932
0.998979 1 1 0.998979
0.99911 1 1 0.99911
0.999467 1 1 0.999467
0.999173 1 1 0.999173
0.999018 1 1 0.999018
0.999933 1 1 0.999933
0.999545 1 1 0.999545
0.999265 1 1 0.999265
1 1 1 1
0.999958 1 1 0.999958
0.999614 1 1 0.999614
1 1 1 1
0.999976 1 1 0.999976
1 1 1 1
0.99919 1 1 0.99919
0.999296 1 1 0.999296
0.9994 1 1 0.9994
0.999375 1 1 0.999375
0.999457 1 1 0.999457
0.999691 1 1 0.999691
0.999488 1 1 0.999488
0.999758 1 1 0.999758
1 1 1 1
0.999833 1 1 0.999833
1 1 1 1
1 1 1 1
1 1 1 1
1 1 1 1
1 1 1 1
1.00539 1.00908 0.997094 0.999245
0.980828 0.987573 0.996359 0.9968
0.962657 0.969993 0.998357 0.994071
0.99919 1 1 0.99919
0.998944 1 1 0.998944
0.999164 1 1 0.999164
0.999304 1 1 0.999304
0.99925 1 1 0.99925
0.999308 1 1 0.999308
1.00054 1.00168 1 0.998859
0.999244 1 1 0.999244
0.999136 1 1 0.999136
0.999651 1.00088 1 0.998777
1.0023 1.0039 1 0.9984
1.00882 1.0107 0.999519 0.998616
1.00256 1.00422 1 0.998349
0.998909 1.00031 1 0.998603
1.00358 1.0086 0.995843 0.99918
0.987234 0.994802 0.995737 0.99664
1.00478 1.00768 0.998166 0.998958
1.00818 1.00916 0.99995 0.999076
1.00412 1.00496 1.00013 0.999038
0.980847 0.98512 0.998495 0.997162
1.0107 1.01914 0.992919 0.99879
1.00892 1.0101 0.99987 0.998959
1.01928 1.02194 0.99862 0.99878
1.01336 1.01473 0.999941 0.998702
1.00878 1.01029 0.999762 0.998752
1.01076 1.0119 1 0.998873
1.01466 1.01824 0.997458 0.999026
1.00578 1.00731 0.999605 0.998875
1.00418 1.00547 1 0.998719
1.00837 1.00963 0.99974 0.999013
1.002 1.00318 1 0.99882
1.00174 1.00303 1 0.998708
1.00147 1.00247 1 0.999004
0.999733 1.00092 1 0.998815
0.998907 1.00014 1 0.998768
0.999196 1.00024 1 0.998951
0.998898 1.00002 1 0.998874
0.998878 1 1 0.998878
0.99895 1 1 0.99895
0.998945 1 1 0.998945
0.999058 1 1 0.999058
0.998969 1 1 0.998969
0.999105 1 1 0.999105
0.999399 1 1 0.999399
0.999895 1 1 0.999895
0.999466 1 1 0.999466
0.99919 1 1 0.99919
1 1 1 1
0.999924 1 1 0.999924
0.999544 1 1 0.999544
1 1 1 1
0.99995 1 1 0.99995
1 1 1 1
0.999023 1 1 0.999023
0.999173 1 1 0.999173
0.999311 1 1 0.999311
0.999298 1 1 0.999298
0.999402 1 1 0.999402
0.999634 1 1 0.999634
0.999462 1 1 0.999462
0.999691 1 1 0.999691
0.999989 1 1 0.999989
0.999758 1 1 0.999758
1 1 1 1
1 1 1 1
1 1 1 1
1 1 1 1
1 1 1 1
1.00731 1.009 0.999372 0.998948
1.00449 1.00827 0.997076 0.999174
0.980365 0.986214 0.996561 0.997499
1.00051 1.00162 1 0.998892
0.999276 1 1 0.999276
0.999166 1.0004 1 0.998771
0.998934 1 1 0.998934
0.99918 1 1 0.99918
1.0054 1.00689 1 0.998518
0.999284 1 1 0.999284
1.00046 1.00162 1 0.998838
1.00582 1.00732 1 0.998508
0.999826 1.00103 1 0.998802
1.00312 1.00475 1 0.998375
1.00665 1.00842 0.999626 0.998613
1.00084 1.00249 1 0.99836
1.00588 1.01054 0.996163 0.999221
1.01004 1.01106 1 0.998991
1.00832 1.00929 0.999967 0.999072
1.00375 1.0039 1.00076 0.999083
1.01922 1.02217 0.998298 0.998809
1.01484 1.01613 1 0.998731
1.0092 1.01063 0.999831 0.998756
1.01111 1.01225 1 0.99888
1.00861 1.00982 1 0.9988
1.00562 1.00733 0.999429 0.99888
1.00398 1.00526 1 0.998724
1.00506 1.00639 1 0.998671
1.00192 1.00309 1 0.99883
1.00136 1.00266 1 0.998703
0.999763 1.00109 1 0.998675
0.999768 1.00096 1 0.998813
0.999044 1.00028 1 0.998765
0.998789 1 1 0.998789
0.998912 1.00004 1 0.998873
0.998877 1 1 0.998877
0.998981 1 1 0.998981
0.998947 1 1 0.998947
0.999059 1 1 0.999059
0.999334 1 1 0.999334
0.9991 1 1 0.9991
0.999398 1 1 0.999398
0.999869 1 1 0.999869
0.99999 1 1 0.99999
0.99989 1 1 0.99989
0.999466 1 1 0.999466
1 1 1 1
0.999915 1 1 0.999915
1 1 1 1
0.999523 1.00072 1 0.998806
0.998923 1 1 0.998923
0.999006 1 1 0.999006
0.999217 1 1 0.999217
0.999155 1 1 0.999155
0.999314 1 1 0.999314
0.999578 1 1 0.999578
0.999403 1 1 0.999403
0.999634 1 1 0.999634
0.999963 1 1 0.999963
0.99969 1 1 0.99969
0.999993 1 1 0.999993
1 1 1 1
1 1 1 1
1 1 1 1
1 1 1 1
1.00832 1.00953 1 0.998802
1.00972 1.01124 0.999504 0.998998
1.00468 1.00854 0.997069 0.999101
1.00293 1.00433 1 0.998613
0.999933 1.00098 1 0.998954
0.999362 1 1 0.999362
0.999338 1.00054 1 0.998795
0.998923 1 1 0.998923
1.01049 1.01204 1 0.99847
1.00508 1.0066 1 0.998489
1.00042 1.0016 1 0.998816
1.0065 1.00801 1 0.9985
1.00449 1.00614 1 0.998351
1.00606 1.0078 0.999663 0.998612
1.01194 1.01307 1 0.998884
1.00966 1.01069 1 0.998984
1.00859 1.00955 0.999985 0.999068
1.00949 1.01084 0.999904 0.998759
1.01164 1.01277 1 0.998888
1.00932 1.01053 1 0.998808
1.00937 1.01066 1 0.998717
1.0038 1.00507 1 0.998729
1.00443 1.00577 1 0.998667
1.00237 1.00374 1 0.998644
1.00099 1.00229 1 0.998698
1.0001 1.00143 1 0.998675
0.998783 1.00007 1 0.998713
0.999178 1.00042 1 0.998763
0.998788 1 1 0.998788
0.9989 1 1 0.9989
0.998877 1 1 0.998877
0.998981 1 1 0.998981
0.999258 1 1 0.999258
0.99906 1 1 0.99906
0.999333 1 1 0.999333
0.99985 1 1 0.99985
0.999398 1 1 0.999398
0.999864 1 1 0.999864
0.999986 1 1 0.999986
0.999995 1 1 0.999995
0.999885 1 1 0.999885
1 1 1 1
1.00083 1.0022 1 0.998636
0.998906 1 1 0.998906
0.99939 1.0005 1 0.998894
0.999106 1 1 0.999106
0.998921 1 1 0.998921
0.998988 1 1 0.998988
0.999218 1 1 0.999218
0.999507 1 1 0.999507
0.999317 1 1 0.999317
0.999579 1 1 0.999579
0.999933 1 1 0.999933
0.999635 1 1 0.999635
0.999971 1 1 0.999971
1 1 1 1
0.999997 1 1 0.999997
1 1 1 1
1 1 1 1
1.01181 1.01315 1 0.998683
1.00801 1.00922 1 0.998799
1.01096 1.01222 0.999708 0.999047
1.00744 1.00894 1 0.998513
1.00269 1.00408 1 0.998615
0.999378 1.00036 1 0.999017
0.99952 1.0007 1 0.998819
1.01023 1.01178 1 0.998468
1.00472 1.00627 1 0.998461
1.00627 1.00779 1 0.998493
1.01122 1.01247 1 0.998767
1.01183 1.01299 1 0.998856
1.00891 1.00995 1 0.998976
1.01028 1.01162 1 0.99868
1.0099 1.01109 1 0.998816
1.00929 1.01059 1 0.998717
1.00586 1.00721 1 0.998664
1.0038 1.00515 1 0.998664
1.00267 1.00403 1 0.998646
0.99937 1.0007 1 0.998667
1.00043 1.00176 1 0.998674
0.998922 1.00021 1 0.998713
0.998835 1 1 0.998835
0.998786 1 1 0.998786
0.998899 1 1 0.998899
0.999183 1 1 0.999183
0.998981 1 1 0.998981
0.999256 1 1 0.999256
0.999832 1 1 0.999832
0.999332 1 1 0.999332
0.999845 1 1 0.999845
0.999983 1 1 0.999983
0.999859 1 1 0.999859
0.999987 1 1 0.999987
1 1 1 1
1.00224 1.00371 1 0.998539
0.998891 1.00016 1 0.998731
1.0004 1.00173 1 0.998667
0.999038 1 1 0.999038
0.998905 1 1 0.998905
0.999257 1.00028 1 0.998981
0.999401 1 1 0.999401
0.999105 1 1 0.999105
0.998919 1 1 0.998919
0.999219 1 1 0.999219
0.999509 1 1 0.999509
0.999898 1 1 0.999898
0.99958 1 1 0.99958
0.999941 1 1 0.999941
1 1 1 1
0.99998 1 1 0.99998
1 1 1 1
1 1 1 1
1.00992 1.0113 1 0.998637
1.01188 1.01323 1 0.998664
1.00833 1.00954 1 0.998797
1.00746 1.00896 1 0.998513
1.00241 1.0038 1 0.998617
1.01002 1.01157 1 0.998466
1.00998 1.01132 1 0.998678
1.01144 1.01269 1 0.998765
1.0119 1.01309 1 0.998829
1.01042 1.01175 1 0.998685
1.00754 1.00891 1 0.99864
1.00922 1.01052 1 0.998717
1.00597 1.00732 1 0.998661
1.00071 1.00205 1 0.998657
1.00297 1.00433 1 0.998647
0.999738 1.00107 1 0.998669
0.998781 1 1 0.998781
0.999074 1.00036 1 0.998713
0.998834 1 1 0.998834
0.999132 1 1 0.999132
0.998899 1 1 0.998899
0.999182 1 1 0.999182
0.99981 1 1 0.99981
0.999254 1 1 0.999254
0.999826 1 1 0.999826
0.999978 1 1 0.999978
0.999841 1 1 0.999841
0.999985 1 1 0.999985
0.999988 1 1 0.999988
1.00462 1.00601 1 0.998619
0.999064 1.00045 1 0.998614
1.00189 1.00336 1 0.998533
0.998895 1 1 0.998895
0.998855 1.00011 1 0.998742
1 1.0013 1 0.998698
0.999291 1 1 0.999291
0.999009 1 1 0.999009
0.998904 1 1 0.998904
0.999854 1 1 0.999854
0.999403 1 1 0.999403
0.999103 1 1 0.999103
0.99951 1 1 0.99951
0.999906 1 1 0.999906
1 1 1 1
0.999949 1 1 0.999949
1 1 1 1
1 1 1 1
1.00856 1.00995 1 0.998625
1.00994 1.01132 1 0.998633
1.01185 1.01322 1 0.998646
1.00752 1.00902 1 0.998513
1.00798 1.00937 1 0.998614
1.01034 1.01167 1 0.998684
1.01165 1.01291 1 0.998763
1.01053 1.01185 1 0.998689
1.00749 1.00886 1 0.998642
1.00195 1.00331 1 0.998648
1.00608 1.00743 1 0.998657
1.00097 1.00231 1 0.998662
0.998804 1.00007 1 0.998735
1.0001 1.00143 1 0.998671
0.998787 1.00001 1 0.998781
0.999087 1 1 0.999087
0.998834 1 1 0.998834
0.999131 1 1 0.999131
0.999776 1 1 0.999776
0.999181 1 1 0.999181
0.9998 1 1 0.9998
1 1 1 1
0.999821 1 1 0.999821
0.999981 1 1 0.999981
0.999986 1 1 0.999986
1.00469 1.00606 1 0.998641
0.99958 1.00094 1 0.998639
1.00465 1.00604 1 0.998622
0.998759 1 1 0.998759
0.998984 1.00036 1 0.998628
1.0015 1.00298 1 0.998527
0.999146 1 1 0.999146
0.998894 1 1 0.998894
0.998814 1.00006 1 0.998753
0.99981 1 1 0.99981
0.999266 1 1 0.999266
0.998979 1 1 0.998979
1 1 1 1
0.999863 1 1 0.999863
0.999405 1 1 0.999405
0.999914 1 1 0.999914
1 1 1 1
1 1 1 1
1.00706 1.00845 1 0.998617
1.00898 1.01036 1 0.998633
1.00994 1.01133 1 0.998629
1.00261 1.00401 1 0.998603
1.00757 1.00897 1 0.998613
1.01071 1.01204 1 0.998689
1.00746 1.00883 1 0.998644
1.00197 1.00333 1 0.998648
0.999084 1.00034 1 0.998741
1.00122 1.00256 1 0.998667
0.998843 1.00008 1 0.99876
0.998993 1 1 0.998993
0.998793 1.00001 1 0.998782
0.999087 1 1 0.999087
0.999747 1 1 0.999747
0.99913 1 1 0.99913
0.999774 1 1 0.999774
1 1 1 1
0.999788 1 1 0.999788
0.999987 1 1 0.999987
0.999983 1 1 0.999983
1.00313 1.00449 1 0.998646
0.999587 1.00091 1 0.998675
1.00469 1.00605 1 0.998642
0.998767 1 1 0.998767
0.999753 1.00111 1 0.998643
1.00471 1.00609 1 0.998626
0.999064 1 1 0.999064
0.998791 1 1 0.998791
0.998903 1.00026 1 0.998643
0.99978 1 1 0.99978
0.999135 1 1 0.999135
0.998893 1 1 0.998893
1 1 1 1
0.999818 1 1 0.999818
0.99924 1 1 0.99924
1 1 1 1
0.999872 1 1 0.999872
1 1 1 1
1.00237 1.00376 1 0.998622
1.00669 1.00808 1 0.998618
1.00942 1.0108 1 0.998641
0.998952 1.00025 1 0.998703
1.00255 1.00395 1 0.998607
1.0072 1.0086 1 0.998611
1.002 1.00336 1 0.998648
0.999071 1.00033 1 0.998741
0.998943 1 1 0.998943
0.998881 1.0001 1 0.998785
0.999017 1 1 0.999017
0.999697 1 1 0.999697
0.999087 1 1 0.999087
0.999744 1 1 0.999744
1 1 1 1
0.999773 1 1 0.999773
1 1 1 1
0.999978 1 1 0.999978
0.999896 1.00122 1 0.998682
1.00301 1.00437 1 0.998646
0.998767 1 1 0.998767
0.999678 1.001 1 0.998675
1.00467 1.00603 1 0.998643
0.999068 1 1 0.999068
0.998765 1 1 0.998765
0.999922 1.00128 1 0.998647
0.999759 1 1 0.999759
0.999081 1 1 0.999081
0.998822 1 1 0.998822
1 1 1 1
0.999785 1 1 0.999785
0.999124 1 1 0.999124
1 1 1 1
0.999826 1 1 0.999826
1 1 1 1
0.99882 1.00009 1 0.998727
1.00222 1.0036 1 0.998624
1.00627 1.00766 1 0.998619
0.99892 1 1 0.99892
0.998943 1.00024 1 0.998703
1.00246 1.00385 1 0.998612
0.999057 1.00032 1 0.998741
0.998949 1 1 0.998949
0.999648 1 1 0.999648
0.999041 1 1 0.999041
0.999693 1 1 0.999693
1 1 1 1
0.999742 1 1 0.999742
1 1 1 1
1 1 1 1
0.998752 1 1 0.998752
0.999835 1.00116 1 0.998676
1.00291 1.00427 1 0.998645
0.999046 1 1 0.999046
0.998766 1 1 0.998766
0.99977 1.0011 1 0.998674
0.999735 1 1 0.999735
0.999067 1 1 0.999067
0.998763 1 1 0.998763
1 1 1 1
0.999761 1 1 0.999761
0.999098 1 1 0.999098
1 1 1 1
0.99979 1 1 0.99979
1 1 1 1
0.998971 1 1 0.998971
0.998796 1.00009 1 0.998703
1.00209 1.00347 1 0.998626
0.999627 1 1 0.999627
0.998922 1 1 0.998922
0.998935 1.00023 1 0.998703
0.998954 1 1 0.998954
0.999646 1 1 0.999646
1 1 1 1
0.99969 1 1 0.99969
1 1 1 1
1 1 1 1
0.999011 1 1 0.999011
0.998743 1 1 0.998743
0.999775 1.00111 1 0.99867
0.999735 1 1 0.999735
0.999045 1 1 0.999045
0.998764 1 1 0.998764
1 1 1 1
0.999736 1 1 0.999736
0.999066 1 1 0.999066
1 1 1 1
0.999764 1 1 0.999764
1 1 1 1
0.999625 1 1 0.999625
0.998953 1 1 0.998953
0.998773 1.00009 1 0.998679
1 1 1 1
0.999626 1 1 0.999626
0.998923 1 1 0.998923
0.999644 1 1 0.999644
1 1 1 1
1 1 1 1
0.999695 1 1 0.999695
0.999011 1 1 0.999011
0.998733 1 1 0.998733
1 1 1 1
0.999706 1 1 0.999706
0.999043 1 1 0.999043
1 1 1 1
0.999737 1 1 0.999737
1 1 1 1
0.999915 1 1 0.999915
0.999655 1 1 0.999655
0.998935 1 1 0.998935
1 1 1 1
0.999626 1 1 0.999626
1 1 1 1
0.999931 1 1 0.999931
0.999684 1 1 0.999684
0.999011 1 1 0.999011
0.999971 1 1 0.999971
0.999704 1 1 0.999704
1 1 1 1
1 1 1 1
0.999635 1 1 0.999635
1 1 1 1
0.999962 1 1 0.999962
0.999667 1 1 0.999667
1 1 1 1
1 1 1 1
1 1 1 1

VECTORS lamdaE float
0.99922 1.00027 0.996258
0.999294 0.999661 0.998459
0.999093 1.00043 0.996355
0.999641 0.99994 0.996051
0.999363 1.0002 0.996178
0.999206 1.00005 0.996425
1.00016 1.00075 0.993906
0.999296 0.999537 0.998507
0.999267 1.00036 0.998369
0.999015 1.00013 0.998544
0.999395 0.999206 0.996984
0.999989 1.00073 0.993927
0.999821 1.00001 0.99564
0.999499 0.999899 0.996073
0.998953 1.00065 0.996436
0.999519 0.99992 0.996164
0.999098 1.00019 0.996505
0.999215 1.00032 0.996281
1.00024 1.00068 0.993892
0.999768 1 0.998045
0.999678 0.999964 0.995942
0.999545 1.00002 0.996105
1.00087 0.999909 0.993546
1.00049 1.00039 0.99371
0.999309 0.999529 0.99673
0.999828 1.00096 0.994222
1.00193 1.00097 0.990586
0.999287 0.999409 0.998563
0.999352 1.00023 0.997193
0.999122 1.00012 0.997465
0.999358 0.999034 0.998658
0.999898 1.00083 0.993935
0.999623 1.00001 0.995938
0.99933 1.00045 0.996185
1.00082 1.00032 0.993882
0.999326 0.998443 0.998959
1.00023 1.00071 0.994474
0.999817 1.00054 0.994394
1.0009 1.0019 0.991111
0.999425 0.997867 0.999133
0.999813 1 0.998004
0.999598 0.999968 0.997093
0.999864 1 0.99796
0.999527 0.999993 0.995989
1.00124 1.00005 0.992212
0.999524 0.999999 0.998317
1.00113 0.999961 0.993651
0.999397 0.999884 0.996275
0.999075 1.00046 0.996372
0.998977 1.00037 0.9966
1.00033 1.00056 0.993885
0.999711 1.00001 0.996943
0.999556 0.999937 0.996072
0.999218 0.999609 0.99681
0.999407 1.00007 0.996212
1.00092 0.999879 0.993501
0.999915 1.00089 0.99422
1.00057 1.00033 0.993685
1.00199 1.00101 0.990505
0.999808 1.00001 0.998004
0.999755 1 0.995759
1.00111 1.00001 0.993562
1.00089 0.999948 0.993443
1.00076 1.00006 0.99358
1.00304 0.999794 0.989755
1.00251 1.00033 0.989889
0.999486 0.99881 0.99713
0.999513 1.00088 0.994802
1.00119 1.00161 0.991214
1.0029 1.00101 0.988285
0.999425 1.00021 0.998237
0.999355 0.998846 0.998763
0.999212 0.999892 0.998432
0.999816 1.00093 0.993942
0.99965 1.00008 0.998167
0.999324 1.00028 0.998288
1.00071 1.00031 0.992867
0.999365 0.998528 0.998191
1.00007 1.00082 0.993587
0.999749 1.00053 0.994905
1.0009 1.00187 0.991105
0.999426 0.998165 0.999006
0.999602 0.999073 0.996275
1.00104 0.999965 0.992663
1.0005 1.0006 0.993109
1.0028 1.00036 0.989071
0.999653 1.00002 0.995917
1.00147 1.0014 0.990563
1.00045 1.00226 0.991609
1.00149 1.00218 0.989643
0.999464 0.997554 0.99922
0.999406 0.997813 0.999165
0.999695 0.999976 0.998143
0.999781 1 0.998037
0.999856 1 0.997971
0.999639 0.999994 0.997013
1.00124 1.00003 0.992824
0.999597 0.999964 0.997118
1.00109 0.999985 0.993144
0.999871 1 0.997962
1.00127 0.999987 0.992166
1.00119 1.00005 0.993499
1.00347 0.999861 0.988337
1.0011 0.999906 0.993727
1.00328 0.99984 0.988729
0.999791 1.00002 0.995704
0.99943 0.999884 0.996204
0.999125 0.99966 0.996907
0.999274 1.00012 0.996313
1.00098 0.999868 0.993456
1.00064 1.00025 0.993666
1.00001 1.00078 0.99421
1.00205 1.00106 0.990424
0.999844 1 0.997982
0.999617 0.999994 0.995901
1.00118 1 0.992636
1.00095 0.999916 0.9934
0.999402 0.998838 0.997935
0.999658 1.00078 0.994924
1.00082 1.00002 0.993543
1.00305 0.999776 0.989637
1.00128 1.00166 0.991109
1.00253 1.00041 0.98997
1.00288 1.00102 0.988293
1.00124 1.00002 0.992216
1.00101 0.999986 0.993186
1.00339 0.999804 0.988831
1.00306 0.99981 0.989418
1.00295 0.999897 0.989565
1.00413 0.999448 0.987809
0.99947 0.998315 0.998918
1.00352 1.00026 0.987867
0.999625 1.00046 0.99479
1.00046 1.00205 0.99162
1.00218 1.00194 0.988818
1.00355 1.0008 0.987286
0.999675 0.99953 0.995603
1.00011 1.00131 0.993104
0.999603 1.0001 0.998178
0.999235 1.00018 0.99834
1.0007 1.00029 0.992878
0.999384 0.998388 0.998952
0.999651 1.00064 0.99453
1 1.00091 0.993579
1.00089 1.00185 0.991098
0.999399 0.99811 0.999051
0.999604 0.999012 0.996306
1.00103 0.999986 0.993219
1.00042 1.0006 0.993672
1.0028 1.00034 0.989081
0.999622 1.00001 0.995283
1.00144 1.00139 0.990581
1.00042 1.00226 0.991607
1.0015 1.00218 0.989582
0.999578 0.999569 0.995806
0.999685 0.998594 0.996616
0.999995 1.00092 0.993683
1.00318 0.999967 0.98875
1.00214 1.00092 0.989769
1.00387 1.00024 0.987215
1.00026 1.00198 0.992232
1.00219 1.0015 0.988962
1.00093 1.003 0.990042
1.00168 1.00245 0.989091
0.999548 0.997248 0.999269
0.999464 0.997493 0.999238
0.999391 0.99775 0.999195
0.99971 0.999123 0.995965
0.999485 0.998043 0.99903
0.99969 1 0.998157
0.999711 0.999984 0.998105
1.00105 0.999982 0.992617
1.00118 1.00004 0.992293
0.999833 1 0.997986
0.999868 1 0.997958
1.00127 0.999998 0.99217
1.00113 1.00005 0.993009
1.00347 0.999861 0.988339
1.00106 0.999889 0.992664
1.00327 0.999849 0.98873
1.00129 0.999984 0.992136
1.00358 0.999812 0.988166
1.00333 0.999885 0.988583
1.00454 0.999494 0.986741
1.00329 0.999817 0.988722
1.00435 0.999514 0.98711
0.999859 0.999999 0.997964
0.999479 0.999983 0.996048
1.00119 0.999992 0.991775
1.00101 0.999913 0.993356
0.999263 0.998811 0.998813
0.99981 1.0007 0.995038
1.00088 0.999991 0.993509
1.00306 0.99975 0.989518
1.00255 1.00048 0.99005
1.00137 1.00174 0.991003
1.00287 1.00103 0.988301
1.00124 1 0.99221
1.00106 0.999986 0.993138
1.00339 0.999782 0.98858
1.00308 0.99984 0.989523
0.999461 0.99838 0.998876
0.999672 1.00038 0.995159
1.00057 1.00208 0.991717
1.00293 0.999942 0.989559
1.00414 0.999363 0.987672
1.00208 1.00194 0.988807
1.00353 1.0003 0.987976
1.00353 1.0008 0.9873
0.999657 0.999597 0.99559
1.00012 1.00127 0.993099
1.00357 0.999797 0.988203
1.00326 0.99983 0.989042
1.00446 0.999486 0.98719
1.00417 0.999414 0.987351
1.004 0.999644 0.987782
1.00469 0.998907 0.987171
0.999651 0.999989 0.995173
1.00423 0.999795 0.98704
1.00023 1.00206 0.992056
1.00114 1.00255 0.9897
1.00281 1.00205 0.987841
1.00405 1.00025 0.986962
1.00018 1.00173 0.992595
1.00012 1.00076 0.993635
1.00034 1.00232 0.991708
1.00098 0.999978 0.992709
0.999377 0.998063 0.999094
0.999603 0.998959 0.996337
1.00029 1.0007 0.993221
1.00281 1.00033 0.98909
0.999601 1.00001 0.995242
1.00038 1.00226 0.991606
1.00142 1.00138 0.990599
1.00151 1.00217 0.989521
0.999586 0.999497 0.995832
0.999677 0.998567 0.996636
0.999979 1.00095 0.993694
1.00318 0.999977 0.988748
1.00212 1.00092 0.989794
1.00389 1.00024 0.987205
1.00021 1.00202 0.992236
1.00223 1.00152 0.988995
1.00092 1.003 0.990031
1.00167 1.00244 0.989057
0.999774 0.998235 0.996809
1.00012 1.00149 0.992905
0.999976 1.00026 0.994392
1.00018 1.00209 0.992247
1.00426 0.999726 0.986992
1.00307 1.00098 0.988005
1.00454 0.999886 0.98634
1.00057 1.00296 0.990789
1.00263 1.00147 0.988371
1.00099 1.00382 0.988992
1.00193 1.00222 0.988654
1.0002 0.999211 0.995056
0.999929 0.997772 0.996972
0.999648 0.996981 0.999298
0.999559 0.997194 0.999279
0.999467 0.997429 0.999254
0.999772 0.9988 0.996196
0.999502 0.997811 0.999105
0.999702 0.999182 0.995943
0.999496 0.998081 0.998995
1.00107 0.999892 0.992661
1.00109 1.00004 0.992475
1.00326 0.999855 0.988731
1.00347 0.999862 0.98834
1.00127 1.00001 0.992173
0.999875 1 0.997957
1.00129 0.999987 0.992134
1.00358 0.999816 0.988166
1.00332 0.999894 0.988584
1.00455 0.999496 0.986735
1.00328 0.99983 0.988716
1.00435 0.999512 0.987109
1.00361 0.999795 0.988137
1.00467 0.999411 0.986596
1.0044 0.999566 0.986951
1.00499 0.998932 0.986486
1.00437 0.999482 0.987081
1.00485 0.999081 0.986604
1.00126 0.999986 0.992202
1.00112 0.999981 0.993088
1.00338 0.999752 0.98833
1.0031 0.999855 0.989628
0.999455 0.998446 0.998833
0.999732 1.00036 0.995494
1.00069 1.00209 0.991813
1.00291 0.999982 0.989552
1.00415 0.999273 0.987534
1.00353 1.00033 0.988086
1.00198 1.00193 0.988797
1.00352 1.00079 0.987313
0.999644 0.999659 0.995575
1.00014 1.00122 0.993095
1.00355 0.999774 0.988128
1.00327 0.999833 0.989034
1.00448 0.999439 0.987131
1.00419 0.999473 0.987503
0.999658 1.00001 0.995172
1.00029 1.00207 0.992049
1.00114 1.00253 0.989841
1.004 0.999696 0.987798
1.00469 0.998825 0.987144
1.00275 1.00203 0.987705
1.0042 0.999792 0.987051
1.004 1.00021 0.986984
1.00019 1.00167 0.992604
1.00032 1.00231 0.991721
1.00012 1.00076 0.993624
1.00461 0.999476 0.986907
1.00441 0.999465 0.987186
1.00498 0.998967 0.986595
1.00475 0.99899 0.986868
1.00463 0.998993 0.987033
1.00498 0.998321 0.987163
1.0002 1.00192 0.992322
1.00464 0.999085 0.986879
1.00072 1.00254 0.990776
1.00156 1.00307 0.98846
1.00318 1.00187 0.987106
1.00433 0.999574 0.987268
1.00015 1.00036 0.993992
1.00046 1.00229 0.991521
1.00027 1.00199 0.992117
1.00037 1.00281 0.991228
1.00318 0.999984 0.988746
0.999666 0.998545 0.996656
0.999599 0.999413 0.995856
0.999979 1.00095 0.993705
1.00209 1.00091 0.989819
1.00389 1.00024 0.987196
1.00016 1.00207 0.992242
1.0009 1.003 0.990019
1.00227 1.00154 0.989029
1.00166 1.00241 0.989023
0.999765 0.998226 0.996816
1.00011 1.00152 0.992906
0.999987 1.00023 0.994408
1.00016 1.00214 0.992238
1.00428 0.999727 0.986981
1.00304 1.00099 0.988018
1.00452 0.999906 0.986337
1.00052 1.00296 0.990806
1.00266 1.00149 0.98841
1.00102 1.00391 0.988948
1.00189 1.00207 0.988931
0.999856 0.997973 0.996913
1.00005 0.999743 0.994791
1.00036 1.00254 0.991553
1.00014 1.00141 0.992978
1.00008 1.00309 0.991458
1.00487 0.999339 0.986306
1.00361 1.0008 0.987151
1.00485 0.999588 0.986103
1.00055 1.00417 0.989578
1.0028 1.00124 0.988227
1.00127 1.00369 0.988099
1.00017 0.999304 0.995027
1.00024 1.0002 0.994023
1.00024 0.999154 0.995052
1.0002 0.999227 0.995051
0.999971 0.997583 0.997462
0.999916 0.99776 0.997202
0.999799 0.996784 0.998414
0.999662 0.996935 0.999306
0.999571 0.99714 0.999289
0.999841 0.998526 0.996351
0.999555 0.997574 0.999149
0.999774 0.998826 0.996179
0.999513 0.997842 0.999083
0.999693 0.999235 0.995919
0.999508 0.998127 0.998958
1.00329 0.99984 0.98871
1.00332 0.999901 0.988586
1.00433 0.999518 0.987109
1.00456 0.999498 0.986729
1.00358 0.999821 0.988166
1.00129 0.999991 0.992133
1.00361 0.999793 0.988135
1.00466 0.999414 0.986595
1.00439 0.999582 0.986945
1.005 0.998885 0.986504
1.00438 0.999472 0.987077
1.00484 0.999097 0.986599
1.00469 0.99939 0.986566
1.00507 0.998801 0.986455
1.0049 0.999024 0.986546
1.00514 0.99836 0.986794
1.00489 0.999121 0.986518
1.00499 0.998366 0.986991
1.00353 0.999751 0.988052
1.00328 0.999839 0.989025
1.0045 0.999396 0.987073
1.00421 0.999532 0.987654
0.999666 1.00003 0.995171
1.00031 1.00209 0.992041
1.00114 1.00251 0.989982
1.004 0.999749 0.987814
1.0047 0.998745 0.987117
1.00418 0.999792 0.987062
1.00268 1.00202 0.987568
1.00395 1.00016 0.987006
1.0002 1.00161 0.992613
1.00031 1.00228 0.991735
1.00012 1.00076 0.993613
1.00463 0.999447 0.986771
1.00441 0.999466 0.987177
1.00497 0.998894 0.986589
1.00477 0.999018 0.986889
1.00023 1.00189 0.992326
1.00078 1.00254 0.990749
1.0015 1.00309 0.988645
1.00461 0.999084 0.987074
1.00496 0.998254 0.987199
1.00309 1.00191 0.987021
1.00465 0.999099 0.986881
1.00432 0.999382 0.987346
1.00047 1.0023 0.991533
1.00038 1.00283 0.991171
1.00014 1.00037 0.993986
1.00025 1.00193 0.99219
1.00505 0.998922 0.986408
1.00494 0.999005 0.986684
1.00515 0.998478 0.986672
1.00505 0.998174 0.98712
1.00495 0.998388 0.987025
1.00509 0.997751 0.98744
1.00058 1.0023 0.991309
1.00486 0.9983 0.987248
1.00073 1.00326 0.989797
1.00198 1.00351 0.987507
1.0034 1.0015 0.986895
1.00471 0.998713 0.987452
1.00017 1.00011 0.994213
1.00024 1.00157 0.992565
1.00051 1.00267 0.991075
1.00026 1.00264 0.991591
1.00041 1.00293 0.991013
0.999756 0.998218 0.996823
1.0043 0.999729 0.98697
0.999998 1.0002 0.994425
1.00009 1.00158 0.992907
1.00013 1.0022 0.99223
1.00304 1.00099 0.988031
1.0045 0.999928 0.986335
1.00049 1.00293 0.990822
1.00105 1.00399 0.988905
1.0027 1.00152 0.988448
1.00187 1.00195 0.989207
0.99985 0.997967 0.996916
1.00005 0.999731 0.9948
1.00035 1.00252 0.991558
1.00013 1.00143 0.992983
1.00007 1.00318 0.991352
1.00486 0.999333 0.986291
1.0036 1.00081 0.987161
1.00481 0.999607 0.986086
1.0005 1.0042 0.989591
1.00284 1.00125 0.988267
1.00141 1.00367 0.98817
1.00011 0.99947 0.994958
1.00017 1.00077 0.993577
1.00034 1.00363 0.99051
1.00001 1.00257 0.992084
1.00012 1.00376 0.99082
1.00505 0.999003 0.986227
1.00394 1.00036 0.986974
1.00486 0.999007 0.986391
1.00048 1.00493 0.988746
1.00252 1.00231 0.987654
1.00016 0.999319 0.995025
1.00021 1.00026 0.993935
1.00023 1.00021 0.993986
1.00018 1.00088 0.993573
1.00026 1.00022 0.993969
1.00027 0.999149 0.994998
1.00023 0.999162 0.995049
1.00003 0.997445 0.99748
1.00019 0.999242 0.995046
0.99998 0.997579 0.997464
0.999898 0.996562 0.998442
0.999905 0.997751 0.997429
0.999774 0.996738 0.99887
0.999676 0.996891 0.999313
0.999905 0.998272 0.996489
0.999844 0.998542 0.996341
0.999631 0.997329 0.999185
0.999558 0.997616 0.999136
0.999774 0.998855 0.996163
0.999525 0.997873 0.99906
1.00439 0.999461 0.987074
1.00439 0.99959 0.986939
1.00483 0.999111 0.986595
1.00501 0.998838 0.986523
1.00466 0.999417 0.986594
1.00361 0.999791 0.988134
1.00469 0.99939 0.986568
1.00507 0.998805 0.986444
1.0049 0.999035 0.986542
1.00514 0.998287 0.986871
1.00487 0.999117 0.986506
1.00502 0.998293 0.987022
1.00509 0.998827 0.9864
1.00516 0.998369 0.986765
1.00506 0.998181 0.98703
1.00515 0.997883 0.987291
1.00503 0.998546 0.986717
1.0051 0.997781 0.987503
1.00464 0.999416 0.986636
1.00441 0.999475 0.987169
1.00497 0.998818 0.986583
1.00479 0.999045 0.986909
1.00026 1.00185 0.992331
1.00084 1.00253 0.990723
1.00142 1.00311 0.98883
1.00459 0.999173 0.987116
1.00495 0.998187 0.987235
1.00467 0.999113 0.986884
1.00301 1.00196 0.986936
1.0043 0.99919 0.987424
1.00046 1.00232 0.991544
1.00037 1.00288 0.991114
1.00014 1.00038 0.99398
1.00024 1.00186 0.992263
1.00504 0.998925 0.986415
1.00494 0.99902 0.986631
1.00515 0.998443 0.986688
1.00502 0.998243 0.987086
1.0006 1.00233 0.991296
1.00073 1.00319 0.98995
1.00193 1.00365 0.987478
1.00496 0.998456 0.987001
1.00508 0.997693 0.987484
1.0034 1.00152 0.986843
1.00486 0.998331 0.987239
1.00453 0.998486 0.987754
1.00054 1.00267 0.991076
1.00042 1.00295 0.991
1.00024 1.00267 0.991587
1.00017 1.0001 0.994138
1.00024 1.00153 0.992615
1.00517 0.998382 0.986731
1.00514 0.998248 0.986877
1.00513 0.997406 0.987717
1.00509 0.997692 0.987394
1.00057 1.00281 0.990794
1.00507 0.997656 0.987602
1.00061 1.00392 0.989067
1.00236 1.00381 0.986532
1.00413 1.00033 0.986805
1.00018 0.999882 0.994247
1.00023 1.00125 0.993047
1.00019 1.00227 0.99211
1.00052 1.00278 0.990966
1.00027 1.00311 0.991134
1.00053 1.00282 0.990861
0.999843 0.997963 0.99692
1.00006 0.999718 0.994808
1.00485 0.999327 0.986275
1.00012 1.00146 0.992989
1.00032 1.00251 0.991564
1.00005 1.00326 0.991247
1.00358 1.00082 0.987172
1.00476 0.999625 0.986068
1.00047 1.00425 0.989604
1.00154 1.00369 0.988241
1.00287 1.00126 0.988308
1.00011 0.999477 0.994959
1.00017 1.00076 0.993588
1.00031 1.00364 0.990527
1.00001 1.00256 0.992084
1.00009 1.00377 0.990765
1.00505 0.999047 0.986203
1.00393 1.00035 0.986962
1.00485 0.998901 0.98656
1.00048 1.00495 0.98867
1.00254 1.0025 0.9875
1.00018 1.00043 0.993904
1.00005 1.00187 0.992619
1.00035 1.0042 0.989861
0.999984 1.00353 0.991075
1.00027 1.00388 0.990376
1.0051 0.99756 0.987433
1.00411 1.00039 0.986838
1.00479 0.998083 0.987132
1.00122 1.00467 0.988245
1.00245 1.00242 0.986845
1.00015 0.999336 0.995022
1.00021 1.00025 0.993982
1.00014 1.00101 0.993338
1.00022 1.00022 0.993949
1.00026 1.00022 0.993969
1.00015 1.00089 0.993511
1.00006 1.00142 0.993205
1.00014 1.0009 0.993465
1.00029 1.00025 0.993911
1.00027 0.999211 0.994918
1.00026 0.999154 0.994998
1.00008 0.997378 0.997451
1.00023 0.999168 0.995047
1.00004 0.997451 0.997477
0.999968 0.996416 0.998453
0.999988 0.997574 0.997468
0.999888 0.996536 0.998445
0.999747 0.996684 0.999334
0.999964 0.998038 0.996617
0.999909 0.998283 0.996481
0.999711 0.997087 0.999219
0.999845 0.998561 0.99633
0.999625 0.997376 0.999173
0.999561 0.997648 0.999123
1.00485 0.999113 0.986495
1.0049 0.999049 0.986537
1.00504 0.998219 0.987054
1.00515 0.998213 0.986948
1.00508 0.998809 0.986432
1.00469 0.99939 0.986569
1.00509 0.998862 0.98637
1.00516 0.998403 0.98673
1.00509 0.998224 0.986955
1.00515 0.997793 0.987341
1.00503 0.998571 0.98672
1.0051 0.997638 0.98755
1.00517 0.998437 0.986694
1.00515 0.997862 0.987265
1.00515 0.997467 0.98765
1.0051 0.997483 0.987738
1.00503 0.998928 0.986422
1.00495 0.999031 0.986577
1.00514 0.998411 0.986703
1.005 0.998311 0.987052
1.00063 1.00234 0.991283
1.00073 1.00313 0.990104
1.00188 1.00375 0.987449
1.00496 0.998523 0.986977
1.00508 0.997632 0.987529
1.00485 0.998361 0.987229
1.0034 1.00154 0.98679
1.00436 0.998274 0.988052
1.00056 1.00267 0.991077
1.00045 1.00294 0.990987
1.00021 1.00269 0.991582
1.00016 1.0001 0.994063
1.00024 1.00148 0.992664
1.00516 0.998392 0.986732
1.00513 0.998257 0.986917
1.00512 0.997499 0.987643
1.00062 1.00281 0.990776
1.00074 1.00389 0.989234
1.00232 1.00386 0.986492
1.00509 0.997721 0.987419
1.00405 1.00019 0.986967
1.005 0.99767 0.987612
1.00018 0.999854 0.994275
1.00055 1.00278 0.990954
1.00051 1.0028 0.990923
1.00027 1.00316 0.991088
1.00019 1.00226 0.992135
1.00023 1.00124 0.992982
1.00516 0.998041 0.987006
1.00513 0.997357 0.987798
1.00511 0.996974 0.988053
1.0051 0.997147 0.987999
1.00058 1.0032 0.990436
1.00487 0.998013 0.987389
1.00112 1.00495 0.987454
1.00303 1.00319 0.98609
1.00019 0.999656 0.994464
1.00024 1.00099 0.993302
1.00019 1.002 0.992429
1.00015 1.00285 0.991556
1.00059 1.00302 0.990648
1.00056 1.0029 0.990758
1.00011 0.999482 0.99496
1.00017 1.00074 0.993599
1.00505 0.999092 0.986179
1.00001 1.00257 0.992084
1.00028 1.00364 0.990544
1.00004 1.00382 0.990709
1.00393 1.00034 0.986951
1.00485 0.998797 0.986728
1.00047 1.00496 0.988593
1.00256 1.00269 0.987346
1.00018 1.00041 0.99391
1.00007 1.00184 0.992659
1.00031 1.00428 0.989918
0.999957 1.00361 0.991072
1.00018 1.00383 0.9905
1.0051 0.997598 0.987603
1.00416 1.00031 0.986766
1.00494 0.997958 0.9872
1.00107 1.00471 0.988171
1.00264 1.00261 0.986686
1.0001 1.00125 0.993152
0.999957 1.00287 0.991693
1.00051 1.00429 0.989529
0.999989 1.00419 0.990101
1.00514 0.996174 0.98887
1.00511 0.996774 0.988302
1.00418 1.00003 0.986714
1.00144 1.00428 0.987016
1.00022 1.00023 0.994028
1.00014 1.00103 0.993367
1.00002 1.00171 0.992972
1.00026 1.00022 0.993968
1.00014 1.00089 0.993449
1.00029 1.00023 0.993911
1.00005 1.00143 0.993156
1.00016 1.00086 0.993486
1 1.00183 0.992851
1.0001 1.00132 0.993157
1.00018 1.00089 0.993394
1.00029 1.0003 0.993838
1.00027 0.999293 0.994847
1.00027 0.999216 0.994918
1.00012 0.99738 0.997396
1.00026 0.999156 0.994999
1.00009 0.997402 0.997442
1.00002 0.99635 0.998425
1.00005 0.997459 0.997475
0.999961 0.996391 0.998458
0.99988 0.996512 0.998446
1.00002 0.997818 0.996737
0.99997 0.998043 0.996611
0.99979 0.996857 0.999251
0.999913 0.998294 0.996473
0.999703 0.997133 0.999208
0.999621 0.997423 0.999162
1.00503 0.998595 0.986722
1.00512 0.998268 0.986879
1.00511 0.997498 0.987598
1.00515 0.997706 0.987392
1.00516 0.998438 0.986695
1.00509 0.998897 0.98634
1.00516 0.998432 0.9867
1.00515 0.997889 0.987239
1.00514 0.99748 0.987631
1.00512 0.997431 0.98774
1.00516 0.998016 0.987104
1.00515 0.997241 0.987925
1.00514 0.996912 0.988131
1.00516 0.998403 0.986734
1.00512 0.998265 0.986957
1.00512 0.997594 0.987569
1.00067 1.00281 0.990757
1.00087 1.0038 0.9894
1.00227 1.00396 0.986451
1.00508 0.99775 0.987444
1.00493 0.997685 0.987624
1.00398 1.00005 0.98713
1.00058 1.00278 0.990943
1.00046 1.0028 0.990985
1.00028 1.00319 0.991042
1.00018 0.999825 0.994304
1.00019 1.00225 0.992161
1.00023 1.00122 0.992918
1.00517 0.998081 0.987017
1.00513 0.997333 0.987844
1.00512 0.997016 0.988047
1.00061 1.00321 0.990391
1.00101 1.0048 0.987789
1.00305 1.00303 0.986135
1.00509 0.997144 0.987992
1.00489 0.998096 0.98733
1.00019 0.999631 0.994563
1.00023 1.00099 0.993302
1.00051 1.00291 0.990696
1.00056 1.00281 0.990936
1.00017 1.00284 0.991518
1.00017 1.00203 0.992382
1.00515 0.997374 0.987746
1.00509 0.996453 0.988701
1.00509 0.996453 0.98856
1.00507 0.99692 0.988359
1.00041 1.00401 0.989565
1.00395 1.00065 0.986567
1.00181 1.00483 0.98692
1.00021 0.999477 0.994781
1.00018 1.00058 0.993745
1.00021 1.00083 0.993352
1.00015 1.00185 0.992564
1.00007 1.0027 0.99186
1.00005 1.00335 0.991124
1.00087 1.00179 0.991138
1.00044 1.00279 0.99172
1.00019 1.00039 0.993916
1.00008 1.00182 0.992698
1.00509 0.997639 0.987773
0.999963 1.00365 0.991069
1.00026 1.00437 0.989977
1.00009 1.00378 0.990624
1.0042 1.00021 0.986692
1.00508 0.997816 0.987267
1.00091 1.00473 0.988098
1.00283 1.00275 0.986526
1.00011 1.00127 0.993109
0.999982 1.00291 0.991696
1.00045 1.00431 0.989572
1.0001 1.0042 0.990191
1.00513 0.996186 0.988947
1.00511 0.9969 0.988134
1.00426 1 0.986771
1.00172 1.00423 0.986861
0.999991 1.00208 0.992618
1.00515 0.995549 0.989341
0.999993 1.00404 0.990864
1.00062 1.00461 0.98893
1.00513 0.995826 0.98928
1.00498 0.997509 0.987476
1.00301 1.00307 0.986372
1.00015 1.00104 0.993395
1.00001 1.00171 0.992965
0.999915 1.00226 0.99261
1.00029 1.00022 0.993911
1.00017 1.00084 0.993507
1.00003 1.00145 0.993108
1.00029 1.00029 0.993835
1.00018 1.00089 0.993406
1 1.00186 0.992801
1.00011 1.0013 0.993204
1 1.00207 0.992548
1.00011 1.00164 0.992802
1.00015 1.00127 0.993178
1.00026 1.00089 0.993294
1.00028 1.00039 0.993754
1.00025 0.999358 0.994802
1.00026 0.999296 0.994848
1.00014 0.997403 0.997343
1.00027 0.999224 0.994917
1.00012 0.997409 0.997388
1.00005 0.996329 0.99839
1.00009 0.997426 0.997433
1.00002 0.996317 0.998432
0.999953 0.996366 0.998461
1.00021 0.999356 0.994893
1.00007 0.997632 0.996838
1.00002 0.997824 0.996731
0.999862 0.996648 0.99928
0.999975 0.998049 0.996604
0.999781 0.996901 0.999241
0.999695 0.997182 0.999197
1.00515 0.99738 0.987743
1.00514 0.997489 0.987613
1.00514 0.997909 0.987213
1.00516 0.998427 0.986706
1.00516 0.997986 0.987148
1.00515 0.997239 0.987905
1.00515 0.996883 0.988123
1.00516 0.997276 0.987807
1.00513 0.996657 0.988594
1.00512 0.995257 0.989491
1.00517 0.998122 0.987029
1.00513 0.997306 0.98789
1.00512 0.997058 0.98804
1.00065 1.00322 0.990345
1.00091 1.00468 0.988123
1.00306 1.00284 0.986179
1.00509 0.997146 0.987985
1.00491 0.998165 0.987271
1.00043 1.0028 0.990744
1.00057 1.00272 0.991108
1.00014 1.00288 0.99148
1.0002 0.999603 0.994662
1.00023 1.00099 0.993302
1.00015 1.00207 0.992335
1.00515 0.997298 0.98785
1.00021 0.99947 0.994781
1.00016 1.00061 0.993701
1.00508 0.996516 0.988686
1.0051 0.996436 0.988505
1.00034 1.00406 0.989809
1.00174 1.00478 0.986811
1.0039 1.00062 0.986572
1.00501 0.996911 0.98831
1.00022 1.00082 0.993487
1.00015 1.00185 0.992558
1.00099 1.00198 0.990828
1.00024 1.00238 0.992082
1.00002 1.00344 0.991066
1.00008 1.00266 0.991872
1.00515 0.996178 0.988935
1.00511 0.996042 0.989145
1.00506 0.995932 0.988924
1.00472 0.997246 0.988102
1.00069 1.00345 0.989907
1.00256 1.00378 0.986501
1.00014 1.00052 0.993761
1.00019 1.00071 0.993594
1.00009 1.0015 0.993116
1.00013 1.00174 0.992573
1.00004 1.0026 0.992131
0.999914 1.00334 0.991247
0.999744 1.00434 0.990914
1.00038 1.00163 0.99222
1.00012 1.00129 0.993066
1.00001 1.00294 0.991698
1.00512 0.996181 0.989023
1.0051 0.997055 0.987964
1.00021 1.00421 0.99028
1.00039 1.00433 0.989613
1.00434 0.999999 0.986829
1.00201 1.00422 0.986706
0.999989 1.0021 0.992592
1.00514 0.995588 0.989357
0.999929 1.00392 0.990916
1.00063 1.00454 0.988838
1.00514 0.995745 0.989184
1.00498 0.997468 0.987649
1.00291 1.00314 0.986441
0.999916 1.0032 0.991743
1.00508 0.995118 0.990609
1.00049 1.00429 0.990112
1.00138 1.00473 0.987992
1.00505 0.996535 0.988727
1.00353 1.00073 0.987162
0.999979 0.999338 0.992628
1 1.00171 0.992957
0.999907 1.00227 0.9926
1.00001 1.00247 0.99224
1.00029 1.00029 0.993832
1.00017 1.0009 0.993418
1.00011 1.00127 0.993252
1 1.00189 0.99275
1.00028 1.00039 0.99375
1.00025 1.00088 0.99329
1.00002 1.00209 0.992515
1.00015 1.00127 0.993173
1.0001 1.00166 0.992847
1.00013 1.00184 0.992583
1.00018 1.00134 0.992989
1.00021 1.00119 0.993113
1.00034 1.00092 0.993116
1.0003 1.00045 0.993595
1.00025 1.00098 0.993313
1.00028 1.00044 0.993619
1.00025 0.999385 0.99479
1.00025 0.99936 0.994803
1.00016 0.997461 0.996832
1.00026 0.999301 0.994848
1.00015 0.997432 0.997104
1.00003 0.996274 0.99931
1.00012 0.997437 0.99738
1.00006 0.996289 0.998395
1.00001 0.996285 0.998438
1.0002 0.999298 0.994973
1.00021 0.999354 0.99489
1.00011 0.9975 0.996904
1.00006 0.997634 0.99707
0.999925 0.996476 0.999304
1.00003 0.997829 0.996725
0.999854 0.996688 0.999271
0.999772 0.996944 0.999231
1.00516 0.996856 0.988114
1.00515 0.997234 0.987885
1.00516 0.99796 0.987191
1.00517 0.997269 0.987792
1.00513 0.996626 0.98855
1.00513 0.995401 0.989466
1.00514 0.995923 0.989065
1.00107 0.999947 0.98848
1.0051 0.99494 0.990804
1.00012 1.00051 0.993933
1.00515 0.997223 0.987953
1.00508 0.996572 0.98867
1.00512 0.996482 0.98845
1.00026 1.0041 0.990054
1.00168 1.00476 0.986703
1.00385 1.00062 0.986576
1.00495 0.996914 0.988262
1.00112 1.00217 0.990525
1.00003 1.00195 0.992455
1.00002 1.00347 0.99101
1.00021 0.999466 0.994781
1.0001 1.00262 0.991884
1.00022 1.00079 0.993623
1.00015 1.00185 0.992551
1.00016 1.00062 0.993656
1.00516 0.996067 0.989031
1.00014 1.00052 0.99383
1.0002 1.00071 0.993592
1.0001 1.00149 0.993021
1.00511 0.995944 0.989138
1.00505 0.996118 0.988835
1.00078 1.00319 0.989982
1.00224 1.00372 0.986587
1.00471 0.997525 0.988092
1.00013 1.00176 0.99263
1.00005 1.00257 0.992086
1.00031 1.00203 0.991892
0.999758 1.00412 0.991079
0.999955 1.00336 0.991307
1.0051 0.995372 0.989779
1.005 0.996434 0.989077
1.00507 0.996333 0.988536
1.00327 1.00073 0.987989
1.00055 1.00339 0.990251
1.00011 1.00137 0.992977
1.00009 1.00163 0.992774
1.00006 1.0021 0.992545
1.00003 1.0025 0.9921
0.999946 1.00315 0.991623
0.99977 1.00418 0.990841
0.999711 1.00456 0.990544
0.999993 1.00211 0.992566
0.999858 1.00381 0.990968
1.00512 0.995637 0.989373
1.00516 0.995669 0.989088
1.00498 0.99739 0.987822
1.00062 1.00448 0.988747
1.00281 1.0032 0.986511
0.999885 1.00311 0.991886
1.00508 0.995097 0.990573
1.00026 1.00427 0.990172
1.00107 1.00481 0.98808
1.00505 0.996215 0.988831
1.00355 1.00071 0.987118
0.999914 0.999456 0.991055
1.00003 1.00355 0.991205
1.00474 0.995691 0.991195
1.0002 1.00451 0.990058
1.00147 1.00403 0.987941
1.00407 0.997277 0.988524
1.00151 0.995168 0.960171
0.996068 0.999773 0.9785
0.999087 1.00031 0.993279
0.999486 0.997238 0.940536
0.995019 0.998157 0.933315
0.999908 1.00228 0.99259
0.999957 1.0025 0.992301
1.00001 1.00217 0.992561
1.00028 1.00038 0.993746
1.00025 1.00085 0.993287
1.00015 1.00127 0.993169
1.0001 1.00168 0.992892
1.00005 1.0021 0.992482
1.00022 1.00118 0.993083
1.00029 1.00045 0.993649
1.00034 1.00091 0.993139
1.00012 1.00186 0.992598
1.00018 1.00135 0.992992
1.00022 1.00126 0.992957
1.00017 1.00124 0.993076
1.00033 1.00116 0.992941
1.00039 1.001 0.992924
1.00029 1.00046 0.99359
1.00034 1.00098 0.993109
1.00028 1.00123 0.992997
1.00016 1.00103 0.993327
1.00026 1.00099 0.993253
1.00027 1.0004 0.993766
1.00028 1.00046 0.993612
1.00025 0.999378 0.994803
1.00025 0.999384 0.99479
1.00015 0.997512 0.996815
1.00025 0.999359 0.994804
1.00016 0.997464 0.996831
1.00003 0.996283 0.999303
1.00016 0.99746 0.996865
1.00005 0.996278 0.99884
1.00006 0.99625 0.9984
1.00019 0.999254 0.995035
1.0002 0.999291 0.994972
1.00013 0.997414 0.996947
1.00022 0.999351 0.994886
1.0001 0.997485 0.997137
0.999974 0.996354 0.999317
1.00007 0.997653 0.996823
0.999915 0.996535 0.999293
0.999845 0.996726 0.999262
1.00513 0.996592 0.988505
1.00517 0.997267 0.987777
1.00513 0.995597 0.989441
1.00104 0.999078 0.988601
1.00514 0.995972 0.989098
1.00511 0.995194 0.990716
1.00509 0.995907 0.990058
0.99764 0.999926 0.975282
1.00251 0.99668 0.989692
1.00012 1.00049 0.993955
1.00013 1.00049 0.993933
1.00009 1.00133 0.99317
1.00009 1.00127 0.99323
1.00516 0.995976 0.989126
1.00511 0.99586 0.989131
1.00509 0.9962 0.988745
1.00087 1.00296 0.990056
1.00194 1.0036 0.986672
1.00472 0.997865 0.988083
1.00024 1.00246 0.991553
0.999789 1.00391 0.991243
0.999996 1.00338 0.991368
1.00019 1.00073 0.993589
1.00006 1.00253 0.992042
1.00013 1.00178 0.992687
1.00014 1.00051 0.9939
1.00009 1.0015 0.992926
1.00508 0.995429 0.989758
1.0001 1.00139 0.993082
1.0001 1.00163 0.992816
1.00005 1.00206 0.992542
1.00503 0.996057 0.989129
1.00506 0.996311 0.988517
1.00065 1.00325 0.990228
1.00329 1.0009 0.987929
1.00003 1.00255 0.992099
0.999913 1.00313 0.991678
0.999742 1.00455 0.990542
0.999863 1.00423 0.990781
1.00505 0.995999 0.989464
1.00505 0.995684 0.989422
1.00413 0.9988 0.988172
1.00069 1.00354 0.989973
1.0001 1.0021 0.992337
1.00001 1.0023 0.992325
0.99987 1.00347 0.991412
0.999879 1.00503 0.989836
1.00072 0.995038 0.95645
0.999846 1.00302 0.99203
1.00002 1.00424 0.990232
1.00507 0.995056 0.990534
1.00507 0.995878 0.988935
1.00355 1.00067 0.987074
1.00076 1.00489 0.988166
0.999834 0.999572 0.989457
0.999905 1.00359 0.991321
1.00471 0.99549 0.991133
1.00008 1.00451 0.990112
1.00142 1.00405 0.987908
1.00427 0.997348 0.988542
1.00186 0.995433 0.956571
0.995838 0.999621 0.974683
0.999167 1.00026 0.993432
0.998436 0.997568 0.941664
0.994788 0.998144 0.928586
0.99972 1.00357 0.991874
0.999989 0.994964 0.943174
0.994885 0.999697 0.934795
1.00424 0.996015 0.991443
0.999727 1.00487 0.990379
1.00204 1.00148 0.988863
0.998237 1.00038 0.995501
0.99902 0.997705 0.960631
0.994851 0.999644 0.974103
0.997675 0.999663 0.94262
0.994615 0.999888 0.938396
0.999894 1.00255 0.992361
0.999969 1.00225 0.992537
0.999982 1.00127 0.993639
1.00027 1.00044 0.993703
1.00034 1.0009 0.993163
1.00021 1.00119 0.993054
1.00018 1.00137 0.992994
1.00012 1.00189 0.992613
1.00029 1.00046 0.993589
1.00024 1.00129 0.992938
1.00031 1.00117 0.992961
1.00039 1.00098 0.992994
1.00017 1.00122 0.993112
1.00031 1.00115 0.992927
1.00027 1.00046 0.993691
1.00042 1.00118 0.99277
1.00038 1.00098 0.993029
1.00035 1.00097 0.993104
1.00029 1.00121 0.992984
1.0004 1.00113 0.992832
1.00017 1.00132 0.993039
1.00025 1.00124 0.992993
0.999902 1.00203 0.992775
1.00008 1.00113 0.993368
1.00016 1.00104 0.993328
1.00025 1.00038 0.993818
1.00026 1.00101 0.993194
1.00027 1.00041 0.993725
1.00024 0.999356 0.994833
1.00028 1.00047 0.993605
1.00025 0.99937 0.994804
1.00011 0.997536 0.997306
1.00025 0.999382 0.994789
1.00014 0.997503 0.997058
1.00008 0.996309 0.998337
1.00016 0.997469 0.99683
1.00003 0.996289 0.9993
1.00008 0.996282 0.998369
1.00015 1.00046 0.993932
1.00019 0.999217 0.99507
1.00019 0.999247 0.995036
1.00014 0.99735 0.996989
1.00021 0.999284 0.994971
1.00013 0.997402 0.996946
1.00001 0.996266 0.999328
1.00009 0.99749 0.997362
0.999987 0.996396 0.998846
0.999956 0.996573 0.998345
1.00086 0.998208 0.988735
1.00515 0.995994 0.989131
1.00512 0.995409 0.990628
0.997073 0.999074 0.977129
1.00235 0.997101 0.989941
1.00508 0.995467 0.990071
1.00436 0.995771 0.990321
0.998415 0.996738 0.979835
1.00039 0.995673 0.959351
0.998243 0.997286 0.943415
0.994659 0.998241 0.932288
1.00006 1.00135 0.993117
1.00013 1.00049 0.993954
1.00014 1.00048 0.993933
1.00009 1.00135 0.993137
1.00003 1.00188 0.992721
1.00013 1.0017 0.992806
1.00012 1.00128 0.993202
1.00008 1.00131 0.993182
1.00508 0.995474 0.989736
1.00505 0.995676 0.989176
1.005 0.996324 0.988498
1.00074 1.00305 0.990207
1.00329 1.00096 0.987867
0.999771 1.00452 0.990544
0.999949 1.0043 0.990722
0.999884 1.00313 0.991734
1.0001 1.00163 0.992859
1.00004 1.00261 0.992096
1.00011 1.00142 0.993187
1.00005 1.00201 0.992541
1.00505 0.995897 0.989452
1.00008 1.00209 0.992436
1.00002 1.00232 0.992321
1.00498 0.995731 0.9893
1.00376 0.998444 0.9885
1.00084 1.00344 0.989761
0.999925 1.00347 0.991409
0.999963 1.00494 0.989848
1.00358 1.00011 0.989696
1.00458 0.996239 0.990261
1.00168 1.00041 0.989592
1.00032 1.00379 0.990242
1.0001 1.00208 0.992321
1.00002 1.00272 0.991923
0.999868 1.00417 0.990794
0.999964 0.994965 0.941006
1.00127 0.994949 0.962385
0.9998 1.00363 0.991438
0.999964 1.00448 0.990166
1.00469 0.995276 0.991076
1.00447 0.997445 0.988559
1.00138 1.00408 0.987876
1.00087 0.994962 0.958031
0.996126 1.00001 0.974984
0.999189 1.00007 0.99359
0.997959 0.997324 0.945563
0.994651 0.998138 0.923857
0.999698 1.00345 0.99188
1.00002 0.995146 0.941533
0.994845 0.999694 0.932477
1.00427 0.99619 0.991409
0.999643 1.00486 0.990472
1.00171 1.00144 0.989353
0.998585 0.999642 0.996276
0.999627 0.998111 0.9575
0.995326 0.999388 0.976836
0.997166 0.99974 0.942985
0.994791 0.999895 0.936353
0.99933 1.00328 0.992803
0.994796 0.999792 0.937241
0.994509 1.00358 0.951675
1.00138 0.998069 0.994331
0.999265 1.00423 0.99223
0.997046 1.00207 0.996748
0.99536 0.999797 0.980518
0.996317 1.0002 0.956664
0.995675 0.999924 0.945777
0.994455 0.999935 0.946141
0.999953 1.00229 0.992514
0.999977 1.00142 0.993464
0.999733 0.999884 0.995132
1.00029 1.00046 0.993588
1.00038 1.00097 0.993064
1.0003 1.00118 0.99298
1.00025 1.00131 0.992918
1.00018 1.0012 0.993147
1.00038 1.00099 0.993027
1.00031 1.00119 0.992932
1.00042 1.00118 0.992768
1.00017 1.00044 0.993875
1.00003 0.999616 0.995059
1.00044 1.00073 0.99314
1.00046 1.00116 0.992704
1.00036 1.00097 0.993099
1.00029 1.0012 0.992972
1.0004 1.00113 0.992832
1.00018 1.00131 0.993033
1.00025 1.00123 0.992999
1.00005 1.00152 0.993024
1.00034 1.00113 0.992882
1.00013 1.00132 0.993123
0.999996 1.00253 0.992125
0.99966 1.00452 0.990575
0.999775 1.00271 0.992166
0.999896 1.0021 0.992753
1.00002 1.00134 0.993281
1.00009 1.00114 0.993364
1.00021 1.0004 0.993877
1.00016 1.00106 0.993329
1.00025 1.00039 0.993819
1.00023 0.999353 0.994867
1.00028 1.00042 0.993685
1.00025 0.999348 0.994834
1.00008 0.997567 0.997329
1.00025 0.999364 0.994804
1.00012 0.997527 0.997072
1.00005 0.996311 0.998347
1.00015 0.997491 0.996818
1.00003 0.99631 0.999297
1.00003 0.996294 0.999298
1.00018 1.00051 0.994008
1.0002 0.999226 0.995046
1.00014 1.00048 0.993929
1.00015 0.997321 0.997013
1.00019 0.999219 0.99507
1.00019 0.999242 0.995037
1.00014 0.997351 0.996987
1.00003 0.996208 0.999338
1.00011 0.997395 0.997404
1.00003 0.99628 0.998864
1.00002 0.9964 0.998384
0.999957 0.995199 0.939766
0.995175 0.999206 0.935411
0.997854 0.998306 0.978229
1.0022 0.997546 0.990185
1.00508 0.995071 0.990085
0.997819 0.996859 0.982321
1.00436 0.99608 0.990361
1.001 0.995202 0.960038
0.99868 0.996999 0.940522
0.994639 0.998196 0.927475
0.999275 0.997316 0.985974
0.998398 0.997991 0.962165
0.997604 0.999559 0.941767
0.994675 0.999925 0.935998
1.00012 1.00188 0.992573
1.00007 1.00134 0.993147
1.00013 1.00047 0.993953
1.00009 1.00134 0.993104
1.00003 1.00181 0.992783
1.00014 1.00179 0.99266
1.00014 1.00166 0.992775
1.00016 1.0014 0.992966
1.00012 1.00129 0.993148
1.00008 1.00133 0.993133
1.00505 0.995734 0.989442
1.00494 0.995797 0.989186
1.00341 0.998048 0.988829
1.00099 1.00341 0.989548
1.00006 1.00484 0.98986
0.999977 1.00348 0.991405
1.00004 1.00233 0.992317
1.00005 1.00208 0.992535
1.00361 0.999091 0.989822
1.00011 1.00212 0.992313
1.00002 1.00269 0.991927
1.00449 0.996027 0.990033
1.00156 1.00093 0.989806
1.00044 1.00392 0.98994
0.999962 1.00412 0.99069
1.00076 1.00152 0.99292
1.00154 0.998948 0.993042
0.999887 1.00363 0.990899
1.00009 1.00225 0.992257
1.00016 1.00214 0.992116
1.00013 1.00279 0.991646
0.994684 0.999481 0.944827
0.99997 0.995328 0.943395
1.00077 0.994936 0.956121
0.99965 1.00339 0.991888
0.999564 1.00482 0.990568
1.00437 0.996319 0.991371
1.00133 1.00149 0.989845
0.999968 0.995273 0.944201
0.998654 0.997808 0.958432
0.994878 0.999189 0.974139
0.999015 0.998368 0.996987
0.997672 0.999654 0.939067
0.994807 0.999677 0.932906
0.994964 0.999902 0.936938
0.999242 1.00331 0.992824
0.994842 0.99987 0.939734
0.994689 1.00369 0.951185
1.00151 0.998059 0.994404
0.998854 1.00445 0.992222
0.996667 0.999729 0.999831
0.99532 0.999495 0.977295
0.996452 1.00015 0.96154
0.997588 0.999926 0.942276
0.99449 0.999945 0.947116
0.99841 1.00242 0.995505
0.994206 1.00276 0.95972
0.993879 1.00398 0.964916
0.996872 1.00188 0.998278
0.995334 1.00033 0.986753
0.99541 1 0.961098
0.995123 0.999992 0.944136
0.994624 0.999866 0.945148
0.999961 1.00159 0.993292
0.999803 0.999868 0.995183
0.99936 0.999255 0.996452
1.00038 1.00099 0.993025
1.00042 1.00118 0.992766
1.00032 1.00124 0.992938
1.00008 1.00041 0.994058
1.00045 1.00117 0.992706
1.00043 1.00078 0.9931
1.00003 0.999372 0.995236
0.999361 0.999048 0.996721
1.00029 0.999811 0.994386
1.00042 1.00101 0.992837
1.0004 1.00113 0.992831
1.00018 1.00131 0.993027
1.00025 1.00122 0.993005
1.00033 1.00115 0.992893
1.00004 1.00157 0.99301
1.00014 1.0013 0.99312
1.00006 1.00167 0.992912
1.00006 1.00117 0.993375
0.999985 1.00236 0.992252
1.00002 1.00247 0.992197
0.99971 1.00393 0.991159
1.00031 1.00482 0.989346
0.999848 1.00365 0.991483
0.999634 1.00449 0.990717
0.999796 1.00273 0.992288
0.999944 1.00178 0.992841
0.999889 1.00216 0.992731
1.00003 1.00136 0.99327
1.00017 1.00046 0.993881
1.0001 1.00115 0.99336
1.00021 1.0004 0.993876
1.00019 0.999399 0.994891
1.00026 1.00039 0.993821
1.00023 0.999344 0.994869
1.00003 0.997621 0.997352
1.00025 0.999339 0.994835
1.00009 0.997561 0.997098
1.00001 0.996377 0.998365
1.00014 0.997509 0.996834
1.00003 0.996328 0.998821
1.00002 0.996319 0.999298
1.0002 1.00058 0.993763
1.0002 0.999281 0.994986
1.00017 1.00051 0.993884
1.00014 0.997348 0.997
1.0002 0.99923 0.995048
1.00013 1.0005 0.993927
1.00003 0.996192 0.999342
1.00015 0.997322 0.997012
1.00019 0.999218 0.99507
1.00015 0.997353 0.996985
1.00002 0.996216 0.999335
1.00001 0.99628 0.999323
0.994781 0.999156 0.942153
0.999924 0.99521 0.941435
0.994854 1.00388 0.95084
0.995089 0.999519 0.933782
0.998619 0.996991 0.978288
1.00432 0.996589 0.990385
1.00083 0.995028 0.960702
0.999499 0.997837 0.944347
0.994633 0.998119 0.922656
0.998877 0.997575 0.98447
0.999498 0.997286 0.95615
0.997393 0.999562 0.942325
0.99465 0.999884 0.933407
0.995495 1.00015 0.982325
0.997918 1.00009 0.956313
0.995517 0.999828 0.940903
0.994548 0.999867 0.941741
1.00014 1.00212 0.992327
1.00011 1.00188 0.992626
1.00006 1.00138 0.993178
1.00005 1.00177 0.992845
1.00019 1.0019 0.992373
1.00014 1.00177 0.992694
1.00014 1.00166 0.992745
1.00023 1.00134 0.992966
1.00018 1.00138 0.993025
1.00013 1.00129 0.993095
1.00345 0.998098 0.98996
1.00442 0.995862 0.989808
1.00146 1.00146 0.990017
1.00056 1.00401 0.989641
1.00004 1.00408 0.990586
1.00003 1.00264 0.991932
1.00012 1.00214 0.992306
1.0001 1.00224 0.992243
1.00072 1.00068 0.99318
1.00016 1.00222 0.992142
1.00014 1.00286 0.991563
1.00159 0.999111 0.992677
1.00022 1.00343 0.990824
0.998988 0.999743 0.995626
0.999343 0.999687 0.996927
1.00012 1.00197 0.992086
1.00024 1.00202 0.992189
1.00025 1.00235 0.991843
0.993857 1.00207 0.964781
0.994712 0.999937 0.944346
0.999918 0.995849 0.940124
0.999167 1.00339 0.992841
0.998521 1.0046 0.9922
1.00157 0.99811 0.994485
0.994859 0.999753 0.941453
0.997421 1.00017 0.956875
0.994874 0.999231 0.978587
0.996467 0.998632 1.00311
0.995808 0.999931 0.945281
0.994892 1.00382 0.950706
0.994476 0.999937 0.947357
0.998375 1.00227 0.99561
0.994262 1.00232 0.961894
0.993893 1.00408 0.964739
0.996926 1.00246 0.998365
0.99515 1.00021 0.987028
0.996336 1 0.956329
0.99454 0.99985 0.94705
0.99502 0.999968 0.946239
0.997109 1.00234 0.997966
0.993247 1.00337 0.980816
0.993937 1.00367 0.967085
0.994567 0.999861 0.941835
0.995017 1.00146 0.996117
0.996145 0.999042 0.962863
0.994713 1.00005 0.947056
0.99992 0.999823 0.99523
0.999444 0.999408 0.996223
0.998756 0.999137 0.997833
1.00045 1.00117 0.992709
1.00041 1.00085 0.99306
1.00004 0.999101 0.995416
1.00042 1.00106 0.992829
1.00028 0.999749 0.994386
0.999596 0.998961 0.996432
0.99914 0.998798 0.99739
1.00018 1.00066 0.993689
1.00032 1.00117 0.992905
1.00003 1.00161 0.992996
1.00016 1.00128 0.993116
1.00009 1.00116 0.993341
1.00007 1.0016 0.992959
0.999539 1.00223 0.993246
0.999781 1.00252 0.992473
0.999996 1.00392 0.990608
1.00005 1.00241 0.992271
0.999897 1.00388 0.991078
1.00028 1.00487 0.988994
1.0003 1.00492 0.989105
0.999939 1.00403 0.990788
1.00023 1.00474 0.989421
0.999958 1.00253 0.992253
0.999838 1.00369 0.99136
0.999605 1.00447 0.990859
0.999818 1.00275 0.992409
0.999959 1.00174 0.992936
1.00013 1.00066 0.993749
1.00003 1.00137 0.99326
1.00017 1.00048 0.993876
1.00014 0.999484 0.994894
1.00022 1.00039 0.993875
1.0002 0.999385 0.994893
0.999963 0.997719 0.997366
1.00023 0.999333 0.99487
1.00004 0.997623 0.997122
0.999944 0.996473 0.99838
1.0001 0.997543 0.996861
0.999986 0.996388 0.998832
0.999994 0.996359 0.999302
1.00025 1.00066 0.99344
1.0002 0.999394 0.99471
1.00021 1.00058 0.993761
1.00012 0.997428 0.996952
1.0002 0.999291 0.994898
1.00015 1.00052 0.993761
1.00002 0.996228 0.999337
1.00014 0.997346 0.997002
1.0002 0.999233 0.995049
1.00003 0.996193 0.999341
1.00015 0.997323 0.997012
1.00002 0.996226 0.999332
0.993924 1.00239 0.963206
0.994793 0.998993 0.942709
0.999913 0.994995 0.942109
1.00028 1.00127 0.992895
0.993827 1.00385 0.966438
0.994864 1.00391 0.950395
0.995068 0.999755 0.93497
0.998937 0.998101 0.982905
0.99874 0.998707 0.962168
0.99767 0.999555 0.9384
0.994644 0.999891 0.933779
0.995593 0.999871 0.978071
0.996756 0.999987 0.961004
0.997558 0.999933 0.943217
0.994587 0.999895 0.941343
0.995289 0.999958 0.974102
0.995202 1.00033 0.959342
0.994761 0.999963 0.946617
0.994585 0.999827 0.945205
1.00022 1.00209 0.992193
1.00013 1.00213 0.992308
1.0001 1.00186 0.99268
1.00022 1.00175 0.9925
1.0002 1.00189 0.992448
1.00014 1.00176 0.992727
1.00024 1.00137 0.992969
1.00019 1.00137 0.993084
1.0008 0.999878 0.993415
1.00163 0.999285 0.992304
1.00011 1.00224 0.992228
1.00054 1.00337 0.990747
1.00016 1.00291 0.99148
1.00014 1.0023 0.992167
1.00023 1.00207 0.992213
0.999003 0.999788 0.996005
1.00021 1.00228 0.992
1.00033 1.0019 0.992127
0.999405 0.998952 0.996893
1.00027 1.00187 0.992396
0.997592 0.99975 0.997086
0.998014 1.0006 0.998641
1.00021 1.00129 0.992685
1.00023 1.00155 0.992703
0.993087 1.00341 0.983741
0.99376 1.00253 0.965362
0.994759 1.00032 0.943888
0.998285 1.00214 0.995732
0.996917 1.00259 0.998419
0.994296 1.002 0.96405
0.995455 1.00003 0.962184
0.994867 0.999328 0.983106
0.99533 0.999962 0.945787
0.993874 1.00418 0.964575
0.99447 0.999829 0.948949
0.99729 1.00233 0.997653
0.993142 1.00342 0.980851
0.993819 1.00375 0.970616
0.995253 1.00299 0.998855
0.9946 0.99987 0.941367
0.99538 0.999067 0.960057
0.994962 0.999973 0.94748
0.996787 1.00219 0.998871
0.993298 1.00296 0.9853
0.993899 1.00386 0.966443
0.994705 0.999866 0.936114
0.995335 0.999944 0.94579
0.995773 0.998776 0.992654
0.996319 1.00012 0.954761
0.999475 0.999547 0.995992
0.998678 0.999652 0.997574
0.997299 0.998779 1.00151
1.0004 1.0011 0.99282
1.00027 0.999681 0.994386
0.999798 0.99892 0.996142
1.00015 1.00076 0.99364
0.999235 0.998409 0.997466
0.998662 1.00217 0.9947
1.00012 1.00116 0.993307
1.00008 1.00154 0.993007
0.999719 1.00228 0.993106
0.99929 1.00438 0.991409
0.999558 1.00268 0.992691
0.999814 1.00382 0.990906
1.00045 1.005 0.988853
1.00139 1.00473 0.987357
1.00009 1.00382 0.990995
1.00041 1.00488 0.988853
1.00058 1.00462 0.989262
0.999818 1.00461 0.990138
1.00033 1.00477 0.989249
0.999936 1.00312 0.99171
0.99998 1.00403 0.990775
1.00015 1.00466 0.989496
1.00009 1.00112 0.993375
0.999944 1.00249 0.99223
0.99983 1.00374 0.991236
0.999973 1.0017 0.993031
1.00013 1.00068 0.993736
1.00008 0.999629 0.99486
1.00017 1.0005 0.993871
1.00014 0.999476 0.994895
0.999909 0.997867 0.996897
1.0002 0.99937 0.994896
0.999987 0.997721 0.996905
0.999819 0.996593 0.999319
1.00006 0.997606 0.996889
0.999928 0.996478 0.998842
0.99995 0.996424 0.999307
1.0003 1.00065 0.993385
1.00021 0.99953 0.994543
1.00026 1.00066 0.993515
1.00009 0.997555 0.996875
1.0002 0.999404 0.99469
1.00022 1.00058 0.99376
0.999991 0.996312 0.999323
1.00012 0.997424 0.996955
1.00019 0.999303 0.99481
1.00002 0.996218 0.999339
1.00014 0.997344 0.997004
1.00003 0.99619 0.999341
0.993041 1.00302 0.98104
0.99394 1.00283 0.963014
0.994815 0.999144 0.942695
1.00026 1.00129 0.992922
1.00025 1.00127 0.99291
1.00022 1.00164 0.992681
0.993892 1.00349 0.96726
0.993884 1.00378 0.966282
0.994875 1.00416 0.949946
0.99512 1.00043 0.980793
0.996987 1.00019 0.955773
0.995073 0.999945 0.946039
0.994588 0.999922 0.940167
0.995722 0.999894 0.976839
0.996454 1.00006 0.958695
0.995314 1 0.947502
0.994518 0.999826 0.9471
0.995086 0.999959 0.97354
0.995788 1.00006 0.960668
0.994669 1.00005 0.947385
0.994436 0.99991 0.945961
1.00028 1.00185 0.992316
1.00022 1.0021 0.992169
1.00013 1.00214 0.992289
1.00023 1.00175 0.99249
1.0002 1.00188 0.992522
1.00025 1.00138 0.992971
0.999052 0.999837 0.996377
0.999282 0.998384 0.996864
1.00022 1.00214 0.992238
1.00055 1.00168 0.992168
1.00017 1.00229 0.992158
1.00031 1.00181 0.992309
1.0002 1.00157 0.992814
0.997611 0.999874 0.99737
1.00016 1.00129 0.993089
0.997927 1.00017 0.999016
1.00019 1.00149 0.992943
0.995976 0.999259 0.998533
0.99775 1.00127 0.998984
0.999954 1.00046 0.99445
0.99337 1.00354 0.989314
0.992905 1.00338 0.985177
0.993677 1.003 0.96592
0.997576 1.00235 0.997328
0.996031 1.00256 0.996904
0.993069 1.00343 0.980883
0.995449 0.999125 0.965721
0.994725 1.00003 0.945782
0.993731 1.00383 0.974148
0.994605 0.999884 0.940374
0.996583 1.00261 0.999045
0.993236 1.00294 0.986534
0.993952 1.00378 0.966274
0.995185 0.999357 0.987976
0.99468 0.999822 0.933736
0.995532 0.999933 0.946484
0.995551 1.00014 0.960739
0.995604 1.00133 1.00153
0.993018 1.0029 0.981249
0.994799 1.00385 0.95119
0.994678 0.99819 0.932815
0.995572 0.999835 0.94042
0.995634 1.00002 0.960437
0.99576 0.998835 0.983768
0.99856 1.0003 0.997362
0.997356 0.998503 1.00138
0.99749 1.00054 0.999184
1.00013 1.00086 0.993592
0.999343 0.998017 0.997545
0.998516 1.00227 0.99501
0.998799 1.00369 0.993286
0.999905 1.00235 0.992967
0.999757 1.00431 0.99108
1.00051 1.00504 0.988657
0.999625 1.00371 0.991206
1.00051 1.00495 0.988779
1.00184 1.00498 0.986661
1.00267 1.00416 0.985744
1.00098 1.00443 0.988148
1.00138 1.00483 0.987272
1.00055 1.00489 0.988712
1.00043 1.00431 0.989834
1.00041 1.00447 0.989539
0.999867 1.004 0.990811
0.999899 1.00455 0.990259
1.00036 1.00461 0.989393
1.00004 1.00184 0.992727
0.999968 1.00305 0.991717
1.00001 1.00402 0.990761
1.00001 0.999902 0.9947
1.00009 1.00114 0.993361
0.99993 1.00246 0.992207
1.00014 1.00071 0.993722
1.00008 0.999629 0.994857
0.999821 0.998058 0.996865
1.00015 0.999469 0.994896
0.999913 0.997867 0.996896
0.999754 0.996759 0.999309
0.999993 0.997713 0.996903
0.999848 0.996616 0.998849
0.999891 0.996519 0.999311
1.00032 1.00065 0.993428
1.00023 0.99962 0.994578
1.0003 1.00065 0.993417
1.00006 0.997711 0.996787
1.00022 0.999534 0.994611
1.00027 1.00065 0.993591
0.999951 0.996436 0.999303
1.00009 0.997549 0.99688
1.00021 0.999414 0.994669
0.999995 0.996294 0.999327
1.00012 0.997421 0.996959
1.00002 0.996209 0.999341
0.993319 1.00275 0.985382
0.993147 1.00273 0.981083
0.993963 1.00296 0.962895
1.00021 1.00136 0.992868
1.00008 1.00199 0.992583
1.00024 1.00131 0.992949
1.00025 1.00128 0.992911
1.00021 1.00164 0.992655
1.00016 1.00167 0.992744
1.00019 1.00178 0.992565
0.99391 1.00369 0.964938
0.993756 1.0036 0.97081
0.993939 1.00357 0.966131
0.994463 0.999825 0.948997
0.994892 1.00007 0.97448
0.995383 1.00008 0.958851
0.994745 1 0.948189
0.995659 0.999995 0.972928
0.995457 1.00006 0.956825
0.994812 0.99998 0.948699
0.994493 0.999903 0.947011
0.99597 0.997884 0.977422
0.995135 1.00006 0.95637
0.99535 0.999955 0.944738
0.99462 0.999862 0.937817
1.00011 1.00166 0.992852
1.00027 1.00181 0.992332
1.00022 1.0021 0.992145
1.00024 1.00175 0.99248
0.997711 1.00015 0.997634
0.997873 0.999676 0.999375
1.00035 1.00175 0.992223
1.00016 1.00154 0.992924
1.00005 1.00131 0.993493
1.00016 1.00152 0.992872
0.999811 1.00049 0.994413
0.995812 1.00005 0.996551
0.997332 1.00158 0.999169
0.999621 1.00122 0.994005
0.995749 0.999328 0.996327
0.99811 1.0015 0.9983
0.993046 1.00323 0.984093
0.993283 1.00318 0.990503
0.992763 1.00338 0.986614
0.996486 1.00281 0.999168
0.995562 0.998704 0.993466
0.993194 1.00289 0.987772
0.996518 1.00011 0.955356
0.994928 0.999969 0.94717
0.994003 1.0036 0.966106
0.994661 0.999844 0.933964
0.995674 1.00082 1.00174
0.993115 1.00273 0.981279
0.994841 1.00382 0.950733
0.994943 0.998763 0.987583
0.99466 0.998166 0.928056
0.997725 0.999914 0.942511
0.995435 1.00005 0.957191
0.995942 1.00123 0.998951
0.993949 1.00224 0.96356
0.995081 0.999255 0.935984
0.997631 0.999476 0.942159
0.995284 1.00032 0.96098
0.994864 0.999323 0.977928
0.997528 0.99808 1.00116
0.99731 1.00115 0.999144
0.99946 0.998672 0.998023
0.998349 1.00237 0.995319
0.998313 1.00374 0.993593
1.00109 1.00249 0.990011
1.00024 1.00421 0.990748
1.00074 1.00503 0.988492
1.00217 1.00321 0.987057
1.00058 1.0049 0.988705
1.00186 1.00496 0.986531
1.00333 1.00254 0.98574
1.00396 1.00146 0.98585
1.00232 1.00465 0.986144
1.00273 1.00411 0.985544
1.00083 1.00392 0.988951
1.00097 1.00444 0.988338
1.00138 1.00494 0.987187
1.00039 1.0041 0.989951
1.00037 1.00433 0.989807
1.00024 1.00433 0.989816
1.00007 1.00261 0.991873
0.999896 1.00385 0.990969
0.99999 1.00447 0.99038
0.999958 1.00043 0.994267
1.00006 1.00181 0.992728
1 1.00299 0.991723
0.999739 0.998276 0.996807
1.00001 0.999923 0.99469
1.00009 1.00115 0.993348
1.00008 0.999629 0.994854
0.999827 0.998061 0.996863
0.999658 0.996953 0.9993
0.999916 0.99787 0.996896
0.999742 0.996792 0.999307
0.999817 0.996652 0.999311
1.0002 1.00148 0.992832
1.00033 1.00069 0.993379
1.00023 0.999714 0.994493
1.00032 1.00065 0.993424
1.00001 0.997877 0.996704
1.00022 0.999641 0.994575
1.00029 1.00067 0.99345
0.999899 0.996587 0.999283
1.00005 0.997704 0.996792
1.00022 0.999539 0.994679
0.999956 0.996411 0.999309
1.00009 0.997544 0.996885
0.999999 0.996274 0.999332
0.993232 1.00293 0.981186
0.99324 1.00275 0.986603
0.993241 1.00258 0.981126
1.00023 1.00134 0.992895
1.00007 1.002 0.99254
1.00005 1.00232 0.992227
1.00007 1.00187 0.992597
1.00003 1.00241 0.992292
1.00024 1.00127 0.992913
1.00019 1.00164 0.992629
1.00014 1.00168 0.992743
1.00021 1.00178 0.992543
1.00005 1.00191 0.992741
0.994565 1.00358 0.9512
0.9939 1.00379 0.964787
0.993643 1.0037 0.974354
0.994508 0.999899 0.947255
0.994662 1.00003 0.946373
0.994972 0.999988 0.971676
0.994974 1.00004 0.960061
0.995677 0.998035 0.973517
0.995821 1.00006 0.960203
0.994817 0.999946 0.947156
0.994815 0.999857 0.935677
0.99619 0.995532 0.978052
0.995378 1.00011 0.960986
0.996001 0.999898 0.945454
0.995067 0.998147 0.932289
0.999522 1.0012 0.994266
1.00008 1.00173 0.992854
1.00027 1.00178 0.992347
0.995679 1.00069 0.994589
0.997175 1.00174 0.999358
1.00017 1.00153 0.992801
0.999746 1.00062 0.994375
0.999618 1.00127 0.994012
0.998041 1.00099 0.998153
0.995384 0.999336 0.996505
0.998284 1.0012 0.996718
0.995873 1.00135 0.995383
0.993975 1.00232 0.96418
0.992882 1.00316 0.985541
0.993037 1.00285 0.991692
0.995565 1.00046 1.002
0.995246 0.998524 0.981502
0.993202 1.00267 0.981308
0.996435 1.00003 0.95731
0.995241 0.999955 0.945081
0.994846 1.00404 0.950285
0.994663 0.998076 0.923289
0.995984 1.00089 0.999177
0.993974 1.00269 0.963359
0.995026 0.999481 0.934365
0.994934 0.999222 0.97952
0.997375 0.999608 0.942578
0.996214 1.00002 0.957795
0.997525 0.999146 0.99513
0.994813 0.999197 0.942673
0.997939 0.997207 0.943666
0.997869 1.00032 0.956368
0.99485 0.999458 0.979362
0.997215 1.00163 0.999093
0.999277 0.998687 0.998073
1.00227 0.998509 0.992946
0.997865 1.00373 0.993891
1.00056 1.00276 0.990439
1.00301 0.999399 0.988753
1.00096 1.005 0.988325
1.00219 1.00327 0.987123
1.00404 0.999724 0.987312
1.00186 1.005 0.9864
1.00333 1.00257 0.985783
1.00477 0.998878 0.986653
1.00482 0.998903 0.986769
1.0032 1.00327 0.985498
1.00389 1.00143 0.985894
1.00186 1.00407 0.987324
1.00218 1.00468 0.985984
1.00276 1.00406 0.985346
1.00088 1.00345 0.98959
1.0008 1.00384 0.989151
1.00095 1.00444 0.988529
1.00036 1.00299 0.991009
1.00033 1.00405 0.990047
1.00031 1.00435 0.989778
0.999962 1.00119 0.993493
1.00012 1.00258 0.991873
0.999918 1.0037 0.991127
0.999635 0.998623 0.997103
0.999952 1.00046 0.994251
1.00008 1.00178 0.99273
0.999577 0.997212 0.998313
0.999738 0.998309 0.997021
1.00001 0.999942 0.994679
0.999833 0.998065 0.996862
0.999646 0.996996 0.999296
0.999729 0.996827 0.999304
1.00016 1.00181 0.992526
1.0003 1.00086 0.993254
1.00019 1.00152 0.992799
1.00019 0.999829 0.994447
1.00031 1.00071 0.993381
0.999953 0.998042 0.996639
1.00022 0.999738 0.99449
1.00033 1.00066 0.993421
0.999839 0.996754 0.999261
1.00001 0.997877 0.996708
1.00022 0.999666 0.994571
0.999906 0.996559 0.999289
1.00005 0.997699 0.996798
0.999962 0.996385 0.999316
0.994291 1.00205 0.964882
0.993139 1.00295 0.981227
0.993185 1.00275 0.987828
1.00001 1.00262 0.992073
1.00023 1.00136 0.992922
1.00008 1.00202 0.992498
1.00009 1.00189 0.99263
1.00008 1.00227 0.992272
1.00003 1.00239 0.99225
1.00003 1.0027 0.991951
0.999942 1.00239 0.99227
1.00013 1.00168 0.992742
1.0002 1.00178 0.992521
1.00002 1.00195 0.992703
0.999816 1.00235 0.993055
0.99493 0.999742 0.934225
0.99477 1.00371 0.950697
0.993867 1.00389 0.964641
0.995015 0.999869 0.936448
0.995354 0.99993 0.947154
0.995148 1.00008 0.956474
0.996011 0.998133 0.972357
0.996419 0.995288 0.980019
0.994808 0.998137 0.927656
0.995345 1.0001 0.957666
0.997229 0.999931 0.942122
0.995632 0.997734 0.980878
0.995995 1.00006 0.96238
0.997704 0.999559 0.941078
0.999228 1.00049 0.995531
0.999676 1.00114 0.994245
1.00004 1.00181 0.992856
0.995013 0.999166 0.99661
0.997975 1.00027 0.99801
0.999603 1.00127 0.994019
0.998838 1.00102 0.996554
0.995723 1.00129 0.995588
0.997812 1.00083 0.995008
0.994737 0.999868 0.939369
0.993837 1.0022 0.968038
0.992757 1.00309 0.986992
0.995952 1.00096 0.999459
0.994845 0.999248 0.980607
0.993998 1.00287 0.963217
0.995384 1.00007 0.958341
0.997619 0.999534 0.938881
0.995075 0.999569 0.935562
0.997471 0.999345 0.995212
0.994816 0.998917 0.943209
0.998549 0.997017 0.940985
0.995069 0.999487 0.975292
0.996617 1.00022 0.960934
0.998729 0.998973 0.995467
0.999971 0.995143 0.940194
0.998189 0.999253 0.96076
0.995189 0.999792 0.974031
0.999031 0.998778 0.998153
1.00174 0.998198 0.993695
1.00376 0.99709 0.990933
1.00004 1.00308 0.990868
1.00299 0.999825 0.988675
1.00456 0.996787 0.988981
1.00221 1.00339 0.987189
1.00387 0.99989 0.987336
1.00499 0.997397 0.988003
1.00335 1.00254 0.985826
1.00478 0.998972 0.986627
1.00508 0.997368 0.987671
1.00497 0.997927 0.987401
1.00428 1.00062 0.986264
1.00481 0.998941 0.986748
1.00266 1.00307 0.986382
1.00316 1.00314 0.985668
1.00383 1.00139 0.985938
1.00141 1.00334 0.98873
1.0017 1.0041 0.987356
1.00203 1.00472 0.985823
1.00078 1.00284 0.990406
1.00093 1.00344 0.989569
1.00078 1.00377 0.989351
1.00009 1.0019 0.992576
1.00039 1.00297 0.991016
1.00028 1.00398 0.990144
0.999596 0.999046 0.996257
0.999981 1.00117 0.993477
1.00016 1.00254 0.991874
0.999434 0.997485 0.99926
0.999649 0.998672 0.996585
0.999948 1.00047 0.994235
0.999552 0.997207 0.999279
0.999747 0.998323 0.996775
0.999634 0.997037 0.999291
1.00013 1.00216 0.992321
1.00018 1.0018 0.992521
1.00026 1.00116 0.993014
1.00013 0.999986 0.994402
1.00029 1.00087 0.993259
1.00018 1.00153 0.992766
0.99989 0.998197 0.996605
1.00019 0.999832 0.994447
1.00031 1.00071 0.993382
0.999769 0.996923 0.999245
0.99995 0.998043 0.996641
1.00021 0.999756 0.994487
0.999845 0.996728 0.999268
1 0.997875 0.996712
0.999912 0.99653 0.999295
0.994748 0.999789 0.937402
0.994266 1.00206 0.964708
0.993067 1.00296 0.981265
0.999981 1.00269 0.992025
1.00008 1.00309 0.991587
0.999935 1.00303 0.991776
1.00011 1.0019 0.992662
1.0001 1.00222 0.992317
0.999993 1.00239 0.992208
0.999982 1.0024 0.99224
0.999999 1.00273 0.991913
0.999847 1.00345 0.991603
1.0001 1.00157 0.992871
1.00004 1.00195 0.992665
0.999779 1.00217 0.993038
0.999348 0.997249 0.939584
0.994845 0.999779 0.93182
0.994958 1.00381 0.950223
0.994636 0.998074 0.923016
0.995821 0.999788 0.944913
0.996148 1.00003 0.959672
0.995986 0.995268 0.977512
0.995328 0.997802 0.978926
0.997278 0.999197 0.942029
0.996083 1.00005 0.958173
0.99599 0.997629 0.980256
0.997551 1.00048 0.955818
1.00127 0.999934 0.993001
0.999405 1.00037 0.995372
0.999788 1.00106 0.99423
0.995487 1.00144 0.995772
0.999197 1.00091 0.996384
0.998254 1.00118 0.994393
1.00112 0.999844 0.989848
0.999999 0.994902 0.941351
0.994757 1.00022 0.941653
0.993718 1.00213 0.971857
0.997445 0.999344 0.99535
0.994856 0.999455 0.975609
0.994837 0.99897 0.94321
0.99651 1.00033 0.955797
0.999646 0.998692 0.944607
0.998659 0.999225 0.994121
0.999985 0.995289 0.94171
0.999593 0.998228 0.955435
0.995355 0.999467 0.97661
0.999473 0.997957 0.995153
1.00047 0.996744 0.95833
0.995956 1.00106 0.979201
1.00119 0.997833 0.994439
1.00363 0.996776 0.990899
1.00502 0.995094 0.990097
1.00296 1.0002 0.988597
1.00447 0.996753 0.988987
1.00488 0.995735 0.989535
1.0037 0.999976 0.987362
1.00488 0.997352 0.987951
1.00515 0.996244 0.988636
1.00479 0.999058 0.986602
1.00508 0.997364 0.987679
1.0051 0.996928 0.988081
1.00498 0.997637 0.987721
1.00498 0.997823 0.987465
1.00465 0.998836 0.987215
1.00377 1.00121 0.986535
1.00428 1.00059 0.986258
1.00479 0.998962 0.986727
1.00225 1.00276 0.987494
1.00268 1.00311 0.986538
1.00313 1.00299 0.985837
1.00117 1.00272 0.989775
1.00144 1.00334 0.988702
1.00154 1.00414 0.987387
1.00032 1.00215 0.991887
1.00082 1.00281 0.990406
1.00098 1.00343 0.989548
0.999605 0.999583 0.995675
1.00012 1.00183 0.992573
1.00043 1.00294 0.991023
0.999407 0.997762 0.999184
0.999596 0.999112 0.996223
0.999999 1.00115 0.993461
0.999464 0.997521 0.998745
0.999659 0.99869 0.996572
0.999541 0.997285 0.999266
1.00015 1.00259 0.991826
1.00009 1.00223 0.992289
1.00017 1.00164 0.992707
1.0002 1.0018 0.992516
1.00025 1.00118 0.993016
1.00005 1.00025 0.994265
0.999819 0.998359 0.996583
1.00013 0.99998 0.994406
1.00026 1.00089 0.993264
0.999691 0.997087 0.999235
0.999887 0.998194 0.996607
1.00019 0.999836 0.994448
0.999777 0.996901 0.99925
0.999945 0.998045 0.996644
0.999851 0.996697 0.999274
0.999921 0.995167 0.943013
0.994816 1.00018 0.937089
0.994249 1.00209 0.964527
0.999949 1.00277 0.991977
0.999923 1.00315 0.991654
0.999994 1.00306 0.991682
1.00034 1.0033 0.990888
0.999871 1.00365 0.991311
1.00001 1.00242 0.992211
0.999989 1.00275 0.991875
0.999805 1.00331 0.991636
0.999731 1.00392 0.990781
1.00022 1.00242 0.991814
1.00266 1.00061 0.989263
0.999862 1.00181 0.99305
0.999798 1.00197 0.993021
1.00015 0.997913 0.957425
0.998657 0.997359 0.940874
0.994797 0.99973 0.932325
0.997759 0.999688 0.938031
0.995793 1.00054 0.958562
0.99559 0.997911 0.981679
0.995732 0.997735 0.98227
0.996995 0.999711 0.961561
0.997834 1.00005 0.977648
1.00367 0.998162 0.989822
1.00091 0.999758 0.993009
0.999574 1.00027 0.995208
0.998485 1.00142 0.993818
1.0019 1.00076 0.988567
1.00067 0.995594 0.956008
0.99996 0.995286 0.943623
0.994782 1.00049 0.943975
0.998543 0.999509 0.992752
0.994886 0.999586 0.97415
0.99994 0.994914 0.942285
0.998732 0.999949 0.960994
0.999361 0.998787 0.995363
1.00163 0.995537 0.958749
0.995825 1.00048 0.975767
1.00093 1.00131 0.992164
1.00018 0.997515 0.98321
1.00351 0.996471 0.990869
1.00499 0.99502 0.989855
1.00504 0.995003 0.990029
1.00437 0.996751 0.98899
1.00477 0.995797 0.989534
1.00514 0.995016 0.989762
1.00479 0.997328 0.987898
1.00516 0.996168 0.988627
1.00512 0.996069 0.988898
1.00508 0.997371 0.987687
1.00511 0.996955 0.988054
1.00508 0.997123 0.988043
1.00498 0.997545 0.987757
1.00486 0.998191 0.987459
1.005 0.997732 0.987529
1.00467 0.998777 0.987213
1.0043 0.999726 0.987036
1.00325 1.00145 0.987023
1.00376 1.00125 0.986495
1.00428 1.00056 0.986252
1.00178 1.00246 0.988917
1.00221 1.0028 0.987605
1.00268 1.00315 0.986694
1.00058 1.00213 0.99137
1.00122 1.00271 0.989754
1.00147 1.00334 0.988675
0.999684 1.00012 0.99498
1.00035 1.00211 0.991894
1.00085 1.00281 0.990407
0.999409 0.998079 0.999067
0.999602 0.999652 0.995647
1.00016 1.00176 0.992572
0.999426 0.99782 0.999152
0.999592 0.999181 0.99619
0.999471 0.997574 0.999214
1.00047 1.00286 0.991014
1.00016 1.00255 0.991825
1.00017 1.00214 0.992152
1.00007 1.00226 0.992257
1.00015 1.00172 0.992635
0.999994 1.00072 0.993877
1.00024 1.00118 0.993018
1.00006 1.00023 0.994273
0.999735 0.998577 0.996524
0.999604 0.997264 0.999226
0.999813 0.998357 0.996585
1.00013 0.999975 0.994411
0.999701 0.997067 0.999238
0.999884 0.998193 0.996608
0.999784 0.996878 0.999254
1.00173 0.995384 0.959763
0.999947 0.995172 0.941715
0.99486 1.00059 0.936015
0.999909 1.00328 0.991533
0.999918 1.00302 0.991778
0.999884 1.00364 0.991357
1.0003 1.00327 0.990931
1.00058 1.00381 0.98989
0.99991 1.00378 0.990891
0.999761 1.00318 0.991669
0.999982 1.00402 0.990469
1.00013 1.00272 0.991617
1.00079 1.00282 0.989779
1.00295 1.0008 0.989428
1.00399 0.999267 0.987419
1.00238 1.0006 0.989526
0.999598 1.00214 0.993229
0.997194 1.00015 0.976403
1.00013 0.99785 0.957403
0.998471 0.997521 0.944576
0.998712 1.0004 0.955841
0.995726 0.997908 0.983809
0.998339 0.999365 0.981973
1.00215 0.998507 0.990945
1.00358 0.998104 0.990214
1.00082 0.999542 0.993013
1.0032 1.00183 0.987247
0.998918 0.997225 0.978381
1.0013 0.995159 0.961759
0.999965 0.995758 0.940473
0.999304 0.99948 0.995528
0.99557 1.00082 0.978154
1.00115 0.995094 0.959296
1.00085 1.0006 0.992297
0.999409 0.997824 0.981933
1.00358 1.0011 0.989246
1.00452 0.995897 0.989742
1.00497 0.99496 0.98961
1.00502 0.994995 0.989967
1.00508 0.995065 0.990001
1.00467 0.995865 0.989536
1.00513 0.995123 0.989726
1.00512 0.995521 0.989475
1.00518 0.99607 0.988618
1.00512 0.996121 0.988867
1.00511 0.996795 0.988365
1.00511 0.996978 0.988026
1.00507 0.997139 0.988007
1.005 0.997859 0.987458
1.00498 0.997451 0.987794
1.00486 0.99809 0.987512
1.00465 0.999006 0.987149
1.0047 0.998711 0.987212
1.00431 0.999723 0.987014
1.00392 1.0003 0.987235
1.00258 1.00153 0.988117
1.0032 1.00153 0.987115
1.00375 1.0013 0.986456
1.00101 1.002 0.990726
1.0018 1.00244 0.988911
1.00218 1.00285 0.987716
0.999759 1.00063 0.994337
1.00061 1.00216 0.991364
1.00127 1.00271 0.989733
0.999445 0.998431 0.998896
0.999706 1.00014 0.994969
1.00038 1.00206 0.991902
0.999439 0.998144 0.999014
0.999605 0.999715 0.995618
0.999448 0.997879 0.999117
1.00073 1.00331 0.990098
1.00048 1.00284 0.991055
1.0004 1.00244 0.99151
1.00015 1.00253 0.991824
1.00018 1.00219 0.992074
1.00004 1.00127 0.993254
1.00014 1.00179 0.992564
1 1.00071 0.993887
0.999647 0.998903 0.996356
1.00007 1.00021 0.994281
0.999732 0.99856 0.996532
0.999518 0.997476 0.999209
0.999616 0.997241 0.999229
0.999808 0.998354 0.996587
0.999709 0.99705 0.999241
0.998245 0.998573 0.977759
1.0016 0.995843 0.954932
0.99994 0.995309 0.944102
1.00149 1.00335 0.988711
0.999903 1.00363 0.991403
1.00025 1.00325 0.990974
0.999989 1.00385 0.990819
1.00052 1.00391 0.989843
1.0006 1.00297 0.99036
1.00022 1.00413 0.990156
1.00012 1.00297 0.991419
1.00098 1.00273 0.99001
1.00277 1.00087 0.989229
1.00414 0.999711 0.987078
1.00465 0.997919 0.9878
1.00413 0.999337 0.987039
1.00217 1.00053 0.989789
1.00115 0.998661 0.993289
0.997464 1.00023 0.974992
0.999502 0.997858 0.95776
0.99834 0.998684 0.980356
1.00213 0.997534 0.992789
1.00311 0.997997 0.990605
1.0029 0.996769 0.98897
0.998271 0.996206 0.981096
1.00077 0.995405 0.955794
1.00078 0.999967 0.992425
0.99947 0.997987 0.980533
1.00352 0.999321 0.989422
1.00451 0.996063 0.989671
1.00505 0.996172 0.989624
1.00508 0.996158 0.990024
1.005 0.99502 0.989903
1.00508 0.995051 0.990041
1.00509 0.995417 0.989683
1.00512 0.995233 0.989688
1.00512 0.995579 0.989466
1.00514 0.996514 0.98859
1.00511 0.996191 0.988837
1.00511 0.996803 0.98833
1.0051 0.997809 0.987349
1.00507 0.997156 0.987971
1.005 0.997867 0.987468
1.00485 0.998574 0.987085
1.00485 0.997993 0.987564
1.00464 0.998887 0.987181
1.00428 0.999604 0.987139
1.00431 0.999719 0.986992
1.0039 1.00028 0.987164
1.0033 1.00068 0.987939
1.00166 1.00145 0.99011
1.00255 1.00158 0.988215
1.00314 1.00161 0.987206
0.999894 1.00096 0.993756
1.00103 1.00201 0.990717
1.00183 1.00242 0.988906
0.999425 0.998863 0.998708
0.999843 1.00053 0.994328
1.00064 1.00216 0.991359
0.999461 0.998511 0.998832
0.999728 1.00015 0.994957
0.999471 0.998205 0.998956
1.0013 1.00326 0.988894
1.00071 1.00329 0.990115
1.00072 1.00271 0.990768
1.0005 1.00281 0.991096
1.0004 1.00243 0.991528
1.00015 1.00173 0.992628
1.00019 1.00224 0.991997
1.00001 1.00133 0.993254
0.999575 0.999368 0.996004
1 1.00071 0.993896
0.999649 0.998862 0.996376
0.999456 0.997715 0.999166
0.99973 0.998546 0.99654
0.999528 0.99744 0.999215
0.999626 0.997219 0.999233
1.00183 0.998462 0.991235
0.998259 0.998362 0.97435
1.00076 0.996039 0.960212
1.00164 1.0025 0.988874
1.0034 1.00138 0.987009
1.00126 1.00335 0.988843
1.00007 1.00391 0.990747
1.00047 1.004 0.989792
1.0009 1.00288 0.99011
1.00388 0.999931 0.987663
1.00112 1.00266 0.99024
1.00239 1.00098 0.989031
1.00394 0.999847 0.987334
1.00505 0.998307 0.986887
1.00505 0.996171 0.98881
1.00475 0.997939 0.987659
1.00425 0.999488 0.986661
1.00145 0.998565 0.993446
0.997076 1.00079 0.972935
1.00229 0.996628 0.994626
1.00511 0.995843 0.99022
1.00272 0.996999 0.989145
0.998962 0.995983 0.977416
1.00346 0.997718 0.989608
1.00448 0.996567 0.989598
1.00506 0.99572 0.989757
1.00507 0.995814 0.989846
1.00509 0.995442 0.989592
1.00514 0.995577 0.989097
1.00509 0.995003 0.990081
1.0051 0.995424 0.989675
1.00513 0.996481 0.988608
1.00512 0.995643 0.989457
1.00513 0.996615 0.988496
1.00515 0.997602 0.987489
1.0051 0.996812 0.988295
1.00509 0.99782 0.987362
1.00498 0.998531 0.986883
1.005 0.997876 0.987478
1.00485 0.998575 0.987084
1.00452 0.999234 0.987056
1.00463 0.998766 0.987214
1.00426 0.999571 0.987142
1.00366 1.00011 0.987782
1.00387 1.00027 0.987093
1.00324 1.00066 0.9879
1.00225 1.00075 0.989727
1.00012 1.0009 0.993325
1.00166 1.00146 0.990106
1.00252 1.00165 0.988313
0.999338 0.999389 0.998538
0.99998 1.00087 0.993741
1.00105 1.00204 0.990709
0.999427 0.998975 0.998649
0.999907 1.00049 0.994318
0.999481 0.998592 0.998768
1.00238 1.00245 0.987418
1.0013 1.00326 0.988755
1.00126 1.00272 0.989705
1.00068 1.00327 0.990131
1.00066 1.00271 0.99079
1.0003 1.00211 0.992036
1.00039 1.00241 0.991546
1.00011 1.0018 0.992625
0.999595 0.999868 0.995464
0.999991 1.00138 0.993254
0.999588 0.999297 0.99603
0.999432 0.99799 0.999068
0.99965 0.998821 0.996397
0.999455 0.997674 0.999182
0.999538 0.99741 0.999222
1.00511 0.995625 0.989397
1.00194 0.998165 0.990258
0.998192 0.997534 0.975048
1.00402 1.00013 0.987199
1.00137 1.00225 0.989655
1.00458 0.999191 0.986718
1.0035 1.00133 0.986962
1.00103 1.00336 0.988982
1.0051 0.998145 0.986929
1.00119 1.00277 0.989866
1.00402 0.999956 0.987288
1.00512 0.997302 0.987666
1.00385 0.999948 0.98759
1.00504 0.998194 0.986971
1.005 0.996271 0.988897
1.00471 0.997995 0.987509
1.00159 0.998464 0.993637
1.00516 0.995993 0.988813
1.00511 0.995948 0.990246
1.00254 0.9969 0.989302
1.00506 0.995188 0.989896
1.00506 0.995513 0.98967
1.00508 0.99539 0.989742
1.00515 0.995634 0.989176
1.00515 0.996427 0.988561
1.0051 0.995421 0.989667
1.00513 0.99651 0.988615
1.00516 0.997443 0.98764
1.00513 0.996707 0.988402
1.00515 0.997678 0.987405
1.00508 0.99858 0.986668
1.00508 0.99783 0.987375
1.00498 0.998534 0.986888
1.00468 0.999122 0.986871
1.00484 0.998577 0.987083
1.00452 0.999234 0.987057
1.00394 0.999762 0.987618
1.00423 0.999536 0.987146
1.00365 1.00012 0.98779
1.00263 1.0003 0.989471
1.00319 1.00065 0.987862
1.00224 1.00077 0.98972
1.00034 1.00065 0.994179
0.999387 0.99984 0.996269
1.00021 1.00083 0.993832
1.00166 1.00148 0.990101
0.999354 0.99952 0.998475
1.00009 1.00075 0.993723
0.999431 0.999072 0.998584
1.00491 0.998769 0.986897
1.00351 1.00063 0.987073
1.00256 1.00241 0.987297
1.00196 1.00233 0.988725
1.00129 1.00326 0.988616
1.00121 1.00273 0.989734
1.00063 1.0022 0.99136
1.00061 1.00271 0.990812
1.00026 1.00212 0.992046
0.999706 1.00036 0.994804
1.00007 1.00187 0.992622
0.99959 0.999827 0.99548
0.999417 0.998346 0.998906
0.999599 0.999225 0.996055
0.999417 0.997939 0.999104
0.999456 0.997632 0.999197
1.00516 0.996531 0.988324
1.00514 0.99582 0.989828
1.00214 0.998012 0.989279
1.00508 0.998245 0.986845
1.00385 1.00013 0.987478
1.0011 1.002 0.990423
1.00459 0.999311 0.986772
1.00359 1.00129 0.986916
1.00513 0.997474 0.987763
1.0051 0.998157 0.986872
1.00415 1.00001 0.986911
1.00512 0.997294 0.987649
1.00504 0.998094 0.987055
1.00499 0.996334 0.989002
1.00517 0.996638 0.98848
1.00517 0.995941 0.988878
1.00512 0.996048 0.990277
1.00507 0.99533 0.989888
1.00516 0.995692 0.989255
1.00515 0.996313 0.988712
1.00517 0.997462 0.987641
1.00513 0.996545 0.988622
1.00516 0.997462 0.987615
1.00515 0.998508 0.986622
1.00514 0.997752 0.987322
1.00507 0.998578 0.98668
1.00482 0.999179 0.986579
1.00497 0.998537 0.986892
1.00468 0.999122 0.986869
1.00411 0.999613 0.987437
1.00452 0.999234 0.987057
1.00393 0.999764 0.987621
1.00287 1.00006 0.989257
1.00363 1.00013 0.987797
1.00263 1.0003 0.989464
1.00057 1.00032 0.994159
1.00223 1.00079 0.989714
1.00047 1.0006 0.994127
0.999397 1.00015 0.996122
0.999306 0.999994 0.997283
1.00034 1.00075 0.994269
0.999367 0.999638 0.99841
1.00509 0.998428 0.986739
1.00432 0.999489 0.987229
1.00489 0.998612 0.986971
1.00283 1.00136 0.988014
1.00362 1.00071 0.987057
1.00272 1.00236 0.987176
1.00196 1.00233 0.988725
1.00117 1.00195 0.990569
1.00115 1.00275 0.989762
1.00059 1.00218 0.991373
0.999857 1.00077 0.994146
1.00021 1.00212 0.992056
0.999653 1.00039 0.994814
0.999351 0.998864 0.998706
0.999587 0.99978 0.995496
0.999403 0.998274 0.998964
0.999408 0.997889 0.999137
1.00514 0.997012 0.988088
1.00515 0.996528 0.988318
1.00515 0.995942 0.990239
1.00515 0.99785 0.987267
1.0051 0.998303 0.986855
1.00369 1.00013 0.987761
1.00461 0.999427 0.986826
1.00512 0.997461 0.987674
1.00509 0.998169 0.986815
1.0051 0.997296 0.987632
1.00515 0.997301 0.987834
1.00517 0.996678 0.988406
1.00518 0.995894 0.988944
1.00515 0.997746 0.987352
1.00515 0.996197 0.988862
1.00517 0.997468 0.987638
1.00517 0.998322 0.986858
1.00516 0.997481 0.98759
1.00514 0.998506 0.986635
1.00498 0.999139 0.986305
1.00506 0.99858 0.986693
1.0048 0.999181 0.986587
1.00426 0.999651 0.987125
1.00468 0.999122 0.986867
1.00412 0.999613 0.987435
1.00302 0.99996 0.989081
1.00393 0.999765 0.987624
1.00288 1.00005 0.989253
1.00075 1.00007 0.994133
1.00263 1.0003 0.989456
1.00067 1.00029 0.994107
0.999456 1.00011 0.996122
1.0006 1.00052 0.994081
0.999258 1.0003 0.996209
0.999118 1.00013 0.99846
1.00511 0.998445 0.986713
1.00479 0.998908 0.986878
1.0051 0.998431 0.986766
1.00364 1.00031 0.987878
1.00437 0.999362 0.987188
1.00485 0.998461 0.987043
1.0019 1.0013 0.9898
1.00285 1.00139 0.987986
1.00373 1.00081 0.987042
1.00195 1.00233 0.988725
1.00115 1.00192 0.990583
1.00004 1.001 0.99358
1.00055 1.00216 0.991387
0.999762 1.00086 0.994162
0.999242 0.999513 0.998518
0.999601 1.00044 0.994824
0.999354 0.998751 0.998779
0.999395 0.998199 0.999018
1.00514 0.997547 0.987529
1.00514 0.996954 0.988109
1.00515 0.996523 0.988312
1.00514 0.997815 0.987297
1.00511 0.998359 0.986865
1.00513 0.997447 0.987585
1.00513 0.997765 0.987429
1.00514 0.997362 0.987792
1.00516 0.996717 0.988332
1.00515 0.997717 0.987417
1.00514 0.998295 0.986875
1.00517 0.997475 0.987636
1.00516 0.998386 0.986753
1.00508 0.998975 0.986292
1.00513 0.998502 0.986648
1.00496 0.999144 0.986321
1.00448 0.999671 0.986703
1.00479 0.99918 0.986594
1.00426 0.999649 0.987125
1.00315 0.999957 0.98884
1.00412 0.999613 0.987433
1.00303 0.999945 0.989079
1.00086 0.999969 0.994043
1.00289 1.00003 0.989248
1.00082 1.00005 0.994075
0.99956 1 0.996095
1.00077 1.00024 0.994063
0.999313 1.00021 0.99622
0.999111 1.00051 0.996284
1.00513 0.998126 0.987045
1.00491 0.998942 0.986566
1.00512 0.99837 0.986774
1.00414 0.999488 0.987594
1.00479 0.998954 0.9869
1.00511 0.998431 0.986795
1.00257 1.0005 0.989318
1.00365 1.00021 0.987735
1.00442 0.999226 0.987148
1.0003 1.00089 0.99315
1.0019 1.00129 0.98981
1.00286 1.00141 0.987959
1.00114 1.00191 0.990596
0.999932 1.0011 0.993603
0.999201 1.00011 0.998366
0.999666 1.00097 0.994177
0.999252 0.999369 0.998586
0.99936 0.998631 0.998844
1.00513 0.997832 0.987302
1.00514 0.99753 0.987559
1.00514 0.996898 0.988129
1.00514 0.99778 0.987327
1.00514 0.998297 0.98687
1.00513 0.997773 0.987438
1.00514 0.997422 0.987751
1.00516 0.997692 0.987483
1.00514 0.998255 0.98691
1.0051 0.998918 0.986417
1.00516 0.998448 0.986647
1.00507 0.999051 0.986256
1.00467 0.999516 0.986398
1.00493 0.999152 0.986338
1.00447 0.999671 0.986711
1.00335 0.999977 0.988445
1.00426 0.999652 0.987125
1.00316 0.999947 0.988836
1.00095 0.999999 0.992764
1.00305 0.999928 0.989076
1.00092 0.999939 0.993449
0.99958 0.999994 0.998238
1.0009 1.00003 0.994019
0.999431 1.00004 0.996196
0.99918 1.00033 0.996301
1.00513 0.998138 0.987071
1.00498 0.998801 0.986607
1.00513 0.998179 0.987015
1.00436 0.999285 0.987072
1.00491 0.998937 0.986642
1.00513 0.998295 0.986834
1.003 0.999868 0.988875
1.00415 0.999524 0.987584
1.0048 0.999007 0.986922
1.00061 1.00046 0.992944
1.00259 1.00045 0.989201
1.00366 1.00011 0.987592
0.99927 1.00043 0.998266
1.00023 1.00095 0.99317
1.0019 1.00129 0.989821
0.999838 1.00117 0.993624
0.999169 0.999969 0.99842
0.999254 0.999209 0.998654
1.00515 0.998243 0.986919
1.00514 0.997824 0.987312
1.00513 0.997513 0.987589
1.0051 0.998869 0.986418
1.00514 0.998259 0.986912
1.00514 0.997779 0.987448
1.00514 0.998209 0.986946
1.0051 0.998911 0.986416
1.00477 0.999413 0.986573
1.00505 0.999129 0.986221
1.00467 0.999576 0.986518
1.00359 0.999872 0.987835
1.00447 0.999666 0.986718
1.00335 0.999972 0.988444
1.00108 1.00006 0.992457
1.00318 0.999938 0.988831
1.00096 0.999991 0.992754
0.999614 0.999984 0.9982
1.00093 0.999927 0.992909
0.999529 0.999962 0.997215
0.999304 1.00007 0.996292
1.00513 0.998338 0.986904
1.00501 0.99873 0.986642
1.00513 0.99812 0.987065
1.00446 0.999306 0.987041
1.00498 0.99883 0.986557
1.00513 0.998232 0.986985
1.00323 0.999647 0.988669
1.00437 0.999353 0.987228
1.00491 0.998932 0.986718
1.00084 1.00004 0.9929
1.00301 0.99987 0.988858
1.00415 0.999556 0.987574
0.999403 1.0004 0.99823
1.00058 1.00047 0.99296
1.0026 1.00039 0.989083
0.999219 1.00033 0.998296
1.00015 1.00098 0.993199
0.999142 0.999825 0.99848
1.00509 0.998738 0.986566
1.00514 0.998258 0.986889
1.00514 0.997815 0.987322
1.00475 0.999314 0.986703
1.0051 0.99883 0.986472
1.00513 0.998228 0.986954
1.0051 0.998903 0.986415
1.00477 0.999419 0.986569
1.00372 0.999761 0.987705
1.00466 0.999639 0.986638
1.00358 0.999905 0.987955
1.00126 1.00006 0.992121
1.00336 0.999963 0.988442
1.00109 1.00006 0.992443
0.999691 0.999991 0.99812
1.00097 0.999987 0.992745
0.999639 0.999979 0.998175
0.999582 0.999891 0.99608
1.00501 0.998756 0.986748
1.00513 0.998267 0.98691
1.00451 0.999258 0.987023
1.00499 0.998731 0.986643
1.00513 0.998101 0.98706
1.00335 0.999681 0.988731
1.00447 0.999301 0.987035
1.00497 0.998858 0.986507
1.00099 0.999851 0.992805
1.00323 0.999697 0.988771
1.00438 0.999428 0.987384
0.999561 1.00017 0.99821
1.00084 1.00003 0.992907
1.00302 0.999871 0.98884
0.999363 1.00036 0.998235
1.00055 1.00048 0.992972
0.999147 1.00026 0.998337
1.00469 0.999258 0.986876
1.00509 0.99876 0.986546
1.00514 0.998273 0.986859
1.00368 0.999705 0.987815
1.00475 0.999328 0.986701
1.0051 0.998787 0.986525
1.00477 0.999426 0.986565
1.00372 0.999759 0.9877
1.00137 1.00004 0.991956
1.00357 0.999934 0.988075
1.00127 1.00006 0.992111
0.999816 1.00001 0.998014
1.0011 1.00006 0.992429
0.999735 0.999993 0.998083
0.999668 0.999974 0.998144
1.00455 0.999261 0.986978
1.005 0.998673 0.986759
1.00513 0.998195 0.986915
1.00341 0.999703 0.988597
1.00452 0.999259 0.987012
1.00498 0.998733 0.986644
1.0011 0.999862 0.992611
1.00334 0.999691 0.988726
1.00449 0.999295 0.987029
0.999682 1 0.998159
1.00099 0.999849 0.992812
1.00323 0.999741 0.988872
0.999519 1.00019 0.998216
1.00083 1.00003 0.992914
0.999317 1.00034 0.998243
1.00362 0.999768 0.988147
1.0047 0.999233 0.986744
1.0051 0.99878 0.986526
1.00136 0.999987 0.992002
1.00369 0.999701 0.987801
1.00475 0.999342 0.986699
1.00372 0.999757 0.987695
1.00136 1.00003 0.991958
0.999907 1.00001 0.997929
1.00127 1.00006 0.992101
0.999848 1.00001 0.997976
0.999771 0.999995 0.998044
1.0035 0.999748 0.988385
1.00457 0.999209 0.986935
1.00499 0.998592 0.98677
1.00122 0.999963 0.993516
1.00341 0.999709 0.988589
1.00453 0.999261 0.987001
0.999754 0.99995 0.998086
1.00109 0.999879 0.992617
1.00334 0.9997 0.98872
0.999642 1.00004 0.998181
1.00099 0.999856 0.992819
0.999486 1.0002 0.998217
1.00136 0.99999 0.992041
1.00362 0.999733 0.98805
1.00472 0.999206 0.986612
0.999924 1 0.997921
1.00136 0.999993 0.992003
1.0037 0.9997 0.987786
1.00136 1.00002 0.991958
0.999923 1.00001 0.99792
0.999893 1.00001 0.997947
1.00134 0.999999 0.993303
1.00351 0.999743 0.988388
1.00458 0.999156 0.986891
0.999575 0.999981 0.998244
1.00116 0.999975 0.992425
1.00342 0.999712 0.988582
0.999727 0.999973 0.998116
1.00109 0.999902 0.992623
0.999612 1.00006 0.998198
0.999893 1.00001 0.995533
1.00136 0.999987 0.992657
1.00362 0.9997 0.987952
0.999918 1 0.997923
1.00135 0.999997 0.992008
0.99993 1.00001 0.997909
0.99961 1.00001 0.995853
1.00128 0.999999 0.992795
1.00351 0.999741 0.988391
0.999673 0.99999 0.996982
1.00116 0.999982 0.99242
0.9997 0.999991 0.998143
0.999894 0.999998 0.997939
1.0013 0.999989 0.992116
0.999907 1 0.997929
0.999731 0.999999 0.996904
1.00123 0.999999 0.992255
0.999758 0.999981 0.998075
0.999866 0.999994 0.997967
0.999809 0.999988 0.998015

TENSORS stress float
0.00129721 -3.73938e-05 0.000102943
-3.73938e-05 0.000372022 -1.17568e-05
0.000102943 -1.17568e-05 0.0003516
0.00381207 -9.0005e-05 9.67208e-05
-9.0005e-05 0.00175426 5.51913e-06
9.67208e-05 5.51913e-06 0.00174622
0.00130568 2.719e-05 5.38056e-05
2.719e-05 0.000390836 -3.48888e-06
5.38056e-05 -3.48888e-06 0.000361016
0.00168058 -2.98614e-05 0.000113893
-2.98614e-05 0.000552632 -8.33027e-06
0.000113893 -8.33027e-06 0.000532739
0.00146517 -3.7836e-05 0.000107024
-3.7836e-05 0.000455651 -1.14282e-05
0.000107024 -1.14282e-05 0.000434221
0.00117229 -1.47254e-05 9.23114e-05
-1.47254e-05 0.000301468 -1.03571e-05
9.23114e-05 -1.03571e-05 0.000283764
0.00121527 -8.12213e-06 9.6281e-06
-8.12213e-06 0.000276677 -6.61602e-06
9.6281e-06 -6.61602e-06 0.000214044
0.00370353 -0.000113518 5.08063e-06
-0.000113518 0.00169534 -5.62719e-07
5.08063e-06 -5.62719e-07 0.00168584
0.00466 -0.00012822 1.70509e-05
-0.00012822 0.00221622 1.96957e-06
1.70509e-05 1.96957e-06 0.0021964
0.00383476 -0.000217173 6.54372e-07
-0.000217173 0.00180432 3.16351e-06
6.54372e-07 3.16351e-06 0.00177129
0.00128409 -1.84013e-05 8.00812e-05
-1.84013e-05 0.000348131 5.58098e-06
8.00812e-05 5.58098e-06 0.000337619
0.000753663 6.44653e-05 1.0278e-05
6.44653e-05 2.41094e-05 7.3426e-06
1.0278e-05 7.3426e-06 -2.93703e-05
0.00168759 -1.43521e-05 0.000130522
-1.43521e-05 0.000544658 1.48288e-06
0.000130522 1.48288e-06 0.000524251
0.00126058 1.70527e-05 1.80241e-05
1.70527e-05 0.000329368 1.93428e-06
1.80241e-05 1.93428e-06 0.000300788
0.00136274 8.76653e-05 -1.46253e-06
8.76653e-05 0.000435003 4.28714e-06
-1.46253e-06 4.28714e-06 0.000396826
0.00147957 -1.58468e-05 4.61617e-05
-1.58468e-05 0.000448056 -2.75885e-06
4.61617e-05 -2.75885e-06 0.000425191
0.00119951 3.4526e-05 4.5481e-05
3.4526e-05 0.000329896 -3.40722e-06
4.5481e-05 -3.40722e-06 0.000303256
0.0013871 1.39284e-05 5.24574e-05
1.39284e-05 0.000423253 -3.92512e-06
5.24574e-05 -3.92512e-06 0.000395757
0.00132575 -3.80539e-05 -2.17955e-05
-3.80539e-05 0.000327003 7.18015e-07
-2.17955e-05 7.18015e-07 0.000270494
0.00504247 -6.24486e-05 0.000136773
-6.24486e-05 0.00239553 -2.20085e-06
0.000136773 -2.20085e-06 0.00239104
0.00165785 -1.85413e-05 0.000116164
-1.85413e-05 0.000537579 -6.52107e-06
0.000116164 -6.52107e-06 0.000517545
0.00161544 -3.5676e-05 0.000111105
-3.5676e-05 0.000524516 -1.00814e-05
0.000111105 -1.00814e-05 0.00050386
0.00146219 -4.73814e-05 2.60407e-05
-4.73814e-05 0.00034684 -3.90933e-06
2.60407e-05 -3.90933e-06 0.000293479
0.00134248 -2.14164e-05 1.52553e-05
-2.14164e-05 0.000317129 -5.95185e-06
1.52553e-05 -5.95185e-06 0.000257922
0.00114143 2.77704e-05 7.33922e-05
2.77704e-05 0.000277324 -8.37275e-06
7.33922e-05 -8.37275e-06 0.00026079
0.00106333 -5.38789e-06 9.48155e-06
-5.38789e-06 0.000212757 -5.76897e-06
9.48155e-06 -5.76897e-06 0.000154139
0.00172126 -0.000134332 6.78678e-06
-0.000134332 0.000435614 -3.20959e-06
6.78678e-06 -3.20959e-06 0.000338847
0.00357378 -0.000132035 -7.35642e-05
-0.000132035 0.00162511 -3.34885e-06
-7.35642e-05 -3.34885e-06 0.00161381
0.00297704 -3.99417e-05 -6.28597e-05
-3.99417e-05 0.00128966 -1.67465e-06
-6.28597e-05 -1.67465e-06 0.0012672
0.0025578 -0.000100706 -3.93368e-05
-0.000100706 0.0010827 -1.34159e-06
-3.93368e-05 -1.34159e-06 0.00105739
0.00336063 -0.00011396 3.60625e-06
-0.00011396 0.00149767 -2.67981e-07
3.60625e-06 -2.67981e-07 0.00149176
0.000662778 5.4269e-05 -1.29763e-07
5.4269e-05 -2.01756e-05 -2.51711e-07
-1.29763e-07 -2.51711e-07 -7.3354e-05
0.00157205 4.23548e-05 0.000115679
4.23548e-05 0.00049603 7.75545e-06
0.000115679 7.75545e-06 0.000475013
0.00176823 5.47119e-05 0.000110487
5.47119e-05 0.000623007 9.75167e-06
0.000110487 9.75167e-06 0.000602487
0.00243154 0.000117448 6.91519e-05
0.000117448 0.000891095 8.16635e-06
6.91519e-05 8.16635e-06 0.000842207
0.00284469 -0.000123108 1.53027e-05
-0.000123108 0.0012115 1.38259e-06
1.53027e-05 1.38259e-06 0.00120587
0.00220962 8.34425e-05 5.61746e-05
8.34425e-05 0.000812415 7.43672e-06
5.61746e-05 7.43672e-06 0.000765026
0.000672672 2.04635e-05 9.63368e-06
2.04635e-05 -1.31476e-05 9.08597e-06
9.63368e-06 9.08597e-06 -5.96437e-05
0.000942252 9.85369e-05 4.48366e-06
9.85369e-05 8.34531e-05 1.76908e-06
4.48366e-06 1.76908e-06 -1.21299e-05
0.00252646 -8.16559e-05 4.77086e-05
-8.16559e-05 0.00102322 2.76246e-06
4.77086e-05 2.76246e-06 0.00102951
0.00511684 2.48079e-05 2.72782e-07
2.48079e-05 0.00243146 -9.03836e-07
2.72782e-07 -9.03836e-07 0.00242837
0.00313033 2.3935e-05 -5.1719e-05
2.3935e-05 0.0013513 -1.10693e-06
-5.1719e-05 -1.10693e-06 0.00133497
0.00518771 6.21748e-05 0.00014173
6.21748e-05 0.00246991 9.53009e-07
0.00014173 9.53009e-07 0.00246565
0.00135181 -2.88916e-05 1.12531e-05
-2.88916e-05 0.000379478 1.18188e-06
1.12531e-05 1.18188e-06 0.000348799
0.000764517 -1.41837e-06 1.55115e-05
-1.41837e-06 -6.70718e-05 2.27238e-06
1.55115e-05 2.27238e-06 -0.000128201
0.00476992 6.04647e-05 4.81622e-05
6.04647e-05 0.00225235 2.67307e-06
4.81622e-05 2.67307e-06 0.00224109
0.00243891 2.26373e-05 7.15283e-05
2.26373e-05 0.000861963 4.42519e-06
7.15283e-05 4.42519e-06 0.000818606
0.00125005 -3.07333e-05 -2.47322e-05
-3.07333e-05 0.000330334 2.62388e-06
-2.47322e-05 2.62388e-06 0.000303266
0.00135111 1.75805e-05 -1.47084e-05
1.75805e-05 0.000406222 3.26223e-06
-1.47084e-05 3.26223e-06 0.000377551
0.00126755 0.000101042 -1.21007e-06
0.000101042 0.000384343 4.16885e-06
-1.21007e-06 4.16885e-06 0.00034612
0.0013845 -6.44546e-05 -5.61272e-05
-6.44546e-05 0.0003494 7.63237e-06
-5.61272e-05 7.63237e-06 0.000298699
0.00327737 3.96616e-05 -5.48452e-05
3.96616e-05 0.0014362 -1.02128e-06
-5.48452e-05 -1.02128e-06 0.00141248
0.00147122 -2.08095e-05 4.68623e-05
-2.08095e-05 0.000442563 -1.75128e-06
4.68623e-05 -1.75128e-06 0.0004187
0.00112496 4.92781e-05 3.5247e-05
4.92781e-05 0.000276908 -2.67782e-06
3.5247e-05 -2.67782e-06 0.000255587
0.0014595 -6.85742e-06 4.84999e-05
-6.85742e-06 0.000445323 -3.70576e-06
4.84999e-05 -3.70576e-06 0.000421329
0.00149936 -5.11897e-05 -1.7097e-05
-5.11897e-05 0.000364429 5.91862e-07
-1.7097e-05 5.91862e-07 0.000313305
0.00120217 -2.18617e-05 -1.98494e-05
-2.18617e-05 0.000281322 3.55515e-07
-1.98494e-05 3.55515e-07 0.000226688
0.00142366 -5.44833e-05 -1.8789e-05
-5.44833e-05 0.000353092 8.83488e-07
-1.8789e-05 8.83488e-07 0.000299292
0.00182576 -0.000138542 -3.39293e-06
-0.000138542 0.000488645 1.04529e-06
-3.39293e-06 1.04529e-06 0.000390723
0.00510409 4.98207e-05 0.000131658
4.98207e-05 0.00242477 7.10845e-08
0.000131658 7.10845e-08 0.00242182
0.00166143 -4.98968e-06 0.000121056
-4.98968e-06 0.000534816 -4.46868e-06
0.000121056 -4.46868e-06 0.000513952
0.00232719 6.42761e-05 1.42322e-05
6.42761e-05 0.000809029 -1.22302e-06
1.42322e-05 -1.22302e-06 0.000753549
0.00144057 -4.87969e-05 2.64716e-05
-4.87969e-05 0.00033311 -3.45294e-06
2.64716e-05 -3.45294e-06 0.000278969
0.00143877 -4.04064e-05 2.23069e-05
-4.04064e-05 0.000343841 -4.85449e-06
2.23069e-05 -4.85449e-06 0.000288792
0.00194686 -9.45314e-05 8.37464e-06
-9.45314e-05 0.000459993 -1.92836e-06
8.37464e-06 -1.92836e-06 0.000368895
0.0014161 -0.00011392 9.4894e-06
-0.00011392 0.000220023 -3.82405e-06
9.4894e-06 -3.82405e-06 0.000122114
0.0011717 4.75365e-05 5.76905e-05
4.75365e-05 0.000278168 -7.33308e-06
5.76905e-05 -7.33308e-06 0.000266042
0.000906847 2.11532e-05 7.9125e-06
2.11532e-05 0.000141259 -4.41757e-06
7.9125e-06 -4.41757e-06 9.24232e-05
0.00149589 -0.000120981 4.67196e-06
-0.000120981 0.000365323 -2.51888e-06
4.67196e-06 -2.51888e-06 0.00027162
0.00121718 -0.000134682 4.4127e-06
-0.000134682 8.6481e-05 -1.91144e-06
4.4127e-06 -1.91144e-06 -3.76753e-05
0.00467986 -2.15525e-05 -0.00011554
-2.15525e-05 0.00221365 -6.44822e-06
-0.00011554 -6.44822e-06 0.00220783
0.00323119 -0.000120472 -6.23514e-05
-0.000120472 0.00142574 -2.76489e-06
-6.23514e-05 -2.76489e-06 0.00141991
0.00388089 -0.000134183 -8.26918e-05
-0.000134183 0.00180523 -4.7422e-06
-8.26918e-05 -4.7422e-06 0.00178968
0.000580556 5.1513e-05 -8.85921e-06
5.1513e-05 -6.07013e-05 -7.78732e-06
-8.85921e-06 -7.78732e-06 -0.000113521
0.00501728 3.60368e-05 -2.73211e-06
3.60368e-05 0.00238193 -7.577e-07
-2.73211e-06 -7.577e-07 0.00237818
0.00456278 -8.62543e-05 -3.62551e-06
-8.62543e-05 0.00217026 3.43066e-07
-3.62551e-06 3.43066e-07 0.00215543
0.000613704 9.58422e-05 -6.73656e-07
9.58422e-05 -9.97273e-05 -2.34394e-07
-6.73656e-07 -2.34394e-07 -0.000161653
0.00196331 -8.30417e-05 -2.53519e-05
-8.30417e-05 0.000722341 -3.52294e-07
-2.53519e-05 -3.52294e-07 0.00071536
0.000630027 8.44804e-05 -2.39313e-07
8.44804e-05 -4.7627e-05 -8.37244e-08
-2.39313e-07 -8.37244e-08 -0.000104865
0.00121434 2.88845e-07 1.53769e-05
2.88845e-07 0.000290599 3.09816e-07
1.53769e-05 3.09816e-07 0.000248529
0.000874075 9.34515e-05 2.58532e-07
9.34515e-05 4.52507e-05 -1.83239e-07
2.58532e-07 -1.83239e-07 -4.94452e-05
0.00278255 -8.93987e-05 5.77889e-05
-8.93987e-05 0.00116655 2.86224e-06
5.77889e-05 2.86224e-06 0.00117015
0.000662814 -6.74634e-05 -1.12222e-06
-6.74634e-05 -5.3536e-06 5.04037e-06
-1.12222e-06 5.04037e-06 -3.14639e-05
0.000735192 7.02245e-05 1.61536e-05
7.02245e-05 -5.92812e-05 7.54499e-06
1.61536e-05 7.54499e-06 -0.000120142
0.000784763 0.000102415 1.83628e-05
0.000102415 1.07521e-05 1.0737e-05
1.83628e-05 1.0737e-05 -5.12489e-05
0.00106864 0.000104782 9.10042e-06
0.000104782 6.67327e-06 4.08493e-06
9.10042e-06 4.08493e-06 -9.88806e-05
0.00167572 -4.41995e-05 3.09674e-05
-4.41995e-05 0.000549737 4.2787e-06
3.09674e-05 4.2787e-06 0.000518438
0.000996035 0.000109776 5.50372e-06
0.000109776 7.22341e-05 3.41331e-06
5.50372e-06 3.41331e-06 -2.65889e-05
0.000920558 7.64585e-05 4.16275e-06
7.64585e-05 0.000104339 2.27392e-06
4.16275e-06 2.27392e-06 1.15182e-05
0.000865404 0.000120968 1.69057e-06
0.000120968 6.97676e-06 -2.92925e-07
1.69057e-06 -2.92925e-07 -0.000110855
0.00230419 -7.40527e-05 3.8124e-05
-7.40527e-05 0.000895599 2.814e-06
3.8124e-05 2.814e-06 0.000904557
0.0024425 -8.30334e-05 1.73941e-06
-8.30334e-05 0.000978014 -1.43239e-07
1.73941e-06 -1.43239e-07 0.000984117
0.00495219 4.52499e-05 -0.000133081
4.52499e-05 0.00234444 -5.04515e-06
-0.000133081 -5.04515e-06 0.00234197
0.0050685 4.48412e-05 -0.00013333
4.48412e-05 0.00240643 -2.28364e-06
-0.00013333 -2.28364e-06 0.00240333
0.00518277 6.60288e-05 3.71583e-06
6.60288e-05 0.00247019 -6.51025e-07
3.71583e-06 -6.51025e-07 0.0024643
0.00316688 -1.68194e-05 -5.85069e-05
-1.68194e-05 0.00136796 -1.05585e-06
-5.85069e-05 -1.05585e-06 0.00135208
0.00164243 1.175e-05 3.09594e-05
1.175e-05 0.000415967 2.20753e-07
3.09594e-05 2.20753e-07 0.000362693
0.0031614 3.89089e-05 -5.72476e-05
3.89089e-05 0.00136689 -2.31402e-06
-5.72476e-05 -2.31402e-06 0.00135078
0.00162202 3.75892e-05 2.87962e-05
3.75892e-05 0.000417871 7.31027e-07
2.87962e-05 7.31027e-07 0.000366394
0.00520414 0.000123912 0.000133809
0.000123912 0.00248683 1.92298e-06
0.000133809 1.92298e-06 0.00247705
0.000715041 -5.07706e-06 1.5024e-05
-5.07706e-06 -9.83602e-05 6.15062e-07
1.5024e-05 6.15062e-07 -0.000159471
0.00250909 -3.42049e-06 7.36429e-05
-3.42049e-06 0.000896069 3.24769e-06
7.36429e-05 3.24769e-06 0.00085148
0.0011959 2.17379e-05 1.0247e-05
2.17379e-05 9.71758e-06 1.56396e-06
1.0247e-05 1.56396e-06 -9.2716e-05
0.00237933 6.70396e-05 7.08971e-05
6.70396e-05 0.000836227 5.16131e-06
7.08971e-05 5.16131e-06 0.000790899
0.00118408 5.62863e-05 9.78755e-06
5.62863e-05 2.21574e-05 2.42465e-06
9.78755e-06 2.42465e-06 -7.76632e-05
0.00170791 2.19778e-05 -0.000128881
2.19778e-05 0.000557907 6.1786e-07
-0.000128881 6.1786e-07 0.000537675
0.00123445 -4.30755e-05 -2.20635e-05
-4.30755e-05 0.000321955 2.1976e-06
-2.20635e-05 2.1976e-06 0.000293084
0.00108496 8.4405e-05 -6.3488e-06
8.4405e-05 0.000265605 3.03003e-06
-6.3488e-06 3.03003e-06 0.000237298
0.00130718 -1.29424e-05 -2.15376e-05
-1.29424e-05 0.000368407 2.98281e-06
-2.15376e-05 2.98281e-06 0.000341195
0.00156643 -4.0965e-05 -6.16723e-05
-4.0965e-05 0.000397289 4.82353e-06
-6.16723e-05 4.82353e-06 0.000348888
0.00147722 -6.26576e-05 -5.87054e-05
-6.26576e-05 0.000377521 7.43917e-06
-5.87054e-05 7.43917e-06 0.000326774
0.00127982 -4.60774e-05 -4.94026e-05
-4.60774e-05 0.000314477 6.83172e-06
-4.94026e-05 6.83172e-06 0.000265289
0.00195384 -0.000144109 -1.43416e-05
-0.000144109 0.000554832 5.60219e-06
-1.43416e-05 5.60219e-06 0.000455562
0.00516932 -4.51947e-05 -2.29978e-06
-4.51947e-05 0.0024607 -6.52139e-07
-2.29978e-06 -6.52139e-07 0.00245626
0.0014727 9.57624e-06 5.36458e-05
9.57624e-06 0.000438848 -1.43651e-06
5.36458e-05 -1.43651e-06 0.000414269
0.00115742 5.73838e-06 -3.32966e-05
5.73838e-06 0.000154279 4.22124e-07
-3.32966e-05 4.22124e-07 9.87173e-05
0.0014813 -4.23036e-05 -1.82497e-05
-4.23036e-05 0.000351943 3.4646e-07
-1.82497e-05 3.4646e-07 0.000300387
0.00214674 7.692e-05 5.23953e-05
7.692e-05 0.000822367 -7.03684e-07
5.23953e-05 -7.03684e-07 0.000814498
0.00135666 1.24695e-05 -1.25477e-05
1.24695e-05 0.00038017 -1.5437e-07
-1.25477e-05 -1.5437e-07 0.000333413
0.00149027 -5.61622e-05 -1.75037e-05
-5.61622e-05 0.000368663 7.29939e-07
-1.75037e-05 7.29939e-07 0.000316304
0.00177062 -8.76463e-05 -5.75299e-06
-8.76463e-05 0.00036231 1.00038e-06
-5.75299e-06 1.00038e-06 0.000270178
0.00166923 -0.000132066 -2.51732e-06
-0.000132066 0.000455589 9.60027e-07
-2.51732e-06 9.60027e-07 0.000359576
0.0016893 -0.000122988 -1.74721e-06
-0.000122988 0.000368698 2.86294e-07
-1.74721e-06 2.86294e-07 0.000271219
0.00119706 -0.000132796 -8.46644e-08
-0.000132796 7.5983e-05 -9.98334e-08
-8.46644e-08 -9.98334e-08 -4.78611e-05
0.000734386 4.53593e-06 1.52128e-05
4.53593e-06 -8.42504e-05 -1.24389e-06
1.52128e-05 -1.24389e-06 -0.000145104
0.0014484 -1.24503e-05 2.20463e-05
-1.24503e-05 0.000327176 -2.37345e-06
2.20463e-05 -2.37345e-06 0.000272094
0.00162881 -1.55455e-05 9.92478e-06
-1.55455e-05 0.000252425 -1.41703e-06
9.92478e-06 -1.41703e-06 0.000155966
0.00152904 -6.60121e-05 9.43182e-06
-6.60121e-05 0.000226767 -2.06908e-06
9.43182e-06 -2.06908e-06 0.000133415
0.00154973 -0.000103322 1.01306e-05
-0.000103322 0.000254783 -3.03132e-06
1.01306e-05 -3.03132e-06 0.000158453
0.00177105 -0.00010133 2.9509e-06
-0.00010133 0.000276036 -5.38509e-07
2.9509e-06 -5.38509e-07 0.000164567
0.00300009 0.000104583 5.72642e-05
0.000104583 0.00128495 -2.60791e-06
5.72642e-05 -2.60791e-06 0.00128505
0.00129248 -0.000126819 4.73779e-06
-0.000126819 7.34814e-05 -1.84446e-06
4.73779e-06 -1.84446e-06 -4.80057e-05
0.000594316 3.7625e-05 3.7322e-06
3.7625e-05 -4.28784e-05 -5.81382e-06
3.7322e-06 -5.81382e-06 -8.57537e-05
0.000663079 -7.99887e-05 3.31501e-06
-7.99887e-05 -4.24948e-05 -2.01255e-06
3.31501e-06 -2.01255e-06 -0.000131978
0.00130589 -0.000147032 3.90653e-06
-0.000147032 0.000197089 -2.15942e-06
3.90653e-06 -2.15942e-06 7.01481e-05
0.00136784 -0.000150181 2.33622e-06
-0.000150181 0.000114841 -1.01502e-06
2.33622e-06 -1.01502e-06 -2.09103e-05
0.000554575 6.77795e-05 -1.39828e-07
6.77795e-05 -6.47907e-05 -5.81624e-06
-1.39828e-07 -5.81624e-06 -9.94077e-05
0.000735025 3.57333e-05 2.9609e-07
3.57333e-05 1.04925e-05 -2.829e-06
2.9609e-07 -2.829e-06 -5.36985e-05
0.00492988 3.83443e-05 -0.000131597
3.83443e-05 0.00233668 -6.93424e-06
-0.000131597 -6.93424e-06 0.00233309
0.00423831 -0.000109929 -9.11341e-05
-0.000109929 0.00199848 -6.15387e-06
-9.11341e-05 -6.15387e-06 0.00198349
0.000581964 8.5458e-05 -1.37943e-05
8.5458e-05 -0.000116429 -8.17946e-06
-1.37943e-05 -8.17946e-06 -0.00017846
0.00291422 -0.000104762 -5.49e-05
-0.000104762 0.00124461 -2.57202e-06
-5.49e-05 -2.57202e-06 0.00124419
0.000561601 -7.90397e-06 -3.97768e-06
-7.90397e-06 -6.44474e-05 -6.98396e-06
-3.97768e-06 -6.98396e-06 -0.000108587
0.000536437 7.65596e-05 -1.10759e-05
7.65596e-05 -9.444e-05 -8.00933e-06
-1.10759e-05 -8.00933e-06 -0.000151802
0.000828758 8.96225e-05 -4.53695e-06
8.96225e-05 1.95941e-05 -2.33848e-06
-4.53695e-06 -2.33848e-06 -7.44544e-05
0.00269237 -9.15882e-05 1.92115e-06
-9.15882e-05 0.00111865 -1.74628e-07
1.92115e-06 -1.74628e-07 0.00112195
0.000626002 -6.37446e-05 5.01076e-08
-6.37446e-05 -2.68524e-05 1.66601e-07
5.01076e-08 1.66601e-07 -5.17953e-05
0.00155478 8.23513e-05 2.77909e-05
8.23513e-05 0.000392312 7.66095e-07
2.77909e-05 7.66095e-07 0.000337744
0.00140553 9.94416e-05 2.36249e-05
9.94416e-05 0.000356065 6.07951e-07
2.36249e-05 6.07951e-07 0.000301565
0.00107587 0.000106279 3.52607e-07
0.000106279 1.10731e-05 -2.37273e-07
3.52607e-07 -2.37273e-07 -9.46052e-05
0.000645508 -4.06197e-05 -4.1476e-07
-4.06197e-05 -1.58976e-05 1.48323e-07
-4.1476e-07 1.48323e-07 -5.25377e-05
0.000932075 0.000105343 2.61187e-07
0.000105343 3.83257e-05 4.91005e-07
2.61187e-07 4.91005e-07 -5.9831e-05
0.000831995 6.99447e-05 3.2944e-07
6.99447e-05 5.56367e-05 -2.45187e-07
3.2944e-07 -2.45187e-07 -3.56604e-05
0.00080883 0.000117726 -7.15498e-08
0.000117726 -2.50577e-05 -4.80639e-08
-7.15498e-08 -4.80639e-08 -0.000143276
0.000641753 -5.26905e-05 2.42327e-06
-5.26905e-05 -1.52097e-05 5.27413e-06
2.42327e-06 5.27413e-06 -4.62371e-05
0.000697356 -5.59917e-05 7.27171e-07
-5.59917e-05 8.12043e-07 4.02589e-06
7.27171e-07 4.02589e-06 -1.73635e-05
0.000686922 -8.72454e-06 2.05803e-06
-8.72454e-06 -4.96451e-06 2.5068e-06
2.05803e-06 2.5068e-06 -6.57971e-05
0.00110971 8.93808e-05 9.68492e-06
8.93808e-05 -4.11004e-06 3.28782e-06
9.68492e-06 3.28782e-06 -0.000108088
0.00103859 0.000112634 7.56063e-06
0.000112634 4.38578e-05 4.17668e-06
7.56063e-06 4.17668e-06 -5.98155e-05
0.00130123 0.000131327 5.24976e-06
0.000131327 5.37044e-05 2.15158e-06
5.24976e-06 2.15158e-06 -7.54184e-05
0.000861967 5.12377e-05 3.23801e-06
5.12377e-05 8.38747e-05 2.58787e-06
3.23801e-06 2.58787e-06 -4.17614e-07
0.000906091 0.000124924 1.59026e-06
0.000124924 -2.72798e-05 1.30154e-06
1.59026e-06 1.30154e-06 -0.000147764
0.00109925 0.000130473 1.98004e-06
0.000130473 0.000179089 3.55778e-07
1.98004e-06 3.55778e-07 5.94313e-05
0.00105764 0.000141843 -1.95945e-06
0.000141843 9.93278e-05 -1.64875e-06
-1.95945e-06 -1.64875e-06 -2.97006e-05
0.0021594 -6.57612e-05 3.21084e-05
-6.57612e-05 0.000807537 3.00096e-06
3.21084e-05 3.00096e-06 0.000819333
0.00223889 -7.39547e-05 1.02274e-06
-7.39547e-05 0.000859256 -1.13287e-07
1.02274e-06 -1.13287e-07 0.000868414
0.00234909 -8.27825e-05 -3.72858e-05
-8.27825e-05 0.000927251 -2.65477e-06
-3.72858e-05 -2.65477e-06 0.00093353
0.00058887 5.87806e-05 1.23585e-06
5.87806e-05 -5.41475e-05 -4.83687e-06
1.23585e-06 -4.83687e-06 -8.15381e-05
0.00280471 9.45689e-05 4.9839e-05
9.45689e-05 0.00117393 -2.74677e-06
4.9839e-05 -2.74677e-06 0.00117708
0.00499535 6.87985e-05 -0.000138536
6.87985e-05 0.00236899 -6.72734e-06
-0.000138536 -6.72734e-06 0.00236529
0.00495051 -2.50851e-05 -0.000126591
-2.50851e-05 0.00234448 -3.12909e-06
-0.000126591 -3.12909e-06 0.00234145
0.00073508 4.61893e-05 -1.49587e-05
4.61893e-05 -6.64719e-05 -3.90675e-06
-1.49587e-05 -3.90675e-06 -0.000124911
0.000713346 1.69548e-05 -1.51748e-05
1.69548e-05 -9.03312e-05 -2.33188e-06
-1.51748e-05 -2.33188e-06 -0.000151073
0.00514114 -5.92449e-05 -0.000131867
-5.92449e-05 0.00244542 -4.58419e-07
-0.000131867 -4.58419e-07 0.00244153
0.00519777 1.76981e-06 -1.13721e-06
1.76981e-06 0.00247357 4.72369e-07
-1.13721e-06 4.72369e-07 0.00247036
0.000712214 -3.31385e-06 -1.62892e-07
-3.31385e-06 -9.90997e-05 -2.50647e-07
-1.62892e-07 -2.50647e-07 -0.000160312
0.00161575 1.51753e-05 2.98303e-05
1.51753e-05 0.000410182 5.51713e-07
2.98303e-05 5.51713e-07 0.000358317
0.00120425 2.57937e-05 1.6404e-07
2.57937e-05 1.44827e-05 -1.2974e-07
1.6404e-07 -1.2974e-07 -8.80576e-05
0.000676159 4.93198e-05 2.40655e-07
4.93198e-05 -9.70864e-05 -1.22748e-07
2.40655e-07 -1.22748e-07 -0.000155535
0.00117118 5.83208e-05 -1.28783e-07
5.83208e-05 1.60549e-05 3.49657e-08
-1.28783e-07 3.49657e-08 -8.40703e-05
0.000703967 -1.2868e-05 1.53477e-05
-1.2868e-05 -0.000105368 -3.35457e-07
1.53477e-05 -3.35457e-07 -0.000166855
0.00121579 9.37483e-06 1.03092e-05
9.37483e-06 1.05183e-05 5.11245e-07
1.03092e-05 5.11245e-07 -9.34803e-05
0.00118371 3.91447e-05 9.93332e-06
3.91447e-05 1.57823e-05 2.10208e-06
9.93332e-06 2.10208e-06 -8.4804e-05
0.00146022 2.766e-05 4.42403e-06
2.766e-05 6.79626e-05 8.94456e-07
4.42403e-06 8.94456e-07 -5.05617e-05
0.00115143 7.18679e-05 9.80403e-06
7.18679e-05 6.73926e-06 2.58806e-06
9.80403e-06 2.58806e-06 -9.44494e-05
0.00146032 6.7182e-05 4.33436e-06
6.7182e-05 8.73825e-05 1.20829e-06
4.33436e-06 1.20829e-06 -2.92642e-05
0.00517895 -4.00876e-05 -0.000143132
-4.00876e-05 0.00246513 -6.07485e-07
-0.000143132 -6.07485e-07 0.0024609
0.00129066 -3.27052e-05 -1.6007e-05
-3.27052e-05 0.000347625 1.3901e-06
-1.6007e-05 1.3901e-06 0.000318444
-0.000101784 -5.07385e-07 -1.35413e-05
-5.07385e-07 -0.000537033 2.27603e-06
-1.35413e-05 2.27603e-06 -0.000603882
0.00157267 -2.68071e-05 -6.28304e-05
-2.68071e-05 0.000397721 3.4885e-06
-6.28304e-05 3.4885e-06 0.000349183
0.00299645 0.000138066 -1.65253e-05
0.000138066 0.00130311 1.33949e-06
-1.65253e-05 1.33949e-06 0.00129213
0.00183236 -2.6035e-05 -4.08311e-05
-2.6035e-05 0.00062721 5.62922e-06
-4.08311e-05 5.62922e-06 0.000586814
0.0015466 -5.46741e-05 -6.06463e-05
-5.46741e-05 0.000395997 6.39546e-06
-6.06463e-05 6.39546e-06 0.000346186
0.0015797 -8.05973e-05 -1.84883e-05
-8.05973e-05 0.0002565 3.46243e-06
-1.84883e-05 3.46243e-06 0.000163432
0.00196764 -0.000132777 -1.43241e-05
-0.000132777 0.000520467 4.79885e-06
-1.43241e-05 4.79885e-06 0.000423347
0.00188782 -0.000144207 -1.13707e-05
-0.000144207 0.000570679 5.04703e-06
-1.13707e-05 5.04703e-06 0.000472195
0.00118158 -0.000131192 -3.97097e-06
-0.000131192 6.80149e-05 1.5653e-06
-3.97097e-06 1.5653e-06 -5.55564e-05
0.000704496 7.08455e-06 3.92161e-08
7.08455e-06 -0.000101209 -2.40512e-07
3.92161e-08 -2.40512e-07 -0.000161918
0.00152786 -2.54419e-05 -2.09811e-05
-2.54419e-05 0.000368192 9.24995e-08
-2.09811e-05 9.24995e-08 0.000315205
0.00120554 -1.35922e-05 -3.93858e-06
-1.35922e-05 2.12049e-05 1.87756e-07
-3.93858e-06 1.87756e-07 -7.82601e-05
0.0017931 -6.88159e-05 -2.71912e-06
-6.88159e-05 0.000369359 3.59911e-07
-2.71912e-06 3.59911e-07 0.000277639
0.00300657 0.000102609 -1.1158e-06
0.000102609 0.00128949 -2.31069e-07
-1.1158e-06 -2.31069e-07 0.00128949
0.00115358 1.9539e-05 2.20276e-06
1.9539e-05 0.000261062 3.49703e-07
2.20276e-06 3.49703e-07 0.000220632
0.00114901 -9.47796e-05 4.07591e-07
-9.47796e-05 0.000218474 -2.36201e-07
4.07591e-07 -2.36201e-07 0.000128681
0.00154928 -0.000102229 -3.01376e-06
-0.000102229 0.000255689 5.58899e-07
-3.01376e-06 5.58899e-07 0.00015922
0.00147767 -9.29367e-05 -2.1772e-06
-9.29367e-05 0.000113765 6.3638e-07
-2.1772e-06 6.3638e-07 1.16583e-06
0.00101015 -0.000130518 -5.66075e-07
-0.000130518 3.94147e-05 -1.77566e-07
-5.66075e-07 -1.77566e-07 -8.62854e-05
0.00151926 -0.00013358 3.5962e-08
-0.00013358 0.000197452 -2.92742e-07
3.5962e-08 -2.92742e-07 7.7e-05
0.00133937 -0.000148073 4.13545e-08
-0.000148073 0.000100032 -7.28972e-08
4.13545e-08 -7.28972e-08 -3.53292e-05
0.000585448 5.68755e-05 -8.74818e-07
5.68755e-05 -5.01434e-05 3.39697e-08
-8.74818e-07 3.39697e-08 -8.32564e-05
0.000708863 2.10361e-05 -1.75125e-07
2.10361e-05 -5.76091e-06 1.9221e-07
-1.75125e-07 1.9221e-07 -6.95628e-05
0.00119908 -7.12465e-06 1.00714e-05
-7.12465e-06 2.83416e-06 -1.43318e-06
1.00714e-05 -1.43318e-06 -0.000100489
0.0015826 -3.62257e-05 9.48604e-06
-3.62257e-05 0.000238738 -1.57316e-06
9.48604e-06 -1.57316e-06 0.000143814
0.00186512 -2.11248e-05 3.20709e-06
-2.11248e-05 0.000294996 -4.19836e-07
3.20709e-06 -4.19836e-07 0.000182724
0.00117712 -6.51768e-05 4.95227e-06
-6.51768e-05 -5.59386e-05 -1.52108e-06
4.95227e-06 -1.52108e-06 -0.000170538
0.00163296 -0.000123936 4.34631e-06
-0.000123936 0.000217329 -8.65329e-07
4.34631e-06 -8.65329e-07 0.000100976
0.00170645 -9.86105e-05 7.13711e-07
-9.86105e-05 0.000187433 5.92864e-08
7.13711e-07 5.92864e-08 7.23024e-05
0.000537153 4.89605e-05 2.23006e-06
4.89605e-05 -7.54983e-05 -5.93433e-06
2.23006e-06 -5.93433e-06 -0.000113413
0.00148493 -0.000139572 2.06044e-06
-0.000139572 0.000116931 -7.90951e-07
2.06044e-06 -7.90951e-07 -1.19313e-05
0.000659426 -4.82483e-05 2.25316e-06
-4.82483e-05 -2.8953e-05 -1.51425e-06
2.25316e-06 -1.51425e-06 -0.000113148
0.000533028 -0.000101865 2.6337e-06
-0.000101865 -0.000151449 -2.63463e-06
2.6337e-06 -2.63463e-06 -0.000270017
0.00187558 -0.000188897 1.46092e-06
-0.000188897 0.000463079 -6.75678e-07
1.46092e-06 -6.75678e-07 0.00032028
0.00159722 -0.000164728 -5.7092e-07
-0.000164728 0.000190954 7.06736e-07
-5.7092e-07 7.06736e-07 5.41821e-05
0.000792959 -9.0926e-06 1.43438e-06
-9.0926e-06 4.5852e-05 -2.86735e-06
1.43438e-06 -2.86735e-06 -2.98666e-05
0.000719556 3.45496e-05 1.06897e-06
3.45496e-05 -1.60746e-06 -2.14241e-06
1.06897e-06 -2.14241e-06 -5.68243e-05
0.000831883 -3.87152e-05 2.62674e-07
-3.87152e-05 6.5652e-05 -7.54141e-07
2.62674e-07 -7.54141e-07 -2.79044e-05
0.000646461 7.17345e-05 -1.4168e-05
7.17345e-05 -0.000103084 -6.68454e-06
-1.4168e-05 -6.68454e-06 -0.000164003
0.00262396 -9.34406e-05 -4.55479e-05
-9.34406e-05 0.00108234 -2.53733e-06
-4.55479e-05 -2.53733e-06 0.00108541
0.000591481 -5.77569e-05 -1.36292e-06
-5.77569e-05 -4.75505e-05 -4.24526e-06
-1.36292e-06 -4.24526e-06 -7.09781e-05
0.000523159 9.03691e-05 -1.31341e-05
9.03691e-05 -0.000121092 -8.59055e-06
-1.31341e-05 -8.59055e-06 -0.000180923
0.00108053 0.000108039 -9.08756e-06
0.000108039 1.4106e-05 -4.60547e-06
-9.08756e-06 -4.60547e-06 -9.1744e-05
0.000531451 -5.34e-05 -1.47885e-06
-5.34e-05 -7.3973e-05 -6.12226e-06
-1.47885e-06 -6.12226e-06 -0.000112312
0.00072813 6.3198e-05 -2.83998e-06
6.3198e-05 -1.45733e-06 -2.44784e-06
-2.83998e-06 -2.44784e-06 -9.11091e-05
0.000873772 0.000101048 -5.10583e-06
0.000101048 7.80283e-06 -2.56334e-06
-5.10583e-06 -2.56334e-06 -8.97405e-05
0.000749061 0.000114366 -2.80078e-06
0.000114366 -5.89596e-05 -3.58264e-07
-2.80078e-06 -3.58264e-07 -0.000177535
0.000592921 -6.21499e-05 1.5209e-06
-6.21499e-05 -4.05625e-05 6.75892e-09
1.5209e-06 6.75892e-09 -7.21996e-05
0.000664445 -5.19643e-05 -1.65644e-07
-5.19643e-05 -1.78856e-05 1.22334e-07
-1.65644e-07 1.22334e-07 -3.5219e-05
0.000699737 -3.94996e-05 2.91445e-07
-3.94996e-05 -1.24842e-06 2.81221e-07
2.91445e-07 2.81221e-07 -5.90289e-05
0.00112836 9.16466e-05 2.25618e-07
9.16466e-05 6.46382e-06 -3.08384e-07
2.25618e-07 -3.08384e-07 -9.79029e-05
0.00100514 0.000111311 5.39021e-07
0.000111311 2.75246e-05 -1.11996e-07
5.39021e-07 -1.11996e-07 -7.59186e-05
0.00133672 0.000133963 3.31692e-07
0.000133963 7.26216e-05 7.0619e-08
3.31692e-07 7.0619e-08 -5.69154e-05
0.00080225 4.52812e-05 2.70293e-08
4.52812e-05 5.39367e-05 -2.76126e-08
2.70293e-08 -2.76126e-08 -3.01221e-05
0.00108922 0.000134891 -1.77533e-07
0.000134891 7.23148e-05 -1.371e-07
-1.77533e-07 -1.371e-07 -4.87505e-05
0.00102421 0.000125269 3.21549e-07
0.000125269 0.000138796 -4.4051e-07
3.21549e-07 -4.4051e-07 1.95813e-05
0.000961854 0.000138277 -8.1438e-07
0.000138277 4.69054e-05 7.54888e-07
-8.1438e-07 7.54888e-07 -8.23503e-05
0.000707856 -4.64493e-05 1.99468e-06
-4.64493e-05 -4.97552e-06 3.42622e-06
1.99468e-06 3.42622e-06 -1.7811e-05
0.000730856 1.78352e-05 2.35356e-06
1.78352e-05 1.36202e-05 2.23924e-06
2.35356e-06 2.23924e-06 -5.76165e-05
0.000695459 -5.21442e-05 4.22775e-08
-5.21442e-05 -6.86385e-06 2.20771e-06
4.22775e-08 2.20771e-06 -5.41164e-05
0.000826835 2.7037e-05 4.15197e-07
2.7037e-05 7.14652e-05 7.20672e-07
4.15197e-07 7.20672e-07 -1.50199e-05
0.00135387 0.000109268 5.97369e-06
0.000109268 4.49894e-05 1.19983e-06
5.97369e-06 1.19983e-06 -7.9434e-05
0.00125701 0.000142725 3.97773e-06
0.000142725 9.71259e-05 2.90991e-06
3.97773e-06 2.90991e-06 -3.08612e-05
0.00149835 0.000146581 2.824e-06
0.000146581 0.00010255 1.61384e-06
2.824e-06 1.61384e-06 -3.59242e-05
0.00109329 9.94585e-05 2.0766e-06
9.94585e-05 0.000198383 1.60711e-06
2.0766e-06 1.60711e-06 8.95009e-05
0.00129073 0.000156009 -7.79183e-07
0.000156009 0.000148877 9.76091e-07
-7.79183e-07 9.76091e-07 1.82931e-05
0.000957344 0.000135126 -4.40922e-08
0.000135126 0.00010056 -1.8837e-06
-4.40922e-08 -1.8837e-06 -3.91901e-05
0.000813739 0.000133921 -4.19948e-07
0.000133921 -5.90805e-05 -1.0506e-06
-4.19948e-07 -1.0506e-06 -0.000191552
0.000765219 -2.46165e-05 1.27401e-06
-2.46165e-05 4.45394e-06 1.61293e-06
1.27401e-06 1.61293e-06 -2.6715e-05
0.000707594 -3.5293e-05 1.47595e-06
-3.5293e-05 -2.17098e-05 3.32637e-06
1.47595e-06 3.32637e-06 -2.88537e-05
0.00209008 -5.80528e-05 2.77048e-05
-5.80528e-05 0.000760227 3.24963e-06
2.77048e-05 3.24963e-06 0.000774539
0.00212629 -6.54144e-05 1.24936e-06
-6.54144e-05 0.000788178 -1.12413e-07
1.24936e-06 -1.12413e-07 0.000800258
0.00217651 -7.29339e-05 -3.28969e-05
-7.29339e-05 0.000824257 -2.84953e-06
-3.28969e-05 -2.84953e-06 0.000833843
0.000630712 4.78094e-05 2.13869e-06
4.78094e-05 -4.14142e-05 -4.21034e-06
2.13869e-06 -4.21034e-06 -6.30625e-05
0.00261941 8.55834e-05 4.29109e-05
8.55834e-05 0.00106869 -2.95648e-06
4.29109e-05 -2.95648e-06 0.00107428
0.000618357 6.41169e-05 -2.21829e-07
6.41169e-05 -3.57995e-05 8.22254e-08
-2.21829e-07 8.22254e-08 -6.46163e-05
0.00283753 9.27534e-05 -1.29102e-06
9.27534e-05 0.00119136 -1.65912e-07
-1.29102e-06 -1.65912e-07 0.00119468
0.000701505 5.66727e-05 -1.46232e-05
5.66727e-05 -8.29275e-05 -5.07002e-06
-1.46232e-05 -5.07002e-06 -0.000142048
0.000710777 2.98288e-05 -1.47413e-05
2.98288e-05 -8.35506e-05 -3.21964e-06
-1.47413e-05 -3.21964e-06 -0.000143116
0.0011602 5.95347e-05 -9.57335e-06
5.95347e-05 1.07918e-05 -2.2646e-06
-9.57335e-06 -2.2646e-06 -8.95512e-05
0.00120245 2.77046e-05 -1.01465e-05
2.77046e-05 1.38972e-05 -1.79603e-06
-1.01465e-05 -1.79603e-06 -8.87008e-05
0.000729922 8.18091e-07 -1.55122e-05
8.18091e-07 -8.95896e-05 -1.20283e-06
-1.55122e-05 -1.20283e-06 -0.000150515
0.00521547 -7.05646e-05 -0.000140062
-7.05646e-05 0.0024845 1.0966e-06
-0.000140062 1.0966e-06 0.00248052
0.00072492 -1.59055e-06 1.03317e-07
-1.59055e-06 -9.47435e-05 -2.91007e-07
1.03317e-07 -2.91007e-07 -0.000156004
0.00121955 1.35947e-05 1.98774e-08
1.35947e-05 1.27983e-05 -2.85252e-07
1.98774e-08 -2.85252e-07 -9.12378e-05
0.00118004 3.99459e-05 9.66488e-09
3.99459e-05 1.44396e-05 -6.82148e-08
9.66488e-09 -6.82148e-08 -8.62745e-05
0.00147169 2.74698e-05 3.06829e-08
2.74698e-05 7.3729e-05 -2.83934e-08
3.06829e-08 -2.83934e-08 -4.4836e-05
0.00115763 7.45012e-05 -2.07424e-08
7.45012e-05 1.06592e-05 -1.58922e-07
-2.07424e-08 -1.58922e-07 -9.0999e-05
0.00144673 6.91777e-05 -3.53577e-08
6.91777e-05 8.05062e-05 1.45781e-07
-3.53577e-08 1.45781e-07 -3.63692e-05
0.00122624 -7.02801e-07 1.02684e-05
-7.02801e-07 1.39667e-05 -2.95331e-07
1.02684e-05 -2.95331e-07 -9.01716e-05
0.00148581 1.75486e-05 4.38652e-06
1.75486e-05 7.10967e-05 2.73556e-07
4.38652e-06 2.73556e-07 -4.85545e-05
0.00146114 4.75279e-05 4.44244e-06
4.75279e-05 8.15241e-05 1.03371e-06
4.44244e-06 1.03371e-06 -3.58967e-05
0.001599 2.76975e-05 9.87083e-07
2.76975e-05 9.21724e-05 3.10323e-07
9.87083e-07 3.10323e-07 -2.58106e-05
0.00141296 8.78904e-05 4.56824e-06
8.78904e-05 6.39034e-05 8.48714e-07
4.56824e-06 8.48714e-07 -5.49681e-05
0.00157906 7.31695e-05 1.0349e-06
7.31695e-05 0.000103628 3.26545e-07
1.0349e-06 3.26545e-07 -1.63471e-05
0.000712803 1.03889e-05 -1.47445e-05
1.03889e-05 -9.77809e-05 6.62576e-07
-1.47445e-05 6.62576e-07 -0.00015854
0.00159557 -9.35649e-06 -6.50308e-05
-9.35649e-06 0.000402308 2.51923e-06
-6.50308e-05 2.51923e-06 0.000351845
0.000779198 -1.01368e-05 -1.068e-05
-1.01368e-05 -0.000211724 1.73271e-06
-1.068e-05 1.73271e-06 -0.000314243
0.00203115 -7.02631e-05 -1.62185e-05
-7.02631e-05 0.00049752 2.68588e-06
-1.62185e-05 2.68588e-06 0.000407619
0.00302376 9.95146e-05 -6.41051e-05
9.95146e-05 0.0012995 2.82743e-06
-6.41051e-05 2.82743e-06 0.00129964
0.0017728 1.60108e-05 -3.40412e-05
1.60108e-05 0.000598517 4.0062e-06
-3.40412e-05 4.0062e-06 0.000562185
0.00166343 -0.000117331 -7.61102e-06
-0.000117331 0.000494438 3.18754e-06
-7.61102e-06 3.18754e-06 0.000403689
0.00154134 -0.000100878 -1.56732e-05
-0.000100878 0.000252497 4.04122e-06
-1.56732e-05 4.04122e-06 0.00015597
0.0011785 -8.42968e-05 -6.1185e-06
-8.42968e-05 -5.16619e-05 1.42798e-06
-6.1185e-06 1.42798e-06 -0.000165364
0.00174306 -0.000140301 -5.65645e-06
-0.000140301 0.000319879 1.55749e-06
-5.65645e-06 1.55749e-06 0.000200447
0.00070836 -0.000113501 -3.33805e-06
-0.000113501 -0.000121426 1.51185e-06
-3.33805e-06 1.51185e-06 -0.000245829
0.00130747 -0.000145792 -1.62862e-06
-0.000145792 8.33581e-05 7.07019e-07
-1.62862e-06 7.07019e-07 -5.15928e-05
0.000621976 5.11543e-05 -2.64921e-06
5.11543e-05 -2.97941e-05 5.47989e-06
-2.64921e-06 5.47989e-06 -6.31221e-05
0.00069729 6.38227e-06 -1.70529e-06
6.38227e-06 -1.28535e-05 2.53665e-06
-1.70529e-06 2.53665e-06 -7.71947e-05
0.00100857 -3.13781e-06 -4.70612e-07
-3.13781e-06 -9.99607e-05 -3.21816e-07
-4.70612e-07 -3.21816e-07 -0.00020445
0.00160413 -3.80597e-05 -3.23287e-06
-3.80597e-05 0.000249925 2.33513e-07
-3.23287e-06 2.33513e-07 0.000154909
0.00176913 -1.78525e-05 -2.14844e-06
-1.78525e-05 0.000240626 5.40715e-07
-2.14844e-06 5.40715e-07 0.000127821
0.00153812 -7.11436e-05 1.07555e-06
-7.11436e-05 0.000140084 -3.55635e-07
1.07555e-06 -3.55635e-07 2.74838e-05
0.000591733 3.85051e-05 1.65644e-07
3.85051e-05 -4.82093e-05 1.47476e-07
1.65644e-07 1.47476e-07 -8.52845e-05
0.000815101 -6.11313e-05 -2.05031e-07
-6.11313e-05 5.50626e-05 4.74007e-08
-2.05031e-07 4.74007e-08 -3.07571e-05
0.000701683 -0.000111343 1.01883e-06
-0.000111343 -5.79374e-05 -9.33674e-07
1.01883e-06 -9.33674e-07 -0.000175606
0.00173022 -0.000125444 -1.14801e-06
-0.000125444 0.000270478 2.97092e-07
-1.14801e-06 2.97092e-07 0.000154235
0.00156395 -9.34916e-05 -6.69323e-07
-9.34916e-05 0.000108083 5.38207e-07
-6.69323e-07 5.38207e-07 -6.80175e-06
0.00148505 -0.000167844 -1.3659e-06
-0.000167844 0.00025123 7.55329e-07
-1.3659e-06 7.55329e-07 0.000108497
0.00143439 -0.000136946 2.25214e-08
-0.000136946 9.0659e-05 -3.52282e-07
2.25214e-08 -3.52282e-07 -3.79148e-05
0.0014253 -0.000156227 3.82329e-07
-0.000156227 9.98189e-05 4.95626e-07
3.82329e-07 4.95626e-07 -3.6011e-05
0.000751805 -1.28683e-05 -2.20703e-07
-1.28683e-05 2.27741e-05 -1.34911e-07
-2.20703e-07 -1.34911e-07 -5.30014e-05
0.000767356 -1.06996e-05 -6.56181e-07
-1.06996e-05 2.53766e-05 -2.92062e-07
-6.56181e-07 -2.92062e-07 -6.38899e-05
0.000717748 2.61492e-05 4.67423e-07
2.61492e-05 -4.18071e-06 2.75082e-07
4.67423e-07 2.75082e-07 -5.88934e-05
0.00188089 -2.52192e-06 3.10188e-06
-2.52192e-06 0.000290908 -6.60858e-07
3.10188e-06 -6.60858e-07 0.00017572
0.00167571 -4.23449e-05 3.8695e-06
-4.23449e-05 0.000196992 -6.10821e-07
3.8695e-06 -6.10821e-07 8.36032e-05
0.00177904 -1.74087e-05 1.00381e-06
-1.74087e-05 0.000195128 1.49663e-07
1.00381e-06 1.49663e-07 7.87752e-05
0.00157057 -6.67176e-05 1.03839e-06
-6.67176e-05 0.000104652 -1.08031e-06
1.03839e-06 -1.08031e-06 -1.1813e-05
0.00146975 -0.000120445 2.59625e-06
-0.000120445 6.74565e-05 1.47498e-07
2.59625e-06 1.47498e-07 -5.33556e-05
0.00171332 -9.08439e-05 -1.2787e-06
-9.08439e-05 0.000154655 5.77759e-07
-1.2787e-06 5.77759e-07 4.43503e-05
0.000745754 -3.28276e-05 2.2039e-06
-3.28276e-05 2.40087e-05 -1.99026e-06
2.2039e-06 -1.99026e-06 -5.88564e-05
0.00145382 -0.000140001 -7.01716e-07
-0.000140001 5.47577e-05 -1.89603e-07
-7.01716e-07 -1.89603e-07 -7.13498e-05
0.000886126 -0.000113773 1.10199e-06
-0.000113773 7.48413e-05 -3.75481e-07
1.10199e-06 -3.75481e-07 -3.30091e-05
0.000712857 -0.00012688 2.66589e-06
-0.00012688 -7.91285e-05 -3.26876e-06
2.66589e-06 -3.26876e-06 -0.000218379
0.00168291 -0.000187137 1.39052e-06
-0.000187137 0.000319137 6.27501e-07
1.39052e-06 6.27501e-07 0.000168555
0.00193342 -0.000182371 -4.15653e-06
-0.000182371 0.000337961 2.36115e-06
-4.15653e-06 2.36115e-06 0.000208359
0.000737991 2.32527e-05 1.362e-06
2.32527e-05 2.97924e-06 -1.91552e-06
1.362e-06 -1.91552e-06 -4.51473e-05
0.000854988 -6.10527e-05 1.09509e-06
-6.10527e-05 6.78058e-05 7.6892e-08
1.09509e-06 7.6892e-08 -2.57432e-05
0.000739236 3.88119e-06 3.45678e-07
3.88119e-06 1.35859e-05 -1.27767e-06
3.45678e-07 -1.27767e-06 -7.09951e-05
0.000959472 -0.00010385 -4.27771e-07
-0.00010385 0.000137238 1.12017e-06
-4.27771e-07 1.12017e-06 3.31179e-05
0.00114263 9.41244e-05 -1.00797e-05
9.41244e-05 1.46568e-05 -3.91746e-06
-1.00797e-05 -3.91746e-06 -9.01181e-05
0.0006323 -4.89481e-05 -2.17086e-06
-4.89481e-05 -3.57637e-05 -3.54734e-06
-2.17086e-06 -3.54734e-06 -5.24749e-05
0.000538785 -7.10177e-05 2.68862e-07
-7.10177e-05 -6.80286e-05 -5.41341e-06
2.68862e-07 -5.41341e-06 -0.000100866
0.000722195 -5.88519e-05 3.93135e-07
-5.88519e-05 1.34231e-05 -2.62247e-06
3.93135e-07 -2.62247e-06 -4.55514e-05
0.000961404 0.000109434 -6.47377e-06
0.000109434 5.92417e-06 -4.432e-06
-6.47377e-06 -4.432e-06 -9.72835e-05
0.00134369 0.000135071 -4.97674e-06
0.000135071 7.64466e-05 -2.11511e-06
-4.97674e-06 -2.11511e-06 -5.3401e-05
0.000728332 3.76031e-05 -1.98083e-06
3.76031e-05 1.62734e-05 -2.24418e-06
-1.98083e-06 -2.24418e-06 -6.73576e-05
0.000967153 0.000121168 -2.4017e-06
0.000121168 0.00010839 -1.79676e-06
-2.4017e-06 -1.79676e-06 -1.05455e-05
0.00126024 0.00014432 -2.16423e-06
0.00014432 0.000165668 -1.53253e-06
-2.16423e-06 -1.53253e-06 4.40363e-05
0.000824437 0.000132227 -1.56002e-06
0.000132227 -2.78604e-05 1.0846e-06
-1.56002e-06 1.0846e-06 -0.000157072
0.000679553 -4.47881e-05 7.69149e-08
-4.47881e-05 -2.03326e-05 3.12429e-08
7.69149e-08 3.12429e-08 -3.29279e-05
0.000752285 1.27433e-05 1.27309e-07
1.27433e-05 2.97843e-05 -4.51736e-08
1.27309e-07 -4.51736e-08 -4.38165e-05
0.000707714 -5.46367e-05 -2.28554e-07
-5.46367e-05 -2.73103e-07 3.41788e-07
-2.28554e-07 3.41788e-07 -4.7496e-05
0.00083193 9.55967e-06 3.55782e-07
9.55967e-06 7.32986e-05 -2.23739e-07
3.55782e-07 -2.23739e-07 -1.18432e-05
0.00139708 0.000111472 1.04485e-06
0.000111472 6.72656e-05 -1.57581e-08
1.04485e-06 -1.57581e-08 -5.74144e-05
0.00120174 0.00014099 1.06326e-07
0.00014099 6.93343e-05 1.02194e-07
1.06326e-07 1.02194e-07 -5.86481e-05
0.00148133 0.000146046 3.3429e-08
0.000146046 9.47647e-05 4.74543e-07
3.3429e-08 4.74543e-07 -4.38971e-05
0.000987712 9.84066e-05 3.48509e-07
9.84066e-05 0.000142033 3.77783e-07
3.48509e-07 3.77783e-07 3.44005e-05
0.00146654 0.000165465 -6.3982e-07
0.000165465 0.000245051 -1.58332e-06
-6.3982e-07 -1.58332e-06 0.000113984
0.00110859 0.000144899 3.39154e-07
0.000144899 0.000182658 -1.16415e-06
3.39154e-07 -1.16415e-06 4.18248e-05
0.000892724 0.000138432 -1.89207e-06
0.000138432 -1.33022e-05 -1.62941e-07
-1.89207e-06 -1.62941e-07 -0.00014228
0.000709481 -4.0703e-05 1.78553e-06
-4.0703e-05 -1.31073e-05 3.33379e-06
1.78553e-06 3.33379e-06 -2.26475e-05
0.000729763 -4.7605e-05 5.34775e-07
-4.7605e-05 3.18603e-06 1.77768e-06
5.34775e-07 1.77768e-06 -3.63484e-05
0.000973412 5.38829e-05 1.53025e-06
5.38829e-05 0.000142776 7.156e-07
1.53025e-06 7.156e-07 4.65854e-05
0.000792665 1.24397e-05 1.82896e-07
1.24397e-05 4.67732e-05 1.21076e-06
1.82896e-07 1.21076e-06 -2.53703e-05
0.000896193 7.86808e-05 6.04037e-07
7.86808e-05 0.000120646 -1.70323e-07
6.04037e-07 -1.70323e-07 1.83147e-05
0.0015871 0.000117445 3.54898e-06
0.000117445 0.000116279 4.22186e-08
3.54898e-06 4.22186e-08 -1.38267e-05
0.00137483 0.000158544 6.97785e-07
0.000158544 0.000113941 3.45978e-06
6.97785e-07 3.45978e-06 -2.48302e-05
0.00170337 0.000160779 -4.0075e-08
0.000160779 0.000178476 1.66185e-06
-4.0075e-08 1.66185e-06 3.78559e-05
0.00109526 0.000136266 2.53149e-06
0.000136266 0.000208983 2.8671e-06
2.53149e-06 2.8671e-06 7.43072e-05
0.00129076 0.000165347 1.04009e-06
0.000165347 0.00012686 1.36539e-06
1.04009e-06 1.36539e-06 -5.90035e-06
0.00029359 0.000102921 1.42527e-06
0.000102921 -0.000289567 -2.3434e-06
1.42527e-06 -2.3434e-06 -0.000437585
0.000760862 -2.91717e-05 1.47285e-06
-2.91717e-05 5.93257e-06 1.50881e-06
1.47285e-06 1.50881e-06 -2.65327e-05
0.000782603 4.06717e-06 4.5702e-07
4.06717e-06 2.70941e-05 5.53688e-07
4.5702e-07 5.53688e-07 -2.47768e-05
0.000776131 -1.81653e-05 9.10779e-07
-1.81653e-05 6.95122e-06 1.74286e-06
9.10779e-07 1.74286e-06 -2.3465e-05
0.000768061 -2.37039e-05 1.34786e-07
-2.37039e-05 6.39324e-06 -5.815e-09
1.34786e-07 -5.815e-09 -2.48727e-05
0.00125458 -3.79644e-05 1.67819e-06
-3.79644e-05 0.0002752 2.03214e-06
1.67819e-06 2.03214e-06 0.000272905
0.000982712 -3.87944e-05 7.84198e-07
-3.87944e-05 0.000130946 -2.53743e-08
7.84198e-07 -2.53743e-08 0.000125334
0.00095742 -3.38659e-05 2.27876e-05
-3.38659e-05 0.000122497 6.11813e-06
2.27876e-05 6.11813e-06 0.000133279
0.00207243 -5.77031e-05 1.31819e-06
-5.77031e-05 0.000749243 -1.03315e-07
1.31819e-06 -1.03315e-07 0.000763823
0.00209578 -6.48499e-05 -2.91696e-05
-6.48499e-05 0.000770171 -3.08328e-06
-2.91696e-05 -3.08328e-06 0.000782591
0.000650156 4.15492e-05 2.0955e-06
4.15492e-05 -3.9319e-05 -3.95365e-06
2.0955e-06 -3.95365e-06 -5.70883e-05
0.00248471 7.7032e-05 3.75206e-05
7.7032e-05 0.000988739 -3.22042e-06
3.75206e-05 -3.22042e-06 0.000996708
0.000648401 5.12661e-05 3.95641e-08
5.12661e-05 -3.07258e-05 4.23049e-08
3.95641e-08 4.23049e-08 -5.30996e-05
0.0026663 8.48346e-05 -1.46688e-06
8.48346e-05 0.00109382 -1.45264e-07
-1.46688e-06 -1.45264e-07 0.00109951
0.000639578 5.95518e-05 -1.76684e-07
5.95518e-05 -2.50362e-05 5.31431e-06
-1.76684e-07 5.31431e-06 -5.33426e-05
0.00288531 9.10032e-05 -5.80283e-05
9.10032e-05 0.00121693 2.9731e-06
-5.80283e-05 2.9731e-06 0.00122039
0.00116922 7.72312e-05 -1.00164e-05
7.72312e-05 1.71919e-05 -2.84026e-06
-1.00164e-05 -2.84026e-06 -8.48887e-05
0.00118514 4.35794e-05 -9.66687e-06
4.35794e-05 1.7812e-05 -2.18433e-06
-9.66687e-06 -2.18433e-06 -8.3132e-05
0.0014233 6.73518e-05 -4.47534e-06
6.73518e-05 6.84337e-05 -9.39425e-07
-4.47534e-06 -9.39425e-07 -4.84575e-05
0.00148761 2.75641e-05 -4.62785e-06
2.75641e-05 8.17805e-05 -9.34116e-07
-4.62785e-06 -9.34116e-07 -3.68186e-05
0.0012226 1.64724e-05 -1.04016e-05
1.64724e-05 1.47312e-05 -1.1108e-06
-1.04016e-05 -1.1108e-06 -8.93658e-05
0.000714444 9.72143e-06 -1.52957e-05
9.72143e-06 -9.9883e-05 -2.5331e-07
-1.52957e-05 -2.5331e-07 -0.00016132
0.00121974 1.32913e-06 1.64405e-08
1.32913e-06 1.043e-05 -1.37786e-07
1.64405e-08 -1.37786e-07 -9.37589e-05
0.00148599 1.93454e-05 -5.15073e-08
1.93454e-05 7.13213e-05 -2.13724e-07
-5.15073e-08 -2.13724e-07 -4.83877e-05
0.0014562 4.49192e-05 9.50457e-08
4.49192e-05 7.91445e-05 -8.52762e-08
9.50457e-08 -8.52762e-08 -3.82823e-05
0.00159362 2.82048e-05 -1.50856e-07
2.82048e-05 8.81502e-05 8.72482e-08
-1.50856e-07 8.72482e-08 -2.93745e-05
0.00142422 8.85437e-05 -2.01919e-07
8.85437e-05 6.91135e-05 6.1739e-08
-2.01919e-07 6.1739e-08 -4.97653e-05
0.00156996 7.23725e-05 -1.0063e-07
7.23725e-05 9.99343e-05 1.26149e-07
-1.0063e-07 1.26149e-07 -2.01547e-05
0.00149227 6.12614e-06 4.6453e-06
6.12614e-06 7.21675e-05 -1.6108e-07
4.6453e-06 -1.6108e-07 -4.75834e-05
0.00161052 2.22833e-05 3.7915e-07
2.22833e-05 7.79841e-05 3.18305e-07
3.7915e-07 3.18305e-07 -3.99062e-05
0.00155994 4.97492e-05 1.08783e-06
4.97492e-05 8.3564e-05 1.43442e-07
1.08783e-06 1.43442e-07 -3.53855e-05
0.00171662 3.23575e-05 -4.33842e-07
3.23575e-05 0.00011009 1.03929e-07
-4.33842e-07 1.03929e-07 -9.71203e-07
0.00163896 9.09385e-05 1.05881e-06
9.09385e-05 0.000136971 -1.17276e-07
1.05881e-06 -1.17276e-07 1.43622e-05
0.00159525 6.80487e-05 -2.37521e-06
6.80487e-05 7.68415e-05 1.28717e-07
-2.37521e-06 1.28717e-07 -3.3553e-05
0.000810195 -1.06902e-06 -1.00195e-05
-1.06902e-06 -0.000206775 7.27349e-07
-1.00195e-05 7.27349e-07 -0.000312481
0.00163746 -4.16322e-05 -1.59007e-05
-4.16322e-05 0.000267395 2.21997e-06
-1.59007e-05 2.21997e-06 0.000172281
0.00166596 -1.11865e-05 -7.1408e-06
-1.11865e-05 0.000182551 1.19542e-06
-7.1408e-06 1.19542e-06 6.92919e-05
0.00189809 -7.72896e-05 -4.60878e-06
-7.72896e-05 0.000335557 1.07466e-06
-4.60878e-06 1.07466e-06 0.000224945
0.000646401 2.85115e-05 -4.84984e-06
2.85115e-05 -1.90553e-05 5.44956e-06
-4.84984e-06 5.44956e-06 -5.64087e-05
0.000901133 -6.77054e-05 -3.73831e-06
-6.77054e-05 0.000102334 2.14494e-06
-3.73831e-06 2.14494e-06 1.5219e-05
0.000881258 -0.000121771 -7.75768e-07
-0.000121771 4.13379e-05 5.33898e-07
-7.75768e-07 5.33898e-07 -7.55456e-05
0.00183665 -0.000127288 -6.53123e-06
-0.000127288 0.000328511 1.52923e-06
-6.53123e-06 1.52923e-06 0.000212366
0.00142503 -8.84229e-05 -1.73905e-06
-8.84229e-05 3.06536e-05 7.44206e-07
-1.73905e-06 7.44206e-07 -8.39904e-05
0.00138574 -0.000134421 -2.24999e-06
-0.000134421 6.54572e-05 1.60704e-07
-2.24999e-06 1.60704e-07 -6.28444e-05
0.0010916 -0.000146688 -2.54426e-06
-0.000146688 3.77778e-05 1.80834e-06
-2.54426e-06 1.80834e-06 -0.000104878
0.00124956 -0.000147403 1.35268e-06
-0.000147403 6.36497e-06 -1.66711e-07
1.35268e-06 -1.66711e-07 -0.000128439
0.0007123 -1.54598e-05 -2.40914e-06
-1.54598e-05 -9.1671e-07 2.29427e-06
-2.40914e-06 2.29427e-06 -7.5732e-05
0.000736166 -2.43226e-06 -1.10838e-06
-2.43226e-06 8.04622e-06 1.81799e-07
-1.10838e-06 1.81799e-07 -8.06763e-05
0.000714108 1.91827e-05 -9.45387e-07
1.91827e-05 -7.34847e-06 2.29238e-06
-9.45387e-07 2.29238e-06 -6.18122e-05
0.00168153 -1.37569e-06 -2.20676e-06
-1.37569e-06 0.000181027 1.08355e-07
-2.20676e-06 1.08355e-07 6.39901e-05
0.00167034 -4.71841e-05 -1.24833e-06
-4.71841e-05 0.000194189 1.64819e-07
-1.24833e-06 1.64819e-07 8.05008e-05
0.00164412 -1.42999e-05 -7.60254e-07
-1.42999e-05 0.000119797 3.09127e-07
-7.60254e-07 3.09127e-07 3.5124e-06
0.00168545 -6.60812e-05 -1.84558e-07
-6.60812e-05 0.000165502 -2.70858e-07
-1.84558e-07 -2.70858e-07 4.94869e-05
0.000779748 -3.88394e-05 4.65209e-08
-3.88394e-05 4.10013e-05 -2.13801e-07
4.65209e-08 -2.13801e-07 -4.18307e-05
0.00099671 -0.000121247 -2.8857e-07
-0.000121247 0.0001325 4.29713e-07
-2.8857e-07 4.29713e-07 2.36766e-05
0.000824624 -0.000131323 7.6752e-07
-0.000131323 -1.33832e-05 -1.38728e-06
7.6752e-07 -1.38728e-06 -0.000150856
0.00160068 -0.000124204 4.59567e-07
-0.000124204 0.000141552 -6.59831e-08
4.59567e-07 -6.59831e-08 2.0703e-05
0.00164228 -8.7975e-05 1.69913e-07
-8.7975e-05 0.000115051 4.08906e-07
1.69913e-07 4.08906e-07 5.67111e-06
0.0013814 -0.0001716 -2.51751e-07
-0.0001716 0.000159731 5.63805e-07
-2.51751e-07 5.63805e-07 8.69487e-06
0.00152689 -0.000141684 -2.44129e-07
-0.000141684 9.26209e-05 -3.52359e-07
-2.44129e-07 -3.52359e-07 -3.34235e-05
0.0017237 -0.000172672 1.2886e-06
-0.000172672 0.000222702 1.4076e-06
1.2886e-06 1.4076e-06 9.57228e-05
0.000916306 -6.67054e-05 -2.69577e-07
-6.67054e-05 0.000103383 -1.37615e-07
-2.69577e-07 -1.37615e-07 8.24078e-06
0.000935746 -0.00010308 -3.4197e-07
-0.00010308 0.000125072 3.90755e-07
-3.4197e-07 3.90755e-07 1.9405e-05
0.000739126 1.76396e-05 1.51776e-07
1.76396e-05 3.39244e-06 9.69164e-08
1.51776e-07 9.69164e-08 -4.47284e-05
0.000705512 2.29003e-05 -9.75207e-08
2.29003e-05 -8.93278e-06 -5.10682e-07
-9.75207e-08 -5.10682e-07 -8.92627e-05
0.00164022 -4.22585e-06 1.46135e-06
-4.22585e-06 0.000107976 -6.24314e-07
1.46135e-06 -6.24314e-07 -1.07692e-05
0.00184478 -4.20704e-05 7.24143e-07
-4.20704e-05 0.000236238 2.22099e-07
7.24143e-07 2.22099e-07 0.000120106
0.00172437 -2.37024e-05 1.30295e-07
-2.37024e-05 0.000120024 1.71279e-07
1.30295e-07 1.71279e-07 6.88242e-06
0.00163498 -6.45563e-05 -1.53594e-06
-6.45563e-05 9.94505e-05 -5.70585e-07
-1.53594e-06 -5.70585e-07 -8.44741e-06
0.00156774 -0.000117612 -8.79555e-07
-0.000117612 7.82371e-05 1.10388e-06
-8.79555e-07 1.10388e-06 -3.7736e-05
0.00168502 -8.4909e-05 1.40641e-07
-8.4909e-05 0.000107657 2.34554e-07
1.40641e-07 2.34554e-07 4.84936e-06
0.000875437 -0.000108048 1.15617e-06
-0.000108048 7.81011e-05 2.97799e-07
1.15617e-06 2.97799e-07 -2.2034e-05
0.00157927 -0.000146102 -4.65986e-06
-0.000146102 8.55361e-05 -4.55785e-07
-4.65986e-06 -4.55785e-07 -3.07479e-05
0.000564318 -0.000107535 -4.75148e-07
-0.000107535 -0.000100133 -2.23398e-06
-4.75148e-07 -2.23398e-06 -0.000224155
0.00122313 -0.0001658 2.53153e-06
-0.0001658 0.000170689 -2.07998e-06
2.53153e-06 -2.07998e-06 1.3882e-05
0.00152583 -0.000187503 5.34571e-07
-0.000187503 0.000204937 3.35788e-06
5.34571e-07 3.35788e-06 5.29937e-05
0.00211746 -0.000194452 -1.25721e-06
-0.000194452 0.000390929 4.15094e-07
-1.25721e-06 4.15094e-07 0.000268275
0.00074649 1.30453e-05 1.81045e-06
1.30453e-05 3.82331e-06 -1.89606e-06
1.81045e-06 -1.89606e-06 -4.0218e-05
0.000695125 9.79949e-06 2.89983e-07
9.79949e-06 -8.75099e-06 -1.19542e-06
2.89983e-07 -1.19542e-06 -8.70304e-05
0.000921065 -0.000120401 3.24121e-08
-0.000120401 0.000112338 1.38732e-06
3.24121e-08 1.38732e-06 4.08511e-06
0.000931263 -7.3419e-05 1.00479e-06
-7.3419e-05 0.000122698 6.92211e-08
1.00479e-06 6.92211e-08 2.64887e-05
0.000932319 -0.000121032 -9.51632e-07
-0.000121032 0.00012513 2.15317e-06
-9.51632e-07 2.15317e-06 1.42153e-05
0.000653468 -4.34097e-05 -2.06801e-06
-4.34097e-05 -3.43877e-05 -3.39721e-06
-2.06801e-06 -3.39721e-06 -4.67896e-05
0.0014346 0.000113531 -3.96957e-06
0.000113531 8.6608e-05 -1.22717e-06
-3.96957e-06 -1.22717e-06 -3.83453e-05
0.000712648 -5.69807e-05 -4.95201e-07
-5.69807e-05 2.45334e-06 -1.76225e-06
-4.95201e-07 -1.76225e-06 -4.48155e-05
0.000780646 -5.37841e-06 -2.50147e-07
-5.37841e-06 4.43803e-05 -2.64935e-06
-2.50147e-07 -2.64935e-06 -2.76758e-05
0.000839945 -7.40733e-06 7.57822e-07
-7.40733e-06 7.64839e-05 -9.1675e-07
7.57822e-07 -9.1675e-07 -7.13963e-06
0.00120086 0.000141922 -3.91333e-06
0.000141922 7.02374e-05 -2.77185e-06
-3.91333e-06 -2.77185e-06 -5.79045e-05
0.00145947 0.000145386 -2.18547e-06
0.000145386 8.46094e-05 -5.51224e-07
-2.18547e-06 -5.51224e-07 -5.42687e-05
0.000887086 0.000107845 -1.40359e-06
0.000107845 9.07602e-05 -8.18645e-07
-1.40359e-06 -8.18645e-07 -1.76496e-05
0.00125261 0.000154289 -1.87363e-06
0.000154289 0.000260915 -1.22159e-06
-1.87363e-06 -1.22159e-06 0.000118704
0.00165246 0.000175401 -1.30788e-06
0.000175401 0.00034657 -3.24344e-06
-1.30788e-06 -3.24344e-06 0.00021499
0.0010361 0.000146399 -3.38143e-06
0.000146399 6.74409e-05 1.67735e-06
-3.38143e-06 1.67735e-06 -5.84553e-05
0.000688151 -3.96137e-05 6.79743e-08
-3.96137e-05 -2.46443e-05 2.19671e-08
6.79743e-08 2.19671e-08 -3.40612e-05
0.000734814 -4.71887e-05 -2.48906e-07
-4.71887e-05 5.72908e-06 1.06772e-07
-2.48906e-07 1.06772e-07 -3.36501e-05
0.000920784 5.86027e-05 5.72141e-07
5.86027e-05 0.000115107 -6.16655e-08
5.72141e-07 -6.16655e-08 1.87353e-05
0.000796277 -1.696e-05 -2.1948e-07
-1.696e-05 4.71537e-05 1.63002e-07
-2.1948e-07 1.63002e-07 -2.3291e-05
0.000834143 5.75222e-05 6.37932e-07
5.75222e-05 8.40151e-05 -2.33009e-07
6.37932e-07 -2.33009e-07 -1.72143e-05
0.0015278 0.000116204 1.38775e-06
0.000116204 8.4438e-05 6.1039e-08
1.38775e-06 6.1039e-08 -4.5918e-05
0.00134732 0.000158084 -1.73511e-07
0.000158084 0.00010068 8.71756e-07
-1.73511e-07 8.71756e-07 -3.81692e-05
0.00157794 0.000156779 1.03798e-06
0.000156779 0.000113595 1.0785e-06
1.03798e-06 1.0785e-06 -2.74713e-05
0.00101356 0.00013089 1.12276e-06
0.00013089 0.00016766 1.19717e-06
1.12276e-06 1.19717e-06 3.35965e-05
0.00146135 0.000173524 1.1709e-06
0.000173524 0.000219273 -1.49778e-06
1.1709e-06 -1.49778e-06 8.63738e-05
0.000770818 0.000131961 -1.82162e-06
0.000131961 -3.47778e-05 -9.93777e-07
-1.82162e-06 -9.93777e-07 -0.000185322
0.000752984 -3.61834e-05 1.36079e-06
-3.61834e-05 7.65984e-06 1.53196e-06
1.36079e-06 1.53196e-06 -2.72208e-05
0.000798805 3.55471e-06 4.31165e-07
3.55471e-06 4.02915e-05 1.00462e-06
4.31165e-07 1.00462e-06 -1.86103e-05
0.00104012 0.000124345 -1.72073e-07
0.000124345 0.000190597 -2.4474e-07
-1.72073e-07 -2.4474e-07 7.13946e-05
0.000850286 1.0024e-05 3.74001e-07
1.0024e-05 8.66304e-05 4.7463e-07
3.74001e-07 4.7463e-07 5.55795e-07
0.00107229 6.04961e-05 -8.0956e-07
6.04961e-05 0.000211526 -2.44131e-06
-8.0956e-07 -2.44131e-06 0.000101416
0.00156663 0.000113191 -1.44547e-06
0.000113191 7.72503e-05 -2.09403e-06
-1.44547e-06 -2.09403e-06 -5.1287e-05
0.00150303 0.000176348 3.61173e-07
0.000176348 0.000144622 3.39199e-06
3.61173e-07 3.39199e-06 4.0171e-06
0.00144792 0.000165692 -3.78654e-06
0.000165692 1.85806e-05 -3.41981e-07
-3.78654e-06 -3.41981e-07 -0.000116965
0.000836252 0.000126458 -6.56492e-09
0.000126458 7.92213e-05 2.06972e-06
-6.56492e-09 2.06972e-06 -7.90076e-05
0.00125292 0.000175939 3.02163e-06
0.000175939 0.000132982 -2.22927e-07
3.02163e-06 -2.22927e-07 -1.66575e-05
0.000760265 -2.83156e-05 1.6854e-08
-2.83156e-05 6.05667e-06 -3.36723e-09
1.6854e-08 -3.36723e-09 -2.64644e-05
0.000660046 -1.55283e-05 9.88057e-07
-1.55283e-05 -4.28071e-05 1.06978e-06
9.88057e-07 1.06978e-06 -9.34365e-05
0.000724587 -2.38994e-05 -6.89584e-07
-2.38994e-05 -6.55527e-06 -5.07065e-08
-6.89584e-07 -5.07065e-08 -5.74972e-05
0.000970481 1.70217e-05 1.19345e-06
1.70217e-05 0.000140373 -3.20496e-07
1.19345e-06 -3.20496e-07 7.66167e-05
0.000809713 1.80219e-05 1.71498e-06
1.80219e-05 3.73925e-05 7.17229e-07
1.71498e-06 7.17229e-07 -1.30358e-05
0.000778112 -8.43978e-06 9.67309e-07
-8.43978e-06 5.28313e-06 1.72005e-06
9.67309e-07 1.72005e-06 -2.51648e-05
0.00077545 -1.86066e-05 -5.88494e-08
-1.86066e-05 6.79009e-06 1.12696e-08
-5.88494e-08 1.12696e-08 -2.36878e-05
0.00125577 -3.07239e-05 1.13588e-06
-3.07239e-05 0.000269679 2.05527e-06
1.13588e-06 2.05527e-06 0.000268986
0.00076806 -2.31199e-05 -1.18699e-06
-2.31199e-05 6.75084e-06 -1.73451e-06
-1.18699e-06 -1.73451e-06 -2.46124e-05
0.00127454 -3.58358e-05 -4.26919e-06
-3.58358e-05 0.00028562 -1.16991e-06
-4.26919e-06 -1.16991e-06 0.000283636
0.000952649 -2.84942e-05 1.98489e-05
-2.84942e-05 0.000111124 6.25998e-06
1.98489e-05 6.25998e-06 0.000123971
0.00126281 -4.00722e-05 -9.56931e-06
-4.00722e-05 0.000286451 -3.0758e-06
-9.56931e-06 -3.0758e-06 0.000282704
0.00147755 -4.20243e-05 1.80989e-05
-4.20243e-05 0.000411117 1.94701e-06
1.80989e-05 1.94701e-06 0.00042488
0.00205834 -5.72361e-05 -2.57863e-05
-5.72361e-05 0.000740209 -3.31657e-06
-2.57863e-05 -3.31657e-06 0.000755076
0.000664128 3.7341e-05 1.74906e-06
3.7341e-05 -3.91187e-05 -3.82364e-06
1.74906e-06 -3.82364e-06 -5.36081e-05
0.000666903 4.29525e-05 -1.21643e-07
4.29525e-05 -2.98582e-05 3.29092e-08
-1.21643e-07 3.29092e-08 -4.79161e-05
0.00238813 6.87227e-05 3.27231e-05
6.87227e-05 0.000928195 -3.47197e-06
3.27231e-05 -3.47197e-06 0.000938583
0.00253497 7.71789e-05 -1.43796e-06
7.71789e-05 0.00101647 -1.44263e-07
-1.43796e-06 -1.44263e-07 0.00102433
0.000668298 5.51148e-05 -4.19997e-07
5.51148e-05 -1.86025e-05 4.62544e-06
-4.19997e-07 4.62544e-06 -4.18624e-05
0.00271077 8.31638e-05 -5.05803e-05
8.31638e-05 0.00111754 3.02333e-06
-5.05803e-05 3.02333e-06 0.00112352
0.0014372 8.93606e-05 -4.77606e-06
8.93606e-05 7.52169e-05 -6.686e-07
-4.77606e-06 -6.686e-07 -4.36796e-05
0.00145499 4.57283e-05 -4.5418e-06
4.57283e-05 7.87967e-05 -1.21968e-06
-4.5418e-06 -1.21968e-06 -3.88437e-05
0.00155565 7.25449e-05 -1.08601e-06
7.25449e-05 9.35657e-05 -7.73744e-08
-1.08601e-06 -7.73744e-08 -2.67069e-05
0.00158479 2.86316e-05 -9.99606e-07
2.86316e-05 8.24333e-05 -1.6952e-07
-9.99606e-07 -1.6952e-07 -3.46355e-05
0.00148767 2.266e-05 -4.40342e-06
2.266e-05 7.23675e-05 -6.86366e-07
-4.40342e-06 -6.86366e-07 -4.74364e-05
0.00122585 6.2356e-06 -1.02322e-05
6.2356e-06 1.3394e-05 -5.65587e-08
-1.02322e-05 -5.65587e-08 -9.077e-05
0.00149172 1.00782e-05 6.76184e-08
1.00782e-05 7.20444e-05 -9.95469e-08
6.76184e-08 -9.95469e-08 -4.77843e-05
0.0016189 1.27379e-05 -2.1665e-07
1.27379e-05 8.21164e-05 1.14451e-08
-2.1665e-07 1.14451e-08 -3.58603e-05
0.00157992 4.92009e-05 -4.25588e-08
4.92009e-05 9.51618e-05 -1.03306e-07
-4.25588e-08 -1.03306e-07 -2.37586e-05
0.001738 3.41737e-05 2.27619e-07
3.41737e-05 0.000120254 2.54147e-07
2.27619e-07 2.54147e-07 1.0549e-05
0.00155382 8.97448e-05 -1.77055e-07
8.97448e-05 9.18091e-05 1.72422e-07
-1.77055e-07 1.72422e-07 -3.11091e-05
0.00160563 6.86587e-05 -8.48343e-08
6.86587e-05 8.10027e-05 5.16478e-07
-8.48343e-08 5.16478e-07 -2.84814e-05
0.00161958 1.94135e-07 1.24188e-06
1.94135e-07 8.44858e-05 2.31124e-08
1.24188e-06 2.31124e-08 -3.41639e-05
0.00176715 3.02871e-05 -3.26917e-07
3.02871e-05 0.000115173 4.21969e-07
-3.26917e-07 4.21969e-07 3.11686e-06
0.00159339 4.95109e-05 -1.81485e-06
4.95109e-05 5.50539e-05 -7.98082e-08
-1.81485e-06 -7.98082e-08 -5.30368e-05
0.00182079 4.01607e-05 -4.06389e-07
4.01607e-05 0.000139518 8.28562e-08
-4.06389e-07 8.28562e-08 3.68965e-05
0.0015506 8.17898e-05 -1.70079e-06
8.17898e-05 5.71201e-05 -1.22889e-06
-1.70079e-06 -1.22889e-06 -5.89336e-05
0.00185345 7.17797e-05 -6.78439e-07
7.17797e-05 0.000179129 4.72105e-08
-6.78439e-07 4.72105e-08 7.89342e-05
0.00147881 -7.20301e-07 -6.32017e-06
-7.20301e-07 6.93229e-05 8.48992e-07
-6.32017e-06 8.48992e-07 -4.95634e-05
0.00166205 -4.8849e-05 -6.33023e-06
-4.8849e-05 0.000190013 1.11341e-06
-6.33023e-06 1.11341e-06 7.60924e-05
0.0015112 -1.32133e-05 -2.0356e-06
-1.32133e-05 4.55258e-05 4.56407e-07
-2.0356e-06 4.56407e-07 -7.07357e-05
0.00180196 -6.60405e-05 -1.52107e-06
-6.60405e-05 0.000227312 5.61063e-07
-1.52107e-06 5.61063e-07 0.000111721
0.000820872 -4.57892e-05 -2.92611e-06
-4.57892e-05 6.15252e-05 1.95282e-06
-2.92611e-06 1.95282e-06 -2.12012e-05
0.00110846 -0.000128761 -1.75915e-06
-0.000128761 0.000190886 1.27943e-06
-1.75915e-06 1.27943e-06 8.10644e-05
0.000922285 -0.000134683 -7.69526e-07
-0.000134683 4.4805e-05 7.58119e-07
-7.69526e-07 7.58119e-07 -9.07607e-05
0.00172802 -0.000127782 -2.04383e-06
-0.000127782 0.000213683 -4.29287e-08
-2.04383e-06 -4.29287e-08 9.28189e-05
0.0015705 -8.52145e-05 8.69705e-07
-8.52145e-05 7.51253e-05 7.02892e-08
8.69705e-07 7.02892e-08 -3.33395e-05
0.00159689 -0.000143307 3.70107e-07
-0.000143307 0.000128799 -4.83239e-07
3.70107e-07 -4.83239e-07 2.81309e-06
0.00107217 -0.000155684 -1.56532e-06
-0.000155684 -3.87396e-06 3.97198e-07
-1.56532e-06 3.97198e-07 -0.000155332
0.00151414 -0.000163012 4.45418e-06
-0.000163012 0.000107483 -1.28783e-06
4.45418e-06 -1.28783e-06 -1.68541e-05
0.000935817 -5.77249e-05 -1.25622e-06
-5.77249e-05 0.000113727 -3.00412e-07
-1.25622e-06 -3.00412e-07 1.93107e-05
0.000893221 -7.47304e-05 -6.07383e-07
-7.47304e-05 9.56105e-05 -5.75992e-07
-6.07383e-07 -5.75992e-07 -6.33708e-06
0.000735963 1.52484e-05 -1.37854e-06
1.52484e-05 1.50329e-06 2.00044e-06
-1.37854e-06 2.00044e-06 -4.66452e-05
0.000689021 3.45076e-05 1.04203e-07
3.45076e-05 -2.01643e-05 1.87316e-07
1.04203e-07 1.87316e-07 -9.78193e-05
0.001628 -3.71712e-06 -3.32782e-08
-3.71712e-06 9.95475e-05 -2.21763e-07
-3.32782e-08 -2.21763e-07 -1.92131e-05
0.00179726 -3.94351e-05 -7.03192e-07
-3.94351e-05 0.000209904 3.32757e-07
-7.03192e-07 3.32757e-07 9.31266e-05
0.00167661 -2.29449e-05 -2.46242e-07
-2.29449e-05 9.77687e-05 -4.44063e-08
-2.46242e-07 -4.44063e-08 -1.50253e-05
0.00161513 -6.38701e-05 -1.04825e-07
-6.38701e-05 9.18198e-05 -2.17223e-07
-1.04825e-07 -2.17223e-07 -1.69328e-05
0.000962783 -9.7377e-05 -2.94758e-07
-9.7377e-05 0.000122282 2.58057e-07
-2.94758e-07 2.58057e-07 2.34322e-05
0.000679243 -0.000113152 6.09446e-07
-0.000113152 -3.68652e-05 -7.61273e-07
6.09446e-07 -7.61273e-07 -0.000159166
0.00123415 -0.000165244 2.83091e-08
-0.000165244 0.00017991 1.25603e-07
2.83091e-08 1.25603e-07 2.224e-05
0.00164312 -0.000120706 -3.89034e-07
-0.000120706 0.00011988 2.14493e-07
-3.89034e-07 2.14493e-07 3.09919e-06
0.00163698 -8.39132e-05 7.01392e-07
-8.39132e-05 8.23868e-05 -3.13173e-07
7.01392e-07 -3.13173e-07 -1.93461e-05
0.00149086 -0.000184255 -5.98776e-07
-0.000184255 0.000185367 9.75694e-07
-5.98776e-07 9.75694e-07 3.28954e-05
0.00160368 -0.000146899 -5.60534e-07
-0.000146899 9.72114e-05 -4.05645e-07
-5.60534e-07 -4.05645e-07 -1.942e-05
0.00170359 -0.000174846 1.97257e-06
-0.000174846 0.00017903 -1.17051e-06
1.97257e-06 -1.17051e-06 6.23421e-05
0.000992598 -0.000125013 8.79287e-08
-0.000125013 0.000150508 6.14374e-08
8.79287e-08 6.14374e-08 4.18051e-05
0.00096792 -0.00011527 1.99646e-07
-0.00011527 0.000141611 2.75974e-07
1.99646e-07 2.75974e-07 3.19817e-05
0.00089556 -4.80452e-05 -2.72252e-07
-4.80452e-05 0.000100512 -1.04163e-07
-2.72252e-07 -1.04163e-07 6.78777e-06
0.000624971 2.1886e-05 -3.62879e-07
2.1886e-05 -6.2149e-05 4.4434e-08
-3.62879e-07 4.4434e-08 -0.000107583
0.000687739 2.64165e-05 9.84551e-08
2.64165e-05 -1.72547e-05 -3.83988e-07
9.84551e-08 -3.83988e-07 -9.18175e-05
0.00175582 -1.39889e-05 3.68593e-07
-1.39889e-05 0.000114903 -1.59811e-07
3.68593e-07 -1.59811e-07 2.611e-06
0.00168996 -3.57341e-05 -5.81958e-07
-3.57341e-05 9.74735e-05 1.75738e-07
-5.81958e-07 1.75738e-07 -1.23532e-05
0.00168797 -7.38656e-05 -3.91581e-07
-7.38656e-05 9.26898e-05 -2.77795e-07
-3.91581e-07 -2.77795e-07 -4.04201e-06
0.00156416 -0.00010886 -8.2869e-07
-0.00010886 3.66713e-05 6.59382e-07
-8.2869e-07 6.59382e-07 -6.90233e-05
0.000887998 -0.000120866 -5.05439e-07
-0.000120866 9.02428e-05 9.05321e-07
-5.05439e-07 9.05321e-07 -2.17095e-05
0.00193569 -0.000172271 -2.05317e-06
-0.000172271 0.000226621 -2.06242e-06
-2.05317e-06 -2.06242e-06 0.000116958
0.000170069 -8.76867e-05 2.41592e-07
-8.76867e-05 -0.000309563 -3.90082e-06
2.41592e-07 -3.90082e-06 -0.000444263
0.00140991 -0.000187519 3.3593e-06
-0.000187519 0.000239354 -1.12589e-06
3.3593e-06 -1.12589e-06 6.51924e-05
0.0018814 -0.000209462 1.38864e-06
-0.000209462 0.000322859 2.09004e-06
1.38864e-06 2.09004e-06 0.000175597
0.000511831 2.31963e-05 1.23874e-06
2.31963e-05 -0.000127181 -2.59591e-06
1.23874e-06 -2.59591e-06 -0.000170432
0.000901975 -3.51925e-06 1.39235e-06
-3.51925e-06 0.000102439 -6.4156e-07
1.39235e-06 -6.4156e-07 3.25421e-05
0.000941132 -3.19787e-05 -1.54186e-07
-3.19787e-05 0.000126945 8.45187e-08
-1.54186e-07 8.45187e-08 4.12021e-05
0.000937126 -0.000122327 -1.18288e-06
-0.000122327 0.000120473 2.16442e-06
-1.18288e-06 2.16442e-06 1.00094e-05
0.00100146 -7.58965e-05 3.27081e-07
-7.58965e-05 0.00015833 1.43388e-06
3.27081e-07 1.43388e-06 5.54933e-05
0.000875541 -0.000118378 -5.73109e-07
-0.000118378 8.47525e-05 1.89079e-06
-5.73109e-07 1.89079e-06 -2.69819e-05
0.000669118 -3.86752e-05 -1.76203e-06
-3.86752e-05 -3.48766e-05 -3.36856e-06
-1.76203e-06 -3.36856e-06 -4.41934e-05
0.000738074 -4.488e-05 -1.53434e-06
-4.488e-05 6.81694e-06 -1.38322e-06
-1.53434e-06 -1.38322e-06 -3.21074e-05
0.00147727 0.000115269 -1.09827e-06
0.000115269 5.71202e-05 -1.74614e-08
-1.09827e-06 -1.74614e-08 -7.34831e-05
0.000809519 -4.82009e-05 5.27884e-07
-4.82009e-05 5.27475e-05 -1.01857e-06
5.27884e-07 -1.01857e-06 -1.60663e-05
0.000832973 5.18277e-05 -3.06499e-07
5.18277e-05 6.58487e-05 -3.53086e-07
-3.06499e-07 -3.53086e-07 -2.84087e-05
0.000758508 3.70018e-05 8.51066e-07
3.70018e-05 3.9492e-05 1.37174e-07
8.51066e-07 1.37174e-07 -6.03016e-05
0.00131824 0.000157426 -1.50514e-06
0.000157426 8.65549e-05 -1.88297e-06
-1.50514e-06 -1.88297e-06 -5.23419e-05
0.00144652 0.000152357 2.41412e-07
0.000152357 4.57313e-05 1.54391e-07
2.41412e-07 1.54391e-07 -9.57368e-05
0.00100271 0.00012992 3.69627e-08
0.00012992 0.000164529 -3.3703e-07
3.69627e-08 -3.3703e-07 3.09087e-05
0.00128811 0.000163348 -5.51079e-07
0.000163348 0.000241449 4.61041e-07
-5.51079e-07 4.61041e-07 8.91489e-05
0.00160852 0.000180689 -2.11832e-06
0.000180689 0.000299237 -3.30529e-06
-2.11832e-06 -3.30529e-06 0.000166276
0.000752979 -3.53104e-05 -6.51302e-08
-3.53104e-05 7.83525e-06 2.2076e-08
-6.51302e-08 2.2076e-08 -2.70055e-05
0.000791587 -2.57833e-05 -4.48055e-07
-2.57833e-05 3.59309e-05 2.74369e-07
-4.48055e-07 2.74369e-07 -2.23997e-05
0.000991004 0.000121375 -4.73079e-07
0.000121375 0.000165711 -5.55246e-08
-4.73079e-07 -5.55246e-08 4.69172e-05
0.000839701 -8.87262e-06 2.97738e-07
-8.87262e-06 7.76167e-05 1.82896e-08
2.97738e-07 1.82896e-08 -6.28287e-06
0.000916038 6.88614e-05 1.21136e-07
6.88614e-05 0.000130662 -6.78732e-07
1.21136e-07 -6.78732e-07 1.83172e-05
0.00159962 0.00011657 -6.46347e-07
0.00011657 9.58253e-05 -8.43243e-07
-6.46347e-07 -8.43243e-07 -3.36359e-05
0.0014431 0.000173058 9.5754e-07
0.000173058 0.000113517 6.25135e-07
9.5754e-07 6.25135e-07 -2.69852e-05
0.00149851 0.000164682 8.08823e-07
0.000164682 4.57009e-05 6.25833e-07
8.08823e-07 6.25833e-07 -8.67112e-05
0.000748733 0.000122053 6.28168e-07
0.000122053 2.94303e-05 1.91374e-06
6.28168e-07 1.91374e-06 -0.000126895
0.00137289 0.000183087 -1.14836e-06
0.000183087 0.000198971 -9.13079e-07
-1.14836e-06 -9.13079e-07 4.54981e-05
0.000797018 3.98288e-07 8.85662e-07
3.98288e-07 3.47896e-05 7.01912e-07
8.85662e-07 7.01912e-07 -1.71332e-05
0.000680251 -3.14177e-05 -7.86702e-07
-3.14177e-05 -1.65399e-05 1.37557e-06
-7.86702e-07 1.37557e-06 -9.00671e-05
0.000975504 0.000128112 -1.39745e-06
0.000128112 0.000159535 -1.80944e-06
-1.39745e-06 -1.80944e-06 2.35903e-05
0.000715221 2.31723e-05 -5.39183e-07
2.31723e-05 1.78999e-05 -5.93612e-07
-5.39183e-07 -5.93612e-07 -8.4473e-05
0.00102834 9.8564e-05 -6.93928e-07
9.8564e-05 0.00018524 -2.37447e-06
-6.93928e-07 -2.37447e-06 6.45625e-05
0.00152868 0.000120268 -3.13901e-06
0.000120268 3.62324e-06 -2.26962e-06
-3.13901e-06 -2.26962e-06 -0.000101673
0.00196818 0.000216842 -1.44758e-06
0.000216842 0.000371138 1.08229e-06
-1.44758e-06 1.08229e-06 0.000223296
0.0010608 0.000146567 -7.2936e-07
0.000146567 -0.000212806 -3.00073e-07
-7.2936e-07 -3.00073e-07 -0.000333074
0.00185945 0.000194361 3.40973e-06
0.000194361 0.000593615 4.10939e-06
3.40973e-06 4.10939e-06 0.000416361
0.000120105 0.000124264 -8.06301e-07
0.000124264 -0.000488453 -5.5815e-07
-8.06301e-07 -5.5815e-07 -0.000647428
0.000761341 -2.68412e-05 -1.61213e-06
-2.68412e-05 7.08119e-06 -1.50823e-06
-1.61213e-06 -1.50823e-06 -2.54733e-05
0.000730832 -1.25476e-05 1.623e-07
-1.25476e-05 -2.92663e-06 4.75885e-07
1.623e-07 4.75885e-07 -5.38382e-05
0.000715597 -4.30353e-05 -1.94368e-07
-4.30353e-05 -4.03361e-06 6.29065e-07
-1.94368e-07 6.29065e-07 -6.66555e-05
0.000669719 -4.32432e-05 -9.04724e-07
-4.32432e-05 -3.7169e-05 -4.51085e-07
-9.04724e-07 -4.51085e-07 -8.80422e-05
0.000807111 -4.6501e-06 1.64831e-07
-4.6501e-06 3.55769e-05 -1.91809e-08
1.64831e-07 -1.91809e-08 -1.44993e-05
0.000826931 -1.71722e-05 1.83431e-07
-1.71722e-05 5.64593e-05 -3.4013e-07
1.83431e-07 -3.4013e-07 -3.7423e-06
0.000932966 7.10291e-06 9.58774e-08
7.10291e-06 0.000121808 -7.13494e-07
9.58774e-08 -7.13494e-07 5.3943e-05
0.000740289 -3.62849e-05 4.7588e-07
-3.62849e-05 1.20348e-05 1.51737e-08
4.7588e-07 1.51737e-08 -5.01855e-05
0.00083527 -1.05255e-06 4.38328e-07
-1.05255e-06 4.60872e-05 5.48361e-07
4.38328e-07 5.48361e-07 -2.31003e-06
0.000770896 -6.41887e-07 9.37308e-07
-6.41887e-07 1.12339e-06 1.56401e-06
9.37308e-07 1.56401e-06 -3.02524e-05
0.0007767 -1.22004e-05 -1.57468e-07
-1.22004e-05 4.90521e-06 -4.11157e-09
-1.57468e-07 -4.11157e-09 -2.56525e-05
0.00126005 -2.2717e-05 1.06534e-06
-2.2717e-05 0.00026737 2.00423e-06
1.06534e-06 2.00423e-06 0.000267374
0.000773828 -1.88991e-05 -9.419e-07
-1.88991e-05 6.11434e-06 -1.78633e-06
-9.419e-07 -1.78633e-06 -2.44187e-05
0.00127613 -2.8723e-05 -3.62276e-06
-2.8723e-05 0.000280597 -1.19976e-06
-3.62276e-06 -1.19976e-06 0.00028003
0.000952062 -2.34952e-05 1.61231e-05
-2.34952e-05 0.000104677 6.40096e-06
1.61231e-05 6.40096e-06 0.000118809
0.00129286 -3.42759e-05 -8.12242e-06
-3.42759e-05 0.000295233 -4.44252e-06
-8.12242e-06 -4.44252e-06 0.000293417
0.000894998 -2.97011e-05 6.48522e-06
-2.97011e-05 7.94818e-05 2.404e-06
6.48522e-06 2.404e-06 9.20421e-05
0.00198547 -5.46256e-05 -6.15989e-06
-5.46256e-05 0.000692853 -1.51094e-06
-6.15989e-06 -1.51094e-06 0.000708918
0.000678646 3.32325e-05 1.28544e-06
3.32325e-05 -3.80006e-05 -3.67192e-06
1.28544e-06 -3.67192e-06 -4.94733e-05
0.000679131 3.81247e-05 -1.45318e-07
3.81247e-05 -3.0887e-05 3.15498e-08
-1.45318e-07 3.15498e-08 -4.55386e-05
0.00230826 6.03983e-05 2.81383e-05
6.03983e-05 0.000876546 -3.67726e-06
2.81383e-05 -3.67726e-06 0.00088933
0.000684598 4.48089e-05 -1.8858e-06
4.48089e-05 -1.96723e-05 4.0551e-06
-1.8858e-06 4.0551e-06 -3.81025e-05
0.00242572 6.90264e-05 -1.56606e-06
6.90264e-05 0.000949594 -1.26564e-07
-1.56606e-06 -1.26564e-07 0.000959757
0.00257107 7.63808e-05 -4.30424e-05
7.63808e-05 0.00103631 3.12534e-06
-4.30424e-05 3.12534e-06 0.00104427
0.00146695 8.84544e-05 -2.09041e-06
8.84544e-05 4.57268e-05 2.71938e-07
-2.09041e-06 2.71938e-07 -7.75009e-05
0.00160468 4.78811e-05 -7.32077e-07
4.78811e-05 0.000109162 -2.65372e-07
-7.32077e-07 -2.65372e-07 -9.67448e-06
0.00161266 6.92722e-05 2.3227e-06
6.92722e-05 8.32283e-05 8.96316e-07
2.3227e-06 8.96316e-07 -2.5342e-05
0.00175845 3.59696e-05 1.22622e-06
3.59696e-05 0.00012981 1.48105e-07
1.22622e-06 1.48105e-07 2.14697e-05
0.00162678 6.21674e-06 -1.03842e-06
6.21674e-06 8.60044e-05 -2.60194e-07
-1.03842e-06 -2.60194e-07 -3.20889e-05
0.00148899 1.32939e-05 -4.29884e-06
1.32939e-05 7.07362e-05 -1.2428e-08
-4.29884e-06 -1.2428e-08 -4.91342e-05
0.00162661 3.45297e-06 -1.08577e-07
3.45297e-06 8.76489e-05 -4.11608e-08
-1.08577e-07 -4.11608e-08 -3.15901e-05
0.00175678 2.44453e-05 3.42421e-07
2.44453e-05 0.000111545 -5.38271e-08
3.42421e-07 -5.38271e-08 -1.03204e-06
0.00162999 4.72525e-05 -5.51362e-07
4.72525e-05 7.24796e-05 -1.47698e-07
-5.51362e-07 -1.47698e-07 -3.65525e-05
0.00178047 4.06541e-05 8.83575e-07
4.06541e-05 0.000113583 -9.76783e-08
8.83575e-07 -9.76783e-08 1.19446e-05
0.00159057 8.30664e-05 -6.42941e-07
8.30664e-05 8.08487e-05 1.17737e-07
-6.42941e-07 1.17737e-07 -3.52965e-05
0.00173741 7.39249e-05 2.20453e-06
7.39249e-05 0.000115621 1.7528e-07
2.20453e-06 1.7528e-07 1.67005e-05
0.00176121 5.14062e-06 -1.48671e-07
5.14062e-06 0.000110653 1.5649e-07
-1.48671e-07 1.5649e-07 -2.76143e-06
0.00175262 3.3282e-05 -6.07418e-07
3.3282e-05 9.03505e-05 4.52498e-07
-6.07418e-07 4.52498e-07 -1.30684e-05
0.00178283 5.45238e-05 -1.0335e-06
5.45238e-05 0.000107343 5.49774e-08
-1.0335e-06 5.49774e-08 1.09507e-05
0.00181826 9.72817e-05 -1.77954e-06
9.72817e-05 0.000152043 -5.85334e-07
-1.77954e-06 -5.85334e-07 5.46785e-05
0.00161645 -3.2342e-06 -1.28617e-06
-3.2342e-06 9.15084e-05 1.89389e-07
-1.28617e-06 1.89389e-07 -2.72644e-05
0.0017524 -3.8504e-05 -2.296e-06
-3.8504e-05 0.000184836 3.76114e-07
-2.296e-06 3.76114e-07 6.7369e-05
0.0016313 -2.22922e-05 -7.08437e-07
-2.22922e-05 7.673e-05 1.23729e-07
-7.08437e-07 1.23729e-07 -3.57334e-05
0.0015966 -6.25252e-05 6.26535e-07
-6.25252e-05 8.47557e-05 7.30992e-08
6.26535e-07 7.30992e-08 -2.4815e-05
0.00105754 -9.95881e-05 -1.3554e-06
-9.95881e-05 0.000173042 1.63998e-07
-1.3554e-06 1.63998e-07 7.33757e-05
0.000826564 -0.000121091 9.20645e-07
-0.000121091 4.39884e-05 3.62814e-07
9.20645e-07 3.62814e-07 -7.68995e-05
0.00119478 -0.000161491 -1.63632e-06
-0.000161491 0.000161892 2.77015e-06
-1.63632e-06 2.77015e-06 2.94226e-06
0.00171304 -0.000123432 -4.44335e-07
-0.000123432 0.000158736 -4.7247e-07
-4.44335e-07 -4.7247e-07 4.11715e-05
0.00158994 -8.30751e-05 6.26081e-07
-8.30751e-05 5.72229e-05 -5.57055e-07
6.26081e-07 -5.57055e-07 -4.34291e-05
0.00162775 -0.000147653 2.51399e-06
-0.000147653 0.000108501 -2.12218e-07
2.51399e-06 -2.12218e-07 -8.47095e-06
0.00145713 -0.000181128 -9.23945e-07
-0.000181128 0.00016639 -1.00122e-06
-9.23945e-07 -1.00122e-06 1.33956e-05
0.00132706 -0.000156998 2.03732e-06
-0.000156998 -1.33492e-05 -1.76575e-06
2.03732e-06 -1.76575e-06 -0.000124298
0.00106663 -0.000129795 2.03392e-07
-0.000129795 0.00019022 -1.14919e-06
2.03392e-07 -1.14919e-06 8.10113e-05
0.0010162 -0.00011923 4.3454e-07
-0.00011923 0.000166588 -2.15062e-06
4.3454e-07 -2.15062e-06 5.66644e-05
0.000850287 -2.38725e-05 2.97077e-07
-2.38725e-05 7.45721e-05 -7.00186e-08
2.97077e-07 -7.00186e-08 -1.7478e-05
0.000502924 2.24905e-05 -1.59902e-06
2.24905e-05 -0.000128908 1.92962e-06
-1.59902e-06 1.92962e-06 -0.00017542
0.000686759 3.86614e-05 5.96877e-08
3.86614e-05 -2.08902e-05 2.34061e-07
5.96877e-08 2.34061e-07 -9.27566e-05
0.00174809 -1.50257e-05 1.33718e-07
-1.50257e-05 0.000114505 -2.94253e-08
1.33718e-07 -2.94253e-08 2.20674e-06
0.00172461 -3.69934e-05 2.29701e-07
-3.69934e-05 0.000116971 -3.20696e-08
2.29701e-07 -3.20696e-08 7.55949e-06
0.00169981 -7.37668e-05 -7.68158e-07
-7.37668e-05 0.000101041 -1.57813e-07
-7.68158e-07 -1.57813e-07 2.93602e-06
0.00101079 -0.000128121 -6.75694e-08
-0.000128121 0.000154873 4.44776e-07
-6.75694e-08 4.44776e-07 4.21104e-05
0.000732808 -0.000120892 1.82895e-06
-0.000120892 -8.05805e-06 -1.73886e-06
1.82895e-06 -1.73886e-06 -0.000143485
0.00130141 -0.000179553 -4.7369e-07
-0.000179553 0.000183829 3.19537e-07
-4.7369e-07 3.19537e-07 7.60989e-06
0.0016379 -0.000110151 7.37696e-07
-0.000110151 7.55633e-05 -1.26314e-07
7.37696e-07 -1.26314e-07 -3.00421e-05
0.00166092 -0.000194757 9.47717e-07
-0.000194757 0.000209814 -2.16324e-06
9.47717e-07 -2.16324e-06 6.67999e-05
0.00175083 -0.000168415 -1.26599e-06
-0.000168415 0.000136272 -3.66872e-07
-1.26599e-06 -3.66872e-07 2.62607e-05
0.00050848 2.67535e-05 7.97381e-09
2.67535e-05 -0.000129265 -6.60083e-07
7.97381e-09 -6.60083e-07 -0.000172041
0.00100986 -0.000126892 -1.7974e-08
-0.000126892 0.000158777 3.08082e-07
-1.7974e-08 3.08082e-07 4.775e-05
0.000882835 -0.000118255 -5.7025e-07
-0.000118255 8.98003e-05 4.30296e-07
-5.7025e-07 4.30296e-07 -2.10661e-05
0.00100744 -8.18534e-05 -3.48991e-07
-8.18534e-05 0.000164901 8.21638e-07
-3.48991e-07 8.21638e-07 5.92641e-05
0.000959094 -2.87373e-05 -1.71282e-08
-2.87373e-05 0.000137148 3.02622e-08
-1.71282e-08 3.02622e-08 5.15773e-05
0.000782107 1.37623e-05 -1.9358e-07
1.37623e-05 3.32257e-05 2.89506e-07
-1.9358e-07 2.89506e-07 -3.51534e-05
0.00168158 -2.52108e-05 -5.15905e-07
-2.52108e-05 5.61413e-05 3.31592e-08
-5.15905e-07 3.31592e-08 -5.13189e-05
0.00176742 -5.75263e-05 -2.00791e-06
-5.75263e-05 0.000104883 -1.02954e-07
-2.00791e-06 -1.02954e-07 1.03908e-05
0.00158664 -8.72775e-05 2.62578e-07
-8.72775e-05 1.45576e-05 4.46698e-07
2.62578e-07 4.46698e-07 -7.70153e-05
0.00190631 -0.000141632 -9.85237e-07
-0.000141632 0.000173839 7.48473e-08
-9.85237e-07 7.48473e-08 7.59484e-05
0.000973261 -0.000128235 -1.42866e-06
-0.000128235 0.000137075 6.44121e-07
-1.42866e-06 6.44121e-07 1.80129e-05
0.00159979 -0.000187889 1.13802e-06
-0.000187889 7.09728e-05 -5.20548e-07
1.13802e-06 -5.20548e-07 -5.03023e-05
0.000832 -0.000138454 -1.96032e-07
-0.000138454 2.37217e-05 -3.62847e-06
-1.96032e-07 -3.62847e-06 -0.000143651
0.00183994 -0.000220534 5.89033e-07
-0.000220534 0.000416093 1.49323e-06
5.89033e-07 1.49323e-06 0.00023126
0.000529763 2.32565e-05 7.48173e-07
2.32565e-05 -0.00012065 -2.48091e-06
7.48173e-07 -2.48091e-06 -0.000160095
0.000900285 -1.62617e-06 1.17496e-06
-1.62617e-06 9.78852e-05 -8.45314e-07
1.17496e-06 -8.45314e-07 3.36454e-05
0.000997608 -4.55565e-05 7.17403e-08
-4.55565e-05 0.000159618 8.3464e-07
7.17403e-08 8.3464e-07 7.76569e-05
0.000904558 -1.72381e-05 2.80495e-07
-1.72381e-05 0.000106925 -3.86086e-07
2.80495e-07 -3.86086e-07 1.27575e-05
0.00102432 -0.000129156 -7.24057e-07
-0.000129156 0.000164163 1.93256e-06
-7.24057e-07 1.93256e-06 4.81594e-05
0.00095489 -0.000124712 -2.81987e-06
-0.000124712 0.000125011 3.03509e-06
-2.81987e-06 3.03509e-06 1.06925e-05
0.000753535 -3.43724e-05 -1.7308e-06
-3.43724e-05 8.22846e-06 -1.39981e-06
-1.7308e-06 -1.39981e-06 -2.65384e-05
0.000774542 -4.89487e-05 -1.53396e-07
-4.89487e-05 2.70738e-05 -7.13709e-07
-1.53396e-07 -7.13709e-07 -3.1301e-05
0.00163341 0.000120083 1.08457e-07
0.000120083 0.000114812 4.90005e-07
1.08457e-07 4.90005e-07 -1.55982e-05
0.000835745 -2.52101e-05 4.29011e-07
-2.52101e-05 7.23149e-05 -3.6766e-07
4.29011e-07 -3.6766e-07 -9.46931e-06
0.000919557 0.000117014 3.20577e-07
0.000117014 0.000128702 -2.73068e-07
3.20577e-07 -2.73068e-07 1.04793e-05
0.000766264 4.40587e-05 5.56932e-07
4.40587e-05 4.68292e-05 1.15326e-07
5.56932e-07 1.15326e-07 -6.28774e-05
0.00139601 0.000170496 -6.0916e-07
0.000170496 8.89723e-05 -2.54099e-06
-6.0916e-07 -2.54099e-06 -5.14783e-05
0.00160721 0.000166588 2.39723e-06
0.000166588 0.000102531 2.41338e-07
2.39723e-06 2.41338e-07 -2.69161e-05
0.00062586 0.000115212 3.74561e-07
0.000115212 -3.92113e-05 8.58259e-07
3.74561e-07 8.58259e-07 -0.000193819
0.00150505 0.000190788 -6.44629e-07
0.000190788 0.000271722 -2.4977e-07
-6.44629e-07 -2.4977e-07 0.00011379
0.00078539 -2.05084e-05 -4.65593e-07
-2.05084e-05 2.89396e-05 1.16803e-07
-4.65593e-07 1.16803e-07 -2.33793e-05
0.000753037 -1.53372e-05 -3.75256e-08
-1.53372e-05 2.26075e-05 7.81668e-07
-3.75256e-08 7.81668e-07 -5.08003e-05
0.00105621 0.000132357 -4.51036e-07
0.000132357 0.000206486 -1.53887e-06
-4.51036e-07 -1.53887e-06 7.22188e-05
0.000761665 -1.18967e-05 -1.75808e-07
-1.18967e-05 3.72826e-05 4.88236e-08
-1.75808e-07 4.88236e-08 -6.01766e-05
0.000892368 8.30045e-05 -9.37375e-07
8.30045e-05 0.000113054 -9.28444e-07
-9.37375e-07 -9.28444e-07 -4.22471e-06
0.00181513 0.000127859 -2.02033e-06
0.000127859 0.000159264 -8.56639e-07
-2.02033e-06 -8.56639e-07 5.55937e-05
0.00190159 0.000211927 1.18052e-06
0.000211927 0.000330644 5.83193e-07
1.18052e-06 5.83193e-07 0.000183196
0.0014004 0.000164045 5.43653e-07
0.000164045 -3.73474e-05 1.23413e-06
5.43653e-07 1.23413e-06 -0.000156295
0.00135177 0.000164876 1.61741e-06
0.000164876 0.000328629 2.32182e-06
1.61741e-06 2.32182e-06 0.000150368
0.000705319 0.000159792 -1.66396e-06
0.000159792 -0.000179848 -7.05717e-07
-1.66396e-06 -7.05717e-07 -0.000345085
0.000690016 -3.46152e-05 -1.10883e-07
-3.46152e-05 -1.64693e-05 9.08661e-07
-1.10883e-07 9.08661e-07 -8.15173e-05
0.000573166 2.57225e-05 -3.15803e-07
2.57225e-05 -6.01273e-05 1.68973e-07
-3.15803e-07 1.68973e-07 -0.000153438
0.00108853 0.000134857 1.21436e-08
0.000134857 0.000220652 -4.19218e-07
1.21436e-08 -4.19218e-07 6.79934e-05
0.00029195 3.82429e-05 3.60652e-07
3.82429e-05 -0.000209147 -1.92482e-07
3.60652e-07 -1.92482e-07 -0.000327367
0.00188612 0.000123703 -2.42657e-06
0.000123703 0.000112973 -6.23229e-07
-2.42657e-06 -6.23229e-07 3.44289e-05
0.00185929 0.000157797 3.25552e-07
0.000157797 0.000133457 -3.85049e-07
3.25552e-07 -3.85049e-07 4.03806e-05
0.00157964 0.000213252 -1.62106e-06
0.000213252 0.000136728 -1.68789e-06
-1.62106e-06 -1.68789e-06 -1.35673e-05
0.000154292 0.000104279 -7.30377e-07
0.000104279 -0.000355319 1.47153e-06
-7.30377e-07 1.47153e-06 -0.000554002
0.000798002 6.31527e-07 -8.54176e-07
6.31527e-07 3.7706e-05 -9.10399e-08
-8.54176e-07 -9.10399e-08 -1.53306e-05
0.000792701 -1.48361e-05 -2.3316e-07
-1.48361e-05 3.96809e-05 4.27227e-07
-2.3316e-07 4.27227e-07 -2.37569e-05
0.000890522 -3.43362e-05 -1.87882e-07
-3.43362e-05 9.89339e-05 -4.54433e-08
-1.87882e-07 -4.54433e-08 2.92986e-05
0.000795377 -3.25465e-05 -9.58765e-07
-3.25465e-05 2.75261e-05 -6.20184e-07
-9.58765e-07 -6.20184e-07 -2.13635e-05
0.000690886 -4.2656e-05 3.00121e-09
-4.2656e-05 -1.77203e-05 -1.83303e-07
3.00121e-09 -1.83303e-07 -7.83671e-05
0.000814468 -1.26123e-05 3.11697e-08
-1.26123e-05 3.55872e-05 3.32258e-08
3.11697e-08 3.32258e-08 -1.33532e-05
0.000832469 1.61887e-05 -2.03981e-07
1.61887e-05 7.22917e-05 -3.23907e-07
-2.03981e-07 -3.23907e-07 8.39794e-07
0.000761908 -1.58974e-05 2.51819e-07
-1.58974e-05 2.56333e-05 2.30587e-07
2.51819e-07 2.30587e-07 -3.79502e-05
0.000865645 -1.39639e-05 2.35658e-07
-1.39639e-05 8.72907e-05 -3.69296e-07
2.35658e-07 -3.69296e-07 1.41012e-05
0.000810058 -4.28185e-05 -7.03111e-08
-4.28185e-05 5.43789e-05 5.17798e-08
-7.03111e-08 5.17798e-08 -1.50066e-05
0.000722266 5.58869e-06 4.62005e-07
5.58869e-06 -5.61819e-07 9.235e-08
4.62005e-07 9.235e-08 -6.27859e-05
0.000818306 1.2454e-05 5.74609e-07
1.2454e-05 3.74194e-05 4.62294e-07
5.74609e-07 4.62294e-07 -1.2132e-05
0.000764765 4.96579e-06 6.75961e-07
4.96579e-06 -9.52865e-07 1.48502e-06
6.75961e-07 1.48502e-06 -3.34734e-05
0.000772668 -6.77037e-06 -1.98162e-07
-6.77037e-06 2.4007e-06 -3.99336e-09
-1.98162e-07 -3.99336e-09 -2.90966e-05
0.0012742 -1.50441e-05 8.77322e-07
-1.50441e-05 0.000272484 1.95532e-06
8.77322e-07 1.95532e-06 0.000272369
0.000772379 -1.65876e-05 -5.92495e-07
-1.65876e-05 2.88966e-06 -1.67359e-06
-5.92495e-07 -1.67359e-06 -2.77776e-05
0.00128876 -2.09738e-05 -2.97151e-06
-2.09738e-05 0.000283286 -1.26458e-06
-2.97151e-06 -1.26458e-06 0.000283173
0.0009595 -1.79292e-05 1.32791e-05
-1.79292e-05 0.000104534 6.60858e-06
1.32791e-05 6.60858e-06 0.000119099
0.0013026 -2.72949e-05 -6.50982e-06
-2.72949e-05 0.000294898 -4.4797e-06
-6.50982e-06 -4.4797e-06 0.000294326
0.000904438 -2.43262e-05 5.12009e-06
-2.43262e-05 7.83442e-05 2.4633e-06
5.12009e-06 2.4633e-06 9.23675e-05
0.000840016 -2.98062e-05 -2.14332e-06
-2.98062e-05 4.91501e-05 -1.63591e-06
-2.14332e-06 -1.63591e-06 6.17031e-05
0.000688479 2.86631e-05 8.7091e-07
2.86631e-05 -3.90193e-05 -3.55561e-06
8.7091e-07 -3.55561e-06 -4.76567e-05
0.000690394 3.37718e-05 -1.65113e-07
3.37718e-05 -3.17405e-05 3.11777e-08
-1.65113e-07 3.11777e-08 -4.33033e-05
0.00223787 5.19281e-05 2.3652e-05
5.19281e-05 0.000830356 -3.84331e-06
2.3652e-05 -3.84331e-06 0.000845419
0.000695766 3.90564e-05 -1.85842e-06
3.90564e-05 -2.17383e-05 3.86366e-06
-1.85842e-06 3.86366e-06 -3.65702e-05
0.00233721 6.07888e-05 -1.67846e-06
6.07888e-05 0.00089338 -1.17985e-07
-1.67846e-06 -1.17985e-07 0.000905892
0.00246731 6.90602e-05 -3.70211e-05
6.90602e-05 0.000973032 3.39183e-06
-3.70211e-05 3.39183e-06 0.000983045
0.00162701 8.43304e-05 1.57998e-06
8.43304e-05 0.000102759 1.82547e-06
1.57998e-06 1.82547e-06 -1.34794e-05
0.00167211 4.50014e-05 5.25702e-07
4.50014e-05 9.28991e-05 -1.57004e-07
5.25702e-07 -1.57004e-07 -1.70681e-05
0.00163393 7.61891e-05 3.92836e-06
7.61891e-05 5.8737e-05 3.95701e-08
3.92836e-06 3.95701e-08 -3.89069e-05
0.0017422 4.11381e-05 2.1809e-06
4.11381e-05 8.89329e-05 -3.8701e-07
2.1809e-06 -3.8701e-07 -1.17354e-05
0.00174704 1.95237e-05 1.19627e-06
1.95237e-05 0.000108462 -3.10778e-07
1.19627e-06 -3.10778e-07 -4.70925e-06
0.00163524 2.20136e-06 -1.26861e-06
2.20136e-06 9.15146e-05 -8.60118e-08
-1.26861e-06 -8.60118e-08 -2.82707e-05
0.00175631 5.71046e-06 -1.30597e-07
5.71046e-06 0.000110228 -4.27649e-09
-1.30597e-07 -4.27649e-09 -3.03827e-06
0.00174032 2.91287e-05 4.46531e-07
2.91287e-05 8.52218e-05 -1.86065e-07
4.46531e-07 -1.86065e-07 -1.85557e-05
0.0017642 5.59879e-05 7.29479e-07
5.59879e-05 9.80156e-05 -8.28637e-08
7.29479e-07 -8.28637e-08 1.24151e-06
0.00181762 9.30372e-05 4.92703e-07
9.30372e-05 0.000145242 1.54075e-07
4.92703e-07 1.54075e-07 4.8563e-05
0.00176501 4.3751e-06 -1.04619e-06
4.3751e-06 9.26686e-05 3.72062e-07
-1.04619e-06 3.72062e-07 -1.36346e-05
0.0018824 4.15289e-05 -3.57064e-07
4.15289e-05 0.000135525 3.40477e-07
-3.57064e-07 3.40477e-07 4.41875e-05
0.00173753 8.92035e-05 -7.71207e-07
8.92035e-05 5.99907e-05 3.23811e-07
-7.71207e-07 3.23811e-07 -2.92103e-05
0.00174147 -1.5789e-05 -6.96871e-08
-1.5789e-05 0.000114681 -1.10519e-07
-6.96871e-08 -1.10519e-07 2.3808e-06
0.00175929 -3.82024e-05 2.62659e-07
-3.82024e-05 0.000136445 -1.26091e-07
2.62659e-07 -1.26091e-07 2.74466e-05
0.00171069 -7.34501e-05 2.17921e-07
-7.34501e-05 0.00010921 -1.75012e-07
2.17921e-07 -1.75012e-07 9.73603e-06
0.00111366 -0.000133989 1.2164e-08
-0.000133989 0.000208556 2.35711e-07
1.2164e-08 2.35711e-07 9.51871e-05
0.00121429 -0.000149421 1.07577e-07
-0.000149421 0.000248451 1.27705e-06
1.07577e-07 1.27705e-06 0.000113052
0.0012608 -0.000175582 -2.38859e-06
-0.000175582 0.000166014 2.62073e-06
-2.38859e-06 2.62073e-06 -1.22934e-05
0.00170759 -0.000111245 5.118e-07
-0.000111245 0.000112887 -5.89275e-07
5.118e-07 -5.89275e-07 7.36323e-06
0.00158172 -0.000165614 4.28543e-07
-0.000165614 5.36039e-05 -8.36411e-08
4.28543e-07 -8.36411e-08 -5.68195e-05
0.00145486 -0.000181143 -1.59267e-06
-0.000181143 0.000104627 -4.14339e-06
-1.59267e-06 -4.14339e-06 -3.42611e-05
0.00106896 -0.000130566 8.20338e-07
-0.000130566 0.00018976 -1.30634e-06
8.20338e-07 -1.30634e-06 7.82717e-05
0.000849326 -0.000115293 -1.67158e-06
-0.000115293 7.35131e-05 -2.03137e-06
-1.67158e-06 -2.03137e-06 -3.62382e-05
0.00101362 -9.64378e-05 7.00224e-07
-9.64378e-05 0.000173636 2.30027e-07
7.00224e-07 2.30027e-07 6.35771e-05
0.000501901 2.47847e-05 -9.45684e-07
2.47847e-05 -0.00013321 1.17357e-06
-9.45684e-07 1.17357e-06 -0.000175403
0.000975519 -1.91079e-05 1.05471e-07
-1.91079e-05 0.000144151 -2.16858e-07
1.05471e-07 -2.16858e-07 6.03242e-05
0.000659752 2.73287e-05 2.0158e-07
2.73287e-05 -3.74581e-05 1.13918e-06
2.0158e-07 1.13918e-06 -0.000104236
0.00176803 -2.32708e-05 -5.97031e-08
-2.32708e-05 9.98737e-05 5.19398e-08
-5.97031e-08 5.19398e-08 -7.55187e-06
0.00180724 -6.00206e-05 4.49968e-07
-6.00206e-05 0.000128046 -3.91476e-08
4.49968e-07 -3.91476e-08 3.41096e-05
0.00163475 -8.6483e-05 -1.76454e-07
-8.6483e-05 4.14547e-05 1.03912e-07
-1.76454e-07 1.03912e-07 -5.03406e-05
0.00101291 -0.000130273 -5.96064e-08
-0.000130273 0.0001559 9.08868e-07
-5.96064e-08 9.08868e-07 3.63408e-05
0.000786944 -0.000134275 -3.55235e-07
-0.000134275 5.24222e-06 3.61015e-07
-3.55235e-07 3.61015e-07 -0.00015747
0.00173084 -0.000212576 -2.48412e-06
-0.000212576 0.000353815 1.31138e-06
-2.48412e-06 1.31138e-06 0.000171191
0.00186942 -0.000141869 5.45743e-07
-0.000141869 0.000152377 -3.28834e-07
5.45743e-07 -3.28834e-07 5.4266e-05
0.00171104 -0.000193441 9.01267e-07
-0.000193441 0.000128599 -1.19656e-06
9.01267e-07 -1.19656e-06 5.88721e-06
0.000639743 2.26817e-05 1.86517e-07
2.26817e-05 -6.05662e-05 -6.19877e-07
1.86517e-07 -6.19877e-07 -9.87217e-05
0.000892655 7.24779e-06 -2.77977e-07
7.24779e-06 9.26701e-05 2.04271e-07
-2.77977e-07 2.04271e-07 2.92678e-05
0.000709576 -0.000109085 -1.15084e-06
-0.000109085 -7.01204e-06 8.88257e-07
-1.15084e-06 8.88257e-07 -0.00011981
0.00105736 -0.000125893 1.0314e-06
-0.000125893 0.000180663 8.60218e-07
1.0314e-06 8.60218e-07 6.92758e-05
0.000874911 -2.65512e-05 1.60248e-07
-2.65512e-05 9.25e-05 -3.67582e-07
1.60248e-07 -3.67582e-07 -3.76354e-06
0.000927229 -3.68072e-05 -6.51138e-07
-3.68072e-05 0.000121278 9.06733e-07
-6.51138e-07 9.06733e-07 3.92146e-05
0.00182189 -3.7712e-05 -1.25355e-06
-3.7712e-05 0.000108014 -1.00349e-07
-1.25355e-06 -1.00349e-07 1.34906e-05
0.00172921 -7.96885e-05 -2.7769e-06
-7.96885e-05 5.94054e-05 -4.60307e-08
-2.7769e-06 -4.60307e-08 -2.02476e-05
0.00166408 -0.000102754 -1.11206e-06
-0.000102754 1.08098e-05 2.17541e-07
-1.11206e-06 2.17541e-07 -7.17072e-05
0.00221233 -0.000204523 9.01527e-08
-0.000204523 0.000307458 -6.08369e-07
9.01527e-08 -6.08369e-07 0.00020718
0.000443719 -9.96126e-05 -1.98099e-06
-9.96126e-05 -0.000140691 -1.08454e-07
-1.98099e-06 -1.08454e-07 -0.000273493
0.0015915 -0.000215644 -2.03116e-06
-0.000215644 0.000176127 5.0519e-06
-2.03116e-06 5.0519e-06 7.77247e-06
0.00189754 -0.000213431 9.88328e-07
-0.000213431 0.000561707 -3.28397e-06
9.88328e-07 -3.28397e-06 0.000370849
0.000778371 1.63842e-05 8.08708e-07
1.63842e-05 1.23223e-05 -1.7748e-06
8.08708e-07 -1.7748e-06 -2.22853e-05
0.000776534 -6.01358e-05 1.16342e-06
-6.01358e-05 3.56124e-05 -1.18509e-06
1.16342e-06 -1.18509e-06 -2.41515e-05
0.000665475 9.24896e-06 6.20766e-07
9.24896e-06 -2.89716e-05 -1.54734e-06
6.20766e-07 -1.54734e-06 -9.28011e-05
0.000864742 -3.35565e-05 1.0129e-06
-3.35565e-05 9.04395e-05 9.40701e-08
1.0129e-06 9.40701e-08 9.74356e-06
0.000878256 5.80006e-06 2.56183e-07
5.80006e-06 9.31755e-05 -3.75481e-08
2.56183e-07 -3.75481e-08 6.71746e-06
0.000705797 -0.000107031 1.05051e-06
-0.000107031 2.14064e-05 2.35815e-06
1.05051e-06 2.35815e-06 -9.11035e-05
0.000732939 -0.000110389 -3.72243e-06
-0.000110389 -2.69129e-05 1.49782e-06
-3.72243e-06 1.49782e-06 -0.000127999
0.00184854 -0.000176767 -4.25355e-06
-0.000176767 0.000631238 3.28297e-06
-4.25355e-06 3.28297e-06 0.000512396
0.000785862 -4.59815e-05 -4.7998e-07
-4.59815e-05 2.92871e-05 -5.73695e-07
-4.7998e-07 -5.73695e-07 -2.31318e-05
0.000834221 -3.56083e-06 -1.92467e-07
-3.56083e-06 6.68173e-05 3.40917e-07
-1.92467e-07 3.40917e-07 -6.71758e-06
0.00210373 0.000134854 1.64141e-06
0.000134854 0.000316856 6.48943e-07
1.64141e-06 6.48943e-07 0.000214868
0.000839385 8.80424e-06 -1.89271e-07
8.80424e-06 8.28199e-05 -2.12948e-07
-1.89271e-07 -2.12948e-07 -1.69644e-05
0.00115285 0.000137782 -4.7931e-08
0.000137782 0.000262598 -1.43249e-06
-4.7931e-08 -1.43249e-06 0.00012959
0.00073088 6.65507e-05 -7.3471e-07
6.65507e-05 2.75621e-05 1.57353e-06
-7.3471e-07 1.57353e-06 -8.61858e-05
0.00174387 0.000202317 1.24653e-06
0.000202317 0.000242325 -1.23977e-06
1.24653e-06 -1.23977e-06 9.56638e-05
0.00168953 0.000179275 6.75413e-06
0.000179275 0.000111711 3.51015e-06
6.75413e-06 3.51015e-06 -5.64008e-06
0.000819464 0.000134095 1.08159e-06
0.000134095 5.00092e-05 6.72984e-07
1.08159e-06 6.72984e-07 -0.000129233
0.00122436 0.000191462 -3.21955e-06
0.000191462 9.17671e-05 -8.94571e-07
-3.21955e-06 -8.94571e-07 -7.87329e-05
0.000698653 -1.45817e-05 1.33821e-07
-1.45817e-05 -8.88858e-06 5.59431e-07
1.33821e-07 5.59431e-07 -7.68496e-05
0.000698359 4.01122e-05 -1.2041e-07
4.01122e-05 7.92677e-06 -1.15147e-06
-1.2041e-07 -1.15147e-06 -8.61383e-05
0.00101153 0.000130638 3.54489e-07
0.000130638 0.000184944 -1.29985e-06
3.54489e-07 -1.29985e-06 3.04406e-05
0.000739378 6.66541e-05 -6.02553e-07
6.66541e-05 3.19049e-05 -7.94124e-07
-6.02553e-07 -7.94124e-07 -8.8014e-05
0.0019553 0.000120624 6.80233e-08
0.000120624 0.000156559 -5.23138e-07
6.80233e-08 -5.23138e-07 7.92333e-05
0.00177723 0.000160314 1.70301e-06
0.000160314 9.86562e-05 2.85372e-07
1.70301e-06 2.85372e-07 1.59847e-06
0.0018419 0.000223394 -2.20414e-06
0.000223394 0.000270352 -3.9693e-07
-2.20414e-06 -3.9693e-07 0.000120937
0.000692557 0.000141716 8.62981e-07
0.000141716 -8.65244e-05 4.80868e-07
8.62981e-07 4.80868e-07 -0.000283221
0.000851862 -2.4882e-05 -2.25067e-08
-2.4882e-05 7.89057e-05 3.29522e-08
-2.25067e-08 3.29522e-08 4.56841e-06
0.00168922 8.56336e-05 -1.12728e-06
8.56336e-05 -3.61105e-06 7.20122e-07
-1.12728e-06 7.20122e-07 -6.99537e-05
0.00119005 0.000120456 -4.68934e-07
0.000120456 0.000293961 2.22239e-06
-4.68934e-07 2.22239e-06 0.000174617
0.00103504 0.000135994 4.08118e-07
0.000135994 0.000182161 1.06459e-06
4.08118e-07 1.06459e-06 2.09909e-05
0.00221302 0.000153781 -3.47208e-06
0.000153781 0.000235302 2.59935e-07
-3.47208e-06 2.59935e-07 0.00016301
0.00152244 0.000218689 -6.06249e-07
0.000218689 -3.9268e-05 -1.89521e-06
-6.06249e-07 -1.89521e-06 -0.000163566
0.00206994 0.000236248 -1.67746e-06
0.000236248 0.000553619 1.92356e-06
-1.67746e-06 1.92356e-06 0.000351106
0.000869394 -6.54555e-06 -1.50342e-06
-6.54555e-06 8.0667e-05 1.33453e-07
-1.50342e-06 1.33453e-07 1.80928e-05
0.000862938 -2.24928e-05 -5.11148e-08
-2.24928e-05 8.36452e-05 -3.85037e-08
-5.11148e-08 -3.85037e-08 1.43086e-05
0.000891895 -2.37115e-05 -2.29351e-07
-2.37115e-05 0.00010589 3.70898e-07
-2.29351e-07 3.70898e-07 2.97557e-05
0.000793677 -2.89575e-05 -4.99193e-07
-2.89575e-05 2.54131e-05 -6.36876e-07
-4.99193e-07 -6.36876e-07 -2.42536e-05
0.000796988 -3.79765e-06 1.20366e-08
-3.79765e-06 4.45174e-05 4.22294e-07
1.20366e-08 4.22294e-07 -1.90042e-05
0.000717446 -7.69927e-06 -3.50785e-07
-7.69927e-06 1.16656e-05 -2.52377e-07
-3.50785e-07 -2.52377e-07 -6.09746e-05
0.000805093 -1.74809e-05 -1.13935e-07
-1.74809e-05 3.32676e-05 2.1983e-08
-1.13935e-07 2.1983e-08 -1.83899e-05
0.000743089 -2.60018e-05 -5.31929e-07
-2.60018e-05 1.3454e-05 2.45818e-07
-5.31929e-07 2.45818e-07 -5.03861e-05
0.000825838 -4.27301e-05 3.90698e-07
-4.27301e-05 6.5209e-05 -3.94909e-07
3.90698e-07 -3.94909e-07 -8.33284e-06
0.000861602 5.42114e-06 1.53255e-07
5.42114e-06 8.64347e-05 5.52701e-07
1.53255e-07 5.52701e-07 1.48685e-05
0.000771342 -2.7427e-05 6.17709e-07
-2.7427e-05 3.30153e-05 -9.93234e-07
6.17709e-07 -9.93234e-07 -4.29267e-05
0.000794296 -5.79832e-05 6.25004e-08
-5.79832e-05 4.34507e-05 1.76913e-09
6.25004e-08 1.76913e-09 -3.08147e-05
0.000901427 1.13696e-05 6.4867e-07
1.13696e-05 0.000102473 -2.07722e-07
6.4867e-07 -2.07722e-07 3.31666e-05
0.00081134 1.16759e-05 1.3481e-06
1.16759e-05 4.90762e-05 -9.99179e-08
1.3481e-06 -9.99179e-08 -1.78737e-05
0.000811421 4.45347e-06 6.08555e-07
4.45347e-06 3.44285e-05 4.82457e-07
6.08555e-07 4.82457e-07 -1.62627e-05
0.000758421 9.80168e-06 4.25308e-07
9.80168e-06 -2.82062e-06 1.44686e-06
4.25308e-07 1.44686e-06 -3.6232e-05
0.000767705 -1.0763e-06 -1.63066e-07
-1.0763e-06 7.78158e-07 3.4228e-09
-1.63066e-07 3.4228e-09 -3.17603e-05
0.0012827 -7.31454e-06 6.51397e-07
-7.31454e-06 0.000275847 1.92653e-06
6.51397e-07 1.92653e-06 0.000275357
0.000778254 -1.26789e-05 -3.57635e-07
-1.26789e-05 5.75226e-06 -1.5619e-06
-3.57635e-07 -1.5619e-06 -2.58657e-05
0.00130479 -1.34767e-05 -2.20634e-06
-1.34767e-05 0.000289709 -1.31297e-06
-2.20634e-06 -1.31297e-06 0.000289392
0.000971764 -1.23387e-05 9.98223e-06
-1.23387e-05 0.000108619 6.81618e-06
9.98223e-06 6.81618e-06 0.000123169
0.00132087 -1.97521e-05 -4.90839e-06
-1.97521e-05 0.000301022 -4.52047e-06
-4.90839e-06 -4.52047e-06 0.0003007
0.000918726 -1.85258e-05 3.67454e-06
-1.85258e-05 8.14968e-05 2.55088e-06
3.67454e-06 2.55088e-06 9.61293e-05
0.000854784 -2.41741e-05 -1.56236e-06
-2.41741e-05 5.08502e-05 -1.64801e-06
-1.56236e-06 -1.64801e-06 6.49725e-05
0.00076992 1.07593e-05 4.30487e-07
1.07593e-05 5.84925e-06 -1.74036e-06
4.30487e-07 -1.74036e-06 -2.67682e-05
0.000702857 2.30389e-05 8.06186e-07
2.30389e-05 -3.68199e-05 -3.47584e-06
8.06186e-07 -3.47584e-06 -4.2999e-05
0.000702171 2.91366e-05 -1.52785e-07
2.91366e-05 -3.16739e-05 2.77837e-08
-1.52785e-07 2.77837e-08 -4.0397e-05
0.00217703 4.32566e-05 1.94308e-05
4.32566e-05 0.000790024 -3.97503e-06
1.94308e-05 -3.97503e-06 0.000807197
0.000705372 3.44448e-05 -1.49838e-06
3.44448e-05 -2.36874e-05 3.70038e-06
-1.49838e-06 3.70038e-06 -3.53612e-05
0.00226281 5.24352e-05 -1.88795e-06
5.24352e-05 0.000845 -1.0881e-07
-1.88795e-06 -1.0881e-07 0.000859779
0.00237045 6.10301e-05 -3.14877e-05
6.10301e-05 0.000912539 3.64364e-06
-3.14877e-05 3.64364e-06 0.000924809
0.00181207 8.86822e-05 1.86227e-06
8.86822e-05 0.000135861 1.05209e-06
1.86227e-06 1.05209e-06 3.98536e-05
0.00174126 5.73064e-05 1.54808e-06
5.73064e-05 8.63726e-05 -3.4718e-07
1.54808e-06 -3.4718e-07 -1.07673e-05
0.00172052 2.85641e-05 1.46645e-06
2.85641e-05 7.58382e-05 -5.96015e-07
1.46645e-06 -5.96015e-07 -2.83003e-05
0.00175189 6.58097e-06 4.4197e-07
6.58097e-06 0.000110036 -1.66079e-07
4.4197e-07 -1.66079e-07 -3.02093e-06
0.00178409 4.49356e-06 -4.20114e-07
4.49356e-06 0.000103184 1.31474e-07
-4.20114e-07 1.31474e-07 -2.20386e-06
0.00186572 3.93897e-05 3.91314e-07
3.93897e-05 0.000123148 -3.06344e-07
3.91314e-07 -3.06344e-07 3.14799e-05
0.00173068 9.07722e-05 -9.79653e-08
9.07722e-05 5.05148e-05 -1.56676e-07
-9.79653e-08 -1.56676e-07 -3.86041e-05
0.00179552 3.77333e-06 -1.09685e-06
3.77333e-06 9.25138e-05 7.96244e-07
-1.09685e-06 7.96244e-07 -1.50296e-07
0.00196614 5.16943e-05 -1.29941e-06
5.16943e-05 0.000165834 2.72312e-07
-1.29941e-06 2.72312e-07 8.52317e-05
0.00154409 3.57218e-05 1.61197e-07
3.57218e-05 -8.16831e-05 7.70706e-08
1.61197e-07 7.70706e-08 -0.000138742
0.00185588 -2.15443e-05 1.98541e-07
-2.15443e-05 0.000144693 -8.41844e-08
1.98541e-07 -8.41844e-08 3.73143e-05
0.00184711 -6.31227e-05 3.25601e-06
-6.31227e-05 0.000151224 -3.44935e-08
3.25601e-06 -3.44935e-08 5.78415e-05
0.00169222 -8.71648e-05 -7.01707e-07
-8.71648e-05 7.22172e-05 -4.14086e-07
-7.01707e-07 -4.14086e-07 -1.98925e-05
0.00108631 -0.00013452 -4.31888e-07
-0.00013452 0.000193199 1.86414e-06
-4.31888e-07 1.86414e-06 7.2835e-05
0.000808774 -0.000134101 4.65178e-07
-0.000134101 2.29338e-05 4.05345e-06
4.65178e-07 4.05345e-06 -0.000135468
0.00154641 -0.000200177 -2.20576e-06
-0.000200177 0.000251449 2.14488e-06
-2.20576e-06 2.14488e-06 7.21293e-05
0.00184659 -0.000141411 3.93998e-06
-0.000141411 0.000137103 -6.94765e-07
3.93998e-06 -6.94765e-07 3.8864e-05
0.00176609 -0.000195431 -1.11662e-06
-0.000195431 0.000158036 -2.43957e-06
-1.11662e-06 -2.43957e-06 3.42378e-05
0.000411397 -9.01683e-05 -1.62506e-06
-9.01683e-05 -0.000169361 1.03969e-06
-1.62506e-06 1.03969e-06 -0.000279079
0.0012067 -0.000132522 6.11222e-06
-0.000132522 0.000262285 -3.42621e-06
6.11222e-06 -3.42621e-06 0.000152854
0.000793726 6.52447e-06 5.49414e-08
6.52447e-06 4.17617e-05 -6.43443e-07
5.49414e-08 -6.43443e-07 -4.91877e-05
0.000751252 2.19573e-05 -7.86516e-07
2.19573e-05 1.49566e-07 1.11427e-06
-7.86516e-07 1.11427e-06 -3.66897e-05
0.000892113 2.4626e-05 -5.64032e-07
2.4626e-05 9.22428e-05 1.18726e-06
-5.64032e-07 1.18726e-06 2.89344e-05
0.000851296 -1.4228e-05 -5.60523e-07
-1.4228e-05 8.03394e-05 8.90396e-07
-5.60523e-07 8.90396e-07 -1.99904e-06
0.00185456 -3.81188e-05 -1.65918e-07
-3.81188e-05 0.00012906 9.20388e-08
-1.65918e-07 9.20388e-08 3.63099e-05
0.000770485 1.47926e-05 1.24112e-07
1.47926e-05 7.83332e-06 1.71478e-08
1.24112e-07 1.71478e-08 -2.67132e-05
0.000710694 -1.29982e-05 -3.81569e-07
-1.29982e-05 -8.33656e-06 8.04091e-08
-3.81569e-07 8.04091e-08 -6.31459e-05
0.001784 -8.15495e-05 -1.44075e-07
-8.15495e-05 9.10518e-05 -1.54138e-07
-1.44075e-07 -1.54138e-07 1.07073e-05
0.00158763 -0.000100878 -9.40844e-07
-0.000100878 -3.68977e-05 7.24311e-07
-9.40844e-07 7.24311e-07 -0.000120985
0.00065658 -0.000111455 -1.92983e-07
-0.000111455 -1.98815e-05 2.445e-06
-1.92983e-07 2.445e-06 -0.000150638
0.00147764 -0.000186131 -1.43095e-06
-0.000186131 0.000340896 6.29249e-07
-1.43095e-06 6.29249e-07 0.000144946
0.00141312 -0.000202531 1.21641e-06
-0.000202531 8.10279e-05 5.57576e-08
1.21641e-06 5.57576e-08 -8.18878e-05
0.00195911 -0.00020015 1.94344e-06
-0.00020015 0.000178149 -4.76296e-07
1.94344e-06 -4.76296e-07 7.71549e-05
0.000856508 -2.0512e-05 1.16959e-06
-2.0512e-05 7.46013e-05 -5.90674e-07
1.16959e-06 -5.90674e-07 1.29428e-05
0.000844775 -2.11375e-05 -3.67466e-07
-2.11375e-05 8.10348e-05 5.37469e-07
-3.67466e-07 5.37469e-07 -6.93151e-07
0.000915469 -0.000113434 3.19439e-07
-0.000113434 6.65541e-05 -7.08913e-08
3.19439e-07 -7.08913e-08 -3.82662e-05
0.00123046 -0.000140245 4.49642e-06
-0.000140245 0.000294838 -1.66665e-06
4.49642e-06 -1.66665e-06 0.000190332
0.000692384 -7.83896e-05 -6.7919e-07
-7.83896e-05 9.43156e-06 2.83642e-07
-6.7919e-07 2.83642e-07 -0.000100159
0.000875768 7.98371e-07 2.17382e-07
7.98371e-07 9.39967e-05 -3.81296e-07
2.17382e-07 -3.81296e-07 5.73588e-06
0.0019042 -4.5688e-05 -3.03158e-06
-4.5688e-05 0.000125951 -1.20343e-07
-3.03158e-06 -1.20343e-07 5.28567e-05
0.00189258 -7.40632e-05 2.14076e-06
-7.40632e-05 0.000119266 3.91326e-07
2.14076e-06 3.91326e-07 4.75388e-05
0.00174319 -0.000174589 -6.62639e-06
-0.000174589 -1.28879e-05 -1.20005e-06
-6.62639e-06 -1.20005e-06 -9.2494e-05
0.00129538 -0.000209073 -2.00284e-07
-0.000209073 -0.000119363 4.53323e-07
-2.00284e-07 4.53323e-07 -0.000233817
0.000917519 -9.99194e-05 -3.80411e-06
-9.99194e-05 9.84875e-05 -1.85304e-06
-3.80411e-06 -1.85304e-06 -3.47435e-05
0.00207724 -0.000243557 -3.08041e-06
-0.000243557 0.000588324 1.29012e-06
-3.08041e-06 1.29012e-06 0.000372322
0.000597606 4.36838e-05 -1.08308e-06
4.36838e-05 -6.59983e-05 -1.67591e-06
-1.08308e-06 -1.67591e-06 -0.000121805
0.000794778 -3.05025e-05 8.18903e-07
-3.05025e-05 3.64698e-05 -1.1092e-06
8.18903e-07 -1.1092e-06 -2.0012e-05
0.000980323 -3.90714e-05 9.96516e-07
-3.90714e-05 0.00015642 -3.79743e-07
9.96516e-07 -3.79743e-07 8.44609e-05
0.0006515 1.78032e-05 -3.79054e-07
1.78032e-05 -2.19066e-05 -3.62352e-07
-3.79054e-07 -3.62352e-07 -0.000104424
0.00103744 -1.95806e-05 2.58791e-07
-1.95806e-05 0.000185674 2.46288e-07
2.58791e-07 2.46288e-07 0.000100421
0.000506836 -2.19453e-05 4.75858e-07
-2.19453e-05 -9.13821e-05 7.26444e-07
4.75858e-07 7.26444e-07 -0.000193327
0.00102238 -8.1049e-05 5.62163e-06
-8.1049e-05 0.00021977 6.21126e-07
5.62163e-06 6.21126e-07 9.04406e-05
0.000746565 -0.000120423 -1.26337e-05
-0.000120423 3.14419e-06 3.92961e-06
-1.26337e-05 3.92961e-06 -8.95446e-05
0.000685798 4.78246e-06 -2.25153e-07
4.78246e-06 -1.31394e-05 1.37607e-07
-2.25153e-07 1.37607e-07 -8.38842e-05
0.000822123 5.20189e-05 -1.7734e-06
5.20189e-05 7.49765e-05 -1.98036e-06
-1.7734e-06 -1.98036e-06 -1.97801e-05
0.00200253 0.000117775 1.80526e-07
0.000117775 0.000186391 -2.7632e-07
1.80526e-07 -2.7632e-07 0.000110311
0.00172662 0.000164146 2.48284e-06
0.000164146 7.94124e-05 1.63245e-06
2.48284e-06 1.63245e-06 -2.1725e-05
0.00120355 7.62935e-05 -2.54162e-06
7.62935e-05 0.000278864 -2.79042e-07
-2.54162e-06 -2.79042e-07 0.000159251
0.000929991 0.000125777 -5.4681e-07
0.000125777 0.000146071 -2.89279e-06
-5.4681e-07 -2.89279e-06 -9.63198e-06
0.00214762 0.000235412 1.66448e-06
0.000235412 0.000427293 5.38328e-07
1.66448e-06 5.38328e-07 0.000278287
0.00128659 0.000182159 -7.40987e-07
0.000182159 0.000213637 -9.69131e-07
-7.40987e-07 -9.69131e-07 1.7958e-05
0.000832024 5.54189e-06 5.31162e-07
5.54189e-06 7.21567e-05 -5.99147e-07
5.31162e-07 -5.99147e-07 -5.06051e-06
0.00177279 8.31632e-05 -3.94393e-07
8.31632e-05 3.85275e-05 1.75235e-07
-3.94393e-07 1.75235e-07 -2.74233e-05
0.000923272 8.33062e-05 1.10308e-07
8.33062e-05 0.000145276 1.24917e-06
1.10308e-07 1.24917e-06 3.1652e-05
0.000797882 0.000120784 4.37591e-07
0.000120784 5.47908e-05 -2.36997e-07
4.37591e-07 -2.36997e-07 -0.000108485
0.00199766 0.000147462 2.28614e-06
0.000147462 0.000120474 -1.03207e-07
2.28614e-06 -1.03207e-07 4.77417e-05
0.00173401 0.000224693 -5.38975e-08
0.000224693 6.88324e-05 -1.28012e-06
-5.38975e-08 -1.28012e-06 -5.32403e-05
0.0019969 0.000235403 9.51464e-07
0.000235403 0.00052262 1.28481e-06
9.51464e-07 1.28481e-06 0.000320015
0.00101988 2.55958e-05 -1.45446e-06
2.55958e-05 0.000186619 9.1773e-07
-1.45446e-06 9.1773e-07 9.13531e-05
0.00199001 9.69584e-05 -1.14665e-05
9.69584e-05 0.000126527 -1.04833e-06
-1.14665e-05 -1.04833e-06 8.25608e-05
0.00190639 0.000164614 -2.83385e-06
0.000164614 0.000656014 2.38749e-07
-2.83385e-06 2.38749e-07 0.000522779
0.00206144 0.000214482 -3.92485e-06
0.000214482 0.000685511 1.23543e-06
-3.92485e-06 1.23543e-06 0.000500378
0.00245895 0.000255415 -1.06738e-06
0.000255415 0.000345664 -1.37844e-06
-1.06738e-06 -1.37844e-06 0.000262352
0.00149242 0.000225695 -3.80312e-06
0.000225695 0.000132552 2.31012e-07
-3.80312e-06 2.31012e-07 -4.10405e-05
0.00028176 0.000103943 1.21278e-05
0.000103943 -0.000466061 3.60197e-07
1.21278e-05 3.60197e-07 -0.000615978
0.000840411 -6.01977e-06 3.88997e-09
-6.01977e-06 7.19636e-05 -1.13777e-07
3.88997e-09 -1.13777e-07 2.34363e-06
0.000875339 -2.25835e-05 -1.24112e-07
-2.25835e-05 9.8027e-05 2.16538e-07
-1.24112e-07 2.16538e-07 2.12832e-05
0.00092279 -1.34875e-05 9.83945e-09
-1.34875e-05 0.000116929 -1.01701e-06
9.83945e-09 -1.01701e-06 3.58256e-05
0.000794846 -4.39779e-05 -2.75331e-07
-4.39779e-05 3.00297e-05 -6.17583e-07
-2.75331e-07 -6.17583e-07 -2.32738e-05
0.000762532 -5.11628e-05 -1.02031e-06
-5.11628e-05 2.38209e-05 4.12664e-07
-1.02031e-06 4.12664e-07 -3.96334e-05
0.000888758 5.62942e-05 -8.86666e-07
5.62942e-05 0.000105065 6.05287e-07
-8.86666e-07 6.05287e-07 3.16198e-05
0.000788151 -4.46472e-05 2.05721e-08
-4.46472e-05 4.57397e-05 6.65511e-08
2.05721e-08 6.65511e-08 -2.90747e-05
0.000794307 -2.50547e-05 -8.40385e-08
-2.50547e-05 3.06072e-05 3.94997e-08
-8.40385e-08 3.94997e-08 -2.37481e-05
0.000767126 5.70501e-06 3.76678e-08
5.70501e-06 1.83613e-05 -8.09673e-08
3.76678e-08 -8.09673e-08 -4.40435e-05
0.000811686 -3.10172e-05 4.00195e-07
-3.10172e-05 5.44431e-05 -5.07365e-07
4.00195e-07 -5.07365e-07 -2.21703e-05
0.000888084 -2.19238e-05 -6.24371e-08
-2.19238e-05 9.29139e-05 4.60092e-08
-6.24371e-08 4.60092e-08 2.50957e-05
0.000886567 -4.44528e-05 3.44319e-07
-4.44528e-05 9.36282e-05 -2.69438e-08
3.44319e-07 -2.69438e-08 2.00747e-05
0.000846679 -3.71423e-05 -6.56932e-08
-3.71423e-05 6.63721e-05 -8.06537e-07
-6.56932e-08 -8.06537e-07 -8.97787e-06
0.000834315 -1.33398e-05 6.00195e-07
-1.33398e-05 5.5757e-05 -1.06906e-06
6.00195e-07 -1.06906e-06 -1.2392e-05
0.000874461 5.81206e-06 7.34955e-07
5.81206e-06 7.76914e-05 -4.18604e-07
7.34955e-07 -4.18604e-07 1.20108e-05
0.000828741 2.34754e-05 2.01787e-07
2.34754e-05 5.51918e-05 1.36418e-08
2.01787e-07 1.36418e-08 -1.46107e-05
0.00070109 -8.32352e-06 5.60417e-08
-8.32352e-06 -2.69292e-05 9.37589e-07
5.60417e-08 9.37589e-07 -7.95599e-05
0.000925886 -5.09854e-06 3.0532e-07
-5.09854e-06 0.000121949 -5.70449e-07
3.0532e-07 -5.70449e-07 4.96315e-05
0.000675718 7.61507e-06 -5.073e-07
7.61507e-06 -3.65887e-05 9.20533e-07
-5.073e-07 9.20533e-07 -9.10613e-05
0.000760088 1.25763e-05 1.52199e-07
1.25763e-05 -1.05367e-06 1.39084e-06
1.52199e-07 1.39084e-06 -3.48098e-05
0.000760249 3.12662e-06 -1.52855e-07
3.12662e-06 -1.8366e-06 4.32919e-09
-1.52855e-07 4.32919e-09 -3.51926e-05
0.000709081 8.50243e-07 2.31725e-07
8.50243e-07 -4.21342e-05 3.24276e-06
2.31725e-07 3.24276e-06 -4.64096e-05
0.00077298 -7.31877e-06 -4.48038e-08
-7.31877e-06 3.79868e-06 -1.46455e-06
-4.48038e-08 -1.46455e-06 -2.87615e-05
0.00101456 -5.49696e-06 -1.4288e-06
-5.49696e-06 0.000127442 -1.3735e-06
-1.4288e-06 -1.3735e-06 0.000125177
0.00213767 -8.72647e-06 6.16246e-06
-8.72647e-06 0.000753196 4.2944e-06
6.16246e-06 4.2944e-06 0.000774288
0.00133544 -1.24323e-05 -2.96207e-06
-1.24323e-05 0.000306935 -4.56565e-06
-2.96207e-06 -4.56565e-06 0.000306356
0.00092965 -1.25783e-05 1.98282e-06
-1.25783e-05 8.44943e-05 2.6356e-06
1.98282e-06 2.6356e-06 9.925e-05
0.000871919 -1.80783e-05 -1.0509e-06
-1.80783e-05 5.52616e-05 -1.64596e-06
-1.0509e-06 -1.64596e-06 7.01348e-05
0.000769165 7.81509e-06 2.87277e-07
7.81509e-06 5.29065e-06 -1.70504e-06
2.87277e-07 -1.70504e-06 -2.61855e-05
0.000772304 9.6635e-06 -3.56359e-08
9.6635e-06 6.90247e-06 3.90912e-09
-3.56359e-08 3.90912e-09 -2.57318e-05
0.000714387 1.71404e-05 4.74325e-07
1.71404e-05 -3.4782e-05 -3.42739e-06
4.74325e-07 -3.42739e-06 -3.92169e-05
0.00101386 2.63162e-05 -4.67201e-07
2.63162e-05 0.000135569 3.30536e-08
-4.67201e-07 3.30536e-08 0.000130855
0.00213303 3.42151e-05 1.61257e-05
3.42151e-05 0.000759982 -4.10843e-06
1.61257e-05 -4.10843e-06 0.000778954
0.000714183 2.96309e-05 -1.05409e-06
2.96309e-05 -2.52155e-05 3.56525e-06
-1.05409e-06 3.56525e-06 -3.40285e-05
0.00219875 4.38778e-05 -1.97588e-06
4.38778e-05 0.00080288 -9.53996e-08
-1.97588e-06 -9.53996e-08 0.000819756
0.00228736 5.27664e-05 -2.64219e-05
5.27664e-05 0.000859434 3.83794e-06
-2.64219e-05 3.83794e-06 0.000873957
0.00172379 9.25165e-05 -2.64865e-07
9.25165e-05 4.13684e-05 -5.14364e-07
-2.64865e-07 -5.14364e-07 -4.76847e-05
0.00184413 3.80088e-05 9.69413e-07
3.80088e-05 0.000108189 -6.21069e-07
9.69413e-07 -6.21069e-07 1.61696e-05
0.00180845 1.19684e-06 1.34341e-07
1.19684e-06 0.000116369 -1.49728e-07
1.34341e-07 -1.49728e-07 1.18947e-05
0.00177176 5.79288e-06 4.0235e-07
5.79288e-06 7.63837e-05 2.32282e-07
4.0235e-07 2.32282e-07 -1.65492e-05
0.00184199 5.00485e-05 -8.9217e-07
5.00485e-05 0.000104474 9.62975e-08
-8.9217e-07 9.62975e-08 2.34321e-05
0.00169129 3.4572e-05 2.14933e-06
3.4572e-05 1.84642e-06 1.57285e-07
2.14933e-06 1.57285e-07 -5.83349e-05
0.00160417 7.08839e-06 -1.35427e-06
7.08839e-06 -3.01536e-05 -1.93657e-07
-1.35427e-06 -1.93657e-07 -9.84842e-05
0.00335667 2.75434e-05 1.23539e-05
2.75434e-05 0.000684161 2.79832e-06
1.23539e-05 2.79832e-06 0.000628711
0.00163472 3.41535e-05 -6.90398e-06
3.41535e-05 -4.54346e-05 -5.09132e-07
-6.90398e-06 -5.09132e-07 -7.73044e-05
0.000795394 3.24498e-05 -8.82726e-08
3.24498e-05 4.02555e-05 -9.26849e-07
-8.82726e-08 -9.26849e-07 -1.13013e-05
0.00188608 -3.8447e-05 1.82539e-06
-3.8447e-05 0.000149117 1.12486e-07
1.82539e-06 1.12486e-07 5.81175e-05
0.00182606 -8.12211e-05 1.6061e-06
-8.12211e-05 0.000117326 -3.44828e-07
1.6061e-06 -3.44828e-07 3.64058e-05
0.00159804 -0.000100508 1.46144e-06
-0.000100508 -3.54165e-05 2.25323e-09
1.46144e-06 2.25323e-09 -0.000120612
0.000849346 -0.000121894 1.89427e-06
-0.000121894 9.02622e-05 3.31252e-06
1.89427e-06 3.31252e-06 -3.83978e-05
0.00111244 -0.000161712 1.45295e-06
-0.000161712 0.000150801 4.35882e-06
1.45295e-06 4.35882e-06 -5.21675e-05
0.00126624 -0.000192135 5.13251e-07
-0.000192135 3.36788e-06 -2.9871e-06
5.13251e-07 -2.9871e-06 -0.000155684
0.00172341 -0.000198044 8.39298e-07
-0.000198044 5.81444e-05 -1.56402e-06
8.39298e-07 -1.56402e-06 -4.38698e-05
0.00109336 -0.000122915 7.73298e-06
-0.000122915 0.000159216 -3.45656e-06
7.73298e-06 -3.45656e-06 4.96487e-05
0.000547915 -0.000101351 1.51439e-06
-0.000101351 -7.49468e-05 -8.9156e-06
1.51439e-06 -8.9156e-06 -0.000165219
0.000667251 -7.42605e-05 -1.69523e-07
-7.42605e-05 -5.60478e-06 -8.13668e-07
-1.69523e-07 -8.13668e-07 -0.000115267
0.000766046 1.31682e-05 -8.76914e-07
1.31682e-05 5.32257e-06 1.82152e-06
-8.76914e-07 1.82152e-06 -2.91776e-05
0.000887559 -8.99953e-06 -9.11024e-09
-8.99953e-06 0.0001027 -7.02868e-07
-9.11024e-09 -7.02868e-07 1.24215e-05
0.00103815 -4.79115e-05 -3.46839e-07
-4.79115e-05 0.000177178 4.16326e-07
-3.46839e-07 4.16326e-07 0.000114951
0.000834124 -1.39403e-05 -8.35047e-07
-1.39403e-05 7.49609e-05 8.91376e-07
-8.35047e-07 8.91376e-07 -6.66191e-06
0.000639316 -9.09711e-06 -3.2911e-07
-9.09711e-06 -5.07251e-05 1.07049e-06
-3.2911e-07 1.07049e-06 -0.000103854
0.00188784 -4.80428e-05 -4.04014e-07
-4.80428e-05 0.000115328 -1.0564e-07
-4.04014e-07 -1.0564e-07 4.39471e-05
0.000692914 1.81035e-05 1.83579e-07
1.81035e-05 -1.25859e-05 -6.32707e-07
1.83579e-07 -6.32707e-07 -6.83159e-05
0.00079761 -4.23104e-05 -3.64797e-07
-4.23104e-05 4.25665e-05 5.61681e-08
-3.64797e-07 5.61681e-08 -1.71267e-05
0.000841526 -1.59142e-05 -6.17969e-07
-1.59142e-05 8.17256e-05 5.62252e-07
-6.17969e-07 5.62252e-07 7.44421e-06
0.0017585 -7.79139e-05 5.26717e-07
-7.79139e-05 3.88407e-05 -4.70114e-07
5.26717e-07 -4.70114e-07 -3.24764e-05
0.00180916 -0.000176797 2.21472e-07
-0.000176797 3.76006e-05 -2.10195e-07
2.21472e-07 -2.10195e-07 -4.37528e-05
0.000885226 -0.000108009 1.03517e-06
-0.000108009 6.80716e-05 -8.6062e-08
1.03517e-06 -8.6062e-08 -5.83077e-05
0.00113529 -0.000184571 1.11356e-06
-0.000184571 0.000114602 -2.36303e-07
1.11356e-06 -2.36303e-07 -0.000104217
0.00165743 -0.000231599 -8.4664e-07
-0.000231599 7.36971e-05 1.87516e-07
-8.4664e-07 1.87516e-07 -4.53435e-05
0.000753867 3.01157e-07 -1.84618e-07
3.01157e-07 3.47678e-05 -2.48614e-08
-1.84618e-07 -2.48614e-08 -4.72324e-05
0.000950043 -3.6367e-05 -4.01402e-08
-3.6367e-05 0.000141965 8.95934e-08
-4.01402e-08 8.95934e-08 5.33473e-05
0.000634796 -0.000115674 -5.68341e-06
-0.000115674 -4.72495e-05 1.23379e-06
-5.68341e-06 1.23379e-06 -0.000148911
0.00097809 -7.02728e-05 8.81735e-07
-7.02728e-05 0.000190036 -3.66523e-07
8.81735e-07 -3.66523e-07 6.65714e-05
0.000742816 -4.65233e-05 -4.70815e-07
-4.65233e-05 3.63456e-05 7.4084e-07
-4.70815e-07 7.4084e-07 -6.61329e-05
0.00192613 -9.84689e-05 -3.13963e-06
-9.84689e-05 8.41586e-05 1.25811e-07
-3.13963e-06 1.25811e-07 2.81213e-05
0.00227552 -0.000114485 -1.70707e-06
-0.000114485 0.000278692 3.768e-07
-1.70707e-06 3.768e-07 0.000221328
0.00200175 -0.000254309 -3.43591e-06
-0.000254309 0.000146365 -4.83222e-07
-3.43591e-06 -4.83222e-07 4.60564e-05
0.00191885 -0.000250922 -7.09555e-06
-0.000250922 0.000397371 6.94182e-07
-7.09555e-06 6.94182e-07 0.000229214
0.000951997 -0.000110434 -4.17712e-06
-0.000110434 0.000142348 -1.96732e-06
-4.17712e-06 -1.96732e-06 -2.08568e-05
0.000625611 1.42856e-05 4.80482e-07
1.42856e-05 -3.8617e-05 -1.24235e-06
4.80482e-07 -1.24235e-06 -0.000111895
0.000667686 5.34409e-05 -9.52473e-08
5.34409e-05 -1.40864e-05 -8.11326e-07
-9.52473e-08 -8.11326e-07 -9.14551e-05
0.00096655 1.57093e-05 9.85891e-07
1.57093e-05 0.000150405 2.20541e-07
9.85891e-07 2.20541e-07 6.8899e-05
0.000805521 -6.34264e-05 1.61357e-06
-6.34264e-05 6.77702e-05 1.33099e-07
1.61357e-06 1.33099e-07 -2.26757e-05
0.000864007 -3.50247e-06 5.5607e-07
-3.50247e-06 9.19584e-05 1.06657e-06
5.5607e-07 1.06657e-06 1.68466e-06
0.000756347 -9.95893e-06 1.53434e-06
-9.95893e-06 5.70611e-05 -5.27094e-07
1.53434e-06 -5.27094e-07 -5.60258e-05
0.000719917 -8.89183e-05 8.38861e-06
-8.89183e-05 7.6562e-05 9.31134e-07
8.38861e-06 9.31134e-07 -8.71786e-05
0.000825454 3.99224e-05 3.73707e-07
3.99224e-05 7.34102e-05 -1.49552e-06
3.73707e-07 -1.49552e-06 -7.40097e-06
0.000628165 4.5867e-05 3.0638e-07
4.5867e-05 -1.82791e-05 2.69133e-08
3.0638e-07 2.69133e-08 -0.000126154
0.0018648 8.03883e-05 7.8941e-07
8.03883e-05 8.65997e-05 -5.83445e-07
7.8941e-07 -5.83445e-07 2.06872e-05
0.00178805 0.00014091 3.22483e-06
0.00014091 9.65166e-06 -4.48231e-07
3.22483e-06 -4.48231e-07 -6.31205e-05
0.00189771 0.000228654 1.87192e-06
0.000228654 0.00015234 -5.51374e-07
1.87192e-06 -5.51374e-07 3.28627e-05
0.0005591 0.000105983 1.63268e-06
0.000105983 -7.34565e-05 -4.70382e-07
1.63268e-06 -4.70382e-07 -0.000238695
0.00188979 0.000232929 2.18735e-06
0.000232929 0.000472266 1.70792e-06
2.18735e-06 1.70792e-06 0.000270597
0.00101117 1.62994e-05 -2.4427e-07
1.62994e-05 0.000179843 2.04629e-07
-2.4427e-07 2.04629e-07 8.90559e-05
0.00189803 9.41189e-05 -1.23258e-06
9.41189e-05 7.15117e-05 -2.31373e-07
-1.23258e-06 -2.31373e-07 3.33427e-05
0.00129017 0.000130467 -9.69188e-07
0.000130467 0.000330344 1.74005e-07
-9.69188e-07 1.74005e-07 0.000201714
0.00142641 0.00017279 -6.3185e-07
0.00017279 0.000366733 9.90834e-07
-6.3185e-07 9.90834e-07 0.000179782
0.00214553 0.000236196 1.28161e-06
0.000236196 0.000177419 -6.25879e-07
1.28161e-06 -6.25879e-07 9.6239e-05
0.00144773 0.000224397 -1.45901e-06
0.000224397 0.00011155 1.08036e-06
-1.45901e-06 1.08036e-06 -6.59139e-05
0.00136045 0.000119364 1.23931e-05
0.000119364 -0.000127934 1.76779e-06
1.23931e-05 1.76779e-06 -0.000307894
0.00108066 4.91937e-05 -1.83371e-06
4.91937e-05 0.000215475 -1.24611e-06
-1.83371e-06 -1.24611e-06 0.00011156
0.00266816 0.00016291 -1.52617e-05
0.00016291 0.000481847 -9.9623e-06
-1.52617e-05 -9.9623e-06 0.000479657
0.00134461 0.000160638 -5.03129e-06
0.000160638 0.000366512 -1.16806e-06
-5.03129e-06 -1.16806e-06 0.000223539
0.00134671 0.000184702 -6.00317e-06
0.000184702 0.00027106 -2.51305e-07
-6.00317e-06 -2.51305e-07 6.41625e-05
0.000485046 0.000237649 -7.61665e-06
0.000237649 -0.000543396 -1.31238e-06
-7.61665e-06 -1.31238e-06 -0.000678622
0.00750664 3.56177e-05 -7.37148e-05
3.56177e-05 0.0023593 -2.7874e-05
-7.37148e-05 -2.7874e-05 0.00149955
0.00389316 0.000199836 9.15506e-05
0.000199836 0.000585399 3.67181e-06
9.15506e-05 3.67181e-06 -7.65972e-05
0.000103101 0.000202425 8.62903e-06
0.000202425 -0.000608911 1.78336e-05
8.62903e-06 1.78336e-05 -0.000703156
-0.00162108 -0.000336706 3.78951e-05
-0.000336706 -0.000677516 -1.12301e-05
3.78951e-05 -1.12301e-05 -0.000788226
0.00318802 -0.000648933 -2.27311e-05
-0.000648933 0.000397796 -1.06987e-05
-2.27311e-05 -1.06987e-05 0.00156906
0.000879811 -1.77279e-05 3.01397e-07
-1.77279e-05 9.97506e-05 -1.34892e-07
3.01397e-07 -1.34892e-07 2.32932e-05
0.000922696 -2.13003e-05 6.97788e-07
-2.13003e-05 0.000120027 -3.17122e-07
6.97788e-07 -3.17122e-07 3.94127e-05
0.000953363 2.32394e-05 -1.93707e-07
2.32394e-05 0.000139173 -2.04056e-06
-1.93707e-07 -2.04056e-06 5.83153e-05
0.000781402 -4.87443e-05 1.20658e-07
-4.87443e-05 2.7287e-05 -6.73175e-07
1.20658e-07 -6.73175e-07 -2.95394e-05
0.000722432 4.28143e-05 -9.24462e-07
4.28143e-05 -4.10403e-06 8.15362e-08
-9.24462e-07 8.15362e-08 -6.78645e-05
0.000882411 -4.77488e-05 -1.22647e-07
-4.77488e-05 9.06281e-05 2.57983e-07
-1.22647e-07 2.57983e-07 2.21255e-05
0.000972824 -2.85943e-05 -6.4684e-07
-2.85943e-05 0.000139705 3.87276e-07
-6.4684e-07 3.87276e-07 6.74305e-05
0.000841324 -3.58903e-05 1.99631e-07
-3.58903e-05 6.95873e-05 -3.54148e-07
1.99631e-07 -3.54148e-07 -7.73106e-06
0.000821613 3.10848e-05 -6.0948e-07
3.10848e-05 5.31555e-05 -2.22575e-07
-6.0948e-07 -2.22575e-07 -1.60056e-05
0.000738788 -4.01489e-06 -1.13457e-08
-4.01489e-06 -2.2294e-06 5.19642e-07
-1.13457e-08 5.19642e-07 -5.62692e-05
0.000828291 2.32038e-05 -3.02852e-07
2.32038e-05 5.40479e-05 -8.0299e-08
-3.02852e-07 -8.0299e-08 -1.45378e-05
0.000875283 -3.6339e-05 -2.43128e-07
-3.6339e-05 8.20511e-05 4.39622e-07
-2.43128e-07 4.39622e-07 7.06805e-06
0.000858648 -1.66778e-05 -7.92257e-08
-1.66778e-05 6.91465e-05 -2.09335e-07
-7.92257e-08 -2.09335e-07 1.04611e-06
0.000779235 1.26069e-05 4.9505e-07
1.26069e-05 2.1432e-05 -8.62131e-07
4.9505e-07 -8.62131e-07 -4.54466e-05
0.000797338 -1.97535e-05 7.48522e-07
-1.97535e-05 3.1976e-05 -1.72476e-06
7.48522e-07 -1.72476e-06 -3.3894e-05
0.000894164 1.91349e-05 1.40422e-06
1.91349e-05 8.23347e-05 -6.34361e-08
1.40422e-06 -6.34361e-08 1.42832e-05
0.00078389 2.49002e-06 1.02157e-06
2.49002e-06 2.20667e-05 -1.18449e-07
1.02157e-06 -1.18449e-07 -4.59625e-05
0.000683496 -3.63909e-05 -1.25359e-06
-3.63909e-05 -3.1644e-05 9.52376e-07
-1.25359e-06 9.52376e-07 -8.70956e-05
0.000878541 1.29892e-05 -3.91116e-07
1.29892e-05 8.35241e-05 -9.54396e-08
-3.91116e-07 -9.54396e-08 1.3712e-05
0.000940924 6.0522e-05 7.75743e-10
6.0522e-05 0.000118725 -1.05907e-06
7.75743e-10 -1.05907e-06 4.64881e-05
0.000779171 7.06303e-06 -6.58831e-07
7.06303e-06 3.85597e-05 -1.88213e-07
-6.58831e-07 -1.88213e-07 -2.89525e-05
0.000882729 1.17126e-05 5.8695e-07
1.17126e-05 9.1341e-05 -3.70023e-07
5.8695e-07 -3.70023e-07 2.2364e-05
0.000793845 -2.73988e-05 -1.39677e-06
-2.73988e-05 2.93879e-05 4.42631e-07
-1.39677e-06 4.42631e-07 -2.37081e-05
0.000687209 8.56077e-06 1.4611e-07
8.56077e-06 -2.69484e-05 4.64598e-07
1.4611e-07 4.64598e-07 -8.36755e-05
0.000769366 1.45444e-05 -2.10047e-07
1.45444e-05 4.03902e-06 1.41319e-06
-2.10047e-07 1.41319e-06 -2.96211e-05
0.000758548 5.65296e-06 -1.26437e-07
5.65296e-06 -2.08773e-06 1.5682e-09
-1.26437e-07 1.5682e-09 -3.57408e-05
0.000728457 6.30716e-06 -3.51341e-07
6.30716e-06 -3.0165e-05 4.61574e-06
-3.51341e-07 4.61574e-06 -3.49811e-05
0.000759094 -3.74241e-06 2.9438e-07
-3.74241e-06 -2.52097e-06 -1.41733e-06
2.9438e-07 -1.41733e-06 -3.57941e-05
0.000713159 1.0536e-06 2.27715e-07
1.0536e-06 -3.98671e-05 -7.34475e-09
2.27715e-07 -7.34475e-09 -4.41731e-05
0.00215375 -9.43873e-07 3.087e-07
-9.43873e-07 0.00076167 4.35996e-06
3.087e-07 4.35996e-06 0.000782634
0.000736639 -4.30289e-06 -5.53837e-07
-4.30289e-06 -2.64266e-05 -4.60597e-06
-5.53837e-07 -4.60597e-06 -3.04957e-05
0.00153568 -7.07404e-06 -3.68424e-07
-7.07404e-06 0.000419028 2.56075e-08
-3.68424e-07 2.56075e-08 0.000436922
0.000883732 -1.17377e-05 -5.42991e-07
-1.17377e-05 5.83595e-05 -1.64189e-06
-5.42991e-07 -1.64189e-06 7.34479e-05
0.000772111 4.60069e-06 -1.07618e-07
4.60069e-06 6.79697e-06 -1.72965e-06
-1.07618e-07 -1.72965e-06 -2.381e-05
0.000768003 6.47903e-06 4.72696e-08
6.47903e-06 4.31319e-06 2.43208e-09
4.72696e-08 2.43208e-09 -2.71124e-05
0.000718312 1.13732e-05 2.26072e-07
1.13732e-05 -3.53725e-05 -3.41936e-06
2.26072e-07 -3.41936e-06 -3.86574e-05
0.000772824 8.4609e-06 -7.92564e-07
8.4609e-06 6.90208e-06 1.83295e-06
-7.92564e-07 1.83295e-06 -2.57302e-05
0.00100539 1.93827e-05 -2.3708e-07
1.93827e-05 0.00012628 -6.90555e-07
-2.3708e-07 -6.90555e-07 0.00012348
0.00211295 2.54236e-05 1.2187e-05
2.54236e-05 0.000744433 -4.25512e-06
1.2187e-05 -4.25512e-06 0.000764652
0.000715848 2.39786e-05 -7.2113e-07
2.39786e-05 -2.93922e-05 3.48254e-06
-7.2113e-07 3.48254e-06 -3.58558e-05
0.00217535 3.41803e-05 -6.88848e-06
3.41803e-05 0.000784769 1.14599e-06
-6.88848e-06 1.14599e-06 0.000803395
0.00221678 4.43366e-05 -2.15038e-05
4.43366e-05 0.000813686 3.98117e-06
-2.15038e-05 3.98117e-06 0.000830302
0.00171975 4.85818e-05 8.06136e-07
4.85818e-05 4.39021e-05 -1.64986e-07
8.06136e-07 -1.64986e-07 -3.75653e-05
0.00175399 7.07779e-06 1.08895e-06
7.07779e-06 6.37752e-05 -1.37167e-07
1.08895e-06 -1.37167e-07 -2.94085e-05
0.00191192 3.42573e-05 3.98855e-06
3.42573e-05 0.000125972 1.04695e-07
3.98855e-06 1.04695e-07 6.34293e-05
0.00202774 3.06663e-05 1.28082e-05
3.06663e-05 3.25656e-05 2.27251e-06
1.28082e-05 2.27251e-06 -3.73552e-05
0.00182699 6.36686e-06 -5.88737e-07
6.36686e-06 8.76174e-05 -7.33748e-08
-5.88737e-07 -7.33748e-08 1.90707e-05
0.00183945 3.3069e-05 1.65274e-06
3.3069e-05 7.63447e-05 5.24505e-07
1.65274e-06 5.24505e-07 4.14326e-05
0.00235209 7.84549e-06 -7.21194e-06
7.84549e-06 0.00034612 4.4459e-07
-7.21194e-06 4.4459e-07 0.000290934
0.0032643 -2.20028e-05 0.000137403
-2.20028e-05 0.000488883 2.71565e-06
0.000137403 2.71565e-06 0.000156211
0.00167361 -2.79632e-05 -8.27623e-06
-2.79632e-05 -0.00011132 -3.55876e-06
-8.27623e-06 -3.55876e-06 -0.000174324
0.000798231 3.89008e-05 -8.44294e-07
3.89008e-05 4.33967e-05 -9.21857e-07
-8.44294e-07 -9.21857e-07 -8.9856e-06
0.000793937 -1.35298e-05 7.0154e-07
-1.35298e-05 4.26947e-05 -6.86717e-08
7.0154e-07 -6.86717e-08 -1.13608e-05
0.000789321 -5.24844e-05 1.42288e-07
-5.24844e-05 4.50479e-05 -3.05951e-07
1.42288e-07 -3.05951e-07 -2.08309e-05
0.000796673 -1.94178e-05 -1.32723e-06
-1.94178e-05 5.85809e-05 3.1702e-09
-1.32723e-06 3.1702e-09 -1.2654e-05
0.00190181 -5.14274e-05 1.79114e-06
-5.14274e-05 0.000120418 -2.47067e-07
1.79114e-06 -2.47067e-07 5.06201e-05
0.00163396 -8.29956e-05 -1.3338e-06
-8.29956e-05 -3.65345e-05 1.10247e-07
-1.3338e-06 1.10247e-07 -0.000107716
0.0018696 -0.000177474 -4.7941e-07
-0.000177474 8.16853e-05 8.92419e-07
-4.7941e-07 8.92419e-07 -1.76439e-06
0.000927672 -0.000133246 3.68787e-06
-0.000133246 8.27826e-05 2.39295e-06
3.68787e-06 2.39295e-06 -3.9537e-05
0.000168954 -0.000124067 3.99049e-06
-0.000124067 -0.000377763 -1.00106e-06
3.99049e-06 -1.00106e-06 -0.00059562
0.00218993 -0.000262825 7.80437e-07
-0.000262825 0.000355585 -2.22734e-06
7.80437e-07 -2.22734e-06 0.000232261
0.000577735 -0.000102087 -7.15608e-06
-0.000102087 -7.26055e-05 1.06774e-06
-7.15608e-06 1.06774e-06 -0.000181196
0.000999022 -6.19103e-05 -1.37922e-06
-6.19103e-05 0.000195376 -1.07471e-06
-1.37922e-06 -1.07471e-06 7.73961e-05
0.000967085 -7.11418e-05 -1.94715e-06
-7.11418e-05 0.00015802 9.69886e-07
-1.94715e-06 9.69886e-07 5.48033e-05
0.000805048 -1.77914e-05 -1.30149e-06
-1.77914e-05 4.45715e-05 1.18352e-06
-1.30149e-06 1.18352e-06 -1.37167e-05
0.000849426 -4.87884e-05 -5.01664e-07
-4.87884e-05 9.25472e-05 -1.69461e-07
-5.01664e-07 -1.69461e-07 -4.88968e-07
0.000864823 -3.36304e-06 -8.86965e-07
-3.36304e-06 9.37509e-05 6.02202e-07
-8.86965e-07 6.02202e-07 1.38233e-05
0.000799914 -4.35675e-06 -1.65494e-08
-4.35675e-06 4.8039e-05 4.47076e-07
-1.65494e-08 4.47076e-07 -8.22975e-06
0.000699235 1.89564e-05 -1.39087e-07
1.89564e-05 5.95549e-06 1.36649e-06
-1.39087e-07 1.36649e-06 -7.08377e-05
0.00194327 -8.3443e-05 1.1597e-08
-8.3443e-05 0.000114936 2.9799e-07
1.1597e-08 2.9799e-07 5.73213e-05
0.000803346 9.33181e-06 6.05277e-07
9.33181e-06 5.88855e-05 -4.621e-07
6.05277e-07 -4.621e-07 -1.30891e-05
0.000751832 2.17815e-05 5.38075e-07
2.17815e-05 3.34237e-05 -5.17925e-08
5.38075e-07 -5.17925e-08 -4.45523e-05
0.000857262 5.57983e-05 -3.98899e-07
5.57983e-05 9.40789e-05 7.41049e-07
-3.98899e-07 7.41049e-07 1.10584e-05
0.00198 -0.000109184 -2.86646e-06
-0.000109184 0.000107293 8.09207e-07
-2.86646e-06 8.09207e-07 4.59563e-05
0.00186788 -0.000239585 6.26373e-07
-0.000239585 8.90813e-05 -1.00144e-06
6.26373e-07 -1.00144e-06 -8.66751e-06
0.000999536 -0.000141287 -1.25708e-06
-0.000141287 0.000155424 5.8277e-08
-1.25708e-06 5.8277e-08 -6.53078e-06
0.00214734 -0.000263902 -5.88893e-07
-0.000263902 0.000514245 -6.7019e-08
-5.88893e-07 -6.7019e-08 0.000342299
0.000904622 -1.81034e-05 -3.17857e-07
-1.81034e-05 0.000118285 5.43954e-08
-3.17857e-07 5.43954e-08 2.98177e-05
0.000821865 -2.02883e-05 -3.53419e-08
-2.02883e-05 7.58479e-05 9.12387e-07
-3.53419e-08 9.12387e-07 -1.6815e-05
0.000803329 -9.28683e-05 3.78466e-06
-9.28683e-05 0.000111409 -1.08109e-06
3.78466e-06 -1.08109e-06 -4.38749e-05
0.00101541 -5.88747e-05 9.74334e-07
-5.88747e-05 0.000201096 -1.12495e-06
9.74334e-07 -1.12495e-06 7.95703e-05
0.00184022 -7.03508e-05 -3.88331e-06
-7.03508e-05 1.19604e-05 3.22766e-06
-3.88331e-06 3.22766e-06 -5.08638e-05
0.00229179 -0.000214407 -5.40237e-06
-0.000214407 0.000220452 -1.73485e-06
-5.40237e-06 -1.73485e-06 0.000172932
0.00223692 -0.000280971 -3.61699e-06
-0.000280971 0.000403511 -2.03547e-06
-3.61699e-06 -2.03547e-06 0.000263486
0.00130597 -0.000200729 -1.55298e-06
-0.000200729 0.000297819 -1.26246e-06
-1.55298e-06 -1.26246e-06 0.000125988
0.000763777 2.68691e-05 -3.99179e-07
2.68691e-05 4.31857e-05 -4.61136e-07
-3.99179e-07 -4.61136e-07 -4.5043e-05
0.0007795 -3.73521e-05 6.78524e-07
-3.73521e-05 5.6942e-05 -7.68471e-07
6.78524e-07 -7.68471e-07 -3.16648e-05
0.000816196 -2.23183e-05 2.46585e-07
-2.23183e-05 7.64831e-05 3.49158e-07
2.46585e-07 3.49158e-07 -2.12559e-05
0.000851226 -7.75427e-08 -8.2204e-07
-7.75427e-08 0.000139413 4.03123e-07
-8.2204e-07 4.03123e-07 -2.94798e-05
0.000466123 -0.000101293 6.70437e-06
-0.000101293 -0.00128015 -3.43162e-06
6.70437e-06 -3.43162e-06 -0.0017457
0.000988201 9.9425e-06 8.98453e-07
9.9425e-06 0.000164838 -1.017e-06
8.98453e-07 -1.017e-06 7.91162e-05
0.000657312 8.63845e-05 1.90412e-06
8.63845e-05 -5.73277e-06 1.14278e-06
1.90412e-06 1.14278e-06 -0.000128448
0.0017681 9.2062e-05 1.02194e-05
9.2062e-05 -3.59224e-06 4.75545e-07
1.02194e-05 4.75545e-07 -3.50947e-05
0.00188297 0.000219677 6.13201e-07
0.000219677 3.52706e-05 -1.18848e-06
6.13201e-07 -1.18848e-06 -4.37455e-05
0.00132625 0.000218751 3.68345e-06
0.000218751 5.20067e-05 2.59409e-06
3.68345e-06 2.59409e-06 -0.000130928
0.000763883 0.000128916 3.56007e-06
0.000128916 3.31768e-05 1.1906e-06
3.56007e-06 1.1906e-06 -0.000155694
0.00235292 0.000143181 1.04598e-05
0.000143181 0.000184897 9.22123e-07
1.04598e-05 9.22123e-07 -3.67493e-05
0.000964567 4.32932e-05 8.06679e-07
4.32932e-05 0.000158539 -7.70655e-07
8.06679e-07 -7.70655e-07 5.67533e-05
0.00218891 0.000152605 -6.25452e-06
0.000152605 0.000232941 -2.28713e-06
-6.25452e-06 -2.28713e-06 0.000241958
0.00105962 0.000141075 1.33218e-07
0.000141075 0.000218828 -2.45391e-07
1.33218e-07 -2.45391e-07 7.96465e-05
0.001164 0.000179153 -2.73462e-07
0.000179153 0.000184179 7.28768e-07
-2.73462e-07 7.28768e-07 -2.49473e-05
0.00123334 0.000274386 -2.05007e-06
0.000274386 -0.000179395 -5.62258e-07
-2.05007e-06 -5.62258e-07 -0.00030821
0.00270518 -0.000151958 -5.11411e-05
-0.000151958 1.60109e-05 -1.63662e-05
-5.11411e-05 -1.63662e-05 -0.000783929
0.00353564 0.000131987 4.43226e-06
0.000131987 0.000269997 -1.47258e-05
4.43226e-06 -1.47258e-05 -0.000490321
0.000301617 0.000173679 6.43967e-06
0.000173679 -0.000505142 5.64199e-06
6.43967e-06 5.64199e-06 -0.000605051
-0.00190136 -0.000198485 4.61317e-05
-0.000198485 -0.000480558 1.19067e-05
4.61317e-05 1.19067e-05 -0.000914959
-0.000117941 -0.00066753 2.07604e-06
-0.00066753 -0.00121848 -1.0445e-05
2.07604e-06 -1.0445e-05 0.000141953
0.0012077 9.47632e-05 -2.34766e-06
9.47632e-05 0.000311455 -2.46624e-06
-2.34766e-06 -2.46624e-06 0.00020804
0.000755196 0.000143946 -5.31774e-05
0.000143946 0.000800555 -2.39348e-05
-5.31774e-05 -2.39348e-05 0.000330439
0.00147864 -0.000340657 -4.72316e-05
-0.000340657 0.000730834 -4.48671e-05
-4.72316e-05 -4.48671e-05 0.000872057
0.00208652 0.000214133 -1.98589e-05
0.000214133 0.000230186 -5.74596e-06
-1.98589e-05 -5.74596e-06 0.000250898
0.00104239 8.66528e-05 -7.61358e-06
8.66528e-05 0.000226908 -1.74186e-06
-7.61358e-06 -1.74186e-06 7.44813e-05
0.00101913 0.000259521 -1.32235e-05
0.000259521 2.87301e-05 -6.75481e-06
-1.32235e-05 -6.75481e-06 -0.000190598
-0.000241286 0.000222964 7.52928e-06
0.000222964 -0.0007865 4.64651e-05
7.52928e-06 4.64651e-05 -0.000766674
0.00722449 -0.000107536 -4.49801e-05
-0.000107536 0.00250704 -1.48196e-05
-4.49801e-05 -1.48196e-05 0.00119909
0.00368863 0.000332652 -7.51487e-06
0.000332652 0.000520188 2.11418e-05
-7.51487e-06 2.11418e-05 -0.000528682
0.000743913 -0.000538706 9.43128e-07
-0.000538706 -0.000114141 2.54568e-06
9.43128e-07 2.54568e-06 0.000195603
0.00106459 -0.000369597 -2.91494e-05
-0.000369597 -0.00158825 2.50738e-05
-2.91494e-05 2.50738e-05 -0.000516475
0.000901683 -2.85654e-05 9.11539e-07
-2.85654e-05 0.000113015 -3.59957e-07
9.11539e-07 -3.59957e-07 3.26268e-05
0.000934199 1.07081e-05 -1.32355e-08
1.07081e-05 0.00012918 2.59437e-08
-1.32355e-08 2.59437e-08 4.91121e-05
0.00112062 4.68537e-05 -7.27617e-07
4.68537e-05 0.000227634 -2.80886e-06
-7.27617e-07 -2.80886e-06 0.000161738
0.000777878 2.77137e-06 -1.27974e-07
2.77137e-06 2.88968e-05 -7.49262e-08
-1.27974e-07 -7.49262e-08 -3.03485e-05
0.00083598 1.67374e-05 -6.82285e-07
1.67374e-05 5.71122e-05 -9.3699e-08
-6.82285e-07 -9.3699e-08 -1.02466e-05
0.000771301 -3.31245e-05 -5.74229e-07
-3.31245e-05 2.00322e-05 1.53592e-07
-5.74229e-07 1.53592e-07 -4.56463e-05
0.00089716 -1.90263e-05 5.26223e-08
-1.90263e-05 9.03845e-05 3.7808e-07
5.26223e-08 3.7808e-07 2.20752e-05
0.000933608 -3.89472e-05 -1.94739e-07
-3.89472e-05 0.000114569 1.56488e-06
-1.94739e-07 1.56488e-06 3.94716e-05
0.000687496 -2.75671e-07 4.77055e-07
-2.75671e-07 -2.7256e-05 4.70025e-07
4.77055e-07 4.70025e-07 -8.42401e-05
0.000834679 -1.40512e-05 -1.45555e-07
-1.40512e-05 5.09096e-05 -1.69253e-07
-1.45555e-07 -1.69253e-07 -1.60768e-05
0.000902471 -1.3374e-05 -4.11111e-08
-1.3374e-05 8.89901e-05 2.71117e-07
-4.11111e-08 2.71117e-07 2.03026e-05
0.000857138 2.42719e-05 5.43058e-07
2.42719e-05 6.93151e-05 -2.20191e-07
5.43058e-07 -2.20191e-07 -2.30996e-06
0.000822895 -1.70121e-05 1.84218e-07
-1.70121e-05 4.54709e-05 -1.05096e-07
1.84218e-07 -1.05096e-07 -1.98785e-05
0.000826001 -2.3097e-05 5.99322e-07
-2.3097e-05 3.97488e-05 -8.97715e-07
5.99322e-07 -8.97715e-07 -2.66538e-05
0.000821153 1.35617e-05 -5.85912e-07
1.35617e-05 3.58944e-05 -3.77402e-06
-5.85912e-07 -3.77402e-06 -2.29939e-05
0.000916525 -5.66097e-05 2.19742e-07
-5.66097e-05 9.1724e-05 -4.42283e-07
2.19742e-07 -4.42283e-07 2.05365e-05
0.000892266 -4.32965e-05 -4.8132e-07
-4.32965e-05 9.07513e-05 -4.62934e-07
-4.8132e-07 -4.62934e-07 1.84844e-05
0.000894493 -8.24256e-06 -4.51554e-07
-8.24256e-06 9.25988e-05 -1.42273e-07
-4.51554e-07 -1.42273e-07 2.20808e-05
0.000918753 4.92683e-05 -4.31983e-07
4.92683e-05 0.00010338 -2.83719e-07
-4.31983e-07 -2.83719e-07 3.27354e-05
0.000880223 2.13369e-05 -3.73936e-07
2.13369e-05 8.4804e-05 -9.62615e-07
-3.73936e-07 -9.62615e-07 6.76185e-06
0.000835039 4.88322e-05 2.03522e-07
4.88322e-05 6.38309e-05 -6.69309e-07
2.03522e-07 -6.69309e-07 -6.58825e-06
0.000874567 5.49648e-05 -2.58098e-08
5.49648e-05 7.65563e-05 -1.14064e-06
-2.58098e-08 -1.14064e-06 7.57679e-06
0.000762308 4.21305e-05 1.41747e-06
4.21305e-05 3.7672e-05 1.03847e-06
1.41747e-06 1.03847e-06 -3.67645e-05
0.000782258 2.0087e-05 -2.69806e-07
2.0087e-05 3.56576e-05 -9.64582e-08
-2.69806e-07 -9.64582e-08 -2.62858e-05
0.000802512 1.93086e-06 -6.68701e-08
1.93086e-06 4.92805e-05 1.71006e-08
-6.68701e-08 1.71006e-08 -1.6987e-05
0.00079021 9.99018e-06 -1.05046e-06
9.99018e-06 2.50782e-05 3.5159e-07
-1.05046e-06 3.5159e-07 -2.52294e-05
0.00083594 1.56275e-05 7.03743e-07
1.56275e-05 5.76023e-05 -1.07028e-07
7.03743e-07 -1.07028e-07 -7.19177e-06
0.00076076 -2.23963e-05 -3.42573e-08
-2.23963e-05 1.09757e-05 1.65782e-08
-3.42573e-08 1.65782e-08 -4.25932e-05
0.000773735 1.66368e-05 -5.63256e-07
1.66368e-05 6.50637e-06 1.47679e-06
-5.63256e-07 1.47679e-06 -2.68746e-05
0.000698068 8.40613e-06 4.6453e-07
8.40613e-06 -1.79971e-05 -5.04482e-08
4.6453e-07 -5.04482e-08 -7.67259e-05
0.000763561 8.67485e-06 -1.19953e-07
8.67485e-06 4.81285e-07 1.26613e-09
-1.19953e-07 1.26613e-09 -3.30221e-05
0.00134549 1.40606e-05 -2.9682e-06
1.40606e-05 0.000313996 4.52889e-06
-2.9682e-06 4.52889e-06 0.000312149
0.000756031 -1.16907e-06 5.79987e-07
-1.16907e-06 -3.61728e-06 -1.40006e-06
5.79987e-07 -1.40006e-06 -3.7184e-05
0.00103143 7.45453e-06 -1.41186e-06
7.45453e-06 0.000137864 6.82843e-07
-1.41186e-06 6.82843e-07 0.000134735
0.000942185 3.58193e-06 -3.05432e-06
3.58193e-06 8.99903e-05 4.2448e-06
-3.05432e-06 4.2448e-06 0.000104325
0.000718434 1.24935e-06 1.15e-08
1.24935e-06 -3.69179e-05 -3.22806e-06
1.15e-08 -3.22806e-06 -4.12641e-05
0.0021582 -2.25844e-07 2.74314e-06
-2.25844e-07 0.000764172 -6.37344e-10
2.74314e-06 -6.37344e-10 0.000785088
0.000951468 -3.84563e-06 -2.55195e-06
-3.84563e-06 9.48496e-05 -4.23838e-06
-2.55195e-06 -4.23838e-06 0.000109617
0.000796418 5.50433e-05 5.75477e-07
5.50433e-05 4.55046e-05 -2.08103e-07
5.75477e-07 -2.08103e-07 -1.01085e-05
0.000770075 7.45514e-07 -8.26659e-08
7.45514e-07 5.23597e-06 -1.68087e-06
-8.26659e-08 -1.68087e-06 -2.48233e-05
0.000769948 3.44975e-06 -1.04017e-07
3.44975e-06 5.40356e-06 -7.43119e-09
-1.04017e-07 -7.43119e-09 -2.51495e-05
0.000722036 5.40115e-06 -7.06398e-08
5.40115e-06 -3.49798e-05 -3.3884e-06
-7.06398e-08 -3.3884e-06 -3.73668e-05
0.000768438 5.23532e-06 -3.73828e-07
5.23532e-06 4.20217e-06 1.71495e-06
-3.73828e-07 1.71495e-06 -2.71813e-05
0.000713179 1.15537e-05 2.4027e-08
1.15537e-05 -3.85967e-05 -7.06926e-07
2.4027e-08 -7.06926e-07 -4.17885e-05
0.0020939 1.66022e-05 8.15234e-06
1.66022e-05 0.000730823 -4.35669e-06
8.15234e-06 -4.35669e-06 0.00075195
0.00129513 2.32151e-05 -1.19323e-06
2.32151e-05 0.000287345 2.06703e-06
-1.19323e-06 2.06703e-06 0.000285915
0.00153692 2.17159e-05 3.63886e-07
2.17159e-05 0.000425901 1.35827e-06
3.63886e-07 1.35827e-06 0.000442684
0.00099062 2.43645e-05 -1.62884e-05
2.43645e-05 0.000127949 6.85664e-06
-1.62884e-05 6.85664e-06 0.000140092
0.000260294 4.09656e-05 2.05918e-05
4.09656e-05 -0.000836625 8.54699e-06
2.05918e-05 8.54699e-06 -0.000930109
0.00201563 5.49059e-06 2.80812e-06
5.49059e-06 0.000186001 1.76861e-07
2.80812e-06 1.76861e-07 0.0001172
0.00200515 3.067e-05 1.00243e-05
3.067e-05 0.000176727 -5.86945e-07
1.00243e-05 -5.86945e-07 0.000137831
0.000896487 1.45806e-05 2.24839e-05
1.45806e-05 -0.000479251 -3.9824e-06
2.24839e-05 -3.9824e-06 -0.000832892
0.0017824 -2.14609e-05 3.51805e-07
-2.14609e-05 -3.16642e-06 6.11683e-07
3.51805e-07 6.11683e-07 -6.36083e-05
0.00200139 -1.62226e-06 -2.81702e-06
-1.62226e-06 0.000102847 -1.0142e-06
-2.81702e-06 -1.0142e-06 5.2993e-05
0.00211321 -1.66206e-05 -2.61011e-05
-1.66206e-05 0.000175223 2.07015e-06
-2.61011e-05 2.07015e-06 0.000123708
0.00173314 -9.76626e-05 0.000134241
-9.76626e-05 -9.60026e-05 -9.56969e-06
0.000134241 -9.56969e-06 -0.000411583
0.00811925 -3.86456e-05 -3.0157e-05
-3.86456e-05 0.00266415 2.51779e-06
-3.0157e-05 2.51779e-06 0.00177534
0.00351168 0.000671578 3.68217e-05
0.000671578 0.00168458 -1.0079e-05
3.68217e-05 -1.0079e-05 0.00187111
0.00208777 0.000634892 -1.23971e-05
0.000634892 0.00059218 1.22365e-05
-1.23971e-05 1.22365e-05 0.00160783
0.000660246 -5.80302e-05 1.14596e-06
-5.80302e-05 -2.07422e-05 -8.52482e-07
1.14596e-06 -8.52482e-07 -8.93521e-05
0.00079945 -9.73993e-06 3.62689e-07
-9.73993e-06 4.55094e-05 -4.98829e-08
3.62689e-07 -4.98829e-08 -7.88276e-06
0.000792564 -5.97792e-05 -1.14006e-06
-5.97792e-05 4.57621e-05 1.08131e-06
-1.14006e-06 1.08131e-06 -1.10436e-05
0.000775229 -2.46518e-05 -3.15905e-07
-2.46518e-05 4.14598e-05 5.27311e-08
-3.15905e-07 5.27311e-08 -2.77534e-05
0.000774919 4.08312e-05 1.89084e-07
4.08312e-05 5.34074e-05 6.07976e-07
1.89084e-07 6.07976e-07 -2.83647e-05
0.00092156 8.09715e-05 4.84852e-07
8.09715e-05 0.000122969 8.42414e-07
4.84852e-07 8.42414e-07 4.58814e-05
0.000851134 -2.40773e-05 7.0958e-07
-2.40773e-05 8.22163e-05 -9.2432e-07
7.0958e-07 -9.2432e-07 1.33811e-05
0.000759587 -3.56621e-05 -5.0077e-07
-3.56621e-05 3.41402e-05 6.16139e-07
-5.0077e-07 6.16139e-07 -3.46593e-05
0.00196518 -6.73178e-05 3.31678e-06
-6.73178e-05 0.00014913 -5.5506e-07
3.31678e-06 -5.5506e-07 9.04737e-05
0.00165121 -0.00010793 1.67372e-06
-0.00010793 -8.98737e-05 -1.0438e-07
1.67372e-06 -1.0438e-07 -0.000154737
0.0016115 -0.000222879 5.78278e-07
-0.000222879 -3.14495e-05 3.59783e-07
5.78278e-07 3.59783e-07 -0.00012662
0.000953264 -0.00015366 1.67844e-06
-0.00015366 0.000115048 2.66209e-06
1.67844e-06 2.66209e-06 -4.40914e-05
0.00212826 -0.000262996 1.45196e-06
-0.000262996 0.000503646 4.63744e-07
1.45196e-06 4.63744e-07 0.000326543
0.000844093 -9.41474e-05 -7.56572e-07
-9.41474e-05 0.000124287 -5.57671e-07
-7.56572e-07 -5.57671e-07 -2.29086e-05
0.00126186 -0.000105259 -2.9442e-07
-0.000105259 0.000338914 -5.53994e-07
-2.9442e-07 -5.53994e-07 0.000208828
0.000804391 -4.561e-05 -1.44242e-06
-4.561e-05 7.29237e-05 5.76096e-07
-1.44242e-06 5.76096e-07 -2.21824e-05
0.000803674 -2.21723e-06 7.95097e-08
-2.21723e-06 6.28979e-05 7.3082e-07
7.95097e-08 7.3082e-07 -1.51444e-05
0.0010074 1.27678e-05 -1.1997e-06
1.27678e-05 0.000170845 -2.38329e-07
-1.1997e-06 -2.38329e-07 8.44278e-05
0.00100893 -3.27946e-06 6.1841e-07
-3.27946e-06 0.000170565 3.76949e-07
6.1841e-07 3.76949e-07 0.000100211
0.000763148 9.19355e-05 1.07164e-06
9.19355e-05 4.54429e-05 1.62534e-06
1.07164e-06 1.62534e-06 -3.92159e-05
0.0016034 -7.12921e-05 -1.14103e-06
-7.12921e-05 -0.000121186 -2.18919e-06
-1.14103e-06 -2.18919e-06 -0.000179351
0.000832167 3.18866e-05 -4.44636e-07
3.18866e-05 8.06726e-05 2.65694e-07
-4.44636e-07 2.65694e-07 -5.56149e-06
0.000842819 -2.81512e-05 -4.0852e-07
-2.81512e-05 8.66447e-05 -3.49197e-07
-4.0852e-07 -3.49197e-07 4.27838e-07
0.00206734 -0.000215837 -2.05476e-07
-0.000215837 0.000108609 -1.01706e-06
-2.05476e-07 -1.01706e-06 5.43361e-05
0.00116217 -0.000227605 7.11242e-07
-0.000227605 -0.00014271 1.1457e-06
7.11242e-07 1.1457e-06 -0.00027142
0.001345 -0.000204359 1.12434e-06
-0.000204359 0.000311406 -1.43782e-06
1.12434e-06 -1.43782e-06 0.000128573
0.000959524 -2.08719e-05 1.95729e-07
-2.08719e-05 0.000155181 -5.74864e-07
1.95729e-07 -5.74864e-07 5.48529e-05
0.000969295 -3.17382e-05 1.40847e-07
-3.17382e-05 0.000199345 5.32502e-07
1.40847e-07 5.32502e-07 3.09472e-05
0.00377629 -0.000180366 -1.07798e-05
-0.000180366 0.00115259 5.39523e-06
-1.07798e-05 5.39523e-06 0.0010761
0.00296126 -0.000308266 -1.19357e-05
-0.000308266 0.0006425 1.34678e-06
-1.19357e-05 1.34678e-06 0.000594245
-0.000604619 -0.000146157 -3.75857e-06
-0.000146157 -0.000867041 -1.38628e-06
-3.75857e-06 -1.38628e-06 -0.0010065
0.00114129 -0.00012806 -4.64602e-06
-0.00012806 0.000244543 3.44908e-06
-4.64602e-06 3.44908e-06 4.92123e-05
0.000718662 -7.53904e-05 1.09648e-06
-7.53904e-05 1.06377e-05 -1.44402e-07
1.09648e-06 -1.44402e-07 -7.43278e-05
0.00085217 -3.09745e-05 1.00865e-06
-3.09745e-05 8.76599e-05 3.90478e-08
1.00865e-06 3.90478e-08 -2.8524e-06
0.000933789 -6.89178e-06 -2.22936e-06
-6.89178e-06 0.000148342 5.25861e-07
-2.22936e-06 5.25861e-07 3.30077e-05
-0.00387237 -3.25512e-05 7.13354e-05
-3.25512e-05 -0.00174031 5.29649e-06
7.13354e-05 5.29649e-06 -0.00156145
0.00835515 -5.81076e-05 -3.11095e-05
-5.81076e-05 0.00285714 -6.77756e-07
-3.11095e-05 -6.77756e-07 0.00227512
0.000896057 4.17012e-05 2.28252e-06
4.17012e-05 0.000127782 -3.39111e-07
2.28252e-06 -3.39111e-07 2.71468e-05
0.000778336 0.000121925 3.28798e-06
0.000121925 7.26508e-05 -2.76823e-08
3.28798e-06 -2.76823e-08 -6.31846e-05
0.00170327 0.000135135 4.95569e-06
0.000135135 -2.44463e-05 6.06004e-06
4.95569e-06 6.06004e-06 -1.44271e-06
0.00198416 0.000311426 3.00722e-06
0.000311426 0.000185935 1.07354e-06
3.00722e-06 1.07354e-06 6.40344e-05
0.00103062 0.00017573 5.60357e-06
0.00017573 0.000121971 1.80414e-06
5.60357e-06 1.80414e-06 -8.83493e-05
0.0053359 0.000192371 6.13785e-05
0.000192371 0.00125649 9.33012e-07
6.13785e-05 9.33012e-07 0.000304403
0.00540574 0.00019163 -8.64845e-05
0.00019163 0.00105705 -2.91953e-05
-8.64845e-05 -2.91953e-05 0.000427004
0.000147057 0.000134802 3.75118e-06
0.000134802 -0.000589828 -1.88001e-05
3.75118e-06 -1.88001e-05 -0.000682264
0.00386098 -0.000544325 1.43845e-05
-0.000544325 0.00192265 2.08029e-05
1.43845e-05 2.08029e-05 0.00181809
-0.00340988 -0.000705273 -3.77218e-05
-0.000705273 -0.0027651 -4.83223e-05
-3.77218e-05 -4.83223e-05 -0.0012006
0.000969976 0.000101603 3.9039e-07
0.000101603 0.000186707 -6.95049e-07
3.9039e-07 -6.95049e-07 8.20056e-05
-0.00254979 -0.000165254 2.38766e-05
-0.000165254 -0.00136692 3.08147e-06
2.38766e-05 3.08147e-06 -0.00133528
-0.000442028 -0.000311586 -2.87786e-05
-0.000311586 -4.86487e-05 -1.03956e-05
-2.87786e-05 -1.03956e-05 -0.000141339
0.00246379 0.000219578 -3.9598e-06
0.000219578 0.000401876 -3.26452e-06
-3.9598e-06 -3.26452e-06 0.000437912
0.000891892 0.000100872 -7.63224e-07
0.000100872 0.000162739 -6.2814e-07
-7.63224e-07 -6.2814e-07 8.43137e-06
0.000604781 0.000194315 1.42518e-06
0.000194315 -0.000161409 1.4796e-06
1.42518e-06 1.4796e-06 -0.000371715
0.000206643 0.000143093 1.51e-05
0.000143093 -0.00049129 1.05397e-05
1.51e-05 1.05397e-05 -0.00042924
0.00620973 -6.27825e-05 -7.02043e-06
-6.27825e-05 0.00188408 -4.45129e-06
-7.02043e-06 -4.45129e-06 0.000478052
0.00598543 0.000466976 -2.96229e-05
0.000466976 0.00150282 -1.68571e-05
-2.96229e-05 -1.68571e-05 0.000760053
0.00476065 -0.00077732 1.90052e-05
-0.00077732 0.00198428 -1.45373e-05
1.90052e-05 -1.45373e-05 0.00204816
0.00105667 -0.000429722 2.50764e-05
-0.000429722 -0.00169493 5.72207e-05
2.50764e-05 5.72207e-05 -0.000575941
0.00102598 5.98691e-05 -5.71764e-06
5.98691e-05 0.000234278 -5.33735e-06
-5.71764e-06 -5.33735e-06 0.000145127
-0.00220743 -9.27811e-05 -7.01797e-05
-9.27811e-05 -0.00033593 -2.06511e-05
-7.01797e-05 -2.06511e-05 -0.000925362
0.00190962 -1.56907e-05 -5.91149e-05
-1.56907e-05 0.000203197 -6.18411e-05
-5.91149e-05 -6.18411e-05 -0.000293058
0.000579158 0.000201153 -2.30233e-05
0.000201153 -0.000273033 -6.33929e-07
-2.30233e-05 -6.33929e-07 -0.000260405
0.00156297 0.000218997 -2.47765e-05
0.000218997 0.000574969 -6.97927e-06
-2.47765e-05 -6.97927e-06 0.000400121
0.00226661 0.000128609 -4.07097e-05
0.000128609 0.00086731 -1.6838e-06
-4.07097e-05 -1.6838e-06 0.000759275
0.00469878 0.000613648 -9.73859e-05
0.000613648 0.00101343 7.20751e-06
-9.73859e-05 7.20751e-06 0.000610264
-0.00115549 -5.10989e-05 4.32282e-05
-5.10989e-05 -0.00104196 4.62695e-05
4.32282e-05 4.62695e-05 -0.00287656
0.0065687 -0.000746615 -5.04882e-05
-0.000746615 0.00167945 2.31453e-05
-5.04882e-05 2.31453e-05 0.00181745
0.00167132 -0.000252266 -1.12598e-05
-0.000252266 -0.00182763 -1.59848e-05
-1.12598e-05 -1.59848e-05 -0.000740013
0.00090436 2.33105e-05 1.02095e-06
2.33105e-05 0.000117295 2.39638e-06
1.02095e-06 2.39638e-06 3.45514e-05
0.00108361 5.13195e-05 1.40068e-06
5.13195e-05 0.000209577 1.60602e-06
1.40068e-06 1.60602e-06 0.000140379
0.000567135 4.84353e-05 2.02209e-09
4.84353e-05 -6.35713e-05 -5.7878e-06
2.02209e-09 -5.7878e-06 -0.000113207
0.000685742 3.8021e-05 3.42253e-07
3.8021e-05 -2.83396e-05 -2.08245e-08
3.42253e-07 -2.08245e-08 -8.52502e-05
0.000919531 3.4731e-05 -7.51729e-07
3.4731e-05 0.000107785 -2.98793e-07
-7.51729e-07 -2.98793e-07 3.4614e-05
0.000896829 -2.80931e-05 -4.9287e-07
-2.80931e-05 8.68153e-05 5.99954e-07
-4.9287e-07 5.99954e-07 1.8423e-05
0.000862632 -2.57372e-05 -6.40943e-07
-2.57372e-05 6.67419e-05 6.6776e-08
-6.40943e-07 6.6776e-08 -1.10651e-06
0.000842098 -1.85396e-05 -7.72407e-07
-1.85396e-05 5.54541e-05 1.91928e-06
-7.72407e-07 1.91928e-06 -9.33956e-06
0.000887392 2.7441e-05 3.06306e-07
2.7441e-05 8.86288e-05 -4.58473e-07
3.06306e-07 -4.58473e-07 1.61061e-05
0.00090586 -2.41347e-05 -5.99123e-08
-2.41347e-05 8.38312e-05 3.53369e-07
-5.99123e-08 3.53369e-07 1.72182e-05
0.000915964 -3.58216e-05 1.06155e-07
-3.58216e-05 9.4216e-05 2.70701e-07
1.06155e-07 2.70701e-07 2.11413e-05
0.000779442 -3.9458e-06 3.87332e-08
-3.9458e-06 1.8062e-05 -2.74555e-07
3.87332e-08 -2.74555e-07 -3.84531e-05
0.000901961 -3.33792e-05 2.06141e-06
-3.33792e-05 9.43792e-05 -3.08937e-06
2.06141e-06 -3.08937e-06 4.76623e-05
0.000887666 -3.18491e-05 1.93982e-07
-3.18491e-05 6.65897e-05 -2.679e-06
1.93982e-07 -2.679e-06 1.34178e-06
0.000911644 3.55539e-06 1.25189e-07
3.55539e-06 9.90027e-05 -7.18984e-07
1.25189e-07 -7.18984e-07 1.90326e-05
0.00090294 -3.35796e-05 8.97352e-08
-3.35796e-05 9.98574e-05 -2.64126e-07
8.97352e-08 -2.64126e-07 2.72201e-05
0.000897195 1.79086e-05 -3.86306e-07
1.79086e-05 8.68271e-05 5.17077e-07
-3.86306e-07 5.17077e-07 1.87154e-05
0.000877005 -6.87839e-06 2.41114e-07
-6.87839e-06 7.98671e-05 -2.9954e-07
2.41114e-07 -2.9954e-07 3.96669e-06
0.000831946 4.59943e-05 -1.18391e-07
4.59943e-05 6.06785e-05 -1.59064e-08
-1.18391e-07 -1.59064e-08 -9.03535e-06
0.000868943 2.48782e-05 -3.50013e-07
2.48782e-05 7.06735e-05 1.52783e-07
-3.50013e-07 1.52783e-07 3.723e-06
0.000781863 5.41625e-05 7.73645e-07
5.41625e-05 3.98681e-05 9.45204e-09
7.73645e-07 9.45204e-09 -3.04575e-05
0.000803212 3.43874e-05 3.87172e-08
3.43874e-05 3.95147e-05 -1.32452e-06
3.87172e-08 -1.32452e-06 -3.52628e-05
0.000845037 3.85187e-05 3.63157e-07
3.85187e-05 6.51757e-05 -9.71756e-07
3.63157e-07 -9.71756e-07 -1.83064e-06
0.000819065 2.80189e-05 1.84938e-06
2.80189e-05 6.1931e-05 -4.59672e-07
1.84938e-06 -4.59672e-07 -2.11055e-05
0.000554406 -3.62928e-05 3.69187e-07
-3.62928e-05 -4.04343e-05 -3.99844e-08
3.69187e-07 -3.99844e-08 -0.000158269
0.00051151 2.67695e-05 4.66247e-07
2.67695e-05 -8.98795e-05 2.59283e-07
4.66247e-07 2.59283e-07 -0.000173102
0.000804597 4.09683e-05 4.33237e-07
4.09683e-05 6.10321e-05 5.29388e-07
4.33237e-07 5.29388e-07 -1.37249e-05
0.000792538 4.01808e-05 3.29252e-07
4.01808e-05 4.5714e-05 5.06278e-07
3.29252e-07 5.06278e-07 -1.86337e-05
0.000809659 1.38415e-05 -2.23256e-07
1.38415e-05 5.32753e-05 -5.4299e-08
-2.23256e-07 -5.4299e-08 -1.06894e-05
0.000786569 2.86721e-05 -6.67138e-07
2.86721e-05 2.69601e-05 3.78006e-07
-6.67138e-07 3.78006e-07 -2.39827e-05
0.000832159 1.36427e-05 5.68224e-07
1.36427e-05 6.32866e-05 3.04544e-07
5.68224e-07 3.04544e-07 -1.5768e-06
0.000807272 -1.09572e-06 -1.10368e-07
-1.09572e-06 3.63132e-05 1.48255e-08
-1.10368e-07 1.48255e-08 -1.54229e-05
0.000769123 2.16787e-05 -9.37502e-07
2.16787e-05 5.55177e-06 1.51109e-06
-9.37502e-07 1.51109e-06 -2.78304e-05
0.000725275 -1.39246e-05 6.7592e-07
-1.39246e-05 -1.05828e-05 -3.00403e-07
6.7592e-07 -3.00403e-07 -6.34381e-05
0.000767905 1.27458e-05 -6.57721e-08
1.27458e-05 2.96539e-06 4.63596e-09
-6.57721e-08 4.63596e-09 -3.02741e-05
0.0013374 2.11546e-05 -4.84731e-06
2.11546e-05 0.000312215 4.47849e-06
-4.84731e-06 4.47849e-06 0.000310095
0.000760654 3.59001e-06 7.58939e-07
3.59001e-06 -1.45791e-06 -1.40396e-06
7.58939e-07 -1.40396e-06 -3.48334e-05
0.00102946 1.39598e-05 -2.22419e-06
1.39598e-05 0.000138565 6.64961e-07
-2.22419e-06 6.64961e-07 0.000135235
0.000885379 1.16531e-05 -5.66008e-07
1.16531e-05 5.99448e-05 1.62523e-06
-5.66008e-07 1.62523e-06 7.4196e-05
0.000712007 6.8309e-06 2.79164e-07
6.8309e-06 -3.9672e-05 -3.21526e-06
2.79164e-07 -3.21526e-06 -4.43174e-05
0.00216345 8.41045e-06 2.43136e-06
8.41045e-06 0.000767733 2.15232e-08
2.43136e-06 2.15232e-08 0.000788438
0.00216308 4.96202e-07 7.39744e-07
4.96202e-07 0.000766886 -4.37992e-06
7.39744e-07 -4.37992e-06 0.000787738
0.00106565 4.16271e-05 -1.14978e-06
4.16271e-05 0.00018851 -6.10748e-07
-1.14978e-06 -6.10748e-07 0.000135415
0.00077204 -3.33754e-06 -2.97901e-07
-3.33754e-06 5.93706e-06 -1.71282e-06
-2.97901e-07 -1.71282e-06 -2.43958e-05
0.000790352 4.0354e-06 7.45785e-07
4.0354e-06 4.15947e-05 5.60631e-07
7.45785e-07 5.60631e-07 -1.33371e-05
0.000724753 -7.69325e-07 -1.23453e-07
-7.69325e-07 -3.40016e-05 -3.36691e-06
-1.23453e-07 -3.36691e-06 -3.5969e-05
0.000775629 -1.97127e-07 7.67694e-08
-1.97127e-07 8.27845e-06 -4.9355e-09
7.67694e-08 -4.9355e-09 -2.17985e-05
0.00076892 2.45558e-06 -2.43825e-07
2.45558e-06 4.64858e-06 1.67411e-06
-2.43825e-07 1.67411e-06 -2.58552e-05
0.000724521 5.68708e-06 -1.67961e-07
5.68708e-06 -3.36673e-05 4.9467e-09
-1.67961e-07 4.9467e-09 -3.60751e-05
0.00207578 7.78874e-06 3.75101e-06
7.78874e-06 0.000719075 -4.39697e-06
3.75101e-06 -4.39697e-06 0.000740808
0.00129186 1.55978e-05 -7.14886e-07
1.55978e-05 0.000282478 2.05035e-06
-7.14886e-07 2.05035e-06 0.00028232
0.00150279 1.45974e-05 2.22452e-06
1.45974e-05 0.000403036 5.42671e-08
2.22452e-06 5.42671e-08 0.00042095
0.000964878 1.75443e-05 -1.41554e-05
1.75443e-05 0.000108121 6.88919e-06
-1.41554e-05 6.88919e-06 0.000122064
-0.00594371 0.000121499 4.09575e-05
0.000121499 -0.00288141 -4.35398e-07
4.09575e-05 -4.35398e-07 -0.00296678
-0.00131726 0.000249907 2.36361e-05
0.000249907 -0.000382732 1.7114e-05
2.36361e-05 1.7114e-05 -0.000468464
0.00258452 2.11399e-05 -0.000131999
2.11399e-05 0.000307273 -3.23996e-06
-0.000131999 -3.23996e-06 -4.32384e-05
0.00196147 -1.90306e-05 1.85007e-05
-1.90306e-05 0.000147689 1.24899e-06
1.85007e-05 1.24899e-06 8.1965e-05
0.00170745 -1.10152e-05 1.9249e-06
-1.10152e-05 -0.000109059 1.01265e-07
1.9249e-06 1.01265e-07 -0.000154005
0.00124627 -6.46384e-07 2.71111e-05
-6.46384e-07 -0.000184893 -8.46408e-07
2.71111e-05 -8.46408e-07 -0.000389833
0.00210152 -2.29924e-05 -1.71792e-06
-2.29924e-05 0.000173652 9.11976e-07
-1.71792e-06 9.11976e-07 0.000116667
0.0056647 0.000216047 -1.43175e-05
0.000216047 0.00140726 -1.52393e-05
-1.43175e-05 -1.52393e-05 0.000647499
-0.00379963 0.000247527 -1.99697e-05
0.000247527 -0.0014908 -6.15434e-08
-1.99697e-05 -6.15434e-08 -0.0017
-0.000730564 0.000674599 -1.11384e-05
0.000674599 -0.00115314 2.61011e-06
-1.11384e-05 2.61011e-06 0.000183728
0.00201929 -0.000106597 6.77434e-05
-0.000106597 0.000119202 6.14141e-07
6.77434e-05 6.14141e-07 -0.000117132
0.00707783 0.000333969 2.30798e-05
0.000333969 0.00239718 -3.53158e-06
2.30798e-05 -3.53158e-06 0.00125194
6.84449e-05 0.000524312 -1.3323e-05
0.000524312 -0.000399035 -2.7541e-05
-1.3323e-05 -2.7541e-05 4.56744e-05
0.00360138 0.000465502 -5.82686e-05
0.000465502 -5.19227e-05 3.92829e-05
-5.82686e-05 3.92829e-05 0.000811012
0.000813844 4.96521e-05 -6.8214e-07
4.96521e-05 7.05225e-05 9.76019e-08
-6.8214e-07 9.76019e-08 -1.43932e-05
0.000715419 3.52812e-06 -1.94047e-07
3.52812e-06 6.80926e-06 -3.17463e-07
-1.94047e-07 -3.17463e-07 -5.98706e-05
0.000791086 -5.71447e-05 -9.17924e-07
-5.71447e-05 4.39436e-05 9.5333e-07
-9.17924e-07 9.5333e-07 -1.1629e-05
0.000716608 7.72113e-07 1.71187e-07
7.72113e-07 1.17714e-05 5.72413e-07
1.71187e-07 5.72413e-07 -5.94777e-05
0.000793294 4.81086e-05 6.99422e-07
4.81086e-05 6.33986e-05 7.82366e-07
6.99422e-07 7.82366e-07 -1.7764e-05
0.000877718 4.16364e-05 -7.55087e-07
4.16364e-05 0.000102333 4.88928e-07
-7.55087e-07 4.88928e-07 1.99429e-05
0.000857175 5.78794e-05 1.42918e-06
5.78794e-05 9.13045e-05 1.00938e-06
1.42918e-06 1.00938e-06 1.12611e-05
0.000793718 -1.72442e-05 7.04493e-07
-1.72442e-05 4.64844e-05 1.74091e-07
7.04493e-07 1.74091e-07 -2.4933e-05
0.000790521 -2.37877e-05 3.89595e-07
-2.37877e-05 5.18398e-05 -5.70903e-07
3.89595e-07 -5.70903e-07 -1.97056e-05
0.000711481 -1.66747e-05 3.05347e-07
-1.66747e-05 3.86147e-06 6.97061e-07
3.05347e-07 6.97061e-07 -6.29491e-05
0.0012972 -7.02913e-05 1.26727e-06
-7.02913e-05 -0.000295459 -2.66697e-06
1.26727e-06 -2.66697e-06 -0.000349489
0.00195566 -0.000213683 6.23753e-06
-0.000213683 6.55534e-05 1.08424e-06
6.23753e-06 1.08424e-06 4.79053e-06
5.39992e-05 -0.000172101 5.76751e-06
-0.000172101 -0.000707071 2.13505e-06
5.76751e-06 2.13505e-06 -0.000823623
0.00143537 -0.00021156 1.7216e-06
-0.00021156 0.000352255 8.30502e-07
1.7216e-06 8.30502e-07 0.00016005
0.00110458 -6.62756e-05 1.94677e-06
-6.62756e-05 0.00026663 -9.45797e-07
1.94677e-06 -9.45797e-07 0.000100169
0.00110661 -3.94137e-05 -1.67386e-07
-3.94137e-05 0.000236211 -7.73226e-07
-1.67386e-07 -7.73226e-07 0.000133265
0.000906647 -2.21815e-05 -1.13584e-06
-2.21815e-05 0.000115098 -2.5395e-07
-1.13584e-06 -2.5395e-07 3.23163e-05
0.000870662 3.79631e-05 -1.03357e-06
3.79631e-05 0.000101705 2.22289e-07
-1.03357e-06 2.22289e-07 1.78529e-05
0.00194986 -0.00013895 -3.04963e-06
-0.00013895 0.000190527 1.68056e-06
-3.04963e-06 1.68056e-06 0.0001343
0.000777702 -3.47044e-05 -1.23619e-07
-3.47044e-05 4.53382e-05 3.09072e-08
-1.23619e-07 3.09072e-08 -4.17433e-05
0.000832045 -3.2229e-05 4.4281e-07
-3.2229e-05 7.6126e-05 -3.56806e-07
4.4281e-07 -3.56806e-07 -1.43857e-05
0.00211267 -0.000275918 3.66613e-06
-0.000275918 0.000206941 -1.74501e-06
3.66613e-06 -1.74501e-06 0.000152128
0.000129644 -0.000182466 1.49675e-06
-0.000182466 -0.000471555 1.53218e-06
1.49675e-06 1.53218e-06 -0.000613481
0.00119807 -0.000125484 2.38987e-06
-0.000125484 0.00026816 -1.47695e-06
2.38987e-06 -1.47695e-06 7.91419e-05
0.00097228 -3.52177e-05 -6.86366e-07
-3.52177e-05 0.000176033 -5.58046e-07
-6.86366e-07 -5.58046e-07 4.83703e-05
0.00289729 -0.000245002 2.92476e-06
-0.000245002 0.000976565 -7.40383e-06
2.92476e-06 -7.40383e-06 0.000788988
0.00177836 -0.000236337 -1.51517e-05
-0.000236337 0.000348829 1.39514e-06
-1.51517e-05 1.39514e-06 0.00026972
0.000441081 -1.29764e-05 -1.05037e-05
-1.29764e-05 -8.39457e-05 1.0027e-05
-1.05037e-05 1.0027e-05 -0.000247958
0.000864114 2.37935e-05 5.95849e-07
2.37935e-05 9.11454e-05 9.22804e-07
5.95849e-07 9.22804e-07 4.40194e-06
0.000686395 -7.27531e-05 1.47624e-06
-7.27531e-05 -1.17099e-05 4.06745e-07
1.47624e-06 4.06745e-07 -9.99477e-05
0.000874543 -1.97207e-05 2.36536e-07
-1.97207e-05 8.45352e-05 1.39421e-06
2.36536e-07 1.39421e-06 -5.76045e-06
0.000874319 7.43975e-06 -8.50139e-05
7.43975e-06 0.0012879 -4.79263e-07
-8.50139e-05 -4.79263e-07 0.000951559
0.00179596 -7.99342e-05 1.36818e-05
-7.99342e-05 0.00117543 4.19239e-06
1.36818e-05 4.19239e-06 0.00105321
-0.000401042 0.000235917 -4.57146e-05
0.000235917 -0.00176793 2.1962e-05
-4.57146e-05 2.1962e-05 -0.00234836
0.000756866 8.5595e-05 3.1763e-06
8.5595e-05 7.17897e-05 1.15736e-06
3.1763e-06 1.15736e-06 -3.0644e-05
0.000715648 0.000114429 5.85212e-06
0.000114429 8.28386e-05 1.62621e-06
5.85212e-06 1.62621e-06 -7.27287e-05
0.00292949 0.000224287 1.00466e-05
0.000224287 0.000630926 2.42772e-06
1.00466e-05 2.42772e-06 0.000669382
0.000165591 0.000123505 1.01152e-05
0.000123505 -0.000359682 5.93095e-06
1.01152e-05 5.93095e-06 -0.0005634
0.0039342 -0.000320435 4.61013e-05
-0.000320435 0.00172462 1.29999e-05
4.61013e-05 1.29999e-05 0.00181796
-0.000218666 -0.000171053 -1.12811e-05
-0.000171053 -0.00126552 5.9088e-06
-1.12811e-05 5.9088e-06 -0.00242612
0.0039225 0.00039922 -6.56606e-05
0.00039922 0.000260554 -5.08061e-05
-6.56606e-05 -5.08061e-05 -0.000596203
-1.92869e-05 8.13493e-05 2.23098e-05
8.13493e-05 -0.000532363 -1.38928e-05
2.23098e-05 -1.38928e-05 -0.000478606
-0.00291996 -0.000360243 2.32522e-05
-0.000360243 -0.00138911 6.90091e-06
2.32522e-05 6.90091e-06 -0.00146513
0.00103075 -0.000325416 2.43634e-05
-0.000325416 0.000529211 2.41391e-05
2.43634e-05 2.41391e-05 0.000419888
0.00418223 -0.000519654 6.68422e-05
-0.000519654 -2.10327e-05 4.92372e-05
6.68422e-05 4.92372e-05 0.00120298
0.000849056 7.03428e-05 1.00033e-06
7.03428e-05 0.000146873 -1.46108e-06
1.00033e-06 -1.46108e-06 5.4477e-05
-0.000177514 -0.000131856 -2.70039e-05
-0.000131856 0.000535992 -8.33303e-06
-2.70039e-05 -8.33303e-06 0.000162294
0.00212679 -1.66129e-05 -1.59366e-06
-1.66129e-05 0.000330549 -1.27107e-05
-1.59366e-06 -1.27107e-05 -0.00018292
0.000928532 0.000163103 -6.14925e-06
0.000163103 -2.96151e-05 1.45113e-06
-6.14925e-06 1.45113e-06 -7.11488e-05
0.000678626 0.000107511 -1.17715e-06
0.000107511 0.000135933 7.06481e-07
-1.17715e-06 7.06481e-07 -4.47859e-05
-0.00014024 0.000108735 2.46568e-05
0.000108735 -0.000328878 -1.68496e-05
2.46568e-05 -1.68496e-05 -0.000391452
0.00573868 0.000735079 -1.90363e-05
0.000735079 0.00154686 -1.8546e-06
-1.90363e-05 -1.8546e-06 0.000827022
0.0079357 -0.000331224 2.86414e-05
-0.000331224 0.00290665 1.00773e-05
2.86414e-05 1.00773e-05 0.001418
0.00167061 -0.000443754 1.13607e-06
-0.000443754 -0.000935221 -6.14295e-06
1.13607e-06 -6.14295e-06 -0.000620718
0.00503553 -0.000325923 5.08887e-06
-0.000325923 0.000377659 -4.48089e-06
5.08887e-06 -4.48089e-06 0.00140739
0.00116968 0.000117491 -1.34881e-05
0.000117491 0.000369125 -8.64492e-06
-1.34881e-05 -8.64492e-06 0.000296973
0.00161042 -4.21333e-05 -5.22387e-05
-4.21333e-05 9.68905e-05 -2.4286e-05
-5.22387e-05 -2.4286e-05 -0.000270249
0.00150158 -2.0971e-06 -1.60949e-05
-2.0971e-06 0.000150771 -3.50746e-05
-1.60949e-05 -3.50746e-05 -0.000314563
-0.000911717 -1.26587e-05 -2.24336e-05
-1.26587e-05 -0.000546383 -1.74612e-05
-2.24336e-05 -1.74612e-05 -0.000651259
0.00312175 0.000342898 2.13054e-06
0.000342898 0.000896133 5.22254e-05
2.13054e-06 5.22254e-05 0.000477417
0.00814653 -0.000189105 2.07622e-05
-0.000189105 0.00274882 6.54428e-06
2.07622e-05 6.54428e-06 0.00110662
-0.00472408 -0.000333149 -5.57993e-05
-0.000333149 -0.00346767 -3.52064e-06
-5.57993e-05 -3.52064e-06 -0.00406522
0.00473624 4.10058e-05 -2.89957e-06
4.10058e-05 -0.000157295 -5.11857e-05
-2.89957e-06 -5.11857e-05 0.00101662
0.00103483 5.52211e-05 1.77328e-06
5.52211e-05 0.000185429 4.41853e-06
1.77328e-06 4.41853e-06 0.000113217
0.000818113 6.35174e-05 -1.74188e-06
6.35174e-05 7.11304e-05 -5.52599e-07
-1.74188e-06 -5.52599e-07 2.10762e-05
0.00057063 4.0456e-05 3.00399e-07
4.0456e-05 -3.78417e-05 -4.15204e-06
3.00399e-07 -4.15204e-06 -7.82867e-05
0.000898825 6.15305e-05 -1.28275e-06
6.15305e-05 8.94656e-05 -4.98353e-07
-1.28275e-06 -4.98353e-07 2.03453e-05
0.00092835 -2.85434e-05 -1.26712e-07
-2.85434e-05 0.000105098 1.06401e-06
-1.26712e-07 1.06401e-06 2.90953e-05
0.000991393 -1.66988e-05 -1.00708e-06
-1.66988e-05 0.000130739 1.4649e-06
-1.00708e-06 1.4649e-06 6.39258e-05
0.000763984 -1.81057e-05 -8.29682e-07
-1.81057e-05 1.56206e-05 2.96436e-06
-8.29682e-07 2.96436e-06 -3.96144e-05
0.000906281 1.10372e-05 4.23541e-07
1.10372e-05 8.82458e-05 1.77782e-08
4.23541e-07 1.77782e-08 1.37401e-05
0.000874033 -1.90545e-05 -1.08145e-07
-1.90545e-05 6.01005e-05 -1.90896e-07
-1.08145e-07 -1.90896e-07 -5.46652e-06
0.000814812 -2.57666e-05 1.7301e-07
-2.57666e-05 4.68712e-05 6.15742e-07
1.7301e-07 6.15742e-07 4.29141e-07
0.000714303 -3.42893e-05 1.2835e-09
-3.42893e-05 2.93801e-05 -3.11038e-06
1.2835e-09 -3.11038e-06 -1.46119e-06
0.000924507 -3.00938e-05 3.1564e-06
-3.00938e-05 8.75631e-05 -4.14087e-06
3.1564e-06 -4.14087e-06 3.89093e-05
0.000796033 3.74696e-05 6.36436e-07
3.74696e-05 2.78167e-05 -1.44784e-06
6.36436e-07 -1.44784e-06 -4.57249e-05
0.000883977 -3.36157e-05 9.76268e-07
-3.36157e-05 7.90108e-05 3.70418e-07
9.76268e-07 3.70418e-07 6.11496e-06
0.000821413 5.07028e-05 -2.68739e-07
5.07028e-05 5.41144e-05 3.97389e-07
-2.68739e-07 3.97389e-07 -1.52565e-05
0.000863101 1.72353e-05 -4.30485e-07
1.72353e-05 6.73635e-05 1.30758e-06
-4.30485e-07 1.30758e-06 7.4912e-07
0.000822282 3.20567e-05 2.4833e-08
3.20567e-05 4.65116e-05 8.74346e-08
2.4833e-08 8.74346e-08 -2.55032e-05
0.000805536 5.39279e-05 3.22415e-07
5.39279e-05 5.37122e-05 2.98848e-07
3.22415e-07 2.98848e-07 -1.72614e-05
0.000854451 5.05174e-05 -1.56717e-07
5.05174e-05 7.11316e-05 -9.66544e-09
-1.56717e-07 -9.66544e-09 3.14594e-06
0.000864527 4.24742e-05 1.68926e-06
4.24742e-05 8.10963e-05 -3.86299e-07
1.68926e-06 -3.86299e-07 9.54613e-06
0.000798902 3.48901e-05 4.7376e-07
3.48901e-05 4.3189e-05 -1.40463e-06
4.7376e-07 -1.40463e-06 -2.0446e-05
0.000722577 -4.89714e-05 9.49606e-07
-4.89714e-05 1.87918e-05 -4.03594e-07
9.49606e-07 -4.03594e-07 -6.97733e-05
0.000906068 1.02951e-05 -4.52038e-07
1.02951e-05 0.000110598 -1.39589e-07
-4.52038e-07 -1.39589e-07 2.6521e-05
0.000674673 -3.8905e-05 1.21647e-06
-3.8905e-05 1.70056e-05 1.55883e-06
1.21647e-06 1.55883e-06 -9.14134e-05
0.00103713 -0.000133003 -1.38803e-06
-0.000133003 0.000193399 3.12334e-06
-1.38803e-06 3.12334e-06 5.10695e-05
0.0011087 -2.25457e-05 1.07169e-06
-2.25457e-05 0.000241667 -5.75358e-07
1.07169e-06 -5.75358e-07 0.000143579
0.000637166 -4.75402e-05 -7.70658e-08
-4.75402e-05 6.72524e-06 -2.51674e-06
-7.70658e-08 -2.51674e-06 -0.000109027
0.000782384 3.08019e-05 -5.64966e-07
3.08019e-05 5.63479e-05 -5.33404e-07
-5.64966e-07 -5.33404e-07 -2.54018e-05
0.000589287 3.40707e-05 9.52203e-07
3.40707e-05 -5.93885e-05 7.03524e-07
9.52203e-07 7.03524e-07 -0.000130697
0.000853203 3.80579e-05 -4.23995e-07
3.80579e-05 8.76307e-05 -8.86663e-08
-4.23995e-07 -8.86663e-08 1.26867e-05
0.000822275 1.25128e-05 -2.61983e-07
1.25128e-05 6.27874e-05 3.21671e-07
-2.61983e-07 3.21671e-07 -2.48079e-06
0.000773847 3.80491e-05 -7.04596e-07
3.80491e-05 2.33516e-05 4.71246e-07
-7.04596e-07 4.71246e-07 -2.86298e-05
0.000839881 -1.31194e-05 4.08447e-07
-1.31194e-05 7.39845e-05 1.29054e-08
4.08447e-07 1.29054e-08 6.84869e-06
0.000800495 9.90227e-07 -3.99989e-07
9.90227e-07 3.55918e-05 4.68258e-08
-3.99989e-07 4.68258e-08 -1.63393e-05
0.000763684 2.69849e-05 -1.18144e-06
2.69849e-05 6.08323e-06 1.52811e-06
-1.18144e-06 1.52811e-06 -2.78089e-05
0.000829306 -2.27389e-05 1.22334e-06
-2.27389e-05 4.98783e-05 -3.61878e-07
1.22334e-06 -3.61878e-07 -3.05444e-06
0.000769963 1.75345e-05 -1.4511e-07
1.75345e-05 5.4667e-06 9.17896e-09
-1.4511e-07 9.17896e-09 -2.77048e-05
0.00132506 2.83102e-05 -6.66789e-06
2.83102e-05 0.000309409 4.41399e-06
-6.66789e-06 4.41399e-06 0.000306753
0.000763413 8.07225e-06 1.10672e-06
8.07225e-06 9.4327e-08 -1.44568e-06
1.10672e-06 -1.44568e-06 -3.29717e-05
0.00102291 2.05174e-05 -2.98503e-06
2.05174e-05 0.000137857 6.3028e-07
-2.98503e-06 6.3028e-07 0.000134239
0.000879113 1.79982e-05 -1.06301e-06
1.79982e-05 6.03169e-05 1.62597e-06
-1.06301e-06 1.62597e-06 7.39841e-05
0.000707494 1.26761e-05 4.61449e-07
1.26761e-05 -4.04893e-05 -3.21087e-06
4.61449e-07 -3.21087e-06 -4.52986e-05
0.00151873 1.54194e-05 4.67896e-06
1.54194e-05 0.000411605 -1.29616e-06
4.67896e-06 -1.29616e-06 0.000428909
0.00216561 9.61265e-06 4.88396e-06
9.61265e-06 0.000769277 -4.3156e-06
4.88396e-06 -4.3156e-06 0.000789915
0.000860897 -2.27295e-05 5.4104e-07
-2.27295e-05 7.21825e-05 -5.08849e-07
5.4104e-07 -5.08849e-07 1.78877e-05
0.000778062 -8.24458e-06 -2.73633e-07
-8.24458e-06 9.71877e-06 -1.69554e-06
-2.73633e-07 -1.69554e-06 -2.1554e-05
0.000849604 -4.22271e-06 3.96779e-07
-4.22271e-06 6.92929e-05 1.22523e-07
3.96779e-07 1.22523e-07 1.58015e-05
0.000726662 -6.84596e-06 -3.35864e-07
-6.84596e-06 -3.21602e-05 -3.35348e-06
-3.35864e-07 -3.35348e-06 -3.44575e-05
0.000776392 -4.20962e-06 -6.14636e-08
-4.20962e-06 8.43134e-06 -3.99508e-09
-6.14636e-08 -3.99508e-09 -2.19159e-05
0.000788281 -4.03285e-05 -1.33954e-06
-4.03285e-05 3.69548e-05 1.40993e-06
-1.33954e-06 1.40993e-06 -1.53773e-05
0.00206689 -1.08222e-06 -4.05505e-07
-1.08222e-06 0.000713837 -4.40734e-06
-4.05505e-07 -4.40734e-06 0.000735751
0.000726364 -4.60502e-07 -7.48551e-08
-4.60502e-07 -3.31487e-05 5.18442e-10
-7.48551e-08 5.18442e-10 -3.51193e-05
0.000775114 -1.20323e-06 1.05603e-07
-1.20323e-06 7.92924e-06 1.67619e-06
1.05603e-07 1.67619e-06 -2.21379e-05
0.000727925 5.97651e-06 -9.70206e-08
5.97651e-06 -3.18434e-05 3.38023e-06
-9.70206e-08 3.38023e-06 -3.42777e-05
0.00207713 8.44883e-06 -2.60746e-06
8.44883e-06 0.000720013 -2.36566e-08
-2.60746e-06 -2.36566e-08 0.000741689
0.00210208 1.67949e-05 -1.06432e-05
1.67949e-05 0.000735544 4.30011e-06
-1.06432e-05 4.30011e-06 0.000756643
-0.00151275 7.037e-05 -4.15019e-05
7.037e-05 -5.96117e-05 7.64007e-06
-4.15019e-05 7.64007e-06 -0.000554334
-0.000835593 0.000259346 -7.80303e-06
0.000259346 -0.000265668 4.66486e-06
-7.80303e-06 4.66486e-06 -0.000366107
0.00223528 5.30054e-05 -7.42727e-05
5.30054e-05 0.000224848 5.38084e-05
-7.42727e-05 5.38084e-05 -0.000208135
-0.00160926 0.000290458 6.53469e-05
0.000290458 -0.000410193 -2.70565e-05
6.53469e-05 -2.70565e-05 -0.00041619
0.00264987 9.21446e-05 -9.6416e-05
9.21446e-05 0.00038159 1.23904e-05
-9.6416e-05 1.23904e-05 7.24498e-05
0.00212757 -3.15309e-05 5.16554e-05
-3.15309e-05 0.000192738 -6.729e-06
5.16554e-05 -6.729e-06 0.000139392
0.00114427 -0.0002701 -7.40995e-05
-0.0002701 -0.000773503 -2.69913e-05
-7.40995e-05 -2.69913e-05 -0.00143518
0.0086822 0.000521447 5.84188e-05
0.000521447 0.00424252 -1.67386e-05
5.84188e-05 -1.67386e-05 0.00427001
-0.0035678 0.000728063 -3.91793e-05
0.000728063 -0.00293114 5.4624e-05
-3.91793e-05 5.4624e-05 -0.0012449
0.00143221 5.66628e-06 -6.13546e-06
5.66628e-06 -0.000317165 -2.92243e-06
-6.13546e-06 -2.92243e-06 -0.000530687
0.00196827 0.000156611 1.67942e-05
0.000156611 -1.1387e-06 -1.89581e-05
1.67942e-05 -1.89581e-05 -0.00152176
0.0054144 0.000826611 -1.39804e-05
0.000826611 0.00173242 -2.00176e-05
-1.39804e-05 -2.00176e-05 0.00216389
0.00174129 0.000464173 -1.10914e-05
0.000464173 -0.00117978 2.5539e-05
-1.10914e-05 2.5539e-05 -0.000264625
0.00306747 -0.000146572 -2.41583e-05
-0.000146572 0.000325818 8.93909e-06
-2.41583e-05 8.93909e-06 -2.52228e-05
0.00434088 0.000224745 7.7501e-05
0.000224745 0.00139432 -5.11102e-05
7.7501e-05 -5.11102e-05 -0.000348392
-0.00606254 0.000169665 -7.44454e-05
0.000169665 -0.00446191 -3.51141e-05
-7.44454e-05 -3.51141e-05 -0.00419269
0.00137311 0.00029788 -1.95386e-05
0.00029788 -0.00218109 1.90248e-05
-1.95386e-05 1.90248e-05 -0.00114029
0.000891922 -2.00936e-05 1.04016e-06
-2.00936e-05 0.000110766 5.26863e-07
1.04016e-06 5.26863e-07 2.18478e-05
0.000857674 3.60438e-05 -1.53164e-06
3.60438e-05 9.40564e-05 -4.02007e-07
-1.53164e-06 -4.02007e-07 1.06592e-05
0.000805504 1.65382e-05 7.53418e-07
1.65382e-05 5.75932e-05 -1.42646e-07
7.53418e-07 -1.42646e-07 -9.6009e-06
0.000851803 5.56672e-05 1.80776e-06
5.56672e-05 9.55325e-05 1.13623e-06
1.80776e-06 1.13623e-06 1.46817e-05
0.000772642 1.58307e-05 -2.9927e-07
1.58307e-05 4.47114e-05 7.36996e-07
-2.9927e-07 7.36996e-07 -4.43981e-05
0.000902817 4.3802e-05 1.98862e-07
4.3802e-05 0.000117191 5.76021e-07
1.98862e-07 5.76021e-07 3.45295e-05
0.000801188 2.0753e-06 -4.16453e-08
2.0753e-06 5.78929e-05 1.16889e-06
-4.16453e-08 1.16889e-06 -2.04215e-05
0.000918951 7.2948e-05 -7.10782e-07
7.2948e-05 0.00012494 5.92142e-07
-7.10782e-07 5.92142e-07 4.39256e-05
0.000895308 3.30254e-05 -2.68662e-07
3.30254e-05 0.00011216 3.26911e-07
-2.68662e-07 3.26911e-07 3.43543e-05
0.000736668 -1.76283e-05 -8.45936e-07
-1.76283e-05 2.4453e-05 -2.64363e-07
-8.45936e-07 -2.64363e-07 -4.96092e-05
-0.00040957 -8.22714e-05 1.27916e-05
-8.22714e-05 -0.00103304 -5.91369e-06
1.27916e-05 -5.91369e-06 -0.00106403
0.00140655 -0.000254737 1.06138e-05
-0.000254737 -0.00015962 -4.42611e-07
1.06138e-05 -4.42611e-07 -0.000223714
0.000932949 -0.000222801 8.2964e-06
-0.000222801 -3.998e-05 1.62231e-06
8.2964e-06 1.62231e-06 -0.000185405
0.00120748 -0.000118972 6.02388e-06
-0.000118972 0.000267436 -2.34677e-06
6.02388e-06 -2.34677e-06 8.17307e-05
0.000959881 -2.7459e-05 1.10739e-06
-2.7459e-05 0.000176175 -1.41097e-06
1.10739e-06 -1.41097e-06 3.64305e-05
0.0008007 -4.16529e-05 -6.74586e-07
-4.16529e-05 6.30858e-05 -3.62459e-07
-6.74586e-07 -3.62459e-07 -3.06221e-05
0.00085258 5.30686e-05 -2.81226e-07
5.30686e-05 8.87579e-05 -3.16133e-07
-2.81226e-07 -3.16133e-07 -8.74146e-07
0.000861119 -3.44224e-05 -3.06841e-07
-3.44224e-05 9.22221e-05 3.70706e-07
-3.06841e-07 3.70706e-07 3.1603e-06
0.00130151 -0.000168016 3.56523e-06
-0.000168016 0.000134052 -6.65725e-07
3.56523e-06 -6.65725e-07 1.83965e-05
0.000842149 7.78777e-06 -2.0329e-07
7.78777e-06 7.76502e-05 -2.56018e-07
-2.0329e-07 -2.56018e-07 -1.33381e-05
0.00089003 -2.88184e-05 -1.98237e-08
-2.88184e-05 9.9965e-05 1.3372e-07
-1.98237e-08 1.3372e-07 3.27948e-06
0.00158605 -0.00022821 -1.05848e-06
-0.00022821 0.000244412 5.09686e-07
-1.05848e-06 5.09686e-07 0.000171938
0.00101352 -3.64472e-05 -3.95207e-06
-3.64472e-05 0.000195769 1.97783e-06
-3.95207e-06 1.97783e-06 3.81908e-05
0.000269957 -0.00022737 -3.58744e-07
-0.00022737 -0.000434934 -1.28619e-05
-3.58744e-07 -1.28619e-05 -0.000467566
0.00156496 -8.05806e-05 -1.30519e-05
-8.05806e-05 0.000527933 9.43951e-06
-1.30519e-05 9.43951e-06 0.000412515
0.000422485 2.20232e-05 -3.3092e-06
2.20232e-05 -0.000163486 8.08313e-06
-3.3092e-06 8.08313e-06 -0.000255165
0.000849322 -4.03513e-06 5.93018e-07
-4.03513e-06 6.69032e-05 8.51003e-07
5.93018e-07 8.51003e-07 -1.67103e-05
0.00081589 2.64017e-05 -2.24257e-07
2.64017e-05 5.42846e-05 7.57677e-07
-2.24257e-07 7.57677e-07 -3.81675e-05
0.0012469 -1.71416e-06 -2.5836e-05
-1.71416e-06 -8.31545e-05 -3.63778e-06
-2.5836e-05 -3.63778e-06 -0.000380016
-0.000369106 -1.2283e-05 -3.00991e-05
-1.2283e-05 0.000676385 -1.29978e-06
-3.00991e-05 -1.29978e-06 0.000237535
-0.00612377 -0.000104775 -8.38785e-05
-0.000104775 -0.00300841 -1.10103e-06
-8.38785e-05 -1.10103e-06 -0.00299381
0.000777198 8.74174e-05 6.33486e-06
8.74174e-05 0.000116439 2.22663e-06
6.33486e-06 2.22663e-06 2.01573e-05
-0.000108537 9.06293e-06 6.42107e-06
9.06293e-06 -0.000259326 3.03891e-06
6.42107e-06 3.03891e-06 -0.000444169
0.00123387 0.00010685 1.67229e-05
0.00010685 0.000164573 -7.27881e-07
1.67229e-05 -7.27881e-07 9.95688e-05
-0.00145869 -5.48966e-05 1.55778e-05
-5.48966e-05 -4.62118e-05 7.15193e-06
1.55778e-05 7.15193e-06 -0.000567187
0.00403685 -0.000338966 -1.39828e-05
-0.000338966 0.0012443 -2.22147e-05
-1.39828e-05 -2.22147e-05 -0.000568755
0.00387714 0.000614848 4.33138e-05
0.000614848 0.000445862 -2.14621e-05
4.33138e-05 -2.14621e-05 -7.59648e-05
0.000274751 0.000104108 7.79743e-07
0.000104108 -7.22253e-05 -1.0104e-06
7.79743e-07 -1.0104e-06 -3.09347e-05
0.00581844 -0.000638137 3.47389e-05
-0.000638137 0.00157086 1.50464e-05
3.47389e-05 1.50464e-05 0.00163518
0.00235196 -2.40792e-05 5.1766e-05
-2.40792e-05 0.000495405 3.61843e-05
5.1766e-05 3.61843e-05 -3.41556e-05
0.00487305 -0.000295937 2.69703e-05
-0.000295937 0.000482566 1.30004e-05
2.69703e-05 1.30004e-05 0.0015516
0.000985153 0.000106534 2.00253e-06
0.000106534 0.000278812 -1.72704e-06
2.00253e-06 -1.72704e-06 0.000205917
0.00166706 -3.83952e-05 3.31423e-06
-3.83952e-05 0.000216527 -6.21756e-06
3.31423e-06 -6.21756e-06 -0.000111234
0.00165194 4.56953e-06 2.20828e-06
4.56953e-06 0.000150274 6.20285e-06
2.20828e-06 6.20285e-06 -0.00032446
0.000259645 7.60939e-05 -7.11667e-06
7.60939e-05 6.77976e-05 6.0263e-07
-7.11667e-06 6.0263e-07 -4.72636e-05
0.00313488 0.000422957 -2.16722e-05
0.000422957 0.000626983 -2.95075e-05
-2.16722e-05 -2.95075e-05 0.000316828
0.00333343 0.000313907 4.34328e-05
0.000313907 0.000498486 2.13589e-05
4.34328e-05 2.13589e-05 -0.00141251
0.00336843 1.95676e-05 -1.60529e-07
1.95676e-05 -0.00126537 -2.39432e-05
-1.60529e-07 -2.39432e-05 0.000103433
0.000374197 -0.000223259 -1.18883e-05
-0.000223259 -0.000829997 1.5596e-05
-1.18883e-05 1.5596e-05 -0.00101053
0.00073813 4.81915e-05 -4.1449e-06
4.81915e-05 0.000241092 -9.47099e-06
-4.1449e-06 -9.47099e-06 0.000189436
0.00127952 -2.10637e-05 -1.28105e-05
-2.10637e-05 0.00013211 -1.49041e-05
-1.28105e-05 -1.49041e-05 6.42819e-06
0.0017957 7.50252e-06 3.76501e-06
7.50252e-06 6.45544e-05 -3.32565e-05
3.76501e-06 -3.32565e-05 -0.000367597
0.00137793 0.000281656 1.77629e-05
0.000281656 -0.00208279 -2.13009e-05
1.77629e-05 -2.13009e-05 -0.00113531
-0.00191533 7.67373e-06 6.23303e-06
7.67373e-06 -0.000915959 -1.2732e-05
6.23303e-06 -1.2732e-05 -0.00119848
0.00915934 0.000206917 8.44087e-05
0.000206917 0.00335032 3.37237e-05
8.44087e-05 3.37237e-05 0.00159836
-0.00384877 -0.000105505 2.19979e-05
-0.000105505 -0.00092697 -5.12137e-06
2.19979e-05 -5.12137e-06 -0.00150406
0.00115304 9.11503e-05 6.27399e-06
9.11503e-05 0.000249353 6.2344e-06
6.27399e-06 6.2344e-06 0.000198261
0.000681275 6.30668e-05 -2.62085e-06
6.30668e-05 2.11807e-05 1.33618e-06
-2.62085e-06 1.33618e-06 -2.34776e-05
0.000400918 3.42211e-05 -5.80017e-06
3.42211e-05 -6.501e-05 -6.99287e-06
-5.80017e-06 -6.99287e-06 -0.000110815
0.000894491 8.66147e-05 -2.02641e-07
8.66147e-05 8.61809e-05 7.43532e-07
-2.02641e-07 7.43532e-07 9.11797e-06
0.00086228 2.7495e-06 -6.34353e-07
2.7495e-06 5.34159e-05 1.64752e-06
-6.34353e-07 1.64752e-06 -1.15949e-05
0.000713471 -3.42159e-05 -2.29602e-06
-3.42159e-05 -8.07266e-06 6.99377e-06
-2.29602e-06 6.99377e-06 -5.48831e-05
0.000831451 4.23934e-05 4.63067e-08
4.23934e-05 4.59248e-05 3.97936e-08
4.63067e-08 3.97936e-08 -2.65802e-05
0.000804191 -3.7724e-05 2.65665e-07
-3.7724e-05 2.45447e-05 -1.01168e-06
2.65665e-07 -1.01168e-06 -2.54654e-05
0.000819753 -5.82945e-05 3.22671e-06
-5.82945e-05 7.58371e-05 2.53524e-06
3.22671e-06 2.53524e-06 3.71156e-05
0.000805161 -1.45385e-06 4.63315e-07
-1.45385e-06 8.47892e-05 -4.10771e-06
4.63315e-07 -4.10771e-06 6.19467e-05
0.000833055 1.01693e-05 -9.59706e-08
1.01693e-05 5.03281e-05 -3.23412e-06
-9.59706e-08 -3.23412e-06 -6.92822e-06
0.000845807 3.26332e-05 -1.63308e-07
3.26332e-05 5.52625e-05 1.39325e-06
-1.63308e-07 1.39325e-06 -1.36164e-05
0.0008226 5.51623e-05 -1.26607e-07
5.51623e-05 6.41486e-05 2.7113e-07
-1.26607e-07 2.7113e-07 -7.54426e-06
0.000858632 5.6359e-05 -1.08876e-06
5.6359e-05 7.3677e-05 1.13606e-06
-1.08876e-06 1.13606e-06 5.078e-06
0.000833123 3.41357e-05 3.32373e-07
3.41357e-05 5.96817e-05 1.83463e-07
3.32373e-07 1.83463e-07 -4.18857e-06
0.000875915 4.34252e-05 6.63993e-07
4.34252e-05 8.67473e-05 1.75803e-07
6.63993e-07 1.75803e-07 1.56867e-05
0.000711327 -2.83393e-05 1.21978e-06
-2.83393e-05 3.8743e-05 4.35195e-07
1.21978e-06 4.35195e-07 -3.69966e-05
0.000715635 -2.5272e-05 -5.20639e-07
-2.5272e-05 2.31819e-05 -9.94586e-07
-5.20639e-07 -9.94586e-07 -6.00976e-05
0.000665047 -5.85869e-05 3.03687e-06
-5.85869e-05 8.93017e-06 5.21376e-07
3.03687e-06 5.21376e-07 -0.000123424
0.00100524 -7.36441e-06 -1.48779e-06
-7.36441e-06 0.000164767 -1.6622e-07
-1.48779e-06 -1.6622e-07 7.9996e-05
0.00100798 -6.20679e-05 -7.80339e-07
-6.20679e-05 0.000188928 8.00406e-07
-7.80339e-07 8.00406e-07 7.81519e-05
0.000531466 -0.000105942 -1.02455e-07
-0.000105942 -8.17132e-05 1.90092e-06
-1.02455e-07 1.90092e-06 -0.000230579
0.000816254 -0.000118239 -3.1913e-06
-0.000118239 7.30168e-05 9.95973e-08
-3.1913e-06 9.95973e-08 -7.15121e-05
0.000920389 -9.03153e-05 -1.10551e-06
-9.03153e-05 0.000144603 1.79273e-06
-1.10551e-06 1.79273e-06 3.03881e-05
0.000814237 -0.000117575 -5.73156e-08
-0.000117575 7.5239e-05 6.74749e-07
-5.73156e-08 6.74749e-07 -6.50992e-05
0.000877976 -6.01769e-07 1.00264e-06
-6.01769e-07 0.000101786 8.96595e-07
1.00264e-06 8.96595e-07 2.0222e-05
0.000970518 -2.60534e-05 -6.90315e-07
-2.60534e-05 0.000167733 -6.50986e-07
-6.90315e-07 -6.50986e-07 6.75265e-05
0.000737892 -5.9638e-05 4.68585e-07
-5.9638e-05 6.37886e-05 -4.04603e-06
4.68585e-07 -4.04603e-06 -4.9772e-05
0.0010524 3.46507e-05 -1.92035e-06
3.46507e-05 0.000202064 -1.35045e-06
-1.92035e-06 -1.35045e-06 0.000121812
0.000710927 2.6433e-05 1.21107e-07
2.6433e-05 6.28769e-06 -3.20819e-08
1.21107e-07 -3.20819e-08 -6.39624e-05
0.000768062 4.93257e-05 -1.57025e-07
4.93257e-05 2.53361e-05 6.15262e-07
-1.57025e-07 6.15262e-07 -3.06437e-05
0.000844566 -6.6265e-06 4.36639e-08
-6.6265e-06 7.69725e-05 4.92814e-08
4.36639e-08 4.92814e-08 9.96171e-06
0.000796654 1.23382e-05 -6.01852e-07
1.23382e-05 3.59823e-05 -6.30766e-08
-6.01852e-07 -6.30766e-08 -1.63089e-05
0.000757504 3.26595e-05 -1.37939e-06
3.26595e-05 7.41485e-06 1.47639e-06
-1.37939e-06 1.47639e-06 -2.75437e-05
0.000816626 -2.00048e-05 1.24382e-06
-2.00048e-05 4.49334e-05 -4.80073e-07
1.24382e-06 -4.80073e-07 -7.67807e-06
0.000765854 2.55822e-05 -1.22173e-07
2.55822e-05 6.63928e-06 5.44744e-09
-1.22173e-07 5.44744e-09 -2.7079e-05
0.00128925 3.5422e-05 -7.51705e-06
3.5422e-05 0.000295952 3.07012e-06
-7.51705e-06 3.07012e-06 0.000292272
0.000766849 1.39909e-05 1.24568e-06
1.39909e-05 3.18857e-06 -1.46292e-06
1.24568e-06 -1.46292e-06 -2.97741e-05
0.00101686 2.71397e-05 -3.68181e-06
2.71397e-05 0.00013875 5.83972e-07
-3.68181e-06 5.83972e-07 0.000134534
0.000866852 2.40432e-05 -1.60268e-06
2.40432e-05 5.8821e-05 1.61943e-06
-1.60268e-06 1.61943e-06 7.15741e-05
0.000705663 1.8725e-05 6.64626e-07
1.8725e-05 -3.86031e-05 -3.22059e-06
6.64626e-07 -3.22059e-06 -4.37087e-05
0.00150541 2.29924e-05 6.17505e-06
2.29924e-05 0.000407833 -1.21357e-06
6.17505e-06 -1.21357e-06 0.000424564
0.00215277 1.86267e-05 8.7527e-06
1.86267e-05 0.000764564 -4.19002e-06
8.7527e-06 -4.19002e-06 0.000784828
0.000653224 1.9329e-06 -4.04576e-07
1.9329e-06 -3.73114e-05 -1.03931e-06
-4.04576e-07 -1.03931e-06 -0.000100378
0.000531551 -1.31641e-05 -2.80998e-07
-1.31641e-05 -0.000123861 -2.21756e-06
-2.80998e-07 -2.21756e-06 -0.000158742
0.000886236 -9.23591e-06 -1.18444e-08
-9.23591e-06 8.81086e-05 7.51711e-08
-1.18444e-08 7.51711e-08 3.21424e-05
0.000724794 -1.28996e-05 -3.26924e-07
-1.28996e-05 -3.09885e-05 -3.35665e-06
-3.26924e-07 -3.35665e-06 -3.43652e-05
0.000652138 -8.66964e-06 9.61858e-08
-8.66964e-06 -5.90053e-05 6.02154e-09
9.61858e-08 6.02154e-09 -9.12826e-05
0.000638365 -4.587e-05 2.43272e-07
-4.587e-05 -4.47114e-05 8.86897e-07
2.43272e-07 8.86897e-07 -0.000100331
0.00207855 -9.835e-06 -4.83657e-06
-9.835e-06 0.000721372 -4.37488e-06
-4.83657e-06 -4.37488e-06 0.00074295
0.000724329 -6.55435e-06 -1.83673e-07
-6.55435e-06 -3.34508e-05 -2.52423e-09
-1.83673e-07 -2.52423e-09 -3.57211e-05
0.0007799 -5.22893e-06 3.28934e-08
-5.22893e-06 1.04687e-05 1.67809e-06
3.28934e-08 1.67809e-06 -1.9889e-05
0.00206754 -3.95904e-07 -2.50286e-06
-3.95904e-07 0.000714185 -4.43164e-10
-2.50286e-06 -4.43164e-10 0.000736099
0.000727771 -1.55618e-07 1.48627e-07
-1.55618e-07 -3.24011e-05 3.36355e-06
1.48627e-07 3.36355e-06 -3.43796e-05
0.0020826 9.10513e-06 -5.01949e-06
9.10513e-06 0.000723234 4.40011e-06
-5.01949e-06 4.40011e-06 0.000744814
0.00113224 1.72735e-05 -4.80978e-05
1.72735e-05 -9.16118e-05 1.86196e-05
-4.80978e-05 1.86196e-05 -0.000419675
0.00132835 0.000166304 -1.7477e-06
0.000166304 0.00128068 -4.93222e-06
-1.7477e-06 -4.93222e-06 0.00109159
0.000625042 -0.00011034 -1.45969e-06
-0.00011034 0.000656051 -1.26716e-05
-1.45969e-06 -1.26716e-05 0.000362409
0.000830567 2.59111e-05 -1.24282e-07
2.59111e-05 6.78604e-05 7.1682e-07
-1.24282e-07 7.1682e-07 -1.05051e-05
0.00213276 2.25179e-05 -2.20895e-05
2.25179e-05 0.000487738 3.77951e-05
-2.20895e-05 3.77951e-05 0.000120643
0.00222872 3.67005e-05 -1.87046e-05
3.67005e-05 0.000274961 2.8404e-06
-1.87046e-05 2.8404e-06 -0.000229966
0.00158079 0.000381394 6.64362e-05
0.000381394 0.00101417 -5.00483e-05
6.64362e-05 -5.00483e-05 0.00130182
0.00299894 -6.83842e-05 -2.47597e-05
-6.83842e-05 0.000262055 -4.11492e-06
-2.47597e-05 -4.11492e-06 2.86032e-05
0.00966105 0.000471918 2.63051e-05
0.000471918 0.00368532 -2.64516e-05
2.63051e-05 -2.64516e-05 0.0023757
-0.00259056 0.000436439 1.14059e-05
0.000436439 -0.00232729 7.21202e-06
1.14059e-05 7.21202e-06 -0.00176502
0.00310705 0.000504242 3.33634e-05
0.000504242 -0.000416265 -1.61875e-05
3.33634e-05 -1.61875e-05 0.000537561
0.00288415 -0.000232449 -4.78779e-05
-0.000232449 -6.01533e-05 1.85367e-06
-4.78779e-05 1.85367e-06 -0.000648336
0.00721983 0.000293894 2.54291e-05
0.000293894 0.00276129 -1.12438e-05
2.54291e-05 -1.12438e-05 0.00125655
0.00526038 0.000548931 2.7803e-06
0.000548931 0.000722248 -1.62683e-05
2.7803e-06 -1.62683e-05 0.000919143
0.00316807 0.000308729 -9.44013e-06
0.000308729 -0.00117289 1.62989e-06
-9.44013e-06 1.62989e-06 -0.000155292
0.00371203 -0.000453988 -2.18765e-06
-0.000453988 0.000364378 -1.6511e-05
-2.18765e-06 -1.6511e-05 -0.000451672
0.00763806 3.18371e-05 4.03917e-05
3.18371e-05 0.00335465 3.58081e-06
4.03917e-05 3.58081e-06 0.00115309
0.00122763 0.000112892 1.50978e-06
0.000112892 -0.000746372 5.60603e-06
1.50978e-06 5.60603e-06 -0.000817012
0.00475604 5.26322e-05 -2.94883e-06
5.26322e-05 -0.00021779 2.73834e-05
-2.94883e-06 2.73834e-05 0.000989681
0.000880679 -2.84132e-05 4.56281e-07
-2.84132e-05 9.75402e-05 6.9937e-07
4.56281e-07 6.9937e-07 7.55271e-06
0.000852714 -3.79136e-05 4.61054e-07
-3.79136e-05 9.22888e-05 4.36574e-08
4.61054e-07 4.36574e-08 1.42725e-06
0.000896608 5.50945e-05 -1.09754e-06
5.50945e-05 0.000117256 -1.58914e-07
-1.09754e-06 -1.58914e-07 3.35782e-05
0.000832267 -1.27027e-05 -4.27907e-07
-1.27027e-05 6.44627e-05 4.97962e-07
-4.27907e-07 4.97962e-07 -1.5988e-05
0.000875021 4.82503e-05 -6.06827e-07
4.82503e-05 0.000100846 3.42772e-07
-6.06827e-07 3.42772e-07 1.26465e-05
0.000911578 2.78552e-05 6.91591e-07
2.78552e-05 0.00012307 8.57719e-07
6.91591e-07 8.57719e-07 4.04689e-05
0.000964514 6.64157e-05 -5.99703e-07
6.64157e-05 0.000148148 9.43085e-08
-5.99703e-07 9.43085e-08 6.82282e-05
0.00100447 7.41423e-05 9.42554e-07
7.41423e-05 0.000176096 9.43871e-07
9.42554e-07 9.43871e-07 9.59337e-05
7.34319e-05 -0.000103598 1.90021e-05
-0.000103598 -0.000528793 -7.60458e-06
1.90021e-05 -7.60458e-06 -0.00057761
0.00134336 -0.000218602 7.5461e-06
-0.000218602 0.000112266 -3.89056e-06
7.5461e-06 -3.89056e-06 5.0958e-05
0.000851058 -0.000114346 -1.82928e-06
-0.000114346 9.50937e-05 -3.71828e-07
-1.82928e-06 -3.71828e-07 1.55539e-07
0.00177344 -6.21481e-05 4.40381e-06
-6.21481e-05 0.000576879 -4.11733e-06
4.40381e-06 -4.11733e-06 0.000426752
0.000878041 -4.36375e-05 -2.52312e-07
-4.36375e-05 9.72207e-05 -7.40524e-07
-2.52312e-07 -7.40524e-07 -3.76102e-06
0.000956499 -2.78831e-05 -1.20293e-06
-2.78831e-05 0.000135581 -1.7305e-07
-1.20293e-06 -1.7305e-07 4.80687e-05
0.000919323 1.00744e-05 5.06322e-08
1.00744e-05 0.000111577 -2.7214e-07
5.06322e-08 -2.7214e-07 2.45016e-05
0.000671613 -0.000254263 -5.17347e-06
-0.000254263 -0.000250921 -6.88044e-09
-5.17347e-06 -6.88044e-09 -0.000302057
0.000864566 2.50252e-05 -1.79345e-08
2.50252e-05 8.68321e-05 -3.57605e-07
-1.79345e-08 -3.57605e-07 -7.04046e-06
0.000985101 -2.40799e-05 4.13234e-07
-2.40799e-05 0.000131002 6.3075e-07
4.13234e-07 6.3075e-07 3.4441e-05
0.00055256 -7.10578e-05 7.14777e-07
-7.10578e-05 -2.32923e-05 3.15617e-06
7.14777e-07 3.15617e-06 -0.000113505
0.00100033 -1.72242e-05 5.02261e-07
-1.72242e-05 0.000140842 1.01218e-06
5.02261e-07 1.01218e-06 6.48976e-05
0.000144431 -0.000262483 4.12537e-05
-0.000262483 -0.000402096 -2.66652e-05
4.12537e-05 -2.66652e-05 -0.000371516
0.00118138 -4.11924e-05 -1.07464e-05
-4.11924e-05 0.000503975 1.49182e-05
-1.07464e-05 1.49182e-05 0.000384083
0.00050474 5.50928e-06 -1.19913e-06
5.50928e-06 -0.000129664 4.29657e-06
-1.19913e-06 4.29657e-06 -0.000205094
0.000876128 9.49467e-05 1.76939e-06
9.49467e-05 8.83958e-05 1.54155e-06
1.76939e-06 1.54155e-06 5.54042e-06
0.00141576 -6.65064e-06 -1.4124e-05
-6.65064e-06 0.000237353 2.0207e-07
-1.4124e-05 2.0207e-07 0.000153804
0.00113854 -1.44377e-05 2.66812e-05
-1.44377e-05 -0.000100316 -2.10499e-06
2.66812e-05 -2.10499e-06 -0.000396394
-0.00165605 -3.00662e-05 8.43907e-06
-3.00662e-05 6.06114e-05 1.11313e-06
8.43907e-06 1.11313e-06 -0.000500134
0.00068403 8.41961e-05 1.083e-05
8.41961e-05 0.000129126 2.37616e-06
1.083e-05 2.37616e-06 5.66268e-05
0.000514206 0.000142659 2.12845e-05
0.000142659 0.000210533 1.03655e-05
2.12845e-05 1.03655e-05 8.05321e-05
0.0017752 -3.36029e-05 4.71111e-05
-3.36029e-05 0.000351442 1.09408e-05
4.71111e-05 1.09408e-05 6.86218e-05
0.00730575 -0.000373654 6.58498e-05
-0.000373654 0.00275681 3.08346e-05
6.58498e-05 3.08346e-05 0.000927424
0.0023826 0.000419109 -6.73269e-05
0.000419109 0.000309567 -8.00811e-05
-6.73269e-05 -8.00811e-05 -0.000400264
0.00345952 -0.000272993 2.46311e-05
-0.000272993 0.000347114 2.25529e-05
2.46311e-05 2.25529e-05 6.82341e-05
0.00178457 1.00224e-05 1.81866e-05
1.00224e-05 0.000139853 4.76839e-05
1.81866e-05 4.76839e-05 -0.000347037
0.00207322 8.86317e-06 2.70029e-06
8.86317e-06 -0.00236761 -1.13766e-05
2.70029e-06 -1.13766e-05 -0.000835202
0.000760099 8.18111e-05 9.32765e-07
8.18111e-05 0.000248225 -1.20675e-07
9.32765e-07 -1.20675e-07 0.000186028
0.00126705 -1.86383e-05 -4.31218e-07
-1.86383e-05 0.000108431 -4.83057e-06
-4.31218e-07 -4.83057e-06 -8.70632e-06
0.00191361 8.91543e-06 8.25004e-06
8.91543e-06 0.00024255 3.38248e-06
8.25004e-06 3.38248e-06 -0.000122122
-0.000657142 7.72547e-05 -1.29248e-05
7.72547e-05 -0.000251688 -3.86798e-06
-1.29248e-05 -3.86798e-06 -0.000451546
0.00314178 0.000299305 6.41676e-06
0.000299305 -0.00112904 -1.6274e-06
6.41676e-06 -1.6274e-06 -0.000161467
0.00537084 0.000554491 4.31492e-05
0.000554491 0.00152624 5.68156e-06
4.31492e-05 5.68156e-06 -0.000271454
0.00278392 0.000132982 -4.92527e-05
0.000132982 0.00106809 -4.25013e-06
-4.92527e-05 -4.25013e-06 0.000660861
0.000145782 7.69436e-05 -1.07037e-05
7.69436e-05 4.57784e-05 -1.16245e-05
-1.07037e-05 -1.16245e-05 -6.37149e-05
0.00127126 1.33557e-06 -7.0257e-07
1.33557e-06 0.00013836 -1.4112e-05
-7.0257e-07 -1.4112e-05 3.13713e-05
0.00217503 1.84792e-05 2.13868e-05
1.84792e-05 0.000476999 -3.75209e-05
2.13868e-05 -3.75209e-05 0.000133358
0.00360686 0.000460841 5.43268e-05
0.000460841 -3.17998e-05 -3.55557e-05
5.43268e-05 -3.55557e-05 0.000777013
0.00242124 0.00017953 -1.38567e-05
0.00017953 -0.000313432 -5.59424e-06
-1.38567e-05 -5.59424e-06 -0.000259728
0.00232555 0.000278805 1.55362e-05
0.000278805 0.000335924 -1.86172e-05
1.55362e-05 -1.86172e-05 0.000426821
0.00225166 -2.7291e-05 9.8169e-05
-2.7291e-05 0.0011807 3.11845e-05
9.8169e-05 3.11845e-05 -0.0012999
0.000615695 7.9428e-05 2.82448e-06
7.9428e-05 -1.32413e-05 6.18018e-06
2.82448e-06 6.18018e-06 -6.14196e-05
0.000637699 1.66702e-05 5.6046e-06
1.66702e-05 6.2239e-05 9.25664e-07
5.6046e-06 9.25664e-07 1.85017e-05
0.000452719 -1.84149e-05 1.09883e-05
-1.84149e-05 0.000147348 -1.1193e-05
1.09883e-05 -1.1193e-05 8.3709e-05
0.000850538 2.24091e-05 -3.02965e-07
2.24091e-05 5.17065e-05 1.51041e-06
-3.02965e-07 1.51041e-06 -1.72923e-05
0.000687927 -3.62366e-05 -1.1369e-06
-3.62366e-05 -3.87777e-05 3.38189e-06
-1.1369e-06 3.38189e-06 -8.84734e-05
0.000903525 -6.4382e-05 -3.91681e-06
-6.4382e-05 0.00010959 7.17052e-06
-3.91681e-06 7.17052e-06 6.60099e-05
0.000838755 -3.02999e-06 -1.74171e-07
-3.02999e-06 5.54968e-05 -3.0194e-07
-1.74171e-07 -3.0194e-07 -2.76707e-06
0.000612249 -9.79666e-06 -2.07169e-06
-9.79666e-06 -3.0754e-05 2.70361e-06
-2.07169e-06 2.70361e-06 -4.97631e-05
0.000332867 -7.21875e-05 3.21564e-06
-7.21875e-05 -6.2928e-05 -4.10373e-06
3.21564e-06 -4.10373e-06 -0.000173367
0.000873929 2.81839e-05 8.25961e-08
2.81839e-05 7.99566e-05 1.53493e-06
8.25961e-08 1.53493e-06 1.5791e-05
0.000877862 5.48584e-05 -4.26532e-07
5.48584e-05 8.87145e-05 1.14459e-06
-4.26532e-07 1.14459e-06 1.74802e-05
0.00108783 -3.70712e-05 8.10108e-07
-3.70712e-05 0.000233073 6.89187e-07
8.10108e-07 6.89187e-07 0.000152678
0.000480748 -4.79087e-05 3.81907e-06
-4.79087e-05 -1.14149e-05 1.1596e-06
3.81907e-06 1.1596e-06 -0.000170985
0.000648071 -1.18319e-06 -4.06876e-06
-1.18319e-06 -3.93325e-06 -3.78076e-07
-4.06876e-06 -3.78076e-07 -8.2233e-05
0.000430397 -5.70999e-05 6.85956e-07
-5.70999e-05 -0.000111722 -3.24712e-07
6.85956e-07 -3.24712e-07 -0.000235912
0.00106474 -0.000148406 3.14713e-06
-0.000148406 0.000213925 -4.98936e-07
3.14713e-06 -4.98936e-07 3.2642e-05
0.0011313 -0.000153938 -2.05647e-06
-0.000153938 0.000173979 3.61037e-06
-2.05647e-06 3.61037e-06 -3.56138e-06
0.00133674 -8.52081e-05 -1.87039e-06
-8.52081e-05 0.000358463 -7.08216e-07
-1.87039e-06 -7.08216e-07 0.000245226
0.000729854 -0.000119408 -3.34665e-07
-0.000119408 1.77295e-05 5.92088e-08
-3.34665e-07 5.92088e-08 -0.000134018
0.00138591 -0.000157496 6.40833e-07
-0.000157496 0.000371377 -7.60758e-07
6.40833e-07 -7.60758e-07 0.0002265
0.000489942 -8.34154e-05 -1.36688e-06
-8.34154e-05 -7.83489e-05 5.92232e-08
-1.36688e-06 5.92232e-08 -0.000204311
0.000883669 -0.000122354 1.5497e-07
-0.000122354 0.000107532 2.8366e-07
1.5497e-07 2.8366e-07 -3.43069e-05
0.000897534 -6.99935e-06 -2.78176e-07
-6.99935e-06 0.000116139 6.3148e-07
-2.78176e-07 6.3148e-07 2.63587e-05
0.00100378 -8.90056e-05 -1.56433e-06
-8.90056e-05 0.000187946 1.3343e-06
-1.56433e-06 1.3343e-06 7.32844e-05
0.000585481 -0.000101795 -6.0612e-07
-0.000101795 -4.60127e-05 -7.82227e-07
-6.0612e-07 -7.82227e-07 -0.000184526
0.000782333 4.97978e-05 2.26403e-07
4.97978e-05 3.86356e-05 8.60278e-07
2.26403e-07 8.60278e-07 -2.41824e-05
0.000753188 3.79827e-07 7.4509e-07
3.79827e-07 3.46234e-05 -3.61413e-08
7.4509e-07 -3.61413e-08 -4.72033e-05
0.000838698 -2.98502e-05 6.93208e-07
-2.98502e-05 9.71256e-05 -2.31942e-06
6.93208e-07 -2.31942e-06 -5.21135e-06
0.000832497 1.73889e-05 -7.51211e-08
1.73889e-05 7.18488e-05 -5.9722e-07
-7.51211e-08 -5.9722e-07 2.77024e-06
0.000793653 2.42811e-05 -4.93871e-07
2.42811e-05 3.77205e-05 -1.61501e-07
-4.93871e-07 -1.61501e-07 -1.7585e-05
0.000749003 4.04953e-05 -1.39321e-06
4.04953e-05 9.2639e-06 1.36033e-06
-1.39321e-06 1.36033e-06 -2.78216e-05
0.000813133 -9.23403e-06 8.97407e-07
-9.23403e-06 4.53255e-05 -6.5739e-07
8.97407e-07 -6.5739e-07 -7.32351e-06
0.00075854 3.32959e-05 -6.93172e-08
3.32959e-05 7.76927e-06 6.77819e-11
-6.93172e-08 6.77819e-11 -2.71982e-05
0.000681291 3.53827e-05 -1.23431e-06
3.53827e-05 -3.43321e-05 3.29528e-06
-1.23431e-06 3.29528e-06 -4.2748e-05
0.000766723 2.37258e-05 1.2096e-06
2.37258e-05 6.4426e-06 -1.4786e-06
1.2096e-06 -1.4786e-06 -2.70754e-05
0.000699903 3.04395e-05 1.21736e-07
3.04395e-05 -3.12693e-05 2.25093e-08
1.21736e-07 2.25093e-08 -3.81129e-05
0.0020337 4.6832e-05 -4.75788e-06
4.6832e-05 0.000713138 1.56713e-06
-4.75788e-06 1.56713e-06 0.000730365
0.000704247 2.47999e-05 8.63389e-07
2.47999e-05 -3.51149e-05 -3.23221e-06
8.63389e-07 -3.23221e-06 -4.08219e-05
0.00148875 3.02946e-05 7.50663e-06
3.02946e-05 0.000403613 -1.11674e-06
7.50663e-06 -1.11674e-06 0.000419463
0.00213387 2.73867e-05 1.24363e-05
2.73867e-05 0.000757904 -4.02577e-06
1.24363e-05 -4.02577e-06 0.000777536
0.0006812 -1.838e-05 -1.81742e-07
-1.838e-05 -3.00767e-05 -6.2974e-07
-1.81742e-07 -6.2974e-07 -9.05506e-05
0.000509705 -1.64906e-05 -3.29409e-07
-1.64906e-05 -0.000134574 -2.13055e-06
-3.29409e-07 -2.13055e-06 -0.000172089
0.000774751 2.03837e-06 -3.42382e-07
2.03837e-06 2.79092e-05 -5.22394e-07
-3.42382e-07 -5.22394e-07 -3.36207e-05
0.000719231 -1.89904e-05 -3.66477e-07
-1.89904e-05 -3.05291e-05 -3.38226e-06
-3.66477e-07 -3.38226e-06 -3.56252e-05
0.000521118 -1.3405e-05 -7.65433e-10
-1.3405e-05 -0.000129585 -6.47563e-07
-7.65433e-10 -6.47563e-07 -0.000164751
0.000905208 1.75349e-06 -1.23578e-07
1.75349e-06 0.000102193 7.4088e-07
-1.23578e-07 7.4088e-07 4.35146e-05
0.00210613 -1.87549e-05 -8.67478e-06
-1.87549e-05 0.000739068 -4.32119e-06
-8.67478e-06 -4.32119e-06 0.000759818
0.000719945 -1.25812e-05 -1.09367e-07
-1.25812e-05 -3.36697e-05 -1.08075e-08
-1.09367e-07 -1.08075e-08 -3.69928e-05
0.000525938 -8.86667e-06 1.86051e-07
-8.86667e-06 -0.000127828 1.61573e-06
1.86051e-07 1.61573e-06 -0.000161107
0.00207221 -9.19882e-06 -2.68669e-06
-9.19882e-06 0.000717665 2.43846e-08
-2.68669e-06 2.43846e-08 0.000739336
0.000722946 -6.26833e-06 1.79016e-07
-6.26833e-06 -3.42075e-05 3.35095e-06
1.79016e-07 3.35095e-06 -3.64572e-05
0.00206379 2.92481e-07 -5.88146e-07
2.92481e-07 0.0007121 4.41391e-06
-5.88146e-07 4.41391e-06 0.000734023
0.00125928 2.07236e-05 -1.43361e-05
2.07236e-05 9.48007e-05 1.38797e-05
-1.43361e-05 1.38797e-05 -2.36791e-05
0.00138155 2.53761e-05 6.57086e-06
2.53761e-05 6.19986e-05 -2.12225e-06
6.57086e-06 -2.12225e-06 -0.000265365
0.0012862 0.000132813 4.64002e-05
0.000132813 0.00133971 -1.81043e-05
4.64002e-05 -1.81043e-05 0.00112697
0.000856389 2.40974e-05 1.51828e-07
2.40974e-05 7.90096e-05 5.96561e-08
1.51828e-07 5.96561e-08 3.56262e-06
0.000772539 -8.50082e-06 3.79563e-08
-8.50082e-06 2.91746e-05 4.26498e-07
3.79563e-08 4.26498e-07 -4.36888e-05
0.000915735 4.02718e-05 -3.37613e-07
4.02718e-05 0.000112902 1.20338e-06
-3.37613e-07 1.20338e-06 3.29281e-05
0.00176641 1.59136e-05 2.67864e-06
1.59136e-05 7.81723e-05 5.77052e-05
2.67864e-06 5.77052e-05 -0.000371902
0.00215556 2.84933e-05 -6.5886e-06
2.84933e-05 0.000495886 1.86412e-06
-6.5886e-06 1.86412e-06 0.000125926
0.00235938 2.87871e-05 3.90074e-05
2.87871e-05 0.000392029 -4.35455e-05
3.90074e-05 -4.35455e-05 -0.000165248
0.00430299 -0.00025792 -6.03563e-05
-0.00025792 0.000774637 3.36423e-06
-6.03563e-05 3.36423e-06 0.00022296
-0.000282333 1.28837e-05 -3.78047e-05
1.28837e-05 -0.000611342 1.99277e-05
-3.78047e-05 1.99277e-05 -0.00234491
0.00436359 0.000593132 6.16181e-05
0.000593132 0.000915982 -1.55295e-05
6.16181e-05 -1.55295e-05 0.000915841
0.00145976 0.000221776 1.08797e-05
0.000221776 -0.00224533 -2.90405e-05
1.08797e-05 -2.90405e-05 -0.00117542
0.00465453 -0.000543711 -9.41331e-06
-0.000543711 0.0011179 3.51566e-06
-9.41331e-06 3.51566e-06 0.000565107
0.00622248 -3.01441e-06 1.26672e-05
-3.01441e-06 0.00234683 -7.52949e-06
1.26672e-05 -7.52949e-06 0.000548182
2.13323e-05 0.000114254 -1.05366e-05
0.000114254 -0.000684032 -1.04012e-05
-1.05366e-05 -1.04012e-05 -0.000893014
0.00340428 2.49965e-05 -5.3236e-06
2.49965e-05 -0.00126226 4.14525e-06
-5.3236e-06 4.14525e-06 7.47023e-05
0.00204586 -0.000458084 -3.03573e-05
-0.000458084 -0.000302657 -3.66991e-05
-3.03573e-05 -3.66991e-05 -0.000828718
0.00907646 -0.000335639 6.54722e-05
-0.000335639 0.0039448 8.39438e-06
6.54722e-05 8.39438e-06 0.00174575
-0.0038538 8.32648e-05 2.89362e-05
8.32648e-05 -0.00101544 -1.21578e-05
2.89362e-05 -1.21578e-05 -0.00157695
0.0016002 -0.000244131 4.69813e-06
-0.000244131 -0.00178837 1.79196e-06
4.69813e-06 1.79196e-06 -0.000734118
0.000868577 4.28704e-06 -9.26166e-08
4.28704e-06 8.20437e-05 1.3134e-06
-9.26166e-08 1.3134e-06 -3.01063e-06
0.000855702 -1.50686e-05 2.0803e-07
-1.50686e-05 8.64886e-05 -5.28959e-08
2.0803e-07 -5.28959e-08 -5.57629e-06
0.000823543 -4.8057e-05 -1.15001e-07
-4.8057e-05 7.75535e-05 -4.69338e-07
-1.15001e-07 -4.69338e-07 -1.42461e-05
0.00084969 1.12712e-05 -3.22364e-07
1.12712e-05 7.42626e-05 -2.39469e-07
-3.22364e-07 -2.39469e-07 -6.95337e-06
0.000976272 8.64195e-05 1.3609e-06
8.64195e-05 0.000155476 -8.12761e-08
1.3609e-06 -8.12761e-08 6.87287e-05
0.00101662 7.66348e-05 -6.71742e-08
7.66348e-05 0.000177283 -1.35687e-08
-6.71742e-08 -1.35687e-08 9.66347e-05
0.00119388 -0.00028153 -2.23722e-06
-0.00028153 6.62566e-06 7.00859e-06
-2.23722e-06 7.00859e-06 -7.34211e-05
-0.000761012 -5.33242e-05 8.25678e-06
-5.33242e-05 -0.000716961 -5.41128e-06
8.25678e-06 -5.41128e-06 -0.000788464
0.00101109 4.65072e-05 -6.61575e-07
4.65072e-05 0.000169034 -7.87351e-07
-6.61575e-07 -7.87351e-07 7.80666e-05
0.00136336 -7.20889e-05 8.00641e-06
-7.20889e-05 0.000323371 -9.58717e-06
8.00641e-06 -9.58717e-06 0.000222804
0.00101111 1.62285e-05 -3.61026e-07
1.62285e-05 0.000167773 -1.73034e-06
-3.61026e-07 -1.73034e-06 7.57486e-05
0.000910277 -5.69508e-06 1.92518e-08
-5.69508e-06 9.16631e-05 -3.7685e-07
1.92518e-08 -3.7685e-07 1.29916e-05
0.000972028 5.18131e-05 4.59811e-07
5.18131e-05 0.000137952 -3.57259e-07
4.59811e-07 -3.57259e-07 5.96956e-05
0.000600313 -0.000251662 -9.16793e-06
-0.000251662 -0.000177691 -1.72878e-06
-9.16793e-06 -1.72878e-06 -0.000194469
0.000946431 -1.99787e-05 8.66539e-07
-1.99787e-05 0.000116975 -1.68753e-06
8.66539e-07 -1.68753e-06 4.41771e-05
0.00062888 -1.81207e-05 7.14493e-06
-1.81207e-05 0.00021825 -1.43506e-06
7.14493e-06 -1.43506e-06 0.000107172
0.000977418 1.66311e-05 2.33385e-06
1.66311e-05 0.000137704 1.29915e-06
2.33385e-06 1.29915e-06 6.55207e-05
-0.00190156 -2.64249e-05 8.2549e-06
-2.64249e-05 -0.000931507 -2.62509e-05
8.2549e-06 -2.62509e-05 -0.00120458
0.0014063 5.84987e-06 1.02319e-05
5.84987e-06 0.000589486 1.89481e-05
1.02319e-05 1.89481e-05 0.000554395
0.00112527 -1.57473e-05 1.23701e-06
-1.57473e-05 0.000223529 4.63142e-06
1.23701e-06 4.63142e-06 0.000167936
0.00140686 -5.57011e-06 -5.49916e-07
-5.57011e-06 0.000302545 2.10002e-07
-5.49916e-07 2.10002e-07 0.000253959
0.00105936 -4.68592e-06 -5.46237e-06
-4.68592e-06 5.60629e-05 -1.3401e-06
-5.46237e-06 -1.3401e-06 -1.60687e-05
0.00104319 -2.51217e-05 8.1864e-05
-2.51217e-05 -0.000112111 -1.21451e-06
8.1864e-05 -1.21451e-06 -0.000408153
0.00112591 0.000122257 1.51964e-05
0.000122257 0.00043101 1.08483e-05
1.51964e-05 1.08483e-05 0.000360093
0.00348898 0.00032618 4.63016e-06
0.00032618 0.00147894 -1.44564e-05
4.63016e-06 -1.44564e-05 0.00136369
0.00126292 -1.72628e-05 8.93053e-06
-1.72628e-05 8.92624e-05 5.2471e-06
8.93053e-06 5.2471e-06 -1.91641e-05
0.000791976 0.000242054 -9.96798e-06
0.000242054 -0.000284386 -3.03284e-07
-9.96798e-06 -3.03284e-07 -0.00203047
-0.00656043 1.98878e-05 -2.81716e-05
1.98878e-05 -0.00322216 4.95169e-06
-2.81716e-05 4.95169e-06 -0.0038914
0.00204899 1.33772e-05 9.1597e-06
1.33772e-05 0.000432464 3.10769e-05
9.1597e-06 3.10769e-05 0.000144635
0.00152838 0.000221305 -9.41306e-06
0.000221305 -0.00217484 2.88249e-05
-9.41306e-06 2.88249e-05 -0.00111939
0.000341829 6.00494e-05 -2.15922e-06
6.00494e-05 0.00014332 -1.8182e-06
-2.15922e-06 -1.8182e-06 5.27442e-05
0.00112121 -1.8121e-06 2.08069e-06
-1.8121e-06 7.47982e-05 -5.38725e-06
2.08069e-06 -5.38725e-06 -1.71025e-05
0.00218305 2.19106e-05 6.37904e-06
2.19106e-05 0.000482746 -1.75462e-06
6.37904e-06 -1.75462e-06 0.000128309
0.00156928 0.000265298 4.32081e-05
0.000265298 -0.000172897 9.02205e-09
4.32081e-05 9.02205e-09 -0.000271097
0.00182874 0.000454083 9.12702e-06
0.000454083 -0.00109254 -2.22587e-05
9.12702e-06 -2.22587e-05 -0.000254327
6.11615e-05 0.0001187 1.13803e-05
0.0001187 -0.000965975 7.05657e-06
1.13803e-05 7.05657e-06 -0.000956265
0.00666589 0.00013385 5.14818e-05
0.00013385 0.00328708 -1.56391e-05
5.14818e-05 -1.56391e-05 0.000571555
4.83763e-05 5.24249e-06 -1.01518e-05
5.24249e-06 0.000185752 -1.20788e-05
-1.01518e-05 -1.20788e-05 -1.15381e-05
0.00120462 1.69374e-05 1.33591e-05
1.69374e-05 5.07231e-05 -1.31242e-05
1.33591e-05 -1.31242e-05 -6.49181e-05
0.00224983 5.18985e-05 7.32604e-05
5.18985e-05 0.000194857 -5.22293e-05
7.32604e-05 -5.22293e-05 -0.000231614
0.00222907 0.000654361 1.10819e-05
0.000654361 0.000614536 -7.63861e-06
1.10819e-05 -7.63861e-06 0.00162913
-0.00634966 0.000135757 6.10163e-05
0.000135757 -0.00445734 3.90397e-05
6.10163e-05 3.90397e-05 -0.00424652
0.00851658 -7.86683e-05 3.52213e-05
-7.86683e-05 0.00346555 -5.04291e-05
3.52213e-05 -5.04291e-05 0.00120446
0.00440371 -0.000234079 -6.26718e-05
-0.000234079 0.000930563 0.000119094
-6.26718e-05 0.000119094 0.00104157
0.0010343 4.64754e-06 -1.40114e-06
4.64754e-06 0.000283279 6.8591e-06
-1.40114e-06 6.8591e-06 0.000240198
6.78536e-05 -1.39911e-05 2.615e-06
-1.39911e-05 -5.58349e-05 -9.51047e-07
2.615e-06 -9.51047e-07 -0.000136898
-0.000160804 -9.4987e-05 6.7107e-06
-9.4987e-05 -0.000111265 -1.01317e-05
6.7107e-06 -1.01317e-05 -0.000276095
0.000844376 -1.53181e-05 3.53935e-08
-1.53181e-05 6.31042e-05 1.4972e-06
3.53935e-08 1.4972e-06 2.29524e-06
0.00045547 -1.41227e-05 1.21305e-06
-1.41227e-05 -0.000126739 1.01154e-05
1.21305e-06 1.01154e-05 -0.000142599
0.000543349 -2.02032e-05 -3.23129e-08
-2.02032e-05 4.47735e-05 1.22208e-08
-3.23129e-08 1.22208e-08 -5.09711e-05
0.000892879 -0.000123259 1.25912e-05
-0.000123259 0.000300709 -7.37616e-06
1.25912e-05 -7.37616e-06 8.91958e-05
0.00152712 -5.17924e-05 -1.53299e-06
-5.17924e-05 0.000460911 1.45298e-06
-1.53299e-06 1.45298e-06 0.00037613
0.00125023 -0.00012473 9.43535e-07
-0.00012473 0.000370161 5.18633e-07
9.43535e-07 5.18633e-07 0.00020679
0.000999184 -0.000152882 5.2327e-06
-0.000152882 0.000230799 2.46409e-06
5.2327e-06 2.46409e-06 -2.37301e-05
0.000175621 -5.21176e-05 -1.74933e-06
-5.21176e-05 -0.000243986 -1.36538e-06
-1.74933e-06 -1.36538e-06 -0.000359361
0.00105265 -0.000145202 -2.74197e-07
-0.000145202 0.000204626 7.7233e-07
-2.74197e-07 7.7233e-07 1.73655e-05
0.00189836 -0.000221688 1.24648e-06
-0.000221688 0.000569919 1.9061e-06
1.24648e-06 1.9061e-06 0.000346073
0.00173538 -0.000213057 -3.01567e-06
-0.000213057 0.000397939 1.402e-06
-3.01567e-06 1.402e-06 0.000199152
0.000638977 -0.000118472 -2.4625e-07
-0.000118472 -6.905e-05 4.34371e-06
-2.4625e-07 4.34371e-06 -0.000226395
0.0011409 -0.000155143 -1.73651e-06
-0.000155143 0.000178687 1.24134e-06
-1.73651e-06 1.24134e-06 -3.3688e-07
0.000920667 -0.000132338 -2.34006e-06
-0.000132338 0.000113594 1.39729e-07
-2.34006e-06 1.39729e-07 -4.12074e-05
0.00132903 -0.000150849 2.00948e-06
-0.000150849 0.000349878 -1.74602e-06
2.00948e-06 -1.74602e-06 0.000214636
0.0010758 -0.000135957 2.13316e-06
-0.000135957 0.000210362 -1.62577e-06
2.13316e-06 -1.62577e-06 7.1296e-05
0.000700213 -3.81794e-05 4.04874e-07
-3.81794e-05 2.1386e-05 1.04513e-06
4.04874e-07 1.04513e-06 -8.59301e-05
0.000793719 -9.56258e-05 9.24503e-07
-9.56258e-05 8.38152e-05 -3.93581e-07
9.24503e-07 -3.93581e-07 -4.17133e-05
0.000944035 -0.000125864 4.11198e-06
-0.000125864 0.000138264 -2.64495e-06
4.11198e-06 -2.64495e-06 -8.10414e-07
0.000788604 5.25091e-05 5.23793e-07
5.25091e-05 4.95264e-05 1.27709e-06
5.23793e-07 1.27709e-06 -2.46541e-05
0.000900107 -2.54269e-05 -1.69895e-07
-2.54269e-05 0.000118933 8.93167e-08
-1.69895e-07 8.93167e-08 2.7113e-05
0.00107336 -8.67966e-05 -2.65515e-07
-8.67966e-05 0.000223697 -9.48848e-08
-2.65515e-07 -9.48848e-08 0.000108956
0.000725366 5.02137e-05 -9.87051e-07
5.02137e-05 4.85103e-06 1.45551e-06
-9.87051e-07 1.45551e-06 -3.67412e-05
0.000795507 2.86449e-05 -4.98503e-07
2.86449e-05 4.43041e-05 -2.53119e-07
-4.98503e-07 -2.53119e-07 -1.78705e-05
0.000633075 1.04922e-06 1.06588e-08
1.04922e-06 -2.99607e-05 -8.22322e-07
1.06588e-08 -8.22322e-07 -0.000112096
0.000819896 1.6633e-06 7.56109e-07
1.6633e-06 5.08858e-05 -9.28171e-07
7.56109e-07 -9.28171e-07 -4.04894e-06
0.000750278 4.30965e-05 -1.06142e-07
4.30965e-05 1.03874e-05 -2.89379e-08
-1.06142e-07 -2.89379e-08 -2.7052e-05
0.00066592 4.06584e-05 -1.47867e-06
4.06584e-05 -3.4252e-05 3.27659e-06
-1.47867e-06 3.27659e-06 -4.48382e-05
0.000762571 3.42296e-05 1.17691e-06
3.42296e-05 9.81897e-06 -1.51772e-06
1.17691e-06 -1.51772e-06 -2.51856e-05
0.000692105 3.60874e-05 8.68121e-08
3.60874e-05 -2.85007e-05 8.97882e-09
8.68121e-08 8.97882e-09 -3.6961e-05
0.00207915 5.07859e-05 -2.11078e-05
5.07859e-05 0.000744813 3.51385e-06
-2.11078e-05 3.51385e-06 0.000760915
0.000704963 3.09066e-05 1.03904e-06
3.09066e-05 -2.88962e-05 -3.25115e-06
1.03904e-06 -3.25115e-06 -3.5711e-05
0.00147651 3.77483e-05 8.78024e-06
3.77483e-05 0.000403777 -1.00516e-06
8.78024e-06 -1.00516e-06 0.000418257
0.00211229 3.58477e-05 1.58182e-05
3.58477e-05 0.000751122 -3.82454e-06
1.58182e-05 -3.82454e-06 0.00076982
0.000813216 2.39996e-05 -5.65351e-07
2.39996e-05 4.14574e-05 -3.10963e-07
-5.65351e-07 -3.10963e-07 -1.90471e-05
0.000741947 -1.98386e-05 -6.9512e-07
-1.98386e-05 -6.77693e-06 -1.47085e-06
-6.9512e-07 -1.47085e-06 -4.44165e-05
0.000729718 1.81681e-05 -7.58295e-07
1.81681e-05 9.67665e-07 -4.29342e-07
-7.58295e-07 -4.29342e-07 -6.18498e-05
0.000709179 -2.50649e-05 -3.07363e-07
-2.50649e-05 -3.13092e-05 -3.4333e-06
-3.07363e-07 -3.4333e-06 -3.8507e-05
0.000631581 -1.68959e-05 -1.88965e-07
-1.68959e-05 -6.79295e-05 -6.6788e-07
-1.88965e-07 -6.6788e-07 -0.000104686
0.000896646 -1.27496e-06 4.63276e-08
-1.27496e-06 9.50224e-05 -6.9924e-08
4.63276e-08 -6.9924e-08 3.39512e-05
0.00214834 -2.76758e-05 -1.25348e-05
-2.76758e-05 0.000766073 -4.22433e-06
-1.25348e-05 -4.22433e-06 0.000785579
0.000712492 -1.86189e-05 -1.77962e-07
-1.86189e-05 -3.42781e-05 -8.10935e-09
-1.77962e-07 -8.10935e-09 -3.92916e-05
0.000509847 -1.34801e-05 3.32456e-08
-1.34801e-05 -0.00013578 9.46093e-07
3.32456e-08 9.46093e-07 -0.000171217
0.00209726 -1.80733e-05 -2.43195e-06
-1.80733e-05 0.000733778 4.57652e-08
-2.43195e-06 4.57652e-08 0.00075469
0.000715837 -1.22809e-05 3.61849e-07
-1.22809e-05 -3.59311e-05 3.36363e-06
3.61849e-07 3.36363e-06 -3.92086e-05
0.00206852 -8.55709e-06 3.54948e-06
-8.55709e-06 0.000715412 4.38472e-06
3.54948e-06 4.38472e-06 0.000737147
0.0012466 1.23249e-06 -5.77493e-07
1.23249e-06 0.000143178 1.46031e-05
-5.77493e-07 1.46031e-05 1.73888e-05
0.00124161 1.68127e-05 -4.41938e-06
1.68127e-05 8.79833e-05 1.07599e-06
-4.41938e-06 1.07599e-06 -4.20434e-05
0.00147541 2.54996e-05 6.24487e-05
2.54996e-05 0.000135023 -1.54779e-05
6.24487e-05 -1.54779e-05 -0.000196303
0.000757711 -4.49786e-05 8.79662e-08
-4.49786e-05 1.64502e-05 -1.75715e-07
8.79662e-08 -1.75715e-07 -5.28964e-05
0.000910224 -1.10448e-05 -3.33424e-07
-1.10448e-05 0.000107576 -4.93833e-07
-3.33424e-07 -4.93833e-07 3.2943e-05
0.000879199 2.51449e-05 1.3219e-06
2.51449e-05 8.99206e-05 -4.68824e-07
1.3219e-06 -4.68824e-07 1.64934e-05
0.000781409 -2.20443e-05 8.68409e-08
-2.20443e-05 2.94662e-05 2.04994e-08
8.68409e-08 2.04994e-08 -4.0383e-05
0.000846458 8.85938e-06 1.68494e-08
8.85938e-06 7.38019e-05 2.0771e-07
1.68494e-08 2.0771e-07 -5.34608e-06
0.000884227 -9.30071e-06 -8.32086e-07
-9.30071e-06 9.4426e-05 4.82391e-07
-8.32086e-07 4.82391e-07 1.80305e-05
0.000878252 0.00011157 7.70382e-07
0.00011157 0.000101847 1.23099e-06
7.70382e-07 1.23099e-06 1.37598e-05
0.00145919 -3.09108e-08 2.25541e-05
-3.09108e-08 0.000166155 5.51687e-05
2.25541e-05 5.51687e-05 -0.000318513
0.00188038 1.8301e-05 -1.73069e-06
1.8301e-05 0.000257144 1.6838e-05
-1.73069e-06 1.6838e-05 -0.000109263
0.00210284 3.29551e-05 9.81375e-06
3.29551e-05 0.000465099 -3.35577e-05
9.81375e-06 -3.35577e-05 8.49033e-05
0.00208186 -1.37774e-06 -5.81911e-06
-1.37774e-06 -0.00230701 -7.08016e-06
-5.81911e-06 -7.08016e-06 -0.000851031
0.00286281 -0.000480599 -2.63389e-05
-0.000480599 0.000309334 4.9061e-05
-2.63389e-05 4.9061e-05 -0.000455378
-0.000931034 -0.000190131 4.78464e-05
-0.000190131 -0.00101677 -3.77315e-06
4.78464e-05 -3.77315e-06 -0.00285849
0.0047211 0.000494398 3.90165e-05
0.000494398 0.00212788 -2.52649e-05
3.90165e-05 -2.52649e-05 0.0013674
0.00494073 -0.00064447 -2.00075e-05
-0.00064447 0.00107455 4.20187e-06
-2.00075e-05 4.20187e-06 0.000428914
0.0015741 -0.000201462 4.10357e-05
-0.000201462 0.000322387 -1.95051e-05
4.10357e-05 -1.95051e-05 -0.00169911
0.00344998 -9.3354e-06 -2.259e-05
-9.3354e-06 0.00125099 2.08342e-06
-2.259e-05 2.08342e-06 0.000864535
0.00506014 -0.000317321 -1.12353e-05
-0.000317321 0.000394347 -1.71354e-05
-1.12353e-05 -1.71354e-05 0.00141535
0.00218452 -0.000163015 -1.7829e-05
-0.000163015 -0.000222545 1.00466e-05
-1.7829e-05 1.00466e-05 -0.000206611
0.000947752 -0.000132318 3.70048e-05
-0.000132318 -0.000481811 -6.20487e-05
3.70048e-05 -6.20487e-05 -0.00208588
-0.00369979 -0.000352877 4.12416e-05
-0.000352877 -0.00311866 1.89794e-06
4.12416e-05 1.89794e-06 -0.00371975
0.000936827 -0.00035975 2.54456e-05
-0.00035975 -0.00161099 -2.56811e-05
2.54456e-05 -2.56811e-05 -0.000536086
0.000911493 -4.89949e-05 -4.11938e-07
-4.89949e-05 0.000105231 2.12127e-06
-4.11938e-07 2.12127e-06 3.26534e-05
0.000812692 3.65308e-06 1.948e-07
3.65308e-06 5.11542e-05 1.81671e-08
1.948e-07 1.81671e-08 -3.31994e-05
0.000812714 -1.06861e-06 -5.13593e-07
-1.06861e-06 6.58244e-05 -1.34869e-06
-5.13593e-07 -1.34869e-06 -2.82247e-05
0.000858984 2.30929e-05 4.80011e-09
2.30929e-05 8.20609e-05 -1.5015e-06
4.80011e-09 -1.5015e-06 -1.4263e-06
0.00149408 -0.000268309 6.88324e-07
-0.000268309 0.000251353 1.75073e-05
6.88324e-07 1.75073e-05 0.000202047
0.000113781 -1.93123e-05 4.90684e-06
-1.93123e-05 -4.39701e-05 -1.00455e-05
4.90684e-06 -1.00455e-05 -0.000143688
0.000789068 -2.72013e-05 -3.56586e-07
-2.72013e-05 1.95123e-05 -2.09674e-06
-3.56586e-07 -2.09674e-06 -5.75733e-05
0.000980649 6.54333e-05 -7.67592e-07
6.54333e-05 0.000151783 -2.38444e-06
-7.67592e-07 -2.38444e-06 7.04735e-05
0.00122666 3.29402e-06 5.01435e-06
3.29402e-06 0.000286272 -1.00378e-05
5.01435e-06 -1.00378e-05 0.000211736
0.000856256 -4.2781e-06 -4.76997e-07
-4.2781e-06 7.10448e-05 -2.79166e-08
-4.76997e-07 -2.79166e-08 -8.5125e-07
0.00073771 -7.01047e-06 2.30901e-07
-7.01047e-06 2.40179e-05 -6.62057e-07
2.30901e-07 -6.62057e-07 -3.48995e-05
-0.000734925 -4.42506e-05 -1.34391e-05
-4.42506e-05 -0.000380862 -9.522e-06
-1.34391e-05 -9.522e-06 -0.000685179
0.000908536 -2.14002e-05 -1.70394e-06
-2.14002e-05 0.000350418 1.81115e-06
-1.70394e-06 1.81115e-06 0.000322153
0.000762226 -1.26471e-05 3.21117e-06
-1.26471e-05 4.62101e-05 8.54951e-07
3.21117e-06 8.54951e-07 -1.78867e-05
0.00102537 1.96073e-05 -6.29864e-06
1.96073e-05 0.000996857 -4.79654e-05
-6.29864e-06 -4.79654e-05 0.000162024
0.00177682 -2.61913e-05 -1.55724e-06
-2.61913e-05 0.000776872 1.46514e-05
-1.55724e-06 1.46514e-05 0.000717214
0.00143329 -7.74837e-06 1.40494e-05
-7.74837e-06 0.00024412 4.44073e-07
1.40494e-05 4.44073e-07 0.000156216
0.000946539 -4.97623e-06 -1.06587e-07
-4.97623e-06 6.61268e-05 -5.25154e-08
-1.06587e-07 -5.25154e-08 2.48424e-05
0.000754768 -2.395e-06 2.70041e-06
-2.395e-06 -8.90365e-05 -1.02182e-06
2.70041e-06 -1.02182e-06 -0.000150778
0.000518218 5.01666e-05 6.64455e-06
5.01666e-05 0.000213631 8.00851e-06
6.64455e-06 8.00851e-06 0.000144128
0.00177003 0.000199134 -5.84488e-05
0.000199134 0.000180888 1.76054e-05
-5.84488e-05 1.76054e-05 0.000212828
0.000982439 -3.23805e-06 3.23082e-06
-3.23805e-06 1.95556e-05 3.42177e-06
3.23082e-06 3.42177e-06 -5.96958e-05
0.00332672 -0.000143254 0.000106688
-0.000143254 0.00157149 -0.000117353
0.000106688 -0.000117353 -0.000784099
0.00488787 0.000530039 -3.50232e-05
0.000530039 0.0020051 2.49237e-05
-3.50232e-05 2.49237e-05 0.00130105
0.00213059 2.10086e-05 -1.12208e-05
2.10086e-05 0.000456465 3.38804e-05
-1.12208e-05 3.38804e-05 8.5704e-05
0.00310332 0.000489807 -3.0752e-05
0.000489807 -0.000359766 1.65596e-05
-3.0752e-05 1.65596e-05 0.000509484
-0.000486954 -1.45847e-05 1.77142e-05
-1.45847e-05 -4.4027e-05 -6.41693e-07
1.77142e-05 -6.41693e-07 -0.000284199
0.00123446 1.28712e-05 4.81978e-06
1.28712e-05 7.33349e-05 -9.51819e-07
4.81978e-06 -9.51819e-07 -4.87424e-05
0.00223469 3.049e-05 1.89184e-05
3.049e-05 0.000235139 -2.69707e-06
1.89184e-05 -2.69707e-06 -0.000259782
0.00159378 -7.92267e-05 -1.81794e-05
-7.92267e-05 -0.000462914 2.56876e-05
-1.81794e-05 2.56876e-05 -0.000159277
-0.000538198 0.000687039 1.17732e-05
0.000687039 -0.00109019 -1.71691e-06
1.17732e-05 -1.71691e-06 0.000218038
0.00527777 0.000597284 -1.27458e-06
0.000597284 0.000759125 1.54165e-05
-1.27458e-06 1.54165e-05 0.000937792
0.000728917 -0.000292996 4.51514e-05
-0.000292996 8.58355e-05 -2.57917e-05
4.51514e-05 -2.57917e-05 -0.00253679
0.00113475 -5.91435e-05 4.75697e-05
-5.91435e-05 0.000472645 -9.59374e-06
4.75697e-05 -9.59374e-06 0.00043432
0.00110157 8.46853e-06 4.36661e-05
8.46853e-06 -0.000122135 -1.7692e-05
4.36661e-05 -1.7692e-05 -0.000458408
-0.00125641 0.000255176 -2.30643e-05
0.000255176 -0.000380602 -1.52858e-05
-2.30643e-05 -1.52858e-05 -0.000466237
0.000176789 0.000538697 2.97112e-06
0.000538697 -0.000179203 3.21329e-05
2.97112e-06 3.21329e-05 0.000120642
0.00711194 0.000276932 2.54874e-05
0.000276932 0.00283823 -3.58601e-05
2.54874e-05 -3.58601e-05 0.000749104
0.0028356 -0.000318161 -6.40511e-05
-0.000318161 0.000193859 7.95034e-05
-6.40511e-05 7.95034e-05 -0.000103544
-0.000333938 -1.57901e-05 3.05896e-07
-1.57901e-05 -0.000270627 8.75916e-06
3.05896e-07 8.75916e-06 -0.000372743
0.000226487 -4.63994e-05 -2.0409e-06
-4.63994e-05 0.000102419 -3.49307e-07
-2.0409e-06 -3.49307e-07 -5.80722e-05
0.00105731 -0.000155452 1.73465e-05
-0.000155452 0.000336875 -7.50205e-06
1.73465e-05 -7.50205e-06 0.000206729
0.000691487 2.65586e-05 -4.5974e-06
2.65586e-05 0.000121466 1.99943e-06
-4.5974e-06 1.99943e-06 3.9599e-05
1.74121e-05 -6.32386e-05 1.09675e-06
-6.32386e-05 -0.000131795 -2.20707e-06
1.09675e-06 -2.20707e-06 -0.000348975
0.0012329 -0.000189051 1.24437e-05
-0.000189051 0.000256585 1.15077e-06
1.24437e-05 1.15077e-06 4.02734e-05
0.00200952 -0.000201904 -3.74174e-06
-0.000201904 0.000745116 6.244e-07
-3.74174e-06 6.244e-07 0.000577182
0.00141356 -0.000175534 8.3327e-07
-0.000175534 0.000428184 1.21197e-06
8.3327e-07 1.21197e-06 0.000177907
0.000954854 -0.000188227 1.65716e-06
-0.000188227 8.79665e-06 -3.28646e-06
1.65716e-06 -3.28646e-06 -0.00021583
0.00106957 -0.000144297 -2.89023e-06
-0.000144297 0.000209253 -3.74609e-07
-2.89023e-06 -3.74609e-07 1.66715e-05
0.00172738 -0.000210163 1.40055e-06
-0.000210163 0.000471548 -1.58416e-08
1.40055e-06 -1.58416e-08 0.000248395
0.00135797 -0.000206846 1.59786e-06
-0.000206846 0.000125802 -3.81139e-06
1.59786e-06 -3.81139e-06 -7.94783e-05
0.00164723 -0.000210516 -2.2137e-07
-0.000210516 0.000221183 -2.91371e-06
-2.2137e-07 -2.91371e-06 5.26305e-05
0.00195092 -0.00021619 -4.97969e-06
-0.00021619 0.000547213 4.75167e-06
-4.97969e-06 4.75167e-06 0.000360344
0.00151981 -0.000201596 -9.06948e-07
-0.000201596 0.000277634 2.93292e-08
-9.06948e-07 2.93292e-08 7.5068e-05
0.00060792 -0.00011464 1.8454e-06
-0.00011464 -8.16761e-05 -2.83415e-08
1.8454e-06 -2.83415e-08 -0.00021958
0.000890174 -0.000133161 1.57066e-06
-0.000133161 6.66846e-05 -4.83363e-07
1.57066e-06 -4.83363e-07 -8.65538e-05
0.00119801 -0.000159455 -5.51381e-07
-0.000159455 0.000207968 -1.56191e-06
-5.51381e-07 -1.56191e-06 2.78191e-05
0.00105857 -0.000128199 8.63382e-07
-0.000128199 0.000199968 3.89288e-07
8.63382e-07 3.89288e-07 7.21192e-05
0.0011452 -0.000137991 -6.30621e-07
-0.000137991 0.000251926 -9.12601e-07
-6.30621e-07 -9.12601e-07 0.000116681
0.000775484 -0.000115176 2.28872e-06
-0.000115176 5.47844e-05 -2.12039e-06
2.28872e-06 -2.12039e-06 -7.84917e-05
0.00075881 1.62292e-05 1.02841e-06
1.62292e-05 4.08932e-05 1.24549e-06
1.02841e-06 1.24549e-06 -5.0357e-05
0.000779911 -4.43358e-05 -4.74663e-08
-4.43358e-05 6.55429e-05 7.19324e-07
-4.74663e-08 7.19324e-07 -4.13621e-05
0.00111471 -0.000109282 1.30957e-06
-0.000109282 0.000255319 -1.27295e-06
1.30957e-06 -1.27295e-06 0.000129847
0.000714463 6.42848e-05 -7.3251e-08
6.42848e-05 9.67439e-06 2.01476e-06
-7.3251e-08 2.01476e-06 -4.16692e-05
0.000789209 2.34347e-05 -2.74483e-07
2.34347e-05 5.08699e-05 -1.41686e-07
-2.74483e-07 -1.41686e-07 -2.46251e-05
0.000904247 -3.96425e-05 3.53181e-07
-3.96425e-05 0.00012262 -6.51083e-07
3.53181e-07 -6.51083e-07 2.87403e-05
0.00066616 4.5717e-05 -2.55693e-06
4.5717e-05 -2.55113e-05 4.54275e-06
-2.55693e-06 4.54275e-06 -3.86576e-05
0.00073061 5.54062e-05 -7.25196e-08
5.54062e-05 9.31324e-06 -1.47844e-07
-7.25196e-08 -1.47844e-07 -3.3341e-05
0.000808135 8.07864e-06 2.24051e-07
8.07864e-06 4.98313e-05 -1.18182e-06
2.24051e-07 -1.18182e-06 -1.18172e-05
0.000750677 4.6083e-05 7.14794e-07
4.6083e-05 1.11193e-05 -1.59145e-06
7.14794e-07 -1.59145e-06 -2.67337e-05
0.000685875 4.16923e-05 2.77878e-08
4.16923e-05 -2.34729e-05 -1.16909e-08
2.77878e-08 -1.16909e-08 -3.41548e-05
0.00208192 5.85697e-05 -2.39463e-05
5.85697e-05 0.000754746 3.27504e-06
-2.39463e-05 3.27504e-06 0.000768887
0.00070652 3.69168e-05 1.26291e-06
3.69168e-05 -2.06652e-05 -3.24618e-06
1.26291e-06 -3.24618e-06 -2.91922e-05
0.00208842 5.14589e-05 1.43248e-06
5.14589e-05 0.000751002 9.37199e-08
1.43248e-06 9.37199e-08 0.000766878
0.00209805 4.40686e-05 1.89569e-05
4.40686e-05 0.000749736 -3.62109e-06
1.89569e-05 -3.62109e-06 0.000767114
0.000842765 7.1578e-06 -4.87059e-08
7.1578e-06 7.00486e-05 -5.47171e-07
-4.87059e-08 -5.47171e-07 -4.05891e-06
0.000817559 3.71052e-05 -1.12617e-06
3.71052e-05 4.98511e-05 -9.43244e-07
-1.12617e-06 -9.43244e-07 -1.56555e-05
0.00074164 -2.83279e-05 -7.60699e-07
-2.83279e-05 -4.84648e-06 -1.6379e-06
-7.60699e-07 -1.6379e-06 -4.44166e-05
0.000811758 2.61919e-05 -4.70604e-08
2.61919e-05 4.09102e-05 -2.64465e-08
-4.70604e-08 -2.64465e-08 -1.97097e-05
0.000694718 -3.05075e-05 -5.16512e-07
-3.05075e-05 -3.37634e-05 -3.50737e-06
-5.16512e-07 -3.50737e-06 -4.31526e-05
0.000753868 -2.13937e-05 -1.37053e-07
-2.13937e-05 3.68147e-07 3.42865e-09
-1.37053e-07 3.42865e-09 -3.74768e-05
0.000778945 1.7253e-05 -3.94963e-08
1.7253e-05 2.06435e-05 -1.25551e-07
-3.94963e-08 -1.25551e-07 -3.66249e-05
0.00219466 -3.65069e-05 -1.62266e-05
-3.65069e-05 0.000796396 -4.09237e-06
-1.62266e-05 -4.09237e-06 0.000814387
0.000702794 -2.45332e-05 -1.55762e-07
-2.45332e-05 -3.49472e-05 -6.24171e-09
-1.55762e-07 -6.24171e-09 -4.20417e-05
0.000752207 -1.78368e-05 3.74046e-08
-1.78368e-05 -1.97514e-06 9.23926e-07
3.74046e-08 9.23926e-07 -3.79833e-05
0.00213515 -2.70435e-05 -2.43949e-06
-2.70435e-05 0.000758262 6.93292e-08
-2.43949e-06 6.93292e-08 0.00077798
0.000706326 -1.82766e-05 3.02215e-07
-1.82766e-05 -3.76876e-05 3.38223e-06
3.02215e-07 3.38223e-06 -4.2627e-05
0.00208692 -1.73491e-05 7.8802e-06
-1.73491e-05 0.000727665 4.33161e-06
7.8802e-06 4.33161e-06 0.000748738
0.00123894 -2.60124e-05 1.28134e-05
-2.60124e-05 0.000137524 1.64365e-05
1.28134e-05 1.64365e-05 -8.10714e-06
0.00109083 -2.08465e-07 -2.18177e-06
-2.08465e-07 7.12508e-05 5.56393e-06
-2.18177e-06 5.56393e-06 -3.68558e-05
0.00129151 1.36557e-05 5.9779e-06
1.36557e-05 0.000115051 -9.55469e-06
5.9779e-06 -9.55469e-06 -1.71755e-05
0.000805207 -4.14251e-06 -2.70695e-07
-4.14251e-06 4.77617e-05 -6.67636e-08
-2.70695e-07 -6.67636e-08 -2.53938e-05
0.000837696 -2.34947e-05 -1.70079e-07
-2.34947e-05 6.83627e-05 2.36659e-07
-1.70079e-07 2.36659e-07 -6.79018e-06
0.000777384 -3.0957e-05 3.38338e-07
-3.0957e-05 3.77797e-05 -1.69596e-06
3.38338e-07 -1.69596e-06 -4.22426e-05
0.000730652 -3.65619e-05 -1.6477e-08
-3.65619e-05 9.74007e-06 -6.59256e-07
-1.6477e-08 -6.59256e-07 -6.46441e-05
0.000968256 3.96593e-05 -6.30465e-07
3.96593e-05 0.000151194 -2.53929e-07
-6.30465e-07 -2.53929e-07 6.58994e-05
0.000771549 -3.58615e-05 2.21173e-08
-3.58615e-05 2.1211e-05 -2.11529e-07
2.21173e-08 -2.11529e-07 -4.67289e-05
0.000772163 -1.66752e-05 4.58799e-07
-1.66752e-05 3.05351e-05 -1.04679e-06
4.58799e-07 -1.04679e-06 -4.68225e-05
0.000846969 8.14583e-06 -1.32065e-07
8.14583e-06 7.4471e-05 -5.06413e-08
-1.32065e-07 -5.06413e-08 -1.58739e-06
0.000892844 2.991e-05 -9.52207e-08
2.991e-05 9.99065e-05 2.20879e-07
-9.52207e-08 2.20879e-07 1.75755e-05
0.000955392 1.19294e-05 6.39791e-08
1.19294e-05 0.000143471 8.35737e-07
6.39791e-08 8.35737e-07 6.25985e-05
0.00178379 -2.89401e-05 5.71803e-05
-2.89401e-05 0.000224668 6.35196e-05
5.71803e-05 6.35196e-05 -0.000315683
0.00159696 6.7025e-06 3.18105e-06
6.7025e-06 0.00016284 1.47421e-05
3.18105e-06 1.47421e-05 -0.000327537
0.00201803 2.41387e-05 -4.09437e-06
2.41387e-05 0.000442144 -1.42821e-05
-4.09437e-06 -1.42821e-05 0.000163829
0.00492619 -0.00029174 -2.73445e-05
-0.00029174 0.000493289 -4.2717e-05
-2.73445e-05 -4.2717e-05 0.00154496
-0.00645447 0.000203184 -2.45996e-05
0.000203184 -0.00318458 1.65227e-05
-2.45996e-05 1.65227e-05 -0.00380553
0.00385757 -0.000583238 -5.40316e-05
-0.000583238 0.000726304 5.42192e-05
-5.40316e-05 5.42192e-05 3.86982e-05
0.00634024 -7.50545e-05 -6.80852e-06
-7.50545e-05 0.00191956 -4.69951e-05
-6.80852e-06 -4.69951e-05 0.000282266
0.00356721 -0.000288304 -4.0519e-05
-0.000288304 0.000442094 4.11956e-05
-4.0519e-05 4.11956e-05 0.000135844
0.0093917 -0.000212314 5.81602e-05
-0.000212314 0.00379303 -1.07395e-05
5.81602e-05 -1.07395e-05 0.00174078
0.000170235 -0.000229667 2.15767e-05
-0.000229667 -0.000925819 -1.29901e-06
2.15767e-05 -1.29901e-06 -0.00119381
0.000919 -0.000408555 -2.4608e-05
-0.000408555 -0.00171446 -5.8685e-05
-2.4608e-05 -5.8685e-05 -0.000603094
0.0043738 -1.82741e-05 -0.000109391
-1.82741e-05 0.000855825 -2.09055e-05
-0.000109391 -2.09055e-05 0.000599217
0.00804625 -0.000309994 -1.8477e-05
-0.000309994 0.00260722 4.69488e-05
-1.8477e-05 4.69488e-05 0.00115107
0.00771044 -0.000859685 1.36187e-05
-0.000859685 0.00215826 -1.53409e-05
1.36187e-05 -1.53409e-05 0.00229548
0.00301904 -0.000639776 1.5502e-05
-0.000639776 0.000301938 1.12022e-06
1.5502e-05 1.12022e-06 0.00157
0.000660014 1.31372e-05 2.2017e-06
1.31372e-05 9.02843e-06 1.6952e-06
2.2017e-06 1.6952e-06 -5.34966e-05
0.000923427 -4.02526e-05 -9.07983e-08
-4.02526e-05 0.000115497 5.92811e-07
-9.07983e-08 5.92811e-07 4.15073e-05
0.000806715 4.00496e-06 -7.94522e-08
4.00496e-06 4.54194e-05 -1.41683e-06
-7.94522e-08 -1.41683e-06 -3.7331e-05
0.000207995 1.95608e-06 -1.32032e-05
1.95608e-06 5.27466e-05 1.58474e-05
-1.32032e-05 1.58474e-05 -0.000268954
0.000930518 -6.76733e-05 -1.28349e-05
-6.76733e-05 0.0003772 -7.26396e-06
-1.28349e-05 -7.26396e-06 0.000356973
0.000789877 -1.9553e-05 -1.39357e-06
-1.9553e-05 3.63343e-05 -9.68445e-07
-1.39357e-06 -9.68445e-07 -3.77363e-05
0.000710541 -5.19156e-05 -3.82683e-07
-5.19156e-05 8.15012e-06 -6.06545e-06
-3.82683e-07 -6.06545e-06 -4.86028e-05
0.000822006 -6.32689e-06 -5.21009e-07
-6.32689e-06 8.12472e-05 -1.29774e-06
-5.21009e-07 -1.29774e-06 1.59723e-05
0.000589918 -2.6908e-05 -4.53425e-07
-2.6908e-05 0.000144955 3.86013e-06
-4.53425e-07 3.86013e-06 8.53895e-05
9.61012e-05 -1.9209e-05 3.25109e-05
-1.9209e-05 0.0004967 -3.32074e-05
3.25109e-05 -3.32074e-05 -0.000310854
-0.000417124 -1.49684e-05 -3.96365e-06
-1.49684e-05 -0.000412483 8.02091e-06
-3.96365e-06 8.02091e-06 -0.000488311
0.00103676 0.00010927 5.36322e-07
0.00010927 0.000486924 -2.93506e-05
5.36322e-07 -2.93506e-05 2.06262e-05
0.00128124 -4.67377e-06 4.3927e-05
-4.67377e-06 -1.82719e-05 6.26734e-06
4.3927e-05 6.26734e-06 -0.000333582
0.00108534 -5.70028e-06 6.06561e-06
-5.70028e-06 6.9611e-05 1.33529e-06
6.06561e-06 1.33529e-06 -6.92815e-06
0.000359949 -4.23692e-06 5.00188e-08
-4.23692e-06 -0.000253524 -3.45581e-07
5.00188e-08 -3.45581e-07 -0.000287553
-0.00148095 -3.41091e-05 -3.59476e-05
-3.41091e-05 -0.000464019 1.21421e-05
-3.59476e-05 1.21421e-05 -0.000768336
0.0020593 5.47281e-05 1.23232e-05
5.47281e-05 -0.000343502 -4.26416e-05
1.23232e-05 -4.26416e-05 -0.000397928
0.00131769 9.24989e-06 -4.23094e-06
9.24989e-06 0.000124437 8.98964e-06
-4.23094e-06 8.98964e-06 2.00674e-06
0.011506 -0.000192914 8.42041e-05
-0.000192914 0.00475566 -7.27163e-06
8.42041e-05 -7.27163e-06 0.00255902
0.00433709 0.000631104 -4.87159e-05
0.000631104 0.000881856 1.0853e-05
-4.87159e-05 1.0853e-05 0.000850672
0.00234486 1.92977e-05 -3.88166e-05
1.92977e-05 0.000335483 4.22832e-05
-3.88166e-05 4.22832e-05 -0.000209538
-0.00332139 0.000734584 3.98508e-05
0.000734584 -0.002847 -5.79145e-05
3.98508e-05 -5.79145e-05 -0.00121619
0.000454537 -3.3387e-05 -1.15747e-05
-3.3387e-05 0.000160096 -1.36284e-06
-1.15747e-05 -1.36284e-06 8.60705e-05
0.00136664 1.26127e-05 -7.00662e-06
1.26127e-05 3.19652e-05 2.10895e-06
-7.00662e-06 2.10895e-06 -0.000302358
-0.00153958 0.000295563 -6.46244e-05
0.000295563 -0.000425305 2.66875e-05
-6.46244e-05 2.66875e-05 -0.000426826
0.00197856 -0.000296237 -2.06133e-05
-0.000296237 -0.000203778 2.94032e-05
-2.06133e-05 2.94032e-05 -0.000380376
0.00551605 0.000858734 1.24305e-05
0.000858734 0.00182969 2.06944e-05
1.24305e-05 2.06944e-05 0.00216346
0.00716343 -5.05939e-05 5.04669e-05
-5.05939e-05 0.00246068 -2.80555e-05
5.04669e-05 -2.80555e-05 0.000560877
0.0018261 -0.000202229 2.13846e-05
-0.000202229 0.000340907 1.58462e-05
2.13846e-05 1.58462e-05 0.000490097
-0.00143334 6.12724e-05 3.6777e-05
6.12724e-05 1.27691e-05 -7.07029e-06
3.6777e-05 -7.07029e-06 -0.000483378
0.0021728 0.000579133 -3.35833e-05
0.000579133 0.00109177 1.29233e-05
-3.35833e-05 1.29233e-05 0.00121521
0.00514553 0.000305047 -6.55653e-05
0.000305047 0.00169457 5.55374e-05
-6.55653e-05 5.55374e-05 -0.00019711
0.00248324 -0.000536498 1.85663e-05
-0.000536498 9.33781e-05 1.02126e-05
1.85663e-05 1.02126e-05 -0.000495333
0.000602671 5.06092e-06 9.64604e-06
5.06092e-06 0.000311197 9.41321e-06
9.64604e-06 9.41321e-06 0.000157078
0.00066392 -0.000138774 -3.98819e-07
-0.000138774 0.000150885 -3.38144e-07
-3.98819e-07 -3.38144e-07 2.16638e-06
0.00244397 -0.000243474 1.58718e-05
-0.000243474 0.000675169 2.42077e-06
1.58718e-05 2.42077e-06 0.000644475
-0.000836855 -7.22826e-06 -4.03302e-06
-7.22826e-06 -0.000556903 4.59357e-06
-4.03302e-06 4.59357e-06 -0.000777985
0.000647825 -0.000147321 3.8879e-06
-0.000147321 -1.54012e-05 -5.63659e-07
3.8879e-06 -5.63659e-07 -0.000233504
0.000769563 -0.000209922 1.16262e-06
-0.000209922 -0.000253989 -6.31466e-07
1.16262e-06 -6.31466e-07 -0.000412187
0.00179533 -0.000195064 -4.37486e-06
-0.000195064 0.000607523 2.85635e-07
-4.37486e-06 2.85635e-07 0.000362833
0.00121464 -0.000200274 -2.49223e-06
-0.000200274 0.00013958 -2.14212e-06
-2.49223e-06 -2.14212e-06 -7.75229e-05
0.00175165 -0.000250228 4.16526e-06
-0.000250228 0.000212514 -6.61115e-07
4.16526e-06 -6.61115e-07 6.36386e-05
0.00160861 -0.000200951 -1.55834e-06
-0.000200951 0.000402025 -1.05871e-06
-1.55834e-06 -1.05871e-06 0.000180049
0.00146356 -0.00020948 -3.10679e-07
-0.00020948 0.000177857 -1.87595e-06
-3.10679e-07 -1.87595e-06 -2.12137e-05
0.00150278 -0.000206141 -2.84298e-09
-0.000206141 3.55165e-05 -2.81176e-06
-2.84298e-09 -2.81176e-06 -0.000106416
0.00171142 -0.000188146 -6.70037e-08
-0.000188146 0.000165767 -1.99812e-06
-6.70037e-08 -1.99812e-06 3.10667e-05
0.00150933 -0.000193478 -1.18691e-06
-0.000193478 0.00022497 -1.19227e-06
-1.18691e-06 -1.19227e-06 4.44744e-05
0.00146317 -0.000198238 9.52536e-07
-0.000198238 0.000126814 -5.29484e-07
9.52536e-07 -5.29484e-07 -3.98869e-05
0.00143699 -0.00017483 -2.15879e-06
-0.00017483 0.000299864 3.78224e-06
-2.15879e-06 3.78224e-06 0.00013803
0.00135526 -0.000181157 -1.653e-07
-0.000181157 0.000232642 7.21822e-07
-1.653e-07 7.21822e-07 4.34035e-05
0.00126255 -0.000187355 -2.00643e-07
-0.000187355 0.000136839 -1.79548e-06
-2.00643e-07 -1.79548e-06 -6.98728e-05
0.000949914 -0.000129612 4.77249e-07
-0.000129612 0.000105534 -1.19673e-06
4.77249e-07 -1.19673e-06 -2.31716e-05
0.000702222 -0.000119227 -1.82405e-07
-0.000119227 -2.8401e-05 -1.50324e-06
-1.82405e-07 -1.50324e-06 -0.000163966
0.00113652 -0.000147563 4.03826e-06
-0.000147563 0.000199758 -4.22426e-06
4.03826e-06 -4.22426e-06 5.03171e-05
0.000856652 -6.80125e-05 2.59282e-07
-6.80125e-05 8.29977e-05 1.21221e-06
2.59282e-07 1.21221e-06 -2.30933e-05
0.000953692 -0.000111734 4.68186e-07
-0.000111734 0.00014352 5.25725e-07
4.68186e-07 5.25725e-07 1.83767e-05
0.000960396 -0.000125055 -4.94791e-07
-0.000125055 0.000153558 6.1722e-07
-4.94791e-07 6.1722e-07 1.83282e-05
0.000713829 8.1215e-05 9.21316e-07
8.1215e-05 1.83241e-05 2.83664e-06
9.21316e-07 2.83664e-06 -4.83372e-05
0.000827343 -4.94466e-06 1.99842e-08
-4.94466e-06 7.93064e-05 -1.1472e-07
1.99842e-08 -1.1472e-07 -1.43257e-05
0.00085224 -5.66036e-05 -9.20669e-07
-5.66036e-05 0.0001057 -6.39058e-08
-9.20669e-07 -6.39058e-08 -5.61467e-07
0.00130197 6.20197e-05 -1.35502e-05
6.20197e-05 0.000337082 2.95491e-06
-1.35502e-05 2.95491e-06 0.000322755
0.000710813 5.378e-05 -9.23889e-08
5.378e-05 5.89636e-06 -2.83168e-07
-9.23889e-08 -2.83168e-07 -4.44427e-05
0.000797399 -5.39697e-06 2.66093e-07
-5.39697e-06 5.63986e-05 -1.29654e-06
2.66093e-07 -1.29654e-06 -2.05273e-05
0.00081796 3.74625e-05 -2.27502e-05
3.74625e-05 6.45197e-05 3.25113e-06
-2.27502e-05 3.25113e-06 7.09231e-05
0.00102045 5.29626e-05 -6.20964e-06
5.29626e-05 0.000170718 2.98488e-07
-6.20964e-06 2.98488e-07 0.000158683
0.000732365 5.99587e-05 -1.83141e-07
5.99587e-05 1.15802e-05 -1.94799e-06
-1.83141e-07 -1.94799e-06 -3.19483e-05
0.000707306 4.28853e-05 1.33264e-06
4.28853e-05 -1.18611e-05 -3.24941e-06
1.33264e-06 -3.24941e-06 -2.26627e-05
0.0021039 5.9337e-05 1.17241e-06
5.9337e-05 0.000767994 9.67521e-08
1.17241e-06 9.67521e-08 0.000781827
0.00210218 5.20865e-05 2.21628e-05
5.20865e-05 0.00075968 -3.39526e-06
2.21628e-05 -3.39526e-06 0.000775323
0.000765072 -1.90156e-05 2.71045e-07
-1.90156e-05 2.65479e-05 -1.08554e-06
2.71045e-07 -1.08554e-06 -4.96977e-05
0.000815679 1.49777e-05 -5.48553e-07
1.49777e-05 4.96309e-05 -1.39084e-06
-5.48553e-07 -1.39084e-06 -1.72624e-05
0.000823644 -1.84658e-05 9.84226e-08
-1.84658e-05 5.81044e-05 -3.99916e-08
9.84226e-08 -3.99916e-08 -1.50294e-05
0.000743228 -4.06211e-05 -7.81709e-07
-4.06211e-05 1.11142e-06 -1.94064e-06
-7.81709e-07 -1.94064e-06 -4.07523e-05
0.000819435 3.2496e-06 6.74243e-07
3.2496e-06 4.75293e-05 -7.60683e-08
6.74243e-07 -7.60683e-08 -1.52166e-05
0.000683632 -3.57245e-05 -7.3144e-07
-3.57245e-05 -3.37548e-05 -3.65186e-06
-7.3144e-07 -3.65186e-06 -4.52737e-05
0.00075094 -2.49813e-05 -1.63406e-07
-2.49813e-05 8.14229e-07 1.51046e-08
-1.63406e-07 1.51046e-08 -3.87932e-05
0.000831223 4.30648e-05 1.12012e-06
4.30648e-05 5.81736e-05 5.42568e-07
1.12012e-06 5.42568e-07 -6.83754e-06
0.00223892 -4.48873e-05 -2.04978e-05
-4.48873e-05 0.000826397 -3.9331e-06
-2.04978e-05 -3.9331e-06 0.000842743
0.000692286 -3.00248e-05 -2.82327e-07
-3.00248e-05 -3.50453e-05 5.70839e-09
-2.82327e-07 5.70839e-09 -4.43842e-05
0.00077086 -2.18056e-05 3.20017e-07
-2.18056e-05 1.02424e-05 1.56065e-06
3.20017e-07 1.56065e-06 -2.77775e-05
0.00217961 -3.59457e-05 -2.23056e-06
-3.59457e-05 0.000787489 8.74386e-08
-2.23056e-06 8.74386e-08 0.000805696
0.000697705 -2.40825e-05 3.42042e-07
-2.40825e-05 -3.78269e-05 3.42311e-06
3.42042e-07 3.42311e-06 -4.48361e-05
0.00212229 -2.63621e-05 1.15018e-05
-2.63621e-05 0.000750608 4.24344e-06
1.15018e-05 4.24344e-06 0.000770536
0.00190483 -4.41245e-05 4.54213e-05
-4.41245e-05 0.000345786 2.52344e-05
4.54213e-05 2.52344e-05 6.25749e-05
0.00122813 -2.22918e-05 6.60416e-07
-2.22918e-05 0.000113024 5.15671e-06
6.60416e-07 5.15671e-06 -2.56938e-05
0.000956842 -2.42254e-06 -2.48514e-06
-2.42254e-06 1.60139e-05 -4.05738e-06
-2.48514e-06 -4.05738e-06 -7.79732e-05
0.000903386 4.28872e-05 -8.64374e-07
4.28872e-05 0.000118529 -3.47888e-07
-8.64374e-07 -3.47888e-07 2.97817e-05
0.000879408 -6.04694e-06 1.72248e-07
-6.04694e-06 8.759e-05 1.68941e-07
1.72248e-07 1.68941e-07 1.52993e-05
0.000814829 -3.46212e-05 1.66799e-08
-3.46212e-05 5.61553e-05 4.53579e-07
1.66799e-08 4.53579e-07 -1.9887e-05
0.0008584 -3.16773e-05 1.0146e-07
-3.16773e-05 7.77155e-05 -1.36228e-07
1.0146e-07 -1.36228e-07 4.1892e-06
0.000871876 -4.0216e-06 1.9479e-07
-4.0216e-06 8.98607e-05 -4.24492e-07
1.9479e-07 -4.24492e-07 8.8167e-06
0.000871422 2.34476e-05 1.07861e-07
2.34476e-05 9.63257e-05 6.24122e-07
1.07861e-07 6.24122e-07 1.21801e-05
0.000892994 1.84531e-05 -1.04199e-07
1.84531e-05 0.000108652 -1.72247e-06
-1.04199e-07 -1.72247e-06 1.9912e-05
0.000666204 -2.48103e-05 4.42323e-07
-2.48103e-05 -1.70226e-05 -1.57886e-07
4.42323e-07 -1.57886e-07 -9.73239e-05
0.000829395 4.8423e-05 3.11933e-07
4.8423e-05 6.83342e-05 -4.93051e-07
3.11933e-07 -4.93051e-07 -9.71658e-06
0.000853701 -5.53993e-05 6.18735e-07
-5.53993e-05 7.02841e-05 -1.02667e-06
6.18735e-07 -1.02667e-06 -6.64817e-06
0.000875503 -3.34301e-07 -1.59021e-07
-3.34301e-07 9.8541e-05 1.46578e-07
-1.59021e-07 1.46578e-07 1.92795e-05
0.00139795 9.64968e-06 3.55526e-06
9.64968e-06 0.000400058 1.50867e-06
3.55526e-06 1.50867e-06 0.000320593
0.00139438 -0.000341161 5.31339e-05
-0.000341161 0.000781775 4.55954e-05
5.31339e-05 4.55954e-05 0.000864289
0.00203033 -2.48156e-05 2.63736e-06
-2.48156e-05 0.000364209 1.27713e-05
2.63736e-06 1.27713e-05 -0.000194326
0.00170692 1.25539e-05 -1.28714e-05
1.25539e-05 0.000153387 -2.55967e-05
-1.28714e-05 -2.55967e-05 -0.000341996
0.00418553 -0.000509354 -6.1611e-05
-0.000509354 2.34539e-05 -5.06656e-05
-6.1611e-05 -5.06656e-05 0.00123743
0.00417019 -0.000228632 -1.4351e-05
-0.000228632 0.000548833 -5.9447e-06
-1.4351e-05 -5.9447e-06 0.00022628
0.00107511 -0.00029357 -9.67634e-05
-0.00029357 -0.000459551 6.08203e-05
-9.67634e-05 6.08203e-05 -0.00203246
0.00290104 -0.000231103 -4.40896e-05
-0.000231103 0.000317543 8.90218e-05
-4.40896e-05 8.90218e-05 -0.000109066
0.00397356 -0.000210129 -6.7458e-06
-0.000210129 0.00072662 3.15556e-05
-6.7458e-06 3.15556e-05 0.000594427
-0.000280411 -0.000647431 -7.08442e-07
-0.000647431 -0.00123704 9.72529e-06
-7.08442e-07 9.72529e-06 0.000161098
0.00492543 4.38353e-05 6.48582e-06
4.38353e-05 0.00182792 2.46773e-05
6.48582e-06 2.46773e-05 -0.0002984
0.00099246 -0.000422754 -2.90598e-06
-0.000422754 -0.00111146 1.01899e-05
-2.90598e-06 1.01899e-05 -0.000775378
0.00253439 0.000160687 -4.99408e-05
0.000160687 0.000120532 -2.15294e-05
-4.99408e-05 -2.15294e-05 -4.70512e-05
0.00944531 -0.000494179 -3.24283e-05
-0.000494179 0.00387565 3.65102e-05
-3.24283e-05 3.65102e-05 0.00210559
-0.000142173 -0.000495215 -3.71065e-05
-0.000495215 -0.000352051 -3.24811e-05
-3.71065e-05 -3.24811e-05 2.25776e-05
0.000611323 0.000136874 5.6854e-07
0.000136874 -2.58438e-05 -1.83591e-06
5.6854e-07 -1.83591e-06 -8.74309e-05
0.000959153 2.22476e-05 3.7371e-06
2.22476e-05 0.000162587 -6.2582e-08
3.7371e-06 -6.2582e-08 0.000101808
0.000936006 -2.34574e-05 -8.56153e-07
-2.34574e-05 0.000125884 -7.18437e-07
-8.56153e-07 -7.18437e-07 5.08672e-05
-0.00107764 -1.01154e-05 -3.60478e-05
-1.01154e-05 -0.00022154 -1.40219e-05
-3.60478e-05 -1.40219e-05 -0.0009809
-0.000910088 2.57657e-05 4.11691e-06
2.57657e-05 -0.000658515 -7.02239e-06
4.11691e-06 -7.02239e-06 -0.000722864
0.00079375 2.50864e-05 -3.94619e-07
2.50864e-05 6.86792e-05 -2.09512e-06
-3.94619e-07 -2.09512e-06 2.42219e-06
0.000793557 7.09273e-05 2.72239e-06
7.09273e-05 0.00018515 1.65535e-06
2.72239e-06 1.65535e-06 0.000103042
0.000622238 0.000140481 4.64534e-06
0.000140481 0.000182199 -1.98239e-05
4.64534e-06 -1.98239e-05 -0.000179397
0.000230388 0.00018174 1.72536e-05
0.00018174 -0.000225754 5.30104e-06
1.72536e-05 5.30104e-06 -0.000371938
0.000249309 -1.06045e-05 8.20413e-05
-1.06045e-05 0.000927357 3.82778e-07
8.20413e-05 3.82778e-07 0.000438963
0.00137256 -1.46209e-05 -4.6395e-06
-1.46209e-05 9.47492e-05 5.35251e-06
-4.6395e-06 5.35251e-06 -0.000163129
0.000771666 -3.56929e-06 -2.39825e-06
-3.56929e-06 -8.12032e-05 4.96194e-07
-2.39825e-06 4.96194e-07 -0.000147342
0.000478761 -3.51548e-05 -5.7325e-06
-3.51548e-05 0.000182286 5.19583e-06
-5.7325e-06 5.19583e-06 0.000102081
0.00114841 -0.000234448 6.30777e-06
-0.000234448 -0.00073668 -2.48789e-05
6.30777e-06 -2.48789e-05 -0.000755835
0.0014919 1.06288e-05 -5.78161e-05
1.06288e-05 0.000117003 1.47297e-05
-5.78161e-05 1.47297e-05 -0.000219045
2.31567e-05 -0.000190532 2.01736e-05
-0.000190532 -0.00080815 -3.21795e-05
2.01736e-05 -3.21795e-05 -0.0026054
-0.00257139 0.000444031 -7.85802e-06
0.000444031 -0.00219035 -1.49116e-05
-7.85802e-06 -1.49116e-05 -0.0017413
0.00164656 0.000383451 -6.65516e-05
0.000383451 0.00096768 4.5708e-05
-6.65516e-05 4.5708e-05 0.00128154
0.00175512 -0.000143476 -5.45177e-06
-0.000143476 0.000205008 3.46904e-06
-5.45177e-06 3.46904e-06 0.000460115
0.00131494 0.000151346 1.10772e-06
0.000151346 0.00130142 4.92358e-06
1.10772e-06 4.92358e-06 0.00110897
-0.00418999 0.000226416 1.8231e-05
0.000226416 -0.00151522 5.12675e-07
1.8231e-05 5.12675e-07 -0.00183582
0.00417393 -0.00057937 -1.32425e-06
-0.00057937 0.00108265 4.43243e-06
-1.32425e-06 4.43243e-06 0.0001671
0.00781942 0.000299603 6.63816e-06
0.000299603 0.00288107 -1.76576e-06
6.63816e-06 -1.76576e-06 0.0012922
0.000302337 -0.000180327 -3.63459e-07
-0.000180327 -0.000437825 1.43158e-05
-3.63459e-07 1.43158e-05 -0.000364257
-0.00584571 0.000136102 -4.45746e-05
0.000136102 -0.00294289 8.66607e-07
-4.45746e-05 8.66607e-07 -0.0030107
0.00634475 0.00027056 1.23262e-06
0.00027056 0.00224004 4.12321e-06
1.23262e-06 4.12321e-06 0.000812198
0.0051498 -0.000467725 -1.12494e-06
-0.000467725 0.000832665 2.18828e-05
-1.12494e-06 2.18828e-05 -9.79255e-06
0.000238106 -0.00011085 -1.4751e-05
-0.00011085 -3.7308e-05 8.14308e-06
-1.4751e-05 8.14308e-06 -0.000216492
0.00118907 -0.000178549 -1.02434e-06
-0.000178549 3.40148e-05 4.43544e-07
-1.02434e-06 4.43544e-07 4.48304e-05
0.00204814 -0.000216807 1.00991e-05
-0.000216807 0.000205763 -1.52518e-06
1.00991e-05 -1.52518e-06 0.000254275
0.00015674 -0.000110957 -4.1432e-06
-0.000110957 -0.000237924 -1.66185e-06
-4.1432e-06 -1.66185e-06 -0.000460408
0.00123628 -0.000234645 -3.86391e-06
-0.000234645 -1.24129e-05 -1.46437e-06
-3.86391e-06 -1.46437e-06 -0.000172221
0.00194145 -0.000275708 4.43604e-07
-0.000275708 0.000169402 6.66945e-07
4.43604e-07 6.66945e-07 6.47264e-05
0.00153444 -0.00021618 -3.42744e-06
-0.00021618 0.000304502 -2.38168e-06
-3.42744e-06 -2.38168e-06 9.32649e-05
0.00153082 -0.000236632 2.77409e-06
-0.000236632 0.000109964 6.1955e-07
2.77409e-06 6.1955e-07 -4.14399e-05
0.00213045 -0.000229492 -7.70278e-07
-0.000229492 0.000287144 -3.45643e-06
-7.70278e-07 -3.45643e-06 0.000172754
0.00151869 -0.000209784 -3.08184e-06
-0.000209784 0.000202407 1.44844e-07
-3.08184e-06 1.44844e-07 8.77922e-06
0.00162911 -0.000210305 -4.05387e-07
-0.000210305 0.0001047 7.82453e-07
-4.05387e-07 7.82453e-07 -3.79582e-05
0.0016686 -0.000172274 1.9736e-07
-0.000172274 7.45496e-05 -2.50461e-06
1.9736e-07 -2.50461e-06 -3.51218e-05
0.00163158 -0.000154862 -8.25966e-07
-0.000154862 9.64133e-05 -1.63528e-06
-8.25966e-07 -1.63528e-06 -1.69706e-05
0.00186252 -0.000195493 -1.07559e-06
-0.000195493 0.00031495 -1.98259e-06
-1.07559e-06 -1.98259e-06 0.000163158
0.00168813 -0.000184618 3.82559e-08
-0.000184618 0.00015638 1.0606e-06
3.82559e-08 1.0606e-06 2.19041e-05
0.000895768 -0.000150052 -2.71433e-06
-0.000150052 -6.40889e-05 1.27425e-06
-2.71433e-06 1.27425e-06 -0.000228895
0.00145231 -0.000187487 2.06933e-06
-0.000187487 0.00019588 -1.24966e-06
2.06933e-06 -1.24966e-06 1.9054e-05
0.00129551 -0.000186868 1.79039e-06
-0.000186868 4.05725e-05 1.71005e-06
1.79039e-06 1.71005e-06 -0.000124337
0.0010598 -0.000143958 -2.88673e-07
-0.000143958 0.000126827 1.404e-06
-2.88673e-07 1.404e-06 -1.20728e-05
0.00105856 -0.00015162 1.04303e-06
-0.00015162 0.00010205 -5.42882e-07
1.04303e-06 -5.42882e-07 -5.77317e-05
0.00075671 -0.000145789 4.29093e-07
-0.000145789 -8.34508e-05 -2.67508e-06
4.29093e-07 -2.67508e-06 -0.000274586
0.00094497 -0.000113541 -1.68732e-06
-0.000113541 0.000103844 2.49603e-07
-1.68732e-06 2.49603e-07 -8.53579e-06
0.00104821 -0.000135114 -1.27473e-07
-0.000135114 0.000155823 -5.88761e-07
-1.27473e-07 -5.88761e-07 2.6644e-05
0.000804138 -0.000124257 -3.87951e-07
-0.000124257 2.91235e-05 -2.78562e-06
-3.87951e-07 -2.78562e-06 -0.000104163
0.000780476 8.10277e-06 2.981e-07
8.10277e-06 4.54994e-05 3.16058e-06
2.981e-07 3.16058e-06 -3.15268e-05
0.000927261 -6.65694e-05 9.84961e-07
-6.65694e-05 0.000119812 4.51375e-07
9.84961e-07 4.51375e-07 1.37305e-05
0.000850545 -9.28196e-05 4.8863e-08
-9.28196e-05 8.79203e-05 9.8029e-07
4.8863e-08 9.8029e-07 -3.46814e-05
0.000583168 5.92634e-05 -9.93287e-07
5.92634e-05 -5.07325e-05 4.33131e-06
-9.93287e-07 4.33131e-06 -7.56008e-05
0.000716832 2.61398e-05 -6.95175e-07
2.61398e-05 1.19215e-05 -3.81883e-07
-6.95175e-07 -3.81883e-07 -5.06998e-05
0.00088915 -2.62647e-05 -6.63769e-08
-2.62647e-05 0.000113727 -1.69426e-06
-6.63769e-08 -1.69426e-06 1.7988e-05
0.00217729 8.19379e-05 -9.58388e-06
8.19379e-05 0.000827216 1.24545e-06
-9.58388e-06 1.24545e-06 0.000834433
0.00066833 5.38419e-05 -7.76628e-09
5.38419e-05 -1.28667e-05 -8.77781e-08
-7.76628e-09 -8.77781e-08 -3.15335e-05
0.0007048 4.16581e-05 1.09749e-06
4.16581e-05 1.65516e-06 -2.25641e-06
1.09749e-06 -2.25641e-06 -4.82749e-05
0.0021273 6.63317e-05 1.22369e-06
6.63317e-05 0.000789256 9.59551e-08
1.22369e-06 9.59551e-08 0.000801015
0.000711025 4.93121e-05 1.32335e-06
4.93121e-05 -3.28146e-07 -3.43892e-06
1.32335e-06 -3.43892e-06 -1.437e-05
0.00212477 5.98746e-05 2.54836e-05
5.98746e-05 0.000780603 -3.16449e-06
2.54836e-05 -3.16449e-06 0.000794178
0.000905292 3.32341e-05 -3.08857e-07
3.32341e-05 0.000110548 -1.52765e-07
-3.08857e-07 -1.52765e-07 2.77814e-05
0.000799601 -1.0855e-05 7.64928e-08
-1.0855e-05 4.59494e-05 -2.68622e-07
7.64928e-08 -2.68622e-07 -3.13369e-05
0.000803732 2.00514e-06 -3.15649e-07
2.00514e-06 4.78517e-05 -1.6219e-06
-3.15649e-07 -1.6219e-06 -2.43785e-05
0.000730959 -4.52396e-05 -6.70891e-07
-4.52396e-05 3.70766e-07 -2.24557e-06
-6.70891e-07 -2.24557e-06 -4.35656e-05
0.000786502 -1.17904e-05 8.36726e-07
-1.17904e-05 3.42129e-05 -8.18677e-08
8.36726e-07 -8.18677e-08 -3.23774e-05
0.000766958 -6.88784e-06 4.51473e-07
-6.88784e-06 3.0899e-05 7.14858e-07
4.51473e-07 7.14858e-07 -4.50449e-05
0.000682807 -4.05337e-05 -1.26394e-06
-4.05337e-05 -2.77536e-05 -3.7716e-06
-1.26394e-06 -3.7716e-06 -4.11121e-05
0.000743887 -3.2928e-05 -2.00239e-07
-3.2928e-05 6.4612e-07 1.9251e-08
-2.00239e-07 1.9251e-08 -4.05979e-05
0.000788165 -8.0205e-06 1.16772e-06
-8.0205e-06 3.07721e-05 8.60405e-07
1.16772e-06 8.60405e-07 -3.17843e-05
0.00226975 -5.28817e-05 -2.44014e-05
-5.28817e-05 0.000849703 -3.72802e-06
-2.44014e-05 -3.72802e-06 0.000864366
0.000678407 -3.49414e-05 -2.17477e-07
-3.49414e-05 -3.65617e-05 2.57786e-08
-2.17477e-07 2.57786e-08 -4.80161e-05
0.000757846 -2.33433e-05 8.65233e-07
-2.33433e-05 4.86008e-06 1.66839e-06
8.65233e-07 1.66839e-06 -3.47133e-05
0.00222797 -4.45424e-05 -2.34458e-06
-4.45424e-05 0.000819768 1.1094e-07
-2.34458e-06 1.1094e-07 0.000836271
0.000684855 -2.94725e-05 3.47958e-07
-2.94725e-05 -3.90454e-05 3.52092e-06
3.47958e-07 3.52092e-06 -4.83249e-05
0.00216515 -3.52862e-05 1.51378e-05
-3.52862e-05 0.000778856 4.13489e-06
1.51378e-05 4.13489e-06 0.000797292
-0.00225932 -0.000120992 3.63437e-05
-0.000120992 -0.000447192 1.81237e-05
3.63437e-05 1.81237e-05 -0.00103198
0.0018613 -5.13366e-05 2.12132e-06
-5.13366e-05 0.000340642 6.95299e-06
2.12132e-06 6.95299e-06 5.96049e-05
0.00122917 -1.86403e-05 -8.70901e-06
-1.86403e-05 9.37877e-05 -6.02573e-06
-8.70901e-06 -6.02573e-06 -3.75326e-05
0.000852021 9.17177e-06 -9.24868e-07
9.17177e-06 8.7227e-05 6.98434e-07
-9.24868e-07 6.98434e-07 1.2026e-06
0.00107242 0.000117217 2.03351e-07
0.000117217 0.000221101 8.51106e-07
2.03351e-07 8.51106e-07 0.000116586
0.000864322 2.75406e-05 -3.68883e-07
2.75406e-05 0.000102483 1.00606e-07
-3.68883e-07 1.00606e-07 9.08333e-06
0.000959883 -4.01977e-05 3.01254e-07
-4.01977e-05 0.000132961 -3.60029e-07
3.01254e-07 -3.60029e-07 5.93185e-05
0.000924034 2.68271e-05 6.13648e-07
2.68271e-05 0.000115549 4.51875e-07
6.13648e-07 4.51875e-07 3.61367e-05
0.000718846 -2.18971e-05 -8.17134e-07
-2.18971e-05 8.26323e-06 1.59952e-06
-8.17134e-07 1.59952e-06 -7.18201e-05
0.000742138 2.51611e-06 -7.08663e-07
2.51611e-06 2.82956e-05 -2.56072e-09
-7.08663e-07 -2.56072e-09 -5.6401e-05
0.000801441 6.31034e-06 2.12492e-07
6.31034e-06 5.82068e-05 -1.42968e-07
2.12492e-07 -1.42968e-07 -2.95095e-05
0.000998176 5.31554e-05 1.44978e-06
5.31554e-05 0.000187633 -1.85379e-06
1.44978e-06 -1.85379e-06 8.47935e-05
0.000861445 6.65859e-05 4.14219e-06
6.65859e-05 7.51329e-05 -3.77028e-06
4.14219e-06 -3.77028e-06 -7.95219e-06
0.000851877 2.94656e-05 -2.51353e-07
2.94656e-05 8.724e-05 -9.2774e-07
-2.51353e-07 -9.2774e-07 6.03892e-06
0.000996683 3.61085e-05 7.35129e-07
3.61085e-05 0.000183818 8.01721e-07
7.35129e-07 8.01721e-07 0.00010413
-0.00251975 -0.000350671 -3.9625e-05
-0.000350671 -0.00110062 1.70694e-05
-3.9625e-05 1.70694e-05 -0.00121205
-0.000555243 -0.000328727 3.00755e-05
-0.000328727 -5.85427e-05 1.09248e-05
3.00755e-05 1.09248e-05 -0.000142588
0.00223677 -3.2716e-05 -4.90935e-05
-3.2716e-05 0.000503062 -3.82529e-05
-4.90935e-05 -3.82529e-05 -7.30151e-05
-0.00355975 -0.000660976 3.23059e-05
-0.000660976 -0.00277038 5.29234e-05
3.23059e-05 5.29234e-05 -0.00123464
0.0054344 -0.000668196 -1.09529e-05
-0.000668196 0.00154871 -1.26923e-05
-1.09529e-05 -1.26923e-05 0.00165628
0.00320452 0.000331689 5.22671e-05
0.000331689 0.000851088 -4.42862e-06
5.22671e-05 -4.42862e-06 -0.00124747
0.00295734 -0.000254897 -0.000132896
-0.000254897 0.000341161 8.11298e-05
-0.000132896 8.11298e-05 -0.000220026
0.00326749 0.00012821 -2.84951e-05
0.00012821 0.000437455 4.5441e-06
-2.84951e-05 4.5441e-06 0.000159806
0.00428137 -0.000746846 -1.6657e-05
-0.000746846 0.00177052 2.14473e-05
-1.6657e-05 2.14473e-05 0.00193212
0.00168852 9.04997e-05 9.7141e-06
9.04997e-05 0.000217985 1.65908e-05
9.7141e-06 1.65908e-05 -0.0016409
0.00236139 0.000368337 -0.000107317
0.000368337 0.000513847 -8.13676e-05
-0.000107317 -8.13676e-05 -0.000238373
0.00207769 0.000401429 -0.000143165
0.000401429 0.000334103 -5.27645e-05
-0.000143165 -5.27645e-05 -0.0014571
0.0022467 0.000323655 1.23691e-05
0.000323655 0.000625825 -1.15718e-05
1.23691e-05 -1.15718e-05 0.000485981
0.000778926 0.000131438 -2.44372e-06
0.000131438 5.7283e-05 3.78798e-07
-2.44372e-06 3.78798e-07 -2.05339e-06
0.00112214 2.23849e-05 -1.25534e-06
2.23849e-05 0.000244045 -2.6993e-06
-1.25534e-06 -2.6993e-06 0.000184465
0.000244234 0.000127099 -3.28216e-05
0.000127099 -2.51589e-05 -1.4313e-05
-3.28216e-05 -1.4313e-05 -0.0002933
0.0015732 0.000117804 -5.978e-06
0.000117804 0.000564381 -6.32395e-06
-5.978e-06 -6.32395e-06 0.000476945
0.00122624 0.000246201 9.65967e-06
0.000246201 0.000203386 -6.82753e-07
9.65967e-06 -6.82753e-07 6.95474e-05
0.00168811 0.000343214 5.56309e-05
0.000343214 -2.22919e-05 3.05836e-05
5.56309e-05 3.05836e-05 -6.31088e-05
-0.00354292 -4.50241e-05 -8.93087e-05
-4.50241e-05 -0.00171536 -4.83913e-06
-8.93087e-05 -4.83913e-06 -0.00149187
-0.000587655 -1.25334e-05 2.66668e-05
-1.25334e-05 0.000591464 5.64957e-07
2.66668e-05 5.64957e-07 7.21417e-05
0.00149146 -2.24611e-05 -4.07172e-05
-2.24611e-05 0.000212429 4.04534e-06
-4.07172e-05 4.04534e-06 1.35491e-05
0.00163592 -0.000176424 -3.62133e-05
-0.000176424 0.000135374 -1.82053e-05
-3.62133e-05 -1.82053e-05 0.00038317
0.00355314 -0.000607057 -6.71399e-05
-0.000607057 0.000551468 -1.90927e-06
-6.71399e-05 -1.90927e-06 -0.00015101
0.00125815 0.000118668 -4.08624e-05
0.000118668 0.0013459 1.77194e-05
-4.08624e-05 1.77194e-05 0.0011126
-0.00139115 -5.22497e-05 5.12648e-05
-5.22497e-05 -0.00103193 -5.42667e-05
5.12648e-05 -5.42667e-05 -0.00301019
0.010067 0.000531026 -7.8896e-05
0.000531026 0.00498682 1.07784e-05
-7.8896e-05 1.07784e-05 0.00496182
0.00165866 -0.000297324 5.219e-06
-0.000297324 0.000164899 1.43906e-06
5.219e-06 1.43906e-06 0.000147224
-0.000733717 0.000262493 -2.02299e-06
0.000262493 -0.000222012 -4.47973e-06
-2.02299e-06 -4.47973e-06 -0.000348576
0.0022984 0.000151939 -1.54375e-05
0.000151939 0.000238537 1.85592e-05
-1.54375e-05 1.85592e-05 -0.00145123
0.00511836 -0.000484947 -2.27109e-05
-0.000484947 0.00127347 8.71423e-06
-2.27109e-05 8.71423e-06 0.000480755
-0.000527309 -0.000130813 3.73068e-06
-0.000130813 -0.00075651 -3.3279e-06
3.73068e-06 -3.3279e-06 -0.000949485
0.0080663 -7.22905e-05 5.91072e-05
-7.22905e-05 0.0025971 -3.64432e-06
5.91072e-05 -3.64432e-06 0.0016782
0.00419197 -0.000104707 1.06109e-05
-0.000104707 0.000896118 -1.12804e-05
1.06109e-05 -1.12804e-05 0.000389797
-0.000211809 -0.000110052 -1.44444e-05
-0.000110052 -0.000681036 3.14711e-06
-1.44444e-05 3.14711e-06 -0.000629094
0.00111064 -0.000188149 -1.02669e-06
-0.000188149 -0.000275574 -7.01112e-07
-1.02669e-06 -7.01112e-07 -0.00022053
0.00207977 -0.000250795 5.95366e-06
-0.000250795 6.44816e-05 -1.04904e-05
5.95366e-06 -1.04904e-05 0.000114587
0.00161078 -0.000253247 -6.56324e-06
-0.000253247 0.000181397 -3.27988e-06
-6.56324e-06 -3.27988e-06 2.31015e-05
0.00164423 -0.000260049 -1.77752e-08
-0.000260049 1.21076e-05 1.26311e-06
-1.77752e-08 1.26311e-06 -8.5239e-05
0.00205906 -0.00023774 -4.49565e-06
-0.00023774 0.000141152 -4.26744e-07
-4.49565e-06 -4.26744e-07 7.86986e-05
0.00118996 -0.000216858 5.90878e-07
-0.000216858 -5.60791e-05 2.30371e-06
5.90878e-07 2.30371e-06 -0.000209393
0.00169452 -0.000211521 -2.39692e-06
-0.000211521 5.46899e-05 -8.36701e-07
-2.39692e-06 -8.36701e-07 -5.88192e-05
0.00189002 -0.000176274 -1.53108e-06
-0.000176274 0.000103468 -1.88771e-06
-1.53108e-06 -1.88771e-06 1.56985e-05
0.00175648 -0.000214135 2.02491e-06
-0.000214135 0.000174096 2.75786e-06
2.02491e-06 2.75786e-06 3.08332e-05
0.00169084 -0.000172031 2.55821e-07
-0.000172031 8.71821e-05 -1.08837e-08
2.55821e-07 -1.08837e-08 -2.21661e-05
0.00170462 -0.000142131 2.5078e-07
-0.000142131 8.50945e-05 -1.27788e-06
2.5078e-07 -1.27788e-06 -1.01697e-05
0.00169345 -0.000135994 9.79394e-08
-0.000135994 0.000126525 -5.09745e-07
9.79394e-08 -5.09745e-07 2.29125e-05
0.00160772 -0.000151315 -1.44494e-06
-0.000151315 8.3494e-05 1.28014e-06
-1.44494e-06 1.28014e-06 -2.78017e-05
0.00167398 -0.000159985 -3.4439e-08
-0.000159985 0.000167201 -2.56035e-06
-3.4439e-08 -2.56035e-06 4.45185e-05
0.00157399 -0.000176936 -2.99308e-06
-0.000176936 0.000211131 -1.23039e-06
-2.99308e-06 -1.23039e-06 6.03434e-05
0.00180315 -0.000191526 1.26529e-06
-0.000191526 0.000283526 9.74084e-08
1.26529e-06 9.74084e-08 0.000132165
0.00164203 -0.00017991 6.86682e-07
-0.00017991 0.000134874 4.38138e-06
6.86682e-07 4.38138e-06 8.08753e-07
0.000826527 -0.000137779 -3.45732e-06
-0.000137779 -6.74347e-05 2.9243e-06
-3.45732e-06 2.9243e-06 -0.000216053
0.001221 -0.000165701 4.57621e-07
-0.000165701 0.000113269 -1.84542e-07
4.57621e-07 -1.84542e-07 -5.06499e-05
0.00139843 -0.000181808 3.58284e-06
-0.000181808 0.000167953 -1.07635e-06
3.58284e-06 -1.07635e-06 -5.28758e-06
0.000953978 -0.000122882 -1.54011e-06
-0.000122882 8.26297e-05 7.53472e-07
-1.54011e-06 7.53472e-07 -3.7206e-05
0.001107 -0.000145658 1.82213e-07
-0.000145658 0.000149878 -2.73168e-07
1.82213e-07 -2.73168e-07 1.08214e-05
0.000706002 -0.000129977 8.76363e-07
-0.000129977 -8.23882e-05 -4.23992e-06
8.76363e-07 -4.23992e-06 -0.000240194
0.000776354 -4.76038e-05 -2.7146e-06
-4.76038e-05 3.09434e-05 2.57507e-06
-2.7146e-06 2.57507e-06 -5.54197e-05
0.00102422 -0.000119305 7.6479e-08
-0.000119305 0.000145371 -1.05296e-07
7.6479e-08 -1.05296e-07 3.24675e-05
0.00113779 -0.000140079 7.47813e-07
-0.000140079 0.000201473 -7.46233e-07
7.47813e-07 -7.46233e-07 7.18725e-05
0.00054164 6.74551e-05 7.83263e-07
6.74551e-05 -6.72976e-05 5.55058e-06
7.83263e-07 5.55058e-06 -0.000101802
0.00076286 -8.68265e-06 8.1904e-08
-8.68265e-06 3.72553e-05 9.38459e-08
8.1904e-08 9.38459e-08 -4.21316e-05
0.00101541 -7.33635e-05 1.42841e-06
-7.33635e-05 0.00016717 -3.89195e-07
1.42841e-06 -3.89195e-07 5.99247e-05
0.00239716 8.49282e-05 -3.54917e-05
8.49282e-05 0.000952795 2.62273e-06
-3.54917e-05 2.62273e-06 0.000958617
0.000629637 6.47213e-05 -1.24882e-07
6.47213e-05 -2.35508e-05 -2.06103e-07
-1.24882e-07 -2.06103e-07 -4.99044e-05
0.000714059 -8.93709e-06 2.20781e-06
-8.93709e-06 7.85111e-06 -3.00654e-06
2.20781e-06 -3.00654e-06 -5.4229e-05
0.00157512 6.3812e-05 1.40993e-05
6.3812e-05 0.000492709 -5.56163e-07
1.40993e-05 -5.56163e-07 0.000497927
0.000702572 5.74824e-05 4.94458e-07
5.74824e-05 6.24074e-06 -4.03711e-06
4.94458e-07 -4.03711e-06 -1.30755e-05
0.00219046 6.76241e-05 2.98563e-05
6.76241e-05 0.000825392 -2.92645e-06
2.98563e-05 -2.92645e-06 0.000836594
0.000896765 5.03276e-05 5.19282e-07
5.03276e-05 0.000107032 4.52502e-07
5.19282e-07 4.52502e-07 1.59753e-05
0.000861397 -1.86439e-06 -2.74823e-07
-1.86439e-06 8.29162e-05 4.91934e-07
-2.74823e-07 4.91934e-07 3.29899e-06
0.000808531 -3.13381e-05 2.41161e-07
-3.13381e-05 5.52083e-05 -1.49092e-06
2.41161e-07 -1.49092e-06 -2.10976e-05
0.000870848 7.75072e-06 1.0142e-07
7.75072e-06 8.49478e-05 5.33594e-07
1.0142e-07 5.33594e-07 6.63444e-06
0.000792758 -2.97618e-05 4.19523e-07
-2.97618e-05 3.86072e-05 -8.34823e-08
4.19523e-07 -8.34823e-08 -3.09348e-05
0.000701521 -4.53667e-05 -6.4255e-07
-4.53667e-05 -9.35475e-06 -2.46705e-06
-6.4255e-07 -2.46705e-06 -5.65867e-05
0.000685159 -4.56643e-05 -1.64554e-06
-4.56643e-05 -1.92843e-05 -3.89545e-06
-1.64554e-06 -3.89545e-06 -3.45629e-05
0.000730772 -4.14033e-05 9.10531e-08
-4.14033e-05 -2.25247e-07 -3.47572e-08
9.10531e-08 -3.47572e-08 -4.37732e-05
0.00077838 -5.21478e-05 -2.38699e-07
-5.21478e-05 2.64465e-05 1.28518e-06
-2.38699e-07 1.28518e-06 -3.716e-05
0.00227492 -6.02527e-05 -2.81676e-05
-6.02527e-05 0.000859528 -3.4563e-06
-2.81676e-05 -3.4563e-06 0.000872593
0.000669993 -3.95396e-05 -2.41687e-07
-3.95396e-05 -3.47633e-05 3.96596e-08
-2.41687e-07 3.96596e-08 -4.80204e-05
0.000746077 -2.45652e-05 1.59422e-06
-2.45652e-05 1.17279e-06 1.87537e-06
1.59422e-06 1.87537e-06 -3.95414e-05
0.00226504 -5.26477e-05 -1.97719e-06
-5.26477e-05 0.000846444 1.2679e-07
-1.97719e-06 1.2679e-07 0.000861211
0.000673255 -3.42447e-05 6.65356e-07
-3.42447e-05 -3.92457e-05 3.68269e-06
6.65356e-07 3.68269e-06 -5.06599e-05
0.00220892 -4.40455e-05 1.85832e-05
-4.40455e-05 0.000808629 3.98647e-06
1.85832e-05 3.98647e-06 0.00082534
0.000814162 0.000142704 6.17502e-05
0.000142704 0.00082273 3.42983e-05
6.17502e-05 3.42983e-05 0.000316212
-0.000416228 -0.000160754 2.12918e-06
-0.000160754 0.000368211 6.19164e-06
2.12918e-06 6.19164e-06 -9.54369e-05
0.00182019 -5.73577e-05 -4.38674e-05
-5.73577e-05 0.000346822 -1.18256e-05
-4.38674e-05 -1.18256e-05 6.8071e-05
0.000818798 -2.31162e-05 -7.70428e-08
-2.31162e-05 6.74937e-05 7.11323e-07
-7.70428e-08 7.11323e-07 -1.69295e-05
0.000836344 8.75894e-07 -8.55854e-08
8.75894e-07 8.40374e-05 7.05363e-07
-8.55854e-08 7.05363e-07 -8.45252e-06
0.000930444 0.000103229 -1.06527e-07
0.000103229 0.000147945 2.74869e-07
-1.06527e-07 2.74869e-07 4.51361e-05
0.00111676 0.000137418 1.07848e-06
0.000137418 0.00023285 2.75012e-07
1.07848e-06 2.75012e-07 0.000116339
0.00091536 8.39416e-05 -1.22348e-06
8.39416e-05 0.00014739 -5.24397e-07
-1.22348e-06 -5.24397e-07 3.87289e-05
0.000808014 3.3666e-05 4.25585e-07
3.3666e-05 6.32771e-05 1.17037e-06
4.25585e-07 1.17037e-06 -2.21357e-05
0.000742202 1.16233e-05 1.48965e-07
1.16233e-05 2.54454e-05 1.19757e-06
1.48965e-07 1.19757e-06 -6.1928e-05
0.00071611 5.5334e-05 -1.06174e-06
5.5334e-05 3.36928e-05 -1.07879e-06
-1.06174e-06 -1.07879e-06 -6.60878e-05
0.000160625 7.53062e-05 -9.80395e-08
7.53062e-05 -0.000256674 4.01461e-07
-9.80395e-08 4.01461e-07 -0.000371913
0.000918199 0.000116644 1.17572e-06
0.000116644 9.84788e-05 -3.67591e-06
1.17572e-06 -3.67591e-06 -3.41521e-06
0.00186904 0.000246555 6.38278e-06
0.000246555 0.000399338 -9.44065e-06
6.38278e-06 -9.44065e-06 0.000264969
0.000787546 6.63713e-05 -1.42227e-06
6.63713e-05 5.44885e-05 -3.42437e-07
-1.42227e-06 -3.42437e-07 -2.86618e-05
0.00073756 4.83097e-06 -5.69567e-07
4.83097e-06 3.43245e-05 -9.08897e-07
-5.69567e-07 -9.08897e-07 -4.0483e-05
0.00971305 -2.21239e-05 -4.35979e-05
-2.21239e-05 0.00315329 -4.92531e-06
-4.35979e-05 -4.92531e-06 0.00190268
-0.00194997 -0.000274569 -4.67486e-05
-0.000274569 -0.000536262 -7.27797e-06
-4.67486e-05 -7.27797e-06 -0.00091884
0.000908487 -0.000356354 -2.65503e-05
-0.000356354 0.000584039 -2.60068e-05
-2.65503e-05 -2.60068e-05 0.000464827
-0.00297727 -0.000365114 2.802e-06
-0.000365114 -0.00160343 2.06424e-05
2.802e-06 2.06424e-05 -0.00140552
0.00949475 -0.00036958 8.15037e-05
-0.00036958 0.00400252 5.12157e-06
8.15037e-05 5.12157e-06 0.00172036
0.00311576 0.000156536 -8.76175e-06
0.000156536 0.000483285 1.34991e-05
-8.76175e-06 1.34991e-05 0.000367589
0.00138162 0.000335348 -4.47081e-05
0.000335348 -0.000129249 -2.09551e-05
-4.47081e-05 -2.09551e-05 -0.000733529
0.00706991 -0.000286312 5.34319e-05
-0.000286312 0.00235857 1.73852e-05
5.34319e-05 1.73852e-05 0.000898206
0.00342394 0.000411794 5.3052e-06
0.000411794 0.000342563 -3.16078e-05
5.3052e-06 -3.16078e-05 -0.000205708
0.00207069 0.000371194 8.16447e-06
0.000371194 0.000319956 1.31572e-05
8.16447e-06 1.31572e-05 0.000160136
0.000883058 0.000221869 2.36538e-06
0.000221869 5.89138e-06 -5.25082e-06
2.36538e-06 -5.25082e-06 -0.000141555
0.000931444 0.000122289 -8.56106e-06
0.000122289 0.000136313 4.53581e-06
-8.56106e-06 4.53581e-06 8.05188e-05
0.0012965 0.000263896 -3.17292e-05
0.000263896 0.000176921 -1.51855e-05
-3.17292e-05 -1.51855e-05 5.6752e-05
0.00101723 0.000318196 -1.71548e-05
0.000318196 -0.000317586 1.46116e-05
-1.71548e-05 1.46116e-05 -0.000380687
0.000526861 -0.000118871 -9.76671e-06
-0.000118871 -0.00149234 -1.40621e-06
-9.76671e-06 -1.40621e-06 -0.0018943
0.00188572 -5.58623e-05 -3.64229e-06
-5.58623e-05 0.00111205 -3.67367e-06
-3.64229e-06 -3.67367e-06 0.00102907
-0.00147937 -1.95981e-05 2.29395e-06
-1.95981e-05 0.000249922 -1.54547e-07
2.29395e-06 -1.54547e-07 -0.000330292
0.00276188 -0.000383455 -5.24965e-05
-0.000383455 0.000642408 3.9533e-06
-5.24965e-05 3.9533e-06 0.000573847
0.00362928 -0.0004463 -1.85269e-05
-0.0004463 0.000648837 -1.63394e-05
-1.85269e-05 -1.63394e-05 -0.000456171
0.000252155 -8.93314e-05 -9.89712e-06
-8.93314e-05 0.000420814 1.53885e-05
-9.89712e-06 1.53885e-05 0.00013813
0.00972203 0.000337922 -4.28951e-05
0.000337922 0.00398502 2.8779e-05
-4.28951e-05 2.8779e-05 0.00245354
0.000582084 -0.000181027 -1.83251e-06
-0.000181027 -0.000255403 -5.77912e-07
-1.83251e-06 -5.77912e-07 -0.000388065
0.0060791 0.000142163 1.80379e-05
0.000142163 0.00155842 1.57602e-05
1.80379e-05 1.57602e-05 0.000736055
0.00352895 -0.00018491 4.10491e-05
-0.00018491 0.000292898 -1.44362e-06
4.10491e-05 -1.44362e-06 -0.000453036
0.00310625 -0.000220603 -4.00073e-06
-0.000220603 0.00105504 2.5449e-06
-4.00073e-06 2.5449e-06 0.00082243
0.0031879 -5.5706e-05 -8.81191e-05
-5.5706e-05 0.000669949 -7.46378e-06
-8.81191e-05 -7.46378e-06 0.00037241
0.000288934 -0.000161878 -9.28027e-06
-0.000161878 -0.00071036 3.12954e-06
-9.28027e-06 3.12954e-06 -0.00064162
0.00153424 -0.000240747 -1.3089e-08
-0.000240747 -0.000193329 6.10669e-07
-1.3089e-08 6.10669e-07 -0.000166617
0.00194241 -0.00016801 -2.18994e-07
-0.00016801 -1.86213e-05 -6.97784e-07
-2.18994e-07 -6.97784e-07 -1.46103e-05
0.0013383 -0.000244616 3.40001e-06
-0.000244616 -0.000145099 1.31623e-06
3.40001e-06 1.31623e-06 -0.000237341
0.00176969 -0.000216887 -5.1079e-07
-0.000216887 1.59598e-05 -4.31628e-07
-5.1079e-07 -4.31628e-07 -4.59635e-05
0.00184365 -0.000144044 -2.68865e-06
-0.000144044 -8.14857e-06 5.49454e-07
-2.68865e-06 5.49454e-07 -5.10958e-05
0.00131521 -0.000195938 -3.3192e-06
-0.000195938 -0.000148311 2.4416e-06
-3.3192e-06 2.4416e-06 -0.000261186
0.00178802 -0.000171294 2.68997e-07
-0.000171294 4.73371e-05 1.25404e-06
2.68997e-07 1.25404e-06 -3.98566e-05
0.00178928 -0.000137056 1.8518e-06
-0.000137056 7.86367e-05 7.69998e-08
1.8518e-06 7.69998e-08 1.28348e-07
0.00169821 -0.000171156 9.63257e-07
-0.000171156 9.25974e-05 2.99564e-06
9.63257e-07 2.99564e-06 -1.6496e-05
0.00171025 -0.000143702 -3.09208e-07
-0.000143702 8.95764e-05 6.86379e-07
-3.09208e-07 6.86379e-07 -6.50406e-06
0.00175455 -0.000125773 1.55366e-06
-0.000125773 0.000130338 -8.4982e-08
1.55366e-06 -8.4982e-08 3.56694e-05
0.00161225 -0.000133848 -2.34002e-06
-0.000133848 8.17464e-05 9.53981e-07
-2.34002e-06 9.53981e-07 -2.06366e-05
0.00168912 -0.000137391 2.12741e-06
-0.000137391 0.000150438 -9.91151e-07
2.12741e-06 -9.91151e-07 3.94021e-05
0.00160109 -0.000148764 -7.02702e-09
-0.000148764 7.96223e-05 2.80703e-06
-7.02702e-09 2.80703e-06 -2.97472e-05
0.00166292 -0.000159035 2.47503e-07
-0.000159035 0.00015868 -7.88384e-08
2.47503e-07 -7.88384e-08 3.64558e-05
0.00164476 -0.000158668 -2.29838e-07
-0.000158668 0.000194469 -1.62269e-06
-2.29838e-07 -1.62269e-06 6.36588e-05
0.00108936 -0.000147688 -4.12398e-06
-0.000147688 -7.25721e-06 9.75488e-07
-4.12398e-06 9.75488e-07 -0.000151901
0.00154761 -0.000174551 2.16202e-07
-0.000174551 0.000197688 -5.32107e-07
2.16202e-07 -5.32107e-07 4.6335e-05
0.00174413 -0.000187609 2.77317e-06
-0.000187609 0.000252761 2.52557e-06
2.77317e-06 2.52557e-06 0.000101763
0.00106316 -0.000136413 -2.70781e-06
-0.000136413 9.81936e-05 1.92236e-06
-2.70781e-06 1.92236e-06 -3.06888e-05
0.000939515 -0.00014259 -1.06589e-06
-0.00014259 -2.95803e-06 1.17802e-06
-1.06589e-06 1.17802e-06 -0.000150646
0.00151619 -0.000179505 3.45209e-06
-0.000179505 0.000274946 -1.91594e-06
3.45209e-06 -1.91594e-06 0.000112056
0.000736526 -6.75282e-05 -3.23542e-06
-6.75282e-05 -9.79833e-06 2.07051e-06
-3.23542e-06 2.07051e-06 -0.000100807
0.00105226 -0.000129472 1.43518e-07
-0.000129472 0.000133811 -3.26804e-07
1.43518e-07 -3.26804e-07 1.31682e-05
0.00116332 -0.000148012 1.40406e-06
-0.000148012 0.000177943 -2.15642e-06
1.40406e-06 -2.15642e-06 3.86406e-05
0.000546961 3.34998e-05 -2.29108e-06
3.34998e-05 -7.44586e-05 6.22998e-06
-2.29108e-06 6.22998e-06 -0.000112886
0.000818736 -5.20977e-05 2.02423e-07
-5.20977e-05 5.30565e-05 2.90106e-07
2.02423e-07 2.90106e-07 -3.37923e-05
0.00108426 -0.000116861 1.71675e-06
-0.000116861 0.00017565 -3.97259e-07
1.71675e-06 -3.97259e-07 6.33798e-05
0.00269974 9.74388e-05 -4.25334e-05
9.74388e-05 0.00112215 2.56575e-06
-4.25334e-05 2.56575e-06 0.00112433
0.000599417 5.21915e-05 7.73747e-07
5.21915e-05 -3.99317e-05 -1.99672e-07
7.73747e-07 -1.99672e-07 -7.23606e-05
0.000765424 -4.23555e-05 2.43484e-06
-4.23555e-05 3.43694e-05 -2.70545e-06
2.43484e-06 -2.70545e-06 -4.38182e-05
0.0024877 8.5641e-05 1.35707e-06
8.5641e-05 0.00100176 1.3795e-07
1.35707e-06 1.3795e-07 0.00100729
0.000673598 6.15371e-05 -2.80691e-07
6.15371e-05 -2.43781e-07 -4.93895e-06
-2.80691e-07 -4.93895e-06 -2.64182e-05
0.00234225 7.61784e-05 3.60683e-05
7.61784e-05 0.000916295 -2.77157e-06
3.60683e-05 -2.77157e-06 0.00092473
0.00100054 0.000122563 6.8584e-07
0.000122563 0.000156938 -2.61351e-07
6.8584e-07 -2.61351e-07 4.72855e-05
0.000843123 8.17073e-05 3.50365e-07
8.17073e-05 8.22008e-05 7.32425e-08
3.50365e-07 7.32425e-08 -1.18438e-05
0.000745697 -2.34184e-05 -3.72419e-07
-2.34184e-05 2.49573e-05 -9.32465e-07
-3.72419e-07 -9.32465e-07 -6.16323e-05
0.000799526 -3.23003e-05 -4.71213e-07
-3.23003e-05 4.89482e-05 9.09193e-07
-4.71213e-07 9.09193e-07 -3.00914e-05
0.000771693 -4.40517e-05 2.16659e-07
-4.40517e-05 3.40661e-05 5.36765e-08
2.16659e-07 5.36765e-08 -4.1977e-05
0.000679723 -4.42714e-05 -7.11445e-07
-4.42714e-05 -1.58599e-05 -2.65681e-06
-7.11445e-07 -2.65681e-06 -6.98636e-05
0.000765708 -5.11866e-05 -2.49248e-07
-5.11866e-05 2.30232e-05 1.56682e-06
-2.49248e-07 1.56682e-06 -4.54477e-05
0.000712493 -4.98625e-05 3.03753e-07
-4.98625e-05 -3.03193e-06 -1.55471e-07
3.03753e-07 -1.55471e-07 -5.06274e-05
0.000680812 -5.38884e-05 -1.30492e-06
-5.38884e-05 -1.22347e-05 -4.12978e-06
-1.30492e-06 -4.12978e-06 -3.06576e-05
0.00227753 -6.753e-05 -3.1458e-05
-6.753e-05 0.000868691 -3.15294e-06
-3.1458e-05 -3.15294e-06 0.000879969
0.000668774 -4.43797e-05 -4.73643e-08
-4.43797e-05 -2.81295e-05 1.98943e-08
-4.73643e-08 1.98943e-08 -4.32669e-05
0.000731613 -3.84764e-05 1.67956e-06
-3.84764e-05 -1.34488e-07 2.02741e-06
1.67956e-06 2.02741e-06 -4.33353e-05
0.0022785 -6.01111e-05 -1.73554e-06
-6.01111e-05 0.000860708 1.31669e-07
-1.73554e-06 1.31669e-07 0.000873819
0.000662804 -3.86468e-05 1.02419e-06
-3.86468e-05 -3.86804e-05 3.8242e-06
1.02419e-06 3.8242e-06 -5.186e-05
0.00225639 -5.23045e-05 2.27073e-05
-5.23045e-05 0.000841061 3.81198e-06
2.27073e-05 3.81198e-06 0.000855953
0.0083691 0.000153114 8.55522e-05
0.000153114 0.00254776 2.81431e-05
8.55522e-05 2.81431e-05 0.00162886
-0.00246451 -0.000170457 -2.09802e-05
-0.000170457 -0.00125361 -2.43812e-06
-2.09802e-05 -2.43812e-06 -0.00127289
-0.00174364 -8.7981e-05 -4.45261e-05
-8.7981e-05 -0.000252518 -8.01092e-06
-4.45261e-05 -8.01092e-06 -0.000882529
0.000805229 -2.77494e-05 2.68381e-07
-2.77494e-05 6.44995e-05 1.43443e-06
2.68381e-07 1.43443e-06 -2.73926e-05
0.00079129 0.000102432 -7.06693e-07
0.000102432 7.56671e-05 3.84923e-07
-7.06693e-07 3.84923e-07 -2.52736e-05
0.00100644 8.81573e-05 4.79415e-07
8.81573e-05 0.000196829 -8.56583e-08
4.79415e-07 -8.56583e-08 8.82536e-05
0.00100423 0.000130075 -1.12577e-06
0.000130075 0.000173462 1.17599e-07
-1.12577e-06 1.17599e-07 5.82637e-05
0.0011132 0.000142125 8.41044e-06
0.000142125 0.000213341 8.62708e-07
8.41044e-06 8.62708e-07 8.33675e-05
0.000606194 0.000104561 -7.78679e-07
0.000104561 -2.12199e-05 2.56905e-08
-7.78679e-07 2.56905e-08 -0.000137378
0.000445185 5.54979e-05 -9.59855e-07
5.54979e-05 -0.000110831 -4.47117e-08
-9.59855e-07 -4.47117e-08 -0.000209791
0.000562081 0.000102958 4.91609e-07
0.000102958 -5.01432e-05 6.23883e-07
4.91609e-07 6.23883e-07 -0.000172095
0.000824334 9.78611e-05 -6.83293e-07
9.78611e-05 5.34824e-05 -1.43393e-07
-6.83293e-07 -1.43393e-07 -5.09191e-05
0.00019829 0.000104913 1.60269e-06
0.000104913 -0.000323271 -1.31958e-06
1.60269e-06 -1.31958e-06 -0.000447216
0.00311846 0.00029461 5.0841e-08
0.00029461 0.00105266 -2.90484e-06
5.0841e-08 -2.90484e-06 0.000919892
0.00120311 0.000243774 3.84227e-06
0.000243774 -0.000102093 -1.94341e-06
3.84227e-06 -1.94341e-06 -0.000248917
0.00140987 0.000219707 2.26108e-06
0.000219707 0.000174396 -1.85023e-06
2.26108e-06 -1.85023e-06 4.56535e-05
0.000781794 7.23285e-05 -5.03333e-06
7.23285e-05 6.58467e-05 2.6201e-06
-5.03333e-06 2.6201e-06 -1.69368e-05
0.0029453 9.7904e-05 -4.74537e-06
9.7904e-05 -4.22824e-05 -1.48654e-06
-4.74537e-06 -1.48654e-06 -0.000331714
0.00578724 -3.14069e-06 1.69062e-05
-3.14069e-06 0.00147598 6.86325e-06
1.69062e-05 6.86325e-06 0.000262035
0.00498016 -0.000626564 -3.12193e-05
-0.000626564 0.00249082 -3.17511e-05
-3.12193e-05 -3.17511e-05 0.00245281
0.00731332 -3.79004e-05 0.000249656
-3.79004e-05 0.00250586 7.07078e-05
0.000249656 7.07078e-05 0.000702896
0.00195577 0.000341569 3.01374e-05
0.000341569 8.68871e-06 3.77155e-05
3.01374e-05 3.77155e-05 -0.000194422
0.00231859 0.000302889 -6.51276e-05
0.000302889 3.53824e-05 -2.00085e-05
-6.51276e-05 -2.00085e-05 -0.000331696
0.00260143 0.000344495 4.16458e-05
0.000344495 0.000389551 2.06963e-05
4.16458e-05 2.06963e-05 0.000388774
0.00212875 0.000368103 -7.14741e-07
0.000368103 0.000342463 5.3794e-06
-7.14741e-07 5.3794e-06 0.000204596
0.000328027 0.000176194 -2.80517e-06
0.000176194 -0.000258988 5.88161e-06
-2.80517e-06 5.88161e-06 -0.000399539
0.00225154 0.000403458 -7.56846e-05
0.000403458 0.000292492 -4.59377e-05
-7.56846e-05 -4.59377e-05 0.000209644
0.00299824 -0.000129437 -0.000141846
-0.000129437 0.000527967 3.33828e-08
-0.000141846 3.33828e-08 0.000138542
0.00812157 -6.54709e-05 1.58216e-05
-6.54709e-05 0.00261535 -7.22426e-07
1.58216e-05 -7.22426e-07 0.0019984
-0.00575405 -0.000131199 9.26389e-05
-0.000131199 -0.00298157 4.23782e-07
9.26389e-05 4.23782e-07 -0.00289879
0.00155868 -0.000215788 -3.89535e-06
-0.000215788 0.000211151 5.97515e-06
-3.89535e-06 5.97515e-06 0.000100528
0.00546117 -0.000237775 9.53823e-05
-0.000237775 0.00131853 4.38617e-07
9.53823e-05 4.38617e-07 0.000629099
0.000320004 -0.000277233 7.15109e-05
-0.000277233 -0.00123527 3.00108e-05
7.15109e-05 3.00108e-05 -0.00197671
0.00128933 -0.000138997 5.52223e-06
-0.000138997 0.000123377 -1.3951e-06
5.52223e-06 -1.3951e-06 -3.31007e-05
0.00169824 2.49071e-05 -4.62311e-06
2.49071e-05 -0.000207597 2.38597e-06
-4.62311e-06 2.38597e-06 -0.000491849
0.00493255 -0.000144697 4.70364e-06
-0.000144697 0.00177981 -2.59581e-06
4.70364e-06 -2.59581e-06 0.00168169
0.00201912 1.06694e-05 3.71277e-05
1.06694e-05 0.000148285 -3.63719e-06
3.71277e-05 -3.63719e-06 8.42192e-05
0.00101576 -0.000235809 -3.11838e-06
-0.000235809 -0.000435794 2.95083e-06
-3.11838e-06 2.95083e-06 -0.000433959
0.00188979 -0.000174469 -4.45926e-07
-0.000174469 -3.83357e-05 1.07588e-06
-4.45926e-07 1.07588e-06 -4.43082e-05
0.00181975 -6.76368e-05 3.33105e-06
-6.76368e-05 -2.15815e-05 3.42092e-07
3.33105e-06 3.42092e-07 -4.90822e-05
0.00154057 -0.000199654 4.03146e-06
-0.000199654 -8.24999e-05 -2.74073e-07
4.03146e-06 -2.74073e-07 -0.000143797
0.00188465 -0.000145951 1.71394e-06
-0.000145951 2.42727e-05 4.65534e-07
1.71394e-06 4.65534e-07 -2.3793e-05
0.00173121 -8.41797e-05 2.18943e-06
-8.41797e-05 2.04708e-05 9.97327e-07
2.18943e-06 9.97327e-07 -3.81217e-05
0.00165989 -0.000165364 5.02349e-06
-0.000165364 -2.30585e-05 2.7784e-06
5.02349e-06 2.7784e-06 -0.000109617
0.00178178 -0.000134035 1.02228e-06
-0.000134035 8.44776e-05 4.72781e-07
1.02228e-06 4.72781e-07 5.33328e-06
0.00184411 -0.000103384 1.63348e-06
-0.000103384 0.000158658 4.28406e-07
1.63348e-06 4.28406e-07 7.19412e-05
0.00170779 -0.00014461 -6.2893e-07
-0.00014461 8.98056e-05 2.25828e-06
-6.2893e-07 2.25828e-06 -6.99392e-06
0.00170932 -0.000127226 -3.2272e-07
-0.000127226 0.000108446 3.16113e-07
-3.2272e-07 3.16113e-07 1.29565e-05
0.00162401 -0.000117971 2.8572e-06
-0.000117971 9.63759e-05 2.27221e-07
2.8572e-06 2.27221e-07 -1.01031e-05
0.00152551 -0.000131426 -1.84356e-06
-0.000131426 3.42447e-05 2.25097e-06
-1.84356e-06 2.25097e-06 -6.68717e-05
0.00161093 -0.000134015 -1.01806e-06
-0.000134015 0.000106386 -3.10799e-07
-1.01806e-06 -3.10799e-07 -3.12347e-06
0.00173169 -0.00014003 7.81619e-07
-0.00014003 0.000207342 -7.77177e-07
7.81619e-07 -7.77177e-07 8.66527e-05
0.00164229 -0.000157807 3.40303e-07
-0.000157807 0.0001449 2.20422e-06
3.40303e-07 2.20422e-06 2.31873e-05
0.00162149 -0.00015698 6.14352e-07
-0.00015698 0.000181316 -7.39904e-07
6.14352e-07 -7.39904e-07 5.03982e-05
0.00160109 -0.000154162 -2.24835e-06
-0.000154162 0.000212596 -2.22035e-07
-2.24835e-06 -2.22035e-07 8.06951e-05
0.000822147 -0.000124435 -5.4555e-06
-0.000124435 -0.000100276 2.21602e-06
-5.4555e-06 2.21602e-06 -0.000230487
0.00117614 -0.000150353 -8.44968e-07
-0.000150353 4.47895e-05 3.87042e-07
-8.44968e-07 3.87042e-07 -9.932e-05
0.0015227 -0.000172222 3.03773e-06
-0.000172222 0.000185019 4.94356e-08
3.03773e-06 4.94356e-08 3.30986e-05
0.000841261 -9.3296e-05 -4.26942e-06
-9.3296e-05 1.93854e-05 2.8828e-06
-4.26942e-06 2.8828e-06 -7.96091e-05
0.00109576 -0.000137667 3.06526e-07
-0.000137667 0.000113656 1.81414e-07
3.06526e-07 1.81414e-07 -1.50378e-05
0.00106499 -0.000148105 1.00186e-06
-0.000148105 6.78953e-05 -5.05401e-07
1.00186e-06 -5.05401e-07 -7.8892e-05
0.000563277 1.00025e-05 -5.35242e-06
1.00025e-05 -7.07749e-05 6.52267e-06
-5.35242e-06 6.52267e-06 -0.000116097
0.000862535 -7.56277e-05 8.84543e-08
-7.56277e-05 5.87617e-05 -1.06558e-07
8.84543e-08 -1.06558e-07 -3.35891e-05
0.0011453 -0.000135654 2.33789e-06
-0.000135654 0.000182182 -1.57819e-06
2.33789e-06 -1.57819e-06 6.07778e-05
0.00306914 0.000110885 -5.28758e-05
0.000110885 0.00132611 2.58079e-06
-5.28758e-05 2.58079e-06 0.00132427
0.000616559 2.58362e-05 3.14714e-07
2.58362e-05 -3.81208e-05 -1.67657e-07
3.14714e-07 -1.67657e-07 -7.69402e-05
0.00086498 -5.81246e-05 3.6916e-06
-5.81246e-05 7.63032e-05 -2.17961e-06
3.6916e-06 -2.17961e-06 -1.05481e-05
0.00279922 9.65834e-05 1.65877e-06
9.65834e-05 0.00117519 1.58759e-07
1.65877e-06 1.58759e-07 0.00117731
0.000657679 4.98573e-05 2.30558e-06
4.98573e-05 -7.88611e-06 -5.47925e-06
2.30558e-06 -5.47925e-06 -4.11395e-05
0.00258663 8.50855e-05 4.47993e-05
8.50855e-05 0.001055 -2.74716e-06
4.47993e-05 -2.74716e-06 0.00106052
0.00108081 0.000135094 -2.44112e-07
0.000135094 0.000184506 -2.38352e-06
-2.44112e-07 -2.38352e-06 6.12409e-05
0.00106467 0.000126667 3.4996e-07
0.000126667 0.000191932 2.00461e-07
3.4996e-07 2.00461e-07 8.23923e-05
0.000912683 6.20529e-05 -1.24208e-06
6.20529e-05 0.000106625 -1.01403e-06
-1.24208e-06 -1.01403e-06 8.81375e-06
0.000798035 0.00010267 -5.28123e-08
0.00010267 6.24301e-05 2.15933e-07
-5.28123e-08 2.15933e-07 -3.46136e-05
0.000738194 -2.37189e-06 -4.80294e-07
-2.37189e-06 2.10166e-05 -1.55096e-07
-4.80294e-07 -1.55096e-07 -6.70761e-05
0.000701203 6.49553e-06 -1.95757e-06
6.49553e-06 -2.96172e-07 -2.32091e-06
-1.95757e-06 -2.32091e-06 -6.63329e-05
0.000745384 -6.12123e-05 -2.05477e-07
-6.12123e-05 2.13846e-05 1.36535e-06
-2.05477e-07 1.36535e-06 -5.6381e-05
0.000698084 -4.61769e-05 3.38724e-07
-4.61769e-05 -4.6405e-06 -3.58181e-07
3.38724e-07 -3.58181e-07 -5.93566e-05
0.00066236 -6.55444e-05 3.52127e-07
-6.55444e-05 -1.04602e-05 -4.78723e-06
3.52127e-07 -4.78723e-06 -3.44904e-05
0.000719706 -5.32443e-05 8.41846e-07
-5.32443e-05 9.81238e-07 2.30285e-06
8.41846e-07 2.30285e-06 -4.67883e-05
0.000658873 -5.10223e-05 1.69844e-07
-5.10223e-05 -2.4871e-05 -1.46701e-08
1.69844e-07 -1.46701e-08 -4.27519e-05
0.00232602 -7.53344e-05 -3.51752e-05
-7.53344e-05 0.000903289 -2.79942e-06
-3.51752e-05 -2.79942e-06 0.000912417
0.00228283 -6.74166e-05 -1.07324e-06
-6.74166e-05 0.000870639 1.23172e-07
-1.07324e-06 1.23172e-07 0.000881991
0.00065358 -4.31627e-05 1.66277e-06
-4.31627e-05 -3.63958e-05 3.91408e-06
1.66277e-06 3.91408e-06 -5.13949e-05
0.00228158 -6.00191e-05 2.65398e-05
-6.00191e-05 0.00086169 3.59771e-06
2.65398e-05 3.59771e-06 0.000874834
0.00231503 -1.25562e-05 -5.78931e-05
-1.25562e-05 4.37827e-05 9.71174e-06
-5.78931e-05 9.71174e-06 -0.000206368
0.0020887 -0.000166722 1.53793e-05
-0.000166722 -0.000525273 5.46314e-06
1.53793e-05 5.46314e-06 -0.00135281
0.00383328 -0.000357806 -4.69121e-05
-0.000357806 0.0016494 -2.0929e-05
-4.69121e-05 -2.0929e-05 0.00174559
0.00132454 0.000161467 8.26665e-06
0.000161467 0.000259874 1.63689e-06
8.26665e-06 1.63689e-06 0.00011883
0.00112081 9.2022e-05 3.19422e-07
9.2022e-05 0.000258639 2.78461e-07
3.19422e-07 2.78461e-07 0.000150025
0.000890402 0.000122607 -1.12926e-06
0.000122607 0.000113689 8.39746e-07
-1.12926e-06 8.39746e-07 -2.2542e-07
0.000836497 0.000119948 3.88296e-07
0.000119948 0.00010167 6.94029e-07
3.88296e-07 6.94029e-07 -1.73115e-05
0.00101688 0.000137122 -2.94193e-07
0.000137122 0.000165048 -1.53893e-06
-2.94193e-07 -1.53893e-06 3.42255e-05
0.000682078 0.000122701 -3.55946e-07
0.000122701 -4.30881e-05 -3.27889e-08
-3.55946e-07 -3.27889e-08 -0.00016146
0.000947032 0.000130292 -9.56785e-07
0.000130292 0.000148203 -3.1751e-07
-9.56785e-07 -3.1751e-07 1.93988e-05
0.000886643 8.87862e-05 -2.90005e-06
8.87862e-05 8.7042e-05 3.59965e-06
-2.90005e-06 3.59965e-06 -2.04604e-05
0.000933913 0.00014853 4.73217e-07
0.00014853 6.26404e-05 1.13138e-08
4.73217e-07 1.13138e-08 -6.2074e-05
0.00239089 0.000254247 7.20612e-07
0.000254247 0.000681135 4.12831e-06
7.20612e-07 4.12831e-06 0.000549485
0.00169903 0.000242332 -1.26409e-06
0.000242332 0.000171294 -2.26687e-06
-1.26409e-06 -2.26687e-06 2.33463e-05
0.00159076 0.000218855 1.1142e-05
0.000218855 9.5862e-06 1.01317e-05
1.1142e-05 1.01317e-05 -0.000115815
0.00122946 0.000246863 -1.11222e-06
0.000246863 -9.77801e-05 -2.05976e-06
-1.11222e-06 -2.05976e-06 -0.000250271
0.00106483 0.000195976 -9.39844e-07
0.000195976 1.09161e-06 7.18351e-06
-9.39844e-07 7.18351e-06 -0.000121709
0.000327631 0.000128418 3.15412e-06
0.000128418 -0.000413582 1.53571e-06
3.15412e-06 1.53571e-06 -0.000416535
0.00477558 0.000173506 -1.97009e-05
0.000173506 0.000693123 8.4336e-07
-1.97009e-05 8.4336e-07 0.000310361
0.000497699 -8.56988e-05 3.3755e-05
-8.56988e-05 -0.00111367 1.11173e-05
3.3755e-05 1.11173e-05 -0.00224549
0.00248118 0.000362669 6.15673e-05
0.000362669 3.19709e-05 1.53522e-05
6.15673e-05 1.53522e-05 -0.000502236
0.00154739 0.000269219 -1.658e-05
0.000269219 3.82474e-05 -1.92328e-06
-1.658e-05 -1.92328e-06 1.51518e-05
0.000816026 0.000275413 -2.64703e-05
0.000275413 -0.000243096 -1.72713e-05
-2.64703e-05 -1.72713e-05 -0.000384926
0.0022763 -9.47233e-05 1.45998e-05
-9.47233e-05 0.000265402 -3.61444e-08
1.45998e-05 -3.61444e-08 0.000168117
0.00119668 1.91854e-06 -1.95093e-05
1.91854e-06 -0.000254939 7.00942e-07
-1.95093e-05 7.00942e-07 -0.000544104
0.000138325 0.000236053 5.90585e-05
0.000236053 -0.0016281 -1.9261e-05
5.90585e-05 -1.9261e-05 -0.00226815
-0.000320025 -7.57127e-05 2.35812e-06
-7.57127e-05 -0.000727855 1.08923e-05
2.35812e-06 1.08923e-05 -0.000794683
0.00259963 2.23647e-05 1.81665e-05
2.23647e-05 0.000113735 9.7953e-06
1.81665e-05 9.7953e-06 -0.000245223
0.00172196 -8.26552e-05 -5.29175e-07
-8.26552e-05 6.43382e-05 -1.12141e-06
-5.29175e-07 -1.12141e-06 8.94988e-06
0.00213692 3.76259e-06 -3.56548e-07
3.76259e-06 0.000209198 -4.74203e-07
-3.56548e-07 -4.74203e-07 0.000138901
0.00181701 -1.66662e-05 1.11883e-05
-1.66662e-05 2.22018e-05 -1.76101e-06
1.11883e-05 -1.76101e-06 -3.63167e-05
0.0026291 -1.23464e-05 7.30508e-06
-1.23464e-05 0.000519238 -3.63182e-07
7.30508e-06 -3.63182e-07 0.000461118
0.00183912 -0.00017778 -1.47352e-06
-0.00017778 -4.96927e-05 -4.85453e-07
-1.47352e-06 -4.85453e-07 -6.61894e-05
0.00196736 -7.59504e-05 2.99553e-06
-7.59504e-05 4.53851e-05 -4.97263e-07
2.99553e-06 -4.97263e-07 1.45163e-05
0.00177487 -7.87628e-05 1.03325e-06
-7.87628e-05 5.299e-05 4.19248e-07
1.03325e-06 4.19248e-07 -5.17458e-06
0.00191222 -0.000147912 3.59974e-06
-0.000147912 4.9676e-05 1.35321e-06
3.59974e-06 1.35321e-06 -3.28712e-06
0.00182068 -9.75322e-05 7.34607e-07
-9.75322e-05 6.37523e-05 6.75608e-08
7.34607e-07 6.75608e-08 2.15105e-06
0.00176749 -9.04369e-05 2.87771e-06
-9.04369e-05 0.000109535 4.99589e-07
2.87771e-06 4.99589e-07 2.81265e-05
0.00179299 -0.000132059 -1.56974e-06
-0.000132059 0.000100406 1.3713e-06
-1.56974e-06 1.3713e-06 2.05444e-05
0.00177726 -0.000107853 -1.24536e-06
-0.000107853 0.000124549 -4.59086e-08
-1.24536e-06 -4.59086e-08 3.688e-05
0.00163898 -9.66502e-05 1.5505e-06
-9.66502e-05 8.99714e-05 6.03963e-07
1.5505e-06 6.03963e-07 -1.54431e-05
0.00166529 -0.000128806 -2.2634e-06
-0.000128806 8.7102e-05 6.22209e-07
-2.2634e-06 6.22209e-07 -9.23234e-06
0.00164412 -0.000118443 5.70923e-07
-0.000118443 0.00010707 -1.61769e-07
5.70923e-07 -1.61769e-07 6.41812e-07
0.00159378 -0.000119084 8.3138e-07
-0.000119084 0.000109684 1.99694e-08
8.3138e-07 1.99694e-08 -6.62016e-06
0.00154057 -0.000130921 -3.74151e-06
-0.000130921 6.63553e-05 8.93785e-07
-3.74151e-06 8.93785e-07 -4.16586e-05
0.00157672 -0.000133532 -9.07739e-08
-0.000133532 0.000121958 -2.56033e-07
-9.07739e-08 -2.56033e-07 2.70563e-06
0.00148275 -0.000130219 -2.00073e-06
-0.000130219 0.000111142 1.52689e-07
-2.00073e-06 1.52689e-07 -1.35513e-05
0.00159554 -0.000155194 1.77198e-06
-0.000155194 0.000166765 7.8654e-07
1.77198e-06 7.8654e-07 3.57429e-05
0.00141308 -0.00014594 6.30806e-07
-0.00014594 0.000110604 -4.43111e-07
6.30806e-07 -4.43111e-07 -2.16958e-05
0.0013442 -0.000136069 -5.1192e-06
-0.000136069 0.000125801 1.53394e-06
-5.1192e-06 1.53394e-06 9.6857e-07
0.00095305 -0.000106479 -5.99112e-06
-0.000106479 3.43444e-05 3.4472e-06
-5.99112e-06 3.4472e-06 -6.89705e-05
0.000952419 -0.000129838 -1.30489e-06
-0.000129838 -2.62522e-05 7.63347e-07
-1.30489e-06 7.63347e-07 -0.000155844
0.00125018 -0.000152173 2.33025e-06
-0.000152173 9.00974e-05 -9.56908e-08
2.33025e-06 -9.56908e-08 -5.33951e-05
0.000578218 -5.35614e-05 -8.46815e-06
-5.35614e-05 -6.74117e-05 7.55492e-06
-8.46815e-06 7.55492e-06 -0.000121602
0.000900928 -9.81872e-05 2.893e-07
-9.81872e-05 5.15136e-05 -8.03555e-09
2.893e-07 -8.03555e-09 -4.82828e-05
0.00112942 -0.000139155 3.25557e-06
-0.000139155 0.000129644 -1.52094e-06
3.25557e-06 -1.52094e-06 1.10678e-06
0.00337091 0.000123102 -6.40278e-05
0.000123102 0.00149764 2.68432e-06
-6.40278e-05 2.68432e-06 0.00149129
0.000647782 -2.11188e-05 -1.08626e-07
-2.11188e-05 -2.90009e-05 -1.50157e-07
-1.08626e-07 -1.50157e-07 -7.50924e-05
0.000950812 -8.34842e-05 4.3898e-06
-8.34842e-05 0.000106737 -2.61052e-06
4.3898e-06 -2.61052e-06 1.32344e-05
0.00313492 0.000106471 1.98279e-06
0.000106471 0.00136145 2.41981e-07
1.98279e-06 2.41981e-07 0.00136
0.000676997 9.22396e-06 6.14347e-06
9.22396e-06 -7.36167e-06 -5.80946e-06
6.14347e-06 -5.80946e-06 -4.60631e-05
0.00289447 9.2542e-05 5.70362e-05
9.2542e-05 0.00122547 -2.98639e-06
5.70362e-05 -2.98639e-06 0.00122811
0.000904931 0.0001332 -6.36305e-07
0.0001332 4.39145e-05 -2.04115e-06
-6.36305e-07 -2.04115e-06 -9.17965e-05
0.00100509 0.00012998 -7.59954e-08
0.00012998 0.000144308 -1.04437e-06
-7.59954e-08 -1.04437e-06 2.18311e-05
0.0011092 0.000122003 -9.06019e-07
0.000122003 0.000196243 -1.12892e-06
-9.06019e-07 -1.12892e-06 8.72446e-05
0.00113379 0.000131187 -5.61846e-07
0.000131187 0.000229386 -1.37238e-08
-5.61846e-07 -1.37238e-08 0.00011993
0.000896452 6.64516e-05 -9.9377e-07
6.64516e-05 9.67758e-05 -5.69822e-07
-9.9377e-07 -5.69822e-07 1.33625e-07
0.000772404 2.65639e-05 -2.12135e-06
2.65639e-05 3.80101e-05 -1.92149e-06
-2.12135e-06 -1.92149e-06 -3.9587e-05
0.000730741 1.92397e-05 -1.70908e-07
1.92397e-05 1.61841e-05 2.82366e-07
-1.70908e-07 2.82366e-07 -7.28006e-05
0.000711839 -3.10468e-05 -3.99417e-07
-3.10468e-05 6.12735e-06 -5.16194e-08
-3.99417e-07 -5.16194e-08 -5.91002e-05
0.000625567 -7.07453e-05 3.55525e-07
-7.07453e-05 -2.12725e-05 -5.18566e-06
3.55525e-07 -5.18566e-06 -5.20836e-05
0.000708566 -6.19717e-05 3.32101e-07
-6.19717e-05 3.79317e-06 2.63158e-06
3.32101e-07 2.63158e-06 -5.23705e-05
0.000636138 -6.19456e-05 2.21223e-07
-6.19456e-05 -2.61735e-05 -1.15001e-07
2.21223e-07 -1.15001e-07 -4.91807e-05
0.00243869 -8.35117e-05 -4.05358e-05
-8.35117e-05 0.000971804 -2.51291e-06
-4.05358e-05 -2.51291e-06 0.000978527
0.000644728 -4.8917e-05 2.0485e-06
-4.8917e-05 -3.31267e-05 3.98758e-06
2.0485e-06 3.98758e-06 -5.05956e-05
0.00230796 -7.51098e-05 -6.3566e-07
-7.51098e-05 0.000892454 1.13088e-07
-6.3566e-07 1.13088e-07 0.000901726
0.00228382 -6.70816e-05 3.03431e-05
-6.70816e-05 0.000870346 3.30762e-06
3.03431e-05 3.30762e-06 0.000881801
0.000375217 1.36835e-05 5.67316e-06
1.36835e-05 -0.000505553 2.05856e-06
5.67316e-06 2.05856e-06 -0.000536582
0.00362418 1.13736e-05 9.94603e-07
1.13736e-05 0.000449258 1.08608e-05
9.94603e-07 1.08608e-05 7.48345e-05
0.00644496 0.000223673 -9.18973e-05
0.000223673 0.00190871 -2.15549e-05
-9.18973e-05 -2.15549e-05 0.000974031
0.000762395 0.000126526 2.49785e-06
0.000126526 -7.38185e-05 4.2662e-07
2.49785e-06 4.2662e-07 -0.000203956
0.00147209 0.000174463 3.22672e-06
0.000174463 0.000181329 -2.97812e-06
3.22672e-06 -2.97812e-06 3.38329e-05
0.000881974 0.000137926 -9.29351e-08
0.000137926 3.1477e-05 -1.13088e-06
-9.29351e-08 -1.13088e-06 -0.000106677
0.00104642 0.000133934 -1.3661e-06
0.000133934 0.000213305 -5.08188e-07
-1.3661e-06 -5.08188e-07 9.1732e-05
0.000937909 0.000132983 -1.13138e-06
0.000132983 0.000125527 -7.34104e-07
-1.13138e-06 -7.34104e-07 -6.18606e-06
0.00103794 0.000147293 3.7948e-06
0.000147293 0.000131243 1.62389e-06
3.7948e-06 1.62389e-06 8.24123e-06
0.00196219 0.000232328 -5.24896e-06
0.000232328 0.000348869 -5.15682e-06
-5.24896e-06 -5.15682e-06 0.000209582
0.00156918 0.000186295 -5.4164e-08
0.000186295 0.000398354 1.86761e-06
-5.4164e-08 1.86761e-06 0.000273146
0.00108405 0.000182684 -5.21533e-07
0.000182684 1.45729e-05 1.05183e-05
-5.21533e-07 1.05183e-05 -0.000114078
0.00170633 0.000240023 -1.18144e-06
0.000240023 0.000190459 7.23987e-07
-1.18144e-06 7.23987e-07 4.44702e-05
0.00217992 0.000244808 -6.7406e-06
0.000244808 0.000306421 1.93089e-06
-6.7406e-06 1.93089e-06 0.000167826
0.00126914 9.22085e-05 1.34658e-05
9.22085e-05 -0.000224613 4.29674e-06
1.34658e-05 4.29674e-06 -0.000301836
0.00171108 0.000217798 8.12231e-06
0.000217798 7.50625e-05 2.80589e-06
8.12231e-06 2.80589e-06 -5.11478e-05
0.00129408 0.000247104 -6.37307e-06
0.000247104 -7.21528e-05 -7.85971e-07
-6.37307e-06 -7.85971e-07 -0.000228796
0.000904535 0.000117654 -3.43184e-06
0.000117654 -0.00012692 6.16637e-07
-3.43184e-06 6.16637e-07 -0.000137161
0.00461688 4.37236e-05 4.81452e-05
4.37236e-05 0.00049424 1.00118e-05
4.81452e-05 1.00118e-05 8.54595e-05
0.00115402 0.000223795 3.79359e-06
0.000223795 -1.42774e-05 -8.53893e-06
3.79359e-06 -8.53893e-06 -4.46811e-05
0.00164675 -2.59781e-05 1.04441e-05
-2.59781e-05 6.59533e-05 6.26627e-07
1.04441e-05 6.26627e-07 1.20971e-05
0.00203784 -4.95375e-05 -3.51151e-06
-4.95375e-05 0.000181462 -1.52691e-07
-3.51151e-06 -1.52691e-07 8.46391e-05
0.0017612 0.000113719 5.83196e-05
0.000113719 -0.000209203 -3.69249e-06
5.83196e-05 -3.69249e-06 -0.000546923
-0.0012868 -3.28021e-05 -1.11208e-05
-3.28021e-05 -0.00152886 6.98393e-06
-1.11208e-05 6.98393e-06 -0.00154418
0.00257358 -6.45595e-06 -4.75143e-05
-6.45595e-06 0.000439943 5.8966e-06
-4.75143e-05 5.8966e-06 0.000373875
0.00143449 -4.52427e-05 7.70682e-07
-4.52427e-05 -0.000213732 2.24729e-06
7.70682e-07 2.24729e-06 -0.000261406
0.00221277 -2.71556e-05 -2.6085e-07
-2.71556e-05 0.000256517 2.89761e-07
-2.6085e-07 2.89761e-07 0.000197251
0.00192509 -8.62368e-05 3.17072e-06
-8.62368e-05 7.99528e-05 1.02293e-06
3.17072e-06 1.02293e-06 2.21678e-05
0.00157684 -3.2716e-05 1.3635e-06
-3.2716e-05 -0.000105497 -1.36692e-07
1.3635e-06 -1.36692e-07 -0.000171976
0.00208555 -8.4368e-05 2.58451e-06
-8.4368e-05 9.24011e-05 -5.86206e-08
2.58451e-06 -5.86206e-08 5.96989e-05
0.00180704 -7.80944e-05 -1.6354e-06
-7.80944e-05 6.59342e-05 -1.42461e-08
-1.6354e-06 -1.42461e-08 9.63008e-06
0.00178679 -8.30248e-05 3.1898e-06
-8.30248e-05 8.65568e-05 3.42991e-07
3.1898e-06 3.42991e-07 7.42673e-06
0.00192806 -0.000109217 -2.3294e-06
-0.000109217 0.000117904 -2.5465e-08
-2.3294e-06 -2.5465e-08 5.33791e-05
0.0017637 -9.01791e-05 -4.14647e-07
-9.01791e-05 0.000109445 -2.19285e-07
-4.14647e-07 -2.19285e-07 2.63649e-05
0.00171128 -7.91101e-05 1.79385e-06
-7.91101e-05 0.00010044 3.71759e-07
1.79385e-06 3.71759e-07 -2.1251e-07
0.00170988 -0.000111878 -5.62703e-06
-0.000111878 9.0093e-05 -9.67395e-08
-5.62703e-06 -9.67395e-08 1.51827e-06
0.00165512 -9.6218e-05 9.4171e-08
-9.6218e-05 9.88313e-05 4.21329e-08
9.4171e-08 4.21329e-08 -6.43774e-06
0.00161794 -9.4972e-05 1.39794e-07
-9.4972e-05 0.000108095 5.67129e-07
1.39794e-07 5.67129e-07 -7.52957e-06
0.00166505 -0.000118927 -1.95296e-06
-0.000118927 0.000118294 -5.23357e-07
-1.95296e-06 -5.23357e-07 1.19211e-05
0.0015878 -0.000118172 1.65738e-07
-0.000118172 0.000106513 -1.77188e-07
1.65738e-07 -1.77188e-07 -9.71519e-06
0.00151903 -0.000117748 -1.69507e-06
-0.000117748 0.000107018 3.8745e-07
-1.69507e-06 3.8745e-07 -1.43005e-05
0.0014245 -0.000127203 -4.48396e-07
-0.000127203 3.79445e-05 4.07795e-07
-4.48396e-07 4.07795e-07 -7.98726e-05
0.00136867 -0.000126119 -1.95137e-07
-0.000126119 5.0099e-05 -1.19275e-07
-1.95137e-07 -1.19275e-07 -7.4295e-05
0.00134155 -0.000122178 -5.10032e-06
-0.000122178 8.97988e-05 1.46221e-06
-5.10032e-06 1.46221e-06 -3.04902e-05
0.00123028 -0.000138009 3.30794e-06
-0.000138009 1.14631e-05 -4.18349e-07
3.30794e-06 -4.18349e-07 -0.000121275
0.00111329 -0.000125316 2.55161e-07
-0.000125316 2.23849e-06 -1.98118e-08
2.55161e-07 -1.98118e-08 -0.000122406
0.0010261 -0.000105737 -7.76795e-06
-0.000105737 2.79139e-05 3.62524e-06
-7.76795e-06 3.62524e-06 -7.41071e-05
0.000496552 -8.32014e-05 -1.13443e-05
-8.32014e-05 -0.000125406 8.31469e-06
-1.13443e-05 8.31469e-06 -0.000184294
0.000964334 -0.000108255 3.3868e-07
-0.000108255 4.06111e-05 1.47458e-07
3.3868e-07 1.47458e-07 -6.30068e-05
0.00109202 -0.000135878 2.54709e-06
-0.000135878 5.27898e-05 -4.79447e-07
2.54709e-06 -4.79447e-07 -7.62584e-05
0.00365043 0.000138771 -7.00784e-05
0.000138771 0.00166369 2.99044e-06
-7.00784e-05 2.99044e-06 0.00165138
0.000663935 -4.84756e-05 -1.71624e-07
-4.84756e-05 -2.51426e-05 4.38604e-08
-1.71624e-07 4.38604e-08 -7.993e-05
0.000985138 -0.00010276 5.06031e-06
-0.00010276 9.74389e-05 -2.84287e-06
5.06031e-06 -2.84287e-06 -3.37088e-06
0.00345448 0.000118882 2.97745e-06
0.000118882 0.001544 3.47185e-07
2.97745e-06 3.47185e-07 0.00153779
0.000743187 -2.34893e-05 8.129e-06
-2.34893e-05 1.90034e-05 -6.56261e-06
8.129e-06 -6.56261e-06 -2.73899e-05
0.00321631 0.000101204 6.83544e-05
0.000101204 0.00140485 -3.08438e-06
6.83544e-05 -3.08438e-06 0.00140388
0.000677674 0.000129203 -1.62342e-06
0.000129203 -0.00016765 -1.5014e-06
-1.62342e-06 -1.5014e-06 -0.000314517
0.000679708 0.000120763 -1.57151e-07
0.000120763 -7.9414e-05 -1.31931e-07
-1.57151e-07 -1.31931e-07 -0.000215755
0.00112953 0.000132696 -2.41119e-06
0.000132696 0.000169649 -1.50564e-06
-2.41119e-06 -1.50564e-06 4.82795e-05
0.000920893 0.000124339 -5.0262e-07
0.000124339 9.94788e-05 7.86408e-08
-5.0262e-07 7.86408e-08 -2.21309e-05
0.000985482 0.000113613 -2.83359e-07
0.000113613 0.000131079 -3.86563e-07
-2.83359e-07 -3.86563e-07 2.32122e-05
0.000909709 5.87941e-05 -3.29246e-06
5.87941e-05 0.000106099 -1.89675e-06
-3.29246e-06 -1.89675e-06 1.91933e-05
0.000874446 6.95019e-05 -9.01506e-08
6.95019e-05 8.41641e-05 -4.50318e-07
-9.01506e-08 -4.50318e-07 -1.14547e-05
0.000757245 1.16051e-05 -5.15274e-08
1.16051e-05 3.25945e-05 1.07439e-07
-5.15274e-08 1.07439e-07 -4.54038e-05
0.000633683 -4.79577e-05 -3.29734e-06
-4.79577e-05 -1.89314e-05 -5.17818e-06
-3.29734e-06 -5.17818e-06 -5.53037e-05
0.000727494 -5.59375e-05 2.94342e-07
-5.59375e-05 1.69604e-05 2.83155e-06
2.94342e-07 2.83155e-06 -4.88844e-05
0.000595374 -7.38515e-05 -6.56873e-08
-7.38515e-05 -3.74279e-05 -1.77921e-07
-6.56873e-08 -1.77921e-07 -6.85223e-05
0.00263371 -9.25731e-05 -4.78866e-05
-9.25731e-05 0.00108333 -2.41142e-06
-4.78866e-05 -2.41142e-06 0.00108717
0.000611044 -5.74744e-05 1.83071e-06
-5.74744e-05 -4.151e-05 4.17596e-06
1.83071e-06 4.17596e-06 -6.33733e-05
0.0023993 -8.36889e-05 -6.6667e-07
-8.36889e-05 0.000949951 1.06666e-07
-6.6667e-07 1.06666e-07 0.000956738
0.00230024 -7.46615e-05 3.32588e-05
-7.46615e-05 0.000887329 2.97832e-06
3.32588e-05 2.97832e-06 0.000896778
0.00135344 3.01368e-05 1.10566e-05
3.01368e-05 -0.000172722 1.85434e-06
1.10566e-05 1.85434e-06 -0.000230814
0.00128826 -1.8792e-05 -2.90035e-06
-1.8792e-05 -0.000123737 3.79176e-06
-2.90035e-06 3.79176e-06 -0.000180457
0.00275682 -2.8149e-05 6.96208e-05
-2.8149e-05 1.35495e-05 5.47644e-06
6.96208e-05 5.47644e-06 -0.000280458
0.00178198 0.000189918 9.14906e-08
0.000189918 0.000271686 -4.24452e-06
9.14906e-08 -4.24452e-06 0.000133929
0.000766762 0.000130787 -1.10544e-06
0.000130787 -5.35724e-05 1.40243e-06
-1.10544e-06 1.40243e-06 -0.000175191
0.0013008 0.000157861 -1.97462e-06
0.000157861 -3.089e-05 1.1712e-06
-1.97462e-06 1.1712e-06 -0.000165387
0.00160006 0.00018186 6.62235e-07
0.00018186 0.000245435 2.04783e-07
6.62235e-07 2.04783e-07 9.72218e-05
0.000432808 0.000113957 -3.58883e-06
0.000113957 -0.000200279 2.18111e-06
-3.58883e-06 2.18111e-06 -0.000335505
0.00179659 0.000195201 -4.6301e-06
0.000195201 0.000111712 7.38407e-07
-4.6301e-06 7.38407e-07 -1.81919e-05
0.0013588 0.000169976 -6.65915e-07
0.000169976 0.000287473 9.77369e-07
-6.65915e-07 9.77369e-07 0.000160084
0.00183312 0.000224507 2.73099e-07
0.000224507 0.000272756 -2.3115e-06
2.73099e-07 -2.3115e-06 0.000130305
0.00180999 0.000130971 -2.65162e-06
0.000130971 8.4847e-05 1.72663e-06
-2.65162e-06 1.72663e-06 -1.97595e-05
0.00195685 0.000252099 2.8874e-06
0.000252099 0.000332679 4.06217e-06
2.8874e-06 4.06217e-06 0.000187751
0.00206872 0.000240503 -2.01303e-06
0.000240503 0.000242258 -6.80343e-08
-2.01303e-06 -6.80343e-08 0.000105269
0.00139614 0.000103507 -3.38912e-07
0.000103507 -0.0001335 -4.79737e-07
-3.38912e-07 -4.79737e-07 -0.00021149
0.00147354 0.000201075 -2.49123e-06
0.000201075 -3.14024e-05 -3.14584e-06
-2.49123e-06 -3.14584e-06 -0.000158548
0.00104389 0.000106193 -1.13641e-05
0.000106193 -5.50512e-05 -2.98351e-06
-1.13641e-05 -2.98351e-06 -7.13684e-05
0.00170468 -4.45071e-06 -8.28345e-07
-4.45071e-06 -1.96803e-05 4.25326e-07
-8.28345e-07 4.25326e-07 -9.07124e-05
0.00189881 -7.99865e-06 -1.80043e-06
-7.99865e-06 0.000203312 -3.95718e-07
-1.80043e-06 -3.95718e-07 0.000149773
0.00132072 3.8896e-06 -2.83676e-05
3.8896e-06 -0.000156178 9.48263e-07
-2.83676e-05 9.48263e-07 -0.000265928
0.00100207 -7.12366e-05 -6.19456e-06
-7.12366e-05 -0.000487533 8.68764e-07
-6.19456e-06 8.68764e-07 -0.000524897
0.00185168 -4.02536e-05 -2.91043e-06
-4.02536e-05 2.11112e-05 -4.97486e-07
-2.91043e-06 -4.97486e-07 -3.92266e-05
0.0019845 -8.24055e-05 -1.25052e-06
-8.24055e-05 0.000113965 3.06177e-07
-1.25052e-06 3.06177e-07 5.74669e-05
0.00174103 -3.41232e-05 1.1847e-06
-3.41232e-05 -1.51046e-05 6.05227e-08
1.1847e-06 6.05227e-08 -8.09319e-05
0.00173221 -4.71493e-05 1.11617e-06
-4.71493e-05 2.28371e-05 -2.21766e-07
1.11617e-06 -2.21766e-07 -5.5214e-05
0.00181192 -7.76048e-05 -2.87622e-06
-7.76048e-05 6.47836e-05 -8.02822e-07
-2.87622e-06 -8.02822e-07 1.00319e-05
0.00182868 -8.04579e-05 3.77163e-07
-8.04579e-05 0.000113049 -8.23019e-08
3.77163e-07 -8.23019e-08 3.38254e-05
0.00180618 -6.37452e-05 1.18018e-06
-6.37452e-05 0.000108885 -4.43036e-07
1.18018e-06 -4.43036e-07 1.29327e-05
0.00174484 -9.0623e-05 -4.74397e-06
-9.0623e-05 0.000100932 -4.0231e-07
-4.74397e-06 -4.0231e-07 1.61686e-05
0.0016792 -7.85076e-05 -1.49012e-07
-7.85076e-05 8.73896e-05 1.58653e-07
-1.49012e-07 1.58653e-07 -1.46891e-05
0.00166014 -6.46419e-05 1.02116e-07
-6.46419e-05 0.000111446 5.05888e-07
1.02116e-07 5.05888e-07 -4.13932e-06
0.00167549 -9.58302e-05 -1.51824e-06
-9.58302e-05 0.00010988 -5.00908e-07
-1.51824e-06 -5.00908e-07 4.76719e-06
0.00161309 -9.38433e-05 6.76795e-08
-9.38433e-05 0.000104617 -1.7609e-08
6.76795e-08 -1.7609e-08 -1.09131e-05
0.00154682 -9.6112e-05 -1.765e-06
-9.6112e-05 0.000105043 5.86251e-07
-1.765e-06 5.86251e-07 -1.49779e-05
0.00158013 -0.00011725 -1.44449e-07
-0.00011725 0.000102469 -4.27672e-07
-1.44449e-07 -4.27672e-07 -1.36909e-05
0.00151135 -0.000116813 1.24121e-08
-0.000116813 0.000102919 -4.63443e-08
1.24121e-08 -4.63443e-08 -1.8291e-05
0.00137908 -0.000109435 -4.71428e-06
-0.000109435 8.40533e-05 1.3425e-06
-4.71428e-06 1.3425e-06 -3.373e-05
0.0012526 -0.000121889 1.90625e-06
-0.000121889 -1.20804e-05 -2.6313e-07
1.90625e-06 -2.6313e-07 -0.000136151
0.00131435 -0.000120229 -1.48489e-08
-0.000120229 7.58251e-05 4.20517e-08
-1.48489e-08 4.20517e-08 -4.42203e-05
0.00107871 -9.77837e-05 -8.94941e-06
-9.77837e-05 2.3986e-05 3.6993e-06
-8.94941e-06 3.6993e-06 -7.60923e-05
0.000881837 -0.000114426 4.51251e-06
-0.000114426 -0.000121611 -1.12224e-06
4.51251e-06 -1.12224e-06 -0.00024605
0.00102382 -0.000105415 3.16616e-07
-0.000105415 2.68752e-05 5.85214e-08
3.16616e-07 5.85214e-08 -7.5218e-05
0.00199988 -2.40892e-05 -8.2969e-06
-2.40892e-05 0.000694657 6.05566e-06
-8.2969e-06 6.05566e-06 0.000635839
0.0011439 8.18006e-06 -8.7145e-05
8.18006e-06 0.000272855 9.03626e-06
-8.7145e-05 9.03626e-06 0.000253607
0.00137498 -5.24353e-05 4.5984e-07
-5.24353e-05 0.000356299 -6.18746e-09
4.5984e-07 -6.18746e-09 0.000297318
0.000985978 -0.000110475 6.35619e-06
-0.000110475 5.28486e-05 -2.95197e-06
6.35619e-06 -2.95197e-06 -5.11719e-05
0.00379692 0.000123639 5.9873e-06
0.000123639 0.00174284 4.43882e-07
5.9873e-06 4.43882e-07 0.00173203
0.000775911 -6.63202e-05 1.0551e-05
-6.63202e-05 2.93035e-05 -7.61245e-06
1.0551e-05 -7.61245e-06 -2.57463e-05
0.00351405 0.000101477 8.24928e-05
0.000101477 0.0015755 -3.56094e-06
8.24928e-05 -3.56094e-06 0.00157125
0.00189962 0.000159628 -1.87046e-07
0.000159628 0.00026062 4.76402e-07
-1.87046e-07 4.76402e-07 0.000134882
0.000752298 0.000132976 -2.76484e-07
0.000132976 -0.00022364 1.37107e-06
-2.76484e-07 1.37107e-06 -0.00036262
0.000942703 0.000144801 -2.74573e-07
0.000144801 -3.37352e-05 -1.48627e-07
-2.74573e-07 -1.48627e-07 -0.000182881
0.00113506 0.000138624 -3.31618e-06
0.000138624 0.000118856 -1.56759e-06
-3.31618e-06 -1.56759e-06 -1.08682e-05
0.000463597 0.000108911 3.36601e-07
0.000108911 -0.000197706 2.20218e-06
3.36601e-07 2.20218e-06 -0.000334769
0.00103804 0.000126071 -4.80988e-07
0.000126071 0.00012292 -4.74928e-08
-4.80988e-07 -4.74928e-08 2.44239e-06
0.000982527 8.81808e-05 -4.19313e-06
8.81808e-05 0.000123404 -2.12632e-06
-4.19313e-06 -2.12632e-06 2.92955e-05
0.00087089 0.000105693 8.81744e-07
0.000105693 7.08252e-05 6.37469e-07
8.81744e-07 6.37469e-07 -3.59579e-05
0.000805505 5.03142e-05 -2.53359e-07
5.03142e-05 5.12442e-05 5.69429e-08
-2.53359e-07 5.69429e-08 -3.49858e-05
0.000702031 -1.46242e-06 -6.32852e-06
-1.46242e-06 8.85275e-06 -5.60912e-06
-6.32852e-06 -5.60912e-06 -3.31667e-05
0.000749092 -3.17608e-06 1.04763e-06
-3.17608e-06 2.82082e-05 1.99166e-06
1.04763e-06 1.99166e-06 -4.83629e-05
0.000578518 -5.65306e-05 -7.20919e-07
-5.65306e-05 -4.84362e-05 -1.4621e-07
-7.20919e-07 -1.4621e-07 -8.44179e-05
0.00287656 -0.000102163 -5.70463e-05
-0.000102163 0.00122129 -2.42167e-06
-5.70463e-05 -2.42167e-06 0.00122148
0.000556581 -7.02582e-05 4.54501e-07
-7.02582e-05 -6.04236e-05 4.84161e-06
4.54501e-07 4.84161e-06 -9.02569e-05
0.00256773 -9.34576e-05 -9.61744e-07
-9.34576e-05 0.00104779 1.28488e-07
-9.61744e-07 1.28488e-07 0.00105161
0.0023615 -8.31402e-05 3.6163e-05
-8.31402e-05 0.00092879 2.62684e-06
3.6163e-05 2.62684e-06 0.00093581
0.00180763 6.30775e-05 -1.03503e-06
6.30775e-05 4.81119e-05 1.34682e-06
-1.03503e-06 1.34682e-06 -3.46222e-05
0.00188719 2.46903e-05 2.10892e-07
2.46903e-05 0.000130812 -7.14838e-07
2.10892e-07 -7.14838e-07 7.50043e-05
0.00276079 -5.64798e-05 -1.95155e-05
-5.64798e-05 0.00054108 -2.68689e-06
-1.95155e-05 -2.68689e-06 0.000456303
0.00164972 0.000159595 -3.08176e-06
0.000159595 6.87508e-05 4.7775e-07
-3.08176e-06 4.7775e-07 -5.64456e-05
0.00166875 0.000183572 -2.07635e-06
0.000183572 0.000230522 1.28848e-07
-2.07635e-06 1.28848e-07 9.63379e-05
0.00074706 0.000134058 -9.43373e-06
0.000134058 -4.68694e-05 3.32145e-06
-9.43373e-06 3.32145e-06 -0.000159873
0.00159273 0.000167119 1.44587e-06
0.000167119 0.000126803 1.54338e-07
1.44587e-06 1.54338e-07 -7.43276e-06
0.00173358 0.00018976 -1.50762e-06
0.00018976 0.000313192 4.96458e-07
-1.50762e-06 4.96458e-07 0.000164149
0.00205008 0.000132175 -3.68002e-06
0.000132175 0.00019923 1.19747e-06
-3.68002e-06 1.19747e-06 9.48102e-05
0.00174319 0.000196162 -1.81515e-06
0.000196162 8.37265e-05 2.55765e-07
-1.81515e-06 2.55765e-07 -4.75511e-05
0.00174577 0.000219087 2.88366e-06
0.000219087 0.000218097 1.18885e-06
2.88366e-06 1.18885e-06 7.21369e-05
0.00179015 0.000131456 -5.15169e-07
0.000131456 6.87652e-05 1.08147e-07
-5.15169e-07 1.08147e-07 -3.63149e-05
0.00201702 0.00023759 5.73866e-06
0.00023759 0.00020539 -3.96212e-07
5.73866e-06 -3.96212e-07 7.01108e-05
0.00161406 0.000114801 -1.68998e-05
0.000114801 -1.1373e-05 -6.22816e-06
-1.68998e-05 -6.22816e-06 -8.91232e-05
0.00194517 5.51235e-06 -4.57562e-08
5.51235e-06 0.000123755 1.56472e-07
-4.57562e-08 1.56472e-07 4.40524e-05
0.00177222 -2.09798e-07 4.01214e-07
-2.09798e-07 1.8874e-05 -4.36578e-07
4.01214e-07 -4.36578e-07 -5.10694e-05
0.00217189 9.73309e-06 -1.44596e-05
9.73309e-06 0.000349792 -6.9786e-07
-1.44596e-05 -6.9786e-07 0.000296578
0.00203978 -8.01537e-05 -7.64296e-06
-8.01537e-05 0.000146031 -1.018e-06
-7.64296e-06 -1.018e-06 9.07963e-05
0.00193394 -3.46708e-05 -8.678e-07
-3.46708e-05 8.89571e-05 9.8946e-08
-8.678e-07 9.8946e-08 2.38298e-05
0.00181351 -4.62153e-05 2.26454e-07
-4.62153e-05 5.91405e-05 -4.38394e-08
2.26454e-07 -4.38394e-08 -1.64374e-05
0.00185214 -2.81339e-05 2.6952e-07
-2.81339e-05 0.000107628 -2.9662e-07
2.6952e-07 -2.9662e-07 1.20973e-05
0.00188367 -7.834e-05 -1.57173e-06
-7.834e-05 0.000146089 -2.4614e-07
-1.57173e-06 -2.4614e-07 6.67397e-05
0.00179281 -6.47977e-05 -4.42629e-07
-6.47977e-05 0.000107721 -1.02998e-07
-4.42629e-07 -1.02998e-07 1.11655e-05
0.00172925 -4.49182e-05 7.55202e-07
-4.49182e-05 0.000115483 -5.89612e-07
7.55202e-07 -5.89612e-07 1.31227e-06
0.00164557 -7.79251e-05 -1.80468e-06
-7.79251e-05 7.34374e-05 1.46529e-07
-1.80468e-06 1.46529e-07 -3.00718e-05
0.00164783 -6.46396e-05 -7.15087e-08
-6.46396e-05 0.000102823 2.18088e-07
-7.15087e-08 2.18088e-07 -1.26957e-05
0.00158579 -6.5782e-05 -1.80387e-06
-6.5782e-05 0.000111369 7.52446e-07
-1.80387e-06 7.52446e-07 -9.24474e-06
0.00160963 -9.26519e-05 1.06102e-07
-9.26519e-05 0.000101874 -5.97229e-07
1.06102e-07 -5.97229e-07 -1.35485e-05
0.00154288 -9.53484e-05 -3.91487e-08
-9.53484e-05 0.000102795 -5.04739e-08
-3.91487e-08 -5.04739e-08 -1.71779e-05
0.00139983 -9.10974e-05 -4.57932e-06
-9.10974e-05 7.74194e-05 1.15288e-06
-4.57932e-06 1.15288e-06 -3.91166e-05
0.00150204 -0.000115856 1.94002e-06
-0.000115856 9.79866e-05 -5.06431e-07
1.94002e-06 -5.06431e-07 -2.31187e-05
0.00136846 -0.000108217 -3.9117e-09
-0.000108217 7.84322e-05 9.10552e-08
-3.9117e-09 9.10552e-08 -3.9184e-05
0.0011139 -8.80974e-05 -9.43167e-06
-8.80974e-05 2.13599e-05 3.38331e-06
-9.43167e-06 3.38331e-06 -7.79925e-05
0.00128731 -0.000118302 4.71172e-06
-0.000118302 6.1937e-05 -1.30095e-06
4.71172e-06 -1.30095e-06 -5.78677e-05
0.00107006 -9.65348e-05 3.26755e-07
-9.65348e-05 1.87119e-05 3.62445e-08
3.26755e-07 3.62445e-08 -8.12312e-05
0.0021096 -3.42815e-05 -1.26562e-05
-3.42815e-05 0.000733979 5.23511e-06
-1.26562e-05 5.23511e-06 0.000679659
0.00101241 -0.000104908 7.78569e-06
-0.000104908 2.11488e-05 -3.36884e-06
7.78569e-06 -3.36884e-06 -8.10513e-05
0.00220491 -6.29853e-05 2.58034e-05
-6.29853e-05 0.000795176 -1.6802e-06
2.58034e-05 -1.6802e-06 0.000741363
0.00141003 -3.39085e-05 -0.000106856
-3.39085e-05 0.000421044 1.16778e-05
-0.000106856 1.16778e-05 0.000400746
0.00262083 3.79696e-05 -8.92264e-05
3.79696e-05 0.00109628 2.42654e-06
-8.92264e-05 2.42654e-06 0.00108139
0.00227667 -8.37567e-05 5.74909e-05
-8.37567e-05 0.000841812 -7.20662e-06
5.74909e-05 -7.20662e-06 0.000792524
0.00391272 9.11388e-05 9.77232e-05
9.11388e-05 0.00180398 -5.40716e-06
9.77232e-05 -5.40716e-06 0.00179576
0.00167899 0.00012797 -3.13444e-06
0.00012797 0.000108631 -7.96119e-07
-3.13444e-06 -7.96119e-07 -1.32426e-05
0.0016314 0.000155354 1.79849e-06
0.000155354 0.000185577 4.81303e-07
1.79849e-06 4.81303e-07 5.80134e-05
0.0017011 0.000152234 1.02105e-06
0.000152234 0.000155217 4.96483e-07
1.02105e-06 4.96483e-07 3.23602e-05
0.00118366 0.000143101 -4.04025e-06
0.000143101 7.39223e-05 -7.82255e-07
-4.04025e-06 -7.82255e-07 -5.76441e-05
0.00116787 0.000154339 -2.5911e-07
0.000154339 -3.47633e-06 6.1625e-07
-2.5911e-07 6.1625e-07 -0.000144387
0.0011511 0.000157634 1.82474e-06
0.000157634 7.00123e-05 1.24649e-06
1.82474e-06 1.24649e-06 -8.11859e-05
0.00111149 0.000137636 -3.35726e-07
0.000137636 0.000106961 -4.01882e-08
-3.35726e-07 -4.01882e-08 -2.28386e-05
0.000995297 0.000106316 -5.3303e-06
0.000106316 9.19788e-05 -2.8845e-06
-5.3303e-06 -2.8845e-06 -9.675e-06
0.000941771 0.000119166 1.33794e-06
0.000119166 7.35141e-05 1.29488e-06
1.33794e-06 1.29488e-06 -4.60299e-05
0.00085588 8.14031e-05 -3.27584e-07
8.14031e-05 5.5106e-05 -7.07667e-08
-3.27584e-07 -7.07667e-08 -3.76568e-05
0.000769537 3.73709e-05 -8.42682e-06
3.73709e-05 3.87151e-05 -6.436e-06
-8.42682e-06 -6.436e-06 -1.17922e-05
0.000686435 4.21368e-05 1.51845e-06
4.21368e-05 -1.20766e-05 1.52791e-06
1.51845e-06 1.52791e-06 -9.72671e-05
0.000614263 -2.25824e-05 2.81658e-07
-2.25824e-05 -3.37953e-05 -2.36792e-07
2.81658e-07 -2.36792e-07 -7.66086e-05
0.00316233 -0.000104213 -7.20128e-05
-0.000104213 0.0013868 -2.69849e-06
-7.20128e-05 -2.69849e-06 0.00138343
0.000517483 -8.04872e-05 -1.23409e-06
-8.04872e-05 -7.37746e-05 5.76839e-06
-1.23409e-06 5.76839e-06 -0.000114101
0.00281685 -0.000105339 -1.5129e-06
-0.000105339 0.00118909 1.98113e-07
-1.5129e-06 1.98113e-07 0.00118905
0.00251924 -9.35334e-05 4.03124e-05
-9.35334e-05 0.00102136 2.31773e-06
4.03124e-05 2.31773e-06 0.0010254
0.00188257 6.55989e-05 -1.96622e-06
6.55989e-05 8.7127e-05 9.52307e-07
-1.96622e-06 9.52307e-07 -2.4721e-06
0.00175477 6.25816e-05 8.01652e-07
6.25816e-05 2.49008e-05 -1.23827e-07
8.01652e-07 -1.23827e-07 -5.79112e-05
0.0022396 1.94151e-05 -2.72188e-05
1.94151e-05 0.000351977 -4.00834e-06
-2.72188e-05 -4.00834e-06 0.000298395
0.00187472 0.000118814 -5.94005e-08
0.000118814 0.000138266 1.10417e-06
-5.94005e-08 1.10417e-06 2.70182e-05
0.00177031 0.000162038 -8.25346e-07
0.000162038 0.000136939 -4.15742e-07
-8.25346e-07 -4.15742e-07 1.17492e-05
0.0015883 0.000178396 -1.72297e-06
0.000178396 0.000206041 1.686e-06
-1.72297e-06 1.686e-06 7.5434e-05
0.00188377 0.0001761 8.52475e-07
0.0001761 0.000283597 -9.80245e-07
8.52475e-07 -9.80245e-07 0.000149658
0.00189673 0.000127157 2.37995e-07
0.000127157 0.000117031 -3.17589e-08
2.37995e-07 -3.17589e-08 1.16998e-05
0.00167234 0.000196405 8.79879e-07
0.000196405 4.71043e-05 -6.32445e-07
8.79879e-07 -6.32445e-07 -8.54945e-05
0.00173555 0.000130809 4.0943e-06
0.000130809 4.30135e-05 -1.26892e-06
4.0943e-06 -1.26892e-06 -6.25772e-05
0.00184417 1.36292e-05 1.15337e-06
1.36292e-05 8.99918e-05 3.12332e-07
1.15337e-06 3.12332e-07 -2.3935e-06
0.0018841 6.25524e-06 -3.34878e-07
6.25524e-06 9.15689e-05 -4.90976e-08
-3.34878e-07 -4.90976e-08 1.03921e-05
0.00182042 3.79196e-06 -2.18081e-06
3.79196e-06 5.05614e-05 -8.19088e-07
-2.18081e-06 -8.19088e-07 -1.83252e-05
0.00171226 -3.47802e-06 -1.24602e-07
-3.47802e-06 3.86004e-05 -1.67084e-08
-1.24602e-07 -1.67084e-08 -6.27124e-05
0.00187998 -4.46241e-05 -1.08086e-06
-4.46241e-05 8.89813e-05 1.68593e-07
-1.08086e-06 1.68593e-07 1.58869e-05
0.00185336 -2.83492e-05 -2.10089e-07
-2.83492e-05 0.000108491 3.62248e-07
-2.10089e-07 3.62248e-07 1.29077e-05
0.00187429 -2.38197e-05 8.87494e-07
-2.38197e-05 0.000164875 -7.32881e-07
8.87494e-07 -7.32881e-07 5.51606e-05
0.00177926 -6.58778e-05 -2.03555e-06
-6.58778e-05 0.000106513 3.1835e-07
-2.03555e-06 3.1835e-07 9.36325e-06
0.00171562 -4.48891e-05 5.50838e-08
-4.48891e-05 0.00010674 -1.68904e-07
5.50838e-08 -1.68904e-07 -7.32699e-06
0.00161533 -3.3789e-05 -2.2348e-06
-3.3789e-05 0.000105824 6.76001e-07
-2.2348e-06 6.76001e-07 -1.55754e-05
0.00163684 -6.40522e-05 -1.22954e-08
-6.40522e-05 9.50335e-05 -8.01504e-08
-1.22954e-08 -8.01504e-08 -2.0389e-05
0.001561 -6.38151e-05 -4.60788e-08
-6.38151e-05 9.76982e-05 5.46564e-08
-4.60788e-08 5.46564e-08 -2.28405e-05
0.00142915 -6.81638e-05 -4.52128e-06
-6.81638e-05 7.86259e-05 1.33505e-06
-4.52128e-06 1.33505e-06 -3.90622e-05
0.00153781 -9.44899e-05 1.96525e-06
-9.44899e-05 9.99597e-05 -7.11954e-07
1.96525e-06 -7.11954e-07 -1.99597e-05
0.00140488 -9.03935e-05 -8.03642e-08
-9.03935e-05 7.97867e-05 -2.32935e-08
-8.03642e-08 -2.32935e-08 -3.66574e-05
0.00113272 -7.46749e-05 -9.55488e-06
-7.46749e-05 1.71966e-05 2.73299e-06
-9.55488e-06 2.73299e-06 -8.18093e-05
0.00135631 -0.000106904 4.78396e-06
-0.000106904 7.19801e-05 -1.17762e-06
4.78396e-06 -1.17762e-06 -4.54589e-05
0.00110929 -8.6187e-05 2.55467e-07
-8.6187e-05 1.76733e-05 1.61662e-07
2.55467e-07 1.61662e-07 -8.13311e-05
0.00221093 -5.61644e-05 -1.98456e-05
-5.61644e-05 0.000769658 4.23134e-06
-1.98456e-05 4.23134e-06 0.000720629
0.0010555 -9.51549e-05 8.82187e-06
-9.51549e-05 1.02334e-05 -3.56598e-06
8.82187e-06 -3.56598e-06 -8.95633e-05
0.00227124 -7.60409e-05 2.30324e-05
-7.60409e-05 0.000812488 -1.99137e-06
2.30324e-05 -1.99137e-06 0.000763081
0.00152211 -3.20122e-05 -0.000107681
-3.20122e-05 0.0004797 1.09701e-05
-0.000107681 1.09701e-05 0.000458594
0.00238753 -9.80931e-05 6.56895e-05
-9.80931e-05 0.000884176 -9.60008e-06
6.56895e-05 -9.60008e-06 0.000834716
0.00136673 3.12423e-05 -5.50731e-05
3.12423e-05 0.000412888 3.4244e-06
-5.50731e-05 3.4244e-06 0.000382644
0.00400692 0.000223478 1.38965e-06
0.000223478 0.00189225 -3.12814e-06
1.38965e-06 -3.12814e-06 0.00185829
0.0017108 0.000100269 -6.82064e-07
0.000100269 0.000110048 4.3769e-07
-6.82064e-07 4.3769e-07 -9.22334e-06
0.00162508 0.000124206 -1.66213e-06
0.000124206 0.000132595 -9.97084e-07
-1.66213e-06 -9.97084e-07 9.87767e-06
0.00175689 0.000132873 -2.22002e-06
0.000132873 0.000154838 2.27563e-07
-2.22002e-06 2.27563e-07 3.31611e-05
0.00173881 0.000155401 -2.79512e-06
0.000155401 0.000309345 -6.92346e-08
-2.79512e-06 -6.92346e-08 0.000184399
0.00152628 0.000153815 4.63841e-07
0.000153815 0.00012284 -5.40516e-07
4.63841e-07 -5.40516e-07 -4.63012e-06
0.00147633 0.000143541 5.1828e-06
0.000143541 3.65347e-05 4.58434e-07
5.1828e-06 4.58434e-07 -8.3344e-05
0.00100584 0.00011347 -7.34368e-06
0.00011347 4.20548e-05 -3.2204e-06
-7.34368e-06 -3.2204e-06 -6.44937e-05
0.00122068 0.000145981 -3.81662e-07
0.000145981 9.41651e-05 3.2032e-07
-3.81662e-07 3.2032e-07 -3.82635e-05
0.00161035 0.000176997 3.23914e-06
0.000176997 0.000231188 9.03191e-08
3.23914e-06 9.03191e-08 8.82243e-05
0.00109113 0.000136981 2.90832e-06
0.000136981 9.6898e-05 1.61727e-06
2.90832e-06 1.61727e-06 -3.30335e-05
0.000923862 0.000101353 -4.03795e-07
0.000101353 5.34293e-05 -1.97272e-07
-4.03795e-07 -1.97272e-07 -4.74653e-05
0.00079075 8.55404e-05 -1.22354e-05
8.55404e-05 4.32182e-05 -7.55686e-06
-1.22354e-05 -7.55686e-06 -1.56686e-05
0.000741218 7.47681e-05 2.99034e-06
7.47681e-05 -6.65799e-06 1.85646e-06
2.99034e-06 1.85646e-06 -9.81995e-05
0.000660229 3.25818e-05 2.10383e-08
3.25818e-05 -1.40694e-05 -2.70591e-08
2.10383e-08 -2.70591e-08 -6.48577e-05
0.00353536 -9.08446e-05 -8.806e-05
-9.08446e-05 0.00160394 -4.44801e-06
-8.806e-05 -4.44801e-06 0.00159666
0.000546713 -3.41967e-05 2.49736e-06
-3.41967e-05 -6.80405e-05 5.85747e-06
2.49736e-06 5.85747e-06 -0.000110013
0.00311215 -0.000119459 -2.63869e-06
-0.000119459 0.00135971 3.27575e-07
-2.63869e-06 3.27575e-07 0.00135446
0.00276374 -0.000106391 4.61154e-05
-0.000106391 0.00115991 2.15813e-06
4.61154e-05 2.15813e-06 0.00116011
0.00178752 6.21679e-05 9.65432e-07
6.21679e-05 6.42809e-05 9.21005e-07
9.65432e-07 9.21005e-07 -3.55347e-05
0.00183378 6.75346e-05 -5.16115e-07
6.75346e-05 5.89647e-05 1.77553e-07
-5.16115e-07 1.77553e-07 -3.04123e-05
0.00174284 6.25632e-05 1.13181e-06
6.25632e-05 1.69616e-05 -1.65252e-06
1.13181e-06 -1.65252e-06 -6.5882e-05
0.00186441 0.000117293 5.88619e-07
0.000117293 0.000130657 -8.1247e-08
5.88619e-07 -8.1247e-08 2.02321e-05
0.00189274 0.000164818 1.08515e-07
0.000164818 0.000206454 -1.08435e-06
1.08515e-07 -1.08435e-06 8.12318e-05
0.00176172 0.000122162 2.5203e-06
0.000122162 4.41079e-05 -1.29287e-06
2.5203e-06 -1.29287e-06 -6.20647e-05
0.00184193 1.6166e-05 2.96477e-07
1.6166e-05 0.000108385 3.02453e-07
2.96477e-07 3.02453e-07 7.87055e-06
0.00186869 1.51352e-05 3.58507e-07
1.51352e-05 0.000103079 -1.71195e-07
3.58507e-07 -1.71195e-07 9.81326e-06
0.00183381 7.56946e-06 8.05079e-07
7.56946e-06 6.34295e-05 -1.82429e-07
8.05079e-07 -1.82429e-07 -1.92195e-05
0.00178203 -1.06891e-05 -1.02089e-06
-1.06891e-05 7.57278e-05 1.48552e-07
-1.02089e-06 1.48552e-07 -2.45914e-05
0.001753 -1.02755e-05 1.23208e-06
-1.02755e-05 9.23961e-05 -4.88763e-07
1.23208e-06 -4.88763e-07 -1.7671e-05
0.00185457 -2.85014e-05 -8.54159e-07
-2.85014e-05 0.00010942 6.15223e-07
-8.54159e-07 6.15223e-07 1.3774e-05
0.00179408 -2.37792e-05 -9.29207e-08
-2.37792e-05 0.000121307 2.01281e-07
-9.29207e-08 2.01281e-07 9.82758e-06
0.00165556 -1.38084e-05 -8.80272e-08
-1.38084e-05 0.000107335 -3.85561e-07
-8.80272e-08 -3.85561e-07 -1.26221e-05
0.00169831 -4.54298e-05 -5.26559e-08
-4.54298e-05 9.5969e-05 1.85038e-07
-5.26559e-08 1.85038e-07 -1.80286e-05
0.00158959 -3.50006e-05 -5.81952e-07
-3.50006e-05 9.06004e-05 2.88565e-07
-5.81952e-07 2.88565e-07 -3.08436e-05
0.00146623 -3.80989e-05 -5.52072e-06
-3.80989e-05 7.95593e-05 1.74701e-06
-5.52072e-06 1.74701e-06 -4.08218e-05
0.00154149 -6.34215e-05 1.54305e-06
-6.34215e-05 8.66294e-05 -6.50388e-07
1.54305e-06 -6.50388e-07 -3.38851e-05
0.00143146 -6.70184e-05 7.92895e-08
-6.70184e-05 7.95139e-05 -9.28844e-08
7.92895e-08 -9.28844e-08 -3.80605e-05
0.00113655 -5.66341e-05 -9.46652e-06
-5.66341e-05 6.90728e-06 2.42651e-06
-9.46652e-06 2.42651e-06 -9.27571e-05
0.00140804 -8.95826e-05 4.59818e-06
-8.95826e-05 8.11524e-05 -1.22421e-06
4.59818e-06 -1.22421e-06 -3.51945e-05
0.00113885 -7.25921e-05 2.26636e-08
-7.25921e-05 1.92464e-05 9.37609e-08
2.26636e-08 9.37609e-08 -7.93868e-05
0.00224765 -5.99389e-05 -2.3313e-05
-5.99389e-05 0.000779072 3.33296e-06
-2.3313e-05 3.33296e-06 0.000731298
0.00110225 -8.43761e-05 9.46845e-06
-8.43761e-05 1.2597e-05 -3.1072e-06
9.46845e-06 -3.1072e-06 -8.60563e-05
0.00230983 -7.62739e-05 2.20287e-05
-7.62739e-05 0.000819685 -1.71843e-06
2.20287e-05 -1.71843e-06 0.000772626
0.00161544 -2.96387e-05 -0.000109288
-2.96387e-05 0.000522844 9.50394e-06
-0.000109288 9.50394e-06 0.000502284
0.00241759 -9.2691e-05 6.72168e-05
-9.2691e-05 0.000887241 -8.77802e-06
6.72168e-05 -8.77802e-06 0.000839793
0.00141532 2.00666e-05 -5.28632e-05
2.00666e-05 0.000432277 3.64751e-06
-5.28632e-05 3.64751e-06 0.000404487
0.00137712 8.91468e-05 1.93833e-06
8.91468e-05 0.000432191 -4.46451e-06
1.93833e-06 -4.46451e-06 0.000393481
0.00181647 6.00298e-05 6.91039e-07
6.00298e-05 0.000136633 1.10957e-06
6.91039e-07 1.10957e-06 2.80862e-05
0.00155391 9.20777e-05 -2.34284e-06
9.20777e-05 7.77277e-05 -4.39435e-07
-2.34284e-06 -4.39435e-07 -4.53258e-05
0.00172401 0.000101695 -1.18163e-06
0.000101695 0.000117186 -1.29434e-07
-1.18163e-06 -1.29434e-07 -1.04571e-06
0.00158998 0.000125317 -3.964e-06
0.000125317 0.000177044 -1.10775e-06
-3.964e-06 -1.10775e-06 5.84293e-05
0.00171759 0.000127957 1.07589e-06
0.000127957 0.000184639 3.86726e-07
1.07589e-06 3.86726e-07 6.1844e-05
0.00181441 0.000137237 3.42165e-06
0.000137237 0.000190369 6.54814e-07
3.42165e-06 6.54814e-07 6.88222e-05
0.00102654 0.000110116 -8.94142e-06
0.000110116 -1.01991e-06 -2.91736e-06
-8.94142e-06 -2.91736e-06 -0.000106784
0.00142173 0.000144534 2.52871e-06
0.000144534 0.00013399 7.05276e-07
2.52871e-06 7.05276e-07 8.07488e-06
0.00144143 0.000153203 2.61462e-06
0.000153203 6.98663e-05 -2.64762e-07
2.61462e-06 -2.64762e-07 -5.75005e-05
0.000733726 0.000110687 -1.58735e-05
0.000110687 -3.23475e-06 -7.87674e-06
-1.58735e-05 -7.87674e-06 -6.66553e-05
0.00100247 0.000112421 -6.64697e-07
0.000112421 4.06838e-05 8.67415e-08
-6.64697e-07 8.67415e-08 -6.56071e-05
0.00125628 0.000148705 4.50417e-06
0.000148705 0.000113662 1.92081e-06
4.50417e-06 1.92081e-06 -1.96102e-05
0.000870126 9.72993e-05 4.75453e-06
9.72993e-05 2.48481e-05 2.70676e-06
4.75453e-06 2.70676e-06 -7.54339e-05
0.00066255 7.61415e-05 -1.59992e-07
7.61415e-05 -2.05363e-05 6.92402e-08
-1.59992e-07 6.92402e-08 -7.89765e-05
0.0040747 -7.79892e-05 -9.98336e-05
-7.79892e-05 0.00191109 -7.29487e-06
-9.98336e-05 -7.29487e-06 0.00189707
0.000567098 2.41995e-05 5.88754e-06
2.41995e-05 -6.06217e-05 6.43111e-06
5.88754e-06 6.43111e-06 -0.000110208
0.0034486 -0.000124953 -5.3711e-06
-0.000124953 0.00155763 3.70949e-07
-5.3711e-06 3.70949e-07 0.0015475
0.00304547 -0.000121737 5.32373e-05
-0.000121737 0.00132179 2.1172e-06
5.32373e-05 2.1172e-06 0.00131676
0.00179519 4.23154e-05 5.99689e-07
4.23154e-05 8.9331e-05 9.94731e-08
5.99689e-07 9.94731e-08 -1.38352e-05
0.00179175 6.14236e-05 -1.15912e-07
6.14236e-05 6.67785e-05 2.70158e-07
-1.15912e-07 2.70158e-07 -3.25921e-05
0.00176986 6.89463e-05 3.31293e-06
6.89463e-05 2.37362e-05 -6.57619e-07
3.31293e-06 -6.57619e-07 -6.54332e-05
0.00185216 0.000115627 9.15276e-07
0.000115627 0.000121771 -1.06427e-06
9.15276e-07 -1.06427e-06 1.2178e-05
0.00176747 -3.3263e-06 9.4903e-07
-3.3263e-06 9.5265e-05 5.44606e-09
9.4903e-07 5.44606e-09 -1.52647e-05
0.0018768 1.30542e-05 -1.04366e-07
1.30542e-05 0.000125289 -7.73658e-08
-1.04366e-07 -7.73658e-08 2.48519e-05
0.00188989 1.60978e-05 -7.03091e-07
1.60978e-05 0.00011452 -2.48362e-08
-7.03091e-07 -2.48362e-08 2.03845e-05
0.0018601 -1.46141e-05 -2.30315e-06
-1.46141e-05 0.000117558 -6.3576e-08
-2.30315e-06 -6.3576e-08 1.82143e-05
0.00174855 -4.50365e-06 -6.60892e-07
-4.50365e-06 8.95605e-05 -9.21328e-08
-6.60892e-07 -9.21328e-08 -1.98146e-05
0.00179782 2.89865e-07 5.33995e-07
2.89865e-07 0.00017441 -3.46101e-07
5.33995e-07 -3.46101e-07 5.6357e-05
0.00171322 -2.37893e-05 -6.50907e-07
-2.37893e-05 7.73352e-05 8.95024e-07
-6.50907e-07 8.95024e-07 -3.59058e-05
0.00166996 -1.32796e-05 6.71198e-07
-1.32796e-05 0.000115085 -1.10611e-07
6.71198e-07 -1.10611e-07 -5.69847e-06
0.00136444 -1.12902e-05 -4.33025e-06
-1.12902e-05 5.89028e-06 6.87334e-07
-4.33025e-06 6.87334e-07 -0.00011622
0.00155144 -3.46055e-05 7.10328e-07
-3.46055e-05 6.9066e-05 -7.49263e-08
7.10328e-07 -7.49263e-08 -5.2391e-05
0.00144897 -3.53074e-05 -5.35596e-07
-3.53074e-05 7.05875e-05 3.52436e-07
-5.35596e-07 3.52436e-07 -4.9571e-05
0.00117291 -3.45897e-05 -9.71534e-06
-3.45897e-05 9.43038e-06 2.39539e-06
-9.71534e-06 2.39539e-06 -9.29373e-05
0.0014287 -6.3809e-05 4.3073e-06
-6.3809e-05 7.77515e-05 -1.4636e-06
4.3073e-06 -1.4636e-06 -3.95899e-05
0.00115721 -5.63945e-05 -2.60217e-08
-5.63945e-05 1.69195e-05 5.32928e-09
-2.60217e-08 5.32928e-09 -8.26244e-05
0.000687074 -4.02755e-05 -1.44941e-05
-4.02755e-05 -8.59974e-05 3.56589e-06
-1.44941e-05 3.56589e-06 -0.000142752
0.00114667 -7.06985e-05 9.59486e-06
-7.06985e-05 2.20778e-05 -2.65144e-06
9.59486e-06 -2.65144e-06 -7.61749e-05
0.00150406 -5.71117e-05 2.75701e-05
-5.71117e-05 0.000367972 -1.3691e-06
2.75701e-05 -1.3691e-06 0.000317919
0.00479549 -5.4476e-05 -0.000131422
-5.4476e-05 0.00226516 5.96645e-06
-0.000131422 5.96645e-06 0.00226216
0.0024157 -7.8218e-05 6.80927e-05
-7.8218e-05 0.000873519 -7.30326e-06
6.80927e-05 -7.30326e-06 0.000828269
0.00145797 -2.95776e-06 -4.72501e-05
-2.95776e-06 0.000442662 3.40456e-06
-4.72501e-05 3.40456e-06 0.000418694
0.00134911 2.21295e-05 1.46457e-05
2.21295e-05 0.000397702 -3.23922e-06
1.46457e-05 -3.23922e-06 0.0003692
0.00184061 4.01501e-05 9.23676e-07
4.01501e-05 0.000152519 3.90511e-07
9.23676e-07 3.90511e-07 4.55187e-05
0.0016219 5.67477e-05 -1.07863e-06
5.67477e-05 9.97537e-05 7.17551e-07
-1.07863e-06 7.17551e-07 -1.80051e-05
0.00183873 5.77257e-05 -3.17094e-08
5.77257e-05 0.000150554 -8.16984e-08
-3.17094e-08 -8.16984e-08 4.14936e-05
0.00116712 8.71085e-05 -5.31479e-06
8.71085e-05 -7.77464e-05 -1.56693e-06
-5.31479e-06 -1.56693e-06 -0.000197614
0.00165661 9.48985e-05 -6.49707e-08
9.48985e-05 0.000134569 -2.10139e-08
-6.49707e-08 -2.10139e-08 1.25796e-05
0.00173978 0.000103443 -5.72349e-07
0.000103443 0.000125975 -8.0329e-07
-5.72349e-07 -8.0329e-07 8.76009e-06
0.000667455 8.17667e-05 -1.12902e-05
8.17667e-05 -0.00023719 -3.15434e-06
-1.12902e-05 -3.15434e-06 -0.000341143
0.00163832 0.000128936 1.19346e-06
0.000128936 0.000203839 1.96484e-07
1.19346e-06 1.96484e-07 8.45802e-05
0.00183503 0.000132711 3.64696e-06
0.000132711 0.000250147 1.02848e-06
3.64696e-06 1.02848e-06 0.000127211
0.000671481 0.000107552 -1.6185e-05
0.000107552 -6.15489e-05 -6.76529e-06
-1.6185e-05 -6.76529e-06 -0.000123655
0.000816101 0.00010175 9.33499e-08
0.00010175 -0.000117547 3.41092e-07
9.33499e-08 3.41092e-07 -0.000224142
0.00109935 0.000133429 6.81905e-06
0.000133429 -4.4237e-05 1.70199e-06
6.81905e-06 1.70199e-06 -0.000171097
0.00459693 -8.34491e-05 -0.000103082
-8.34491e-05 0.00220128 -9.22745e-06
-0.000103082 -9.22745e-06 0.00218021
0.000649738 0.00010047 8.6755e-07
0.00010047 -4.61511e-05 1.78001e-07
8.6755e-07 1.78001e-07 -0.000108764
0.000984952 0.000110656 6.8211e-06
0.000110656 3.20404e-05 3.63202e-06
6.8211e-06 3.63202e-06 -7.39812e-05
0.000539897 6.73621e-05 9.31483e-06
6.73621e-05 -8.23876e-05 7.29269e-06
9.31483e-06 7.29269e-06 -0.000140331
0.00385569 -0.000115102 -7.45105e-06
-0.000115102 0.00179346 4.17412e-07
-7.45105e-06 4.17412e-07 0.00177848
0.00332041 -0.000138966 6.03775e-05
-0.000138966 0.00148705 2.21324e-06
6.03775e-05 2.21324e-06 0.00147539
0.00180566 2.17368e-05 -3.88591e-07
2.17368e-05 0.000116615 -1.49158e-07
-3.88591e-07 -1.49158e-07 7.24153e-06
0.00180702 4.16161e-05 -2.13766e-07
4.16161e-05 9.21756e-05 1.53648e-07
-2.13766e-07 1.53648e-07 -1.0775e-05
0.00180096 6.1185e-05 -3.8075e-08
6.1185e-05 7.19616e-05 -4.9301e-07
-3.8075e-08 -4.9301e-07 -2.69775e-05
0.00174893 8.02527e-06 5.19268e-07
8.02527e-06 0.000140398 -2.76636e-07
5.19268e-07 -2.76636e-07 2.19579e-05
0.00175756 1.19132e-07 -1.5051e-07
1.19132e-07 9.25281e-05 4.17949e-08
-1.5051e-07 4.17949e-08 -1.721e-05
0.00190826 7.37838e-06 -1.23077e-06
7.37838e-06 0.000140261 5.3758e-09
-1.23077e-06 5.3758e-09 3.99147e-05
0.00173537 -5.61372e-08 -1.61379e-06
-5.61372e-08 8.17845e-05 5.75443e-07
-1.61379e-06 5.75443e-07 -2.68745e-05
0.00178528 2.85476e-06 1.02142e-06
2.85476e-06 0.000167271 -2.16521e-07
1.02142e-06 -2.16521e-07 4.9195e-05
0.00176568 1.15446e-06 -2.90779e-06
1.15446e-06 0.000213205 8.15994e-08
-2.90779e-06 8.15994e-08 9.45737e-05
0.00169527 -1.26857e-05 1.70525e-06
-1.26857e-05 0.000128616 -2.5881e-08
1.70525e-06 -2.5881e-08 7.01628e-06
0.00160973 -9.49267e-06 3.29638e-09
-9.49267e-06 0.000140316 6.23045e-08
3.29638e-09 6.23045e-08 1.98868e-05
0.000834071 -1.15874e-05 -1.1793e-05
-1.15874e-05 -0.000195935 2.11658e-06
-1.1793e-05 2.11658e-06 -0.000304354
0.0014455 -3.481e-05 3.82213e-06
-3.481e-05 6.87932e-05 -9.7883e-07
3.82213e-06 -9.7883e-07 -5.12521e-05
0.00117403 -3.19923e-05 4.5146e-08
-3.19923e-05 9.29117e-06 4.77795e-08
4.5146e-08 4.77795e-08 -9.28885e-05
0.00068964 -1.92318e-05 -1.4414e-05
-1.92318e-05 -9.48958e-05 2.76727e-06
-1.4414e-05 2.76727e-06 -0.00015407
0.00117833 -5.49371e-05 9.79135e-06
-5.49371e-05 2.70804e-05 -2.50861e-06
9.79135e-06 -2.50861e-06 -7.22352e-05
0.000690312 -2.8029e-05 -2.16526e-07
-2.8029e-05 -8.51877e-05 1.04904e-07
-2.16526e-07 1.04904e-07 -0.000141871
0.00482158 -4.33158e-05 -0.000128725
-4.33158e-05 0.00227751 4.50178e-06
-0.000128725 4.50178e-06 0.00227481
0.0007328 -4.94318e-05 1.53292e-05
-4.94318e-05 -5.72564e-05 -5.2686e-06
1.53292e-05 -5.2686e-06 -0.000113554
0.00310908 -3.06312e-05 5.39564e-05
-3.06312e-05 0.00134151 1.41347e-09
5.39564e-05 1.41347e-09 0.00132658
0.00129315 -1.19608e-05 2.1333e-05
-1.19608e-05 0.000358431 -2.92538e-06
2.1333e-05 -2.92538e-06 0.000331422
0.00183523 2.79905e-05 9.27029e-08
2.79905e-05 0.000167427 4.42796e-09
9.27029e-08 4.42796e-09 5.79772e-05
0.00162624 3.13982e-05 -7.35065e-07
3.13982e-05 0.000100069 5.89503e-07
-7.35065e-07 5.89503e-07 -1.49914e-05
0.00180419 3.80855e-05 -3.54785e-07
3.80855e-05 0.000132782 -1.85289e-07
-3.54785e-07 -1.85289e-07 2.58151e-05
0.00141835 6.11883e-05 -4.29536e-06
6.11883e-05 4.87047e-05 -4.13774e-07
-4.29536e-06 -4.13774e-07 -6.78173e-05
0.00157557 5.50402e-05 3.89393e-07
5.50402e-05 7.39896e-05 1.61382e-07
3.89393e-07 1.61382e-07 -4.44645e-05
0.00186137 5.51616e-05 -1.03031e-06
5.51616e-05 0.000164524 -9.67421e-07
-1.03031e-06 -9.67421e-07 5.49649e-05
0.000702927 6.58429e-05 -1.14397e-05
6.58429e-05 -0.000239534 -3.01705e-06
-1.14397e-05 -3.01705e-06 -0.000342147
0.00152041 9.77839e-05 -1.44356e-06
9.77839e-05 0.000115249 -3.72071e-07
-1.44356e-06 -3.72071e-07 -3.07755e-06
0.00175831 9.75171e-05 2.55323e-06
9.75171e-05 0.000190748 1.01902e-07
2.55323e-06 1.01902e-07 6.9854e-05
0.000639712 8.02061e-05 -1.52075e-05
8.02061e-05 -9.85665e-05 -5.42604e-06
-1.52075e-05 -5.42604e-06 -0.000158241
0.0006759 8.28802e-05 -2.54537e-06
8.28802e-05 -0.000232826 -6.06383e-07
-2.54537e-06 -6.06383e-07 -0.000337239
0.00168249 0.000132445 6.52158e-06
0.000132445 0.000228346 1.38081e-06
6.52158e-06 1.38081e-06 0.000108462
0.00488507 -3.22528e-05 -0.00011574
-3.22528e-05 0.00233463 -7.95742e-06
-0.00011574 -7.95742e-06 0.00232326
0.000626453 9.72918e-05 8.88349e-07
9.72918e-05 -8.35933e-05 3.63123e-07
8.88349e-07 3.63123e-07 -0.000146383
0.000600448 9.32378e-05 8.76434e-06
9.32378e-05 -0.000236881 3.39528e-06
8.76434e-06 3.39528e-06 -0.000344315
0.0043469 -6.94031e-05 2.5856e-07
-6.94031e-05 0.00205706 -9.72367e-08
2.5856e-07 -9.72367e-08 0.00204307
0.000527725 9.13428e-05 1.27377e-05
9.13428e-05 -0.000108839 7.66938e-06
1.27377e-05 7.66938e-06 -0.000170928
0.00365453 -0.00014517 7.08149e-05
-0.00014517 0.00168578 3.34056e-06
7.08149e-05 3.34056e-06 0.00166879
0.00178358 1.79655e-05 -4.39904e-07
1.79655e-05 0.000157522 -3.02867e-07
-4.39904e-07 -3.02867e-07 4.17378e-05
0.00177266 2.08033e-05 -7.54254e-08
2.08033e-05 0.000102408 6.24113e-08
-7.54254e-08 6.24113e-08 -7.42653e-06
0.00181804 4.08776e-05 -8.25796e-07
4.08776e-05 9.43969e-05 -8.15846e-08
-8.25796e-07 -8.15846e-08 -8.33646e-06
0.00174133 -1.70576e-06 -3.18173e-06
-1.70576e-06 0.000200543 -1.51853e-07
-3.18173e-06 -1.51853e-07 8.34221e-05
0.00177356 7.3744e-06 7.26332e-07
7.3744e-06 0.000153977 -1.08083e-08
7.26332e-07 -1.08083e-08 3.64577e-05
0.00176075 5.78255e-06 1.47431e-07
5.78255e-06 9.68026e-05 3.20187e-08
1.47431e-07 3.20187e-08 -1.21875e-05
0.00177295 4.25758e-06 1.0837e-06
4.25758e-06 0.000160239 2.2032e-07
1.0837e-06 2.2032e-07 4.21452e-05
0.00176446 1.55499e-06 1.51425e-06
1.55499e-06 0.000212672 -1.83111e-07
1.51425e-06 -1.83111e-07 9.39829e-05
0.000843578 -2.89813e-06 -1.12923e-05
-2.89813e-06 -0.000201729 8.43622e-07
-1.12923e-05 8.43622e-07 -0.000311089
0.00185171 -7.8801e-06 5.38728e-06
-7.8801e-06 0.000273135 -7.82092e-07
5.38728e-06 -7.82092e-07 0.000154376
0.00102339 -9.96752e-06 -2.38538e-06
-9.96752e-06 -9.17872e-05 5.34783e-07
-2.38538e-06 5.34783e-07 -0.000198502
0.000709113 -7.27806e-06 -1.49683e-05
-7.27806e-06 -9.76045e-05 2.07645e-06
-1.49683e-05 2.07645e-06 -0.000159863
0.00118487 -3.08724e-05 9.73946e-06
-3.08724e-05 1.4275e-05 -2.33488e-06
9.73946e-06 -2.33488e-06 -8.77904e-05
0.000702227 -1.41034e-05 2.68574e-07
-1.41034e-05 -8.91826e-05 -3.73526e-08
2.68574e-07 -3.73526e-08 -0.000148245
0.0049301 -2.72652e-05 -0.000128607
-2.72652e-05 0.00233277 2.97316e-06
-0.000128607 2.97316e-06 0.00233036
0.000684493 -2.12605e-05 1.36396e-05
-2.12605e-05 -8.95152e-05 -3.14904e-06
1.36396e-05 -3.14904e-06 -0.000145769
0.00484649 -7.68332e-06 6.81075e-06
-7.68332e-06 0.00229011 1.63745e-07
6.81075e-06 1.63745e-07 0.0022875
0.00148856 -1.59008e-05 0.000112477
-1.59008e-05 0.000451637 -4.97885e-06
0.000112477 -4.97885e-06 0.000432796
0.00180533 2.13196e-05 -4.92009e-07
2.13196e-05 0.000196571 -2.41066e-07
-4.92009e-07 -2.41066e-07 8.33527e-05
0.00175245 3.07776e-05 -2.6737e-07
3.07776e-05 0.000121285 2.07326e-07
-2.6737e-07 2.07326e-07 1.21521e-05
0.00144473 3.0369e-05 -3.76992e-06
3.0369e-05 5.74591e-05 -3.49985e-07
-3.76992e-06 -3.49985e-07 -5.66027e-05
0.00159202 3.06954e-05 3.93662e-07
3.06954e-05 8.17269e-05 -1.97826e-08
3.93662e-07 -1.97826e-08 -3.34041e-05
0.00176564 3.60657e-05 -3.0085e-07
3.60657e-05 0.000111994 -7.00193e-07
-3.0085e-07 -7.00193e-07 5.06398e-06
0.00117735 5.3683e-05 -9.80457e-06
5.3683e-05 8.40482e-06 -1.89445e-06
-9.80457e-06 -1.89445e-06 -9.07963e-05
0.00144454 6.17417e-05 -5.18815e-08
6.17417e-05 6.15838e-05 2.71157e-07
-5.18815e-08 2.71157e-07 -5.49282e-05
0.00152831 5.33387e-05 8.50189e-07
5.33387e-05 4.77944e-05 -2.1045e-07
8.50189e-07 -2.1045e-07 -7.13669e-05
0.000655684 5.5639e-05 -1.48829e-05
5.5639e-05 -0.00010503 -4.16366e-06
-1.48829e-05 -4.16366e-06 -0.000162625
0.00092376 7.31926e-05 -2.93502e-06
7.31926e-05 -0.000118093 -5.31223e-07
-2.93502e-06 -5.31223e-07 -0.000219926
0.00188291 0.000108703 4.72437e-06
0.000108703 0.000313247 9.84539e-07
4.72437e-06 9.84539e-07 0.000196438
0.00496733 3.56681e-05 -0.000133068
3.56681e-05 0.00235978 -6.85426e-06
-0.000133068 -6.85426e-06 0.00235612
0.000629628 7.56483e-05 1.30052e-07
7.56483e-05 -0.00010357 1.63935e-07
1.30052e-07 1.63935e-07 -0.000163545
0.000686183 8.4292e-05 6.72572e-06
8.4292e-05 -0.000227556 2.11132e-06
6.72572e-06 2.11132e-06 -0.000332451
0.0047117 -1.44881e-05 8.83107e-06
-1.44881e-05 0.00224255 1.57969e-07
8.83107e-06 1.57969e-07 0.00223151
0.00057265 8.64783e-05 1.38589e-05
8.64783e-05 -0.000110848 7.01094e-06
1.38589e-05 7.01094e-06 -0.000173987
0.00409968 -0.000110345 8.51398e-05
-0.000110345 0.00192823 5.55491e-06
8.51398e-05 5.55491e-06 0.00191237
0.00174472 1.56805e-05 -2.86052e-06
1.56805e-05 0.000207066 -6.49572e-07
-2.86052e-06 -6.49572e-07 9.23332e-05
0.00178036 1.4432e-05 1.03922e-07
1.4432e-05 0.000157945 9.72494e-08
1.03922e-07 9.72494e-08 4.18585e-05
0.0017401 1.95688e-05 -6.47073e-08
1.95688e-05 8.88528e-05 4.07378e-07
-6.47073e-08 4.07378e-07 -2.14321e-05
0.00083878 -1.08915e-05 -1.1799e-05
-1.08915e-05 -0.000202914 -8.9032e-08
-1.1799e-05 -8.9032e-08 -0.000311205
0.00176356 5.03536e-06 1.56293e-06
5.03536e-06 0.000212823 -4.0377e-08
1.56293e-06 -4.0377e-08 9.56325e-05
0.0017917 6.89436e-06 1.57039e-06
6.89436e-06 0.00016425 1.05798e-07
1.57039e-06 1.05798e-07 4.76652e-05
0.00176519 1.72762e-06 5.76825e-06
1.72762e-06 0.000213223 -1.89622e-07
5.76825e-06 -1.89622e-07 9.44665e-05
0.000837896 -3.18243e-06 -1.82197e-06
-3.18243e-06 -0.000204875 2.28065e-07
-1.82197e-06 2.28065e-07 -0.000314244
0.000746051 -5.93593e-06 -1.54295e-05
-5.93593e-06 -8.66905e-05 8.16628e-07
-1.54295e-05 8.16628e-07 -0.000150255
0.00120015 -7.53005e-06 7.85422e-06
-7.53005e-06 5.5835e-06 -1.27887e-06
7.85422e-06 -1.27887e-06 -9.94161e-05
0.000717075 2.09097e-06 2.05513e-07
2.09097e-06 -9.43165e-05 1.66533e-07
2.05513e-07 1.66533e-07 -0.000156438
0.00514117 -5.15226e-05 -0.000134688
-5.15226e-05 0.00244504 1.86661e-06
-0.000134688 1.86661e-06 0.00244059
0.000723842 -1.6861e-06 1.42174e-05
-1.6861e-06 -7.87553e-05 -2.3915e-06
1.42174e-05 -2.3915e-06 -0.0001377
0.00499879 2.05509e-05 6.62075e-06
2.05509e-05 0.00237077 2.12917e-07
6.62075e-06 2.12917e-07 0.00236686
0.00487389 -3.84717e-05 0.00013852
-3.84717e-05 0.00230364 -3.49412e-06
0.00013852 -3.49412e-06 0.00230153
0.00150579 1.84986e-05 -3.82761e-06
1.84986e-05 8.7757e-05 -1.04713e-06
-3.82761e-06 -1.04713e-06 -2.62832e-05
0.00168543 2.23482e-05 5.01911e-07
2.23482e-05 0.000130668 3.67553e-08
5.01911e-07 3.67553e-08 1.77821e-05
0.00166933 3.37225e-05 -3.54154e-07
3.37225e-05 7.49157e-05 3.29561e-07
-3.54154e-07 3.29561e-07 -3.39003e-05
0.001182 2.53451e-05 -9.49977e-06
2.53451e-05 4.52412e-06 -1.58566e-06
-9.49977e-06 -1.58566e-06 -9.43705e-05
0.00146088 3.06297e-05 2.3332e-07
3.06297e-05 6.52965e-05 -3.378e-08
2.3332e-07 -3.378e-08 -4.88689e-05
0.0015525 2.99572e-05 6.54165e-07
2.99572e-05 6.06452e-05 -7.88937e-07
6.54165e-07 -7.88937e-07 -5.45697e-05
0.00068235 3.35925e-05 -1.44164e-05
3.35925e-05 -0.000100886 -3.15258e-06
-1.44164e-05 -3.15258e-06 -0.000158487
0.00117323 5.50485e-05 2.98642e-08
5.50485e-05 6.5621e-06 2.25703e-07
2.98642e-08 2.25703e-07 -9.29342e-05
0.00146937 6.22308e-05 4.55702e-06
6.22308e-05 7.37116e-05 1.01357e-06
4.55702e-06 1.01357e-06 -4.27908e-05
0.00497983 6.02121e-05 -0.000144232
6.02121e-05 0.00235981 -5.89486e-06
-0.000144232 -5.89486e-06 0.00235745
0.000661826 5.57208e-05 6.71713e-08
5.57208e-05 -0.000101477 9.95403e-08
6.71713e-08 9.95403e-08 -0.000159206
0.00113341 8.03955e-05 7.15696e-06
8.03955e-05 -2.70755e-06 2.0484e-06
7.15696e-06 2.0484e-06 -0.000103733
0.00488686 4.5568e-05 5.13853e-06
4.5568e-05 0.0023206 8.80138e-07
5.13853e-06 8.80138e-07 0.00231548
0.000623361 7.15978e-05 1.41342e-05
7.15978e-05 -0.000106646 5.48442e-06
1.41342e-05 5.48442e-06 -0.000166658
0.00456961 -2.40683e-06 0.000113602
-2.40683e-06 0.00216026 6.71975e-06
0.000113602 6.71975e-06 0.00215401
0.00123748 7.65494e-06 -1.0433e-05
7.65494e-06 1.8804e-05 -6.50354e-07
-1.0433e-05 -6.50354e-07 -8.51275e-05
0.00156496 1.08364e-05 1.69045e-06
1.08364e-05 0.000107807 2.07744e-08
1.69045e-06 2.07744e-08 -8.72538e-06
0.00177505 9.78773e-06 1.15948e-06
9.78773e-06 0.000156959 7.05816e-07
1.15948e-06 7.05816e-07 4.05648e-05
0.000729566 1.90072e-05 -1.57766e-05
1.90072e-05 -0.000100718 -2.75567e-07
-1.57766e-05 -2.75567e-07 -0.00016099
0.000836705 -4.55355e-06 -1.98835e-06
-4.55355e-06 -0.000204721 4.66666e-08
-1.98835e-06 4.66666e-08 -0.000313108
0.00178563 1.15729e-05 6.29737e-06
1.15729e-05 0.00022498 1.75756e-08
6.29737e-06 1.75756e-08 0.000107718
0.00083103 -2.99884e-06 7.52572e-06
-2.99884e-06 -0.000208695 -3.35413e-07
7.52572e-06 -3.35413e-07 -0.000318064
0.000716072 2.99473e-06 6.5844e-08
2.99473e-06 -0.000103066 3.1202e-07
6.5844e-08 3.1202e-07 -0.00016648
0.00527936 5.36913e-05 -0.000140744
5.36913e-05 0.00251465 -5.44799e-07
-0.000140744 -5.44799e-07 0.00251119
0.000705481 1.11597e-05 1.45613e-05
1.11597e-05 -0.000101181 -1.33155e-06
1.45613e-05 -1.33155e-06 -0.000163255
0.0051805 -2.92185e-05 -1.64169e-06
-2.92185e-05 0.0024629 8.4545e-07
-1.64169e-06 8.4545e-07 0.00245975
0.00504598 3.88025e-05 0.00013519
3.88025e-05 0.00239249 -1.41075e-06
0.00013519 -1.41075e-06 0.00238992
0.00121174 1.2293e-05 -1.00947e-05
1.2293e-05 1.33661e-05 -1.69509e-06
-1.00947e-05 -1.69509e-06 -8.76519e-05
0.00140962 1.67781e-05 2.9385e-08
1.67781e-05 3.3749e-05 -2.07584e-07
2.9385e-08 -2.07584e-07 -8.07095e-05
0.00156902 2.33059e-05 9.04426e-07
2.33059e-05 6.66447e-05 -5.55247e-08
9.04426e-07 -5.55247e-08 -4.59143e-05
0.0025063 1.511e-05 -7.4954e-05
1.511e-05 0.000891087 -2.1112e-06
-7.4954e-05 -2.1112e-06 0.000846816
0.00118937 2.72535e-05 1.54708e-07
2.72535e-05 8.2861e-06 7.12512e-08
1.54708e-07 7.12512e-08 -9.0826e-05
0.00147872 3.07761e-05 4.27264e-06
3.07761e-05 7.4026e-05 3.04736e-07
4.27264e-06 3.04736e-07 -4.02429e-05
0.00499227 6.19265e-05 -0.000149183
6.19265e-05 0.00236466 -4.48743e-06
-0.000149183 -4.48743e-06 0.00236183
0.000704076 3.58523e-05 1.55021e-07
3.58523e-05 -8.84375e-05 1.29726e-07
1.55021e-07 1.29726e-07 -0.000146243
0.00117495 5.65276e-05 9.84345e-06
5.65276e-05 7.68919e-06 2.30865e-06
9.84345e-06 2.30865e-06 -9.20819e-05
0.00494724 7.13209e-05 9.84738e-07
7.13209e-05 0.00234596 8.97696e-07
9.84738e-07 8.97696e-07 0.00234236
0.000670375 5.56878e-05 1.44041e-05
5.56878e-05 -9.62955e-05 4.399e-06
1.44041e-05 4.399e-06 -0.00015417
0.00480662 6.01892e-05 0.000130783
6.01892e-05 0.00227825 7.50966e-06
0.000130783 7.50966e-06 0.00227347
0.000765875 7.9359e-06 -1.57659e-05
7.9359e-06 -7.57097e-05 -1.6228e-06
-1.57659e-05 -1.6228e-06 -0.000138323
0.00104357 4.89981e-06 4.60485e-07
4.89981e-06 -8.69388e-05 4.3771e-07
4.60485e-07 4.3771e-07 -0.00019221
0.00137875 5.8925e-06 5.6291e-06
5.8925e-06 4.99264e-06 6.85141e-07
5.6291e-06 6.85141e-07 -0.000113303
0.00529581 -7.6642e-05 -0.000131624
-7.6642e-05 0.00253341 -1.97818e-06
-0.000131624 -1.97818e-06 0.0025233
0.000726189 9.50398e-06 -1.78142e-07
9.50398e-06 -9.97024e-05 2.22393e-07
-1.78142e-07 2.22393e-07 -0.000161639
0.00084391 1.42544e-06 7.74354e-06
1.42544e-06 -0.000201607 1.07001e-07
7.74354e-06 1.07001e-07 -0.000310082
0.000705242 1.5388e-05 1.49156e-05
1.5388e-05 -0.000109116 -2.81899e-09
1.49156e-05 -2.81899e-09 -0.000172551
0.00530717 3.56583e-05 4.94217e-06
3.56583e-05 0.00253308 4.39431e-07
4.94217e-06 4.39431e-07 0.00252674
0.00525896 8.03081e-05 0.000136584
8.03081e-05 0.0025063 -3.46793e-08
0.000136584 -3.46793e-08 0.00250078
0.00259002 -5.41495e-06 -7.71074e-05
-5.41495e-06 0.000928194 -1.88619e-06
-7.71074e-05 -1.88619e-06 0.000882062
0.00122162 1.45218e-05 -7.39216e-08
1.45218e-05 1.84955e-05 -3.42369e-08
-7.39216e-08 -3.42369e-08 -8.25174e-05
0.00131349 1.52008e-05 4.00369e-06
1.52008e-05 -2.02916e-05 5.92117e-07
4.00369e-06 5.92117e-07 -0.000135161
0.00477372 3.01791e-06 -3.07271e-05
3.01791e-06 0.00225425 -1.08146e-06
-3.07271e-05 -1.08146e-06 0.00224289
0.000737971 2.05884e-05 -5.99122e-08
2.05884e-05 -7.50795e-05 1.95518e-07
-5.99122e-08 1.95518e-07 -0.000134412
0.00121266 2.98301e-05 9.75278e-06
2.98301e-05 2.02728e-05 1.78343e-06
9.75278e-06 1.78343e-06 -7.90096e-05
0.00499544 5.43653e-05 -5.70994e-06
5.43653e-05 0.00236681 3.51151e-07
-5.70994e-06 3.51151e-07 0.00236446
0.000728565 4.40227e-05 1.51883e-05
4.40227e-05 -7.37128e-05 3.67701e-06
1.51883e-05 3.67701e-06 -0.000132113
0.00491953 8.50978e-05 0.000139719
8.50978e-05 0.0023339 7.37895e-06
0.000139719 7.37895e-06 0.00232925
0.00172388 -2.38465e-05 -0.000132087
-2.38465e-05 0.000560368 2.63684e-07
-0.000132087 2.63684e-07 0.000538358
0.00166813 1.35635e-05 -3.14961e-05
1.35635e-05 0.000417958 4.10256e-07
-3.14961e-05 4.10256e-07 0.000364937
0.000850573 5.10731e-06 1.0129e-05
5.10731e-06 -0.000192098 1.36463e-06
1.0129e-05 1.36463e-06 -0.000298733
0.00528343 -3.05824e-05 6.80858e-06
-3.05824e-05 0.00252265 -1.00175e-06
6.80858e-06 -1.00175e-06 0.00251568
0.000712181 1.52126e-06 1.56051e-05
1.52126e-06 -0.000105105 7.72436e-07
1.56051e-05 7.72436e-07 -0.000168056
0.00530852 -3.43579e-05 0.000148394
-3.43579e-05 0.00253075 5.28424e-07
0.000148394 5.28424e-07 0.00252655
0.00141331 -6.95533e-05 -8.32308e-06
-6.95533e-05 0.000413682 -8.15945e-07
-8.32308e-06 -8.15945e-07 0.000378329
0.0016594 8.99918e-06 -3.08486e-05
8.99918e-06 0.000421494 -3.25382e-08
-3.08486e-05 -3.25382e-08 0.000368276
0.00122401 1.4919e-05 9.76321e-06
1.4919e-05 1.98471e-05 1.66955e-06
9.76321e-06 1.66955e-06 -8.11891e-05
0.00321079 3.48566e-05 5.37547e-05
3.48566e-05 0.0013918 4.77276e-07
5.37547e-05 4.77276e-07 0.00137445
0.000752814 2.9173e-05 1.54448e-05
2.9173e-05 -6.683e-05 3.08465e-06
1.54448e-05 3.08465e-06 -0.00012649
0.00498407 8.93749e-05 0.000141871
8.93749e-05 0.00236578 6.25724e-06
0.000141871 6.25724e-06 0.00236099
0.00523497 -3.64347e-05 -8.76049e-06
-3.64347e-05 0.00249763 3.68457e-07
-8.76049e-06 3.68457e-07 0.00249059
0.000723711 2.29634e-05 1.59407e-05
2.29634e-05 -9.82606e-05 1.72233e-06
1.59407e-05 1.72233e-06 -0.000158161
0.00526162 6.70147e-05 0.000135283
6.70147e-05 0.00251301 -1.43251e-06
0.000135283 -1.43251e-06 0.0025049
0.00327082 2.12211e-05 6.50323e-05
2.12211e-05 0.0014216 7.23353e-07
6.50323e-05 7.23353e-07 0.00140394
0.000732279 9.7058e-06 1.5177e-05
9.7058e-06 -8.41854e-05 2.42239e-06
1.5177e-05 2.42239e-06 -0.000144996
0.00503622 -6.47962e-06 0.000133915
-6.47962e-06 0.00238678 3.27232e-06
0.000133915 3.27232e-06 0.00238487
0.00518922 -0.000121986 0.000128567
-0.000121986 0.00247922 -5.80993e-08
0.000128567 -5.80993e-08 0.00246839
0.00509769 -7.33703e-05 0.000129719
-7.33703e-05 0.00242366 1.35621e-06
0.000129719 1.35621e-06 0.00241803
