# vtk DataFile Version 2.0
Wound Healing Simulation
ASCII
DATASET UNSTRUCTURED_GRID
POINTS 3012 float
69.9759 18.75 4
67.2507 60.3285 4
69.976 18.75 2
73.0099 25.446 4
71.1327 20.9142 4
68.6801 16.6661 4
67.8235 19.9265 3.97768
67.2507 60.3286 2
71.1327 54.0858 4
68.6801 58.3339 4
65.6939 62.2254 4
65.3102 59.0003 3.97703
74.6784 42.3946 4
73.7221 47.2057 4
69.9759 18.75 0
73.0099 25.446 2
68.6801 16.6661 2
71.1327 20.9142 2
67.8241 19.9301 2
74.6792 32.6053 4
73.7222 27.7943 4
72.1454 23.1494 4
70.6126 26.2214 3.9775
68.8838 21.9582 3.97815
67.2507 14.6715 4
66.6349 17.9728 3.97667
65.7913 21.0284 3.96664
67.2507 60.3285 0
71.1327 54.0858 2
68.6801 58.3339 2
65.694 62.2255 2
65.3115 58.9955 2
72.1454 51.8506 4
69.9759 56.25 4
68.8344 53.1131 3.97736
64.0165 64.0165 4
66.6087 57.1331 3.9774
63.8833 60.7641 3.97709
63.4953 57.766 3.96779
60.3285 67.2507 4
74.6792 42.3947 2
73.7222 47.2057 2
74.9194 39.9526 4
74.2788 44.8158 4
72.167 42.0857 3.97795
73.0099 49.554 4
71.2477 46.598 3.97708
73.0099 25.446 0
71.1327 20.9142 0
68.6801 16.6661 0
67.8235 19.9265 0.0223173
74.6792 32.6053 2
73.7222 27.7943 2
67.2508 14.6715 2
72.1455 23.1494 2
70.6124 26.222 2
66.6359 17.9776 2
68.884 21.9605 2
65.7904 21.0296 2
74.9197 35.0474 4
74.2794 30.1841 4
72.1838 32.944 3.97828
71.2768 28.432 3.9774
69.8138 24.0598 3.97794
68.3421 26.9536 3.96646
66.757 22.9357 3.96639
65.694 12.7746 4
65.3212 16.1051 3.97595
64.7076 19.1998 3.96708
63.8379 22.0548 3.96486
71.1327 54.0858 0
65.6939 62.2254 0
68.6801 58.3339 0
65.3102 59.0003 0.0229728
72.1455 51.8506 2
69.9759 56.25 2
68.8345 53.111 2
64.0165 64.0165 2
66.6095 57.1289 2
63.8852 60.7598 2
63.4939 57.7656 2
62.2254 65.694 4
58.8929 65.4132 3.98635
69.767 50.9889 3.9771
67.7817 55.167 3.97752
66.6437 52.2075 3.96616
62.3335 62.425 3.97928
64.6551 56.0279 3.9674
62.1972 59.3944 3.96735
61.8038 56.6666 3.96333
58.3339 68.6801 4
60.3285 67.2508 2
73.7221 47.2057 0
74.6784 42.3946 0
74.9197 39.9526 2
74.2794 44.8159 2
72.1664 42.0855 2
73.0099 49.554 2
71.2475 46.5976 2
75 37.5 4
72.4044 39.8025 3.97882
71.7812 44.3529 3.97779
69.8001 41.7901 3.96763
70.5733 48.8135 3.97684
68.9074 46.0144 3.96684
74.6792 32.6053 0
73.7222 27.7943 0
67.2507 14.6715 0
72.1454 23.1494 0
70.6126 26.2214 0.0225037
68.8838 21.9582 0.0218536
66.6349 17.9728 0.0233345
65.7913 21.0284 0.0333624
74.9197 35.0474 2
74.2794 30.1841 2
72.1831 32.9443 2
71.2765 28.4325 2
65.694 12.7745 2
65.3228 16.1105 2
69.8138 24.0611 2
68.3418 26.9544 2
64.7066 19.2008 2
66.7565 22.9367 2
63.8381 22.0553 2
72.4122 35.2248 3.97878
71.8027 30.677 3.97805
69.8364 33.2703 3.96778
68.9618 29.0403 3.96686
67.6062 24.9142 3.9663
66.1322 27.6505 3.96727
64.0165 10.9835 4
64.7004 23.8486 3.96578
63.8871 14.3299 3.97659
63.507 17.4554 3.96762
62.864 20.3413 3.96375
61.977 22.9859 3.96753
60.6819 11.1007 3.98085
57.6081 11.4605 3.97186
72.1454 51.8506 0
69.9759 56.25 0
68.8344 53.1131 0.0226442
64.0165 64.0165 0
63.8833 60.7641 0.0229146
66.6087 57.1331 0.0225961
63.4953 57.766 0.0322102
62.2255 65.694 2
58.8952 65.4108 2
69.7668 50.9878 2
67.7821 55.1638 2
66.643 52.2067 2
62.3356 62.4212 2
64.654 56.0273 2
62.1961 59.3948 2
61.8058 56.6671 2
60.6667 63.9747 3.98251
57.0238 66.7346 3.98855
57.5553 63.6841 3.97417
67.5019 50.1754 3.96601
65.6962 54.171 3.96665
64.4727 51.3671 3.96545
60.7686 60.9234 3.97047
62.7861 55.0527 3.96422
60.6459 58.1418 3.96308
60.2774 55.7564 3.96444
56.25 69.9759 4
58.3339 68.6801 2
60.3285 67.2507 0
58.9191 9.65842 3.98285
62.2254 9.30607 4
73.0099 49.554 0
74.2788 44.8158 0
71.2477 46.598 0.0229232
72.167 42.0857 0.0220511
74.9194 39.9526 0
75 37.5 2
72.4042 39.8025 2
71.781 44.3524 2
69.7994 41.7898 2
70.5731 48.813 2
68.9072 46.0138 2
72.4878 37.5125 3.97837
70.0377 39.6583 3.96795
69.4261 43.9075 3.96737
67.5371 41.4928 3.96966
68.2606 48.1062 3.96623
66.6369 45.4277 3.96873
74.9197 35.0474 0
74.2794 30.1841 0
72.1838 32.944 0.0217204
71.2768 28.432 0.0226036
65.694 12.7746 0
65.3212 16.1051 0.0240456
69.8138 24.0598 0.0220574
68.3421 26.9536 0.0335431
66.757 22.9357 0.0336149
64.7076 19.1998 0.0329182
63.8379 22.0548 0.0351359
72.4121 35.2248 2
71.8026 30.6775 2
69.8357 33.2708 2
68.9616 29.041 2
64.0165 10.9835 2
63.8894 14.3352 2
63.5058 17.4563 2
67.6057 24.9151 2
66.1322 27.651 2
62.8645 20.3417 2
64.7001 23.8493 2
61.9759 22.9867 2
60.6847 11.1048 2
57.61 11.4578 2
70.0544 35.3936 3.96787
69.4632 31.1516 3.9672
67.6026 33.5985 3.96937
66.7102 29.6364 3.96806
65.4632 25.7167 3.96656
63.9924 28.2906 3.97239
62.3389 12.6585 3.97865
62.7264 24.6783 3.9692
62.1932 15.7987 3.96905
61.7845 18.7069 3.96307
61.1128 21.3868 3.96527
60.2414 23.7924 3.97091
59.2412 12.8044 3.96984
55.8713 10.2435 3.97455
56.3977 13.157 3.96893
69.767 50.9889 0.0228984
62.2254 65.694 0
58.8929 65.4132 0.0136514
67.7817 55.167 0.022478
66.6437 52.2075 0.0338382
62.3335 62.425 0.0207184
62.1972 59.3944 0.0326461
64.6551 56.0279 0.0326038
61.8038 56.6666 0.0366659
60.6688 63.9718 2
57.0257 66.7332 2
57.556 63.6851 2
67.5014 50.1747 2
65.6952 54.1702 2
64.4728 51.3668 2
60.7673 60.9245 2
62.7866 55.0527 2
60.6459 58.1421 2
60.2782 55.7565 2
55.0697 67.9316 3.99022
59.2147 62.3465 3.97129
55.8025 64.9038 3.97887
56.3197 62.0608 3.97146
65.2578 49.3906 3.9665
63.6538 53.2751 3.96464
62.2923 50.6119 3.96818
59.323 59.5354 3.96581
60.9913 54.2753 3.96624
59.247 56.9799 3.9627
59.1606 55.1427 3.96697
48.1004 68.5762 3.98599
50.9474 69.9314 3.99096
54.0858 71.1327 4
56.25 69.976 2
58.3339 68.6801 0
57.0568 8.33785 3.98521
60.3285 7.74928 4
58.9224 9.66163 2
62.2255 9.30602 2
70.5733 48.8135 0.0231633
71.7812 44.3529 0.0222075
68.9074 46.0144 0.0331636
69.8001 41.7901 0.0323694
72.4044 39.8025 0.0211755
75 37.5 0
72.4871 37.5125 2
70.0375 39.6582 2
69.4258 43.9071 2
67.5366 41.4925 2
68.2602 48.1055 2
66.6357 45.4272 2
70.1257 37.5228 3.96791
67.7799 39.5109 3.96981
67.1567 43.4615 3.96941
65.4011 41.1966 3.97644
65.9916 47.4025 3.96766
64.4741 44.8201 3.97347
72.4122 35.2248 0.0212164
71.8027 30.677 0.0219531
69.8364 33.2703 0.0322192
68.9618 29.0403 0.0331362
64.0165 10.9835 0
63.8871 14.3299 0.0234123
63.507 17.4554 0.0323818
67.6062 24.9142 0.0337035
66.1322 27.6505 0.0327315
64.7004 23.8486 0.0342191
62.864 20.3413 0.0362506
61.977 22.9859 0.032468
60.6819 11.1007 0.019152
57.6081 11.4605 0.0281361
70.0542 35.3939 2
69.4629 31.1521 2
67.6022 33.5987 2
66.7097 29.6369 2
62.3417 12.6633 2
62.1918 15.7994 2
61.7857 18.707 2
65.4631 25.7173 2
63.9902 28.2913 2
61.1113 21.3876 2
62.7251 24.6791 2
60.2409 23.7935 2
59.2426 12.8044 2
56.3985 13.1545 2
55.8729 10.2434 2
67.8204 35.5522 3.96964
67.2102 31.6329 3.96899
65.5541 33.9425 3.97614
64.5069 30.2216 3.97364
63.3968 26.4526 3.97098
62.0187 28.8314 3.9763
60.7698 14.2439 3.96882
60.8413 25.4003 3.97329
60.597 17.1524 3.96309
60.1309 19.8641 3.9628
59.4859 22.3275 3.9672
58.7378 24.4047 3.97385
54.0353 9.14449 3.9772
57.9 14.3695 3.96778
54.78 12.0422 3.9721
55.2985 14.7013 3.96587
67.5019 50.1754 0.0339855
57.0238 66.7346 0.0114536
60.6667 63.9747 0.0174851
57.5553 63.6841 0.0258331
65.6962 54.171 0.0333469
64.4727 51.3671 0.0345454
60.7686 60.9234 0.029526
60.6459 58.1418 0.0369169
62.7861 55.0527 0.0357846
60.2774 55.7564 0.0355572
55.0712 67.9308 2
59.2152 62.3485 2
55.8029 64.9043 2
56.3188 62.0634 2
65.2576 49.3902 2
63.6542 53.275 2
62.2917 50.6115 2
59.3217 59.5362 2
60.9912 54.2752 2
59.2506 56.9806 2
59.1629 55.1429 2
53.0417 68.9996 3.99074
53.965 66.0089 3.98179
57.8711 60.8419 3.96918
54.679 63.1956 3.9736
55.1982 60.5774 3.9688
63.0295 48.6228 3.96998
61.6202 52.537 3.96714
60.0416 49.9582 3.9704
57.9957 58.2333 3.96423
59.1976 53.8982 3.96803
58.0227 55.7632 3.96268
50.1071 67.8544 3.98524
47.4617 66.5748 3.9816
46.0543 69.1553 3.98654
48.1007 68.5768 2
48.8014 70.7226 3.99122
50.9485 69.931 2
51.8506 72.1454 4
54.0858 71.1327 2
56.25 69.9759 0
55.1017 7.14201 3.98792
58.3339 6.31992 4
57.0595 8.33946 2
60.3286 7.74926 2
58.9191 9.65842 0.01715
62.2254 9.30607 0
68.2606 48.1062 0.0337721
69.4261 43.9075 0.03263
66.6369 45.4277 0.0312712
67.5371 41.4928 0.0303425
70.0377 39.6583 0.03205
72.4878 37.5125 0.021631
70.1251 37.5229 2
67.7789 39.5108 2
67.157 43.4612 2
65.3985 41.1961 2
65.9917 47.4021 2
64.472 44.8194 2
67.8811 37.5237 3.96986
65.6386 39.3645 3.97672
65.0127 43.0047 3.97554
63.5092 40.9076 3.97697
63.7869 46.6821 3.97158
62.5409 44.1724 3.97644
70.0544 35.3936 0.0321292
69.4632 31.1516 0.0328036
67.6026 33.5985 0.0306325
66.7102 29.6364 0.0319399
62.3389 12.6585 0.0213527
62.1932 15.7987 0.0309489
61.7845 18.7069 0.0369294
65.4632 25.7167 0.0334443
63.9924 28.2906 0.0276146
62.7264 24.6783 0.0308025
61.1128 21.3868 0.0347264
60.2414 23.7924 0.0290878
59.2412 12.8044 0.0301571
56.3977 13.157 0.0310709
55.8713 10.2435 0.0254471
67.8191 35.5523 2
67.2106 31.6333 2
65.551 33.9431 2
64.5046 30.2223 2
60.7699 14.2447 2
60.5964 17.1527 2
60.1305 19.8645 2
63.3953 26.4534 2
62.0162 28.8325 2
59.4875 22.3283 2
60.8402 25.4014 2
58.7367 24.4062 2
57.8998 14.3692 2
55.2991 14.7004 2
54.0369 9.14312 2
54.7809 12.0403 2
65.7356 35.6755 3.97649
65.0304 32.1772 3.97485
64.0686 34.2722 3.97669
62.3401 30.6837 3.97668
61.4252 27.1315 3.97453
60.5569 29.2103 3.97687
59.2985 15.6991 3.96608
59.0584 25.8811 3.97622
59.0722 18.4004 3.9619
58.5905 20.9247 3.96365
58.0523 23.182 3.96867
57.7018 24.7627 3.9749
52.1109 8.1597 3.98027
53.053 11.0379 3.97341
56.6588 15.7905 3.96645
53.7979 13.7288 3.96945
54.3516 16.0614 3.96391
55.0697 67.9316 0.00977961
65.2578 49.3906 0.0334973
55.8025 64.9038 0.0211333
59.2147 62.3465 0.0287068
56.3197 62.0608 0.0285358
63.6538 53.2751 0.0353553
62.2923 50.6119 0.0318213
59.323 59.5354 0.0341881
59.247 56.9799 0.0373012
60.9913 54.2753 0.0337643
59.1606 55.1427 0.0330331
53.043 68.9991 2
53.9653 66.0094 2
57.8699 60.8434 2
54.6785 63.1963 2
55.1976 60.5793 2
63.0284 48.6222 2
61.6203 52.5367 2
60.0419 49.9577 2
57.9947 58.2344 2
59.2001 53.8983 2
58.02 55.7621 2
52.0684 66.9969 3.98439
52.9505 64.2093 3.97894
56.6308 59.4562 3.96854
53.6708 61.5953 3.97403
54.2372 59.2802 3.97158
60.7225 47.82 3.97194
59.5181 52.0471 3.96875
57.7276 49.5373 3.97241
56.7274 56.9459 3.96512
56.9571 54.0582 3.96617
50.1073 67.8546 2
49.3355 65.9151 3.98165
47.4619 66.5753 2
46.8904 64.7265 3.98036
45.5568 67.0919 3.98182
43.9717 69.5872 3.98712
46.0545 69.1558 2
46.6078 71.3671 3.99141
48.1004 68.5762 0.0140134
48.8024 70.7226 2
49.554 73.0099 4
50.9474 69.9314 0.0090373
51.8506 72.1455 2
54.0858 71.1327 0
53.0639 6.07286 3.9903
55.1039 7.14256 2
56.25 5.02411 4
58.3339 6.3199 2
57.0568 8.33785 0.0147929
60.3285 7.74928 0
65.9916 47.4025 0.0323387
67.1567 43.4615 0.0305933
64.4741 44.8201 0.0265339
65.4011 41.1966 0.0235562
67.7799 39.5109 0.0301863
70.1257 37.5228 0.0320916
67.8806 37.5237 2
65.6355 39.3643 2
65.0099 43.004 2
63.5069 40.9073 2
63.785 46.6814 2
62.5389 44.1715 2
65.7463 37.5035 3.97666
63.6587 39.2574 3.97698
63.0684 42.5167 3.97646
62.1206 40.6709 3.97673
61.6907 45.8663 3.97424
61.1132 43.6282 3.97622
67.8204 35.5522 0.0303592
67.2102 31.6329 0.0310134
65.5541 33.9425 0.0238596
64.5069 30.2216 0.0263596
60.7698 14.2439 0.0311841
60.597 17.1524 0.0369084
60.1309 19.8641 0.0371982
63.3968 26.4526 0.0290217
62.0187 28.8314 0.0236989
60.8413 25.4003 0.0267071
59.4859 22.3275 0.0327987
58.7378 24.4047 0.0261453
57.9 14.3695 0.0322162
55.2985 14.7013 0.0341301
54.0353 9.14449 0.0227988
54.78 12.0422 0.0279019
65.7326 35.6758 2
65.028 32.1778 2
64.066 34.2726 2
62.3381 30.6845 2
59.2972 15.6996 2
59.0733 18.4001 2
58.5945 20.9253 2
61.4235 27.1326 2
60.5559 29.211 2
58.0486 23.1842 2
59.0578 25.8825 2
57.7031 24.765 2
56.6581 15.7897 2
54.3527 16.0625 2
53.7972 13.7222 2
52.112 8.15861 2
53.0543 11.0357 2
63.8651 35.646 3.97686
62.6644 33.0827 3.97652
60.2817 30.6802 3.97629
59.2637 27.9946 3.97658
57.9143 17.0272 3.9622
57.4309 25.8323 3.97634
57.6106 19.5434 3.96134
57.16 21.9346 3.96398
56.8951 24.0572 3.96936
50.1116 7.28902 3.98456
51.2295 10.1373 3.97557
52.1618 12.8299 3.97438
55.5062 17.0313 3.96367
52.9586 15.3242 3.96694
53.7246 17.0534 3.96486
53.0417 68.9996 0.00925918
53.965 66.0089 0.0182099
63.0295 48.6228 0.0300229
54.679 63.1956 0.0263968
57.8711 60.8419 0.0308171
55.1982 60.5774 0.0312037
61.6202 52.537 0.0328586
60.0416 49.9582 0.0295983
57.9957 58.2333 0.035768
58.0227 55.7632 0.0373206
59.1976 53.8982 0.031969
52.0688 66.9975 2
52.9504 64.2097 2
56.6299 59.4572 2
53.6696 61.5947 2
54.2367 59.2824 2
60.7221 47.8193 2
59.5191 52.0467 2
57.7247 49.5359 2
56.7257 56.9499 2
56.9542 54.0566 2
51.1663 65.1212 3.98079
52.0392 62.5253 3.97574
55.4498 58.213 3.96757
52.8156 60.0923 3.97552
53.6078 58.43 3.97139
57.9273 46.7628 3.97538
57.3231 51.7125 3.96901
55.8911 49.4602 3.97115
55.3861 55.7385 3.96529
55.1566 53.3105 3.96323
50.1071 67.8544 0.0147585
49.3357 65.9153 2
48.6156 64.1136 3.98051
47.4617 66.5748 0.0183977
45.557 67.0925 2
46.8907 64.7268 2
46.3784 63.041 3.98246
45.1311 65.187 3.97975
43.6301 67.463 3.98279
41.8594 69.8743 3.98672
43.9718 69.5878 2
44.375 71.8617 3.9915
46.0543 69.1553 0.0134588
46.6087 71.3671 2
47.2057 73.7222 4
48.8014 70.7226 0.00877826
49.554 73.0099 2
51.8506 72.1454 0
50.9545 5.13324 3.99145
53.0654 6.07305 2
54.0858 3.86728 4
55.1017 7.14201 0.0120817
56.25 5.02406 2
58.3339 6.31992 0
63.7869 46.6821 0.0284188
65.0127 43.0047 0.024459
62.5409 44.1724 0.023558
63.5092 40.9076 0.0230332
65.6386 39.3645 0.0232842
67.8811 37.5237 0.0301378
65.7432 37.5035 2
63.6565 39.2573 2
63.0662 42.5161 2
62.1198 40.6705 2
61.6889 45.8654 2
61.1118 43.6278 2
63.7218 37.4586 3.97684
61.8338 39.3398 3.97694
60.8584 41.9146 3.9767
59.8902 44.7007 3.97666
65.7356 35.6755 0.0235131
65.0304 32.1772 0.0251534
64.0686 34.2722 0.023311
62.3401 30.6837 0.0233151
59.2985 15.6991 0.0339178
59.0722 18.4004 0.0381007
58.5905 20.9247 0.0363467
61.4252 27.1315 0.0254713
60.5569 29.2103 0.0231275
59.0584 25.8811 0.0237821
58.0523 23.182 0.0313343
57.7018 24.7627 0.0250976
56.6588 15.7905 0.0335461
54.3516 16.0614 0.0360851
53.7979 13.7288 0.0305518
52.1109 8.1597 0.019726
53.053 11.0379 0.0265885
63.8628 35.6459 2
62.663 33.0832 2
60.2813 30.6804 2
57.9132 17.0269 2
57.6171 19.5421 2
57.1583 21.9366 2
59.2625 27.9959 2
56.9023 24.0592 2
57.4309 25.835 2
50.1125 7.28717 2
55.5078 17.0311 2
53.7251 17.0501 2
52.9584 15.321 2
52.1629 12.8333 2
51.2311 10.1354 2
61.8744 35.3787 3.97662
59.9095 32.7998 3.97642
58.226 30.164 3.97634
56.9235 27.4988 3.97689
56.5842 18.2165 3.96143
55.9641 25.2288 3.9753
56.2119 20.6103 3.96131
55.8438 22.9857 3.96288
48.0565 6.52967 3.98817
49.3233 9.34049 3.97905
50.4261 12.0185 3.97541
51.3606 14.5435 3.96814
54.3672 17.9938 3.9612
52.331 17.1231 3.95838
52.0684 66.9969 0.0156079
52.9505 64.2093 0.0210613
60.7225 47.82 0.0280578
53.6708 61.5953 0.0259745
56.6308 59.4562 0.0314636
54.2372 59.2802 0.0284165
59.5181 52.0471 0.0312452
57.7276 49.5373 0.0275858
56.7274 56.9459 0.0348843
56.9571 54.0582 0.0338328
51.1664 65.1218 2
52.0384 62.5263 2
55.449 58.2142 2
52.8145 60.0959 2
53.6072 58.4317 2
57.9267 46.7618 2
57.3221 51.7114 2
55.8862 49.4586 2
55.3852 55.7385 2
55.1596 53.3111 2
50.3426 63.3709 3.98068
51.231 60.9081 3.97574
54.1709 57.2255 3.96998
52.2804 58.5871 3.97206
56.1895 44.0726 3.97703
55.0673 47.7895 3.97404
54.7695 51.3003 3.96553
53.8709 54.4816 3.96543
49.3355 65.9151 0.0183507
48.6157 64.1135 2
47.9566 62.4628 3.98075
45.5568 67.0919 0.0181828
46.8904 64.7265 0.0196442
43.6302 67.4636 2
46.3787 63.0414 2
45.1314 65.1876 2
45.9822 61.5717 3.98743
44.7646 63.4393 3.97881
43.3559 65.4973 3.97995
41.6624 67.6812 3.98228
39.7017 70.0201 3.98646
41.8594 69.8748 2
42.1094 72.2063 3.99187
43.9717 69.5872 0.0128796
44.3758 71.8618 2
44.8159 74.2794 4
46.6078 71.3671 0.00858612
47.2057 73.7222 2
49.554 73.0099 0
48.7855 4.32368 3.99233
50.9554 5.13277 2
51.8506 2.85458 4
53.0639 6.07286 0.00969559
54.0858 3.86728 2
56.25 5.02411 0
61.6907 45.8663 0.025757
63.0684 42.5167 0.0235397
61.1132 43.6282 0.0237846
62.1206 40.6709 0.0232717
63.6587 39.2574 0.0230153
65.7463 37.5035 0.0233368
63.7196 37.4585 2
61.8337 39.3398 2
60.8585 41.9144 2
59.8898 44.6998 2
61.6653 37.444 3.97695
59.8296 39.8176 3.97689
58.531 42.8475 3.97649
63.8651 35.646 0.0231391
62.6644 33.0827 0.0234806
60.2817 30.6802 0.0237123
57.9143 17.0272 0.0377983
57.6106 19.5434 0.0386555
57.16 21.9346 0.0360224
59.2637 27.9946 0.0234218
57.4309 25.8323 0.0236572
56.8951 24.0572 0.0306448
55.5062 17.0313 0.0363306
53.7246 17.0534 0.0351422
52.9586 15.3242 0.0330551
50.1116 7.28902 0.0154379
52.1618 12.8299 0.0256215
51.2295 10.1373 0.024428
61.8743 35.3789 2
59.9092 32.7997 2
58.2266 30.1635 2
56.5872 18.216 2
56.2184 20.6074 2
55.8489 22.9891 2
56.9232 27.5001 2
55.962 25.2326 2
48.057 6.52756 2
49.3244 9.33806 2
54.3693 17.9939 2
52.3287 17.117 2
51.359 14.5409 2
50.428 12.0165 2
59.4699 35.1465 3.97671
57.5139 32.343 3.97592
56.1078 29.4585 3.97679
55.0319 26.753 3.97623
55.2595 19.2671 3.96164
54.6221 24.2002 3.96643
54.8111 21.6732 3.96047
45.963 5.88345 3.98904
43.3746 7.47579 3.98522
47.3554 8.62864 3.98333
48.5959 11.3086 3.97509
49.6988 13.7723 3.97289
50.6046 16.1893 3.97099
53.0636 18.7536 3.95916
51.2592 18.1663 3.97243
51.1663 65.1212 0.0192115
52.0392 62.5253 0.0242573
57.9273 46.7628 0.024623
52.8156 60.0923 0.0244809
55.4498 58.213 0.0324301
53.6078 58.43 0.0286086
57.3231 51.7125 0.0309877
55.8911 49.4602 0.0288507
55.3861 55.7385 0.0347052
55.1566 53.3105 0.0367714
50.3423 63.3708 2
51.2295 60.9063 2
54.1716 57.2273 2
52.2791 58.5888 2
56.1899 44.0723 2
55.0655 47.7881 2
54.7725 51.3003 2
53.8713 54.4835 2
49.584 61.7336 3.97831
54.9713 41.6515 3.97445
50.541 59.2943 3.97045
52.1185 56.445 3.96789
53.6238 45.4331 3.97446
52.93 49.2192 3.96919
52.4484 52.7759 3.9616
48.6156 64.1136 0.0194907
47.9564 62.4619 2
47.3194 60.9947 3.98666
43.6301 67.463 0.0172134
45.1311 65.187 0.0202532
46.3784 63.041 0.0175403
41.6627 67.681 2
43.3561 65.4981 2
45.9816 61.5726 2
44.7651 63.4398 2
45.7554 60.6169 3.98483
44.48 61.8162 3.98019
43.145 63.7122 3.97871
41.5456 65.6343 3.9784
39.6319 67.7589 3.98199
37.5259 70.0444 3.98518
39.7017 70.0205 2
39.8165 72.4027 3.99162
41.8594 69.8743 0.0132817
42.1101 72.2065 2
42.3947 74.6792 4
44.375 71.8617 0.00850147
44.8159 74.2794 2
47.2057 73.7222 0
43.852 5.36072 3.9885
46.5716 3.64782 3.99258
48.7859 4.32285 2
49.554 1.99015 4
50.9545 5.13324 0.00855192
51.8506 2.85453 2
54.0858 3.86728 0
59.8902 44.7007 0.0233431
60.8584 41.9146 0.0233039
61.8338 39.3398 0.0230618
63.7218 37.4586 0.0231602
61.6651 37.444 2
59.8302 39.8172 2
58.5314 42.8472 2
59.3244 37.5666 3.97723
57.469 40.6094 3.97704
54.3784 39.6659 3.97519
61.8744 35.3787 0.0233753
59.9095 32.7998 0.0235817
58.226 30.164 0.0236619
56.5842 18.2165 0.0385676
56.2119 20.6103 0.0386922
55.8438 22.9857 0.0371173
56.9235 27.4988 0.0231092
55.9641 25.2288 0.0247025
54.3672 17.9938 0.038803
52.331 17.1231 0.0416189
51.3606 14.5435 0.0318568
48.0565 6.52967 0.0118313
49.3233 9.34049 0.0209477
50.4261 12.0185 0.0245876
59.4707 35.1464 2
45.9627 5.8829 2
43.3744 7.47495 2
57.5148 32.3435 2
56.1079 29.4581 2
55.2532 19.2691 2
54.8243 21.6751 2
54.6188 24.2032 2
55.0296 26.7554 2
47.356 8.62446 2
48.5978 11.3052 2
53.064 18.7442 2
51.2611 18.1627 2
50.6043 16.1889 2
49.6985 13.7736 2
56.8536 34.7971 3.97711
55.1942 31.6137 3.97605
54.0281 28.5592 3.97736
53.4099 25.6722 3.97657
53.8564 20.2349 3.96068
53.3531 22.8577 3.95507
41.3998 7.08162 3.98489
45.361 7.99557 3.98729
42.8668 9.41966 3.98119
46.6658 10.6619 3.981
47.7334 13.1216 3.97614
48.9076 15.4399 3.97028
49.9615 17.7539 3.96506
51.5748 19.4455 3.96716
50.3426 63.3709 0.0193163
51.231 60.9081 0.0242552
56.1895 44.0726 0.0229745
55.0673 47.7895 0.0259592
52.2804 58.5871 0.0279352
54.1709 57.2255 0.0300214
54.7695 51.3003 0.0344688
53.8709 54.4816 0.0345689
49.5829 61.733 2
54.9645 41.6478 2
50.5395 59.2938 2
52.1208 56.4482 2
53.6208 45.4315 2
52.9393 49.219 2
52.4502 52.7763 2
48.8312 60.1874 3.97589
51.767 42.5231 3.98307
49.741 57.5912 3.96745
50.4561 54.3752 3.96345
51.2897 47.1403 3.97468
50.9083 50.8558 3.95486
47.4449 43.625 3.97815
47.9566 62.4628 0.0192533
47.3184 60.9941 2
46.6019 59.783 3.99124
41.6624 67.6812 0.0177173
43.3559 65.4973 0.0200531
44.7646 63.4393 0.0211887
45.9822 61.5717 0.0125692
39.6324 67.7597 2
41.5457 65.6333 2
45.7549 60.6175 2
43.1455 63.7129 2
44.4791 61.8173 2
44.6119 60.2745 3.99215
42.9476 62.0644 3.97465
41.5996 63.8047 3.97825
39.6471 65.5995 3.97769
37.563 67.7392 3.97992
31.6977 65.1156 3.97788
33.3924 67.4769 3.97981
35.3338 69.9546 3.98524
37.5257 70.0456 2
37.509 72.4572 3.99205
39.7017 70.0201 0.0135379
39.817 72.403 2
39.9526 74.9197 4
42.1094 72.2063 0.00813295
42.3947 74.6792 2
44.8159 74.2794 0
41.7366 4.9696 3.98885
43.8521 5.35972 2
44.3268 3.11104 3.99289
46.5716 3.64753 2
47.2057 1.27793 4
48.7855 4.32368 0.00767106
49.554 1.99013 2
51.8506 2.85458 0
58.531 42.8475 0.0235147
59.8296 39.8176 0.0231079
61.6653 37.444 0.0230471
59.3251 37.5675 2
57.4689 40.6101 2
54.3715 39.6706 2
56.221 37.8821 3.97691
48.7948 41.2322 3.97785
52.3602 39.3048 3.98377
39.4434 6.80532 3.98552
59.4699 35.1465 0.0232901
57.5139 32.343 0.0240751
56.1078 29.4585 0.023209
55.2595 19.2671 0.038357
54.8111 21.6732 0.0395311
54.6221 24.2002 0.0335655
55.0319 26.753 0.023772
53.0636 18.7536 0.0408448
51.2592 18.1663 0.0275708
50.6046 16.1893 0.029009
45.963 5.88345 0.0109624
49.6988 13.7723 0.0271076
47.3554 8.62864 0.0166662
48.5959 11.3086 0.0249129
43.3746 7.47579 0.0147825
56.8534 34.798 2
41.3998 7.0807 2
45.3603 7.99537 2
42.8663 9.41946 2
55.1972 31.6123 2
54.0284 28.5585 2
53.8591 20.2426 2
53.3497 22.8555 2
53.4066 25.6736 2
46.6666 10.6545 2
47.7347 13.1163 2
51.5811 19.4448 2
49.9604 17.7506 2
48.9047 15.4444 2
54.2006 33.9934 3.97533
52.9191 30.6536 3.97654
52.1257 27.3957 3.97494
51.8695 24.2862 3.97812
52.2516 21.1873 3.97091
41.0139 9.05472 3.97999
44.727 9.99487 3.9858
42.4658 10.9046 3.99365
45.9959 12.7399 3.97489
47.6603 14.6113 3.97034
48.0683 17.0188 3.96777
49.7664 19.8186 3.97162
49.584 61.7336 0.021691
50.541 59.2943 0.0295474
54.9713 41.6515 0.0255465
53.6238 45.4331 0.0255383
52.93 49.2192 0.030813
52.1185 56.445 0.0321073
52.4484 52.7759 0.0384046
48.8291 60.1854 2
51.7855 42.5322 2
49.7388 57.5915 2
50.4575 54.3787 2
51.2965 47.1408 2
50.9114 50.8547 2
47.4594 43.6535 2
47.9544 58.7158 3.97847
49.4189 45.1532 3.98043
48.5123 55.8813 3.96308
48.928 52.533 3.97626
49.2833 48.9396 3.97265
45.1936 39.811 3.86488
45.677 42.5128 3.89961
45.9069 45.6297 3.98311
43.0148 41.0376 3.70783
41.6576 41.8726 3.51805
47.3194 60.9947 0.0133438
46.6001 59.7818 2
45.444 58.785 3.9926
39.6319 67.7589 0.0180137
41.5456 65.6343 0.0215964
43.145 63.7122 0.0212859
44.48 61.8162 0.0198107
45.7554 60.6169 0.0151651
41.5999 63.8041 2
37.5633 67.7401 2
39.6472 65.6006 2
44.6121 60.2754 2
42.9467 62.0651 2
41.7508 62.4733 3.97698
42.4733 59.9557 3.97902
39.8942 63.5363 3.97656
37.6421 65.495 3.97668
35.4634 67.6486 3.9798
33.5756 65.3282 3.97643
31.9604 63.2815 3.9764
29.8847 64.7073 3.98065
31.6976 65.1166 2
31.3773 67.1869 3.98028
33.3926 67.478 2
33.1572 69.7482 3.98535
35.3336 69.9556 2
35.1954 72.3716 3.99199
37.5259 70.0444 0.0148223
37.5091 72.4577 2
37.5 75 4
39.8165 72.4027 0.00838368
39.9526 74.9197 2
42.3947 74.6792 0
39.6244 4.71743 3.98949
41.7367 4.96885 2
42.0632 2.7183 3.99324
43.852 5.36072 0.0114959
44.3268 3.11035 2
44.8158 0.721173 4
46.5716 3.64782 0.00742396
47.2057 1.27779 2
49.554 1.99015 0
57.469 40.6094 0.0229578
59.3244 37.5666 0.0227666
54.3784 39.6659 0.0248087
48.8229 41.2501 2
56.2201 37.8796 2
52.3578 39.2722 2
53.2172 36.6246 3.97808
46.7214 40.3272 3.90191
49.7404 38.512 3.98522
37.5174 6.67625 3.98562
39.4436 6.80373 2
39.2116 8.69645 3.98291
35.9437 8.49581 3.98425
56.8536 34.7971 0.022889
55.1942 31.6137 0.0239472
54.0281 28.5592 0.0226359
53.8564 20.2349 0.0393178
53.3531 22.8577 0.0449304
53.4099 25.6722 0.023426
51.5748 19.4455 0.0328356
49.9615 17.7539 0.034942
48.9076 15.4399 0.0297155
45.361 7.99557 0.0127069
47.7334 13.1216 0.02386
46.6658 10.6619 0.0190008
41.3998 7.08162 0.0151107
42.8668 9.41966 0.018814
54.198 33.9939 2
41.0141 9.05416 2
44.7251 9.99545 2
42.466 10.906 2
52.9163 30.6526 2
52.1327 27.3968 2
52.2561 21.1899 2
51.868 24.292 2
45.9972 12.7287 2
47.6581 14.6037 2
49.7747 19.8183 2
48.0644 17.0178 2
51.7193 32.9024 3.98231
50.7341 29.3537 3.97727
50.4153 25.9029 3.97092
49.8084 22.4145 3.98541
40.567 11.616 3.98179
43.8524 11.9105 3.97974
45.7781 15.4476 3.98681
47.4655 19.4239 3.97842
45.6424 37.4789 3.8597
48.8312 60.1874 0.0241128
49.741 57.5912 0.0325504
51.767 42.5231 0.0169291
51.2897 47.1403 0.0253181
50.9083 50.8558 0.0451436
50.4561 54.3752 0.0365473
47.4449 43.625 0.0218538
47.9521 58.7183 2
49.4348 45.1662 2
48.5077 55.8834 2
48.9295 52.539 2
49.2889 48.9394 2
45.2671 39.8266 2
45.707 42.556 2
45.9165 45.6428 2
43.0474 41.0731 2
41.688 41.8963 2
46.7885 57.3202 3.97661
43.7498 39.3514 3.70997
42.0189 40.7779 3.54841
47.5654 47.1787 3.98145
47.0412 54.194 3.96334
47.3229 50.6791 3.97886
44.3885 47.2602 3.97551
44.3266 41.8568 3.8533
44.3956 44.3769 3.90472
41.9919 42.4868 3.74221
40.6428 42.1747 3.5252
46.6019 59.783 0.00875875
45.4433 58.7832 2
43.8513 57.6801 3.98013
37.563 67.7392 0.020083
39.6471 65.5995 0.022308
41.5996 63.8047 0.0217525
42.9476 62.0644 0.0253547
44.6119 60.2745 0.0078466
35.4637 67.6495 2
41.75 62.476 2
39.8939 63.5371 2
37.6421 65.4958 2
42.4742 59.9551 2
40.6217 61.6179 3.97947
40.4363 58.1441 3.97934
37.8378 63.1925 3.9746
35.5729 65.4175 3.97707
33.5758 65.3291 2
31.9604 63.2828 2
33.6297 63.3198 3.97498
30.3795 62.8423 3.97988
32.1269 61.9844 3.98527
26.877 61.4731 3.97725
28.0649 64.1358 3.97824
29.8843 64.7083 2
29.4072 66.7509 3.98121
31.6977 65.1156 0.0221192
31.3775 67.1878 2
31.015 69.4133 3.98508
33.3924 67.4769 0.0201878
33.157 69.7492 2
32.8932 72.146 3.99165
35.3338 69.9546 0.0147641
35.1951 72.3722 2
35.0474 74.9194 4
37.509 72.4572 0.00795372
37.5 75 2
39.9526 74.9197 0
35.6221 6.72725 3.98529
37.5242 4.61684 3.98961
39.6245 4.71607 2
39.7897 2.47498 3.99317
41.7366 4.9696 0.0111521
42.0631 2.7178 2
42.3946 0.32156 4
44.3268 3.11104 0.00710724
44.8159 0.72056 2
47.2057 1.27793 0
48.7948 41.2322 0.0221459
56.221 37.8821 0.0230883
52.3602 39.3048 0.016228
46.7479 40.3224 2
49.742 38.508 2
53.2166 36.6429 2
50.5423 35.5708 3.97476
47.3917 37.7701 3.91688
45.2111 35.1655 3.86322
43.0399 33.9268 3.70482
41.682 33.0964 3.51626
37.4591 8.53739 3.98463
37.5175 6.67505 2
39.4434 6.80532 0.014477
39.2121 8.69456 2
38.9767 10.1319 3.98357
35.8999 9.77804 3.98018
34.1533 8.82748 3.9822
35.9435 8.49374 2
54.2006 33.9934 0.0246673
52.9191 30.6536 0.0234568
52.1257 27.3957 0.0250588
52.2516 21.1873 0.0290934
51.8695 24.2862 0.0218772
49.7664 19.8186 0.0283771
48.0683 17.0188 0.0322271
47.6603 14.6113 0.0296551
44.727 9.99487 0.0141989
45.9959 12.7399 0.0251077
41.0139 9.05472 0.0200131
42.4658 10.9046 0.00635176
51.7257 32.8997 2
40.5687 11.617 2
43.8508 11.9142 2
50.7565 29.3517 2
50.4156 25.905 2
49.8098 22.4139 2
45.7718 15.4161 2
47.4682 19.4463 2
49.2908 31.5307 3.9876
48.8077 27.6713 3.97837
49.1307 24.5625 3.97638
47.1082 22.184 3.98728
38.301 12.7448 3.97711
42.0918 14.3084 3.97988
44.7741 18.5683 3.97514
44.1583 37.486 3.71893
45.7321 37.4828 2
47.9544 58.7158 0.0215346
48.5123 55.8813 0.0369243
49.4189 45.1532 0.0195715
49.2833 48.9396 0.0273546
48.928 52.533 0.0237411
45.1936 39.811 0.135122
45.677 42.5128 0.100389
45.9069 45.6297 0.0168866
43.0148 41.0376 0.29217
41.6576 41.8726 0.481947
46.7852 57.3224 2
43.804 39.3751 2
42.0202 40.7922 2
47.5728 47.1805 2
47.036 54.1984 2
47.3255 50.6897 2
44.4141 47.2406 2
44.3617 41.8851 2
44.4387 44.4002 2
42.0431 42.5312 2
40.6692 42.1834 2
45.328 55.9028 3.99348
42.3598 39.2301 3.55827
40.5287 40.6574 3.66394
45.7452 48.8279 4.00126
45.3493 52.4662 3.9808
43.1231 48.2503 3.99375
43.0357 45.8956 3.89578
43.1448 43.6239 3.83916
40.7507 43.5351 3.7195
39.1971 42.4377 3.55405
45.444 58.785 0.00739737
43.8492 57.6848 2
42.0784 56.2665 3.98494
35.4634 67.6486 0.0202032
37.6421 65.495 0.0233232
39.8942 63.5363 0.0234366
41.7508 62.4733 0.0230216
42.4733 59.9557 0.0209791
35.5732 65.4182 2
40.6219 61.6168 2
37.8379 63.1927 2
40.437 58.1436 2
38.9107 56.4338 3.99454
38.2498 60.3037 3.97991
35.6076 63.1866 3.97479
33.5756 65.3282 0.0235699
31.9604 63.2815 0.0236012
33.6299 63.3209 2
30.3795 62.8431 2
32.1276 61.9858 2
28.6862 62.1798 3.97967
33.3476 61.4915 3.97706
31.0742 61.2062 3.98043
27.5848 59.5646 3.9797
23.8155 59.0525 3.98746
25.0445 60.8467 3.97725
26.8774 61.4731 2
26.2333 63.4649 3.97741
28.0648 64.1345 2
27.4642 66.1754 3.98065
29.8847 64.7073 0.0193531
29.4072 66.7512 2
28.9076 68.9391 3.98471
31.3773 67.1869 0.0197185
31.0147 69.4139 2
30.6161 71.7773 3.99108
33.1572 69.7482 0.0146486
32.8926 72.1465 2
32.6054 74.6784 4
35.1954 72.3716 0.00801018
35.0474 74.9197 2
37.5 75 0
33.7251 6.98316 3.98413
35.4363 4.68695 3.98945
35.622 6.72601 2
37.5154 2.38744 3.99324
37.5242 4.61591 2
39.6244 4.71743 0.010514
39.7894 2.47424 2
39.9526 0.0806499 4
42.0632 2.7183 0.00676341
42.3947 0.320817 2
44.8158 0.721173 0
43.7602 35.6216 3.71187
42.0341 34.1865 3.53987
46.7214 40.3272 0.0980923
49.7404 38.512 0.0147797
53.2172 36.6246 0.0219165
47.3883 37.7345 2
50.5497 35.5637 2
45.2779 35.142 2
43.0785 33.8886 2
41.7088 33.0727 2
47.5804 34.3182 3.94892
44.359 33.1009 3.84039
42.0263 32.4851 3.73867
40.6643 32.8048 3.52366
37.3116 10.6346 3.98124
37.4594 8.53593 2
37.5174 6.67625 0.0143824
39.2116 8.69645 0.0170873
38.9785 10.1304 2
34.756 10.3872 3.98102
35.9006 9.77407 2
32.3804 9.37488 3.97873
34.152 8.82429 2
35.9437 8.49581 0.0157494
51.7193 32.9024 0.017686
50.7341 29.3537 0.022732
50.4153 25.9029 0.0290767
49.8084 22.4145 0.0145892
47.4655 19.4239 0.0215802
45.7781 15.4476 0.0131896
43.8524 11.9105 0.0202646
40.567 11.616 0.0182077
49.309 31.5267 2
38.3014 12.7423 2
42.0948 14.316 2
48.8174 27.6728 2
49.1316 24.5599 2
47.0983 22.1732 2
44.7755 18.6175 2
47.1732 29.663 3.98654
46.8183 25.2982 3.9723
44.2348 21.5524 3.97901
36.5849 12.9518 3.97463
38.6821 14.843 3.97506
41.7386 17.9106 3.97763
42.5069 37.4719 3.59204
44.2084 37.485 2
45.6424 37.4789 0.140296
46.7885 57.3202 0.0233898
47.0412 54.194 0.0366601
47.5654 47.1787 0.0185546
47.3229 50.6791 0.0211403
43.7498 39.3514 0.290032
44.3266 41.8568 0.146699
44.3956 44.3769 0.0952794
44.3885 47.2602 0.0244921
41.9919 42.4868 0.257788
42.0189 40.7779 0.451592
40.6428 42.1747 0.474803
45.3234 55.9046 2
42.3577 39.2345 2
40.5484 40.6412 2
45.7495 48.8443 2
45.3456 52.4679 2
43.141 48.2696 2
43.0883 45.9364 2
43.1912 43.6551 2
40.7845 43.592 2
39.1945 42.4493 2
43.6538 54.3762 3.99808
40.6344 39.0853 3.67949
39.0841 40.7282 3.63774
43.4484 50.3289 4.00455
41.7492 47.421 3.93178
41.6608 44.997 3.85202
39.338 44.1918 3.69445
37.5026 42.5393 3.58868
43.8513 57.6801 0.0198723
42.0788 56.2649 2
40.3872 54.8438 3.9921
35.5729 65.4175 0.0229334
37.8378 63.1925 0.0254037
40.6217 61.6179 0.0205306
40.4363 58.1441 0.0206558
35.6078 63.1866 2
38.25 60.3044 2
38.9123 56.4252 2
37.9872 55.1255 3.99409
36.9338 57.6012 3.99136
35.3653 60.8916 3.97844
33.6297 63.3198 0.0250222
30.3795 62.8423 0.0201201
32.1269 61.9844 0.0147296
33.3484 61.4927 2
28.6863 62.1814 2
31.0751 61.2081 2
29.4158 60.2616 3.97605
32.3653 59.714 3.98887
28.0514 58.3474 4.00263
27.5869 59.5647 2
25.4036 58.5689 3.97939
22.7944 58.206 3.96841
23.4133 60.319 3.97907
23.8173 59.0527 2
25.0452 60.8462 2
24.438 62.7542 3.97706
26.877 61.4731 0.0227503
26.2337 63.4658 2
25.5491 65.4833 3.97903
28.0649 64.1358 0.0217646
27.4644 66.1753 2
26.8372 68.3277 3.9848
29.4072 66.7509 0.0187872
28.9072 68.9391 2
28.3713 71.2626 3.99056
31.015 69.4133 0.0149187
30.6152 71.7774 2
30.1842 74.2788 4
32.8932 72.146 0.00835188
32.6053 74.6792 2
35.0474 74.9194 0
31.7897 7.42304 3.98261
33.3489 4.92666 3.98858
33.7247 6.98102 2
35.2457 2.46338 3.99321
35.436 4.68628 2
35.6221 6.72725 0.0147102
37.5 0 4
37.5148 2.38696 2
37.5242 4.61684 0.0103853
39.7897 2.47498 0.00682645
39.9526 0.0802889 2
42.3946 0.32156 0
42.352 35.7134 3.55152
43.8272 35.5914 2
40.5541 34.3162 3.66365
42.0308 34.1706 2
47.3917 37.7701 0.0831217
50.5423 35.5708 0.0252436
45.2111 35.1655 0.136778
43.0399 33.9268 0.295179
41.682 33.0964 0.48374
47.5969 34.3415 2
44.3942 33.0789 2
42.0795 32.4378 2
40.6899 32.7954 2
45.6589 31.7167 3.91256
43.1776 31.3465 3.83453
40.7776 31.4426 3.71963
39.2137 32.5571 3.55087
35.6951 11.7839 3.9783
37.314 10.6321 2
37.4591 8.53739 0.0153692
38.9767 10.1319 0.0164291
33.1014 11.2267 3.97454
34.755 10.3817 2
35.8999 9.77804 0.019823
30.4853 10.0246 3.97874
32.3791 9.37349 2
34.1533 8.82748 0.0178043
49.2908 31.5307 0.0123951
48.8077 27.6713 0.0216306
49.1307 24.5625 0.0236239
47.1082 22.184 0.0127177
44.7741 18.5683 0.0248565
42.0918 14.3084 0.0201152
38.301 12.7448 0.022893
36.5819 12.9357 2
47.1897 29.6156 2
38.6798 14.8247 2
41.7308 17.9066 2
46.8224 25.2944 2
44.2242 21.531 2
45.1105 27.7997 4.00472
43.6314 24.2309 4.02534
41.3036 20.918 3.98308
35.7735 14.7917 3.97682
38.6765 17.6439 3.98013
40.6895 37.4622 3.69329
42.5146 37.4757 2
44.1583 37.486 0.281075
45.328 55.9028 0.00652314
45.3493 52.4662 0.0192033
45.7452 48.8279 -0.0012649
42.3598 39.2301 0.441725
43.1448 43.6239 0.160844
43.0357 45.8956 0.104215
43.1231 48.2503 0.00625411
40.7507 43.5351 0.280502
40.5287 40.6574 0.336056
39.1971 42.4377 0.445946
43.65 54.373 2
40.6335 39.0836 2
39.0861 40.7184 2
43.4427 50.3483 2
41.7449 47.4529 2
41.6855 45.0382 2
37.4996 42.5546 2
39.3526 44.248 2
41.8105 52.868 3.99707
39.0961 39.1107 3.65336
37.5056 40.7815 3.6618
35.8112 42.4461 3.55459
40.8371 49.4899 3.99496
39.7524 45.7721 3.82816
37.5017 44.442 3.71925
42.0784 56.2665 0.0150597
40.3834 54.8527 2
38.7223 53.6813 3.99565
35.6076 63.1866 0.0252112
38.2498 60.3037 0.0200942
38.9107 56.4338 0.00546142
35.3657 60.8906 2
36.935 57.601 2
37.9874 55.1272 2
36.3216 55.1888 3.99456
34.4942 58.4975 3.99145
33.3476 61.4915 0.0229397
28.6862 62.1798 0.0203321
31.0742 61.2062 0.0195658
32.3664 59.7175 2
29.417 60.261 2
30.3253 57.7859 3.98478
28.054 58.347 2
27.004 56.8011 3.96795
27.5848 59.5646 0.0202968
25.4063 58.5693 2
23.9062 56.7662 3.9605
21.3912 57.355 3.9609
22.012 59.5867 3.97375
22.7963 58.2074 2
22.7435 62.0057 3.97463
23.4141 60.3186 2
23.8155 59.0525 0.01254
25.0445 60.8467 0.0227515
24.4386 62.756 2
23.6842 64.6994 3.97736
26.2333 63.4649 0.0225867
25.5491 65.4847 2
24.8097 67.5884 3.98381
27.4642 66.1754 0.0193479
26.8369 68.3284 2
26.1664 70.6036 3.99059
28.9076 68.9391 0.0152925
28.3703 71.2625 2
27.7943 73.7221 4
30.6161 71.7773 0.00891587
30.1841 74.2794 2
32.6054 74.6784 0
29.8124 7.99785 3.98124
31.2544 5.33352 3.98759
31.789 7.42143 2
32.9817 2.70164 3.99284
33.3483 4.92532 2
33.7251 6.98316 0.0158693
35.0474 0.080333 4
35.2451 2.46314 2
35.4363 4.68695 0.0105489
37.5 0 2
37.5154 2.38744 0.00676472
39.9526 0.0806499 0
40.6615 35.8579 3.67911
42.352 35.7155 2
43.7602 35.6216 0.288128
28.5456 10.6997 3.97806
39.0906 34.2661 3.63678
40.5593 34.3291 2
42.0341 34.1865 0.460132
47.5804 34.3182 0.0510845
44.359 33.1009 0.159612
42.0263 32.4851 0.261329
40.6643 32.8048 0.476336
45.6916 31.6971 2
43.2196 31.3138 2
40.8151 31.3847 2
39.2172 32.5482 2
43.989 29.9155 3.90826
41.6689 29.9713 3.85385
39.3595 30.7955 3.693
37.526 32.4668 3.58803
34.0972 12.951 3.97399
35.694 11.7741 2
37.3116 10.6346 0.0187638
31.19 11.9955 3.97788
33.101 11.2252 2
34.756 10.3872 0.0189816
30.4837 10.0221 2
32.3804 9.37488 0.0212689
47.1732 29.663 0.0134569
46.8183 25.2982 0.027702
36.5849 12.9518 0.0253728
44.2348 21.5524 0.0209884
41.7386 17.9106 0.0223687
38.6821 14.843 0.0249431
35.7756 14.7975 2
45.1135 27.7975 2
38.6726 17.6509 2
41.2921 20.9124 2
43.6275 24.2148 2
33.6124 15.9003 3.97977
42.785 26.6431 3.99074
40.8086 23.5054 3.9977
38.4051 20.4127 3.99288
35.8477 17.5468 3.97913
39.1103 37.4866 3.67116
40.6826 37.4643 2
42.5069 37.4719 0.407963
43.6538 54.3762 0.00191825
43.4484 50.3289 -0.00455312
40.6344 39.0853 0.320512
41.6608 44.997 0.147979
41.7492 47.421 0.0682183
39.338 44.1918 0.305547
39.0841 40.7282 0.362261
37.5026 42.5393 0.41132
41.7993 52.8721 2
39.0896 39.097 2
37.5039 40.7669 2
40.8299 49.5109 2
35.8086 42.4552 2
39.772 45.8266 2
37.492 44.492 2
39.7476 51.6887 4.00223
37.5077 39.1169 3.68602
35.9326 40.7417 3.63815
34.3626 42.1913 3.52606
35.6696 44.2069 3.68619
38.6657 48.4179 3.94562
37.5212 46.0606 3.85433
40.3872 54.8438 0.00789682
38.722 53.6673 2
36.7486 52.9843 3.99697
35.3653 60.8916 0.0215567
36.9338 57.6012 0.0086424
37.9872 55.1255 0.00590563
34.495 58.4962 2
36.3231 55.186 2
33.2522 55.3788 3.99201
32.3653 59.714 0.0111327
29.4158 60.2616 0.0239537
30.328 57.7837 2
28.7826 55.2841 3.98308
28.0514 58.3474 -0.00262633
27.0064 56.801 2
25.4175 55.0981 3.96193
21.9163 55.2951 3.96038
25.4036 58.5689 0.020614
23.908 56.7684 2
20.2663 56.9858 3.9636
20.6704 58.7395 3.97044
21.3929 57.3564 2
21.1769 61.1416 3.97428
22.0131 59.5873 2
22.7944 58.206 0.031588
21.8988 63.826 3.97709
22.7442 62.007 2
23.4133 60.319 0.0209308
24.438 62.7542 0.0229357
23.6842 64.7004 2
22.8383 66.731 3.98182
25.5491 65.4833 0.0209731
24.8094 67.5895 2
24.0106 69.8048 3.99043
26.8372 68.3277 0.0152015
26.1653 70.6037 2
25.446 73.0099 4
28.3713 71.2626 0.00943834
27.7943 73.7222 2
30.1842 74.2788 0
27.8222 8.65747 3.98125
29.1566 5.87983 3.98608
29.8113 7.9956 2
30.7272 3.09854 3.99258
31.2536 5.33214 2
31.7897 7.42304 0.0173914
32.6053 0.320823 4
32.9809 2.70111 2
33.3489 4.92666 0.0114184
35.0474 0.0802903 2
35.2457 2.46338 0.00679047
37.5 0 0
39.0915 35.8743 3.65866
40.6455 35.8594 2
42.352 35.7134 0.448482
28.5441 10.698 2
26.624 11.3961 3.97827
29.2297 12.6496 3.98052
37.5164 34.2271 3.66023
39.1 34.2824 2
40.5541 34.3162 0.336348
45.6589 31.7167 0.0874368
43.1776 31.3465 0.165473
40.7776 31.4426 0.280368
39.2137 32.5571 0.449132
44.0175 29.8881 2
41.6971 29.9331 2
39.366 30.7386 2
37.5263 32.4512 2
42.0993 28.6074 3.88071
39.7447 29.2049 3.84858
37.5217 30.5651 3.71717
35.8293 32.5624 3.55493
31.9221 14.4944 3.97952
34.0975 12.9523 2
35.6951 11.7839 0.0217029
31.189 11.9917 2
33.1014 11.2267 0.0254643
30.4853 10.0246 0.0212554
45.1105 27.7997 -0.00471938
43.6314 24.2309 -0.0253447
35.7735 14.7917 0.0231789
41.3036 20.918 0.0169196
38.6765 17.6439 0.0198692
33.6096 15.8944 2
35.844 17.5478 2
42.7956 26.6355 2
38.39 20.4513 2
40.7956 23.4815 2
33.5525 17.4217 3.98082
40.23 25.884 3.95715
38.0451 23.2248 3.9998
35.5808 20.1371 3.99206
37.5108 37.4933 3.70259
39.1025 37.4819 2
40.6895 37.4622 0.306705
41.8105 52.868 0.00293132
40.8371 49.4899 0.00503573
39.0961 39.1107 0.346641
39.7524 45.7721 0.171843
37.5017 44.442 0.280746
37.5056 40.7815 0.338197
35.8112 42.4461 0.44541
39.7387 51.6969 2
37.509 39.1101 2
35.9302 40.7302 2
38.6773 48.4707 2
34.3377 42.2005 2
35.6478 44.2642 2
37.5169 46.1111 2
37.6748 50.7163 3.99756
35.9293 39.1256 3.65775
34.4869 40.6818 3.66599
33.3426 41.8927 3.52007
34.2516 43.545 3.71656
35.2188 45.7834 3.84477
36.9249 48.0256 3.91199
38.7223 53.6813 0.00435426
36.7567 52.9818 2
34.4308 52.3134 3.99934
34.4942 58.4975 0.00854729
36.3216 55.1888 0.00544366
33.2557 55.3835 2
30.6199 53.2816 3.99825
30.3253 57.7859 0.0152182
28.7845 55.2834 2
27.0376 53.3868 3.96196
27.004 56.8011 0.0320523
25.4193 55.1012 2
23.7515 53.4155 3.95756
20.6854 53.1447 3.95944
20.015 55.7811 3.96245
21.9137 55.2975 2
23.9062 56.7662 0.039497
19.4684 57.8509 3.96737
20.2653 56.9874 2
19.7192 60.1628 3.97143
20.6699 58.7407 2
21.3912 57.355 0.0390986
20.2125 62.8469 3.97372
21.1777 61.1433 2
22.012 59.5867 0.0262515
20.9399 65.7588 3.98001
21.8988 63.8273 2
22.7435 62.0057 0.0253711
23.6842 64.6994 0.0226402
22.838 66.7315 2
21.9132 68.8719 3.98978
24.8097 67.5884 0.0161926
24.0092 69.8046 2
23.1494 72.1454 4
26.1664 70.6036 0.0094093
25.446 73.0099 2
27.7943 73.7221 0
25.8612 9.38652 3.98031
27.0713 6.54398 3.98494
27.8207 8.65611 2
28.4896 3.64442 3.99182
29.1556 5.8784 2
29.8124 7.99785 0.0187596
30.1841 0.720592 4
30.726 3.0981 2
31.2544 5.33352 0.0124135
32.6053 0.320817 2
32.9817 2.70164 0.0071561
35.0474 0.080333 0
37.5103 35.8756 3.68357
39.0775 35.8771 2
40.6615 35.8579 0.320886
24.78 12.0839 3.97694
23.7593 14.378 3.97525
28.5456 10.6997 0.021939
26.6225 11.3945 2
29.2286 12.6482 2
27.2969 13.3829 3.97891
29.789 14.2104 3.98088
35.9365 34.2697 3.63725
37.5227 34.2426 2
39.0906 34.2661 0.363219
37.526 32.4668 0.411968
43.989 29.9155 0.0917381
41.6689 29.9713 0.146152
39.3595 30.7955 0.307004
42.128 28.5586 2
39.7614 29.1538 2
37.5242 30.5119 2
35.8289 32.5512 2
39.9122 27.8409 3.88593
37.4943 28.9384 3.85155
35.6886 30.8141 3.69745
34.3817 32.8174 3.52662
30.9364 16.8539 3.9841
31.9205 14.4878 2
34.0972 12.951 0.0260106
31.19 11.9955 0.0221171
42.785 26.6431 0.00926339
40.8086 23.5054 0.00230152
33.6124 15.9003 0.0202336
35.8477 17.5468 0.0208672
38.4051 20.4127 0.007116
33.548 17.4319 2
35.5852 20.1352 2
40.2924 25.8805 2
38.026 23.1861 2
32.8766 19.8239 3.99354
37.6632 25.5343 3.97025
35.2125 22.8897 3.99957
35.9114 37.4948 3.67312
37.507 37.4936 2
39.1103 37.4866 0.328844
39.7476 51.6887 -0.00222613
38.6657 48.4179 0.0543822
37.5077 39.1169 0.313976
37.5212 46.0606 0.145666
35.6696 44.2069 0.313814
35.9326 40.7417 0.361851
34.3626 42.1913 0.473936
37.6638 50.7455 2
35.9416 39.1126 2
34.467 40.6689 2
36.9046 48.0807 2
33.3113 41.9162 2
34.2218 43.5998 2
35.1985 45.8314 2
35.5436 49.8977 3.98554
34.3808 39.1234 3.67934
32.9887 40.8024 3.54434
33.006 42.5022 3.74386
33.3678 45.0039 3.8465
34.4178 47.1601 3.88429
36.7486 52.9843 0.00302931
34.4271 52.3206 2
32.1675 51.0926 4.01819
33.2522 55.3788 0.00798696
30.6223 53.2855 2
28.6224 51.5101 3.99058
28.7826 55.2841 0.0169218
27.0392 53.3893 2
25.3132 51.662 3.95473
25.4175 55.0981 0.0380749
23.7501 53.42 2
22.2395 51.7126 3.95191
19.5108 51.5412 3.96109
19.0841 54.2418 3.96199
20.6843 53.1441 2
18.5008 56.6794 3.9636
20.0126 55.7828 2
21.9163 55.2951 0.03962
18.386 59.0738 3.96908
19.4678 57.8519 2
20.2663 56.9858 0.0363964
18.6268 61.7364 3.97179
19.7198 60.1648 2
20.6704 58.7395 0.029559
19.129 64.668 3.97897
20.2126 62.8477 2
21.1769 61.1416 0.0257214
19.8875 67.8084 3.98904
20.9393 65.7594 2
21.8988 63.826 0.0229059
22.8383 66.731 0.0181762
21.9116 68.8712 2
20.9142 71.1327 4
24.0106 69.8048 0.0095669
23.1494 72.1455 2
25.446 73.0099 0
23.1011 12.8006 3.97696
23.974 10.1759 3.97825
25.0248 7.31481 3.98372
25.8597 9.38535 2
26.2814 4.32852 3.99114
27.07 6.54313 2
27.8222 8.65747 0.0187466
27.7943 1.27781 4
28.4879 3.64426 2
29.1566 5.87983 0.0139221
30.1841 0.720551 2
30.7272 3.09854 0.00742128
32.6053 0.320823 0
35.9191 35.87 3.65112
37.5189 35.8859 2
39.0915 35.8743 0.341345
24.7774 12.0803 2
23.7594 14.3812 2
22.4908 15.0589 3.98052
25.3643 13.9237 3.97338
24.0429 15.6399 3.98363
26.624 11.3961 0.0217295
29.2297 12.6496 0.0194817
27.297 13.3812 2
29.7858 14.2083 2
28.3709 15.9821 3.98216
34.4979 34.3331 3.66335
35.9329 34.2788 2
37.5164 34.2271 0.339774
35.8293 32.5624 0.445071
37.5217 30.5651 0.28283
42.0993 28.6074 0.119286
39.7447 29.2049 0.151424
39.9375 27.8025 2
37.4921 28.884 2
35.6717 30.7507 2
34.3535 32.8114 2
37.5963 27.5752 3.89207
35.2503 29.2252 3.84835
34.2636 31.4625 3.71628
33.3601 33.1132 3.51842
30.2231 19.4015 3.98266
30.9324 16.8445 2
31.9221 14.4944 0.0204814
40.23 25.884 0.0428499
38.0451 23.2248 0.000199037
33.5525 17.4217 0.0191794
35.5808 20.1371 0.00793639
32.8725 19.8365 2
35.2084 22.8777 2
37.7247 25.5106 2
32.3717 22.5505 3.99575
35.0725 25.453 3.99647
34.3309 37.5091 3.69501
35.9151 37.499 2
37.5108 37.4933 0.297413
37.6748 50.7163 0.0024448
36.9249 48.0256 0.08801
35.9293 39.1256 0.34225
35.2188 45.7834 0.155228
34.2516 43.545 0.28344
34.4869 40.6818 0.334011
33.3426 41.8927 0.479934
35.5322 49.9075 2
34.386 39.1194 2
32.9874 40.8153 2
34.4142 47.2052 2
32.9643 42.5468 2
33.3431 45.044 2
33.3715 48.9561 3.97713
32.661 39.2677 3.55422
31.9811 41.0588 3.70712
31.8479 43.6399 3.83889
32.5555 46.1326 3.88713
34.4308 52.3134 0.000664899
32.1704 51.1042 2
30.1365 49.6725 4.00244
30.6199 53.2816 0.0017513
28.6222 51.5055 2
26.8061 49.8825 3.96886
27.0376 53.3868 0.0380396
25.311 51.6612 2
23.6744 50.0749 3.96189
23.7515 53.4155 0.0424352
22.2382 51.7112 2
20.8244 50.2056 3.96492
18.3125 50.2381 3.96885
18.0844 52.7123 3.96363
19.509 51.5404 2
17.5592 55.284 3.96259
19.0793 54.2421 2
20.6854 53.1447 0.0405626
17.1613 57.8387 3.96309
18.4996 56.68 2
20.015 55.7811 0.0375468
17.1458 60.5143 3.96739
18.386 59.0747 2
19.4684 57.8509 0.0326332
17.4105 63.4584 3.97293
18.6272 61.737 2
19.7192 60.1628 0.0285682
17.9438 66.6167 3.98735
19.1285 64.668 2
20.2125 62.8469 0.0262797
18.75 69.9759 4
19.8856 67.8073 2
20.9399 65.7588 0.0199865
21.9132 68.8719 0.0102223
20.9142 71.1327 2
23.1494 72.1454 0
21.5947 13.6274 3.97671
22.1925 11.0382 3.97544
23.0996 12.8039 2
23.0425 8.18149 3.98201
23.9719 10.174 2
24.119 5.14332 3.99053
25.0233 7.31411 2
25.8612 9.38652 0.0196917
25.446 1.99014 4
26.2793 4.32884 2
27.0713 6.54398 0.0150649
27.7943 1.27778 2
28.4896 3.64442 0.00817956
30.1841 0.720592 0
34.3907 35.8917 3.67827
35.9282 35.8844 2
37.5103 35.8756 0.316425
21.3236 15.8636 3.98337
24.78 12.0839 0.0230556
23.7593 14.378 0.02475
25.3635 13.9165 2
22.4916 15.0586 2
24.0446 15.6446 2
23.2886 16.2689 3.97329
25.399 16.1103 3.98267
27.2969 13.3829 0.0210914
29.789 14.2104 0.0191229
28.3666 15.9872 2
27.4611 18.8369 3.98061
32.9975 34.2106 3.54915
34.4786 34.3485 2
35.9365 34.2697 0.362748
34.3817 32.8174 0.473377
35.6886 30.8141 0.302553
37.4943 28.9384 0.148447
39.9122 27.8409 0.11407
37.5727 27.5386 2
33.3334 33.0923 2
35.25 29.1653 2
34.2249 31.4029 2
35.1467 27.671 3.89717
33.365 29.9978 3.84784
33.0293 32.5001 3.73285
29.6771 22.0028 3.99981
30.223 19.4058 2
30.9364 16.8539 0.0158974
37.6632 25.5343 0.0297451
35.2125 22.8897 0.000426276
32.8766 19.8239 0.00646251
32.3753 22.543 2
35.1033 25.4445 2
31.9203 25.8027 4.00496
32.5013 37.5084 3.5928
34.3457 37.5054 2
35.9114 37.4948 0.326877
35.5436 49.8977 0.0144586
34.4178 47.1601 0.115708
34.3808 39.1234 0.320655
33.3678 45.0039 0.1535
33.006 42.5022 0.256144
32.9887 40.8024 0.455655
33.3614 48.955 2
32.6719 39.271 2
31.9438 41.0936 2
32.5158 46.1771 2
31.8068 43.6708 2
31.4766 47.8022 3.97987
31.2593 39.3709 3.71207
30.6661 41.8911 3.84475
30.8941 44.7627 3.90335
32.1675 51.0926 -0.018187
30.1391 49.6953 2
28.2631 48.0585 3.96025
28.6224 51.5101 0.00941557
26.8048 49.8832 2
25.0602 48.334 3.96747
25.3132 51.662 0.0452716
23.6733 50.0733 2
22.0951 48.6599 3.97124
22.2395 51.7126 0.0480863
20.8221 50.2043 2
19.4115 48.9874 3.97306
17.1953 49.2487 3.97427
17.0367 51.3295 3.96787
18.3147 50.2366 2
16.5574 53.8089 3.96487
18.083 52.7117 2
19.5108 51.5412 0.0389132
16.0372 56.4366 3.96273
17.5551 55.2847 2
19.0841 54.2418 0.0380058
15.7611 59.1835 3.96761
17.1618 57.8394 2
18.5008 56.6794 0.0363963
15.7926 62.1135 3.9703
17.1461 60.516 2
18.386 59.0738 0.0309221
16.0905 65.2986 3.98585
17.4095 63.4601 2
18.6268 61.7364 0.028209
16.6661 68.6801 4
17.9416 66.6151 2
19.129 64.668 0.0210276
18.75 69.9759 2
19.8875 67.8084 0.0109586
20.9142 71.1327 0
20.2296 14.6294 3.97253
21.5939 13.6306 2
20.5335 12.0133 3.97553
21.1454 9.15293 3.98026
22.1908 11.0379 2
23.1011 12.8006 0.0230414
22.0181 6.08227 3.99012
23.0404 8.18041 2
23.974 10.1759 0.0217466
23.1494 2.85457 4
24.1166 5.14397 2
25.0248 7.31481 0.0162792
25.446 1.99012 2
26.2814 4.32852 0.00886087
27.7943 1.27781 0
32.6526 35.7526 3.55731
34.3921 35.8933 2
35.9191 35.87 0.34888
21.3253 15.8599 2
20.3317 16.9946 3.97548
22.1208 16.6635 3.96861
25.3643 13.9237 0.0266232
22.4908 15.0589 0.0194805
24.0429 15.6399 0.016371
25.3999 16.1038 2
23.2907 16.2693 2
24.2324 18.5232 3.96935
27.1121 21.5795 3.99377
28.3709 15.9821 0.0178422
27.4588 18.8636 2
32.0109 33.9596 3.70334
33.0009 34.1933 2
34.4979 34.3331 0.336652
33.3601 33.1132 0.481576
34.2636 31.4625 0.283724
35.2503 29.2252 0.151649
37.5963 27.5752 0.107928
35.1539 27.6264 2
32.9563 32.4565 2
33.341 29.9607 2
32.8014 28.3413 3.90826
31.8553 31.3717 3.83261
29.0411 24.4972 3.99366
29.6737 22.0137 2
30.2231 19.4015 0.0173408
35.0725 25.453 0.00353149
32.3717 22.5505 0.00425075
31.9144 25.7779 2
29.9965 27.4506 3.97751
30.8513 37.5056 3.71698
32.5093 37.5069 2
34.3309 37.5091 0.304986
33.3715 48.9561 0.0228695
32.5555 46.1326 0.112875
32.661 39.2677 0.445779
31.8479 43.6399 0.161111
31.9811 41.0588 0.29288
31.4444 47.82 2
31.1933 39.3954 2
30.6321 41.9111 2
30.8523 44.8005 2
29.6683 46.4132 3.99573
29.8041 39.8343 3.86602
29.355 43.0073 3.90638
30.1365 49.6725 -0.00244098
28.2567 48.0519 2
26.4526 46.5073 3.98226
26.8061 49.8825 0.0311416
25.0596 48.3326 2
23.3265 46.9272 3.97461
23.6744 50.0749 0.0381143
22.0927 48.6583 2
20.4024 47.5009 3.97663
20.8244 50.2056 0.0350822
19.4126 48.9859 2
18.0152 48.086 3.97688
16.4301 48.6071 3.9764
17.1969 49.2474 2
16.1111 50.0979 3.97206
15.5723 52.3541 3.96758
17.0381 51.3285 2
18.3125 50.2381 0.0311488
14.977 54.9324 3.96366
16.5589 53.8083 2
18.0844 52.7123 0.0363703
14.4771 57.7168 3.96307
16.037 56.4368 2
17.5592 55.284 0.037406
14.2717 60.6737 3.96888
15.7623 59.1842 2
17.1613 57.8387 0.0369135
14.3356 63.8563 3.98176
15.7924 62.1156 2
17.1458 60.5143 0.0326086
14.6715 67.2507 4
16.0878 65.2962 2
17.4105 63.4584 0.0270682
16.6661 68.6801 2
17.9438 66.6167 0.0126531
18.75 69.9759 0
18.9483 15.8158 3.97319
20.2302 14.6276 2
18.986 13.1329 3.97502
21.5947 13.6274 0.0232855
20.5325 12.0151 2
19.3454 10.2437 3.97794
19.9928 7.14714 3.98895
21.1432 9.15325 2
22.1925 11.0382 0.0245583
20.9142 3.86727 4
22.0151 6.08326 2
23.0425 8.18149 0.0179918
23.1494 2.85451 2
24.119 5.14332 0.0094661
25.446 1.99014 0
31.2797 35.6405 3.70855
32.6606 35.7465 2
34.3907 35.8917 0.321733
21.3236 15.8636 0.0166315
22.1223 16.6618 2
20.3332 16.9897 2
19.3011 18.4496 3.95877
21.8107 17.9038 3.98223
25.399 16.1103 0.0173295
23.2886 16.2689 0.0267148
24.2277 18.5381 2
22.3709 19.9658 3.96254
24.6945 21.4654 3.98643
26.6524 23.794 3.97796
27.1165 21.5348 2
27.4611 18.8369 0.019386
30.7168 33.1315 3.85599
31.9778 33.9118 2
32.9975 34.2106 0.450852
33.0293 32.5001 0.267145
33.365 29.9978 0.152157
35.1467 27.671 0.102825
32.7676 28.3131 2
31.8008 31.3348 2
30.5861 29.7346 3.93419
28.2543 26.6477 3.99451
29.0294 24.5059 2
29.6771 22.0028 0.000185881
31.9203 25.8027 -0.00496209
29.9869 27.4277 2
29.3594 37.5066 3.86042
30.8007 37.5054 2
32.5013 37.5084 0.407197
31.4766 47.8022 0.0201254
30.8941 44.7627 0.0966471
31.2593 39.3709 0.287929
30.6661 41.8911 0.155251
29.6698 46.4106 2
29.7381 39.8507 2
29.3252 43.0491 2
27.9111 44.7363 3.97359
27.5666 40.5702 3.93881
28.2631 48.0585 0.0397549
26.4484 46.5069 2
24.6184 45.0453 3.97804
25.0602 48.334 0.0325289
23.3247 46.9271 2
21.4106 45.7719 3.97793
22.0951 48.6599 0.0287562
20.4018 47.4994 2
18.7301 46.6348 3.97694
19.4115 48.9874 0.0269416
18.0158 48.0847 2
16.6578 47.6318 3.9767
16.4319 48.606 2
15.455 48.9482 3.97566
17.1953 49.2487 0.0257332
16.1135 50.0968 2
14.6899 50.9274 3.97054
13.9524 53.3911 3.96573
15.5734 52.3534 2
17.0367 51.3295 0.0321315
13.2935 56.1447 3.96318
14.9772 54.9322 2
16.5574 53.8089 0.0351276
12.8561 59.1121 3.96816
14.4795 57.7167 2
16.0372 56.4366 0.0372688
12.6817 62.2976 3.97795
14.2724 60.6737 2
15.7611 59.1835 0.0323921
12.7746 65.6939 4
14.3334 63.8528 2
15.7926 62.1135 0.0296982
14.6714 67.2507 2
16.0905 65.2986 0.0141455
16.6661 68.6801 0
17.6961 17.1918 3.96873
18.9484 15.8141 2
17.5208 14.4002 3.97229
20.2296 14.6294 0.0274749
18.9853 13.1341 2
17.6414 11.4637 3.97553
20.5335 12.0133 0.024469
19.3432 10.2446 2
18.0531 8.34045 3.98718
18.75 5.0241 4
19.9895 7.14909 2
21.1454 9.15293 0.0197431
20.9142 3.86727 2
22.0181 6.08227 0.00988315
23.1494 2.85457 0
29.8279 35.1919 3.86532
31.2181 35.6184 2
32.6526 35.7526 0.442694
22.1208 16.6635 0.0313948
20.3317 16.9946 0.0245164
21.8105 17.9026 2
19.301 18.4461 2
18.1095 20.0015 3.96044
20.9587 19.4378 3.96199
24.2324 18.5232 0.0306502
22.367 19.9701 2
24.698 21.4545 2
22.5157 21.807 3.98202
24.9229 23.235 3.97456
25.8509 26.0324 3.97928
26.6511 23.7903 2
27.1121 21.5795 0.00622637
29.1038 32.4802 3.90925
30.6597 33.0965 2
32.0109 33.9596 0.296658
31.8553 31.3717 0.167392
32.8014 28.3413 0.09174
30.564 29.7282 2
27.5697 29.2349 4.01264
28.2401 26.6575 2
29.0411 24.4972 0.00633791
29.9965 27.4506 0.0224934
27.6895 37.354 3.91353
29.2917 37.4981 2
30.8513 37.5056 0.283019
29.6683 46.4132 0.00427045
29.355 43.0073 0.0936201
29.8041 39.8343 0.133976
27.9015 44.7789 2
27.5411 40.5572 2
25.9729 43.056 3.98939
24.827 39.4486 3.97303
26.4526 46.5073 0.0177393
24.6075 45.0464 2
22.5187 43.8113 3.97718
23.3265 46.9272 0.0253851
21.4073 45.7724 2
19.4749 44.8717 3.97672
20.4024 47.5009 0.023369
18.7302 46.6349 2
17.0027 46.1271 3.97663
18.0152 48.086 0.0231244
16.6592 47.6308 2
15.214 47.6028 3.97625
16.4301 48.6071 0.0235973
15.4571 48.9472 2
13.9969 49.4923 3.97303
16.1111 50.0979 0.0279384
14.6912 50.9266 2
13.0243 51.834 3.96774
12.1972 54.5045 3.96411
13.9525 53.3907 2
15.5723 52.3541 0.0324241
11.5423 57.4488 3.96716
13.2941 56.1445 2
14.977 54.9324 0.0363412
11.1365 60.6239 3.97659
12.8573 59.1114 2
14.4771 57.7168 0.0369311
10.9835 64.0165 4
12.6798 62.2939 2
14.2717 60.6737 0.0311221
12.7745 65.694 2
14.3356 63.8563 0.0182366
14.6715 67.2507 0
16.465 18.6923 3.96169
17.696 17.1904 2
16.1165 15.8114 3.96678
18.9483 15.8158 0.0268116
17.5203 14.3981 2
16.0247 12.8228 3.97262
18.986 13.1329 0.0249836
17.6401 11.4667 2
16.204 9.66417 3.98583
19.3454 10.2437 0.0220577
18.0496 8.34356 2
16.6661 6.31991 4
18.75 5.02404 2
19.9928 7.14714 0.01105
20.9142 3.86727 0
28.2214 34.8334 3.90509
29.7586 35.1644 2
31.2797 35.6405 0.29145
16.8337 21.4375 3.9662
21.8107 17.9038 0.0177665
19.3011 18.4496 0.0412284
20.9572 19.4355 2
18.1068 19.9998 2
19.9046 21.6503 3.97036
22.3709 19.9658 0.0374623
24.6945 21.4654 0.0135715
22.5122 21.8119 2
24.9189 23.2368 2
23.1744 24.6952 3.97379
25.1164 28.6239 3.98129
25.8417 26.0371 2
26.6524 23.794 0.0220351
26.9556 31.8289 3.97949
29.0729 32.4627 2
30.7168 33.1315 0.144012
30.5861 29.7346 0.0658091
27.5819 29.2143 2
28.2543 26.6477 0.00549064
25.5172 36.8556 3.97167
27.6749 37.3644 2
29.3594 37.5066 0.139576
27.9111 44.7363 0.0264092
27.5666 40.5702 0.0611928
25.9533 43.0768 2
24.8077 39.4541 2
23.7162 41.8069 3.98246
22.546 38.5204 3.97843
24.6184 45.0453 0.0219581
22.5186 43.8109 2
20.3349 42.8165 3.976
21.4106 45.7719 0.022073
19.4756 44.8721 2
17.3982 44.3029 3.97606
18.7301 46.6348 0.0230648
17.0041 46.1269 2
15.1688 46.0226 3.9763
16.6578 47.6318 0.0233027
15.2159 47.6018 2
13.5247 47.9572 3.97486
15.455 48.9482 0.0243402
13.9984 49.4915 2
12.253 50.2154 3.96942
14.6899 50.9274 0.0294569
13.025 51.8335 2
11.1957 52.8166 3.96516
10.3332 55.7048 3.96686
12.1973 54.5042 2
13.9524 53.3911 0.0342733
9.70315 58.8469 3.97598
11.5429 57.4482 2
13.2935 56.1447 0.0368185
9.30605 62.2254 4
11.1349 60.6199 2
12.8561 59.1121 0.031837
10.9835 64.0165 2
12.6817 62.2976 0.0220534
12.7746 65.6939 0
15.2489 20.2317 3.96324
16.4666 18.6922 2
14.7656 17.3307 3.96414
17.6961 17.1918 0.0312741
16.1168 15.8099 2
14.4888 14.3153 3.96951
17.5208 14.4002 0.0277098
16.0239 12.8217 2
14.447 11.1162 3.98317
17.6414 11.4637 0.0244701
16.2007 9.66796 2
14.6715 7.74927 4
18.0531 8.34045 0.0128166
16.6661 6.31988 2
18.75 5.0241 0
26.1823 34.3343 3.98034
28.2017 34.8402 2
29.8279 35.1919 0.134684
18.0682 22.3964 3.97285
15.7261 22.9819 3.96952
16.8338 21.4374 2
20.9587 19.4378 0.0380137
18.1095 20.0015 0.0395643
19.9021 21.6479 2
20.0027 24.4817 3.97163
22.5157 21.807 0.0179825
24.9229 23.235 0.0254446
23.1696 24.6938 2
22.4781 27.947 3.97231
24.5169 31.3108 3.97843
25.1215 28.6186 2
25.8509 26.0324 0.0207205
26.9353 31.7941 2
29.1038 32.4802 0.0907525
27.5697 29.2349 -0.0126444
23.2705 36.2872 3.98296
25.5014 36.8555 2
27.6895 37.354 0.0864657
25.9729 43.056 0.0106082
24.827 39.4486 0.026973
23.7013 41.8083 2
22.5369 38.5184 2
21.4115 40.6214 3.97512
20.7783 37.8029 3.97712
22.5187 43.8113 0.0228158
20.3338 42.8178 2
17.8707 42.0427 3.97593
19.4749 44.8717 0.0232824
17.3988 44.3035 2
15.2129 44.1367 3.97585
17.0027 46.1271 0.0233704
15.17 46.0222 2
13.2213 46.2466 3.97577
15.214 47.6028 0.0237503
13.5263 47.9565 2
11.6394 48.5147 3.97114
13.9969 49.4923 0.0269659
12.2542 50.2147 2
10.3255 51.0624 3.96605
13.0243 51.834 0.0322607
11.1963 52.816 2
9.24204 53.8857 3.96666
8.38667 56.9806 3.97663
10.3339 55.7039 2
12.1972 54.5045 0.0358902
7.74927 60.3285 4
9.70188 58.8427 2
11.5423 57.4488 0.0328396
9.306 62.2255 2
11.1365 60.6239 0.0234143
10.9835 64.0165 0
14.0776 21.7963 3.96584
15.2478 20.2311 2
13.4801 18.9265 3.96388
16.465 18.6923 0.0383067
14.7673 17.3299 2
13.0345 15.9042 3.97008
16.1165 15.8114 0.03322
14.489 14.3124 2
12.7845 12.6909 3.9805
16.0247 12.8228 0.0273839
14.444 11.1215 2
12.7746 9.30605 4
16.204 9.66417 0.0141716
14.6715 7.74924 2
16.6661 6.31991 0
23.8585 33.8707 3.98256
26.1604 34.3249 2
28.2214 34.8334 0.0949117
17.9313 24.1274 3.97126
18.0753 22.397 2
14.5685 24.5152 3.97122
15.7284 22.9822 2
16.8337 21.4375 0.0338041
19.4954 27.3146 3.97368
19.9046 21.6503 0.0296376
19.9993 24.4817 2
21.8362 30.7829 3.97516
23.1744 24.6952 0.0262128
22.4794 27.9483 2
24.4909 31.307 2
25.1164 28.6239 0.0187111
26.9556 31.8289 0.0205097
20.9019 35.9605 3.97657
23.2715 36.2882 2
25.5172 36.8556 0.0283253
23.7162 41.8069 0.0175369
22.546 38.5204 0.0215734
21.4168 40.6223 2
20.7786 37.8013 2
18.623 38.995 3.97706
20.3349 42.8165 0.0239955
17.8701 42.043 2
15.1983 41.8769 3.97624
17.3982 44.3029 0.0239375
15.2133 44.1368 2
12.9835 44.3471 3.9761
15.1688 46.0226 0.0236955
13.223 46.2459 2
11.1553 46.7017 3.97266
13.5247 47.9572 0.0251417
11.641 48.514 2
9.59413 49.2239 3.96679
12.253 50.2154 0.0305792
10.3259 51.0618 2
8.27474 52.0001 3.96647
11.1957 52.8166 0.0348435
9.24265 53.8846 2
7.19567 55.0319 3.97757
6.31991 58.3339 4
8.38574 56.9766 2
10.3332 55.7048 0.0331447
7.74924 60.3285 2
9.70315 58.8469 0.024019
9.30605 62.2254 0
13.4408 25.4153 3.97479
12.9795 23.3254 3.96862
14.0771 21.7961 2
12.285 20.5743 3.96445
15.2489 20.2317 0.0367582
13.4797 18.9256 2
11.6655 17.5788 3.96904
14.7656 17.3307 0.0358559
13.0367 15.9035 2
11.2228 14.3776 3.97624
14.4888 14.3153 0.0304892
12.7822 12.6959 2
10.9835 10.9835 4
14.447 11.1162 0.0168344
12.7745 9.306 2
14.6715 7.74927 0
21.2638 33.4741 3.97573
23.861 33.8589 2
26.1823 34.3343 0.0196635
16.264 26.4846 3.97311
17.9356 24.1278 2
18.0682 22.3964 0.027148
14.5684 24.5156 2
15.7261 22.9819 0.0304798
18.892 30.2828 3.97516
19.4952 27.3151 2
20.0027 24.4817 0.0283669
21.8491 30.7836 2
22.4781 27.947 0.0276857
24.5169 31.3108 0.0215717
18.2326 35.9907 3.97764
20.9043 35.9609 2
23.2705 36.2872 0.0170376
21.4115 40.6214 0.0248779
20.7783 37.8029 0.0228849
18.621 38.9941 2
14.6999 39.1649 3.97714
17.8707 42.0427 0.0240748
15.1981 41.8766 2
12.68 42.244 3.97631
15.2129 44.1367 0.0241475
12.9848 44.3465 2
10.7416 44.7757 3.97425
13.2213 46.2466 0.0242345
11.1573 46.701 2
8.9805 47.3048 3.96739
11.6394 48.5147 0.0288592
9.5944 49.2233 2
7.44139 50.034 3.96625
10.3255 51.0624 0.0339517
8.27518 51.9991 2
6.13629 53.0074 3.97798
9.24204 53.8857 0.0333399
7.19512 55.0287 2
5.0241 56.25 4
6.31988 58.3339 2
8.38667 56.9806 0.0233695
7.74927 60.3285 0
13.7133 26.8699 3.97525
12.09 24.8274 3.97091
13.44 25.4155 2
11.2099 22.2582 3.96546
12.9803 23.3257 2
14.0776 21.7963 0.0341612
12.2856 20.5739 2
10.3979 19.3287 3.96776
13.4801 18.9265 0.0361159
11.6676 17.5787 2
9.76333 16.1606 3.97636
13.0345 15.9042 0.0299203
11.221 14.3828 2
9.30607 12.7746 4
12.7845 12.6909 0.0195033
10.9835 10.9835 2
12.7746 9.30605 0
18.3979 33.1771 3.97653
21.2641 33.4768 2
23.8585 33.8707 0.0174435
15.8879 29.7173 3.97546
16.2648 26.4849 2
17.9313 24.1274 0.0287354
14.5685 24.5152 0.0287838
18.8907 30.2831 2
19.4954 27.3146 0.0263163
21.8362 30.7829 0.0248421
15.3261 36.0346 3.97727
18.232 35.9911 2
20.9019 35.9605 0.0234323
12.9115 37.8297 3.97725
18.623 38.995 0.0229419
14.6995 39.1647 2
12.1839 40.1244 3.97688
15.1983 41.8769 0.0237621
12.6812 42.2436 2
10.3399 42.7582 3.97536
12.9835 44.3471 0.023901
10.7434 44.7752 2
8.45804 45.3092 3.96826
11.1553 46.7017 0.0273403
8.98039 47.3043 2
6.7322 47.9994 3.96629
9.59413 49.2239 0.0332131
7.44171 50.033 2
5.21302 50.9109 3.9777
8.27474 52.0001 0.0335291
6.13603 53.0052 2
3.86727 54.0858 4
7.19567 55.0319 0.0224297
5.02404 56.25 2
6.31991 58.3339 0
13.1977 29.0838 3.97509
11.5353 26.5246 3.97148
13.7127 26.8701 2
10.2684 23.9877 3.96682
12.0918 24.8278 2
13.4408 25.4153 0.0252105
9.25055 21.1435 3.9671
11.2097 22.258 2
12.9795 23.3254 0.0313774
12.285 20.5743 0.0355532
10.3997 19.329 2
8.41922 18.0313 3.9762
11.6655 17.5788 0.0309585
9.7621 16.1656 2
7.74928 14.6715 4
11.2228 14.3776 0.0237585
9.30602 12.7745 2
10.9835 10.9835 0
14.876 32.9138 3.97683
18.3965 33.1762 2
21.2638 33.4741 0.0242694
15.8889 29.7177 2
16.264 26.4846 0.0268899
18.892 30.2828 0.0248444
13.2072 36.2213 3.97693
15.3253 36.0344 2
18.2326 35.9907 0.0223604
12.9123 37.8295 2
11.5189 38.3079 3.97718
14.6999 39.1649 0.0228575
12.1859 40.1242 2
9.91638 40.7428 3.97603
12.68 42.244 0.0236908
10.3427 42.7575 2
8.00438 43.2611 3.96882
10.7416 44.7757 0.0257503
8.45914 45.3087 2
6.13792 45.9046 3.96652
8.9805 47.3048 0.0326073
6.73253 47.9986 2
4.42436 48.7515 3.97727
7.44139 50.034 0.0337523
5.21297 50.9095 2
2.85457 51.8506 4
6.13629 53.0074 0.022023
3.86727 54.0858 2
5.0241 56.25 0
12.3297 31.2961 3.97625
10.9531 28.4479 3.97195
13.1982 29.0843 2
9.48566 25.8155 3.96753
11.5366 26.5251 2
13.7133 26.8699 0.0247504
8.23726 23.0259 3.96684
10.2688 23.9878 2
12.09 24.8274 0.0290872
7.20143 19.9803 3.97719
9.25194 21.1439 2
11.2099 22.2582 0.0345394
10.3979 19.3287 0.0322424
8.41861 18.0358 2
6.31992 16.6661 4
9.76333 16.1606 0.0236353
7.74926 14.6714 2
9.30607 12.7746 0
12.3673 34.3209 3.97676
14.876 32.9146 2
18.3979 33.1771 0.0234699
15.8879 29.7173 0.024542
11.0589 36.6195 3.97688
13.2076 36.2212 2
15.3261 36.0346 0.0227288
12.9115 37.8297 0.0227518
11.5213 38.3074 2
9.49983 38.8199 3.97624
12.1839 40.1244 0.0231244
9.91889 40.7423 2
7.61286 41.2057 3.96899
10.3399 42.7582 0.0246433
8.0041 43.2607 2
5.64954 43.7675 3.96675
8.45804 45.3092 0.0317428
6.13818 45.9039 2
3.76976 46.537 3.97716
6.7322 47.9994 0.033709
4.42456 48.7507 2
1.99014 49.554 4
5.21302 50.9109 0.0222973
2.85451 51.8506 2
3.86727 54.0858 0
11.1487 32.9462 3.97699
10.2617 30.4086 3.97283
12.3309 31.2967 2
8.79575 27.747 3.96787
10.9546 28.4484 2
13.1977 29.0838 0.0249137
7.36239 24.9839 3.96658
9.48568 25.8157 2
11.5353 26.5246 0.0285239
6.11842 22.0029 3.97805
8.23813 23.0264 2
10.2684 23.9877 0.0331785
5.02411 18.75 4
7.20125 19.9836 2
9.25055 21.1435 0.0329025
8.41922 18.0313 0.0237973
6.3199 16.6661 2
7.74928 14.6715 0
10.6513 35.0146 3.97655
12.3683 34.3212 2
14.876 32.9138 0.0231747
9.16234 36.9879 3.97606
11.0616 36.6193 2
13.2072 36.2213 0.0230694
11.5189 38.3079 0.0228231
9.50235 38.8196 2
7.28871 39.1796 3.96937
9.91638 40.7428 0.0239696
7.61351 41.2054 2
5.26433 41.6135 3.96707
8.00438 43.2611 0.031179
5.64978 43.767 2
3.24736 44.2817 3.97741
6.13792 45.9046 0.033484
3.77006 46.5364 2
1.27781 47.2057 4
4.42436 48.7515 0.0227256
1.99012 49.554 2
2.85457 51.8506 0
10.2893 33.9001 3.97617
9.54051 32.1736 3.97382
11.151 32.9468 2
8.13922 29.7074 3.96832
10.2637 30.4091 2
12.3297 31.2961 0.0237488
6.60549 27.0094 3.96662
8.79574 27.7472 2
10.9531 28.4479 0.0280534
5.17377 24.0951 3.97798
7.36289 24.9843 2
9.48566 25.8155 0.0324694
3.86728 20.9142 4
6.11845 22.0047 2
8.23726 23.0259 0.0331621
5.02406 18.75 2
7.20143 19.9803 0.0228132
6.31992 16.6661 0
8.98166 35.2876 3.97588
10.654 35.0147 2
12.3673 34.3209 0.0232367
7.06527 37.2063 3.9696
9.1647 36.9879 2
11.0589 36.6195 0.0231247
9.49983 38.8199 0.0237649
7.2899 39.1794 2
4.9917 39.4672 3.96746
7.61286 41.2057 0.0310123
5.26494 41.6131 2
2.85765 42.002 3.97772
5.64954 43.7675 0.0332534
3.24753 44.2812 2
0.720592 44.8159 4
3.76976 46.537 0.022844
1.27778 47.2057 2
1.99014 49.554 0
9.02616 33.7107 3.97539
10.2923 33.9004 2
7.57009 31.6178 3.96887
9.54302 32.174 2
11.1487 32.9462 0.0230135
5.9501 29.0703 3.96691
8.13917 29.7076 2
10.2617 30.4086 0.0271677
4.36126 26.2475 3.97765
6.60582 27.0098 2
8.79575 27.747 0.0321337
2.85458 23.1494 4
5.17393 24.0959 2
7.36239 24.9839 0.0334215
3.86728 20.9142 2
6.11842 22.0029 0.021954
5.02411 18.75 0
7.01322 35.309 3.96968
8.98392 35.2877 2
10.6513 35.0146 0.0234464
4.84182 37.3399 3.96779
7.06671 37.2061 2
9.16234 36.9879 0.0239436
7.28871 39.1796 0.0306278
4.9923 39.467 2
2.60559 39.7136 3.97792
5.26433 41.6135 0.0329339
2.85812 42.0018 2
0.320823 42.3947 4
3.24736 44.2817 0.0225907
0.720551 44.8159 2
1.27781 47.2057 0
7.17857 33.4666 3.96945
9.02842 33.711 2
10.2893 33.9001 0.0238343
5.4205 31.1341 3.96738
7.57049 31.618 2
9.54051 32.1736 0.0261758
3.68274 28.4434 3.97751
5.95042 29.0707 2
8.13922 29.7074 0.0316849
1.99015 25.446 4
4.36151 26.2478 2
6.60549 27.0094 0.0333763
2.85453 23.1494 2
5.17377 24.0951 0.0220178
3.86728 20.9142 0
4.85611 35.2519 3.96776
7.01386 35.309 2
8.98166 35.2876 0.024123
2.49703 37.4283 3.97869
4.84192 37.3399 2
7.06527 37.2063 0.0303999
4.9917 39.4672 0.0325414
2.60617 39.7139 2
0.080333 39.9526 4
2.85765 42.002 0.0222802
0.320817 42.3947 2
0.720592 44.8159 0
5.0495 33.1906 3.96778
7.17918 33.4667 2
9.02616 33.7107 0.0246099
3.14685 30.6662 3.97778
5.4208 31.1346 2
7.57009 31.6178 0.0311335
1.27793 27.7943 4
3.68311 28.4437 2
5.9501 29.0703 0.0330918
1.99013 25.446 2
4.36126 26.2475 0.0223537
2.85458 23.1494 0
2.54912 35.1589 3.97843
4.85684 35.2521 2
7.01322 35.309 0.0303167
0 37.5 4
2.49713 37.4286 2
4.84182 37.3399 0.0322059
2.60559 39.7136 0.0220802
0.0802903 39.9526 2
0.320823 42.3947 0
2.76676 32.9057 3.97858
5.04977 33.191 2
7.17857 33.4666 0.0305526
0.721173 30.1842 4
3.14724 30.6666 2
5.4205 31.1341 0.0326223
1.27779 27.7943 2
3.68274 28.4434 0.0224914
1.99015 25.446 0
0.0806499 35.0474 4
2.5498 35.1593 2
4.85611 35.2519 0.0322365
0 37.5 2
2.49703 37.4283 0.0213121
0.080333 39.9526 0
0.32156 32.6054 4
2.76696 32.9063 2
5.0495 33.1906 0.0322236
0.72056 30.1841 2
3.14685 30.6662 0.0222221
1.27793 27.7943 0
0.0802889 35.0474 2
2.54912 35.1589 0.0215734
0 37.5 0
0.320817 32.6053 2
2.76676 32.9057 0.0214229
0.721173 30.1842 0
0.0806499 35.0474 0
0.32156 32.6054 0
CELLS 1910 17190
8 18 6 25 56 2 0 5 16
8 57 23 6 18 17 4 0 2
8 78 36 9 29 31 11 1 7
8 31 11 1 7 79 37 10 30
8 110 57 18 50 48 17 2 14
8 50 18 56 111 14 2 16 49
8 116 62 22 55 52 20 3 15
8 56 25 67 118 16 5 24 53
8 119 63 23 57 54 21 4 17
8 55 22 63 119 15 3 21 54
8 58 26 68 121 18 6 25 56
8 122 65 26 58 57 23 6 18
8 73 31 7 27 142 79 30 71
8 143 78 29 72 73 31 7 27
8 83 147 76 34 32 74 28 8
8 84 148 78 36 33 75 29 9
8 76 34 8 28 148 84 33 75
8 37 79 150 86 10 30 77 35
8 151 87 36 78 80 38 11 31
8 80 38 11 31 152 88 37 79
8 175 100 42 94 96 44 12 40
8 44 96 176 101 12 40 95 43
8 101 176 98 46 43 95 41 13
8 46 98 178 103 13 41 97 45
8 178 103 45 97 147 83 32 74
8 189 116 55 109 106 52 15 47
8 111 56 118 191 49 16 53 107
8 192 119 57 110 108 54 17 48
8 109 55 119 192 47 15 54 108
8 194 122 58 112 110 57 18 50
8 112 58 121 195 50 18 56 111
8 115 61 19 51 197 124 59 113
8 115 61 125 198 51 19 60 114
8 198 125 62 116 114 60 20 52
8 200 127 64 120 116 62 22 55
8 118 67 132 202 53 24 66 117
8 121 68 133 203 56 25 67 118
8 120 64 128 204 55 22 63 119
8 204 128 65 122 119 63 23 57
8 206 134 68 121 123 69 26 58
8 123 69 26 58 207 131 65 122
8 226 147 74 138 140 76 28 70
8 229 148 75 139 143 78 29 72
8 140 76 28 70 229 148 75 139
8 142 79 30 71 231 150 77 141
8 144 80 31 73 232 152 79 142
8 233 151 78 143 144 80 31 73
8 150 86 35 77 235 154 81 145
8 235 154 81 145 146 82 39 91
8 146 82 39 91 236 155 90 165
8 238 157 83 147 149 85 34 76
8 239 158 84 148 151 87 36 78
8 149 85 34 76 239 158 84 148
8 152 88 37 79 241 160 86 150
8 242 161 87 151 153 89 38 80
8 153 89 38 80 243 162 88 152
8 171 98 41 92 265 178 97 169
8 265 178 97 169 226 147 74 138
8 172 96 40 93 266 176 95 170
8 266 176 95 170 171 98 41 92
8 269 175 94 173 172 96 40 93
8 271 180 99 174 175 100 42 94
8 197 124 59 113 271 180 99 174
8 272 181 100 175 177 102 44 96
8 273 182 101 176 179 104 46 98
8 177 102 44 96 273 182 101 176
8 179 104 46 98 275 184 103 178
8 275 184 103 178 238 157 83 147
8 188 115 51 105 283 197 113 186
8 188 115 198 284 105 51 114 187
8 284 198 116 189 187 114 52 106
8 286 200 120 193 189 116 55 109
8 191 118 202 288 107 53 117 190
8 195 121 203 289 111 56 118 191
8 193 120 204 290 109 55 119 192
8 290 204 122 194 192 119 57 110
8 196 123 58 112 292 207 122 194
8 293 206 121 195 196 123 58 112
8 199 126 61 115 297 211 124 197
8 298 212 127 200 198 125 62 116
8 199 126 212 298 115 61 125 198
8 205 129 64 120 300 214 127 200
8 301 217 130 201 202 132 66 117
8 209 136 168 264 301 217 130 201
8 302 219 132 202 203 133 67 118
8 303 220 133 203 206 134 68 121
8 205 129 215 304 120 64 128 204
8 304 215 131 207 204 128 65 122
8 306 221 134 206 208 135 69 123
8 208 135 69 123 307 218 131 207
8 210 137 167 263 309 223 136 209
8 328 238 147 226 230 149 76 140
8 228 146 91 166 329 236 165 260
8 231 150 77 141 330 235 145 227
8 330 235 145 227 228 146 91 166
8 332 239 148 229 233 151 78 143
8 230 149 76 140 332 239 148 229
8 232 152 79 142 334 241 150 231
8 234 153 80 144 335 243 152 232
8 336 242 151 233 234 153 80 144
8 236 155 90 165 338 245 164 259
8 241 160 86 150 339 246 154 235
8 339 246 154 235 237 156 82 146
8 237 156 82 146 340 247 155 236
8 342 249 157 238 240 159 85 149
8 343 250 158 239 242 161 87 151
8 240 159 85 149 343 250 158 239
8 243 162 88 152 345 252 160 241
8 244 163 253 346 153 89 161 242
8 244 163 89 153 347 254 162 243
8 311 224 261 371 210 137 167 263
8 263 167 262 372 209 136 168 264
8 267 179 98 171 375 275 178 265
8 375 275 178 265 328 238 147 226
8 376 273 176 266 267 179 98 171
8 268 177 96 172 376 273 176 266
8 379 272 175 269 268 177 96 172
8 380 271 174 270 269 175 94 173
8 283 197 113 186 380 271 174 270
8 381 277 180 271 272 181 100 175
8 297 211 124 197 381 277 180 271
8 382 278 181 272 274 183 102 177
8 274 183 102 177 383 279 182 273
8 383 279 182 273 276 185 104 179
8 385 281 184 275 342 249 157 238
8 276 185 104 179 385 281 184 275
8 285 199 115 188 393 297 197 283
8 394 298 200 286 284 198 116 189
8 285 199 298 394 188 115 198 284
8 291 205 120 193 396 300 200 286
8 397 301 201 287 288 202 117 190
8 295 209 264 374 397 301 201 287
8 398 302 202 288 289 203 118 191
8 399 303 203 289 293 206 121 195
8 291 205 304 400 193 120 204 290
8 400 304 207 292 290 204 122 194
8 294 208 123 196 402 307 207 292
8 403 306 206 293 294 208 123 196
8 296 210 263 373 405 309 209 295
8 408 312 213 299 297 211 126 199
8 299 213 313 409 199 126 212 298
8 409 313 214 300 298 212 127 200
8 305 216 129 205 411 315 214 300
8 412 318 217 301 302 219 132 202
8 309 223 136 209 412 318 217 301
8 413 320 219 302 303 220 133 203
8 306 221 321 414 206 134 220 303
8 307 218 131 207 415 316 215 304
8 305 216 316 415 205 129 215 304
8 417 322 221 306 308 222 135 208
8 308 222 135 208 418 319 218 307
8 310 225 137 210 420 325 223 309
8 423 326 224 311 310 225 137 210
8 329 236 165 260 441 338 259 368
8 442 342 238 328 333 240 149 230
8 331 237 146 228 443 340 236 329
8 334 241 150 231 444 339 235 330
8 444 339 235 330 331 237 146 228
8 446 343 239 332 336 242 151 233
8 333 240 149 230 446 343 239 332
8 335 243 152 232 448 345 241 334
8 337 244 153 234 449 347 243 335
8 337 244 346 450 234 153 242 336
8 338 245 164 259 452 349 258 367
8 340 247 155 236 453 350 245 338
8 345 252 160 241 454 351 246 339
8 454 351 246 339 341 248 156 237
8 341 248 156 237 455 352 247 340
8 240 159 251 344 342 249 354 457
8 242 161 253 346 343 250 355 458
8 343 250 355 458 240 159 251 344
8 347 254 162 243 460 357 252 345
8 348 255 358 461 244 163 253 346
8 348 255 163 244 462 359 254 347
8 473 360 257 365 363 256 364 482
8 452 349 258 367 365 257 366 485
8 422 324 369 488 311 224 261 371
8 371 261 370 490 263 167 262 372
8 407 311 371 491 296 210 263 373
8 373 263 372 492 295 209 264 374
8 493 385 275 375 442 342 238 328
8 377 276 179 267 493 385 275 375
8 378 274 177 268 494 383 273 376
8 494 383 273 376 377 276 179 267
8 497 382 272 379 378 274 177 268
8 498 381 271 380 379 272 175 269
8 393 297 197 283 498 381 271 380
8 499 387 277 381 382 278 181 272
8 408 312 211 297 499 387 277 381
8 500 388 278 382 384 280 183 274
8 501 389 279 383 386 282 185 276
8 384 280 183 274 501 389 279 383
8 386 282 185 276 503 391 281 385
8 503 391 281 385 457 354 249 342
8 511 408 299 395 393 297 199 285
8 395 299 409 512 285 199 298 394
8 512 409 300 396 394 298 200 286
8 401 305 205 291 514 411 300 396
8 515 412 301 397 398 302 202 288
8 405 309 209 295 515 412 301 397
8 516 413 302 398 399 303 203 289
8 403 306 414 517 293 206 303 399
8 402 307 207 292 518 415 304 400
8 401 305 415 518 291 205 304 400
8 404 308 208 294 520 418 307 402
8 521 417 306 403 404 308 208 294
8 406 310 210 296 523 420 309 405
8 526 423 311 407 406 310 210 296
8 410 314 213 299 527 424 312 408
8 528 425 315 411 409 313 214 300
8 410 314 425 528 299 213 313 409
8 416 317 216 305 530 427 315 411
8 531 430 318 412 413 320 219 302
8 420 325 223 309 531 430 318 412
8 532 432 320 413 414 321 220 303
8 417 322 433 533 306 221 321 414
8 418 319 218 307 534 428 316 415
8 416 317 428 534 305 216 316 415
8 419 323 434 536 308 222 322 417
8 419 323 222 308 537 431 319 418
8 421 327 225 310 539 438 325 420
8 421 327 439 541 310 225 326 423
8 543 437 324 422 423 326 224 311
8 441 338 259 368 559 452 367 486
8 443 340 236 329 560 453 338 441
8 333 240 344 447 442 342 457 561
8 445 341 237 331 562 455 340 443
8 448 345 241 334 563 454 339 444
8 563 454 339 444 445 341 237 331
8 336 242 346 450 446 343 458 565
8 446 343 458 565 333 240 344 447
8 449 347 243 335 567 460 345 448
8 451 348 244 337 568 462 347 449
8 451 348 461 569 337 244 346 450
8 570 463 349 452 473 360 257 365
8 453 350 245 338 570 463 349 452
8 455 352 247 340 571 464 350 453
8 460 357 252 345 572 465 351 454
8 572 465 351 454 456 353 248 341
8 456 353 248 341 573 466 352 455
8 344 251 356 459 457 354 468 575
8 458 355 469 576 344 251 356 459
8 346 253 358 461 458 355 469 576
8 462 359 254 347 578 471 357 460
8 348 255 359 462 461 358 472 579
8 591 474 360 473 475 361 256 363
8 475 361 256 363 594 477 362 479
8 363 256 364 482 479 362 480 603
8 590 473 365 484 481 363 482 605
8 482 364 257 365 606 483 366 485
8 559 452 367 486 484 365 485 607
8 542 436 487 609 422 324 369 488
8 525 422 488 611 407 311 371 491
8 488 369 489 612 371 261 370 490
8 491 371 490 613 373 263 372 492
8 495 386 276 377 614 503 385 493
8 614 503 385 493 561 457 342 442
8 615 501 383 494 495 386 276 377
8 496 384 274 378 615 501 383 494
8 618 500 382 497 496 384 274 378
8 619 499 381 498 497 382 272 379
8 511 408 297 393 619 499 381 498
8 620 505 387 499 500 388 278 382
8 527 424 312 408 620 505 387 499
8 502 390 506 621 384 280 388 500
8 622 507 389 501 504 392 282 386
8 502 390 280 384 622 507 389 501
8 504 392 282 386 624 509 391 503
8 624 509 391 503 575 468 354 457
8 513 410 299 395 630 527 408 511
8 631 528 411 514 512 409 300 396
8 513 410 528 631 395 299 409 512
8 519 416 305 401 633 530 411 514
8 634 531 412 515 516 413 302 398
8 523 420 309 405 634 531 412 515
8 635 532 413 516 517 414 303 399
8 521 417 533 636 403 306 414 517
8 520 418 307 402 637 534 415 518
8 519 416 534 637 401 305 415 518
8 522 419 308 404 639 537 418 520
8 522 419 536 640 404 308 417 521
8 524 421 310 406 642 539 420 523
8 524 421 541 644 406 310 423 526
8 646 543 422 525 526 423 311 407
8 529 426 314 410 647 544 424 527
8 528 425 545 648 411 315 427 530
8 529 426 545 648 410 314 425 528
8 535 429 317 416 649 546 427 530
8 650 548 430 531 532 432 320 413
8 539 438 325 420 650 548 430 531
8 533 433 550 651 414 321 432 532
8 536 434 551 652 417 322 433 533
8 537 431 319 418 653 547 428 534
8 535 429 547 653 416 317 428 534
8 538 435 552 654 419 323 434 536
8 538 435 323 419 655 549 431 537
8 540 440 327 421 657 556 438 539
8 540 440 557 659 421 327 439 541
8 541 439 555 660 423 326 437 543
8 661 554 436 542 543 437 324 422
8 676 570 452 559 590 473 365 484
8 560 453 338 441 676 570 452 559
8 562 455 340 443 677 571 453 560
8 447 344 459 566 561 457 575 678
8 564 456 341 445 679 573 455 562
8 567 460 345 448 680 572 454 563
8 680 572 454 563 564 456 341 445
8 565 458 576 682 447 344 459 566
8 450 346 461 569 565 458 576 682
8 568 462 347 449 684 578 460 567
8 451 348 462 568 569 461 579 685
8 686 580 463 570 591 474 360 473
8 571 464 350 453 686 580 463 570
8 573 466 352 455 687 581 464 571
8 572 465 582 688 460 357 471 578
8 574 467 582 688 456 353 465 572
8 574 467 353 456 689 583 466 573
8 459 356 470 577 575 468 585 691
8 576 469 586 692 459 356 470 577
8 461 358 472 579 576 469 586 692
8 462 359 471 578 579 472 588 694
8 704 591 473 590 593 475 363 481
8 595 476 592 705 475 361 474 591
8 593 475 363 481 707 594 479 602
8 594 477 362 479 709 598 478 600
8 595 476 361 475 711 597 477 594
8 479 362 480 603 600 478 601 720
8 481 363 482 605 602 479 603 722
8 603 480 364 482 723 604 483 606
8 605 482 365 484 724 606 485 607
8 656 553 608 726 542 436 487 609
8 645 542 609 728 525 422 488 611
8 609 487 610 729 488 369 489 612
8 611 488 612 730 491 371 490 613
8 616 504 386 495 731 624 503 614
8 731 624 503 614 678 575 457 561
8 732 622 501 615 616 504 386 495
8 617 502 384 496 732 622 501 615
8 617 502 621 735 496 384 500 618
8 736 620 499 619 618 500 382 497
8 630 527 408 511 736 620 499 619
8 621 506 626 737 500 388 505 620
8 647 544 424 527 737 626 505 620
8 623 508 627 738 502 390 506 621
8 623 508 390 502 739 628 507 622
8 625 510 628 739 504 392 507 622
8 740 629 509 624 691 585 468 575
8 625 510 392 504 740 629 509 624
8 632 529 410 513 744 647 527 630
8 631 528 648 745 514 411 530 633
8 632 529 648 745 513 410 528 631
8 638 535 416 519 746 649 530 633
8 747 650 531 634 635 532 413 516
8 642 539 420 523 747 650 531 634
8 636 533 651 748 517 414 532 635
8 640 536 652 749 521 417 533 636
8 639 537 418 520 750 653 534 637
8 638 535 653 750 519 416 534 637
8 641 538 419 522 751 655 537 639
8 641 538 654 752 522 419 536 640
8 643 540 421 524 753 657 539 642
8 643 540 659 755 524 421 541 644
8 644 541 660 757 526 423 543 646
8 758 661 542 645 646 543 422 525
8 529 426 544 647 648 545 662 759
8 530 427 545 648 649 546 663 760
8 535 429 546 649 653 547 664 761
8 762 666 548 650 651 550 432 532
8 657 556 438 539 762 666 548 650
8 652 551 668 763 533 433 550 651
8 654 552 669 764 536 434 551 652
8 655 549 431 537 765 665 547 653
8 538 435 549 655 654 552 667 766
8 661 554 671 768 542 436 553 656
8 658 558 440 540 769 674 556 657
8 658 558 675 770 540 440 557 659
8 659 557 673 771 541 439 555 660
8 660 555 672 772 543 437 554 661
8 788 686 570 676 704 591 473 590
8 677 571 453 560 788 686 570 676
8 679 573 455 562 789 687 571 677
8 566 459 577 683 678 575 691 790
8 681 574 456 564 791 689 573 679
8 680 572 688 792 567 460 578 684
8 681 574 688 792 564 456 572 680
8 682 576 692 794 566 459 577 683
8 569 461 579 685 682 576 692 794
8 568 462 578 684 685 579 694 796
8 687 581 464 571 798 696 580 686
8 798 696 580 686 705 592 474 591
8 689 583 466 573 799 697 581 687
8 688 582 698 800 578 471 588 694
8 690 584 698 800 574 467 582 688
8 690 584 467 574 801 699 583 689
8 693 587 701 803 577 470 585 691
8 693 587 470 577 804 702 586 692
8 695 589 702 804 579 472 586 692
8 695 589 472 579 805 703 588 694
8 708 595 705 813 593 475 591 704
8 710 596 706 814 595 476 592 705
8 707 594 479 602 816 709 600 719
8 708 595 475 593 817 711 594 707
8 709 598 478 600 819 715 599 717
8 711 597 477 594 820 714 598 709
8 710 596 476 595 822 713 597 711
8 600 478 601 720 717 599 718 832
8 602 479 603 722 719 600 720 834
8 720 601 480 603 835 721 604 723
8 722 603 482 605 836 723 606 724
8 767 670 725 839 656 553 608 726
8 756 656 726 841 645 542 609 728
8 726 608 727 842 609 487 610 729
8 728 609 729 843 611 488 612 730
8 844 740 624 731 790 691 575 678
8 733 625 504 616 844 740 624 731
8 734 623 502 617 845 739 622 732
8 733 625 739 845 616 504 622 732
8 734 623 738 846 617 502 621 735
8 735 621 737 847 618 500 620 736
8 744 647 527 630 847 737 620 736
8 621 506 627 738 737 626 741 848
8 647 544 626 737 759 662 741 848
8 623 508 628 739 738 627 742 849
8 740 629 585 691 850 743 700 802
8 625 510 629 740 739 628 743 850
8 632 529 647 744 745 648 759 854
8 633 530 648 745 746 649 760 855
8 638 535 649 746 750 653 761 856
8 857 762 650 747 748 651 532 635
8 753 657 539 642 857 762 650 747
8 749 652 763 858 636 533 651 748
8 752 654 764 859 640 536 652 749
8 751 655 537 639 860 765 653 750
8 641 538 655 751 752 654 766 861
8 754 658 540 643 862 769 657 753
8 754 658 770 863 643 540 659 755
8 755 659 771 864 644 541 660 757
8 758 661 768 866 645 542 656 756
8 757 660 772 867 646 543 661 758
8 759 662 773 868 648 545 663 760
8 649 546 663 760 761 664 774 871
8 765 665 547 653 872 775 664 761
8 873 777 666 762 763 668 550 651
8 769 674 556 657 873 777 666 762
8 764 669 779 874 652 551 668 763
8 654 552 667 766 764 669 778 875
8 655 549 665 765 766 667 776 876
8 768 671 782 877 656 553 670 767
8 772 672 783 878 661 554 671 768
8 658 558 674 769 770 675 786 879
8 659 557 675 770 771 673 785 881
8 882 784 672 772 771 673 555 660
8 789 687 571 677 897 798 686 788
8 897 798 686 788 813 705 591 704
8 791 689 573 679 898 799 687 789
8 795 693 803 900 683 577 691 790
8 793 690 574 681 901 801 689 791
8 792 688 800 902 684 578 694 796
8 793 690 800 902 681 574 688 792
8 795 693 577 683 903 804 692 794
8 797 695 804 903 685 579 692 794
8 797 695 579 685 904 805 694 796
8 905 806 697 799 798 696 581 687
8 814 706 806 905 705 592 696 798
8 689 583 697 799 801 699 808 907
8 800 698 809 908 694 588 703 805
8 690 584 699 801 800 698 809 908
8 803 701 810 909 691 585 700 802
8 693 587 702 804 803 701 811 910
8 695 589 703 805 804 702 812 911
8 818 710 814 919 708 595 705 813
8 821 712 815 920 710 596 706 814
8 816 709 600 719 922 819 717 831
8 817 711 594 707 923 820 709 816
8 818 710 595 708 924 822 711 817
8 819 715 599 717 926 827 716 829
8 820 714 598 709 927 826 715 819
8 929 825 713 822 820 714 597 711
8 821 712 596 710 930 824 713 822
8 717 599 718 832 829 716 830 942
8 719 600 720 834 831 717 832 944
8 832 718 601 720 945 833 721 835
8 834 720 603 722 946 835 723 836
8 869 780 838 950 767 670 725 839
8 865 767 839 952 756 656 726 841
8 839 725 840 953 726 608 727 842
8 841 726 842 954 728 609 729 843
8 844 740 691 790 955 850 802 899
8 733 625 740 844 845 739 850 955
8 734 623 739 845 846 738 849 956
8 735 621 738 846 847 737 848 957
8 744 647 737 847 854 759 848 957
8 738 627 742 849 848 741 851 958
8 848 741 851 958 759 662 773 868
8 850 743 700 802 959 852 807 906
8 849 742 628 739 959 852 743 850
8 854 759 868 965 745 648 760 855
8 746 649 760 855 856 761 871 966
8 860 765 653 750 967 872 761 856
8 968 873 762 857 858 763 651 748
8 862 769 657 753 968 873 762 857
8 859 764 874 969 749 652 763 858
8 752 654 766 861 859 764 875 970
8 751 655 765 860 861 766 876 971
8 754 658 769 862 863 770 879 972
8 755 659 770 863 864 771 881 974
8 976 882 772 867 864 771 660 757
8 866 768 877 977 756 656 767 865
8 867 772 878 978 758 661 768 866
8 760 663 773 868 871 774 883 980
8 870 781 837 948 982 890 780 869
8 982 890 780 869 877 782 670 767
8 761 664 774 871 872 775 884 984
8 876 776 665 765 985 885 775 872
8 873 777 668 763 986 887 779 874
8 769 674 777 873 879 786 887 986
8 764 669 778 875 874 779 888 987
8 766 667 776 876 875 778 886 988
8 878 783 892 989 768 671 782 877
8 878 783 672 772 990 893 784 882
8 880 787 675 770 991 896 786 879
8 880 787 895 992 770 675 785 881
8 881 785 894 993 771 673 784 882
8 1006 905 799 898 897 798 687 789
8 919 814 905 1006 813 705 798 897
8 791 689 799 898 901 801 907 1007
8 900 803 909 1009 790 691 802 899
8 795 693 804 903 900 803 910 1010
8 902 800 908 1011 796 694 805 904
8 793 690 801 901 902 800 908 1011
8 797 695 805 904 903 804 911 1012
8 799 697 806 905 907 808 912 1013
8 920 815 912 1013 814 706 806 905
8 802 700 810 909 906 807 913 1014
8 801 699 808 907 908 809 914 1015
8 805 703 809 908 911 812 915 1016
8 803 701 811 910 909 810 916 1017
8 911 812 917 1018 804 702 811 910
8 925 821 920 1030 818 710 814 919
8 928 823 921 1031 821 712 815 920
8 922 819 717 831 1033 926 829 941
8 923 820 709 816 1034 927 819 922
8 1035 929 822 924 923 820 711 817
8 925 821 710 818 1036 930 822 924
8 1038 933 825 929 927 826 714 820
8 926 827 716 829 1039 935 828 939
8 927 826 715 819 1040 934 827 926
8 928 823 712 821 1041 931 824 930
8 1042 932 824 930 929 825 713 822
8 829 716 830 942 939 828 940 1058
8 831 717 832 944 941 829 942 1060
8 942 830 718 832 1061 943 833 945
8 944 832 720 834 1062 945 835 946
8 981 889 947 1064 870 781 837 948
8 948 837 949 1067 869 780 838 950
8 975 869 950 1069 865 767 839 952
8 950 838 951 1070 839 725 840 953
8 952 839 953 1071 841 726 842 954
8 955 850 802 899 1072 959 906 1008
8 956 849 739 845 1072 959 850 955
8 846 738 849 956 957 848 958 1073
8 957 848 958 1073 854 759 868 965
8 849 742 852 959 958 851 961 1076
8 960 853 961 1076 906 807 852 959
8 958 851 961 1076 868 773 883 980
8 960 853 807 906 1077 963 913 1014
8 855 760 868 965 966 871 980 1085
8 856 761 871 966 967 872 984 1086
8 971 876 765 860 1087 985 872 967
8 968 873 763 858 1088 986 874 969
8 862 769 873 968 972 879 986 1088
8 859 764 875 970 969 874 987 1089
8 861 766 876 971 970 875 988 1090
8 973 880 770 863 1091 991 879 972
8 973 880 992 1092 863 770 881 974
8 974 881 993 1093 864 771 882 976
8 979 870 948 1066 1094 982 869 975
8 1094 982 869 975 977 877 767 865
8 978 878 772 867 1095 990 882 976
8 978 878 989 1096 866 768 877 977
8 871 774 883 980 984 884 994 1099
8 983 891 999 1100 870 781 889 981
8 1101 1000 890 982 989 892 782 877
8 983 891 781 870 1101 1000 890 982
8 872 775 884 984 985 885 995 1103
8 876 776 885 985 988 886 996 1104
8 986 887 779 874 1105 998 888 987
8 879 786 887 986 991 896 998 1105
8 875 778 886 988 987 888 997 1106
8 990 893 1002 1107 878 783 892 989
8 1108 1003 893 990 993 894 784 882
8 880 787 896 991 992 895 1005 1109
8 993 894 785 881 1110 1004 895 992
8 898 799 905 1006 1007 907 1013 1120
8 1030 920 1013 1120 919 814 905 1006
8 901 801 907 1007 1011 908 1015 1121
8 899 802 909 1009 1008 906 1014 1122
8 900 803 910 1010 1009 909 1017 1123
8 1012 911 1018 1124 903 804 910 1010
8 904 805 908 1011 1012 911 1016 1125
8 1013 912 1020 1127 907 808 914 1015
8 1031 921 1020 1127 920 815 912 1013
8 1019 918 962 1075 1128 1021 913 1014
8 1128 1021 913 1014 1017 916 810 909
8 1015 914 1022 1129 908 809 915 1016
8 1016 915 1023 1130 911 812 917 1018
8 1018 917 1024 1131 910 811 916 1017
8 1037 928 1031 1148 925 821 920 1030
8 928 823 931 1041 1031 921 1032 1149
8 1033 926 829 941 1151 1039 939 1057
8 1034 927 819 922 1152 1040 926 1033
8 1153 1038 929 1035 1034 927 820 923
8 1154 1042 930 1036 1035 929 822 924
8 1037 928 821 925 1155 1041 930 1036
8 1039 935 828 939 1156 1047 938 1055
8 1157 1043 932 1042 1038 933 825 929
8 1038 933 826 927 1158 1045 934 1040
8 1040 934 827 926 1159 1046 935 1039
8 930 824 932 1042 1041 931 1044 1160
8 1051 936 1048 1165 1175 1052 937 1053
8 1156 1047 938 1055 1053 937 1054 1178
8 939 828 940 1058 1055 938 1056 1181
8 941 829 942 1060 1057 939 1058 1183
8 942 830 943 1061 1058 940 1059 1184
8 1060 942 832 944 1185 1061 945 1062
8 1082 964 1063 1188 981 889 947 1064
8 1097 981 1064 1190 979 870 948 1066
8 1064 947 1065 1191 948 837 949 1067
8 1066 948 1067 1193 975 869 950 1069
8 1067 949 1068 1194 950 838 951 1070
8 1069 950 1070 1195 952 839 953 1071
8 956 849 959 1072 1073 958 1076 1197
8 1074 960 1076 1197 1008 906 959 1072
8 1073 958 1076 1197 965 868 980 1085
8 1074 960 906 1008 1198 1077 1014 1122
8 1133 1026 1079 1199 1019 918 962 1075
8 1077 963 913 1014 1200 1080 962 1075
8 960 853 963 1077 1076 961 1078 1201
8 980 883 961 1076 1099 994 1078 1201
8 1210 1083 964 1082 1100 999 889 981
8 966 871 980 1085 1086 984 1099 1215
8 967 872 984 1086 1087 985 1103 1216
8 971 876 985 1087 1090 988 1104 1217
8 1088 986 874 969 1218 1105 987 1089
8 972 879 986 1088 1091 991 1105 1218
8 970 875 988 1090 1089 987 1106 1219
8 973 880 991 1091 1092 992 1109 1220
8 1093 993 881 974 1221 1110 992 1092
8 1222 1108 990 1095 1093 993 882 976
8 1223 1101 982 1094 1096 989 877 977
8 1098 983 870 979 1223 1101 982 1094
8 1095 990 1107 1224 978 878 989 1096
8 1098 983 1100 1225 979 870 981 1097
8 984 884 994 1099 1103 995 1111 1227
8 1102 1001 1115 1228 983 891 999 1100
8 1101 1000 892 989 1229 1116 1002 1107
8 1102 1001 891 983 1229 1116 1000 1101
8 985 885 995 1103 1104 996 1112 1230
8 988 886 996 1104 1106 997 1113 1231
8 1105 998 888 987 1232 1114 997 1106
8 991 896 998 1105 1109 1005 1114 1232
8 1108 1003 1117 1233 990 893 1002 1107
8 1108 1003 894 993 1233 1117 1004 1110
8 992 895 1005 1109 1110 1004 1118 1234
8 1120 1013 1127 1244 1007 907 1015 1121
8 1148 1031 1127 1244 1030 920 1013 1120
8 1121 1015 1129 1245 1011 908 1016 1125
8 1126 1019 1075 1196 1246 1128 1014 1122
8 1246 1128 1014 1122 1123 1017 909 1009
8 1124 1018 1131 1247 1010 910 1017 1123
8 1125 1016 1130 1248 1012 911 1018 1124
8 1127 1020 1137 1254 1015 914 1022 1129
8 1031 921 1032 1149 1127 1020 1137 1254
8 1134 1027 918 1019 1257 1140 1021 1128
8 1257 1140 1021 1128 1131 1024 916 1017
8 1129 1022 1141 1258 1016 915 1023 1130
8 1130 1023 1142 1259 1018 917 1024 1131
8 1261 1144 1025 1132 1133 1026 1079 1199
8 1255 1138 1025 1132 1135 1028 1144 1261
8 1133 1026 918 1019 1262 1145 1027 1134
8 1136 1029 1139 1256 1263 1146 1028 1135
8 1037 928 1041 1155 1148 1031 1149 1275
8 1041 931 1044 1160 1149 1032 1150 1276
8 1151 1039 939 1057 1278 1156 1055 1180
8 1152 1040 926 1033 1279 1159 1039 1151
8 1153 1038 927 1034 1280 1158 1040 1152
8 1281 1157 1042 1154 1153 1038 929 1035
8 1036 930 1042 1154 1155 1041 1160 1282
8 1283 1164 1046 1159 1156 1047 935 1039
8 1165 1048 1164 1283 1053 937 1047 1156
8 1157 1043 933 1038 1284 1161 1045 1158
8 1157 1043 1161 1284 1042 932 1044 1160
8 1040 934 1046 1159 1158 1045 1163 1285
8 1166 1049 1167 1292 1051 936 1048 1165
8 1166 1049 936 1051 1293 1168 1050 1172
8 1051 936 1052 1175 1172 1050 1173 1306
8 1174 1051 1165 1290 1308 1175 1053 1177
8 1053 937 1054 1178 1175 1052 1176 1309
8 1278 1156 1055 1180 1177 1053 1178 1311
8 1055 938 1056 1181 1178 1054 1179 1312
8 1057 939 1058 1183 1180 1055 1181 1314
8 1058 940 1059 1184 1181 1056 1182 1315
8 1060 942 1061 1185 1183 1058 1184 1316
8 1208 1081 1187 1321 1082 964 1063 1188
8 1209 1082 1188 1322 1097 981 1064 1190
8 1188 1063 1189 1323 1064 947 1065 1191
8 1190 1064 1191 1325 1066 948 1067 1193
8 1191 1065 1192 1326 1067 949 1068 1194
8 1067 1193 1069 950 1194 1327 1195 1070
8 1250 1133 1199 1330 1126 1019 1075 1196
8 1198 1077 1014 1122 1331 1200 1075 1196
8 1074 960 1077 1198 1197 1076 1201 1332
8 1085 980 1076 1197 1215 1099 1201 1332
8 1199 1079 1203 1333 1075 962 1080 1200
8 1132 1025 1119 1243 1199 1079 1203 1333
8 1201 1078 963 1077 1334 1202 1080 1200
8 1099 994 1078 1201 1227 1111 1202 1334
8 1343 1207 1081 1208 1210 1083 964 1082
8 1214 1084 1186 1319 1343 1207 1081 1208
8 1345 1210 1082 1209 1225 1100 981 1097
8 1346 1211 1083 1210 1228 1115 999 1100
8 1086 984 1099 1215 1216 1103 1227 1352
8 1087 985 1103 1216 1217 1104 1230 1353
8 1090 988 1104 1217 1219 1106 1231 1354
8 1218 1105 987 1089 1355 1232 1106 1219
8 1091 991 1105 1218 1220 1109 1232 1355
8 1092 992 1109 1220 1221 1110 1234 1356
8 1222 1108 1233 1357 1095 990 1107 1224
8 1222 1108 993 1093 1357 1233 1110 1221
8 1223 1101 989 1096 1358 1229 1107 1224
8 1226 1102 983 1098 1358 1229 1101 1223
8 1226 1102 1228 1359 1098 983 1100 1225
8 1103 995 1111 1227 1230 1112 1235 1360
8 1107 1002 1117 1233 1229 1116 1240 1362
8 1102 1001 1116 1229 1228 1115 1240 1362
8 1104 996 1112 1230 1231 1113 1236 1363
8 1364 1237 1114 1232 1231 1113 997 1106
8 1109 1005 1114 1232 1234 1118 1238 1365
8 1110 1004 1118 1234 1233 1117 1241 1366
8 1242 1374 1255 1138 1119 1243 1132 1025
8 1244 1127 1254 1376 1121 1015 1129 1245
8 1148 1031 1149 1275 1244 1127 1254 1376
8 1245 1129 1258 1377 1125 1016 1130 1248
8 1251 1134 1019 1126 1378 1257 1128 1246
8 1378 1257 1128 1246 1247 1131 1017 1123
8 1248 1130 1259 1379 1124 1018 1131 1247
8 1261 1381 1250 1133 1132 1249 1330 1199
8 1255 1380 1252 1135 1132 1249 1381 1261
8 1250 1133 1019 1126 1382 1262 1134 1251
8 1253 1136 1256 1385 1384 1263 1135 1252
8 1254 1137 1265 1387 1129 1022 1141 1258
8 1149 1032 1150 1276 1254 1137 1265 1387
8 1028 1135 1255 1138 1139 1256 1388 1266
8 1136 1029 1147 1264 1256 1139 1267 1389
8 1390 1268 1140 1257 1259 1142 1024 1131
8 1260 1143 1027 1134 1390 1268 1140 1257
8 1258 1141 1269 1391 1130 1023 1142 1259
8 1262 1145 1027 1134 1393 1271 1143 1260
8 1261 1144 1026 1133 1394 1272 1145 1262
8 1135 1028 1144 1261 1263 1146 1272 1394
8 1136 1029 1146 1263 1264 1147 1273 1395
8 1155 1041 1160 1282 1275 1149 1276 1405
8 1276 1150 1044 1160 1406 1277 1162 1286
8 1408 1283 1159 1279 1278 1156 1039 1151
8 1290 1165 1283 1408 1177 1053 1156 1278
8 1152 1040 1159 1279 1280 1158 1285 1409
8 1281 1157 1038 1153 1410 1284 1158 1280
8 1281 1157 1284 1410 1154 1042 1160 1282
8 1159 1046 1164 1283 1285 1163 1289 1412
8 1292 1167 1289 1412 1165 1048 1164 1283
8 1158 1045 1163 1285 1284 1161 1288 1413
8 1284 1161 1288 1413 1160 1044 1162 1286
8 1291 1166 1292 1418 1174 1051 1165 1290
8 1291 1166 1051 1174 1419 1293 1172 1305
8 1294 1169 1296 1421 1166 1049 1167 1292
8 1293 1168 1050 1172 1422 1295 1171 1303
8 1294 1169 1049 1166 1423 1297 1168 1293
8 1422 1295 1171 1303 1301 1170 1302 1435
8 1172 1050 1173 1306 1303 1171 1304 1438
8 1174 1051 1175 1308 1305 1172 1306 1440
8 1175 1052 1176 1309 1306 1173 1307 1441
8 1177 1053 1178 1311 1308 1175 1309 1443
8 1178 1054 1179 1312 1309 1176 1310 1444
8 1180 1055 1181 1314 1311 1178 1312 1446
8 1056 1181 1312 1179 1182 1315 1447 1313
8 1183 1058 1184 1316 1314 1181 1315 1448
8 1319 1186 1084 1214 1451 1317 1213 1350
8 1319 1186 1318 1453 1208 1081 1187 1321
8 1321 1187 1320 1456 1188 1063 1189 1323
8 1344 1208 1321 1457 1209 1082 1188 1322
8 1322 1188 1323 1458 1190 1064 1191 1325
8 1323 1189 1324 1459 1191 1065 1192 1326
8 1191 1325 1193 1067 1326 1460 1327 1194
8 1242 1374 1243 1119 1328 1462 1335 1204
8 1330 1199 1333 1465 1196 1075 1200 1331
8 1132 1249 1330 1199 1243 1375 1465 1333
8 1332 1201 1077 1198 1466 1334 1200 1331
8 1215 1099 1201 1332 1352 1227 1334 1466
8 1119 1243 1333 1203 1204 1335 1470 1338
8 1333 1203 1338 1470 1200 1080 1202 1334
8 1227 1111 1202 1334 1360 1235 1338 1470
8 1328 1462 1335 1204 1205 1336 1471 1339
8 1337 1206 1340 1472 1464 1329 1205 1336
8 1346 1211 1342 1479 1210 1083 1207 1343
8 1346 1211 1115 1228 1479 1342 1239 1361
8 1348 1212 1084 1214 1479 1342 1207 1343
8 1480 1343 1208 1344 1345 1210 1082 1209
8 1351 1214 1319 1454 1480 1343 1208 1344
8 1481 1346 1210 1345 1359 1228 1100 1225
8 1348 1212 1347 1483 1214 1084 1213 1350
8 1216 1103 1227 1352 1353 1230 1360 1488
8 1217 1104 1230 1353 1354 1231 1363 1489
8 1490 1364 1232 1355 1354 1231 1106 1219
8 1220 1109 1232 1355 1356 1234 1365 1491
8 1221 1110 1234 1356 1357 1233 1366 1492
8 1224 1107 1233 1357 1358 1229 1362 1493
8 1226 1102 1229 1358 1359 1228 1362 1493
8 1230 1112 1235 1360 1363 1236 1367 1496
8 1361 1239 1115 1228 1497 1371 1240 1362
8 1366 1241 1372 1498 1233 1117 1240 1362
8 1364 1237 1113 1231 1499 1368 1236 1363
8 1364 1237 1368 1499 1232 1114 1238 1365
8 1234 1118 1238 1365 1366 1241 1369 1500
8 1507 1373 1242 1374 1388 1266 1138 1255
8 1508 1374 1243 1375 1380 1255 1132 1249
8 1376 1254 1387 1509 1245 1129 1258 1377
8 1275 1149 1276 1405 1376 1254 1387 1509
8 1377 1258 1391 1510 1248 1130 1259 1379
8 1511 1390 1257 1378 1379 1259 1131 1247
8 1383 1260 1134 1251 1511 1390 1257 1378
8 1252 1135 1256 1385 1380 1255 1388 1512
8 1261 1381 1513 1394 1133 1250 1382 1262
8 1135 1252 1384 1263 1261 1381 1513 1394
8 1382 1262 1134 1251 1514 1393 1260 1383
8 1253 1136 1263 1384 1386 1264 1395 1516
8 1253 1136 1264 1386 1385 1256 1389 1517
8 1387 1265 1397 1519 1258 1141 1269 1391
8 1276 1150 1277 1406 1387 1265 1397 1519
8 1256 1139 1267 1389 1388 1266 1398 1520
8 1264 1147 1274 1396 1389 1267 1399 1521
8 1392 1270 1143 1260 1522 1400 1268 1390
8 1390 1268 1142 1259 1522 1400 1269 1391
8 1392 1270 1401 1523 1260 1143 1271 1393
8 1272 1394 1524 1402 1145 1262 1393 1271
8 1395 1273 1146 1263 1524 1402 1272 1394
8 1273 1395 1264 1147 1403 1526 1396 1274
8 1405 1276 1160 1282 1534 1406 1286 1411
8 1414 1287 1407 1535 1286 1162 1277 1406
8 1279 1159 1283 1408 1409 1285 1412 1537
8 1418 1292 1412 1537 1290 1165 1283 1408
8 1280 1158 1285 1409 1410 1284 1413 1538
8 1410 1284 1413 1538 1282 1160 1286 1411
8 1285 1163 1289 1412 1413 1288 1417 1540
8 1421 1296 1417 1540 1292 1167 1289 1412
8 1414 1287 1162 1286 1541 1416 1288 1413
8 1420 1294 1421 1545 1291 1166 1292 1418
8 1419 1293 1172 1305 1546 1422 1303 1437
8 1420 1294 1166 1291 1547 1423 1293 1419
8 1294 1169 1297 1423 1421 1296 1425 1548
8 1423 1297 1168 1293 1549 1424 1295 1422
8 1301 1170 1298 1427 1422 1295 1424 1549
8 1432 1300 1428 1554 1301 1170 1298 1427
8 1431 1299 1428 1554 1560 1430 1300 1432
8 1563 1433 1300 1432 1435 1302 1170 1301
8 1546 1422 1303 1437 1434 1301 1435 1565
8 1303 1171 1304 1438 1435 1302 1436 1566
8 1305 1172 1306 1440 1437 1303 1438 1568
8 1306 1173 1307 1441 1438 1304 1439 1569
8 1308 1175 1309 1443 1440 1306 1441 1571
8 1309 1176 1310 1444 1441 1307 1442 1572
8 1311 1178 1312 1446 1443 1309 1444 1574
8 1179 1312 1444 1310 1313 1447 1575 1445
8 1314 1181 1315 1448 1446 1312 1447 1576
8 1350 1213 1349 1486 1451 1317 1449 1579
8 1451 1317 1450 1581 1319 1186 1318 1453
8 1454 1319 1214 1351 1582 1451 1350 1487
8 1453 1318 1452 1584 1321 1187 1320 1456
8 1454 1319 1453 1585 1344 1208 1321 1457
8 1456 1320 1455 1586 1323 1189 1324 1459
8 1457 1321 1456 1587 1322 1188 1323 1458
8 1458 1323 1459 1588 1325 1191 1326 1460
8 1205 1336 1464 1329 1328 1462 1590 1461
8 1507 1373 1461 1590 1374 1242 1328 1462
8 1508 1374 1462 1591 1375 1243 1335 1467
8 1337 1206 1329 1464 1473 1341 1463 1594
8 1375 1243 1335 1467 1465 1333 1470 1596
8 1465 1333 1470 1596 1331 1200 1334 1466
8 1352 1227 1334 1466 1488 1360 1470 1596
8 1591 1462 1336 1468 1467 1335 1471 1597
8 1469 1337 1472 1598 1595 1464 1336 1468
8 1471 1339 1474 1600 1335 1204 1338 1470
8 1600 1474 1367 1496 1470 1338 1235 1360
8 1336 1205 1340 1472 1471 1339 1475 1601
8 1337 1206 1341 1473 1472 1340 1476 1602
8 1495 1370 1478 1609 1361 1239 1342 1479
8 1348 1212 1342 1479 1483 1347 1478 1609
8 1481 1346 1479 1610 1345 1210 1343 1480
8 1481 1346 1228 1359 1610 1479 1361 1494
8 1484 1348 1214 1351 1610 1479 1343 1480
8 1483 1347 1482 1612 1350 1213 1349 1486
8 1484 1348 1483 1613 1351 1214 1350 1487
8 1353 1230 1360 1488 1489 1363 1496 1616
8 1490 1364 1231 1354 1617 1499 1363 1489
8 1490 1364 1499 1617 1355 1232 1365 1491
8 1356 1234 1365 1491 1492 1366 1500 1619
8 1492 1366 1498 1620 1357 1233 1362 1493
8 1494 1361 1228 1359 1621 1497 1362 1493
8 1495 1370 1239 1361 1622 1504 1371 1497
8 1363 1236 1367 1496 1499 1368 1501 1623
8 1497 1371 1240 1362 1624 1505 1372 1498
8 1625 1503 1372 1498 1500 1369 1241 1366
8 1365 1238 1368 1499 1500 1369 1502 1626
8 1520 1398 1506 1633 1388 1266 1373 1507
8 1634 1507 1374 1508 1512 1388 1255 1380
8 1509 1387 1519 1635 1377 1258 1391 1510
8 1405 1276 1406 1534 1509 1387 1519 1635
8 1515 1392 1260 1383 1636 1522 1390 1511
8 1511 1390 1259 1379 1636 1522 1391 1510
8 1385 1256 1389 1517 1512 1388 1520 1637
8 1513 1394 1262 1382 1638 1524 1393 1514
8 1395 1516 1638 1524 1263 1384 1513 1394
8 1515 1392 1523 1639 1383 1260 1393 1514
8 1516 1395 1526 1640 1386 1264 1396 1518
8 1386 1264 1396 1518 1517 1389 1521 1641
8 1519 1397 1527 1643 1391 1269 1400 1522
8 1535 1407 1527 1643 1406 1277 1397 1519
8 1389 1267 1399 1521 1520 1398 1528 1644
8 1645 1529 1399 1521 1525 1404 1274 1396
8 1392 1270 1400 1522 1523 1401 1531 1646
8 1524 1402 1271 1393 1648 1532 1401 1523
8 1403 1526 1648 1532 1273 1395 1524 1402
8 1525 1404 1274 1396 1649 1533 1403 1526
8 1539 1414 1535 1657 1411 1286 1406 1534
8 1542 1415 1536 1658 1414 1287 1407 1535
8 1409 1285 1412 1537 1538 1413 1540 1660
8 1545 1421 1540 1660 1418 1292 1412 1537
8 1539 1414 1286 1411 1661 1541 1413 1538
8 1540 1417 1544 1663 1413 1288 1416 1541
8 1421 1296 1425 1548 1540 1417 1544 1663
8 1542 1415 1287 1414 1664 1543 1416 1541
8 1420 1294 1423 1547 1545 1421 1548 1666
8 1547 1423 1293 1419 1667 1549 1422 1546
8 1434 1301 1427 1553 1546 1422 1549 1667
8 1423 1297 1424 1549 1548 1425 1550 1668
8 1551 1426 1550 1668 1427 1298 1424 1549
8 1551 1426 1298 1427 1671 1552 1428 1554
8 1562 1432 1554 1674 1434 1301 1427 1553
8 1431 1299 1429 1558 1554 1428 1555 1675
8 1431 1299 1430 1560 1558 1429 1557 1680
8 1560 1430 1300 1432 1683 1559 1433 1563
8 1561 1431 1554 1674 1684 1560 1432 1562
8 1685 1563 1432 1562 1565 1435 1301 1434
8 1435 1302 1436 1566 1563 1433 1564 1686
8 1437 1303 1438 1568 1565 1435 1566 1688
8 1438 1304 1439 1569 1566 1436 1567 1689
8 1440 1306 1441 1571 1568 1438 1569 1691
8 1441 1307 1442 1572 1569 1439 1570 1692
8 1443 1309 1444 1574 1571 1441 1572 1694
8 1310 1444 1572 1442 1445 1575 1695 1573
8 1446 1312 1447 1576 1574 1444 1575 1696
8 1486 1349 1485 1614 1579 1449 1577 1699
8 1451 1317 1449 1579 1581 1450 1578 1701
8 1487 1350 1486 1615 1582 1451 1579 1702
8 1581 1450 1580 1704 1453 1318 1452 1584
8 1582 1451 1581 1705 1454 1319 1453 1585
8 1584 1452 1583 1706 1456 1320 1455 1586
8 1585 1453 1584 1707 1457 1321 1456 1587
8 1587 1456 1586 1708 1458 1323 1459 1588
8 1633 1506 1589 1710 1507 1373 1461 1590
8 1464 1329 1461 1590 1594 1463 1589 1710
8 1468 1336 1462 1591 1595 1464 1590 1711
8 1634 1507 1590 1711 1508 1374 1462 1591
8 1473 1341 1463 1594 1603 1477 1593 1716
8 1469 1337 1464 1595 1599 1473 1594 1717
8 1471 1597 1467 1335 1600 1718 1596 1470
8 1718 1600 1496 1616 1596 1470 1360 1488
8 1336 1468 1597 1471 1472 1598 1719 1601
8 1469 1337 1473 1599 1598 1472 1602 1720
8 1722 1604 1501 1623 1600 1474 1367 1496
8 1475 1601 1471 1339 1604 1722 1600 1474
8 1602 1476 1605 1723 1472 1340 1475 1601
8 1476 1602 1724 1606 1341 1473 1603 1477
8 1483 1347 1478 1609 1612 1482 1608 1731
8 1495 1370 1504 1622 1609 1478 1608 1731
8 1618 1495 1609 1732 1494 1361 1479 1610
8 1484 1348 1479 1610 1613 1483 1609 1732
8 1486 1349 1482 1612 1614 1485 1611 1733
8 1613 1483 1612 1734 1487 1350 1486 1615
8 1489 1363 1496 1616 1617 1499 1623 1736
8 1491 1365 1499 1617 1619 1500 1626 1737
8 1618 1495 1361 1494 1738 1622 1497 1621
8 1739 1625 1498 1620 1619 1500 1366 1492
8 1621 1497 1362 1493 1740 1624 1498 1620
8 1742 1631 1504 1622 1624 1505 1371 1497
8 1743 1628 1502 1626 1623 1501 1368 1499
8 1744 1630 1505 1624 1625 1503 1372 1498
8 1745 1629 1503 1625 1626 1502 1369 1500
8 1520 1398 1528 1644 1633 1506 1632 1751
8 1637 1520 1633 1752 1512 1388 1507 1634
8 1635 1519 1643 1753 1510 1391 1522 1636
8 1657 1535 1643 1753 1534 1406 1519 1635
8 1515 1392 1522 1636 1639 1523 1646 1754
8 1517 1389 1521 1641 1637 1520 1644 1755
8 1524 1638 1756 1648 1393 1514 1639 1523
8 1640 1526 1395 1516 1756 1648 1524 1638
8 1642 1525 1396 1518 1757 1649 1526 1640
8 1758 1645 1521 1641 1642 1525 1396 1518
8 1646 1531 1400 1522 1760 1650 1527 1643
8 1535 1407 1536 1658 1643 1527 1650 1760
8 1521 1399 1529 1645 1644 1528 1651 1761
8 1647 1530 1652 1762 1525 1404 1529 1645
8 1401 1523 1648 1532 1531 1646 1763 1655
8 1525 1404 1533 1649 1647 1530 1654 1765
8 1533 1649 1766 1656 1403 1526 1648 1532
8 1662 1542 1658 1774 1539 1414 1535 1657
8 1542 1415 1543 1664 1658 1536 1659 1775
8 1660 1540 1663 1777 1538 1413 1541 1661
8 1545 1421 1548 1666 1660 1540 1663 1777
8 1662 1542 1414 1539 1778 1664 1541 1661
8 1664 1543 1416 1541 1779 1665 1544 1663
8 1548 1425 1550 1668 1663 1544 1665 1779
8 1547 1423 1549 1667 1666 1548 1668 1781
8 1670 1551 1668 1781 1553 1427 1549 1667
8 1551 1426 1552 1671 1668 1550 1669 1782
8 1670 1551 1427 1553 1784 1671 1554 1674
8 1675 1555 1672 1785 1554 1428 1552 1671
8 1678 1556 1673 1789 1558 1429 1555 1675
8 1561 1431 1558 1681 1674 1554 1675 1790
8 1794 1677 1556 1678 1680 1557 1429 1558
8 1560 1430 1559 1683 1680 1557 1679 1797
8 1561 1431 1560 1684 1681 1558 1680 1798
8 1563 1433 1564 1686 1683 1559 1682 1800
8 1684 1560 1432 1562 1801 1683 1563 1685
8 1565 1435 1566 1688 1685 1563 1686 1802
8 1566 1436 1567 1689 1686 1564 1687 1803
8 1568 1438 1569 1691 1688 1566 1689 1805
8 1569 1439 1570 1692 1689 1567 1690 1806
8 1571 1441 1572 1694 1691 1569 1692 1808
8 1442 1572 1692 1570 1573 1695 1809 1693
8 1574 1444 1575 1696 1694 1572 1695 1810
8 1614 1485 1592 1712 1699 1577 1697 1813
8 1579 1449 1577 1699 1701 1578 1698 1815
8 1615 1486 1614 1735 1702 1579 1699 1816
8 1701 1578 1700 1818 1581 1450 1580 1704
8 1582 1451 1579 1702 1705 1581 1701 1819
8 1704 1580 1703 1820 1584 1452 1583 1706
8 1705 1581 1704 1821 1585 1453 1584 1707
8 1707 1584 1706 1822 1587 1456 1586 1708
8 1710 1589 1506 1633 1824 1709 1632 1751
8 1594 1463 1589 1710 1716 1593 1709 1824
8 1752 1633 1710 1825 1634 1507 1590 1711
8 1595 1464 1590 1711 1717 1594 1710 1825
8 1830 1714 1592 1712 1733 1611 1485 1614
8 1603 1477 1593 1716 1725 1607 1715 1834
8 1599 1473 1594 1717 1721 1603 1716 1835
8 1837 1722 1623 1736 1718 1600 1496 1616
8 1719 1601 1722 1837 1597 1471 1600 1718
8 1602 1720 1598 1472 1723 1838 1719 1601
8 1720 1602 1473 1599 1839 1724 1603 1721
8 1723 1605 1726 1840 1601 1475 1604 1722
8 1840 1726 1628 1743 1722 1604 1501 1623
8 1724 1606 1727 1841 1602 1476 1605 1723
8 1725 1607 1728 1842 1603 1477 1606 1724
8 1612 1482 1608 1731 1733 1611 1730 1849
8 1741 1627 1730 1849 1622 1504 1608 1731
8 1613 1483 1609 1732 1734 1612 1731 1850
8 1618 1495 1622 1738 1732 1609 1731 1850
8 1615 1486 1612 1734 1735 1614 1733 1851
8 1852 1743 1626 1737 1736 1623 1499 1617
8 1853 1745 1625 1739 1737 1626 1500 1619
8 1855 1742 1622 1738 1740 1624 1497 1621
8 1856 1744 1624 1740 1739 1625 1498 1620
8 1741 1627 1504 1622 1857 1746 1631 1742
8 1742 1631 1505 1624 1858 1749 1630 1744
8 1859 1747 1629 1745 1743 1628 1502 1626
8 1860 1748 1630 1744 1745 1629 1503 1625
8 1644 1528 1651 1761 1751 1632 1750 1865
8 1637 1520 1644 1755 1752 1633 1751 1866
8 1754 1646 1522 1636 1867 1760 1643 1753
8 1657 1535 1658 1774 1753 1643 1760 1867
8 1639 1523 1646 1754 1756 1648 1763 1868
8 1641 1521 1645 1758 1755 1644 1761 1869
8 1757 1649 1526 1640 1870 1766 1648 1756
8 1642 1525 1649 1757 1759 1647 1765 1871
8 1759 1647 1762 1872 1642 1525 1645 1758
8 1760 1650 1767 1874 1646 1531 1655 1763
8 1658 1536 1659 1775 1760 1650 1767 1874
8 1762 1652 1768 1875 1645 1529 1651 1761
8 1764 1653 1769 1876 1647 1530 1652 1762
8 1656 1766 1877 1773 1532 1648 1763 1655
8 1771 1879 1765 1654 1653 1764 1647 1530
8 1533 1649 1765 1654 1656 1766 1880 1772
8 1662 1542 1664 1778 1774 1658 1775 1887
8 1664 1543 1665 1779 1775 1659 1776 1888
8 1778 1664 1541 1661 1890 1779 1663 1777
8 1666 1548 1668 1781 1777 1663 1779 1890
8 1782 1669 1780 1891 1668 1550 1665 1779
8 1670 1551 1671 1784 1781 1668 1782 1893
8 1671 1552 1672 1785 1782 1669 1783 1894
8 1790 1675 1785 1896 1674 1554 1671 1784
8 1675 1555 1673 1789 1785 1672 1786 1897
8 1792 1676 1788 1903 1678 1556 1673 1789
8 1795 1678 1789 1904 1681 1558 1675 1790
8 1792 1676 1556 1678 1906 1791 1677 1794
8 1680 1557 1679 1797 1794 1677 1793 1909
8 1910 1794 1678 1795 1798 1680 1558 1681
8 1683 1559 1682 1800 1797 1679 1796 1912
8 1684 1560 1683 1801 1798 1680 1797 1913
8 1686 1564 1687 1803 1800 1682 1799 1915
8 1685 1563 1686 1802 1801 1683 1800 1916
8 1688 1566 1689 1805 1802 1686 1803 1917
8 1689 1567 1690 1806 1803 1687 1804 1918
8 1691 1569 1692 1808 1805 1689 1806 1920
8 1692 1570 1693 1809 1806 1690 1807 1921
8 1694 1572 1695 1810 1808 1692 1809 1922
8 1829 1713 1811 1926 1712 1592 1697 1813
8 1813 1697 1812 1928 1699 1577 1698 1815
8 1735 1614 1712 1828 1816 1699 1813 1929
8 1815 1698 1814 1931 1701 1578 1700 1818
8 1702 1579 1699 1816 1819 1701 1815 1932
8 1818 1700 1817 1933 1704 1580 1703 1820
8 1819 1701 1818 1934 1705 1581 1704 1821
8 1821 1704 1820 1935 1707 1584 1706 1822
8 1824 1709 1632 1751 1937 1823 1750 1865
8 1716 1593 1709 1824 1834 1715 1823 1937
8 1825 1710 1633 1752 1938 1824 1751 1866
8 1717 1594 1710 1825 1835 1716 1824 1938
8 1945 1830 1712 1828 1851 1733 1614 1735
8 1830 1714 1831 1946 1712 1592 1713 1829
8 1947 1832 1714 1830 1849 1730 1611 1733
8 1843 1729 1607 1725 1950 1833 1715 1834
8 1721 1603 1716 1835 1836 1725 1834 1951
8 1836 1725 1842 1953 1721 1603 1724 1839
8 1723 1838 1719 1601 1840 1954 1837 1722
8 1954 1840 1743 1852 1837 1722 1623 1736
8 1724 1839 1720 1602 1841 1955 1838 1723
8 1841 1727 1844 1956 1723 1605 1726 1840
8 1956 1844 1747 1859 1840 1726 1628 1743
8 1728 1842 1724 1606 1845 1957 1841 1727
8 1725 1607 1729 1843 1842 1728 1846 1958
8 1741 1627 1746 1857 1849 1730 1848 1965
8 1734 1612 1731 1850 1851 1733 1849 1966
8 1854 1741 1849 1966 1738 1622 1731 1850
8 1967 1859 1745 1853 1852 1743 1626 1737
8 1968 1860 1744 1856 1853 1745 1625 1739
8 1854 1741 1622 1738 1969 1857 1742 1855
8 1855 1742 1624 1740 1970 1858 1744 1856
8 1857 1746 1631 1742 1971 1861 1749 1858
8 1858 1749 1630 1744 1972 1863 1748 1860
8 1859 1747 1862 1973 1745 1629 1748 1860
8 1875 1768 1864 1977 1761 1651 1750 1865
8 1755 1644 1761 1869 1866 1751 1865 1978
8 1867 1760 1874 1979 1754 1646 1763 1868
8 1774 1658 1775 1887 1867 1760 1874 1979
8 1870 1766 1648 1756 1980 1877 1763 1868
8 1872 1762 1875 1981 1758 1645 1761 1869
8 1757 1649 1766 1870 1871 1765 1880 1982
8 1983 1879 1764 1873 1871 1765 1647 1759
8 1873 1764 1876 1984 1759 1647 1762 1872
8 1877 1773 1655 1763 1986 1881 1767 1874
8 1775 1659 1776 1888 1874 1767 1881 1986
8 1876 1769 1882 1987 1762 1652 1768 1875
8 1878 1770 1883 1988 1764 1653 1769 1876
8 1880 1772 1656 1766 1989 1886 1773 1877
8 1878 1770 1653 1764 1990 1884 1771 1879
8 1765 1654 1772 1880 1879 1771 1885 1991
8 1778 1664 1779 1890 1887 1775 1888 1997
8 1998 1889 1776 1888 1891 1780 1665 1779
8 1893 1782 1891 2000 1781 1668 1779 1890
8 1894 1783 1892 2001 1782 1669 1780 1891
8 1784 1671 1785 1896 1893 1782 1894 2003
8 1897 1786 1895 2004 1785 1672 1783 1894
8 1790 1675 1789 1904 1896 1785 1897 2006
8 1901 1787 1898 2007 1789 1673 1786 1897
8 1903 1788 1900 2013 1789 1673 1787 1901
8 1792 1676 1791 1906 1903 1788 1902 2016
8 1907 1792 1903 2017 1795 1678 1789 1904
8 1906 1791 1677 1794 2019 1905 1793 1909
8 1907 1792 1678 1795 2020 1906 1794 1910
8 1797 1679 1796 1912 1909 1793 1908 2022
8 1798 1680 1797 1913 1910 1794 1909 2023
8 1800 1682 1799 1915 1912 1796 1911 2025
8 1801 1683 1800 1916 1913 1797 1912 2026
8 1803 1687 1804 1918 1915 1799 1914 2028
8 1802 1686 1803 1917 1916 1800 1915 2029
8 1805 1689 1806 1920 1917 1803 1918 2030
8 1806 1690 1807 1921 1918 1804 1919 2031
8 1808 1692 1809 1922 1920 1806 1921 2032
8 1939 1826 1924 2037 1829 1713 1811 1926
8 1926 1811 1925 2039 1813 1697 1812 1928
8 1944 1829 1926 2040 1828 1712 1813 1929
8 1928 1812 1927 2042 1815 1698 1814 1931
8 1929 1813 1928 2043 1816 1699 1815 1932
8 1931 1814 1930 2044 1818 1700 1817 1933
8 1932 1815 1931 2045 1819 1701 1818 1934
8 1934 1818 1933 2046 1821 1704 1820 1935
8 2048 1936 1823 1937 1977 1864 1750 1865
8 1950 1833 1715 1834 2048 1936 1823 1937
8 1938 1824 1751 1866 2049 1937 1865 1978
8 1835 1716 1824 1938 1951 1834 1937 2049
8 1939 1826 1713 1829 2053 1942 1831 1946
8 1940 1827 1923 2035 2053 1942 1826 1939
8 1945 1830 1946 2058 1828 1712 1829 1944
8 2059 1947 1830 1945 1966 1849 1733 1851
8 1947 1832 1730 1849 2060 1948 1848 1965
8 1947 1832 1948 2060 1830 1714 1831 1946
8 1959 1847 1729 1843 2063 1949 1833 1950
8 1952 1843 1725 1836 2064 1950 1834 1951
8 1836 1725 1843 1952 1953 1842 1958 2066
8 1953 1842 1957 2067 1839 1724 1841 1955
8 1841 1955 1838 1723 1956 2068 1954 1840
8 2068 1956 1859 1967 1954 1840 1743 1852
8 1956 1844 1960 2069 1859 1747 1862 1973
8 1845 1957 1841 1727 1960 2069 1956 1844
8 1728 1842 1957 1845 1846 1958 2071 1961
8 1962 2072 1959 1847 1846 1958 1843 1729
8 1971 1861 1964 2077 1857 1746 1848 1965
8 1854 1741 1857 1969 1966 1849 1965 2078
8 1967 1859 1973 2079 1853 1745 1860 1968
8 1970 1858 1744 1856 2080 1972 1860 1968
8 1969 1857 1742 1855 2081 1971 1858 1970
8 1971 1861 1749 1858 2082 1974 1863 1972
8 1973 1862 1975 2083 1860 1748 1863 1972
8 1987 1882 1976 2086 1875 1768 1864 1977
8 1981 1875 1977 2087 1869 1761 1865 1978
8 1980 1877 1763 1868 2088 1986 1874 1979
8 1887 1775 1888 1997 1979 1874 1986 2088
8 1880 1982 2089 1989 1766 1870 1980 1877
8 1984 1876 1987 2090 1872 1762 1875 1981
8 1765 1871 1983 1879 1880 1982 2091 1991
8 1985 1878 1764 1873 2092 1990 1879 1983
8 1985 1878 1988 2093 1873 1764 1876 1984
8 2094 1992 1881 1986 1998 1889 1776 1888
8 1986 1881 1992 2094 1877 1773 1886 1989
8 1988 1883 1993 2095 1876 1769 1882 1987
8 1878 1770 1884 1990 1988 1883 1994 2096
8 1991 1885 1772 1880 2097 1996 1886 1989
8 1879 1771 1885 1991 1990 1884 1995 2098
8 2103 1998 1888 1997 2000 1891 1779 1890
8 2104 1999 1889 1998 2001 1892 1780 1891
8 2003 1894 2001 2106 1893 1782 1891 2000
8 2004 1895 2002 2107 1894 1783 1892 2001
8 2006 1897 2004 2109 1896 1785 1894 2003
8 2007 1898 2005 2110 1897 1786 1895 2004
8 2014 1901 2007 2112 1904 1789 1897 2006
8 2011 1899 2008 2113 1901 1787 1898 2007
8 2119 2010 1899 2011 2013 1900 1787 1901
8 2016 1902 2012 2122 1903 1788 1900 2013
8 2017 1903 2013 2123 1904 1789 1901 2014
8 1906 1791 1905 2019 2016 1902 2015 2125
8 1907 1792 1906 2020 2017 1903 2016 2126
8 1909 1793 1908 2022 2019 1905 2018 2128
8 2020 1906 1794 1910 2129 2019 1909 2023
8 1912 1796 1911 2025 2022 1908 2021 2131
8 1913 1797 1912 2026 2023 1909 2022 2132
8 1915 1799 1914 2028 2025 1911 2024 2134
8 1916 1800 1915 2029 2026 1912 2025 2135
8 1918 1804 1919 2031 2028 1914 2027 2136
8 1917 1803 1918 2030 2029 1915 2028 2137
8 1920 1806 1921 2032 2030 1918 2031 2138
8 1940 1827 1941 2054 2035 1923 2033 2140
8 2035 1923 2034 2143 1939 1826 1924 2037
8 2037 1924 2036 2146 1926 1811 1925 2039
8 2051 1939 2037 2147 1944 1829 1926 2040
8 2039 1925 2038 2149 1928 1812 1927 2042
8 2040 1926 2039 2150 1929 1813 1928 2043
8 2042 1927 2041 2151 1931 1814 1930 2044
8 2043 1928 2042 2152 1932 1815 1931 2045
8 2045 1931 2044 2153 1934 1818 1933 2046
8 2155 2047 1936 2048 2086 1976 1864 1977
8 2063 1949 1833 1950 2155 2047 1936 2048
8 2156 2048 1937 2049 2087 1977 1865 1978
8 2064 1950 1834 1951 2156 2048 1937 2049
8 2051 1939 1829 1944 2160 2053 1946 2058
8 2052 1940 2035 2144 2160 2053 1939 2051
8 2053 1942 1831 1946 2163 2057 1948 2060
8 2055 1943 1827 1940 2163 2057 1942 2053
8 2055 1943 2056 2164 1940 1827 1941 2054
8 2059 1947 1849 1966 2167 2060 1965 2078
8 2059 1947 2060 2167 1945 1830 1946 2058
8 2077 1964 2061 2168 1965 1848 1948 2060
8 2070 1963 1847 1959 2170 2062 1949 2063
8 2065 1959 1843 1952 2171 2063 1950 2064
8 2173 2072 1958 2066 2065 1959 1843 1952
8 1953 1842 1958 2066 2067 1957 2071 2174
8 2068 1956 2069 2175 1967 1859 1973 2079
8 2067 1957 2069 2175 1955 1841 1956 2068
8 1845 1957 2069 1960 1961 2071 2176 2073
8 2069 1960 2073 2176 1973 1862 1975 2083
8 2070 1963 2075 2177 1959 1847 1962 2072
8 1846 1958 2071 1961 1962 2072 2178 2074
8 2077 1964 1861 1971 2182 2076 1974 2082
8 2081 1971 2077 2183 1969 1857 1965 2078
8 2079 1973 2083 2184 1968 1860 1972 2080
8 2081 1971 1858 1970 2185 2082 1972 2080
8 2083 1975 2084 2186 1972 1863 1974 2082
8 2086 1976 1882 1987 2189 2085 1993 2095
8 2090 1987 2086 2190 1981 1875 1977 2087
8 2191 2094 1986 2088 2103 1998 1888 1997
8 2088 1986 2094 2191 1980 1877 1989 2089
8 1991 2091 2192 2097 1880 1982 2089 1989
8 2093 1988 2095 2193 1984 1876 1987 2090
8 1879 1983 2092 1990 1991 2091 2194 2098
8 1985 1878 1990 2092 2093 1988 2096 2195
8 2097 1996 1886 1989 2196 2099 1992 2094
8 2196 2099 1992 2094 2104 1999 1889 1998
8 1994 2096 1988 1883 2100 2197 2095 1993
8 2096 1994 1884 1990 2198 2101 1995 2098
8 1995 2098 2199 2102 1885 1991 2097 1996
8 2203 2104 1998 2103 2106 2001 1891 2000
8 2107 2002 2105 2204 2001 1892 1999 2104
8 2109 2004 2107 2206 2003 1894 2001 2106
8 2110 2005 2108 2207 2004 1895 2002 2107
8 2112 2007 2110 2209 2006 1897 2004 2109
8 2113 2008 2111 2210 2007 1898 2005 2110
8 2120 2011 2113 2212 2014 1901 2007 2112
8 2117 2009 2114 2213 2011 1899 2008 2113
8 2219 2116 2009 2117 2119 2010 1899 2011
8 2222 2118 2010 2119 2122 2012 1900 2013
8 2223 2119 2011 2120 2123 2013 1901 2014
8 2016 1902 2015 2125 2122 2012 2121 2225
8 2126 2016 2122 2226 2017 1903 2013 2123
8 2019 1905 2018 2128 2125 2015 2124 2228
8 2020 1906 2019 2129 2126 2016 2125 2229
8 2022 1908 2021 2131 2128 2018 2127 2231
8 2023 1909 2022 2132 2129 2019 2128 2232
8 2025 1911 2024 2134 2131 2021 2130 2234
8 2026 1912 2025 2135 2132 2022 2131 2235
8 1914 2028 2134 2024 2027 2136 2236 2133
8 2029 1915 2028 2137 2135 2025 2134 2237
8 2030 1918 2031 2138 2137 2028 2136 2238
8 2157 2050 2139 2240 2054 1941 2033 2140
8 2052 1940 2054 2161 2144 2035 2140 2242
8 2140 2033 2141 2243 2035 1923 2034 2143
8 2143 2034 2142 2246 2037 1924 2036 2146
8 2144 2035 2143 2247 2051 1939 2037 2147
8 2146 2036 2145 2249 2039 1925 2038 2149
8 2147 2037 2146 2250 2040 1926 2039 2150
8 2149 2038 2148 2251 2042 1927 2041 2151
8 2150 2039 2149 2252 2043 1928 2042 2152
8 2152 2042 2151 2253 2045 1931 2044 2153
8 2255 2154 2047 2155 2189 2085 1976 2086
8 2170 2062 1949 2063 2255 2154 2047 2155
8 2256 2155 2048 2156 2190 2086 1977 2087
8 2171 2063 1950 2064 2256 2155 2048 2156
8 2258 2159 2050 2157 2164 2056 1941 2054
8 2160 2053 1946 2058 2262 2163 2060 2167
8 2162 2055 1940 2052 2262 2163 2053 2160
8 2162 2055 2164 2263 2052 1940 2054 2161
8 2163 2057 1948 2060 2264 2165 2061 2168
8 2055 1943 2057 2163 2164 2056 2165 2264
8 2182 2076 2166 2268 2077 1964 2061 2168
8 2183 2077 2168 2269 2078 1965 2060 2167
8 2070 1963 2062 2170 2177 2075 2169 2271
8 2172 2070 1959 2065 2272 2170 2063 2171
8 2172 2070 2177 2273 2065 1959 2072 2173
8 2066 1958 2072 2173 2174 2071 2178 2274
8 2067 1957 2071 2174 2175 2069 2176 2275
8 2175 2069 2176 2275 2079 1973 2083 2184
8 2071 1961 2074 2178 2176 2073 2179 2276
8 2176 2073 2179 2276 2083 1975 2084 2186
8 2072 1962 2075 2177 2178 2074 2180 2277
8 2182 2076 1974 2082 2280 2181 2084 2186
8 2183 2077 1971 2081 2281 2182 2082 2185
8 2184 2083 2186 2282 2080 1972 2082 2185
8 2189 2085 1993 2095 2285 2188 2100 2197
8 2190 2086 1987 2090 2286 2189 2095 2193
8 2192 2097 1989 2089 2287 2196 2094 2191
8 2287 2196 2094 2191 2203 2104 1998 2103
8 2194 2098 1991 2091 2288 2199 2097 2192
8 2195 2096 2197 2289 2093 1988 2095 2193
8 2096 2195 2290 2198 1990 2092 2194 2098
8 2097 1996 2099 2196 2199 2102 2200 2291
8 2196 2099 1999 2104 2291 2200 2105 2204
8 2100 2197 2292 2201 1994 2096 2198 2101
8 1995 2098 2198 2101 2102 2199 2293 2202
8 2206 2107 2204 2296 2106 2001 2104 2203
8 2207 2108 2205 2297 2107 2002 2105 2204
8 2209 2110 2207 2299 2109 2004 2107 2206
8 2210 2111 2208 2300 2110 2005 2108 2207
8 2212 2113 2210 2302 2112 2007 2110 2209
8 2213 2114 2211 2303 2113 2008 2111 2210
8 2220 2117 2213 2305 2120 2011 2113 2212
8 2216 2115 2214 2306 2117 2009 2114 2213
8 2216 2115 2009 2117 2311 2217 2116 2219
8 2219 2116 2010 2119 2314 2218 2118 2222
8 2315 2219 2117 2220 2223 2119 2011 2120
8 2122 2012 2121 2225 2222 2118 2221 2317
8 2318 2222 2119 2223 2226 2122 2013 2123
8 2125 2015 2124 2228 2225 2121 2224 2320
8 2126 2016 2125 2229 2226 2122 2225 2321
8 2128 2018 2127 2231 2228 2124 2227 2323
8 2129 2019 2128 2232 2229 2125 2228 2324
8 2131 2021 2130 2234 2231 2127 2230 2326
8 2132 2022 2131 2235 2232 2128 2231 2327
8 2134 2024 2133 2236 2234 2130 2233 2328
8 2135 2025 2134 2237 2235 2131 2234 2329
8 2137 2028 2136 2238 2237 2134 2236 2330
8 2157 2050 2158 2259 2240 2139 2239 2332
8 2257 2157 2240 2334 2161 2054 2140 2242
8 2240 2139 2241 2335 2140 2033 2141 2243
8 2242 2140 2243 2337 2144 2035 2143 2247
8 2243 2141 2244 2338 2143 2034 2142 2246
8 2246 2142 2245 2341 2146 2036 2145 2249
8 2247 2143 2246 2342 2147 2037 2146 2250
8 2249 2145 2248 2343 2149 2038 2148 2251
8 2250 2146 2249 2344 2150 2039 2149 2252
8 2252 2149 2251 2345 2152 2042 2151 2253
8 2169 2271 2347 2254 2062 2170 2255 2154
8 2189 2085 2188 2285 2255 2154 2254 2347
8 2348 2255 2155 2256 2286 2189 2086 2190
8 2272 2170 2063 2171 2348 2255 2155 2256
8 2349 2258 2157 2257 2263 2164 2054 2161
8 2258 2159 2261 2351 2157 2050 2158 2259
8 2258 2159 2056 2164 2351 2261 2165 2264
8 2262 2163 2060 2167 2355 2264 2168 2269
8 2162 2055 2163 2262 2263 2164 2264 2355
8 2357 2266 2165 2264 2268 2166 2061 2168
8 2268 2166 2076 2182 2361 2267 2181 2280
8 2281 2182 2268 2362 2183 2077 2168 2269
8 2271 2169 2270 2364 2177 2075 2180 2277
8 2172 2070 2170 2272 2273 2177 2271 2365
8 2072 2173 2274 2178 2177 2273 2366 2277
8 2071 2174 2275 2176 2178 2274 2367 2276
8 2275 2176 2276 2367 2184 2083 2186 2282
8 2283 2187 2084 2186 2368 2278 2179 2276
8 2178 2074 2180 2277 2276 2179 2278 2368
8 2283 2187 2279 2370 2186 2084 2181 2280
8 2281 2182 2082 2185 2371 2280 2186 2282
8 2188 2285 2374 2284 2100 2197 2292 2201
8 2286 2189 2095 2193 2375 2285 2197 2289
8 2192 2097 2196 2287 2288 2199 2291 2376
8 2287 2196 2104 2203 2376 2291 2204 2296
8 2194 2098 2199 2288 2290 2198 2293 2377
8 2289 2197 2096 2195 2378 2292 2198 2290
8 2291 2200 2105 2204 2379 2294 2205 2297
8 2199 2102 2200 2291 2293 2202 2294 2379
8 2198 2101 2202 2293 2292 2201 2295 2380
8 2299 2207 2297 2383 2206 2107 2204 2296
8 2300 2208 2298 2384 2207 2108 2205 2297
8 2302 2210 2300 2386 2209 2110 2207 2299
8 2303 2211 2301 2387 2210 2111 2208 2300
8 2305 2213 2303 2389 2212 2113 2210 2302
8 2306 2214 2304 2390 2213 2114 2211 2303
8 2310 2216 2306 2392 2220 2117 2213 2305
8 2308 2215 2307 2393 2216 2115 2214 2306
8 2308 2215 2115 2216 2396 2309 2217 2311
8 2310 2216 2117 2220 2398 2311 2219 2315
8 2311 2217 2116 2219 2399 2312 2218 2314
8 2314 2218 2118 2222 2402 2313 2221 2317
8 2315 2219 2119 2223 2403 2314 2222 2318
8 2225 2121 2224 2320 2317 2221 2316 2405
8 2226 2122 2225 2321 2318 2222 2317 2406
8 2228 2124 2227 2323 2320 2224 2319 2408
8 2229 2125 2228 2324 2321 2225 2320 2409
8 2231 2127 2230 2326 2323 2227 2322 2411
8 2232 2128 2231 2327 2324 2228 2323 2412
8 2234 2130 2233 2328 2326 2230 2325 2413
8 2235 2131 2234 2329 2327 2231 2326 2414
8 2237 2134 2236 2330 2329 2234 2328 2415
8 2259 2158 2260 2352 2332 2239 2331 2417
8 2257 2157 2259 2350 2334 2240 2332 2419
8 2240 2139 2239 2332 2335 2241 2333 2420
8 2334 2240 2335 2422 2242 2140 2243 2337
8 2335 2241 2336 2423 2243 2141 2244 2338
8 2337 2243 2338 2425 2247 2143 2246 2342
8 2338 2244 2339 2426 2246 2142 2245 2341
8 2341 2245 2340 2428 2249 2145 2248 2343
8 2342 2246 2341 2429 2250 2146 2249 2344
8 2344 2249 2343 2430 2252 2149 2251 2345
8 2188 2285 2347 2254 2284 2374 2432 2346
8 2347 2254 2346 2432 2271 2169 2270 2364
8 2365 2271 2170 2272 2433 2347 2255 2348
8 2286 2189 2285 2375 2348 2255 2347 2433
8 2349 2258 2351 2435 2257 2157 2259 2350
8 2349 2258 2164 2263 2435 2351 2264 2355
8 2259 2158 2261 2351 2352 2260 2354 2437
8 2356 2265 2354 2437 2264 2165 2261 2351
8 2441 2357 2264 2355 2362 2268 2168 2269
8 2356 2265 2165 2264 2442 2358 2266 2357
8 2443 2359 2266 2357 2361 2267 2166 2268
8 2370 2279 2360 2446 2280 2181 2267 2361
8 2362 2268 2182 2281 2447 2361 2280 2371
8 2180 2277 2368 2278 2270 2364 2449 2363
8 2271 2365 2273 2177 2364 2450 2366 2277
8 2372 2283 2186 2282 2451 2368 2276 2367
8 2178 2274 2367 2276 2277 2366 2451 2368
8 2283 2187 2278 2368 2370 2279 2369 2452
8 2372 2283 2370 2453 2282 2186 2280 2371
8 2284 2374 2455 2373 2201 2292 2380 2295
8 2375 2285 2197 2289 2456 2374 2292 2378
8 2376 2291 2204 2296 2457 2379 2297 2383
8 2288 2199 2291 2376 2377 2293 2379 2457
8 2198 2290 2378 2292 2293 2377 2458 2380
8 2293 2202 2294 2379 2380 2295 2381 2459
8 2384 2298 2381 2459 2297 2205 2294 2379
8 2386 2300 2384 2463 2299 2207 2297 2383
8 2387 2301 2385 2464 2300 2208 2298 2384
8 2389 2303 2387 2466 2302 2210 2300 2386
8 2390 2304 2388 2467 2303 2211 2301 2387
8 2392 2306 2390 2469 2305 2213 2303 2389
8 2393 2307 2391 2470 2306 2214 2304 2390
8 2395 2308 2393 2472 2310 2216 2306 2392
8 2308 2215 2309 2396 2393 2307 2394 2473
8 2395 2308 2216 2310 2475 2396 2311 2398
8 2396 2309 2217 2311 2476 2397 2312 2399
8 2398 2311 2219 2315 2478 2399 2314 2403
8 2399 2312 2218 2314 2479 2400 2313 2402
8 2317 2221 2316 2405 2402 2313 2401 2482
8 2403 2314 2222 2318 2483 2402 2317 2406
8 2320 2224 2319 2408 2405 2316 2404 2485
8 2321 2225 2320 2409 2406 2317 2405 2486
8 2323 2227 2322 2411 2408 2319 2407 2488
8 2324 2228 2323 2412 2409 2320 2408 2489
8 2326 2230 2325 2413 2411 2322 2410 2490
8 2327 2231 2326 2414 2412 2323 2411 2491
8 2329 2234 2328 2415 2414 2326 2413 2492
8 2417 2331 2260 2352 2494 2416 2353 2438
8 2350 2259 2352 2436 2419 2332 2417 2496
8 2332 2239 2331 2417 2420 2333 2418 2497
8 2334 2240 2332 2419 2422 2335 2420 2499
8 2420 2333 2421 2500 2335 2241 2336 2423
8 2422 2335 2423 2502 2337 2243 2338 2425
8 2423 2336 2424 2503 2338 2244 2339 2426
8 2425 2338 2426 2505 2342 2246 2341 2429
8 2426 2339 2427 2506 2341 2245 2340 2428
8 2429 2341 2428 2507 2344 2249 2343 2430
8 2432 2346 2284 2374 2509 2431 2373 2455
8 2432 2346 2431 2509 2364 2270 2363 2449
8 2375 2285 2374 2456 2433 2347 2432 2510
8 2347 2433 2365 2271 2432 2510 2450 2364
8 2350 2259 2351 2435 2436 2352 2437 2514
8 2440 2356 2437 2514 2355 2264 2351 2435
8 2352 2260 2354 2437 2438 2353 2439 2516
8 2356 2265 2358 2442 2437 2354 2439 2516
8 2440 2356 2264 2355 2518 2442 2357 2441
8 2519 2443 2357 2441 2447 2361 2268 2362
8 2443 2359 2444 2520 2357 2266 2358 2442
8 2443 2359 2267 2361 2520 2444 2360 2446
8 2446 2360 2279 2370 2523 2445 2369 2452
8 2453 2370 2446 2524 2371 2280 2361 2447
8 2449 2363 2448 2525 2368 2278 2369 2452
8 2366 2277 2364 2450 2451 2368 2449 2526
8 2372 2283 2368 2451 2453 2370 2452 2527
8 2455 2373 2295 2380 2529 2454 2382 2460
8 2456 2374 2292 2378 2530 2455 2380 2458
8 2377 2293 2379 2457 2458 2380 2459 2531
8 2463 2384 2459 2531 2383 2297 2379 2457
8 2533 2461 2382 2460 2459 2381 2295 2380
8 2464 2385 2461 2533 2384 2298 2381 2459
8 2466 2387 2464 2537 2386 2300 2384 2463
8 2467 2388 2465 2538 2387 2301 2385 2464
8 2469 2390 2467 2540 2389 2303 2387 2466
8 2470 2391 2468 2541 2390 2304 2388 2467
8 2472 2393 2470 2543 2392 2306 2390 2469
8 2393 2307 2394 2473 2470 2391 2471 2544
8 2395 2308 2396 2475 2472 2393 2473 2546
8 2396 2309 2397 2476 2473 2394 2474 2547
8 2475 2396 2311 2398 2549 2476 2399 2478
8 2476 2397 2312 2399 2550 2477 2400 2479
8 2478 2399 2314 2403 2552 2479 2402 2483
8 2479 2400 2313 2402 2553 2480 2401 2482
8 2405 2316 2404 2485 2482 2401 2481 2556
8 2406 2317 2405 2486 2483 2402 2482 2557
8 2408 2319 2407 2488 2485 2404 2484 2559
8 2409 2320 2408 2489 2486 2405 2485 2560
8 2411 2322 2410 2490 2488 2407 2487 2561
8 2412 2323 2411 2491 2489 2408 2488 2562
8 2414 2326 2413 2492 2491 2411 2490 2563
8 2513 2434 2493 2565 2438 2353 2416 2494
8 2496 2417 2352 2436 2567 2494 2438 2515
8 2494 2416 2495 2568 2417 2331 2418 2497
8 2419 2332 2417 2496 2499 2420 2497 2570
8 2497 2418 2498 2571 2420 2333 2421 2500
8 2499 2420 2500 2573 2422 2335 2423 2502
8 2500 2421 2501 2574 2423 2336 2424 2503
8 2502 2423 2503 2576 2425 2338 2426 2505
8 2503 2424 2504 2577 2426 2339 2427 2506
8 2505 2426 2506 2578 2429 2341 2428 2507
8 2509 2431 2373 2455 2580 2508 2454 2529
8 2509 2431 2508 2580 2449 2363 2448 2525
8 2432 2510 2581 2509 2374 2456 2530 2455
8 2432 2510 2450 2364 2509 2581 2526 2449
8 2583 2511 2434 2513 2516 2439 2353 2438
8 2436 2352 2437 2514 2515 2438 2516 2588
8 2440 2356 2442 2518 2514 2437 2516 2588
8 2442 2358 2444 2520 2516 2439 2517 2589
8 2519 2443 2520 2591 2441 2357 2442 2518
8 2519 2443 2361 2447 2591 2520 2446 2524
8 2446 2360 2445 2523 2520 2444 2521 2592
8 2525 2448 2522 2593 2452 2369 2445 2523
8 2524 2446 2370 2453 2594 2523 2452 2527
8 2526 2449 2525 2595 2451 2368 2452 2527
8 2534 2462 2528 2597 2460 2382 2454 2529
8 2530 2455 2380 2458 2598 2529 2460 2532
8 2599 2533 2460 2532 2531 2459 2380 2458
8 2537 2464 2533 2599 2463 2384 2459 2531
8 2534 2462 2382 2460 2601 2535 2461 2533
8 2538 2465 2535 2601 2464 2385 2461 2533
8 2540 2467 2538 2604 2466 2387 2464 2537
8 2541 2468 2539 2605 2467 2388 2465 2538
8 2543 2470 2541 2607 2469 2390 2467 2540
8 2470 2391 2471 2544 2541 2468 2542 2608
8 2472 2393 2473 2546 2543 2470 2544 2610
8 2473 2394 2474 2547 2544 2471 2545 2611
8 2475 2396 2476 2549 2546 2473 2547 2613
8 2476 2397 2477 2550 2547 2474 2548 2614
8 2549 2476 2399 2478 2616 2550 2479 2552
8 2479 2400 2480 2553 2550 2477 2551 2617
8 2552 2479 2402 2483 2619 2553 2482 2557
8 2482 2401 2481 2556 2553 2480 2554 2620
8 2485 2404 2484 2559 2556 2481 2555 2623
8 2486 2405 2485 2560 2557 2482 2556 2624
8 2488 2407 2487 2561 2559 2484 2558 2625
8 2489 2408 2488 2562 2560 2485 2559 2626
8 2491 2411 2490 2563 2562 2488 2561 2627
8 2513 2434 2512 2585 2565 2493 2564 2630
8 2586 2513 2565 2632 2515 2438 2494 2567
8 2565 2493 2566 2633 2494 2416 2495 2568
8 2567 2494 2568 2635 2496 2417 2497 2570
8 2568 2495 2569 2636 2497 2418 2498 2571
8 2570 2497 2571 2638 2499 2420 2500 2573
8 2571 2498 2572 2639 2500 2421 2501 2574
8 2573 2500 2574 2641 2502 2423 2503 2576
8 2574 2501 2575 2642 2503 2424 2504 2577
8 2576 2503 2577 2643 2505 2426 2506 2578
8 2597 2528 2579 2645 2529 2454 2508 2580
8 2580 2508 2579 2645 2525 2448 2522 2593
8 2581 2509 2455 2530 2646 2580 2529 2598
8 2581 2509 2580 2646 2526 2449 2525 2595
8 2583 2511 2582 2648 2513 2434 2512 2585
8 2583 2511 2439 2516 2648 2582 2517 2589
8 2649 2583 2513 2586 2588 2516 2438 2515
8 2589 2517 2444 2520 2653 2587 2521 2592
8 2518 2442 2520 2591 2588 2516 2589 2654
8 2593 2522 2590 2655 2523 2445 2521 2592
8 2524 2446 2523 2594 2591 2520 2592 2656
8 2595 2525 2593 2657 2527 2452 2523 2594
8 2602 2536 2596 2659 2534 2462 2528 2597
8 2600 2534 2597 2660 2532 2460 2529 2598
8 2600 2534 2460 2532 2661 2601 2533 2599
8 2604 2538 2601 2661 2537 2464 2533 2599
8 2602 2536 2462 2534 2663 2603 2535 2601
8 2601 2535 2465 2538 2663 2603 2539 2605
8 2607 2541 2605 2665 2540 2467 2538 2604
8 2608 2542 2606 2666 2541 2468 2539 2605
8 2543 2470 2544 2610 2607 2541 2608 2668
8 2544 2471 2545 2611 2608 2542 2609 2669
8 2546 2473 2547 2613 2610 2544 2611 2671
8 2547 2474 2548 2614 2611 2545 2612 2672
8 2549 2476 2550 2616 2613 2547 2614 2674
8 2550 2477 2551 2617 2614 2548 2615 2675
8 2552 2479 2553 2619 2616 2550 2617 2677
8 2553 2480 2554 2620 2617 2551 2618 2678
8 2557 2482 2556 2624 2619 2553 2620 2680
8 2556 2481 2555 2623 2620 2554 2621 2681
8 2559 2484 2558 2625 2623 2555 2622 2683
8 2560 2485 2559 2626 2624 2556 2623 2684
8 2562 2488 2561 2627 2626 2559 2625 2685
8 2690 2629 2564 2630 2650 2584 2512 2585
8 2586 2513 2585 2651 2632 2565 2630 2691
8 2630 2564 2631 2692 2565 2493 2566 2633
8 2632 2565 2633 2694 2567 2494 2568 2635
8 2633 2566 2634 2695 2568 2495 2569 2636
8 2635 2568 2636 2697 2570 2497 2571 2638
8 2636 2569 2637 2698 2571 2498 2572 2639
8 2638 2571 2639 2700 2573 2500 2574 2641
8 2639 2572 2640 2701 2574 2501 2575 2642
8 2641 2574 2642 2702 2576 2503 2577 2643
8 2597 2528 2596 2659 2645 2579 2644 2704
8 2645 2579 2644 2704 2593 2522 2590 2655
8 2660 2597 2645 2705 2598 2529 2580 2646
8 2646 2580 2645 2705 2595 2525 2593 2657
8 2650 2584 2512 2585 2707 2647 2582 2648
8 2648 2582 2517 2589 2707 2647 2587 2653
8 2649 2583 2648 2708 2586 2513 2585 2651
8 2649 2583 2516 2588 2708 2648 2589 2654
8 2655 2590 2652 2710 2592 2521 2587 2653
8 2654 2589 2520 2591 2711 2653 2592 2656
8 2657 2593 2655 2712 2594 2523 2592 2656
8 2602 2536 2603 2663 2659 2596 2658 2714
8 2662 2602 2659 2715 2600 2534 2597 2660
8 2662 2602 2534 2600 2717 2663 2601 2661
8 2661 2601 2538 2604 2717 2663 2605 2665
8 2666 2606 2664 2718 2605 2539 2603 2663
8 2668 2608 2666 2720 2607 2541 2605 2665
8 2608 2542 2609 2669 2666 2606 2667 2721
8 2610 2544 2611 2671 2668 2608 2669 2723
8 2611 2545 2612 2672 2669 2609 2670 2724
8 2613 2547 2614 2674 2671 2611 2672 2726
8 2614 2548 2615 2675 2672 2612 2673 2727
8 2616 2550 2617 2677 2674 2614 2675 2729
8 2617 2551 2618 2678 2675 2615 2676 2730
8 2619 2553 2620 2680 2677 2617 2678 2732
8 2620 2554 2621 2681 2678 2618 2679 2733
8 2624 2556 2623 2684 2680 2620 2681 2735
8 2681 2621 2555 2623 2736 2682 2622 2683
8 2626 2559 2625 2685 2684 2623 2683 2737
8 2688 2628 2584 2650 2740 2686 2647 2707
8 2688 2628 2687 2742 2650 2584 2629 2690
8 2690 2629 2689 2745 2630 2564 2631 2692
8 2746 2690 2630 2691 2709 2650 2585 2651
8 2691 2630 2692 2747 2632 2565 2633 2694
8 2692 2631 2693 2748 2633 2566 2634 2695
8 2694 2633 2695 2750 2635 2568 2636 2697
8 2695 2634 2696 2751 2636 2569 2637 2698
8 2697 2636 2698 2753 2638 2571 2639 2700
8 2698 2637 2699 2754 2639 2572 2640 2701
8 2700 2639 2701 2755 2641 2574 2642 2702
8 2659 2596 2658 2714 2704 2644 2703 2757
8 2704 2644 2703 2757 2655 2590 2652 2710
8 2660 2597 2659 2715 2705 2645 2704 2758
8 2705 2645 2704 2758 2657 2593 2655 2712
8 2759 2706 2647 2707 2710 2652 2587 2653
8 2709 2650 2585 2651 2760 2707 2648 2708
8 2708 2648 2589 2654 2760 2707 2653 2711
8 2712 2655 2710 2761 2656 2592 2653 2711
8 2763 2713 2658 2714 2718 2664 2603 2663
8 2662 2602 2663 2717 2715 2659 2714 2764
8 2720 2666 2718 2767 2665 2605 2663 2717
8 2768 2719 2664 2718 2721 2667 2606 2666
8 2668 2608 2669 2723 2720 2666 2721 2770
8 2669 2609 2670 2724 2721 2667 2722 2771
8 2671 2611 2672 2726 2723 2669 2724 2773
8 2672 2612 2673 2727 2724 2670 2725 2774
8 2674 2614 2675 2729 2726 2672 2727 2776
8 2675 2615 2676 2730 2727 2673 2728 2777
8 2677 2617 2678 2732 2729 2675 2730 2779
8 2678 2618 2679 2733 2730 2676 2731 2780
8 2680 2620 2681 2735 2732 2678 2733 2782
8 2733 2679 2621 2681 2783 2734 2682 2736
8 2735 2681 2623 2684 2784 2736 2683 2737
8 2740 2686 2647 2707 2787 2738 2706 2759
8 2688 2628 2686 2740 2742 2687 2739 2789
8 2743 2688 2650 2709 2790 2740 2707 2760
8 2742 2687 2741 2792 2690 2629 2689 2745
8 2743 2688 2742 2793 2709 2650 2690 2746
8 2745 2689 2744 2795 2692 2631 2693 2748
8 2746 2690 2745 2796 2691 2630 2692 2747
8 2747 2692 2748 2797 2694 2633 2695 2750
8 2748 2693 2749 2798 2695 2634 2696 2751
8 2750 2695 2751 2800 2697 2636 2698 2753
8 2751 2696 2752 2801 2698 2637 2699 2754
8 2753 2698 2754 2802 2700 2639 2701 2755
8 2763 2713 2756 2804 2714 2658 2703 2757
8 2759 2706 2652 2710 2804 2756 2703 2757
8 2715 2659 2714 2764 2758 2704 2757 2805
8 2758 2704 2757 2805 2712 2655 2710 2761
8 2806 2759 2707 2760 2761 2710 2653 2711
8 2765 2716 2762 2808 2718 2664 2713 2763
8 2809 2763 2714 2764 2767 2718 2663 2717
8 2765 2716 2664 2718 2811 2766 2719 2768
8 2813 2768 2718 2767 2770 2721 2666 2720
8 2814 2769 2719 2768 2771 2722 2667 2721
8 2723 2669 2724 2773 2770 2721 2771 2816
8 2724 2670 2725 2774 2771 2722 2772 2817
8 2726 2672 2727 2776 2773 2724 2774 2819
8 2727 2673 2728 2777 2774 2725 2775 2820
8 2729 2675 2730 2779 2776 2727 2777 2822
8 2730 2676 2731 2780 2777 2728 2778 2823
8 2732 2678 2733 2782 2779 2730 2780 2825
8 2780 2731 2679 2733 2826 2781 2734 2783
8 2782 2733 2681 2735 2827 2783 2736 2784
8 2830 2785 2738 2787 2804 2756 2706 2759
8 2789 2739 2686 2740 2832 2786 2738 2787
8 2790 2740 2707 2760 2833 2787 2759 2806
8 2742 2687 2739 2789 2792 2741 2788 2835
8 2743 2688 2740 2790 2793 2742 2789 2836
8 2792 2741 2791 2838 2745 2689 2744 2795
8 2793 2742 2792 2839 2746 2690 2745 2796
8 2795 2744 2794 2841 2748 2693 2749 2798
8 2796 2745 2795 2842 2747 2692 2748 2797
8 2797 2748 2798 2843 2750 2695 2751 2800
8 2798 2749 2799 2844 2751 2696 2752 2801
8 2800 2751 2801 2845 2753 2698 2754 2802
8 2808 2762 2803 2847 2763 2713 2756 2804
8 2809 2763 2804 2848 2764 2714 2757 2805
8 2806 2759 2710 2761 2848 2804 2757 2805
8 2765 2716 2766 2811 2808 2762 2807 2850
8 2810 2765 2808 2851 2767 2718 2763 2809
8 2810 2765 2718 2767 2852 2811 2768 2813
8 2811 2766 2719 2768 2853 2812 2769 2814
8 2855 2814 2768 2813 2816 2771 2721 2770
8 2856 2815 2769 2814 2817 2772 2722 2771
8 2773 2724 2774 2819 2816 2771 2817 2858
8 2774 2725 2775 2820 2817 2772 2818 2859
8 2776 2727 2777 2822 2819 2774 2820 2861
8 2777 2728 2778 2823 2820 2775 2821 2862
8 2779 2730 2780 2825 2822 2777 2823 2864
8 2823 2778 2731 2780 2865 2824 2781 2826
8 2825 2780 2733 2782 2866 2826 2783 2827
8 2869 2828 2785 2830 2847 2803 2756 2804
8 2871 2829 2786 2832 2830 2785 2738 2787
8 2872 2830 2787 2833 2848 2804 2759 2806
8 2789 2739 2786 2832 2835 2788 2831 2874
8 2836 2789 2740 2790 2875 2832 2787 2833
8 2792 2741 2788 2835 2838 2791 2834 2877
8 2793 2742 2789 2836 2839 2792 2835 2878
8 2838 2791 2837 2880 2795 2744 2794 2841
8 2839 2792 2838 2881 2796 2745 2795 2842
8 2841 2794 2840 2882 2798 2749 2799 2844
8 2842 2795 2841 2883 2797 2748 2798 2843
8 2843 2798 2844 2884 2800 2751 2801 2845
8 2886 2846 2803 2847 2850 2807 2762 2808
8 2851 2808 2847 2887 2809 2763 2804 2848
8 2850 2807 2766 2811 2889 2849 2812 2853
8 2810 2765 2811 2852 2851 2808 2850 2890
8 2852 2811 2768 2813 2891 2853 2814 2855
8 2853 2812 2769 2814 2892 2854 2815 2856
8 2894 2856 2814 2855 2858 2817 2771 2816
8 2817 2772 2818 2859 2856 2815 2857 2895
8 2819 2774 2820 2861 2858 2817 2859 2897
8 2820 2775 2821 2862 2859 2818 2860 2898
8 2822 2777 2823 2864 2861 2820 2862 2900
8 2823 2778 2824 2865 2862 2821 2863 2901
8 2864 2823 2780 2825 2902 2865 2826 2866
8 2904 2867 2828 2869 2886 2846 2803 2847
8 2869 2828 2868 2906 2830 2785 2829 2871
8 2907 2869 2830 2872 2887 2847 2804 2848
8 2871 2829 2870 2909 2832 2786 2831 2874
8 2910 2871 2832 2875 2872 2830 2787 2833
8 2835 2788 2831 2874 2877 2834 2873 2912
8 2836 2789 2832 2875 2878 2835 2874 2913
8 2877 2834 2876 2915 2838 2791 2837 2880
8 2839 2792 2835 2878 2881 2838 2877 2916
8 2880 2837 2879 2917 2841 2794 2840 2882
8 2881 2838 2880 2918 2842 2795 2841 2883
8 2883 2841 2882 2919 2843 2798 2844 2884
8 2921 2885 2846 2886 2889 2849 2807 2850
8 2922 2886 2847 2887 2890 2850 2808 2851
8 2889 2849 2812 2853 2924 2888 2854 2892
8 2890 2850 2811 2852 2925 2889 2853 2891
8 2891 2853 2814 2855 2926 2892 2856 2894
8 2892 2854 2815 2856 2927 2893 2857 2895
8 2858 2817 2859 2897 2894 2856 2895 2929
8 2859 2818 2860 2898 2895 2857 2896 2930
8 2861 2820 2862 2900 2897 2859 2898 2932
8 2862 2821 2863 2901 2898 2860 2899 2933
8 2864 2823 2865 2902 2900 2862 2901 2934
8 2904 2867 2846 2886 2936 2903 2885 2921
8 2904 2867 2903 2936 2869 2828 2868 2906
8 2937 2904 2869 2907 2922 2886 2847 2887
8 2906 2868 2905 2939 2871 2829 2870 2909
8 2907 2869 2906 2940 2872 2830 2871 2910
8 2909 2870 2908 2942 2874 2831 2873 2912
8 2910 2871 2909 2943 2875 2832 2874 2913
8 2912 2873 2911 2945 2877 2834 2876 2915
8 2878 2835 2874 2913 2916 2877 2912 2946
8 2915 2876 2914 2947 2880 2837 2879 2917
8 2916 2877 2915 2948 2881 2838 2880 2918
8 2918 2880 2917 2949 2883 2841 2882 2919
8 2921 2885 2849 2889 2951 2920 2888 2924
8 2952 2921 2886 2922 2925 2889 2850 2890
8 2924 2888 2854 2892 2954 2923 2893 2927
8 2925 2889 2853 2891 2955 2924 2892 2926
8 2926 2892 2856 2894 2956 2927 2895 2929
8 2895 2857 2896 2930 2927 2893 2928 2957
8 2897 2859 2898 2932 2929 2895 2930 2959
8 2898 2860 2899 2933 2930 2896 2931 2960
8 2900 2862 2901 2934 2932 2898 2933 2961
8 2936 2903 2885 2921 2963 2935 2920 2951
8 2936 2903 2935 2963 2906 2868 2905 2939
8 2937 2904 2886 2922 2964 2936 2921 2952
8 2937 2904 2936 2964 2907 2869 2906 2940
8 2939 2905 2938 2966 2909 2870 2908 2942
8 2940 2906 2939 2967 2910 2871 2909 2943
8 2942 2908 2941 2969 2912 2873 2911 2945
8 2943 2909 2942 2970 2913 2874 2912 2946
8 2945 2911 2944 2971 2915 2876 2914 2947
8 2946 2912 2945 2972 2916 2877 2915 2948
8 2948 2915 2947 2973 2918 2880 2917 2949
8 2951 2920 2888 2924 2975 2950 2923 2954
8 2952 2921 2889 2925 2976 2951 2924 2955
8 2927 2893 2928 2957 2954 2923 2953 2978
8 2955 2924 2892 2926 2979 2954 2927 2956
8 2929 2895 2930 2959 2956 2927 2957 2980
8 2930 2896 2931 2960 2957 2928 2958 2981
8 2932 2898 2933 2961 2959 2930 2960 2982
8 2951 2920 2950 2975 2963 2935 2962 2984
8 2963 2935 2962 2984 2939 2905 2938 2966
8 2964 2936 2921 2952 2985 2963 2951 2976
8 2964 2936 2963 2985 2940 2906 2939 2967
8 2966 2938 2965 2987 2942 2908 2941 2969
8 2967 2939 2966 2988 2943 2909 2942 2970
8 2969 2941 2968 2989 2945 2911 2944 2971
8 2970 2942 2969 2990 2946 2912 2945 2972
8 2972 2945 2971 2991 2948 2915 2947 2973
8 2954 2923 2953 2978 2975 2950 2974 2993
8 2976 2951 2924 2955 2994 2975 2954 2979
8 2957 2928 2958 2981 2978 2953 2977 2995
8 2956 2927 2957 2980 2979 2954 2978 2996
8 2959 2930 2960 2982 2980 2957 2981 2997
8 2984 2962 2983 2999 2966 2938 2965 2987
8 2975 2950 2974 2993 2984 2962 2983 2999
8 2976 2951 2975 2994 2985 2963 2984 3000
8 2985 2963 2984 3000 2967 2939 2966 2988
8 2987 2965 2986 3001 2969 2941 2968 2989
8 2988 2966 2987 3002 2970 2942 2969 2990
8 2990 2969 2989 3003 2972 2945 2971 2991
8 2978 2953 2977 2995 2993 2974 2992 3004
8 2979 2954 2978 2996 2994 2975 2993 3005
8 2980 2957 2981 2997 2996 2978 2995 3006
8 2974 2993 2999 2983 2992 3004 3007 2998
8 2983 2999 2987 2965 2998 3007 3001 2986
8 3000 2984 2999 3008 2988 2966 2987 3002
8 2994 2975 2993 3005 3000 2984 2999 3008
8 3002 2987 3001 3009 2990 2969 2989 3003
8 2996 2978 2995 3006 3005 2993 3004 3010
8 3005 2993 3004 3010 3008 2999 3007 3011
8 3008 2999 3007 3011 3002 2987 3001 3009

CELL_TYPES 1910
12
12
12
12
12
12
12
12
12
12
12
12
12
12
12
12
12
12
12
12
12
12
12
12
12
12
12
12
12
12
12
12
12
12
12
12
12
12
12
12
12
12
12
12
12
12
12
12
12
12
12
12
12
12
12
12
12
12
12
12
12
12
12
12
12
12
12
12
12
12
12
12
12
12
12
12
12
12
12
12
12
12
12
12
12
12
12
12
12
12
12
12
12
12
12
12
12
12
12
12
12
12
12
12
12
12
12
12
12
12
12
12
12
12
12
12
12
12
12
12
12
12
12
12
12
12
12
12
12
12
12
12
12
12
12
12
12
12
12
12
12
12
12
12
12
12
12
12
12
12
12
12
12
12
12
12
12
12
12
12
12
12
12
12
12
12
12
12
12
12
12
12
12
12
12
12
12
12
12
12
12
12
12
12
12
12
12
12
12
12
12
12
12
12
12
12
12
12
12
12
12
12
12
12
12
12
12
12
12
12
12
12
12
12
12
12
12
12
12
12
12
12
12
12
12
12
12
12
12
12
12
12
12
12
12
12
12
12
12
12
12
12
12
12
12
12
12
12
12
12
12
12
12
12
12
12
12
12
12
12
12
12
12
12
12
12
12
12
12
12
12
12
12
12
12
12
12
12
12
12
12
12
12
12
12
12
12
12
12
12
12
12
12
12
12
12
12
12
12
12
12
12
12
12
12
12
12
12
12
12
12
12
12
12
12
12
12
12
12
12
12
12
12
12
12
12
12
12
12
12
12
12
12
12
12
12
12
12
12
12
12
12
12
12
12
12
12
12
12
12
12
12
12
12
12
12
12
12
12
12
12
12
12
12
12
12
12
12
12
12
12
12
12
12
12
12
12
12
12
12
12
12
12
12
12
12
12
12
12
12
12
12
12
12
12
12
12
12
12
12
12
12
12
12
12
12
12
12
12
12
12
12
12
12
12
12
12
12
12
12
12
12
12
12
12
12
12
12
12
12
12
12
12
12
12
12
12
12
12
12
12
12
12
12
12
12
12
12
12
12
12
12
12
12
12
12
12
12
12
12
12
12
12
12
12
12
12
12
12
12
12
12
12
12
12
12
12
12
12
12
12
12
12
12
12
12
12
12
12
12
12
12
12
12
12
12
12
12
12
12
12
12
12
12
12
12
12
12
12
12
12
12
12
12
12
12
12
12
12
12
12
12
12
12
12
12
12
12
12
12
12
12
12
12
12
12
12
12
12
12
12
12
12
12
12
12
12
12
12
12
12
12
12
12
12
12
12
12
12
12
12
12
12
12
12
12
12
12
12
12
12
12
12
12
12
12
12
12
12
12
12
12
12
12
12
12
12
12
12
12
12
12
12
12
12
12
12
12
12
12
12
12
12
12
12
12
12
12
12
12
12
12
12
12
12
12
12
12
12
12
12
12
12
12
12
12
12
12
12
12
12
12
12
12
12
12
12
12
12
12
12
12
12
12
12
12
12
12
12
12
12
12
12
12
12
12
12
12
12
12
12
12
12
12
12
12
12
12
12
12
12
12
12
12
12
12
12
12
12
12
12
12
12
12
12
12
12
12
12
12
12
12
12
12
12
12
12
12
12
12
12
12
12
12
12
12
12
12
12
12
12
12
12
12
12
12
12
12
12
12
12
12
12
12
12
12
12
12
12
12
12
12
12
12
12
12
12
12
12
12
12
12
12
12
12
12
12
12
12
12
12
12
12
12
12
12
12
12
12
12
12
12
12
12
12
12
12
12
12
12
12
12
12
12
12
12
12
12
12
12
12
12
12
12
12
12
12
12
12
12
12
12
12
12
12
12
12
12
12
12
12
12
12
12
12
12
12
12
12
12
12
12
12
12
12
12
12
12
12
12
12
12
12
12
12
12
12
12
12
12
12
12
12
12
12
12
12
12
12
12
12
12
12
12
12
12
12
12
12
12
12
12
12
12
12
12
12
12
12
12
12
12
12
12
12
12
12
12
12
12
12
12
12
12
12
12
12
12
12
12
12
12
12
12
12
12
12
12
12
12
12
12
12
12
12
12
12
12
12
12
12
12
12
12
12
12
12
12
12
12
12
12
12
12
12
12
12
12
12
12
12
12
12
12
12
12
12
12
12
12
12
12
12
12
12
12
12
12
12
12
12
12
12
12
12
12
12
12
12
12
12
12
12
12
12
12
12
12
12
12
12
12
12
12
12
12
12
12
12
12
12
12
12
12
12
12
12
12
12
12
12
12
12
12
12
12
12
12
12
12
12
12
12
12
12
12
12
12
12
12
12
12
12
12
12
12
12
12
12
12
12
12
12
12
12
12
12
12
12
12
12
12
12
12
12
12
12
12
12
12
12
12
12
12
12
12
12
12
12
12
12
12
12
12
12
12
12
12
12
12
12
12
12
12
12
12
12
12
12
12
12
12
12
12
12
12
12
12
12
12
12
12
12
12
12
12
12
12
12
12
12
12
12
12
12
12
12
12
12
12
12
12
12
12
12
12
12
12
12
12
12
12
12
12
12
12
12
12
12
12
12
12
12
12
12
12
12
12
12
12
12
12
12
12
12
12
12
12
12
12
12
12
12
12
12
12
12
12
12
12
12
12
12
12
12
12
12
12
12
12
12
12
12
12
12
12
12
12
12
12
12
12
12
12
12
12
12
12
12
12
12
12
12
12
12
12
12
12
12
12
12
12
12
12
12
12
12
12
12
12
12
12
12
12
12
12
12
12
12
12
12
12
12
12
12
12
12
12
12
12
12
12
12
12
12
12
12
12
12
12
12
12
12
12
12
12
12
12
12
12
12
12
12
12
12
12
12
12
12
12
12
12
12
12
12
12
12
12
12
12
12
12
12
12
12
12
12
12
12
12
12
12
12
12
12
12
12
12
12
12
12
12
12
12
12
12
12
12
12
12
12
12
12
12
12
12
12
12
12
12
12
12
12
12
12
12
12
12
12
12
12
12
12
12
12
12
12
12
12
12
12
12
12
12
12
12
12
12
12
12
12
12
12
12
12
12
12
12
12
12
12
12
12
12
12
12
12
12
12
12
12
12
12
12
12
12
12
12
12
12
12
12
12
12
12
12
12
12
12
12
12
12
12
12
12
12
12
12
12
12
12
12
12
12
12
12
12
12
12
12
12
12
12
12
12
12
12
12
12
12
12
12
12
12
12
12
12
12
12
12
12
12
12
12
12
12
12
12
12
12
12
12
12
12
12
12
12
12
12
12
12
12
12
12
12
12
12
12
12
12
12
12
12
12
12
12
12
12
12
12
12
12
12
12
12
12
12
12
12
12
12
12
12
12
12
12
12
12
12
12
12
12
12
12
12
12
12
12
12
12
12
12
12
12
12
12
12
12
12
12
12
12
12
12
12
12
12
12
12
12
12
12
12
12
12
12
12
12
12
12
12
12
12
12
12
12
12
12
12
12
12
12
12
12
12
12
12
12
12
12
12
12
12
12
12
12
12
12
12
12
12
12
12
12
12
12
12
12
12
12
12
12
12
12
12
12
12
12
12
12
12
12
12
12
12
12
12
12
12
12
12
12
12
12
12
12
12
12
12
12
12
12
12
12
12
12
12
12
12
12
12
12
12
12
12
12
12
12
12
12
12
12
12
12
12
12
12
12
12
12
12
12
12
12
12
12
12
12
12
12
12
12
12
12
12
12
12
12
12
12
12
12
12
12
12
12
12
12
12
12
12
12
12
12
12
12
12
12
12
12
12
12
12
12
12
12
12
12
12
12
12
12
12
12
12
12
12
12
12
12
12
12
12
12
12
12
12
12
12
12
12
12
12
12
12
12
12
12
12
12
12
12
12
12
12
12
12
12
12
12
12
12
12
12
12
12
12
12
12
12
12
12
12
12
12
12
12
12
12
12
12
12
12
12
12
12
12
12
12
12
12
12
12
12
12
12
12
12
12
12
12
12
12
12
12
12
12
12
12
12
12
12
12
12
12
12
12
12
12
12
12
12
12
12
12
12
12
12
12
12
12
12
12
12
12
12
12
12
12
12
12
12
12
12
12
12
12
12
12
12
12
12
12
12
12
12
12
12
12
12
12
12
12
12
12
12
12
12
12
12
12
12
12
12
12
12
12
12
12
12
12
12
12
12
12
12
12
12
12
12
12
12
12
12
12
12
12
12
12
12
12
12
12
12
12
12
12
12
12
12
12
12
12
12
12
12
12
12
12
12
12
12
12
12
12
12
12
12
12
12
12
12
12
12
12
12
12
12
12
12
12
12
12
12
12
12
12
12
12
12
12
12
12
12
12
12
12
12
12
12
12
12
12
12
12
12
12
12
12
12
12
12
12
12
12
12
12
12
12
12

POINT_DATA 3012
SCALARS Jp_lamdaP float 4
LOOKUP_TABLE default
0.999748 1 1 0.999748
1 1 1 1
0.999755 1 1 0.999755
0.999696 1 1 0.999696
0.999749 1 1 0.999749
0.999734 1 1 0.999734
0.999032 1 1 0.999032
1 1 1 1
1 1 1 1
1 1 1 1
0.999822 1 1 0.999822
0.999163 1 1 0.999163
0.999676 1 1 0.999676
0.999694 1 1 0.999694
0.999756 1 1 0.999756
0.999718 1 1 0.999718
0.99974 1 1 0.99974
0.999762 1 1 0.999762
0.999034 1 1 0.999034
1 1 1 1
0.999676 1 1 0.999676
0.999727 1 1 0.999727
0.998902 1 1 0.998902
0.999006 1 1 0.999006
0.999746 1 1 0.999746
0.999054 1 1 0.999054
1.0064 1.0085 1 0.997924
1 1 1 1
0.999864 1 1 0.999864
0.999877 1 1 0.999877
1 1 1 1
0.999172 1 1 0.999172
0.999721 1 1 0.999721
0.999746 1 1 0.999746
0.999156 1 1 0.999156
1 1 1 1
0.999241 1 1 0.999241
0.999264 1 1 0.999264
1.00081 1.00289 1 0.997922
1 1 1 1
1 1 1 1
0.999846 1 1 0.999846
1 1 1 1
0.999694 1 1 0.999694
0.998829 1 1 0.998829
1 1 1 1
0.999056 1 1 0.999056
0.999738 1 1 0.999738
0.999771 1 1 0.999771
0.999741 1 1 0.999741
0.999039 1 1 0.999039
0.99983 1 1 0.99983
0.999697 1 1 0.999697
0.999758 1 1 0.999758
0.999747 1 1 0.999747
0.9989 1 1 0.9989
0.999058 1 1 0.999058
0.999008 1 1 0.999008
1.00683 1.00894 1 0.997909
1 1 1 1
0.999671 1 1 0.999671
0.99906 1 1 0.99906
0.998868 1 1 0.998868
0.998956 1 1 0.998956
1.00973 1.01212 1 0.997638
1.00787 1.01013 1 0.997761
0.999808 1 1 0.999808
0.999162 1 1 0.999162
1.00396 1.00595 1 0.998021
1.02136 1.02436 1 0.997067
1 1 1 1
1 1 1 1
1 1 1 1
0.99918 1 1 0.99918
1 1 1 1
1 1 1 1
0.999018 1 1 0.999018
0.99994 1 1 0.99994
0.999124 1 1 0.999124
0.999355 1 1 0.999355
1.00011 1.0022 1 0.997919
1 1 1 1
1.0006 1 1.00075 0.999853
0.998947 1 1 0.998947
0.999053 1 1 0.999053
1.01007 1.0126 1 0.997496
0.999674 1 1.00011 0.999568
1.00426 1.00645 1 0.997821
0.998855 1.00079 1 0.998066
1.00517 1.00793 1 0.997256
1 1 1 1
1 1 1 1
1 1 1 1
1 1 1 1
1 1 1 1
0.999844 1 1 0.999844
0.998938 1 1 0.998938
0.99985 1 1 0.99985
0.998982 1 1 0.998982
1 1 1 1
0.998832 1 1 0.998832
0.999039 1 1 0.999039
1.00905 1.01182 1 0.997259
0.999092 1 1 0.999092
1.0114 1.01412 1 0.997317
0.999697 1 1 0.999697
0.999715 1 1 0.999715
0.999768 1 1 0.999768
0.999763 1 1 0.999763
0.9989 1 1 0.9989
0.999012 1 1 0.999012
0.999064 1 1 0.999064
1.00724 1.00937 1 0.997894
1 1 1 1
0.999691 1 1 0.999691
0.998858 1 1 0.998858
0.998864 1 1 0.998864
0.999904 1 1 0.999904
0.999231 1 1 0.999231
0.998957 1 1 0.998957
1.00967 1.01211 1 0.997598
1.00464 1.00665 1 0.998003
1.00812 1.01035 1 0.997791
1.02126 1.02426 1 0.997073
0.998855 1 1 0.998855
0.998856 1 1 0.998856
1.00807 1.01063 1 0.997471
1.00966 1.01216 1 0.997531
1.00934 1.01172 1 0.997651
1.03002 1.03318 1 0.99694
1 1 1 1
1.02421 1.02727 1 0.997021
0.999589 1 1.00021 0.999384
1.00059 1.00258 1 0.99802
1.0179 1.02084 1 0.997113
1.0299 1.03312 1 0.996883
1.00082 1 1.00116 0.999661
1.00464 1 1.00593 0.998719
1 1 1 1
1 1 1 1
0.999025 1 1 0.999025
1 1 1 1
0.99933 1 1 0.999328
0.999129 1 1 0.999129
0.999261 1.00135 1 0.997916
1 1 1 1
1.0002 1 1.00033 0.999875
0.999037 1 1 0.999037
0.999137 1 1 0.999137
1.00946 1.01199 1 0.997497
0.999801 1 1.00026 0.999544
1.00318 1.00537 1 0.997824
0.998499 1.00044 1 0.998064
1.00521 1.00799 1 0.99724
1.00046 1 1.00075 0.999709
0.999941 1 1 0.999941
1.00168 1 1.00271 0.998975
1.01153 1.01417 1 0.997389
1.00767 1.01004 1 0.997659
1.02624 1.02945 1 0.996882
0.998594 1 1.00027 0.998327
1.01266 1.01553 1 0.997171
1.00319 1.00528 1.00057 0.997347
1.01314 1.01612 1 0.997067
1 1 1 1
1 1 1 1
1 1 1 1
1.00001 1 1.00023 0.999775
1 1 1 1
1 1 1 1
1 1 1 1
0.998907 1 1 0.998907
0.99886 1 1 0.99886
1 1 1 1
1 1 1 1
0.998833 1 1 0.998833
0.998965 1 1 0.998965
1.00943 1.01221 1 0.997259
0.99893 1 1 0.99893
1.01161 1.01433 1 0.997317
0.998828 1 1 0.998828
1.008 1.01081 1 0.997218
1.01025 1.01298 1 0.997299
1.03245 1.03575 1 0.996813
1.01191 1.01461 1 0.997337
1.03516 1.03845 1 0.996841
1 1 1 1
0.999711 1 1 0.999711
0.998637 1 1 0.998637
0.998861 1 1 0.998861
1 1 1 1
0.999302 1 1 0.999302
0.99896 1 1 0.99896
1.0096 1.01207 1 0.997557
1.0084 1.0106 1 0.997821
1.00532 1.00735 1 0.997985
1.02116 1.02415 1 0.997079
0.998852 1 1 0.998852
0.998852 1 1 0.998852
1.00792 1.01059 1 0.997357
1.00964 1.01211 1 0.997557
1 1 1 1
0.999491 1 1.00008 0.999408
1.00166 1.00358 1 0.998088
1.00929 1.01167 1 0.997648
1.02992 1.03311 1 0.996913
1.01724 1.0202 1 0.997103
1.02442 1.02744 1 0.997056
1.0295 1.03271 1 0.996891
1.00098 1 1.00133 0.99965
1.00378 1 1.00506 0.998721
1.00748 1.01027 1 0.99724
1.00845 1.01097 1 0.997508
1.03045 1.03366 1 0.996895
1.03048 1.03372 1 0.996865
1.02694 1.03 1 0.997025
1.03953 1.04273 1 0.996929
1.00049 1 1.00096 0.999527
1.03219 1.03537 1 0.996925
0.99878 1.00048 1.00011 0.998198
1.01064 1.01346 1 0.997214
1.02748 1.03071 1 0.996869
1.03135 1.03445 1 0.997001
1.00305 1 1.00454 0.998517
1.0011 1 1.00213 0.998973
1.00337 1 1.0053 0.998081
0.998972 1 1 0.998972
1 1 1 1
0.999896 1 1 0.999896
0.999085 1 1 0.999085
1.00884 1.01137 1 0.997499
0.999939 1 1.00039 0.999549
0.998277 1.00017 1.00004 0.998063
1.00215 1.00433 1 0.997828
1.00566 1.00846 1 0.997225
1.00035 1 1.00062 0.99973
0.999954 1 1 0.999954
1.00203 1 1.00306 0.998976
1.01117 1.01382 1 0.997388
1.00674 1.0091 1 0.997663
1.02635 1.02957 1 0.996879
0.998621 1 1.00029 0.998331
1.0136 1.01646 1 0.997179
1.00258 1.00477 1.00047 0.997342
1.01395 1.01694 1 0.997056
0.99998 1 1 0.99998
1.00039 1 1.00176 0.998629
1.00066 1 1.00135 0.999315
1.00228 1 1.00396 0.998334
1.03042 1.03371 1 0.996826
1.0206 1.02365 1 0.997026
1.03286 1.03622 1 0.996761
1.00053 1.0024 1.00049 0.99765
1.02094 1.02398 1 0.997027
1.01156 1.01299 1.00158 0.997013
1.0228 1.02594 1 0.996943
0.999755 1 1 0.999755
0.999999 1 1 0.999999
1 1 1 1
1 1 1 1
1 1 1 1
0.999869 1 1 0.999869
1 1 1 1
1.00048 1 1.00072 0.999762
1 1 1 1
0.998931 1 1 0.998931
0.998887 1 1 0.998887
1.01193 1.01465 1 0.997316
1.00979 1.01256 1 0.997259
0.998835 1 1 0.998835
1 1 1 1
0.998827 1 1 0.998827
1.00828 1.01109 1 0.997219
1.01064 1.01338 1 0.997299
1.03218 1.03548 1 0.996811
1.01193 1.01464 1 0.997335
1.03505 1.03834 1 0.996838
1.00738 1.0102 1 0.997214
1.03131 1.03465 1 0.996777
1.03403 1.03731 1 0.996837
1.04516 1.04868 0.999647 0.996997
1.03424 1.03753 1 0.996828
1.04447 1.04768 1 0.996937
0.998849 1 1 0.998849
0.998848 1 1 0.998848
1.00779 1.01057 1 0.997243
1.00964 1.01208 1 0.997584
1 1 1 1
0.999432 1 1 0.999432
1.00264 1.00449 1 0.998156
1.00924 1.01162 1 0.997644
1.02986 1.03308 1 0.996886
1.02457 1.02756 1 0.997091
1.0166 1.01957 1 0.997094
1.02922 1.03243 1 0.996899
1.00117 1 1.00153 0.999639
1.0032 1 1.00448 0.998723
1.00741 1.01022 1 0.997217
1.00844 1.01097 1 0.997503
1.03042 1.03362 1 0.996906
1.03066 1.03387 1 0.996889
1.00026 1 1.00075 0.999516
0.999304 1.00105 1.00006 0.998195
1.01078 1.01356 1 0.997249
1.02724 1.03032 1 0.997015
1.03959 1.04276 1 0.99696
1.02692 1.03017 1 0.996842
1.03222 1.0354 1 0.99693
1.03159 1.0347 1 0.997
1.00238 1 1.00386 0.99852
1.00358 1 1.00551 0.998084
1.00183 1 1.00286 0.99897
1.02991 1.03317 1 0.996853
1.03097 1.03414 1 0.996926
1.04431 1.04769 0.999823 0.996954
1.0411 1.04431 1 0.99693
1.03514 1.03829 1 0.996967
1.03743 1.04072 0.999624 0.99721
0.998978 1.00001 1.0006 0.998373
1.03355 1.03656 1 0.997097
1.00268 1.00516 1 0.997535
1.01853 1.0218 1 0.996797
1.02807 1.0314 1 0.996771
1.02733 1.03019 1 0.997221
0.999898 1 1.00069 0.999207
0.998719 1.00004 1.00067 0.998006
1.00619 1 1.00798 0.998221
1.00065 1.00014 1.00266 0.997864
1.01083 1.01348 1 0.997387
0.999967 1 1 0.999967
1.00017 1 1.00042 0.999752
1.00222 1 1.00325 0.998978
1.00581 1.00816 1 0.997667
1.02646 1.02967 1 0.996875
0.998582 1 1.00025 0.998335
1.00145 1.0038 1.00033 0.997337
1.01446 1.01732 1 0.997186
1.0142 1.01721 1 0.997044
0.999986 1 1 0.999986
1.00099 1 1.00236 0.99863
1.0002 1 1.00087 0.999324
1.00284 1 1.00451 0.998329
1.03034 1.03362 1 0.996821
1.0207 1.02375 1 0.997025
1.03259 1.03595 1 0.996758
0.999582 1.00148 1.00045 0.997656
1.02084 1.02388 1 0.997034
1.01135 1.01264 1.00173 0.997002
1.02281 1.02587 1 0.997017
0.999995 1 1 0.999995
0.999545 1 1 0.999545
0.999782 1.00034 1.00142 0.998024
1.00224 1 1.00359 0.998654
1.00068 1 1.00265 0.99803
1.03708 1.04043 1 0.996782
1.02698 1.0302 1 0.996868
1.02949 1.03275 1 0.996844
1.00509 1.00584 1.00199 0.997269
1.02083 1.02391 1 0.996994
1.01323 1.01567 1.00086 0.996746
0.999725 1 1 0.999725
0.999261 1 1 0.999261
0.999777 1 1 0.999777
0.999757 1 1 0.999757
1 1 1 1
0.999999 1 1 0.999999
1 1 1 1
1 1 1 1
1 1 1 1
0.999943 1 1 0.999943
1 1 1 1
0.999854 1 1 0.999854
1 1 1 1
1.00085 1 1.0011 0.999748
1 1 1 1
1.01191 1.01462 1 0.997333
1.01097 1.0137 1 0.997298
1.03471 1.038 1 0.996836
1.0319 1.0352 1 0.996809
1.00864 1.01145 1 0.997219
0.998826 1 1 0.998826
1.00756 1.01037 1 0.997214
1.03104 1.03437 1 0.996777
1.03379 1.03707 1 0.996835
1.04487 1.04866 0.999366 0.997015
1.0336 1.03689 1 0.996824
1.0441 1.04731 1 0.996935
1.03028 1.03362 1 0.996768
1.04356 1.04781 0.998926 0.997016
1.04608 1.04935 0.9999 0.99698
1.0437 1.04972 0.99703 0.997227
1.04015 1.04342 1 0.996865
1.04295 1.0471 0.998777 0.997258
1.00737 1.01021 1 0.997194
1.00845 1.01098 1 0.997499
1.0304 1.03359 1 0.996918
1.03081 1.034 1 0.996913
1.00003 1 1.00053 0.999505
0.999806 1.00162 1 0.998193
1.01115 1.0139 1 0.997285
1.02756 1.03065 1 0.997004
1.03966 1.0428 1 0.99699
1.03228 1.03545 1 0.996934
1.0262 1.02948 1 0.996815
1.03185 1.03495 1 0.996999
1.00165 1 1.00314 0.998522
1.00379 1 1.00571 0.998087
1.00231 1 1.00335 0.998968
1.02996 1.03325 1 0.996822
1.03118 1.03436 1 0.996923
1.04383 1.04733 0.999664 0.996988
1.04128 1.0445 1 0.996923
0.999155 1.00009 1.00069 0.998371
1.00413 1.00662 1 0.997529
1.01726 1.02045 1.00003 0.996845
1.03541 1.03858 1 0.996948
1.0375 1.04077 0.999599 0.997257
1.02841 1.03178 1 0.996734
1.03323 1.03623 1 0.997101
1.02785 1.03068 1 0.997253
0.999421 1.00024 1.00117 0.998007
1.00086 1.00025 1.00277 0.99784
1.00027 1 1.00107 0.999202
1.00574 1 1.0075 0.998256
1.04385 1.04743 0.999609 0.996965
1.04352 1.04686 0.999841 0.996964
1.041 1.04702 0.997106 0.997141
1.03823 1.04343 0.997737 0.997274
1.03545 1.0384 0.999957 0.997205
1.03419 1.03922 0.997717 0.997438
0.998837 1.00101 1 0.997827
1.0287 1.03155 0.99981 0.997432
1.00813 1.01106 1 0.997102
1.01818 1.0215 1.00018 0.996577
1.02948 1.03285 1 0.996732
1.02799 1.03078 1 0.997291
0.999389 1 1 0.999389
1.00343 1 1.00496 0.998469
0.998509 1.00074 1 0.997771
1.00387 1 1.00591 0.997974
1.00044 1.00048 1.00217 0.9978
0.999991 1 1 0.999991
1.03019 1.03348 1 0.996816
0.999738 1 1.00041 0.999333
1.00177 1 1.00314 0.998631
1.00351 1 1.00519 0.998323
1.02084 1.02389 1 0.997025
1.03235 1.03571 1 0.996756
0.998816 1.00065 1.00051 0.997662
1.0121 1.0132 1.00193 0.996992
1.02085 1.02388 1 0.997041
1.02312 1.02611 1 0.997091
0.999997 1 1 0.999997
0.999554 1 1 0.999554
0.999342 1.00015 1.00117 0.998026
1.00269 1 1.00404 0.998653
1.00097 1 1.00297 0.998009
1.03707 1.04042 1 0.996776
1.02704 1.03027 1 0.996867
1.02943 1.0327 1 0.996833
1.00424 1.00484 1.00213 0.997275
1.02338 1.02646 1 0.996994
1.01324 1.01555 1.00096 0.996765
0.999667 1 1 0.999667
0.99983 1 1.00088 0.998955
0.999731 1.00156 1.00048 0.997695
1.00381 1 1.00553 0.99829
0.999696 1.00007 1.00169 0.997936
1.03446 1.03764 1 0.996938
1.0243 1.02749 1 0.99689
1.02828 1.03133 1 0.99704
1.00258 1.00171 1.00379 0.997082
1.01145 1.01483 1 0.996668
0.999728 1 1 0.999728
0.999189 1 1 0.999189
0.999237 1 1 0.999237
0.998997 1 1 0.998997
0.999274 1 1 0.999274
0.999787 1 1 0.999787
0.999779 1 1 0.999779
1 1 1 1
0.999759 1 1 0.999759
1 1 1 1
1 1 1 1
1 1 1 1
1 1 1 1
1 1 1 1
0.999986 1 1 0.999986
0.999927 1 1 0.999927
1 1 1 1
1 1 1 1
0.999869 1 1.00003 0.999838
1 1 1 1
1.03307 1.03636 1 0.996821
1.03375 1.03704 1 0.996833
1.04386 1.04707 1 0.996933
1.04465 1.04871 0.999085 0.997033
1.03067 1.034 1 0.996777
1.00765 1.01046 1 0.997213
1.03014 1.03347 1 0.996769
1.0436 1.04775 0.999022 0.997011
1.04565 1.04891 0.999915 0.996979
1.04309 1.04958 0.99654 0.99726
1.04087 1.04415 1 0.996858
1.04253 1.047 0.998451 0.99728
1.04344 1.04745 0.999191 0.996985
1.04209 1.04871 0.996474 0.9972
1.04255 1.04867 0.996849 0.997309
1.04006 1.04883 0.994243 0.997388
1.03988 1.04303 0.999857 0.997122
1.0403 1.04693 0.996176 0.997487
1.0299 1.03321 1 0.996791
1.03136 1.03454 1 0.996921
1.0433 1.04695 0.999494 0.997022
1.04142 1.04464 1 0.996915
0.999409 1.00024 1.0008 0.998369
1.00536 1.00786 1 0.997523
1.01597 1.01896 1.00018 0.996892
1.03568 1.03887 1 0.996929
1.03751 1.0408 0.999535 0.997305
1.03284 1.03584 1 0.997104
1.02882 1.03222 1 0.996698
1.02799 1.03078 1 0.997285
1.00019 1.00047 1.00171 0.998009
1.00115 1.00044 1.0029 0.997816
1.00066 1 1.00146 0.999198
1.00485 1 1.00657 0.998291
1.04369 1.04728 0.999607 0.996965
1.04325 1.04654 0.999914 0.996942
1.04094 1.04699 0.997043 0.997174
1.03871 1.04349 0.998161 0.997257
0.999776 1.00196 1 0.997819
1.00702 1.00987 1.00003 0.997147
1.01879 1.0219 1.00039 0.996567
1.03484 1.03782 0.999966 0.99716
1.03349 1.03855 0.997629 0.997496
1.02734 1.03072 1 0.996718
1.02979 1.03258 0.99986 0.997434
1.02877 1.03151 1 0.997345
0.999069 1.0013 1 0.997768
1.00001 1.00075 1.00146 0.997805
1.00437 1 1.00641 0.997967
0.999547 1 1.0002 0.999352
1.00307 1 1.00458 0.998502
1.04066 1.04786 0.995923 0.997188
1.03933 1.04606 0.996329 0.997225
1.03437 1.04288 0.994336 0.997484
1.03071 1.03573 0.997642 0.997505
1.001 1.00347 1 0.997533
1.03355 1.03642 0.999621 0.997611
1.00515 1.00804 1.00029 0.996845
1.01667 1.01987 1.00051 0.996358
1.02506 1.02845 1 0.99671
0.999501 1 1 0.999501
1.00092 1 1.00214 0.998778
1.0035 1 1.00528 0.998226
0.999776 1.00208 1 0.9977
1.0041 1 1.00637 0.997735
0.999719 1.00104 1.001 0.997687
0.999998 1 1 0.999998
0.999562 1 1 0.999562
1.03706 1.04042 1 0.99677
1.00327 1 1.00462 0.998653
0.998765 1 1.00074 0.998028
1.00146 1 1.00348 0.997989
1.02698 1.03021 1 0.996865
1.02919 1.03247 1 0.996822
1.00308 1.00351 1.00229 0.99728
1.01239 1.01487 1.00077 0.996784
1.02584 1.02893 1 0.996995
0.999672 1 1 0.999672
0.999631 1 1.00067 0.998959
0.99924 1.00114 1.00041 0.997691
1.00481 1 1.00653 0.998285
0.999634 1.00003 1.00167 0.997938
1.03448 1.03766 1 0.996931
1.02458 1.02779 1 0.996879
1.028 1.03102 1 0.997066
1.00306 1.00278 1.00324 0.997042
1.01034 1.01369 1.00006 0.996639
0.999145 1 1 0.999145
1.00313 1 1.00461 0.998533
1.00157 1.00201 1.002 0.99757
1.00299 1 1.00496 0.99804
0.999488 1.00066 1.001 0.997832
1.03463 1.03767 0.999665 0.997404
1.02305 1.02634 1 0.996794
1.02436 1.02736 1 0.997078
1.00455 1.00334 1.00433 0.996889
1.00288 1.00645 1 0.996451
0.999731 1 1 0.999731
0.999208 1 1 0.999208
0.998917 1 1 0.998917
0.999213 1 1 0.999213
0.999273 1 1 0.999273
0.998966 1 1 0.998966
0.998841 1 1 0.998841
0.998917 1 1 0.998917
0.999282 1 1 0.999282
0.999782 1 1 0.999782
0.999787 1 1 0.999787
1 1 1 1
0.99978 1 1 0.99978
1 1 1 1
1 1 1 1
1 1 1 1
1 1 1 1
1 1 1 1
1 1 1 1
0.999976 1 1 0.999976
1 1 1 1
0.999911 1 1 0.999911
1 1 1 1
1 1 1 1
1.04154 1.04483 1 0.996852
1.04507 1.04831 0.99993 0.996979
1.04213 1.04691 0.998121 0.997302
1.04243 1.04942 0.996036 0.997292
1.04367 1.04772 0.999133 0.997005
1.03014 1.03348 1 0.99677
1.04361 1.04744 0.999377 0.996965
1.04245 1.04878 0.996765 0.997192
1.04273 1.04861 0.997092 0.997292
1.03937 1.04851 0.993866 0.997401
1.0393 1.04238 0.99992 0.997122
1.0388 1.04603 0.995554 0.997529
1.04219 1.04847 0.996833 0.997174
1.04062 1.04993 0.993727 0.997383
1.04005 1.04976 0.993241 0.997495
1.0369 1.04357 0.996032 0.997561
1.04362 1.04721 0.999605 0.996965
1.04304 1.04627 1 0.99692
1.04091 1.04695 0.997017 0.997206
1.03926 1.04361 0.998592 0.997239
1.00073 1.00292 1 0.997811
1.00598 1.00881 1 0.997192
1.01926 1.02219 1.00058 0.996557
1.03422 1.03721 1 0.997116
1.0328 1.03786 0.997567 0.997554
1.03108 1.03382 0.999914 0.997436
1.0256 1.02899 1 0.996703
1.03049 1.03317 1 0.997399
0.99958 1.00182 1 0.997766
0.999421 1.00093 1.00069 0.99781
1.00575 1 1.00781 0.99796
0.999702 1 1.00039 0.999315
1.00297 1 1.00444 0.998535
1.04117 1.0483 0.995997 0.997191
1.0395 1.04625 0.996319 0.997221
1.03419 1.0422 0.994836 0.997474
1.00158 1.00406 1 0.997526
1.00548 1.00835 1.00026 0.99689
1.01561 1.01856 1.00076 0.996346
1.03123 1.03618 0.997727 0.997492
1.02637 1.02965 1 0.996806
1.03045 1.03353 0.999438 0.997581
0.999526 1 1 0.999526
1.00036 1.00267 1 0.997689
0.998868 1.00055 1.00051 0.997813
1.00491 1 1.00721 0.997721
1.0037 1 1.00547 0.998246
1.00087 1 1.00212 0.998745
1.0387 1.0483 0.993542 0.997274
1.03714 1.04906 0.991209 0.997403
1.02856 1.04061 0.990821 0.997569
1.03169 1.0397 0.99457 0.99771
1.00254 1.00521 1 0.997343
1.02515 1.02802 1 0.997206
1.00349 1.00544 1.00165 0.99642
1.00851 1.01131 1.00104 0.996194
0.9997 1 1 0.9997
0.999251 1 1.00024 0.999017
1.00165 1 1.0032 0.998451
1.00476 1 1.00691 0.997864
1.00071 1.00281 1.00037 0.997527
1.00591 1.00022 1.0082 0.997503
0.999677 1 1 0.999677
0.999305 1 1.00034 0.998963
1.03471 1.0379 1 0.996924
1.00522 1 1.00696 0.998281
0.998609 1.00065 1.00027 0.997688
0.999461 1 1.00152 0.997939
1.02514 1.02836 1 0.996868
1.02807 1.03107 1 0.997093
1.00382 1.00409 1.00273 0.997003
1.00923 1.01239 1.00027 0.99661
0.999148 1 1 0.999148
1.00315 1 1.00463 0.998532
1.00145 1.00189 1.00198 0.997579
1.00279 1 1.00475 0.998049
0.999018 1.00062 1.00048 0.99792
1.03528 1.03854 0.999411 0.997447
1.02247 1.02574 1 0.996808
1.02593 1.02887 1 0.99715
1.00404 1.00262 1.00458 0.996852
1.00345 1.00705 1.00003 0.996389
0.998972 1 1.00015 0.99882
1.00418 1 1.00603 0.998165
1.00351 1.00229 1.00378 0.997436
0.99969 1.00037 1.00161 0.997714
1.03421 1.04997 0.987265 0.997697
1.02869 1.03143 0.999839 0.9975
1.01335 1.01686 1 0.996545
1.00452 1.00381 1.00426 0.996471
0.999226 1 1 0.999226
0.99893 1 1 0.99893
0.998825 1 1 0.998825
0.999272 1 1 0.999272
0.998935 1 1 0.998935
0.99928 1 1 0.99928
0.998834 1 1 0.998834
0.99893 1 1 0.99893
0.998803 1 1 0.998803
0.998749 1 1 0.998749
0.998883 1 1 0.998883
0.999264 1 1 0.999264
0.999765 1 1 0.999765
0.999781 1 1 0.999781
1 1 1 1
0.999787 1 1 0.999787
1 1 1 1
1 1 1 1
1 1 1 1
1 1 1 1
1 1 1 1
1 1 1 1
0.999997 1 1 0.999997
1 1 1 1
0.999966 1 1 0.999966
1 1 1 1
1 1 1 1
1.03862 1.04162 1 0.997122
1.04292 1.04859 0.997318 0.997276
1.03735 1.04517 0.994943 0.997571
1.03872 1.04825 0.993481 0.997414
1.04284 1.04887 0.997058 0.997184
1.04369 1.04736 0.999547 0.996945
1.04204 1.04841 0.996747 0.997174
1.04035 1.04952 0.993871 0.997374
1.03926 1.04905 0.993153 0.997494
1.03851 1.0449 0.996305 0.99757
1.04106 1.04985 0.994286 0.997326
1.04166 1.05508 0.989714 0.997542
1.04155 1.05364 0.990881 0.997622
1.04166 1.04874 0.996049 0.997193
1.03963 1.04642 0.99628 0.997216
1.03408 1.0415 0.995401 0.997464
1.00216 1.00465 1 0.997519
1.00546 1.00837 1.00018 0.996934
1.0144 1.01728 1.00085 0.996335
1.03173 1.03662 0.997802 0.997479
1.02697 1.03022 0.999297 0.997551
1.02685 1.03004 1 0.996903
1.00039 1.00272 1 0.997677
0.997992 1.00005 1 0.997939
1.00541 1 1.00772 0.997708
0.999551 1 1 0.999551
1.00306 1 1.0048 0.998265
1.00077 1 1.00206 0.998712
1.03935 1.04874 0.993746 0.997281
1.03673 1.04894 0.990928 0.997411
1.02871 1.04019 0.991383 0.997561
1.00147 1.00415 1 0.997333
1.00337 1.00549 1.0014 0.996501
1.00863 1.01151 1.0009 0.996257
1.03185 1.03948 0.994936 0.997716
1.02438 1.02755 0.999725 0.997188
0.999752 1 1 0.999752
0.999186 1 1.00017 0.999016
0.999142 1.00157 1 0.997578
1.00812 1.00039 1.01012 0.997632
1.00463 1 1.00675 0.997901
1.0015 1 1.00308 0.998423
1.03922 1.05246 0.989935 0.997463
1.0293 1.04812 0.984482 0.997527
1.02649 1.04028 0.988965 0.997759
1.02186 1.03001 0.994342 0.997731
1.00149 1.00358 1.00091 0.997012
1.0072 1.00939 1.0014 0.996437
1.00287 1.00404 1.00264 0.99621
0.999874 1 1 0.999874
0.999433 1 1 0.999433
0.999192 1 1 0.999192
0.999291 1 1.0007 0.998595
1.00214 1 1.00402 0.998124
1.00816 1 1.01044 0.99774
0.998591 1.00097 1 0.997622
1.02983 1.00032 1.03173 0.997832
0.999151 1 1 0.999151
1.00348 1 1.00495 0.998531
1.03588 1.03934 0.999178 0.997491
1.00312 1 1.00508 0.998057
1.0016 1.00186 1.00215 0.997589
0.998524 1.00048 1.00004 0.998008
1.02146 1.02472 1 0.996822
1.02725 1.03011 1 0.997223
1.00366 1.00204 1.00482 0.996815
1.00411 1.00781 1 0.996328
0.999118 1 1.00033 0.998793
1.00397 1 1.0058 0.99818
1.00395 1.00234 1.00415 0.997466
0.999597 1.00043 1.00142 0.99775
1.03627 1.05157 0.987703 0.997715
1.02855 1.03124 0.999946 0.997452
1.01439 1.01786 1 0.996589
1.00552 1.00534 1.00377 0.996421
0.999897 1 1.00131 0.998586
1.03398 1.05481 0.982485 0.997721
1.00144 1 1.0036 0.997857
1.00262 1.00276 1.00268 0.997183
1.03257 1.04153 0.99358 0.997808
1.01314 1.01651 1 0.996686
1.0056 1.00614 1.00323 0.996245
0.998943 1 1 0.998943
0.998817 1 1 0.998817
0.998802 1 1 0.998802
0.999279 1 1 0.999279
0.998943 1 1 0.998943
0.998827 1 1 0.998827
0.999261 1 1 0.999261
0.998888 1 1 0.998888
0.9988 1 1 0.9988
0.99877 1 1 0.99877
0.998816 1 1 0.998816
0.998724 1 1 0.998724
0.998815 1 1.00014 0.998673
0.998846 1 1 0.998846
0.999216 1 1 0.999216
0.99974 1 1 0.99974
0.999762 1 1 0.999762
1 1 1 1
0.99978 1 1 0.99978
1 1 1 1
1 1 1 1
1 1 1 1
1 1 1 1
1 1 1 1
0.999901 1 1 0.999901
1 1 1 1
1 1 1 1
1 1 1 1
0.999995 1 1 0.999995
1 1 1 1
1 1 1 1
1.04013 1.04626 0.996553 0.997579
1.03844 1.04826 0.993122 0.997493
1.04003 1.04906 0.994013 0.997365
1.04191 1.04834 0.996682 0.997173
1.04072 1.04979 0.993991 0.997345
1.04169 1.05466 0.990147 0.997532
1.04014 1.05254 0.990561 0.997632
1.04126 1.05489 0.989537 0.99752
1.04815 1.06313 0.988235 0.997643
1.03493 1.05508 0.982976 0.99789
1.04003 1.04918 0.99397 0.997288
1.03631 1.04885 0.990607 0.997419
1.02872 1.03975 0.991817 0.997554
1.00149 1.00412 1.00006 0.997324
1.00369 1.00587 1.00126 0.996582
1.00939 1.01234 1.00078 0.996321
1.03212 1.03939 0.995272 0.997722
1.0239 1.02739 0.999433 0.997171
0.998501 1.00087 1 0.997628
1.01064 1.00083 1.01207 0.997759
1.00542 1 1.00749 0.997938
0.999804 1 1 0.999804
0.999154 1 1.00014 0.999015
1.00167 1 1.00328 0.998395
1.03917 1.05275 0.989608 0.997474
0.99987 1 1 0.99987
0.999405 1 1 0.999405
1.02934 1.04731 0.985278 0.997528
1.02574 1.0401 0.988439 0.997727
1.00121 1.00296 1.00116 0.997102
1.00349 1.00401 1.0033 0.996194
1.00788 1.01064 1.00084 0.996432
1.0207 1.02909 0.994123 0.997709
0.999266 1 1 0.999266
0.999359 1 1.00077 0.99859
0.999579 1.0012 1.00085 0.997528
1.02464 1.00043 1.02626 0.997988
1.00642 1 1.00869 0.997752
1.00264 1 1.0045 0.998143
1.04653 1.06154 0.988233 0.997601
1.01285 1.04549 0.971044 0.997668
1.01894 1.03502 0.986515 0.997918
1.00389 1.01254 0.994012 0.997425
1.00197 1.00111 1.00374 0.997139
1.00347 1.0019 1.00547 0.996122
0.999396 1 1 0.999396
0.999385 1 1 0.999385
0.999114 1 1 0.999114
0.998712 1 1 0.998712
1.00031 1 1.00196 0.998359
1.00125 1 1.00342 0.997836
1.04017 1 1.04251 0.997748
1.00239 1.00049 1.00389 0.998007
0.999336 1 1.00057 0.998766
1.0033 1 1.00511 0.998195
1.03765 1.05229 0.988333 0.997733
1.02833 1.031 1 0.997405
0.999469 1.00053 1.00115 0.997786
1.00439 1.00249 1.00441 0.997494
1.01581 1.01921 1.00004 0.996632
1.00645 1.00674 1.00335 0.99637
1.00007 1 1.0015 0.998573
1.0359 1.05731 0.981945 0.997765
1.00162 1 1.00376 0.997877
1.00227 1.00246 1.00269 0.997133
1.03123 1.04074 0.993065 0.997782
1.01323 1.01653 1 0.996757
1.00592 1.00619 1.00348 0.996261
1.00133 1 1.00308 0.998259
1.01711 1.03838 0.981311 0.998177
1.00217 1.00236 1.00221 0.997599
1.00344 1.00289 1.00379 0.996772
1.01574 1.02314 0.995354 0.997394
1.00196 1.00333 1.00221 0.996434
0.990583 1.00508 0.987641 0.997907
0.998809 1 1 0.998809
0.999086 1 1.00029 0.998799
0.998798 1 1.0001 0.998696
0.999259 1 1 0.999259
0.998892 1 1 0.998892
0.99879 1 1 0.99879
0.998798 1 1 0.998798
0.999215 1 1 0.999215
0.998836 1 1 0.998836
0.998785 1 1 0.998785
0.998715 1 1.00004 0.998674
0.998722 1 1 0.998722
0.99877 1 1 0.99877
0.998842 1 1.00034 0.998507
0.999058 1 1.0004 0.998658
0.998746 1 1 0.998746
0.999109 1 1 0.999109
0.998905 1 1 0.998905
0.999092 1 1 0.999092
0.999726 1 1 0.999726
0.999738 1 1 0.999738
1 1 1 1
0.99976 1 1 0.99976
1 1 1 1
1 1 1 1
1 1 1 1
1 1 1 1
1 1 1 1
0.999922 1 1 0.999922
0.9999 1 1 0.9999
1 1 1 1
1 1 1 1
1 1 1 1
1 1 1 1
1 1 1 1
1 1 1 1
1.03889 1.0517 0.990152 0.997641
1.04167 1.05429 0.990485 0.997521
1.04037 1.04974 0.993692 0.997364
1.04127 1.05484 0.989592 0.997518
1.04605 1.06105 0.988198 0.99764
1.03508 1.05417 0.984017 0.997832
1.04836 1.06594 0.985764 0.997707
0.982546 1.01605 0.970329 0.996592
1.00955 1.03542 0.976456 0.998521
0.9995 1 1 0.9995
1.03912 1.05302 0.98929 0.997486
1.02961 1.04657 0.986227 0.997529
1.0251 1.03996 0.987989 0.997696
0.999682 1.00168 1.00082 0.997191
1.00382 1.00364 1.00402 0.996178
1.00838 1.01153 1.00045 0.996428
1.01938 1.02792 0.993992 0.997687
0.998878 1.00145 1 0.997435
1.01851 1 1.0204 0.998146
1.00452 1 1.00677 0.997765
0.999865 1 1 0.999865
1.00294 1 1.00479 0.998161
0.999338 1 1 0.999338
0.999257 1 1.00067 0.998584
0.999377 1 1 0.999377
1.044 1.06181 0.985578 0.997609
0.999433 1 1 0.999433
0.999383 1 1 0.999383
0.999077 1 1 0.999077
1.01617 1.04537 0.974342 0.997668
1.01962 1.03568 0.986589 0.997873
1.00038 1.00111 1.00211 0.997164
1.00395 1.0022 1.00556 0.996214
1.00304 1.01071 0.994983 0.997413
0.998757 1 1 0.998757
1.00036 1 1.00205 0.99832
1.00735 1.0003 1.00914 0.997919
1.03241 1 1.0347 0.997784
1.00112 1 1.00325 0.997873
1.03075 1.05268 0.981424 0.997703
1.00504 1.0416 0.967027 0.997802
1.01122 1.02163 0.992191 0.9976
0.994793 1.00414 0.993494 0.997183
1.00331 1 1.00576 0.997568
0.998999 1 1 0.998999
0.998913 1 1 0.998913
0.998947 1 1.00015 0.998799
0.999426 1 1.00094 0.998493
1.00126 1 1.0031 0.998165
1.02805 1 1.03027 0.997842
1.02615 1 1.02842 0.997795
1.00008 1 1.00153 0.99856
1.00179 1 1.0039 0.997897
1.03714 1.06054 0.980079 0.997808
1.03008 1.04033 0.992374 0.997755
1.01305 1.01627 1 0.996827
1.00189 1.00214 1.00268 0.997084
1.00591 1.00605 1.0036 0.996278
1.00132 1 1.00303 0.9983
1.01517 1.03838 0.979403 0.998203
1.00071 1.00158 1.00152 0.997617
1.00284 1.00199 1.00408 0.996779
1.0157 1.02325 0.995112 0.997497
1.00191 1.00277 1.00273 0.996423
0.989828 1.0048 0.98794 0.997128
1.00117 1.00036 1.0027 0.998114
1.00704 1.02104 0.988115 0.998155
1.00078 1.00127 1.00194 0.997577
1.00444 1.0011 1.00644 0.996915
0.995069 1.0058 0.992102 0.997206
0.937218 0.98196 0.973563 0.980353
0.942886 0.978186 0.973608 0.990042
0.9807 0.990868 0.991775 0.997946
0.789968 0.866961 0.942485 0.966798
0.723458 0.846403 0.892161 0.958061
0.999198 1 1.0004 0.998797
0.99926 1 1.00053 0.998735
0.999004 1 1.00028 0.998725
0.999214 1 1 0.999214
0.998826 1 1 0.998826
0.998674 1 1 0.998674
0.99872 1 1 0.99872
0.998753 1 1 0.998753
0.999725 1 1.00109 0.998633
0.999139 1 1 0.999139
0.998764 1 1 0.998764
0.998749 1 1 0.998749
0.999194 1 1.00066 0.99853
1.00092 1 1.00238 0.998541
1.0011 1 1.00253 0.998571
0.999899 1 1.00134 0.998562
0.99873 1 1.00003 0.998702
0.999085 1 1 0.999085
0.99878 1 1 0.99878
0.99873 1 1 0.99873
0.998901 1 1 0.998901
0.998869 1 1 0.998869
0.999186 1 1 0.999186
0.999089 1 1 0.999089
0.999721 1 1 0.999721
0.999726 1 1 0.999726
1 1 1 1
0.999736 1 1 0.999736
1 1 1 1
1 1 1 1
1 1 1 1
1 1 1 1
1 1 1 1
0.999938 1 1 0.999938
0.999919 1 1 0.999919
1 1 1 1
0.999898 1 1 0.999898
1 1 1 1
1 1 1 1
1 1 1 1
1 1 1 1
1 1 1 1
1.04372 1.05874 0.988142 0.997637
1.04129 1.05478 0.989675 0.997516
1.0358 1.05356 0.985333 0.997775
0.986398 1.01587 0.97425 0.996655
1.0455 1.06335 0.985471 0.997705
1.01917 1.03835 0.983094 0.998406
1.03633 1.04702 0.99196 0.997811
0.942815 0.982307 0.970287 0.989189
0.997308 1.01935 0.98103 0.997293
0.999509 1 1 0.999509
0.999498 1 1 0.999498
0.999104 1 1 0.999104
0.999156 1 1 0.999156
1.04192 1.06202 0.983416 0.997616
1.01885 1.0448 0.97744 0.997668
1.01986 1.03603 0.986534 0.997827
0.999335 1.00073 1.00142 0.997188
1.00434 1.00269 1.00536 0.996306
1.00225 1.00935 0.995553 0.997401
1.01347 1 1.01568 0.99783
1.02534 1 1.02758 0.997819
1.00075 1 1.00285 0.997911
0.999382 1 1 0.999382
1.0003 1 1.00202 0.998281
0.998803 1 1 0.998803
0.999471 1 1 0.999471
0.99904 1 1 0.99904
1.02816 1.05237 0.979238 0.997718
0.999044 1 1 0.999044
0.998961 1 1 0.998961
0.9989 1 1 0.9989
1.00842 1.04384 0.968199 0.997799
1.01008 1.02123 0.991463 0.997598
1.00298 1.00005 1.00539 0.997551
0.996275 1.00458 0.994483 0.997236
0.999376 1 1.00091 0.998466
1.00094 1 1.00285 0.998097
1.03004 1.00031 1.03201 0.997782
1.02876 1 1.03103 0.997795
0.99989 1.03786 0.965473 0.997865
0.998784 1.02845 0.973328 0.99777
1.0034 1.00852 0.997637 0.997287
0.9892 1.00043 0.990753 0.998005
0.998668 1 1 0.998668
0.999699 1 1.0011 0.998604
1.00974 1 1.0114 0.998358
1.04624 1 1.0486 0.997745
0.913008 0.970679 0.961294 0.978459
1.0017 1 1.00336 0.998341
0.999428 1.0007 1.00109 0.997634
1.01444 1.03821 0.978841 0.998229
1.01593 1.02361 0.994885 0.997599
1.0022 1.0025 1.0033 0.99641
1.0026 1.00136 1.00447 0.996786
0.990581 1.00508 0.989208 0.996332
1.00068 1.00016 1.00236 0.998164
1.00722 1.02182 0.987543 0.998144
1.00024 1.00121 1.00144 0.99759
1.00441 1.0014 1.00611 0.996914
0.997853 1.00681 0.993872 0.997217
0.936374 0.987145 0.969394 0.978516
0.938261 0.975803 0.973533 0.987668
0.981304 0.989646 0.993593 0.997965
0.789275 0.864307 0.944064 0.967296
0.708454 0.835514 0.888197 0.954659
1.00001 1.00009 1.00155 0.998364
0.818159 0.887184 0.951841 0.968856
0.765126 0.851395 0.936568 0.959539
0.990344 1.00712 0.985253 0.998056
1.00622 1.0012 1.00714 0.997889
1.01218 1.00444 1.01028 0.997463
0.973625 0.985372 0.989896 0.998164
0.930592 0.969421 0.980727 0.978811
0.916697 0.951017 0.977126 0.986477
0.77252 0.865841 0.921149 0.968594
0.784876 0.895496 0.914108 0.958826
0.999839 1 1.00107 0.998774
0.999948 1 1.00124 0.998705
1.00074 1 1.00185 0.998892
0.999169 1 1 0.999169
0.998781 1 1 0.998781
0.999916 1 1.00131 0.998609
0.999738 1 1.00119 0.998553
0.998728 1 1 0.998728
0.999086 1 1 0.999086
1.00062 1 1.00209 0.998533
1.00027 1 1.0017 0.998578
0.998734 1 1 0.998734
1.00074 1 1.00216 0.998583
1.00271 1 1.00417 0.998548
1.00466 1 1.00602 0.998651
0.998699 1 1.00017 0.998533
0.998743 1 1 0.998743
0.998776 1 1 0.998776
0.998726 1 1 0.998726
0.998621 1 1.00002 0.998599
0.999189 1 1.00046 0.998734
0.999245 1 1.00055 0.998697
1.00079 1 1.00225 0.998543
0.999369 1 1.0005 0.998866
0.998999 1 1.0001 0.998901
0.999214 1 1 0.999214
0.998832 1 1 0.998832
0.999161 1 1 0.999161
0.999714 1 1 0.999714
0.999086 1 1 0.999086
0.999722 1 1 0.999722
1 1 1 1
0.999726 1 1 0.999726
1 1 1 1
1 1 1 1
1 1 1 1
1 1 1 1
1 1 1 1
0.999474 1 1 0.999474
0.999938 1 1 0.999938
0.999935 1 1 0.999935
1 1 1 1
0.999915 1 1 0.999915
1 1 1 1
1 1 1 1
1 1 1 1
1 1 1 1
1 1 1 1
0.989313 1.01579 0.977141 0.996723
1.04333 1.06059 0.98599 0.997704
1.02497 1.04118 0.98612 0.99829
0.93672 0.975964 0.969258 0.990231
0.997896 1.01907 0.981744 0.997431
1.03727 1.05036 0.989749 0.997767
1.01238 1.02605 0.989313 0.99733
0.951586 0.977047 0.98247 0.991319
0.935682 0.979648 0.976151 0.978456
0.780449 0.862732 0.934381 0.968154
0.697994 0.813208 0.896549 0.957361
0.999105 1 1 0.999105
0.999508 1 1 0.999508
0.999496 1 1 0.999496
0.999092 1 1 0.999092
0.998857 1 1 0.998857
0.998889 1 1 0.998889
0.999066 1 1 0.999066
0.999123 1 1 0.999123
1.02485 1.05237 0.976063 0.997732
1.01288 1.04715 0.969412 0.997795
1.00946 1.02099 0.991087 0.997597
1.00277 1.00032 1.00493 0.997535
0.997861 1.00466 0.995936 0.997289
1.03257 1 1.03488 0.997768
1.02997 1 1.0323 0.997748
1.00088 1 1.00285 0.998029
0.999009 1 1 0.999009
0.999251 1 1.00081 0.99844
0.999091 1 1 0.999091
0.999002 1 1 0.999002
1.00044 1.03854 0.96538 0.997865
0.998741 1 1.00004 0.998697
0.999196 1 1.00056 0.998642
0.998564 1.02765 0.973895 0.997746
1.00039 1.00804 0.994988 0.99741
0.991641 1.00082 0.992912 0.997904
1.01425 1 1.01604 0.998236
1.04168 1 1.04401 0.997765
0.991908 1.02677 0.968131 0.997848
0.98537 1.00859 0.979132 0.997799
0.984046 1.0011 0.985111 0.997825
0.995424 1.00042 0.996877 0.998122
1.00088 1 1.0025 0.99838
1.00538 1 1.00701 0.998377
1.04148 1 1.04353 0.998036
0.811225 0.895344 0.93408 0.969989
0.930209 0.976551 0.97077 0.981227
0.999894 1 1.00168 0.998215
0.999615 1.00095 1.00107 0.997604
1.00736 1.0226 0.986943 0.998134
1.00025 1.00776 0.995303 0.997229
1.00448 1.00187 1.00571 0.996915
0.930588 0.976388 0.973766 0.978769
0.94494 0.982672 0.972996 0.988291
0.981413 0.988017 0.99533 0.997977
0.788923 0.865972 0.940012 0.969165
0.69594 0.824848 0.88703 0.951172
1.00004 1.00006 1.00162 0.998362
0.813844 0.891964 0.941197 0.969422
0.755846 0.842527 0.936625 0.95782
0.990691 1.00781 0.984929 0.998053
1.00623 1.00146 1.00686 0.997916
1.01049 1.00274 1.01014 0.997616
0.96589 0.979166 0.988123 0.998298
0.936119 0.978701 0.979186 0.976824
0.91684 0.954677 0.971314 0.988729
0.775461 0.861645 0.930753 0.966936
0.782646 0.899214 0.908554 0.957969
1.00171 1 1.00298 0.998733
0.796644 0.862664 0.960835 0.961111
0.869642 0.930129 0.966115 0.967762
0.989947 0.998797 0.992434 0.998696
1.01403 1.00264 1.01272 0.998658
0.975519 0.969784 1.00772 0.998209
0.909377 0.938297 0.979149 0.989817
0.907374 0.943292 0.985566 0.97601
0.783016 0.863787 0.936834 0.967612
0.821017 0.930025 0.917924 0.961724
1.00084 1 1.00216 0.998687
1.00063 1 1.00177 0.998859
1.00413 1 1.00504 0.9991
0.999087 1 1 0.999087
0.998766 1 1 0.998766
1.00088 1 1.00229 0.998594
1.00082 1 1.00229 0.998525
1.00049 1 1.00189 0.998595
0.998742 1 1 0.998742
1.00144 1 1.0029 0.998541
0.998713 1 1.00018 0.998535
1.00557 1 1.00688 0.998698
1.02055 0.999489 1.02198 0.99911
1.0018 1 1.00326 0.998547
0.998497 1 1 0.998497
0.998773 1 1 0.998773
0.998722 1 1 0.998722
0.99875 1 1.00016 0.998594
0.999257 1 1.00053 0.998726
0.999113 1 1.00037 0.998746
1.00065 1 1.00199 0.998661
0.999246 1 1.00063 0.998612
1.00054 1 1.0018 0.998743
0.998815 1 1.00031 0.998507
0.998911 1 1.00093 0.997985
1.00068 1 1.00226 0.998429
1.00072 1 1.00218 0.998542
1.00053 1 1.00175 0.998782
0.999749 1 1.00089 0.998864
0.999201 1 1 0.999201
0.999232 1 1.00033 0.9989
0.999215 1 1 0.999215
0.99971 1 1 0.99971
0.999136 1 1 0.999136
0.999715 1 1 0.999715
1 1 1 1
0.999722 1 1 0.999722
1 1 1 1
1 1 1 1
1 1 1 1
1 1 1 1
1 1 1 1
0.999488 1 1 0.999488
0.999923 1 1 0.999923
0.999475 1 1 0.999475
1 1 1 1
0.999939 1 1 0.999939
0.999932 1 1 0.999932
1 1 1 1
1 1 1 1
1 1 1 1
1 1 1 1
1 1 1 1
0.810183 0.882766 0.948511 0.967598
0.763056 0.849931 0.935548 0.959637
0.9388 0.980396 0.966538 0.990723
0.999062 1.01871 0.983097 0.997572
1.04037 1.05386 0.989461 0.997723
0.934076 0.962847 0.977256 0.992697
1.01124 1.02548 0.988645 0.997436
0.944935 0.989538 0.974717 0.979696
0.785905 0.866666 0.93768 0.967082
0.694111 0.817797 0.889763 0.953915
0.965455 0.996282 0.974371 0.994547
0.934446 0.97299 0.980652 0.979334
0.767682 0.863009 0.919009 0.967936
0.769908 0.885318 0.908291 0.957447
0.999252 1 1.00052 0.998735
0.999134 1 1 0.999134
0.999507 1 1 0.999507
0.99908 1 1 0.99908
0.998902 1 1 0.998902
0.999318 1 1.00059 0.99873
0.998876 1 1 0.998876
0.99883 1 1 0.99883
0.999032 1 1 0.999032
0.999091 1 1 0.999091
1.00181 1.03873 0.966525 0.997867
0.99614 1.02551 0.973574 0.997724
0.99737 1.00781 0.99209 0.997534
0.993529 1.00103 0.994688 0.997802
1.03662 1.00061 1.03828 0.997786
1.01965 1 1.02158 0.998114
0.998681 1 1 0.998681
0.998783 1 1.00006 0.998726
0.992287 1.02705 0.968192 0.997891
1.00165 1 1.0033 0.998354
1.00549 1 1.00716 0.99834
0.984172 1.0069 0.979659 0.997723
0.981949 1.00052 0.983479 0.997921
0.99751 1.00124 0.99824 0.998033
1.03645 1 1.03853 0.998001
0.989748 1.00424 0.98736 0.998184
0.978016 1 0.979402 0.998585
1.01485 1.0006 1.01605 0.998228
1.00493 1 1.00662 0.998323
1.00446 1 1.00629 0.998189
1.0224 1 1.02431 0.998129
0.815465 0.875718 0.963401 0.966572
0.821065 0.894374 0.946467 0.969957
0.919229 0.973605 0.964863 0.978533
0.999959 1 1.0016 0.99836
1.00614 1.00151 1.00669 0.997942
0.992723 1.00862 0.98616 0.998051
1.00915 1.00133 1.01007 0.997767
0.80686 0.886789 0.937998 0.970009
0.933164 0.975272 0.977717 0.978631
0.908465 0.950831 0.968443 0.986576
0.962326 0.974478 0.989082 0.998431
0.773585 0.860972 0.930537 0.965573
0.757417 0.845927 0.934471 0.958156
0.770486 0.888801 0.903739 0.959218
1.00229 1 1.00356 0.998735
0.798112 0.865965 0.957159 0.962897
0.878621 0.937815 0.968262 0.96759
0.991873 0.99854 0.994532 0.998785
1.0137 1.00138 1.0137 0.998624
0.97268 0.968577 1.0058 0.998445
0.907254 0.941681 0.975439 0.9877
0.912757 0.948366 0.984026 0.978076
0.803356 0.885175 0.938982 0.966544
0.80809 0.918047 0.914155 0.962886
1.00625 0.999513 1.0073 0.999438
0.886182 0.940496 0.968867 0.972527
0.859936 0.9292 0.952241 0.971875
0.993858 0.979912 1.01452 0.999715
0.931024 0.938654 0.998639 0.993223
0.918763 0.940808 0.999486 0.97707
0.840507 0.905766 0.961034 0.965577
0.836784 0.949395 0.916199 0.962004
1.00044 1 1.00162 0.998827
1.00398 1 1.00488 0.9991
1.02046 0.999773 1.02136 0.999354
0.99874 1 1 0.99874
0.998642 1 1.00011 0.998537
0.9999 1 1.00137 0.998535
1.00639 1 1.00765 0.998746
0.998495 1 1 0.998495
1.00217 1 1.00363 0.998539
1.02489 0.999874 1.02586 0.999181
1.03741 0.99692 1.0412 0.999446
1.0265 0.999999 1.02746 0.999068
0.998507 1 1 0.998507
0.99881 1 1.00022 0.998588
0.999086 1 1.00037 0.998719
0.998793 1 1 0.998793
0.998955 1 1.00033 0.998628
1.00028 1 1.00162 0.998662
1.00091 1 1.00216 0.998755
1.00015 1 1.00151 0.998637
1.00531 1 1.00632 0.998994
0.998589 1 1 0.998589
0.999154 1.00022 1.0004 0.998535
0.998862 1 1.00069 0.998169
0.999225 1.00035 1.00153 0.997356
1.00124 1 1.00291 0.998337
0.998922 1 1.00079 0.998132
1.00047 1 1.00202 0.998455
1.0009 1 1.00227 0.998638
1.0005 1 1.00196 0.99854
1.00025 1 1.00147 0.998781
0.999133 1 1 0.999133
0.999789 1 1.00093 0.998861
0.999199 1 1 0.999199
0.999702 1 1 0.999702
0.999216 1 1 0.999216
0.99971 1 1 0.99971
0.999998 1 1 0.999998
0.999717 1 1 0.999717
0.999999 1 1 0.999999
1 1 1 1
1 1 1 1
1 1 1 1
1 1 1 1
0.999298 1 1 0.999298
0.999895 1 1 0.999895
0.999424 1 1 0.999424
1 1 1 1
0.999927 1 1 0.999927
0.999475 1 1 0.999475
1 1 1 1
1 1 1 1
0.99994 1 1 0.99994
1 1 1 1
1 1 1 1
1 1 1 1
0.79525 0.86393 0.955302 0.963572
0.815243 0.890125 0.945744 0.968418
0.875534 0.938019 0.964947 0.967292
0.75694 0.845157 0.934422 0.958475
0.934205 0.970689 0.971684 0.99046
1.00899 1.02492 0.98688 0.997549
0.951835 0.988488 0.981773 0.980797
0.792696 0.870409 0.940432 0.968403
0.694895 0.826025 0.885142 0.950414
0.964024 0.992286 0.977624 0.993754
0.930553 0.973462 0.979254 0.976173
0.78015 0.871467 0.926281 0.966462
0.772466 0.890472 0.907557 0.95584
0.944929 0.980026 0.971999 0.991964
0.920066 0.947563 0.995269 0.975596
0.803905 0.890307 0.935459 0.965252
0.81506 0.929179 0.914347 0.959354
1.00021 1 1.0017 0.998514
0.998846 1 1.00007 0.998775
0.999162 1 1 0.999162
0.998946 1 1 0.998946
0.9987 1 1.00025 0.998456
0.998894 1 1.00013 0.998764
0.998864 1 1 0.998864
0.998796 1 1 0.998796
0.998864 1 1 0.998864
0.998997 1 1 0.998997
0.9937 1.02829 0.968359 0.997933
0.985854 1.0062 0.982088 0.99765
0.980328 1.00034 0.981943 0.998016
1.00096 1.00231 1.00071 0.997947
1.0301 1 1.0322 0.997966
1.00457 1 1.00628 0.998303
1.00205 1 1.00373 0.998328
1.00426 1 1.00597 0.998297
0.986629 1.00472 0.983777 0.99819
1.00344 1 1.00526 0.998188
1.02264 1 1.02457 0.998119
0.977253 1.00043 0.97827 0.998531
1.01321 1.00147 1.01356 0.998192
0.959719 0.987279 0.973399 0.99865
0.996333 0.996657 1.00044 0.999233
1.0353 0.999863 1.03706 0.998441
1.00192 1 1.00373 0.9982
1.01141 1 1.01327 0.998155
0.893404 0.942873 0.971728 0.975102
0.81896 0.875682 0.96785 0.966292
0.81018 0.888535 0.94118 0.9688
1.00278 1 1.00404 0.998737
1.01343 1.00005 1.01481 0.998589
0.991088 0.99787 0.994324 0.998872
0.804256 0.87005 0.959148 0.96375
0.919992 0.947352 0.995235 0.975769
0.908243 0.939822 0.977035 0.989113
0.962749 0.964395 0.999633 0.99866
0.802938 0.884455 0.938026 0.967813
0.88498 0.942512 0.970548 0.967451
0.811998 0.921281 0.915242 0.963001
1.00463 0.999166 1.00607 0.999403
0.88279 0.938851 0.965646 0.973739
0.860867 0.930078 0.952351 0.971895
0.996573 0.983718 1.01351 0.99956
0.940877 0.946683 1.00096 0.992912
0.899122 0.934505 0.987031 0.974779
0.838852 0.95003 0.917044 0.962849
0.85061 0.912121 0.965175 0.966212
1.00541 0.987305 1.01863 0.999711
0.864975 0.924568 0.954714 0.979922
0.876642 0.946721 0.951633 0.973041
0.815796 0.92893 0.915273 0.959507
0.975777 0.963517 1.01453 0.998215
0.943056 0.9544 1.01025 0.978089
0.880399 0.931821 0.976936 0.967122
1.004 1 1.00491 0.999098
1.02071 0.999778 1.02168 0.999273
1.02159 0.990141 1.03221 0.999566
0.998494 1 1 0.998494
1.0024 1 1.00388 0.998531
1.02996 1 1.03073 0.999251
0.998515 1 1 0.998515
1.0256 1 1.02655 0.999079
1.03868 0.997007 1.0424 0.999421
1.02696 0.995311 1.03233 0.999489
1.0189 1 1.01986 0.999059
0.998874 1 1.00023 0.998644
1.00024 1 1.00158 0.998662
1.0014 1 1.00264 0.998768
1.00432 1 1.00535 0.99897
0.999741 1 1.0011 0.99864
1.0025 1 1.0036 0.998904
0.998809 1 1 0.998809
1.00114 1 1.00329 0.997861
0.999467 1.00045 1.00045 0.998564
0.998958 1.00029 1.00057 0.998104
0.998229 1.00007 1.00101 0.997148
1.00576 1.00731 1.00129 0.997179
1.00103 1.00023 1.00276 0.998048
0.999173 1.0004 1.00138 0.997392
1.00373 1 1.00526 0.998475
1.00177 1 1.00346 0.998315
0.998923 1 1.00065 0.998278
1.00031 1 1.00184 0.998482
1.00069 1 1.00202 0.998671
0.999034 1 1 0.999034
1.00016 1 1.00138 0.998779
0.999133 1 1 0.999133
0.999666 1 1 0.999666
0.999197 1 1 0.999197
0.999699 1 1 0.999699
0.999996 1 1 0.999996
0.999711 1 1 0.999711
0.999997 1 1 0.999997
1 1 1 1
0.999998 1 1 0.999998
1 1 1 1
1 1 1 1
0.999095 1 1 0.999095
0.99974 1 1 0.99974
0.999296 1 1 0.999296
1 1 1 1
0.999852 1 1 0.999852
0.99936 1 1 0.99936
1 1 1 1
1 1 1 1
0.99993 1 1 0.99993
1 1 1 1
1 1 1 1
1 1 1 1
0.880344 0.940037 0.962234 0.973256
0.789015 0.862855 0.948034 0.964548
0.81337 0.886508 0.947683 0.968149
0.998679 1 1 0.998679
0.864512 0.926627 0.958232 0.973633
0.874287 0.93763 0.964085 0.967179
0.756889 0.849621 0.928468 0.959489
0.970189 0.994564 0.982614 0.992752
0.930923 0.969378 0.981091 0.978839
0.786476 0.883309 0.922622 0.965049
0.767399 0.881044 0.910666 0.956456
0.944112 0.978361 0.975414 0.989318
0.910551 0.944398 0.985915 0.977935
0.815244 0.895393 0.943015 0.965507
0.811816 0.923434 0.916152 0.959586
0.912881 0.948254 0.975521 0.986854
0.913409 0.934844 1.00146 0.975648
0.861961 0.922443 0.96703 0.966291
0.837009 0.94836 0.917481 0.961966
1.00015 1 1.00185 0.998297
1.00107 1 1.00259 0.998476
0.998816 1 1 0.998816
0.998482 1 1 0.998482
0.998804 1 1.00029 0.99851
0.998798 1 1 0.998798
0.998804 1 1 0.998804
0.998897 1 1 0.998897
0.981971 1.00531 0.97855 0.998193
0.974916 1.00027 0.976135 0.99848
1.00381 1 1.00555 0.99827
1.01231 1.00238 1.01177 0.998154
1.02452 1 1.02646 0.998109
1.00303 1 1.00485 0.998186
1.00226 1 1.00406 0.998207
0.966151 0.98967 0.977488 0.998719
1.01188 1 1.01371 0.998193
1.02698 1.00032 1.02823 0.998463
0.991304 0.9965 0.9955 0.999282
1.00166 1 1.00339 0.998279
0.958949 0.977274 0.982539 0.998687
1.00648 0.992644 1.01449 0.999456
1.04631 0.998426 1.04947 0.998554
1.00239 1 1.00405 0.998343
0.876706 0.92794 0.962298 0.981803
0.892405 0.942331 0.971139 0.975164
0.823902 0.875743 0.973907 0.96601
1.00263 0.998648 1.00461 0.999372
1.00076 0.987391 1.01414 0.999409
0.880884 0.938529 0.962713 0.974931
0.925392 0.939202 1.00777 0.977701
0.932185 0.944138 0.997287 0.990026
0.852965 0.915166 0.965719 0.965119
0.861624 0.930996 0.952238 0.971907
0.842091 0.951641 0.91822 0.963694
1.00812 0.991744 1.01684 0.999669
0.866362 0.925474 0.955329 0.979901
0.8751 0.94476 0.950224 0.974789
0.985202 0.97001 1.01607 0.999602
0.81185 0.92289 0.916645 0.959676
0.924438 0.940126 1.00688 0.976589
0.889206 0.94184 0.976713 0.966625
1.00732 0.985239 1.02265 0.999766
0.884202 0.942112 0.956186 0.981536
0.86313 0.925395 0.957835 0.973775
0.768205 0.884513 0.906957 0.957604
0.861972 0.923712 0.96612 0.965886
0.960927 0.959015 1.00569 0.996329
0.946125 0.949243 1.02363 0.973709
1.01844 0.999982 1.01928 0.999193
1.02288 0.991025 1.03262 0.999534
1.00754 0.979741 1.02881 0.999582
0.998524 1 1 0.998524
1.02571 1 1.02664 0.999091
1.03899 0.998282 1.04141 0.999396
1.01409 1 1.01506 0.999045
1.02622 0.996459 1.03039 0.999488
1.01218 0.993721 1.01935 0.999239
1.00305 1 1.00411 0.998946
0.999316 1 1.00067 0.998643
1.00398 1 1.0051 0.998882
1.00728 1 1.00902 0.998274
0.999028 1 1 0.999028
1.00038 1 1.00236 0.998015
1.00164 1.00055 1.00413 0.996974
1.00414 1.00573 1.00188 0.996553
0.999042 1.0006 1.0004 0.998038
0.998656 1.00057 1.00109 0.996999
1.00713 1.00936 1.00053 0.997273
1.00358 1.00329 1.00261 0.997676
1.00555 1.00706 1.00125 0.997253
1.0056 1 1.00732 0.998286
1.00199 1.00079 1.00317 0.998033
0.998928 1.00022 1.00128 0.997429
0.999261 1 1.00039 0.998875
1.00342 1 1.00495 0.99848
1.00235 1 1.00407 0.998292
1.00052 1 1.00182 0.998705
0.999033 1 1 0.999033
0.999598 1 1 0.999598
0.999132 1 1 0.999132
0.999663 1 1 0.999663
0.999994 1 1 0.999994
0.999697 1 1 0.999697
0.999996 1 1 0.999996
1 1 1 1
0.999997 1 1 0.999997
1 1 1 1
1 1 1 1
0.999013 1 1 0.999013
0.999627 1 1 0.999627
0.999133 1 1 0.999133
1 1 1 1
0.999729 1 1 0.999729
0.999294 1 1 0.999294
1 1 1 1
1 1 1 1
0.99981 1 1 0.99981
1 1 1 1
1 1 1 1
1 1 1 1
0.869547 0.92654 0.957324 0.980325
0.883203 0.939825 0.965596 0.973236
0.78905 0.863468 0.947258 0.964695
0.998705 1 1 0.998705
0.998639 1 1 0.998639
0.99855 1 1 0.99855
0.874987 0.947472 0.949224 0.972897
0.861589 0.926187 0.95542 0.973659
0.87445 0.937274 0.964742 0.967069
0.948262 0.981371 0.974851 0.99119
0.905648 0.94278 0.984729 0.975512
0.803866 0.878513 0.945612 0.967659
0.824755 0.932404 0.922613 0.958741
0.917011 0.951159 0.974569 0.989258
0.913959 0.936225 0.999968 0.976248
0.8418 0.900295 0.966595 0.967341
0.837853 0.949721 0.916323 0.962772
0.906987 0.939861 0.977325 0.987413
0.928876 0.943092 1.00802 0.977087
0.880384 0.929958 0.978664 0.967331
0.823869 0.931617 0.919625 0.961634
0.998498 1 1.00019 0.998312
1.00064 1 1.00237 0.998277
1.00098 1 1.00255 0.998438
0.998474 1 1 0.998474
0.99858 1 1.00001 0.998565
0.998811 1 1 0.998811
0.972516 0.990873 0.982682 0.998771
0.986631 0.996591 0.990679 0.999321
1.00247 1 1.00426 0.998214
1.01965 1.00057 1.02062 0.998484
1.01309 1 1.01488 0.998231
1.00224 1 1.004 0.998253
1.00172 1 1.00336 0.998366
0.96655 0.978488 0.989019 0.998768
1.04266 0.998548 1.04555 0.998688
1.0087 0.988592 1.02092 0.999425
1.00207 1 1.00357 0.998501
0.980727 0.967297 1.01522 0.998688
1.00792 0.982816 1.02609 0.999468
1.03252 0.996939 1.03692 0.99881
0.897146 0.946354 0.963851 0.983558
0.877113 0.92813 0.962083 0.982278
0.89179 0.94178 0.970977 0.975223
1.01208 0.996622 1.01589 0.999627
0.975505 0.968025 1.00904 0.998696
0.86805 0.926543 0.956107 0.97988
0.919613 0.929191 1.0094 0.980477
0.884391 0.938629 0.975301 0.966078
0.874733 0.943118 0.949776 0.976536
0.826021 0.9323 0.923978 0.958901
1.00299 0.982597 1.02097 0.999787
0.885442 0.942306 0.956731 0.982152
0.862473 0.926389 0.956051 0.973802
0.958525 0.955377 1.01038 0.992992
0.771034 0.889473 0.906671 0.956073
0.838418 0.900846 0.96263 0.966831
0.955332 0.953338 1.0256 0.977079
1.00095 0.966434 1.03652 0.999216
0.870277 0.926569 0.957983 0.980442
0.879759 0.941138 0.966136 0.967548
0.696252 0.810763 0.896621 0.957774
0.801074 0.887782 0.934823 0.965244
0.926521 0.940355 1.009 0.976505
0.937622 0.950967 0.995183 0.990739
1.02671 0.99213 1.03537 0.999501
1.01117 0.985588 1.02638 0.999586
1.01351 0.990708 1.0235 0.999526
1.00933 1 1.01031 0.999032
1.02531 0.997389 1.02852 0.999487
1.01484 0.992367 1.02334 0.999321
1.00919 1 1.01039 0.998818
1.00563 1 1.00678 0.998859
1.00688 1 1.00876 0.998133
1.01534 1.00063 1.01773 0.997028
0.999616 1 1.00145 0.998173
1.00305 1.00103 1.00509 0.996948
1.00451 1.00242 1.00596 0.996138
1.00397 1.00595 1.00191 0.996126
1.0044 1.00645 1.00108 0.996887
1.0039 1.00552 1.00189 0.996505
0.998985 1.0009 1.00124 0.996849
1.00231 1.00369 1.0011 0.997531
1.00713 1.00931 1.00048 0.99736
1.00256 1 1.00464 0.997933
1.00412 1.00365 1.00274 0.997729
1.00572 1.00723 1.00117 0.997326
1.00354 1 1.00494 0.998607
1.00467 1 1.00639 0.998286
1.00295 1.00142 1.00352 0.998018
0.999493 1 1 0.999493
0.999585 1 1.00071 0.998873
1.00296 1 1.00448 0.998484
0.999031 1 1 0.999031
0.999593 1 1 0.999593
0.999988 1 1 0.999988
0.999659 1 1 0.999659
0.999992 1 1 0.999992
1 1 1 1
0.999996 1 1 0.999996
1 1 1 1
1 1 1 1
0.998989 1 1 0.998989
0.999619 1 1 0.999619
0.999037 1 1 0.999037
1 1 1 1
0.999665 1 1 0.999665
0.999171 1 1 0.999171
1 1 1 1
1 1 1 1
0.999717 1 1 0.999717
1 1 1 1
1 1 1 1
1 1 1 1
0.883964 0.941969 0.956177 0.981431
0.870631 0.927153 0.957899 0.980309
0.884132 0.939267 0.967181 0.97324
0.99883 1 1.00026 0.998569
0.998678 1 1.00025 0.99843
0.998732 1 1 0.998732
0.998632 1 1 0.998632
0.998534 1 1 0.998534
0.99853 1 1 0.99853
0.998458 1 1 0.998458
0.858527 0.930359 0.949686 0.971681
0.875582 0.94515 0.950479 0.974661
0.858844 0.925203 0.953361 0.973689
0.839099 0.951225 0.915461 0.963585
0.9074 0.942914 0.974878 0.987135
0.913895 0.933869 1.00172 0.976931
0.850211 0.909162 0.966564 0.967509
0.898881 0.938875 0.970442 0.986563
0.924069 0.935804 1.01298 0.974808
0.889737 0.942223 0.976308 0.96721
0.808866 0.919016 0.91414 0.962811
0.91602 0.942643 0.982683 0.988881
0.935381 0.944918 1.01589 0.974427
0.844734 0.909604 0.961485 0.965884
0.784782 0.896801 0.912955 0.958525
1.00566 1 1.00718 0.998493
0.998977 1 1.00066 0.99832
1.00142 1 1.00316 0.998257
0.998467 1 1 0.998467
0.9722 0.978057 0.995139 0.998867
1.00911 0.985257 1.02484 0.999392
1.00144 1 1.00321 0.998228
1.00152 1 1.00314 0.998389
1.03554 0.997818 1.03903 0.998821
1.00147 1 1.00298 0.998494
1.03349 0.996333 1.03855 0.998797
0.978047 0.965661 1.01519 0.997676
1.00758 0.976315 1.03244 0.999597
1.01332 0.995118 1.01939 0.998922
0.965443 0.945984 1.0232 0.997434
1.02233 0.980157 1.04376 0.999296
0.877293 0.927769 0.963061 0.981864
0.894545 0.945469 0.961185 0.984347
0.876907 0.927993 0.961536 0.982751
0.997046 0.978197 1.01947 0.999805
0.964844 0.96028 1.00819 0.99659
0.885037 0.941622 0.956382 0.982773
0.952769 0.956327 1.02264 0.974227
0.842358 0.905207 0.962339 0.966986
0.860539 0.927134 0.953115 0.97383
0.766897 0.879987 0.910949 0.95668
1.00361 0.969286 1.03608 0.999357
0.870143 0.92767 0.956712 0.980428
0.876 0.938714 0.964604 0.967435
0.939901 0.950487 0.995705 0.993127
0.693454 0.81638 0.890034 0.954375
0.809258 0.890592 0.941325 0.965314
0.924944 0.935914 1.01346 0.975156
0.998583 0.973922 1.0273 0.998074
0.88095 0.940692 0.961983 0.973501
0.763327 0.849511 0.935915 0.960075
0.769058 0.863933 0.919295 0.968332
0.907259 0.92796 1.00072 0.976989
0.910432 0.937246 0.983466 0.987721
1.01307 0.989073 1.02468 0.99959
1.01356 0.988231 1.02613 0.999521
0.992868 0.987681 1.00591 0.999345
1.01739 0.990985 1.02726 0.999402
1.00769 0.995117 1.01375 0.998899
1.00234 1.0008 1.00367 0.997878
1.00684 1 1.00886 0.997992
1.01424 1.00058 1.01675 0.996956
1.00877 1.0004 1.01222 0.996196
1.00468 1.00173 1.00604 0.996922
1.00491 1.00224 1.00664 0.996051
1.00239 1.00215 1.00445 0.995814
1.01228 1.01612 1 0.996225
1.00855 1.01145 1.00077 0.996369
1.00447 1.00624 1.00218 0.996071
1.00166 1.00438 1.00013 0.997166
1.00348 1.0058 1.00074 0.99695
1.00368 1.00534 1.0019 0.996457
0.999681 1.00101 1.00112 0.99756
1.00255 1.00396 1.00108 0.997514
1.00682 1.00897 1.00043 0.997448
1.00469 1 1.00644 0.998253
1.00254 1.00003 1.00453 0.997988
1.00454 1.00388 1.00288 0.997784
0.999648 1 1.00036 0.999283
1.00298 1 1.00438 0.99861
1.00389 1 1.00562 0.998286
0.999976 1 1 0.999976
0.999486 1 1 0.999486
0.999928 1 1.00106 0.998871
0.999588 1 1 0.999588
0.999985 1 1 0.999985
1 1 1 1
0.999991 1 1 0.999991
1 1 1 1
1 1 1 1
0.99949 1 1.00094 0.998554
0.998888 1 1 0.998888
0.999529 1 1 0.999529
0.998986 1 1 0.998986
0.999995 1 1 0.999995
0.999622 1 1 0.999622
0.999062 1 1 0.999062
1 1 1 1
1 1 1 1
0.999703 1 1 0.999703
1 1 1 1
1 1 1 1
1 1 1 1
0.863779 0.924515 0.953545 0.979822
0.883583 0.941344 0.955788 0.982058
0.871596 0.928479 0.95761 0.980289
0.998749 1 1.00017 0.998581
0.999132 1 1.00071 0.998424
0.999031 1 1.0006 0.998435
0.998544 1 1.00011 0.998432
1.00229 1 1.00393 0.998366
0.998624 1 1 0.998624
0.998519 1 1 0.998519
0.998531 1 1 0.998531
0.998462 1 1 0.998462
1.00369 1 1.00519 0.998508
0.869829 0.931025 0.965668 0.967485
0.860713 0.93113 0.951275 0.971722
0.876999 0.944091 0.951367 0.97642
0.810501 0.921568 0.913327 0.962942
0.885305 0.937495 0.977219 0.966344
0.891497 0.934272 0.968397 0.985355
0.931164 0.943006 1.0109 0.976792
0.914527 0.945449 0.980773 0.986256
0.946115 0.953915 1.0154 0.976784
0.853327 0.912959 0.966667 0.966913
0.783526 0.901005 0.908133 0.957584
0.92809 0.942055 0.996901 0.988239
0.931863 0.941802 1.01239 0.977335
0.7843 0.865666 0.936663 0.967272
0.724034 0.846872 0.893162 0.957218
1.00669 1 1.00768 0.999012
1.00683 1 1.00835 0.998493
1.00012 1 1.0018 0.998327
0.979434 0.968536 1.01467 0.996632
1.01098 0.972029 1.04035 0.999734
1.0013 1 1.00282 0.998487
1.03518 0.995735 1.04088 0.998784
1.01441 0.997354 1.01819 0.99893
1.02642 0.985133 1.04266 0.999285
0.969701 0.953036 1.02012 0.997423
1.01896 0.995557 1.02418 0.999345
0.978858 0.965513 1.01632 0.997542
0.892109 0.942608 0.970834 0.974858
0.878105 0.928234 0.963013 0.98233
0.89214 0.944582 0.958731 0.985137
1.00749 0.974443 1.03445 0.999482
0.9391 0.951411 0.997683 0.989353
0.872147 0.92883 0.957737 0.980409
0.929072 0.944892 1.00915 0.974342
0.797232 0.872793 0.944148 0.967461
0.873505 0.9363 0.964439 0.967332
0.694746 0.825194 0.885375 0.950918
0.998104 0.97285 1.02776 0.998245
0.883023 0.939864 0.965116 0.97348
0.757229 0.84533 0.934147 0.958929
0.914967 0.94255 0.981515 0.989018
0.780848 0.871619 0.926611 0.966813
0.896751 0.928727 0.990105 0.975221
0.965313 0.965498 1.00293 0.996891
0.795471 0.864777 0.954243 0.963964
0.780479 0.862613 0.934125 0.968591
0.917708 0.947885 0.992302 0.975674
0.892378 0.933319 0.966086 0.9897
1.01296 0.986293 1.02754 0.999515
0.997156 0.987035 1.01094 0.999318
0.998481 0.99747 1.00249 0.99853
1.00615 0.989855 1.0175 0.998976
1.00189 1.00093 1.003 0.997965
0.998762 1.00199 0.999649 0.997133
1.01273 1.00049 1.01539 0.996883
1.00709 1.00055 1.01037 0.996207
0.9993 1.00158 1.00137 0.996354
1.00486 1.00195 1.00697 0.995964
1.00256 1.00304 1.0037 0.995843
1.01185 1.01549 1 0.996419
1.02927 1.03267 1 0.996706
1.02012 1.0239 1.00002 0.99629
1.01204 1.01585 1 0.99625
1.00835 1.01174 1 0.996646
1.00693 1.00957 1.00107 0.996319
1.00507 1.00663 1.00244 0.996016
1.00128 1.00396 1 0.997325
1.00048 1.00323 1.00002 0.997239
1.00253 1.00522 1.00032 0.997014
1.00006 1.00008 1.00208 0.997909
1.00027 1.00139 1.0013 0.997593
1.0029 1.00432 1.0011 0.997497
1.00284 1 1.00392 0.998915
1.00425 1 1.006 0.998255
1.00248 1.00003 1.00442 0.998043
0.99995 1 1 0.99995
1.00007 1 1.00079 0.999275
1.00251 1 1.0039 0.998613
1 1 1 1
0.99997 1 1 0.99997
0.999479 1 1 0.999479
0.999982 1 1 0.999982
1 1 1 1
1 1 1 1
1.00048 1 1.00201 0.998474
0.998943 1 1.00016 0.998778
0.999536 1 1.001 0.998538
0.999444 1 1 0.999444
0.998895 1 1.00001 0.998887
0.999981 1 1 0.999981
0.999532 1 1 0.999532
0.998983 1 1 0.998983
1 1 1 1
0.999997 1 1 0.999997
0.999625 1 1 0.999625
1 1 1 1
1 1 1 1
1 1 1 1
0.882262 0.940848 0.961591 0.975186
0.865911 0.92585 0.954537 0.979806
0.883465 0.940117 0.956295 0.982688
0.998599 1 1.00015 0.99845
0.998905 1 1.00031 0.998593
0.999225 1 1.00081 0.998418
0.998655 1 1.00022 0.998438
0.998851 1 1.0004 0.998455
1.001 1 1.00259 0.998413
1.00685 1 1.00867 0.99819
1.00786 1 1.00951 0.998372
0.998533 1 1 0.998533
0.998465 1 1 0.998465
1.00342 1 1.00493 0.998497
1.01256 1 1.01387 0.998705
0.765906 0.851511 0.937845 0.959078
0.878433 0.938803 0.96731 0.967316
0.861977 0.931076 0.952696 0.971753
0.773235 0.892175 0.903897 0.958832
0.858549 0.920047 0.965812 0.96619
0.936929 0.94564 1.01673 0.974487
0.917512 0.941313 0.987582 0.986972
0.926694 0.940163 0.995458 0.990171
0.710018 0.837208 0.889036 0.95393
0.92609 0.937875 1.01274 0.975011
0.801895 0.88468 0.938234 0.966096
0.924009 0.944728 0.987036 0.990914
0.917646 0.936905 1.00123 0.978244
0.771735 0.867184 0.920221 0.967085
1.00022 1 1.00067 0.999549
1.00648 1 1.00747 0.999018
1.00727 1 1.00879 0.998493
0.96627 0.95053 1.01915 0.997454
1.03045 0.990088 1.04152 0.999273
1.01516 0.998801 1.01746 0.998937
1.01899 0.996959 1.02277 0.999344
0.976499 0.964991 1.01437 0.997589
0.995615 0.988488 1.0089 0.998325
0.817615 0.876402 0.967731 0.96403
0.8897 0.94181 0.967439 0.976466
0.877208 0.928168 0.961643 0.982793
0.99861 0.971329 1.02976 0.998373
0.906041 0.938359 0.97546 0.98985
0.882474 0.938993 0.965412 0.973479
0.901956 0.922978 1.00063 0.976606
0.789656 0.885527 0.923627 0.965471
0.756939 0.849572 0.928155 0.959931
0.966435 0.964105 1.00547 0.99696
0.78908 0.863339 0.947214 0.964921
0.78667 0.866903 0.937883 0.967551
0.895618 0.934437 0.971178 0.986903
0.910467 0.947438 0.982635 0.977961
0.956049 0.97321 0.98388 0.998461
0.807222 0.880661 0.946993 0.967916
0.935656 0.975369 0.979695 0.979166
0.908451 0.948652 0.970551 0.986681
1.00128 0.986149 1.01606 0.999295
0.990255 0.996716 0.994878 0.998633
0.993657 1.0022 0.993666 0.997799
1.002 1.0011 1.00285 0.998051
1.00166 1.00242 1.00213 0.997118
1.00023 1.00362 0.999428 0.99719
1.00579 1.00076 1.00884 0.996218
0.99922 1.00119 1.00167 0.996366
1.01768 1.02081 0.999807 0.997127
1.00299 1.00395 1.00319 0.995872
1.011 1.01462 1 0.996429
1.02952 1.03237 1 0.997235
1.03316 1.036 1 0.997258
1.03189 1.03538 1 0.996627
1.02891 1.03227 1 0.996745
1.02049 1.02407 1 0.996503
1.0189 1.02265 1 0.996341
1.01152 1.0153 1 0.996274
1.00971 1.01273 1 0.997013
1.00833 1.01155 1.00014 0.996674
1.00534 1.00762 1.00148 0.99627
0.998878 1.00125 1 0.997627
1.00205 1.00474 1 0.997319
0.999268 1.00196 1 0.997312
1.00231 1 1.00379 0.99852
1.00048 1.0004 1.00218 0.997909
1.0008 1.00173 1.00145 0.997627
0.999926 1 1.00006 0.999869
1.00241 1 1.0035 0.998911
1.00349 1 1.00524 0.998258
1 1 1 1
0.999937 1 1 0.999937
1.00043 1 1.00116 0.999267
1 1 1 1
0.999965 1 1 0.999965
1 1 1 1
0.999127 1 1.00072 0.998405
1.00021 1 1.00175 0.998467
1.00036 1 1.00171 0.998654
0.999466 1 1.00011 0.999356
0.99911 1 1.00033 0.998777
0.999209 1 1.00069 0.998523
0.999961 1 1 0.999961
0.999448 1 1 0.999448
0.998886 1 1 0.998886
1 1 1 1
0.999986 1 1 0.999986
0.999536 1 1 0.999536
1 1 1 1
0.999999 1 1 0.999999
1 1 1 1
0.796096 0.862493 0.960052 0.961424
0.881561 0.940037 0.961654 0.975189
0.868622 0.927716 0.955615 0.97979
0.999972 1 1.00154 0.998432
1.00158 1.00053 1.00281 0.998252
1.0052 1 1.0069 0.998311
0.999144 1 1.0007 0.998443
0.99868 1 1.00021 0.998474
1.00094 1 1.00248 0.998459
1.00696 1 1.00862 0.998353
1.00638 1 1.00818 0.998212
1.00813 1 1.01005 0.9981
0.99364 1.00027 0.994377 0.998988
1.00246 1 1.00398 0.998485
1.00982 1 1.01116 0.998674
0.785436 0.863169 0.941928 0.966045
0.755139 0.841659 0.937189 0.957335
0.884818 0.943855 0.969255 0.967187
0.697395 0.826189 0.888004 0.950571
0.802275 0.883298 0.938916 0.967363
0.918326 0.935567 1.0045 0.977174
0.934176 0.946406 0.999284 0.987785
0.917622 0.940777 0.986327 0.988909
0.773237 0.86011 0.930579 0.966063
0.903223 0.928665 0.995996 0.976513
0.910225 0.945539 0.972508 0.989865
0.904166 0.947871 0.977229 0.976119
1.00551 1 1.00649 0.999021
0.999799 1 1.00031 0.999489
1.00623 1 1.00722 0.999024
0.975526 0.965835 1.01243 0.997633
1.01892 0.998322 1.0213 0.999344
0.996057 0.989284 1.00861 0.998247
0.986438 0.993741 0.995244 0.997395
0.812396 0.897354 0.933318 0.970006
0.819622 0.875791 0.969943 0.964866
0.889821 0.942325 0.965471 0.978053
0.968124 0.969416 1.00158 0.997091
0.897069 0.935057 0.971514 0.987503
0.78938 0.864282 0.946413 0.965049
0.903385 0.94254 0.982298 0.97573
0.794859 0.873048 0.939703 0.968861
0.960132 0.974993 0.987081 0.997646
0.814728 0.889837 0.945143 0.968734
0.933695 0.976479 0.979413 0.976284
0.914769 0.950998 0.972618 0.988985
0.965431 0.988219 0.978562 0.998343
0.93899 0.981745 0.977497 0.978469
0.943841 0.980365 0.97171 0.990773
0.981079 0.995173 0.987096 0.998725
0.990751 1.00262 0.990372 0.997773
0.982013 1.00735 0.977133 0.997663
1.00344 1.00278 1.00356 0.997103
0.999458 1.00364 0.998648 0.997185
1.0202 1.02844 0.994214 0.997767
0.998943 1.00071 1.00186 0.996379
1.01714 1.02078 0.999326 0.99711
1.03048 1.03582 0.997076 0.997768
1.01007 1.01368 1 0.99644
1.02893 1.03196 0.999827 0.997231
1.03412 1.03705 0.999467 0.997713
1.03078 1.03327 1 0.99759
1.03408 1.03685 1 0.99732
1.03332 1.0363 1 0.997117
1.03241 1.03583 1 0.996694
1.03217 1.03565 1 0.996638
1.02867 1.03199 1 0.996783
1.02002 1.02334 1 0.996763
1.02199 1.02555 1 0.996536
1.01777 1.02146 1 0.996392
1.00369 1.00635 1 0.99736
1.00911 1.01214 1 0.997008
1.00848 1.01164 1.00017 0.996702
0.998449 1 1.0002 0.998244
1.00008 1.00246 1 0.997624
1.00282 1.00552 1 0.997312
1.00038 1 1.00069 0.99969
1.00162 1 1.0031 0.998521
1.00114 1.00073 1.0025 0.997909
1 1 1 1
1.00033 1 1.00049 0.999846
1.00214 1 1.00324 0.998907
1 1 1 1
0.999925 1 1 0.999925
1 1 1 1
0.998325 1 1 0.998325
0.999716 1 1.0013 0.998413
1.00098 1 1.00245 0.998532
0.999895 1 1.00144 0.99846
1.00062 1 1.00197 0.998653
1.00006 1 1.00083 0.999238
0.999938 1 1 0.999938
0.999442 1 1.00008 0.999359
0.9995 1 1.00072 0.998776
1 1 1 1
0.999967 1 1 0.999967
0.999451 1 1 0.999451
1 1 1 1
0.999991 1 1 0.999991
1 1 1 1
0.816393 0.886211 0.95095 0.968733
0.798918 0.866036 0.959358 0.96158
0.880541 0.939245 0.961355 0.975185
1.00141 1 1.003 0.998413
1.00662 1 1.00843 0.9982
1.0003 1.00029 1.00169 0.998319
0.999043 1.00113 1.00027 0.997646
1.00608 1.00019 1.00771 0.998189
1.00648 1 1.00816 0.998336
1.00505 1 1.00682 0.998235
1.00999 1.00005 1.01181 0.998155
0.997905 1 1 0.997905
0.985743 1.00065 0.986401 0.998684
0.987935 1.00035 0.989776 0.99779
0.994526 1.00014 0.995343 0.999036
1.00589 1 1.00726 0.998642
0.924858 0.969724 0.975641 0.977546
0.785624 0.860285 0.944569 0.966804
0.7557 0.844342 0.934593 0.957655
0.771299 0.861791 0.927913 0.964526
0.914579 0.937998 0.999302 0.975714
0.919636 0.93625 0.991152 0.991023
0.912137 0.944759 0.97391 0.991333
0.914515 0.949436 0.984051 0.97883
0.938871 0.975412 0.971847 0.990421
0.997363 1.00132 0.997828 0.998218
1.00504 1 1.00605 0.998999
0.99959 1 1.00016 0.999429
0.997347 0.9912 1.00802 0.998199
0.991388 0.997347 0.996548 0.997468
0.915086 0.969198 0.964933 0.97848
0.821973 0.89585 0.945846 0.970067
0.821543 0.874283 0.973028 0.965725
0.966681 0.979067 0.990529 0.99679
0.914703 0.950884 0.974785 0.986833
0.814747 0.886889 0.948592 0.968444
0.931493 0.970238 0.980941 0.97872
0.972528 0.98814 0.985771 0.998407
0.946277 0.989475 0.976325 0.979533
0.940483 0.977742 0.97306 0.988523
0.988273 1.00429 0.986232 0.997791
0.962346 0.99407 0.974316 0.993606
0.991179 1.00465 0.988807 0.997763
0.98259 1.00689 0.9782 0.997613
1.00193 1.03167 0.973213 0.997907
0.998959 1.00367 0.998123 0.997181
1.02061 1.02853 0.994546 0.997745
1.03 1.04384 0.988687 0.998029
1.01662 1.02076 0.998845 0.997094
1.02996 1.03597 0.996439 0.997747
1.02749 1.03598 0.99384 0.997949
1.02831 1.03162 0.999565 0.997227
1.0342 1.03752 0.999105 0.997694
1.03212 1.03561 0.998842 0.997778
1.03142 1.03386 1 0.997642
1.03024 1.03293 0.999992 0.997404
1.03497 1.03768 1 0.997383
1.03324 1.03623 1 0.997108
1.03482 1.03799 1 0.996945
1.02882 1.03216 1 0.996766
1.03224 1.03568 1 0.996683
1.03241 1.03588 1 0.99665
1.01298 1.01589 1 0.997143
1.01924 1.02253 1 0.996778
1.02346 1.02698 1 0.996568
0.998851 1.00082 1 0.998037
1.00497 1.00763 1 0.997356
1.00841 1.01144 1 0.997003
1.00004 1 1.00058 0.999468
0.998741 1.00015 1.00034 0.998245
1.00132 1.00371 1 0.997621
1 1 1 1
1.00054 1 1.00088 0.999666
1.0009 1 1.00238 0.998522
1 1 1 1
1.00075 1 1.00093 0.999823
1 1 1 1
1.0013 1.00359 1 0.997719
0.998318 1 1 0.998318
0.9998 1 1.00144 0.99836
1.00041 1 1.00199 0.998421
1.00089 1 1.00238 0.998508
1.00047 1 1.00142 0.999052
1.00068 1 1.00203 0.998652
0.99975 1 1.00051 0.99924
0.999909 1 1 0.999909
1 1 1 1
0.999945 1 1 0.999945
0.999362 1 1 0.999362
1 1 1 1
0.999973 1 1 0.999973
1 1 1 1
0.939264 0.982996 0.974711 0.980302
0.812776 0.890998 0.941042 0.969361
0.806879 0.870999 0.964183 0.960796
1.00789 1 1.00983 0.998088
0.998878 1 1.00049 0.998386
1.00481 1.00011 1.00654 0.99817
1.00022 1.00207 1.00046 0.997699
1.00742 1.01008 1.00016 0.997204
0.998019 1.00015 1 0.997866
1.01217 1.00007 1.01391 0.998209
0.997803 1.00007 1 0.997731
0.989877 1.00062 0.990593 0.99866
0.996613 1.0007 0.998071 0.997837
0.98493 1.00303 0.983979 0.997944
0.995885 1.00129 0.997192 0.997404
0.98831 1.00082 0.989553 0.997926
0.997629 1.00001 0.998537 0.999084
0.940577 0.979387 0.96956 0.990524
0.927917 0.972497 0.975628 0.977996
0.78515 0.861726 0.940664 0.968611
0.923541 0.954823 0.991324 0.975704
0.914835 0.943714 0.976957 0.992265
0.943319 0.974709 0.97431 0.993314
0.990388 1.00377 0.988896 0.997751
0.995306 1.00067 0.996413 0.998221
1.0046 1 1.00563 0.998978
0.992699 0.999896 0.995267 0.997523
0.949304 0.975454 0.982317 0.990711
0.930181 0.975354 0.971965 0.981194
0.810528 0.889784 0.940202 0.968863
0.974281 0.985729 0.98991 0.998461
0.942611 0.980641 0.970831 0.990099
0.952802 0.988942 0.982548 0.980569
0.981333 1.00284 0.980691 0.99782
0.960926 0.990639 0.976953 0.99289
0.983026 1.02425 0.961975 0.997694
1.00234 1.01629 0.989334 0.996908
0.98246 1.00643 0.978577 0.997557
1.00021 1.03048 0.972668 0.997901
1.00663 1.04691 0.963505 0.997942
1.02136 1.02906 0.994785 0.997724
1.02981 1.0437 0.988662 0.998011
1.02331 1.03889 0.987075 0.997899
1.02964 1.03622 0.995914 0.997725
1.02694 1.03531 0.993974 0.997931
1.03196 1.03998 0.994527 0.997749
1.03436 1.03796 0.998858 0.997674
1.0305 1.03406 0.998784 0.997771
1.03161 1.03463 0.999582 0.997498
1.03203 1.03442 1 0.997693
1.03049 1.03313 0.999998 0.997448
1.03367 1.03667 1 0.997109
1.03323 1.03623 1 0.9971
1.03477 1.03795 1 0.996934
1.03196 1.03516 1 0.99691
1.02022 1.02327 1 0.997015
1.0288 1.03212 1 0.996777
1.03203 1.03547 1 0.996672
1.00159 1.00374 1 0.99785
1.01274 1.01564 1 0.997145
1.01859 1.02187 1 0.996793
0.999275 1 1 0.999275
0.999572 1.00154 1 0.998035
1.00606 1.00873 1 0.997353
1 1 1 1
0.99983 1 1.00038 0.999452
0.998954 1.00028 1.00043 0.998245
1 1 1 1
1.00069 1 1.00105 0.999642
1 1 1 1
1.00743 1.01016 1 0.997298
1.00151 1.00378 1 0.997738
1.00142 1.00284 1.00061 0.997973
0.998311 1 1 0.99831
0.999685 1 1.00136 0.998326
1.00049 1 1.0017 0.9988
1.00092 1 1.00244 0.998483
1.00032 1 1.00127 0.999054
0.999912 1 1.00005 0.999862
0.999574 1 1.00033 0.999242
0.999917 1 1 0.999917
1 1 1 1
1 1 1 1
0.999952 1 1 0.999952
1 1 1 1
0.941152 0.979463 0.969527 0.991087
0.932812 0.982592 0.970659 0.978034
0.805338 0.884425 0.938833 0.969904
1.01895 1.02201 1.00007 0.996941
1.00366 1.00011 1.00542 0.998151
1.00171 1.00329 1.00067 0.997753
0.997985 1.00015 1 0.997837
1.00721 1.00962 1.00042 0.997188
1.00176 1.00404 1 0.997723
0.997755 1.0002 1 0.997558
0.992274 1.00052 0.993112 0.998637
0.995283 1.00095 0.996474 0.997859
0.980217 1.0021 0.980246 0.997871
1.00101 1.00613 0.997706 0.997201
1.00126 1.00675 0.997139 0.997394
0.996693 1.00195 0.997382 0.997359
0.988271 1.00134 0.988867 0.998063
0.989202 1.00613 0.984899 0.998253
0.936907 0.978761 0.967501 0.989393
0.931185 0.974268 0.976428 0.978853
0.936338 0.969854 0.973862 0.991353
0.993506 1.00567 0.989576 0.998314
0.995469 1.0002 0.997046 0.998219
0.989563 1.00668 0.986189 0.996761
0.936729 0.96327 0.980184 0.992107
0.917481 0.972322 0.96424 0.978593
0.976074 1.00108 0.97712 0.997849
0.967075 0.992391 0.982397 0.991951
0.985882 1.02527 0.963732 0.997771
1.00191 1.01566 0.989315 0.997116
0.9966 1.03662 0.963542 0.99777
1.03817 1.04632 0.994566 0.997637
0.997864 1.02867 0.9721 0.997895
1.00979 1.04831 0.965253 0.997932
1.01306 1.0479 0.968926 0.997757
1.02891 1.04297 0.988498 0.997994
1.02235 1.03826 0.986752 0.997895
1.03049 1.04447 0.988951 0.997636
1.02614 1.03455 0.99395 0.997913
1.03105 1.03911 0.994465 0.997762
1.03458 1.03931 0.998002 0.997444
1.02891 1.03255 0.998708 0.997764
1.03214 1.0351 0.999636 0.997497
1.0357 1.03863 1 0.99718
1.03072 1.03331 1 0.997492
1.03385 1.03681 1 0.997145
1.03395 1.03713 1 0.996934
1.03469 1.03788 1 0.996924
1.03172 1.03493 1 0.996889
1.02347 1.02653 1 0.997023
1.0054 1.00769 1 0.997728
1.01959 1.02262 1 0.997037
1.02876 1.03207 1 0.996788
0.999131 1 1 0.999131
1.00276 1.00492 1 0.997849
1.01259 1.01549 1 0.997147
1 1 1 1
0.999261 1 1 0.999261
1.00036 1.00233 1 0.998033
1 1 1 1
0.999635 1 1.0002 0.999436
1 1 1 1
1.01538 1.01846 1 0.996975
1.00822 1.01094 1 0.9973
1.00601 1.00843 1 0.997604
1.0015 1.00375 1.00001 0.997757
1.00032 1.00179 1.00056 0.99797
1.00007 1.00016 1.0014 0.998515
0.999543 1 1.00125 0.998291
1.00105 1 1.00225 0.998801
1.00054 1 1.00077 0.999773
0.9999 1 1.00085 0.999055
0.999872 1 1 0.999872
1 1 1 1
0.999924 1 1 0.999924
1 1 1 1
1 1 1 1
0.986421 1.01057 0.977945 0.998121
0.935559 0.976412 0.96889 0.988925
0.928447 0.972584 0.973456 0.980649
1.01379 1.01654 1.00001 0.997281
1.02666 1.02983 1 0.99692
1.01674 1.01967 1.00013 0.996998
0.997868 1.00006 1 0.997807
1.00673 1.00885 1.00073 0.997171
1.00276 1.00549 0.9996 0.997684
1.01538 1.01879 0.999478 0.997172
0.994493 1.00119 0.995424 0.997881
0.976732 1.00119 0.977729 0.997797
1.00219 1.00777 0.997174 0.997275
1.01819 1.02402 0.997311 0.996981
1.00982 1.02315 0.989283 0.997663
1.00309 1.00825 0.997516 0.997363
0.997914 1.00262 0.997982 0.997314
0.993287 1.00816 0.986782 0.998444
0.94047 0.980232 0.970953 0.988138
0.993736 1.00642 0.988485 0.998895
1.01992 1.03527 0.986893 0.998253
0.9891 1.00539 0.986884 0.996871
0.940595 0.972657 0.976724 0.990082
0.989204 1.02667 0.965592 0.997844
1.00147 1.01539 0.988932 0.997335
0.99618 1.03719 0.962505 0.997876
1.03839 1.04775 0.993401 0.997648
1.03328 1.05481 0.981911 0.99764
1.05837 1.06934 0.991957 0.997766
1.01342 1.05056 0.966655 0.997923
1.01734 1.04826 0.972688 0.997759
1.03374 1.0527 0.98441 0.997539
1.02178 1.03783 0.986617 0.997891
1.03038 1.04379 0.989502 0.997634
1.03577 1.04481 0.993924 0.99741
1.03017 1.03824 0.994444 0.997775
1.03504 1.0397 0.998066 0.997441
1.03872 1.04187 0.999808 0.997169
1.03261 1.03552 0.999692 0.997496
1.03576 1.03869 1 0.99718
1.03704 1.04023 1 0.99693
1.03405 1.03698 1 0.997181
1.03361 1.03678 1 0.996945
1.02571 1.02881 1 0.996988
1.03151 1.03475 1 0.996869
1.02336 1.02643 1 0.997016
1.00754 1.00991 1 0.997659
0.999063 1 1 0.999063
1.00603 1.00833 1 0.997728
1.01901 1.02202 1 0.997058
1 1 1 1
0.99912 1 1 0.99912
1.00391 1.00607 1 0.997849
1 1 1 1
0.999249 1 1 0.999249
1 1 1 1
1.02342 1.02667 1 0.996842
1.01584 1.01894 1 0.996958
1.01057 1.01331 1 0.997296
1.00895 1.01168 1 0.997303
1.00455 1.00695 1 0.997611
0.99985 1.00129 1.00033 0.998235
0.999117 1.00069 1.00046 0.997968
1.00054 1.00004 1.00199 0.998518
1.00031 1 1.00071 0.999605
1.00177 1 1.00297 0.998802
1.00021 1 1.00043 0.999788
1 1 1 1
0.999882 1 1 0.999882
1 1 1 1
1 1 1 1
1.00828 1.03289 0.977983 0.998154
0.984017 1.00952 0.977165 0.997516
0.93477 0.978123 0.965662 0.989661
1.02506 1.02807 1 0.997065
1.01474 1.01732 1 0.997464
1.04141 1.04461 1 0.996934
1.02735 1.03053 1 0.996905
1.01482 1.01763 1.00018 0.997057
1.03526 1.03887 0.999621 0.996907
1.00361 1.00704 0.998945 0.997646
1.014 1.01732 0.999627 0.997109
1.03693 1.04944 0.990899 0.997162
1.0026 1.00938 0.995927 0.997349
1.01878 1.02471 0.99727 0.996936
1.01055 1.02406 0.989085 0.997692
1.00348 1.00856 0.997626 0.99733
0.997621 1.01007 0.989032 0.998626
1.04591 1.06237 0.986659 0.997822
1.0201 1.03511 0.987209 0.998267
0.988152 1.00409 0.987112 0.996975
0.996445 1.03714 0.962706 0.997981
1.03778 1.04829 0.992295 0.997661
1.0297 1.05426 0.978989 0.99766
1.05884 1.0709 0.990947 0.997762
1.04946 1.06458 0.988105 0.997658
1.02109 1.04825 0.976276 0.997761
1.03421 1.05213 0.985387 0.997548
1.03708 1.05037 0.989888 0.997429
1.03018 1.04307 0.989987 0.997633
1.03541 1.04437 0.994013 0.997391
1.0404 1.04513 0.998322 0.997147
1.03556 1.04016 0.998135 0.997438
1.03886 1.04198 0.999833 0.997167
1.04046 1.04368 1 0.996909
1.03583 1.03876 1 0.99718
1.03684 1.04003 1 0.996933
1.0287 1.03187 1 0.996924
1.03327 1.03642 1 0.996957
1.02589 1.02899 1 0.996992
1.00847 1.01091 1 0.997584
1.02321 1.02628 1 0.997009
1.00774 1.01011 1 0.997657
0.999206 1 1 0.999206
0.999716 1 1 0.999716
0.999127 1 1 0.999127
1.00663 1.00892 1 0.997727
1 1 1 1
0.999108 1 1 0.999108
1 1 1 1
1.04846 1.05161 1 0.997005
1.03326 1.03647 1 0.996896
1.02422 1.02747 1 0.996839
1.01587 1.01879 1 0.997131
1.01651 1.01963 1 0.99694
1.0105 1.01324 1 0.997298
1.00208 1.00409 1 0.998001
1.00308 1.00547 1 0.997618
0.999534 1.00084 1.00045 0.998238
0.99949 1 1.00011 0.999379
1.00118 1 1.00267 0.99852
1.00034 1 1.00071 0.999625
1 1 1 1
0.999856 1 1.00005 0.999804
1 1 1 1
1 1 1 1
1.04153 1.06086 0.98416 0.997572
1.01246 1.03739 0.977698 0.998222
0.982057 1.00962 0.97571 0.996917
1.039 1.0422 1 0.996933
1.02365 1.0266 1 0.997122
1.01531 1.01771 1 0.997643
1.04023 1.04341 1 0.996952
1.02799 1.03119 1 0.99689
1.04467 1.05488 0.993162 0.997141
1.03174 1.03537 0.999631 0.996866
1.01281 1.01581 1 0.997047
1.03603 1.0485 0.990927 0.997156
1.02155 1.02715 0.997648 0.996892
1.01416 1.02834 0.988452 0.997726
1.04913 1.06365 0.988569 0.997755
1.04813 1.06382 0.987381 0.997849
1.02026 1.0351 0.98736 0.998282
1.02733 1.05471 0.976306 0.997679
1.06009 1.07318 0.990025 0.997759
1.04947 1.06561 0.987158 0.997667
1.04202 1.05244 0.99256 0.997514
1.0346 1.05145 0.986384 0.997557
1.03714 1.04993 0.990377 0.997418
1.04218 1.04884 0.996464 0.997176
1.03505 1.04393 0.9941 0.997372
1.04091 1.04562 0.998344 0.997146
1.04326 1.04652 1 0.996889
1.03899 1.04209 0.999858 0.997164
1.04052 1.04374 1 0.99691
1.03136 1.03462 1 0.996853
1.03666 1.03985 1 0.996936
1.02899 1.03216 1 0.996927
1.00946 1.012 1 0.997485
1.02608 1.02917 1 0.996996
1.00873 1.01117 1 0.997583
0.999213 1 1 0.999213
1.00797 1.01034 1 0.997655
0.999201 1 1 0.999201
0.999734 1 1 0.999734
0.999863 1 1 0.999863
0.999196 1 1 0.999196
1 1 1 1
1.04419 1.04737 1 0.996965
1.03907 1.04225 1 0.996947
1.04755 1.05058 1 0.997122
1.02472 1.02776 1 0.997036
1.03522 1.03845 1 0.996884
1.02507 1.02833 1 0.996836
1.01667 1.0196 1 0.997126
1.00619 1.00839 1 0.997816
1.01056 1.01329 1 0.997299
1.00116 1.00317 1 0.998002
0.999188 1 1 0.999188
0.999149 1.00039 1.00052 0.998241
0.9997 1 1.0003 0.999398
1 1 1 1
1.00034 1 1.0007 0.999645
1 1 1 1
1 1 1 1
1.04284 1.05866 0.987563 0.997462
1.04026 1.05944 0.984295 0.997568
1.01504 1.03972 0.977943 0.998282
1.04561 1.05099 0.997828 0.997052
1.03725 1.04044 1 0.996934
1.02242 1.02532 1 0.99718
1.03887 1.04203 1 0.99697
1.04342 1.05368 0.993127 0.997117
1.02804 1.03168 0.999642 0.996825
1.03196 1.04425 0.991061 0.997151
1.04411 1.05543 0.991684 0.997576
1.04812 1.06242 0.9888 0.997716
1.05021 1.06504 0.988176 0.997875
1.04097 1.04908 0.99485 0.997408
1.04917 1.06636 0.986178 0.997676
1.0418 1.05248 0.992326 0.9975
1.04376 1.05078 0.996031 0.997274
1.03729 1.04953 0.99091 0.997407
1.04221 1.0489 0.996433 0.997178
1.04438 1.04773 0.999919 0.996889
1.04138 1.04607 0.998369 0.997146
1.04332 1.04658 1 0.996891
1.03269 1.036 1 0.996801
1.04048 1.0437 1 0.996912
1.03164 1.03489 1 0.996855
1.01023 1.01288 1 0.997387
1.02925 1.03242 1 0.99693
1.00969 1.01224 1 0.997485
0.999188 1 1 0.999188
1.00899 1.01143 1 0.997581
0.999203 1 1 0.999203
0.999739 1 1 0.999739
0.999199 1 1 0.999199
0.99974 1 1 0.99974
1 1 1 1
1.04454 1.04809 0.999744 0.996866
1.04041 1.04368 1 0.996861
1.04569 1.04887 1 0.996969
1.03021 1.03326 1 0.997047
1.03999 1.04315 1 0.99697
1.04681 1.04971 1 0.997237
1.00953 1.01189 1 0.997661
1.02475 1.0278 1 0.997029
1.0373 1.04055 1 0.996873
1.01733 1.02026 1 0.997122
1.00488 1.00708 1 0.997818
0.99908 1 1 0.99908
1.00012 1.00212 1 0.998003
0.999202 1 1 0.999202
1 1 1 1
0.999904 1 1.00049 0.999417
1 1 1 1
1 1 1 1
1.04269 1.05217 0.993643 0.997324
1.04295 1.05911 0.987268 0.997446
1.04058 1.05978 0.984284 0.997563
1.04454 1.05015 0.997582 0.997068
1.03531 1.03849 1 0.996935
1.04284 1.05317 0.993084 0.997093
1.04173 1.05064 0.994098 0.99741
1.04453 1.05552 0.992001 0.997569
1.04714 1.0613 0.988961 0.997677
1.04151 1.0495 0.994942 0.997428
1.04479 1.05069 0.997163 0.997215
1.04155 1.05254 0.992055 0.997487
1.04391 1.05067 0.996323 0.997233
1.0443 1.04828 0.999234 0.99697
1.04221 1.04893 0.9964 0.99718
1.04481 1.0482 0.999874 0.996892
1.03267 1.03602 1 0.996765
1.04357 1.04682 1 0.996892
1.03311 1.03643 1 0.996802
1.01043 1.01315 1 0.997317
1.03206 1.03531 1 0.996857
1.01033 1.01297 1 0.997388
0.999134 1 1 0.999134
1.00993 1.01248 1 0.997484
0.999173 1 1 0.999173
0.99972 1 1 0.99972
0.999197 1 1 0.999197
0.999752 1 1 0.999752
0.999742 1 1 0.999742
1.04504 1.04959 0.998549 0.99711
1.04275 1.04615 1 0.996751
1.04532 1.04922 0.99939 0.996893
1.03228 1.03545 1 0.996942
1.03969 1.04297 1 0.996854
1.04711 1.05029 1 0.996974
1.0106 1.01308 1 0.997551
1.03017 1.03326 1 0.997008
1.04076 1.04389 1 0.996993
0.999041 1 1 0.999041
1.0088 1.01116 1 0.997663
1.02488 1.02794 1 0.997021
1.00363 1.00582 1 0.997819
0.999091 1 1 0.999091
1 1 1 1
0.999216 1 1 0.999216
1 1 1 1
1 1 1 1
1.04014 1.04792 0.995265 0.997305
1.04232 1.05187 0.993584 0.997317
1.04277 1.05919 0.987035 0.99743
1.04346 1.0493 0.997339 0.997083
1.04406 1.04897 0.998142 0.997174
1.04225 1.05089 0.994342 0.99742
1.045 1.05558 0.992394 0.997562
1.04208 1.04994 0.995055 0.997449
1.04453 1.05052 0.997067 0.997226
1.04462 1.04861 0.999224 0.996971
1.04413 1.0506 0.99664 0.997191
1.0447 1.04847 0.999471 0.99693
1.03213 1.03546 1 0.996787
1.04519 1.04862 0.999829 0.996895
1.03279 1.03614 1 0.996768
1.00991 1.01268 1 0.997261
1.03329 1.03661 1 0.996803
1.01025 1.01297 1 0.997318
0.998931 1 1 0.998931
1.01036 1.01301 1 0.997388
0.999052 1 1 0.999052
1 1 1 1
0.99916 1 1 0.99916
0.999738 1 1 0.999738
0.99976 1 1 0.99976
1.04244 1.0471 0.998345 0.997198
1.04333 1.04661 1 0.996862
1.04505 1.0494 0.998742 0.997102
1.03339 1.03673 1 0.996781
1.04225 1.04563 1 0.996771
1.04617 1.05043 0.999027 0.996919
1.01104 1.01371 1 0.997366
1.03247 1.03564 1 0.996942
1.03902 1.0423 1 0.996847
0.999034 1 1 0.999034
1.01049 1.01302 1 0.997507
1.03011 1.03324 1 0.996969
1 1 1 1
0.999052 1 1 0.999052
1.00803 1.01038 1 0.997666
0.999103 1 1 0.999103
1 1 1 1
1 1 1 1
1.04254 1.04726 0.9983 0.99719
1.04061 1.04833 0.995312 0.997311
1.04187 1.05155 0.993467 0.99731
1.04464 1.04809 0.999806 0.996908
1.04337 1.0486 0.997818 0.997188
1.04273 1.05112 0.994573 0.997431
1.04423 1.05034 0.996937 0.997236
1.04438 1.04846 0.999139 0.996972
1.03083 1.03408 1 0.996851
1.04501 1.0486 0.99969 0.996889
1.03194 1.03526 1 0.996799
1.00938 1.01226 1 0.997151
1.03303 1.03637 1 0.99677
1.00979 1.01257 1 0.997262
0.998886 1 1 0.998886
1.01017 1.01288 1 0.997318
0.998929 1 1 0.998929
1 1 1 1
0.998956 1 1 0.998956
0.999852 1 1 0.999852
0.999754 1 1 0.999754
1.0424 1.04641 0.999016 0.997148
1.04389 1.04711 1 0.996921
1.04283 1.04739 0.998433 0.997205
1.03367 1.03701 1 0.99678
1.04372 1.04703 1 0.996847
1.04509 1.04923 0.998954 0.997093
1.01108 1.01385 1 0.997268
1.03331 1.03661 1 0.996814
1.04173 1.04508 1 0.996791
0.999009 1 1 0.999009
1.011 1.01369 1 0.997353
1.03266 1.03582 1 0.996941
1 1 1 1
0.999043 1 1 0.999043
1.01042 1.01299 1 0.997463
1 1 1 1
0.999063 1 1 0.999063
1 1 1 1
1.04501 1.04847 0.999742 0.996957
1.04187 1.04653 0.998368 0.997175
1.04107 1.04872 0.995371 0.997318
1.0306 1.03387 1 0.996844
1.04435 1.04802 0.999561 0.99693
1.04268 1.04824 0.997493 0.997201
1.04417 1.04831 0.999078 0.996973
1.03089 1.03415 1 0.99685
1.00872 1.01162 1 0.997128
1.03177 1.03507 1 0.99681
1.00933 1.01218 1 0.997181
0.99883 1 1 0.99883
1.00961 1.01238 1 0.997263
0.998883 1 1 0.998883
1 1 1 1
0.998926 1 1 0.998926
1 1 1 1
0.999731 1 1 0.999731
1.04551 1.04872 1 0.996944
1.04175 1.04608 0.998681 0.997172
1.03326 1.03657 1 0.996808
1.04407 1.0473 1 0.99692
1.04328 1.04776 0.998508 0.997212
1.01035 1.01308 1 0.997297
1.03327 1.03661 1 0.996777
1.04409 1.04741 1 0.996832
0.998958 1 1 0.998958
1.01125 1.01399 1 0.997296
1.0332 1.03646 1 0.996847
1 1 1 1
0.999015 1 1 0.999015
1.01096 1.01366 1 0.997339
1 1 1 1
0.999052 1 1 0.999052
1 1 1 1
1.03132 1.03455 1 0.996875
1.04494 1.04831 0.99984 0.996944
1.0412 1.04582 0.998416 0.997159
1.00767 1.01056 1 0.997138
1.03061 1.03387 1 0.996844
1.04404 1.04796 0.999309 0.996953
1.03096 1.03422 1 0.99685
1.00874 1.01165 1 0.997128
0.998795 1 1 0.998795
1.00931 1.01213 1 0.997212
0.998828 1 1 0.998828
1 1 1 1
0.99888 1 1 0.99888
1 1 1 1
1 1 1 1
1.03285 1.03615 1 0.996819
1.04507 1.04841 0.999835 0.996978
1.04104 1.04565 0.998389 0.997196
1.00944 1.01219 1 0.997286
1.0329 1.03621 1 0.996805
1.0442 1.04743 1 0.996918
0.998906 1 1 0.998906
1.01066 1.0134 1 0.997295
1.0329 1.03625 1 0.996774
1 1 1 1
0.998961 1 1 0.998961
1.01142 1.01413 1 0.997324
1 1 1 1
0.999021 1 1 0.999021
1 1 1 1
1.00758 1.01038 1 0.997222
1.03115 1.03442 1 0.996843
1.04489 1.04815 0.999965 0.996931
0.998804 1 1 0.998804
1.00776 1.01065 1 0.997136
1.03062 1.03388 1 0.996845
1.00877 1.01167 1 0.997129
0.998795 1 1 0.998795
1 1 1 1
0.998825 1 1 0.998825
1 1 1 1
1 1 1 1
1.00838 1.01115 1 0.997261
1.03243 1.03571 1 0.99683
1.04466 1.04817 0.999641 0.997013
0.999053 1 1 0.999053
1.00974 1.01249 1 0.997284
1.03254 1.03586 1 0.996801
1 1 1 1
0.998908 1 1 0.998908
1.01096 1.01371 1 0.997292
1 1 1 1
0.998965 1 1 0.998965
1 1 1 1
0.998799 1 1 0.998799
1.00777 1.01061 1 0.997193
1.031 1.0343 1 0.99681
1 1 1 1
0.998804 1 1 0.998804
1.00784 1.01074 1 0.997133
0.998793 1 1 0.998793
1 1 1 1
1 1 1 1
0.999009 1 1 0.999009
1.00872 1.01149 1 0.997261
1.03197 1.03524 1 0.996842
1 1 1 1
0.998874 1 1 0.998874
1.01004 1.0128 1 0.997282
1 1 1 1
0.998909 1 1 0.998909
1 1 1 1
0.999664 1 1 0.999664
0.99891 1 1 0.99891
1.00795 1.01082 1 0.997165
1 1 1 1
0.998805 1 1 0.998805
1 1 1 1
0.99968 1 1 0.99968
0.998932 1 1 0.998932
1.00908 1.01185 1 0.997261
0.99984 1 1 0.99984
0.998874 1 1 0.998874
1 1 1 1
1 1 1 1
0.998827 1 1 0.998827
1 1 1 1
0.999838 1 1 0.999838
0.998851 1 1 0.998851
1 1 1 1
1 1 1 1
1 1 1 1

VECTORS lamdaE float
1.00099 1.00014 0.994087
1.00062 1.00065 0.997147
1.00058 1.00036 0.994354
1.00116 1.00002 0.993979
1.00108 0.999972 0.994147
1.00093 1.00037 0.993921
1.00233 1.00046 0.991131
1.00064 1.00056 0.997153
1.0006 1.00017 0.997535
1.0001 1.00087 0.997579
1.00058 1.00061 0.994127
1.00202 1.0013 0.990037
1.00083 0.999979 0.994337
1.00057 0.999998 0.994524
1.0002 1.00057 0.994593
1.00085 0.999996 0.994283
1.00047 1.00073 0.994163
1.00073 1.00003 0.994427
1.00254 1.00028 0.991013
1.00083 1.00002 0.997173
1.00111 1.00007 0.993974
1.00114 0.999946 0.994081
1.00251 1.0001 0.991206
1.00247 1.00014 0.991227
1.00091 1.00047 0.993813
1.0021 1.00101 0.990947
1.00493 1.00052 0.986637
1.00064 1.00052 0.997174
1.00079 1.00006 0.995835
1.00039 1.00062 0.995861
1.00059 1.00051 0.997223
1.00192 1.00143 0.990044
1.00109 0.999823 0.994061
1.00081 1.00027 0.994166
1.00278 1.00007 0.991487
0.999879 1.00061 0.997825
1.00243 1.00079 0.991461
1.00175 1.00171 0.990042
1.0042 1.00151 0.986115
0.99998 0.999198 0.998229
1.00086 0.999989 0.997157
1.00078 1 0.995818
1.00078 0.999977 0.9972
1.00044 1.00003 0.994681
1.00252 0.999945 0.990572
1.00072 0.999961 0.99746
1.00282 1.00005 0.99147
1.00055 0.999931 0.994587
1.00041 1.00007 0.994693
1.00001 1.00113 0.994387
1.00273 1.00009 0.990909
1.00066 1.00004 0.995909
1.00079 1.00008 0.994282
1.00041 1.00093 0.994029
1.00084 0.999925 0.994374
1.00264 1.00006 0.991065
1.00236 1.00074 0.990834
1.00263 1.00004 0.991105
1.0049 1.00054 0.986645
1.00075 1.00001 0.997203
1.001 1.00007 0.994115
1.00227 1.00001 0.992223
1.00244 1.00013 0.991282
1.00252 1.00006 0.991223
1.00485 1.00017 0.987
1.00492 1.00017 0.986795
1.00075 1.00037 0.994063
1.00159 1.00192 0.990838
1.00482 1.00083 0.986517
1.00527 1.00031 0.985497
1.00103 1.00009 0.997122
1.00052 1.00041 0.997344
1.0007 1.00048 0.997148
1.00187 1.00149 0.990045
1.00113 0.999955 0.997066
1.0009 1.00028 0.997146
1.00265 1.00003 0.990137
1.0001 1.00043 0.996231
1.00219 1.00085 0.990128
1.00163 1.00195 0.990836
1.00429 1.00135 0.986111
1.00025 0.999849 0.997783
1.00003 1.00153 0.993204
1.00284 0.999941 0.989974
1.0026 1.00024 0.990117
1.00497 1.00021 0.986134
1.00112 1.00237 0.9921
1.0046 1.00079 0.986148
1.00347 1.00267 0.986271
1.00514 1.00127 0.984662
0.999844 0.998416 0.998614
0.999845 0.99902 0.998391
1.00105 0.999986 0.997055
1.0009 0.999987 0.997143
1.00082 0.999982 0.997199
1.00069 0.999995 0.995917
1.00256 0.999936 0.991245
1.00089 0.999968 0.995759
1.00276 1.00006 0.990807
1.0008 0.999991 0.997208
1.00238 0.999869 0.99083
1.00272 1.00003 0.991672
1.00485 0.999473 0.987162
1.00285 0.999983 0.991433
1.00496 0.999766 0.986687
1.0008 1.00001 0.994381
1.00046 1.00009 0.994595
0.999913 1.00142 0.994246
1.00053 0.999877 0.994663
1.00277 1.00007 0.990923
1.00279 0.999953 0.990989
1.00262 1.00043 0.99073
1.00486 1.00055 0.986653
1.00081 0.999992 0.997204
1.00068 1.00007 0.994423
1.00243 0.999978 0.99109
1.00257 1.00011 0.991132
1.0005 1.0008 0.995613
1.00195 1.00168 0.990943
1.00266 1 0.991093
1.00487 1.00008 0.987054
1.00477 1.00087 0.986527
1.00491 1.00029 0.986764
1.00527 1.00029 0.985526
1.00236 0.999925 0.990828
1.00234 1.00006 0.991476
1.00472 0.999427 0.987898
1.0048 0.999852 0.987317
1.00489 1.00004 0.98697
1.00528 0.999165 0.986887
1.00015 1.00057 0.997562
1.00527 0.999839 0.985959
1.00117 1.00272 0.989897
1.00437 1.00125 0.986076
1.00526 1.00082 0.985048
1.00521 0.99902 0.98677
1.00039 1.00285 0.991213
1.00107 1.00511 0.987721
1.00113 0.999981 0.997083
1.00086 1.00029 0.997143
1.00266 1.00002 0.990131
1.00024 1.00015 0.997682
1.00128 1.00235 0.990175
1.00216 1.00086 0.990141
1.00437 1.00121 0.986108
1.00007 0.999742 0.997953
0.999927 1.00169 0.993241
1.00286 0.999978 0.990707
1.00261 1.00029 0.990806
1.00497 1.00022 0.986115
1.00078 1.00255 0.990855
1.00463 1.00075 0.986138
1.00354 1.00248 0.986278
1.00519 1.00118 0.984737
1.00025 1.00239 0.99193
0.999981 1.0006 0.994292
1.00112 1.00455 0.988773
1.00502 1.00007 0.986229
1.00485 1.00041 0.986116
1.00531 0.999739 0.986048
1.00257 1.00359 0.986889
1.00525 1.0006 0.985268
1.00485 1.00176 0.984763
1.00522 1.00083 0.984974
0.999838 0.997906 0.998853
0.999798 0.998319 0.998713
0.999751 0.998836 0.99853
1.00013 1.00243 0.992057
0.999983 1.00016 0.997845
1.00114 0.999964 0.997047
1.00095 0.99999 0.997097
1.00263 1.00009 0.990185
1.00245 0.999936 0.990641
1.0008 0.999981 0.997191
1.00077 0.999985 0.997206
1.00237 0.999882 0.990825
1.00264 1.00002 0.991021
1.00483 0.999474 0.987167
1.00274 1.00002 0.990045
1.00493 0.999773 0.986681
1.00234 0.999887 0.99087
1.0048 0.999391 0.987317
1.00489 0.999602 0.98695
1.00532 0.997756 0.988218
1.00501 0.999929 0.986419
1.0053 0.998345 0.98762
1.00078 0.999991 0.9972
1.00035 1.00011 0.994731
1.00245 0.999977 0.990086
1.00271 1.0001 0.990979
0.999859 1.00132 0.997538
1.00241 1.00127 0.991051
1.0028 0.999976 0.990965
1.00488 0.999981 0.987108
1.00491 1.0004 0.986732
1.00472 1.00092 0.986537
1.00527 1.00029 0.985556
1.00234 0.999916 0.990829
1.00248 1.00007 0.991322
1.00475 0.999412 0.987601
1.00483 0.999961 0.987238
1.0003 1.00061 0.997456
1.00139 1.00247 0.990692
1.00422 1.00159 0.986315
1.0049 1.00008 0.986934
1.00528 0.998894 0.987126
1.00526 1.00076 0.985104
1.00527 0.999917 0.985989
1.00521 0.999028 0.986793
1.00048 1.00275 0.991193
1.00122 1.00502 0.987719
1.00476 0.999473 0.987297
1.00476 0.999668 0.987636
1.00527 0.998205 0.987894
1.00527 0.998302 0.987707
1.00528 0.999271 0.986684
1.00524 0.997074 0.988877
1.00075 1.003 0.990432
1.00522 0.998155 0.987652
1.00364 1.00219 0.986274
1.00524 1.00122 0.984569
1.00521 1.00013 0.985802
1.00519 0.997451 0.988483
1.00203 1.00443 0.986936
1.0007 1.0049 0.988699
1.00245 1.00454 0.986367
1.00275 0.999965 0.99006
0.999896 0.999604 0.998133
0.999851 1.00172 0.993276
1.00246 1.00032 0.990173
1.00497 1.00022 0.986095
1.00073 1.00269 0.990815
1.00358 1.00227 0.986284
1.00467 1.00071 0.986128
1.00521 1.00109 0.984812
1.00022 1.00247 0.99194
0.999959 1.00049 0.994337
1.00081 1.00468 0.988757
1.005 1.00009 0.98621
1.00486 1.0004 0.986101
1.00531 0.999748 0.986025
1.00265 1.00341 0.986891
1.00527 1.00065 0.985205
1.00489 1.00169 0.984747
1.00522 1.00066 0.985089
1.00001 0.999776 0.995041
1.00178 1.0043 0.987684
1.00063 1.0037 0.990178
1.00173 1.00455 0.98747
1.00531 0.999248 0.98658
1.0053 1.00022 0.985559
1.00525 0.998407 0.987348
1.00424 1.00212 0.985438
1.00523 0.999731 0.986201
1.00506 1.0014 0.984794
1.00518 1.00014 0.985697
1.00023 1.00119 0.993267
1.00023 0.998774 0.995632
0.999887 0.997558 0.998975
0.999822 0.997834 0.998903
0.999772 0.99819 0.998796
1.00004 1.00164 0.993028
0.999865 0.999631 0.998126
1.00023 1.00236 0.992034
1.00008 1.00025 0.997739
1.00273 1.00005 0.990048
1.00255 1.00001 0.990409
1.00491 0.99978 0.986676
1.00481 0.99948 0.987171
1.00238 0.999898 0.990825
1.00082 0.999975 0.997206
1.00236 0.999882 0.990873
1.00478 0.9994 0.987318
1.00488 0.999613 0.98695
1.00531 0.997766 0.988215
1.00499 0.999944 0.986403
1.0053 0.998343 0.987601
1.00476 0.999406 0.987347
1.00534 0.997604 0.988338
1.00528 0.998007 0.988
1.0052 0.995327 0.990782
1.00532 0.998766 0.987115
1.00528 0.996273 0.98966
1.00236 0.999913 0.990835
1.00262 1.00005 0.991169
1.00477 0.99938 0.987306
1.00485 1.00006 0.987159
1.0004 1.00068 0.997346
1.00168 1.00228 0.991308
1.0042 1.00185 0.986551
1.00491 1.00012 0.986898
1.00528 0.998619 0.987365
1.00527 0.999997 0.98602
1.00526 1.00069 0.985161
1.00521 0.999034 0.986816
1.00053 1.00265 0.991176
1.00134 1.00492 0.987716
1.00476 0.999342 0.98738
1.00478 0.999645 0.987615
1.00528 0.998004 0.988133
1.00527 0.99859 0.987438
1.00082 1.00287 0.990434
1.0036 1.00237 0.98627
1.00522 1.00129 0.984534
1.00528 0.999428 0.986554
1.00524 0.996792 0.989163
1.00521 0.999994 0.985953
1.00522 0.998163 0.987662
1.00519 0.997376 0.988462
1.00204 1.00439 0.986942
1.00224 1.00437 0.986387
1.00078 1.00482 0.988705
1.00531 0.997982 0.988061
1.00524 0.998156 0.988042
1.00524 0.995756 0.990268
1.00524 0.996261 0.989643
1.00523 0.997179 0.98857
1.0052 0.995452 0.990439
1.00297 1.0032 0.986498
1.0052 0.996341 0.989324
1.00514 1.00167 0.984493
1.00521 1.00097 0.98477
1.00517 0.998859 0.987024
1.00515 0.996497 0.989413
1.00032 1.00451 0.989789
1.00369 1.00287 0.985796
1.00126 1.00509 0.987307
1.0039 1.00325 0.985529
1.00499 1.0001 0.986189
0.999955 1.00043 0.994382
1.00007 1.00264 0.991955
1.0005 1.00487 0.988741
1.00487 1.00038 0.986086
1.00531 0.999759 0.986002
1.0027 1.00326 0.986895
1.00501 1.00168 0.984729
1.00528 1.00071 0.985141
1.00521 1.00049 0.985203
1.00002 0.999667 0.995077
1.00165 1.00434 0.987678
1.00047 1.00383 0.990197
1.00159 1.00472 0.987461
1.00531 0.999256 0.98656
1.0053 1.00023 0.985535
1.00525 0.998401 0.987341
1.00437 1.00198 0.985447
1.00522 0.999838 0.986055
1.00508 1.00129 0.984773
1.00517 1.00007 0.985842
1.00015 0.999112 0.995449
1.00041 1.00271 0.99151
1.00301 1.00315 0.986478
1.00102 1.00492 0.988685
1.00285 1.00319 0.987166
1.00526 0.997702 0.988094
1.00524 0.999081 0.986654
1.00521 0.997291 0.988329
1.00466 1.00135 0.985231
1.00517 0.99901 0.986851
1.00481 1.00101 0.985399
1.0003 1.00137 0.992982
1.00032 1.00262 0.991729
1.00013 1.00113 0.993504
1.00022 1.0012 0.993263
1.00022 0.99856 0.996405
1.00021 0.99874 0.995976
1.00006 0.997274 0.997723
0.999891 0.997508 0.998989
0.999815 0.99776 0.998939
0.99986 1.00083 0.994105
0.999814 0.999027 0.998446
1.00007 1.00163 0.993004
0.999975 0.999712 0.998023
1.00037 1.00217 0.992012
1.0002 1.00033 0.997634
1.00497 0.999957 0.986388
1.00485 0.99962 0.98695
1.00531 0.998361 0.987582
1.0053 0.997775 0.988212
1.00477 0.999411 0.987319
1.00235 0.999873 0.990872
1.00476 0.999407 0.987348
1.00533 0.99761 0.988339
1.00529 0.998022 0.987986
1.00523 0.99529 0.990788
1.00532 0.998772 0.987098
1.00527 0.996275 0.989659
1.00533 0.997595 0.988352
1.00522 0.995193 0.990955
1.00524 0.99565 0.990369
1.0052 0.994954 0.99109
1.00526 0.99702 0.988867
1.00528 0.995101 0.99053
1.00477 0.999213 0.987465
1.0048 0.999635 0.987594
1.00528 0.997825 0.988371
1.00527 0.99888 0.987169
1.00091 1.00278 0.99044
1.00341 1.0027 0.986271
1.0052 1.00137 0.984498
1.00528 0.999588 0.986424
1.00525 0.996518 0.989449
1.00523 0.998171 0.987672
1.00521 0.999849 0.986101
1.00518 0.997299 0.98844
1.0021 1.00434 0.986948
1.00216 1.00427 0.986408
1.00087 1.00473 0.988713
1.00532 0.997857 0.988167
1.00524 0.998142 0.988033
1.00523 0.995582 0.990499
1.00525 0.996431 0.989477
1.00293 1.00334 0.986494
1.00506 1.00168 0.984515
1.00521 1.00107 0.984674
1.00523 0.99748 0.988296
1.0052 0.995265 0.990549
1.00518 0.998794 0.986977
1.0052 0.996381 0.989315
1.00516 0.996358 0.989502
1.00367 1.00295 0.985789
1.00373 1.00328 0.985378
1.00044 1.0043 0.989806
1.00111 1.00508 0.987471
1.00523 0.995241 0.990892
1.00523 0.99611 0.989829
1.0052 0.994954 0.991058
1.00523 0.99492 0.990815
1.00521 0.995596 0.990022
1.0052 0.995018 0.990728
1.0049 1.00161 0.985091
1.00518 0.995251 0.990292
1.00517 1.00193 0.983969
1.00515 1.00047 0.985245
1.00517 0.998117 0.987504
1.00517 0.996428 0.989435
1.00019 1.00361 0.990865
1.00067 1.00511 0.988386
1.00489 1.00189 0.984833
1.00195 1.00495 0.986732
1.00452 1.00335 0.984502
1.00002 0.99957 0.995113
1.00531 0.999263 0.986538
1.00033 1.00392 0.990216
1.00157 1.00437 0.987672
1.00143 1.00483 0.987451
1.0053 1.00023 0.985511
1.00524 0.998395 0.987333
1.00466 1.00158 0.985455
1.00515 1.0012 0.984753
1.00521 0.99994 0.98591
1.00516 0.999993 0.985987
1.00015 0.999066 0.995474
1.00032 1.00277 0.99154
1.00319 1.00306 0.986482
1.0007 1.00499 0.988679
1.00253 1.00321 0.987248
1.00525 0.99769 0.988087
1.00523 0.999069 0.986647
1.00521 0.997254 0.988313
1.00491 1.00128 0.985215
1.00517 0.999071 0.986708
1.00491 1.00098 0.985441
1.00036 1.00183 0.992468
1.00056 1.00412 0.99017
1.00426 1.00141 0.986114
1.00115 1.00501 0.988432
1.00326 1.00175 0.987851
1.00523 0.99655 0.989134
1.00519 0.998072 0.987511
1.00523 0.996509 0.988709
1.00445 1.001 0.985652
1.00497 0.999683 0.986112
1.0003 1.00136 0.992981
1.00031 1.00263 0.991599
1.00017 1.00277 0.991694
1.00044 1.00298 0.991359
1.00022 1.00266 0.991866
1.00005 1.00108 0.993661
1.00013 1.0011 0.993509
1.00021 0.998474 0.996502
1.00021 1.00122 0.993259
1.00023 0.998563 0.996421
1.00013 0.997059 0.997794
1.00021 0.998725 0.996313
1 0.997283 0.998376
0.9999 0.99744 0.999002
0.999804 0.99993 0.995095
0.999891 1.00088 0.994078
0.999728 0.998402 0.998779
0.999887 0.999144 0.998325
1.00011 1.00174 0.992978
1.00006 0.999827 0.997914
1.00531 0.998776 0.987081
1.00529 0.99802 0.987972
1.00526 0.996275 0.989657
1.00525 0.995254 0.990794
1.00533 0.997616 0.988339
1.00476 0.999409 0.98735
1.00533 0.997599 0.988352
1.00522 0.995173 0.990965
1.00524 0.995645 0.990372
1.0052 0.994952 0.991076
1.00526 0.996992 0.988856
1.00528 0.9951 0.990538
1.00523 0.995185 0.990971
1.00515 0.994964 0.991208
1.00525 0.994938 0.990878
1.00523 0.994945 0.991002
1.00526 0.995763 0.98991
1.00529 0.994913 0.990684
1.00532 0.997727 0.988272
1.00524 0.998139 0.988025
1.00522 0.995402 0.990731
1.00526 0.996594 0.989309
1.00289 1.00343 0.986488
1.00503 1.00169 0.984533
1.00521 1.00111 0.984578
1.00523 0.997776 0.988022
1.00521 0.995087 0.990658
1.0052 0.996421 0.989307
1.00518 0.998742 0.986932
1.00516 0.996206 0.989594
1.00344 1.00313 0.985782
1.00331 1.00331 0.985226
1.00058 1.00412 0.989823
1.00102 1.00508 0.987636
1.00522 0.995249 0.990889
1.00524 0.99615 0.989823
1.00522 0.994951 0.991063
1.00523 0.994919 0.990825
1.00461 1.00198 0.985068
1.00513 1.00198 0.983928
1.00515 1.00043 0.985224
1.00521 0.995801 0.989862
1.0052 0.99497 0.990743
1.00515 0.998169 0.987482
1.00518 0.995249 0.990278
1.00517 0.996206 0.989571
1.00474 1.00198 0.984838
1.00427 1.00349 0.984354
1.0019 1.00497 0.986736
1.0002 1.00348 0.990855
1.00052 1.0051 0.988514
1.00516 0.994957 0.991166
1.00524 0.994929 0.990951
1.00523 0.994892 0.990682
1.0052 0.994955 0.990652
1.00509 1.0023 0.984075
1.00518 0.995167 0.990367
1.00509 1.0017 0.98395
1.00514 1.00002 0.985549
1.00514 0.997963 0.9876
0.999943 1.0024 0.992175
1.00032 1.00486 0.98948
1.00111 1.00509 0.98811
1.00509 1.00267 0.983903
1.00252 1.00489 0.985449
1.00478 1.00349 0.983339
1.00015 0.999033 0.995499
1.00024 1.00284 0.991569
1.00525 0.997679 0.98808
1.00032 1.00506 0.98867
1.00315 1.0032 0.986487
1.00225 1.00322 0.987329
1.00522 0.999059 0.986639
1.00522 0.997218 0.988297
1.00507 1.0012 0.985199
1.00505 1.00099 0.985483
1.00516 0.999125 0.986565
1.00032 1.00184 0.992477
1.00024 1.00432 0.990175
1.00442 1.0013 0.986092
1.00088 1.00506 0.98841
1.00316 1.00153 0.9879
1.00523 0.996513 0.989134
1.00519 0.998087 0.987488
1.00523 0.996568 0.988703
1.00464 1.001 0.985644
1.005 0.999804 0.986123
1.00039 1.00316 0.991228
0.999816 1.00494 0.989792
1.00473 1.00041 0.986307
1.00118 1.00381 0.988773
1.00412 1.00026 0.987688
1.00525 0.995501 0.989823
1.00521 0.998022 0.987386
1.00522 0.996779 0.988303
1.00467 1.00017 0.986207
1.00507 0.999657 0.986113
1.0003 1.00134 0.992981
1.00032 1.00267 0.99161
1.00007 1.00312 0.991438
1.00007 1.00287 0.99166
1.00014 1.00277 0.991856
1.00017 1.00318 0.991377
1.00005 1.00293 0.991917
1.00005 1.00347 0.991108
1.00011 1.0027 0.992015
1.00002 1.00119 0.993628
1.00006 1.00107 0.993661
1.00015 0.998487 0.996575
1.00012 1.00106 0.993515
1.00022 0.99848 0.996514
1.00016 0.996942 0.997844
1.00024 0.998553 0.996439
1.00011 0.997056 0.997799
0.999925 0.997275 0.999045
0.999866 0.999113 0.995837
0.999805 1.00003 0.995051
0.99969 0.997949 0.998985
0.999925 1.00093 0.994052
0.999789 0.998558 0.998663
0.999973 0.999216 0.998211
1.00526 0.996964 0.988845
1.00525 0.995642 0.990376
1.00529 0.995105 0.990545
1.0052 0.994949 0.991062
1.00522 0.995152 0.990975
1.00534 0.997603 0.988353
1.00522 0.995174 0.99098
1.00515 0.994968 0.991221
1.00524 0.994934 0.990913
1.00522 0.994943 0.990977
1.00526 0.995756 0.989929
1.0053 0.994908 0.990626
1.00516 0.994977 0.991221
1.00522 0.994941 0.99106
1.00526 0.994931 0.990809
1.00526 0.99505 0.990447
1.00521 0.995258 0.990887
1.00524 0.996176 0.989817
1.00523 0.994939 0.991069
1.00522 0.994919 0.990836
1.00444 1.00217 0.985048
1.00511 1.00203 0.983889
1.00515 1.00042 0.985205
1.00521 0.996004 0.9897
1.00519 0.994907 0.990758
1.00518 0.995238 0.990264
1.00513 0.998207 0.987459
1.00518 0.99597 0.989706
1.00462 1.0021 0.984843
1.00422 1.00329 0.984203
1.00178 1.00497 0.986741
1.00023 1.00329 0.990852
1.00043 1.0051 0.988643
1.00517 0.994957 0.991154
1.00524 0.99496 0.990915
1.00523 0.994893 0.990719
1.00498 1.0023 0.984101
1.00507 1.00185 0.983912
1.00511 1.00002 0.985538
1.0052 0.994982 0.990611
1.00516 0.99771 0.987907
1.00517 0.995234 0.990282
1 1.00217 0.992388
1.00496 1.00245 0.983919
1.00456 1.00358 0.983566
1.00277 1.00483 0.985537
1.00111 1.0051 0.988241
1.00027 1.00489 0.989382
1.00521 0.994952 0.991046
1.00525 0.994912 0.990786
1.00524 0.994883 0.990637
1.00518 0.994894 0.990624
1.00509 1.00266 0.9836
1.00515 0.995975 0.98947
1.00499 1.00153 0.984234
1.00506 1.0004 0.98537
1.00005 1.00071 0.993758
0.999977 1.00411 0.99081
1.00061 1.00509 0.989125
1.00186 1.00507 0.98671
1.00495 1.00338 0.983077
1.00446 1.00429 0.983186
1.00027 1.00184 0.992487
0.999989 1.00445 0.990181
1.00523 0.996475 0.989135
1.00057 1.00512 0.98839
1.00464 1.00117 0.98607
1.00272 1.00155 0.987948
1.00519 0.998102 0.987466
1.00524 0.99664 0.988694
1.00477 1.00105 0.985635
1.00504 0.999932 0.986132
1.00026 1.00323 0.991235
1.00005 1.00495 0.989617
1.00493 1.00036 0.98624
1.00093 1.00408 0.988852
1.00404 1.00017 0.987647
1.00526 0.995508 0.989929
1.00521 0.997949 0.987548
1.00523 0.996932 0.988272
1.00464 1.00025 0.986266
1.00502 0.999833 0.985902
0.999686 1.00375 0.991042
1.00003 1.005 0.989225
1.00477 0.999605 0.98686
1.00283 1.00125 0.987863
1.00529 0.994864 0.990232
1.00523 0.996245 0.989431
1.00506 0.999057 0.986414
1.00508 0.999586 0.985987
1.00036 1.00265 0.991621
1.00017 1.00311 0.991432
0.999661 1.00348 0.992183
1.00006 1.00289 0.991845
0.999894 1.00338 0.991396
1.00008 1.00273 0.992005
0.999864 1.00293 0.992124
1.00009 1.00353 0.991089
0.99975 1.0019 0.993376
0.999898 1.00382 0.991267
1.00001 1.00373 0.990914
1.00014 1.00272 0.991946
0.999983 1.00142 0.993404
0.999996 1.00118 0.993623
1.00006 0.998554 0.996644
1.00005 1.00105 0.993661
1.00016 0.998509 0.996584
1.00013 0.996948 0.997882
1.00022 0.998491 0.996528
1.00015 0.996935 0.997847
1.00008 0.997062 0.997796
0.999996 0.998481 0.996285
0.999867 0.999216 0.995779
0.999713 0.997544 0.999112
0.999797 1.00016 0.995006
0.999724 0.998026 0.998932
0.999873 0.998656 0.998532
1.00526 0.995741 0.989949
1.00524 0.994931 0.990947
1.0053 0.994902 0.990569
1.00522 0.99494 0.990951
1.00516 0.994972 0.991234
1.00521 0.995163 0.990989
1.00516 0.994976 0.991219
1.00522 0.994941 0.991061
1.00526 0.994927 0.990802
1.00525 0.995037 0.990488
1.00522 0.994953 0.991089
1.00527 0.994926 0.990902
1.00528 0.994894 0.990648
1.00518 0.994956 0.991141
1.00524 0.994998 0.99088
1.00522 0.994894 0.990756
1.00483 1.00233 0.984125
1.00506 1.00198 0.98387
1.00508 0.999974 0.985526
1.00519 0.995021 0.99057
1.00515 0.995291 0.990196
1.00518 0.997433 0.988214
1.00493 1.00243 0.983935
1.00421 1.00359 0.983793
1.0031 1.0048 0.985624
1.00006 1.00198 0.992604
1.00096 1.00509 0.988371
1.00015 1.00495 0.98928
1.00521 0.994953 0.991055
1.00524 0.99491 0.990761
1.00524 0.99488 0.990624
1.00499 1.00268 0.983649
1.005 1.00152 0.98416
1.00508 1.0001 0.985705
1.00518 0.994897 0.990583
1.00513 0.996006 0.989398
1.00007 1.00062 0.993967
0.999961 1.00415 0.990789
1.0049 1.00287 0.983094
1.00399 1.00438 0.983977
1.00188 1.00505 0.986946
1.00052 1.00508 0.988988
1.00525 0.994927 0.990924
1.00528 0.994875 0.99052
1.00523 0.99487 0.990613
1.00512 0.994932 0.990452
1.00453 1.00274 0.983581
1.00507 0.998666 0.986993
1.00496 1.00209 0.984075
1.00025 0.999917 0.994532
1.00032 1.00103 0.993354
0.999863 1.00223 0.99267
1.00012 1.005 0.989723
1.00079 1.00509 0.988154
1.00199 1.00453 0.985804
1.00466 1.00339 0.983375
1.00402 1.00417 0.984942
1.00012 1.0034 0.991242
1.00022 1.00509 0.989441
1.00527 0.995507 0.990034
1.00107 1.00401 0.988929
1.00507 1.00035 0.986175
1.0039 1.00009 0.987607
1.00521 0.997846 0.987713
1.00524 0.997041 0.988246
1.00474 1.00029 0.986324
1.00499 0.999953 0.985692
0.999862 1.00381 0.990911
1.0002 1.00503 0.989199
1.00501 0.99952 0.986838
1.00311 1.0014 0.987929
1.00532 0.994859 0.99028
1.00523 0.996182 0.989303
1.00504 0.998995 0.986513
1.00509 0.999712 0.985925
0.999795 1.00411 0.990639
1.00533 0.994882 0.990301
1.00198 1.00405 0.988187
1.00476 0.999695 0.986863
1.00524 0.995251 0.99043
1.00502 0.998159 0.986428
1.00484 1.00084 0.985413
1.00021 1.00315 0.991425
0.999656 1.00333 0.992101
0.999106 1.00302 0.993844
1.00007 1.0027 0.991994
1.00013 1.00361 0.991069
0.999348 1.00328 0.992329
1.00012 1.0027 0.991937
0.999935 1.00384 0.990938
0.999254 1.00223 0.993609
1.00003 1.00366 0.991221
0.999532 1.00066 0.995546
0.999396 1.00284 0.992948
0.999862 1.00455 0.990373
1.00036 1.00371 0.990524
1.00014 1.00303 0.991589
0.999912 1.00183 0.993104
0.999928 1.00153 0.993387
0.999958 0.998774 0.996645
0.999967 1.00124 0.993617
1.00007 0.998605 0.996641
1.00006 0.996983 0.997949
1.00016 0.998529 0.996595
1.00014 0.996931 0.997881
1.00014 0.99693 0.997846
1.00019 1.00008 0.994495
1.0001 0.998128 0.996484
0.999997 0.998544 0.996251
0.999802 0.997166 0.999183
0.999864 0.99932 0.995721
0.999734 0.997628 0.999081
0.999766 0.998142 0.998862
1.00524 0.995025 0.990528
1.00525 0.994924 0.990794
1.00523 0.994942 0.991062
1.00516 0.994975 0.991218
1.00523 0.994955 0.991081
1.00526 0.994925 0.990918
1.00526 0.994895 0.990628
1.00526 0.994921 0.99096
1.00533 0.994923 0.990705
1.00535 0.994995 0.991112
1.00521 0.994955 0.991064
1.00524 0.99491 0.990736
1.00524 0.99488 0.990612
1.00478 1.00268 0.983697
1.00502 1.00174 0.984097
1.00497 0.999853 0.98604
1.00517 0.994903 0.990543
1.0051 0.996125 0.989327
1.00484 1.00294 0.983112
1.00362 1.00459 0.984766
1.0017 1.005 0.987181
1.00007 1.00048 0.994177
1.00009 1.00404 0.99077
1.00052 1.00508 0.988847
1.00525 0.994926 0.990907
1.0002 0.999957 0.994525
1.00025 1.0011 0.993253
1.00528 0.994885 0.990533
1.00521 0.994864 0.99062
1.00493 1.00274 0.983501
1.00477 1.00201 0.984175
1.00505 0.998492 0.986906
1.00512 0.994974 0.990367
0.999929 1.0022 0.992848
1.00017 1.00489 0.989685
1.00474 1.00366 0.983109
1.00322 1.00389 0.985645
1.00223 1.00475 0.98609
1.00087 1.00509 0.988173
1.00532 0.994906 0.990678
1.00527 0.994813 0.990523
1.00515 0.994838 0.990395
1.00497 0.994934 0.990385
1.00422 1.00296 0.984148
1.00445 1.0021 0.984874
1.00006 1.00171 0.992814
1.00025 1.00093 0.993527
1.00085 1.00075 0.992951
1.00031 1.00303 0.991234
1.00032 1.00507 0.989305
1.00229 1.00434 0.987164
1.00118 1.00513 0.986402
1.00393 1.00056 0.986176
1.00012 1.00371 0.990781
1.00052 1.00504 0.989174
1.00533 0.994856 0.990327
1.00523 0.996192 0.989176
1.00343 1.00162 0.987995
1.00513 0.999398 0.986815
1.00502 0.998972 0.986608
1.00511 0.99987 0.985864
1.0001 1.00398 0.990563
1.00534 0.994887 0.990521
1.0017 1.00408 0.988281
1.00489 0.99974 0.986701
1.00523 0.995235 0.990426
1.00502 0.99834 0.986659
1.00481 1.00076 0.985439
1.0001 1.00483 0.99012
1.00477 0.994828 0.991191
1.00303 1.0025 0.98759
1.0046 1.00116 0.985367
1.00482 0.99638 0.989586
1.00371 1.00139 0.985878
0.998632 0.996484 0.987417
0.999547 1.00332 0.992022
0.998696 1.00319 0.993824
0.999312 1.00227 0.994529
1.00004 1.00278 0.991927
0.999895 1.00395 0.990962
1.00032 1.00335 0.991178
0.998938 1.00235 0.993848
1.00009 1.00308 0.991588
1.00024 1.00382 0.990558
0.999523 1.0008 0.99507
0.999937 1.00453 0.990387
0.99967 1.00276 0.992656
0.998967 1.00135 0.995817
1.00028 1.00469 0.989858
1.0001 1.0046 0.99027
1.00057 1.0039 0.990112
1.00013 1.00349 0.990945
1.00028 1.00412 0.990503
1.00011 1.00368 0.990743
0.999926 1.00194 0.992961
0.999942 1.00181 0.993085
0.999851 0.998934 0.99606
0.999939 1.00151 0.993368
0.999951 0.998836 0.996325
1.00001 0.997148 0.99912
1.00008 0.998653 0.996638
1.00008 0.996957 0.99795
1.00014 0.996914 0.997875
1.00009 1.0001 0.99456
1.00021 0.999978 0.99452
1.0001 0.998039 0.996603
1.00007 0.998152 0.996747
0.999883 0.996967 0.999222
0.999992 0.998603 0.996217
0.999799 0.997281 0.999166
0.999757 0.997693 0.999051
1.00524 0.994895 0.990609
1.00526 0.994924 0.990933
1.00523 0.994957 0.991073
1.00527 0.994921 0.990959
1.00532 0.994918 0.990707
1.00533 0.994975 0.990765
1.00535 0.994917 0.990745
1.00128 0.994915 0.983379
1.00451 0.994974 0.992637
1.00002 1.0015 0.993283
1.00526 0.994925 0.99089
1.00528 0.994893 0.990547
1.0052 0.994858 0.990628
1.00493 1.00244 0.983411
1.00494 1.00183 0.984269
1.00507 0.998414 0.986828
1.00513 0.995045 0.990281
1.00498 1.00353 0.982844
1.00265 1.00364 0.986347
1.00227 1.00494 0.986382
1.00014 1.00006 0.99452
1.00103 1.00509 0.988193
0.999906 1.00217 0.993016
1.00023 1.00491 0.989645
1.00025 1.00105 0.993152
1.00532 0.994895 0.990671
1.00007 1.0017 0.992922
1.00015 1.00109 0.993532
1.0007 1.00074 0.993087
1.00528 0.994829 0.990491
1.00516 0.994855 0.990386
1.00375 1.00351 0.984215
1.00466 1.00114 0.98544
1.00492 0.995404 0.990287
0.999945 1.00325 0.991399
1.00045 1.00507 0.98915
1.00379 1.00205 0.985975
1.00191 1.0049 0.986289
1.00203 1.00405 0.987381
1.00527 0.994851 0.990912
1.00516 0.994747 0.990843
1.00509 0.995068 0.989918
1.00479 0.997197 0.989722
1.00224 1.00296 0.98761
0.999752 1.00291 0.992088
1.00079 1.00088 0.992541
0.999951 1.00142 0.99279
0.999995 1.00454 0.991213
1.00022 1.00507 0.989603
1.00056 1.00457 0.988274
1.00235 1.00094 0.988749
1.00055 1.00378 0.990485
1.00119 1.00409 0.988376
1.00536 0.994886 0.990729
1.00523 0.995169 0.990415
1.005 0.998484 0.98689
1.00492 0.999733 0.986538
1.00475 1.00061 0.985471
1.00044 1.00464 0.990127
1.00462 0.994841 0.991372
1.00307 1.0022 0.987505
1.00482 1.001 0.985327
1.00496 0.995916 0.989818
1.00382 1.00153 0.985955
0.99866 0.997175 0.985507
1.00032 1.00433 0.99015
1.00289 0.997157 0.991106
1.0037 1.00174 0.986214
1.00297 1.00118 0.987114
1.00308 0.997682 0.990755
0.999969 0.994914 0.9475
0.996066 0.994797 0.967518
0.995589 1.00055 0.98833
0.999555 0.994799 0.872313
0.994697 0.994793 0.838218
0.9984 1.00335 0.993808
0.998564 1.00276 0.994829
0.998674 1.00274 0.995278
1.00007 1.0031 0.991588
1.00032 1.0036 0.990591
1.00002 1.00447 0.990401
0.999897 1.00268 0.992356
0.999516 1.00095 0.99459
1.00015 1.00437 0.990237
1.00012 1.00349 0.991034
1.0005 1.00387 0.990175
0.999196 1.00079 0.995347
1.00004 1.00465 0.990144
1.00028 1.00459 0.990185
0.999272 1.00481 0.991074
1.00008 1.00462 0.990197
1.00049 1.00433 0.989612
1.00022 1.00356 0.990744
1.0004 1.0045 0.989749
1.00045 1.00398 0.990375
0.9998 1.00434 0.990802
1.00021 1.00419 0.990411
1.00019 1.00342 0.991146
1.00015 1.00369 0.990729
0.999954 1.00193 0.992947
0.99994 1.00194 0.992963
0.999824 0.999037 0.996052
0.999923 1.00188 0.993068
0.999845 0.998972 0.99605
0.999968 0.997159 0.999141
0.999938 0.998908 0.996006
1 0.997145 0.998527
1.00009 0.996933 0.997948
0.999986 1.00008 0.99474
1.0001 1.00011 0.994564
1.0001 0.997936 0.996715
1.00023 0.999882 0.994544
1.0001 0.997975 0.996867
0.999931 0.996768 0.999258
1.00007 0.99822 0.996461
0.99987 0.997041 0.999207
0.999802 0.997339 0.999151
1.00531 0.994914 0.990708
1.00527 0.994922 0.990958
1.00532 0.994978 0.990427
1.00081 0.994889 0.983502
1.00535 0.994912 0.990759
1.0044 0.995241 0.992309
1.00502 0.996393 0.991284
0.996383 0.994949 0.966599
1.00088 0.996365 0.985615
1.00007 1.00136 0.993393
1.00006 1.00151 0.993256
0.999756 1.00292 0.992266
0.999846 1.00228 0.992767
1.00532 0.994889 0.990665
1.00529 0.994847 0.990458
1.00516 0.994863 0.990377
1.00461 1.00354 0.984279
1.00452 0.99967 0.986004
1.00481 0.995796 0.990183
1.0034 1.00325 0.985787
1.00302 1.00475 0.986172
1.00182 1.00351 0.987592
1.00002 1.00135 0.993538
1.00041 1.00506 0.988996
0.999998 1.00336 0.991565
1.00006 1.00176 0.993031
1.00049 1.00077 0.993212
1.00527 0.994847 0.990918
0.999982 1.00282 0.992051
1.00086 1.0008 0.992753
0.999276 1.00148 0.994114
1.00515 0.994767 0.990741
1.0051 0.995112 0.98992
1.00328 1.0017 0.987585
1.00445 0.996626 0.99014
1.00022 1.00411 0.990811
1.00036 1.00493 0.988986
1.00204 1.00273 0.988598
1.00187 1.00405 0.98784
1.0044 0.994834 0.99185
1.00494 0.994953 0.99123
1.00497 0.996002 0.98951
1.00284 0.998086 0.992175
0.999092 1.00382 0.992352
1.00058 1.00165 0.99196
0.998441 1.00456 0.992632
0.999189 1.00508 0.990254
0.99997 0.994892 0.936029
1.00059 1.00453 0.990131
1.00308 1.00211 0.987419
1.00439 0.994858 0.991578
1.00506 0.995745 0.990045
1.00391 1.00162 0.986013
1.00477 1.00092 0.985281
0.99862 0.997329 0.983484
1.00036 1.00413 0.990542
1.00282 0.997129 0.991076
1.00352 1.0021 0.986249
1.00362 1.00088 0.987156
1.00348 0.997817 0.990448
1.00049 0.994896 0.935642
0.99632 0.994801 0.963531
0.995755 1.00147 0.988362
0.999065 0.994798 0.876745
0.994698 0.994801 0.827559
1.00023 1.00402 0.99065
0.999788 0.994854 0.883457
0.994698 0.99478 0.83276
1.00041 1.00009 0.992101
1.00207 1.00155 0.989238
1.00141 0.999521 0.992401
0.994984 1.0018 0.989775
0.998825 0.994869 0.944893
0.994889 0.99477 0.960377
0.997001 0.99509 0.890685
0.994723 0.9948 0.824766
0.997951 1.00313 0.995133
0.998359 1.00235 0.995138
0.998611 1.00439 0.993712
1.00017 1.00344 0.991123
1.00042 1.00392 0.99024
0.999788 1.00474 0.990205
0.999821 1.00465 0.990429
0.999481 1.00008 0.994878
1.00021 1.0036 0.990746
1.00006 1.00495 0.990118
1 1.00471 0.990131
1.00062 1.00414 0.989747
0.999202 1.00485 0.991288
0.99961 1.00504 0.990852
0.998572 1.00477 0.991959
1.00025 1.00474 0.989722
1.00046 1.00436 0.989812
1.00045 1.00444 0.989745
1.00034 1.00381 0.990538
1.00047 1.00472 0.989552
0.999938 1.00411 0.99091
0.999638 1.00334 0.991159
0.999703 1.00494 0.990364
0.999686 1.00466 0.990561
0.999924 1.00418 0.990824
1.00009 1.00333 0.991325
1.00014 1.00418 0.990319
1.00019 1.00339 0.991089
1.00001 1.00194 0.992866
1.00021 1.00365 0.990716
0.999948 1.00193 0.992957
0.999952 0.999004 0.996536
0.999924 1.00196 0.992966
0.999852 0.999003 0.996325
0.999932 0.997165 0.997985
0.999838 0.998992 0.996041
0.999965 0.997173 0.999147
1.00001 0.99716 0.997932
1.00014 1.00138 0.993208
0.999942 1.00008 0.994811
0.999993 1.00008 0.994737
1.00008 0.997917 0.996764
1.00011 1.00009 0.994567
1.00011 0.99789 0.996717
0.999973 0.99667 0.999278
1.00009 0.997961 0.997104
0.999948 0.996886 0.998726
0.999913 0.997122 0.998143
1.00038 0.994865 0.983625
1.00534 0.99491 0.990772
1.00411 0.996042 0.991975
0.996547 0.99492 0.967428
1.00081 0.995961 0.985963
1.00503 0.995749 0.991242
1.00327 0.996547 0.987244
0.996813 0.995758 0.970282
0.999974 0.994881 0.945141
0.99925 0.994872 0.892617
0.994662 0.994771 0.836974
0.999778 1.00235 0.992673
1.00008 1.00134 0.993383
1.00014 1.00146 0.993229
0.999861 1.00275 0.992311
0.999477 1.00364 0.992141
1.00032 1.00217 0.991983
1.00008 1.00284 0.99214
0.99999 1.00219 0.992611
1.00527 0.994829 0.99092
1.00517 0.994784 0.990642
1.00513 0.995096 0.989921
1.00335 1.0015 0.987565
1.00425 0.996403 0.990566
1.00228 1.00379 0.988432
1.00303 1.00378 0.987411
1.00078 1.00508 0.988374
1.00061 1.0008 0.99297
1.00015 1.00416 0.990398
1.00024 1.00268 0.992021
0.998807 1.00141 0.995422
1.0043 0.994793 0.992084
0.999261 1.00367 0.992361
1.00042 1.00204 0.992317
1.00483 0.994886 0.991178
1.00487 0.995602 0.989784
1.00251 0.997982 0.991748
0.999442 1.00509 0.991326
1.00055 1.00406 0.990444
1.00309 0.994774 0.992095
1.00413 0.997627 0.990781
1.00473 0.99543 0.990694
1.001 0.998893 0.993237
0.999637 1.00474 0.990555
0.999303 1.00404 0.991896
0.999405 1.00528 0.991341
0.999812 0.994904 0.886036
1.0003 0.994887 0.94841
1.00049 1.00376 0.990931
1.00364 1.00227 0.98629
1.00279 0.99735 0.99104
1.00397 0.998067 0.990151
1.00411 1.00077 0.987219
0.999979 0.994888 0.946049
0.99621 0.994815 0.963185
0.99606 1.00246 0.988399
0.998687 0.994823 0.891891
0.994701 0.994802 0.816348
1.00022 1.00392 0.990606
0.999803 0.994855 0.883205
0.994667 0.994779 0.826268
1.00071 1.00002 0.992155
1.00206 1.00163 0.98927
1.00146 0.999675 0.992739
0.995356 1.00191 0.990388
1.00011 0.995804 0.93838
0.99486 0.994782 0.96296
0.996989 0.997747 0.889631
0.994745 0.994789 0.823519
0.9995 1.00397 0.992915
0.994701 0.994824 0.82602
0.994744 0.994796 0.838025
0.998007 1.00166 0.996007
0.999897 1.00182 0.99409
0.99497 1.00195 0.988567
0.995 0.995924 0.963776
0.996631 0.995346 0.933932
0.994727 0.999023 0.89441
0.994825 0.994821 0.827128
0.998185 1.00213 0.995002
0.998982 1.00371 0.99343
0.997992 1.00321 0.994552
1.00018 1.00363 0.990747
1.00071 1.00394 0.989882
0.999997 1.00477 0.990064
0.999849 1.00497 0.990052
0.998932 1.00473 0.991502
1.00044 1.00438 0.98981
0.999635 1.00486 0.990663
1.00034 1.00465 0.989722
0.998193 1.00473 0.992422
0.996124 1.00485 0.995992
0.999306 1.00478 0.991319
1.0005 1.00461 0.989591
1.00051 1.00437 0.989741
1.00034 1.00358 0.990697
1.00042 1.00473 0.989511
1.00001 1.00404 0.990846
0.999516 1.00329 0.991849
0.999337 1.00499 0.990784
0.999477 1.00466 0.990747
0.999037 1.00396 0.992148
1.00063 1.00202 0.991957
1.00122 1.00147 0.990366
0.999408 1.00478 0.990652
0.999814 1.00477 0.9904
0.999751 1.00498 0.990061
0.999733 1.00478 0.99056
1.00001 1.00362 0.991128
0.999938 1.00426 0.990845
1.00012 1.00334 0.991329
1.00005 1.00188 0.992793
1.00019 1.0034 0.991033
1 1.00192 0.992883
1.00005 0.999002 0.996368
0.999941 1.00193 0.992967
0.999935 0.998988 0.996201
1.00001 0.99711 0.997892
0.999848 0.998992 0.996036
0.999966 0.997167 0.999151
0.999964 0.997176 0.999153
1.0002 1.00172 0.993094
0.999945 1.00022 0.994689
1.00009 1.00148 0.993219
1.00007 0.997916 0.996771
0.999941 1.00009 0.994813
1 1.0001 0.994735
1.00008 0.997904 0.996758
1 0.996617 0.999282
1.00009 0.99787 0.997193
0.99999 0.996675 0.998781
0.999966 0.996898 0.998231
0.999815 0.994854 0.872474
0.994673 0.994766 0.826653
0.997231 0.994891 0.967566
1.00077 0.995384 0.986372
1.00509 0.99502 0.9912
0.996485 0.995572 0.970614
1.00346 0.995884 0.987717
1.00109 0.994892 0.942608
0.999476 0.994803 0.876702
0.99469 0.994787 0.826499
0.998425 0.994864 0.975419
0.999695 0.994895 0.944508
0.997016 0.99581 0.890023
0.994716 0.994771 0.828927
1.00008 1.00324 0.991624
0.999852 1.00217 0.992793
1.00009 1.00135 0.993375
0.999905 1.00265 0.992356
0.999445 1.0035 0.992318
1.00007 1.00366 0.991063
1.00024 1.00274 0.991784
1.00036 1.00341 0.990758
1.00007 1.0028 0.992019
1 1.0023 0.992457
1.00421 0.994773 0.992307
1.00469 0.994794 0.991134
1.0046 0.995281 0.990056
1.00217 0.99842 0.99132
1.00099 1.00397 0.990636
0.999545 1.0052 0.990026
1.00049 1.0019 0.992701
0.999371 1.00371 0.992363
1.00258 0.994912 0.992483
0.999712 1.00487 0.99037
0.999007 1.00423 0.991768
1.00403 0.996569 0.991033
1.00464 0.995544 0.990464
1.00099 0.999011 0.993479
0.999421 1.00523 0.99114
1.00042 0.995032 0.992501
1.00227 0.997056 0.99363
0.999864 1.00144 0.993991
0.998818 1.00504 0.99008
0.99925 1.00504 0.990397
0.998956 1.00514 0.991472
0.99473 0.994854 0.847779
0.999807 0.994898 0.890707
0.999972 0.994901 0.936326
0.999979 1.00398 0.990552
1.00213 1.00157 0.98929
1.00081 1 0.992213
1.00138 0.99962 0.993084
0.999813 0.994873 0.893638
0.999188 0.994861 0.935302
0.99485 0.994822 0.960546
0.995417 1.00235 0.99097
0.997062 0.995347 0.87638
0.994646 0.994786 0.830746
0.994738 0.994796 0.835166
0.999182 1.00343 0.992687
0.994696 0.994823 0.835235
0.994774 0.9948 0.837553
0.997488 1.00132 0.996582
0.99948 1.00177 0.994014
0.995059 0.999567 0.991014
0.995164 0.995361 0.962188
0.996981 0.99875 0.944591
0.995074 0.999005 0.879592
0.99487 0.994811 0.836894
0.997263 1.00364 0.996081
0.994791 0.994844 0.846315
0.994812 0.994793 0.83542
0.994962 1.00238 1.00001
0.995129 0.998017 0.970231
0.994913 0.999936 0.944557
0.995351 0.996912 0.872181
0.994986 0.994857 0.84059
0.99926 1.00318 0.993125
0.998225 1.00338 0.994775
0.996426 1.0038 0.997082
1.00039 1.00444 0.989808
1.00048 1.00458 0.989724
0.999739 1.00473 0.990473
0.997816 1.00461 0.99289
1.00036 1.0047 0.989612
0.999288 1.00479 0.991273
0.996116 1.00463 0.996416
0.995208 1.00489 0.997824
0.995959 1.00497 0.99644
0.999813 1.00427 0.99098
1.00038 1.00482 0.989469
1.00003 1.00394 0.99078
0.999289 1.00345 0.992525
0.999482 1.00471 0.990796
0.999423 1.00499 0.990803
0.999044 1.00415 0.992236
0.999248 1.00455 0.991509
0.99733 1.00494 0.994288
1.0024 0.997811 0.992403
1.00044 1.00182 0.992304
1.00098 1.00174 0.991076
1.00425 1.00128 0.98682
1.00086 1.00362 0.990389
1.00046 1.00166 0.991734
0.999827 1.00456 0.990461
0.999773 1.00499 0.989793
0.999958 1.00457 0.990436
0.999926 1.00496 0.990069
1.00002 1.00426 0.990515
1.00001 1.00465 0.990559
1.00016 1.0035 0.991113
1.00012 1.00193 0.992674
1.00026 1.00317 0.991334
1.00012 1.00185 0.992799
1.00014 0.999021 0.996204
1.00003 1.00187 0.9929
1.00004 0.999005 0.996008
1.00007 0.997162 0.997755
0.999938 0.998973 0.995905
0.999993 0.997132 0.998521
0.999973 0.997152 0.99914
1.00021 1.0023 0.992187
1.00004 1.00036 0.994435
1.00013 1.00176 0.992914
1.00007 0.997975 0.996714
0.999956 1.00019 0.994693
1.00005 1.00154 0.993228
1.00002 0.99659 0.999283
1.00006 0.997917 0.996771
0.999946 1.00009 0.994814
1.00009 0.997887 0.996752
0.999999 0.996638 0.999282
0.999971 0.996657 0.999279
0.994682 0.9948 0.830854
0.999808 0.994861 0.882947
0.994762 0.994785 0.835611
0.994694 0.994774 0.825094
0.996392 0.994997 0.968297
1.00353 0.994905 0.988206
0.999987 0.994904 0.939498
0.999505 0.994842 0.892681
0.994721 0.994802 0.815666
0.998493 0.994885 0.974713
1.00103 0.996095 0.931487
0.997099 0.998332 0.888348
0.99474 0.994771 0.822421
0.995451 0.994902 0.967816
0.996956 0.997384 0.932922
0.994784 0.998074 0.873069
0.994815 0.994833 0.824288
1.0003 1.00448 0.990656
0.999913 1.00322 0.991732
0.999907 1.00206 0.99291
0.999364 1.00333 0.992497
1.00054 1.00405 0.989751
0.999959 1.00363 0.991246
1.00002 1.00313 0.991587
1.0008 1.00288 0.990818
1.00045 1.00342 0.990828
1.00006 1.0027 0.991899
1.00228 0.994791 0.992871
1.00405 0.995446 0.991302
1.00454 0.99572 0.990236
1.00094 0.99818 0.993745
1.0002 1.00505 0.990934
0.999235 1.00462 0.991648
0.999725 1.00494 0.990183
0.999925 1.00509 0.989816
1.00001 0.994975 0.992853
0.999755 1.00498 0.990257
0.999485 1.00518 0.991368
1.00222 0.996601 0.994189
1.0005 1.00023 0.993807
0.997398 0.997397 0.993178
0.997742 0.996802 1.00077
0.998058 1.00324 0.9944
0.999904 1.00478 0.990194
0.998728 1.00514 0.992139
0.994825 0.994826 0.851775
0.994725 0.994843 0.844318
0.999807 0.994891 0.875911
0.999152 1.00286 0.992491
0.999329 1.00163 0.993914
0.997462 1.00054 0.997152
0.994676 0.994817 0.83444
0.997082 0.997344 0.93414
0.995148 0.995391 0.962716
0.995436 0.997311 0.99366
0.994795 0.997607 0.896093
0.994787 0.994803 0.837452
0.994886 0.994822 0.837543
0.997506 1.00349 0.996249
0.994796 0.994838 0.849187
0.9948 0.994791 0.835936
0.99536 1.00186 0.998999
0.995092 0.997434 0.972049
0.995103 0.998499 0.933364
0.994889 0.994854 0.837829
0.994879 0.99935 0.879895
0.995118 1.00485 0.999388
0.99479 0.994827 0.846983
0.994849 0.994812 0.840837
0.994805 0.994834 0.825097
0.994859 0.999419 0.990894
0.994886 0.998947 0.948179
0.995796 0.997868 0.886286
0.99859 1.0037 0.995012
0.996696 1.00417 0.996741
0.994976 1.0052 0.998792
1.00028 1.00476 0.989633
0.999198 1.00481 0.991223
0.996244 1.00461 0.996833
0.9996 1.00452 0.990894
0.996282 1.00497 0.996416
0.995397 1.0051 0.997799
0.995186 1.00528 0.997749
0.996572 1.00477 0.995742
0.999417 1.00474 0.990854
0.999477 1.005 0.990821
0.999089 1.00438 0.992339
0.997623 1.00485 0.99415
0.99925 1.00467 0.99142
0.999067 1.00268 0.993559
1.00051 0.998561 0.994979
1.00231 1.00097 0.988706
1.00024 1.00164 0.992638
1.00154 1.00182 0.990623
1.00414 1.00209 0.986078
1.00519 1.00146 0.984571
1.00231 1.00208 0.989044
1.00339 1.00129 0.987092
1.00056 1.00502 0.989146
1.00056 1.00363 0.990653
0.999673 1.00189 0.993089
1.00024 1.00439 0.99027
0.999848 1.00502 0.989804
1.00019 1.00455 0.989962
1.00004 1.00499 0.990077
1.00014 1.0041 0.990529
1.00012 1.00235 0.992246
1.00023 1.00348 0.991097
1.00014 1.00192 0.992661
1.00015 0.999025 0.996138
1.00014 1.00181 0.992805
1.00013 0.999007 0.995856
1.00012 0.997215 0.997647
1.00005 0.998992 0.995696
1.00005 0.997162 0.998429
1.00001 0.997142 0.999096
1.00046 1.00242 0.991496
1.0001 1.0007 0.993738
1.00027 1.00226 0.992184
1.00011 0.998052 0.996569
1.00003 1.00037 0.994287
1.00011 1.00177 0.992737
1.00004 0.996629 0.999267
1.00007 0.997955 0.996722
0.999961 1.00015 0.994697
1.00002 0.996611 0.999283
1.00006 0.997922 0.996771
0.999999 0.996622 0.999282
0.994824 0.994831 0.843271
0.994693 0.994824 0.841665
0.999805 0.994846 0.88257
1.00093 1.00269 0.990645
0.994819 0.994802 0.842441
0.99476 0.994784 0.835554
0.994717 0.994785 0.835326
0.998952 0.995229 0.97375
0.999372 0.994909 0.943047
0.996891 0.995542 0.874157
0.994726 0.994792 0.829001
0.99662 0.994898 0.964974
0.997054 0.999491 0.943097
0.994926 0.999258 0.876288
0.994807 0.99482 0.82874
0.994887 0.994868 0.960312
0.994877 0.998774 0.942073
0.995057 0.99998 0.882582
0.994938 0.994851 0.840191
1 1.00475 0.990137
1.00014 1.00426 0.990464
1.00003 1.00301 0.991841
1.00063 1.00327 0.990503
1.00043 1.0042 0.989998
0.999952 1.00373 0.991428
1.00081 1.00298 0.990789
1.00049 1.00345 0.990894
0.999013 0.995917 0.993055
1.00237 0.996255 0.994671
1.00025 1.00509 0.989549
1.001 0.99991 0.993626
0.999722 1.00518 0.991262
1.00005 1.00506 0.990123
0.999704 1.00479 0.990237
0.996463 0.996466 0.993914
0.998929 1.00482 0.992289
0.998417 1.00327 0.994612
0.997752 0.997878 1.00095
0.999513 1.00481 0.991298
0.995544 0.999796 0.989886
0.995982 1.00128 0.999623
0.996668 1.00465 0.995649
0.998875 1.00447 0.992719
0.994784 0.994805 0.852668
0.99483 0.994824 0.850179
0.994719 0.994836 0.84081
0.997633 1.00354 0.996424
0.995479 1.00096 0.998001
0.994806 0.994833 0.851912
0.994874 0.999895 0.944689
0.995166 0.996897 0.96946
0.994941 0.999442 0.878754
0.994799 0.994787 0.836322
0.994857 0.994851 0.835106
0.995318 1.00471 0.999136
0.994793 0.994828 0.846894
0.994847 0.994814 0.843012
0.994815 0.999999 0.994534
0.994797 0.994823 0.829272
0.994865 0.99714 0.941153
0.995349 0.998303 0.888715
0.994877 1.00371 0.99841
0.994818 0.994846 0.851576
0.994799 0.994802 0.843144
0.994706 0.994769 0.829452
0.994912 0.999986 0.882286
0.994899 1.00036 0.977417
0.995329 0.998412 0.934245
0.997075 1.00449 0.996418
0.995283 1.00522 0.998688
0.994925 1.00517 0.998377
0.999428 1.00463 0.990808
0.996466 1.00508 0.996396
0.99538 1.00516 0.997769
0.996743 1.00464 0.995699
0.995249 1.00519 0.997815
0.997771 1.00175 0.997594
0.997859 1.00467 0.994004
0.999223 1.0048 0.991341
0.999079 1.00291 0.994002
0.999003 1.00336 0.99193
0.998658 0.999301 0.997472
1.00223 1.00052 0.989665
1.00407 1.00328 0.98412
1.00496 1.00233 0.983704
1.00209 1.00186 0.990145
1.00412 1.00228 0.985385
1.00519 1.00151 0.984578
1.0042 1.00055 0.986833
1.00487 1.00131 0.984916
1.00072 1.00485 0.988602
1.00225 1.00231 0.988886
1.00259 1.00127 0.987368
1.00024 1.00486 0.989416
1.00022 1.00504 0.989327
1.00029 1.00358 0.990922
0.999912 1.00505 0.989816
1.00024 1.00453 0.989971
1.00019 1.00293 0.991534
1.00024 1.00403 0.990543
1.00012 1.00239 0.992231
1.00012 0.999216 0.995338
1.00018 1.00196 0.992648
1.00018 0.999025 0.995458
1.00003 0.997197 0.999003
1.00014 0.999019 0.995531
1.00009 0.997215 0.998337
1.00005 0.997174 0.999037
1.00046 1.00254 0.991343
1.00024 1.00104 0.993162
1.00042 1.00247 0.991631
1.00016 0.998189 0.996343
1.00014 1.00069 0.993668
1.00028 1.00226 0.992178
1.00006 0.996652 0.999234
1.00011 0.998027 0.996583
1.00004 1.00036 0.994141
1.00004 0.996606 0.999273
1.00008 0.997933 0.99673
1.00002 0.996634 0.999283
0.9948 0.994833 0.851513
0.994823 0.994834 0.843408
0.994686 0.994832 0.841739
1.00084 1.00273 0.990801
1.00069 1.00297 0.990608
1.00091 1.00244 0.991122
0.994865 0.994816 0.840155
0.994818 0.994794 0.842849
0.994756 0.994778 0.835535
0.996878 0.99487 0.966276
0.997101 0.995804 0.931883
0.994776 0.999917 0.89464
0.994823 0.994823 0.823702
0.995003 0.994836 0.963573
0.995028 0.999674 0.938736
0.994971 0.999068 0.879487
0.994896 0.994845 0.837271
0.994889 0.99549 0.960167
0.994884 0.998138 0.943536
0.995846 0.998231 0.885827
0.994847 0.99482 0.827567
1.00004 1.00352 0.991096
1.00028 1.00449 0.989935
1.00034 1.00408 0.99027
1.00075 1.00316 0.99045
1.00023 1.00433 0.990251
1.00083 1.00307 0.99076
0.996146 0.995354 0.99468
0.997228 0.998669 1.00122
0.999765 1.00455 0.990276
0.99893 1.00254 0.994793
0.999022 1.00466 0.992433
0.999249 1.00466 0.9914
0.998491 1.00488 0.992754
0.995332 0.999818 0.989836
0.996344 1.00499 0.996229
0.996504 1.00167 0.998799
0.998409 1.0045 0.993427
0.995011 1.0022 0.986015
0.995616 1.00419 0.995936
0.996238 1.00507 0.996606
0.994819 0.994824 0.853277
0.994785 0.994812 0.852523
0.994832 0.994822 0.848591
0.995369 1.00438 0.998833
0.994773 1.00034 0.990813
0.994794 0.994828 0.846815
0.994826 0.998909 0.94117
0.995692 0.997867 0.874654
0.994845 0.994813 0.845166
0.994815 0.994833 0.824592
0.994853 1.00357 0.998878
0.994814 0.994847 0.85242
0.994811 0.994798 0.843563
0.994893 0.999652 0.974706
0.994727 0.99477 0.823251
0.995364 0.999851 0.877943
0.995072 0.996778 0.946799
0.994913 1.00514 0.991994
0.994788 0.99484 0.851652
0.994777 0.994794 0.836578
0.994659 0.994771 0.838363
0.994757 0.997711 0.87278
0.994909 0.999547 0.942518
0.994895 1.00082 0.968712
0.995626 1.00511 0.998574
0.995046 1.00503 0.998399
0.997302 1.00222 0.997871
0.996991 1.00452 0.995658
0.995305 1.00518 0.997834
0.996477 1.0035 0.997526
0.999008 0.996934 1.00014
0.999074 1.0032 0.994435
1.0012 1.00242 0.991272
1.0024 1.00425 0.986522
1.00202 1.00015 0.990733
1.0041 1.00312 0.98438
1.0044 1.00423 0.982761
1.00495 1.00182 0.983929
1.00514 1.00174 0.984132
1.00489 1.0024 0.983686
1.00435 1.00238 0.984703
1.0051 1.00092 0.985745
1.00515 1.00161 0.984456
1.00244 1.00267 0.987662
1.00409 1.00067 0.987086
1.00446 1.0012 0.985264
1.00041 1.00501 0.988558
1.00101 1.00478 0.988576
1.00214 1.00262 0.98872
1.00032 1.00349 0.990864
1.00048 1.00469 0.989417
0.999976 1.00506 0.989507
1.00033 1.00436 0.98998
1.00026 1.00288 0.991535
1.00007 0.999604 0.995044
1.00018 1.00235 0.992216
1.00014 0.999251 0.995317
1.00002 0.997334 0.998971
1.00018 0.999054 0.995451
1.00008 0.997231 0.998313
1.00007 0.99721 0.998999
1.00051 1.00296 0.991109
1.00035 1.00127 0.992964
1.00054 1.00245 0.991409
1.00022 0.9984 0.996031
1.00024 1.00105 0.993247
1.0004 1.00249 0.991767
1.00008 0.996722 0.999183
1.00016 0.998161 0.996362
1.00017 1.00068 0.993597
1.00006 0.996655 0.999244
1.00011 0.998003 0.996597
1.00004 0.996618 0.999279
0.994822 0.994843 0.851049
0.994799 0.994847 0.851421
0.994818 0.994848 0.843627
1.00037 1.00417 0.989805
1.00111 1.00392 0.989722
1.00069 1.00279 0.99096
1.00062 1.00317 0.990516
1.00055 1.00261 0.991233
1.00036 1.00308 0.991083
1.00038 1.00231 0.991869
0.994832 0.994794 0.835172
0.994864 0.994818 0.842426
0.994813 0.994803 0.84327
0.994865 0.994842 0.834452
0.994939 0.994848 0.960605
0.994875 0.999945 0.934554
0.995121 0.997219 0.892099
0.99489 0.99603 0.959157
0.994893 0.999374 0.932151
0.995152 0.998071 0.888876
0.994846 0.994811 0.837295
0.995988 0.996637 0.962044
0.995005 0.999235 0.933977
0.995286 0.9976 0.872417
0.994741 0.994794 0.82524
0.998551 1.00481 0.992713
0.999889 1.00382 0.991232
1.0003 1.00464 0.989733
1.00079 1.00328 0.9904
0.994957 0.99981 0.990082
0.997009 1.0024 0.997858
0.999123 1.00481 0.991505
0.998352 1.00481 0.992792
0.996341 1.00521 0.996793
0.998377 1.00414 0.993366
0.99626 1.00492 0.996587
0.996643 1.0018 0.982678
0.99498 1.00512 0.996411
0.996393 1.00434 0.996372
0.994755 1.00401 0.982681
0.995506 1.00365 0.998629
0.99478 0.994807 0.852853
0.994823 0.994824 0.856122
0.994785 0.994822 0.852368
0.994823 1.00347 0.999306
0.994902 0.999001 0.978181
0.994808 0.994845 0.853314
0.995533 0.997481 0.935135
0.995287 0.997961 0.891258
0.994819 0.994804 0.843958
0.994713 0.994792 0.829714
0.994899 1.00444 0.992791
0.994799 0.994838 0.851582
0.994759 0.994789 0.836555
0.994896 1.00026 0.968878
0.994689 0.994784 0.827988
0.995006 0.999139 0.875347
0.995256 0.999161 0.93163
0.995389 1.00446 0.986603
0.994827 0.994824 0.843588
0.994664 0.994762 0.827961
0.996766 0.995716 0.891565
0.994843 0.999562 0.941998
0.994869 0.999985 0.961943
0.995213 1.00507 0.998713
0.996211 1.00309 0.998021
0.996522 0.999225 1.00119
0.995356 1.00512 0.997443
0.997506 0.998533 1.0003
1.00188 0.998132 0.994466
1.0034 1.00133 0.990619
1.00321 1.00387 0.985921
1.00344 1.00442 0.983765
1.00395 1.00307 0.984636
1.00452 1.00418 0.982658
1.00433 1.00429 0.982777
1.0051 1.00052 0.985056
1.00508 1.0011 0.984775
1.00492 1.00202 0.983911
1.00507 1.00165 0.984748
1.00509 1.00163 0.984166
1.00472 1.00256 0.983667
1.00466 1.0009 0.9863
1.00489 1.00105 0.985563
1.00511 1.00172 0.984338
1.00145 1.00491 0.987443
1.00246 1.0028 0.98774
1.00398 1.00073 0.987339
1.00037 1.00408 0.989907
1.00075 1.00499 0.988584
1.00119 1.0047 0.988551
1.00006 0.999986 0.99468
1.00038 1.00335 0.990862
1.00067 1.00464 0.989419
1.00029 1.00285 0.991535
1.00008 0.999648 0.995018
0.999968 0.997563 0.998918
1.00015 0.999277 0.995296
1.00002 0.997365 0.998958
1.00006 0.99723 0.998985
1.00008 1.00495 0.989808
1.00068 1.0035 0.990316
1.00043 1.0017 0.992431
1.00052 1.0029 0.991098
1.00024 0.998682 0.995703
1.00035 1.00129 0.992958
1.00054 1.00246 0.991475
1.00009 0.996877 0.999107
1.00021 0.998392 0.99605
1.00024 1.00107 0.993329
1.00008 0.996722 0.999199
1.00016 0.998145 0.99638
1.00006 0.996633 0.999255
0.994793 0.994826 0.846658
0.994806 0.994839 0.851934
0.994807 0.994839 0.85132
1.00045 1.00437 0.989801
1.00074 1.00358 0.989882
1.00004 1.00244 0.99092
1.00002 1.00448 0.98994
1.00122 1.00357 0.99048
1.00069 1.0033 0.990422
1.00041 1.00275 0.991343
1.00043 1.00306 0.991103
1.00036 1.00255 0.991896
0.999337 1.00407 0.991988
0.994756 0.994784 0.838139
0.994817 0.99479 0.83574
0.994863 0.99481 0.844636
0.994873 0.994821 0.837896
0.995724 0.998235 0.874688
0.994871 0.996338 0.95764
0.994885 0.998894 0.943527
0.99491 0.997154 0.958811
0.994893 0.996294 0.94526
0.994862 0.999535 0.880937
0.994761 0.994781 0.823937
0.994793 0.998108 0.963157
0.994849 1.00001 0.944801
0.994725 0.999339 0.893762
0.994683 0.994769 0.838013
0.998164 1.00333 0.994691
0.998344 1.00467 0.99284
0.999898 1.00383 0.991371
0.997146 1.00158 0.979031
0.994803 1.00519 0.996977
0.99825 1.0043 0.9933
0.996057 1.00509 0.996573
0.996713 1.00424 0.996323
0.995266 1.00336 0.998913
0.995104 1.00187 0.981901
0.995761 1.00199 0.999142
0.995774 0.999949 0.987719
0.99482 0.99482 0.850768
0.994786 0.994815 0.852715
0.994825 0.994822 0.858982
0.994903 1.00353 0.99321
0.994864 0.999873 0.966092
0.99481 0.994841 0.851486
0.994936 0.999727 0.942365
0.994748 0.999815 0.893299
0.994741 0.994772 0.83661
0.994714 0.994796 0.817227
0.995622 1.00424 0.9873
0.994813 0.994831 0.843663
0.994688 0.994767 0.826523
0.995011 0.999614 0.962895
0.996984 0.997907 0.889401
0.995072 0.999513 0.937009
0.995076 1.00344 0.985147
0.994681 0.994794 0.831533
0.999237 0.994839 0.893731
0.996792 0.997324 0.933301
0.994866 0.996883 0.96479
0.995644 1.0039 0.998155
0.996244 0.999448 1.00117
0.998788 1.00245 0.996048
0.995991 1.00007 1.00043
1.00072 0.998683 0.994999
1.0033 0.999828 0.989256
1.00405 1.00337 0.985306
1.00346 1.00438 0.983654
1.00419 1.00176 0.98489
1.00472 1.00418 0.982558
1.00435 1.00392 0.982868
1.00484 1.0005 0.985629
1.00523 0.998023 0.98716
1.0052 0.999876 0.98543
1.00508 1.0004 0.985148
1.00511 1.00115 0.984881
1.00509 1.00114 0.984704
1.00491 1.00218 0.983892
1.00508 1.00154 0.984976
1.00485 1.00156 0.984786
1.00503 1.00155 0.984201
1.00342 1.00277 0.986458
1.00425 1.00128 0.986279
1.00473 1.00122 0.98538
1.00053 1.00492 0.988435
1.00154 1.00478 0.987468
1.00261 1.00293 0.987816
1.00005 1.00074 0.994816
1.00055 1.00405 0.989898
1.00107 1.00497 0.988612
0.999961 0.997913 0.997187
1.00006 1.00013 0.994965
1.00045 1.00323 0.99086
1.00008 0.999703 0.994991
0.99997 0.997611 0.998892
1.00002 0.997379 0.998944
1.00013 1.00508 0.98983
1.00053 1.00475 0.98957
0.999938 1.00495 0.989761
1.00047 1.00234 0.991736
1.00048 1.00386 0.990303
1.00021 0.999024 0.995416
1.00042 1.00168 0.992443
1.00063 1.00279 0.991084
1.00008 0.997095 0.999031
1.00024 0.998663 0.995719
1.00034 1.00132 0.992952
1.00008 0.996863 0.999131
1.0002 0.998373 0.99607
1.00007 0.996709 0.999215
0.99479 0.994823 0.852605
0.994803 0.994831 0.846569
0.994794 0.994848 0.852852
1.00053 1.00248 0.99078
1.00017 1.00475 0.989797
1.00062 1.00339 0.990047
1.00047 1.00452 0.989733
1.00068 1.00242 0.990965
1.00068 1.00318 0.991268
1.0022 1.00235 0.988981
0.998876 1.00488 0.991122
1.0005 1.00299 0.991124
1.00001 1.00257 0.991922
0.999227 1.00394 0.991924
0.998375 1.00525 0.992561
0.994689 0.994798 0.832719
0.994783 0.994788 0.837686
0.994812 0.994785 0.836196
0.994749 0.994778 0.835302
0.994848 0.99949 0.88021
0.995377 0.998262 0.933962
0.994894 0.997639 0.957971
0.995055 0.997566 0.963157
0.994696 0.994777 0.827548
0.99487 0.997605 0.937776
0.995025 0.999908 0.878817
0.99489 0.996248 0.967093
0.994889 0.999928 0.945261
0.997061 0.996482 0.888683
0.999326 0.998554 0.997356
0.998192 1.00321 0.994654
0.998251 1.00447 0.992961
0.995263 1.00112 0.98171
0.99492 1.00298 0.999181
0.997096 1.00382 0.996283
0.996853 1.00186 0.999187
0.99524 0.999073 0.987852
0.996687 0.998483 0.992156
0.994722 0.994857 0.842374
0.99482 0.99481 0.852758
0.99479 0.994817 0.852537
0.995268 1.00414 0.98768
0.994864 0.999968 0.962773
0.9948 0.994838 0.843889
0.994831 0.999885 0.933349
0.996748 0.995175 0.875579
0.994718 0.994781 0.836537
0.994824 1.00402 0.985174
0.994693 0.99482 0.84222
0.999192 0.994797 0.877768
0.994852 0.996073 0.960535
0.996868 0.999155 0.943558
0.994795 1.00332 0.990294
0.999799 0.994847 0.87273
0.999572 0.994897 0.945284
0.994864 0.994839 0.959769
0.995932 0.999536 1.00122
0.99817 1.00153 0.995718
1.00161 1.00343 0.99055
0.999551 0.999383 0.995537
1.00272 1.00059 0.989107
1.00424 0.999658 0.987512
1.00343 1.00444 0.983542
1.00409 1.00199 0.984863
1.00498 0.997199 0.98788
1.00435 1.00348 0.982959
1.00472 1.00028 0.985659
1.00525 0.996315 0.988764
1.00521 0.996308 0.989198
1.00523 0.998258 0.987019
1.00525 0.997917 0.98729
1.00521 0.999793 0.98557
1.00519 0.999854 0.985588
1.00509 1.00029 0.98524
1.00518 1.00136 0.984505
1.00512 1.00106 0.984862
1.0051 1.00114 0.98463
1.00488 1.00105 0.985618
1.0049 1.0015 0.98498
1.00464 1.00144 0.98482
1.00177 1.00446 0.987227
1.00335 1.00287 0.986424
1.00381 1.00164 0.98626
0.999925 1.00189 0.992978
1.00101 1.00472 0.988438
1.00167 1.00472 0.987491
0.99978 0.998454 0.998665
1.00006 1.00076 0.993868
1.00073 1.00391 0.98989
0.999944 0.997893 0.998804
1.00004 1.0002 0.994552
0.999976 0.997669 0.998865
1.00151 1.00378 0.989042
1.00015 1.00496 0.989712
1.00055 1.00506 0.989174
1.00034 1.00334 0.990947
1.00041 1.00465 0.989542
1.00009 1.00483 0.989715
1.00016 0.999449 0.995091
1.00043 1.00237 0.991759
1.00029 1.00398 0.990289
1.00005 0.997306 0.998966
1.00022 0.998967 0.995431
1.00043 1.00165 0.992454
1.00008 0.997059 0.999054
1.00024 0.99865 0.995733
1.00008 0.996838 0.999154
0.994708 0.994821 0.827979
0.994808 0.994824 0.852778
0.99481 0.994835 0.846493
1.00047 1.00282 0.990759
1.00373 1.00211 0.98804
1.00099 1.00345 0.990191
1.00048 1.0045 0.989525
1.00143 1.00229 0.991004
0.999811 1.00253 0.992045
0.99944 1.00474 0.99082
1.00149 1.00278 0.989372
1.00131 1.00431 0.988816
0.999765 0.999842 0.994909
0.999753 1.00388 0.991858
0.998605 1.00521 0.992369
0.999494 0.995177 0.871332
0.994665 0.994781 0.826416
0.994795 0.994792 0.83762
0.994709 0.994785 0.816591
0.995027 0.998774 0.895034
0.994805 0.999351 0.933582
0.99542 0.995566 0.960673
0.994852 0.996143 0.965506
0.997144 0.998428 0.888133
0.995018 0.999138 0.933954
0.99488 0.997255 0.96778
0.996775 0.996662 0.933143
1.00122 0.996229 0.998019
0.999262 0.999402 0.997309
0.998282 1.00317 0.994626
0.994797 0.998816 0.988086
0.997647 1.00154 0.999212
0.997156 0.998608 0.991887
0.997522 0.996081 0.990823
0.99981 0.994888 0.885315
0.994713 0.994844 0.840599
0.994829 0.994808 0.854631
0.99486 1.00407 0.985465
0.99485 0.995384 0.958966
0.994689 0.99483 0.842176
0.99697 0.995697 0.933069
0.999247 0.994833 0.894015
0.994884 1.00147 0.987252
0.999802 0.994861 0.883264
1.00053 0.995795 0.932664
0.994892 0.994814 0.962492
0.997232 0.998044 0.989119
0.999976 0.99489 0.945877
0.995504 0.994887 0.966055
0.997885 1.00066 0.995334
1.0009 1.00136 0.990657
1.00406 0.998963 0.990283
1.00221 1.00119 0.98897
1.00413 0.999512 0.987526
1.00511 0.996146 0.989287
1.00408 1.00213 0.98484
1.00494 0.9976 0.987814
1.00521 0.995228 0.989863
1.00463 1.00006 0.985687
1.00525 0.9964 0.98871
1.00523 0.995166 0.99018
1.0052 0.995585 0.990189
1.00521 0.996205 0.989383
1.0052 0.99681 0.988921
1.00525 0.998654 0.986894
1.00522 0.998328 0.987122
1.00526 0.99782 0.987422
1.00525 1.00044 0.985254
1.00522 0.999843 0.985529
1.00518 0.999815 0.985747
1.00516 1.00135 0.984836
1.00516 1.0014 0.984554
1.00508 1.00103 0.984848
1.00305 1.00304 0.986611
1.00472 1.00122 0.985587
1.00473 1.0015 0.984982
1.00022 1.00269 0.991628
1.00188 1.00434 0.987248
1.00337 1.00275 0.98639
0.999849 0.998863 0.998443
1.00005 1.00176 0.992936
1.00139 1.00462 0.988439
0.999872 0.998457 0.99774
1.00009 1.00084 0.993874
0.999957 0.998017 0.998724
1.00292 1.00193 0.988256
1.00093 1.00383 0.98927
1.0005 1.00507 0.988853
1.0002 1.00487 0.989593
1.00035 1.00506 0.989175
1.00045 1.00409 0.990095
1.00008 1.00015 0.994566
1.0003 1.0034 0.990943
1.0002 1.00474 0.989514
1.00002 0.997547 0.998875
1.00014 0.99942 0.995111
1.00037 1.00242 0.99178
1.00005 0.997273 0.998985
1.00023 0.998924 0.995449
1.00008 0.997034 0.999076
0.999805 0.994845 0.882906
0.994698 0.994835 0.83299
0.994819 0.994823 0.852933
1.00036 1.00325 0.990736
1.00096 1.00415 0.989174
1.00293 1.00264 0.988366
1.00475 1.00362 0.983534
1.00099 1.00365 0.989145
0.999638 1.0048 0.990532
1.00102 1.00331 0.989765
1.00068 1.00427 0.989158
1.00306 1.00074 0.987626
1.00177 0.999745 0.992487
1.00371 0.995084 0.992737
1.00043 0.999484 0.994799
0.999341 1.00448 0.992182
0.998649 0.994891 0.943751
0.999725 0.994777 0.87624
0.994653 0.994782 0.830678
0.997188 0.997014 0.874894
0.994899 0.999891 0.942295
0.994852 0.995487 0.966308
0.99489 0.996911 0.969415
0.997209 0.999251 0.944848
0.995805 0.995344 0.969184
1.00067 0.995856 0.997923
1.00054 0.996687 0.998054
0.999079 1.0002 0.997254
0.997834 0.998068 0.991722
0.998144 0.99697 0.990985
0.999966 0.994898 0.935975
0.999805 0.994882 0.890273
0.994698 0.994831 0.838923
0.9949 0.999907 0.984003
0.994924 0.994826 0.959864
0.999801 0.994846 0.883007
0.999346 0.994883 0.943821
0.996781 0.997976 0.989439
1.00076 0.994897 0.942845
0.99647 0.99489 0.96363
1.00074 0.995419 0.989368
0.998705 0.994874 0.973476
0.999955 0.999364 0.990854
1.00365 0.997475 0.99027
1.00482 0.995275 0.991479
1.00389 0.999381 0.987535
1.00497 0.996151 0.989157
1.0052 0.9949 0.990351
1.00483 0.998045 0.987748
1.00521 0.995285 0.989808
1.00523 0.994908 0.990421
1.00525 0.996504 0.988656
1.00523 0.99524 0.990142
1.00522 0.995027 0.990515
1.0052 0.995449 0.990253
1.0052 0.995788 0.990053
1.00521 0.996096 0.989568
1.0052 0.996815 0.988913
1.00523 0.997533 0.988138
1.00527 0.999511 0.986213
1.00525 0.998716 0.986872
1.00521 0.998396 0.987225
1.00527 1.00108 0.984706
1.00526 1.0005 0.98514
1.00523 0.999886 0.985485
1.00384 1.00192 0.986246
1.00502 1.0014 0.984858
1.00509 1.00142 0.984602
1.0009 1.00276 0.990451
1.00294 1.00316 0.986616
1.00444 1.00153 0.985559
0.99997 0.99965 0.998073
1.00036 1.00258 0.991612
1.00209 1.00424 0.98727
0.999937 0.999047 0.998323
1.00022 1.00155 0.992891
0.999956 0.998474 0.998522
1.00431 1.00218 0.985088
1.003 1.00166 0.988142
1.00118 1.00445 0.987898
1.0004 1.00375 0.989505
1.00052 1.00501 0.988727
1.00065 1.00471 0.989131
1.00022 1.00508 0.989174
1.0003 1.00421 0.990072
1.00011 1.0008 0.993875
0.999974 0.997972 0.99871
1.00006 1.00007 0.994589
1.00025 1.00344 0.990939
1.00001 0.997533 0.998908
1.00013 0.999371 0.995127
1.00005 0.997242 0.999005
0.999976 0.994894 0.947525
0.999819 0.994866 0.882573
0.994679 0.994825 0.827874
1.0009 1.00479 0.988153
1.00229 1.00288 0.9887
1.00189 1.00354 0.988643
1.00427 1.00356 0.984259
1.0048 1.00211 0.984117
1.00312 1.00228 0.985812
1.00018 1.00448 0.989487
1.00389 1.00074 0.986539
1.00169 0.999716 0.992694
1.00334 0.997726 0.990043
1.00437 0.995592 0.991806
1.00327 0.995993 0.992734
1.00333 0.995288 0.992945
1.00004 0.999845 0.994689
0.996051 0.994862 0.967483
0.999614 0.99605 0.939885
0.998509 0.994858 0.891137
0.996917 0.997622 0.932884
0.994894 0.997015 0.969909
0.995463 0.995884 0.97487
0.999346 0.995972 0.992608
1.00114 0.995353 0.997574
0.999904 0.997023 0.998107
0.999075 0.998455 0.991177
0.996974 0.996327 0.968526
1.00008 0.994891 0.948271
0.999808 0.994872 0.875389
0.996212 0.997643 0.989719
0.996928 0.994865 0.964661
0.999988 0.99489 0.939588
1.00015 0.994899 0.989566
0.998515 0.995029 0.972889
1.00303 0.994772 0.99097
1.00298 0.997354 0.985671
1.00307 0.995986 0.990229
1.00454 0.995189 0.991482
1.00512 0.994763 0.990958
1.00495 0.996213 0.989028
1.0052 0.994901 0.990309
1.00525 0.994893 0.990485
1.00522 0.995345 0.989753
1.00523 0.994915 0.990397
1.00525 0.994914 0.990506
1.00523 0.99529 0.990104
1.00521 0.99503 0.990492
1.00522 0.995057 0.990504
1.0052 0.995321 0.990316
1.00519 0.995667 0.990122
1.00521 0.996699 0.989163
1.0052 0.996825 0.988904
1.00523 0.997592 0.988116
1.00526 0.998768 0.987067
1.0053 1.00039 0.985333
1.00528 0.999629 0.986058
1.00525 0.99878 0.986849
1.00451 1.00102 0.986028
1.00524 1.00109 0.984738
1.00526 1.00057 0.985027
1.00143 1.00239 0.989865
1.00376 1.00214 0.986224
1.00485 1.00146 0.984877
1.00031 1.00025 0.997585
1.00098 1.00262 0.990442
1.00283 1.00326 0.986618
1.00013 0.999798 0.997878
1.00039 1.00244 0.991603
1.00005 0.999181 0.998173
1.00469 1.00192 0.984579
1.00463 1.00208 0.985239
1.00354 1.00245 0.98599
1.00292 1.00178 0.988026
1.00141 1.00419 0.987684
1.00139 1.00485 0.987958
1.00045 1.00499 0.988601
1.0006 1.00473 0.989124
1.00012 1.00164 0.99308
1.00022 1.00438 0.99005
1.00005 1.00081 0.993905
0.999928 0.998514 0.998512
0.999959 0.997909 0.998773
1.00004 1.00004 0.994614
0.999997 0.99748 0.998936
0.996969 0.994884 0.968746
0.999978 0.994875 0.935335
0.999812 0.994854 0.893082
1.00517 0.999823 0.985613
1.00281 1.00353 0.988151
1.00376 1.00351 0.984984
1.00377 1.00206 0.986115
1.00484 1.00231 0.984012
1.00438 0.999457 0.987372
1.00467 1.00149 0.985449
1.00137 0.999198 0.992903
1.0038 0.998185 0.989676
1.00425 0.995732 0.99116
1.00477 0.995566 0.990121
1.0036 0.995347 0.993189
1.0033 0.995609 0.992776
1.00312 0.99549 0.993146
0.999249 0.995994 0.990981
0.995903 0.994868 0.965816
0.999146 0.994861 0.935914
0.995002 0.996434 0.973321
0.999069 0.995824 0.995073
1.00107 0.994946 0.997176
1.00144 0.996693 0.983237
0.997007 0.995542 0.969209
0.999973 0.9949 0.935973
0.9993 0.99484 0.989811
0.99879 0.995227 0.972045
1.00213 0.995108 0.991437
1.00294 0.996831 0.986419
1.00403 0.994885 0.991385
1.0046 0.997434 0.990739
1.0043 0.995006 0.991473
1.0051 0.994789 0.990847
1.00528 0.994808 0.990479
1.0052 0.994902 0.990268
1.00524 0.994887 0.990479
1.00529 0.994885 0.990454
1.00523 0.994919 0.990372
1.00525 0.994913 0.990511
1.00524 0.99493 0.990623
1.0052 0.995033 0.99047
1.00522 0.995057 0.990486
1.00522 0.99571 0.990018
1.00519 0.995547 0.990191
1.00522 0.996546 0.989329
1.00526 0.998047 0.987859
1.00523 0.997649 0.988095
1.00526 0.998726 0.987105
1.0053 1.00006 0.985768
1.00482 1.00052 0.986033
1.0053 1.00049 0.985236
1.00528 0.999743 0.985903
1.00203 1.00148 0.989761
1.00443 1.00115 0.986036
1.00523 1.0011 0.984771
1.0006 1.00052 0.997253
1.00163 1.00208 0.989861
1.00367 1.00229 0.986207
1.00046 1.00033 0.997439
1.00112 1.00245 0.990434
1.0003 0.999983 0.997689
1.00525 1.00091 0.98474
1.00497 1.00189 0.984499
1.00494 1.00141 0.984899
1.00505 1.00194 0.985391
1.00386 1.00247 0.985807
1.00235 1.0041 0.98702
1.00171 1.00385 0.987471
1.00109 1.00504 0.987979
1.00032 1.00221 0.992093
1.00045 1.0048 0.989116
1.00006 1.00152 0.993112
0.999908 0.999107 0.998262
0.999997 1.00074 0.993934
0.999916 0.998398 0.998584
0.999947 0.997837 0.998828
1.00088 0.994868 0.98773
0.996758 0.994895 0.965509
0.999969 0.994886 0.947433
1.00507 0.998393 0.987447
1.00523 0.997957 0.987605
1.00516 0.99963 0.985866
1.00441 1.0016 0.986411
1.00489 1.00255 0.983906
1.00442 0.99927 0.987743
1.00511 0.995897 0.989148
1.0044 0.998185 0.989323
1.00421 0.996238 0.990515
1.00472 0.996106 0.990358
1.00513 0.99507 0.990611
1.00388 0.995502 0.992187
1.00327 0.995643 0.993044
1.00358 0.995184 0.992827
0.999867 0.99581 0.991106
0.995709 0.994859 0.964272
0.999129 0.995728 0.997642
1.00444 0.995194 0.990989
1.00127 0.996726 0.983403
0.997042 0.994879 0.967209
1.00174 0.99481 0.991873
1.00287 0.996242 0.987194
1.00407 0.994817 0.992012
1.00463 0.99663 0.990817
1.00528 0.99486 0.99077
1.00537 0.994928 0.990965
1.00509 0.994806 0.990739
1.0053 0.994827 0.99045
1.00531 0.994875 0.990465
1.00522 0.994882 0.990472
1.00529 0.994886 0.990474
1.00526 0.994892 0.990619
1.00524 0.994911 0.990516
1.00525 0.994929 0.990612
1.00524 0.995219 0.990516
1.00522 0.995055 0.990468
1.00522 0.995737 0.989998
1.00525 0.997324 0.988528
1.00522 0.996391 0.989496
1.00525 0.997973 0.987925
1.0053 0.999663 0.986152
1.00526 0.998689 0.987143
1.0053 0.999993 0.985847
1.00491 1.00031 0.986101
1.00237 1.00074 0.98988
1.00479 1.00057 0.986037
1.0053 1.0006 0.985138
1.00074 1.00058 0.997112
1.00207 1.00142 0.989754
1.00433 1.00133 0.986045
1.00066 1.00056 0.997186
1.00176 1.0019 0.989857
1.00055 1.00044 0.997315
1.00527 0.999278 0.986254
1.00523 1.00079 0.984902
1.00517 1.00101 0.984981
1.00517 1.00182 0.984418
1.00504 1.00133 0.984932
1.00327 1.00267 0.986722
1.00417 1.00244 0.985624
1.00222 1.004 0.987032
1.00061 1.00277 0.990972
1.00083 1.00511 0.988
1.00018 1.00237 0.992126
0.999973 0.999861 0.997926
1.00002 1.00156 0.993143
0.999865 0.999014 0.99836
0.999895 0.998309 0.998653
1.0043 0.994849 0.992156
1.00096 0.994863 0.985651
0.996602 0.994911 0.964602
1.00514 0.997264 0.988607
1.00505 0.997965 0.987736
1.00528 0.996694 0.988815
1.00523 0.997973 0.987581
1.00516 0.999431 0.986115
1.00522 0.995317 0.989759
1.0045 0.9992 0.988106
1.00512 0.996278 0.989107
1.00526 0.994879 0.990413
1.0046 0.99644 0.990594
1.00507 0.99516 0.990362
1.00372 0.995527 0.992406
1.0027 0.995928 0.992899
1.00028 0.995573 0.991092
1.00533 0.994907 0.990723
1.0044 0.996182 0.991175
1.00114 0.996965 0.983602
1.00402 0.994794 0.992623
1.00463 0.995842 0.990899
1.00527 0.994841 0.990838
1.00538 0.994923 0.990906
1.00533 0.994906 0.990804
1.00531 0.994848 0.990421
1.0053 0.994884 0.990478
1.00525 0.994909 0.990725
1.00528 0.994888 0.990494
1.00526 0.994894 0.990615
1.00526 0.994969 0.99078
1.00525 0.994927 0.9906
1.00523 0.995221 0.990491
1.00525 0.996597 0.989278
1.00523 0.995765 0.989978
1.00525 0.997344 0.988535
1.00531 0.999251 0.986593
1.00525 0.997898 0.987992
1.0053 0.999664 0.986176
1.00493 1.00025 0.986154
1.0053 0.999921 0.985926
1.00492 1.00032 0.986108
1.00245 1.00034 0.991704
1.00106 1.00018 0.993916
1.00241 1.00073 0.990664
1.00477 1.00062 0.986041
1.00076 1.0006 0.997083
1.0022 1.00123 0.989744
1.0007 1.00061 0.997123
1.00526 0.996475 0.989271
1.00527 0.998146 0.987553
1.00528 0.999281 0.98642
1.00526 1.00042 0.985407
1.00522 1.00069 0.985063
1.00521 1.00102 0.98493
1.00395 1.00147 0.986577
1.00515 1.00129 0.984965
1.00337 1.0023 0.98671
1.00123 1.00263 0.990061
1.0021 1.00395 0.987042
1.00056 1.00289 0.990965
1.00018 1.00056 0.997489
1.00007 1.00238 0.992156
0.999897 0.999649 0.998061
0.999847 0.998867 0.998445
1.00533 0.994873 0.990658
1.00453 0.994836 0.991909
1.00129 0.994856 0.983628
1.00525 0.995843 0.989544
1.0051 0.997209 0.988478
1.00508 0.997517 0.988031
1.00527 0.996841 0.988803
1.00523 0.997978 0.987557
1.00531 0.994907 0.99049
1.00523 0.995289 0.989775
1.00513 0.996673 0.989067
1.00524 0.994883 0.990432
1.00505 0.995233 0.990112
1.00368 0.99558 0.99263
1.0053 0.994931 0.990869
1.00535 0.994914 0.990903
1.00438 0.996836 0.991364
1.00526 0.994821 0.990895
1.0054 0.994919 0.990849
1.00533 0.994905 0.990765
1.00523 0.994949 0.990994
1.0053 0.994891 0.990491
1.00525 0.99491 0.990696
1.00525 0.994923 0.99094
1.00527 0.994894 0.990611
1.00526 0.994959 0.990759
1.00524 0.995981 0.989939
1.00523 0.995222 0.990467
1.00526 0.996623 0.989275
1.00532 0.998864 0.987032
1.00525 0.997363 0.988543
1.00531 0.99925 0.986616
1.00493 1.0002 0.986222
1.0053 0.999663 0.986202
1.00495 1.00023 0.986168
1.00255 1.00008 0.991823
1.00493 1.00032 0.986114
1.00264 1.00023 0.991593
1.0011 0.999978 0.994082
1.0008 1.00045 0.995548
1.0026 1.00067 0.991288
1.00077 1.00065 0.997066
1.00523 0.995533 0.99032
1.00525 0.997796 0.987923
1.00525 0.996286 0.989462
1.00531 0.999758 0.985984
1.00528 0.998215 0.987533
1.00528 0.999289 0.986586
1.00527 1.00043 0.985356
1.00456 1.00061 0.986374
1.00524 1.00104 0.984878
1.00407 1.00122 0.986573
1.00178 1.0019 0.989766
1.00347 1.00194 0.986703
1.00106 1.00279 0.990058
1.00035 1.00106 0.997165
1.00037 1.00303 0.99097
1.00002 1.0004 0.997665
0.999817 0.999519 0.998183
1.00529 0.994863 0.990727
1.00531 0.994872 0.990648
1.00463 0.994832 0.991647
1.00526 0.995003 0.990509
1.00524 0.995891 0.989545
1.00503 0.997168 0.988356
1.00526 0.996993 0.988793
1.00529 0.99493 0.990461
1.00524 0.995269 0.98979
1.00521 0.994887 0.990452
1.00525 0.994956 0.99099
1.00529 0.994929 0.990856
1.00536 0.994921 0.991082
1.00519 0.994966 0.991118
1.00533 0.994903 0.990725
1.00523 0.99495 0.990979
1.00521 0.994952 0.99106
1.00526 0.994911 0.990666
1.00525 0.994923 0.990933
1.00524 0.995592 0.990422
1.00525 0.99495 0.990738
1.00525 0.995997 0.989931
1.00529 0.998527 0.98746
1.00527 0.99665 0.989273
1.00531 0.998859 0.987051
1.00491 1.00013 0.98635
1.00531 0.999248 0.986639
1.00495 1.00018 0.986239
1.00258 1.00005 0.991792
1.00497 1.00021 0.986181
1.00271 1.00001 0.991687
1.00116 0.999867 0.994121
1.00282 1.00012 0.991491
1.00072 1.00015 0.994339
1.00026 1.00079 0.997499
1.00523 0.995416 0.990324
1.00526 0.997011 0.988835
1.00524 0.995615 0.990137
1.00533 0.999425 0.986416
1.00526 0.997492 0.98817
1.00525 0.996103 0.989653
1.00493 1.00006 0.986327
1.00531 0.999765 0.985946
1.00528 0.998278 0.987513
1.00528 1.00043 0.985304
1.00461 1.00051 0.986366
1.00212 1.0012 0.989866
1.00418 1.00097 0.98657
1.00165 1.00208 0.98978
1.00044 1.00118 0.997073
1.00101 1.00294 0.990046
1.00029 1.00091 0.997275
0.999926 1.00019 0.997827
1.00522 0.994892 0.990962
1.00528 0.994864 0.990705
1.00531 0.994871 0.99064
1.00526 0.995023 0.990529
1.00522 0.995937 0.989546
1.00528 0.994948 0.990431
1.00522 0.994957 0.991056
1.00525 0.994952 0.990995
1.00529 0.994926 0.990843
1.00519 0.994966 0.991119
1.00517 0.994954 0.991207
1.00524 0.994951 0.990965
1.00521 0.994953 0.991065
1.00524 0.99541 0.990685
1.00524 0.994923 0.990927
1.00523 0.995593 0.990419
1.00526 0.998252 0.98779
1.00527 0.996004 0.989923
1.00528 0.998516 0.987477
1.00488 1.00002 0.986531
1.00531 0.998854 0.98707
1.00493 1.00011 0.986365
1.00255 1.00014 0.991725
1.00497 1.00016 0.986255
1.00272 1 0.991642
1.00121 0.999886 0.994042
1.00285 0.999955 0.99156
1.00082 0.99992 0.994401
1.00035 1.00033 0.99458
1.00523 0.995037 0.990852
1.00526 0.996682 0.989163
1.00524 0.995266 0.990414
1.00532 0.998749 0.987142
1.00525 0.997129 0.988693
1.00526 0.995694 0.989953
1.00502 0.999879 0.986394
1.00533 0.999178 0.986589
1.00527 0.997191 0.988417
1.0024 1.00045 0.990101
1.00493 1.00004 0.98632
1.00531 0.999775 0.985907
1.00467 1.00041 0.986358
1.00207 1.00127 0.98988
1.00055 1.00108 0.997083
1.00152 1.00227 0.989796
1.00043 1.00111 0.9971
1.00015 1.00081 0.997414
1.00521 0.994917 0.991067
1.00522 0.994901 0.990925
1.00527 0.994865 0.990683
1.00527 0.995049 0.990548
1.0052 0.994958 0.991138
1.00521 0.994957 0.991063
1.00525 0.994949 0.991
1.00519 0.994967 0.99112
1.00517 0.994954 0.99119
1.00523 0.995762 0.990354
1.00521 0.994954 0.991069
1.00522 0.995644 0.990444
1.00527 0.997668 0.988434
1.00522 0.995603 0.990416
1.00526 0.998247 0.987796
1.00485 0.999856 0.986733
1.00527 0.998518 0.987492
1.00489 1 0.98654
1.00256 1.00022 0.990174
1.00494 1.00009 0.986381
1.00268 1.00011 0.990831
1.00103 0.999954 0.997101
1.00286 0.999969 0.991494
1.00089 0.999876 0.99433
1.0005 0.999959 0.994663
1.00523 0.995015 0.990968
1.00526 0.99619 0.98972
1.00523 0.995125 0.990763
1.00531 0.998293 0.987603
1.00526 0.996689 0.989129
1.00526 0.995115 0.990504
1.00501 0.999628 0.986596
1.00532 0.998742 0.987153
1.00525 0.997244 0.98855
1.00257 0.999934 0.990324
1.005 0.999784 0.986434
1.00532 0.998922 0.986763
1.00071 1.00069 0.99716
1.00241 1.00043 0.990109
1.00493 1.00001 0.986312
1.00201 1.00133 0.989896
1.00055 1.00101 0.997074
1.0004 1.00105 0.997133
1.00523 0.994955 0.991054
1.0052 0.99492 0.99107
1.00523 0.994909 0.990887
1.00524 0.995773 0.990321
1.00521 0.994958 0.991144
1.0052 0.994957 0.99107
1.00518 0.994954 0.991173
1.00523 0.995755 0.990356
1.0053 0.997745 0.988401
1.00521 0.995876 0.990202
1.00528 0.997981 0.988102
1.00482 0.999461 0.987138
1.00526 0.998229 0.987804
1.00486 0.999846 0.986733
1.00253 1.00015 0.990298
1.0049 0.999988 0.98655
1.00257 1.0002 0.990179
1.00099 1.00001 0.997088
1.00271 1.00009 0.990062
1.0009 0.999955 0.995732
1.00059 0.999846 0.994617
1.00527 0.994961 0.9909
1.00528 0.996087 0.989893
1.00523 0.99498 0.990977
1.0053 0.998399 0.987525
1.00526 0.996274 0.98964
1.00523 0.995213 0.990673
1.00497 0.999551 0.986757
1.0053 0.99854 0.987377
1.00525 0.996693 0.989095
1.00264 0.999783 0.990366
1.00498 0.999617 0.98661
1.00532 0.998738 0.987164
1.0009 1.00025 0.997191
1.0026 0.999909 0.990328
1.00498 0.999685 0.986471
1.00072 1.00068 0.997124
1.00242 1.00042 0.990117
1.0005 1.00099 0.997088
1.00523 0.995806 0.99026
1.00523 0.994968 0.991036
1.00519 0.994923 0.991074
1.00528 0.997692 0.988486
1.00524 0.995759 0.990325
1.00521 0.994957 0.99115
1.00523 0.995748 0.990359
1.0053 0.997719 0.988408
1.00477 0.999316 0.987366
1.00529 0.998299 0.98777
1.00484 0.999572 0.987023
1.00249 1.00004 0.990471
1.00487 0.999834 0.986733
1.00251 1.00016 0.990305
1.00093 1.00002 0.997083
1.00256 1.00018 0.990183
1.00097 1.00002 0.99708
1.00099 0.999917 0.994108
1.00528 0.996054 0.989878
1.00528 0.994953 0.990886
1.00528 0.998192 0.987792
1.00528 0.996088 0.989903
1.00523 0.994943 0.990986
1.00491 0.999737 0.986766
1.0053 0.998407 0.98752
1.00526 0.996358 0.989561
1.00265 0.999848 0.990326
1.00494 0.999674 0.98668
1.0053 0.998792 0.98715
1.00102 1 0.997151
1.00267 0.999778 0.990365
1.00496 0.999599 0.986623
1.00088 1.00029 0.997182
1.00262 0.9999 0.990332
1.00073 1.00067 0.997092
1.00525 0.997743 0.988433
1.00523 0.995839 0.990243
1.00524 0.994995 0.991018
1.00475 0.999249 0.987478
1.00529 0.997669 0.988492
1.00523 0.995748 0.99033
1.0053 0.997697 0.988415
1.00479 0.999307 0.987337
1.0024 0.99999 0.990667
1.00485 0.999682 0.986908
1.00247 1.00005 0.990478
1.00091 1.00002 0.997106
1.0025 1.00017 0.990312
1.00092 1.00004 0.997095
1.00096 1.00003 0.997079
1.00526 0.998014 0.988031
1.00528 0.995879 0.990098
1.00529 0.994927 0.990872
1.00484 0.999664 0.986976
1.00528 0.9982 0.987783
1.00527 0.996093 0.989914
1.00259 0.999963 0.990353
1.00488 0.999756 0.986762
1.00529 0.998414 0.987515
1.00104 0.999936 0.997097
1.00266 0.999863 0.990323
1.00492 0.999793 0.986602
1.001 1.00005 0.997169
1.00268 0.99979 0.990365
1.0009 1.0003 0.997163
1.00474 0.999514 0.987272
1.00526 0.997606 0.988546
1.00523 0.995858 0.990226
1.00237 0.999918 0.990826
1.00475 0.999236 0.987466
1.00529 0.997642 0.988499
1.00481 0.999294 0.987308
1.00241 0.999966 0.990674
1.00086 1.00002 0.997128
1.00245 1.00006 0.990485
1.00089 1.00003 0.997109
1.00088 1.00006 0.997103
1.00478 0.999575 0.987173
1.00527 0.99783 0.988234
1.00527 0.995718 0.990317
1.0026 1 0.991815
1.00482 0.999672 0.986977
1.00529 0.998209 0.987774
1.00098 0.999958 0.997081
1.00259 0.999981 0.99035
1.00486 0.999776 0.986757
1.00104 0.999963 0.997118
1.00267 0.999884 0.99032
1.00099 1.00007 0.997181
1.00245 0.999917 0.990737
1.00474 0.999385 0.987369
1.00526 0.997465 0.98866
1.00079 0.999986 0.99718
1.00235 0.999917 0.990821
1.00477 0.999225 0.987455
1.00241 0.999943 0.990678
1.00083 1.00001 0.997145
1.00087 1.00004 0.997118
1.0026 0.999961 0.991927
1.00477 0.999578 0.987172
1.00527 0.997643 0.988437
1.00047 0.999998 0.997579
1.0025 1.00001 0.990499
1.0048 0.999676 0.986979
1.001 0.999968 0.997092
1.00259 1 0.990347
1.00104 0.999983 0.997137
1.00078 0.999959 0.994448
1.00247 0.999918 0.991412
1.00474 0.999255 0.987465
1.00082 0.999989 0.997185
1.00236 0.999919 0.990824
1.00085 0.999999 0.997157
1.00033 0.999988 0.994882
1.0025 0.99995 0.991312
1.00475 0.999586 0.98717
1.00067 0.999988 0.995936
1.00249 1.00001 0.990516
1.00102 0.999976 0.997105
1.00081 0.999976 0.99718
1.00235 0.99991 0.990837
1.00078 0.999991 0.997183
1.00058 0.999972 0.996038
1.00241 0.999943 0.990728
1.00093 0.999983 0.99711
1.00082 0.999975 0.997192
1.00083 0.999978 0.997158

TENSORS stress float
0.00202415 -0.000133385 0.000231294
-0.000133385 0.000915085 -3.70015e-05
0.000231294 -3.70015e-05 0.000890582
0.00628516 3.48537e-06 0.000251874
3.48537e-06 0.00355819 2.728e-05
0.000251874 2.728e-05 0.00355662
0.00172815 -6.526e-05 9.97096e-05
-6.526e-05 0.000732934 -1.47657e-05
9.97096e-05 -1.47657e-05 0.000698178
0.00208373 -7.67626e-05 0.000226349
-7.67626e-05 0.000927169 -2.17473e-05
0.000226349 -2.17473e-05 0.000910547
0.00207747 -0.000118107 0.000226522
-0.000118107 0.0009381 -3.26742e-05
0.000226522 -3.26742e-05 0.000916644
0.00196609 -0.000133634 0.000237872
-0.000133634 0.000880698 -3.80411e-05
0.000237872 -3.80411e-05 0.000856868
0.00171922 -0.000118537 4.30556e-05
-0.000118537 0.000642124 -1.22297e-05
4.30556e-05 -1.22297e-05 0.000540248
0.00620964 -5.20782e-06 -6.98803e-06
-5.20782e-06 0.00350197 -8.1313e-07
-6.98803e-06 -8.1313e-07 0.00350524
0.0061373 0.000170214 0.000126235
0.000170214 0.00344359 1.09143e-05
0.000126235 1.09143e-05 0.00342203
0.00600921 -8.52422e-05 6.04033e-05
-8.52422e-05 0.00336766 2.93327e-06
6.04033e-05 2.93327e-06 0.0033458
0.00177799 0.000170844 0.000239797
0.000170844 0.000755673 2.7523e-05
0.000239797 2.7523e-05 0.000751796
0.000547108 0.00023842 2.62399e-05
0.00023842 -5.2434e-05 1.82363e-05
2.62399e-05 1.82363e-05 -0.000171391
0.00173582 -3.45739e-05 0.000227674
-3.45739e-05 0.000708687 3.56016e-06
0.000227674 3.56016e-06 0.000707076
0.00140215 -1.60733e-06 5.46088e-05
-1.60733e-06 0.000525944 1.50488e-06
5.46088e-05 1.50488e-06 0.000483165
0.0014825 -6.39496e-05 -4.84199e-05
-6.39496e-05 0.000588229 8.52341e-06
-4.84199e-05 8.52341e-06 0.000540931
0.00173922 -7.79211e-05 7.52743e-05
-7.79211e-05 0.000730887 -4.47394e-06
7.52743e-05 -4.47394e-06 0.00069916
0.00173061 -5.12758e-05 0.0001079
-5.12758e-05 0.000742039 -1.54255e-05
0.0001079 -1.54255e-05 0.000703583
0.00174115 -7.57516e-05 8.88031e-05
-7.57516e-05 0.00073266 -1.16591e-05
8.88031e-05 -1.16591e-05 0.000701337
0.00177271 -0.000155311 -3.75284e-05
-0.000155311 0.000671224 4.97257e-06
-3.75284e-05 4.97257e-06 0.00057829
0.00591186 -0.000131877 0.000289515
-0.000131877 0.00331466 -1.11918e-05
0.000289515 -1.11918e-05 0.00332805
0.00202477 -5.54863e-05 0.000225463
-5.54863e-05 0.000890147 -1.61902e-05
0.000225463 -1.61902e-05 0.000875628
0.0021072 -9.88352e-05 0.00022617
-9.88352e-05 0.000946968 -2.74486e-05
0.00022617 -2.74486e-05 0.000928428
0.00169177 -0.000126958 6.41138e-05
-0.000126958 0.000610577 -9.71268e-06
6.41138e-05 -9.71268e-06 0.0005204
0.00171762 -0.000127323 5.25879e-05
-0.000127323 0.000628825 -1.16107e-05
5.25879e-05 -1.16107e-05 0.000534405
0.00190454 -0.000109465 0.000235562
-0.000109465 0.000835183 -3.45785e-05
0.000235562 -3.45785e-05 0.000815193
0.00169869 -0.00011131 3.51898e-05
-0.00011131 0.000648961 -1.30624e-05
3.51898e-05 -1.30624e-05 0.000536818
0.0020604 -0.000283662 1.61059e-05
-0.000283662 0.000666363 -7.06171e-06
1.61059e-05 -7.06171e-06 0.000481238
0.00620554 -1.99218e-05 -0.000250291
-1.99218e-05 0.00349009 -1.81196e-05
-0.000250291 -1.81196e-05 0.00349807
0.00396764 0.000130417 -0.000132633
0.000130417 0.00210587 -1.39355e-05
-0.000132633 -1.39355e-05 0.00208507
0.00385362 3.4393e-05 -0.000128142
3.4393e-05 0.00204968 -1.06272e-05
-0.000128142 -1.06272e-05 0.00202846
0.00612195 -7.44136e-05 -3.83889e-06
-7.44136e-05 0.00346034 -1.75498e-08
-3.83889e-06 -1.75498e-08 0.0034581
0.000499579 0.000218717 -1.54679e-06
0.000218717 -7.89502e-05 -1.00881e-06
-1.54679e-06 -1.00881e-06 -0.00019755
0.00176433 6.36714e-05 0.000231997
6.36714e-05 0.000731134 2.02368e-05
0.000231997 2.02368e-05 0.00071756
0.00189387 0.000148944 0.00023645
0.000148944 0.000842101 3.1232e-05
0.00023645 3.1232e-05 0.000818486
0.00275298 0.000198332 0.000142768
0.000198332 0.00125922 1.97213e-05
0.000142768 1.97213e-05 0.00118282
0.00538826 -0.000341622 -7.57259e-06
-0.000341622 0.00308264 7.04494e-06
-7.57259e-06 7.04494e-06 0.00301587
0.00286149 0.000265839 0.000145157
0.000265839 0.00136412 2.41669e-05
0.000145157 2.41669e-05 0.00127541
0.000485667 0.000198922 2.71719e-05
0.000198922 -8.73036e-05 2.33449e-05
2.71719e-05 2.33449e-05 -0.000203064
0.000844091 0.000216775 1.2007e-05
0.000216775 1.6215e-05 5.99759e-06
1.2007e-05 5.99759e-06 -0.000178552
0.00414193 -0.000105144 0.000154384
-0.000105144 0.00226753 1.10316e-05
0.000154384 1.10316e-05 0.00226893
0.00591902 7.8204e-05 3.59865e-06
7.8204e-05 0.00330677 -1.70018e-06
3.59865e-06 -1.70018e-06 0.00332669
0.00380421 8.16021e-05 -0.000110601
8.16021e-05 0.00200164 -4.65382e-06
-0.000110601 -4.65382e-06 0.00198957
0.0057811 5.88087e-05 0.000282838
5.88087e-05 0.00322481 3.87471e-06
0.000282838 3.87471e-06 0.00324513
0.00137482 8.4353e-05 5.74969e-05
8.4353e-05 0.000509938 3.65648e-06
5.74969e-05 3.65648e-06 0.000471906
0.000571023 1.07229e-05 1.56877e-05
1.07229e-05 -0.000110085 1.83224e-06
1.56877e-05 1.83224e-06 -0.00019138
0.00598306 0.000219228 0.000158135
0.000219228 0.0033734 1.47929e-05
0.000158135 1.47929e-05 0.00334895
0.00277582 7.07824e-05 0.000135524
7.07824e-05 0.00124187 8.45886e-06
0.000135524 8.45886e-06 0.00118586
0.00134559 -8.0775e-05 -6.85546e-05
-8.0775e-05 0.000505316 8.5376e-06
-6.85546e-05 8.5376e-06 0.000457681
0.00139175 -9.65978e-05 -6.10594e-05
-9.65978e-05 0.000536614 1.01695e-05
-6.10594e-05 1.01695e-05 0.000487186
0.00155128 -1.90984e-05 -3.65738e-05
-1.90984e-05 0.000632581 7.73233e-06
-3.65738e-05 7.73233e-06 0.000584058
0.00180647 -0.000159312 -0.000124859
-0.000159312 0.00068468 2.20693e-05
-0.000124859 2.20693e-05 0.000601545
0.00370573 -9.81055e-06 -0.00011371
-9.81055e-06 0.00194998 -1.89342e-06
-0.00011371 -1.89342e-06 0.00193678
0.00171201 -6.02577e-05 8.08044e-05
-6.02577e-05 0.000710091 -3.662e-06
8.08044e-05 -3.662e-06 0.00068184
0.00167868 -2.8296e-05 0.000111347
-2.8296e-05 0.000713182 -1.36198e-05
0.000111347 -1.36198e-05 0.000673863
0.00174824 -7.81361e-05 8.06645e-05
-7.81361e-05 0.000734474 -7.73527e-06
8.06645e-05 -7.73527e-06 0.000703725
0.00175885 -0.00010562 -3.0106e-05
-0.00010562 0.000642226 1.85461e-06
-3.0106e-05 1.85461e-06 0.000562143
0.00175336 -0.00015418 -4.33186e-05
-0.00015418 0.000672433 5.51029e-06
-4.33186e-05 5.51029e-06 0.000572987
0.00177312 -0.000146051 -3.22105e-05
-0.000146051 0.000662003 3.52436e-06
-3.22105e-05 3.52436e-06 0.00057448
0.00204129 -0.000282816 -8.85498e-06
-0.000282816 0.000650486 2.37474e-06
-8.85498e-06 2.37474e-06 0.000465556
0.0057578 1.74188e-05 0.000277581
1.74188e-05 0.0032092 -1.30414e-06
0.000277581 -1.30414e-06 0.00323054
0.00197609 -3.29392e-05 0.000223105
-3.29392e-05 0.000862889 -1.10963e-05
0.000223105 -1.10963e-05 0.000851313
0.00243543 -3.75945e-07 4.71194e-05
-3.75945e-07 0.00105595 -8.73262e-07
4.71194e-05 -8.73262e-07 0.000990323
0.00166958 -0.000103138 5.70099e-05
-0.000103138 0.000590499 -6.49734e-06
5.70099e-05 -6.49734e-06 0.000507229
0.00170631 -0.000129143 5.99917e-05
-0.000129143 0.000618595 -1.10178e-05
5.99917e-05 -1.10178e-05 0.000526846
0.0018928 -0.000181325 1.1423e-05
-0.000181325 0.000494625 -2.88631e-06
1.1423e-05 -2.88631e-06 0.000343477
0.00181697 -0.000243423 1.64846e-05
-0.000243423 0.000479571 -5.56634e-06
1.64846e-05 -5.56634e-06 0.000307729
0.00174194 -6.71353e-05 0.000214637
-6.71353e-05 0.000734208 -2.69189e-05
0.000214637 -2.69189e-05 0.000718538
0.00158903 -7.42298e-05 2.58933e-05
-7.42298e-05 0.000601722 -1.27132e-05
2.58933e-05 -1.27132e-05 0.000488711
0.0020633 -0.000305186 1.59033e-05
-0.000305186 0.000710342 -8.07921e-06
1.59033e-05 -8.07921e-06 0.000513462
0.00151505 -0.000347007 6.06908e-06
-0.000347007 0.000143159 -1.25118e-06
6.06908e-06 -1.25118e-06 -8.74073e-05
0.00645169 0.00022817 -0.000306254
0.00022817 0.00363839 -3.16006e-05
-0.000306254 -3.16006e-05 0.00364266
0.00597082 -9.90971e-05 -0.000220468
-9.90971e-05 0.00336875 -1.44434e-05
-0.000220468 -1.44434e-05 0.00336764
0.00624373 5.68631e-05 -0.000266107
5.68631e-05 0.0035044 -2.21922e-05
-0.000266107 -2.21922e-05 0.00351624
0.000466929 0.00021295 -2.49934e-05
0.00021295 -9.4702e-05 -1.8754e-05
-2.49934e-05 -1.8754e-05 -0.00021551
0.00641804 0.000216979 -2.55598e-06
0.000216979 0.00361438 -2.21749e-06
-2.55598e-06 -2.21749e-06 0.00362154
0.0064539 0.000171046 -8.9175e-06
0.000171046 0.00363493 -2.41234e-06
-8.9175e-06 -2.41234e-06 0.00364169
0.000415961 0.00012812 1.40373e-07
0.00012812 -0.000182462 -2.89471e-07
1.40373e-07 -2.89471e-07 -0.000286804
0.00336797 -0.00011416 -9.93793e-05
-0.00011416 0.00178957 -3.46444e-06
-9.93793e-05 -3.46444e-06 0.00175685
0.000425258 0.000200443 -2.79869e-08
0.000200443 -0.000132044 -4.35358e-07
-2.79869e-08 -4.35358e-07 -0.000250727
0.00168903 0.000202587 5.0535e-05
0.000202587 0.000657619 2.64266e-06
5.0535e-05 2.64266e-06 0.000561087
0.000854375 0.000214993 2.49311e-07
0.000214993 2.22478e-05 8.73831e-09
2.49311e-07 8.73831e-09 -0.000171057
0.0050958 -0.000124747 0.000187768
-0.000124747 0.00286059 1.65323e-05
0.000187768 1.65323e-05 0.00285351
0.000508763 2.60091e-05 1.06316e-05
2.60091e-05 -9.14484e-06 1.21099e-05
1.06316e-05 1.21099e-05 -7.09216e-05
0.000513339 9.79504e-05 1.5839e-05
9.79504e-05 -0.000143074 9.59955e-06
1.5839e-05 9.59955e-06 -0.000241756
0.000555731 0.000156049 2.06975e-05
0.000156049 -8.24289e-05 1.69431e-05
2.06975e-05 1.69431e-05 -0.000193568
0.00107056 0.000206334 1.47585e-05
0.000206334 -8.51448e-07 5.31392e-06
1.47585e-05 5.31392e-06 -0.000179066
0.00286937 0.00015959 0.000125674
0.00015959 0.00140427 1.68706e-05
0.000125674 1.68706e-05 0.00133355
0.000914926 0.000223941 1.38034e-05
0.000223941 8.38064e-07 6.61693e-06
1.38034e-05 6.61693e-06 -0.000189871
0.000911054 0.000223747 1.16502e-05
0.000223747 0.000123272 5.73804e-06
1.16502e-05 5.73804e-06 -7.76765e-05
0.0010707 0.000315901 1.94314e-06
0.000315901 7.13186e-05 -8.34731e-08
1.94314e-06 -8.34731e-08 -0.000179348
0.00322908 -0.000120222 9.39483e-05
-0.000120222 0.00169686 4.61961e-06
9.39483e-05 4.61961e-06 0.00169676
0.00378622 -0.000153591 1.74191e-05
-0.000153591 0.00205589 -2.72967e-07
1.74191e-05 -2.72967e-07 0.00204578
0.00625893 4.964e-05 -0.000294474
4.964e-05 0.00350393 -1.38849e-05
-0.000294474 -1.38849e-05 0.00352247
0.00600391 6.88979e-05 -0.000291587
6.88979e-05 0.00335542 -8.56946e-06
-0.000291587 -8.56946e-06 0.00337635
0.0058702 8.41783e-05 4.80004e-09
8.41783e-05 0.00328496 -3.47797e-06
4.80004e-09 -3.47797e-06 0.00330172
0.0037109 2.66407e-05 -0.000122869
2.66407e-05 0.00194312 -6.01513e-06
-0.000122869 -6.01513e-06 0.00193568
0.00162565 3.71215e-05 5.85653e-05
3.71215e-05 0.000540479 1.44609e-06
5.85653e-05 1.44609e-06 0.000474741
0.00394868 0.000136917 -0.000113178
0.000136917 0.00209511 -6.36779e-06
-0.000113178 -6.36779e-06 0.00207612
0.0016719 8.83367e-05 5.90334e-05
8.83367e-05 0.00056618 2.76577e-06
5.90334e-05 2.76577e-06 0.000491917
0.00583417 0.00012826 0.000285961
0.00012826 0.00327219 7.05026e-06
0.000285961 7.05026e-06 0.00328356
0.000484827 1.06616e-05 1.87815e-05
1.06616e-05 -0.000158077 8.50883e-07
1.87815e-05 8.50883e-07 -0.000236676
0.00278068 3.55915e-05 0.000134474
3.55915e-05 0.00124585 5.76498e-06
0.000134474 5.76498e-06 0.00119459
0.0010795 5.30633e-05 1.23183e-05
5.30633e-05 -2.35498e-05 9.56227e-07
1.23183e-05 9.56227e-07 -0.000154031
0.00270925 0.000114306 0.000140032
0.000114306 0.00120629 1.10598e-05
0.000140032 1.10598e-05 0.00114449
0.00113215 0.000121566 1.22073e-05
0.000121566 -3.13461e-06 2.1185e-06
1.22073e-05 2.1185e-06 -0.000149983
0.00177232 4.28586e-05 -0.000227123
4.28586e-05 0.000731028 2.47912e-06
-0.000227123 2.47912e-06 0.000730718
0.00136215 -1.09883e-05 -5.53502e-05
-1.09883e-05 0.000507363 2.36233e-06
-5.53502e-05 2.36233e-06 0.000464709
0.00152488 1.74007e-05 -2.8233e-05
1.74007e-05 0.000621857 7.60773e-06
-2.8233e-05 7.60773e-06 0.000571527
0.00134908 -9.43968e-05 -6.95065e-05
-9.43968e-05 0.000509964 1.02883e-05
-6.95065e-05 1.02883e-05 0.000461299
0.00187848 -8.50458e-05 -0.000120379
-8.50458e-05 0.000706279 1.0942e-05
-0.000120379 1.0942e-05 0.000636386
0.00185593 -0.000134674 -0.000122123
-0.000134674 0.000703421 1.8611e-05
-0.000122123 1.8611e-05 0.000626504
0.00176144 -0.000171141 -0.000127472
-0.000171141 0.000668971 2.36533e-05
-0.000127472 2.36533e-05 0.000580024
0.00201151 -0.000280925 -3.11496e-05
-0.000280925 0.000628404 1.07888e-05
-3.11496e-05 1.07888e-05 0.000444024
0.00586537 -9.84185e-05 2.26381e-06
-9.84185e-05 0.00328529 -1.77894e-06
2.26381e-06 -1.77894e-06 0.00330002
0.00163523 3.51234e-05 8.85089e-05
3.51234e-05 0.000657812 -4.07133e-06
8.85089e-05 -4.07133e-06 0.000636194
0.0011459 -7.57086e-06 -6.15123e-05
-7.57086e-06 0.000251974 1.64333e-06
-6.15123e-05 1.64333e-06 0.000184757
0.00173654 -6.75062e-05 -3.34161e-05
-6.75062e-05 0.000625184 2.46509e-06
-3.34161e-05 2.46509e-06 0.000550104
0.00399334 -4.42688e-06 0.000220799
-4.42688e-06 0.00214575 -1.11296e-05
0.000220799 -1.11296e-05 0.00213568
0.00226862 -0.000153051 -3.86918e-05
-0.000153051 0.00100394 2.58377e-06
-3.86918e-05 2.58377e-06 0.000903371
0.00177262 -0.000127863 -2.96818e-05
-0.000127863 0.000654812 2.43433e-06
-2.96818e-05 2.43433e-06 0.000571381
0.00190092 -0.000179164 -9.75724e-06
-0.000179164 0.000495705 1.7294e-06
-9.75724e-06 1.7294e-06 0.000346214
0.00202256 -0.000305451 -7.58406e-06
-0.000305451 0.000680653 2.25759e-06
-7.58406e-06 2.25759e-06 0.000483027
0.00192629 -0.000248299 -6.84365e-06
-0.000248299 0.000547886 1.79183e-06
-6.84365e-06 1.79183e-06 0.000375527
0.00154516 -0.0003484 5.51618e-07
-0.0003484 0.000162818 -1.81793e-07
5.51618e-07 -1.81793e-07 -6.72211e-05
0.000520026 1.11401e-05 1.94337e-05
1.11401e-05 -0.000139564 -8.57406e-07
1.94337e-05 -8.57406e-07 -0.000214977
0.00159459 3.4487e-06 4.79295e-05
3.4487e-06 0.000535926 -2.60573e-06
4.79295e-05 -2.60573e-06 0.000462594
0.00174057 -5.41159e-05 1.15103e-05
-5.41159e-05 0.000390923 -7.36193e-07
1.15103e-05 -7.36193e-07 0.000272136
0.00175236 -0.000139893 1.15838e-05
-0.000139893 0.000397665 -1.83715e-06
1.15838e-05 -1.83715e-06 0.000258679
0.0017948 -0.000210536 1.42364e-05
-0.000210536 0.000440604 -3.9425e-06
1.42364e-05 -3.9425e-06 0.000280907
0.0018418 -0.000248139 4.54686e-07
-0.000248139 0.000227318 -2.12902e-07
4.54686e-07 -2.12902e-07 5.9645e-05
0.00561346 0.000148475 0.000181194
0.000148475 0.00317787 -1.34398e-05
0.000181194 -1.34398e-05 0.00316341
0.00153823 -0.000319335 4.93456e-06
-0.000319335 0.000112164 -9.58988e-07
4.93456e-06 -9.58988e-07 -9.77973e-05
0.000326922 -0.000158911 2.07545e-05
-0.000158911 -0.000185652 -1.88202e-05
2.07545e-05 -1.88202e-05 -0.000286847
0.000870013 -0.000228162 1.2377e-05
-0.000228162 2.78191e-05 -8.5473e-06
1.2377e-05 -8.5473e-06 -0.00016957
0.00154816 -0.000382646 7.01116e-06
-0.000382646 0.000222924 -2.02512e-06
7.01116e-06 -2.02512e-06 -3.27982e-05
0.00178267 -0.000422133 2.93828e-06
-0.000422133 0.000191683 1.46775e-06
2.93828e-06 1.46775e-06 -3.80028e-05
0.00047093 -0.00011145 1.93825e-05
-0.00011145 -5.53861e-05 -1.52499e-05
1.93825e-05 -1.52499e-05 -0.0001404
0.000434231 -8.96762e-05 -8.86959e-07
-8.96762e-05 -2.53521e-05 -4.26061e-06
-8.86959e-07 -4.26061e-06 -0.000231378
0.00646324 0.000238252 -0.000317402
0.000238252 0.00364778 -3.08291e-05
-0.000317402 -3.08291e-05 0.00365187
0.00636445 0.000154912 -0.000287523
0.000154912 0.00357822 -2.77613e-05
-0.000287523 -2.77613e-05 0.0035884
0.000417587 0.00012467 -1.85631e-05
0.00012467 -0.000183221 -1.17976e-05
-1.85631e-05 -1.17976e-05 -0.00028771
0.00539156 -0.000169788 -0.00017103
-0.000169788 0.00304508 -1.20713e-05
-0.00017103 -1.20713e-05 0.00302983
0.000455315 0.00017793 -2.34829e-05
0.00017793 -0.000104052 -1.75274e-05
-2.34829e-05 -1.75274e-05 -0.000205904
0.000403974 0.000185836 -2.09218e-05
0.000185836 -0.000142739 -1.72748e-05
-2.09218e-05 -1.72748e-05 -0.000262614
0.00081323 0.000208923 -1.30662e-05
0.000208923 -1.44167e-06 -6.34926e-06
-1.30662e-05 -6.34926e-06 -0.000192631
0.00475479 -0.000141047 9.44469e-06
-0.000141047 0.00265345 -4.58931e-07
9.44469e-06 -4.58931e-07 0.00264489
0.000530261 1.26189e-05 1.38233e-06
1.26189e-05 8.62599e-06 5.31546e-07
1.38233e-06 5.31546e-07 -5.01295e-05
0.00167017 0.000135635 6.06296e-05
0.000135635 0.000573383 4.90664e-06
6.06296e-05 4.90664e-06 0.0004881
0.00163546 0.000193442 5.99982e-05
0.000193442 0.000588418 5.18222e-06
5.99982e-05 5.18222e-06 0.0004899
0.00103669 0.000204767 7.88837e-08
0.000204767 -1.5574e-05 -2.71658e-07
7.88837e-08 -2.71658e-07 -0.000194292
0.000496896 0.000145554 -2.19132e-07
0.000145554 -6.06069e-05 -2.24399e-07
-2.19132e-07 -2.24399e-07 -0.000149247
0.000909588 0.000220761 7.38919e-07
0.000220761 4.48039e-06 7.88757e-08
7.38919e-07 7.88757e-08 -0.000185277
0.000813279 0.00021286 1.99758e-07
0.00021286 6.12375e-05 -9.09253e-07
1.99758e-07 -9.09253e-07 -0.000136674
0.00120853 0.000334202 3.05286e-07
0.000334202 0.000151311 -2.8213e-07
3.05286e-07 -2.8213e-07 -0.000102358
0.000482184 9.58603e-05 1.7331e-05
9.58603e-05 -3.67249e-05 1.4522e-05
1.7331e-05 1.4522e-05 -0.000116623
0.000592178 -2.11092e-05 4.47855e-06
-2.11092e-05 4.58312e-05 1.00793e-05
4.47855e-06 1.00793e-05 5.59486e-07
0.00123107 0.00013656 3.60781e-06
0.00013656 0.000461734 6.05576e-06
3.60781e-06 6.05576e-06 0.000283191
0.00111808 0.000183019 1.38599e-05
0.000183019 1.11752e-06 4.12145e-06
1.38599e-05 4.12145e-06 -0.000167527
0.00100391 0.000222238 1.47825e-05
0.000222238 3.21312e-07 6.23625e-06
1.47825e-05 6.23625e-06 -0.000185855
0.00168012 0.000342123 4.37912e-06
0.000342123 0.000180974 4.35286e-07
4.37912e-06 4.35286e-07 -3.44338e-05
0.000811373 0.000220645 9.1204e-06
0.000220645 0.00012983 6.25311e-06
9.1204e-06 6.25311e-06 -7.02663e-05
0.00148552 0.000376033 3.56106e-06
0.000376033 0.000226577 1.02866e-07
3.56106e-06 1.02866e-07 -2.37719e-05
0.00111671 0.000308893 3.54659e-06
0.000308893 0.000160284 9.62215e-07
3.54659e-06 9.62215e-07 -9.73377e-05
0.00141704 0.000419764 -6.05194e-06
0.000419764 0.000195873 -3.20398e-06
-6.05194e-06 -3.20398e-06 -8.36107e-05
0.00281896 -0.000127244 5.3013e-05
-0.000127244 0.00143772 3.3491e-06
5.3013e-05 3.3491e-06 0.0014358
0.00312025 -0.00014948 1.21247e-05
-0.00014948 0.00163452 -8.28655e-07
1.21247e-05 -8.28655e-07 0.00162629
0.00348968 -0.000178326 -6.95681e-05
-0.000178326 0.00187689 -4.06016e-06
-6.95681e-05 -4.06016e-06 0.00185968
0.000400863 -8.17817e-05 1.47306e-05
-8.17817e-05 -8.20374e-05 -1.35226e-05
1.47306e-05 -1.35226e-05 -0.000152633
0.00498784 0.000182343 0.000143413
0.000182343 0.00281883 -1.4222e-05
0.000143413 -1.4222e-05 0.00279395
0.00641443 0.000205291 -0.00031796
0.000205291 0.00361335 -2.59581e-05
-0.00031796 -2.59581e-05 0.00362242
0.00606609 8.61319e-05 -0.000291651
8.61319e-05 0.00339096 -1.19479e-05
-0.000291651 -1.19479e-05 0.00341054
0.000494224 9.59808e-05 -1.97172e-05
9.59808e-05 -0.00015752 -5.36807e-06
-1.97172e-05 -5.36807e-06 -0.00024639
0.000482002 4.29275e-05 -1.92956e-05
4.29275e-05 -0.000159931 -2.69832e-06
-1.92956e-05 -2.69832e-06 -0.000241973
0.00581497 -8.10543e-06 -0.000279797
-8.10543e-06 0.00324174 -2.22833e-06
-0.000279797 -2.22833e-06 0.00326366
0.00576978 1.03037e-05 -2.32006e-07
1.03037e-05 0.00321536 -8.48796e-07
-2.32006e-07 -8.48796e-07 0.00323722
0.00046697 7.81617e-07 -1.12844e-07
7.81617e-07 -0.000171759 1.0583e-07
-1.12844e-07 1.0583e-07 -0.000248524
0.00161231 3.75541e-05 5.88811e-05
3.75541e-05 0.000528147 2.47518e-06
5.88811e-05 2.47518e-06 0.000460841
0.00103991 5.64193e-05 -8.71526e-08
5.64193e-05 -4.94084e-05 -1.57183e-07
-8.71526e-08 -1.57183e-07 -0.000180583
0.000456045 8.15372e-05 -4.03631e-07
8.15372e-05 -0.000179252 -3.86996e-07
-4.03631e-07 -3.86996e-07 -0.000273756
0.00107077 0.000122383 -2.27218e-07
0.000122383 -4.0875e-05 -1.2219e-07
-2.27218e-07 -1.2219e-07 -0.000188731
0.000460712 -3.08033e-05 1.93436e-05
-3.08033e-05 -0.000177255 -7.36656e-07
1.93436e-05 -7.36656e-07 -0.000251608
0.00104078 2.24018e-05 1.20236e-05
2.24018e-05 -3.9386e-05 4.9682e-07
1.20236e-05 4.9682e-07 -0.000166188
0.0010836 8.69108e-05 1.19882e-05
8.69108e-05 -2.70046e-05 1.67895e-06
1.19882e-05 1.67895e-06 -0.000164401
0.00168675 8.98981e-05 -7.57944e-07
8.98981e-05 7.54187e-05 -2.39998e-07
-7.57944e-07 -2.39998e-07 -4.07738e-05
0.00114136 0.000153484 1.29407e-05
0.000153484 3.08422e-06 2.91196e-06
1.29407e-05 2.91196e-06 -0.000154618
0.00175428 0.000201346 7.89211e-07
0.000201346 0.000110045 -6.31163e-07
7.89211e-07 -6.31163e-07 -3.46256e-05
0.0057889 -5.93239e-05 -0.000284999
-5.93239e-05 0.0032325 2.13251e-06
-0.000284999 2.13251e-06 0.00325124
0.0013152 -0.000150311 -5.69704e-05
-0.000150311 0.000490321 6.54923e-06
-5.69704e-05 6.54923e-06 0.000444743
-0.000260174 -4.7709e-06 -1.24483e-05
-4.7709e-06 -0.000609905 1.90325e-06
-1.24483e-05 1.90325e-06 -0.000700674
0.00184206 -5.99493e-05 -0.000119245
-5.99493e-05 0.000683736 7.7417e-06
-0.000119245 7.7417e-06 0.000617031
0.0059866 0.000308977 -1.10197e-05
0.000308977 0.00342475 5.03094e-06
-1.10197e-05 5.03094e-06 0.00336504
0.00292078 -0.000238892 -0.000130138
-0.000238892 0.00139858 2.44251e-05
-0.000130138 2.44251e-05 0.00130357
0.00188198 -0.000109795 -0.000121144
-0.000109795 0.000711558 1.46945e-05
-0.000121144 1.46945e-05 0.000638906
0.00188276 -0.000175605 -2.94989e-05
-0.000175605 0.000480447 5.45571e-06
-2.94989e-05 5.45571e-06 0.000332883
0.00201351 -0.000251581 -3.00044e-05
-0.000251581 0.000602062 9.14093e-06
-3.00044e-05 9.14093e-06 0.000429618
0.00200613 -0.000307092 -2.87727e-05
-0.000307092 0.000666803 1.16075e-05
-2.87727e-05 1.16075e-05 0.000468226
0.00157764 -0.000349952 -4.62868e-06
-0.000349952 0.00018408 9.17164e-07
-4.62868e-06 9.17164e-07 -4.54621e-05
0.000462263 5.60388e-06 -2.22081e-08
5.60388e-06 -0.000173114 2.07032e-07
-2.22081e-08 2.07032e-07 -0.000249515
0.00172586 -7.97513e-05 -3.24241e-05
-7.97513e-05 0.000620822 3.70014e-07
-3.24241e-05 3.70014e-07 0.000549452
0.00136284 -4.97346e-05 -9.423e-06
-4.97346e-05 0.000159453 5.28009e-07
-9.423e-06 5.28009e-07 3.62874e-05
0.00185926 -0.000140917 -7.6693e-06
-0.000140917 0.000463609 1.21285e-06
-7.6693e-06 1.21285e-06 0.000324384
0.00586889 0.000145005 4.38741e-06
0.000145005 0.00333679 7.8639e-07
4.38741e-06 7.8639e-07 0.00332103
0.00165478 -0.000153861 1.9881e-06
-0.000153861 0.000645866 5.05497e-07
1.9881e-06 5.05497e-07 0.000534226
0.0013442 -0.000261297 1.27271e-06
-0.000261297 0.000322764 -1.05701e-06
1.27271e-06 -1.05701e-06 0.000122695
0.00183658 -0.0002125 -7.80613e-06
-0.0002125 0.000466013 1.91472e-06
-7.80613e-06 1.91472e-06 0.000305892
0.00181359 -0.000249851 -1.30784e-06
-0.000249851 0.000205464 1.28018e-07
-1.30784e-06 1.28018e-07 4.12439e-05
0.00154108 -0.000381187 9.48163e-07
-0.000381187 0.000223012 -2.56646e-07
9.48163e-07 -2.56646e-07 -3.15164e-05
0.00168497 -0.000325646 5.34909e-07
-0.000325646 0.000204506 -1.80002e-07
5.34909e-07 -1.80002e-07 -5.10533e-06
0.00182334 -0.000423514 7.12382e-07
-0.000423514 0.000220939 8.54862e-08
7.12382e-07 8.54862e-08 -8.39093e-06
0.00051919 -0.000117073 7.90211e-07
-0.000117073 -2.72187e-05 6.28098e-07
7.90211e-07 6.28098e-07 -0.000115975
0.000681634 -0.000120461 1.82983e-07
-0.000120461 0.000114907 -3.30103e-10
1.82983e-07 -3.30103e-10 -8.57148e-05
0.00102716 -2.45878e-05 1.20708e-05
-2.45878e-05 -4.04043e-05 -7.44744e-07
1.20708e-05 -7.44744e-07 -0.000167617
0.00181141 -9.32418e-05 1.04643e-05
-9.32418e-05 0.0004358 -1.19498e-06
1.04643e-05 -1.19498e-06 0.000309469
0.00172876 -8.9495e-05 -7.34966e-07
-8.9495e-05 0.00012481 2.37965e-07
-7.34966e-07 2.37965e-07 3.77518e-06
0.00173748 -0.000198806 6.68488e-07
-0.000198806 0.000137723 8.70486e-07
6.68488e-07 8.70486e-07 -4.85446e-06
0.00175262 -0.000295313 1.66393e-06
-0.000295313 0.000206082 4.59774e-08
1.66393e-06 4.59774e-08 2.07064e-05
0.00195177 -0.000292784 7.61129e-07
-0.000292784 0.00016606 3.57639e-07
7.61129e-07 3.57639e-07 2.40457e-05
0.000456571 -0.000143974 1.97377e-05
-0.000143974 -8.24177e-05 -1.80519e-05
1.97377e-05 -1.80519e-05 -0.000179976
0.00184504 -0.000387612 1.157e-06
-0.000387612 0.000184703 1.26408e-06
1.157e-06 1.26408e-06 -1.22117e-05
0.000619186 -0.000209113 8.72988e-06
-0.000209113 -5.87677e-05 -7.27205e-06
8.72988e-06 -7.27205e-06 -0.000256171
0.00126457 -0.000376904 9.50619e-06
-0.000376904 0.000141984 -3.01596e-06
9.50619e-06 -3.01596e-06 -0.000131007
0.00195308 -0.000478046 2.64457e-06
-0.000478046 0.000358038 7.09092e-07
2.64457e-06 7.09092e-07 8.58987e-05
0.00213472 -0.000460123 -2.29766e-06
-0.000460123 0.00035806 3.70415e-06
-2.29766e-06 3.70415e-06 0.000153676
0.000719257 -0.000193888 1.34225e-06
-0.000193888 0.000130928 -5.63985e-06
1.34225e-06 -5.63985e-06 -0.000101233
0.000596075 -8.31897e-05 -3.86771e-07
-8.31897e-05 5.91992e-05 -4.77657e-06
-3.86771e-07 -4.77657e-06 -9.52032e-05
0.00112094 -0.000253156 -2.00958e-06
-0.000253156 0.000404333 -2.0929e-07
-2.00958e-06 -2.0929e-07 0.000124151
0.000446042 0.000103756 -1.79724e-05
0.000103756 -0.000179316 -9.0189e-06
-1.79724e-05 -9.0189e-06 -0.00027901
0.00438269 -0.000195383 -0.000111732
-0.000195383 0.00244143 -8.49511e-06
-0.000111732 -8.49511e-06 0.00241862
0.000431437 -2.45215e-06 -5.27342e-06
-2.45215e-06 -4.58669e-05 -1.1583e-05
-5.27342e-06 -1.1583e-05 -0.000103259
0.000402955 0.000155254 -1.9842e-05
0.000155254 -0.000168758 -1.48564e-05
-1.9842e-05 -1.48564e-05 -0.000280822
0.0010043 0.00020352 -1.53729e-05
0.00020352 -2.95463e-05 -5.86193e-06
-1.53729e-05 -5.86193e-06 -0.000208786
0.000483775 0.000136121 -2.2296e-05
0.000136121 -7.05962e-05 -1.62165e-05
-2.2296e-05 -1.62165e-05 -0.000156429
0.000578969 0.000192796 -9.36025e-06
0.000192796 -8.37307e-05 -7.298e-06
-9.36025e-06 -7.298e-06 -0.0002778
0.000927706 0.000219579 -1.39143e-05
0.000219579 2.20748e-05 -6.88019e-06
-1.39143e-05 -6.88019e-06 -0.000167053
0.00127412 0.000347316 -3.84826e-06
0.000347316 0.000184597 -1.04702e-06
-3.84826e-06 -1.04702e-06 -7.15295e-05
0.000523216 8.44503e-05 1.27159e-06
8.44503e-05 -1.35093e-05 1.00408e-06
1.27159e-06 1.00408e-06 -8.94093e-05
0.000443574 -4.11492e-05 4.49196e-08
-4.11492e-05 -3.68974e-05 4.65696e-07
4.49196e-08 4.65696e-07 -8.5201e-05
0.00063722 8.26018e-05 1.68428e-06
8.26018e-05 8.32184e-05 -1.73148e-07
1.68428e-06 -1.73148e-07 -7.81988e-05
0.00107526 0.000182356 -1.20166e-07
0.000182356 -2.08049e-05 -2.8557e-07
-1.20166e-07 -2.8557e-07 -0.000190331
0.000983142 0.000219451 3.30486e-07
0.000219451 -5.03536e-06 -1.9502e-07
3.30486e-07 -1.9502e-07 -0.000190949
0.00166205 0.000341222 -6.4771e-08
0.000341222 0.000168504 -9.49265e-08
-6.4771e-08 -9.49265e-08 -4.72853e-05
0.000741233 0.000209855 -8.67481e-07
0.000209855 8.33215e-05 1.87944e-08
-8.67481e-07 1.87944e-08 -0.000114708
0.00149876 0.000375574 -6.12686e-08
0.000375574 0.000229541 -1.77402e-07
-6.12686e-08 -1.77402e-07 -2.14242e-05
0.00108664 0.000305146 5.13467e-07
0.000305146 0.000143802 -8.60155e-07
5.13467e-07 -8.60155e-07 -0.00011214
0.00139 0.000430705 -5.70783e-07
0.000430705 0.000164475 9.43511e-07
-5.70783e-07 9.43511e-07 -0.000117255
0.00054016 -4.40261e-05 -9.51135e-09
-4.40261e-05 1.45998e-05 8.16784e-06
-9.51135e-09 8.16784e-06 -2.25763e-05
0.000983775 0.000155726 5.48142e-06
0.000155726 0.000282922 4.63229e-06
5.48142e-06 4.63229e-06 8.80955e-05
0.000800588 4.77298e-05 1.79278e-06
4.77298e-05 0.000169573 5.85459e-06
1.79278e-06 5.85459e-06 5.11963e-05
0.000914327 0.000138663 1.41089e-06
0.000138663 0.000294398 -1.6469e-07
1.41089e-06 -1.6469e-07 4.99201e-05
0.00173709 0.000304573 2.41907e-06
0.000304573 0.000159525 -7.88392e-07
2.41907e-06 -7.88392e-07 -3.14657e-05
0.00158358 0.000367444 4.76099e-06
0.000367444 0.000195449 7.63407e-07
4.76099e-06 7.63407e-07 -4.16775e-05
0.00194467 0.000415745 9.63804e-07
0.000415745 0.000236864 -6.52886e-07
9.63804e-07 -6.52886e-07 2.41106e-05
0.000939676 0.000255767 4.86795e-06
0.000255767 0.000105303 2.89616e-06
4.86795e-06 2.89616e-06 -0.000127973
0.00203621 0.000510449 -2.41921e-06
0.000510449 0.000443186 -1.30537e-06
-2.41921e-06 -1.30537e-06 0.000169055
0.00148006 0.000421865 -3.17758e-06
0.000421865 0.000315721 -3.37162e-06
-3.17758e-06 -3.37162e-06 7.92955e-06
0.0016538 0.000480408 -8.52909e-07
0.000480408 0.000225216 -1.14392e-06
-8.52909e-07 -1.14392e-06 -5.73709e-05
0.000571609 3.06385e-05 2.40369e-06
3.06385e-05 3.33639e-05 3.12413e-06
2.40369e-06 3.12413e-06 -2.92091e-05
0.000491619 -3.28967e-05 8.84322e-07
-3.28967e-05 -3.55591e-05 6.00111e-06
8.84322e-07 6.00111e-06 -5.99403e-05
0.00261121 -0.000118237 3.43309e-05
-0.000118237 0.00130167 3.64228e-06
3.43309e-05 3.64228e-06 0.00130223
0.00274858 -0.000136584 6.10583e-06
-0.000136584 0.0013962 -6.52774e-07
6.10583e-06 -6.52774e-07 0.00139158
0.00298861 -0.000160717 -4.36294e-05
-0.000160717 0.00155546 -3.38548e-06
-4.36294e-05 -3.38548e-06 0.00154369
0.000415787 -5.70202e-05 1.0488e-05
-5.70202e-05 -6.43928e-05 -1.15585e-05
1.0488e-05 -1.15585e-05 -0.000123593
0.00434172 0.000157176 0.000121518
0.000157176 0.00240859 -1.06317e-05
0.000121518 -1.06317e-05 0.00239286
0.000520847 -8.28879e-05 -7.1143e-07
-8.28879e-05 -1.10091e-05 2.85761e-07
-7.1143e-07 2.85761e-07 -8.57712e-05
0.00520341 0.000146838 -4.09248e-06
0.000146838 0.00293518 -5.85042e-07
-4.09248e-06 -5.85042e-07 0.00291985
0.00048974 0.000107102 -1.93324e-05
0.000107102 -0.000156387 -7.19159e-06
-1.93324e-05 -7.19159e-06 -0.000252743
0.000497575 3.41842e-05 -1.83505e-05
3.41842e-05 -0.000156176 -3.50077e-06
-1.83505e-05 -3.50077e-06 -0.000239514
0.00103355 0.000123228 -1.21396e-05
0.000123228 -6.53227e-05 -2.33108e-06
-1.21396e-05 -2.33108e-06 -0.000214033
0.00100276 5.84472e-05 -1.20255e-05
5.84472e-05 -7.36712e-05 -1.19036e-06
-1.20255e-05 -1.19036e-06 -0.00020537
0.000521073 -7.7246e-06 -1.94596e-05
-7.7246e-06 -0.000141919 -8.33735e-07
-1.94596e-05 -8.33735e-07 -0.000216787
0.00585912 -9.80503e-05 -0.00029146
-9.80503e-05 0.00328078 4.83631e-06
-0.00029146 4.83631e-06 0.00329699
0.000507582 -1.77576e-06 7.07239e-08
-1.77576e-06 -0.000149267 -6.34646e-07
7.07239e-08 -6.34646e-07 -0.00022362
0.00102299 2.75613e-05 -8.62736e-08
2.75613e-05 -5.13636e-05 2.04268e-08
-8.62736e-08 2.04268e-08 -0.00017855
0.00106181 8.87846e-05 -1.73235e-07
8.87846e-05 -4.25629e-05 -4.14081e-08
-1.73235e-07 -4.14081e-08 -0.000180672
0.00166995 8.83733e-05 -4.35363e-08
8.83733e-05 6.71726e-05 1.12098e-07
-4.35363e-08 1.12098e-07 -4.91481e-05
0.00108934 0.000154411 -2.82459e-07
0.000154411 -2.72979e-05 -2.77089e-07
-2.82459e-07 -2.77089e-07 -0.000186243
0.00173628 0.000200458 -1.63935e-07
0.000200458 9.95604e-05 6.06426e-08
-1.63935e-07 6.06426e-08 -4.54928e-05
0.00101289 -2.84523e-06 1.19821e-05
-2.84523e-06 -4.99311e-05 -2.14916e-07
1.19821e-05 -2.14916e-07 -0.000176194
0.00165532 4.24363e-05 -1.82274e-07
4.24363e-05 6.02531e-05 -8.22203e-08
-1.82274e-07 -8.22203e-08 -5.01549e-05
0.00169508 0.000141999 -7.2079e-07
0.000141999 7.62111e-05 -3.7941e-07
-7.2079e-07 -3.7941e-07 -5.10645e-05
0.00188736 0.000116674 1.39038e-06
0.000116674 4.93792e-05 2.2644e-08
1.39038e-06 2.2644e-08 -2.17168e-05
0.00177959 0.000259181 1.85665e-06
0.000259181 0.000141265 -5.56664e-07
1.85665e-06 -5.56664e-07 -2.58108e-05
0.00198826 0.000242244 1.77615e-06
0.000242244 0.000132678 -1.40903e-06
1.77615e-06 -1.40903e-06 1.78284e-05
0.000493041 -1.70725e-06 -1.85981e-05
-1.70725e-06 -0.000151359 9.12994e-07
-1.85981e-05 9.12994e-07 -0.000229901
0.00181849 -3.61289e-05 -0.000117954
-3.61289e-05 0.00066971 5.15069e-06
-0.000117954 5.15069e-06 0.000607195
0.000948804 -4.43025e-05 -1.65474e-05
-4.43025e-05 -9.37525e-05 1.67994e-06
-1.65474e-05 1.67994e-06 -0.000221637
0.00194514 -0.000140881 -2.69804e-05
-0.000140881 0.000516102 4.06722e-06
-2.69804e-05 4.06722e-06 0.000376798
0.00606878 0.00012996 -0.000212438
0.00012996 0.00345652 2.02214e-05
-0.000212438 2.02214e-05 0.00344152
0.00298151 -0.000222604 -0.000136543
-0.000222604 0.00145243 1.98281e-05
-0.000136543 1.98281e-05 0.00136766
0.00202844 -0.00031333 -2.40757e-05
-0.00031333 0.000742894 1.05815e-05
-2.40757e-05 1.05815e-05 0.000536824
0.00185617 -0.000212838 -2.928e-05
-0.000212838 0.000477392 7.30139e-06
-2.928e-05 7.30139e-06 0.000317224
0.00178244 -0.000251548 -3.71296e-06
-0.000251548 0.000181172 2.19437e-08
-3.71296e-06 2.19437e-08 2.04029e-05
0.0018336 -0.000332066 -4.70172e-06
-0.000332066 0.000298636 1.14512e-06
-4.70172e-06 1.14512e-06 8.93584e-05
0.0015297 -0.000379577 -6.00803e-06
-0.000379577 0.000219708 1.19042e-06
-6.00803e-06 1.19042e-06 -3.35976e-05
0.00186227 -0.000425176 -1.08675e-06
-0.000425176 0.000247901 -1.44071e-06
-1.08675e-06 -1.44071e-06 1.88287e-05
0.000465072 -0.000128108 -1.79484e-05
-0.000128108 -5.66209e-05 1.65144e-05
-1.79484e-05 1.65144e-05 -0.000150697
0.000842832 -0.000156072 -6.74678e-07
-0.000156072 0.000210837 4.19529e-06
-6.74678e-07 4.19529e-06 1.01453e-05
0.000972321 -1.93008e-05 3.30229e-08
-1.93008e-05 -7.60604e-05 -5.44629e-08
3.30229e-08 -5.44629e-08 -0.00020182
0.00180729 -9.36725e-05 -8.03077e-06
-9.36725e-05 0.000431558 9.59863e-07
-8.03077e-06 9.59863e-07 0.000305414
0.0017934 -8.61398e-05 -5.07761e-07
-8.61398e-05 0.000163273 1.94123e-07
-5.07761e-07 1.94123e-07 4.69842e-05
0.00174194 -0.000198552 -1.74267e-06
-0.000198552 0.000144257 5.9275e-07
-1.74267e-06 5.9275e-07 -2.73558e-06
0.000463134 -0.00016142 3.64996e-07
-0.00016142 -7.99988e-05 1.31967e-07
3.64996e-07 1.31967e-07 -0.000178814
0.000793368 -0.000218125 -1.848e-07
-0.000218125 4.38157e-05 7.82166e-08
-1.848e-07 7.82166e-08 -0.000154963
0.00124868 -0.000374696 1.72347e-06
-0.000374696 0.000134354 -5.8546e-07
1.72347e-06 -5.8546e-07 -0.000138567
0.00178285 -0.000294883 -3.13964e-06
-0.000294883 0.000225178 8.63687e-07
-3.13964e-06 8.63687e-07 3.77726e-05
0.0019972 -0.000297308 1.83656e-06
-0.000297308 0.000187321 -5.98304e-07
1.83656e-06 -5.98304e-07 5.0089e-05
0.00200361 -0.000486818 -9.4736e-07
-0.000486818 0.000387366 -3.36699e-07
-9.4736e-07 -3.36699e-07 0.000115128
0.00187109 -0.000389341 5.18302e-07
-0.000389341 0.000200758 -4.92228e-08
5.18302e-07 -4.92228e-08 3.7365e-06
0.00200809 -0.000454109 8.61282e-07
-0.000454109 0.000273899 7.37294e-07
8.61282e-07 7.37294e-07 6.9782e-05
0.000679605 -0.000187194 1.55502e-07
-0.000187194 0.000102718 -2.44972e-07
1.55502e-07 -2.44972e-07 -0.000123273
0.000365962 -0.000153944 -8.95714e-07
-0.000153944 -8.11074e-05 -3.72062e-07
-8.95714e-07 -3.72062e-07 -0.000338001
0.000695521 -0.000104545 6.31609e-07
-0.000104545 0.000121463 7.72981e-08
6.31609e-07 7.72981e-08 -3.99234e-05
0.00172182 -3.90835e-05 -8.38815e-07
-3.90835e-05 0.000118629 7.60169e-08
-8.38815e-07 7.60169e-08 4.23581e-06
0.00185053 -0.000138706 -2.01385e-06
-0.000138706 0.000200202 1.10727e-06
-2.01385e-06 1.10727e-06 7.55435e-05
0.00183348 -0.000108402 2.92096e-06
-0.000108402 2.72853e-05 1.28463e-07
2.92096e-06 1.28463e-07 -5.29909e-05
0.00187508 -0.000237806 -1.02754e-06
-0.000237806 8.55144e-05 1.2861e-06
-1.02754e-06 1.2861e-06 -2.88675e-05
0.00176431 -0.000346716 -6.65462e-07
-0.000346716 8.65518e-05 2.16446e-06
-6.65462e-07 2.16446e-06 -7.8229e-05
0.00208542 -0.000321023 2.44934e-06
-0.000321023 0.000202669 -5.02436e-07
2.44934e-06 -5.02436e-07 9.03989e-05
0.000657023 -0.000220144 4.99205e-06
-0.000220144 2.45991e-05 -7.09666e-06
4.99205e-06 -7.09666e-06 -0.00018319
0.00187256 -0.000418347 -1.77365e-06
-0.000418347 0.000138943 1.63798e-06
-1.77365e-06 1.63798e-06 -3.31119e-05
0.00129774 -0.000349521 6.73427e-06
-0.000349521 0.00026971 -5.71249e-06
6.73427e-06 -5.71249e-06 2.24622e-06
0.00167432 -0.000523977 4.77988e-06
-0.000523977 0.000287128 5.05187e-07
4.77988e-06 5.05187e-07 -3.66266e-05
0.00209078 -0.000519538 1.98858e-06
-0.000519538 0.000384759 3.58444e-06
1.98858e-06 3.58444e-06 0.00012284
0.00219268 -0.00047937 -2.72625e-06
-0.00047937 0.000387838 2.50353e-06
-2.72625e-06 2.50353e-06 0.000197899
0.000644436 -7.35914e-05 -3.1712e-07
-7.35914e-05 0.00010371 -5.14714e-06
-3.1712e-07 -5.14714e-06 -2.76591e-05
0.00101555 -0.000259813 6.93388e-07
-0.000259813 0.000223418 -1.41286e-06
6.93388e-07 -1.41286e-06 -1.07745e-05
0.000256227 -0.000136238 -1.36504e-06
-0.000136238 -7.35097e-05 9.12591e-07
-1.36504e-06 9.12591e-07 -0.000343697
0.00173653 -0.000336191 -3.89977e-06
-0.000336191 0.000695219 1.02523e-06
-3.89977e-06 1.02523e-06 0.000419922
0.00102972 0.000181838 -1.44983e-05
0.000181838 -4.45702e-05 -4.64767e-06
-1.44983e-05 -4.64767e-06 -0.000214992
0.000400125 -5.54709e-05 3.45144e-06
-5.54709e-05 -5.53067e-05 -1.04336e-05
3.45144e-06 -1.04336e-05 -0.000107166
0.000441324 6.51606e-05 -1.53061e-05
6.51606e-05 -6.24903e-05 -1.35146e-05
-1.53061e-05 -1.35146e-05 -0.000132896
0.00011474 5.02327e-05 -1.23e-06
5.02327e-05 -0.000230249 -5.7838e-06
-1.23e-06 -5.7838e-06 -0.000387453
0.000956548 0.000216584 -1.50463e-05
0.000216584 -1.38985e-05 -6.73882e-06
-1.50463e-05 -6.73882e-06 -0.000199579
0.00164736 0.000340443 -4.34002e-06
0.000340443 0.000158153 -4.27774e-07
-4.34002e-06 -4.27774e-07 -5.80043e-05
0.000633288 0.000197724 -6.36058e-06
0.000197724 1.33438e-05 -4.6643e-06
-6.36058e-06 -4.6643e-06 -0.000181389
0.00131602 0.000324151 -5.53965e-06
0.000324151 0.000289586 -3.78543e-06
-5.53965e-06 -3.78543e-06 3.18056e-05
0.0015078 0.000374533 -3.72082e-06
0.000374533 0.000230889 -5.89304e-07
-3.72082e-06 -5.89304e-07 -2.05862e-05
0.00135263 0.000438183 2.30837e-06
0.000438183 0.00013139 3.49008e-06
2.30837e-06 3.49008e-06 -0.000151513
0.000457169 -5.26217e-05 -2.81525e-06
-5.26217e-05 -3.1896e-05 8.17431e-07
-2.81525e-06 8.17431e-07 -7.11105e-05
0.000684416 0.000171394 -1.38216e-07
0.000171394 0.000112726 -8.55109e-07
-1.38216e-07 -8.55109e-07 -8.87157e-05
0.000621721 2.59883e-05 4.83245e-07
2.59883e-05 6.28903e-05 4.64429e-07
4.83245e-07 4.64429e-07 -5.02546e-05
0.000772682 0.000131152 1.70045e-06
0.000131152 0.000207463 -5.76211e-07
1.70045e-06 -5.76211e-07 -3.56305e-05
0.0017198 0.000303285 -7.31909e-07
0.000303285 0.000149078 -7.62372e-07
-7.31909e-07 -7.62372e-07 -4.21613e-05
0.00156519 0.00036703 -5.86349e-08
0.00036703 0.000183504 -1.42948e-07
-5.86349e-08 -1.42948e-07 -5.42641e-05
0.00191468 0.00041272 2.99317e-07
0.00041272 0.000220932 2.41841e-07
2.99317e-07 2.41841e-07 8.59719e-06
0.0010321 0.000267901 1.61506e-06
0.000267901 0.000168977 4.46907e-07
1.61506e-06 4.46907e-07 -6.57042e-05
0.0019289 0.00049273 -6.67937e-07
0.00049273 0.000384375 1.10878e-07
-6.67937e-07 1.10878e-07 0.000112489
0.00134798 0.000411487 -4.4441e-07
0.000411487 0.000232702 -1.68108e-06
-4.4441e-07 -1.68108e-06 -7.50911e-05
0.00171977 0.000479349 -3.59008e-06
0.000479349 0.000268292 1.44101e-06
-3.59008e-06 1.44101e-06 -9.35143e-06
0.000504721 -4.15446e-05 4.89362e-07
-4.15446e-05 -1.85648e-05 6.80556e-06
4.89362e-07 6.80556e-06 -4.78009e-05
0.000694128 2.07135e-05 9.04054e-07
2.07135e-05 0.000109226 5.34455e-06
9.04054e-07 5.34455e-06 1.94307e-05
0.000700352 0.000216419 2.47343e-06
0.000216419 5.34309e-05 7.96958e-07
2.47343e-06 7.96958e-07 -0.000169355
0.00141061 0.000121852 -1.49403e-06
0.000121852 0.0006161 2.99118e-06
-1.49403e-06 2.99118e-06 0.000402535
0.00137027 0.000280669 -1.63e-06
0.000280669 0.000517195 -2.28592e-06
-1.63e-06 -2.28592e-06 0.000265379
0.00199527 0.000369766 3.10729e-07
0.000369766 0.000208496 -2.52095e-06
3.10729e-07 -2.52095e-06 2.9234e-05
0.0019002 0.000463495 3.38833e-07
0.000463495 0.000279358 -6.67176e-07
3.38833e-07 -6.67176e-07 3.26112e-05
0.00197289 0.000453041 -1.31853e-06
0.000453041 0.00022848 -8.4368e-07
-1.31853e-06 -8.4368e-07 2.38041e-05
0.000874028 0.000335376 2.41053e-06
0.000335376 2.76497e-05 1.90646e-06
2.41053e-06 1.90646e-06 -0.000258946
0.00215068 0.000561486 -8.15206e-07
0.000561486 0.000459653 -8.10047e-07
-8.15206e-07 -8.10047e-07 0.000182144
0.00143331 0.000471745 4.65028e-06
0.000471745 0.000221533 -2.92507e-06
4.65028e-06 -2.92507e-06 -9.30686e-05
0.000594582 2.58418e-05 2.47824e-06
2.58418e-05 4.61681e-05 3.4223e-06
2.47824e-06 3.4223e-06 -2.05099e-05
0.000636595 7.05484e-05 -2.20359e-07
7.05484e-05 0.000106844 1.47261e-06
-2.20359e-07 1.47261e-06 -1.10683e-06
0.000592049 4.04223e-05 2.38143e-06
4.04223e-05 5.11296e-05 3.11011e-06
2.38143e-06 3.11011e-06 -9.96397e-06
0.000549122 -2.88477e-07 -5.85005e-07
-2.88477e-07 2.05716e-05 6.45842e-09
-5.85005e-07 6.45842e-09 -4.23417e-05
0.00126018 -4.53501e-05 8.22518e-07
-4.53501e-05 0.000437868 3.3888e-06
8.22518e-07 3.3888e-06 0.000419831
0.000886893 -4.37064e-05 4.95573e-07
-4.37064e-05 0.000210094 -1.56823e-07
4.95573e-07 -1.56823e-07 0.000187534
0.000850292 -5.27652e-05 2.7168e-05
-5.27652e-05 0.000194803 8.48617e-06
2.7168e-05 8.48617e-06 0.000194452
0.00256965 -0.000116209 5.77538e-06
-0.000116209 0.00127494 -5.53063e-07
5.77538e-06 -5.53063e-07 0.00127595
0.00267665 -0.00013395 -3.79883e-05
-0.00013395 0.00135107 -3.44167e-06
-3.79883e-05 -3.44167e-06 0.00134716
0.000358711 -2.75285e-05 5.18644e-06
-2.75285e-05 -9.13688e-05 -8.9414e-06
5.18644e-06 -8.9414e-06 -0.000137585
0.00380838 0.000148588 8.85055e-05
0.000148588 0.00206586 -6.10152e-06
8.85055e-05 -6.10152e-06 0.00205461
0.000456494 -5.84978e-05 -1.37093e-06
-5.84978e-05 -4.17528e-05 4.06455e-07
-1.37093e-06 4.06455e-07 -0.000101589
0.00458103 0.000139109 -1.14899e-05
0.000139109 0.00255039 -1.28092e-06
-1.14899e-05 -1.28092e-06 0.00253856
0.000555797 -8.39461e-05 -1.51713e-05
-8.39461e-05 4.64427e-06 1.36642e-05
-1.51713e-05 1.36642e-05 -7.2917e-05
0.00547588 0.000141445 -0.000186881
0.000141445 0.00310401 1.83029e-05
-0.000186881 1.83029e-05 0.00308856
0.00103851 0.000155142 -1.31398e-05
0.000155142 -5.68307e-05 -3.40745e-06
-1.31398e-05 -3.40745e-06 -0.000216903
0.00101898 9.21132e-05 -1.19506e-05
9.21132e-05 -6.97764e-05 -1.70489e-06
-1.19506e-05 -1.70489e-06 -0.000208897
0.00174305 0.000196626 -1.9978e-06
0.000196626 0.000105429 6.45649e-07
-1.9978e-06 6.45649e-07 -3.93401e-05
0.00165673 8.71379e-05 1.65091e-07
8.71379e-05 6.1397e-05 4.38229e-07
1.65091e-07 4.38229e-07 -5.50537e-05
0.00101107 3.2061e-05 -1.20336e-05
3.2061e-05 -6.04548e-05 -4.88972e-07
-1.20336e-05 -4.88972e-07 -0.000188033
0.00046984 2.90803e-05 -1.93198e-05
2.90803e-05 -0.000173715 -5.65755e-07
-1.93198e-05 -5.65755e-07 -0.000247009
0.00101101 4.95956e-07 -3.41258e-08
4.95956e-07 -5.21389e-05 -1.08615e-07
-3.41258e-08 -1.08615e-07 -0.000178451
0.00165459 4.31417e-05 -8.68243e-08
4.31417e-05 6.25131e-05 1.29702e-07
-8.68243e-08 1.29702e-07 -4.7989e-05
0.00170571 0.000139807 -5.58839e-08
0.000139807 8.32436e-05 1.84473e-07
-5.58839e-08 1.84473e-07 -4.39748e-05
0.00191592 0.000115282 -1.51058e-07
0.000115282 6.16995e-05 2.48306e-07
-1.51058e-07 2.48306e-07 -6.09059e-06
0.00175263 0.000256566 -3.71481e-07
0.000256566 0.000128871 -9.92335e-08
-3.71481e-07 -9.92335e-08 -3.81737e-05
0.00195441 0.000238946 -5.45859e-07
0.000238946 0.000115339 -1.68815e-08
-5.45859e-07 -1.68815e-08 8.16348e-07
0.00163027 -3.0807e-07 1.2977e-08
-3.0807e-07 5.22413e-05 1.06984e-07
1.2977e-08 1.06984e-07 -5.68696e-05
0.00192245 5.7598e-05 9.62602e-07
5.7598e-05 7.18408e-05 9.57115e-08
9.62602e-07 9.57115e-08 1.58793e-05
0.00192347 0.000176151 1.81465e-06
0.000176151 7.21091e-05 -5.98471e-07
1.81465e-06 -5.98471e-07 -1.68747e-05
0.00195285 0.000114544 6.89844e-06
0.000114544 3.53048e-05 7.08012e-07
6.89844e-06 7.08012e-07 -3.55122e-06
0.0020278 0.000313605 7.85147e-07
0.000313605 0.000192544 -1.55397e-06
7.85147e-07 -1.55397e-06 4.60923e-05
0.00192798 0.000258467 2.25237e-06
0.000258467 2.8322e-05 4.71602e-07
2.25237e-06 4.71602e-07 -5.78204e-05
0.000918725 -1.54431e-05 -1.22057e-05
-1.54431e-05 -0.000111001 6.21225e-07
-1.22057e-05 6.21225e-07 -0.000235396
0.00182589 -9.49914e-05 -2.63531e-05
-9.49914e-05 0.000441368 2.92394e-06
-2.63531e-05 2.92394e-06 0.000315337
0.00188959 -8.1275e-05 -2.45236e-06
-8.1275e-05 0.000220801 -1.97692e-07
-2.45236e-06 -1.97692e-07 0.000109572
0.0017469 -0.000197971 -2.91029e-06
-0.000197971 0.000151426 6.39692e-07
-2.91029e-06 6.39692e-07 6.35998e-08
0.000551327 -0.000179628 -2.33216e-05
-0.000179628 -2.47542e-05 1.81049e-05
-2.33216e-05 1.81049e-05 -0.000127241
0.000809735 -0.000217972 -1.05339e-05
-0.000217972 5.72083e-05 7.95699e-06
-1.05339e-05 7.95699e-06 -0.000142329
0.00125152 -0.000374874 -4.51903e-06
-0.000374874 0.000137341 2.22838e-06
-4.51903e-06 2.22838e-06 -0.000136161
0.00181376 -0.000294278 -6.14327e-06
-0.000294278 0.000244695 1.47127e-06
-6.14327e-06 1.47127e-06 5.53037e-05
0.00204801 -0.000301921 5.50474e-07
-0.000301921 0.000212013 -1.44915e-06
5.50474e-07 -1.44915e-06 7.95501e-05
0.00190096 -0.000391361 -7.18937e-07
-0.000391361 0.000218886 -1.17916e-06
-7.18937e-07 -1.17916e-06 2.17281e-05
0.00203519 -0.000493474 -3.23774e-06
-0.000493474 0.000406887 -2.26281e-06
-3.23774e-06 -2.26281e-06 0.000135006
0.00188095 -0.000446358 3.41139e-06
-0.000446358 0.000189716 -2.58032e-06
3.41139e-06 -2.58032e-06 -1.35169e-05
0.000768651 -0.000176888 -3.28515e-06
-0.000176888 0.00014319 5.81171e-06
-3.28515e-06 5.81171e-06 -7.20171e-05
4.20755e-05 -0.00011971 6.75125e-07
-0.00011971 -0.000279767 -6.04126e-07
6.75125e-07 -6.04126e-07 -0.000534294
0.000799078 -0.000123738 -4.26707e-07
-0.000123738 0.000183554 4.44396e-06
-4.26707e-07 4.44396e-06 1.79244e-05
0.00170649 -3.6273e-05 -8.1207e-07
-3.6273e-05 0.000107054 8.8682e-08
-8.1207e-07 8.8682e-08 -5.6031e-06
0.00182608 -0.000146179 -2.94058e-06
-0.000146179 0.000183371 5.18058e-07
-2.94058e-06 5.18058e-07 5.73336e-05
0.00190361 -0.000107183 2.84469e-06
-0.000107183 6.95871e-05 -3.29135e-07
2.84469e-06 -3.29135e-07 -4.57745e-06
0.00188496 -0.000233599 -1.79786e-06
-0.000233599 9.17723e-05 5.6838e-07
-1.79786e-06 5.6838e-07 -2.47006e-05
0.000767571 -0.000224541 4.92966e-07
-0.000224541 9.37427e-05 -5.67839e-07
4.92966e-07 -5.67839e-07 -0.0001158
0.00116606 -0.000341432 -1.61117e-06
-0.000341432 0.000177603 -2.60446e-07
-1.61117e-06 -2.60446e-07 -8.86782e-05
0.00163687 -0.000514206 1.62738e-06
-0.000514206 0.000279298 2.16147e-07
1.62738e-06 2.16147e-07 -4.3613e-05
0.00178405 -0.000346073 -1.39275e-06
-0.000346073 0.000102523 9.61826e-07
-1.39275e-06 9.61826e-07 -6.73275e-05
0.00200063 -0.00031775 1.53911e-06
-0.00031775 0.000143998 -5.1289e-07
1.53911e-06 -5.1289e-07 3.51904e-05
0.00197539 -0.000518392 -5.29468e-07
-0.000518392 0.000306162 4.71074e-07
-5.29468e-07 4.71074e-07 4.1919e-05
0.0019115 -0.000419464 -4.14535e-08
-0.000419464 0.000165125 5.20163e-07
-4.14535e-08 5.20163e-07 -7.11088e-06
0.00213625 -0.000467489 1.81837e-06
-0.000467489 0.000344906 -5.73866e-07
1.81837e-06 -5.73866e-07 0.000160614
0.00107789 -0.000266601 -1.38946e-07
-0.000266601 0.000267387 3.2789e-07
-1.38946e-07 3.2789e-07 2.57472e-05
0.00114564 -0.00028985 -9.03985e-07
-0.00028985 0.000338073 1.52209e-07
-9.03985e-07 1.52209e-07 6.26068e-05
0.00065715 -9.02386e-05 -1.63061e-07
-9.02386e-05 0.000108076 2.85903e-08
-1.63061e-07 2.85903e-08 -2.58737e-05
0.000105405 -7.86306e-05 1.87488e-07
-7.86306e-05 -0.000187316 -1.51714e-06
1.87488e-07 -1.51714e-06 -0.000433916
0.00192791 -5.66281e-05 1.80822e-06
-5.66281e-05 8.46262e-05 1.23195e-07
1.80822e-06 1.23195e-07 2.10185e-05
0.00179173 -0.000171575 1.70396e-06
-0.000171575 7.75716e-06 1.29842e-07
1.70396e-06 1.29842e-07 -8.87432e-05
0.00185613 -0.000107757 6.58159e-06
-0.000107757 -1.56831e-06 -5.38528e-07
6.58159e-06 -5.38528e-07 -4.13284e-05
0.00196993 -0.00026153 -2.04697e-07
-0.00026153 7.05744e-05 -4.55132e-07
-2.04697e-07 -4.55132e-07 -1.84682e-06
0.00177486 -0.000368921 -2.39414e-06
-0.000368921 4.10876e-05 9.8236e-07
-2.39414e-06 9.8236e-07 -9.88158e-05
0.00203293 -0.000330431 4.31865e-06
-0.000330431 0.000136104 -1.65891e-06
4.31865e-06 -1.65891e-06 4.825e-05
0.001275 -0.000315345 4.067e-06
-0.000315345 0.000315826 -4.30374e-06
4.067e-06 -4.30374e-06 6.91486e-05
0.00183778 -0.000433016 -3.72588e-06
-0.000433016 0.000110897 5.56862e-07
-3.72588e-06 5.56862e-07 -4.17307e-05
0.00148795 -0.000492505 2.49009e-06
-0.000492505 0.000320278 -8.57293e-07
2.49009e-06 -8.57293e-07 -1.72085e-05
0.0018412 -0.000585804 7.28851e-07
-0.000585804 0.000339138 1.69947e-06
7.28851e-07 1.69947e-06 1.56591e-06
0.00192518 -0.000527206 1.31929e-06
-0.000527206 0.000228461 4.03691e-06
1.31929e-06 4.03691e-06 -2.76555e-05
0.00222807 -0.000483268 -3.14006e-06
-0.000483268 0.000380985 -1.45248e-06
-3.14006e-06 -1.45248e-06 0.00019363
0.00054841 -7.10603e-05 -7.17591e-07
-7.10603e-05 4.57686e-05 -4.91182e-06
-7.17591e-07 -4.91182e-06 -6.51371e-05
0.000346967 -9.95129e-05 -3.70083e-06
-9.95129e-05 -2.00917e-05 -1.1308e-06
-3.70083e-06 -1.1308e-06 -0.00024207
0.00132485 -0.000341563 -1.81432e-07
-0.000341563 0.00036186 -6.07624e-07
-1.81432e-07 -6.07624e-07 9.68309e-05
0.0010217 -0.000216935 -2.94384e-06
-0.000216935 0.000360956 2.82041e-06
-2.94384e-06 2.82041e-06 8.82616e-05
0.00205597 -0.000414565 -8.81298e-06
-0.000414565 0.000872964 1.45596e-06
-8.81298e-06 1.45596e-06 0.000564049
0.000366207 -5.51258e-05 -6.02879e-07
-5.51258e-05 -8.59412e-05 -7.44639e-06
-6.02879e-07 -7.44639e-06 -0.000125174
0.00169873 0.000301584 -3.746e-06
0.000301584 0.000136757 -6.11608e-07
-3.746e-06 -6.11608e-07 -5.46731e-05
0.000427789 3.50373e-06 4.7561e-07
3.50373e-06 -5.05767e-05 -5.8188e-06
4.7561e-07 -5.8188e-06 -0.000160843
0.000523303 0.0001724 -4.60377e-06
0.0001724 2.28084e-06 -3.38018e-06
-4.60377e-06 -3.38018e-06 -0.000192686
0.000538661 0.000125845 1.69167e-06
0.000125845 6.48925e-05 5.53681e-07
1.69167e-06 5.53681e-07 -0.000177437
0.00154873 0.000366943 -4.69748e-06
0.000366943 0.000172372 -8.27523e-07
-4.69748e-06 -8.27523e-07 -6.61217e-05
0.00188407 0.000409722 2.2133e-07
0.000409722 0.000204439 1.27307e-06
2.2133e-07 1.27307e-06 -7.50287e-06
0.0011822 0.00029173 -4.8515e-06
0.00029173 0.000267425 -3.18166e-06
-4.8515e-06 -3.18166e-06 2.65938e-05
0.00142022 0.000427764 5.00863e-07
0.000427764 0.000266923 -2.91117e-08
5.00863e-07 -2.91117e-08 -4.72175e-05
0.0018194 0.000475183 4.95516e-07
0.000475183 0.000323048 1.84479e-06
4.95516e-07 1.84479e-06 5.33508e-05
0.00180239 0.00048373 1.24686e-06
0.00048373 0.000320693 7.17093e-06
1.24686e-06 7.17093e-06 4.61326e-05
0.000486616 -3.55424e-05 4.55099e-08
-3.55424e-05 -3.12106e-05 9.21713e-08
4.55099e-08 9.21713e-08 -5.91835e-05
0.000605543 9.11906e-06 -5.91103e-07
9.11906e-06 5.90835e-05 4.79188e-07
-5.91103e-07 4.79188e-07 -3.04539e-05
0.000999416 0.000249199 6.72455e-07
0.000249199 0.000240013 6.1406e-07
6.72455e-07 6.1406e-07 1.14973e-05
0.000684486 6.74744e-05 -7.47798e-07
6.74744e-05 0.000163054 -3.47336e-07
-7.47798e-07 -3.47336e-07 -3.68544e-05
0.000735345 0.000200232 7.05227e-07
0.000200232 0.00010623 -1.79141e-08
7.05227e-07 -1.79141e-08 -0.000119401
0.00197144 0.000369122 -1.11685e-06
0.000369122 0.000193376 -1.47621e-06
-1.11685e-06 -1.47621e-06 1.39501e-05
0.00186039 0.000460326 5.65293e-07
0.000460326 0.000255386 1.70595e-07
5.65293e-07 1.70595e-07 9.04138e-06
0.00190919 0.000449899 1.63113e-06
0.000449899 0.000192088 2.77785e-07
1.63113e-06 2.77785e-07 -1.2752e-05
0.00134832 0.000381798 1.55738e-06
0.000381798 0.000327695 9.13726e-07
1.55738e-06 9.13726e-07 3.12634e-05
0.00200266 0.000545757 1.80055e-06
0.000545757 0.000355242 1.59647e-07
1.80055e-06 1.59647e-07 7.89949e-05
0.00171742 0.000497412 -2.51509e-06
0.000497412 0.000395893 -2.34133e-07
-2.51509e-06 -2.34133e-07 7.7742e-05
0.000672994 2.10519e-05 1.24682e-06
2.10519e-05 9.49218e-05 3.93536e-06
1.24682e-06 3.93536e-06 2.00691e-05
0.0012183 0.000137334 4.03628e-07
0.000137334 0.000476881 3.26047e-06
4.03628e-07 3.26047e-06 0.000323582
0.000987136 0.000297718 -2.13848e-06
0.000297718 0.000157032 -3.35108e-07
-2.13848e-06 -3.35108e-07 -8.55817e-05
0.00154204 0.000156027 -1.63575e-06
0.000156027 0.000702222 6.29215e-07
-1.63575e-06 6.29215e-07 0.000459748
0.00136702 0.000237353 -8.02064e-06
0.000237353 0.000422917 -4.42107e-06
-8.02064e-06 -4.42107e-06 0.000220754
0.00197466 0.000385113 -3.86112e-06
0.000385113 0.000171802 -2.84853e-06
-3.86112e-06 -2.84853e-06 9.68577e-06
0.00196566 0.000513374 -5.38002e-07
0.000513374 0.000277289 -1.76899e-07
-5.38002e-07 -1.76899e-07 3.12137e-05
0.00174403 0.00048486 4.97319e-06
0.00048486 5.49046e-05 -1.41493e-07
4.97319e-06 -1.41493e-07 -0.000151945
0.000688533 0.000372323 2.73958e-06
0.000372323 -5.23866e-05 -1.81385e-06
2.73958e-06 -1.81385e-06 -0.000374706
0.0014557 0.000509197 8.39804e-06
0.000509197 0.000138115 -6.09102e-07
8.39804e-06 -6.09102e-07 -0.000157097
0.000580573 1.8933e-05 -2.68457e-07
1.8933e-05 3.58323e-05 1.16749e-07
-2.68457e-07 1.16749e-07 -2.96806e-05
0.000459588 4.742e-05 6.62176e-07
4.742e-05 -1.50482e-05 2.01547e-06
6.62176e-07 2.01547e-06 -0.000116804
0.000453341 4.21324e-05 -6.09082e-07
4.21324e-05 -1.92802e-05 -2.3044e-07
-6.09082e-07 -2.3044e-07 -0.000115888
0.000941614 0.000129252 -9.09726e-07
0.000129252 0.000296874 -1.28575e-06
-9.09726e-07 -1.28575e-06 0.000173662
0.000666273 9.90571e-05 1.85263e-06
9.90571e-05 0.000126598 1.94988e-06
1.85263e-06 1.94988e-06 2.12623e-05
0.000550802 5.14188e-05 2.67987e-06
5.14188e-05 3.19791e-05 3.09881e-06
2.67987e-06 3.09881e-06 -2.93363e-05
0.000547951 6.43883e-06 -6.38077e-07
6.43883e-06 2.41983e-05 -1.62907e-08
-6.38077e-07 -1.62907e-08 -3.66687e-05
0.00124293 -3.08671e-05 7.64285e-07
-3.08671e-05 0.000425012 3.0464e-06
7.64285e-07 3.0464e-06 0.000409587
0.000561651 1.01142e-05 -1.58385e-06
1.01142e-05 2.43306e-05 -3.25156e-06
-1.58385e-06 -3.25156e-06 -3.59944e-05
0.00130294 -4.13634e-05 -6.86309e-06
-4.13634e-05 0.000463907 -1.48644e-06
-6.86309e-06 -1.48644e-06 0.000446837
0.000823925 -3.95309e-05 2.82913e-05
-3.95309e-05 0.000170557 8.35263e-06
2.82913e-05 8.35263e-06 0.000174213
0.00132118 -5.03816e-05 -1.13836e-05
-5.03816e-05 0.00048036 -4.7387e-06
-1.13836e-05 -4.7387e-06 0.000460481
0.00164567 -7.44283e-05 2.65562e-05
-7.44283e-05 0.000690787 1.6297e-06
2.65562e-05 1.6297e-06 0.000693314
0.00251124 -0.000112301 -3.36049e-05
-0.000112301 0.00123731 -3.88406e-06
-3.36049e-05 -3.88406e-06 0.00123922
0.000325251 7.98631e-05 -5.29574e-06
7.98631e-05 -8.8278e-05 -7.37728e-06
-5.29574e-06 -7.37728e-06 -0.000136166
0.000474651 -1.25791e-05 5.33231e-07
-1.25791e-05 -1.53832e-05 5.63168e-07
5.33231e-07 5.63168e-07 -6.67339e-05
0.00317175 0.000164653 1.50714e-05
0.000164653 0.00166941 -5.60511e-06
1.50714e-05 -5.60511e-06 0.00165429
0.00397816 0.000120704 -1.13172e-05
0.000120704 0.00216819 -8.9968e-07
-1.13172e-05 -8.9968e-07 0.0021633
0.000683369 -6.21876e-05 -1.14356e-05
-6.21876e-05 9.49292e-05 1.15542e-05
-1.14356e-05 1.15542e-05 3.36065e-05
0.00480555 0.000117108 -0.000163313
0.000117108 0.00268208 1.50677e-05
-0.000163313 1.50677e-05 0.00267483
0.00172746 0.000254448 -2.70885e-06
0.000254448 0.000116687 3.92232e-07
-2.70885e-06 3.92232e-07 -5.0431e-05
0.00168764 0.000140097 -4.92851e-07
0.000140097 7.16146e-05 6.47755e-07
-4.92851e-07 6.47755e-07 -5.61598e-05
0.00192136 0.00023702 -1.76312e-06
0.00023702 9.79766e-05 1.66421e-06
-1.76312e-06 1.66421e-06 -1.64793e-05
0.00193745 0.000113625 -1.68488e-06
0.000113625 6.9042e-05 6.65585e-07
-1.68488e-06 6.65585e-07 4.57943e-06
0.00165299 4.51462e-05 8.71894e-08
4.51462e-05 6.51685e-05 3.56525e-07
8.71894e-08 3.56525e-07 -4.5448e-05
0.00101769 5.30473e-06 -1.17924e-05
5.30473e-06 -4.87557e-05 -1.12093e-07
-1.17924e-05 -1.12093e-07 -0.000175019
0.00164212 3.26503e-06 5.75144e-08
3.26503e-06 6.16364e-05 1.5623e-07
5.75144e-08 1.5623e-07 -4.74851e-05
0.00189742 4.90531e-05 -9.39155e-07
4.90531e-05 5.69592e-05 8.45369e-09
-9.39155e-07 8.45369e-09 6.47688e-07
0.00192915 0.000174259 -6.10775e-07
0.000174259 7.89213e-05 2.91403e-07
-6.10775e-07 2.91403e-07 -9.67456e-06
0.00194167 0.000112601 9.92339e-07
0.000112601 2.24135e-05 2.45772e-07
9.92339e-07 2.45772e-07 -1.13871e-05
0.00198768 0.000313722 -3.93841e-07
0.000313722 0.000161349 -1.63752e-07
-3.93841e-07 -1.63752e-07 1.44556e-05
0.00193566 0.00025395 1.16508e-08
0.00025395 3.20391e-05 4.77148e-07
1.16508e-08 4.77148e-07 -4.95951e-05
0.00192539 -4.63455e-06 1.64381e-06
-4.63455e-06 8.03509e-05 1.67683e-07
1.64381e-06 1.67683e-07 2.36695e-05
0.00191302 4.97455e-05 6.48336e-06
4.97455e-05 2.23602e-05 1.80022e-07
6.48336e-06 1.80022e-07 -5.00864e-06
0.00194364 0.000179297 3.16233e-06
0.000179297 1.92296e-05 2.0905e-07
3.16233e-06 2.0905e-07 -2.89886e-05
0.00201848 0.000111847 4.87348e-06
0.000111847 4.21304e-05 5.86885e-07
4.87348e-06 5.86885e-07 2.96992e-05
0.00192754 0.000309461 9.51125e-07
0.000309461 8.49273e-05 -1.17934e-06
9.51125e-07 -1.17934e-06 -3.59996e-05
0.00210914 0.000262714 3.75341e-06
0.000262714 9.17572e-05 1.24778e-06
3.75341e-06 1.24778e-06 3.47841e-05
0.00168646 -3.34717e-05 -1.21549e-06
-3.34717e-05 9.35662e-05 -1.2121e-07
-1.21549e-06 -1.2121e-07 -1.73205e-05
0.00182341 -0.000151783 -3.83163e-06
-0.000151783 0.000179543 7.75814e-08
-3.83163e-06 7.75814e-08 5.24746e-05
0.00197171 -0.000107118 7.36831e-07
-0.000107118 0.000110964 -1.02596e-06
7.36831e-07 -1.02596e-06 4.28376e-05
0.00188657 -0.000229795 -1.63933e-06
-0.000229795 9.33761e-05 -7.34651e-08
-1.63933e-06 -7.34651e-08 -2.52869e-05
0.000800213 -0.00022927 -8.01227e-06
-0.00022927 0.000115303 7.5514e-06
-8.01227e-06 7.5514e-06 -9.6328e-05
0.00114352 -0.000343555 -7.12404e-06
-0.000343555 0.000154074 3.91099e-06
-7.12404e-06 3.91099e-06 -0.000112991
0.00151023 -0.000495001 9.0527e-07
-0.000495001 0.00021793 -2.38711e-07
9.0527e-07 -2.38711e-07 -0.00010285
0.00179427 -0.000345045 -1.16957e-06
-0.000345045 0.000112442 -2.01506e-08
-1.16957e-06 -2.01506e-08 -6.24491e-05
0.00193343 -0.000314796 4.72591e-07
-0.000314796 9.62388e-05 -2.97584e-07
4.72591e-07 -2.97584e-07 -8.74843e-06
0.00193924 -0.000419782 1.73769e-06
-0.000419782 0.000185205 -5.62016e-07
1.73769e-06 -5.62016e-07 1.28557e-05
0.00188938 -0.000521329 -9.23872e-07
-0.000521329 0.000244391 -2.47421e-06
-9.23872e-07 -2.47421e-06 -2.31771e-05
0.00205119 -0.000456614 6.68733e-06
-0.000456614 0.000288228 -4.91146e-06
6.68733e-06 -4.91146e-06 0.000108876
0.000776759 -0.000237834 -1.24095e-06
-0.000237834 8.87728e-05 1.92137e-06
-1.24095e-06 1.92137e-06 -0.000152829
-8.56459e-05 -0.000157932 3.42795e-07
-0.000157932 -0.000429643 1.61275e-06
3.42795e-07 1.61275e-06 -0.000684871
0.000755932 -0.000102308 -5.36491e-07
-0.000102308 0.000164489 4.46475e-06
-5.36491e-07 4.46475e-06 2.78026e-05
0.000126936 -5.0838e-05 3.14333e-06
-5.0838e-05 -0.000191048 -2.62842e-06
3.14333e-06 -2.62842e-06 -0.000416799
0.00190782 -5.59832e-05 4.89011e-09
-5.59832e-05 7.3708e-05 1.84545e-07
4.89011e-09 1.84545e-07 9.96303e-06
0.00185155 -0.00017284 2.12036e-06
-0.00017284 4.8911e-05 -7.75624e-07
2.12036e-06 -7.75624e-07 -4.86053e-05
0.00191316 -0.000109293 1.5235e-06
-0.000109293 3.20392e-05 -5.01494e-07
1.5235e-06 -5.01494e-07 -6.53135e-06
0.00194663 -0.000258054 -1.71985e-06
-0.000258054 6.29771e-05 2.75151e-07
-1.71985e-06 2.75151e-07 -1.29222e-05
0.00106904 -0.000289236 -1.46934e-06
-0.000289236 0.000184596 6.77815e-07
-1.46934e-06 6.77815e-07 -5.66984e-05
0.00134717 -0.000468716 2.54238e-06
-0.000468716 0.000246843 -9.75803e-07
2.54238e-06 -9.75803e-07 -8.44423e-05
0.00177364 -0.000586983 -1.55653e-07
-0.000586983 0.000292254 4.26313e-07
-1.55653e-07 4.26313e-07 -4.93069e-05
0.00182103 -0.00036892 -1.46465e-06
-0.00036892 7.87173e-05 7.85742e-07
-1.46465e-06 7.85742e-07 -6.46232e-05
0.00197754 -0.000329954 1.26821e-06
-0.000329954 0.000105252 -5.40268e-07
1.26821e-06 -5.40268e-07 1.8985e-05
0.00191154 -0.000530035 -7.65864e-08
-0.000530035 0.000236856 4.67405e-07
-7.65864e-08 4.67405e-07 -2.14667e-05
0.00182679 -0.00043381 -9.15816e-07
-0.00043381 9.48652e-05 1.10273e-06
-9.15816e-07 1.10273e-06 -5.86589e-05
0.00208657 -0.000469048 4.08461e-06
-0.000469048 0.0002895 -5.46154e-06
4.08461e-06 -5.46154e-06 0.000108982
0.00110443 -0.000318999 2.49495e-07
-0.000318999 0.000223579 1.23619e-06
2.49495e-07 1.23619e-06 -3.71311e-05
0.00144807 -0.000347024 2.95809e-06
-0.000347024 0.000487699 1.11836e-06
2.95809e-06 1.11836e-06 0.000194366
0.000916986 -0.000196225 -1.53238e-07
-0.000196225 0.000295431 -5.81686e-08
-1.53238e-07 -5.81686e-08 2.18839e-05
0.000364715 -4.11294e-05 -2.16162e-06
-4.11294e-05 -6.90929e-05 6.15995e-07
-2.16162e-06 6.15995e-07 -0.000180126
0.000154996 -5.03825e-05 -4.50934e-07
-5.03825e-05 -0.000148606 -6.3784e-07
-4.50934e-07 -6.3784e-07 -0.000355871
0.00189237 -5.94045e-05 5.69186e-06
-5.94045e-05 7.87652e-06 2.13421e-08
5.69186e-06 2.13421e-08 -1.53132e-05
0.00194913 -0.000162626 4.84325e-06
-0.000162626 4.02057e-05 -7.94683e-07
4.84325e-06 -7.94683e-07 8.58468e-07
0.00199481 -0.00030443 2.03756e-06
-0.00030443 3.14347e-05 -7.67006e-07
2.03756e-06 -7.67006e-07 -1.77042e-05
0.00192925 -0.000376675 1.01636e-06
-0.000376675 9.67804e-05 -1.96361e-06
1.01636e-06 -1.96361e-06 -5.85601e-06
0.00153809 -0.000409299 3.03785e-07
-0.000409299 0.000459298 -3.94233e-06
3.03785e-07 -3.94233e-06 0.000157448
0.00213579 -0.000521782 -1.00684e-06
-0.000521782 0.0002021 -3.35958e-06
-1.00684e-06 -3.35958e-06 3.4293e-05
0.00125952 -0.000544133 -3.01087e-06
-0.000544133 0.000165233 1.77596e-06
-3.01087e-06 1.77596e-06 -0.000203702
0.00193062 -0.000652368 1.86662e-06
-0.000652368 0.000342093 9.19178e-08
1.86662e-06 9.19178e-08 -1.50244e-05
0.0018742 -0.000513145 -4.68613e-06
-0.000513145 0.000200587 1.92493e-06
-4.68613e-06 1.92493e-06 -4.77746e-05
5.24907e-05 -5.75683e-06 -1.64753e-06
-5.75683e-06 -0.00025715 -4.53234e-06
-1.64753e-06 -4.53234e-06 -0.000346112
0.00069559 -0.000104734 -1.95205e-06
-0.000104734 0.00019183 5.78501e-07
-1.95205e-06 5.78501e-07 8.86189e-06
0.00105507 -0.000144496 -2.48991e-06
-0.000144496 0.000406371 -2.34264e-06
-2.48991e-06 -2.34264e-06 0.000166453
0.00180073 -0.000424935 -7.83008e-06
-0.000424935 0.00063665 -3.35841e-07
-7.83008e-06 -3.35841e-07 0.00033143
0.000609988 -0.000174489 8.30969e-07
-0.000174489 6.11112e-05 4.5035e-06
8.30969e-07 4.5035e-06 -0.000223383
0.00144909 -0.000381113 -3.39126e-06
-0.000381113 0.000449623 4.55221e-06
-3.39126e-06 4.55221e-06 0.000135336
0.000470819 -3.90041e-05 -9.57243e-07
-3.90041e-05 -4.03723e-05 -6.24306e-06
-9.57243e-07 -6.24306e-06 -6.85343e-05
0.000552234 3.53664e-06 -8.44863e-07
3.53664e-06 3.06824e-05 -4.81867e-06
-8.44863e-07 -4.81867e-06 -5.89225e-05
0.00194713 0.000368433 -2.28276e-06
0.000368433 0.00017803 -3.43247e-07
-2.28276e-06 -3.43247e-07 -1.55325e-06
-0.000155229 -2.84394e-05 1.56313e-06
-2.84394e-05 -0.000349908 -2.87605e-06
1.56313e-06 -2.87605e-06 -0.000540992
0.00112841 0.000260073 -2.48333e-06
0.000260073 0.000322384 -3.77361e-07
-2.48333e-06 -3.77361e-07 9.50602e-05
0.000161937 0.000126636 3.17736e-06
0.000126636 -0.000263945 6.02458e-07
3.17736e-06 6.02458e-07 -0.000467121
0.00182167 0.000456865 5.90643e-07
0.000456865 0.000233076 9.75372e-07
5.90643e-07 9.75372e-07 -1.2752e-05
0.00184524 0.000446316 1.78591e-06
0.000446316 0.000156895 8.56867e-07
1.78591e-06 8.56867e-07 -4.79804e-05
0.00160185 0.000402876 3.00151e-07
0.000402876 0.000496397 -3.28012e-07
3.00151e-07 -3.28012e-07 0.000194624
0.0021446 0.00053499 -2.63691e-06
0.00053499 0.000656889 1.37811e-06
-2.63691e-06 1.37811e-06 0.000335965
0.00184478 0.000529141 -4.2295e-07
0.000529141 0.00024484 1.46045e-06
-4.2295e-07 1.46045e-06 -3.00248e-05
0.000586244 2.11293e-05 -4.20301e-07
2.11293e-05 4.34613e-05 4.77119e-07
-4.20301e-07 4.77119e-07 -3.10714e-05
0.000731723 5.40378e-05 -1.0054e-06
5.40378e-05 0.000173469 4.50206e-07
-1.0054e-06 4.50206e-07 3.39151e-05
0.00117929 0.000316606 1.80964e-07
0.000316606 0.000275455 2.49473e-07
1.80964e-07 2.49473e-07 3.01715e-05
0.000911076 0.000103986 6.10026e-07
0.000103986 0.00030483 6.09945e-07
6.10026e-07 6.09945e-07 7.53313e-05
0.000859923 0.00023435 4.43472e-06
0.00023435 0.000132451 7.84455e-07
4.43472e-06 7.84455e-07 -7.55505e-05
0.00192224 0.000385122 -2.31517e-06
0.000385122 0.000141894 -1.71078e-06
-2.31517e-06 -1.71078e-06 -2.10384e-05
0.00195269 0.000511011 1.77566e-06
0.000511011 0.000269505 5.88387e-07
1.77566e-06 5.88387e-07 2.37628e-05
0.001836 0.000485529 3.79239e-07
0.000485529 0.000111256 -1.62178e-07
3.79239e-07 -1.62178e-07 -9.44697e-05
0.00119174 0.000437265 2.62046e-06
0.000437265 0.000236113 2.51744e-06
2.62046e-06 2.51744e-06 -9.51519e-05
0.00170714 0.000536496 -2.65618e-06
0.000536496 0.000301685 -1.89588e-06
-2.65618e-06 -1.89588e-06 -1.26571e-06
0.00087598 7.51398e-05 3.65067e-07
7.51398e-05 0.000255327 2.59486e-06
3.65067e-07 2.59486e-06 0.000135963
6.44166e-05 1.94824e-06 -2.1577e-06
1.94824e-06 -0.000198845 2.19799e-06
-2.1577e-06 2.19799e-06 -0.000377643
0.00119308 0.000349973 -4.00957e-06
0.000349973 0.000252417 -3.58413e-06
-4.00957e-06 -3.58413e-06 -1.37485e-05
0.000386553 0.000194654 -6.6123e-06
0.000194654 -2.21464e-05 -2.37286e-06
-6.6123e-06 -2.37286e-06 -0.000255971
0.00128492 0.00030551 -3.66196e-06
0.00030551 0.000328665 -3.59702e-06
-3.66196e-06 -3.59702e-06 0.000113196
0.00187742 0.000417901 -6.50499e-08
0.000417901 4.16618e-05 -1.20401e-06
-6.50499e-08 -1.20401e-06 -0.000104562
0.00204815 0.000566089 4.62435e-06
0.000566089 0.000302813 -1.62534e-06
4.62435e-06 -1.62534e-06 3.66169e-05
0.00174935 0.000506413 3.75713e-06
0.000506413 4.64117e-05 7.85343e-07
3.75713e-06 7.85343e-07 -0.000172065
0.0010658 0.000443875 5.67347e-06
0.000443875 0.000122289 2.87151e-06
5.67347e-06 2.87151e-06 -0.000212923
0.00191798 0.00060076 -1.76558e-06
0.00060076 0.000431833 -8.09255e-07
-1.76558e-06 -8.09255e-07 0.000108334
0.000547288 1.00242e-05 -1.73646e-06
1.00242e-05 1.46148e-05 -3.48857e-06
-1.73646e-06 -3.48857e-06 -5.01971e-05
0.000555811 5.40545e-05 1.2433e-06
5.40545e-05 4.6343e-05 4.07494e-07
1.2433e-06 4.07494e-07 -5.67262e-05
0.000388949 4.02911e-05 -5.74585e-07
4.02911e-05 -6.40239e-05 9.19007e-07
-5.74585e-07 9.19007e-07 -0.000164594
0.000289935 -2.09653e-05 -3.06932e-07
-2.09653e-05 -0.000115042 -2.03307e-06
-3.06932e-07 -2.03307e-06 -0.000212665
0.000613174 5.47507e-05 -3.30211e-07
5.47507e-05 9.34657e-05 2.24426e-08
-3.30211e-07 2.24426e-08 -9.83954e-06
0.000620062 7.86402e-05 -7.47581e-07
7.86402e-05 8.69504e-05 -1.36567e-07
-7.47581e-07 -1.36567e-07 -2.16863e-05
0.000748522 0.000114591 -3.14342e-06
0.000114591 0.00018 -3.79202e-06
-3.14342e-06 -3.79202e-06 6.61952e-05
0.000353196 5.00883e-06 8.13871e-08
5.00883e-06 -5.85114e-05 -4.61471e-07
8.13871e-08 -4.61471e-07 -0.000179027
0.000673755 8.6616e-05 9.68479e-07
8.6616e-05 0.000124554 2.33692e-06
9.68479e-07 2.33692e-06 2.7336e-05
0.00058113 6.01043e-05 3.24705e-06
6.01043e-05 5.45054e-05 3.16231e-06
3.24705e-06 3.16231e-06 -9.08623e-06
0.000546614 1.56361e-05 -2.07097e-06
1.56361e-05 2.78114e-05 -2.43472e-09
-2.07097e-06 -2.43472e-09 -3.26073e-05
0.00122815 -1.66594e-05 1.10409e-06
-1.66594e-05 0.00041752 2.8171e-06
1.10409e-06 2.8171e-06 0.000403358
0.000477537 -5.77247e-05 1.25169e-06
-5.77247e-05 -1.34e-05 -3.13577e-06
1.25169e-06 -3.13577e-06 -7.74727e-05
0.00128946 -2.66527e-05 -6.03376e-06
-2.66527e-05 0.000453365 -1.54345e-06
-6.03376e-06 -1.54345e-06 0.000438642
0.000794395 -2.99525e-05 2.45111e-05
-2.99525e-05 0.000148563 8.62228e-06
2.45111e-05 8.62228e-06 0.000154137
0.00133539 -3.85075e-05 -1.02657e-05
-3.85075e-05 0.000483524 -6.31305e-06
-1.02657e-05 -6.31305e-06 0.000466995
0.000774387 -4.21349e-05 9.32578e-06
-4.21349e-05 0.000139579 3.21025e-06
9.32578e-06 3.21025e-06 0.000141885
0.0024039 -0.00010548 -2.90539e-06
-0.00010548 0.00116295 -2.45359e-06
-2.90539e-06 -2.45359e-06 0.00116603
0.000376158 5.56235e-05 -2.58918e-06
5.56235e-05 -7.86665e-05 -4.51597e-06
-2.58918e-06 -4.51597e-06 -0.000108316
0.000431455 2.69276e-05 -3.19489e-06
2.69276e-05 -3.83209e-05 -2.29412e-08
-3.19489e-06 -2.29412e-08 -7.8455e-05
0.00271744 0.000130205 1.61547e-05
0.000130205 0.00138002 -4.54555e-06
1.61547e-05 -4.54555e-06 0.00137466
0.000589866 -4.01495e-05 -8.08423e-06
-4.01495e-05 4.70295e-05 9.46196e-06
-8.08423e-06 9.46196e-06 -1.52935e-06
0.00337887 0.000131229 -3.04811e-05
0.000131229 0.00179095 -6.16497e-07
-3.04811e-05 -6.16497e-07 0.00178447
0.00412831 9.65091e-05 -0.000140394
9.65091e-05 0.00225507 1.16544e-05
-0.000140394 1.16544e-05 0.00225537
0.00194614 0.000313603 -2.3991e-06
0.000313603 0.000129603 1.14181e-06
-2.3991e-06 1.14181e-06 -1.76802e-05
0.00194028 0.000171349 -1.06993e-06
0.000171349 8.99893e-05 1.54612e-06
-1.06993e-06 1.54612e-06 2.01474e-06
0.0019509 0.00024931 -1.20482e-06
0.00024931 4.03324e-05 1.28512e-06
-1.20482e-06 1.28512e-06 -3.67326e-05
0.00193342 0.000110916 -3.63372e-06
0.000110916 1.14631e-05 -8.69006e-08
-3.63372e-06 -8.69006e-08 -1.71979e-05
0.00187168 4.24299e-05 -3.04225e-06
4.24299e-05 4.17309e-05 2.26789e-07
-3.04225e-06 2.26789e-07 -1.51391e-05
0.00165357 6.13419e-06 2.27664e-07
6.13419e-06 6.93676e-05 2.15352e-07
2.27664e-07 2.15352e-07 -3.97235e-05
0.00189253 -4.28081e-06 -6.62034e-07
-4.28081e-06 6.22316e-05 7.20656e-08
-6.62034e-07 7.20656e-08 3.71473e-06
0.00192871 4.94163e-05 1.44012e-06
4.94163e-05 3.6094e-05 2.40854e-09
1.44012e-06 2.40854e-09 6.05386e-06
0.00198235 0.000179247 -8.38999e-08
0.000179247 4.55835e-05 -3.92686e-08
-8.38999e-08 -3.92686e-08 -4.34339e-06
0.00198348 0.000112494 8.61415e-07
0.000112494 1.65955e-05 2.97965e-07
8.61415e-07 2.97965e-07 7.60632e-06
0.00191483 0.000306696 -7.07234e-07
0.000306696 8.60572e-05 -1.51099e-07
-7.07234e-07 -1.51099e-07 -3.46398e-05
0.00205527 0.000264906 3.23366e-06
0.000264906 5.52888e-05 6.50713e-07
3.23366e-06 6.50713e-07 3.31957e-06
0.00192045 -9.37201e-06 6.01226e-06
-9.37201e-06 3.70229e-05 2.4811e-07
6.01226e-06 2.4811e-07 7.24811e-06
0.00196332 5.28239e-05 3.3389e-06
5.28239e-05 3.10973e-06 -3.07603e-08
3.3389e-06 -3.07603e-08 6.84324e-07
0.00203896 0.00017924 2.19886e-06
0.00017924 1.62608e-05 5.60486e-07
2.19886e-06 5.60486e-07 3.02171e-06
0.0020669 0.000345183 -3.99856e-07
0.000345183 7.66327e-05 6.71751e-07
-3.99856e-07 6.71751e-07 -9.60832e-07
0.00188197 -5.52183e-05 -2.34098e-06
-5.52183e-05 5.85599e-05 2.40017e-07
-2.34098e-06 2.40017e-07 -5.34432e-06
0.0018895 -0.000174836 1.56761e-06
-0.000174836 7.6234e-05 -1.31044e-06
1.56761e-06 -1.31044e-06 -2.25634e-05
0.0019521 -0.000110385 -3.84519e-06
-0.000110385 5.48322e-05 -1.54932e-07
-3.84519e-06 -1.54932e-07 1.71115e-05
0.00192223 -0.000254305 -4.58591e-06
-0.000254305 5.38611e-05 1.56989e-06
-4.58591e-06 1.56989e-06 -2.55182e-05
0.000912556 -0.000274141 -4.25858e-06
-0.000274141 8.42806e-05 4.6474e-06
-4.25858e-06 4.6474e-06 -0.000155381
0.0012715 -0.000451798 -1.58536e-07
-0.000451798 0.000211018 8.89349e-08
-1.58536e-07 8.89349e-08 -0.000114754
0.00175296 -0.000594398 2.921e-07
-0.000594398 0.000274913 -1.06958e-06
2.921e-07 -1.06958e-06 -7.23926e-05
0.00187252 -0.000369568 -1.53319e-06
-0.000369568 0.000119703 3.80354e-07
-1.53319e-06 3.80354e-07 -2.7376e-05
0.00189286 -0.000328475 -6.88762e-07
-0.000328475 5.67948e-05 1.24374e-06
-6.88762e-07 1.24374e-06 -2.80159e-05
0.00181183 -0.000435161 2.0455e-06
-0.000435161 7.39954e-05 1.4957e-06
2.0455e-06 1.4957e-06 -8.05314e-05
0.00188273 -0.000526922 -1.17264e-06
-0.000526922 0.000233831 -2.31852e-06
-1.17264e-06 -2.31852e-06 -2.48432e-05
0.0019576 -0.000455725 5.60236e-06
-0.000455725 0.000197437 -7.4737e-06
5.60236e-06 -7.4737e-06 2.37572e-05
0.000998163 -0.000309134 1.63697e-06
-0.000309134 0.000157241 2.16044e-06
1.63697e-06 2.16044e-06 -0.00010236
0.000846459 -0.000281178 4.31457e-06
-0.000281178 9.03963e-05 1.05102e-06
4.31457e-06 1.05102e-06 -0.000181445
0.000604241 -0.000165142 3.79498e-06
-0.000165142 0.000107238 -3.92845e-06
3.79498e-06 -3.92845e-06 -0.000169503
0.000167209 -2.25758e-05 -3.49188e-08
-2.25758e-05 -0.000191602 3.9543e-06
-3.49188e-08 3.9543e-06 -0.000304078
0.000139551 -7.54307e-06 3.5698e-06
-7.54307e-06 -0.000164174 1.06999e-08
3.5698e-06 1.06999e-08 -0.000362727
0.00190279 -6.7244e-05 -1.44781e-07
-6.7244e-05 1.08295e-05 -1.31414e-07
-1.44781e-07 -1.31414e-07 -1.37324e-05
0.0019469 -0.00016231 1.11255e-06
-0.00016231 3.7849e-05 -1.25517e-07
1.11255e-06 -1.25517e-07 -2.43679e-06
0.00199338 -0.000299108 -9.05527e-07
-0.000299108 4.5489e-05 -2.92477e-09
-9.05527e-07 -2.92477e-09 -7.14512e-06
0.00132412 -0.000389125 -1.75399e-06
-0.000389125 0.000320921 -5.57587e-07
-1.75399e-06 -5.57587e-07 2.34613e-05
0.00132745 -0.000538869 2.96303e-06
-0.000538869 0.000207152 -8.70683e-07
2.96303e-06 -8.70683e-07 -0.000158035
0.00184089 -0.000646177 4.22054e-08
-0.000646177 0.000298646 -3.03065e-07
4.22054e-08 -3.03065e-07 -6.12227e-05
0.00189533 -0.000373729 3.15434e-07
-0.000373729 7.40858e-05 1.82466e-07
3.15434e-07 1.82466e-07 -2.95068e-05
0.00201203 -0.000533347 1.02712e-06
-0.000533347 0.000269942 -3.24329e-06
1.02712e-06 -3.24329e-06 2.43348e-05
0.00201812 -0.000504294 -8.30704e-07
-0.000504294 0.000161254 -5.4543e-07
-8.30704e-07 -5.4543e-07 -3.64532e-06
0.000184714 4.58543e-05 -1.43266e-06
4.58543e-05 -0.000184455 -7.75113e-07
-1.43266e-06 -7.75113e-07 -0.000267158
0.0011703 -0.000358052 -1.9311e-08
-0.000358052 0.000236994 2.09305e-07
-1.9311e-08 2.09305e-07 -5.17038e-05
0.00135938 -0.000372008 3.91539e-08
-0.000372008 0.000395021 2.30196e-06
3.91539e-08 2.30196e-06 8.97761e-05
0.0012452 -0.00026364 -3.3586e-07
-0.00026364 0.000466556 4.58754e-07
-3.3586e-07 4.58754e-07 0.000157586
0.00124884 -0.000150554 9.87265e-07
-0.000150554 0.000523685 -2.8858e-06
9.87265e-07 -2.8858e-06 0.000285609
0.000468485 -3.18012e-05 -7.17078e-07
-3.18012e-05 4.22078e-05 1.40916e-06
-7.17078e-07 1.40916e-06 -0.000133935
0.00195485 -8.29465e-05 3.75147e-06
-8.29465e-05 9.02342e-06 -8.01024e-09
3.75147e-06 -8.01024e-09 5.04759e-06
0.00207094 -0.000209539 1.45091e-06
-0.000209539 1.05641e-05 -4.00412e-07
1.45091e-06 -4.00412e-07 1.02541e-05
0.00208115 -0.000364091 1.43951e-06
-0.000364091 5.78377e-05 -9.49018e-07
1.43951e-06 -9.49018e-07 2.63636e-05
0.00212518 -0.000452439 1.83599e-06
-0.000452439 0.000118045 -2.31365e-06
1.83599e-06 -2.31365e-06 2.60873e-05
0.00164465 -0.000491841 -6.04046e-06
-0.000491841 0.000488534 -1.75119e-06
-6.04046e-06 -1.75119e-06 0.000144826
0.00201313 -0.000574146 3.58706e-06
-0.000574146 0.000198529 -1.29429e-06
3.58706e-06 -1.29429e-06 -1.72019e-05
0.00156417 -0.000632559 -1.04926e-05
-0.000632559 0.000310863 1.71376e-06
-1.04926e-05 1.71376e-06 -9.551e-05
0.00219598 -0.000708153 -8.8498e-06
-0.000708153 0.000516562 5.73656e-07
-8.8498e-06 5.73656e-07 0.000134409
0.000138571 5.82101e-05 -3.76707e-06
5.82101e-05 -0.000217335 -1.59725e-06
-3.76707e-06 -1.59725e-06 -0.0002808
0.000671248 5.20423e-06 -1.89422e-06
5.20423e-06 0.000156936 3.4264e-07
-1.89422e-06 3.4264e-07 2.17844e-05
0.00125872 -0.000174132 -4.82596e-06
-0.000174132 0.000547695 2.26748e-06
-4.82596e-06 2.26748e-06 0.000334735
0.000920445 -6.30024e-05 -2.67593e-06
-6.30024e-05 0.000283146 -1.48832e-07
-2.67593e-06 -1.48832e-07 1.94006e-05
0.00159555 -0.000455334 -1.65958e-06
-0.000455334 0.000475232 7.45357e-07
-1.65958e-06 7.45357e-07 0.000135511
0.00157863 -0.00038492 -1.16238e-05
-0.00038492 0.000586131 1.35721e-05
-1.16238e-05 1.35721e-05 0.000213949
0.0004759 1.26721e-05 -1.7501e-06
1.26721e-05 -2.37204e-05 -3.74358e-06
-1.7501e-06 -3.74358e-06 -9.70762e-05
0.000303341 9.91911e-07 1.65109e-06
9.91911e-07 -0.000104877 -2.26963e-06
1.65109e-06 -2.26963e-06 -0.000225435
0.00187445 0.000386097 -1.97791e-06
0.000386097 0.000112866 -6.84904e-07
-1.97791e-06 -6.84904e-07 -5.10878e-05
0.000201543 4.80288e-05 1.18055e-06
4.80288e-05 -0.000143058 -2.86753e-07
1.18055e-06 -2.86753e-07 -0.00035467
0.00147953 0.000346627 -2.56128e-07
0.000346627 0.000460471 8.61618e-08
-2.56128e-07 8.61618e-08 0.000211222
-0.000114339 0.000121946 5.24016e-06
0.000121946 -0.000480322 2.37199e-06
5.24016e-06 2.37199e-06 -0.000657075
0.00193909 0.000509056 1.56196e-06
0.000509056 0.000259387 8.19585e-07
1.56196e-06 8.19585e-07 1.38451e-05
0.00195214 0.000488293 -4.27727e-06
0.000488293 0.00017875 4.01119e-07
-4.27727e-06 4.01119e-07 -2.62846e-05
0.00158607 0.000489061 -8.75364e-07
0.000489061 0.000463737 2.75474e-06
-8.75364e-07 2.75474e-06 0.000124264
0.00201756 0.000569064 -3.33741e-06
0.000569064 0.000501992 1.52076e-07
-3.33741e-06 1.52076e-07 0.000189234
0.000683386 4.02398e-05 -9.35322e-07
4.02398e-05 0.0001316 1.20187e-07
-9.35322e-07 1.20187e-07 1.94926e-05
0.00038248 5.21463e-05 8.48013e-07
5.21463e-05 -1.04094e-06 4.12793e-07
8.48013e-07 4.12793e-07 -0.000190718
0.00147161 0.000378492 -1.4806e-06
0.000378492 0.000426619 -1.46519e-06
-1.4806e-06 -1.46519e-06 0.000154025
0.00029262 8.93233e-05 -1.4105e-06
8.93233e-05 -0.00012566 -5.28046e-07
-1.4105e-06 -5.28046e-07 -0.000318007
0.000872787 0.00026535 8.87896e-07
0.00026535 6.61587e-05 -1.89854e-06
8.87896e-07 -1.89854e-06 -0.000134684
0.0020656 0.000431164 -2.85053e-06
0.000431164 0.000145749 -1.25196e-06
-2.85053e-06 -1.25196e-06 1.66584e-06
0.00216903 0.000566568 2.46524e-06
0.000566568 0.000378655 -2.8165e-07
2.46524e-06 -2.8165e-07 0.000117372
0.00197658 0.000531396 2.83777e-06
0.000531396 0.000168874 2.77587e-06
2.83777e-06 2.77587e-06 -5.50947e-05
0.00120657 0.000460141 3.94778e-06
0.000460141 0.000215462 2.42421e-06
3.94778e-06 2.42421e-06 -0.000124669
0.00174788 0.000599357 -4.37426e-06
0.000599357 0.000332284 -1.43153e-07
-4.37426e-06 -1.43153e-07 1.01894e-06
-0.000210018 6.4193e-06 -1.55459e-06
6.4193e-06 -0.000408773 3.65379e-06
-1.55459e-06 3.65379e-06 -0.000520453
-0.000151395 0.000132095 1.79218e-06
0.000132095 -0.000276363 2.55975e-06
1.79218e-06 2.55975e-06 -0.000516708
0.00100586 0.000344378 7.25333e-07
0.000344378 0.000134981 -6.70889e-07
7.25333e-07 -6.70889e-07 -0.000143047
-0.000293441 0.000141315 2.03213e-06
0.000141315 -0.000589385 3.68588e-09
2.03213e-06 3.68588e-09 -0.000783079
0.00208411 0.000432493 1.97103e-06
0.000432493 -9.48342e-05 1.57786e-06
1.97103e-06 1.57786e-06 -0.000113252
0.00271157 0.000546012 3.64168e-06
0.000546012 0.000536507 1.69276e-07
3.64168e-06 1.69276e-07 0.000350702
0.0019943 0.000627255 -5.16226e-06
0.000627255 0.000306558 -4.27117e-06
-5.16226e-06 -4.27117e-06 -4.43058e-06
0.0014372 0.000552454 3.61452e-07
0.000552454 0.000255805 1.00176e-07
3.61452e-07 1.00176e-07 -0.000110185
0.00064513 9.08635e-05 -6.67594e-07
9.08635e-05 0.000107459 -1.2967e-06
-6.67594e-07 -1.2967e-06 -6.80482e-08
0.00059693 7.32641e-05 -4.34133e-07
7.32641e-05 7.62901e-05 -8.70027e-08
-4.34133e-07 -8.70027e-08 -3.44404e-05
0.00100233 7.19174e-05 -5.37567e-06
7.19174e-05 0.000324981 -2.26289e-06
-5.37567e-06 -2.26289e-06 0.000227208
0.00059437 3.45397e-05 -1.27125e-06
3.45397e-05 6.32989e-05 -2.20847e-06
-1.27125e-06 -2.20847e-06 -2.66989e-05
0.000269741 2.7941e-05 -1.30618e-07
2.7941e-05 -0.000127251 -1.57891e-07
-1.30618e-07 -1.57891e-07 -0.000229421
0.000619839 4.46542e-05 -3.99029e-07
4.46542e-05 9.39872e-05 1.00488e-07
-3.99029e-07 1.00488e-07 -4.05377e-06
0.000593274 0.000110925 -1.08184e-06
0.000110925 9.95595e-05 4.39622e-07
-1.08184e-06 4.39622e-07 -1.64e-05
0.000518987 4.20764e-05 1.05222e-06
4.20764e-05 4.84658e-05 1.25968e-07
1.05222e-06 1.25968e-07 -7.68628e-05
0.000654706 8.32659e-05 2.09283e-06
8.32659e-05 0.000106629 -1.7491e-06
2.09283e-06 -1.7491e-06 2.11045e-05
0.000739292 5.3685e-06 3.13534e-06
5.3685e-06 0.000179332 -4.0408e-06
3.13534e-06 -4.0408e-06 5.82249e-05
0.000361169 6.37919e-05 4.31063e-07
6.37919e-05 -4.77387e-05 1.75538e-06
4.31063e-07 1.75538e-06 -0.000173805
0.0006661 9.92803e-05 2.17226e-06
9.92803e-05 0.000124957 3.00724e-06
2.17226e-06 3.00724e-06 2.27618e-05
0.000493824 6.7758e-05 3.01482e-06
6.7758e-05 7.6911e-06 3.07809e-06
3.01482e-06 3.07809e-06 -6.17949e-05
0.000499442 8.85173e-06 -1.49704e-06
8.85173e-06 4.35205e-06 -2.06892e-07
-1.49704e-06 -2.06892e-07 -5.87198e-05
0.00120731 9.35e-07 1.42295e-06
9.35e-07 0.000409356 2.64194e-06
1.42295e-06 2.64194e-06 0.000395412
0.000497706 -4.58815e-05 2.38081e-08
-4.58815e-05 -1.57586e-06 -2.82537e-06
2.38081e-08 -2.82537e-06 -6.22356e-05
0.00128796 -1.14958e-05 -5.49316e-06
-1.14958e-05 0.000454491 -1.62239e-06
-5.49316e-06 -1.62239e-06 0.000440699
0.000787459 -2.03925e-05 2.18859e-05
-2.03925e-05 0.000144642 8.78354e-06
2.18859e-05 8.78354e-06 0.000151001
0.00133034 -2.34469e-05 -9.27176e-06
-2.34469e-05 0.000478788 -6.12347e-06
-9.27176e-06 -6.12347e-06 0.000464349
0.00076212 -3.20865e-05 8.02089e-06
-3.20865e-05 0.000127614 3.29083e-06
8.02089e-06 3.29083e-06 0.000132256
0.000719848 -4.18029e-05 -2.3851e-07
-4.18029e-05 0.000105475 -2.70376e-06
-2.3851e-07 -2.70376e-06 0.000107414
0.000436864 4.04248e-05 -3.34057e-07
4.04248e-05 -6.00269e-05 -3.19631e-06
-3.34057e-07 -3.19631e-06 -7.88328e-05
0.000441077 6.85121e-05 -1.86049e-07
6.85121e-05 -3.33613e-05 2.31231e-07
-1.86049e-07 2.31231e-07 -6.71043e-05
0.00236827 0.000103841 1.4182e-05
0.000103841 0.00115514 -4.11081e-06
1.4182e-05 -4.11081e-06 0.0011571
0.000531093 2.61555e-05 -4.39401e-06
2.61555e-05 2.57744e-05 7.77396e-06
-4.39401e-06 7.77396e-06 -1.7114e-05
0.00283543 0.000136949 -4.96111e-06
0.000136949 0.00145357 -5.64182e-07
-4.96111e-06 -5.64182e-07 0.0014464
0.00353364 8.51171e-05 -0.000113082
8.51171e-05 0.00188209 8.41786e-06
-0.000113082 8.41786e-06 0.0018867
0.0018915 0.000303333 -6.27083e-07
0.000303333 8.15994e-05 1.47467e-06
-6.27083e-07 1.47467e-06 -3.89216e-05
0.00202056 0.000179447 -5.0885e-06
0.000179447 7.10962e-05 -6.09992e-07
-5.0885e-06 -6.09992e-07 1.9577e-05
0.00200565 0.000267376 -4.14001e-07
0.000267376 2.12453e-05 -3.58161e-07
-4.14001e-07 -3.58161e-07 -2.58561e-05
0.00195089 0.0001134 -3.28929e-06
0.0001134 -7.95347e-06 -5.16608e-07
-3.28929e-06 -5.16608e-07 -1.34908e-05
0.00194452 4.94298e-05 -4.98458e-06
4.94298e-05 4.97877e-05 -2.23808e-07
-4.98458e-06 -2.23808e-07 1.70516e-05
0.00186396 -6.46423e-06 -3.34642e-06
-6.46423e-06 4.7056e-05 2.32483e-07
-3.34642e-06 2.32483e-07 -1.31047e-05
0.00191489 -7.44763e-06 -4.08908e-07
-7.44763e-06 3.36985e-05 -6.51293e-08
-4.08908e-07 -6.51293e-08 4.60031e-06
0.00196782 5.51441e-05 1.13875e-06
5.51441e-05 1.12514e-05 1.40115e-07
1.13875e-06 1.40115e-07 7.20623e-06
0.0020411 0.000184141 8.14242e-07
0.000184141 1.98358e-05 2.14197e-07
8.14242e-07 2.14197e-07 6.3568e-06
0.00208938 0.000340098 7.62298e-07
0.000340098 8.09199e-05 3.45784e-07
7.62298e-07 3.45784e-07 3.46257e-06
0.0019495 -1.33634e-05 2.3581e-06
-1.33634e-05 8.74218e-06 -5.1674e-08
2.3581e-06 -5.1674e-08 2.49626e-06
0.00208659 0.000105146 9.11329e-07
0.000105146 -1.94795e-05 -1.01913e-07
9.11329e-07 -1.01913e-07 9.89617e-06
0.0022426 0.0002834 2.08079e-06
0.0002834 5.2132e-05 9.92792e-07
2.08079e-06 9.92792e-07 3.9458e-05
0.00191632 -7.52284e-05 -5.21149e-06
-7.52284e-05 1.54456e-05 1.71379e-07
-5.21149e-06 1.71379e-07 -1.02999e-05
0.00195483 -0.000162075 -2.65814e-06
-0.000162075 4.20576e-05 4.62248e-08
-2.65814e-06 4.62248e-08 1.08218e-06
0.00199263 -0.000293763 -3.06351e-06
-0.000293763 6.05606e-05 1.05771e-06
-3.06351e-06 1.05771e-06 3.89622e-06
0.00102133 -0.000358785 -2.77315e-06
-0.000358785 0.000128348 2.13475e-06
-2.77315e-06 2.13475e-06 -0.00016244
0.00137751 -0.000528652 7.57406e-06
-0.000528652 0.000241393 -2.21052e-06
7.57406e-06 -2.21052e-06 -0.000117862
0.0017013 -0.000634957 -3.73017e-07
-0.000634957 0.000226884 6.70483e-07
-3.73017e-07 6.70483e-07 -0.000133523
0.00187678 -0.000371313 -1.13612e-06
-0.000371313 6.09062e-05 1.18816e-06
-1.13612e-06 1.18816e-06 -4.3601e-05
0.00188858 -0.000484313 8.68378e-07
-0.000484313 0.000116047 1.17106e-06
8.68378e-07 1.17106e-06 -4.57965e-05
0.00209486 -0.000548956 3.74632e-06
-0.000548956 0.0003131 -6.95053e-06
3.74632e-06 -6.95053e-06 7.07978e-05
0.00108819 -0.000348555 3.40721e-06
-0.000348555 0.000185086 2.9053e-06
3.40721e-06 2.9053e-06 -0.000100946
0.000794459 -0.000312771 -1.05457e-05
-0.000312771 5.31692e-05 1.42012e-06
-1.05457e-05 1.42012e-06 -0.000232387
0.00214071 -0.000375524 1.5571e-06
-0.000375524 0.00104302 -7.84734e-07
1.5571e-06 -7.84734e-07 0.000701084
0.000359653 4.61195e-05 2.26414e-06
4.61195e-05 -7.98508e-05 7.68756e-07
2.26414e-06 7.68756e-07 -0.00015983
0.00105842 -0.000155561 3.62457e-06
-0.000155561 0.000391534 2.13542e-06
3.62457e-06 2.13542e-06 0.000172039
0.000125206 3.56193e-05 5.23174e-06
3.56193e-05 -0.000177971 6.19304e-07
5.23174e-06 6.19304e-07 -0.000345782
0.00196901 -8.26048e-05 -4.90776e-07
-8.26048e-05 1.71913e-05 8.73392e-08
-4.90776e-07 8.73392e-08 1.14878e-05
0.00204001 -0.000215704 1.59846e-07
-0.000215704 -1.13792e-05 -1.16336e-08
1.59846e-07 -1.16336e-08 -1.03548e-05
0.00205172 -0.000358342 -5.26009e-07
-0.000358342 4.69992e-05 3.15025e-07
-5.26009e-07 3.15025e-07 1.18879e-05
0.00150666 -0.000474013 -1.81517e-06
-0.000474013 0.000410124 -3.347e-07
-1.81517e-06 -3.347e-07 7.12095e-05
0.0014353 -0.00061345 1.94824e-06
-0.00061345 0.00023661 -1.03764e-06
1.94824e-06 -1.03764e-06 -0.000163655
0.00227955 -0.000708474 -5.08676e-06
-0.000708474 0.000558654 8.09579e-07
-5.08676e-06 8.09579e-07 0.000186613
0.00206807 -0.000457039 5.99246e-07
-0.000457039 8.66218e-05 -4.71671e-07
5.99246e-07 -4.71671e-07 -1.08166e-05
0.00188955 -0.000557889 1.43482e-06
-0.000557889 0.000129205 -3.04852e-06
1.43482e-06 -3.04852e-06 -8.19876e-05
0.000365132 5.92649e-05 -1.1006e-06
5.92649e-05 -8.1522e-05 -1.06727e-06
-1.1006e-06 -1.06727e-06 -0.000140518
0.000664193 -1.52072e-05 -7.99614e-07
-1.52072e-05 0.000148018 4.27903e-07
-7.99614e-07 4.27903e-07 1.62607e-05
0.000733846 -0.000365358 -4.81341e-06
-0.000365358 -4.68742e-05 2.41607e-06
-4.81341e-06 2.41607e-06 -0.000362047
0.00163353 -0.000361534 4.46374e-06
-0.000361534 0.000650123 -2.81724e-07
4.46374e-06 -2.81724e-07 0.000275948
0.00128907 -0.00012662 -2.39551e-07
-0.00012662 0.000518903 -1.96764e-06
-2.39551e-07 -1.96764e-06 0.000250555
0.000829369 -0.000126738 -5.56059e-07
-0.000126738 0.000278045 9.02506e-07
-5.56059e-07 9.02506e-07 7.05045e-05
0.00203831 -0.00011291 -5.65448e-07
-0.00011291 -2.28501e-05 -7.22423e-08
-5.65448e-07 -7.22423e-08 4.13426e-06
0.00215409 -0.000309169 -1.38771e-06
-0.000309169 -3.65722e-05 4.6324e-07
-1.38771e-06 4.6324e-07 4.03284e-06
0.00213866 -0.00041714 1.45887e-06
-0.00041714 6.12421e-05 -3.86457e-07
1.45887e-06 -3.86457e-07 3.60221e-05
0.00223384 -0.00060784 6.77871e-06
-0.00060784 0.000170696 -3.0843e-06
6.77871e-06 -3.0843e-06 2.95995e-05
0.000682951 -0.000443347 -3.51021e-07
-0.000443347 -9.19547e-05 -4.29972e-06
-3.51021e-07 -4.29972e-06 -0.000451803
0.00228209 -0.000738956 -9.10977e-07
-0.000738956 0.000491077 1.08865e-05
-9.10977e-07 1.08865e-05 0.000139576
0.00236754 -0.000770196 -1.14278e-05
-0.000770196 0.000729728 -3.57033e-06
-1.14278e-05 -3.57033e-06 0.000276097
0.000586764 4.94883e-05 7.54877e-07
4.94883e-05 3.86362e-05 -7.43638e-07
7.54877e-07 -7.43638e-07 -6.61371e-06
0.000661453 -0.00013012 4.52784e-06
-0.00013012 0.000134383 -2.42333e-06
4.52784e-06 -2.42333e-06 3.92372e-05
0.000321476 7.41656e-05 -5.25027e-06
7.41656e-05 -7.32782e-05 1.2706e-06
-5.25027e-06 1.2706e-06 -0.000170932
0.000785662 -5.04225e-05 -3.98189e-06
-5.04225e-05 0.000248568 5.30357e-06
-3.98189e-06 5.30357e-06 7.30623e-05
0.000350294 -7.57591e-05 1.77289e-06
-7.57591e-05 -5.90379e-05 -2.80767e-06
1.77289e-06 -2.80767e-06 -0.000265152
-0.000864344 -3.89436e-06 1.90635e-06
-3.89436e-06 -0.000763366 3.39555e-08
1.90635e-06 3.39555e-08 -0.00108892
0.00141354 -0.000461779 -1.45373e-05
-0.000461779 0.000360982 9.40645e-06
-1.45373e-05 9.40645e-06 2.90303e-05
0.00299647 -0.000515708 -1.8471e-05
-0.000515708 0.00158285 1.08265e-05
-1.8471e-05 1.08265e-05 0.00104034
0.000608323 1.13457e-05 -4.00622e-07
1.13457e-05 7.88805e-05 -1.45812e-06
-4.00622e-07 -1.45812e-06 -2.52712e-05
0.000766501 0.000116381 3.45278e-07
0.000116381 0.000239377 -1.38636e-06
3.45278e-07 -1.38636e-06 3.7252e-05
0.00224154 0.000443649 -2.12124e-06
0.000443649 0.000243467 -1.31643e-06
-2.12124e-06 -1.31643e-06 0.000101561
0.000648698 0.000138203 -1.75352e-06
0.000138203 0.000105119 2.52182e-06
-1.75352e-06 2.52182e-06 -0.000101164
0.00168211 0.000400677 -6.8419e-07
0.000400677 0.000558201 1.59846e-06
-6.8419e-07 1.59846e-06 0.000279319
0.000366465 0.00021393 -2.69864e-06
0.00021393 -0.000251034 -1.3729e-06
-2.69864e-06 -1.3729e-06 -0.000435802
0.00224344 0.000561098 -3.21011e-06
0.000561098 0.000430903 -3.58717e-07
-3.21011e-06 -3.58717e-07 0.000176006
0.00214392 0.000551395 -6.60526e-06
0.000551395 0.000258056 5.0109e-06
-6.60526e-06 5.0109e-06 2.97574e-05
0.00166215 0.000516532 -7.36512e-07
0.000516532 0.000490831 8.86028e-07
-7.36512e-07 8.86028e-07 0.000139673
0.00156282 0.000598415 4.85068e-07
0.000598415 0.000219184 3.52224e-07
4.85068e-07 3.52224e-07 -0.000119201
0.000109562 3.74166e-05 -4.86607e-09
3.74166e-05 -0.000206523 1.35122e-06
-4.86607e-09 1.35122e-06 -0.000329444
0.000285427 0.000166311 -9.66998e-07
0.000166311 -1.49681e-05 -3.3028e-06
-9.66998e-07 -3.3028e-06 -0.000254925
0.00150162 0.00040597 2.5946e-06
0.00040597 0.000425698 -3.02455e-07
2.5946e-06 -3.02455e-07 0.000134881
0.000708786 0.000227501 -2.29758e-06
0.000227501 2.27811e-05 -7.07114e-07
-2.29758e-06 -7.07114e-07 -0.000182765
0.0021876 0.000422056 8.71029e-07
0.000422056 -4.17112e-05 -9.93407e-07
8.71029e-07 -9.93407e-07 -5.85205e-05
0.00245347 0.000538561 3.12007e-06
0.000538561 0.000390249 5.87961e-07
3.12007e-06 5.87961e-07 0.000200362
0.00197872 0.000615187 -2.52464e-07
0.000615187 0.000297567 6.55913e-07
-2.52464e-07 6.55913e-07 -7.48604e-06
0.00157228 0.000566477 7.84587e-07
0.000566477 0.000317787 5.59665e-07
7.84587e-07 5.59665e-07 -4.6198e-05
2.26676e-05 4.78502e-05 -1.40618e-06
4.78502e-05 -0.000264655 4.42676e-06
-1.40618e-06 4.42676e-06 -0.000394819
0.00212681 0.00033494 5.60439e-06
0.00033494 -0.000139469 3.92027e-06
5.60439e-06 3.92027e-06 -8.81815e-05
0.00195107 0.000384904 5.97755e-06
0.000384904 0.000947994 8.48723e-06
5.97755e-06 8.48723e-06 0.000663694
0.00139733 0.000415669 3.0023e-06
0.000415669 0.00032672 -4.49759e-07
3.0023e-06 -4.49759e-07 4.04091e-05
0.00255692 0.000527413 -1.71892e-05
0.000527413 0.000306185 -7.04299e-06
-1.71892e-05 -7.04299e-06 0.000203379
0.00106719 0.000568426 -1.03852e-05
0.000568426 -0.000319899 -8.74866e-06
-1.03852e-05 -8.74866e-06 -0.000608585
0.00213526 0.000655792 -3.65762e-06
0.000655792 0.000586348 2.32855e-06
-3.65762e-06 2.32855e-06 0.000198207
0.000754788 9.06717e-05 -1.08099e-06
9.06717e-05 0.000172536 -1.00381e-06
-1.08099e-06 -1.00381e-06 6.1469e-05
0.000652324 8.504e-05 -2.67985e-06
8.504e-05 0.000120611 -7.89159e-07
-2.67985e-06 -7.89159e-07 1.755e-05
0.00138051 8.67023e-05 -3.48289e-06
8.67023e-05 0.000571702 -1.64176e-06
-3.48289e-06 -1.64176e-06 0.000488604
0.000545252 3.65647e-06 2.1493e-07
3.65647e-06 5.11071e-05 -3.0365e-06
2.1493e-07 -3.0365e-06 -4.85937e-05
0.000683959 7.37441e-05 1.65361e-06
7.37441e-05 0.000153401 1.99321e-08
1.65361e-06 1.99321e-08 2.45507e-05
0.000125861 5.6665e-05 -1.11017e-06
5.6665e-05 -0.000171633 3.87792e-06
-1.11017e-06 3.87792e-06 -0.00028083
0.000579987 1.60668e-05 -1.05507e-06
1.60668e-05 7.94693e-05 1.69147e-08
-1.05507e-06 1.69147e-08 -2.68263e-05
0.000352991 -1.55163e-05 -8.67318e-07
-1.55163e-05 -4.10773e-05 1.33843e-07
-8.67318e-07 1.33843e-07 -0.000172101
0.000243185 3.5022e-05 7.06342e-07
3.5022e-05 -0.000131309 6.04282e-07
7.06342e-07 6.04282e-07 -0.000208639
0.000760178 7.50368e-05 8.67259e-07
7.50368e-05 0.000207075 -8.88336e-07
8.67259e-07 -8.88336e-07 7.31834e-05
0.0014785 9.92621e-05 -4.50317e-07
9.92621e-05 0.000597445 -2.83261e-06
-4.50317e-07 -2.83261e-06 0.000542186
0.000532724 1.1255e-05 7.17739e-06
1.1255e-05 4.32354e-05 -4.83719e-06
7.17739e-06 -4.83719e-06 -4.51765e-05
0.000415642 8.48957e-05 3.23106e-07
8.48957e-05 4.40249e-06 1.72977e-06
3.23106e-07 1.72977e-06 -0.000140825
0.000610191 4.42379e-05 2.45258e-06
4.42379e-05 0.000116316 2.56959e-06
2.45258e-06 2.56959e-06 -3.00069e-05
0.000602982 3.4648e-05 2.3277e-06
3.4648e-05 8.70014e-05 2.79947e-06
2.3277e-06 2.79947e-06 -2.0047e-05
0.000491312 -4.76719e-05 -1.52649e-07
-4.76719e-05 5.33778e-06 2.90111e-06
-1.52649e-07 2.90111e-06 -6.56656e-05
0.00051638 4.18644e-06 -1.47938e-07
4.18644e-06 1.60912e-05 -2.32786e-07
-1.47938e-07 -2.32786e-07 -4.91513e-05
0.00127685 1.66847e-05 2.27058e-06
1.66847e-05 0.000459209 2.68206e-06
2.27058e-06 2.68206e-06 0.000443277
0.000518762 -9.60571e-06 3.28563e-07
-9.60571e-06 1.03112e-05 -2.99845e-06
3.28563e-07 -2.99845e-06 -4.86132e-05
0.00129095 4.82846e-06 -4.3719e-06
4.82846e-06 0.000461286 -1.62616e-06
-4.3719e-06 -1.62616e-06 0.000447158
0.000754344 -1.2018e-05 1.7007e-05
-1.2018e-05 0.000127283 8.61575e-06
1.7007e-05 8.61575e-06 0.00013398
0.00134851 -9.15546e-06 -7.51886e-06
-9.15546e-06 0.000492005 -6.20198e-06
-7.51886e-06 -6.20198e-06 0.000478227
0.000783906 -2.29796e-05 5.86068e-06
-2.29796e-05 0.000140078 3.37344e-06
5.86068e-06 3.37344e-06 0.000145706
0.000747372 -3.23827e-05 -1.42968e-07
-3.23827e-05 0.000116638 -2.57571e-06
-1.42968e-07 -2.57571e-06 0.000121093
0.000642005 -1.11887e-06 1.92751e-06
-1.11887e-06 7.0513e-05 -1.78882e-06
1.92751e-06 -1.78882e-06 2.73971e-05
0.000472963 2.86774e-05 5.78185e-07
2.86774e-05 -4.88887e-05 -3.34243e-06
5.78185e-07 -3.34243e-06 -6.20772e-05
0.00048147 4.33184e-05 3.71515e-07
4.33184e-05 -3.07418e-05 2.26596e-07
3.71515e-07 2.26596e-07 -5.05978e-05
0.0021363 8.08041e-05 1.50176e-05
8.08041e-05 0.00100111 -4.00501e-06
1.50176e-05 -4.00501e-06 0.00100934
0.000504752 6.84462e-05 5.55701e-06
6.84462e-05 5.42175e-06 6.35147e-06
5.55701e-06 6.35147e-06 -2.89862e-05
0.00249866 0.000109928 -5.51081e-06
0.000109928 0.00123658 -5.40547e-07
-5.51081e-06 -5.40547e-07 0.00123709
0.00300773 0.000120636 -3.43446e-05
0.000120636 0.00155485 4.83161e-06
-3.43446e-05 4.83161e-06 0.00155101
0.00211049 0.000335384 1.02425e-07
0.000335384 8.3912e-05 -7.82836e-08
1.02425e-07 -7.82836e-08 6.71689e-06
0.00204217 0.000188772 -2.57603e-06
0.000188772 2.39238e-05 -6.78305e-07
-2.57603e-06 -6.78305e-07 9.72522e-06
0.00196975 5.87162e-05 -3.23985e-06
5.87162e-05 1.83193e-05 -2.45446e-07
-3.23985e-06 -2.45446e-07 1.26877e-05
0.00190873 -5.37038e-06 -5.23033e-06
-5.37038e-06 3.02128e-05 -1.90393e-07
-5.23033e-06 -1.90393e-07 1.6351e-06
0.00194654 -8.34791e-06 -8.95772e-07
-8.34791e-06 4.3182e-06 5.01536e-09
-8.95772e-07 5.01536e-09 8.57852e-07
0.00206907 9.82026e-05 -8.50904e-08
9.82026e-05 -2.11047e-05 1.37006e-07
-8.50904e-08 1.37006e-07 5.18167e-06
0.0021732 0.000287756 -1.07045e-06
0.000287756 1.49053e-05 -1.05867e-07
-1.07045e-06 -1.05867e-07 4.33086e-06
0.00204424 -1.03346e-05 -1.79563e-07
-1.03346e-05 -3.73742e-05 -4.91294e-07
-1.79563e-07 -4.91294e-07 -1.05728e-06
0.00224221 0.000151276 4.57553e-06
0.000151276 -2.68455e-05 -1.14219e-07
4.57553e-06 -1.14219e-07 1.068e-05
0.00242572 0.000102351 4.89144e-06
0.000102351 0.000157903 1.23302e-05
4.89144e-06 1.23302e-05 0.000225057
0.00197984 -8.24042e-05 -3.66787e-06
-8.24042e-05 2.34055e-05 1.98562e-07
-3.66787e-06 1.98562e-07 1.58355e-05
0.00201654 -0.000223206 -1.89177e-06
-0.000223206 -2.97084e-05 1.4157e-07
-1.89177e-06 1.4157e-07 -2.73177e-05
0.00202904 -0.000352543 -1.44242e-06
-0.000352543 3.98735e-05 3.02133e-07
-1.44242e-06 3.02133e-07 2.12507e-06
0.00107633 -0.000428415 2.0343e-06
-0.000428415 0.000144782 7.56066e-07
2.0343e-06 7.56066e-07 -0.000184332
0.00168522 -0.000635829 6.59917e-06
-0.000635829 0.000381381 3.41597e-07
6.59917e-06 3.41597e-07 -2.23959e-05
0.00207024 -0.000673751 1.07987e-06
-0.000673751 0.00044524 3.00973e-07
1.07987e-06 3.00973e-07 8.87613e-05
0.00199773 -0.000460317 1.65656e-07
-0.000460317 4.74944e-05 2.41086e-06
1.65656e-07 2.41086e-06 -5.47689e-05
0.0018693 -0.000550866 -5.52216e-06
-0.000550866 0.000120572 -2.26343e-06
-5.52216e-06 -2.26343e-06 -8.77305e-05
0.000705982 -0.000357147 -7.07962e-06
-0.000357147 -5.76096e-05 -1.70866e-06
-7.07962e-06 -1.70866e-06 -0.000369649
0.00208743 -0.000384141 1.495e-05
-0.000384141 0.000967568 -8.13581e-06
1.495e-05 -8.13581e-06 0.000578324
0.00109725 -7.13131e-05 -5.74975e-08
-7.13131e-05 0.00038382 2.11121e-06
-5.74975e-08 2.11121e-06 0.000135125
0.000451638 1.72216e-05 1.35979e-06
1.72216e-05 -3.11894e-05 -3.52366e-07
1.35979e-06 -3.52366e-07 -8.56141e-05
0.000800917 3.83613e-05 5.20925e-06
3.83613e-05 0.000227113 7.71642e-08
5.20925e-06 7.71642e-08 9.46835e-05
0.000631119 -8.78513e-05 1.26869e-06
-8.78513e-05 0.000150086 3.03209e-06
1.26869e-06 3.03209e-06 -5.63116e-05
0.00204663 -0.000115677 5.71222e-07
-0.000115677 -2.60384e-05 -2.52122e-08
5.71222e-07 -2.52122e-08 3.10954e-06
0.000516212 1.45132e-05 1.38073e-06
1.45132e-05 -3.79698e-06 2.55501e-07
1.38073e-06 2.55501e-07 -4.88034e-05
0.000448657 -6.4965e-05 -1.88988e-06
-6.4965e-05 -2.30582e-05 -2.66566e-07
-1.88988e-06 -2.66566e-07 -0.00010122
0.00213911 -0.000298958 -2.46402e-07
-0.000298958 -2.61222e-05 1.91579e-07
-2.46402e-07 1.91579e-07 8.69919e-06
0.00207963 -0.000408505 -1.43131e-06
-0.000408505 2.7469e-05 1.22079e-07
-1.43131e-06 1.22079e-07 8.96786e-06
0.00164036 -0.000553666 -1.96217e-06
-0.000553666 0.00045976 9.17221e-07
-1.96217e-06 9.17221e-07 7.64098e-05
0.00183978 -0.000709349 2.01349e-06
-0.000709349 0.00044649 1.22122e-06
2.01349e-06 1.22122e-06 -3.06099e-06
0.00183518 -0.000692296 4.84358e-06
-0.000692296 0.000232111 -3.33431e-06
4.84358e-06 -3.33431e-06 -0.000107092
0.0021841 -0.000600225 2.8304e-06
-0.000600225 0.000152282 -8.38447e-07
2.8304e-06 -8.38447e-07 1.28455e-05
0.000693276 -6.39592e-07 -1.38389e-08
-6.39592e-07 0.00016328 -1.41654e-06
-1.38389e-08 -1.41654e-06 6.15389e-05
0.000677616 -3.70055e-05 3.17387e-07
-3.70055e-05 0.000179682 1.76093e-06
3.17387e-07 1.76093e-06 4.72218e-06
0.00160066 -0.000464139 3.59516e-06
-0.000464139 0.000473084 1.4615e-07
3.59516e-06 1.4615e-07 0.000132263
0.00149238 -0.000353424 1.59905e-05
-0.000353424 0.00067057 -4.04783e-06
1.59905e-05 -4.04783e-06 0.000207732
0.000501706 -6.59803e-05 -3.69358e-06
-6.59803e-05 2.55798e-05 -1.12967e-06
-3.69358e-06 -1.12967e-06 -0.000265805
0.000562479 -5.20281e-05 9.64353e-07
-5.20281e-05 8.51175e-05 -1.72774e-06
9.64353e-07 -1.72774e-06 -0.000133637
0.00207754 -0.000134444 2.28586e-06
-0.000134444 -0.00011595 -1.28097e-06
2.28586e-06 -1.28097e-06 -7.61293e-05
0.00211048 -0.000379751 -1.64806e-06
-0.000379751 -0.000171769 1.66729e-06
-1.64806e-06 1.66729e-06 -1.61076e-05
0.00220896 -0.00055103 -5.24695e-06
-0.00055103 4.0717e-05 5.48079e-07
-5.24695e-06 5.48079e-07 -4.57666e-06
0.00180224 -0.000719232 5.59131e-06
-0.000719232 3.8271e-05 -4.17923e-06
5.59131e-06 -4.17923e-06 -0.000157939
0.00106872 -0.000514865 -1.34602e-06
-0.000514865 0.000157315 -8.91821e-06
-1.34602e-06 -8.91821e-06 -0.000233487
0.00248499 -0.000852012 -1.25104e-05
-0.000852012 0.000732749 1.07644e-05
-1.25104e-05 1.07644e-05 0.000246976
0.000231765 4.79873e-05 -1.21768e-06
4.79873e-05 -0.000144705 -3.17862e-06
-1.21768e-06 -3.17862e-06 -0.000230664
0.000607729 -5.69833e-05 5.26735e-06
-5.69833e-05 7.24793e-05 -3.2848e-07
5.26735e-06 -3.2848e-07 -1.75177e-06
0.00100279 -0.000131461 1.47909e-06
-0.000131461 0.00031652 5.31534e-06
1.47909e-06 5.31534e-06 0.000213185
0.000538318 2.78148e-05 -4.05019e-06
2.78148e-05 7.68703e-05 8.90852e-06
-4.05019e-06 8.90852e-06 -6.7831e-05
0.000803358 -9.01481e-05 -5.28562e-06
-9.01481e-05 0.000233689 7.78044e-06
-5.28562e-06 7.78044e-06 5.42639e-05
0.00157992 -4.81181e-05 6.32139e-06
-4.81181e-05 0.000618161 -3.83884e-06
6.32139e-06 -3.83884e-06 0.000405646
-0.00107295 -0.000183075 7.2771e-06
-0.000183075 -0.00057546 8.98681e-07
7.2771e-06 8.98681e-07 -0.00123292
-0.000182586 -0.000420237 -3.55532e-05
-0.000420237 -0.00061808 8.18519e-06
-3.55532e-05 8.18519e-06 -0.000935441
0.000400759 5.80694e-05 -3.47172e-07
5.80694e-05 -1.82036e-05 -1.09724e-06
-3.47172e-07 -1.09724e-06 -0.000156814
0.00106236 0.00020898 -8.80486e-06
0.00020898 0.000444813 -6.31148e-06
-8.80486e-06 -6.31148e-06 0.00020744
0.00227212 0.000410772 -6.35527e-06
0.000410772 7.32461e-06 -2.83237e-06
-6.35527e-06 -2.83237e-06 -9.48694e-06
0.00228259 0.000535842 -3.8298e-06
0.000535842 0.000296372 4.21094e-07
-3.8298e-06 4.21094e-07 0.000101724
0.00193599 0.00031381 -6.84201e-06
0.00031381 0.000756483 -9.29762e-07
-6.84201e-06 -9.29762e-07 0.000544579
0.00163116 0.000424139 -4.3113e-06
0.000424139 0.000496941 -2.97247e-06
-4.3113e-06 -2.97247e-06 0.000201754
0.00201458 0.000608846 2.35812e-06
0.000608846 0.00031559 2.2128e-06
2.35812e-06 2.2128e-06 1.48301e-05
0.00176437 0.000583555 -3.73954e-07
0.000583555 0.000416713 -2.14447e-07
-3.73954e-07 -2.14447e-07 5.38945e-05
0.000472034 8.85298e-05 7.70225e-07
8.85298e-05 2.6575e-05 -1.07223e-06
7.70225e-07 -1.07223e-06 -0.000125109
0.00227681 0.000318836 -1.90654e-06
0.000318836 -4.66848e-05 -1.3808e-06
-1.90654e-06 -1.3808e-06 8.035e-06
0.00143172 0.000288477 1.50833e-06
0.000288477 0.000609972 1.74312e-06
1.50833e-06 1.74312e-06 0.000353875
0.00152745 0.000428581 1.75694e-06
0.000428581 0.000419161 9.90616e-07
1.75694e-06 9.90616e-07 0.000125869
0.00249353 0.00052379 1.6238e-06
0.00052379 0.000277733 3.77088e-07
1.6238e-06 3.77088e-07 0.000176259
0.0016508 0.000613658 -1.86417e-06
0.000613658 1.33263e-05 -4.49797e-06
-1.86417e-06 -4.49797e-06 -0.000278823
0.00196137 0.000631821 3.90535e-07
0.000631821 0.00049698 2.53594e-07
3.90535e-07 2.53594e-07 0.000112409
0.00114284 0.000221989 -3.879e-06
0.000221989 0.000476228 4.8332e-06
-3.879e-06 4.8332e-06 0.000268102
0.0030054 0.000419528 -6.97196e-05
0.000419528 0.00042654 -1.89636e-05
-6.97196e-05 -1.89636e-05 0.000504416
0.00173621 0.000436678 -4.45172e-06
0.000436678 0.000698666 2.80723e-06
-4.45172e-06 2.80723e-06 0.000412373
0.00145554 0.000496173 -3.44192e-06
0.000496173 0.000295226 -6.02822e-06
-3.44192e-06 -6.02822e-06 -5.21923e-05
0.00206966 0.00066155 -3.55523e-05
0.00066155 0.000122195 -1.83487e-05
-3.55523e-05 -1.83487e-05 -8.00114e-05
0.0010932 0.00057086 -2.70505e-05
0.00057086 -5.50781e-05 -3.47982e-06
-2.70505e-05 -3.47982e-06 -0.000416696
0.000373971 0.000600868 2.93422e-05
0.000600868 -0.00134316 -3.44318e-05
2.93422e-05 -3.44318e-05 -0.00128681
0.000236919 9.74617e-05 2.23349e-06
9.74617e-05 -0.000115938 -4.98025e-07
2.23349e-06 -4.98025e-07 -0.000225456
0.000559039 9.05713e-05 -5.64302e-07
9.05713e-05 0.000103198 9.98987e-07
-5.64302e-07 9.98987e-07 1.38951e-05
0.00180285 0.000137037 1.05574e-06
0.000137037 0.000819651 -2.39008e-06
1.05574e-06 -2.39008e-06 0.000736136
0.000482754 -6.41937e-05 5.87743e-07
-6.41937e-05 2.8629e-05 -3.60275e-06
5.87743e-07 -3.60275e-06 -8.15525e-05
0.000451229 -4.11684e-05 -1.08265e-06
-4.11684e-05 1.55742e-05 -4.37296e-07
-1.08265e-06 -4.37296e-07 -0.000111865
0.000937458 0.000163616 1.7069e-07
0.000163616 0.000319245 1.34883e-06
1.7069e-07 1.34883e-06 0.00017536
-3.05074e-05 1.47907e-05 -3.42995e-06
1.47907e-05 -0.0002811 1.01701e-05
-3.42995e-06 1.01701e-05 -0.000357693
0.000560793 -1.60511e-05 -5.00112e-07
-1.60511e-05 7.61836e-05 -4.70081e-08
-5.00112e-07 -4.70081e-08 -3.93208e-05
0.000523653 5.88785e-05 1.64532e-07
5.88785e-05 4.55078e-05 -6.1938e-07
1.64532e-07 -6.1938e-07 -8.61458e-05
0.000953223 8.23427e-05 1.49795e-06
8.23427e-05 0.000277826 3.49151e-06
1.49795e-06 3.49151e-06 0.000218542
0.000612206 5.21231e-05 1.45397e-06
5.21231e-05 0.000109023 6.83134e-07
1.45397e-06 6.83134e-07 -2.82032e-05
0.00066443 3.66163e-05 -1.61626e-06
3.66163e-05 0.000116925 -1.57135e-06
-1.61626e-06 -1.57135e-06 2.27015e-05
0.00145943 0.000102161 -3.27964e-07
0.000102161 0.000605401 -9.70454e-06
-3.27964e-07 -9.70454e-06 0.000548641
0.000940533 0.000105658 -2.2055e-06
0.000105658 0.000286744 -2.5794e-06
-2.2055e-06 -2.5794e-06 0.000142965
0.000950696 0.000115522 1.17924e-06
0.000115522 0.000308112 1.03538e-06
1.17924e-06 1.03538e-06 0.00016831
0.000792742 7.00169e-05 3.63312e-07
7.00169e-05 0.00022991 1.54946e-06
3.63312e-07 1.54946e-06 7.19843e-05
0.000340345 -2.32607e-05 1.0128e-07
-2.32607e-05 -7.68127e-05 3.11378e-06
1.0128e-07 3.11378e-06 -0.000190348
0.00097339 -4.25227e-05 -1.36799e-07
-4.25227e-05 0.000371606 -1.23188e-06
-1.36799e-07 -1.23188e-06 0.000207064
0.000270793 -3.44176e-05 -1.86624e-06
-3.44176e-05 -0.000115624 2.71723e-06
-1.86624e-06 2.71723e-06 -0.000233791
0.000486986 3.48176e-06 -1.99184e-06
3.48176e-06 7.24094e-06 3.03607e-06
-1.99184e-06 3.03607e-06 -6.86548e-05
0.000506304 3.3764e-05 2.27545e-06
3.3764e-05 1.66668e-05 -1.45371e-07
2.27545e-06 -1.45371e-07 -5.65811e-05
0.000419428 2.15314e-05 8.91401e-07
2.15314e-05 -6.36888e-05 4.17315e-06
8.91401e-07 4.17315e-06 -8.46122e-05
0.000482745 6.66499e-06 -2.93622e-06
6.66499e-06 8.1992e-07 -3.14358e-06
-2.93622e-06 -3.14358e-06 -6.82507e-05
0.0008961 1.53836e-05 -3.03258e-06
1.53836e-05 0.000224827 -1.60501e-06
-3.03258e-06 -1.60501e-06 0.00020689
0.00254316 -9.00074e-06 1.42494e-05
-9.00074e-06 0.00123386 5.34414e-06
1.42494e-05 5.34414e-06 0.00124747
0.00137378 8.80051e-06 -6.83336e-06
8.80051e-06 0.000512957 -6.12981e-06
-6.83336e-06 -6.12981e-06 0.000498413
0.000772924 -1.33874e-05 4.5111e-06
-1.33874e-05 0.000135603 3.32367e-06
4.5111e-06 3.32367e-06 0.000142032
0.000777199 -2.27606e-05 3.7243e-07
-2.27606e-05 0.000133216 -2.48108e-06
3.7243e-07 -2.48108e-06 0.000138863
0.00052406 1.60738e-05 -1.33867e-06
1.60738e-05 3.83646e-06 -1.81493e-06
-1.33867e-06 -1.81493e-06 -3.96191e-05
0.000568891 -1.42866e-05 9.59703e-07
-1.42866e-05 2.70102e-05 -2.92205e-07
9.59703e-07 -2.92205e-07 -1.70422e-05
0.000526942 2.27768e-05 5.13715e-07
2.27768e-05 -1.83237e-05 -3.38423e-06
5.13715e-07 -3.38423e-06 -2.9372e-05
0.000808149 3.6921e-05 -1.77531e-07
3.6921e-05 0.000160836 9.40943e-08
-1.77531e-07 9.40943e-08 0.000148748
0.00210313 6.46985e-05 1.17492e-05
6.46985e-05 0.000972669 -4.22174e-06
1.17492e-05 -4.22174e-06 0.000984474
0.000501516 5.00122e-05 2.90801e-06
5.00122e-05 -1.50741e-05 4.2194e-06
2.90801e-06 4.2194e-06 -3.70431e-05
0.0022743 8.71231e-05 -2.95193e-06
8.71231e-05 0.00108807 -2.42207e-07
-2.95193e-06 -2.42207e-07 0.00109467
0.00260523 0.000115755 -9.12586e-06
0.000115755 0.00130329 5.12106e-06
-9.12586e-06 5.12106e-06 0.00130235
0.00210755 0.000292432 -2.44879e-06
0.000292432 -2.25324e-05 -1.15522e-06
-2.44879e-06 -1.15522e-06 -3.02138e-05
0.00205148 9.27614e-05 3.8067e-07
9.27614e-05 -2.39197e-05 1.82011e-07
3.8067e-07 1.82011e-07 9.51924e-08
0.00194571 -4.42091e-06 -2.69093e-06
-4.42091e-06 1.07056e-06 -1.15662e-07
-2.69093e-06 -1.15662e-07 4.55159e-07
0.00203794 -7.1887e-06 1.41251e-07
-7.1887e-06 -3.97815e-05 -1.73163e-07
1.41251e-07 -1.73163e-07 -3.72043e-06
0.00222022 0.000154863 -2.31279e-07
0.000154863 -2.38736e-05 2.72228e-07
-2.31279e-07 2.72228e-07 1.24179e-05
0.00211703 8.08084e-05 7.6469e-06
8.08084e-05 -4.73238e-05 -4.49883e-06
7.6469e-06 -4.49883e-06 1.53875e-05
0.00223376 -6.17693e-06 1.93835e-06
-6.17693e-06 -6.72206e-05 -7.04964e-07
1.93835e-06 -7.04964e-07 2.22546e-06
0.00404629 0.000605692 4.26748e-05
0.000605692 -0.000384996 7.8544e-06
4.26748e-05 7.8544e-06 0.000130028
0.00242919 5.93117e-05 -2.78059e-05
5.93117e-05 0.000303758 2.85663e-05
-2.78059e-05 2.85663e-05 0.000468712
0.000504873 9.97173e-05 -1.23437e-06
9.97173e-05 3.27634e-05 -2.46816e-07
-1.23437e-06 -2.46816e-07 -5.2183e-05
0.00205566 -0.000116963 -2.30674e-07
-0.000116963 -2.82366e-05 1.98544e-09
-2.30674e-07 1.98544e-09 3.10608e-06
0.00211339 -0.000288463 1.58786e-06
-0.000288463 -2.21711e-05 -2.55291e-07
1.58786e-06 -2.55291e-07 5.8673e-06
0.00202472 -0.00040208 3.00302e-09
-0.00040208 -4.7923e-06 4.24463e-07
3.00302e-09 4.24463e-07 -1.76592e-05
0.00102602 -0.000491202 -8.44313e-06
-0.000491202 9.88456e-05 5.51878e-06
-8.44313e-06 5.51878e-06 -0.000270179
0.00220098 -0.000746874 7.77724e-06
-0.000746874 0.000646349 7.3041e-06
7.77724e-06 7.3041e-06 0.000190036
0.00167834 -0.000680358 -3.78284e-06
-0.000680358 0.00012931 -8.22449e-06
-3.78284e-06 -8.22449e-06 -0.000204933
0.00220052 -0.000597592 -3.96409e-06
-0.000597592 0.00017338 -1.07275e-07
-3.96409e-06 -1.07275e-07 3.34958e-05
0.00162565 -0.000452268 1.79907e-05
-0.000452268 0.0004599 -1.58119e-05
1.79907e-05 -1.58119e-05 0.000129489
0.000636045 -0.000250307 1.8768e-05
-0.000250307 0.000147466 -1.42956e-05
1.8768e-05 -1.42956e-05 -0.000251315
0.00131939 -8.02689e-05 1.84537e-06
-8.02689e-05 0.000492857 -1.1631e-07
1.84537e-06 -1.1631e-07 0.000231401
0.000525257 8.38838e-06 1.32421e-07
8.38838e-06 3.93755e-06 1.15013e-06
1.32421e-07 1.15013e-06 -4.11968e-05
0.000992748 -3.3103e-05 2.10693e-06
-3.3103e-05 0.000357022 3.19489e-06
2.10693e-06 3.19489e-06 0.000126924
0.000829884 -1.8949e-05 4.74785e-06
-1.8949e-05 0.000255944 -2.57866e-06
4.74785e-06 -2.57866e-06 0.000153063
0.000806593 -3.6842e-05 2.93269e-06
-3.6842e-05 0.000254223 -3.96323e-06
2.93269e-06 -3.96323e-06 7.94355e-05
0.00024436 -4.00377e-05 -4.22447e-06
-4.00377e-05 -0.000156418 1.12572e-06
-4.22447e-06 1.12572e-06 -0.000231034
0.00213253 -0.00015096 -5.77128e-07
-0.00015096 -0.000111878 -1.35766e-07
-5.77128e-07 -1.35766e-07 -5.01791e-05
0.000394624 3.02026e-05 -2.7949e-08
3.02026e-05 -3.41718e-05 -1.85951e-06
-2.7949e-08 -1.85951e-06 -0.000125432
0.000588323 -5.36827e-05 1.96989e-06
-5.36827e-05 7.88813e-05 8.57803e-07
1.96989e-06 8.57803e-07 -4.45974e-06
0.00082617 -0.000104527 1.87115e-06
-0.000104527 0.000204417 3.83429e-07
1.87115e-06 3.83429e-07 0.000107597
0.00213672 -0.000388248 1.68804e-06
-0.000388248 -0.000134411 -5.83043e-07
1.68804e-06 -5.83043e-07 -1.17114e-05
0.00220392 -0.00055411 6.67234e-07
-0.00055411 3.90886e-05 -1.15815e-06
6.67234e-07 -1.15815e-06 -8.38534e-06
0.000671094 -0.00042689 6.7068e-06
-0.00042689 -6.67511e-05 3.4254e-08
6.7068e-06 3.4254e-08 -0.000421716
0.00243522 -0.000850776 1.11756e-05
-0.000850776 0.000706457 -3.50939e-07
1.11756e-05 -3.50939e-07 0.000232441
0.00223251 -0.000754311 -2.40894e-06
-0.000754311 0.000298284 1.89034e-06
-2.40894e-06 1.89034e-06 8.32427e-05
0.00019561 -3.17579e-05 -7.0653e-07
-3.17579e-05 -0.00013431 -9.97237e-07
-7.0653e-07 -9.97237e-07 -0.000266315
0.000902749 -9.36629e-05 -1.20585e-06
-9.36629e-05 0.000308667 1.16151e-06
-1.20585e-06 1.16151e-06 0.000113725
0.00134725 -0.000590885 -5.44733e-06
-0.000590885 0.000273832 1.84808e-06
-5.44733e-06 1.84808e-06 -0.000107231
0.000374576 -0.000149899 2.65434e-07
-0.000149899 0.000103246 -2.41207e-06
2.65434e-07 -2.41207e-06 -0.000408143
0.000822326 -6.3339e-05 8.87726e-07
-6.3339e-05 0.000162738 2.26326e-06
8.87726e-07 2.26326e-06 -4.25727e-05
0.00255396 -0.000285062 -3.23526e-06
-0.000285062 0.0001317 -3.31123e-07
-3.23526e-06 -3.31123e-07 0.000199477
0.00193105 -0.000420353 -1.77707e-05
-0.000420353 -0.000241561 5.161e-06
-1.77707e-05 5.161e-06 -6.71423e-05
0.00204905 -0.000687551 -9.94363e-06
-0.000687551 4.30626e-05 2.32729e-07
-9.94363e-06 2.32729e-07 -0.000115173
0.00348267 -0.000931341 -2.0501e-05
-0.000931341 0.00111632 -1.36045e-06
-2.0501e-05 -1.36045e-06 0.000823293
0.000754933 -0.000545628 -2.41471e-05
-0.000545628 -3.49271e-05 -2.73207e-06
-2.41471e-05 -2.73207e-06 -0.000423267
0.000215122 -2.05731e-05 1.79057e-06
-2.05731e-05 -0.000140819 7.47462e-07
1.79057e-06 7.47462e-07 -0.000243567
0.000464183 5.62876e-06 4.80327e-07
5.62876e-06 -3.73476e-05 4.57968e-06
4.80327e-07 4.57968e-06 -0.000131068
-0.000433462 -4.83344e-05 -1.5018e-06
-4.83344e-05 -0.000557745 -3.10346e-06
-1.5018e-06 -3.10346e-06 -0.00064858
0.00197725 -0.000253446 -1.30805e-05
-0.000253446 0.000986535 1.68195e-05
-1.30805e-05 1.68195e-05 0.000809392
0.00101186 -9.65933e-05 -6.10925e-06
-9.65933e-05 0.000341939 1.5854e-05
-6.10925e-06 1.5854e-05 0.000168072
-0.0011666 -9.21529e-05 2.97867e-06
-9.21529e-05 -0.000516601 3.39139e-06
2.97867e-06 3.39139e-06 -0.00113195
-0.000122755 -0.000720244 -8.84044e-06
-0.000720244 -0.000197527 -3.33728e-06
-8.84044e-06 -3.33728e-06 -0.000837092
0.00118792 0.000157331 -1.33224e-06
0.000157331 0.000475838 -6.18197e-06
-1.33224e-06 -6.18197e-06 0.000300687
0.000336799 0.000126339 -4.07151e-06
0.000126339 -8.40546e-05 -3.22656e-06
-4.07151e-06 -3.22656e-06 -0.000295946
0.00241602 0.000296115 6.2125e-06
0.000296115 3.07664e-05 4.50142e-08
6.2125e-06 4.50142e-08 9.77842e-05
0.0023724 0.000517299 1.60244e-05
0.000517299 0.00021341 5.32906e-06
1.60244e-05 5.32906e-06 0.000116358
0.00214638 0.000649635 1.84858e-05
0.000649635 0.000300305 4.65159e-06
1.84858e-05 4.65159e-06 6.64657e-06
0.00131925 0.000405829 -7.40851e-07
0.000405829 0.000302318 1.24712e-06
-7.40851e-07 1.24712e-06 1.01069e-05
0.00163492 0.00059189 3.73295e-06
0.00059189 0.000321652 3.38554e-06
3.73295e-06 3.38554e-06 -5.57986e-05
0.00173118 0.000222241 9.57122e-08
0.000222241 0.000794471 -9.83305e-08
9.57122e-08 -9.83305e-08 0.000602504
0.0025653 0.000350408 8.14614e-07
0.000350408 0.000208659 1.77935e-06
8.14614e-07 1.77935e-06 0.000305302
0.00125302 0.000350785 -2.08933e-06
0.000350785 0.000383814 2.15044e-06
-2.08933e-06 2.15044e-06 0.000124939
0.00170456 0.000529169 2.47317e-06
0.000529169 0.000469985 -7.14664e-07
2.47317e-06 -7.14664e-07 0.000105529
0.00205458 0.000652015 -3.59812e-06
0.000652015 0.00011538 -3.42482e-06
-3.59812e-06 -3.42482e-06 -6.93015e-05
0.00166832 0.000633762 -4.35197e-06
0.000633762 0.000282936 4.81544e-06
-4.35197e-06 4.81544e-06 -9.41299e-05
0.00310403 0.000859427 5.16826e-05
0.000859427 -0.000184607 4.21123e-06
5.16826e-05 4.21123e-06 -0.000261532
0.00102642 0.000266005 -4.68138e-06
0.000266005 0.000400864 2.41372e-06
-4.68138e-06 2.41372e-06 0.000183116
0.00298986 0.000627425 -8.24393e-05
0.000627425 0.000566713 -3.36967e-05
-8.24393e-05 -3.36967e-05 0.000516895
0.000915675 0.000371918 -3.9843e-06
0.000371918 3.9492e-05 2.87195e-07
-3.9843e-06 2.87195e-07 -0.000241953
8.81319e-05 0.000387322 -2.37999e-06
0.000387322 -0.00047589 -1.53707e-05
-2.37999e-06 -1.53707e-05 -0.000819065
0.00067168 0.000634752 -3.57939e-05
0.000634752 -0.000436261 -1.12655e-05
-3.57939e-05 -1.12655e-05 -0.00065173
0.0134548 0.000355704 -0.000383475
0.000355704 0.00234445 -4.46963e-05
-0.000383475 -4.46963e-05 0.00162451
0.00495449 0.00136996 2.01947e-05
0.00136996 -0.000632934 -8.39706e-05
2.01947e-05 -8.39706e-05 -4.2942e-05
-0.000668843 0.00088823 -2.27554e-06
0.00088823 -0.00127233 6.97866e-07
-2.27554e-06 6.97866e-07 -0.00154909
-0.00141182 -0.00158044 0.00105792
-0.00158044 0.000694777 0.000235243
0.00105792 0.000235243 -0.00194708
0.0169039 -0.00617559 -1.10759e-05
-0.00617559 0.00556776 6.74935e-05
-1.10759e-05 6.74935e-05 0.00494162
9.82937e-06 8.9674e-05 6.93268e-06
8.9674e-05 -0.000205855 1.61912e-06
6.93268e-06 1.61912e-06 -0.000300291
0.00105885 9.85585e-05 2.76431e-07
9.85585e-05 0.000405656 -2.48807e-06
2.76431e-07 -2.48807e-06 0.000324606
0.00194513 0.000222699 -1.8073e-07
0.000222699 0.000963972 -7.62093e-07
-1.8073e-07 -7.62093e-07 0.000853423
0.000528179 -5.74511e-05 -8.97943e-07
-5.74511e-05 6.51907e-05 -2.64797e-06
-8.97943e-07 -2.64797e-06 -5.53823e-05
0.000460182 6.20969e-05 -1.07255e-06
6.20969e-05 7.75501e-06 -2.30598e-06
-1.07255e-06 -2.30598e-06 -0.00012632
0.000745373 -1.59086e-05 1.91601e-08
-1.59086e-05 0.000190615 -6.11152e-07
1.91601e-08 -6.11152e-07 5.12458e-05
0.000674182 5.88695e-05 -4.06241e-06
5.88695e-05 0.000117585 8.07158e-06
-4.06241e-06 8.07158e-06 1.83618e-05
0.000463691 6.22437e-05 2.82823e-06
6.22437e-05 -2.16175e-05 7.88931e-06
2.82823e-06 7.88931e-06 -8.41125e-05
0.000679844 0.00011545 -1.78079e-06
0.00011545 0.000163376 -5.13802e-07
-1.78079e-06 -5.13802e-07 6.69353e-06
0.000437783 -5.80815e-06 4.24449e-07
-5.80815e-06 -8.11938e-06 9.39546e-07
4.24449e-07 9.39546e-07 -0.000125727
0.000671069 3.68953e-05 -5.22849e-07
3.68953e-05 0.000149024 -3.43759e-08
-5.22849e-07 -3.43759e-08 -2.14799e-06
0.000519925 7.45109e-05 -5.12085e-07
7.45109e-05 2.53522e-05 -3.80188e-07
-5.12085e-07 -3.80188e-07 -3.15875e-05
0.000701117 9.87276e-05 -1.39092e-06
9.87276e-05 0.000149364 -3.33343e-07
-1.39092e-06 -3.33343e-07 8.8516e-06
0.00126095 0.000154077 -1.68105e-06
0.000154077 0.000512443 -1.03699e-06
-1.68105e-06 -1.03699e-06 0.000345824
0.00036004 9.24483e-05 9.87964e-07
9.24483e-05 -1.12452e-05 -2.66502e-06
9.87964e-07 -2.66502e-06 -0.000161544
0.000810129 9.81365e-05 2.49747e-06
9.81365e-05 0.000233241 6.07365e-07
2.49747e-06 6.07365e-07 8.296e-05
0.000527839 -2.89007e-05 1.774e-06
-2.89007e-05 4.62552e-05 6.8843e-07
1.774e-06 6.8843e-07 -0.000102187
0.000359166 -6.60529e-05 -1.38521e-06
-6.60529e-05 -5.91783e-05 2.77563e-06
-1.38521e-06 2.77563e-06 -0.000181186
0.000743069 -2.1496e-05 -8.27077e-07
-2.1496e-05 0.000191832 -3.21997e-08
-8.27077e-07 -3.21997e-08 3.89983e-05
0.00103851 1.93315e-05 -2.51515e-08
1.93315e-05 0.000366398 -7.42403e-06
-2.51515e-08 -7.42403e-06 0.000219084
0.000558609 -3.12932e-05 -1.2001e-06
-3.12932e-05 0.000104942 3.23105e-08
-1.2001e-06 3.23105e-08 -3.74756e-05
0.00077349 -4.26277e-05 1.7614e-06
-4.26277e-05 0.000222481 -5.82412e-07
1.7614e-06 -5.82412e-07 7.49714e-05
0.000657674 -0.000111728 -2.69643e-06
-0.000111728 0.00013116 1.77198e-06
-2.69643e-06 1.77198e-06 1.08526e-05
0.000341323 -2.15975e-05 1.37524e-07
-2.15975e-05 -6.8448e-05 1.1412e-06
1.37524e-07 1.1412e-06 -0.000190054
0.000520162 -4.52858e-05 -2.30829e-06
-4.52858e-05 1.88905e-05 3.23247e-06
-2.30829e-06 3.23247e-06 -5.25009e-05
0.000521487 -3.23398e-05 1.73713e-06
-3.23398e-05 2.59675e-05 6.22506e-08
1.73713e-06 6.22506e-08 -4.87623e-05
0.000485194 4.2937e-06 1.79452e-06
4.2937e-06 -2.0916e-05 6.09364e-06
1.79452e-06 6.09364e-06 -4.2838e-05
0.000541702 4.2059e-05 -1.60827e-06
4.2059e-05 3.33501e-05 -3.17218e-06
-1.60827e-06 -3.17218e-06 -3.66818e-05
0.000445817 2.50711e-05 4.41803e-07
2.50711e-05 -4.65054e-05 6.41655e-08
4.41803e-07 6.41655e-08 -6.79978e-05
0.00248071 1.47548e-06 1.56513e-06
1.47548e-06 0.00119722 5.3084e-06
1.56513e-06 5.3084e-06 0.00121061
0.000511252 2.6915e-05 -2.57426e-06
2.6915e-05 -1.12471e-05 -6.59772e-06
-2.57426e-06 -6.59772e-06 -3.26839e-05
0.00168269 -7.57869e-06 -1.35587e-06
-7.57869e-06 0.000701275 1.28388e-07
-1.35587e-06 1.28388e-07 0.000710469
0.000790727 -1.29647e-05 5.70105e-07
-1.29647e-05 0.000143013 -2.27633e-06
5.70105e-07 -2.27633e-06 0.000149616
0.000500071 -5.23105e-06 5.28472e-07
-5.23105e-06 -1.14738e-05 -1.31277e-06
5.28472e-07 -1.31277e-06 -5.04803e-05
0.000566134 -3.34541e-05 2.15475e-07
-3.34541e-05 3.16488e-05 -4.20825e-08
2.15475e-07 -4.20825e-08 -1.35029e-05
0.000541462 1.32672e-05 9.99032e-07
1.32672e-05 -1.13995e-05 -3.05113e-06
9.99032e-07 -3.05113e-06 -2.02278e-05
0.00051575 -2.89388e-05 -2.02975e-06
-2.89388e-05 -6.28436e-06 1.12287e-06
-2.02975e-06 1.12287e-06 -5.01927e-05
0.000797499 2.69491e-05 -6.25563e-08
2.69491e-05 0.000149498 -7.31343e-07
-6.25563e-08 -7.31343e-07 0.000140559
0.00198386 4.80576e-05 8.14723e-06
4.80576e-05 0.000893327 -4.33023e-06
8.14723e-06 -4.33023e-06 0.000908312
0.000501053 3.2843e-05 -2.75984e-07
3.2843e-05 -2.84201e-05 3.3194e-06
-2.75984e-07 3.3194e-06 -4.28127e-05
0.00215381 6.79974e-05 -6.31929e-06
6.79974e-05 0.00100683 1.12348e-06
-6.31929e-06 1.12348e-06 0.00101776
0.00234344 9.21764e-05 -8.55226e-06
9.21764e-05 0.0011323 4.5718e-06
-8.55226e-06 4.5718e-06 0.0011377
0.00219268 0.000159624 -2.99874e-06
0.000159624 -2.2863e-05 -1.23877e-06
-2.99874e-06 -1.23877e-06 1.23779e-05
0.00202886 -6.22778e-06 3.85064e-07
-6.22778e-06 -4.37274e-05 7.63864e-08
3.85064e-07 7.63864e-08 -8.13818e-06
0.00187213 5.82739e-05 2.02875e-07
5.82739e-05 -0.000221261 6.68349e-07
2.02875e-07 6.68349e-07 -0.000161836
0.00242396 0.000441569 7.07547e-05
0.000441569 -0.00107824 1.65129e-05
7.07547e-05 1.65129e-05 -0.000626158
0.00220948 -2.83792e-05 -1.46689e-06
-2.83792e-05 -6.29493e-05 -2.09923e-06
-1.46689e-06 -2.09923e-06 6.85806e-06
0.00212941 6.1816e-05 1.36022e-06
6.1816e-05 0.000139126 -8.08426e-06
1.36022e-06 -8.08426e-06 0.000255208
0.0032639 -3.23549e-05 -2.58145e-05
-3.23549e-05 0.000913775 3.92864e-06
-2.58145e-05 3.92864e-06 0.00091447
0.00278588 -1.05374e-05 -4.51578e-06
-1.05374e-05 -0.00171066 -2.57325e-05
-4.51578e-06 -2.57325e-05 -0.000949937
0.00273229 0.000164628 9.20065e-05
0.000164628 -0.000489967 5.43375e-05
9.20065e-05 5.43375e-05 -6.14943e-05
0.000585206 8.13871e-05 4.36175e-07
8.13871e-05 8.44765e-05 -2.37709e-07
4.36175e-07 -2.37709e-07 -1.9411e-06
0.000585287 -5.2209e-06 4.60038e-07
-5.2209e-06 9.0699e-05 -1.14338e-07
4.60038e-07 -1.14338e-07 -8.8334e-07
0.0004851 -0.000100717 -2.84898e-06
-0.000100717 3.40248e-05 1.29917e-06
-2.84898e-06 1.29917e-06 -7.22142e-05
0.000481346 -4.99038e-05 -1.74258e-06
-4.99038e-05 4.91261e-05 1.36996e-06
-1.74258e-06 1.36996e-06 -6.28461e-05
0.00220169 -0.000168198 -3.86769e-06
-0.000168198 -9.3848e-05 9.6488e-07
-3.86769e-06 9.6488e-07 -1.53218e-05
0.00215512 -0.000391787 2.11902e-06
-0.000391787 -9.66383e-05 -1.15299e-06
2.11902e-06 -1.15299e-06 -4.29278e-06
0.00217065 -0.000550913 -2.40376e-06
-0.000550913 2.32779e-05 9.07127e-07
-2.40376e-06 9.07127e-07 -2.34333e-05
0.00314942 -0.000699492 1.06562e-05
-0.000699492 0.0013468 4.56221e-06
1.06562e-05 4.56221e-06 0.000950205
0.000638333 -0.000662833 8.95767e-06
-0.000662833 -0.000283331 -2.81542e-06
8.95767e-06 -2.81542e-06 -0.000721695
0.00232437 -0.000755409 4.44772e-06
-0.000755409 0.000372229 -2.54197e-06
4.44772e-06 -2.54197e-06 0.000148165
0.00182758 -0.000661232 2.9173e-06
-0.000661232 0.000533922 -6.9923e-06
2.9173e-06 -6.9923e-06 0.000117832
0.00295142 -0.000209182 4.22519e-06
-0.000209182 0.00143667 -2.95386e-06
4.22519e-06 -2.95386e-06 0.00107646
-0.000177864 -2.10028e-05 -1.88473e-06
-2.10028e-05 -0.00046707 2.36352e-06
-1.88473e-06 2.36352e-06 -0.000646975
0.000668186 -5.45421e-05 6.82563e-07
-5.45421e-05 0.000132797 4.78025e-07
6.82563e-07 4.78025e-07 4.86768e-05
0.000559079 -0.000108927 7.16956e-07
-0.000108927 0.000111741 -7.19815e-06
7.16956e-07 -7.19815e-06 -9.16124e-05
0.000731477 -1.59126e-06 3.25639e-06
-1.59126e-06 0.000205676 -4.50105e-06
3.25639e-06 -4.50105e-06 6.62902e-05
0.000618227 1.2517e-06 -1.15376e-07
1.2517e-06 0.000118194 4.72733e-07
-1.15376e-07 4.72733e-07 1.92984e-05
0.000542094 -4.24122e-05 -7.94578e-06
-4.24122e-05 2.23013e-05 2.91947e-06
-7.94578e-06 2.91947e-06 -6.37386e-05
0.00251115 -0.000268083 1.67253e-06
-0.000268083 0.000114157 1.13549e-06
1.67253e-06 1.13549e-06 0.000199126
0.00057812 -2.69406e-05 2.33318e-07
-2.69406e-05 9.72747e-05 7.1028e-07
2.33318e-07 7.1028e-07 -2.07215e-05
0.000821298 -2.15162e-05 5.11221e-06
-2.15162e-05 0.000202603 -6.86598e-07
5.11221e-06 -6.86598e-07 9.5301e-05
-9.2132e-05 -1.08731e-05 1.69696e-06
-1.08731e-05 -0.00033289 8.595e-07
1.69696e-06 8.595e-07 -0.000404126
0.00187947 -0.000425102 2.91959e-07
-0.000425102 -0.000300394 -1.28949e-06
2.91959e-07 -1.28949e-06 -0.00013052
0.00213138 -0.000690193 2.00921e-06
-0.000690193 8.70816e-05 -1.3668e-06
2.00921e-06 -1.3668e-06 -6.35602e-05
0.00178977 -0.000696298 -1.32273e-06
-0.000696298 0.000531966 -3.62377e-07
-1.32273e-06 -3.62377e-07 0.000121506
0.00229524 -0.000828314 -5.87733e-06
-0.000828314 0.000468599 1.32253e-06
-5.87733e-06 1.32253e-06 0.000185427
0.00133589 -0.000111653 -4.20942e-07
-0.000111653 0.000560311 8.65782e-07
-4.20942e-07 8.65782e-07 0.000400628
0.000280648 -4.34147e-05 4.44347e-06
-4.34147e-05 -0.000118701 1.01336e-06
4.44347e-06 1.01336e-06 -0.000289829
0.00145452 -0.000843903 4.24098e-06
-0.000843903 0.000707195 -1.71382e-06
4.24098e-06 -1.71382e-06 4.73451e-05
0.00120551 -0.000309229 -3.67931e-06
-0.000309229 0.000553126 2.04518e-08
-3.67931e-06 2.04518e-08 0.00010523
0.00303088 -0.00037717 -3.23614e-05
-0.00037717 0.000297557 -9.51787e-07
-3.23614e-05 -9.51787e-07 0.000526832
0.002284 -0.000551388 -4.27803e-05
-0.000551388 9.75864e-05 1.1615e-05
-4.27803e-05 1.1615e-05 0.000150209
0.00236532 -0.000815981 -6.83603e-06
-0.000815981 0.000365717 -4.61549e-06
-6.83603e-06 -4.61549e-06 9.43706e-05
0.00250123 -0.000796281 -1.34777e-05
-0.000796281 0.000766812 1.67448e-06
-1.34777e-05 1.67448e-06 0.000483171
0.000317535 -4.31352e-05 -9.88547e-07
-4.31352e-05 -3.05766e-05 -3.44341e-06
-9.88547e-07 -3.44341e-06 -0.000151914
0.000252473 -8.86838e-05 -5.34364e-06
-8.86838e-05 -0.000107661 -9.87882e-06
-5.34364e-06 -9.87882e-06 -0.000256423
3.36197e-05 -0.000154476 -4.51643e-06
-0.000154476 -6.89081e-06 2.86297e-05
-4.51643e-06 2.86297e-05 -0.000286645
-0.000918766 -0.000547112 -5.55776e-06
-0.000547112 -0.000122342 -2.42768e-05
-5.55776e-06 -2.42768e-05 -0.00100986
0.00181465 -0.000492704 3.71659e-05
-0.000492704 -0.00457389 3.86308e-07
3.71659e-05 3.86308e-07 -0.00462895
0.00195394 0.000211233 -9.70747e-07
0.000211233 0.000911789 -4.88727e-06
-9.70747e-07 -4.88727e-06 0.000726263
0.00100457 0.000303442 -7.40448e-07
0.000303442 0.000231603 -2.18241e-07
-7.40448e-07 -2.18241e-07 -1.58839e-05
0.00199761 0.000299158 6.53835e-05
0.000299158 -0.000102493 1.69211e-05
6.53835e-05 1.69211e-05 1.0231e-05
0.00237143 0.000665443 2.93148e-05
0.000665443 0.000292179 1.04837e-05
2.93148e-05 1.04837e-05 0.000116359
0.00211921 0.000684091 1.45587e-05
0.000684091 0.000552636 1.17805e-05
1.45587e-05 1.17805e-05 0.000160802
0.00139863 0.000500216 7.53917e-06
0.000500216 0.000309572 8.54506e-06
7.53917e-06 8.54506e-06 -5.82033e-05
0.00474212 0.00105539 0.000116149
0.00105539 0.000384854 4.46645e-05
0.000116149 4.46645e-05 0.000129914
0.00142109 0.000264402 4.46069e-06
0.000264402 0.000627969 6.8882e-08
4.46069e-06 6.8882e-08 0.000419867
0.0025409 0.000584726 -1.83961e-05
0.000584726 0.000309345 1.46484e-07
-1.83961e-05 1.46484e-07 0.00028103
0.000954302 0.000377482 -2.93958e-06
0.000377482 9.67284e-05 2.50917e-06
-2.93958e-06 2.50917e-06 -0.000190107
0.00144489 0.00055836 2.16544e-06
0.00055836 0.00029773 -4.87972e-06
2.16544e-06 -4.87972e-06 -7.70625e-05
0.00164642 0.000716682 -9.63058e-06
0.000716682 7.86489e-05 -3.22932e-09
-9.63058e-06 -3.22932e-09 -0.000159455
0.00401501 -0.000587797 -0.000158967
-0.000587797 -0.00395009 -5.93538e-05
-0.000158967 -5.93538e-05 -0.00496077
0.00705898 0.00130414 -8.85769e-05
0.00130414 0.000297485 -6.6178e-05
-8.85769e-05 -6.6178e-05 0.000612596
0.00103213 0.000933025 -9.97567e-06
0.000933025 -0.000326934 8.75647e-06
-9.97567e-06 8.75647e-06 -0.000677173
-0.000740653 -0.00134934 0.00039075
-0.00134934 0.00220823 0.000165446
0.00039075 0.000165446 -0.000287059
0.00847723 -0.00614923 -0.000358213
-0.00614923 0.0033583 -0.000340091
-0.000358213 -0.000340091 0.00269138
0.00130839 0.000271037 -1.23742e-05
0.000271037 0.000497209 1.0712e-06
-1.23742e-05 1.0712e-06 0.000299558
0.00059483 0.000524883 0.000544446
0.000524883 0.00333796 6.1836e-05
0.000544446 6.1836e-05 0.00158679
0.00207239 -0.00198623 -0.000162268
-0.00198623 0.00441108 -0.00021834
-0.000162268 -0.00021834 0.000473991
0.00229895 0.000869028 -4.43811e-05
0.000869028 0.000267071 -1.37242e-05
-4.43811e-05 -1.37242e-05 0.000161328
0.000952435 0.000294818 -2.27176e-05
0.000294818 9.94785e-05 -7.33061e-06
-2.27176e-05 -7.33061e-06 -0.000151487
0.000647151 0.000571135 -3.05487e-05
0.000571135 -8.39119e-05 -2.9078e-05
-3.05487e-05 -2.9078e-05 -0.000403452
0.000190316 0.000917546 3.80682e-05
0.000917546 -0.000641671 9.04526e-05
3.80682e-05 9.04526e-05 -0.000969157
0.012015 0.00183396 3.10855e-05
0.00183396 0.00179604 -4.64734e-05
3.10855e-05 -4.64734e-05 0.000362963
0.00334039 0.00185495 -1.46719e-05
0.00185495 3.53466e-05 -3.92985e-05
-1.46719e-05 -3.92985e-05 -0.000237731
0.00980567 -0.00521458 0.000815642
-0.00521458 0.00253572 0.000469962
0.000815642 0.000469962 0.000567712
0.0106181 -0.00244621 -5.11423e-05
-0.00244621 0.00192582 0.000491706
-5.11423e-05 0.000491706 0.00124234
0.000504062 8.60982e-05 6.58222e-06
8.60982e-05 9.98894e-05 -1.75151e-06
6.58222e-06 -1.75151e-06 1.87605e-05
0.000364002 0.000120558 7.85155e-06
0.000120558 1.7001e-05 3.15226e-07
7.85155e-06 3.15226e-07 -8.4414e-05
0.00187647 0.00026264 2.85473e-06
0.00026264 0.00094143 -2.40639e-06
2.85473e-06 -2.40639e-06 0.000782759
0.000588373 1.14689e-05 8.13571e-07
1.14689e-05 0.000107283 -7.99598e-07
8.13571e-07 -7.99598e-07 -2.44486e-05
0.000660123 6.06611e-05 -1.3465e-06
6.06611e-05 0.000138939 -1.83359e-06
-1.3465e-06 -1.83359e-06 -7.47634e-06
0.000280912 1.7794e-05 -1.44387e-06
1.7794e-05 -9.46939e-05 7.05757e-07
-1.44387e-06 7.05757e-07 -0.000234285
0.000564786 8.99122e-05 -6.88511e-06
8.99122e-05 8.00502e-05 1.71199e-06
-6.88511e-06 1.71199e-06 -6.19039e-05
-0.000490792 4.56531e-05 -3.73327e-06
4.56531e-05 -0.000599741 9.47109e-07
-3.73327e-06 9.47109e-07 -0.000656162
0.000376082 -1.12707e-05 2.26167e-07
-1.12707e-05 -4.21461e-05 9.66068e-07
2.26167e-07 9.66068e-07 -0.000167917
0.00114277 0.000101042 1.34551e-06
0.000101042 0.000435911 -4.54066e-07
1.34551e-06 -4.54066e-07 0.000277565
0.000654536 4.76814e-05 5.61506e-07
4.76814e-05 0.000145494 2.85706e-07
5.61506e-07 2.85706e-07 -9.24177e-06
0.000733199 2.76039e-05 1.18366e-06
2.76039e-05 0.000191936 -4.45688e-07
1.18366e-06 -4.45688e-07 2.99572e-05
0.00055164 0.000101447 -3.62376e-07
0.000101447 0.000105337 -1.79264e-06
-3.62376e-07 -1.79264e-06 -4.19614e-05
0.00123497 0.000107521 -2.06516e-06
0.000107521 0.000513758 -1.58375e-06
-2.06516e-06 -1.58375e-06 0.000352903
-0.000184491 4.20232e-05 -5.81542e-06
4.20232e-05 -0.000276142 -3.93307e-06
-5.81542e-06 -3.93307e-06 -0.000449865
0.000699219 -9.61225e-05 -1.69175e-07
-9.61225e-05 0.000166252 -1.96243e-07
-1.69175e-07 -1.96243e-07 1.14747e-05
0.000768539 -7.31951e-05 -6.41333e-07
-7.31951e-05 0.000223283 5.1798e-08
-6.41333e-07 5.1798e-08 5.97881e-05
0.000751249 -4.2903e-05 -1.26979e-07
-4.2903e-05 0.000209377 -3.65134e-07
-1.26979e-07 -3.65134e-07 4.76324e-05
0.000765808 -1.47314e-05 -2.65229e-06
-1.47314e-05 0.000184811 -4.48598e-08
-2.65229e-06 -4.48598e-08 5.11676e-05
0.000946097 1.43395e-05 -4.84812e-06
1.43395e-05 0.000346285 -3.96804e-06
-4.84812e-06 -3.96804e-06 0.000166412
0.000750821 -2.43205e-05 1.82932e-06
-2.43205e-05 0.000196064 -5.98924e-06
1.82932e-06 -5.98924e-06 6.13653e-05
-0.000751936 -1.77383e-05 -1.84146e-06
-1.77383e-05 -0.000738087 -4.81379e-06
-1.84146e-06 -4.81379e-06 -0.000850801
0.000639901 -3.89255e-05 1.39401e-06
-3.89255e-05 0.000116648 -9.18565e-07
1.39401e-06 -9.18565e-07 -2.55411e-05
0.000420416 -7.25621e-05 1.44157e-06
-7.25621e-05 -8.15596e-06 1.19425e-06
1.44157e-06 1.19425e-06 -0.000136461
0.000672715 -7.55578e-05 -1.00088e-06
-7.55578e-05 0.000166625 -2.77062e-07
-1.00088e-06 -2.77062e-07 2.54441e-05
0.000537247 -7.52362e-05 -2.27053e-06
-7.52362e-05 4.09734e-05 1.57366e-06
-2.27053e-06 1.57366e-06 -6.4479e-05
0.000475545 -5.95479e-05 2.83734e-06
-5.95479e-05 1.18362e-05 2.26507e-07
2.83734e-06 2.26507e-07 -0.000117834
0.000534267 -0.000101478 9.35572e-08
-0.000101478 5.19366e-05 2.64555e-07
9.35572e-08 2.64555e-07 -6.70596e-05
0.000556182 -4.429e-05 -2.43234e-06
-4.429e-05 3.8986e-05 3.60619e-06
-2.43234e-06 3.60619e-06 -3.32587e-05
0.000424731 -8.52346e-06 1.53934e-06
-8.52346e-06 -3.98692e-06 -8.11351e-07
1.53934e-06 -8.11351e-07 -0.000135681
0.000517532 1.54252e-06 1.85459e-06
1.54252e-06 2.43529e-05 6.20472e-08
1.85459e-06 6.20472e-08 -5.11436e-05
0.0014331 -1.50404e-05 -6.57727e-06
-1.50404e-05 0.000558343 6.27403e-06
-6.57727e-06 6.27403e-06 0.000540424
0.000519849 5.78106e-05 -1.18362e-06
5.78106e-05 2.53489e-05 -3.11683e-06
-1.18362e-06 -3.11683e-06 -4.92222e-05
0.000892693 -9.40349e-06 -3.06582e-06
-9.40349e-06 0.000230012 7.47039e-07
-3.06582e-06 7.47039e-07 0.000210251
0.000776414 3.09312e-06 -3.62097e-06
3.09312e-06 0.00014731 4.82906e-06
-3.62097e-06 4.82906e-06 0.000152748
0.00044493 -6.36491e-06 2.26854e-06
-6.36491e-06 -4.70486e-05 -4.53565e-06
2.26854e-06 -4.53565e-06 -6.83821e-05
0.00250414 1.94899e-06 5.72127e-06
1.94899e-06 0.00121186 -1.58306e-08
5.72127e-06 -1.58306e-08 0.00122521
0.000886132 1.33417e-07 -6.05127e-06
1.33417e-07 0.000210467 -5.21209e-06
-6.05127e-06 -5.21209e-06 0.000215616
0.000522416 6.37672e-05 2.65148e-06
6.37672e-05 5.01233e-05 7.41009e-07
2.65148e-06 7.41009e-07 -4.31027e-05
0.00049444 4.49533e-05 -1.92535e-06
4.49533e-05 -5.15195e-06 -1.82178e-06
-1.92535e-06 -1.82178e-06 -4.86464e-05
0.000513284 -6.12756e-06 1.39552e-06
-6.12756e-06 5.15265e-06 4.13571e-08
1.39552e-06 4.13571e-08 -3.93695e-05
0.000523604 8.49851e-06 9.34194e-07
8.49851e-06 -2.17881e-05 -2.95575e-06
9.34194e-07 -2.95575e-06 -2.98676e-05
0.000565144 -5.17881e-05 -1.8821e-06
-5.17881e-05 3.54887e-05 1.73697e-06
-1.8821e-06 1.73697e-06 -1.27044e-05
0.000502925 1.36375e-05 7.56866e-08
1.36375e-05 -3.58232e-05 -7.43998e-07
7.56866e-08 -7.43998e-07 -4.43203e-05
0.0019711 3.29604e-05 5.62755e-06
3.29604e-05 0.000881457 -4.47125e-06
5.62755e-06 -4.47125e-06 0.000898357
0.00108633 3.43152e-05 -6.88049e-07
3.43152e-05 0.000329451 1.71028e-06
-6.88049e-07 1.71028e-06 0.000321757
0.00144873 4.17798e-05 -1.424e-07
4.17798e-05 0.000561724 1.38306e-06
-1.424e-07 1.38306e-06 0.000572341
0.000882553 4.56778e-05 -1.00059e-05
4.56778e-05 0.000216319 7.35108e-06
-1.00059e-05 7.35108e-06 0.000220366
0.000949283 0.000300793 8.90426e-05
0.000300793 -0.00174584 1.46592e-05
8.90426e-05 1.46592e-05 -0.00131274
0.00216882 -4.48156e-05 -2.76491e-06
-4.48156e-05 -5.91276e-05 3.48512e-06
-2.76491e-06 3.48512e-06 3.85589e-06
0.00210748 7.26204e-05 3.46187e-05
7.26204e-05 0.000149856 -1.53788e-05
3.46187e-05 -1.53788e-05 0.000251281
0.00221693 0.000269436 -4.18519e-05
0.000269436 -0.00155861 -2.99457e-05
-4.18519e-05 -2.99457e-05 -0.000580801
0.00197523 9.4729e-05 3.22826e-05
9.4729e-05 -0.000693014 -2.20028e-06
3.22826e-05 -2.20028e-06 -0.000398529
0.00244915 -4.14154e-05 3.20225e-06
-4.14154e-05 0.000349321 -7.1557e-06
3.20225e-06 -7.1557e-06 0.000369513
0.00404344 -0.000235117 -4.68241e-05
-0.000235117 0.000920831 -1.3316e-05
-4.68241e-05 -1.3316e-05 0.000916812
0.0026453 -0.000116594 2.30497e-05
-0.000116594 -7.55096e-05 2.62555e-05
2.30497e-05 2.62555e-05 0.000104054
0.0135686 -0.000734704 1.36043e-05
-0.000734704 0.00256768 2.04171e-05
1.36043e-05 2.04171e-05 0.00120753
0.0138466 0.00401928 0.00102462
0.00401928 0.00553772 -0.000397655
0.00102462 -0.000397655 0.00371538
0.0134255 0.00465429 -1.48288e-06
0.00465429 0.00893661 4.53262e-06
-1.48288e-06 4.53262e-06 0.00745316
0.000295221 -9.71973e-05 1.31995e-06
-9.71973e-05 -7.87875e-05 -3.36308e-07
1.31995e-06 -3.36308e-07 -0.000182537
0.000574001 -9.91472e-06 1.30729e-06
-9.91472e-06 7.90945e-05 -1.35822e-07
1.30729e-06 -1.35822e-07 -8.59754e-06
0.000660354 -8.76075e-05 -1.18508e-06
-8.76075e-05 0.000145025 1.8162e-06
-1.18508e-06 1.8162e-06 4.61563e-05
0.000567219 -4.28286e-05 1.61013e-07
-4.28286e-05 8.20691e-05 4.86474e-07
1.61013e-07 4.86474e-07 -2.46859e-05
0.000694528 7.67585e-05 -2.55747e-06
7.67585e-05 0.00018914 1.96537e-06
-2.55747e-06 1.96537e-06 6.5445e-05
0.000391519 0.000114226 1.99339e-06
0.000114226 -4.17976e-05 6.05894e-06
1.99339e-06 6.05894e-06 -0.000155566
0.000966858 -1.87147e-05 3.72113e-06
-1.87147e-05 0.000349113 2.17494e-06
3.72113e-06 2.17494e-06 0.000220662
0.000498506 -2.68825e-05 -1.52926e-06
-2.68825e-05 4.20069e-05 1.16815e-06
-1.52926e-06 1.16815e-06 -6.49854e-05
0.00244675 -0.000253265 7.12901e-06
-0.000253265 7.05607e-05 6.08152e-07
7.12901e-06 6.08152e-07 0.000182139
0.00190896 -0.000442986 1.58206e-05
-0.000442986 -0.000320143 -5.39848e-06
1.58206e-05 -5.39848e-06 -0.000161314
0.00215358 -0.000690603 4.59916e-06
-0.000690603 9.84744e-05 1.83318e-06
4.59916e-06 1.83318e-06 -4.74549e-05
0.00173243 -0.000676505 2.27328e-05
-0.000676505 0.000481698 1.38625e-06
2.27328e-05 1.38625e-06 8.62739e-05
0.0020344 -0.000822359 1.00469e-06
-0.000822359 0.00032315 5.72766e-06
1.00469e-06 5.72766e-06 3.45425e-05
0.00339282 -0.00100886 2.30187e-05
-0.00100886 0.00180691 -2.28992e-06
2.30187e-05 -2.28992e-06 0.00110802
0.00345304 -0.000523497 2.78172e-06
-0.000523497 0.00164922 -2.31395e-06
2.78172e-06 -2.31395e-06 0.00129896
0.000637324 -0.000151335 8.74309e-06
-0.000151335 0.000129258 -1.54485e-05
8.74309e-06 -1.54485e-05 -7.99045e-05
0.000534605 -5.47536e-05 -3.61614e-07
-5.47536e-05 2.38899e-05 3.89966e-06
-3.61614e-07 3.89966e-06 -7.29078e-05
0.000625818 -8.86694e-05 8.22348e-06
-8.86694e-05 9.69798e-05 -1.87005e-05
8.22348e-06 -1.87005e-05 -4.337e-05
0.000963543 -3.67774e-05 2.0052e-06
-3.67774e-05 0.000331886 5.49756e-08
2.0052e-06 5.49756e-08 0.000208277
0.000556138 3.70069e-05 2.71532e-06
3.70069e-05 7.14295e-05 7.37986e-07
2.71532e-06 7.37986e-07 1.87759e-05
0.00225344 -0.000341228 -1.07436e-06
-0.000341228 -7.25872e-05 3.48955e-06
-1.07436e-06 3.48955e-06 0.00015135
0.000532992 -3.39541e-05 -2.20787e-06
-3.39541e-05 9.70869e-05 -9.38943e-07
-2.20787e-06 -9.38943e-07 -2.68616e-05
0.000964689 -0.000148882 -5.97538e-06
-0.000148882 0.000318809 5.94813e-06
-5.97538e-06 5.94813e-06 0.000183321
0.00176466 -0.000534716 5.26404e-06
-0.000534716 -0.000201403 -2.5362e-06
5.26404e-06 -2.5362e-06 -0.000133679
0.00169725 -0.000728918 8.46706e-07
-0.000728918 -4.34238e-06 -5.17667e-07
8.46706e-07 -5.17667e-07 -0.000219421
0.000861735 -0.000623933 -3.34197e-07
-0.000623933 -0.000155899 -1.27933e-06
-3.34197e-07 -1.27933e-06 -0.000412499
0.00158997 -0.000279768 1.17464e-06
-0.000279768 0.00083569 -1.59112e-05
1.17464e-06 -1.59112e-05 0.000531753
0.00162001 -0.000588363 -1.49308e-06
-0.000588363 0.00116711 2.64899e-06
-1.49308e-06 2.64899e-06 0.000419035
0.00410838 -0.000606984 -4.39264e-05
-0.000606984 0.00083259 1.00809e-05
-4.39264e-05 1.00809e-05 0.000983762
0.00368757 -0.000809227 -5.20065e-05
-0.000809227 0.00107957 1.52616e-05
-5.20065e-05 1.52616e-05 0.000953534
0.00196287 -0.000818174 -6.96392e-06
-0.000818174 0.000242379 9.45718e-07
-6.96392e-06 9.45718e-07 1.7853e-05
-0.000335671 -0.00041168 -1.37903e-05
-0.00041168 -0.000567116 1.94772e-05
-1.37903e-05 1.94772e-05 -0.000739287
0.000413754 -0.000134452 1.74346e-06
-0.000134452 4.76838e-05 6.58966e-06
1.74346e-06 6.58966e-06 -0.000134748
0.000491635 -0.000156482 4.22349e-06
-0.000156482 0.000140985 -1.95623e-07
4.22349e-06 -1.95623e-07 -6.98048e-05
0.0016603 -0.000206681 -2.30652e-06
-0.000206681 0.00115951 -1.76635e-05
-2.30652e-06 -1.76635e-05 0.000572753
-0.00628962 -0.00026129 0.000422148
-0.00026129 -0.00455929 -6.46924e-06
0.000422148 -6.46924e-06 -0.00349307
0.011074 -0.000261545 4.91358e-05
-0.000261545 0.00190631 7.02535e-06
4.91358e-05 7.02535e-06 0.00158695
0.0017982 0.000244814 6.98525e-06
0.000244814 0.000820467 -6.72611e-06
6.98525e-06 -6.72611e-06 0.000637528
0.00151713 0.000441841 -3.41549e-06
0.000441841 0.000461905 4.55989e-06
-3.41549e-06 4.55989e-06 0.000157565
0.00253635 0.000531085 8.57765e-05
0.000531085 0.000339344 3.60738e-05
8.57765e-05 3.60738e-05 0.000324857
0.00302605 0.000840485 2.7036e-05
0.000840485 0.000808958 1.05826e-05
2.7036e-05 1.05826e-05 0.000539127
0.00266485 0.000708381 1.75005e-05
0.000708381 0.000991376 6.42892e-06
1.75005e-05 6.42892e-06 0.000591886
0.0140541 0.000683796 7.35994e-05
0.000683796 0.00309327 -1.84126e-05
7.35994e-05 -1.84126e-05 0.0021425
0.00814906 0.00177416 -0.0001964
0.00177416 2.5355e-05 3.16654e-05
-0.0001964 3.16654e-05 0.000380138
0.00314579 0.00106079 1.97665e-06
0.00106079 0.000841853 -2.88787e-05
1.97665e-06 -2.88787e-05 0.000377524
0.0118862 -0.00309261 -0.000369316
-0.00309261 0.00506915 -2.76596e-05
-0.000369316 -2.76596e-05 0.00319016
-0.00144991 -0.00628013 -0.00181032
-0.00628013 0.000957604 -0.00121996
-0.00181032 -0.00121996 -0.00012704
0.000960779 0.000277384 8.37251e-07
0.000277384 0.000338842 3.7653e-07
8.37251e-07 3.7653e-07 0.000120559
-0.00221224 -0.00181036 0.000333557
-0.00181036 -0.00270598 5.83824e-05
0.000333557 5.83824e-05 -0.00387514
-0.00324655 -0.00145896 -0.00035566
-0.00145896 0.00387329 -0.00016551
-0.00035566 -0.00016551 -0.000394176
0.00324571 0.000866448 -1.83217e-05
0.000866448 0.000747227 -3.8369e-07
-1.83217e-05 -3.8369e-07 0.00065605
0.00105266 0.000369843 -6.59654e-06
0.000369843 0.000201295 5.9332e-06
-6.59654e-06 5.9332e-06 -8.73316e-05
0.00140464 0.000675615 4.18887e-06
0.000675615 0.000324811 2.82908e-06
4.18887e-06 2.82908e-06 -2.37361e-05
0.00148688 0.000908087 4.40713e-05
0.000908087 0.000205451 2.43127e-05
4.40713e-05 2.43127e-05 -1.51279e-05
0.0133041 0.00176945 -0.000125898
0.00176945 0.00155927 -7.34663e-05
-0.000125898 -7.34663e-05 -0.000382292
0.00520561 0.00245397 -6.33419e-05
0.00245397 0.000222775 -4.87997e-05
-6.33419e-05 -4.87997e-05 0.000306703
0.0161565 -0.00380787 0.000378559
-0.00380787 0.00650284 -1.51252e-05
0.000378559 -1.51252e-05 0.00442334
0.0118021 -0.00326039 0.000198509
-0.00326039 0.00110166 0.000593025
0.000198509 0.000593025 0.000380384
0.00247987 0.000359831 -1.96387e-05
0.000359831 0.0012237 -1.24904e-05
-1.96387e-05 -1.24904e-05 0.00103174
-0.00992345 0.000941156 -0.000129342
0.000941156 0.00263499 -0.000116986
-0.000129342 -0.000116986 -0.0026584
0.00435128 0.000647453 -0.000300924
0.000647453 0.00320672 -0.00040122
-0.000300924 -0.00040122 -0.00108879
0.0028376 0.000688907 -2.66328e-05
0.000688907 0.000784792 5.48115e-06
-2.66328e-05 5.48115e-06 0.000765534
0.00199293 0.000641153 -6.51435e-05
0.000641153 0.000784603 -2.52425e-05
-6.51435e-05 -2.52425e-05 0.000470601
0.00183419 0.000703786 -7.54151e-05
0.000703786 0.00123944 -1.63193e-05
-7.54151e-05 -1.63193e-05 0.000593295
-0.000191743 0.0015233 -5.29463e-05
0.0015233 -0.000312145 -3.23929e-05
-5.29463e-05 -3.23929e-05 -0.000495459
-0.000569693 0.00207083 0.000308002
0.00207083 -0.00172936 0.000129315
0.000308002 0.000129315 -0.00466685
0.0164579 -0.0045703 0.0002556
-0.0045703 0.00753598 0.000568096
0.0002556 0.000568096 0.00486521
0.00781896 -0.00127285 -0.00012343
-0.00127285 -0.00202769 -0.000121291
-0.00012343 -0.000121291 -0.000891557
-0.000641041 9.87096e-05 2.49013e-06
9.87096e-05 -0.000549054 -7.28221e-06
2.49013e-06 -7.28221e-06 -0.000671744
0.00142123 0.000240074 1.08107e-05
0.000240074 0.000651224 3.40032e-06
1.08107e-05 3.40032e-06 0.000495212
-0.00029536 8.11841e-05 3.30729e-07
8.11841e-05 -0.000325248 -8.80429e-06
3.30729e-07 -8.80429e-06 -0.000465792
0.000356213 5.26032e-05 1.92797e-06
5.26032e-05 -5.36447e-05 -8.96552e-07
1.92797e-06 -8.96552e-07 -0.000179035
0.000874289 7.19015e-05 -9.91329e-07
7.19015e-05 0.000285396 -1.74091e-06
-9.91329e-07 -1.74091e-06 0.000118495
0.000632514 1.81856e-06 -1.41797e-06
1.81856e-06 0.000138253 1.62802e-06
-1.41797e-06 1.62802e-06 -2.28228e-05
0.000564484 5.66635e-05 4.54046e-06
5.66635e-05 8.9772e-05 2.58218e-06
4.54046e-06 2.58218e-06 -6.86094e-05
9.02461e-06 6.65571e-05 -3.98181e-06
6.65571e-05 -0.000217671 5.36771e-07
-3.98181e-06 5.36771e-07 -0.000357043
0.000751804 4.68555e-05 1.00656e-07
4.68555e-05 0.000213654 -9.33145e-07
1.00656e-07 -9.33145e-07 5.01812e-05
0.000750109 7.14052e-05 7.36778e-07
7.14052e-05 0.000208483 -4.25854e-07
7.36778e-07 -4.25854e-07 5.65479e-05
0.000805723 -5.32533e-05 -8.95777e-07
-5.32533e-05 0.000230237 1.58285e-06
-8.95777e-07 1.58285e-06 7.36599e-05
-0.000532143 2.66802e-05 2.5234e-06
2.66802e-05 -0.00046036 6.03959e-07
2.5234e-06 6.03959e-07 -0.000638114
-0.000518411 3.91413e-05 -2.08667e-06
3.91413e-05 -0.000209527 3.63555e-06
-2.08667e-06 3.63555e-06 -0.000499687
0.00075351 -2.00854e-05 -4.85839e-06
-2.00854e-05 0.00024505 -6.81096e-06
-4.85839e-06 -6.81096e-06 8.89495e-05
0.00091765 -1.51678e-05 2.46687e-07
-1.51678e-05 0.000323754 -8.8765e-07
2.46687e-07 -8.8765e-07 0.000146485
0.000794902 -7.1313e-05 -2.1639e-07
-7.1313e-05 0.000243292 -1.01372e-06
-2.1639e-07 -1.01372e-06 7.552e-05
0.000664146 -6.18113e-05 2.43596e-06
-6.18113e-05 0.000112186 4.06792e-06
2.43596e-06 4.06792e-06 -1.35e-05
0.000797729 -6.82575e-05 9.49128e-07
-6.82575e-05 0.000239677 -1.29826e-06
9.49128e-07 -1.29826e-06 7.01353e-05
0.000730272 -2.36605e-05 -1.37574e-06
-2.36605e-05 0.000176728 2.04221e-07
-1.37574e-06 2.04221e-07 4.3327e-05
-0.000137015 -6.08021e-05 1.70642e-06
-6.08021e-05 -0.000350432 2.99642e-06
1.70642e-06 2.99642e-06 -0.000461338
0.000388888 -2.53668e-05 9.16751e-07
-2.53668e-05 -7.35966e-06 -5.25303e-07
9.16751e-07 -5.25303e-07 -0.000147565
0.000160899 -1.56618e-05 -5.97402e-06
-1.56618e-05 -0.000122959 -4.77906e-06
-5.97402e-06 -4.77906e-06 -0.000274839
8.00915e-05 -6.7163e-05 2.92113e-06
-6.7163e-05 -0.000182857 -3.32945e-06
2.92113e-06 -3.32945e-06 -0.000307881
0.00103701 -9.43906e-05 6.08069e-06
-9.43906e-05 0.000279876 -1.26486e-05
6.08069e-06 -1.26486e-05 0.000179836
-0.000469451 -2.24889e-05 5.22685e-07
-2.24889e-05 -0.000646431 2.83974e-06
5.22685e-07 2.83974e-06 -0.000776044
7.73605e-05 -3.90205e-05 -4.71332e-06
-3.90205e-05 -0.000211496 -2.05488e-06
-4.71332e-06 -2.05488e-06 -0.000353305
0.000729267 -5.80669e-05 6.39097e-07
-5.80669e-05 0.000167573 -7.21105e-07
6.39097e-07 -7.21105e-07 2.37377e-05
0.000349335 -3.93877e-05 3.54769e-07
-3.93877e-05 -5.61114e-05 -5.44736e-07
3.54769e-07 -5.44736e-07 -0.000195141
0.000709071 -8.43995e-05 3.38705e-07
-8.43995e-05 0.000189637 3.34303e-08
3.38705e-07 3.34303e-08 4.46399e-05
0.000490299 -1.6905e-05 1.53367e-07
-1.6905e-05 1.89149e-05 1.7092e-06
1.53367e-07 1.7092e-06 -9.1873e-05
0.000859301 -7.50496e-05 -1.23607e-06
-7.50496e-05 0.000277218 3.87465e-07
-1.23607e-06 3.87465e-07 0.00013684
0.000628688 -7.07568e-05 -9.24707e-07
-7.07568e-05 0.000109506 5.28569e-08
-9.24707e-07 5.28569e-08 -4.49864e-06
0.000459638 3.36401e-05 -9.06786e-07
3.36401e-05 -2.15776e-05 3.31145e-06
-9.06786e-07 3.31145e-06 -9.46723e-05
0.000485247 -9.29353e-05 2.15414e-06
-9.29353e-05 1.6032e-05 -8.63825e-07
2.15414e-06 -8.63825e-07 -0.000100317
0.000538282 -2.78218e-05 -3.24906e-07
-2.78218e-05 2.53354e-05 1.00562e-07
-3.24906e-07 1.00562e-07 -4.48618e-05
0.00142257 8.90498e-06 -6.52544e-06
8.90498e-06 0.000546622 6.60086e-06
-6.52544e-06 6.60086e-06 0.000528039
0.000520538 -4.97184e-05 1.54875e-06
-4.97184e-05 2.22534e-05 -2.91936e-06
1.54875e-06 -2.91936e-06 -5.0523e-05
0.000896577 -9.51283e-06 -4.87176e-06
-9.51283e-06 0.000227463 7.44053e-07
-4.87176e-06 7.44053e-07 0.000207581
0.000755898 1.34004e-05 6.96195e-07
1.34004e-05 0.000127506 2.09227e-06
6.96195e-07 2.09227e-06 0.000132358
0.000461036 -6.33396e-06 1.95008e-06
-6.33396e-06 -3.8282e-05 -4.33486e-06
1.95008e-06 -4.33486e-06 -5.93345e-05
0.00250203 1.38265e-05 6.2425e-06
1.38265e-05 0.0012107 4.69977e-08
6.2425e-06 4.69977e-08 0.00122407
0.00251343 2.31006e-06 -2.49224e-07
2.31006e-06 0.00121765 -5.09305e-06
-2.49224e-07 -5.09305e-06 0.00123096
0.0009985 7.54023e-05 -4.19388e-07
7.54023e-05 0.000339986 1.57284e-07
-4.19388e-07 1.57284e-07 0.000245266
0.000529749 5.38743e-05 -1.39778e-06
5.38743e-05 2.05554e-05 -2.13118e-06
-1.39778e-06 -2.13118e-06 -2.71995e-05
0.000568841 -1.34535e-05 2.30768e-07
-1.34535e-05 8.03077e-05 8.49434e-07
2.30768e-07 8.49434e-07 -1.27939e-05
0.000517612 5.45196e-06 9.36889e-07
5.45196e-06 -2.52761e-05 -3.20925e-06
9.36889e-07 -3.20925e-06 -3.31767e-05
0.000502028 -1.4431e-05 5.47203e-07
-1.4431e-05 -8.10683e-07 -1.08949e-07
5.47203e-07 -1.08949e-07 -4.40914e-05
0.00055757 -5.17538e-05 -1.56338e-06
-5.17538e-05 3.438e-05 1.51608e-06
-1.56338e-06 1.51608e-06 -1.1765e-05
0.000510455 7.36993e-06 -3.92157e-07
7.36993e-06 -3.01975e-05 -2.62868e-08
-3.92157e-07 -2.62868e-08 -3.81893e-05
0.00196687 1.94364e-05 6.81473e-07
1.94364e-05 0.000876347 -4.61251e-06
6.81473e-07 -4.61251e-06 0.000894284
0.00109128 2.22791e-05 -8.27873e-07
2.22791e-05 0.000329902 1.81999e-06
-8.27873e-07 1.81999e-06 0.00032443
0.00132505 2.73786e-05 -5.37571e-07
2.73786e-05 0.000479517 -1.43894e-08
-5.37571e-07 -1.43894e-08 0.000493135
0.000815049 3.26379e-05 -1.03741e-05
3.26379e-05 0.000168234 7.03222e-06
-1.03741e-05 7.03222e-06 0.000176009
-0.00928086 0.000880073 0.000370802
0.000880073 -0.0035243 -1.12627e-05
0.000370802 -1.12627e-05 -0.00565324
-0.00203945 -7.10736e-05 0.000733526
-7.10736e-05 0.0047527 -0.000181273
0.000733526 -0.000181273 0.00174992
0.00324834 0.000274591 -0.000184132
0.000274591 -0.00131861 -2.61404e-05
-0.000184132 -2.61404e-05 -8.85742e-05
0.00113308 4.39304e-05 2.12441e-05
4.39304e-05 -0.00110644 -3.77371e-05
2.12441e-05 -3.77371e-05 -0.000786069
0.00162243 -6.0083e-05 7.70612e-06
-6.0083e-05 -0.000222207 9.62851e-06
7.70612e-06 9.62851e-06 -0.00020118
-0.000856112 5.48275e-05 -6.87079e-05
5.48275e-05 -0.00115217 -1.9969e-05
-6.87079e-05 -1.9969e-05 -0.000462388
0.00369837 -0.000286411 1.59643e-06
-0.000286411 0.000543654 4.76944e-06
1.59643e-06 4.76944e-06 0.00060476
0.0112349 -9.63612e-06 0.000140306
-9.63612e-06 8.22212e-05 -5.22813e-05
0.000140306 -5.22813e-05 -0.000830239
-0.000330464 0.00263204 -6.91712e-06
0.00263204 0.000352795 -4.83418e-05
-6.91712e-06 -4.83418e-05 -0.00231904
0.00689117 0.00520507 -0.000366633
0.00520507 0.00523373 0.000196367
-0.000366633 0.000196367 0.00414101
0.0022371 -0.00055604 6.28955e-05
-0.00055604 -0.00145449 -4.10133e-05
6.28955e-05 -4.10133e-05 -0.000696079
0.0146359 -0.00153567 0.00017919
-0.00153567 0.00230414 -6.72882e-05
0.00017919 -6.72882e-05 0.000702808
0.0106917 0.00495464 0.000328171
0.00495464 0.00281709 -0.000477568
0.000328171 -0.000477568 0.00101875
0.0147323 0.00324874 -0.000301828
0.00324874 0.00379102 0.000225092
-0.000301828 0.000225092 0.00255971
0.000830373 0.000134483 -1.97073e-06
0.000134483 0.000279825 3.14001e-06
-1.97073e-06 3.14001e-06 0.000126387
0.000399315 2.95262e-05 1.46999e-07
2.95262e-05 -2.46315e-05 -8.74276e-07
1.46999e-07 -8.74276e-07 -0.000122632
0.000586197 -9.38854e-05 -1.24878e-08
-9.38854e-05 9.42057e-05 7.54705e-07
-1.24878e-08 7.54705e-07 1.4877e-06
0.000591804 7.30808e-07 3.27486e-06
7.30808e-07 0.000103729 -1.00019e-06
3.27486e-06 -1.00019e-06 -7.54984e-06
0.000656559 6.33413e-05 1.75414e-06
6.33413e-05 0.000173861 1.23083e-06
1.75414e-06 1.23083e-06 4.86214e-05
0.000605043 1.87789e-05 7.29867e-07
1.87789e-05 0.000133434 6.05735e-06
7.29867e-07 6.05735e-06 -1.84999e-05
0.000714446 9.18212e-05 1.16966e-06
9.18212e-05 0.000176622 2.62142e-06
1.16966e-06 2.62142e-06 4.90158e-05
0.000519685 4.71485e-05 5.09645e-06
4.71485e-05 4.10979e-05 1.02406e-06
5.09645e-06 1.02406e-06 -9.05808e-05
0.000732968 -3.5268e-05 2.39355e-06
-3.5268e-05 0.000204684 -1.13988e-06
2.39355e-06 -1.13988e-06 7.60002e-05
0.000477704 -8.37542e-06 1.55216e-07
-8.37542e-06 1.54012e-05 -1.67927e-06
1.55216e-07 -1.67927e-06 -8.53632e-05
0.00151498 -0.000300043 2.58489e-05
-0.000300043 -0.000407329 -1.49258e-06
2.58489e-05 -1.49258e-06 -0.000203119
0.00112494 -0.000494606 3.76119e-05
-0.000494606 -0.000560372 -9.09366e-06
3.76119e-05 -9.09366e-06 -0.000461746
0.000692171 -0.000606568 1.25439e-05
-0.000606568 -0.000566286 -1.52909e-07
1.25439e-05 -1.52909e-07 -0.00070729
-5.31795e-05 -0.000536719 4.37724e-06
-0.000536719 -0.000648894 9.34325e-07
4.37724e-06 9.34325e-07 -0.000888342
0.00303989 -0.000532738 6.6083e-06
-0.000532738 0.00185619 2.85115e-05
6.6083e-06 2.85115e-05 0.00123851
0.0002382 -0.000385174 4.82359e-06
-0.000385174 1.09029e-05 -2.35895e-06
4.82359e-06 -2.35895e-06 -0.000357164
0.00149096 -0.000191225 2.485e-06
-0.000191225 0.000623005 -1.1909e-06
2.485e-06 -1.1909e-06 0.00050328
0.000860456 -3.97818e-05 -2.41633e-06
-3.97818e-05 0.000296265 2.603e-06
-2.41633e-06 2.603e-06 0.000168434
0.00220844 -0.000461173 1.33305e-05
-0.000461173 -0.000138559 -7.42999e-06
1.33305e-05 -7.42999e-06 4.7413e-05
0.000518312 -6.37388e-05 1.24892e-07
-6.37388e-05 0.000118239 5.73437e-07
1.24892e-07 5.73437e-07 -7.6739e-05
-0.00017638 -0.000139471 6.46168e-08
-0.000139471 -0.000251781 -3.53936e-06
6.46168e-08 -3.53936e-06 -0.000462522
0.00195051 -0.000670586 1.40829e-05
-0.000670586 0.000111981 -1.99823e-06
1.40829e-05 -1.99823e-06 6.15523e-05
0.00176811 -0.000821768 -5.47008e-07
-0.000821768 4.55365e-05 3.92967e-06
-5.47008e-07 3.92967e-06 -0.000115019
0.000231165 -0.000550551 1.6337e-05
-0.000550551 -0.000227269 -9.89078e-06
1.6337e-05 -9.89078e-06 -0.000474594
0.00136378 -0.000281159 1.05413e-06
-0.000281159 0.000977743 -1.3021e-05
1.05413e-06 -1.3021e-05 0.000398229
0.00278226 -0.000758922 -6.49393e-05
-0.000758922 0.000617477 2.51153e-05
-6.49393e-05 2.51153e-05 0.000315954
0.00114622 -0.000611347 -4.29388e-05
-0.000611347 -0.000114707 1.42961e-05
-4.29388e-05 1.42961e-05 -0.000162091
0.00113102 -0.000558538 -7.33065e-05
-0.000558538 0.000588452 4.83488e-05
-7.33065e-05 4.83488e-05 0.000205413
-0.001899 -0.000162594 -2.54281e-06
-0.000162594 -0.0013332 8.42944e-06
-2.54281e-06 8.42944e-06 -0.00153166
-0.00036185 -0.000103137 4.3326e-06
-0.000103137 -0.000352627 6.65257e-06
4.3326e-06 6.65257e-06 -0.000590096
0.000634511 -5.41303e-05 8.45581e-06
-5.41303e-05 0.000337219 -6.83938e-06
8.45581e-06 -6.83938e-06 -1.76578e-06
-0.00173283 0.000915578 -0.000308843
0.000915578 0.00614767 1.5866e-05
-0.000308843 1.5866e-05 0.00235486
0.000853696 -0.00109262 -2.31814e-06
-0.00109262 0.00186716 2.21294e-05
-2.31814e-06 2.21294e-05 0.00147499
0.00172151 0.00100845 -8.93934e-05
0.00100845 -0.004521 -3.83428e-05
-8.93934e-05 -3.83428e-05 -0.00482789
0.000278769 0.000216945 7.44925e-06
0.000216945 -4.67074e-05 -3.20171e-06
7.44925e-06 -3.20171e-06 -0.0002595
0.00113847 0.000454085 7.98891e-06
0.000454085 0.000291299 1.84281e-05
7.98891e-06 1.84281e-05 -4.11098e-05
0.00365244 0.000790619 5.9119e-05
0.000790619 0.000970589 1.91105e-05
5.9119e-05 1.91105e-05 0.000893504
0.00144529 0.000711741 1.77767e-05
0.000711741 0.000366286 2.41269e-05
1.77767e-05 2.41269e-05 -6.00035e-06
0.010859 -0.00207707 0.000149378
-0.00207707 0.0037189 4.35706e-05
0.000149378 4.35706e-05 0.00345839
0.00393993 0.000816989 -0.000319288
0.000816989 -0.00334052 -4.30169e-05
-0.000319288 -4.30169e-05 -0.00524154
0.00468153 0.00228246 -1.97188e-05
0.00228246 -3.2015e-06 1.33935e-05
-1.97188e-05 1.33935e-05 0.000147511
0.00237439 0.000785612 4.15458e-05
0.000785612 0.000931144 -2.59991e-05
4.15458e-05 -2.59991e-05 0.000757864
0.00148814 -0.00252684 -0.00033208
-0.00252684 0.00148618 -0.000304353
-0.00033208 -0.000304353 -0.000745704
-0.000744021 -0.00227648 -0.000439001
-0.00227648 0.00416398 -0.000152227
-0.000439001 -0.000152227 -0.000195636
0.0183376 -0.00408513 0.000496974
-0.00408513 0.00449215 0.000298408
0.000496974 0.000298408 0.00373891
0.000510765 0.000204304 1.40717e-05
0.000204304 8.06171e-05 -3.81771e-06
1.40717e-05 -3.81771e-06 -0.000105177
-0.00386683 0.000352616 -0.000154034
0.000352616 0.00436747 -3.39476e-05
-0.000154034 -3.39476e-05 -7.58958e-05
0.00486105 0.000827571 -7.36239e-05
0.000827571 0.00281171 -0.00014299
-7.36239e-05 -0.00014299 -0.00181262
0.00164905 0.000671625 4.80327e-06
0.000671625 0.000252231 4.88707e-06
4.80327e-06 4.88707e-06 0.000176283
0.00047959 0.000480203 9.66098e-06
0.000480203 5.40158e-05 4.06961e-06
9.66098e-06 4.06961e-06 -0.000275128
0.000100167 0.000688884 -3.11622e-05
0.000688884 0.000144488 -5.56819e-05
-3.11622e-05 -5.56819e-05 -0.000350905
0.0035426 0.00234358 1.26267e-05
0.00234358 0.00104812 1.52593e-05
1.26267e-05 1.52593e-05 0.000755041
0.0162472 0.0028137 7.44121e-05
0.0028137 0.00443241 2.24555e-05
7.44121e-05 2.24555e-05 0.00233506
0.00623394 -0.00288258 7.21857e-05
-0.00288258 0.00159663 -6.83823e-05
7.21857e-05 -6.83823e-05 -0.00159331
0.0134392 -0.00203162 -3.04785e-06
-0.00203162 0.00187087 -6.12287e-05
-3.04785e-06 -6.12287e-05 0.00316891
0.000377122 0.000318293 -7.57121e-06
0.000318293 4.9366e-05 -1.07014e-05
-7.57121e-06 -1.07014e-05 -0.000167233
0.00227337 0.000176404 -0.000257589
0.000176404 0.00173424 -5.46483e-05
-0.000257589 -5.46483e-05 -0.00192981
0.000415272 0.000446143 -7.81752e-05
0.000446143 -0.000157691 -0.000153132
-7.81752e-05 -0.000153132 -0.00170152
-0.00108127 0.000202784 5.85793e-06
0.000202784 -0.000426329 -2.45747e-05
5.85793e-06 -2.45747e-05 -0.000644782
-0.00015607 0.000438972 -0.000117443
0.000438972 0.0011344 7.66842e-06
-0.000117443 7.66842e-06 0.000297504
0.0134776 0.00346173 8.45853e-05
0.00346173 0.00459484 -2.04545e-05
8.45853e-05 -2.04545e-05 0.000762612
-0.0040978 -0.00408097 -6.69608e-06
-0.00408097 -0.00121565 0.000217421
-6.69608e-06 0.000217421 -0.00511013
0.0107401 0.000553278 4.66855e-05
0.000553278 -0.0014289 -0.000284639
4.66855e-05 -0.000284639 0.00115308
0.000913394 0.000175415 -2.70827e-06
0.000175415 0.000317221 1.35873e-05
-2.70827e-06 1.35873e-05 0.000179382
0.000873341 0.000196108 -9.97557e-06
0.000196108 0.000389211 -3.42904e-06
-9.97557e-06 -3.42904e-06 0.000224526
-8.22206e-05 0.000107964 3.29748e-06
0.000107964 1.01835e-05 -3.32935e-06
3.29748e-06 -3.32935e-06 -0.000254609
0.000717911 8.45579e-05 -1.75846e-06
8.45579e-05 0.000178484 -2.11504e-06
-1.75846e-06 -2.11504e-06 2.51643e-05
0.00102409 -3.83048e-05 -8.61843e-07
-3.83048e-05 0.000370054 3.16026e-06
-8.61843e-07 3.16026e-06 0.000206415
0.000540962 6.89195e-05 2.74853e-06
6.89195e-05 7.05022e-05 1.82753e-06
2.74853e-06 1.82753e-06 -7.39086e-05
-0.000994239 1.11311e-05 2.71044e-06
1.11311e-05 -0.000712627 1.03406e-06
2.71044e-06 1.03406e-06 -0.000892632
0.000769778 -2.46679e-05 1.1988e-06
-2.46679e-05 0.000210328 1.76632e-07
1.1988e-06 1.76632e-07 5.07662e-05
0.000654965 1.13677e-05 -1.44517e-07
1.13677e-05 0.000188555 -2.29701e-06
-1.44517e-07 -2.29701e-06 2.91536e-05
-0.000270751 2.29042e-06 9.62909e-07
2.29042e-06 -4.52137e-05 2.59087e-06
9.62909e-07 2.59087e-06 -0.000349578
-0.000646126 4.64111e-05 -3.75219e-06
4.64111e-05 -5.97437e-05 7.5669e-06
-3.75219e-06 7.5669e-06 -0.00050281
-6.88224e-05 6.0821e-06 -2.70472e-06
6.0821e-06 0.000110658 -2.96511e-06
-2.70472e-06 -2.96511e-06 -0.000222037
0.00076553 1.20191e-05 -1.40608e-06
1.20191e-05 0.000228975 -6.06355e-06
-1.40608e-06 -6.06355e-06 8.35746e-05
0.000764895 -0.00013281 1.32132e-06
-0.00013281 0.000203922 1.25855e-06
1.32132e-06 1.25855e-06 4.4624e-05
0.000566447 -8.43686e-06 4.09857e-07
-8.43686e-06 6.75414e-05 1.12713e-06
4.09857e-07 1.12713e-06 -6.09708e-05
0.000526239 -8.89401e-05 7.26091e-07
-8.89401e-05 6.27547e-05 9.11561e-06
7.26091e-07 9.11561e-06 -4.05986e-05
0.000322816 -3.50366e-05 2.1164e-06
-3.50366e-05 -4.15069e-05 3.08246e-06
2.1164e-06 3.08246e-06 -0.000180981
0.000635668 -3.32079e-05 3.45381e-07
-3.32079e-05 0.000138848 2.93746e-07
3.45381e-07 2.93746e-07 -1.15274e-07
0.000517072 -4.36882e-05 1.1749e-07
-4.36882e-05 7.88139e-05 -1.69593e-06
1.1749e-07 -1.69593e-06 -4.44968e-05
0.000564854 -4.75915e-05 -5.68554e-06
-4.75915e-05 8.82915e-05 -4.81253e-06
-5.68554e-06 -4.81253e-06 -3.51623e-05
0.000327419 -5.45967e-05 6.01053e-06
-5.45967e-05 9.75614e-05 -6.54118e-06
6.01053e-06 -6.54118e-06 -5.80688e-05
0.00012686 -0.000135063 6.14126e-08
-0.000135063 -0.000353753 2.09926e-06
6.14126e-08 2.09926e-06 -0.000448537
0.000789185 -0.00012623 -7.94246e-06
-0.00012623 0.00014801 -7.40954e-07
-7.94246e-06 -7.40954e-07 3.954e-05
0.000321319 -0.000143064 6.27374e-06
-0.000143064 -0.00013568 5.48322e-06
6.27374e-06 5.48322e-06 -0.000281831
0.00201512 -0.000441021 1.81996e-06
-0.000441021 0.000787896 1.56121e-05
1.81996e-06 1.56121e-05 0.000503182
0.00167162 -0.000196743 2.28208e-06
-0.000196743 0.000730511 -4.82146e-06
2.28208e-06 -4.82146e-06 0.000550654
-0.000193447 -6.12399e-05 -8.87593e-06
-6.12399e-05 -0.00043512 -4.51448e-06
-8.87593e-06 -4.51448e-06 -0.000560376
0.00055043 -5.9197e-05 5.27199e-08
-5.9197e-05 5.31394e-05 -7.48502e-08
5.27199e-08 -7.48502e-08 -8.78126e-05
2.82158e-05 -4.15715e-05 -7.44464e-07
-4.15715e-05 -0.000247423 -1.61358e-06
-7.44464e-07 -1.61358e-06 -0.000397169
0.000843439 -8.25309e-05 -1.0341e-06
-8.25309e-05 0.000231959 9.57702e-07
-1.0341e-06 9.57702e-07 8.73707e-05
0.000761334 -0.00010092 -7.91079e-07
-0.00010092 0.000208522 6.26476e-07
-7.91079e-07 6.26476e-07 5.6427e-05
0.000587432 -5.21701e-05 -3.49655e-07
-5.21701e-05 6.61891e-05 1.47764e-06
-3.49655e-07 1.47764e-06 -4.59335e-05
0.00119235 -0.000141215 -5.74221e-07
-0.000141215 0.000504792 -1.12794e-06
-5.74221e-07 -1.12794e-06 0.00033926
0.000658481 -8.72507e-05 -5.031e-07
-8.72507e-05 0.000123178 -4.75031e-08
-5.031e-07 -4.75031e-08 7.66198e-06
0.000516551 1.5845e-05 -2.30499e-06
1.5845e-05 1.08467e-05 2.79765e-06
-2.30499e-06 2.79765e-06 -6.33717e-05
0.000723891 -0.00011784 1.82882e-06
-0.00011784 0.000169428 -1.99485e-06
1.82882e-06 -1.99485e-06 5.11303e-05
0.000600002 -4.29745e-05 -2.24112e-07
-4.29745e-05 6.02891e-05 1.53773e-07
-2.24112e-07 1.53773e-07 -1.16526e-05
0.00143826 1.42417e-05 -1.10907e-05
1.42417e-05 0.000552463 6.83679e-06
-1.10907e-05 6.83679e-06 0.000532512
0.000556573 -5.80661e-05 2.46809e-06
-5.80661e-05 4.26452e-05 -3.13736e-06
2.46809e-06 -3.13736e-06 -3.17516e-05
0.000900208 -3.37211e-06 -5.96578e-06
-3.37211e-06 0.000224581 6.79674e-07
-5.96578e-06 6.79674e-07 0.0002035
0.000781482 2.2578e-05 7.16342e-07
2.2578e-05 0.000141679 2.54748e-06
7.16342e-07 2.54748e-06 0.000144625
0.000464964 -1.71447e-05 1.68541e-06
-1.71447e-05 -4.03838e-05 -4.56476e-06
1.68541e-06 -4.56476e-06 -6.22805e-05
0.00163162 2.29221e-05 8.47511e-06
2.29221e-05 0.000671478 -1.4859e-06
8.47511e-06 -1.4859e-06 0.000680446
0.00248188 1.47777e-05 7.758e-06
1.47777e-05 0.00119784 -5.10495e-06
7.758e-06 -5.10495e-06 0.00121122
0.000589974 3.79961e-05 2.05867e-06
3.79961e-05 7.18106e-05 -9.81815e-07
2.05867e-06 -9.81815e-07 -2.46181e-05
0.000604081 5.26753e-05 -7.60063e-07
5.26753e-05 6.18295e-05 -1.83348e-06
-7.60063e-07 -1.83348e-06 1.15433e-05
0.000624882 -6.8935e-07 1.16995e-06
-6.8935e-07 0.000105556 5.68096e-07
1.16995e-06 5.68096e-07 1.32419e-05
0.000503741 1.32489e-06 1.39866e-06
1.32489e-06 -3.27338e-05 -3.52095e-06
1.39866e-06 -3.52095e-06 -4.14026e-05
0.000520901 4.39659e-05 1.20721e-07
4.39659e-05 1.13762e-05 -9.49589e-08
1.20721e-07 -9.49589e-08 -3.41416e-05
0.000561109 -0.000106137 -3.5175e-06
-0.000106137 6.86593e-05 7.10675e-07
-3.5175e-06 7.10675e-07 -1.90957e-05
0.00198584 5.99982e-06 -4.3635e-06
5.99982e-06 0.000886375 -4.70598e-06
-4.3635e-06 -4.70598e-06 0.000904891
0.000498494 4.19415e-06 -2.37394e-07
4.19415e-06 -3.65825e-05 1.38393e-08
-2.37394e-07 1.38393e-08 -4.44794e-05
0.000526071 -1.76217e-05 -2.03003e-06
-1.76217e-05 1.20655e-05 1.69819e-06
-2.03003e-06 1.69819e-06 -3.01065e-05
0.000491543 6.42044e-06 -1.31386e-06
6.42044e-06 -4.22489e-05 3.10975e-06
-1.31386e-06 3.10975e-06 -5.01656e-05
0.00199528 2.09189e-05 -4.8573e-06
2.09189e-05 0.000894127 -8.23101e-08
-4.8573e-06 -8.23101e-08 0.000911887
0.00195129 3.39809e-05 -6.99047e-06
3.39809e-05 0.000869226 4.37003e-06
-6.99047e-06 4.37003e-06 0.000886253
-0.00642316 -0.00124784 -0.000133888
-0.00124784 0.00416787 4.55021e-05
-0.000133888 4.55021e-05 0.000575896
0.000954228 0.000994891 -0.000193707
0.000994891 0.000122586 5.56427e-05
-0.000193707 5.56427e-05 -0.00132097
0.00294934 -0.000820952 -0.000511271
-0.000820952 0.00119446 0.000232556
-0.000511271 0.000232556 -0.0030965
-0.00207148 0.000225272 0.000842315
0.000225272 0.00473078 -0.000298705
0.000842315 -0.000298705 0.00145325
0.00114039 0.000428042 -1.72267e-05
0.000428042 -0.0013544 -2.68935e-05
-1.72267e-05 -2.68935e-05 -0.000746753
0.00243638 -0.000350487 8.75014e-05
-0.000350487 -0.000274336 4.64749e-06
8.75014e-05 4.64749e-06 -0.000214191
0.000629858 -0.000360783 0.000198197
-0.000360783 -0.00390817 -6.71553e-05
0.000198197 -6.71553e-05 -0.00583253
0.016866 0.00241338 -0.000514247
0.00241338 0.00768056 4.4558e-05
-0.000514247 4.4558e-05 0.00561253
-0.00079267 0.00598475 -0.00172222
0.00598475 0.000860738 0.00120464
-0.00172222 0.00120464 -0.000160704
0.00393109 -0.000430203 1.35264e-05
-0.000430203 -0.000381826 9.04396e-06
1.35264e-05 9.04396e-06 5.70164e-05
0.00860508 -0.00148458 0.000118517
-0.00148458 -0.000614046 -0.000105662
0.000118517 -0.000105662 -0.00296364
0.018293 0.00426057 -0.000235167
0.00426057 0.0054429 -9.83186e-05
-0.000235167 -9.83186e-05 0.00381879
0.0108236 0.00337309 -6.61668e-05
0.00337309 0.00112867 0.000322934
-6.61668e-05 0.000322934 -0.000329251
0.001726 -0.00128447 -9.72335e-05
-0.00128447 -0.00245846 1.41114e-05
-9.72335e-05 1.41114e-05 -0.0017405
0.004419 -0.00246189 0.000309163
-0.00246189 -0.000224898 -0.000197227
0.000309163 -0.000197227 -0.00410341
0.00136646 0.0027271 6.02641e-05
0.0027271 -0.00102426 -0.00063414
6.02641e-05 -0.00063414 -0.00348533
0.0075281 0.0011619 -0.000201243
0.0011619 -0.00269837 2.28829e-06
-0.000201243 2.28829e-06 -0.00150622
0.0018069 -7.02077e-05 2.26142e-06
-7.02077e-05 0.000930908 1.14504e-05
2.26142e-06 1.14504e-05 0.000712299
0.000560186 0.000113032 -1.7935e-06
0.000113032 9.89207e-05 -2.17513e-06
-1.7935e-06 -2.17513e-06 -3.63534e-05
0.000545642 9.05071e-05 4.41284e-07
9.05071e-05 5.73471e-05 -1.87718e-06
4.41284e-07 -1.87718e-06 -3.57045e-05
0.000470733 3.82679e-05 5.22593e-06
3.82679e-05 5.94609e-05 -1.88982e-07
5.22593e-06 -1.88982e-07 -5.99663e-05
0.000472234 7.90543e-05 3.45078e-06
7.90543e-05 3.36699e-05 2.83589e-06
3.45078e-06 2.83589e-06 -0.000136693
0.00056882 4.68494e-05 -3.47264e-08
4.68494e-05 0.000105781 2.05336e-06
-3.47264e-08 2.05336e-06 -3.62607e-05
0.000461425 4.05874e-05 1.36853e-07
4.05874e-05 2.34038e-05 -1.79869e-06
1.36853e-07 -1.79869e-06 -0.000102747
0.000894727 0.000159843 2.77039e-06
0.000159843 0.00029854 4.04422e-06
2.77039e-06 4.04422e-06 0.000138609
0.000847118 0.00011512 5.50722e-08
0.00011512 0.000274855 2.88442e-07
5.50722e-08 2.88442e-07 0.000120227
0.000394442 -1.34928e-05 -4.72494e-06
-1.34928e-05 -1.28974e-05 -4.17332e-06
-4.72494e-06 -4.17332e-06 -0.000136536
0.00053249 -0.000361853 6.71439e-05
-0.000361853 -0.00101076 -2.76941e-05
6.71439e-05 -2.76941e-05 -0.000799717
0.000487671 -0.000569992 3.25217e-05
-0.000569992 -0.000700857 -1.1367e-05
3.25217e-05 -1.1367e-05 -0.000711286
0.00157272 -0.000809417 5.7732e-06
-0.000809417 -0.00010469 7.54705e-06
5.7732e-06 7.54705e-06 -0.000217759
-0.000638326 -0.00053808 8.24677e-06
-0.00053808 -0.000692861 -1.65219e-05
8.24677e-06 -1.65219e-05 -0.00101074
0.00292539 -0.000352667 -1.30316e-05
-0.000352667 0.0017387 4.88371e-05
-1.30316e-05 4.88371e-05 0.00128454
0.00080117 -0.000143636 -2.75199e-06
-0.000143636 0.000347486 3.62733e-06
-2.75199e-06 3.62733e-06 0.000124319
0.000382455 0.000106949 -2.34649e-06
0.000106949 3.14536e-05 -1.15104e-05
-2.34649e-06 -1.15104e-05 -0.000164029
0.000582533 -9.36871e-05 -1.72915e-06
-9.36871e-05 0.000172564 7.59451e-06
-1.72915e-06 7.59451e-06 -5.75599e-05
0.00153431 -0.000617447 7.06513e-07
-0.000617447 -0.000171747 -4.74778e-06
7.06513e-07 -4.74778e-06 -0.000266889
0.000634138 -4.35308e-05 6.55607e-07
-4.35308e-05 0.000204092 4.01336e-06
6.55607e-07 4.01336e-06 -1.54095e-05
0.00189286 -0.000229828 6.4613e-07
-0.000229828 0.00108519 -1.31322e-06
6.4613e-07 -1.31322e-06 0.000730035
0.00130925 -0.000634721 1.14252e-06
-0.000634721 -4.18198e-05 4.56168e-06
1.14252e-06 4.56168e-06 -8.24134e-05
0.000794135 -0.000574874 -1.96341e-05
-0.000574874 0.000326907 6.78397e-06
-1.96341e-05 6.78397e-06 -3.12481e-05
0.00316886 -0.00119087 2.74942e-05
-0.00119087 0.000644025 -1.96667e-05
2.74942e-05 -1.96667e-05 0.000609924
-0.00110802 -0.000398245 -1.09581e-05
-0.000398245 -0.000937147 2.27231e-05
-1.09581e-05 2.27231e-05 -0.000994107
-0.000644229 -7.65448e-05 7.3574e-06
-7.65448e-05 -0.000238932 5.45484e-06
7.3574e-06 5.45484e-06 -0.000697645
0.000629093 1.27601e-05 -2.20541e-06
1.27601e-05 0.000160185 -4.72382e-07
-2.20541e-06 -4.72382e-07 -3.12888e-05
0.00105441 2.08712e-05 8.23993e-06
2.08712e-05 0.000562639 -7.02234e-06
8.23993e-06 -7.02234e-06 0.000291256
0.00138126 5.44827e-05 -2.68062e-05
5.44827e-05 0.00169609 -1.22999e-05
-2.68062e-05 -1.22999e-05 -0.0016397
-0.0053863 0.000324447 -0.000265014
0.000324447 0.00543414 -1.35846e-05
-0.000265014 -1.35846e-05 0.00118057
-0.0123383 -0.00173108 -0.00053255
-0.00173108 -0.00572004 -1.75866e-05
-0.00053255 -1.75866e-05 -0.00585099
-0.000723943 0.000137731 7.1444e-06
0.000137731 -0.000618715 -2.23457e-06
7.1444e-06 -2.23457e-06 -0.000818814
-0.000385972 0.000389621 -2.25769e-06
0.000389621 -0.000359844 1.07651e-05
-2.25769e-06 1.07651e-05 -0.000698298
0.00128703 0.000755164 2.88436e-05
0.000755164 5.76766e-05 1.91583e-05
2.88436e-05 1.91583e-05 -4.12341e-05
-0.00534122 0.00139372 3.11133e-05
0.00139372 0.00451247 4.46787e-05
3.11133e-05 4.46787e-05 0.000565774
0.00473375 0.00237662 -0.000198938
0.00237662 0.000131495 -0.000140345
-0.000198938 -0.000140345 -0.00359864
0.00203215 0.00166455 0.000303944
0.00166455 0.000432124 9.55061e-05
0.000303944 9.55061e-05 0.000253825
-0.000346779 0.000656792 1.85728e-05
0.000656792 -0.000289406 -3.71917e-05
1.85728e-05 -3.71917e-05 -0.000465676
0.0204267 -0.00299079 -0.000141428
-0.00299079 0.00643101 -0.000267993
-0.000141428 -0.000267993 0.00430235
0.00533763 0.0010219 0.000371609
0.0010219 0.00273927 0.000138211
0.000371609 0.000138211 -0.00222439
0.0130478 -0.00176953 0.000124461
-0.00176953 0.00202995 3.22767e-05
0.000124461 3.22767e-05 0.00341208
0.000989831 0.000378128 4.46641e-06
0.000378128 0.000466334 -1.77793e-06
4.46641e-06 -1.77793e-06 0.000238503
0.0037675 0.000353354 2.79642e-06
0.000353354 0.00254624 1.41085e-05
2.79642e-06 1.41085e-05 -0.000201619
0.00115066 0.000432948 4.64429e-05
0.000432948 2.53453e-05 7.41835e-06
4.64429e-05 7.41835e-06 -0.00156151
-0.000379631 0.000377422 -2.47118e-06
0.000377422 -0.000172189 -3.83925e-06
-2.47118e-06 -3.83925e-06 -0.000444481
0.000718222 0.000909108 -9.54855e-05
0.000909108 0.00100325 -4.31069e-05
-9.54855e-05 -4.31069e-05 -0.000178284
0.00146298 0.00326753 0.000146626
0.00326753 0.00060749 8.7626e-05
0.000146626 8.7626e-05 -0.00337526
0.00838676 0.000171032 -1.21731e-05
0.000171032 -0.00328331 -0.000188726
-1.21731e-05 -0.000188726 -0.000407558
0.00412739 -0.00224887 -5.79225e-05
-0.00224887 0.0023268 -0.000127204
-5.79225e-05 -0.000127204 -0.00139704
0.0010375 0.000300531 -2.77361e-06
0.000300531 0.000769651 -1.84581e-05
-2.77361e-06 -1.84581e-05 0.000497791
-0.00192575 7.44119e-05 6.73393e-06
7.44119e-05 -0.000140627 6.81853e-06
6.73393e-06 6.81853e-06 -0.000207115
0.00392958 -2.75215e-05 7.35386e-05
-2.75215e-05 -0.000229046 -0.000143427
7.35386e-05 -0.000143427 -0.00124174
0.00755684 0.00124244 0.000206848
0.00124244 -0.00244015 -1.64395e-05
0.000206848 -1.64395e-05 -0.00138861
-0.00193888 0.000106936 1.86081e-05
0.000106936 -0.000102068 -3.32434e-05
1.86081e-05 -3.32434e-05 -0.000821549
0.0124363 0.00262618 0.000224429
0.00262618 0.00566098 5.67643e-05
0.000224429 5.67643e-05 0.000953926
-0.00296626 -0.00043518 7.98149e-05
-0.00043518 0.00147105 0.000346913
7.98149e-05 0.000346913 -0.00152266
0.00260447 0.000361973 2.13285e-05
0.000361973 0.00145319 1.39901e-05
2.13285e-05 1.39901e-05 0.00124993
0.00060527 0.000193674 -5.33092e-06
0.000193674 0.000440025 -8.57847e-07
-5.33092e-06 -8.57847e-07 0.000141026
-6.12269e-05 9.43147e-05 1.82759e-06
9.43147e-05 0.000275065 2.28294e-06
1.82759e-06 2.28294e-06 -0.000101733
0.00067926 0.000153472 1.09119e-06
0.000153472 0.000171059 9.48664e-07
1.09119e-06 9.48664e-07 3.94187e-06
0.000387748 4.83954e-05 2.11664e-06
4.83954e-05 1.74033e-05 1.67406e-06
2.11664e-06 1.67406e-06 -0.000136077
0.00065559 -1.93123e-05 9.08782e-06
-1.93123e-05 0.000514371 8.0422e-07
9.08782e-06 8.0422e-07 0.000198752
0.000481014 2.92372e-05 2.92349e-07
2.92372e-05 4.83503e-05 -6.72787e-07
2.92349e-07 -6.72787e-07 -8.80508e-05
0.000712583 -2.26539e-05 -2.53178e-06
-2.26539e-05 0.000553984 -2.50977e-06
-2.53178e-06 -2.50977e-06 0.000236471
0.00029357 4.58376e-05 8.78871e-07
4.58376e-05 0.000466608 -1.3256e-06
8.78871e-07 -1.3256e-06 4.43192e-05
-0.000179866 1.98431e-05 -1.0652e-05
1.98431e-05 0.00012365 -5.30894e-07
-1.0652e-05 -5.30894e-07 -0.000216446
0.000227097 -2.21632e-05 -3.21533e-07
-2.21632e-05 0.0002053 -5.86286e-06
-3.21533e-07 -5.86286e-06 -6.98649e-05
0.00030492 -6.31456e-05 1.19265e-06
-6.31456e-05 -7.23672e-05 7.88555e-06
1.19265e-06 7.88555e-06 -0.000196976
0.000812759 -4.37892e-05 -1.06415e-06
-4.37892e-05 0.000243899 1.32082e-06
-1.06415e-06 1.32082e-06 0.000104853
0.00112333 -4.45127e-05 -1.04331e-05
-4.45127e-05 0.000446923 8.30279e-06
-1.04331e-05 8.30279e-06 0.000321805
0.000750612 -7.24239e-05 2.8579e-06
-7.24239e-05 0.000327606 -3.87413e-07
2.8579e-06 -3.87413e-07 0.000182941
0.000625658 -4.62558e-05 -9.18535e-07
-4.62558e-05 0.000123454 -5.84577e-07
-9.18535e-07 -5.84577e-07 1.48635e-06
0.000302197 -0.000131777 5.66109e-07
-0.000131777 -3.48348e-05 1.0949e-06
5.66109e-07 1.0949e-06 -0.000175109
9.16133e-05 -0.000122045 -8.89467e-06
-0.000122045 -0.000289484 -1.67689e-06
-8.89467e-06 -1.67689e-06 -0.00035832
-0.000820234 -0.000241305 8.76704e-06
-0.000241305 -0.000791318 1.18496e-05
8.76704e-06 1.18496e-05 -0.00104288
0.00051921 -0.000166958 4.3383e-06
-0.000166958 2.86181e-06 -3.10661e-07
4.3383e-06 -3.10661e-07 -0.000112835
0.00123203 -0.000251399 -2.13013e-06
-0.000251399 0.000405383 8.24171e-06
-2.13013e-06 8.24171e-06 0.000231122
0.00203253 -0.000479973 -8.88018e-06
-0.000479973 0.000817014 1.07004e-05
-8.88018e-06 1.07004e-05 0.000502306
0.00149779 -0.000415638 -5.88291e-06
-0.000415638 0.000371949 7.32386e-07
-5.88291e-06 7.32386e-07 6.35388e-05
0.00115869 -0.000282317 -1.79237e-06
-0.000282317 0.000395576 4.22604e-06
-1.79237e-06 4.22604e-06 0.000163534
0.000224715 -0.000232805 1.02239e-05
-0.000232805 -0.000292218 -3.60039e-06
1.02239e-05 -3.60039e-06 -0.000528181
0.00111987 -0.000135414 1.77815e-06
-0.000135414 0.000420967 -2.62899e-06
1.77815e-06 -2.62899e-06 0.000221989
0.0013237 -0.000198154 -6.08072e-06
-0.000198154 0.000550434 -4.50215e-07
-6.08072e-06 -4.50215e-07 0.00035698
9.56462e-05 -0.000102131 6.93146e-06
-0.000102131 -0.0002189 -1.39483e-05
6.93146e-06 -1.39483e-05 -0.000339285
0.00105603 -8.18942e-05 -1.25067e-08
-8.18942e-05 0.000337781 1.49804e-06
-1.25067e-08 1.49804e-06 0.000197224
0.000276776 -6.64825e-05 6.21204e-07
-6.64825e-05 -9.45661e-05 -6.23506e-07
6.21204e-07 -6.23506e-07 -0.000246597
0.0006447 -4.53682e-05 2.96424e-07
-4.53682e-05 9.09708e-05 4.669e-07
2.96424e-07 4.669e-07 -2.7293e-05
0.00108253 -0.000158689 -6.55492e-07
-0.000158689 0.000419962 3.66458e-07
-6.55492e-07 3.66458e-07 0.000254377
0.000656144 -7.42397e-05 -2.01274e-07
-7.42397e-05 0.000119927 -4.22686e-08
-2.01274e-07 -4.22686e-08 -2.44578e-06
0.00050407 1.88559e-05 1.0073e-06
1.88559e-05 1.18184e-05 3.3169e-06
1.0073e-06 3.3169e-06 -7.29106e-05
0.000767305 -0.00011085 4.54062e-07
-0.00011085 0.000201638 -2.26096e-06
4.54062e-07 -2.26096e-06 7.66791e-05
0.000527357 1.02815e-05 -1.80214e-06
1.02815e-05 2.21758e-05 -1.61811e-07
-1.80214e-06 -1.61811e-07 -5.56234e-05
0.00138771 2.39335e-05 -1.31322e-05
2.39335e-05 0.000522104 4.63301e-06
-1.31322e-05 4.63301e-06 0.000501143
0.00059987 -5.32424e-05 2.87014e-06
-5.32424e-05 6.30009e-05 -3.39656e-06
2.87014e-06 -3.39656e-06 -1.09876e-05
0.00090542 5.30152e-06 -6.74009e-06
5.30152e-06 0.000223673 6.25536e-07
-6.74009e-06 6.25536e-07 0.000201464
0.00082579 3.24505e-05 -4.71623e-08
3.24505e-05 0.00016814 2.77628e-06
-4.71623e-08 2.77628e-06 0.000169111
0.000474061 -8.69062e-06 1.73351e-06
-8.69062e-06 -4.07456e-05 -5.12552e-06
1.73351e-06 -5.12552e-06 -6.39925e-05
0.0016805 3.51198e-05 1.1482e-05
3.51198e-05 0.000700367 -1.30852e-06
1.1482e-05 -1.30852e-06 0.000707918
0.0025006 2.99326e-05 1.17929e-05
2.99326e-05 0.00120842 -5.30433e-06
1.17929e-05 -5.30433e-06 0.00122118
0.000334417 1.27659e-05 1.16181e-06
1.27659e-05 -7.36261e-05 -3.52742e-07
1.16181e-06 -3.52742e-07 -0.00019285
0.00022444 1.57586e-05 3.19356e-07
1.57586e-05 -0.000174876 -3.30696e-06
3.19356e-07 -3.30696e-06 -0.000233399
0.000654227 4.17953e-05 -1.16316e-08
4.17953e-05 0.000120337 1.10881e-07
-1.16316e-08 1.10881e-07 1.67496e-05
0.000502267 -4.00597e-07 1.24641e-06
-4.00597e-07 -3.4501e-05 -3.66633e-06
1.24641e-06 -3.66633e-06 -4.47859e-05
0.000363862 3.75119e-06 1.50509e-06
3.75119e-06 -9.04072e-05 -3.44744e-09
1.50509e-06 -3.44744e-09 -0.00013929
0.000330271 -9.29543e-05 -1.99331e-06
-9.29543e-05 -7.61426e-05 -7.46617e-08
-1.99331e-06 -7.46617e-08 -0.000170021
0.00205414 -7.8085e-06 -9.0483e-06
-7.8085e-06 0.000928209 -4.74949e-06
-9.0483e-06 -4.74949e-06 0.000946405
0.000498705 8.2771e-07 -3.81951e-08
8.2771e-07 -3.6345e-05 -5.35484e-08
-3.81951e-08 -5.35484e-08 -4.48368e-05
0.000479354 -1.7986e-05 -2.476e-06
-1.7986e-05 -1.77357e-05 1.95455e-06
-2.476e-06 1.95455e-06 -6.08784e-05
0.00200702 7.39758e-06 -4.41216e-06
7.39758e-06 0.000899797 1.27095e-08
-4.41216e-06 1.27095e-08 0.000918129
0.000485095 3.44568e-06 -1.21591e-06
3.44568e-06 -4.43445e-05 3.15944e-06
-1.21591e-06 3.15944e-06 -5.22686e-05
0.00197204 2.2133e-05 -4.20508e-07
2.2133e-05 0.000879741 4.57322e-06
-4.20508e-07 4.57322e-06 0.000897522
5.19698e-05 -0.000520964 -0.000191405
-0.000520964 -0.000191302 5.99268e-05
-0.000191405 5.99268e-05 -0.00269788
0.00136277 0.000367836 -7.44636e-05
0.000367836 0.00600188 6.98652e-06
-7.44636e-05 6.98652e-06 0.00295198
0.00145436 -0.000229545 -0.000584842
-0.000229545 0.00319172 9.44837e-05
-0.000584842 9.44837e-05 0.00159902
0.000699507 0.000111174 3.45642e-06
0.000111174 0.000147757 3.17269e-06
3.45642e-06 3.17269e-06 1.7699e-06
0.00422429 -0.000628619 -4.02727e-05
-0.000628619 0.00290104 0.000180405
-4.02727e-05 0.000180405 0.00110769
0.00389364 -0.00098813 -0.000220036
-0.00098813 0.00155782 1.75091e-05
-0.000220036 1.75091e-05 -0.00265909
0.0071065 0.00197349 0.000322305
0.00197349 0.00606178 -0.000260362
0.000322305 -0.000260362 0.00316875
0.00634813 -0.000686781 8.21649e-05
-0.000686781 0.000878792 -2.06632e-05
8.21649e-05 -2.06632e-05 0.000912523
0.0123108 -0.00157532 0.000213044
-0.00157532 0.00136256 -9.02557e-05
0.000213044 -9.02557e-05 -0.000169289
0.00332257 0.00370578 -0.000429699
0.00370578 -0.00172187 0.000342429
-0.000429699 0.000342429 -0.00324752
0.0111267 0.00340982 4.2886e-05
0.00340982 0.0028989 0.000160086
4.2886e-05 0.000160086 0.000967152
0.00641064 -0.00158708 -0.000121151
-0.00158708 0.000216122 -6.9684e-06
-0.000121151 -6.9684e-06 0.000337022
0.0163368 -0.00260704 4.50627e-05
-0.00260704 0.0046249 -2.62083e-05
4.50627e-05 -2.62083e-05 0.0023066
0.00790363 0.00224353 0.000144646
0.00224353 0.00160556 -0.000265545
0.000144646 -0.000265545 -0.00101067
0.00978448 0.00116322 1.46202e-05
0.00116322 -0.00102479 2.75127e-05
1.46202e-05 2.75127e-05 -0.000324568
0.00307675 -0.00199986 -2.65475e-05
-0.00199986 -8.93724e-05 3.66273e-05
-2.65475e-05 3.66273e-05 -0.000409329
0.0114875 -0.00316876 0.000140729
-0.00316876 0.00487349 -9.04789e-05
0.000140729 -9.04789e-05 0.000700268
0.00734989 -7.72735e-05 0.0001223
-7.72735e-05 0.00299661 -0.000360756
0.0001223 -0.000360756 0.00102074
0.0105189 0.000672655 -9.54723e-05
0.000672655 -0.00135947 0.000197463
-9.54723e-05 0.000197463 0.00100141
0.000719492 -3.70738e-06 3.0995e-06
-3.70738e-06 0.000237275 5.59344e-06
3.0995e-06 5.59344e-06 3.91174e-05
0.000809754 -0.000114983 -2.77885e-07
-0.000114983 0.000309451 3.55157e-07
-2.77885e-07 3.55157e-07 0.000100393
0.000693027 0.000130636 -1.26307e-07
0.000130636 0.00018324 -4.31291e-06
-1.26307e-07 -4.31291e-06 4.56901e-05
0.000638562 9.97661e-05 7.33915e-07
9.97661e-05 9.80368e-05 5.89095e-06
7.33915e-07 5.89095e-06 -4.10661e-05
0.000754274 0.000142031 1.3405e-07
0.000142031 0.000223158 5.59712e-07
1.3405e-07 5.59712e-07 4.77033e-05
0.000951864 7.80552e-05 -5.09544e-06
7.80552e-05 0.000345774 -2.74079e-06
-5.09544e-06 -2.74079e-06 0.000203309
0.00101817 0.000155853 -1.23804e-06
0.000155853 0.000375329 -9.70984e-09
-1.23804e-06 -9.70984e-09 0.000214165
0.00106826 0.000171751 6.4905e-07
0.000171751 0.000427966 1.99953e-06
6.4905e-07 1.99953e-06 0.000262114
-0.000301373 -0.00039157 8.36893e-05
-0.00039157 -0.00122164 -4.59692e-05
8.36893e-05 -4.59692e-05 -0.00112567
0.00209061 -0.000724144 8.89312e-06
-0.000724144 0.000344695 -1.63988e-05
8.89312e-06 -1.63988e-05 0.000307141
0.000995653 -0.000219011 -1.98687e-07
-0.000219011 0.000437249 -1.82387e-05
-1.98687e-07 -1.82387e-05 0.000188307
0.00143539 -0.000633142 2.12957e-05
-0.000633142 0.000658927 -2.63458e-05
2.12957e-05 -2.63458e-05 0.000314323
0.00242046 -0.000377196 -1.44102e-05
-0.000377196 0.00135205 1.21085e-05
-1.44102e-05 1.21085e-05 0.00100755
0.0013208 -0.000120878 -4.75708e-07
-0.000120878 0.000608458 -1.7068e-05
-4.75708e-07 -1.7068e-05 0.000383543
0.000206609 -5.12749e-05 1.55647e-06
-5.12749e-05 -9.39144e-05 4.91023e-06
1.55647e-06 4.91023e-06 -0.000282597
2.09975e-05 -0.000856795 -3.18376e-07
-0.000856795 -0.000978499 -2.77293e-06
-3.18376e-07 -2.77293e-06 -0.000927148
0.00127304 4.59777e-05 -7.39887e-07
4.59777e-05 0.000696012 2.95999e-07
-7.39887e-07 2.95999e-07 0.000414729
0.000784916 -0.000218362 6.91883e-06
-0.000218362 0.000502783 1.57744e-06
6.91883e-06 1.57744e-06 0.000104078
0.000695385 -0.000402452 9.47557e-06
-0.000402452 6.65093e-05 4.50069e-06
9.47557e-06 4.50069e-06 3.91184e-05
0.00132654 0.000124176 -5.45876e-07
0.000124176 0.000567398 -7.88876e-07
-5.45876e-07 -7.88876e-07 0.000412359
0.0010938 -0.000818766 -1.13003e-05
-0.000818766 3.8451e-05 -3.81118e-05
-1.13003e-05 -3.81118e-05 -3.09477e-05
-0.000875493 -0.00036973 -1.53447e-05
-0.00036973 -0.000543011 2.91627e-05
-1.53447e-05 2.91627e-05 -0.000751408
-0.000329681 8.01384e-05 1.86056e-05
8.01384e-05 0.00013505 -1.40713e-05
1.86056e-05 -1.40713e-05 -0.000408747
0.00125996 0.000225932 2.622e-07
0.000225932 0.000623164 -3.51087e-06
2.622e-07 -3.51087e-06 0.000426615
-0.000799139 5.41088e-05 5.51872e-05
5.41088e-05 0.00102037 4.20357e-06
5.51872e-05 4.20357e-06 0.000338334
0.000746309 -3.31532e-05 0.000123811
-3.31532e-05 0.00125062 -2.72329e-05
0.000123811 -2.72329e-05 -0.00205019
-0.00934998 -0.000238441 -0.000210052
-0.000238441 0.00486037 1.99166e-05
-0.000210052 1.99166e-05 3.36246e-05
0.0015526 0.000418867 1.70242e-05
0.000418867 0.000884033 1.61619e-06
1.70242e-05 1.61619e-06 0.000643738
-0.00106051 0.000501743 6.05528e-06
0.000501743 -0.000583347 1.63007e-05
6.05528e-06 1.63007e-05 -0.000955313
0.00509476 0.000434636 0.000211718
0.000434636 0.00315857 3.33196e-05
0.000211718 3.33196e-05 0.00129207
0.0100764 0.00262024 0.000247287
0.00262024 0.00371576 0.00015307
0.000247287 0.00015307 -0.000334
0.00291425 0.00154237 -7.64951e-05
0.00154237 0.00185315 -7.92225e-05
-7.64951e-05 -7.92225e-05 0.000548651
0.00530832 -0.00181301 -0.000130638
-0.00181301 0.00325112 -0.000379499
-0.000130638 -0.000379499 0.000312618
0.00198946 0.000396874 0.000101211
0.000396874 0.000199063 0.000176184
0.000101211 0.000176184 -0.00135329
0.00627388 -0.000129396 -3.55891e-05
-0.000129396 -0.00516611 -0.00021033
-3.55891e-05 -0.00021033 -0.00188262
0.000702638 0.000323118 6.11042e-06
0.000323118 0.00056519 1.48068e-06
6.11042e-06 1.48068e-06 0.000271118
-0.00169215 1.84127e-05 -1.50562e-06
1.84127e-05 -0.000102237 -2.56282e-07
-1.50562e-06 -2.56282e-07 -0.000270008
0.00371355 3.77562e-05 8.15117e-05
3.77562e-05 -0.000182782 2.34179e-05
8.15117e-05 2.34179e-05 -0.000598432
-0.00137332 0.000325017 -1.06347e-05
0.000325017 -0.000322781 -7.90912e-06
-1.06347e-05 -7.90912e-06 -0.000942974
0.00963511 0.00128117 -8.24739e-06
0.00128117 -0.000920031 -2.42713e-05
-8.24739e-06 -2.42713e-05 -0.000326165
0.00316312 0.00149214 0.000172725
0.00149214 0.00334315 0.000110168
0.000172725 0.000110168 -0.00178345
0.00552338 0.000624845 -0.000140018
0.000624845 0.00294084 1.51592e-06
-0.000140018 1.51592e-06 0.000157778
0.000530575 0.000341831 -8.13985e-06
0.000341831 0.000496785 -2.31944e-05
-8.13985e-06 -2.31944e-05 6.99986e-05
0.00126969 3.49746e-05 1.44942e-05
3.49746e-05 -0.00020831 -2.23596e-05
1.44942e-05 -2.23596e-05 -0.000121573
0.0036912 -0.000672552 3.07548e-05
-0.000672552 0.00284449 -0.000184486
3.07548e-05 -0.000184486 0.0012107
0.0145999 0.00350107 0.000283546
0.00350107 0.00362947 -0.000225316
0.000283546 -0.000225316 0.00248495
0.00692292 -2.93302e-05 -9.90186e-05
-2.93302e-05 0.00297123 0.00036869
-9.90186e-05 0.00036869 0.000832956
0.000648197 0.00034325 -7.04147e-06
0.00034325 0.000505503 -0.000112927
-7.04147e-06 -0.000112927 5.16035e-05
0.00254526 0.00148691 0.000223776
0.00148691 0.00478743 4.15478e-05
0.000223776 4.15478e-05 -0.00253315
0.00158971 0.000310112 1.37036e-06
0.000310112 0.000984763 1.26158e-05
1.37036e-06 1.26158e-05 0.000690443
0.000805824 0.000215792 1.97012e-06
0.000215792 0.000743254 -9.02169e-07
1.97012e-06 -9.02169e-07 0.000385241
-5.50385e-06 -2.3967e-05 -1.15118e-05
-2.3967e-05 0.000358174 -9.23406e-06
-1.15118e-05 -9.23406e-06 7.01833e-05
0.000100305 -4.48593e-05 9.25491e-07
-4.48593e-05 -0.000199222 6.01829e-06
9.25491e-07 6.01829e-06 -0.000322448
0.00131591 -5.01372e-06 4.89173e-06
-5.01372e-06 0.000887884 -1.10504e-06
4.89173e-06 -1.10504e-06 0.000585888
0.000358037 5.4421e-05 2.26101e-06
5.4421e-05 0.000488962 -1.10271e-06
2.26101e-06 -1.10271e-06 7.5202e-05
0.000422417 -3.667e-05 1.10317e-06
-3.667e-05 0.000268623 -1.45706e-07
1.10317e-06 -1.45706e-07 4.0743e-05
-4.95595e-05 -9.48231e-06 4.89508e-06
-9.48231e-06 0.000195889 1.11545e-06
4.89508e-06 1.11545e-06 -0.00014648
0.00108701 -0.0002294 -1.218e-07
-0.0002294 0.000682785 -1.23717e-05
-1.218e-07 -1.23717e-05 0.000404058
0.000870947 -8.22328e-05 -4.6529e-06
-8.22328e-05 0.00037657 7.59974e-06
-4.6529e-06 7.59974e-06 0.000243688
0.000629913 -1.60521e-05 -1.21564e-06
-1.60521e-05 0.000123998 2.21862e-06
-1.21564e-06 2.21862e-06 4.90935e-06
0.00137472 -0.00022417 2.59524e-06
-0.00022417 0.000595357 3.94632e-06
2.59524e-06 3.94632e-06 0.000435808
-0.00143799 -0.000214942 1.56362e-05
-0.000214942 -0.000960712 8.22932e-06
1.56362e-05 8.22932e-06 -0.00125567
5.31104e-05 -0.000111086 3.13094e-06
-0.000111086 -0.000235197 -1.64279e-06
3.13094e-06 -1.64279e-06 -0.000279149
-0.000206259 -0.000274223 5.41517e-07
-0.000274223 -0.000456024 -3.18398e-06
5.41517e-07 -3.18398e-06 -0.000684999
0.00117509 -0.000441651 3.89435e-06
-0.000441651 0.000249424 -3.62116e-06
3.89435e-06 -3.62116e-06 -0.000121186
0.00157871 -0.000517957 -3.19031e-06
-0.000517957 0.000370355 -7.35883e-07
-3.19031e-06 -7.35883e-07 -2.25665e-08
0.0020183 -0.000349915 2.92286e-06
-0.000349915 0.000871229 -1.35149e-06
2.92286e-06 -1.35149e-06 0.000670276
0.00128775 -0.000397373 2.20643e-06
-0.000397373 0.000345697 2.93726e-07
2.20643e-06 2.93726e-07 3.8517e-05
0.00160183 -0.000430283 2.39623e-06
-0.000430283 0.000422384 -1.90817e-06
2.39623e-06 -1.90817e-06 0.000119641
0.000650421 -0.000266703 -3.2546e-06
-0.000266703 -5.48462e-05 4.2664e-06
-3.2546e-06 4.2664e-06 -0.000302269
0.000938747 -0.000347859 1.57326e-06
-0.000347859 4.11004e-05 -4.87044e-06
1.57326e-06 -4.87044e-06 -0.000247044
0.000483119 -0.000122312 1.03305e-06
-0.000122312 5.37279e-05 -2.99904e-06
1.03305e-06 -2.99904e-06 -0.000180042
0.00112877 -0.000302246 -6.20853e-06
-0.000302246 0.000390822 4.54241e-06
-6.20853e-06 4.54241e-06 0.000143296
-0.00145233 -3.69254e-05 -3.27316e-06
-3.69254e-05 -0.00130194 -6.99769e-06
-3.27316e-06 -6.99769e-06 -0.00149225
0.000433347 -4.35628e-05 6.61214e-07
-4.35628e-05 -3.80585e-05 3.96662e-07
6.61214e-07 3.96662e-07 -0.000168964
0.000556431 -0.000111339 1.05552e-08
-0.000111339 9.2918e-05 7.27781e-08
1.05552e-08 7.27781e-08 -0.000102649
0.000947999 -0.000197615 6.07007e-06
-0.000197615 0.000350844 -1.87001e-06
6.07007e-06 -1.87001e-06 0.000144896
0.000496142 -9.24382e-05 6.09226e-07
-9.24382e-05 4.01816e-05 1.53472e-06
6.09226e-07 1.53472e-06 -0.000113813
0.000721821 -6.89431e-05 -3.50007e-07
-6.89431e-05 0.000153378 2.7292e-07
-3.50007e-07 2.7292e-07 2.39219e-05
0.000515288 7.84619e-06 5.6443e-07
7.84619e-06 1.00497e-05 4.10065e-06
5.6443e-07 4.10065e-06 -7.99205e-05
0.000828626 -9.70186e-05 -1.40486e-07
-9.70186e-05 0.000237162 -9.41091e-07
-1.40486e-07 -9.41091e-07 0.000104642
0.000564889 7.5636e-06 -1.19442e-06
7.5636e-06 4.37387e-05 -2.78721e-07
-1.19442e-06 -2.78721e-07 -3.81273e-05
0.00044601 3.56029e-05 -1.31369e-07
3.56029e-05 -5.44441e-05 5.8032e-06
-1.31369e-07 5.8032e-06 -8.44556e-05
0.000681602 -4.89513e-05 2.23252e-06
-4.89513e-05 0.000110746 -3.25193e-06
2.23252e-06 -3.25193e-06 3.5457e-05
0.00048063 1.28818e-05 -3.93083e-07
1.28818e-05 -4.0975e-05 -4.51148e-08
-3.93083e-07 -4.51148e-08 -6.66598e-05
0.00249567 8.73184e-05 -2.88282e-06
8.73184e-05 0.00120932 2.3759e-06
-2.88282e-06 2.3759e-06 0.00121564
0.000487616 8.22353e-07 2.01623e-06
8.22353e-07 -3.61687e-05 -5.33943e-06
2.01623e-06 -5.33943e-06 -6.07637e-05
0.0017148 4.8395e-05 1.38751e-05
4.8395e-05 0.00072192 -1.08497e-06
1.38751e-05 -1.08497e-06 0.000727515
0.0025591 4.58595e-05 1.82359e-05
4.58595e-05 0.00124439 -5.39789e-06
1.82359e-05 -5.39789e-06 0.00125592
0.000312927 1.33206e-05 1.02002e-06
1.33206e-05 -0.000102773 -9.267e-07
1.02002e-06 -9.267e-07 -0.000214515
0.000235289 9.09352e-06 9.01273e-07
9.09352e-06 -0.000171153 -3.08849e-06
9.01273e-07 -3.08849e-06 -0.000238269
0.000507572 2.82356e-05 -4.88301e-07
2.82356e-05 3.1922e-05 -1.1133e-06
-4.88301e-07 -1.1133e-06 -8.38978e-05
0.000516813 -3.99943e-06 1.80011e-06
-3.99943e-06 -2.62244e-05 -4.08679e-06
1.80011e-06 -4.08679e-06 -3.91588e-05
0.000212358 1.27778e-05 -6.36731e-07
1.27778e-05 -0.000182624 -1.61859e-06
-6.36731e-07 -1.61859e-06 -0.000242564
0.00067007 5.01266e-05 -6.48936e-07
5.01266e-05 0.000140995 1.28939e-06
-6.48936e-07 1.28939e-06 3.02498e-05
0.00209188 -2.12033e-05 -1.43833e-05
-2.12033e-05 0.000951145 -4.64756e-06
-1.43833e-05 -4.64756e-06 0.000968828
0.000500983 -1.91712e-06 -4.58571e-07
-1.91712e-06 -3.57751e-05 -6.32573e-08
-4.58571e-07 -6.32573e-08 -4.5773e-05
0.000155019 1.14991e-05 8.4294e-07
1.14991e-05 -0.000216446 1.61106e-06
8.4294e-07 1.61106e-06 -0.000268774
0.00203019 -6.42748e-06 -3.94015e-06
-6.42748e-06 0.000913212 5.13319e-08
-3.94015e-06 5.13319e-08 0.000931608
0.000490023 4.91352e-07 -1.34824e-06
4.91352e-07 -4.20278e-05 3.40293e-06
-1.34824e-06 3.40293e-06 -5.02878e-05
0.00203283 8.90526e-06 4.73913e-06
8.90526e-06 0.000916094 4.72189e-06
4.73913e-06 4.72189e-06 0.000934161
0.000387357 -2.95732e-05 7.90219e-05
-2.95732e-05 0.00130829 2.09114e-05
7.90219e-05 2.09114e-05 0.00103475
-1.42784e-05 -0.000291892 -3.07397e-05
-0.000291892 0.000228938 -1.42817e-05
-3.07397e-05 -1.42817e-05 -0.00280187
0.000403174 0.00033092 2.14624e-05
0.00033092 0.00570362 -3.34432e-05
2.14624e-05 -3.34432e-05 0.00269625
0.000764101 0.000119557 1.44551e-07
0.000119557 0.000180209 2.34843e-07
1.44551e-07 2.34843e-07 4.27486e-05
0.000483699 8.14504e-05 4.10847e-06
8.14504e-05 -8.69177e-06 2.59047e-06
4.10847e-06 2.59047e-06 -0.000134546
0.000997617 0.000170012 4.96523e-06
0.000170012 0.000324469 4.73883e-06
4.96523e-06 4.73883e-06 0.000182944
0.00454865 -0.000123605 -3.16278e-05
-0.000123605 -0.000415342 0.000221318
-3.16278e-05 0.000221318 -0.00116242
0.00416409 -0.000632108 6.10074e-05
-0.000632108 0.00269324 -3.69996e-06
6.10074e-05 -3.69996e-06 0.00133907
0.0044771 -0.00118934 0.000128394
-0.00118934 0.00189869 -0.000200967
0.000128394 -0.000200967 -0.0024432
0.00801555 -0.0019574 -5.61876e-05
-0.0019574 0.000678709 -1.81024e-05
-5.61876e-05 -1.81024e-05 0.00100423
0.000436293 -0.00215163 -0.000283356
-0.00215163 -0.00163533 0.000100196
-0.000283356 0.000100196 -0.00465451
0.0210838 0.00315396 0.000137868
0.00315396 0.00827824 0.000116433
0.000137868 0.000116433 0.00529825
0.00592157 9.77873e-05 0.000199199
9.77873e-05 -0.00305244 -0.000183993
0.000199199 -0.000183993 -0.00283756
0.00492314 -0.00225373 -3.5114e-05
-0.00225373 0.000515204 1.44234e-05
-3.5114e-05 1.44234e-05 0.000415022
0.00719735 -0.00276834 -8.13657e-05
-0.00276834 0.0028452 2.26279e-05
-8.13657e-05 2.26279e-05 -0.00135363
-0.00343836 0.00290907 -7.74514e-05
0.00290907 0.00234807 -0.000250155
-7.74514e-05 -0.000250155 -0.00147564
0.008403 0.000262142 -4.79186e-05
0.000262142 -0.00345709 0.000112656
-4.79186e-05 0.000112656 -0.00047996
0.000648045 -0.00128813 -0.000112534
-0.00128813 0.000127431 3.49993e-05
-0.000112534 3.49993e-05 -0.000169677
0.0105852 -0.00241505 -0.000211186
-0.00241505 0.00520915 0.000135882
-0.000211186 0.000135882 0.00061803
-0.00351389 -1.57348e-05 3.73031e-05
-1.57348e-05 0.00155506 -0.000310699
3.73031e-05 -0.000310699 -0.00161577
0.00770837 -0.00127085 9.03148e-05
-0.00127085 -0.0019875 3.98176e-05
9.03148e-05 3.98176e-05 -0.00105796
0.000406151 8.55043e-05 2.37417e-06
8.55043e-05 -1.21796e-05 1.11937e-05
2.37417e-06 1.11937e-05 -0.000154793
0.000758205 -1.75464e-05 2.603e-06
-1.75464e-05 0.000249046 -2.03841e-06
2.603e-06 -2.03841e-06 4.51247e-05
0.000793308 -0.000116031 -4.66744e-07
-0.000116031 0.000259426 -7.93198e-06
-4.66744e-07 -7.93198e-06 6.32958e-05
0.00069366 0.000113932 -1.65404e-06
0.000113932 0.00013532 6.4788e-07
-1.65404e-06 6.4788e-07 -9.48638e-06
0.00083037 0.000148581 6.85149e-07
0.000148581 0.000275143 -3.05068e-06
6.85149e-07 -3.05068e-06 0.000105775
0.00115116 0.000172961 -3.54429e-06
0.000172961 0.000461112 -1.88758e-06
-3.54429e-06 -1.88758e-06 0.000296435
-0.00141412 -0.000712381 2.09352e-05
-0.000712381 -0.00175184 -2.77572e-06
2.09352e-05 -2.77572e-06 -0.00168631
0.000797139 -0.000319786 3.31063e-05
-0.000319786 0.000118108 -2.62651e-05
3.31063e-05 -2.62651e-05 0.000146342
5.96795e-05 1.40833e-05 -1.85244e-06
1.40833e-05 -0.000175118 -9.34445e-06
-1.85244e-06 -9.34445e-06 -0.000368596
0.00144632 -0.000375839 4.78054e-05
-0.000375839 0.000820054 -2.57045e-05
4.78054e-05 -2.57045e-05 0.000450831
0.00146596 -5.07835e-05 -6.44787e-06
-5.07835e-05 0.000796274 1.32922e-06
-6.44787e-06 1.32922e-06 0.000523524
0.000568409 9.86134e-05 2.67839e-06
9.86134e-05 0.000137887 1.95194e-06
2.67839e-06 1.95194e-06 -2.93053e-05
0.000990507 0.000162307 -7.47552e-07
0.000162307 0.000450391 -2.04385e-06
-7.47552e-07 -2.04385e-06 0.000277728
0.000359128 -0.000895594 1.61242e-06
-0.000895594 -0.000384738 -3.87765e-06
1.61242e-06 -3.87765e-06 -0.00056821
4.96463e-05 1.20189e-05 -6.38139e-06
1.20189e-05 0.000326954 4.67021e-06
-6.38139e-06 4.67021e-06 -0.000160451
0.00150506 -0.000281548 9.9761e-06
-0.000281548 0.000719365 -8.63889e-06
9.9761e-06 -8.63889e-06 0.000489955
0.00122344 0.000162248 1.23581e-06
0.000162248 0.000583464 -7.52345e-06
1.23581e-06 -7.52345e-06 0.000427402
-0.00316007 -5.17811e-05 -0.000129279
-5.17811e-05 -0.000991014 -1.28053e-05
-0.000129279 -1.28053e-05 -0.00172523
-0.000118977 -0.000127408 -1.53885e-05
-0.000127408 0.000227356 1.15101e-05
-1.53885e-05 1.15101e-05 -9.47445e-05
0.000362564 0.000139747 2.16923e-06
0.000139747 0.000462131 8.92133e-06
2.16923e-06 8.92133e-06 7.54423e-05
2.10892e-05 7.44797e-05 -3.62168e-06
7.44797e-05 -0.000583744 6.57974e-07
-3.62168e-06 6.57974e-07 -0.00119715
-0.00121468 7.18209e-05 1.83296e-05
7.18209e-05 0.000721809 -1.55804e-05
1.83296e-05 -1.55804e-05 0.000126371
-1.02878e-05 -0.000124845 0.000269544
-0.000124845 0.000790039 1.16443e-05
0.000269544 1.16443e-05 -0.00252175
-0.000427073 0.000264847 -5.48548e-06
0.000264847 -9.88312e-05 1.8893e-05
-5.48548e-06 1.8893e-05 -0.000415844
0.000812772 0.000670597 -7.94076e-06
0.000670597 0.00037671 -3.38454e-06
-7.94076e-06 -3.38454e-06 -0.000133883
-0.00154833 -6.95251e-06 -6.71233e-06
-6.95251e-06 -9.52587e-05 -7.2324e-06
-6.71233e-06 -7.2324e-06 -0.000374836
-0.0039376 0.000656463 4.9644e-05
0.000656463 0.00177392 0.000146079
4.9644e-05 0.000146079 -0.00311993
-0.00497146 0.00119962 -0.000175736
0.00119962 -0.00265757 -0.000402492
-0.000175736 -0.000402492 -0.00618132
0.0031884 8.10258e-05 6.5798e-05
8.10258e-05 -0.000178915 9.92424e-05
6.5798e-05 9.92424e-05 -0.000140668
0.00573952 0.000185883 -0.000203552
0.000185883 -0.0028227 0.000185714
-0.000203552 0.000185714 -0.00279538
0.000368114 0.000273066 2.2559e-06
0.000273066 0.000453957 -1.3438e-06
2.2559e-06 -1.3438e-06 8.79748e-05
0.0010019 -2.77598e-06 2.46573e-05
-2.77598e-06 -0.000309388 -2.6575e-05
2.46573e-05 -2.6575e-05 -0.000196123
0.00367156 -0.000505885 -6.25456e-05
-0.000505885 0.00261535 6.35308e-06
-6.25456e-05 6.35308e-06 0.00127174
0.000430763 0.000494243 -8.98627e-05
0.000494243 0.00100604 -6.46879e-06
-8.98627e-05 -6.46879e-06 -9.65241e-05
0.0104199 0.00357569 6.621e-05
0.00357569 0.00103883 -0.00031756
6.621e-05 -0.00031756 -0.00031115
-0.00117522 0.00224292 6.30691e-05
0.00224292 0.00245529 0.000251852
6.30691e-05 0.000251852 -0.00113911
0.0059213 0.000355867 4.9099e-05
0.000355867 0.00598731 -2.30708e-05
4.9099e-05 -2.30708e-05 -0.000667553
0.000934993 -3.90529e-06 2.85333e-05
-3.90529e-06 0.00135279 -2.61345e-05
2.85333e-05 -2.61345e-05 0.000540865
0.000202443 -7.14493e-05 -6.60072e-05
-7.14493e-05 0.00126523 3.73922e-06
-6.60072e-05 3.73922e-06 0.000949875
0.00246039 -0.00075839 0.000552499
-0.00075839 0.00087567 -0.000224508
0.000552499 -0.000224508 -0.00347713
0.0130593 0.0049757 -2.70191e-05
0.0049757 0.00902167 1.02842e-05
-2.70191e-05 1.02842e-05 0.00749304
0.000485281 0.00283891 -0.000117158
0.00283891 -0.00114007 0.000617461
-0.000117158 0.000617461 -0.00353447
0.0120296 -0.0025811 0.00020709
-0.0025811 0.0054345 -0.000180319
0.00020709 -0.000180319 0.00055138
0.00338248 -0.000677246 -6.41089e-05
-0.000677246 0.00241721 4.76706e-05
-6.41089e-05 4.76706e-05 0.00172335
0.00158046 0.000287503 6.91945e-06
0.000287503 0.00118554 5.37123e-06
6.91945e-06 5.37123e-06 0.000826321
-0.000146542 -2.31429e-05 -3.95549e-06
-2.31429e-05 0.000215699 -2.43312e-06
-3.95549e-06 -2.43312e-06 -8.17371e-05
0.00195709 -0.000417195 2.89579e-05
-0.000417195 0.00118131 -1.19048e-05
2.89579e-05 -1.19048e-05 0.000792675
0.000813027 -8.87739e-05 2.38275e-07
-8.87739e-05 0.000459621 4.15562e-06
2.38275e-07 4.15562e-06 0.000271541
0.000143891 -3.13142e-05 -3.88272e-06
-3.13142e-05 0.000295272 6.00935e-07
-3.88272e-06 6.00935e-07 -3.86813e-05
0.000209934 -0.00020774 -2.84716e-06
-0.00020774 0.0002785 5.42036e-08
-2.84716e-06 5.42036e-08 -1.40397e-05
0.000614766 -0.000414403 2.44575e-05
-0.000414403 0.000181212 -2.21493e-05
2.44575e-05 -2.21493e-05 -1.34971e-05
0.00246086 -0.000319105 -3.14017e-06
-0.000319105 0.00124551 3.12581e-06
-3.14017e-06 3.12581e-06 0.00105735
0.00228374 -0.000596582 1.20587e-05
-0.000596582 0.00105623 -3.22726e-06
1.20587e-05 -3.22726e-06 0.000718842
0.00173947 -0.000549188 1.1887e-05
-0.000549188 0.000715978 -2.22923e-06
1.1887e-05 -2.22923e-06 0.000208016
0.000350033 -0.000276617 -3.72558e-06
-0.000276617 -0.000160406 -2.06651e-06
-3.72558e-06 -2.06651e-06 -0.000353063
0.00150777 -0.000477602 -2.19956e-06
-0.000477602 0.000396264 7.008e-07
-2.19956e-06 7.008e-07 2.30486e-05
0.0021414 -0.000649072 2.63436e-07
-0.000649072 0.000698343 7.50342e-07
2.63436e-07 7.50342e-07 0.000225409
0.00176377 -0.000659364 -4.91014e-06
-0.000659364 0.000360002 1.66384e-06
-4.91014e-06 1.66384e-06 -5.34094e-05
0.00160572 -0.000530825 -1.38541e-06
-0.000530825 0.000391214 1.05964e-07
-1.38541e-06 1.05964e-07 3.3642e-05
0.00150304 -0.000513507 -4.39611e-06
-0.000513507 0.000320143 1.35e-06
-4.39611e-06 1.35e-06 -5.06276e-05
0.0010885 -0.000377467 -4.20891e-06
-0.000377467 0.000193135 -1.79796e-06
-4.20891e-06 -1.79796e-06 -0.000118387
0.0020166 -0.000443638 4.30303e-06
-0.000443638 0.000738894 1.76728e-06
4.30303e-06 1.76728e-06 0.000452222
0.00146376 -0.000419234 4.66155e-06
-0.000419234 0.000342458 -3.18536e-06
4.66155e-06 -3.18536e-06 4.01945e-05
0.000341982 -0.000162146 1.8038e-06
-0.000162146 -0.000132466 2.49205e-07
1.8038e-06 2.49205e-07 -0.000360916
0.00090258 -0.000305349 3.25997e-06
-0.000305349 0.000116993 -6.48484e-07
3.25997e-06 -6.48484e-07 -0.000138744
0.000201902 -0.000260829 -3.87803e-07
-0.000260829 -0.000398505 -7.70534e-06
-3.87803e-07 -7.70534e-06 -0.000662868
-0.000149947 -1.75516e-05 3.44659e-07
-1.75516e-05 -0.000354779 1.54027e-06
3.44659e-07 1.54027e-06 -0.000547451
0.00105506 -0.00017894 -3.95781e-07
-0.00017894 0.000406116 -1.51472e-07
-3.95781e-07 -1.51472e-07 0.000163788
0.00106606 -0.000321701 -1.71307e-07
-0.000321701 0.000370777 -1.76531e-06
-1.71307e-07 -1.76531e-06 0.000106333
0.000689174 -1.50442e-05 -1.12768e-06
-1.50442e-05 0.00011375 4.55006e-06
-1.12768e-06 4.55006e-06 1.33434e-05
0.000803152 -9.6968e-05 -3.41684e-07
-9.6968e-05 0.000189056 -2.84985e-07
-3.41684e-07 -2.84985e-07 4.88001e-05
0.000226744 -8.62821e-05 5.34759e-07
-8.62821e-05 -9.92759e-05 1.22689e-06
5.34759e-07 1.22689e-06 -0.000288887
0.000721961 -9.25158e-05 1.051e-06
-9.25158e-05 0.000159121 -6.54024e-07
1.051e-06 -6.54024e-07 2.35183e-05
0.000616204 -3.43502e-05 -5.39188e-09
-3.43502e-05 6.85465e-05 -2.27175e-07
-5.39188e-09 -2.27175e-07 -2.11283e-05
0.000454336 3.38494e-05 5.7987e-07
3.38494e-05 -4.30797e-05 7.08139e-06
5.7987e-07 7.08139e-06 -7.81836e-05
0.000633813 -4.03521e-05 1.40582e-06
-4.03521e-05 8.14483e-05 -3.38051e-06
1.40582e-06 -3.38051e-06 7.32463e-07
0.00050342 2.54507e-05 -1.52516e-06
2.54507e-05 -2.10792e-05 -1.86717e-07
-1.52516e-06 -1.86717e-07 -5.05772e-05
0.00261922 9.52803e-05 -3.22298e-05
9.52803e-05 0.00129262 4.37359e-06
-3.22298e-05 4.37359e-06 0.0012979
0.00052188 1.04183e-05 1.95668e-06
1.04183e-05 -1.62979e-05 -5.4293e-06
1.95668e-06 -5.4293e-06 -4.19386e-05
0.00169007 6.28732e-05 1.6058e-05
6.28732e-05 0.000709589 -8.40345e-07
1.6058e-05 -8.40345e-07 0.000713331
0.00259747 6.35392e-05 2.29784e-05
6.35392e-05 0.00126979 -5.06548e-06
2.29784e-05 -5.06548e-06 0.00127964
0.000709848 8.24183e-05 2.7649e-06
8.24183e-05 0.000151439 1.54701e-08
2.7649e-06 1.54701e-08 2.81582e-05
0.00053629 3.99195e-05 1.18979e-06
3.99195e-05 1.37493e-05 -2.58197e-06
1.18979e-06 -2.58197e-06 -5.77022e-05
0.000476175 4.61689e-05 -1.12048e-06
4.61689e-05 1.05715e-05 -1.19284e-06
-1.12048e-06 -1.19284e-06 -0.000110563
0.000505486 -3.54699e-06 9.17137e-07
-3.54699e-06 -3.28281e-05 -4.90866e-06
9.17137e-07 -4.90866e-06 -4.96742e-05
0.000364056 3.19592e-05 -2.02544e-06
3.19592e-05 -9.05396e-05 -1.62033e-06
-2.02544e-06 -1.62033e-06 -0.000157098
0.000697656 6.48505e-05 -8.50083e-07
6.48505e-05 0.000152016 -1.074e-06
-8.50083e-07 -1.074e-06 3.63649e-05
0.00216887 -3.59866e-05 -1.86464e-05
-3.59866e-05 0.000999247 -4.70869e-06
-1.86464e-05 -4.70869e-06 0.00101558
0.000498775 -6.10665e-06 -1.18684e-07
-6.10665e-06 -3.75063e-05 -1.05849e-07
-1.18684e-07 -1.05849e-07 -5.01618e-05
0.00016332 1.09769e-05 -1.68101e-06
1.09769e-05 -0.000213152 4.28158e-07
-1.68101e-06 4.28158e-07 -0.000274226
0.0021095 -2.03414e-05 -4.95509e-06
-2.03414e-05 0.000962045 1.14213e-07
-4.95509e-06 1.14213e-07 0.000979741
0.000494999 -3.9899e-06 -1.93927e-06
-3.9899e-06 -3.98193e-05 3.48172e-06
-1.93927e-06 3.48172e-06 -4.95811e-05
0.0020615 -4.95748e-06 9.61487e-06
-4.95748e-06 0.000932581 4.74858e-06
9.61487e-06 4.74858e-06 0.000950855
0.00118995 -0.000142171 -3.29472e-05
-0.000142171 -0.000256166 2.82016e-05
-3.29472e-05 2.82016e-05 -0.000210036
-7.15978e-05 -0.000173657 4.08224e-05
-0.000173657 0.00111035 -2.58672e-06
4.08224e-05 -2.58672e-06 0.000801791
-0.000290235 -0.000316422 0.000143381
-0.000316422 0.000394054 -9.34861e-05
0.000143381 -9.34861e-05 -0.00287878
0.000307691 4.44116e-05 2.91328e-06
4.44116e-05 -0.000122354 1.95337e-06
2.91328e-06 1.95337e-06 -0.000248741
0.00170169 9.81578e-05 5.63408e-07
9.81578e-05 0.000717423 2.48782e-06
5.63408e-07 2.48782e-06 0.000570011
0.00073318 0.000128059 -1.55409e-06
0.000128059 0.000160626 -2.022e-06
-1.55409e-06 -2.022e-06 2.90686e-05
0.000491565 6.95378e-05 6.03154e-07
6.95378e-05 -1.53803e-05 7.30192e-07
6.03154e-07 7.30192e-07 -0.000133469
0.000539429 8.82204e-05 2.48051e-07
8.82204e-05 3.47664e-05 -2.30835e-07
2.48051e-07 -2.30835e-07 -9.06788e-05
0.000549475 7.91629e-05 4.02128e-06
7.91629e-05 3.20855e-05 1.93276e-06
4.02128e-06 1.93276e-06 -8.52648e-05
0.000576121 0.000162898 7.45928e-06
0.000162898 9.56252e-05 4.79358e-06
7.45928e-06 4.79358e-06 -4.45909e-05
0.000812572 0.000460392 0.000129512
0.000460392 -0.000418242 0.000231679
0.000129512 0.000231679 -0.00165902
0.00383142 -9.639e-05 -2.97538e-05
-9.639e-05 -0.000181217 5.73191e-05
-2.97538e-05 5.73191e-05 -0.000712671
0.00365978 -0.000480139 0.000115572
-0.000480139 0.00246646 -9.45217e-05
0.000115572 -9.45217e-05 0.00145194
0.00636155 -0.000121227 -6.34113e-06
-0.000121227 -0.00554383 0.000136061
-6.34113e-06 0.000136061 -0.00186504
0.00280278 -0.00188503 -9.41173e-05
-0.00188503 0.000370375 6.0404e-05
-9.41173e-05 6.0404e-05 0.000125357
0.000430383 -0.00284119 -0.000145617
-0.00284119 0.00109832 7.75859e-05
-0.000145617 7.75859e-05 -0.00387592
0.0126606 0.00334 8.6755e-05
0.00334 0.00622933 -0.000117002
8.6755e-05 -0.000117002 0.00276639
0.00292974 -0.00172404 -3.86208e-05
-0.00172404 0.000586 1.784e-05
-3.86208e-05 1.784e-05 0.000657843
-0.00122804 -0.000625118 -2.69253e-05
-0.000625118 0.00293376 4.50862e-05
-2.69253e-05 4.50862e-05 -0.00312036
0.00594012 0.000452845 0.000128397
0.000452845 0.00268204 -1.81131e-05
0.000128397 -1.81131e-05 -2.48309e-05
0.0132365 -0.00199698 -5.85614e-05
-0.00199698 0.00174878 -2.71924e-05
-5.85614e-05 -2.71924e-05 0.00309309
-0.00131153 -0.000310048 -0.000124485
-0.000310048 -0.000393789 0.00010568
-0.000124485 0.00010568 -0.000257411
0.00297207 0.00196097 -0.000141042
0.00196097 0.00417074 -8.15318e-05
-0.000141042 -8.15318e-05 -0.00193474
-0.00391846 -0.00389243 3.99669e-05
-0.00389243 -0.00147209 -0.00021507
3.99669e-05 -0.00021507 -0.00529602
0.0107016 -0.00237266 8.35224e-05
-0.00237266 0.00176273 -0.000487894
8.35224e-05 -0.000487894 0.00126911
0.000964196 2.7416e-05 9.17039e-06
2.7416e-05 0.000405803 3.2523e-06
9.17039e-06 3.2523e-06 0.000244486
0.000673235 0.000138409 -1.03581e-06
0.000138409 0.000160961 -1.29722e-06
-1.03581e-06 -1.29722e-06 1.41446e-05
0.000711505 -1.39826e-05 1.58606e-07
-1.39826e-05 0.000228828 -3.87709e-06
1.58606e-07 -3.87709e-06 1.28511e-05
0.000892585 0.000115976 -2.72751e-06
0.000115976 0.000279877 -6.14275e-06
-2.72751e-06 -6.14275e-06 0.00011848
-0.000514546 -0.000655278 -2.6626e-06
-0.000655278 -0.000779772 4.37272e-05
-2.6626e-06 4.37272e-05 -0.000943025
0.00400473 -0.000310668 -2.52679e-06
-0.000310668 0.00222773 -2.66221e-05
-2.52679e-06 -2.66221e-05 0.00193073
0.000628757 7.26996e-05 -4.03691e-06
7.26996e-05 0.00015523 -8.03121e-06
-4.03691e-06 -8.03121e-06 7.12099e-06
0.000594436 0.000195996 -2.05733e-06
0.000195996 0.000218466 -2.80851e-06
-2.05733e-06 -2.80851e-06 4.34322e-05
0.00108733 0.000105531 -1.08994e-05
0.000105531 0.000867096 3.24022e-06
-1.08994e-05 3.24022e-06 0.000484308
0.000536062 6.29656e-05 3.82587e-06
6.29656e-05 0.000127292 3.25186e-06
3.82587e-06 3.25186e-06 4.73123e-07
0.00017012 0.000148373 -3.85973e-07
0.000148373 0.000359239 9.93352e-07
-3.85973e-07 9.93352e-07 -4.20284e-05
0.00172615 -0.000350151 -1.63834e-06
-0.000350151 0.00142215 4.2455e-06
-1.63834e-06 4.2455e-06 0.00049039
-3.18511e-05 -0.000119536 1.8753e-05
-0.000119536 0.000437935 1.0768e-06
1.8753e-05 1.0768e-06 8.27646e-05
-0.000274771 0.000111118 3.44893e-06
0.000111118 -8.48345e-05 -4.22439e-06
3.44893e-06 -4.22439e-06 -0.000316883
0.00189363 -0.000104853 -2.35001e-05
-0.000104853 0.00276822 -3.84053e-05
-2.35001e-05 -3.84053e-05 0.00127747
0.00137274 0.000292082 -7.06889e-06
0.000292082 0.00115592 1.83587e-05
-7.06889e-06 1.83587e-05 0.000692367
-0.0010002 5.2889e-05 -4.64418e-05
5.2889e-05 0.00105508 8.35098e-06
-4.64418e-05 8.35098e-06 0.000312324
0.000908897 9.48253e-06 5.21521e-06
9.48253e-06 -0.000217772 1.78503e-06
5.21521e-06 1.78503e-06 -0.000328926
-0.00161466 8.36445e-05 -5.35857e-07
8.36445e-05 0.000413318 -3.9192e-05
-5.35857e-07 -3.9192e-05 -5.08779e-05
0.000211394 0.000184714 -1.07586e-05
0.000184714 0.000457614 9.20919e-06
-1.07586e-05 9.20919e-06 0.00016772
-0.00123564 0.000607002 9.87736e-05
0.000607002 -0.00049303 8.92083e-05
9.87736e-05 8.92083e-05 -0.00105546
0.000780973 2.81941e-06 3.83375e-05
2.81941e-06 -0.000391764 -4.88728e-06
3.83375e-05 -4.88728e-06 -0.000136937
0.00404687 -0.00171368 0.000150721
-0.00171368 0.00463328 -0.000167939
0.000150721 -0.000167939 -0.00262691
0.0143037 0.00296303 -0.000135775
0.00296303 0.00643411 0.000110066
-0.000135775 0.000110066 0.00327615
0.00345293 -0.000379891 -0.000112529
-0.000379891 0.0022428 0.000102574
-0.000112529 0.000102574 0.00133842
0.0105286 0.00350925 -1.80698e-05
0.00350925 0.00290718 -0.000149818
-1.80698e-05 -0.000149818 0.000919691
0.000432834 0.000137905 -4.70135e-05
0.000137905 0.000965667 1.03758e-05
-4.70135e-05 1.03758e-05 0.000162922
0.000276092 -9.86284e-05 -4.78943e-05
-9.86284e-05 0.00106295 1.48134e-06
-4.78943e-05 1.48134e-06 0.000913971
0.00349695 -0.00100093 0.000217746
-0.00100093 0.0014361 -2.19839e-05
0.000217746 -2.19839e-05 -0.00275969
-0.00155802 -0.000166793 3.09141e-05
-0.000166793 -0.000421281 2.94749e-05
3.09141e-05 2.94749e-05 -0.000747975
0.00639672 0.00547712 0.000396042
0.00547712 0.00525325 -0.000195342
0.000396042 -0.000195342 0.00414916
0.00710341 0.00227587 -0.000144696
0.00227587 0.00143426 0.000269626
-0.000144696 0.000269626 -0.00107709
-0.00269274 -0.00103849 0.000118495
-0.00103849 0.00213617 -0.000115232
0.000118495 -0.000115232 -0.00434169
-0.000169246 -0.000342334 1.63501e-05
-0.000342334 0.000513798 -2.13118e-05
1.63501e-05 -2.13118e-05 -0.000278801
0.000162508 -0.000485981 0.000200454
-0.000485981 -0.000290847 -4.57349e-05
0.000200454 -4.57349e-05 -0.00274591
-0.00206856 3.97064e-05 -0.000707257
3.97064e-05 0.00483652 0.000193391
-0.000707257 0.000193391 0.00184788
0.0107618 0.00515326 -0.000469925
0.00515326 0.00275563 0.000492264
-0.000469925 0.000492264 0.00097824
0.00888369 -0.00240331 -8.24019e-05
-0.00240331 0.00362358 3.25418e-05
-8.24019e-05 3.25418e-05 -9.52251e-06
0.00284914 -0.00107481 -2.92945e-05
-0.00107481 0.00187177 2.08056e-05
-2.92945e-05 2.08056e-05 0.00131376
0.000571425 -5.63919e-05 6.49217e-06
-5.63919e-05 0.000560839 1.10634e-05
6.49217e-06 1.10634e-05 0.000276486
0.000322907 -0.0002786 2.2435e-06
-0.0002786 0.000373453 -4.19699e-07
2.2435e-06 -4.19699e-07 -2.41453e-05
0.00108455 -0.000566756 8.33395e-06
-0.000566756 0.000528748 -7.85489e-07
8.33395e-06 -7.85489e-07 0.000363138
-0.000433674 -0.00018816 9.36662e-07
-0.00018816 -1.52954e-07 7.22252e-06
9.36662e-07 7.22252e-06 -0.000299583
-0.000800879 -0.000279096 1.58964e-06
-0.000279096 -0.000485708 -1.24821e-06
1.58964e-06 -1.24821e-06 -0.000689442
0.00269807 -0.0006907 4.24914e-05
-0.0006907 0.0010796 -3.71458e-06
4.24914e-05 -3.71458e-06 0.000792209
0.00583132 -0.000984988 -1.44636e-05
-0.000984988 0.00297735 5.25689e-06
-1.44636e-05 5.25689e-06 0.00258862
0.0026856 -0.000666803 6.93305e-06
-0.000666803 0.00115198 5.48405e-09
6.93305e-06 5.48405e-09 0.000651509
0.00161739 -0.000641121 1.11558e-05
-0.000641121 0.000404924 -9.09423e-06
1.11558e-05 -9.09423e-06 -0.000121583
0.00148863 -0.000472271 -8.48101e-06
-0.000472271 0.000350344 -2.17537e-06
-8.48101e-06 -2.17537e-06 -1.95114e-05
0.00230192 -0.000677227 2.73219e-06
-0.000677227 0.000761981 -5.92215e-07
2.73219e-06 -5.92215e-07 0.000280979
0.00231653 -0.000723008 3.05048e-06
-0.000723008 0.000705734 -9.29525e-06
3.05048e-06 -9.29525e-06 0.000225306
0.0020587 -0.000627998 -2.26049e-06
-0.000627998 0.000396508 -4.70978e-06
-2.26049e-06 -4.70978e-06 5.16866e-05
0.00211208 -0.00069724 -2.17043e-06
-0.00069724 0.000536049 1.43753e-06
-2.17043e-06 1.43753e-06 0.000142721
0.00199109 -0.000685502 -2.15982e-06
-0.000685502 0.000485028 4.87792e-09
-2.15982e-06 4.87792e-09 6.3038e-05
0.00195104 -0.000533534 6.91354e-06
-0.000533534 0.000639552 1.93948e-06
6.91354e-06 1.93948e-06 0.00030633
0.00130245 -0.000490423 1.4714e-06
-0.000490423 0.000215815 -7.25099e-08
1.4714e-06 -7.25099e-08 -0.000127029
0.00125486 -0.000487936 -3.35374e-07
-0.000487936 0.000171417 1.56848e-07
-3.35374e-07 1.56848e-07 -0.000195589
0.00157625 -0.00036198 3.11019e-06
-0.00036198 0.000507531 6.66276e-07
3.11019e-06 6.66276e-07 0.000249643
0.00145626 -0.000384395 -8.2603e-07
-0.000384395 0.000394202 -1.41656e-06
-8.2603e-07 -1.41656e-06 0.000117229
0.00133595 -0.000408515 1.01433e-05
-0.000408515 0.000270515 -4.44477e-06
1.01433e-05 -4.44477e-06 -3.09849e-05
0.000696579 -0.000166508 3.21581e-06
-0.000166508 0.000182681 -4.3434e-08
3.21581e-06 -4.3434e-08 -8.25227e-05
0.000692176 -0.000197983 -1.8545e-06
-0.000197983 9.63965e-05 1.18452e-06
-1.8545e-06 1.18452e-06 -0.000141026
0.0010574 -0.000330008 7.2499e-06
-0.000330008 0.000226242 -6.46042e-06
7.2499e-06 -6.46042e-06 -3.38007e-05
0.00031282 -2.1874e-05 3.93211e-07
-2.1874e-05 -0.000123474 4.92968e-06
3.93211e-07 4.92968e-06 -0.000237762
0.000694116 -6.53559e-05 -9.5131e-07
-6.53559e-05 0.000164297 1.50842e-07
-9.5131e-07 1.50842e-07 -3.83728e-05
0.00137084 -0.000242246 9.08763e-07
-0.000242246 0.000607255 5.03564e-07
9.08763e-07 5.03564e-07 0.000354982
0.000451945 1.90764e-05 -3.65685e-06
1.90764e-05 -4.53052e-05 1.03191e-05
-3.65685e-06 1.03191e-05 -8.3349e-05
0.000640913 -2.48717e-05 -3.25662e-07
-2.48717e-05 7.86745e-05 -8.58237e-08
-3.25662e-07 -8.58237e-08 -2.02579e-05
0.00119671 -0.000140699 4.15194e-08
-0.000140699 0.000437798 -8.55507e-07
4.15194e-08 -8.55507e-07 0.000284703
0.00065938 -3.5829e-05 1.19633e-06
-3.5829e-05 9.38483e-05 -3.66976e-06
1.19633e-06 -3.66976e-06 4.02961e-06
0.000490835 2.77495e-05 7.46505e-08
2.77495e-05 -2.27178e-05 -1.29831e-07
7.46505e-08 -1.29831e-07 -5.70392e-05
0.00273761 0.000117417 -3.36227e-05
0.000117417 0.00137463 4.14819e-06
-3.36227e-05 4.14819e-06 0.00137482
0.000548627 2.38291e-05 8.49091e-07
2.38291e-05 4.84776e-06 -6.19772e-06
8.49091e-07 -6.19772e-06 -2.43329e-05
0.00263676 9.86316e-05 3.92289e-06
9.86316e-05 0.00130428 4.23004e-07
3.92289e-06 4.23004e-07 0.00130884
0.00256947 8.0712e-05 2.64858e-05
8.0712e-05 0.00125642 -4.61058e-06
2.64858e-05 -4.61058e-06 0.00126434
0.000706835 8.22347e-05 1.8185e-06
8.22347e-05 0.000191158 -2.39374e-06
1.8185e-06 -2.39374e-06 2.41584e-05
0.000774894 0.000104565 4.61136e-06
0.000104565 0.000205087 -4.98113e-07
4.61136e-06 -4.98113e-07 5.82484e-05
0.000584701 3.18089e-05 2.05765e-06
3.18089e-05 4.21073e-05 -3.24241e-06
2.05765e-06 -3.24241e-06 -3.7094e-05
0.000638397 9.53438e-05 1.94278e-07
9.53438e-05 0.000104635 -2.18109e-07
1.94278e-07 -2.18109e-07 -1.7032e-05
0.000491217 -7.55781e-06 4.17049e-07
-7.55781e-06 -3.90799e-05 -5.87027e-06
4.17049e-07 -5.87027e-06 -6.0518e-05
0.000557447 4.31477e-05 2.33789e-07
4.31477e-05 2.70192e-05 -1.4267e-07
2.33789e-07 -1.4267e-07 -4.44758e-05
0.000590075 5.05368e-05 -3.30522e-06
5.05368e-05 6.79394e-05 -5.64172e-07
-3.30522e-06 -5.64172e-07 -4.45268e-05
0.00230848 -5.17049e-05 -2.43555e-05
-5.17049e-05 0.00108762 -4.77847e-06
-2.43555e-05 -4.77847e-06 0.00110163
0.000499455 -8.81019e-06 -6.42248e-07
-8.81019e-06 -3.60297e-05 -9.80336e-08
-6.42248e-07 -9.80336e-08 -5.27132e-05
0.000499825 4.92903e-05 -2.77363e-06
4.92903e-05 -5.6085e-06 8.65287e-07
-2.77363e-06 8.65287e-07 -7.14683e-05
0.00218456 -3.52538e-05 -4.57021e-06
-3.52538e-05 0.00100894 2.10609e-07
-4.57021e-06 2.10609e-07 0.00102533
0.000498218 -6.30876e-06 -2.03724e-06
-6.30876e-06 -3.79628e-05 3.80285e-06
-2.03724e-06 3.80285e-06 -5.03893e-05
0.00209602 -1.9424e-05 1.38148e-05
-1.9424e-05 0.000953444 4.65694e-06
1.38148e-05 4.65694e-06 0.000971262
-0.00149075 3.59487e-05 -1.19421e-05
3.59487e-05 -8.86871e-05 -8.90623e-06
-1.19421e-05 -8.90623e-06 -4.50055e-05
0.0011922 -0.00015209 -1.67786e-05
-0.00015209 -0.000247605 2.38971e-05
-1.67786e-05 2.38971e-05 -7.35907e-05
0.000212033 -0.000169899 7.24685e-06
-0.000169899 0.00106642 -2.74024e-05
7.24685e-06 -2.74024e-05 0.000782556
0.000785794 8.76459e-05 -3.87923e-07
8.76459e-05 0.000204172 5.88608e-07
-3.87923e-07 5.88608e-07 5.44328e-05
0.000523907 8.11834e-05 3.50807e-06
8.11834e-05 -1.17761e-06 -1.09125e-06
3.50807e-06 -1.09125e-06 -0.000138864
-0.00140859 -3.81979e-06 -3.98022e-06
-3.81979e-06 -0.00116059 -8.29667e-06
-3.98022e-06 -8.29667e-06 -0.00127389
0.000119773 3.39639e-05 2.3477e-06
3.39639e-05 -0.00021999 8.52941e-06
2.3477e-06 8.52941e-06 -0.000350415
0.00261656 0.000334416 -1.69283e-06
0.000334416 0.0013298 -8.83993e-07
-1.69283e-06 -8.83993e-07 0.00111626
0.000708546 4.27971e-05 -4.46914e-06
4.27971e-05 0.000108495 -2.60829e-06
-4.46914e-06 -2.60829e-06 -7.03771e-06
0.000552891 8.1871e-05 -4.38912e-06
8.1871e-05 3.59664e-05 -6.09005e-06
-4.38912e-06 -6.09005e-06 -8.07622e-05
0.000713014 6.90951e-05 1.60372e-07
6.90951e-05 0.000134282 -3.5214e-07
1.60372e-07 -3.5214e-07 1.45702e-05
0.000956027 0.000138221 -1.64291e-07
0.000138221 0.000305993 -1.07623e-06
-1.64291e-07 -1.07623e-06 0.00017856
0.000738448 0.000101898 5.78223e-06
0.000101898 0.000264676 -8.49485e-06
5.78223e-06 -8.49485e-06 8.59462e-05
0.00450719 0.000621281 0.000298187
0.000621281 0.00314861 0.000392839
0.000298187 0.000392839 -0.00114575
0.00145273 0.000411687 1.56129e-05
0.000411687 -7.54793e-05 8.36648e-05
1.56129e-05 8.36648e-05 -0.0015537
0.00334954 -8.10248e-05 7.11742e-06
-8.10248e-05 -5.08745e-05 -1.43412e-05
7.11742e-06 -1.43412e-05 -0.000295039
0.0130823 -0.0017039 -0.000195865
-0.0017039 0.00179245 -0.000139346
-0.000195865 -0.000139346 0.00347241
-0.00535657 0.00156571 4.47503e-05
0.00156571 -0.00241381 0.000382951
4.47503e-05 0.000382951 -0.00612743
0.00353004 -0.00180901 -8.41952e-05
-0.00180901 0.00117196 1.09596e-05
-8.41952e-05 1.09596e-05 0.00122594
0.0100905 -0.00169888 -0.000116245
-0.00169888 0.00528737 1.13841e-05
-0.000116245 1.13841e-05 0.000869349
0.000628084 -0.000426053 -1.88202e-05
-0.000426053 0.000302475 8.1254e-05
-1.88202e-05 8.1254e-05 0.000120711
0.00984862 -0.000240764 -9.48055e-05
-0.000240764 0.00599164 -6.52063e-06
-9.48055e-05 -6.52063e-06 0.000218792
0.00412785 -0.00220726 8.8942e-05
-0.00220726 0.0023993 0.000143896
8.8942e-05 0.000143896 -0.00121654
0.0117532 -0.00314902 -0.000183462
-0.00314902 0.00092947 -0.000577082
-0.000183462 -0.000577082 0.000305115
0.00380226 5.62089e-05 -8.61749e-05
5.62089e-05 0.00263943 8.14978e-05
-8.61749e-05 8.14978e-05 0.00190627
0.0121864 0.00209268 -0.000126728
0.00209268 0.00606333 2.85928e-05
-0.000126728 2.85928e-05 0.00162152
0.0160901 -0.00461614 -0.000196374
-0.00461614 0.00716169 -0.000538043
-0.000196374 -0.000538043 0.00464692
0.0164915 -0.00580577 7.37157e-05
-0.00580577 0.00552315 -4.6513e-05
7.37157e-05 -4.6513e-05 0.00484272
0.000515423 0.000164529 1.15905e-05
0.000164529 0.000210371 1.04345e-06
1.15905e-05 1.04345e-06 6.48406e-06
0.000392098 4.2207e-05 1.94807e-06
4.2207e-05 0.000106504 2.40867e-06
1.94807e-06 2.40867e-06 -8.37472e-05
0.000920655 0.000161767 -6.01092e-06
0.000161767 0.00032343 -9.18765e-06
-6.01092e-06 -9.18765e-06 0.000166488
0.0035566 -0.000383057 -5.91313e-05
-0.000383057 0.00188335 3.96648e-05
-5.91313e-05 3.96648e-05 0.000833352
0.000201008 -8.21571e-05 -3.70361e-06
-8.21571e-05 0.000663083 -4.05778e-05
-3.70361e-06 -4.05778e-05 0.000281569
0.000367873 -5.81068e-06 -7.6976e-06
-5.81068e-06 1.70969e-05 -3.41901e-07
-7.6976e-06 -3.41901e-07 -0.000101462
-2.26813e-05 5.33805e-05 6.29097e-07
5.33805e-05 0.000249307 -5.01409e-06
6.29097e-07 -5.01409e-06 -0.000148322
0.000321366 0.000105264 1.83128e-06
0.000105264 0.000242091 -1.02278e-06
1.83128e-06 -1.02278e-06 8.37597e-07
0.000491043 0.000263132 8.77151e-06
0.000263132 0.000604325 6.11535e-07
8.77151e-06 6.11535e-07 0.000139545
-0.00153637 -0.000101741 0.000209476
-0.000101741 0.000705051 -1.42419e-05
0.000209476 -1.42419e-05 -0.000906663
-0.0018899 0.000170061 -1.54089e-05
0.000170061 -0.000965594 1.34313e-05
-1.54089e-05 1.34313e-05 -0.00129502
0.00273874 0.000657597 -0.000124847
0.000657597 0.00201764 -7.15338e-05
-0.000124847 -7.15338e-05 0.000864484
0.00155943 0.000177147 0.000137571
0.000177147 0.00158069 4.29999e-05
0.000137571 4.29999e-05 -0.00174305
-0.00133523 8.02467e-05 -1.84828e-05
8.02467e-05 0.000768698 1.77002e-05
-1.84828e-05 1.77002e-05 8.24593e-05
0.0018237 -0.000150446 -9.8708e-06
-0.000150446 0.000195433 4.91232e-07
-9.8708e-06 4.91232e-07 0.000530893
-0.000920121 0.000410281 0.000114045
0.000410281 0.000127706 1.38459e-05
0.000114045 1.38459e-05 -0.000762022
0.00158824 0.000279562 -6.48413e-05
0.000279562 0.00159741 6.38763e-05
-6.48413e-05 6.38763e-05 0.000451554
0.000170088 -0.000165476 -1.46835e-05
-0.000165476 0.00101928 6.40357e-06
-1.46835e-05 6.40357e-06 0.000744014
0.0161502 -0.00308444 0.000173086
-0.00308444 0.00756626 -7.8104e-05
0.000173086 -7.8104e-05 0.00234517
0.0190486 0.00341273 -5.51021e-05
0.00341273 0.00795267 -0.000107515
-5.51021e-05 -0.000107515 0.00501999
0.0045527 -0.00109624 -0.000160894
-0.00109624 0.00211073 0.000192739
-0.000160894 0.000192739 -0.00208839
-0.00104377 0.0062391 0.00179383
0.0062391 0.000872618 -0.00123926
0.00179383 -0.00123926 -9.43331e-05
0.000876404 -0.000372213 2.33104e-05
-0.000372213 0.00108602 -6.97626e-06
2.33104e-05 -6.97626e-06 0.00021214
1.32995e-05 -0.000350549 2.61344e-05
-0.000350549 0.000155688 1.52179e-05
2.61344e-05 1.52179e-05 -0.00276455
-0.00202933 0.000352008 -0.000857213
0.000352008 0.00470393 0.000301914
-0.000857213 0.000301914 0.00153391
0.000947307 -0.000628677 -5.73162e-06
-0.000628677 0.000868336 3.29363e-05
-5.73162e-06 3.29363e-05 0.000377264
0.0179302 0.00454951 0.000241239
0.00454951 0.00522464 8.24474e-05
0.000241239 8.24474e-05 0.00360536
0.00770802 -0.00331307 0.00014839
-0.00331307 0.00272306 -6.56859e-05
0.00014839 -6.56859e-05 -0.000815305
0.00215074 -0.000978063 -1.67271e-05
-0.000978063 0.0011266 2.97015e-05
-1.67271e-05 2.97015e-05 0.000617434
-0.00632328 -0.00122457 9.95838e-05
-0.00122457 0.00397732 -5.39032e-05
9.95838e-05 -5.39032e-05 0.000592305
0.0140528 0.00417471 -0.00107133
0.00417471 0.00560296 0.000449058
-0.00107133 0.000449058 0.00387483
0.00436449 -0.00233474 -0.000321696
-0.00233474 -0.000496321 0.000174179
-0.000321696 0.000174179 -0.00403931
0.00213253 -0.00161455 0.000173183
-0.00161455 0.000352684 -9.46229e-05
0.000173183 -9.46229e-05 0.00104674
2.42826e-05 -0.000316581 -6.92395e-05
-0.000316581 0.000180228 2.39124e-05
-6.92395e-05 2.39124e-05 -0.000189155
0.000699019 -0.000499478 -8.0113e-06
-0.000499478 0.000369343 1.21049e-05
-8.0113e-06 1.21049e-05 0.000127145
0.00339374 -0.000759839 2.7869e-05
-0.000759839 0.00156075 -1.18127e-06
2.7869e-05 -1.18127e-06 0.00126906
-0.00237494 -0.000142883 2.9823e-06
-0.000142883 -0.00122664 1.23377e-05
2.9823e-06 1.23377e-05 -0.00144081
0.000856166 -0.000477623 5.6032e-06
-0.000477623 0.000118492 3.94608e-07
5.6032e-06 3.94608e-07 -0.000150795
0.00226175 -0.000740583 9.29615e-06
-0.000740583 0.000568938 -6.91158e-07
9.29615e-06 -6.91158e-07 0.000246958
0.00349777 -0.000766854 -2.5697e-05
-0.000766854 0.00151619 6.94363e-06
-2.5697e-05 6.94363e-06 0.00102716
0.00144404 -0.000604922 -8.60496e-07
-0.000604922 0.000290791 -1.50163e-06
-8.60496e-07 -1.50163e-06 -0.000211795
0.00178752 -0.00074339 5.30486e-06
-0.00074339 0.000253168 -9.30869e-06
5.30486e-06 -9.30869e-06 -0.00015407
0.00276201 -0.000738661 -3.98102e-06
-0.000738661 0.000991517 2.97409e-06
-3.98102e-06 2.97409e-06 0.000501083
0.00195116 -0.000688612 2.62656e-07
-0.000688612 0.000482264 -4.83911e-06
2.62656e-07 -4.83911e-06 2.02579e-05
0.00246037 -0.000673369 2.08706e-06
-0.000673369 0.000567365 -8.56102e-06
2.08706e-06 -8.56102e-06 0.00023096
0.00168624 -0.000460401 -4.31856e-06
-0.000460401 3.50084e-05 -3.21033e-06
-4.31856e-06 -3.21033e-06 -0.000199543
0.00176624 -0.000619304 4.03766e-07
-0.000619304 0.00018673 -9.68102e-07
4.03766e-07 -9.68102e-07 -0.000153615
0.00197783 -0.000619451 2.54839e-06
-0.000619451 0.000346983 -2.95096e-06
2.54839e-06 -2.95096e-06 6.09841e-06
0.00200082 -0.000609576 3.24477e-07
-0.000609576 0.000537738 -1.60671e-07
3.24477e-07 -1.60671e-07 0.00018334
0.00210219 -0.000695365 -2.29522e-06
-0.000695365 0.000543004 9.8461e-08
-2.29522e-06 9.8461e-08 0.000145072
0.00222076 -0.000713657 1.38715e-06
-0.000713657 0.000609801 -3.00758e-06
1.38715e-06 -3.00758e-06 0.00017905
0.00184233 -0.000445272 3.57524e-06
-0.000445272 0.000616398 3.067e-06
3.57524e-06 3.067e-06 0.000321882
0.00128341 -0.000457794 1.57811e-06
-0.000457794 0.000250117 8.96157e-07
1.57811e-06 8.96157e-07 -6.44959e-05
0.00104543 -0.000456666 3.62944e-06
-0.000456666 6.56874e-05 3.14065e-07
3.62944e-06 3.14065e-07 -0.000263421
0.0011859 -0.000308241 -1.09271e-06
-0.000308241 0.000358587 7.58717e-07
-1.09271e-06 7.58717e-07 0.000108078
0.00106273 -0.000303572 -3.29656e-07
-0.000303572 0.000199822 -9.35498e-07
-3.29656e-07 -9.35498e-07 -4.77435e-05
0.00104784 -0.000340763 -3.91427e-06
-0.000340763 0.000142831 -3.69456e-06
-3.91427e-06 -3.69456e-06 -0.00012801
-0.000153773 -4.68381e-05 -1.24042e-06
-4.68381e-05 -0.000394462 5.40551e-06
-1.24042e-06 5.40551e-06 -0.000559657
0.000765211 -0.000177603 2.21232e-06
-0.000177603 0.00022033 8.73075e-08
2.21232e-06 8.73075e-08 -4.26696e-05
0.00134646 -0.000253112 -1.9568e-06
-0.000253112 0.000512191 2.1981e-06
-1.9568e-06 2.1981e-06 0.000259707
0.00169046 5.69775e-05 -3.18287e-05
5.69775e-05 0.00072988 6.77448e-06
-3.18287e-05 6.77448e-06 0.000687229
0.000711468 -6.2613e-05 3.85822e-07
-6.2613e-05 0.000114846 -6.49118e-07
3.85822e-07 -6.49118e-07 -3.45784e-06
0.00149941 -0.000111728 -3.02731e-06
-0.000111728 0.000661815 -1.94577e-06
-3.02731e-06 -1.94577e-06 0.000448102
0.000763561 4.52688e-05 -4.10183e-05
4.52688e-05 0.000152257 4.77483e-06
-4.10183e-05 4.77483e-06 0.00014526
0.00105504 3.66856e-05 -1.32053e-05
3.66856e-05 0.000330655 -4.95895e-07
-1.32053e-05 -4.95895e-07 0.000293288
0.000638252 -3.36961e-05 1.56529e-06
-3.36961e-05 7.18335e-05 -4.61048e-06
1.56529e-06 -4.61048e-06 -2.59744e-05
0.000542705 2.57437e-05 1.70187e-06
2.57437e-05 8.34308e-06 -7.33587e-06
1.70187e-06 -7.33587e-06 -2.60494e-05
0.00277448 0.000118568 6.66966e-06
0.000118568 0.00139799 6.11893e-07
6.66966e-06 6.11893e-07 0.00139801
0.00262766 9.99189e-05 2.93731e-05
9.99189e-05 0.00129934 -4.44614e-06
2.93731e-05 -4.44614e-06 0.00130363
0.00109516 0.000124612 6.29257e-06
0.000124612 0.000411339 2.13361e-06
6.29257e-06 2.13361e-06 0.000245903
0.00116656 0.000134762 2.79286e-06
0.000134762 0.000466879 -2.21705e-06
2.79286e-06 -2.21705e-06 0.000297086
0.000320748 6.79768e-05 -5.36636e-07
6.79768e-05 -7.08434e-05 1.19056e-06
-5.36636e-07 1.19056e-06 -0.000218777
0.00062742 2.47833e-05 2.17969e-06
2.47833e-05 6.86723e-05 -4.41023e-06
2.17969e-06 -4.41023e-06 -2.05812e-05
0.000796317 9.53998e-05 6.31795e-07
9.53998e-05 0.000210845 -5.9092e-09
6.31795e-07 -5.9092e-09 7.29787e-05
0.000484287 -1.36531e-06 -1.10203e-06
-1.36531e-06 -3.83124e-05 -6.89621e-06
-1.10203e-06 -6.89621e-06 -6.44426e-05
0.000561526 3.43372e-05 -9.03648e-08
3.43372e-05 2.98325e-05 -3.2268e-07
-9.03648e-08 -3.2268e-07 -5.0082e-05
0.000706463 6.58162e-05 -2.44395e-06
6.58162e-05 0.000166878 6.64831e-07
-2.44395e-06 6.64831e-07 3.00244e-05
0.00249394 -6.88545e-05 -3.18342e-05
-6.88545e-05 0.00120633 -4.6622e-06
-3.18342e-05 -4.6622e-06 0.00121736
0.000477884 -5.84753e-06 -7.82768e-07
-5.84753e-06 -4.69093e-05 -9.82262e-08
-7.82768e-07 -9.82262e-08 -6.81329e-05
0.000567567 4.76209e-05 -4.17063e-07
4.76209e-05 3.40622e-05 2.87804e-06
-4.17063e-07 2.87804e-06 -3.76537e-05
0.00231396 -5.14617e-05 -5.40475e-06
-5.14617e-05 0.00109093 3.20345e-07
-5.40475e-06 3.20345e-07 0.00110501
0.000479137 -1.2754e-05 -2.93473e-06
-1.2754e-05 -4.81462e-05 4.70276e-06
-2.93473e-06 4.70276e-06 -6.47054e-05
0.00218642 -3.38715e-05 1.92235e-05
-3.38715e-05 0.00101001 4.57974e-06
1.92235e-05 4.57974e-06 0.00102657
0.00611004 0.000393074 0.000229848
0.000393074 0.00307736 4.49398e-05
0.000229848 4.49398e-05 0.00131053
-0.00131647 4.152e-06 -1.06144e-06
4.152e-06 -8.82209e-05 -4.34827e-06
-1.06144e-06 -4.34827e-06 -0.000188168
0.000877718 -4.2028e-05 -2.18762e-05
-4.2028e-05 -0.000223356 -3.37042e-07
-2.18762e-05 -3.37042e-07 -4.34982e-06
-0.000314579 8.63169e-05 -7.20235e-06
8.63169e-05 -0.000492493 -1.49861e-06
-7.20235e-06 -1.49861e-06 -0.000624069
0.00065431 8.04476e-05 -4.69938e-06
8.04476e-05 0.000120144 -1.69778e-06
-4.69938e-06 -1.69778e-06 -2.07452e-05
0.000179241 6.21148e-05 2.81437e-07
6.21148e-05 -0.000214561 -2.30583e-06
2.81437e-07 -2.30583e-06 -0.000345575
0.0009866 6.22775e-05 6.27026e-07
6.22775e-05 0.000295376 -3.9823e-07
6.27026e-07 -3.9823e-07 0.000157871
0.000266529 8.71363e-05 -1.79472e-06
8.71363e-05 -0.000155752 -5.41418e-07
-1.79472e-06 -5.41418e-07 -0.000277035
0.00181801 0.00025121 7.21562e-08
0.00025121 0.000838603 -2.77122e-06
7.21562e-08 -2.77122e-06 0.000664022
0.00109204 0.000204876 -4.90622e-06
0.000204876 0.000365924 -1.50529e-05
-4.90622e-06 -1.50529e-05 0.00012531
-0.000499003 5.31492e-05 2.43176e-06
5.31492e-05 -0.000431366 2.15607e-06
2.43176e-06 2.15607e-06 -0.000667184
0.000800824 0.000137819 -3.88614e-06
0.000137819 0.000208696 -3.11748e-06
-3.88614e-06 -3.11748e-06 7.41464e-05
0.000172063 4.37853e-05 -5.15732e-06
4.37853e-05 -0.000204807 -5.3141e-06
-5.15732e-06 -5.3141e-06 -0.000301895
0.000197693 5.12154e-05 1.59566e-07
5.12154e-05 -7.83438e-05 9.14384e-07
1.59566e-07 9.14384e-07 -0.000244811
0.000910724 0.000211359 1.38512e-05
0.000211359 0.000479097 1.40298e-06
1.38512e-05 1.40298e-06 0.000200662
0.00172877 -0.00194866 0.000142366
-0.00194866 0.00438209 0.000249004
0.000142366 0.000249004 0.000202612
0.00516673 0.000836222 7.67148e-05
0.000836222 0.00275162 0.000143234
7.67148e-05 0.000143234 -0.00180047
0.00203046 0.000296494 -2.80243e-05
0.000296494 0.000327823 -7.54827e-05
-2.80243e-05 -7.54827e-05 -0.00136735
0.0182139 -0.00389384 -0.000513124
-0.00389384 0.00426735 -0.000303102
-0.000513124 -0.000303102 0.00354675
0.00630259 -0.00141945 0.000194909
-0.00141945 0.00286784 0.000399143
0.000194909 0.000399143 0.000190203
0.00279976 -0.00122117 -0.000172806
-0.00122117 0.00403767 8.60512e-05
-0.000172806 8.60512e-05 -0.00219503
0.000663415 -0.000583077 6.86675e-05
-0.000583077 0.00118662 2.53075e-05
6.86675e-05 2.53075e-05 0.000359147
0.000804931 -0.000135118 3.4811e-05
-0.000135118 0.000933193 5.55441e-05
3.4811e-05 5.55441e-05 0.000522269
0.00833553 -0.00598493 0.000330471
-0.00598493 0.00323334 0.000318783
0.000330471 0.000318783 0.00243545
0.00290981 0.00134519 -6.39737e-05
0.00134519 0.00390904 -6.33697e-05
-6.39737e-05 -6.33697e-05 -0.00183434
0.0058827 -0.00280331 -9.6188e-05
-0.00280331 0.00158224 8.24111e-05
-9.6188e-05 8.24111e-05 -0.00145293
0.000421302 0.000510866 -2.59702e-05
0.000510866 0.000736572 6.16334e-05
-2.59702e-05 6.16334e-05 0.000545252
0.0108706 0.00269638 -9.34851e-05
0.00269638 0.0041302 6.30085e-06
-9.34851e-05 6.30085e-06 0.000589577
0.0102804 -0.00494449 -0.000622658
-0.00494449 0.00242274 -0.000434244
-0.000622658 -0.000434244 0.000430581
2.17496e-05 0.000385815 1.68085e-06
0.000385815 -0.000348141 -5.55779e-06
1.68085e-06 -5.55779e-06 -0.000502162
0.000409836 0.000105732 6.82536e-06
0.000105732 0.000125947 2.3723e-06
6.82536e-06 2.3723e-06 -5.06085e-05
2.98264e-05 4.49323e-05 -6.55195e-06
4.49323e-05 -0.000114327 -4.64904e-06
-6.55195e-06 -4.64904e-06 -0.00030342
-0.00312843 -0.000302412 -0.000113599
-0.000302412 -7.67667e-05 -5.81601e-05
-0.000113599 -5.81601e-05 -0.00165817
-0.00091633 0.000188521 1.03398e-05
0.000188521 -0.000254229 -1.72912e-05
1.03398e-05 -1.72912e-05 -0.000718797
0.000615882 0.000125179 -8.20305e-06
0.000125179 0.00038273 3.39447e-06
-8.20305e-06 3.39447e-06 0.000136774
0.000875645 0.00051034 1.52795e-05
0.00051034 0.000475712 3.58699e-06
1.52795e-05 3.58699e-06 0.000118004
-0.000355922 0.000347731 4.91762e-05
0.000347731 0.00051325 -2.70226e-05
4.91762e-05 -2.70226e-05 -0.000488329
0.000261894 0.000918548 4.31649e-05
0.000918548 -0.00023849 4.32665e-06
4.31649e-05 4.32665e-06 -0.000863809
-0.00457623 0.000842391 0.000265341
0.000842391 0.00470321 1.20209e-05
0.000265341 1.20209e-05 -0.000555387
0.00225839 -4.66407e-05 -5.96758e-06
-4.66407e-05 0.00178033 4.9671e-05
-5.96758e-06 4.9671e-05 -0.000597916
-0.00169626 -4.42641e-05 -7.42422e-06
-4.42641e-05 0.000377563 3.31333e-05
-7.42422e-06 3.31333e-05 -8.02017e-05
-0.000336869 -0.000192261 -5.48558e-05
-0.000192261 0.000570528 1.22022e-05
-5.48558e-05 1.22022e-05 -0.000335729
-0.00121127 -0.000280512 -5.30621e-05
-0.000280512 -0.000675941 3.69416e-05
-5.30621e-05 3.69416e-05 -0.000369118
0.000209943 -0.000275723 -0.000144984
-0.000275723 0.000384598 8.07064e-05
-0.000144984 8.07064e-05 -0.00266142
-0.000674882 -0.0027324 0.000187983
-0.0027324 0.00153593 -9.34433e-05
0.000187983 -9.34433e-05 -0.0034886
0.00366554 0.00393174 0.000480822
0.00393174 -0.00176433 -0.000368706
0.000480822 -0.000368706 -0.00332564
0.00660536 0.00204767 -0.000342101
0.00204767 0.00591035 0.000238756
-0.000342101 0.000238756 0.00308669
0.00133444 -0.00057469 -6.80033e-06
-0.00057469 0.000993687 -3.27155e-06
-6.80033e-06 -3.27155e-06 0.000521003
0.00140224 0.000346551 8.02481e-05
0.000346551 0.00580075 -7.32114e-06
8.02481e-05 -7.32114e-06 0.00289387
-0.000950588 0.002793 1.48374e-05
0.002793 0.00013616 4.91475e-05
1.48374e-05 4.91475e-05 -0.00253808
0.00248853 -0.00186613 7.94376e-05
-0.00186613 0.000724426 -2.92606e-05
7.94376e-05 -2.92606e-05 0.00070948
0.0163443 -0.00250406 2.53766e-05
-0.00250406 0.00408753 -1.08992e-05
2.53766e-05 -1.08992e-05 0.00218681
0.00316425 -0.00120291 6.41239e-07
-0.00120291 0.00120566 2.2889e-05
6.41239e-07 2.2889e-05 0.00102973
-0.00906568 0.000873848 -0.000394554
0.000873848 -0.00333668 4.38806e-05
-0.000394554 4.38806e-05 -0.00529335
0.0150797 -0.00159954 -0.00017992
-0.00159954 0.00255507 6.31482e-05
-0.00017992 6.31482e-05 0.00104668
0.00363313 -0.0021415 7.84876e-05
-0.0021415 -0.000180823 -6.06568e-05
7.84876e-05 -6.06568e-05 -0.000104413
9.9431e-05 -0.000384148 -1.30699e-05
-0.000384148 0.00012142 1.59221e-05
-1.30699e-05 1.59221e-05 -0.000192966
0.000907437 -0.000602439 -3.56937e-06
-0.000602439 0.000101328 5.24803e-07
-3.56937e-06 5.24803e-07 -5.59497e-05
0.0051711 -0.000865034 2.38968e-05
-0.000865034 0.00218418 -4.97297e-06
2.38968e-05 -4.97297e-06 0.00187095
-0.000807433 -0.000291494 -1.03176e-05
-0.000291494 -0.00073442 6.38631e-06
-1.03176e-05 6.38631e-06 -0.000995148
0.00140431 -0.000646918 -6.1031e-06
-0.000646918 0.000152268 -3.17111e-06
-6.1031e-06 -3.17111e-06 -0.000186523
0.00254094 -0.000827699 6.17019e-06
-0.000827699 0.000532505 -7.15298e-06
6.17019e-06 -7.15298e-06 0.000199692
0.0012919 -0.000572452 -1.54772e-05
-0.000572452 0.000187607 3.18583e-06
-1.54772e-05 3.18583e-06 -0.000293955
0.00177753 -0.000726894 -1.24873e-06
-0.000726894 0.000259796 -3.87583e-07
-1.24873e-06 -3.87583e-07 -0.000151549
0.0015769 -0.000601194 2.99868e-06
-0.000601194 -7.43744e-05 -4.7509e-06
2.99868e-06 -4.7509e-06 -0.000333057
0.00143954 -0.000639839 -7.18419e-06
-0.000639839 0.000177977 1.55046e-06
-7.18419e-06 1.55046e-06 -0.000265693
0.00181346 -0.00059908 -6.13093e-07
-0.00059908 0.000216922 1.29462e-06
-6.13093e-07 1.29462e-06 -0.000104378
0.00184526 -0.000465611 -7.66163e-07
-0.000465611 6.14055e-05 -4.16329e-06
-7.66163e-07 -4.16329e-06 -0.00013151
0.00176396 -0.000378137 -5.45117e-06
-0.000378137 5.89759e-05 -1.30982e-06
-5.45117e-06 -1.30982e-06 -0.000101596
0.00160948 -0.00046377 -5.13976e-06
-0.00046377 7.89086e-06 -1.85995e-06
-5.13976e-06 -1.85995e-06 -0.000235284
0.00171528 -0.000455127 1.21361e-06
-0.000455127 5.80189e-05 2.53828e-06
1.21361e-06 2.53828e-06 -0.000171772
0.00157026 -0.000534472 -3.60271e-06
-0.000534472 0.000126959 -1.66897e-06
-3.60271e-06 -1.66897e-06 -0.000182086
0.00192504 -0.00062519 2.38533e-06
-0.00062519 0.000294679 -4.89244e-07
2.38533e-06 -4.89244e-07 -4.21145e-05
0.00196691 -0.000616922 2.2089e-06
-0.000616922 0.000337469 1.0067e-06
2.2089e-06 1.0067e-06 -1.8589e-07
0.00148208 -0.000490284 -2.18523e-06
-0.000490284 0.000281322 7.2798e-07
-2.18523e-06 7.2798e-07 -4.1035e-05
0.00187251 -0.000600574 6.72509e-07
-0.000600574 0.000460517 -2.227e-07
6.72509e-07 -2.227e-07 0.000105826
0.00203553 -0.000686378 -3.02732e-06
-0.000686378 0.000517201 -1.04346e-06
-3.02732e-06 -1.04346e-06 0.000115638
0.00127445 -0.000309669 -4.19044e-06
-0.000309669 0.000290698 8.78434e-07
-4.19044e-06 8.78434e-07 5.61239e-05
0.00134105 -0.000395317 2.07941e-06
-0.000395317 0.000300999 6.37946e-07
2.07941e-06 6.37946e-07 1.72233e-05
0.00057792 -0.000377209 -3.30938e-07
-0.000377209 -0.000162952 -1.03871e-06
-3.30938e-07 -1.03871e-06 -0.000458084
0.000534111 -0.000166262 -3.32591e-06
-0.000166262 1.10038e-06 3.36765e-06
-3.32591e-06 3.36765e-06 -0.000206825
0.0011176 -0.000306728 -1.42955e-07
-0.000306728 0.000304856 5.04049e-07
-1.42955e-07 5.04049e-07 6.0836e-05
0.000440464 -0.000239005 -5.51596e-06
-0.000239005 -0.000173274 -1.22989e-06
-5.51596e-06 -1.22989e-06 -0.00040958
0.000450406 -1.00618e-05 -5.9951e-06
-1.00618e-05 -4.02698e-05 1.13928e-05
-5.9951e-06 1.13928e-05 -0.000100175
0.000747375 -0.000119008 2.60348e-07
-0.000119008 0.000158268 3.06724e-07
2.60348e-07 3.06724e-07 -2.13144e-05
0.00104033 -0.00019314 9.87972e-07
-0.00019314 0.000381241 -7.34121e-07
9.87972e-07 -7.34121e-07 0.000122267
0.00321093 0.000189466 -1.03878e-06
0.000189466 0.00169493 3.63292e-06
-1.03878e-06 3.63292e-06 0.00167299
0.000418668 7.72631e-06 -6.71208e-08
7.72631e-06 -6.4338e-05 -1.17309e-07
-6.71208e-08 -1.17309e-07 -0.000112715
0.000946254 -9.3265e-05 2.71563e-06
-9.3265e-05 0.000259037 -5.80342e-06
2.71563e-06 -5.80342e-06 0.000133087
0.00299137 0.00013606 6.54426e-06
0.00013606 0.00153965 5.17994e-07
6.54426e-06 5.17994e-07 0.00153567
0.00054726 1.69331e-05 2.66413e-06
1.69331e-05 1.41166e-05 -8.33333e-06
2.66413e-06 -8.33333e-06 -2.60484e-05
0.00283436 0.000118626 4.09376e-05
0.000118626 0.00143521 -3.91201e-06
4.09376e-05 -3.91201e-06 0.0014354
0.00148735 0.000223758 6.47408e-06
0.000223758 0.00061278 4.00639e-06
6.47408e-06 4.00639e-06 0.000427184
0.000793021 0.000123147 6.24877e-07
0.000123147 0.00023505 -8.23075e-07
6.24877e-07 -8.23075e-07 6.39324e-05
0.0011284 0.000114003 1.392e-06
0.000114003 0.000456357 -4.45527e-06
1.392e-06 -4.45527e-06 0.000263662
0.000644638 3.33298e-05 1.71686e-06
3.33298e-05 8.81145e-05 -5.80452e-06
1.71686e-06 -5.80452e-06 -1.51661e-05
0.000687427 7.45982e-05 -1.12619e-07
7.45982e-05 0.000155364 8.73997e-07
-1.12619e-07 8.73997e-07 -5.14417e-07
0.000431241 9.22678e-05 -5.51507e-07
9.22678e-05 2.07168e-06 2.73602e-06
-5.51507e-07 2.73602e-06 -0.000152054
0.00051035 -5.84479e-06 -1.66691e-06
-5.84479e-06 -1.74002e-05 -8.12073e-06
-1.66691e-06 -8.12073e-06 -4.89426e-05
0.000590566 3.09432e-05 -5.22849e-08
3.09432e-05 5.07567e-05 -2.55821e-07
-5.22849e-08 -2.55821e-07 -4.00832e-05
0.000488111 7.7796e-05 -2.90743e-06
7.7796e-05 1.20802e-05 7.90333e-07
-2.90743e-06 7.90333e-07 -0.000114816
0.00263947 -8.50051e-05 -4.03284e-05
-8.50051e-05 0.00130175 -4.3437e-06
-4.03284e-05 -4.3437e-06 0.00130994
0.000454384 -2.00394e-05 1.87407e-06
-2.00394e-05 -5.60039e-05 -1.25241e-07
1.87407e-06 -1.25241e-07 -8.24854e-05
0.000540062 3.84982e-05 -1.49149e-06
3.84982e-05 1.77837e-05 3.26941e-06
-1.49149e-06 3.26941e-06 -6.25478e-05
0.00247164 -6.85447e-05 -5.80977e-06
-6.85447e-05 0.0011922 4.0683e-07
-5.80977e-06 4.0683e-07 0.00120328
0.000473506 -1.24718e-05 -2.14139e-06
-1.24718e-05 -4.93555e-05 5.67417e-06
-2.14139e-06 5.67417e-06 -7.04813e-05
0.00230288 -5.06691e-05 2.2529e-05
-5.06691e-05 0.00108393 4.56746e-06
2.2529e-05 4.56746e-06 0.0010982
-0.00912085 0.000826682 -5.89427e-05
0.000826682 0.00286155 7.76973e-05
-5.89427e-05 7.76973e-05 -0.00219336
0.00577342 0.000237935 -5.40892e-06
0.000237935 0.00311609 -2.68522e-06
-5.40892e-06 -2.68522e-06 0.00142482
-0.00108769 -2.63676e-05 1.30954e-05
-2.63676e-05 -0.000100041 -1.32586e-07
1.30954e-05 -1.32586e-07 -0.000353239
1.50713e-05 8.31975e-05 -2.67878e-06
8.31975e-05 -0.000283407 2.54393e-06
-2.67878e-06 2.54393e-06 -0.000426707
0.00339243 0.000560923 6.72609e-06
0.000560923 0.00172627 9.25181e-06
6.72609e-06 9.25181e-06 0.00143383
0.00137947 0.000138755 -6.59021e-06
0.000138755 0.000584926 -8.71263e-07
-6.59021e-06 -8.71263e-07 0.000375516
0.000685268 6.49737e-05 -5.424e-06
6.49737e-05 0.000108779 -8.84817e-06
-5.424e-06 -8.84817e-06 -3.01474e-05
0.00199412 0.000212806 2.81551e-06
0.000212806 0.00088056 -4.86209e-07
2.81551e-06 -4.86209e-07 0.000745459
-0.000207066 5.84084e-05 -7.18013e-06
5.84084e-05 -0.00040356 4.94524e-06
-7.18013e-06 4.94524e-06 -0.000528104
0.000309967 7.15228e-05 -1.42221e-06
7.15228e-05 1.76089e-05 4.27241e-06
-1.42221e-06 4.27241e-06 -0.000202574
0.00047908 0.000135029 -3.56499e-06
0.000135029 2.5572e-05 -4.67198e-06
-3.56499e-06 -4.67198e-06 -0.000210536
0.00166806 0.000337008 7.1908e-06
0.000337008 0.000786437 -2.11785e-05
7.1908e-06 -2.11785e-05 0.000449517
0.00041767 0.000393428 -9.44133e-06
0.000393428 -0.000109057 2.63796e-05
-9.44133e-06 2.63796e-05 -0.000261099
0.00132555 5.754e-05 -7.47496e-06
5.754e-05 0.000592148 8.1055e-06
-7.47496e-06 8.1055e-06 0.000423191
0.00108546 0.000190124 2.48347e-06
0.000190124 0.000594927 -4.5503e-06
2.48347e-06 -4.5503e-06 0.000320675
-0.0025939 -0.00167883 -0.00103476
-0.00167883 0.000506265 -0.000174899
-0.00103476 -0.000174899 -0.00228779
-0.00344505 -0.00144278 0.000366248
-0.00144278 0.0038998 0.000167003
0.000366248 0.000167003 -0.000538341
0.00580158 0.0010194 -0.000366254
0.0010194 0.00265087 -0.00013272
-0.000366254 -0.00013272 -0.00218629
-0.00177201 -0.0062323 0.0017085
-0.0062323 0.000806777 0.00116981
0.0017085 0.00116981 -0.000494797
0.0207632 -0.00293966 3.03184e-05
-0.00293966 0.00675039 0.00026929
3.03184e-05 0.00026929 0.00479187
-0.00231433 0.00145676 -8.19615e-07
0.00145676 0.00154551 -0.000158578
-8.19615e-07 -0.000158578 -0.00357127
-0.00156359 0.00019879 -0.000332356
0.00019879 0.000113365 -5.10541e-05
-0.000332356 -5.10541e-05 -0.00117032
0.00126585 0.000611196 5.96653e-05
0.000611196 0.00116941 4.48592e-05
5.96653e-05 4.48592e-05 0.000967664
0.0159257 -0.00360939 -0.000444038
-0.00360939 0.00664989 2.21824e-05
-0.000444038 2.21824e-05 0.00454428
-0.00186263 0.00212328 -7.11725e-05
0.00212328 0.000437816 -4.46954e-05
-7.11725e-05 -4.46954e-05 -0.00388239
0.00258823 0.00155418 -1.91907e-05
0.00155418 0.000731678 -6.4863e-05
-1.91907e-05 -6.4863e-05 0.00118936
0.00242379 0.00322228 -0.000282356
0.00322228 -0.00162032 -0.000111346
-0.000282356 -0.000111346 -0.00430504
0.00308302 0.000985295 1.89187e-05
0.000985295 0.00107726 -1.32912e-05
1.89187e-05 -1.32912e-05 0.000765107
0.000996239 0.000462458 -5.65684e-06
0.000462458 0.000277976 -7.19681e-07
-5.65684e-06 -7.19681e-07 0.000110451
0.000602674 0.000154413 -5.94426e-06
0.000154413 0.000240778 -7.93497e-07
-5.94426e-06 -7.93497e-07 5.73737e-05
-0.00196608 0.000206547 -6.62799e-05
0.000206547 -0.000371744 -6.32506e-05
-6.62799e-05 -6.32506e-05 -0.00124237
0.00241391 0.0007035 -3.0409e-05
0.0007035 0.00125025 -2.02159e-05
-3.0409e-05 -2.02159e-05 0.000875303
0.00149283 0.0010655 1.47034e-05
0.0010655 0.000304703 -6.28964e-06
1.47034e-05 -6.28964e-06 -0.000312902
0.000132848 0.00127318 9.92758e-05
0.00127318 -0.00117283 3.80428e-05
9.92758e-05 3.80428e-05 -0.00143769
-0.00567664 -0.000296665 -0.000440955
-0.000296665 -0.0046246 2.37581e-05
-0.000440955 2.37581e-05 -0.00358152
-0.00677458 0.000396984 0.00027412
0.000396984 0.00462709 1.11078e-05
0.00027412 1.11078e-05 -0.000457353
0.00287844 -0.000112388 -9.89701e-05
-0.000112388 0.00194536 3.34612e-05
-9.89701e-05 3.34612e-05 0.000341888
0.00206517 -0.000687616 -3.55058e-05
-0.000687616 0.00102823 -5.00604e-05
-3.55058e-05 -5.00604e-05 0.000569204
0.000195586 -0.0015685 -1.76503e-05
-0.0015685 -0.000527668 4.35153e-05
-1.76503e-05 4.35153e-05 -0.000423106
0.000713127 0.000381013 3.05139e-06
0.000381013 0.00553535 3.12827e-05
3.05139e-06 3.12827e-05 0.00264928
0.001447 -0.00221969 0.000338689
-0.00221969 -0.00137679 -0.000132683
0.000338689 -0.000132683 -0.00403887
0.0169414 0.00250733 0.000517687
0.00250733 0.00751949 -7.54394e-05
0.000517687 -7.54394e-05 0.00552655
0.00195328 -0.00127913 -1.98319e-05
-0.00127913 0.000466424 6.67724e-06
-1.98319e-05 6.67724e-06 4.36803e-05
0.000956407 0.00101687 0.000185114
0.00101687 3.57097e-05 -5.28976e-05
0.000185114 -5.28976e-05 -0.001323
0.00778347 -0.00142238 -0.000116295
-0.00142238 -0.00110398 0.0001088
-0.000116295 0.0001088 -0.00339484
0.00489317 -0.00223522 -1.96502e-05
-0.00223522 0.000327956 2.46458e-05
-1.96502e-05 2.46458e-05 0.000422677
0.00264723 -0.00106467 7.45515e-05
-0.00106467 0.00041584 -1.13125e-05
7.45515e-05 -1.13125e-05 0.000284465
0.0140574 -0.000700524 -1.58905e-05
-0.000700524 0.00297263 9.81538e-06
-1.58905e-05 9.81538e-06 0.00152958
0.00222273 -0.00130045 0.000101137
-0.00130045 -0.0024695 -8.3044e-05
0.000101137 -8.3044e-05 -0.00173375
-0.000595213 -0.000481052 -3.30598e-05
-0.000481052 -0.000809849 1.98201e-05
-3.30598e-05 1.98201e-05 -0.000848499
0.000218258 -0.000456329 -2.83802e-05
-0.000456329 -0.000544134 1.69993e-06
-2.83802e-05 1.69993e-06 -0.000654816
0.00517456 -0.000908798 5.75541e-05
-0.000908798 0.00181848 -1.98386e-05
5.75541e-05 -1.98386e-05 0.00166758
0.000550518 -0.000548355 -2.1025e-05
-0.000548355 -0.000272562 -5.19035e-06
-2.1025e-05 -5.19035e-06 -0.000617277
0.00202619 -0.00076577 -7.64143e-07
-0.00076577 0.000263319 -2.32887e-06
-7.64143e-07 -2.32887e-06 -5.1214e-05
0.00261995 -0.000707682 2.11824e-06
-0.000707682 0.000318031 -3.79847e-06
2.11824e-06 -3.79847e-06 0.000135349
0.001928 -0.000728429 -6.06813e-06
-0.000728429 0.000346597 5.35855e-06
-6.06813e-06 5.35855e-06 -6.96918e-05
0.00198166 -0.000636832 -5.16938e-07
-0.000636832 0.000142682 1.50898e-06
-5.16938e-07 1.50898e-06 -0.000120472
0.0020326 -0.000484164 1.47187e-06
-0.000484164 6.01463e-05 -1.28251e-07
1.47187e-06 -1.28251e-07 -7.60894e-05
0.00124426 -0.000532441 3.75089e-06
-0.000532441 -9.23279e-05 6.77738e-06
3.75089e-06 6.77738e-06 -0.000399709
0.00186482 -0.000459868 -4.32887e-07
-0.000459868 7.80392e-05 1.76428e-06
-4.32887e-07 1.76428e-06 -0.000112136
0.00188353 -0.000410221 -2.77677e-06
-0.000410221 5.05738e-05 8.26375e-07
-2.77677e-06 8.26375e-07 -8.43776e-05
0.00207618 -0.000394434 -4.81932e-06
-0.000394434 0.000250148 9.1693e-07
-4.81932e-06 9.1693e-07 0.000111496
0.0018664 -0.000383544 -2.87248e-06
-0.000383544 0.0001142 3.35951e-06
-2.87248e-06 3.35951e-06 -4.27831e-05
0.00192507 -0.000401787 -3.0366e-06
-0.000401787 0.000186354 -4.32788e-06
-3.0366e-06 -4.32788e-06 1.06997e-05
0.00186704 -0.000482129 -5.57741e-06
-0.000482129 0.00019279 -2.15253e-06
-5.57741e-06 -2.15253e-06 -5.67054e-05
0.00181499 -0.000479853 1.60212e-06
-0.000479853 0.00013536 7.00314e-07
1.60212e-06 7.00314e-07 -0.000109062
0.0017478 -0.000450268 5.77597e-06
-0.000450268 8.19835e-05 7.10118e-06
5.77597e-06 7.10118e-06 -0.000143181
0.00172992 -0.000513587 -6.49885e-06
-0.000513587 0.000290082 -7.89721e-07
-6.49885e-06 -7.89721e-07 -1.53768e-05
0.00159494 -0.000541891 -5.68206e-07
-0.000541891 0.000130068 1.64246e-07
-5.68206e-07 1.64246e-07 -0.000181699
0.00205406 -0.000629488 4.94356e-06
-0.000629488 0.000383993 2.22517e-07
4.94356e-06 2.22517e-07 5.07892e-05
0.00142831 -0.000363008 -7.69892e-06
-0.000363008 0.000324973 5.4005e-06
-7.69892e-06 5.4005e-06 6.1606e-05
0.0015553 -0.000493744 -9.13042e-08
-0.000493744 0.000328787 9.54038e-07
-9.13042e-08 9.54038e-07 7.12472e-06
0.00171219 -0.000588981 1.35621e-06
-0.000588981 0.000361702 -1.87924e-08
1.35621e-06 -1.87924e-08 7.63801e-06
0.000824243 -0.000213542 -6.57128e-06
-0.000213542 0.000106724 5.36107e-06
-6.57128e-06 5.36107e-06 -9.19399e-05
0.00107316 -0.000295771 2.13911e-07
-0.000295771 0.000164428 -9.81508e-07
2.13911e-07 -9.81508e-07 -7.03647e-05
0.000913352 -0.000352606 1.46115e-06
-0.000352606 3.04181e-05 -1.43222e-06
1.46115e-06 -1.43222e-06 -0.000244166
0.000413912 -8.98778e-05 -1.66066e-05
-8.98778e-05 -8.84373e-05 1.40158e-05
-1.66066e-05 1.40158e-05 -0.000164114
0.000662624 -0.000164265 2.03434e-07
-0.000164265 8.95207e-05 9.63089e-07
2.03434e-07 9.63089e-07 -0.000124694
0.000947715 -0.000318595 2.15937e-06
-0.000318595 0.000191727 -2.97248e-07
2.15937e-06 -2.97248e-07 -5.14861e-05
0.00364431 0.000180955 -7.28092e-05
0.000180955 0.00196734 4.15364e-06
-7.28092e-05 4.15364e-06 0.00194975
0.00050082 -2.8756e-05 7.46316e-07
-2.8756e-05 -1.61803e-05 -4.97232e-07
7.46316e-07 -4.97232e-07 -7.85669e-05
0.00155039 -0.000171233 2.51762e-06
-0.000171233 0.000650605 -6.10441e-06
2.51762e-06 -6.10441e-06 0.000459277
0.00211796 0.000117211 3.95248e-05
0.000117211 0.00100788 1.11918e-06
3.95248e-05 1.11918e-06 0.000992663
0.000620124 2.22532e-06 5.9473e-06
2.22532e-06 5.59185e-05 -1.03088e-05
5.9473e-06 -1.03088e-05 7.56024e-06
0.0030875 0.000129684 6.11681e-05
0.000129684 0.0015984 -3.65464e-06
6.11681e-05 -3.65464e-06 0.00159607
0.0012308 0.000249017 6.20374e-06
0.000249017 0.000373695 1.40638e-06
6.20374e-06 1.40638e-06 0.000187537
0.000485601 0.000110406 -1.2961e-06
0.000110406 -1.38007e-05 -2.07914e-07
-1.2961e-06 -2.07914e-07 -0.000171874
0.000579582 0.00012726 1.55499e-06
0.00012726 8.37848e-05 -3.83192e-06
1.55499e-06 -3.83192e-06 -9.57229e-05
0.000610468 0.000117701 -1.75754e-06
0.000117701 0.000120554 2.46727e-06
-1.75754e-06 2.46727e-06 -4.964e-05
0.00063234 7.88124e-05 4.97389e-07
7.88124e-05 0.000123133 3.56632e-07
4.97389e-07 3.56632e-07 -4.63327e-05
0.000781111 6.52545e-05 2.98994e-07
6.52545e-05 0.000168227 -7.36205e-06
2.98994e-07 -7.36205e-06 4.85769e-05
0.000577068 9.2942e-06 -3.57295e-06
9.2942e-06 2.94916e-05 -1.00487e-05
-3.57295e-06 -1.00487e-05 -1.0051e-05
0.000615635 3.07057e-05 4.21355e-07
3.07057e-05 7.50063e-05 -9.01478e-08
4.21355e-07 -9.01478e-08 -2.98565e-05
0.000296246 3.93166e-05 -3.53119e-06
3.93166e-05 -0.000111678 2.50298e-06
-3.53119e-06 2.50298e-06 -0.000246685
0.00277029 -9.87136e-05 -5.30942e-05
-9.87136e-05 0.00138936 -4.23976e-06
-5.30942e-05 -4.23976e-06 0.00139502
0.00045868 -1.0093e-06 7.42237e-07
-1.0093e-06 -4.66477e-05 -2.19931e-07
7.42237e-07 -2.19931e-07 -7.85998e-05
0.00055366 3.161e-05 -2.11595e-06
3.161e-05 3.44164e-05 4.24473e-06
-2.11595e-06 4.24473e-06 -5.86101e-05
0.00261325 -8.53013e-05 -6.32179e-06
-8.53013e-05 0.00128542 4.84377e-07
-6.32179e-06 4.84377e-07 0.00129335
0.000441763 -2.03573e-05 -7.87145e-08
-2.03573e-05 -6.21847e-05 6.62788e-06
-7.87145e-08 6.62788e-06 -8.92062e-05
0.00246587 -6.7971e-05 2.81848e-05
-6.7971e-05 0.00118827 4.64527e-06
2.81848e-05 4.64527e-06 0.00119941
0.000426865 0.000228387 -0.000570868
0.000228387 0.00302586 -3.03891e-05
-0.000570868 -3.03891e-05 0.00120893
-0.0051212 0.000157811 3.57346e-05
0.000157811 0.00370301 4.77567e-06
3.57346e-05 4.77567e-06 -0.00147769
0.00541094 9.82163e-05 -0.000160419
9.82163e-05 0.003099 -4.11371e-05
-0.000160419 -4.11371e-05 0.00151828
0.000324297 5.01244e-05 1.04386e-06
5.01244e-05 -9.65247e-05 -5.25293e-06
1.04386e-06 -5.25293e-06 -0.000241302
0.000864651 7.48693e-05 5.34915e-06
7.48693e-05 0.000263148 4.11983e-06
5.34915e-06 4.11983e-06 4.36288e-05
0.00253386 0.000459588 -2.40452e-06
0.000459588 0.00123231 3.05889e-06
-2.40452e-06 3.05889e-06 0.000965771
0.00200992 0.000515852 6.18982e-06
0.000515852 0.000775116 -1.36927e-06
6.18982e-06 -1.36927e-06 0.000419134
0.000348545 0.000239068 -2.03199e-07
0.000239068 -3.54703e-08 -3.25668e-06
-2.03199e-07 -3.25668e-06 -0.000275931
0.000456725 0.000104504 -4.39827e-06
0.000104504 0.000107285 6.97922e-06
-4.39827e-06 6.97922e-06 -0.000121037
0.0006235 0.000145432 9.6437e-06
0.000145432 0.000141374 9.79919e-06
9.6437e-06 9.79919e-06 -8.95709e-05
0.000436309 0.000278821 -6.76592e-06
0.000278821 9.33211e-05 -3.29393e-06
-6.76592e-06 -3.29393e-06 -0.000249914
-0.000522652 0.000337521 5.907e-06
0.000337521 -0.000723046 -7.14318e-06
5.907e-06 -7.14318e-06 -0.000997639
0.00209384 0.000630854 -4.02368e-07
0.000630854 0.000718717 1.53051e-05
-4.02368e-07 1.53051e-05 0.000549044
0.00131827 0.000715285 2.02262e-05
0.000715285 -1.96776e-05 2.64898e-07
2.02262e-05 2.64898e-07 -0.000180916
0.00140423 0.000509081 -8.38602e-06
0.000509081 0.000485816 -2.12788e-06
-8.38602e-06 -2.12788e-06 0.000287453
0.00168079 0.00023402 -7.84472e-06
0.00023402 0.000855358 1.87882e-05
-7.84472e-06 1.87882e-05 0.000618365
0.0133135 0.00184636 -9.16379e-05
0.00184636 0.00216787 6.50119e-05
-9.16379e-05 6.50119e-05 0.000763162
0.000682149 -0.00138431 -0.000411233
-0.00138431 0.00312403 -0.000156659
-0.000411233 -0.000156659 0.00055073
-0.000942884 -0.00232718 0.000465373
-0.00232718 0.00420288 0.000126937
0.000465373 0.000126937 -0.000276127
0.00304162 -0.00216625 0.000192167
-0.00216625 0.0016278 0.000288943
0.000192167 0.000288943 -0.000417681
0.0126346 0.00316307 -6.68543e-05
0.00316307 0.00465215 -4.16135e-05
-6.68543e-05 -4.16135e-05 0.000808814
-0.00270388 0.00017986 -5.77889e-05
0.00017986 -0.000506004 -4.77856e-05
-5.77889e-05 -4.77856e-05 -0.000748082
0.00183751 0.00136255 -3.51345e-05
0.00136255 0.000466687 -1.28255e-05
-3.51345e-05 -1.28255e-05 0.000920343
0.016094 0.00298024 2.0364e-05
0.00298024 0.00435992 3.37075e-05
2.0364e-05 3.37075e-05 0.00212323
0.00631819 0.00269473 -3.31282e-05
0.00269473 0.000440342 -8.60694e-05
-3.31282e-05 -8.60694e-05 0.000431486
0.00187842 0.000987001 1.12715e-05
0.000987001 0.000274005 -4.35548e-06
1.12715e-05 -4.35548e-06 5.09172e-05
0.001466 0.000759484 7.51927e-06
0.000759484 0.000340831 -1.95019e-06
7.51927e-06 -1.95019e-06 6.08337e-05
0.00158618 0.000479606 -2.19178e-05
0.000479606 0.000666309 4.57708e-06
-2.19178e-05 4.57708e-06 0.000498303
0.00263796 0.00124916 -5.59845e-05
0.00124916 0.000792538 -2.05345e-05
-5.59845e-05 -2.05345e-05 0.000188183
0.00180266 0.00144905 4.28267e-05
0.00144905 -0.000496286 2.64287e-05
4.28267e-05 2.64287e-05 -0.000797045
0.00150279 -0.000361846 -8.62132e-05
-0.000361846 -0.00422286 3.94129e-05
-8.62132e-05 3.94129e-05 -0.00450877
0.00127315 -0.00118095 6.78763e-06
-0.00118095 0.00164764 -1.44374e-05
6.78763e-06 -1.44374e-05 0.00127652
-0.00947645 -0.000146053 0.000245512
-0.000146053 0.00470866 -2.15355e-05
0.000245512 -2.15355e-05 -0.000176574
0.00021018 -0.00128371 -3.53625e-05
-0.00128371 -0.000635216 3.92169e-06
-3.53625e-05 3.92169e-06 -0.00125191
0.00388297 -0.00221482 2.75522e-05
-0.00221482 0.000208542 3.28202e-05
2.75522e-05 3.28202e-05 -6.07747e-05
0.00155504 -0.000201628 0.00061037
-0.000201628 0.00327628 -0.000128785
0.00061037 -0.000128785 0.00167595
0.0128556 -0.0016759 -0.000221593
-0.0016759 0.00171627 0.000103977
-0.000221593 0.000103977 0.000252493
0.00155313 -0.00104996 -3.24188e-05
-0.00104996 -0.00010763 -7.51918e-07
-3.24188e-05 -7.51918e-07 -0.000341935
0.0104229 -3.79082e-05 -0.000152465
-3.79082e-05 -0.000173328 4.33376e-05
-0.000152465 4.33376e-05 -0.00117838
0.00637967 -0.00150681 9.80829e-05
-0.00150681 -9.37223e-05 1.48747e-05
9.80829e-05 1.48747e-05 0.000225409
0.00469972 -0.00100328 7.29377e-05
-0.00100328 0.00126051 -2.67222e-05
7.29377e-05 -2.67222e-05 0.000964114
0.00303486 -0.000588203 -5.2804e-05
-0.000588203 -0.00110233 1.93059e-05
-5.2804e-05 1.93059e-05 -0.00038648
-0.00518348 -2.13162e-05 -1.56881e-06
-2.13162e-05 -0.00348906 3.56303e-06
-1.56881e-06 3.56303e-06 -0.00344252
0.00159299 -0.000626926 -1.01548e-05
-0.000626926 -0.000137722 6.81301e-07
-1.01548e-05 6.81301e-07 -0.000168667
0.0030219 -0.000614763 2.92677e-05
-0.000614763 0.000426549 -1.14412e-05
2.92677e-05 -1.14412e-05 0.000477133
0.00110835 -0.000669872 -7.70603e-06
-0.000669872 -0.000208882 7.49072e-06
-7.70603e-06 7.49072e-06 -0.000501543
0.00196806 -0.000647114 -2.78687e-06
-0.000647114 -1.47442e-05 2.74095e-06
-2.78687e-06 2.74095e-06 -0.000192132
0.00225653 -0.000525083 4.62299e-06
-0.000525083 1.69459e-05 -4.47613e-07
4.62299e-06 -4.47613e-07 -2.9109e-05
0.0022477 -0.00065625 -5.85594e-06
-0.00065625 0.000289091 8.5177e-06
-5.85594e-06 8.5177e-06 2.37807e-05
0.00201815 -0.000481231 1.88979e-07
-0.000481231 5.01126e-05 1.41119e-06
1.88979e-07 1.41119e-06 -8.12626e-05
0.00213791 -0.000463715 -8.16458e-07
-0.000463715 0.000108765 9.12252e-07
-8.16458e-07 9.12252e-07 2.34835e-05
0.00190437 -0.000455542 2.94271e-06
-0.000455542 0.000106634 6.03694e-06
2.94271e-06 6.03694e-06 -8.0385e-05
0.00193342 -0.000415625 -1.95679e-07
-0.000415625 7.73753e-05 1.32117e-06
-1.95679e-07 1.32117e-06 -5.67272e-05
0.00206897 -0.000440191 -2.44303e-06
-0.000440191 0.000163348 1.56778e-06
-2.44303e-06 1.56778e-06 3.53412e-05
0.0019828 -0.000394469 -4.10843e-06
-0.000394469 0.000185836 2.9946e-06
-4.10843e-06 2.9946e-06 4.8451e-05
0.00208083 -0.000400013 -1.12266e-06
-0.000400013 0.000277025 -1.66979e-06
-1.12266e-06 -1.66979e-06 0.000130507
0.00196647 -0.00038967 4.38601e-06
-0.00038967 0.00016821 6.72178e-06
4.38601e-06 6.72178e-06 1.45894e-05
0.00193245 -0.000402246 4.03171e-07
-0.000402246 0.000189715 -7.31612e-07
4.03171e-07 -7.31612e-07 1.39048e-05
0.00182889 -0.000413447 -2.76703e-06
-0.000413447 0.000136717 -3.28407e-06
-2.76703e-06 -3.28407e-06 -5.99586e-05
0.00187746 -0.00045565 -4.3666e-06
-0.00045565 0.000273736 -2.53593e-06
-4.3666e-06 -2.53593e-06 1.92558e-05
0.00192659 -0.000488821 -1.96113e-07
-0.000488821 0.000230735 -1.35498e-07
-1.96113e-07 -1.35498e-07 -2.10609e-05
0.00202458 -0.00049584 7.12733e-06
-0.00049584 0.000266299 3.46979e-06
7.12733e-06 3.46979e-06 2.07191e-05
0.00136319 -0.000386446 -8.88959e-06
-0.000386446 0.000173479 2.53425e-06
-8.88959e-06 2.53425e-06 -9.69291e-05
0.0016535 -0.000502276 -1.52468e-06
-0.000502276 0.000250433 -1.07699e-07
-1.52468e-06 -1.07699e-07 -5.41048e-05
0.00160972 -0.000547231 3.88219e-06
-0.000547231 0.000128252 1.04712e-06
3.88219e-06 1.04712e-06 -0.000185734
0.000716281 -0.000205758 -8.98751e-06
-0.000205758 -2.18646e-05 6.61951e-06
-8.98751e-06 6.61951e-06 -0.00021562
0.00119898 -0.000346971 1.924e-06
-0.000346971 0.000177637 5.15149e-07
1.924e-06 5.15149e-07 -8.40176e-05
0.00148843 -0.000481938 3.95164e-06
-0.000481938 0.000292809 1.57695e-07
3.95164e-06 1.57695e-07 -2.49522e-05
0.000491937 -0.00015677 -2.12905e-05
-0.00015677 -6.56182e-05 1.69545e-05
-2.12905e-05 1.69545e-05 -0.000163421
0.000729494 -0.00021472 -4.73789e-07
-0.00021472 5.48819e-05 5.18955e-07
-4.73789e-07 5.18955e-07 -0.000146026
0.000797999 -0.000267509 2.82605e-06
-0.000267509 -8.994e-06 -2.52335e-06
2.82605e-06 -2.52335e-06 -0.000239487
0.00454703 0.000209106 -0.000105247
0.000209106 0.00254045 8.05218e-06
-0.000105247 8.05218e-06 0.00251391
0.000561718 -0.00010505 -5.01011e-07
-0.00010505 4.4994e-06 -8.60571e-07
-5.01011e-07 -8.60571e-07 -7.87498e-05
0.00109309 -0.000193381 3.92516e-06
-0.000193381 0.000357459 -4.02573e-06
3.92516e-06 -4.02573e-06 0.000136892
0.00395517 0.000163708 1.54831e-05
0.000163708 0.00215593 4.17125e-07
1.54831e-05 4.17125e-07 0.00214347
0.000576267 -4.79147e-05 1.31294e-05
-4.79147e-05 2.32573e-05 -1.26149e-05
1.31294e-05 -1.26149e-05 -4.29392e-05
0.00345611 0.000130672 9.37087e-05
0.000130672 0.00183237 -4.18708e-06
9.37087e-05 -4.18708e-06 0.00183007
0.000779075 0.00031576 3.51454e-06
0.00031576 1.65762e-05 -6.04879e-06
3.51454e-06 -6.04879e-06 -0.000249561
0.000872422 0.00022595 2.57047e-06
0.00022595 0.000153466 -1.02459e-06
2.57047e-06 -1.02459e-06 -3.17735e-05
1.40437e-05 0.000109009 3.79835e-06
0.000109009 -0.000302447 -7.12245e-07
3.79835e-06 -7.12245e-07 -0.000485048
-0.000625408 2.47818e-05 -3.36468e-06
2.47818e-05 -0.000681017 -1.23022e-06
-3.36468e-06 -1.23022e-06 -0.000829598
0.000357997 6.85878e-05 3.30411e-08
6.85878e-05 -6.56579e-05 1.08047e-06
3.30411e-08 1.08047e-06 -0.000237075
0.000823052 7.78581e-05 1.3727e-07
7.78581e-05 0.000188149 -7.94254e-06
1.3727e-07 -7.94254e-06 4.86466e-05
0.000358543 4.4434e-05 -1.69819e-06
4.4434e-05 -6.25891e-05 3.19775e-06
-1.69819e-06 3.19775e-06 -0.000217145
0.000568073 5.05509e-05 -1.29067e-07
5.05509e-05 4.30538e-05 -9.07814e-08
-1.29067e-07 -9.07814e-08 -7.48622e-05
0.000595613 1.14481e-05 -5.1461e-06
1.14481e-05 4.11381e-05 -1.21509e-05
-5.1461e-06 -1.21509e-05 -7.43344e-06
0.00304298 -0.00011129 -7.22409e-05
-0.00011129 0.00156673 -4.73216e-06
-7.22409e-05 -4.73216e-06 0.00156933
0.000454325 -1.39571e-06 1.04122e-06
-1.39571e-06 -4.31491e-05 -3.11182e-07
1.04122e-06 -3.11182e-07 -8.294e-05
0.000545187 2.97562e-05 -1.93822e-06
2.97562e-05 3.50409e-05 6.12771e-06
-1.93822e-06 6.12771e-06 -7.00444e-05
0.00277444 -0.000102882 -7.09445e-06
-0.000102882 0.00139251 5.9711e-07
-7.09445e-06 5.9711e-07 0.00139677
0.000381644 -4.20092e-05 -3.85357e-06
-4.20092e-05 -8.93597e-05 7.74754e-06
-3.85357e-06 7.74754e-06 -0.000123328
0.00260622 -8.55947e-05 3.48578e-05
-8.55947e-05 0.0012805 4.53923e-06
3.48578e-05 4.53923e-06 0.00128825
0.0137027 0.000520751 0.000381438
0.000520751 0.00232095 9.49587e-05
0.000381438 9.49587e-05 0.00165601
-0.00210772 -0.00203594 -0.000340501
-0.00203594 -0.00271208 -6.07263e-05
-0.000340501 -6.07263e-05 -0.00401099
-0.00848155 0.00108568 -0.000146986
0.00108568 0.00288927 -0.00010532
-0.000146986 -0.00010532 -0.00278357
0.000173453 2.30995e-05 1.83868e-05
2.30995e-05 -0.000153251 8.88956e-07
1.83868e-05 8.88956e-07 -0.000394033
0.00171623 0.00035588 -1.33526e-05
0.00035588 0.000746948 1.68061e-06
-1.33526e-05 1.68061e-06 0.000511569
0.00179412 0.000401366 -7.07392e-06
0.000401366 0.000839369 -2.64974e-06
-7.07392e-06 -2.64974e-06 0.000526421
0.0017215 0.000481123 6.23604e-07
0.000481123 0.00061901 4.93586e-07
6.23604e-07 4.93586e-07 0.000276528
0.00113429 0.000472252 8.67925e-06
0.000472252 0.000109983 1.21205e-05
8.67925e-06 1.21205e-05 -0.000229248
-0.000647881 0.000282114 1.42883e-05
0.000282114 -0.000814334 4.15379e-07
1.42883e-05 4.15379e-07 -0.00109785
-0.000124106 0.000232968 -8.01383e-06
0.000232968 -0.000178363 5.91556e-06
-8.01383e-06 5.91556e-06 -0.000550567
0.000148002 0.000418377 7.16871e-06
0.000418377 -0.000363275 -2.23478e-07
7.16871e-06 -2.23478e-07 -0.000668968
0.00214078 0.000630044 2.37327e-06
0.000630044 0.00079893 4.32266e-06
2.37327e-06 4.32266e-06 0.000581084
-0.000109301 0.000445069 7.11906e-06
0.000445069 -0.000632918 2.65754e-06
7.11906e-06 2.65754e-06 -0.000855398
0.00267619 0.000793118 2.78002e-06
0.000793118 0.000685849 7.68565e-06
2.78002e-06 7.68565e-06 0.000540161
0.00143143 0.000743217 1.46129e-05
0.000743217 3.88548e-05 4.64874e-06
1.46129e-05 4.64874e-06 -0.00019498
0.000817128 0.000653064 3.37237e-06
0.000653064 -0.000304914 -5.74859e-07
3.37237e-06 -5.74859e-07 -0.000426298
0.000695488 0.000427881 1.99022e-06
0.000427881 9.41809e-05 -2.73803e-05
1.99022e-06 -2.73803e-05 -0.000101118
0.00545617 0.00127075 1.05974e-05
0.00127075 -0.000627262 1.19755e-05
1.05974e-05 1.19755e-05 0.000315069
0.0126565 0.0019372 0.000214261
0.0019372 0.00156663 0.000106603
0.000214261 0.000106603 -9.72879e-05
0.00990655 -0.00297496 0.00032447
-0.00297496 0.00472826 -4.77146e-05
0.00032447 -4.77146e-05 0.00260691
0.00477231 0.00325524 0.000432797
0.00325524 -0.00066812 0.000252233
0.000432797 0.000252233 -0.00473914
0.000207497 0.000934284 -5.35882e-05
0.000934284 5.78549e-05 -6.12451e-06
-5.35882e-05 -6.12451e-06 0.000519977
0.00356545 0.00197356 -0.000109613
0.00197356 -0.000384054 -4.52536e-05
-0.000109613 -4.52536e-05 -0.000125514
0.00553151 0.00171085 7.09883e-05
0.00171085 0.00113822 2.38339e-05
7.09883e-05 2.38339e-05 0.000927967
0.00374088 0.00122633 1.56428e-05
0.00122633 0.00108185 6.05751e-06
1.56428e-05 6.05751e-06 0.000826112
-2.46621e-05 0.000566656 -2.15227e-05
0.000566656 -0.000401153 1.17837e-05
-2.15227e-05 1.17837e-05 -0.000640447
0.00561991 0.00186412 -0.000161439
0.00186412 0.00125085 -1.90516e-05
-0.000161439 -1.90516e-05 0.000875415
0.00288307 -0.000372059 1.02869e-05
-0.000372059 9.80155e-05 2.9116e-06
1.02869e-05 2.9116e-06 0.000263621
0.0108454 -0.000457244 -2.7655e-05
-0.000457244 0.00188199 2.1567e-06
-2.7655e-05 2.1567e-06 0.00146932
-0.0116674 -0.00182102 0.000558926
-0.00182102 -0.00569537 5.60378e-06
0.000558926 5.60378e-06 -0.00584747
-0.00029799 -0.000844113 -8.04829e-05
-0.000844113 -0.00101509 1.45122e-05
-8.04829e-05 1.45122e-05 -0.00122605
0.00864521 -0.00195147 5.33961e-05
-0.00195147 0.000599355 8.51328e-05
5.33961e-05 8.51328e-05 0.00121114
0.00103334 -0.000289117 -0.000206068
-0.000289117 -0.00363795 3.88703e-05
-0.000206068 3.88703e-05 -0.00564367
0.00196656 -0.000732565 1.86757e-05
-0.000732565 -0.00027192 1.90525e-06
1.86757e-05 1.90525e-06 -0.000294761
0.00438755 -0.000476136 -3.14827e-05
-0.000476136 -0.000287894 -5.75026e-06
-3.14827e-05 -5.75026e-06 0.000157371
0.00504309 -0.000679339 3.17386e-05
-0.000679339 0.00110152 -2.28965e-05
3.17386e-05 -2.28965e-05 0.00133962
0.00460681 -0.000288079 8.27339e-05
-0.000288079 0.00112341 5.65546e-06
8.27339e-05 5.65546e-06 0.0010993
-0.00242675 -0.00034507 -2.28306e-06
-0.00034507 -0.002394 8.93674e-06
-2.28306e-06 8.93674e-06 -0.00224374
0.00197711 -0.000547888 -3.27073e-06
-0.000547888 -0.000165273 3.52181e-07
-3.27073e-06 3.52181e-07 -5.88023e-05
0.00207169 -0.000407429 1.93492e-05
-0.000407429 -0.000254176 -4.86637e-06
1.93492e-05 -4.86637e-06 -3.87361e-05
0.00177806 -0.000632025 -1.55807e-06
-0.000632025 -0.000116823 6.17061e-06
-1.55807e-06 6.17061e-06 -0.000296314
0.00220049 -0.000523519 1.5303e-06
-0.000523519 -1.05873e-05 1.07137e-06
1.5303e-06 1.07137e-06 -5.81653e-05
0.00219245 -0.000450529 1.19034e-06
-0.000450529 2.71918e-05 -1.6002e-07
1.19034e-06 -1.6002e-07 1.98291e-05
0.00202085 -0.000480228 7.83231e-07
-0.000480228 4.91034e-05 3.58516e-06
7.83231e-07 3.58516e-06 -7.84456e-05
0.0020668 -0.000453174 3.86756e-07
-0.000453174 7.89996e-05 3.79152e-07
3.86756e-07 3.79152e-07 -5.77916e-06
0.00205644 -0.000405687 -3.22027e-06
-0.000405687 6.67316e-05 5.41215e-07
-3.22027e-06 5.41215e-07 -8.53178e-06
0.00195109 -0.000418901 3.81503e-06
-0.000418901 8.49383e-05 2.07919e-06
3.81503e-06 2.07919e-06 -4.88159e-05
0.0019857 -0.000432497 -1.19622e-07
-0.000432497 0.000130636 1.87747e-07
-1.19622e-07 1.87747e-07 3.39859e-06
0.00189351 -0.000394339 7.32188e-08
-0.000394339 0.000108161 2.86569e-07
7.32188e-08 2.86569e-07 -2.11398e-05
0.00189722 -0.000394752 5.3573e-07
-0.000394752 0.000126731 3.20333e-06
5.3573e-07 3.20333e-06 -9.426e-06
0.00200503 -0.000391045 -2.09405e-06
-0.000391045 0.000225797 3.79212e-07
-2.09405e-06 3.79212e-07 8.31761e-05
0.00201449 -0.000395247 -5.2092e-07
-0.000395247 0.000241867 -1.61108e-06
-5.2092e-07 -1.61108e-06 7.58228e-05
0.00193876 -0.00040165 4.65172e-06
-0.00040165 0.00019273 3.22374e-06
4.65172e-06 3.22374e-06 1.70603e-05
0.00188893 -0.000418868 8.55498e-08
-0.000418868 0.000174318 -3.80484e-07
8.55498e-08 -3.80484e-07 -2.39864e-05
0.00191616 -0.000405009 -1.4717e-06
-0.000405009 0.000252501 -2.25365e-06
-1.4717e-06 -2.25365e-06 3.81606e-05
0.00148811 -0.000372894 -8.67229e-06
-0.000372894 0.000150506 8.83692e-07
-8.67229e-06 8.83692e-07 -9.57615e-05
0.00183012 -0.000455901 -8.53349e-07
-0.000455901 0.000245412 -7.61572e-07
-8.53349e-07 -7.61572e-07 -1.28128e-05
0.00198543 -0.000495705 4.53986e-06
-0.000495705 0.000268792 1.7221e-06
4.53986e-06 1.7221e-06 1.46113e-05
0.000836174 -0.000221615 -1.23274e-05
-0.000221615 -1.55181e-05 7.58558e-06
-1.23274e-05 7.58558e-06 -0.000210641
0.00137053 -0.00038483 -8.85072e-08
-0.00038483 0.000179943 4.74504e-07
-8.85072e-08 4.74504e-07 -8.91418e-05
0.00157431 -0.000491215 2.78524e-06
-0.000491215 0.000208023 6.29459e-07
2.78524e-06 6.29459e-07 -9.57146e-05
0.000436236 -0.000170808 -2.09938e-05
-0.000170808 -0.000121101 1.72703e-05
-2.09938e-05 1.72703e-05 -0.000227863
0.000803275 -0.000214458 3.65384e-07
-0.000214458 3.09599e-05 1.47626e-07
3.65384e-07 1.47626e-07 -0.000165762
0.000922609 -0.000325515 8.30959e-06
-0.000325515 3.21833e-06 -2.68569e-06
8.30959e-06 -2.68569e-06 -0.000255601
0.00557469 0.000147251 -0.0001775
0.000147251 0.00314063 9.96124e-06
-0.0001775 9.96124e-06 0.0031299
0.000483593 -0.000164737 -4.35738e-07
-0.000164737 -7.13607e-05 2.21171e-08
-4.35738e-07 2.21171e-08 -0.000170918
0.00062123 -0.000215455 8.1605e-06
-0.000215455 -7.5845e-06 -5.75916e-06
8.1605e-06 -5.75916e-06 -0.00020919
0.00487194 0.000138642 6.89552e-06
0.000138642 0.00271679 -2.32787e-07
6.89552e-06 -2.32787e-07 0.00270772
0.000450646 -0.000115086 1.75051e-05
-0.000115086 -6.13566e-05 -1.52293e-05
1.75051e-05 -1.52293e-05 -0.000148388
0.00420821 0.000111409 0.000146669
0.000111409 0.00230223 -1.01299e-05
0.000146669 -1.01299e-05 0.0023013
0.000928885 0.000389934 -5.02261e-06
0.000389934 1.46391e-05 -1.31099e-06
-5.02261e-06 -1.31099e-06 -0.000283548
0.00162552 0.000398959 -6.99637e-07
0.000398959 0.000540199 -1.27535e-06
-6.99637e-07 -1.27535e-06 0.00025996
0.000369087 0.000203903 -1.52638e-06
0.000203903 -0.000211636 -2.13765e-06
-1.52638e-06 -2.13765e-06 -0.000429932
0.000664379 0.000221829 -4.73654e-06
0.000221829 4.35572e-05 -2.46849e-06
-4.73654e-06 -2.46849e-06 -0.000148784
-0.00010183 0.000112325 6.60752e-07
0.000112325 -0.000378883 -8.02193e-07
6.60752e-07 -8.02193e-07 -0.000565815
0.00116796 0.000214306 -3.08576e-06
0.000214306 0.000418288 -6.27976e-06
-3.08576e-06 -6.27976e-06 0.000226504
-9.71303e-06 3.72792e-05 -1.53635e-06
3.72792e-05 -0.000299822 1.41083e-06
-1.53635e-06 1.41083e-06 -0.000464945
0.000710562 8.49853e-05 3.20735e-07
8.49853e-05 0.000123573 -3.39987e-07
3.20735e-07 -3.39987e-07 -1.64457e-05
0.000708026 2.96499e-05 -8.62362e-06
2.96499e-05 0.000107967 -1.40585e-05
-8.62362e-06 -1.40585e-05 4.97589e-05
0.000572375 3.17048e-05 -1.45056e-06
3.17048e-05 5.20431e-05 8.3998e-06
-1.45056e-06 8.3998e-06 -6.69286e-05
0.000519362 1.59789e-05 2.13497e-07
1.59789e-05 -2.75525e-06 -1.59756e-07
2.13497e-07 -1.59756e-07 -5.07092e-05
0.00343133 -0.00012651 -9.2133e-05
-0.00012651 0.00181726 -5.3746e-06
-9.2133e-05 -5.3746e-06 0.00181558
0.00300644 -0.000121053 -7.55876e-06
-0.000121053 0.00154544 6.97659e-07
-7.55876e-06 6.97659e-07 0.00154522
0.000380483 1.88416e-05 4.25968e-06
1.88416e-05 -8.81305e-05 9.816e-06
4.25968e-06 9.816e-06 -0.00012659
0.00271484 -0.000102268 4.26007e-05
-0.000102268 0.0013556 4.31208e-06
4.26007e-05 4.31208e-06 0.0013597
0.00399379 0.000124946 8.01583e-05
0.000124946 -0.000900754 2.15904e-05
8.01583e-05 2.15904e-05 0.00016227
0.00411526 -0.000836491 0.000126153
-0.000836491 -0.00358251 6.18089e-05
0.000126153 6.18089e-05 -0.00471871
0.0106385 -0.0021755 -0.00016774
-0.0021755 0.00396935 -7.71827e-05
-0.00016774 -7.71827e-05 0.00357333
0.00122787 0.000494108 8.74503e-06
0.000494108 -1.00863e-05 7.10139e-06
8.74503e-06 7.10139e-06 -0.000312638
0.00344461 0.00057971 -6.1021e-06
0.00057971 0.00180357 6.96239e-06
-6.1021e-06 6.96239e-06 0.00145421
0.00135444 0.000438412 -3.656e-07
0.000438412 0.000414602 -7.57303e-07
-3.656e-07 -7.57303e-07 8.64815e-05
0.00115063 0.000484619 3.16955e-06
0.000484619 0.000259022 1.48461e-06
3.16955e-06 1.48461e-06 -6.60641e-05
0.00139195 0.000499071 -2.2671e-06
0.000499071 0.000280202 2.44904e-06
-2.2671e-06 2.44904e-06 -7.06298e-05
0.00136591 0.000580767 1.6245e-05
0.000580767 0.000205604 1.46357e-05
1.6245e-05 1.46357e-05 -0.000103433
0.00180423 0.000596057 -2.59779e-05
0.000596057 0.000598055 -4.68732e-06
-2.59779e-05 -4.68732e-06 0.000237057
0.000847676 0.000515682 1.55735e-05
0.000515682 8.91384e-05 -1.76651e-05
1.55735e-05 -1.76651e-05 -0.000136022
0.00124576 0.000601048 2.70542e-06
0.000601048 0.000125495 -2.38966e-06
2.70542e-06 -2.38966e-06 -0.000124045
0.00160135 0.000689627 5.0239e-06
0.000689627 4.52201e-05 1.51004e-06
5.0239e-06 1.51004e-06 -2.12302e-05
0.00173263 0.000725946 1.32924e-05
0.000725946 0.000107732 6.4811e-07
1.32924e-05 6.4811e-07 -0.000140213
0.00160447 0.000660604 2.168e-05
0.000660604 9.01673e-05 1.42668e-05
2.168e-05 1.42668e-05 -8.18401e-05
0.000984764 0.000700995 -4.31658e-06
0.000700995 -0.000204304 -5.28478e-06
-4.31658e-06 -5.28478e-06 -0.000424215
0.000765415 0.000638303 -9.80986e-06
0.000638303 -0.000325127 -1.26129e-05
-9.80986e-06 -1.26129e-05 -0.000428556
0.00137077 0.000639529 4.33144e-05
0.000639529 -0.00076636 3.82608e-05
4.33144e-05 3.82608e-05 -0.000574774
0.00586147 0.00133651 -8.23952e-05
0.00133651 -0.00078631 -2.41622e-05
-8.23952e-05 -2.41622e-05 0.000212689
0.0036559 0.00124814 0.000442993
0.00124814 -0.00337627 6.71199e-05
0.000442993 6.71199e-05 -0.00526339
0.000614063 0.00147007 -0.000104616
0.00147007 -0.00137421 -3.8865e-05
-0.000104616 -3.8865e-05 -0.00100749
0.00402921 0.00138319 -3.23369e-05
0.00138319 0.000723458 -7.94525e-06
-3.23369e-05 -7.94525e-06 0.0005677
0.00390749 0.00124847 -0.000117375
0.00124847 0.00111104 -3.16766e-05
-0.000117375 -3.16766e-05 0.000848107
0.0028096 -0.000269426 -4.882e-05
-0.000269426 -0.000191746 -2.20922e-05
-4.882e-05 -2.20922e-05 4.68171e-05
0.000229331 -0.00020241 5.37375e-05
-0.00020241 -0.000455442 1.24691e-05
5.37375e-05 1.24691e-05 -5.69592e-05
0.00198513 0.000853528 0.000154205
0.000853528 -0.00444882 -4.59301e-06
0.000154205 -4.59301e-06 -0.00465368
-0.000819145 -0.000508096 -3.1827e-05
-0.000508096 -0.00174427 4.90144e-05
-3.1827e-05 4.90144e-05 -0.00155813
0.00597429 -0.000501736 -0.000118954
-0.000501736 0.000641794 3.62768e-05
-0.000118954 3.62768e-05 0.00067632
0.00249404 -0.000503282 -2.29731e-05
-0.000503282 -0.000237202 1.04222e-05
-2.29731e-05 1.04222e-05 5.50051e-05
0.00401735 -0.000319649 -1.27201e-06
-0.000319649 0.000694761 -3.33041e-06
-1.27201e-06 -3.33041e-06 0.000719785
0.0022898 -0.000296566 4.65734e-05
-0.000296566 -0.000228562 -7.13315e-06
4.65734e-05 -7.13315e-06 7.00901e-05
0.00351173 -8.82955e-05 3.41836e-05
-8.82955e-05 0.00105349 -1.61879e-06
3.41836e-05 -1.61879e-06 0.00102496
0.00087328 -0.000466833 -2.5493e-05
-0.000466833 -0.000770609 1.10511e-05
-2.5493e-05 1.10511e-05 -0.000610271
0.00198746 -0.000420852 -9.69726e-07
-0.000420852 -0.000327807 2.08018e-06
-9.69726e-07 2.08018e-06 -0.000119204
0.00225744 -0.000376189 3.29852e-06
-0.000376189 -0.000144309 -1.59619e-06
3.29852e-06 -1.59619e-06 2.57358e-05
0.00213919 -0.000516817 -2.31316e-06
-0.000516817 -3.44843e-05 2.73613e-06
-2.31316e-06 2.73613e-06 -8.18783e-05
0.00218486 -0.000446219 2.3794e-07
-0.000446219 3.18397e-05 -1.83893e-07
2.3794e-07 -1.83893e-07 2.54157e-05
0.00214401 -0.000363043 -1.39639e-06
-0.000363043 2.14196e-05 -4.63068e-07
-1.39639e-06 -4.63068e-07 8.55579e-06
0.00198948 -0.000441459 3.78256e-07
-0.000441459 4.58261e-05 6.54852e-07
3.78256e-07 6.54852e-07 -3.70172e-05
0.00204587 -0.000411986 -7.69538e-07
-0.000411986 6.85701e-05 1.63007e-07
-7.69538e-07 1.63007e-07 -8.4821e-06
0.00195908 -0.000355868 -1.97547e-06
-0.000355868 8.33919e-05 8.9409e-07
-1.97547e-06 8.9409e-07 -1.58546e-05
0.00190005 -0.000424497 1.08e-06
-0.000424497 9.63247e-05 -7.52824e-07
1.08e-06 -7.52824e-07 -2.99665e-05
0.00187385 -0.000393602 1.13211e-06
-0.000393602 9.23209e-05 -5.24608e-07
1.13211e-06 -5.24608e-07 -3.76511e-05
0.00189563 -0.000369636 5.9872e-07
-0.000369636 0.00012574 -1.49423e-06
5.9872e-07 -1.49423e-06 -1.49547e-05
0.00193223 -0.000382298 -2.33498e-06
-0.000382298 0.000176711 2.91435e-06
-2.33498e-06 2.91435e-06 3.79725e-05
0.00205436 -0.000394995 -1.88985e-06
-0.000394995 0.000261028 5.93426e-07
-1.88985e-06 5.93426e-07 9.90223e-05
0.00198705 -0.000380268 -1.09492e-06
-0.000380268 0.000261065 -1.75181e-06
-1.09492e-06 -1.75181e-06 7.31598e-05
0.00194891 -0.000424768 2.99163e-06
-0.000424768 0.000211632 2.34355e-06
2.99163e-06 2.34355e-06 1.15619e-05
0.00192236 -0.000407643 6.57941e-07
-0.000407643 0.00025674 -5.40379e-07
6.57941e-07 -5.40379e-07 4.20112e-05
0.00161028 -0.000337292 -6.71481e-06
-0.000337292 0.000177923 1.01939e-06
-6.71481e-06 1.01939e-06 -4.2058e-05
0.000915277 -0.000223993 -1.35363e-05
-0.000223993 -2.48712e-05 7.08885e-06
-1.35363e-05 7.08885e-06 -0.000215295
0.00147036 -0.000369083 -1.14337e-06
-0.000369083 0.000147153 -1.38385e-07
-1.14337e-06 -1.38385e-07 -9.97294e-05
0.00178041 -0.000456203 2.72908e-06
-0.000456203 0.000215227 5.23014e-07
2.72908e-06 5.23014e-07 -4.67883e-05
0.000440798 -0.000211447 -2.22889e-05
-0.000211447 -0.000120662 1.78996e-05
-2.22889e-05 1.78996e-05 -0.000243794
0.000846384 -0.00022582 6.69444e-07
-0.00022582 -1.37226e-05 1.21521e-07
6.69444e-07 1.21521e-07 -0.000210573
0.00138111 -0.000383904 8.20943e-06
-0.000383904 0.000187579 -1.56005e-06
8.20943e-06 -1.56005e-06 -8.03312e-05
0.00619896 0.000104252 -0.000221849
0.000104252 0.00350345 1.34617e-05
-0.000221849 1.34617e-05 0.00350009
0.000478474 -0.000213066 -1.13532e-06
-0.000213066 -8.94202e-05 4.15625e-07
-1.13532e-06 4.15625e-07 -0.000204909
0.000801704 -0.000220922 1.10652e-05
-0.000220922 3.05495e-05 -7.07986e-06
1.10652e-05 -7.07986e-06 -0.000169345
0.00582589 0.000130481 -4.84246e-06
0.000130481 0.00329749 -7.05986e-07
-4.84246e-06 -7.05986e-07 0.00328622
0.000569196 -0.000186476 2.2766e-05
-0.000186476 -1.70991e-05 -1.71879e-05
2.2766e-05 -1.71879e-05 -0.000121782
0.00528329 0.000123139 0.000187725
0.000123139 0.00297298 -1.71769e-05
0.000187725 -1.71769e-05 0.00296318
0.00140418 0.000453755 -2.06349e-06
0.000453755 0.00017063 3.34646e-06
-2.06349e-06 3.34646e-06 -0.000130269
0.0014629 0.000448838 -3.84868e-06
0.000448838 0.000335079 -1.06908e-06
-3.84868e-06 -1.06908e-06 2.31709e-05
0.000960961 0.000310345 -6.55752e-06
0.000310345 4.13339e-05 -1.04444e-06
-6.55752e-06 -1.04444e-06 -0.000209009
0.00267096 0.000502557 1.04723e-06
0.000502557 0.00118633 4.04936e-06
1.04723e-06 4.04936e-06 0.000888036
0.000912901 0.000258348 -2.36734e-06
0.000258348 0.000131741 -1.49907e-06
-2.36734e-06 -1.49907e-06 -9.9088e-05
0.00116 0.000224495 -6.77493e-06
0.000224495 0.000368682 -3.33008e-06
-6.77493e-06 -3.33008e-06 0.000162523
-0.000167823 0.000102891 -2.57023e-06
0.000102891 -0.000432518 -1.39753e-06
-2.57023e-06 -1.39753e-06 -0.000620648
0.000750607 0.000119749 -9.89458e-07
0.000119749 0.000150113 -3.57503e-07
-9.89458e-07 -3.57503e-07 -2.64856e-05
0.000614443 6.26947e-05 -1.42662e-05
6.26947e-05 3.9077e-05 -1.54216e-05
-1.42662e-05 -1.54216e-05 -3.4241e-05
0.000416243 5.30178e-05 3.61333e-07
5.30178e-05 -5.98699e-05 8.29353e-06
3.61333e-07 8.29353e-06 -0.000191535
0.00041537 2.47661e-05 -7.51692e-08
2.47661e-05 -6.78032e-05 -4.48905e-07
-7.51692e-08 -4.48905e-07 -0.000125003
0.00388518 -0.000138077 -0.000116484
-0.000138077 0.00210794 -7.05058e-06
-0.000116484 -7.05058e-06 0.00210192
0.00031599 2.03306e-05 5.18867e-06
2.03306e-05 -0.000124762 1.19595e-05
5.18867e-06 1.19595e-05 -0.000171832
0.00333864 -0.000137652 -7.2599e-06
-0.000137652 0.00176145 7.18355e-07
-7.2599e-06 7.18355e-07 0.00175667
0.00295531 -0.000123537 5.17636e-05
-0.000123537 0.00151393 4.23641e-06
5.17636e-05 4.23641e-06 0.0015128
0.000488919 0.000103703 7.22162e-06
0.000103703 -0.00148665 1.61446e-05
7.22162e-06 1.61446e-05 -0.00104546
0.00524109 1.65451e-05 6.24883e-05
1.65451e-05 -0.000134066 1.17356e-05
6.24883e-05 1.17356e-05 0.00076035
0.0127216 0.000775965 -5.44984e-05
0.000775965 0.00263133 7.9593e-07
-5.44984e-05 7.9593e-07 0.00202879
0.00187193 0.000624387 2.08556e-06
0.000624387 0.000335797 4.31171e-06
2.08556e-06 4.31171e-06 3.53959e-05
0.00200444 0.000608551 -2.33407e-07
0.000608551 0.000285344 2.64301e-06
-2.33407e-07 2.64301e-06 7.18889e-06
0.00134754 0.000510117 9.80318e-08
0.000510117 7.514e-05 -3.16915e-06
9.80318e-08 -3.16915e-06 -0.000227343
0.00259337 0.000649789 -4.09736e-06
0.000649789 0.00111459 6.31245e-06
-4.09736e-06 6.31245e-06 0.000757611
0.00171743 0.000530398 -3.99021e-06
0.000530398 0.000496794 -6.1801e-06
-3.99021e-06 -6.1801e-06 0.000132858
0.0017445 0.000626649 6.67648e-06
0.000626649 0.000399209 3.18767e-06
6.67648e-06 3.18767e-06 9.04444e-05
0.00166032 0.000667007 -8.4258e-07
0.000667007 2.2155e-05 -2.31662e-06
-8.4258e-07 -2.31662e-06 -0.000237674
0.00236677 0.000729736 -1.54867e-05
0.000729736 0.000727688 8.3226e-07
-1.54867e-05 8.3226e-07 0.000450033
0.00127656 0.000649861 -2.07547e-07
0.000649861 -0.000170004 1.26958e-05
-2.07547e-07 1.26958e-05 -0.000182926
0.00259974 0.000812646 -1.85206e-06
0.000812646 0.000593684 9.5908e-07
-1.85206e-06 9.5908e-07 0.000328496
0.00257206 0.000710872 -5.3752e-06
0.000710872 0.000409561 2.49681e-06
-5.3752e-06 2.49681e-06 0.000200112
0.00101168 0.000352579 2.61225e-05
0.000352579 -0.000394032 1.77379e-05
2.61225e-05 1.77379e-05 -0.00039373
0.000826452 0.000588644 1.0565e-05
0.000588644 -0.000302105 -2.39676e-06
1.0565e-05 -2.39676e-06 -0.000467738
0.00122447 0.000721466 -2.99263e-05
0.000721466 -8.17292e-05 -3.40316e-06
-2.99263e-05 -3.40316e-06 -0.000306755
0.00277196 0.000728169 2.77633e-06
0.000728169 -3.02943e-05 8.72189e-06
2.77633e-06 8.72189e-06 7.64929e-05
0.00585939 0.000925595 -9.24553e-06
0.000925595 -0.000709662 -3.05434e-05
-9.24553e-06 -3.05434e-05 -0.00010784
0.00373496 0.00115858 -2.388e-05
0.00115858 0.000915617 -4.33422e-05
-2.388e-05 -4.33422e-05 0.000815992
0.00130122 -5.74762e-05 2.6756e-05
-5.74762e-05 -0.000335209 1.60016e-06
2.6756e-05 1.60016e-06 -0.000256657
0.00227271 -0.00019949 -4.46119e-05
-0.00019949 -0.000366447 2.68878e-06
-4.46119e-05 2.68878e-06 -0.000221411
0.00220275 0.00027017 1.63994e-05
0.00027017 -0.000624497 -2.5028e-06
1.63994e-05 -2.5028e-06 -0.000411022
0.000334913 -0.000374123 -4.64278e-05
-0.000374123 -0.00135561 3.91003e-05
-4.64278e-05 3.91003e-05 -0.00105386
0.00316696 -0.000386527 -9.69247e-05
-0.000386527 0.000153856 -5.93355e-06
-9.69247e-05 -5.93355e-06 0.000201546
0.00234413 -0.000311639 7.42013e-06
-0.000311639 -0.000109268 -4.01355e-06
7.42013e-06 -4.01355e-06 0.000166058
0.00248683 -8.69147e-05 -1.12943e-05
-8.69147e-05 0.000392101 4.56569e-07
-1.12943e-05 4.56569e-07 0.000376408
0.00227921 -0.000222392 8.5807e-06
-0.000222392 -1.64078e-05 -3.52696e-07
8.5807e-06 -3.52696e-07 6.00431e-05
0.00221501 -8.45691e-06 7.3539e-06
-8.45691e-06 -1.1719e-05 1.07174e-06
7.3539e-06 1.07174e-06 6.05884e-06
0.00191282 -0.000440593 -1.30332e-05
-0.000440593 -0.000407788 4.3059e-06
-1.30332e-05 4.3059e-06 -0.000204796
0.00227374 -0.000384422 -2.36041e-06
-0.000384422 -0.000121044 5.89005e-07
-2.36041e-06 5.89005e-07 1.64277e-05
0.00221451 -0.000273131 1.40008e-07
-0.000273131 -4.49403e-05 -1.14739e-06
1.40008e-07 -1.14739e-06 3.72614e-06
0.00217151 -0.000443142 -2.93032e-06
-0.000443142 3.09089e-05 6.75855e-07
-2.93032e-06 6.75855e-07 2.42116e-05
0.00213784 -0.000360031 -1.57022e-07
-0.000360031 2.9374e-05 3.40042e-08
-1.57022e-07 3.40042e-08 1.21995e-05
0.00205952 -0.000306166 -1.60925e-06
-0.000306166 4.204e-05 4.69152e-07
-1.60925e-06 4.69152e-07 -5.12004e-06
0.00203624 -0.00041865 4.39623e-07
-0.00041865 7.08263e-05 -1.06987e-06
4.39623e-07 -1.06987e-06 -8.35368e-06
0.00195444 -0.000353966 5.82396e-07
-0.000353966 7.72772e-05 -2.98841e-07
5.82396e-07 -2.98841e-07 -2.21282e-05
0.00196015 -0.000327421 -8.60548e-07
-0.000327421 0.000118987 3.53893e-08
-8.60548e-07 3.53893e-08 3.41008e-06
0.00184902 -0.000392576 1.80595e-06
-0.000392576 7.3708e-05 -1.1636e-06
1.80595e-06 -1.1636e-06 -5.68924e-05
0.00192308 -0.000371282 2.72204e-07
-0.000371282 0.000140775 -5.0688e-07
2.72204e-07 -5.0688e-07 -4.09573e-07
0.00189374 -0.000345932 -5.16813e-07
-0.000345932 0.000163898 -1.55525e-06
-5.16813e-07 -1.55525e-06 -8.88669e-07
0.00208976 -0.000394509 -1.46846e-06
-0.000394509 0.000277161 3.46703e-06
-1.46846e-06 3.46703e-06 0.000119216
0.00197529 -0.000380098 -5.78351e-07
-0.000380098 0.000254707 -1.07937e-07
-5.78351e-07 -1.07937e-07 6.79462e-05
0.00158846 -0.000307912 -5.39042e-06
-0.000307912 0.000128619 7.79066e-07
-5.39042e-06 7.79066e-07 -7.30349e-05
0.00193261 -0.00041047 3.37094e-06
-0.00041047 0.000263514 1.33608e-06
3.37094e-06 1.33608e-06 4.83702e-05
0.00163675 -0.000340652 -4.78797e-07
-0.000340652 0.000194191 2.03329e-08
-4.78797e-07 2.03329e-08 -2.52639e-05
0.000963451 -0.000209303 -1.43416e-05
-0.000209303 -2.99447e-05 6.7094e-06
-1.43416e-05 6.7094e-06 -0.000211339
0.000374886 -0.00018829 -1.99205e-05
-0.00018829 -0.000176249 1.66702e-05
-1.99205e-05 1.66702e-05 -0.000296345
0.000950483 -0.00022772 2.31921e-07
-0.00022772 -7.10832e-06 7.1132e-08
2.31921e-07 7.1132e-08 -0.000198414
0.0014591 -0.000365823 5.67942e-06
-0.000365823 0.000147587 -1.34329e-06
5.67942e-06 -1.34329e-06 -0.000100011
0.00643835 2.67245e-05 -0.000250483
2.67245e-05 0.00362756 1.61342e-05
-0.000250483 1.61342e-05 0.00363422
0.000448738 -0.000206676 -1.41492e-06
-0.000206676 -0.000123493 1.00655e-06
-1.41492e-06 1.00655e-06 -0.000242231
0.000891347 -0.000231106 1.23351e-05
-0.000231106 1.0086e-05 -6.71874e-06
1.23351e-05 -6.71874e-06 -0.000188591
0.00630224 7.88182e-05 -1.41469e-06
7.88182e-05 0.00356512 2.08619e-07
-1.41469e-06 2.08619e-07 0.00356269
0.000523881 -0.000217836 2.46767e-05
-0.000217836 -6.67502e-05 -1.78881e-05
2.46767e-05 -1.78881e-05 -0.00018241
0.00603789 0.000102311 0.000219726
0.000102311 0.00341978 -1.8589e-05
0.000219726 -1.8589e-05 0.00341221
0.00164307 0.000515351 -1.50317e-06
0.000515351 0.000178828 4.10554e-06
-1.50317e-06 4.10554e-06 -0.000104723
0.00144623 0.000465969 3.56675e-07
0.000465969 0.000194284 6.39749e-07
3.56675e-07 6.39749e-07 -0.000108311
0.00125946 0.000360449 -6.81465e-06
0.000360449 0.00015247 -3.03252e-07
-6.81465e-06 -3.03252e-07 -0.000107029
0.00173124 0.000479973 1.41876e-06
0.000479973 0.000492539 1.76555e-06
1.41876e-06 1.76555e-06 0.000172959
0.00112995 0.000319029 -1.63992e-06
0.000319029 0.000153249 2.01078e-07
-1.63992e-06 2.01078e-07 -9.62405e-05
0.00101177 0.000228231 -1.04004e-05
0.000228231 0.000200319 -3.9634e-06
-1.04004e-05 -3.9634e-06 2.86587e-06
0.00134166 0.000302879 -1.78276e-06
0.000302879 0.000402348 -2.39423e-07
-1.78276e-06 -2.39423e-07 0.00016141
0.000697478 0.000196802 4.50939e-07
0.000196802 9.14865e-05 1.05037e-06
4.50939e-07 1.05037e-06 -0.000115282
0.000562964 0.000143542 -2.36149e-05
0.000143542 -8.45596e-06 -1.64491e-05
-2.36149e-05 -1.64491e-05 -9.82404e-05
0.000234628 7.0844e-05 4.86174e-07
7.0844e-05 -0.00016525 5.27527e-06
4.86174e-07 5.27527e-06 -0.000336675
0.000542392 5.4127e-05 -9.48221e-07
5.4127e-05 3.91237e-07 -3.97272e-07
-9.48221e-07 -3.97272e-07 -6.96044e-05
0.00465502 -0.000151945 -0.00014922
-0.000151945 0.00259407 -1.03703e-05
-0.00014922 -1.03703e-05 0.00258166
0.000421641 2.1526e-05 7.14675e-06
2.1526e-05 -6.05184e-05 1.38277e-05
7.14675e-06 1.38277e-05 -0.000117786
0.00378617 -0.00015913 -7.09916e-06
-0.00015913 0.00205158 7.17443e-07
-7.09916e-06 7.17443e-07 0.00204015
0.00325689 -0.00014534 6.57065e-05
-0.00014534 0.00171216 4.44034e-06
6.57065e-05 4.44034e-06 0.0017049
0.000905101 0.000109333 2.28e-05
0.000109333 -0.00055461 1.79977e-05
2.28e-05 1.79977e-05 -0.000397491
0.00247854 0.000118276 -9.87126e-06
0.000118276 -0.000680044 -3.96123e-06
-9.87126e-06 -3.96123e-06 -0.000198728
0.00385371 0.000180789 0.000182446
0.000180789 -0.00140403 5.3291e-05
0.000182446 5.3291e-05 -1.0956e-05
0.00255454 0.000675209 -7.91256e-06
0.000675209 0.000548307 -5.53373e-07
-7.91256e-06 -5.53373e-07 0.000280227
0.00169847 0.000626701 -6.13598e-06
0.000626701 0.000218508 -4.41599e-06
-6.13598e-06 -4.41599e-06 -7.73614e-05
0.00206898 0.000507071 -8.49764e-07
0.000507071 0.000178622 3.99259e-06
-8.49764e-07 3.99259e-06 -3.40679e-05
0.00198854 0.000598125 1.10734e-06
0.000598125 0.000275427 3.54272e-07
1.10734e-06 3.54272e-07 9.55848e-08
0.00147812 0.0005268 1.46781e-07
0.0005268 0.000165059 -9.61636e-06
1.46781e-07 -9.61636e-06 -0.000137538
0.00188686 0.000526324 -2.75777e-06
0.000526324 7.05842e-06 8.28052e-07
-2.75777e-06 8.28052e-07 -0.00018553
0.00238405 0.000700956 -6.93597e-06
0.000700956 0.000745141 -3.6305e-06
-6.93597e-06 -3.6305e-06 0.000431763
0.00215022 0.000698907 -2.20781e-07
0.000698907 0.000319669 -5.19495e-07
-2.20781e-07 -5.19495e-07 5.18492e-05
0.00198932 0.000387409 -1.00909e-05
0.000387409 -8.68156e-05 1.98016e-07
-1.00909e-05 1.98016e-07 -0.000137314
0.00301627 0.000863418 -4.08029e-06
0.000863418 0.00081602 5.37011e-06
-4.08029e-06 5.37011e-06 0.000550532
0.00232179 0.000691796 -6.56588e-07
0.000691796 0.000267397 -4.59187e-07
-6.56588e-07 -4.59187e-07 5.77959e-05
0.000711728 0.000346957 3.66415e-06
0.000346957 -0.000524539 2.80336e-06
3.66415e-06 2.80336e-06 -0.000529281
-0.000632956 0.000467513 -2.05459e-05
0.000467513 -0.00105884 -6.57399e-06
-2.05459e-05 -6.57399e-06 -0.00120414
0.00336557 0.000795534 -9.4205e-05
0.000795534 0.000251926 -3.37582e-05
-9.4205e-05 -3.37582e-05 0.000288024
0.00202727 6.63612e-05 -1.57202e-06
6.63612e-05 -0.000154047 -9.07753e-07
-1.57202e-06 -9.07753e-07 -9.57857e-05
0.00248126 -6.42484e-05 6.64991e-06
-6.42484e-05 0.000426354 -2.17397e-08
6.64991e-06 -2.17397e-08 0.000487211
0.00226629 -0.000176744 -7.37676e-05
-0.000176744 -0.000292498 9.59805e-06
-7.37676e-05 9.59805e-06 -0.000186113
0.00225183 -0.000323109 -5.4026e-05
-0.000323109 -7.41423e-05 8.39976e-06
-5.4026e-05 8.39976e-06 0.000166886
0.00140672 -9.73579e-05 -9.85291e-06
-9.73579e-05 -0.000299426 2.63422e-06
-9.85291e-06 2.63422e-06 -0.000302447
0.00225975 -0.000220837 2.61767e-07
-0.000220837 -3.72727e-05 -1.60102e-06
2.61767e-07 -1.60102e-06 5.80952e-05
0.00226254 -9.19504e-06 -2.39638e-06
-9.19504e-06 -1.17878e-05 1.51703e-06
-2.39638e-06 1.51703e-06 1.34609e-05
0.00226785 -7.3541e-05 -1.03524e-07
-7.3541e-05 -1.60807e-05 -6.27774e-08
-1.03524e-07 -6.27774e-08 2.99067e-05
0.00229088 -0.00038928 -5.16444e-06
-0.00038928 -9.23808e-05 9.81271e-07
-5.16444e-06 9.81271e-07 1.39268e-05
0.00217956 -0.000263236 4.19351e-07
-0.000263236 -4.84408e-05 -2.31991e-07
4.19351e-07 -2.31991e-07 -6.85131e-06
0.00212361 -0.000206837 -3.51048e-07
-0.000206837 4.12996e-06 -2.38883e-07
-3.51048e-07 -2.38883e-07 1.54607e-05
0.00213602 -0.000357223 7.11039e-07
-0.000357223 3.99592e-05 1.35372e-07
7.11039e-07 1.35372e-07 1.88394e-05
0.00205276 -0.000303087 1.08033e-07
-0.000303087 4.30861e-05 1.5916e-07
1.08033e-07 1.5916e-07 -4.41684e-06
0.00203008 -0.000261792 -1.99634e-06
-0.000261792 0.000105454 5.98495e-07
-1.99634e-06 5.98495e-07 2.58566e-05
0.00194904 -0.000351968 2.48934e-06
-0.000351968 7.01896e-05 -1.23914e-06
2.48934e-06 -1.23914e-06 -2.93728e-05
0.00192905 -0.000325307 4.2718e-07
-0.000325307 9.73958e-05 -3.25072e-07
4.2718e-07 -3.25072e-07 -1.83908e-05
0.0018899 -0.000297722 -2.19508e-07
-0.000297722 0.000117095 -1.14821e-06
-2.19508e-07 -1.14821e-06 -1.98531e-05
0.00195591 -0.000373348 5.24358e-07
-0.000373348 0.000159004 3.82401e-07
5.24358e-07 3.82401e-07 1.72733e-05
0.00192185 -0.000347067 -3.8739e-07
-0.000347067 0.000182879 -1.16956e-07
-3.8739e-07 -1.16956e-07 1.80647e-05
0.00163411 -0.000280272 -3.39393e-06
-0.000280272 0.000119138 4.26088e-07
-3.39393e-06 4.26088e-07 -6.50092e-05
0.00196404 -0.000379841 6.29337e-07
-0.000379841 0.000248466 1.6597e-06
6.29337e-07 1.6597e-06 6.29034e-05
0.00162069 -0.000310034 -4.22606e-07
-0.000310034 0.000147908 9.48175e-08
-4.22606e-07 9.48175e-08 -5.35487e-05
0.000987003 -0.000188927 -1.44634e-05
-0.000188927 -3.48417e-05 5.9966e-06
-1.44634e-05 5.9966e-06 -0.000207947
0.00166045 -0.000343791 5.65986e-06
-0.000343791 0.000208836 -7.05737e-07
5.65986e-06 -7.05737e-07 -1.00491e-05
0.0010062 -0.000211024 8.83279e-08
-0.000211024 -6.7301e-06 9.79269e-08
8.83279e-08 9.79269e-08 -0.000187856
0.00264872 -0.000160161 -4.29218e-05
-0.000160161 0.00120597 1.08096e-05
-4.29218e-05 1.08096e-05 0.00111163
0.00198829 -8.19947e-05 -0.000229307
-8.19947e-05 0.000876201 2.94298e-05
-0.000229307 2.94298e-05 0.00085759
0.00158055 -0.000187635 -1.07457e-05
-0.000187635 0.000560251 -2.74158e-07
-1.07457e-05 -2.74158e-07 0.00044953
0.00098027 -0.000231104 1.34103e-05
-0.000231104 7.82003e-06 -6.53699e-06
1.34103e-05 -6.53699e-06 -0.000184352
0.00648824 9.79743e-06 -6.98223e-06
9.79743e-06 0.00366506 5.64022e-07
-6.98223e-06 5.64022e-07 0.00366815
0.000480607 -0.000232484 2.46418e-05
-0.000232484 -0.000104404 -1.75332e-05
2.46418e-05 -1.75332e-05 -0.000225549
0.00638079 5.8016e-05 0.000242616
5.8016e-05 0.00361823 -2.19991e-05
0.000242616 -2.19991e-05 0.00361323
0.0020891 0.00038839 1.52442e-07
0.00038839 0.00017159 8.02511e-07
1.52442e-07 8.02511e-07 9.60402e-06
0.00195993 0.000498978 2.40448e-06
0.000498978 0.000254384 4.55087e-06
2.40448e-06 4.55087e-06 1.27175e-05
0.00192527 0.000540039 1.03493e-07
0.000540039 0.000343405 1.77544e-07
1.03493e-07 1.77544e-07 5.83215e-05
0.00147883 0.000397421 -5.88549e-06
0.000397421 0.000199361 5.54162e-07
-5.88549e-06 5.54162e-07 -5.76322e-05
0.00150721 0.000481618 4.26559e-06
0.000481618 0.000227631 -1.81325e-06
4.26559e-06 -1.81325e-06 -7.7733e-05
0.00129444 0.000364184 -2.17405e-07
0.000364184 0.000172776 3.62272e-07
-2.17405e-07 3.62272e-07 -8.81201e-05
0.000866217 0.000216954 -1.19182e-05
0.000216954 3.13714e-05 -5.40929e-06
-1.19182e-05 -5.40929e-06 -0.000157914
0.00134761 0.00033189 5.79811e-06
0.00033189 0.000296373 2.11174e-06
5.79811e-06 2.11174e-06 4.68661e-05
0.000696282 0.00020074 9.62417e-07
0.00020074 1.20609e-06 4.14932e-07
9.62417e-07 4.14932e-07 -0.000190954
0.000583975 0.000215291 -2.62695e-05
0.000215291 -1.08888e-05 -1.76525e-05
-2.62695e-05 -1.76525e-05 -0.00012141
0.000347155 0.000160339 2.95526e-06
0.000160339 -0.000127125 2.95206e-06
2.95526e-06 2.95206e-06 -0.000329889
0.000593376 0.000122889 -8.71871e-07
0.000122889 1.03912e-05 -7.1228e-07
-8.71871e-07 -7.1228e-07 -7.68132e-05
0.00554556 -0.000149593 -0.000192201
-0.000149593 0.00315007 -1.72754e-05
-0.000192201 -1.72754e-05 0.00313012
0.000322449 4.6899e-05 1.09321e-05
4.6899e-05 -0.000130273 1.54625e-05
1.09321e-05 1.54625e-05 -0.000196614
0.00435241 -0.00017963 -1.01851e-05
-0.00017963 0.00241331 9.29049e-07
-1.01851e-05 9.29049e-07 0.00239454
0.00364943 -0.000167502 8.38426e-05
-0.000167502 0.00196819 5.00439e-06
8.38426e-05 5.00439e-06 0.00195444
0.00215442 0.000198648 -4.27322e-06
0.000198648 -0.000101721 -4.45235e-07
-4.27322e-06 -4.45235e-07 -3.736e-05
0.00208349 7.53386e-05 2.42436e-05
7.53386e-05 4.32298e-05 -2.79417e-06
2.42436e-05 -2.79417e-06 0.000196707
0.00521849 0.000180971 -0.000109072
0.000180971 0.0005631 -1.18588e-05
-0.000109072 -1.18588e-05 0.00105565
0.00201065 0.000456931 -5.14872e-06
0.000456931 0.0001026 1.41018e-06
-5.14872e-06 1.41018e-06 -7.45905e-05
0.00210637 0.000627764 -3.22077e-06
0.000627764 0.000311929 -1.94301e-07
-3.22077e-06 -1.94301e-07 5.07052e-05
0.00161939 0.000637447 -5.27704e-06
0.000637447 0.000154116 -8.77034e-06
-5.27704e-06 -8.77034e-06 -0.000137761
0.00219712 0.000501641 3.12047e-06
0.000501641 0.000274068 1.39271e-06
3.12047e-06 1.39271e-06 6.43392e-05
0.00194762 0.000586841 9.96136e-07
0.000586841 0.000251306 -3.5741e-06
9.96136e-07 -3.5741e-06 -2.12844e-05
0.00230586 0.000375441 -5.22527e-07
0.000375441 9.68989e-05 3.61602e-07
-5.22527e-07 3.61602e-07 3.48498e-05
0.00188999 0.000529087 -1.9159e-07
0.000529087 3.34685e-05 5.99505e-07
-1.9159e-07 5.99505e-07 -0.00016017
0.00265316 0.000732759 -4.09286e-06
0.000732759 0.000626341 -1.19437e-06
-4.09286e-06 -1.19437e-06 0.000347746
0.00201628 0.000383598 -3.79557e-07
0.000383598 -6.13678e-05 -5.24833e-07
-3.79557e-07 -5.24833e-07 -0.000110835
0.00213504 0.000675199 1.26237e-05
0.000675199 0.000152488 1.55737e-06
1.26237e-05 1.55737e-06 -5.89197e-05
0.000752993 0.000343734 -3.76755e-05
0.000343734 -0.00047874 -1.66622e-05
-3.76755e-05 -1.66622e-05 -0.000489571
0.00224179 7.31357e-05 1.68911e-07
7.31357e-05 -1.00056e-05 4.46146e-07
1.68911e-07 4.46146e-07 3.32276e-05
0.00218339 7.76962e-05 -1.9771e-06
7.76962e-05 -4.13245e-05 2.32025e-07
-1.9771e-06 2.32025e-07 1.13158e-05
0.00324218 -5.95095e-05 -4.08884e-05
-5.95095e-05 0.000942893 2.56762e-06
-4.08884e-05 2.56762e-06 0.000984799
0.00221798 -0.000216421 -1.46175e-05
-0.000216421 -7.43805e-05 2.38563e-06
-1.46175e-05 2.38563e-06 3.86854e-05
0.00231404 -6.36718e-06 -3.84527e-06
-6.36718e-06 -1.38971e-05 -2.77732e-06
-3.84527e-06 -2.77732e-06 1.86339e-05
0.0022244 -7.94879e-05 -5.75121e-07
-7.94879e-05 -6.1351e-05 -8.44921e-08
-5.75121e-07 -8.44921e-08 -7.4745e-06
0.002011 -6.51615e-05 -4.67332e-07
-6.51615e-05 -9.40518e-06 3.02822e-07
-4.67332e-07 3.02822e-07 -2.09813e-06
0.00214108 -0.000252261 -1.5946e-08
-0.000252261 -5.27116e-05 6.33736e-07
-1.5946e-08 6.33736e-07 -1.81957e-05
0.00207894 -0.000210548 -1.6553e-07
-0.000210548 -1.45029e-05 -2.46712e-08
-1.6553e-07 -2.46712e-08 -8.61293e-06
0.0020385 -0.000178986 -1.49847e-06
-0.000178986 6.88237e-05 -8.48633e-08
-1.49847e-06 -8.48633e-08 2.47718e-05
0.00204776 -0.000300181 1.8151e-06
-0.000300181 4.53006e-05 -7.23347e-08
1.8151e-06 -7.23347e-08 -2.55528e-06
0.00197734 -0.000258757 3.14533e-07
-0.000258757 6.87181e-05 -9.10452e-08
3.14533e-07 -9.10452e-08 -1.09753e-05
0.00190508 -0.000236721 -6.58854e-07
-0.000236721 8.39338e-05 -8.91374e-07
-6.58854e-07 -8.91374e-07 -2.58183e-05
0.00189855 -0.000323123 1.79082e-06
-0.000323123 7.61481e-05 -5.8032e-07
1.79082e-06 -5.8032e-07 -3.98152e-05
0.00194419 -0.000300587 -2.91625e-07
-0.000300587 0.00015012 -1.5234e-08
-2.91625e-07 -1.5234e-08 1.28197e-05
0.00168562 -0.00024253 -2.19515e-06
-0.00024253 0.000115986 1.25844e-07
-2.19515e-06 1.25844e-07 -4.95568e-05
0.0019475 -0.000348101 3.47707e-07
-0.000348101 0.000200286 1.11736e-06
3.47707e-07 1.11736e-06 3.5446e-05
0.00166859 -0.00028239 -3.38649e-07
-0.00028239 0.000139037 3.52722e-08
-3.38649e-07 3.52722e-08 -4.48786e-05
0.00100564 -0.000168692 -1.38608e-05
-0.000168692 -4.01934e-05 4.99599e-06
-1.38608e-05 4.99599e-06 -0.000206461
0.00165265 -0.000312186 4.33458e-06
-0.000312186 0.000166965 -6.14762e-07
4.33458e-06 -6.14762e-07 -3.43037e-05
0.00103447 -0.000190137 -3.54406e-08
-0.000190137 -9.94526e-06 1.56849e-07
-3.54406e-08 1.56849e-07 -0.000182364
0.00266221 -0.000158844 -5.10473e-05
-0.000158844 0.00120388 1.02903e-05
-5.10473e-05 1.02903e-05 0.00111761
0.00104632 -0.000212944 1.43941e-05
-0.000212944 1.48397e-05 -6.36392e-06
1.43941e-05 -6.36392e-06 -0.000166084
0.00278322 -0.000200233 4.49628e-05
-0.000200233 0.00128802 -6.66128e-06
4.49628e-05 -6.66128e-06 0.00120076
0.00205383 -0.000120278 -0.000231837
-0.000120278 0.000922664 3.41834e-05
-0.000231837 3.41834e-05 0.000902027
0.00414901 -8.30193e-05 -0.000227279
-8.30193e-05 0.00222475 2.07576e-05
-0.000227279 2.07576e-05 0.00221686
0.00286707 -0.000256223 0.000145498
-0.000256223 0.00135367 -2.25801e-05
0.000145498 -2.25801e-05 0.00126645
0.00653585 -5.75287e-06 0.000258422
-5.75287e-06 0.00370314 -2.61044e-05
0.000258422 -2.61044e-05 0.00370216
0.00228951 0.000387978 -2.08626e-06
0.000387978 0.00028802 -1.55393e-07
-2.08626e-06 -1.55393e-07 0.000148999
0.00178456 0.000383291 2.90974e-06
0.000383291 9.84107e-05 1.71072e-06
2.90974e-06 1.71072e-06 -9.31697e-05
0.00206735 0.000379614 5.49699e-07
0.000379614 0.000163072 -1.80826e-06
5.49699e-07 -1.80826e-06 8.04902e-06
0.00162444 0.000388367 -4.69745e-06
0.000388367 0.000182289 1.11391e-06
-4.69745e-06 1.11391e-06 -5.40202e-05
0.00204228 0.000504852 6.5164e-07
0.000504852 0.000291404 3.91594e-07
6.5164e-07 3.91594e-07 4.89628e-05
0.00221114 0.000565604 1.71349e-06
0.000565604 0.000510191 -3.32119e-06
1.71349e-06 -3.32119e-06 0.000223354
0.00144843 0.000397638 1.83834e-07
0.000397638 0.000174087 4.00046e-07
1.83834e-07 4.00046e-07 -8.43398e-05
0.000927127 0.000238607 -1.37465e-05
0.000238607 -5.92372e-06 -5.57981e-06
-1.37465e-05 -5.57981e-06 -0.000198293
0.0013104 0.000366533 7.99195e-06
0.000366533 0.000180801 1.59634e-06
7.99195e-06 1.59634e-06 -8.13493e-05
0.000777428 0.000209988 -4.24815e-07
0.000209988 -2.26017e-05 -1.48546e-07
-4.24815e-07 -1.48546e-07 -0.000209106
0.000465696 0.00023571 -2.57345e-05
0.00023571 -9.72583e-05 -1.81805e-05
-2.57345e-05 -1.81805e-05 -0.00021724
0.000380642 0.000182829 7.75795e-06
0.000182829 -0.000193839 3.08757e-06
7.75795e-06 3.08757e-06 -0.000382853
0.000396664 0.00018307 2.55683e-06
0.00018307 -0.000129073 4.21438e-07
2.55683e-06 4.21438e-07 -0.000232289
0.00625751 -0.000103949 -0.000223463
-0.000103949 0.00357471 -2.23485e-05
-0.000223463 -2.23485e-05 0.00355611
0.00032989 8.97185e-05 1.74165e-05
8.97185e-05 -0.000148379 1.56883e-05
1.74165e-05 1.56883e-05 -0.000229707
0.00519481 -0.000175377 -4.62016e-06
-0.000175377 0.00293068 -5.62796e-07
-4.62016e-06 -5.62796e-07 0.00291054
0.00414476 -0.000196301 9.93575e-05
-0.000196301 0.00229014 6.49852e-06
9.93575e-05 6.49852e-06 0.00226698
0.00227474 0.000227095 -5.25283e-07
0.000227095 6.36693e-06 4.50848e-07
-5.25283e-07 4.50848e-07 3.55965e-05
0.00209364 0.000203933 1.31383e-06
0.000203933 -0.000127971 1.03526e-07
1.31383e-06 1.03526e-07 -6.50102e-05
0.00293224 4.8092e-05 -8.05053e-05
4.8092e-05 0.000462502 -1.24283e-05
-8.05053e-05 -1.24283e-05 0.00061967
0.00202925 0.000327925 -4.84204e-07
0.000327925 3.12581e-05 2.63263e-07
-4.84204e-07 2.63263e-07 -6.57643e-05
0.00202348 0.00045565 -3.59345e-07
0.00045565 0.000131905 4.32821e-07
-3.59345e-07 4.32821e-07 -4.52097e-05
0.00161261 0.000574039 5.83577e-06
0.000574039 5.01529e-05 -1.89149e-06
5.83577e-06 -1.89149e-06 -0.000202922
0.00233276 0.000496528 4.03841e-07
0.000496528 0.000374336 -2.97851e-06
4.03841e-07 -2.97851e-06 0.000167595
0.00223116 0.000362528 -8.67097e-07
0.000362528 6.27302e-05 -2.49851e-09
-8.67097e-07 -2.49851e-09 2.98728e-06
0.00190541 0.000532778 -1.74981e-06
0.000532778 6.73118e-05 1.51323e-07
-1.74981e-06 1.51323e-07 -0.000127492
0.00194003 0.000373718 1.1084e-05
0.000373718 -7.05895e-05 -2.91333e-07
1.1084e-05 -2.91333e-07 -0.000118681
0.00207375 5.97245e-05 1.12022e-06
5.97245e-05 -4.29264e-07 4.95302e-07
1.12022e-06 4.95302e-07 1.55854e-05
0.00218081 6.97469e-05 8.86224e-08
6.97469e-05 -3.6007e-05 -5.19478e-09
8.86224e-08 -5.19478e-09 5.13524e-06
0.00232222 9.3289e-05 -7.84786e-06
9.3289e-05 6.37026e-05 -3.9748e-07
-7.84786e-06 -3.9748e-07 0.000110331
0.00194668 -1.24042e-05 -3.98243e-06
-1.24042e-05 1.66487e-05 5.33725e-07
-3.98243e-06 5.33725e-07 5.99334e-06
0.00218575 -9.0986e-05 8.88479e-07
-9.0986e-05 -0.000102538 -7.15307e-07
8.88479e-07 -7.15307e-07 -4.08757e-05
0.00203467 -6.79905e-05 -8.15368e-07
-6.79905e-05 1.19344e-07 3.14304e-07
-8.15368e-07 3.14304e-07 8.4475e-06
0.00195708 -0.000102835 -3.88443e-06
-0.000102835 1.50844e-05 3.12018e-07
-3.88443e-06 3.12018e-07 -1.29775e-05
0.00203402 -0.000214093 1.02442e-06
-0.000214093 -3.33312e-05 2.20607e-07
1.02442e-06 2.20607e-07 -3.32516e-05
0.00201122 -0.000176779 1.55552e-06
-0.000176779 5.16511e-05 -4.01648e-07
1.55552e-06 -4.01648e-07 8.03926e-06
0.00195714 -0.000166724 1.45065e-06
-0.000166724 9.66234e-05 -1.26334e-06
1.45065e-06 -1.26334e-06 9.80393e-06
0.00191998 -0.000254858 2.28433e-06
-0.000254858 2.92027e-05 -7.22392e-07
2.28433e-06 -7.22392e-07 -5.04501e-05
0.00195718 -0.000237694 -2.1836e-07
-0.000237694 0.000115098 -1.43632e-07
-2.1836e-07 -1.43632e-07 5.37991e-06
0.00171181 -0.000191568 -1.36682e-06
-0.000191568 0.000109347 -2.27046e-07
-1.36682e-06 -2.27046e-07 -3.70064e-05
0.00199621 -0.000303153 6.18863e-07
-0.000303153 0.000182487 8.71015e-07
6.18863e-07 8.71015e-07 4.48825e-05
0.00170242 -0.000242829 -2.70795e-07
-0.000242829 0.000125032 1.06362e-07
-2.70795e-07 1.06362e-07 -4.00522e-05
0.00102754 -0.000145486 -1.3142e-05
-0.000145486 -4.12361e-05 3.85287e-06
-1.3142e-05 3.85287e-06 -0.000199961
0.00170227 -0.000284355 2.52839e-06
-0.000284355 0.00015861 -3.63003e-07
2.52839e-06 -3.63003e-07 -2.50386e-05
0.00105329 -0.000168844 -1.6433e-07
-0.000168844 -1.51232e-05 2.5247e-07
-1.6433e-07 2.5247e-07 -0.00018039
0.00265006 -0.000157015 -5.86248e-05
-0.000157015 0.00119368 1.00607e-05
-5.86248e-05 1.00607e-05 0.00111064
0.00108271 -0.000191407 1.44321e-05
-0.000191407 1.52213e-05 -5.70451e-06
1.44321e-05 -5.70451e-06 -0.000156457
0.0027439 -0.000183058 4.11296e-05
-0.000183058 0.00125401 -5.30912e-06
4.11296e-05 -5.30912e-06 0.00117394
0.00208904 -0.000103174 -0.000226556
-0.000103174 0.00093708 3.00806e-05
-0.000226556 3.00806e-05 0.000918698
0.00289902 -0.00020965 0.000141585
-0.00020965 0.00135489 -2.38186e-05
0.000141585 -2.38186e-05 0.00127598
0.00174895 -5.87248e-05 -9.66568e-05
-5.87248e-05 0.000737586 1.32761e-05
-9.66568e-05 1.32761e-05 0.000705476
0.00617439 6.24314e-05 7.12976e-05
6.24314e-05 0.00346313 -3.09217e-06
7.12976e-05 -3.09217e-06 0.00344303
0.00205385 0.000326472 1.05864e-06
0.000326472 0.000121991 4.48838e-07
1.05864e-06 4.48838e-07 1.52352e-06
0.002089 0.000360843 3.56176e-07
0.000360843 0.000234725 -1.77427e-07
3.56176e-07 -1.77427e-07 7.22961e-05
0.00216786 0.000383914 -3.94224e-06
0.000383914 0.000203502 -9.24459e-08
-3.94224e-06 -9.24459e-08 6.16501e-05
0.00179977 0.000348484 -1.9535e-06
0.000348484 0.000227947 5.11861e-07
-1.9535e-06 5.11861e-07 1.96795e-05
0.00178727 0.000389364 -5.56785e-07
0.000389364 8.38771e-05 -1.90872e-06
-5.56785e-07 -1.90872e-06 -0.000104409
0.00205145 0.00037128 -4.13033e-06
0.00037128 0.000158171 -5.53228e-06
-4.13033e-06 -5.53228e-06 1.00473e-05
0.0010524 0.000238527 -1.48766e-05
0.000238527 8.98671e-06 -5.22734e-06
-1.48766e-05 -5.22734e-06 -0.000177529
0.00157944 0.000385909 5.89565e-07
0.000385909 0.00015386 3.73618e-07
5.89565e-07 3.73618e-07 -8.29842e-05
0.00212185 0.000510161 2.60472e-06
0.000510161 0.000325845 -3.36193e-06
2.60472e-06 -3.36193e-06 8.27822e-05
0.00141145 0.000396846 6.88505e-06
0.000396846 0.000145932 4.49208e-07
6.88505e-06 4.49208e-07 -0.000113691
0.000884764 0.00023105 -8.81447e-07
0.00023105 -2.46931e-05 3.64892e-08
-8.81447e-07 3.64892e-08 -0.00021473
0.000420294 0.00023252 -2.50196e-05
0.00023252 -0.0001308 -1.71617e-05
-2.50196e-05 -1.71617e-05 -0.000254395
0.000658234 0.000198796 1.1661e-05
0.000198796 -9.42486e-05 5.66188e-06
1.1661e-05 5.66188e-06 -0.000277257
0.000422711 0.00022221 2.19913e-06
0.00022221 -0.000117773 6.12686e-07
2.19913e-06 6.12686e-07 -0.000238171
0.00652564 -1.78339e-05 -0.000245858
-1.78339e-05 0.00372344 -2.81444e-05
-0.000245858 -2.81444e-05 0.00370969
0.000465146 0.000165983 2.33664e-05
0.000165983 -9.05396e-05 1.76842e-05
2.33664e-05 1.76842e-05 -0.000190784
0.00603095 -0.000139238 3.61655e-06
-0.000139238 0.00343253 -1.17559e-06
3.61655e-06 -1.17559e-06 0.00341515
0.00487248 -0.000224215 0.000124639
-0.000224215 0.00274962 8.74554e-06
0.000124639 8.74554e-06 0.00271704
0.00206059 0.000178845 -1.12781e-06
0.000178845 1.97019e-05 -7.87164e-08
-1.12781e-06 -7.87164e-08 2.46007e-06
0.00224129 0.000228768 1.22166e-07
0.000228768 -2.18939e-05 5.87564e-07
1.22166e-07 5.87564e-07 1.00015e-05
0.00210087 0.000209212 3.92682e-06
0.000209212 -0.000129055 1.04998e-07
3.92682e-06 1.04998e-07 -6.68528e-05
0.00207406 0.000325802 -1.8013e-07
0.000325802 6.45981e-05 1.00866e-07
-1.8013e-07 1.00866e-07 -2.83086e-05
0.00201499 0.000452153 1.59843e-06
0.000452153 0.000151106 -6.34352e-07
1.59843e-06 -6.34352e-07 -2.56222e-05
0.0021766 0.000351131 1.60173e-06
0.000351131 3.54533e-05 -4.8746e-07
1.60173e-06 -4.8746e-07 -2.21543e-05
0.00198089 5.92879e-05 -1.93437e-06
5.92879e-05 1.13072e-05 3.56344e-07
-1.93437e-06 3.56344e-07 5.35646e-06
0.00205799 5.50899e-05 3.46718e-07
5.50899e-05 -6.14456e-06 -9.40269e-08
3.46718e-07 -9.40269e-08 7.47605e-06
0.00212156 6.64912e-05 -1.32273e-07
6.64912e-05 -6.24191e-05 -4.50983e-07
-1.32273e-07 -4.50983e-07 -2.26577e-05
0.00194462 -1.27932e-05 -1.1875e-06
-1.27932e-05 1.22225e-05 3.86904e-08
-1.1875e-06 3.86904e-08 1.10343e-06
0.00191695 -3.99094e-05 -5.99141e-06
-3.99094e-05 1.55105e-05 6.41336e-07
-5.99141e-06 6.41336e-07 -1.75597e-05
0.00205987 -7.05722e-05 6.70276e-07
-7.05722e-05 1.0147e-05 -4.30182e-08
6.70276e-07 -4.30182e-08 1.98038e-05
0.00195717 -0.000102191 -1.51796e-06
-0.000102191 2.06313e-05 3.07771e-07
-1.51796e-06 3.07771e-07 -1.04901e-05
0.00197254 -0.000106841 -3.49907e-06
-0.000106841 9.86469e-05 2.607e-07
-3.49907e-06 2.607e-07 3.13598e-05
0.00198951 -0.000175225 4.41114e-06
-0.000175225 3.86463e-05 -7.30312e-07
4.41114e-06 -7.30312e-07 -4.65305e-06
0.001937 -0.000167773 2.67448e-06
-0.000167773 8.08292e-05 -9.01581e-07
2.67448e-06 -9.01581e-07 -6.03536e-06
0.0016923 -0.000137632 1.46217e-06
-0.000137632 8.49839e-05 -5.77152e-07
1.46217e-06 -5.77152e-07 -4.61088e-05
0.00200249 -0.000240159 1.08108e-06
-0.000240159 0.000141126 4.4388e-07
1.08108e-06 4.4388e-07 3.11227e-05
0.00170326 -0.000191926 -2.19052e-07
-0.000191926 0.000100761 -5.36009e-08
-2.19052e-07 -5.36009e-08 -4.54154e-05
0.00104128 -0.000116522 -1.25658e-05
-0.000116522 -4.27585e-05 2.87292e-06
-1.25658e-05 2.87292e-06 -0.000192794
0.0017239 -0.000243531 1.41759e-06
-0.000243531 0.000135802 7.7557e-08
1.41759e-06 7.7557e-08 -2.88728e-05
0.00106328 -0.00014425 -2.95852e-07
-0.00014425 -2.18107e-05 2.48434e-07
-2.95852e-07 2.48434e-07 -0.000179471
0.00259268 -0.000161317 -6.13059e-05
-0.000161317 0.00115808 8.85368e-06
-6.13059e-05 8.85368e-06 0.00107672
0.00110075 -0.00016901 1.38764e-05
-0.00016901 9.59093e-06 -4.60604e-06
1.38764e-05 -4.60604e-06 -0.000154646
0.00271024 -0.000159163 3.94883e-05
-0.000159163 0.00122626 -4.03006e-06
3.94883e-05 -4.03006e-06 0.00115068
0.00211111 -8.66606e-05 -0.000225347
-8.66606e-05 0.000943829 2.54276e-05
-0.000225347 2.54276e-05 0.00092676
0.00282559 -0.000177083 0.000138712
-0.000177083 0.00129747 -2.03621e-05
0.000138712 -2.03621e-05 0.00122662
0.00174572 -6.48021e-05 -8.7633e-05
-6.48021e-05 0.000730251 1.07772e-05
-8.7633e-05 1.07772e-05 0.000700837
0.00148427 -5.61039e-05 5.20275e-05
-5.61039e-05 0.000583494 -7.98119e-06
5.20275e-05 -7.98119e-06 0.000538006
0.00201648 0.000206667 -3.62186e-07
0.000206667 7.25196e-05 8.08156e-07
-3.62186e-07 8.08156e-07 2.37224e-06
0.00202813 0.000299795 -7.50908e-07
0.000299795 0.000164866 6.49451e-07
-7.50908e-07 6.49451e-07 2.58033e-05
0.00202711 0.000327115 -1.01777e-07
0.000327115 8.80967e-05 1.40755e-07
-1.01777e-07 1.40755e-07 -2.7185e-05
0.00190728 0.000318483 -8.62917e-07
0.000318483 0.000245277 4.8865e-07
-8.62917e-07 4.8865e-07 6.25534e-05
0.00201679 0.000354702 -6.26413e-07
0.000354702 0.000199004 -3.21557e-07
-6.26413e-07 -3.21557e-07 3.50732e-05
0.00203895 0.000379859 1.70556e-07
0.000379859 0.000114561 -2.15472e-07
1.70556e-07 -2.15472e-07 -3.02014e-05
0.00111811 0.000218167 -1.53489e-05
0.000218167 2.11694e-05 -4.85887e-06
-1.53489e-05 -4.85887e-06 -0.00015499
0.00171897 0.000347963 2.64901e-06
0.000347963 0.000170743 1.5778e-07
2.64901e-06 1.5778e-07 -3.53396e-05
0.00180041 0.000396241 -1.21472e-06
0.000396241 7.6086e-05 -3.66854e-06
-1.21472e-06 -3.66854e-06 -0.000109013
0.000345486 0.000184786 -2.23806e-05
0.000184786 -0.000197664 -1.42527e-05
-2.23806e-05 -1.42527e-05 -0.000312335
0.000995084 0.000232453 -5.34179e-07
0.000232453 -2.05383e-05 1.06291e-07
-5.34179e-07 1.06291e-07 -0.000205952
0.00153896 0.000384155 6.50933e-06
0.000384155 0.000127388 -2.34787e-07
6.50933e-06 -2.34787e-07 -0.000110166
0.000869967 0.000226068 1.3802e-05
0.000226068 -2.71453e-05 6.3405e-06
1.3802e-05 6.3405e-06 -0.000215344
0.000420028 0.000217271 8.68751e-07
0.000217271 -0.00012818 8.98461e-07
8.68751e-07 8.98461e-07 -0.00025296
0.00667815 8.23903e-05 -0.000260966
8.23903e-05 0.00379804 -3.22013e-05
-0.000260966 -3.22013e-05 0.00378928
0.000389917 0.000205465 2.2604e-05
0.000205465 -0.000135543 1.70572e-05
2.2604e-05 1.70572e-05 -0.000254316
0.00642056 -4.65109e-05 7.04416e-06
-4.65109e-05 0.00364677 -3.76746e-07
7.04416e-06 -3.76746e-07 0.00363999
0.00574435 -0.000170233 0.000175573
-0.000170233 0.00325476 9.68256e-06
0.000175573 9.68256e-06 0.00323622
0.00200909 0.000119923 -4.30104e-06
0.000119923 5.34214e-05 -1.02998e-06
-4.30104e-06 -1.02998e-06 3.11196e-05
0.0020555 0.000181695 9.36662e-07
0.000181695 1.62871e-05 4.0376e-07
9.36662e-07 4.0376e-07 -1.15992e-06
0.00219728 0.000230686 -6.66181e-08
0.000230686 -5.35849e-05 -7.83665e-07
-6.66181e-08 -7.83665e-07 -1.95597e-05
0.00212658 0.000323161 2.8299e-06
0.000323161 0.000102939 -1.59703e-07
2.8299e-06 -1.59703e-07 1.4267e-05
0.00188823 9.67393e-06 -4.92338e-06
9.67393e-06 2.00644e-05 6.45817e-07
-4.92338e-06 6.45817e-07 -2.23428e-05
0.0019572 4.97291e-05 1.14215e-07
4.97291e-05 -2.11778e-06 8.19073e-08
1.14215e-07 8.19073e-08 -9.60139e-06
0.00204288 5.04029e-05 -4.15231e-07
5.04029e-05 -1.04452e-05 -3.34927e-07
-4.15231e-07 -3.34927e-07 5.03469e-08
0.00194082 -1.17571e-05 1.35428e-06
-1.17571e-05 7.03501e-06 -7.34544e-07
1.35428e-06 -7.34544e-07 -4.8056e-06
0.0019203 -3.47166e-05 -1.0272e-06
-3.47166e-05 1.717e-05 -1.18949e-07
-1.0272e-06 -1.18949e-07 -1.496e-05
0.00188897 -4.60445e-05 -1.87933e-06
-4.60445e-05 5.32958e-05 1.79797e-07
-1.87933e-06 1.79797e-07 -1.5421e-05
0.00195407 -0.000101674 2.95456e-06
-0.000101674 2.38324e-05 1.0978e-07
2.95456e-06 1.0978e-07 -1.05499e-05
0.00190812 -0.000106337 -1.78508e-06
-0.000106337 6.23781e-05 5.8893e-07
-1.78508e-06 5.8893e-07 -1.18692e-05
0.00178831 -8.73431e-05 -6.1482e-07
-8.73431e-05 0.000138341 -1.5086e-07
-6.1482e-07 -1.5086e-07 2.57008e-05
0.00192225 -0.000167585 4.64062e-06
-0.000167585 6.80983e-05 -6.2925e-07
4.64062e-06 -6.2925e-07 -1.8551e-05
0.00169478 -0.000135467 1.86466e-06
-0.000135467 8.48756e-05 -5.17316e-07
1.86466e-06 -5.17316e-07 -4.55668e-05
0.00103077 -8.44044e-05 -1.21871e-05
-8.44044e-05 -5.33351e-05 2.10794e-06
-1.21871e-05 2.10794e-06 -0.000195138
0.00170513 -0.00019023 8.24076e-07
-0.00019023 0.000100121 9.16988e-08
8.24076e-07 9.16988e-08 -4.54399e-05
0.0010485 -0.000115388 -1.32822e-07
-0.000115388 -3.75579e-05 1.33068e-07
-1.32822e-07 1.33068e-07 -0.000186941
0.000470442 -8.76058e-05 -1.99838e-05
-8.76058e-05 -0.000167091 5.70024e-06
-1.99838e-05 5.70024e-06 -0.000255742
0.0010955 -0.000142753 1.30408e-05
-0.000142753 -4.12087e-06 -3.45725e-06
1.30408e-05 -3.45725e-06 -0.000160666
0.00158021 -0.000104913 5.74779e-05
-0.000104913 0.000521225 -4.19034e-06
5.74779e-05 -4.19034e-06 0.000442937
0.00621555 -0.00014836 -0.000296824
-0.00014836 0.0034854 2.09713e-05
-0.000296824 2.09713e-05 0.00349944
0.0027858 -0.000143221 0.000136592
-0.000143221 0.00126316 -1.62253e-05
0.000136592 -1.62253e-05 0.00119746
0.00175349 -6.70628e-05 -7.92079e-05
-6.70628e-05 0.000733214 7.07991e-06
-7.92079e-05 7.07991e-06 0.000703806
0.00140165 -8.62003e-05 6.36201e-05
-8.62003e-05 0.000536459 -9.51734e-06
6.36201e-05 -9.51734e-06 0.000489834
0.00201587 0.000154701 -2.62491e-06
0.000154701 9.87166e-05 -1.80506e-07
-2.62491e-06 -1.80506e-07 4.21117e-05
0.00197756 0.000220968 4.5466e-08
0.000220968 0.000118543 1.49727e-06
4.5466e-08 1.49727e-06 9.39368e-06
0.0020026 0.000202646 8.94287e-07
0.000202646 6.8965e-05 4.82191e-07
8.94287e-07 4.82191e-07 -4.14991e-06
0.00182009 0.000257329 -8.514e-07
0.000257329 0.000162364 7.5495e-07
-8.514e-07 7.5495e-07 3.88208e-06
0.00196603 0.000294286 7.60494e-07
0.000294286 0.000129781 7.12073e-08
7.60494e-07 7.12073e-08 -8.72367e-06
0.00200149 0.000328392 5.93493e-07
0.000328392 5.42902e-05 2.17664e-07
5.93493e-07 2.17664e-07 -5.58644e-05
0.00104361 0.000187915 -1.59622e-05
0.000187915 -4.88096e-05 -3.78324e-06
-1.59622e-05 -3.78324e-06 -0.000213406
0.00190695 0.000317481 2.48396e-06
0.000317481 0.000244538 6.04038e-07
2.48396e-06 6.04038e-07 6.22935e-05
0.00193526 0.000347737 -1.37786e-06
0.000347737 0.000158137 -1.27559e-06
-1.37786e-06 -1.27559e-06 -7.20315e-06
0.000353126 0.000131868 -1.94846e-05
0.000131868 -0.000217149 -1.0633e-05
-1.94846e-05 -1.0633e-05 -0.000319427
0.000986608 0.00021157 3.91398e-07
0.00021157 -6.08054e-05 3.5176e-07
3.91398e-07 3.5176e-07 -0.000236243
0.00162746 0.000346586 7.1522e-06
0.000346586 0.000106719 -5.10919e-07
7.1522e-06 -5.10919e-07 -9.69936e-05
0.00662556 0.000163204 -0.000271602
0.000163204 0.00374704 -3.19532e-05
-0.000271602 -3.19532e-05 0.00374523
0.000377393 0.000176844 4.08901e-07
0.000176844 -0.000179054 7.88413e-07
4.08901e-07 7.88413e-07 -0.000294646
0.000930836 0.000225998 1.49753e-05
0.000225998 -5.38038e-05 5.80484e-06
1.49753e-05 5.80484e-06 -0.000238065
0.000369495 0.000201588 2.11118e-05
0.000201588 -0.000155735 1.701e-05
2.11118e-05 1.701e-05 -0.000281471
0.00655154 7.17179e-05 9.87575e-06
7.17179e-05 0.00371267 5.39289e-07
9.87575e-06 5.39289e-07 0.00371084
0.00631903 -7.805e-05 0.000230178
-7.805e-05 0.00357579 1.37003e-05
0.000230178 1.37003e-05 0.00357335
0.00193237 6.45251e-05 -7.44009e-06
6.45251e-05 4.88024e-05 6.15788e-08
-7.44009e-06 6.15788e-08 2.12726e-06
0.00199024 0.00011691 2.39147e-07
0.00011691 3.96737e-05 3.14963e-08
2.39147e-07 3.14963e-08 1.72531e-05
0.00204843 0.000184608 1.49273e-06
0.000184608 1.13456e-05 3.64808e-07
1.49273e-06 3.64808e-07 -5.79096e-06
0.00183744 2.99707e-06 -1.65092e-06
2.99707e-06 3.22132e-05 6.40352e-08
-1.65092e-06 6.40352e-08 -4.18607e-05
0.0019147 1.47538e-05 1.01022e-07
1.47538e-05 3.55953e-05 9.29614e-08
1.01022e-07 9.29614e-08 -3.70379e-06
0.00193607 3.90427e-05 1.3989e-06
3.90427e-05 -1.41757e-05 -4.07463e-07
1.3989e-06 -4.07463e-07 -2.30349e-05
0.0019245 -3.0416e-05 3.00389e-06
-3.0416e-05 1.90261e-05 -4.849e-07
3.00389e-06 -4.849e-07 -1.18337e-05
0.00187209 -4.44334e-05 -1.08037e-06
-4.44334e-05 4.28777e-05 2.49007e-07
-1.08037e-06 2.49007e-07 -2.49246e-05
0.00186836 -3.84287e-05 1.8886e-06
-3.84287e-05 0.000201558 -5.98414e-07
1.8886e-06 -5.98414e-07 9.30137e-05
0.00184149 -0.000105595 -1.08972e-06
-0.000105595 2.51769e-05 7.51923e-07
-1.08972e-06 7.51923e-07 -5.58328e-05
0.00177228 -8.81131e-05 4.86554e-07
-8.81131e-05 0.000132675 2.52129e-08
4.86554e-07 2.52129e-08 1.45907e-05
0.000964935 -4.79104e-05 -1.30754e-05
-4.79104e-05 -9.95927e-05 1.09567e-06
-1.30754e-05 1.09567e-06 -0.000231561
0.00168441 -0.00013523 1.97868e-06
-0.00013523 7.64819e-05 -4.442e-07
1.97868e-06 -4.442e-07 -5.37154e-05
0.00103744 -8.0739e-05 -5.75937e-08
-8.0739e-05 -4.91777e-05 1.45658e-07
-5.75937e-08 1.45658e-07 -0.000190232
0.000476741 -2.25066e-05 -1.85479e-05
-2.25066e-05 -0.000167497 3.51072e-06
-1.85479e-05 3.51072e-06 -0.000251754
0.00107607 -0.000113801 1.23126e-05
-0.000113801 -2.12597e-05 -2.61773e-06
1.23126e-05 -2.61773e-06 -0.000169792
0.000476913 -7.1755e-05 -2.25529e-07
-7.1755e-05 -0.000161679 3.94663e-07
-2.25529e-07 3.94663e-07 -0.000251217
0.00616972 -4.14235e-05 -0.000286963
-4.14235e-05 0.00345236 1.28394e-05
-0.000286963 1.28394e-05 0.00347038
0.000514382 -7.35974e-05 1.51429e-05
-7.35974e-05 -0.000139726 -7.56044e-06
1.51429e-05 -7.56044e-06 -0.000233116
0.00390395 -9.6912e-05 0.000128433
-9.6912e-05 0.00206302 -6.15437e-06
0.000128433 -6.15437e-06 0.00204725
0.00136647 -8.40007e-05 6.96258e-05
-8.40007e-05 0.0005151 -9.57757e-06
6.96258e-05 -9.57757e-06 0.000468311
0.00188234 0.000117347 -5.93947e-06
0.000117347 2.50773e-05 -3.12726e-07
-5.93947e-06 -3.12726e-07 -3.48059e-05
0.00196715 0.000160978 9.45978e-09
0.000160978 0.0001131 1.99986e-06
9.45978e-09 1.99986e-06 1.90312e-05
0.00197227 0.000149297 -5.98577e-07
0.000149297 6.89059e-05 -1.10554e-07
-5.98577e-07 -1.10554e-07 1.2534e-05
0.00174304 0.000192096 -2.68693e-07
0.000192096 0.000104612 8.04521e-07
-2.68693e-07 8.04521e-07 -3.98443e-05
0.00198014 0.00022082 4.04664e-07
0.00022082 0.000117772 1.74475e-07
4.04664e-07 1.74475e-07 7.22438e-06
0.00198875 0.000198327 2.27156e-06
0.000198327 6.54566e-05 1.27494e-07
2.27156e-06 1.27494e-07 -1.07143e-05
0.00103652 0.000153452 -1.45749e-05
0.000153452 -6.40559e-05 -2.78271e-06
-1.45749e-05 -2.78271e-06 -0.000217559
0.00182155 0.000255354 1.00454e-06
0.000255354 0.000168956 5.07265e-07
1.00454e-06 5.07265e-07 7.17311e-06
0.00190222 0.000288623 -2.25111e-07
0.000288623 9.35899e-05 -8.9852e-07
-2.25111e-07 -8.9852e-07 -4.4306e-05
0.000380227 9.38347e-05 -1.81601e-05
9.38347e-05 -0.000217974 -7.58931e-06
-1.81601e-05 -7.58931e-06 -0.000311682
0.000974681 0.000183741 -1.65445e-06
0.000183741 -8.94619e-05 2.4506e-08
-1.65445e-06 2.4506e-08 -0.000253694
0.00191163 0.000316913 5.88149e-06
0.000316913 0.000246876 8.23056e-07
5.88149e-06 8.23056e-07 6.50287e-05
0.00648101 0.000227238 -0.000288545
0.000227238 0.00365426 -3.08581e-05
-0.000288545 -3.08581e-05 0.0036556
0.000387717 0.000130217 -1.22888e-08
0.000130217 -0.000197656 4.19583e-07
-1.22888e-08 4.19583e-07 -0.000300454
0.000862608 0.000205797 1.46905e-05
0.000205797 -0.000138531 4.82084e-06
1.46905e-05 4.82084e-06 -0.000313341
0.00656356 0.00017925 1.36425e-05
0.00017925 0.00371502 2.92507e-06
1.36425e-05 2.92507e-06 0.00371197
0.000396936 0.00016757 1.99336e-05
0.00016757 -0.000168051 1.41073e-05
1.99336e-05 1.41073e-05 -0.000284373
0.00642795 3.59408e-05 0.000254454
3.59408e-05 0.00362492 2.02762e-05
0.000254454 2.02762e-05 0.00363058
0.00183343 4.51031e-05 -2.65725e-06
4.51031e-05 1.83324e-05 1.5322e-07
-2.65725e-06 1.5322e-07 -5.68066e-05
0.00192301 6.70682e-05 -8.47812e-07
6.70682e-05 5.16544e-05 -2.65017e-07
-8.47812e-07 -2.65017e-07 3.64132e-06
0.00196822 0.000113919 3.83651e-06
0.000113919 2.44149e-05 5.68208e-07
3.83651e-06 5.68208e-07 1.77002e-06
0.00185563 -3.49758e-06 2.40168e-06
-3.49758e-06 0.000195685 -4.89186e-07
2.40168e-06 -4.89186e-07 8.92196e-05
0.00182236 3.61421e-06 -1.61608e-06
3.61421e-06 1.97713e-05 2.53643e-07
-1.61608e-06 2.53643e-07 -5.18011e-05
0.00193783 2.11546e-05 6.67924e-06
2.11546e-05 4.89908e-05 -3.57465e-07
6.67924e-06 -3.57465e-07 1.27346e-05
0.00185312 -4.31267e-05 -5.23256e-07
-4.31267e-05 3.143e-05 4.75522e-07
-5.23256e-07 4.75522e-07 -3.56905e-05
0.00184062 -3.74294e-05 3.23718e-06
-3.74294e-05 0.000182756 -2.52602e-07
3.23718e-06 -2.52602e-07 7.44385e-05
0.000960862 -1.84838e-05 -1.28079e-05
-1.84838e-05 -9.72164e-05 3.06377e-07
-1.28079e-05 3.06377e-07 -0.000224089
0.00176165 -8.91779e-05 1.58188e-07
-8.91779e-05 0.000130336 1.90161e-07
1.58188e-07 1.90161e-07 6.76458e-06
0.000997456 -4.79593e-05 -1.06463e-06
-4.79593e-05 -7.81438e-05 4.96171e-08
-1.06463e-06 4.96171e-08 -0.000211433
0.000483972 -7.75359e-06 -1.88732e-05
-7.75359e-06 -0.000164439 2.15539e-06
-1.88732e-05 2.15539e-06 -0.000246015
0.00104581 -7.83396e-05 1.17738e-05
-7.83396e-05 -4.32862e-05 -1.83183e-06
1.17738e-05 -1.83183e-06 -0.000183737
0.000456977 -3.4736e-05 8.51368e-07
-3.4736e-05 -0.000180068 -1.58717e-07
8.51368e-07 -1.58717e-07 -0.000263471
0.00604966 -0.000138301 -0.000291885
-0.000138301 0.00339182 1.40334e-05
-0.000291885 1.40334e-05 0.00340474
0.000447002 -5.50617e-05 1.79826e-05
-5.50617e-05 -0.000180016 -4.43435e-06
1.79826e-05 -4.43435e-06 -0.000269138
0.00612819 -7.76755e-05 7.57704e-06
-7.76755e-05 0.00342906 -6.24154e-08
7.57704e-06 -6.24154e-08 0.00344678
0.0017074 -3.03025e-05 0.00022741
-3.03025e-05 0.000696064 -1.43181e-05
0.00022741 -1.43181e-05 0.00068544
0.00182366 0.000106164 -1.55373e-06
0.000106164 1.12411e-05 4.33846e-07
-1.55373e-06 4.33846e-07 -7.68283e-05
0.00191773 0.000121401 -3.16361e-06
0.000121401 4.21876e-05 -6.77511e-07
-3.16361e-06 -6.77511e-07 -1.46594e-05
0.00171695 0.000131813 6.87484e-07
0.000131813 8.476e-05 1.09042e-06
6.87484e-07 1.09042e-06 -4.39031e-05
0.00196641 0.000159915 9.04247e-07
0.000159915 0.000111159 2.32776e-07
9.04247e-07 2.32776e-07 1.73066e-05
0.00192881 0.000144001 3.31279e-06
0.000144001 3.81315e-05 -2.83406e-07
3.31279e-06 -2.83406e-07 -1.7895e-05
0.0011096 0.000115273 -1.26823e-05
0.000115273 -1.28675e-05 -1.97908e-06
-1.26823e-05 -1.97908e-06 -0.000157874
0.00174009 0.000190904 1.66e-07
0.000190904 0.00010605 8.24123e-08
1.66e-07 8.24123e-08 -3.84151e-05
0.00198199 0.000220582 8.64803e-07
0.000220582 0.000116852 -1.24237e-06
8.64803e-07 -1.24237e-06 4.90601e-06
0.000423454 6.84842e-05 -1.78435e-05
6.84842e-05 -0.00020038 -5.45181e-06
-1.78435e-05 -5.45181e-06 -0.000289506
0.00103312 0.00015349 -1.60961e-06
0.00015349 -6.24684e-05 8.72063e-08
-1.60961e-06 8.72063e-08 -0.000217445
0.00182761 0.000253409 2.69336e-06
0.000253409 0.000178839 3.99006e-07
2.69336e-06 3.99006e-07 1.37765e-05
0.00634713 0.000250926 -0.000305303
0.000250926 0.00358029 -2.90547e-05
-0.000305303 -2.90547e-05 0.00358054
0.000424934 9.62115e-05 -9.58524e-08
9.62115e-05 -0.000192206 1.83401e-07
-9.58524e-08 1.83401e-07 -0.00028637
0.000907939 0.00017964 1.10212e-05
0.00017964 -0.000129137 3.61213e-06
1.10212e-05 3.61213e-06 -0.000292917
0.00647147 0.000249678 1.10473e-05
0.000249678 0.00366029 4.29637e-06
1.10473e-05 4.29637e-06 0.00365607
0.000429676 0.000127105 1.87561e-05
0.000127105 -0.00017418 1.07817e-05
1.87561e-05 1.07817e-05 -0.000277132
0.00653697 0.000177511 0.000282753
0.000177511 0.00368885 2.91302e-05
0.000282753 2.91302e-05 0.00369249
0.00179409 3.84636e-05 3.49125e-06
3.84636e-05 0.000152082 1.30646e-08
3.49125e-06 1.30646e-08 4.37735e-05
0.00184275 4.36408e-05 -2.52988e-06
4.36408e-05 2.95037e-05 -4.10459e-08
-2.52988e-06 -4.10459e-08 -4.68671e-05
0.00193577 6.93689e-05 4.86413e-06
6.93689e-05 6.85564e-05 -1.93738e-07
4.86413e-06 -1.93738e-07 1.9428e-05
0.000954096 -8.57808e-06 -1.30944e-05
-8.57808e-06 -9.19679e-05 -1.62531e-07
-1.30944e-05 -1.62531e-07 -0.000216775
0.00183194 1.5288e-06 3.44791e-06
1.5288e-06 0.000180221 -1.15829e-07
3.44791e-06 -1.15829e-07 7.3856e-05
0.00181376 3.74334e-06 -7.83953e-07
3.74334e-06 1.14696e-05 3.37561e-07
-7.83953e-07 3.37561e-07 -5.75207e-05
0.00181752 -3.67417e-05 4.41984e-06
-3.67417e-05 0.000166941 1.70284e-07
4.41984e-06 1.70284e-07 5.88533e-05
0.000954602 -1.94204e-05 -7.20952e-07
-1.94204e-05 -0.000102594 1.6114e-08
-7.20952e-07 1.6114e-08 -0.000229749
0.000487746 -3.18366e-05 -1.93565e-05
-3.18366e-05 -0.000161192 1.00447e-06
-1.93565e-05 1.00447e-06 -0.000239814
0.00101052 -4.70605e-05 1.124e-05
-4.70605e-05 -6.84637e-05 -1.27238e-06
1.124e-05 -1.27238e-06 -0.000203102
0.000462572 3.6007e-06 3.59404e-07
3.6007e-06 -0.000178307 5.2129e-08
3.59404e-07 5.2129e-08 -0.000258862
0.00601105 -0.000110994 -0.000295465
-0.000110994 0.00336632 1.03276e-05
-0.000295465 1.03276e-05 0.00338222
0.00047171 -4.14582e-05 1.88309e-05
-4.14582e-05 -0.000168861 -3.0202e-06
1.88309e-05 -3.0202e-06 -0.000253428
0.00605961 -3.2655e-05 -3.01234e-06
-3.2655e-05 0.00338641 2.42684e-06
-3.01234e-06 2.42684e-06 0.00340641
0.00611234 -9.30323e-05 0.000291622
-9.30323e-05 0.00341945 -1.24294e-05
0.000291622 -1.24294e-05 0.0034378
0.00166312 7.88899e-05 9.26779e-07
7.88899e-05 5.71512e-05 4.56428e-07
9.26779e-07 4.56428e-07 -6.16402e-05
0.00190034 0.000106388 -2.92399e-06
0.000106388 5.61965e-05 -9.01906e-07
-2.92399e-06 -9.01906e-07 -2.60877e-05
0.00192351 0.000125262 1.82121e-06
0.000125262 4.13846e-05 -3.76398e-08
1.82121e-06 -3.76398e-08 -1.28059e-05
0.0011 7.32098e-05 -1.22298e-05
7.32098e-05 -1.37381e-05 -1.33203e-06
-1.22298e-05 -1.33203e-06 -0.000149393
0.00171892 0.000130654 2.35515e-07
0.000130654 8.90787e-05 1.40148e-08
2.35515e-07 1.40148e-08 -3.9762e-05
0.00196819 0.000158792 2.89785e-07
0.000158792 0.000111564 -1.94023e-06
2.89785e-07 -1.94023e-06 1.79227e-05
0.000455271 4.55083e-05 -1.74497e-05
4.55083e-05 -0.000182369 -3.91865e-06
-1.74497e-05 -3.91865e-06 -0.000268225
0.00107478 0.000116651 3.56047e-07
0.000116651 -3.46782e-05 2.60314e-07
3.56047e-07 2.60314e-07 -0.000180653
0.00173764 0.000189735 9.713e-07
0.000189735 0.000107488 -5.60597e-07
9.713e-07 -5.60597e-07 -3.70011e-05
0.00620162 0.000217031 -0.000314641
0.000217031 0.00349176 -2.42174e-05
-0.000314641 -2.42174e-05 0.00349713
0.000456781 7.38961e-05 3.79126e-07
7.38961e-05 -0.000179988 1.60753e-07
3.79126e-07 1.60753e-07 -0.000270132
0.00102772 0.000153359 1.10663e-05
0.000153359 -6.23965e-05 2.98908e-06
1.10663e-05 2.98908e-06 -0.000218783
0.00637691 0.000265922 6.2057e-06
0.000265922 0.00360438 3.28843e-06
6.2057e-06 3.28843e-06 0.00360223
0.000473712 0.000100544 1.81623e-05
0.000100544 -0.000162844 8.23326e-06
1.81623e-05 8.23326e-06 -0.000257952
0.00648546 0.000279422 0.000300362
0.000279422 0.00367419 3.55174e-05
0.000300362 3.55174e-05 0.0036673
0.00101963 2.08297e-05 -1.25907e-05
2.08297e-05 -4.53908e-05 -6.007e-07
-1.25907e-05 -6.007e-07 -0.000173423
0.00176725 3.4989e-05 3.65175e-06
3.4989e-05 0.000134428 1.04712e-07
3.65175e-06 1.04712e-07 2.79121e-05
0.00183429 4.17605e-05 -3.14783e-06
4.17605e-05 2.9213e-05 -1.08314e-07
-3.14783e-06 -1.08314e-07 -4.86463e-05
0.000523534 3.15319e-05 -1.99393e-05
3.15319e-05 -0.000147172 -5.9902e-07
-1.99393e-05 -5.9902e-07 -0.000218021
0.000935878 -2.68065e-06 -8.55161e-07
-2.68065e-06 -0.000104629 -8.32124e-09
-8.55161e-07 -8.32124e-09 -0.000229614
0.00180257 7.74742e-06 4.55274e-06
7.74742e-06 0.000160961 2.2713e-07
4.55274e-06 2.2713e-07 5.4682e-05
0.000946509 -1.99505e-05 1.14338e-05
-1.99505e-05 -0.00010934 -5.33574e-07
1.14338e-05 -5.33574e-07 -0.000236753
0.000484097 -5.43779e-06 3.7162e-07
-5.43779e-06 -0.0001634 3.73345e-07
3.7162e-07 3.73345e-07 -0.000242145
0.00592794 2.27717e-05 -0.000298304
2.27717e-05 0.00330921 7.65586e-07
-0.000298304 7.65586e-07 0.00333106
0.000441376 1.52811e-05 1.83924e-05
1.52811e-05 -0.000192777 -1.23988e-06
1.83924e-05 -1.23988e-06 -0.000272008
0.00597438 -0.000109139 -7.74343e-06
-0.000109139 0.00334528 1.8373e-06
-7.74343e-06 1.8373e-06 0.00336066
0.00600483 -1.40853e-05 0.000280335
-1.40853e-05 0.00335295 -6.22461e-06
0.000280335 -6.22461e-06 0.0033729
0.00106119 4.14722e-05 -1.24037e-05
4.14722e-05 -2.74335e-05 -1.19973e-06
-1.24037e-05 -1.19973e-06 -0.000157398
0.00171178 7.64167e-05 -2.35939e-07
7.64167e-05 8.82906e-05 -2.96684e-07
-2.35939e-07 -2.96684e-07 -2.66664e-05
0.00199848 0.000106771 -3.50003e-06
0.000106771 0.000114159 -2.38258e-06
-3.50003e-06 -2.38258e-06 3.78998e-05
0.00266585 5.99108e-05 -0.000138831
5.99108e-05 0.00117999 -4.71648e-06
-0.000138831 -4.71648e-06 0.00112897
0.00105384 7.48654e-05 3.28918e-07
7.48654e-05 -4.27333e-05 1.58851e-07
3.28918e-07 1.58851e-07 -0.000179164
0.00172283 0.000129465 8.11598e-07
0.000129465 9.44754e-05 -9.11618e-07
8.11598e-07 -9.11618e-07 -3.45491e-05
0.00607222 0.00016025 -0.00031409
0.00016025 0.00340706 -1.74502e-05
-0.00031409 -1.74502e-05 0.00342005
0.00048864 6.44558e-05 8.83516e-07
6.44558e-05 -0.000159711 4.10821e-07
8.83516e-07 4.10821e-07 -0.000247541
0.00104242 0.000117994 1.25875e-05
0.000117994 -5.49157e-05 2.39041e-06
1.25875e-05 2.39041e-06 -0.000201829
0.00628054 0.000231414 1.5153e-06
0.000231414 0.00354158 1.61716e-06
1.5153e-06 1.61716e-06 0.00354575
0.000500799 8.22232e-05 1.83683e-05
8.22232e-05 -0.000151892 6.45837e-06
1.83683e-05 6.45837e-06 -0.000243721
0.00639721 0.000298699 0.000310923
0.000298699 0.00362913 3.60288e-05
0.000310923 3.60288e-05 0.00362039
0.000585629 1.11817e-05 -1.60477e-05
1.11817e-05 -9.81478e-05 -1.84961e-06
-1.60477e-05 -1.84961e-06 -0.000177991
0.000973201 1.99815e-05 3.76683e-07
1.99815e-05 -7.78935e-05 2.10778e-07
3.76683e-07 2.10778e-07 -0.000204646
0.00173286 3.0515e-05 3.67756e-06
3.0515e-05 0.000111784 2.23447e-08
3.67756e-06 2.23447e-08 7.10795e-06
0.00577974 -9.94083e-05 -0.000281453
-9.94083e-05 0.00323597 3.05488e-06
-0.000281453 3.05488e-06 0.00324709
0.000478834 9.00125e-06 -5.79548e-07
9.00125e-06 -0.000170068 -1.51708e-08
-5.79548e-07 -1.51708e-08 -0.000243532
0.000935614 2.103e-06 1.1341e-05
2.103e-06 -0.000106492 2.05465e-09
1.1341e-05 2.05465e-09 -0.000231594
0.000439609 2.09306e-05 1.86201e-05
2.09306e-05 -0.000191864 1.72399e-07
1.86201e-05 1.72399e-07 -0.000269605
0.00587299 -1.30035e-05 2.15981e-06
-1.30035e-05 0.00328112 -1.42919e-06
2.15981e-06 -1.42919e-06 0.00329871
0.00596547 -2.93923e-05 0.000287072
-2.93923e-05 0.00332857 -4.12156e-06
0.000287072 -4.12156e-06 0.00334967
0.00274374 1.39669e-05 -0.000133753
1.39669e-05 0.00122635 -2.73366e-06
-0.000133753 -2.73366e-06 0.00117804
0.00104157 4.47191e-05 1.03762e-07
4.47191e-05 -4.14267e-05 -3.70613e-08
1.03762e-07 -3.70613e-08 -0.000171979
0.00175715 7.40529e-05 8.56287e-07
7.40529e-05 0.000117733 -9.38656e-07
8.56287e-07 -9.38656e-07 6.62e-06
0.00560051 -4.05154e-05 -0.000117614
-4.05154e-05 0.00312851 4.8598e-07
-0.000117614 4.8598e-07 0.00311644
0.000499873 5.66669e-05 9.74869e-08
5.66669e-05 -0.000152315 2.49016e-07
9.74869e-08 2.49016e-07 -0.000235457
0.0010241 7.71518e-05 1.21567e-05
7.71518e-05 -6.22731e-05 1.63919e-06
1.21567e-05 1.63919e-06 -0.000199425
0.00614371 0.000134953 -1.06213e-05
0.000134953 0.00344581 -1.66781e-06
-1.06213e-05 -1.66781e-06 0.00346016
0.00051767 8.75842e-05 1.96752e-05
8.75842e-05 -0.000141269 5.48694e-06
1.96752e-05 5.48694e-06 -0.000230062
0.00633105 0.000255536 0.000319622
0.000255536 0.00357936 3.12634e-05
0.000319622 3.12634e-05 0.00358053
0.00175544 -5.28961e-05 -0.000226901
-5.28961e-05 0.000724836 1.20416e-06
-0.000226901 1.20416e-06 0.000722015
0.00161803 2.98644e-05 -5.70204e-05
2.98644e-05 0.000530771 1.47021e-07
-5.70204e-05 1.47021e-07 0.000471718
0.000921391 2.17664e-05 1.24521e-05
2.17664e-05 -0.000113276 8.20594e-07
1.24521e-05 8.20594e-07 -0.000238826
0.005855 -4.60287e-05 7.10134e-06
-4.60287e-05 0.00327581 2.29266e-06
7.10134e-06 2.29266e-06 0.00329212
0.000494499 -1.22184e-05 1.92182e-05
-1.22184e-05 -0.000154069 7.18477e-07
1.92182e-05 7.18477e-07 -0.000231381
0.00591312 -7.73843e-05 0.00030025
-7.73843e-05 0.00330869 -4.06258e-06
0.00030025 -4.06258e-06 0.00332623
0.00132119 1.98191e-05 -5.58449e-05
1.98191e-05 0.000483879 -8.7614e-07
-5.58449e-05 -8.7614e-07 0.000447021
0.00160677 1.71204e-05 -5.76289e-05
1.71204e-05 0.000527064 -1.20165e-06
-5.76289e-05 -1.20165e-06 0.000464138
0.00101172 4.65407e-05 1.22716e-05
4.65407e-05 -6.14858e-05 1.15305e-06
1.22716e-05 1.15305e-06 -0.000192652
0.00369543 6.35593e-05 0.000111114
6.35593e-05 0.00193641 3.14362e-06
0.000111114 3.14362e-06 0.00192789
0.000512098 6.71833e-05 1.99472e-05
6.71833e-05 -0.000144884 4.18865e-06
1.99472e-05 4.18865e-06 -0.000227993
0.00622089 0.000122907 0.000304996
0.000122907 0.00348589 1.87189e-05
0.000304996 1.87189e-05 0.00350384
0.00580368 -2.04547e-05 -8.94006e-06
-2.04547e-05 0.00324744 -2.88583e-06
-8.94006e-06 -2.88583e-06 0.00326255
0.000490021 4.89029e-05 2.07566e-05
4.89029e-05 -0.000167184 2.29889e-06
2.07566e-05 2.29889e-06 -0.000237475
0.00576515 4.06351e-05 0.000287914
4.06351e-05 0.00321663 2.17944e-07
0.000287914 2.17944e-07 0.0032364
0.0035918 3.04939e-05 0.000123467
3.04939e-05 0.00187748 4.61946e-06
0.000123467 4.61946e-06 0.00187048
0.000522912 7.88446e-06 1.91721e-05
7.88446e-06 -0.000138113 2.56425e-06
1.91721e-05 2.56425e-06 -0.000216399
0.00603128 -5.91381e-06 0.000293157
-5.91381e-06 0.00337109 8.20207e-06
0.000293157 8.20207e-06 0.00339021
0.00584696 -0.000120832 0.000284918
-0.000120832 0.00327869 -4.00225e-06
0.000284918 -4.00225e-06 0.00328921
0.00585331 4.17387e-06 0.000286639
4.17387e-06 0.00326174 4.62968e-06
0.000286639 4.62968e-06 0.00328393
