# vtk DataFile Version 2.0
Wound Healing Simulation
ASCII
DATASET UNSTRUCTURED_GRID
POINTS 3012 float
69.9759 18.75 4
67.2507 60.3285 4
69.976 18.75 2
73.0099 25.446 4
71.1327 20.9142 4
68.6801 16.6661 4
67.8273 19.9256 3.98646
67.2507 60.3286 2
71.1327 54.0858 4
68.6801 58.3339 4
65.6939 62.2254 4
65.3138 59.0032 3.98748
74.6784 42.3946 4
73.7221 47.2057 4
69.9759 18.75 0
73.0099 25.446 2
68.6801 16.6661 2
71.1327 20.9142 2
67.8279 19.9276 2
74.6792 32.6053 4
73.7222 27.7943 4
72.1454 23.1494 4
70.6154 26.2222 3.9853
68.8874 21.9587 3.98616
67.2507 14.6715 4
66.6389 17.9703 3.9871
65.8018 21.0232 3.98023
67.2507 60.3285 0
71.1327 54.0858 2
68.6801 58.3339 2
65.694 62.2255 2
65.3146 59.0021 2
72.1454 51.8506 4
69.9759 56.25 4
68.838 53.1128 3.98558
64.0165 64.0165 4
66.6124 57.1352 3.98714
63.8872 60.7681 3.989
63.5044 57.7769 3.9823
60.3285 67.2507 4
74.6792 42.3947 2
73.7222 47.2057 2
74.9194 39.9526 4
74.2788 44.8158 4
72.1688 42.0857 3.98356
73.0099 49.554 4
71.2504 46.5979 3.98481
73.0099 25.446 0
71.1327 20.9142 0
68.6801 16.6661 0
67.8273 19.9256 0.0135376
74.6792 32.6053 2
73.7222 27.7943 2
67.2508 14.6715 2
72.1455 23.1494 2
70.6154 26.2228 2
66.6397 17.9717 2
68.8877 21.9605 2
65.8017 21.0228 2
74.9197 35.0474 4
74.2794 30.1841 4
72.1855 32.9434 3.98397
71.2793 28.432 3.98524
69.817 24.0609 3.98566
68.3497 26.9519 3.9767
66.7666 22.9327 3.97869
65.694 12.7746 4
65.3255 16.1011 3.98824
64.7187 19.1907 3.98178
63.8935 22.0316 3.97659
71.1327 54.0858 0
65.6939 62.2254 0
68.6801 58.3339 0
65.3138 59.0032 0.0125191
72.1455 51.8506 2
69.9759 56.25 2
68.8383 53.1108 2
64.0165 64.0165 2
66.6132 57.1335 2
63.8879 60.7675 2
63.5046 57.7777 2
62.2254 65.694 4
58.895 65.4154 3.99259
69.7703 50.9882 3.98515
67.7854 55.168 3.98639
66.6532 52.2104 3.97801
62.3374 62.4293 3.99072
64.6655 56.0356 3.98196
62.2059 59.4103 3.9831
61.8289 56.689 3.97935
58.3339 68.6801 4
60.3285 67.2508 2
73.7221 47.2057 0
74.6784 42.3946 0
74.9197 39.9526 2
74.2794 44.8159 2
72.1687 42.0857 2
73.0099 49.554 2
71.2504 46.5976 2
75 37.5 4
72.4059 39.8023 3.98318
71.7834 44.3529 3.98428
69.8059 41.7901 3.97516
70.5763 48.8129 3.985
68.9151 46.0154 3.97621
74.6792 32.6053 0
73.7222 27.7943 0
67.2507 14.6715 0
72.1454 23.1494 0
70.6154 26.2222 0.0146963
68.8874 21.9587 0.0138405
66.6389 17.9703 0.0129033
65.8018 21.0232 0.0197683
74.9197 35.0474 2
74.2794 30.1841 2
72.1853 32.9434 2
71.2793 28.4322 2
65.694 12.7745 2
65.3262 16.1017 2
69.8171 24.0621 2
68.3495 26.952 2
64.7189 19.1898 2
66.7663 22.9326 2
63.8934 22.0309 2
72.4137 35.2243 3.9832
71.8049 30.6765 3.98486
69.8419 33.2685 3.97554
68.9692 29.0383 3.97687
67.6144 24.9124 3.97724
66.1981 27.6342 3.97345
64.0165 10.9835 4
64.7618 23.8282 3.97507
63.8915 14.3248 3.98949
63.5177 17.4408 3.98351
62.9141 20.3142 3.97797
62.1 22.9382 3.97459
60.6849 11.0958 3.99145
57.6134 11.4414 3.98625
72.1454 51.8506 0
69.9759 56.25 0
68.838 53.1128 0.0144184
64.0165 64.0165 0
63.8872 60.7681 0.0109963
66.6124 57.1352 0.012864
63.5044 57.7769 0.0177039
62.2255 65.694 2
58.8954 65.4155 2
69.7704 50.9868 2
67.786 55.1658 2
66.653 52.2103 2
62.3379 62.4289 2
64.6656 56.0364 2
62.206 59.4112 2
61.8291 56.6899 2
60.6697 63.9785 3.99177
57.0256 66.7363 3.99319
57.559 63.6961 3.98713
67.5105 50.1773 3.97663
65.7064 54.1758 3.98005
64.5424 51.3882 3.97403
60.7751 60.9436 3.9843
62.8269 55.0745 3.97908
60.6628 58.1679 3.97963
60.3347 55.7951 3.9782
56.25 69.9759 4
58.3339 68.6801 2
60.3285 67.2507 0
58.922 9.65414 3.99215
62.2254 9.30607 4
73.0099 49.554 0
74.2788 44.8158 0
71.2504 46.5979 0.0151867
72.1688 42.0857 0.0164411
74.9194 39.9526 0
75 37.5 2
72.4058 39.8024 2
71.7834 44.3528 2
69.8058 41.79 2
70.5764 48.8122 2
68.9151 46.0151 2
72.4892 37.5121 3.98309
70.0424 39.6577 3.97425
69.4328 43.908 3.97586
67.5998 41.4987 3.97173
68.2688 48.1076 3.97629
66.7136 45.4417 3.97292
74.9197 35.0474 0
74.2794 30.1841 0
72.1855 32.9434 0.0160344
71.2793 28.432 0.014759
65.694 12.7746 0
65.3255 16.1011 0.0117567
69.817 24.0609 0.0143356
68.3497 26.9519 0.0232966
66.7666 22.9327 0.0213104
64.7187 19.1907 0.0182215
63.8935 22.0316 0.0234106
72.4136 35.2241 2
71.8049 30.6765 2
69.8419 33.2686 2
68.9692 29.0384 2
64.0165 10.9835 2
63.892 14.3252 2
63.5179 17.4398 2
67.6142 24.9124 2
66.198 27.634 2
62.9142 20.3133 2
64.7615 23.8278 2
62.0999 22.9377 2
60.6853 11.0962 2
57.6135 11.4408 2
70.0591 35.3921 3.97449
69.4698 31.1495 3.97647
67.658 33.5907 3.97195
66.7763 29.622 3.97348
65.5279 25.6987 3.97371
64.1502 28.2542 3.97271
62.3427 12.6529 3.99051
62.8623 24.6344 3.97308
62.2022 15.7782 3.9843
61.8203 18.6763 3.97998
61.2255 21.3343 3.97551
60.4328 23.7215 3.97403
59.2476 12.7729 3.98465
55.8752 10.2282 3.98768
56.4065 13.1047 3.98304
69.7703 50.9882 0.0148487
62.2254 65.694 0
58.895 65.4154 0.00741087
67.7854 55.168 0.01361
66.6532 52.2104 0.0219922
62.3374 62.4293 0.0092782
62.2059 59.4103 0.0169023
64.6655 56.0356 0.0180448
61.8289 56.689 0.0206486
60.6701 63.9783 2
57.0259 66.7364 2
57.559 63.697 2
67.5104 50.177 2
65.7064 54.1761 2
64.5423 51.3885 2
60.7753 60.9445 2
62.8271 55.0754 2
60.663 58.1689 2
60.335 55.7959 2
55.0711 67.9332 3.99346
59.2207 62.3711 3.98521
55.8055 64.9137 3.98893
56.3283 62.0968 3.98376
65.3355 49.4103 3.97284
63.7121 53.2969 3.97633
62.4464 50.6563 3.9719
59.3362 59.5652 3.98176
61.0846 54.3172 3.97801
59.2942 57.0223 3.97701
59.2492 55.1928 3.9794
48.1036 68.5814 3.99022
50.9487 69.9328 3.99388
54.0858 71.1327 4
56.25 69.976 2
58.3339 68.6801 0
57.0591 8.33411 3.99248
60.3285 7.74928 4
58.9224 9.65427 2
62.2255 9.30602 2
70.5763 48.8129 0.0150047
71.7834 44.3529 0.0157167
68.9151 46.0154 0.0237936
69.8059 41.7901 0.0248416
72.4059 39.8023 0.0168236
75 37.5 0
72.4891 37.5121 2
70.0424 39.6577 2
69.4328 43.9079 2
67.5997 41.4988 2
68.2687 48.1073 2
66.7135 45.4417 2
70.1305 37.5218 3.97439
67.836 39.5131 3.97087
67.2269 43.4715 3.9724
65.5587 41.2117 3.9709
66.0724 47.4199 3.97308
64.6565 44.8514 3.9719
72.4137 35.2243 0.0167992
71.8049 30.6765 0.0151352
69.8419 33.2685 0.0244643
68.9692 29.0383 0.0231277
64.0165 10.9835 0
63.8915 14.3248 0.0105088
63.5177 17.4408 0.0164919
67.6144 24.9124 0.0227621
66.1981 27.6342 0.0265486
64.7618 23.8282 0.0249318
62.9141 20.3142 0.0220277
62.1 22.9382 0.025406
60.6849 11.0958 0.00854518
57.6134 11.4414 0.013753
70.0591 35.3923 2
69.4699 31.1496 2
67.658 33.5906 2
66.7763 29.6218 2
62.3431 12.6533 2
62.2022 15.7776 2
61.8205 18.6753 2
65.5277 25.6984 2
64.1501 28.2539 2
61.2257 21.3335 2
62.8621 24.634 2
60.4327 23.7211 2
59.2476 12.7724 2
56.4065 13.1038 2
55.8753 10.2275 2
67.8721 35.5477 3.97117
67.269 31.6217 3.97295
65.7006 33.9269 3.97097
64.6676 30.1904 3.97211
63.5419 26.4129 3.9722
62.2615 28.7755 3.97225
60.7772 14.2175 3.98426
61.0498 25.3339 3.97268
60.6174 17.1189 3.98181
60.2299 19.8069 3.97762
59.6689 22.2505 3.97375
58.9847 24.3135 3.97481
54.0382 9.13151 3.98834
57.912 14.3235 3.98264
54.7877 12.0039 3.98438
55.3139 14.6357 3.98156
67.5105 50.1773 0.0233696
57.0256 66.7363 0.00681346
60.6697 63.9785 0.00823497
57.559 63.6961 0.0128671
65.7064 54.1758 0.0199456
64.5424 51.3882 0.0259696
60.7751 60.9436 0.0156952
60.6628 58.1679 0.0203703
62.8269 55.0745 0.0209161
60.3347 55.7951 0.0218031
55.0713 67.9333 2
59.2207 62.3721 2
55.8055 64.9145 2
56.3283 62.0979 2
65.3353 49.4104 2
63.7122 53.2976 2
62.4465 50.6566 2
59.3364 59.5663 2
61.0849 54.318 2
59.2944 57.023 2
59.2496 55.1934 2
53.0429 69.0011 3.99371
53.9678 66.0159 3.98957
57.8825 60.8774 3.98272
54.6849 63.2136 3.98543
55.213 60.6247 3.98203
63.1978 48.6643 3.97113
61.7479 52.5812 3.97447
60.2775 50.025 3.9708
58.0215 58.2704 3.97903
59.3345 53.9564 3.97731
58.132 55.822 3.97499
50.1102 67.8594 3.9901
47.4642 66.5859 3.98795
46.0572 69.161 3.99039
48.1036 68.5819 2
48.8028 70.7241 3.99401
50.949 69.933 2
51.8506 72.1454 4
54.0858 71.1327 2
56.25 69.9759 0
55.1033 7.13863 3.99276
58.3339 6.31992 4
57.0595 8.3341 2
60.3286 7.74926 2
58.922 9.65414 0.00784802
62.2254 9.30607 0
68.2688 48.1076 0.0237051
69.4328 43.908 0.0241437
66.7136 45.4417 0.0270801
67.5998 41.4987 0.0282671
70.0424 39.6577 0.0257522
72.4892 37.5121 0.0169138
70.1304 37.5218 2
67.836 39.5131 2
67.2269 43.4715 2
65.5587 41.2118 2
66.0723 47.4199 2
64.6564 44.8515 2
67.9324 37.5225 3.97106
65.7893 39.3715 3.9702
65.1797 43.0278 3.97126
63.759 40.9318 3.97135
63.9697 46.7198 3.97215
62.8119 44.2204 3.97182
70.0591 35.3921 0.0255149
69.4698 31.1495 0.0235261
67.658 33.5907 0.0280502
66.7763 29.622 0.0265219
62.3427 12.6529 0.00948713
62.2022 15.7782 0.0156977
61.8203 18.6763 0.0200185
65.5279 25.6987 0.0262869
64.1502 28.2542 0.0272872
62.8623 24.6344 0.02692
61.2255 21.3343 0.0244948
60.4328 23.7215 0.0259734
59.2476 12.7729 0.0153479
56.4065 13.1047 0.0169646
55.8752 10.2282 0.0123169
67.8721 35.5477 2
67.2692 31.6215 2
65.7006 33.9267 2
64.6676 30.1902 2
60.7772 14.217 2
60.6174 17.118 2
60.2302 19.806 2
63.5418 26.4125 2
62.2613 28.7753 2
59.6691 22.2499 2
61.0496 25.3336 2
58.9846 24.3132 2
57.9118 14.3229 2
55.3137 14.6349 2
54.0382 9.13095 2
54.7877 12.003 2
65.8782 35.667 3.97034
65.1903 32.1531 3.97137
64.2872 34.2496 3.97113
62.6002 30.6339 3.97214
61.6544 27.0695 3.97156
60.8546 29.1374 3.97239
59.3133 15.6604 3.98251
59.3349 25.7911 3.97429
59.1289 18.3454 3.98037
58.7472 20.8443 3.97505
58.2916 23.0843 3.97278
57.9738 24.6581 3.97619
52.1128 8.15009 3.98875
53.0586 11.0102 3.98526
56.6785 15.7325 3.9817
53.8105 13.6705 3.98284
54.3779 15.9871 3.9813
55.0711 67.9332 0.00653776
65.3355 49.4103 0.027162
55.8055 64.9137 0.0110681
59.2207 62.3711 0.0147869
56.3283 62.0968 0.0162418
63.7121 53.2969 0.0236669
62.4464 50.6563 0.0280957
59.3362 59.5652 0.0182422
59.2942 57.0223 0.0229859
61.0846 54.3172 0.0219909
59.2492 55.1928 0.0205966
53.0431 69.0012 2
53.9677 66.0165 2
57.8826 60.8783 2
54.6848 63.2146 2
55.213 60.6259 2
63.1977 48.6644 2
61.7482 52.5818 2
60.2775 50.0252 2
58.0219 58.2715 2
59.335 53.9569 2
58.1324 55.8224 2
52.0713 67.0024 3.98991
52.9541 64.2239 3.98676
56.6505 59.4975 3.98116
53.6822 61.6305 3.9834
54.262 59.3308 3.98003
60.9967 47.8854 3.97057
59.7156 52.1127 3.97395
58.028 49.6251 3.97207
56.7806 56.9969 3.9753
57.1265 54.1307 3.97544
50.1102 67.8599 2
49.3379 65.9261 3.98785
47.464 66.5864 2
46.893 64.7433 3.98655
45.5593 67.1034 3.98777
43.9741 69.5933 3.99035
46.0572 69.1614 2
46.6094 71.3686 3.99414
48.1036 68.5814 0.00978141
48.8031 70.7243 2
49.554 73.0099 4
50.9487 69.9328 0.00611656
51.8506 72.1455 2
54.0858 71.1327 0
53.0643 6.07015 3.99297
55.1037 7.1386 2
56.25 5.02411 4
58.3339 6.3199 2
57.0591 8.33411 0.00751567
60.3285 7.74928 0
66.0724 47.4199 0.026924
67.2269 43.4715 0.0275987
64.6565 44.8514 0.0281
65.5587 41.2117 0.0291006
67.836 39.5131 0.0291294
70.1305 37.5218 0.0256127
67.9324 37.5225 2
65.7893 39.3715 2
65.1796 43.028 2
63.7589 40.9319 2
63.9695 46.7199 2
62.8117 44.2205 2
65.8925 37.5025 3.97014
63.8981 39.2683 3.97075
63.3331 42.5532 3.97128
62.432 40.7005 3.97191
61.9723 45.9242 3.97236
61.4564 43.688 3.97279
67.8721 35.5477 0.0288349
67.269 31.6217 0.0270521
65.7006 33.9269 0.0290285
64.6676 30.1904 0.0278885
60.7772 14.2175 0.0157374
60.6174 17.1189 0.0181922
60.2299 19.8069 0.0223844
63.5419 26.4129 0.027796
62.2615 28.7755 0.0277501
61.0498 25.3339 0.0273203
59.6689 22.2505 0.026252
58.9847 24.3135 0.0251892
57.912 14.3235 0.0173627
55.3139 14.6357 0.0184354
54.0382 9.13151 0.0116584
54.7877 12.0039 0.015621
65.8782 35.6669 2
65.1905 32.1528 2
64.2872 34.2496 2
62.6002 30.6338 2
59.3131 15.6597 2
59.1291 18.3445 2
58.7476 20.8434 2
61.6544 27.0693 2
60.8546 29.1373 2
58.2918 23.0839 2
59.3348 25.7909 2
57.9737 24.658 2
56.6782 15.7317 2
54.3776 15.9863 2
53.8104 13.6696 2
52.1128 8.14957 2
53.0585 11.0096 2
64.0921 35.6325 3.9706
62.9351 33.0454 3.97122
60.6214 30.6098 3.97282
59.5739 27.9057 3.97196
57.9425 16.9735 3.98161
57.7436 25.7202 3.975
57.7203 19.4654 3.97865
57.3769 21.8314 3.9723
57.1917 23.9405 3.97285
50.1128 7.2821 3.98908
51.2329 10.1188 3.98599
52.1726 12.7879 3.98397
55.5396 16.9613 3.98162
52.9787 15.2517 3.98106
53.76 16.9687 3.9815
53.0429 69.0011 0.00628964
53.9678 66.0159 0.0104306
63.1978 48.6643 0.0288722
54.6849 63.2136 0.014565
57.8825 60.8774 0.0172801
55.213 60.6247 0.0179732
61.7479 52.5812 0.0255284
60.2775 50.025 0.0291967
58.0215 58.2704 0.0209708
58.132 55.822 0.0250104
59.3345 53.9564 0.022688
52.0712 67.0029 2
52.9539 64.2247 2
56.6506 59.4986 2
53.6821 61.6317 2
54.2619 59.3323 2
60.9966 47.8854 2
59.716 52.1131 2
58.0281 49.6251 2
56.7811 56.9984 2
57.1271 54.131 2
51.1687 65.133 3.98751
52.0469 62.5461 3.98492
55.4833 58.2589 3.97992
52.8357 60.1446 3.98149
53.642 58.4811 3.98007
58.3093 46.856 3.97326
57.5644 51.795 3.97387
56.2488 49.5606 3.97824
55.4755 55.8 3.97451
55.3608 53.3881 3.97007
50.1102 67.8594 0.00990177
49.3377 65.9267 2
48.6188 64.1296 3.98613
47.4642 66.5859 0.0120539
45.559 67.1039 2
46.8929 64.7439 2
46.3823 63.0622 3.98543
45.1333 65.2048 3.98663
43.6322 67.4742 3.98785
41.8612 69.8807 3.99022
43.9741 69.5938 2
44.3768 71.8634 3.99406
46.0572 69.161 0.00960892
46.6097 71.3688 2
47.2057 73.7222 4
48.8028 70.7241 0.00598959
49.554 73.0099 2
51.8506 72.1454 0
50.954 5.13053 3.99319
53.0646 6.07007 2
54.0858 3.86728 4
55.1033 7.13863 0.00723966
56.25 5.02406 2
58.3339 6.31992 0
63.9697 46.7198 0.0278478
65.1797 43.0278 0.0287447
62.8119 44.2204 0.0281768
63.759 40.9318 0.0286547
65.7893 39.3715 0.0297979
67.9324 37.5225 0.0289438
65.8925 37.5025 2
63.8981 39.2683 2
63.333 42.5533 2
62.4322 40.7005 2
61.972 45.9242 2
61.4563 43.6881 2
63.9588 37.4578 3.97059
62.1519 39.357 3.97155
61.2215 41.9623 3.97256
60.2568 44.7767 3.97379
65.8782 35.667 0.029662
65.1903 32.1531 0.0286325
64.2872 34.2496 0.0288698
62.6002 30.6339 0.0278554
59.3133 15.6604 0.017495
59.1289 18.3454 0.019627
58.7472 20.8443 0.0249523
61.6544 27.0695 0.0284426
60.8546 29.1374 0.0276148
59.3349 25.7911 0.0257141
58.2916 23.0843 0.027218
57.9738 24.6581 0.0238132
56.6785 15.7325 0.0182951
54.3779 15.9871 0.0186961
53.8105 13.6705 0.0171643
52.1128 8.15009 0.0112488
53.0586 11.0102 0.0147415
64.0921 35.6325 2
62.9353 33.0453 2
60.6214 30.6097 2
57.9424 16.9727 2
57.7206 19.4643 2
57.3774 21.8307 2
59.5742 27.9056 2
57.1918 23.9405 2
57.7434 25.7201 2
50.1128 7.28167 2
55.5394 16.9604 2
53.7597 16.9678 2
52.9785 15.2509 2
52.1726 12.7872 2
51.2328 10.1182 2
62.1883 35.3596 3.97111
60.2972 32.7444 3.97234
58.6287 30.0725 3.97294
57.2936 27.3761 3.97316
56.6393 18.1455 3.98137
56.2967 25.0966 3.97363
56.3621 20.5114 3.97493
56.1138 22.8627 3.96951
48.0564 6.52521 3.98943
49.3246 9.32676 3.98638
50.4334 11.9862 3.98434
51.3785 14.4873 3.98265
54.4172 17.9097 3.98183
52.3625 17.0238 3.98063
52.0713 67.0024 0.0100926
52.9541 64.2239 0.0132392
60.9967 47.8854 0.0294298
53.6822 61.6305 0.016603
56.6505 59.4975 0.0188374
54.262 59.3308 0.0199701
59.7156 52.1127 0.0260484
58.028 49.6251 0.0279332
56.7806 56.9969 0.0246962
57.1265 54.1307 0.0245606
51.1685 65.1336 2
52.0467 62.547 2
55.4834 58.2605 2
52.8356 60.1458 2
53.642 58.4825 2
58.309 46.8559 2
57.565 51.7952 2
56.2491 49.5604 2
55.4762 55.801 2
55.3615 53.3886 2
50.3469 63.3877 3.9857
51.2449 60.9443 3.98294
54.2221 57.2749 3.97948
52.3141 58.6439 3.97969
56.721 44.1912 3.97561
55.4967 47.9039 3.97466
55.0713 51.3913 3.97112
54.0071 54.5493 3.9729
49.3379 65.9261 0.0121481
48.6185 64.1302 2
47.9625 62.4831 3.98495
45.5593 67.1034 0.0122304
46.893 64.7433 0.0134457
43.632 67.4748 2
46.3821 63.0629 2
45.1331 65.2054 2
45.9878 61.5959 3.98466
44.7676 63.4635 3.98601
43.3572 65.5147 3.98672
41.6641 67.6932 3.98774
39.7027 70.0279 3.99007
41.8612 69.8813 2
42.1111 72.2082 3.99394
43.9741 69.5933 0.00965218
44.377 71.8637 2
44.8159 74.2794 4
46.6094 71.3686 0.00586266
47.2057 73.7222 2
49.554 73.0099 0
48.7844 4.32155 3.99344
50.9543 5.13041 2
51.8506 2.85458 4
53.0643 6.07015 0.00702559
54.0858 3.86728 2
56.25 5.02411 0
61.9723 45.9242 0.0276442
63.3331 42.5532 0.0287227
61.4564 43.688 0.0272129
62.432 40.7005 0.0280859
63.8981 39.2683 0.0292528
65.8925 37.5025 0.0298626
63.9585 37.4578 2
62.1519 39.3571 2
61.2216 41.9623 2
60.2566 44.7767 2
61.9861 37.4457 3.97146
60.2433 39.8504 3.97285
58.9974 42.9243 3.97344
64.0921 35.6325 0.0294039
62.9351 33.0454 0.0287803
60.6214 30.6098 0.0271816
57.9425 16.9735 0.0183866
57.7203 19.4654 0.0213494
57.3769 21.8314 0.0277012
59.5739 27.9057 0.0280363
57.7436 25.7202 0.0250041
57.1917 23.9405 0.0271509
55.5396 16.9613 0.0183752
53.76 16.9687 0.0184977
52.9787 15.2517 0.0189442
50.1128 7.2821 0.0109244
52.1726 12.7879 0.0160326
51.2329 10.1188 0.0140106
62.1881 35.3595 2
60.2975 32.7443 2
58.6288 30.0725 2
56.6394 18.1445 2
56.3627 20.5103 2
56.1144 22.8627 2
57.2941 27.376 2
56.2966 25.0969 2
48.0565 6.52473 2
49.3246 9.32636 2
54.4171 17.9088 2
52.3621 17.0231 2
51.3784 14.4866 2
50.4333 11.9856 2
59.8878 35.1199 3.97214
58.0028 32.2684 3.97402
56.5498 29.336 3.97368
55.4493 26.5933 3.97564
55.3452 19.1791 3.98066
54.9336 24.0521 3.96907
55.0055 21.553 3.97335
45.9623 5.88022 3.98977
43.3734 7.47004 3.98768
47.3549 8.62059 3.98678
48.6001 11.2878 3.9848
49.7143 13.7347 3.9834
50.6344 16.121 3.98074
53.1267 18.6484 3.97924
51.3038 18.0366 3.98569
51.1687 65.133 0.0124914
52.0469 62.5461 0.0150795
58.3093 46.856 0.0267416
52.8357 60.1446 0.0185129
55.4833 58.2589 0.0200767
53.642 58.4811 0.0199288
57.5644 51.795 0.0261265
56.2488 49.5606 0.0217567
55.4755 55.8 0.0254905
55.3608 53.3881 0.0299273
50.3466 63.3883 2
51.2448 60.9453 2
54.2224 57.2765 2
52.3141 58.6451 2
56.72 44.191 2
55.4966 47.9036 2
55.072 51.3912 2
54.0079 54.5511 2
49.5924 61.753 3.98435
55.6289 41.7127 3.97573
50.5679 59.338 3.97996
52.1873 56.4991 3.97615
54.1825 45.572 3.97668
53.3386 49.3326 3.97466
52.6696 52.8513 3.96957
48.6188 64.1296 0.0138749
47.9622 62.4836 2
47.3297 61.0186 3.98415
43.6322 67.4742 0.0121481
45.1333 65.2048 0.0133734
46.3823 63.0622 0.0145688
41.6639 67.6938 2
43.357 65.5152 2
45.9876 61.5966 2
44.7673 63.4642 2
45.7666 60.6407 3.98379
44.4837 61.8459 3.98468
43.1469 63.7362 3.98587
41.5466 65.6526 3.98658
39.6329 67.773 3.98754
37.526 70.053 3.98994
39.7027 70.0285 2
39.8179 72.4053 3.99385
41.8612 69.8807 0.00977855
42.1113 72.2085 2
42.3947 74.6792 4
44.3768 71.8634 0.00593942
44.8159 74.2794 2
47.2057 73.7222 0
43.8516 5.3573 3.98998
46.5704 3.64608 3.99369
48.7847 4.32136 2
49.554 1.99015 4
50.954 5.13053 0.00681227
51.8506 2.85453 2
54.0858 3.86728 0
60.2568 44.7767 0.0262106
61.2215 41.9623 0.0274408
62.1519 39.357 0.0284456
63.9588 37.4578 0.0294111
61.9861 37.4456 2
60.2431 39.8504 2
58.9969 42.9243 2
59.747 37.5683 3.97227
57.9895 40.6619 3.97353
55.098 39.7263 3.97507
62.1883 35.3596 0.0288886
60.2972 32.7444 0.0276595
58.6287 30.0725 0.0270611
56.6393 18.1455 0.0186321
56.3621 20.5114 0.0250711
56.1138 22.8627 0.0304887
57.2936 27.3761 0.0268386
56.2967 25.0966 0.0263728
54.4172 17.9097 0.0181673
52.3625 17.0238 0.0193712
51.3785 14.4873 0.0173486
48.0564 6.52521 0.010567
49.3246 9.32676 0.0136178
50.4334 11.9862 0.0156625
59.8874 35.1198 2
45.9623 5.87976 2
43.3735 7.46963 2
58.0033 32.2684 2
56.5512 29.336 2
55.3454 19.178 2
55.0061 21.5516 2
54.9339 24.0526 2
55.448 26.5938 2
47.3549 8.62007 2
48.5999 11.2875 2
53.1266 18.6474 2
51.3037 18.0361 2
50.6341 16.1202 2
49.7142 13.7341 2
57.3906 34.7606 3.9748
55.7338 31.5169 3.97489
54.4961 28.3991 3.97633
53.7738 25.4927 3.97448
53.9721 20.1269 3.98029
53.5842 22.7034 3.96926
41.3985 7.0754 3.98796
45.3595 7.99198 3.98704
42.8652 9.41134 3.98618
46.6662 10.6488 3.98502
47.7455 13.0953 3.98349
48.9318 15.392 3.98234
50.0074 17.6904 3.97979
51.6526 19.3123 3.98809
50.3469 63.3877 0.0143044
51.2449 60.9443 0.0170573
56.721 44.1912 0.0243919
55.4967 47.9039 0.0253427
52.3141 58.6439 0.0203137
54.2221 57.2749 0.0205151
55.0713 51.3913 0.0288842
54.0071 54.5493 0.0271036
49.5921 61.7536 2
55.628 41.7126 2
50.5678 59.3392 2
52.1878 56.5004 2
54.1858 45.5718 2
53.3396 49.3315 2
52.6708 52.851 2
48.8496 60.2114 3.9829
52.5299 42.6504 3.97639
49.7906 57.6367 3.97852
50.5946 54.4342 3.97422
51.8029 47.2762 3.97664
51.2137 50.9456 3.9693
48.1521 43.8155 3.99165
47.9625 62.4831 0.0150492
47.3294 61.0191 2
46.6192 59.8058 3.98326
41.6641 67.6932 0.0122568
43.3572 65.5147 0.0132829
44.7676 63.4635 0.0139898
45.9878 61.5959 0.0153371
39.6328 67.7736 2
41.5464 65.653 2
45.7664 60.6414 2
43.1466 63.7367 2
44.4835 61.8466 2
44.624 60.3036 3.98413
42.9508 62.0948 3.9852
41.6003 63.8299 3.98584
39.6479 65.6208 3.98622
37.5633 67.7554 3.98753
31.6966 65.1394 3.98646
33.3917 67.4929 3.98747
35.3331 69.9631 3.9899
37.526 70.0536 2
37.5095 72.4598 3.99372
39.7027 70.0279 0.00992643
39.818 72.4056 2
39.9526 74.9197 4
42.1111 72.2082 0.00605857
42.3947 74.6792 2
44.8159 74.2794 0
41.7361 4.96654 3.99016
43.8516 5.3569 2
44.3257 3.10937 3.9938
46.5707 3.64586 2
47.2057 1.27793 4
48.7844 4.32155 0.00655847
49.554 1.99013 2
51.8506 2.85458 0
58.9974 42.9243 0.0265645
60.2433 39.8504 0.0271488
61.9861 37.4457 0.0285444
59.7474 37.5683 2
57.9888 40.6619 2
55.0972 39.7263 2
56.8119 37.8988 3.97549
49.5704 41.3439 3.98689
53.1317 39.3107 3.97727
39.4418 6.79894 3.98806
59.8878 35.1199 0.0278572
58.0028 32.2684 0.0259849
56.5498 29.336 0.0263166
55.3452 19.1791 0.0193385
55.0055 21.553 0.0266492
54.9336 24.0521 0.0309305
55.4493 26.5933 0.0243551
53.1267 18.6484 0.020762
51.3038 18.0366 0.0143137
50.6344 16.121 0.0192625
45.9623 5.88022 0.0102293
49.7143 13.7347 0.0165994
47.3549 8.62059 0.0132197
48.6001 11.2878 0.0152041
43.3734 7.47004 0.0123243
57.3905 34.7607 2
41.3985 7.07488 2
45.3596 7.99152 2
42.8652 9.41092 2
55.7309 31.5172 2
54.4972 28.3996 2
53.9724 20.1256 2
53.5845 22.7 2
53.7736 25.4931 2
46.6662 10.6483 2
47.7452 13.0949 2
51.6528 19.312 2
50.0073 17.6897 2
48.9315 15.3912 2
54.8833 33.971 3.976
53.487 30.4819 3.97478
52.5862 27.1927 3.97581
52.1469 24.0895 3.9728
52.3931 21.0483 3.98129
41.0132 9.04462 3.9861
44.7233 9.99182 3.98531
42.468 10.8975 3.98442
46.005 12.7236 3.98341
47.6818 14.5771 3.98318
48.1149 16.9806 3.97966
49.819 19.5945 3.97626
49.5924 61.753 0.0156526
50.5679 59.338 0.020043
55.6289 41.7127 0.0242673
54.1825 45.572 0.0233214
53.3386 49.3326 0.0253428
52.1873 56.4991 0.0238488
52.6696 52.8513 0.0304284
48.8493 60.2119 2
52.5311 42.6492 2
49.7906 57.638 2
50.5953 54.4362 2
51.8028 47.2748 2
51.2151 50.944 2
48.1526 43.8221 2
47.9878 58.7537 3.98181
50.086 45.2877 3.97533
48.599 55.9276 3.97945
49.1287 52.6003 3.97356
49.6639 49.0522 3.97232
45.9766 39.885 3.90037
46.3972 42.701 3.94719
46.4851 45.8702 3.99653
43.8292 41.1853 3.89602
42.0252 42.0304 3.85192
47.3297 61.0186 0.0158548
46.6189 59.8063 2
45.4689 58.8029 3.98379
39.6329 67.773 0.0124642
41.5466 65.6526 0.0134225
43.1469 63.7362 0.0141299
44.4837 61.8459 0.0153153
45.7666 60.6407 0.0162135
41.6 63.8303 2
37.5632 67.756 2
39.6477 65.6213 2
44.6237 60.3043 2
42.9506 62.0953 2
41.7538 62.5056 3.98546
42.4819 59.9968 3.98539
39.8937 63.5651 3.98549
37.6423 65.5199 3.98581
35.4632 67.6647 3.98746
33.575 65.3529 3.98611
31.9589 63.3134 3.98561
29.8825 64.7304 3.98662
31.6966 65.14 2
31.3761 67.2026 3.98758
33.3917 67.4935 2
33.1558 69.7564 3.98993
35.3331 69.9637 2
35.1948 72.3742 3.9937
37.526 70.053 0.0100581
37.5095 72.4601 2
37.5 75 4
39.8179 72.4053 0.00615098
39.9526 74.9197 2
42.3947 74.6792 0
39.6235 4.71369 3.99025
41.7361 4.96607 2
42.062 2.71703 3.99389
43.8516 5.3573 0.0100236
44.3259 3.10914 2
44.8158 0.721173 4
46.5704 3.64608 0.00631337
47.2057 1.27779 2
49.554 1.99015 0
57.9895 40.6619 0.026474
59.747 37.5683 0.0277297
55.098 39.7263 0.0249327
49.5795 41.3477 2
56.812 37.8988 2
53.1307 39.3097 2
53.9807 36.6295 3.97725
47.4987 40.4343 3.95051
50.5185 38.5128 3.98296
37.5156 6.66993 3.98804
39.4419 6.79844 2
39.2106 8.68719 3.98634
35.9409 8.48676 3.98657
57.3906 34.7606 0.0252024
55.7338 31.5169 0.0251103
54.4961 28.3991 0.0236701
53.9721 20.1269 0.0197051
53.5842 22.7034 0.0307356
53.7738 25.4927 0.0255225
51.6526 19.3123 0.0119098
50.0074 17.6904 0.0202125
48.9318 15.392 0.0176568
45.3595 7.99198 0.0129622
47.7455 13.0953 0.0165065
46.6662 10.6488 0.0149809
41.3985 7.0754 0.012042
42.8652 9.41134 0.0138228
54.8855 33.971 2
41.0132 9.04411 2
44.7233 9.99143 2
42.4678 10.897 2
53.4844 30.4811 2
52.5875 27.1938 2
52.3936 21.0479 2
52.1475 24.0898 2
46.0047 12.7231 2
47.6815 14.5765 2
49.8191 19.5934 2
48.1146 16.9796 2
52.4361 32.8727 3.97812
51.3134 29.1512 3.97405
50.7915 25.7187 3.9718
49.9427 22.1765 3.97841
40.5687 11.601 3.98407
43.8577 11.913 3.9845
45.8032 15.4132 3.98236
47.5051 19.2139 3.97778
46.3123 37.5018 3.90744
48.8496 60.2114 0.0171005
49.7906 57.6367 0.0214756
52.5299 42.6504 0.0236125
51.8029 47.2762 0.0233616
51.2137 50.9456 0.0307015
50.5946 54.4342 0.0257798
48.1521 43.8155 0.00835248
47.9875 58.7543 2
50.0897 45.2889 2
48.5992 55.9292 2
49.1298 52.6032 2
49.665 49.0511 2
45.9927 39.892 2
46.4105 42.7102 2
46.4848 45.8623 2
43.8449 41.1949 2
42.0309 42.0353 2
46.8396 57.3575 3.98361
44.5777 39.4696 3.88576
42.3843 40.8946 3.87181
48.0758 47.2534 3.97778
47.1674 54.2615 3.97911
47.5847 50.7572 3.975
44.7945 47.4475 3.99828
45.0678 41.9813 3.90619
44.913 44.6073 3.95223
42.6579 42.712 3.89618
40.9074 42.3792 3.88102
46.6192 59.8058 0.0167422
45.4685 58.8037 2
43.8771 57.7291 3.9848
37.5633 67.7554 0.0124733
39.6479 65.6208 0.0137845
41.6003 63.8299 0.0141596
42.9508 62.0948 0.0148011
44.624 60.3036 0.0158692
35.4631 67.6653 2
41.7536 62.506 2
39.8935 63.5655 2
37.6422 65.5204 2
42.4817 59.9975 2
40.6235 61.6648 3.98485
40.4459 58.232 3.98569
37.8369 63.2265 3.98524
35.5728 65.442 3.98589
33.575 65.3533 2
31.9589 63.3138 2
33.6286 63.3533 3.98523
30.3777 62.8719 3.98584
32.1225 62.0209 3.98552
26.8674 61.5151 3.98496
28.0613 64.1582 3.98635
29.8826 64.731 2
29.4054 66.7663 3.9877
31.6966 65.1394 0.0135365
31.3761 67.2032 2
31.0129 69.4214 3.98995
33.3917 67.4929 0.0125304
33.1557 69.757 2
32.8919 72.1484 3.99372
35.3331 69.9631 0.0100991
35.1948 72.3745 2
35.0474 74.9194 4
37.5095 72.4598 0.00628079
37.5 75 2
39.9526 74.9197 0
35.62 6.72084 3.98812
37.5226 4.61313 3.99038
39.6236 4.71325 2
39.7884 2.47348 3.99399
41.7361 4.96654 0.00983606
42.0622 2.71675 2
42.3946 0.32156 4
44.3257 3.10937 0.00620411
44.8159 0.72056 2
47.2057 1.27793 0
49.5704 41.3439 0.0131132
56.8119 37.8988 0.0245145
53.1317 39.3107 0.0227345
47.5078 40.4389 2
50.5245 38.5137 2
53.9809 36.6297 2
51.3145 35.5835 3.97165
48.1578 37.7678 3.96895
45.9813 35.1404 3.90586
43.833 33.8312 3.89149
42.026 32.9876 3.84996
37.4573 8.52891 3.98625
37.5156 6.6694 2
39.4418 6.79894 0.0119362
39.2106 8.68665 2
38.9757 10.1195 3.98588
35.8975 9.76622 3.98535
34.1493 8.81604 3.98649
35.9409 8.48615 2
54.8833 33.971 0.0239956
53.487 30.4819 0.0252221
52.5862 27.1927 0.0241889
52.3931 21.0483 0.0187148
52.1469 24.0895 0.0271957
49.819 19.5945 0.023744
48.1149 16.9806 0.02034
47.6818 14.5771 0.0168176
44.7233 9.99182 0.0146916
46.005 12.7236 0.0165928
41.0132 9.04462 0.0139029
42.468 10.8975 0.0155773
52.4367 32.872 2
40.5685 11.6006 2
43.8574 11.9126 2
51.3209 29.1517 2
50.7921 25.7202 2
49.9431 22.1752 2
45.8027 15.4126 2
47.5052 19.2128 2
49.9739 31.4075 3.96862
49.2831 27.4666 3.97679
49.4071 24.3894 3.97834
47.1889 21.9284 3.97537
38.3009 12.7252 3.98463
42.1012 14.2961 3.98342
44.8016 18.4474 3.98236
44.8616 37.5147 3.88505
46.3343 37.5084 2
47.9878 58.7537 0.0181947
48.599 55.9276 0.0205494
50.086 45.2877 0.0246725
49.6639 49.0522 0.0276831
49.1287 52.6003 0.026438
45.9766 39.885 0.0996288
46.3972 42.701 0.0528051
46.4851 45.8702 0.0034738
43.8292 41.1853 0.103983
42.0252 42.0304 0.148083
46.8392 57.3584 2
44.5912 39.4759 2
42.3831 40.8946 2
48.0778 47.2536 2
47.168 54.264 2
47.5863 50.7595 2
44.7987 47.4246 2
45.0798 41.9903 2
44.9262 44.6198 2
42.6793 42.7279 2
40.9087 42.3779 2
45.399 55.9455 3.9852
42.7231 39.2785 3.88585
40.8448 40.8204 3.93003
46.0874 48.93 3.98363
45.5424 52.5545 3.98027
43.4503 48.4781 4.01196
43.3527 46.1765 3.95979
43.6612 43.8015 3.90325
41.1613 43.8901 3.89448
39.3042 42.7304 3.89766
45.4689 58.8029 0.0162078
43.8767 57.7296 2
42.1077 56.3578 3.98727
35.4632 67.6647 0.0125439
37.6423 65.5199 0.0141945
39.8937 63.5651 0.0145114
41.7538 62.5056 0.0145393
42.4819 59.9968 0.0146086
35.5728 65.4426 2
40.6232 61.6652 2
37.8367 63.2269 2
40.4459 58.2325 2
38.9262 56.5302 3.99011
38.2505 60.3499 3.98536
35.6068 63.22 3.98505
33.575 65.3529 0.0138904
31.9589 63.3134 0.0143916
33.6286 63.3537 2
30.3778 62.8723 2
32.1225 62.0213 2
28.6802 62.2168 3.98555
33.3454 61.5342 3.98537
31.0655 61.2385 3.98558
27.5662 59.6139 3.98331
23.7889 59.0984 3.98236
25.0328 60.8872 3.9837
26.8675 61.5154 2
26.2278 63.4905 3.98613
28.0615 64.1587 2
27.4618 66.19 3.98771
29.8825 64.7304 0.0133843
29.4055 66.7668 2
28.905 68.9469 3.99002
31.3761 67.2026 0.0124162
31.0128 69.4219 2
30.6142 71.7795 3.99378
33.1558 69.7564 0.0100715
32.8917 72.1487 2
32.6054 74.6784 4
35.1948 72.3742 0.00630141
35.0474 74.9197 2
37.5 75 0
33.7225 6.9753 3.9878
35.4339 4.6835 3.99036
35.62 6.72028 2
37.5139 2.3861 3.99408
37.5226 4.61268 2
39.6235 4.71369 0.00974876
39.7885 2.47319 2
39.9526 0.0806499 4
42.062 2.71703 0.00611073
42.3947 0.320817 2
44.8158 0.721173 0
44.5913 35.5486 3.8839
42.3894 34.118 3.87018
47.4987 40.4343 0.0494925
50.5185 38.5128 0.0170427
53.9807 36.6295 0.0227501
48.1653 37.7682 2
51.3186 35.5826 2
45.9921 35.1293 2
43.8509 33.8185 2
42.0322 32.9838 2
48.3341 34.2844 3.98883
45.0672 33.0383 3.90325
42.6609 32.3078 3.89624
40.9068 32.6412 3.88078
37.3096 10.6228 3.98507
37.4573 8.52827 2
37.5156 6.66993 0.0119626
39.2106 8.68719 0.013661
38.9757 10.119 2
34.7525 10.3715 3.98524
35.8975 9.76557 2
32.3759 9.36237 3.98601
34.1492 8.81535 2
35.9409 8.48676 0.0134302
52.4361 32.8727 0.0218847
51.3134 29.1512 0.0259483
50.7915 25.7187 0.028204
49.9427 22.1765 0.0215858
47.5051 19.2139 0.0222175
45.8032 15.4132 0.0176389
43.8577 11.913 0.0154974
40.5687 11.601 0.015933
49.9756 31.4055 2
38.3006 12.7249 2
42.1006 14.2955 2
49.2834 27.4681 2
49.4077 24.3886 2
47.1897 21.9301 2
44.8016 18.4471 2
47.7874 29.5552 3.98375
47.1065 25.1208 3.98166
44.2917 21.2951 3.98149
36.5804 12.9213 3.98409
38.6804 14.7931 3.98385
41.75 17.8228 3.98155
42.8761 37.4966 3.88435
44.886 37.5111 2
46.3123 37.5018 0.0925628
46.8396 57.3575 0.0163937
47.1674 54.2615 0.0208857
48.0758 47.2534 0.0222214
47.5847 50.7572 0.0250029
44.5777 39.4696 0.114239
45.0678 41.9813 0.093806
44.913 44.6073 0.0477659
44.7945 47.4475 0.00171598
42.6579 42.712 0.103819
42.3843 40.8946 0.128188
40.9074 42.3792 0.118976
45.3986 55.9466 2
42.7265 39.2774 2
40.8429 40.8176 2
46.0889 48.9314 2
45.5438 52.5576 2
43.4525 48.499 2
43.3768 46.1916 2
43.6768 43.8118 2
41.1776 43.897 2
39.3048 42.726 2
43.7377 54.4604 3.99176
40.9547 39.1832 3.95685
39.21 40.9141 3.95726
43.7019 50.5327 3.99493
41.9609 47.7135 3.98384
41.8692 45.2114 3.90427
39.4086 44.6263 3.9049
37.492 42.8616 3.90361
43.8771 57.7291 0.015199
42.1074 56.3578 2
40.4203 54.9693 3.98834
35.5728 65.442 0.0141094
37.8369 63.2265 0.014761
40.6235 61.6648 0.0151533
40.4459 58.232 0.0143145
35.6068 63.2204 2
38.2503 60.35 2
38.9258 56.5321 2
38.0002 55.2897 3.98794
36.9349 57.6572 3.98667
35.3633 60.934 3.98541
33.6286 63.3533 0.0147657
30.3777 62.8719 0.0141592
32.1225 62.0209 0.014484
33.3453 61.5346 2
28.6803 62.2172 2
31.0655 61.2389 2
29.4016 60.3078 3.98493
32.3551 59.7678 3.98556
28.0187 58.3937 3.98391
27.5663 59.6142 2
25.3758 58.6117 3.98067
22.752 58.2558 3.9777
23.3983 60.3656 3.98167
23.7888 59.0991 2
25.0329 60.8878 2
24.4303 62.7825 3.9855
26.8674 61.5151 0.0150354
26.228 63.4909 2
25.5458 65.4999 3.98775
28.0613 64.1582 0.0136472
27.4619 66.1905 2
26.8345 68.3352 3.99002
29.4054 66.7663 0.0123
28.9049 68.9473 2
28.3692 71.2647 3.99383
31.0129 69.4214 0.01005
30.614 71.7798 2
30.1842 74.2788 4
32.8919 72.1484 0.00627966
32.6053 74.6792 2
35.0474 74.9194 0
31.7868 7.41499 3.98761
33.3457 4.92261 3.99028
33.7225 6.97469 2
35.2441 2.46225 3.99406
35.4339 4.68301 2
35.62 6.72084 0.0118837
37.5 0 4
37.514 2.3858 2
37.5226 4.61313 0.00961697
39.7884 2.47348 0.00600846
39.9526 0.0802889 2
42.3946 0.32156 0
42.7386 35.7228 3.88405
44.6047 35.5429 2
40.8504 34.1915 3.92876
42.3894 34.1185 2
48.1578 37.7678 0.0310507
51.3145 35.5835 0.0283486
45.9813 35.1404 0.0941426
43.833 33.8312 0.108513
42.026 32.9876 0.150043
48.3404 34.2781 2
45.0799 33.0278 2
42.6792 32.2954 2
40.9058 32.6414 2
46.311 31.5577 3.97038
43.6602 31.226 3.90293
41.1709 31.1305 3.89246
39.3043 32.2777 3.89723
35.6906 11.7665 3.98414
37.3096 10.6223 2
37.4573 8.52891 0.0137544
38.9757 10.1195 0.0141164
33.0962 11.2077 3.98413
34.7526 10.3707 2
35.8975 9.76622 0.0146519
30.4804 10.0103 3.98541
32.3758 9.36167 2
34.1493 8.81604 0.013512
49.9739 31.4075 0.0313785
49.2831 27.4666 0.0232053
49.4071 24.3894 0.0216552
47.1889 21.9284 0.0246268
44.8016 18.4474 0.0176371
42.1012 14.2961 0.0165815
38.3009 12.7252 0.0153684
36.5802 12.9208 2
47.7874 29.5517 2
38.6798 14.7929 2
41.7497 17.8218 2
47.1076 25.123 2
44.2925 21.2949 2
45.5588 27.6499 4.00051
43.8062 24.0158 3.99815
41.3422 20.6979 3.9815
35.7702 14.7452 3.98367
38.6807 17.577 3.98271
41.0013 37.4883 3.96679
42.8834 37.4981 2
44.8616 37.5147 0.114948
45.399 55.9455 0.0147951
45.5424 52.5545 0.019727
46.0874 48.93 0.0163699
42.7231 39.2785 0.114149
43.6612 43.8015 0.0967482
43.3527 46.1765 0.0402114
43.4503 48.4781 -0.011959
41.1613 43.8901 0.105521
40.8448 40.8204 0.0699732
39.3042 42.7304 0.102341
43.7375 54.4608 2
40.9541 39.1811 2
39.2078 40.9081 2
43.7035 50.5415 2
41.9647 47.7277 2
41.8908 45.2225 2
37.4934 42.8577 2
39.4266 44.6297 2
41.8836 53.0376 3.99673
39.2155 39.1829 3.97975
37.4928 40.9643 3.96635
35.686 42.7297 3.8981
40.938 49.766 4.00461
39.8002 46.1125 3.89116
37.4918 44.8768 3.90494
42.1077 56.3578 0.0127269
40.4195 54.9702 2
38.7303 53.9031 3.99064
35.6068 63.22 0.0149476
38.2505 60.3499 0.0146398
38.9262 56.5302 0.00988711
35.3631 60.9342 2
36.9343 57.6572 2
37.9992 55.2905 2
36.3187 55.4229 3.9915
34.4869 58.548 3.98602
33.3454 61.5342 0.0146301
28.6802 62.2168 0.014445
31.0655 61.2385 0.014416
32.3551 59.7681 2
29.4016 60.3081 2
30.2942 57.8415 3.98718
28.0186 58.3941 2
26.9387 56.8422 3.98059
27.5662 59.6139 0.0166923
25.3757 58.6122 2
23.8324 56.8204 3.97572
21.3277 57.4138 3.97725
21.9903 59.6368 3.98125
22.7518 58.2567 2
22.734 62.0331 3.98405
23.3984 60.3663 2
23.7889 59.0984 0.0176409
25.0328 60.8872 0.0162962
24.4304 62.7831 2
23.6797 64.718 3.98733
26.2278 63.4905 0.0138654
25.546 65.5003 2
24.8067 67.5962 3.98998
27.4618 66.19 0.0122865
26.8345 68.3356 2
26.1644 70.6055 3.99386
28.905 68.9469 0.00998383
28.369 71.2649 2
27.7943 73.7221 4
30.6142 71.7795 0.00622454
30.1841 74.2794 2
32.6054 74.6784 0
29.8092 7.98809 3.98716
31.2508 5.32976 3.99001
31.7867 7.41428 2
32.9798 2.70037 3.99399
33.3458 4.92206 2
33.7225 6.9753 0.0122039
35.0474 0.080333 4
35.2441 2.46195 2
35.4339 4.6835 0.00964403
37.5 0 2
37.5139 2.3861 0.00591948
39.9526 0.0806499 0
40.9622 35.805 3.95749
42.7408 35.725 2
44.5913 35.5486 0.116104
28.5411 10.6853 3.98549
39.212 34.0967 3.95732
40.8489 34.1946 2
42.3894 34.118 0.129822
48.3341 34.2844 0.0111652
45.0672 33.0383 0.0967481
42.6609 32.3078 0.103764
40.9068 32.6412 0.119216
46.3242 31.5517 2
43.6697 31.2146 2
41.1875 31.1191 2
39.304 32.2815 2
44.4017 29.7385 3.95666
41.8835 29.8105 3.90656
39.4204 30.3811 3.90554
37.4912 32.1425 3.90408
34.0903 12.9239 3.98361
35.6906 11.7658 2
37.3096 10.6228 0.0149295
31.1841 11.9756 3.98459
33.0962 11.2069 2
34.7525 10.3715 0.0147582
30.4804 10.0095 2
32.3759 9.36237 0.013987
47.7874 29.5552 0.0162516
47.1065 25.1208 0.01834
36.5804 12.9213 0.0159057
44.2917 21.2951 0.0185074
41.75 17.8228 0.0184534
38.6804 14.7931 0.0161453
35.7697 14.7447 2
45.5585 27.6456 2
38.6801 17.5766 2
41.3425 20.6957 2
43.808 24.0205 2
33.6053 15.8611 3.9834
43.0692 26.4811 4.00218
40.9196 23.2653 3.99206
38.4217 20.3029 3.98383
35.8467 17.4907 3.98424
39.2243 37.4871 3.98598
40.9992 37.4882 2
42.8761 37.4966 0.115651
43.7377 54.4604 0.00824152
43.7019 50.5327 0.00507242
40.9547 39.1832 0.0431506
41.8692 45.2114 0.0957271
41.9609 47.7135 0.0161575
39.4086 44.6263 0.0950958
39.21 40.9141 0.0427393
37.492 42.8616 0.0963947
41.8829 53.0391 2
39.2155 39.182 2
37.4929 40.9595 2
40.9399 49.7709 2
35.6852 42.7268 2
39.8224 46.1289 2
37.4901 44.8736 2
39.8283 51.9582 3.99848
37.4909 39.1952 3.97626
35.7768 40.9203 3.95661
34.0808 42.3728 3.88119
35.5592 44.6284 3.90255
38.7281 48.7695 3.9953
37.4893 46.4395 3.89133
40.4203 54.9693 0.0116559
38.729 53.9034 2
36.7204 53.2631 4.00356
35.3633 60.934 0.0145919
36.9349 57.6572 0.0133281
38.0002 55.2897 0.0120605
34.4866 58.548 2
36.3179 55.4222 2
33.2221 55.5359 3.98783
32.3551 59.7678 0.0144423
29.4016 60.3078 0.0150719
30.2943 57.8418 2
28.6811 55.3341 3.98031
28.0187 58.3937 0.0160946
26.9385 56.8427 2
25.3004 55.1587 3.97661
21.7987 55.36 3.9732
25.3758 58.6117 0.019335
23.8321 56.8211 2
20.2117 57.0428 3.97965
20.6407 58.7939 3.9799
21.3275 57.4146 2
21.164 61.1821 3.98303
21.9903 59.6376 2
22.752 58.2558 0.0223006
21.8931 63.8456 3.98653
22.7341 62.0338 2
23.3983 60.3656 0.0183267
24.4303 62.7825 0.0145046
23.6799 64.7186 2
22.8349 66.7397 3.98987
25.5458 65.4999 0.0122482
24.8067 67.5966 2
24.0086 69.8065 3.9938
26.8345 68.3352 0.00998362
26.1642 70.6056 2
25.446 73.0099 4
28.3692 71.2647 0.00616823
27.7943 73.7222 2
30.1842 74.2788 0
27.819 8.64759 3.98691
29.1527 5.87547 3.9897
29.8091 7.98733 2
30.725 3.09754 3.9938
31.2508 5.32916 2
31.7868 7.41499 0.0123943
32.6053 0.320823 4
32.9797 2.70005 2
33.3457 4.92261 0.00971809
35.0474 0.0802903 2
35.2441 2.46225 0.00594336
37.5 0 0
39.2248 35.8036 3.98057
40.9611 35.8073 2
42.7386 35.7228 0.115947
28.5412 10.6846 2
26.62 11.3802 3.98529
29.2229 12.6317 3.9849
37.4927 34.0418 3.96698
39.21 34.1013 2
40.8504 34.1915 0.0712362
46.311 31.5577 0.0296152
43.6602 31.226 0.0970689
41.1709 31.1305 0.107541
39.3043 32.2777 0.102773
44.4189 29.7263 2
41.9052 29.7955 2
39.4356 30.3766 2
37.4919 32.1463 2
42.3535 28.3749 3.94316
39.8397 28.8966 3.90305
37.4996 30.1194 3.90471
35.6823 32.2674 3.89656
31.9116 14.468 3.98406
34.0902 12.9232 2
35.6906 11.7665 0.0158577
31.1841 11.9748 2
33.0962 11.2077 0.0158681
30.4804 10.0103 0.0145889
45.5588 27.6499 -0.00051494
43.8062 24.0158 0.00185077
35.7702 14.7452 0.0163345
41.3422 20.6979 0.0184985
38.6807 17.577 0.0172886
33.6049 15.861 2
35.846 17.4906 2
43.0702 26.4779 2
38.4211 20.3024 2
40.9206 23.2605 2
33.5475 17.3683 3.98511
40.4446 25.6051 4.01232
38.0769 22.8281 3.99262
35.5823 20.0545 3.9859
37.4946 37.4945 3.97793
39.2229 37.4864 2
41.0013 37.4883 0.033214
41.8836 53.0376 0.00326882
40.938 49.766 -0.00460732
39.2155 39.1829 0.0202543
39.8002 46.1125 0.10884
37.4918 44.8768 0.0950612
37.4928 40.9643 0.0336499
35.686 42.7297 0.101895
39.8286 51.9603 2
37.4917 39.1934 2
35.7793 40.916 2
38.7264 48.797 2
34.0809 42.3719 2
35.5484 44.6363 2
37.4868 46.4603 2
37.6697 51.0615 4.01053
35.7714 39.196 3.98041
34.1461 40.8234 3.92981
32.9598 42.0235 3.85093
33.8088 43.8806 3.89209
35.1604 46.1063 3.89951
36.8583 48.4213 3.98222
38.7303 53.9031 0.00935569
36.7198 53.2615 2
34.3584 52.516 3.98977
34.4869 58.548 0.0139808
36.3187 55.4229 0.00849953
33.2219 55.5354 2
30.5093 53.4263 3.98292
30.2942 57.8415 0.0128248
28.681 55.3351 2
26.8683 53.4491 3.97506
26.9387 56.8422 0.0194055
25.3002 55.16 2
23.5592 53.4958 3.97196
20.4535 53.2353 3.96932
19.923 55.845 3.97712
21.7983 55.3608 2
23.8324 56.8204 0.0242798
19.4327 57.9043 3.97896
20.2114 57.0434 2
19.7032 60.2152 3.98172
20.6406 58.7947 2
21.3277 57.4138 0.0227545
20.2055 62.8665 3.98511
21.1641 61.1829 2
21.9903 59.6368 0.0187521
20.9364 65.7686 3.98954
21.8933 63.8463 2
22.734 62.0331 0.0159475
23.6797 64.718 0.0126714
22.835 66.7402 2
21.9111 68.8736 3.99369
24.8067 67.5962 0.0100225
24.0084 69.8067 2
23.1494 72.1454 4
26.1644 70.6055 0.00613665
25.446 73.0099 2
27.7943 73.7221 0
25.8581 9.37541 3.98669
27.0674 6.53947 3.98937
27.8189 8.64682 2
28.4871 3.64345 3.99363
29.1526 5.87483 2
29.8092 7.98809 0.0128438
30.1841 0.720592 4
30.7249 3.09723 2
31.2508 5.32976 0.00999326
32.6053 0.320817 2
32.9798 2.70037 0.00601463
35.0474 0.080333 0
37.4968 35.7998 3.97715
39.2232 35.8031 2
40.9622 35.805 0.0425137
24.7748 12.0629 3.98546
23.749 14.3468 3.98442
28.5411 10.6853 0.0145133
26.6201 11.3797 2
29.223 12.6309 2
27.2891 13.3643 3.98467
29.7775 14.1901 3.98391
35.779 34.0818 3.95701
37.4927 34.0463 2
39.212 34.0967 0.042683
37.4912 32.1425 0.0959226
44.4017 29.7385 0.0433414
41.8835 29.8105 0.0934445
39.4204 30.3811 0.094459
42.3716 28.3613 2
39.8565 28.8785 2
37.5017 30.1211 2
35.6831 32.2708 2
40.0407 27.5168 3.94474
37.5123 28.5572 3.8996
35.5685 30.3721 3.90584
34.0834 32.6199 3.88001
30.923 16.8228 3.98418
31.9116 14.4674 2
34.0903 12.9239 0.0163939
31.1841 11.9756 0.0154107
43.0692 26.4811 -0.00218377
40.9196 23.2653 0.0079436
33.6053 15.8611 0.0165981
35.8467 17.4907 0.0157595
38.4217 20.3029 0.0161743
33.5469 17.3686 2
35.5816 20.0539 2
40.4433 25.6025 2
38.0778 22.8285 2
32.8603 19.7715 3.98607
37.7995 25.1353 4.02324
35.2009 22.6079 3.98939
35.768 37.4981 3.9856
37.4947 37.4936 2
39.2243 37.4871 0.0140228
39.8283 51.9582 0.00151583
38.7281 48.7695 0.00469673
37.4909 39.1952 0.0237398
37.4893 46.4395 0.108669
35.5592 44.6284 0.0974513
35.7768 40.9203 0.0433877
34.0808 42.3728 0.118808
37.6706 51.0698 2
35.7733 39.1951 2
34.1482 40.8202 2
36.8574 48.4353 2
32.9537 42.0267 2
33.7972 43.8904 2
35.1393 46.1204 2
35.4485 50.1955 4.01454
34.0395 39.1921 3.95724
32.596 40.8919 3.87097
32.3201 42.7024 3.89581
33.1206 45.1975 3.90575
34.2673 47.4823 3.95378
36.7204 53.2631 -0.00355684
34.3582 52.5161 2
31.9857 51.2334 3.99319
33.2221 55.5359 0.0121696
30.5091 53.4274 2
28.4118 51.6293 3.97919
28.6811 55.3341 0.0196883
26.8682 53.4495 2
25.06 51.7688 3.96986
25.3004 55.1587 0.0233894
23.559 53.4955 2
21.9469 51.8178 3.96865
19.1854 51.6452 3.96963
18.9102 54.32 3.97187
20.4533 53.2351 2
18.4398 56.7357 3.97914
19.9226 55.8455 2
21.7987 55.36 0.0267963
18.3648 59.1214 3.97931
19.4326 57.905 2
20.2117 57.0428 0.0203545
18.6163 61.7735 3.98359
19.7032 60.2161 2
20.6407 58.7939 0.0201047
19.1253 64.6793 3.98866
20.2056 62.8673 2
21.164 61.1821 0.0169731
19.8851 67.8101 3.99347
20.9365 65.7692 2
21.8931 63.8456 0.0134727
22.8349 66.7397 0.010134
21.9108 68.8737 2
20.9142 71.1327 4
24.0086 69.8065 0.00619833
23.1494 72.1455 2
25.446 73.0099 0
23.0941 12.7775 3.98501
23.9706 10.1618 3.98662
25.0211 7.30947 3.98923
25.8581 9.37477 2
26.2788 4.32764 3.99346
27.0672 6.53882 2
27.819 8.64759 0.0130877
27.7943 1.27781 4
28.4869 3.64317 2
29.1527 5.87547 0.0103026
30.1841 0.720551 2
30.725 3.09754 0.00620054
32.6053 0.320823 0
35.7714 35.8028 3.98088
37.4965 35.8002 2
39.2248 35.8036 0.0194268
24.775 12.0624 2
23.7493 14.3466 2
22.4775 15.023 3.98393
25.3552 13.8961 3.98425
24.0219 15.6084 3.98345
26.62 11.3802 0.0147053
29.2229 12.6317 0.0151026
27.2892 13.364 2
29.7776 14.1894 2
28.3532 15.9638 3.98427
34.1541 34.1761 3.92855
35.7812 34.0864 2
37.4927 34.0418 0.0330206
35.6823 32.2674 0.103442
37.4996 30.1194 0.0952886
42.3535 28.3749 0.0568375
39.8397 28.8966 0.0969461
40.0514 27.504 2
37.5142 28.5386 2
35.5548 30.3673 2
34.0857 32.6197 2
37.6209 27.1872 3.95159
35.1675 28.877 3.90072
33.8105 31.1145 3.8929
32.9687 32.9695 3.85128
30.2042 19.3239 3.9862
30.9228 16.8226 2
31.9116 14.468 0.0159382
40.4446 25.6051 -0.0123195
38.0769 22.8281 0.00737641
33.5475 17.3683 0.0148874
35.5823 20.0545 0.0141006
32.8591 19.7721 2
35.1997 22.6044 2
37.7937 25.1369 2
32.3062 22.3818 3.98795
34.9632 25.1314 4.01418
33.9942 37.4976 3.96492
35.7696 37.4973 2
37.4946 37.4945 0.0220733
37.6697 51.0615 -0.0105257
36.8583 48.4213 0.0177839
35.7714 39.196 0.019585
35.1604 46.1063 0.100487
33.8088 43.8806 0.107913
34.1461 40.8234 0.070187
32.9598 42.0235 0.149071
35.447 50.2025 2
34.0427 39.19 2
32.5958 40.8901 2
34.2601 47.5132 2
32.3029 42.7122 2
33.099 45.2169 2
33.2189 49.1892 4.00639
32.2516 39.2814 3.88529
31.148 41.1766 3.89303
31.3262 43.7894 3.9021
32.2277 46.4061 3.9527
34.3584 52.516 0.0102264
31.9852 51.2366 2
29.8307 49.7433 3.98628
30.5093 53.4263 0.0170818
28.4116 51.6263 2
26.4823 50.0094 3.97073
26.8683 53.4491 0.0249425
25.0601 51.7673 2
23.3183 50.2122 3.97345
23.5592 53.4958 0.0280426
21.9471 51.8173 2
20.4467 50.3274 3.97052
17.9736 50.3387 3.9724
17.8213 52.8012 3.97061
19.1855 51.6453 2
17.4279 55.351 3.97542
18.9099 54.3204 2
20.4535 53.2353 0.0306833
17.1296 57.8832 3.9799
18.4395 56.7364 2
19.923 55.845 0.0228756
17.1336 60.5562 3.98153
18.3648 59.1222 2
19.4327 57.9043 0.0210359
17.4058 63.4716 3.98708
18.6164 61.7744 2
19.7032 60.2152 0.0182786
17.9412 66.6185 3.99316
19.1254 64.68 2
20.2055 62.8665 0.0148923
18.75 69.9759 4
19.8848 67.8102 2
20.9364 65.7686 0.010464
21.9111 68.8736 0.00630817
20.9142 71.1327 2
23.1494 72.1454 0
21.5849 13.5975 3.98452
22.1886 11.021 3.98623
23.0945 12.7774 2
23.039 8.17481 3.98911
23.9707 10.1615 2
24.1164 5.14231 3.99333
25.021 7.30898 2
25.8581 9.37541 0.0133137
25.446 1.99014 4
26.2785 4.32741 2
27.0674 6.53947 0.0106294
27.7943 1.27778 2
28.4871 3.64345 0.00636854
30.1841 0.720592 0
34.0364 35.804 3.95519
35.7724 35.8022 2
37.4968 35.7998 0.0228539
21.3025 15.8189 3.98301
24.7748 12.0629 0.0145422
23.749 14.3468 0.0155812
25.3554 13.8958 2
22.478 15.0232 2
24.0224 15.6083 2
23.261 16.2397 3.98306
25.3771 16.0761 3.98415
27.2891 13.3643 0.0153289
29.7775 14.1901 0.0160922
28.3537 15.9634 2
27.4358 18.7847 3.98518
32.615 34.1028 3.87205
34.1585 34.178 2
35.779 34.0818 0.0429902
34.0834 32.6199 0.119992
35.5685 30.3721 0.0941631
37.5123 28.5572 0.1004
40.0407 27.5168 0.055257
37.619 27.156 2
32.9649 32.9668 2
35.1516 28.8569 2
33.7948 31.0967 2
35.0682 27.3184 3.96047
33.1148 29.7975 3.90037
32.3206 32.2813 3.89317
29.5686 21.9168 3.99383
30.2037 19.3246 2
30.923 16.8228 0.0158162
37.7995 25.1353 -0.0232386
35.2009 22.6079 0.0106102
32.8603 19.7715 0.013933
32.3048 22.3831 2
34.9711 25.1339 2
31.6707 25.5966 3.99933
32.1126 37.501 3.8849
33.9977 37.4975 2
35.768 37.4981 0.014395
35.4485 50.1955 -0.0145398
34.2673 47.4823 0.0462156
34.0395 39.1921 0.0427623
33.1206 45.1975 0.0942475
32.3201 42.7024 0.104194
32.596 40.8919 0.129034
33.2171 49.1751 2
32.2489 39.2781 2
31.1304 41.1836 2
32.2087 46.4222 2
31.313 43.8003 2
31.1127 48.0123 3.99774
30.3929 39.4536 3.88449
29.9153 41.9736 3.90068
30.3928 44.9816 3.95406
31.9857 51.2334 0.00681485
29.8301 49.7384 2
27.8386 48.2072 3.97501
28.4118 51.6293 0.0208055
26.4826 50.0071 2
24.6193 48.4925 3.97914
25.06 51.7688 0.0301424
23.3188 50.2112 2
21.6304 48.8078 3.97375
21.9469 51.8178 0.0313507
20.447 50.3272 2
19.0157 49.1037 3.97463
16.8816 49.3389 3.97547
16.7624 51.4144 3.9718
17.9741 50.3385 2
16.3801 53.8787 3.97305
17.8212 52.8015 2
19.1854 51.6452 0.030373
15.9703 56.4842 3.97804
17.4275 55.3516 2
18.9102 54.32 0.0281318
15.7465 59.2168 3.98097
17.1295 57.8839 2
18.4398 56.7357 0.0208588
15.7864 62.1417 3.98486
17.1337 60.5571 2
18.3648 59.1214 0.0206921
16.0879 65.3009 3.99258
17.4058 63.4724 2
18.6163 61.7735 0.0164098
16.6661 68.6801 4
17.9409 66.6186 2
19.1253 64.6793 0.0113386
18.75 69.9759 2
19.8851 67.8101 0.00653163
20.9142 71.1327 0
20.2168 14.5864 3.98372
21.5853 13.5975 2
20.5278 11.9906 3.9856
21.142 9.14451 3.98906
22.1889 11.0208 2
23.0941 12.7775 0.0149939
22.0155 6.08129 3.99322
23.039 8.1745 2
23.9706 10.1618 0.013381
23.1494 2.85457 4
24.116 5.1422 2
25.0211 7.30947 0.0107692
25.446 1.99012 2
26.2788 4.32764 0.00653879
27.7943 1.27781 0
32.2638 35.7156 3.88528
34.0394 35.8058 2
35.7714 35.8028 0.0191159
21.3028 15.8184 2
20.2997 16.9534 3.98294
22.0941 16.6242 3.98175
25.3552 13.8961 0.0157506
22.4775 15.023 0.0160722
24.0219 15.6084 0.016554
25.3776 16.076 2
23.2615 16.2398 2
24.2002 18.4387 3.98128
27.0058 21.442 3.98657
28.3532 15.9638 0.0157316
27.4357 18.7846 2
31.1655 33.8185 3.89251
32.6149 34.1062 2
34.1541 34.1761 0.0714486
32.9687 32.9695 0.148717
33.8105 31.1145 0.107102
35.1675 28.877 0.0992775
37.6209 27.1872 0.0484082
35.0516 27.2978 2
32.312 32.2821 2
33.0965 29.7748 2
32.5185 28.0519 3.97569
31.3152 31.2093 3.90221
28.7825 24.3825 3.98747
29.567 21.9187 2
30.2042 19.3239 0.0137971
34.9632 25.1314 -0.0141766
32.3062 22.3818 0.0120537
31.6757 25.5843 2
29.6189 27.2903 3.97173
30.1167 37.4876 3.88385
32.1106 37.4991 2
33.9942 37.4976 0.0350849
33.2189 49.1892 -0.00639173
32.2277 46.4061 0.0472974
32.2516 39.2814 0.114707
31.3262 43.7894 0.0979017
31.148 41.1766 0.10697
31.1134 48.0117 2
30.3776 39.4637 2
29.9027 41.9841 2
30.3738 44.9954 2
29.1411 46.5978 3.99758
29.0001 39.8616 3.90163
28.6425 43.1875 3.95833
29.8307 49.7433 0.0137212
27.8387 48.2009 2
25.9106 46.6886 3.97799
26.4823 50.0094 0.0292651
24.6199 48.491 2
22.7797 47.103 3.9785
23.3183 50.2122 0.0265519
21.6306 48.8075 2
19.9621 47.6339 3.97715
20.4467 50.3274 0.0294822
19.0165 49.1034 2
17.6581 48.1874 3.97536
16.1333 48.6896 3.97639
16.8821 49.3391 2
15.8408 50.1761 3.97399
15.3702 52.4216 3.97271
16.7627 51.4145 2
17.9736 50.3387 0.0275985
14.8621 54.9837 3.97547
16.3799 53.8792 2
17.8213 52.8012 0.0293906
14.4552 57.7453 3.98004
15.97 56.485 2
17.4279 55.351 0.0245761
14.2644 60.6958 3.98359
15.7465 59.2176 2
17.1296 57.8832 0.0201033
14.3322 63.8602 3.99163
15.7864 62.1424 2
17.1336 60.5562 0.0184725
14.6715 67.2507 4
16.0875 65.3009 2
17.4058 63.4716 0.012916
16.6661 68.6801 2
17.9412 66.6185 0.00683749
18.75 69.9759 0
18.9307 15.774 3.98271
20.2171 14.586 2
18.9776 13.1015 3.98475
21.5849 13.5975 0.015475
20.5283 11.9905 2
19.3414 10.2321 3.98886
19.99 7.14595 3.99319
21.1421 9.14421 2
22.1886 11.021 0.0137672
20.9142 3.86727 4
22.015 6.08133 2
23.039 8.17481 0.0108942
23.1494 2.85451 2
24.1164 5.14231 0.00666784
25.446 1.99014 0
30.4099 35.5421 3.88787
32.2624 35.7175 2
34.0364 35.804 0.0448137
21.3025 15.8189 0.0169895
22.0944 16.6238 2
20.2998 16.9526 2
19.2384 18.4006 3.98169
21.7783 17.8405 3.98218
25.3771 16.0761 0.0158495
23.261 16.2397 0.0169357
24.2003 18.4389 2
22.2719 19.8825 3.97872
24.5831 21.3107 3.98228
26.4032 23.7071 3.98017
27.0057 21.4425 2
27.4358 18.7847 0.0148242
29.9249 33.016 3.9008
31.1469 33.7976 2
32.615 34.1028 0.127952
32.3206 32.2813 0.10683
33.1148 29.7975 0.0996269
35.0682 27.3184 0.0395254
32.5097 28.0443 2
31.317 31.2057 2
30.0862 29.5152 3.96798
27.8582 26.5244 3.97237
28.7841 24.3888 2
29.5686 21.9168 0.00616731
31.6707 25.5966 0.000673755
29.6144 27.2525 2
28.6643 37.5013 3.90712
30.1003 37.4925 2
32.1126 37.501 0.115103
31.1127 48.0123 0.00225636
30.3928 44.9816 0.0459354
30.3929 39.4536 0.115512
29.9153 41.9736 0.0993244
29.1422 46.614 2
28.9864 39.8713 2
28.6277 43.1986 2
27.2349 44.854 3.98936
26.7737 40.6161 3.98233
27.8386 48.2072 0.0249916
25.9102 46.6905 2
23.9699 45.2348 3.97622
24.6193 48.4925 0.0208628
22.7801 47.1026 2
20.911 45.9142 3.97793
21.6304 48.8078 0.0262546
19.9636 47.6333 2
18.3056 46.7473 3.97606
19.0157 49.1037 0.02537
17.6585 48.1877 2
16.3244 47.7198 3.97447
16.1337 48.6898 2
15.1883 49.0203 3.97492
16.8816 49.3389 0.0245339
15.8412 50.1763 2
14.4849 50.989 3.97346
13.8248 53.4385 3.9743
15.3704 52.4218 2
16.7624 51.4144 0.0281977
13.2503 56.172 3.97811
14.8619 54.9844 2
16.3801 53.8787 0.0269469
12.8465 59.1292 3.98318
14.4551 57.7461 2
15.9703 56.4842 0.0219552
12.6778 62.3026 3.9901
14.2643 60.6964 2
15.7465 59.2168 0.0190278
12.7746 65.6939 4
14.3318 63.8599 2
15.7864 62.1417 0.015143
14.6714 67.2507 2
16.0879 65.3009 0.00741631
16.6661 68.6801 0
17.6645 17.1499 3.98165
18.9308 15.7735 2
17.5092 14.3664 3.98357
20.2168 14.5864 0.0162831
18.9779 13.101 2
17.6372 11.4511 3.98799
20.5278 11.9906 0.0143975
19.3417 10.2318 2
18.0501 8.33879 3.99315
18.75 5.0241 4
19.9896 7.14608 2
21.142 9.14451 0.0109432
20.9142 3.86727 2
22.0155 6.08129 0.00677712
23.1494 2.85457 0
29.0074 35.1124 3.90109
30.3926 35.5348 2
32.2638 35.7156 0.114721
22.0941 16.6242 0.0182528
20.2997 16.9534 0.017056
21.7784 17.8398 2
19.2386 18.3998 2
17.9744 19.9339 3.97948
20.8706 19.369 3.98096
24.2002 18.4387 0.0187174
22.2722 19.8819 2
24.5834 21.3116 2
22.3485 21.7089 3.98079
24.6831 23.1562 3.97837
25.4414 25.935 3.96856
26.4054 23.7068 2
27.0058 21.442 0.0134311
28.3018 32.2941 3.94775
29.9128 33.013 2
31.1655 33.8185 0.107488
31.3152 31.2093 0.0977888
32.5185 28.0519 0.0243109
30.0649 29.5017 2
26.995 29.1176 3.99176
27.8549 26.522 2
28.7825 24.3825 0.0125329
29.6189 27.2903 0.0282651
26.8919 37.3615 3.96282
28.6488 37.4957 2
30.1167 37.4876 0.116152
29.1411 46.5978 0.00241966
28.6425 43.1875 0.0416692
29.0001 39.8616 0.0983722
27.2364 44.8578 2
26.7645 40.6269 2
25.2363 43.1879 3.97212
24.0193 39.4298 3.97473
25.9106 46.6886 0.0220073
23.9648 45.236 2
21.8752 43.9665 3.97831
22.7797 47.103 0.0215034
20.9144 45.9133 2
18.9593 44.9798 3.97655
19.9621 47.6339 0.0228488
18.3065 46.7476 2
16.6124 46.2184 3.97378
17.6581 48.1874 0.0246351
16.3249 47.7199 2
14.9186 47.6745 3.97327
16.1333 48.6896 0.0236125
15.1887 49.0205 2
13.7838 49.5491 3.97354
15.8408 50.1761 0.0260145
14.4852 50.9893 2
12.8925 51.8764 3.97404
12.1384 54.5293 3.9767
13.8249 53.4389 2
15.3702 52.4216 0.02729
11.5311 57.4607 3.98188
13.2501 56.1729 2
14.8621 54.9837 0.024532
11.1323 60.6285 3.98881
12.8464 59.1298 2
14.4552 57.7453 0.0199595
10.9835 64.0165 4
12.6773 62.3022 2
14.2644 60.6958 0.0164062
12.7745 65.694 2
14.3322 63.8602 0.00837479
14.6715 67.2507 0
16.3967 18.6447 3.98054
17.6645 17.1492 2
16.1001 15.7757 3.98307
18.9307 15.774 0.017291
17.5094 14.3656 2
16.019 12.8048 3.98605
18.9776 13.1015 0.0152499
17.6374 11.4504 2
16.2013 9.66195 3.9929
19.3414 10.2321 0.0111363
18.0498 8.33899 2
16.6661 6.31991 4
18.75 5.02404 2
19.99 7.14595 0.0068129
20.9142 3.86727 0
27.3996 34.7536 3.94823
28.9897 35.1039 2
30.4099 35.5421 0.112127
16.6754 21.3718 3.97554
21.7783 17.8405 0.0178152
19.2384 18.4006 0.0183088
20.8708 19.3683 2
17.9746 19.9331 2
19.7163 21.5647 3.98151
22.2719 19.8825 0.0212847
24.5831 21.3107 0.017722
22.349 21.708 2
24.6837 23.1565 2
22.8325 24.5936 3.97123
24.5365 28.516 3.96759
25.4394 25.933 2
26.4032 23.7071 0.0198326
26.1436 31.6906 3.99218
28.2878 32.2822 2
29.9249 33.016 0.0992037
30.0862 29.5152 0.0320172
27.002 29.1177 2
27.8582 26.5244 0.0276278
24.711 36.8552 3.98089
26.8816 37.3625 2
28.6643 37.5013 0.0928769
27.2349 44.854 0.0106382
26.7737 40.6161 0.0176653
25.2312 43.1923 2
24.0128 39.4312 2
22.9414 41.8093 3.97963
21.7368 38.5012 3.97403
23.9699 45.2348 0.0237787
21.8768 43.9674 2
19.7138 42.8954 3.97642
20.911 45.9142 0.0220724
18.9586 44.98 2
16.9376 44.3847 3.97353
18.3056 46.7473 0.0239447
16.6127 46.2187 2
14.837 46.0944 3.97235
16.3244 47.7198 0.0255338
14.9189 47.6748 2
13.2915 48.011 3.97264
15.1883 49.0203 0.0250766
13.7843 49.5494 2
12.1125 50.2541 3.97366
14.4849 50.989 0.0265351
12.8928 51.8768 2
11.1347 52.8374 3.97589
10.322 55.7118 3.98048
12.1384 54.53 2
13.8248 53.4385 0.0257012
9.69896 58.8506 3.98746
11.5309 57.4615 2
13.2503 56.172 0.0218898
9.30605 62.2254 4
11.1317 60.628 2
12.8465 59.1292 0.016818
10.9835 64.0165 2
12.6778 62.3026 0.00990268
12.7746 65.6939 0
15.1422 20.1805 3.97727
16.3968 18.6439 2
14.7455 17.2988 3.98149
17.6645 17.1499 0.0183467
16.1002 15.7747 2
14.4816 14.287 3.98474
17.5092 14.3664 0.0164334
16.0192 12.8041 2
14.4441 11.1132 3.99227
17.6372 11.4511 0.0120091
16.201 9.6621 2
14.6715 7.74927 4
18.0501 8.33879 0.00684781
16.6661 6.31988 2
18.75 5.0241 0
25.3507 34.2561 3.98758
27.3877 34.7505 2
29.0074 35.1124 0.0989056
17.8485 22.3176 3.98199
15.5218 22.9168 3.97195
16.6756 21.3709 2
20.8706 19.369 0.0190444
17.9744 19.9339 0.0205152
19.7167 21.5638 2
19.6539 24.374 3.9725
22.3485 21.7089 0.0192097
24.6831 23.1562 0.0216252
22.8314 24.5923 2
21.906 27.8127 3.97009
23.7198 31.1766 3.97254
24.5411 28.516 2
25.4414 25.935 0.0314428
26.1433 31.6845 2
28.3018 32.2941 0.0522539
26.995 29.1176 0.008237
22.4701 36.2715 3.97619
24.7016 36.8552 2
26.8919 37.3615 0.0371776
25.2363 43.1879 0.0278828
24.0193 39.4298 0.0252702
22.9402 41.8098 2
21.7357 38.5015 2
20.6789 40.6348 3.97516
20.0828 37.7812 3.9757
21.8752 43.9665 0.021686
19.7152 42.8956 2
17.3426 42.1034 3.97375
18.9593 44.9798 0.023451
16.9376 44.3849 2
14.8361 44.2033 3.97225
16.6124 46.2184 0.0262168
14.8372 46.0947 2
12.9621 46.2981 3.97219
14.9186 47.6745 0.0267264
13.2919 48.0113 2
11.4847 48.5506 3.9727
13.7838 49.5491 0.0264581
12.1129 50.2544 2
10.2612 51.0804 3.97509
12.8925 51.8764 0.0259578
11.135 52.8379 2
9.23124 53.8893 3.97953
8.38262 56.9828 3.98637
10.3219 55.7124 2
12.1384 54.5293 0.0233032
7.74927 60.3285 4
9.69817 58.8496 2
11.5311 57.4607 0.0181171
9.306 62.2255 2
11.1323 60.6285 0.0111944
10.9835 64.0165 0
13.9554 21.7485 3.97458
15.1424 20.1796 2
13.4464 18.8968 3.97932
16.3967 18.6447 0.0194616
14.7457 17.2979 2
13.0268 15.8799 3.98388
16.1001 15.7757 0.0169282
14.4816 14.2861 2
12.7815 12.6864 3.99114
16.019 12.8048 0.0139498
14.4438 11.1133 2
12.7746 9.30605 4
16.2013 9.66195 0.00710137
14.6715 7.74924 2
16.6661 6.31991 0
23.0426 33.7929 3.9746
25.3396 34.2547 2
27.3996 34.7536 0.0517747
17.6198 24.0389 3.97291
17.8487 22.3168 2
14.3044 24.4482 3.97277
15.5219 22.9159 2
16.6754 21.3718 0.0244575
19.026 27.1932 3.96937
19.7163 21.5647 0.0184874
19.6531 24.3738 2
21.1587 30.6536 3.97152
22.8325 24.5936 0.0287694
21.9074 27.8125 2
23.7117 31.1771 2
24.5365 28.516 0.0324067
26.1436 31.6906 0.00781644
20.2231 35.9183 3.97481
22.4685 36.2722 2
24.711 36.8552 0.0191118
22.9414 41.8093 0.0203669
21.7368 38.5012 0.0259675
20.6771 40.6352 2
20.0812 37.7813 2
18.0584 39.0013 3.97405
19.7138 42.8954 0.0235772
17.3429 42.1036 2
14.7905 41.9199 3.97179
16.9376 44.3847 0.0264709
14.8361 44.2036 2
12.7011 44.3939 3.97161
14.837 46.0944 0.0276451
12.9623 46.2984 2
10.9857 46.7347 3.9726
13.2915 48.011 0.0273571
11.485 48.5509 2
9.52531 49.2398 3.97403
12.1125 50.2541 0.0263404
10.2616 51.0807 2
8.26468 52.0018 3.97862
11.1347 52.8374 0.0241149
9.23146 53.8895 2
7.19173 55.0324 3.98594
6.31991 58.3339 4
8.38185 56.981 2
10.322 55.7118 0.0195246
7.74924 60.3285 2
9.69896 58.8506 0.0125413
9.30605 62.2254 0
13.225 25.3606 3.97675
12.8233 23.2782 3.9743
13.9555 21.7475 2
12.2324 20.5469 3.97751
15.1422 20.1805 0.0227337
13.4466 18.8957 2
11.6566 17.5614 3.9829
14.7455 17.2988 0.018509
13.0269 15.8791 2
11.219 14.3714 3.9896
14.4816 14.287 0.0152632
12.7812 12.6866 2
10.9835 10.9835 4
14.4441 11.1132 0.00773416
12.7745 9.306 2
14.6715 7.74927 0
20.5936 33.3874 3.97354
23.0426 33.7934 2
25.3507 34.2561 0.0124214
15.8912 26.3964 3.97171
17.6194 24.0383 2
17.8485 22.3176 0.0180115
14.3043 24.4475 2
15.5218 22.9168 0.0280492
18.3752 30.1647 3.97132
19.0261 27.1932 2
19.6539 24.374 0.0275023
21.1595 30.6534 2
21.906 27.8127 0.0299147
23.7198 31.1766 0.0274571
17.7 35.961 3.97398
20.2238 35.9184 2
22.4701 36.2715 0.0238102
20.6789 40.6348 0.0248364
20.0828 37.7812 0.0242985
18.0584 39.0015 2
14.3175 39.1762 3.97218
17.3426 42.1034 0.0262542
14.7905 41.92 2
12.3905 42.2777 3.9705
14.8361 44.2033 0.0277508
12.7011 44.3942 2
10.562 44.8038 3.97198
12.9621 46.2981 0.0278133
10.9859 46.7351 2
8.90761 47.3192 3.97369
11.4847 48.5506 0.027298
9.52564 49.2401 2
7.43223 50.0347 3.97745
10.2612 51.0804 0.0249145
8.26505 52.0017 2
6.13247 53.0065 3.98592
9.23124 53.8893 0.0204668
7.19122 55.0302 2
5.0241 56.25 4
6.31988 58.3339 2
8.38262 56.9828 0.013631
7.74927 60.3285 0
13.4633 26.8116 3.97087
11.9375 24.7867 3.97379
13.2249 25.36 2
11.1364 22.2327 3.976
12.8235 23.2774 2
13.9554 21.7485 0.0254177
12.2326 20.5457 2
10.3871 19.3169 3.98154
13.4464 18.8968 0.0206846
11.6566 17.5603 2
9.7598 16.1551 3.98812
13.0268 15.8799 0.016115
11.2185 14.3717 2
9.30607 12.7746 4
12.7815 12.6864 0.00885668
10.9835 10.9835 2
12.7746 9.30605 0
17.8626 33.1053 3.9731
20.5947 33.3874 2
23.0426 33.7929 0.0253976
15.4825 29.6316 3.9719
15.8908 26.3962 2
17.6198 24.0389 0.027086
14.3044 24.4482 0.0272253
18.3767 30.1648 2
19.026 27.1932 0.0306254
21.1587 30.6536 0.0284847
14.9259 36.016 3.97268
17.7005 35.9611 2
20.2231 35.9183 0.0251933
12.6048 37.8289 3.97215
18.0584 39.0013 0.0259488
14.3179 39.1763 2
11.909 40.1409 3.97077
14.7905 41.9199 0.0282063
12.3903 42.2779 2
10.1628 42.7785 3.97025
12.7011 44.3939 0.0283886
10.5621 44.8041 2
8.38513 45.3215 3.97336
10.9857 46.7347 0.0273961
8.9078 47.3195 2
6.72368 48 3.97695
9.52531 49.2398 0.0259655
7.43253 50.0346 2
5.2095 50.9094 3.98569
8.26468 52.0018 0.021385
6.13226 53.0046 2
3.86727 54.0858 4
7.19173 55.0324 0.014058
5.02404 56.25 2
6.31991 58.3339 0
12.9161 29.03 3.9703
11.3686 26.4866 3.97171
13.463 26.8113 2
10.1965 23.9671 3.97466
11.9376 24.786 2
13.225 25.3606 0.0232461
9.23991 21.1369 3.97979
11.1367 22.2318 2
12.8233 23.2782 0.0257018
12.2324 20.5469 0.0224941
10.3872 19.3159 2
8.41567 18.0267 3.98704
11.6566 17.5614 0.0171021
9.75921 16.1557 2
7.74928 14.6715 4
11.219 14.3714 0.0103971
9.30602 12.7745 2
10.9835 10.9835 0
14.4905 32.8588 3.97239
17.8649 33.1054 2
20.5936 33.3874 0.0264551
15.4829 29.6315 2
15.8912 26.3964 0.028286
18.3752 30.1647 0.0286756
12.8991 36.208 3.9716
14.9264 36.0161 2
17.7 35.961 0.0260201
12.6052 37.8289 2
11.2673 38.3097 3.97119
14.3175 39.1762 0.0278243
11.9093 40.1411 2
9.74996 40.7545 3.96996
12.3905 42.2777 0.029501
10.1628 42.7788 2
7.93543 43.2701 3.97172
10.562 44.8038 0.028024
8.38518 45.3217 2
6.12977 45.9053 3.97677
8.90761 47.3192 0.026313
6.72385 47.9999 2
4.42125 48.7503 3.98551
7.43223 50.0347 0.022555
5.20941 50.9082 2
2.85457 51.8506 4
6.13247 53.0065 0.0140839
3.86727 54.0858 2
5.0241 56.25 0
12.0594 31.2541 3.97098
10.7803 28.4138 3.97114
12.916 29.0299 2
9.41234 25.7981 3.97328
11.3685 26.4862 2
13.4633 26.8116 0.0291305
8.2277 23.0229 3.97817
10.1968 23.9665 2
11.9375 24.7867 0.0262104
7.19796 19.9777 3.98611
9.24027 21.1363 2
11.1364 22.2327 0.0240007
10.3871 19.3169 0.0184571
8.41505 18.028 2
6.31992 16.6661 4
9.7598 16.1551 0.0118799
7.74926 14.6714 2
9.30607 12.7746 0
12.0879 34.2931 3.97165
14.4902 32.8587 2
17.8626 33.1053 0.0269006
15.4825 29.6316 0.0280963
10.8315 36.6107 3.97111
12.8996 36.208 2
14.9259 36.016 0.0273241
12.6048 37.8289 0.0278538
11.2675 38.3098 2
9.34515 38.8235 3.97019
11.909 40.1409 0.0292327
9.75014 40.7546 2
7.54828 41.211 3.97069
10.1628 42.7785 0.0297496
7.93538 43.2703 2
5.6424 43.7683 3.97587
8.38513 45.3215 0.0266382
6.12983 45.9053 2
3.76697 46.5366 3.98536
6.72368 48 0.0230488
4.42124 48.7498 2
1.99014 49.554 4
5.2095 50.9094 0.0143134
2.85451 51.8506 2
3.86727 54.0858 0
10.9199 32.9179 3.97153
10.0938 30.3811 3.97066
12.0592 31.254 2
8.72039 27.7317 3.97289
10.7802 28.4136 2
12.9161 29.03 0.0297004
7.35386 24.9826 3.9769
9.41239 25.7977 2
11.3686 26.4866 0.028289
6.11508 22.0023 3.98564
8.2281 23.0226 2
10.1965 23.9671 0.0253389
5.02411 18.75 4
7.19759 19.9794 2
9.23991 21.1369 0.0202135
8.41567 18.0267 0.0129645
6.3199 16.6661 2
7.74928 14.6715 0
10.4402 34.9994 3.97095
12.0879 34.2932 2
14.4905 32.8588 0.0276101
9.01685 36.9849 3.97025
10.832 36.6108 2
12.8991 36.208 0.0283966
11.2673 38.3097 0.0288147
9.34516 38.8236 2
7.22958 39.1817 3.97075
9.74996 40.7545 0.0300384
7.54844 41.2111 2
5.2588 41.6139 3.97441
7.93543 43.2701 0.0282801
5.64236 43.7683 2
3.24497 44.2818 3.98454
6.12977 45.9053 0.0232278
3.767 46.5365 2
1.27781 47.2057 4
4.42125 48.7503 0.0144852
1.99012 49.554 2
2.85457 51.8506 0
10.087 33.8808 3.97135
9.38718 32.1538 3.97121
10.9198 32.9178 2
8.07008 29.6954 3.97212
10.0937 30.381 2
12.0594 31.2541 0.029018
6.59776 27.0087 3.97645
8.72037 27.7315 2
10.7803 28.4138 0.0288587
5.1706 24.0958 3.9854
7.35404 24.9825 2
9.41234 25.7981 0.0267159
3.86728 20.9142 4
6.11498 22.0038 2
8.2277 23.0229 0.0218317
5.02406 18.75 2
7.19796 19.9777 0.0138937
6.31992 16.6661 0
8.8433 35.2792 3.97042
10.4402 34.9994 2
12.0879 34.2931 0.0283546
7.0134 37.2058 3.97085
9.01688 36.9849 2
10.8315 36.6107 0.0288888
9.34515 38.8235 0.0298077
7.22962 39.1818 2
4.98726 39.4673 3.9737
7.54828 41.211 0.0293081
5.25896 41.6138 2
2.85586 42.0022 3.9833
5.6424 43.7683 0.0241322
3.24497 44.282 2
0.720592 44.8159 4
3.76697 46.5366 0.0146392
1.27778 47.2057 2
1.99014 49.554 0
8.88397 33.6973 3.97139
10.087 33.8807 2
7.50809 31.609 3.97232
9.38705 32.1537 2
10.9199 32.9179 0.0284711
5.94329 29.0698 3.97589
8.06997 29.6953 2
10.0938 30.3811 0.0293381
4.35844 26.2483 3.9852
6.59782 27.0087 2
8.72039 27.7317 0.0271052
2.85458 23.1494 4
5.17055 24.0966 2
7.35386 24.9826 0.0230997
3.86728 20.9142 2
6.11508 22.0023 0.01436
5.02411 18.75 0
6.96375 35.306 3.97078
8.84343 35.2791 2
10.4402 34.9994 0.0290479
4.83744 37.3398 3.97407
7.01344 37.2058 2
9.01685 36.9849 0.0297511
7.22958 39.1817 0.0292542
4.9873 39.4673 2
2.60424 39.7139 3.9825
5.2588 41.6139 0.0255868
2.85604 42.0025 2
0.320823 42.3947 4
3.24497 44.2818 0.0154593
0.720551 44.8159 2
1.27781 47.2057 0
7.12265 33.4608 3.97201
8.88395 33.6972 2
10.087 33.8808 0.028646
5.41463 31.1337 3.97559
7.50794 31.609 2
9.38718 32.1538 0.0287932
3.68038 28.4439 3.98472
5.94322 29.0698 2
8.07008 29.6954 0.0278798
1.99015 25.446 4
4.35843 26.2486 2
6.59776 27.0087 0.0235494
2.85453 23.1494 2
5.1706 24.0958 0.0145999
3.86728 20.9142 0
4.85181 35.2516 3.97405
6.96389 35.306 2
8.8433 35.2792 0.0295825
2.49565 37.4286 3.98283
4.83749 37.3399 2
7.0134 37.2058 0.0291469
4.98726 39.4673 0.0262996
2.60432 39.7144 2
0.080333 39.9526 4
2.85586 42.0022 0.0167004
0.320817 42.3947 2
0.720592 44.8159 0
5.04458 33.1903 3.97509
7.12262 33.4607 2
8.88397 33.6973 0.0286051
3.14495 30.6663 3.98396
5.41447 31.1338 2
7.50809 31.609 0.0276824
1.27793 27.7943 4
3.68038 28.4439 2
5.94329 29.0698 0.0241092
1.99013 25.446 2
4.35844 26.2483 0.0148023
2.85458 23.1494 0
2.54781 35.1591 3.98283
4.85195 35.2518 2
6.96375 35.306 0.029223
0 37.5 4
2.49577 37.4289 2
4.83744 37.3398 0.0259348
2.60424 39.7139 0.0174977
0.0802903 39.9526 2
0.320823 42.3947 0
2.7652 32.9058 3.98337
5.04455 33.1905 2
7.12265 33.4608 0.0279899
0.721173 30.1842 4
3.14493 30.6664 2
5.41463 31.1337 0.0244077
1.27779 27.7943 2
3.68038 28.4439 0.0152827
1.99015 25.446 0
0.0806499 35.0474 4
2.54798 35.1595 2
4.85181 35.2516 0.0259452
0 37.5 2
2.49565 37.4286 0.0171656
0.080333 39.9526 0
0.32156 32.6054 4
2.76525 32.9062 2
5.04458 33.1903 0.0249139
0.72056 30.1841 2
3.14495 30.6663 0.0160447
1.27793 27.7943 0
0.0802889 35.0474 2
2.54781 35.1591 0.0171671
0 37.5 0
0.320817 32.6053 2
2.7652 32.9058 0.0166294
0.721173 30.1842 0
0.0806499 35.0474 0
0.32156 32.6054 0
CELLS 1910 17190
8 18 6 25 56 2 0 5 16
8 57 23 6 18 17 4 0 2
8 78 36 9 29 31 11 1 7
8 31 11 1 7 79 37 10 30
8 110 57 18 50 48 17 2 14
8 50 18 56 111 14 2 16 49
8 116 62 22 55 52 20 3 15
8 56 25 67 118 16 5 24 53
8 119 63 23 57 54 21 4 17
8 55 22 63 119 15 3 21 54
8 58 26 68 121 18 6 25 56
8 122 65 26 58 57 23 6 18
8 73 31 7 27 142 79 30 71
8 143 78 29 72 73 31 7 27
8 83 147 76 34 32 74 28 8
8 84 148 78 36 33 75 29 9
8 76 34 8 28 148 84 33 75
8 37 79 150 86 10 30 77 35
8 151 87 36 78 80 38 11 31
8 80 38 11 31 152 88 37 79
8 175 100 42 94 96 44 12 40
8 44 96 176 101 12 40 95 43
8 101 176 98 46 43 95 41 13
8 46 98 178 103 13 41 97 45
8 178 103 45 97 147 83 32 74
8 189 116 55 109 106 52 15 47
8 111 56 118 191 49 16 53 107
8 192 119 57 110 108 54 17 48
8 109 55 119 192 47 15 54 108
8 194 122 58 112 110 57 18 50
8 112 58 121 195 50 18 56 111
8 115 61 19 51 197 124 59 113
8 115 61 125 198 51 19 60 114
8 198 125 62 116 114 60 20 52
8 200 127 64 120 116 62 22 55
8 118 67 132 202 53 24 66 117
8 121 68 133 203 56 25 67 118
8 120 64 128 204 55 22 63 119
8 204 128 65 122 119 63 23 57
8 206 134 68 121 123 69 26 58
8 123 69 26 58 207 131 65 122
8 226 147 74 138 140 76 28 70
8 229 148 75 139 143 78 29 72
8 140 76 28 70 229 148 75 139
8 142 79 30 71 231 150 77 141
8 144 80 31 73 232 152 79 142
8 233 151 78 143 144 80 31 73
8 150 86 35 77 235 154 81 145
8 235 154 81 145 146 82 39 91
8 146 82 39 91 236 155 90 165
8 238 157 83 147 149 85 34 76
8 239 158 84 148 151 87 36 78
8 149 85 34 76 239 158 84 148
8 152 88 37 79 241 160 86 150
8 242 161 87 151 153 89 38 80
8 153 89 38 80 243 162 88 152
8 171 98 41 92 265 178 97 169
8 265 178 97 169 226 147 74 138
8 172 96 40 93 266 176 95 170
8 266 176 95 170 171 98 41 92
8 269 175 94 173 172 96 40 93
8 271 180 99 174 175 100 42 94
8 197 124 59 113 271 180 99 174
8 272 181 100 175 177 102 44 96
8 273 182 101 176 179 104 46 98
8 177 102 44 96 273 182 101 176
8 179 104 46 98 275 184 103 178
8 275 184 103 178 238 157 83 147
8 188 115 51 105 283 197 113 186
8 188 115 198 284 105 51 114 187
8 284 198 116 189 187 114 52 106
8 286 200 120 193 189 116 55 109
8 191 118 202 288 107 53 117 190
8 195 121 203 289 111 56 118 191
8 193 120 204 290 109 55 119 192
8 290 204 122 194 192 119 57 110
8 196 123 58 112 292 207 122 194
8 293 206 121 195 196 123 58 112
8 199 126 61 115 297 211 124 197
8 298 212 127 200 198 125 62 116
8 199 126 212 298 115 61 125 198
8 205 129 64 120 300 214 127 200
8 301 217 130 201 202 132 66 117
8 209 136 168 264 301 217 130 201
8 302 219 132 202 203 133 67 118
8 303 220 133 203 206 134 68 121
8 205 129 215 304 120 64 128 204
8 304 215 131 207 204 128 65 122
8 306 221 134 206 208 135 69 123
8 208 135 69 123 307 218 131 207
8 210 137 167 263 309 223 136 209
8 328 238 147 226 230 149 76 140
8 228 146 91 166 329 236 165 260
8 231 150 77 141 330 235 145 227
8 330 235 145 227 228 146 91 166
8 332 239 148 229 233 151 78 143
8 230 149 76 140 332 239 148 229
8 232 152 79 142 334 241 150 231
8 234 153 80 144 335 243 152 232
8 336 242 151 233 234 153 80 144
8 236 155 90 165 338 245 164 259
8 241 160 86 150 339 246 154 235
8 339 246 154 235 237 156 82 146
8 237 156 82 146 340 247 155 236
8 342 249 157 238 240 159 85 149
8 343 250 158 239 242 161 87 151
8 240 159 85 149 343 250 158 239
8 243 162 88 152 345 252 160 241
8 244 163 253 346 153 89 161 242
8 244 163 89 153 347 254 162 243
8 311 224 261 371 210 137 167 263
8 263 167 262 372 209 136 168 264
8 267 179 98 171 375 275 178 265
8 375 275 178 265 328 238 147 226
8 376 273 176 266 267 179 98 171
8 268 177 96 172 376 273 176 266
8 379 272 175 269 268 177 96 172
8 380 271 174 270 269 175 94 173
8 283 197 113 186 380 271 174 270
8 381 277 180 271 272 181 100 175
8 297 211 124 197 381 277 180 271
8 382 278 181 272 274 183 102 177
8 274 183 102 177 383 279 182 273
8 383 279 182 273 276 185 104 179
8 385 281 184 275 342 249 157 238
8 276 185 104 179 385 281 184 275
8 285 199 115 188 393 297 197 283
8 394 298 200 286 284 198 116 189
8 285 199 298 394 188 115 198 284
8 291 205 120 193 396 300 200 286
8 397 301 201 287 288 202 117 190
8 295 209 264 374 397 301 201 287
8 398 302 202 288 289 203 118 191
8 399 303 203 289 293 206 121 195
8 291 205 304 400 193 120 204 290
8 400 304 207 292 290 204 122 194
8 294 208 123 196 402 307 207 292
8 403 306 206 293 294 208 123 196
8 296 210 263 373 405 309 209 295
8 408 312 213 299 297 211 126 199
8 299 213 313 409 199 126 212 298
8 409 313 214 300 298 212 127 200
8 305 216 129 205 411 315 214 300
8 412 318 217 301 302 219 132 202
8 309 223 136 209 412 318 217 301
8 413 320 219 302 303 220 133 203
8 306 221 321 414 206 134 220 303
8 307 218 131 207 415 316 215 304
8 305 216 316 415 205 129 215 304
8 417 322 221 306 308 222 135 208
8 308 222 135 208 418 319 218 307
8 310 225 137 210 420 325 223 309
8 423 326 224 311 310 225 137 210
8 329 236 165 260 441 338 259 368
8 442 342 238 328 333 240 149 230
8 331 237 146 228 443 340 236 329
8 334 241 150 231 444 339 235 330
8 444 339 235 330 331 237 146 228
8 446 343 239 332 336 242 151 233
8 333 240 149 230 446 343 239 332
8 335 243 152 232 448 345 241 334
8 337 244 153 234 449 347 243 335
8 337 244 346 450 234 153 242 336
8 338 245 164 259 452 349 258 367
8 340 247 155 236 453 350 245 338
8 345 252 160 241 454 351 246 339
8 454 351 246 339 341 248 156 237
8 341 248 156 237 455 352 247 340
8 240 159 251 344 342 249 354 457
8 242 161 253 346 343 250 355 458
8 343 250 355 458 240 159 251 344
8 347 254 162 243 460 357 252 345
8 348 255 358 461 244 163 253 346
8 348 255 163 244 462 359 254 347
8 473 360 257 365 363 256 364 482
8 452 349 258 367 365 257 366 485
8 422 324 369 488 311 224 261 371
8 371 261 370 490 263 167 262 372
8 407 311 371 491 296 210 263 373
8 373 263 372 492 295 209 264 374
8 493 385 275 375 442 342 238 328
8 377 276 179 267 493 385 275 375
8 378 274 177 268 494 383 273 376
8 494 383 273 376 377 276 179 267
8 497 382 272 379 378 274 177 268
8 498 381 271 380 379 272 175 269
8 393 297 197 283 498 381 271 380
8 499 387 277 381 382 278 181 272
8 408 312 211 297 499 387 277 381
8 500 388 278 382 384 280 183 274
8 501 389 279 383 386 282 185 276
8 384 280 183 274 501 389 279 383
8 386 282 185 276 503 391 281 385
8 503 391 281 385 457 354 249 342
8 511 408 299 395 393 297 199 285
8 395 299 409 512 285 199 298 394
8 512 409 300 396 394 298 200 286
8 401 305 205 291 514 411 300 396
8 515 412 301 397 398 302 202 288
8 405 309 209 295 515 412 301 397
8 516 413 302 398 399 303 203 289
8 403 306 414 517 293 206 303 399
8 402 307 207 292 518 415 304 400
8 401 305 415 518 291 205 304 400
8 404 308 208 294 520 418 307 402
8 521 417 306 403 404 308 208 294
8 406 310 210 296 523 420 309 405
8 526 423 311 407 406 310 210 296
8 410 314 213 299 527 424 312 408
8 528 425 315 411 409 313 214 300
8 410 314 425 528 299 213 313 409
8 416 317 216 305 530 427 315 411
8 531 430 318 412 413 320 219 302
8 420 325 223 309 531 430 318 412
8 532 432 320 413 414 321 220 303
8 417 322 433 533 306 221 321 414
8 418 319 218 307 534 428 316 415
8 416 317 428 534 305 216 316 415
8 419 323 434 536 308 222 322 417
8 419 323 222 308 537 431 319 418
8 421 327 225 310 539 438 325 420
8 421 327 439 541 310 225 326 423
8 543 437 324 422 423 326 224 311
8 441 338 259 368 559 452 367 486
8 443 340 236 329 560 453 338 441
8 333 240 344 447 442 342 457 561
8 445 341 237 331 562 455 340 443
8 448 345 241 334 563 454 339 444
8 563 454 339 444 445 341 237 331
8 336 242 346 450 446 343 458 565
8 446 343 458 565 333 240 344 447
8 449 347 243 335 567 460 345 448
8 451 348 244 337 568 462 347 449
8 451 348 461 569 337 244 346 450
8 570 463 349 452 473 360 257 365
8 453 350 245 338 570 463 349 452
8 455 352 247 340 571 464 350 453
8 460 357 252 345 572 465 351 454
8 572 465 351 454 456 353 248 341
8 456 353 248 341 573 466 352 455
8 344 251 356 459 457 354 468 575
8 458 355 469 576 344 251 356 459
8 346 253 358 461 458 355 469 576
8 462 359 254 347 578 471 357 460
8 348 255 359 462 461 358 472 579
8 591 474 360 473 475 361 256 363
8 475 361 256 363 594 477 362 479
8 363 256 364 482 479 362 480 603
8 590 473 365 484 481 363 482 605
8 482 364 257 365 606 483 366 485
8 559 452 367 486 484 365 485 607
8 542 436 487 609 422 324 369 488
8 525 422 488 611 407 311 371 491
8 488 369 489 612 371 261 370 490
8 491 371 490 613 373 263 372 492
8 495 386 276 377 614 503 385 493
8 614 503 385 493 561 457 342 442
8 615 501 383 494 495 386 276 377
8 496 384 274 378 615 501 383 494
8 618 500 382 497 496 384 274 378
8 619 499 381 498 497 382 272 379
8 511 408 297 393 619 499 381 498
8 620 505 387 499 500 388 278 382
8 527 424 312 408 620 505 387 499
8 502 390 506 621 384 280 388 500
8 622 507 389 501 504 392 282 386
8 502 390 280 384 622 507 389 501
8 504 392 282 386 624 509 391 503
8 624 509 391 503 575 468 354 457
8 513 410 299 395 630 527 408 511
8 631 528 411 514 512 409 300 396
8 513 410 528 631 395 299 409 512
8 519 416 305 401 633 530 411 514
8 634 531 412 515 516 413 302 398
8 523 420 309 405 634 531 412 515
8 635 532 413 516 517 414 303 399
8 521 417 533 636 403 306 414 517
8 520 418 307 402 637 534 415 518
8 519 416 534 637 401 305 415 518
8 522 419 308 404 639 537 418 520
8 522 419 536 640 404 308 417 521
8 524 421 310 406 642 539 420 523
8 524 421 541 644 406 310 423 526
8 646 543 422 525 526 423 311 407
8 529 426 314 410 647 544 424 527
8 528 425 545 648 411 315 427 530
8 529 426 545 648 410 314 425 528
8 535 429 317 416 649 546 427 530
8 650 548 430 531 532 432 320 413
8 539 438 325 420 650 548 430 531
8 533 433 550 651 414 321 432 532
8 536 434 551 652 417 322 433 533
8 537 431 319 418 653 547 428 534
8 535 429 547 653 416 317 428 534
8 538 435 552 654 419 323 434 536
8 538 435 323 419 655 549 431 537
8 540 440 327 421 657 556 438 539
8 540 440 557 659 421 327 439 541
8 541 439 555 660 423 326 437 543
8 661 554 436 542 543 437 324 422
8 676 570 452 559 590 473 365 484
8 560 453 338 441 676 570 452 559
8 562 455 340 443 677 571 453 560
8 447 344 459 566 561 457 575 678
8 564 456 341 445 679 573 455 562
8 567 460 345 448 680 572 454 563
8 680 572 454 563 564 456 341 445
8 565 458 576 682 447 344 459 566
8 450 346 461 569 565 458 576 682
8 568 462 347 449 684 578 460 567
8 451 348 462 568 569 461 579 685
8 686 580 463 570 591 474 360 473
8 571 464 350 453 686 580 463 570
8 573 466 352 455 687 581 464 571
8 572 465 582 688 460 357 471 578
8 574 467 582 688 456 353 465 572
8 574 467 353 456 689 583 466 573
8 459 356 470 577 575 468 585 691
8 576 469 586 692 459 356 470 577
8 461 358 472 579 576 469 586 692
8 462 359 471 578 579 472 588 694
8 704 591 473 590 593 475 363 481
8 595 476 592 705 475 361 474 591
8 593 475 363 481 707 594 479 602
8 594 477 362 479 709 598 478 600
8 595 476 361 475 711 597 477 594
8 479 362 480 603 600 478 601 720
8 481 363 482 605 602 479 603 722
8 603 480 364 482 723 604 483 606
8 605 482 365 484 724 606 485 607
8 656 553 608 726 542 436 487 609
8 645 542 609 728 525 422 488 611
8 609 487 610 729 488 369 489 612
8 611 488 612 730 491 371 490 613
8 616 504 386 495 731 624 503 614
8 731 624 503 614 678 575 457 561
8 732 622 501 615 616 504 386 495
8 617 502 384 496 732 622 501 615
8 617 502 621 735 496 384 500 618
8 736 620 499 619 618 500 382 497
8 630 527 408 511 736 620 499 619
8 621 506 626 737 500 388 505 620
8 647 544 424 527 737 626 505 620
8 623 508 627 738 502 390 506 621
8 623 508 390 502 739 628 507 622
8 625 510 628 739 504 392 507 622
8 740 629 509 624 691 585 468 575
8 625 510 392 504 740 629 509 624
8 632 529 410 513 744 647 527 630
8 631 528 648 745 514 411 530 633
8 632 529 648 745 513 410 528 631
8 638 535 416 519 746 649 530 633
8 747 650 531 634 635 532 413 516
8 642 539 420 523 747 650 531 634
8 636 533 651 748 517 414 532 635
8 640 536 652 749 521 417 533 636
8 639 537 418 520 750 653 534 637
8 638 535 653 750 519 416 534 637
8 641 538 419 522 751 655 537 639
8 641 538 654 752 522 419 536 640
8 643 540 421 524 753 657 539 642
8 643 540 659 755 524 421 541 644
8 644 541 660 757 526 423 543 646
8 758 661 542 645 646 543 422 525
8 529 426 544 647 648 545 662 759
8 530 427 545 648 649 546 663 760
8 535 429 546 649 653 547 664 761
8 762 666 548 650 651 550 432 532
8 657 556 438 539 762 666 548 650
8 652 551 668 763 533 433 550 651
8 654 552 669 764 536 434 551 652
8 655 549 431 537 765 665 547 653
8 538 435 549 655 654 552 667 766
8 661 554 671 768 542 436 553 656
8 658 558 440 540 769 674 556 657
8 658 558 675 770 540 440 557 659
8 659 557 673 771 541 439 555 660
8 660 555 672 772 543 437 554 661
8 788 686 570 676 704 591 473 590
8 677 571 453 560 788 686 570 676
8 679 573 455 562 789 687 571 677
8 566 459 577 683 678 575 691 790
8 681 574 456 564 791 689 573 679
8 680 572 688 792 567 460 578 684
8 681 574 688 792 564 456 572 680
8 682 576 692 794 566 459 577 683
8 569 461 579 685 682 576 692 794
8 568 462 578 684 685 579 694 796
8 687 581 464 571 798 696 580 686
8 798 696 580 686 705 592 474 591
8 689 583 466 573 799 697 581 687
8 688 582 698 800 578 471 588 694
8 690 584 698 800 574 467 582 688
8 690 584 467 574 801 699 583 689
8 693 587 701 803 577 470 585 691
8 693 587 470 577 804 702 586 692
8 695 589 702 804 579 472 586 692
8 695 589 472 579 805 703 588 694
8 708 595 705 813 593 475 591 704
8 710 596 706 814 595 476 592 705
8 707 594 479 602 816 709 600 719
8 708 595 475 593 817 711 594 707
8 709 598 478 600 819 715 599 717
8 711 597 477 594 820 714 598 709
8 710 596 476 595 822 713 597 711
8 600 478 601 720 717 599 718 832
8 602 479 603 722 719 600 720 834
8 720 601 480 603 835 721 604 723
8 722 603 482 605 836 723 606 724
8 767 670 725 839 656 553 608 726
8 756 656 726 841 645 542 609 728
8 726 608 727 842 609 487 610 729
8 728 609 729 843 611 488 612 730
8 844 740 624 731 790 691 575 678
8 733 625 504 616 844 740 624 731
8 734 623 502 617 845 739 622 732
8 733 625 739 845 616 504 622 732
8 734 623 738 846 617 502 621 735
8 735 621 737 847 618 500 620 736
8 744 647 527 630 847 737 620 736
8 621 506 627 738 737 626 741 848
8 647 544 626 737 759 662 741 848
8 623 508 628 739 738 627 742 849
8 740 629 585 691 850 743 700 802
8 625 510 629 740 739 628 743 850
8 632 529 647 744 745 648 759 854
8 633 530 648 745 746 649 760 855
8 638 535 649 746 750 653 761 856
8 857 762 650 747 748 651 532 635
8 753 657 539 642 857 762 650 747
8 749 652 763 858 636 533 651 748
8 752 654 764 859 640 536 652 749
8 751 655 537 639 860 765 653 750
8 641 538 655 751 752 654 766 861
8 754 658 540 643 862 769 657 753
8 754 658 770 863 643 540 659 755
8 755 659 771 864 644 541 660 757
8 758 661 768 866 645 542 656 756
8 757 660 772 867 646 543 661 758
8 759 662 773 868 648 545 663 760
8 649 546 663 760 761 664 774 871
8 765 665 547 653 872 775 664 761
8 873 777 666 762 763 668 550 651
8 769 674 556 657 873 777 666 762
8 764 669 779 874 652 551 668 763
8 654 552 667 766 764 669 778 875
8 655 549 665 765 766 667 776 876
8 768 671 782 877 656 553 670 767
8 772 672 783 878 661 554 671 768
8 658 558 674 769 770 675 786 879
8 659 557 675 770 771 673 785 881
8 882 784 672 772 771 673 555 660
8 789 687 571 677 897 798 686 788
8 897 798 686 788 813 705 591 704
8 791 689 573 679 898 799 687 789
8 795 693 803 900 683 577 691 790
8 793 690 574 681 901 801 689 791
8 792 688 800 902 684 578 694 796
8 793 690 800 902 681 574 688 792
8 795 693 577 683 903 804 692 794
8 797 695 804 903 685 579 692 794
8 797 695 579 685 904 805 694 796
8 905 806 697 799 798 696 581 687
8 814 706 806 905 705 592 696 798
8 689 583 697 799 801 699 808 907
8 800 698 809 908 694 588 703 805
8 690 584 699 801 800 698 809 908
8 803 701 810 909 691 585 700 802
8 693 587 702 804 803 701 811 910
8 695 589 703 805 804 702 812 911
8 818 710 814 919 708 595 705 813
8 821 712 815 920 710 596 706 814
8 816 709 600 719 922 819 717 831
8 817 711 594 707 923 820 709 816
8 818 710 595 708 924 822 711 817
8 819 715 599 717 926 827 716 829
8 820 714 598 709 927 826 715 819
8 929 825 713 822 820 714 597 711
8 821 712 596 710 930 824 713 822
8 717 599 718 832 829 716 830 942
8 719 600 720 834 831 717 832 944
8 832 718 601 720 945 833 721 835
8 834 720 603 722 946 835 723 836
8 869 780 838 950 767 670 725 839
8 865 767 839 952 756 656 726 841
8 839 725 840 953 726 608 727 842
8 841 726 842 954 728 609 729 843
8 844 740 691 790 955 850 802 899
8 733 625 740 844 845 739 850 955
8 734 623 739 845 846 738 849 956
8 735 621 738 846 847 737 848 957
8 744 647 737 847 854 759 848 957
8 738 627 742 849 848 741 851 958
8 848 741 851 958 759 662 773 868
8 850 743 700 802 959 852 807 906
8 849 742 628 739 959 852 743 850
8 854 759 868 965 745 648 760 855
8 746 649 760 855 856 761 871 966
8 860 765 653 750 967 872 761 856
8 968 873 762 857 858 763 651 748
8 862 769 657 753 968 873 762 857
8 859 764 874 969 749 652 763 858
8 752 654 766 861 859 764 875 970
8 751 655 765 860 861 766 876 971
8 754 658 769 862 863 770 879 972
8 755 659 770 863 864 771 881 974
8 976 882 772 867 864 771 660 757
8 866 768 877 977 756 656 767 865
8 867 772 878 978 758 661 768 866
8 760 663 773 868 871 774 883 980
8 870 781 837 948 982 890 780 869
8 982 890 780 869 877 782 670 767
8 761 664 774 871 872 775 884 984
8 876 776 665 765 985 885 775 872
8 873 777 668 763 986 887 779 874
8 769 674 777 873 879 786 887 986
8 764 669 778 875 874 779 888 987
8 766 667 776 876 875 778 886 988
8 878 783 892 989 768 671 782 877
8 878 783 672 772 990 893 784 882
8 880 787 675 770 991 896 786 879
8 880 787 895 992 770 675 785 881
8 881 785 894 993 771 673 784 882
8 1006 905 799 898 897 798 687 789
8 919 814 905 1006 813 705 798 897
8 791 689 799 898 901 801 907 1007
8 900 803 909 1009 790 691 802 899
8 795 693 804 903 900 803 910 1010
8 902 800 908 1011 796 694 805 904
8 793 690 801 901 902 800 908 1011
8 797 695 805 904 903 804 911 1012
8 799 697 806 905 907 808 912 1013
8 920 815 912 1013 814 706 806 905
8 802 700 810 909 906 807 913 1014
8 801 699 808 907 908 809 914 1015
8 805 703 809 908 911 812 915 1016
8 803 701 811 910 909 810 916 1017
8 911 812 917 1018 804 702 811 910
8 925 821 920 1030 818 710 814 919
8 928 823 921 1031 821 712 815 920
8 922 819 717 831 1033 926 829 941
8 923 820 709 816 1034 927 819 922
8 1035 929 822 924 923 820 711 817
8 925 821 710 818 1036 930 822 924
8 1038 933 825 929 927 826 714 820
8 926 827 716 829 1039 935 828 939
8 927 826 715 819 1040 934 827 926
8 928 823 712 821 1041 931 824 930
8 1042 932 824 930 929 825 713 822
8 829 716 830 942 939 828 940 1058
8 831 717 832 944 941 829 942 1060
8 942 830 718 832 1061 943 833 945
8 944 832 720 834 1062 945 835 946
8 981 889 947 1064 870 781 837 948
8 948 837 949 1067 869 780 838 950
8 975 869 950 1069 865 767 839 952
8 950 838 951 1070 839 725 840 953
8 952 839 953 1071 841 726 842 954
8 955 850 802 899 1072 959 906 1008
8 956 849 739 845 1072 959 850 955
8 846 738 849 956 957 848 958 1073
8 957 848 958 1073 854 759 868 965
8 849 742 852 959 958 851 961 1076
8 960 853 961 1076 906 807 852 959
8 958 851 961 1076 868 773 883 980
8 960 853 807 906 1077 963 913 1014
8 855 760 868 965 966 871 980 1085
8 856 761 871 966 967 872 984 1086
8 971 876 765 860 1087 985 872 967
8 968 873 763 858 1088 986 874 969
8 862 769 873 968 972 879 986 1088
8 859 764 875 970 969 874 987 1089
8 861 766 876 971 970 875 988 1090
8 973 880 770 863 1091 991 879 972
8 973 880 992 1092 863 770 881 974
8 974 881 993 1093 864 771 882 976
8 979 870 948 1066 1094 982 869 975
8 1094 982 869 975 977 877 767 865
8 978 878 772 867 1095 990 882 976
8 978 878 989 1096 866 768 877 977
8 871 774 883 980 984 884 994 1099
8 983 891 999 1100 870 781 889 981
8 1101 1000 890 982 989 892 782 877
8 983 891 781 870 1101 1000 890 982
8 872 775 884 984 985 885 995 1103
8 876 776 885 985 988 886 996 1104
8 986 887 779 874 1105 998 888 987
8 879 786 887 986 991 896 998 1105
8 875 778 886 988 987 888 997 1106
8 990 893 1002 1107 878 783 892 989
8 1108 1003 893 990 993 894 784 882
8 880 787 896 991 992 895 1005 1109
8 993 894 785 881 1110 1004 895 992
8 898 799 905 1006 1007 907 1013 1120
8 1030 920 1013 1120 919 814 905 1006
8 901 801 907 1007 1011 908 1015 1121
8 899 802 909 1009 1008 906 1014 1122
8 900 803 910 1010 1009 909 1017 1123
8 1012 911 1018 1124 903 804 910 1010
8 904 805 908 1011 1012 911 1016 1125
8 1013 912 1020 1127 907 808 914 1015
8 1031 921 1020 1127 920 815 912 1013
8 1019 918 962 1075 1128 1021 913 1014
8 1128 1021 913 1014 1017 916 810 909
8 1015 914 1022 1129 908 809 915 1016
8 1016 915 1023 1130 911 812 917 1018
8 1018 917 1024 1131 910 811 916 1017
8 1037 928 1031 1148 925 821 920 1030
8 928 823 931 1041 1031 921 1032 1149
8 1033 926 829 941 1151 1039 939 1057
8 1034 927 819 922 1152 1040 926 1033
8 1153 1038 929 1035 1034 927 820 923
8 1154 1042 930 1036 1035 929 822 924
8 1037 928 821 925 1155 1041 930 1036
8 1039 935 828 939 1156 1047 938 1055
8 1157 1043 932 1042 1038 933 825 929
8 1038 933 826 927 1158 1045 934 1040
8 1040 934 827 926 1159 1046 935 1039
8 930 824 932 1042 1041 931 1044 1160
8 1051 936 1048 1165 1175 1052 937 1053
8 1156 1047 938 1055 1053 937 1054 1178
8 939 828 940 1058 1055 938 1056 1181
8 941 829 942 1060 1057 939 1058 1183
8 942 830 943 1061 1058 940 1059 1184
8 1060 942 832 944 1185 1061 945 1062
8 1082 964 1063 1188 981 889 947 1064
8 1097 981 1064 1190 979 870 948 1066
8 1064 947 1065 1191 948 837 949 1067
8 1066 948 1067 1193 975 869 950 1069
8 1067 949 1068 1194 950 838 951 1070
8 1069 950 1070 1195 952 839 953 1071
8 956 849 959 1072 1073 958 1076 1197
8 1074 960 1076 1197 1008 906 959 1072
8 1073 958 1076 1197 965 868 980 1085
8 1074 960 906 1008 1198 1077 1014 1122
8 1133 1026 1079 1199 1019 918 962 1075
8 1077 963 913 1014 1200 1080 962 1075
8 960 853 963 1077 1076 961 1078 1201
8 980 883 961 1076 1099 994 1078 1201
8 1210 1083 964 1082 1100 999 889 981
8 966 871 980 1085 1086 984 1099 1215
8 967 872 984 1086 1087 985 1103 1216
8 971 876 985 1087 1090 988 1104 1217
8 1088 986 874 969 1218 1105 987 1089
8 972 879 986 1088 1091 991 1105 1218
8 970 875 988 1090 1089 987 1106 1219
8 973 880 991 1091 1092 992 1109 1220
8 1093 993 881 974 1221 1110 992 1092
8 1222 1108 990 1095 1093 993 882 976
8 1223 1101 982 1094 1096 989 877 977
8 1098 983 870 979 1223 1101 982 1094
8 1095 990 1107 1224 978 878 989 1096
8 1098 983 1100 1225 979 870 981 1097
8 984 884 994 1099 1103 995 1111 1227
8 1102 1001 1115 1228 983 891 999 1100
8 1101 1000 892 989 1229 1116 1002 1107
8 1102 1001 891 983 1229 1116 1000 1101
8 985 885 995 1103 1104 996 1112 1230
8 988 886 996 1104 1106 997 1113 1231
8 1105 998 888 987 1232 1114 997 1106
8 991 896 998 1105 1109 1005 1114 1232
8 1108 1003 1117 1233 990 893 1002 1107
8 1108 1003 894 993 1233 1117 1004 1110
8 992 895 1005 1109 1110 1004 1118 1234
8 1120 1013 1127 1244 1007 907 1015 1121
8 1148 1031 1127 1244 1030 920 1013 1120
8 1121 1015 1129 1245 1011 908 1016 1125
8 1126 1019 1075 1196 1246 1128 1014 1122
8 1246 1128 1014 1122 1123 1017 909 1009
8 1124 1018 1131 1247 1010 910 1017 1123
8 1125 1016 1130 1248 1012 911 1018 1124
8 1127 1020 1137 1254 1015 914 1022 1129
8 1031 921 1032 1149 1127 1020 1137 1254
8 1134 1027 918 1019 1257 1140 1021 1128
8 1257 1140 1021 1128 1131 1024 916 1017
8 1129 1022 1141 1258 1016 915 1023 1130
8 1130 1023 1142 1259 1018 917 1024 1131
8 1261 1144 1025 1132 1133 1026 1079 1199
8 1255 1138 1025 1132 1135 1028 1144 1261
8 1133 1026 918 1019 1262 1145 1027 1134
8 1136 1029 1139 1256 1263 1146 1028 1135
8 1037 928 1041 1155 1148 1031 1149 1275
8 1041 931 1044 1160 1149 1032 1150 1276
8 1151 1039 939 1057 1278 1156 1055 1180
8 1152 1040 926 1033 1279 1159 1039 1151
8 1153 1038 927 1034 1280 1158 1040 1152
8 1281 1157 1042 1154 1153 1038 929 1035
8 1036 930 1042 1154 1155 1041 1160 1282
8 1283 1164 1046 1159 1156 1047 935 1039
8 1165 1048 1164 1283 1053 937 1047 1156
8 1157 1043 933 1038 1284 1161 1045 1158
8 1157 1043 1161 1284 1042 932 1044 1160
8 1040 934 1046 1159 1158 1045 1163 1285
8 1166 1049 1167 1292 1051 936 1048 1165
8 1166 1049 936 1051 1293 1168 1050 1172
8 1051 936 1052 1175 1172 1050 1173 1306
8 1174 1051 1165 1290 1308 1175 1053 1177
8 1053 937 1054 1178 1175 1052 1176 1309
8 1278 1156 1055 1180 1177 1053 1178 1311
8 1055 938 1056 1181 1178 1054 1179 1312
8 1057 939 1058 1183 1180 1055 1181 1314
8 1058 940 1059 1184 1181 1056 1182 1315
8 1060 942 1061 1185 1183 1058 1184 1316
8 1208 1081 1187 1321 1082 964 1063 1188
8 1209 1082 1188 1322 1097 981 1064 1190
8 1188 1063 1189 1323 1064 947 1065 1191
8 1190 1064 1191 1325 1066 948 1067 1193
8 1191 1065 1192 1326 1067 949 1068 1194
8 1067 1193 1069 950 1194 1327 1195 1070
8 1250 1133 1199 1330 1126 1019 1075 1196
8 1198 1077 1014 1122 1331 1200 1075 1196
8 1074 960 1077 1198 1197 1076 1201 1332
8 1085 980 1076 1197 1215 1099 1201 1332
8 1199 1079 1203 1333 1075 962 1080 1200
8 1132 1025 1119 1243 1199 1079 1203 1333
8 1201 1078 963 1077 1334 1202 1080 1200
8 1099 994 1078 1201 1227 1111 1202 1334
8 1343 1207 1081 1208 1210 1083 964 1082
8 1214 1084 1186 1319 1343 1207 1081 1208
8 1345 1210 1082 1209 1225 1100 981 1097
8 1346 1211 1083 1210 1228 1115 999 1100
8 1086 984 1099 1215 1216 1103 1227 1352
8 1087 985 1103 1216 1217 1104 1230 1353
8 1090 988 1104 1217 1219 1106 1231 1354
8 1218 1105 987 1089 1355 1232 1106 1219
8 1091 991 1105 1218 1220 1109 1232 1355
8 1092 992 1109 1220 1221 1110 1234 1356
8 1222 1108 1233 1357 1095 990 1107 1224
8 1222 1108 993 1093 1357 1233 1110 1221
8 1223 1101 989 1096 1358 1229 1107 1224
8 1226 1102 983 1098 1358 1229 1101 1223
8 1226 1102 1228 1359 1098 983 1100 1225
8 1103 995 1111 1227 1230 1112 1235 1360
8 1107 1002 1117 1233 1229 1116 1240 1362
8 1102 1001 1116 1229 1228 1115 1240 1362
8 1104 996 1112 1230 1231 1113 1236 1363
8 1364 1237 1114 1232 1231 1113 997 1106
8 1109 1005 1114 1232 1234 1118 1238 1365
8 1110 1004 1118 1234 1233 1117 1241 1366
8 1242 1374 1255 1138 1119 1243 1132 1025
8 1244 1127 1254 1376 1121 1015 1129 1245
8 1148 1031 1149 1275 1244 1127 1254 1376
8 1245 1129 1258 1377 1125 1016 1130 1248
8 1251 1134 1019 1126 1378 1257 1128 1246
8 1378 1257 1128 1246 1247 1131 1017 1123
8 1248 1130 1259 1379 1124 1018 1131 1247
8 1261 1381 1250 1133 1132 1249 1330 1199
8 1255 1380 1252 1135 1132 1249 1381 1261
8 1250 1133 1019 1126 1382 1262 1134 1251
8 1253 1136 1256 1385 1384 1263 1135 1252
8 1254 1137 1265 1387 1129 1022 1141 1258
8 1149 1032 1150 1276 1254 1137 1265 1387
8 1028 1135 1255 1138 1139 1256 1388 1266
8 1136 1029 1147 1264 1256 1139 1267 1389
8 1390 1268 1140 1257 1259 1142 1024 1131
8 1260 1143 1027 1134 1390 1268 1140 1257
8 1258 1141 1269 1391 1130 1023 1142 1259
8 1262 1145 1027 1134 1393 1271 1143 1260
8 1261 1144 1026 1133 1394 1272 1145 1262
8 1135 1028 1144 1261 1263 1146 1272 1394
8 1136 1029 1146 1263 1264 1147 1273 1395
8 1155 1041 1160 1282 1275 1149 1276 1405
8 1276 1150 1044 1160 1406 1277 1162 1286
8 1408 1283 1159 1279 1278 1156 1039 1151
8 1290 1165 1283 1408 1177 1053 1156 1278
8 1152 1040 1159 1279 1280 1158 1285 1409
8 1281 1157 1038 1153 1410 1284 1158 1280
8 1281 1157 1284 1410 1154 1042 1160 1282
8 1159 1046 1164 1283 1285 1163 1289 1412
8 1292 1167 1289 1412 1165 1048 1164 1283
8 1158 1045 1163 1285 1284 1161 1288 1413
8 1284 1161 1288 1413 1160 1044 1162 1286
8 1291 1166 1292 1418 1174 1051 1165 1290
8 1291 1166 1051 1174 1419 1293 1172 1305
8 1294 1169 1296 1421 1166 1049 1167 1292
8 1293 1168 1050 1172 1422 1295 1171 1303
8 1294 1169 1049 1166 1423 1297 1168 1293
8 1422 1295 1171 1303 1301 1170 1302 1435
8 1172 1050 1173 1306 1303 1171 1304 1438
8 1174 1051 1175 1308 1305 1172 1306 1440
8 1175 1052 1176 1309 1306 1173 1307 1441
8 1177 1053 1178 1311 1308 1175 1309 1443
8 1178 1054 1179 1312 1309 1176 1310 1444
8 1180 1055 1181 1314 1311 1178 1312 1446
8 1056 1181 1312 1179 1182 1315 1447 1313
8 1183 1058 1184 1316 1314 1181 1315 1448
8 1319 1186 1084 1214 1451 1317 1213 1350
8 1319 1186 1318 1453 1208 1081 1187 1321
8 1321 1187 1320 1456 1188 1063 1189 1323
8 1344 1208 1321 1457 1209 1082 1188 1322
8 1322 1188 1323 1458 1190 1064 1191 1325
8 1323 1189 1324 1459 1191 1065 1192 1326
8 1191 1325 1193 1067 1326 1460 1327 1194
8 1242 1374 1243 1119 1328 1462 1335 1204
8 1330 1199 1333 1465 1196 1075 1200 1331
8 1132 1249 1330 1199 1243 1375 1465 1333
8 1332 1201 1077 1198 1466 1334 1200 1331
8 1215 1099 1201 1332 1352 1227 1334 1466
8 1119 1243 1333 1203 1204 1335 1470 1338
8 1333 1203 1338 1470 1200 1080 1202 1334
8 1227 1111 1202 1334 1360 1235 1338 1470
8 1328 1462 1335 1204 1205 1336 1471 1339
8 1337 1206 1340 1472 1464 1329 1205 1336
8 1346 1211 1342 1479 1210 1083 1207 1343
8 1346 1211 1115 1228 1479 1342 1239 1361
8 1348 1212 1084 1214 1479 1342 1207 1343
8 1480 1343 1208 1344 1345 1210 1082 1209
8 1351 1214 1319 1454 1480 1343 1208 1344
8 1481 1346 1210 1345 1359 1228 1100 1225
8 1348 1212 1347 1483 1214 1084 1213 1350
8 1216 1103 1227 1352 1353 1230 1360 1488
8 1217 1104 1230 1353 1354 1231 1363 1489
8 1490 1364 1232 1355 1354 1231 1106 1219
8 1220 1109 1232 1355 1356 1234 1365 1491
8 1221 1110 1234 1356 1357 1233 1366 1492
8 1224 1107 1233 1357 1358 1229 1362 1493
8 1226 1102 1229 1358 1359 1228 1362 1493
8 1230 1112 1235 1360 1363 1236 1367 1496
8 1361 1239 1115 1228 1497 1371 1240 1362
8 1366 1241 1372 1498 1233 1117 1240 1362
8 1364 1237 1113 1231 1499 1368 1236 1363
8 1364 1237 1368 1499 1232 1114 1238 1365
8 1234 1118 1238 1365 1366 1241 1369 1500
8 1507 1373 1242 1374 1388 1266 1138 1255
8 1508 1374 1243 1375 1380 1255 1132 1249
8 1376 1254 1387 1509 1245 1129 1258 1377
8 1275 1149 1276 1405 1376 1254 1387 1509
8 1377 1258 1391 1510 1248 1130 1259 1379
8 1511 1390 1257 1378 1379 1259 1131 1247
8 1383 1260 1134 1251 1511 1390 1257 1378
8 1252 1135 1256 1385 1380 1255 1388 1512
8 1261 1381 1513 1394 1133 1250 1382 1262
8 1135 1252 1384 1263 1261 1381 1513 1394
8 1382 1262 1134 1251 1514 1393 1260 1383
8 1253 1136 1263 1384 1386 1264 1395 1516
8 1253 1136 1264 1386 1385 1256 1389 1517
8 1387 1265 1397 1519 1258 1141 1269 1391
8 1276 1150 1277 1406 1387 1265 1397 1519
8 1256 1139 1267 1389 1388 1266 1398 1520
8 1264 1147 1274 1396 1389 1267 1399 1521
8 1392 1270 1143 1260 1522 1400 1268 1390
8 1390 1268 1142 1259 1522 1400 1269 1391
8 1392 1270 1401 1523 1260 1143 1271 1393
8 1272 1394 1524 1402 1145 1262 1393 1271
8 1395 1273 1146 1263 1524 1402 1272 1394
8 1273 1395 1264 1147 1403 1526 1396 1274
8 1405 1276 1160 1282 1534 1406 1286 1411
8 1414 1287 1407 1535 1286 1162 1277 1406
8 1279 1159 1283 1408 1409 1285 1412 1537
8 1418 1292 1412 1537 1290 1165 1283 1408
8 1280 1158 1285 1409 1410 1284 1413 1538
8 1410 1284 1413 1538 1282 1160 1286 1411
8 1285 1163 1289 1412 1413 1288 1417 1540
8 1421 1296 1417 1540 1292 1167 1289 1412
8 1414 1287 1162 1286 1541 1416 1288 1413
8 1420 1294 1421 1545 1291 1166 1292 1418
8 1419 1293 1172 1305 1546 1422 1303 1437
8 1420 1294 1166 1291 1547 1423 1293 1419
8 1294 1169 1297 1423 1421 1296 1425 1548
8 1423 1297 1168 1293 1549 1424 1295 1422
8 1301 1170 1298 1427 1422 1295 1424 1549
8 1432 1300 1428 1554 1301 1170 1298 1427
8 1431 1299 1428 1554 1560 1430 1300 1432
8 1563 1433 1300 1432 1435 1302 1170 1301
8 1546 1422 1303 1437 1434 1301 1435 1565
8 1303 1171 1304 1438 1435 1302 1436 1566
8 1305 1172 1306 1440 1437 1303 1438 1568
8 1306 1173 1307 1441 1438 1304 1439 1569
8 1308 1175 1309 1443 1440 1306 1441 1571
8 1309 1176 1310 1444 1441 1307 1442 1572
8 1311 1178 1312 1446 1443 1309 1444 1574
8 1179 1312 1444 1310 1313 1447 1575 1445
8 1314 1181 1315 1448 1446 1312 1447 1576
8 1350 1213 1349 1486 1451 1317 1449 1579
8 1451 1317 1450 1581 1319 1186 1318 1453
8 1454 1319 1214 1351 1582 1451 1350 1487
8 1453 1318 1452 1584 1321 1187 1320 1456
8 1454 1319 1453 1585 1344 1208 1321 1457
8 1456 1320 1455 1586 1323 1189 1324 1459
8 1457 1321 1456 1587 1322 1188 1323 1458
8 1458 1323 1459 1588 1325 1191 1326 1460
8 1205 1336 1464 1329 1328 1462 1590 1461
8 1507 1373 1461 1590 1374 1242 1328 1462
8 1508 1374 1462 1591 1375 1243 1335 1467
8 1337 1206 1329 1464 1473 1341 1463 1594
8 1375 1243 1335 1467 1465 1333 1470 1596
8 1465 1333 1470 1596 1331 1200 1334 1466
8 1352 1227 1334 1466 1488 1360 1470 1596
8 1591 1462 1336 1468 1467 1335 1471 1597
8 1469 1337 1472 1598 1595 1464 1336 1468
8 1471 1339 1474 1600 1335 1204 1338 1470
8 1600 1474 1367 1496 1470 1338 1235 1360
8 1336 1205 1340 1472 1471 1339 1475 1601
8 1337 1206 1341 1473 1472 1340 1476 1602
8 1495 1370 1478 1609 1361 1239 1342 1479
8 1348 1212 1342 1479 1483 1347 1478 1609
8 1481 1346 1479 1610 1345 1210 1343 1480
8 1481 1346 1228 1359 1610 1479 1361 1494
8 1484 1348 1214 1351 1610 1479 1343 1480
8 1483 1347 1482 1612 1350 1213 1349 1486
8 1484 1348 1483 1613 1351 1214 1350 1487
8 1353 1230 1360 1488 1489 1363 1496 1616
8 1490 1364 1231 1354 1617 1499 1363 1489
8 1490 1364 1499 1617 1355 1232 1365 1491
8 1356 1234 1365 1491 1492 1366 1500 1619
8 1492 1366 1498 1620 1357 1233 1362 1493
8 1494 1361 1228 1359 1621 1497 1362 1493
8 1495 1370 1239 1361 1622 1504 1371 1497
8 1363 1236 1367 1496 1499 1368 1501 1623
8 1497 1371 1240 1362 1624 1505 1372 1498
8 1625 1503 1372 1498 1500 1369 1241 1366
8 1365 1238 1368 1499 1500 1369 1502 1626
8 1520 1398 1506 1633 1388 1266 1373 1507
8 1634 1507 1374 1508 1512 1388 1255 1380
8 1509 1387 1519 1635 1377 1258 1391 1510
8 1405 1276 1406 1534 1509 1387 1519 1635
8 1515 1392 1260 1383 1636 1522 1390 1511
8 1511 1390 1259 1379 1636 1522 1391 1510
8 1385 1256 1389 1517 1512 1388 1520 1637
8 1513 1394 1262 1382 1638 1524 1393 1514
8 1395 1516 1638 1524 1263 1384 1513 1394
8 1515 1392 1523 1639 1383 1260 1393 1514
8 1516 1395 1526 1640 1386 1264 1396 1518
8 1386 1264 1396 1518 1517 1389 1521 1641
8 1519 1397 1527 1643 1391 1269 1400 1522
8 1535 1407 1527 1643 1406 1277 1397 1519
8 1389 1267 1399 1521 1520 1398 1528 1644
8 1645 1529 1399 1521 1525 1404 1274 1396
8 1392 1270 1400 1522 1523 1401 1531 1646
8 1524 1402 1271 1393 1648 1532 1401 1523
8 1403 1526 1648 1532 1273 1395 1524 1402
8 1525 1404 1274 1396 1649 1533 1403 1526
8 1539 1414 1535 1657 1411 1286 1406 1534
8 1542 1415 1536 1658 1414 1287 1407 1535
8 1409 1285 1412 1537 1538 1413 1540 1660
8 1545 1421 1540 1660 1418 1292 1412 1537
8 1539 1414 1286 1411 1661 1541 1413 1538
8 1540 1417 1544 1663 1413 1288 1416 1541
8 1421 1296 1425 1548 1540 1417 1544 1663
8 1542 1415 1287 1414 1664 1543 1416 1541
8 1420 1294 1423 1547 1545 1421 1548 1666
8 1547 1423 1293 1419 1667 1549 1422 1546
8 1434 1301 1427 1553 1546 1422 1549 1667
8 1423 1297 1424 1549 1548 1425 1550 1668
8 1551 1426 1550 1668 1427 1298 1424 1549
8 1551 1426 1298 1427 1671 1552 1428 1554
8 1562 1432 1554 1674 1434 1301 1427 1553
8 1431 1299 1429 1558 1554 1428 1555 1675
8 1431 1299 1430 1560 1558 1429 1557 1680
8 1560 1430 1300 1432 1683 1559 1433 1563
8 1561 1431 1554 1674 1684 1560 1432 1562
8 1685 1563 1432 1562 1565 1435 1301 1434
8 1435 1302 1436 1566 1563 1433 1564 1686
8 1437 1303 1438 1568 1565 1435 1566 1688
8 1438 1304 1439 1569 1566 1436 1567 1689
8 1440 1306 1441 1571 1568 1438 1569 1691
8 1441 1307 1442 1572 1569 1439 1570 1692
8 1443 1309 1444 1574 1571 1441 1572 1694
8 1310 1444 1572 1442 1445 1575 1695 1573
8 1446 1312 1447 1576 1574 1444 1575 1696
8 1486 1349 1485 1614 1579 1449 1577 1699
8 1451 1317 1449 1579 1581 1450 1578 1701
8 1487 1350 1486 1615 1582 1451 1579 1702
8 1581 1450 1580 1704 1453 1318 1452 1584
8 1582 1451 1581 1705 1454 1319 1453 1585
8 1584 1452 1583 1706 1456 1320 1455 1586
8 1585 1453 1584 1707 1457 1321 1456 1587
8 1587 1456 1586 1708 1458 1323 1459 1588
8 1633 1506 1589 1710 1507 1373 1461 1590
8 1464 1329 1461 1590 1594 1463 1589 1710
8 1468 1336 1462 1591 1595 1464 1590 1711
8 1634 1507 1590 1711 1508 1374 1462 1591
8 1473 1341 1463 1594 1603 1477 1593 1716
8 1469 1337 1464 1595 1599 1473 1594 1717
8 1471 1597 1467 1335 1600 1718 1596 1470
8 1718 1600 1496 1616 1596 1470 1360 1488
8 1336 1468 1597 1471 1472 1598 1719 1601
8 1469 1337 1473 1599 1598 1472 1602 1720
8 1722 1604 1501 1623 1600 1474 1367 1496
8 1475 1601 1471 1339 1604 1722 1600 1474
8 1602 1476 1605 1723 1472 1340 1475 1601
8 1476 1602 1724 1606 1341 1473 1603 1477
8 1483 1347 1478 1609 1612 1482 1608 1731
8 1495 1370 1504 1622 1609 1478 1608 1731
8 1618 1495 1609 1732 1494 1361 1479 1610
8 1484 1348 1479 1610 1613 1483 1609 1732
8 1486 1349 1482 1612 1614 1485 1611 1733
8 1613 1483 1612 1734 1487 1350 1486 1615
8 1489 1363 1496 1616 1617 1499 1623 1736
8 1491 1365 1499 1617 1619 1500 1626 1737
8 1618 1495 1361 1494 1738 1622 1497 1621
8 1739 1625 1498 1620 1619 1500 1366 1492
8 1621 1497 1362 1493 1740 1624 1498 1620
8 1742 1631 1504 1622 1624 1505 1371 1497
8 1743 1628 1502 1626 1623 1501 1368 1499
8 1744 1630 1505 1624 1625 1503 1372 1498
8 1745 1629 1503 1625 1626 1502 1369 1500
8 1520 1398 1528 1644 1633 1506 1632 1751
8 1637 1520 1633 1752 1512 1388 1507 1634
8 1635 1519 1643 1753 1510 1391 1522 1636
8 1657 1535 1643 1753 1534 1406 1519 1635
8 1515 1392 1522 1636 1639 1523 1646 1754
8 1517 1389 1521 1641 1637 1520 1644 1755
8 1524 1638 1756 1648 1393 1514 1639 1523
8 1640 1526 1395 1516 1756 1648 1524 1638
8 1642 1525 1396 1518 1757 1649 1526 1640
8 1758 1645 1521 1641 1642 1525 1396 1518
8 1646 1531 1400 1522 1760 1650 1527 1643
8 1535 1407 1536 1658 1643 1527 1650 1760
8 1521 1399 1529 1645 1644 1528 1651 1761
8 1647 1530 1652 1762 1525 1404 1529 1645
8 1401 1523 1648 1532 1531 1646 1763 1655
8 1525 1404 1533 1649 1647 1530 1654 1765
8 1533 1649 1766 1656 1403 1526 1648 1532
8 1662 1542 1658 1774 1539 1414 1535 1657
8 1542 1415 1543 1664 1658 1536 1659 1775
8 1660 1540 1663 1777 1538 1413 1541 1661
8 1545 1421 1548 1666 1660 1540 1663 1777
8 1662 1542 1414 1539 1778 1664 1541 1661
8 1664 1543 1416 1541 1779 1665 1544 1663
8 1548 1425 1550 1668 1663 1544 1665 1779
8 1547 1423 1549 1667 1666 1548 1668 1781
8 1670 1551 1668 1781 1553 1427 1549 1667
8 1551 1426 1552 1671 1668 1550 1669 1782
8 1670 1551 1427 1553 1784 1671 1554 1674
8 1675 1555 1672 1785 1554 1428 1552 1671
8 1678 1556 1673 1789 1558 1429 1555 1675
8 1561 1431 1558 1681 1674 1554 1675 1790
8 1794 1677 1556 1678 1680 1557 1429 1558
8 1560 1430 1559 1683 1680 1557 1679 1797
8 1561 1431 1560 1684 1681 1558 1680 1798
8 1563 1433 1564 1686 1683 1559 1682 1800
8 1684 1560 1432 1562 1801 1683 1563 1685
8 1565 1435 1566 1688 1685 1563 1686 1802
8 1566 1436 1567 1689 1686 1564 1687 1803
8 1568 1438 1569 1691 1688 1566 1689 1805
8 1569 1439 1570 1692 1689 1567 1690 1806
8 1571 1441 1572 1694 1691 1569 1692 1808
8 1442 1572 1692 1570 1573 1695 1809 1693
8 1574 1444 1575 1696 1694 1572 1695 1810
8 1614 1485 1592 1712 1699 1577 1697 1813
8 1579 1449 1577 1699 1701 1578 1698 1815
8 1615 1486 1614 1735 1702 1579 1699 1816
8 1701 1578 1700 1818 1581 1450 1580 1704
8 1582 1451 1579 1702 1705 1581 1701 1819
8 1704 1580 1703 1820 1584 1452 1583 1706
8 1705 1581 1704 1821 1585 1453 1584 1707
8 1707 1584 1706 1822 1587 1456 1586 1708
8 1710 1589 1506 1633 1824 1709 1632 1751
8 1594 1463 1589 1710 1716 1593 1709 1824
8 1752 1633 1710 1825 1634 1507 1590 1711
8 1595 1464 1590 1711 1717 1594 1710 1825
8 1830 1714 1592 1712 1733 1611 1485 1614
8 1603 1477 1593 1716 1725 1607 1715 1834
8 1599 1473 1594 1717 1721 1603 1716 1835
8 1837 1722 1623 1736 1718 1600 1496 1616
8 1719 1601 1722 1837 1597 1471 1600 1718
8 1602 1720 1598 1472 1723 1838 1719 1601
8 1720 1602 1473 1599 1839 1724 1603 1721
8 1723 1605 1726 1840 1601 1475 1604 1722
8 1840 1726 1628 1743 1722 1604 1501 1623
8 1724 1606 1727 1841 1602 1476 1605 1723
8 1725 1607 1728 1842 1603 1477 1606 1724
8 1612 1482 1608 1731 1733 1611 1730 1849
8 1741 1627 1730 1849 1622 1504 1608 1731
8 1613 1483 1609 1732 1734 1612 1731 1850
8 1618 1495 1622 1738 1732 1609 1731 1850
8 1615 1486 1612 1734 1735 1614 1733 1851
8 1852 1743 1626 1737 1736 1623 1499 1617
8 1853 1745 1625 1739 1737 1626 1500 1619
8 1855 1742 1622 1738 1740 1624 1497 1621
8 1856 1744 1624 1740 1739 1625 1498 1620
8 1741 1627 1504 1622 1857 1746 1631 1742
8 1742 1631 1505 1624 1858 1749 1630 1744
8 1859 1747 1629 1745 1743 1628 1502 1626
8 1860 1748 1630 1744 1745 1629 1503 1625
8 1644 1528 1651 1761 1751 1632 1750 1865
8 1637 1520 1644 1755 1752 1633 1751 1866
8 1754 1646 1522 1636 1867 1760 1643 1753
8 1657 1535 1658 1774 1753 1643 1760 1867
8 1639 1523 1646 1754 1756 1648 1763 1868
8 1641 1521 1645 1758 1755 1644 1761 1869
8 1757 1649 1526 1640 1870 1766 1648 1756
8 1642 1525 1649 1757 1759 1647 1765 1871
8 1759 1647 1762 1872 1642 1525 1645 1758
8 1760 1650 1767 1874 1646 1531 1655 1763
8 1658 1536 1659 1775 1760 1650 1767 1874
8 1762 1652 1768 1875 1645 1529 1651 1761
8 1764 1653 1769 1876 1647 1530 1652 1762
8 1656 1766 1877 1773 1532 1648 1763 1655
8 1771 1879 1765 1654 1653 1764 1647 1530
8 1533 1649 1765 1654 1656 1766 1880 1772
8 1662 1542 1664 1778 1774 1658 1775 1887
8 1664 1543 1665 1779 1775 1659 1776 1888
8 1778 1664 1541 1661 1890 1779 1663 1777
8 1666 1548 1668 1781 1777 1663 1779 1890
8 1782 1669 1780 1891 1668 1550 1665 1779
8 1670 1551 1671 1784 1781 1668 1782 1893
8 1671 1552 1672 1785 1782 1669 1783 1894
8 1790 1675 1785 1896 1674 1554 1671 1784
8 1675 1555 1673 1789 1785 1672 1786 1897
8 1792 1676 1788 1903 1678 1556 1673 1789
8 1795 1678 1789 1904 1681 1558 1675 1790
8 1792 1676 1556 1678 1906 1791 1677 1794
8 1680 1557 1679 1797 1794 1677 1793 1909
8 1910 1794 1678 1795 1798 1680 1558 1681
8 1683 1559 1682 1800 1797 1679 1796 1912
8 1684 1560 1683 1801 1798 1680 1797 1913
8 1686 1564 1687 1803 1800 1682 1799 1915
8 1685 1563 1686 1802 1801 1683 1800 1916
8 1688 1566 1689 1805 1802 1686 1803 1917
8 1689 1567 1690 1806 1803 1687 1804 1918
8 1691 1569 1692 1808 1805 1689 1806 1920
8 1692 1570 1693 1809 1806 1690 1807 1921
8 1694 1572 1695 1810 1808 1692 1809 1922
8 1829 1713 1811 1926 1712 1592 1697 1813
8 1813 1697 1812 1928 1699 1577 1698 1815
8 1735 1614 1712 1828 1816 1699 1813 1929
8 1815 1698 1814 1931 1701 1578 1700 1818
8 1702 1579 1699 1816 1819 1701 1815 1932
8 1818 1700 1817 1933 1704 1580 1703 1820
8 1819 1701 1818 1934 1705 1581 1704 1821
8 1821 1704 1820 1935 1707 1584 1706 1822
8 1824 1709 1632 1751 1937 1823 1750 1865
8 1716 1593 1709 1824 1834 1715 1823 1937
8 1825 1710 1633 1752 1938 1824 1751 1866
8 1717 1594 1710 1825 1835 1716 1824 1938
8 1945 1830 1712 1828 1851 1733 1614 1735
8 1830 1714 1831 1946 1712 1592 1713 1829
8 1947 1832 1714 1830 1849 1730 1611 1733
8 1843 1729 1607 1725 1950 1833 1715 1834
8 1721 1603 1716 1835 1836 1725 1834 1951
8 1836 1725 1842 1953 1721 1603 1724 1839
8 1723 1838 1719 1601 1840 1954 1837 1722
8 1954 1840 1743 1852 1837 1722 1623 1736
8 1724 1839 1720 1602 1841 1955 1838 1723
8 1841 1727 1844 1956 1723 1605 1726 1840
8 1956 1844 1747 1859 1840 1726 1628 1743
8 1728 1842 1724 1606 1845 1957 1841 1727
8 1725 1607 1729 1843 1842 1728 1846 1958
8 1741 1627 1746 1857 1849 1730 1848 1965
8 1734 1612 1731 1850 1851 1733 1849 1966
8 1854 1741 1849 1966 1738 1622 1731 1850
8 1967 1859 1745 1853 1852 1743 1626 1737
8 1968 1860 1744 1856 1853 1745 1625 1739
8 1854 1741 1622 1738 1969 1857 1742 1855
8 1855 1742 1624 1740 1970 1858 1744 1856
8 1857 1746 1631 1742 1971 1861 1749 1858
8 1858 1749 1630 1744 1972 1863 1748 1860
8 1859 1747 1862 1973 1745 1629 1748 1860
8 1875 1768 1864 1977 1761 1651 1750 1865
8 1755 1644 1761 1869 1866 1751 1865 1978
8 1867 1760 1874 1979 1754 1646 1763 1868
8 1774 1658 1775 1887 1867 1760 1874 1979
8 1870 1766 1648 1756 1980 1877 1763 1868
8 1872 1762 1875 1981 1758 1645 1761 1869
8 1757 1649 1766 1870 1871 1765 1880 1982
8 1983 1879 1764 1873 1871 1765 1647 1759
8 1873 1764 1876 1984 1759 1647 1762 1872
8 1877 1773 1655 1763 1986 1881 1767 1874
8 1775 1659 1776 1888 1874 1767 1881 1986
8 1876 1769 1882 1987 1762 1652 1768 1875
8 1878 1770 1883 1988 1764 1653 1769 1876
8 1880 1772 1656 1766 1989 1886 1773 1877
8 1878 1770 1653 1764 1990 1884 1771 1879
8 1765 1654 1772 1880 1879 1771 1885 1991
8 1778 1664 1779 1890 1887 1775 1888 1997
8 1998 1889 1776 1888 1891 1780 1665 1779
8 1893 1782 1891 2000 1781 1668 1779 1890
8 1894 1783 1892 2001 1782 1669 1780 1891
8 1784 1671 1785 1896 1893 1782 1894 2003
8 1897 1786 1895 2004 1785 1672 1783 1894
8 1790 1675 1789 1904 1896 1785 1897 2006
8 1901 1787 1898 2007 1789 1673 1786 1897
8 1903 1788 1900 2013 1789 1673 1787 1901
8 1792 1676 1791 1906 1903 1788 1902 2016
8 1907 1792 1903 2017 1795 1678 1789 1904
8 1906 1791 1677 1794 2019 1905 1793 1909
8 1907 1792 1678 1795 2020 1906 1794 1910
8 1797 1679 1796 1912 1909 1793 1908 2022
8 1798 1680 1797 1913 1910 1794 1909 2023
8 1800 1682 1799 1915 1912 1796 1911 2025
8 1801 1683 1800 1916 1913 1797 1912 2026
8 1803 1687 1804 1918 1915 1799 1914 2028
8 1802 1686 1803 1917 1916 1800 1915 2029
8 1805 1689 1806 1920 1917 1803 1918 2030
8 1806 1690 1807 1921 1918 1804 1919 2031
8 1808 1692 1809 1922 1920 1806 1921 2032
8 1939 1826 1924 2037 1829 1713 1811 1926
8 1926 1811 1925 2039 1813 1697 1812 1928
8 1944 1829 1926 2040 1828 1712 1813 1929
8 1928 1812 1927 2042 1815 1698 1814 1931
8 1929 1813 1928 2043 1816 1699 1815 1932
8 1931 1814 1930 2044 1818 1700 1817 1933
8 1932 1815 1931 2045 1819 1701 1818 1934
8 1934 1818 1933 2046 1821 1704 1820 1935
8 2048 1936 1823 1937 1977 1864 1750 1865
8 1950 1833 1715 1834 2048 1936 1823 1937
8 1938 1824 1751 1866 2049 1937 1865 1978
8 1835 1716 1824 1938 1951 1834 1937 2049
8 1939 1826 1713 1829 2053 1942 1831 1946
8 1940 1827 1923 2035 2053 1942 1826 1939
8 1945 1830 1946 2058 1828 1712 1829 1944
8 2059 1947 1830 1945 1966 1849 1733 1851
8 1947 1832 1730 1849 2060 1948 1848 1965
8 1947 1832 1948 2060 1830 1714 1831 1946
8 1959 1847 1729 1843 2063 1949 1833 1950
8 1952 1843 1725 1836 2064 1950 1834 1951
8 1836 1725 1843 1952 1953 1842 1958 2066
8 1953 1842 1957 2067 1839 1724 1841 1955
8 1841 1955 1838 1723 1956 2068 1954 1840
8 2068 1956 1859 1967 1954 1840 1743 1852
8 1956 1844 1960 2069 1859 1747 1862 1973
8 1845 1957 1841 1727 1960 2069 1956 1844
8 1728 1842 1957 1845 1846 1958 2071 1961
8 1962 2072 1959 1847 1846 1958 1843 1729
8 1971 1861 1964 2077 1857 1746 1848 1965
8 1854 1741 1857 1969 1966 1849 1965 2078
8 1967 1859 1973 2079 1853 1745 1860 1968
8 1970 1858 1744 1856 2080 1972 1860 1968
8 1969 1857 1742 1855 2081 1971 1858 1970
8 1971 1861 1749 1858 2082 1974 1863 1972
8 1973 1862 1975 2083 1860 1748 1863 1972
8 1987 1882 1976 2086 1875 1768 1864 1977
8 1981 1875 1977 2087 1869 1761 1865 1978
8 1980 1877 1763 1868 2088 1986 1874 1979
8 1887 1775 1888 1997 1979 1874 1986 2088
8 1880 1982 2089 1989 1766 1870 1980 1877
8 1984 1876 1987 2090 1872 1762 1875 1981
8 1765 1871 1983 1879 1880 1982 2091 1991
8 1985 1878 1764 1873 2092 1990 1879 1983
8 1985 1878 1988 2093 1873 1764 1876 1984
8 2094 1992 1881 1986 1998 1889 1776 1888
8 1986 1881 1992 2094 1877 1773 1886 1989
8 1988 1883 1993 2095 1876 1769 1882 1987
8 1878 1770 1884 1990 1988 1883 1994 2096
8 1991 1885 1772 1880 2097 1996 1886 1989
8 1879 1771 1885 1991 1990 1884 1995 2098
8 2103 1998 1888 1997 2000 1891 1779 1890
8 2104 1999 1889 1998 2001 1892 1780 1891
8 2003 1894 2001 2106 1893 1782 1891 2000
8 2004 1895 2002 2107 1894 1783 1892 2001
8 2006 1897 2004 2109 1896 1785 1894 2003
8 2007 1898 2005 2110 1897 1786 1895 2004
8 2014 1901 2007 2112 1904 1789 1897 2006
8 2011 1899 2008 2113 1901 1787 1898 2007
8 2119 2010 1899 2011 2013 1900 1787 1901
8 2016 1902 2012 2122 1903 1788 1900 2013
8 2017 1903 2013 2123 1904 1789 1901 2014
8 1906 1791 1905 2019 2016 1902 2015 2125
8 1907 1792 1906 2020 2017 1903 2016 2126
8 1909 1793 1908 2022 2019 1905 2018 2128
8 2020 1906 1794 1910 2129 2019 1909 2023
8 1912 1796 1911 2025 2022 1908 2021 2131
8 1913 1797 1912 2026 2023 1909 2022 2132
8 1915 1799 1914 2028 2025 1911 2024 2134
8 1916 1800 1915 2029 2026 1912 2025 2135
8 1918 1804 1919 2031 2028 1914 2027 2136
8 1917 1803 1918 2030 2029 1915 2028 2137
8 1920 1806 1921 2032 2030 1918 2031 2138
8 1940 1827 1941 2054 2035 1923 2033 2140
8 2035 1923 2034 2143 1939 1826 1924 2037
8 2037 1924 2036 2146 1926 1811 1925 2039
8 2051 1939 2037 2147 1944 1829 1926 2040
8 2039 1925 2038 2149 1928 1812 1927 2042
8 2040 1926 2039 2150 1929 1813 1928 2043
8 2042 1927 2041 2151 1931 1814 1930 2044
8 2043 1928 2042 2152 1932 1815 1931 2045
8 2045 1931 2044 2153 1934 1818 1933 2046
8 2155 2047 1936 2048 2086 1976 1864 1977
8 2063 1949 1833 1950 2155 2047 1936 2048
8 2156 2048 1937 2049 2087 1977 1865 1978
8 2064 1950 1834 1951 2156 2048 1937 2049
8 2051 1939 1829 1944 2160 2053 1946 2058
8 2052 1940 2035 2144 2160 2053 1939 2051
8 2053 1942 1831 1946 2163 2057 1948 2060
8 2055 1943 1827 1940 2163 2057 1942 2053
8 2055 1943 2056 2164 1940 1827 1941 2054
8 2059 1947 1849 1966 2167 2060 1965 2078
8 2059 1947 2060 2167 1945 1830 1946 2058
8 2077 1964 2061 2168 1965 1848 1948 2060
8 2070 1963 1847 1959 2170 2062 1949 2063
8 2065 1959 1843 1952 2171 2063 1950 2064
8 2173 2072 1958 2066 2065 1959 1843 1952
8 1953 1842 1958 2066 2067 1957 2071 2174
8 2068 1956 2069 2175 1967 1859 1973 2079
8 2067 1957 2069 2175 1955 1841 1956 2068
8 1845 1957 2069 1960 1961 2071 2176 2073
8 2069 1960 2073 2176 1973 1862 1975 2083
8 2070 1963 2075 2177 1959 1847 1962 2072
8 1846 1958 2071 1961 1962 2072 2178 2074
8 2077 1964 1861 1971 2182 2076 1974 2082
8 2081 1971 2077 2183 1969 1857 1965 2078
8 2079 1973 2083 2184 1968 1860 1972 2080
8 2081 1971 1858 1970 2185 2082 1972 2080
8 2083 1975 2084 2186 1972 1863 1974 2082
8 2086 1976 1882 1987 2189 2085 1993 2095
8 2090 1987 2086 2190 1981 1875 1977 2087
8 2191 2094 1986 2088 2103 1998 1888 1997
8 2088 1986 2094 2191 1980 1877 1989 2089
8 1991 2091 2192 2097 1880 1982 2089 1989
8 2093 1988 2095 2193 1984 1876 1987 2090
8 1879 1983 2092 1990 1991 2091 2194 2098
8 1985 1878 1990 2092 2093 1988 2096 2195
8 2097 1996 1886 1989 2196 2099 1992 2094
8 2196 2099 1992 2094 2104 1999 1889 1998
8 1994 2096 1988 1883 2100 2197 2095 1993
8 2096 1994 1884 1990 2198 2101 1995 2098
8 1995 2098 2199 2102 1885 1991 2097 1996
8 2203 2104 1998 2103 2106 2001 1891 2000
8 2107 2002 2105 2204 2001 1892 1999 2104
8 2109 2004 2107 2206 2003 1894 2001 2106
8 2110 2005 2108 2207 2004 1895 2002 2107
8 2112 2007 2110 2209 2006 1897 2004 2109
8 2113 2008 2111 2210 2007 1898 2005 2110
8 2120 2011 2113 2212 2014 1901 2007 2112
8 2117 2009 2114 2213 2011 1899 2008 2113
8 2219 2116 2009 2117 2119 2010 1899 2011
8 2222 2118 2010 2119 2122 2012 1900 2013
8 2223 2119 2011 2120 2123 2013 1901 2014
8 2016 1902 2015 2125 2122 2012 2121 2225
8 2126 2016 2122 2226 2017 1903 2013 2123
8 2019 1905 2018 2128 2125 2015 2124 2228
8 2020 1906 2019 2129 2126 2016 2125 2229
8 2022 1908 2021 2131 2128 2018 2127 2231
8 2023 1909 2022 2132 2129 2019 2128 2232
8 2025 1911 2024 2134 2131 2021 2130 2234
8 2026 1912 2025 2135 2132 2022 2131 2235
8 1914 2028 2134 2024 2027 2136 2236 2133
8 2029 1915 2028 2137 2135 2025 2134 2237
8 2030 1918 2031 2138 2137 2028 2136 2238
8 2157 2050 2139 2240 2054 1941 2033 2140
8 2052 1940 2054 2161 2144 2035 2140 2242
8 2140 2033 2141 2243 2035 1923 2034 2143
8 2143 2034 2142 2246 2037 1924 2036 2146
8 2144 2035 2143 2247 2051 1939 2037 2147
8 2146 2036 2145 2249 2039 1925 2038 2149
8 2147 2037 2146 2250 2040 1926 2039 2150
8 2149 2038 2148 2251 2042 1927 2041 2151
8 2150 2039 2149 2252 2043 1928 2042 2152
8 2152 2042 2151 2253 2045 1931 2044 2153
8 2255 2154 2047 2155 2189 2085 1976 2086
8 2170 2062 1949 2063 2255 2154 2047 2155
8 2256 2155 2048 2156 2190 2086 1977 2087
8 2171 2063 1950 2064 2256 2155 2048 2156
8 2258 2159 2050 2157 2164 2056 1941 2054
8 2160 2053 1946 2058 2262 2163 2060 2167
8 2162 2055 1940 2052 2262 2163 2053 2160
8 2162 2055 2164 2263 2052 1940 2054 2161
8 2163 2057 1948 2060 2264 2165 2061 2168
8 2055 1943 2057 2163 2164 2056 2165 2264
8 2182 2076 2166 2268 2077 1964 2061 2168
8 2183 2077 2168 2269 2078 1965 2060 2167
8 2070 1963 2062 2170 2177 2075 2169 2271
8 2172 2070 1959 2065 2272 2170 2063 2171
8 2172 2070 2177 2273 2065 1959 2072 2173
8 2066 1958 2072 2173 2174 2071 2178 2274
8 2067 1957 2071 2174 2175 2069 2176 2275
8 2175 2069 2176 2275 2079 1973 2083 2184
8 2071 1961 2074 2178 2176 2073 2179 2276
8 2176 2073 2179 2276 2083 1975 2084 2186
8 2072 1962 2075 2177 2178 2074 2180 2277
8 2182 2076 1974 2082 2280 2181 2084 2186
8 2183 2077 1971 2081 2281 2182 2082 2185
8 2184 2083 2186 2282 2080 1972 2082 2185
8 2189 2085 1993 2095 2285 2188 2100 2197
8 2190 2086 1987 2090 2286 2189 2095 2193
8 2192 2097 1989 2089 2287 2196 2094 2191
8 2287 2196 2094 2191 2203 2104 1998 2103
8 2194 2098 1991 2091 2288 2199 2097 2192
8 2195 2096 2197 2289 2093 1988 2095 2193
8 2096 2195 2290 2198 1990 2092 2194 2098
8 2097 1996 2099 2196 2199 2102 2200 2291
8 2196 2099 1999 2104 2291 2200 2105 2204
8 2100 2197 2292 2201 1994 2096 2198 2101
8 1995 2098 2198 2101 2102 2199 2293 2202
8 2206 2107 2204 2296 2106 2001 2104 2203
8 2207 2108 2205 2297 2107 2002 2105 2204
8 2209 2110 2207 2299 2109 2004 2107 2206
8 2210 2111 2208 2300 2110 2005 2108 2207
8 2212 2113 2210 2302 2112 2007 2110 2209
8 2213 2114 2211 2303 2113 2008 2111 2210
8 2220 2117 2213 2305 2120 2011 2113 2212
8 2216 2115 2214 2306 2117 2009 2114 2213
8 2216 2115 2009 2117 2311 2217 2116 2219
8 2219 2116 2010 2119 2314 2218 2118 2222
8 2315 2219 2117 2220 2223 2119 2011 2120
8 2122 2012 2121 2225 2222 2118 2221 2317
8 2318 2222 2119 2223 2226 2122 2013 2123
8 2125 2015 2124 2228 2225 2121 2224 2320
8 2126 2016 2125 2229 2226 2122 2225 2321
8 2128 2018 2127 2231 2228 2124 2227 2323
8 2129 2019 2128 2232 2229 2125 2228 2324
8 2131 2021 2130 2234 2231 2127 2230 2326
8 2132 2022 2131 2235 2232 2128 2231 2327
8 2134 2024 2133 2236 2234 2130 2233 2328
8 2135 2025 2134 2237 2235 2131 2234 2329
8 2137 2028 2136 2238 2237 2134 2236 2330
8 2157 2050 2158 2259 2240 2139 2239 2332
8 2257 2157 2240 2334 2161 2054 2140 2242
8 2240 2139 2241 2335 2140 2033 2141 2243
8 2242 2140 2243 2337 2144 2035 2143 2247
8 2243 2141 2244 2338 2143 2034 2142 2246
8 2246 2142 2245 2341 2146 2036 2145 2249
8 2247 2143 2246 2342 2147 2037 2146 2250
8 2249 2145 2248 2343 2149 2038 2148 2251
8 2250 2146 2249 2344 2150 2039 2149 2252
8 2252 2149 2251 2345 2152 2042 2151 2253
8 2169 2271 2347 2254 2062 2170 2255 2154
8 2189 2085 2188 2285 2255 2154 2254 2347
8 2348 2255 2155 2256 2286 2189 2086 2190
8 2272 2170 2063 2171 2348 2255 2155 2256
8 2349 2258 2157 2257 2263 2164 2054 2161
8 2258 2159 2261 2351 2157 2050 2158 2259
8 2258 2159 2056 2164 2351 2261 2165 2264
8 2262 2163 2060 2167 2355 2264 2168 2269
8 2162 2055 2163 2262 2263 2164 2264 2355
8 2357 2266 2165 2264 2268 2166 2061 2168
8 2268 2166 2076 2182 2361 2267 2181 2280
8 2281 2182 2268 2362 2183 2077 2168 2269
8 2271 2169 2270 2364 2177 2075 2180 2277
8 2172 2070 2170 2272 2273 2177 2271 2365
8 2072 2173 2274 2178 2177 2273 2366 2277
8 2071 2174 2275 2176 2178 2274 2367 2276
8 2275 2176 2276 2367 2184 2083 2186 2282
8 2283 2187 2084 2186 2368 2278 2179 2276
8 2178 2074 2180 2277 2276 2179 2278 2368
8 2283 2187 2279 2370 2186 2084 2181 2280
8 2281 2182 2082 2185 2371 2280 2186 2282
8 2188 2285 2374 2284 2100 2197 2292 2201
8 2286 2189 2095 2193 2375 2285 2197 2289
8 2192 2097 2196 2287 2288 2199 2291 2376
8 2287 2196 2104 2203 2376 2291 2204 2296
8 2194 2098 2199 2288 2290 2198 2293 2377
8 2289 2197 2096 2195 2378 2292 2198 2290
8 2291 2200 2105 2204 2379 2294 2205 2297
8 2199 2102 2200 2291 2293 2202 2294 2379
8 2198 2101 2202 2293 2292 2201 2295 2380
8 2299 2207 2297 2383 2206 2107 2204 2296
8 2300 2208 2298 2384 2207 2108 2205 2297
8 2302 2210 2300 2386 2209 2110 2207 2299
8 2303 2211 2301 2387 2210 2111 2208 2300
8 2305 2213 2303 2389 2212 2113 2210 2302
8 2306 2214 2304 2390 2213 2114 2211 2303
8 2310 2216 2306 2392 2220 2117 2213 2305
8 2308 2215 2307 2393 2216 2115 2214 2306
8 2308 2215 2115 2216 2396 2309 2217 2311
8 2310 2216 2117 2220 2398 2311 2219 2315
8 2311 2217 2116 2219 2399 2312 2218 2314
8 2314 2218 2118 2222 2402 2313 2221 2317
8 2315 2219 2119 2223 2403 2314 2222 2318
8 2225 2121 2224 2320 2317 2221 2316 2405
8 2226 2122 2225 2321 2318 2222 2317 2406
8 2228 2124 2227 2323 2320 2224 2319 2408
8 2229 2125 2228 2324 2321 2225 2320 2409
8 2231 2127 2230 2326 2323 2227 2322 2411
8 2232 2128 2231 2327 2324 2228 2323 2412
8 2234 2130 2233 2328 2326 2230 2325 2413
8 2235 2131 2234 2329 2327 2231 2326 2414
8 2237 2134 2236 2330 2329 2234 2328 2415
8 2259 2158 2260 2352 2332 2239 2331 2417
8 2257 2157 2259 2350 2334 2240 2332 2419
8 2240 2139 2239 2332 2335 2241 2333 2420
8 2334 2240 2335 2422 2242 2140 2243 2337
8 2335 2241 2336 2423 2243 2141 2244 2338
8 2337 2243 2338 2425 2247 2143 2246 2342
8 2338 2244 2339 2426 2246 2142 2245 2341
8 2341 2245 2340 2428 2249 2145 2248 2343
8 2342 2246 2341 2429 2250 2146 2249 2344
8 2344 2249 2343 2430 2252 2149 2251 2345
8 2188 2285 2347 2254 2284 2374 2432 2346
8 2347 2254 2346 2432 2271 2169 2270 2364
8 2365 2271 2170 2272 2433 2347 2255 2348
8 2286 2189 2285 2375 2348 2255 2347 2433
8 2349 2258 2351 2435 2257 2157 2259 2350
8 2349 2258 2164 2263 2435 2351 2264 2355
8 2259 2158 2261 2351 2352 2260 2354 2437
8 2356 2265 2354 2437 2264 2165 2261 2351
8 2441 2357 2264 2355 2362 2268 2168 2269
8 2356 2265 2165 2264 2442 2358 2266 2357
8 2443 2359 2266 2357 2361 2267 2166 2268
8 2370 2279 2360 2446 2280 2181 2267 2361
8 2362 2268 2182 2281 2447 2361 2280 2371
8 2180 2277 2368 2278 2270 2364 2449 2363
8 2271 2365 2273 2177 2364 2450 2366 2277
8 2372 2283 2186 2282 2451 2368 2276 2367
8 2178 2274 2367 2276 2277 2366 2451 2368
8 2283 2187 2278 2368 2370 2279 2369 2452
8 2372 2283 2370 2453 2282 2186 2280 2371
8 2284 2374 2455 2373 2201 2292 2380 2295
8 2375 2285 2197 2289 2456 2374 2292 2378
8 2376 2291 2204 2296 2457 2379 2297 2383
8 2288 2199 2291 2376 2377 2293 2379 2457
8 2198 2290 2378 2292 2293 2377 2458 2380
8 2293 2202 2294 2379 2380 2295 2381 2459
8 2384 2298 2381 2459 2297 2205 2294 2379
8 2386 2300 2384 2463 2299 2207 2297 2383
8 2387 2301 2385 2464 2300 2208 2298 2384
8 2389 2303 2387 2466 2302 2210 2300 2386
8 2390 2304 2388 2467 2303 2211 2301 2387
8 2392 2306 2390 2469 2305 2213 2303 2389
8 2393 2307 2391 2470 2306 2214 2304 2390
8 2395 2308 2393 2472 2310 2216 2306 2392
8 2308 2215 2309 2396 2393 2307 2394 2473
8 2395 2308 2216 2310 2475 2396 2311 2398
8 2396 2309 2217 2311 2476 2397 2312 2399
8 2398 2311 2219 2315 2478 2399 2314 2403
8 2399 2312 2218 2314 2479 2400 2313 2402
8 2317 2221 2316 2405 2402 2313 2401 2482
8 2403 2314 2222 2318 2483 2402 2317 2406
8 2320 2224 2319 2408 2405 2316 2404 2485
8 2321 2225 2320 2409 2406 2317 2405 2486
8 2323 2227 2322 2411 2408 2319 2407 2488
8 2324 2228 2323 2412 2409 2320 2408 2489
8 2326 2230 2325 2413 2411 2322 2410 2490
8 2327 2231 2326 2414 2412 2323 2411 2491
8 2329 2234 2328 2415 2414 2326 2413 2492
8 2417 2331 2260 2352 2494 2416 2353 2438
8 2350 2259 2352 2436 2419 2332 2417 2496
8 2332 2239 2331 2417 2420 2333 2418 2497
8 2334 2240 2332 2419 2422 2335 2420 2499
8 2420 2333 2421 2500 2335 2241 2336 2423
8 2422 2335 2423 2502 2337 2243 2338 2425
8 2423 2336 2424 2503 2338 2244 2339 2426
8 2425 2338 2426 2505 2342 2246 2341 2429
8 2426 2339 2427 2506 2341 2245 2340 2428
8 2429 2341 2428 2507 2344 2249 2343 2430
8 2432 2346 2284 2374 2509 2431 2373 2455
8 2432 2346 2431 2509 2364 2270 2363 2449
8 2375 2285 2374 2456 2433 2347 2432 2510
8 2347 2433 2365 2271 2432 2510 2450 2364
8 2350 2259 2351 2435 2436 2352 2437 2514
8 2440 2356 2437 2514 2355 2264 2351 2435
8 2352 2260 2354 2437 2438 2353 2439 2516
8 2356 2265 2358 2442 2437 2354 2439 2516
8 2440 2356 2264 2355 2518 2442 2357 2441
8 2519 2443 2357 2441 2447 2361 2268 2362
8 2443 2359 2444 2520 2357 2266 2358 2442
8 2443 2359 2267 2361 2520 2444 2360 2446
8 2446 2360 2279 2370 2523 2445 2369 2452
8 2453 2370 2446 2524 2371 2280 2361 2447
8 2449 2363 2448 2525 2368 2278 2369 2452
8 2366 2277 2364 2450 2451 2368 2449 2526
8 2372 2283 2368 2451 2453 2370 2452 2527
8 2455 2373 2295 2380 2529 2454 2382 2460
8 2456 2374 2292 2378 2530 2455 2380 2458
8 2377 2293 2379 2457 2458 2380 2459 2531
8 2463 2384 2459 2531 2383 2297 2379 2457
8 2533 2461 2382 2460 2459 2381 2295 2380
8 2464 2385 2461 2533 2384 2298 2381 2459
8 2466 2387 2464 2537 2386 2300 2384 2463
8 2467 2388 2465 2538 2387 2301 2385 2464
8 2469 2390 2467 2540 2389 2303 2387 2466
8 2470 2391 2468 2541 2390 2304 2388 2467
8 2472 2393 2470 2543 2392 2306 2390 2469
8 2393 2307 2394 2473 2470 2391 2471 2544
8 2395 2308 2396 2475 2472 2393 2473 2546
8 2396 2309 2397 2476 2473 2394 2474 2547
8 2475 2396 2311 2398 2549 2476 2399 2478
8 2476 2397 2312 2399 2550 2477 2400 2479
8 2478 2399 2314 2403 2552 2479 2402 2483
8 2479 2400 2313 2402 2553 2480 2401 2482
8 2405 2316 2404 2485 2482 2401 2481 2556
8 2406 2317 2405 2486 2483 2402 2482 2557
8 2408 2319 2407 2488 2485 2404 2484 2559
8 2409 2320 2408 2489 2486 2405 2485 2560
8 2411 2322 2410 2490 2488 2407 2487 2561
8 2412 2323 2411 2491 2489 2408 2488 2562
8 2414 2326 2413 2492 2491 2411 2490 2563
8 2513 2434 2493 2565 2438 2353 2416 2494
8 2496 2417 2352 2436 2567 2494 2438 2515
8 2494 2416 2495 2568 2417 2331 2418 2497
8 2419 2332 2417 2496 2499 2420 2497 2570
8 2497 2418 2498 2571 2420 2333 2421 2500
8 2499 2420 2500 2573 2422 2335 2423 2502
8 2500 2421 2501 2574 2423 2336 2424 2503
8 2502 2423 2503 2576 2425 2338 2426 2505
8 2503 2424 2504 2577 2426 2339 2427 2506
8 2505 2426 2506 2578 2429 2341 2428 2507
8 2509 2431 2373 2455 2580 2508 2454 2529
8 2509 2431 2508 2580 2449 2363 2448 2525
8 2432 2510 2581 2509 2374 2456 2530 2455
8 2432 2510 2450 2364 2509 2581 2526 2449
8 2583 2511 2434 2513 2516 2439 2353 2438
8 2436 2352 2437 2514 2515 2438 2516 2588
8 2440 2356 2442 2518 2514 2437 2516 2588
8 2442 2358 2444 2520 2516 2439 2517 2589
8 2519 2443 2520 2591 2441 2357 2442 2518
8 2519 2443 2361 2447 2591 2520 2446 2524
8 2446 2360 2445 2523 2520 2444 2521 2592
8 2525 2448 2522 2593 2452 2369 2445 2523
8 2524 2446 2370 2453 2594 2523 2452 2527
8 2526 2449 2525 2595 2451 2368 2452 2527
8 2534 2462 2528 2597 2460 2382 2454 2529
8 2530 2455 2380 2458 2598 2529 2460 2532
8 2599 2533 2460 2532 2531 2459 2380 2458
8 2537 2464 2533 2599 2463 2384 2459 2531
8 2534 2462 2382 2460 2601 2535 2461 2533
8 2538 2465 2535 2601 2464 2385 2461 2533
8 2540 2467 2538 2604 2466 2387 2464 2537
8 2541 2468 2539 2605 2467 2388 2465 2538
8 2543 2470 2541 2607 2469 2390 2467 2540
8 2470 2391 2471 2544 2541 2468 2542 2608
8 2472 2393 2473 2546 2543 2470 2544 2610
8 2473 2394 2474 2547 2544 2471 2545 2611
8 2475 2396 2476 2549 2546 2473 2547 2613
8 2476 2397 2477 2550 2547 2474 2548 2614
8 2549 2476 2399 2478 2616 2550 2479 2552
8 2479 2400 2480 2553 2550 2477 2551 2617
8 2552 2479 2402 2483 2619 2553 2482 2557
8 2482 2401 2481 2556 2553 2480 2554 2620
8 2485 2404 2484 2559 2556 2481 2555 2623
8 2486 2405 2485 2560 2557 2482 2556 2624
8 2488 2407 2487 2561 2559 2484 2558 2625
8 2489 2408 2488 2562 2560 2485 2559 2626
8 2491 2411 2490 2563 2562 2488 2561 2627
8 2513 2434 2512 2585 2565 2493 2564 2630
8 2586 2513 2565 2632 2515 2438 2494 2567
8 2565 2493 2566 2633 2494 2416 2495 2568
8 2567 2494 2568 2635 2496 2417 2497 2570
8 2568 2495 2569 2636 2497 2418 2498 2571
8 2570 2497 2571 2638 2499 2420 2500 2573
8 2571 2498 2572 2639 2500 2421 2501 2574
8 2573 2500 2574 2641 2502 2423 2503 2576
8 2574 2501 2575 2642 2503 2424 2504 2577
8 2576 2503 2577 2643 2505 2426 2506 2578
8 2597 2528 2579 2645 2529 2454 2508 2580
8 2580 2508 2579 2645 2525 2448 2522 2593
8 2581 2509 2455 2530 2646 2580 2529 2598
8 2581 2509 2580 2646 2526 2449 2525 2595
8 2583 2511 2582 2648 2513 2434 2512 2585
8 2583 2511 2439 2516 2648 2582 2517 2589
8 2649 2583 2513 2586 2588 2516 2438 2515
8 2589 2517 2444 2520 2653 2587 2521 2592
8 2518 2442 2520 2591 2588 2516 2589 2654
8 2593 2522 2590 2655 2523 2445 2521 2592
8 2524 2446 2523 2594 2591 2520 2592 2656
8 2595 2525 2593 2657 2527 2452 2523 2594
8 2602 2536 2596 2659 2534 2462 2528 2597
8 2600 2534 2597 2660 2532 2460 2529 2598
8 2600 2534 2460 2532 2661 2601 2533 2599
8 2604 2538 2601 2661 2537 2464 2533 2599
8 2602 2536 2462 2534 2663 2603 2535 2601
8 2601 2535 2465 2538 2663 2603 2539 2605
8 2607 2541 2605 2665 2540 2467 2538 2604
8 2608 2542 2606 2666 2541 2468 2539 2605
8 2543 2470 2544 2610 2607 2541 2608 2668
8 2544 2471 2545 2611 2608 2542 2609 2669
8 2546 2473 2547 2613 2610 2544 2611 2671
8 2547 2474 2548 2614 2611 2545 2612 2672
8 2549 2476 2550 2616 2613 2547 2614 2674
8 2550 2477 2551 2617 2614 2548 2615 2675
8 2552 2479 2553 2619 2616 2550 2617 2677
8 2553 2480 2554 2620 2617 2551 2618 2678
8 2557 2482 2556 2624 2619 2553 2620 2680
8 2556 2481 2555 2623 2620 2554 2621 2681
8 2559 2484 2558 2625 2623 2555 2622 2683
8 2560 2485 2559 2626 2624 2556 2623 2684
8 2562 2488 2561 2627 2626 2559 2625 2685
8 2690 2629 2564 2630 2650 2584 2512 2585
8 2586 2513 2585 2651 2632 2565 2630 2691
8 2630 2564 2631 2692 2565 2493 2566 2633
8 2632 2565 2633 2694 2567 2494 2568 2635
8 2633 2566 2634 2695 2568 2495 2569 2636
8 2635 2568 2636 2697 2570 2497 2571 2638
8 2636 2569 2637 2698 2571 2498 2572 2639
8 2638 2571 2639 2700 2573 2500 2574 2641
8 2639 2572 2640 2701 2574 2501 2575 2642
8 2641 2574 2642 2702 2576 2503 2577 2643
8 2597 2528 2596 2659 2645 2579 2644 2704
8 2645 2579 2644 2704 2593 2522 2590 2655
8 2660 2597 2645 2705 2598 2529 2580 2646
8 2646 2580 2645 2705 2595 2525 2593 2657
8 2650 2584 2512 2585 2707 2647 2582 2648
8 2648 2582 2517 2589 2707 2647 2587 2653
8 2649 2583 2648 2708 2586 2513 2585 2651
8 2649 2583 2516 2588 2708 2648 2589 2654
8 2655 2590 2652 2710 2592 2521 2587 2653
8 2654 2589 2520 2591 2711 2653 2592 2656
8 2657 2593 2655 2712 2594 2523 2592 2656
8 2602 2536 2603 2663 2659 2596 2658 2714
8 2662 2602 2659 2715 2600 2534 2597 2660
8 2662 2602 2534 2600 2717 2663 2601 2661
8 2661 2601 2538 2604 2717 2663 2605 2665
8 2666 2606 2664 2718 2605 2539 2603 2663
8 2668 2608 2666 2720 2607 2541 2605 2665
8 2608 2542 2609 2669 2666 2606 2667 2721
8 2610 2544 2611 2671 2668 2608 2669 2723
8 2611 2545 2612 2672 2669 2609 2670 2724
8 2613 2547 2614 2674 2671 2611 2672 2726
8 2614 2548 2615 2675 2672 2612 2673 2727
8 2616 2550 2617 2677 2674 2614 2675 2729
8 2617 2551 2618 2678 2675 2615 2676 2730
8 2619 2553 2620 2680 2677 2617 2678 2732
8 2620 2554 2621 2681 2678 2618 2679 2733
8 2624 2556 2623 2684 2680 2620 2681 2735
8 2681 2621 2555 2623 2736 2682 2622 2683
8 2626 2559 2625 2685 2684 2623 2683 2737
8 2688 2628 2584 2650 2740 2686 2647 2707
8 2688 2628 2687 2742 2650 2584 2629 2690
8 2690 2629 2689 2745 2630 2564 2631 2692
8 2746 2690 2630 2691 2709 2650 2585 2651
8 2691 2630 2692 2747 2632 2565 2633 2694
8 2692 2631 2693 2748 2633 2566 2634 2695
8 2694 2633 2695 2750 2635 2568 2636 2697
8 2695 2634 2696 2751 2636 2569 2637 2698
8 2697 2636 2698 2753 2638 2571 2639 2700
8 2698 2637 2699 2754 2639 2572 2640 2701
8 2700 2639 2701 2755 2641 2574 2642 2702
8 2659 2596 2658 2714 2704 2644 2703 2757
8 2704 2644 2703 2757 2655 2590 2652 2710
8 2660 2597 2659 2715 2705 2645 2704 2758
8 2705 2645 2704 2758 2657 2593 2655 2712
8 2759 2706 2647 2707 2710 2652 2587 2653
8 2709 2650 2585 2651 2760 2707 2648 2708
8 2708 2648 2589 2654 2760 2707 2653 2711
8 2712 2655 2710 2761 2656 2592 2653 2711
8 2763 2713 2658 2714 2718 2664 2603 2663
8 2662 2602 2663 2717 2715 2659 2714 2764
8 2720 2666 2718 2767 2665 2605 2663 2717
8 2768 2719 2664 2718 2721 2667 2606 2666
8 2668 2608 2669 2723 2720 2666 2721 2770
8 2669 2609 2670 2724 2721 2667 2722 2771
8 2671 2611 2672 2726 2723 2669 2724 2773
8 2672 2612 2673 2727 2724 2670 2725 2774
8 2674 2614 2675 2729 2726 2672 2727 2776
8 2675 2615 2676 2730 2727 2673 2728 2777
8 2677 2617 2678 2732 2729 2675 2730 2779
8 2678 2618 2679 2733 2730 2676 2731 2780
8 2680 2620 2681 2735 2732 2678 2733 2782
8 2733 2679 2621 2681 2783 2734 2682 2736
8 2735 2681 2623 2684 2784 2736 2683 2737
8 2740 2686 2647 2707 2787 2738 2706 2759
8 2688 2628 2686 2740 2742 2687 2739 2789
8 2743 2688 2650 2709 2790 2740 2707 2760
8 2742 2687 2741 2792 2690 2629 2689 2745
8 2743 2688 2742 2793 2709 2650 2690 2746
8 2745 2689 2744 2795 2692 2631 2693 2748
8 2746 2690 2745 2796 2691 2630 2692 2747
8 2747 2692 2748 2797 2694 2633 2695 2750
8 2748 2693 2749 2798 2695 2634 2696 2751
8 2750 2695 2751 2800 2697 2636 2698 2753
8 2751 2696 2752 2801 2698 2637 2699 2754
8 2753 2698 2754 2802 2700 2639 2701 2755
8 2763 2713 2756 2804 2714 2658 2703 2757
8 2759 2706 2652 2710 2804 2756 2703 2757
8 2715 2659 2714 2764 2758 2704 2757 2805
8 2758 2704 2757 2805 2712 2655 2710 2761
8 2806 2759 2707 2760 2761 2710 2653 2711
8 2765 2716 2762 2808 2718 2664 2713 2763
8 2809 2763 2714 2764 2767 2718 2663 2717
8 2765 2716 2664 2718 2811 2766 2719 2768
8 2813 2768 2718 2767 2770 2721 2666 2720
8 2814 2769 2719 2768 2771 2722 2667 2721
8 2723 2669 2724 2773 2770 2721 2771 2816
8 2724 2670 2725 2774 2771 2722 2772 2817
8 2726 2672 2727 2776 2773 2724 2774 2819
8 2727 2673 2728 2777 2774 2725 2775 2820
8 2729 2675 2730 2779 2776 2727 2777 2822
8 2730 2676 2731 2780 2777 2728 2778 2823
8 2732 2678 2733 2782 2779 2730 2780 2825
8 2780 2731 2679 2733 2826 2781 2734 2783
8 2782 2733 2681 2735 2827 2783 2736 2784
8 2830 2785 2738 2787 2804 2756 2706 2759
8 2789 2739 2686 2740 2832 2786 2738 2787
8 2790 2740 2707 2760 2833 2787 2759 2806
8 2742 2687 2739 2789 2792 2741 2788 2835
8 2743 2688 2740 2790 2793 2742 2789 2836
8 2792 2741 2791 2838 2745 2689 2744 2795
8 2793 2742 2792 2839 2746 2690 2745 2796
8 2795 2744 2794 2841 2748 2693 2749 2798
8 2796 2745 2795 2842 2747 2692 2748 2797
8 2797 2748 2798 2843 2750 2695 2751 2800
8 2798 2749 2799 2844 2751 2696 2752 2801
8 2800 2751 2801 2845 2753 2698 2754 2802
8 2808 2762 2803 2847 2763 2713 2756 2804
8 2809 2763 2804 2848 2764 2714 2757 2805
8 2806 2759 2710 2761 2848 2804 2757 2805
8 2765 2716 2766 2811 2808 2762 2807 2850
8 2810 2765 2808 2851 2767 2718 2763 2809
8 2810 2765 2718 2767 2852 2811 2768 2813
8 2811 2766 2719 2768 2853 2812 2769 2814
8 2855 2814 2768 2813 2816 2771 2721 2770
8 2856 2815 2769 2814 2817 2772 2722 2771
8 2773 2724 2774 2819 2816 2771 2817 2858
8 2774 2725 2775 2820 2817 2772 2818 2859
8 2776 2727 2777 2822 2819 2774 2820 2861
8 2777 2728 2778 2823 2820 2775 2821 2862
8 2779 2730 2780 2825 2822 2777 2823 2864
8 2823 2778 2731 2780 2865 2824 2781 2826
8 2825 2780 2733 2782 2866 2826 2783 2827
8 2869 2828 2785 2830 2847 2803 2756 2804
8 2871 2829 2786 2832 2830 2785 2738 2787
8 2872 2830 2787 2833 2848 2804 2759 2806
8 2789 2739 2786 2832 2835 2788 2831 2874
8 2836 2789 2740 2790 2875 2832 2787 2833
8 2792 2741 2788 2835 2838 2791 2834 2877
8 2793 2742 2789 2836 2839 2792 2835 2878
8 2838 2791 2837 2880 2795 2744 2794 2841
8 2839 2792 2838 2881 2796 2745 2795 2842
8 2841 2794 2840 2882 2798 2749 2799 2844
8 2842 2795 2841 2883 2797 2748 2798 2843
8 2843 2798 2844 2884 2800 2751 2801 2845
8 2886 2846 2803 2847 2850 2807 2762 2808
8 2851 2808 2847 2887 2809 2763 2804 2848
8 2850 2807 2766 2811 2889 2849 2812 2853
8 2810 2765 2811 2852 2851 2808 2850 2890
8 2852 2811 2768 2813 2891 2853 2814 2855
8 2853 2812 2769 2814 2892 2854 2815 2856
8 2894 2856 2814 2855 2858 2817 2771 2816
8 2817 2772 2818 2859 2856 2815 2857 2895
8 2819 2774 2820 2861 2858 2817 2859 2897
8 2820 2775 2821 2862 2859 2818 2860 2898
8 2822 2777 2823 2864 2861 2820 2862 2900
8 2823 2778 2824 2865 2862 2821 2863 2901
8 2864 2823 2780 2825 2902 2865 2826 2866
8 2904 2867 2828 2869 2886 2846 2803 2847
8 2869 2828 2868 2906 2830 2785 2829 2871
8 2907 2869 2830 2872 2887 2847 2804 2848
8 2871 2829 2870 2909 2832 2786 2831 2874
8 2910 2871 2832 2875 2872 2830 2787 2833
8 2835 2788 2831 2874 2877 2834 2873 2912
8 2836 2789 2832 2875 2878 2835 2874 2913
8 2877 2834 2876 2915 2838 2791 2837 2880
8 2839 2792 2835 2878 2881 2838 2877 2916
8 2880 2837 2879 2917 2841 2794 2840 2882
8 2881 2838 2880 2918 2842 2795 2841 2883
8 2883 2841 2882 2919 2843 2798 2844 2884
8 2921 2885 2846 2886 2889 2849 2807 2850
8 2922 2886 2847 2887 2890 2850 2808 2851
8 2889 2849 2812 2853 2924 2888 2854 2892
8 2890 2850 2811 2852 2925 2889 2853 2891
8 2891 2853 2814 2855 2926 2892 2856 2894
8 2892 2854 2815 2856 2927 2893 2857 2895
8 2858 2817 2859 2897 2894 2856 2895 2929
8 2859 2818 2860 2898 2895 2857 2896 2930
8 2861 2820 2862 2900 2897 2859 2898 2932
8 2862 2821 2863 2901 2898 2860 2899 2933
8 2864 2823 2865 2902 2900 2862 2901 2934
8 2904 2867 2846 2886 2936 2903 2885 2921
8 2904 2867 2903 2936 2869 2828 2868 2906
8 2937 2904 2869 2907 2922 2886 2847 2887
8 2906 2868 2905 2939 2871 2829 2870 2909
8 2907 2869 2906 2940 2872 2830 2871 2910
8 2909 2870 2908 2942 2874 2831 2873 2912
8 2910 2871 2909 2943 2875 2832 2874 2913
8 2912 2873 2911 2945 2877 2834 2876 2915
8 2878 2835 2874 2913 2916 2877 2912 2946
8 2915 2876 2914 2947 2880 2837 2879 2917
8 2916 2877 2915 2948 2881 2838 2880 2918
8 2918 2880 2917 2949 2883 2841 2882 2919
8 2921 2885 2849 2889 2951 2920 2888 2924
8 2952 2921 2886 2922 2925 2889 2850 2890
8 2924 2888 2854 2892 2954 2923 2893 2927
8 2925 2889 2853 2891 2955 2924 2892 2926
8 2926 2892 2856 2894 2956 2927 2895 2929
8 2895 2857 2896 2930 2927 2893 2928 2957
8 2897 2859 2898 2932 2929 2895 2930 2959
8 2898 2860 2899 2933 2930 2896 2931 2960
8 2900 2862 2901 2934 2932 2898 2933 2961
8 2936 2903 2885 2921 2963 2935 2920 2951
8 2936 2903 2935 2963 2906 2868 2905 2939
8 2937 2904 2886 2922 2964 2936 2921 2952
8 2937 2904 2936 2964 2907 2869 2906 2940
8 2939 2905 2938 2966 2909 2870 2908 2942
8 2940 2906 2939 2967 2910 2871 2909 2943
8 2942 2908 2941 2969 2912 2873 2911 2945
8 2943 2909 2942 2970 2913 2874 2912 2946
8 2945 2911 2944 2971 2915 2876 2914 2947
8 2946 2912 2945 2972 2916 2877 2915 2948
8 2948 2915 2947 2973 2918 2880 2917 2949
8 2951 2920 2888 2924 2975 2950 2923 2954
8 2952 2921 2889 2925 2976 2951 2924 2955
8 2927 2893 2928 2957 2954 2923 2953 2978
8 2955 2924 2892 2926 2979 2954 2927 2956
8 2929 2895 2930 2959 2956 2927 2957 2980
8 2930 2896 2931 2960 2957 2928 2958 2981
8 2932 2898 2933 2961 2959 2930 2960 2982
8 2951 2920 2950 2975 2963 2935 2962 2984
8 2963 2935 2962 2984 2939 2905 2938 2966
8 2964 2936 2921 2952 2985 2963 2951 2976
8 2964 2936 2963 2985 2940 2906 2939 2967
8 2966 2938 2965 2987 2942 2908 2941 2969
8 2967 2939 2966 2988 2943 2909 2942 2970
8 2969 2941 2968 2989 2945 2911 2944 2971
8 2970 2942 2969 2990 2946 2912 2945 2972
8 2972 2945 2971 2991 2948 2915 2947 2973
8 2954 2923 2953 2978 2975 2950 2974 2993
8 2976 2951 2924 2955 2994 2975 2954 2979
8 2957 2928 2958 2981 2978 2953 2977 2995
8 2956 2927 2957 2980 2979 2954 2978 2996
8 2959 2930 2960 2982 2980 2957 2981 2997
8 2984 2962 2983 2999 2966 2938 2965 2987
8 2975 2950 2974 2993 2984 2962 2983 2999
8 2976 2951 2975 2994 2985 2963 2984 3000
8 2985 2963 2984 3000 2967 2939 2966 2988
8 2987 2965 2986 3001 2969 2941 2968 2989
8 2988 2966 2987 3002 2970 2942 2969 2990
8 2990 2969 2989 3003 2972 2945 2971 2991
8 2978 2953 2977 2995 2993 2974 2992 3004
8 2979 2954 2978 2996 2994 2975 2993 3005
8 2980 2957 2981 2997 2996 2978 2995 3006
8 2974 2993 2999 2983 2992 3004 3007 2998
8 2983 2999 2987 2965 2998 3007 3001 2986
8 3000 2984 2999 3008 2988 2966 2987 3002
8 2994 2975 2993 3005 3000 2984 2999 3008
8 3002 2987 3001 3009 2990 2969 2989 3003
8 2996 2978 2995 3006 3005 2993 3004 3010
8 3005 2993 3004 3010 3008 2999 3007 3011
8 3008 2999 3007 3011 3002 2987 3001 3009

CELL_TYPES 1910
12
12
12
12
12
12
12
12
12
12
12
12
12
12
12
12
12
12
12
12
12
12
12
12
12
12
12
12
12
12
12
12
12
12
12
12
12
12
12
12
12
12
12
12
12
12
12
12
12
12
12
12
12
12
12
12
12
12
12
12
12
12
12
12
12
12
12
12
12
12
12
12
12
12
12
12
12
12
12
12
12
12
12
12
12
12
12
12
12
12
12
12
12
12
12
12
12
12
12
12
12
12
12
12
12
12
12
12
12
12
12
12
12
12
12
12
12
12
12
12
12
12
12
12
12
12
12
12
12
12
12
12
12
12
12
12
12
12
12
12
12
12
12
12
12
12
12
12
12
12
12
12
12
12
12
12
12
12
12
12
12
12
12
12
12
12
12
12
12
12
12
12
12
12
12
12
12
12
12
12
12
12
12
12
12
12
12
12
12
12
12
12
12
12
12
12
12
12
12
12
12
12
12
12
12
12
12
12
12
12
12
12
12
12
12
12
12
12
12
12
12
12
12
12
12
12
12
12
12
12
12
12
12
12
12
12
12
12
12
12
12
12
12
12
12
12
12
12
12
12
12
12
12
12
12
12
12
12
12
12
12
12
12
12
12
12
12
12
12
12
12
12
12
12
12
12
12
12
12
12
12
12
12
12
12
12
12
12
12
12
12
12
12
12
12
12
12
12
12
12
12
12
12
12
12
12
12
12
12
12
12
12
12
12
12
12
12
12
12
12
12
12
12
12
12
12
12
12
12
12
12
12
12
12
12
12
12
12
12
12
12
12
12
12
12
12
12
12
12
12
12
12
12
12
12
12
12
12
12
12
12
12
12
12
12
12
12
12
12
12
12
12
12
12
12
12
12
12
12
12
12
12
12
12
12
12
12
12
12
12
12
12
12
12
12
12
12
12
12
12
12
12
12
12
12
12
12
12
12
12
12
12
12
12
12
12
12
12
12
12
12
12
12
12
12
12
12
12
12
12
12
12
12
12
12
12
12
12
12
12
12
12
12
12
12
12
12
12
12
12
12
12
12
12
12
12
12
12
12
12
12
12
12
12
12
12
12
12
12
12
12
12
12
12
12
12
12
12
12
12
12
12
12
12
12
12
12
12
12
12
12
12
12
12
12
12
12
12
12
12
12
12
12
12
12
12
12
12
12
12
12
12
12
12
12
12
12
12
12
12
12
12
12
12
12
12
12
12
12
12
12
12
12
12
12
12
12
12
12
12
12
12
12
12
12
12
12
12
12
12
12
12
12
12
12
12
12
12
12
12
12
12
12
12
12
12
12
12
12
12
12
12
12
12
12
12
12
12
12
12
12
12
12
12
12
12
12
12
12
12
12
12
12
12
12
12
12
12
12
12
12
12
12
12
12
12
12
12
12
12
12
12
12
12
12
12
12
12
12
12
12
12
12
12
12
12
12
12
12
12
12
12
12
12
12
12
12
12
12
12
12
12
12
12
12
12
12
12
12
12
12
12
12
12
12
12
12
12
12
12
12
12
12
12
12
12
12
12
12
12
12
12
12
12
12
12
12
12
12
12
12
12
12
12
12
12
12
12
12
12
12
12
12
12
12
12
12
12
12
12
12
12
12
12
12
12
12
12
12
12
12
12
12
12
12
12
12
12
12
12
12
12
12
12
12
12
12
12
12
12
12
12
12
12
12
12
12
12
12
12
12
12
12
12
12
12
12
12
12
12
12
12
12
12
12
12
12
12
12
12
12
12
12
12
12
12
12
12
12
12
12
12
12
12
12
12
12
12
12
12
12
12
12
12
12
12
12
12
12
12
12
12
12
12
12
12
12
12
12
12
12
12
12
12
12
12
12
12
12
12
12
12
12
12
12
12
12
12
12
12
12
12
12
12
12
12
12
12
12
12
12
12
12
12
12
12
12
12
12
12
12
12
12
12
12
12
12
12
12
12
12
12
12
12
12
12
12
12
12
12
12
12
12
12
12
12
12
12
12
12
12
12
12
12
12
12
12
12
12
12
12
12
12
12
12
12
12
12
12
12
12
12
12
12
12
12
12
12
12
12
12
12
12
12
12
12
12
12
12
12
12
12
12
12
12
12
12
12
12
12
12
12
12
12
12
12
12
12
12
12
12
12
12
12
12
12
12
12
12
12
12
12
12
12
12
12
12
12
12
12
12
12
12
12
12
12
12
12
12
12
12
12
12
12
12
12
12
12
12
12
12
12
12
12
12
12
12
12
12
12
12
12
12
12
12
12
12
12
12
12
12
12
12
12
12
12
12
12
12
12
12
12
12
12
12
12
12
12
12
12
12
12
12
12
12
12
12
12
12
12
12
12
12
12
12
12
12
12
12
12
12
12
12
12
12
12
12
12
12
12
12
12
12
12
12
12
12
12
12
12
12
12
12
12
12
12
12
12
12
12
12
12
12
12
12
12
12
12
12
12
12
12
12
12
12
12
12
12
12
12
12
12
12
12
12
12
12
12
12
12
12
12
12
12
12
12
12
12
12
12
12
12
12
12
12
12
12
12
12
12
12
12
12
12
12
12
12
12
12
12
12
12
12
12
12
12
12
12
12
12
12
12
12
12
12
12
12
12
12
12
12
12
12
12
12
12
12
12
12
12
12
12
12
12
12
12
12
12
12
12
12
12
12
12
12
12
12
12
12
12
12
12
12
12
12
12
12
12
12
12
12
12
12
12
12
12
12
12
12
12
12
12
12
12
12
12
12
12
12
12
12
12
12
12
12
12
12
12
12
12
12
12
12
12
12
12
12
12
12
12
12
12
12
12
12
12
12
12
12
12
12
12
12
12
12
12
12
12
12
12
12
12
12
12
12
12
12
12
12
12
12
12
12
12
12
12
12
12
12
12
12
12
12
12
12
12
12
12
12
12
12
12
12
12
12
12
12
12
12
12
12
12
12
12
12
12
12
12
12
12
12
12
12
12
12
12
12
12
12
12
12
12
12
12
12
12
12
12
12
12
12
12
12
12
12
12
12
12
12
12
12
12
12
12
12
12
12
12
12
12
12
12
12
12
12
12
12
12
12
12
12
12
12
12
12
12
12
12
12
12
12
12
12
12
12
12
12
12
12
12
12
12
12
12
12
12
12
12
12
12
12
12
12
12
12
12
12
12
12
12
12
12
12
12
12
12
12
12
12
12
12
12
12
12
12
12
12
12
12
12
12
12
12
12
12
12
12
12
12
12
12
12
12
12
12
12
12
12
12
12
12
12
12
12
12
12
12
12
12
12
12
12
12
12
12
12
12
12
12
12
12
12
12
12
12
12
12
12
12
12
12
12
12
12
12
12
12
12
12
12
12
12
12
12
12
12
12
12
12
12
12
12
12
12
12
12
12
12
12
12
12
12
12
12
12
12
12
12
12
12
12
12
12
12
12
12
12
12
12
12
12
12
12
12
12
12
12
12
12
12
12
12
12
12
12
12
12
12
12
12
12
12
12
12
12
12
12
12
12
12
12
12
12
12
12
12
12
12
12
12
12
12
12
12
12
12
12
12
12
12
12
12
12
12
12
12
12
12
12
12
12
12
12
12
12
12
12
12
12
12
12
12
12
12
12
12
12
12
12
12
12
12
12
12
12
12
12
12
12
12
12
12
12
12
12
12
12
12
12
12
12
12
12
12
12
12
12
12
12
12
12
12
12
12
12
12
12
12
12
12
12
12
12
12
12
12
12
12
12
12
12
12
12
12
12
12
12
12
12
12
12
12
12
12
12
12
12
12
12
12
12
12
12
12
12
12
12
12
12
12
12
12
12
12
12
12
12
12
12
12
12
12
12
12
12
12
12
12
12
12
12
12
12
12
12
12
12
12
12
12
12
12
12
12
12
12
12
12
12
12
12
12
12
12
12
12
12
12
12
12
12
12
12
12
12
12
12
12
12
12
12
12
12
12
12
12
12
12
12
12
12
12
12
12
12
12
12
12
12
12
12
12
12
12
12
12
12
12
12
12
12
12
12
12
12
12
12
12
12
12
12
12
12
12
12
12
12
12
12
12
12
12
12
12
12
12
12
12
12
12
12
12
12
12
12
12
12
12
12
12
12
12
12
12
12
12
12
12
12
12
12
12
12
12
12
12
12
12
12
12
12
12
12
12
12
12
12
12
12
12
12
12
12
12
12
12
12
12
12
12
12
12
12
12
12
12
12
12
12
12
12
12
12
12
12
12
12
12
12
12
12
12
12
12
12
12
12
12
12
12
12
12
12
12
12
12
12
12
12
12
12
12
12
12
12
12
12
12
12
12
12
12
12
12
12
12
12
12
12
12
12
12
12
12
12
12
12
12
12
12
12
12
12
12
12
12
12
12
12
12

POINT_DATA 3012
SCALARS Jp_lamdaP float 4
LOOKUP_TABLE default
0.999997 1 1 0.999997
1 1 1 1
0.999998 1 1 0.999998
0.99998 1 1 0.99998
0.999993 1 1 0.999993
1 1 1 1
0.999853 1 1 0.999853
1 1 1 1
1 1 1 1
1 1 1 1
1 1 1 1
0.999949 1 1 0.999949
0.999959 1 1 0.999959
0.999981 1 1 0.999981
0.999998 1 1 0.999998
0.999982 1 1 0.999982
1 1 1 1
0.999995 1 1 0.999995
0.999855 1 1 0.999855
1 1 1 1
0.999976 1 1 0.999976
0.999987 1 1 0.999987
0.999757 1 1 0.999757
0.999824 1 1 0.999824
1 1 1 1
0.999885 1 1 0.999885
0.9996 1 1 0.9996
1 1 1 1
0.999995 1 1 0.999995
1 1 1 1
1 1 1 1
0.999954 1 1 0.999954
0.999987 1 1 0.999987
0.999998 1 1 0.999998
0.999879 1 1 0.999879
1 1 1 1
0.999932 1 1 0.999932
0.999969 1 1 0.999969
0.999658 1 1 0.999658
1 1 1 1
1 1 1 1
0.999989 1 1 0.999989
1 1 1 1
0.999974 1 1 0.999974
0.999742 1 1 0.999742
1 1 1 1
0.999825 1 1 0.999825
0.999985 1 1 0.999985
0.999996 1 1 0.999996
1 1 1 1
0.999857 1 1 0.999857
0.999981 1 1 0.999981
0.999979 1 1 0.999979
1 1 1 1
0.99999 1 1 0.99999
0.999759 1 1 0.999759
0.999886 1 1 0.999886
0.999827 1 1 0.999827
0.999591 1 1 0.999591
1 1 1 1
0.99997 1 1 0.99997
0.999781 1 1 0.999781
0.999742 1 1 0.999742
0.999791 1 1 0.999791
0.999375 1 1 0.999375
0.999502 1 1 0.999502
1 1 1 1
0.999925 1 1 0.999925
0.99967 1 1 0.99967
0.999298 1 1 0.999298
1 1 1 1
1 1 1 1
1 1 1 1
0.999959 1 1 0.999959
1 1 1 1
1 1 1 1
0.99988 1 1 0.99988
1 1 1 1
0.999937 1 1 0.999937
0.999976 1 1 0.999976
0.999657 1 1 0.999657
1 1 1 1
1 1 1 1
0.999846 1 1 0.999846
0.999905 1 1 0.999905
0.999454 1 1 0.999454
0.99999 1 1 0.99999
0.999624 1 1 0.999624
0.999693 1 1 0.999693
0.999447 1 1 0.999447
1 1 1 1
1 1 1 1
1 1 1 1
1 1 1 1
1 1 1 1
0.999984 1 1 0.999984
0.999762 1 1 0.999762
0.999992 1 1 0.999992
0.999824 1 1 0.999824
1 1 1 1
0.999712 1 1 0.999712
0.999802 1 1 0.999802
0.999189 1 1 0.999189
0.999842 1 1 0.999842
0.999274 1 1 0.999274
0.999966 1 1 0.999966
0.999981 1 1 0.999981
1 1 1 1
0.999991 1 1 0.999991
0.999761 1 1 0.999761
0.999829 1 1 0.999829
0.999888 1 1 0.999888
0.999581 1 1 0.999581
1 1 1 1
0.999974 1 1 0.999974
0.999729 1 1 0.999729
0.999742 1 1 0.999742
1 1 1 1
0.999944 1 1 0.999944
0.999793 1 1 0.999793
0.999357 1 1 0.999357
0.99966 1 1 0.99966
0.999515 1 1 0.999515
0.999299 1 1 0.999299
0.999727 1 1 0.999727
0.999733 1 1 0.999733
0.999247 1 1 0.999247
0.999313 1 1 0.999313
0.999415 1 1 0.999415
0.999081 1 1 0.999081
1 1 1 1
0.999239 1 1 0.999239
0.999987 1 1 0.999987
0.999693 1 1 0.999693
0.999357 1 1 0.999357
0.999174 1 1 0.999174
1 1 1 1
0.999813 1 1 0.999813
1 1 1 1
1 1 1 1
0.999886 1 1 0.999886
1 1 1 1
0.999983 1 1 0.999983
0.999941 1 1 0.999941
0.999655 1 1 0.999655
1 1 1 1
1 1 1 1
0.999855 1 1 0.999855
0.999913 1 1 0.999913
0.999456 1 1 0.999456
0.999994 1 1 0.999994
0.999625 1 1 0.999625
0.999692 1 1 0.999692
0.99944 1 1 0.99944
0.999999 1 1 0.999999
1 1 1 1
0.999838 1 1 0.999838
0.999371 1 1 0.999371
0.999552 1 1 0.999552
0.999201 1 1 0.999201
0.99974 1 1 0.99974
0.999407 1 1 0.999407
0.999468 1 1 0.999468
0.999356 1 1 0.999356
1 1 1 1
1 1 1 1
1 1 1 1
1 1 1 1
1 1 1 1
1 1 1 1
1 1 1 1
0.99982 1 1 0.99982
0.999755 1 1 0.999755
1 1 1 1
1 1 1 1
0.999714 1 1 0.999714
0.9998 1 1 0.9998
0.999189 1 1 0.999189
0.999835 1 1 0.999835
0.999274 1 1 0.999274
0.999703 1 1 0.999703
0.999137 1 1 0.999137
0.999238 1 1 0.999238
0.998942 1 1 0.998942
0.999313 1 1 0.999313
0.999035 1 1 0.999035
1 1 1 1
0.999977 1 1 0.999977
0.999676 1 1 0.999676
0.999743 1 1 0.999743
1 1 1 1
0.999963 1 1 0.999963
0.999796 1 1 0.999796
0.999339 1 1 0.999339
0.999527 1 1 0.999527
0.999649 1 1 0.999649
0.999301 1 1 0.999301
0.999724 1 1 0.999724
0.999733 1 1 0.999733
0.99921 1 1 0.99921
0.999326 1 1 0.999326
1 1 1 1
0.999983 1 1 0.999983
0.999709 1 1 0.999709
0.999417 1 1 0.999417
0.999059 1 1 0.999059
0.999354 1 1 0.999354
0.999248 1 1 0.999248
0.999176 1 1 0.999176
0.999999 1 1 0.999999
0.999813 1 1 0.999813
0.999148 1 1 0.999148
0.999294 1 1 0.999294
0.998988 1 1 0.998988
0.999001 1 1 0.999001
0.999171 1 1 0.999171
0.998974 1 1 0.998974
0.999997 1 1 0.999997
0.999118 1 1 0.999118
0.999722 1 1 0.999722
0.999434 1 1 0.999434
0.999232 1 1 0.999232
0.999133 1 1 0.999133
0.999763 1 1 0.999763
0.999875 1 1 0.999875
0.999551 1 1 0.999551
0.999856 1 1 0.999856
1 1 1 1
1 1 1 1
0.999919 1 1 0.999919
0.999458 1 1 0.999458
0.999997 1 1 0.999997
0.999692 1 1 0.999692
0.999626 1 1 0.999626
0.999433 1 1 0.999433
1 1 1 1
1 1 1 1
0.999838 1 1 0.999838
0.999372 1 1 0.999372
0.999555 1 1 0.999555
0.999201 1 1 0.999201
0.999741 1 1 0.999741
0.999415 1 1 0.999415
0.999467 1 1 0.999467
0.999347 1 1 0.999347
1 1 1 1
0.999786 1 1 0.999786
0.999893 1 1 0.999893
0.999593 1 1 0.999593
0.999119 1 1 0.999119
0.999322 1 1 0.999322
0.999074 1 1 0.999074
0.999516 1 1 0.999516
0.999317 1 1 0.999317
0.999327 1 1 0.999327
0.999279 1 1 0.999279
0.999977 1 1 0.999977
1 1 1 1
1 1 1 1
1 1 1 1
1 1 1 1
1 1 1 1
1 1 1 1
1 1 1 1
1 1 1 1
0.999837 1 1 0.999837
0.999794 1 1 0.999794
0.999274 1 1 0.999274
0.999189 1 1 0.999189
0.999716 1 1 0.999716
1 1 1 1
0.999702 1 1 0.999702
0.999137 1 1 0.999137
0.999238 1 1 0.999238
0.998942 1 1 0.998942
0.999314 1 1 0.999314
0.999035 1 1 0.999035
0.999124 1 1 0.999124
0.998889 1 1 0.998889
0.998994 1 1 0.998994
0.998967 1.0001 1 0.998872
0.999073 1 1 0.999073
0.998954 1 1 0.998954
0.999721 1 1 0.999721
0.999734 1 1 0.999734
0.999173 1 1 0.999173
0.99934 1 1 0.99934
1 1 1 1
0.999978 1 1 0.999978
0.999724 1 1 0.999724
0.999419 1 1 0.999419
0.999037 1 1 0.999037
0.999258 1 1 0.999258
0.999351 1 1 0.999351
0.999178 1 1 0.999178
0.999999 1 1 0.999999
0.999813 1 1 0.999813
0.999136 1 1 0.999136
0.999293 1 1 0.999293
0.998978 1 1 0.998978
0.999024 1 1 0.999024
0.999995 1 1 0.999995
0.999722 1 1 0.999722
0.99945 1 1 0.99945
0.999171 1 1 0.999171
0.998969 1 1 0.998969
0.999215 1 1 0.999215
0.999118 1 1 0.999118
0.999133 1 1 0.999133
0.999764 1 1 0.999764
0.999548 1 1 0.999548
0.999874 1 1 0.999874
0.998939 1 1 0.998939
0.999011 1 1 0.999011
0.99888 1.00002 1 0.998864
0.998918 1 1 0.998918
0.999048 1 1 0.999048
0.99904 1.00007 1 0.998972
0.999739 1 1 0.999739
0.999091 1 1 0.999091
0.99952 1 1 0.99952
0.999289 1 1 0.999289
0.999126 1 1 0.999126
0.999169 1 1 0.999169
0.999924 1 1 0.999924
0.999545 1 1 0.999545
0.999573 1 1 0.999573
0.999452 1 1 0.999452
0.999372 1 1 0.999372
1 1 1 1
1 1 1 1
0.999838 1 1 0.999838
0.999558 1 1 0.999558
0.999201 1 1 0.999201
0.999741 1 1 0.999741
0.999466 1 1 0.999466
0.999422 1 1 0.999422
0.999338 1 1 0.999338
1 1 1 1
0.999786 1 1 0.999786
0.999895 1 1 0.999895
0.999591 1 1 0.999591
0.999117 1 1 0.999117
0.999324 1 1 0.999324
0.999074 1 1 0.999074
0.999517 1 1 0.999517
0.999326 1 1 0.999326
0.999323 1 1 0.999323
0.999307 1 1 0.999307
1 1 1 1
0.999931 1 1 0.999931
0.999558 1 1 0.999558
0.999641 1 1 0.999641
0.999453 1 1 0.999453
0.999007 1 1 0.999007
0.999207 1 1 0.999207
0.999028 1 1 0.999028
0.999362 1 1 0.999362
0.999261 1 1 0.999261
0.999179 1 1 0.999179
0.999966 1 1 0.999966
0.999796 1 1 0.999796
0.999985 1 1 0.999985
0.999979 1 1 0.999979
1 1 1 1
1 1 1 1
1 1 1 1
1 1 1 1
1 1 1 1
1 1 1 1
1 1 1 1
1 1 1 1
1 1 1 1
1 1 1 1
1 1 1 1
0.999314 1 1 0.999314
0.999238 1 1 0.999238
0.999035 1 1 0.999035
0.998942 1 1 0.998942
0.999138 1 1 0.999138
0.999701 1 1 0.999701
0.999124 1 1 0.999124
0.998889 1 1 0.998889
0.998994 1 1 0.998994
0.998939 1.00007 1 0.998867
0.999072 1 1 0.999072
0.998955 1 1 0.998955
0.998874 1 1 0.998874
0.99975 1.00093 1 0.998819
0.998911 1 1 0.998911
1.00013 1.00127 1 0.998859
0.998984 1 1 0.998984
0.999187 1.00021 1 0.998981
0.999123 1 1 0.999123
0.999293 1 1 0.999293
0.998968 1 1 0.998968
0.999047 1 1 0.999047
0.999992 1 1 0.999992
0.999722 1 1 0.999722
0.999466 1 1 0.999466
0.99917 1 1 0.99917
0.998963 1 1 0.998963
0.999119 1 1 0.999119
0.999198 1 1 0.999198
0.999133 1 1 0.999133
0.999765 1 1 0.999765
0.999545 1 1 0.999545
0.999873 1 1 0.999873
0.99892 1 1 0.99892
0.99901 1 1 0.99901
0.998908 1.00005 1 0.998854
0.998922 1 1 0.998922
0.99974 1 1 0.99974
0.999519 1 1 0.999519
0.999308 1 1 0.999308
0.999056 1 1 0.999056
0.999055 1.00008 1 0.998978
0.999113 1 1 0.999113
0.999091 1 1 0.999091
0.999176 1 1 0.999176
0.999547 1 1 0.999547
0.999441 1 1 0.999441
0.999921 1 1 0.999921
0.999581 1 1 0.999581
0.999036 1.00022 1 0.998814
0.998891 1 1 0.998891
0.999533 1.00072 1 0.998814
0.99891 1.00001 1 0.998902
0.999241 1.0002 1 0.999038
0.999292 1.0003 1 0.998995
0.999545 1 1 0.999545
0.999163 1 1 0.999163
0.999394 1 1 0.999394
0.999169 1 1 0.999169
0.999054 1 1 0.999054
0.999173 1 1 0.999173
0.999948 1 1 0.999948
0.999632 1 1 0.999632
0.999452 1 1 0.999452
0.999451 1 1 0.999451
0.999403 1 1 0.999403
1 1 1 1
0.999116 1 1 0.999116
0.999897 1 1 0.999897
0.999786 1 1 0.999786
0.99959 1 1 0.99959
0.999326 1 1 0.999326
0.999075 1 1 0.999075
0.999518 1 1 0.999518
0.999318 1 1 0.999318
0.999336 1 1 0.999336
0.999334 1 1 0.999334
1 1 1 1
0.999934 1 1 0.999934
0.999558 1 1 0.999558
0.99964 1 1 0.99964
0.999446 1 1 0.999446
0.999005 1 1 0.999005
0.999207 1 1 0.999207
0.999024 1 1 0.999024
0.999364 1 1 0.999364
0.999268 1 1 0.999268
0.999218 1 1.00003 0.999191
0.999952 1 1 0.999952
0.999693 1 1 0.999693
0.999411 1 1 0.999411
0.999487 1 1 0.999487
0.999375 1 1 0.999375
0.99898 1 1 0.998978
0.999153 1 1 0.999153
0.999094 1 1 0.999094
0.999687 1 1.00047 0.999219
0.99911 1 1 0.99911
0.999969 1 1 0.999969
0.999745 1 1 0.999745
0.999783 1 1 0.999783
0.99966 1 1 0.99966
0.999807 1 1 0.999807
0.999989 1 1 0.999989
0.999986 1 1 0.999986
1 1 1 1
0.999982 1 1 0.999982
1 1 1 1
1 1 1 1
1 1 1 1
1 1 1 1
1 1 1 1
1 1 1 1
1 1 1 1
1 1 1 1
1 1 1 1
1 1 1 1
1 1 1 1
0.999071 1 1 0.999071
0.998995 1 1 0.998995
0.998955 1 1 0.998955
0.998911 1.00005 1 0.998862
0.998889 1 1 0.998889
0.999123 1 1 0.999123
0.998874 1 1 0.998874
0.999753 1.00094 1 0.998812
0.998912 1 1 0.998912
1.00001 1.00115 1 0.998858
0.998982 1 1 0.998982
0.999138 1.00016 1 0.99898
0.999516 1.00073 1 0.99879
1.00203 1.00323 1 0.998803
0.999668 1.00076 1 0.998908
1.00131 1.00246 1 0.998853
0.999038 1.00005 1 0.998988
1.00014 1.00113 1 0.999005
0.9989 1 1 0.9989
0.99901 1 1 0.99901
0.998935 1.00009 1 0.998845
0.998926 1 1 0.998926
0.999741 1 1 0.999741
0.999517 1 1 0.999517
0.999326 1 1 0.999326
0.999065 1 1 0.999065
0.999066 1.00008 1 0.998985
0.999091 1 1 0.999091
0.999099 1 1 0.999099
0.999182 1 1 0.999182
0.999549 1 1 0.999549
0.999429 1 1 0.999429
0.999918 1 1 0.999918
0.999589 1 1 0.999589
0.999194 1.00038 1 0.998814
0.998893 1 1 0.998893
0.999349 1.00053 1 0.998817
0.998907 1 1 0.998904
0.999545 1 1 0.999545
0.999408 1 1 0.999408
0.999167 1 1 0.999167
0.99921 1.00018 1 0.999034
0.999331 1.00031 1 0.999024
0.999047 1 1 0.999047
0.999209 1.00005 1 0.999164
0.999194 1 1 0.999194
0.999453 1 1 0.999453
0.9994 1 1 0.9994
0.999448 1 1 0.999448
0.999928 1 1 0.999928
0.999639 1 1 0.999639
1.00091 1.00214 1 0.998779
0.999569 1.00076 1 0.998815
0.99947 1.00055 1 0.99892
0.999405 1.00033 1 0.999079
0.999457 1 1 0.999457
0.999516 1.0003 1 0.999221
0.999305 1 1 0.999305
0.999163 1 1.00015 0.999012
0.99899 1 1 0.99899
0.99993 1 1 0.99993
0.999715 1 1 0.999715
0.999505 1 1 0.999505
0.999422 1 1 0.999422
0.999356 1 1 0.999356
0.999367 1 1 0.999367
1 1 1 1
0.999937 1 1 0.999937
0.999003 1 1 0.999003
0.99964 1 1 0.99964
0.999557 1 1 0.999557
0.99944 1 1 0.99944
0.999208 1 1 0.999208
0.99902 1 1 0.99902
0.999366 1 1 0.999366
0.999203 1 1 0.999203
0.999274 1 1 0.999274
0.999955 1 1 0.999955
0.999693 1 1 0.999693
0.999419 1 1 0.999419
0.999486 1 1 0.999486
0.999364 1 1 0.999364
0.999 1.00002 1 0.998977
0.999149 1 1 0.999149
0.999103 1 1 0.999103
0.999442 1 1.00023 0.999212
0.999087 1 1 0.999087
0.999735 1 1 0.999735
0.99951 1 1 0.99951
0.99968 1 1.00037 0.999307
0.999363 1 1 0.999363
0.999301 1 1 0.999301
0.999968 1.00085 1 0.999122
0.999059 1 1 0.999059
0.999389 1.0003 1 0.999089
1.00035 1 1.00123 0.999126
0.998926 1 1 0.998926
0.999972 1 1 0.999972
0.999755 1 1 0.999755
0.999589 1 1 0.999589
0.99977 1 1 0.99977
0.999807 1 1 0.999807
0.99964 1 1 0.99964
0.999539 1 1 0.999539
0.999636 1 1 0.999636
0.999816 1 1 0.999816
0.999991 1 1 0.999991
0.99999 1 1 0.99999
1 1 1 1
0.999988 1 1 0.999988
1 1 1 1
1 1 1 1
1 1 1 1
1 1 1 1
1 1 1 1
1 1 1 1
1 1 1 1
1 1 1 1
1 1 1 1
1 1 1 1
1 1 1 1
0.99898 1 1 0.99898
0.998912 1 1 0.998912
0.999093 1.00011 1 0.998979
0.999874 1.00102 1 0.998857
0.999756 1.00095 1 0.998805
0.998875 1 1 0.998875
0.999639 1.00085 1 0.998787
1.00191 1.00311 1 0.998804
0.99958 1.00068 1 0.998901
1.00143 1.00259 1 0.998848
0.999038 1.00005 1 0.998988
0.999876 1.00086 1 0.999021
1.00244 1.00367 1 0.998775
1.00321 1.00439 1 0.998824
1.00166 1.00275 1 0.998913
1.00037 1.0013 1 0.999075
0.999343 1.00053 1 0.998815
0.998895 1 1 0.998895
0.999176 1.00036 1 0.998819
0.998905 1 1 0.998905
0.999545 1 1 0.999545
0.999423 1 1 0.999423
0.999166 1 1 0.999166
0.999181 1.00015 1 0.99903
0.99939 1.00034 1 0.999053
0.999273 1.00011 1 0.999165
0.99904 1 1 0.99904
0.999215 1 1 0.999215
0.999453 1 1 0.999453
0.999396 1 1 0.999396
0.999446 1 1 0.999446
0.999909 1 1 0.999909
0.999647 1 1 0.999647
1.00075 1.00197 1 0.998782
0.99973 1.00091 1 0.99882
0.999503 1.00057 1 0.99893
0.999456 1 1 0.999456
0.999323 1 1 0.999323
0.999294 1 1.00029 0.999008
0.99953 1.00046 1 0.99907
0.999021 1 1 0.999021
0.999353 1.00013 1 0.999222
0.99993 1 1 0.99993
0.999421 1 1 0.999421
0.999376 1 1 0.999376
0.999354 1 1 0.999354
0.999512 1 1 0.999512
0.999701 1 1 0.999701
1.00202 1.00324 1 0.998782
1.00113 1.00232 1 0.998813
1.0005 1.00153 1 0.998967
1.00095 1.00181 1 0.999142
0.999405 1 1 0.999405
0.999161 1.0001 1 0.999063
0.999346 1 1.00022 0.99913
0.999671 1 1.00078 0.998893
0.999947 1 1 0.999947
0.999758 1 1 0.999758
0.999561 1 1 0.999561
0.999363 1 1 0.999363
0.999376 1 1 0.999376
0.999314 1 1 0.999314
0.999959 1 1 0.999959
0.999693 1 1 0.999693
0.999023 1.00005 1 0.998975
0.999485 1 1 0.999485
0.999427 1 1 0.999427
0.999354 1 1 0.999354
0.999145 1 1 0.999145
0.999112 1 1 0.999112
0.999313 1 1.00011 0.999206
0.999065 1 1 0.999065
0.999735 1 1 0.999735
0.999516 1 1 0.999516
0.999518 1 1.0002 0.99932
0.999369 1 1 0.999369
0.999305 1 1 0.999305
1 1.00089 1 0.99912
0.999063 1 1 0.999063
0.999328 1.00017 1 0.999156
1.00049 1 1.00138 0.999117
0.998924 1 1.00003 0.998894
0.999558 1 1 0.999558
0.999373 1 1 0.999373
1.00043 1 1.00122 0.999219
0.999252 1 1 0.999252
1.00358 1.00448 1 0.999105
1.0017 1.00265 0.999872 0.999175
0.999103 1.00021 1 0.998898
1.00158 1 1.00268 0.998902
0.999765 1 1 0.999765
0.999598 1 1 0.999598
0.999493 1 1 0.999493
0.999807 1 1 0.999807
0.999621 1 1 0.999621
0.999816 1 1 0.999816
0.999524 1 1 0.999524
0.999643 1 1 0.999643
0.999442 1 1 0.999442
0.999525 1 1 0.999525
0.999647 1 1 0.999647
0.99982 1 1 0.99982
0.99999 1 1 0.99999
0.999991 1 1 0.999991
1 1 1 1
0.999991 1 1 0.999991
1 1 1 1
1 1 1 1
1 1 1 1
1 1 1 1
1 1 1 1
1 1 1 1
1 1 1 1
1 1 1 1
1 1 1 1
1 1 1 1
1 1 1 1
0.999033 1.00005 1 0.998988
0.999497 1.0006 1 0.998893
0.999632 1.00059 1 0.999038
1.00156 1.00272 1 0.998844
1.00178 1.00298 1 0.998806
0.999771 1.00099 1 0.998784
1.00219 1.00341 1 0.99878
1.00311 1.00429 1 0.998824
1.00167 1.00276 1 0.998919
1.0005 1.00143 1 0.99907
1.00399 1.00519 1 0.9988
1.00432 1.00544 1 0.998884
1.00292 1.00393 1 0.998993
1.00059 1.00181 1 0.998786
0.999891 1.00107 1 0.998825
0.999528 1.00059 1 0.99894
0.999454 1 1 0.999454
0.999341 1 1 0.999341
0.999462 1 1.00046 0.999004
0.999664 1.0006 1 0.99906
0.999223 1 1 0.999223
0.999052 1 1 0.999052
0.99942 1 1 0.99942
0.999385 1 1 0.999385
0.999352 1 1 0.999352
0.999931 1 1 0.999931
0.999518 1 1 0.999518
0.999686 1 1 0.999686
1.00243 1.00365 1 0.998784
1.00085 1.00205 1 0.998811
1.00051 1.00156 1 0.998954
0.999402 1 1 0.999402
0.999316 1 1.00016 0.999161
0.999704 1 1.00081 0.998898
1.0015 1.00234 1 0.99916
0.999135 1.00008 1 0.999059
0.999961 1 1 0.999961
0.999758 1 1 0.999758
0.999375 1 1 0.999375
0.999325 1 1 0.999325
0.999366 1 1 0.999366
0.99955 1 1 0.99955
1.00355 1.00474 1 0.998821
1.00295 1.00411 1 0.998843
1.00394 1.00494 0.999905 0.999093
1.00286 1.00367 1 0.999186
0.99932 1 1 0.99932
1.00022 1 1.0014 0.998825
1.00026 1 1.00125 0.99901
0.99999 1 1 0.99999
0.999841 1 1 0.999841
0.99976 1 1 0.99976
0.999578 1 1 0.999578
0.999415 1 1 0.999415
0.99926 1 1 0.99926
0.999372 1 1 0.999372
0.9997 1 1.00038 0.999316
0.999736 1 1 0.999736
0.999522 1 1 0.999522
0.999989 1.00087 1 0.999119
0.999374 1 1 0.999374
0.999372 1 1.00004 0.999333
0.999309 1 1 0.999309
0.999068 1 1 0.999068
0.999223 1 1 0.999223
1.0006 1 1.00149 0.999108
0.998862 1 1 0.998862
0.999552 1 1 0.999552
0.999382 1 1 0.999382
1.00056 1 1.00133 0.99923
0.999261 1 1 0.999261
1.00351 1.00442 1 0.999096
1.0014 1.00228 0.999949 0.999174
0.999274 1.00035 1 0.998927
1.00113 1 1.00225 0.998888
0.999451 1 1 0.999451
1.00358 1.00456 1 0.999025
0.999281 1 1 0.999281
1.00026 1 1.00115 0.999115
1.00661 1.00774 0.999722 0.999165
1.00186 1.00296 1 0.9989
1.0017 1 1.00291 0.99879
0.999607 1 1 0.999607
0.999493 1 1 0.999493
0.999402 1 1 0.999402
0.999816 1 1 0.999816
0.99965 1 1 0.99965
0.999509 1 1 0.999509
0.99982 1 1 0.99982
0.999646 1 1 0.999646
0.99943 1 1 0.99943
0.99954 1 1 0.99954
0.999369 1 1 0.999369
0.999429 1 1 0.999429
0.999554 1 1 0.999554
0.999665 1 1 0.999665
0.999817 1 1 0.999817
0.999989 1 1 0.999989
0.99999 1 1 0.99999
1 1 1 1
0.999991 1 1 0.999991
1 1 1 1
1 1 1 1
1 1 1 1
1 1 1 1
1 1 1 1
0.999997 1 1 0.999997
1 1 1 1
1 1 1 1
1 1 1 1
1 1 1 1
1 1 1 1
1 1 1 1
1.00063 1.00157 1 0.999065
1.00167 1.00275 1 0.998925
1.00301 1.00419 1 0.998823
1.00194 1.00316 1 0.998785
1.00394 1.00514 1 0.998806
1.00461 1.00574 1 0.998874
1.00321 1.0042 1 0.999007
1.0039 1.00505 1 0.998862
1.00544 1.00652 1 0.998932
1.00307 1.00402 1 0.999054
1.00282 1.00404 1 0.998785
1.00057 1.00176 1 0.998809
1.00056 1.00162 1 0.998942
0.999398 1 1 0.999398
0.999247 1 1.00006 0.999191
0.999635 1 1.00073 0.998903
1.00204 1.00287 1 0.999178
0.999056 1 1 0.999056
0.999375 1 1 0.999375
0.999335 1 1 0.999335
0.99937 1 1 0.99937
0.999976 1 1 0.999976
0.999758 1 1 0.999758
0.999539 1 1 0.999539
1.00315 1.00432 1 0.998828
0.999987 1 1 0.999987
0.999831 1 1 0.999831
1.00293 1.00409 1 0.998842
1.00451 1.00545 1 0.999068
0.999337 1 1 0.999337
1.00065 1 1.00167 0.998984
0.999668 1 1.00084 0.998832
1.00246 1.00328 1 0.999186
0.999788 1 1 0.999788
0.999577 1 1 0.999577
0.999358 1 1 0.999358
0.999557 1 1.0002 0.999357
0.999243 1 1 0.999243
0.999418 1 1 0.999418
1.00428 1.00539 1 0.998894
1.0057 1.00678 1 0.998928
1.00603 1.00718 0.999601 0.99926
0.99947 1.00048 1 0.998986
1.00021 1 1.00093 0.999283
1.00303 1 1.00421 0.99882
0.999843 1 1 0.999843
0.999813 1 1 0.999813
0.999701 1 1 0.999701
0.999582 1 1 0.999582
0.999461 1 1 0.999461
0.999294 1 1 0.999294
0.999469 1 1.0003 0.99917
0.999366 1 1 0.999366
0.999546 1 1 0.999546
0.99939 1 1 0.99939
1.00359 1.0045 1 0.999087
1.00127 1.0021 1 0.999174
0.999271 1 1 0.999271
1.00065 1 1.00141 0.999241
0.999488 1.0005 1.00004 0.998956
1.00076 1 1.00189 0.998873
0.99945 1 1 0.99945
1.00402 1.00498 1 0.999041
0.999282 1 1 0.999282
1.00042 1 1.00132 0.999099
1.00584 1.00696 0.99974 0.999154
1.00225 1.00334 1 0.998909
1.00183 1 1.00303 0.998794
0.999335 1 1 0.999335
1.01437 1.01615 0.999116 0.999136
0.999196 1 1 0.999196
1.00177 1 1.00282 0.998956
1.00245 1.00629 0.997225 0.998958
1.00163 1.00066 1.00221 0.998757
1.00827 1.0101 0.999067 0.999121
0.999493 1 1 0.999493
0.999402 1 1 0.999402
0.999337 1 1 0.999337
0.99982 1 1 0.99982
0.999645 1 1 0.999645
0.999555 1 1 0.999555
0.999418 1 1 0.999418
0.999817 1 1 0.999817
0.999656 1 1 0.999656
0.999365 1 1 0.999365
0.999553 1 1 0.999553
0.999442 1 1 0.999442
0.999352 1 1 0.999352
0.999477 1 1 0.999477
0.999562 1 1 0.999562
0.99964 1 1 0.99964
0.999789 1 1 0.999789
0.999684 1 1 0.999684
0.99979 1 1 0.99979
0.999987 1 1 0.999987
0.999988 1 1 0.999988
1 1 1 1
0.999989 1 1 0.999989
1 1 1 1
1 1 1 1
1 1 1 1
1 1 1 1
1 1 1 1
0.999999 1 1 0.999999
0.999995 1 1 0.999995
1 1 1 1
1 1 1 1
1 1 1 1
1 1 1 1
1 1 1 1
1 1 1 1
1.00348 1.00446 1 0.999021
1.00492 1.00606 1 0.998865
1.0039 1.0051 1 0.998812
1.00425 1.0054 1 0.998862
1.00499 1.00606 1 0.998937
1.00319 1.00413 1 0.999061
1.00473 1.00576 1 0.998974
1.00988 1.01527 0.99554 0.999154
1.01628 1.01782 0.999286 0.999199
0.999879 1 1 0.999879
1.00279 1.00396 1 0.998836
1.00279 1.00395 1 0.998841
1.00491 1.00587 1 0.999042
0.999355 1 1 0.999355
1.00125 1 1.00229 0.998957
0.999289 1 1.00045 0.998839
1.00208 1.0029 1 0.999186
0.999345 1 1 0.999345
0.999399 1 1 0.999399
0.999225 1 1 0.999225
0.999984 1 1 0.999984
0.99942 1 1 0.99942
0.999817 1 1 0.999817
0.999577 1 1 0.999577
0.99982 1 1 0.99982
1.00429 1.0054 1 0.998891
0.999855 1 1 0.999855
0.999812 1 1 0.999812
0.999679 1 1 0.999679
1.00616 1.00724 1 0.998932
1.00466 1.00597 0.999469 0.999228
0.999827 1 1.00054 0.999292
1.00332 1 1.00451 0.99881
0.999727 1.00057 1.00016 0.998991
0.999598 1 1 0.999598
0.999455 1 1 0.999455
0.999427 1 1.00008 0.999343
0.999604 1 1.00041 0.99919
0.999306 1 1 0.999306
1.00736 1.00842 1.00004 0.998903
1.00641 1.01001 0.997374 0.99906
1.00142 1.00262 0.999716 0.999083
1.00166 1.00001 1.00277 0.998879
1.00285 1 1.00367 0.999188
0.999681 1 1 0.999681
0.999625 1 1 0.999625
0.999563 1 1 0.999563
0.999472 1 1 0.999472
0.999365 1 1 0.999365
0.999222 1 1 0.999221
1.00208 1 1.00295 0.999134
0.999448 1 1 0.999448
0.999284 1 1 0.999284
1.0044 1.00535 1 0.999058
1.00493 1.00608 0.999712 0.999143
1.00251 1.0036 1 0.998918
1.00055 1 1.00147 0.999083
1.00182 1 1.00303 0.998799
0.999347 1 1 0.999347
1.01384 1.01617 0.998563 0.999141
0.9992 1 1 0.9992
1.00177 1 1.00282 0.998961
1.00378 1.00697 0.99784 0.998993
1.00197 1.00053 1.00269 0.998751
1.00984 1.01177 0.999026 0.999059
0.999268 1 1 0.999268
1.00088 1.01108 0.990819 0.999078
0.999878 1 1.00072 0.999162
1.00489 1 1.00601 0.998883
1.00096 1.00105 1.00109 0.998824
0.95869 0.965224 0.998191 0.995031
1.00266 0.998543 1.00618 0.997957
0.989857 1.00908 0.981703 0.999232
0.923478 0.940788 0.984191 0.997368
0.923738 0.958535 0.965757 0.997867
0.999402 1 1 0.999402
0.999342 1 1 0.999342
0.999318 1 1 0.999318
0.999817 1 1 0.999817
0.999647 1 1 0.999647
0.999553 1 1 0.999553
0.999455 1 1 0.999455
0.999362 1 1 0.999362
0.999549 1 1 0.999549
0.999801 1 1 0.999801
0.99965 1 1 0.99965
0.999358 1 1 0.999358
0.999473 1 1 0.999473
0.999485 1 1 0.999485
0.999399 1 1 0.999399
0.999524 1 1 0.999524
0.999633 1 1 0.999633
0.999787 1 1 0.999787
0.999665 1 1 0.999665
0.999567 1 1 0.999567
0.999654 1 1 0.999654
0.999666 1 1 0.999666
0.999811 1 1 0.999811
0.999789 1 1 0.999789
0.999986 1 1 0.999986
0.999987 1 1 0.999987
1 1 1 1
0.999988 1 1 0.999988
1 1 1 1
1 1 1 1
1 1 1 1
1 1 1 1
1 1 1 1
1 1 1 1
0.999999 1 1 0.999999
1 1 1 1
0.999993 1 1 0.999993
1 1 1 1
1 1 1 1
1 1 1 1
1 1 1 1
1 1 1 1
1.00453 1.0056 1 0.998942
1.00454 1.00569 1 0.998861
1.00327 1.00421 1 0.999068
1.01104 1.0152 0.99673 0.999169
1.00452 1.00555 1 0.998972
1.0169 1.01835 0.999426 0.999159
1.01616 1.01726 1.00004 0.998885
0.978438 0.984914 0.995899 0.997515
1.01517 1.01693 0.998993 0.999275
0.999886 1 1 0.999886
0.999879 1 1 0.999879
0.999726 1 1 0.999726
0.999743 1 1 0.999743
1.00435 1.00546 1 0.998889
1.00678 1.00785 1 0.998936
1.00322 1.00455 0.999481 0.999195
0.999302 1 1 0.999302
1.00316 1 1.00437 0.998801
0.999818 1.00069 1.00013 0.998997
0.999496 1 1.00018 0.99932
0.999766 1 1.00056 0.99921
0.999318 1 1 0.999318
0.999812 1 1 0.999812
0.999448 1 1 0.999448
0.999613 1 1 0.999613
0.999868 1 1 0.999868
0.999657 1 1 0.999657
1.00607 1.00712 1.00003 0.998921
0.999704 1 1 0.999704
0.999638 1 1 0.999638
0.99956 1 1 0.99956
1.00773 1.01039 0.998305 0.999069
1.00033 1.00171 0.999541 0.99908
1.00253 1 1.00334 0.999186
1.00141 1.00003 1.00252 0.998867
0.999476 1 1 0.999476
0.999371 1 1 0.999371
1.00112 1 1.00199 0.999134
0.999482 1 1.00028 0.999205
1.01562 1.01673 0.999954 0.998949
1.00382 1.00832 0.996493 0.999038
1.00032 1.00076 1.00073 0.998827
1.00171 1 1.00263 0.999078
0.999521 1 1 0.999521
0.999505 1 1 0.999505
0.999327 1 1 0.999327
1.0025 1 1.00344 0.999065
0.950573 0.96391 0.99121 0.994909
0.999359 1 1 0.999359
0.999204 1 1 0.999204
1.01314 1.01605 0.997985 0.999146
1.00516 1.00758 0.99857 0.999029
1.00244 1.00041 1.0033 0.998746
1.00187 1 1.00291 0.998967
1.01133 1.01325 0.999111 0.998995
0.999276 1 1 0.999276
1.00053 1.01098 0.99059 0.999066
0.999624 1 1.00046 0.999165
1.00472 1 1.00584 0.998887
1.00039 1.00125 1.00031 0.998835
0.956609 0.964978 0.996036 0.995272
0.997178 0.995611 1.00444 0.997146
0.993256 1.00996 0.984173 0.999272
0.930371 0.943506 0.989046 0.996999
0.915316 0.952596 0.963064 0.997717
0.999291 1 1 0.999291
0.930282 0.941899 0.99102 0.996615
0.941873 0.960646 0.98236 0.998064
0.978055 1.00248 0.976532 0.999079
1.00268 1 1.00353 0.99916
1.00894 1 1.00998 0.998973
0.992606 1.00841 0.984993 0.999321
0.968862 0.970779 1.00329 0.994756
1.00297 0.99861 1.00745 0.996945
0.921528 0.946923 0.975852 0.997263
0.957549 0.987397 0.971182 0.998548
0.999346 1 1 0.999346
0.999319 1 1 0.999319
0.999332 1 1 0.999332
0.999812 1 1 0.999812
0.99966 1 1 0.99966
0.999535 1 1 0.999535
0.999469 1 1 0.999469
0.999364 1 1 0.999364
0.999787 1 1 0.999787
0.999487 1 1 0.999487
0.999539 1 1 0.999539
0.999646 1 1 0.999646
0.999388 1 1 0.999388
0.999441 1 1 0.999441
0.999558 1 1.0002 0.999361
0.999539 1 1 0.999539
0.999657 1 1 0.999657
0.999664 1 1 0.999664
0.999553 1 1 0.999553
0.999551 1 1 0.999551
0.999539 1 1 0.999539
0.999483 1 1 0.999483
0.999463 1 1 0.999463
0.99963 1 1 0.99963
0.999654 1 1 0.999654
0.999805 1 1 0.999805
0.999647 1 1 0.999647
0.999801 1 1 0.999801
0.999985 1 1 0.999985
0.999789 1 1 0.999789
0.999986 1 1 0.999986
1 1 1 1
0.999987 1 1 0.999987
1 1 1 1
1 1 1 1
1 1 1 1
1 1 1 1
1 1 1 1
0.999882 1 1 0.999882
1 1 1 1
1 1 1 1
1 1 1 1
0.999998 1 1 0.999998
1 1 1 1
1 1 1 1
1 1 1 1
1 1 1 1
1 1 1 1
1.01256 1.01555 0.997869 0.999183
1.00431 1.00535 1 0.99897
1.01753 1.0189 0.999532 0.99912
0.980286 0.98446 0.997746 0.99801
1.01532 1.01668 0.999361 0.999297
1.01712 1.01834 0.999931 0.998871
1.01935 1.01895 1.00139 0.999006
0.984915 0.986526 1.00039 0.997979
0.958668 0.966811 0.997368 0.994195
0.915144 0.939671 0.977496 0.996319
0.917374 0.950476 0.967266 0.997837
0.99972 1 1 0.99972
0.999886 1 1 0.999886
0.999879 1 1 0.999879
0.999719 1 1 0.999719
0.99962 1 1 0.99962
0.999644 1 1 0.999644
0.999727 1 1 0.999727
0.999734 1 1 0.999734
1.00458 1.00563 1.00003 0.998938
1.00926 1.01107 0.999126 0.999077
0.99961 1.00122 0.999317 0.999078
1.0025 1 1.00332 0.999184
1.00157 1 1.00272 0.998855
1.00022 1 1.00109 0.999135
0.999728 1 1.00054 0.999188
0.999377 1 1 0.999377
0.99965 1 1 0.99965
0.99948 1 1 0.99948
0.999726 1 1 0.999726
0.999556 1 1 0.999556
1.01585 1.01749 0.999465 0.998926
0.999531 1 1 0.999531
0.999505 1 1 0.999505
1.00328 1.0075 0.996775 0.999034
1.00029 1.00101 1.0004 0.998872
1.00262 1 1.00357 0.999047
0.999321 1 1 0.999321
1.00241 1 1.00334 0.999069
1.00812 1.0175 0.991898 0.998876
0.995607 1.00146 0.995218 0.998935
0.999991 1 1.00103 0.99896
1.00513 1 1.00607 0.999062
0.999446 1 1 0.999446
0.999369 1 1 0.999369
0.999726 1 1.00054 0.999182
0.922465 0.942629 0.981549 0.997003
0.957323 0.965798 0.996024 0.995181
0.999284 1 1 0.999284
0.99937 1 1.0002 0.999168
1.00077 1.01124 0.990585 0.999055
0.9997 1.00144 0.999411 0.998846
1.00443 1 1.00555 0.998891
0.958247 0.96609 0.997758 0.994111
0.996957 0.996343 1.00277 0.997855
0.996765 1.01107 0.986527 0.999311
0.924888 0.944259 0.982885 0.996541
0.906149 0.94591 0.960302 0.997566
0.99929 1 1 0.99929
0.92484 0.944893 0.981629 0.997095
0.944354 0.959206 0.986433 0.998057
0.980144 1.00269 0.978426 0.999069
1.00227 1 1.00311 0.999166
1.00813 1 1.00914 0.998992
0.986361 1.00554 0.981595 0.99932
0.970005 0.972172 1.00338 0.994413
0.999809 0.995623 1.00646 0.997764
0.923338 0.946363 0.979146 0.99645
0.955316 0.986448 0.969966 0.998428
0.999294 1 1 0.999294
0.956319 0.960452 0.997187 0.998506
1.00448 1.00596 0.99932 0.999207
0.986639 1 0.987361 0.999268
1.00736 1 1.00803 0.999334
1.00665 1.00165 1.00536 0.999633
0.992971 0.992809 1.00163 0.998533
0.974866 0.972662 1.00774 0.994565
0.940586 0.967741 0.975427 0.996425
0.979273 1.00809 0.972461 0.998921
0.999319 1 1 0.999319
0.999321 1 1 0.999321
0.999783 1 1.00042 0.999362
0.999787 1 1 0.999787
0.999658 1 1 0.999658
0.999553 1 1 0.999553
0.999488 1 1 0.999488
0.999377 1 1 0.999377
0.999657 1 1 0.999657
0.999451 1 1 0.999451
0.999538 1 1 0.999538
0.999605 1 1.00024 0.99936
0.999923 1 1.00055 0.999368
0.999517 1 1.00009 0.99943
0.999543 1 1 0.999543
0.999664 1 1 0.999664
0.999539 1 1 0.999539
0.999551 1 1 0.999551
0.999538 1 1 0.999538
0.999481 1 1 0.999481
0.999507 1 1 0.999507
0.999474 1 1 0.999474
0.999437 1 1 0.999437
0.999362 1 1 0.999362
0.999329 1 1 0.999325
0.999422 1 1 0.999422
0.999462 1 1 0.999462
0.999597 1 1 0.999597
0.99963 1 1 0.99963
0.999792 1 1 0.999792
0.999653 1 1 0.999653
0.999805 1 1 0.999805
0.999983 1 1 0.999983
0.99979 1 1 0.99979
0.999985 1 1 0.999985
1 1 1 1
0.999986 1 1 0.999986
1 1 1 1
1 1 1 1
1 1 1 1
1 1 1 1
1 1 1 1
0.999894 1 1 0.999894
1 1 1 1
0.999882 1 1 0.999882
1 1 1 1
1 1 1 1
0.999999 1 1 0.999999
1 1 1 1
1 1 1 1
1 1 1 1
1 1 1 1
1 1 1 1
0.924846 0.942239 0.984211 0.997287
0.947299 0.960467 0.987931 0.998339
0.983269 0.98512 0.999736 0.998384
1.01533 1.01641 0.999617 0.999318
1.01814 1.01949 0.99982 0.998858
0.984587 0.985026 1.00073 0.998827
1.0185 1.01872 1.00077 0.999014
0.961515 0.968932 0.997201 0.99513
0.924295 0.941044 0.984921 0.99724
0.911431 0.948534 0.963109 0.99769
1.0008 0.999002 1.00261 0.999186
0.968429 0.970797 1.00255 0.995023
0.917837 0.944691 0.974273 0.997229
0.955634 0.984011 0.972873 0.998241
0.999581 1 1 0.999581
0.999729 1 1 0.999729
0.999886 1 1 0.999886
0.999713 1 1 0.999713
0.999632 1 1 0.999632
0.9996 1 1 0.9996
0.999645 1 1 0.999645
0.999666 1 1 0.999666
0.999714 1 1 0.999714
0.999724 1 1 0.999724
1.0161 1.01821 0.999025 0.998903
1.00212 1.00605 0.997063 0.999029
1.00016 1.00111 1.00013 0.998917
1.00325 1 1.00424 0.999016
1.00216 1 1.00309 0.999073
0.999314 1 1 0.999314
0.999505 1 1 0.999505
0.999541 1 1 0.999541
1.00941 1.01773 0.992974 0.998848
0.999441 1 1 0.999441
0.999354 1 1 0.999354
0.996322 1.00122 0.996197 0.998903
1.00033 1 1.00133 0.998999
1.00401 1 1.00498 0.999036
1.00062 1 1.00145 0.999175
1.01006 1.01151 0.999735 0.998833
1.00065 1 1.00148 0.999167
1.0045 1 1.00541 0.999094
0.99943 1 1 0.99943
0.999339 1 1 0.999339
0.999225 1 1 0.999225
0.958112 0.964619 0.994763 0.998484
0.925866 0.942437 0.985926 0.996441
0.954421 0.965907 0.993192 0.994882
0.999289 1 1 0.999289
1.00184 1 1.00267 0.999172
0.982397 1.00284 0.980537 0.999059
1.00751 1 1.0085 0.999011
0.923336 0.945078 0.980529 0.996395
0.96859 0.971348 1.00155 0.995617
1.00093 0.997376 1.00659 0.996994
0.983714 1.00316 0.981276 0.999327
0.926747 0.945251 0.983044 0.997335
0.945001 0.960241 0.986127 0.997974
0.950033 0.983511 0.967646 0.998258
0.999301 1 1.00001 0.999293
0.953628 0.961206 0.993669 0.998436
1.00387 1.00521 0.999453 0.999213
0.989666 1 0.990381 0.999278
1.00746 1 1.00812 0.999337
1.00645 1.00227 1.00493 0.999247
0.994453 0.992996 1.00411 0.997368
0.973287 0.973946 1.00488 0.994471
0.943501 0.970016 0.975108 0.997496
0.972916 1.00193 0.972249 0.998757
0.999723 1 1.00021 0.999514
1.00968 1.01046 0.999791 0.999439
1.01932 1.01857 1.00116 0.99958
1.00748 0.999848 1.00792 0.999715
0.996367 0.991062 1.00607 0.999285
0.977573 0.977448 1.00577 0.994394
0.968735 0.985373 0.985405 0.997676
0.977217 1.0086 0.970128 0.998719
0.99931 1 1 0.99931
0.999733 1 1.00036 0.999378
1.00075 1 1.0013 0.999451
0.999657 1 1 0.999657
0.999538 1 1 0.999538
0.999462 1 1 0.999462
0.999641 1 1.00028 0.99936
0.999543 1 1 0.999543
0.999461 1 1.00003 0.99943
1.00031 1 1.00093 0.999374
1.00031 1 1.00086 0.999456
0.999588 1 1.00021 0.999375
0.999463 1 1 0.999463
0.999551 1 1 0.999551
0.999537 1 1 0.999537
0.999478 1 1 0.999478
0.999476 1 1 0.999476
0.999506 1 1 0.999506
0.999441 1 1 0.999441
0.999404 1 1 0.999404
0.999414 1 1 0.999414
0.999335 1 1 0.999335
0.999367 1 1 0.999367
0.999319 1 1 0.999316
0.999232 1 1 0.999232
0.999432 1 1 0.999432
0.999364 1 1 0.999362
0.999437 1 1 0.999437
0.999541 1 1 0.999541
0.999462 1 1 0.999462
0.999597 1 1 0.999597
0.999769 1 1 0.999769
0.999629 1 1 0.999629
0.999791 1 1 0.999791
0.99998 1 1 0.99998
0.999804 1 1 0.999804
0.999982 1 1 0.999982
1 1 1 1
0.999984 1 1 0.999984
1 1 1 1
1 1 1 1
1 1 1 1
1 1 1 1
1 1 1 1
0.999843 1 1 0.999843
0.999999 1 1 0.999999
0.999871 1 1 0.999871
1 1 1 1
1 1 1 1
0.999882 1 1 0.999882
1 1 1 1
1 1 1 1
1 1 1 1
1 1 1 1
1 1 1 1
1 1 1 1
0.958749 0.962895 0.997034 0.998656
0.924769 0.941904 0.98497 0.99679
1.00257 1.00617 0.997252 0.999167
0.943235 0.958246 0.986063 0.998248
0.980735 0.983685 0.999194 0.997806
1.01749 1.01851 0.999979 0.99902
0.962391 0.968694 0.9974 0.996084
0.9219 0.942878 0.981292 0.996392
0.90523 0.946568 0.958685 0.997542
0.99813 0.999396 0.999944 0.998789
0.96871 0.969854 1.00411 0.994728
0.920629 0.948344 0.974308 0.996374
0.954578 0.983688 0.972144 0.998213
0.997898 1.00027 0.99873 0.998892
0.970418 0.970662 1.00527 0.994507
0.946181 0.971501 0.976444 0.997433
0.978175 1.00733 0.972235 0.99879
0.999498 1 1 0.999498
0.999595 1 1 0.999595
0.999738 1 1 0.999738
0.999644 1 1 0.999644
0.999519 1 1 0.999519
0.99961 1 1 0.99961
0.999647 1 1 0.999647
0.999649 1 1 0.999649
0.999679 1 1 0.999679
0.999701 1 1 0.999701
1.01126 1.01857 0.993996 0.998821
0.997277 1.00127 0.99714 0.998871
1.00063 1 1.00159 0.999037
1.00321 1 1.0042 0.99901
1.00161 1 1.00244 0.999169
0.999339 1 1 0.999339
0.999435 1 1 0.999435
0.999431 1 1 0.999431
1.0055 1.00976 0.996921 0.998854
0.999348 1 1 0.999348
0.999314 1 1.00009 0.999223
0.998997 1 0.999872 0.999124
1.00405 1 1.00496 0.999094
0.997125 1.00711 0.99095 0.999131
1.01339 1 1.01405 0.999348
0.999966 1 1.00078 0.999186
0.99936 1 1 0.99936
0.99923 1 1 0.99923
1.01372 1.01444 0.999768 0.999531
0.959225 0.963858 0.996585 0.998604
0.925658 0.943345 0.983947 0.997259
0.999329 1 1.00004 0.999291
1.00722 1 1.00788 0.99934
0.991107 1 0.991814 0.999287
0.958536 0.962504 0.997252 0.998621
0.972807 0.971777 1.00673 0.994373
0.996856 0.994358 1.00424 0.998283
1.00143 1.00195 1.00065 0.998837
0.941412 0.9671 0.976929 0.996427
1.00273 1.00394 0.99958 0.999218
0.969156 0.998561 0.971735 0.998784
0.999727 1 1.0002 0.999528
1.00814 1.00867 0.999932 0.999535
1.0212 1.02011 1.00148 0.999587
1.00713 0.999772 1.00776 0.999598
0.99596 0.992746 1.0043 0.998941
0.982175 0.97972 1.00827 0.994281
0.980017 1.01272 0.968799 0.998869
0.955606 0.978168 0.979733 0.997143
1.00024 0.999909 1.00062 0.999711
1.02289 1.02283 1.00019 0.999866
1.02714 1.02545 1.00201 0.999639
0.979772 1.00739 0.973761 0.998792
1.0033 0.991744 1.01189 0.999761
0.979414 0.978788 1.00591 0.994757
0.949946 0.968095 0.983677 0.997536
0.999662 1 1.00027 0.999394
1.00051 1 1.00109 0.999415
1.00312 1 1.00355 0.999566
0.999543 1 1 0.999543
0.99943 1 1 0.99943
1.00076 1 1.00138 0.99938
0.999466 1 1 0.999466
0.999699 1 1.00033 0.999374
1.00069 1 1.00126 0.999429
0.999853 1 1.00035 0.999499
0.999388 1 1 0.999388
0.999478 1 1 0.999478
0.999506 1 1 0.999506
0.999446 1 1 0.999446
0.999413 1 1 0.999413
0.999409 1 1 0.999409
0.999385 1 1 0.999385
0.999359 1 1 0.999359
1.00096 1 1.00179 0.999173
0.999372 1 1 0.999372
0.999353 1 1.00004 0.999311
0.999249 1 1.00013 0.999121
0.999233 1 1 0.999233
0.999397 1 1 0.999397
0.999289 1 1.00005 0.999235
0.999524 1 1 0.999524
0.999421 1 1 0.999421
0.999398 1 1 0.999398
0.999452 1 1 0.999452
0.999555 1 1 0.999555
0.999736 1 1 0.999736
0.999596 1 1 0.999596
0.999768 1 1 0.999768
0.999973 1 1 0.999973
0.99979 1 1 0.99979
0.999978 1 1 0.999978
1 1 1 1
0.999981 1 1 0.999981
1 1 1 1
1 1 1 1
1 1 1 1
1 1 1 1
1 1 1 1
0.999775 1 1 0.999775
0.999967 1 1 0.999967
0.999842 1 1 0.999842
1 1 1 1
0.999987 1 1 0.999987
0.999849 1 1 0.999849
1 1 1 1
1 1 1 1
1 1 1 1
1 1 1 1
1 1 1 1
1 1 1 1
1.00998 1.01084 0.999662 0.999486
0.952666 0.962342 0.991525 0.998408
0.927563 0.94198 0.988132 0.996521
0.9996 1 1 0.9996
1.01962 1.01851 1.00143 0.999665
1.00377 1.00623 0.998378 0.999173
0.93689 0.957511 0.980356 0.99807
0.996269 0.999885 0.998025 0.998355
0.970614 0.971418 1.00424 0.99495
0.924874 0.952044 0.974134 0.997256
0.950333 0.981699 0.969891 0.998101
1.00063 1.00335 0.99949 0.9978
0.968996 0.970172 1.00415 0.994664
0.947437 0.971282 0.978356 0.997029
0.97676 1.00636 0.971898 0.998655
0.994049 0.994369 1.0024 0.997288
0.975506 0.972449 1.00965 0.993555
0.95624 0.980145 0.97882 0.996722
0.97785 1.00969 0.969722 0.998707
0.99942 1 1 0.99942
0.99949 1 1 0.99949
0.999608 1 1 0.999608
0.999505 1 1 0.999505
0.999536 1 1 0.999536
0.999619 1 1 0.999619
0.999654 1 1 0.999654
0.999693 1 1 0.999693
1.00102 1.00784 0.994349 0.998874
0.997371 1 0.998288 0.999082
0.999432 1 1 0.999432
1.00347 1 1.00438 0.999094
0.999388 1 1.00017 0.999221
0.999357 1 1 0.999357
0.999362 1 1 0.999362
1.00153 1.00771 0.994728 0.999138
0.999243 1 1 0.999243
1.00078 1 1.0016 0.999181
1.01057 1 1.01124 0.999337
0.999368 1 1 0.999368
0.993149 1.00036 0.993242 0.999543
1.01308 1 1.01363 0.999454
0.999263 1 1 0.999263
0.999301 1 1 0.999301
1.02373 1.02451 0.99935 0.999886
1.01327 1.01402 0.999723 0.999537
0.960257 0.962873 0.998555 0.998726
0.999808 1 1.00027 0.999543
1.00765 0.999579 1.0086 0.999483
1.00675 1.00713 0.999995 0.999632
0.978356 0.975666 1.00834 0.994459
0.999149 0.993639 1.00772 0.99784
0.957124 0.979442 0.980466 0.996683
1.02303 1.0216 1.00181 0.999594
0.98395 1.01759 0.967887 0.999019
1.00018 0.999655 1.00085 0.999678
1.02343 1.02369 0.999873 0.999869
1.02667 1.02522 1.00169 0.999712
1.00587 0.994165 1.01185 0.999931
0.977578 1.00619 0.972874 0.998652
0.979283 0.978924 1.00552 0.994879
0.953938 0.975176 0.981567 0.996592
1.00517 0.996711 1.00872 0.999771
1.02541 1.02482 1.00068 0.999899
1.01957 1.01906 1.00083 0.999666
0.956761 0.984324 0.973697 0.998256
0.955044 0.979934 0.977826 0.996702
0.9975 0.990363 1.00716 1.00004
0.978362 0.973059 1.01105 0.994461
1.00027 1 1.00089 0.999379
1.00223 1 1.00268 0.99955
1.01099 0.99881 1.01262 0.999582
0.999468 1 1 0.999468
0.999738 1 1.00037 0.999372
1.00094 1 1.00154 0.999403
0.999387 1 1 0.999387
0.999931 1 1.00043 0.999498
1.00302 1 1.00362 0.99941
0.999413 1 1 0.999413
0.999414 1 1 0.999414
0.999549 1 1.00018 0.99937
1.00397 1 1.00477 0.999202
0.999384 1 1 0.999384
1.00041 1 1.00121 0.999202
1.00222 1 1.00322 0.999007
0.999703 1 1.00067 0.999038
0.999368 1 1.00006 0.999306
0.999228 1 1.00013 0.999094
0.999298 1 1 0.999298
0.999359 1 1 0.999359
0.999253 1 1 0.999253
0.999505 1 1 0.999505
0.999395 1 1 0.999395
0.999344 1 1.00011 0.999237
0.9997 1 1 0.9997
0.999519 1 1 0.999519
0.99941 1 1 0.99941
0.999568 1 1 0.999568
0.999736 1 1 0.999736
0.999963 1 1 0.999963
0.999767 1 1 0.999767
0.999971 1 1 0.999971
1 1 1 1
0.999976 1 1 0.999976
1 1 1 1
1 1 1 1
1 1 1 1
1 1 1 1
1 1 1 1
0.999744 1 1 0.999744
0.999947 1 1 0.999947
0.999788 1 1 0.999788
1 1 1 1
0.999967 1 1 0.999967
0.99984 1 1 0.99984
1 1 1 1
1 1 1 1
0.999974 1 1 0.999974
1 1 1 1
1 1 1 1
1 1 1 1
1.02393 1.02407 1.00001 0.999858
1.00998 1.01079 0.999705 0.999492
0.953394 0.962093 0.992526 0.99842
0.999606 1 1 0.999606
0.99957 1 1 0.99957
0.999511 1 1 0.999511
1.02771 1.02445 1.00355 0.999634
1.01979 1.01862 1.00148 0.999673
1.00468 1.0063 0.999208 0.999178
1.00692 1.00526 1.00294 0.998718
0.971165 0.970687 1.00595 0.994575
0.94446 0.968924 0.97826 0.996414
0.977278 1.00799 0.970772 0.998726
0.989458 0.990456 1.00072 0.998275
0.972866 0.972272 1.00618 0.994469
0.957383 0.978121 0.98119 0.997563
0.9809 1.0134 0.969036 0.998862
0.983105 0.985824 0.999036 0.998204
0.981295 0.975112 1.01178 0.994625
0.952465 0.969846 0.984535 0.997505
0.978375 1.00648 0.973134 0.99891
0.999402 1 1 0.999402
0.999419 1 1 0.999419
0.999482 1 1 0.999482
0.999504 1 1 0.999504
0.999553 1 1 0.999553
0.999658 1 1 0.999658
1.00552 1.00806 0.998334 0.999144
1.00719 1 1.00787 0.999327
0.999364 1 1 0.999364
1.00149 1 1.00231 0.999176
0.999256 1 1 0.999256
0.999361 1 1 0.999361
0.9993 1 1 0.9993
1.00002 1.00231 0.998175 0.999534
0.999288 1 1 0.999288
1.01193 0.99867 1.0138 0.99948
0.999353 1 1 0.999353
1.01509 0.994997 1.02044 0.999754
0.997217 0.997153 1.00044 0.999629
0.999303 1 1 0.999303
1.02336 1.02394 0.999502 0.999925
1.0237 1.02451 0.999306 0.999896
1.01279 1.01361 0.99965 0.999543
1.00012 0.999558 1.00092 0.999644
1.00034 0.994243 1.00618 0.999953
1.02385 1.02442 0.999574 0.999871
0.98727 0.982616 1.00811 0.99665
0.961088 0.977721 0.985261 0.997693
1.0261 1.02497 1.00132 0.999785
0.978089 1.00789 0.971672 0.998725
1.0044 0.997765 1.00687 0.999788
1.02521 1.02477 1.00052 0.999906
1.01975 1.01916 1.00091 0.999674
0.997888 0.988377 1.01085 0.998784
0.956016 0.984395 0.9729 0.998223
0.955629 0.978166 0.979379 0.99753
0.985704 0.977804 1.01337 0.994779
1.02191 0.99638 1.02574 0.99989
1.02417 1.02442 0.999902 0.999856
1.00422 1.00724 0.997834 0.999165
0.918566 0.950691 0.968294 0.997847
0.94551 0.970311 0.97691 0.997472
0.986117 0.978075 1.01363 0.994664
0.974061 0.983968 0.991496 0.998421
1.0012 1 1.00167 0.999534
1.01259 0.999333 1.01369 0.999586
1.0195 1 1.01998 0.999529
0.999386 1 1 0.999386
1.00005 1 1.00055 0.999497
1.00241 1 1.00298 0.999423
1.01162 1 1.01238 0.999251
0.999674 1 1.00032 0.999356
1.00386 1 1.00469 0.99917
1.00849 1 1.00957 0.99893
0.999896 1 1.00066 0.999232
1.00296 1 1.00397 0.999002
1.00313 1 1.00429 0.998853
0.99953 1 1.00063 0.998899
0.999516 1 1.00031 0.99921
0.999742 1 1.00072 0.999022
0.999278 1 1.00021 0.999068
0.999372 1 1 0.999372
0.999321 1 1 0.999321
0.999448 1 1 0.999448
0.999373 1 1 0.999373
0.999274 1 1 0.999274
0.999659 1 1 0.999659
0.999506 1 1 0.999506
0.999392 1 1 0.999392
0.999945 1 1 0.999945
0.9997 1 1 0.9997
0.999514 1 1 0.999514
0.999735 1 1 0.999735
0.99996 1 1 0.99996
1 1 1 1
0.999969 1 1 0.999969
1 1 1 1
1 1 1 1
1 1 1 1
1 1 1 1
1 1 1 1
0.99974 1 1 0.99974
0.999965 1 1 0.999965
0.999754 1 1 0.999754
1 1 1 1
0.999964 1 1 0.999964
0.999801 1 1 0.999801
1 1 1 1
1 1 1 1
0.999966 1 1 0.999966
1 1 1 1
1 1 1 1
1 1 1 1
1.02639 1.02452 1.00192 0.999896
1.02501 1.02438 1.00075 0.99986
1.01024 1.01069 1.00006 0.999498
0.999555 1 1 0.999555
0.999487 1 1 0.999487
0.999611 1 1 0.999611
0.999567 1 1 0.999567
0.999498 1 1 0.999498
0.999488 1 1 0.999488
0.999435 1 1 0.999435
1.01888 1.01682 1.00245 0.999575
1.02706 1.02434 1.00295 0.999707
1.0202 1.01874 1.00175 0.999681
0.984948 1.01789 0.968592 0.999016
0.989939 0.99186 1.00072 0.997349
0.976516 0.974976 1.00625 0.995355
0.958881 0.974265 0.987624 0.996542
0.982469 0.985916 0.998818 0.997684
0.978701 0.975106 1.00923 0.99451
0.95737 0.977577 0.982629 0.996643
0.973661 1.0019 0.973051 0.998727
0.975739 0.980788 0.996193 0.998655
0.974929 0.976456 1.00405 0.99441
0.973584 0.988639 0.987127 0.997614
0.956789 0.986059 0.971746 0.998528
0.999396 1 1 0.999396
0.9994 1 1 0.9994
0.999418 1 1 0.999418
0.999502 1 1 0.999502
1.00709 1.00418 1.00337 0.999525
1.01159 0.997497 1.01464 0.999505
0.999355 1 1 0.999355
0.999299 1 1 0.999299
0.999313 1 1 0.999313
0.999353 1 1 0.999353
0.999293 1 1 0.999293
1.00919 0.99335 1.01624 0.999704
0.998674 0.998554 1.00044 0.999682
0.999326 1 1 0.999326
1.01318 0.988751 1.02483 0.999884
1.00297 0.999626 1.00395 0.999392
1.0245 1.02488 0.999753 0.999883
1.02206 1.02267 0.999468 0.99993
1.02375 1.02453 0.999332 0.999906
1.00369 0.998778 1.00511 0.999805
0.998749 0.987884 1.011 0.999999
1.02525 1.0249 1.00044 0.999912
0.977772 0.972932 1.01053 0.994505
0.957845 0.973919 0.986925 0.996525
1.02009 1.01927 1.00112 0.999682
0.952685 0.982435 0.971545 0.99812
1.02405 0.995678 1.02863 0.999873
1.02475 1.02461 1.00028 0.999858
1.00545 1.00737 0.998921 0.99917
0.978199 0.986809 0.991589 0.999683
0.912627 0.948766 0.964124 0.997703
0.94522 0.969001 0.978332 0.997062
0.988972 0.978752 1.01554 0.994979
1.00875 0.99306 1.01598 0.999821
1.01106 1.01155 1.00004 0.999482
0.948531 0.96117 0.988478 0.998353
0.919239 0.943994 0.976477 0.997234
0.980024 0.974806 1.01082 0.994591
0.971884 0.983406 0.990483 0.99778
1.01446 1 1.01487 0.99959
1.01987 0.9997 1.02066 0.999524
1.01369 1 1.01428 0.999419
1.00184 1 1.0024 0.999436
1.01209 1 1.01282 0.999278
1.00919 1 1.01024 0.99896
1.00384 1 1.00471 0.999137
1.00872 1 1.00983 0.998903
1.00391 1 1.00517 0.998748
1.00365 1 1.00465 0.998997
1.00287 1 1.00405 0.99883
1.00142 1 1.00266 0.998768
0.998867 1 1 0.998867
0.99921 1 1.00016 0.99905
0.999722 1 1.00085 0.998875
0.99932 1 1 0.99932
0.999356 1 1.00013 0.999224
0.999709 1 1.0007 0.999006
0.999409 1 1 0.999409
0.999367 1 1 0.999367
0.999344 1 1 0.999344
0.999603 1 1 0.999603
0.99946 1 1 0.99946
0.999387 1 1 0.999387
0.999912 1 1 0.999912
0.99966 1 1 0.99966
0.999507 1 1 0.999507
1 1 1 1
0.999942 1 1 0.999942
0.9997 1 1 0.9997
0.999956 1 1 0.999956
1 1 1 1
1 1 1 1
1 1 1 1
1 1 1 1
1 1 1 1
0.999553 1 1 0.999553
0.999713 1 1 0.999713
0.999954 1 1 0.999954
0.99974 1 1 0.99974
1 1 1 1
0.999968 1 1 0.999968
0.999764 1 1 0.999764
1 1 1 1
1 1 1 1
0.999981 1 1 0.999981
1 1 1 1
1 1 1 1
1 1 1 1
1.0235 1.02219 1.00141 0.999864
1.02625 1.02462 1.0017 0.999903
1.02557 1.02467 1.00102 0.999863
0.99956 1 1 0.99956
0.999478 1 1 0.999478
0.999449 1 1 0.999449
0.999474 1 1 0.999474
0.999435 1 1 0.999435
0.999565 1 1 0.999565
0.999485 1 1 0.999485
0.999489 1 1 0.999489
0.999431 1 1 0.999431
0.999435 1 1 0.999435
1.00335 1.00431 0.999853 0.999194
1.02074 1.01835 1.00277 0.999582
1.02614 1.02402 1.00229 0.999779
0.969719 0.998529 0.972356 0.998757
0.96134 0.977946 0.985298 0.997688
0.977068 0.982684 0.997093 0.997184
0.979171 0.978302 1.00631 0.994611
0.976476 0.980505 0.998322 0.997565
0.981232 0.978246 1.00853 0.994565
0.960713 0.981394 0.981753 0.997121
0.955565 0.9853 0.971369 0.998407
0.988727 0.98093 1.01003 0.997937
0.976819 0.978952 1.0031 0.994733
0.942363 0.968208 0.976804 0.99642
0.923135 0.958343 0.965348 0.997839
0.999507 1 1 0.999507
0.999396 1 1 0.999396
0.999398 1 1 0.999398
1.00323 0.991786 1.01189 0.999653
0.999401 0.999256 1.00041 0.999739
0.999353 1 1 0.999353
0.999282 1 1 0.999282
0.999369 1 1.00003 0.999335
1.00337 0.999546 1.00444 0.999388
1.0123 0.989764 1.02288 0.999891
1.00376 1 1.00435 0.999408
1.01021 0.996598 1.01406 0.999611
1.01195 1.01245 1 0.999515
1.02438 1.02478 0.999712 0.999894
1.02074 1.02141 0.999408 0.999936
1.02597 0.994968 1.03131 0.999855
0.977396 0.986166 0.992964 0.998129
1.02499 1.02477 1.00036 0.999861
0.979973 0.97659 1.01001 0.993524
0.943518 0.967833 0.97831 0.99649
1.00634 1.00751 0.999662 0.999176
0.906677 0.947089 0.959673 0.997559
1.00951 0.993796 1.01598 0.999832
1.01113 1.01166 0.999992 0.999487
0.944595 0.958943 0.986752 0.998262
0.970317 0.984071 0.987602 0.998402
0.921785 0.947981 0.975877 0.996402
0.976176 0.974632 1.00759 0.994041
0.989644 0.993396 0.996679 0.999543
0.959296 0.96315 0.997327 0.998669
0.916946 0.939783 0.979285 0.996339
0.973954 0.972192 1.00733 0.994518
0.991727 0.991112 1.00219 0.998439
1.01982 0.99942 1.02091 0.999518
1.01608 1 1.01667 0.999415
0.993988 1 0.994803 0.99918
1.0124 1 1.0131 0.999305
1.0088 1 1.00983 0.998988
1.00186 1.00032 1.00272 0.998823
1.00881 1 1.00994 0.998877
1.00353 1 1.00479 0.998752
0.998852 1 1.00003 0.998818
1.00264 1 1.00384 0.998807
1.00082 1 1.00205 0.998777
0.999235 1.00034 1 0.998893
0.998976 1 1 0.998976
0.998968 1 1 0.998968
0.998874 1 1 0.998874
0.999196 1 1 0.999196
0.999326 1 1.0003 0.999024
0.999946 1 1.0011 0.998852
0.999407 1 1 0.999407
0.999338 1 1 0.999338
0.999238 1 1 0.999238
0.999545 1 1 0.999545
0.999413 1 1 0.999413
0.999361 1 1 0.999361
0.999855 1 1 0.999855
0.999603 1 1 0.999603
0.999472 1 1 0.999472
1 1 1 1
0.999909 1 1 0.999909
0.999661 1 1 0.999661
1 1 1 1
1 1 1 1
0.999939 1 1 0.999939
1 1 1 1
1 1 1 1
1 1 1 1
0.999517 1 1 0.999517
0.999684 1 1 0.999684
0.999547 1 1 0.999547
0.999944 1 1 0.999944
0.999713 1 1 0.999713
1 1 1 1
0.999957 1 1 0.999957
0.999739 1 1 0.999739
1 1 1 1
1 1 1 1
0.999972 1 1 0.999972
1 1 1 1
1 1 1 1
1 1 1 1
1.00975 1.01015 1 0.999604
1.02422 1.0232 1.00114 0.999867
1.02635 1.02481 1.00159 0.99991
0.999449 1 1 0.999449
0.999566 1 1 0.999566
0.999469 1 1 0.999469
0.999483 1 1 0.999483
0.999457 1 1 0.999457
0.999433 1 1 0.999433
0.999402 1 1 0.999402
0.999418 1 1 0.999418
0.99949 1 1 0.99949
0.999427 1 1 0.999427
0.999434 1 1 0.999434
0.999428 1 1 0.999428
0.943739 0.960702 0.984273 0.99804
1.00255 1.00332 1.00004 0.999199
1.02275 1.01998 1.00313 0.999589
0.950877 0.983267 0.968788 0.998215
0.963945 0.983954 0.982892 0.996716
0.974115 0.975975 1.00368 0.994432
0.978043 0.978362 1.00102 0.998658
0.988502 0.97993 1.00973 0.999031
0.915597 0.952307 0.963666 0.997702
0.981078 0.977677 1.00948 0.994059
0.940993 0.967726 0.974908 0.997402
0.987101 0.987506 1.00051 0.999085
0.975269 0.973708 1.00671 0.994932
0.918769 0.944088 0.975906 0.997208
1.00007 1 1.00041 0.999667
0.999508 1 1 0.999508
0.999397 1 1 0.999397
1.01275 0.992255 1.02076 0.999893
1.00444 1 1.00506 0.999384
0.999395 1 1.00005 0.999345
1.00405 1 1.00465 0.999412
1.00936 0.997258 1.01251 0.999626
1.00827 0.999241 1.00939 0.999652
0.958522 0.96435 0.995642 0.998307
1.01284 1.01324 0.999986 0.999615
1.02435 1.02472 0.999735 0.999905
1.01002 0.994308 1.01596 0.999844
0.972316 0.986564 0.986689 0.998854
1.01136 1.01174 1.00013 0.999493
0.978397 0.9761 1.00691 0.995471
0.926122 0.951391 0.976104 0.99727
0.938219 0.958301 0.980922 0.998086
0.988758 0.993759 0.995394 0.999571
0.953107 0.962518 0.99179 0.99842
0.925933 0.940657 0.987041 0.997271
0.990144 0.987824 1.00495 0.997412
0.974658 0.974077 1.00599 0.994635
0.979374 1.00041 0.979499 0.999465
0.925497 0.942531 0.984574 0.997312
0.972001 0.972158 1.00499 0.994873
0.999293 0.998269 1.00378 0.997252
1.01938 1 1.01998 0.999411
0.990525 1 0.991315 0.999203
0.983046 1.00051 0.983424 0.999106
1.00863 1 1.00962 0.999016
1.00184 1.0005 1.00252 0.998825
0.999484 1.00099 0.99949 0.999009
1.00326 1 1.00451 0.998756
0.999243 1.00004 1.00037 0.998831
1.00084 1.00177 1 0.999073
1.00023 1 1.00144 0.998786
0.999062 1.00016 1 0.998899
0.999464 1.00035 1 0.999117
0.999151 1 1 0.999151
0.999013 1 1 0.999013
0.998994 1 1 0.998994
0.9991 1 1 0.9991
0.998985 1 1 0.998985
0.998881 1 1 0.998881
0.999349 1 1 0.999349
0.999196 1 1 0.999196
0.999419 1 1.00042 0.998997
0.999514 1 1 0.999514
0.999406 1 1 0.999406
0.999356 1 1 0.999356
0.999788 1 1 0.999788
0.999547 1 1 0.999547
0.999417 1 1 0.999417
1 1 1 1
0.999854 1 1 0.999854
0.999603 1 1 0.999603
1 1 1 1
1 1 1 1
0.999907 1 1 0.999907
1 1 1 1
1 1 1 1
1 1 1 1
0.999516 1 1 0.999516
0.99952 1 1 0.99952
0.99965 1 1 0.99965
0.99993 1 1 0.99993
0.999684 1 1 0.999684
0.99954 1 1 0.99954
1 1 1 1
0.999946 1 1 0.999946
0.999713 1 1 0.999713
1 1 1 1
1 1 1 1
0.99996 1 1 0.99996
1 1 1 1
1 1 1 1
1 1 1 1
0.958453 0.962482 0.9973 0.99851
1.00897 1.00937 1 0.999612
1.02489 1.02416 1.00084 0.999869
0.999442 1 1 0.999442
0.999443 1 1 0.999443
0.999406 1 1 0.999406
0.999492 1 1 0.999492
0.999465 1 1 0.999465
0.999431 1 1 0.999431
0.999419 1 1 0.999419
0.999403 1 1 0.999403
0.999359 1 1 0.999359
0.999424 1 1 0.999424
0.999432 1 1 0.999432
0.999429 1 1 0.999429
0.924237 0.941672 0.984151 0.997291
0.944473 0.959254 0.986524 0.998042
1.00162 1.00219 1.00023 0.999204
0.90825 0.946475 0.961957 0.997564
0.939898 0.964867 0.977624 0.996419
0.989965 0.983013 1.01141 0.995712
0.99324 0.979641 1.01605 0.997863
0.986732 0.986338 1.00244 0.997966
0.921067 0.944952 0.97824 0.996405
0.978591 0.975876 1.00757 0.995248
0.990193 0.987645 1.00451 0.998082
0.97585 0.974949 1.00618 0.994776
1.0076 1 1.00819 0.99942
0.999924 1 1.00027 0.999657
0.99951 1 1 0.99951
1.00658 0.996092 1.0109 0.999641
1.00435 1 1.00494 0.999416
1.00816 0.99939 1.00918 0.999604
1.00141 1.00067 1.00146 0.999275
0.922317 0.943658 0.980287 0.99704
0.958535 0.962725 0.997129 0.998515
1.01369 1.01406 0.999918 0.999715
0.986799 0.99385 0.9933 0.999603
0.990589 0.987845 1.00447 0.998314
0.953954 0.962399 0.992783 0.998432
0.976341 0.973001 1.00891 0.994569
0.922951 0.942276 0.983022 0.996408
0.982886 1.00094 0.98256 0.999397
0.925547 0.942226 0.985463 0.99679
0.972034 0.971387 1.00604 0.994658
0.998677 0.994105 1.00641 0.998206
1.00247 1.00698 0.996279 0.999238
0.959791 0.967387 0.998015 0.994121
0.996409 0.998428 0.999386 0.998591
0.987074 1 0.987839 0.999226
0.9852 1.00058 0.985525 0.999089
0.987719 1.00159 0.987023 0.999115
1.00153 1.00063 1.00207 0.998827
0.9994 1.00135 0.99905 0.999004
1.00241 1.00474 0.998373 0.999301
0.999654 1.0001 1.00071 0.998844
1.00113 1.00206 1 0.999072
1.00254 1.00325 1 0.999288
0.998908 1 1 0.998905
0.999357 1.00024 1 0.999116
0.999512 1.00025 1 0.999263
0.999238 1 1 0.999238
0.999171 1 1 0.999171
0.999136 1 1 0.999136
0.999089 1 1 0.999089
0.999016 1 1 0.999016
0.999012 1 1 0.999012
0.999232 1 1 0.999232
0.99912 1 1 0.99912
0.999003 1 1 0.999003
0.999475 1 1 0.999475
0.999346 1 1 0.999346
0.999196 1 1 0.999196
0.999735 1 1 0.999735
0.999515 1 1 0.999515
0.999404 1 1 0.999404
1 1 1 1
0.999788 1 1 0.999788
0.999548 1 1 0.999548
1 1 1 1
1 1 1 1
0.999853 1 1 0.999853
1 1 1 1
1 1 1 1
1 1 1 1
0.99949 1 1 0.99949
0.999505 1 1 0.999505
0.999618 1 1 0.999618
0.999522 1 1 0.999522
0.99965 1 1 0.99965
0.999903 1 1 0.999903
1 1 1 1
0.999931 1 1 0.999931
0.999684 1 1 0.999684
1 1 1 1
1 1 1 1
0.999948 1 1 0.999948
1 1 1 1
1 1 1 1
1 1 1 1
0.931884 0.943352 0.991181 0.996633
0.9558 0.962366 0.994815 0.998354
1.00809 1.00847 1 0.99962
0.999435 1 1 0.999435
0.999399 1 1 0.999399
0.999451 1 1 0.999451
0.99943 1 1 0.99943
0.999397 1 1 0.999397
0.999419 1 1 0.999419
0.999403 1 1 0.999403
0.999364 1 1 0.999364
0.999368 1 1 0.999368
0.999358 1 1 0.999358
0.99944 1 1.00026 0.999183
0.999425 1 1 0.999425
0.999431 1 1 0.999431
0.971264 0.97684 1.0003 0.993992
0.93039 0.944002 0.98862 0.996925
0.944624 0.959206 0.986822 0.997949
0.921882 0.944729 0.97848 0.997278
0.977085 0.973508 1.01 0.993741
0.988805 0.986936 1.00277 0.999124
0.992918 0.990705 1.00357 0.998671
0.975276 0.976393 1.00391 0.994964
0.990673 0.998462 0.994196 0.997991
1.00588 1.00132 1.0057 0.998865
1.00606 1 1.00666 0.999407
0.999647 1 1 0.999647
1.0076 1 1.00804 0.999559
1.00046 1.001 1.00017 0.99929
0.951853 0.965531 0.990869 0.994918
0.926386 0.943519 0.98528 0.99651
0.95891 0.961096 0.999 0.998724
0.986634 1.00188 0.985446 0.999326
1.00076 0.995723 1.0078 0.997276
0.928693 0.942354 0.98896 0.996504
0.973613 0.971796 1.00706 0.994846
0.998102 1.00761 0.991327 0.999225
0.962212 0.968838 0.998116 0.995036
0.998391 1.00052 1.00025 0.997619
1.00621 1.00902 0.998269 0.998945
0.997802 0.996229 1.00251 0.999069
0.986382 1.00063 0.986676 0.999072
0.990125 1.00143 0.989613 0.999091
1.00539 1.01173 0.99458 0.999149
0.999483 1.00164 0.998844 0.999
1.00135 1.00355 0.998512 0.999294
1.00601 1.0079 0.998785 0.999342
1.00143 1.00236 1 0.999072
1.00241 1.00314 0.999994 0.999276
1.00171 1.00243 0.999987 0.999291
0.999235 1.00012 1 0.999115
0.999417 1.00016 1 0.999253
0.999478 1.00024 1 0.999242
0.999262 1 1 0.999262
0.999182 1 1 0.999182
0.99919 1 1 0.99919
0.999132 1 1 0.999132
0.999125 1 1 0.999125
0.999169 1 1 0.999169
0.999085 1 1 0.999085
0.999019 1 1 0.999019
0.999404 1 1 0.999404
0.999246 1 1 0.999246
0.99914 1 1 0.99914
0.999696 1 1 0.999696
0.999474 1 1 0.999474
0.999343 1 1 0.999343
0.999995 1 1 0.999995
0.999736 1 1 0.999736
0.999516 1 1 0.999516
1 1 1 1
0.999999 1 1 0.999999
0.999788 1 1 0.999788
1 1 1 1
1 1 1 1
1 1 1 1
0.99945 1 1 0.99945
0.999491 1 1 0.999491
0.999567 1 1 0.999567
0.999494 1 1 0.999494
0.999607 1 1 0.999607
0.999856 1 1 0.999856
0.99965 1 1 0.99965
0.999904 1 1 0.999904
1 1 1 1
1 1 1 1
1 1 1 1
0.999933 1 1 0.999933
1 1 1 1
1 1 1 1
1 1 1 1
0.96576 0.971529 0.99911 0.994948
0.92742 0.946503 0.982626 0.997164
0.958661 0.962527 0.997537 0.998443
0.999391 1 1 0.999391
0.999459 1 1 0.999459
0.999402 1 1 0.999402
0.999431 1 1 0.999431
0.99938 1 1 0.99938
0.999409 1 1 0.999409
0.999369 1 1 0.999369
0.999348 1 1 0.999348
0.99935 1 1 0.99935
0.999318 1 1 0.999318
0.999214 1 1 0.999214
0.998917 1.00001 1.00011 0.998797
0.999257 1 1.00006 0.9992
0.999426 1 1 0.999426
0.988848 0.994079 0.996502 0.99823
0.969873 0.973862 1.00116 0.994749
0.923665 0.944219 0.98177 0.996396
0.974661 0.974469 1.00556 0.994662
0.987998 0.989602 0.999147 0.999231
0.992443 0.997044 0.996445 0.998936
0.997052 1.00479 0.993281 0.999013
1.00298 1.00066 1.00337 0.998945
1.00502 1 1.00563 0.999395
0.998331 1.0011 0.997932 0.999301
0.985014 0.986386 1.00075 0.997862
0.959181 0.967132 0.996577 0.995185
0.924946 0.943893 0.98257 0.99731
0.995718 1.00797 0.988627 0.999212
1.00448 1.00249 1.0036 0.998399
0.963026 0.968658 0.998194 0.995984
1.00095 1.00736 0.994669 0.998965
0.995001 0.996338 0.999985 0.998674
1.00505 1.0168 0.989489 0.998942
1.01265 1.01229 1.00144 0.998911
0.992904 1.00133 0.992509 0.999067
1.00517 1.01138 0.994707 0.999148
1.00899 1.01259 0.997304 0.999135
1.00034 1.0025 0.998561 0.999286
1.00617 1.00785 0.998995 0.999335
1.00402 1.00516 0.999706 0.999158
1.00219 1.00293 1 0.999264
1.00115 1.00187 1 0.999281
0.999889 1.00076 1 0.999126
0.999299 1.00005 1 0.999244
0.999359 1.00011 1 0.999252
0.999133 1 1 0.999133
0.999285 1 1 0.999285
0.999195 1 1 0.999195
0.999125 1 1 0.999125
0.999128 1 1 0.999128
0.999121 1 1 0.999121
0.999169 1 1 0.999169
0.999313 1 1 0.999313
0.999183 1 1 0.999183
0.999081 1 1 0.999081
0.999642 1 1 0.999642
0.999403 1 1 0.999403
0.999259 1 1 0.999259
0.999981 1 1 0.999981
0.999695 1 1 0.999695
0.999472 1 1 0.999472
1 1 1 1
0.999991 1 1 0.999991
0.999737 1 1 0.999737
1 1 1 1
0.999998 1 1 0.999998
1 1 1 1
0.999408 1 1 0.999408
0.999458 1 1 0.999458
0.999532 1 1 0.999532
0.999492 1 1 0.999492
0.999562 1 1 0.999562
0.999798 1 1 0.999798
0.999596 1 1 0.999596
0.999856 1 1 0.999856
1 1 1 1
0.999905 1 1 0.999905
1 1 1 1
1 1 1 1
1 1 1 1
1 1 1 1
1 1 1 1
0.982375 0.986272 0.997831 0.998215
0.958895 0.968332 0.995364 0.994867
0.9257 0.946806 0.981215 0.996427
0.999296 1 1 0.999296
0.999406 1 1 0.999406
0.999432 1 1 0.999432
0.999407 1 1 0.999407
0.999375 1 1 0.999375
0.999443 1 1 0.999443
0.999328 1 1 0.999328
0.999343 1 1 0.999343
0.999337 1 1 0.999337
0.999243 1 1 0.999243
0.998985 1.00004 1 0.998944
1.00327 1.00475 1 0.998521
0.998952 1.00003 1.00013 0.998798
0.999216 1 1 0.999216
1.00032 1.00529 0.995856 0.999189
0.989754 0.995442 0.996484 0.997795
0.971952 0.974914 1.00137 0.995594
0.994291 0.997984 0.998249 0.998047
1.00173 1.00624 0.996513 0.998996
1.00151 1.00018 1.00231 0.999026
1.00344 1.00427 1.00002 0.999158
0.986307 0.985341 1.00235 0.99863
0.95653 0.967303 0.993878 0.994954
0.994605 1.00568 0.989994 0.998984
0.992912 0.996182 0.998481 0.998233
1.00675 1.01706 0.990927 0.998927
1.01067 1.01062 1.00104 0.999003
1.01743 1.0192 0.999375 0.998885
1.0091 1.01031 1 0.998808
1.00505 1.01084 0.995116 0.999147
1.01071 1.01359 0.998008 0.999143
1.00354 1.00454 1 0.999005
1.00655 1.00789 0.999341 0.999328
1.00482 1.00576 0.999903 0.999156
0.999711 1.00074 1 0.998972
1.00069 1.00142 1 0.999271
0.999988 1.00084 1 0.999148
0.99902 1.00002 1 0.999003
0.999262 1 1 0.999262
0.999151 1.00002 1 0.999132
0.999064 1 1 0.999064
0.999207 1 1 0.999207
0.999129 1 1 0.999129
0.999128 1 1 0.999128
0.999118 1 1 0.999118
0.999161 1 1 0.999161
0.999273 1 1 0.999273
0.999577 1 1 0.999577
0.999327 1 1 0.999327
0.999196 1 1 0.999196
0.999958 1 1 0.999958
0.999641 1 1 0.999641
0.999403 1 1 0.999403
1 1 1 1
0.999975 1 1 0.999975
0.999695 1 1 0.999695
1 1 1 1
0.999988 1 1 0.999988
1 1 1 1
0.999331 1 1 0.999331
0.999409 1 1 0.999409
0.999498 1 1 0.999498
0.999465 1 1 0.999465
0.999537 1 1 0.999537
0.999745 1 1 0.999745
0.999558 1 1 0.999558
0.999798 1 1 0.999798
1 1 1 1
0.999857 1 1 0.999857
1 1 1 1
1 1 1 1
1 1 1 1
1 1 1 1
1 1 1 1
1.00394 1.00753 0.997094 0.99934
0.982115 0.987573 0.997084 0.997382
0.963187 0.968957 0.999015 0.995026
0.999336 1 1 0.999336
0.999133 1 1 0.999133
0.999309 1 1 0.999309
0.999405 1 1 0.999405
0.999371 1 1 0.999371
0.999424 1 1 0.999424
0.999905 1.00087 1 0.999036
0.999357 1 1 0.999357
0.99927 1 1 0.99927
0.999279 1.00032 1 0.998961
1.00115 1.00255 1 0.998602
1.00718 1.0089 0.999519 0.998775
1.00228 1.00375 1 0.998535
0.998799 1 1 0.998799
1.00313 1.00783 0.996108 0.999224
0.987789 0.994916 0.995554 0.997269
1.00483 1.00741 0.998454 0.99898
1.00494 1.00575 1 0.999203
1.00337 1.00343 1.00074 0.999198
0.983936 0.98512 1.00114 0.997657
1.00875 1.0177 0.99229 0.998912
1.00814 1.00878 1.00027 0.999095
1.0172 1.01923 0.999097 0.99891
1.01045 1.01162 1 0.998841
1.00589 1.00701 1 0.998895
1.00703 1.00801 1 0.999026
1.01226 1.01467 0.998473 0.999151
1.00346 1.00453 0.999919 0.999011
1.00157 1.0027 1 0.99888
1.00535 1.0062 1 0.999154
0.999729 1.00075 1 0.998984
0.999349 1.00046 1 0.998893
1.00005 1.00088 1 0.999171
0.999025 1.00002 1 0.999001
0.998961 1 1 0.998961
0.999168 1.00004 1 0.999132
0.999063 1 1 0.999063
0.999066 1 1 0.999066
0.999133 1 1 0.999133
0.99913 1 1 0.99913
0.999226 1 1 0.999226
0.999152 1 1 0.999152
0.999268 1 1 0.999268
0.999519 1 1 0.999519
0.99993 1 1 0.99993
0.999577 1 1 0.999577
0.999341 1 1 0.999341
1 1 1 1
0.999951 1 1 0.999951
0.99964 1 1 0.99964
1 1 1 1
0.999969 1 1 0.999969
1 1 1 1
0.999198 1 1 0.999198
0.999317 1 1 0.999317
0.999432 1 1 0.999432
0.999411 1 1 0.999411
0.999499 1 1 0.999499
0.999701 1 1 0.999701
0.999542 1 1 0.999542
0.999745 1 1 0.999745
0.999994 1 1 0.999994
0.999797 1 1 0.999797
1 1 1 1
1 1 1 1
1 1 1 1
1 1 1 1
1 1 1 1
1.00466 1.0062 0.999381 0.999093
1.00304 1.00668 0.997079 0.999296
0.981812 0.986214 0.997478 0.998053
1.00004 1.00096 1 0.999079
0.999406 1 1 0.999406
0.998961 1 1 0.998961
0.999123 1 1 0.999123
0.999322 1 1 0.999322
1.00312 1.00441 1 0.998715
0.999406 1 1 0.999406
0.999861 1.00084 1 0.999023
1.00316 1.00448 1 0.998692
0.999579 1.0006 1 0.998978
1.00181 1.00324 1 0.998576
1.00529 1.00686 0.999671 0.998771
1.00074 1.00219 1 0.998549
1.00528 1.00963 0.996429 0.999258
1.00594 1.0068 1 0.999149
1.00496 1.00577 1 0.999199
1.00369 1.0026 1.00185 0.999237
1.01721 1.01944 0.998877 0.998935
1.01206 1.0132 1 0.998874
1.00654 1.00765 1 0.998894
1.00728 1.00826 1 0.999031
1.0053 1.00634 1 0.998963
1.0035 1.00458 0.999915 0.999016
1.00142 1.00254 1 0.998886
1.00137 1.00251 1 0.998855
0.999787 1.00079 1 0.998995
0.999194 1.0003 1 0.998889
0.998895 1.00002 1 0.998875
0.999036 1.00004 1 0.998999
0.998958 1 1 0.998958
0.998981 1 1 0.998981
0.999062 1 1 0.999062
0.999065 1 1 0.999065
0.999155 1 1 0.999155
0.999131 1 1 0.999131
0.999227 1 1 0.999227
0.999462 1 1 0.999462
0.999264 1 1 0.999264
0.999519 1 1 0.999519
0.999906 1 1 0.999906
0.999997 1 1 0.999997
0.999924 1 1 0.999924
0.999576 1 1 0.999576
1 1 1 1
0.999943 1 1 0.999943
1 1 1 1
0.998994 1 1 0.998994
0.999104 1 1 0.999104
0.999183 1 1 0.999183
0.99936 1 1 0.99936
0.999303 1 1 0.999303
0.999435 1 1 0.999435
0.999661 1 1 0.999661
0.9995 1 1 0.9995
0.999702 1 1 0.999702
0.999977 1 1 0.999977
0.999744 1 1 0.999744
0.999996 1 1 0.999996
1 1 1 1
1 1 1 1
1 1 1 1
1 1 1 1
1.00449 1.00552 1 0.99897
1.00652 1.00783 0.999567 0.999132
1.00309 1.00679 0.997069 0.999252
1.00096 1.00215 1 0.998807
0.999615 1.00048 1 0.999135
0.999474 1 1 0.999474
0.999002 1.00002 1 0.998983
0.999113 1 1 0.999113
1.00713 1.00849 1 0.998652
1.00283 1.00415 1 0.998688
0.999841 1.00083 1 0.99901
1.00381 1.00513 1 0.998685
1.00285 1.00431 1 0.998549
1.00474 1.00619 0.99979 0.998767
1.00771 1.00867 1 0.999049
1.00545 1.00631 1 0.99914
1.005 1.00581 1 0.999195
1.00698 1.00809 1 0.998894
1.00755 1.00852 1 0.999035
1.00578 1.00682 1 0.998968
1.00532 1.00642 1 0.998901
1.00129 1.0024 1 0.998891
1.0009 1.00205 1 0.998852
0.999705 1.00086 1 0.998848
0.999038 1.00015 1 0.998885
0.999035 1.00016 1 0.998874
0.998913 1 1 0.998913
0.998956 1 1 0.998956
0.99898 1 1 0.99898
0.999078 1 1 0.999078
0.999065 1 1 0.999065
0.999154 1 1 0.999154
0.999392 1 1 0.999392
0.999228 1 1 0.999228
0.999461 1 1 0.999461
0.999888 1 1 0.999888
0.999518 1 1 0.999518
0.999901 1 1 0.999901
0.999995 1 1 0.999995
0.999999 1 1 0.999999
0.999918 1 1 0.999918
1 1 1 1
0.999416 1.00058 1 0.998835
0.999086 1 1 0.999086
0.999076 1 1 0.999076
0.999266 1 1 0.999266
0.999102 1 1 0.999102
0.999168 1 1 0.999168
0.999361 1 1 0.999361
0.999608 1 1 0.999608
0.999437 1 1 0.999437
0.999662 1 1 0.999662
0.999954 1 1 0.999954
0.999702 1 1 0.999702
0.999982 1 1 0.999982
1 1 1 1
0.999999 1 1 0.999999
1 1 1 1
1 1 1 1
1.00807 1.00923 1 0.998857
1.00443 1.00546 1 0.998969
1.00754 1.00858 0.999796 0.999171
1.00411 1.00541 1 0.998703
1.00072 1.00192 1 0.998809
0.999211 1.00002 1 0.99919
0.99905 1.00004 1 0.999006
1.00695 1.00831 1 0.998652
1.00257 1.00392 1 0.998661
1.00389 1.00522 1 0.998678
1.00771 1.00877 1 0.998947
1.0077 1.00869 1 0.999023
1.00477 1.00564 1 0.999131
1.00662 1.00776 1 0.998871
1.0062 1.00723 1 0.998973
1.00523 1.00634 1 0.998901
1.00204 1.00317 1 0.998866
1.00044 1.00159 1 0.998849
1.00011 1.00126 1 0.99885
0.998956 1.00008 1 0.998876
0.99917 1.0003 1 0.998873
0.998913 1 1 0.998913
0.999021 1 1 0.999021
0.998979 1 1 0.998979
0.999077 1 1 0.999077
0.999322 1 1 0.999322
0.999154 1 1 0.999154
0.999391 1 1 0.999391
0.999871 1 1 0.999871
0.99946 1 1 0.99946
0.999884 1 1 0.999884
0.999993 1 1 0.999993
0.999897 1 1 0.999897
0.999995 1 1 0.999995
1 1 1 1
1.00014 1.00141 1 0.99874
0.998925 1 1 0.998925
0.999196 1.00033 1 0.998863
0.999202 1 1 0.999202
0.999085 1 1 0.999085
0.999156 1 1 0.999156
0.999518 1 1 0.999518
0.999264 1 1 0.999264
0.9991 1 1 0.9991
0.999362 1 1 0.999362
0.999609 1 1 0.999609
0.999929 1 1 0.999929
0.999662 1 1 0.999662
0.999961 1 1 0.999961
1 1 1 1
0.999988 1 1 0.999988
1 1 1 1
1 1 1 1
1.00643 1.00762 1 0.998823
1.00816 1.00933 1 0.998838
1.00471 1.00575 1 0.998967
1.00413 1.00543 1 0.998702
1.00045 1.00164 1 0.998812
1.00669 1.00805 1 0.998651
1.00686 1.00801 1 0.998867
1.00796 1.00902 1 0.998945
1.00783 1.00884 1 0.998998
1.00657 1.0077 1 0.998874
1.00402 1.00519 1 0.998841
1.00515 1.00625 1 0.998901
1.00231 1.00345 1 0.998864
0.999425 1.00056 1 0.998869
1.00051 1.00166 1 0.998851
0.999066 1.00019 1 0.998878
0.998978 1 1 0.998978
0.998913 1 1 0.998913
0.99902 1 1 0.99902
0.999276 1 1 0.999276
0.999077 1 1 0.999077
0.999321 1 1 0.999321
0.999851 1 1 0.999851
0.999389 1 1 0.999389
0.999866 1 1 0.999866
0.999988 1 1 0.999988
0.99988 1 1 0.99988
0.999994 1 1 0.999994
0.999996 1 1 0.999996
1.00188 1.00307 1 0.998815
0.998826 1.00001 1 0.998816
0.999836 1.0011 1 0.998733
0.999073 1 1 0.999073
0.998936 1 1 0.998936
0.998996 1.0001 1 0.998892
0.999421 1 1 0.999421
0.999176 1 1 0.999176
0.999084 1 1 0.999084
0.999894 1 1 0.999894
0.99952 1 1 0.99952
0.999263 1 1 0.999263
0.99961 1 1 0.99961
0.999936 1 1 0.999936
1 1 1 1
0.999967 1 1 0.999967
1 1 1 1
1 1 1 1
1.00522 1.00642 1 0.998815
1.00652 1.00771 1 0.998818
1.00822 1.00941 1 0.998819
1.0042 1.0055 1 0.998701
1.00462 1.00581 1 0.998815
1.00712 1.00826 1 0.998872
1.0082 1.00927 1 0.998944
1.00649 1.00762 1 0.998877
1.00402 1.00518 1 0.998842
1.00019 1.00133 1 0.998857
1.0026 1.00374 1 0.998863
0.999562 1.00069 1 0.998874
0.998941 1 1 0.998941
0.999178 1.0003 1 0.998879
0.998979 1 1 0.998979
0.999241 1 1 0.999241
0.999019 1 1 0.999019
0.999275 1 1 0.999275
0.999827 1 1 0.999827
0.99932 1 1 0.99932
0.999844 1 1 0.999844
1 1 1 1
0.999861 1 1 0.999861
0.99999 1 1 0.99999
0.999994 1 1 0.999994
1.00195 1.00311 1 0.998836
0.998975 1.00013 1 0.998842
1.00194 1.00313 1 0.998818
0.998948 1 1 0.998948
0.998835 1.00001 1 0.998829
0.999505 1.00078 1 0.998727
0.99929 1 1 0.99929
0.999071 1 1 0.999071
0.998947 1 1 0.998947
0.999856 1 1 0.999856
0.999399 1 1 0.999399
0.999151 1 1 0.999151
1 1 1 1
0.999902 1 1 0.999902
0.999522 1 1 0.999522
0.999943 1 1 0.999943
1 1 1 1
1 1 1 1
1.00364 1.00483 1 0.998816
1.00558 1.00676 1 0.998823
1.00657 1.00776 1 0.998813
1.00082 1.00201 1 0.998812
1.00437 1.00556 1 0.998812
1.00739 1.00852 1 0.998877
1.00403 1.00519 1 0.998843
1.00021 1.00136 1 0.998857
0.998949 1.00001 1 0.998944
0.9997 1.00082 1 0.998879
0.998963 1 1 0.998963
0.999164 1 1 0.999164
0.998979 1 1 0.998979
0.999241 1 1 0.999241
0.999805 1 1 0.999805
0.999274 1 1 0.999274
0.999825 1 1 0.999825
1 1 1 1
0.999835 1 1 0.999835
0.999993 1 1 0.999993
0.999992 1 1 0.999992
1.00078 1.00194 1 0.998844
0.99896 1.00008 1 0.998876
1.00192 1.00309 1 0.998837
0.998956 1 1 0.998956
0.999072 1.00023 1 0.998846
1.00201 1.0032 1 0.998822
0.999214 1 1 0.999214
0.998975 1 1 0.998975
0.998842 1 1 0.998842
0.999828 1 1 0.999828
0.99928 1 1 0.99928
0.99907 1 1 0.99907
1 1 1 1
0.999863 1 1 0.999863
0.999376 1 1 0.999376
1 1 1 1
0.999911 1 1 0.999911
1 1 1 1
1.00063 1.0018 1 0.998827
1.00333 1.00452 1 0.998818
1.00594 1.00712 1 0.998832
0.998904 1 1 0.998904
1.00072 1.00191 1 0.998815
1.00413 1.00533 1 0.998809
1.00024 1.00138 1 0.998857
0.998947 1 1 0.998944
0.999119 1 1 0.999119
0.998985 1 1 0.998985
0.999185 1 1 0.999185
0.999764 1 1 0.999764
0.999241 1 1 0.999241
0.999803 1 1 0.999803
1 1 1 1
0.999824 1 1 0.999824
1 1 1 1
0.999987 1 1 0.999987
0.999114 1.00023 1 0.998881
1.00066 1.00182 1 0.998843
0.998958 1 1 0.998958
0.99902 1.00014 1 0.998876
1.00189 1.00306 1 0.998838
0.999216 1 1 0.999216
0.998954 1 1 0.998954
0.999164 1.00031 1 0.998851
0.999809 1 1 0.999809
0.999228 1 1 0.999228
0.999003 1 1 0.999003
1 1 1 1
0.999833 1 1 0.999833
0.99927 1 1 0.99927
1 1 1 1
0.999871 1 1 0.999871
1 1 1 1
0.998924 1 1 0.998924
1.00047 1.00164 1 0.99883
1.00299 1.00417 1 0.998819
0.999093 1 1 0.999093
0.998904 1 1 0.998904
1.0006 1.00178 1 0.998818
0.998945 1 1 0.998944
0.999124 1 1 0.999124
0.99972 1 1 0.99972
0.999205 1 1 0.999205
0.999761 1 1 0.999761
1 1 1 1
0.999801 1 1 0.999801
1 1 1 1
1 1 1 1
0.998945 1 1 0.998945
0.999078 1.0002 1 0.998875
1.00054 1.0017 1 0.998843
0.999198 1 1 0.999198
0.998957 1 1 0.998957
0.999085 1.00021 1 0.998876
0.999791 1 1 0.999791
0.999215 1 1 0.999215
0.998952 1 1 0.998952
1 1 1 1
0.999812 1 1 0.999812
0.999243 1 1 0.999243
1 1 1 1
0.999837 1 1 0.999837
1 1 1 1
0.999135 1 1 0.999135
0.998903 1 1 0.998903
1.00034 1.00151 1 0.998832
0.999699 1 1 0.999699
0.999095 1 1 0.999095
0.998904 1 1 0.998904
0.999129 1 1 0.999129
0.999719 1 1 0.999719
1 1 1 1
0.999759 1 1 0.999759
1 1 1 1
1 1 1 1
0.999169 1 1 0.999169
0.998936 1 1 0.998936
0.999043 1.00017 1 0.998869
0.999787 1 1 0.999787
0.999197 1 1 0.999197
0.998956 1 1 0.998956
1 1 1 1
0.999791 1 1 0.999791
0.999214 1 1 0.999214
1 1 1 1
0.999815 1 1 0.999815
1 1 1 1
0.999696 1 1 0.999696
0.99912 1 1 0.99912
0.998882 1 1 0.998882
1 1 1 1
0.999698 1 1 0.999698
0.999097 1 1 0.999097
0.999717 1 1 0.999717
1 1 1 1
1 1 1 1
0.999752 1 1 0.999752
0.999169 1 1 0.999169
0.998928 1 1 0.998928
1 1 1 1
0.999767 1 1 0.999767
0.999196 1 1 0.999196
1 1 1 1
0.999792 1 1 0.999792
1 1 1 1
0.999935 1 1 0.999935
0.99972 1 1 0.99972
0.999104 1 1 0.999104
1 1 1 1
0.999698 1 1 0.999698
1 1 1 1
0.999949 1 1 0.999949
0.999745 1 1 0.999745
0.999169 1 1 0.999169
0.999979 1 1 0.999979
0.999765 1 1 0.999765
1 1 1 1
1 1 1 1
0.999705 1 1 0.999705
1 1 1 1
0.999971 1 1 0.999971
0.999732 1 1 0.999732
1 1 1 1
1 1 1 1
1 1 1 1

VECTORS lamdaE float
0.999068 1.00027 0.996491
0.999228 0.999481 0.998568
0.998972 1.0004 0.996567
0.999546 0.999977 0.996149
0.999177 1.00027 0.996375
0.999104 0.999963 0.996658
0.999912 1.00078 0.994269
0.999244 0.999355 0.998611
0.999094 1.00036 0.998479
0.998956 0.999943 0.998635
0.999366 0.998999 0.997169
0.999854 1.00059 0.994285
0.999749 1.00002 0.99575
0.99943 0.999879 0.996214
0.998858 1.00059 0.996643
0.999435 0.999974 0.996247
0.999019 1.00008 0.99673
0.99906 1.00038 0.996468
0.999987 1.00072 0.994263
0.999679 1 0.998123
0.999584 0.999954 0.996105
0.99939 1.00011 0.996241
1.00077 0.999937 0.993648
1.00023 1.0005 0.994012
0.999253 0.999389 0.996946
0.99964 1.00089 0.994597
1.00148 1.0011 0.991193
0.999253 0.999222 0.998661
0.99917 1.00026 0.997377
0.999049 0.999974 0.997636
0.999338 0.998841 0.998746
0.999775 1.00069 0.99429
0.99945 1.00011 0.996163
0.999174 1.00041 0.996466
1.00053 1.00038 0.994264
0.999346 0.998286 0.999008
1.00001 1.00063 0.994842
0.99973 1.00036 0.994704
1.00065 1.00177 0.991674
0.999446 0.997769 0.999153
0.99974 1 0.998072
0.999517 0.999957 0.997204
0.999802 1 0.998022
0.999466 0.999963 0.996106
1.00113 1.00004 0.992363
0.999411 1.00003 0.998398
1.00099 0.999939 0.993865
0.999325 0.999963 0.996344
0.998945 1.00053 0.99655
0.998929 1.00021 0.996814
1.00007 1.00061 0.994257
0.999634 1 0.997042
0.999478 0.999926 0.996211
0.999186 0.999433 0.997015
0.999268 1.00017 0.99634
1.00082 0.999921 0.993609
0.999715 1.00083 0.994597
1.0003 1.00044 0.993999
1.00155 1.00113 0.991106
0.999743 1 0.998068
0.999615 0.999994 0.995986
1.001 1.00001 0.993697
1.00079 0.999908 0.993636
1.00058 1.00016 0.993761
1.0029 0.999827 0.9899
1.00207 1.00052 0.990412
0.999461 0.998668 0.997302
0.999427 1.00071 0.995125
1.00081 1.00163 0.991813
1.00234 1.00121 0.989048
0.99922 1.00021 0.998375
0.99935 0.99867 0.998838
0.999129 0.999737 0.998545
0.999701 1.00078 0.994294
0.999474 1.00013 0.998283
0.999149 1.00022 0.998425
1.00041 1.00039 0.993317
0.999377 0.998362 0.99828
0.999888 1.00074 0.993992
0.999679 1.00034 0.995182
1.00064 1.00175 0.991666
0.999434 0.99804 0.999047
0.999622 0.998951 0.996344
1.00079 1.00005 0.99302
1.00022 1.00061 0.993589
1.0023 1.0005 0.989796
0.999618 0.999838 0.996103
1.00109 1.00136 0.991262
1.00031 1.00204 0.992054
1.00117 1.00203 0.990341
0.99949 0.997465 0.999232
0.999432 0.997718 0.999181
0.999586 0.999986 0.998236
0.9997 1 0.99811
0.999791 1 0.998032
0.999566 0.999992 0.997107
1.00113 1.00003 0.992972
0.99947 0.999983 0.997254
1.00095 0.999954 0.993378
0.999809 0.999998 0.998023
1.00118 0.999983 0.992283
1.00106 1.00002 0.993682
1.00329 0.999813 0.988613
1.00091 0.999931 0.993985
1.00306 0.999824 0.989059
0.99971 1.00001 0.995838
0.999371 0.999874 0.996316
0.999116 0.999442 0.997097
0.999151 1.00023 0.996434
1.00086 0.999918 0.993571
1.00037 1.00036 0.993991
0.999793 1.00074 0.994591
1.00162 1.00118 0.991018
0.999777 1 0.998045
0.9995 0.999973 0.996108
1.00106 1.00001 0.992803
1.00084 0.999882 0.993594
0.999386 0.998666 0.998064
0.999545 1.00063 0.995239
1.00063 1.00013 0.993737
1.00289 0.999818 0.989796
1.0009 1.00168 0.991714
1.0021 1.00058 0.990487
1.00234 1.00121 0.989052
1.00115 1.00001 0.992339
1.00082 0.999968 0.99349
1.00321 0.99983 0.989043
1.00291 0.999731 0.989697
1.00267 1.00005 0.989841
1.00395 0.999488 0.988018
0.999462 0.998171 0.998981
1.00299 1.00053 0.988492
0.999584 1.00025 0.995077
1.00023 1.00193 0.992155
1.00168 1.002 0.989624
1.00292 1.00108 0.988092
0.999664 0.999313 0.995824
1.00008 1.00099 0.99345
0.999408 1.00014 0.998302
0.999087 1.00009 0.99847
1.00039 1.0004 0.993327
0.999395 0.998249 0.999
0.999602 1.00043 0.994824
0.999812 1.00085 0.993985
1.00064 1.00173 0.991657
0.999416 0.997996 0.999084
0.999624 0.998895 0.996372
1.00077 1.00005 0.993565
1.00014 1.00062 0.994106
1.00229 1.0005 0.989811
0.999603 0.999813 0.995493
1.00107 1.00134 0.991276
1.00028 1.00204 0.99205
1.00118 1.00203 0.990281
0.999585 0.999405 0.995939
0.999702 0.998498 0.996661
0.999998 1.00075 0.993822
1.00278 1.00009 0.989302
1.00164 1.00099 0.990568
1.00325 1.0005 0.988043
1.00019 1.00173 0.992559
1.00172 1.00149 0.989824
1.00076 1.00269 0.990625
1.00138 1.0023 0.989786
0.999571 0.997164 0.99928
0.999491 0.997406 0.999249
0.999421 0.997658 0.999207
0.999704 0.998931 0.996161
0.999481 0.997914 0.99908
0.999537 1.00003 0.998265
0.999622 0.999987 0.998187
1.00091 0.999943 0.992863
1.00107 1.00003 0.992449
0.999768 1 0.998048
0.999808 0.999999 0.998019
1.00118 0.999991 0.992288
1.001 1.00003 0.993205
1.00329 0.999813 0.988616
1.00086 0.999901 0.992967
1.00305 0.999833 0.989059
1.0012 0.999972 0.992249
1.00344 0.999776 0.988381
1.00314 0.999829 0.988897
1.00435 0.999461 0.987024
1.00299 0.999864 0.989129
1.00411 0.999475 0.987483
0.999796 0.999999 0.998027
0.999385 0.999941 0.996237
1.00106 0.999997 0.991967
1.00089 0.999881 0.993552
0.99927 0.998622 0.998882
0.999665 1.00057 0.995347
1.00068 1.0001 0.993716
1.00288 0.999802 0.989692
1.00213 1.00065 0.990562
1.00099 1.00174 0.991614
1.00233 1.00122 0.989056
1.00115 0.999997 0.992333
1.00087 0.999957 0.993452
1.0032 0.999818 0.988805
1.00292 0.999768 0.989805
0.999448 0.99823 0.998944
0.999607 1.00019 0.995428
1.00033 1.00195 0.992246
1.00264 1.00011 0.98984
1.00396 0.999407 0.987881
1.0016 1.00199 0.989614
1.00302 1.00057 0.988568
1.00291 1.00108 0.988104
0.999642 0.999392 0.99581
1.00009 1.00096 0.993445
1.00342 0.999782 0.988401
1.00295 0.999823 0.989511
1.00426 0.999577 0.987377
1.004 0.999312 0.98771
1.00364 0.999873 0.988089
1.00452 0.998917 0.987366
0.999624 0.999768 0.995428
1.00367 1.00021 0.987559
1.00012 1.00183 0.992472
1.0008 1.00244 0.990436
1.00225 1.00214 0.988715
1.00338 1.00068 0.987756
1.00013 1.00147 0.992926
1.0001 1.00043 0.993974
1.00029 1.00203 0.992055
1.00071 1.00005 0.993083
0.999399 0.997956 0.999119
0.999623 0.998847 0.9964
1.00002 1.00072 0.993682
1.00229 1.00049 0.989827
0.999592 0.999798 0.995458
1.00026 1.00203 0.992045
1.00104 1.00134 0.991291
1.00119 1.00202 0.990222
0.999595 0.999337 0.995962
0.999693 0.998475 0.99668
0.99999 1.00077 0.993831
1.00278 1.00009 0.989304
1.00162 1.00098 0.990592
1.00325 1.0005 0.988043
1.00015 1.00178 0.992561
1.00176 1.0015 0.989858
1.00074 1.00268 0.990618
1.00135 1.00229 0.989747
0.999784 0.998151 0.996855
1.0001 1.00126 0.993131
0.999986 1.00014 0.994473
1.00017 1.00187 0.99245
1.00379 0.999909 0.987591
1.00244 1.00111 0.988973
1.00382 1.00031 0.987151
1.00049 1.00262 0.991216
1.0021 1.00146 0.989266
1.0008 1.00355 0.989655
1.00155 1.00212 0.989343
1.00017 0.999075 0.995217
0.999925 0.997683 0.997049
0.999666 0.9969 0.999312
0.999583 0.997112 0.999291
0.999496 0.997345 0.999265
0.999771 0.998601 0.996384
0.999508 0.997667 0.999149
0.999701 0.998976 0.996139
0.999488 0.997946 0.99905
1.00087 0.999894 0.992964
1.00097 1.00002 0.992677
1.00305 0.999839 0.989058
1.00329 0.999815 0.98862
1.00118 1 0.992292
0.999813 1 0.998018
1.00121 0.999975 0.992247
1.00344 0.999779 0.988382
1.00313 0.99984 0.988897
1.00436 0.999464 0.98702
1.00299 0.999878 0.989126
1.00411 0.999474 0.987487
1.00347 0.999765 0.988334
1.0045 0.999398 0.986799
1.0042 0.999481 0.987299
1.00482 0.998987 0.986642
1.00403 0.99955 0.98753
1.00463 0.998994 0.986985
1.00116 0.999986 0.992325
1.00093 0.999951 0.993412
1.00318 0.999799 0.988567
1.00292 0.999792 0.989912
0.999437 0.998291 0.998906
0.999644 1.00017 0.995754
1.00044 1.00196 0.992335
1.00261 1.00015 0.989839
1.00396 0.999325 0.987744
1.00305 1.0006 0.988643
1.00151 1.00199 0.989604
1.0029 1.00107 0.988116
0.999627 0.999458 0.995794
1.0001 1.00093 0.993439
1.0034 0.999765 0.988327
1.00297 0.999809 0.989508
1.00427 0.999542 0.987316
1.00401 0.999367 0.987856
0.999622 0.999805 0.995426
1.00016 1.00185 0.992469
1.00081 1.0024 0.990562
1.00366 0.999932 0.988089
1.00453 0.998847 0.987319
1.00218 1.00215 0.988586
1.00366 1.00021 0.987562
1.00331 1.00064 0.987777
1.00014 1.00141 0.992933
1.00028 1.002 0.992066
1.0001 1.00044 0.993963
1.00446 0.999488 0.987087
1.00405 0.999498 0.98768
1.00479 0.999135 0.986688
1.00456 0.998893 0.98722
1.0043 0.99933 0.987184
1.00487 0.998455 0.987153
1.00013 1.0017 0.992654
1.00407 0.999584 0.987354
1.00054 1.00231 0.991317
1.00112 1.00295 0.989366
1.00257 1.00208 0.987959
1.0036 1.00014 0.988036
1.00014 1.00005 0.994298
1.00038 1.00207 0.991851
1.00026 1.00162 0.992474
1.00028 1.0026 0.991563
1.00278 1.0001 0.989306
0.999684 0.998454 0.996698
0.999609 0.999258 0.995983
0.999991 1.00078 0.993841
1.0016 1.00097 0.990617
1.00325 1.0005 0.988042
1.00011 1.00182 0.992564
1.00074 1.00268 0.99061
1.00178 1.00151 0.989892
1.00132 1.00228 0.989708
0.999775 0.998142 0.996863
1.00009 1.0013 0.993132
0.999994 1.00012 0.994488
1.00016 1.00191 0.99244
1.00381 0.999912 0.987578
1.00242 1.00111 0.988988
1.00381 1.00032 0.987149
1.00046 1.00262 0.991231
1.00214 1.00149 0.989312
1.00082 1.00356 0.989611
1.00153 1.00202 0.989608
0.999859 0.997891 0.996972
1.00005 0.999657 0.994862
1.00033 1.00224 0.99185
1.00015 1.00124 0.9931
1.00009 1.00282 0.991678
1.00438 0.999537 0.986846
1.0029 1.00102 0.988184
1.00411 1.00008 0.986857
1.00044 1.00383 0.990133
1.00229 1.00132 0.989026
1.00098 1.00358 0.98872
1.00014 0.999203 0.995152
1.00021 1.00004 0.994202
1.00021 0.998982 0.995251
1.00017 0.999092 0.995212
0.999966 0.997478 0.997547
0.999913 0.997666 0.997275
0.999808 0.996698 0.998457
0.99968 0.996855 0.99932
0.999595 0.99706 0.999301
0.99984 0.998334 0.996527
0.999572 0.997414 0.999192
0.999775 0.998623 0.996368
0.999516 0.997706 0.999129
0.999695 0.999023 0.996116
0.999496 0.997993 0.999018
1.00299 0.999889 0.989122
1.00313 0.999849 0.988897
1.0041 0.999482 0.98749
1.00436 0.999468 0.987016
1.00344 0.999781 0.988383
1.00121 0.999979 0.992247
1.00347 0.999762 0.988333
1.00451 0.9994 0.986799
1.00419 0.999497 0.987299
1.00484 0.998944 0.986631
1.00404 0.999547 0.987522
1.00463 0.998995 0.986988
1.00454 0.999373 0.98676
1.00496 0.998871 0.986456
1.00472 0.999 0.986804
1.00506 0.998489 0.986745
1.00458 0.999064 0.986986
1.00491 0.998464 0.987008
1.00338 0.999749 0.988253
1.00299 0.999794 0.989504
1.00427 0.999516 0.987256
1.00402 0.999424 0.988002
0.999622 0.99984 0.995424
1.00018 1.00187 0.992467
1.00082 1.00236 0.990688
1.00368 0.999992 0.988089
1.00453 0.998775 0.987273
1.00365 1.00021 0.987565
1.00211 1.00216 0.988458
1.00325 1.0006 0.987798
1.00014 1.00136 0.992941
1.00028 1.00197 0.992078
1.0001 1.00045 0.993952
1.00446 0.999463 0.986955
1.00406 0.999484 0.987678
1.00478 0.999073 0.986662
1.00458 0.99892 0.987238
1.00015 1.00166 0.992661
1.00059 1.0023 0.991294
1.00108 1.00295 0.989527
1.00429 0.999406 0.987248
1.00486 0.9984 0.987143
1.00247 1.00215 0.987874
1.00409 0.999581 0.98735
1.00357 1.00001 0.988085
1.00039 1.00208 0.991864
1.00029 1.00262 0.991505
1.00013 1.00006 0.994292
1.00025 1.00155 0.992546
1.00492 0.998989 0.986452
1.0046 0.999113 0.987032
1.00501 0.998654 0.986652
1.0049 0.998297 0.987141
1.00471 0.998705 0.987006
1.00498 0.998111 0.987157
1.00046 1.00209 0.991692
1.00425 0.998809 0.987743
1.00053 1.00295 0.990488
1.00147 1.00344 0.988454
1.00272 1.00199 0.987575
1.00386 0.999747 0.988036
1.00016 0.999831 0.994472
1.00026 1.00115 0.992921
1.0004 1.00252 0.991409
1.00022 1.00232 0.991954
1.00029 1.00279 0.991338
0.999766 0.998134 0.99687
1.00383 0.999915 0.987564
1 1.00009 0.994502
1.00007 1.00136 0.993134
1.00015 1.00195 0.99243
1.00241 1.00112 0.989002
1.00381 1.00033 0.987148
1.00043 1.00261 0.991245
1.00084 1.0036 0.989565
1.00217 1.00151 0.989357
1.00151 1.00192 0.989873
0.999852 0.997884 0.996976
1.00005 0.999645 0.99487
1.00032 1.00224 0.991852
1.00014 1.00126 0.993104
1.00009 1.0029 0.991584
1.0044 0.999551 0.98683
1.00289 1.00102 0.988194
1.00409 1.00009 0.98684
1.00039 1.00383 0.990145
1.00231 1.00135 0.989071
1.00112 1.00356 0.988808
1.00009 0.999387 0.99505
1.00017 1.00066 0.993656
1.00027 1.00336 0.990876
1.00006 1.00232 0.992226
1.00011 1.00352 0.991033
1.00473 0.999069 0.986689
1.00317 1.00078 0.987888
1.00403 0.999481 0.987418
1.00035 1.00481 0.989089
1.00203 1.00247 0.988369
1.00013 0.999216 0.99515
1.00019 1.00013 0.994058
1.00021 1.00005 0.994158
1.00016 1.00073 0.993721
1.00024 1.00002 0.994178
1.00024 0.998934 0.995236
1.00021 0.998987 0.995248
1.00003 0.997317 0.997586
1.00016 0.999106 0.995207
0.999974 0.997469 0.997552
0.999901 0.996472 0.998498
0.999903 0.997654 0.997497
0.999785 0.996655 0.998902
0.999693 0.996811 0.999328
0.999902 0.998107 0.996639
0.999844 0.998347 0.996518
0.999653 0.997175 0.999224
0.99957 0.997459 0.99918
0.999778 0.998646 0.996352
0.999523 0.997736 0.999108
1.00406 0.999542 0.987514
1.00419 0.999504 0.987298
1.00462 0.998993 0.98699
1.00486 0.9989 0.986621
1.00451 0.999402 0.986798
1.00347 0.99976 0.988331
1.00454 0.999373 0.98676
1.00496 0.99888 0.986436
1.00472 0.999012 0.986798
1.00505 0.998422 0.986788
1.00459 0.999057 0.986978
1.00489 0.998401 0.987031
1.00498 0.998901 0.986393
1.00511 0.998505 0.986598
1.00499 0.998306 0.98693
1.00512 0.998084 0.987033
1.00492 0.998471 0.986967
1.00494 0.998006 0.987319
1.00448 0.999436 0.986824
1.00407 0.999474 0.987676
1.00477 0.999007 0.986637
1.0046 0.998945 0.987255
1.00018 1.00162 0.992669
1.00064 1.00229 0.991272
1.00103 1.00295 0.989687
1.00428 0.999485 0.987313
1.00484 0.998342 0.987134
1.00412 0.999577 0.987346
1.00238 1.00221 0.987789
1.00352 0.999874 0.988135
1.00038 1.00209 0.991878
1.0003 1.00265 0.991447
1.00013 1.00007 0.994287
1.00025 1.00148 0.992619
1.00492 0.998993 0.986454
1.00462 0.999135 0.987001
1.005 0.998605 0.986672
1.00486 0.998355 0.987151
1.00048 1.00211 0.991684
1.00053 1.00288 0.990619
1.00143 1.00354 0.988434
1.00473 0.998757 0.987009
1.00501 0.998054 0.987137
1.00271 1.00205 0.987523
1.00427 0.998815 0.987738
1.00371 0.999515 0.988259
1.00042 1.00251 0.991413
1.0003 1.0028 0.991325
1.00021 1.00233 0.99195
1.00016 0.999825 0.9944
1.00026 1.00111 0.992966
1.00511 0.998483 0.986583
1.00499 0.998432 0.986858
1.005 0.997774 0.987437
1.00491 0.998062 0.987199
1.00046 1.00255 0.991242
1.00456 0.998179 0.987948
1.00039 1.00355 0.989868
1.00179 1.00395 0.987361
1.00323 1.00149 0.987229
1.00018 0.999654 0.994467
1.00026 1.00086 0.993359
1.0002 1.00186 0.992465
1.00038 1.00263 0.991328
1.0002 1.00285 0.991513
1.00038 1.00271 0.991225
0.999845 0.997878 0.99698
1.00005 0.999634 0.994879
1.00441 0.999564 0.986813
1.00014 1.00128 0.993108
1.00029 1.00223 0.991854
1.00008 1.00297 0.99149
1.00288 1.00102 0.988204
1.00407 1.00011 0.986823
1.00035 1.00381 0.990157
1.00126 1.00354 0.988896
1.00232 1.00138 0.989117
1.00009 0.999393 0.995051
1.00017 1.00064 0.993666
1.00025 1.00333 0.990914
1.00006 1.00231 0.992226
1.00009 1.00355 0.990961
1.00471 0.999098 0.98668
1.00318 1.00077 0.987871
1.00406 0.999336 0.98755
1.00032 1.00486 0.989073
1.00204 1.00266 0.988184
1.00017 1.00033 0.993997
1.00009 1.00167 0.992718
1.00023 1.00415 0.990108
1.00003 1.00324 0.991267
1.00023 1.00376 0.990542
1.00491 0.99768 0.987621
1.00333 1.00095 0.987655
1.00424 0.998272 0.987785
1.00088 1.00476 0.988751
1.00184 1.00313 0.987337
1.00013 0.99923 0.995148
1.00019 1.00013 0.994106
1.00015 1.00089 0.993414
1.00021 1.00006 0.994114
1.00024 1.00002 0.994178
1.00015 1.00073 0.993652
1.00008 1.00128 0.993308
1.00014 1.00069 0.993646
1.00027 0.99999 0.994157
1.00025 0.998956 0.995183
1.00024 0.998933 0.995237
1.00007 0.997231 0.997578
1.0002 0.998991 0.995245
1.00003 0.997319 0.997587
0.999967 0.996316 0.998524
0.999981 0.997458 0.997559
0.999892 0.996449 0.9985
0.999759 0.996605 0.999352
0.999959 0.997898 0.996746
0.999907 0.998115 0.996633
0.999732 0.996954 0.999252
0.999847 0.998361 0.99651
0.999644 0.997217 0.999214
0.999569 0.997498 0.999167
1.0046 0.999051 0.986971
1.00472 0.999027 0.986792
1.00488 0.99834 0.987054
1.00505 0.998354 0.98683
1.00497 0.998889 0.986416
1.00454 0.999373 0.986761
1.00498 0.998932 0.986379
1.00511 0.998533 0.986575
1.005 0.998354 0.986875
1.00512 0.998007 0.987055
1.00488 0.998481 0.986976
1.005 0.997891 0.987321
1.00511 0.998561 0.986532
1.00512 0.998094 0.986958
1.00512 0.997698 0.987332
1.00497 0.997665 0.987602
1.00491 0.998997 0.986456
1.00463 0.999155 0.986971
1.005 0.998557 0.986693
1.00482 0.998414 0.987162
1.00051 1.00212 0.991677
1.00054 1.00282 0.99075
1.00139 1.00365 0.988415
1.00475 0.998811 0.987012
1.00504 0.998007 0.987117
1.0043 0.998821 0.987733
1.0027 1.0021 0.987471
1.00358 0.999311 0.98848
1.00045 1.0025 0.991417
1.00032 1.0028 0.991311
1.00019 1.00234 0.991946
1.00016 0.999822 0.994327
1.00026 1.00107 0.993012
1.00511 0.998491 0.986595
1.00498 0.998432 0.986901
1.00502 0.997858 0.987372
1.0005 1.00255 0.991227
1.00052 1.0035 0.990011
1.00174 1.00405 0.987331
1.00493 0.998085 0.987228
1.0032 1.00131 0.987402
1.00444 0.998226 0.98801
1.00018 0.999631 0.99449
1.00041 1.00263 0.991322
1.00036 1.00271 0.991263
1.0002 1.00288 0.991471
1.0002 1.00185 0.992493
1.00026 1.00085 0.993296
1.00513 0.998207 0.986787
1.00511 0.997647 0.987435
1.00509 0.997453 0.987518
1.00508 0.997391 0.98765
1.00043 1.00288 0.990974
1.00423 0.999071 0.987502
1.00072 1.00461 0.988448
1.00222 1.00397 0.986719
1.00019 0.999472 0.994646
1.00025 1.00067 0.993568
1.00021 1.0016 0.992758
1.00015 1.0025 0.991895
1.00045 1.00279 0.991111
1.00038 1.00275 0.99121
1.00009 0.999398 0.995053
1.00018 1.00062 0.993676
1.00468 0.999127 0.986671
1.00006 1.00231 0.992226
1.00022 1.00331 0.990953
1.00006 1.00361 0.99089
1.0032 1.00077 0.987854
1.0041 0.999189 0.987682
1.00029 1.00483 0.989057
1.00205 1.0029 0.987999
1.00017 1.0003 0.994002
1.00011 1.00165 0.992752
1.00018 1.00421 0.99018
1.00001 1.0033 0.991268
1.00016 1.00376 0.990593
1.0049 0.997764 0.987691
1.00339 1.00082 0.987623
1.00417 0.998096 0.988318
1.00075 1.0047 0.988725
1.00202 1.00342 0.987033
1.00013 1.0011 0.993226
1.00003 1.0026 0.991857
1.0003 1.00435 0.989823
1.00003 1.00395 0.990329
1.00517 0.996474 0.988483
1.00505 0.996788 0.98835
1.00352 1.00089 0.987047
1.00101 1.00457 0.98757
1.0002 1.00012 0.994153
1.00015 1.0009 0.993448
1.00007 1.00155 0.993019
1.00024 1.00002 0.994178
1.00014 1.00072 0.993584
1.00028 0.999978 0.994158
1.00007 1.00129 0.993253
1.00015 1.00067 0.993666
1.00002 1.00171 0.992925
1.00009 1.00115 0.993294
1.00016 1.00064 0.993646
1.00029 1 0.994109
1.00025 0.999022 0.995116
1.00025 0.998958 0.995182
1.00011 0.997213 0.997539
1.00024 0.998929 0.995237
1.00008 0.997248 0.997572
1.00002 0.996241 0.998508
1.00004 0.997321 0.997588
0.99996 0.996293 0.998527
0.999883 0.996428 0.998499
1.00001 0.99769 0.996859
0.999963 0.997903 0.99674
0.999806 0.996743 0.99928
0.999912 0.998122 0.996627
0.999723 0.996992 0.999243
0.999637 0.997261 0.999204
1.00485 0.998489 0.986985
1.00501 0.998401 0.986821
1.00506 0.997774 0.987323
1.00513 0.997932 0.987077
1.00511 0.99856 0.986551
1.00497 0.998965 0.986365
1.00511 0.99856 0.986545
1.00512 0.998109 0.986942
1.00512 0.997716 0.987312
1.00503 0.99762 0.987584
1.00513 0.99822 0.986831
1.00513 0.997573 0.987508
1.00514 0.997222 0.98776
1.0051 0.998497 0.986607
1.00498 0.99843 0.986945
1.00503 0.997936 0.987306
1.00054 1.00255 0.991212
1.00065 1.00343 0.990155
1.00168 1.00416 0.987301
1.00495 0.998104 0.987258
1.00431 0.998254 0.988073
1.00317 1.00113 0.987575
1.00043 1.00263 0.991316
1.00032 1.0027 0.991301
1.0002 1.00291 0.991429
1.00018 0.999606 0.994513
1.0002 1.00184 0.99252
1.00026 1.00084 0.993233
1.00514 0.998242 0.986786
1.00511 0.99763 0.987461
1.00509 0.997495 0.987518
1.00047 1.00289 0.990935
1.00064 1.00452 0.988748
1.00225 1.0039 0.986721
1.00503 0.997389 0.98776
1.00424 0.999085 0.987445
1.00019 0.999447 0.99474
1.00025 1.00067 0.993568
1.00038 1.00272 0.991131
1.00038 1.00265 0.991348
1.00016 1.00249 0.991858
1.0002 1.00162 0.992714
1.00514 0.997677 0.987349
1.00513 0.996902 0.988069
1.00511 0.996857 0.987964
1.00493 0.997038 0.988221
1.00023 1.00364 0.990361
1.00309 1.00235 0.986534
1.00119 1.00496 0.98783
1.0002 0.999292 0.994952
1.00018 1.00032 0.993979
1.00022 1.00057 0.993565
1.00018 1.0015 0.99285
1.0001 1.00229 0.992197
1.00001 1.0032 0.991361
1.00063 1.00175 0.991606
1.00026 1.00284 0.991991
1.00018 1.00029 0.994007
1.00012 1.00163 0.992786
1.0049 0.997853 0.987761
1.00001 1.00333 0.99127
1.00014 1.00427 0.990252
1.00008 1.00377 0.990644
1.00344 1.00067 0.98759
1.00413 0.997907 0.988846
1.00061 1.00468 0.988699
1.0022 1.00368 0.986727
1.00014 1.00113 0.993183
1.00003 1.00265 0.991859
1.00026 1.00436 0.989859
1.0001 1.00397 0.9904
1.00516 0.996473 0.988518
1.0049 0.996939 0.988314
1.00359 1.00082 0.987251
1.00123 1.00459 0.987403
1.00006 1.00188 0.992681
1.00518 0.996054 0.988724
1.00001 1.00373 0.991087
1.00048 1.00451 0.989268
1.00517 0.995963 0.988944
1.00476 0.997863 0.987642
1.00233 1.00367 0.9868
1.00016 1.00091 0.993482
1.00006 1.00155 0.993012
0.999984 1.00208 0.99263
1.00028 0.999964 0.994158
1.00016 1.00066 0.993685
1.00005 1.0013 0.993198
1.00029 0.999992 0.994107
1.00017 1.00064 0.993649
1.00003 1.00173 0.992876
1.0001 1.00114 0.993345
1.00002 1.00196 0.992631
1.00008 1.00153 0.992936
1.00012 1.00107 0.993403
1.00024 1.0006 0.993609
1.00029 1.00007 0.994037
1.00024 0.999087 0.995063
1.00025 0.999025 0.995116
1.00012 0.997231 0.997491
1.00025 0.998964 0.995182
1.00011 0.997239 0.997532
1.00005 0.996212 0.998481
1.00008 0.997266 0.997567
1.00001 0.996211 0.998513
0.999953 0.99627 0.998528
1.00021 0.999151 0.995071
1.00006 0.997501 0.996959
1.00002 0.997696 0.996854
0.999873 0.996543 0.999309
0.999967 0.997912 0.996735
0.999798 0.99678 0.999271
0.999714 0.99703 0.999234
1.00509 0.997575 0.987566
1.00512 0.997734 0.987293
1.00512 0.998118 0.986926
1.00511 0.998559 0.986559
1.00513 0.9982 0.986868
1.00513 0.99757 0.987481
1.00514 0.997188 0.987753
1.00512 0.99764 0.987405
1.00515 0.997034 0.988069
1.00516 0.995704 0.988889
1.00515 0.998278 0.986785
1.00511 0.997616 0.987487
1.00509 0.997542 0.987518
1.00051 1.00291 0.990896
1.00056 1.00443 0.989047
1.00227 1.00382 0.986723
1.00498 0.997391 0.987869
1.00424 0.999106 0.987388
1.00032 1.00264 0.991151
1.0004 1.00255 0.991483
1.00014 1.00252 0.991821
1.00019 0.99942 0.994833
1.00025 1.00067 0.993567
1.00018 1.00165 0.99267
1.00513 0.99762 0.987439
1.0002 0.999284 0.994951
1.00017 1.00033 0.993937
1.00512 0.996977 0.988047
1.00513 0.99692 0.987884
1.00016 1.00365 0.990556
1.00117 1.00498 0.987657
1.00305 1.00221 0.986552
1.00493 0.997062 0.988226
1.00023 1.00056 0.993695
1.00018 1.00149 0.992845
1.00074 1.00189 0.991333
1.00012 1.0023 0.992392
0.999987 1.00329 0.991272
1.00011 1.00224 0.992218
1.00513 0.996665 0.988374
1.00513 0.996632 0.988439
1.0051 0.996182 0.988581
1.00427 0.998044 0.987991
1.00044 1.00329 0.990598
1.00183 1.00476 0.9869
1.00015 1.00023 0.99401
1.00019 1.00046 0.993806
1.0001 1.0012 0.993384
1.00015 1.00144 0.992829
1.00008 1.00221 0.992415
0.999886 1.00302 0.991599
0.999752 1.00431 0.991012
1.00021 1.00166 0.99251
1.00015 1.00115 0.99314
1.00004 1.00268 0.991861
1.00515 0.99646 0.988554
1.00474 0.997124 0.988279
1.00018 1.00398 0.99047
1.00022 1.00436 0.989894
1.00366 1.00076 0.987457
1.00147 1.00465 0.987237
1.00005 1.0019 0.99266
1.00518 0.996041 0.988742
0.999975 1.00361 0.991124
1.00048 1.00445 0.989205
1.00518 0.99584 0.988852
1.00475 0.997827 0.987757
1.00224 1.00383 0.986897
0.999983 1.00289 0.991877
1.00516 0.99538 0.990101
1.00042 1.00402 0.990382
1.0011 1.00473 0.988402
1.00512 0.996376 0.988525
1.00318 1.00134 0.98721
1.00029 0.99988 0.992441
1.00006 1.00156 0.993006
0.99998 1.00209 0.992623
1.00006 1.00226 0.992302
1.00029 0.999988 0.994105
1.00017 1.00065 0.993652
1.00009 1.00113 0.993397
1.00003 1.00176 0.992826
1.00029 1.00006 0.994033
1.00023 1.00059 0.993594
1.00003 1.00198 0.992603
1.00012 1.00106 0.993397
1.00008 1.00155 0.992979
1.00006 1.00179 0.992736
1.00011 1.00124 0.993203
1.00019 1.00095 0.993384
1.00031 1.00061 0.993449
1.0003 1.00012 0.993891
1.00024 1.00062 0.993645
1.00028 1.00012 0.993919
1.00024 0.999121 0.995044
1.00024 0.999089 0.995064
1.00015 0.997288 0.997005
1.00025 0.999029 0.995117
1.00013 0.997258 0.997265
1.00003 0.996162 0.999349
1.00011 0.997264 0.997526
1.00005 0.996176 0.998486
1.00001 0.996182 0.998517
1.00021 0.999076 0.995153
1.00021 0.999152 0.995067
1.0001 0.997366 0.997025
1.00005 0.997506 0.997182
0.999932 0.996377 0.999331
1.00002 0.997702 0.996848
0.999865 0.996579 0.9993
0.999789 0.996819 0.999262
1.00515 0.997155 0.987746
1.00514 0.997565 0.987454
1.00512 0.998184 0.986905
1.00513 0.997635 0.987393
1.00514 0.997004 0.988036
1.00518 0.995945 0.98877
1.00512 0.996444 0.988509
1.00157 1.00012 0.98849
1.00525 0.995214 0.990024
1.00015 1.00021 0.994159
1.00513 0.997564 0.98753
1.00512 0.997037 0.988024
1.00514 0.997032 0.987804
1.0001 1.00367 0.990752
1.00116 1.005 0.987482
1.00302 1.00209 0.98657
1.00494 0.997109 0.988232
1.00085 1.00205 0.991063
0.999954 1.00173 0.992801
0.99997 1.00335 0.991183
1.00021 0.99928 0.99495
1.00013 1.00218 0.992238
1.00023 1.00055 0.993826
1.00017 1.00149 0.992839
1.00016 1.00034 0.993895
1.00514 0.996584 0.988438
1.00016 1.00022 0.99407
1.0002 1.00047 0.993802
1.0001 1.00119 0.993289
1.00513 0.996497 0.988435
1.00506 0.996361 0.988513
1.00053 1.00293 0.990681
1.00158 1.00469 0.986921
1.00429 0.998361 0.987986
1.00015 1.00145 0.99289
1.00007 1.00218 0.99239
1.00014 1.00205 0.992198
0.999751 1.00404 0.991184
0.999922 1.00306 0.991657
1.00512 0.995954 0.989038
1.00509 0.996961 0.98825
1.005 0.996569 0.988381
1.0027 1.00169 0.98805
1.00035 1.00336 0.990641
1.00012 1.00103 0.99328
1.0001 1.00134 0.993052
1.00011 1.00172 0.992853
1.00004 1.0021 0.992436
1.00001 1.00271 0.991985
0.999778 1.00384 0.991164
0.99969 1.00442 0.99067
1.00004 1.00193 0.992638
0.999933 1.0035 0.991161
1.00519 0.99603 0.98876
1.0052 0.995729 0.988759
1.00474 0.997751 0.987872
1.00046 1.00441 0.989144
1.00215 1.00395 0.986995
0.999957 1.00283 0.991996
1.00516 0.995312 0.990069
1.00023 1.00399 0.990427
1.00084 1.00476 0.988505
1.00511 0.996077 0.988682
1.00314 1.00141 0.98718
1.00026 0.999901 0.991081
1.00007 1.00321 0.991423
1.00487 0.995723 0.990924
1.0001 1.00433 0.990356
1.00118 1.00429 0.988179
1.00369 0.997779 0.988472
1.00155 0.995252 0.961293
0.996146 1.00083 0.979337
0.999263 1.00013 0.993903
0.999209 0.997365 0.947174
0.994907 0.998271 0.942929
0.999979 1.0021 0.992616
1.00002 1.00228 0.992356
1.00005 1.002 0.992628
1.00029 1.00006 0.99403
1.00023 1.00057 0.993579
1.00013 1.00105 0.993392
1.00007 1.00156 0.993022
1.00004 1.00199 0.992575
1.00019 1.00094 0.993352
1.00029 1.00012 0.99394
1.00031 1.00059 0.993474
1.00006 1.0018 0.992735
1.00011 1.00125 0.993204
1.00015 1.00112 0.993197
1.0001 1.00127 0.993191
1.0003 1.00088 0.993226
1.00036 1.00064 0.993304
1.00029 1.00014 0.993882
1.00032 1.00062 0.993459
1.00027 1.00087 0.993345
1.00016 1.00071 0.99362
1.00025 1.00063 0.993591
1.00027 1.00009 0.994052
1.00028 1.00013 0.993912
1.00024 0.999123 0.995049
1.00024 0.99912 0.995043
1.00014 0.997339 0.996985
1.00024 0.99909 0.995065
1.00015 0.997291 0.997004
1.00003 0.996172 0.999342
1.00014 0.997285 0.997039
1.00005 0.996166 0.998905
1.00005 0.99614 0.998489
1.00021 0.999022 0.99521
1.00021 0.999069 0.995152
1.00012 0.997276 0.997072
1.00022 0.999152 0.995063
1.00009 0.997356 0.997248
0.999978 0.996261 0.999345
1.00006 0.997523 0.996944
0.999923 0.99643 0.999322
0.999857 0.996615 0.999291
1.00513 0.996975 0.988002
1.00513 0.997633 0.98738
1.00519 0.996166 0.988652
1.00149 0.999042 0.988624
1.00512 0.996482 0.988533
1.00525 0.995502 0.989876
1.00523 0.996413 0.989026
0.998097 1.00004 0.976002
1.00303 0.996865 0.989266
1.00015 1.00019 0.994176
1.00015 1.0002 0.99416
1.00011 1.00097 0.993464
1.0001 1.00095 0.993516
1.00514 0.996517 0.988501
1.00513 0.996423 0.988433
1.00507 0.996452 0.988444
1.00062 1.00258 0.990763
1.00133 1.0046 0.986942
1.0043 0.998729 0.987982
1.00008 1.00244 0.991878
0.999765 1.00377 0.991357
0.999961 1.00311 0.991715
1.0002 1.00048 0.993798
1.00007 1.00215 0.992365
1.00015 1.00147 0.992951
1.00016 1.00022 0.99413
1.0001 1.00118 0.993194
1.00508 0.996011 0.989055
1.00012 1.00104 0.99338
1.0001 1.00133 0.993091
1.0001 1.0017 0.992799
1.0051 0.99661 0.988314
1.00498 0.99659 0.988346
1.00043 1.00321 0.990622
1.00266 1.00195 0.987965
1.00005 1.00216 0.992429
0.999956 1.00269 0.992049
0.999722 1.00444 0.990671
0.999858 1.00393 0.991061
1.00514 0.996184 0.988822
1.0051 0.996175 0.988487
1.00384 0.999338 0.988123
1.00039 1.00389 0.990112
1.00014 1.00169 0.992672
1.00002 1.00191 0.99268
0.99997 1.00285 0.991846
0.999916 1.00446 0.990252
1.00067 0.994996 0.958662
0.999923 1.00275 0.992114
1.00006 1.00394 0.990472
1.00517 0.995215 0.990035
1.00511 0.995761 0.988839
1.00308 1.00146 0.987148
1.00059 1.0048 0.988607
1.00021 0.99989 0.989703
0.999963 1.00325 0.991505
1.00486 0.995423 0.990829
1.00002 1.00427 0.990399
1.00109 1.00438 0.988161
1.004 0.997849 0.988442
1.00174 0.995598 0.958461
0.996021 1.00056 0.975584
0.999343 1.00011 0.994169
0.998096 0.997886 0.947796
0.994777 0.998245 0.938795
0.999852 1.00312 0.991987
0.99994 0.994938 0.948678
0.99476 0.999793 0.94427
1.00408 0.995587 0.991661
0.999671 1.00488 0.990533
1.00146 1.00208 0.989421
0.998428 1.00032 0.996288
0.998682 0.998412 0.961942
0.994808 1.00065 0.975475
0.997311 0.999953 0.948997
0.994355 0.999927 0.949355
0.999981 1.00231 0.99241
1.00002 1.00204 0.992614
0.999964 1.00148 0.993475
1.00028 1.00012 0.99399
1.00031 1.00058 0.9935
1.00018 1.00094 0.99332
1.00012 1.00126 0.993205
1.00006 1.00182 0.992733
1.00029 1.00015 0.993881
1.00015 1.00114 0.993205
1.00029 1.00089 0.993252
1.00036 1.00063 0.993365
1.0001 1.00127 0.993206
1.00027 1.00098 0.993125
1.00024 1.00058 0.993632
1.00038 1.0008 0.993172
1.00036 1.00063 0.993387
1.00033 1.00062 0.993456
1.00028 1.00085 0.993326
1.00037 1.00078 0.993195
1.00016 1.00102 0.993344
1.00028 1.00089 0.993275
0.999943 1.00178 0.992931
1.0001 1.00086 0.993581
1.00016 1.00073 0.993619
1.00024 1.00009 0.994094
1.00026 1.00064 0.993537
1.00027 1.00009 0.994018
1.00023 0.999114 0.99507
1.00028 1.00015 0.993905
1.00024 0.999118 0.99505
1.0001 0.997366 0.997445
1.00024 0.999119 0.995043
1.00013 0.997332 0.997214
1.00007 0.996199 0.998426
1.00015 0.997297 0.997003
1.00003 0.996178 0.999339
1.00007 0.99617 0.998461
1.00017 1.00016 0.994169
1.00021 0.998984 0.995247
1.00021 0.999018 0.995211
1.00014 0.997209 0.997117
1.00021 0.999063 0.995151
1.00013 0.997266 0.997073
1.00001 0.996175 0.999357
1.00008 0.997365 0.997463
0.99999 0.996299 0.998892
0.999962 0.996463 0.998411
1.00126 0.998131 0.988765
1.00512 0.996536 0.988557
1.00526 0.99581 0.98973
0.997567 0.999268 0.978026
1.00285 0.997326 0.98953
1.00524 0.995834 0.989075
1.0046 0.99653 0.989535
0.99859 0.996993 0.98074
1.0001 0.995801 0.961204
0.997577 0.997776 0.948972
0.994714 0.998367 0.942369
1.00009 1.00099 0.993413
1.00015 1.00019 0.994175
1.00016 1.00019 0.994161
1.00011 1.00099 0.993433
1.00005 1.00147 0.993059
1.00013 1.00133 0.993144
1.00013 1.00092 0.993517
1.0001 1.00096 0.993475
1.00506 0.996029 0.989073
1.00512 0.996206 0.988376
1.00487 0.996648 0.988311
1.0005 1.00304 0.990605
1.00262 1.00207 0.987878
0.999753 1.00445 0.990675
0.999928 1.00403 0.990959
0.999901 1.00268 0.992112
1.0001 1.00132 0.993129
1.00006 1.0022 0.992422
1.00013 1.00105 0.99348
1.0001 1.00167 0.992746
1.00513 0.996312 0.988748
1.00011 1.00167 0.992765
1.00004 1.00192 0.992647
1.00509 0.996303 0.988415
1.00345 0.999024 0.98844
1.00052 1.00384 0.989859
1.00002 1.00284 0.991843
0.999958 1.00453 0.990244
1.00402 1.00015 0.988747
1.00447 0.99662 0.989821
1.00113 1.00138 0.989571
1.0001 1.00384 0.990653
1.00012 1.00161 0.992724
1.0001 1.00224 0.992258
1.00001 1.00325 0.991358
0.999725 0.994941 0.946479
1.00106 0.994936 0.964003
0.999861 1.00331 0.991587
0.999957 1.00425 0.990442
1.00486 0.995197 0.990738
1.00435 0.998008 0.988411
1.00101 1.00449 0.988143
1.0009 0.99516 0.958998
0.996204 1.00076 0.976144
0.999356 1.00011 0.994444
0.997723 0.997397 0.950768
0.994662 0.998208 0.934639
0.999797 1.00312 0.991995
1.00001 0.994956 0.946756
0.994771 0.999817 0.942361
1.0043 0.99596 0.991613
0.999616 1.00477 0.990582
1.00128 1.00195 0.989628
0.99879 0.999254 0.997013
0.999071 0.998834 0.959314
0.995247 1.00049 0.978132
0.996684 0.999962 0.949023
0.994511 1.00001 0.947257
0.999555 1.00306 0.992639
0.994519 1.00001 0.947376
0.994137 1.00397 0.96176
1.00135 0.998135 0.99441
0.999375 1.00432 0.991974
0.997672 1.00173 0.997378
0.995687 0.999955 0.982788
0.996012 1.00073 0.958866
0.99591 0.999985 0.95157
0.994178 1.00017 0.957136
1.00001 1.00206 0.992599
0.999967 1.0015 0.993358
0.999695 1.00052 0.994509
1.00029 1.00015 0.99388
1.00036 1.00061 0.993426
1.00028 1.00089 0.993278
1.00015 1.00115 0.993214
1.00011 1.00125 0.99322
1.00036 1.00063 0.993387
1.00026 1.00103 0.993148
1.00038 1.0008 0.993166
1.00017 1.00057 0.993772
1.00016 0.999784 0.994691
1.00042 1.0005 0.993364
1.00042 1.00076 0.993138
1.00034 1.00062 0.993453
1.00028 1.00083 0.993306
1.00037 1.00078 0.993199
1.00016 1.00101 0.99334
1.00028 1.00087 0.993277
1.00005 1.00127 0.993248
1.00035 1.00077 0.993218
1.00016 1.00103 0.99333
1.00002 1.00238 0.992189
0.999697 1.00421 0.990888
0.99983 1.00247 0.992297
0.999935 1.00185 0.992905
1.00006 1.00108 0.993446
1.0001 1.00087 0.993575
1.0002 1.00014 0.994119
1.00016 1.00075 0.993618
1.00024 1.0001 0.994093
1.00021 0.999127 0.995096
1.00027 1.0001 0.993983
1.00023 0.999108 0.995072
1.00007 0.997399 0.997461
1.00024 0.999113 0.99505
1.00011 0.997358 0.997221
1.00005 0.996205 0.998432
1.00014 0.997321 0.996986
1.00002 0.9962 0.999335
1.00003 0.996183 0.999337
1.00019 1.00019 0.994265
1.00021 0.998983 0.995244
1.00017 1.00017 0.994166
1.00014 0.997179 0.997145
1.00021 0.998986 0.995247
1.00021 0.999013 0.995211
1.00014 0.997211 0.997115
1.00003 0.996117 0.999368
1.0001 0.997261 0.997511
1.00003 0.996189 0.998912
1.00002 0.996304 0.998448
0.999427 0.99548 0.946292
0.994952 0.99938 0.945613
0.998053 0.998292 0.979258
1.00266 0.997969 0.98979
1.00524 0.995345 0.989123
0.998251 0.997 0.98344
1.00459 0.996876 0.989543
1.00036 0.99537 0.96239
0.998257 0.997556 0.947
0.994655 0.998217 0.938137
0.999602 0.996998 0.987322
0.997792 0.998344 0.964396
0.997091 0.999846 0.94866
0.994556 0.999981 0.946708
1.00012 1.00147 0.992937
1.00009 1.00099 0.993436
1.00015 1.00018 0.994174
1.00011 1.00099 0.993402
1.00005 1.00143 0.993114
1.00012 1.00143 0.993013
1.00014 1.0013 0.993111
1.00015 1.00106 0.993289
1.00013 1.00093 0.99347
1.0001 1.00097 0.993434
1.00509 0.996417 0.988677
1.00506 0.996479 0.988348
1.00309 0.998704 0.988759
1.00064 1.00383 0.989605
0.999999 1.00458 0.990237
1.00007 1.00284 0.99184
1.00006 1.00194 0.992613
1.00009 1.00165 0.992857
1.00397 0.999271 0.9888
1.00013 1.00164 0.992719
1.0001 1.00221 0.99225
1.00442 0.996511 0.989607
1.00105 1.002 0.989724
1.00022 1.00394 0.990332
1.00005 1.00322 0.991348
1.00109 1.00243 0.991921
1.00118 0.999396 0.993162
0.999992 1.00274 0.991642
1.00013 1.00179 0.992637
1.0002 1.00168 0.992504
1.00023 1.00229 0.991956
0.994393 0.999586 0.953798
0.999778 0.995341 0.948521
1.00054 0.994934 0.958132
0.999725 1.00312 0.992004
0.999559 1.00473 0.990634
1.00457 0.996235 0.99156
1.00107 1.00185 0.989832
0.999956 0.995236 0.948888
0.998407 0.998348 0.960576
0.994902 1.0003 0.975515
0.999055 0.997982 0.997661
0.99731 0.999951 0.946366
0.994814 0.999841 0.942557
0.99472 0.999985 0.947166
0.999429 1.00314 0.992663
0.994559 1.00006 0.949292
0.994205 1.00405 0.961359
1.0016 0.998061 0.994326
0.999048 1.00433 0.991994
0.997191 0.999495 1.00031
0.995475 0.999928 0.978919
0.996249 1.00066 0.962933
0.997013 0.999679 0.94963
0.994296 1.00022 0.957165
0.998779 1.00252 0.994878
0.993747 1.00319 0.969139
0.993539 1.00561 0.973413
0.997192 1.00165 0.997897
0.99609 1.00055 0.988268
0.995547 0.999958 0.963051
0.995137 0.999923 0.951899
0.994694 1.00017 0.955652
0.999962 1.00155 0.993241
0.999797 1.0005 0.994556
0.999295 0.999757 0.995809
1.00036 1.00062 0.993387
1.00039 1.00079 0.99316
1.00026 1.00108 0.993171
1.00011 1.00055 0.993912
1.00042 1.00076 0.99314
1.00041 1.00054 0.993337
1.00017 0.999584 0.994804
0.999715 0.999267 0.995859
1.00037 0.999649 0.994325
1.0004 1.00061 0.993235
1.00037 1.00078 0.993202
1.00016 1.001 0.993337
1.00028 1.00086 0.993278
1.00034 1.00079 0.993219
1.00004 1.00131 0.993235
1.00017 1.00102 0.993324
1.00006 1.0014 0.993174
1.0002 1.00079 0.993489
0.99994 1.00237 0.992381
1.00003 1.00236 0.992253
0.999714 1.00384 0.991258
1.00017 1.00455 0.989831
0.999909 1.00324 0.991718
0.999661 1.00407 0.991114
0.999845 1.0025 0.992417
0.999994 1.00154 0.992988
0.999927 1.00193 0.992879
1.00006 1.0011 0.993435
1.00017 1.00023 0.994091
1.00011 1.00089 0.993569
1.0002 1.00015 0.994117
1.00017 0.999195 0.995105
1.00025 1.00011 0.994092
1.00021 0.999122 0.995097
1.00003 0.997454 0.997479
1.00023 0.999102 0.995073
1.00008 0.997394 0.99724
1.00001 0.996268 0.998446
1.00013 0.997343 0.996995
1.00003 0.996219 0.998882
1.00002 0.996207 0.999335
1.0002 1.00025 0.994055
1.0002 0.999036 0.995203
1.00018 1.00019 0.994149
1.00013 0.997201 0.997141
1.00021 0.998988 0.995245
1.00016 1.00018 0.994164
1.00003 0.9961 0.999373
1.00014 0.997179 0.997144
1.00021 0.998987 0.995247
1.00014 0.997215 0.997113
1.00002 0.996126 0.999365
1.00001 0.996186 0.999353
0.994557 0.999461 0.951941
0.999684 0.995295 0.947377
0.994245 1.00449 0.9607
0.994902 0.999661 0.94415
0.999096 0.996828 0.979137
1.00457 0.997269 0.989523
1.00029 0.995268 0.963523
0.998905 0.99829 0.949839
0.9946 0.998175 0.933883
0.999137 0.997724 0.98561
0.998719 0.997883 0.958876
0.996846 0.999823 0.948446
0.994502 0.999894 0.944611
0.995857 0.999412 0.984497
0.997649 1.00018 0.958929
0.995518 0.999769 0.948202
0.994398 1.00004 0.953345
1.00015 1.00172 0.99269
1.00012 1.00147 0.992979
1.0001 1.00101 0.99346
1.00006 1.00139 0.993169
1.00016 1.00159 0.992718
1.00013 1.00141 0.993044
1.00014 1.0013 0.993078
1.0002 1.00107 0.993261
1.00016 1.00104 0.993349
1.00014 1.00092 0.993423
1.00387 0.998455 0.988862
1.00439 0.996387 0.989394
1.00098 1.00257 0.989874
1.00033 1.00402 0.990014
1.00009 1.00321 0.991337
1.0001 1.00217 0.992243
1.00015 1.00166 0.992714
1.00013 1.00179 0.992629
1.00118 1.00124 0.992192
1.0002 1.00174 0.992537
1.00024 1.00227 0.991922
1.0013 0.999504 0.992772
1.00024 1.00262 0.991596
0.998828 1.00074 0.996107
0.999366 0.999606 0.996901
1.00031 1.00133 0.992415
1.00025 1.00165 0.992508
1.00029 1.00185 0.992249
0.993369 1.00255 0.973831
0.994418 1.00011 0.953653
0.999709 0.995811 0.946265
0.99932 1.00317 0.992683
0.998801 1.00445 0.992009
1.00167 0.998056 0.99427
0.994583 1.00003 0.951281
0.997343 1.0008 0.958952
0.994956 0.999756 0.980833
0.996911 0.998258 1.00342
0.995692 0.999979 0.951296
0.994254 1.00415 0.960979
0.994231 1.00015 0.957489
0.998668 1.00266 0.994803
0.993653 1.00288 0.971308
0.993472 1.00567 0.973422
0.997169 1.00226 0.998173
0.995532 1.00048 0.988428
0.99608 0.999866 0.958858
0.994537 1.00008 0.957602
0.994935 0.999731 0.95298
0.997036 1.00236 0.997939
0.99351 1.00493 0.986486
0.993519 1.00617 0.974814
0.994425 1.00004 0.953386
0.995014 1.00174 0.996826
0.995894 0.999035 0.964739
0.994674 0.999918 0.953909
0.999908 1.00045 0.994599
0.999484 0.999933 0.9955
0.999088 0.999211 0.997109
1.00041 1.00076 0.993143
1.00039 1.0006 0.993311
1.00019 0.99935 0.994919
1.0004 1.00065 0.993225
1.00038 0.99957 0.994328
0.99997 0.999199 0.995502
0.999554 0.998777 0.996692
1.00035 1.00023 0.993772
1.00034 1.0008 0.993221
1.00003 1.00135 0.993222
1.00018 1.001 0.993318
1.0002 1.0008 0.993467
1.00008 1.00131 0.993236
0.999576 1.0018 0.993576
0.999816 1.00251 0.992434
0.999944 1.00395 0.990732
1.00005 1.00232 0.992318
0.999868 1.00374 0.991229
1.00008 1.00489 0.989367
1.00016 1.00474 0.989528
0.999955 1.00367 0.991109
1.0001 1.00452 0.989886
1 1.00223 0.992447
0.999907 1.00328 0.991616
0.999625 1.00393 0.991339
0.999859 1.00252 0.992537
1 1.0015 0.993085
1.00013 1.00047 0.993926
1.00007 1.00112 0.993424
1.00016 1.00025 0.994087
1.00012 0.999305 0.995087
1.00021 1.00015 0.994114
1.00018 0.999182 0.995107
0.999964 0.997557 0.997484
1.00022 0.999115 0.995098
1.00004 0.997457 0.997259
0.999951 0.996356 0.998459
1.0001 0.99738 0.997016
0.999989 0.996277 0.99889
0.999995 0.996247 0.999337
1.00024 1.00037 0.993733
1.00019 0.999153 0.994951
1.00021 1.00026 0.994052
1.00011 0.997281 0.997098
1.0002 0.999047 0.995119
1.00017 1.00019 0.994033
1.00002 0.996129 0.999369
1.00013 0.997198 0.997142
1.00021 0.998992 0.995246
1.00003 0.9961 0.999371
1.00014 0.997181 0.997144
1.00002 0.996135 0.999362
0.993305 1.00311 0.972123
0.994559 0.999201 0.951853
0.999591 0.995159 0.948042
1.00025 1.00101 0.99317
0.993252 1.00556 0.974685
0.994275 1.00447 0.960344
0.994901 0.999787 0.944687
0.99907 0.998551 0.983908
0.998188 0.998885 0.964397
0.997149 0.999812 0.945836
0.994495 0.999818 0.944537
0.995791 0.999752 0.980081
0.996466 1.00009 0.963146
0.997122 0.999872 0.949957
0.994477 1.00001 0.952463
0.995565 1.00011 0.976072
0.995342 1.00007 0.960653
0.994876 0.999816 0.953256
0.994586 1.00012 0.955737
1.0002 1.00176 0.992533
1.00014 1.00172 0.992677
1.00011 1.00147 0.993021
1.00019 1.00149 0.992794
1.00016 1.00159 0.992792
1.00013 1.0014 0.993075
1.00021 1.00108 0.993267
1.00017 1.00104 0.993409
1.00124 0.999967 0.992447
1.00142 0.999647 0.992376
1.00013 1.00179 0.992621
1.00049 1.00262 0.991548
1.00026 1.0022 0.991887
1.00018 1.0018 0.99257
1.00024 1.0017 0.992534
0.998957 1.00029 0.996477
1.00025 1.00187 0.992319
1.00047 1.00128 0.992464
0.999471 0.998767 0.996868
1.00027 1.00159 0.992672
0.997301 0.999562 0.998731
0.998552 1.00045 0.997722
1.00033 1.00097 0.992782
1.00027 1.00136 0.992801
0.993955 1.00399 0.989107
0.993273 1.003 0.974207
0.994436 1.00056 0.953518
0.998509 1.00271 0.994739
0.997246 1.00222 0.998403
0.993561 1.0026 0.973451
0.995621 1.00008 0.963922
0.995162 0.99945 0.984559
0.995156 0.999828 0.952598
0.993438 1.00573 0.973443
0.994415 1 0.95955
0.997363 1.0024 0.997398
0.993359 1.0049 0.986676
0.993599 1.00625 0.977509
0.995265 1.00296 0.999568
0.994514 1.00002 0.95242
0.995189 0.999064 0.962332
0.994888 0.999798 0.953735
0.996874 1.00182 0.999287
0.99539 1.00481 0.987278
0.993275 1.00569 0.97459
0.994564 1.00004 0.946801
0.995173 0.999764 0.952595
0.995844 0.999092 0.994008
0.995877 1.00017 0.957605
0.999615 1.0001 0.995201
0.999051 0.999568 0.996912
0.997877 0.998414 1.00077
1.0004 1.0007 0.993214
1.00039 0.999496 0.994331
1.00018 0.999263 0.995144
1.00031 1.00035 0.99374
0.999645 0.998352 0.996734
0.999116 1.00182 0.994358
1.00021 1.00082 0.993444
1.00011 1.00122 0.993298
0.999757 1.00191 0.993344
0.999301 1.00413 0.991601
0.999686 1.00263 0.992485
0.999781 1.0038 0.991005
1.00028 1.00501 0.989145
1.00102 1.00477 0.987974
1.00003 1.00365 0.991199
1.00021 1.00491 0.989211
1.00041 1.00446 0.989709
0.999815 1.00426 0.99051
1.00019 1.0046 0.989668
0.999983 1.00273 0.99197
0.999997 1.00365 0.991091
1.00004 1.00448 0.989941
1.0001 1.00092 0.993538
0.999988 1.0022 0.992425
0.999904 1.00332 0.991514
1.00001 1.00146 0.993182
1.00012 1.0005 0.993914
1.00006 0.999484 0.995017
1.00016 1.00027 0.994082
1.00012 0.999295 0.995088
0.999912 0.997716 0.997021
1.00018 0.99917 0.995109
0.999986 0.997561 0.997043
0.999834 0.996471 0.99935
1.00005 0.997445 0.997037
0.999936 0.99636 0.998898
0.999956 0.996307 0.999341
1.00028 1.00038 0.993661
1.00019 0.999303 0.994792
1.00025 1.00037 0.993802
1.00008 0.997411 0.997024
1.00019 0.999165 0.994932
1.00021 1.00026 0.99405
0.99999 0.996208 0.999356
1.00011 0.997275 0.997101
1.0002 0.999057 0.995035
1.00002 0.996121 0.99937
1.00013 0.997196 0.997142
1.00003 0.996101 0.999371
0.99393 1.00409 0.986059
0.99333 1.00351 0.971979
0.994592 0.999218 0.951815
1.00024 1.00104 0.993186
1.00024 1.00107 0.9931
1.00017 1.00147 0.992916
0.993544 1.00598 0.975044
0.993304 1.00531 0.974702
0.994313 1.00461 0.959972
0.99516 1.0005 0.983075
0.996596 1.00009 0.958613
0.995406 0.999908 0.951308
0.994463 0.99993 0.951867
0.995506 1.00012 0.97922
0.996376 1.00003 0.960512
0.995278 0.999892 0.953949
0.994486 1.00009 0.957669
0.99528 1.00001 0.975957
0.995659 1.00005 0.962434
0.994585 0.999928 0.954458
0.994216 1.00017 0.956845
1.00025 1.00162 0.992586
1.0002 1.00177 0.992514
1.00013 1.00173 0.992664
1.00019 1.0015 0.992789
1.00015 1.00159 0.992866
1.00022 1.00109 0.993274
0.999165 0.999929 0.99684
0.999396 0.99814 0.996838
1.00022 1.00177 0.992561
1.00065 1.00108 0.992514
1.00023 1.00192 0.992389
1.0003 1.00152 0.992586
1.00025 1.00137 0.992873
0.99735 1.00004 0.998953
1.0003 1.00092 0.993083
0.998349 0.999902 0.998472
1.00022 1.00116 0.993168
0.996095 0.998904 0.999716
0.998138 1.00077 0.998987
1.00008 1.00063 0.99389
0.996626 1.00389 0.990351
0.99413 1.00393 0.989626
0.99319 1.00347 0.974578
0.997659 1.00257 0.996836
0.995986 1.00202 0.997785
0.993207 1.00485 0.986865
0.995566 0.999256 0.968309
0.994697 0.999883 0.953353
0.993705 1.00632 0.980205
0.994513 0.999889 0.951957
0.996764 1.00198 0.9994
0.995464 1.00507 0.987952
0.993321 1.00544 0.974606
0.995188 0.999997 0.989338
0.994503 0.999989 0.944795
0.995511 0.999856 0.952958
0.99544 1.00016 0.962981
0.995898 1.00122 1.00178
0.993964 1.00422 0.985897
0.994142 1.00464 0.960955
0.994768 0.998331 0.942583
0.995508 0.999917 0.947927
0.995357 1.00007 0.962516
0.995637 0.998934 0.98564
0.99902 0.999992 0.996737
0.997875 0.998161 1.00064
0.99821 1.00013 0.998483
1.00026 1.00046 0.993708
0.999752 0.997883 0.996776
0.998937 1.00191 0.994615
0.998798 1.00387 0.993003
0.999942 1.00204 0.993113
0.999705 1.00415 0.99126
1.00038 1.00506 0.988942
0.999604 1.00369 0.99128
1.00031 1.00501 0.989067
1.00142 1.00501 0.987319
1.00202 1.00454 0.986545
1.00073 1.00421 0.988847
1.001 1.00483 0.98792
1.00032 1.00492 0.989056
1.00036 1.00392 0.99026
1.00028 1.00431 0.989909
0.999903 1.00351 0.99118
0.999885 1.0042 0.990627
1.00022 1.00446 0.989808
1.00008 1.00154 0.992947
1 1.0027 0.991978
1.00004 1.00363 0.991072
1.00001 0.999774 0.994821
1.00009 1.00093 0.993528
0.999978 1.00217 0.992404
1.00012 1.00052 0.993902
1.00006 0.999483 0.995013
0.999826 0.997927 0.996966
1.00013 0.999286 0.995089
0.999916 0.997719 0.99702
0.999773 0.996636 0.999339
0.999993 0.997556 0.997042
0.999861 0.996493 0.998902
0.999901 0.996396 0.999344
1.00029 1.00041 0.993685
1.0002 0.999403 0.994825
1.00027 1.00039 0.993696
1.00004 0.99757 0.996939
1.00019 0.99931 0.994856
1.00025 1.00037 0.993872
0.999951 0.996329 0.999337
1.00008 0.997403 0.997028
1.00019 0.999177 0.994913
0.999994 0.996192 0.99936
1.00011 0.99727 0.997103
1.00002 0.996113 0.999372
0.995402 1.00447 0.987563
0.993768 1.00425 0.98626
0.993355 1.00368 0.971891
1.00022 1.00115 0.993035
1.00012 1.00178 0.992713
1.00022 1.00106 0.993201
1.00024 1.00108 0.993094
1.00017 1.00145 0.992878
1.00015 1.00155 0.992863
1.00014 1.00167 0.99273
0.993606 1.00543 0.97333
0.993547 1.00602 0.977777
0.993353 1.00498 0.974718
0.994387 1.00005 0.959602
0.994821 1.00004 0.976661
0.995911 1.00007 0.961063
0.9947 0.999948 0.953875
0.99571 0.999981 0.975113
0.995376 1.00007 0.959146
0.994711 0.999827 0.954932
0.994304 1.00019 0.956974
0.995787 0.997802 0.980022
0.995118 1.0001 0.958846
0.995339 0.999909 0.952219
0.994385 0.999867 0.948873
1.00019 1.00137 0.992983
1.00024 1.00157 0.992586
1.00019 1.00177 0.992496
1.0002 1.00151 0.992784
0.997462 1.00055 0.999152
0.998246 0.999269 0.999206
1.00033 1.00145 0.992501
1.00021 1.00135 0.992944
1.0002 1.00094 0.993383
1.00022 1.00118 0.993097
0.999992 1.00068 0.993846
0.995858 0.999862 0.998054
0.997699 1.00086 0.999255
0.99981 1.00101 0.993857
0.995945 0.998541 0.9982
0.998216 1.00125 0.998098
0.993973 1.00417 0.98895
0.997293 1.00352 0.989993
0.994316 1.00397 0.990146
0.996681 1.00204 0.999488
0.995731 0.999383 0.994704
0.995475 1.00533 0.988626
0.996015 1.00017 0.958081
0.994777 0.99998 0.953005
0.993366 1.00513 0.974617
0.994499 0.999863 0.944679
0.995855 1.00103 1.00196
0.993788 1.00451 0.986071
0.994185 1.00452 0.960602
0.995029 0.998802 0.989949
0.994715 0.998237 0.938418
0.997174 0.999925 0.949531
0.995466 1.0001 0.959836
0.996231 1.00116 0.999761
0.993282 1.00326 0.972179
0.994895 0.999469 0.946051
0.997265 0.999923 0.948552
0.995553 1.00057 0.962739
0.994849 0.999595 0.979782
0.997929 0.997871 1.00046
0.997927 1.00064 0.998461
0.999834 0.998869 0.997204
0.998738 1.00201 0.994871
0.998383 1.00401 0.99328
1.00072 1.00311 0.990002
1.00012 1.00412 0.990917
1.00059 1.00498 0.988715
1.00184 1.0037 0.987369
1.00035 1.00499 0.988989
1.00144 1.00502 0.987197
1.00252 1.00346 0.986294
1.0031 1.00264 0.986289
1.00184 1.00437 0.987247
1.00208 1.00448 0.986354
1.00067 1.00349 0.989606
1.00072 1.00421 0.988987
1.00099 1.00488 0.987867
1.00034 1.00358 0.990504
1.00031 1.00399 0.990218
1.00015 1.00415 0.990109
1.00009 1.00223 0.992198
0.999933 1.00341 0.991309
0.999958 1.00413 0.990745
0.99997 1.00025 0.99441
1.00009 1.00152 0.992947
1.00002 1.00266 0.991986
0.999752 0.998162 0.99688
1 0.99979 0.994812
1.00009 1.00095 0.993518
1.00007 0.999481 0.99501
0.999833 0.997933 0.996962
0.999681 0.996836 0.999325
0.99992 0.997723 0.997019
0.999761 0.996668 0.999335
0.999832 0.996524 0.999342
1.00022 1.00125 0.993006
1.00029 1.00047 0.993625
1.00019 0.999504 0.994747
1.00029 1.00041 0.993683
0.999991 0.997734 0.996862
1.0002 0.99942 0.994822
1.00026 1.0004 0.99373
0.999901 0.996475 0.999317
1.00004 0.997562 0.996944
1.0002 0.999316 0.99492
0.999956 0.996306 0.999343
1.00008 0.997396 0.997033
0.999998 0.996174 0.999365
0.993501 1.00478 0.986592
0.995442 1.00476 0.98822
0.993631 1.00446 0.986462
1.00022 1.00114 0.993069
1.00012 1.00178 0.992668
1.00009 1.00209 0.992336
1.0001 1.00169 0.992711
1.00006 1.00222 0.992403
1.00024 1.00107 0.993089
1.00017 1.00144 0.99284
1.00013 1.00156 0.992864
1.00018 1.00166 0.992674
1.00007 1.00179 0.992802
0.99416 1.0042 0.961225
0.99353 1.00549 0.97334
0.993616 1.00606 0.980509
0.994312 1.00015 0.95731
0.994614 0.999904 0.95405
0.995181 0.999933 0.973645
0.994954 1.00004 0.961959
0.995681 0.997929 0.975791
0.995567 1.00007 0.962161
0.994773 0.999863 0.953597
0.994531 0.999922 0.946741
0.995929 0.995095 0.980671
0.995331 1.00004 0.963007
0.996135 0.999924 0.950998
0.994848 0.998192 0.942285
0.999706 1.00103 0.994105
1.00015 1.00145 0.992967
1.00025 1.00154 0.992586
0.995632 1.00078 0.996418
0.997484 1.00081 0.999529
1.00023 1.00117 0.993025
0.99997 1.00079 0.993803
0.999803 1.001 0.993882
0.998228 1.0009 0.997905
0.995589 0.998436 0.99837
0.99839 1.00149 0.996181
0.995921 1.00034 0.997389
0.993449 1.00325 0.972791
0.994178 1.00406 0.989521
0.997912 1.00308 0.989635
0.99574 1.00089 1.00217
0.995057 0.998557 0.983566
0.993651 1.00482 0.986247
0.996021 1.00008 0.95907
0.995531 0.999945 0.950909
0.994223 1.00459 0.960242
0.99466 0.998212 0.934231
0.996173 1.00077 0.999956
0.993318 1.00368 0.972032
0.994857 0.999689 0.944577
0.994913 0.999531 0.981564
0.99684 0.999921 0.948407
0.995941 1.00001 0.95961
0.997949 0.999413 0.995487
0.994521 0.999664 0.952272
0.997434 0.997774 0.948914
0.997739 1.00104 0.958497
0.994855 0.999879 0.981311
0.997666 1.00105 0.998431
0.999634 0.998896 0.997268
1.00201 0.999095 0.992684
0.997995 1.00409 0.993553
1.00028 1.0033 0.990354
1.00278 0.999971 0.98873
1.00079 1.00493 0.988486
1.00185 1.00361 0.987426
1.00344 1.0006 0.987492
1.00144 1.00502 0.987076
1.00258 1.00339 0.986342
1.00396 1.00018 0.986765
1.004 1.0001 0.987076
1.00249 1.00335 0.986594
1.00304 1.00255 0.986328
1.0015 1.00366 0.988357
1.00174 1.0044 0.987075
1.00213 1.00442 0.986163
1.00071 1.00304 0.990271
1.00066 1.00345 0.989769
1.00072 1.00418 0.989128
1.0003 1.00261 0.991462
1.0003 1.00358 0.990566
1.00027 1.00406 0.990175
0.999971 1.00093 0.993731
1.00012 1.00221 0.992198
0.99996 1.00331 0.991437
0.999654 0.998499 0.997167
0.999963 1.00027 0.994397
1.00009 1.0015 0.992947
0.999605 0.997105 0.998351
0.999749 0.998197 0.997089
1 0.999804 0.994802
0.99984 0.99794 0.996959
0.999669 0.99688 0.999319
0.999749 0.996703 0.999331
1.00018 1.00158 0.992685
1.00028 1.00063 0.993483
1.00021 1.00129 0.992968
1.00015 0.999633 0.994697
1.00028 1.00049 0.993626
0.999932 0.997902 0.996801
1.00018 0.999529 0.994744
1.0003 1.00042 0.993682
0.99984 0.996637 0.999298
0.999987 0.997733 0.996866
1.00019 0.999443 0.99482
0.999907 0.99645 0.999323
1.00004 0.997555 0.996949
0.999962 0.996281 0.999349
0.993706 1.00315 0.97365
0.99337 1.00471 0.986785
0.995436 1.00505 0.988877
1.00004 1.00246 0.992167
1.00022 1.00117 0.993102
1.00013 1.00179 0.992623
1.00011 1.00171 0.992748
1.00012 1.00205 0.992385
1.00006 1.00218 0.992378
1.00006 1.00251 0.992056
0.999972 1.00223 0.992368
1.00011 1.00157 0.992865
1.0002 1.00166 0.992619
1.00005 1.00183 0.992771
0.999934 1.0022 0.992978
0.994737 0.999817 0.943875
0.99426 1.00428 0.960805
0.993413 1.00553 0.973353
0.994728 0.999926 0.946664
0.995258 0.999864 0.953634
0.995116 1.0001 0.958999
0.995868 0.998052 0.975316
0.996235 0.995 0.982776
0.994719 0.998177 0.938247
0.995184 1.0001 0.959629
0.996896 0.999879 0.949022
0.995475 0.997058 0.98436
0.996041 1.00006 0.964073
0.997301 0.99986 0.94773
0.999252 1.0006 0.995336
0.99983 1.00099 0.994099
1.00011 1.00153 0.992951
0.995158 0.998291 0.998477
0.998255 1.00042 0.99772
0.999766 1.00098 0.993906
0.99889 1.00136 0.995981
0.995791 1.00038 0.997593
0.997754 1.00088 0.995361
0.994523 1.00012 0.94819
0.993311 1.00325 0.97626
0.994376 1.00404 0.990093
0.99608 1.00063 1.00019
0.994846 0.99965 0.982757
0.993352 1.00392 0.971935
0.995667 1.00002 0.961068
0.997236 0.999909 0.945924
0.994867 0.999743 0.945134
0.997749 0.999633 0.995592
0.99453 0.999311 0.952152
0.998098 0.997871 0.947257
0.994966 0.999871 0.977122
0.996261 1.00066 0.96248
0.998773 0.99942 0.995721
0.999556 0.995563 0.946391
0.997591 1.00035 0.962475
0.995041 1.00053 0.975577
0.999361 0.998971 0.997352
1.00155 0.998774 0.993436
1.00371 0.997007 0.990932
0.99983 1.00357 0.990706
1.00281 1.00018 0.988677
1.00443 0.996775 0.98921
1.00186 1.0035 0.987483
1.00338 1.00058 0.987549
1.00467 0.997451 0.988262
1.00263 1.00331 0.98639
1.00402 1.00017 0.986763
1.0047 0.997689 0.987841
1.0044 0.998373 0.988104
1.00343 1.00123 0.987039
1.00396 1.00003 0.987145
1.00205 1.00297 0.987521
1.00249 1.00328 0.986728
1.00299 1.00245 0.986366
1.0011 1.00301 0.989592
1.00136 1.00368 0.988371
1.00164 1.00442 0.986902
1.00062 1.00252 0.990988
1.00075 1.00304 0.990257
1.00065 1.00341 0.989932
1.00006 1.00159 0.99293
1.00032 1.0026 0.991473
1.00025 1.00358 0.990628
0.999608 0.9989 0.996374
0.99998 1.00091 0.993717
1.00015 1.00218 0.992199
0.999463 0.997387 0.999273
0.999668 0.998547 0.996658
0.999958 1.00028 0.994383
0.999579 0.997102 0.999297
0.999759 0.998213 0.996846
0.999657 0.996924 0.999312
1.00012 1.002 0.992482
1.0002 1.00157 0.992685
1.00024 1.00095 0.993228
1.0001 0.999779 0.994643
1.00027 1.00063 0.993489
1.0002 1.00131 0.992931
0.999869 0.998068 0.996758
1.00015 0.999639 0.994697
1.00028 1.00048 0.993627
0.999771 0.996807 0.999281
0.999928 0.997902 0.996803
1.00017 0.999547 0.994742
0.999847 0.996613 0.999304
0.999983 0.99773 0.99687
0.999913 0.996424 0.999329
0.994529 1.00017 0.947349
0.993659 1.00316 0.973517
0.993236 1.00466 0.986975
1.00002 1.00252 0.992119
1.00005 1.00292 0.991746
0.999976 1.00284 0.991879
1.00012 1.00172 0.992786
1.00014 1.00199 0.992434
1.00004 1.00214 0.992353
1 1.00225 0.992344
1.00003 1.00252 0.992029
0.999854 1.00331 0.991708
1.00007 1.00159 0.992849
1.00004 1.00186 0.992739
0.99988 1.00203 0.992985
0.999053 0.997798 0.946233
0.994731 0.999913 0.94201
0.994327 1.00434 0.96042
0.994608 0.998157 0.934183
0.995685 0.99988 0.950533
0.995934 1.00009 0.962498
0.995965 0.994993 0.979893
0.995248 0.997128 0.981706
0.996846 0.999435 0.947949
0.995903 1.00005 0.960626
0.996218 0.997127 0.981908
0.997228 1.00099 0.958007
1.00096 1.00038 0.993122
0.999433 1.00047 0.995206
0.999934 1.00092 0.994095
0.9956 1.00057 0.997784
0.999254 1.00128 0.99577
0.998404 1.00122 0.99477
1.00122 0.999883 0.990348
0.999881 0.994995 0.946194
0.994501 1.00059 0.950736
0.993204 1.00324 0.979697
0.997605 0.999654 0.99575
0.994913 0.999855 0.9781
0.994557 0.999237 0.952122
0.996338 1.00103 0.958067
0.998911 0.999386 0.949805
0.998729 0.999625 0.994635
0.999737 0.995768 0.947332
0.998968 0.999167 0.9577
0.995096 1.00039 0.978423
0.99945 0.999204 0.995375
1.00005 0.997287 0.959815
0.996102 1.00044 0.981057
1.00109 0.99839 0.994186
1.00356 0.996766 0.990894
1.00492 0.994858 0.99009
1.00285 1.00033 0.988623
1.00435 0.996783 0.989195
1.00493 0.995372 0.989694
1.00331 1.00054 0.987607
1.00464 0.997507 0.988206
1.00511 0.996094 0.98874
1.00409 1.00017 0.986761
1.00476 0.997722 0.987815
1.0049 0.996881 0.988304
1.00457 0.997898 0.988287
1.00434 0.998291 0.98819
1.00391 0.999447 0.98792
1.00308 1.00151 0.98743
1.00343 1.00126 0.98704
1.00391 0.99994 0.987214
1.00174 1.00266 0.98851
1.00208 1.003 0.987668
1.00249 1.00321 0.986863
1.0009 1.00245 0.990501
1.00113 1.00301 0.98957
1.00122 1.00369 0.988384
1.00022 1.00185 0.992338
1.00066 1.00249 0.99099
1.00079 1.00304 0.990243
0.999603 0.999369 0.995879
1.00008 1.00152 0.992929
1.00035 1.00258 0.991483
0.999429 0.997653 0.999207
0.99961 0.99895 0.996345
0.999991 1.00089 0.993703
0.999491 0.997417 0.99877
0.999678 0.998561 0.996648
0.999566 0.997181 0.999282
1.00013 1.00245 0.991986
1.0001 1.00205 0.992439
1.00016 1.00144 0.992913
1.00022 1.00156 0.992686
1.00024 1.00094 0.99323
1.00001 1.00006 0.994501
0.999806 0.99822 0.99673
1.0001 0.999772 0.994648
1.00026 1.00065 0.993494
0.999694 0.996978 0.999269
0.999865 0.998064 0.996759
1.00014 0.999644 0.994697
0.999779 0.996785 0.999286
0.999923 0.997904 0.996805
0.999853 0.996586 0.999309
0.999749 0.995732 0.948361
0.994621 1.00045 0.946698
0.993606 1.00319 0.973381
1 1.0026 0.99207
0.999968 1.00294 0.991772
0.999986 1.0029 0.99182
1.00022 1.00316 0.991222
0.999892 1.00339 0.991493
1.00002 1.00227 0.992321
1.00003 1.00253 0.992001
0.999816 1.00318 0.991736
0.999693 1.00378 0.991022
1.00013 1.00251 0.991827
1.0021 1.00101 0.99001
0.999854 1.00191 0.992965
0.999871 1.00185 0.992992
0.999573 0.998877 0.958631
0.998114 0.99784 0.947021
0.994775 0.999887 0.942145
0.997287 0.999922 0.945383
0.995902 1.0007 0.959812
0.995372 0.997157 0.98525
0.996115 0.997247 0.984113
0.997045 0.999721 0.963035
0.998594 0.999351 0.978794
1.0034 0.998737 0.989747
1.0006 1.00017 0.993122
0.999583 1.00035 0.995073
0.998792 1.00147 0.994216
1.00199 1.00057 0.989261
1.00067 0.995661 0.957804
0.999957 0.995385 0.948461
0.994482 1.00102 0.953311
0.998637 0.999841 0.993527
0.994815 1.00088 0.975693
0.999564 0.995219 0.947867
0.998 1.00047 0.962667
0.99942 0.999535 0.995519
1.00105 0.995917 0.960803
0.996015 1.00071 0.977588
1.00094 1.00175 0.992617
1.00017 0.997121 0.985058
1.00344 0.996557 0.990855
1.0049 0.995064 0.989858
1.00501 0.995138 0.989633
1.00426 0.996816 0.989179
1.00481 0.995565 0.989675
1.00519 0.995211 0.989418
1.00462 0.997573 0.988151
1.00512 0.996087 0.9887
1.00508 0.996356 0.988591
1.00482 0.997755 0.987789
1.00492 0.997022 0.988257
1.00486 0.997376 0.988059
1.00447 0.997769 0.988449
1.00433 0.998629 0.98795
1.00429 0.998235 0.988277
1.00392 0.999422 0.9879
1.00363 1.00017 0.987726
1.0026 1.00164 0.98796
1.00307 1.00156 0.987397
1.00343 1.00129 0.987041
1.00136 1.00232 0.98978
1.00171 1.00268 0.988619
1.0021 1.00302 0.987816
1.00039 1.0019 0.991924
1.00095 1.00245 0.990482
1.00115 1.00302 0.989548
0.999646 0.999883 0.995279
1.00024 1.00182 0.992347
1.00068 1.00248 0.990993
0.999419 0.997954 0.999108
0.999595 0.999445 0.995854
1.0001 1.00147 0.992928
0.999443 0.997708 0.99918
0.999609 0.999005 0.996317
0.999493 0.997467 0.999233
1.00033 1.00276 0.991343
1.00012 1.00243 0.991988
1.00015 1.00195 0.992363
1.00009 1.00209 0.992395
1.00014 1.00152 0.992839
0.999963 1.00053 0.994104
1.00024 1.00093 0.993232
1.00003 1.00003 0.99451
0.999723 0.998438 0.996671
0.999607 0.997153 0.99926
0.999799 0.99822 0.996732
1.0001 0.999765 0.994654
0.999704 0.996956 0.999273
0.999861 0.998061 0.996761
0.999786 0.996762 0.999291
1.0014 0.995865 0.961016
0.999588 0.995836 0.947053
0.994703 1.00077 0.946039
0.999951 1.00305 0.991666
0.999921 1.00287 0.991894
0.999901 1.00339 0.991531
1.00018 1.00313 0.991251
1.00035 1.00376 0.990355
0.999867 1.0036 0.991168
0.999779 1.00304 0.991763
0.999899 1.0039 0.99075
1.00002 1.00281 0.991678
1.00051 1.00299 0.990078
1.00261 1.00117 0.989825
1.00372 0.999652 0.987681
1.00184 1.00097 0.990201
0.999641 1.00226 0.99308
0.998173 0.999565 0.977286
0.999496 0.999003 0.959016
0.998182 0.998177 0.949482
0.998486 1.00077 0.957948
0.996294 0.997381 0.986045
0.99898 0.998913 0.983157
1.00268 0.998102 0.99073
1.00336 0.998531 0.990135
1.00048 0.99995 0.993117
1.00329 1.00145 0.988142
0.999178 0.997919 0.979144
1.00121 0.995326 0.963075
0.999849 0.995871 0.946246
0.9994 0.999836 0.995629
0.995787 1.0011 0.979731
1.00061 0.995613 0.961966
1.00081 1.00087 0.992786
0.99955 0.997701 0.983558
1.00362 1.00026 0.989815
1.00457 0.996608 0.989259
1.00485 0.995301 0.989624
1.00502 0.995283 0.989573
1.00519 0.995383 0.989463
1.00467 0.995768 0.989657
1.0052 0.995242 0.989409
1.00514 0.995985 0.988895
1.00515 0.99606 0.98866
1.00507 0.996406 0.988568
1.005 0.997215 0.98798
1.00494 0.997146 0.98821
1.00481 0.997393 0.988119
1.00468 0.998162 0.987626
1.00437 0.997629 0.98861
1.00433 0.99849 0.988026
1.00413 0.999461 0.987605
1.00393 0.999387 0.98788
1.00364 1.00018 0.987701
1.0033 1.00063 0.987972
1.00202 1.00162 0.989005
1.00256 1.0017 0.98806
1.00305 1.00161 0.987364
1.0007 1.00188 0.991397
1.00139 1.0023 0.989773
1.00169 1.00269 0.988727
0.999677 1.00041 0.994707
1.00041 1.00193 0.991922
1.00099 1.00244 0.990463
0.999436 0.998271 0.998963
0.999659 0.999908 0.995267
1.00027 1.00178 0.992356
0.999439 0.998005 0.999064
0.999592 0.999509 0.995827
0.999458 0.997756 0.999151
1.0005 1.00321 0.990589
1.00034 1.00274 0.991385
1.0003 1.0023 0.991817
1.00011 1.00242 0.99199
1.00016 1.00201 0.992292
0.999993 1.00109 0.993489
1.00014 1.00159 0.992765
0.999968 1.00053 0.994112
0.999639 0.998768 0.996491
1.00005 0.999993 0.994518
0.99972 0.99842 0.996679
0.999521 0.99737 0.999243
0.999621 0.997131 0.999263
0.999793 0.998218 0.996734
0.999713 0.996938 0.999277
0.998783 0.998556 0.978391
1.00139 0.996151 0.956769
0.999555 0.995889 0.948685
1.00108 1.00348 0.98927
0.999916 1.00339 0.991569
1.00014 1.00311 0.99128
0.99993 1.00367 0.99111
1.00029 1.00383 0.990322
1.00033 1.0031 0.990731
1.0001 1.00404 0.990478
0.99999 1.00311 0.99153
1.0007 1.00292 0.990302
1.00225 1.00129 0.989831
1.00382 1.00013 0.987241
1.0048 0.998268 0.987091
1.0037 0.999633 0.987525
1.00165 1.00085 0.990392
1.00184 0.998117 0.993009
0.998147 1.00007 0.975875
0.99942 0.998417 0.959748
0.998893 0.998691 0.981119
1.0027 0.997356 0.992181
1.00297 0.998234 0.990528
1.00322 0.997956 0.988208
0.998746 0.996697 0.981717
1.00079 0.995456 0.957556
1.00073 0.999982 0.992951
0.999592 0.99848 0.981992
1.00351 0.99897 0.989949
1.00454 0.996749 0.989343
1.00514 0.995966 0.98922
1.00513 0.997024 0.988758
1.00501 0.995337 0.989511
1.0052 0.9952 0.989493
1.00512 0.995909 0.98909
1.00523 0.995219 0.989399
1.00515 0.996002 0.988888
1.00505 0.99706 0.988099
1.00505 0.996481 0.988546
1.005 0.997227 0.987976
1.00488 0.998103 0.987312
1.00475 0.997424 0.988179
1.0047 0.998172 0.987617
1.0045 0.998834 0.987359
1.00432 0.998354 0.988103
1.00411 0.99935 0.987632
1.00376 0.999978 0.987658
1.00365 1.00019 0.987676
1.00327 1.00062 0.987916
1.00273 1.00091 0.988696
1.00123 1.00147 0.990834
1.002 1.00166 0.989106
1.00251 1.00175 0.988159
0.999743 1.00081 0.994178
1.00072 1.00189 0.99139
1.00142 1.00228 0.989765
0.999393 0.998677 0.998801
0.999742 1.00033 0.994699
1.00044 1.00193 0.99192
0.999441 0.998342 0.99891
0.999669 0.999932 0.995256
0.999462 0.998062 0.999017
1.00095 1.00321 0.98956
1.00048 1.00318 0.990606
1.00053 1.00257 0.991211
1.00035 1.0027 0.991426
1.00029 1.00228 0.991837
1.00008 1.00155 0.992903
1.00016 1.00207 0.992222
0.999978 1.00114 0.993489
0.999568 0.999225 0.996148
0.999971 1.00053 0.994121
0.999639 0.998733 0.996512
0.999456 0.997621 0.999197
0.999719 0.998406 0.996687
0.999531 0.997331 0.99925
0.999632 0.99711 0.999266
1.00226 0.998464 0.991088
0.998754 0.998598 0.975035
1.00056 0.996608 0.96141
1.00116 1.00296 0.989261
1.0028 1.00186 0.987587
1.00086 1.00354 0.989351
0.999996 1.00372 0.991052
1.00025 1.0039 0.990286
1.00058 1.00305 0.990479
1.00357 1.00017 0.987864
1.00084 1.00286 0.990525
1.00169 1.00141 0.989836
1.00359 1.00022 0.987611
1.00498 0.9986 0.986506
1.00508 0.996689 0.988057
1.00484 0.998273 0.987069
1.00378 0.999664 0.98737
1.00213 0.99805 0.993186
0.997858 1.00085 0.973767
1.00295 0.99668 0.993618
1.00514 0.996604 0.989206
1.0031 0.997831 0.988433
0.999324 0.996135 0.977931
1.00339 0.997795 0.990095
1.00451 0.99717 0.989405
1.00514 0.995692 0.989407
1.00513 0.996703 0.988659
1.00513 0.996187 0.988688
1.00516 0.996227 0.988296
1.00519 0.995067 0.989523
1.00512 0.995881 0.989075
1.0051 0.996996 0.988058
1.00514 0.996045 0.988882
1.00504 0.997105 0.988041
1.00501 0.997903 0.987306
1.00499 0.997228 0.987972
1.0049 0.998103 0.987315
1.00475 0.998604 0.987145
1.00472 0.998183 0.987608
1.00451 0.998835 0.987348
1.00415 0.999446 0.98744
1.00409 0.999238 0.987658
1.00372 0.999949 0.987667
1.00316 1.00037 0.988376
1.00323 1.00061 0.987859
1.00267 1.00089 0.988664
1.00178 1.00089 0.990401
0.999904 1.00085 0.993773
1.00123 1.00148 0.990828
1.00198 1.0017 0.989206
0.999276 0.999204 0.998651
0.999824 1.00072 0.994166
1.00074 1.00191 0.991383
0.999383 0.998786 0.998751
0.999792 1.00029 0.994692
0.999451 0.998415 0.998857
1.00189 1.00247 0.988229
1.00095 1.00321 0.989428
1.00098 1.0026 0.990311
1.00046 1.00315 0.990622
1.00048 1.00256 0.991229
1.00018 1.00194 0.992388
1.00028 1.00227 0.991857
1.00005 1.00161 0.992899
0.999567 0.999717 0.995652
0.999966 1.00117 0.993488
0.99958 0.999157 0.996172
0.999424 0.997899 0.999105
0.999637 0.998695 0.996533
0.999457 0.997578 0.999214
0.999543 0.9973 0.999256
1.00511 0.996143 0.988641
1.00232 0.998197 0.990262
0.998763 0.997742 0.97602
1.00355 1.00064 0.987524
1.00093 1.00284 0.989857
1.00378 0.999704 0.987524
1.0029 1.00178 0.987542
1.00064 1.00361 0.989435
1.00503 0.99831 0.986821
1.00083 1.00299 0.990231
1.00368 1.00018 0.987593
1.0051 0.997775 0.987137
1.00338 1.00029 0.987981
1.00503 0.998535 0.986545
1.00505 0.996789 0.988111
1.00476 0.998359 0.987037
1.00223 0.997965 0.993389
1.00517 0.996592 0.988148
1.00515 0.996678 0.9892
1.00298 0.997456 0.988644
1.00513 0.995332 0.9896
1.00513 0.996428 0.98856
1.00513 0.996153 0.988832
1.00516 0.996278 0.988427
1.00514 0.996953 0.987959
1.00512 0.995851 0.989061
1.0051 0.997019 0.988063
1.00513 0.997738 0.987271
1.00505 0.997158 0.987983
1.00499 0.997964 0.987282
1.00487 0.998694 0.986883
1.00492 0.998104 0.987318
1.00474 0.998605 0.987145
1.00441 0.999088 0.987292
1.00452 0.998836 0.987337
1.00415 0.999447 0.987441
1.00357 0.999926 0.988046
1.00369 0.99992 0.987677
1.00315 1.00038 0.988381
1.00221 1.00046 0.990014
1.00262 1.00088 0.988632
1.00177 1.0009 0.990392
1.00008 1.00068 0.994529
0.999271 0.999748 0.996531
0.999987 1.00077 0.994243
1.00124 1.0015 0.990823
0.999276 0.99934 0.998596
0.999918 1.00061 0.994151
0.999376 0.998882 0.998695
1.00415 0.999143 0.987597
1.00284 1.00102 0.987996
1.00206 1.00243 0.988136
1.00158 1.00222 0.989501
1.00095 1.00321 0.989296
1.00093 1.0026 0.990337
1.00043 1.00207 0.991833
1.00044 1.00255 0.991248
1.00015 1.00195 0.992394
0.999635 1.00021 0.995056
1.00001 1.00169 0.992895
0.999566 0.999672 0.995668
0.999396 0.998241 0.998962
0.99959 0.999093 0.996196
0.999414 0.99785 0.999138
0.999458 0.99753 0.99923
1.00515 0.997072 0.987736
1.00513 0.996364 0.989108
1.00247 0.998077 0.989435
1.00485 0.998332 0.987148
1.00342 1.00059 0.987795
1.0007 1.0027 0.990444
1.00387 0.999735 0.987622
1.00301 1.00171 0.987496
1.00516 0.997914 0.987163
1.00502 0.998375 0.986709
1.00378 1.00022 0.987321
1.00511 0.997762 0.987119
1.00508 0.998444 0.986584
1.00504 0.996823 0.988182
1.00518 0.997097 0.987882
1.00517 0.996533 0.988204
1.00516 0.996719 0.989197
1.00512 0.996123 0.988975
1.00517 0.996313 0.988558
1.00516 0.99686 0.988072
1.00517 0.997793 0.987192
1.00509 0.997045 0.988068
1.00512 0.99776 0.987278
1.00504 0.998637 0.986593
1.00499 0.998022 0.987259
1.00483 0.99869 0.986898
1.00452 0.999201 0.98698
1.00473 0.998605 0.987144
1.00442 0.99909 0.987291
1.00384 0.999605 0.987868
1.00414 0.999448 0.987442
1.00356 0.999927 0.988051
1.00256 1.00017 0.989656
1.00313 1.00039 0.988386
1.00222 1.00046 0.990003
1.00031 1.0004 0.994444
1.00177 1.00092 0.990383
1.0002 1.00064 0.994478
0.999223 1.00015 0.996371
0.999189 0.999874 0.997483
1.0001 1.00069 0.994657
0.999272 0.999464 0.998537
1.0049 0.998514 0.98688
1.00361 1.00002 0.988001
1.00406 0.998893 0.987999
1.0023 1.00144 0.98887
1.00292 1.00107 0.988001
1.00221 1.00239 0.988043
1.00156 1.00224 0.989499
1.00085 1.00188 0.991191
1.00088 1.00261 0.990362
1.00039 1.00204 0.991844
0.999739 1.00064 0.994468
1.00011 1.00195 0.992401
0.999596 1.00023 0.995066
0.999316 0.998731 0.998787
0.999568 0.999616 0.995682
0.999389 0.998174 0.999012
0.999408 0.997801 0.999169
1.00517 0.997427 0.987522
1.00514 0.997063 0.98773
1.00514 0.996537 0.98956
1.00513 0.998036 0.987006
1.00487 0.99841 0.987095
1.0033 1.00054 0.988069
1.00394 0.999758 0.987721
1.00515 0.997867 0.98712
1.00503 0.998436 0.986598
1.0051 0.997755 0.9871
1.00515 0.99764 0.987352
1.00518 0.997127 0.987819
1.00516 0.996492 0.988261
1.00515 0.998014 0.986972
1.00517 0.99676 0.988186
1.00516 0.997795 0.987202
1.00514 0.998466 0.986615
1.0051 0.997785 0.987285
1.00501 0.998646 0.986606
1.00473 0.999297 0.986479
1.00479 0.998688 0.986913
1.00452 0.999201 0.986982
1.00396 0.999623 0.98761
1.00442 0.999093 0.987289
1.00384 0.999605 0.987868
1.00278 0.999969 0.989452
1.00356 0.999928 0.988056
1.00257 1.00016 0.98965
1.00054 1.00013 0.994349
1.00222 1.00046 0.989992
1.00042 1.00038 0.994387
0.999268 1.00018 0.996323
1.00033 1.00056 0.994427
0.999117 1.00028 0.99644
0.999034 0.999962 0.998565
1.00506 0.998548 0.98666
1.00448 0.9991 0.987126
1.00483 0.998575 0.98702
1.00304 1.0006 0.988605
1.0036 0.999891 0.988003
1.00398 0.99864 0.988393
1.00147 1.00137 0.99051
1.00231 1.00146 0.988851
1.003 1.00112 0.988007
1.00154 1.00227 0.989497
1.00083 1.00186 0.9912
0.999869 1.0009 0.993966
1.00036 1.00202 0.991855
0.999658 1.00072 0.994481
0.999182 0.999365 0.998618
0.999556 1.00025 0.995076
0.999326 0.998626 0.998848
0.999386 0.998107 0.999059
1.00515 0.997759 0.987175
1.00517 0.997388 0.987525
1.00514 0.997054 0.987724
1.00514 0.997937 0.987071
1.0049 0.998494 0.987041
1.00515 0.997818 0.987076
1.00513 0.998016 0.987043
1.00515 0.997698 0.987319
1.00518 0.99716 0.987757
1.00516 0.997971 0.987029
1.00514 0.998417 0.986641
1.00516 0.997797 0.987212
1.00513 0.998516 0.986544
1.00496 0.999076 0.98628
1.00499 0.998653 0.986619
1.00473 0.999303 0.986491
1.00418 0.999752 0.987078
1.00453 0.999198 0.986985
1.00397 0.999621 0.9876
1.00288 0.999932 0.989277
1.00384 0.999604 0.987868
1.00278 0.999951 0.98945
1.0007 0.999963 0.994259
1.00258 1.00014 0.989643
1.00062 1.00012 0.99429
0.999399 1.00007 0.996256
1.00052 1.00034 0.994338
0.999155 1.00028 0.996411
0.998998 1.00047 0.996509
1.00511 0.998242 0.986816
1.00474 0.998919 0.986796
1.00504 0.998495 0.986696
1.00379 0.999763 0.987877
1.00451 0.999167 0.98713
1.00475 0.998637 0.987166
1.00209 1.00068 0.989974
1.00302 1.00053 0.988457
1.00359 0.999767 0.988005
1.00007 1.00089 0.993577
1.00146 1.00135 0.99052
1.00232 1.00149 0.988833
1.00082 1.00185 0.99121
0.999767 1.00101 0.993984
0.999094 0.999977 0.998483
0.999575 1.00082 0.994492
0.999202 0.999221 0.99868
0.99934 0.998515 0.998905
1.00515 0.998015 0.986984
1.00515 0.99775 0.987197
1.00516 0.99735 0.987528
1.00514 0.997838 0.987137
1.00514 0.998398 0.986648
1.00514 0.998026 0.987048
1.00515 0.997753 0.987286
1.00516 0.997935 0.987086
1.00514 0.998381 0.986672
1.00503 0.998916 0.986408
1.00513 0.998567 0.986472
1.00495 0.999133 0.986279
1.00447 0.999582 0.986613
1.00472 0.999312 0.986504
1.00417 0.999752 0.987081
1.00307 0.999979 0.988868
1.00398 0.999625 0.987592
1.0029 0.999919 0.989271
1.00078 0.99996 0.993071
1.0028 0.999932 0.989449
1.00075 0.999942 0.993691
0.999465 1.00003 0.998322
1.0007 1.00012 0.994234
0.99929 1.00012 0.996346
0.999047 1.00041 0.996482
1.00509 0.998244 0.986859
1.00484 0.998831 0.986699
1.00511 0.998293 0.986818
1.00413 0.999299 0.987389
1.00474 0.998929 0.986824
1.00502 0.998441 0.986732
1.00265 1.00005 0.989256
1.00381 0.999765 0.98787
1.00453 0.999229 0.987134
1.00036 1.00055 0.99331
1.0021 1.00065 0.989838
1.00301 1.00046 0.988308
0.999124 1.00036 0.998391
0.999993 1.00095 0.993592
1.00146 1.00134 0.99053
0.999676 1.00109 0.994
0.999082 0.999836 0.998532
0.999217 0.999069 0.998736
1.00514 0.998343 0.986688
1.00515 0.998006 0.986992
1.00516 0.997745 0.987218
1.00504 0.998858 0.98642
1.00513 0.998377 0.986675
1.00514 0.998032 0.987053
1.00514 0.998336 0.986702
1.00503 0.998903 0.986407
1.00464 0.999366 0.986733
1.00494 0.999192 0.986278
1.00446 0.99964 0.986754
1.00338 0.999874 0.988125
1.00417 0.999747 0.987083
1.00308 0.999974 0.988863
1.0009 1.00005 0.992756
1.00292 0.999908 0.989264
1.00079 0.999953 0.993063
0.999493 0.999998 0.998298
1.00076 0.999939 0.993171
0.999415 1 0.997332
0.999182 1.00017 0.99643
1.00506 0.998438 0.986775
1.00488 0.99876 0.98674
1.0051 0.998232 0.98686
1.00425 0.999302 0.987331
1.00484 0.99884 0.986669
1.0051 0.998344 0.98682
1.003 0.99968 0.988985
1.00414 0.999376 0.987552
1.00474 0.998941 0.986852
1.00064 1.00014 0.99316
1.00268 1.00004 0.989216
1.00383 0.999766 0.987863
0.999249 1.00041 0.998336
1.00032 1.00057 0.993332
1.00211 1.00062 0.989702
0.999077 1.00025 0.99842
0.999922 1.00099 0.993616
0.999072 0.999683 0.998585
1.00504 0.998782 0.986509
1.00514 0.998359 0.986681
1.00516 0.997995 0.986999
1.00464 0.999261 0.986825
1.00505 0.998832 0.986451
1.00512 0.998363 0.986703
1.00504 0.998893 0.986405
1.00464 0.999372 0.986728
1.00359 0.999725 0.987881
1.00444 0.999699 0.986895
1.00336 0.99991 0.988262
1.00112 1.00006 0.992328
1.00309 0.999963 0.988859
1.00091 1.00005 0.992739
0.999561 0.999998 0.998228
1.00079 0.999952 0.993056
0.999513 0.99999 0.998279
0.999455 0.999936 0.996243
1.00489 0.998814 0.986811
1.00507 0.998361 0.986789
1.00433 0.999239 0.987256
1.00487 0.998759 0.986737
1.00511 0.998218 0.986862
1.00315 0.999684 0.989018
1.00427 0.999296 0.987326
1.00484 0.998848 0.98664
1.00083 0.999881 0.99303
1.003 0.999734 0.989089
1.00414 0.999458 0.987715
0.999424 1.00023 0.998295
1.00062 1.00013 0.993173
1.00272 1.00004 0.989175
0.999199 1.00035 0.99835
1.00027 1.00058 0.993351
0.999024 1.00016 0.998459
1.00458 0.999252 0.986961
1.00504 0.998804 0.986496
1.00513 0.998377 0.986675
1.00358 0.999653 0.987961
1.00464 0.999269 0.986825
1.00505 0.998803 0.986482
1.00464 0.999379 0.986722
1.00358 0.999732 0.987886
1.00128 1.00003 0.992074
1.00334 0.999944 0.988399
1.00113 1.00007 0.992313
0.999709 1.00001 0.998105
1.00093 1.00004 0.992723
0.999614 0.999996 0.998187
0.999544 0.999979 0.998253
1.0044 0.999254 0.987153
1.00488 0.998734 0.986799
1.00508 0.998286 0.986803
1.00324 0.999687 0.988834
1.00435 0.99924 0.987245
1.00486 0.998758 0.986733
1.00096 0.999843 0.992831
1.00314 0.999696 0.989014
1.00428 0.999289 0.987321
0.999567 1.00004 0.998247
1.00083 0.999874 0.993038
1.003 0.999781 0.989193
0.999373 1.00024 0.998307
1.00061 1.00013 0.993185
0.999141 1.00032 0.998367
1.00352 0.999718 0.988285
1.0046 0.999228 0.98682
1.00504 0.998826 0.986482
1.0013 0.99997 0.992078
1.00359 0.999645 0.98795
1.00465 0.999276 0.986825
1.00357 0.999737 0.987892
1.00127 1.00002 0.992074
0.999832 1.00001 0.997998
1.00113 1.00007 0.992298
0.999752 1.00001 0.998059
0.999655 0.999994 0.998141
1.00338 0.999712 0.988565
1.00442 0.99921 0.987093
1.00488 0.998654 0.986786
1.00112 0.999936 0.993669
1.00324 0.999695 0.988825
1.00436 0.999242 0.987234
0.999663 0.999957 0.998172
1.00096 0.999853 0.992838
1.00314 0.999706 0.98901
0.999524 1.00007 0.998265
1.00083 0.999874 0.993045
0.999325 1.00024 0.998317
1.00129 0.999977 0.992108
1.00352 0.999682 0.988188
1.00462 0.999202 0.986678
0.999873 0.999999 0.997976
1.0013 0.999975 0.992079
1.0036 0.99964 0.987939
1.00128 1.00001 0.992071
0.999859 1.00001 0.997983
0.999809 1.00001 0.998022
1.00126 0.999989 0.99339
1.00338 0.999706 0.988568
1.00444 0.999166 0.987033
0.999521 0.999978 0.998292
1.00105 0.99995 0.992601
1.00325 0.9997 0.988817
0.999627 0.999983 0.998202
1.00095 0.999871 0.992846
0.99949 1.00009 0.998281
0.999848 1.00001 0.995593
1.00129 0.999975 0.992726
1.00352 0.999649 0.988091
0.999869 0.999999 0.997977
1.00129 0.99998 0.992084
0.999872 1.00001 0.99797
0.999577 1.00001 0.995909
1.0012 0.999992 0.992895
1.00338 0.999704 0.988572
0.999608 0.999988 0.997066
1.00105 0.999966 0.992591
0.999598 1 0.998229
0.999851 0.999996 0.997988
1.00124 0.999974 0.992182
0.999863 0.999998 0.997979
0.99969 1 0.996954
1.00115 0.999991 0.992354
0.999673 0.999985 0.998154
0.999822 0.999992 0.998016
0.99975 0.999988 0.998078

TENSORS stress float
0.00122175 -2.52811e-05 8.85356e-05
-2.52811e-05 0.000323551 -9.96786e-06
8.85356e-05 -9.96786e-06 0.000303618
0.00355787 -8.64084e-05 8.29907e-05
-8.64084e-05 0.00158192 4.42165e-06
8.29907e-05 4.42165e-06 0.00157562
0.00125548 2.95808e-05 4.42849e-05
2.95808e-05 0.000353754 -3.0447e-06
4.42849e-05 -3.0447e-06 0.000326004
0.0016586 -2.40233e-05 0.000103554
-2.40233e-05 0.000526467 -7.34085e-06
0.000103554 -7.34085e-06 0.000505682
0.00136769 -2.78749e-05 9.3419e-05
-2.78749e-05 0.000396646 -9.94056e-06
9.3419e-05 -9.94056e-06 0.000375055
0.00112683 2.77761e-06 7.68904e-05
2.77761e-06 0.000268495 -8.85844e-06
7.68904e-05 -8.85844e-06 0.000250259
0.00115352 -6.23114e-06 9.38217e-06
-6.23114e-06 0.000238726 -5.60764e-06
9.38217e-06 -5.60764e-06 0.000182096
0.0034797 -0.000106418 3.83883e-06
-0.000106418 0.00153913 -4.16094e-07
3.83883e-06 -4.16094e-07 0.00153161
0.00435904 -0.000156855 7.68245e-06
-0.000156855 0.00203135 2.21626e-06
7.68245e-06 2.21626e-06 0.00200829
0.00356003 -0.000180485 6.23136e-06
-0.000180485 0.0016155 2.3226e-06
6.23136e-06 2.3226e-06 0.00159054
0.00120942 -2.79124e-05 6.65248e-05
-2.79124e-05 0.000291075 4.76442e-06
6.65248e-05 4.76442e-06 0.000281051
0.000748909 4.527e-05 8.85434e-06
4.527e-05 1.4238e-05 6.13432e-06
8.85434e-06 6.13432e-06 -3.41353e-05
0.0017121 -1.16432e-05 0.000119452
-1.16432e-05 0.000542434 1.26144e-06
0.000119452 1.26144e-06 0.000520681
0.00128515 3.00213e-05 1.91732e-05
3.00213e-05 0.000331018 1.95677e-06
1.91732e-05 1.95677e-06 0.00030331
0.00133153 9.82991e-05 8.03221e-07
9.82991e-05 0.000411729 4.09641e-06
8.03221e-07 4.09641e-06 0.000373438
0.00148941 -7.66169e-06 4.29503e-05
-7.66169e-06 0.000440505 -2.59784e-06
4.29503e-05 -2.59784e-06 0.000417207
0.00115668 3.81177e-05 3.70414e-05
3.81177e-05 0.000294719 -2.91994e-06
3.70414e-05 -2.91994e-06 0.00027022
0.00134415 2.50809e-05 4.73654e-05
2.50809e-05 0.000395166 -3.12393e-06
4.73654e-05 -3.12393e-06 0.000367075
0.00127296 -2.48855e-05 -1.92896e-05
-2.48855e-05 0.000296289 4.39633e-07
-1.92896e-05 4.39633e-07 0.000243309
0.00496561 -4.02404e-05 0.000123186
-4.02404e-05 0.00231198 -1.7118e-06
0.000123186 -1.7118e-06 0.00230749
0.00166681 -1.48328e-05 0.000105844
-1.48328e-05 0.000528003 -5.58009e-06
0.000105844 -5.58009e-06 0.000507692
0.00154273 -2.74077e-05 9.896e-05
-2.74077e-05 0.00047574 -8.94097e-06
9.896e-05 -8.94097e-06 0.000454291
0.00147805 -3.83173e-05 2.29639e-05
-3.83173e-05 0.000340403 -3.52841e-06
2.29639e-05 -3.52841e-06 0.000288542
0.00128155 -8.59876e-06 1.16312e-05
-8.59876e-06 0.000283564 -5.63978e-06
1.16312e-05 -5.63978e-06 0.000226649
0.0011277 3.79959e-05 6.02857e-05
3.79959e-05 0.000257452 -7.46039e-06
6.02857e-05 -7.46039e-06 0.000241102
0.00102535 -1.17898e-06 9.05347e-06
-1.17898e-06 0.0001859 -4.72362e-06
9.05347e-06 -4.72362e-06 0.000133309
0.00161867 -0.000114664 5.56543e-06
-0.000114664 0.000383842 -2.53862e-06
5.56543e-06 -2.53862e-06 0.000295698
0.00338135 -0.000120134 -6.33121e-05
-0.000120134 0.00148531 -3.06855e-06
-6.33121e-05 -3.06855e-06 0.0014766
0.00279955 -5.33259e-05 -5.25549e-05
-5.33259e-05 0.00117782 -9.92393e-07
-5.25549e-05 -9.92393e-07 0.00115528
0.00241352 -9.1891e-05 -3.33252e-05
-9.1891e-05 0.000979339 -8.90276e-07
-3.33252e-05 -8.90276e-07 0.00095774
0.00318979 -0.00010506 2.58583e-06
-0.00010506 0.00137094 -2.30857e-07
2.58583e-06 -2.30857e-07 0.00136698
0.00067556 3.61659e-05 -1.30397e-07
3.61659e-05 -1.99736e-05 -2.09571e-07
-1.30397e-07 -2.09571e-07 -6.84115e-05
0.00160025 3.70692e-05 0.00010252
3.70692e-05 0.000502842 6.67022e-06
0.00010252 6.67022e-06 0.000481704
0.00171365 3.34962e-05 9.35583e-05
3.34962e-05 0.000583982 7.97591e-06
9.35583e-05 7.97591e-06 0.000563219
0.0023357 9.83546e-05 5.89468e-05
9.83546e-05 0.000830591 7.04553e-06
5.89468e-05 7.04553e-06 0.00078461
0.00278317 -0.00010977 1.53362e-05
-0.00010977 0.00114546 1.3461e-06
1.53362e-05 1.3461e-06 0.00114312
0.00206796 5.97484e-05 4.6666e-05
5.97484e-05 0.000722363 5.90661e-06
4.6666e-05 5.90661e-06 0.00067921
0.000667812 5.2062e-06 8.60595e-06
5.2062e-06 -2.38921e-05 7.97655e-06
8.60595e-06 7.97655e-06 -6.6467e-05
0.000929856 8.20237e-05 4.01237e-06
8.20237e-05 7.29546e-05 1.30462e-06
4.01237e-06 1.30462e-06 -1.33707e-05
0.00251556 -7.44261e-05 4.40333e-05
-7.44261e-05 0.000987849 2.98251e-06
4.40333e-05 2.98251e-06 0.000995393
0.00506843 4.1655e-06 6.11525e-08
4.1655e-06 0.00236342 -7.62833e-07
6.11525e-08 -7.62833e-07 0.00235919
0.00309808 1.99242e-05 -4.77312e-05
1.99242e-05 0.001307 -1.10286e-06
-4.77312e-05 -1.10286e-06 0.0012914
0.00516477 4.27673e-05 0.000129346
4.27673e-05 0.00241266 7.04434e-07
0.000129346 7.04434e-07 0.00240833
0.0013529 -1.4997e-05 1.23028e-05
-1.4997e-05 0.000365166 1.04867e-06
1.23028e-05 1.04867e-06 0.000336454
0.00077355 -2.79516e-06 1.51015e-05
-2.79516e-06 -7.11713e-05 2.22989e-06
1.51015e-05 2.22989e-06 -0.000130621
0.00466321 2.50038e-05 3.91715e-05
2.50038e-05 0.00215804 1.8881e-06
3.91715e-05 1.8881e-06 0.00214799
0.0024044 1.75368e-05 6.46135e-05
1.75368e-05 0.000824654 3.93085e-06
6.46135e-05 3.93085e-06 0.000782578
0.00130411 -1.81668e-05 -2.16229e-05
-1.81668e-05 0.000347165 2.27838e-06
-2.16229e-05 2.27838e-06 0.000320807
0.00136209 3.48434e-05 -1.04807e-05
3.48434e-05 0.000407122 3.05072e-06
-1.04807e-05 3.05072e-06 0.000378264
0.00121766 8.80046e-05 -3.70498e-06
8.80046e-05 0.00034008 3.32162e-06
-3.70498e-06 3.32162e-06 0.000307327
0.00133542 -4.90619e-05 -4.75344e-05
-4.90619e-05 0.000320485 6.46204e-06
-4.75344e-05 6.46204e-06 0.000272707
0.00325445 4.001e-05 -4.99656e-05
4.001e-05 0.00139275 -1.12213e-06
-4.99656e-05 -1.12213e-06 0.00137132
0.00148471 -1.07309e-05 4.2719e-05
-1.07309e-05 0.000435419 -1.64864e-06
4.2719e-05 -1.64864e-06 0.000412286
0.0011071 5.17807e-05 2.83151e-05
5.17807e-05 0.000252185 -2.40888e-06
2.83151e-05 -2.40888e-06 0.000232987
0.00143736 2.82035e-06 4.46839e-05
2.82035e-06 0.000425671 -3.24883e-06
4.46839e-05 -3.24883e-06 0.000401
0.00151608 -4.42067e-05 -1.5769e-05
-4.42067e-05 0.000358605 4.67299e-07
-1.5769e-05 4.67299e-07 0.000308628
0.00115321 -1.2462e-05 -1.5809e-05
-1.2462e-05 0.000248575 3.36811e-07
-1.5809e-05 3.36811e-07 0.000198947
0.00137683 -4.19075e-05 -1.70465e-05
-4.19075e-05 0.000325349 6.42099e-07
-1.70465e-05 6.42099e-07 0.000274123
0.00173888 -0.000119668 -2.8033e-06
-0.000119668 0.000444077 9.50836e-07
-2.8033e-06 9.50836e-07 0.000354696
0.00507023 5.00894e-05 0.000120025
5.00894e-05 0.00236472 1.68079e-07
0.000120025 1.68079e-07 0.00236028
0.00163744 -2.28052e-06 0.000108635
-2.28052e-06 0.000510432 -4.00915e-06
0.000108635 -4.00915e-06 0.000489475
0.00231083 5.47812e-05 1.36509e-05
5.47812e-05 0.000778134 -1.18874e-06
1.36509e-05 -1.18874e-06 0.000725577
0.0014693 -3.74965e-05 2.39792e-05
-3.74965e-05 0.000333265 -2.76648e-06
2.39792e-05 -2.76648e-06 0.000282194
0.00140549 -2.95148e-05 1.86774e-05
-2.95148e-05 0.000318852 -4.63257e-06
1.86774e-05 -4.63257e-06 0.000265311
0.00196778 -8.87163e-05 7.79413e-06
-8.87163e-05 0.000452393 -1.79588e-06
7.79413e-06 -1.79588e-06 0.000364159
0.00131974 -9.92874e-05 8.06994e-06
-9.92874e-05 0.000174153 -3.56948e-06
8.06994e-06 -3.56948e-06 8.29474e-05
0.00118607 4.7867e-05 5.04829e-05
4.7867e-05 0.000269684 -6.97085e-06
5.04829e-05 -6.97085e-06 0.00025917
0.00092795 2.45488e-05 7.52039e-06
2.45488e-05 0.00014226 -3.71238e-06
7.52039e-06 -3.71238e-06 9.83225e-05
0.00140431 -0.000100477 3.79099e-06
-0.000100477 0.00031643 -1.84727e-06
3.79099e-06 -1.84727e-06 0.000231977
0.00117163 -0.000118026 3.81513e-06
-0.000118026 7.70898e-05 -1.52282e-06
3.81513e-06 -1.52282e-06 -3.65117e-05
0.00433329 -4.83725e-05 -9.38083e-05
-4.83725e-05 0.00200042 -5.2003e-06
-9.38083e-05 -5.2003e-06 0.00199216
0.0031044 -0.00010842 -5.48884e-05
-0.00010842 0.00132277 -2.87331e-06
-5.48884e-05 -2.87331e-06 0.00131946
0.00361738 -0.000122207 -7.17968e-05
-0.000122207 0.00162725 -3.75511e-06
-7.17968e-05 -3.75511e-06 0.00161459
0.000607933 3.48194e-05 -7.64732e-06
3.48194e-05 -5.20895e-05 -6.6626e-06
-7.64732e-06 -6.6626e-06 -0.000100295
0.00481251 8.96638e-06 -2.77313e-06
8.96638e-06 0.00223866 -5.25017e-07
-2.77313e-06 -5.25017e-07 0.00223332
0.00420937 -9.41214e-05 4.13072e-07
-9.41214e-05 0.00194873 -3.95905e-08
4.13072e-07 -3.95905e-08 0.00193405
0.000622596 8.58379e-05 -7.07862e-07
8.58379e-05 -9.01198e-05 -1.80306e-07
-7.07862e-07 -1.80306e-07 -0.000147001
0.00192513 -7.59076e-05 -2.19619e-05
-7.59076e-05 0.00067632 -4.99312e-07
-2.19619e-05 -4.99312e-07 0.000671814
0.000641202 6.36058e-05 -2.79688e-07
6.36058e-05 -4.38914e-05 -9.92456e-08
-2.79688e-07 -9.92456e-08 -9.61811e-05
0.00119219 -1.43207e-05 1.26439e-05
-1.43207e-05 0.000265756 3.86519e-07
1.26439e-05 3.86519e-07 0.000226714
0.00087014 7.87935e-05 2.10599e-07
7.87935e-05 3.9858e-05 -1.80119e-07
2.10599e-07 -1.80119e-07 -4.5724e-05
0.00272629 -8.23806e-05 5.10263e-05
-8.23806e-05 0.0011053 3.02664e-06
5.10263e-05 3.02664e-06 0.00111014
0.000688562 -6.09839e-05 5.92738e-08
-6.09839e-05 -8.5318e-06 4.67202e-06
5.92738e-08 4.67202e-06 -3.18895e-05
0.000758094 6.63216e-05 1.55475e-05
6.63216e-05 -4.56239e-05 7.16977e-06
1.55475e-05 7.16977e-06 -0.000102941
0.000795392 8.60496e-05 1.62023e-05
8.60496e-05 1.82471e-05 9.43547e-06
1.62023e-05 9.43547e-06 -3.80367e-05
0.00106698 9.42287e-05 7.86364e-06
9.42287e-05 1.82483e-05 3.74117e-06
7.86364e-06 3.74117e-06 -7.8485e-05
0.00162347 -5.37581e-05 2.6204e-05
-5.37581e-05 0.000503635 4.03004e-06
2.6204e-05 4.03004e-06 0.000473946
0.000980026 9.46736e-05 4.74502e-06
9.46736e-05 6.74686e-05 2.46031e-06
4.74502e-06 2.46031e-06 -2.10753e-05
0.000905594 6.12624e-05 3.8439e-06
6.12624e-05 8.50017e-05 1.96832e-06
3.8439e-06 1.96832e-06 7.88334e-07
0.000871546 0.000106642 1.72053e-06
0.000106642 9.31324e-06 -3.43436e-07
1.72053e-06 -3.43436e-07 -9.65323e-05
0.00230773 -6.69302e-05 3.64554e-05
-6.69302e-05 0.000869488 3.02637e-06
3.64554e-05 3.02637e-06 0.000879757
0.00244206 -7.5174e-05 1.25442e-06
-7.5174e-05 0.00094861 -1.21143e-07
1.25442e-06 -1.21143e-07 0.000956194
0.00484849 5.22398e-05 -0.000120729
5.22398e-05 0.00225189 -4.45906e-06
-0.000120729 -4.45906e-06 0.00224753
0.00500837 2.25305e-05 -0.000120481
2.25305e-05 0.00233209 -1.79725e-06
-0.000120481 -1.79725e-06 0.00232841
0.00515076 4.56903e-05 3.75953e-06
4.56903e-05 0.00240781 -6.00564e-07
3.75953e-06 -6.00564e-07 0.00240211
0.00314579 -1.55982e-05 -5.08329e-05
-1.55982e-05 0.00133059 -7.80238e-07
-5.08329e-05 -7.80238e-07 0.00131416
0.00164212 1.05415e-05 2.80113e-05
1.05415e-05 0.000400718 1.59691e-07
2.80113e-05 1.59691e-07 0.000348492
0.00307643 1.96372e-05 -5.14788e-05
1.96372e-05 0.00129771 -1.79361e-06
-5.14788e-05 -1.79361e-06 0.001282
0.00160018 3.20873e-05 2.57576e-05
3.20873e-05 0.000393271 5.92011e-07
2.57576e-05 5.92011e-07 0.000344015
0.00517838 0.000106777 0.000121726
0.000106777 0.00242614 1.73216e-06
0.000121726 1.73216e-06 0.00241742
0.000732894 -3.53881e-06 1.4212e-05
-3.53881e-06 -9.84219e-05 5.30183e-07
1.4212e-05 5.30183e-07 -0.0001583
0.00246556 -7.70999e-06 6.67087e-05
-7.70999e-06 0.000852322 2.85943e-06
6.67087e-05 2.85943e-06 0.000808628
0.00121747 1.94708e-05 9.41288e-06
1.94708e-05 8.8408e-06 1.55701e-06
9.41288e-06 1.55701e-06 -8.92437e-05
0.00234307 6.17819e-05 6.30715e-05
6.17819e-05 0.00080144 4.60142e-06
6.30715e-05 4.60142e-06 0.000757896
0.00119645 5.24655e-05 9.11719e-06
5.24655e-05 1.98934e-05 2.17258e-06
9.11719e-06 2.17258e-06 -7.50874e-05
0.00172032 1.99727e-05 -0.000117663
1.99727e-05 0.00054962 5.00015e-07
-0.000117663 5.00015e-07 0.00052833
0.00126144 -3.00591e-05 -2.05239e-05
-3.00591e-05 0.000322066 1.78936e-06
-2.05239e-05 1.78936e-06 0.000295286
0.00104465 7.45381e-05 -7.39346e-06
7.45381e-05 0.000225581 2.47418e-06
-7.39346e-06 2.47418e-06 0.000202086
0.0013397 1.05492e-06 -1.75264e-05
1.05492e-06 0.000378289 2.67378e-06
-1.75264e-05 2.67378e-06 0.000351424
0.00157367 -3.69266e-05 -5.62446e-05
-3.69266e-05 0.000386832 4.43762e-06
-5.62446e-05 4.43762e-06 0.00033891
0.00143892 -5.25646e-05 -5.13636e-05
-5.25646e-05 0.00035352 6.4699e-06
-5.13636e-05 6.4699e-06 0.000305231
0.00123534 -3.07808e-05 -4.13853e-05
-3.07808e-05 0.000285341 5.61413e-06
-4.13853e-05 5.61413e-06 0.000239744
0.00189391 -0.000126085 -1.2141e-05
-0.000126085 0.000523207 4.76422e-06
-1.2141e-05 4.76422e-06 0.000432401
0.00513291 -2.44887e-05 -2.501e-06
-2.44887e-05 0.00239674 -5.90197e-07
-2.501e-06 -5.90197e-07 0.00239218
0.00146366 -1.43421e-06 4.67504e-05
-1.43421e-06 0.000423212 -1.07707e-06
4.67504e-05 -1.07707e-06 0.000399217
0.00116099 5.93625e-06 -3.0095e-05
5.93625e-06 0.000145602 2.91746e-07
-3.0095e-05 2.91746e-07 9.12048e-05
0.00149741 -3.57738e-05 -1.65126e-05
-3.57738e-05 0.00034568 3.47352e-07
-1.65126e-05 3.47352e-07 0.000296506
0.00208109 7.36508e-05 4.31874e-05
7.36508e-05 0.000762203 -1.02065e-06
4.31874e-05 -1.02065e-06 0.000755926
0.00131255 2.20384e-05 -9.68006e-06
2.20384e-05 0.00034467 3.11636e-08
-9.68006e-06 3.11636e-08 0.000301846
0.00146974 -4.68092e-05 -1.60271e-05
-4.68092e-05 0.00034968 5.19728e-07
-1.60271e-05 5.19728e-07 0.00029885
0.00177509 -8.20061e-05 -5.29536e-06
-8.20061e-05 0.000348265 8.28407e-07
-5.29536e-06 8.28407e-07 0.000259031
0.00158252 -0.000111216 -2.13913e-06
-0.000111216 0.000407921 8.6991e-07
-2.13913e-06 8.6991e-07 0.000321406
0.00161316 -0.000108451 -1.39477e-06
-0.000108451 0.000330843 1.8477e-07
-1.39477e-06 1.8477e-07 0.000240076
0.00116652 -0.000117013 -7.15247e-08
-0.000117013 7.4276e-05 1.66159e-08
-7.15247e-08 1.66159e-08 -3.91083e-05
0.000747318 3.35471e-06 1.43791e-05
3.35471e-06 -8.68721e-05 -1.25184e-06
1.43791e-05 -1.25184e-06 -0.000146401
0.00143727 -2.17968e-05 2.11701e-05
-2.17968e-05 0.000312703 -2.31076e-06
2.11701e-05 -2.31076e-06 0.000260727
0.00162983 -1.2223e-05 9.11113e-06
-1.2223e-05 0.00023894 -1.56712e-06
9.11113e-06 -1.56712e-06 0.00014553
0.0015538 -6.06575e-05 8.80162e-06
-6.06575e-05 0.000223963 -1.47737e-06
8.80162e-06 -1.47737e-06 0.000135415
0.00153233 -9.5111e-05 9.12901e-06
-9.5111e-05 0.000239594 -2.96206e-06
9.12901e-06 -2.96206e-06 0.000147055
0.00181042 -9.59734e-05 2.84198e-06
-9.59734e-05 0.000281269 -2.82553e-07
2.84198e-06 -2.82553e-07 0.000173803
0.00290144 9.42456e-05 5.09654e-05
9.42456e-05 0.00119973 -2.79403e-06
5.09654e-05 -2.79403e-06 0.0012019
0.00123561 -0.000112841 4.10978e-06
-0.000112841 5.67918e-05 -1.77085e-06
4.10978e-06 -1.77085e-06 -5.66728e-05
0.000634928 5.11865e-05 3.07724e-06
5.11865e-05 -2.90702e-05 -5.24858e-06
3.07724e-06 -5.24858e-06 -6.97738e-05
0.000669717 -6.68523e-05 3.01291e-06
-6.68523e-05 -4.10467e-05 -1.56603e-06
3.01291e-06 -1.56603e-06 -0.000121958
0.00127104 -0.000128286 3.37686e-06
-0.000128286 0.000187395 -1.68612e-06
3.37686e-06 -1.68612e-06 7.2941e-05
0.00130607 -0.000131724 2.13287e-06
-0.000131724 0.000101896 -7.84384e-07
2.13287e-06 -7.84384e-07 -2.27476e-05
0.000574339 6.47858e-05 8.05501e-07
6.47858e-05 -6.82756e-05 -5.32889e-06
8.05501e-07 -5.32889e-06 -9.89896e-05
0.00076379 4.32543e-05 2.42411e-07
4.32543e-05 1.1887e-05 -2.75569e-06
2.42411e-07 -2.75569e-06 -4.73216e-05
0.00466425 1.00119e-05 -0.000110278
1.00119e-05 0.00216208 -5.43343e-06
-0.000110278 -5.43343e-06 0.00215712
0.00390904 -0.000119582 -7.46351e-05
-0.000119582 0.00179299 -5.18768e-06
-7.46351e-05 -5.18768e-06 0.00177673
0.000572091 7.51332e-05 -1.23144e-05
7.51332e-05 -0.000115756 -7.35084e-06
-1.23144e-05 -7.35084e-06 -0.000172787
0.00285423 -9.47307e-05 -4.98757e-05
-9.47307e-05 0.00117976 -2.767e-06
-4.98757e-05 -2.767e-06 0.00118137
0.000591407 -2.2403e-05 -3.0399e-06
-2.2403e-05 -5.67028e-05 -6.23124e-06
-3.0399e-06 -6.23124e-06 -9.78897e-05
0.000564157 5.69841e-05 -9.29757e-06
5.69841e-05 -8.05503e-05 -6.79368e-06
-9.29757e-06 -6.79368e-06 -0.000133177
0.000831708 7.62338e-05 -4.02392e-06
7.62338e-05 1.82485e-05 -1.80091e-06
-4.02392e-06 -1.80091e-06 -6.68278e-05
0.00266239 -8.3353e-05 1.30774e-06
-8.3353e-05 0.00107174 -1.52276e-07
1.30774e-06 -1.52276e-07 0.00107659
0.000653008 -5.73149e-05 7.13188e-08
-5.73149e-05 -2.89991e-05 1.31202e-07
7.13188e-08 1.31202e-07 -5.13038e-05
0.00150168 7.43797e-05 2.38869e-05
7.43797e-05 0.00035925 5.00604e-07
2.38869e-05 5.00604e-07 0.000307916
0.00133317 7.91652e-05 2.00647e-05
7.91652e-05 0.000314859 4.17306e-07
2.00647e-05 4.17306e-07 0.000264866
0.00105868 9.48975e-05 3.82141e-07
9.48975e-05 1.48493e-05 -1.58413e-07
3.82141e-07 -1.58413e-07 -8.18923e-05
0.00065956 -4.77532e-05 -1.96475e-07
-4.77532e-05 -2.02812e-05 1.25979e-07
-1.96475e-07 1.25979e-07 -5.4239e-05
0.000919607 9.07752e-05 2.11694e-07
9.07752e-05 3.5727e-05 3.89025e-07
2.11694e-07 3.89025e-07 -5.22604e-05
0.000832703 5.40688e-05 3.78419e-07
5.40688e-05 4.61746e-05 -2.77381e-07
3.78419e-07 -2.77381e-07 -3.73828e-05
0.000817825 0.000103839 -9.42543e-08
0.000103839 -2.07182e-05 -8.28956e-08
-9.42543e-08 -8.28956e-08 -0.000126986
0.000658034 -5.45136e-05 2.0824e-06
-5.45136e-05 -2.08679e-05 4.92586e-06
2.0824e-06 4.92586e-06 -4.94458e-05
0.000719978 -5.05554e-05 1.47641e-06
-5.05554e-05 -3.38453e-06 3.88912e-06
1.47641e-06 3.88912e-06 -1.96183e-05
0.000710535 -8.20396e-06 2.14169e-06
-8.20396e-06 -9.70414e-06 2.3807e-06
2.14169e-06 2.3807e-06 -6.64013e-05
0.00110718 8.18965e-05 8.70904e-06
8.18965e-05 -2.40412e-07 3.09418e-06
8.70904e-06 3.09418e-06 -9.74412e-05
0.00102688 9.89485e-05 6.36923e-06
9.89485e-05 4.93716e-05 3.51923e-06
6.36923e-06 3.51923e-06 -4.38394e-05
0.0012866 0.000118575 4.40305e-06
0.000118575 6.52407e-05 2.18654e-06
4.40305e-06 2.18654e-06 -5.35017e-05
0.0008528 3.80018e-05 2.89492e-06
3.80018e-05 6.39584e-05 2.43434e-06
2.89492e-06 2.43434e-06 -1.35471e-05
0.000918336 0.000110293 1.49073e-06
0.000110293 -1.01862e-05 6.61522e-07
1.49073e-06 6.61522e-07 -0.000117853
0.00107621 0.000113782 2.06466e-06
0.000113782 0.000154011 2.94788e-07
2.06466e-06 2.94788e-07 4.64888e-05
0.0010932 0.000127253 -1.57176e-06
0.000127253 0.000115627 -1.62373e-06
-1.57176e-06 -1.62373e-06 -6.96788e-07
0.00216824 -5.94675e-05 3.10501e-05
-5.94675e-05 0.000785532 3.15489e-06
3.10501e-05 3.15489e-06 0.000798536
0.00225074 -6.6973e-05 8.38729e-07
-6.6973e-05 0.00083802 -9.66986e-08
8.38729e-07 -9.66986e-08 0.000848535
0.00236088 -7.50062e-05 -3.59749e-05
-7.50062e-05 0.000904937 -2.8489e-06
-3.59749e-05 -2.8489e-06 0.000912767
0.000627336 5.22205e-05 2.05972e-06
5.22205e-05 -4.90051e-05 -4.46138e-06
2.05972e-06 -4.46138e-06 -7.23756e-05
0.00272494 8.50142e-05 4.50917e-05
8.50142e-05 0.00110028 -2.90924e-06
4.50917e-05 -2.90924e-06 0.00110533
0.00481904 4.2017e-05 -0.000119484
4.2017e-05 0.00223761 -5.2848e-06
-0.000119484 -5.2848e-06 0.00223333
0.00487943 -1.08825e-05 -0.000115604
-1.08825e-05 0.00226603 -2.68476e-06
-0.000115604 -2.68476e-06 0.00226243
0.000730862 4.03771e-05 -1.39585e-05
4.03771e-05 -7.52481e-05 -3.57447e-06
-1.39585e-05 -3.57447e-06 -0.000130802
0.000725564 1.78331e-05 -1.42235e-05
1.78331e-05 -9.19983e-05 -2.17114e-06
-1.42235e-05 -2.17114e-06 -0.000151096
0.00510901 -5.59842e-05 -0.000120374
-5.59842e-05 0.00238541 -3.31198e-07
-0.000120374 -3.31198e-07 0.00238034
0.00517448 3.59942e-06 -1.09913e-06
3.59942e-06 0.00241791 4.78337e-07
-1.09913e-06 4.78337e-07 0.00241336
0.000729486 -1.73921e-06 -1.50095e-07
-1.73921e-06 -9.94623e-05 -2.92966e-07
-1.50095e-07 -2.92966e-07 -0.000159409
0.0016145 1.26943e-05 2.68498e-05
1.26943e-05 0.00039565 4.56386e-07
2.68498e-05 4.56386e-07 0.000345378
0.00122306 2.33582e-05 1.58351e-07
2.33582e-05 1.21679e-05 -5.66529e-08
1.58351e-07 -5.66529e-08 -8.59814e-05
0.000674311 4.72213e-05 1.93349e-07
4.72213e-05 -0.000100255 -9.87514e-08
1.93349e-07 -9.87514e-08 -0.000155491
0.00118564 5.43712e-05 -8.26511e-08
5.43712e-05 1.49225e-05 -4.54818e-08
-8.26511e-08 -4.54818e-08 -8.03414e-05
0.000718096 -1.06533e-05 1.4548e-05
-1.06533e-05 -0.000107712 -2.87921e-07
1.4548e-05 -2.87921e-07 -0.000167935
0.0012426 8.33003e-06 9.56157e-06
8.33003e-06 1.04432e-05 3.96634e-07
9.56157e-06 3.96634e-07 -8.98886e-05
0.0012037 3.58721e-05 9.15942e-06
3.58721e-05 1.52466e-05 1.86966e-06
9.15942e-06 1.86966e-06 -8.0496e-05
0.00148449 2.41418e-05 4.20856e-06
2.41418e-05 6.70093e-05 1.02914e-06
4.20856e-06 1.02914e-06 -4.6676e-05
0.00115344 6.68096e-05 9.04553e-06
6.68096e-05 4.65674e-06 2.51743e-06
9.04553e-06 2.51743e-06 -9.11155e-05
0.00145658 6.1535e-05 4.10086e-06
6.1535e-05 7.51091e-05 1.00296e-06
4.10086e-06 1.00296e-06 -3.55217e-05
0.00515417 -2.03005e-05 -0.000130549
-2.03005e-05 0.0024072 -7.5449e-07
-0.000130549 -7.5449e-07 0.00240279
0.0012809 -2.12484e-05 -1.51948e-05
-2.12484e-05 0.000331229 1.12776e-06
-1.51948e-05 1.12776e-06 0.000303961
-7.09465e-05 -6.49758e-07 -1.33297e-05
-6.49758e-07 -0.000522155 2.39812e-06
-1.33297e-05 2.39812e-06 -0.000586712
0.00156841 -2.32594e-05 -5.70218e-05
-2.32594e-05 0.000380673 2.99916e-06
-5.70218e-05 2.99916e-06 0.000333662
0.00287384 0.000120868 -1.63995e-05
0.000120868 0.00120308 1.27207e-06
-1.63995e-05 1.27207e-06 0.0011963
0.00173263 -8.29846e-06 -3.37658e-05
-8.29846e-06 0.000559767 4.69384e-06
-3.37658e-05 4.69384e-06 0.000522612
0.00153338 -4.80842e-05 -5.43713e-05
-4.80842e-05 0.000380823 5.77089e-06
-5.43713e-05 5.77089e-06 0.000332162
0.00157378 -7.53097e-05 -1.69256e-05
-7.53097e-05 0.000239387 3.05059e-06
-1.69256e-05 3.05059e-06 0.000149226
0.00191416 -0.000118451 -1.23228e-05
-0.000118451 0.000491918 4.27724e-06
-1.23228e-05 4.27724e-06 0.000401492
0.00179702 -0.000122419 -9.5129e-06
-0.000122419 0.000519021 4.06185e-06
-9.5129e-06 4.06185e-06 0.000430347
0.00116472 -0.000116196 -3.38158e-06
-0.000116196 7.32385e-05 1.41588e-06
-3.38158e-06 1.41588e-06 -3.99557e-05
0.000724249 5.64918e-06 9.61761e-09
5.64918e-06 -9.98708e-05 -2.91736e-07
9.61761e-09 -2.91736e-07 -0.000159305
0.00150766 -1.96649e-05 -1.85824e-05
-1.96649e-05 0.000347746 1.19672e-07
-1.85824e-05 1.19672e-07 0.000297744
0.00121514 -1.10592e-05 -3.47883e-06
-1.10592e-05 1.58905e-05 5.77295e-08
-3.47883e-06 5.77295e-08 -8.03466e-05
0.00179295 -6.2887e-05 -2.56376e-06
-6.2887e-05 0.000352409 3.62033e-07
-2.56376e-06 3.62033e-07 0.000265314
0.00289321 9.28613e-05 -8.72277e-07
9.28613e-05 0.00119659 -1.85978e-07
-8.72277e-07 -1.85978e-07 0.00119849
0.00112877 3.03058e-05 2.16033e-06
3.03058e-05 0.000234922 3.03999e-07
2.16033e-06 3.03999e-07 0.000197976
0.00111787 -7.64847e-05 2.91353e-07
-7.64847e-05 0.000196052 -1.41129e-07
2.91353e-07 -1.41129e-07 0.000114992
0.00152981 -9.40468e-05 -2.61341e-06
-9.40468e-05 0.000239934 4.05324e-07
-2.61341e-06 4.05324e-07 0.000147249
0.00150201 -8.78403e-05 -2.01291e-06
-8.78403e-05 0.000113479 5.22833e-07
-2.01291e-06 5.22833e-07 4.83746e-06
0.00100273 -0.000114567 -4.79742e-07
-0.000114567 4.6525e-05 -1.71348e-07
-4.79742e-07 -1.71348e-07 -6.7039e-05
0.00148106 -0.000119947 1.61251e-08
-0.000119947 0.000187462 -1.54638e-07
1.61251e-08 -1.54638e-07 7.46714e-05
0.00128801 -0.000130206 8.68002e-08
-0.000130206 9.24736e-05 1.46665e-07
8.68002e-08 1.46665e-07 -3.18311e-05
0.000610002 6.30402e-05 -9.4228e-07
6.30402e-05 -4.82071e-05 -1.13192e-08
-9.4228e-07 -1.13192e-08 -7.91171e-05
0.000733791 2.79279e-05 -1.94094e-07
2.79279e-05 -6.42719e-06 1.95002e-07
-1.94094e-07 1.95002e-07 -6.48452e-05
0.00122573 -5.74194e-06 9.3782e-06
-5.74194e-06 3.08166e-06 -1.41963e-06
9.3782e-06 -1.41963e-06 -9.68853e-05
0.00155377 -3.10106e-05 8.47506e-06
-3.10106e-05 0.000218033 -1.56549e-06
8.47506e-06 -1.56549e-06 0.000128959
0.00189406 -1.77249e-05 2.92588e-06
-1.77249e-05 0.000295945 -7.94243e-07
2.92588e-06 -7.94243e-07 0.000186476
0.0012314 -5.99345e-05 4.80222e-06
-5.99345e-05 -3.98453e-05 -7.54981e-07
4.80222e-06 -7.54981e-07 -0.000147994
0.00157887 -0.000113682 4.02205e-06
-0.000113682 0.000186832 -8.15163e-07
4.02205e-06 -8.15163e-07 7.48169e-05
0.00172625 -9.2485e-05 1.03294e-06
-9.2485e-05 0.000181535 4.03627e-07
1.03294e-06 4.03627e-07 7.0591e-05
0.000553712 6.13874e-05 1.29948e-06
6.13874e-05 -7.51249e-05 -5.58396e-06
1.29948e-06 -5.58396e-06 -0.000111411
0.0014256 -0.000125587 1.71721e-06
-0.000125587 0.000100692 -1.13594e-06
1.71721e-06 -1.13594e-06 -2.18686e-05
0.000673508 -3.38081e-05 2.06994e-06
-3.38081e-05 -3.0322e-05 -1.39584e-06
2.06994e-06 -1.39584e-06 -0.000107763
0.000555157 -8.92075e-05 2.34296e-06
-8.92075e-05 -0.000135147 -2.13826e-06
2.34296e-06 -2.13826e-06 -0.00024171
0.00181165 -0.000165081 1.31199e-06
-0.000165081 0.00043821 -4.9918e-07
1.31199e-06 -4.9918e-07 0.00030966
0.00158756 -0.000147554 -2.19846e-07
-0.000147554 0.00021005 7.82199e-07
-2.19846e-07 7.82199e-07 8.34977e-05
0.000820546 -1.51877e-06 1.42604e-06
-1.51877e-06 4.58118e-05 -2.85853e-06
1.42604e-06 -2.85853e-06 -2.36513e-05
0.000751036 4.07689e-05 9.3168e-07
4.07689e-05 3.42931e-07 -2.09718e-06
9.3168e-07 -2.09718e-06 -5.00247e-05
0.000837743 -3.13243e-05 3.89694e-07
-3.13243e-05 5.1869e-05 -9.04361e-07
3.89694e-07 -9.04361e-07 -3.40362e-05
0.000634153 6.63364e-05 -1.30167e-05
6.63364e-05 -0.000107134 -6.24738e-06
-1.30167e-05 -6.24738e-06 -0.000164081
0.00260848 -8.44558e-05 -4.28978e-05
-8.44558e-05 0.00104345 -2.7609e-06
-4.28978e-05 -2.7609e-06 0.00104828
0.000623379 -5.22925e-05 -2.05412e-06
-5.22925e-05 -4.64297e-05 -4.06535e-06
-2.05412e-06 -4.06535e-06 -6.75384e-05
0.000537419 7.34808e-05 -1.11839e-05
7.34808e-05 -0.00010996 -7.36716e-06
-1.11839e-05 -7.36716e-06 -0.000164438
0.0010426 9.54715e-05 -7.70718e-06
9.54715e-05 7.43511e-06 -4.12939e-06
-7.70718e-06 -4.12939e-06 -8.93361e-05
0.000548148 -6.6045e-05 -5.58409e-07
-6.6045e-05 -7.42912e-05 -5.69612e-06
-5.58409e-07 -5.69612e-06 -0.000111528
0.000738617 4.99227e-05 -2.56568e-06
4.99227e-05 -5.10546e-06 -2.20376e-06
-2.56568e-06 -2.20376e-06 -8.71786e-05
0.000869205 8.70367e-05 -4.38357e-06
8.70367e-05 9.55614e-06 -1.80505e-06
-4.38357e-06 -1.80505e-06 -7.79154e-05
0.000757844 0.000100743 -2.58912e-06
0.000100743 -5.41439e-05 -9.6504e-08
-2.58912e-06 -9.6504e-08 -0.000160796
0.00061658 -6.42643e-05 7.81182e-07
-6.42643e-05 -4.15038e-05 5.38056e-08
7.81182e-07 5.38056e-08 -7.11552e-05
0.00068946 -4.72646e-05 -1.03657e-07
-4.72646e-05 -2.01996e-05 1.10128e-07
-1.03657e-07 1.10128e-07 -3.57872e-05
0.000732465 -3.70264e-05 1.66537e-07
-3.70264e-05 -4.96608e-07 2.35915e-07
1.66537e-07 2.35915e-07 -5.48834e-05
0.00112273 8.37533e-05 3.10847e-07
8.37533e-05 8.60101e-06 -3.10032e-07
3.10847e-07 -3.10032e-07 -8.88578e-05
0.000982982 9.70293e-05 4.10303e-07
9.70293e-05 2.74351e-05 8.42656e-08
4.10303e-07 8.42656e-08 -6.54427e-05
0.00128409 0.000119391 2.42414e-07
0.000119391 6.4349e-05 6.24394e-08
2.42414e-07 6.24394e-08 -5.4583e-05
0.000809258 3.48675e-05 -9.56913e-08
3.48675e-05 4.24424e-05 -3.55225e-08
-9.56913e-08 -3.55225e-08 -3.4689e-05
0.00107366 0.000118174 -1.17746e-07
0.000118174 7.30902e-05 -1.01324e-07
-1.17746e-07 -1.01324e-07 -3.48842e-05
0.00102171 0.000110406 2.76517e-07
0.000110406 0.000125178 -4.05043e-07
2.76517e-07 -4.05043e-07 1.79133e-05
0.000949578 0.000121032 -8.04058e-07
0.000121032 3.90774e-05 6.52525e-07
-8.04058e-07 6.52525e-07 -7.73133e-05
0.000732043 -4.233e-05 2.29606e-06
-4.233e-05 -7.34909e-06 3.39892e-06
2.29606e-06 3.39892e-06 -1.86763e-05
0.000748195 1.03486e-05 2.46549e-06
1.03486e-05 6.15665e-06 2.11896e-06
2.46549e-06 2.11896e-06 -5.97924e-05
0.000723371 -4.45669e-05 3.96395e-07
-4.45669e-05 -8.85921e-06 2.16131e-06
3.96395e-07 2.16131e-06 -5.34416e-05
0.000848031 2.37276e-05 5.14129e-07
2.37276e-05 6.3448e-05 6.91732e-07
5.14129e-07 6.91732e-07 -1.69698e-05
0.00133802 0.000100258 5.37994e-06
0.000100258 4.44178e-05 1.31e-06
5.37994e-06 1.31e-06 -7.22654e-05
0.00121304 0.000125057 3.19191e-06
0.000125057 9.23559e-05 2.27887e-06
3.19191e-06 2.27887e-06 -2.22978e-05
0.00141528 0.000130363 2.06803e-06
0.000130363 8.51998e-05 2.04378e-06
2.06803e-06 2.04378e-06 -4.35664e-05
0.00107736 8.22927e-05 2.03447e-06
8.22927e-05 0.000171584 1.39107e-06
2.03447e-06 1.39107e-06 7.23825e-05
0.0012028 0.000133119 -5.252e-07
0.000133119 0.000113268 5.07543e-07
-5.252e-07 5.07543e-07 -2.88106e-06
0.00106539 0.00012587 2.75749e-07
0.00012587 0.00014867 -1.57462e-06
2.75749e-07 -1.57462e-06 2.32403e-05
0.000707433 0.000111437 -2.04417e-07
0.000111437 -0.000112213 -1.23926e-06
-2.04417e-07 -1.23926e-06 -0.000231532
0.000793264 -2.22943e-05 1.16507e-06
-2.22943e-05 5.31276e-06 1.61893e-06
1.16507e-06 1.61893e-06 -2.35078e-05
0.000735104 -3.23528e-05 1.61749e-06
-3.23528e-05 -2.12159e-05 3.30105e-06
1.61749e-06 3.30105e-06 -2.68493e-05
0.00209626 -5.25143e-05 2.69119e-05
-5.25143e-05 0.000737582 3.34518e-06
2.69119e-05 3.34518e-06 0.000752997
0.00213954 -5.93361e-05 1.0517e-06
-5.93361e-05 0.000768799 -9.63946e-08
1.0517e-06 -9.63946e-08 0.000782084
0.00219596 -6.63073e-05 -3.17752e-05
-6.63073e-05 0.000807557 -3.0038e-06
-3.17752e-05 -3.0038e-06 0.000818478
0.000662382 4.35766e-05 2.50589e-06
4.35766e-05 -3.97615e-05 -3.95841e-06
2.50589e-06 -3.95841e-06 -5.79889e-05
0.00253774 7.6667e-05 3.90232e-05
7.6667e-05 0.00099477 -3.07095e-06
3.90232e-05 -3.07095e-06 0.00100229
0.000648676 5.75554e-05 -1.35083e-07
5.75554e-05 -3.56795e-05 7.83387e-08
-1.35083e-07 7.83387e-08 -6.02786e-05
0.00274607 8.37308e-05 -9.52309e-07
8.37308e-05 0.00111139 -1.42818e-07
-9.52309e-07 -1.42818e-07 0.00111645
0.000686928 5.16659e-05 -1.35281e-05
5.16659e-05 -9.346e-05 -4.74344e-06
-1.35281e-05 -4.74344e-06 -0.000149154
0.000733313 2.96735e-05 -1.39145e-05
2.96735e-05 -7.88777e-05 -2.87974e-06
-1.39145e-05 -2.87974e-06 -0.000136209
0.00117006 5.52818e-05 -8.93728e-06
5.52818e-05 7.29284e-06 -2.16481e-06
-8.93728e-06 -2.16481e-06 -8.81723e-05
0.00122291 2.51528e-05 -9.25106e-06
2.51528e-05 1.25453e-05 -1.6559e-06
-9.25106e-06 -1.6559e-06 -8.56288e-05
0.000742257 2.37973e-06 -1.46285e-05
2.37973e-06 -9.25316e-05 -1.18513e-06
-1.46285e-05 -1.18513e-06 -0.000152267
0.00518879 -5.26579e-05 -0.00012748
-5.26579e-05 0.0024251 9.26674e-07
-0.00012748 9.26674e-07 0.00242093
0.000738524 -1.49776e-06 1.07117e-07
-1.49776e-06 -9.74378e-05 -2.43548e-07
1.07117e-07 -2.43548e-07 -0.000157489
0.00124772 1.23842e-05 3.52269e-08
1.23842e-05 1.33294e-05 -3.6694e-07
3.52269e-08 -3.6694e-07 -8.7e-05
0.00119552 3.64053e-05 -1.67647e-08
3.64053e-05 1.16471e-05 -3.3489e-08
-1.67647e-08 -3.3489e-08 -8.42379e-05
0.0014999 2.38854e-05 6.14431e-08
2.38854e-05 7.48831e-05 1.54493e-08
6.14431e-08 1.54493e-08 -3.88199e-05
0.00116281 6.92874e-05 5.46509e-08
6.92874e-05 1.03076e-05 -1.46773e-07
5.46509e-08 -1.46773e-07 -8.58692e-05
0.00145616 6.3814e-05 -1.92328e-08
6.3814e-05 7.5262e-05 6.45606e-08
-1.92328e-08 6.45606e-08 -3.55334e-05
0.00125304 -6.89498e-07 9.5573e-06
-6.89498e-07 1.33692e-05 -2.96949e-07
9.5573e-06 -2.96949e-07 -8.73086e-05
0.00151059 1.58809e-05 4.28399e-06
1.58809e-05 6.81322e-05 1.3908e-07
4.28399e-06 1.3908e-07 -4.76812e-05
0.00147391 4.24503e-05 4.19246e-06
4.24503e-05 7.48584e-05 9.85252e-07
4.19246e-06 9.85252e-07 -3.66044e-05
0.00162354 2.20902e-05 1.23158e-06
2.20902e-05 9.71252e-05 5.25564e-07
1.23158e-06 5.25564e-07 -1.76894e-05
0.00140972 8.17204e-05 4.14178e-06
8.17204e-05 5.94667e-05 8.04781e-07
4.14178e-06 8.04781e-07 -5.30446e-05
0.00159943 6.7151e-05 1.31415e-06
6.7151e-05 0.000102532 5.25383e-07
1.31415e-06 5.25383e-07 -1.0753e-05
0.000731867 9.19528e-06 -1.397e-05
9.19528e-06 -9.6729e-05 5.84878e-07
-1.397e-05 5.84878e-07 -0.000156241
0.00158255 -6.47613e-06 -5.84126e-05
-6.47613e-06 0.00038526 2.1034e-06
-5.84126e-05 2.1034e-06 0.000337315
0.000801078 -8.31941e-06 -9.82789e-06
-8.31941e-06 -0.00020697 1.9467e-06
-9.82789e-06 1.9467e-06 -0.000306074
0.00200722 -6.38205e-05 -1.49081e-05
-6.38205e-05 0.000467288 2.1048e-06
-1.49081e-05 2.1048e-06 0.000381817
0.00289816 9.13279e-05 -5.50577e-05
9.13279e-05 0.00120031 2.97439e-06
-5.50577e-05 2.97439e-06 0.001202
0.00168268 2.78436e-05 -2.83717e-05
2.78436e-05 0.000533614 3.58296e-06
-2.83717e-05 3.58296e-06 0.000500147
0.00157874 -9.36807e-05 -6.43647e-06
-9.36807e-05 0.000439756 2.54427e-06
-6.43647e-06 2.54427e-06 0.000358083
0.00152349 -9.2965e-05 -1.39197e-05
-9.2965e-05 0.000238226 3.81727e-06
-1.39197e-05 3.81727e-06 0.00014544
0.00118754 -7.94833e-05 -5.90231e-06
-7.94833e-05 -5.7518e-05 8.01601e-07
-5.90231e-06 8.01601e-07 -0.000167319
0.00173482 -0.000127407 -5.02133e-06
-0.000127407 0.000322439 1.69556e-06
-5.02133e-06 1.69556e-06 0.000210302
0.000728326 -0.000100396 -2.84338e-06
-0.000100396 -9.74334e-05 1.20136e-06
-2.84338e-06 1.20136e-06 -0.00021007
0.00127509 -0.000128891 -1.28088e-06
-0.000128891 8.5677e-05 8.80375e-07
-1.28088e-06 8.80375e-07 -3.8292e-05
0.00064198 5.29479e-05 -2.31268e-06
5.29479e-05 -3.21794e-05 5.15484e-06
-2.31268e-06 5.15484e-06 -6.20621e-05
0.00071294 1.38725e-05 -1.71316e-06
1.38725e-05 -1.84626e-05 2.47118e-06
-1.71316e-06 2.47118e-06 -7.71206e-05
0.00103826 -1.8805e-06 -4.22426e-07
-1.8805e-06 -9.66131e-05 -3.0408e-07
-4.22426e-07 -3.0408e-07 -0.000197705
0.00158238 -3.2917e-05 -2.86277e-06
-3.2917e-05 0.000232199 2.3226e-07
-2.86277e-06 2.3226e-07 0.000143187
0.00178489 -1.47322e-05 -2.06473e-06
-1.47322e-05 0.000235942 4.14825e-07
-2.06473e-06 4.14825e-07 0.000125834
0.00155512 -6.48444e-05 1.06919e-06
-6.48444e-05 0.000134345 -2.00567e-07
1.06919e-06 -2.00567e-07 2.79989e-05
0.000603068 4.7542e-05 4.41045e-08
4.7542e-05 -5.19209e-05 1.1319e-07
4.41045e-08 1.1319e-07 -8.63875e-05
0.000813786 -4.49226e-05 -2.05107e-07
-4.49226e-05 4.44955e-05 -2.85782e-08
-2.05107e-07 -2.85782e-08 -3.41411e-05
0.000709186 -9.72567e-05 8.77537e-07
-9.72567e-05 -5.16325e-05 -7.72698e-07
8.77537e-07 -7.72698e-07 -0.000157243
0.0017193 -0.000116622 -9.81035e-07
-0.000116622 0.000261373 2.07247e-07
-9.81035e-07 2.07247e-07 0.000149215
0.00157281 -8.74122e-05 -6.5775e-07
-8.74122e-05 9.73483e-05 3.93669e-07
-6.5775e-07 3.93669e-07 -1.36527e-05
0.00144212 -0.000146697 -1.21086e-06
-0.000146697 0.000241522 6.08208e-07
-1.21086e-06 6.08208e-07 0.000112697
0.00140303 -0.000124244 -7.30993e-08
-0.000124244 8.88885e-05 -1.90663e-07
-7.30993e-08 -1.90663e-07 -3.35261e-05
0.00137809 -0.000138127 4.58139e-07
-0.000138127 0.00010095 6.81197e-07
4.58139e-07 6.81197e-07 -2.4729e-05
0.000768038 -5.15945e-06 -2.5393e-07
-5.15945e-06 1.67351e-05 -1.08135e-07
-2.5393e-07 -1.08135e-07 -5.26494e-05
0.000791284 -5.89641e-06 -5.44655e-07
-5.89641e-06 2.19484e-05 -2.6135e-07
-5.44655e-07 -2.6135e-07 -6.03437e-05
0.000742174 3.38268e-05 4.41774e-07
3.38268e-05 -5.59507e-06 2.61726e-07
4.41774e-07 2.61726e-07 -5.54755e-05
0.00191963 -4.11506e-08 3.00506e-06
-4.11506e-08 0.000293 -5.66162e-07
3.00506e-06 -5.66162e-07 0.000181074
0.00161648 -3.68102e-05 3.64064e-06
-3.68102e-05 0.000162769 -7.94002e-07
3.64064e-06 -7.94002e-07 5.57391e-05
0.00182095 -1.3824e-05 9.63956e-07
-1.3824e-05 0.000208248 -2.11783e-07
9.63956e-07 -2.11783e-07 9.34995e-05
0.00158197 -5.89179e-05 1.54562e-06
-5.89179e-05 9.67164e-05 -5.06154e-07
1.54562e-06 -5.06154e-07 -1.33329e-05
0.00143254 -0.000112157 2.45967e-06
-0.000112157 4.63808e-05 -2.98507e-07
2.45967e-06 -2.98507e-07 -7.23817e-05
0.00180445 -8.54368e-05 -6.33203e-07
-8.54368e-05 0.000185157 7.65179e-07
-6.33203e-07 7.65179e-07 7.61887e-05
0.000769261 -2.24138e-05 2.30191e-06
-2.24138e-05 2.32387e-05 -2.06278e-06
2.30191e-06 -2.06278e-06 -5.33176e-05
0.00142116 -0.000128022 -8.27486e-07
-0.000128022 5.63772e-05 -6.1538e-07
-8.27486e-07 -6.1538e-07 -6.46107e-05
0.000893864 -0.000100164 1.23433e-06
-0.000100164 6.87885e-05 -2.11239e-07
1.23433e-06 -2.11239e-07 -2.8385e-05
0.000698546 -0.000109663 2.27318e-06
-0.000109663 -7.75651e-05 -2.80127e-06
2.27318e-06 -2.80127e-06 -0.000201707
0.00160838 -0.000162864 1.7447e-06
-0.000162864 0.000296138 5.76484e-07
1.7447e-06 5.76484e-07 0.000159241
0.0019159 -0.00016446 -2.64705e-06
-0.00016446 0.000357783 2.42751e-06
-2.64705e-06 2.42751e-06 0.000237073
0.000765016 3.07777e-05 1.24882e-06
3.07777e-05 1.71003e-06 -1.85974e-06
1.24882e-06 -1.85974e-06 -4.19992e-05
0.000873292 -4.88868e-05 1.10929e-06
-4.88868e-05 6.31303e-05 -1.68689e-07
1.10929e-06 -1.68689e-07 -2.36371e-05
0.000758305 2.35263e-06 4.5456e-07
2.35263e-06 4.44578e-06 -1.44796e-06
4.5456e-07 -1.44796e-06 -7.23065e-05
0.000956713 -9.03519e-05 -2.61029e-07
-9.03519e-05 0.000119885 8.44416e-07
-2.61029e-07 8.44416e-07 2.3915e-05
0.00113561 8.58975e-05 -8.99879e-06
8.58975e-05 1.6005e-05 -3.74083e-06
-8.99879e-06 -3.74083e-06 -8.1738e-05
0.000657724 -4.47298e-05 -2.50722e-06
-4.47298e-05 -3.74076e-05 -3.50115e-06
-2.50722e-06 -3.50115e-06 -5.24874e-05
0.000569368 -6.37544e-05 -9.60877e-07
-6.37544e-05 -6.79217e-05 -4.94954e-06
-9.60877e-07 -4.94954e-06 -9.69914e-05
0.000752614 -5.07492e-05 -6.76361e-08
-5.07492e-05 1.18805e-05 -2.51494e-06
-6.76361e-08 -2.51494e-06 -4.32358e-05
0.000934127 9.49065e-05 -5.50044e-06
9.49065e-05 3.19343e-06 -3.41887e-06
-5.50044e-06 -3.41887e-06 -8.93866e-05
0.00129161 0.000120396 -4.23388e-06
0.000120396 6.86131e-05 -2.13287e-06
-4.23388e-06 -2.13287e-06 -5.0492e-05
0.00075268 2.75293e-05 -2.11955e-06
2.75293e-05 1.47675e-05 -2.16579e-06
-2.11955e-06 -2.16579e-06 -6.24646e-05
0.000983716 0.000107919 -2.27436e-06
0.000107919 0.000105088 -1.4713e-06
-2.27436e-06 -1.4713e-06 -2.01759e-06
0.00121981 0.000125667 -1.88149e-06
0.000125667 0.00015165 -8.65706e-07
-1.88149e-06 -8.65706e-07 4.33842e-05
0.000790173 0.000113938 -1.76761e-06
0.000113938 -4.57472e-05 9.88801e-07
-1.76761e-06 9.88801e-07 -0.000162126
0.000704264 -4.09334e-05 8.64757e-08
-4.09334e-05 -2.20964e-05 3.34467e-08
8.64757e-08 3.34467e-08 -3.32231e-05
0.000769997 9.55119e-06 9.30434e-08
9.55119e-06 2.17619e-05 -4.32635e-08
9.30434e-08 -4.32635e-08 -4.61169e-05
0.00073747 -4.75848e-05 -1.81024e-07
-4.75848e-05 -1.24367e-06 2.96187e-07
-1.81024e-07 2.96187e-07 -4.5852e-05
0.00085485 9.50978e-06 2.97285e-07
9.50978e-06 6.61301e-05 -2.0553e-07
2.97285e-07 -2.0553e-07 -1.32114e-05
0.00137782 0.000102289 1.05211e-06
0.000102289 6.46926e-05 8.52295e-08
1.05211e-06 8.52295e-08 -5.22717e-05
0.00116868 0.000123877 7.64969e-08
0.000123877 7.06644e-05 5.34101e-08
7.64969e-08 5.34101e-08 -4.39732e-05
0.00141716 0.000130531 8.13786e-08
0.000130531 8.66325e-05 5.40299e-07
8.13786e-08 5.40299e-07 -4.22351e-05
0.000990882 8.38593e-05 3.57466e-07
8.38593e-05 0.000125924 2.99384e-07
3.57466e-07 2.99384e-07 2.78708e-05
0.0013901 0.000142255 -6.70761e-07
0.000142255 0.000213876 -1.25386e-06
-6.70761e-07 -1.25386e-06 9.74586e-05
0.00107785 0.000127009 3.09743e-07
0.000127009 0.000154682 -9.43525e-07
3.09743e-07 -9.43525e-07 2.84926e-05
0.000865041 0.000119734 -1.79592e-06
0.000119734 -2.48438e-05 -6.44536e-08
-1.79592e-06 -6.44536e-08 -0.00014137
0.000736838 -3.71917e-05 1.99951e-06
-3.71917e-05 -1.31351e-05 3.31504e-06
1.99951e-06 3.31504e-06 -2.12326e-05
0.00075345 -4.20656e-05 7.26969e-07
-4.20656e-05 8.47466e-08 1.79622e-06
7.26969e-07 1.79622e-06 -3.74864e-05
0.000978861 4.34652e-05 1.36702e-06
4.34652e-05 0.000125743 6.31945e-07
1.36702e-06 6.31945e-07 3.70863e-05
0.000815367 8.41466e-06 3.67347e-07
8.41466e-06 3.99696e-05 1.16844e-06
3.67347e-07 1.16844e-06 -2.79239e-05
0.000906406 7.13925e-05 7.63412e-07
7.13925e-05 0.00010517 -1.58299e-07
7.63412e-07 -1.58299e-07 9.87114e-06
0.00147086 0.000105554 3.30421e-06
0.000105554 6.25093e-05 2.12697e-07
3.30421e-06 2.12697e-07 -6.03922e-05
0.00128884 0.000137178 7.60419e-07
0.000137178 9.36892e-05 2.57107e-06
7.60419e-07 2.57107e-06 -3.07488e-05
0.00156123 0.000140176 -3.94693e-07
0.000140176 0.000131641 1.78163e-06
-3.94693e-07 1.78163e-06 2.24079e-07
0.00114043 0.000124474 2.81572e-06
0.000124474 0.000217481 2.96624e-06
2.81572e-06 2.96624e-06 9.57879e-05
0.00122423 0.000141372 1.05341e-06
0.000141372 0.000103736 8.38569e-07
1.05341e-06 8.38569e-07 -1.55358e-05
0.000292449 9.00518e-05 1.58534e-06
9.00518e-05 -0.000288515 -2.30063e-06
1.58534e-06 -2.30063e-06 -0.00042242
0.000786229 -2.66344e-05 1.33994e-06
-2.66344e-05 5.59529e-06 1.57556e-06
1.33994e-06 1.57556e-06 -2.49765e-05
0.000803425 1.90826e-06 4.33578e-07
1.90826e-06 2.22079e-05 6.1559e-07
4.33578e-07 6.1559e-07 -2.61099e-05
0.000804943 -1.64615e-05 8.41283e-07
-1.64615e-05 7.97489e-06 1.70424e-06
8.41283e-07 1.70424e-06 -1.96162e-05
0.000793689 -2.11658e-05 1.37365e-07
-2.11658e-05 6.03149e-06 -1.18347e-09
1.37365e-07 -1.18347e-09 -2.28911e-05
0.00126763 -3.4548e-05 1.7809e-06
-3.4548e-05 0.000263859 2.00757e-06
1.7809e-06 2.00757e-06 0.000263204
0.00100007 -3.53793e-05 7.85826e-07
-3.53793e-05 0.000123869 -1.92774e-08
7.85826e-07 -1.92774e-08 0.000119783
0.000978234 -3.10914e-05 2.2058e-05
-3.10914e-05 0.000116591 6.09553e-06
2.2058e-05 6.09553e-06 0.000128508
0.00208073 -5.23611e-05 1.17201e-06
-5.23611e-05 0.000727906 -8.92701e-08
1.17201e-06 -8.92701e-08 0.000743586
0.00211358 -5.90188e-05 -2.81967e-05
-5.90188e-05 0.00075349 -3.18718e-06
-2.81967e-05 -3.18718e-06 0.000767099
0.00067964 3.83982e-05 2.31574e-06
3.83982e-05 -3.86718e-05 -3.77983e-06
2.31574e-06 -3.77983e-06 -5.33742e-05
0.00241089 6.89169e-05 3.45509e-05
6.89169e-05 0.000919269 -3.28147e-06
3.45509e-05 -3.28147e-06 0.000929247
0.000681642 4.60435e-05 2.07653e-08
4.60435e-05 -2.88558e-05 4.44622e-08
2.07653e-08 4.44622e-08 -4.75869e-05
0.00258847 7.62573e-05 -1.10604e-06
7.62573e-05 0.00102191 -1.25082e-07
-1.10604e-06 -1.25082e-07 0.00102938
0.000670368 6.06057e-05 1.45235e-07
6.06057e-05 -2.27006e-05 5.0541e-06
1.45235e-07 5.0541e-06 -4.8205e-05
0.00278994 8.29789e-05 -5.09599e-05
8.29789e-05 0.00113488 3.11305e-06
-5.09599e-05 3.11305e-06 0.00113982
0.00117631 7.18628e-05 -9.2881e-06
7.18628e-05 1.79267e-05 -2.75039e-06
-9.2881e-06 -2.75039e-06 -7.86193e-05
0.00119993 3.98696e-05 -8.89728e-06
3.98696e-05 1.45887e-05 -1.87998e-06
-8.89728e-06 -1.87998e-06 -8.15129e-05
0.00144755 6.21932e-05 -4.0698e-06
6.21932e-05 7.11659e-05 -8.51274e-07
-4.0698e-06 -8.51274e-07 -3.96008e-05
0.00151688 2.39052e-05 -4.34342e-06
2.39052e-05 8.35572e-05 -9.81156e-07
-4.34342e-06 -9.81156e-07 -3.01649e-05
0.0012492 1.50867e-05 -9.62448e-06
1.50867e-05 1.43683e-05 -1.16125e-06
-9.62448e-06 -1.16125e-06 -8.59908e-05
0.000733734 7.5005e-06 -1.44967e-05
7.5005e-06 -9.96245e-05 -2.01305e-07
-1.44967e-05 -2.01305e-07 -0.000159809
0.00124936 1.26618e-06 1.29826e-08
1.26618e-06 1.12937e-05 -9.60899e-08
1.29826e-08 -9.60899e-08 -8.94304e-05
0.00152067 1.76671e-05 -4.54772e-08
1.76671e-05 7.34175e-05 -3.426e-07
-4.54772e-08 -3.426e-07 -4.2413e-05
0.00147398 3.97379e-05 9.61152e-08
3.97379e-05 7.52897e-05 -8.52004e-09
9.61152e-08 -8.52004e-09 -3.61247e-05
0.00160596 2.19538e-05 -1.01501e-07
2.19538e-05 8.56655e-05 1.10704e-07
-1.01501e-07 1.10704e-07 -2.90428e-05
0.00142518 8.25164e-05 -1.70668e-07
8.25164e-05 6.6917e-05 5.89109e-08
-1.70668e-07 5.89109e-08 -4.56938e-05
0.00158617 6.63114e-05 -7.84336e-10
6.63114e-05 9.5787e-05 1.11058e-07
-7.84336e-10 1.11058e-07 -1.74545e-05
0.00152221 6.07103e-06 4.54808e-06
6.07103e-06 7.13056e-05 -1.90757e-07
4.54808e-06 -1.90757e-07 -4.47033e-05
0.00159698 1.71565e-05 8.24601e-07
1.71565e-05 6.45345e-05 3.14855e-07
8.24601e-07 3.14855e-07 -5.19564e-05
0.0015873 4.36169e-05 1.37417e-06
4.36169e-05 8.74362e-05 2.65694e-07
1.37417e-06 2.65694e-07 -2.66116e-05
0.00178894 2.06953e-05 2.12525e-07
2.06953e-05 0.000149483 1.35434e-07
2.12525e-07 1.35434e-07 3.92863e-05
0.00155407 8.28782e-05 1.30099e-06
8.28782e-05 8.5013e-05 7.24005e-08
1.30099e-06 7.24005e-08 -3.02016e-05
0.00171142 5.83537e-05 -1.48708e-06
5.83537e-05 0.000127352 2.2794e-07
-1.48708e-06 2.2794e-07 1.90092e-05
0.000842799 -1.36265e-08 -9.30825e-06
-1.36265e-08 -0.000200312 6.49985e-07
-9.30825e-06 6.49985e-07 -0.000302579
0.00161478 -3.66082e-05 -1.43046e-05
-3.66082e-05 0.000248192 1.94304e-06
-1.43046e-05 1.94304e-06 0.000159268
0.00166715 -8.2335e-06 -6.72207e-06
-8.2335e-06 0.000171809 1.53569e-06
-6.72207e-06 1.53569e-06 6.10963e-05
0.00188277 -6.99907e-05 -4.31031e-06
-6.99907e-05 0.000310642 5.12906e-07
-4.31031e-06 5.12906e-07 0.000206084
0.000652374 4.04068e-05 -4.17787e-06
4.04068e-05 -2.49466e-05 5.02321e-06
-4.17787e-06 5.02321e-06 -6.00083e-05
0.000891474 -5.16828e-05 -3.44299e-06
-5.16828e-05 8.58938e-05 1.88665e-06
-3.44299e-06 1.88665e-06 6.72252e-06
0.00087457 -0.00010617 -7.90236e-07
-0.00010617 3.76475e-05 4.33862e-07
-7.90236e-07 4.33862e-07 -6.70827e-05
0.00185697 -0.000119472 -5.93295e-06
-0.000119472 0.000334562 1.56681e-06
-5.93295e-06 1.56681e-06 0.000222256
0.00142091 -8.23151e-05 -2.09019e-06
-8.23151e-05 1.38465e-05 1.40472e-08
-2.09019e-06 1.40472e-08 -9.7191e-05
0.00137706 -0.000122753 -1.97609e-06
-0.000122753 7.52555e-05 7.9129e-07
-1.97609e-06 7.9129e-07 -4.6998e-05
0.00107027 -0.00012824 -2.28048e-06
-0.00012824 4.36889e-05 1.54773e-06
-2.28048e-06 1.54773e-06 -8.54186e-05
0.00116347 -0.000128363 1.33951e-06
-0.000128363 -1.07789e-05 -5.22172e-08
1.33951e-06 -5.22172e-08 -0.000135559
0.000727195 -7.37506e-06 -2.42723e-06
-7.37506e-06 -7.32085e-06 2.26824e-06
-2.42723e-06 2.26824e-06 -7.57516e-05
0.000764771 1.11775e-06 -1.06727e-06
1.11775e-06 7.18261e-06 4.21434e-07
-1.06727e-06 4.21434e-07 -7.46722e-05
0.000732589 2.69675e-05 -8.51824e-07
2.69675e-05 -1.17138e-05 2.26704e-06
-8.51824e-07 2.26704e-06 -6.12184e-05
0.00171796 8.79213e-07 -2.04758e-06
8.79213e-07 0.000183485 1.17346e-07
-2.04758e-06 1.17346e-07 6.97934e-05
0.0016351 -4.15003e-05 -1.03028e-06
-4.15003e-05 0.000171776 5.51193e-08
-1.03028e-06 5.51193e-08 6.47022e-05
0.00165446 -1.09349e-05 -7.39649e-07
-1.09349e-05 0.000118778 4.07198e-07
-7.39649e-07 4.07198e-07 3.79219e-06
0.00170376 -5.84038e-05 3.71397e-08
-5.84038e-05 0.000160838 -1.3746e-07
3.71397e-08 -1.3746e-07 5.11547e-05
0.000791606 -2.7911e-05 1.41225e-07
-2.7911e-05 3.33607e-05 -2.3577e-07
1.41225e-07 -2.3577e-07 -4.27504e-05
0.000998422 -0.000106562 -2.15217e-07
-0.000106562 0.000122543 3.70989e-07
-2.15217e-07 3.70989e-07 2.46067e-05
0.000807192 -0.000113861 6.75183e-07
-0.000113861 -1.56891e-05 -1.16341e-06
6.75183e-07 -1.16341e-06 -0.00013826
0.00159951 -0.000116692 4.33169e-07
-0.000116692 0.000138248 -3.94132e-07
4.33169e-07 -3.94132e-07 1.97994e-05
0.00166537 -8.16497e-05 -8.54938e-08
-8.16497e-05 0.000110519 7.38144e-08
-8.54938e-08 7.38144e-08 1.79494e-06
0.00131145 -0.000148586 -1.34027e-07
-0.000148586 0.000141986 4.15863e-07
-1.34027e-07 4.15863e-07 4.44007e-06
0.00146981 -0.000128394 -2.12335e-07
-0.000128394 8.07761e-05 -4.14523e-09
-2.12335e-07 -4.14523e-09 -4.00303e-05
0.00169938 -0.000155197 1.21035e-06
-0.000155197 0.000242313 1.10549e-06
1.21035e-06 1.10549e-06 0.00012337
0.000921905 -5.42644e-05 -2.76883e-07
-5.42644e-05 9.11585e-05 -1.90184e-07
-2.76883e-07 -1.90184e-07 3.23062e-06
0.00093254 -9.08219e-05 -3.06944e-07
-9.08219e-05 0.000107247 3.74677e-07
-3.06944e-07 3.74677e-07 9.86348e-06
0.000762939 2.54702e-05 1.66667e-07
2.54702e-05 4.36395e-07 8.80484e-08
1.66667e-07 8.80484e-08 -4.31511e-05
0.000745726 2.29136e-05 -1.55366e-07
2.29136e-05 -5.91088e-06 -4.96194e-07
-1.55366e-07 -4.96194e-07 -7.91339e-05
0.00165935 -9.32883e-07 1.65383e-06
-9.32883e-07 0.000107984 -5.7268e-07
1.65383e-06 -5.7268e-07 -8.96856e-06
0.00175752 -3.61316e-05 1.00934e-06
-3.61316e-05 0.000187982 3.57886e-08
1.00934e-06 3.57886e-08 7.63361e-05
0.00174575 -1.23276e-05 3.78402e-07
-1.23276e-05 0.000137677 5.27049e-09
3.78402e-07 5.27049e-09 2.51767e-05
0.00162825 -5.18069e-05 -3.26837e-07
-5.18069e-05 8.53436e-05 -1.08634e-07
-3.26837e-07 -1.08634e-07 -2.09651e-05
0.0015046 -0.000109719 -1.09796e-06
-0.000109719 3.96536e-05 -4.26344e-08
-1.09796e-06 -4.26344e-08 -7.61356e-05
0.00168043 -7.59644e-05 3.44126e-07
-7.59644e-05 9.80413e-05 5.70006e-07
3.44126e-07 5.70006e-07 -7.82528e-06
0.000893855 -9.60167e-05 1.29967e-06
-9.60167e-05 7.36398e-05 2.08278e-07
1.29967e-06 2.08278e-07 -1.79215e-05
0.00143624 -0.00012956 -3.51186e-06
-0.00012956 3.57145e-05 -2.66761e-07
-3.51186e-06 -2.66761e-07 -7.53803e-05
0.000599806 -9.62388e-05 -1.04457e-07
-9.62388e-05 -8.67128e-05 -1.58973e-06
-1.04457e-07 -1.58973e-06 -0.00019783
0.00113055 -0.000140373 2.54488e-06
-0.000140373 0.000131362 -1.89629e-06
2.54488e-06 -1.89629e-06 -8.55925e-06
0.00141694 -0.000162016 1.55183e-06
-0.000162016 0.00017252 2.89486e-06
1.55183e-06 2.89486e-06 3.10949e-05
0.00214756 -0.000177503 -3.9103e-07
-0.000177503 0.000450474 1.08913e-06
-3.9103e-07 1.08913e-06 0.000331594
0.000775497 2.07897e-05 1.6421e-06
2.07897e-05 3.15577e-06 -1.82551e-06
1.6421e-06 -1.82551e-06 -3.69377e-05
0.000719468 8.57847e-06 4.15966e-07
8.57847e-06 -1.70619e-05 -1.34356e-06
4.15966e-07 -1.34356e-06 -8.72369e-05
0.000935021 -0.000107908 2.24085e-07
-0.000107908 0.000105013 1.11e-06
2.24085e-07 1.11e-06 5.15069e-06
0.000947064 -6.6077e-05 9.17122e-07
-6.6077e-05 0.000112282 -1.97817e-07
9.17122e-07 -1.97817e-07 2.44033e-05
0.000927109 -0.000107268 -7.18883e-07
-0.000107268 0.000107966 1.773e-06
-7.18883e-07 1.773e-06 5.47986e-06
0.000678565 -3.97489e-05 -2.28639e-06
-3.97489e-05 -3.56757e-05 -3.37136e-06
-2.28639e-06 -3.37136e-06 -4.66322e-05
0.00140097 0.000103757 -3.52992e-06
0.000103757 7.63979e-05 -1.19781e-06
-3.52992e-06 -1.19781e-06 -4.0852e-05
0.000746182 -5.01913e-05 -6.64183e-07
-5.01913e-05 3.55315e-06 -1.80925e-06
-6.64183e-07 -1.80925e-06 -4.11308e-05
0.000810352 -8.01927e-06 -5.82489e-07
-8.01927e-06 4.35669e-05 -2.517e-06
-5.82489e-07 -2.517e-06 -2.347e-05
0.000865743 -3.85068e-06 4.12174e-07
-3.85068e-06 7.08144e-05 -9.30263e-07
4.12174e-07 -9.30263e-07 -7.34695e-06
0.00114702 0.000123786 -3.21607e-06
0.000123786 6.08178e-05 -2.24324e-06
-3.21607e-06 -2.24324e-06 -5.38742e-05
0.00141495 0.000130548 -1.81493e-06
0.000130548 8.59781e-05 -9.91087e-07
-1.81493e-06 -9.91087e-07 -4.29949e-05
0.000915422 9.68782e-05 -1.40602e-06
9.68782e-05 8.87262e-05 -7.2139e-07
-1.40602e-06 -7.2139e-07 -1.00936e-05
0.00112644 0.000130319 -2.05733e-06
0.000130319 0.000180333 -1.38256e-06
-2.05733e-06 -1.38256e-06 5.30839e-05
0.00158272 0.000151628 -1.40352e-06
0.000151628 0.000317203 -2.15824e-06
-1.40352e-06 -2.15824e-06 0.000200511
0.001039 0.000128779 -3.23488e-06
0.000128779 7.12613e-05 1.99199e-06
-3.23488e-06 1.99199e-06 -4.25526e-05
0.000713658 -3.62472e-05 8.56891e-08
-3.62472e-05 -2.54401e-05 2.7803e-08
8.56891e-08 2.7803e-08 -3.34192e-05
0.000759725 -4.1904e-05 -1.69595e-07
-4.1904e-05 3.30578e-06 9.14829e-08
-1.69595e-07 9.14829e-08 -3.41472e-05
0.000931022 4.97262e-05 4.84223e-07
4.97262e-05 0.000101302 -7.58459e-08
4.84223e-07 -7.58459e-08 1.23697e-05
0.00082465 -1.42088e-05 -1.39336e-07
-1.42088e-05 4.3517e-05 1.21977e-07
-1.39336e-07 1.21977e-07 -2.3013e-05
0.000874012 5.54878e-05 5.04363e-07
5.54878e-05 8.53008e-05 -2.42172e-07
5.04363e-07 -2.42172e-07 -9.36172e-06
0.00150575 0.000107142 1.2897e-06
0.000107142 8.04623e-05 1.80061e-07
1.2897e-06 1.80061e-07 -4.27744e-05
0.00127961 0.000137554 2.88729e-08
0.000137554 8.96717e-05 3.18889e-07
2.88729e-08 3.18889e-07 -3.4816e-05
0.00150313 0.000139318 9.47091e-07
0.000139318 0.000102048 8.99248e-07
9.47091e-07 8.99248e-07 -2.98709e-05
0.00102532 0.000117888 1.09076e-06
0.000117888 0.000158317 1.21614e-06
1.09076e-06 1.21614e-06 3.72075e-05
0.00137826 0.000148096 9.91477e-07
0.000148096 0.000187014 -1.26012e-06
9.91477e-07 -1.26012e-06 6.76945e-05
0.000808979 0.000118883 -1.75617e-06
0.000118883 -1.72633e-05 -9.50486e-07
-1.75617e-06 -9.50486e-07 -0.00015247
0.000775598 -3.28981e-05 1.26498e-06
-3.28981e-05 5.32694e-06 1.61098e-06
1.26498e-06 1.61098e-06 -2.78936e-05
0.000817648 -1.67784e-06 4.6663e-07
-1.67784e-06 3.26999e-05 1.01013e-06
4.6663e-07 1.01013e-06 -2.34034e-05
0.00105391 0.00011215 1.0013e-07
0.00011215 0.000180182 -3.94595e-08
1.0013e-07 -3.94595e-08 7.03199e-05
0.000875651 9.13229e-06 4.63052e-07
9.13229e-06 7.95485e-05 4.6366e-07
4.63052e-07 4.6366e-07 -1.91211e-06
0.00105515 5.54645e-05 -3.10346e-07
5.54645e-05 0.000182775 -1.86081e-06
-3.10346e-07 -1.86081e-06 7.91385e-05
0.0016075 0.000106198 -1.18681e-06
0.000106198 9.93055e-05 -1.48588e-06
-1.18681e-06 -1.48588e-06 -2.18356e-05
0.00137896 0.00015052 4.35847e-07
0.00015052 0.000110339 2.56785e-06
4.35847e-07 2.56785e-06 -1.76597e-05
0.00137861 0.000147793 -4.68845e-06
0.000147793 2.28183e-05 2.13465e-07
-4.68845e-06 2.13465e-07 -0.000100572
0.000840359 0.000113323 4.52997e-08
0.000113323 6.51262e-05 2.25882e-06
4.52997e-08 2.25882e-06 -7.67002e-05
0.00124971 0.000154975 3.40734e-06
0.000154975 0.000143279 -6.51156e-07
3.40734e-06 -6.51156e-07 6.47623e-06
0.00078468 -2.55876e-05 3.27547e-08
-2.55876e-05 5.17183e-06 1.44261e-09
3.27547e-08 1.44261e-09 -2.54361e-05
0.000670893 -1.86457e-05 7.6835e-07
-1.86457e-05 -5.13991e-05 1.22684e-06
7.6835e-07 1.22684e-06 -9.96745e-05
0.000751664 -2.07708e-05 -6.83376e-07
-2.07708e-05 -8.07543e-06 -2.71659e-08
-6.83376e-07 -2.71659e-08 -5.54251e-05
0.00100243 1.37481e-05 1.10746e-06
1.37481e-05 0.000138326 -1.85437e-07
1.10746e-06 -1.85437e-07 7.86647e-05
0.000829492 1.17096e-05 1.67864e-06
1.17096e-05 3.1252e-05 7.39472e-07
1.67864e-06 7.39472e-07 -1.5195e-05
0.000807915 -7.78164e-06 8.64362e-07
-7.78164e-06 6.4581e-06 1.70218e-06
8.64362e-07 1.70218e-06 -2.06405e-05
0.00080116 -1.69193e-05 -1.90782e-08
-1.69193e-05 6.14828e-06 1.98156e-08
-1.90782e-08 1.98156e-08 -2.14972e-05
0.00126257 -2.80156e-05 1.22851e-06
-2.80156e-05 0.00025499 1.99385e-06
1.22851e-06 1.99385e-06 0.000256155
0.000791159 -2.04075e-05 -1.11593e-06
-2.04075e-05 5.10259e-06 -1.73679e-06
-1.11593e-06 -1.73679e-06 -2.39178e-05
0.00128344 -3.25925e-05 -4.02899e-06
-3.25925e-05 0.000271911 -1.15148e-06
-4.02899e-06 -1.15148e-06 0.000271582
0.000971606 -2.63274e-05 1.89211e-05
-2.63274e-05 0.000104518 6.13155e-06
1.89211e-05 6.13155e-06 0.000118549
0.00127129 -3.63186e-05 -9.3195e-06
-3.63186e-05 0.000272441 -3.06715e-06
-9.3195e-06 -3.06715e-06 0.000270187
0.00148811 -3.83807e-05 1.72356e-05
-3.83807e-05 0.000395774 1.96427e-06
1.72356e-05 1.96427e-06 0.000410622
0.00206703 -5.20864e-05 -2.48076e-05
-5.20864e-05 0.000719214 -3.36203e-06
-2.48076e-05 -3.36203e-06 0.000735177
0.000689957 3.46319e-05 1.91942e-06
3.46319e-05 -4.01027e-05 -3.69354e-06
1.91942e-06 -3.69354e-06 -5.19969e-05
0.000696243 3.9374e-05 -1.20333e-07
3.9374e-05 -2.96306e-05 2.91734e-08
-1.20333e-07 2.91734e-08 -4.45305e-05
0.00233586 6.17226e-05 3.05461e-05
6.17226e-05 0.000870839 -3.48612e-06
3.05461e-05 -3.48612e-06 0.000883091
0.00245303 6.90362e-05 -1.05522e-06
6.90362e-05 0.000942564 -1.16879e-07
-1.05522e-06 -1.16879e-07 0.00095234
0.000699533 4.94381e-05 -1.32833e-06
4.94381e-05 -1.83902e-05 4.28025e-06
-1.32833e-06 4.28025e-06 -3.78072e-05
0.0026213 7.50597e-05 -4.51637e-05
7.50597e-05 0.00103936 3.15556e-06
-4.51637e-05 3.15556e-06 0.00104693
0.00144189 8.34576e-05 -4.50148e-06
8.34576e-05 7.49847e-05 -7.02753e-07
-4.50148e-06 -7.02753e-07 -3.77329e-05
0.00147672 4.05198e-05 -4.14192e-06
4.05198e-05 7.71307e-05 -9.78012e-07
-4.14192e-06 -9.78012e-07 -3.44198e-05
0.00157121 6.6494e-05 -1.16472e-06
6.6494e-05 8.81609e-05 -2.94982e-07
-1.16472e-06 -2.94982e-07 -2.50876e-05
0.00158591 2.17282e-05 -1.3447e-06
2.17282e-05 7.29188e-05 -3.37662e-07
-1.3447e-06 -3.37662e-07 -4.16799e-05
0.001535 2.10299e-05 -4.25466e-06
2.10299e-05 8.09171e-05 -8.06633e-07
-4.25466e-06 -8.06633e-07 -3.49613e-05
0.00125715 6.156e-06 -9.53242e-06
6.156e-06 1.50375e-05 3.59492e-08
-9.53242e-06 3.59492e-08 -8.56608e-05
0.00152937 1.01456e-05 6.38956e-08
1.01456e-05 7.50756e-05 -4.85177e-08
6.38956e-08 -4.85177e-08 -4.09986e-05
0.00160065 8.44755e-06 -5.07588e-08
8.44755e-06 6.59818e-05 1.27966e-08
-5.07588e-08 1.27966e-08 -5.07645e-05
0.00160431 4.28815e-05 4.14713e-08
4.28815e-05 9.62941e-05 -1.00598e-07
4.14713e-08 -1.00598e-07 -1.77709e-05
0.00175005 2.12423e-05 4.11518e-08
2.12423e-05 0.000128573 4.77102e-08
4.11518e-08 4.77102e-08 1.92143e-05
0.0015588 8.40188e-05 -2.89816e-07
8.40188e-05 8.69049e-05 3.14907e-07
-2.89816e-07 3.14907e-07 -2.84442e-05
0.00162052 5.70252e-05 1.44951e-07
5.70252e-05 7.90486e-05 1.22876e-07
1.44951e-07 1.22876e-07 -2.87154e-05
0.00162347 1.03468e-07 1.76155e-06
1.03468e-07 7.90435e-05 -9.92916e-08
1.76155e-06 -9.92916e-08 -3.83769e-05
0.0017562 2.19568e-05 -2.60105e-08
2.19568e-05 0.000114058 3.20635e-07
-2.60105e-08 3.20635e-07 1.3983e-06
0.00161992 3.56375e-05 -6.91517e-07
3.56375e-05 6.50325e-05 -5.11719e-08
-6.91517e-07 -5.11719e-08 -4.26215e-05
0.00183246 2.35173e-05 -3.20838e-08
2.35173e-05 0.000151275 6.64127e-08
-3.20838e-08 6.64127e-08 4.68298e-05
0.00170429 7.84261e-05 -1.44631e-06
7.84261e-05 0.000126217 -3.17873e-07
-1.44631e-06 -3.17873e-07 1.57168e-05
0.00163662 4.824e-05 -3.85256e-07
4.824e-05 6.70057e-05 1.53525e-08
-3.85256e-07 1.53525e-08 -3.43027e-05
0.00151808 1.26391e-06 -6.16015e-06
1.26391e-06 7.4772e-05 7.25556e-07
-6.16015e-06 7.25556e-07 -4.06669e-05
0.00164072 -4.30872e-05 -5.70062e-06
-4.30872e-05 0.000174098 1.10278e-06
-5.70062e-06 1.10278e-06 6.70411e-05
0.00149251 -1.0173e-05 -2.18464e-06
-1.0173e-05 3.15743e-05 7.93138e-07
-2.18464e-06 7.93138e-07 -8.36816e-05
0.00182176 -5.8391e-05 -1.67695e-06
-5.8391e-05 0.000222988 1.34835e-07
-1.67695e-06 1.34835e-07 0.000113655
0.000814805 -3.25964e-05 -2.73809e-06
-3.25964e-05 4.41225e-05 1.91553e-06
-2.73809e-06 1.91553e-06 -3.1829e-05
0.00109978 -0.000112747 -1.75929e-06
-0.000112747 0.00017472 9.99087e-07
-1.75929e-06 9.99087e-07 7.60199e-05
0.000904486 -0.000117239 -6.9434e-07
-0.000117239 4.01986e-05 5.98407e-07
-6.9434e-07 5.98407e-07 -8.07076e-05
0.00177039 -0.000121269 -2.00376e-06
-0.000121269 0.000232259 -1.34943e-07
-2.00376e-06 -1.34943e-07 0.000114112
0.00151833 -7.77654e-05 -1.76471e-07
-7.77654e-05 3.16719e-05 -5.61166e-07
-1.76471e-07 -5.61166e-07 -7.67952e-05
0.0015361 -0.00012934 7.10931e-07
-0.00012934 0.000114175 6.02562e-07
7.10931e-07 6.02562e-07 -6.44892e-06
0.001009 -0.000134122 -1.60586e-06
-0.000134122 -1.51703e-05 3.54877e-07
-1.60586e-06 3.54877e-07 -0.000153348
0.00144597 -0.000144573 3.29496e-06
-0.000144573 0.000107687 -1.79954e-06
3.29496e-06 -1.79954e-06 -9.39894e-06
0.000940647 -4.52964e-05 -1.33254e-06
-4.52964e-05 0.000100641 -1.57642e-07
-1.33254e-06 -1.57642e-07 1.35528e-05
0.000906925 -6.45994e-05 -7.27206e-07
-6.45994e-05 8.73639e-05 -2.95865e-07
-7.27206e-07 -2.95865e-07 -7.03984e-06
0.000754297 2.3094e-05 -1.21817e-06
2.3094e-05 -4.16241e-06 1.99341e-06
-1.21817e-06 1.99341e-06 -4.77485e-05
0.000743527 3.78563e-05 -1.11261e-07
3.78563e-05 -8.77043e-06 4.02122e-07
-1.11261e-07 4.02122e-07 -7.99204e-05
0.00165471 -3.51141e-07 -7.80517e-08
-3.51141e-07 0.000104707 -1.78142e-07
-7.80517e-08 -1.78142e-07 -1.22738e-05
0.00177922 -3.3733e-05 -7.19218e-07
-3.3733e-05 0.000198793 3.23291e-07
-7.19218e-07 3.23291e-07 8.68674e-05
0.00167234 -1.19895e-05 -4.34704e-07
-1.19895e-05 0.000100284 2.26938e-07
-4.34704e-07 2.26938e-07 -1.18078e-05
0.00161687 -5.17186e-05 5.62295e-08
-5.17186e-05 8.26602e-05 -5.6084e-08
5.62295e-08 -5.6084e-08 -2.39613e-05
0.00096911 -8.28889e-05 -2.77932e-07
-8.28889e-05 0.000110886 1.63441e-07
-2.77932e-07 1.63441e-07 2.05102e-05
0.000709255 -0.000101176 5.57774e-07
-0.000101176 -2.78208e-05 -6.01482e-07
5.57774e-07 -6.01482e-07 -0.000137439
0.00114069 -0.000139847 9.81436e-08
-0.000139847 0.000139212 -1.04204e-07
9.81436e-08 -1.04204e-07 -1.24989e-06
0.00164492 -0.000113867 -5.13952e-07
-0.000113867 0.000114641 -2.89764e-07
-5.13952e-07 -2.89764e-07 -1.44455e-06
0.00165133 -7.55197e-05 3.08467e-07
-7.55197e-05 7.98169e-05 -4.09762e-07
3.08467e-07 -4.09762e-07 -2.56342e-05
0.00139083 -0.000159192 -3.74213e-07
-0.000159192 0.000159394 8.23474e-07
-3.74213e-07 8.23474e-07 1.72249e-05
0.00151603 -0.000131793 -4.79333e-07
-0.000131793 7.58166e-05 4.47917e-07
-4.79333e-07 4.47917e-07 -3.53453e-05
0.00168867 -0.000158108 1.51386e-06
-0.000158108 0.000214636 -1.25609e-06
1.51386e-06 -1.25609e-06 0.000100573
0.000998364 -0.000111598 5.267e-08
-0.000111598 0.000138068 -1.82592e-08
5.267e-08 -1.82592e-08 3.79658e-05
0.000958324 -0.000100739 1.48719e-07
-0.000100739 0.000122119 2.07698e-07
1.48719e-07 2.07698e-07 2.07604e-05
0.000917214 -4.05039e-05 -2.56523e-07
-4.05039e-05 9.41287e-05 -6.96463e-08
-2.56523e-07 -6.96463e-08 8.0473e-06
0.000655748 2.65635e-05 -2.19583e-07
2.65635e-05 -6.1192e-05 1.66309e-08
-2.19583e-07 1.66309e-08 -0.000102506
0.000728432 2.53196e-05 9.08721e-08
2.53196e-05 -1.59972e-05 -3.41397e-07
9.08721e-08 -3.41397e-07 -8.30896e-05
0.00170746 -3.85947e-06 7.22813e-07
-3.85947e-06 9.54928e-05 -2.97379e-07
7.22813e-07 -2.97379e-07 -1.71198e-05
0.001665 -2.19962e-05 2.72594e-07
-2.19962e-05 9.16346e-05 -6.68274e-08
2.72594e-07 -6.68274e-08 -1.75764e-05
0.00164675 -5.53945e-05 3.57404e-07
-5.53945e-05 7.22895e-05 2.45854e-07
3.57404e-07 2.45854e-07 -2.73488e-05
0.00148409 -9.76009e-05 -5.79885e-07
-9.76009e-05 -2.89155e-06 -6.75928e-07
-5.79885e-07 -6.75928e-07 -0.0001104
0.000902912 -0.000108311 -1.45678e-07
-0.000108311 8.35678e-05 9.42109e-07
-1.45678e-07 9.42109e-07 -1.82444e-05
0.00185606 -0.000152767 -9.60988e-07
-0.000152767 0.000212054 -8.2935e-07
-9.60988e-07 -8.2935e-07 0.000106672
0.000216816 -7.80551e-05 2.63258e-07
-7.80551e-05 -0.000285204 -3.2649e-06
2.63258e-07 -3.2649e-06 -0.000405509
0.00125489 -0.000156523 3.58111e-06
-0.000156523 0.000172561 -1.16573e-06
3.58111e-06 -1.16573e-06 1.44243e-05
0.00172442 -0.000180428 2.11777e-06
-0.000180428 0.000285924 2.34039e-06
2.11777e-06 2.34039e-06 0.000142572
0.000550605 2.22703e-05 1.25166e-06
2.22703e-05 -0.00012112 -2.53495e-06
1.25166e-06 -2.53495e-06 -0.000160669
0.000925425 9.98222e-07 1.37596e-06
9.98222e-07 9.24371e-05 -7.36012e-07
1.37596e-06 -7.36012e-07 2.9517e-05
0.000950945 -2.96679e-05 -2.27371e-08
-2.96679e-05 0.000110463 -1.98643e-07
-2.27371e-08 -1.98643e-07 3.27496e-05
0.000944631 -0.000108909 -7.11137e-07
-0.000108909 0.000110771 1.93447e-06
-7.11137e-07 1.93447e-06 9.11475e-06
0.0010352 -6.69516e-05 3.38069e-07
-6.69516e-05 0.000160362 1.00297e-06
3.38069e-07 1.00297e-06 6.55251e-05
0.000895996 -0.000105758 -3.54819e-07
-0.000105758 8.39526e-05 1.55752e-06
-3.54819e-07 1.55752e-06 -1.92302e-05
0.000691978 -3.54085e-05 -1.90283e-06
-3.54085e-05 -3.6909e-05 -3.34794e-06
-1.90283e-06 -3.34794e-06 -4.47839e-05
0.000764929 -4.03663e-05 -1.46462e-06
-4.03663e-05 5.68542e-06 -1.47311e-06
-1.46462e-06 -1.47311e-06 -3.14759e-05
0.0015486 0.00010906 -9.63145e-07
0.00010906 0.000102501 1.09834e-07
-9.63145e-07 1.09834e-07 -2.1079e-05
0.000844434 -3.87947e-05 3.09723e-07
-3.87947e-05 5.26191e-05 -1.01998e-06
3.09723e-07 -1.01998e-06 -1.25809e-05
0.000846227 4.40171e-05 -4.9863e-07
4.40171e-05 5.45928e-05 -4.19267e-07
-4.9863e-07 -4.19267e-07 -3.25318e-05
0.000833091 4.08824e-05 5.56079e-07
4.08824e-05 6.05598e-05 7.69501e-08
5.56079e-07 7.69501e-08 -3.32862e-05
0.00126811 0.000137757 -1.31994e-06
0.000137757 8.44765e-05 -2.11768e-06
-1.31994e-06 -2.11768e-06 -4.00438e-05
0.00144194 0.000138225 7.43863e-07
0.000138225 7.09096e-05 -2.27287e-07
7.43863e-07 -2.27287e-07 -6.14869e-05
0.000903214 0.000110808 -1.77263e-07
0.000110808 9.45587e-05 -4.67702e-07
-1.77263e-07 -4.67702e-07 -2.57808e-05
0.00131665 0.000147085 -1.18592e-06
0.000147085 0.000249028 1.07486e-06
-1.18592e-06 1.07486e-06 0.000113045
0.00152785 0.000154749 -2.23645e-06
0.000154749 0.000268056 -2.33175e-06
-2.23645e-06 -2.33175e-06 0.000148681
0.000776113 -3.20099e-05 -2.4395e-08
-3.20099e-05 5.85186e-06 2.36993e-08
-2.4395e-08 2.36993e-08 -2.73377e-05
0.000818404 -2.4274e-05 -3.12361e-07
-2.4274e-05 3.25658e-05 2.26203e-07
-3.12361e-07 2.26203e-07 -2.31188e-05
0.000996612 0.000108998 -5.29387e-07
0.000108998 0.000150604 -1.92016e-07
-5.29387e-07 -1.92016e-07 4.15329e-05
0.000867278 -1.53848e-06 2.55768e-07
-1.53848e-06 7.20298e-05 6.16277e-09
2.55768e-07 6.16277e-09 -7.53834e-06
0.000934991 6.4816e-05 1.02154e-07
6.4816e-05 0.000121608 -7.42944e-07
1.02154e-07 -7.42944e-07 1.57012e-05
0.00157504 0.00010795 -6.67107e-07
0.00010795 8.36198e-05 -5.72973e-07
-6.67107e-07 -5.72973e-07 -3.8216e-05
0.00137714 0.000150301 9.72008e-07
0.000150301 0.000109252 2.95001e-07
9.72008e-07 2.95001e-07 -1.89131e-05
0.00145775 0.000148605 9.49462e-07
0.000148605 6.09666e-05 1.6215e-06
9.49462e-07 1.6215e-06 -5.97006e-05
0.000818275 0.000112415 7.9681e-07
0.000112415 5.39377e-05 1.9275e-06
7.9681e-07 1.9275e-06 -8.66074e-05
0.00128197 0.000156578 -7.98335e-07
0.000156578 0.000161438 -1.12333e-06
-7.98335e-07 -1.12333e-06 2.12555e-05
0.000814219 -5.57442e-06 7.6268e-07
-5.57442e-06 2.78799e-05 7.86716e-07
7.6268e-07 7.86716e-07 -2.17338e-05
0.00073404 -2.24094e-05 -5.0708e-07
-2.24094e-05 -6.54292e-06 1.28882e-06
-5.0708e-07 1.28882e-06 -7.67832e-05
0.000985386 0.000114378 -1.08019e-06
0.000114378 0.000150654 -1.42863e-06
-1.08019e-06 -1.42863e-06 2.44911e-05
0.000761914 2.46006e-05 -2.62661e-07
2.46006e-05 2.32313e-05 -2.64563e-07
-2.62661e-07 -2.64563e-07 -7.34094e-05
0.00105179 8.63025e-05 -5.80226e-07
8.63025e-05 0.000178519 -2.10299e-06
-5.80226e-07 -2.10299e-06 6.47526e-05
0.00158918 0.000106882 -2.38184e-06
0.000106882 4.09112e-05 -1.7791e-07
-2.38184e-06 -1.7791e-07 -5.98812e-05
0.0018556 0.000189113 -1.3359e-06
0.000189113 0.000344572 -1.36968e-07
-1.3359e-06 -1.36968e-07 0.000208367
0.000855242 0.000129367 -4.92302e-07
0.000129367 -0.000296002 -2.06805e-07
-4.92302e-07 -2.06805e-07 -0.000406927
0.00181648 0.000171706 3.45212e-06
0.000171706 0.000559625 3.26509e-06
3.45212e-06 3.26509e-06 0.000403162
0.000198933 0.000109009 -5.60507e-07
0.000109009 -0.000412725 -4.83617e-07
-5.60507e-07 -4.83617e-07 -0.000564054
0.000784643 -2.38634e-05 -1.50178e-06
-2.38634e-05 5.57029e-06 -1.562e-06
-1.50178e-06 -1.562e-06 -2.50547e-05
0.000751947 -1.33031e-05 1.51137e-07
-1.33031e-05 -7.06514e-06 5.03834e-07
1.51137e-07 5.03834e-07 -5.52581e-05
0.000746966 -3.73383e-05 -9.69544e-08
-3.73383e-05 -4.65806e-06 8.40728e-07
-9.69544e-08 8.40728e-07 -6.47097e-05
0.000702523 -3.77427e-05 -8.41658e-07
-3.77427e-05 -3.50359e-05 -5.12798e-07
-8.41658e-07 -5.12798e-07 -8.25801e-05
0.000831233 -5.97266e-06 2.07234e-07
-5.97266e-06 3.21319e-05 -3.08344e-08
2.07234e-07 -3.08344e-08 -1.41919e-05
0.000859605 -2.09989e-05 2.32116e-07
-2.09989e-05 5.69609e-05 -3.6247e-07
2.32116e-07 -3.6247e-07 -2.39838e-07
0.000963316 6.16035e-06 1.27661e-07
6.16035e-06 0.000118653 -5.24338e-07
1.27661e-07 -5.24338e-07 5.43579e-05
0.000765899 -3.72884e-05 2.64103e-07
-3.72884e-05 8.5547e-06 1.82836e-07
2.64103e-07 1.82836e-07 -4.96446e-05
0.000857568 -8.73224e-06 3.45888e-07
-8.73224e-06 4.11533e-05 6.36309e-07
3.45888e-07 6.36309e-07 -3.30014e-06
0.000798895 -3.97384e-07 8.71172e-07
-3.97384e-07 6.56373e-07 1.56177e-06
8.71172e-07 1.56177e-06 -2.69106e-05
0.000802644 -1.16908e-05 -1.53343e-07
-1.16908e-05 3.84037e-06 9.4469e-09
-1.53343e-07 9.4469e-09 -2.33296e-05
0.00126406 -2.08037e-05 1.10266e-06
-2.08037e-05 0.000251134 1.93439e-06
1.10266e-06 1.93439e-06 0.000253202
0.000796863 -1.72149e-05 -8.18346e-07
-1.72149e-05 4.02747e-06 -1.758e-06
-8.18346e-07 -1.758e-06 -2.36644e-05
0.00128075 -2.62459e-05 -3.38533e-06
-2.62459e-05 0.000264589 -1.15753e-06
-3.38533e-06 -1.15753e-06 0.000265899
0.000969118 -2.17621e-05 1.52776e-05
-2.17621e-05 9.71501e-05 6.16717e-06
1.52776e-05 6.16717e-06 0.000112607
0.00129846 -3.11649e-05 -7.91038e-06
-3.11649e-05 0.000279588 -4.34052e-06
-7.91038e-06 -4.34052e-06 0.000279467
0.000916488 -2.75961e-05 6.20077e-06
-2.75961e-05 7.46874e-05 2.34494e-06
6.20077e-06 2.34494e-06 8.84556e-05
0.00198862 -4.98466e-05 -6.17118e-06
-4.98466e-05 0.000669735 -1.50129e-06
-6.17118e-06 -1.50129e-06 0.000686928
0.000702719 3.08978e-05 1.39139e-06
3.08978e-05 -3.9602e-05 -3.60867e-06
1.39139e-06 -3.60867e-06 -4.8889e-05
0.000705664 3.51996e-05 -1.34585e-07
3.51996e-05 -3.17241e-05 2.12239e-08
-1.34585e-07 2.12239e-08 -4.37238e-05
0.0022766 5.44878e-05 2.65959e-05
5.44878e-05 0.000831143 -3.66636e-06
2.65959e-05 -3.66636e-06 0.000845517
0.000714301 4.06072e-05 -2.33558e-06
4.06072e-05 -1.96926e-05 3.84053e-06
-2.33558e-06 3.84053e-06 -3.4829e-05
0.00235728 6.17537e-05 -1.26364e-06
6.17537e-05 0.000883345 -1.05842e-07
-1.26364e-06 -1.05842e-07 0.000895394
0.00248696 6.84469e-05 -3.90175e-05
6.84469e-05 0.000961289 3.237e-06
-3.90175e-05 3.237e-06 0.000971019
0.00156171 8.50292e-05 -2.11262e-06
8.50292e-05 8.78709e-05 5.5705e-07
-2.11262e-06 5.5705e-07 -2.76105e-05
0.00162336 4.13243e-05 -1.1818e-06
4.13243e-05 0.000106241 -4.80304e-07
-1.1818e-06 -4.80304e-07 -7.80168e-06
0.00152445 5.56235e-05 1.70354e-06
5.56235e-05 2.81625e-05 -7.95514e-08
1.70354e-06 -7.95514e-08 -7.90495e-05
0.00171288 2.17818e-05 2.99118e-07
2.17818e-05 0.000108575 -3.58771e-08
2.99118e-07 -3.58771e-08 6.30184e-08
0.00160296 2.86918e-06 -1.19186e-06
2.86918e-06 6.67676e-05 -3.63633e-07
-1.19186e-06 -3.63633e-07 -5.02659e-05
0.00153338 1.34575e-05 -4.22494e-06
1.34575e-05 7.71971e-05 1.24124e-07
-4.22494e-06 1.24124e-07 -3.89103e-05
0.00163723 3.53735e-06 2.50202e-08
3.53735e-06 8.61154e-05 -5.25767e-08
2.50202e-08 -5.25767e-08 -3.16762e-05
0.00176144 1.69678e-05 2.57151e-07
1.69678e-05 0.000118312 -4.26964e-08
2.57151e-07 -4.26964e-08 5.31405e-06
0.00163154 3.35771e-05 -4.79778e-07
3.35771e-05 7.17448e-05 -1.37702e-07
-4.79778e-07 -1.37702e-07 -3.67315e-05
0.00177149 2.43314e-05 5.0065e-07
2.43314e-05 0.00011591 -2.26671e-07
5.0065e-07 -2.26671e-07 1.20392e-05
0.00162152 7.76265e-05 -5.70165e-07
7.76265e-05 8.48884e-05 5.17491e-07
-5.70165e-07 5.17491e-07 -2.57404e-05
0.00164435 5.05241e-05 1.66421e-06
5.05241e-05 6.73564e-05 -1.07715e-07
1.66421e-06 -1.07715e-07 -3.30298e-05
0.00174007 7.30326e-06 1.28754e-07
7.30326e-06 0.000103136 4.77427e-08
1.28754e-07 4.77427e-08 -1.09193e-05
0.00174949 2.14516e-05 -3.85987e-07
2.14516e-05 9.36374e-05 3.39671e-07
-3.85987e-07 3.39671e-07 -1.24432e-05
0.00175994 3.55653e-05 -5.78879e-07
3.55653e-05 0.000101662 1.15242e-07
-5.78879e-07 1.15242e-07 2.80673e-06
0.00169755 7.41688e-05 -1.00342e-06
7.41688e-05 8.99148e-05 -5.63327e-08
-1.00342e-06 -5.63327e-08 -7.26308e-06
0.0016459 2.1407e-07 -1.58655e-06
2.1407e-07 9.93621e-05 2.16367e-07
-1.58655e-06 2.16367e-07 -1.7654e-05
0.00181048 -3.29217e-05 -2.60978e-06
-3.29217e-05 0.000214531 7.9407e-07
-2.60978e-06 7.9407e-07 0.000102286
0.00160715 -1.1673e-05 -1.31397e-06
-1.1673e-05 6.70873e-05 6.63765e-07
-1.31397e-06 6.63765e-07 -4.45844e-05
0.00161024 -5.11509e-05 -6.08118e-08
-5.11509e-05 8.24377e-05 5.02129e-08
-6.08118e-08 5.02129e-08 -2.44819e-05
0.00104718 -8.30879e-05 -1.50648e-06
-8.30879e-05 0.000152157 6.41205e-08
-1.50648e-06 6.41205e-08 6.1159e-05
0.000840748 -0.000107628 5.6553e-07
-0.000107628 4.26999e-05 1.96877e-07
5.6553e-07 1.96877e-07 -6.55887e-05
0.00117117 -0.000140341 -1.55688e-06
-0.000140341 0.000157967 2.3192e-06
-1.55688e-06 2.3192e-06 1.68582e-05
0.00176865 -0.00011745 -5.31924e-07
-0.00011745 0.000181236 -4.94771e-07
-5.31924e-07 -4.94771e-07 6.48413e-05
0.00164023 -7.55521e-05 -4.91944e-07
-7.55521e-05 7.10906e-05 -1.29565e-06
-4.91944e-07 -1.29565e-06 -3.39938e-05
0.0015966 -0.000134198 2.0586e-06
-0.000134198 0.000116236 1.2366e-06
2.0586e-06 1.2366e-06 4.97823e-06
0.00136136 -0.000156142 -1.55427e-06
-0.000156142 0.000144172 -9.95094e-07
-1.55427e-06 -9.95094e-07 1.31891e-06
0.00132881 -0.00014247 -9.35781e-08
-0.00014247 3.02396e-05 -3.13604e-06
-9.35781e-08 -3.13604e-06 -7.93207e-05
0.00105737 -0.00011506 -1.04027e-07
-0.00011506 0.000168994 -1.06938e-06
-1.04027e-07 -1.06938e-06 6.86451e-05
0.00100849 -0.000104584 1.04045e-07
-0.000104584 0.000147883 -1.6937e-06
1.04045e-07 -1.6937e-06 4.62615e-05
0.00088124 -1.78671e-05 2.68937e-07
-1.78671e-05 7.38709e-05 2.24018e-07
2.68937e-07 2.24018e-07 -1.10358e-05
0.000539758 2.44585e-05 -1.42168e-06
2.44585e-05 -0.000124199 1.89802e-06
-1.42168e-06 1.89802e-06 -0.000166294
0.000744302 3.78994e-05 -4.08465e-08
3.78994e-05 -1.00481e-05 4.33725e-07
-4.08465e-08 4.33725e-07 -7.4929e-05
0.00171297 -4.60038e-06 -6.2092e-08
-4.60038e-06 0.000100635 -2.81918e-08
-6.2092e-08 -2.81918e-08 -1.18341e-05
0.00171566 -2.24392e-05 3.13834e-08
-2.24392e-05 0.00011828 7.09186e-08
3.13834e-08 7.09186e-08 9.62531e-06
0.00171352 -5.6257e-05 -6.84811e-07
-5.6257e-05 0.00010776 -2.2613e-07
-6.84811e-07 -2.2613e-07 7.02125e-06
0.00101162 -0.000114081 -4.05569e-08
-0.000114081 0.000139835 3.24938e-07
-4.05569e-08 3.24938e-07 3.7456e-05
0.000708915 -0.000104734 1.50345e-06
-0.000104734 -2.6634e-05 -1.38769e-06
1.50345e-06 -1.38769e-06 -0.000146983
0.00122479 -0.000153364 -4.06837e-07
-0.000153364 0.000160696 2.39613e-08
-4.06837e-07 2.39613e-08 6.93792e-07
0.00162245 -0.000100187 4.53214e-07
-0.000100187 6.86771e-05 -5.48073e-07
4.53214e-07 -5.48073e-07 -3.85894e-05
0.00161644 -0.000171808 2.2116e-07
-0.000171808 0.000230103 -1.28771e-06
2.2116e-07 -1.28771e-06 9.07133e-05
0.0016777 -0.000148934 -1.04146e-06
-0.000148934 0.000128059 -1.27615e-07
-1.04146e-06 -1.27615e-07 2.27069e-05
0.000549458 2.49304e-05 8.0083e-08
2.49304e-05 -0.00012195 -6.14325e-07
8.0083e-08 -6.14325e-07 -0.00016114
0.00100615 -0.000112446 -1.03762e-08
-0.000112446 0.000142713 1.75381e-07
-1.03762e-08 1.75381e-07 4.0693e-05
0.000903867 -0.000105634 -4.62146e-07
-0.000105634 8.90306e-05 3.3498e-07
-4.62146e-07 3.3498e-07 -1.36115e-05
0.0010224 -7.22078e-05 -3.31996e-07
-7.22078e-05 0.000156403 8.36005e-07
-3.31996e-07 8.36005e-07 5.92353e-05
0.00097162 -2.50903e-05 -3.70758e-09
-2.50903e-05 0.000122242 1.66668e-08
-3.70758e-09 1.66668e-08 4.45469e-05
0.000816868 1.50544e-05 -1.48672e-07
1.50544e-05 3.05325e-05 2.55635e-07
-1.48672e-07 2.55635e-07 -3.1092e-05
0.00169652 -1.29841e-05 1.67711e-07
-1.29841e-05 7.3003e-05 2.23135e-08
1.67711e-07 2.23135e-08 -3.56875e-05
0.0017804 -3.47127e-05 -5.20026e-07
-3.47127e-05 0.000117451 -2.78573e-07
-5.20026e-07 -2.78573e-07 1.9612e-05
0.00161155 -7.16238e-05 3.76421e-07
-7.16238e-05 3.07935e-05 7.61015e-07
3.76421e-07 7.61015e-07 -6.67491e-05
0.00185884 -0.00012551 -6.14692e-07
-0.00012551 0.000144268 -1.23441e-06
-6.14692e-07 -1.23441e-06 4.47969e-05
0.000948348 -0.000112204 -8.67563e-07
-0.000112204 0.000109524 8.49884e-07
-8.67563e-07 8.49884e-07 2.40127e-06
0.00159027 -0.000168172 2.31625e-06
-0.000168172 0.000102863 1.10137e-06
2.31625e-06 1.10137e-06 -1.88987e-05
0.000689082 -0.000111401 -2.35937e-07
-0.000111401 -4.81321e-05 -3.61025e-06
-2.35937e-07 -3.61025e-06 -0.000194924
0.00167265 -0.000184936 1.59462e-06
-0.000184936 0.000361302 1.22792e-06
1.59462e-06 1.22792e-06 0.000188518
0.000569784 2.12687e-05 7.96877e-07
2.12687e-05 -0.000113429 -2.46911e-06
7.96877e-07 -2.46911e-06 -0.000149907
0.000930971 -1.00086e-06 1.16031e-06
-1.00086e-06 9.30612e-05 -9.49207e-07
1.16031e-06 -9.49207e-07 3.47145e-05
0.00101131 -3.68484e-05 1.53433e-07
-3.68484e-05 0.000144154 5.90789e-07
1.53433e-07 5.90789e-07 6.98259e-05
0.000933128 -1.92341e-05 4.21516e-07
-1.92341e-05 0.000103354 -9.78636e-07
4.21516e-07 -9.78636e-07 1.63109e-05
0.00105301 -0.00011559 -3.82541e-07
-0.00011559 0.000165103 1.78279e-06
-3.82541e-07 1.78279e-06 5.95587e-05
0.000945055 -0.000110002 -1.94809e-06
-0.000110002 0.000109648 2.75566e-06
-1.94809e-06 2.75566e-06 5.05876e-06
0.000776429 -3.09835e-05 -1.60733e-06
-3.09835e-05 6.16896e-06 -1.47669e-06
-1.60733e-06 -1.47669e-06 -2.69467e-05
0.000808337 -4.05219e-05 -1.94326e-07
-4.05219e-05 2.72063e-05 -7.97583e-07
-1.94326e-07 -7.97583e-07 -2.84561e-05
0.00154634 0.000109895 1.85016e-07
0.000109895 6.98731e-05 5.20821e-07
1.85016e-07 5.20821e-07 -5.26758e-05
0.00087153 -1.44955e-05 2.57174e-07
-1.44955e-05 7.15385e-05 -3.78447e-07
2.57174e-07 -3.78447e-07 -6.32205e-06
0.000924458 0.000105004 1.39155e-08
0.000105004 0.000113528 -4.00805e-07
1.39155e-08 -4.00805e-07 5.27783e-06
0.000826091 4.65817e-05 2.50868e-07
4.65817e-05 6.10855e-05 -3.7653e-08
2.50868e-07 -3.7653e-08 -4.33192e-05
0.00138118 0.000150391 -5.66636e-07
0.000150391 0.000111124 -2.32559e-06
-5.66636e-07 -2.32559e-06 -1.72247e-05
0.00154491 0.000149939 2.32266e-06
0.000149939 0.000102925 -2.74392e-07
2.32266e-06 -2.74392e-07 -1.50305e-05
0.000660794 0.0001039 5.31218e-07
0.0001039 -3.03323e-05 8.65037e-07
5.31218e-07 8.65037e-07 -0.000169565
0.00139528 0.000162612 -9.02473e-07
0.000162612 0.000223831 2.08893e-08
-9.02473e-07 2.08893e-08 7.96557e-05
0.000809355 -1.99672e-05 -3.72696e-07
-1.99672e-05 2.53995e-05 1.17056e-07
-3.72696e-07 1.17056e-07 -2.44915e-05
0.000788694 -1.16086e-05 -3.5527e-08
-1.16086e-05 2.24539e-05 7.05612e-07
-3.5527e-08 7.05612e-07 -4.76748e-05
0.00104513 0.000117342 -1.6288e-07
0.000117342 0.000186115 -1.29461e-06
-1.6288e-07 -1.29461e-06 6.13988e-05
0.000807624 -4.61529e-06 -1.38259e-07
-4.61529e-06 4.29508e-05 5.54861e-08
-1.38259e-07 5.54861e-08 -4.9876e-05
0.000927813 7.55124e-05 -8.93176e-07
7.55124e-05 0.00011428 -9.52422e-07
-8.93176e-07 -9.52422e-07 2.24502e-06
0.00180635 0.000111763 -1.67088e-06
0.000111763 0.000157287 -4.82514e-07
-1.67088e-06 -4.82514e-07 5.6781e-05
0.00177181 0.000184222 1.54789e-06
0.000184222 0.000294948 4.04699e-07
1.54789e-06 4.04699e-07 0.000159688
0.00115374 0.000142282 -4.15639e-07
0.000142282 -0.000129798 7.14828e-07
-4.15639e-07 7.14828e-07 -0.000234113
0.00131022 0.000144441 1.21555e-06
0.000144441 0.000296102 1.66813e-06
1.21555e-06 1.66813e-06 0.00013981
0.000709726 0.000137772 -1.58958e-06
0.000137772 -0.000147201 -9.18893e-07
-1.58958e-06 -9.18893e-07 -0.000305957
0.000732159 -2.67525e-05 3.45866e-08
-2.67525e-05 -1.19659e-05 1.026e-06
3.45866e-08 1.026e-06 -7.43287e-05
0.000659303 2.61812e-05 -1.31609e-07
2.61812e-05 -3.44313e-05 5.33866e-08
-1.31609e-07 5.33866e-08 -0.000122435
0.00106707 0.000119145 -5.53995e-08
0.000119145 0.000196013 -7.53256e-07
-5.53995e-08 -7.53256e-07 5.7872e-05
0.000440639 4.10833e-05 -3.06434e-09
4.10833e-05 -0.000144682 -1.46547e-07
-3.06434e-09 -1.46547e-07 -0.000257021
0.00194623 9.94551e-05 -1.49007e-06
9.94551e-05 0.000156346 -3.89064e-07
-1.49007e-06 -3.89064e-07 7.56053e-05
0.00193946 0.000143791 1.4124e-06
0.000143791 0.00017658 1.31404e-06
1.4124e-06 1.31404e-06 8.76349e-05
0.00152308 0.000185957 -4.18433e-07
0.000185957 0.000140805 -2.80078e-06
-4.18433e-07 -2.80078e-06 -3.90159e-06
0.000228247 9.29428e-05 -7.64396e-07
9.29428e-05 -0.000303484 1.75045e-06
-7.64396e-07 1.75045e-06 -0.000484629
0.00082455 1.04645e-06 -7.93395e-07
1.04645e-06 3.54882e-05 -2.18718e-07
-7.93395e-07 -2.18718e-07 -1.44284e-05
0.000825457 -1.55571e-05 -1.80351e-07
-1.55571e-05 3.91804e-05 3.95486e-07
-1.80351e-07 3.95486e-07 -2.15507e-05
0.000922096 -2.9209e-05 -7.96825e-08
-2.9209e-05 9.55016e-05 1.94307e-07
-7.96825e-08 1.94307e-07 2.83458e-05
0.000825487 -2.7239e-05 -8.74474e-07
-2.7239e-05 2.7391e-05 -6.34896e-07
-8.74474e-07 -6.34896e-07 -1.7809e-05
0.000722985 -4.11707e-05 1.54317e-07
-4.11707e-05 -1.70413e-05 -3.94091e-07
1.54317e-07 -3.94091e-07 -7.46789e-05
0.000842001 -1.4013e-05 3.47461e-08
-1.4013e-05 3.31025e-05 3.47538e-08
3.47461e-08 3.47538e-08 -1.15919e-05
0.000874292 1.50169e-05 -1.72985e-07
1.50169e-05 7.5279e-05 -3.37385e-07
-1.72985e-07 -3.37385e-07 7.65949e-06
0.000785054 -1.91006e-05 1.72184e-07
-1.91006e-05 2.09987e-05 2.63323e-07
1.72184e-07 2.63323e-07 -3.86541e-05
0.000897407 -8.63559e-06 2.27102e-07
-8.63559e-06 8.60447e-05 -2.92488e-07
2.27102e-07 -2.92488e-07 1.587e-05
0.000813234 -4.13907e-05 -1.85728e-07
-4.13907e-05 3.8438e-05 1.84635e-07
-1.85728e-07 1.84635e-07 -2.71469e-05
0.000741398 2.68207e-06 3.8696e-07
2.68207e-06 -7.40662e-06 3.25101e-07
3.8696e-07 3.25101e-07 -6.43912e-05
0.000851122 5.12233e-06 5.21665e-07
5.12233e-06 3.65957e-05 5.59033e-07
5.21665e-07 5.59033e-07 -8.21487e-06
0.000790977 4.76381e-06 6.9996e-07
4.76381e-06 -2.89861e-06 1.49232e-06
6.9996e-07 1.49232e-06 -3.14624e-05
0.000798656 -6.69836e-06 -2.34802e-07
-6.69836e-06 7.54313e-07 3.50056e-10
-2.34802e-07 3.50056e-10 -2.69201e-05
0.00127287 -1.37601e-05 9.12678e-07
-1.37601e-05 0.000253152 1.87169e-06
9.12678e-07 1.87169e-06 0.000255303
0.000795081 -1.6259e-05 -4.75138e-07
-1.6259e-05 -5.94217e-08 -1.66843e-06
-4.75138e-07 -1.66843e-06 -2.72993e-05
0.00128762 -1.92584e-05 -2.74022e-06
-1.92584e-05 0.000263989 -1.20566e-06
-2.74022e-06 -1.20566e-06 0.000265986
0.000973435 -1.6666e-05 1.23851e-05
-1.6666e-05 9.52835e-05 6.31224e-06
1.23851e-05 6.31224e-06 0.000111291
0.00130201 -2.49741e-05 -6.21837e-06
-2.49741e-05 0.000275869 -4.31426e-06
-6.21837e-06 -4.31426e-06 0.000277226
0.000922035 -2.26486e-05 4.80011e-06
-2.26486e-05 7.1476e-05 2.37067e-06
4.80011e-06 2.37067e-06 8.68372e-05
0.000861272 -2.78167e-05 -2.19677e-06
-2.78167e-05 4.47381e-05 -1.59889e-06
-2.19677e-06 -1.59889e-06 5.84802e-05
0.000713466 2.67431e-05 9.56065e-07
2.67431e-05 -3.97954e-05 -3.49424e-06
9.56065e-07 -3.49424e-06 -4.64529e-05
0.000714705 3.13011e-05 -1.74197e-07
3.13011e-05 -3.3256e-05 2.22013e-08
-1.74197e-07 2.22013e-08 -4.26215e-05
0.00221849 4.7044e-05 2.24357e-05
4.7044e-05 0.000792534 -3.79902e-06
2.24357e-05 -3.79902e-06 0.000808936
0.000722315 3.58277e-05 -2.11061e-06
3.58277e-05 -2.28654e-05 3.69718e-06
-2.11061e-06 3.69718e-06 -3.49734e-05
0.0022945 5.46584e-05 -1.40782e-06
5.46584e-05 0.000841777 -1.00266e-07
-1.40782e-06 -1.00266e-07 0.000855932
0.00238664 6.16566e-05 -3.39448e-05
6.16566e-05 0.000900048 3.44665e-06
-3.39448e-05 3.44665e-06 0.000911921
0.00154272 7.6918e-05 1.02048e-06
7.6918e-05 4.55563e-05 1.5739e-06
1.02048e-06 1.5739e-06 -6.5186e-05
0.00164089 3.14903e-05 -1.96112e-08
3.14903e-05 7.72222e-05 -3.19123e-08
-1.96112e-08 -3.19123e-08 -3.2071e-05
0.00165613 5.28159e-05 3.49613e-06
5.28159e-05 6.95906e-05 -4.47949e-07
3.49613e-06 -4.47949e-07 -2.98528e-05
0.0017155 2.51108e-05 1.01082e-06
2.51108e-05 8.3165e-05 -5.68608e-07
1.01082e-06 -5.68608e-07 -2.01459e-05
0.00176514 1.29961e-05 6.16251e-07
1.29961e-05 0.000122002 -3.7662e-07
6.16251e-07 -3.7662e-07 8.59009e-06
0.00165157 2.3046e-06 -1.46565e-06
2.3046e-06 9.33917e-05 4.57359e-09
-1.46565e-06 4.57359e-09 -2.47366e-05
0.0017524 7.8334e-06 -9.29592e-08
7.8334e-06 0.000111917 4.95472e-10
-9.29592e-08 4.95472e-10 -1.87451e-06
0.0017456 1.73218e-05 2.68893e-07
1.73218e-05 9.24354e-05 -1.10804e-07
2.68893e-07 -1.10804e-07 -1.38291e-05
0.00175222 3.70005e-05 6.86186e-07
3.70005e-05 9.76781e-05 -2.39037e-08
6.86186e-07 -2.39037e-08 -1.54199e-06
0.00177022 7.14516e-05 2.7807e-07
7.14516e-05 0.000122788 5.17822e-08
2.7807e-07 5.17822e-08 2.60974e-05
0.00176672 4.40096e-06 -8.02679e-07
4.40096e-06 9.81165e-05 2.51388e-07
-8.02679e-07 2.51388e-07 -1.04031e-05
0.00187883 2.41943e-05 -1.17132e-07
2.41943e-05 0.000140479 2.04168e-07
-1.17132e-07 2.04168e-07 4.45511e-05
0.00179829 6.39886e-05 4.87883e-08
6.39886e-05 0.000100641 6.63455e-07
4.87883e-08 6.63455e-07 8.80187e-06
0.00171393 -5.09874e-06 -8.39971e-07
-5.09874e-06 0.000103342 1.24297e-07
-8.39971e-07 1.24297e-07 -8.98766e-06
0.00176566 -2.28256e-05 -5.67216e-07
-2.28256e-05 0.000144574 3.813e-07
-5.67216e-07 3.813e-07 3.64836e-05
0.0017716 -5.70814e-05 -5.20548e-07
-5.70814e-05 0.000138554 -4.0826e-07
-5.20548e-07 -4.0826e-07 3.67423e-05
0.00110806 -0.000119026 -3.22513e-07
-0.000119026 0.0001895 -2.76632e-08
-3.22513e-07 -2.76632e-08 8.66655e-05
0.00119406 -0.000131138 -6.92776e-08
-0.000131138 0.000227992 9.56175e-07
-6.92776e-08 9.56175e-07 0.000107648
0.00118587 -0.000149497 -2.43143e-06
-0.000149497 0.000144812 2.41587e-06
-2.43143e-06 2.41587e-06 -1.74774e-05
0.00176554 -0.000102866 3.16502e-07
-0.000102866 0.000142376 -4.28336e-07
3.16502e-07 -4.28336e-07 3.5377e-05
0.001415 -0.00014243 -2.15097e-06
-0.00014243 2.21243e-07 8.53036e-07
-2.15097e-06 8.53036e-07 -0.000104922
0.0014966 -0.000163113 -2.8248e-06
-0.000163113 0.000168239 -3.79095e-06
-2.8248e-06 -3.79095e-06 3.281e-05
0.00105853 -0.000115433 4.10253e-07
-0.000115433 0.000169846 -1.38044e-06
4.10253e-07 -1.38044e-06 6.75163e-05
0.000845968 -0.000101532 -1.32496e-06
-0.000101532 5.96074e-05 -1.71708e-06
-1.32496e-06 -1.71708e-06 -4.21227e-05
0.000996259 -8.56473e-05 5.09673e-07
-8.56473e-05 0.000146999 4.52872e-07
5.09673e-07 4.52872e-07 4.63185e-05
0.000539884 2.55422e-05 -9.57769e-07
2.55422e-05 -0.000127167 1.23509e-06
-9.57769e-07 1.23509e-06 -0.000166015
0.000993418 -1.35538e-05 1.80152e-08
-1.35538e-05 0.000132641 1.06683e-07
1.80152e-08 1.06683e-07 5.62401e-05
0.000703004 2.53444e-05 -3.54824e-09
2.53444e-05 -3.42577e-05 1.16378e-06
-3.54824e-09 1.16378e-06 -9.45216e-05
0.00176482 -1.08473e-05 -3.42927e-08
-1.08473e-05 0.000106684 3.76766e-08
-3.42927e-08 3.76766e-08 -2.13572e-06
0.00179005 -3.68227e-05 5.38488e-07
-3.68227e-05 0.000124731 -8.29225e-08
5.38488e-07 -8.29225e-08 2.71964e-05
0.001664 -6.97495e-05 4.57335e-08
-6.97495e-05 5.93358e-05 -5.01005e-09
4.57335e-08 -5.01005e-09 -3.83204e-05
0.00101728 -0.000115802 -4.25121e-08
-0.000115802 0.00014427 8.02839e-07
-4.25121e-08 8.02839e-07 3.64864e-05
0.00075981 -0.000114255 -2.82044e-07
-0.000114255 -6.03291e-06 3.51337e-07
-2.82044e-07 3.51337e-07 -0.00014858
0.00166351 -0.000182974 -2.13703e-06
-0.000182974 0.000353745 1.61149e-06
-2.13703e-06 1.61149e-06 0.000181299
0.00186717 -0.000127702 3.42553e-07
-0.000127702 0.00014917 1.23704e-08
3.42553e-07 1.23704e-08 5.06089e-05
0.00155894 -0.000166242 1.13722e-06
-0.000166242 8.5899e-05 -1.66669e-06
1.13722e-06 -1.66669e-06 -3.63517e-05
0.000673389 2.10654e-05 1.95054e-07
2.10654e-05 -5.75812e-05 -5.89207e-07
1.95054e-07 -5.89207e-07 -9.28779e-05
0.000919177 9.02399e-06 -2.87822e-07
9.02399e-06 8.60449e-05 1.82057e-07
-2.87822e-07 1.82057e-07 2.83345e-05
0.000788445 -0.00010034 -9.68859e-07
-0.00010034 2.38644e-05 4.97362e-07
-9.68859e-07 4.97362e-07 -7.96949e-05
0.0010014 -0.000108672 1.17746e-06
-0.000108672 0.000138469 8.93922e-07
1.17746e-06 8.93922e-07 3.65723e-05
0.000888773 -2.48158e-05 5.61411e-08
-2.48158e-05 8.13023e-05 -3.50074e-07
5.61411e-08 -3.50074e-07 -7.46612e-06
0.000945323 -3.10791e-05 -6.0606e-07
-3.10791e-05 0.000108261 8.20088e-07
-6.0606e-07 8.20088e-07 3.39814e-05
0.00180583 -2.16383e-05 -1.30048e-06
-2.16383e-05 0.000108569 7.4543e-08
-1.30048e-06 7.4543e-08 9.91538e-06
0.00171633 -5.0554e-05 -2.48559e-07
-5.0554e-05 5.59334e-05 -2.96754e-08
-2.48559e-07 -2.96754e-08 -3.07739e-05
0.0016271 -8.92166e-05 -1.81038e-06
-8.92166e-05 -1.3394e-05 -1.38578e-07
-1.81038e-06 -1.38578e-07 -0.000102171
0.00190806 -0.000168348 4.43285e-07
-0.000168348 0.000147615 -9.50203e-07
4.43285e-07 -9.50203e-07 5.10104e-05
0.000592466 -9.45984e-05 -1.44889e-06
-9.45984e-05 -6.82566e-05 1.98381e-07
-1.44889e-06 1.98381e-07 -0.000185045
0.00164149 -0.000190718 -5.66632e-07
-0.000190718 0.000254519 5.30583e-06
-5.66632e-07 5.30583e-06 8.38945e-05
0.00171183 -0.000175457 1.2554e-06
-0.000175457 0.000475092 -3.50099e-06
1.2554e-06 -3.50099e-06 0.000306104
0.000801392 1.67203e-05 6.32624e-07
1.67203e-05 8.76919e-06 -1.75144e-06
6.32624e-07 -1.75144e-06 -2.32103e-05
0.000802015 -5.22407e-05 1.00834e-06
-5.22407e-05 2.96365e-05 -1.0414e-06
1.00834e-06 -1.0414e-06 -2.45612e-05
0.000696828 9.11996e-06 5.5904e-07
9.11996e-06 -3.11581e-05 -1.53608e-06
5.5904e-07 -1.53608e-06 -8.9811e-05
0.000892957 -3.11541e-05 9.81322e-07
-3.11541e-05 8.31218e-05 -2.29493e-07
9.81322e-07 -2.29493e-07 9.72787e-06
0.000907555 9.66851e-06 1.14615e-07
9.66851e-06 8.83714e-05 -3.03644e-07
1.14615e-07 -3.03644e-07 8.84235e-06
0.000772845 -0.000100554 1.87203e-06
-0.000100554 4.19625e-05 1.87893e-06
1.87203e-06 1.87893e-06 -6.3869e-05
0.000762035 -9.78314e-05 -3.20575e-06
-9.78314e-05 -1.5421e-05 1.56389e-06
-3.20575e-06 1.56389e-06 -0.000107957
0.00190179 -0.000163218 -2.94048e-06
-0.000163218 0.000638976 2.61208e-06
-2.94048e-06 2.61208e-06 0.000533476
0.000819496 -3.87934e-05 -4.56446e-07
-3.87934e-05 3.07142e-05 -7.01452e-07
-4.56446e-07 -7.01452e-07 -1.92683e-05
0.000848474 -1.01792e-07 -2.05004e-07
-1.01792e-07 5.43748e-05 2.369e-07
-2.05004e-07 2.369e-07 -1.56821e-05
0.00202482 0.000116164 1.17657e-06
0.000116164 0.000274988 2.75717e-07
1.17657e-06 2.75717e-07 0.0001748
0.000860896 1.20854e-05 -1.17825e-07
1.20854e-05 7.41547e-05 -2.04742e-07
-1.17825e-07 -2.04742e-07 -2.02174e-05
0.00111886 0.000121237 -2.28214e-07
0.000121237 0.000229096 -1.94848e-06
-2.28214e-07 -1.94848e-06 0.000105611
0.000783697 6.39542e-05 -6.09331e-07
6.39542e-05 3.97712e-05 1.00123e-06
-6.09331e-07 1.00123e-06 -7.04551e-05
0.00164399 0.000177166 1.0012e-06
0.000177166 0.000222042 -6.81876e-07
1.0012e-06 -6.81876e-07 8.7942e-05
0.00150328 0.000157422 5.63267e-06
0.000157422 6.16995e-05 2.45113e-06
5.63267e-06 2.45113e-06 -3.60016e-05
0.000850206 0.000119696 1.19673e-06
0.000119696 5.77185e-05 9.47665e-07
1.19673e-06 9.47665e-07 -9.84944e-05
0.00115594 0.000163168 -3.41831e-06
0.000163168 8.26754e-05 -1.88873e-06
-3.41831e-06 -1.88873e-06 -8.26228e-05
0.000741123 -9.94727e-06 1.53345e-07
-9.94727e-06 -4.70237e-06 5.08201e-07
1.53345e-07 5.08201e-07 -6.95698e-05
0.000754304 3.80829e-05 -1.09843e-07
3.80829e-05 1.73296e-05 -1.00362e-06
-1.09843e-07 -1.00362e-06 -7.13263e-05
0.00101479 0.000116632 -3.91558e-08
0.000116632 0.000171869 -1.08316e-06
-3.91558e-08 -1.08316e-06 3.29254e-05
0.000785554 6.11533e-05 -5.50787e-07
6.11533e-05 3.85484e-05 -4.94415e-07
-5.50787e-07 -4.94415e-07 -7.46837e-05
0.00194949 9.48867e-05 2.19087e-07
9.48867e-05 0.00016046 -3.49134e-07
2.19087e-07 -3.49134e-07 8.04248e-05
0.00164776 0.000138246 2.11107e-06
0.000138246 4.02458e-05 -6.34398e-07
2.11107e-06 -6.34398e-07 -5.10992e-05
0.00191256 0.000201496 -3.16729e-06
0.000201496 0.00034127 -3.73339e-07
-3.16729e-06 -3.73339e-07 0.00019896
0.000683292 0.000122076 1.1525e-06
0.000122076 -7.88656e-05 5.68156e-07
1.1525e-06 5.68156e-07 -0.000258405
0.00089546 -1.65588e-05 1.35701e-07
-1.65588e-05 8.13467e-05 1.65083e-07
1.35701e-07 1.65083e-07 9.70591e-06
0.00169109 6.53471e-05 2.63306e-07
6.53471e-05 1.65221e-05 9.18491e-07
2.63306e-07 9.18491e-07 -5.72053e-05
0.00116771 0.000104869 -3.07743e-07
0.000104869 0.000257004 1.81886e-06
-3.07743e-07 1.81886e-06 0.00014642
0.00104264 0.000121752 1.1947e-07
0.000121752 0.000168923 6.10921e-07
1.1947e-07 6.10921e-07 2.26949e-05
0.00221208 0.000122018 -3.35025e-06
0.000122018 0.000239534 3.60415e-07
-3.35025e-06 3.60415e-07 0.000167375
0.00171738 0.000201005 2.07296e-06
0.000201005 8.18097e-05 -2.35317e-06
2.07296e-06 -2.35317e-06 -3.62485e-05
0.00170635 0.000188559 -1.5519e-06
0.000188559 0.000381875 2.74872e-06
-1.5519e-06 2.74872e-06 0.000192385
0.000905298 -9.13652e-06 -1.39772e-06
-9.13652e-06 8.12487e-05 -5.30004e-08
-1.39772e-06 -5.30004e-08 2.14402e-05
0.00090216 -2.30423e-05 -4.64014e-08
-2.30423e-05 8.47769e-05 -1.18532e-08
-4.64014e-08 -1.18532e-08 1.77115e-05
0.000909786 -1.9338e-05 -9.40386e-08
-1.9338e-05 9.43576e-05 4.4928e-07
-9.40386e-08 4.4928e-07 2.05351e-05
0.00082346 -2.61376e-05 -4.76524e-07
-2.61376e-05 2.40177e-05 -6.61325e-07
-4.76524e-07 -6.61325e-07 -2.12777e-05
0.000824926 -8.53018e-06 1.09389e-08
-8.53018e-06 4.2158e-05 3.41066e-07
1.09389e-08 3.41066e-07 -1.74053e-05
0.000774737 -3.92624e-06 -2.68044e-07
-3.92624e-06 2.32481e-05 -4.38266e-07
-2.68044e-07 -4.38266e-07 -4.55898e-05
0.000835814 -1.78434e-05 -1.28228e-07
-1.78434e-05 3.08627e-05 1.89662e-08
-1.28228e-07 1.89662e-08 -1.56616e-05
0.000768103 -2.40585e-05 -5.3452e-07
-2.40585e-05 8.82712e-06 2.76256e-07
-5.3452e-07 2.76256e-07 -4.96144e-05
0.000871506 -3.27981e-05 3.37241e-07
-3.27981e-05 7.13704e-05 -3.82301e-07
3.37241e-07 -3.82301e-07 7.93257e-07
0.000878465 4.22557e-06 1.13387e-07
4.22557e-06 7.68158e-05 5.41272e-07
1.13387e-07 5.41272e-07 9.75357e-06
0.000848345 -1.79804e-05 4.68571e-07
-1.79804e-05 5.74824e-05 -8.89251e-07
4.68571e-07 -8.89251e-07 -1.58639e-05
0.000804007 -4.80529e-05 4.34552e-09
-4.80529e-05 3.29838e-05 1.0394e-08
4.34552e-09 1.0394e-08 -3.75191e-05
0.000909793 1.10768e-05 5.04884e-07
1.10768e-05 8.91454e-05 -8.30215e-08
5.04884e-07 -8.30215e-08 2.51849e-05
0.000835409 7.64927e-06 1.24878e-06
7.64927e-06 4.37182e-05 1.3111e-07
1.24878e-06 1.3111e-07 -1.66811e-05
0.000845335 4.05748e-06 5.62116e-07
4.05748e-06 3.38643e-05 5.27253e-07
5.62116e-07 5.27253e-07 -1.19592e-05
0.000785653 9.29951e-06 4.38796e-07
9.29951e-06 -4.45219e-06 1.44775e-06
4.38796e-07 1.44775e-06 -3.39542e-05
0.000794515 -1.56698e-06 -1.5838e-07
-1.56698e-06 -8.72892e-07 -6.10307e-10
-1.5838e-07 -6.10307e-10 -2.94626e-05
0.00128035 -6.7132e-06 6.99905e-07
-6.7132e-06 0.000255887 1.83771e-06
6.99905e-07 1.83771e-06 0.000257703
0.000803059 -1.27992e-05 -3.40898e-07
-1.27992e-05 3.35352e-06 -1.55715e-06
-3.40898e-07 -1.55715e-06 -2.44293e-05
0.00130061 -1.24059e-05 -2.0307e-06
-1.24059e-05 0.000268576 -1.24305e-06
-2.0307e-06 -1.24305e-06 0.000270541
0.000983839 -1.14844e-05 9.24187e-06
-1.14844e-05 9.8299e-05 6.45814e-06
9.24187e-06 6.45814e-06 0.000114392
0.0013157 -1.81968e-05 -4.6589e-06
-1.81968e-05 0.000279265 -4.31643e-06
-4.6589e-06 -4.31643e-06 0.000281108
0.000934932 -1.72919e-05 3.41935e-06
-1.72919e-05 7.38261e-05 2.4292e-06
3.41935e-06 2.4292e-06 8.99013e-05
0.000873154 -2.26232e-05 -1.60317e-06
-2.26232e-05 4.481e-05 -1.57931e-06
-1.60317e-06 -1.57931e-06 6.0251e-05
0.000793364 1.20291e-05 3.28552e-07
1.20291e-05 2.06953e-06 -1.6917e-06
3.28552e-07 -1.6917e-06 -2.77901e-05
0.000727485 2.16104e-05 8.28791e-07
2.16104e-05 -3.79259e-05 -3.38691e-06
8.28791e-07 -3.38691e-06 -4.21879e-05
0.00072822 2.7152e-05 -1.41473e-07
2.7152e-05 -3.19938e-05 2.94377e-08
-1.41473e-07 2.94377e-08 -3.87321e-05
0.00215631 3.92035e-05 1.84688e-05
3.92035e-05 0.000752336 -3.8904e-06
1.84688e-05 -3.8904e-06 0.000770701
0.000731093 3.18274e-05 -1.68065e-06
3.18274e-05 -2.44952e-05 3.59582e-06
-1.68065e-06 3.59582e-06 -3.39627e-05
0.00223506 4.73107e-05 -1.65606e-06
4.73107e-05 0.00080243 -9.37389e-08
-1.65606e-06 -9.37389e-08 0.000818595
0.00231092 5.46375e-05 -2.93142e-05
5.46375e-05 0.000851602 3.64334e-06
-2.93142e-05 3.64334e-06 0.000865575
0.00183919 6.8719e-05 9.30163e-07
6.8719e-05 0.00015375 4.31247e-07
9.30163e-07 4.31247e-07 5.75414e-05
0.00174226 3.83997e-05 8.26904e-07
3.83997e-05 9.26456e-05 -2.27163e-07
8.26904e-07 -2.27163e-07 -6.94061e-06
0.00173305 1.69668e-05 9.43145e-07
1.69668e-05 8.65571e-05 -4.91506e-07
9.43145e-07 -4.91506e-07 -1.98729e-05
0.0017659 8.62336e-06 8.87849e-08
8.62336e-06 0.00012113 -1.26739e-07
8.87849e-08 -1.26739e-07 7.6788e-06
0.00177994 4.22558e-06 -3.1129e-07
4.22558e-06 0.000105377 8.54705e-08
-3.1129e-07 8.54705e-08 -2.39159e-06
0.00185269 2.32304e-05 3.21334e-07
2.32304e-05 0.000123875 -1.60847e-07
3.21334e-07 -1.60847e-07 2.75297e-05
0.00176097 6.55297e-05 6.96084e-08
6.55297e-05 7.73259e-05 -8.79971e-09
6.96084e-08 -8.79971e-09 -1.44152e-05
0.00178769 -4.26541e-08 -1.10733e-06
-4.26541e-08 9.76026e-05 5.25694e-07
-1.10733e-06 5.25694e-07 8.64381e-08
0.00196683 3.48723e-05 -4.54035e-07
3.48723e-05 0.000171391 -1.26935e-07
-4.54035e-07 -1.26935e-07 8.49576e-05
0.00161769 2.43235e-05 8.99262e-07
2.43235e-05 -3.1475e-05 4.51042e-07
8.99262e-07 4.51042e-07 -9.93987e-05
0.00182956 -8.8765e-06 -2.76895e-08
-8.8765e-06 0.000138712 3.40174e-08
-2.76895e-08 3.40174e-08 2.97543e-05
0.00180112 -3.91846e-05 1.24181e-06
-3.91846e-05 0.000132963 -7.34278e-08
1.24181e-06 -7.34278e-08 3.5712e-05
0.00173803 -6.93346e-05 -2.61729e-07
-6.93346e-05 9.8819e-05 -4.5699e-07
-2.61729e-07 -4.5699e-07 9.69823e-07
0.00109327 -0.000119856 -5.38245e-07
-0.000119856 0.000182892 1.2835e-06
-5.38245e-07 1.2835e-06 7.43733e-05
0.000848733 -0.000118233 1.2841e-07
-0.000118233 4.55255e-05 3.75805e-06
1.2841e-07 3.75805e-06 -9.24886e-05
0.00160904 -0.000178541 -2.8005e-06
-0.000178541 0.000322081 2.95607e-06
-2.8005e-06 2.95607e-06 0.000151068
0.00189487 -0.000130096 4.30795e-06
-0.000130096 0.000164212 1.71518e-07
4.30795e-06 1.71518e-07 6.65715e-05
0.00151473 -0.000162895 -3.16676e-06
-0.000162895 6.32485e-05 -2.94191e-06
-3.16676e-06 -2.94191e-06 -5.94396e-05
0.000528628 -8.55134e-05 -1.52343e-06
-8.55134e-05 -0.000115102 2.98439e-07
-1.52343e-06 2.98439e-07 -0.000216695
0.00111532 -0.000113685 4.43138e-06
-0.000113685 0.000198927 -2.86221e-06
4.43138e-06 -2.86221e-06 9.86356e-05
0.000815763 1.01449e-05 -5.5988e-08
1.01449e-05 3.6531e-05 -2.26668e-07
-5.5988e-08 -2.26668e-07 -4.79661e-05
0.000781815 2.04472e-05 -7.39046e-07
2.04472e-05 6.56546e-07 1.17029e-06
-7.39046e-07 1.17029e-06 -3.34344e-05
0.000915282 2.40904e-05 -7.14844e-07
2.40904e-05 8.38516e-05 1.24564e-06
-7.14844e-07 1.24564e-06 2.62432e-05
0.000876435 -1.10247e-05 -6.21784e-07
-1.10247e-05 7.14331e-05 1.05536e-06
-6.21784e-07 1.05536e-06 -3.17674e-06
0.00182939 -2.16822e-05 -4.59334e-08
-2.16822e-05 0.000124528 1.2951e-07
-4.59334e-08 1.2951e-07 2.73399e-05
0.000796693 1.54681e-05 5.53753e-08
1.54681e-05 5.95207e-06 1.66633e-08
5.53753e-08 1.66633e-08 -2.59705e-05
0.000739912 -5.46648e-06 -3.23126e-07
-5.46648e-06 -9.92452e-06 8.74257e-08
-3.23126e-07 8.74257e-08 -6.04356e-05
0.00178785 -5.36582e-05 -1.3462e-08
-5.36582e-05 9.44924e-05 -1.74366e-07
-1.3462e-08 -1.74366e-07 7.0173e-06
0.00163558 -8.92315e-05 -7.6689e-07
-8.92315e-05 -1.04984e-05 4.35858e-07
-7.6689e-07 4.35858e-07 -0.000101595
0.000701829 -9.95953e-05 -6.53034e-08
-9.95953e-05 -4.98665e-06 2.0848e-06
-6.53034e-08 2.0848e-06 -0.000120106
0.00142579 -0.000158794 -1.06982e-06
-0.000158794 0.000324456 4.50011e-07
-1.06982e-06 4.50011e-07 0.000150491
0.00133515 -0.000172591 1.57927e-06
-0.000172591 9.14392e-05 9.15526e-07
1.57927e-06 9.15526e-07 -7.30611e-05
0.00195386 -0.000175476 1.14546e-06
-0.000175476 0.000173845 -5.35462e-07
1.14546e-06 -5.35462e-07 7.65735e-05
0.00088112 -1.85586e-05 1.09279e-06
-1.85586e-05 6.76602e-05 -5.46119e-07
1.09279e-06 -5.46119e-07 1.10444e-05
0.000875551 -1.82383e-05 -4.37426e-07
-1.82383e-05 7.5201e-05 4.67439e-07
-4.37426e-07 4.67439e-07 8.01383e-07
0.00089277 -9.89197e-05 5.84559e-07
-9.89197e-05 4.84155e-05 3.07384e-07
5.84559e-07 3.07384e-07 -4.71598e-05
0.00126417 -0.000128084 2.93106e-06
-0.000128084 0.000296816 -1.53119e-06
2.93106e-06 -1.53119e-06 0.000202776
0.000727857 -7.15113e-05 -3.51713e-07
-7.15113e-05 1.42991e-05 3.58532e-07
-3.51713e-07 3.58532e-07 -8.96664e-05
0.000901627 4.56111e-06 1.65948e-07
4.56111e-06 8.68801e-05 -2.90333e-07
1.65948e-07 -2.90333e-07 5.94165e-06
0.00186519 -2.69083e-05 -2.99592e-06
-2.69083e-05 0.000117691 -4.22203e-08
-2.99592e-06 -4.22203e-08 3.73228e-05
0.00193399 -4.81397e-05 2.96721e-06
-4.81397e-05 0.000145455 9.47889e-07
2.96721e-06 9.47889e-07 6.47802e-05
0.00182501 -0.000153482 -4.04706e-06
-0.000153482 2.972e-05 -1.85858e-06
-4.04706e-06 -1.85858e-06 -5.04143e-05
0.00107482 -0.000172987 3.82198e-07
-0.000172987 -0.000204905 1.81263e-06
3.82198e-07 1.81263e-06 -0.000318646
0.00104123 -9.58887e-05 -2.71739e-06
-9.58887e-05 0.000157494 -1.55235e-06
-2.71739e-06 -1.55235e-06 4.04051e-05
0.00202897 -0.000211022 -2.12054e-06
-0.000211022 0.000593645 -5.76754e-07
-2.12054e-06 -5.76754e-07 0.000389743
0.000641281 4.063e-05 -1.03691e-06
4.063e-05 -6.05379e-05 -1.45646e-06
-1.03691e-06 -1.45646e-06 -0.000111194
0.00081288 -2.28812e-05 5.23244e-07
-2.28812e-05 2.7888e-05 -1.05002e-06
5.23244e-07 -1.05002e-06 -2.4069e-05
0.00100142 -3.12124e-05 7.69817e-07
-3.12124e-05 0.000146438 -4.86116e-07
7.69817e-07 -4.86116e-07 8.09372e-05
0.000705488 1.88451e-05 -5.82578e-07
1.88451e-05 -1.30281e-05 -6.10995e-07
-5.82578e-07 -6.10995e-07 -8.87677e-05
0.0010455 -1.0865e-05 2.91151e-07
-1.0865e-05 0.000168029 -6.82085e-08
2.91151e-07 -6.82085e-08 8.90493e-05
0.000515838 -1.82375e-05 5.01525e-07
-1.82375e-05 -0.000100297 3.47885e-07
5.01525e-07 3.47885e-07 -0.000194738
0.0012009 -7.83947e-05 5.86762e-06
-7.83947e-05 0.000290541 -1.32917e-08
5.86762e-06 -1.32917e-08 0.000173418
0.000774142 -0.000105802 -1.00126e-05
-0.000105802 1.35024e-05 2.8264e-06
-1.00126e-05 2.8264e-06 -7.23254e-05
0.000732752 7.63392e-06 -2.87114e-07
7.63392e-06 -7.04168e-06 6.0085e-09
-2.87114e-07 6.0085e-09 -7.42808e-05
0.000843396 4.70547e-05 -1.52199e-06
4.70547e-05 6.56471e-05 -1.68752e-06
-1.52199e-06 -1.68752e-06 -2.35367e-05
0.00193779 9.07161e-05 -6.43918e-07
9.07161e-05 0.000155247 -4.55849e-07
-6.43918e-07 -4.55849e-07 7.5938e-05
0.00136456 0.000132718 1.9469e-06
0.000132718 -9.1814e-05 6.2524e-07
1.9469e-06 6.2524e-07 -0.000185589
0.00114804 6.58445e-05 -1.94424e-06
6.58445e-05 0.000228701 -2.57827e-07
-1.94424e-06 -2.57827e-07 0.000115951
0.000975986 0.000114676 -4.86422e-07
0.000114676 0.000154122 -1.82549e-06
-4.86422e-07 -1.82549e-06 1.47615e-05
0.0023304 0.00021807 7.58213e-07
0.00021807 0.000556955 7.32442e-07
7.58213e-07 7.32442e-07 0.000416652
0.00120142 0.000154252 -7.08725e-07
0.000154252 0.00018065 -1.28442e-06
-7.08725e-07 -1.28442e-06 1.67172e-06
0.000872718 8.12639e-06 3.7002e-07
8.12639e-06 7.28936e-05 -5.6621e-07
3.7002e-07 -5.6621e-07 -1.08868e-06
0.0017816 6.32958e-05 -3.67177e-07
6.32958e-05 5.76864e-05 1.82981e-07
-3.67177e-07 1.82981e-07 -1.5551e-05
0.000942185 7.67927e-05 6.7917e-08
7.67927e-05 0.000132438 1.04347e-06
6.7917e-08 1.04347e-06 2.61273e-05
0.000848475 0.000110079 2.34498e-07
0.000110079 6.6782e-05 -1.65555e-07
2.34498e-07 -1.65555e-07 -8.14324e-05
0.00192682 0.000115945 1.99288e-06
0.000115945 9.23449e-05 3.95053e-09
1.99288e-06 3.95053e-09 1.99615e-05
0.00184973 0.00020372 3.24157e-07
0.00020372 0.000145675 -1.16748e-06
3.24157e-07 -1.16748e-06 2.91936e-05
0.00181766 0.000196442 8.36568e-07
0.000196442 0.000449135 1.27912e-06
8.36568e-07 1.27912e-06 0.000259254
0.00101737 2.51196e-05 -8.74113e-07
2.51196e-05 0.000161311 7.48518e-07
-8.74113e-07 7.48518e-07 7.15127e-05
0.00196196 7.43187e-05 -8.93589e-06
7.43187e-05 0.000116759 -1.21212e-06
-8.93589e-06 -1.21212e-06 6.59948e-05
0.00176275 0.000137812 -2.64888e-06
0.000137812 0.000552888 9.56428e-08
-2.64888e-06 9.56428e-08 0.000430445
0.00193365 0.000184582 -3.28259e-06
0.000184582 0.000606084 7.56256e-07
-3.28259e-06 7.56256e-07 0.00043527
0.00229511 0.000216872 8.41756e-08
0.000216872 0.000250702 -1.73464e-07
8.41756e-08 -1.73464e-07 0.000174899
0.0015005 0.000195848 -3.11154e-06
0.000195848 0.000153676 1.05345e-06
-3.11154e-06 1.05345e-06 -1.45115e-05
0.000445276 8.68635e-05 1.20968e-05
8.68635e-05 -0.000361491 1.57872e-06
1.20968e-05 1.57872e-06 -0.000502315
0.000887565 -9.48656e-06 -1.63216e-08
-9.48656e-06 7.7211e-05 -3.07465e-07
-1.63216e-08 -3.07465e-07 1.00611e-05
0.00090419 -1.53884e-05 -1.29932e-08
-1.53884e-05 9.19253e-05 1.16727e-07
-1.29932e-08 1.16727e-07 1.77905e-05
0.00091015 -7.26859e-06 1.12645e-08
-7.26859e-06 8.97462e-05 -7.27835e-07
1.12645e-08 -7.27835e-07 1.15065e-05
0.000828405 -3.85512e-05 -2.70819e-07
-3.85512e-05 2.8764e-05 -6.61959e-07
-2.70819e-07 -6.61959e-07 -1.90527e-05
0.000787587 -5.10226e-05 -8.6271e-07
-5.10226e-05 1.9712e-05 2.65715e-07
-8.6271e-07 2.65715e-07 -3.90069e-05
0.000921116 5.04406e-05 -8.52609e-07
5.04406e-05 0.00010362 4.95366e-07
-8.52609e-07 4.95366e-07 3.49482e-05
0.000851277 -3.5182e-05 1.63158e-07
-3.5182e-05 6.09222e-05 -3.30912e-08
1.63158e-07 -3.30912e-08 -1.07906e-05
0.000827329 -2.33659e-05 -1.19197e-07
-2.33659e-05 2.87602e-05 4.25678e-08
-1.19197e-07 4.25678e-08 -2.00483e-05
0.000789881 -2.73074e-08 3.87391e-08
-2.73074e-08 1.34139e-05 -5.98407e-08
3.87391e-08 -5.98407e-08 -4.32756e-05
0.000859195 -2.1127e-05 4.67089e-07
-2.1127e-05 6.3465e-05 -4.5241e-07
4.67089e-07 -4.5241e-07 -1.04541e-05
0.000907096 -2.23231e-05 -8.67153e-08
-2.23231e-05 8.56806e-05 -1.0065e-08
-8.67153e-08 -1.0065e-08 2.27269e-05
0.00089659 -3.69142e-05 2.63445e-07
-3.69142e-05 8.26892e-05 -3.97655e-08
2.63445e-07 -3.97655e-08 1.28118e-05
0.000863666 -2.64591e-05 -1.91621e-07
-2.64591e-05 6.34779e-05 -8.16237e-07
-1.91621e-07 -8.16237e-07 -8.84387e-06
0.000856293 -9.67195e-06 5.12182e-07
-9.67195e-06 5.55071e-05 -7.4393e-07
5.12182e-07 -7.4393e-07 -8.8995e-06
0.00092312 -5.52145e-06 8.16816e-07
-5.52145e-06 8.79846e-05 -3.12841e-07
8.16816e-07 -3.12841e-07 2.65187e-05
0.000838252 1.85572e-05 1.73722e-07
1.85572e-05 4.09931e-05 1.63919e-07
1.73722e-07 1.63919e-07 -2.1532e-05
0.000738461 -4.15693e-06 1.97411e-07
-4.15693e-06 -2.43916e-05 9.36089e-07
1.97411e-07 9.36089e-07 -7.20478e-05
0.000945322 -4.34687e-06 3.41213e-07
-4.34687e-06 0.000109733 -3.39041e-07
3.41213e-07 -3.39041e-07 4.54778e-05
0.000716735 6.58555e-06 -4.63632e-07
6.58555e-06 -3.21708e-05 9.01847e-07
-4.63632e-07 9.01847e-07 -8.1271e-05
0.000788061 1.22474e-05 2.14017e-07
1.22474e-05 -2.32693e-06 1.40241e-06
2.14017e-07 1.40241e-06 -3.228e-05
0.000787731 2.33845e-06 -1.84572e-07
2.33845e-06 -3.30401e-06 6.59993e-10
-1.84572e-07 6.59993e-10 -3.27724e-05
0.000736065 6.62454e-07 2.61248e-07
6.62454e-07 -4.19848e-05 3.0899e-06
2.61248e-07 3.0899e-06 -4.37691e-05
0.000799078 -8.1196e-06 -3.03044e-08
-8.1196e-06 1.72113e-06 -1.45735e-06
-3.03044e-08 -1.45735e-06 -2.68984e-05
0.00102555 -5.18193e-06 -1.30265e-06
-5.18193e-06 0.000116656 -1.2989e-06
-1.30265e-06 -1.2989e-06 0.000116802
0.00208888 -8.00185e-06 5.69772e-06
-8.00185e-06 0.000701367 4.072e-06
5.69772e-06 4.072e-06 0.000723579
0.00132839 -1.15128e-05 -2.85953e-06
-1.15128e-05 0.000283983 -4.33644e-06
-2.85953e-06 -4.33644e-06 0.000285718
0.000945548 -1.17643e-05 1.85182e-06
-1.17643e-05 7.66008e-05 2.49282e-06
1.85182e-06 2.49282e-06 9.2893e-05
0.000891628 -1.69821e-05 -1.11103e-06
-1.69821e-05 4.98516e-05 -1.57042e-06
-1.11103e-06 -1.57042e-06 6.61393e-05
0.000797811 8.36992e-06 2.42741e-07
8.36992e-06 3.57144e-06 -1.64308e-06
2.42741e-07 -1.64308e-06 -2.50172e-05
0.000798248 1.11737e-05 -2.70301e-08
1.11737e-05 4.49611e-06 9.26286e-09
-2.70301e-08 9.26286e-09 -2.5394e-05
0.000737237 1.61787e-05 4.58908e-07
1.61787e-05 -3.69888e-05 -3.33741e-06
4.58908e-07 -3.33741e-06 -3.95305e-05
0.00103006 2.44392e-05 -4.81334e-07
2.44392e-05 0.000127588 2.97744e-08
-4.81334e-07 2.97744e-08 0.000124725
0.00211206 3.106e-05 1.52456e-05
3.106e-05 0.000722755 -3.99786e-06
1.52456e-05 -3.99786e-06 0.000742783
0.000741194 2.75627e-05 -1.15761e-06
2.75627e-05 -2.51281e-05 3.49311e-06
-1.15761e-06 3.49311e-06 -3.19471e-05
0.00217421 3.966e-05 -1.73512e-06
3.966e-05 0.000762895 -8.22589e-08
-1.73512e-06 -8.22589e-08 0.000780989
0.00225399 4.74946e-05 -2.50034e-05
4.74946e-05 0.000813609 3.80754e-06
-2.50034e-05 3.80754e-06 0.000829542
0.00172565 6.71304e-05 -9.22481e-07
6.71304e-05 5.51983e-05 -3.67651e-07
-9.22481e-07 -3.67651e-07 -3.64521e-05
0.0018203 2.29542e-05 6.46713e-07
2.29542e-05 0.000103872 -3.92501e-07
6.46713e-07 -3.92501e-07 7.09793e-06
0.00180391 4.65451e-07 2.20369e-07
4.65451e-07 0.000118207 -1.88955e-07
2.20369e-07 -1.88955e-07 1.11747e-05
0.00177604 2.20301e-06 3.07804e-07
2.20301e-06 8.85612e-05 1.08334e-07
3.07804e-07 1.08334e-07 -9.15748e-06
0.00184425 3.39798e-05 -7.54864e-07
3.39798e-05 0.000110066 1.78132e-07
-7.54864e-07 1.78132e-07 2.32771e-05
0.00174932 2.12095e-05 2.18726e-06
2.12095e-05 4.60094e-05 1.47591e-07
2.18726e-06 1.47591e-07 -2.44243e-05
0.00166583 4.98087e-06 -1.07585e-06
4.98087e-06 1.34648e-05 -6.99726e-07
-1.07585e-06 -6.99726e-07 -6.36421e-05
0.00358611 -2.3488e-05 9.59116e-06
-2.3488e-05 0.000832746 2.8978e-06
9.59116e-06 2.8978e-06 0.000786399
0.00163746 2.78698e-05 -4.12729e-06
2.78698e-05 -4.78081e-05 3.76413e-07
-4.12729e-06 3.76413e-07 -9.48562e-05
0.000826106 2.59963e-05 9.13192e-08
2.59963e-05 3.6654e-05 -8.63402e-07
9.13192e-08 -8.63402e-07 -1.01318e-05
0.00185712 -2.18428e-05 1.48705e-06
-2.18428e-05 0.000142209 2.90669e-08
1.48705e-06 2.90669e-08 4.64862e-05
0.00183239 -5.49627e-05 -4.404e-07
-5.49627e-05 0.000119711 -4.11296e-07
-4.404e-07 -4.11296e-07 3.15749e-05
0.00169554 -8.87143e-05 2.61676e-06
-8.87143e-05 2.10713e-05 1.07039e-07
2.61676e-06 1.07039e-07 -7.17267e-05
0.000836885 -0.000105908 1.61584e-06
-0.000105908 7.21563e-05 2.38191e-06
1.61584e-06 2.38191e-06 -4.14515e-05
0.00116991 -0.000143358 6.34954e-07
-0.000143358 0.000191208 4.38632e-06
6.34954e-07 4.38632e-06 1.01254e-05
0.00110001 -0.000158248 9.66352e-07
-0.000158248 -3.42058e-05 -2.03146e-06
9.66352e-07 -2.03146e-06 -0.000194045
0.0020623 -0.000186184 9.62759e-07
-0.000186184 0.000232057 -1.79088e-06
9.62759e-07 -1.79088e-06 0.000133746
0.00104466 -0.000107313 5.85326e-06
-0.000107313 0.000125705 -3.12823e-06
5.85326e-06 -3.12823e-06 2.60372e-05
0.000559889 -9.06972e-05 -6.76762e-07
-9.06972e-05 -8.01354e-05 -8.06386e-06
-6.76762e-07 -8.06386e-06 -0.000162534
0.000642439 -6.50279e-05 -2.54646e-07
-6.50279e-05 -3.15465e-05 1.14688e-07
-2.54646e-07 1.14688e-07 -0.000136086
0.000793732 1.45102e-05 -7.46795e-07
1.45102e-05 4.17197e-06 1.80586e-06
-7.46795e-07 1.80586e-06 -2.77201e-05
0.000907926 -5.39919e-06 -5.366e-08
-5.39919e-06 9.18152e-05 -4.09079e-07
-5.366e-08 -4.09079e-07 9.40408e-06
0.00105956 -4.45142e-05 -4.32576e-07
-4.45142e-05 0.000167127 4.87956e-07
-4.32576e-07 4.87956e-07 0.000110059
0.000860523 -1.07498e-05 -7.70096e-07
-1.07498e-05 6.70505e-05 1.16643e-06
-7.70096e-07 1.16643e-06 -7.27666e-06
0.000672613 -2.25869e-06 -5.35776e-08
-2.25869e-06 -4.94279e-05 9.68044e-07
-5.35776e-08 9.68044e-07 -9.82909e-05
0.00184915 -2.80457e-05 -3.94555e-07
-2.80457e-05 0.000108698 -1.22e-07
-3.94555e-07 -1.22e-07 2.94976e-05
0.000731633 1.68553e-05 1.86272e-07
1.68553e-05 -1.10445e-05 -5.43043e-07
1.86272e-07 -5.43043e-07 -6.15168e-05
0.000818619 -3.57176e-05 -4.30804e-07
-3.57176e-05 3.4871e-05 4.13645e-08
-4.30804e-07 4.13645e-08 -1.99378e-05
0.000857371 -1.06687e-05 -6.5173e-07
-1.06687e-05 6.98461e-05 5.04868e-07
-6.5173e-07 5.04868e-07 2.15346e-06
0.00174587 -5.11179e-05 7.57637e-07
-5.11179e-05 3.73565e-05 -3.43034e-07
7.57637e-07 -3.43034e-07 -4.26361e-05
0.00181556 -0.000151975 -1.02267e-06
-0.000151975 4.20544e-05 9.16994e-08
-1.02267e-06 9.16994e-08 -3.92394e-05
0.000890594 -9.84833e-05 -8.97931e-08
-9.84833e-05 6.52236e-05 2.27012e-07
-8.97931e-08 2.27012e-07 -4.66268e-05
0.00119177 -0.000162608 4.53837e-07
-0.000162608 0.000173996 -6.38012e-07
4.53837e-07 -6.38012e-07 -3.37083e-05
0.00160274 -0.000198133 -4.71912e-07
-0.000198133 7.23323e-05 4.01933e-07
-4.71912e-07 4.01933e-07 -4.57355e-05
0.000809115 3.45885e-06 -1.6378e-07
3.45885e-06 4.36049e-05 1.06036e-08
-1.6378e-07 1.06036e-08 -3.16566e-05
0.000956443 -2.77661e-05 -3.71132e-08
-2.77661e-05 0.000123718 6.37811e-08
-3.71132e-08 6.37811e-08 4.21917e-05
0.00069336 -0.000103435 -5.25394e-06
-0.000103435 -2.21528e-05 1.19252e-06
-5.25394e-06 1.19252e-06 -0.000114281
0.00104361 -6.29556e-05 8.55302e-07
-6.29556e-05 0.000202825 -5.38386e-07
8.55302e-07 -5.38386e-07 9.02904e-05
0.000768413 -3.84587e-05 -3.13877e-07
-3.84587e-05 3.50481e-05 8.95416e-07
-3.13877e-07 8.95416e-07 -5.99636e-05
0.00188624 -6.57018e-05 -3.48467e-06
-6.57018e-05 7.63304e-05 4.51576e-07
-3.48467e-06 4.51576e-07 7.84006e-06
0.00230519 -8.90021e-05 3.55954e-07
-8.90021e-05 0.000279311 1.15646e-06
3.55954e-07 1.15646e-06 0.000213482
0.00194212 -0.000219848 9.85208e-07
-0.000219848 0.000122827 -1.56117e-06
9.85208e-07 -1.56117e-06 2.65984e-05
0.00181185 -0.000211553 -5.30191e-06
-0.000211553 0.000370126 4.35303e-07
-5.30191e-06 4.35303e-07 0.000207494
0.000977633 -0.000106623 -1.30087e-06
-0.000106623 0.000151395 -2.5845e-06
-1.30087e-06 -2.5845e-06 5.43478e-07
0.000668032 1.71225e-05 2.36886e-07
1.71225e-05 -3.483e-05 -1.03168e-06
2.36886e-07 -1.03168e-06 -0.000101433
0.000745109 5.30185e-05 -3.26375e-07
5.30185e-05 9.60663e-06 -8.86236e-07
-3.26375e-07 -8.86236e-07 -6.17895e-05
0.00103431 1.76452e-05 7.88124e-07
1.76452e-05 0.000163482 3.55145e-07
7.88124e-07 3.55145e-07 8.90928e-05
0.000797232 -5.32977e-05 1.33114e-06
-5.32977e-05 4.26999e-05 -1.55749e-07
1.33114e-06 -1.55749e-07 -3.96639e-05
0.000967136 1.96933e-06 6.41213e-07
1.96933e-06 0.000126147 5.31546e-07
6.41213e-07 5.31546e-07 4.28457e-05
0.000801358 -1.00286e-05 1.11991e-06
-1.00286e-05 6.1215e-05 -1.3383e-06
1.11991e-06 -1.3383e-06 -4.16605e-05
0.000682033 -7.75638e-05 8.64015e-06
-7.75638e-05 3.13359e-05 4.7721e-07
8.64015e-06 4.7721e-07 -0.000113424
0.000859297 3.64191e-05 4.64517e-09
3.64191e-05 7.01441e-05 -1.48201e-06
4.64517e-09 -1.48201e-06 -6.6938e-06
0.000715762 4.91609e-05 1.14424e-07
4.91609e-05 7.89904e-06 1.24342e-07
1.14424e-07 1.24342e-07 -9.42178e-05
0.00187619 6.06772e-05 2.15174e-07
6.06772e-05 0.000101605 -5.43074e-07
2.15174e-07 -5.43074e-07 2.88631e-05
0.00165663 0.000109637 3.24807e-06
0.000109637 -4.59266e-05 -6.65363e-07
3.24807e-06 -6.65363e-07 -0.000118169
0.00190489 0.000203488 1.17781e-06
0.000203488 0.000169828 -7.2214e-07
1.17781e-06 -7.2214e-07 5.52892e-05
0.000644285 9.8259e-05 1.3175e-06
9.8259e-05 -4.05327e-05 -2.64692e-08
1.3175e-06 -2.64692e-08 -0.000190483
0.00185996 0.000200894 1.51675e-06
0.000200894 0.000479099 1.02654e-06
1.51675e-06 1.02654e-06 0.000289932
0.00101478 1.65495e-05 -2.09301e-07
1.65495e-05 0.000158595 1.17296e-07
-2.09301e-07 1.17296e-07 7.22936e-05
0.00187049 7.31056e-05 -1.55399e-06
7.31056e-05 6.15667e-05 -3.92153e-07
-1.55399e-06 -3.92153e-07 1.65888e-05
0.00124633 0.000112557 -9.00434e-07
0.000112557 0.00028408 2.94325e-07
-9.00434e-07 2.94325e-07 0.000164726
0.0013832 0.000151133 -5.75759e-07
0.000151133 0.000331814 6.59497e-07
-5.75759e-07 6.59497e-07 0.000161107
0.00207298 0.000200351 1.47085e-06
0.000200351 0.000131447 -8.28423e-07
1.47085e-06 -8.28423e-07 5.73967e-05
0.00142668 0.000193888 -1.85104e-06
0.000193888 0.000120854 1.20922e-06
-1.85104e-06 1.20922e-06 -5.14221e-05
0.00156833 9.34896e-05 9.78237e-06
9.34896e-05 -1.05483e-06 1.28454e-06
9.78237e-06 1.28454e-06 -0.000158585
0.00107216 4.06837e-05 -1.25333e-06
4.06837e-05 0.000187156 -1.08387e-06
-1.25333e-06 -1.08387e-06 9.02033e-05
0.00273743 0.000137464 -1.20948e-05
0.000137464 0.000505317 -7.88475e-06
-1.20948e-05 -7.88475e-06 0.000500499
0.00127822 0.000137939 -4.31728e-06
0.000137939 0.000313823 -1.31508e-06
-4.31728e-06 -1.31508e-06 0.000183205
0.00128696 0.000156741 -5.17425e-06
0.000156741 0.000245121 -9.96679e-07
-5.17425e-06 -9.96679e-07 4.87073e-05
0.00010036 0.000186166 -7.02901e-06
0.000186166 -0.000709612 -2.43066e-06
-7.02901e-06 -2.43066e-06 -0.000838317
0.00698884 -1.14653e-05 -5.74252e-05
-1.14653e-05 0.00227658 -1.92882e-05
-5.74252e-05 -1.92882e-05 0.00147319
0.00382228 0.000113853 8.09239e-05
0.000113853 0.000533789 6.56856e-06
8.09239e-05 6.56856e-06 -5.83035e-05
-0.00013689 0.000176082 6.75227e-06
0.000176082 -0.000730602 1.82857e-05
6.75227e-06 1.82857e-05 -0.000800129
-0.00134345 -0.000323239 1.04608e-05
-0.000323239 -0.000629322 -1.0182e-05
1.04608e-05 -1.0182e-05 -0.000664879
0.00279123 -0.000576865 -2.45217e-05
-0.000576865 0.000311069 -8.94974e-06
-2.45217e-05 -8.94974e-06 0.00139256
0.000910964 -1.40153e-05 1.7474e-07
-1.40153e-05 9.52435e-05 -3.14776e-07
1.7474e-07 -3.14776e-07 2.12449e-05
0.000925417 -1.31185e-05 4.40084e-07
-1.31185e-05 0.000100177 -3.07402e-07
4.40084e-07 -3.07402e-07 2.24489e-05
0.000986916 2.58699e-05 -2.17682e-07
2.58699e-05 0.000135943 -1.54747e-06
-2.17682e-07 -1.54747e-06 5.85201e-05
0.00080896 -4.41883e-05 9.66252e-08
-4.41883e-05 2.21024e-05 -7.04938e-07
9.66252e-08 -7.04938e-07 -2.88178e-05
0.000730471 3.26344e-05 -8.9886e-07
3.26344e-05 -1.67205e-05 -1.05854e-07
-8.9886e-07 -1.05854e-07 -7.47922e-05
0.000913304 -4.36757e-05 -5.07992e-08
-4.36757e-05 8.89682e-05 3.01708e-08
-5.07992e-08 3.01708e-08 2.56053e-05
0.000978886 -2.3639e-05 -4.52313e-07
-2.3639e-05 0.000126339 3.71975e-07
-4.52313e-07 3.71975e-07 5.75725e-05
0.000851169 -2.53823e-05 6.55892e-07
-2.53823e-05 5.90948e-05 -4.18833e-07
6.55892e-07 -4.18833e-07 -1.54178e-05
0.000852596 2.18373e-05 -5.72447e-07
2.18373e-05 5.32176e-05 -2.53779e-07
-5.72447e-07 -2.53779e-07 -1.07063e-05
0.000772474 -2.45974e-06 2.58843e-09
-2.45974e-06 -2.53041e-06 4.64235e-07
2.58843e-09 4.64235e-07 -5.13394e-05
0.000849691 1.72801e-05 -2.55713e-07
1.72801e-05 4.68191e-05 -6.85409e-08
-2.55713e-07 -6.85409e-08 -1.50043e-05
0.000876839 -2.54844e-05 -1.38603e-07
-2.54844e-05 7.02922e-05 3.23791e-07
-1.38603e-07 3.23791e-07 -1.83361e-06
0.000880982 -1.34485e-05 2.34818e-08
-1.34485e-05 6.85866e-05 -1.34597e-07
2.34818e-08 -1.34597e-07 4.22235e-06
0.000781069 8.13992e-06 5.9866e-07
8.13992e-06 1.08154e-05 -6.18831e-07
5.9866e-07 -6.18831e-07 -5.22975e-05
0.000860984 -1.06323e-05 6.26999e-07
-1.06323e-05 5.58245e-05 -1.09093e-06
6.26999e-07 -1.09093e-06 -8.40285e-06
0.000887896 6.18187e-06 1.27116e-06
6.18187e-06 6.21763e-05 9.75472e-08
1.27116e-06 9.75472e-08 -1.04217e-06
0.000817679 2.08167e-06 1.02113e-06
2.08167e-06 2.26077e-05 -3.43209e-08
1.02113e-06 -3.43209e-08 -3.85876e-05
0.000712519 -3.3286e-05 -1.17293e-06
-3.3286e-05 -3.40146e-05 9.78415e-07
-1.17293e-06 9.78415e-07 -8.40616e-05
0.000897243 8.46353e-06 -2.91724e-07
8.46353e-06 7.37265e-05 5.49648e-08
-2.91724e-07 5.49648e-08 1.0895e-05
0.000967055 6.25838e-05 -1.38122e-08
6.25838e-05 0.000112602 -6.7202e-07
-1.38122e-08 -6.7202e-07 4.71095e-05
0.000799954 1.10499e-05 -5.31366e-07
1.10499e-05 3.11719e-05 2.65049e-08
-5.31366e-07 2.65049e-08 -3.05091e-05
0.000903005 1.31369e-05 5.05363e-07
1.31369e-05 8.0961e-05 -3.25768e-07
5.05363e-07 -3.25768e-07 1.94573e-05
0.000825048 -2.08549e-05 -1.33939e-06
-2.08549e-05 2.74568e-05 4.84769e-07
-1.33939e-06 4.84769e-07 -2.02366e-05
0.000723696 5.82644e-06 1.07902e-07
5.82644e-06 -2.52814e-05 4.01062e-07
1.07902e-07 4.01062e-07 -7.6494e-05
0.0007941 1.39839e-05 -1.51127e-07
1.39839e-05 1.13063e-06 1.43896e-06
-1.51127e-07 1.43896e-06 -2.88389e-05
0.00078575 5.06261e-06 -1.32801e-07
5.06261e-06 -3.72577e-06 1.62928e-09
-1.32801e-07 1.62928e-09 -3.3584e-05
0.000753495 5.72284e-06 -3.03289e-07
5.72284e-06 -3.12765e-05 4.39989e-06
-3.03289e-07 4.39989e-06 -3.36176e-05
0.000786952 -4.81991e-06 2.51752e-07
-4.81991e-06 -3.72847e-06 -1.41151e-06
2.51752e-07 -1.41151e-06 -3.31368e-05
0.00073983 7.97314e-07 1.98127e-07
7.97314e-07 -3.99152e-05 -8.77701e-09
1.98127e-07 -8.77701e-09 -4.17339e-05
0.00210663 -9.63497e-07 2.7818e-07
-9.63497e-07 0.000710645 4.13182e-06
2.7818e-07 4.13182e-06 0.000732719
0.00076145 -4.19629e-06 -5.66907e-07
-4.19629e-06 -2.76444e-05 -4.37184e-06
-5.66907e-07 -4.37184e-06 -2.91944e-05
0.00152012 -6.62652e-06 -3.26574e-07
-6.62652e-06 0.00038971 1.87801e-08
-3.26574e-07 1.87801e-08 0.000408925
0.000903344 -1.10947e-05 -6.17554e-07
-1.10947e-05 5.28735e-05 -1.55592e-06
-6.17554e-07 -1.55592e-06 6.94674e-05
0.000802491 4.13591e-06 -6.37235e-08
4.13591e-06 5.36037e-06 -1.71108e-06
-6.37235e-08 -1.71108e-06 -2.23263e-05
0.000796747 7.41315e-06 4.89336e-08
7.41315e-06 2.65591e-06 -2.57725e-09
4.89336e-08 -2.57725e-09 -2.58777e-05
0.000741395 1.07364e-05 2.42251e-07
1.07364e-05 -3.74841e-05 -3.3148e-06
2.42251e-07 -3.3148e-06 -3.88508e-05
0.000801095 1.02785e-05 -6.10233e-07
1.02785e-05 5.79207e-06 1.79022e-06
-6.10233e-07 1.79022e-06 -2.41109e-05
0.00102227 1.81419e-05 -2.4719e-07
1.81419e-05 0.000118742 -6.61286e-07
-2.4719e-07 -6.61286e-07 0.000117732
0.00209333 2.31568e-05 1.14131e-05
2.31568e-05 0.000708318 -4.10995e-06
1.14131e-05 -4.10995e-06 0.000729496
0.000742658 2.23928e-05 -8.06476e-07
2.23928e-05 -2.94661e-05 3.40033e-06
-8.06476e-07 3.40033e-06 -3.40014e-05
0.00214834 3.08487e-05 -6.42897e-06
3.08487e-05 0.00074381 1.12197e-06
-6.42897e-06 1.12197e-06 0.000763533
0.00218978 3.99746e-05 -2.0539e-05
3.99746e-05 0.000772187 3.92951e-06
-2.0539e-05 3.92951e-06 0.000790037
0.00172262 3.33314e-05 1.72575e-07
3.33314e-05 4.92959e-05 1.43272e-07
1.72575e-07 1.43272e-07 -3.78549e-05
0.00176926 3.7241e-06 1.06163e-06
3.7241e-06 8.25594e-05 -1.62559e-07
1.06163e-06 -1.62559e-07 -1.5347e-05
0.00184563 1.91941e-05 3.25402e-06
1.91941e-05 0.000104552 8.29357e-08
3.25402e-06 8.29357e-08 3.16864e-05
0.00182894 2.16002e-06 9.87742e-06
2.16002e-06 -3.98247e-05 2.00224e-06
9.87742e-06 2.00224e-06 -0.000106688
0.0018343 3.99677e-06 -5.01021e-07
3.99677e-06 0.00010085 -1.0254e-07
-5.01021e-07 -1.0254e-07 2.38631e-05
0.00179577 2.83129e-05 1.36843e-06
2.83129e-05 4.57477e-05 5.57523e-08
1.36843e-06 5.57523e-08 -5.00964e-06
0.00237267 1.35223e-05 -2.96075e-06
1.35223e-05 0.000338171 1.12197e-06
-2.96075e-06 1.12197e-06 0.000267224
0.00316441 -5.87207e-05 0.000139439
-5.87207e-05 0.000500242 1.16904e-05
0.000139439 1.16904e-05 0.000166869
0.00164434 -4.13164e-05 -7.40125e-06
-4.13164e-05 -0.000114288 -1.54782e-06
-7.40125e-06 -1.54782e-06 -0.000182308
0.000828995 3.19683e-05 -8.02381e-07
3.19683e-05 3.93735e-05 -9.45355e-07
-8.02381e-07 -9.45355e-07 -8.10197e-06
0.000822258 -1.37493e-05 6.74876e-07
-1.37493e-05 3.74784e-05 -5.58219e-08
6.74876e-07 -5.58219e-08 -1.14249e-05
0.000829835 -4.2918e-05 1.2473e-07
-4.2918e-05 4.61556e-05 -2.05494e-07
1.2473e-07 -2.05494e-07 -1.33588e-05
0.000829369 -2.27826e-05 -1.24546e-06
-2.27826e-05 5.64182e-05 -7.46714e-08
-1.24546e-06 -7.46714e-08 -8.61603e-06
0.0018581 -3.0302e-05 2.62483e-06
-3.0302e-05 0.00011238 -3.208e-07
2.62483e-06 -3.208e-07 3.42777e-05
0.00165208 -5.69525e-05 -1.80609e-06
-5.69525e-05 -2.0898e-05 -2.97645e-07
-1.80609e-06 -2.97645e-07 -0.000100687
0.00185809 -0.000151352 -1.52003e-06
-0.000151352 7.80233e-05 9.19894e-07
-1.52003e-06 9.19894e-07 -5.14111e-06
0.000752213 -0.000104655 2.99227e-06
-0.000104655 -2.00663e-05 2.92954e-06
2.99227e-06 2.92954e-06 -0.000126541
0.000351328 -0.000114023 3.18167e-06
-0.000114023 -0.000252351 -7.6088e-07
3.18167e-06 -7.6088e-07 -0.000459726
0.00217869 -0.000225447 2.58414e-07
-0.000225447 0.000375644 -2.35422e-06
2.58414e-07 -2.35422e-06 0.00025429
0.000639978 -9.04355e-05 -7.66478e-06
-9.04355e-05 -4.77362e-05 1.54323e-06
-7.66478e-06 1.54323e-06 -0.000144178
0.000943661 -5.09548e-05 -1.69157e-06
-5.09548e-05 0.000145724 -4.28216e-07
-1.69157e-06 -4.28216e-07 3.72393e-05
0.00102997 -5.91018e-05 -1.68105e-06
-5.91018e-05 0.000175195 1.66967e-06
-1.68105e-06 1.66967e-06 7.94666e-05
0.000829486 -1.091e-05 -1.17638e-06
-1.091e-05 3.9398e-05 1.12433e-06
-1.17638e-06 1.12433e-06 -1.47032e-05
0.000868411 -4.00788e-05 -5.20458e-07
-4.00788e-05 8.137e-05 1.79952e-07
-5.20458e-07 1.79952e-07 -3.83239e-06
0.000916946 1.35348e-06 -7.08049e-07
1.35348e-06 0.000100226 7.0299e-07
-7.08049e-07 7.0299e-07 2.69173e-05
0.000828195 -3.59156e-06 -2.19126e-09
-3.59156e-06 4.25866e-05 3.59733e-07
-2.19126e-09 3.59733e-07 -8.2366e-06
0.000709628 2.27468e-05 2.32874e-07
2.27468e-05 -7.80624e-06 1.1952e-06
2.32874e-07 1.1952e-06 -7.81224e-05
0.00188454 -5.34847e-05 -3.95689e-07
-5.34847e-05 9.4107e-05 7.16076e-07
-3.95689e-07 7.16076e-07 2.53369e-05
0.000835903 1.14709e-05 5.55152e-07
1.14709e-05 5.52494e-05 -4.68271e-07
5.55152e-07 -4.68271e-07 -9.73304e-06
0.000788719 2.49201e-05 5.28705e-07
2.49201e-05 3.39201e-05 9.89751e-09
5.28705e-07 9.89751e-09 -3.74523e-05
0.000913678 5.19269e-05 -3.88082e-07
5.19269e-05 0.000100864 6.6031e-07
-3.88082e-07 6.6031e-07 2.45825e-05
0.00199107 -8.42256e-05 -3.04389e-06
-8.42256e-05 0.000104827 3.75723e-07
-3.04389e-06 3.75723e-07 3.4749e-05
0.00182683 -0.000207002 6.27705e-07
-0.000207002 7.44374e-05 -1.02943e-06
6.27705e-07 -1.02943e-06 -1.99486e-05
0.000951985 -0.000119674 -1.15201e-06
-0.000119674 0.000122902 -7.25779e-08
-1.15201e-06 -7.25779e-08 -2.3555e-05
0.00195865 -0.000218982 -5.56561e-07
-0.000218982 0.000449571 -3.85219e-07
-5.56561e-07 -3.85219e-07 0.000283372
0.000905501 -1.20865e-05 -3.28931e-07
-1.20865e-05 9.77068e-05 7.04521e-08
-3.28931e-07 7.04521e-08 1.68488e-05
0.00089034 -9.19526e-06 8.12725e-08
-9.19526e-06 9.25249e-05 8.59485e-07
8.12725e-08 8.59485e-07 7.14419e-06
0.000818606 -8.03352e-05 3.79855e-06
-8.03352e-05 9.49208e-05 -9.56002e-07
3.79855e-06 -9.56002e-07 -4.21956e-05
0.00101406 -5.00784e-05 8.49805e-07
-5.00784e-05 0.000177417 -1.2569e-06
8.49805e-07 -1.2569e-06 6.73913e-05
0.00154645 -4.1962e-05 -2.53309e-06
-4.1962e-05 -0.000147057 2.55854e-06
-2.53309e-06 2.55854e-06 -0.000218897
0.00204074 -0.000181547 7.98978e-07
-0.000181547 8.01108e-05 -1.7853e-06
7.98978e-07 -1.7853e-06 1.85963e-05
0.0021069 -0.000237349 -1.72192e-06
-0.000237349 0.000355688 -1.51523e-06
-1.72192e-06 -1.51523e-06 0.000222065
0.00121107 -0.000166827 -5.99589e-07
-0.000166827 0.000252727 -1.59277e-06
-5.99589e-07 -1.59277e-06 9.19263e-05
0.000807305 2.86655e-05 -6.03948e-07
2.86655e-05 4.39166e-05 -1.5952e-07
-6.03948e-07 -1.5952e-07 -3.61415e-05
0.000826207 -3.39254e-05 5.13026e-07
-3.39254e-05 6.11922e-05 -5.19316e-07
5.13026e-07 -5.19316e-07 -1.9175e-05
0.000867489 -1.68895e-05 1.70601e-07
-1.68895e-05 7.81566e-05 -2.26785e-07
1.70601e-07 -2.26785e-07 -1.00328e-05
0.000774595 -4.68274e-06 -1.0677e-06
-4.68274e-06 6.55433e-05 -6.18225e-07
-1.0677e-06 -6.18225e-07 -8.08278e-05
0.000873954 -9.15449e-05 -5.31781e-06
-9.15449e-05 -0.000888673 -3.51592e-06
-5.31781e-06 -3.51592e-06 -0.00134727
0.000977841 7.36808e-06 5.82874e-07
7.36808e-06 0.000137025 -9.30853e-07
5.82874e-07 -9.30853e-07 5.47676e-05
0.000726596 7.92517e-05 1.65375e-06
7.92517e-05 1.17606e-05 1.25284e-06
1.65375e-06 1.25284e-06 -0.000103627
0.00174869 7.21099e-05 8.26221e-06
7.21099e-05 -1.03239e-05 5.96639e-07
8.26221e-06 5.96639e-07 -4.91127e-05
0.00182873 0.000183382 4.98546e-07
0.000183382 1.44843e-06 -1.15516e-06
4.98546e-07 -1.15516e-06 -7.07411e-05
0.00130462 0.000189504 1.89472e-06
0.000189504 6.48875e-05 2.47903e-06
1.89472e-06 2.47903e-06 -0.00011304
0.000841327 0.000117856 3.21999e-06
0.000117856 6.18776e-05 1.37753e-06
3.21999e-06 1.37753e-06 -0.000109083
0.00256087 0.000103941 6.33827e-06
0.000103941 0.000310704 -1.34152e-06
6.33827e-06 -1.34152e-06 0.000123211
0.00094992 3.59887e-05 7.9562e-07
3.59887e-05 0.000127636 -6.71796e-07
7.9562e-07 -6.71796e-07 3.19849e-05
0.00213411 0.000126152 -5.40464e-06
0.000126152 0.000187503 -2.54875e-06
-5.40464e-06 -2.54875e-06 0.000194862
0.00103008 0.000122774 7.90573e-08
0.000122774 0.000184116 -1.70305e-07
7.90573e-08 -1.70305e-07 5.68305e-05
0.00112409 0.00015197 8.51122e-08
0.00015197 0.000171527 3.23536e-07
8.51122e-08 3.23536e-07 -2.75523e-05
0.00110511 0.000230443 -3.70784e-06
0.000230443 -0.000224517 2.44729e-07
-3.70784e-06 2.44729e-07 -0.00034801
0.00260811 -0.0001754 -4.03294e-05
-0.0001754 0.000138866 -1.38286e-05
-4.03294e-05 -1.38286e-05 -0.000582094
0.00372202 3.66181e-05 2.25202e-07
3.66181e-05 0.000378874 -1.35066e-05
2.25202e-07 -1.35066e-05 -0.000318895
0.000272283 0.000156014 6.0821e-06
0.000156014 -0.000518665 4.79247e-06
6.0821e-06 4.79247e-06 -0.000597323
-0.00190968 -0.000230067 3.64764e-05
-0.000230067 -0.000566192 8.71943e-06
3.64764e-05 8.71943e-06 -0.000916632
-3.905e-05 -0.000598095 7.10196e-06
-0.000598095 -0.00112985 -5.41088e-06
7.10196e-06 -5.41088e-06 0.000112619
0.00114053 7.76113e-05 -1.38834e-06
7.76113e-05 0.000242808 -2.07941e-06
-1.38834e-06 -2.07941e-06 0.00014806
0.000789776 0.000109054 -7.29604e-05
0.000109054 0.000770834 -2.22319e-05
-7.29604e-05 -2.22319e-05 0.000405451
0.0014212 -0.000325739 -4.386e-05
-0.000325739 0.000548326 -3.5158e-05
-4.386e-05 -3.5158e-05 0.00079426
0.00126395 0.000147262 -1.63093e-05
0.000147262 -0.000189218 -4.64796e-06
-1.63093e-05 -4.64796e-06 -0.000157199
0.00113636 7.48028e-05 -5.71602e-06
7.48028e-05 0.000264546 -1.82314e-06
-5.71602e-06 -1.82314e-06 0.000123441
0.000987659 0.000200793 -1.00522e-05
0.000200793 5.35908e-05 -5.43238e-06
-1.00522e-05 -5.43238e-06 -0.000154069
2.18384e-05 0.000196433 4.39328e-06
0.000196433 -0.00063378 4.02865e-05
4.39328e-06 4.02865e-05 -0.000600226
0.00669218 -0.000167881 -4.98143e-05
-0.000167881 0.00229485 -1.05726e-05
-4.98143e-05 -1.05726e-05 0.00109866
0.00365118 0.000230941 -5.75864e-06
0.000230941 0.000412132 2.61432e-05
-5.75864e-06 2.61432e-05 -0.000558273
0.000751003 -0.000514266 -1.874e-05
-0.000514266 -6.57112e-05 -7.08416e-06
-1.874e-05 -7.08416e-06 0.000245805
0.000887262 -0.000324657 -3.50235e-05
-0.000324657 -0.00152776 1.24433e-05
-3.50235e-05 1.24433e-05 -0.000576191
0.000932982 -1.77886e-05 5.41083e-07
-1.77886e-05 0.000107145 -2.31601e-07
5.41083e-07 -2.31601e-07 2.97468e-05
0.000941469 1.42689e-05 -2.00078e-07
1.42689e-05 0.000111356 1.22767e-07
-2.00078e-07 1.22767e-07 3.49452e-05
0.0012017 5.55645e-05 -6.81167e-07
5.55645e-05 0.000258068 -1.81636e-06
-6.81167e-07 -1.81636e-06 0.000189353
0.000807082 2.44579e-06 -1.82633e-07
2.44579e-06 2.41922e-05 -1.68473e-07
-1.82633e-07 -1.68473e-07 -2.87846e-05
0.000870052 1.06182e-05 -6.85673e-07
1.06182e-05 5.67881e-05 -1.68398e-07
-6.85673e-07 -1.68398e-07 -3.97688e-06
0.00079429 -3.53012e-05 -4.51293e-07
-3.53012e-05 1.74754e-05 -1.91521e-07
-4.51293e-07 -1.91521e-07 -4.39869e-05
0.000914921 -1.67196e-05 1.92707e-08
-1.67196e-05 8.66785e-05 1.44956e-07
1.92707e-08 1.44956e-07 2.21469e-05
0.000914398 -2.80535e-05 6.09151e-08
-2.80535e-05 9.07728e-05 1.14853e-06
6.09151e-08 1.14853e-06 1.84195e-05
0.000722461 -7.81963e-07 4.71114e-07
-7.81963e-07 -2.69295e-05 4.1387e-07
4.71114e-07 4.1387e-07 -7.81879e-05
0.000830042 -1.59158e-05 -8.64711e-08
-1.59158e-05 3.7088e-05 -2.05158e-07
-8.64711e-08 -2.05158e-07 -2.59337e-05
0.000921879 -2.46672e-05 -1.26752e-07
-2.46672e-05 8.28211e-05 2.88932e-07
-1.26752e-07 2.88932e-07 1.86629e-05
0.000880883 2.27173e-05 4.87365e-07
2.27173e-05 6.24146e-05 -1.78074e-07
4.87365e-07 -1.78074e-07 -1.65176e-06
0.000893219 -8.75519e-06 9.83006e-08
-8.75519e-06 7.28179e-05 -3.19569e-08
9.83006e-08 -3.19569e-08 8.69959e-06
0.000805287 -2.45767e-05 5.89995e-07
-2.45767e-05 1.49916e-05 -4.53896e-07
5.89995e-07 -4.53896e-07 -4.83802e-05
0.000890702 1.41583e-05 -5.08053e-07
1.41583e-05 6.02912e-05 -2.4688e-06
-5.08053e-07 -2.4688e-06 5.70833e-07
0.000940182 -5.81146e-05 1.39221e-07
-5.81146e-05 8.64901e-05 -1.92733e-07
1.39221e-07 -1.92733e-07 2.20291e-05
0.000921463 -3.90616e-05 -4.02732e-07
-3.90616e-05 8.52857e-05 -3.18546e-07
-4.02732e-07 -3.18546e-07 2.09369e-05
0.0009161 -6.1519e-06 -4.00345e-07
-6.1519e-06 8.32908e-05 -8.75439e-08
-4.00345e-07 -8.75439e-08 2.04349e-05
0.000930942 5.15769e-05 -3.78409e-07
5.15769e-05 9.054e-05 -2.57221e-07
-3.78409e-07 -2.57221e-07 2.62033e-05
0.000897468 2.15926e-05 -2.16925e-07
2.15926e-05 7.31e-05 -6.4601e-07
-2.16925e-07 -6.4601e-07 3.36774e-06
0.000864759 4.86825e-05 1.82222e-07
4.86825e-05 6.1999e-05 -3.16468e-07
1.82222e-07 -3.16468e-07 -2.52207e-06
0.000930162 6.96858e-05 -2.16366e-07
6.96858e-05 8.9365e-05 -7.21088e-07
-2.16366e-07 -7.21088e-07 2.33222e-05
0.000779268 3.25403e-05 1.37315e-06
3.25403e-05 2.72398e-05 1.25414e-06
1.37315e-06 1.25414e-06 -4.28314e-05
0.000806063 2.54556e-05 4.22044e-09
2.54556e-05 3.06481e-05 1.57311e-07
4.22044e-09 1.57311e-07 -2.7408e-05
0.000825616 6.15069e-06 -1.26671e-07
6.15069e-06 4.27192e-05 -4.08957e-08
-1.26671e-07 -4.08957e-08 -1.75246e-05
0.000813868 1.50338e-05 -9.51901e-07
1.50338e-05 2.09548e-05 4.1295e-07
-9.51901e-07 4.1295e-07 -2.50063e-05
0.000862265 1.73079e-05 5.01441e-07
1.73079e-05 5.19175e-05 -2.11598e-07
5.01441e-07 -2.11598e-07 -6.07987e-06
0.000788986 -1.66007e-05 -2.2117e-08
-1.66007e-05 7.87649e-06 2.83403e-08
-2.2117e-08 2.83403e-08 -4.02969e-05
0.000795827 1.56911e-05 -4.68738e-07
1.56911e-05 2.42899e-06 1.50895e-06
-4.68738e-07 1.50895e-06 -2.73877e-05
0.000732953 7.71997e-06 3.83686e-07
7.71997e-06 -1.82707e-05 -1.61038e-07
3.83686e-07 -1.61038e-07 -7.08856e-05
0.000789786 7.93657e-06 -1.41107e-07
7.93657e-06 -1.49087e-06 -3.18698e-10
-1.41107e-07 -3.18698e-10 -3.13242e-05
0.00134138 1.26656e-05 -2.8842e-06
1.26656e-05 0.000292322 4.34711e-06
-2.8842e-06 4.34711e-06 0.00029272
0.000783899 -2.05152e-06 5.38668e-07
-2.05152e-06 -4.82405e-06 -1.40687e-06
5.38668e-07 -1.40687e-06 -3.46145e-05
0.00104165 6.64818e-06 -1.33687e-06
6.64818e-06 0.000126452 6.46285e-07
-1.33687e-06 6.46285e-07 0.000125684
0.000959287 3.37385e-06 -2.84047e-06
3.37385e-06 8.26767e-05 4.03262e-06
-2.84047e-06 4.03262e-06 9.84922e-05
0.000744736 9.25533e-07 -1.73692e-08
9.25533e-07 -3.7202e-05 -3.08276e-06
-1.73692e-08 -3.08276e-06 -3.90644e-05
0.00211149 -3.75918e-07 2.43309e-06
-3.75918e-07 0.000713343 -5.44669e-10
2.43309e-06 -5.44669e-10 0.000735364
0.000968758 -3.89135e-06 -2.21452e-06
-3.89135e-06 8.75654e-05 -4.01793e-06
-2.21452e-06 -4.01793e-06 0.000103841
0.000825036 4.86878e-05 4.7415e-07
4.86878e-05 3.97242e-05 -2.70854e-07
4.7415e-07 -2.70854e-07 -1.02807e-05
0.000800441 -3.17557e-07 -1.20028e-07
-3.17557e-07 3.88782e-06 -1.70648e-06
-1.20028e-07 -1.70648e-06 -2.32239e-05
0.00080103 3.28665e-06 -7.50494e-08
3.28665e-06 4.443e-06 -8.49143e-09
-7.50494e-08 -8.49143e-09 -2.32012e-05
0.000747176 5.06573e-06 -4.74249e-08
5.06573e-06 -3.60753e-05 -3.29564e-06
-4.74249e-08 -3.29564e-06 -3.65225e-05
0.000797293 6.51753e-06 -2.82145e-07
6.51753e-06 2.60327e-06 1.65293e-06
-2.82145e-07 1.65293e-06 -2.58835e-05
0.000740285 1.09281e-05 4.08428e-08
1.09281e-05 -3.84631e-05 -6.77211e-07
4.08428e-08 -6.77211e-07 -3.97471e-05
0.00207176 1.51392e-05 7.6228e-06
1.51392e-05 0.000693684 -4.18543e-06
7.6228e-06 -4.18543e-06 0.000715727
0.00130313 2.14974e-05 -1.19296e-06
2.14974e-05 0.000272923 2.03363e-06
-1.19296e-06 2.03363e-06 0.000273197
0.00153332 1.98617e-05 3.64386e-07
1.98617e-05 0.000402657 1.30773e-06
3.64386e-07 1.30773e-06 0.000420558
0.00100276 2.23359e-05 -1.55595e-05
2.23359e-05 0.000116943 6.64966e-06
-1.55595e-05 6.64966e-06 0.000130469
-0.000107067 3.13449e-05 1.4084e-05
3.13449e-05 -0.000999613 6.91623e-06
1.4084e-05 6.91623e-06 -0.00108657
0.00202631 2.94464e-06 1.75779e-06
2.94464e-06 0.000201057 1.5212e-07
1.75779e-06 1.5212e-07 0.000124104
0.00198165 2.72818e-05 4.35467e-06
2.72818e-05 0.000156054 -1.65449e-06
4.35467e-06 -1.65449e-06 0.000101498
0.0011088 -1.17325e-05 2.60078e-05
-1.17325e-05 -0.000333782 -4.43191e-06
2.60078e-05 -4.43191e-06 -0.000656316
0.00177179 -3.16662e-05 -1.29274e-06
-3.16662e-05 2.005e-05 4.72694e-07
-1.29274e-06 4.72694e-07 -6.21608e-05
0.00188083 6.03218e-06 -3.38094e-06
6.03218e-06 2.47139e-05 -1.48558e-06
-3.38094e-06 -1.48558e-06 -4.25672e-05
0.00200476 -5.0656e-07 -1.44744e-05
-5.0656e-07 0.000160679 1.84237e-06
-1.44744e-05 1.84237e-06 7.71745e-05
0.00147155 -8.85179e-05 0.000128692
-8.85179e-05 -0.000114382 -7.31737e-06
0.000128692 -7.31737e-06 -0.0004759
0.00813451 7.72876e-06 -2.52737e-05
7.72876e-06 0.00278684 -1.9331e-06
-2.52737e-05 -1.9331e-06 0.00194885
0.00272823 0.000565112 1.34596e-05
0.000565112 0.00126027 -3.39297e-06
1.34596e-05 -3.39297e-06 0.00145284
0.00228079 0.000578137 -1.65955e-05
0.000578137 0.000581865 1.07324e-05
-1.65955e-05 1.07324e-05 0.00157369
0.000705117 -4.96626e-05 1.00395e-06
-4.96626e-05 -1.64363e-05 -8.41293e-07
1.00395e-06 -8.41293e-07 -7.85e-05
0.000828114 -1.04749e-05 2.30294e-07
-1.04749e-05 4.01218e-05 -4.867e-08
2.30294e-07 -4.867e-08 -8.18037e-06
0.000820026 -5.40055e-05 -1.00342e-06
-5.40055e-05 3.9571e-05 9.73008e-07
-1.00342e-06 9.73008e-07 -1.16707e-05
0.000803542 -1.83851e-05 -3.08059e-07
-1.83851e-05 3.58514e-05 1.74397e-08
-3.08059e-07 1.74397e-08 -2.6655e-05
0.000802727 3.97585e-05 1.34946e-07
3.97585e-05 4.65059e-05 5.71754e-07
1.34946e-07 5.71754e-07 -2.71742e-05
0.000936505 7.03121e-05 3.21427e-07
7.03121e-05 0.000109869 6.77984e-07
3.21427e-07 6.77984e-07 4.04521e-05
0.000870771 -2.77814e-05 6.27787e-07
-2.77814e-05 7.2196e-05 -8.31705e-07
6.27787e-07 -8.31705e-07 1.02101e-05
0.000792544 -3.73781e-05 -4.87364e-07
-3.73781e-05 3.18632e-05 5.55133e-07
-4.87364e-07 5.55133e-07 -3.06382e-05
0.00189812 -3.9444e-05 3.52244e-06
-3.9444e-05 0.000119907 -9.13492e-07
3.52244e-06 -9.13492e-07 5.12401e-05
0.00162306 -8.15043e-05 -2.12456e-06
-8.15043e-05 -0.000104536 -6.77817e-07
-2.12456e-06 -6.77817e-07 -0.000178125
0.0014828 -0.000188709 -3.55614e-06
-0.000188709 -8.99818e-05 1.01434e-06
-3.55614e-06 1.01434e-06 -0.000182273
0.000890853 -0.000127565 8.24818e-07
-0.000127565 7.65461e-05 2.79268e-06
8.24818e-07 2.79268e-06 -6.69063e-05
0.00188495 -0.000215118 7.61883e-07
-0.000215118 0.000414766 4.25446e-08
7.61883e-07 4.25446e-08 0.000242715
0.000933931 -8.17917e-05 -8.57835e-07
-8.17917e-05 0.000147841 -1.823e-07
-8.57835e-07 -1.823e-07 1.80221e-05
0.00121416 -8.7859e-05 -1.55317e-07
-8.7859e-05 0.000287335 -7.68014e-08
-1.55317e-07 -7.68014e-08 0.000170361
0.000806307 -2.95856e-05 -1.34341e-06
-2.95856e-05 5.44472e-05 7.5176e-07
-1.34341e-06 7.5176e-07 -3.24671e-05
0.000817651 3.8681e-06 3.7061e-07
3.8681e-06 5.03896e-05 5.65441e-07
3.7061e-07 5.65441e-07 -2.08379e-05
0.00100203 1.27892e-05 -9.00134e-07
1.27892e-05 0.000146484 1.42762e-07
-9.00134e-07 1.42762e-07 6.7193e-05
0.00102053 -1.37406e-06 5.23268e-07
-1.37406e-06 0.000153714 2.09737e-07
5.23268e-07 2.09737e-07 9.05318e-05
0.000788293 8.41817e-05 1.09562e-06
8.41817e-05 3.54668e-05 1.44355e-06
1.09562e-06 1.44355e-06 -4.26266e-05
0.00159346 -4.06892e-05 -9.08687e-07
-4.06892e-05 -0.000124321 -2.4516e-06
-9.08687e-07 -2.4516e-06 -0.00019298
0.000855425 3.12007e-05 -3.34501e-07
3.12007e-05 7.02224e-05 2.726e-07
-3.34501e-07 2.726e-07 -7.97e-06
0.000845953 -2.18427e-05 -3.53439e-07
-2.18427e-05 6.74371e-05 -4.00428e-07
-3.53439e-07 -4.00428e-07 -1.11567e-05
0.00216294 -0.000189807 4.20061e-07
-0.000189807 0.000147486 2.56464e-07
4.20061e-07 2.56464e-07 8.19571e-05
0.00102235 -0.0001898 1.17945e-06
-0.0001898 -0.000190468 4.18573e-07
1.17945e-06 4.18573e-07 -0.000314436
0.0011634 -0.00016599 8.19955e-07
-0.00016599 0.000220714 -1.40582e-06
8.19955e-07 -1.40582e-06 5.13437e-05
0.000985799 -1.75407e-05 1.1919e-07
-1.75407e-05 0.000141855 -3.36365e-07
1.1919e-07 -3.36365e-07 5.16108e-05
0.000980687 -2.74596e-05 4.00347e-07
-2.74596e-05 0.000175646 4.83951e-07
4.00347e-07 4.83951e-07 2.83054e-05
0.00359434 -0.0001518 -9.50164e-06
-0.0001518 0.00102843 6.95625e-06
-9.50164e-06 6.95625e-06 0.000945779
0.00276537 -0.000274033 -7.46804e-06
-0.000274033 0.000541246 -1.98306e-06
-7.46804e-06 -1.98306e-06 0.000482367
-0.000767453 -0.000110275 -2.88767e-06
-0.000110275 -0.000908681 -1.75572e-06
-2.88767e-06 -1.75572e-06 -0.00104562
0.00121064 -0.000100376 -3.87615e-06
-0.000100376 0.000275377 1.12519e-06
-3.87615e-06 1.12519e-06 9.93084e-05
0.000738301 -7.07794e-05 8.54091e-07
-7.07794e-05 9.48722e-07 -1.86364e-07
8.54091e-07 -1.86364e-07 -7.58699e-05
0.000918288 -2.89262e-05 1.17266e-06
-2.89262e-05 9.81096e-05 1.14727e-07
1.17266e-06 1.14727e-07 1.54838e-05
0.000861812 -9.88971e-06 -2.40136e-06
-9.88971e-06 7.77583e-05 -2.78631e-08
-2.40136e-06 -2.78631e-08 -2.3925e-05
-0.00392026 -3.81499e-05 3.27681e-05
-3.81499e-05 -0.00173391 5.81433e-06
3.27681e-05 5.81433e-06 -0.00153619
0.00787869 -4.93832e-05 -2.82924e-05
-4.93832e-05 0.00273448 -7.49864e-08
-2.82924e-05 -7.49864e-08 0.00213489
0.000858744 3.51616e-05 2.13755e-06
3.51616e-05 8.56882e-05 -4.07378e-07
2.13755e-06 -4.07378e-07 -9.40196e-06
0.000861271 0.000112398 2.78647e-06
0.000112398 9.74419e-05 2.96928e-07
2.78647e-06 2.96928e-07 -2.72036e-05
0.00164928 0.000112223 2.48071e-06
0.000112223 -7.10447e-05 4.65271e-06
2.48071e-06 4.65271e-06 -5.05699e-05
0.00237153 0.000287162 2.23175e-06
0.000287162 0.000390423 7.91081e-07
2.23175e-06 7.91081e-07 0.000272294
0.000991779 0.000147843 5.25819e-06
0.000147843 0.000112581 1.54082e-06
5.25819e-06 1.54082e-06 -8.79614e-05
0.00500578 0.000129727 5.29215e-05
0.000129727 0.00127667 -4.91467e-06
5.29215e-05 -4.91467e-06 0.000373112
0.00483982 7.86305e-05 -7.94487e-05
7.86305e-05 0.000820186 -2.92106e-05
-7.94487e-05 -2.92106e-05 0.000253101
0.000546841 0.000131263 3.57284e-06
0.000131263 -0.000391313 -1.76213e-05
3.57284e-06 -1.76213e-05 -0.000459227
0.00328358 -0.000456658 2.31987e-05
-0.000456658 0.00163809 1.58109e-05
2.31987e-05 1.58109e-05 0.00156997
-0.00292736 -0.000633525 -1.06235e-05
-0.000633525 -0.00257069 -2.99824e-05
-1.06235e-05 -2.99824e-05 -0.00114787
0.000992421 9.07708e-05 3.13687e-07
9.07708e-05 0.000171245 -6.90603e-07
3.13687e-07 -6.90603e-07 7.40066e-05
-0.00275116 -0.000133813 1.4759e-05
-0.000133813 -0.00137078 9.42876e-07
1.4759e-05 9.42876e-07 -0.00125153
-0.000243303 -0.000305249 -2.04247e-05
-0.000305249 -0.000140599 -6.37246e-06
-2.04247e-05 -6.37246e-06 -0.000117348
0.00244833 0.000187607 -3.4334e-06
0.000187607 0.000393164 -2.56239e-06
-3.4334e-06 -2.56239e-06 0.000429975
0.000868369 8.50349e-05 -4.7063e-07
8.50349e-05 0.000134322 -2.05778e-07
-4.7063e-07 -2.05778e-07 -9.07102e-06
0.000529848 0.000153455 8.53072e-07
0.000153455 -0.000173759 7.14535e-07
8.53072e-07 7.14535e-07 -0.000376416
-2.80996e-05 0.000122223 1.74008e-05
0.000122223 -0.000607188 1.05885e-05
1.74008e-05 1.05885e-05 -0.00053607
0.00583659 -0.000132196 -4.59756e-06
-0.000132196 0.00175342 -2.29723e-06
-4.59756e-06 -2.29723e-06 0.000473589
0.00543322 0.000325505 -2.13464e-05
0.000325505 0.00128074 -1.68063e-05
-2.13464e-05 -1.68063e-05 0.000570393
0.00398 -0.000700378 1.66766e-05
-0.000700378 0.00153563 -1.0156e-05
1.66766e-05 -1.0156e-05 0.0016201
0.000931648 -0.000381626 1.65058e-05
-0.000381626 -0.00163673 4.1639e-05
1.65058e-05 4.1639e-05 -0.000587393
0.00114016 6.15436e-05 -4.51646e-06
6.15436e-05 0.000262616 -3.78223e-06
-4.51646e-06 -3.78223e-06 0.000177123
-0.00177195 -0.000107069 -7.00722e-05
-0.000107069 -0.000412301 -1.71078e-05
-7.00722e-05 -1.71078e-05 -0.000816764
0.00193667 -3.72128e-05 -4.96264e-05
-3.72128e-05 0.000185772 -4.85449e-05
-4.96264e-05 -4.85449e-05 -0.000129337
0.000653995 0.000146656 -2.03496e-05
0.000146656 -0.000215373 -3.95297e-06
-2.03496e-05 -3.95297e-06 -0.000209121
0.00163911 0.000177294 -1.81222e-05
0.000177294 0.00058808 -5.72211e-06
-1.81222e-05 -5.72211e-06 0.000422951
0.0023775 0.000118528 -3.95817e-05
0.000118528 0.000917259 -4.41535e-06
-3.95817e-05 -4.41535e-06 0.000842209
0.00499848 0.000557359 -0.000106383
0.000557359 0.0012731 1.10934e-05
-0.000106383 1.10934e-05 0.000811362
-0.000876225 -0.000148483 3.33511e-05
-0.000148483 -0.000988409 4.20496e-05
3.33511e-05 4.20496e-05 -0.00265473
0.00725306 -0.000742501 -5.3384e-05
-0.000742501 0.00199954 1.28215e-05
-5.3384e-05 1.28215e-05 0.00222585
0.00145413 -0.000210226 -1.36834e-05
-0.000210226 -0.00173695 -1.4324e-05
-1.36834e-05 -1.4324e-05 -0.000765077
0.000891612 2.48368e-05 6.83065e-07
2.48368e-05 8.81029e-05 2.03306e-06
6.83065e-07 2.03306e-06 9.70983e-06
0.00107163 5.22104e-05 1.36543e-06
5.22104e-05 0.000186778 1.02353e-06
1.36543e-06 1.02353e-06 0.000117335
0.000530159 4.54882e-05 4.92473e-09
4.54882e-05 -9.00685e-05 -3.47669e-06
4.92473e-09 -3.47669e-06 -0.000147923
0.00072887 3.27792e-05 2.27629e-07
3.27792e-05 -2.34122e-05 -1.47975e-07
2.27629e-07 -1.47975e-07 -7.4765e-05
0.000933202 3.16749e-05 -6.8704e-07
3.16749e-05 9.37594e-05 -2.48882e-07
-6.8704e-07 -2.48882e-07 2.87077e-05
0.000948007 -3.92224e-05 -4.51452e-07
-3.92224e-05 9.804e-05 3.72458e-07
-4.51452e-07 3.72458e-07 3.38496e-05
0.000859235 -2.58002e-05 -6.69752e-07
-2.58002e-05 5.38606e-05 -1.72913e-07
-6.69752e-07 -1.72913e-07 -9.58509e-06
0.000916371 -1.19429e-05 -6.83752e-07
-1.19429e-05 8.44341e-05 1.35946e-06
-6.83752e-07 1.35946e-06 2.06683e-05
0.000912704 2.36681e-05 3.18248e-07
2.36681e-05 8.11899e-05 -3.97185e-07
3.18248e-07 -3.97185e-07 1.6476e-05
0.00090455 -2.78102e-05 -3.76904e-08
-2.78102e-05 6.97326e-05 1.75841e-07
-3.76904e-08 1.75841e-07 6.03251e-06
0.000917007 -3.96215e-05 1.94398e-07
-3.96215e-05 7.6497e-05 1.54749e-07
1.94398e-07 1.54749e-07 1.04336e-05
0.000903202 -2.81329e-06 8.53752e-08
-2.81329e-06 7.03341e-05 -3.5675e-08
8.53752e-08 -3.5675e-08 1.23664e-05
0.00105726 -3.53011e-05 1.75305e-06
-3.53011e-05 0.000154899 -1.7452e-06
1.75305e-06 -1.7452e-06 0.000103915
0.000887759 -3.53826e-05 -8.21196e-08
-3.53826e-05 5.04209e-05 -1.59149e-06
-8.21196e-08 -1.59149e-06 -1.13503e-05
0.000918753 2.96013e-06 1.87425e-07
2.96013e-06 8.17115e-05 -4.84685e-07
1.87425e-07 -4.84685e-07 1.11682e-05
0.000924478 -2.90859e-05 1.11828e-07
-2.90859e-05 9.01047e-05 -3.04102e-07
1.11828e-07 -3.04102e-07 2.54412e-05
0.000892302 1.98961e-05 -2.42637e-07
1.98961e-05 6.44474e-05 1.10616e-07
-2.42637e-07 1.10616e-07 3.02473e-06
0.000893883 -4.40167e-07 2.15644e-07
-4.40167e-07 6.96822e-05 -2.76753e-07
2.15644e-07 -2.76753e-07 1.09934e-06
0.000846771 4.66139e-05 -2.01419e-07
4.66139e-05 5.13088e-05 -3.33177e-08
-2.01419e-07 -3.33177e-08 -1.26561e-05
0.000909569 3.96144e-05 -4.20086e-07
3.96144e-05 7.40968e-05 -6.51959e-08
-4.20086e-07 -6.51959e-08 1.09679e-05
0.000801343 4.83572e-05 9.80402e-07
4.83572e-05 3.26393e-05 2.98414e-07
9.80402e-07 2.98414e-07 -3.28841e-05
0.0008585 4.14147e-05 1.09339e-07
4.14147e-05 5.00313e-05 -7.3715e-07
1.09339e-07 -7.3715e-07 -1.87628e-05
0.000874585 4.52993e-05 1.52451e-07
4.52993e-05 6.2648e-05 -5.4295e-07
1.52451e-07 -5.4295e-07 -8.68713e-07
0.000821976 2.20064e-05 1.96185e-06
2.20064e-05 4.60186e-05 3.10578e-07
1.96185e-06 3.10578e-07 -3.44168e-05
0.000695557 -4.57599e-05 2.6134e-07
-4.57599e-05 1.69984e-05 2.29737e-07
2.6134e-07 2.29737e-07 -9.18498e-05
0.000560563 1.93776e-05 2.71368e-08
1.93776e-05 -8.0798e-05 4.11954e-07
2.71368e-08 4.11954e-07 -0.000160243
0.000826626 3.29488e-05 3.60101e-07
3.29488e-05 5.36139e-05 5.46193e-07
3.60101e-07 5.46193e-07 -1.70588e-05
0.000827011 3.53483e-05 4.32932e-07
3.53483e-05 4.47488e-05 7.21814e-07
4.32932e-07 7.21814e-07 -1.58201e-05
0.000831802 1.73299e-05 -1.60899e-07
1.73299e-05 4.63899e-05 -5.9691e-08
-1.60899e-07 -5.9691e-08 -1.31249e-05
0.000816181 2.96561e-05 -5.02738e-07
2.96561e-05 2.6188e-05 4.96868e-07
-5.02738e-07 4.96868e-07 -2.07885e-05
0.000856363 1.70892e-05 3.06824e-07
1.70892e-05 5.69689e-05 5.67e-08
3.06824e-07 5.67e-08 -1.8201e-06
0.000831219 3.56213e-06 -1.26786e-07
3.56213e-06 3.14961e-05 1.71979e-09
-1.26786e-07 1.71979e-09 -1.53885e-05
0.000791694 2.02142e-05 -8.39427e-07
2.02142e-05 2.10358e-06 1.51932e-06
-8.39427e-07 1.51932e-06 -2.78486e-05
0.000751962 -7.61515e-06 5.93635e-07
-7.61515e-06 -1.39601e-05 -4.00403e-07
5.93635e-07 -4.00403e-07 -6.14832e-05
0.000794065 1.16802e-05 -6.03289e-08
1.16802e-05 1.19562e-06 3.62325e-09
-6.03289e-08 3.62325e-09 -2.85034e-05
0.00133463 1.91217e-05 -4.68457e-06
1.91217e-05 0.000291137 4.31647e-06
-4.68457e-06 4.31647e-06 0.000291242
0.000787869 2.73311e-06 6.75078e-07
2.73311e-06 -2.79966e-06 -1.42031e-06
6.75078e-07 -1.42031e-06 -3.25202e-05
0.00103899 1.26125e-05 -2.10497e-06
1.26125e-05 0.000126684 6.32979e-07
-2.10497e-06 6.32979e-07 0.000125671
0.0009088 1.08287e-05 -5.75651e-07
1.08287e-05 5.64332e-05 1.56272e-06
-5.75651e-07 1.56272e-06 7.213e-05
0.00073876 6.11443e-06 2.58195e-07
6.11443e-06 -3.97305e-05 -3.08043e-06
2.58195e-07 -3.08043e-06 -4.1928e-05
0.00211976 7.4199e-06 2.18885e-06
7.4199e-06 0.000718438 1.76099e-08
2.18885e-06 1.76099e-08 0.000740246
0.00211653 2.14865e-07 8.52574e-07
2.14865e-07 0.000716109 -4.15677e-06
8.52574e-07 -4.15677e-06 0.000738067
0.00107607 3.46242e-05 -1.10399e-06
3.46242e-05 0.000171866 -5.09538e-07
-1.10399e-06 -5.09538e-07 0.000124306
0.000797954 -4.45001e-06 -3.1058e-07
-4.45001e-06 2.59124e-06 -1.68216e-06
-3.1058e-07 -1.68216e-06 -2.45691e-05
0.000821367 3.34084e-06 7.24305e-07
3.34084e-06 3.7298e-05 4.95351e-07
7.24305e-07 4.95351e-07 -1.21397e-05
0.000751609 -7.74666e-07 -1.36118e-07
-7.74666e-07 -3.41012e-05 -3.26486e-06
-1.36118e-07 -3.26486e-06 -3.40941e-05
0.000805224 -9.18994e-07 4.22873e-08
-9.18994e-07 6.46607e-06 6.44421e-10
4.22873e-08 6.44421e-10 -2.06606e-05
0.000798701 2.49601e-06 -1.98863e-07
2.49601e-06 3.04894e-06 1.6498e-06
-1.98863e-07 1.6498e-06 -2.45486e-05
0.000749836 5.31867e-06 -1.57822e-07
5.31867e-06 -3.46232e-05 8.17287e-09
-1.57822e-07 8.17287e-09 -3.50993e-05
0.00204946 7.15701e-06 3.43814e-06
7.15701e-06 0.000679907 -4.21163e-06
3.43814e-06 -4.21163e-06 0.000702543
0.00129718 1.44451e-05 -7.07024e-07
1.44451e-05 0.000266549 1.99712e-06
-7.07024e-07 1.99712e-06 0.000268145
0.00150242 1.34078e-05 2.14251e-06
1.34078e-05 0.000382099 4.62347e-08
2.14251e-06 4.62347e-08 0.000401084
0.000983494 1.62288e-05 -1.32891e-05
1.62288e-05 0.000101183 6.67126e-06
-1.32891e-05 6.67126e-06 0.000116334
-0.00614738 0.00010062 2.1658e-05
0.00010062 -0.00296379 2.77708e-06
2.1658e-05 2.77708e-06 -0.00295512
-0.00123486 0.000262468 4.76614e-06
0.000262468 -0.000532074 1.78015e-05
4.76614e-06 1.78015e-05 -0.000496537
0.00165112 1.29874e-06 -0.000116834
1.29874e-06 -0.000127865 -8.32008e-06
-0.000116834 -8.32008e-06 -0.000439628
0.00215258 -2.93641e-05 1.19253e-05
-2.93641e-05 0.000284822 1.38902e-07
1.19253e-05 1.38902e-07 0.000190968
0.00150708 -1.44099e-06 -5.34925e-06
-1.44099e-06 -0.000223836 -6.25794e-07
-5.34925e-06 -6.25794e-07 -0.000287738
0.00143773 -6.33786e-06 2.68513e-05
-6.33786e-06 2.60025e-05 -1.12768e-06
2.68513e-05 -1.12768e-06 -0.000235912
0.0020906 1.94175e-06 -1.68951e-06
1.94175e-06 0.000205118 1.22255e-06
-1.68951e-06 1.22255e-06 0.000125816
0.00515809 0.00022293 -1.87937e-05
0.00022293 0.00126942 -1.20424e-05
-1.87937e-05 -1.20424e-05 0.000545359
-0.00342097 0.000245704 -1.60971e-05
0.000245704 -0.00132067 -4.43708e-07
-1.60971e-05 -4.43708e-07 -0.00146911
-0.000329554 0.000608071 -4.80393e-06
0.000608071 -0.00106006 -1.33129e-06
-4.80393e-06 -1.33129e-06 0.000184846
0.00170671 -6.60008e-05 6.1243e-05
-6.60008e-05 7.90307e-05 -4.45913e-06
6.1243e-05 -4.45913e-06 -0.00017433
0.00666298 0.000360635 2.06871e-05
0.000360635 0.00225679 -4.76119e-06
2.06871e-05 -4.76119e-06 0.00119622
0.000191788 0.000508609 -2.68577e-05
0.000508609 -0.000267092 -8.55279e-06
-2.68577e-05 -8.55279e-06 0.000123696
0.00344555 0.000392327 -5.31159e-05
0.000392327 1.96578e-05 3.13009e-05
-5.31159e-05 3.13009e-05 0.000834692
0.00083592 4.35762e-05 -7.46202e-07
4.35762e-05 6.07578e-05 -2.16066e-08
-7.46202e-07 -2.16066e-08 -1.5572e-05
0.000750188 -2.5195e-06 -1.01822e-07
-2.5195e-06 6.87167e-06 -2.84611e-07
-1.01822e-07 -2.84611e-07 -5.4294e-05
0.000816906 -5.17741e-05 -9.02906e-07
-5.17741e-05 3.68507e-05 9.75032e-07
-9.02906e-07 9.75032e-07 -1.32998e-05
0.000744086 3.10235e-06 1.38576e-07
3.10235e-06 6.1485e-06 5.20779e-07
1.38576e-07 5.20779e-07 -5.8097e-05
0.000822444 4.68429e-05 6.99617e-07
4.68429e-05 5.74668e-05 6.94329e-07
6.99617e-07 6.94329e-07 -1.57588e-05
0.000885353 3.42443e-05 -8.67407e-07
3.42443e-05 8.60689e-05 4.27453e-07
-8.67407e-07 4.27453e-07 1.17586e-05
0.000875163 4.66331e-05 1.31621e-06
4.66331e-05 8.16091e-05 9.2111e-07
1.31621e-06 9.2111e-07 8.42518e-06
0.000821871 -2.21811e-05 5.75758e-07
-2.21811e-05 4.29732e-05 1.52263e-07
5.75758e-07 1.52263e-07 -2.19476e-05
0.000816472 -2.70128e-05 4.09773e-07
-2.70128e-05 4.53974e-05 -5.30863e-07
4.09773e-07 -5.30863e-07 -1.91284e-05
0.000745263 -2.81935e-05 2.29369e-07
-2.81935e-05 5.28221e-06 6.84642e-07
2.29369e-07 6.84642e-07 -5.72103e-05
0.0015657 -3.84141e-05 9.42196e-07
-3.84141e-05 -0.000142984 -2.28084e-06
9.42196e-07 -2.28084e-06 -0.000208865
0.00231378 -0.000194489 3.68957e-07
-0.000194489 0.000236644 1.96466e-06
3.68957e-07 1.96466e-06 0.000166986
3.96763e-05 -0.000145716 3.05428e-06
-0.000145716 -0.000684812 1.86001e-06
3.05428e-06 1.86001e-06 -0.000798758
0.00116726 -0.000168535 9.34686e-07
-0.000168535 0.000215057 1.3361e-06
9.34686e-07 1.3361e-06 3.90075e-05
0.0011656 -5.11345e-05 2.57245e-06
-5.11345e-05 0.000273356 -1.06097e-07
2.57245e-06 -1.06097e-07 0.000126262
0.00112148 -3.77164e-05 -2.10818e-07
-3.77164e-05 0.000214631 -2.95094e-07
-2.10818e-07 -2.95094e-07 0.000122442
0.000880246 -1.36277e-05 -1.04157e-06
-1.36277e-05 8.00466e-05 -2.60701e-07
-1.04157e-06 -2.60701e-07 4.12966e-06
0.000889407 3.29275e-05 -7.08368e-07
3.29275e-05 8.92509e-05 5.2372e-08
-7.08368e-07 5.2372e-08 1.2799e-05
0.00179561 -0.000106217 -4.81718e-06
-0.000106217 9.76329e-05 1.65354e-06
-4.81718e-06 1.65354e-06 3.47777e-05
0.000795641 -3.27467e-05 -1.43345e-07
-3.27467e-05 3.30817e-05 5.90011e-08
-1.43345e-07 5.90011e-08 -4.51731e-05
0.000876234 -3.40558e-05 4.44531e-07
-3.40558e-05 7.54274e-05 -2.19603e-07
4.44531e-07 -2.19603e-07 -7.59023e-06
0.0022385 -0.000254281 3.30584e-06
-0.000254281 0.000272184 -1.6846e-06
3.30584e-06 -1.6846e-06 0.000206316
9.08027e-05 -0.000148771 1.39595e-06
-0.000148771 -0.000451897 1.56028e-06
1.39595e-06 1.56028e-06 -0.000591239
0.00119253 -9.46453e-05 2.81375e-06
-9.46453e-05 0.000257871 -1.11474e-06
2.81375e-06 -1.11474e-06 8.76054e-05
0.000907149 -2.90227e-05 -7.22415e-07
-2.90227e-05 0.000109734 -6.49625e-07
-7.22415e-07 -6.49625e-07 -1.08714e-06
0.0031524 -0.000231908 3.4737e-06
-0.000231908 0.00108598 -7.43028e-06
3.4737e-06 -7.43028e-06 0.000907306
0.00176257 -0.000212163 -1.30257e-05
-0.000212163 0.000359377 -2.95528e-07
-1.30257e-05 -2.95528e-07 0.000272274
0.000546599 1.53401e-06 -8.24508e-06
1.53401e-06 -5.99927e-05 6.03562e-06
-8.24508e-06 6.03562e-06 -0.00020127
0.000897571 2.04296e-05 3.75351e-07
2.04296e-05 8.63372e-05 7.3809e-07
3.75351e-07 7.3809e-07 8.08035e-06
0.000752619 -7.51401e-05 1.20782e-06
-7.51401e-05 3.30295e-06 7.19785e-08
1.20782e-06 7.19785e-08 -7.75524e-05
0.000930362 -2.64248e-05 -1.80164e-07
-2.64248e-05 8.98558e-05 1.03473e-06
-1.80164e-07 1.03473e-06 5.92875e-06
0.000898543 2.42686e-06 -7.92754e-05
2.42686e-06 0.00103553 9.68231e-07
-7.92754e-05 9.68231e-07 0.000829324
0.00154961 -5.9588e-05 1.17101e-05
-5.9588e-05 0.00101092 2.65596e-06
1.17101e-05 2.65596e-06 0.000944108
-0.000775128 0.000196232 -4.43482e-05
0.000196232 -0.00171013 2.10139e-05
-4.43482e-05 2.10139e-05 -0.00229292
0.000788269 7.89012e-05 2.46338e-06
7.89012e-05 6.54128e-05 9.13612e-07
2.46338e-06 9.13612e-07 -3.08173e-05
0.000701175 9.85048e-05 4.4181e-06
9.85048e-05 5.73077e-05 1.69602e-06
4.4181e-06 1.69602e-06 -8.80034e-05
0.00364585 0.000221003 1.02511e-05
0.000221003 0.000998012 1.30436e-06
1.02511e-05 1.30436e-06 0.00102344
1.38685e-05 0.000105346 9.09153e-06
0.000105346 -0.000429186 5.20079e-06
9.09153e-06 5.20079e-06 -0.000630416
0.00359876 -0.000309255 5.11353e-05
-0.000309255 0.00157416 8.71544e-06
5.11353e-05 8.71544e-06 0.00173427
-6.10598e-05 -0.000182749 -5.71065e-07
-0.000182749 -0.00109366 6.07195e-06
-5.71065e-07 6.07195e-06 -0.00214492
0.00408136 0.000292935 -6.2851e-05
0.000292935 0.000388919 -6.00546e-05
-6.2851e-05 -6.00546e-05 -0.000458754
-0.000805568 6.28584e-05 1.65209e-05
6.28584e-05 -0.000929561 -8.59247e-06
1.65209e-05 -8.59247e-06 -0.000872536
-0.00245224 -0.000384965 3.84043e-05
-0.000384965 -0.00124237 1.435e-05
3.84043e-05 1.435e-05 -0.00128579
0.00122468 -0.000311502 3.26882e-05
-0.000311502 0.000535064 2.30645e-05
3.26882e-05 2.30645e-05 0.000545227
0.00373277 -0.00044803 5.82718e-05
-0.00044803 -8.14124e-05 3.72264e-05
5.82718e-05 3.72264e-05 0.0010695
0.000932323 6.9358e-05 9.36639e-07
6.9358e-05 0.000160852 -1.08417e-06
9.36639e-07 -1.08417e-06 7.33121e-05
-7.81614e-05 -0.00013589 -2.36985e-05
-0.00013589 0.000363635 -7.03202e-06
-2.36985e-05 -7.03202e-06 0.000148591
0.00205257 -3.44119e-05 -2.28484e-06
-3.44119e-05 0.000238627 -9.53634e-06
-2.28484e-06 -9.53634e-06 -8.40352e-05
0.0010734 0.000124851 -5.38613e-06
0.000124851 4.34475e-05 -1.66583e-07
-5.38613e-06 -1.66583e-07 -2.99592e-06
0.000705056 9.10821e-05 -1.92388e-06
9.10821e-05 0.000120942 1.70173e-08
-1.92388e-06 1.70173e-08 -4.98651e-05
-0.000173724 9.15226e-05 2.38737e-05
9.15226e-05 -0.000332775 -1.52154e-05
2.38737e-05 -1.52154e-05 -0.000368478
0.00540366 0.000628615 -1.51191e-05
0.000628615 0.0014241 -5.69133e-06
-1.51191e-05 -5.69133e-06 0.000672425
0.00757888 -0.000369123 1.92581e-05
-0.000369123 0.0026163 7.06409e-06
1.92581e-05 7.06409e-06 0.00123445
0.000822219 -0.000386912 2.03609e-06
-0.000386912 -0.00118107 -1.45667e-06
2.03609e-06 -1.45667e-06 -0.000833995
0.00451019 -0.000268968 4.47703e-06
-0.000268968 0.000255267 -6.36526e-07
4.47703e-06 -6.36526e-07 0.00121329
0.00146166 0.000123851 -1.23231e-05
0.000123851 0.000484841 -7.32279e-06
-1.23231e-05 -7.32279e-06 0.000413026
0.00159552 -3.14693e-05 -4.43398e-05
-3.14693e-05 5.95362e-05 -1.98513e-05
-4.43398e-05 -1.98513e-05 -0.000183724
0.00162655 -1.09235e-05 -1.42343e-05
-1.09235e-05 8.81792e-05 -2.56057e-05
-1.42343e-05 -2.56057e-05 -0.000153599
-0.000846557 -2.91435e-05 -1.92353e-05
-2.91435e-05 -0.00054037 -1.68378e-05
-1.92353e-05 -1.68378e-05 -0.000639103
0.00383866 0.000357721 1.52628e-06
0.000357721 0.00128163 4.78838e-05
1.52628e-06 4.78838e-05 0.000885381
0.00863282 -0.000310202 1.73799e-05
-0.000310202 0.00278668 8.61277e-06
1.73799e-05 8.61277e-06 0.00127584
-0.00363966 -0.00025367 -5.24335e-05
-0.00025367 -0.00305157 -1.71378e-05
-5.24335e-05 -1.71378e-05 -0.00340447
0.00451462 3.57861e-05 -1.24932e-06
3.57861e-05 3.94312e-05 -3.90713e-05
-1.24932e-06 -3.90713e-05 0.00107754
0.000965214 5.23981e-05 8.87708e-07
5.23981e-05 0.000129324 2.85183e-06
8.87708e-07 2.85183e-06 5.87745e-05
0.00085403 6.40677e-05 -9.27348e-07
6.40677e-05 7.96318e-05 -8.59438e-07
-9.27348e-07 -8.59438e-07 2.14516e-05
0.000217021 2.98601e-05 1.05545e-06
2.98601e-05 -0.000233625 -3.37014e-06
1.05545e-06 -3.37014e-06 -0.000281628
0.000920578 5.7252e-05 -1.19676e-06
5.7252e-05 8.08826e-05 -5.1514e-07
-1.19676e-06 -5.1514e-07 1.90019e-05
0.000911888 -3.11554e-05 -3.02775e-08
-3.11554e-05 7.73016e-05 5.74992e-07
-3.02775e-08 5.74992e-07 8.63798e-06
0.000999354 -2.16563e-05 -1.00348e-06
-2.16563e-05 0.000121394 9.75072e-07
-1.00348e-06 9.75072e-07 5.77537e-05
0.000900761 -1.71729e-05 -4.64286e-07
-1.71729e-05 7.29854e-05 1.94312e-06
-4.64286e-07 1.94312e-06 1.61318e-05
0.000927208 8.57469e-06 4.1453e-07
8.57469e-06 8.01926e-05 -2.68803e-09
4.1453e-07 -2.68803e-09 1.36954e-05
0.000881183 -2.28896e-05 -1.66536e-07
-2.28896e-05 4.6961e-05 -7.70415e-08
-1.66536e-07 -7.70415e-08 -1.46158e-05
0.000948536 -2.83144e-05 4.42696e-07
-2.83144e-05 9.59292e-05 2.80107e-07
4.42696e-07 2.80107e-07 4.48072e-05
0.000812793 -3.61053e-05 2.80722e-07
-3.61053e-05 4.7666e-05 -2.11598e-06
2.80722e-07 -2.11598e-06 9.00723e-06
0.00090043 -3.63392e-05 2.70384e-06
-3.63392e-05 5.2236e-05 -2.28337e-06
2.70384e-06 -2.28337e-06 3.66304e-06
0.000802445 3.98992e-05 7.32039e-07
3.98992e-05 1.25611e-05 -7.71676e-07
7.32039e-07 -7.71676e-07 -5.37598e-05
0.000900643 -2.04729e-05 9.55379e-07
-2.04729e-05 7.02857e-05 1.16608e-07
9.55379e-07 1.16608e-07 3.75901e-06
0.00082701 5.25181e-05 -4.52433e-07
5.25181e-05 4.04938e-05 1.1689e-07
-4.52433e-07 1.1689e-07 -2.34446e-05
0.000892806 3.23039e-05 -3.75993e-07
3.23039e-05 6.46081e-05 6.04286e-07
-3.75993e-07 6.04286e-07 1.96416e-06
0.000868652 4.27393e-05 -1.38569e-07
4.27393e-05 5.30867e-05 3.10703e-08
-1.38569e-07 3.10703e-08 -1.38466e-05
0.000822824 5.13214e-05 4.3601e-07
5.13214e-05 4.5732e-05 3.04288e-07
4.3601e-07 3.04288e-07 -2.07018e-05
0.000884477 5.4602e-05 3.43211e-09
5.4602e-05 6.86567e-05 4.24665e-08
3.43211e-09 4.24665e-08 4.24259e-06
0.000925246 3.87834e-05 2.34226e-06
3.87834e-05 9.57341e-05 -1.46691e-08
2.34226e-06 -1.46691e-08 2.9092e-05
0.00087255 4.21255e-05 1.72041e-07
4.21255e-05 5.65907e-05 -8.59882e-07
1.72041e-07 -8.59882e-07 -3.85087e-06
0.00086273 -5.23437e-05 9.13898e-07
-5.23437e-05 8.15088e-05 -1.43018e-07
9.13898e-07 -1.43018e-07 -3.68531e-06
0.000914463 7.48492e-06 -3.35383e-08
7.48492e-06 9.68504e-05 -4.90888e-08
-3.35383e-08 -4.90888e-08 1.57981e-05
0.00073846 -3.92255e-05 4.26635e-07
-3.92255e-05 3.44928e-05 2.12093e-06
4.26635e-07 2.12093e-06 -6.76068e-05
0.00100572 -0.000115423 -1.05019e-06
-0.000115423 0.000162251 3.45302e-06
-1.05019e-06 3.45302e-06 3.34632e-05
0.001077 -2.16324e-05 9.67865e-07
-2.16324e-05 0.000201205 -6.36287e-07
9.67865e-07 -6.36287e-07 0.000109482
0.000711706 -5.03214e-05 2.77887e-07
-5.03214e-05 2.7984e-05 -2.28168e-06
2.77887e-07 -2.28168e-06 -7.7913e-05
0.000818164 2.14144e-05 -5.0721e-07
2.14144e-05 5.68484e-05 -5.70862e-07
-5.0721e-07 -5.70862e-07 -2.11505e-05
0.000656276 2.6516e-05 8.64653e-07
2.6516e-05 -4.19838e-05 9.52386e-07
8.64653e-07 9.52386e-07 -0.000109328
0.000882105 3.32684e-05 -5.55738e-07
3.32684e-05 8.43435e-05 -3.10614e-07
-5.55738e-07 -3.10614e-07 1.30768e-05
0.00084905 1.26503e-05 -1.72797e-07
1.26503e-05 5.6662e-05 3.27555e-07
-1.72797e-07 3.27555e-07 -4.18728e-06
0.00080993 3.37455e-05 -5.95459e-07
3.37455e-05 2.56857e-05 6.1941e-07
-5.95459e-07 6.1941e-07 -2.24562e-05
0.000856308 -9.27174e-06 2.7646e-07
-9.27174e-06 6.23074e-05 -2.16444e-07
2.7646e-07 -2.16444e-07 7.97635e-07
0.000821837 4.68636e-06 -3.36818e-07
4.68636e-06 2.98914e-05 3.85189e-08
-3.36818e-07 3.85189e-08 -1.76833e-05
0.000788253 2.48001e-05 -1.03062e-06
2.48001e-05 4.11074e-06 1.53473e-06
-1.03062e-06 1.53473e-06 -2.65396e-05
0.000847384 -1.60352e-05 1.06459e-06
-1.60352e-05 4.13587e-05 -5.08925e-07
1.06459e-06 -5.08925e-07 -6.4034e-06
0.000795795 1.60354e-05 -1.60522e-07
1.60354e-05 3.86072e-06 2.16185e-09
-1.60522e-07 2.16185e-09 -2.59262e-05
0.00132376 2.56337e-05 -6.43964e-06
2.56337e-05 0.000288999 4.27053e-06
-6.43964e-06 4.27053e-06 0.0002886
0.000791893 6.90397e-06 1.02941e-06
6.90397e-06 -3.13543e-07 -1.46005e-06
1.02941e-06 -1.46005e-06 -2.98632e-05
0.0010329 1.86133e-05 -2.81593e-06
1.86133e-05 0.000126096 6.04847e-07
-2.81593e-06 6.04847e-07 0.000124778
0.000903354 1.67255e-05 -1.08459e-06
1.67255e-05 5.70045e-05 1.57042e-06
-1.08459e-06 1.57042e-06 7.21451e-05
0.000734805 1.15465e-05 4.53414e-07
1.15465e-05 -4.03046e-05 -3.09759e-06
4.53414e-07 -3.09759e-06 -4.27218e-05
0.00151102 1.39413e-05 4.39356e-06
1.39413e-05 0.000386481 -1.23512e-06
4.39356e-06 -1.23512e-06 0.000405076
0.00212063 8.4127e-06 4.78545e-06
8.4127e-06 0.000719232 -4.11012e-06
4.78545e-06 -4.11012e-06 0.000740983
0.000886326 -2.58697e-05 5.71168e-07
-2.58697e-05 6.6815e-05 -4.27806e-07
5.71168e-07 -4.27806e-07 1.77879e-05
0.000801709 -9.19479e-06 -3.10072e-07
-9.19479e-06 5.69419e-06 -1.61071e-06
-3.10072e-07 -1.61071e-06 -2.22411e-05
0.000875835 -6.01839e-06 3.73672e-07
-6.01839e-06 6.31714e-05 1.34773e-07
3.73672e-07 1.34773e-07 1.50014e-05
0.000753784 -6.47837e-06 -3.62615e-07
-6.47837e-06 -3.20477e-05 -3.22199e-06
-3.62615e-07 -3.22199e-06 -3.22769e-05
0.000805474 -5.13426e-06 -4.005e-08
-5.13426e-06 6.71189e-06 4.53344e-09
-4.005e-08 4.53344e-09 -2.04779e-05
0.000822075 -3.50365e-05 -1.06958e-06
-3.50365e-05 3.46236e-05 1.3407e-06
-1.06958e-06 1.3407e-06 -1.25747e-05
0.00203744 -8.55512e-07 -5.5016e-07
-8.55512e-07 0.000673081 -4.21223e-06
-5.5016e-07 -4.21223e-06 0.000695914
0.000751636 -4.75496e-07 -7.38712e-08
-4.75496e-07 -3.41137e-05 3.91723e-09
-7.38712e-08 3.91723e-09 -3.41111e-05
0.000807215 -1.5559e-06 1.0322e-07
-1.5559e-06 7.5002e-06 1.68312e-06
1.0322e-07 1.68312e-06 -1.96243e-05
0.000753039 5.57538e-06 -1.31873e-07
5.57538e-06 -3.28671e-05 3.27449e-06
-1.31873e-07 3.27449e-06 -3.33773e-05
0.00205221 7.688e-06 -2.35533e-06
7.688e-06 0.000681602 -1.93874e-08
-2.35533e-06 -1.93874e-08 0.00070417
0.00207704 1.52605e-05 -9.94514e-06
1.52605e-05 0.00069673 4.14239e-06
-9.94514e-06 4.14239e-06 0.000718753
-0.0012638 9.98592e-05 -3.91463e-05
9.98592e-05 -0.000143523 6.74167e-06
-3.91463e-05 6.74167e-06 -0.000475977
-0.00074183 0.000236396 -4.56253e-06
0.000236396 -0.000171823 3.84069e-06
-4.56253e-06 3.84069e-06 -0.000223408
0.00193629 6.56635e-05 -6.50845e-05
6.56635e-05 4.9761e-05 4.41714e-05
-6.50845e-05 4.41714e-05 -0.000196775
-0.00138566 0.000307362 4.94473e-05
0.000307362 -0.00056883 -2.06616e-05
4.94473e-05 -2.06616e-05 -0.00045788
0.00238689 7.40527e-05 -9.2493e-05
7.40527e-05 0.000331945 7.52203e-06
-9.2493e-05 7.52203e-06 -1.36325e-05
0.00201667 1.28268e-06 4.04495e-05
1.28268e-06 0.000167262 -4.89479e-06
4.04495e-05 -4.89479e-06 9.65573e-05
0.00118594 -0.000240374 -6.48052e-05
-0.000240374 -0.000545815 -1.77892e-05
-6.48052e-05 -1.77892e-05 -0.00118991
0.00805188 0.000509643 7.04487e-05
0.000509643 0.00388277 -1.85829e-05
7.04487e-05 -1.85829e-05 0.00395315
-0.00289354 0.000647557 -1.00115e-05
0.000647557 -0.00269037 3.58419e-05
-1.00115e-05 3.58419e-05 -0.00116952
0.00148261 3.2706e-05 -6.29046e-06
3.2706e-05 -0.000175716 -3.62012e-07
-6.29046e-06 -3.62012e-07 -0.000399543
0.00184311 0.000198001 1.73869e-05
0.000198001 -1.36637e-05 -1.79573e-05
1.73869e-05 -1.79573e-05 -0.00137228
0.00463514 0.000745563 -1.12917e-05
0.000745563 0.00137613 -1.29194e-05
-1.12917e-05 -1.29194e-05 0.00176085
0.00179525 0.000396918 -6.38123e-06
0.000396918 -0.000987692 1.61969e-05
-6.38123e-06 1.61969e-05 -0.000162013
0.00254055 -8.49927e-05 -2.03516e-05
-8.49927e-05 0.000115655 4.74053e-06
-2.03516e-05 4.74053e-06 -0.000172082
0.00473677 0.00036658 6.51382e-05
0.00036658 0.00140403 -4.38968e-05
6.51382e-05 -4.38968e-05 -6.70491e-05
-0.00519215 0.000194399 -7.95244e-05
0.000194399 -0.00392828 -8.49268e-06
-7.95244e-05 -8.49268e-06 -0.00365449
0.00134585 0.000250086 -2.0106e-05
0.000250086 -0.0019152 1.9972e-05
-2.0106e-05 1.9972e-05 -0.000987957
0.000926038 -2.18116e-05 9.66724e-07
-2.18116e-05 0.00010678 3.93814e-07
9.66724e-07 3.93814e-07 2.63642e-05
0.000883078 3.45202e-05 -1.42282e-06
3.45202e-05 8.56961e-05 -3.3395e-07
-1.42282e-06 -3.3395e-07 1.06145e-05
0.000830737 1.34452e-05 6.99203e-07
1.34452e-05 5.07984e-05 1.53093e-08
6.99203e-07 1.53093e-08 -1.06123e-05
0.00088175 5.4103e-05 1.85511e-06
5.4103e-05 8.96712e-05 9.70264e-07
1.85511e-06 9.70264e-07 1.66861e-05
0.000797168 1.26519e-05 -3.57804e-07
1.26519e-05 3.9417e-05 6.32826e-07
-3.57804e-07 6.32826e-07 -4.15638e-05
0.000916093 3.64904e-05 1.84903e-07
3.64904e-05 0.000103654 5.28958e-07
1.84903e-07 5.28958e-07 2.90781e-05
0.000821982 -2.78442e-06 -8.00591e-10
-2.78442e-06 4.93557e-05 1.06983e-06
-8.00591e-10 1.06983e-06 -2.17544e-05
0.000932172 6.51633e-05 -7.81824e-07
6.51633e-05 0.000111381 4.69305e-07
-7.81824e-07 4.69305e-07 3.80753e-05
0.000909871 2.67544e-05 -3.12257e-07
2.67544e-05 9.89409e-05 2.96418e-07
-3.12257e-07 2.96418e-07 2.89438e-05
0.000771508 -2.02693e-05 -7.94613e-07
-2.02693e-05 2.26505e-05 -2.39913e-07
-7.94613e-07 -2.39913e-07 -4.40284e-05
-0.0001332 -6.07068e-05 1.00533e-05
-6.07068e-05 -0.00088887 -3.59241e-06
1.00533e-05 -3.59241e-06 -0.000932733
0.00177147 -0.000239329 5.00576e-06
-0.000239329 3.08099e-05 1.48045e-06
5.00576e-06 1.48045e-06 -4.25687e-05
0.000904104 -0.00018518 6.73271e-06
-0.00018518 -1.75172e-05 1.92436e-06
6.73271e-06 1.92436e-06 -0.000160035
0.00113156 -8.63142e-05 6.36793e-06
-8.63142e-05 0.000220339 -6.82522e-08
6.36793e-06 -6.82522e-08 5.26769e-05
0.000989543 -1.87336e-05 6.66521e-07
-1.87336e-05 0.000161914 -4.2215e-07
6.66521e-07 -4.2215e-07 4.12917e-05
0.000811338 -4.10872e-05 -3.74684e-07
-4.10872e-05 4.38736e-05 -4.89637e-07
-3.74684e-07 -4.89637e-07 -4.17071e-05
0.000871467 4.85676e-05 -7.24747e-08
4.85676e-05 7.53167e-05 -9.73677e-08
-7.24747e-08 -9.73677e-08 -4.75607e-06
0.000892949 -3.28872e-05 -2.39593e-07
-3.28872e-05 8.64377e-05 3.47781e-07
-2.39593e-07 3.47781e-07 6.26182e-06
0.001492 -0.000163518 2.18203e-06
-0.000163518 0.00022214 -6.10718e-07
2.18203e-06 -6.10718e-07 0.000107366
0.000893488 5.40551e-06 -7.16138e-08
5.40551e-06 8.12083e-05 -2.50892e-07
-7.16138e-08 -2.50892e-07 -8.75895e-07
0.000895419 -2.8109e-05 -4.63679e-07
-2.8109e-05 7.53516e-05 -7.18258e-08
-4.63679e-07 -7.18258e-08 -1.28095e-05
0.00162889 -0.00020537 -3.17616e-07
-0.00020537 0.00028239 3.09058e-07
-3.17616e-07 3.09058e-07 0.000201487
0.00105813 -2.21933e-05 -2.97968e-06
-2.21933e-05 0.000191168 1.82169e-06
-2.97968e-06 1.82169e-06 5.39e-05
0.000841799 -0.000244925 1.30585e-08
-0.000244925 -0.000126635 -9.69941e-06
1.30585e-08 -9.69941e-06 -0.000145234
0.0016512 -6.79432e-05 -9.14695e-06
-6.79432e-05 0.000560709 8.13742e-06
-9.14695e-06 8.13742e-06 0.000437414
0.00052968 2.04614e-05 -3.0485e-06
2.04614e-05 -0.000135406 5.77397e-06
-3.0485e-06 5.77397e-06 -0.000218299
0.000880508 -3.36149e-06 3.6048e-07
-3.36149e-06 6.35124e-05 6.18068e-07
3.6048e-07 6.18068e-07 -1.34713e-05
0.000866397 2.80187e-05 -5.64185e-07
2.80187e-05 5.71966e-05 3.55328e-07
-5.64185e-07 3.55328e-07 -2.60941e-05
0.00133174 2.24422e-06 -2.34648e-05
2.24422e-06 -0.000122825 -2.47746e-06
-2.34648e-05 -2.47746e-06 -0.000316534
-0.000196955 -1.13808e-05 -2.00136e-05
-1.13808e-05 0.000515008 -1.14102e-06
-2.00136e-05 -1.14102e-06 0.000223086
-0.00592083 -8.84894e-05 -4.43552e-05
-8.84894e-05 -0.00292877 -1.00828e-06
-4.43552e-05 -1.00828e-06 -0.00284741
0.000682926 7.64592e-05 4.37718e-06
7.64592e-05 3.52116e-05 1.19265e-06
4.37718e-06 1.19265e-06 -5.43294e-05
0.000172259 2.81403e-05 5.50735e-06
2.81403e-05 -0.000140578 3.85996e-06
5.50735e-06 3.85996e-06 -0.00031475
0.00115562 8.77136e-05 1.47068e-05
8.77136e-05 0.000104949 -1.4815e-06
1.47068e-05 -1.4815e-06 3.97027e-05
-0.00119266 -6.93681e-05 2.07978e-05
-6.93681e-05 -0.000103986 5.75754e-06
2.07978e-05 5.75754e-06 -0.000460225
0.00503105 -0.000461347 -5.53038e-06
-0.000461347 0.00153734 -1.77072e-05
-5.53038e-06 -1.77072e-05 -4.17595e-05
0.00408151 0.000565522 2.79904e-05
0.000565522 0.000633103 -2.87236e-05
2.79904e-05 -2.87236e-05 8.20358e-05
-0.000177502 6.83938e-05 -1.69582e-05
6.83938e-05 -0.00027383 5.35032e-06
-1.69582e-05 5.35032e-06 -0.000223827
0.00561034 -0.000638589 3.67557e-05
-0.000638589 0.00149854 2.21354e-05
3.67557e-05 2.21354e-05 0.00163984
0.00215765 -3.8244e-05 4.45846e-05
-3.8244e-05 0.000302494 2.93335e-05
4.45846e-05 2.93335e-05 -2.65869e-05
0.0043225 -0.000242925 2.60722e-05
-0.000242925 0.000309712 1.5006e-05
2.60722e-05 1.5006e-05 0.00128483
0.00121323 0.000110406 2.50561e-06
0.000110406 0.000363235 -1.12077e-06
2.50561e-06 -1.12077e-06 0.000291341
0.00160362 -2.76554e-05 2.66278e-06
-2.76554e-05 0.000128007 -5.51738e-06
2.66278e-06 -5.51738e-06 -8.57405e-05
0.00173183 -6.49327e-06 2.23243e-07
-6.49327e-06 9.2458e-05 3.73629e-06
2.23243e-07 3.73629e-06 -0.000154127
0.000237563 4.70385e-05 -5.51313e-06
4.70385e-05 3.01981e-05 6.54488e-07
-5.51313e-06 6.54488e-07 -7.23665e-05
0.00315101 0.000409322 -7.51995e-06
0.000409322 0.000649436 -2.58048e-05
-7.51995e-06 -2.58048e-05 0.0003724
0.00300612 0.000193541 4.04294e-05
0.000193541 0.000253927 1.79797e-05
4.04294e-05 1.79797e-05 -0.00154127
0.00304979 1.89427e-05 -8.45717e-08
1.89427e-05 -0.00102151 -1.43373e-05
-8.45717e-08 -1.43373e-05 0.000115806
0.000435807 -0.000216505 -1.15843e-05
-0.000216505 -0.00088365 1.78511e-05
-1.15843e-05 1.78511e-05 -0.000965361
0.000542522 4.0412e-05 -3.3915e-06
4.0412e-05 0.000118397 -9.00311e-06
-3.3915e-06 -9.00311e-06 7.83171e-05
0.00113913 -7.53936e-06 -7.76844e-06
-7.53936e-06 9.01265e-05 -9.41405e-06
-7.76844e-06 -9.41405e-06 7.14414e-06
0.00169619 8.47462e-06 6.49762e-07
8.47462e-06 4.6054e-06 -2.1443e-05
6.49762e-07 -2.1443e-05 -0.000225422
0.00135519 0.000227476 1.93353e-05
0.000227476 -0.00182723 -2.27543e-05
1.93353e-05 -2.27543e-05 -0.000979481
-0.00167026 3.38442e-05 7.79641e-06
3.38442e-05 -0.000824757 -1.29123e-05
7.79641e-06 -1.29123e-05 -0.00107656
0.00853236 0.000100021 7.86722e-05
0.000100021 0.00282956 2.6029e-05
7.86722e-05 2.6029e-05 0.00134969
-0.00263285 -7.629e-05 1.79902e-05
-7.629e-05 -0.00096277 -2.92664e-05
1.79902e-05 -2.92664e-05 -0.00127363
0.00117683 9.07893e-05 4.17125e-06
9.07893e-05 0.000248629 4.05914e-06
4.17125e-06 4.05914e-06 0.000189769
0.000542682 5.54295e-05 -1.69158e-06
5.54295e-05 -6.69155e-05 1.42249e-06
-1.69158e-06 1.42249e-06 -0.000119377
0.000495474 3.19568e-05 -2.88263e-06
3.19568e-05 -4.91432e-05 -7.10443e-06
-2.88263e-06 -7.10443e-06 -0.000100316
0.000919472 7.61546e-05 -2.39603e-07
7.61546e-05 7.88694e-05 4.59702e-07
-2.39603e-07 4.59702e-07 1.07096e-05
0.000886311 -3.53234e-06 -4.4018e-07
-3.53234e-06 4.92438e-05 7.6912e-07
-4.4018e-07 7.6912e-07 -1.16096e-05
0.000839616 -3.89727e-05 -2.32594e-06
-3.89727e-05 3.70107e-05 5.19364e-06
-2.32594e-06 5.19364e-06 -1.52079e-05
0.000858877 4.26376e-05 1.38705e-07
4.26376e-05 4.11122e-05 5.41522e-08
1.38705e-07 5.41522e-08 -2.41506e-05
0.000809474 -4.51303e-05 1.17471e-07
-4.51303e-05 4.88912e-06 -7.8939e-07
1.17471e-07 -7.8939e-07 -4.50907e-05
0.000906881 -6.31848e-05 3.09602e-06
-6.31848e-05 8.50694e-05 1.85897e-06
3.09602e-06 1.85897e-06 3.79181e-05
0.000964883 -6.53259e-06 1.32205e-06
-6.53259e-06 0.000129417 -1.57645e-06
1.32205e-06 -1.57645e-06 0.000101598
0.000877163 9.67222e-06 3.01377e-07
9.67222e-06 4.42515e-05 -1.97986e-06
3.01377e-07 -1.97986e-06 -9.73104e-06
0.000878169 4.67569e-05 -2.38041e-07
4.67569e-05 5.52676e-05 8.2868e-07
-2.38041e-07 8.2868e-07 -9.51988e-06
0.000833141 5.40456e-05 -2.1677e-07
5.40456e-05 5.27814e-05 6.80488e-08
-2.1677e-07 6.80488e-08 -1.44971e-05
0.000883706 5.82093e-05 -8.50635e-07
5.82093e-05 6.82984e-05 5.07409e-07
-8.50635e-07 5.07409e-07 3.47647e-06
0.000870156 3.79951e-05 2.47695e-07
3.79951e-05 5.44077e-05 1.55579e-07
2.47695e-07 1.55579e-07 -5.9438e-06
0.000942934 3.95601e-05 7.23647e-07
3.95601e-05 0.000103857 2.43111e-07
7.23647e-07 2.43111e-07 3.81323e-05
0.00071532 -2.31321e-05 1.45907e-06
-2.31321e-05 2.1058e-05 7.07874e-07
1.45907e-06 7.07874e-07 -4.73012e-05
0.000791982 -2.45813e-05 -5.66863e-07
-2.45813e-05 4.72898e-05 -9.68905e-07
-5.66863e-07 -9.68905e-07 -3.44892e-05
0.000801479 -4.92011e-05 2.30418e-06
-4.92011e-05 6.51206e-05 8.07991e-07
2.30418e-06 8.07991e-07 -5.85895e-05
0.00100709 -5.92845e-06 -1.76753e-06
-5.92845e-06 0.000147032 -5.17791e-07
-1.76753e-06 -5.17791e-07 6.56315e-05
0.000996258 -5.53082e-05 -3.98436e-07
-5.53082e-05 0.000164476 8.64458e-07
-3.98436e-07 8.64458e-07 6.08164e-05
0.000594663 -9.53848e-05 -4.97141e-07
-9.53848e-05 -5.38798e-05 2.73132e-06
-4.97141e-07 2.73132e-06 -0.000190409
0.00083117 -0.000106261 -2.8129e-06
-0.000106261 6.90041e-05 4.7178e-07
-2.8129e-06 4.7178e-07 -6.30344e-05
0.000954143 -7.95983e-05 -7.22972e-07
-7.95983e-05 0.000141446 1.47846e-06
-7.22972e-07 1.47846e-06 3.61242e-05
0.000857593 -0.000106108 1.58863e-07
-0.000106108 8.59696e-05 3.8745e-07
1.58863e-07 3.8745e-07 -4.17544e-05
0.000895795 3.5182e-07 8.85571e-07
3.5182e-07 9.10798e-05 1.1341e-06
8.85571e-07 1.1341e-06 1.44809e-05
0.000983083 -2.59491e-05 -9.31593e-07
-2.59491e-05 0.000151215 -6.47488e-07
-9.31593e-07 -6.47488e-07 5.78698e-05
0.000727549 -5.45615e-05 3.21622e-07
-5.45615e-05 3.89181e-05 -3.64406e-06
3.21622e-07 -3.64406e-06 -6.40573e-05
0.00107715 2.32658e-05 -1.6912e-06
2.32658e-05 0.000195213 -1.59584e-06
-1.6912e-06 -1.59584e-06 0.000118672
0.000761715 2.14715e-05 7.53922e-08
2.14715e-05 1.43353e-05 -9.90921e-09
7.53922e-08 -9.90921e-09 -5.18299e-05
0.000805895 4.2249e-05 -1.01109e-07
4.2249e-05 2.84111e-05 8.16689e-07
-1.01109e-07 8.16689e-07 -2.37234e-05
0.000865615 -2.80373e-06 4.02991e-08
-2.80373e-06 6.71952e-05 -1.74973e-07
4.02991e-08 -1.74973e-07 4.99077e-06
0.000821252 1.46912e-05 -5.27184e-07
1.46912e-05 3.20417e-05 -6.52642e-08
-5.27184e-07 -6.52642e-08 -1.62633e-05
0.00078321 2.99276e-05 -1.24246e-06
2.99276e-05 6.29493e-06 1.51828e-06
-1.24246e-06 1.51828e-06 -2.56568e-05
0.000835337 -1.37282e-05 1.09865e-06
-1.37282e-05 3.73508e-05 -6.12304e-07
1.09865e-06 -6.12304e-07 -1.05755e-05
0.000791826 2.35448e-05 -9.82393e-08
2.35448e-05 5.41261e-06 5.23079e-09
-9.82393e-08 5.23079e-09 -2.5091e-05
0.00128768 3.20852e-05 -7.22604e-06
3.20852e-05 0.000275559 3.00715e-06
-7.22604e-06 3.00715e-06 0.000274118
0.000797142 1.24908e-05 1.12064e-06
1.24908e-05 4.11911e-06 -1.48622e-06
1.12064e-06 -1.48622e-06 -2.55072e-05
0.00102718 2.46672e-05 -3.47834e-06
2.46672e-05 0.000127012 5.60891e-07
-3.47834e-06 5.60891e-07 0.000125121
0.000892408 2.23853e-05 -1.62386e-06
2.23853e-05 5.59086e-05 1.56878e-06
-1.62386e-06 1.56878e-06 7.02262e-05
0.000733248 1.71303e-05 6.92799e-07
1.71303e-05 -3.84209e-05 -3.11918e-06
6.92799e-07 -3.11918e-06 -4.11592e-05
0.00149982 2.08609e-05 5.81406e-06
2.08609e-05 0.000383693 -1.16399e-06
5.81406e-06 -1.16399e-06 0.00040175
0.00211125 1.6535e-05 8.46052e-06
1.6535e-05 0.000716303 -4.01195e-06
8.46052e-06 -4.01195e-06 0.000737703
0.000688768 -1.05416e-06 -3.46363e-07
-1.05416e-06 -3.57732e-05 -9.92476e-07
-3.46363e-07 -9.92476e-07 -9.29011e-05
0.000570349 -1.40538e-05 -2.70071e-07
-1.40538e-05 -0.000117252 -2.04136e-06
-2.70071e-07 -2.04136e-06 -0.00014856
0.00091021 -1.25968e-05 4.56605e-09
-1.25968e-05 8.15944e-05 7.02761e-08
4.56605e-09 7.02761e-08 3.1075e-05
0.000753141 -1.21713e-05 -3.80399e-07
-1.21713e-05 -3.00967e-05 -3.20186e-06
-3.80399e-07 -3.20186e-06 -3.13384e-05
0.000685957 -9.51462e-06 7.09236e-08
-9.51462e-06 -5.6696e-05 1.46738e-08
7.09236e-08 1.46738e-08 -8.55675e-05
0.000680411 -4.25376e-05 2.12669e-07
-4.25376e-05 -4.09754e-05 8.46831e-07
2.12669e-07 8.46831e-07 -9.10641e-05
0.00204217 -8.74328e-06 -4.75901e-06
-8.74328e-06 0.000676718 -4.17663e-06
-4.75901e-06 -4.17663e-06 0.000699285
0.000750461 -6.22291e-06 -1.69377e-07
-6.22291e-06 -3.3909e-05 -2.10358e-09
-1.69377e-07 -2.10358e-09 -3.41092e-05
0.000811273 -5.90907e-06 1.13902e-07
-5.90907e-06 9.89568e-06 1.66071e-06
1.13902e-07 1.66071e-06 -1.73166e-05
0.00203723 -2.9857e-07 -2.26365e-06
-2.9857e-07 0.000672956 -4.945e-10
-2.26365e-06 -4.945e-10 0.000695786
0.000753273 -1.8093e-07 1.29169e-07
-1.8093e-07 -3.3243e-05 3.2703e-06
1.29169e-07 3.2703e-06 -3.32556e-05
0.00205632 8.21232e-06 -4.82878e-06
8.21232e-06 0.000684038 4.22258e-06
-4.82878e-06 4.22258e-06 0.000706519
0.00102067 2.45745e-05 -4.29179e-05
2.45745e-05 -0.000224223 1.60543e-05
-4.29179e-05 1.60543e-05 -0.000442882
0.00124732 0.000168429 -6.43674e-07
0.000168429 0.00105744 -4.02122e-06
-6.43674e-07 -4.02122e-06 0.000983046
0.000630782 -8.73371e-05 2.63775e-05
-8.73371e-05 0.000602438 -1.21971e-05
2.63775e-05 -1.21971e-05 0.000381863
0.000856289 1.90519e-05 -7.66708e-08
1.90519e-05 6.3245e-05 4.0573e-07
-7.66708e-08 4.0573e-07 -8.84044e-06
0.00187491 3.63529e-05 -1.815e-05
3.63529e-05 0.000213683 2.83774e-05
-1.815e-05 2.83774e-05 1.25193e-05
0.00194393 5.9594e-05 -1.53223e-05
5.9594e-05 8.61368e-05 2.78204e-06
-1.53223e-05 2.78204e-06 -0.000206871
0.00146117 0.00037487 6.01273e-05
0.00037487 0.000759547 -4.06853e-05
6.01273e-05 -4.06853e-05 0.00113816
0.00310413 -1.33895e-05 -3.09775e-05
-1.33895e-05 0.000448486 2.26462e-06
-3.09775e-05 2.26462e-06 0.000198805
0.00908328 0.000490556 2.0942e-05
0.000490556 0.00341838 -2.19531e-05
2.0942e-05 -2.19531e-05 0.00224855
-0.0023799 0.000434979 2.96488e-05
0.000434979 -0.00211386 -1.75246e-06
2.96488e-05 -1.75246e-06 -0.00161177
0.00292334 0.000423195 3.7864e-05
0.000423195 -0.000353491 -2.17572e-05
3.7864e-05 -2.17572e-05 0.000505963
0.00283592 -0.000136431 -4.39181e-05
-0.000136431 -1.75612e-05 2.19102e-06
-4.39181e-05 2.19102e-06 -0.000523952
0.00702081 0.000337259 2.52385e-05
0.000337259 0.00253681 -1.24742e-05
2.52385e-05 -1.24742e-05 0.00122099
0.00436765 0.000518602 -1.19335e-06
0.000518602 0.000380506 -8.2448e-06
-1.19335e-06 -8.2448e-06 0.000574546
0.00298245 0.000261592 -7.98839e-06
0.000261592 -0.000987429 2.48431e-06
-7.98839e-06 2.48431e-06 -6.95055e-05
0.00399905 -0.000344557 1.63909e-05
-0.000344557 0.00052781 -2.28441e-05
1.63909e-05 -2.28441e-05 -0.000186865
0.00739221 0.000228721 2.98696e-05
0.000228721 0.00286887 2.75075e-06
2.98696e-05 2.75075e-06 0.000993498
0.00193676 0.000178483 -1.57423e-06
0.000178483 -0.000502626 2.52956e-05
-1.57423e-06 2.52956e-05 -0.000499281
0.00449403 5.49645e-05 -1.94302e-06
5.49645e-05 -5.15047e-05 2.24424e-05
-1.94302e-06 2.24424e-05 0.00100773
0.000894094 -2.49455e-05 3.46986e-07
-2.49455e-05 8.51309e-05 4.39867e-07
3.46986e-07 4.39867e-07 3.00051e-06
0.000889337 -3.68017e-05 5.02779e-07
-3.68017e-05 8.98072e-05 9.36292e-09
5.02779e-07 9.36292e-09 7.65532e-06
0.000914482 4.88026e-05 -1.01504e-06
4.88026e-05 0.000104589 -2.63077e-08
-1.01504e-06 -2.63077e-08 2.91355e-05
0.000860101 -1.90561e-05 -4.74921e-07
-1.90561e-05 6.34602e-05 2.07948e-07
-4.74921e-07 2.07948e-07 -1.15244e-05
0.000891918 4.29479e-05 -5.76823e-07
4.29479e-05 9.07996e-05 3.35685e-07
-5.76823e-07 3.35685e-07 1.08411e-05
0.000931453 2.02369e-05 7.42801e-07
2.02369e-05 0.000113703 8.23052e-07
7.42801e-07 8.23052e-07 3.8658e-05
0.000977818 5.84697e-05 -5.41209e-07
5.84697e-05 0.00013417 1.13546e-07
-5.41209e-07 1.13546e-07 6.19505e-05
0.00101259 6.58864e-05 8.26561e-07
6.58864e-05 0.000157804 8.98452e-07
8.26561e-07 8.98452e-07 8.6061e-05
-0.000445747 -8.30475e-05 1.85e-05
-8.30475e-05 -0.000792687 -7.05404e-06
1.85e-05 -7.05404e-06 -0.000844197
0.0015343 -0.000202047 6.18756e-06
-0.000202047 0.000221927 -1.45219e-06
6.18756e-06 -1.45219e-06 0.000150778
0.000883513 -0.000106479 -1.92465e-06
-0.000106479 8.90401e-05 -1.73032e-07
-1.92465e-06 -1.73032e-07 3.62131e-06
0.00172759 -4.6959e-05 3.47326e-06
-4.6959e-05 0.000526065 -1.44555e-06
3.47326e-06 -1.44555e-06 0.000394227
0.000796396 -3.66258e-05 -6.15277e-07
-3.66258e-05 2.34215e-05 -7.04759e-07
-6.15277e-07 -7.04759e-07 -6.69959e-05
0.000984836 -2.19628e-05 -8.17644e-07
-2.19628e-05 0.000126402 1.65922e-08
-8.17644e-07 1.65922e-08 4.78668e-05
0.000944824 8.15001e-06 2.13134e-08
8.15001e-06 0.000103601 -2.456e-07
2.13134e-08 -2.456e-07 2.38597e-05
0.000811877 -0.000254598 -4.23604e-06
-0.000254598 -0.000157214 3.80111e-07
-4.23604e-06 3.80111e-07 -0.000195563
0.000891984 2.12792e-05 1.10346e-07
2.12792e-05 7.75866e-05 -2.26739e-07
1.10346e-07 -2.26739e-07 -8.00137e-06
0.00101748 -2.41772e-05 -4.90067e-07
-2.41772e-05 0.000118402 1.14846e-07
-4.90067e-07 1.14846e-07 3.05092e-05
0.000640803 -6.09884e-05 9.09323e-07
-6.09884e-05 1.76596e-05 2.92482e-06
9.09323e-07 2.92482e-06 -8.86321e-05
0.00106741 -1.99797e-05 -7.77682e-10
-1.99797e-05 0.000159481 7.12287e-07
-7.77682e-10 7.12287e-07 8.73301e-05
-0.000230774 -0.000262077 3.39277e-05
-0.000262077 -0.000511404 -1.69993e-05
3.39277e-05 -1.69993e-05 -0.000502956
0.0013683 -1.90102e-05 -1.01521e-05
-1.90102e-05 0.000541587 1.37229e-05
-1.01521e-05 1.37229e-05 0.000417358
0.000568336 4.27023e-06 -1.1713e-06
4.27023e-06 -0.000120033 3.19191e-06
-1.1713e-06 3.19191e-06 -0.000190848
0.000926378 8.8143e-05 1.30379e-06
8.8143e-05 9.26012e-05 9.972e-07
1.30379e-06 9.972e-07 1.45738e-05
0.00138947 -1.11719e-06 -6.81982e-06
-1.11719e-06 0.000269951 4.43353e-07
-6.81982e-06 4.43353e-07 0.000218243
0.00115615 -9.04837e-06 2.19489e-05
-9.04837e-06 -0.000184747 -1.64704e-06
2.19489e-05 -1.64704e-06 -0.000379575
-0.00136179 -2.07513e-05 2.14833e-05
-2.07513e-05 -3.73518e-05 1.2619e-07
2.14833e-05 1.2619e-07 -0.000422306
0.00071008 7.95481e-05 8.70776e-06
7.95481e-05 0.000108847 1.47731e-06
8.70776e-06 1.47731e-06 3.78216e-05
0.000551039 9.8618e-05 1.55889e-05
9.8618e-05 0.000206088 9.43015e-06
1.55889e-05 9.43015e-06 9.36579e-05
0.00163179 -2.65165e-05 3.92512e-05
-2.65165e-05 0.000196031 8.76017e-06
3.92512e-05 8.76017e-06 1.52127e-05
0.00782873 -0.000495364 6.0563e-05
-0.000495364 0.00277099 2.18672e-05
6.0563e-05 2.18672e-05 0.00115324
0.00243737 0.000410413 -6.01984e-05
0.000410413 0.000257931 -7.27817e-05
-6.01984e-05 -7.27817e-05 -0.000410177
0.0034885 -0.000315792 1.46712e-05
-0.000315792 0.000292077 4.58966e-05
1.46712e-05 4.58966e-05 0.000130687
0.0018739 -3.22324e-06 1.2842e-05
-3.22324e-06 0.000121691 3.31564e-05
1.2842e-05 3.31564e-05 -0.000128579
0.00166329 1.26557e-05 1.37886e-06
1.26557e-05 -0.00205738 1.32163e-06
1.37886e-06 1.32163e-06 -0.000840257
0.000753934 7.27104e-05 2.37124e-06
7.27104e-05 0.000214271 2.55583e-07
2.37124e-06 2.55583e-07 0.000163743
0.00111863 -5.93154e-06 -1.17706e-06
-5.93154e-06 5.56748e-05 -2.98193e-06
-1.17706e-06 -2.98193e-06 -2.14321e-05
0.00170468 7.56425e-06 4.4549e-06
7.56425e-06 0.0001183 1.75129e-06
4.4549e-06 1.75129e-06 -7.1569e-05
-0.000597297 7.91428e-05 -8.41673e-06
7.91428e-05 -0.000226154 -2.92733e-06
-8.41673e-06 -2.92733e-06 -0.000395251
0.00296759 0.00024214 5.51658e-06
0.00024214 -0.000939808 -2.90324e-06
5.51658e-06 -2.90324e-06 -7.00945e-05
0.00525606 0.000445945 4.21288e-05
0.000445945 0.00118827 4.9397e-06
4.21288e-05 4.9397e-06 -0.000286725
0.00290014 0.000136912 -5.14743e-05
0.000136912 0.000871616 -5.5009e-06
-5.14743e-05 -5.5009e-06 0.000589847
0.000238165 6.58371e-05 -3.3018e-06
6.58371e-05 8.27426e-05 -1.29891e-05
-3.3018e-06 -1.29891e-05 -9.6387e-06
0.00102485 1.83522e-06 -3.12228e-06
1.83522e-06 0.000101055 -5.74882e-06
-3.12228e-06 -5.74882e-06 2.17844e-05
0.00189404 2.84855e-05 1.69284e-05
2.84855e-05 0.000211878 -2.80504e-05
1.69284e-05 -2.80504e-05 1.66365e-05
0.00347083 0.000390533 4.9781e-05
0.000390533 6.87664e-05 -3.05218e-05
4.9781e-05 -3.05218e-05 0.000840565
0.00248993 0.00026018 -9.83353e-06
0.00026018 -0.000291356 -3.06407e-05
-9.83353e-06 -3.06407e-05 -0.000223585
0.00189224 0.000287553 1.37108e-05
0.000287553 0.000218126 -1.38918e-05
1.37108e-05 -1.38918e-05 0.000302013
0.00241378 -0.000109206 0.000109611
-0.000109206 0.000797865 2.35556e-05
0.000109611 2.35556e-05 -0.00115704
0.000707834 7.6141e-05 7.58775e-07
7.6141e-05 1.61957e-05 6.80606e-06
7.58775e-07 6.80606e-06 -4.00983e-05
0.000696685 9.69434e-06 2.99976e-06
9.69434e-06 5.45348e-05 1.66434e-06
2.99976e-06 1.66434e-06 6.79155e-06
0.000604729 -3.06737e-05 1.08232e-05
-3.06737e-05 0.000170744 -8.77565e-06
1.08232e-05 -8.77565e-06 0.000100115
0.000911969 1.91062e-05 -4.3109e-07
1.91062e-05 6.642e-05 8.62015e-07
-4.3109e-07 8.62015e-07 3.2432e-06
0.000742879 -4.43883e-05 -1.25117e-06
-4.43883e-05 -3.21395e-05 2.24022e-06
-1.25117e-06 2.24022e-06 -8.17003e-05
0.00107924 -7.03399e-05 -2.19863e-06
-7.03399e-05 0.000164858 4.62733e-06
-2.19863e-06 4.62733e-06 0.000111791
0.000896578 -3.68138e-06 -2.16985e-07
-3.68138e-06 5.84284e-05 -3.57057e-07
-2.16985e-07 -3.57057e-07 3.35827e-06
0.00065447 -1.20959e-05 -1.70802e-06
-1.20959e-05 -4.78678e-05 2.77349e-06
-1.70802e-06 2.77349e-06 -7.18808e-05
0.000670698 -6.264e-05 2.04879e-06
-6.264e-05 6.28563e-05 -1.75752e-06
2.04879e-06 -1.75752e-06 -3.85521e-05
0.000883739 3.017e-05 1.095e-07
3.017e-05 6.13098e-05 1.10841e-06
1.095e-07 1.10841e-06 8.37511e-07
0.000969333 5.13618e-05 -3.7034e-07
5.13618e-05 0.000117723 1.02032e-06
-3.7034e-07 1.02032e-06 5.21452e-05
0.00104522 -2.88954e-05 6.41352e-07
-2.88954e-05 0.00018738 4.23904e-07
6.41352e-07 4.23904e-07 0.000114509
0.000450402 -2.90093e-05 3.62843e-06
-2.90093e-05 -5.1931e-05 1.6908e-06
3.62843e-06 1.6908e-06 -0.000195811
0.000681073 2.0143e-06 -4.75465e-06
2.0143e-06 -7.75643e-06 -7.95927e-07
-4.75465e-06 -7.95927e-07 -8.6373e-05
0.000510924 -4.78283e-05 2.83129e-07
-4.78283e-05 -8.40782e-05 -2.75097e-07
2.83129e-07 -2.75097e-07 -0.000200266
0.00105384 -0.000132576 1.96227e-06
-0.000132576 0.00019677 1.03926e-06
1.96227e-06 1.03926e-06 2.95038e-05
0.00112518 -0.000135026 -2.9054e-06
-0.000135026 0.000168046 3.34136e-06
-2.9054e-06 3.34136e-06 1.01688e-05
0.00128228 -7.35597e-05 -1.49858e-06
-7.35597e-05 0.000309576 -1.16861e-06
-1.49858e-06 -1.16861e-06 0.000204221
0.000766524 -0.000106019 -4.53564e-07
-0.000106019 3.00406e-05 2.90791e-07
-4.53564e-07 2.90791e-07 -0.000108963
0.00140249 -0.000142059 2.31987e-07
-0.000142059 0.000364654 -4.35637e-07
2.31987e-07 -4.35637e-07 0.000232974
0.000554028 -7.73094e-05 -1.18928e-06
-7.73094e-05 -6.14332e-05 4.62441e-07
-1.18928e-06 4.62441e-07 -0.00017664
0.000904234 -0.000110341 1.8936e-07
-0.000110341 0.00010657 -1.68263e-07
1.8936e-07 -1.68263e-07 -2.35163e-05
0.000899161 -6.19181e-06 -3.31259e-07
-6.19181e-06 9.60844e-05 7.86945e-07
-3.31259e-07 7.86945e-07 1.24408e-05
0.00101148 -7.84681e-05 -1.34928e-06
-7.84681e-05 0.000169664 1.22452e-06
-1.34928e-06 1.22452e-06 6.40584e-05
0.000709172 -9.68386e-05 -3.69087e-07
-9.68386e-05 9.35589e-06 -1.24957e-06
-3.69087e-07 -1.24957e-06 -0.000117285
0.000819324 4.13594e-05 1.73038e-07
4.13594e-05 4.0323e-05 1.05932e-06
1.73038e-07 1.05932e-06 -1.84887e-05
0.000782036 1.0286e-06 6.70235e-07
1.0286e-06 3.04746e-05 3.49311e-08
6.70235e-07 3.49311e-08 -4.62979e-05
0.000888804 -3.02631e-05 6.56865e-07
-3.02631e-05 0.000101071 -2.13609e-06
6.56865e-07 -2.13609e-06 6.06353e-06
0.000864395 1.50268e-05 -1.73761e-07
1.50268e-05 6.91377e-05 -8.59384e-07
-1.73761e-07 -8.59384e-07 4.22732e-06
0.000818408 2.39346e-05 -3.99958e-07
2.39346e-05 3.43298e-05 -1.51066e-07
-3.99958e-07 -1.51066e-07 -1.73343e-05
0.000773533 3.67729e-05 -1.21936e-06
3.67729e-05 7.55144e-06 1.48118e-06
-1.21936e-06 1.48118e-06 -2.686e-05
0.000825066 -3.03495e-06 7.3431e-07
-3.03495e-06 3.44792e-05 -7.90922e-07
7.3431e-07 -7.90922e-07 -1.40116e-05
0.000784425 3.07025e-05 -5.70394e-08
3.07025e-05 6.6677e-06 -4.21181e-09
-5.70394e-08 -4.21181e-09 -2.52883e-05
0.000706845 3.25404e-05 -1.30289e-06
3.25404e-05 -3.55558e-05 3.23172e-06
-1.30289e-06 3.23172e-06 -4.16904e-05
0.000795688 2.18267e-05 1.0862e-06
2.18267e-05 6.8392e-06 -1.49682e-06
1.0862e-06 -1.49682e-06 -2.3499e-05
0.000726754 2.79793e-05 1.27421e-07
2.79793e-05 -3.18701e-05 1.62973e-08
1.27421e-07 1.62973e-08 -3.63411e-05
0.0020013 4.2209e-05 -4.73878e-06
4.2209e-05 0.000669916 1.51895e-06
-4.73878e-06 1.51895e-06 0.000688587
0.000733449 2.27598e-05 9.07438e-07
2.27598e-05 -3.42364e-05 -3.13871e-06
9.07438e-07 -3.13871e-06 -3.75715e-05
0.00148368 2.75355e-05 7.07131e-06
2.75355e-05 0.000379522 -1.07991e-06
7.07131e-06 -1.07991e-06 0.000396794
0.00209307 2.44112e-05 1.19708e-05
2.44112e-05 0.000709878 -3.87371e-06
1.19708e-05 -3.87371e-06 0.000730722
0.000719135 -2.09179e-05 -1.34517e-07
-2.09179e-05 -2.65712e-05 -7.19451e-07
-1.34517e-07 -7.19451e-07 -8.18068e-05
0.000547426 -1.79528e-05 -2.74604e-07
-1.79528e-05 -0.000127485 -1.99139e-06
-2.74604e-07 -1.99139e-06 -0.000161448
0.000802844 -2.93282e-06 -2.89902e-07
-2.93282e-06 2.54931e-05 -5.21404e-07
-2.89902e-07 -5.21404e-07 -3.07515e-05
0.000748103 -1.7869e-05 -4.31132e-07
-1.7869e-05 -2.91665e-05 -3.22054e-06
-4.31132e-07 -3.22054e-06 -3.20873e-05
0.00056118 -1.41681e-05 3.70915e-08
-1.41681e-05 -0.000122137 -5.97427e-07
3.70915e-08 -5.97427e-07 -0.000153717
0.000926178 -8.31905e-07 -1.42419e-07
-8.31905e-07 9.32643e-05 6.50849e-07
-1.42419e-07 6.50849e-07 4.05441e-05
0.00206636 -1.67749e-05 -8.43069e-06
-1.67749e-05 0.0006923 -4.13561e-06
-8.43069e-06 -4.13561e-06 0.000714106
0.00074605 -1.18903e-05 -1.03589e-07
-1.18903e-05 -3.3991e-05 -1.20264e-08
-1.03589e-07 -1.20264e-08 -3.517e-05
0.000567422 -9.6613e-06 2.13203e-07
-9.6613e-06 -0.000120508 1.54044e-06
2.13203e-07 1.54044e-06 -0.000150312
0.00203871 -8.23851e-06 -2.42228e-06
-8.23851e-06 0.000674629 1.96321e-08
-2.42228e-06 1.96321e-08 0.000697265
0.000747923 -5.97362e-06 1.9491e-07
-5.97362e-06 -3.53283e-05 3.24429e-06
1.9491e-07 3.24429e-06 -3.55065e-05
0.00203738 2.60191e-07 -6.12434e-07
2.60191e-07 0.000673029 4.23042e-06
-6.12434e-07 4.23042e-06 0.000695844
0.00108988 1.53628e-05 -9.90348e-06
1.53628e-05 -1.76489e-06 1.10017e-05
-9.90348e-06 1.10017e-05 -8.10817e-05
0.00126209 2.51415e-05 3.94213e-06
2.51415e-05 -7.50674e-05 -1.38525e-06
3.94213e-06 -1.38525e-06 -0.000293061
0.0011208 0.000134363 4.71758e-05
0.000134363 0.0010985 -1.52424e-05
4.71758e-05 -1.52424e-05 0.000979986
0.000875431 1.80579e-05 2.10543e-07
1.80579e-05 7.08811e-05 2.89585e-08
2.10543e-07 2.89585e-08 1.35241e-06
0.000799496 -1.02977e-05 -6.86684e-08
-1.02977e-05 2.64236e-05 1.30729e-07
-6.86684e-08 1.30729e-07 -4.22162e-05
0.000938615 2.83252e-05 -6.04764e-07
2.83252e-05 0.000109696 8.70211e-07
-6.04764e-07 8.70211e-07 3.43717e-05
0.00173744 2.0545e-05 3.16909e-06
2.0545e-05 7.33526e-05 3.90985e-05
3.16909e-06 3.90985e-05 -0.000181163
0.00186217 3.73985e-05 -5.83021e-06
3.73985e-05 0.000201751 3.32941e-06
-5.83021e-06 3.32941e-06 -2.44218e-06
0.00204991 5.74866e-05 3.38531e-05
5.74866e-05 0.000174202 -3.44078e-05
3.38531e-05 -3.44078e-05 -0.000155048
0.00408643 -0.000169902 -4.8888e-05
-0.000169902 0.000711395 6.74109e-06
-4.8888e-05 6.74109e-06 0.000252934
-0.00029376 0.000121583 -2.57158e-05
0.000121583 -0.00068603 1.0266e-05
-2.57158e-05 1.0266e-05 -0.00222483
0.00491285 0.000585119 6.37553e-05
0.000585119 0.00110544 -2.1493e-05
6.37553e-05 -2.1493e-05 0.00119524
0.00149231 0.00020006 1.11384e-05
0.00020006 -0.00194552 -2.36595e-05
1.11384e-05 -2.36595e-05 -0.000980303
0.00391294 -0.000401308 -1.07507e-05
-0.000401308 0.000761205 3.70613e-06
-1.07507e-05 3.70613e-06 0.000316604
0.00593796 9.94323e-05 1.68447e-05
9.94323e-05 0.00192498 -1.35152e-05
1.68447e-05 -1.35152e-05 0.000384092
0.000333358 9.63356e-05 -1.08383e-05
9.63356e-05 -0.000735867 -1.26463e-06
-1.08383e-05 -1.26463e-06 -0.000805341
0.00308988 3.34787e-05 -3.136e-06
3.34787e-05 -0.00103023 7.58136e-07
-3.136e-06 7.58136e-07 9.51404e-05
0.00227903 -0.000428086 -2.32417e-05
-0.000428086 -0.000215489 -4.52581e-05
-2.32417e-05 -4.52581e-05 -0.000662398
0.00857515 -0.000132571 6.56611e-05
-0.000132571 0.00349175 -4.86574e-07
6.56611e-05 -4.86574e-07 0.00159046
-0.00248204 7.43516e-05 2.00644e-05
7.43516e-05 -0.000973757 1.51881e-05
2.00644e-05 1.51881e-05 -0.00131661
0.00139396 -0.000194916 8.12307e-06
-0.000194916 -0.00170062 4.11981e-06
8.12307e-06 4.11981e-06 -0.000751241
0.000905399 -2.25295e-06 -2.03903e-07
-2.25295e-06 8.47116e-05 8.95728e-07
-2.03903e-07 8.95728e-07 5.27164e-06
0.000874777 -1.49596e-05 1.42117e-07
-1.49596e-05 7.74013e-05 -6.37428e-08
1.42117e-07 -6.37428e-08 -6.69463e-06
0.000859082 -4.50021e-05 -1.2097e-07
-4.50021e-05 7.46381e-05 -3.24527e-07
-1.2097e-07 -3.24527e-07 -8.23607e-06
0.000873898 4.8883e-06 -2.33023e-07
4.8883e-06 7.11494e-05 -2.69459e-07
-2.33023e-07 -2.69459e-07 -4.24482e-06
0.000989698 7.95638e-05 1.35832e-06
7.95638e-05 0.000143261 -2.05391e-08
1.35832e-06 -2.05391e-08 6.46756e-05
0.00102327 6.45968e-05 -2.36408e-08
6.45968e-05 0.000160661 7.21453e-08
-2.36408e-08 7.21453e-08 8.69497e-05
0.00114026 -0.000272807 3.22348e-07
-0.000272807 4.28367e-06 2.27956e-06
3.22348e-07 2.27956e-06 -5.74986e-05
-0.000597059 -4.5383e-05 7.91025e-06
-4.5383e-05 -0.000629657 -3.32289e-06
7.91025e-06 -3.32289e-06 -0.000721737
0.00102398 4.03418e-05 -2.08204e-07
4.03418e-05 0.000152569 -4.95015e-07
-2.08204e-07 -4.95015e-07 6.97774e-05
0.00132273 -6.87839e-05 4.53025e-06
-6.87839e-05 0.00027261 -7.16048e-06
4.53025e-06 -7.16048e-06 0.00018015
0.00102588 1.38268e-05 -2.74419e-07
1.38268e-05 0.000149483 -1.21098e-06
-2.74419e-07 -1.21098e-06 6.51033e-05
0.000939007 -1.29025e-05 2.06361e-07
-1.29025e-05 8.95299e-05 -3.24654e-07
2.06361e-07 -3.24654e-07 1.56297e-05
0.000961483 4.57163e-05 2.15222e-07
4.57163e-05 0.000108861 -1.49238e-07
2.15222e-07 -1.49238e-07 3.46108e-05
0.000744195 -0.000249779 -9.20901e-06
-0.000249779 -5.15686e-05 -6.56849e-07
-9.20901e-06 -6.56849e-07 -4.99346e-05
0.000877678 -1.68488e-05 9.72143e-07
-1.68488e-05 4.92081e-05 -1.40848e-06
9.72143e-07 -1.40848e-06 -1.97536e-05
0.000698294 -1.06071e-05 1.34237e-06
-1.06071e-05 0.000218709 -2.00478e-06
1.34237e-06 -2.00478e-06 0.000100833
0.000980323 1.1247e-05 1.61479e-06
1.1247e-05 0.000118564 8.75858e-07
1.61479e-06 8.75858e-07 5.0901e-05
-0.00191887 -5.52734e-05 1.38285e-05
-5.52734e-05 -0.000943396 -2.24697e-05
1.38285e-05 -2.24697e-05 -0.00119786
0.0016282 7.83701e-06 1.24471e-05
7.83701e-06 0.000664726 1.92291e-05
1.24471e-05 1.92291e-05 0.000633732
0.00104095 -1.90733e-05 3.64566e-07
-1.90733e-05 0.000149365 3.07612e-06
3.64566e-07 3.07612e-06 8.9035e-05
0.0012634 -1.84526e-06 -1.49717e-07
-1.84526e-06 0.00037093 4.51348e-07
-1.49717e-07 4.51348e-07 0.000329493
0.000926698 1.56957e-07 -3.12924e-06
1.56957e-07 2.20485e-05 -8.78689e-07
-3.12924e-06 -8.78689e-07 -2.47895e-05
0.000998954 -1.9249e-05 6.86522e-05
-1.9249e-05 -0.000234741 -9.74986e-07
6.86522e-05 -9.74986e-07 -0.000431407
0.00102773 0.000100238 1.14572e-05
0.000100238 0.000342033 9.13217e-06
1.14572e-05 9.13217e-06 0.000282937
0.00252088 0.000257246 3.03444e-06
0.000257246 0.00102814 -1.3587e-05
3.03444e-06 -1.3587e-05 0.000926624
0.0010828 -5.59282e-06 4.28857e-06
-5.59282e-06 1.39875e-05 3.25515e-06
4.28857e-06 3.25515e-06 -5.71419e-05
0.00167805 0.000169959 -2.47108e-05
0.000169959 -7.00401e-05 -9.69597e-07
-2.47108e-05 -9.69597e-07 -0.00153279
-0.00530564 2.14594e-05 -2.49123e-05
2.14594e-05 -0.00303711 3.08171e-05
-2.49123e-05 3.08171e-05 -0.00342902
0.00173339 9.45869e-06 3.23024e-06
9.45869e-06 0.000243985 2.00959e-05
3.23024e-06 2.00959e-05 9.63808e-05
0.00152595 0.000184446 -1.02227e-05
0.000184446 -0.00187331 2.42348e-05
-1.02227e-05 2.42348e-05 -0.000951522
0.000319733 4.69258e-05 -2.55363e-06
4.69258e-05 0.000111239 -2.92477e-06
-2.55363e-06 -2.92477e-06 3.56882e-05
0.000968756 4.11233e-07 -4.21906e-07
4.11233e-07 0.000104582 -2.06946e-06
-4.21906e-07 -2.06946e-06 3.37183e-05
0.00186944 2.9488e-05 5.4773e-06
2.9488e-05 0.000190461 -3.09886e-06
5.4773e-06 -3.09886e-06 -5.47e-06
0.00188057 0.000297481 5.51366e-05
0.000297481 3.05316e-06 8.93837e-07
5.51366e-05 8.93837e-07 -5.05859e-05
0.00188092 0.000388517 5.26074e-06
0.000388517 -0.000920255 -1.51609e-05
5.26074e-06 -1.51609e-05 -0.000135453
0.00035615 9.63313e-05 1.16481e-05
9.63313e-05 -0.000878176 -1.38286e-06
1.16481e-05 -1.38286e-06 -0.000820019
0.00708569 0.000178926 3.2447e-05
0.000178926 0.00306665 -1.67869e-05
3.2447e-05 -1.67869e-05 0.000936647
-0.00021493 5.15856e-06 -2.3115e-05
5.15856e-06 4.7811e-05 -1.20847e-05
-2.3115e-05 -1.20847e-05 -0.000128356
0.00102948 1.25488e-05 9.24592e-06
1.25488e-05 -4.33357e-05 -9.5843e-06
9.24592e-06 -9.5843e-06 -0.000122948
0.00197568 5.73324e-05 6.37531e-05
5.73324e-05 6.70953e-05 -4.24236e-05
6.37531e-05 -4.24236e-05 -0.000200276
0.00225514 0.000589692 1.57236e-05
0.000589692 0.000597766 -6.90242e-06
1.57236e-05 -6.90242e-06 0.00154127
-0.00545197 0.000212776 6.87878e-05
0.000212776 -0.00390769 8.11927e-06
6.87878e-05 8.11927e-06 -0.00366447
0.00794684 6.54749e-05 3.04526e-05
6.54749e-05 0.00307393 -4.9064e-05
3.04526e-05 -4.9064e-05 0.00105676
0.00400436 -0.000165019 -3.1532e-05
-0.000165019 0.000785672 0.000111615
-3.1532e-05 0.000111615 0.00087155
0.0010441 -9.43103e-06 -4.58463e-06
-9.43103e-06 0.000238322 8.86898e-06
-4.58463e-06 8.86898e-06 0.000193408
9.83872e-05 -2.33947e-05 3.11801e-06
-2.33947e-05 -8.56159e-05 -1.44989e-07
3.11801e-06 -1.44989e-07 -0.000175894
0.000357411 -8.58159e-05 7.45545e-06
-8.58159e-05 9.29764e-05 -7.54787e-06
7.45545e-06 -7.54787e-06 -6.44363e-05
0.000883315 -1.81916e-05 -1.1553e-07
-1.81916e-05 5.74387e-05 7.76078e-07
-1.1553e-07 7.76078e-07 -2.24179e-07
0.000326567 -1.61458e-05 -7.72221e-07
-1.61458e-05 -0.000235276 7.44414e-06
-7.72221e-07 7.44414e-06 -0.000255851
0.000668215 -1.65149e-05 1.88449e-07
-1.65149e-05 6.15613e-05 1.59662e-07
1.88449e-07 1.59662e-07 -2.7529e-05
0.00079838 -0.000102867 9.05474e-06
-0.000102867 0.000228864 -3.49241e-06
9.05474e-06 -3.49241e-06 2.50435e-05
0.00143756 -4.19332e-05 -1.42337e-06
-4.19332e-05 0.000386395 9.27218e-07
-1.42337e-06 9.27218e-07 0.000309403
0.0011666 -9.84848e-05 9.69923e-07
-9.84848e-05 0.000300869 4.94855e-07
9.69923e-07 4.94855e-07 0.000153202
0.0011156 -0.000141122 3.13594e-06
-0.000141122 0.000269807 3.13562e-06
3.13594e-06 3.13562e-06 3.97345e-05
0.000234514 -4.4527e-05 -1.64268e-06
-4.4527e-05 -0.000226096 -1.63114e-06
-1.64268e-06 -1.63114e-06 -0.000333988
0.00101913 -0.000127606 -2.14164e-07
-0.000127606 0.000179373 4.13741e-07
-2.14164e-07 4.13741e-07 5.35912e-06
0.00176315 -0.000188604 -1.34308e-08
-0.000188604 0.000497921 2.7293e-06
-1.34308e-08 2.7293e-06 0.000295553
0.00167507 -0.000183371 -3.63202e-06
-0.000183371 0.000382083 2.83146e-06
-3.63202e-06 2.83146e-06 0.000205143
0.000701465 -0.000108797 -9.7499e-07
-0.000108797 -4.09669e-05 3.54962e-06
-9.7499e-07 3.54962e-06 -0.000181096
0.00107814 -0.000133134 -1.52451e-06
-0.000133134 0.000143071 1.09386e-06
-1.52451e-06 1.09386e-06 -1.61074e-05
0.000892602 -0.000113823 -1.79235e-06
-0.000113823 9.03653e-05 -7.32121e-07
-1.79235e-06 -7.32121e-07 -5.1468e-05
0.00121766 -0.000128908 1.33694e-06
-0.000128908 0.000266739 -1.06062e-06
1.33694e-06 -1.06062e-06 0.000145298
0.00108608 -0.000122611 1.93096e-06
-0.000122611 0.000200375 -1.37549e-06
1.93096e-06 -1.37549e-06 7.33893e-05
0.000669943 -3.20087e-05 5.06539e-07
-3.20087e-05 -1.46517e-05 1.37559e-06
5.06539e-07 1.37559e-06 -0.000113494
0.000833236 -8.703e-05 6.48212e-07
-8.703e-05 8.55772e-05 -2.37695e-07
6.48212e-07 -2.37695e-07 -2.90211e-05
0.00098349 -0.000114674 3.61694e-06
-0.000114674 0.000147777 -2.79668e-06
3.61694e-06 -2.79668e-06 1.95813e-05
0.000825172 4.40765e-05 2.82295e-07
4.40765e-05 4.9025e-05 1.32621e-06
2.82295e-07 1.32621e-06 -1.98641e-05
0.000913144 -2.17306e-05 -2.51451e-07
-2.17306e-05 0.000105113 9.32837e-09
-2.51451e-07 9.32837e-09 1.98247e-05
0.00106976 -7.6522e-05 -1.76949e-07
-7.6522e-05 0.00019817 -3.54278e-07
-1.76949e-07 -3.54278e-07 9.25802e-05
0.000753502 4.42072e-05 -9.27184e-07
4.42072e-05 4.02666e-06 1.61055e-06
-9.27184e-07 1.61055e-06 -3.48253e-05
0.000818854 2.75551e-05 -3.03436e-07
2.75551e-05 3.93387e-05 -1.94024e-07
-3.03436e-07 -1.94024e-07 -1.90098e-05
0.000677125 7.55307e-07 1.64086e-07
7.55307e-07 -2.54582e-05 -1.00243e-06
1.64086e-07 -1.00243e-06 -0.000102412
0.000831754 8.14372e-06 5.40691e-07
8.14372e-06 4.10227e-05 -1.09196e-06
5.40691e-07 -1.09196e-06 -1.03991e-05
0.000774981 3.92384e-05 -6.17642e-08
3.92384e-05 8.54621e-06 -3.61158e-08
-6.17642e-08 -3.61158e-08 -2.61496e-05
0.000689476 3.73193e-05 -1.56871e-06
3.73193e-05 -3.64988e-05 3.25366e-06
-1.56871e-06 3.25366e-06 -4.50046e-05
0.000787483 3.16775e-05 1.00754e-06
3.16775e-05 8.03965e-06 -1.57089e-06
1.00754e-06 -1.57089e-06 -2.39298e-05
0.000720351 3.31506e-05 8.46916e-08
3.31506e-05 -2.84138e-05 -1.41646e-09
8.46916e-08 -1.41646e-09 -3.45943e-05
0.00205172 4.57329e-05 -2.01442e-05
4.57329e-05 0.000703612 3.45345e-06
-2.01442e-05 3.45345e-06 0.000721164
0.000735492 2.83704e-05 1.12322e-06
2.83704e-05 -2.75598e-05 -3.1622e-06
1.12322e-06 -3.1622e-06 -3.20092e-05
0.00147036 3.42988e-05 8.29416e-06
3.42988e-05 0.000378845 -9.85745e-07
8.29416e-06 -9.85745e-07 0.000394846
0.00207135 3.2013e-05 1.51887e-05
3.2013e-05 0.000702853 -3.70714e-06
1.51887e-05 -3.70714e-06 0.000722867
0.000838343 1.76552e-05 -6.23008e-07
1.76552e-05 3.80012e-05 -4.27148e-07
-6.23008e-07 -4.27148e-07 -1.76449e-05
0.000768294 -2.07429e-05 -7.1272e-07
-2.07429e-05 -7.02813e-06 -1.43273e-06
-7.1272e-07 -1.43273e-06 -4.12103e-05
0.000759601 1.36175e-05 -7.28089e-07
1.36175e-05 -4.6021e-07 -4.3175e-07
-7.28089e-07 -4.3175e-07 -5.76584e-05
0.000739477 -2.35222e-05 -4.08136e-07
-2.35222e-05 -2.90055e-05 -3.27964e-06
-4.08136e-07 -3.27964e-06 -3.39694e-05
0.000665118 -1.82112e-05 -1.09029e-07
-1.82112e-05 -6.39699e-05 -6.26168e-07
-1.09029e-07 -6.26168e-07 -9.72416e-05
0.000922616 -4.26651e-06 4.21178e-08
-4.26651e-06 8.977e-05 -6.39813e-08
4.21178e-08 -6.39813e-08 3.44142e-05
0.00210544 -2.48112e-05 -1.20358e-05
-2.48112e-05 0.000717236 -4.06004e-06
-1.20358e-05 -4.06004e-06 0.000737869
0.000738696 -1.75476e-05 -1.60177e-07
-1.75476e-05 -3.431e-05 -9.67403e-09
-1.60177e-07 -9.67403e-09 -3.71421e-05
0.000552558 -1.41661e-05 9.56717e-08
-1.41661e-05 -0.000126729 8.55443e-07
9.56717e-08 8.55443e-07 -0.000158578
0.00205886 -1.62303e-05 -2.18767e-06
-1.62303e-05 0.000687829 3.84743e-08
-2.18767e-06 3.84743e-08 0.000709781
0.000739591 -1.16248e-05 3.82084e-07
-1.16248e-05 -3.75313e-05 3.22168e-06
3.82084e-07 3.22168e-06 -3.86541e-05
0.00203525 -7.72387e-06 3.35638e-06
-7.72387e-06 0.00067253 4.19311e-06
3.35638e-06 4.19311e-06 0.000695226
0.00102272 2.88458e-06 2.76431e-06
2.88458e-06 0.000117205 6.80711e-06
2.76431e-06 6.80711e-06 2.30966e-05
0.00114873 1.15676e-05 -4.58772e-06
1.15676e-05 4.48382e-05 1.05248e-06
-4.58772e-06 1.05248e-06 -4.22209e-05
0.00138935 2.32741e-05 5.21496e-05
2.32741e-05 1.12022e-05 -1.2449e-05
5.21496e-05 -1.2449e-05 -0.000209504
0.000777016 -4.63388e-05 1.82385e-08
-4.63388e-05 9.92719e-06 -3.77194e-07
1.82385e-08 -3.77194e-07 -5.60323e-05
0.000949086 -1.89963e-05 -2.97545e-07
-1.89963e-05 0.000109271 -5.54957e-07
-2.97545e-07 -5.54957e-07 3.76858e-05
0.000893232 1.9353e-05 1.338e-06
1.9353e-05 7.89238e-05 -3.13912e-07
1.338e-06 -3.13912e-07 1.12012e-05
0.000806584 -2.73164e-05 3.42511e-08
-2.73164e-05 2.66694e-05 1.69839e-08
3.42511e-08 1.69839e-08 -3.97337e-05
0.000873285 5.88153e-06 -1.18827e-08
5.88153e-06 7.15502e-05 2.56805e-07
-1.18827e-08 2.56805e-07 -2.52352e-06
0.000922405 -4.49727e-06 -9.68564e-07
-4.49727e-06 9.67482e-05 2.58788e-07
-9.68564e-07 2.58788e-07 2.42658e-05
0.000887976 0.000100536 3.71356e-07
0.000100536 8.9348e-05 9.79744e-07
3.71356e-07 9.79744e-07 7.06083e-06
0.00158081 -6.64692e-06 1.7666e-05
-6.64692e-06 0.000121402 4.07276e-05
1.7666e-05 4.07276e-05 -0.000148798
0.00167737 1.90668e-05 -8.44293e-07
1.90668e-05 0.000136058 1.26699e-05
-8.44293e-07 1.26699e-05 -7.19906e-05
0.00179862 3.86609e-05 7.25911e-06
3.86609e-05 0.000160636 -2.43867e-05
7.25911e-06 -2.43867e-05 -5.00603e-05
0.00170621 1.52778e-05 -2.5237e-06
1.52778e-05 -0.00201484 -1.3737e-05
-2.5237e-06 -1.3737e-05 -0.000833458
0.00232064 -0.000377217 -2.48235e-05
-0.000377217 -5.53509e-05 5.2749e-05
-2.48235e-05 5.2749e-05 -0.000706872
0.000652145 -3.46324e-05 4.76922e-05
-3.46324e-05 -0.000554121 -1.33292e-05
4.76922e-05 -1.33292e-05 -0.00202978
0.00472862 0.000435071 3.7971e-05
0.000435071 0.00180578 -2.5024e-05
3.7971e-05 -2.5024e-05 0.00125564
0.00447451 -0.000541692 -2.45601e-05
-0.000541692 0.000804067 6.37288e-06
-2.45601e-05 6.37288e-06 0.00024635
0.00184179 -0.000149367 4.00161e-05
-0.000149367 0.000168428 -2.51568e-05
4.00161e-05 -2.51568e-05 -0.00157179
0.00340613 1.01418e-05 -1.97394e-05
1.01418e-05 0.000985344 2.09118e-06
-1.97394e-05 2.09118e-06 0.00068362
0.00450786 -0.00024935 -8.56088e-06
-0.00024935 0.000276587 -1.39394e-05
-8.56088e-06 -1.39394e-05 0.00120673
0.00191471 -0.000171852 -8.6291e-06
-0.000171852 -0.000288328 1.30704e-06
-8.6291e-06 1.30704e-06 -0.000322084
0.00173812 -0.000266594 3.33988e-05
-0.000266594 -0.000426567 -6.33507e-05
3.33988e-05 -6.33507e-05 -0.0017219
-0.00279573 -0.000255103 4.19136e-05
-0.000255103 -0.00274587 1.7217e-05
4.19136e-05 1.7217e-05 -0.00315633
0.00079436 -0.000306201 2.86998e-05
-0.000306201 -0.00152334 -9.73299e-06
2.86998e-05 -9.73299e-06 -0.000586672
0.000966717 -5.56764e-05 -4.4215e-07
-5.56764e-05 0.000112861 1.67957e-06
-4.4215e-07 1.67957e-06 4.31118e-05
0.00082425 -1.75732e-06 1.45817e-07
-1.75732e-06 4.00463e-05 -2.62464e-08
1.45817e-07 -2.62464e-08 -3.85582e-05
0.000828619 -2.16091e-06 -3.87476e-07
-2.16091e-06 5.47876e-05 -1.10577e-06
-3.87476e-07 -1.10577e-06 -3.07526e-05
0.000880716 2.15935e-05 9.25124e-08
2.15935e-05 7.59453e-05 -1.30117e-06
9.25124e-08 -1.30117e-06 -4.18993e-07
0.00189728 -0.000261737 -3.71504e-06
-0.000261737 0.000504124 9.83754e-06
-3.71504e-06 9.83754e-06 0.000488614
0.000208865 -1.76033e-05 5.86307e-06
-1.76033e-05 -1.31527e-05 -8.59494e-06
5.86307e-06 -8.59494e-06 -0.000124008
0.000795635 -3.02249e-05 1.81056e-08
-3.02249e-05 6.46698e-06 -1.63766e-06
1.81056e-08 -1.63766e-06 -6.59307e-05
0.00092297 4.93172e-05 -1.08273e-07
4.93172e-05 9.62692e-05 -1.37766e-06
-1.08273e-07 -1.37766e-06 1.9247e-05
0.00106617 9.92874e-06 3.14215e-06
9.92874e-06 0.000162595 -7.31849e-06
3.14215e-06 -7.31849e-06 9.26316e-05
0.000887433 -8.65626e-06 -7.48633e-08
-8.65626e-06 6.696e-05 4.97336e-08
-7.48633e-08 4.97336e-08 -4.6215e-07
0.000813041 -1.28545e-05 -6.55919e-07
-1.28545e-05 3.5396e-05 -4.84083e-07
-6.55919e-07 -4.84083e-07 -2.80071e-05
-0.000679576 -6.16719e-05 -1.00923e-05
-6.16719e-05 -0.000338521 -9.5646e-06
-1.00923e-05 -9.5646e-06 -0.000608231
0.000904321 -1.54114e-05 -6.09882e-06
-1.54114e-05 0.00030868 3.46429e-06
-6.09882e-06 3.46429e-06 0.000284992
0.00083526 -2.12996e-05 2.11697e-06
-2.12996e-05 5.62643e-05 -5.06379e-08
2.11697e-06 -5.06379e-08 -6.72774e-06
0.00113566 2.81495e-05 -8.7303e-06
2.81495e-05 0.00100209 -4.30455e-05
-8.7303e-06 -4.30455e-05 0.000279051
0.00133958 -3.13703e-05 -2.68005e-06
-3.13703e-05 0.000524173 1.53538e-05
-2.68005e-06 1.53538e-05 0.000463653
0.00138045 -1.71285e-06 6.98717e-06
-1.71285e-06 0.000264989 4.2276e-07
6.98717e-06 4.2276e-07 0.000207164
0.000776873 -1.18527e-06 6.23072e-08
-1.18527e-06 9.58622e-05 -1.13504e-07
6.23072e-08 -1.13504e-07 5.47692e-05
0.000529252 1.68149e-06 -1.13075e-07
1.68149e-06 -0.000183356 -6.13365e-07
-1.13075e-07 -6.13365e-07 -0.00022621
0.000367767 3.35223e-05 1.84954e-06
3.35223e-05 0.000109373 7.74118e-06
1.84954e-06 7.74118e-06 5.33702e-05
0.00215236 0.000211344 -6.89576e-05
0.000211344 0.000440419 1.44532e-05
-6.89576e-05 1.44532e-05 0.000499123
0.000860761 -7.78836e-07 -4.06907e-07
-7.78836e-07 7.3742e-05 6.19812e-07
-4.06907e-07 6.19812e-07 8.67786e-06
0.00318165 5.17412e-05 8.01511e-05
5.17412e-05 0.00103629 -0.000102673
8.01511e-05 -0.000102673 -0.000827298
0.00458698 0.000465043 -3.49898e-05
0.000465043 0.00165224 2.73861e-05
-3.49898e-05 2.73861e-05 0.0011406
0.00181491 2.7325e-05 -7.40489e-06
2.7325e-05 0.00015188 2.41076e-05
-7.40489e-06 2.41076e-05 -4.69189e-05
0.00294589 0.000408287 -3.71567e-05
0.000408287 -0.000281124 2.26211e-05
-3.71567e-05 2.26211e-05 0.000498385
-0.000511304 -1.88879e-05 2.44208e-05
-1.88879e-05 -7.36481e-05 -2.00937e-06
2.44208e-05 -2.00937e-06 -0.000279217
0.00114128 9.01016e-06 4.67986e-06
9.01016e-06 3.57283e-05 -8.33054e-07
4.67986e-06 -8.33054e-07 -4.73372e-05
0.00194578 4.92163e-05 1.55835e-05
4.92163e-05 7.73828e-05 -2.78128e-06
1.55835e-05 -2.78128e-06 -0.000236259
0.00195012 -4.78266e-05 -2.22815e-05
-4.78266e-05 -0.000153242 2.5374e-05
-2.22815e-05 2.5374e-05 9.37516e-05
-0.000272316 0.000615047 4.63488e-06
0.000615047 -0.000990779 1.2573e-06
4.63488e-06 1.2573e-06 0.0001997
0.00428895 0.000543948 7.90213e-07
0.000543948 0.000403052 9.28839e-06
7.90213e-07 9.28839e-06 0.000605181
0.00161647 -0.000190948 4.34545e-05
-0.000190948 0.000202423 -2.14726e-05
4.34545e-05 -2.14726e-05 -0.00202312
0.00148617 -9.08712e-05 5.1128e-05
-9.08712e-05 0.000634628 -9.77325e-06
5.1128e-05 -9.77325e-06 0.000603343
0.000974718 1.70117e-05 4.02336e-05
1.70117e-05 -0.000254742 -1.45491e-05
4.02336e-05 -1.45491e-05 -0.000483747
-0.00116537 0.000261667 -4.69075e-06
0.000261667 -0.000490477 -1.54482e-05
-4.69075e-06 -1.54482e-05 -0.00047831
0.000370708 0.000519644 2.32852e-05
0.000519644 -5.08429e-05 1.43238e-05
2.32852e-05 1.43238e-05 0.000223
0.00822918 0.000433391 2.54948e-05
0.000433391 0.00307631 -4.21559e-05
2.54948e-05 -4.21559e-05 0.00127521
0.0028248 -0.000321633 -5.65254e-05
-0.000321633 0.000203967 8.20566e-05
-5.65254e-05 8.20566e-05 -0.000148815
-0.000369115 -1.96398e-05 -1.40453e-06
-1.96398e-05 -0.000325829 7.79056e-06
-1.40453e-06 7.79056e-06 -0.00043684
0.000303395 -4.22585e-05 -4.20942e-06
-4.22585e-05 8.48775e-05 -3.84537e-07
-4.20942e-06 -3.84537e-07 -7.69237e-05
0.00121255 -0.000151946 1.5527e-05
-0.000151946 0.000381102 -4.962e-06
1.5527e-05 -4.962e-06 0.000244656
0.000629598 2.37382e-05 -4.3854e-06
2.37382e-05 4.32153e-05 -1.65234e-07
-4.3854e-06 -1.65234e-07 -3.42709e-05
0.0001946 -5.06582e-05 9.67682e-07
-5.06582e-05 -5.92754e-05 -1.69729e-06
9.67682e-07 -1.69729e-06 -0.000267103
0.00107269 -0.000151444 8.69816e-06
-0.000151444 0.000185495 4.61305e-06
8.69816e-06 4.61305e-06 -2.56532e-05
0.0018529 -0.00016787 -2.94508e-06
-0.00016787 0.00063662 -3.27551e-07
-2.94508e-06 -3.27551e-07 0.000484672
0.00130053 -0.000149836 2.52678e-07
-0.000149836 0.000348041 1.36426e-06
2.52678e-07 1.36426e-06 0.000117872
0.00122998 -0.000180475 -2.82425e-07
-0.000180475 0.000157789 -2.83676e-07
-2.82425e-07 -2.83676e-07 -4.91698e-05
0.00100581 -0.00012412 -2.12911e-06
-0.00012412 0.000170928 -1.7824e-06
-2.12911e-06 -1.7824e-06 -9.00376e-06
0.00165577 -0.000181842 9.13008e-07
-0.000181842 0.000432999 2.90971e-07
9.13008e-07 2.90971e-07 0.00023294
0.00126353 -0.000174932 5.52342e-07
-0.000174932 0.000116604 -9.08503e-07
5.52342e-07 -9.08503e-07 -7.50912e-05
0.00165247 -0.000184519 -2.29778e-06
-0.000184519 0.000268212 -1.94635e-06
-2.29778e-06 -1.94635e-06 0.000105061
0.00186065 -0.00018539 -5.16469e-06
-0.00018539 0.000500124 4.51283e-06
-5.16469e-06 4.51283e-06 0.000337302
0.00148221 -0.000174548 -7.41428e-07
-0.000174548 0.000274164 4.875e-07
-7.41428e-07 4.875e-07 9.39952e-05
0.000565037 -9.87922e-05 7.51684e-07
-9.87922e-05 -0.000114965 5.49296e-08
7.51684e-07 5.49296e-08 -0.000238836
0.000876743 -0.000117809 1.47378e-06
-0.000117809 5.24814e-05 -4.47913e-07
1.47378e-06 -4.47913e-07 -8.50138e-05
0.0010729 -0.000133679 2.59272e-07
-0.000133679 0.000139126 -2.11197e-06
2.59272e-07 -2.11197e-06 -2.07587e-05
0.00103488 -0.00011306 2.78705e-07
-0.00011306 0.000165729 6.58183e-07
2.78705e-07 6.58183e-07 5.09059e-05
0.00114724 -0.00012406 -2.60893e-07
-0.00012406 0.000230847 -6.75532e-07
-2.60893e-07 -6.75532e-07 0.000109097
0.00077284 -0.000103454 2.51329e-06
-0.000103454 3.75492e-05 -1.44462e-06
2.51329e-06 -1.44462e-06 -8.47526e-05
0.000796466 1.53677e-05 7.8097e-07
1.53677e-05 4.10808e-05 1.32237e-06
7.8097e-07 1.32237e-06 -4.27038e-05
0.000788549 -4.04306e-05 4.97232e-08
-4.04306e-05 4.93655e-05 6.0658e-07
4.97232e-08 6.0658e-07 -4.91923e-05
0.00111083 -9.73651e-05 1.15765e-06
-9.73651e-05 0.000231941 -1.40634e-06
1.15765e-06 -1.40634e-06 0.000117679
0.00074344 5.66753e-05 -3.81168e-07
5.66753e-05 7.00933e-06 2.03262e-06
-3.81168e-07 2.03262e-06 -4.03729e-05
0.000816242 2.20209e-05 -2.27399e-07
2.20209e-05 4.55303e-05 -1.21124e-07
-2.27399e-07 -1.21124e-07 -2.45072e-05
0.000922145 -3.48414e-05 2.03036e-07
-3.48414e-05 0.000111378 -8.22535e-07
2.03036e-07 -8.22535e-07 2.44828e-05
0.000692906 4.19231e-05 -2.74412e-06
4.19231e-05 -2.64628e-05 4.53409e-06
-2.74412e-06 4.53409e-06 -3.77129e-05
0.000757224 4.97776e-05 2.11513e-08
4.97776e-05 7.42046e-06 -1.18136e-07
2.11513e-08 -1.18136e-07 -3.24072e-05
0.000818747 1.40291e-05 2.23258e-07
1.40291e-05 3.86392e-05 -1.24582e-06
2.23258e-07 -1.24582e-06 -1.93186e-05
0.00077548 4.19337e-05 6.46161e-07
4.19337e-05 9.05143e-06 -1.70075e-06
6.46161e-07 -1.70075e-06 -2.59452e-05
0.000712459 3.82469e-05 3.22974e-08
3.82469e-05 -2.43068e-05 -2.61595e-08
3.22974e-08 -2.61595e-08 -3.29187e-05
0.00206465 5.28658e-05 -2.29035e-05
5.28658e-05 0.000718877 3.2778e-06
-2.29035e-05 3.2778e-06 0.000734494
0.000736744 3.38483e-05 1.36793e-06
3.38483e-05 -1.96969e-05 -3.19084e-06
1.36793e-06 -3.19084e-06 -2.59378e-05
0.00205839 4.62126e-05 1.26851e-06
4.62126e-05 0.000708322 8.05627e-08
1.26851e-06 8.05627e-08 0.000725655
0.00205798 3.93803e-05 1.82472e-05
3.93803e-05 0.000701737 -3.54952e-06
1.82472e-05 -3.54952e-06 0.000720532
0.000874681 4.42418e-06 -1.57045e-07
4.42418e-06 6.69683e-05 -7.19321e-07
-1.57045e-07 -7.19321e-07 -2.20438e-06
0.000827737 3.13261e-05 -1.11273e-06
3.13261e-05 3.76508e-05 -1.02708e-06
-1.11273e-06 -1.02708e-06 -2.23171e-05
0.000766159 -2.82978e-05 -7.36767e-07
-2.82978e-05 -5.55559e-06 -1.62154e-06
-7.36767e-07 -1.62154e-06 -4.15907e-05
0.000833188 1.97873e-05 -9.65466e-08
1.97873e-05 3.51202e-05 -2.81114e-08
-9.65466e-08 -2.81114e-08 -2.04082e-05
0.000725728 -2.84543e-05 -7.01094e-07
-2.84543e-05 -3.08959e-05 -3.35429e-06
-7.01094e-07 -3.35429e-06 -3.79143e-05
0.000778705 -2.23106e-05 -1.3831e-07
-2.23106e-05 -8.70066e-07 7.90911e-09
-1.3831e-07 7.90911e-09 -3.52298e-05
0.00079915 9.75499e-06 9.64072e-08
9.75499e-06 1.47126e-05 -4.9837e-08
9.64072e-08 -4.9837e-08 -3.75295e-05
0.00214692 -3.27325e-05 -1.54773e-05
-3.27325e-05 0.000744538 -3.9577e-06
-1.54773e-05 -3.9577e-06 0.000763752
0.000729338 -2.30595e-05 -1.38256e-07
-2.30595e-05 -3.45551e-05 -5.86482e-09
-1.38256e-07 -5.86482e-09 -3.94187e-05
0.00078215 -1.88682e-05 1.01509e-07
-1.88682e-05 -8.42751e-07 8.5561e-07
1.01509e-07 8.5561e-07 -3.34324e-05
0.00209462 -2.43133e-05 -2.14988e-06
-2.43133e-05 0.000710826 5.85887e-08
-2.14988e-06 5.85887e-08 0.000731653
0.000729219 -1.72435e-05 3.46928e-07
-1.72435e-05 -3.94701e-05 3.23097e-06
3.46928e-07 3.23097e-06 -4.22185e-05
0.00205092 -1.56492e-05 7.47407e-06
-1.56492e-05 0.000683108 4.13959e-06
7.47407e-06 4.13959e-06 0.000705205
0.00110769 -1.14969e-05 7.80945e-06
-1.14969e-05 9.7216e-05 1.13283e-05
7.80945e-06 1.13283e-05 -3.29124e-06
0.00094862 1.54496e-06 3.39641e-07
1.54496e-06 0.000104865 2.27025e-06
3.39641e-07 2.27025e-06 2.1837e-05
0.00126832 8.73387e-06 7.9679e-07
8.73387e-06 0.000124016 -4.99228e-06
7.9679e-07 -4.99228e-06 3.70459e-05
0.000820278 -6.91216e-06 -2.79289e-07
-6.91216e-06 3.78865e-05 -4.91446e-08
-2.79289e-07 -4.91446e-08 -3.093e-05
0.000883349 -2.70475e-05 -1.15483e-07
-2.70475e-05 7.36318e-05 2.44257e-07
-1.15483e-07 2.44257e-07 1.67788e-06
0.000792977 -2.86408e-05 3.62119e-07
-2.86408e-05 2.72148e-05 -1.94637e-06
3.62119e-07 -1.94637e-06 -4.95739e-05
0.000760747 -3.6407e-05 -1.51135e-07
-3.6407e-05 9.04582e-06 -7.71237e-07
-1.51135e-07 -7.71237e-07 -6.2697e-05
0.000985985 3.02714e-05 -7.41956e-07
3.02714e-05 0.000140442 -3.65025e-07
-7.41956e-07 -3.65025e-07 5.91939e-05
0.000787182 -3.91732e-05 9.55747e-08
-3.91732e-05 1.34105e-05 7.02047e-08
9.55747e-08 7.02047e-08 -5.12964e-05
0.000791132 -1.69566e-05 4.69202e-07
-1.69566e-05 2.42702e-05 -6.99124e-07
4.69202e-07 -6.99124e-07 -4.83148e-05
0.000877114 6.61063e-06 -1.86806e-07
6.61063e-06 7.34101e-05 -5.76765e-08
-1.86806e-07 -5.76765e-08 1.03043e-06
0.00089748 2.48754e-05 -8.50106e-08
2.48754e-05 8.47845e-05 3.21498e-07
-8.50106e-08 3.21498e-07 6.93076e-06
0.000969823 1.28535e-05 -1.32783e-07
1.28535e-05 0.000130441 7.03826e-07
-1.32783e-07 7.03826e-07 5.35614e-05
0.00182856 -4.8574e-05 4.53615e-05
-4.8574e-05 0.000196463 4.95755e-05
4.53615e-05 4.95755e-05 -0.000145471
0.00167545 -1.9334e-06 2.88197e-06
-1.9334e-06 0.000120947 1.11126e-05
2.88197e-06 1.11126e-05 -0.000152987
0.00167916 1.80492e-05 -2.16305e-07
1.80492e-05 0.000238812 -8.77306e-06
-2.16305e-07 -8.77306e-06 8.08393e-05
0.00438982 -0.00022958 -2.39519e-05
-0.00022958 0.000359017 -3.49137e-05
-2.39519e-05 -3.49137e-05 0.00131581
-0.00507312 0.000163037 -1.5063e-05
0.000163037 -0.00296016 -1.36493e-05
-1.5063e-05 -1.36493e-05 -0.00335194
0.00369949 -0.000509361 -5.97826e-05
-0.000509361 0.000520342 6.50357e-05
-5.97826e-05 6.50357e-05 -8.38853e-05
0.00630405 4.7199e-05 -8.8646e-06
4.7199e-05 0.00182251 -4.54307e-05
-8.8646e-06 -4.54307e-05 0.000395419
0.0034569 -0.000301994 -4.33488e-05
-0.000301994 0.000397804 4.02078e-05
-4.33488e-05 4.02078e-05 6.2946e-05
0.00877575 -0.000205012 5.04194e-05
-0.000205012 0.0033097 -7.80315e-06
5.04194e-05 -7.80315e-06 0.00158385
0.000310814 -0.000217943 2.0229e-05
-0.000217943 -0.000942096 -7.92762e-06
2.0229e-05 -7.92762e-06 -0.00111812
0.000806348 -0.000349126 -1.63261e-05
-0.000349126 -0.00160575 -4.23363e-05
-1.63261e-05 -4.23363e-05 -0.000616914
0.00366784 -8.53335e-05 -9.66815e-05
-8.53335e-05 0.000625267 -2.89667e-05
-9.66815e-05 -2.89667e-05 0.00032733
0.00818489 -0.000375192 -2.25766e-05
-0.000375192 0.00247441 5.11761e-05
-2.25766e-05 5.11761e-05 0.00124984
0.00784794 -0.000771563 2.26001e-05
-0.000771563 0.00226012 -3.56263e-07
2.26001e-05 -3.56263e-07 0.00242448
0.00267905 -0.000549077 1.38729e-05
-0.000549077 0.000262888 6.15929e-07
1.38729e-05 6.15929e-07 0.00137699
0.000749044 1.1149e-05 1.49227e-06
1.1149e-05 2.94637e-05 1.22611e-06
1.49227e-06 1.22611e-06 -3.16113e-05
0.000946875 -4.38669e-05 -1.08669e-07
-4.38669e-05 0.000105044 4.57977e-07
-1.08669e-07 4.57977e-07 3.45269e-05
0.000786858 -2.88701e-06 2.34605e-07
-2.88701e-06 1.77877e-05 -1.02397e-06
2.34605e-07 -1.02397e-06 -5.95702e-05
0.000547094 -2.92762e-05 -3.4432e-06
-2.92762e-05 0.000233848 9.742e-06
-3.4432e-06 9.742e-06 -2.02428e-05
0.000595242 -5.0126e-05 -1.3054e-06
-5.0126e-05 0.000162413 -6.4198e-06
-1.3054e-06 -6.4198e-06 0.000144896
0.00081971 -1.96631e-05 -8.73045e-07
-1.96631e-05 3.04897e-05 -4.96387e-07
-8.73045e-07 -4.96387e-07 -3.83527e-05
0.000865333 -5.6394e-05 -8.48899e-07
-5.6394e-05 6.13279e-05 -4.0104e-06
-8.48899e-07 -4.0104e-06 -7.42242e-07
0.000821219 -1.24812e-05 -5.20942e-07
-1.24812e-05 4.99808e-05 -7.98458e-07
-5.20942e-07 -7.98458e-07 -1.27064e-05
0.000584212 -3.56365e-05 1.5971e-06
-3.56365e-05 0.000122433 4.92192e-06
1.5971e-06 4.92192e-06 6.22699e-05
0.000123257 -7.8523e-06 2.19106e-05
-7.8523e-06 0.000431222 -3.09479e-05
2.19106e-05 -3.09479e-05 -0.000261675
-0.000373747 -2.58537e-05 -4.21884e-06
-2.58537e-05 -0.000401001 6.85523e-06
-4.21884e-06 6.85523e-06 -0.000481367
0.000739012 0.000104895 5.38708e-06
0.000104895 0.000327831 -2.59244e-05
5.38708e-06 -2.59244e-05 -6.3454e-05
0.00130891 7.92237e-07 3.7663e-05
7.92237e-07 -7.31712e-05 5.09045e-06
3.7663e-05 5.09045e-06 -0.000286997
0.00095404 -8.37944e-07 3.4639e-06
-8.37944e-07 4.23801e-05 7.54523e-07
3.4639e-06 7.54523e-07 -1.0427e-05
0.000204213 -8.453e-07 7.67155e-08
-8.453e-07 -0.000233566 -6.07439e-07
7.67155e-08 -6.07439e-07 -0.000274224
-0.00121839 -3.31424e-05 -3.72658e-05
-3.31424e-05 -0.000357622 1.07487e-05
-3.72658e-05 1.07487e-05 -0.000608866
0.00145499 7.80155e-05 2.12621e-05
7.80155e-05 -0.000562639 -4.44074e-05
2.12621e-05 -4.44074e-05 -0.000621363
0.00129647 5.89827e-06 1.85779e-07
5.89827e-06 0.000138877 3.95119e-06
1.85779e-07 3.95119e-06 5.71646e-05
0.0105646 -1.04441e-05 7.52009e-05
-1.04441e-05 0.00411457 5.68091e-07
7.52009e-05 5.68091e-07 0.00217262
0.00514908 0.000661716 -5.37029e-05
0.000661716 0.00119137 2.4167e-05
-5.37029e-05 2.4167e-05 0.00127807
0.00202032 4.77059e-05 -3.25192e-05
4.77059e-05 0.00013889 3.28285e-05
-3.25192e-05 3.28285e-05 -0.000206859
-0.00276824 0.000650974 9.79505e-06
0.000650974 -0.00259213 -3.59871e-05
9.79505e-06 -3.59871e-05 -0.00113131
0.000315807 -3.42431e-05 -1.59528e-05
-3.42431e-05 9.05051e-05 -1.25179e-06
-1.59528e-05 -1.25179e-06 1.47536e-05
0.00123601 1.48811e-05 -4.11671e-06
1.48811e-05 -9.7766e-05 1.24944e-06
-4.11671e-06 1.24944e-06 -0.000325126
-0.00133859 0.0003061 -4.86515e-05
0.0003061 -0.000538973 1.96655e-05
-4.86515e-05 1.96655e-05 -0.000455295
0.00210809 -0.000289984 -1.66223e-05
-0.000289984 -0.000140799 2.82956e-05
-1.66223e-05 2.82956e-05 -0.000342632
0.00444004 0.000755722 1.08989e-05
0.000755722 0.00135905 1.32535e-05
1.08989e-05 1.32535e-05 0.00164416
0.00617743 2.22019e-05 4.48298e-05
2.22019e-05 0.00181114 -2.43377e-05
4.48298e-05 -2.43377e-05 4.43945e-05
0.00220598 -0.00020674 2.55584e-05
-0.00020674 0.000501944 1.50514e-05
2.55584e-05 1.50514e-05 0.000630019
-0.00119598 9.26946e-05 3.75667e-05
9.26946e-05 -9.64283e-05 -5.31088e-06
3.75667e-05 -5.31088e-06 -0.000436937
0.00158014 0.000497527 -9.38348e-06
0.000497527 0.000838215 4.85442e-06
-9.38348e-06 4.85442e-06 0.000911955
0.00615711 0.000453891 -4.96544e-05
0.000453891 0.00196461 4.49633e-05
-4.96544e-05 4.49633e-05 0.00033878
0.00244497 -0.000484476 -4.80655e-07
-0.000484476 0.00013084 1.96251e-05
-4.80655e-07 1.96251e-05 -0.000512337
0.000121614 9.25828e-06 9.19744e-06
9.25828e-06 1.63931e-05 7.64188e-06
9.19744e-06 7.64188e-06 -0.000151738
0.000799827 -0.00013442 9.77348e-07
-0.00013442 0.000188965 -1.23552e-06
9.77348e-07 -1.23552e-06 3.60019e-05
0.00241283 -0.000209706 1.22028e-05
-0.000209706 0.000649367 4.1474e-06
1.22028e-05 4.1474e-06 0.00061571
-0.000406878 1.40786e-06 -2.94232e-06
1.40786e-06 -0.000348982 1.60024e-06
-2.94232e-06 1.60024e-06 -0.000559696
0.000536343 -0.000116785 3.60238e-06
-0.000116785 -6.50513e-05 -2.90289e-07
3.60238e-06 -2.90289e-07 -0.000277645
0.000910528 -0.00018995 -1.06406e-06
-0.00018995 -0.000167664 1.5033e-09
-1.06406e-06 1.5033e-09 -0.000321615
0.00149256 -0.000157915 -2.95517e-06
-0.000157915 0.000430842 -1.24814e-06
-2.95517e-06 -1.24814e-06 0.000201248
0.00120688 -0.000177383 -1.47805e-06
-0.000177383 0.000141549 -1.64224e-06
-1.47805e-06 -1.64224e-06 -6.04478e-05
0.00162004 -0.000210278 1.50296e-06
-0.000210278 0.000174901 -1.58938e-06
1.50296e-06 -1.58938e-06 3.18888e-05
0.0014924 -0.00017175 -3.27946e-07
-0.00017175 0.000340847 -2.3892e-06
-3.27946e-07 -2.3892e-06 0.000142389
0.00138137 -0.000176779 5.66907e-07
-0.000176779 0.000172177 -1.41367e-06
5.66907e-07 -1.41367e-06 -1.34079e-05
0.00134922 -0.000172505 -1.51441e-06
-0.000172505 7.56734e-06 -3.85521e-06
-1.51441e-06 -3.85521e-06 -0.000133832
0.00171189 -0.000170344 -1.84007e-06
-0.000170344 0.000210282 -2.37007e-06
-1.84007e-06 -2.37007e-06 7.62251e-05
0.00130174 -0.000159142 -2.40243e-06
-0.000159142 0.00013865 -1.80355e-07
-2.40243e-06 -1.80355e-07 -2.25908e-05
0.00140202 -0.000170381 4.91047e-07
-0.000170381 0.000138019 -9.99615e-07
4.91047e-07 -9.99615e-07 -2.31562e-05
0.00140243 -0.000152404 -2.48556e-06
-0.000152404 0.000278491 3.31316e-06
-2.48556e-06 3.31316e-06 0.000136172
0.00136858 -0.000159541 -3.01261e-07
-0.000159541 0.00024152 8.39706e-07
-3.01261e-07 8.39706e-07 7.66609e-05
0.00126672 -0.000164364 8.90718e-07
-0.000164364 0.000155634 -1.73619e-06
8.90718e-07 -1.73619e-06 -2.81408e-05
0.000954384 -0.0001154 -1.01908e-07
-0.0001154 9.49015e-05 -7.06439e-07
-1.01908e-07 -7.06439e-07 -1.99859e-05
0.000699688 -0.000105279 -2.26547e-07
-0.000105279 -4.10785e-05 -1.30569e-06
-2.26547e-07 -1.30569e-06 -0.000163368
0.00102647 -0.000125401 4.32215e-06
-0.000125401 0.000132356 -3.79023e-06
4.32215e-06 -3.79023e-06 -2.70078e-06
0.000874839 -5.80118e-05 3.25165e-08
-5.80118e-05 7.49346e-05 1.37383e-06
3.25165e-08 1.37383e-06 -2.11877e-05
0.000991167 -0.000101062 4.52191e-07
-0.000101062 0.000143178 5.30592e-07
4.52191e-07 5.30592e-07 3.03941e-05
0.00107163 -0.000118923 1.77501e-07
-0.000118923 0.000192213 2.59482e-07
1.77501e-07 2.59482e-07 7.01776e-05
0.000753279 7.42149e-05 4.38462e-07
7.42149e-05 2.06425e-05 2.71162e-06
4.38462e-07 2.71162e-06 -4.01824e-05
0.000843675 -1.38654e-06 3.97376e-09
-1.38654e-06 6.73226e-05 -8.11882e-08
3.97376e-09 -8.11882e-08 -1.82684e-05
0.000907126 -5.17656e-05 -6.64039e-07
-5.17656e-05 0.000113479 -2.27677e-07
-6.64039e-07 -2.27677e-07 1.5229e-05
0.00131474 5.57391e-05 -1.33191e-05
5.57391e-05 0.000323058 2.99002e-06
-1.33191e-05 2.99002e-06 0.000310874
0.000736977 5.04973e-05 -3.39525e-08
5.04973e-05 2.59107e-06 -2.29089e-07
-3.39525e-08 -2.29089e-07 -4.42371e-05
0.00080865 4.88006e-07 3.5131e-07
4.88006e-07 4.27462e-05 -1.37538e-06
3.5131e-07 -1.37538e-06 -2.8458e-05
0.000842527 3.49185e-05 -2.17232e-05
3.49185e-05 6.06285e-05 3.32211e-06
-2.17232e-05 3.32211e-06 6.83127e-05
0.00103607 4.80037e-05 -5.88582e-06
4.80037e-05 0.000161089 3.21795e-07
-5.88582e-06 3.21795e-07 0.000150966
0.000757735 5.44326e-05 -1.18077e-08
5.44326e-05 8.72134e-06 -1.99887e-06
-1.18077e-08 -1.99887e-06 -3.18413e-05
0.000736851 3.93033e-05 1.48494e-06
3.93033e-05 -1.13467e-05 -3.24643e-06
1.48494e-06 -3.24643e-06 -2.00808e-05
0.00208528 5.34259e-05 1.01937e-06
5.34259e-05 0.00073126 8.25797e-08
1.01937e-06 8.25797e-08 0.000746557
0.00206933 4.6634e-05 2.13672e-05
4.6634e-05 0.000715374 -3.38871e-06
2.13672e-05 -3.38871e-06 0.00073248
0.000786349 -1.61289e-05 4.66266e-08
-1.61289e-05 1.88661e-05 -1.35567e-06
4.66266e-08 -1.35567e-06 -5.28059e-05
0.000825488 9.74783e-06 -6.01532e-07
9.74783e-06 3.60685e-05 -1.49299e-06
-6.01532e-07 -1.49299e-06 -2.52989e-05
0.000857464 -1.69384e-05 8.81521e-09
-1.69384e-05 5.64495e-05 -3.07278e-08
8.81521e-09 -3.07278e-08 -1.21071e-05
0.000764033 -4.18274e-05 -5.82558e-07
-4.18274e-05 -8.12776e-07 -1.94602e-06
-5.82558e-07 -1.94602e-06 -3.94204e-05
0.000843655 -1.51465e-06 6.27296e-07
-1.51465e-06 4.3652e-05 -8.6918e-08
6.27296e-07 -8.6918e-08 -1.43181e-05
0.000714332 -3.30801e-05 -9.45289e-07
-3.30801e-05 -3.08341e-05 -3.49501e-06
-9.45289e-07 -3.49501e-06 -3.98756e-05
0.000776851 -2.49982e-05 -1.70549e-07
-2.49982e-05 7.95388e-07 1.57564e-08
-1.70549e-07 1.57564e-08 -3.5275e-05
0.000854363 3.7627e-05 1.12856e-06
3.7627e-05 5.23751e-05 6.33316e-07
1.12856e-06 6.33316e-07 -6.98775e-06
0.00218562 -4.0196e-05 -1.94635e-05
-4.0196e-05 0.000771165 -3.82007e-06
-1.94635e-05 -3.82007e-06 0.000788853
0.000719683 -2.80406e-05 -2.68311e-07
-2.80406e-05 -3.40584e-05 1.00811e-08
-2.68311e-07 1.00811e-08 -4.10332e-05
0.000795846 -2.24874e-05 3.20952e-07
-2.24874e-05 8.89937e-06 1.49113e-06
3.20952e-07 1.49113e-06 -2.56064e-05
0.00213603 -3.23222e-05 -1.94014e-06
-3.23222e-05 0.000738021 7.4622e-08
-1.94014e-06 7.4622e-08 0.000757424
0.000720166 -2.26547e-05 4.00107e-07
-2.26547e-05 -3.95445e-05 3.27218e-06
4.00107e-07 3.27218e-06 -4.43216e-05
0.002083 -2.37639e-05 1.09276e-05
-2.37639e-05 0.000703954 4.06529e-06
1.09276e-05 4.06529e-06 0.00072498
0.00182556 -3.04197e-05 3.72488e-05
-3.04197e-05 0.000293772 2.04777e-05
3.72488e-05 2.04777e-05 0.000107375
0.00108553 -8.79915e-06 1.32321e-06
-8.79915e-06 6.02963e-05 3.40754e-06
1.32321e-06 3.40754e-06 -3.53074e-05
0.000829356 7.64211e-08 7.28127e-07
7.64211e-08 6.43354e-05 -1.69681e-06
7.28127e-07 -1.69681e-06 -1.15445e-05
0.000927728 3.60326e-05 -7.83546e-07
3.60326e-05 0.0001119 -2.72118e-07
-7.83546e-07 -2.72118e-07 2.73084e-05
0.000905798 -1.19569e-05 2.49731e-07
-1.19569e-05 8.42437e-05 3.5008e-07
2.49731e-07 3.5008e-07 1.57573e-05
0.000868988 -3.49723e-05 2.02721e-07
-3.49723e-05 6.55469e-05 6.06968e-07
2.02721e-07 6.06968e-07 -7.22903e-06
0.000882704 -3.79762e-05 1.0591e-07
-3.79762e-05 7.40894e-05 -1.71815e-07
1.0591e-07 -1.71815e-07 2.77249e-06
0.000886216 -5.9911e-06 2.05871e-07
-5.9911e-06 7.7389e-05 -4.9406e-07
2.05871e-07 -4.9406e-07 2.38042e-08
0.000905948 1.46221e-05 -1.55171e-08
1.46221e-05 9.50879e-05 6.09422e-07
-1.55171e-08 6.09422e-07 1.4867e-05
0.000921601 1.77141e-05 -2.99185e-07
1.77141e-05 0.000104331 -1.86559e-06
-2.99185e-07 -1.86559e-06 1.93807e-05
0.000712273 -1.90129e-05 1.26664e-07
-1.90129e-05 -8.8771e-06 -2.69507e-07
1.26664e-07 -2.69507e-07 -8.62354e-05
0.000843311 3.63054e-05 4.90631e-07
3.63054e-05 5.96422e-05 -2.4635e-07
4.90631e-07 -2.4635e-07 -1.49054e-05
0.000885902 -5.20567e-05 6.06745e-07
-5.20567e-05 7.03726e-05 -6.24413e-07
6.06745e-07 -6.24413e-07 -3.71837e-06
0.000913677 3.92927e-07 -9.03196e-08
3.92927e-07 9.96203e-05 1.51534e-07
-9.03196e-08 1.51534e-07 2.37036e-05
0.00144724 4.39246e-06 2.94828e-06
4.39246e-06 0.000398034 9.79224e-07
2.94828e-06 9.79224e-07 0.000320795
0.00131055 -0.000318859 4.49259e-05
-0.000318859 0.000591436 3.80385e-05
4.49259e-05 3.80385e-05 0.000742723
0.00196459 -4.3407e-05 2.67217e-06
-4.3407e-05 0.000267901 9.51309e-06
2.67217e-06 9.51309e-06 -8.39783e-05
0.00172231 2.16253e-06 -9.86183e-06
2.16253e-06 8.739e-05 -1.84336e-05
-9.86183e-06 -1.84336e-05 -0.000191657
0.0036612 -0.000421449 -4.96358e-05
-0.000421449 -6.0342e-05 -4.05892e-05
-4.96358e-05 -4.05892e-05 0.00104979
0.00417635 -0.000244782 -1.38414e-05
-0.000244782 0.000485568 -3.16352e-05
-1.38414e-05 -3.16352e-05 0.000259202
0.00182443 -0.000214228 -0.000100513
-0.000214228 -0.000384898 6.54074e-05
-0.000100513 6.54074e-05 -0.00164128
0.00275447 -0.00025594 -3.9911e-05
-0.00025594 0.000291038 9.04657e-05
-3.9911e-05 9.04657e-05 -0.00014222
0.00358377 -0.000219817 -4.20647e-06
-0.000219817 0.00067107 2.67876e-05
-4.20647e-06 2.67876e-05 0.000494468
-0.000105311 -0.00056172 -7.02316e-06
-0.00056172 -0.00110211 4.18899e-06
-7.02316e-06 4.18899e-06 0.000124438
0.0048244 -4.68513e-05 6.88375e-06
-4.68513e-05 0.00145461 3.29434e-05
6.88375e-06 3.29434e-05 -0.000309772
0.000607571 -0.000391406 -3.09548e-06
-0.000391406 -0.00116979 6.40206e-06
-3.09548e-06 6.40206e-06 -0.0008156
0.00282895 0.000131855 -6.98393e-05
0.000131855 0.000286562 -3.33224e-05
-6.98393e-05 -3.33224e-05 0.000167988
0.0095557 -0.000502398 -2.25791e-05
-0.000502398 0.00360768 3.9596e-05
-2.25791e-05 3.9596e-05 0.00213055
6.74583e-05 -0.000475055 -1.51335e-05
-0.000475055 -0.000187033 -2.57399e-05
-1.51335e-05 -2.57399e-05 0.000115883
0.000612332 0.000120075 -7.06207e-07
0.000120075 -3.69912e-05 -1.69229e-06
-7.06207e-07 -1.69229e-06 -9.59805e-05
0.00100163 1.53367e-05 3.04853e-06
1.53367e-05 0.000158063 -4.94707e-09
3.04853e-06 -4.94707e-09 9.83848e-05
0.000929124 -2.82502e-05 -5.00113e-07
-2.82502e-05 9.91804e-05 -3.98529e-07
-5.00113e-07 -3.98529e-07 2.75453e-05
-0.0011814 -1.13839e-05 -1.78503e-05
-1.13839e-05 -0.000337117 -1.57033e-05
-1.78503e-05 -1.57033e-05 -0.000982633
-0.000332052 4.89423e-06 2.44121e-06
4.89423e-06 -0.000368485 -6.20951e-06
2.44121e-06 -6.20951e-06 -0.000430865
0.000710233 1.08377e-05 1.34811e-07
1.08377e-05 -6.76158e-06 -4.05146e-07
1.34811e-07 -4.05146e-07 -6.90589e-05
0.000736603 5.15702e-05 2.79219e-06
5.15702e-05 0.000137546 1.29243e-06
2.79219e-06 1.29243e-06 5.2859e-05
0.000578984 0.00012051 6.16202e-06
0.00012051 0.000143372 -1.89647e-05
6.16202e-06 -1.89647e-05 -0.000150912
-0.000435507 0.000120138 1.15024e-05
0.000120138 -0.000541643 6.55024e-06
1.15024e-05 6.55024e-06 -0.000676104
0.000304044 -1.83065e-05 7.87512e-05
-1.83065e-05 0.00063848 -9.28904e-07
7.87512e-05 -9.28904e-07 0.000318227
0.00134356 -6.61409e-06 -4.27626e-06
-6.61409e-06 1.49599e-05 3.81773e-06
-4.27626e-06 3.81773e-06 -0.000157092
0.000569989 6.3509e-07 3.74173e-07
6.3509e-07 -0.000153362 -3.99951e-07
3.74173e-07 -3.99951e-07 -0.000202025
-0.0002065 -1.81767e-05 9.5792e-06
-1.81767e-05 -0.000159556 3.84269e-06
9.5792e-06 3.84269e-06 -0.000250502
0.00142638 -0.000264258 1.21912e-05
-0.000264258 -0.000543862 -3.02601e-05
1.21912e-05 -3.02601e-05 -0.000645731
0.00141457 1.19321e-05 -4.90529e-05
1.19321e-05 1.86705e-05 1.05742e-05
-4.90529e-05 1.05742e-05 -0.000209322
0.0013685 -5.64377e-07 1.32609e-05
-5.64377e-07 -0.000377066 -1.23391e-05
1.32609e-05 -1.23391e-05 -0.0019255
-0.0022946 0.000441415 -2.74585e-05
0.000441415 -0.00193773 -3.91993e-06
-2.74585e-05 -3.91993e-06 -0.0015512
0.00149612 0.000373319 -5.9885e-05
0.000373319 0.000758993 3.67639e-05
-5.9885e-05 3.67639e-05 0.00111767
0.00176365 -0.000169569 -4.52269e-06
-0.000169569 0.000219629 3.78971e-06
-4.52269e-06 3.78971e-06 0.000432711
0.00123387 0.00015845 -4.04033e-07
0.00015845 0.00106395 4.12687e-06
-4.04033e-07 4.12687e-06 0.000982167
-0.00367321 0.000228357 1.40011e-05
0.000228357 -0.00127902 1.94562e-07
1.40011e-05 1.94562e-07 -0.00155464
0.00371036 -0.000504621 -6.08676e-06
-0.000504621 0.000850707 9.10427e-06
-6.08676e-06 9.10427e-06 -8.47791e-05
0.00705826 0.00034543 -7.99416e-06
0.00034543 0.0023741 1.18603e-07
-7.99416e-06 1.18603e-07 0.000910046
1.0448e-05 -0.0001545 -2.33302e-06
-0.0001545 -0.000575256 1.24666e-05
-2.33302e-06 1.24666e-05 -0.000507431
-0.00604086 0.000124716 -2.12526e-05
0.000124716 -0.00291614 -5.07583e-06
-2.12526e-05 -5.07583e-06 -0.00294411
0.00636141 0.000309405 -8.88917e-06
0.000309405 0.00226117 4.03095e-06
-8.88917e-06 4.03095e-06 0.000961178
0.00444668 -0.000334791 -1.00705e-05
-0.000334791 0.000537999 2.55003e-05
-1.00705e-05 2.55003e-05 -0.000267938
0.000259347 -0.000104872 -1.25477e-05
-0.000104872 -5.05074e-05 2.93596e-06
-1.25477e-05 2.93596e-06 -0.000233094
0.00122754 -0.000152407 -7.55712e-07
-0.000152407 6.06373e-05 1.4346e-07
-7.55712e-07 1.4346e-07 6.03208e-05
0.00213626 -0.000197401 7.08553e-06
-0.000197401 0.000235148 -2.0012e-07
7.08553e-06 -2.0012e-07 0.000277596
0.000115227 -8.81208e-05 -2.66503e-06
-8.81208e-05 -0.000254674 -4.08454e-06
-2.66503e-06 -4.08454e-06 -0.000470438
0.00126606 -0.00020789 -3.74272e-06
-0.00020789 9.22836e-06 -1.86954e-06
-3.74272e-06 -1.86954e-06 -0.000143794
0.00190395 -0.000241929 -2.01781e-06
-0.000241929 0.000149903 8.46301e-07
-2.01781e-06 8.46301e-07 5.51951e-05
0.00114959 -0.000172918 -9.41364e-07
-0.000172918 0.000108249 -3.4259e-06
-9.41364e-07 -3.4259e-06 -8.95327e-05
0.00148282 -0.000200876 2.08673e-06
-0.000200876 0.000109726 -1.93047e-07
2.08673e-06 -1.93047e-07 -3.45237e-05
0.00176896 -0.000187761 -1.16912e-06
-0.000187761 0.000116144 -3.28274e-06
-1.16912e-06 -3.28274e-06 1.16688e-05
0.00149209 -0.000178687 -1.07582e-06
-0.000178687 0.000223442 -9.34877e-07
-1.07582e-06 -9.34877e-07 4.42133e-05
0.00150561 -0.000176652 -8.59781e-07
-0.000176652 8.75237e-05 -3.68197e-07
-8.59781e-07 -3.68197e-07 -5.34536e-05
0.00143933 -0.000148205 -1.14379e-06
-0.000148205 -2.8032e-05 -2.24449e-06
-1.14379e-06 -2.24449e-06 -0.000133394
0.00184389 -0.000152144 -1.785e-06
-0.000152144 0.000232572 -1.30845e-06
-1.785e-06 -1.30845e-06 0.000126429
0.00157949 -0.000163823 -2.58218e-06
-0.000163823 0.000200943 -1.84113e-06
-2.58218e-06 -1.84113e-06 5.95787e-05
0.00156552 -0.000161281 4.40884e-07
-0.000161281 0.000135692 9.99368e-07
4.40884e-07 9.99368e-07 3.69311e-06
0.00078056 -0.000125115 -2.72357e-06
-0.000125115 -0.000106258 1.47868e-06
-2.72357e-06 1.47868e-06 -0.000252069
0.00137818 -0.000160851 1.56411e-06
-0.000160851 0.000179752 -1.1304e-06
1.56411e-06 -1.1304e-06 2.06806e-05
0.00114257 -0.000155819 2.34393e-06
-0.000155819 2.77877e-06 1.22555e-07
2.34393e-06 1.22555e-07 -0.000156341
0.00104234 -0.000126193 -6.57733e-07
-0.000126193 0.000113585 1.41816e-06
-6.57733e-07 1.41816e-06 -9.3664e-06
0.00102861 -0.000131705 7.65527e-07
-0.000131705 8.49769e-05 -3.68539e-07
7.65527e-07 -3.68539e-07 -5.58172e-05
0.000850795 -0.000132286 1.5878e-06
-0.000132286 -3.08929e-05 -2.51827e-06
1.5878e-06 -2.51827e-06 -0.000197423
0.000954814 -9.99487e-05 -1.70587e-06
-9.99487e-05 9.67706e-05 4.47544e-07
-1.70587e-06 4.47544e-07 -4.11772e-06
0.0010456 -0.000119938 -1.44144e-07
-0.000119938 0.000141591 -5.16178e-07
-1.44144e-07 -5.16178e-07 2.63293e-05
0.000845598 -0.00011242 2.6268e-07
-0.00011242 3.88615e-05 -2.44909e-06
2.6268e-07 -2.44909e-06 -8.19175e-05
0.00081241 1.67732e-05 3.02341e-07
1.67732e-05 4.76397e-05 3.1557e-06
3.02341e-07 3.1557e-06 -2.3317e-05
0.000932797 -5.49328e-05 8.87291e-07
-5.49328e-05 0.000104886 4.15181e-07
8.87291e-07 4.15181e-07 8.93336e-06
0.000946114 -8.79955e-05 4.66205e-07
-8.79955e-05 0.000119856 5.55145e-07
4.66205e-07 5.55145e-07 9.11463e-06
0.000619895 5.31884e-05 -1.80698e-06
5.31884e-05 -4.68796e-05 4.11025e-06
-1.80698e-06 4.11025e-06 -6.86567e-05
0.000738202 3.0502e-05 -6.83487e-07
3.0502e-05 6.90327e-06 -3.43511e-07
-6.83487e-07 -3.43511e-07 -5.10124e-05
0.000889391 -1.85303e-05 -1.4383e-09
-1.85303e-05 9.25516e-05 -1.66212e-06
-1.4383e-09 -1.66212e-06 5.30882e-06
0.00217907 7.43439e-05 -9.64341e-06
7.43439e-05 0.000800857 1.2824e-06
-9.64341e-06 1.2824e-06 0.000809814
0.000691824 4.8547e-05 6.64225e-08
4.8547e-05 -1.65488e-05 -5.6882e-08
6.64225e-08 -5.6882e-08 -3.29279e-05
0.000728961 4.33863e-05 9.56441e-07
4.33863e-05 -1.91835e-06 -2.22762e-06
9.56441e-07 -2.22762e-06 -4.87073e-05
0.00212343 5.9945e-05 1.06227e-06
5.9945e-05 0.000760235 8.07436e-08
1.06227e-06 8.07436e-08 0.000773437
0.000737156 4.491e-05 1.66137e-06
4.491e-05 -2.10606e-06 -3.42303e-06
1.66137e-06 -3.42303e-06 -1.41933e-05
0.00210558 5.37771e-05 2.4639e-05
5.37771e-05 0.000743452 -3.23738e-06
2.4639e-05 -3.23738e-06 0.00075847
0.000932949 2.93464e-05 -4.21443e-07
2.93464e-05 0.00010717 -2.32882e-07
-4.21443e-07 -2.32882e-07 2.90828e-05
0.000823151 -8.54868e-06 1.04454e-07
-8.54868e-06 3.88107e-05 -3.04765e-07
1.04454e-07 -3.04765e-07 -3.37231e-05
0.000819704 -2.65485e-06 -4.19765e-07
-2.65485e-06 3.79215e-05 -1.6999e-06
-4.19765e-07 -1.6999e-06 -2.88251e-05
0.000751339 -5.13196e-05 -3.66302e-07
-5.13196e-05 -1.41244e-06 -2.27975e-06
-3.66302e-07 -2.27975e-06 -4.27131e-05
0.000809683 -1.59444e-05 7.55651e-07
-1.59444e-05 2.86432e-05 -8.50912e-08
7.55651e-07 -8.50912e-08 -3.29861e-05
0.000799332 -3.1828e-06 5.84113e-07
-3.1828e-06 2.84019e-05 9.27044e-07
5.84113e-07 9.27044e-07 -4.25069e-05
0.000712952 -3.73278e-05 -1.53132e-06
-3.73278e-05 -2.50902e-05 -3.60831e-06
-1.53132e-06 -3.60831e-06 -3.60151e-05
0.000768312 -3.38571e-05 -1.99565e-07
-3.38571e-05 6.22065e-07 2.20599e-08
-1.99565e-07 2.20599e-08 -3.73385e-05
0.000820998 -1.21783e-05 1.20344e-06
-1.21783e-05 3.19431e-05 9.53527e-07
1.20344e-06 9.53527e-07 -2.61277e-05
0.00221563 -4.73539e-05 -2.30934e-05
-4.73539e-05 0.000793817 -3.66768e-06
-2.30934e-05 -3.66768e-06 0.000809894
0.000706022 -3.24349e-05 -1.80578e-07
-3.24349e-05 -3.51696e-05 1.49721e-08
-1.80578e-07 1.49721e-08 -4.41679e-05
0.000785801 -2.36177e-05 8.62926e-07
-2.36177e-05 5.89866e-06 1.62351e-06
8.62926e-07 1.62351e-06 -3.01483e-05
0.00217769 -3.99732e-05 -2.04071e-06
-3.99732e-05 0.000766248 9.40376e-08
-2.04071e-06 9.40376e-08 0.000784075
0.000709355 -2.75695e-05 4.58109e-07
-2.75695e-05 -3.9525e-05 3.37615e-06
4.58109e-07 3.37615e-06 -4.64454e-05
0.00212419 -3.18071e-05 1.4328e-05
-3.18071e-05 0.00073094 3.98246e-06
1.4328e-05 3.98246e-06 0.000750551
-0.00182153 -0.00013501 4.1105e-05
-0.00013501 -0.00051566 1.48977e-05
4.1105e-05 1.48977e-05 -0.000925405
0.0017743 -3.7833e-05 2.11377e-06
-3.7833e-05 0.000259749 5.71639e-06
2.11377e-06 5.71639e-06 7.48795e-05
0.00106686 -6.86066e-06 -4.16614e-06
-6.86066e-06 2.55803e-05 -4.20498e-06
-4.16614e-06 -4.20498e-06 -6.43674e-05
0.000902119 8.68948e-06 -8.44599e-07
8.68948e-06 9.52963e-05 7.14146e-07
-8.44599e-07 7.14146e-07 1.25614e-05
0.00104652 0.000101969 5.72106e-08
0.000101969 0.000186612 1.02075e-06
5.72106e-08 1.02075e-06 8.89305e-05
0.000897267 3.11703e-05 -4.67717e-07
3.11703e-05 0.000100247 1.25421e-07
-4.67717e-07 1.25421e-07 1.09997e-05
0.000989388 -4.26622e-05 4.50107e-07
-4.26622e-05 0.00013108 -2.58373e-07
4.50107e-07 -2.58373e-07 6.00319e-05
0.000928927 1.66923e-05 6.67328e-07
1.66923e-05 9.78389e-05 7.04544e-07
6.67328e-07 7.04544e-07 2.20765e-05
0.000754536 -2.79064e-05 -7.80711e-07
-2.79064e-05 9.85645e-06 1.70479e-06
-7.80711e-07 1.70479e-06 -6.72425e-05
0.000773606 2.43285e-06 -5.94182e-07
2.43285e-06 2.79849e-05 3.66001e-08
-5.94182e-07 3.66001e-08 -5.32551e-05
0.000819272 6.3884e-06 1.73192e-07
6.3884e-06 4.89858e-05 -7.54455e-08
1.73192e-07 -7.54455e-08 -3.49511e-05
0.00101531 5.01774e-05 1.07974e-06
5.01774e-05 0.000177461 -1.84269e-06
1.07974e-06 -1.84269e-06 7.98379e-05
0.000814202 5.10371e-05 3.14135e-06
5.10371e-05 3.84137e-05 -2.71304e-06
3.14135e-06 -2.71304e-06 -4.11806e-05
0.0008844 2.71229e-05 -9.14238e-08
2.71229e-05 8.61714e-05 -7.49063e-07
-9.14238e-08 -7.49063e-07 8.74022e-06
0.00105496 2.94792e-05 6.81807e-07
2.94792e-05 0.00018993 6.27775e-07
6.81807e-07 6.27775e-07 0.000113011
-0.00170745 -0.000311628 -1.1073e-05
-0.000311628 -0.000819273 2.04736e-05
-1.1073e-05 2.04736e-05 -0.000886776
-0.000242649 -0.00031588 1.91819e-05
-0.00031588 -0.00011859 7.02609e-06
1.91819e-05 7.02609e-06 -0.000101968
0.00205799 -4.84868e-05 -3.95543e-05
-4.84868e-05 0.000324383 -3.07778e-05
-3.95543e-05 -3.07778e-05 -3.64897e-05
-0.00289969 -0.000573171 1.28417e-05
-0.000573171 -0.0024759 3.2462e-05
1.28417e-05 3.2462e-05 -0.00113801
0.00499755 -0.000614374 -1.70306e-05
-0.000614374 0.00140274 -2.75473e-05
-1.70306e-05 -2.75473e-05 0.00150691
0.00347052 0.000184683 4.43489e-05
0.000184683 0.000798974 2.51968e-06
4.43489e-05 2.51968e-06 -0.000981117
0.00289901 -0.000231203 -0.000116082
-0.000231203 0.000373603 8.20957e-05
-0.000116082 8.20957e-05 -0.000186691
0.00315432 0.000107159 -3.05598e-05
0.000107159 0.000359459 -8.34115e-07
-3.05598e-05 -8.34115e-07 0.000117307
0.0035683 -0.000649236 -1.31687e-05
-0.000649236 0.00137186 1.65019e-05
-1.31687e-05 1.65019e-05 0.00149647
0.00174781 2.00184e-05 1.18502e-05
2.00184e-05 9.96579e-06 2.44199e-05
1.18502e-05 2.44199e-05 -0.00158746
0.00195811 0.000302955 -0.000106461
0.000302955 0.000219286 -8.57559e-05
-0.000106461 -8.57559e-05 -0.000465206
0.00217952 0.000275963 -0.000129958
0.000275963 0.000343705 -4.53539e-05
-0.000129958 -4.53539e-05 -0.00125365
0.00229353 0.000287372 1.17362e-05
0.000287372 0.000660719 -1.01269e-05
1.17362e-05 -1.01269e-05 0.000530596
0.000818393 0.000115719 -1.69915e-06
0.000115719 6.38399e-05 4.37615e-08
-1.69915e-06 4.37615e-08 7.09351e-06
0.00117948 1.68179e-05 -8.70713e-07
1.68179e-05 0.000246527 -2.01405e-06
-8.70713e-07 -2.01405e-06 0.000188302
0.0004633 0.000109807 -3.06051e-05
0.000109807 4.17109e-05 -1.47146e-05
-3.06051e-05 -1.47146e-05 -0.000167424
0.00153827 9.96841e-05 -3.79461e-06
9.96841e-05 0.000520715 -5.60326e-06
-3.79461e-06 -5.60326e-06 0.000431928
0.00118783 0.000209829 1.30584e-05
0.000209829 0.000202143 -2.9768e-07
1.30584e-05 -2.9768e-07 8.33951e-05
0.00133982 0.000276407 4.7495e-05
0.000276407 -0.000117494 2.8113e-05
4.7495e-05 2.8113e-05 -0.000162055
-0.00382541 -3.81346e-05 -4.58137e-05
-3.81346e-05 -0.00184325 -1.20234e-05
-4.58137e-05 -1.20234e-05 -0.00157828
-0.000413596 -1.42176e-05 1.66658e-05
-1.42176e-05 0.000395119 8.84524e-07
1.66658e-05 8.84524e-07 4.15466e-05
0.00138502 -1.3018e-05 -3.44726e-05
-1.3018e-05 0.00010115 2.25352e-06
-3.44726e-05 2.25352e-06 -2.76979e-05
0.00129875 -0.000176552 -3.53396e-05
-0.000176552 -1.54848e-05 -1.5473e-05
-3.53396e-05 -1.5473e-05 0.000191278
0.00390168 -0.00055569 -6.03222e-05
-0.00055569 0.000762717 -6.2937e-06
-6.03222e-05 -6.2937e-06 5.17551e-05
0.00108708 0.000127269 -4.54476e-05
0.000127269 0.00107262 1.47968e-05
-4.54476e-05 1.47968e-05 0.000946694
-0.000413726 9.92594e-05 3.53633e-05
9.92594e-05 -0.000682438 -4.65789e-05
3.53633e-05 -4.65789e-05 -0.00245362
0.00898831 0.000511019 -8.77013e-05
0.000511019 0.0044491 1.04529e-05
-8.77013e-05 1.04529e-05 0.00442525
0.00135026 -0.000255377 8.0881e-06
-0.000255377 2.24388e-05 1.03324e-06
8.0881e-06 1.03324e-06 1.10557e-05
-0.000449299 0.000233466 -5.20647e-06
0.000233466 -2.41995e-05 -3.31791e-06
-5.20647e-06 -3.31791e-06 -0.000117715
0.00245809 0.000196101 -1.42084e-05
0.000196101 0.000328761 1.60781e-05
-1.42084e-05 1.60781e-05 -0.00119565
0.00451667 -0.00032572 -6.30963e-06
-0.00032572 0.0010455 6.74846e-06
-6.30963e-06 6.74846e-06 0.000319239
4.30765e-05 -0.000125212 -1.87349e-06
-0.000125212 -0.000451045 -3.61898e-06
-1.87349e-06 -3.61898e-06 -0.000608538
0.00776771 -1.84956e-05 4.53571e-05
-1.84956e-05 0.00265857 2.97277e-07
4.53571e-05 2.97277e-07 0.00172655
0.00281724 -1.41392e-05 3.65477e-06
-1.41392e-05 0.000174937 -9.04336e-06
3.65477e-06 -9.04336e-06 -0.000237404
-2.40478e-05 -9.72908e-05 -1.10285e-05
-9.72908e-05 -0.000561393 -1.67168e-07
-1.10285e-05 -1.67168e-07 -0.00053017
0.0012449 -0.00017383 -7.16104e-07
-0.00017383 -0.000208993 -4.47612e-07
-7.16104e-07 -4.47612e-07 -0.000169642
0.00176153 -0.000216746 3.44539e-06
-0.000216746 -9.22538e-05 -7.86291e-06
3.44539e-06 -7.86291e-06 -6.30464e-05
0.00154522 -0.000220722 -4.28705e-06
-0.000220722 0.000145993 -4.4999e-06
-4.28705e-06 -4.4999e-06 -3.78003e-06
0.00165157 -0.000228616 -5.65287e-07
-0.000228616 1.94437e-05 1.83167e-06
-5.65287e-07 1.83167e-06 -7.04829e-05
0.00195948 -0.000202435 -5.78395e-06
-0.000202435 9.44768e-05 1.15279e-06
-5.78395e-06 1.15279e-06 3.6004e-05
0.00129853 -0.000189977 1.71303e-06
-0.000189977 2.02893e-05 1.32336e-06
1.71303e-06 1.32336e-06 -0.000125242
0.00169581 -0.000184389 -1.80706e-06
-0.000184389 7.63022e-05 3.23023e-08
-1.80706e-06 3.23023e-08 -2.86587e-05
0.00184012 -0.000154203 -1.73301e-06
-0.000154203 8.59064e-05 -6.61225e-07
-1.73301e-06 -6.61225e-07 4.84365e-06
0.00169813 -0.000182382 1.43902e-06
-0.000182382 0.000186061 1.9998e-06
1.43902e-06 1.9998e-06 4.53812e-05
0.00162366 -0.000154066 3.36528e-07
-0.000154066 6.64857e-05 8.63934e-07
3.36528e-07 8.63934e-07 -3.93939e-05
0.00151834 -0.00012839 -9.18935e-07
-0.00012839 -1.22409e-05 7.03848e-07
-9.18935e-07 7.03848e-07 -0.000101991
0.00188764 -0.000134516 -5.52666e-07
-0.000134516 0.000237559 -2.92749e-07
-5.52666e-07 -2.92749e-07 0.000140393
0.00165358 -0.000143135 -1.91008e-06
-0.000143135 0.000135637 2.12602e-06
-1.91008e-06 2.12602e-06 3.16227e-05
0.00162374 -0.000145376 1.44231e-07
-0.000145376 0.000172103 -3.46511e-06
1.44231e-07 -3.46511e-06 5.6352e-05
0.00147917 -0.00015349 -3.16079e-06
-0.00015349 0.000183941 -5.27595e-07
-3.16079e-06 -5.27595e-07 4.63394e-05
0.00162094 -0.00016428 1.24039e-06
-0.00016428 0.000224 -2.45724e-07
1.24039e-06 -2.45724e-07 8.25548e-05
0.0013724 -0.000150664 2.92421e-06
-0.000150664 3.67573e-05 3.70325e-06
2.92421e-06 3.70325e-06 -9.30704e-05
0.000802132 -0.000119078 -3.15941e-06
-0.000119078 -6.75396e-05 2.77646e-06
-3.15941e-06 2.77646e-06 -0.000199515
0.00111764 -0.000140141 3.38326e-07
-0.000140141 7.41078e-05 -1.27192e-07
3.38326e-07 -1.27192e-07 -7.07674e-05
0.00147855 -0.000163834 4.54545e-06
-0.000163834 0.00023362 -2.05208e-06
4.54545e-06 -2.05208e-06 7.65905e-05
0.000950219 -0.000107535 -1.5704e-06
-0.000107535 7.49523e-05 7.68861e-07
-1.5704e-06 7.68861e-07 -3.17557e-05
0.00109382 -0.000128008 1.60469e-07
-0.000128008 0.000139118 -2.47259e-07
1.60469e-07 -2.47259e-07 1.59884e-05
0.000680479 -0.000112404 1.27875e-06
-0.000112404 -9.54131e-05 -3.73764e-06
1.27875e-06 -3.73764e-06 -0.000234768
0.000791062 -3.38174e-05 -2.47605e-06
-3.38174e-05 2.71019e-05 2.65564e-06
-2.47605e-06 2.65564e-06 -5.15852e-05
0.00102048 -0.000104325 4.18916e-08
-0.000104325 0.000130443 -6.74679e-08
4.18916e-08 -6.74679e-08 2.92589e-05
0.00113129 -0.000124165 9.68959e-07
-0.000124165 0.000185385 -8.7561e-07
9.68959e-07 -8.7561e-07 6.97762e-05
0.000566207 6.48479e-05 -2.14648e-07
6.48479e-05 -6.84968e-05 5.14193e-06
-2.14648e-07 5.14193e-06 -9.92697e-05
0.000778114 -1.80969e-06 -2.21348e-08
-1.80969e-06 2.91787e-05 6.26669e-08
-2.21348e-08 6.26669e-08 -4.28533e-05
0.00100111 -6.09084e-05 1.45044e-06
-6.09084e-05 0.000141388 -5.41663e-07
1.45044e-06 -5.41663e-07 4.45943e-05
0.00237459 7.63137e-05 -3.39984e-05
7.63137e-05 0.000911851 2.79034e-06
-3.39984e-05 2.79034e-06 0.000919483
0.000656164 5.78022e-05 -1.47788e-07
5.78022e-05 -2.60405e-05 -1.67309e-07
-1.47788e-07 -1.67309e-07 -4.89588e-05
0.000720355 -1.44507e-07 2.16371e-06
-1.44507e-07 -5.06421e-06 -2.85215e-06
2.16371e-06 -2.85215e-06 -6.22435e-05
0.001579 5.81006e-05 1.3339e-05
5.81006e-05 0.000472104 -6.34002e-07
1.3339e-05 -6.34002e-07 0.000478875
0.000725196 5.15375e-05 1.35747e-06
5.15375e-05 1.53844e-06 -3.86319e-06
1.35747e-06 -3.86319e-06 -1.52947e-05
0.00218019 6.08767e-05 2.87467e-05
6.08767e-05 0.000792545 -3.07215e-06
2.87467e-05 -3.07215e-06 0.000805176
0.000912225 4.56931e-05 2.47401e-07
4.56931e-05 9.87016e-05 5.81767e-07
2.47401e-07 5.81767e-07 1.23219e-05
0.000905501 -2.11377e-06 -2.3939e-07
-2.11377e-06 8.92079e-05 5.12909e-07
-2.3939e-07 5.12909e-07 1.3301e-05
0.000839731 -3.01924e-05 1.41458e-09
-3.01924e-05 5.43301e-05 -1.39969e-06
1.41458e-09 -1.39969e-06 -1.69554e-05
0.000883609 2.92895e-06 2.55144e-07
2.92895e-06 7.18411e-05 7.43448e-07
2.55144e-07 7.43448e-07 -1.95028e-06
0.000818048 -3.23237e-05 3.54438e-07
-3.23237e-05 3.38895e-05 -8.41502e-08
3.54438e-07 -8.41502e-08 -3.07409e-05
0.000719877 -4.89935e-05 -6.53155e-07
-4.89935e-05 -1.21597e-05 -2.42152e-06
-6.53155e-07 -2.42152e-06 -5.63883e-05
0.000712293 -4.18277e-05 -2.0278e-06
-4.18277e-05 -1.89083e-05 -3.68597e-06
-2.0278e-06 -3.68597e-06 -3.15967e-05
0.000751314 -4.42608e-05 -4.51766e-08
-4.42608e-05 -2.70153e-06 -1.44344e-08
-4.51766e-08 -1.44344e-08 -4.30897e-05
0.000813456 -5.52403e-05 -1.617e-07
-5.52403e-05 2.82547e-05 1.42425e-06
-1.617e-07 1.42425e-06 -3.12144e-05
0.00222826 -5.40626e-05 -2.65712e-05
-5.40626e-05 0.000807663 -3.4533e-06
-2.65712e-05 -3.4533e-06 0.000822138
0.000696143 -3.64825e-05 -2.31365e-07
-3.64825e-05 -3.40523e-05 3.05315e-08
-2.31365e-07 3.05315e-08 -4.48929e-05
0.000771911 -2.51826e-05 1.54877e-06
-2.51826e-05 1.76273e-06 1.85634e-06
1.54877e-06 1.85634e-06 -3.5586e-05
0.00221289 -4.72358e-05 -1.65938e-06
-4.72358e-05 0.000791636 1.04995e-07
-1.65938e-06 1.04995e-07 0.000807818
0.000697378 -3.1848e-05 8.48538e-07
-3.1848e-05 -3.96189e-05 3.52442e-06
8.48538e-07 3.52442e-06 -4.85908e-05
0.00216411 -3.96495e-05 1.75666e-05
-3.96495e-05 0.000758227 3.86333e-06
1.75666e-05 3.86333e-06 0.000776228
0.00122807 0.000119981 8.26014e-05
0.000119981 0.000885657 2.9746e-05
8.26014e-05 2.9746e-05 0.000489288
-0.000222315 -0.00016074 3.27213e-06
-0.00016074 0.00024374 4.73253e-06
3.27213e-06 4.73253e-06 -6.42581e-05
0.00172719 -4.33511e-05 -3.61678e-05
-4.33511e-05 0.000234103 -9.69107e-06
-3.61678e-05 -9.69107e-06 5.07859e-05
0.000896246 -1.37412e-05 1.35461e-07
-1.37412e-05 9.01537e-05 9.17283e-07
1.35461e-07 9.17283e-07 8.76664e-06
0.000874928 6.32242e-06 -3.50912e-08
6.32242e-06 8.5426e-05 6.50635e-07
-3.50912e-08 6.50635e-07 -3.07136e-06
0.000924331 9.19187e-05 -2.50012e-08
9.19187e-05 0.000124788 2.35744e-07
-2.50012e-08 2.35744e-07 2.81658e-05
0.00109848 0.000121012 8.05662e-07
0.000121012 0.000208238 5.86765e-07
8.05662e-07 5.86765e-07 0.00010092
0.000922012 7.70287e-05 -1.09292e-06
7.70287e-05 0.000129806 -1.76019e-07
-1.09292e-06 -1.76019e-07 2.80463e-05
0.000826929 2.19209e-05 4.83068e-07
2.19209e-05 5.64177e-05 1.21682e-06
4.83068e-07 1.21682e-06 -2.56786e-05
0.000775667 7.75547e-06 2.68971e-07
7.75547e-06 2.5068e-05 1.28608e-06
2.68971e-07 1.28608e-06 -5.85564e-05
0.000743917 5.07343e-05 -8.8738e-07
5.07343e-05 3.15777e-05 -8.95404e-07
-8.8738e-07 -8.95404e-07 -6.36169e-05
0.000244266 7.10988e-05 -3.09752e-07
7.10988e-05 -0.000221257 6.23821e-07
-3.09752e-07 6.23821e-07 -0.000330166
0.000849366 0.000100311 8.19121e-07
0.000100311 5.33392e-05 -2.83123e-06
8.19121e-07 -2.83123e-06 -4.4213e-05
0.00193269 0.000215953 4.18963e-06
0.000215953 0.000457838 -6.84719e-06
4.18963e-06 -6.84719e-06 0.000337433
0.000814015 5.46387e-05 -1.33631e-06
5.46387e-05 5.5992e-05 -3.59219e-07
-1.33631e-06 -3.59219e-07 -2.48165e-05
0.000776179 1.25987e-06 -3.9328e-07
1.25987e-06 3.46016e-05 -6.31297e-07
-3.9328e-07 -6.31297e-07 -3.81517e-05
0.00910184 -6.47764e-05 -3.87148e-05
-6.47764e-05 0.002876 -1.10118e-05
-3.87148e-05 -1.10118e-05 0.00171026
-0.00226868 -0.00027558 -3.53239e-05
-0.00027558 -0.000824076 -3.60836e-06
-3.53239e-05 -3.60836e-06 -0.00116376
0.00111741 -0.000328664 -3.20449e-05
-0.000328664 0.000582112 -2.4577e-05
-3.20449e-05 -2.4577e-05 0.000559793
-0.00269317 -0.000368349 -9.95059e-06
-0.000368349 -0.00154613 7.2608e-06
-9.95059e-06 7.2608e-06 -0.00134908
0.00965321 -0.000417393 7.11513e-05
-0.000417393 0.00372321 1.22216e-05
7.11513e-05 1.22216e-05 0.00176475
0.00327251 0.000107064 2.74091e-06
0.000107064 0.000505555 1.80432e-05
2.74091e-06 1.80432e-05 0.000456638
0.00154038 0.000296394 -3.96824e-05
0.000296394 -0.000124977 -2.17466e-05
-3.96824e-05 -2.17466e-05 -0.000671672
0.00696084 -0.00031046 4.78575e-05
-0.00031046 0.00215474 1.81005e-05
4.78575e-05 1.81005e-05 0.000873576
0.0028725 0.000304949 4.0512e-06
0.000304949 0.000124357 -3.63666e-05
4.0512e-06 -3.63666e-05 -0.000371831
0.00213907 0.000332651 1.05285e-05
0.000332651 0.000365258 1.19956e-05
1.05285e-05 1.19956e-05 0.000212449
0.000870382 0.000192339 1.33448e-06
0.000192339 1.21159e-05 -5.24851e-06
1.33448e-06 -5.24851e-06 -0.00012887
0.000930682 0.000105551 -5.36366e-06
0.000105551 0.000119247 3.51263e-06
-5.36366e-06 3.51263e-06 6.60989e-05
0.00170399 0.000248444 -3.42877e-05
0.000248444 0.000414731 -1.67071e-05
-3.42877e-05 -1.67071e-05 0.000307512
0.000722805 0.000260424 -1.70797e-05
0.000260424 -0.000390418 1.43416e-05
-1.70797e-05 1.43416e-05 -0.000451851
0.000607691 -0.000103785 3.04099e-08
-0.000103785 -0.00115506 -4.46356e-06
3.04099e-08 -4.46356e-06 -0.00160704
0.00191694 -2.37293e-05 -3.61273e-06
-2.37293e-05 0.00107014 -5.78638e-07
-3.61273e-06 -5.78638e-07 0.00103814
-0.00116394 -1.1671e-05 -1.46047e-05
-1.1671e-05 0.00015327 1.30769e-07
-1.46047e-05 1.30769e-07 -0.000252773
0.0024757 -0.000329393 -4.52788e-05
-0.000329393 0.000517208 4.24795e-06
-4.52788e-05 4.24795e-06 0.000457879
0.00415248 -0.000336632 -9.21322e-06
-0.000336632 0.000834389 -1.75785e-05
-9.21322e-06 -1.75785e-05 -0.000162142
-0.000127553 -6.33318e-05 -3.58657e-05
-6.33318e-05 0.000245132 1.91814e-05
-3.58657e-05 1.91814e-05 -2.95939e-05
0.00835498 0.000397573 -3.44077e-05
0.000397573 0.00332041 2.42647e-05
-3.44077e-05 2.42647e-05 0.0019056
0.00052238 -0.000167844 1.08536e-06
-0.000167844 -0.000264094 2.19176e-08
1.08536e-06 2.19176e-08 -0.000380615
0.00557843 0.00016345 1.84132e-05
0.00016345 0.0015088 1.36368e-05
1.84132e-05 1.36368e-05 0.000687293
0.00375111 -6.06912e-05 4.073e-05
-6.06912e-05 0.000410655 -1.82824e-06
4.073e-05 -1.82824e-06 -0.000210811
0.00343494 -0.000190483 -6.49467e-06
-0.000190483 0.00122541 1.28609e-06
-6.49467e-06 1.28609e-06 0.0010461
0.00241011 -1.95102e-05 -7.13691e-05
-1.95102e-05 0.000397362 -5.11981e-06
-7.13691e-05 -5.11981e-06 9.4178e-05
0.00056575 -0.000154713 -4.61565e-06
-0.000154713 -0.000560396 4.46702e-07
-4.61565e-06 4.46702e-07 -0.000515625
0.00166669 -0.000221562 -6.84839e-07
-0.000221562 -0.000114982 7.39866e-07
-6.84839e-07 7.39866e-07 -0.000111708
0.00174011 -0.000141145 -2.95284e-06
-0.000141145 -0.000112446 -2.77431e-06
-2.95284e-06 -2.77431e-06 -0.000132136
0.00141673 -0.000216292 6.50269e-06
-0.000216292 -9.82143e-05 1.12706e-06
6.50269e-06 1.12706e-06 -0.00018554
0.00178677 -0.000188505 -2.44454e-08
-0.000188505 3.16609e-05 -3.1158e-07
-2.44454e-08 -3.1158e-07 -2.83762e-05
0.00188486 -0.000119311 -3.26724e-06
-0.000119311 3.48991e-05 8.52106e-07
-3.26724e-06 8.52106e-07 -1.83666e-05
0.00166463 -0.000182426 -6.32249e-07
-0.000182426 5.74812e-05 2.64028e-06
-6.32249e-07 2.64028e-06 -4.80441e-05
0.00179097 -0.00015152 1.27337e-07
-0.00015152 6.15202e-05 1.17575e-06
1.27337e-07 1.17575e-06 -1.98323e-05
0.00180915 -0.000116915 4.18191e-07
-0.000116915 9.0884e-05 4.79705e-07
4.18191e-07 4.79705e-07 1.09319e-05
0.00182411 -0.000160624 2.9921e-06
-0.000160624 0.00016929 3.62861e-06
2.9921e-06 3.62861e-06 6.28671e-05
0.00170878 -0.00013506 -1.33156e-07
-0.00013506 9.02948e-05 7.9777e-07
-1.33156e-07 7.9777e-07 -1.26505e-06
0.00171339 -0.000116127 4.07102e-07
-0.000116127 0.000105467 1.5222e-06
4.07102e-07 1.5222e-06 1.17743e-05
0.00165309 -0.000128184 -2.2158e-06
-0.000128184 0.000118219 5.85255e-09
-2.2158e-06 5.85255e-09 2.37314e-05
0.00170074 -0.000128693 2.23665e-06
-0.000128693 0.000171762 -1.45037e-06
2.23665e-06 -1.45037e-06 6.55789e-05
0.00154638 -0.000137053 1.53288e-06
-0.000137053 8.20471e-05 3.92712e-06
1.53288e-06 3.92712e-06 -2.00907e-05
0.00159792 -0.000143608 4.08426e-07
-0.000143608 0.000156866 -6.70935e-07
4.08426e-07 -6.70935e-07 4.11779e-05
0.00154531 -0.000140134 -9.47645e-07
-0.000140134 0.00016472 -1.53039e-06
-9.47645e-07 -1.53039e-06 4.24006e-05
0.0010018 -0.000126545 -3.90976e-06
-0.000126545 -3.20939e-05 1.2454e-06
-3.90976e-06 1.2454e-06 -0.000162887
0.00145972 -0.000151435 1.86605e-07
-0.000151435 0.000174494 -4.01963e-07
1.86605e-07 -4.01963e-07 3.64005e-05
0.00166761 -0.000164942 3.70772e-06
-0.000164942 0.000249892 1.26795e-06
3.70772e-06 1.26795e-06 0.000108334
0.00103213 -0.000118235 -2.5311e-06
-0.000118235 8.53872e-05 1.65821e-06
-2.5311e-06 1.65821e-06 -2.91381e-05
0.000909921 -0.000123423 -8.65618e-07
-0.000123423 -7.50564e-06 9.74045e-07
-8.65618e-07 9.74045e-07 -0.000138478
0.00142567 -0.000153566 3.44862e-06
-0.000153566 0.000239518 -1.98572e-06
3.44862e-06 -1.98572e-06 9.5683e-05
0.000742092 -5.29852e-05 -2.90938e-06
-5.29852e-05 -1.27002e-05 1.97624e-06
-2.90938e-06 1.97624e-06 -9.48349e-05
0.00104301 -0.00011319 1.03927e-07
-0.00011319 0.000122662 -2.72578e-07
1.03927e-07 -2.72578e-07 1.53001e-05
0.00115479 -0.000130425 1.50616e-06
-0.000130425 0.00016978 -1.99503e-06
1.50616e-06 -1.99503e-06 4.63954e-05
0.000567044 4.70434e-05 -1.31513e-06
4.70434e-05 -7.21835e-05 5.78405e-06
-1.31513e-06 5.78405e-06 -0.000108157
0.000824224 -3.81918e-05 1.40575e-07
-3.81918e-05 4.36095e-05 2.81844e-07
1.40575e-07 2.81844e-07 -3.50863e-05
0.0010755 -0.000100073 1.75771e-06
-0.000100073 0.000157604 -5.46703e-07
1.75771e-06 -5.46703e-07 5.71061e-05
0.00264534 8.74202e-05 -3.9499e-05
8.74202e-05 0.0010622 2.75105e-06
-3.9499e-05 2.75105e-06 0.00106648
0.000620742 5.81034e-05 6.7303e-07
5.81034e-05 -4.05299e-05 -1.39467e-07
6.7303e-07 -1.39467e-07 -7.05994e-05
0.000762619 -3.17215e-05 2.33413e-06
-3.17215e-05 1.72532e-05 -2.68173e-06
2.33413e-06 -2.68173e-06 -5.34781e-05
0.00245653 7.71136e-05 8.58506e-07
7.71136e-05 0.000955729 1.14831e-07
8.58506e-07 1.14831e-07 0.000963004
0.000695699 6.11696e-05 -3.35945e-07
6.11696e-05 -3.67949e-06 -4.74463e-06
-3.35945e-07 -4.74463e-06 -2.75792e-05
0.00232182 6.8554e-05 3.41603e-05
6.8554e-05 0.000876959 -2.93871e-06
3.41603e-05 -2.93871e-06 0.000886926
0.00101914 0.000109416 3.91005e-07
0.000109416 0.000154052 8.98288e-08
3.91005e-07 8.98288e-08 5.24804e-05
0.000859582 7.27622e-05 3.22069e-07
7.27622e-05 7.43322e-05 1.01608e-07
3.22069e-07 1.01608e-07 -1.42833e-05
0.000780899 -2.19626e-05 -5.76454e-07
-2.19626e-05 2.70795e-05 -7.68995e-07
-5.76454e-07 -7.68995e-07 -5.40089e-05
0.0008651 -2.4608e-05 -2.61743e-07
-2.4608e-05 6.6677e-05 1.01059e-06
-2.61743e-07 1.01059e-06 -8.93768e-06
0.000810651 -4.35868e-05 1.53562e-07
-4.35868e-05 3.83376e-05 5.58204e-08
1.53562e-07 5.58204e-08 -3.31655e-05
0.00070243 -4.9463e-05 -6.72562e-07
-4.9463e-05 -1.57859e-05 -2.46975e-06
-6.72562e-07 -2.46975e-06 -6.69244e-05
0.000798896 -5.49361e-05 -1.27674e-07
-5.49361e-05 2.3089e-05 1.66345e-06
-1.27674e-07 1.66345e-06 -4.11069e-05
0.000735386 -5.31147e-05 1.90908e-08
-5.31147e-05 -4.03188e-06 -1.27917e-07
1.90908e-08 -1.27917e-07 -4.85389e-05
0.000707514 -4.91398e-05 -1.81585e-06
-4.91398e-05 -1.24076e-05 -3.86019e-06
-1.81585e-06 -3.86019e-06 -2.79778e-05
0.00222582 -6.05223e-05 -2.9446e-05
-6.05223e-05 0.000814048 -3.17838e-06
-2.9446e-05 -3.17838e-06 0.000826851
0.000695109 -4.07443e-05 -6.62514e-08
-4.07443e-05 -2.78996e-05 2.87615e-08
-6.62514e-08 2.87615e-08 -4.04936e-05
0.000751523 -4.21567e-05 1.55065e-06
-4.21567e-05 -2.71889e-06 2.01617e-06
1.55065e-06 2.01617e-06 -4.29214e-05
0.00223084 -5.39855e-05 -1.47114e-06
-5.39855e-05 0.000808217 1.11289e-07
-1.47114e-06 1.11289e-07 0.000822775
0.000684086 -3.57063e-05 1.22476e-06
-3.57063e-05 -4.04555e-05 3.66949e-06
1.22476e-06 3.66949e-06 -5.12259e-05
0.00220521 -4.69803e-05 2.14318e-05
-4.69803e-05 0.000786825 3.71882e-06
2.14318e-05 3.71882e-06 0.000803139
0.00758095 9.82342e-05 6.81923e-05
9.82342e-05 0.00227407 1.99957e-05
6.81923e-05 1.99957e-05 0.0013951
-0.00232614 -0.0001213 -1.21175e-05
-0.0001213 -0.00117919 -1.20147e-06
-1.21175e-05 -1.20147e-06 -0.00112804
-0.00140325 -0.000106598 -4.38623e-05
-0.000106598 -0.000297678 -6.25052e-06
-4.38623e-05 -6.25052e-06 -0.00074178
0.000830753 -1.73316e-05 3.718e-07
-1.73316e-05 5.98003e-05 1.11336e-06
3.718e-07 1.11336e-06 -2.82373e-05
0.000802205 9.15439e-05 -4.22344e-07
9.15439e-05 6.23848e-05 4.18122e-10
-4.22344e-07 4.18122e-10 -3.28215e-05
0.000996825 8.09555e-05 3.93427e-07
8.09555e-05 0.000169994 -1.1665e-07
3.93427e-07 -1.1665e-07 6.83082e-05
0.00100345 0.000115503 -9.4621e-07
0.000115503 0.000158561 6.38313e-08
-9.4621e-07 6.38313e-08 5.21347e-05
0.00110685 0.000125263 6.94919e-06
0.000125263 0.000204183 5.86852e-07
6.94919e-06 5.86852e-07 8.45068e-05
0.000673555 9.63734e-05 -7.71895e-07
9.63734e-05 9.84263e-07 4.45237e-07
-7.71895e-07 4.45237e-07 -0.000107455
0.000465616 4.84771e-05 -5.09646e-07
4.84771e-05 -0.000115146 1.69142e-07
-5.09646e-07 1.69142e-07 -0.000209848
0.000604331 9.33749e-05 4.92848e-07
9.33749e-05 -3.81974e-05 4.9327e-07
4.92848e-07 4.9327e-07 -0.000152485
0.000772617 8.32585e-05 -2.53959e-08
8.32585e-05 2.0235e-05 -1.92311e-07
-2.53959e-08 -1.92311e-07 -7.94539e-05
0.000142915 8.83044e-05 1.87792e-06
8.83044e-05 -0.000345466 -1.02306e-06
1.87792e-06 -1.02306e-06 -0.000462439
0.00334231 0.000271198 9.13851e-07
0.000271198 0.00117258 -1.81852e-06
9.13851e-07 -1.81852e-06 0.00104977
0.00145642 0.000219525 3.28621e-06
0.000219525 4.05906e-05 -1.56587e-06
3.28621e-06 -1.56587e-06 -9.67868e-05
0.00138039 0.000187371 1.72263e-06
0.000187371 0.000185905 -1.24143e-06
1.72263e-06 -1.24143e-06 7.02007e-05
0.000881384 6.15301e-05 -4.03842e-06
6.15301e-05 0.000104264 1.91941e-06
-4.03842e-06 1.91941e-06 2.33098e-05
0.00262577 2.16772e-05 -1.74667e-05
2.16772e-05 -0.000122897 -4.81783e-06
-1.74667e-05 -4.81783e-06 -0.000405504
0.00538652 -5.24064e-05 1.41819e-05
-5.24064e-05 0.00137941 3.83791e-06
1.41819e-05 3.83791e-06 0.000251591
0.00496551 -0.000543399 -3.2295e-05
-0.000543399 0.00238031 -2.97693e-05
-3.2295e-05 -2.97693e-05 0.00236704
0.00743623 -0.000114963 0.000220939
-0.000114963 0.00242375 6.55457e-05
0.000220939 6.55457e-05 0.000874467
0.00300538 0.000338722 4.32589e-05
0.000338722 0.000518837 4.49001e-05
4.32589e-05 4.49001e-05 0.000338702
0.00216763 0.000220046 -5.67654e-05
0.000220046 2.6526e-05 -1.81322e-05
-5.67654e-05 -1.81322e-05 -0.000284857
0.00215843 0.00027684 3.60257e-05
0.00027684 0.000198514 1.90494e-05
3.60257e-05 1.90494e-05 0.000192391
0.00199404 0.000321159 -1.8744e-06
0.000321159 0.00029066 5.57168e-06
-1.8744e-06 5.57168e-06 0.00015921
0.000248357 0.000147178 -1.74399e-06
0.000147178 -0.000286258 5.19552e-06
-1.74399e-06 5.19552e-06 -0.000421915
0.00208987 0.000346919 -7.12431e-05
0.000346919 0.000273334 -4.64018e-05
-7.12431e-05 -4.64018e-05 0.000206474
0.00334463 -0.000115614 -0.000146452
-0.000115614 0.000787041 1.07442e-06
-0.000146452 1.07442e-06 0.000383145
0.00770518 -9.42639e-06 1.41165e-05
-9.42639e-06 0.00261031 -2.07166e-06
1.41165e-05 -2.07166e-06 0.00195962
-0.00566437 -9.8819e-05 5.26862e-05
-9.8819e-05 -0.00293856 7.18798e-06
5.26862e-05 7.18798e-06 -0.00278336
0.000920302 -0.000177359 2.64453e-07
-0.000177359 -8.79808e-05 6.48792e-06
2.64453e-07 6.48792e-06 -0.000191111
0.00516141 -0.00010727 7.5558e-05
-0.00010727 0.00115155 1.52154e-06
7.5558e-05 1.52154e-06 0.000574605
0.000513553 -0.000230145 7.00004e-05
-0.000230145 -0.000847392 2.34012e-05
7.00004e-05 2.34012e-05 -0.00159335
0.00126354 -0.000122028 5.03885e-06
-0.000122028 0.000121166 -1.29388e-06
5.03885e-06 -1.29388e-06 6.29626e-06
0.00157605 4.85037e-05 -3.11874e-06
4.85037e-05 -0.000146057 1.21616e-06
-3.11874e-06 1.21616e-06 -0.000424052
0.00430469 -0.000104498 4.10515e-06
-0.000104498 0.00142867 -3.71685e-06
4.10515e-06 -3.71685e-06 0.00136397
0.0016865 2.6721e-05 2.86657e-05
2.6721e-05 2.46971e-05 -2.43045e-06
2.86657e-05 -2.43045e-06 -6.77581e-05
0.00154921 -0.000227638 5.53625e-07
-0.000227638 -0.000142914 2.34352e-06
5.53625e-07 2.34352e-06 -0.00016862
0.0019837 -0.000152944 -1.81303e-06
-0.000152944 1.54406e-05 3.93928e-07
-1.81303e-06 3.93928e-07 -9.62583e-06
0.00202957 -4.96847e-05 1.74453e-06
-4.96847e-05 9.05146e-05 -1.38178e-06
1.74453e-06 -1.38178e-06 5.39581e-05
0.00161673 -0.000175204 5.96395e-06
-0.000175204 -3.24249e-05 -4.75132e-07
5.96395e-06 -4.75132e-07 -9.35673e-05
0.00191592 -0.000119796 1.93179e-06
-0.000119796 5.75569e-05 -8.0726e-08
1.93179e-06 -8.0726e-08 2.17698e-06
0.0018022 -5.90686e-05 1.03761e-06
-5.90686e-05 6.46242e-05 5.95396e-07
1.03761e-06 5.95396e-07 -3.23556e-06
0.00174314 -0.000148302 4.20944e-06
-0.000148302 3.79031e-05 2.5742e-06
4.20944e-06 2.5742e-06 -4.36645e-05
0.00178981 -0.000113226 8.97501e-07
-0.000113226 8.94683e-05 1.8814e-07
8.97501e-07 1.8814e-07 8.962e-06
0.00175533 -8.35591e-05 3.13965e-09
-8.35591e-05 0.000109573 2.07636e-07
3.13965e-09 2.07636e-07 1.88764e-05
0.00187746 -0.000140557 4.67126e-07
-0.000140557 0.000181185 1.7122e-06
4.67126e-07 1.7122e-06 8.80045e-05
0.00166276 -0.000117026 3.30995e-07
-0.000117026 8.45789e-05 -1.07583e-07
3.30995e-07 -1.07583e-07 -8.92153e-06
0.00155749 -0.000107782 2.65467e-06
-0.000107782 6.08925e-05 1.29087e-06
2.65467e-06 1.29087e-06 -4.33995e-05
0.00139676 -0.000121052 -1.64297e-06
-0.000121052 -1.27596e-05 -7.69406e-07
-1.64297e-06 -7.69406e-07 -0.000104469
0.00160482 -0.000125038 -1.21752e-06
-0.000125038 0.000118509 -1.08349e-06
-1.21752e-06 -1.08349e-06 1.42932e-05
0.00177048 -0.000130384 4.74755e-07
-0.000130384 0.000240354 -7.65261e-07
4.74755e-07 -7.65261e-07 0.000124528
0.00155418 -0.000141277 9.04841e-07
-0.000141277 0.000132087 2.30331e-06
9.04841e-07 2.30331e-06 1.65399e-05
0.00153688 -0.000138843 4.80624e-07
-0.000138843 0.000159631 -5.86157e-07
4.80624e-07 -5.86157e-07 3.71004e-05
0.00155526 -0.000137173 -2.22921e-06
-0.000137173 0.000206012 -8.27663e-08
-2.22921e-06 -8.27663e-08 8.38016e-05
0.000777733 -0.000107147 -4.79313e-06
-0.000107147 -0.000106958 2.06153e-06
-4.79313e-06 2.06153e-06 -0.000224244
0.00110513 -0.000129755 -6.66269e-07
-0.000129755 2.73481e-05 4.88742e-07
-6.66269e-07 4.88742e-07 -0.000102752
0.00143989 -0.000149365 3.15753e-06
-0.000149365 0.000164899 -4.38028e-07
3.15753e-06 -4.38028e-07 2.63077e-05
0.000832164 -7.83517e-05 -3.79605e-06
-7.83517e-05 1.52633e-05 2.42249e-06
-3.79605e-06 2.42249e-06 -7.33792e-05
0.0010751 -0.000119969 2.14737e-07
-0.000119969 0.000106246 9.09269e-08
2.14737e-07 9.09269e-08 -8.20631e-06
0.00103273 -0.000128512 1.07569e-06
-0.000128512 6.01211e-05 -6.79738e-07
1.07569e-06 -6.79738e-07 -6.98726e-05
0.000592666 2.50994e-05 -4.43646e-06
2.50994e-05 -6.11851e-05 5.79295e-06
-4.43646e-06 5.79295e-06 -0.000103022
0.000858128 -5.86935e-05 1.15329e-07
-5.86935e-05 4.97435e-05 -4.64891e-08
1.15329e-07 -4.64891e-08 -3.35498e-05
0.00112972 -0.000118424 2.27927e-06
-0.000118424 0.000167152 -1.48948e-06
2.27927e-06 -1.48948e-06 5.91795e-05
0.0029497 9.89797e-05 -4.72237e-05
9.89797e-05 0.00122891 2.77528e-06
-4.72237e-05 2.77528e-06 0.00122955
0.000626896 3.63265e-05 3.86863e-07
3.63265e-05 -4.22982e-05 -1.30273e-07
3.86863e-07 -1.30273e-07 -7.77851e-05
0.000854341 -4.29343e-05 3.32632e-06
-4.29343e-05 5.79944e-05 -2.22757e-06
3.32632e-06 -2.22757e-06 -2.05187e-05
0.00271457 8.68245e-05 1.09504e-06
8.68245e-05 0.00109862 1.34046e-07
1.09504e-06 1.34046e-07 0.00110271
0.000668309 5.17094e-05 1.93483e-06
5.17094e-05 -1.58124e-05 -5.15162e-06
1.93483e-06 -5.15162e-06 -4.56247e-05
0.00252915 7.68121e-05 4.06553e-05
7.68121e-05 0.000994387 -2.93754e-06
4.06553e-05 -2.93754e-06 0.00100152
0.00108276 0.00011978 -3.46291e-07
0.00011978 0.000177964 -1.84635e-06
-3.46291e-07 -1.84635e-06 6.4979e-05
0.00105455 0.000111581 2.9762e-07
0.000111581 0.000173188 1.76191e-07
2.9762e-07 1.76191e-07 7.19749e-05
0.000935069 5.35499e-05 -1.28293e-06
5.35499e-05 0.000104403 -6.88017e-07
-1.28293e-06 -6.88017e-07 1.38261e-05
0.000822195 9.22054e-05 1.40406e-07
9.22054e-05 5.8679e-05 4.82748e-08
1.40406e-07 4.82748e-08 -3.25264e-05
0.000776323 -5.11223e-06 -4.4615e-07
-5.11223e-06 2.54675e-05 -1.33133e-07
-4.4615e-07 -1.33133e-07 -5.72249e-05
0.00071471 -8.43005e-07 -2.03184e-06
-8.43005e-07 -6.69275e-06 -2.03469e-06
-2.03184e-06 -2.03469e-06 -6.80821e-05
0.000793079 -5.57541e-05 -5.13796e-08
-5.57541e-05 3.02706e-05 1.32013e-06
-5.13796e-08 1.32013e-06 -4.28797e-05
0.00072302 -4.59091e-05 1.92885e-07
-4.59091e-05 -4.87276e-06 -3.17058e-07
1.92885e-07 -3.17058e-07 -5.58264e-05
0.000688076 -5.95289e-05 -5.86272e-07
-5.95289e-05 -1.18681e-05 -4.3594e-06
-5.86272e-07 -4.3594e-06 -3.26881e-05
0.000748088 -5.27679e-05 8.98579e-07
-5.27679e-05 1.62819e-06 2.23204e-06
8.98579e-07 2.23204e-06 -4.25035e-05
0.000684671 -4.66911e-05 1.52994e-07
-4.66911e-05 -2.52314e-05 -2.98364e-08
1.52994e-07 -2.98364e-08 -4.03532e-05
0.00227431 -6.75431e-05 -3.2793e-05
-6.75431e-05 0.000848412 -2.89066e-06
-3.2793e-05 -2.89066e-06 0.00085913
0.00223654 -6.05384e-05 -8.93846e-07
-6.05384e-05 0.000818788 1.05409e-07
-8.93846e-07 1.05409e-07 0.000831668
0.000678226 -3.96918e-05 1.93171e-06
-3.96918e-05 -3.68074e-05 3.71927e-06
1.93171e-06 3.71927e-06 -4.93032e-05
0.00223462 -5.39943e-05 2.49191e-05
-5.39943e-05 0.00080952 3.54509e-06
2.49191e-05 3.54509e-06 0.000824133
0.00176576 -4.06024e-05 -5.87306e-05
-4.06024e-05 -0.000150088 6.04241e-06
-5.87306e-05 6.04241e-06 -0.000427865
0.00195208 -0.000136523 1.26888e-05
-0.000136523 -0.000431922 2.42688e-06
1.26888e-05 2.42688e-06 -0.00120481
0.00317502 -0.000330047 -4.91609e-05
-0.000330047 0.0013548 -1.34936e-05
-4.91609e-05 -1.34936e-05 0.00147987
0.00126397 0.000139845 6.75811e-06
0.000139845 0.00023219 1.11705e-06
6.75811e-06 1.11705e-06 0.00010199
0.00109404 8.36678e-05 3.06458e-07
8.36678e-05 0.000221822 -4.20948e-08
3.06458e-07 -4.20948e-08 0.000120217
0.000898109 0.000109309 -8.41132e-07
0.000109309 0.000103703 3.28252e-07
-8.41132e-07 3.28252e-07 -1.79031e-06
0.000875825 0.000108548 2.78554e-07
0.000108548 0.000107611 5.75147e-07
2.78554e-07 5.75147e-07 -2.95335e-06
0.00101059 0.000120634 -2.15222e-07
0.000120634 0.000156158 -1.35231e-06
-2.15222e-07 -1.35231e-06 3.58849e-05
0.000669403 0.000106048 -3.14401e-07
0.000106048 -4.59906e-05 7.15131e-08
-3.14401e-07 7.15131e-08 -0.000156336
0.000994958 0.000118113 -4.20018e-07
0.000118113 0.000162107 -5.76037e-07
-4.20018e-07 -5.76037e-07 4.19637e-05
0.000917125 7.71634e-05 -2.43202e-06
7.71634e-05 9.96773e-05 2.65722e-06
-2.43202e-06 2.65722e-06 -3.03549e-06
0.000913263 0.000129984 3.22365e-07
0.000129984 5.38834e-05 -8.45031e-08
3.22365e-07 -8.45031e-08 -6.34162e-05
0.00243466 0.000225985 4.84359e-07
0.000225985 0.000722093 3.10943e-06
4.84359e-07 3.10943e-06 0.000601724
0.00171252 0.000210501 4.94048e-07
0.000210501 0.000190112 -2.0282e-06
4.94048e-07 -2.0282e-06 5.00071e-05
0.0017535 0.000193549 9.88782e-06
0.000193549 6.8601e-05 8.25747e-06
9.88782e-06 8.25747e-06 -5.97213e-05
0.00118827 0.000207966 -3.99311e-07
0.000207966 -9.73183e-05 -8.88168e-07
-3.99311e-07 -8.88168e-07 -0.000236497
0.000921455 0.000160773 -1.19908e-06
0.000160773 -4.51725e-05 5.35631e-06
-1.19908e-06 5.35631e-06 -0.000155857
0.000290655 9.03048e-05 -1.35239e-06
9.03048e-05 -0.000437235 7.12323e-07
-1.35239e-06 7.12323e-07 -0.000441356
0.00431607 6.34727e-05 -1.52057e-05
6.34727e-05 0.000547508 1.38398e-06
-1.52057e-05 1.38398e-06 0.000188594
0.000907307 -0.000118542 1.97768e-05
-0.000118542 -0.000780571 9.82014e-06
1.97768e-05 9.82014e-06 -0.00183578
0.00283248 0.000296419 5.90433e-05
0.000296419 0.00021645 1.97099e-05
5.90433e-05 1.97099e-05 -0.000246818
0.00139459 0.000223127 -1.31823e-05
0.000223127 -3.91057e-05 -8.60743e-07
-1.31823e-05 -8.60743e-07 -6.51033e-05
0.000501576 0.000230425 -2.06502e-05
0.000230425 -0.000382137 -1.41e-05
-2.06502e-05 -1.41e-05 -0.000518824
0.00253339 -9.46809e-05 1.3859e-05
-9.46809e-05 0.000432141 -1.94547e-06
1.3859e-05 -1.94547e-06 0.00032607
0.00126522 -7.68858e-06 -2.24828e-05
-7.68858e-06 -0.000106964 1.427e-06
-2.24828e-05 1.427e-06 -0.000456589
0.000190493 0.00021556 5.30098e-05
0.00021556 -0.00135232 -1.54468e-05
5.30098e-05 -1.54468e-05 -0.00198781
-0.000741662 -8.55661e-05 -2.13036e-07
-8.55661e-05 -0.000927222 9.35283e-06
-2.13036e-07 9.35283e-06 -0.000968489
0.00331656 8.10935e-05 2.99817e-05
8.10935e-05 0.000582112 3.46011e-06
2.99817e-05 3.46011e-06 0.000259545
0.00170352 -6.15199e-05 1.60246e-06
-6.15199e-05 6.1347e-05 -1.21902e-06
1.60246e-06 -1.21902e-06 2.89579e-05
0.00197547 2.814e-05 2.01882e-07
2.814e-05 0.000174207 -1.46102e-06
2.01882e-07 -1.46102e-06 8.6594e-05
0.00136524 -1.11353e-06 7.88286e-06
-1.11353e-06 -0.000232704 -2.58698e-06
7.88286e-06 -2.58698e-06 -0.000296205
0.00251623 9.53221e-06 2.2843e-06
9.53221e-06 0.000454128 -1.81845e-06
2.2843e-06 -1.81845e-06 0.000376657
0.00204693 -0.000158732 1.34251e-06
-0.000158732 5.33728e-05 5.40293e-07
1.34251e-06 5.40293e-07 2.24944e-05
0.00192026 -5.36758e-05 3.31083e-06
-5.36758e-05 1.96074e-05 3.48352e-07
3.31083e-06 3.48352e-07 -2.16913e-05
0.00183471 -4.77314e-05 -4.94953e-07
-4.77314e-05 9.51108e-05 -3.718e-07
-4.94953e-07 -3.718e-07 2.80825e-05
0.00190635 -0.000120829 3.40594e-06
-0.000120829 5.74211e-05 5.48678e-07
3.40594e-06 5.48678e-07 -8.04719e-07
0.00183346 -6.94411e-05 4.10525e-07
-6.94411e-05 7.75342e-05 1.35719e-07
4.10525e-07 1.35719e-07 7.1493e-06
0.00175203 -6.01591e-05 1.37129e-06
-6.01591e-05 0.000109636 -7.61068e-08
1.37129e-06 -7.61068e-08 2.24244e-05
0.00178957 -0.000110792 -5.39228e-07
-0.000110792 9.81024e-05 7.84751e-07
-5.39228e-07 7.84751e-07 1.69136e-05
0.00175644 -8.88788e-05 -1.0448e-06
-8.88788e-05 0.000110858 -1.28028e-07
-1.0448e-06 -1.28028e-07 1.97218e-05
0.00159966 -8.20952e-05 2.40659e-07
-8.20952e-05 6.59648e-05 3.6217e-07
2.40659e-07 3.6217e-07 -3.9083e-05
0.00160866 -0.000117956 -1.07578e-06
-0.000117956 6.25826e-05 -1.27541e-06
-1.07578e-06 -1.27541e-06 -3.08469e-05
0.00162537 -0.000109609 8.10607e-07
-0.000109609 9.56264e-05 2.61372e-07
8.10607e-07 2.61372e-07 -8.8038e-06
0.00157328 -0.000110081 4.25362e-07
-0.000110081 9.81316e-05 2.75548e-07
4.25362e-07 2.75548e-07 -1.43984e-05
0.00150891 -0.000121435 -3.47223e-06
-0.000121435 6.53457e-05 6.47364e-08
-3.47223e-06 6.47364e-08 -3.69287e-05
0.00158712 -0.000123355 -2.02112e-07
-0.000123355 0.000141594 -6.43937e-07
-2.02112e-07 -6.43937e-07 2.70286e-05
0.00147898 -0.00011909 -2.11814e-06
-0.00011909 0.000121699 3.03108e-07
-2.11814e-06 3.03108e-07 3.18096e-06
0.0015278 -0.000137538 2.02015e-06
-0.000137538 0.000154117 6.26916e-07
2.02015e-06 6.26916e-07 3.13888e-05
0.00135732 -0.000129027 5.57907e-07
-0.000129027 0.000100925 -3.86018e-07
5.57907e-07 -3.86018e-07 -2.15823e-05
0.00132547 -0.000121252 -4.64171e-06
-0.000121252 0.000130639 1.34398e-06
-4.64171e-06 1.34398e-06 1.58598e-05
0.00093091 -9.13115e-05 -5.15883e-06
-9.13115e-05 3.01072e-05 2.83671e-06
-5.15883e-06 2.83671e-06 -6.29657e-05
0.00091613 -0.000112668 -1.09336e-06
-0.000112668 -3.03481e-05 7.09107e-07
-1.09336e-06 7.09107e-07 -0.000146896
0.00119153 -0.000132024 2.30067e-06
-0.000132024 7.80368e-05 -2.95946e-07
2.30067e-06 -2.95946e-07 -5.1303e-05
0.000601277 -3.51816e-05 -7.20864e-06
-3.51816e-05 -5.87086e-05 6.4758e-06
-7.20864e-06 6.4758e-06 -0.000107746
0.000892527 -8.23809e-05 2.31042e-07
-8.23809e-05 4.73242e-05 -2.65432e-08
2.31042e-07 -2.65432e-08 -4.20236e-05
0.00111865 -0.000121885 2.99062e-06
-0.000121885 0.00012731 -1.48061e-06
2.99062e-06 -1.48061e-06 1.29179e-05
0.00318912 0.00011017 -5.51017e-05
0.00011017 0.00136541 2.79424e-06
-5.51017e-05 2.79424e-06 0.0013617
0.000657211 -4.96189e-06 -1.62476e-07
-4.96189e-06 -3.12039e-05 -1.46945e-07
-1.62476e-07 -1.46945e-07 -7.28448e-05
0.000937161 -6.49174e-05 3.96432e-06
-6.49174e-05 9.21411e-05 -2.40677e-06
3.96432e-06 -2.40677e-06 7.9355e-06
0.00298979 9.65431e-05 1.42688e-06
9.65431e-05 0.00125064 1.97543e-07
1.42688e-06 1.97543e-07 0.00125119
0.000677663 2.25031e-05 5.31815e-06
2.25031e-05 -1.63509e-05 -5.2887e-06
5.31815e-06 -5.2887e-06 -5.17529e-05
0.00279426 8.5059e-05 4.91345e-05
8.5059e-05 0.00114052 -3.11904e-06
4.91345e-05 -3.11904e-06 0.00114461
0.000878137 0.000116514 -7.46209e-07
0.000116514 3.24392e-05 -1.60737e-06
-7.46209e-07 -1.60737e-06 -9.11944e-05
0.00100061 0.000114707 -3.14273e-08
0.000114707 0.000134681 -8.7896e-07
-3.14273e-08 -8.7896e-07 2.24671e-05
0.00110154 0.00010671 -9.60007e-07
0.00010671 0.000181506 -7.81946e-07
-9.60007e-07 -7.81946e-07 8.1784e-05
0.00109381 0.000114085 -3.41542e-07
0.000114085 0.000194151 -2.76406e-07
-3.41542e-07 -2.76406e-07 9.32784e-05
0.000910054 5.56883e-05 -8.82707e-07
5.56883e-05 9.08385e-05 -4.70544e-07
-8.82707e-07 -4.70544e-07 1.09607e-06
0.000778126 1.81947e-05 -2.12338e-06
1.81947e-05 2.70111e-05 -1.70358e-06
-2.12338e-06 -1.70358e-06 -4.46277e-05
0.000772245 1.29353e-05 3.06292e-08
1.29353e-05 2.3355e-05 1.44426e-07
3.06292e-08 1.44426e-07 -6.03505e-05
0.000737094 -3.40825e-05 -3.9953e-07
-3.40825e-05 5.87934e-06 -2.12616e-08
-3.9953e-07 -2.12616e-08 -5.51092e-05
0.000651238 -6.92299e-05 2.08097e-07
-6.92299e-05 -2.10199e-05 -4.80221e-06
2.08097e-07 -4.80221e-06 -4.92974e-05
0.000745643 -5.45964e-05 6.63512e-07
-5.45964e-05 8.59406e-06 2.44654e-06
6.63512e-07 2.44654e-06 -4.30157e-05
0.000664062 -5.62239e-05 1.5671e-07
-5.62239e-05 -2.5817e-05 -1.09664e-07
1.5671e-07 -1.09664e-07 -4.57671e-05
0.00239096 -7.51656e-05 -3.74981e-05
-7.51656e-05 0.000918475 -2.67599e-06
-3.74981e-05 -2.67599e-06 0.000926729
0.000673286 -4.49815e-05 2.40961e-06
-4.49815e-05 -3.17848e-05 3.72037e-06
2.40961e-06 3.72037e-06 -4.65692e-05
0.00225547 -6.73686e-05 -4.8567e-07
-6.73686e-05 0.000837188 9.06045e-08
-4.8567e-07 9.06045e-08 0.000848096
0.00224216 -6.03845e-05 2.84746e-05
-6.03845e-05 0.000820923 3.31495e-06
2.84746e-05 3.31495e-06 0.000833894
0.000442143 -3.63126e-06 3.63937e-06
-3.63126e-06 -0.000445547 -2.23589e-07
3.63937e-06 -2.23589e-07 -0.000481575
0.00342763 -2.19287e-05 2.18756e-06
-2.19287e-05 0.000421286 1.13798e-05
2.18756e-06 1.13798e-05 4.19453e-05
0.00605334 0.000184637 -7.99936e-05
0.000184637 0.00181168 -1.73758e-05
-7.99936e-05 -1.73758e-05 0.000936854
0.000703327 0.000106749 2.5966e-06
0.000106749 -8.71828e-05 4.40354e-07
2.5966e-06 4.40354e-07 -0.000210826
0.00143405 0.000154394 2.60726e-06
0.000154394 0.000179934 -2.22671e-06
2.60726e-06 -2.22671e-06 4.12164e-05
0.000832512 0.000118732 -1.47544e-07
0.000118732 1.32966e-05 -7.6567e-07
-1.47544e-07 -7.6567e-07 -0.000115162
0.00105473 0.00011936 -1.07478e-06
0.00011936 0.000201085 -8.20215e-07
-1.07478e-06 -8.20215e-07 8.86636e-05
0.000942137 0.000117448 -8.62554e-07
0.000117448 0.000122298 -7.83394e-07
-8.62554e-07 -7.83394e-07 1.33759e-06
0.000962305 0.000124956 3.01244e-06
0.000124956 9.47366e-05 1.07023e-06
3.01244e-06 1.07023e-06 -1.96752e-05
0.00181329 0.000195695 -3.90719e-06
0.000195695 0.000275967 -4.86587e-06
-3.90719e-06 -4.86587e-06 0.000145514
0.00155669 0.000164706 3.97858e-07
0.000164706 0.000389496 1.47762e-06
3.97858e-07 1.47762e-06 0.00027223
0.000935008 0.000151103 -2.79545e-06
0.000151103 -2.8439e-05 8.49407e-06
-2.79545e-06 8.49407e-06 -0.000144589
0.0016962 0.00020763 -1.22209e-06
0.00020763 0.000199444 3.87642e-07
-1.22209e-06 3.87642e-07 6.26703e-05
0.00194073 0.000200401 -5.03437e-06
0.000200401 0.000180172 7.04385e-07
-5.03437e-06 7.04385e-07 4.40864e-05
0.00138755 6.8248e-05 1.3288e-05
6.8248e-05 -0.000176238 3.70307e-06
1.3288e-05 3.70307e-06 -0.000262142
0.00186624 0.000191273 6.58337e-06
0.000191273 0.000131607 2.81487e-06
6.58337e-06 2.81487e-06 3.98942e-06
0.00126316 0.000208367 -4.84495e-06
0.000208367 -6.24314e-05 3.99018e-07
-4.84495e-06 3.99018e-07 -0.000202617
0.000927364 8.15195e-05 -2.06572e-06
8.15195e-05 -0.000120359 -1.85621e-07
-2.06572e-06 -1.85621e-07 -0.000131381
0.00485995 -4.84096e-05 4.56368e-05
-4.84096e-05 0.000704332 1.51859e-05
4.56368e-05 1.51859e-05 0.000320207
0.00139806 0.000195712 2.86035e-06
0.000195712 8.04683e-05 -7.93283e-06
2.86035e-06 -7.93283e-06 4.52251e-05
0.00161468 -2.20036e-05 7.84654e-06
-2.20036e-05 5.00067e-05 -6.45562e-07
7.84654e-06 -6.45562e-07 -1.79336e-05
0.00201386 -5.17821e-05 -2.31051e-06
-5.17821e-05 0.00020728 3.06144e-07
-2.31051e-06 3.06144e-07 8.79492e-05
0.0010738 8.50119e-05 5.55499e-05
8.50119e-05 -0.000415868 -3.59713e-06
5.55499e-05 -3.59713e-06 -0.000838
-0.000826275 -2.74864e-05 -1.17124e-05
-2.74864e-05 -0.00124928 6.63073e-06
-1.17124e-05 6.63073e-06 -0.00125189
0.00247313 2.70443e-05 -3.99038e-05
2.70443e-05 0.000436926 4.62774e-06
-3.99038e-05 4.62774e-06 0.00036282
0.00134032 -2.03113e-05 6.10911e-07
-2.03113e-05 -0.000264987 2.62851e-06
6.10911e-07 2.62851e-06 -0.000319105
0.00223976 -3.11013e-06 5.1913e-07
-3.11013e-06 0.000271053 4.30969e-07
5.1913e-07 4.30969e-07 0.000193992
0.00193872 -5.37094e-05 1.21294e-06
-5.37094e-05 0.000106582 5.70123e-07
1.21294e-06 5.70123e-07 3.3938e-05
0.00155278 -2.11965e-05 6.34781e-07
-2.11965e-05 -0.000102775 -6.60478e-07
6.34781e-07 -6.60478e-07 -0.000180276
0.00184867 -5.89331e-05 5.44484e-06
-5.89331e-05 -3.26861e-05 1.49068e-06
5.44484e-06 1.49068e-06 -7.73353e-05
0.00177109 -4.82243e-05 -1.8127e-06
-4.82243e-05 5.79438e-05 -1.41478e-07
-1.8127e-06 -1.41478e-07 -8.2515e-06
0.0017765 -5.22695e-05 1.41429e-06
-5.22695e-05 9.40745e-05 3.06914e-07
1.41429e-06 3.06914e-07 8.15011e-06
0.00186777 -7.75921e-05 -1.74587e-06
-7.75921e-05 9.39652e-05 -2.39907e-07
-1.74587e-06 -2.39907e-07 2.18107e-05
0.00173189 -5.98914e-05 -5.6131e-07
-5.98914e-05 9.91299e-05 -1.51316e-07
-5.6131e-07 -1.51316e-07 1.10333e-05
0.00163606 -5.40458e-05 4.44303e-07
-5.40458e-05 6.95591e-05 -2.39665e-07
4.44303e-07 -2.39665e-07 -3.23058e-05
0.00173339 -9.31569e-05 -3.54553e-06
-9.31569e-05 9.94554e-05 -1.61686e-07
-3.54553e-06 -1.61686e-07 7.98472e-06
0.00165812 -8.25473e-05 1.40126e-07
-8.25473e-05 9.56813e-05 2.44895e-07
1.40126e-07 2.44895e-07 -9.22427e-06
0.00164628 -8.64879e-05 -7.55083e-07
-8.64879e-05 0.000113553 -6.26689e-08
-7.55083e-07 -6.26689e-08 2.68299e-06
0.00169507 -0.000111518 -8.51841e-07
-0.000111518 0.000131274 -7.53352e-07
-8.51841e-07 -7.53352e-07 2.67021e-05
0.00157546 -0.000109353 2.89924e-07
-0.000109353 9.8828e-05 1.59815e-07
2.89924e-07 1.59815e-07 -1.37101e-05
0.00151533 -0.000109076 -1.93692e-06
-0.000109076 0.000105613 5.02372e-07
-1.93692e-06 5.02372e-07 -1.03616e-05
0.00140558 -0.000116454 -9.90861e-08
-0.000116454 4.37811e-05 -1.6005e-07
-9.90861e-08 -1.6005e-07 -6.95354e-05
0.00133939 -0.000114245 -1.45849e-07
-0.000114245 4.86753e-05 -1.8501e-07
-1.45849e-07 -1.8501e-07 -6.94958e-05
0.00130784 -0.000109856 -4.7079e-06
-0.000109856 8.29049e-05 1.39341e-06
-4.7079e-06 1.39341e-06 -2.98366e-05
0.00115928 -0.000120945 3.16679e-06
-0.000120945 -4.15226e-06 -4.49275e-07
3.16679e-06 -4.49275e-07 -0.000126977
0.00109391 -0.000111224 2.50914e-07
-0.000111224 8.58048e-06 -3.10386e-08
2.50914e-07 -3.10386e-08 -0.000106017
0.00100155 -9.24344e-05 -6.72932e-06
-9.24344e-05 2.52349e-05 3.08556e-06
-6.72932e-06 3.08556e-06 -6.81143e-05
0.000519295 -6.20251e-05 -9.30398e-06
-6.20251e-05 -0.000111657 7.1544e-06
-9.30398e-06 7.1544e-06 -0.000165617
0.000949062 -9.34541e-05 2.74439e-07
-9.34541e-05 3.99628e-05 7.48484e-08
2.74439e-07 7.48484e-08 -5.34583e-05
0.00105921 -0.000118544 2.28948e-06
-0.000118544 4.88184e-05 -4.78293e-07
2.28948e-06 -4.78293e-07 -6.70489e-05
0.00340856 0.000124561 -5.92444e-05
0.000124561 0.00149821 2.83799e-06
-5.92444e-05 2.83799e-06 0.00148878
0.00067707 -2.91474e-05 -2.66429e-07
-2.91474e-05 -2.21413e-05 -2.65586e-09
-2.66429e-07 -2.65586e-09 -7.18822e-05
0.000976084 -8.5163e-05 4.49023e-06
-8.5163e-05 9.22433e-05 -2.45065e-06
4.49023e-06 -2.45065e-06 1.91262e-06
0.00324489 0.000108618 1.93503e-06
0.000108618 0.00139715 2.78811e-07
1.93503e-06 2.78811e-07 0.00139304
0.000736308 -7.34983e-06 7.11726e-06
-7.34983e-06 7.90358e-06 -5.67698e-06
7.11726e-06 -5.67698e-06 -3.38592e-05
0.00304773 9.41767e-05 5.71188e-05
9.41767e-05 0.00128165 -3.11504e-06
5.71188e-05 -3.11504e-06 0.00128214
0.000585767 0.000110292 -1.48356e-06
0.000110292 -0.000202911 -1.08319e-06
-1.48356e-06 -1.08319e-06 -0.000336288
0.000682516 0.00010653 -7.59e-08
0.00010653 -7.35676e-05 -1.61652e-07
-7.59e-08 -1.61652e-07 -0.000197981
0.00113185 0.000117463 -2.04391e-06
0.000117463 0.00016636 -1.06737e-06
-2.04391e-06 -1.06737e-06 5.61245e-05
0.000911341 0.00010921 -3.13724e-07
0.00010921 8.7582e-05 -1.48153e-07
-3.13724e-07 -1.48153e-07 -2.38016e-05
0.00098353 9.94253e-05 -2.42088e-07
9.94253e-05 0.000119901 -3.1076e-07
-2.42088e-07 -3.1076e-07 2.1126e-05
0.000901798 4.56345e-05 -3.05335e-06
4.56345e-05 9.00859e-05 -1.61985e-06
-3.05335e-06 -1.61985e-06 1.01183e-05
0.000881056 5.72222e-05 6.91236e-08
5.72222e-05 7.53035e-05 -5.31436e-07
6.91236e-08 -5.31436e-07 -1.36699e-05
0.000770335 3.51636e-06 -1.64055e-08
3.51636e-06 2.62065e-05 9.67726e-08
-1.64055e-08 9.67726e-08 -4.63399e-05
0.000647116 -4.9736e-05 -3.04832e-06
-4.9736e-05 -2.41412e-05 -4.72699e-06
-3.04832e-06 -4.72699e-06 -5.72297e-05
0.000751632 -5.58287e-05 6.98891e-07
-5.58287e-05 1.57464e-05 2.55543e-06
6.98891e-07 2.55543e-06 -4.6003e-05
0.000621149 -6.68881e-05 -4.1858e-08
-6.68881e-05 -3.87835e-05 -1.48861e-07
-4.1858e-08 -1.48861e-07 -6.6165e-05
0.0025756 -8.37709e-05 -4.33769e-05
-8.37709e-05 0.00102338 -2.61412e-06
-4.33769e-05 -2.61412e-06 0.00102871
0.00063625 -5.23273e-05 2.29907e-06
-5.23273e-05 -4.1959e-05 3.86423e-06
2.29907e-06 3.86423e-06 -6.09765e-05
0.00235392 -7.52417e-05 -5.59918e-07
-7.52417e-05 0.000898068 9.1048e-08
-5.59918e-07 9.1048e-08 0.000906491
0.00225353 -6.70923e-05 3.11023e-05
-6.70923e-05 0.000835077 3.02575e-06
3.11023e-05 3.02575e-06 0.000846179
0.00141599 1.05927e-05 1.21993e-05
1.05927e-05 -0.000145961 9.3214e-07
1.21993e-05 9.3214e-07 -0.000214228
0.00115576 -3.46572e-05 -1.7768e-06
-3.46572e-05 -0.000160435 3.14835e-06
-1.7768e-06 3.14835e-06 -0.000216678
0.00258974 -7.41199e-05 7.42683e-05
-7.41199e-05 3.14798e-05 8.68557e-06
7.42683e-05 8.68557e-06 -0.000278453
0.00179282 0.0001669 6.21744e-07
0.0001669 0.000292024 -3.2474e-06
6.21744e-07 -3.2474e-06 0.000160781
0.000750899 0.000112488 -1.50159e-06
0.000112488 -4.58069e-05 1.47802e-06
-1.50159e-06 1.47802e-06 -0.000163483
0.00109583 0.000135061 -3.38724e-06
0.000135061 -0.000101898 2.02096e-06
-3.38724e-06 2.02096e-06 -0.000226715
0.00155312 0.0001608 5.02886e-07
0.0001608 0.000237542 1.4287e-07
5.02886e-07 1.4287e-07 9.83733e-05
0.00040688 9.76875e-05 -2.94495e-06
9.76875e-05 -0.000201939 2.18239e-06
-2.94495e-06 2.18239e-06 -0.000328727
0.00181923 0.000166925 -4.56722e-06
0.000166925 0.000126087 -1.02643e-06
-4.56722e-06 -1.02643e-06 8.68063e-07
0.00123206 0.000142644 -1.10093e-06
0.000142644 0.000223862 6.35254e-07
-1.10093e-06 6.35254e-07 0.000105529
0.00174324 0.000190327 2.12595e-07
0.000190327 0.000232956 -1.51911e-06
2.12595e-07 -1.51911e-06 0.000100397
0.00178452 0.000105332 -2.33278e-08
0.000105332 8.01013e-05 1.71467e-06
-2.33278e-08 1.71467e-06 -2.88483e-05
0.00172937 0.000208748 2.75409e-06
0.000208748 0.000234669 3.78529e-06
2.75409e-06 3.78529e-06 0.000100743
0.00200742 0.000202998 -1.93477e-06
0.000202998 0.000207373 -1.94599e-07
-1.93477e-06 -1.94599e-07 7.1996e-05
0.00150986 7.898e-05 -3.37121e-07
7.898e-05 -9.11726e-05 -6.63142e-07
-3.37121e-07 -6.63142e-07 -0.000178325
0.0017024 0.000177448 -1.65908e-06
0.000177448 6.67131e-05 -2.32038e-06
-1.65908e-06 -2.32038e-06 -6.07238e-05
0.00101108 7.63518e-05 -7.91545e-06
7.63518e-05 -7.64991e-05 -4.54421e-06
-7.91545e-06 -4.54421e-06 -9.21446e-05
0.00171527 -1.00037e-05 1.38794e-07
-1.00037e-05 7.58193e-06 2.99602e-07
1.38794e-07 2.99602e-07 -7.24479e-05
0.00185808 -6.60943e-06 -1.38014e-06
-6.60943e-06 0.000176377 3.46836e-09
-1.38014e-06 3.46836e-09 0.000108476
0.00112662 -4.55519e-07 -1.93301e-05
-4.55519e-07 -0.000210938 1.74728e-06
-1.93301e-05 1.74728e-06 -0.000353434
0.00128222 -3.79305e-05 -4.70781e-06
-3.79305e-05 -0.00032608 3.03178e-06
-4.70781e-06 3.03178e-06 -0.00037102
0.00199764 -1.48164e-05 2.46504e-06
-1.48164e-05 0.00010463 7.04113e-07
2.46504e-06 7.04113e-07 2.77634e-05
0.00205082 -4.91802e-05 -2.1445e-06
-4.91802e-05 0.000164332 -5.14579e-08
-2.1445e-06 -5.14579e-08 9.33469e-05
0.00173467 -2.33779e-05 1.23454e-06
-2.33779e-05 -1.07001e-06 3.94829e-07
1.23454e-06 3.94829e-07 -7.72154e-05
0.00173253 -3.22194e-05 6.98213e-07
-3.22194e-05 3.6177e-05 -5.66359e-07
6.98213e-07 -5.66359e-07 -4.97122e-05
0.00172128 -4.90875e-05 -2.13818e-06
-4.90875e-05 2.8271e-05 -3.5382e-07
-2.13818e-06 -3.5382e-07 -3.77776e-05
0.00180488 -5.00747e-05 2.54721e-07
-5.00747e-05 0.00011192 -6.10842e-08
2.54721e-07 -6.10842e-08 2.58918e-05
0.00176476 -3.68356e-05 2.34191e-08
-3.68356e-05 0.000101914 -2.957e-07
2.34191e-08 -2.957e-07 2.51883e-06
0.00173068 -6.05329e-05 -3.20852e-06
-6.05329e-05 9.82669e-05 2.08711e-08
-3.20852e-06 2.08711e-08 9.21732e-06
0.00165463 -5.38413e-05 -2.01892e-07
-5.38413e-05 8.21596e-05 -3.25294e-08
-2.01892e-07 -3.25294e-08 -2.03118e-05
0.00172745 -5.2164e-05 -8.16787e-07
-5.2164e-05 0.00014505 1.36878e-07
-8.16787e-07 1.36878e-07 3.34241e-05
0.00171718 -8.29811e-05 -9.23174e-10
-8.29811e-05 0.000125666 1.5534e-07
-9.23174e-10 1.5534e-07 2.09022e-05
0.00161882 -8.52025e-05 8.01874e-08
-8.52025e-05 9.94317e-05 -9.77141e-09
8.01874e-08 -9.77141e-09 -1.14322e-05
0.00153855 -8.82082e-05 -2.22368e-06
-8.82082e-05 9.19046e-05 -1.55956e-07
-2.22368e-06 -1.55956e-07 -2.1128e-05
0.00157875 -0.000108699 7.69241e-07
-0.000108699 0.000100106 -7.84472e-08
7.69241e-07 -7.84472e-08 -1.24458e-05
0.00150059 -0.00010798 1.20186e-07
-0.00010798 9.79831e-05 2.719e-07
1.20186e-07 2.719e-07 -1.79009e-05
0.00136921 -0.000100802 -4.51573e-06
-0.000100802 7.94555e-05 1.31913e-06
-4.51573e-06 1.31913e-06 -3.24087e-05
0.00120229 -0.000109445 1.98034e-06
-0.000109445 -2.31246e-05 -5.66534e-07
1.98034e-06 -5.66534e-07 -0.000140936
0.00128796 -0.00010834 1.98935e-08
-0.00010834 7.27675e-05 -2.70095e-08
1.98935e-08 -2.70095e-08 -3.97922e-05
0.00105873 -8.72882e-05 -7.96014e-06
-8.72882e-05 2.00262e-05 3.3377e-06
-7.96014e-06 3.3377e-06 -7.32808e-05
0.00086533 -0.000101245 4.07512e-06
-0.000101245 -0.00011197 -1.06849e-06
4.07512e-06 -1.06849e-06 -0.000226372
0.00100821 -9.27996e-05 2.89739e-07
-9.27996e-05 2.87226e-05 2.89541e-09
2.89739e-07 2.89541e-09 -6.47691e-05
0.00187396 -1.85328e-05 -8.23157e-06
-1.85328e-05 0.000617011 5.13574e-06
-8.23157e-06 5.13574e-06 0.000564027
0.00109816 2.23658e-05 -7.11773e-05
2.23658e-05 0.000240879 8.062e-06
-7.11773e-05 8.062e-06 0.000221201
0.00131961 -3.82815e-05 -5.0563e-07
-3.82815e-05 0.000319513 -8.94283e-08
-5.0563e-07 -8.94283e-08 0.000266544
0.000984535 -9.6277e-05 5.51217e-06
-9.6277e-05 5.93138e-05 -2.48563e-06
5.51217e-06 -2.48563e-06 -3.45583e-05
0.00352808 0.000114831 4.50303e-06
0.000114831 0.00156326 3.33869e-07
4.50303e-06 3.33869e-07 0.00155459
0.000770725 -4.59284e-05 8.93349e-06
-4.59284e-05 2.14451e-05 -6.44384e-06
8.93349e-06 -6.44384e-06 -2.79578e-05
0.00328381 9.76819e-05 6.82274e-05
9.76819e-05 0.0014185 -3.18273e-06
6.82274e-05 -3.18273e-06 0.0014154
0.00144536 0.000132051 -2.12074e-08
0.000132051 5.16605e-05 2.89532e-07
-2.12074e-08 2.89532e-07 -6.55264e-05
0.000889916 0.000125456 1.31839e-06
0.000125456 -0.000120792 1.65944e-06
1.31839e-06 1.65944e-06 -0.000248557
0.000872122 0.000125453 -1.57258e-07
0.000125453 -5.91094e-05 -7.23797e-08
-1.57258e-07 -7.23797e-08 -0.000194278
0.00113092 0.000122765 -2.88243e-06
0.000122765 0.000118654 -7.79326e-07
-2.88243e-06 -7.79326e-07 1.92925e-06
0.000488672 9.66877e-05 2.61981e-07
9.66877e-05 -0.000178582 1.6614e-06
2.61981e-07 1.6614e-06 -0.000303804
0.00102705 0.000110625 -4.18051e-07
0.000110625 0.000112853 -8.4661e-08
-4.18051e-07 -8.4661e-08 3.47441e-06
0.00097353 7.19263e-05 -3.7774e-06
7.19263e-05 0.00011193 -1.68286e-06
-3.7774e-06 -1.68286e-06 2.58502e-05
0.000875326 9.25738e-05 9.30857e-07
9.25738e-05 6.35449e-05 3.97902e-07
9.30857e-07 3.97902e-07 -3.43315e-05
0.000814224 3.84401e-05 -1.9657e-07
3.84401e-05 4.47379e-05 1.10307e-07
-1.9657e-07 1.10307e-07 -3.4817e-05
0.000703252 -1.43571e-05 -5.64254e-06
-1.43571e-05 9.42774e-07 -4.96454e-06
-5.64254e-06 -4.96454e-06 -3.82091e-05
0.000778766 -1.04856e-05 1.13193e-06
-1.04856e-05 3.11988e-05 1.81746e-06
1.13193e-06 1.81746e-06 -4.03054e-05
0.000599997 -6.17351e-05 -6.05626e-07
-6.17351e-05 -4.74874e-05 -1.1651e-07
-6.05626e-07 -1.1651e-07 -8.13745e-05
0.00278791 -9.3145e-05 -5.00715e-05
-9.3145e-05 0.00114366 -2.65091e-06
-5.00715e-05 -2.65091e-06 0.00114534
0.00058929 -6.36245e-05 1.34352e-06
-6.36245e-05 -5.7599e-05 4.39632e-06
1.34352e-06 4.39632e-06 -8.38797e-05
0.00252161 -8.42737e-05 -7.19098e-07
-8.42737e-05 0.000994524 1.13938e-07
-7.19098e-07 1.13938e-07 0.00100002
0.00231191 -7.47027e-05 3.35823e-05
-7.47027e-05 0.000874809 2.72273e-06
3.35823e-05 2.72273e-06 0.00088354
0.00178636 4.2676e-05 1.02228e-06
4.2676e-05 5.69476e-05 1.11799e-06
1.02228e-06 1.11799e-06 -3.31826e-05
0.00194885 4.77999e-06 -1.02886e-06
4.77999e-06 0.000161341 -7.4513e-07
-1.02886e-06 -7.4513e-07 9.53474e-05
0.00242138 -7.70943e-05 -1.01129e-05
-7.70943e-05 0.0004026 -2.68925e-07
-1.01129e-05 -2.68925e-07 0.000323272
0.00169563 0.000141758 -5.43536e-06
0.000141758 0.00010224 -2.57985e-07
-5.43536e-06 -2.57985e-07 -1.55053e-05
0.00171139 0.000163442 -1.26262e-06
0.000163442 0.000264028 2.95688e-07
-1.26262e-06 2.95688e-07 0.000136239
0.000737414 0.000115696 -8.11021e-06
0.000115696 -3.73851e-05 3.40222e-06
-8.11021e-06 3.40222e-06 -0.000148837
0.00153224 0.000150383 2.28902e-06
0.000150383 0.000126537 8.57193e-07
2.28902e-06 8.57193e-07 2.69232e-06
0.00168276 0.000167821 -1.17307e-06
0.000167821 0.000300833 3.01647e-07
-1.17307e-06 3.01647e-07 0.000161168
0.00204617 0.000107583 -3.77296e-06
0.000107583 0.000202227 9.95776e-07
-3.77296e-06 9.95776e-07 9.26882e-05
0.00174743 0.000167527 -2.47459e-06
0.000167527 8.9138e-05 -4.66433e-07
-2.47459e-06 -4.66433e-07 -3.83806e-05
0.00167567 0.000185511 3.17526e-06
0.000185511 0.000191381 2.72592e-06
3.17526e-06 2.72592e-06 5.64721e-05
0.00177541 0.000106539 -5.63205e-07
0.000106539 6.9176e-05 4.0775e-08
-5.63205e-07 4.0775e-08 -4.02024e-05
0.00205315 0.000203685 4.06991e-06
0.000203685 0.000220675 -4.97343e-07
4.06991e-06 -4.97343e-07 8.63675e-05
0.00165923 8.86771e-05 -1.58123e-05
8.86771e-05 -7.20621e-06 -5.6999e-06
-1.58123e-05 -5.6999e-06 -9.46957e-05
0.00191624 -3.41069e-07 -9.38147e-08
-3.41069e-07 0.000120816 6.28333e-08
-9.38147e-08 6.28333e-08 3.36912e-05
0.00175975 -5.64378e-06 1.9038e-07
-5.64378e-06 3.28368e-05 -4.49662e-07
1.9038e-07 -4.49662e-07 -4.63181e-05
0.00207416 8.24377e-06 -9.7557e-06
8.24377e-06 0.000286727 1.07983e-06
-9.7557e-06 1.07983e-06 0.000218973
0.00216796 -4.60829e-05 -4.98676e-06
-4.60829e-05 0.000226367 -1.04902e-07
-4.98676e-06 -1.04902e-07 0.000157068
0.00192513 -2.48354e-05 1.52461e-06
-2.48354e-05 0.00010384 9.72744e-07
1.52461e-06 9.72744e-07 2.91784e-05
0.00181727 -3.13947e-05 -2.45156e-07
-3.13947e-05 7.54429e-05 -1.75791e-07
-2.45156e-07 -1.75791e-07 -8.50115e-06
0.00183223 -1.71926e-05 -4.29556e-08
-1.71926e-05 0.00010891 -4.62936e-07
-4.29556e-08 -4.62936e-07 8.51282e-06
0.00183794 -4.82765e-05 -7.11747e-08
-4.82765e-05 0.00013187 5.43939e-08
-7.11747e-08 5.43939e-08 4.57237e-05
0.00175506 -3.82024e-05 -5.35698e-07
-3.82024e-05 0.000102481 -8.94413e-08
-5.35698e-07 -8.94413e-08 2.85795e-06
0.00172664 -2.65909e-05 -3.45651e-07
-2.65909e-05 0.00012058 9.50614e-08
-3.45651e-07 9.50614e-08 7.58534e-06
0.00167899 -5.38913e-05 -5.16864e-07
-5.38913e-05 9.76005e-05 1.18844e-07
-5.16864e-07 1.18844e-07 -5.45893e-06
0.00164165 -5.11554e-05 -1.22484e-07
-5.11554e-05 0.000100573 -1.24632e-07
-1.22484e-07 -1.24632e-07 -1.10504e-05
0.00155459 -5.74264e-05 -2.07937e-06
-5.74264e-05 8.8872e-05 4.10399e-07
-2.07937e-06 4.10399e-07 -2.56072e-05
0.00159205 -8.38178e-05 1.09382e-06
-8.38178e-05 8.56503e-05 2.79663e-08
1.09382e-06 2.79663e-08 -2.5196e-05
0.00154549 -8.76994e-05 -8.04578e-08
-8.76994e-05 9.53567e-05 -1.0232e-07
-8.04578e-08 -1.0232e-07 -1.76331e-05
0.00140787 -8.41397e-05 -4.58261e-06
-8.41397e-05 7.47836e-05 6.10573e-07
-4.58261e-06 6.10573e-07 -3.5034e-05
0.00148619 -0.000106922 2.4428e-06
-0.000106922 9.05194e-05 -7.27321e-09
2.4428e-06 -7.27321e-09 -2.52771e-05
0.00135663 -9.96231e-05 9.08578e-08
-9.96231e-05 7.29636e-05 2.52692e-07
9.08578e-08 2.52692e-07 -3.87333e-05
0.00111537 -8.07055e-05 -8.65952e-06
-8.07055e-05 2.14318e-05 3.1978e-06
-8.65952e-06 3.1978e-06 -7.2649e-05
0.00126865 -0.00010686 4.36011e-06
-0.00010686 6.29562e-05 -1.36234e-06
4.36011e-06 -1.36234e-06 -4.94293e-05
0.00106068 -8.67649e-05 3.33755e-07
-8.67649e-05 2.04329e-05 -3.60243e-08
3.33755e-07 -3.60243e-08 -7.28818e-05
0.00200052 -1.81887e-05 -9.05118e-06
-1.81887e-05 0.000668435 4.94074e-06
-9.05118e-06 4.94074e-06 0.000616197
0.00100823 -9.30508e-05 6.78159e-06
-9.30508e-05 2.90179e-05 -2.9125e-06
6.78159e-06 -2.9125e-06 -6.46658e-05
0.00208488 -4.55521e-05 2.24842e-05
-4.55521e-05 0.000721718 -1.29417e-06
2.24842e-05 -1.29417e-06 0.00067142
0.00131533 -2.24556e-05 -9.13599e-05
-2.24556e-05 0.000362523 1.00027e-05
-9.13599e-05 1.00027e-05 0.00034262
0.00244309 4.47594e-05 -7.29295e-05
4.47594e-05 0.000979579 1.77819e-06
-7.29295e-05 1.77819e-06 0.000965389
0.00214384 -6.03845e-05 4.76288e-05
-6.03845e-05 0.000757547 -5.9161e-06
4.76288e-05 -5.9161e-06 0.000712428
0.00361368 8.74048e-05 8.2713e-05
8.74048e-05 0.00160862 -4.33678e-06
8.2713e-05 -4.33678e-06 0.00160212
0.00164775 0.000119143 -3.36047e-06
0.000119143 9.11835e-05 -2.82446e-06
-3.36047e-06 -2.82446e-06 -2.68791e-05
0.00164731 0.000143612 3.65439e-06
0.000143612 0.000221289 3.09044e-07
3.65439e-06 3.09044e-07 0.000101853
0.00140263 0.000131851 9.70254e-07
0.000131851 3.40131e-05 1.16513e-06
9.70254e-07 1.16513e-06 -7.68531e-05
0.00116833 0.000127359 -3.33965e-06
0.000127359 7.84433e-05 -7.04705e-07
-3.33965e-06 -7.04705e-07 -4.05596e-05
0.00119592 0.000140359 -9.95015e-08
0.000140359 3.94049e-05 7.44664e-08
-9.95015e-08 7.44664e-08 -8.94303e-05
0.00112388 0.000139163 1.97277e-06
0.000139163 6.66398e-05 5.46533e-07
1.97277e-06 5.46533e-07 -7.02346e-05
0.00110127 0.000121473 -3.62621e-07
0.000121473 0.000104651 5.05489e-08
-3.62621e-07 5.05489e-08 -1.2279e-05
0.00098694 9.15656e-05 -4.59479e-06
9.15656e-05 8.78308e-05 -2.06348e-06
-4.59479e-06 -2.06348e-06 -4.10833e-06
0.000919668 0.000103695 1.20116e-06
0.000103695 5.78565e-05 8.519e-07
1.20116e-06 8.519e-07 -5.06442e-05
0.000855626 6.6794e-05 -3.06082e-07
6.6794e-05 4.9028e-05 -4.43024e-08
-3.06082e-07 -4.43024e-08 -3.57989e-05
0.000762074 2.09617e-05 -7.30707e-06
2.09617e-05 2.74868e-05 -5.46256e-06
-7.30707e-06 -5.46256e-06 -1.88009e-05
0.000704274 3.13023e-05 1.55139e-06
3.13023e-05 -1.29161e-05 1.39264e-06
1.55139e-06 1.39264e-06 -9.17662e-05
0.00062616 -3.03519e-05 1.18707e-07
-3.03519e-05 -3.71181e-05 -1.85774e-07
1.18707e-07 -1.85774e-07 -7.64848e-05
0.00302653 -0.000100502 -6.0023e-05
-0.000100502 0.00128281 -2.6198e-06
-6.0023e-05 -2.6198e-06 0.00128021
0.000541455 -7.29143e-05 -8.37425e-08
-7.29143e-05 -7.54647e-05 5.15861e-06
-8.37425e-08 5.15861e-06 -0.000111173
0.00274329 -9.48708e-05 -1.1191e-06
-9.48708e-05 0.00111953 1.6319e-07
-1.1191e-06 1.6319e-07 0.00112136
0.0024781 -8.4241e-05 3.75168e-05
-8.4241e-05 0.000970977 2.47965e-06
3.75168e-05 2.47965e-06 0.000976761
0.0018901 4.66954e-05 -2.69528e-06
4.66954e-05 0.00010153 7.78172e-07
-2.69528e-06 7.78172e-07 5.76795e-06
0.00173787 4.21905e-05 6.75752e-07
4.21905e-05 3.38201e-05 -1.35999e-07
6.75752e-07 -1.35999e-07 -5.63871e-05
0.00234836 -2.44905e-07 -2.54313e-05
-2.44905e-07 0.000409325 -2.42695e-06
-2.54313e-05 -2.42695e-06 0.000345495
0.00187057 9.79946e-05 -6.32661e-07
9.79946e-05 0.000141205 7.13177e-07
-6.32661e-07 7.13177e-07 2.98989e-05
0.0017953 0.000144618 -5.93505e-07
0.000144618 0.000157231 -5.52263e-07
-5.93505e-07 -5.52263e-07 3.85066e-05
0.0016704 0.000161372 -1.93365e-06
0.000161372 0.000256652 1.60139e-06
-1.93365e-06 1.60139e-06 0.0001323
0.00192391 0.000163788 1.6945e-06
0.000163788 0.000331594 -8.50833e-07
1.6945e-06 -8.50833e-07 0.000208822
0.00190707 0.000104089 1.96438e-08
0.000104089 0.000127972 -9.1855e-08
1.96438e-08 -9.1855e-08 1.81452e-05
0.00169316 0.000168885 1.72601e-06
0.000168885 6.10378e-05 1.86362e-08
1.72601e-06 1.86362e-08 -6.87717e-05
0.00172896 0.000107031 1.48998e-06
0.000107031 4.4599e-05 -1.43091e-06
1.48998e-06 -1.43091e-06 -6.52746e-05
0.00182893 8.10931e-06 6.75213e-07
8.10931e-06 8.68587e-05 8.33849e-08
6.75213e-07 8.33849e-08 -1.09138e-05
0.00186458 6.51951e-07 -3.91053e-07
6.51951e-07 9.32084e-05 -5.83975e-08
-3.91053e-07 -5.83975e-08 4.85045e-06
0.00180505 -1.43761e-06 -2.19208e-06
-1.43761e-06 6.0765e-05 -3.42371e-08
-2.19208e-06 -3.42371e-08 -1.75673e-05
0.00175121 9.32998e-07 -4.37349e-07
9.32998e-07 6.54134e-05 -2.00208e-07
-4.37349e-07 -2.00208e-07 -3.96608e-05
0.0018762 -2.99253e-05 -7.68639e-07
-2.99253e-05 0.000102 4.46261e-07
-7.68639e-07 4.46261e-07 2.00019e-05
0.0018392 -1.69811e-05 -1.23255e-07
-1.69811e-05 0.000113459 2.81316e-07
-1.23255e-07 2.81316e-07 1.31884e-05
0.00181043 -9.13128e-06 2.77264e-07
-9.13128e-06 0.00013911 -8.09042e-07
2.77264e-07 -8.09042e-07 2.78724e-05
0.0017466 -3.93939e-05 -8.46248e-07
-3.93939e-05 0.000103849 4.73153e-07
-8.46248e-07 4.73153e-07 3.98635e-06
0.00168558 -2.64977e-05 -1.32555e-07
-2.64977e-05 9.76076e-05 1.99762e-07
-1.32555e-07 1.99762e-07 -1.54279e-05
0.00158275 -2.60356e-05 -2.56207e-06
-2.60356e-05 8.47766e-05 1.2035e-06
-2.56207e-06 1.2035e-06 -3.39643e-05
0.00154918 -4.95656e-05 6.52322e-07
-4.95656e-05 5.27526e-05 -3.9677e-07
6.52322e-07 -3.9677e-07 -5.88672e-05
0.00156646 -5.59162e-05 -3.39623e-08
-5.59162e-05 9.48863e-05 -2.86308e-07
-3.39623e-08 -2.86308e-07 -1.94906e-05
0.00142234 -6.12496e-05 -4.35033e-06
-6.12496e-05 6.94283e-05 7.30539e-07
-4.35033e-06 7.30539e-07 -4.10797e-05
0.00155138 -8.70846e-05 2.39257e-06
-8.70846e-05 9.82662e-05 -8.89223e-08
2.39257e-06 -8.89223e-08 -1.46727e-05
0.00140784 -8.33635e-05 -7.1169e-08
-8.33635e-05 7.45703e-05 5.02237e-08
-7.1169e-08 5.02237e-08 -3.51424e-05
0.00114729 -6.90688e-05 -9.05577e-06
-6.90688e-05 1.87731e-05 2.30019e-06
-9.05577e-06 2.30019e-06 -7.48898e-05
0.00134311 -9.83712e-05 4.67189e-06
-9.83712e-05 6.59627e-05 -8.09391e-07
4.67189e-06 -8.09391e-07 -4.55587e-05
0.00110924 -7.90749e-05 3.57402e-07
-7.90749e-05 1.6952e-05 2.21149e-07
3.57402e-07 2.21149e-07 -7.68671e-05
0.00213142 -4.20344e-05 -1.61892e-05
-4.20344e-05 0.000714719 3.90371e-06
-1.61892e-05 3.90371e-06 0.00066767
0.00105368 -8.59767e-05 7.87049e-06
-8.59767e-05 1.61281e-05 -3.32081e-06
7.87049e-06 -3.32081e-06 -7.71811e-05
0.00218071 -5.97449e-05 2.06009e-05
-5.97449e-05 0.00075409 -1.6618e-06
2.06009e-05 -1.6618e-06 0.000706889
0.00142247 -2.28508e-05 -9.36477e-05
-2.28508e-05 0.000419145 9.59754e-06
-9.36477e-05 9.59754e-06 0.000397765
0.00227478 -7.85064e-05 5.56222e-05
-7.85064e-05 0.000812574 -8.34058e-06
5.56222e-05 -8.34058e-06 0.000766247
0.00131066 3.23665e-05 -4.52337e-05
3.23665e-05 0.000372947 3.00192e-06
-4.52337e-05 3.00192e-06 0.000344925
0.0037087 0.000184676 7.01877e-06
0.000184676 0.00169066 -2.30708e-06
7.01877e-06 -2.30708e-06 0.00166499
0.00182366 8.84124e-05 -1.35e-06
8.84124e-05 0.00016526 -7.28292e-08
-1.35e-06 -7.28292e-08 4.81164e-05
0.00158475 0.00011551 -9.65851e-07
0.00011551 0.000107515 -2.62375e-06
-9.65851e-07 -2.62375e-06 -1.12013e-05
0.0017211 0.000122848 -2.79694e-06
0.000122848 0.000139712 8.21937e-07
-2.79694e-06 8.21937e-07 2.27004e-05
0.00168036 0.000139578 -2.24266e-06
0.000139578 0.00029291 -3.2174e-07
-2.24266e-06 -3.2174e-07 0.000177259
0.00144555 0.000138538 4.66263e-07
0.000138538 0.000111335 -1.27028e-06
4.66263e-07 -1.27028e-06 -7.46005e-06
0.00136367 0.000131836 3.02217e-06
0.000131836 1.79791e-05 1.9337e-06
3.02217e-06 1.9337e-06 -8.65186e-05
0.0010049 0.000100337 -6.22784e-06
0.000100337 5.01557e-05 -2.60887e-06
-6.22784e-06 -2.60887e-06 -4.6612e-05
0.00119565 0.000129449 -1.8679e-07
0.000129449 9.345e-05 4.89668e-08
-1.8679e-07 4.89668e-08 -2.61823e-05
0.00153068 0.000156457 3.08971e-06
0.000156457 0.000214507 -2.02771e-07
3.08971e-06 -2.02771e-07 8.45349e-05
0.00106797 0.000120094 2.36899e-06
0.000120094 8.87646e-05 9.96219e-07
2.36899e-06 9.96219e-07 -2.83727e-05
0.000917176 8.71676e-05 -3.6778e-07
8.71676e-05 5.09101e-05 -1.46751e-07
-3.6778e-07 -1.46751e-07 -4.04453e-05
0.00078769 6.38584e-05 -1.00797e-05
6.38584e-05 3.68457e-05 -6.36743e-06
-1.00797e-05 -6.36743e-06 -1.68933e-05
0.000747667 6.17124e-05 2.68112e-06
6.17124e-05 -8.55108e-06 1.41206e-06
2.68112e-06 1.41206e-06 -9.22833e-05
0.000670515 1.6353e-05 7.22707e-08
1.6353e-05 -1.54304e-05 -4.43742e-08
7.22707e-08 -4.43742e-08 -6.2242e-05
0.00332968 -8.95674e-05 -7.52028e-05
-8.95674e-05 0.00146058 -3.56828e-06
-7.52028e-05 -3.56828e-06 0.00145458
0.000563645 -4.7337e-05 1.69601e-06
-4.7337e-05 -6.62433e-05 5.3614e-06
1.69601e-06 5.3614e-06 -0.000106491
0.00298799 -0.000107454 -1.72785e-06
-0.000107454 0.00126103 2.55492e-07
-1.72785e-06 2.55492e-07 0.00125794
0.00270661 -9.56568e-05 4.24649e-05
-9.56568e-05 0.00109937 2.37042e-06
4.24649e-05 2.37042e-06 0.00110155
0.00178241 4.61335e-05 2.35111e-07
4.61335e-05 6.75411e-05 6.39728e-07
2.35111e-07 6.39728e-07 -3.47896e-05
0.00183249 4.85746e-05 -7.15544e-07
4.85746e-05 6.92656e-05 1.63627e-07
-7.15544e-07 1.63627e-07 -2.65727e-05
0.00171957 4.18481e-05 -6.77418e-07
4.18481e-05 2.26504e-05 -1.41467e-06
-6.77418e-07 -1.41467e-06 -6.75868e-05
0.00185054 9.63671e-05 7.91497e-07
9.63671e-05 0.000127201 -9.27593e-08
7.91497e-07 -9.27593e-08 1.74458e-05
0.0019098 0.000148341 1.07304e-06
0.000148341 0.000220257 -6.21435e-07
1.07304e-06 -6.21435e-07 0.000100458
0.00177424 0.000100353 2.89396e-06
0.000100353 5.75752e-05 -1.13694e-06
2.89396e-06 -1.13694e-06 -5.24855e-05
0.00184563 1.17618e-05 -2.60524e-07
1.17618e-05 0.000110862 1.22809e-07
-2.60524e-07 1.22809e-07 6.60152e-06
0.00186265 9.97738e-06 3.50928e-07
9.97738e-06 0.000104209 -1.58681e-07
3.50928e-07 -1.58681e-07 5.69535e-06
0.00182765 2.34661e-06 8.21288e-07
2.34661e-06 7.21497e-05 -8.08181e-08
8.21288e-07 -8.08181e-08 -1.74375e-05
0.0017886 -7.06081e-06 -8.55809e-07
-7.06081e-06 8.55453e-05 1.14902e-07
-8.55809e-07 1.14902e-07 -1.85796e-05
0.00178124 -2.6154e-06 7.27763e-07
-2.6154e-06 0.0001105 -5.81034e-07
7.27763e-07 -5.81034e-07 -8.06339e-07
0.00184673 -1.67837e-05 -3.10642e-07
-1.67837e-05 0.00011827 6.51972e-07
-3.10642e-07 6.51972e-07 1.81308e-05
0.00176674 -9.05107e-06 1.46226e-07
-9.05107e-06 0.000114414 9.45248e-08
1.46226e-07 9.45248e-08 1.93899e-06
0.00164158 -6.1485e-06 -4.31292e-07
-6.1485e-06 9.31061e-05 -4.99897e-07
-4.31292e-07 -4.99897e-07 -2.58257e-05
0.00164936 -2.69913e-05 4.17769e-07
-2.69913e-05 7.71106e-05 2.67863e-07
4.17769e-07 2.67863e-07 -3.59729e-05
0.00159975 -2.68533e-05 -7.21879e-07
-2.68533e-05 9.34583e-05 6.09725e-07
-7.21879e-07 6.09725e-07 -2.5229e-05
0.00148546 -3.22027e-05 -5.39931e-06
-3.22027e-05 8.44697e-05 1.87939e-06
-5.39931e-06 1.87939e-06 -3.06833e-05
0.00158595 -5.59431e-05 1.70175e-06
-5.59431e-05 0.000104738 -9.4534e-07
1.70175e-06 -9.4534e-07 -9.56876e-06
0.00143831 -6.04046e-05 3.72613e-08
-6.04046e-05 7.70234e-05 -3.22679e-07
3.72613e-08 -3.22679e-07 -3.34581e-05
0.00114201 -5.13129e-05 -8.89358e-06
-5.13129e-05 4.87833e-06 1.80106e-06
-8.89358e-06 1.80106e-06 -8.87636e-05
0.00140638 -8.24894e-05 4.59481e-06
-8.24894e-05 7.35958e-05 -5.28761e-07
4.59481e-06 -5.28761e-07 -3.60064e-05
0.00114665 -6.70005e-05 8.57516e-08
-6.70005e-05 1.72799e-05 1.81551e-07
8.57516e-08 1.81551e-07 -7.60305e-05
0.00221236 -4.77272e-05 -1.99718e-05
-4.77272e-05 0.000743332 2.85376e-06
-1.99718e-05 2.85376e-06 0.000698104
0.00110124 -7.75664e-05 8.76684e-06
-7.75664e-05 1.14038e-05 -2.76694e-06
8.76684e-06 -2.76694e-06 -8.21546e-05
0.00225122 -6.41183e-05 1.97833e-05
-6.41183e-05 0.000774323 -1.48162e-06
1.97833e-05 -1.48162e-06 0.000729115
0.00154174 -2.20038e-05 -9.6725e-05
-2.20038e-05 0.000473881 8.33175e-06
-9.6725e-05 8.33175e-06 0.000452697
0.00234403 -7.95946e-05 5.8604e-05
-7.95946e-05 0.000835585 -7.82825e-06
5.8604e-05 -7.82825e-06 0.000790238
0.00137378 3.11634e-05 -4.77147e-05
3.11634e-05 0.000404838 2.88458e-06
-4.77147e-05 2.88458e-06 0.00037631
0.00135286 9.91181e-05 -2.0758e-07
9.91181e-05 0.000413073 -4.2824e-06
-2.0758e-07 -4.2824e-06 0.000374504
0.00175627 4.54809e-05 -5.21007e-08
4.54809e-05 0.00010381 7.16097e-07
-5.21007e-08 7.16097e-07 -5.4984e-06
0.00159654 8.50607e-05 -2.72202e-06
8.50607e-05 8.74579e-05 -5.30822e-07
-2.72202e-06 -5.30822e-07 -3.04602e-05
0.00174513 8.8048e-05 -1.4155e-06
8.8048e-05 0.000125594 -2.97074e-07
-1.4155e-06 -2.97074e-07 8.92279e-06
0.00158481 0.00011714 -3.62695e-06
0.00011714 0.000173248 -1.20934e-06
-3.62695e-06 -1.20934e-06 5.8414e-05
0.00174216 0.000121021 1.28929e-06
0.000121021 0.000191992 4.35143e-07
1.28929e-06 4.35143e-07 7.29137e-05
0.0017914 0.000126533 3.60691e-06
0.000126533 0.000187047 1.65966e-06
3.60691e-06 1.65966e-06 7.1025e-05
0.00100227 9.84487e-05 -7.49243e-06
9.84487e-05 -1.69912e-06 -2.83151e-06
-7.49243e-06 -2.83151e-06 -9.93528e-05
0.00132094 0.000127676 2.21002e-06
0.000127676 9.89312e-05 7.64139e-07
2.21002e-06 7.64139e-07 -1.78601e-05
0.00124999 0.000133734 1.33214e-06
0.000133734 4.48807e-06 9.87957e-07
1.33214e-06 9.87957e-07 -0.000113701
0.000750715 9.23487e-05 -1.39451e-05
9.23487e-05 5.21602e-06 -6.83079e-06
-1.39451e-05 -6.83079e-06 -5.28064e-05
0.000987683 9.85082e-05 -5.32893e-07
9.85082e-05 4.12308e-05 -4.83211e-08
-5.32893e-07 -4.83211e-08 -5.51941e-05
0.00122338 0.000131495 3.77888e-06
0.000131495 0.000108717 1.10293e-06
3.77888e-06 1.10293e-06 -1.15438e-05
0.000866954 8.34731e-05 4.05868e-06
8.34731e-05 2.4679e-05 1.96891e-06
4.05868e-06 1.96891e-06 -6.61946e-05
0.000674258 5.6379e-05 -7.65031e-08
5.6379e-05 -1.77866e-05 4.33795e-08
-7.65031e-08 4.33795e-08 -7.13758e-05
0.00378309 -7.44724e-05 -8.66463e-05
-7.44724e-05 0.00171847 -5.65645e-06
-8.66463e-05 -5.65645e-06 0.00170722
0.000595138 9.0909e-06 5.03286e-06
9.0909e-06 -5.19095e-05 5.59232e-06
5.03286e-06 5.59232e-06 -9.78045e-05
0.00326536 -0.000117186 -4.11885e-06
-0.000117186 0.0014258 3.29239e-07
-4.11885e-06 3.29239e-07 0.00141742
0.00294744 -0.000108632 4.81556e-05
-0.000108632 0.00123718 2.34803e-06
4.81556e-05 2.34803e-06 0.00123463
0.00180558 2.80234e-05 2.49566e-07
2.80234e-05 9.7884e-05 -1.22599e-07
2.49566e-07 -1.22599e-07 -7.54498e-06
0.00180105 4.52926e-05 -2.76305e-07
4.52926e-05 7.67576e-05 1.78599e-07
-2.76305e-07 1.78599e-07 -2.52769e-05
0.00176893 4.99921e-05 3.57413e-06
4.99921e-05 3.41e-05 -6.18934e-07
3.57413e-06 -6.18934e-07 -6.182e-05
0.00182788 9.45486e-05 2.01363e-06
9.45486e-05 0.000111478 -5.56149e-07
2.01363e-06 -5.56149e-07 3.2911e-06
0.00176995 -2.42614e-06 2.35615e-07
-2.42614e-06 9.74056e-05 -1.08893e-07
2.35615e-07 -1.08893e-07 -1.41442e-05
0.00187754 9.09461e-06 -1.36696e-07
9.09461e-06 0.00012643 -4.98245e-08
-1.36696e-07 -4.98245e-08 2.21725e-05
0.00189058 1.13076e-05 -1.71279e-07
1.13076e-05 0.000118624 1.42047e-07
-1.71279e-07 1.42047e-07 1.93736e-05
0.00183563 -1.14797e-05 -1.52475e-06
-1.14797e-05 0.000111113 1.58958e-07
-1.52475e-06 1.58958e-07 7.89157e-06
0.00176898 2.66393e-06 -3.92834e-07
2.66393e-06 0.000103369 -7.78463e-08
-3.92834e-07 -7.78463e-08 -7.37299e-06
0.0018084 5.09871e-06 -2.95649e-07
5.09871e-06 0.00017099 -4.30347e-07
-2.95649e-07 -4.30347e-07 5.46365e-05
0.00172354 -8.97059e-06 2.0327e-07
-8.97059e-06 8.99149e-05 8.41591e-07
2.0327e-07 8.41591e-07 -2.37988e-05
0.00169956 -5.3113e-06 7.15113e-07
-5.3113e-06 0.0001245 -1.4283e-07
7.15113e-07 -1.4283e-07 5.34022e-06
0.00139274 -6.99387e-06 -4.3157e-06
-6.99387e-06 1.00843e-05 5.89168e-07
-4.3157e-06 5.89168e-07 -0.000108462
0.00160396 -2.60882e-05 8.119e-07
-2.60882e-05 9.5671e-05 4.63807e-08
8.119e-07 4.63807e-08 -2.29432e-05
0.00146161 -2.96453e-05 -5.40549e-07
-2.96453e-05 7.20848e-05 4.78833e-07
-5.40549e-07 4.78833e-07 -4.29467e-05
0.00117396 -2.98874e-05 -8.92189e-06
-2.98874e-05 5.69742e-06 2.1013e-06
-8.92189e-06 2.1013e-06 -9.10882e-05
0.00144763 -5.74561e-05 4.23097e-06
-5.74561e-05 8.12137e-05 -1.35274e-06
4.23097e-06 -1.35274e-06 -2.91396e-05
0.00116864 -5.13615e-05 -6.02935e-08
-5.13615e-05 1.77075e-05 -9.27986e-08
-6.02935e-08 -9.27986e-08 -7.58402e-05
0.000685941 -3.37595e-05 -1.35382e-05
-3.37595e-05 -9.04947e-05 3.00995e-06
-1.35382e-05 3.00995e-06 -0.000143949
0.00114652 -6.51256e-05 9.05706e-06
-6.51256e-05 1.5955e-05 -2.03442e-06
9.05706e-06 -2.03442e-06 -7.70006e-05
0.00148647 -5.24548e-05 2.45239e-05
-5.24548e-05 0.000347941 -1.08973e-06
2.45239e-05 -1.08973e-06 0.000300183
0.00469965 -2.91411e-05 -0.000115636
-2.91411e-05 0.00217711 4.71334e-06
-0.000115636 4.71334e-06 0.00217321
0.00237533 -6.9474e-05 6.0515e-05
-6.9474e-05 0.000837014 -6.57965e-06
6.0515e-05 -6.57965e-06 0.000793059
0.00143611 6.68808e-06 -4.30416e-05
6.68808e-06 0.000423091 2.98256e-06
-4.30416e-05 2.98256e-06 0.000398646
0.00136853 4.16828e-05 1.01086e-05
4.16828e-05 0.000403921 -3.11946e-06
1.01086e-05 -3.11946e-06 0.000374647
0.00176242 2.69207e-05 5.31817e-07
2.69207e-05 0.000110428 1.4735e-07
5.31817e-07 1.4735e-07 2.4696e-06
0.00159182 4.79968e-05 -1.45979e-06
4.79968e-05 7.2671e-05 4.37573e-07
-1.45979e-06 4.37573e-07 -4.22115e-05
0.00182317 4.41099e-05 -2.28322e-07
4.41099e-05 0.000140892 -1.74195e-07
-2.28322e-07 -1.74195e-07 3.14588e-05
0.0011791 8.14317e-05 -5.07079e-06
8.14317e-05 -7.99421e-05 -1.46775e-06
-5.07079e-06 -1.46775e-06 -0.000194286
0.0016394 8.65179e-05 5.4345e-08
8.65179e-05 0.000111483 -8.86585e-09
5.4345e-08 -8.86585e-09 -6.10312e-06
0.00167415 8.81175e-05 -1.53864e-07
8.81175e-05 8.99033e-05 -5.55201e-07
-1.53864e-07 -5.55201e-07 -2.63095e-05
0.000653622 7.5048e-05 -1.01893e-05
7.5048e-05 -0.000239464 -3.17588e-06
-1.01893e-05 -3.17588e-06 -0.000338645
0.00163112 0.000120478 1.0326e-06
0.000120478 0.000197233 2.13039e-07
1.0326e-06 2.13039e-07 8.20646e-05
0.00190722 0.000126874 3.53268e-06
0.000126874 0.000280388 1.18807e-06
3.53268e-06 1.18807e-06 0.000160964
0.000701318 9.4816e-05 -1.45591e-05
9.4816e-05 -4.33024e-05 -6.37123e-06
-1.45591e-05 -6.37123e-06 -0.000101774
0.000788026 9.04687e-05 7.70928e-08
9.04687e-05 -0.000118627 9.71044e-08
7.70928e-08 9.71044e-08 -0.000217402
0.000956006 0.000115573 5.48938e-06
0.000115573 -9.80084e-05 2.00013e-06
5.48938e-06 2.00013e-06 -0.000215915
0.00429507 -7.63754e-05 -9.12786e-05
-7.63754e-05 0.00200031 -7.14931e-06
-9.12786e-05 -7.14931e-06 0.00198315
0.000657651 8.10608e-05 4.12204e-07
8.10608e-05 -4.07645e-05 1.46537e-07
4.12204e-07 1.46537e-07 -9.84919e-05
0.000963036 9.63932e-05 5.81085e-06
9.63932e-05 2.87989e-05 2.76013e-06
5.81085e-06 2.76013e-06 -6.73268e-05
0.000568498 4.8897e-05 7.83115e-06
4.8897e-05 -6.92645e-05 6.23001e-06
7.83115e-06 6.23001e-06 -0.000122666
0.00361085 -0.000108238 -5.96466e-06
-0.000108238 0.00162672 2.77778e-07
-5.96466e-06 2.77778e-07 0.00161433
0.0031653 -0.000123303 5.31844e-05
-0.000123303 0.00136978 2.36327e-06
5.31844e-05 2.36327e-06 0.00136113
0.00178679 1.1298e-05 -7.1093e-07
1.1298e-05 0.000109007 -4.07761e-07
-7.1093e-07 -4.07761e-07 -1.42832e-06
0.00181938 2.74732e-05 -3.46035e-07
2.74732e-05 0.000102047 9.15361e-08
-3.46035e-07 9.15361e-08 -3.18445e-06
0.00182746 4.48871e-05 6.41997e-07
4.48871e-05 9.03323e-05 -3.52775e-07
6.41997e-07 -3.52775e-07 -1.141e-05
0.00178365 8.80325e-06 -2.45451e-07
8.80325e-06 0.000149706 -2.46903e-07
-2.45451e-07 -2.46903e-07 3.32466e-05
0.00176413 1.23174e-06 -2.47149e-07
1.23174e-06 9.60695e-05 2.45623e-08
-2.47149e-07 2.45623e-08 -1.49768e-05
0.00190389 3.57236e-06 -6.85047e-07
3.57236e-06 0.000138891 1.73104e-07
-6.85047e-07 1.73104e-07 3.46644e-05
0.00174666 6.44151e-06 -6.2979e-07
6.44151e-06 9.05975e-05 5.78231e-07
-6.2979e-07 5.78231e-07 -1.95284e-05
0.0017927 7.73135e-06 8.72755e-07
7.73135e-06 0.000162127 -1.56649e-07
8.72755e-07 -1.56649e-07 4.57666e-05
0.00177414 3.16449e-06 -3.05215e-06
3.16449e-06 0.000199824 -1.40692e-08
-3.05215e-06 -1.40692e-08 8.46949e-05
0.00176568 -4.45899e-06 2.25238e-06
-4.45899e-06 0.000160105 7.1276e-08
2.25238e-06 7.1276e-08 4.07247e-05
0.00164971 -4.93288e-06 1.96913e-08
-4.93288e-06 0.000149741 6.18686e-08
1.96913e-08 6.18686e-08 3.3028e-05
0.000823117 -8.7116e-06 -1.09534e-05
-8.7116e-06 -0.000208545 2.0564e-06
-1.09534e-05 2.0564e-06 -0.000312647
0.00145358 -2.93957e-05 3.66908e-06
-2.93957e-05 6.78323e-05 -8.6817e-07
3.66908e-06 -8.6817e-07 -4.71721e-05
0.00118487 -2.75187e-05 3.44476e-08
-2.75187e-05 1.04884e-05 -5.55128e-09
3.44476e-08 -5.55128e-09 -8.61503e-05
0.000698676 -1.80339e-05 -1.34178e-05
-1.80339e-05 -9.31165e-05 2.43942e-06
-1.34178e-05 2.43942e-06 -0.000149251
0.00119206 -5.00432e-05 9.19073e-06
-5.00432e-05 2.87681e-05 -2.11821e-06
9.19073e-06 -2.11821e-06 -6.45847e-05
0.000690677 -2.53483e-05 -1.62632e-07
-2.53483e-05 -8.88704e-05 2.77715e-08
-1.62632e-07 2.77715e-08 -0.000142204
0.00469229 -3.34407e-05 -0.000115316
-3.34407e-05 0.00217203 3.67524e-06
-0.000115316 3.67524e-06 0.0021682
0.000737258 -4.68023e-05 1.48869e-05
-4.68023e-05 -5.90328e-05 -4.7847e-06
1.48869e-05 -4.7847e-06 -0.000112536
0.00306219 -1.09521e-05 4.63686e-05
-1.09521e-05 0.00129282 2.8125e-07
4.63686e-05 2.8125e-07 0.00127794
0.00133018 2.60634e-06 1.74823e-05
2.60634e-06 0.000370535 -2.60771e-06
1.74823e-05 -2.60771e-06 0.000344074
0.00180464 1.59809e-05 -3.90058e-08
1.59809e-05 0.000149019 -1.88248e-07
-3.90058e-08 -1.88248e-07 3.94392e-05
0.00166129 2.59125e-05 -9.79305e-07
2.59125e-05 0.000106598 2.46704e-07
-9.79305e-07 2.46704e-07 -5.74447e-06
0.00176012 2.54999e-05 -1.53233e-07
2.54999e-05 0.000108945 -9.28624e-08
-1.53233e-07 -9.28624e-08 1.11555e-06
0.00143696 5.59958e-05 -4.07522e-06
5.59958e-05 4.67939e-05 -5.10791e-07
-4.07522e-06 -5.10791e-07 -6.47319e-05
0.00157084 4.71068e-05 3.34253e-07
4.71068e-05 6.05497e-05 1.87266e-07
3.34253e-07 1.87266e-07 -5.46329e-05
0.00189157 4.26049e-05 -6.15836e-07
4.26049e-05 0.000178649 -7.08058e-07
-6.15836e-07 -7.08058e-07 6.90964e-05
0.000714076 6.14255e-05 -1.06479e-05
6.14255e-05 -0.000237674 -2.7866e-06
-1.06479e-05 -2.7866e-06 -0.000335518
0.00154317 9.17603e-05 -1.39995e-06
9.17603e-05 0.00011693 -4.26755e-07
-1.39995e-06 -4.26755e-07 4.1028e-06
0.00167769 8.77329e-05 2.89529e-06
8.77329e-05 0.000133192 1.33092e-07
2.89529e-06 1.33092e-07 1.59392e-05
0.000669393 7.6711e-05 -1.43647e-05
7.6711e-05 -8.36e-05 -5.15233e-06
-1.43647e-05 -5.15233e-06 -0.000140417
0.000679706 7.67359e-05 -2.52794e-06
7.67359e-05 -0.00022724 -5.95841e-07
-2.52794e-06 -5.95841e-07 -0.000327038
0.00167764 0.000123847 5.90978e-06
0.000123847 0.000221324 1.38186e-06
5.90978e-06 1.38186e-06 0.000105822
0.00465113 -5.81399e-05 -9.85101e-05
-5.81399e-05 0.00217912 -6.86871e-06
-9.85101e-05 -6.86871e-06 0.00216477
0.000641473 8.73137e-05 9.25875e-07
8.73137e-05 -7.32223e-05 2.18424e-07
9.25875e-07 2.18424e-07 -0.000131553
0.000566367 8.21222e-05 7.42108e-06
8.21222e-05 -0.000239382 3.04625e-06
7.42108e-06 3.04625e-06 -0.000339274
0.00404514 -8.03976e-05 -2.82089e-06
-8.03976e-05 0.00186343 1.67638e-07
-2.82089e-06 1.67638e-07 0.00184954
0.000542496 7.37765e-05 1.06688e-05
7.37765e-05 -9.92958e-05 6.65967e-06
1.06688e-05 6.65967e-06 -0.000156316
0.0034318 -0.000133462 6.06833e-05
-0.000133462 0.00153132 2.72743e-06
6.06833e-05 2.72743e-06 0.00151709
0.00179707 1.29702e-05 -7.48279e-07
1.29702e-05 0.000156242 -5.37961e-07
-7.48279e-07 -5.37961e-07 4.14186e-05
0.00178789 1.13925e-05 2.16003e-08
1.13925e-05 0.000112811 7.5049e-08
2.16003e-08 7.5049e-08 2.22403e-06
0.0018321 2.70139e-05 -4.65562e-07
2.70139e-05 0.000105496 6.98904e-08
-4.65562e-07 6.98904e-08 4.64228e-07
0.00175936 -2.04469e-06 -3.37731e-06
-2.04469e-06 0.000189773 -1.43517e-07
-3.37731e-06 -1.43517e-07 7.57923e-05
0.00179914 8.3164e-06 6.783e-07
8.3164e-06 0.000158493 -2.33633e-08
6.783e-07 -2.33633e-08 4.25958e-05
0.00177056 7.27985e-06 6.50362e-07
7.27985e-06 0.00010131 1.49766e-07
6.50362e-07 1.49766e-07 -9.30295e-06
0.00177862 9.12213e-06 1.57809e-06
9.12213e-06 0.000154172 3.08471e-07
1.57809e-06 3.08471e-07 3.78059e-05
0.00177207 3.71134e-06 1.26958e-06
3.71134e-06 0.000198683 -2.06746e-07
1.26958e-06 -2.06746e-07 8.34776e-05
0.000872568 -1.67426e-06 -1.05015e-05
-1.67426e-06 -0.000199791 8.52083e-07
-1.05015e-05 8.52083e-07 -0.000305658
0.00189912 -3.05399e-06 5.22669e-06
-3.05399e-06 0.000285564 -7.61172e-07
5.22669e-06 -7.61172e-07 0.000170673
0.00102644 -6.88032e-06 -2.19812e-06
-6.88032e-06 -9.76227e-05 5.87448e-07
-2.19812e-06 5.87448e-07 -0.000199933
0.000713862 -7.2007e-06 -1.40115e-05
-7.2007e-06 -0.000101056 1.96149e-06
-1.40115e-05 1.96149e-06 -0.000161197
0.00120636 -2.67009e-05 9.03271e-06
-2.67009e-05 2.07111e-05 -2.17639e-06
9.03271e-06 -2.17639e-06 -7.58402e-05
0.000712459 -1.07528e-05 2.31794e-07
-1.07528e-05 -8.70641e-05 -7.48714e-08
2.31794e-07 -7.48714e-08 -0.000143198
0.00478286 -2.87266e-05 -0.000115072
-2.87266e-05 0.00221769 2.49667e-06
-0.000115072 2.49667e-06 0.00221367
0.000684446 -1.97339e-05 1.28161e-05
-1.97339e-05 -9.30199e-05 -2.7884e-06
1.28161e-05 -2.7884e-06 -0.000145996
0.00471043 -3.19866e-06 4.30588e-06
-3.19866e-06 0.00218025 2.80442e-07
4.30588e-06 2.80442e-07 0.00217691
0.00148293 -1.43861e-05 9.96968e-05
-1.43861e-05 0.000437954 -4.21564e-06
9.96968e-05 -4.21564e-06 0.000418357
0.00184497 1.55257e-05 -6.37205e-07
1.55257e-05 0.000205605 -4.96316e-07
-6.37205e-07 -4.96316e-07 9.4444e-05
0.00173508 1.71753e-05 1.38201e-07
1.71753e-05 0.000110956 3.88126e-07
1.38201e-07 3.88126e-07 1.90862e-06
0.0014664 2.59088e-05 -3.57565e-06
2.59088e-05 5.43589e-05 -5.38851e-07
-3.57565e-06 -5.38851e-07 -5.54842e-05
0.00162489 2.51367e-05 3.76592e-07
2.51367e-05 8.73247e-05 -6.72822e-08
3.76592e-07 -6.72822e-08 -2.51038e-05
0.00175718 2.40664e-05 3.18969e-07
2.40664e-05 0.000107161 -3.44404e-07
3.18969e-07 -3.44404e-07 -5.30227e-07
0.00119645 4.94881e-05 -9.11268e-06
4.94881e-05 9.12291e-06 -1.91673e-06
-9.11268e-06 -1.91673e-06 -8.5727e-05
0.00146862 5.6555e-05 -8.18303e-08
5.6555e-05 6.23315e-05 2.92213e-07
-8.18303e-08 2.92213e-07 -4.91588e-05
0.0015468 4.61505e-05 1.20657e-06
4.61505e-05 4.68832e-05 1.76335e-07
1.20657e-06 1.76335e-07 -6.86063e-05
0.00066983 5.38794e-05 -1.41891e-05
5.38794e-05 -0.000101667 -3.99086e-06
-1.41891e-05 -3.99086e-06 -0.000156745
0.000942588 6.84696e-05 -2.77158e-06
6.84696e-05 -0.000113487 -5.33283e-07
-2.77158e-06 -5.33283e-07 -0.000210552
0.00191221 0.000102185 4.396e-06
0.000102185 0.000316519 8.6345e-07
4.396e-06 8.6345e-07 0.000205193
0.00483158 9.69339e-06 -0.000116222
9.69339e-06 0.00225237 -5.63075e-06
-0.000116222 -5.63075e-06 0.00224696
0.000641772 7.13944e-05 1.34175e-07
7.13944e-05 -9.72984e-05 2.24246e-07
1.34175e-07 2.24246e-07 -0.000154391
0.000707883 7.87014e-05 6.04833e-06
7.87014e-05 -0.000214006 2.1076e-06
6.04833e-06 2.1076e-06 -0.000314442
0.00444743 -3.78896e-05 7.29808e-06
-3.78896e-05 0.00206986 -9.22659e-08
7.29808e-06 -9.22659e-08 0.0020574
0.000562434 7.64135e-05 1.23989e-05
7.64135e-05 -0.000112454 6.34008e-06
1.23989e-05 6.34008e-06 -0.0001711
0.00381375 -0.000123773 6.96568e-05
-0.000123773 0.00174687 4.72418e-06
6.96568e-05 4.72418e-06 0.00172924
0.00176751 1.40387e-05 -2.94426e-06
1.40387e-05 0.00019833 -7.4758e-07
-2.94426e-06 -7.4758e-07 8.60229e-05
0.00180974 1.01632e-05 2.53068e-07
1.01632e-05 0.000164854 4.04608e-08
2.53068e-07 4.04608e-08 4.9828e-05
0.0017882 1.11275e-05 6.16069e-07
1.11275e-05 0.000116522 5.90006e-07
6.16069e-07 5.90006e-07 5.79152e-06
0.000881317 -1.15079e-05 -1.10196e-05
-1.15079e-05 -0.000195846 -1.52483e-07
-1.10196e-05 -1.52483e-07 -0.000300867
0.00177665 4.97661e-06 1.3128e-06
4.97661e-06 0.000199083 -7.05577e-09
1.3128e-06 -7.05577e-09 8.50762e-05
0.0018091 8.08347e-06 2.05462e-06
8.08347e-06 0.000164448 6.19897e-08
2.05462e-06 6.19897e-08 4.91368e-05
0.00177494 4.0392e-06 5.42599e-06
4.0392e-06 0.000200197 -1.48217e-08
5.42599e-06 -1.48217e-08 8.49059e-05
0.000871475 -2.08376e-06 -1.65302e-06
-2.08376e-06 -0.000199836 2.51484e-07
-1.65302e-06 2.51484e-07 -0.000305653
0.000758355 -2.26208e-06 -1.46129e-05
-2.26208e-06 -9.00537e-05 7.57023e-07
-1.46129e-05 7.57023e-07 -0.000152205
0.00122052 -4.24196e-06 7.27067e-06
-4.24196e-06 8.4159e-06 -1.17449e-06
7.27067e-06 -1.17449e-06 -9.21021e-05
0.000735798 2.25018e-06 2.45879e-07
2.25018e-06 -9.05713e-05 1.67825e-07
2.45879e-07 1.67825e-07 -0.000150659
0.00503695 -2.86875e-05 -0.000120169
-2.86875e-05 0.00234739 1.35261e-06
-0.000120169 1.35261e-06 0.00234272
0.000738698 1.33538e-06 1.32556e-05
1.33538e-06 -7.47774e-05 -2.19059e-06
1.32556e-05 -2.19059e-06 -0.00013074
0.00486667 3.43618e-05 7.23299e-06
3.43618e-05 0.00226377 1.6408e-07
7.23299e-06 1.6408e-07 0.00225752
0.00474174 -1.5819e-05 0.000122296
-1.5819e-05 0.00219552 -2.62998e-06
0.000122296 -2.62998e-06 0.00219265
0.00153683 1.48811e-05 -3.67326e-06
1.48811e-05 8.74647e-05 -1.26736e-06
-3.67326e-06 -1.26736e-06 -2.31216e-05
0.00170122 1.54109e-05 5.61342e-07
1.54109e-05 0.000127715 9.66804e-08
5.61342e-07 9.66804e-08 1.66128e-05
0.00166428 1.85129e-05 3.96469e-07
1.85129e-05 7.22896e-05 7.9127e-07
3.96469e-07 7.9127e-07 -3.62357e-05
0.00120428 2.19845e-05 -8.79059e-06
2.19845e-05 4.30801e-06 -1.64183e-06
-8.79059e-06 -1.64183e-06 -9.08028e-05
0.00149169 2.62271e-05 2.17704e-07
2.62271e-05 6.68048e-05 -6.38768e-08
2.17704e-07 -6.38768e-08 -4.31198e-05
0.0015846 2.43518e-05 1.02596e-06
2.43518e-05 6.60512e-05 -4.88813e-07
1.02596e-06 -4.88813e-07 -4.64756e-05
0.000694896 3.24675e-05 -1.37565e-05
3.24675e-05 -0.000100538 -3.08009e-06
-1.37565e-05 -3.08009e-06 -0.000155633
0.0011933 5.06524e-05 3.53846e-09
5.06524e-05 7.90179e-06 2.07145e-07
3.53846e-09 2.07145e-07 -8.72053e-05
0.00150138 5.70902e-05 4.27621e-06
5.70902e-05 7.83808e-05 1.14685e-06
4.27621e-06 1.14685e-06 -3.30683e-05
0.00489186 3.72607e-05 -0.000127381
3.72607e-05 0.00227443 -4.74103e-06
-0.000127381 -4.74103e-06 0.00227115
0.00066879 5.34069e-05 2.18567e-08
5.34069e-05 -0.000102064 1.04367e-07
2.18567e-08 1.04367e-07 -0.000157245
0.00115887 7.53984e-05 6.70373e-06
7.53984e-05 4.17251e-06 1.90478e-06
6.70373e-06 1.90478e-06 -9.20919e-05
0.00471399 1.85157e-05 4.99783e-06
1.85157e-05 0.00219373 6.17489e-07
4.99783e-06 6.17489e-07 0.00218731
0.000616475 6.64669e-05 1.29701e-05
6.64669e-05 -0.000110024 5.31966e-06
1.29701e-05 5.31966e-06 -0.000167101
0.00426684 -3.05973e-05 9.38881e-05
-3.05973e-05 0.00196934 5.34451e-06
9.38881e-05 5.34451e-06 0.00196124
0.00126989 6.44746e-06 -9.71261e-06
6.44746e-06 1.80418e-05 -6.91397e-07
-9.71261e-06 -6.91397e-07 -8.28914e-05
0.00158464 8.98025e-06 1.44517e-06
8.98025e-06 9.82795e-05 3.36651e-08
1.44517e-06 3.36651e-08 -1.58664e-05
0.0018189 6.23945e-06 1.6509e-06
6.23945e-06 0.000171407 7.56613e-07
1.6509e-06 7.56613e-07 5.61611e-05
0.000742319 1.70916e-05 -1.50139e-05
1.70916e-05 -0.000104946 -4.11253e-07
-1.50139e-05 -4.11253e-07 -0.000164603
0.000869841 -4.81147e-06 -1.83803e-06
-4.81147e-06 -0.000202537 4.42957e-08
-1.83803e-06 4.42957e-08 -0.000307594
0.00179351 1.17012e-05 5.95996e-06
1.17012e-05 0.000208156 7.80867e-08
5.95996e-06 7.80867e-08 9.41186e-05
0.000865754 -2.00509e-06 7.03236e-06
-2.00509e-06 -0.000202387 -1.52171e-07
7.03236e-06 -1.52171e-07 -0.000308142
0.000733096 4.37162e-06 7.07552e-08
4.37162e-06 -0.00010383 3.5289e-07
7.07552e-08 3.5289e-07 -0.000165886
0.00523517 4.2401e-05 -0.000124006
4.2401e-05 0.00244722 -4.35011e-07
-0.000124006 -4.35011e-07 0.00244275
0.000737684 1.13546e-05 1.37899e-05
1.13546e-05 -9.03181e-05 -1.2624e-06
1.37899e-05 -1.2624e-06 -0.000150484
0.00509623 -2.10431e-05 6.10358e-07
-2.10431e-05 0.00237656 5.6714e-07
6.10358e-07 5.6714e-07 0.00237224
0.00491748 2.3456e-05 0.000123586
2.3456e-05 0.00228429 -1.2041e-06
0.000123586 -1.2041e-06 0.00228108
0.00123893 9.99028e-06 -9.3459e-06
9.99028e-06 1.24134e-05 -1.79371e-06
-9.3459e-06 -1.79371e-06 -8.53107e-05
0.00143726 1.32115e-05 -7.53728e-09
1.32115e-05 3.20649e-05 -2.21251e-07
-7.53728e-09 -2.21251e-07 -7.91403e-05
0.00155872 1.52227e-05 1.29928e-06
1.52227e-05 5.04939e-05 4.49946e-07
1.29928e-06 4.49946e-07 -6.05505e-05
0.00249116 1.26416e-05 -6.79144e-05
1.26416e-05 0.000861167 -1.95879e-06
-6.79144e-05 -1.95879e-06 0.00081758
0.00121128 2.36348e-05 1.47882e-07
2.36348e-05 7.93329e-06 7.05452e-08
1.47882e-07 7.05452e-08 -8.74037e-05
0.00151746 2.6409e-05 4.04057e-06
2.6409e-05 7.95265e-05 4.26604e-07
4.04057e-06 4.26604e-07 -3.04831e-05
0.00492983 4.03909e-05 -0.000133532
4.03909e-05 0.00229014 -3.55587e-06
-0.000133532 -3.55587e-06 0.00228693
0.000709105 3.44204e-05 8.69767e-08
3.44204e-05 -9.23198e-05 8.58564e-08
8.69767e-08 8.58564e-08 -0.000147569
0.00119077 5.18107e-05 9.174e-06
5.18107e-05 6.93292e-06 2.27609e-06
9.174e-06 2.27609e-06 -8.84211e-05
0.00483884 4.63056e-05 1.4973e-06
4.63056e-05 0.00224973 7.12015e-07
1.4973e-06 7.12015e-07 0.00224549
0.000671218 5.32019e-05 1.36214e-05
5.32019e-05 -0.000100345 4.18925e-06
1.36214e-05 4.18925e-06 -0.000155639
0.00459351 3.09791e-05 0.000111522
3.09791e-05 0.00213038 5.87764e-06
0.000111522 5.87764e-06 0.0021248
0.000779421 7.59497e-06 -1.55352e-05
7.59497e-06 -8.09646e-05 -1.68199e-06
-1.55352e-05 -1.68199e-06 -0.000142479
0.00107246 3.53091e-06 4.13405e-07
3.53091e-06 -8.83285e-05 4.91606e-07
4.13405e-07 4.91606e-07 -0.000190523
0.00139632 3.87361e-06 5.38275e-06
3.87361e-06 -4.79739e-06 7.54492e-07
5.38275e-06 7.54492e-07 -0.000120731
0.00529515 -6.04564e-05 -0.000120872
-6.04564e-05 0.00248553 -1.87392e-06
-0.000120872 -1.87392e-06 0.00247602
0.000743807 9.70318e-06 -1.35224e-07
9.70318e-06 -0.000101826 1.97705e-07
-1.35224e-07 1.97705e-07 -0.000162886
0.000868659 1.50373e-06 7.22449e-06
1.50373e-06 -0.000203856 2.31169e-07
7.22449e-06 2.31169e-07 -0.000308946
0.000727077 1.47008e-05 1.4186e-05
1.47008e-05 -0.000107396 1.11696e-07
1.4186e-05 1.11696e-07 -0.000169532
0.00528151 4.37369e-05 4.52692e-06
4.37369e-05 0.00247415 4.52673e-07
4.52692e-06 4.52673e-07 0.00246739
0.0051965 9.90512e-05 0.000123585
9.90512e-05 0.00243411 8.01056e-08
0.000123585 8.01056e-08 0.00242507
0.00258663 -8.1004e-06 -7.08892e-05
-8.1004e-06 0.000901928 -1.92006e-06
-7.08892e-05 -1.92006e-06 0.000855868
0.00124637 1.2012e-05 -7.86632e-08
1.2012e-05 1.61959e-05 -4.64274e-08
-7.86632e-08 -4.64274e-08 -8.15012e-05
0.0013384 1.16878e-05 3.79191e-06
1.16878e-05 -2.29911e-05 8.24882e-07
3.79191e-06 8.24882e-07 -0.00013481
0.00473521 4.11027e-05 -3.28941e-05
4.11027e-05 0.00219505 -1.4847e-06
-3.28941e-05 -1.4847e-06 0.00218342
0.000752609 1.56756e-05 -7.33468e-08
1.56756e-05 -7.59943e-05 1.90748e-07
-7.33468e-08 1.90748e-07 -0.000133142
0.0012347 2.60156e-05 9.03886e-06
2.60156e-05 1.98375e-05 1.82695e-06
9.03886e-06 1.82695e-06 -7.5668e-05
0.00490982 5.01099e-05 -2.76197e-06
5.01099e-05 0.00228218 5.91251e-07
-2.76197e-06 5.91251e-07 0.00227839
0.000721568 3.77598e-05 1.42361e-05
3.77598e-05 -8.45024e-05 3.4492e-06
1.42361e-05 3.4492e-06 -0.000140046
0.00479324 5.82201e-05 0.000122452
5.82201e-05 0.00222793 5.80887e-06
0.000122452 5.80887e-06 0.00222302
0.00174915 -2.00211e-05 -0.000121474
-2.00211e-05 0.000556251 1.34456e-07
-0.000121474 1.34456e-07 0.000532685
0.00167836 1.11791e-05 -2.88915e-05
1.11791e-05 0.000405083 4.72164e-07
-2.88915e-05 4.72164e-07 0.000352302
0.000874276 3.74321e-06 9.43e-06
3.74321e-06 -0.000194961 1.48378e-06
9.43e-06 1.48378e-06 -0.000298441
0.00528353 -3.75806e-05 4.79245e-06
-3.75806e-05 0.002478 -1.06007e-06
4.79245e-06 -1.06007e-06 0.00246974
0.000732564 4.09369e-06 1.48828e-05
4.09369e-06 -0.000106062 8.42144e-07
1.48828e-05 8.42144e-07 -0.000167908
0.00529638 -1.66521e-05 0.000133622
-1.66521e-05 0.0024787 8.24035e-07
0.000133622 8.24035e-07 0.00247396
0.0014455 -9.08839e-05 -6.81459e-06
-9.08839e-05 0.000417763 -8.38142e-07
-6.81459e-06 -8.38142e-07 0.000381056
0.0016727 7.76525e-06 -2.80898e-05
7.76525e-06 0.000411273 5.59367e-08
-2.80898e-05 5.59367e-08 0.000358751
0.00125127 1.21005e-05 8.99434e-06
1.21005e-05 1.88386e-05 1.75114e-06
8.99434e-06 1.75114e-06 -7.88606e-05
0.00319981 2.73444e-05 4.95171e-05
2.73444e-05 0.00135726 5.43482e-07
4.95171e-05 5.43482e-07 0.00134036
0.000768476 2.42322e-05 1.45398e-05
2.42322e-05 -6.72016e-05 2.98118e-06
1.45398e-05 2.98118e-06 -0.000124725
0.00489212 6.38836e-05 0.000126864
6.38836e-05 0.0022755 4.98598e-06
0.000126864 4.98598e-06 0.00227089
0.00524678 -3.92079e-05 -7.0364e-06
-3.92079e-05 0.00245704 4.27903e-07
-7.0364e-06 4.27903e-07 0.00245016
0.000739206 1.96011e-05 1.50788e-05
1.96011e-05 -0.000101339 1.80612e-06
1.50788e-05 1.80612e-06 -0.00016069
0.00527006 5.87706e-05 0.000124755
5.87706e-05 0.00247166 -1.30946e-06
0.000124755 -1.30946e-06 0.00246299
0.00328535 1.92331e-05 5.74627e-05
1.92331e-05 0.00139904 3.9991e-07
5.74627e-05 3.9991e-07 0.00138133
0.000748759 1.01041e-05 1.4393e-05
1.01041e-05 -8.59788e-05 2.46773e-06
1.4393e-05 2.46773e-06 -0.000145529
0.0049721 8.16736e-06 0.000122102
8.16736e-06 0.00231199 2.90365e-06
0.000122102 2.90365e-06 0.00230893
0.00519487 -0.000124942 0.000117618
-0.000124942 0.0024385 -7.34305e-08
0.000117618 -7.34305e-08 0.00242605
0.00507658 -9.34548e-05 0.00011688
-9.34548e-05 0.00237352 1.17208e-06
0.00011688 1.17208e-06 0.00236424
