# vtk DataFile Version 2.0
Wound Healing Simulation
ASCII
DATASET UNSTRUCTURED_GRID
POINTS 3012 float
69.9759 18.75 4
67.2507 60.3285 4
69.976 18.75 2
73.0099 25.446 4
71.1327 20.9142 4
68.6801 16.6661 4
67.8255 19.9261 3.98266
67.2507 60.3286 2
71.1327 54.0858 4
68.6801 58.3339 4
65.6939 62.2254 4
65.3121 59.0012 3.98187
74.6784 42.3946 4
73.7221 47.2057 4
69.9759 18.75 0
73.0099 25.446 2
68.6801 16.6661 2
71.1327 20.9142 2
67.826 19.929 2
74.6792 32.6053 4
73.7222 27.7943 4
72.1454 23.1494 4
70.6142 26.2209 3.9823
68.8858 21.958 3.98311
67.2507 14.6715 4
66.6369 17.9721 3.98155
65.7965 21.0256 3.97339
67.2507 60.3285 0
71.1327 54.0858 2
68.6801 58.3339 2
65.694 62.2255 2
65.3132 58.9978 2
72.1454 51.8506 4
69.9759 56.25 4
68.8364 53.113 3.98217
64.0165 64.0165 4
66.6106 57.1336 3.98211
63.8857 60.7661 3.98395
63.4993 57.77 3.97355
60.3285 67.2507 4
74.6792 42.3947 2
73.7222 47.2057 2
74.9194 39.9526 4
74.2788 44.8158 4
72.1682 42.0855 3.9813
73.0099 49.554 4
71.2493 46.5981 3.98126
73.0099 25.446 0
71.1327 20.9142 0
68.6801 16.6661 0
67.8255 19.9261 0.0173381
74.6792 32.6053 2
73.7222 27.7943 2
67.2508 14.6715 2
72.1455 23.1494 2
70.6142 26.2213 2
66.6376 17.9756 2
68.886 21.9599 2
65.7959 21.0261 2
74.9197 35.0474 4
74.2794 30.1841 4
72.1849 32.9432 3.98171
71.2782 28.4313 3.98168
69.8156 24.0595 3.9829
68.3464 26.9514 3.97184
66.762 22.9333 3.97262
65.694 12.7746 4
65.3235 16.1036 3.98212
64.7125 19.1964 3.97339
63.8844 22.0374 3.96906
71.1327 54.0858 0
65.6939 62.2254 0
68.6801 58.3339 0
65.3121 59.0012 0.0181308
72.1455 51.8506 2
69.9759 56.25 2
68.8366 53.1111 2
64.0165 64.0165 2
66.6114 57.1303 2
63.8873 60.7634 2
63.4988 57.77 2
62.2254 65.694 4
58.8947 65.4143 3.99113
69.7689 50.9889 3.98203
67.7837 55.1672 3.98211
66.6488 52.2087 3.97168
62.3362 62.4276 3.987
64.6599 56.0305 3.97349
62.2021 59.4027 3.97498
61.8193 56.6766 3.9688
58.3339 68.6801 4
60.3285 67.2508 2
73.7221 47.2057 0
74.6784 42.3946 0
74.9197 39.9526 2
74.2794 44.8159 2
72.1678 42.0856 2
73.0099 49.554 2
71.2492 46.5979 2
75 37.5 4
72.4055 39.8022 3.98162
71.7825 44.3528 3.98137
69.8035 41.7893 3.97115
70.5751 48.8135 3.9816
68.9116 46.0144 3.97088
74.6792 32.6053 0
73.7222 27.7943 0
67.2507 14.6715 0
72.1454 23.1494 0
70.6142 26.2209 0.0176991
68.8858 21.958 0.0168863
66.6369 17.9721 0.0184477
65.7965 21.0256 0.0266148
74.9197 35.0474 2
74.2794 30.1841 2
72.1845 32.9435 2
71.2782 28.4316 2
65.694 12.7745 2
65.3248 16.1069 2
69.8157 24.0606 2
68.3463 26.9517 2
64.7119 19.1967 2
66.7616 22.9338 2
63.8837 22.0374 2
72.4133 35.2241 3.98173
71.8039 30.6762 3.98174
69.8396 33.2682 3.97163
68.9656 29.0381 3.97156
67.6108 24.912 3.97216
66.1926 27.6353 3.96845
64.0165 10.9835 4
64.7542 23.8313 3.96887
63.8902 14.3271 3.98503
63.5119 17.4493 3.97381
62.9029 20.3241 3.9689
62.0859 22.948 3.9675
60.684 11.0978 3.98791
57.6121 11.4492 3.98027
72.1454 51.8506 0
69.9759 56.25 0
68.8364 53.113 0.0178323
64.0165 64.0165 0
63.8857 60.7661 0.0160457
66.6106 57.1336 0.0178919
63.4993 57.77 0.0264538
62.2255 65.694 2
58.8957 65.4138 2
69.769 50.9879 2
67.7841 55.1643 2
66.6483 52.2082 2
62.3378 62.4259 2
64.6594 56.0303 2
62.2017 59.4034 2
61.8187 56.6771 2
60.6689 63.9771 3.98913
57.0257 66.7349 3.99188
57.558 63.6914 3.98298
67.5069 50.1763 3.97107
65.7011 54.1726 3.9723
64.5351 51.3833 3.96779
60.7727 60.9367 3.97841
62.8167 55.0642 3.96898
60.6552 58.1543 3.969
60.3213 55.7764 3.96972
56.25 69.9759 4
58.3339 68.6801 2
60.3285 67.2507 0
58.9213 9.65608 3.98905
62.2254 9.30607 4
73.0099 49.554 0
74.2788 44.8158 0
71.2493 46.5981 0.0187449
72.1682 42.0855 0.0187016
74.9194 39.9526 0
75 37.5 2
72.4054 39.8023 2
71.7825 44.3526 2
69.8032 41.789 2
70.5751 48.8132 2
68.9116 46.0139 2
72.4888 37.512 3.98141
70.0407 39.6571 3.97116
69.4298 43.9071 3.971
67.5957 41.4966 3.96852
68.2653 48.1067 3.9709
66.7077 45.4385 3.96792
74.9197 35.0474 0
74.2794 30.1841 0
72.1849 32.9432 0.0182932
71.2782 28.4313 0.0183163
65.694 12.7746 0
65.3235 16.1036 0.0178814
69.8156 24.0595 0.0170987
68.3464 26.9514 0.028161
66.762 22.9333 0.0273843
64.7125 19.1964 0.0266143
63.8844 22.0374 0.0309405
72.4132 35.2241 2
71.8039 30.6766 2
69.8393 33.2685 2
68.9656 29.0384 2
64.0165 10.9835 2
63.8918 14.3297 2
63.5114 17.4492 2
67.6106 24.9124 2
66.1925 27.6354 2
62.9022 20.3241 2
64.7537 23.8315 2
62.0851 22.948 2
60.6856 11.0995 2
57.6125 11.4483 2
70.0575 35.3917 3.97145
69.4666 31.1494 3.97141
67.6539 33.591 3.96878
66.7702 29.6233 3.96837
65.5219 25.7001 3.96868
64.1294 28.2594 3.96926
62.3418 12.655 3.98686
62.8476 24.6416 3.96827
62.1986 15.7866 3.97699
61.8084 18.6908 3.96794
61.2102 21.3478 3.96657
60.4024 23.7375 3.96851
59.2461 12.7809 3.97895
55.8743 10.235 3.98246
56.4044 13.119 3.97602
69.7689 50.9889 0.0179733
62.2254 65.694 0
58.8947 65.4143 0.00887239
67.7837 55.1672 0.0178868
66.6488 52.2087 0.0283231
62.3362 62.4276 0.0129963
62.2021 59.4027 0.0250238
64.6599 56.0305 0.0265096
61.8193 56.6766 0.0312041
60.6702 63.9761 2
57.0264 66.7347 2
57.5582 63.6928 2
67.5066 50.1758 2
65.7005 54.172 2
64.5346 51.3832 2
60.7728 60.938 2
62.8163 55.0645 2
60.6549 58.1551 2
60.3209 55.7765 2
55.0714 67.9318 3.99229
59.219 62.3652 3.97991
55.8049 64.9098 3.98599
56.3261 62.0878 3.97822
65.3295 49.4066 3.96762
63.7029 53.2897 3.9682
62.426 50.6451 3.96719
59.3316 59.5535 3.97378
61.0701 54.3017 3.9685
59.2829 56.9994 3.9665
59.2324 55.1708 3.96823
48.1029 68.5783 3.98803
50.9491 69.9314 3.99251
54.0858 71.1327 4
56.25 69.976 2
58.3339 68.6801 0
57.0587 8.33603 3.99001
60.3285 7.74928 4
58.9227 9.65713 2
62.2255 9.30602 2
70.5751 48.8135 0.0184005
71.7825 44.3528 0.0186289
68.9116 46.0144 0.029119
69.8035 41.7893 0.0288468
72.4055 39.8022 0.0183791
75 37.5 0
72.4885 37.5121 2
70.0407 39.6569 2
69.4297 43.9068 2
67.5953 41.4965 2
68.2653 48.1062 2
66.7076 45.4384 2
70.1288 37.5213 3.97134
67.833 39.5117 3.96863
67.2217 43.4688 3.96816
65.5277 41.2066 3.97047
66.0665 47.4165 3.96779
64.6266 44.843 3.96925
72.4133 35.2241 0.0182699
71.8039 30.6762 0.0182573
69.8396 33.2682 0.0283685
68.9656 29.0381 0.0284397
64.0165 10.9835 0
63.8902 14.3271 0.0149712
63.5119 17.4493 0.0261925
67.6108 24.912 0.0278378
66.1926 27.6353 0.0315479
64.7542 23.8313 0.0311259
62.9029 20.3241 0.0311039
62.0859 22.948 0.0325029
60.684 11.0978 0.0120877
57.6121 11.4492 0.019726
70.0574 35.3919 2
69.4665 31.1496 2
67.6536 33.5911 2
66.7702 29.6234 2
62.3434 12.6572 2
62.1983 15.7861 2
61.808 18.6903 2
65.5217 25.7003 2
64.1288 28.2595 2
61.2095 21.3477 2
62.847 24.6416 2
60.4022 23.7378 2
59.2463 12.7804 2
56.4043 13.1179 2
55.8746 10.2339 2
67.8692 35.5474 3.96885
67.2635 31.6227 3.96853
65.677 33.9285 3.97069
64.6429 30.1954 3.96947
63.5249 26.4184 3.96885
62.2145 28.7861 3.97247
60.7753 14.2252 3.97885
61.0168 25.3474 3.97005
60.6095 17.1332 3.9719
60.2101 19.8258 3.96519
59.6357 22.2701 3.96567
58.9376 24.3351 3.97059
54.0376 9.13712 3.98402
57.9094 14.3372 3.9773
54.7863 12.0169 3.97795
55.3105 14.656 3.97506
67.5069 50.1763 0.0289278
57.0257 66.7349 0.00811998
60.6689 63.9771 0.0108729
57.558 63.6914 0.017022
65.7011 54.1726 0.0277048
64.5351 51.3833 0.0322146
60.7727 60.9367 0.02159
60.6552 58.1543 0.0310001
62.8167 55.0642 0.0310213
60.3213 55.7764 0.0302758
55.0719 67.9318 2
59.2191 62.3665 2
55.8049 64.9109 2
56.3261 62.0893 2
65.3292 49.4065 2
63.7022 53.2897 2
62.4264 50.645 2
59.3315 59.555 2
61.0699 54.3018 2
59.2828 56.9991 2
59.2321 55.1706 2
53.0433 68.9996 3.9924
53.9674 66.0127 3.9872
57.8795 60.8671 3.97688
54.6838 63.2063 3.98188
55.2096 60.611 3.97628
63.1722 48.6541 3.96788
61.7317 52.5685 3.96697
60.2295 50.0042 3.96875
58.0134 58.2544 3.9699
59.3161 53.9347 3.96744
58.114 55.7958 3.96538
50.1096 67.8564 3.98789
47.4633 66.5799 3.98503
46.0564 69.1574 3.9881
48.1028 68.5788 2
48.8032 70.7227 3.99261
50.9495 69.9315 2
51.8506 72.1454 4
54.0858 71.1327 2
56.25 69.9759 0
55.1034 7.14049 3.99098
58.3339 6.31992 4
57.0599 8.33652 2
60.3286 7.74926 2
58.9213 9.65608 0.0109455
62.2254 9.30607 0
68.2653 48.1067 0.0291002
69.4298 43.9071 0.0289995
66.7077 45.4385 0.0320789
67.5957 41.4966 0.0314796
70.0407 39.6571 0.0288387
72.4888 37.512 0.0185925
70.1285 37.5213 2
67.8329 39.5116 2
67.2216 43.4686 2
65.5272 41.2064 2
66.0665 47.4164 2
64.626 44.8428 2
67.9293 37.5216 3.96876
65.7604 39.3682 3.97068
65.151 43.021 3.96993
63.689 40.924 3.97357
63.9383 46.7102 3.96854
62.7486 44.2066 3.97291
70.0575 35.3917 0.0285537
69.4666 31.1494 0.0285872
67.6539 33.591 0.0312156
66.7702 29.6233 0.0316334
62.3418 12.655 0.0131414
62.1986 15.7866 0.0230067
61.8084 18.6908 0.0320593
65.5219 25.7001 0.0313237
64.1294 28.2594 0.0307368
62.8476 24.6416 0.0317348
61.2102 21.3478 0.033433
60.4024 23.7375 0.0314906
59.2461 12.7809 0.0210545
56.4044 13.119 0.0239808
55.8743 10.235 0.0175412
67.8691 35.5474 2
67.2634 31.6228 2
65.6767 33.9286 2
64.6424 30.1955 2
60.7752 14.2248 2
60.609 17.1321 2
60.2103 19.8256 2
63.5245 26.4184 2
62.2134 28.7863 2
59.6374 22.2702 2
61.0163 25.3477 2
58.9367 24.3358 2
57.9089 14.3362 2
55.3101 14.6556 2
54.0378 9.1362 2
54.7864 12.0154 2
65.8512 35.667 3.9707
65.1611 32.1568 3.96997
64.2347 34.2514 3.97354
62.5327 30.6432 3.97318
61.6103 27.0819 3.97097
60.7817 29.1516 3.97593
59.3093 15.6733 3.97608
59.274 25.8119 3.97352
59.1147 18.3657 3.96877
58.7178 20.8673 3.964
58.2428 23.1089 3.96636
57.9107 24.6835 3.97256
52.1123 8.15476 3.98539
53.058 11.0211 3.97992
56.6739 15.7508 3.97648
53.8083 13.6897 3.97588
54.3724 16.0116 3.97658
55.0714 67.9318 0.00770968
65.3295 49.4066 0.0323847
55.8049 64.9098 0.0140084
59.219 62.3652 0.0200937
56.3261 62.0878 0.0217766
63.7029 53.2897 0.0317953
62.426 50.6451 0.0328111
59.3316 59.5535 0.0262172
59.2829 56.9994 0.0335025
61.0701 54.3017 0.031501
59.2324 55.1708 0.0317737
53.0437 68.9997 2
53.9672 66.0135 2
57.8792 60.8684 2
54.6836 63.2075 2
55.2095 60.6126 2
63.1719 48.6539 2
61.7326 52.5686 2
60.229 50.0038 2
58.0131 58.2561 2
59.3163 53.9344 2
58.1134 55.7953 2
52.0708 66.9994 3.98769
52.9537 64.2179 3.98386
56.6453 59.4836 3.97495
53.6803 61.6197 3.97909
54.2566 59.3126 3.9752
60.9326 47.8657 3.96938
59.6773 52.0903 3.96802
57.9515 49.5948 3.97045
56.7677 56.9709 3.96727
57.0966 54.1034 3.96638
50.1095 67.8569 2
49.3372 65.9203 3.9849
47.4633 66.5805 2
46.8927 64.7342 3.9834
45.5584 67.0969 3.9851
43.9733 69.5897 3.98817
46.0564 69.158 2
46.6098 71.3672 3.99259
48.1029 68.5783 0.0119691
48.8036 70.7229 2
49.554 73.0099 4
50.9491 69.9314 0.0074888
51.8506 72.1455 2
54.0858 71.1327 0
53.0647 6.072 3.99149
55.1042 7.14063 2
56.25 5.02411 4
58.3339 6.3199 2
57.0587 8.33603 0.00998734
60.3285 7.74928 0
66.0665 47.4165 0.0322095
67.2217 43.4688 0.031841
64.6266 44.843 0.0307472
65.5277 41.2066 0.0295301
67.833 39.5117 0.0313669
70.1288 37.5213 0.0286592
67.9291 37.5216 2
65.7597 39.3681 2
65.1505 43.0208 2
63.6883 40.9239 2
63.9377 46.71 2
62.7473 44.2062 2
65.8643 37.5009 3.97059
63.8302 39.2631 3.97335
63.2611 42.5422 3.97319
62.3359 40.6904 3.97684
61.9082 45.9069 3.97121
61.3603 43.6702 3.97626
67.8692 35.5474 0.0311525
67.2635 31.6227 0.0314665
65.677 33.9285 0.0293059
64.6429 30.1954 0.0305323
60.7753 14.2252 0.0211453
60.6095 17.1332 0.0281014
60.2101 19.8258 0.0348102
63.5249 26.4184 0.0311512
62.2145 28.7861 0.0275311
61.0168 25.3474 0.0299542
59.6357 22.2701 0.0343333
58.9376 24.3351 0.0294097
57.9094 14.3372 0.022697
55.3105 14.656 0.0249372
54.0376 9.13712 0.0159844
54.7863 12.0169 0.0220514
65.8506 35.667 2
65.1611 32.1569 2
64.2344 34.2515 2
62.5315 30.6434 2
59.3085 15.6726 2
59.1147 18.3649 2
58.7188 20.8676 2
61.6095 27.0822 2
60.7809 29.1519 2
58.2427 23.1096 2
59.2732 25.8125 2
57.9102 24.6844 2
56.6733 15.75 2
54.3716 16.0112 2
53.808 13.6877 2
52.1124 8.15401 2
53.058 11.02 2
64.0303 35.6326 3.97297
62.8569 33.0507 3.97393
60.5264 30.6228 3.97619
59.4945 27.9253 3.97462
57.9347 16.9914 3.97426
57.669 25.7462 3.97512
57.6978 19.4911 3.96531
57.3319 21.8595 3.96294
57.1211 23.9689 3.96837
50.1126 7.28561 3.98697
51.2328 10.1278 3.9817
52.1714 12.8037 3.97799
55.5317 16.9838 3.97599
52.9752 15.2782 3.97418
53.7519 16.996 3.97946
53.0433 68.9996 0.00759572
53.9674 66.0127 0.0127965
63.1722 48.6541 0.0321233
54.6838 63.2063 0.0181156
57.8795 60.8671 0.0231197
55.2096 60.611 0.0237195
61.7317 52.5685 0.0330257
60.2295 50.0042 0.0312541
58.0134 58.2544 0.0300965
58.114 55.7958 0.0346195
59.3161 53.9347 0.0325621
52.0707 66.9999 2
52.9534 64.2186 2
56.645 59.4846 2
53.6801 61.6209 2
54.2567 59.314 2
60.9314 47.8653 2
59.6785 52.0901 2
57.9489 49.594 2
56.7667 56.9752 2
57.0952 54.1029 2
51.1683 65.1273 3.98482
52.046 62.5369 3.98141
55.475 58.2417 3.9757
52.8318 60.1301 3.97739
53.6337 58.4625 3.97886
58.2056 46.8258 3.97377
57.5146 51.766 3.96785
56.1495 49.5275 3.97066
55.4539 55.77 3.96382
55.3181 53.3591 3.96435
50.1096 67.8564 0.0121074
49.3371 65.9209 2
48.6185 64.121 3.98363
47.4633 66.5799 0.0149683
45.5584 67.0975 2
46.8926 64.7348 2
46.3824 63.0504 3.98289
45.1329 65.1952 3.98341
43.6315 67.4676 3.98515
41.8605 69.8771 3.98805
43.9733 69.5902 2
44.377 71.862 3.9925
46.0564 69.1574 0.0119019
46.6101 71.3674 2
47.2057 73.7222 4
48.8032 70.7227 0.00739385
49.554 73.0099 2
51.8506 72.1454 0
50.9547 5.13216 3.99208
53.0653 6.07196 2
54.0858 3.86728 4
55.1034 7.14049 0.00901507
56.25 5.02406 2
58.3339 6.31992 0
63.9383 46.7102 0.0314644
65.151 43.021 0.0300656
62.7486 44.2066 0.0270916
63.689 40.924 0.0264307
65.7604 39.3682 0.029316
67.9293 37.5216 0.0312408
65.8636 37.5008 2
63.8292 39.263 2
63.2601 42.542 2
62.3348 40.6902 2
61.9069 45.9065 2
61.359 43.6699 2
63.8927 37.4554 3.97299
62.0555 39.35 3.97638
61.1098 41.9463 3.97604
60.1591 44.7536 3.97549
65.8512 35.667 0.0293014
65.1611 32.1568 0.0300324
64.2347 34.2514 0.0264559
62.5327 30.6432 0.0268156
59.3093 15.6733 0.0239229
59.1147 18.3657 0.031228
58.7178 20.8673 0.0359973
61.6103 27.0819 0.0290269
60.7817 29.1516 0.0240736
59.274 25.8119 0.0264759
58.2428 23.1089 0.0336436
57.9107 24.6835 0.0274401
56.6739 15.7508 0.0235198
54.3724 16.0116 0.0234245
53.8083 13.6897 0.0241161
52.1123 8.15476 0.0146121
53.058 11.0211 0.020077
64.0298 35.6326 2
62.8559 33.0509 2
60.5256 30.6231 2
57.9341 16.9908 2
57.6981 19.4897 2
57.3325 21.86 2
59.4935 27.9258 2
57.1204 23.9699 2
57.6688 25.747 2
50.1127 7.28478 2
55.531 16.9829 2
53.751 16.9953 2
52.9747 15.2773 2
52.1713 12.803 2
51.2328 10.127 2
62.0876 35.3614 3.97524
60.1724 32.755 3.97635
58.5088 30.0936 3.97659
57.1925 27.4043 3.97605
56.6264 18.1682 3.97356
56.2107 25.1281 3.97257
56.3287 20.5413 3.9617
56.046 22.8948 3.96288
48.0566 6.52788 3.9883
49.325 9.33371 3.9829
50.4331 11.9994 3.97937
51.3754 14.5075 3.97509
54.4046 17.9353 3.9772
52.355 17.0568 3.97286
52.0708 66.9994 0.012311
52.9537 64.2179 0.0161379
60.9326 47.8657 0.0306158
53.6803 61.6197 0.0209149
56.6453 59.4836 0.0250507
54.2566 59.3126 0.0247995
59.6773 52.0903 0.0319817
57.9515 49.5948 0.0295536
56.7677 56.9709 0.0327337
57.0966 54.1034 0.0336248
51.1681 65.1278 2
52.0456 62.5377 2
55.4747 58.2426 2
52.8318 60.1318 2
53.6334 58.4632 2
58.2044 46.8252 2
57.5145 51.7656 2
56.1472 49.5267 2
55.4539 55.7705 2
55.3194 53.3594 2
50.3466 63.3796 3.9833
51.2431 60.9316 3.9788
54.2084 57.2576 3.9752
52.3073 58.6226 3.97634
56.5493 44.1521 3.9778
55.3655 47.864 3.97221
55.0051 51.3638 3.96692
53.9719 54.5176 3.9634
49.3372 65.9203 0.0151025
48.6183 64.1215 2
47.9624 62.4719 3.98256
45.5584 67.0969 0.0149017
46.8927 64.7342 0.0166047
43.6315 67.4681 2
46.3824 63.0509 2
45.1328 65.1958 2
45.988 61.5819 3.98299
44.7677 63.4507 3.98223
43.357 65.5045 3.98327
41.6636 67.6863 3.98492
39.7023 70.0241 3.98823
41.8605 69.8776 2
42.1113 72.2069 3.99245
43.9733 69.5897 0.0118285
44.3773 71.8623 2
44.8159 74.2794 4
46.6098 71.3672 0.00741185
47.2057 73.7222 2
49.554 73.0099 0
48.7853 4.32285 3.99257
50.9551 5.13189 2
51.8506 2.85458 4
53.0647 6.072 0.00850759
54.0858 3.86728 2
56.25 5.02411 0
61.9082 45.9069 0.0287924
63.2611 42.5422 0.026813
61.3603 43.6702 0.0237394
62.3359 40.6904 0.0231585
63.8302 39.2631 0.0266462
65.8643 37.5009 0.0294138
63.8917 37.4554 2
62.0544 39.35 2
61.1083 41.946 2
60.1579 44.7531 2
61.8917 37.4428 3.97612
60.1106 39.835 3.97698
58.8464 42.897 3.97741
64.0303 35.6326 0.0270277
62.8569 33.0507 0.0260704
60.5264 30.6228 0.0238092
57.9347 16.9914 0.0257367
57.6978 19.4911 0.0346922
57.3319 21.8595 0.0370579
59.4945 27.9253 0.0253817
57.669 25.7462 0.0248826
57.1211 23.9689 0.0316273
55.5317 16.9838 0.0240143
53.7519 16.996 0.0205388
52.9752 15.2782 0.0258213
50.1126 7.28561 0.0130271
52.1714 12.8037 0.022014
51.2328 10.1278 0.0183022
62.0867 35.3615 2
60.1701 32.7552 2
58.5082 30.0942 2
56.6257 18.1673 2
56.3292 20.5387 2
56.0477 22.8955 2
57.1939 27.405 2
56.2121 25.129 2
48.0567 6.52701 2
49.325 9.33285 2
54.4041 17.9346 2
52.354 17.0564 2
51.3748 14.5062 2
50.433 11.9988 2
59.7535 35.1258 3.97703
57.8326 32.2902 3.97711
56.4177 29.3664 3.97735
55.3255 26.6322 3.97605
55.3244 19.2034 3.97298
54.847 24.0898 3.96579
54.9569 21.5878 3.96009
45.9627 5.88262 3.98893
43.3742 7.47384 3.98587
47.3556 8.62566 3.9844
48.6003 11.2983 3.98045
49.7121 13.7509 3.97865
50.6292 16.1492 3.97743
53.1104 18.6805 3.97271
51.29 18.071 3.98007
51.1683 65.1273 0.0151799
52.046 62.5369 0.0185885
58.2056 46.8258 0.0262335
52.8318 60.1301 0.0226117
55.475 58.2417 0.0242969
53.6337 58.4625 0.0211397
57.5146 51.766 0.032153
56.1495 49.5275 0.0293432
55.4539 55.77 0.0361753
55.3181 53.3591 0.0356458
50.3462 63.3798 2
51.2427 60.9323 2
54.2082 57.2587 2
52.3068 58.6232 2
56.5485 44.1513 2
55.3646 47.8631 2
55.0058 51.3637 2
53.9724 54.5188 2
49.592 61.7425 3.98182
55.4014 41.6754 3.97608
50.5631 59.3227 3.97506
52.1691 56.4767 3.97009
53.9984 45.5209 3.97543
53.216 49.2955 3.97044
52.6131 52.8227 3.96515
48.6185 64.121 0.0163692
47.9623 62.4723 2
47.329 61.005 3.98355
43.6315 67.4676 0.014847
45.1329 65.1952 0.0165912
46.3824 63.0504 0.0171096
41.6637 67.6865 2
43.3569 65.5053 2
45.9881 61.5825 2
44.7676 63.4513 2
45.766 60.6256 3.98126
44.4841 61.8304 3.98189
43.1469 63.7227 3.98178
41.5465 65.6421 3.98252
39.6328 67.7658 3.98454
37.5259 70.049 3.98798
39.7023 70.0247 2
39.8179 72.404 3.99229
41.8605 69.8771 0.0119537
42.1115 72.2072 2
42.3947 74.6792 4
44.377 71.862 0.00750254
44.8159 74.2794 2
47.2057 73.7222 0
43.852 5.35938 3.98901
46.5712 3.64726 3.99278
48.7855 4.32251 2
49.554 1.99015 4
50.9547 5.13216 0.00791881
51.8506 2.85453 2
54.0858 3.86728 0
60.1591 44.7536 0.0245053
61.1098 41.9463 0.0239574
62.0555 39.35 0.0236212
63.8927 37.4554 0.0270121
61.8906 37.4429 2
60.1095 39.8346 2
58.8454 42.8965 2
59.6076 37.5646 3.97769
57.8092 40.6366 3.97768
54.8405 39.6893 3.97616
62.0876 35.3614 0.0247632
60.1724 32.755 0.0236456
58.5088 30.0936 0.0234104
56.6264 18.1682 0.0264362
56.3287 20.5413 0.0383021
56.046 22.8948 0.0371157
57.1925 27.4043 0.0239538
56.2107 25.1281 0.0274295
54.4046 17.9353 0.0227956
52.355 17.0568 0.0271365
51.3754 14.5075 0.0249077
48.0566 6.52788 0.011705
49.325 9.33371 0.0171041
50.4331 11.9994 0.0206252
59.7517 35.126 2
45.9626 5.88212 2
43.3741 7.47339 2
57.8319 32.291 2
56.4177 29.3672 2
55.3239 19.2029 2
54.9588 21.5871 2
54.8463 24.091 2
55.3212 26.6337 2
47.3556 8.62433 2
48.6002 11.2974 2
53.1102 18.6796 2
51.2894 18.0711 2
50.6286 16.1489 2
49.7114 13.7504 2
57.196 34.7736 3.97752
55.5596 31.5474 3.978
54.3451 28.4472 3.97831
53.6731 25.5379 3.97364
53.9434 20.1575 3.97348
53.5183 22.7472 3.95738
41.3994 7.0792 3.98637
45.3604 7.99552 3.98613
42.8663 9.41729 3.98318
46.6671 10.6567 3.98175
47.7444 13.1084 3.98069
48.9286 15.4116 3.97603
49.9973 17.7168 3.9768
51.6293 19.3477 3.97906
50.3466 63.3796 0.0166998
51.2431 60.9316 0.0211952
56.5493 44.1521 0.0221959
55.3655 47.864 0.027788
52.3073 58.6226 0.0236592
54.2084 57.2576 0.0247955
55.0051 51.3638 0.0330811
53.9719 54.5176 0.0365974
49.5914 61.7423 2
55.402 41.6754 2
50.5628 59.3233 2
52.1688 56.4775 2
54.0032 45.5202 2
53.2196 49.2954 2
52.6143 52.8223 2
48.8471 60.1988 3.97978
52.265 42.597 3.98113
49.7806 57.6141 3.97497
50.5566 54.4075 3.96636
51.6431 47.2288 3.97605
51.1251 50.9159 3.96266
47.912 43.7443 3.99068
47.9624 62.4719 0.0174444
47.3291 61.0054 2
46.6177 59.7906 3.98244
41.6636 67.6863 0.0150839
43.357 65.5045 0.016731
44.7677 63.4507 0.0177673
45.988 61.5819 0.0170138
39.6329 67.7665 2
41.5463 65.642 2
45.7659 60.6263 2
43.1469 63.7234 2
44.4841 61.8311 2
44.6228 60.2873 3.98236
42.9512 62.078 3.98024
41.6004 63.8158 3.98179
39.6478 65.6095 3.98158
37.5634 67.7477 3.98423
31.6967 65.1282 3.98236
33.3922 67.4851 3.98396
35.3335 69.9589 3.988
37.526 70.0496 2
37.5095 72.4585 3.99216
39.7023 70.0241 0.0117709
39.8181 72.4044 2
39.9526 74.9197 4
42.1113 72.2069 0.00755498
42.3947 74.6792 2
44.8159 74.2794 0
41.7366 4.96857 3.98929
43.852 5.35889 2
44.3264 3.11031 3.99313
46.5713 3.64701 2
47.2057 1.27793 4
48.7853 4.32285 0.00742824
49.554 1.99013 2
51.8506 2.85458 0
58.8464 42.897 0.0225895
60.1106 39.835 0.0230181
61.8917 37.4428 0.0238785
59.6064 37.5646 2
57.8088 40.6362 2
54.8415 39.6887 2
56.5987 37.8852 3.97757
49.2987 41.3051 3.9902
52.8622 39.3007 3.98422
39.4428 6.80287 3.98634
59.7535 35.1258 0.0229747
57.8326 32.2902 0.0228888
56.4177 29.3664 0.0226469
55.3244 19.2034 0.0270179
54.9569 21.5878 0.0399103
54.847 24.0898 0.0342091
55.3255 26.6322 0.0239456
53.1104 18.6805 0.0272908
51.29 18.071 0.0199334
50.6292 16.1492 0.0225682
45.9627 5.88262 0.0110666
49.7121 13.7509 0.0213474
47.3556 8.62566 0.0155954
48.6003 11.2983 0.019547
43.3742 7.47384 0.0141263
57.1934 34.7731 2
41.3993 7.07864 2
45.3602 7.99508 2
42.8659 9.41682 2
55.5615 31.548 2
54.3433 28.4486 2
53.9435 20.1577 2
53.5188 22.7441 2
53.6706 25.5394 2
46.667 10.6547 2
47.744 13.1072 2
51.6294 19.3477 2
49.9963 17.7159 2
48.9276 15.4114 2
54.6354 33.9735 3.97645
53.3008 30.5339 3.97784
52.4444 27.2535 3.97489
52.06 24.146 3.97585
52.3535 21.0827 3.97694
41.0141 9.05021 3.98334
44.725 9.99632 3.98383
42.469 10.9046 3.98406
46.005 12.7352 3.97895
47.6787 14.5925 3.97598
48.1048 16.9975 3.97536
49.8046 19.6746 3.9774
49.592 61.7425 0.0181768
50.5631 59.3227 0.0249449
55.4014 41.6754 0.0239185
53.9984 45.5209 0.0245695
53.216 49.2955 0.0295577
52.1691 56.4767 0.0299119
52.6131 52.8227 0.0348485
48.8468 60.1977 2
52.2726 42.5978 2
49.78 57.6146 2
50.5565 54.4087 2
51.6469 47.2289 2
51.1266 50.9151 2
47.9189 43.7613 2
47.9822 58.7349 3.97919
49.8623 45.2354 3.98068
48.5773 55.9059 3.97693
49.0709 52.5689 3.97319
49.5483 49.0126 3.97071
45.7023 39.8564 3.88554
46.1477 42.6216 3.92349
46.2876 45.7849 3.98812
43.5243 41.1246 3.81119
41.883 42.0021 3.68974
47.329 61.005 0.0164535
46.6173 59.7912 2
45.4655 58.7871 3.98145
39.6328 67.7658 0.0154587
41.5465 65.6421 0.0174796
43.1469 63.7227 0.0182227
44.4841 61.8304 0.0181096
45.766 60.6256 0.018743
41.6003 63.8159 2
37.5635 67.7484 2
39.6477 65.6101 2
44.6227 60.2878 2
42.9512 62.0786 2
41.7541 62.489 3.98069
42.4803 59.976 3.98192
39.8941 63.5493 3.98044
37.6423 65.5084 3.98206
35.4635 67.6568 3.98407
33.5752 65.3409 3.98171
31.9589 63.2985 3.98189
29.8828 64.7197 3.98331
31.6968 65.1289 2
31.3768 67.1952 3.98436
33.3922 67.4858 2
33.1565 69.7525 3.98778
35.3335 69.9598 2
35.1947 72.3728 3.9921
37.5259 70.049 0.0120161
37.5096 72.4589 2
37.5 75 4
39.8179 72.404 0.0077105
39.9526 74.9197 2
42.3947 74.6792 0
39.6243 4.71592 3.98956
41.7366 4.96802 2
42.0627 2.71785 3.99326
43.852 5.35938 0.010988
44.3265 3.11 2
44.8158 0.721173 4
46.5712 3.64726 0.00722402
47.2057 1.27779 2
49.554 1.99015 0
57.8092 40.6366 0.0223182
59.6076 37.5646 0.0223135
54.8405 39.6893 0.0238427
49.3166 41.3094 2
56.5973 37.8851 2
52.8641 39.295 2
53.708 36.63 3.97672
47.2243 40.3755 3.93208
50.2388 38.5092 3.99361
37.5167 6.67417 3.98632
39.4428 6.80222 2
39.2115 8.69311 3.98405
35.9426 8.49352 3.98401
57.196 34.7736 0.0224754
55.5596 31.5474 0.0220032
54.3451 28.4472 0.0216917
53.9434 20.1575 0.0265211
53.5183 22.7472 0.042622
53.6731 25.5379 0.02636
51.6293 19.3477 0.0209413
49.9973 17.7168 0.0232011
48.9286 15.4116 0.02397
45.3604 7.99552 0.0138664
47.7444 13.1084 0.0193085
46.6671 10.6567 0.0182466
41.3994 7.0792 0.0136338
42.8663 9.41729 0.0168197
54.633 33.974 2
41.0138 9.04992 2
44.7244 9.99602 2
42.4684 10.9046 2
53.2976 30.5327 2
52.4499 27.2551 2
52.3544 21.0826 2
52.0616 24.147 2
46.0045 12.7322 2
47.6779 14.5912 2
49.8047 19.6736 2
48.1035 16.9968 2
52.1933 32.8894 3.98063
51.1177 29.2108 3.97626
50.6628 25.785 3.9714
49.9047 22.2575 3.97901
40.5701 11.6099 3.98066
43.8588 11.9189 3.97994
45.7987 15.4299 3.98131
47.4953 19.2877 3.97763
46.0511 37.4835 3.89194
48.8471 60.1988 0.020222
49.7806 57.6141 0.0250335
52.265 42.597 0.0188735
51.6431 47.2288 0.0239507
51.1251 50.9159 0.0373381
50.5566 54.4075 0.0336377
47.912 43.7443 0.00931978
47.9815 58.7354 2
49.8706 45.2411 2
48.576 55.9075 2
49.0706 52.5721 2
49.5514 49.013 2
45.7321 39.8622 2
46.1699 42.6399 2
46.2875 45.7824 2
43.5488 41.148 2
41.8952 42.0137 2
46.8298 57.3373 3.98275
44.2728 39.4079 3.81241
42.2341 40.8676 3.73711
47.9027 47.2016 3.97651
47.1348 54.224 3.97411
47.5044 50.7222 3.96811
44.6512 47.3744 3.9797
44.8054 41.9363 3.8777
44.7602 44.5176 3.93985
42.3903 42.6369 3.81989
40.7986 42.3376 3.72405
46.6177 59.7906 0.0175612
45.4652 58.7875 2
43.8712 57.7094 3.98396
37.5634 67.7477 0.0157727
39.6478 65.6095 0.0184237
41.6004 63.8158 0.0182138
42.9512 62.078 0.0197637
44.6228 60.2873 0.0176423
35.4636 67.6579 2
41.754 62.4893 2
39.8939 63.5497 2
37.6424 65.5089 2
42.4803 59.9766 2
40.6237 61.6453 3.98121
40.4424 58.2033 3.98101
37.8371 63.2107 3.98015
35.5729 65.4299 3.98161
33.5753 65.3414 2
31.9588 63.2992 2
33.6285 63.3375 3.98102
30.3778 62.8578 3.98231
32.1228 62.0039 3.98272
26.8685 61.4998 3.98112
28.0616 64.1477 3.98286
29.8828 64.7204 2
29.4061 66.7592 3.98473
31.6967 65.1282 0.0176386
31.3768 67.1959 2
31.0139 69.4174 3.98777
33.3922 67.4851 0.016039
33.1565 69.7531 2
32.8917 72.1471 3.99218
35.3335 69.9589 0.0119997
35.1947 72.3733 2
35.0474 74.9194 4
37.5095 72.4585 0.00784113
37.5 75 2
39.9526 74.9197 0
35.6213 6.7253 3.98592
37.5237 4.61546 3.98961
39.6242 4.71529 2
39.7891 2.47432 3.99325
41.7366 4.96857 0.0107055
42.0628 2.71751 2
42.3946 0.32156 4
44.3264 3.11031 0.00686904
44.8159 0.72056 2
47.2057 1.27793 0
49.2987 41.3051 0.00979579
56.5987 37.8852 0.0224277
52.8622 39.3007 0.0157846
47.2425 40.3909 2
50.2509 38.5064 2
53.7153 36.6324 2
51.0287 35.5708 3.97811
47.8843 37.7467 3.94357
45.7024 35.1307 3.88661
43.5313 33.8604 3.80696
41.892 32.9931 3.68584
37.4585 8.53503 3.98444
37.5166 6.67341 2
39.4428 6.80287 0.0136576
39.2114 8.69245 2
38.977 10.1276 3.98322
35.8993 9.77463 3.98246
34.1512 8.82319 3.9835
35.9422 8.49266 2
54.6354 33.9735 0.0235502
53.3008 30.5339 0.0221551
52.4444 27.2535 0.0251103
52.3535 21.0827 0.0230631
52.06 24.146 0.0241459
49.8046 19.6746 0.022603
48.1048 16.9975 0.0246419
47.6787 14.5925 0.0240243
44.725 9.99632 0.016173
46.005 12.7352 0.0210483
41.0141 9.05021 0.0166628
42.469 10.9046 0.0159449
52.1982 32.8896 2
40.57 11.6106 2
43.8576 11.9189 2
51.1314 29.2119 2
50.6669 25.7869 2
49.9047 22.2558 2
45.7974 15.4257 2
47.4945 19.291 2
49.7309 31.4468 3.98275
49.1206 27.5572 3.9752
49.3196 24.4721 3.98569
47.1649 22.033 3.97289
38.3031 12.7389 3.97918
42.1019 14.3084 3.97839
44.7951 18.4844 3.97656
44.5855 37.4911 3.81744
46.0994 37.4918 2
47.9822 58.7349 0.0208102
48.5773 55.9059 0.0230679
49.8623 45.2354 0.0193241
49.5483 49.0126 0.0292898
49.0709 52.5689 0.0268108
45.7023 39.8564 0.114463
46.1477 42.6216 0.0765149
46.2876 45.7849 0.0118805
43.5243 41.1246 0.188808
41.883 42.0021 0.310261
46.8285 57.3377 2
44.2962 39.4254 2
42.223 40.8705 2
47.9023 47.2052 2
47.1331 54.2279 2
47.5053 50.726 2
44.657 47.3515 2
44.8283 41.9526 2
44.7741 44.5347 2
42.429 42.6639 2
40.7995 42.3355 2
45.3825 55.9286 3.98999
42.5542 39.2674 3.74853
40.6925 40.7773 3.82311
45.9739 48.887 3.98447
45.4852 52.5144 3.98024
43.334 48.3947 4.00025
43.2812 46.0658 3.92387
43.489 43.723 3.87525
40.9861 43.7771 3.8131
39.2722 42.6703 3.74102
45.4655 58.7871 0.0185537
43.8709 57.7098 2
42.0995 56.3299 3.98586
35.4635 67.6568 0.0159273
37.6423 65.5084 0.017936
39.8941 63.5493 0.0195567
41.7541 62.489 0.0193132
42.4803 59.976 0.0180797
35.5731 65.4312 2
40.6236 61.6457 2
37.837 63.2109 2
40.4424 58.204 2
38.9212 56.4947 3.98813
38.2506 60.3274 3.97987
35.6068 63.2031 3.97933
33.5752 65.3409 0.0182935
31.9589 63.2985 0.0181121
33.6285 63.3381 2
30.3778 62.8583 2
32.1229 62.0046 2
28.6806 62.2025 3.98184
33.3455 61.5152 3.98189
31.0663 61.2211 3.9816
27.5692 59.5946 3.98093
23.7943 59.0818 3.98042
25.0345 60.8725 3.98064
26.8687 61.5004 2
26.2284 63.4792 3.98258
28.0618 64.1482 2
27.4627 66.1832 3.98486
29.8828 64.7197 0.0166872
29.4062 66.7598 2
28.9061 68.9433 3.9877
31.3768 67.1952 0.0156438
31.0139 69.4181 2
30.614 71.778 3.99217
33.1565 69.7525 0.012218
32.8915 72.1475 2
32.6054 74.6784 4
35.1947 72.3728 0.00790187
35.0474 74.9197 2
37.5 75 0
33.724 6.98009 3.98549
35.4354 4.68571 3.98943
35.6211 6.72463 2
37.5146 2.3869 3.99326
37.5236 4.61489 2
39.6243 4.71592 0.010435
39.7891 2.47394 2
39.9526 0.0806499 4
42.0627 2.71785 0.00673641
42.3947 0.320817 2
44.8158 0.721173 0
44.2888 35.5736 3.80723
42.2449 34.1193 3.73288
47.2243 40.3755 0.0679237
50.2388 38.5092 0.00639359
53.708 36.63 0.0232825
47.8946 37.7486 2
51.0412 35.571 2
45.7273 35.1148 2
43.5584 33.8382 2
41.9037 32.9809 2
48.0566 34.3073 3.97095
44.8103 33.0448 3.87002
42.4033 32.3593 3.81715
40.8088 32.6611 3.72159
37.3114 10.632 3.98166
37.4583 8.53396 2
37.5167 6.67417 0.0136795
39.2115 8.69311 0.0159519
38.9771 10.1269 2
34.7545 10.3812 3.98136
35.899 9.77374 2
32.378 9.37051 3.98237
34.1507 8.82258 2
35.9426 8.49352 0.0159899
52.1933 32.8894 0.0193664
51.1177 29.2108 0.0237377
50.6628 25.785 0.0285965
49.9047 22.2575 0.0209907
47.4953 19.2877 0.0223749
45.7987 15.4299 0.0186858
43.8588 11.9189 0.0200623
40.5701 11.6099 0.0193438
49.7418 31.4444 2
38.3026 12.7374 2
42.1012 14.3109 2
49.1262 27.5575 2
49.3218 24.4684 2
47.162 22.028 2
44.7945 18.4962 2
47.5688 29.5513 3.98728
47.0128 25.22 3.98454
44.2749 21.4089 3.97537
36.5831 12.936 3.97846
38.6826 14.8131 3.97764
41.7475 17.8573 3.97822
42.6724 37.4844 3.75976
44.6042 37.491 2
46.0511 37.4835 0.108061
46.8298 57.3373 0.0172499
47.1348 54.224 0.0258936
47.9027 47.2016 0.0234881
47.5044 50.7222 0.0318867
44.2728 39.4079 0.187587
44.8054 41.9363 0.122301
44.7602 44.5176 0.0601527
44.6512 47.3744 0.0203018
42.3903 42.6369 0.180108
42.2341 40.8676 0.262891
40.7986 42.3376 0.275951
45.381 55.928 2
42.5437 39.2663 2
40.6796 40.7644 2
45.973 48.8932 2
45.4842 52.5194 2
43.3364 48.4137 2
43.3103 46.092 2
43.5147 43.7484 2
41.0141 43.8082 2
39.2628 42.6596 2
43.7168 54.4355 3.99647
40.7896 39.1585 3.85357
39.1378 40.853 3.84505
43.6162 50.4518 4.00348
41.8958 47.6097 3.95847
41.8217 45.1456 3.88354
39.3401 44.4848 3.82191
37.5003 42.7742 3.76439
43.8712 57.7094 0.0160354
42.0992 56.3302 2
40.4097 54.9312 3.98562
35.5729 65.4299 0.0183898
37.8371 63.2107 0.0198525
40.6237 61.6453 0.0187942
40.4424 58.2033 0.0189949
35.6068 63.2043 2
38.2506 60.3274 2
38.9214 56.495 2
37.9988 55.2473 3.99496
36.9336 57.6246 3.98161
35.3634 60.9115 3.98018
33.6285 63.3375 0.0189811
30.3778 62.8578 0.0176903
32.1228 62.0039 0.0172844
33.3457 61.5161 2
28.6807 62.2028 2
31.0665 61.2216 2
29.4033 60.2893 3.98039
32.3579 59.7472 3.98555
28.0269 58.3751 3.98738
27.5696 59.5952 2
25.3814 58.5939 3.97873
22.7614 58.2374 3.97173
23.4012 60.3513 3.97923
23.7945 59.0827 2
25.0347 60.8733 2
24.4313 62.7714 3.98233
26.8685 61.4998 0.018881
26.2286 63.48 2
25.5468 65.4929 3.98442
28.0616 64.1477 0.0171387
27.4627 66.1837 2
26.8356 68.3317 3.98771
29.4061 66.7592 0.0152713
28.9061 68.9437 2
28.3689 71.2632 3.99228
31.0139 69.4174 0.0122254
30.6137 71.7784 2
30.1842 74.2788 4
32.8917 72.1471 0.00781954
32.6053 74.6792 2
35.0474 74.9194 0
31.7885 7.42028 3.98475
33.3476 4.925 3.98904
33.7238 6.97946 2
35.2447 2.46297 3.99321
35.4352 4.68524 2
35.6213 6.7253 0.0140753
37.5 0 4
37.5144 2.38656 2
37.5237 4.61546 0.010389
39.7891 2.47432 0.00674541
39.9526 0.0802889 2
42.3946 0.32156 0
42.5572 35.7085 3.75149
44.3086 35.5578 2
40.7024 34.2173 3.82171
42.2327 34.1176 2
47.8843 37.7467 0.0564266
51.0287 35.5708 0.0218882
45.7024 35.1307 0.11339
43.5313 33.8604 0.193038
41.892 32.9931 0.314155
48.073 34.2899 2
44.834 33.0294 2
42.4353 32.3336 2
40.8097 32.6623 2
46.0814 31.5864 3.94448
43.4833 31.2741 3.87782
40.9914 31.2194 3.81333
39.2806 32.336 3.74033
35.6933 11.7783 3.98
37.3114 10.6306 2
37.4585 8.53503 0.0155609
38.977 10.1276 0.016779
33.0986 11.2191 3.97968
34.7543 10.3804 2
35.8993 9.77463 0.0175377
30.4827 10.0193 3.98157
32.3776 9.37017 2
34.1512 8.82319 0.0165014
49.7309 31.4468 0.0172483
49.1206 27.5572 0.0247988
49.3196 24.4721 0.0143069
47.1649 22.033 0.0271084
44.7951 18.4844 0.0234421
42.1019 14.3084 0.0216147
38.3031 12.7389 0.0208182
36.5826 12.9348 2
47.5751 29.5336 2
38.6815 14.8117 2
41.7461 17.8641 2
47.0174 25.2161 2
44.2715 21.3907 2
45.397 27.676 4.00033
43.7489 24.1361 4.00438
41.333 20.7804 3.9797
35.7733 14.7651 3.97732
38.6824 17.6039 3.97851
40.838 37.4788 3.86354
42.6675 37.4864 2
44.5855 37.4911 0.182562
45.3825 55.9286 0.0100083
45.4852 52.5144 0.0197574
45.9739 48.887 0.0155273
42.5542 39.2674 0.251468
43.489 43.723 0.124748
43.2812 46.0658 0.0761323
43.334 48.3947 -0.000246942
40.9861 43.7771 0.1869
40.6925 40.7773 0.17689
39.2722 42.6703 0.25898
43.7148 54.4344 2
40.7719 39.1505 2
39.1288 40.8368 2
43.6138 50.4671 2
41.8875 47.6292 2
41.8443 45.1704 2
37.5001 42.7632 2
39.357 44.5064 2
41.8592 53.0001 3.99376
39.152 39.1654 3.87701
37.4976 40.8899 3.86347
35.7309 42.6747 3.74138
40.8633 49.6634 3.99941
39.8061 46.0254 3.86468
37.498 44.7072 3.8088
42.0995 56.3299 0.0141447
40.4093 54.9315 2
38.7251 53.8453 3.99378
35.6068 63.2031 0.0206663
38.2506 60.3274 0.0201284
38.9212 56.4947 0.011872
35.3635 60.9124 2
36.934 57.6244 2
37.9989 55.2459 2
36.3215 55.3498 3.9917
34.4888 58.5205 3.98552
33.3455 61.5152 0.0181071
28.6806 62.2025 0.0181609
31.0663 61.2211 0.0184003
32.3583 59.7481 2
29.4037 60.2895 2
30.3041 57.8199 3.98437
28.0271 58.3758 2
26.9561 56.8265 3.97763
27.5692 59.5946 0.0190734
25.3816 58.595 2
23.8505 56.7956 3.96914
21.3416 57.3914 3.97054
21.9956 59.622 3.97788
22.7615 58.2391 2
22.7356 62.0221 3.98083
23.4013 60.3523 2
23.7943 59.0818 0.0195809
25.0345 60.8725 0.0193624
24.4315 62.7722 2
23.6808 64.7108 3.98408
26.2284 63.4792 0.0174219
25.5468 65.4936 2
24.8078 67.5929 3.98754
27.4627 66.1832 0.0151429
26.8357 68.3323 2
26.1641 70.6039 3.99233
28.9061 68.9433 0.0122965
28.3687 71.2634 2
27.7943 73.7221 4
30.614 71.778 0.00782507
30.1841 74.2794 2
32.6054 74.6784 0
29.811 7.994 3.98392
31.2529 5.33217 3.9883
31.7882 7.41969 2
32.9804 2.7012 3.99294
33.3473 4.92446 2
33.724 6.98009 0.0145089
35.0474 0.080333 4
35.2445 2.4627 2
35.4354 4.68571 0.0105671
37.5 0 2
37.5146 2.3869 0.00674111
39.9526 0.0806499 0
40.7914 35.8131 3.85488
42.5462 35.7109 2
44.2888 35.5736 0.192769
28.5434 10.6953 3.9808
39.1448 34.152 3.84433
40.6875 34.2299 2
42.2449 34.1193 0.267118
48.0566 34.3073 0.0290477
44.8103 33.0448 0.129984
42.4033 32.3593 0.182845
40.8088 32.6611 0.278411
46.1063 31.5761 2
43.5056 31.2518 2
41.019 31.1903 2
39.2716 32.3466 2
44.2902 29.7824 3.93516
41.829 29.852 3.88397
39.3531 30.5169 3.82108
37.511 32.2388 3.7636
34.0937 12.9382 3.97845
35.6932 11.7772 2
37.3114 10.632 0.018341
31.1866 11.9883 3.97968
33.0986 11.2188 2
34.7545 10.3812 0.0186413
30.4823 10.0186 2
32.378 9.37051 0.0176339
47.5688 29.5513 0.0127178
47.0128 25.22 0.0154599
36.5831 12.936 0.0215398
44.2749 21.4089 0.0246309
41.7475 17.8573 0.021781
38.6826 14.8131 0.0223641
35.7729 14.7652 2
45.4019 27.6767 2
38.6804 17.6089 2
41.3296 20.7646 2
43.7503 24.1213 2
33.6096 15.8841 3.97673
42.9611 26.5213 3.99645
40.8883 23.345 4.00934
38.4163 20.3827 3.97687
35.8506 17.5208 3.97821
39.1654 37.4845 3.89285
40.8188 37.4762 2
42.6724 37.4844 0.240243
43.7168 54.4355 0.00352961
43.6162 50.4518 -0.00348444
40.7896 39.1585 0.146427
41.8217 45.1456 0.116458
41.8958 47.6097 0.0415317
39.3401 44.4848 0.178089
39.1378 40.853 0.154951
37.5003 42.7742 0.235611
41.859 52.9979 2
39.1397 39.1568 2
37.4976 40.8751 2
40.8779 49.6785 2
35.7375 42.6641 2
39.83 46.0567 2
37.4948 44.7279 2
39.7994 51.8851 3.99855
37.4966 39.1825 3.89578
35.8566 40.867 3.84407
34.2008 42.3412 3.72263
35.6517 44.4955 3.81903
38.6722 48.6728 3.97529
37.501 46.3307 3.87224
40.4097 54.9312 0.0143759
38.7253 53.8391 2
36.7378 53.172 4.00023
35.3634 60.9115 0.0198177
36.9336 57.6246 0.0183864
37.9988 55.2473 0.00503867
34.4893 58.5216 2
36.3224 55.3563 2
33.2389 55.5051 3.99364
32.3579 59.7472 0.0144529
29.4033 60.2893 0.0196102
30.3047 57.8202 2
28.7106 55.3152 3.97862
28.0269 58.3751 0.0126239
26.9558 56.8273 2
25.3329 55.134 3.97362
21.8284 55.3371 3.96462
25.3814 58.5939 0.0212731
23.8502 56.7978 2
20.2279 57.0197 3.97645
20.6487 58.7758 3.97502
21.3414 57.3932 2
21.1667 61.1708 3.9792
21.9957 59.6231 2
22.7614 58.2374 0.0282681
21.8944 63.8384 3.9832
22.7358 62.0231 2
23.4012 60.3513 0.0207679
24.4313 62.7714 0.0176737
23.6809 64.7115 2
22.8361 66.7362 3.98717
25.5468 65.4929 0.0155771
24.8079 67.5936 2
24.0083 69.805 3.9924
26.8356 68.3317 0.0122917
26.1638 70.6042 2
25.446 73.0099 4
28.3689 71.2632 0.00772295
27.7943 73.7222 2
30.1842 74.2788 0
27.8209 8.654 3.98346
29.1549 5.87804 3.98755
29.8107 7.9932 2
30.7255 3.09839 3.99264
31.2526 5.33165 2
31.7885 7.42028 0.0152486
32.6053 0.320823 4
32.9801 2.7009 2
33.3476 4.925 0.0109569
35.0474 0.0802903 2
35.2447 2.46297 0.00678779
37.5 0 0
39.1603 35.8154 3.87561
40.7731 35.8214 2
42.5572 35.7085 0.24851
28.5432 10.6948 2
26.6221 11.391 3.98102
29.2255 12.6457 3.98032
37.5028 34.1235 3.86195
39.134 34.1689 2
40.7024 34.2173 0.178294
46.0814 31.5864 0.0555225
43.4833 31.2741 0.122178
40.9914 31.2194 0.186675
39.2806 32.336 0.259669
44.3081 29.7673 2
41.8459 29.8362 2
39.3705 30.4893 2
37.5111 32.2495 2
42.2997 28.4325 3.914
39.839 28.9691 3.88396
37.5171 30.2982 3.80927
35.7439 32.3346 3.74045
31.9158 14.4857 3.97832
34.0938 12.9381 2
35.6933 11.7783 0.0200044
31.1867 11.9877 2
33.0986 11.2191 0.0203207
30.4827 10.0193 0.0184289
45.397 27.676 -0.000325037
43.7489 24.1361 -0.00438098
35.7733 14.7651 0.0226778
41.333 20.7804 0.0203017
38.6824 17.6039 0.0214926
33.6083 15.8841 2
35.8483 17.5205 2
42.9696 26.5187 2
38.4163 20.3814 2
40.8852 23.3308 2
33.553 17.3959 3.97825
40.3546 25.6897 3.99846
38.0681 22.9615 3.99669
35.5823 20.0996 3.97939
37.4966 37.4961 3.91383
39.1499 37.4854 2
40.838 37.4788 0.136455
41.8592 53.0001 0.00624316
40.8633 49.6634 0.000590823
39.152 39.1654 0.122985
39.8061 46.0254 0.135321
37.498 44.7072 0.191202
37.4976 40.8899 0.136528
35.7309 42.6747 0.258621
39.8035 51.8856 2
37.4968 39.1723 2
35.868 40.8502 2
38.6777 48.7079 2
34.1987 42.3403 2
35.6351 44.5211 2
37.4982 46.3588 2
37.6437 50.9581 4.0088
35.8422 39.1834 3.87667
34.3046 40.7917 3.82193
33.1101 42.0077 3.68844
34.0036 43.773 3.81241
35.1634 46.0134 3.87674
36.8758 48.3098 3.94265
38.7251 53.8453 0.0062197
36.7372 53.1803 2
34.3806 52.4586 3.99702
34.4888 58.5205 0.0144781
36.3215 55.3498 0.00830391
33.2391 55.5065 2
30.5417 53.3554 3.9774
30.3041 57.8199 0.0156268
28.7102 55.3174 2
26.9162 53.4268 3.97247
26.9561 56.8265 0.0223663
25.3325 55.1373 2
23.6113 53.4685 3.96416
20.5065 53.2077 3.96139
19.947 55.8223 3.96955
21.8273 55.3387 2
23.8505 56.7956 0.03086
19.4437 57.8812 3.97366
20.2275 57.0213 2
19.708 60.2012 3.97693
20.6486 58.7767 2
21.3416 57.3914 0.0294584
20.207 62.8588 3.98116
21.1669 61.172 2
21.9956 59.622 0.0221209
20.9375 65.765 3.98668
21.8944 63.8393 2
22.7356 62.0221 0.0191736
23.6808 64.7108 0.0159168
22.8362 66.7369 2
21.9108 68.872 3.99221
24.8078 67.5929 0.0124629
24.0079 69.8053 2
23.1494 72.1454 4
26.1641 70.6039 0.00766563
25.446 73.0099 2
27.7943 73.7221 0
25.86 9.38264 3.98285
27.0697 6.54227 3.98672
27.8205 8.65342 2
28.4876 3.64439 3.99228
29.1545 5.87742 2
29.811 7.994 0.0160841
30.1841 0.720592 4
30.7252 3.09812 2
31.2529 5.33217 0.0116956
32.6053 0.320817 2
32.9804 2.7012 0.00705747
35.0474 0.080333 0
37.4988 35.8168 3.89566
39.1465 35.8241 2
40.7914 35.8131 0.14512
24.7768 12.0747 3.98126
23.7518 14.3622 3.98029
28.5434 10.6953 0.0191981
26.622 11.3907 2
29.2256 12.645 2
27.2917 13.3785 3.98076
29.7812 14.2066 3.98019
35.8651 34.1477 3.84366
37.5028 34.1375 2
39.1448 34.152 0.15567
37.511 32.2388 0.236404
44.2902 29.7824 0.0648352
41.829 29.852 0.116033
39.3531 30.5169 0.178924
42.327 28.4053 2
39.8507 28.9373 2
37.5197 30.2838 2
35.7504 32.3466 2
40.0278 27.6039 3.91178
37.5229 28.6728 3.87732
35.6752 30.5237 3.82305
34.2186 32.6666 3.72231
30.9278 16.8458 3.97764
31.9155 14.4853 2
34.0937 12.9382 0.02155
31.1866 11.9883 0.0203165
42.9611 26.5213 0.00354882
40.8883 23.345 -0.00934245
33.6096 15.8841 0.0232737
35.8506 17.5208 0.021787
38.4163 20.3827 0.0231349
33.5508 17.3997 2
35.5843 20.1044 2
40.3578 25.6747 2
38.0629 22.9436 2
32.8641 19.8049 3.98163
37.7925 25.2718 4.0055
35.1945 22.7024 3.99047
35.8312 37.5017 3.89295
37.4951 37.4956 2
39.1654 37.4845 0.107151
39.7994 51.8851 0.00144711
38.6722 48.6728 0.0247115
37.4966 39.1825 0.10422
37.501 46.3307 0.127761
35.6517 44.4955 0.18097
35.8566 40.867 0.155925
34.2008 42.3412 0.27737
37.6447 50.9762 2
35.8557 39.1738 2
34.3182 40.7801 2
36.8736 48.339 2
33.0973 42.0203 2
33.9787 43.8018 2
35.1473 46.041 2
35.4974 50.1023 3.99599
34.2141 39.1822 3.85602
32.7512 40.8794 3.73524
32.6033 42.6427 3.81967
33.1761 45.1427 3.88153
34.3 47.3871 3.91861
36.7378 53.172 -0.000228973
34.3791 52.4659 2
32.0465 51.165 4.00117
33.2389 55.5051 0.00636469
30.5411 53.3605 2
28.4689 51.5706 3.97741
28.7106 55.3152 0.0213787
26.9155 53.4298 2
25.1302 51.7277 3.96034
25.3329 55.134 0.0263825
23.6105 53.4706 2
22.0249 51.7863 3.95758
19.2605 51.6192 3.96427
18.9471 54.297 3.96114
20.5053 53.2073 2
18.4564 56.7133 3.97266
19.9462 55.8239 2
21.8284 55.3371 0.0353833
18.3717 59.1027 3.9731
19.4433 57.8822 2
20.2279 57.0197 0.0235526
18.6189 61.7635 3.97719
19.7081 60.2027 2
20.6487 58.7758 0.024982
19.1264 64.6754 3.98554
20.2071 62.86 2
21.1667 61.1708 0.0207959
19.885 67.8086 3.99211
20.9375 65.7658 2
21.8944 63.8384 0.0167969
22.8361 66.7362 0.012826
21.9104 68.8721 2
20.9142 71.1327 4
24.0083 69.805 0.0075976
23.1494 72.1455 2
25.446 73.0099 0
23.0962 12.79 3.98086
23.9725 10.1699 3.98245
25.0234 7.31282 3.98598
25.8598 9.3822 2
26.2793 4.32869 3.99186
27.0692 6.54181 2
27.8209 8.654 0.016545
27.7943 1.27781 4
28.4872 3.64415 2
29.1549 5.87804 0.0124461
30.1841 0.720551 2
30.7255 3.09839 0.00736138
32.6053 0.320823 0
35.842 35.8221 3.87628
37.4974 35.8272 2
39.1603 35.8154 0.124389
24.7769 12.0745 2
23.7525 14.3622 2
22.4809 15.0394 3.97997
25.3578 13.9109 3.98016
24.0262 15.6257 3.97994
26.6221 11.391 0.0189823
29.2255 12.6457 0.0196822
27.292 13.3782 2
29.7812 14.2062 2
28.3579 15.9817 3.98002
34.3142 34.2226 3.82092
35.8747 34.1654 2
37.5028 34.1235 0.138046
35.7439 32.3346 0.259546
37.5171 30.2982 0.190727
42.2997 28.4325 0.0859955
39.839 28.9691 0.116044
40.0368 27.5804 2
37.5213 28.6477 2
35.6534 30.4954 2
34.212 32.6681 2
37.6022 27.308 3.92691
35.1892 28.9812 3.88359
34.0254 31.234 3.813
33.1351 32.9994 3.68879
30.2108 19.3533 3.98276
30.9271 16.8462 2
31.9158 14.4857 0.0216795
40.3546 25.6897 0.00154406
38.0681 22.9615 0.00330519
33.553 17.3959 0.0217474
35.5823 20.0996 0.0206141
32.8645 19.8105 2
35.1926 22.6957 2
37.7818 25.2521 2
32.3111 22.4479 3.99455
35.0037 25.2484 4.00345
34.1598 37.5049 3.86462
35.8453 37.5014 2
37.4966 37.4961 0.0861739
37.6437 50.9581 -0.00879756
36.8758 48.3098 0.0573494
35.8422 39.1834 0.123332
35.1634 46.0134 0.123259
34.0036 43.773 0.187591
34.3046 40.7917 0.178073
33.1101 42.0077 0.311561
35.4921 50.1203 2
34.2377 39.1706 2
32.7615 40.8826 2
34.2875 47.4225 2
32.5706 42.6671 2
33.1591 45.1656 2
33.2982 49.0973 3.99513
32.4348 39.2862 3.75374
31.4576 41.1349 3.81022
31.513 43.7263 3.8776
32.3227 46.3134 3.91715
34.3806 52.4586 0.00298133
32.0446 51.1733 2
29.9258 49.6854 3.98904
30.5417 53.3554 0.0226039
28.4675 51.5698 2
26.5764 49.9589 3.97108
26.9162 53.4268 0.0275266
25.1287 51.7258 2
23.4173 50.1688 3.96625
23.6113 53.4685 0.0358369
22.0239 51.7856 2
20.5388 50.2957 3.96583
18.0546 50.3148 3.96816
17.8805 52.7782 3.96301
19.2589 51.6187 2
17.4522 55.3295 3.96464
18.9455 54.2967 2
20.5065 53.2077 0.0386148
17.1405 57.8647 3.97182
18.4557 56.7141 2
19.947 55.8223 0.0304494
17.1378 60.5432 3.97534
18.3715 59.1038 2
19.4437 57.8812 0.0263421
17.4074 63.4667 3.98253
18.619 61.7648 2
19.708 60.2012 0.0230692
17.9414 66.6172 3.9919
19.1264 64.6765 2
20.207 62.8588 0.0188393
18.75 69.9759 4
19.8845 67.8086 2
20.9375 65.765 0.0133202
21.9108 68.872 0.00779368
20.9142 71.1327 2
23.1494 72.1454 0
21.5874 13.6109 3.98035
22.1905 11.0297 3.98186
23.0966 12.7901 2
23.0411 8.17868 3.98542
23.9724 10.1695 2
24.1169 5.14355 3.99148
25.0229 7.31234 2
25.86 9.38264 0.0171495
25.446 1.99014 4
26.2788 4.32859 2
27.0697 6.54227 0.0132804
27.7943 1.27778 2
28.4876 3.64439 0.00772075
30.1841 0.720592 0
34.2088 35.8281 3.85274
35.8537 35.8318 2
37.4988 35.8168 0.104345
21.3068 15.8357 3.98067
24.7768 12.0747 0.0187394
23.7518 14.3622 0.0197082
25.3584 13.9108 2
22.4817 15.0396 2
24.027 15.626 2
23.2661 16.258 3.97853
25.3818 16.0944 3.98001
27.2917 13.3785 0.0192425
29.7812 14.2066 0.0198144
28.3581 15.9822 2
27.4428 18.8074 3.98207
32.7714 34.1284 3.73323
34.3325 34.2355 2
35.8651 34.1477 0.156337
34.2186 32.6666 0.277691
35.6752 30.5237 0.176955
37.5229 28.6728 0.122682
40.0278 27.6039 0.0882213
37.6034 27.277 2
33.1202 32.9885 2
35.1818 28.9483 2
33.9892 31.1968 2
35.0829 27.4389 3.92765
33.1915 29.8656 3.87781
32.6246 32.3578 3.80729
29.588 21.949 3.99581
30.212 19.3564 2
30.9278 16.8458 0.022359
37.7925 25.2718 -0.00550108
35.1945 22.7024 0.0095317
32.8641 19.8049 0.0183733
32.3105 22.4456 2
35.0196 25.2406 2
31.7615 25.6688 4.00758
32.3136 37.5072 3.76207
34.1846 37.5076 2
35.8312 37.5017 0.10705
35.4974 50.1023 0.00401453
34.3 47.3871 0.0813933
34.2141 39.1822 0.143981
33.1761 45.1427 0.118469
32.6033 42.6427 0.18033
32.7512 40.8794 0.264764
33.2934 49.0908 2
32.4498 39.2844 2
31.4343 41.1554 2
32.2914 46.3399 2
31.486 43.7516 2
31.2357 47.9325 3.99012
30.7068 39.4214 3.80903
30.1841 41.9509 3.87046
30.5359 44.9055 3.9363
32.0465 51.165 -0.00116616
29.9231 49.6841 2
27.9764 48.1479 3.96713
28.4689 51.5706 0.0225862
26.575 49.9575 2
24.7513 48.4387 3.97263
25.1302 51.7277 0.0396555
23.4164 50.1672 2
21.7681 48.7629 3.96947
22.0249 51.7863 0.0424165
20.5372 50.2948 2
19.1237 49.0731 3.97205
16.9596 49.317 3.97227
16.8226 51.394 3.96638
18.0555 50.314 2
16.4104 53.8607 3.96466
17.8778 52.7781 2
19.2605 51.6192 0.0357327
15.9861 56.4654 3.96708
17.4517 55.3298 2
18.9471 54.297 0.038865
15.753 59.2039 3.97319
17.1402 57.8659 2
18.4564 56.7133 0.0273372
15.789 62.1347 3.97832
17.138 60.5448 2
18.3717 59.1027 0.0268984
16.0885 65.2999 3.99092
17.4071 63.468 2
18.6189 61.7635 0.0228115
16.6661 68.6801 4
17.9407 66.6171 2
19.1264 64.6754 0.0144575
18.75 69.9759 2
19.885 67.8086 0.00788969
20.9142 71.1327 0
20.22 14.6005 3.97943
21.5879 13.611 2
20.5299 12 3.98119
21.1439 9.14877 3.98499
22.1906 11.0296 2
23.0962 12.79 0.0191447
22.016 6.08265 3.99118
23.0408 8.17822 2
23.9725 10.1699 0.0175452
23.1494 2.85457 4
24.1162 5.14353 2
25.0234 7.31282 0.0140168
25.446 1.99012 2
26.2793 4.32869 0.00814459
27.7943 1.27781 0
32.4383 35.7239 3.74657
34.2275 35.8406 2
35.842 35.8221 0.123721
21.3078 15.8356 2
20.3055 16.9686 3.98194
22.0994 16.6422 3.97853
25.3578 13.9109 0.019839
22.4809 15.0394 0.0200289
24.0262 15.6257 0.0200597
25.3825 16.0948 2
23.267 16.2582 2
24.2076 18.4618 3.97621
27.0282 21.4705 3.99131
28.3579 15.9817 0.0199829
27.4449 18.8079 2
31.4851 33.8779 3.81031
32.7849 34.1252 2
34.3142 34.2226 0.179078
33.1351 32.9994 0.311206
34.0254 31.234 0.187004
35.1892 28.9812 0.116405
37.6022 27.308 0.0730889
35.062 27.3995 2
32.563 32.3323 2
33.1746 29.8437 2
32.6211 28.1542 3.93856
31.5231 31.2862 3.87902
28.8645 24.4265 3.98068
29.5855 21.9546 2
30.2108 19.3533 0.0172445
35.0037 25.2484 -0.00345207
32.3111 22.4479 0.00544631
31.7628 25.6511 2
29.7391 27.341 3.96234
30.3936 37.4989 3.81654
32.3257 37.5044 2
34.1598 37.5049 0.135376
33.2982 49.0973 0.00486721
32.3227 46.3134 0.0828453
32.4348 39.2862 0.246262
31.513 43.7263 0.122404
31.4576 41.1349 0.189782
31.234 47.9353 2
30.6807 39.4387 2
30.161 41.9668 2
30.527 44.9212 2
29.3193 46.5338 4.00078
29.2803 39.8547 3.88607
28.8967 43.1314 3.93723
29.9258 49.6854 0.0109589
27.9742 48.1442 2
26.0861 46.6194 3.97601
26.5764 49.9589 0.028917
24.7507 48.4369 2
22.9491 47.0442 3.97396
23.4173 50.1688 0.033746
21.7675 48.7615 2
20.0976 47.5952 3.97703
20.5388 50.2957 0.0341709
19.1248 49.0721 2
17.7512 48.1621 3.97594
16.2018 48.6703 3.97515
16.9608 49.3163 2
15.8981 50.1579 3.96959
15.407 52.4059 3.96613
16.8223 51.3936 2
18.0546 50.3148 0.0318443
14.8799 54.969 3.96666
16.4098 53.8608 2
17.8805 52.7782 0.0369893
14.4649 57.7319 3.96964
15.9859 56.4658 2
17.4522 55.3295 0.0353588
14.2677 60.6882 3.97694
15.7531 59.2053 2
17.1405 57.8647 0.0281799
14.3334 63.8586 3.9883
15.7887 62.136 2
17.1378 60.5432 0.0246555
14.6715 67.2507 4
16.0875 65.2995 2
17.4074 63.4667 0.0174725
16.6661 68.6801 2
17.9414 66.6172 0.00810014
18.75 69.9759 0
18.9344 15.7871 3.97988
20.2206 14.6005 2
18.9798 13.1114 3.98016
21.5874 13.6109 0.0196503
20.5302 12 2
19.3431 10.2369 3.98445
19.9906 7.14731 3.991
21.1438 9.14854 2
22.1905 11.0297 0.0181431
20.9142 3.86727 4
22.0151 6.08283 2
23.0411 8.17868 0.0145763
23.1494 2.85451 2
24.1169 5.14355 0.00852026
25.446 1.99014 0
30.7258 35.5954 3.81234
32.452 35.7242 2
34.2088 35.8281 0.147256
21.3068 15.8357 0.0193286
22.1004 16.6423 2
20.3066 16.968 2
19.2509 18.4166 3.97722
21.7851 17.8592 3.98011
25.3818 16.0944 0.0199945
23.2661 16.258 0.0214721
24.2091 18.4621 2
22.2915 19.9061 3.97289
24.6099 21.34 3.9881
26.4734 23.7367 3.9695
27.0286 21.4701 2
27.4428 18.8074 0.01793
30.2151 33.063 3.88024
31.4654 33.8432 2
32.7714 34.1284 0.266767
32.6246 32.3578 0.192706
33.1915 29.8656 0.122192
35.0829 27.4389 0.0723547
32.6015 28.1373 2
31.4932 31.2563 2
30.2358 29.5892 3.95446
27.9815 26.5631 3.98252
28.8611 24.4387 2
29.588 21.949 0.00418981
31.7615 25.6688 -0.00757759
29.7371 27.3108 2
28.9274 37.5111 3.89241
30.3825 37.4998 2
32.3136 37.5072 0.237929
31.2357 47.9325 0.00987579
30.5359 44.9055 0.0636992
30.7068 39.4214 0.190967
30.1841 41.9509 0.129535
29.3183 46.5479 2
29.2544 39.8731 2
28.8697 43.1511 2
27.4727 44.8295 3.97839
27.0536 40.5849 3.96102
27.9764 48.1479 0.0328659
26.082 46.6221 2
24.1855 45.1716 3.97614
24.7513 48.4387 0.0273734
22.9492 47.0425 2
21.07 45.8656 3.97853
21.7681 48.7629 0.0305278
20.0982 47.5941 2
18.4273 46.7181 3.9781
19.1237 49.0731 0.0279464
17.752 48.1613 2
16.405 47.6998 3.97632
16.2028 48.6697 2
15.2425 49.0041 3.97275
16.9596 49.317 0.0277304
15.8992 50.1573 2
14.5204 50.9759 3.96798
13.8409 53.4283 3.96674
15.4076 52.4057 2
16.8226 51.394 0.0336202
13.2619 56.1604 3.96794
14.8801 54.969 2
16.4104 53.8607 0.0353444
12.8513 59.1214 3.97502
14.465 57.7327 2
15.9861 56.4654 0.0329153
12.6793 62.3008 3.98576
14.2676 60.6892 2
15.753 59.2039 0.0268077
12.7746 65.6939 4
14.3321 63.8576 2
15.789 62.1347 0.0216777
14.6714 67.2507 2
16.0885 65.2999 0.00908342
16.6661 68.6801 0
17.6714 17.1632 3.9761
18.9351 15.7869 2
17.5117 14.3761 3.97922
20.22 14.6005 0.0205735
18.9803 13.1113 2
17.6387 11.4562 3.98341
20.5299 12 0.0188096
19.3432 10.2367 2
18.0508 8.34008 3.99087
18.75 5.0241 4
19.9897 7.14781 2
21.1439 9.14877 0.0150119
20.9142 3.86727 2
22.016 6.08265 0.00882376
23.1494 2.85457 0
29.3004 35.1397 3.88892
30.6956 35.5729 2
32.4383 35.7239 0.253427
22.0994 16.6422 0.0214736
20.3055 16.9686 0.0180649
21.7863 17.859 2
19.2519 18.4155 2
17.9972 19.9499 3.97295
20.8876 19.3896 3.97687
24.2076 18.4618 0.023792
22.2923 19.9057 2
24.6105 21.3403 2
22.3852 21.7346 3.97752
24.7431 23.1813 3.97371
25.5662 25.9644 3.97359
26.4752 23.7366 2
27.0282 21.4705 0.00868997
28.5948 32.3662 3.93757
30.1883 33.0462 2
31.4851 33.8779 0.189694
31.5231 31.2862 0.120984
32.6211 28.1542 0.0614379
30.229 29.5884 2
27.1735 29.1486 4.00506
27.9771 26.5722 2
28.8645 24.4265 0.0193191
29.7391 27.341 0.0376616
27.1721 37.3655 3.94072
28.8858 37.5052 2
30.3936 37.4989 0.183463
29.3193 46.5338 -0.000780337
28.8967 43.1314 0.0627728
29.2803 39.8547 0.113927
27.4675 44.8491 2
27.0371 40.5997 2
25.4922 43.1429 3.98587
24.3073 39.4475 3.97732
26.0861 46.6194 0.0239928
24.1798 45.1705 2
22.0755 43.9182 3.97858
22.9491 47.0442 0.0260372
21.0689 45.8645 2
19.1177 44.9486 3.97831
20.0976 47.5952 0.0229656
18.4283 46.7171 2
16.7141 46.1983 3.97695
17.7512 48.1621 0.0240575
16.4059 47.6993 2
14.985 47.6589 3.97436
16.2018 48.6703 0.0248471
15.2436 49.0036 2
13.8185 49.5379 3.96969
15.8981 50.1579 0.0304062
14.5212 50.9756 2
12.9097 51.8689 3.96734
12.1488 54.5221 3.96866
13.8411 53.4283 2
15.407 52.4059 0.0338676
11.5373 57.4538 3.97288
13.2622 56.1606 2
14.8799 54.969 0.0333368
11.1342 60.6266 3.98357
12.8514 59.1218 2
14.4649 57.7319 0.0303631
10.9835 64.0165 4
12.6778 62.299 2
14.2677 60.6882 0.0230617
12.7745 65.694 2
14.3334 63.8586 0.0116979
14.6715 67.2507 0
16.4096 18.6601 3.97128
17.672 17.1624 2
16.1036 15.7857 3.97809
18.9344 15.7871 0.0201218
17.5123 14.3755 2
16.0204 12.8102 3.98157
18.9798 13.1114 0.0198354
17.6389 11.4559 2
16.202 9.66304 3.99056
19.3431 10.2369 0.0155471
18.0498 8.34087 2
16.6661 6.31991 4
18.75 5.02404 2
19.9906 7.14731 0.00899505
20.9142 3.86727 0
27.6975 34.7899 3.93422
29.2741 35.1167 2
30.7258 35.5954 0.187661
16.7094 21.3872 3.96127
21.7851 17.8592 0.0198891
19.2509 18.4166 0.0227849
20.8885 19.3889 2
17.998 19.9486 2
19.7519 21.5867 3.97457
22.2915 19.9061 0.0271061
24.6099 21.34 0.0119035
22.3857 21.7345 2
24.7439 23.1811 2
22.9184 24.6158 3.97137
24.7146 28.5436 3.97751
25.5644 25.9638 2
26.4734 23.7367 0.0304965
26.4393 31.7276 3.98577
28.5663 32.3467 2
30.2151 33.063 0.119762
30.2358 29.5892 0.0455357
27.1934 29.1364 2
27.9815 26.5631 0.0174849
24.9999 36.86 3.98595
27.1492 37.3591 2
28.9274 37.5111 0.10759
27.4727 44.8295 0.0216132
27.0536 40.5849 0.0389837
25.4784 43.1515 2
24.2923 39.4459 2
23.2024 41.8072 3.98012
22.0259 38.516 3.97783
24.1855 45.1716 0.0238626
22.0736 43.9184 2
19.9237 42.8754 3.97749
21.07 45.8656 0.0214654
19.1174 44.9482 2
17.0743 44.3649 3.97701
18.4273 46.7181 0.0218996
16.7151 46.1977 2
14.922 46.0798 3.97492
16.405 47.6998 0.0236808
14.986 47.6585 2
13.3315 48.0008 3.97102
15.2425 49.0041 0.0272497
13.8194 49.5376 2
12.1284 50.2484 3.9679
14.5204 50.9759 0.0320243
12.9101 51.8688 2
11.1436 52.8334 3.96872
10.328 55.7079 3.97295
12.1493 54.5221 2
13.8409 53.4283 0.0332623
9.70115 58.8486 3.98144
11.5375 57.4538 2
13.2619 56.1604 0.0320621
9.30605 62.2254 4
11.1326 60.6241 2
12.8513 59.1214 0.0249793
10.9835 64.0165 2
12.6793 62.3008 0.0142412
12.7746 65.6939 0
15.1613 20.196 3.96602
16.4102 18.6593 2
14.7521 17.3102 3.97316
17.6714 17.1632 0.0238981
16.1041 15.7846 2
14.4833 14.293 3.97993
17.5117 14.3761 0.0207776
16.0207 12.8095 2
14.4448 11.1142 3.98976
17.6387 11.4562 0.016595
16.201 9.66406 2
14.6715 7.74927 4
18.0508 8.34008 0.00913478
16.6661 6.31988 2
18.75 5.0241 0
25.6548 34.274 3.99129
27.6766 34.7855 2
29.3004 35.1397 0.111085
17.8947 22.3381 3.9714
15.5494 22.9282 3.96699
16.7101 21.3867 2
20.8876 19.3896 0.0231285
17.9972 19.9499 0.0270471
19.7526 21.586 2
19.7398 24.396 3.96936
22.3852 21.7346 0.0224815
24.7431 23.1813 0.026286
22.9185 24.6158 2
22.0828 27.8446 3.97178
23.9967 31.2108 3.97592
24.7282 28.5451 2
25.5662 25.9644 0.0264131
26.4267 31.7066 2
28.5948 32.3662 0.0624342
27.1735 29.1486 -0.00506
22.7515 36.2863 3.98194
24.9782 36.8553 2
27.1721 37.3655 0.0592769
25.4922 43.1429 0.0141332
24.3073 39.4475 0.022684
23.1945 41.8055 2
22.0181 38.5142 2
20.9365 40.64 3.97619
20.339 37.7999 3.97733
22.0755 43.9182 0.0214187
19.9228 42.8751 2
17.5235 42.0852 3.97716
19.1177 44.9486 0.0216899
17.0754 44.3644 2
14.9486 44.1908 3.97539
16.7141 46.1983 0.0230502
14.9228 46.0794 2
13.0152 46.2881 3.97161
14.985 47.6589 0.0256356
13.3322 48.0006 2
11.5016 48.5458 3.96822
13.8185 49.5379 0.0303101
12.1289 50.2483 2
10.269 51.0782 3.96855
12.9097 51.8689 0.032662
11.1441 52.8332 2
9.23649 53.8879 3.97297
8.38467 56.9815 3.98146
10.3284 55.7075 2
12.1488 54.5221 0.0313428
7.74927 60.3285 4
9.69994 58.8454 2
11.5373 57.4538 0.0271163
9.306 62.2255 2
11.1342 60.6266 0.0164282
10.9835 64.0165 0
13.9732 21.7593 3.967
15.1621 20.1954 2
13.4572 18.9102 3.96828
16.4096 18.6601 0.0287213
14.7527 17.3089 2
13.0296 15.8869 3.97786
16.1036 15.7857 0.0219092
14.4835 14.2918 2
12.7824 12.6878 3.98818
16.0204 12.8102 0.0184297
14.4438 11.1155 2
12.7746 9.30605 4
16.202 9.66304 0.00944248
14.6715 7.74924 2
16.6661 6.31991 0
23.3305 33.8185 3.98257
25.6353 34.2673 2
27.6975 34.7899 0.0657756
17.6858 24.0559 3.97101
17.8953 22.3376 2
14.3547 24.4599 3.96966
15.5501 22.9279 2
16.7094 21.3872 0.038733
19.1782 27.2218 3.97102
19.7519 21.5867 0.0254279
19.7394 24.3956 2
21.3844 30.6851 3.97404
22.9184 24.6158 0.0286295
22.0912 27.8457 2
23.9824 31.2105 2
24.7146 28.5436 0.0224901
26.4393 31.7276 0.0142345
20.4599 35.9422 3.97721
22.7474 36.2801 2
24.9999 36.86 0.014049
23.2024 41.8072 0.0198849
22.0259 38.516 0.0221703
20.9413 40.6401 2
20.3423 37.7993 2
18.2656 39.0055 3.97757
19.9237 42.8754 0.0225056
17.5254 42.0845 2
14.9236 41.9114 3.97635
17.0743 44.3649 0.0229863
14.95 44.1905 2
12.77 44.385 3.97198
14.922 46.0798 0.0250783
13.0158 46.2879 2
11.0066 46.7298 3.96848
13.3315 48.0008 0.02898
11.502 48.5457 2
9.53198 49.2387 3.96824
12.1284 50.2484 0.0320998
10.2694 51.078 2
8.26934 52.0017 3.97249
11.1436 52.8334 0.0312782
9.23694 53.8873 2
7.19354 55.0323 3.98242
6.31991 58.3339 4
8.38383 56.9783 2
10.328 55.7079 0.0270526
7.74924 60.3285 2
9.70115 58.8486 0.0185645
9.30605 62.2254 0
13.2591 25.3696 3.97157
12.8434 23.2867 3.96706
13.9742 21.759 2
12.2442 20.5573 3.96869
15.1613 20.196 0.0339818
13.4581 18.9093 2
11.6617 17.5694 3.97404
14.7521 17.3102 0.0268366
13.03 15.8858 2
11.2201 14.3732 3.98572
14.4833 14.293 0.0200741
12.7811 12.6893 2
10.9835 10.9835 4
14.4448 11.1142 0.0102429
12.7745 9.306 2
14.6715 7.74927 0
20.8179 33.4156 3.97564
23.3369 33.8242 2
25.6548 34.274 0.00870875
15.9986 26.4149 3.97161
17.6861 24.0556 2
17.8947 22.3381 0.028599
14.355 24.4598 2
15.5494 22.9282 0.0330136
18.5424 30.1905 3.97449
19.1786 27.2219 2
19.7398 24.396 0.0306355
21.3926 30.6861 2
22.0828 27.8446 0.0282247
23.9967 31.2108 0.0240804
17.8799 35.9758 3.97788
20.4583 35.9428 2
22.7515 36.2863 0.0180642
20.9365 40.64 0.0238063
20.339 37.7999 0.02267
18.2675 39.0057 2
14.4348 39.1745 3.97732
17.5235 42.0852 0.0228441
14.9253 41.9112 2
12.4723 42.2711 3.97211
14.9486 44.1908 0.0246144
12.7707 44.3849 2
10.5897 44.7986 3.96895
13.0152 46.2881 0.0283925
11.0069 46.7297 2
8.91409 47.318 3.96792
11.5016 48.5458 0.0317821
9.5322 49.2385 2
7.43624 50.0352 3.97196
10.269 51.0782 0.031448
8.2697 52.0011 2
6.13417 53.0074 3.98286
9.23649 53.8879 0.0270251
7.19301 55.0295 2
5.0241 56.25 4
6.31988 58.3339 2
8.38467 56.9815 0.018537
7.74927 60.3285 0
13.5201 26.8231 3.97096
11.9512 24.7923 3.96882
13.259 25.3695 2
11.146 22.2386 3.96855
12.8435 23.2865 2
13.9732 21.7593 0.0329963
12.2453 20.557 2
10.3933 19.3237 3.97263
13.4572 18.9102 0.0317211
11.6624 17.5688 2
9.76146 16.1576 3.98258
13.0296 15.8869 0.022142
11.2187 14.3753 2
9.30607 12.7746 4
12.7824 12.6878 0.0118191
10.9835 10.9835 2
12.7746 9.30605 0
18.0509 33.1258 3.97683
20.8219 33.4158 2
23.3305 33.8185 0.0174255
15.6145 29.6499 3.97352
15.9991 26.415 2
17.6858 24.0559 0.0289868
14.3547 24.4599 0.0303379
18.5416 30.1905 2
19.1782 27.2218 0.0289814
21.3844 30.6851 0.0259588
15.0557 36.0228 3.9774
17.8828 35.9761 2
20.4599 35.9422 0.0227937
12.6932 37.8294 3.97556
18.2656 39.0055 0.0224275
14.4358 39.1744 2
11.9892 40.1371 3.97292
14.9236 41.9114 0.0236525
12.473 42.2709 2
10.1987 42.7744 3.96908
12.77 44.385 0.0280211
10.5899 44.7985 2
8.39195 45.32 3.96771
11.0066 46.7298 0.0315154
8.91419 47.3179 2
6.7275 48.0005 3.97147
9.53198 49.2387 0.0317607
7.43643 50.0348 2
5.211 50.9107 3.98264
8.26934 52.0017 0.0275055
6.1339 53.0055 2
3.86727 54.0858 4
7.19354 55.0323 0.017578
5.02404 56.25 2
6.31991 58.3339 0
12.991 29.0414 3.97062
11.3906 26.4921 3.9689
13.5197 26.823 2
10.2036 23.9698 3.96887
11.9519 24.7922 2
13.2591 25.3696 0.028429
9.24539 21.1405 3.97271
11.147 22.2384 2
12.8434 23.2867 0.0329385
12.2442 20.5573 0.0313138
10.3943 19.3237 2
8.41765 18.0292 3.98111
11.6617 17.5694 0.0259587
9.76031 16.1606 2
7.74928 14.6715 4
11.2201 14.3732 0.0142757
9.30602 12.7745 2
10.9835 10.9835 0
14.6147 32.8712 3.97558
18.0529 33.1262 2
20.8179 33.4156 0.0243588
15.6151 29.65 2
15.9986 26.4149 0.0283925
18.5424 30.1905 0.0255079
12.9915 36.2114 3.97436
15.0575 36.0231 2
17.8799 35.9758 0.0221213
12.6941 37.8294 2
11.3316 38.3087 3.97377
14.4348 39.1745 0.0226834
11.9905 40.1369 2
9.78896 40.7518 3.96981
12.4723 42.2711 0.0278944
10.1994 42.7742 2
7.9411 43.2689 3.96768
10.5897 44.7986 0.0310459
8.39204 45.3198 2
6.13379 45.9055 3.97094
8.91409 47.318 0.0320809
6.72757 48.0001 2
4.42256 48.7515 3.98205
7.43624 50.0352 0.0280375
5.21088 50.9098 2
2.85457 51.8506 4
6.13417 53.0074 0.0171423
3.86727 54.0858 2
5.0241 56.25 0
12.1379 31.2633 3.97191
10.811 28.4197 3.96893
12.9916 29.0414 2
9.41816 25.7994 3.96854
11.3907 26.492 2
13.5201 26.8231 0.0290367
8.23193 23.024 3.97259
10.2043 23.9697 2
11.9512 24.7923 0.0311833
7.19966 19.9791 3.98174
9.24631 21.1408 2
11.146 22.2386 0.0314483
10.3933 19.3237 0.0273667
8.41707 18.0325 2
6.31992 16.6661 4
9.76146 16.1576 0.0174216
7.74926 14.6714 2
9.30607 12.7746 0
12.1665 34.2986 3.97465
14.6156 32.8714 2
18.0509 33.1258 0.0231706
15.6145 29.6499 0.0264782
10.894 36.6118 3.97309
12.992 36.2115 2
15.0557 36.0228 0.0225983
12.6932 37.8294 0.0244439
11.3325 38.3086 2
9.37912 38.8222 3.97027
11.9892 40.1371 0.0270817
9.78949 40.7516 2
7.55216 41.2105 3.96797
10.1987 42.7744 0.0309182
7.94111 43.2688 2
5.64585 43.7683 3.97068
8.39195 45.32 0.0322914
6.13388 45.9051 2
3.76821 46.5371 3.98146
6.7275 48.0005 0.0285281
4.42257 48.751 2
1.99014 49.554 4
5.211 50.9107 0.0173623
2.85451 51.8506 2
3.86727 54.0858 0
10.9764 32.9233 3.97343
10.1298 30.3863 3.96925
12.1387 31.2634 2
8.72618 27.7329 3.96817
10.8112 28.4196 2
12.991 29.0414 0.0293798
7.35737 24.9827 3.97194
9.41844 25.7993 2
11.3906 26.4921 0.0310984
6.11647 22.0023 3.98272
8.23258 23.0242 2
10.2036 23.9698 0.0311316
5.02411 18.75 4
7.19943 19.9818 2
9.24539 21.1405 0.0272928
8.41765 18.0292 0.0188901
6.3199 16.6661 2
7.74928 14.6715 0
10.4982 35.0021 3.97273
12.1673 34.2987 2
14.6147 32.8712 0.0244189
9.04624 36.9848 3.97063
10.8952 36.6118 2
12.9915 36.2114 0.0256406
11.3316 38.3087 0.026232
9.37989 38.8221 2
7.2325 39.1817 3.96829
9.78896 40.7518 0.0301859
7.55241 41.2104 2
5.26114 41.6139 3.97038
7.9411 43.2689 0.0323212
5.64587 43.768 2
3.246 44.2819 3.98125
6.13379 45.9055 0.0290603
3.76834 46.5369 2
1.27781 47.2057 4
4.42256 48.7515 0.0179469
1.99012 49.554 2
2.85457 51.8506 0
10.1345 33.8841 3.97311
9.41597 32.1574 3.97001
10.977 32.9234 2
8.07507 29.6963 3.96817
10.1302 30.3863 2
12.1379 31.2633 0.0280925
6.60125 27.0087 3.97131
8.72618 27.7329 2
10.811 28.4197 0.0310723
5.17184 24.095 3.98275
7.3577 24.9828 2
9.41816 25.7994 0.0314611
3.86728 20.9142 4
6.11642 22.004 2
8.23193 23.024 0.0274104
5.02406 18.75 2
7.19966 19.9791 0.0182641
6.31992 16.6661 0
8.86949 35.2804 3.97091
10.4987 35.0021 2
12.1665 34.2986 0.0253478
7.01594 37.2059 3.96855
9.04657 36.9847 2
10.894 36.6118 0.0269142
9.37912 38.8222 0.0297342
7.23276 39.1816 2
4.98892 39.4672 3.97045
7.55216 41.2105 0.0320278
5.26138 41.6136 2
2.85652 42.0022 3.98109
5.64585 43.7683 0.0293181
3.24607 44.2818 2
0.720592 44.8159 4
3.76821 46.5371 0.018544
1.27778 47.2057 2
1.99014 49.554 0
8.9075 33.6996 3.97076
10.1352 33.8841 2
7.51237 31.6098 3.96844
9.41642 32.1574 2
10.9764 32.9233 0.0265737
5.94636 29.0697 3.97122
8.07502 29.6963 2
10.1298 30.3863 0.0307497
4.35963 26.2475 3.98205
6.6013 27.0088 2
8.72618 27.7329 0.0318321
2.85458 23.1494 4
5.17186 24.0957 2
7.35737 24.9827 0.0280626
3.86728 20.9142 2
6.11647 22.0023 0.0172774
5.02411 18.75 0
6.96594 35.3062 3.96871
8.87007 35.2803 2
10.4982 35.0021 0.0272657
4.83884 37.3396 3.97115
7.016 37.2058 2
9.04624 36.9848 0.0293657
7.2325 39.1817 0.0317061
4.98918 39.467 2
2.60464 39.7139 3.98083
5.26114 41.6139 0.0296176
2.85676 42.0023 2
0.320823 42.3947 4
3.246 44.2819 0.0187497
0.720551 44.8159 2
1.27781 47.2057 0
7.12594 33.4613 3.96875
8.9078 33.6995 2
10.1345 33.8841 0.0268915
5.41713 31.1336 3.97134
7.5124 31.6098 2
9.41597 32.1574 0.0299894
3.68136 28.4434 3.98155
5.94633 29.0698 2
8.07507 29.6963 0.0318295
1.99015 25.446 4
4.35967 26.2476 2
6.60125 27.0087 0.0286934
2.85453 23.1494 2
5.17184 24.095 0.0172475
3.86728 20.9142 0
4.85303 35.2514 3.97145
6.96625 35.3062 2
8.86949 35.2804 0.0290887
2.49598 37.4285 3.98153
4.83887 37.3397 2
7.01594 37.2059 0.0314537
4.98892 39.4672 0.0295518
2.60493 39.7143 2
0.080333 39.9526 4
2.85652 42.0022 0.0189061
0.320817 42.3947 2
0.720592 44.8159 0
5.04642 33.1901 3.97154
7.12605 33.4613 2
8.9075 33.6996 0.0292359
3.14565 30.6661 3.98134
5.41716 31.1338 2
7.51237 31.6098 0.0315571
1.27793 27.7943 4
3.68145 28.4435 2
5.94636 29.0697 0.0287824
1.99013 25.446 2
4.35963 26.2475 0.0179512
2.85458 23.1494 0
2.54806 35.159 3.98156
4.85335 35.2516 2
6.96594 35.3062 0.0312863
0 37.5 4
2.49604 37.4289 2
4.83884 37.3396 0.0288489
2.60464 39.7139 0.0191653
0.0802903 39.9526 2
0.320823 42.3947 0
2.76566 32.9057 3.98165
5.04652 33.1904 2
7.12594 33.4613 0.0312471
0.721173 30.1842 4
3.14579 30.6665 2
5.41713 31.1336 0.0286607
1.27779 27.7943 2
3.68136 28.4434 0.0184506
1.99015 25.446 0
0.0806499 35.0474 4
2.54842 35.1594 2
4.85303 35.2514 0.028548
0 37.5 2
2.49598 37.4285 0.0184676
0.080333 39.9526 0
0.32156 32.6054 4
2.76576 32.9062 2
5.04642 33.1901 0.0284565
0.72056 30.1841 2
3.14565 30.6661 0.0186558
1.27793 27.7943 0
0.0802889 35.0474 2
2.54806 35.159 0.0184396
0 37.5 0
0.320817 32.6053 2
2.76566 32.9057 0.0183519
0.721173 30.1842 0
0.0806499 35.0474 0
0.32156 32.6054 0
CELLS 1910 17190
8 18 6 25 56 2 0 5 16
8 57 23 6 18 17 4 0 2
8 78 36 9 29 31 11 1 7
8 31 11 1 7 79 37 10 30
8 110 57 18 50 48 17 2 14
8 50 18 56 111 14 2 16 49
8 116 62 22 55 52 20 3 15
8 56 25 67 118 16 5 24 53
8 119 63 23 57 54 21 4 17
8 55 22 63 119 15 3 21 54
8 58 26 68 121 18 6 25 56
8 122 65 26 58 57 23 6 18
8 73 31 7 27 142 79 30 71
8 143 78 29 72 73 31 7 27
8 83 147 76 34 32 74 28 8
8 84 148 78 36 33 75 29 9
8 76 34 8 28 148 84 33 75
8 37 79 150 86 10 30 77 35
8 151 87 36 78 80 38 11 31
8 80 38 11 31 152 88 37 79
8 175 100 42 94 96 44 12 40
8 44 96 176 101 12 40 95 43
8 101 176 98 46 43 95 41 13
8 46 98 178 103 13 41 97 45
8 178 103 45 97 147 83 32 74
8 189 116 55 109 106 52 15 47
8 111 56 118 191 49 16 53 107
8 192 119 57 110 108 54 17 48
8 109 55 119 192 47 15 54 108
8 194 122 58 112 110 57 18 50
8 112 58 121 195 50 18 56 111
8 115 61 19 51 197 124 59 113
8 115 61 125 198 51 19 60 114
8 198 125 62 116 114 60 20 52
8 200 127 64 120 116 62 22 55
8 118 67 132 202 53 24 66 117
8 121 68 133 203 56 25 67 118
8 120 64 128 204 55 22 63 119
8 204 128 65 122 119 63 23 57
8 206 134 68 121 123 69 26 58
8 123 69 26 58 207 131 65 122
8 226 147 74 138 140 76 28 70
8 229 148 75 139 143 78 29 72
8 140 76 28 70 229 148 75 139
8 142 79 30 71 231 150 77 141
8 144 80 31 73 232 152 79 142
8 233 151 78 143 144 80 31 73
8 150 86 35 77 235 154 81 145
8 235 154 81 145 146 82 39 91
8 146 82 39 91 236 155 90 165
8 238 157 83 147 149 85 34 76
8 239 158 84 148 151 87 36 78
8 149 85 34 76 239 158 84 148
8 152 88 37 79 241 160 86 150
8 242 161 87 151 153 89 38 80
8 153 89 38 80 243 162 88 152
8 171 98 41 92 265 178 97 169
8 265 178 97 169 226 147 74 138
8 172 96 40 93 266 176 95 170
8 266 176 95 170 171 98 41 92
8 269 175 94 173 172 96 40 93
8 271 180 99 174 175 100 42 94
8 197 124 59 113 271 180 99 174
8 272 181 100 175 177 102 44 96
8 273 182 101 176 179 104 46 98
8 177 102 44 96 273 182 101 176
8 179 104 46 98 275 184 103 178
8 275 184 103 178 238 157 83 147
8 188 115 51 105 283 197 113 186
8 188 115 198 284 105 51 114 187
8 284 198 116 189 187 114 52 106
8 286 200 120 193 189 116 55 109
8 191 118 202 288 107 53 117 190
8 195 121 203 289 111 56 118 191
8 193 120 204 290 109 55 119 192
8 290 204 122 194 192 119 57 110
8 196 123 58 112 292 207 122 194
8 293 206 121 195 196 123 58 112
8 199 126 61 115 297 211 124 197
8 298 212 127 200 198 125 62 116
8 199 126 212 298 115 61 125 198
8 205 129 64 120 300 214 127 200
8 301 217 130 201 202 132 66 117
8 209 136 168 264 301 217 130 201
8 302 219 132 202 203 133 67 118
8 303 220 133 203 206 134 68 121
8 205 129 215 304 120 64 128 204
8 304 215 131 207 204 128 65 122
8 306 221 134 206 208 135 69 123
8 208 135 69 123 307 218 131 207
8 210 137 167 263 309 223 136 209
8 328 238 147 226 230 149 76 140
8 228 146 91 166 329 236 165 260
8 231 150 77 141 330 235 145 227
8 330 235 145 227 228 146 91 166
8 332 239 148 229 233 151 78 143
8 230 149 76 140 332 239 148 229
8 232 152 79 142 334 241 150 231
8 234 153 80 144 335 243 152 232
8 336 242 151 233 234 153 80 144
8 236 155 90 165 338 245 164 259
8 241 160 86 150 339 246 154 235
8 339 246 154 235 237 156 82 146
8 237 156 82 146 340 247 155 236
8 342 249 157 238 240 159 85 149
8 343 250 158 239 242 161 87 151
8 240 159 85 149 343 250 158 239
8 243 162 88 152 345 252 160 241
8 244 163 253 346 153 89 161 242
8 244 163 89 153 347 254 162 243
8 311 224 261 371 210 137 167 263
8 263 167 262 372 209 136 168 264
8 267 179 98 171 375 275 178 265
8 375 275 178 265 328 238 147 226
8 376 273 176 266 267 179 98 171
8 268 177 96 172 376 273 176 266
8 379 272 175 269 268 177 96 172
8 380 271 174 270 269 175 94 173
8 283 197 113 186 380 271 174 270
8 381 277 180 271 272 181 100 175
8 297 211 124 197 381 277 180 271
8 382 278 181 272 274 183 102 177
8 274 183 102 177 383 279 182 273
8 383 279 182 273 276 185 104 179
8 385 281 184 275 342 249 157 238
8 276 185 104 179 385 281 184 275
8 285 199 115 188 393 297 197 283
8 394 298 200 286 284 198 116 189
8 285 199 298 394 188 115 198 284
8 291 205 120 193 396 300 200 286
8 397 301 201 287 288 202 117 190
8 295 209 264 374 397 301 201 287
8 398 302 202 288 289 203 118 191
8 399 303 203 289 293 206 121 195
8 291 205 304 400 193 120 204 290
8 400 304 207 292 290 204 122 194
8 294 208 123 196 402 307 207 292
8 403 306 206 293 294 208 123 196
8 296 210 263 373 405 309 209 295
8 408 312 213 299 297 211 126 199
8 299 213 313 409 199 126 212 298
8 409 313 214 300 298 212 127 200
8 305 216 129 205 411 315 214 300
8 412 318 217 301 302 219 132 202
8 309 223 136 209 412 318 217 301
8 413 320 219 302 303 220 133 203
8 306 221 321 414 206 134 220 303
8 307 218 131 207 415 316 215 304
8 305 216 316 415 205 129 215 304
8 417 322 221 306 308 222 135 208
8 308 222 135 208 418 319 218 307
8 310 225 137 210 420 325 223 309
8 423 326 224 311 310 225 137 210
8 329 236 165 260 441 338 259 368
8 442 342 238 328 333 240 149 230
8 331 237 146 228 443 340 236 329
8 334 241 150 231 444 339 235 330
8 444 339 235 330 331 237 146 228
8 446 343 239 332 336 242 151 233
8 333 240 149 230 446 343 239 332
8 335 243 152 232 448 345 241 334
8 337 244 153 234 449 347 243 335
8 337 244 346 450 234 153 242 336
8 338 245 164 259 452 349 258 367
8 340 247 155 236 453 350 245 338
8 345 252 160 241 454 351 246 339
8 454 351 246 339 341 248 156 237
8 341 248 156 237 455 352 247 340
8 240 159 251 344 342 249 354 457
8 242 161 253 346 343 250 355 458
8 343 250 355 458 240 159 251 344
8 347 254 162 243 460 357 252 345
8 348 255 358 461 244 163 253 346
8 348 255 163 244 462 359 254 347
8 473 360 257 365 363 256 364 482
8 452 349 258 367 365 257 366 485
8 422 324 369 488 311 224 261 371
8 371 261 370 490 263 167 262 372
8 407 311 371 491 296 210 263 373
8 373 263 372 492 295 209 264 374
8 493 385 275 375 442 342 238 328
8 377 276 179 267 493 385 275 375
8 378 274 177 268 494 383 273 376
8 494 383 273 376 377 276 179 267
8 497 382 272 379 378 274 177 268
8 498 381 271 380 379 272 175 269
8 393 297 197 283 498 381 271 380
8 499 387 277 381 382 278 181 272
8 408 312 211 297 499 387 277 381
8 500 388 278 382 384 280 183 274
8 501 389 279 383 386 282 185 276
8 384 280 183 274 501 389 279 383
8 386 282 185 276 503 391 281 385
8 503 391 281 385 457 354 249 342
8 511 408 299 395 393 297 199 285
8 395 299 409 512 285 199 298 394
8 512 409 300 396 394 298 200 286
8 401 305 205 291 514 411 300 396
8 515 412 301 397 398 302 202 288
8 405 309 209 295 515 412 301 397
8 516 413 302 398 399 303 203 289
8 403 306 414 517 293 206 303 399
8 402 307 207 292 518 415 304 400
8 401 305 415 518 291 205 304 400
8 404 308 208 294 520 418 307 402
8 521 417 306 403 404 308 208 294
8 406 310 210 296 523 420 309 405
8 526 423 311 407 406 310 210 296
8 410 314 213 299 527 424 312 408
8 528 425 315 411 409 313 214 300
8 410 314 425 528 299 213 313 409
8 416 317 216 305 530 427 315 411
8 531 430 318 412 413 320 219 302
8 420 325 223 309 531 430 318 412
8 532 432 320 413 414 321 220 303
8 417 322 433 533 306 221 321 414
8 418 319 218 307 534 428 316 415
8 416 317 428 534 305 216 316 415
8 419 323 434 536 308 222 322 417
8 419 323 222 308 537 431 319 418
8 421 327 225 310 539 438 325 420
8 421 327 439 541 310 225 326 423
8 543 437 324 422 423 326 224 311
8 441 338 259 368 559 452 367 486
8 443 340 236 329 560 453 338 441
8 333 240 344 447 442 342 457 561
8 445 341 237 331 562 455 340 443
8 448 345 241 334 563 454 339 444
8 563 454 339 444 445 341 237 331
8 336 242 346 450 446 343 458 565
8 446 343 458 565 333 240 344 447
8 449 347 243 335 567 460 345 448
8 451 348 244 337 568 462 347 449
8 451 348 461 569 337 244 346 450
8 570 463 349 452 473 360 257 365
8 453 350 245 338 570 463 349 452
8 455 352 247 340 571 464 350 453
8 460 357 252 345 572 465 351 454
8 572 465 351 454 456 353 248 341
8 456 353 248 341 573 466 352 455
8 344 251 356 459 457 354 468 575
8 458 355 469 576 344 251 356 459
8 346 253 358 461 458 355 469 576
8 462 359 254 347 578 471 357 460
8 348 255 359 462 461 358 472 579
8 591 474 360 473 475 361 256 363
8 475 361 256 363 594 477 362 479
8 363 256 364 482 479 362 480 603
8 590 473 365 484 481 363 482 605
8 482 364 257 365 606 483 366 485
8 559 452 367 486 484 365 485 607
8 542 436 487 609 422 324 369 488
8 525 422 488 611 407 311 371 491
8 488 369 489 612 371 261 370 490
8 491 371 490 613 373 263 372 492
8 495 386 276 377 614 503 385 493
8 614 503 385 493 561 457 342 442
8 615 501 383 494 495 386 276 377
8 496 384 274 378 615 501 383 494
8 618 500 382 497 496 384 274 378
8 619 499 381 498 497 382 272 379
8 511 408 297 393 619 499 381 498
8 620 505 387 499 500 388 278 382
8 527 424 312 408 620 505 387 499
8 502 390 506 621 384 280 388 500
8 622 507 389 501 504 392 282 386
8 502 390 280 384 622 507 389 501
8 504 392 282 386 624 509 391 503
8 624 509 391 503 575 468 354 457
8 513 410 299 395 630 527 408 511
8 631 528 411 514 512 409 300 396
8 513 410 528 631 395 299 409 512
8 519 416 305 401 633 530 411 514
8 634 531 412 515 516 413 302 398
8 523 420 309 405 634 531 412 515
8 635 532 413 516 517 414 303 399
8 521 417 533 636 403 306 414 517
8 520 418 307 402 637 534 415 518
8 519 416 534 637 401 305 415 518
8 522 419 308 404 639 537 418 520
8 522 419 536 640 404 308 417 521
8 524 421 310 406 642 539 420 523
8 524 421 541 644 406 310 423 526
8 646 543 422 525 526 423 311 407
8 529 426 314 410 647 544 424 527
8 528 425 545 648 411 315 427 530
8 529 426 545 648 410 314 425 528
8 535 429 317 416 649 546 427 530
8 650 548 430 531 532 432 320 413
8 539 438 325 420 650 548 430 531
8 533 433 550 651 414 321 432 532
8 536 434 551 652 417 322 433 533
8 537 431 319 418 653 547 428 534
8 535 429 547 653 416 317 428 534
8 538 435 552 654 419 323 434 536
8 538 435 323 419 655 549 431 537
8 540 440 327 421 657 556 438 539
8 540 440 557 659 421 327 439 541
8 541 439 555 660 423 326 437 543
8 661 554 436 542 543 437 324 422
8 676 570 452 559 590 473 365 484
8 560 453 338 441 676 570 452 559
8 562 455 340 443 677 571 453 560
8 447 344 459 566 561 457 575 678
8 564 456 341 445 679 573 455 562
8 567 460 345 448 680 572 454 563
8 680 572 454 563 564 456 341 445
8 565 458 576 682 447 344 459 566
8 450 346 461 569 565 458 576 682
8 568 462 347 449 684 578 460 567
8 451 348 462 568 569 461 579 685
8 686 580 463 570 591 474 360 473
8 571 464 350 453 686 580 463 570
8 573 466 352 455 687 581 464 571
8 572 465 582 688 460 357 471 578
8 574 467 582 688 456 353 465 572
8 574 467 353 456 689 583 466 573
8 459 356 470 577 575 468 585 691
8 576 469 586 692 459 356 470 577
8 461 358 472 579 576 469 586 692
8 462 359 471 578 579 472 588 694
8 704 591 473 590 593 475 363 481
8 595 476 592 705 475 361 474 591
8 593 475 363 481 707 594 479 602
8 594 477 362 479 709 598 478 600
8 595 476 361 475 711 597 477 594
8 479 362 480 603 600 478 601 720
8 481 363 482 605 602 479 603 722
8 603 480 364 482 723 604 483 606
8 605 482 365 484 724 606 485 607
8 656 553 608 726 542 436 487 609
8 645 542 609 728 525 422 488 611
8 609 487 610 729 488 369 489 612
8 611 488 612 730 491 371 490 613
8 616 504 386 495 731 624 503 614
8 731 624 503 614 678 575 457 561
8 732 622 501 615 616 504 386 495
8 617 502 384 496 732 622 501 615
8 617 502 621 735 496 384 500 618
8 736 620 499 619 618 500 382 497
8 630 527 408 511 736 620 499 619
8 621 506 626 737 500 388 505 620
8 647 544 424 527 737 626 505 620
8 623 508 627 738 502 390 506 621
8 623 508 390 502 739 628 507 622
8 625 510 628 739 504 392 507 622
8 740 629 509 624 691 585 468 575
8 625 510 392 504 740 629 509 624
8 632 529 410 513 744 647 527 630
8 631 528 648 745 514 411 530 633
8 632 529 648 745 513 410 528 631
8 638 535 416 519 746 649 530 633
8 747 650 531 634 635 532 413 516
8 642 539 420 523 747 650 531 634
8 636 533 651 748 517 414 532 635
8 640 536 652 749 521 417 533 636
8 639 537 418 520 750 653 534 637
8 638 535 653 750 519 416 534 637
8 641 538 419 522 751 655 537 639
8 641 538 654 752 522 419 536 640
8 643 540 421 524 753 657 539 642
8 643 540 659 755 524 421 541 644
8 644 541 660 757 526 423 543 646
8 758 661 542 645 646 543 422 525
8 529 426 544 647 648 545 662 759
8 530 427 545 648 649 546 663 760
8 535 429 546 649 653 547 664 761
8 762 666 548 650 651 550 432 532
8 657 556 438 539 762 666 548 650
8 652 551 668 763 533 433 550 651
8 654 552 669 764 536 434 551 652
8 655 549 431 537 765 665 547 653
8 538 435 549 655 654 552 667 766
8 661 554 671 768 542 436 553 656
8 658 558 440 540 769 674 556 657
8 658 558 675 770 540 440 557 659
8 659 557 673 771 541 439 555 660
8 660 555 672 772 543 437 554 661
8 788 686 570 676 704 591 473 590
8 677 571 453 560 788 686 570 676
8 679 573 455 562 789 687 571 677
8 566 459 577 683 678 575 691 790
8 681 574 456 564 791 689 573 679
8 680 572 688 792 567 460 578 684
8 681 574 688 792 564 456 572 680
8 682 576 692 794 566 459 577 683
8 569 461 579 685 682 576 692 794
8 568 462 578 684 685 579 694 796
8 687 581 464 571 798 696 580 686
8 798 696 580 686 705 592 474 591
8 689 583 466 573 799 697 581 687
8 688 582 698 800 578 471 588 694
8 690 584 698 800 574 467 582 688
8 690 584 467 574 801 699 583 689
8 693 587 701 803 577 470 585 691
8 693 587 470 577 804 702 586 692
8 695 589 702 804 579 472 586 692
8 695 589 472 579 805 703 588 694
8 708 595 705 813 593 475 591 704
8 710 596 706 814 595 476 592 705
8 707 594 479 602 816 709 600 719
8 708 595 475 593 817 711 594 707
8 709 598 478 600 819 715 599 717
8 711 597 477 594 820 714 598 709
8 710 596 476 595 822 713 597 711
8 600 478 601 720 717 599 718 832
8 602 479 603 722 719 600 720 834
8 720 601 480 603 835 721 604 723
8 722 603 482 605 836 723 606 724
8 767 670 725 839 656 553 608 726
8 756 656 726 841 645 542 609 728
8 726 608 727 842 609 487 610 729
8 728 609 729 843 611 488 612 730
8 844 740 624 731 790 691 575 678
8 733 625 504 616 844 740 624 731
8 734 623 502 617 845 739 622 732
8 733 625 739 845 616 504 622 732
8 734 623 738 846 617 502 621 735
8 735 621 737 847 618 500 620 736
8 744 647 527 630 847 737 620 736
8 621 506 627 738 737 626 741 848
8 647 544 626 737 759 662 741 848
8 623 508 628 739 738 627 742 849
8 740 629 585 691 850 743 700 802
8 625 510 629 740 739 628 743 850
8 632 529 647 744 745 648 759 854
8 633 530 648 745 746 649 760 855
8 638 535 649 746 750 653 761 856
8 857 762 650 747 748 651 532 635
8 753 657 539 642 857 762 650 747
8 749 652 763 858 636 533 651 748
8 752 654 764 859 640 536 652 749
8 751 655 537 639 860 765 653 750
8 641 538 655 751 752 654 766 861
8 754 658 540 643 862 769 657 753
8 754 658 770 863 643 540 659 755
8 755 659 771 864 644 541 660 757
8 758 661 768 866 645 542 656 756
8 757 660 772 867 646 543 661 758
8 759 662 773 868 648 545 663 760
8 649 546 663 760 761 664 774 871
8 765 665 547 653 872 775 664 761
8 873 777 666 762 763 668 550 651
8 769 674 556 657 873 777 666 762
8 764 669 779 874 652 551 668 763
8 654 552 667 766 764 669 778 875
8 655 549 665 765 766 667 776 876
8 768 671 782 877 656 553 670 767
8 772 672 783 878 661 554 671 768
8 658 558 674 769 770 675 786 879
8 659 557 675 770 771 673 785 881
8 882 784 672 772 771 673 555 660
8 789 687 571 677 897 798 686 788
8 897 798 686 788 813 705 591 704
8 791 689 573 679 898 799 687 789
8 795 693 803 900 683 577 691 790
8 793 690 574 681 901 801 689 791
8 792 688 800 902 684 578 694 796
8 793 690 800 902 681 574 688 792
8 795 693 577 683 903 804 692 794
8 797 695 804 903 685 579 692 794
8 797 695 579 685 904 805 694 796
8 905 806 697 799 798 696 581 687
8 814 706 806 905 705 592 696 798
8 689 583 697 799 801 699 808 907
8 800 698 809 908 694 588 703 805
8 690 584 699 801 800 698 809 908
8 803 701 810 909 691 585 700 802
8 693 587 702 804 803 701 811 910
8 695 589 703 805 804 702 812 911
8 818 710 814 919 708 595 705 813
8 821 712 815 920 710 596 706 814
8 816 709 600 719 922 819 717 831
8 817 711 594 707 923 820 709 816
8 818 710 595 708 924 822 711 817
8 819 715 599 717 926 827 716 829
8 820 714 598 709 927 826 715 819
8 929 825 713 822 820 714 597 711
8 821 712 596 710 930 824 713 822
8 717 599 718 832 829 716 830 942
8 719 600 720 834 831 717 832 944
8 832 718 601 720 945 833 721 835
8 834 720 603 722 946 835 723 836
8 869 780 838 950 767 670 725 839
8 865 767 839 952 756 656 726 841
8 839 725 840 953 726 608 727 842
8 841 726 842 954 728 609 729 843
8 844 740 691 790 955 850 802 899
8 733 625 740 844 845 739 850 955
8 734 623 739 845 846 738 849 956
8 735 621 738 846 847 737 848 957
8 744 647 737 847 854 759 848 957
8 738 627 742 849 848 741 851 958
8 848 741 851 958 759 662 773 868
8 850 743 700 802 959 852 807 906
8 849 742 628 739 959 852 743 850
8 854 759 868 965 745 648 760 855
8 746 649 760 855 856 761 871 966
8 860 765 653 750 967 872 761 856
8 968 873 762 857 858 763 651 748
8 862 769 657 753 968 873 762 857
8 859 764 874 969 749 652 763 858
8 752 654 766 861 859 764 875 970
8 751 655 765 860 861 766 876 971
8 754 658 769 862 863 770 879 972
8 755 659 770 863 864 771 881 974
8 976 882 772 867 864 771 660 757
8 866 768 877 977 756 656 767 865
8 867 772 878 978 758 661 768 866
8 760 663 773 868 871 774 883 980
8 870 781 837 948 982 890 780 869
8 982 890 780 869 877 782 670 767
8 761 664 774 871 872 775 884 984
8 876 776 665 765 985 885 775 872
8 873 777 668 763 986 887 779 874
8 769 674 777 873 879 786 887 986
8 764 669 778 875 874 779 888 987
8 766 667 776 876 875 778 886 988
8 878 783 892 989 768 671 782 877
8 878 783 672 772 990 893 784 882
8 880 787 675 770 991 896 786 879
8 880 787 895 992 770 675 785 881
8 881 785 894 993 771 673 784 882
8 1006 905 799 898 897 798 687 789
8 919 814 905 1006 813 705 798 897
8 791 689 799 898 901 801 907 1007
8 900 803 909 1009 790 691 802 899
8 795 693 804 903 900 803 910 1010
8 902 800 908 1011 796 694 805 904
8 793 690 801 901 902 800 908 1011
8 797 695 805 904 903 804 911 1012
8 799 697 806 905 907 808 912 1013
8 920 815 912 1013 814 706 806 905
8 802 700 810 909 906 807 913 1014
8 801 699 808 907 908 809 914 1015
8 805 703 809 908 911 812 915 1016
8 803 701 811 910 909 810 916 1017
8 911 812 917 1018 804 702 811 910
8 925 821 920 1030 818 710 814 919
8 928 823 921 1031 821 712 815 920
8 922 819 717 831 1033 926 829 941
8 923 820 709 816 1034 927 819 922
8 1035 929 822 924 923 820 711 817
8 925 821 710 818 1036 930 822 924
8 1038 933 825 929 927 826 714 820
8 926 827 716 829 1039 935 828 939
8 927 826 715 819 1040 934 827 926
8 928 823 712 821 1041 931 824 930
8 1042 932 824 930 929 825 713 822
8 829 716 830 942 939 828 940 1058
8 831 717 832 944 941 829 942 1060
8 942 830 718 832 1061 943 833 945
8 944 832 720 834 1062 945 835 946
8 981 889 947 1064 870 781 837 948
8 948 837 949 1067 869 780 838 950
8 975 869 950 1069 865 767 839 952
8 950 838 951 1070 839 725 840 953
8 952 839 953 1071 841 726 842 954
8 955 850 802 899 1072 959 906 1008
8 956 849 739 845 1072 959 850 955
8 846 738 849 956 957 848 958 1073
8 957 848 958 1073 854 759 868 965
8 849 742 852 959 958 851 961 1076
8 960 853 961 1076 906 807 852 959
8 958 851 961 1076 868 773 883 980
8 960 853 807 906 1077 963 913 1014
8 855 760 868 965 966 871 980 1085
8 856 761 871 966 967 872 984 1086
8 971 876 765 860 1087 985 872 967
8 968 873 763 858 1088 986 874 969
8 862 769 873 968 972 879 986 1088
8 859 764 875 970 969 874 987 1089
8 861 766 876 971 970 875 988 1090
8 973 880 770 863 1091 991 879 972
8 973 880 992 1092 863 770 881 974
8 974 881 993 1093 864 771 882 976
8 979 870 948 1066 1094 982 869 975
8 1094 982 869 975 977 877 767 865
8 978 878 772 867 1095 990 882 976
8 978 878 989 1096 866 768 877 977
8 871 774 883 980 984 884 994 1099
8 983 891 999 1100 870 781 889 981
8 1101 1000 890 982 989 892 782 877
8 983 891 781 870 1101 1000 890 982
8 872 775 884 984 985 885 995 1103
8 876 776 885 985 988 886 996 1104
8 986 887 779 874 1105 998 888 987
8 879 786 887 986 991 896 998 1105
8 875 778 886 988 987 888 997 1106
8 990 893 1002 1107 878 783 892 989
8 1108 1003 893 990 993 894 784 882
8 880 787 896 991 992 895 1005 1109
8 993 894 785 881 1110 1004 895 992
8 898 799 905 1006 1007 907 1013 1120
8 1030 920 1013 1120 919 814 905 1006
8 901 801 907 1007 1011 908 1015 1121
8 899 802 909 1009 1008 906 1014 1122
8 900 803 910 1010 1009 909 1017 1123
8 1012 911 1018 1124 903 804 910 1010
8 904 805 908 1011 1012 911 1016 1125
8 1013 912 1020 1127 907 808 914 1015
8 1031 921 1020 1127 920 815 912 1013
8 1019 918 962 1075 1128 1021 913 1014
8 1128 1021 913 1014 1017 916 810 909
8 1015 914 1022 1129 908 809 915 1016
8 1016 915 1023 1130 911 812 917 1018
8 1018 917 1024 1131 910 811 916 1017
8 1037 928 1031 1148 925 821 920 1030
8 928 823 931 1041 1031 921 1032 1149
8 1033 926 829 941 1151 1039 939 1057
8 1034 927 819 922 1152 1040 926 1033
8 1153 1038 929 1035 1034 927 820 923
8 1154 1042 930 1036 1035 929 822 924
8 1037 928 821 925 1155 1041 930 1036
8 1039 935 828 939 1156 1047 938 1055
8 1157 1043 932 1042 1038 933 825 929
8 1038 933 826 927 1158 1045 934 1040
8 1040 934 827 926 1159 1046 935 1039
8 930 824 932 1042 1041 931 1044 1160
8 1051 936 1048 1165 1175 1052 937 1053
8 1156 1047 938 1055 1053 937 1054 1178
8 939 828 940 1058 1055 938 1056 1181
8 941 829 942 1060 1057 939 1058 1183
8 942 830 943 1061 1058 940 1059 1184
8 1060 942 832 944 1185 1061 945 1062
8 1082 964 1063 1188 981 889 947 1064
8 1097 981 1064 1190 979 870 948 1066
8 1064 947 1065 1191 948 837 949 1067
8 1066 948 1067 1193 975 869 950 1069
8 1067 949 1068 1194 950 838 951 1070
8 1069 950 1070 1195 952 839 953 1071
8 956 849 959 1072 1073 958 1076 1197
8 1074 960 1076 1197 1008 906 959 1072
8 1073 958 1076 1197 965 868 980 1085
8 1074 960 906 1008 1198 1077 1014 1122
8 1133 1026 1079 1199 1019 918 962 1075
8 1077 963 913 1014 1200 1080 962 1075
8 960 853 963 1077 1076 961 1078 1201
8 980 883 961 1076 1099 994 1078 1201
8 1210 1083 964 1082 1100 999 889 981
8 966 871 980 1085 1086 984 1099 1215
8 967 872 984 1086 1087 985 1103 1216
8 971 876 985 1087 1090 988 1104 1217
8 1088 986 874 969 1218 1105 987 1089
8 972 879 986 1088 1091 991 1105 1218
8 970 875 988 1090 1089 987 1106 1219
8 973 880 991 1091 1092 992 1109 1220
8 1093 993 881 974 1221 1110 992 1092
8 1222 1108 990 1095 1093 993 882 976
8 1223 1101 982 1094 1096 989 877 977
8 1098 983 870 979 1223 1101 982 1094
8 1095 990 1107 1224 978 878 989 1096
8 1098 983 1100 1225 979 870 981 1097
8 984 884 994 1099 1103 995 1111 1227
8 1102 1001 1115 1228 983 891 999 1100
8 1101 1000 892 989 1229 1116 1002 1107
8 1102 1001 891 983 1229 1116 1000 1101
8 985 885 995 1103 1104 996 1112 1230
8 988 886 996 1104 1106 997 1113 1231
8 1105 998 888 987 1232 1114 997 1106
8 991 896 998 1105 1109 1005 1114 1232
8 1108 1003 1117 1233 990 893 1002 1107
8 1108 1003 894 993 1233 1117 1004 1110
8 992 895 1005 1109 1110 1004 1118 1234
8 1120 1013 1127 1244 1007 907 1015 1121
8 1148 1031 1127 1244 1030 920 1013 1120
8 1121 1015 1129 1245 1011 908 1016 1125
8 1126 1019 1075 1196 1246 1128 1014 1122
8 1246 1128 1014 1122 1123 1017 909 1009
8 1124 1018 1131 1247 1010 910 1017 1123
8 1125 1016 1130 1248 1012 911 1018 1124
8 1127 1020 1137 1254 1015 914 1022 1129
8 1031 921 1032 1149 1127 1020 1137 1254
8 1134 1027 918 1019 1257 1140 1021 1128
8 1257 1140 1021 1128 1131 1024 916 1017
8 1129 1022 1141 1258 1016 915 1023 1130
8 1130 1023 1142 1259 1018 917 1024 1131
8 1261 1144 1025 1132 1133 1026 1079 1199
8 1255 1138 1025 1132 1135 1028 1144 1261
8 1133 1026 918 1019 1262 1145 1027 1134
8 1136 1029 1139 1256 1263 1146 1028 1135
8 1037 928 1041 1155 1148 1031 1149 1275
8 1041 931 1044 1160 1149 1032 1150 1276
8 1151 1039 939 1057 1278 1156 1055 1180
8 1152 1040 926 1033 1279 1159 1039 1151
8 1153 1038 927 1034 1280 1158 1040 1152
8 1281 1157 1042 1154 1153 1038 929 1035
8 1036 930 1042 1154 1155 1041 1160 1282
8 1283 1164 1046 1159 1156 1047 935 1039
8 1165 1048 1164 1283 1053 937 1047 1156
8 1157 1043 933 1038 1284 1161 1045 1158
8 1157 1043 1161 1284 1042 932 1044 1160
8 1040 934 1046 1159 1158 1045 1163 1285
8 1166 1049 1167 1292 1051 936 1048 1165
8 1166 1049 936 1051 1293 1168 1050 1172
8 1051 936 1052 1175 1172 1050 1173 1306
8 1174 1051 1165 1290 1308 1175 1053 1177
8 1053 937 1054 1178 1175 1052 1176 1309
8 1278 1156 1055 1180 1177 1053 1178 1311
8 1055 938 1056 1181 1178 1054 1179 1312
8 1057 939 1058 1183 1180 1055 1181 1314
8 1058 940 1059 1184 1181 1056 1182 1315
8 1060 942 1061 1185 1183 1058 1184 1316
8 1208 1081 1187 1321 1082 964 1063 1188
8 1209 1082 1188 1322 1097 981 1064 1190
8 1188 1063 1189 1323 1064 947 1065 1191
8 1190 1064 1191 1325 1066 948 1067 1193
8 1191 1065 1192 1326 1067 949 1068 1194
8 1067 1193 1069 950 1194 1327 1195 1070
8 1250 1133 1199 1330 1126 1019 1075 1196
8 1198 1077 1014 1122 1331 1200 1075 1196
8 1074 960 1077 1198 1197 1076 1201 1332
8 1085 980 1076 1197 1215 1099 1201 1332
8 1199 1079 1203 1333 1075 962 1080 1200
8 1132 1025 1119 1243 1199 1079 1203 1333
8 1201 1078 963 1077 1334 1202 1080 1200
8 1099 994 1078 1201 1227 1111 1202 1334
8 1343 1207 1081 1208 1210 1083 964 1082
8 1214 1084 1186 1319 1343 1207 1081 1208
8 1345 1210 1082 1209 1225 1100 981 1097
8 1346 1211 1083 1210 1228 1115 999 1100
8 1086 984 1099 1215 1216 1103 1227 1352
8 1087 985 1103 1216 1217 1104 1230 1353
8 1090 988 1104 1217 1219 1106 1231 1354
8 1218 1105 987 1089 1355 1232 1106 1219
8 1091 991 1105 1218 1220 1109 1232 1355
8 1092 992 1109 1220 1221 1110 1234 1356
8 1222 1108 1233 1357 1095 990 1107 1224
8 1222 1108 993 1093 1357 1233 1110 1221
8 1223 1101 989 1096 1358 1229 1107 1224
8 1226 1102 983 1098 1358 1229 1101 1223
8 1226 1102 1228 1359 1098 983 1100 1225
8 1103 995 1111 1227 1230 1112 1235 1360
8 1107 1002 1117 1233 1229 1116 1240 1362
8 1102 1001 1116 1229 1228 1115 1240 1362
8 1104 996 1112 1230 1231 1113 1236 1363
8 1364 1237 1114 1232 1231 1113 997 1106
8 1109 1005 1114 1232 1234 1118 1238 1365
8 1110 1004 1118 1234 1233 1117 1241 1366
8 1242 1374 1255 1138 1119 1243 1132 1025
8 1244 1127 1254 1376 1121 1015 1129 1245
8 1148 1031 1149 1275 1244 1127 1254 1376
8 1245 1129 1258 1377 1125 1016 1130 1248
8 1251 1134 1019 1126 1378 1257 1128 1246
8 1378 1257 1128 1246 1247 1131 1017 1123
8 1248 1130 1259 1379 1124 1018 1131 1247
8 1261 1381 1250 1133 1132 1249 1330 1199
8 1255 1380 1252 1135 1132 1249 1381 1261
8 1250 1133 1019 1126 1382 1262 1134 1251
8 1253 1136 1256 1385 1384 1263 1135 1252
8 1254 1137 1265 1387 1129 1022 1141 1258
8 1149 1032 1150 1276 1254 1137 1265 1387
8 1028 1135 1255 1138 1139 1256 1388 1266
8 1136 1029 1147 1264 1256 1139 1267 1389
8 1390 1268 1140 1257 1259 1142 1024 1131
8 1260 1143 1027 1134 1390 1268 1140 1257
8 1258 1141 1269 1391 1130 1023 1142 1259
8 1262 1145 1027 1134 1393 1271 1143 1260
8 1261 1144 1026 1133 1394 1272 1145 1262
8 1135 1028 1144 1261 1263 1146 1272 1394
8 1136 1029 1146 1263 1264 1147 1273 1395
8 1155 1041 1160 1282 1275 1149 1276 1405
8 1276 1150 1044 1160 1406 1277 1162 1286
8 1408 1283 1159 1279 1278 1156 1039 1151
8 1290 1165 1283 1408 1177 1053 1156 1278
8 1152 1040 1159 1279 1280 1158 1285 1409
8 1281 1157 1038 1153 1410 1284 1158 1280
8 1281 1157 1284 1410 1154 1042 1160 1282
8 1159 1046 1164 1283 1285 1163 1289 1412
8 1292 1167 1289 1412 1165 1048 1164 1283
8 1158 1045 1163 1285 1284 1161 1288 1413
8 1284 1161 1288 1413 1160 1044 1162 1286
8 1291 1166 1292 1418 1174 1051 1165 1290
8 1291 1166 1051 1174 1419 1293 1172 1305
8 1294 1169 1296 1421 1166 1049 1167 1292
8 1293 1168 1050 1172 1422 1295 1171 1303
8 1294 1169 1049 1166 1423 1297 1168 1293
8 1422 1295 1171 1303 1301 1170 1302 1435
8 1172 1050 1173 1306 1303 1171 1304 1438
8 1174 1051 1175 1308 1305 1172 1306 1440
8 1175 1052 1176 1309 1306 1173 1307 1441
8 1177 1053 1178 1311 1308 1175 1309 1443
8 1178 1054 1179 1312 1309 1176 1310 1444
8 1180 1055 1181 1314 1311 1178 1312 1446
8 1056 1181 1312 1179 1182 1315 1447 1313
8 1183 1058 1184 1316 1314 1181 1315 1448
8 1319 1186 1084 1214 1451 1317 1213 1350
8 1319 1186 1318 1453 1208 1081 1187 1321
8 1321 1187 1320 1456 1188 1063 1189 1323
8 1344 1208 1321 1457 1209 1082 1188 1322
8 1322 1188 1323 1458 1190 1064 1191 1325
8 1323 1189 1324 1459 1191 1065 1192 1326
8 1191 1325 1193 1067 1326 1460 1327 1194
8 1242 1374 1243 1119 1328 1462 1335 1204
8 1330 1199 1333 1465 1196 1075 1200 1331
8 1132 1249 1330 1199 1243 1375 1465 1333
8 1332 1201 1077 1198 1466 1334 1200 1331
8 1215 1099 1201 1332 1352 1227 1334 1466
8 1119 1243 1333 1203 1204 1335 1470 1338
8 1333 1203 1338 1470 1200 1080 1202 1334
8 1227 1111 1202 1334 1360 1235 1338 1470
8 1328 1462 1335 1204 1205 1336 1471 1339
8 1337 1206 1340 1472 1464 1329 1205 1336
8 1346 1211 1342 1479 1210 1083 1207 1343
8 1346 1211 1115 1228 1479 1342 1239 1361
8 1348 1212 1084 1214 1479 1342 1207 1343
8 1480 1343 1208 1344 1345 1210 1082 1209
8 1351 1214 1319 1454 1480 1343 1208 1344
8 1481 1346 1210 1345 1359 1228 1100 1225
8 1348 1212 1347 1483 1214 1084 1213 1350
8 1216 1103 1227 1352 1353 1230 1360 1488
8 1217 1104 1230 1353 1354 1231 1363 1489
8 1490 1364 1232 1355 1354 1231 1106 1219
8 1220 1109 1232 1355 1356 1234 1365 1491
8 1221 1110 1234 1356 1357 1233 1366 1492
8 1224 1107 1233 1357 1358 1229 1362 1493
8 1226 1102 1229 1358 1359 1228 1362 1493
8 1230 1112 1235 1360 1363 1236 1367 1496
8 1361 1239 1115 1228 1497 1371 1240 1362
8 1366 1241 1372 1498 1233 1117 1240 1362
8 1364 1237 1113 1231 1499 1368 1236 1363
8 1364 1237 1368 1499 1232 1114 1238 1365
8 1234 1118 1238 1365 1366 1241 1369 1500
8 1507 1373 1242 1374 1388 1266 1138 1255
8 1508 1374 1243 1375 1380 1255 1132 1249
8 1376 1254 1387 1509 1245 1129 1258 1377
8 1275 1149 1276 1405 1376 1254 1387 1509
8 1377 1258 1391 1510 1248 1130 1259 1379
8 1511 1390 1257 1378 1379 1259 1131 1247
8 1383 1260 1134 1251 1511 1390 1257 1378
8 1252 1135 1256 1385 1380 1255 1388 1512
8 1261 1381 1513 1394 1133 1250 1382 1262
8 1135 1252 1384 1263 1261 1381 1513 1394
8 1382 1262 1134 1251 1514 1393 1260 1383
8 1253 1136 1263 1384 1386 1264 1395 1516
8 1253 1136 1264 1386 1385 1256 1389 1517
8 1387 1265 1397 1519 1258 1141 1269 1391
8 1276 1150 1277 1406 1387 1265 1397 1519
8 1256 1139 1267 1389 1388 1266 1398 1520
8 1264 1147 1274 1396 1389 1267 1399 1521
8 1392 1270 1143 1260 1522 1400 1268 1390
8 1390 1268 1142 1259 1522 1400 1269 1391
8 1392 1270 1401 1523 1260 1143 1271 1393
8 1272 1394 1524 1402 1145 1262 1393 1271
8 1395 1273 1146 1263 1524 1402 1272 1394
8 1273 1395 1264 1147 1403 1526 1396 1274
8 1405 1276 1160 1282 1534 1406 1286 1411
8 1414 1287 1407 1535 1286 1162 1277 1406
8 1279 1159 1283 1408 1409 1285 1412 1537
8 1418 1292 1412 1537 1290 1165 1283 1408
8 1280 1158 1285 1409 1410 1284 1413 1538
8 1410 1284 1413 1538 1282 1160 1286 1411
8 1285 1163 1289 1412 1413 1288 1417 1540
8 1421 1296 1417 1540 1292 1167 1289 1412
8 1414 1287 1162 1286 1541 1416 1288 1413
8 1420 1294 1421 1545 1291 1166 1292 1418
8 1419 1293 1172 1305 1546 1422 1303 1437
8 1420 1294 1166 1291 1547 1423 1293 1419
8 1294 1169 1297 1423 1421 1296 1425 1548
8 1423 1297 1168 1293 1549 1424 1295 1422
8 1301 1170 1298 1427 1422 1295 1424 1549
8 1432 1300 1428 1554 1301 1170 1298 1427
8 1431 1299 1428 1554 1560 1430 1300 1432
8 1563 1433 1300 1432 1435 1302 1170 1301
8 1546 1422 1303 1437 1434 1301 1435 1565
8 1303 1171 1304 1438 1435 1302 1436 1566
8 1305 1172 1306 1440 1437 1303 1438 1568
8 1306 1173 1307 1441 1438 1304 1439 1569
8 1308 1175 1309 1443 1440 1306 1441 1571
8 1309 1176 1310 1444 1441 1307 1442 1572
8 1311 1178 1312 1446 1443 1309 1444 1574
8 1179 1312 1444 1310 1313 1447 1575 1445
8 1314 1181 1315 1448 1446 1312 1447 1576
8 1350 1213 1349 1486 1451 1317 1449 1579
8 1451 1317 1450 1581 1319 1186 1318 1453
8 1454 1319 1214 1351 1582 1451 1350 1487
8 1453 1318 1452 1584 1321 1187 1320 1456
8 1454 1319 1453 1585 1344 1208 1321 1457
8 1456 1320 1455 1586 1323 1189 1324 1459
8 1457 1321 1456 1587 1322 1188 1323 1458
8 1458 1323 1459 1588 1325 1191 1326 1460
8 1205 1336 1464 1329 1328 1462 1590 1461
8 1507 1373 1461 1590 1374 1242 1328 1462
8 1508 1374 1462 1591 1375 1243 1335 1467
8 1337 1206 1329 1464 1473 1341 1463 1594
8 1375 1243 1335 1467 1465 1333 1470 1596
8 1465 1333 1470 1596 1331 1200 1334 1466
8 1352 1227 1334 1466 1488 1360 1470 1596
8 1591 1462 1336 1468 1467 1335 1471 1597
8 1469 1337 1472 1598 1595 1464 1336 1468
8 1471 1339 1474 1600 1335 1204 1338 1470
8 1600 1474 1367 1496 1470 1338 1235 1360
8 1336 1205 1340 1472 1471 1339 1475 1601
8 1337 1206 1341 1473 1472 1340 1476 1602
8 1495 1370 1478 1609 1361 1239 1342 1479
8 1348 1212 1342 1479 1483 1347 1478 1609
8 1481 1346 1479 1610 1345 1210 1343 1480
8 1481 1346 1228 1359 1610 1479 1361 1494
8 1484 1348 1214 1351 1610 1479 1343 1480
8 1483 1347 1482 1612 1350 1213 1349 1486
8 1484 1348 1483 1613 1351 1214 1350 1487
8 1353 1230 1360 1488 1489 1363 1496 1616
8 1490 1364 1231 1354 1617 1499 1363 1489
8 1490 1364 1499 1617 1355 1232 1365 1491
8 1356 1234 1365 1491 1492 1366 1500 1619
8 1492 1366 1498 1620 1357 1233 1362 1493
8 1494 1361 1228 1359 1621 1497 1362 1493
8 1495 1370 1239 1361 1622 1504 1371 1497
8 1363 1236 1367 1496 1499 1368 1501 1623
8 1497 1371 1240 1362 1624 1505 1372 1498
8 1625 1503 1372 1498 1500 1369 1241 1366
8 1365 1238 1368 1499 1500 1369 1502 1626
8 1520 1398 1506 1633 1388 1266 1373 1507
8 1634 1507 1374 1508 1512 1388 1255 1380
8 1509 1387 1519 1635 1377 1258 1391 1510
8 1405 1276 1406 1534 1509 1387 1519 1635
8 1515 1392 1260 1383 1636 1522 1390 1511
8 1511 1390 1259 1379 1636 1522 1391 1510
8 1385 1256 1389 1517 1512 1388 1520 1637
8 1513 1394 1262 1382 1638 1524 1393 1514
8 1395 1516 1638 1524 1263 1384 1513 1394
8 1515 1392 1523 1639 1383 1260 1393 1514
8 1516 1395 1526 1640 1386 1264 1396 1518
8 1386 1264 1396 1518 1517 1389 1521 1641
8 1519 1397 1527 1643 1391 1269 1400 1522
8 1535 1407 1527 1643 1406 1277 1397 1519
8 1389 1267 1399 1521 1520 1398 1528 1644
8 1645 1529 1399 1521 1525 1404 1274 1396
8 1392 1270 1400 1522 1523 1401 1531 1646
8 1524 1402 1271 1393 1648 1532 1401 1523
8 1403 1526 1648 1532 1273 1395 1524 1402
8 1525 1404 1274 1396 1649 1533 1403 1526
8 1539 1414 1535 1657 1411 1286 1406 1534
8 1542 1415 1536 1658 1414 1287 1407 1535
8 1409 1285 1412 1537 1538 1413 1540 1660
8 1545 1421 1540 1660 1418 1292 1412 1537
8 1539 1414 1286 1411 1661 1541 1413 1538
8 1540 1417 1544 1663 1413 1288 1416 1541
8 1421 1296 1425 1548 1540 1417 1544 1663
8 1542 1415 1287 1414 1664 1543 1416 1541
8 1420 1294 1423 1547 1545 1421 1548 1666
8 1547 1423 1293 1419 1667 1549 1422 1546
8 1434 1301 1427 1553 1546 1422 1549 1667
8 1423 1297 1424 1549 1548 1425 1550 1668
8 1551 1426 1550 1668 1427 1298 1424 1549
8 1551 1426 1298 1427 1671 1552 1428 1554
8 1562 1432 1554 1674 1434 1301 1427 1553
8 1431 1299 1429 1558 1554 1428 1555 1675
8 1431 1299 1430 1560 1558 1429 1557 1680
8 1560 1430 1300 1432 1683 1559 1433 1563
8 1561 1431 1554 1674 1684 1560 1432 1562
8 1685 1563 1432 1562 1565 1435 1301 1434
8 1435 1302 1436 1566 1563 1433 1564 1686
8 1437 1303 1438 1568 1565 1435 1566 1688
8 1438 1304 1439 1569 1566 1436 1567 1689
8 1440 1306 1441 1571 1568 1438 1569 1691
8 1441 1307 1442 1572 1569 1439 1570 1692
8 1443 1309 1444 1574 1571 1441 1572 1694
8 1310 1444 1572 1442 1445 1575 1695 1573
8 1446 1312 1447 1576 1574 1444 1575 1696
8 1486 1349 1485 1614 1579 1449 1577 1699
8 1451 1317 1449 1579 1581 1450 1578 1701
8 1487 1350 1486 1615 1582 1451 1579 1702
8 1581 1450 1580 1704 1453 1318 1452 1584
8 1582 1451 1581 1705 1454 1319 1453 1585
8 1584 1452 1583 1706 1456 1320 1455 1586
8 1585 1453 1584 1707 1457 1321 1456 1587
8 1587 1456 1586 1708 1458 1323 1459 1588
8 1633 1506 1589 1710 1507 1373 1461 1590
8 1464 1329 1461 1590 1594 1463 1589 1710
8 1468 1336 1462 1591 1595 1464 1590 1711
8 1634 1507 1590 1711 1508 1374 1462 1591
8 1473 1341 1463 1594 1603 1477 1593 1716
8 1469 1337 1464 1595 1599 1473 1594 1717
8 1471 1597 1467 1335 1600 1718 1596 1470
8 1718 1600 1496 1616 1596 1470 1360 1488
8 1336 1468 1597 1471 1472 1598 1719 1601
8 1469 1337 1473 1599 1598 1472 1602 1720
8 1722 1604 1501 1623 1600 1474 1367 1496
8 1475 1601 1471 1339 1604 1722 1600 1474
8 1602 1476 1605 1723 1472 1340 1475 1601
8 1476 1602 1724 1606 1341 1473 1603 1477
8 1483 1347 1478 1609 1612 1482 1608 1731
8 1495 1370 1504 1622 1609 1478 1608 1731
8 1618 1495 1609 1732 1494 1361 1479 1610
8 1484 1348 1479 1610 1613 1483 1609 1732
8 1486 1349 1482 1612 1614 1485 1611 1733
8 1613 1483 1612 1734 1487 1350 1486 1615
8 1489 1363 1496 1616 1617 1499 1623 1736
8 1491 1365 1499 1617 1619 1500 1626 1737
8 1618 1495 1361 1494 1738 1622 1497 1621
8 1739 1625 1498 1620 1619 1500 1366 1492
8 1621 1497 1362 1493 1740 1624 1498 1620
8 1742 1631 1504 1622 1624 1505 1371 1497
8 1743 1628 1502 1626 1623 1501 1368 1499
8 1744 1630 1505 1624 1625 1503 1372 1498
8 1745 1629 1503 1625 1626 1502 1369 1500
8 1520 1398 1528 1644 1633 1506 1632 1751
8 1637 1520 1633 1752 1512 1388 1507 1634
8 1635 1519 1643 1753 1510 1391 1522 1636
8 1657 1535 1643 1753 1534 1406 1519 1635
8 1515 1392 1522 1636 1639 1523 1646 1754
8 1517 1389 1521 1641 1637 1520 1644 1755
8 1524 1638 1756 1648 1393 1514 1639 1523
8 1640 1526 1395 1516 1756 1648 1524 1638
8 1642 1525 1396 1518 1757 1649 1526 1640
8 1758 1645 1521 1641 1642 1525 1396 1518
8 1646 1531 1400 1522 1760 1650 1527 1643
8 1535 1407 1536 1658 1643 1527 1650 1760
8 1521 1399 1529 1645 1644 1528 1651 1761
8 1647 1530 1652 1762 1525 1404 1529 1645
8 1401 1523 1648 1532 1531 1646 1763 1655
8 1525 1404 1533 1649 1647 1530 1654 1765
8 1533 1649 1766 1656 1403 1526 1648 1532
8 1662 1542 1658 1774 1539 1414 1535 1657
8 1542 1415 1543 1664 1658 1536 1659 1775
8 1660 1540 1663 1777 1538 1413 1541 1661
8 1545 1421 1548 1666 1660 1540 1663 1777
8 1662 1542 1414 1539 1778 1664 1541 1661
8 1664 1543 1416 1541 1779 1665 1544 1663
8 1548 1425 1550 1668 1663 1544 1665 1779
8 1547 1423 1549 1667 1666 1548 1668 1781
8 1670 1551 1668 1781 1553 1427 1549 1667
8 1551 1426 1552 1671 1668 1550 1669 1782
8 1670 1551 1427 1553 1784 1671 1554 1674
8 1675 1555 1672 1785 1554 1428 1552 1671
8 1678 1556 1673 1789 1558 1429 1555 1675
8 1561 1431 1558 1681 1674 1554 1675 1790
8 1794 1677 1556 1678 1680 1557 1429 1558
8 1560 1430 1559 1683 1680 1557 1679 1797
8 1561 1431 1560 1684 1681 1558 1680 1798
8 1563 1433 1564 1686 1683 1559 1682 1800
8 1684 1560 1432 1562 1801 1683 1563 1685
8 1565 1435 1566 1688 1685 1563 1686 1802
8 1566 1436 1567 1689 1686 1564 1687 1803
8 1568 1438 1569 1691 1688 1566 1689 1805
8 1569 1439 1570 1692 1689 1567 1690 1806
8 1571 1441 1572 1694 1691 1569 1692 1808
8 1442 1572 1692 1570 1573 1695 1809 1693
8 1574 1444 1575 1696 1694 1572 1695 1810
8 1614 1485 1592 1712 1699 1577 1697 1813
8 1579 1449 1577 1699 1701 1578 1698 1815
8 1615 1486 1614 1735 1702 1579 1699 1816
8 1701 1578 1700 1818 1581 1450 1580 1704
8 1582 1451 1579 1702 1705 1581 1701 1819
8 1704 1580 1703 1820 1584 1452 1583 1706
8 1705 1581 1704 1821 1585 1453 1584 1707
8 1707 1584 1706 1822 1587 1456 1586 1708
8 1710 1589 1506 1633 1824 1709 1632 1751
8 1594 1463 1589 1710 1716 1593 1709 1824
8 1752 1633 1710 1825 1634 1507 1590 1711
8 1595 1464 1590 1711 1717 1594 1710 1825
8 1830 1714 1592 1712 1733 1611 1485 1614
8 1603 1477 1593 1716 1725 1607 1715 1834
8 1599 1473 1594 1717 1721 1603 1716 1835
8 1837 1722 1623 1736 1718 1600 1496 1616
8 1719 1601 1722 1837 1597 1471 1600 1718
8 1602 1720 1598 1472 1723 1838 1719 1601
8 1720 1602 1473 1599 1839 1724 1603 1721
8 1723 1605 1726 1840 1601 1475 1604 1722
8 1840 1726 1628 1743 1722 1604 1501 1623
8 1724 1606 1727 1841 1602 1476 1605 1723
8 1725 1607 1728 1842 1603 1477 1606 1724
8 1612 1482 1608 1731 1733 1611 1730 1849
8 1741 1627 1730 1849 1622 1504 1608 1731
8 1613 1483 1609 1732 1734 1612 1731 1850
8 1618 1495 1622 1738 1732 1609 1731 1850
8 1615 1486 1612 1734 1735 1614 1733 1851
8 1852 1743 1626 1737 1736 1623 1499 1617
8 1853 1745 1625 1739 1737 1626 1500 1619
8 1855 1742 1622 1738 1740 1624 1497 1621
8 1856 1744 1624 1740 1739 1625 1498 1620
8 1741 1627 1504 1622 1857 1746 1631 1742
8 1742 1631 1505 1624 1858 1749 1630 1744
8 1859 1747 1629 1745 1743 1628 1502 1626
8 1860 1748 1630 1744 1745 1629 1503 1625
8 1644 1528 1651 1761 1751 1632 1750 1865
8 1637 1520 1644 1755 1752 1633 1751 1866
8 1754 1646 1522 1636 1867 1760 1643 1753
8 1657 1535 1658 1774 1753 1643 1760 1867
8 1639 1523 1646 1754 1756 1648 1763 1868
8 1641 1521 1645 1758 1755 1644 1761 1869
8 1757 1649 1526 1640 1870 1766 1648 1756
8 1642 1525 1649 1757 1759 1647 1765 1871
8 1759 1647 1762 1872 1642 1525 1645 1758
8 1760 1650 1767 1874 1646 1531 1655 1763
8 1658 1536 1659 1775 1760 1650 1767 1874
8 1762 1652 1768 1875 1645 1529 1651 1761
8 1764 1653 1769 1876 1647 1530 1652 1762
8 1656 1766 1877 1773 1532 1648 1763 1655
8 1771 1879 1765 1654 1653 1764 1647 1530
8 1533 1649 1765 1654 1656 1766 1880 1772
8 1662 1542 1664 1778 1774 1658 1775 1887
8 1664 1543 1665 1779 1775 1659 1776 1888
8 1778 1664 1541 1661 1890 1779 1663 1777
8 1666 1548 1668 1781 1777 1663 1779 1890
8 1782 1669 1780 1891 1668 1550 1665 1779
8 1670 1551 1671 1784 1781 1668 1782 1893
8 1671 1552 1672 1785 1782 1669 1783 1894
8 1790 1675 1785 1896 1674 1554 1671 1784
8 1675 1555 1673 1789 1785 1672 1786 1897
8 1792 1676 1788 1903 1678 1556 1673 1789
8 1795 1678 1789 1904 1681 1558 1675 1790
8 1792 1676 1556 1678 1906 1791 1677 1794
8 1680 1557 1679 1797 1794 1677 1793 1909
8 1910 1794 1678 1795 1798 1680 1558 1681
8 1683 1559 1682 1800 1797 1679 1796 1912
8 1684 1560 1683 1801 1798 1680 1797 1913
8 1686 1564 1687 1803 1800 1682 1799 1915
8 1685 1563 1686 1802 1801 1683 1800 1916
8 1688 1566 1689 1805 1802 1686 1803 1917
8 1689 1567 1690 1806 1803 1687 1804 1918
8 1691 1569 1692 1808 1805 1689 1806 1920
8 1692 1570 1693 1809 1806 1690 1807 1921
8 1694 1572 1695 1810 1808 1692 1809 1922
8 1829 1713 1811 1926 1712 1592 1697 1813
8 1813 1697 1812 1928 1699 1577 1698 1815
8 1735 1614 1712 1828 1816 1699 1813 1929
8 1815 1698 1814 1931 1701 1578 1700 1818
8 1702 1579 1699 1816 1819 1701 1815 1932
8 1818 1700 1817 1933 1704 1580 1703 1820
8 1819 1701 1818 1934 1705 1581 1704 1821
8 1821 1704 1820 1935 1707 1584 1706 1822
8 1824 1709 1632 1751 1937 1823 1750 1865
8 1716 1593 1709 1824 1834 1715 1823 1937
8 1825 1710 1633 1752 1938 1824 1751 1866
8 1717 1594 1710 1825 1835 1716 1824 1938
8 1945 1830 1712 1828 1851 1733 1614 1735
8 1830 1714 1831 1946 1712 1592 1713 1829
8 1947 1832 1714 1830 1849 1730 1611 1733
8 1843 1729 1607 1725 1950 1833 1715 1834
8 1721 1603 1716 1835 1836 1725 1834 1951
8 1836 1725 1842 1953 1721 1603 1724 1839
8 1723 1838 1719 1601 1840 1954 1837 1722
8 1954 1840 1743 1852 1837 1722 1623 1736
8 1724 1839 1720 1602 1841 1955 1838 1723
8 1841 1727 1844 1956 1723 1605 1726 1840
8 1956 1844 1747 1859 1840 1726 1628 1743
8 1728 1842 1724 1606 1845 1957 1841 1727
8 1725 1607 1729 1843 1842 1728 1846 1958
8 1741 1627 1746 1857 1849 1730 1848 1965
8 1734 1612 1731 1850 1851 1733 1849 1966
8 1854 1741 1849 1966 1738 1622 1731 1850
8 1967 1859 1745 1853 1852 1743 1626 1737
8 1968 1860 1744 1856 1853 1745 1625 1739
8 1854 1741 1622 1738 1969 1857 1742 1855
8 1855 1742 1624 1740 1970 1858 1744 1856
8 1857 1746 1631 1742 1971 1861 1749 1858
8 1858 1749 1630 1744 1972 1863 1748 1860
8 1859 1747 1862 1973 1745 1629 1748 1860
8 1875 1768 1864 1977 1761 1651 1750 1865
8 1755 1644 1761 1869 1866 1751 1865 1978
8 1867 1760 1874 1979 1754 1646 1763 1868
8 1774 1658 1775 1887 1867 1760 1874 1979
8 1870 1766 1648 1756 1980 1877 1763 1868
8 1872 1762 1875 1981 1758 1645 1761 1869
8 1757 1649 1766 1870 1871 1765 1880 1982
8 1983 1879 1764 1873 1871 1765 1647 1759
8 1873 1764 1876 1984 1759 1647 1762 1872
8 1877 1773 1655 1763 1986 1881 1767 1874
8 1775 1659 1776 1888 1874 1767 1881 1986
8 1876 1769 1882 1987 1762 1652 1768 1875
8 1878 1770 1883 1988 1764 1653 1769 1876
8 1880 1772 1656 1766 1989 1886 1773 1877
8 1878 1770 1653 1764 1990 1884 1771 1879
8 1765 1654 1772 1880 1879 1771 1885 1991
8 1778 1664 1779 1890 1887 1775 1888 1997
8 1998 1889 1776 1888 1891 1780 1665 1779
8 1893 1782 1891 2000 1781 1668 1779 1890
8 1894 1783 1892 2001 1782 1669 1780 1891
8 1784 1671 1785 1896 1893 1782 1894 2003
8 1897 1786 1895 2004 1785 1672 1783 1894
8 1790 1675 1789 1904 1896 1785 1897 2006
8 1901 1787 1898 2007 1789 1673 1786 1897
8 1903 1788 1900 2013 1789 1673 1787 1901
8 1792 1676 1791 1906 1903 1788 1902 2016
8 1907 1792 1903 2017 1795 1678 1789 1904
8 1906 1791 1677 1794 2019 1905 1793 1909
8 1907 1792 1678 1795 2020 1906 1794 1910
8 1797 1679 1796 1912 1909 1793 1908 2022
8 1798 1680 1797 1913 1910 1794 1909 2023
8 1800 1682 1799 1915 1912 1796 1911 2025
8 1801 1683 1800 1916 1913 1797 1912 2026
8 1803 1687 1804 1918 1915 1799 1914 2028
8 1802 1686 1803 1917 1916 1800 1915 2029
8 1805 1689 1806 1920 1917 1803 1918 2030
8 1806 1690 1807 1921 1918 1804 1919 2031
8 1808 1692 1809 1922 1920 1806 1921 2032
8 1939 1826 1924 2037 1829 1713 1811 1926
8 1926 1811 1925 2039 1813 1697 1812 1928
8 1944 1829 1926 2040 1828 1712 1813 1929
8 1928 1812 1927 2042 1815 1698 1814 1931
8 1929 1813 1928 2043 1816 1699 1815 1932
8 1931 1814 1930 2044 1818 1700 1817 1933
8 1932 1815 1931 2045 1819 1701 1818 1934
8 1934 1818 1933 2046 1821 1704 1820 1935
8 2048 1936 1823 1937 1977 1864 1750 1865
8 1950 1833 1715 1834 2048 1936 1823 1937
8 1938 1824 1751 1866 2049 1937 1865 1978
8 1835 1716 1824 1938 1951 1834 1937 2049
8 1939 1826 1713 1829 2053 1942 1831 1946
8 1940 1827 1923 2035 2053 1942 1826 1939
8 1945 1830 1946 2058 1828 1712 1829 1944
8 2059 1947 1830 1945 1966 1849 1733 1851
8 1947 1832 1730 1849 2060 1948 1848 1965
8 1947 1832 1948 2060 1830 1714 1831 1946
8 1959 1847 1729 1843 2063 1949 1833 1950
8 1952 1843 1725 1836 2064 1950 1834 1951
8 1836 1725 1843 1952 1953 1842 1958 2066
8 1953 1842 1957 2067 1839 1724 1841 1955
8 1841 1955 1838 1723 1956 2068 1954 1840
8 2068 1956 1859 1967 1954 1840 1743 1852
8 1956 1844 1960 2069 1859 1747 1862 1973
8 1845 1957 1841 1727 1960 2069 1956 1844
8 1728 1842 1957 1845 1846 1958 2071 1961
8 1962 2072 1959 1847 1846 1958 1843 1729
8 1971 1861 1964 2077 1857 1746 1848 1965
8 1854 1741 1857 1969 1966 1849 1965 2078
8 1967 1859 1973 2079 1853 1745 1860 1968
8 1970 1858 1744 1856 2080 1972 1860 1968
8 1969 1857 1742 1855 2081 1971 1858 1970
8 1971 1861 1749 1858 2082 1974 1863 1972
8 1973 1862 1975 2083 1860 1748 1863 1972
8 1987 1882 1976 2086 1875 1768 1864 1977
8 1981 1875 1977 2087 1869 1761 1865 1978
8 1980 1877 1763 1868 2088 1986 1874 1979
8 1887 1775 1888 1997 1979 1874 1986 2088
8 1880 1982 2089 1989 1766 1870 1980 1877
8 1984 1876 1987 2090 1872 1762 1875 1981
8 1765 1871 1983 1879 1880 1982 2091 1991
8 1985 1878 1764 1873 2092 1990 1879 1983
8 1985 1878 1988 2093 1873 1764 1876 1984
8 2094 1992 1881 1986 1998 1889 1776 1888
8 1986 1881 1992 2094 1877 1773 1886 1989
8 1988 1883 1993 2095 1876 1769 1882 1987
8 1878 1770 1884 1990 1988 1883 1994 2096
8 1991 1885 1772 1880 2097 1996 1886 1989
8 1879 1771 1885 1991 1990 1884 1995 2098
8 2103 1998 1888 1997 2000 1891 1779 1890
8 2104 1999 1889 1998 2001 1892 1780 1891
8 2003 1894 2001 2106 1893 1782 1891 2000
8 2004 1895 2002 2107 1894 1783 1892 2001
8 2006 1897 2004 2109 1896 1785 1894 2003
8 2007 1898 2005 2110 1897 1786 1895 2004
8 2014 1901 2007 2112 1904 1789 1897 2006
8 2011 1899 2008 2113 1901 1787 1898 2007
8 2119 2010 1899 2011 2013 1900 1787 1901
8 2016 1902 2012 2122 1903 1788 1900 2013
8 2017 1903 2013 2123 1904 1789 1901 2014
8 1906 1791 1905 2019 2016 1902 2015 2125
8 1907 1792 1906 2020 2017 1903 2016 2126
8 1909 1793 1908 2022 2019 1905 2018 2128
8 2020 1906 1794 1910 2129 2019 1909 2023
8 1912 1796 1911 2025 2022 1908 2021 2131
8 1913 1797 1912 2026 2023 1909 2022 2132
8 1915 1799 1914 2028 2025 1911 2024 2134
8 1916 1800 1915 2029 2026 1912 2025 2135
8 1918 1804 1919 2031 2028 1914 2027 2136
8 1917 1803 1918 2030 2029 1915 2028 2137
8 1920 1806 1921 2032 2030 1918 2031 2138
8 1940 1827 1941 2054 2035 1923 2033 2140
8 2035 1923 2034 2143 1939 1826 1924 2037
8 2037 1924 2036 2146 1926 1811 1925 2039
8 2051 1939 2037 2147 1944 1829 1926 2040
8 2039 1925 2038 2149 1928 1812 1927 2042
8 2040 1926 2039 2150 1929 1813 1928 2043
8 2042 1927 2041 2151 1931 1814 1930 2044
8 2043 1928 2042 2152 1932 1815 1931 2045
8 2045 1931 2044 2153 1934 1818 1933 2046
8 2155 2047 1936 2048 2086 1976 1864 1977
8 2063 1949 1833 1950 2155 2047 1936 2048
8 2156 2048 1937 2049 2087 1977 1865 1978
8 2064 1950 1834 1951 2156 2048 1937 2049
8 2051 1939 1829 1944 2160 2053 1946 2058
8 2052 1940 2035 2144 2160 2053 1939 2051
8 2053 1942 1831 1946 2163 2057 1948 2060
8 2055 1943 1827 1940 2163 2057 1942 2053
8 2055 1943 2056 2164 1940 1827 1941 2054
8 2059 1947 1849 1966 2167 2060 1965 2078
8 2059 1947 2060 2167 1945 1830 1946 2058
8 2077 1964 2061 2168 1965 1848 1948 2060
8 2070 1963 1847 1959 2170 2062 1949 2063
8 2065 1959 1843 1952 2171 2063 1950 2064
8 2173 2072 1958 2066 2065 1959 1843 1952
8 1953 1842 1958 2066 2067 1957 2071 2174
8 2068 1956 2069 2175 1967 1859 1973 2079
8 2067 1957 2069 2175 1955 1841 1956 2068
8 1845 1957 2069 1960 1961 2071 2176 2073
8 2069 1960 2073 2176 1973 1862 1975 2083
8 2070 1963 2075 2177 1959 1847 1962 2072
8 1846 1958 2071 1961 1962 2072 2178 2074
8 2077 1964 1861 1971 2182 2076 1974 2082
8 2081 1971 2077 2183 1969 1857 1965 2078
8 2079 1973 2083 2184 1968 1860 1972 2080
8 2081 1971 1858 1970 2185 2082 1972 2080
8 2083 1975 2084 2186 1972 1863 1974 2082
8 2086 1976 1882 1987 2189 2085 1993 2095
8 2090 1987 2086 2190 1981 1875 1977 2087
8 2191 2094 1986 2088 2103 1998 1888 1997
8 2088 1986 2094 2191 1980 1877 1989 2089
8 1991 2091 2192 2097 1880 1982 2089 1989
8 2093 1988 2095 2193 1984 1876 1987 2090
8 1879 1983 2092 1990 1991 2091 2194 2098
8 1985 1878 1990 2092 2093 1988 2096 2195
8 2097 1996 1886 1989 2196 2099 1992 2094
8 2196 2099 1992 2094 2104 1999 1889 1998
8 1994 2096 1988 1883 2100 2197 2095 1993
8 2096 1994 1884 1990 2198 2101 1995 2098
8 1995 2098 2199 2102 1885 1991 2097 1996
8 2203 2104 1998 2103 2106 2001 1891 2000
8 2107 2002 2105 2204 2001 1892 1999 2104
8 2109 2004 2107 2206 2003 1894 2001 2106
8 2110 2005 2108 2207 2004 1895 2002 2107
8 2112 2007 2110 2209 2006 1897 2004 2109
8 2113 2008 2111 2210 2007 1898 2005 2110
8 2120 2011 2113 2212 2014 1901 2007 2112
8 2117 2009 2114 2213 2011 1899 2008 2113
8 2219 2116 2009 2117 2119 2010 1899 2011
8 2222 2118 2010 2119 2122 2012 1900 2013
8 2223 2119 2011 2120 2123 2013 1901 2014
8 2016 1902 2015 2125 2122 2012 2121 2225
8 2126 2016 2122 2226 2017 1903 2013 2123
8 2019 1905 2018 2128 2125 2015 2124 2228
8 2020 1906 2019 2129 2126 2016 2125 2229
8 2022 1908 2021 2131 2128 2018 2127 2231
8 2023 1909 2022 2132 2129 2019 2128 2232
8 2025 1911 2024 2134 2131 2021 2130 2234
8 2026 1912 2025 2135 2132 2022 2131 2235
8 1914 2028 2134 2024 2027 2136 2236 2133
8 2029 1915 2028 2137 2135 2025 2134 2237
8 2030 1918 2031 2138 2137 2028 2136 2238
8 2157 2050 2139 2240 2054 1941 2033 2140
8 2052 1940 2054 2161 2144 2035 2140 2242
8 2140 2033 2141 2243 2035 1923 2034 2143
8 2143 2034 2142 2246 2037 1924 2036 2146
8 2144 2035 2143 2247 2051 1939 2037 2147
8 2146 2036 2145 2249 2039 1925 2038 2149
8 2147 2037 2146 2250 2040 1926 2039 2150
8 2149 2038 2148 2251 2042 1927 2041 2151
8 2150 2039 2149 2252 2043 1928 2042 2152
8 2152 2042 2151 2253 2045 1931 2044 2153
8 2255 2154 2047 2155 2189 2085 1976 2086
8 2170 2062 1949 2063 2255 2154 2047 2155
8 2256 2155 2048 2156 2190 2086 1977 2087
8 2171 2063 1950 2064 2256 2155 2048 2156
8 2258 2159 2050 2157 2164 2056 1941 2054
8 2160 2053 1946 2058 2262 2163 2060 2167
8 2162 2055 1940 2052 2262 2163 2053 2160
8 2162 2055 2164 2263 2052 1940 2054 2161
8 2163 2057 1948 2060 2264 2165 2061 2168
8 2055 1943 2057 2163 2164 2056 2165 2264
8 2182 2076 2166 2268 2077 1964 2061 2168
8 2183 2077 2168 2269 2078 1965 2060 2167
8 2070 1963 2062 2170 2177 2075 2169 2271
8 2172 2070 1959 2065 2272 2170 2063 2171
8 2172 2070 2177 2273 2065 1959 2072 2173
8 2066 1958 2072 2173 2174 2071 2178 2274
8 2067 1957 2071 2174 2175 2069 2176 2275
8 2175 2069 2176 2275 2079 1973 2083 2184
8 2071 1961 2074 2178 2176 2073 2179 2276
8 2176 2073 2179 2276 2083 1975 2084 2186
8 2072 1962 2075 2177 2178 2074 2180 2277
8 2182 2076 1974 2082 2280 2181 2084 2186
8 2183 2077 1971 2081 2281 2182 2082 2185
8 2184 2083 2186 2282 2080 1972 2082 2185
8 2189 2085 1993 2095 2285 2188 2100 2197
8 2190 2086 1987 2090 2286 2189 2095 2193
8 2192 2097 1989 2089 2287 2196 2094 2191
8 2287 2196 2094 2191 2203 2104 1998 2103
8 2194 2098 1991 2091 2288 2199 2097 2192
8 2195 2096 2197 2289 2093 1988 2095 2193
8 2096 2195 2290 2198 1990 2092 2194 2098
8 2097 1996 2099 2196 2199 2102 2200 2291
8 2196 2099 1999 2104 2291 2200 2105 2204
8 2100 2197 2292 2201 1994 2096 2198 2101
8 1995 2098 2198 2101 2102 2199 2293 2202
8 2206 2107 2204 2296 2106 2001 2104 2203
8 2207 2108 2205 2297 2107 2002 2105 2204
8 2209 2110 2207 2299 2109 2004 2107 2206
8 2210 2111 2208 2300 2110 2005 2108 2207
8 2212 2113 2210 2302 2112 2007 2110 2209
8 2213 2114 2211 2303 2113 2008 2111 2210
8 2220 2117 2213 2305 2120 2011 2113 2212
8 2216 2115 2214 2306 2117 2009 2114 2213
8 2216 2115 2009 2117 2311 2217 2116 2219
8 2219 2116 2010 2119 2314 2218 2118 2222
8 2315 2219 2117 2220 2223 2119 2011 2120
8 2122 2012 2121 2225 2222 2118 2221 2317
8 2318 2222 2119 2223 2226 2122 2013 2123
8 2125 2015 2124 2228 2225 2121 2224 2320
8 2126 2016 2125 2229 2226 2122 2225 2321
8 2128 2018 2127 2231 2228 2124 2227 2323
8 2129 2019 2128 2232 2229 2125 2228 2324
8 2131 2021 2130 2234 2231 2127 2230 2326
8 2132 2022 2131 2235 2232 2128 2231 2327
8 2134 2024 2133 2236 2234 2130 2233 2328
8 2135 2025 2134 2237 2235 2131 2234 2329
8 2137 2028 2136 2238 2237 2134 2236 2330
8 2157 2050 2158 2259 2240 2139 2239 2332
8 2257 2157 2240 2334 2161 2054 2140 2242
8 2240 2139 2241 2335 2140 2033 2141 2243
8 2242 2140 2243 2337 2144 2035 2143 2247
8 2243 2141 2244 2338 2143 2034 2142 2246
8 2246 2142 2245 2341 2146 2036 2145 2249
8 2247 2143 2246 2342 2147 2037 2146 2250
8 2249 2145 2248 2343 2149 2038 2148 2251
8 2250 2146 2249 2344 2150 2039 2149 2252
8 2252 2149 2251 2345 2152 2042 2151 2253
8 2169 2271 2347 2254 2062 2170 2255 2154
8 2189 2085 2188 2285 2255 2154 2254 2347
8 2348 2255 2155 2256 2286 2189 2086 2190
8 2272 2170 2063 2171 2348 2255 2155 2256
8 2349 2258 2157 2257 2263 2164 2054 2161
8 2258 2159 2261 2351 2157 2050 2158 2259
8 2258 2159 2056 2164 2351 2261 2165 2264
8 2262 2163 2060 2167 2355 2264 2168 2269
8 2162 2055 2163 2262 2263 2164 2264 2355
8 2357 2266 2165 2264 2268 2166 2061 2168
8 2268 2166 2076 2182 2361 2267 2181 2280
8 2281 2182 2268 2362 2183 2077 2168 2269
8 2271 2169 2270 2364 2177 2075 2180 2277
8 2172 2070 2170 2272 2273 2177 2271 2365
8 2072 2173 2274 2178 2177 2273 2366 2277
8 2071 2174 2275 2176 2178 2274 2367 2276
8 2275 2176 2276 2367 2184 2083 2186 2282
8 2283 2187 2084 2186 2368 2278 2179 2276
8 2178 2074 2180 2277 2276 2179 2278 2368
8 2283 2187 2279 2370 2186 2084 2181 2280
8 2281 2182 2082 2185 2371 2280 2186 2282
8 2188 2285 2374 2284 2100 2197 2292 2201
8 2286 2189 2095 2193 2375 2285 2197 2289
8 2192 2097 2196 2287 2288 2199 2291 2376
8 2287 2196 2104 2203 2376 2291 2204 2296
8 2194 2098 2199 2288 2290 2198 2293 2377
8 2289 2197 2096 2195 2378 2292 2198 2290
8 2291 2200 2105 2204 2379 2294 2205 2297
8 2199 2102 2200 2291 2293 2202 2294 2379
8 2198 2101 2202 2293 2292 2201 2295 2380
8 2299 2207 2297 2383 2206 2107 2204 2296
8 2300 2208 2298 2384 2207 2108 2205 2297
8 2302 2210 2300 2386 2209 2110 2207 2299
8 2303 2211 2301 2387 2210 2111 2208 2300
8 2305 2213 2303 2389 2212 2113 2210 2302
8 2306 2214 2304 2390 2213 2114 2211 2303
8 2310 2216 2306 2392 2220 2117 2213 2305
8 2308 2215 2307 2393 2216 2115 2214 2306
8 2308 2215 2115 2216 2396 2309 2217 2311
8 2310 2216 2117 2220 2398 2311 2219 2315
8 2311 2217 2116 2219 2399 2312 2218 2314
8 2314 2218 2118 2222 2402 2313 2221 2317
8 2315 2219 2119 2223 2403 2314 2222 2318
8 2225 2121 2224 2320 2317 2221 2316 2405
8 2226 2122 2225 2321 2318 2222 2317 2406
8 2228 2124 2227 2323 2320 2224 2319 2408
8 2229 2125 2228 2324 2321 2225 2320 2409
8 2231 2127 2230 2326 2323 2227 2322 2411
8 2232 2128 2231 2327 2324 2228 2323 2412
8 2234 2130 2233 2328 2326 2230 2325 2413
8 2235 2131 2234 2329 2327 2231 2326 2414
8 2237 2134 2236 2330 2329 2234 2328 2415
8 2259 2158 2260 2352 2332 2239 2331 2417
8 2257 2157 2259 2350 2334 2240 2332 2419
8 2240 2139 2239 2332 2335 2241 2333 2420
8 2334 2240 2335 2422 2242 2140 2243 2337
8 2335 2241 2336 2423 2243 2141 2244 2338
8 2337 2243 2338 2425 2247 2143 2246 2342
8 2338 2244 2339 2426 2246 2142 2245 2341
8 2341 2245 2340 2428 2249 2145 2248 2343
8 2342 2246 2341 2429 2250 2146 2249 2344
8 2344 2249 2343 2430 2252 2149 2251 2345
8 2188 2285 2347 2254 2284 2374 2432 2346
8 2347 2254 2346 2432 2271 2169 2270 2364
8 2365 2271 2170 2272 2433 2347 2255 2348
8 2286 2189 2285 2375 2348 2255 2347 2433
8 2349 2258 2351 2435 2257 2157 2259 2350
8 2349 2258 2164 2263 2435 2351 2264 2355
8 2259 2158 2261 2351 2352 2260 2354 2437
8 2356 2265 2354 2437 2264 2165 2261 2351
8 2441 2357 2264 2355 2362 2268 2168 2269
8 2356 2265 2165 2264 2442 2358 2266 2357
8 2443 2359 2266 2357 2361 2267 2166 2268
8 2370 2279 2360 2446 2280 2181 2267 2361
8 2362 2268 2182 2281 2447 2361 2280 2371
8 2180 2277 2368 2278 2270 2364 2449 2363
8 2271 2365 2273 2177 2364 2450 2366 2277
8 2372 2283 2186 2282 2451 2368 2276 2367
8 2178 2274 2367 2276 2277 2366 2451 2368
8 2283 2187 2278 2368 2370 2279 2369 2452
8 2372 2283 2370 2453 2282 2186 2280 2371
8 2284 2374 2455 2373 2201 2292 2380 2295
8 2375 2285 2197 2289 2456 2374 2292 2378
8 2376 2291 2204 2296 2457 2379 2297 2383
8 2288 2199 2291 2376 2377 2293 2379 2457
8 2198 2290 2378 2292 2293 2377 2458 2380
8 2293 2202 2294 2379 2380 2295 2381 2459
8 2384 2298 2381 2459 2297 2205 2294 2379
8 2386 2300 2384 2463 2299 2207 2297 2383
8 2387 2301 2385 2464 2300 2208 2298 2384
8 2389 2303 2387 2466 2302 2210 2300 2386
8 2390 2304 2388 2467 2303 2211 2301 2387
8 2392 2306 2390 2469 2305 2213 2303 2389
8 2393 2307 2391 2470 2306 2214 2304 2390
8 2395 2308 2393 2472 2310 2216 2306 2392
8 2308 2215 2309 2396 2393 2307 2394 2473
8 2395 2308 2216 2310 2475 2396 2311 2398
8 2396 2309 2217 2311 2476 2397 2312 2399
8 2398 2311 2219 2315 2478 2399 2314 2403
8 2399 2312 2218 2314 2479 2400 2313 2402
8 2317 2221 2316 2405 2402 2313 2401 2482
8 2403 2314 2222 2318 2483 2402 2317 2406
8 2320 2224 2319 2408 2405 2316 2404 2485
8 2321 2225 2320 2409 2406 2317 2405 2486
8 2323 2227 2322 2411 2408 2319 2407 2488
8 2324 2228 2323 2412 2409 2320 2408 2489
8 2326 2230 2325 2413 2411 2322 2410 2490
8 2327 2231 2326 2414 2412 2323 2411 2491
8 2329 2234 2328 2415 2414 2326 2413 2492
8 2417 2331 2260 2352 2494 2416 2353 2438
8 2350 2259 2352 2436 2419 2332 2417 2496
8 2332 2239 2331 2417 2420 2333 2418 2497
8 2334 2240 2332 2419 2422 2335 2420 2499
8 2420 2333 2421 2500 2335 2241 2336 2423
8 2422 2335 2423 2502 2337 2243 2338 2425
8 2423 2336 2424 2503 2338 2244 2339 2426
8 2425 2338 2426 2505 2342 2246 2341 2429
8 2426 2339 2427 2506 2341 2245 2340 2428
8 2429 2341 2428 2507 2344 2249 2343 2430
8 2432 2346 2284 2374 2509 2431 2373 2455
8 2432 2346 2431 2509 2364 2270 2363 2449
8 2375 2285 2374 2456 2433 2347 2432 2510
8 2347 2433 2365 2271 2432 2510 2450 2364
8 2350 2259 2351 2435 2436 2352 2437 2514
8 2440 2356 2437 2514 2355 2264 2351 2435
8 2352 2260 2354 2437 2438 2353 2439 2516
8 2356 2265 2358 2442 2437 2354 2439 2516
8 2440 2356 2264 2355 2518 2442 2357 2441
8 2519 2443 2357 2441 2447 2361 2268 2362
8 2443 2359 2444 2520 2357 2266 2358 2442
8 2443 2359 2267 2361 2520 2444 2360 2446
8 2446 2360 2279 2370 2523 2445 2369 2452
8 2453 2370 2446 2524 2371 2280 2361 2447
8 2449 2363 2448 2525 2368 2278 2369 2452
8 2366 2277 2364 2450 2451 2368 2449 2526
8 2372 2283 2368 2451 2453 2370 2452 2527
8 2455 2373 2295 2380 2529 2454 2382 2460
8 2456 2374 2292 2378 2530 2455 2380 2458
8 2377 2293 2379 2457 2458 2380 2459 2531
8 2463 2384 2459 2531 2383 2297 2379 2457
8 2533 2461 2382 2460 2459 2381 2295 2380
8 2464 2385 2461 2533 2384 2298 2381 2459
8 2466 2387 2464 2537 2386 2300 2384 2463
8 2467 2388 2465 2538 2387 2301 2385 2464
8 2469 2390 2467 2540 2389 2303 2387 2466
8 2470 2391 2468 2541 2390 2304 2388 2467
8 2472 2393 2470 2543 2392 2306 2390 2469
8 2393 2307 2394 2473 2470 2391 2471 2544
8 2395 2308 2396 2475 2472 2393 2473 2546
8 2396 2309 2397 2476 2473 2394 2474 2547
8 2475 2396 2311 2398 2549 2476 2399 2478
8 2476 2397 2312 2399 2550 2477 2400 2479
8 2478 2399 2314 2403 2552 2479 2402 2483
8 2479 2400 2313 2402 2553 2480 2401 2482
8 2405 2316 2404 2485 2482 2401 2481 2556
8 2406 2317 2405 2486 2483 2402 2482 2557
8 2408 2319 2407 2488 2485 2404 2484 2559
8 2409 2320 2408 2489 2486 2405 2485 2560
8 2411 2322 2410 2490 2488 2407 2487 2561
8 2412 2323 2411 2491 2489 2408 2488 2562
8 2414 2326 2413 2492 2491 2411 2490 2563
8 2513 2434 2493 2565 2438 2353 2416 2494
8 2496 2417 2352 2436 2567 2494 2438 2515
8 2494 2416 2495 2568 2417 2331 2418 2497
8 2419 2332 2417 2496 2499 2420 2497 2570
8 2497 2418 2498 2571 2420 2333 2421 2500
8 2499 2420 2500 2573 2422 2335 2423 2502
8 2500 2421 2501 2574 2423 2336 2424 2503
8 2502 2423 2503 2576 2425 2338 2426 2505
8 2503 2424 2504 2577 2426 2339 2427 2506
8 2505 2426 2506 2578 2429 2341 2428 2507
8 2509 2431 2373 2455 2580 2508 2454 2529
8 2509 2431 2508 2580 2449 2363 2448 2525
8 2432 2510 2581 2509 2374 2456 2530 2455
8 2432 2510 2450 2364 2509 2581 2526 2449
8 2583 2511 2434 2513 2516 2439 2353 2438
8 2436 2352 2437 2514 2515 2438 2516 2588
8 2440 2356 2442 2518 2514 2437 2516 2588
8 2442 2358 2444 2520 2516 2439 2517 2589
8 2519 2443 2520 2591 2441 2357 2442 2518
8 2519 2443 2361 2447 2591 2520 2446 2524
8 2446 2360 2445 2523 2520 2444 2521 2592
8 2525 2448 2522 2593 2452 2369 2445 2523
8 2524 2446 2370 2453 2594 2523 2452 2527
8 2526 2449 2525 2595 2451 2368 2452 2527
8 2534 2462 2528 2597 2460 2382 2454 2529
8 2530 2455 2380 2458 2598 2529 2460 2532
8 2599 2533 2460 2532 2531 2459 2380 2458
8 2537 2464 2533 2599 2463 2384 2459 2531
8 2534 2462 2382 2460 2601 2535 2461 2533
8 2538 2465 2535 2601 2464 2385 2461 2533
8 2540 2467 2538 2604 2466 2387 2464 2537
8 2541 2468 2539 2605 2467 2388 2465 2538
8 2543 2470 2541 2607 2469 2390 2467 2540
8 2470 2391 2471 2544 2541 2468 2542 2608
8 2472 2393 2473 2546 2543 2470 2544 2610
8 2473 2394 2474 2547 2544 2471 2545 2611
8 2475 2396 2476 2549 2546 2473 2547 2613
8 2476 2397 2477 2550 2547 2474 2548 2614
8 2549 2476 2399 2478 2616 2550 2479 2552
8 2479 2400 2480 2553 2550 2477 2551 2617
8 2552 2479 2402 2483 2619 2553 2482 2557
8 2482 2401 2481 2556 2553 2480 2554 2620
8 2485 2404 2484 2559 2556 2481 2555 2623
8 2486 2405 2485 2560 2557 2482 2556 2624
8 2488 2407 2487 2561 2559 2484 2558 2625
8 2489 2408 2488 2562 2560 2485 2559 2626
8 2491 2411 2490 2563 2562 2488 2561 2627
8 2513 2434 2512 2585 2565 2493 2564 2630
8 2586 2513 2565 2632 2515 2438 2494 2567
8 2565 2493 2566 2633 2494 2416 2495 2568
8 2567 2494 2568 2635 2496 2417 2497 2570
8 2568 2495 2569 2636 2497 2418 2498 2571
8 2570 2497 2571 2638 2499 2420 2500 2573
8 2571 2498 2572 2639 2500 2421 2501 2574
8 2573 2500 2574 2641 2502 2423 2503 2576
8 2574 2501 2575 2642 2503 2424 2504 2577
8 2576 2503 2577 2643 2505 2426 2506 2578
8 2597 2528 2579 2645 2529 2454 2508 2580
8 2580 2508 2579 2645 2525 2448 2522 2593
8 2581 2509 2455 2530 2646 2580 2529 2598
8 2581 2509 2580 2646 2526 2449 2525 2595
8 2583 2511 2582 2648 2513 2434 2512 2585
8 2583 2511 2439 2516 2648 2582 2517 2589
8 2649 2583 2513 2586 2588 2516 2438 2515
8 2589 2517 2444 2520 2653 2587 2521 2592
8 2518 2442 2520 2591 2588 2516 2589 2654
8 2593 2522 2590 2655 2523 2445 2521 2592
8 2524 2446 2523 2594 2591 2520 2592 2656
8 2595 2525 2593 2657 2527 2452 2523 2594
8 2602 2536 2596 2659 2534 2462 2528 2597
8 2600 2534 2597 2660 2532 2460 2529 2598
8 2600 2534 2460 2532 2661 2601 2533 2599
8 2604 2538 2601 2661 2537 2464 2533 2599
8 2602 2536 2462 2534 2663 2603 2535 2601
8 2601 2535 2465 2538 2663 2603 2539 2605
8 2607 2541 2605 2665 2540 2467 2538 2604
8 2608 2542 2606 2666 2541 2468 2539 2605
8 2543 2470 2544 2610 2607 2541 2608 2668
8 2544 2471 2545 2611 2608 2542 2609 2669
8 2546 2473 2547 2613 2610 2544 2611 2671
8 2547 2474 2548 2614 2611 2545 2612 2672
8 2549 2476 2550 2616 2613 2547 2614 2674
8 2550 2477 2551 2617 2614 2548 2615 2675
8 2552 2479 2553 2619 2616 2550 2617 2677
8 2553 2480 2554 2620 2617 2551 2618 2678
8 2557 2482 2556 2624 2619 2553 2620 2680
8 2556 2481 2555 2623 2620 2554 2621 2681
8 2559 2484 2558 2625 2623 2555 2622 2683
8 2560 2485 2559 2626 2624 2556 2623 2684
8 2562 2488 2561 2627 2626 2559 2625 2685
8 2690 2629 2564 2630 2650 2584 2512 2585
8 2586 2513 2585 2651 2632 2565 2630 2691
8 2630 2564 2631 2692 2565 2493 2566 2633
8 2632 2565 2633 2694 2567 2494 2568 2635
8 2633 2566 2634 2695 2568 2495 2569 2636
8 2635 2568 2636 2697 2570 2497 2571 2638
8 2636 2569 2637 2698 2571 2498 2572 2639
8 2638 2571 2639 2700 2573 2500 2574 2641
8 2639 2572 2640 2701 2574 2501 2575 2642
8 2641 2574 2642 2702 2576 2503 2577 2643
8 2597 2528 2596 2659 2645 2579 2644 2704
8 2645 2579 2644 2704 2593 2522 2590 2655
8 2660 2597 2645 2705 2598 2529 2580 2646
8 2646 2580 2645 2705 2595 2525 2593 2657
8 2650 2584 2512 2585 2707 2647 2582 2648
8 2648 2582 2517 2589 2707 2647 2587 2653
8 2649 2583 2648 2708 2586 2513 2585 2651
8 2649 2583 2516 2588 2708 2648 2589 2654
8 2655 2590 2652 2710 2592 2521 2587 2653
8 2654 2589 2520 2591 2711 2653 2592 2656
8 2657 2593 2655 2712 2594 2523 2592 2656
8 2602 2536 2603 2663 2659 2596 2658 2714
8 2662 2602 2659 2715 2600 2534 2597 2660
8 2662 2602 2534 2600 2717 2663 2601 2661
8 2661 2601 2538 2604 2717 2663 2605 2665
8 2666 2606 2664 2718 2605 2539 2603 2663
8 2668 2608 2666 2720 2607 2541 2605 2665
8 2608 2542 2609 2669 2666 2606 2667 2721
8 2610 2544 2611 2671 2668 2608 2669 2723
8 2611 2545 2612 2672 2669 2609 2670 2724
8 2613 2547 2614 2674 2671 2611 2672 2726
8 2614 2548 2615 2675 2672 2612 2673 2727
8 2616 2550 2617 2677 2674 2614 2675 2729
8 2617 2551 2618 2678 2675 2615 2676 2730
8 2619 2553 2620 2680 2677 2617 2678 2732
8 2620 2554 2621 2681 2678 2618 2679 2733
8 2624 2556 2623 2684 2680 2620 2681 2735
8 2681 2621 2555 2623 2736 2682 2622 2683
8 2626 2559 2625 2685 2684 2623 2683 2737
8 2688 2628 2584 2650 2740 2686 2647 2707
8 2688 2628 2687 2742 2650 2584 2629 2690
8 2690 2629 2689 2745 2630 2564 2631 2692
8 2746 2690 2630 2691 2709 2650 2585 2651
8 2691 2630 2692 2747 2632 2565 2633 2694
8 2692 2631 2693 2748 2633 2566 2634 2695
8 2694 2633 2695 2750 2635 2568 2636 2697
8 2695 2634 2696 2751 2636 2569 2637 2698
8 2697 2636 2698 2753 2638 2571 2639 2700
8 2698 2637 2699 2754 2639 2572 2640 2701
8 2700 2639 2701 2755 2641 2574 2642 2702
8 2659 2596 2658 2714 2704 2644 2703 2757
8 2704 2644 2703 2757 2655 2590 2652 2710
8 2660 2597 2659 2715 2705 2645 2704 2758
8 2705 2645 2704 2758 2657 2593 2655 2712
8 2759 2706 2647 2707 2710 2652 2587 2653
8 2709 2650 2585 2651 2760 2707 2648 2708
8 2708 2648 2589 2654 2760 2707 2653 2711
8 2712 2655 2710 2761 2656 2592 2653 2711
8 2763 2713 2658 2714 2718 2664 2603 2663
8 2662 2602 2663 2717 2715 2659 2714 2764
8 2720 2666 2718 2767 2665 2605 2663 2717
8 2768 2719 2664 2718 2721 2667 2606 2666
8 2668 2608 2669 2723 2720 2666 2721 2770
8 2669 2609 2670 2724 2721 2667 2722 2771
8 2671 2611 2672 2726 2723 2669 2724 2773
8 2672 2612 2673 2727 2724 2670 2725 2774
8 2674 2614 2675 2729 2726 2672 2727 2776
8 2675 2615 2676 2730 2727 2673 2728 2777
8 2677 2617 2678 2732 2729 2675 2730 2779
8 2678 2618 2679 2733 2730 2676 2731 2780
8 2680 2620 2681 2735 2732 2678 2733 2782
8 2733 2679 2621 2681 2783 2734 2682 2736
8 2735 2681 2623 2684 2784 2736 2683 2737
8 2740 2686 2647 2707 2787 2738 2706 2759
8 2688 2628 2686 2740 2742 2687 2739 2789
8 2743 2688 2650 2709 2790 2740 2707 2760
8 2742 2687 2741 2792 2690 2629 2689 2745
8 2743 2688 2742 2793 2709 2650 2690 2746
8 2745 2689 2744 2795 2692 2631 2693 2748
8 2746 2690 2745 2796 2691 2630 2692 2747
8 2747 2692 2748 2797 2694 2633 2695 2750
8 2748 2693 2749 2798 2695 2634 2696 2751
8 2750 2695 2751 2800 2697 2636 2698 2753
8 2751 2696 2752 2801 2698 2637 2699 2754
8 2753 2698 2754 2802 2700 2639 2701 2755
8 2763 2713 2756 2804 2714 2658 2703 2757
8 2759 2706 2652 2710 2804 2756 2703 2757
8 2715 2659 2714 2764 2758 2704 2757 2805
8 2758 2704 2757 2805 2712 2655 2710 2761
8 2806 2759 2707 2760 2761 2710 2653 2711
8 2765 2716 2762 2808 2718 2664 2713 2763
8 2809 2763 2714 2764 2767 2718 2663 2717
8 2765 2716 2664 2718 2811 2766 2719 2768
8 2813 2768 2718 2767 2770 2721 2666 2720
8 2814 2769 2719 2768 2771 2722 2667 2721
8 2723 2669 2724 2773 2770 2721 2771 2816
8 2724 2670 2725 2774 2771 2722 2772 2817
8 2726 2672 2727 2776 2773 2724 2774 2819
8 2727 2673 2728 2777 2774 2725 2775 2820
8 2729 2675 2730 2779 2776 2727 2777 2822
8 2730 2676 2731 2780 2777 2728 2778 2823
8 2732 2678 2733 2782 2779 2730 2780 2825
8 2780 2731 2679 2733 2826 2781 2734 2783
8 2782 2733 2681 2735 2827 2783 2736 2784
8 2830 2785 2738 2787 2804 2756 2706 2759
8 2789 2739 2686 2740 2832 2786 2738 2787
8 2790 2740 2707 2760 2833 2787 2759 2806
8 2742 2687 2739 2789 2792 2741 2788 2835
8 2743 2688 2740 2790 2793 2742 2789 2836
8 2792 2741 2791 2838 2745 2689 2744 2795
8 2793 2742 2792 2839 2746 2690 2745 2796
8 2795 2744 2794 2841 2748 2693 2749 2798
8 2796 2745 2795 2842 2747 2692 2748 2797
8 2797 2748 2798 2843 2750 2695 2751 2800
8 2798 2749 2799 2844 2751 2696 2752 2801
8 2800 2751 2801 2845 2753 2698 2754 2802
8 2808 2762 2803 2847 2763 2713 2756 2804
8 2809 2763 2804 2848 2764 2714 2757 2805
8 2806 2759 2710 2761 2848 2804 2757 2805
8 2765 2716 2766 2811 2808 2762 2807 2850
8 2810 2765 2808 2851 2767 2718 2763 2809
8 2810 2765 2718 2767 2852 2811 2768 2813
8 2811 2766 2719 2768 2853 2812 2769 2814
8 2855 2814 2768 2813 2816 2771 2721 2770
8 2856 2815 2769 2814 2817 2772 2722 2771
8 2773 2724 2774 2819 2816 2771 2817 2858
8 2774 2725 2775 2820 2817 2772 2818 2859
8 2776 2727 2777 2822 2819 2774 2820 2861
8 2777 2728 2778 2823 2820 2775 2821 2862
8 2779 2730 2780 2825 2822 2777 2823 2864
8 2823 2778 2731 2780 2865 2824 2781 2826
8 2825 2780 2733 2782 2866 2826 2783 2827
8 2869 2828 2785 2830 2847 2803 2756 2804
8 2871 2829 2786 2832 2830 2785 2738 2787
8 2872 2830 2787 2833 2848 2804 2759 2806
8 2789 2739 2786 2832 2835 2788 2831 2874
8 2836 2789 2740 2790 2875 2832 2787 2833
8 2792 2741 2788 2835 2838 2791 2834 2877
8 2793 2742 2789 2836 2839 2792 2835 2878
8 2838 2791 2837 2880 2795 2744 2794 2841
8 2839 2792 2838 2881 2796 2745 2795 2842
8 2841 2794 2840 2882 2798 2749 2799 2844
8 2842 2795 2841 2883 2797 2748 2798 2843
8 2843 2798 2844 2884 2800 2751 2801 2845
8 2886 2846 2803 2847 2850 2807 2762 2808
8 2851 2808 2847 2887 2809 2763 2804 2848
8 2850 2807 2766 2811 2889 2849 2812 2853
8 2810 2765 2811 2852 2851 2808 2850 2890
8 2852 2811 2768 2813 2891 2853 2814 2855
8 2853 2812 2769 2814 2892 2854 2815 2856
8 2894 2856 2814 2855 2858 2817 2771 2816
8 2817 2772 2818 2859 2856 2815 2857 2895
8 2819 2774 2820 2861 2858 2817 2859 2897
8 2820 2775 2821 2862 2859 2818 2860 2898
8 2822 2777 2823 2864 2861 2820 2862 2900
8 2823 2778 2824 2865 2862 2821 2863 2901
8 2864 2823 2780 2825 2902 2865 2826 2866
8 2904 2867 2828 2869 2886 2846 2803 2847
8 2869 2828 2868 2906 2830 2785 2829 2871
8 2907 2869 2830 2872 2887 2847 2804 2848
8 2871 2829 2870 2909 2832 2786 2831 2874
8 2910 2871 2832 2875 2872 2830 2787 2833
8 2835 2788 2831 2874 2877 2834 2873 2912
8 2836 2789 2832 2875 2878 2835 2874 2913
8 2877 2834 2876 2915 2838 2791 2837 2880
8 2839 2792 2835 2878 2881 2838 2877 2916
8 2880 2837 2879 2917 2841 2794 2840 2882
8 2881 2838 2880 2918 2842 2795 2841 2883
8 2883 2841 2882 2919 2843 2798 2844 2884
8 2921 2885 2846 2886 2889 2849 2807 2850
8 2922 2886 2847 2887 2890 2850 2808 2851
8 2889 2849 2812 2853 2924 2888 2854 2892
8 2890 2850 2811 2852 2925 2889 2853 2891
8 2891 2853 2814 2855 2926 2892 2856 2894
8 2892 2854 2815 2856 2927 2893 2857 2895
8 2858 2817 2859 2897 2894 2856 2895 2929
8 2859 2818 2860 2898 2895 2857 2896 2930
8 2861 2820 2862 2900 2897 2859 2898 2932
8 2862 2821 2863 2901 2898 2860 2899 2933
8 2864 2823 2865 2902 2900 2862 2901 2934
8 2904 2867 2846 2886 2936 2903 2885 2921
8 2904 2867 2903 2936 2869 2828 2868 2906
8 2937 2904 2869 2907 2922 2886 2847 2887
8 2906 2868 2905 2939 2871 2829 2870 2909
8 2907 2869 2906 2940 2872 2830 2871 2910
8 2909 2870 2908 2942 2874 2831 2873 2912
8 2910 2871 2909 2943 2875 2832 2874 2913
8 2912 2873 2911 2945 2877 2834 2876 2915
8 2878 2835 2874 2913 2916 2877 2912 2946
8 2915 2876 2914 2947 2880 2837 2879 2917
8 2916 2877 2915 2948 2881 2838 2880 2918
8 2918 2880 2917 2949 2883 2841 2882 2919
8 2921 2885 2849 2889 2951 2920 2888 2924
8 2952 2921 2886 2922 2925 2889 2850 2890
8 2924 2888 2854 2892 2954 2923 2893 2927
8 2925 2889 2853 2891 2955 2924 2892 2926
8 2926 2892 2856 2894 2956 2927 2895 2929
8 2895 2857 2896 2930 2927 2893 2928 2957
8 2897 2859 2898 2932 2929 2895 2930 2959
8 2898 2860 2899 2933 2930 2896 2931 2960
8 2900 2862 2901 2934 2932 2898 2933 2961
8 2936 2903 2885 2921 2963 2935 2920 2951
8 2936 2903 2935 2963 2906 2868 2905 2939
8 2937 2904 2886 2922 2964 2936 2921 2952
8 2937 2904 2936 2964 2907 2869 2906 2940
8 2939 2905 2938 2966 2909 2870 2908 2942
8 2940 2906 2939 2967 2910 2871 2909 2943
8 2942 2908 2941 2969 2912 2873 2911 2945
8 2943 2909 2942 2970 2913 2874 2912 2946
8 2945 2911 2944 2971 2915 2876 2914 2947
8 2946 2912 2945 2972 2916 2877 2915 2948
8 2948 2915 2947 2973 2918 2880 2917 2949
8 2951 2920 2888 2924 2975 2950 2923 2954
8 2952 2921 2889 2925 2976 2951 2924 2955
8 2927 2893 2928 2957 2954 2923 2953 2978
8 2955 2924 2892 2926 2979 2954 2927 2956
8 2929 2895 2930 2959 2956 2927 2957 2980
8 2930 2896 2931 2960 2957 2928 2958 2981
8 2932 2898 2933 2961 2959 2930 2960 2982
8 2951 2920 2950 2975 2963 2935 2962 2984
8 2963 2935 2962 2984 2939 2905 2938 2966
8 2964 2936 2921 2952 2985 2963 2951 2976
8 2964 2936 2963 2985 2940 2906 2939 2967
8 2966 2938 2965 2987 2942 2908 2941 2969
8 2967 2939 2966 2988 2943 2909 2942 2970
8 2969 2941 2968 2989 2945 2911 2944 2971
8 2970 2942 2969 2990 2946 2912 2945 2972
8 2972 2945 2971 2991 2948 2915 2947 2973
8 2954 2923 2953 2978 2975 2950 2974 2993
8 2976 2951 2924 2955 2994 2975 2954 2979
8 2957 2928 2958 2981 2978 2953 2977 2995
8 2956 2927 2957 2980 2979 2954 2978 2996
8 2959 2930 2960 2982 2980 2957 2981 2997
8 2984 2962 2983 2999 2966 2938 2965 2987
8 2975 2950 2974 2993 2984 2962 2983 2999
8 2976 2951 2975 2994 2985 2963 2984 3000
8 2985 2963 2984 3000 2967 2939 2966 2988
8 2987 2965 2986 3001 2969 2941 2968 2989
8 2988 2966 2987 3002 2970 2942 2969 2990
8 2990 2969 2989 3003 2972 2945 2971 2991
8 2978 2953 2977 2995 2993 2974 2992 3004
8 2979 2954 2978 2996 2994 2975 2993 3005
8 2980 2957 2981 2997 2996 2978 2995 3006
8 2974 2993 2999 2983 2992 3004 3007 2998
8 2983 2999 2987 2965 2998 3007 3001 2986
8 3000 2984 2999 3008 2988 2966 2987 3002
8 2994 2975 2993 3005 3000 2984 2999 3008
8 3002 2987 3001 3009 2990 2969 2989 3003
8 2996 2978 2995 3006 3005 2993 3004 3010
8 3005 2993 3004 3010 3008 2999 3007 3011
8 3008 2999 3007 3011 3002 2987 3001 3009

CELL_TYPES 1910
12
12
12
12
12
12
12
12
12
12
12
12
12
12
12
12
12
12
12
12
12
12
12
12
12
12
12
12
12
12
12
12
12
12
12
12
12
12
12
12
12
12
12
12
12
12
12
12
12
12
12
12
12
12
12
12
12
12
12
12
12
12
12
12
12
12
12
12
12
12
12
12
12
12
12
12
12
12
12
12
12
12
12
12
12
12
12
12
12
12
12
12
12
12
12
12
12
12
12
12
12
12
12
12
12
12
12
12
12
12
12
12
12
12
12
12
12
12
12
12
12
12
12
12
12
12
12
12
12
12
12
12
12
12
12
12
12
12
12
12
12
12
12
12
12
12
12
12
12
12
12
12
12
12
12
12
12
12
12
12
12
12
12
12
12
12
12
12
12
12
12
12
12
12
12
12
12
12
12
12
12
12
12
12
12
12
12
12
12
12
12
12
12
12
12
12
12
12
12
12
12
12
12
12
12
12
12
12
12
12
12
12
12
12
12
12
12
12
12
12
12
12
12
12
12
12
12
12
12
12
12
12
12
12
12
12
12
12
12
12
12
12
12
12
12
12
12
12
12
12
12
12
12
12
12
12
12
12
12
12
12
12
12
12
12
12
12
12
12
12
12
12
12
12
12
12
12
12
12
12
12
12
12
12
12
12
12
12
12
12
12
12
12
12
12
12
12
12
12
12
12
12
12
12
12
12
12
12
12
12
12
12
12
12
12
12
12
12
12
12
12
12
12
12
12
12
12
12
12
12
12
12
12
12
12
12
12
12
12
12
12
12
12
12
12
12
12
12
12
12
12
12
12
12
12
12
12
12
12
12
12
12
12
12
12
12
12
12
12
12
12
12
12
12
12
12
12
12
12
12
12
12
12
12
12
12
12
12
12
12
12
12
12
12
12
12
12
12
12
12
12
12
12
12
12
12
12
12
12
12
12
12
12
12
12
12
12
12
12
12
12
12
12
12
12
12
12
12
12
12
12
12
12
12
12
12
12
12
12
12
12
12
12
12
12
12
12
12
12
12
12
12
12
12
12
12
12
12
12
12
12
12
12
12
12
12
12
12
12
12
12
12
12
12
12
12
12
12
12
12
12
12
12
12
12
12
12
12
12
12
12
12
12
12
12
12
12
12
12
12
12
12
12
12
12
12
12
12
12
12
12
12
12
12
12
12
12
12
12
12
12
12
12
12
12
12
12
12
12
12
12
12
12
12
12
12
12
12
12
12
12
12
12
12
12
12
12
12
12
12
12
12
12
12
12
12
12
12
12
12
12
12
12
12
12
12
12
12
12
12
12
12
12
12
12
12
12
12
12
12
12
12
12
12
12
12
12
12
12
12
12
12
12
12
12
12
12
12
12
12
12
12
12
12
12
12
12
12
12
12
12
12
12
12
12
12
12
12
12
12
12
12
12
12
12
12
12
12
12
12
12
12
12
12
12
12
12
12
12
12
12
12
12
12
12
12
12
12
12
12
12
12
12
12
12
12
12
12
12
12
12
12
12
12
12
12
12
12
12
12
12
12
12
12
12
12
12
12
12
12
12
12
12
12
12
12
12
12
12
12
12
12
12
12
12
12
12
12
12
12
12
12
12
12
12
12
12
12
12
12
12
12
12
12
12
12
12
12
12
12
12
12
12
12
12
12
12
12
12
12
12
12
12
12
12
12
12
12
12
12
12
12
12
12
12
12
12
12
12
12
12
12
12
12
12
12
12
12
12
12
12
12
12
12
12
12
12
12
12
12
12
12
12
12
12
12
12
12
12
12
12
12
12
12
12
12
12
12
12
12
12
12
12
12
12
12
12
12
12
12
12
12
12
12
12
12
12
12
12
12
12
12
12
12
12
12
12
12
12
12
12
12
12
12
12
12
12
12
12
12
12
12
12
12
12
12
12
12
12
12
12
12
12
12
12
12
12
12
12
12
12
12
12
12
12
12
12
12
12
12
12
12
12
12
12
12
12
12
12
12
12
12
12
12
12
12
12
12
12
12
12
12
12
12
12
12
12
12
12
12
12
12
12
12
12
12
12
12
12
12
12
12
12
12
12
12
12
12
12
12
12
12
12
12
12
12
12
12
12
12
12
12
12
12
12
12
12
12
12
12
12
12
12
12
12
12
12
12
12
12
12
12
12
12
12
12
12
12
12
12
12
12
12
12
12
12
12
12
12
12
12
12
12
12
12
12
12
12
12
12
12
12
12
12
12
12
12
12
12
12
12
12
12
12
12
12
12
12
12
12
12
12
12
12
12
12
12
12
12
12
12
12
12
12
12
12
12
12
12
12
12
12
12
12
12
12
12
12
12
12
12
12
12
12
12
12
12
12
12
12
12
12
12
12
12
12
12
12
12
12
12
12
12
12
12
12
12
12
12
12
12
12
12
12
12
12
12
12
12
12
12
12
12
12
12
12
12
12
12
12
12
12
12
12
12
12
12
12
12
12
12
12
12
12
12
12
12
12
12
12
12
12
12
12
12
12
12
12
12
12
12
12
12
12
12
12
12
12
12
12
12
12
12
12
12
12
12
12
12
12
12
12
12
12
12
12
12
12
12
12
12
12
12
12
12
12
12
12
12
12
12
12
12
12
12
12
12
12
12
12
12
12
12
12
12
12
12
12
12
12
12
12
12
12
12
12
12
12
12
12
12
12
12
12
12
12
12
12
12
12
12
12
12
12
12
12
12
12
12
12
12
12
12
12
12
12
12
12
12
12
12
12
12
12
12
12
12
12
12
12
12
12
12
12
12
12
12
12
12
12
12
12
12
12
12
12
12
12
12
12
12
12
12
12
12
12
12
12
12
12
12
12
12
12
12
12
12
12
12
12
12
12
12
12
12
12
12
12
12
12
12
12
12
12
12
12
12
12
12
12
12
12
12
12
12
12
12
12
12
12
12
12
12
12
12
12
12
12
12
12
12
12
12
12
12
12
12
12
12
12
12
12
12
12
12
12
12
12
12
12
12
12
12
12
12
12
12
12
12
12
12
12
12
12
12
12
12
12
12
12
12
12
12
12
12
12
12
12
12
12
12
12
12
12
12
12
12
12
12
12
12
12
12
12
12
12
12
12
12
12
12
12
12
12
12
12
12
12
12
12
12
12
12
12
12
12
12
12
12
12
12
12
12
12
12
12
12
12
12
12
12
12
12
12
12
12
12
12
12
12
12
12
12
12
12
12
12
12
12
12
12
12
12
12
12
12
12
12
12
12
12
12
12
12
12
12
12
12
12
12
12
12
12
12
12
12
12
12
12
12
12
12
12
12
12
12
12
12
12
12
12
12
12
12
12
12
12
12
12
12
12
12
12
12
12
12
12
12
12
12
12
12
12
12
12
12
12
12
12
12
12
12
12
12
12
12
12
12
12
12
12
12
12
12
12
12
12
12
12
12
12
12
12
12
12
12
12
12
12
12
12
12
12
12
12
12
12
12
12
12
12
12
12
12
12
12
12
12
12
12
12
12
12
12
12
12
12
12
12
12
12
12
12
12
12
12
12
12
12
12
12
12
12
12
12
12
12
12
12
12
12
12
12
12
12
12
12
12
12
12
12
12
12
12
12
12
12
12
12
12
12
12
12
12
12
12
12
12
12
12
12
12
12
12
12
12
12
12
12
12
12
12
12
12
12
12
12
12
12
12
12
12
12
12
12
12
12
12
12
12
12
12
12
12
12
12
12
12
12
12
12
12
12
12
12
12
12
12
12
12
12
12
12
12
12
12
12
12
12
12
12
12
12
12
12
12
12
12
12
12
12
12
12
12
12
12
12
12
12
12
12
12
12
12
12
12
12
12
12
12
12
12
12
12
12
12
12
12
12
12
12
12
12
12
12
12
12
12
12
12
12
12
12
12
12
12
12
12
12
12
12
12
12
12
12
12
12
12
12
12
12
12
12
12
12
12
12
12
12
12
12
12
12
12
12
12
12
12
12
12
12
12
12
12
12
12
12
12
12
12
12
12
12
12
12
12
12
12
12
12
12
12
12
12
12
12
12
12
12
12
12
12
12
12
12
12
12
12
12
12
12
12
12
12
12
12
12
12
12
12
12
12
12
12
12
12
12
12
12
12
12
12
12
12
12
12
12
12
12
12
12
12
12
12
12
12
12
12
12
12
12
12
12
12
12
12
12
12
12
12
12
12
12
12
12
12
12
12
12
12
12
12
12
12
12
12
12
12
12
12
12
12
12
12
12
12
12
12
12
12
12
12
12
12
12
12
12
12
12
12
12
12
12
12
12
12
12
12
12
12
12
12
12
12
12
12
12
12
12
12
12
12
12
12
12
12
12
12
12
12
12
12
12
12
12
12
12
12
12
12

POINT_DATA 3012
SCALARS Jp_lamdaP float 4
LOOKUP_TABLE default
0.999924 1 1 0.999924
1 1 1 1
0.999927 1 1 0.999927
0.999892 1 1 0.999892
0.999921 1 1 0.999921
0.999926 1 1 0.999926
0.999542 1 1 0.999542
1 1 1 1
1 1 1 1
1 1 1 1
0.999985 1 1 0.999985
0.999713 1 1 0.999713
0.999851 1 1 0.999851
0.999883 1 1 0.999883
0.999927 1 1 0.999927
0.999901 1 1 0.999901
0.99993 1 1 0.99993
0.999927 1 1 0.999927
0.999545 1 1 0.999545
1 1 1 1
0.999876 1 1 0.999876
0.999909 1 1 0.999909
0.999421 1 1 0.999421
0.999509 1 1 0.999509
0.999951 1 1 0.999951
0.999584 1 1 0.999584
0.998927 1 1 0.998927
1 1 1 1
0.999952 1 1 0.999952
0.999965 1 1 0.999965
1 1 1 1
0.999721 1 1 0.999721
0.9999 1 1 0.9999
0.999921 1 1 0.999921
0.9996 1 1 0.9996
1 1 1 1
0.999691 1 1 0.999691
0.999792 1 1 0.999792
0.999014 1 1 0.999014
1 1 1 1
1 1 1 1
0.999939 1 1 0.999939
1 1 1 1
0.999872 1 1 0.999872
0.999359 1 1 0.999359
1 1 1 1
0.999519 1 1 0.999519
0.99991 1 1 0.99991
0.99993 1 1 0.99993
0.999933 1 1 0.999933
0.999549 1 1 0.999549
0.999925 1 1 0.999925
0.999887 1 1 0.999887
0.999957 1 1 0.999957
0.999917 1 1 0.999917
0.999422 1 1 0.999422
0.999589 1 1 0.999589
0.999512 1 1 0.999512
0.998913 1 1 0.998913
1 1 1 1
0.999861 1 1 0.999861
0.999475 1 1 0.999475
0.99939 1 1 0.99939
0.999464 1 1 0.999464
0.998641 1 1 0.998641
0.998776 1 1 0.998776
0.999984 1 1 0.999984
0.999695 1 1 0.999695
0.999038 1 1 0.999038
0.998665 1.00034 1 0.99833
1 1 1 1
1 1 1 1
1 1 1 1
0.99973 1 1 0.99973
1 1 1 1
1 1 1 1
0.999557 1 1 0.999557
0.999999 1 1 0.999999
0.999664 1 1 0.999664
0.999818 1 1 0.999818
0.999012 1 1 0.999012
1 1 1 1
0.999989 1 1 0.999989
0.999506 1 1 0.999506
0.999595 1 1 0.999595
0.998619 1 1 0.998619
0.999894 1 1 0.999894
0.998915 1 1 0.998915
0.999128 1 1 0.999128
0.998584 1 1 0.998584
1 1 1 1
1 1 1 1
1 1 1 1
1 1 1 1
1 1 1 1
0.999932 1 1 0.999932
0.999415 1 1 0.999415
0.999944 1 1 0.999944
0.999493 1 1 0.999493
1 1 1 1
0.999334 1 1 0.999334
0.999487 1 1 0.999487
0.998304 1 1 0.998304
0.999548 1 1 0.999548
0.998407 1 1 0.998407
0.999865 1 1 0.999865
0.999896 1 1 0.999896
0.999964 1 1 0.999964
0.999923 1 1 0.999923
0.999424 1 1 0.999424
0.999516 1 1 0.999516
0.999594 1 1 0.999594
0.998898 1 1 0.998898
1 1 1 1
0.999872 1 1 0.999872
0.999359 1 1 0.999359
0.999391 1 1 0.999391
0.999992 1 1 0.999992
0.999736 1 1 0.999736
0.999467 1 1 0.999467
0.998606 1 1 0.998606
0.999018 1 1 0.999018
0.9988 1 1 0.9988
0.99883 1.0005 1 0.998333
0.999354 1 1 0.999354
0.999364 1 1 0.999364
0.998429 1 1 0.998429
0.998535 1 1 0.998535
0.998662 1 1 0.998662
1.00121 1.00312 1 0.998095
1 1 1 1
0.99923 1.00098 1 0.998252
0.99987 1 1 0.99987
0.999106 1 1 0.999106
0.998469 1.00006 1 0.998409
1.00226 1.00416 1 0.998101
0.999954 1 1 0.999954
0.999473 1 1 0.999473
1 1 1 1
1 1 1 1
0.999564 1 1 0.999564
1 1 1 1
0.99983 1 1 0.99983
0.999669 1 1 0.999669
0.99901 1 1 0.99901
1 1 1 1
0.999993 1 1 0.999993
0.999542 1 1 0.999542
0.999629 1 1 0.999629
0.998622 1 1 0.998622
0.999912 1 1 0.999912
0.998917 1 1 0.998917
0.999128 1 1 0.999128
0.99857 1 1 0.99857
0.999955 1 1 0.999955
1 1 1 1
0.999598 1 1 0.999598
0.99851 1 1 0.99851
0.998771 1 1 0.998771
1.00095 1.00281 1 0.998138
0.99928 1 1 0.99928
0.998672 1.0002 1 0.99847
0.999148 1 1.00047 0.998674
0.99843 1 1 0.99843
1 1 1 1
1 1 1 1
1 1 1 1
0.999976 1 1 0.999976
1 1 1 1
1 1 1 1
1 1 1 1
0.999464 1 1 0.999464
0.999381 1 1 0.999381
1 1 1 1
1 1 1 1
0.999336 1 1 0.999336
0.999461 1 1 0.999461
0.998304 1 1 0.998304
0.99949 1 1 0.99949
0.998407 1 1 0.998407
0.999324 1 1 0.999324
0.998246 1 1 0.998246
0.998365 1 1 0.998365
1.004 1.00614 1 0.997876
0.998446 1 1 0.998446
1.00323 1.00527 1 0.997973
1 1 1 1
0.999883 1 1 0.999883
0.999235 1 1 0.999235
0.999391 1 1 0.999391
1 1 1 1
0.999777 1 1 0.999777
0.99947 1 1 0.99947
0.998572 1 1 0.998572
0.998824 1 1 0.998824
0.998999 1 1 0.998999
0.998993 1.00066 1 0.998336
0.999351 1 1 0.999351
0.999364 1 1 0.999364
0.998357 1 1 0.998357
0.99856 1 1 0.99856
1 1 1 1
0.999858 1 1 0.999858
0.999139 1 1 0.999139
0.998663 1 1 0.998663
1.00123 1.00318 1 0.998057
0.998545 1.00014 1 0.998402
0.999495 1.00122 1 0.998276
1.0021 1.00401 1 0.998106
0.999946 1 1 0.999946
0.999473 1 1 0.999473
0.998263 1 1 0.998263
0.998488 1 1 0.998488
1.00279 1.00484 1 0.997966
1.00155 1.00358 1 0.997973
1 1.00182 1 0.998188
1.00785 1.00993 1 0.997936
0.999921 1 1 0.999921
1.00342 1.00537 1 0.998055
0.999226 1 1 0.999226
0.998758 1.0002 1 0.998559
1.00155 1.00339 1 0.998171
1.00669 1.00865 1 0.998058
0.999365 1 1 0.999365
0.999608 1 1 0.999608
0.999026 1 1 0.999026
0.999522 1 1 0.999522
1 1 1 1
0.999997 1 1 0.999997
0.999619 1 1 0.999619
0.998624 1 1 0.998624
0.999925 1 1 0.999925
0.999128 1 1 0.999128
0.99892 1 1 0.99892
0.998556 1 1 0.998556
0.999967 1 1 0.999967
1 1 1 1
0.9996 1 1 0.9996
0.998511 1 1 0.998511
0.998776 1 1 0.998776
1.00046 1.00233 1 0.998137
0.999281 1 1 0.999281
0.998622 1.00014 1 0.99848
0.998933 1 1.00026 0.998671
0.998418 1 1 0.998418
1 1 1 1
0.999431 1 1 0.999431
0.999758 1 1 0.999758
0.999155 1 1 0.999155
1.00229 1.00425 1 0.998043
0.999568 1.00126 1 0.998311
1.00594 1.00803 1 0.99793
0.999224 1 1.00038 0.998847
1.00013 1.00183 1 0.998306
0.999922 1 1.00152 0.998402
0.999444 1.00115 1 0.998295
0.999927 1 1 0.999927
1 1 1 1
1 1 1 1
1 1 1 1
1 1 1 1
0.999991 1 1 0.999991
1 1 1 1
0.99997 1 1 0.99997
1 1 1 1
0.999491 1 1 0.999491
0.999428 1 1 0.999428
0.998407 1 1 0.998407
0.998304 1 1 0.998304
0.999338 1 1 0.999338
1 1 1 1
0.999323 1 1 0.999323
0.998247 1 1 0.998247
0.998365 1 1 0.998365
1.0039 1.00604 1 0.997875
0.998446 1 1 0.998446
1.00326 1.0053 1 0.997973
0.998235 1 1 0.998235
1.00397 1.00616 1 0.997822
1.0036 1.00568 1 0.997932
1.01435 1.01656 1 0.99782
1.00309 1.0051 1 0.998002
1.0124 1.01455 1 0.99788
0.999348 1 1 0.999348
0.999364 1 1 0.999364
0.998285 1 1 0.998285
0.998585 1 1 0.998585
1 1 1 1
0.999845 1 1 0.999845
0.999173 1 1 0.999173
0.998663 1 1 0.998663
1.00125 1.00324 1 0.99802
0.999761 1.00146 1 0.998299
0.998602 1.00021 1 0.998395
1.00202 1.00391 1 0.99811
0.999938 1 1 0.999938
0.999474 1 1 0.999474
0.998241 1 1 0.998241
0.998486 1 1 0.998486
1.00297 1.00503 1 0.997955
1.00175 1.00375 1 0.998011
0.999911 1 1 0.999911
0.999224 1 1 0.999224
0.998733 1.00014 1 0.998592
1.00019 1.00201 1 0.998189
1.00818 1.01026 1 0.997934
1.00135 1.00321 1 0.998139
1.00357 1.00552 1 0.998057
1.00694 1.0089 1 0.998058
0.999367 1 1 0.999367
0.999102 1 1.00008 0.999025
0.999605 1 1 0.999605
1.00333 1.00543 1 0.997904
1.00294 1.00496 1 0.997989
1.01285 1.01506 1 0.997817
1.00985 1.012 1 0.997867
1.00547 1.00748 1 0.998
1.01352 1.01556 1 0.997996
0.999305 1 1 0.999305
1.00883 1.01081 1 0.998047
0.998823 1 1 0.998823
0.999015 1.00079 1 0.998224
1.00476 1.00677 1 0.997997
1.01008 1.01196 1 0.998149
0.999716 1 1 0.999716
0.999008 1 1 0.999008
0.999131 1 1.00004 0.999091
0.998924 1 1.00005 0.998871
0.998511 1 1 0.998511
1 1 1 1
0.999978 1 1 0.999978
0.999602 1 1 0.999602
0.998781 1 1 0.998781
0.999974 1.00184 1 0.998135
0.999283 1 1 0.999283
0.998757 1 1.00009 0.998668
0.998512 1.00002 1 0.998491
0.998407 1 1 0.998407
1 1 1 1
0.999431 1 1 0.999431
0.999763 1 1 0.999763
0.999153 1 1 0.999153
1.0019 1.00386 1 0.99804
0.99918 1.00087 1 0.998313
1.00592 1.00801 1 0.997929
0.999131 1 1.00028 0.99885
0.999565 1.00125 1 0.99832
1.00003 1 1.00165 0.998391
0.999121 1.00076 1 0.998365
1 1 1 1
0.999853 1 1 0.999853
0.999013 1 1 0.999013
0.999315 1 1 0.999315
0.999164 1 1.00025 0.998909
1.00821 1.01036 1 0.997878
1.00305 1.00496 1 0.998105
1.00883 1.01096 1 0.997898
1.00045 1 1.00192 0.998531
1.00066 1.00243 1 0.998228
0.999666 1.00067 1.00086 0.998135
0.999915 1 1 0.999915
0.999619 1 1 0.999619
0.999935 1 1 0.999935
0.99993 1 1 0.99993
1 1 1 1
1 1 1 1
1 1 1 1
1 1 1 1
1 1 1 1
0.999998 1 1 0.999998
1 1 1 1
0.999987 1 1 0.999987
1 1 1 1
0.999964 1 1 0.999964
1 1 1 1
0.998446 1 1 0.998446
0.998365 1 1 0.998365
1.00329 1.00532 1 0.997973
1.00378 1.00592 1 0.997874
0.998247 1 1 0.998247
0.999322 1 1 0.999322
0.998234 1 1 0.998234
1.00401 1.0062 1 0.997822
1.00346 1.00554 1 0.997932
1.01455 1.01677 1 0.997823
1.00292 1.00493 1 0.998
1.01185 1.014 1 0.99788
1.0038 1.00601 1 0.997809
1.01524 1.0175 1 0.997785
1.01369 1.01587 1 0.997851
1.01958 1.02173 1 0.997893
1.01006 1.01221 1 0.997885
1.01577 1.01779 1 0.998013
0.998219 1 1 0.998219
0.998484 1 1 0.998484
1.00312 1.00519 1 0.997945
1.00195 1.00391 1 0.998049
0.999902 1 1 0.999902
0.999222 1 1 0.999222
0.99872 1.0001 1 0.998624
1.00039 1.0022 1 0.998189
1.0085 1.01059 1 0.997933
1.00371 1.00566 1 0.998059
1.00111 1.00301 1 0.998107
1.00716 1.00912 1 0.998058
0.999369 1 1 0.999369
0.999213 1 1.00019 0.999024
0.999603 1 1 0.999603
1.00347 1.00561 1 0.997871
1.00289 1.00491 1 0.997987
1.01272 1.01494 1 0.997815
1.01032 1.01247 1 0.997873
0.999305 1 1 0.999305
0.998817 1 1 0.998817
0.999173 1.00087 1.00003 0.99827
1.00569 1.0077 1 0.998007
1.01287 1.01488 1 0.998017
1.00482 1.00686 1 0.99797
1.00881 1.01078 1 0.99805
1.00945 1.01131 1 0.998166
0.999011 1 1 0.999011
0.998981 1 1.00013 0.998854
0.999712 1 1 0.999712
0.999177 1 1.00007 0.999109
1.0135 1.01577 1 0.997766
1.01276 1.01494 1 0.997852
1.01903 1.02125 1 0.997825
1.01492 1.01699 1 0.997967
1.01146 1.01344 1 0.998046
1.01452 1.01644 1 0.998112
0.998966 1 1 0.998966
1.01054 1.01235 1 0.998215
0.998531 1 1 0.998531
1.00069 1.00252 1.00018 0.998001
1.00801 1.01011 1 0.997915
1.01001 1.01185 1 0.998187
0.999779 1 1 0.999779
0.999222 1 1 0.999222
0.998859 1 1 0.998859
0.999345 1 1.00045 0.998894
0.998877 1 1.00007 0.998811
1 1 1 1
1.00146 1.00343 1 0.998037
0.999768 1 1 0.999768
0.999431 1 1 0.999431
0.99915 1 1 0.99915
0.998882 1.00057 1 0.998315
1.00586 1.00795 1 0.997928
0.998999 1 1.00015 0.998853
1.00018 1 1.0018 0.99838
0.999071 1.00074 1 0.998334
0.998871 1.00044 1 0.998435
1 1 1 1
0.999858 1 1 0.999858
0.999013 1 1 0.999013
0.999316 1 1 0.999316
0.999126 1 1.00024 0.99889
1.00847 1.01062 1 0.997874
1.0026 1.0045 1 0.998105
1.00879 1.01092 1 0.99789
1.00057 1 1.00204 0.998535
1.00123 1.00299 1 0.998243
0.999908 1.00079 1.00096 0.998155
0.999894 1 1 0.999894
0.999455 1 1 0.999455
0.999208 1 1.00048 0.998732
0.9993 1 1.00026 0.999041
0.999411 1 1.00065 0.998765
1.01116 1.01329 1 0.997898
1.0048 1.00677 1 0.998041
1.00892 1.0109 1 0.998041
1.00208 1 1.00379 0.998295
1.00054 1.00253 1 0.998009
0.999918 1 1 0.999918
0.999557 1 1 0.999557
0.999601 1 1 0.999601
0.999422 1 1 0.999422
0.999626 1 1 0.999626
0.999937 1 1 0.999937
0.999937 1 1 0.999937
1 1 1 1
0.999932 1 1 0.999932
1 1 1 1
1 1 1 1
1 1 1 1
1 1 1 1
1 1 1 1
1 1 1 1
0.999996 1 1 0.999996
1 1 1 1
1 1 1 1
0.999983 1 1 0.999983
1 1 1 1
1.00278 1.00479 1 0.997999
1.00332 1.0054 1 0.997931
1.0113 1.01345 1 0.997879
1.01476 1.01697 1 0.997826
1.00408 1.00627 1 0.997822
0.998234 1 1 0.998234
1.00386 1.00606 1 0.99781
1.01523 1.01749 1 0.997778
1.01351 1.01569 1 0.997851
1.01929 1.02142 1 0.997909
1.01026 1.0124 1 0.997881
1.01596 1.01797 1 0.998023
1.01438 1.01666 1 0.997753
1.01943 1.02164 1 0.997842
1.01768 1.01975 1 0.997976
1.01879 1.02087 0.999983 0.997983
1.01392 1.01598 1 0.997974
1.01722 1.01911 1 0.998142
1.00363 1.00581 1 0.997838
1.00283 1.00486 1 0.997986
1.01263 1.01485 1 0.997814
1.01082 1.01297 1 0.997879
0.999306 1 1 0.999306
0.998811 1 1 0.998811
0.99944 1.00094 1.00018 0.998316
1.00594 1.00794 1 0.998015
1.01223 1.01422 1 0.998039
1.00877 1.01074 1 0.998052
1.00489 1.00697 1 0.997944
1.00879 1.01063 1 0.998182
0.999014 1 1 0.999014
0.998937 1 1.0001 0.998836
0.999708 1 1 0.999708
0.999128 1 1 0.999128
1.01347 1.01574 1 0.997767
1.01267 1.01486 1 0.997844
1.01889 1.0211 1 0.997835
1.01431 1.01638 1 0.997958
0.998963 1 1 0.998963
0.998601 1 1.00003 0.99857
1.00104 1.00266 1.00039 0.997996
1.01113 1.01313 1 0.998029
1.01473 1.01661 1 0.998152
1.00774 1.00986 1 0.997904
1.01024 1.01205 1 0.998217
1.01079 1.01259 1 0.998221
0.998859 1 1 0.998859
0.99881 1 1 0.99881
0.999506 1 1.00062 0.99889
0.99975 1 1 0.99975
0.999238 1 1 0.999238
1.01984 1.02207 1 0.997814
1.01823 1.0204 1 0.997872
1.01548 1.01741 1 0.998103
1.01253 1.01435 1 0.998197
0.998794 1 1 0.998794
1.0119 1.01359 1 0.998332
0.998639 1 1.00029 0.998351
1.00375 1.00548 1.00051 0.997771
1.00906 1.01122 1 0.997869
0.999778 1 1 0.999778
0.999386 1 1 0.999386
0.999268 1 1.00024 0.999032
0.998821 1 1 0.998821
1.00008 1 1.00134 0.998742
0.998759 1 1 0.998759
1 1 1 1
0.999864 1 1 0.999864
1.00879 1.01094 1 0.997869
0.999316 1 1 0.999316
0.999014 1 1 0.999014
0.999129 1 1.00026 0.998871
1.00207 1.00398 1 0.998106
1.00867 1.01081 1 0.997883
1.00074 1 1.0022 0.998539
0.999818 1.00087 1.00077 0.998175
1.00177 1.00352 1 0.998259
0.999899 1 1 0.999899
0.999457 1 1 0.999457
0.999152 1 1.00041 0.998739
0.999296 1 1.00026 0.999039
0.999642 1 1.00089 0.998753
1.01129 1.01342 1 0.997893
1.00511 1.00709 1 0.998033
1.00881 1.01076 1 0.998062
1.00151 1 1.00324 0.998276
1.0005 1.00247 1.00006 0.997979
0.999542 1 1 0.999542
0.999147 1 1 0.999147
1.00056 1 1.002 0.998567
1.00005 1 1.00125 0.998794
0.999545 1 1.00089 0.998652
1.01451 1.01633 1 0.998217
1.00499 1.00705 1 0.997959
1.00751 1.00944 1 0.998088
1.00302 1.00056 1.00433 0.998132
0.999444 1.00167 1 0.997776
0.999921 1 1 0.999921
0.999573 1 1 0.999573
0.999335 1 1 0.999335
0.999583 1 1 0.999583
0.999626 1 1 0.999626
0.999396 1 1 0.999396
0.999261 1 1 0.999261
0.99938 1 1 0.99938
0.99963 1 1 0.99963
0.999935 1 1 0.999935
0.999937 1 1 0.999937
1 1 1 1
0.999938 1 1 0.999938
1 1 1 1
1 1 1 1
1 1 1 1
1 1 1 1
1 1 1 1
1 1 1 1
1 1 1 1
1 1 1 1
0.999995 1 1 0.999995
1 1 1 1
1 1 1 1
1.01042 1.01257 1 0.997877
1.01333 1.01551 1 0.997851
1.01614 1.01814 1 0.998032
1.01902 1.02114 1 0.997924
1.01519 1.01746 1 0.99777
1.0039 1.0061 1 0.99781
1.01445 1.01674 1 0.997744
1.01941 1.02162 1 0.997837
1.01778 1.01986 1 0.997958
1.01852 1.02057 0.999998 0.997991
1.01335 1.0154 1 0.997975
1.01686 1.01872 1 0.998171
1.01901 1.02125 1 0.997805
1.01994 1.02203 0.999996 0.997956
1.0192 1.02119 0.999949 0.998097
1.01589 1.01768 1 0.998243
1.01341 1.01568 1 0.997767
1.01256 1.01476 1 0.997837
1.01873 1.02093 1 0.997844
1.01369 1.01577 1 0.997949
0.998959 1 1 0.998959
0.99861 1 1 0.99861
1.00137 1.0028 1.00058 0.99799
1.01077 1.01279 1 0.998011
1.01494 1.01678 1 0.998192
1.01003 1.01183 1 0.998219
1.00745 1.00957 1 0.997894
1.01147 1.01323 1 0.998256
0.998859 1 1 0.998859
0.998809 1 1 0.998809
0.999828 1 1.00094 0.998886
0.999721 1 1 0.999721
0.999255 1 1 0.999255
1.01966 1.02189 1 0.997817
1.01824 1.02041 1 0.997878
1.01538 1.01732 0.999993 0.998099
0.998789 1 1 0.998789
0.998735 1.00009 1.00026 0.998387
1.00362 1.0051 1.00076 0.997763
1.01289 1.01473 1 0.998187
1.00886 1.01096 1 0.997923
1.01132 1.01302 1 0.998321
0.999785 1 1 0.999785
0.998818 1 1 0.998818
0.998794 1 1 0.998794
1.00007 1 1.00134 0.998731
0.999213 1 1.00017 0.999041
0.999364 1 1 0.999364
1.01957 1.02174 1 0.997869
1.01898 1.02179 0.999242 0.998008
1.01485 1.01686 0.999838 0.998189
1.01612 1.01787 0.999928 0.998347
0.998685 1 1 0.998685
1.00936 1.01128 1 0.998094
0.999753 1.00012 1.00165 0.997996
1.00397 1.0053 1.00104 0.997639
0.99984 1 1 0.99984
0.999475 1 1 0.999475
0.99915 1 1 0.99915
1.00027 1 1.00147 0.998803
0.998745 1 1 0.998745
0.999049 1 1.00039 0.998658
0.999903 1 1 0.999903
0.999459 1 1 0.999459
1.01149 1.01363 1 0.997889
0.999251 1 1.00021 0.999038
0.999016 1 1.00027 0.998746
0.999969 1 1.00123 0.99874
1.00542 1.00741 1 0.998025
1.00881 1.01075 1 0.998083
1.00098 1 1.00273 0.998256
1.00056 1.00235 1.00027 0.997949
0.999544 1 1 0.999544
0.999157 1 1 0.999157
1.00056 1 1.00198 0.998585
1.0004 1 1.00161 0.998798
0.999152 1 1.00046 0.998688
1.01452 1.01632 1 0.998237
1.00477 1.00682 1 0.997959
1.00809 1.00994 1 0.998162
1.00304 1.00035 1.00458 0.99811
0.999854 1.00209 1.00003 0.997738
0.999278 1 1 0.999278
0.998938 1 1.00005 0.998886
1.00221 1 1.00378 0.998437
0.999862 1 1.00131 0.998559
1.01954 1.02258 0.998642 0.998379
1.01281 1.01463 0.999872 0.998331
1.00406 1.0063 1 0.997782
1.00281 1.00078 1.00426 0.997778
0.999588 1 1 0.999588
0.999347 1 1 0.999347
0.999204 1 1 0.999204
0.999626 1 1 0.999626
0.999369 1 1 0.999369
0.99963 1 1 0.99963
0.999242 1 1 0.999242
0.99939 1 1 0.99939
0.999135 1 1 0.999135
0.999231 1 1 0.999231
0.999376 1 1 0.999376
0.999622 1 1 0.999622
0.99993 1 1 0.99993
0.999934 1 1 0.999934
1 1 1 1
0.999937 1 1 0.999937
1 1 1 1
1 1 1 1
1 1 1 1
1 1 1 1
1 1 1 1
1 1 1 1
1 1 1 1
1 1 1 1
0.999999 1 1 0.999999
1 1 1 1
1 1 1 1
1.01278 1.01483 1 0.997975
1.01785 1.01995 1 0.997941
1.01649 1.01832 1 0.998199
1.0182 1.02025 1 0.997998
1.01938 1.02159 1 0.997832
1.01454 1.01685 1 0.997735
1.01886 1.02109 1 0.99781
1.01911 1.02125 0.99996 0.997951
1.01896 1.021 0.999903 0.998099
1.01717 1.01896 1 0.998241
1.01988 1.02201 1 0.997906
1.02226 1.02581 0.998414 0.998122
1.02164 1.02383 0.999625 0.998237
1.0195 1.02173 1 0.997821
1.01827 1.02043 1 0.997883
1.01525 1.0172 0.999994 0.998095
0.998784 1 1 0.998784
0.998773 1.00017 1.00018 0.998424
1.00336 1.00477 1.00085 0.997754
1.01319 1.01504 1 0.998176
1.0109 1.01261 1 0.99831
1.00899 1.01104 1 0.997977
0.998814 1 1 0.998814
0.998829 1 1 0.998829
0.99997 1 1.00125 0.998721
0.999791 1 1 0.999791
0.999125 1 1.00008 0.99905
0.999341 1 1 0.999341
1.02024 1.02241 1 0.997873
1.01936 1.0219 0.9995 0.998013
1.01484 1.01681 0.999885 0.998178
0.998676 1 1 0.998676
0.999812 1.00035 1.0014 0.998068
1.00388 1.00533 1.0009 0.997658
1.01615 1.01792 0.999899 0.99836
1.00981 1.01174 1 0.998085
0.999869 1 1 0.999869
0.999475 1 1 0.999475
0.998754 1 1 0.998754
0.999224 1 1.00052 0.998702
1.00027 1 1.00146 0.998809
0.999132 1 1 0.999132
1.0226 1.02575 0.998887 0.998038
1.01601 1.02098 0.996993 0.998139
1.01654 1.01917 0.999052 0.998371
1.01375 1.01538 1 0.998396
0.999389 1 1.00088 0.998506
1.00337 1.00429 1.0014 0.997686
1.0008 1.00035 1.00264 0.997818
0.999935 1 1 0.999935
0.999647 1 1 0.999647
0.999499 1 1 0.999499
0.999197 1 1 0.999197
0.999219 1 1.00029 0.998925
0.999643 1 1.00097 0.998677
0.998778 1 1 0.998778
1.00614 1 1.00734 0.998801
0.999545 1 1 0.999545
0.999168 1 1 0.999168
1.01441 1.01618 1 0.998257
1.00061 1 1.00181 0.998802
1.00075 1 1.00215 0.998602
0.998761 1 1.00004 0.998725
1.00449 1.00655 1 0.997959
1.00865 1.01044 1 0.998236
1.00311 1.00021 1.00482 0.998088
1.00028 1.00259 1 0.9977
0.999265 1 1 0.999265
0.999105 1 1.00021 0.998895
1.0026 1 1.00415 0.998456
0.999585 1 1.00101 0.998581
1.01996 1.02293 0.998712 0.998382
1.01216 1.01392 0.999949 0.998307
1.00484 1.00704 1 0.997819
1.00232 1.0008 1.00377 0.997746
0.999104 1 1 0.999104
1.01888 1.02354 0.997077 0.998361
0.999855 1 1.00117 0.998686
1.00091 1 1.00268 0.998239
1.01751 1.02017 0.998926 0.998474
1.00617 1.00831 1 0.997877
1.00404 1.0032 1.00323 0.997614
0.999359 1 1 0.999359
0.999202 1 1 0.999202
0.999079 1 1 0.999079
0.999629 1 1 0.999629
0.9994 1 1 0.9994
0.999224 1 1 0.999224
0.999621 1 1 0.999621
0.999378 1 1 0.999378
0.999118 1 1 0.999118
0.999251 1 1 0.999251
0.999035 1 1 0.999035
0.999108 1 1 0.999108
0.999244 1 1 0.999244
0.999375 1 1 0.999375
0.999605 1 1 0.999605
0.999924 1 1 0.999924
0.999929 1 1 0.999929
1 1 1 1
0.999933 1 1 0.999933
1 1 1 1
1 1 1 1
1 1 1 1
1 1 1 1
1 1 1 1
0.999957 1 1 0.999957
1 1 1 1
1 1 1 1
1 1 1 1
1 1 1 1
1 1 1 1
1 1 1 1
1.01846 1.02026 1 0.998238
1.01875 1.02083 0.99986 0.998101
1.01832 1.02047 0.999944 0.997945
1.0187 1.02093 1 0.997816
1.01997 1.02213 0.999971 0.99792
1.02269 1.02614 0.998532 0.99811
1.02187 1.02416 0.999513 0.99825
1.0226 1.02699 0.997631 0.998091
1.02529 1.02961 0.99756 0.998242
1.01104 1.02085 0.991936 0.998435
1.02088 1.02305 1 0.997877
1.01974 1.02205 0.999718 0.998018
1.01487 1.01682 0.999914 0.998168
0.998723 1 1.00006 0.998667
0.999983 1.00058 1.00126 0.998141
1.00349 1.00504 1.00078 0.997678
1.0163 1.01808 0.999872 0.998373
1.00971 1.01166 1 0.998077
0.998763 1 1 0.998763
0.999449 1 1.0007 0.998746
1.0004 1 1.00159 0.998815
0.999898 1 1 0.999898
0.999474 1 1 0.999474
0.999113 1 1 0.999113
1.02196 1.02528 0.998703 0.998053
0.999931 1 1 0.999931
0.99963 1 1 0.99963
1.01618 1.02045 0.997668 0.998138
1.01736 1.01992 0.99915 0.99834
0.999402 1 1.00084 0.998563
1.0017 1.00063 1.0033 0.997784
1.00336 1.00484 1.00084 0.997692
1.01293 1.01457 1 0.998384
0.999547 1 1 0.999547
0.999195 1 1 0.999195
0.99873 1 1 0.99873
1.00339 1 1.00451 0.998884
0.999861 1 1.0012 0.998659
0.999214 1 1.00028 0.998932
1.02369 1.02827 0.997331 0.998209
1.01212 1.02012 0.993865 0.998273
1.01496 1.01874 0.997726 0.998566
1.00437 1.00638 0.999874 0.998127
1.00087 1 1.00234 0.998532
1.00395 1.00088 1.00547 0.997616
0.99965 1 1 0.99965
0.999599 1 1 0.999599
0.999414 1 1 0.999414
0.999201 1 1 0.999201
0.999029 1 1 0.999029
0.999074 1 1.00035 0.998729
1.01056 1 1.01197 0.998604
0.999912 1 1.001 0.998913
0.999253 1 1 0.999253
0.999241 1 1.00034 0.998904
1.02049 1.02339 0.998782 0.998386
1.01168 1.01342 1 0.998283
0.999364 1 1.00076 0.998603
1.00288 1 1.00441 0.998474
1.00574 1.00786 1.00004 0.997857
1.00183 1.00077 1.00335 0.997714
0.999099 1 1 0.999099
1.01923 1.02463 0.996339 0.998383
0.999846 1 1.00115 0.998698
1.0009 1 1.00269 0.998216
1.01702 1.01969 0.998921 0.99845
1.0069 1.00901 1 0.997911
1.00372 1.00262 1.00348 0.997625
0.999635 1 1.00076 0.998873
1.0168 1.02478 0.993566 0.998641
0.999802 1 1.00129 0.998512
1.00222 1.00046 1.00379 0.997982
1.00844 1.01314 0.997186 0.998165
1.0018 1.0019 1.00221 0.997692
1.00539 1.00817 0.998499 0.998741
0.9992 1 1 0.9992
0.999077 1 1 0.999077
0.998967 1 1 0.998967
0.99962 1 1 0.99962
0.999379 1 1 0.999379
0.999271 1 1 0.999271
0.999101 1 1 0.999101
0.999604 1 1 0.999604
0.999366 1 1 0.999366
0.999022 1 1 0.999022
0.999243 1 1 0.999243
0.999124 1 1 0.999124
0.999013 1 1 0.999013
0.999135 1 1 0.999135
0.999241 1 1 0.999241
0.999323 1 1 0.999323
0.999552 1 1 0.999552
0.999408 1 1 0.999408
0.999552 1 1 0.999552
0.999919 1 1 0.999919
0.999923 1 1 0.999923
1 1 1 1
0.999928 1 1 0.999928
1 1 1 1
1 1 1 1
1 1 1 1
1 1 1 1
1 1 1 1
0.99997 1 1 0.99997
0.999954 1 1 0.999954
1 1 1 1
1 1 1 1
1 1 1 1
1 1 1 1
1 1 1 1
1 1 1 1
1.02207 1.02446 0.999405 0.998263
1.02314 1.02648 0.998646 0.998097
1.02009 1.02227 0.999932 0.997933
1.02241 1.02674 0.997695 0.99809
1.02401 1.02822 0.997664 0.998239
1.01169 1.02093 0.992515 0.998426
1.02029 1.02837 0.99382 0.99831
1.00523 1.01596 0.991232 0.998192
1.01315 1.02435 0.990268 0.998791
0.999717 1 1 0.999717
1.02135 1.02481 0.998554 0.998067
1.01644 1.01993 0.998434 0.998136
1.01797 1.02054 0.999177 0.998308
0.99944 1 1.00082 0.99862
1.00281 1.00105 1.00402 0.99775
1.00381 1.00567 1.00045 0.997698
1.01214 1.01379 1 0.998372
0.998682 1 1 0.998682
1.00055 1 1.00159 0.998968
1.00002 1 1.00138 0.998641
0.999927 1 1 0.999927
0.99916 1 1.00022 0.99894
0.999596 1 1 0.999596
0.999193 1 1 0.999193
0.999613 1 1 0.999613
1.02302 1.02895 0.996019 0.998216
0.999673 1 1 0.999673
0.999598 1 1 0.999598
0.999379 1 1 0.999379
1.01258 1.02011 0.994338 0.998276
1.01451 1.01809 0.997965 0.99852
1.00019 1 1.00164 0.99855
1.0037 1.00053 1.00555 0.997631
1.00407 1.00588 1.00008 0.998129
0.999226 1 1 0.999226
0.999012 1 1 0.999012
1.0017 1 1.00285 0.998856
1.00865 1 1.01002 0.998639
0.999031 1 1.00028 0.99875
1.01473 1.02319 0.993432 0.998291
1.01186 1.02251 0.991185 0.998393
1.00882 1.0121 0.998437 0.998315
1.00453 1.00337 1.00318 0.997986
1.00336 1 1.00484 0.998523
0.999375 1 1 0.999375
0.99928 1 1 0.99928
0.999183 1 1 0.999183
0.999026 1 1 0.999026
0.998929 1 1.00006 0.998865
1.00745 1 1.00882 0.998638
1.01066 1 1.01213 0.998551
0.999093 1 1 0.999093
0.999806 1 1.0011 0.99871
1.01924 1.02562 0.995369 0.998406
1.0163 1.01906 0.998864 0.998426
1.00737 1.00944 1 0.997946
1.00087 1 1.00268 0.998192
1.00316 1.00192 1.0036 0.997636
0.999522 1 1.00062 0.998904
1.01604 1.02464 0.992948 0.998647
0.999636 1 1.0011 0.998534
1.00228 1.00021 1.00408 0.997993
1.00964 1.01366 0.997806 0.998228
1.00231 1.00195 1.00269 0.997679
1.00516 1.0084 0.998386 0.998401
0.999578 1 1.00083 0.998751
1.00479 1.01599 0.990335 0.99863
1.00043 1 1.00194 0.99849
1.00429 1 1.00636 0.997939
1.00342 1.00445 1.00104 0.997945
0.957558 0.97739 0.990357 0.989249
0.982605 0.988597 0.998943 0.99499
0.981109 1.00023 0.982013 0.99885
0.883812 0.918081 0.973752 0.988623
0.855993 0.921403 0.940765 0.987505
0.999076 1 1 0.999076
0.99898 1 1 0.99898
0.998986 1 1 0.998986
0.999603 1 1 0.999603
0.999356 1 1 0.999356
0.999243 1 1 0.999243
0.99914 1 1 0.99914
0.99901 1 1 0.99901
0.999223 1 1 0.999223
0.999571 1 1 0.999571
0.999336 1 1 0.999336
0.999018 1 1 0.999018
0.999134 1 1 0.999134
0.999142 1 1 0.999142
0.99908 1 1 0.99908
0.999176 1 1 0.999176
0.999296 1 1 0.999296
0.999545 1 1 0.999545
0.999355 1 1 0.999355
0.999254 1 1 0.999254
0.999383 1 1 0.999383
0.999382 1 1 0.999382
0.999598 1 1 0.999598
0.999551 1 1 0.999551
0.999916 1 1 0.999916
0.999919 1 1 0.999919
1 1 1 1
0.999923 1 1 0.999923
1 1 1 1
1 1 1 1
1 1 1 1
1 1 1 1
1 1 1 1
0.999976 1 1 0.999976
0.999967 1 1 0.999967
1 1 1 1
0.999951 1 1 0.999951
1 1 1 1
1 1 1 1
1 1 1 1
1 1 1 1
1 1 1 1
1.02279 1.02688 0.997773 0.998237
1.0222 1.02645 0.997765 0.998088
1.01233 1.02087 0.9932 0.998417
1.00527 1.01572 0.991471 0.998227
1.01931 1.02736 0.993855 0.998308
1.01671 1.02592 0.992286 0.998727
1.02182 1.02781 0.995842 0.998325
0.968444 0.984914 0.988991 0.994223
1.01094 1.01935 0.993198 0.998536
0.999727 1 1 0.999727
0.999716 1 1 0.999716
0.999452 1 1 0.999452
0.999481 1 1 0.999481
1.02225 1.02955 0.994679 0.998224
1.01286 1.01983 0.994878 0.99828
1.01423 1.01745 0.998353 0.998473
0.999338 1 1.00077 0.998567
1.00314 1.00015 1.00536 0.997646
1.00384 1.00559 1.00013 0.998131
1.00347 1 1.00468 0.998797
1.00684 1 1.00817 0.998674
0.998989 1 1.00022 0.99877
0.999597 1 1 0.999597
0.998995 1 1 0.998995
0.999251 1 1 0.999251
0.999697 1 1 0.999697
0.999344 1 1 0.999344
1.01294 1.02178 0.99303 0.998306
0.999412 1 1 0.999412
0.999304 1 1 0.999304
0.999193 1 1 0.999193
1.01389 1.02406 0.991653 0.998403
1.00765 1.01127 0.998103 0.998312
1.00321 1 1.0047 0.998516
1.00454 1.00377 1.00279 0.997981
0.999037 1 1.00001 0.999028
0.998864 1 1 0.998863
1.0109 1 1.01237 0.998551
1.00841 1 1.0098 0.998617
1.0126 1.02526 0.989299 0.998332
1.00099 1.01825 0.984638 0.998383
1.00473 1.00607 1.00064 0.99803
1.00152 1 1.00306 0.998461
0.99911 1 1 0.99911
0.999092 1 1.00002 0.999073
1.00117 1 1.00235 0.998825
1.01928 1 1.0209 0.998407
0.944811 0.972756 0.982281 0.988794
0.99953 1 1.0006 0.998934
0.999606 1 1.00105 0.998555
1.01511 1.02436 0.992308 0.998654
1.01093 1.01414 0.998537 0.998291
1.00308 1.00212 1.0033 0.997666
1.00246 1 1.00447 0.998004
1.00425 1.00832 0.997901 0.998054
0.999671 1 1.0009 0.998775
1.0039 1.01579 0.989664 0.998616
0.999937 1 1.00144 0.998501
1.00405 1.00001 1.00611 0.99794
1.00368 1.00559 1.00013 0.997967
0.955168 0.977573 0.98783 0.989118
0.977901 0.986969 0.99726 0.993535
0.98298 0.998625 0.985425 0.998892
0.887055 0.917895 0.977762 0.988381
0.840856 0.909772 0.936926 0.986469
0.999543 1 1.00067 0.998879
0.901953 0.931388 0.979784 0.988378
0.892002 0.926063 0.974582 0.988341
0.981716 1.00622 0.977048 0.998564
1.00494 1 1.00639 0.99856
1.01018 1.00189 1.01018 0.998113
0.981362 0.994918 0.987332 0.999029
0.958025 0.972592 0.996286 0.988694
0.967628 0.972909 1.00157 0.993016
0.865786 0.917982 0.953945 0.988674
0.895021 0.951553 0.950806 0.989255
0.998993 1 1 0.998993
0.998981 1 1 0.998981
0.999153 1 1 0.999153
0.999591 1 1 0.999591
0.999349 1 1 0.999349
0.999205 1 1 0.999205
0.999133 1 1 0.999133
0.999022 1 1 0.999022
0.999546 1 1 0.999546
0.999139 1 1 0.999139
0.999193 1 1 0.999193
0.999317 1 1 0.999317
0.999076 1 1 0.999076
0.999095 1 1 0.999095
0.999291 1 1.0002 0.999094
0.999165 1 1 0.999165
0.99933 1 1 0.99933
0.999354 1 1 0.999354
0.999239 1 1 0.999239
0.999208 1 1 0.999208
0.999232 1 1 0.999232
0.999173 1 1 0.999173
0.999118 1 1 0.999118
0.999363 1 1 0.999363
0.999382 1 1 0.999382
0.999602 1 1 0.999602
0.999355 1 1 0.999355
0.999582 1 1 0.999582
0.999915 1 1 0.999915
0.99955 1 1 0.99955
0.999916 1 1 0.999916
1 1 1 1
0.999919 1 1 0.999919
1 1 1 1
1 1 1 1
1 1 1 1
1 1 1 1
1 1 1 1
0.999714 1 1 0.999714
0.999976 1 1 0.999976
0.999974 1 1 0.999974
1 1 1 1
0.999965 1 1 0.999965
1 1 1 1
1 1 1 1
1 1 1 1
1 1 1 1
1 1 1 1
1.00649 1.01579 0.992561 0.998264
1.01859 1.02651 0.993974 0.998306
1.02005 1.02773 0.993861 0.998664
0.969416 0.982909 0.991228 0.995
1.01122 1.01907 0.993687 0.998602
1.02331 1.03001 0.995184 0.998299
1.01701 1.02336 0.99543 0.99836
0.974716 0.985378 0.993702 0.995448
0.957071 0.976655 0.991814 0.988036
0.864435 0.909629 0.962283 0.987564
0.84079 0.900353 0.945925 0.987229
0.999442 1 1 0.999442
0.999726 1 1 0.999726
0.999715 1 1 0.999715
0.999441 1 1 0.999441
0.999272 1 1 0.999272
0.99931 1 1 0.99931
0.999448 1 1 0.999448
0.999463 1 1 0.999463
1.01137 1.02067 0.992559 0.998321
1.0162 1.02624 0.991784 0.998412
1.00647 1.01043 0.997765 0.998308
1.00339 1 1.00488 0.99851
1.00463 1.00393 1.00272 0.997976
1.01089 1 1.01235 0.998552
1.00952 1 1.01094 0.998595
0.998861 1 1 0.998861
0.999327 1 1 0.999327
0.999029 1 1 0.999029
0.99945 1 1 0.99945
0.999204 1 1 0.999204
1.01322 1.02554 0.989657 0.998312
0.999131 1 1 0.999131
0.999082 1 1 0.999082
1.00233 1.0173 0.986893 0.998365
1.00436 1.00638 0.999866 0.998123
1.00338 1.00025 1.00473 0.998409
1.00238 1 1.00358 0.998802
1.01703 1 1.01865 0.998414
1.01212 1.02332 0.990756 0.998288
0.984233 1.00524 0.980682 0.998387
0.999384 1 1.00103 0.998357
1.00739 1 1.00893 0.99848
0.998995 1 1 0.998995
1.00046 1 1.00158 0.998884
1.01423 1 1.01565 0.998598
0.890455 0.933875 0.964384 0.988721
0.953215 0.974326 0.98845 0.989764
0.999565 1 1.00077 0.998799
0.999577 1 1.00107 0.998511
1.00406 1.01602 0.989608 0.998603
1.00401 1.00691 0.999128 0.997989
1.00364 1 1.00571 0.997942
0.955129 0.976269 0.990223 0.988006
0.9798 0.989736 0.995694 0.994243
0.985486 0.997622 0.988891 0.998932
0.881089 0.918654 0.970555 0.988206
0.826471 0.897453 0.934527 0.985426
0.999282 1 1.0004 0.998879
0.895423 0.934365 0.969207 0.98877
0.889288 0.921859 0.976442 0.987942
0.984242 1.007 0.978815 0.998553
1.00453 1 1.00596 0.998579
1.00932 1.00097 1.01015 0.998207
0.973864 0.991281 0.983334 0.999081
0.96152 0.977296 0.99588 0.987927
0.97028 0.976786 0.998914 0.99442
0.867749 0.913104 0.962312 0.987548
0.894314 0.952098 0.949965 0.988782
1.0011 1 1.00206 0.999042
0.913295 0.931107 0.991132 0.989645
0.967217 0.976181 0.998013 0.99279
0.988617 1.0008 0.988849 0.998963
1.01131 1.0007 1.01167 0.998951
0.993869 0.986887 1.00772 0.999361
0.958679 0.969455 0.993337 0.995518
0.954839 0.963452 1.00321 0.987889
0.887734 0.933721 0.962567 0.987721
0.921338 0.970066 0.95842 0.990973
0.998976 1 1 0.998976
0.999132 1 1 0.999132
0.999737 1 1.00042 0.999316
0.999546 1 1 0.999546
0.999338 1 1 0.999338
0.999211 1 1 0.999211
0.999137 1 1 0.999137
0.999071 1 1 0.999071
0.99933 1 1 0.99933
0.999105 1 1 0.999105
0.999165 1 1 0.999165
0.999355 1 1.00024 0.999111
1.00005 1 1.0008 0.999251
0.999171 1 1.00009 0.999085
0.999167 1 1 0.999167
0.999353 1 1 0.999353
0.999224 1 1 0.999224
0.999207 1 1 0.999207
0.99923 1 1 0.99923
0.999175 1 1 0.999175
0.999194 1 1 0.999194
0.999148 1 1 0.999148
0.999152 1 1 0.999152
0.998966 1 1 0.998966
0.999434 1 1.00071 0.998725
0.999013 1 1 0.999013
0.999116 1 1 0.999116
0.999318 1 1 0.999318
0.999362 1 1 0.999362
0.999595 1 1 0.999595
0.999382 1 1 0.999382
0.999602 1 1 0.999602
0.999915 1 1 0.999915
0.999565 1 1 0.999565
0.999915 1 1 0.999915
1 1 1 1
0.999916 1 1 0.999916
1 1 1 1
1 1 1 1
1 1 1 1
1 1 1 1
1 1 1 1
0.999732 1 1 0.999732
0.999971 1 1 0.999971
0.999714 1 1 0.999714
1 1 1 1
0.999976 1 1 0.999976
0.999973 1 1 0.999973
1 1 1 1
1 1 1 1
1 1 1 1
1 1 1 1
1 1 1 1
0.891922 0.926047 0.974162 0.988695
0.897283 0.927209 0.978585 0.988901
0.971593 0.984961 0.990891 0.995497
1.01243 1.01871 0.995161 0.998669
1.0248 1.03189 0.994844 0.998272
0.971548 0.981712 0.992995 0.996629
1.01715 1.02311 0.99578 0.998389
0.959534 0.978706 0.99103 0.989284
0.878556 0.915515 0.970909 0.988383
0.831179 0.897663 0.93892 0.986172
0.993301 0.999524 0.996187 0.997577
0.95784 0.97241 0.99588 0.989092
0.858845 0.913203 0.951494 0.98842
0.89273 0.946054 0.954837 0.988269
0.999208 1 1 0.999208
0.999458 1 1 0.999458
0.999725 1 1 0.999725
0.99943 1 1 0.99943
0.999294 1 1 0.999294
0.999237 1 1 0.999237
0.99931 1 1 0.99931
0.999346 1 1 0.999346
0.999427 1 1 0.999427
0.999446 1 1 0.999446
1.0134 1.02546 0.989928 0.998292
1.00272 1.01551 0.989042 0.998348
1.004 1.00681 0.998995 0.998216
1.00493 1.00051 1.00607 0.998358
1.01423 1 1.01584 0.99842
1.00348 1 1.00471 0.998779
0.999091 1 1 0.999091
0.999152 1 1 0.999152
1.01045 1.02346 0.988986 0.998284
0.998987 1 1 0.998987
1.00039 1 1.00153 0.99886
0.985647 1.00454 0.982836 0.998323
0.99961 1.00003 1.00112 0.998466
1.00758 1 1.00919 0.998398
1.01232 1 1.01376 0.998578
1.00114 1.00661 0.996003 0.998558
0.989591 1 0.990678 0.998903
1.01223 1 1.01369 0.998558
0.998974 1 1 0.998974
0.99939 1 1.00055 0.998837
1.00673 1 1.00805 0.998682
0.9167 0.935761 0.988653 0.990874
0.897983 0.933582 0.973244 0.988311
0.94966 0.976116 0.983933 0.988782
0.998881 1 1 0.998881
1.00413 1 1.00554 0.998598
0.986982 1.00754 0.981025 0.998542
1.00858 1 1.0103 0.998301
0.891066 0.93111 0.968429 0.988191
0.960027 0.974985 0.995082 0.989525
0.967723 0.977686 0.996706 0.993081
0.970554 0.988339 0.982854 0.999136
0.870296 0.913758 0.963837 0.988171
0.891222 0.925519 0.974827 0.987809
0.888255 0.948986 0.946781 0.988618
1.00165 1 1.00261 0.999046
0.913801 0.93407 0.988268 0.989914
0.970259 0.978471 0.998851 0.992748
0.990768 1.00036 0.991387 0.999016
1.01091 1.00015 1.01183 0.998937
0.99308 0.987687 1.00636 0.999111
0.959582 0.969469 0.995952 0.993824
0.955721 0.967741 0.999299 0.988272
0.893007 0.940239 0.960627 0.988692
0.9131 0.963017 0.956961 0.990809
1.00221 0.999757 1.00297 0.999485
0.969316 0.978098 0.996518 0.994484
0.963462 0.9715 0.996595 0.995115
1.00832 0.99543 1.01323 0.999715
0.976001 0.974063 1.00462 0.997378
0.961461 0.964948 1.00878 0.987715
0.92679 0.957348 0.978899 0.988948
0.929482 0.979862 0.957743 0.990436
0.999111 1 1 0.999111
0.999673 1 1.00036 0.999318
1.00285 1 1.00341 0.999448
0.999329 1 1 0.999329
0.999164 1 1 0.999164
0.999114 1 1 0.999114
0.999408 1 1.00028 0.999127
0.999167 1 1 0.999167
0.999114 1 1.00003 0.999083
1.0015 1 1.00222 0.999281
1.00322 0.998641 1.00514 0.999446
1.001 1 1.00181 0.999193
0.999105 1 1 0.999105
0.999207 1 1 0.999207
0.999228 1 1 0.999228
0.999176 1 1 0.999176
0.999152 1 1 0.999152
0.999192 1 1 0.999192
0.999156 1 1 0.999156
0.999096 1 1 0.999096
0.9992 1 1 0.9992
0.998975 1 1 0.998975
0.998984 1 1 0.998984
0.999493 1 1.00069 0.9988
0.999801 1 1.00136 0.998445
0.99897 1 1.00002 0.998948
0.999405 1 1.00061 0.998792
0.99904 1 1 0.99904
0.999211 1 1 0.999211
0.999114 1 1 0.999114
0.999316 1 1 0.999316
0.999569 1 1 0.999569
0.99936 1 1 0.99936
0.999594 1 1 0.999594
0.999913 1 1 0.999913
0.999602 1 1 0.999602
0.999915 1 1 0.999915
1 1 1 1
0.999915 1 1 0.999915
1 1 1 1
1 1 1 1
1 1 1 1
1 1 1 1
1 1 1 1
0.99964 1 1 0.99964
0.999963 1 1 0.999963
0.999692 1 1 0.999692
1 1 1 1
0.999972 1 1 0.999972
0.999714 1 1 0.999714
1 1 1 1
1 1 1 1
0.999977 1 1 0.999977
1 1 1 1
1 1 1 1
1 1 1 1
0.918898 0.93587 0.991174 0.990608
0.893906 0.929832 0.972821 0.988222
0.968934 0.980078 0.995968 0.992632
0.888265 0.920635 0.976122 0.988442
0.968154 0.981842 0.991019 0.994994
1.0163 1.02297 0.995048 0.998418
0.96109 0.979269 0.990829 0.99052
0.879748 0.919366 0.968769 0.987755
0.823584 0.89656 0.932488 0.985112
0.989536 0.997961 0.994578 0.996963
0.959505 0.973638 0.997441 0.988012
0.866424 0.918248 0.955715 0.987284
0.890006 0.94555 0.952858 0.987825
0.980634 0.989866 0.994196 0.996456
0.965522 0.968556 1.00937 0.987611
0.892831 0.941952 0.958972 0.988404
0.918904 0.97077 0.956058 0.990077
0.999082 1 1 0.999082
0.999232 1 1 0.999232
0.999474 1 1 0.999474
0.999317 1 1 0.999317
0.999108 1 1 0.999108
0.999253 1 1 0.999253
0.999309 1 1 0.999309
0.999324 1 1 0.999324
0.999369 1 1 0.999369
0.999406 1 1 0.999406
1.00906 1.02416 0.98695 0.998281
0.988152 1.0043 0.985637 0.99826
0.999903 1 1.00133 0.998574
1.00855 1.00001 1.01024 0.998317
1.011 1 1.01247 0.998557
1.00021 1 1.00138 0.998836
0.998978 1 1 0.998978
0.998976 1 1 0.998976
0.995711 1.00632 0.990874 0.998574
0.999129 1 1.00028 0.998849
1.00707 1 1.00841 0.998677
0.988244 1 0.989395 0.998836
1.01087 1 1.01233 0.998544
0.971321 0.994401 0.977733 0.999036
1.00626 0.999893 1.00709 0.999282
1.00833 1 1.0096 0.998744
0.998895 1 1.00003 0.99887
1.00492 1 1.00625 0.998681
0.96718 0.974358 0.997265 0.995355
0.920207 0.935734 0.992305 0.991032
0.893012 0.930793 0.970106 0.988974
1.00222 1 1.00318 0.999049
1.01027 0.999472 1.0119 0.998921
0.991123 1 0.992049 0.999066
0.922534 0.938752 0.99216 0.990489
0.964091 0.967704 1.00876 0.987614
0.962199 0.970673 0.996234 0.995018
0.985255 0.986077 1.00033 0.998834
0.893471 0.938954 0.963388 0.987723
0.972652 0.980031 0.999762 0.992708
0.909606 0.960558 0.95567 0.990881
1.00208 0.999597 1.00302 0.999471
0.968251 0.976588 0.996466 0.994979
0.967079 0.974541 0.997203 0.995127
1.00925 0.996661 1.01306 0.999573
0.975884 0.974367 1.00464 0.996934
0.959501 0.966561 1.00561 0.987158
0.929644 0.982349 0.954906 0.991039
0.916999 0.951813 0.974661 0.988471
1.00418 0.99709 1.0074 0.999711
0.960996 0.971685 0.991198 0.997781
0.973399 0.983943 0.993692 0.995565
0.921439 0.97224 0.957225 0.990099
0.995663 0.981729 1.01494 0.999268
0.974324 0.972268 1.01405 0.988225
0.912966 0.93875 0.983477 0.988873
0.999586 1 1.00027 0.999319
1.00213 1 1.00273 0.999404
1.00645 0.99881 1.00808 0.999566
0.999166 1 1 0.999166
0.99908 1 1 0.99908
1.00348 1 1.00417 0.999311
0.999111 1 1 0.999111
1.00134 1 1.00214 0.999197
1.005 0.999124 1.00646 0.999421
1.00242 0.999859 1.00307 0.999489
1.00106 1 1.00187 0.999191
0.999155 1 1 0.999155
0.99919 1 1 0.99919
0.999161 1 1 0.999161
0.999193 1 1 0.999193
0.999105 1 1 0.999105
0.999475 1 1.00032 0.999155
0.999048 1 1 0.999048
1.00118 1 1.00259 0.998597
0.999002 1 1 0.999002
0.999342 1 1.00056 0.99878
0.999308 1 1.00101 0.998296
0.999599 1 1.0012 0.998403
0.999501 1 1.00069 0.998815
0.999636 1 1.00118 0.998461
0.999125 1 1 0.999125
0.998977 1 1.00005 0.998924
0.999296 1 1.00044 0.998859
0.999068 1 1 0.999068
0.999236 1 1 0.999236
0.999519 1 1 0.999519
0.999315 1 1 0.999315
0.999568 1 1 0.999568
0.999907 1 1 0.999907
0.999593 1 1 0.999593
0.999912 1 1 0.999912
1 1 1 1
0.999914 1 1 0.999914
1 1 1 1
1 1 1 1
1 1 1 1
1 1 1 1
1 1 1 1
0.999521 1 1 0.999521
0.999891 1 1 0.999891
0.999638 1 1 0.999638
1 1 1 1
0.999939 1 1 0.999939
0.999652 1 1 0.999652
1 1 1 1
1 1 1 1
0.999974 1 1 0.999974
1 1 1 1
1 1 1 1
1 1 1 1
0.966115 0.975103 0.99578 0.994982
0.908912 0.933939 0.982754 0.990281
0.895192 0.927562 0.976806 0.988018
0.999255 1 1 0.999255
0.960384 0.969422 0.995057 0.995598
0.971786 0.980543 0.998458 0.992599
0.882155 0.920402 0.969829 0.988262
0.98914 0.998292 0.994559 0.996253
0.96423 0.975174 0.999865 0.988911
0.872326 0.926895 0.95265 0.987905
0.883123 0.940843 0.950336 0.987705
0.982345 0.991499 0.996094 0.994652
0.9544 0.963496 1.00228 0.988308
0.900211 0.944148 0.964897 0.988151
0.917436 0.968875 0.956689 0.989776
0.968535 0.977171 0.9978 0.993348
0.966517 0.962313 1.01795 0.986663
0.91679 0.953839 0.972698 0.988136
0.926036 0.977717 0.956294 0.99043
0.998964 1 1 0.998964
0.999068 1 1 0.999068
0.999255 1 1 0.999255
0.999106 1 1 0.999106
0.999136 1 1 0.999136
0.999269 1 1 0.999269
0.99933 1 1 0.99933
0.999392 1 1 0.999392
0.990072 1.00569 0.985868 0.998587
0.986328 1 0.987543 0.998769
0.998978 1 1 0.998978
1.00907 1 1.01055 0.99853
1.00721 1 1.00855 0.998672
0.999176 1 1.00032 0.99886
0.998959 1 1.00008 0.998876
0.97675 0.996676 0.980939 0.999051
1.00497 1 1.00627 0.998707
1.00751 1 1.00878 0.998745
1.00042 0.999904 1.00121 0.999304
0.999155 1 1.00025 0.998907
0.969108 0.98817 0.981287 0.999412
1.01134 0.998338 1.01358 0.999454
1.00811 1 1.0093 0.998819
1.00088 1 1.00206 0.998829
0.969168 0.97331 0.997578 0.998162
0.966892 0.973718 0.997548 0.99543
0.924183 0.936099 0.996041 0.991196
1.00188 0.999496 1.00293 0.99946
1.0112 0.997905 1.0139 0.999434
0.967646 0.975531 0.996429 0.995472
0.968569 0.965637 1.01513 0.988092
0.97233 0.971545 1.00589 0.994949
0.921213 0.954586 0.97702 0.987737
0.969849 0.976684 0.997853 0.995138
0.931339 0.986194 0.95234 0.991639
1.00447 0.997518 1.00729 0.999678
0.960577 0.971114 0.991336 0.997795
0.972673 0.982032 0.994261 0.996187
1.00457 0.988789 1.01607 0.999891
0.919256 0.970712 0.956767 0.989783
0.967547 0.967306 1.01246 0.987943
0.922796 0.952737 0.980472 0.987865
1.00805 0.994818 1.01353 0.999771
0.971069 0.982416 0.990146 0.998287
0.961295 0.970902 0.994458 0.995622
0.893658 0.948756 0.953058 0.988321
0.916847 0.956056 0.970713 0.987922
0.980531 0.976334 1.0053 0.999003
0.975781 0.965014 1.02485 0.986638
1.00095 1 1.00159 0.99936
1.00589 0.99848 1.00788 0.99955
1.00361 0.989914 1.01426 0.999582
0.999118 1 1 0.999118
1.00103 1 1.00184 0.9992
1.00621 0.999991 1.00682 0.999396
0.999976 1 1.00079 0.999184
1.00216 0.999577 1.0031 0.999488
1.0062 0.998748 1.00816 0.999302
0.999185 1 1 0.999185
0.999114 1 1 0.999114
1.00009 1 1.00096 0.999127
1.00654 1 1.00781 0.998736
0.99912 1 1 0.99912
1.00065 1 1.00198 0.998669
1.0023 1 1.00413 0.998182
0.99988 1.00004 1.00188 0.99797
0.999163 1 1.0004 0.998759
0.999338 1 1.00109 0.998245
0.999017 1 1.00053 0.998493
1.00042 1 1.00175 0.998675
0.999568 1 1.00112 0.998447
0.999252 1 1.00023 0.999025
0.999452 1 1.00064 0.99881
0.999564 1 1.00109 0.998476
0.999434 1 1 0.999434
0.999117 1 1 0.999117
0.998992 1 1.00009 0.9989
0.99926 1 1 0.99926
0.999517 1 1 0.999517
0.99989 1 1 0.99989
0.999567 1 1 0.999567
0.999904 1 1 0.999904
1 1 1 1
0.999911 1 1 0.999911
1 1 1 1
1 1 1 1
1 1 1 1
1 1 1 1
1 1 1 1
0.999475 1 1 0.999475
0.999844 1 1 0.999844
0.999544 1 1 0.999544
1 1 1 1
0.999888 1 1 0.999888
0.999637 1 1 0.999637
1 1 1 1
1 1 1 1
0.999915 1 1 0.999915
1 1 1 1
1 1 1 1
1 1 1 1
0.96077 0.970153 0.992525 0.997788
0.96654 0.975445 0.995864 0.994986
0.909094 0.93498 0.981797 0.990341
0.999266 1 1 0.999266
0.999229 1 1 0.999229
0.999136 1 1 0.999136
0.972702 0.98299 0.993961 0.995546
0.962264 0.969971 0.996419 0.995619
0.974452 0.980966 1.0008 0.992567
0.987815 0.99139 1.00037 0.996024
0.956236 0.9648 1.00351 0.987659
0.892161 0.936062 0.964899 0.987772
0.921852 0.972704 0.957568 0.989717
0.966532 0.973737 0.997677 0.994911
0.961232 0.962201 1.01146 0.987674
0.912497 0.944746 0.976357 0.989254
0.927269 0.980737 0.954042 0.991027
0.955473 0.966203 0.99475 0.994113
0.977498 0.969859 1.02023 0.98789
0.912859 0.937112 0.984986 0.988968
0.920325 0.968864 0.958613 0.990913
0.998958 1 1 0.998958
0.998962 1 1 0.998962
0.999055 1 1 0.999055
0.999102 1 1 0.999102
0.999164 1 1 0.999164
0.999336 1 1 0.999336
0.983253 0.999147 0.985015 0.999064
0.995322 0.999956 0.996039 0.999324
0.998883 1 1 0.998883
1.00769 1 1.00896 0.998746
1.00542 1 1.00669 0.998734
0.999111 1 1.00022 0.998887
1.00087 1 1.00204 0.998837
0.980872 0.99188 0.989479 0.999417
1.00951 1 1.01062 0.998898
1.00646 0.994665 1.01239 0.99948
0.999218 1 1.00027 0.998949
0.996868 0.982463 1.01501 0.999661
0.994552 0.990662 1.00438 0.999548
1.00642 1 1.00741 0.999022
0.983384 0.98611 0.998464 0.998769
0.96803 0.972789 0.99677 0.998332
0.967017 0.972942 0.9984 0.995503
1.00539 0.998329 1.00744 0.999644
0.999974 0.990928 1.00954 0.999591
0.960134 0.970521 0.991469 0.997809
0.971199 0.964995 1.01558 0.990987
0.924839 0.950043 0.984155 0.989144
0.971838 0.98025 0.994593 0.996809
0.923417 0.973964 0.957924 0.989745
1.00706 0.994769 1.01257 0.999788
0.970015 0.982189 0.989149 0.99844
0.963566 0.971586 0.996086 0.995642
0.979356 0.972752 1.01011 0.996713
0.889789 0.946936 0.951158 0.987901
0.91079 0.948477 0.970903 0.989045
0.986085 0.971119 1.02797 0.987779
1.00493 0.979134 1.02656 0.999788
0.96162 0.971042 0.992461 0.99782
0.970065 0.981722 0.995387 0.992706
0.839549 0.899798 0.944966 0.987381
0.895056 0.944125 0.959116 0.988439
0.977168 0.971282 1.01857 0.987722
0.954427 0.96735 0.99099 0.995611
1.00562 0.997855 1.00826 0.999533
1.00746 0.993063 1.01491 0.999586
1.01884 0.998278 1.02108 0.999529
0.999178 1 1 0.999178
1.00228 0.999078 1.00372 0.999487
1.00678 0.99936 1.00808 0.999352
1.01697 1 1.01804 0.998955
1.00066 1 1.00156 0.999098
1.00677 1 1.00813 0.998657
1.01365 1 1.01561 0.998074
1.00019 1 1.00145 0.998742
1.00315 1 1.005 0.99816
1.00328 1.00023 1.00537 0.997699
1.0008 1.00128 1.00191 0.997612
0.999319 1 1.00108 0.998243
1.0001 1.00027 1.00189 0.997942
0.999417 1 1.00123 0.998193
0.999741 1 1.0011 0.998645
0.999043 1 1.00048 0.998564
1.00024 1 1.0014 0.99884
1.00049 1 1.00179 0.998704
0.999494 1 1.001 0.998491
0.999303 1 1 0.999303
0.999228 1 1.0002 0.999027
0.999406 1 1.0006 0.998805
0.999852 1 1 0.999852
0.999433 1 1 0.999433
0.99911 1 1 0.99911
0.999515 1 1 0.999515
0.999886 1 1 0.999886
1 1 1 1
0.999902 1 1 0.999902
1 1 1 1
1 1 1 1
1 1 1 1
1 1 1 1
1 1 1 1
0.999472 1 1 0.999472
0.99986 1 1 0.99986
0.99949 1 1 0.99949
1 1 1 1
0.999871 1 1 0.999871
0.999567 1 1 0.999567
1 1 1 1
1 1 1 1
0.999884 1 1 0.999884
1 1 1 1
1 1 1 1
1 1 1 1
0.970357 0.981993 0.989859 0.998275
0.96069 0.97091 0.991653 0.997803
0.966382 0.975714 0.995417 0.994996
0.999212 1 1 0.999212
0.99911 1 1 0.99911
0.999278 1 1 0.999278
0.999227 1 1 0.999227
0.999119 1 1 0.999119
0.999129 1 1 0.999129
0.99904 1 1 0.99904
0.962705 0.971276 0.996082 0.995075
0.970952 0.980502 0.994067 0.99617
0.964432 0.97044 0.998161 0.99564
0.930613 0.985209 0.952562 0.991625
0.957216 0.96599 0.997405 0.993496
0.967038 0.965211 1.01325 0.988787
0.916983 0.943129 0.984059 0.988027
0.95364 0.966109 0.993579 0.993473
0.966908 0.963803 1.01606 0.987365
0.924733 0.953883 0.981001 0.988215
0.912669 0.962673 0.956912 0.990747
0.950862 0.965042 0.99023 0.995028
0.969274 0.967698 1.01475 0.987067
0.929296 0.959255 0.979522 0.989021
0.892811 0.950077 0.950066 0.989116
0.99902 1 1 0.99902
0.998958 1 1 0.998958
0.99896 1 1 0.99896
0.999099 1 1 0.999099
0.990312 0.995078 0.995785 0.999422
1.00097 0.991474 1.01008 0.999505
0.998868 1 1 0.998868
1.00056 1 1.00172 0.998845
1.00938 1 1.01041 0.998977
0.999038 1 1.00009 0.998945
1.00718 1 1.00818 0.999008
0.99288 0.980818 1.01312 0.999186
0.995816 0.991803 1.0044 0.999646
1.00239 1 1.0033 0.999089
0.998155 0.978211 1.02126 0.999149
1.00783 0.995792 1.01278 0.999326
0.969212 0.973484 0.997417 0.998191
0.979603 0.984027 0.996592 0.998909
0.967372 0.972426 0.996295 0.998502
1.00578 0.994404 1.01163 0.999805
0.981278 0.973321 1.00914 0.999044
0.968981 0.981856 0.988277 0.998594
0.974962 0.966179 1.02251 0.986874
0.915215 0.945896 0.979524 0.987791
0.966229 0.97224 0.998146 0.995663
0.88326 0.941374 0.949872 0.987781
1.00978 0.981686 1.02881 0.999817
0.961103 0.971404 0.991543 0.997835
0.972975 0.982167 0.997954 0.992672
0.957767 0.968653 0.991173 0.997568
0.831633 0.897977 0.938956 0.986328
0.898349 0.943656 0.963447 0.988106
0.97609 0.967673 1.02113 0.987824
0.998658 0.98232 1.01726 0.99938
0.966618 0.975944 0.995362 0.995059
0.89832 0.928204 0.978515 0.989054
0.861057 0.913508 0.953455 0.988597
0.963583 0.961173 1.01473 0.987954
0.944074 0.96405 0.985084 0.994107
1.01135 0.996683 1.01513 0.99959
1.01889 0.996641 1.02281 0.999522
1.01341 1 1.01404 0.999377
1.00722 0.999932 1.00789 0.999402
1.0166 0.99956 1.01805 0.999016
1.01017 1.00024 1.01163 0.998319
1.00716 1 1.00859 0.998579
1.01294 1 1.01494 0.998028
1.00689 1.00017 1.0091 0.997639
1.00397 1 1.00585 0.998138
1.00342 1.00012 1.00566 0.997653
1.00304 1.00196 1.0036 0.997479
1.00187 1.00426 1 0.997615
1.00066 1.00211 1.00077 0.997794
1.0012 1.00147 1.00218 0.997562
0.998574 1 1.00013 0.998448
0.999028 1 1.00074 0.998286
1.00032 1.00052 1.0019 0.997913
0.999792 1 1.00112 0.998678
0.99972 1 1.00108 0.998638
0.99906 1 1.00043 0.998635
0.999267 1 1.00015 0.999117
1.0001 1 1.00123 0.998868
1.00053 1 1.0018 0.998733
0.999759 1 1 0.999759
0.999303 1 1 0.999303
0.999187 1 1.00016 0.999029
1 1 1 1
0.999847 1 1 0.999847
0.999432 1 1 0.999432
0.999882 1 1 0.999882
1 1 1 1
1 1 1 1
1 1 1 1
1 1 1 1
1 1 1 1
0.999207 1 1 0.999207
0.999434 1 1 0.999434
0.999829 1 1 0.999829
0.999471 1 1 0.999471
1 1 1 1
0.999864 1 1 0.999864
0.999505 1 1 0.999505
1 1 1 1
1 1 1 1
0.999898 1 1 0.999898
1 1 1 1
1 1 1 1
1 1 1 1
0.960313 0.971448 0.990729 0.997787
0.969611 0.981912 0.989025 0.99843
0.959868 0.971687 0.989996 0.997818
0.99922 1 1 0.99922
0.999096 1 1 0.999096
0.999033 1 1 0.999033
0.999098 1 1 0.999098
0.999018 1 1 0.999018
0.999225 1 1 0.999225
0.999103 1 1 0.999103
0.999129 1 1 0.999129
0.999036 1 1 0.999036
0.999078 1 1 0.999078
0.965705 0.974799 0.99796 0.992695
0.965741 0.973793 0.996623 0.995092
0.968774 0.978016 0.993737 0.996794
0.909822 0.960844 0.955663 0.990829
0.924003 0.948162 0.985085 0.989276
0.945937 0.961267 0.991303 0.992685
0.974584 0.97125 1.0159 0.987729
0.952547 0.966285 0.992466 0.993266
0.980931 0.975697 1.01794 0.987646
0.91857 0.952795 0.975084 0.988714
0.893552 0.951489 0.949924 0.988615
0.97119 0.973454 1.00339 0.9943
0.970191 0.969371 1.01297 0.988035
0.885438 0.933314 0.960607 0.987608
0.856122 0.921304 0.941295 0.987205
0.999317 1 1 0.999317
0.999116 1 1.00009 0.999023
0.999068 1 1.00011 0.998957
0.989902 0.978909 1.01254 0.998708
0.99685 0.991981 1.00516 0.999748
0.999137 1 1.0002 0.99894
1.0085 1 1.00952 0.998994
1.0027 1 1.00361 0.999096
1.00829 0.996916 1.01211 0.999317
0.99597 0.976378 1.0209 0.999182
1.00774 0.999881 1.00851 0.999358
0.999389 0.985463 1.01519 0.998956
0.96851 0.975734 0.997285 0.995299
0.967737 0.972701 0.996532 0.998359
0.975448 0.98173 0.994547 0.999049
1.01449 0.983851 1.03131 0.999842
0.958907 0.971142 0.992476 0.994887
0.95985 0.971794 0.989838 0.99785
0.973253 0.970543 1.01707 0.985957
0.893565 0.936851 0.965613 0.987762
0.975231 0.982572 0.999888 0.99264
0.825673 0.897758 0.933452 0.985273
0.9972 0.98078 1.01729 0.999463
0.967849 0.976855 0.995696 0.995063
0.889161 0.921598 0.975933 0.988596
0.945916 0.966031 0.984038 0.995061
0.868699 0.918911 0.957373 0.987449
0.95393 0.959267 1.00751 0.987026
0.977251 0.982376 0.996002 0.998775
0.919609 0.93638 0.991256 0.990754
0.867143 0.910932 0.963755 0.987729
0.966368 0.970105 1.00855 0.987703
0.952884 0.965571 0.991524 0.995297
1.01859 0.99527 1.02392 0.999515
1.01517 0.99954 1.01629 0.999357
0.993443 1.0003 0.994269 0.998874
1.01601 0.999133 1.01783 0.999076
1.01068 1.00048 1.01181 0.9984
1.00236 1.00166 1.00272 0.997997
1.012 1 1.01405 0.997982
1.00574 1.00031 1.00779 0.997651
0.999264 1.00147 1.00006 0.997737
1.00338 1 1.00579 0.997608
1.0033 1.00292 1.00289 0.997495
1.00466 1.00693 1 0.997752
1.00735 1.0095 1 0.99787
1.00338 1.00571 1.00002 0.99766
1.00179 1.00417 1 0.997628
0.999248 1.00119 1 0.998061
1.00008 1.00126 1.00107 0.99775
1.00156 1.00162 1.00244 0.997513
0.998595 1 1 0.998595
0.998524 1 1.00002 0.9985
0.998646 1 1.00032 0.998329
0.999112 1 1.00018 0.998932
0.999868 1 1.00118 0.998694
0.999725 1 1.0011 0.998632
0.999587 1 1 0.999587
0.999334 1 1.00022 0.999118
1.00001 1 1.00111 0.998897
1 1 1 1
0.999754 1 1 0.999754
0.999304 1 1 0.999304
1 1 1 1
1 1 1 1
0.999842 1 1 0.999842
1 1 1 1
1 1 1 1
1 1 1 1
0.999133 1 1 0.999133
0.999386 1 1 0.999386
0.999196 1 1 0.999196
0.999805 1 1 0.999805
0.999434 1 1 0.999434
1 1 1 1
0.999832 1 1 0.999832
0.99947 1 1 0.99947
1 1 1 1
1 1 1 1
0.999867 1 1 0.999867
1 1 1 1
1 1 1 1
1 1 1 1
0.968422 0.977864 0.994798 0.995523
0.959985 0.970831 0.991006 0.997802
0.969207 0.981769 0.988603 0.998586
0.999026 1 1 0.999026
0.999229 1 1 0.999229
0.999082 1 1 0.999082
0.999111 1 1 0.999111
0.999047 1 1 0.999047
0.999014 1 1 0.999014
0.998942 1 1 0.998942
0.998997 1 1 0.998997
0.999129 1 1 0.999129
0.999033 1 1 0.999033
0.999071 1 1 0.999071
0.999147 1 1 0.999147
0.890726 0.925 0.974484 0.988161
0.968363 0.977056 0.998439 0.992653
0.967521 0.975018 0.99719 0.995108
0.888976 0.949248 0.947458 0.988439
0.925702 0.959142 0.97667 0.988191
0.969544 0.966954 1.01576 0.987117
0.954429 0.965238 0.994602 0.994169
0.971186 0.97225 1.0031 0.995815
0.841713 0.910374 0.937517 0.986201
0.970844 0.967754 1.01653 0.986882
0.890965 0.940065 0.958815 0.98848
0.963186 0.972299 0.994452 0.996155
0.962374 0.961382 1.01261 0.98857
0.865115 0.917949 0.953686 0.988212
1.00004 1 1.00041 0.999629
0.999323 1 1 0.999318
0.999034 1 1.00001 0.999026
0.996348 0.977365 1.02023 0.999208
1.00978 0.99907 1.01142 0.999308
1.00287 1 1.00377 0.999103
1.00751 1 1.00816 0.999357
0.998814 0.986387 1.01361 0.999
1.00358 0.994993 1.00939 0.999251
0.917215 0.936507 0.989426 0.989866
0.967968 0.975013 0.996802 0.995959
0.966474 0.971871 0.995914 0.998527
0.995666 0.978784 1.01771 0.999545
0.945033 0.968091 0.980341 0.995758
0.968625 0.977736 0.995589 0.99507
0.961577 0.961528 1.01144 0.988742
0.877237 0.929896 0.954755 0.988077
0.882546 0.920905 0.969579 0.988416
0.97693 0.983073 0.994916 0.998829
0.909148 0.934173 0.982623 0.990422
0.881336 0.916321 0.972947 0.988563
0.952697 0.963638 0.995112 0.993503
0.955339 0.966448 1.00016 0.988346
0.967051 0.989176 0.97836 0.999257
0.892528 0.926845 0.973854 0.988829
0.960059 0.974254 0.99653 0.988861
0.966321 0.977897 0.994831 0.993296
1.01759 0.998876 1.01941 0.999337
0.989752 1.00015 0.990637 0.998955
0.98226 1.00208 0.981634 0.998557
1.01159 1.00075 1.01237 0.998481
1.00302 1.00205 1.00299 0.997989
1.00067 1.00308 0.999428 0.998171
1.00489 1.00049 1.00675 0.997663
0.999394 1.00108 1.00056 0.997752
1.00753 1.0094 1 0.998148
1.00367 1.00391 1.00226 0.997512
1.00452 1.00677 1 0.997757
1.01104 1.01289 1 0.998174
1.01269 1.01455 1 0.998167
1.0073 1.0095 1 0.997828
1.00732 1.00945 1 0.997891
1.00245 1.00459 1 0.997869
1.00312 1.00544 1 0.997697
1.00173 1.0041 1 0.997641
0.998536 1.00016 1 0.998381
0.99982 1.00161 1.00014 0.998075
0.999748 1.00057 1.00148 0.997706
0.998801 1 1 0.998801
0.99859 1 1 0.99859
0.998552 1 1 0.998552
0.999383 1 1 0.999383
0.999128 1 1.00019 0.998935
0.999912 1 1.0012 0.998711
0.999995 1 1 0.999995
0.999583 1 1 0.999583
0.999356 1 1.00024 0.999118
1 1 1 1
1 1 1 1
0.999749 1 1 0.999749
1 1 1 1
1 1 1 1
1 1 1 1
0.999107 1 1 0.999107
0.999134 1 1 0.999134
0.99932 1 1 0.99932
0.999778 1 1 0.999778
0.999386 1 1 0.999386
0.999184 1 1 0.999184
1 1 1 1
0.999807 1 1 0.999807
0.999433 1 1 0.999433
1 1 1 1
1 1 1 1
0.999835 1 1 0.999835
1 1 1 1
1 1 1 1
1 1 1 1
0.91256 0.931051 0.990335 0.989706
0.968188 0.976902 0.995524 0.995536
0.959971 0.970553 0.99126 0.997817
0.999013 1 1 0.999013
0.998965 1 1 0.998965
0.998944 1 1 0.998944
0.999124 1 1 0.999124
0.999061 1 1 0.999061
0.99901 1 1 0.99901
0.998994 1 1 0.998994
0.998941 1 1 0.998941
0.998864 1 1 0.998864
0.999145 1 1 0.999145
0.999063 1 1 0.999063
0.999142 1 1 0.999142
0.878714 0.91449 0.972217 0.988338
0.886722 0.919963 0.975824 0.987746
0.971615 0.979848 0.998976 0.992614
0.826617 0.897203 0.935174 0.985193
0.891279 0.937183 0.962983 0.987577
0.975285 0.971656 1.01473 0.98916
0.971522 0.96943 1.00812 0.994088
0.960743 0.969294 0.99657 0.99459
0.86535 0.912105 0.961005 0.987237
0.955292 0.959104 1.00759 0.988526
0.961378 0.971042 0.99496 0.995062
0.955731 0.969113 0.998156 0.988013
1.00731 1 1.00819 0.999127
0.999851 1 1.00027 0.999584
0.99932 1 1 0.99932
0.994917 0.983992 1.01207 0.999042
1.00721 1 1.00785 0.999357
1.00398 0.9957 1.00918 0.999151
0.996857 0.999621 0.998746 0.998486
0.889999 0.934634 0.963041 0.988788
0.921099 0.936831 0.992622 0.990516
0.968779 0.974946 0.997048 0.996616
0.975339 0.983654 0.992633 0.998905
0.952564 0.963533 0.994181 0.994403
0.909311 0.935134 0.981733 0.990479
0.955263 0.964275 1.00291 0.987777
0.883587 0.921904 0.970161 0.987916
0.9706 0.989973 0.981516 0.998894
0.895484 0.930892 0.973317 0.988334
0.962345 0.97605 0.997967 0.987967
0.970275 0.976984 0.998326 0.994798
0.98468 0.99716 0.988417 0.999056
0.958505 0.978649 0.991397 0.987916
0.978014 0.988842 0.993274 0.995747
0.985995 1 0.986946 0.999037
0.983242 1.0026 0.982134 0.998537
0.983732 1.00539 0.979979 0.998447
1.00332 1.00241 1.00293 0.997982
1.00013 1.00332 0.998648 0.998166
1.00902 1.01328 0.997227 0.998559
0.999356 1.00062 1.00097 0.997766
1.00737 1.00925 1 0.998142
1.01555 1.01708 0.999983 0.99851
1.00428 1.00653 1 0.997762
1.01054 1.01239 1 0.998174
1.01416 1.01575 1 0.998434
1.01194 1.01362 1 0.998341
1.01248 1.0143 1 0.998201
1.0114 1.01333 1 0.99809
1.00733 1.00944 1 0.997917
1.00786 1.01005 1 0.997832
1.0073 1.00941 1 0.997911
0.99927 1.00115 1 0.998118
1.00297 1.00508 1 0.997904
1.00276 1.00504 1 0.997733
0.998647 1 1 0.998647
0.99873 1.00036 1 0.998375
1.00014 1.00188 1.00017 0.998089
0.999229 1 1 0.999229
0.998801 1 1 0.998801
0.998586 1 1 0.998586
0.999965 1 1 0.999965
0.999383 1 1 0.999383
0.999191 1 1.00025 0.998938
1 1 1 1
0.999989 1 1 0.999989
0.99958 1 1 0.99958
1 1 1 1
0.999999 1 1 0.999999
1 1 1 1
0.999036 1 1 0.999036
0.999095 1 1 0.999095
0.999248 1 1 0.999248
0.999136 1 1 0.999136
0.99932 1 1 0.99932
0.999729 1 1 0.999729
0.999999 1 1 0.999999
0.99978 1 1 0.99978
0.999387 1 1 0.999387
1 1 1 1
1 1 1 1
0.999809 1 1 0.999809
1 1 1 1
1 1 1 1
1 1 1 1
0.90024 0.930174 0.9792 0.988378
0.91292 0.93353 0.988413 0.989387
0.967178 0.975197 0.996211 0.995549
0.999001 1 1 0.999001
0.998921 1 1 0.998921
0.99899 1 1 0.99899
0.998821 1 1 0.998821
0.99888 1 1 0.99888
0.998992 1 1 0.998992
0.998939 1 1 0.998939
0.998881 1 1 0.998881
0.998772 1 1 0.998772
0.998979 1 1 0.998979
0.998949 1.00033 1.00026 0.998363
0.999365 1 1.00018 0.999185
0.999138 1 1 0.999138
0.957574 0.977057 0.992438 0.987528
0.882716 0.914827 0.976474 0.988147
0.888337 0.922897 0.974616 0.987622
0.864696 0.912213 0.959604 0.987814
0.960029 0.961237 1.01217 0.986736
0.963168 0.96869 0.998013 0.99628
0.962821 0.972042 0.994443 0.996049
0.958561 0.969928 0.999436 0.988838
0.977347 0.991951 0.990183 0.995046
1.00218 1.00132 1.00253 0.998336
1.00576 1 1.00666 0.999108
0.99954 1 1 0.99954
1.00446 0.997378 1.00804 0.999063
0.998854 1.00094 0.999524 0.998392
0.946501 0.974324 0.982466 0.988781
0.897544 0.934433 0.971776 0.98842
0.925015 0.937223 0.995763 0.991174
0.973784 0.990669 0.984416 0.998518
0.964294 0.971311 0.999402 0.99337
0.896528 0.929158 0.976499 0.988104
0.962556 0.974091 0.999386 0.988766
0.982842 0.997266 0.98647 0.999054
0.960151 0.980056 0.9905 0.989087
0.979204 0.989928 0.994942 0.994195
1.00051 1.00539 0.99659 0.99855
0.988163 0.996808 0.994227 0.997084
0.98399 1.00317 0.982333 0.998519
0.985906 1.00496 0.982615 0.998402
1.00432 1.02133 0.984809 0.998517
0.999855 1.00358 0.998123 0.99816
1.00802 1.01233 0.997182 0.99855
1.01538 1.02103 0.995775 0.998686
1.00724 1.00912 1 0.998136
1.01551 1.01723 0.999809 0.998496
1.0166 1.0183 0.999748 0.998578
1.01013 1.01198 1 0.998173
1.01433 1.01594 1 0.99842
1.01202 1.01361 1 0.998431
1.01249 1.01414 1 0.998376
1.01132 1.01313 1 0.998218
1.01229 1.01408 1 0.998236
1.01117 1.01311 1 0.998084
1.00845 1.01044 1 0.998032
1.00237 1.00434 1 0.998042
1.00706 1.00917 1 0.99791
1.00838 1.01057 1 0.997835
0.998578 1.00012 1 0.99846
0.999606 1.00147 1 0.99814
1.00358 1.00565 1 0.997938
0.999102 1 1 0.999102
0.998642 1 1 0.998642
0.998947 1.00058 1 0.998369
0.999897 1 1 0.999897
0.99923 1 1 0.99923
0.9988 1 1 0.9988
1 1 1 1
0.999949 1 1 0.999949
0.999383 1 1 0.999383
1 1 1 1
0.999982 1 1 0.999982
1 1 1 1
0.998848 1 1 0.998848
0.999036 1 1 0.999036
0.999134 1 1 0.999134
0.999083 1 1 0.999083
0.999229 1 1 0.999229
0.999631 1 1 0.999631
0.99932 1 1 0.99932
0.999731 1 1 0.999731
0.999998 1 1 0.999998
1 1 1 1
1 1 1 1
0.999782 1 1 0.999782
1 1 1 1
1 1 1 1
1 1 1 1
0.960748 0.979643 0.991444 0.989176
0.89349 0.932372 0.969122 0.98883
0.921383 0.938464 0.992343 0.989376
0.998897 1 1 0.998897
0.999016 1 1 0.999016
0.99889 1 1 0.99889
0.99883 1 1 0.99883
0.998615 1 1.00002 0.998593
0.998824 1 1 0.998824
0.998898 1 1 0.998898
0.998709 1 1 0.998709
0.99912 1 1.00018 0.998944
0.99861 1 1 0.99861
1.0006 1.00213 1 0.998473
0.99881 1.00128 0.999621 0.997915
0.9993 1.0008 1.00006 0.998445
0.999578 1 1.00035 0.999225
0.975349 0.989906 0.990031 0.995216
0.959015 0.976871 0.993242 0.9884
0.877309 0.915682 0.969836 0.987893
0.969658 0.975675 1.00615 0.987763
0.960685 0.972016 0.991486 0.996829
0.982059 0.993482 0.991666 0.99681
0.9943 1.00405 0.991801 0.998475
0.999755 1.00067 1.00067 0.998417
1.00471 1 1.00563 0.999089
0.997808 1.00112 0.998404 0.998284
0.974493 0.984837 0.994338 0.99513
0.954315 0.97535 0.988586 0.98973
0.891421 0.93112 0.967954 0.989059
0.983528 0.998989 0.985462 0.999049
0.985717 0.991994 0.998307 0.995358
0.962089 0.98081 0.990532 0.990288
0.994741 1.00473 0.991488 0.998559
0.986016 0.995674 0.993776 0.996502
1.00547 1.02174 0.985753 0.998308
1.0068 1.01464 0.994097 0.998168
0.987876 1.00435 0.985215 0.998354
1.00509 1.02123 0.985666 0.998509
1.0091 1.02499 0.98595 0.99853
1.00712 1.01162 0.997004 0.998541
1.01514 1.02063 0.99594 0.998675
1.01324 1.01843 0.996392 0.998511
1.01545 1.01738 0.999615 0.998481
1.01623 1.01811 0.999592 0.998564
1.01357 1.01548 0.999742 0.99837
1.01445 1.01607 1 0.998406
1.01171 1.01329 1 0.998432
1.01172 1.01352 1 0.998216
1.01302 1.01463 1 0.998411
1.01106 1.01284 1 0.998244
1.00915 1.01109 1 0.998078
1.01099 1.01293 1 0.998079
1.00842 1.01042 1 0.998025
1.00344 1.00535 1 0.998095
0.998609 1.0003 1 0.998305
1.00226 1.00421 1 0.998062
1.00682 1.00893 1 0.997902
0.998951 1 1 0.998951
0.998596 1.00014 1 0.99846
0.999933 1.00177 1 0.998161
0.999805 1 1 0.999805
0.999101 1 1 0.999101
0.998637 1 1 0.998637
1 1 1 1
0.999882 1 1 0.999882
0.999231 1 1 0.999231
1 1 1 1
0.999934 1 1 0.999934
1 1 1 1
0.998805 1.00016 1 0.998641
0.99886 1 1 0.99886
0.998996 1 1 0.998996
0.999036 1 1 0.999036
0.999119 1 1 0.999119
0.999496 1 1 0.999496
0.99921 1 1 0.99921
0.999633 1 1 0.999633
0.999992 1 1 0.999992
0.999732 1 1 0.999732
0.999998 1 1 0.999998
1 1 1 1
1 1 1 1
1 1 1 1
1 1 1 1
0.972744 0.986272 0.990785 0.995458
0.955984 0.97853 0.988243 0.988582
0.888984 0.929511 0.967817 0.988204
1.00114 1.00275 1.00007 0.998324
0.998901 1 1 0.998901
0.99884 1 1 0.99884
0.998808 1 1 0.998808
0.998705 1 1.00012 0.998583
0.999171 1.0004 1 0.998767
0.998646 1 1 0.998646
0.99927 1 1.00036 0.99891
0.998654 1 1 0.998654
0.999962 1.0015 1 0.99846
1.00108 1.00312 1 0.997967
1.00342 1.0058 0.999835 0.997796
0.999832 1.00195 1.00001 0.997876
0.999861 1.00134 1 0.998527
0.998914 1.00616 0.993884 0.998906
0.97558 0.990799 0.990094 0.994491
0.962091 0.977719 0.994475 0.989483
0.977711 0.989957 0.992137 0.995457
0.998626 1.006 0.993954 0.998712
0.999756 1.0002 1.00106 0.998498
1.00189 1.00668 0.996928 0.998302
0.972989 0.981909 0.994637 0.996259
0.950244 0.97588 0.984704 0.988856
0.988189 1.00306 0.986593 0.998565
0.986533 0.996076 0.99458 0.995817
1.00597 1.02245 0.985539 0.998322
1.00604 1.01287 0.994974 0.998275
1.01217 1.02687 0.987375 0.998288
1.0158 1.02001 0.997646 0.998223
1.00614 1.02111 0.986814 0.998501
1.01113 1.02601 0.98695 0.998535
1.00681 1.01807 0.990541 0.998378
1.01483 1.02007 0.99619 0.998663
1.01428 1.01904 0.996808 0.998508
1.01347 1.01666 0.998606 0.998254
1.01594 1.01796 0.999471 0.998551
1.01376 1.0156 0.999801 0.998386
1.01304 1.01495 1 0.998114
1.01141 1.013 1 0.998434
1.01127 1.01308 1 0.998217
1.01108 1.01306 1 0.99804
1.0108 1.01255 1 0.99827
1.00923 1.01116 1 0.998091
1.00426 1.00621 1 0.998055
1.00837 1.01037 1 0.998018
1.00344 1.00537 1 0.998077
0.999428 1.00115 1 0.998277
0.998825 1 1 0.998825
0.998685 1.00036 1 0.998328
1.00214 1.00407 1 0.998081
0.999703 1 1 0.999703
0.99895 1 1 0.99895
0.998624 1.00016 1 0.99846
1 1 1 1
0.999793 1 1 0.999793
0.999099 1 1 0.999099
1 1 1 1
0.999868 1 1 0.999868
1 1 1 1
0.99943 1.00106 1 0.998375
0.998722 1.00008 1 0.998646
0.998832 1 1 0.998832
0.998872 1 1 0.998872
0.999003 1 1 0.999003
0.999359 1 1 0.999359
0.999104 1 1 0.999104
0.999495 1 1 0.999495
0.999971 1 1 0.999971
0.999634 1 1 0.999634
0.999994 1 1 0.999994
1 1 1 1
0.999999 1 1 0.999999
1 1 1 1
1 1 1 1
1.00392 1.01047 0.994619 0.998897
0.971122 0.986152 0.990669 0.994034
0.958968 0.975603 0.993488 0.989392
1.00283 1.00438 1.00001 0.99845
1.00463 1.00657 1 0.998073
1.00085 1.00236 1.00013 0.998358
0.998793 1 1 0.998793
0.998815 1 1.00024 0.998571
0.999546 1.00082 1 0.998719
1.00397 1.00588 1 0.998096
0.998698 1 1 0.998698
0.999209 1.00076 1 0.998447
1.00132 1.00331 1 0.998015
1.00716 1.00952 1 0.997669
1.01215 1.01585 0.998244 0.998115
1.00297 1.00553 0.999676 0.997781
1.00046 1.00262 1 0.997836
1.00202 1.00874 0.994347 0.998989
0.974973 0.990332 0.990814 0.993618
1.00008 1.0074 0.993778 0.998952
1.01392 1.01809 0.997193 0.998705
1.00077 1.00539 0.997024 0.99837
0.971554 0.983715 0.992841 0.994759
1.00623 1.02323 0.985016 0.998337
1.00474 1.01129 0.995129 0.998384
1.01085 1.02676 0.986148 0.998336
1.01815 1.02207 0.997929 0.998235
1.01297 1.02192 0.992976 0.998252
1.02395 1.02777 0.997933 0.998352
1.01291 1.02727 0.987469 0.998541
1.00703 1.01768 0.991142 0.998383
1.01638 1.02198 0.996352 0.998164
1.01521 1.01963 0.99716 0.998506
1.01366 1.01645 0.998996 0.998253
1.01547 1.01748 0.999981 0.998045
1.01388 1.01566 0.999843 0.998401
1.01278 1.0147 1 0.998112
1.01392 1.01601 1 0.99795
1.01082 1.01263 1 0.998217
1.01102 1.01301 1 0.99804
1.00554 1.00757 1 0.997991
1.00931 1.01122 1 0.998104
1.0043 1.00625 1 0.998058
0.999625 1.00141 1 0.998221
1.00345 1.0054 1 0.998058
0.99937 1.00111 1 0.998266
0.998749 1 1 0.998749
0.999625 1 1 0.999625
0.998825 1 1 0.998825
0.998752 1.0004 1 0.998352
1 1 1 1
0.999692 1 1 0.999692
0.998949 1 1 0.998949
1 1 1 1
0.999782 1 1 0.999782
1 1 1 1
0.999785 1.00166 1 0.998126
0.999358 1.00101 1 0.998351
0.998598 1 1 0.998598
0.99865 1 1 0.99865
0.998836 1 1 0.998836
0.999218 1 1 0.999218
0.999011 1 1 0.999011
0.999359 1 1 0.999359
0.999924 1 1 0.999924
0.999495 1 1 0.999495
0.999978 1 1 0.999978
1 1 1 1
0.999996 1 1 0.999996
1 1 1 1
1 1 1 1
1.01269 1.01865 0.995635 0.998511
1.00162 1.00948 0.993538 0.998662
0.969727 0.985667 0.988933 0.994838
1.00833 1.01027 1 0.998077
1.00152 1.00292 1 0.99861
1.01196 1.01407 1 0.997921
1.00441 1.00636 1 0.998058
1.00055 1.00198 1.00018 0.998393
1.0142 1.01651 1 0.997732
0.999927 1.00126 1 0.998672
1.00397 1.00594 1 0.998043
1.01897 1.02119 1 0.997833
1.00142 1.00336 1 0.998063
1.00772 1.0101 1 0.997643
1.01144 1.01467 0.998696 0.998124
1.00219 1.00455 0.999892 0.997765
1.00447 1.01061 0.994842 0.999075
1.02322 1.02622 0.998633 0.998435
1.01354 1.01784 0.997062 0.998706
1.00001 1.00409 0.997495 0.998435
1.0096 1.02645 0.985177 0.998385
1.01951 1.02332 0.998026 0.998248
1.01285 1.02219 0.992584 0.998265
1.02457 1.02894 0.997393 0.998359
1.02461 1.02943 0.997063 0.998252
1.00727 1.01717 0.991858 0.998387
1.0165 1.02169 0.996746 0.998171
1.01876 1.02211 0.998684 0.998035
1.01387 1.01628 0.999385 0.998252
1.01509 1.01711 0.999987 0.99803
1.01628 1.01844 1 0.99787
1.01257 1.01449 1 0.998111
1.01377 1.01585 1 0.997948
1.00794 1.01006 1 0.997902
1.01098 1.01296 1 0.998041
1.00575 1.00777 1 0.997992
0.999963 1.00183 1 0.998133
1.00434 1.0063 1 0.99806
0.999701 1.00148 1 0.998223
0.998677 1 1 0.998677
0.999299 1.00104 1 0.998256
0.998747 1 1 0.998747
0.999641 1 1 0.999641
0.99991 1 1 0.99991
0.999641 1 1 0.999641
0.998824 1 1 0.998824
1 1 1 1
0.999681 1 1 0.999681
1 1 1 1
1.01563 1.0177 1 0.997964
1.00395 1.00591 1 0.998045
0.99951 1.0014 1 0.998108
0.999004 1.00059 1 0.998411
0.999277 1.00095 1 0.998326
0.998602 1 1 0.998602
0.999063 1 1 0.999063
0.99884 1 1 0.99884
0.999221 1 1 0.999221
0.999847 1 1 0.999847
0.999358 1 1 0.999358
0.999939 1 1 0.999939
1 1 1 1
0.999986 1 1 0.999986
1 1 1 1
1 1 1 1
1.02394 1.02618 0.999617 0.998198
1.01659 1.02199 0.996113 0.998593
1.00077 1.00962 0.9928 0.998426
1.01641 1.01864 1 0.997803
1.00723 1.00909 1 0.998155
1.00018 1.00142 1 0.998767
1.01228 1.01436 1 0.997944
1.00418 1.00615 1 0.998042
1.02159 1.02383 1 0.997813
1.01315 1.01549 1 0.997697
1.00415 1.00617 1 0.997989
1.01876 1.02098 1 0.997827
1.00936 1.01177 1 0.997616
1.01296 1.01586 0.999001 0.998136
1.02764 1.03025 0.999127 0.998338
1.02482 1.02748 0.998966 0.998439
1.01414 1.01787 0.997627 0.998707
1.01343 1.02315 0.992203 0.998278
1.02568 1.03042 0.997031 0.998366
1.02457 1.03008 0.996377 0.998267
1.02397 1.02624 0.999698 0.998085
1.01657 1.02133 0.997158 0.998177
1.01922 1.02204 0.999211 0.998029
1.01808 1.02026 1 0.997858
1.0147 1.01672 1 0.998016
1.01637 1.01854 1 0.99787
1.0109 1.01311 1 0.997824
1.0136 1.01569 1 0.997947
1.00811 1.01023 1 0.997901
1.00067 1.00264 1 0.998036
1.00594 1.00797 1 0.997993
1.00016 1.00203 1 0.998134
0.998585 1 1 0.998585
0.999782 1.00156 1 0.998225
0.998675 1 1 0.998675
0.999634 1 1 0.999634
0.998746 1 1 0.998746
0.999637 1 1 0.999637
0.999913 1 1 0.999913
0.999956 1 1 0.999956
0.999657 1 1 0.999657
1 1 1 1
1.01761 1.01984 1 0.997812
1.00636 1.00832 1 0.998055
1.01537 1.01735 1 0.998056
0.999519 1.00124 1 0.998277
1.0045 1.00647 1 0.998041
0.99922 1.00113 1 0.998089
0.998793 1.00038 1 0.99841
0.998903 1 1 0.998903
0.998607 1 1 0.998607
0.999065 1 1 0.999065
0.999748 1 1 0.999748
0.999223 1 1 0.999223
0.999863 1 1 0.999863
1 1 1 1
0.999953 1 1 0.999953
1 1 1 1
1 1 1 1
1.0247 1.02667 1 0.998077
1.02331 1.0256 0.999575 0.998195
1.01826 1.02357 0.996133 0.998672
1.0214 1.02367 1 0.99778
1.0159 1.01813 1 0.997807
1.00616 1.00794 1 0.998233
1.01255 1.01461 1 0.997967
1.02139 1.02364 1 0.997798
1.01187 1.01425 1 0.997662
1.0166 1.01882 1 0.99782
1.02676 1.02871 0.999957 0.998147
1.02724 1.02987 0.999136 0.998301
1.02644 1.02898 0.999086 0.998442
1.02262 1.02468 1 0.997995
1.02443 1.03067 0.995655 0.998282
1.02357 1.02617 0.999388 0.99808
1.01966 1.02178 1 0.997919
1.01969 1.022 0.999714 0.998022
1.01815 1.02033 1 0.997861
1.01354 1.01579 1 0.997781
1.01644 1.01861 1 0.99787
1.01069 1.0129 1 0.997825
1.00181 1.00387 1 0.997954
1.00828 1.0104 1 0.997901
1.00099 1.00295 1 0.998037
0.998492 1 1 0.998492
1.00037 1.00224 1 0.998134
0.998583 1 1 0.998583
0.999615 1 1 0.999615
0.998673 1 1 0.998673
0.999628 1 1 0.999628
0.999915 1 1 0.999915
0.999633 1 1 0.999633
0.999914 1 1 0.999914
1 1 1 1
1.01818 1.02052 1 0.997714
1.00935 1.01151 1 0.997873
1.018 1.02021 1 0.997837
0.999693 1.00146 1 0.998238
1.00628 1.00824 1 0.998054
1.01518 1.01707 1 0.998146
0.998749 1 1 0.998749
0.999433 1.00116 1 0.998273
1.00515 1.00713 1 0.998036
0.998611 1.0002 1 0.998409
0.998904 1 1 0.998904
0.999652 1 1 0.999652
0.999068 1 1 0.999068
0.999761 1 1 0.999761
1 1 1 1
0.99988 1 1 0.99988
1 1 1 1
1 1 1 1
1.02417 1.02627 1 0.997955
1.02508 1.02707 1 0.998061
1.02375 1.02602 0.999595 0.998193
1.02082 1.02309 1 0.997785
1.01542 1.01765 1 0.99781
1.02137 1.02364 1 0.997784
1.02259 1.02465 1 0.997995
1.02663 1.02856 0.999981 0.998139
1.02644 1.02911 0.999141 0.998263
1.02275 1.02479 1 0.998007
1.01969 1.02186 1 0.997882
1.02316 1.02606 0.999096 0.998074
1.01948 1.02162 1 0.997898
1.01534 1.01758 1 0.997801
1.01818 1.02036 1 0.997863
1.0132 1.01545 1 0.997784
1.00347 1.0056 1 0.997884
1.01054 1.01274 1 0.997826
1.00232 1.00438 1 0.997954
0.998417 1 1 0.998417
1.0013 1.00327 1 0.998037
0.99849 1 1 0.99849
0.999579 1 1 0.999579
0.998581 1 1 0.998581
0.999606 1 1 0.999606
0.999906 1 1 0.999906
0.999624 1 1 0.999624
0.99992 1 1 0.99992
0.999914 1 1 0.999914
1.01995 1.02214 1 0.997855
1.01196 1.01425 1 0.997737
1.01844 1.02076 1 0.99772
1.00127 1.0032 1 0.998076
1.00918 1.01132 1 0.997881
1.01831 1.02049 1 0.997862
0.998631 1 1 0.998631
0.999612 1.00142 1 0.998196
1.00611 1.00807 1 0.998052
0.999585 1 1 0.999585
0.998751 1 1 0.998751
0.999289 1.00102 1 0.998269
0.998905 1 1 0.998905
0.999662 1 1 0.999662
1 1 1 1
0.999773 1 1 0.999773
1 1 1 1
1 1 1 1
1.02107 1.0232 1 0.99792
1.02371 1.02581 1 0.997954
1.02551 1.02752 1 0.998045
1.02027 1.02254 1 0.997789
1.02049 1.02269 1 0.99785
1.02311 1.02516 1 0.998003
1.02647 1.02839 1 0.998131
1.02287 1.0249 1 0.998019
1.01952 1.02168 1 0.997889
1.01442 1.01665 1 0.99781
1.01937 1.02154 1 0.997877
1.0151 1.01734 1 0.997794
1.00499 1.00716 1 0.997841
1.01285 1.01509 1 0.997787
1.00398 1.00611 1 0.997886
0.998349 1 1 0.998349
1.00281 1.00486 1 0.997953
0.998416 1 1 0.998416
0.999485 1 1 0.999485
0.998489 1 1 0.998489
0.999547 1 1 0.999547
1 1 1 1
0.999599 1 1 0.999599
0.999914 1 1 0.999914
0.999922 1 1 0.999922
1.01894 1.02109 1 0.997892
1.01322 1.01547 1 0.997785
1.01964 1.02184 1 0.997854
1.00346 1.00557 1 0.997897
1.01206 1.01433 1 0.997758
1.01877 1.02109 1 0.997726
0.998452 1 1 0.998452
1.0013 1.00323 1 0.998074
1.00904 1.01118 1 0.99789
0.999549 1 1 0.999549
0.998594 1 1 0.998594
0.999565 1.00141 1 0.998154
1 1 1 1
0.999595 1 1 0.999595
0.998753 1 1 0.998753
0.999672 1 1 0.999672
1 1 1 1
1 1 1 1
1.01992 1.02211 1 0.997857
1.0215 1.02363 1 0.997928
1.02322 1.02532 1 0.997953
1.01541 1.01768 1 0.997763
1.01972 1.02191 1 0.997853
1.02363 1.02567 1 0.998011
1.01936 1.02151 1 0.997896
1.01452 1.01675 1 0.997811
1.00503 1.00716 1 0.997879
1.01481 1.01706 1 0.997788
1.00516 1.00731 1 0.997872
0.99822 1 1 0.99822
1.0045 1.00663 1 0.997888
0.998349 1 1 0.998349
0.999435 1 1 0.999435
0.998416 1 1 0.998416
0.999483 1 1 0.999483
1 1 1 1
0.999511 1 1 0.999511
0.999949 1 1 0.999949
0.99992 1 1 0.99992
1.01707 1.01924 1 0.997869
1.0136 1.01581 1 0.997824
1.01886 1.02101 1 0.997894
1.00427 1.00638 1 0.997902
1.01359 1.01584 1 0.997781
1.01933 1.02153 1 0.997852
0.998349 1 1 0.998349
1.00336 1.00543 1 0.99794
1.01212 1.01437 1 0.997779
0.999521 1 1 0.999521
0.998438 1 1 0.998438
1.00132 1.00325 1 0.998073
1 1 1 1
0.999557 1 1 0.999557
0.998557 1 1 0.998557
1 1 1 1
0.999605 1 1 0.999605
1 1 1 1
1.01563 1.01787 1 0.997796
1.01945 1.02164 1 0.997853
1.02196 1.02407 1 0.997937
1.00446 1.00661 1 0.997859
1.01541 1.01768 1 0.997774
1.019 1.02119 1 0.997857
1.01465 1.01687 1 0.997811
1.00506 1.0072 1 0.997879
0.998174 1 1 0.998174
1.00536 1.00747 1 0.997904
0.998253 1 1 0.998253
0.999369 1 1 0.999369
0.998349 1 1 0.998349
0.999432 1 1 0.999432
1 1 1 1
0.99948 1 1 0.99948
1 1 1 1
0.999908 1 1 0.999908
1.01363 1.01582 1 0.997842
1.0173 1.01946 1 0.997874
1.00381 1.00592 1 0.997907
1.01346 1.01567 1 0.997824
1.01879 1.02094 1 0.997895
0.998362 1 1 0.998362
1.0042 1.00631 1 0.9979
1.01395 1.01621 1 0.997777
0.999484 1 1 0.999484
0.998374 1 1 0.998374
1.00326 1.00529 1 0.997983
1 1 1 1
0.999527 1 1 0.999527
0.998425 1 1 0.998425
1 1 1 1
0.999566 1 1 0.999566
1 1 1 1
1.00413 1.00625 1 0.997894
1.01554 1.01778 1 0.997794
1.01889 1.02108 1 0.997849
0.998168 1 1 0.998168
1.00448 1.00664 1 0.997859
1.01537 1.01762 1 0.997785
1.00509 1.00723 1 0.997879
0.998178 1 1 0.998178
0.999317 1 1 0.999317
0.998286 1 1 0.998286
0.999366 1 1 0.999366
1 1 1 1
0.999429 1 1 0.999429
1 1 1 1
1 1 1 1
1.00354 1.00565 1 0.997898
1.01328 1.01547 1 0.997845
1.01751 1.01968 1 0.99788
0.998336 1 1 0.998336
1.00406 1.00617 1 0.997905
1.01329 1.01551 1 0.997823
0.999441 1 1 0.999441
0.998361 1 1 0.998361
1.00414 1.00626 1 0.997897
1 1 1 1
0.999487 1 1 0.999487
0.9984 1 1 0.9984
1 1 1 1
0.999532 1 1 0.999532
1 1 1 1
0.998248 1 1 0.998248
1.00412 1.00627 1 0.99786
1.01548 1.01773 1 0.997791
0.999307 1 1 0.999307
0.998168 1 1 0.998168
1.00452 1.00667 1 0.997859
0.998182 1 1 0.998182
0.999316 1 1 0.999316
1 1 1 1
0.999363 1 1 0.999363
1 1 1 1
1 1 1 1
0.998296 1 1 0.998296
1.00361 1.00574 1 0.99789
1.01296 1.01514 1 0.997848
0.999481 1 1 0.999481
0.998334 1 1 0.998334
1.00431 1.00642 1 0.997903
1 1 1 1
0.999443 1 1 0.999443
0.998359 1 1 0.998359
1 1 1 1
0.999491 1 1 0.999491
1 1 1 1
0.999308 1 1 0.999308
0.998221 1 1 0.998221
1.0041 1.00629 1 0.997826
1 1 1 1
0.999306 1 1 0.999306
0.998167 1 1 0.998167
0.999314 1 1 0.999314
1 1 1 1
1 1 1 1
0.999432 1 1 0.999432
0.998296 1 1 0.998296
1.00368 1.00581 1 0.997882
1 1 1 1
0.999402 1 1 0.999402
0.998332 1 1 0.998332
1 1 1 1
0.999444 1 1 0.999444
1 1 1 1
0.999825 1 1 0.999825
0.999368 1 1 0.999368
0.998193 1 1 0.998193
1 1 1 1
0.999307 1 1 0.999307
1 1 1 1
0.999843 1 1 0.999843
0.999399 1 1 0.999399
0.998296 1 1 0.998296
0.999926 1 1 0.999926
0.9994 1 1 0.9994
1 1 1 1
1 1 1 1
0.999325 1 1 0.999325
1 1 1 1
0.999918 1 1 0.999918
0.99936 1 1 0.99936
1 1 1 1
1 1 1 1
1 1 1 1

VECTORS lamdaE float
0.999926 1.00016 0.995429
0.99983 1.00028 0.997863
0.999675 1.00034 0.995573
1.0002 0.999926 0.995261
1.00001 0.999975 0.995498
0.999932 1.00028 0.995239
1.00113 1.00048 0.992731
0.999811 1.00015 0.997905
0.999748 1.00023 0.998085
0.999432 1.00063 0.998108
0.999801 0.999991 0.995814
1.00086 1.00122 0.991957
1.00015 1.00001 0.995161
0.999883 0.999973 0.99543
0.999451 1.00055 0.99569
1 0.999903 0.995456
0.999662 1.00056 0.995371
0.999793 1.00005 0.99566
1.00128 1.00031 0.992667
1.00012 1 0.997733
1.00024 0.999983 0.995118
1.00012 0.999889 0.995422
1.0015 0.999981 0.992577
1.0013 1.00012 0.99278
0.999846 1.00013 0.995389
1.00095 1.001 0.992503
1.00365 1.0003 0.988621
0.999759 1.00007 0.997976
0.999877 1.00011 0.996718
0.999629 1.00048 0.996718
0.999745 0.999782 0.998098
1.00076 1.00134 0.991969
1.00013 0.999844 0.995301
0.999881 1.00037 0.995342
1.00159 1.00016 0.992972
0.999441 0.999165 0.998614
1.00126 1.00083 0.992949
1.00052 1.00132 0.992469
1.00252 1.00214 0.988111
0.999532 0.998268 0.998908
1.00016 1.00001 0.997695
1.00002 0.999997 0.996569
1.00013 1 0.997703
0.999852 1.00003 0.99545
1.0017 1.00005 0.99161
0.99992 0.999956 0.998008
1.0018 1.0001 0.992689
0.999803 0.999842 0.995653
0.999589 1.00012 0.995808
0.999398 1.0009 0.995493
1.00142 1.00014 0.992616
1.00002 1.00001 0.99658
1.00003 0.99998 0.995324
0.999618 1.0004 0.995525
0.99993 0.999879 0.995601
1.00158 0.999944 0.992501
1.0011 1.00085 0.99244
1.00141 1.00003 0.992718
1.00363 1.00032 0.98862
1.0001 1 0.997733
1.00022 1.00001 0.995122
1.00153 1.00001 0.993106
1.00155 1.00002 0.992445
1.00143 0.99996 0.992715
1.00393 0.999949 0.988394
1.00378 0.999996 0.988395
0.999714 0.999496 0.9961
1.00032 1.00157 0.992834
1.00338 1.00093 0.988456
1.00473 1 0.986252
1.00003 1.00014 0.997824
0.999664 0.999554 0.998269
0.999816 1.00031 0.997845
1.00068 1.00141 0.991983
1.00015 0.999973 0.997792
0.999934 1.00031 0.997836
1.00149 1.00012 0.991836
0.99953 0.999241 0.997558
1.00106 1.00091 0.991818
1.00038 1.00137 0.993165
1.00255 1.00208 0.988099
0.999619 0.998679 0.998664
0.999656 0.999882 0.995442
1.00168 0.999965 0.991712
1.0014 1.0004 0.991816
1.00393 1.00017 0.987531
1.00009 1.00099 0.994596
1.00324 1.00107 0.987887
1.00153 1.00331 0.988772
1.00356 1.00216 0.986124
0.999511 0.997913 0.999077
0.99948 0.998196 0.998982
1.00018 0.999979 0.997727
1.00017 1.00001 0.997698
1.00015 1 0.997702
1.00001 1.00001 0.996578
1.00173 1.00003 0.992224
1.00004 0.999961 0.996614
1.00174 1.00012 0.992131
1.00014 0.999997 0.997711
1.00164 0.999974 0.991749
1.00179 1.00011 0.992722
1.00411 0.999766 0.987621
1.00175 1.00001 0.992826
1.00413 0.999958 0.987414
1.00011 1.00001 0.995238
0.99982 0.999971 0.995535
0.999353 1.00072 0.995685
0.999738 0.999848 0.995776
1.00166 0.999943 0.992425
1.00151 0.999941 0.992662
1.00125 1.00066 0.992383
1.00362 1.00034 0.988618
1.00013 1 0.997721
1 1.00001 0.995329
1.00164 0.999985 0.992083
1.00163 1.00001 0.992359
0.999597 0.99969 0.997154
1.00057 1.00148 0.992965
1.00152 0.999909 0.992647
1.00395 0.999927 0.988277
1.00334 1.00099 0.988471
1.00377 1.00007 0.98848
1.00473 1.00002 0.986269
1.00161 0.999993 0.991806
1.00154 1 0.992458
1.00401 0.999709 0.988245
1.00399 0.999872 0.988126
1.00388 0.999869 0.988303
1.00497 0.999588 0.986569
0.99959 0.999098 0.998526
1.00482 0.999803 0.986322
0.999943 1.00156 0.993087
1.00229 1.00226 0.988308
1.00459 1.00048 0.986101
1.00515 0.99985 0.985683
0.99981 1.00074 0.9942
1.0002 1.00332 0.991013
1.00013 1.00001 0.997806
0.999893 1.00029 0.997836
1.00149 1.0001 0.991837
0.999578 0.998992 0.99858
1.00017 1.00158 0.99268
1.001 1.00097 0.991829
1.00259 1.00202 0.988088
0.999547 0.998606 0.998757
0.999656 0.999796 0.995486
1.00169 0.999997 0.992321
1.00138 1.00043 0.992401
1.00392 1.00018 0.987532
0.999933 1.00103 0.993789
1.00324 1.00106 0.987891
1.00151 1.00329 0.988773
1.00361 1.00211 0.98613
0.999748 1.00051 0.994665
0.999716 0.999249 0.995969
1.0002 1.00233 0.99206
1.00405 1.00007 0.987433
1.00364 1.00051 0.9877
1.00491 1.00004 0.985947
1.00086 1.00343 0.989879
1.00435 1.00069 0.986071
1.00243 1.00378 0.98659
1.00422 1.00138 0.985853
0.999558 0.997644 0.999143
0.99949 0.997865 0.999102
0.999439 0.998122 0.999036
0.99978 1.00033 0.994683
0.999581 0.998773 0.998676
1.00018 0.999969 0.997764
1.00016 0.999998 0.997702
1.00167 1.00012 0.991564
1.00166 1.00004 0.991661
1.00013 1 0.997707
1.00012 1 0.99771
1.00163 0.999982 0.991745
1.00173 1.0001 0.992148
1.00412 0.999761 0.987619
1.00166 1.00003 0.991651
1.00413 0.999958 0.98741
1.00161 0.999968 0.991788
1.00409 0.999693 0.987726
1.00413 0.999853 0.987502
1.00506 0.999184 0.98657
1.0041 1.00002 0.987392
1.00507 0.999537 0.986206
1.00012 0.999998 0.997713
0.999798 1.00002 0.995535
1.00165 0.999978 0.991151
1.00171 1 0.992271
0.999349 0.999814 0.998405
1.00087 1.00129 0.993087
1.00161 0.999881 0.99258
1.00396 0.999889 0.98816
1.00377 1.00013 0.988566
1.0033 1.00107 0.988485
1.00472 1.00004 0.986286
1.0016 0.99998 0.991806
1.00164 1 0.992362
1.00403 0.999694 0.987941
1.00401 0.99991 0.988191
0.999611 0.999175 0.998463
1.00015 1.0014 0.99354
1.00228 1.00239 0.988559
1.00388 0.999901 0.988287
1.00497 0.999484 0.986509
1.00457 1.00052 0.986005
1.00482 0.99985 0.986443
1.00513 0.999841 0.985713
0.999822 1.00076 0.994196
1.00026 1.0032 0.991024
1.00404 0.999694 0.987818
1.00403 0.999805 0.988138
1.00499 0.999256 0.986843
1.005 0.999304 0.986508
1.00491 0.999598 0.986597
1.0052 0.998805 0.986744
0.999861 1.00112 0.99369
1.00517 0.999355 0.986129
1.00115 1.00328 0.9893
1.00374 1.00197 0.985935
1.00511 1.00051 0.985374
1.00517 0.999319 0.986263
1.00049 1.00329 0.990563
1.0001 1.00275 0.991734
1.00069 1.00428 0.989352
1.00161 0.999977 0.991769
0.999485 0.998514 0.998854
0.999657 0.999704 0.995528
1.00126 1.00048 0.991853
1.00392 1.00019 0.987533
0.999858 1.00109 0.993726
1.00147 1.00327 0.988775
1.00324 1.00105 0.987895
1.00365 1.00204 0.986135
0.999729 1.00045 0.994691
0.999725 0.99917 0.996
1.0001 1.00245 0.992075
1.00404 1.00008 0.987428
1.00365 1.0005 0.987706
1.00491 1.00003 0.985932
1.00077 1.00348 0.989899
1.00439 1.00076 0.986074
1.00245 1.00389 0.986558
1.00428 1.00124 0.985813
0.999825 0.998783 0.996231
1.00044 1.00298 0.990973
1.00007 1.00151 0.993092
1.00037 1.0038 0.990359
1.00499 0.999864 0.985987
1.00472 1.0003 0.985985
1.00514 0.999751 0.985813
1.00147 1.00433 0.987873
1.00483 1.0003 0.985717
1.00307 1.00346 0.98572
1.00499 1.0006 0.985464
1.00027 1.00009 0.99416
1.00001 0.998273 0.996396
0.999642 0.997399 0.999174
0.999558 0.997597 0.999154
0.999478 0.997811 0.999123
0.999789 0.999847 0.995165
0.999569 0.99846 0.998811
0.999787 1.00038 0.994662
0.999611 0.998824 0.998624
1.00166 1.00006 0.991644
1.00168 1.00009 0.99158
1.00413 0.999959 0.987405
1.00412 0.999757 0.987617
1.00164 0.999989 0.991744
1.00015 1 0.997702
1.00163 0.999969 0.991786
1.00409 0.999698 0.987725
1.00413 0.999861 0.987498
1.00506 0.999187 0.986566
1.0041 1.00003 0.987384
1.00507 0.999539 0.986197
1.00406 0.999688 0.987793
1.00505 0.999074 0.986705
1.00508 0.999349 0.98638
1.00521 0.998127 0.987395
1.00504 0.999701 0.986078
1.00522 0.998643 0.986832
1.00161 0.999969 0.991807
1.00172 0.99999 0.992266
1.00404 0.999665 0.987639
1.00403 0.999945 0.988257
0.99964 0.999259 0.998393
1.00035 1.00133 0.993906
1.00235 1.00247 0.988809
1.00388 0.99992 0.98827
1.00497 0.999377 0.98645
1.00482 0.9999 0.986564
1.00456 1.00053 0.985908
1.00512 0.999831 0.985743
0.999841 1.00078 0.994191
1.00033 1.0031 0.991034
1.00404 0.999652 0.98775
1.00404 0.99979 0.988124
1.005 0.999172 0.986917
1.005 0.999408 0.986545
0.999917 1.00111 0.993684
1.00127 1.00322 0.989274
1.00373 1.00201 0.985973
1.00491 0.999653 0.98658
1.0052 0.998665 0.986884
1.00511 1.00049 0.985303
1.00516 0.999351 0.986149
1.00518 0.999288 0.986256
1.00053 1.00321 0.990577
1.00056 1.00427 0.989402
1.00014 1.00273 0.991721
1.005 0.999171 0.986902
1.00501 0.999235 0.98681
1.00518 0.998198 0.987391
1.00522 0.998499 0.986968
1.00518 0.99885 0.986619
1.00517 0.99751 0.988016
1.00071 1.00324 0.990187
1.00517 0.998499 0.986932
1.00228 1.00344 0.987275
1.00471 1.00169 0.984596
1.00517 1.00039 0.985259
1.00512 0.998531 0.987107
1.00013 1.00202 0.992433
1.00105 1.00348 0.989392
1.00019 1.00455 0.989735
1.00109 1.00401 0.989059
1.00403 1.0001 0.987422
0.99973 0.9991 0.996032
0.999707 1.0004 0.994717
1.00003 1.00254 0.99209
1.00366 1.00049 0.987711
1.00492 1.00002 0.985917
1.00068 1.00354 0.98992
1.00247 1.004 0.986526
1.00445 1.00083 0.986078
1.00432 1.00113 0.985772
0.999829 0.998745 0.996244
1.00041 1.00305 0.990976
1.00005 1.0015 0.993121
1.00027 1.00395 0.990347
1.00499 0.999867 0.985974
1.00475 1.00029 0.985979
1.00514 0.999762 0.985799
1.00142 1.00439 0.987896
1.00488 1.00038 0.985742
1.00314 1.00342 0.985685
1.00491 1.00053 0.985488
0.999933 0.998467 0.996344
1.00014 1.00077 0.993733
1.00086 1.00407 0.98926
1.00014 1.00308 0.991488
1.00038 1.00458 0.98957
1.00517 0.999397 0.986133
1.00504 1.00001 0.985673
1.00512 0.999069 0.9865
1.00188 1.00483 0.986675
1.00505 1.00012 0.985578
1.00401 1.00216 0.985029
1.00026 1.00016 0.99411
1.00023 1.00139 0.992969
1.00026 1.00008 0.99419
1.00027 1.0001 0.994159
1.00005 0.998098 0.996974
0.999999 0.998264 0.996671
0.999795 0.997209 0.998112
0.999651 0.997354 0.999179
0.999562 0.997544 0.999163
0.99983 0.999374 0.995576
0.999579 0.998135 0.998938
0.999793 0.9999 0.995139
0.999601 0.998513 0.998764
0.999796 1.00042 0.994641
0.999639 0.99888 0.998571
1.0041 1.00004 0.987375
1.00413 0.999867 0.987494
1.00506 0.999552 0.986187
1.00505 0.999189 0.986563
1.00409 0.999704 0.987723
1.00162 0.999971 0.991784
1.00406 0.999686 0.987793
1.00504 0.999077 0.986705
1.00507 0.999364 0.986373
1.00521 0.998031 0.987507
1.00504 0.999707 0.986067
1.00522 0.998663 0.98682
1.00502 0.999054 0.986769
1.00518 0.997879 0.987734
1.00523 0.998308 0.987156
1.00518 0.996949 0.988596
1.0052 0.999041 0.986484
1.00518 0.997231 0.988228
1.00404 0.999611 0.987683
1.00406 0.999785 0.98811
1.005 0.999097 0.986991
1.005 0.999511 0.986581
0.999985 1.00108 0.993677
1.00131 1.00322 0.989249
1.00372 1.00206 0.98601
1.00491 0.999707 0.986562
1.0052 0.998522 0.987024
1.00516 0.999346 0.986168
1.00508 1.00048 0.985232
1.00518 0.999255 0.986249
1.00057 1.00312 0.990591
1.00052 1.00418 0.989452
1.00018 1.00271 0.991709
1.005 0.999131 0.986839
1.00502 0.999234 0.986801
1.00518 0.998029 0.987565
1.00521 0.998549 0.986946
1.00077 1.0032 0.990167
1.00237 1.00335 0.98725
1.00455 1.00171 0.984758
1.00518 0.998992 0.986524
1.00517 0.997328 0.98823
1.00517 1.00042 0.985138
1.00517 0.998501 0.98695
1.00512 0.998434 0.987235
1.00111 1.00347 0.989394
1.00106 1.00397 0.98905
1.00015 1.00204 0.99242
1.00015 1.00445 0.989848
1.00517 0.99805 0.987577
1.00521 0.998285 0.987373
1.00514 0.997089 0.988453
1.00516 0.996736 0.98878
1.00517 0.997796 0.987711
1.00511 0.996494 0.989135
1.00152 1.00326 0.988798
1.0051 0.997232 0.988207
1.0028 1.00337 0.985895
1.00507 1.00172 0.984209
1.00513 1.00005 0.985459
1.00508 0.998117 0.987525
1.00013 1.0015 0.992961
1.00012 1.00386 0.990555
1.00148 1.00316 0.988994
1.00038 1.00489 0.9892
1.00136 1.00333 0.989305
0.99983 0.998718 0.996257
1.00499 0.999869 0.98596
1.00003 1.00146 0.99315
1.00034 1.00315 0.99098
1.00017 1.00408 0.990334
1.00476 1.00027 0.985973
1.00515 0.999773 0.985785
1.00145 1.00437 0.987921
1.00325 1.00336 0.98565
1.00491 1.00044 0.985766
1.00482 1.00046 0.985512
0.999934 0.998456 0.996349
1.00013 1.00075 0.993746
1.00086 1.00403 0.989273
1.00004 1.00317 0.991494
1.0003 1.00466 0.989505
1.00517 0.999408 0.986118
1.00506 1.00002 0.985653
1.00512 0.999049 0.986469
1.00183 1.00488 0.98669
1.00509 1.00011 0.985595
1.00413 1.00205 0.985056
1.00022 1.00035 0.994001
1.00015 1.00216 0.992384
1.00113 1.00445 0.988363
1.00003 1.00432 0.990487
1.00073 1.00436 0.989373
1.00513 0.998521 0.987043
1.0051 0.999566 0.98597
1.00511 0.998337 0.986938
1.00227 1.00443 0.986194
1.00489 1.00077 0.985019
1.00025 1.00017 0.994107
1.00024 1.00138 0.992882
1.0002 1.00142 0.992926
1.00018 1.00213 0.992449
1.00021 1.00142 0.992988
1.00023 1.00012 0.994194
1.00026 1.00008 0.99419
1.00009 0.998003 0.99698
1.00026 1.00011 0.994158
1.00005 0.998106 0.996975
0.999895 0.996983 0.998138
0.999989 0.998262 0.996942
0.999765 0.997168 0.998654
0.999662 0.99731 0.999184
0.999885 0.998951 0.995906
0.999825 0.999424 0.995555
0.999609 0.997841 0.999032
0.999604 0.998199 0.998894
0.999796 0.999955 0.995114
0.999633 0.998563 0.998714
1.00503 0.999712 0.986057
1.00506 0.999369 0.986366
1.00522 0.998679 0.986809
1.00521 0.997934 0.98762
1.00503 0.999079 0.986706
1.00406 0.999684 0.987792
1.00502 0.999052 0.986771
1.00518 0.997885 0.987741
1.00523 0.99832 0.987155
1.00518 0.996756 0.988803
1.0052 0.999045 0.986463
1.00518 0.997113 0.988349
1.00517 0.997915 0.987741
1.0051 0.996842 0.988832
1.00519 0.996698 0.988804
1.00518 0.995775 0.989719
1.00515 0.997842 0.987674
1.00516 0.996212 0.989293
1.005 0.999087 0.986776
1.00503 0.999241 0.986791
1.00517 0.997856 0.987739
1.00521 0.998596 0.986924
1.00085 1.00317 0.990146
1.00246 1.00328 0.987224
1.00436 1.00167 0.984921
1.00517 0.999137 0.986429
1.00516 0.997145 0.988444
1.00518 0.998503 0.986969
1.00516 1.00047 0.985017
1.00512 0.998341 0.987362
1.00108 1.00351 0.989396
1.0009 1.00406 0.989039
1.00017 1.00205 0.992406
1.00011 1.00439 0.989962
1.00517 0.998055 0.987572
1.0052 0.998349 0.987259
1.00515 0.997003 0.988576
1.00516 0.996827 0.988661
1.00151 1.0034 0.988757
1.00282 1.00339 0.986065
1.00503 1.00161 0.984162
1.00517 0.997956 0.987517
1.00512 0.996264 0.989292
1.00513 1.00007 0.985429
1.00511 0.997252 0.988213
1.00508 0.997908 0.987644
1.00155 1.00313 0.988971
1.00132 1.00323 0.98938
1.00036 1.00496 0.989164
1.00014 1.00149 0.992894
1.00009 1.00376 0.990666
1.00512 0.996863 0.988844
1.00516 0.996553 0.989009
1.00512 0.995705 0.989858
1.00511 0.996389 0.989021
1.00178 1.00365 0.987983
1.00511 0.9968 0.988831
1.00326 1.00322 0.985063
1.00513 1.0016 0.983982
1.00508 0.999563 0.9858
1.00009 1.00098 0.993364
1.0001 1.00312 0.991493
1.00029 1.00438 0.989973
1.00177 1.00271 0.989037
1.00062 1.00477 0.988796
1.00166 1.00239 0.989223
0.999933 0.99845 0.996355
1.00012 1.00073 0.993759
1.00517 0.999419 0.986104
0.999948 1.00328 0.991501
1.00079 1.00407 0.989286
1.00021 1.00473 0.989439
1.0051 1.00002 0.985634
1.00512 0.999029 0.986438
1.00175 1.00495 0.986703
1.00422 1.002 0.985082
1.00512 1.00009 0.985615
1.00021 1.00035 0.994003
1.0001 1.00218 0.992401
1.00111 1.00451 0.988335
0.999919 1.00443 0.990473
1.00064 1.00428 0.98942
1.00513 0.998531 0.987019
1.00512 0.999563 0.985937
1.00511 0.998374 0.986988
1.00228 1.00428 0.986089
1.0049 1.00093 0.984987
1.00022 1.00161 0.992813
0.999851 1.00357 0.991325
1.00149 1.00396 0.988139
1.00005 1.00488 0.989805
1.00116 1.00338 0.989299
1.00511 0.997045 0.988278
1.00511 0.999521 0.98598
1.00508 0.998277 0.986952
1.00345 1.00318 0.985695
1.00505 1.0007 0.984876
1.00025 1.00018 0.994104
1.00024 1.00139 0.992911
1.00006 1.00217 0.992392
1.00018 1.00144 0.992882
1.00019 1.00144 0.992986
1.00011 1.00218 0.992392
1.00002 1.00261 0.992175
1.0001 1.00224 0.992254
1.00016 1.00151 0.992971
1.00019 1.00022 0.994185
1.00023 1.00013 0.994194
1.00012 0.997972 0.996961
1.00025 1.00008 0.994191
1.0001 0.998023 0.996977
0.999968 0.996859 0.998135
1.00006 0.998111 0.996977
0.999884 0.996957 0.998145
0.99973 0.997114 0.999208
0.999941 0.998577 0.996198
0.999879 0.999 0.995884
0.999657 0.997567 0.999103
0.999819 0.999484 0.995534
0.999624 0.997897 0.999005
0.99963 0.99825 0.998849
1.0052 0.99905 0.986443
1.00523 0.998335 0.987154
1.00518 0.996992 0.98847
1.00517 0.99656 0.989011
1.00518 0.99789 0.987748
1.00502 0.999052 0.986772
1.00517 0.997981 0.98766
1.0051 0.99696 0.988732
1.00519 0.996767 0.988726
1.00517 0.995571 0.989909
1.00515 0.997867 0.987665
1.00515 0.995998 0.989456
1.00509 0.997061 0.988715
1.00515 0.995447 0.990088
1.00517 0.99556 0.989902
1.00512 0.996144 0.989358
1.00516 0.998061 0.987567
1.0052 0.99841 0.987146
1.00516 0.996921 0.988699
1.00516 0.996919 0.98854
1.00156 1.00345 0.988717
1.00281 1.00341 0.986235
1.00502 1.00152 0.984115
1.00517 0.998116 0.987323
1.00512 0.996043 0.989447
1.00511 0.997274 0.988218
1.00513 1.00009 0.9854
1.00509 0.997699 0.987763
1.00163 1.00313 0.988947
1.00137 1.003 0.989454
1.00033 1.00502 0.989127
1.00014 1.00147 0.992826
1.00007 1.00368 0.990777
1.00512 0.996904 0.988837
1.00517 0.996608 0.988961
1.00513 0.99578 0.989728
1.00183 1.00367 0.987949
1.00342 1.00325 0.985201
1.00512 1.00155 0.98393
1.00511 0.996419 0.989007
1.00508 0.999357 0.986078
1.0051 0.996753 0.98868
1.0001 1.0009 0.993447
1.00186 1.0026 0.988998
1.00151 1.00228 0.98967
1.00071 1.00484 0.988726
1.00028 1.00443 0.989991
1.0001 1.0031 0.991437
1.00515 0.995945 0.989468
1.00519 0.995453 0.99001
1.00513 0.995332 0.989965
1.00515 0.995689 0.989702
1.00221 1.00347 0.987434
1.00511 0.997625 0.987719
1.00445 1.00308 0.983488
1.00508 1.00163 0.983778
1.00014 1.00028 0.993994
1.0001 1.00245 0.992185
1.00021 1.00378 0.990759
1.00039 1.00501 0.98908
1.00206 1.00205 0.988928
1.00164 1.00336 0.988492
1.00021 1.00034 0.994005
1.00006 1.00218 0.992419
1.00514 0.998541 0.986995
0.999815 1.00453 0.990459
1.0011 1.00455 0.988308
1.00046 1.00415 0.989469
1.00513 0.999559 0.985903
1.00511 0.99842 0.987036
1.00233 1.00417 0.985983
1.00493 1.00108 0.984955
1.00019 1.0016 0.992824
0.999916 1.00352 0.991335
1.00153 1.00402 0.988145
0.999928 1.00495 0.989763
1.00099 1.00321 0.98967
1.00511 0.997034 0.988476
1.0051 0.999507 0.986044
1.0051 0.99835 0.986946
1.00334 1.00328 0.985528
1.00505 1.00073 0.984773
0.999945 1.00247 0.992206
0.999775 1.00457 0.990299
1.00222 1.00314 0.987776
1.00032 1.00427 0.989067
1.00512 0.995579 0.989695
1.00492 0.9976 0.988222
1.00505 0.999648 0.985777
1.00386 1.00173 0.985012
1.00025 1.00138 0.99294
1.00007 1.00218 0.992411
0.999846 1.00285 0.992274
1.00016 1.00148 0.992984
1.00005 1.00222 0.992334
1.00016 1.00152 0.992965
0.999983 1.00259 0.992173
1.00011 1.00224 0.992287
0.999925 1.00276 0.992147
1.00007 1.00269 0.99194
1.00013 1.00233 0.992107
1.00015 1.00161 0.992873
1.00014 1.00031 0.994166
1.00019 1.00021 0.994183
1.00014 0.997972 0.996936
1.00023 1.00012 0.994194
1.00013 0.997998 0.996956
1.00002 0.996777 0.998118
1.0001 0.99804 0.996975
0.999961 0.996825 0.998143
0.999872 0.996934 0.998147
1.00002 0.998213 0.99643
0.999946 0.9986 0.996176
0.999726 0.997258 0.999166
0.999871 0.999053 0.995861
0.999664 0.997619 0.999083
0.999643 0.997948 0.99897
1.00515 0.997892 0.987657
1.00518 0.996839 0.988647
1.00514 0.995788 0.989618
1.00515 0.995382 0.990098
1.0051 0.997081 0.988633
1.00517 0.998049 0.987579
1.00509 0.997039 0.98874
1.00514 0.995576 0.98998
1.00518 0.995554 0.989882
1.00513 0.996108 0.989426
1.00515 0.995821 0.989765
1.00521 0.995074 0.990398
1.00516 0.995171 0.990101
1.00512 0.996945 0.98883
1.00518 0.996661 0.988912
1.00514 0.995853 0.9896
1.00187 1.00369 0.987914
1.00363 1.00328 0.985338
1.00511 1.00153 0.983878
1.00512 0.996445 0.988994
1.00509 0.996703 0.988529
1.00508 0.999155 0.986356
1.00195 1.0025 0.988959
1.00131 1.00221 0.990118
1.00082 1.00491 0.988657
1.00011 1.00083 0.99353
1.00024 1.00443 0.990009
1.0001 1.00307 0.99138
1.00516 0.996027 0.989516
1.00519 0.995407 0.990068
1.00513 0.995343 0.989997
1.00223 1.00351 0.987385
1.00417 1.00305 0.983917
1.00505 1.00145 0.984083
1.00514 0.995737 0.989637
1.00511 0.997583 0.987672
1.00013 1.00025 0.994137
1.0001 1.00245 0.992181
1.00185 1.00203 0.98907
1.00153 1.00345 0.988901
1.00036 1.00492 0.989267
1.00019 1.0038 0.990688
1.00519 0.995058 0.990435
1.00515 0.994956 0.990377
1.00512 0.995172 0.990192
1.00512 0.995883 0.989397
1.0024 1.00292 0.986852
1.00493 1.00017 0.985433
1.00502 1.0033 0.98312
1.00019 0.999886 0.994514
1.00019 1.00108 0.993362
1.00011 1.00172 0.992717
1.00004 1.00338 0.991336
1.00007 1.00449 0.990048
1.00009 1.00481 0.989352
1.00245 1.00094 0.988935
1.00162 1.00335 0.98959
1.00017 1.00161 0.992834
0.999976 1.00351 0.991345
1.00511 0.997028 0.988674
0.999974 1.00503 0.989719
1.00154 1.00413 0.988152
1.00077 1.00311 0.990039
1.00509 0.999475 0.98611
1.00511 0.99841 0.98694
1.00324 1.00334 0.985365
1.00506 1.00074 0.984671
0.99997 1.00253 0.992135
0.999851 1.00451 0.990324
1.00211 1.0032 0.987886
1.00062 1.00434 0.98913
1.00513 0.995452 0.98986
1.005 0.997619 0.98802
1.00505 0.999612 0.985808
1.00421 1.00188 0.984863
0.999801 1.00333 0.991683
1.0051 0.995182 0.990167
1.00039 1.00499 0.989506
1.0022 1.00346 0.987346
1.00495 0.996044 0.989842
1.00482 0.99874 0.986458
1.00466 1.00122 0.985053
1.00007 1.00222 0.99243
0.99983 1.00282 0.992252
0.999583 1.00332 0.992254
1.00017 1.00149 0.992959
1.00011 1.00224 0.99232
0.999896 1.00262 0.992171
1.00016 1.0016 0.992861
1.00011 1.00233 0.992129
0.999852 1.00282 0.99213
1.00011 1.00263 0.991977
1.00007 1.00264 0.992118
1.00002 1.00279 0.99194
1.00015 1.00286 0.991662
1.00025 1.00239 0.991891
1.00018 1.00172 0.992723
1.0001 1.00041 0.994121
1.00013 1.00032 0.994164
1.00015 0.998011 0.996889
1.00019 1.00022 0.994181
1.00014 0.998004 0.996931
1.00006 0.996716 0.998103
1.00013 0.998025 0.996953
1.00002 0.996742 0.998124
0.999954 0.996794 0.998147
1.00018 0.999802 0.994626
1.00008 0.997968 0.99658
1.00002 0.998232 0.996415
0.999813 0.996981 0.99921
0.999949 0.998632 0.996154
0.999726 0.997333 0.999148
0.999673 0.997677 0.999062
1.00514 0.99607 0.989494
1.00518 0.99555 0.989862
1.00513 0.995684 0.989871
1.00509 0.997013 0.988765
1.00515 0.995733 0.98988
1.00522 0.995064 0.990402
1.00515 0.995222 0.990104
1.00521 0.994918 0.99051
1.00519 0.994952 0.990448
1.0049 0.995065 0.990868
1.00517 0.996108 0.989563
1.00518 0.995349 0.990125
1.00514 0.995357 0.990029
1.00225 1.00353 0.987337
1.00386 1.00304 0.984347
1.00501 1.00126 0.984388
1.00514 0.99579 0.989573
1.00512 0.997542 0.987626
1.00166 1.00204 0.989213
1.00148 1.00349 0.989307
1.00023 1.00487 0.989454
1.00013 1.00021 0.99428
1.00013 1.00243 0.992177
1.00017 1.00386 0.990617
1.00519 0.995036 0.990404
1.00017 0.999902 0.994511
1.00016 1.0011 0.9933
1.00515 0.994973 0.990392
1.00511 0.995175 0.990171
1.00216 1.00312 0.987302
1.00472 1.00316 0.983254
1.00496 1.00005 0.985363
1.0051 0.995992 0.98929
1.00012 1.0017 0.992894
1.00007 1.00333 0.99132
1.00266 1.00127 0.988711
1.00107 1.00333 0.98994
1.00016 1.00477 0.989492
1.00003 1.00452 0.990133
1.00519 0.994949 0.990347
1.00509 0.994862 0.990574
1.00509 0.995106 0.990008
1.00492 0.996516 0.988821
1.00227 1.00258 0.987821
1.00453 1.0031 0.984038
1.00012 1.00112 0.993271
1.00017 1.00121 0.993256
1.00023 1.00191 0.992596
1.00008 1.00289 0.991554
0.999956 1.00401 0.990949
1.00052 1.00451 0.989416
0.999619 1.00495 0.989865
1.00184 1.00098 0.990053
0.999997 1.00257 0.992065
0.999946 1.00441 0.990351
1.00515 0.995313 0.990024
1.00505 0.997667 0.987819
1.0009 1.00441 0.989192
1.00201 1.00321 0.987993
1.00506 0.999578 0.985837
1.00456 1.00205 0.984713
0.999846 1.00333 0.991641
1.00511 0.995024 0.990309
1.00018 1.00489 0.989618
1.00223 1.0033 0.987228
1.00498 0.995939 0.989763
1.00473 0.998825 0.986693
1.00468 1.00137 0.985094
0.99985 1.00447 0.990814
1.00454 0.995002 0.991912
1.00138 1.00425 0.989015
1.00296 1.00333 0.986686
1.0048 0.996707 0.989045
1.00408 1.00066 0.986098
0.999515 0.996867 0.991691
0.999798 1.00282 0.992231
0.999498 1.0034 0.992248
0.999792 1.00342 0.991961
1.00016 1.00162 0.992848
1.0001 1.00236 0.992151
1.00015 1.00258 0.992015
0.999809 1.00281 0.992113
1.00018 1.00172 0.992721
1.00023 1.00243 0.991885
1.00005 1.00272 0.991987
1.00013 1.00289 0.991665
1.00007 1.00273 0.991933
1.00016 1.00252 0.992017
1.00026 1.00302 0.991328
1.0002 1.00292 0.991543
1.00035 1.00251 0.991626
1.00021 1.00179 0.992487
1.00027 1.00234 0.992066
1.00021 1.00186 0.992397
1.0001 1.00045 0.994071
1.0001 1.00041 0.994119
1.00017 0.998096 0.996285
1.00014 1.00031 0.994162
1.00016 0.998051 0.996607
1.00003 0.996668 0.999185
1.00014 0.998038 0.996928
1.00006 0.996678 0.998108
1.00002 0.996707 0.998128
1.00014 0.999743 0.994725
1.00018 0.999781 0.994631
1.0001 0.997821 0.996694
1.00006 0.997973 0.996832
0.999888 0.996774 0.999245
1.00003 0.998246 0.9964
0.999805 0.997046 0.999199
0.999727 0.997396 0.999129
1.00515 0.995273 0.990108
1.00522 0.995047 0.990406
1.00515 0.995657 0.989996
1.00521 0.994919 0.990505
1.00517 0.994958 0.990431
1.00491 0.995201 0.990541
1.0052 0.994949 0.990399
1.00088 0.995453 0.988447
1.0041 0.994944 0.993484
1.00006 1.00113 0.993501
1.00518 0.995016 0.990375
1.00515 0.995006 0.990406
1.00511 0.995178 0.990149
1.00192 1.00327 0.987751
1.00438 1.0031 0.983387
1.005 0.999941 0.985295
1.00507 0.996116 0.989182
1.00295 1.00143 0.988491
1.00048 1.00334 0.990294
1.00026 1.00469 0.989634
1.00016 0.999932 0.994508
1 1.00456 0.990218
1.00011 1.00167 0.993071
1.0001 1.00331 0.991303
1.00015 1.0011 0.993239
1.00519 0.994943 0.990367
1.00012 1.0011 0.993367
1.00016 1.00123 0.993253
1.00023 1.00191 0.992504
1.00507 0.994882 0.99056
1.0051 0.995203 0.989947
1.00241 1.00252 0.98785
1.00423 1.00265 0.984477
1.00484 0.996865 0.988753
1.00005 1.00291 0.991664
1 1.00402 0.990777
1.00172 1.00157 0.989907
0.999918 1.0048 0.989917
1.00046 1.00436 0.989513
1.00514 0.994939 0.990548
1.0051 0.994878 0.990524
1.00505 0.996048 0.989163
1.00458 0.998698 0.988306
1.00149 1.0029 0.989136
1.00011 1.00211 0.992302
1.00025 1.0021 0.992055
1.00006 1.00285 0.991722
0.999903 1.00413 0.991079
0.999978 1.00438 0.990376
0.999999 1.00459 0.989771
1.00023 1.00383 0.990293
0.999915 1.00332 0.991596
0.999929 1.00479 0.989731
1.00513 0.994943 0.990447
1.00502 0.995818 0.989683
1.00469 0.998878 0.986928
1.00227 1.00312 0.987111
1.00473 1.00151 0.985136
0.999841 1.00441 0.99094
1.00444 0.995004 0.992027
1.00102 1.00414 0.989173
1.00271 1.0034 0.986669
1.00475 0.996535 0.989378
1.00421 1.00063 0.986056
0.999522 0.996935 0.989707
0.999982 1.00443 0.990635
1.00359 0.996171 0.992123
1.00096 1.00381 0.989366
1.00259 1.00224 0.987388
1.00405 0.997932 0.988138
1.00036 0.99561 0.955111
0.996722 0.99564 0.974273
0.997356 1.00245 0.990655
0.999806 0.996847 0.910129
0.994746 0.997981 0.890095
0.999429 1.00344 0.992242
0.999568 1.0036 0.992012
0.999965 1.00273 0.992204
1.00018 1.00171 0.992719
1.00027 1.00236 0.991877
1.00013 1.0029 0.991668
1.00013 1.00268 0.991926
1.00003 1.00283 0.991857
1.00023 1.00287 0.991497
1.00021 1.00177 0.992558
1.00034 1.0025 0.991641
1.00017 1.00253 0.991957
1.00021 1.00304 0.991393
1.00027 1.00304 0.991382
1.00004 1.00281 0.991736
1.00033 1.00296 0.991288
1.00037 1.00248 0.991558
1.00023 1.00186 0.992384
1.00035 1.00249 0.991716
1.00027 1.00254 0.991802
1.00013 1.00236 0.992142
1.00026 1.00236 0.992
1.00022 1.00169 0.992672
1.00022 1.00187 0.992388
1.00014 1.00044 0.99403
1.0001 1.00046 0.994069
1.00016 0.998166 0.996258
1.0001 1.00042 0.994118
1.00017 0.998106 0.996283
1.00004 0.996676 0.999176
1.00017 0.998089 0.996325
1.00006 0.99667 0.998629
1.00006 0.996641 0.998112
1.0001 0.999739 0.994809
1.00015 0.999741 0.994725
1.00012 0.997717 0.996768
1.00018 0.999758 0.994635
1.0001 0.997788 0.996949
0.999943 0.996602 0.999273
1.00007 0.998011 0.996548
0.999876 0.996858 0.999228
0.999799 0.997101 0.999187
1.00516 0.994967 0.990413
1.00521 0.994921 0.990499
1.00491 0.995285 0.990213
1.00073 0.995597 0.988549
1.00518 0.994948 0.990386
1.004 0.995424 0.993008
1.00492 0.996303 0.991205
0.99721 0.995721 0.972789
1.00099 0.996361 0.990035
1.00008 1.00117 0.993457
1.00011 1.00109 0.993496
1.00001 1.00215 0.992569
1.00007 1.00209 0.992556
1.00518 0.994925 0.990386
1.00505 0.99489 0.990545
1.0051 0.995294 0.989885
1.00276 1.0023 0.98788
1.00392 1.00202 0.984912
1.0048 0.997233 0.988681
1.0015 1.0023 0.989759
1.00028 1.00468 0.989967
1.00038 1.00419 0.989609
1.00013 1.00129 0.993249
1.00002 1.004 0.990604
1.00006 1.00291 0.991775
1.00012 1.0011 0.993464
1.00018 1.00195 0.992409
1.00515 0.994927 0.990534
1.00009 1.00216 0.992421
1.00023 1.00213 0.992202
0.999952 1.00271 0.992012
1.0051 0.994874 0.99045
1.005 0.995886 0.989184
1.0019 1.00237 0.989057
1.00428 0.998535 0.988622
0.999954 1.00401 0.991009
1.00012 1.00441 0.990044
1.00022 1.00413 0.990288
1.00037 1.00448 0.989715
1.00477 0.994802 0.991316
1.00508 0.995423 0.990189
1.00499 0.996691 0.989059
1.00225 1.00029 0.990637
1 1.00328 0.991388
1.00007 1.00339 0.991155
0.999482 1.00452 0.991048
0.999665 1.00516 0.990042
1.00001 0.994929 0.949321
0.99981 1.00434 0.991066
1.00058 1.00409 0.98933
1.00438 0.994952 0.992138
1.00468 0.996384 0.989711
1.00432 1.00056 0.986012
1.00242 1.00349 0.986649
0.999651 0.996739 0.98767
0.999846 1.00456 0.990728
1.00377 0.9959 0.99213
1.00083 1.00389 0.989415
1.00287 1.00191 0.987368
1.00429 0.998006 0.988234
1.00152 0.995859 0.947889
0.996531 0.995723 0.970201
0.997262 1.00222 0.990433
0.999789 0.997562 0.913115
0.994725 0.997901 0.881036
0.999798 1.00367 0.991658
0.999875 0.995308 0.918525
0.995345 0.997536 0.89179
1.00231 1.0002 0.990645
1.00042 1.00365 0.990324
1.00243 1.00082 0.988365
0.996854 1.00368 0.990365
1.00013 0.997196 0.953025
0.994904 0.997046 0.968207
0.998382 0.998792 0.916426
0.994777 0.999268 0.888817
0.999386 1.00378 0.992064
0.999852 1.00296 0.992131
0.999788 1.00202 0.993498
1.00022 1.00173 0.992629
1.00034 1.00252 0.991656
1.00015 1.00294 0.991451
1.00016 1.00305 0.991459
1.00018 1.00252 0.991896
1.00024 1.00183 0.992394
1.00022 1.00311 0.99133
1.00032 1.00294 0.991309
1.00039 1.00246 0.991615
1.00006 1.00274 0.991804
1.00019 1.00314 0.99147
0.999839 1.00288 0.991883
1.00043 1.00292 0.991094
1.00042 1.00253 0.991549
1.00038 1.00247 0.9917
1.00027 1.00254 0.991812
1.00046 1.00255 0.991478
1.0001 1.00274 0.991846
1.00012 1.00245 0.991891
0.999743 1.00364 0.991497
0.999991 1.00262 0.992127
1.00014 1.00238 0.992138
1.00017 1.00165 0.992796
1.00025 1.00238 0.991934
1.00023 1.0017 0.992611
1.00019 1.00038 0.994013
1.00022 1.00188 0.992379
1.00014 1.00044 0.994031
1.00012 0.998174 0.996832
1.0001 1.00047 0.994067
1.00015 0.998151 0.996545
1.00009 0.996707 0.99803
1.00017 0.998117 0.996282
1.00004 0.996685 0.999173
1.00009 0.996675 0.998073
1.00011 1.00126 0.99332
1.00007 0.999782 0.994818
1.0001 0.99973 0.994811
1.00013 0.997678 0.99679
1.00015 0.999738 0.994725
1.00013 0.997691 0.996768
0.999987 0.996497 0.999285
1.00008 0.997795 0.997182
0.999958 0.996675 0.998763
0.999919 0.996909 0.998194
1.00043 0.995714 0.988675
1.00517 0.994952 0.990375
1.00389 0.996124 0.992531
0.996644 0.995566 0.974256
1.00078 0.996281 0.990295
1.00499 0.99574 0.990967
1.0034 0.996774 0.989605
0.997023 0.996774 0.976977
1.00006 0.995601 0.953218
0.999368 0.998121 0.91949
0.994661 0.997992 0.888777
0.999965 1.00214 0.992497
1.00009 1.00116 0.993456
1.00014 1.00104 0.99349
1.00002 1.00216 0.992526
0.999955 1.00297 0.991891
1.00016 1.00266 0.991891
1.00008 1.00236 0.992299
1.00002 1.00219 0.992485
1.00517 0.994902 0.990518
1.00509 0.99487 0.990371
1.00503 0.995628 0.989208
1.0021 1.00202 0.988979
1.00399 0.998472 0.988939
1.00021 1.00434 0.990284
1.00069 1.00441 0.98966
1.00031 1.00443 0.989715
1.00017 1.00213 0.992349
0.999961 1.00399 0.990939
1.00009 1.00223 0.992541
0.999961 1.00253 0.992303
1.00478 0.994826 0.991367
0.99999 1.00329 0.991468
1.00006 1.00338 0.991314
1.00503 0.995232 0.9901
1.00445 0.996406 0.989517
1.00222 1.00024 0.99049
0.999723 1.00469 0.99063
0.999956 1.00484 0.990099
1.00324 0.996787 0.991864
1.00466 0.995919 0.990849
1.00395 0.995745 0.991099
1.00132 1.00103 0.990844
1.00002 1.004 0.990654
0.999684 1.00438 0.990809
0.999683 1.00518 0.990336
0.999916 0.994856 0.91942
1.00052 0.99508 0.957663
0.999764 1.00471 0.990821
1.00073 1.00387 0.989466
1.00385 0.995669 0.99214
1.00452 0.998139 0.98833
1.00316 1.00165 0.987352
1.00051 0.995209 0.95345
0.99702 0.996027 0.969466
0.997128 1.00201 0.990185
0.998982 0.997281 0.921039
0.994706 0.997865 0.871807
0.99975 1.00364 0.991675
0.999887 0.995876 0.917497
0.995337 0.997476 0.88728
1.00227 1.00005 0.990679
1.00037 1.00356 0.990398
1.00237 1.00093 0.988913
0.997205 1.0034 0.990993
1.00127 0.99703 0.94749
0.994902 0.99641 0.972013
0.998552 0.999367 0.916993
0.994934 0.999096 0.886701
0.999365 1.0031 0.993292
0.995589 0.996932 0.892176
0.995129 0.998956 0.906911
0.999752 1.00185 0.992773
0.99946 1.00372 0.992285
0.996283 1.00289 0.991666
0.994816 0.999282 0.971623
0.998184 0.999127 0.945599
0.995238 0.99988 0.922433
0.994799 0.996832 0.89589
0.999832 1.0031 0.992059
0.999899 1.00178 0.993453
0.999328 1.0018 0.993922
1.00024 1.00181 0.992404
1.00038 1.00244 0.991671
1.00031 1.00291 0.99133
1.00018 1.00318 0.991279
1.00003 1.00271 0.991872
1.00042 1.00254 0.991541
1.00019 1.00308 0.991424
1.00044 1.00292 0.991103
0.999634 1.00308 0.992011
0.998047 1.00412 0.993618
1.00022 1.00328 0.991208
1.00058 1.00287 0.990993
1.0004 1.00245 0.991685
1.00029 1.00252 0.991822
1.00044 1.00258 0.991465
1.00012 1.00275 0.991826
1.00016 1.00242 0.99196
0.999888 1.00321 0.991697
1.00019 1.00257 0.991715
0.999973 1.00263 0.992061
1.0002 1.00291 0.991523
0.999763 1.00494 0.989809
0.999524 1.00409 0.991232
0.999777 1.00364 0.991491
0.999878 1.00294 0.991997
1.00001 1.00262 0.992122
1.0001 1.00172 0.992825
1.00014 1.00241 0.992134
1.00018 1.00164 0.9928
1.00023 1.00028 0.994022
1.00025 1.0017 0.99255
1.00019 1.00036 0.994019
1.00012 0.998179 0.996836
1.00013 1.00045 0.994033
1.00014 0.998154 0.996549
1.00006 0.99671 0.998044
1.00016 0.998129 0.996259
1.00003 0.996714 0.999167
1.00004 0.996696 0.999171
1.00014 1.00137 0.993363
1.00008 0.99986 0.994732
1.0001 1.00126 0.993324
1.00014 0.997667 0.996784
1.00007 0.999772 0.99482
1.0001 0.999728 0.994812
1.00014 0.99767 0.996787
1.00002 0.996439 0.999287
1.00011 0.997676 0.997248
1.00001 0.996513 0.998796
0.999986 0.996669 0.99828
0.999841 0.996076 0.911917
0.994986 0.997294 0.890998
0.997662 0.995419 0.974699
1.00062 0.995658 0.990569
1.00506 0.994983 0.990732
0.996584 0.995737 0.978345
1.00353 0.996078 0.989903
1.00112 0.995955 0.952654
0.999818 0.99747 0.911577
0.994681 0.99791 0.879594
0.998462 0.995244 0.981941
0.999856 0.997751 0.953542
0.998359 0.998853 0.915523
0.994772 0.998384 0.88809
1.00006 1.00308 0.991565
0.999976 1.00215 0.99257
1.00011 1.00112 0.993456
1.00003 1.00214 0.992484
0.999944 1.00288 0.991988
1.00018 1.00303 0.991494
1.00015 1.00264 0.991896
1.00018 1.00264 0.991779
1.0001 1.00234 0.992218
0.999983 1.00227 0.992416
1.00477 0.994878 0.991425
1.00511 0.995102 0.990029
1.00382 0.996225 0.989982
1.0021 1.0004 0.990343
1.00025 1.00462 0.990155
0.999934 1.00487 0.990211
1.00003 1.00333 0.991475
0.999929 1.00332 0.991548
1.00333 0.996236 0.992094
0.999982 1.00412 0.990584
0.999676 1.00449 0.990688
1.00462 0.995859 0.990579
1.00339 0.995806 0.991943
1.00171 1.00116 0.990199
0.999905 1.00516 0.990166
1.00041 0.998018 0.993008
1.00218 0.996365 0.99464
0.999849 1.00335 0.990898
0.999848 1.00443 0.990436
0.999806 1.00469 0.990247
0.999565 1.00512 0.990388
0.994788 0.997009 0.906399
0.999898 0.994891 0.92244
1.00002 0.994939 0.94924
0.999592 1.00381 0.991693
1.00031 1.00344 0.990471
1.00228 0.99972 0.99072
1.00237 1.00102 0.989456
0.999855 0.99556 0.92313
0.999907 0.997063 0.947561
0.994896 0.995696 0.968324
0.997541 1.00232 0.991568
0.998521 0.998864 0.908344
0.995341 0.997355 0.888555
0.994994 0.998902 0.891772
0.999093 1.00307 0.993293
0.995493 0.996185 0.897661
0.995357 0.999121 0.906385
1.00006 1.00183 0.992691
0.999157 1.00379 0.99228
0.996095 1.00047 0.994447
0.994844 0.998361 0.970282
0.997432 0.999013 0.953815
0.997296 0.9999 0.913606
0.994793 0.996794 0.901168
0.998048 1.003 0.995421
0.995283 0.996775 0.917819
0.994716 0.996736 0.917894
0.995977 1.00229 0.999227
0.994806 0.999971 0.978148
0.995406 0.99999 0.953893
0.994814 0.999925 0.911687
0.994872 0.99486 0.898917
0.99999 1.00157 0.993407
0.999425 1.00177 0.994147
0.997719 1.00359 0.995465
1.00041 1.00256 0.991533
1.00046 1.00291 0.991111
1.00021 1.00297 0.991378
0.999453 1.00327 0.992143
1.00052 1.00292 0.990975
1.00018 1.00333 0.991206
0.998042 1.00401 0.994036
0.996186 1.00521 0.996297
0.998573 1.00428 0.993169
1.00037 1.00312 0.991147
1.00045 1.00259 0.991451
1.00012 1.00276 0.991807
1.00017 1.00243 0.992027
1.00019 1.00258 0.991754
0.999902 1.00323 0.991699
1.00001 1.00264 0.992085
1.00009 1.0029 0.991819
0.999424 1.00242 0.993098
1.00101 1.00085 0.991894
1.00023 1.00278 0.991638
0.999966 1.00396 0.990607
1.00116 1.0049 0.987815
0.999794 1.00467 0.990763
0.999617 1.00492 0.990207
0.999622 1.00405 0.991295
0.99974 1.0033 0.991691
0.999813 1.00365 0.991485
0.999936 1.00289 0.991995
1.00005 1.00193 0.992714
1.00007 1.00259 0.992116
1.00013 1.00172 0.992821
1.00023 1.00029 0.994012
1.0002 1.00164 0.992805
1.00023 1.0003 0.994024
1.0001 0.998182 0.996855
1.00019 1.00036 0.994023
1.00013 0.998163 0.996558
1.00001 0.996797 0.998048
1.00016 0.998129 0.996263
1.00004 0.996727 0.998605
1.00003 0.996719 0.999169
1.00016 1.00164 0.992884
1.00011 0.999956 0.994587
1.0001 1.00141 0.9932
1.00015 0.997698 0.996736
1.00008 0.999852 0.994734
1.00007 1.0013 0.993326
1.00003 0.996414 0.999286
1.00014 0.997665 0.996785
1.00008 0.999755 0.994823
1.00014 0.997663 0.996785
1.00002 0.996451 0.999287
0.999986 0.996504 0.999285
0.994899 0.995386 0.899392
0.999868 0.995614 0.916717
0.995196 0.999324 0.906437
0.995177 0.997551 0.888416
0.996949 0.995215 0.97555
1.00355 0.996077 0.990221
1.00038 0.996454 0.951582
0.999806 0.99703 0.920261
0.994707 0.997971 0.870317
0.998365 0.996009 0.980909
1.00124 0.997442 0.944302
0.998561 0.999195 0.916185
0.994781 0.998889 0.88326
0.995419 0.996814 0.976399
0.997829 0.998979 0.946158
0.995845 0.99969 0.909442
0.994819 0.996359 0.890389
1.00004 1.00371 0.991009
1.00003 1.00305 0.991668
0.999952 1.0022 0.992641
0.999914 1.00278 0.992085
1.00032 1.00329 0.990879
1.00017 1.00296 0.991573
1.00011 1.00264 0.991901
1.00033 1.00267 0.991626
1.00022 1.00259 0.991869
1.00012 1.00234 0.992137
1.00352 0.995936 0.992307
1.00446 0.995752 0.990313
1.00303 0.995799 0.992777
1.00218 1.00101 0.989568
1.00005 1.00512 0.989998
0.999746 1.0046 0.990568
0.999979 1.00418 0.990514
0.999974 1.00439 0.99038
1.00068 0.997942 0.993323
0.999906 1.00474 0.990232
0.999762 1.00512 0.99037
1.00235 0.996329 0.994159
1.00045 1.00326 0.990748
0.998629 0.997117 0.994568
0.998488 0.998383 0.999521
0.998962 1.00473 0.991577
0.999978 1.00482 0.98991
0.999551 1.00504 0.990438
0.99478 0.996716 0.923566
0.994774 0.996799 0.904622
0.999886 0.994866 0.914539
0.998848 1.00302 0.993295
0.998962 1.00388 0.992259
1.00027 1.00192 0.992621
0.995469 0.995352 0.89878
0.997838 0.998913 0.946369
0.994855 0.997509 0.970759
0.996234 0.999305 0.997441
0.995996 0.999905 0.922376
0.995703 0.999307 0.905872
0.994821 0.99674 0.901322
0.997951 1.00305 0.995642
0.995375 0.995821 0.920632
0.994708 0.996667 0.917885
0.996208 1.00264 0.998331
0.994834 0.999792 0.979409
0.996152 0.999952 0.946293
0.994855 0.995465 0.899912
0.994858 0.999945 0.917906
0.996117 1.00433 0.998034
0.994591 0.994647 0.938398
0.994742 0.995673 0.92154
0.994811 0.99648 0.890691
0.994927 1.00101 0.993779
0.995147 0.999894 0.956855
0.994929 0.999976 0.916352
0.99959 1.00176 0.994372
0.998026 1.0036 0.994889
0.995578 1.00523 0.99794
1.0005 1.00295 0.990958
1.00011 1.00336 0.991203
0.998012 1.0039 0.994443
1.00028 1.00303 0.991218
0.998618 1.00413 0.993162
0.996238 1.00451 0.996818
0.995964 1.0051 0.99721
0.998819 1.00335 0.993274
1.00018 1.00258 0.991794
0.999912 1.00324 0.991701
1.00006 1.00264 0.992111
0.999569 1.00254 0.992987
1.00007 1.00281 0.991818
0.999803 1.00228 0.992835
1.0004 1.00128 0.992604
1.0008 1.00279 0.990176
1.0003 1.00263 0.991755
1.00033 1.00388 0.990419
1.0015 1.00391 0.987606
1.00158 1.00443 0.987258
1.00006 1.00491 0.989844
1.00096 1.00487 0.987956
0.999874 1.00385 0.991187
0.999717 1.00472 0.990694
0.99946 1.00495 0.990604
0.999721 1.00402 0.991359
0.999787 1.00323 0.991776
1.00002 1.00216 0.992525
0.999986 1.00284 0.991994
1.00008 1.00191 0.992715
1.0002 1.00043 0.993938
1.00015 1.00171 0.992818
1.00024 1.00029 0.99401
1.00006 0.998215 0.996878
1.00024 1.00029 0.994027
1.00011 0.998168 0.99658
0.999952 0.996889 0.99807
1.00015 0.99812 0.996277
0.999993 0.996806 0.998607
0.999999 0.996772 0.999171
1.00024 1.00183 0.992347
1.00016 1.00017 0.994091
1.00016 1.00165 0.992883
1.00016 0.997792 0.996621
1.00011 0.999966 0.99446
1.00009 1.00143 0.993038
1.00003 0.996455 0.999271
1.00015 0.997698 0.99674
1.00008 0.999841 0.994736
1.00003 0.996423 0.999286
1.00014 0.997662 0.996786
1.00001 0.996456 0.999287
0.994934 0.995114 0.920814
0.994886 0.995952 0.903349
0.999851 0.99608 0.917747
1.00043 1.00272 0.991294
0.994726 0.997578 0.921939
0.99524 0.999005 0.906048
0.995305 0.997464 0.89195
0.998442 0.996472 0.979484
0.99958 0.99794 0.953239
0.998399 0.99859 0.907039
0.994754 0.999287 0.88585
0.996229 0.996812 0.972487
0.997483 0.99884 0.953559
0.997262 0.9999 0.913057
0.994809 0.996922 0.892162
0.994886 0.997814 0.968636
0.995409 0.999971 0.952665
0.994866 0.999939 0.917607
0.994864 0.995259 0.898727
1.00021 1.00405 0.990337
1.00006 1.00375 0.990911
1.00004 1.00301 0.99177
1.00034 1.00325 0.99087
1.00031 1.00326 0.990998
1.00016 1.00289 0.991653
1.00035 1.00265 0.991658
1.00024 1.00255 0.99196
1.00083 0.997892 0.993608
1.00248 0.996355 0.993653
1.00004 1.00436 0.990322
1.00101 1.00317 0.990586
0.999999 1.00513 0.99035
0.999915 1.00477 0.990216
0.999991 1.00479 0.989998
0.998314 0.997776 0.995082
0.999723 1.00507 0.990352
0.999501 1.00412 0.991636
0.998594 0.998057 0.999541
0.999956 1.00478 0.989973
0.996897 0.998512 0.995093
0.996511 0.999604 1.00205
0.999051 1.00528 0.991234
0.999905 1.00498 0.990282
0.994598 0.994847 0.943021
0.994776 0.996911 0.923965
0.994757 0.996868 0.90285
0.997777 1.00311 0.995885
0.996172 1.00264 0.997415
0.995374 0.994998 0.923392
0.995472 0.999992 0.954367
0.994837 0.999021 0.976183
0.994848 0.999932 0.91705
0.994702 0.996613 0.917874
0.994843 0.996057 0.900889
0.996301 1.00417 0.997741
0.994604 0.994694 0.93831
0.994727 0.99541 0.925787
0.99489 1.00191 0.997043
0.994803 0.99707 0.892377
0.995057 0.99928 0.952259
0.995127 0.999975 0.920618
0.995142 1.00467 0.998469
0.994637 0.994647 0.943028
0.994714 0.997749 0.922127
0.994765 0.998612 0.888341
0.995869 0.99995 0.916899
0.994908 0.998757 0.986502
0.995545 1.00086 0.944588
0.998317 1.00352 0.994305
0.995653 1.00523 0.997616
0.994918 1.00506 0.999969
1.0002 1.00294 0.99129
0.99864 1.00413 0.993155
0.996289 1.00359 0.997335
0.998947 1.00345 0.993207
0.996174 1.00407 0.997228
0.997751 1.00368 0.995561
0.999738 1.00265 0.992875
0.999994 1.00276 0.991818
0.999926 1.00237 0.992891
0.999486 1.00404 0.991117
0.99976 1.00168 0.993306
1.00061 1.00265 0.990568
1.00163 1.00368 0.988077
1.00388 1.00264 0.985069
1.0007 1.0038 0.990228
1.00175 1.00403 0.987277
1.00251 1.00335 0.987506
1.00035 1.0049 0.988746
1.0016 1.00432 0.987513
0.999797 1.00456 0.990478
1.0001 1.00492 0.989805
1.00076 1.00481 0.988099
1.00001 1.00259 0.992108
0.999831 1.00385 0.991191
0.999644 1.00481 0.990625
0.999838 1.00317 0.99186
1.00006 1.00214 0.992521
1.00016 1.00064 0.993787
1.00011 1.00189 0.992716
1.00021 1.00042 0.993935
1.00001 0.998343 0.996321
1.00025 1.0003 0.994008
1.00008 0.998211 0.996328
0.999826 0.996984 0.99919
1.00013 0.998145 0.996301
0.999934 0.996895 0.998619
0.999955 0.996843 0.999174
1.00028 1.002 0.992102
1.00022 1.00042 0.99372
1.00024 1.00185 0.992433
1.00017 0.997936 0.996462
1.00017 1.00018 0.994046
1.00017 1.00166 0.992881
1.00002 0.996551 0.999243
1.00016 0.997788 0.99663
1.00011 0.99998 0.994334
1.00003 0.996442 0.999276
1.00015 0.997696 0.996745
1.00003 0.99643 0.999287
0.994641 0.99474 0.938999
0.994904 0.996009 0.920611
0.994858 0.996714 0.903555
1.00039 1.00274 0.991378
1.00038 1.00269 0.991328
1.00044 1.00307 0.991027
0.994751 0.995396 0.921091
0.994713 0.996968 0.921932
0.995389 0.99907 0.905657
0.995866 0.996577 0.974743
0.998347 0.999309 0.94511
0.995275 0.999905 0.922254
0.994828 0.997566 0.888839
0.995 0.997528 0.971711
0.996371 0.999988 0.949992
0.994826 0.999954 0.918561
0.994855 0.995547 0.899605
0.994876 0.997992 0.967452
0.995433 0.999992 0.953927
0.994935 0.999998 0.916834
0.994804 0.997162 0.89559
1.00034 1.00389 0.990252
1.0002 1.00404 0.990331
1.00009 1.00377 0.990813
1.00036 1.00327 0.990848
1.00029 1.00324 0.991118
1.00037 1.00263 0.99169
0.99794 0.998179 0.995581
0.998337 0.997968 0.999578
1.00002 1.00474 0.990087
1.00005 1.00327 0.991698
0.999843 1.00508 0.990267
1.00007 1.00474 0.989847
0.999605 1.00498 0.990339
0.996669 0.997952 0.99545
0.999121 1.00464 0.991867
0.996174 1.00055 1.00138
0.999928 1.00461 0.990454
0.995513 0.997531 0.995884
0.996608 1.00237 0.998086
0.998901 1.00522 0.992049
0.994599 0.994864 0.948464
0.994579 0.994842 0.944539
0.994776 0.996854 0.924345
0.996595 1.00407 0.997437
0.995023 1.00188 0.994459
0.994612 0.994741 0.93822
0.994876 0.99916 0.95558
0.994922 0.999962 0.91253
0.994708 0.995178 0.930036
0.994812 0.99771 0.889136
0.995247 1.00457 0.998822
0.994637 0.99465 0.944665
0.994703 0.997092 0.922127
0.994924 0.998955 0.982427
0.994767 0.999027 0.883656
0.994827 0.999963 0.917803
0.995293 1.00063 0.953438
0.994982 1.00382 0.997764
0.99462 0.994738 0.939323
0.995248 0.999459 0.906783
0.994651 0.998011 0.889596
0.996122 0.999092 0.909407
0.995974 1 0.952829
0.995596 1.00011 0.975739
0.995888 1.00526 0.997335
0.995224 1.00379 0.999923
0.996528 1.00357 0.998517
0.999052 1.0035 0.993141
0.996373 1.00325 0.997253
0.99697 1.00402 0.995966
0.999626 1.00289 0.992994
1.00006 1.00252 0.992947
1.00042 1.00378 0.990719
1.00125 1.00478 0.98771
1.0004 1.00254 0.990969
1.0018 1.00375 0.987775
1.00379 1.0039 0.984655
1.00497 1.00202 0.983764
1.00333 1.00223 0.986051
1.00374 1.00288 0.985076
1.002 1.00413 0.986949
1.00198 1.00358 0.988164
1.00217 1.00302 0.988039
1.00001 1.00501 0.989308
1.00049 1.0049 0.988881
1.00162 1.0042 0.987774
0.999948 1.0036 0.991174
0.999914 1.0045 0.99049
1.00013 1.00491 0.989764
1.00012 1.00097 0.99353
1.00006 1.00256 0.992098
0.99979 1.00383 0.991195
1.00009 1.00213 0.992516
1.00017 1.00064 0.993784
0.99993 0.998545 0.996263
1.00022 1.00043 0.993933
1.00002 0.998341 0.996316
0.999759 0.997146 0.999181
1.00009 0.9982 0.996325
0.999857 0.997012 0.99863
0.999896 0.996941 0.999179
1.00034 1.00211 0.992054
1.00028 1.00061 0.993604
1.0003 1.00199 0.992154
1.00017 0.998117 0.996278
1.00022 1.00042 0.9938
1.00025 1.00187 0.992519
0.999995 0.996686 0.999206
1.00016 0.997927 0.996474
1.00017 1.00019 0.994001
1.00002 0.996529 0.999252
1.00015 0.997785 0.996639
1.00004 0.996435 0.999282
0.994624 0.994642 0.942754
0.994604 0.99469 0.938909
0.994888 0.996679 0.920513
1.00027 1.00289 0.991297
1.00025 1.00334 0.991049
1.00033 1.00275 0.991463
1.00036 1.00274 0.99133
1.00036 1.00313 0.990998
1.0003 1.00308 0.991162
1.00051 1.0032 0.990764
0.994727 0.996572 0.917347
0.994735 0.995485 0.925398
0.9947 0.996233 0.921928
0.994836 0.995779 0.90048
0.994865 0.997501 0.968998
0.99524 0.999989 0.948072
0.994869 0.999935 0.923068
0.994867 0.99835 0.966821
0.995016 1.00001 0.946981
0.995085 0.999985 0.921536
0.994796 0.996891 0.900937
0.995497 0.99683 0.970751
0.994946 1.00058 0.946327
0.994816 0.99992 0.912317
0.994776 0.99932 0.888181
0.999929 1.00424 0.990608
1.00032 1.0039 0.990253
1.0002 1.00405 0.990324
1.00039 1.00326 0.990826
0.99663 0.997714 0.995832
0.996079 1.00133 1.00073
1.00007 1.00477 0.989722
0.999597 1.00503 0.990396
0.999383 1.00431 0.992503
0.999825 1.00463 0.990434
0.99873 1.00523 0.992047
0.995404 0.998691 0.99321
0.996088 1.00349 0.99846
0.99819 1.00489 0.992792
0.995223 0.998769 0.991799
0.997558 1.00454 0.996522
0.994611 0.994847 0.943073
0.994606 0.994807 0.951096
0.994555 0.994803 0.946052
0.995142 1.00442 0.999123
0.99492 0.997671 0.987342
0.994634 0.994658 0.946322
0.996667 1.00085 0.945207
0.994853 0.999945 0.922167
0.994692 0.996347 0.922123
0.994747 0.999344 0.886239
0.994951 1.00244 0.998294
0.994605 0.994703 0.939252
0.995388 0.998939 0.906379
0.994909 1.00066 0.977053
0.994673 0.997907 0.880527
0.99733 0.9999 0.912708
0.994961 1.00001 0.94639
0.995432 1.00468 0.992032
0.995135 0.994837 0.921421
0.995082 0.997251 0.891824
0.99872 0.997894 0.916362
0.995361 0.999963 0.952947
0.994891 0.999997 0.970156
0.995485 1.00268 0.999901
0.995816 1.00426 0.998492
0.998249 1.00079 0.997273
0.996221 1.00433 0.996371
0.998562 1.00314 0.993497
1.0029 1.00029 0.989809
1.00136 1.00345 0.990318
1.0016 1.0047 0.987579
1.00279 1.0041 0.985099
1.00199 1.00383 0.987474
1.00378 1.00388 0.984428
1.00451 1.00331 0.983364
1.00505 1.00105 0.98452
1.00506 1.0023 0.983802
1.00496 1.00212 0.983687
1.00278 1.00247 0.986734
1.00334 1.00234 0.986276
1.00359 1.00317 0.985082
1.00141 1.0044 0.988007
1.00185 1.00351 0.988176
1.00183 1.00273 0.988566
1.00007 1.00467 0.989901
1.00007 1.00499 0.989462
1.00064 1.0049 0.989018
1.00002 1.00169 0.992932
1.00007 1.00345 0.991175
1.00001 1.00445 0.990501
0.999841 0.998765 0.996188
1.00013 1.00098 0.993515
1.00011 1.00252 0.992088
1.00018 1.00064 0.993781
0.99993 0.998556 0.996257
0.999667 0.997345 0.999169
1.00002 0.998335 0.996312
0.99975 0.997183 0.999178
0.999824 0.997046 0.999182
1.00027 1.00301 0.991262
1.00039 1.00225 0.991862
1.00033 1.00084 0.993305
1.00034 1.00212 0.992042
1.00014 0.998348 0.99608
1.00028 1.00063 0.993603
1.00029 1.00204 0.992205
0.999958 0.996858 0.999163
1.00016 0.998114 0.99629
1.00023 1.00042 0.99388
1 0.996657 0.999217
1.00016 0.997922 0.996485
1.00003 0.996503 0.999261
0.994629 0.994672 0.938049
0.994634 0.994651 0.944426
0.994569 0.99469 0.938805
1.00034 1.00284 0.99132
1.00018 1.0034 0.99102
1.00008 1.00362 0.990887
1.00015 1.00331 0.991037
1.00027 1.00371 0.990735
1.00034 1.00278 0.991333
1.0003 1.0032 0.990969
1.00031 1.00305 0.991157
1.00042 1.00324 0.990846
1.00015 1.00351 0.991123
0.995159 0.998945 0.906131
0.994722 0.996771 0.917367
0.994722 0.995648 0.929697
0.994817 0.996599 0.901093
0.994931 0.999986 0.912972
0.994893 0.998812 0.965414
0.994936 1.00024 0.953558
0.994905 0.997201 0.96755
0.995145 1.00029 0.953828
0.994848 0.999951 0.91901
0.994959 0.999096 0.885918
0.99502 0.995231 0.972445
0.994937 1.00026 0.95449
0.995724 0.999889 0.921542
0.994758 0.998003 0.888206
0.998824 1.00356 0.993005
0.999902 1.00445 0.990569
1.00028 1.00396 0.990255
0.995211 0.99961 0.990479
0.995595 1.00426 0.998824
0.999816 1.00456 0.990413
0.998202 1.00524 0.992044
0.998348 1.00482 0.992831
0.996874 1.00417 0.996513
0.994929 0.99905 0.992026
0.996367 1.00262 0.997642
0.995939 1.00034 0.991914
0.995031 0.996368 0.923162
0.994599 0.994843 0.944561
0.994613 0.99476 0.953733
0.994957 1.00086 0.99873
0.994902 1.00117 0.973052
0.99459 0.994691 0.939165
0.996582 1.00001 0.951144
0.99525 0.999909 0.921793
0.995597 0.998933 0.905987
0.9947 0.997961 0.871357
0.995224 1.00475 0.99244
0.995047 0.995623 0.921229
0.995309 0.997412 0.889274
0.99491 0.999788 0.971166
0.998547 0.999143 0.916788
0.996305 0.999966 0.948748
0.99589 1.00235 0.98982
0.994942 0.995083 0.900268
0.999415 0.997878 0.920351
0.997828 0.998648 0.946104
0.994858 0.997683 0.972695
0.995125 1.00482 0.998443
0.998072 1.00098 0.997179
1.00283 0.999285 0.992333
0.997573 1.00337 0.993936
1.00189 1.00068 0.99022
1.00395 0.998933 0.988219
1.00192 1.00457 0.987446
1.00288 1.00394 0.985175
1.00439 1.00145 0.985153
1.00378 1.00387 0.984203
1.0044 1.00312 0.983421
1.00495 1.00056 0.985081
1.00512 0.999388 0.98597
1.00511 1.00153 0.983887
1.00498 1.00104 0.984578
1.00467 1.00191 0.984586
1.00503 1.00218 0.983713
1.00493 1.0022 0.983611
1.00232 1.00366 0.986987
1.00274 1.00246 0.987024
1.00334 1.00243 0.986505
1.00085 1.00445 0.988805
1.00125 1.00438 0.988123
1.00171 1.00345 0.988186
0.999935 1.003 0.991742
1.00018 1.00452 0.98991
1.00015 1.00495 0.989616
0.999749 0.999136 0.996542
1.00006 1.00171 0.9929
1.00018 1.00332 0.991177
0.999588 0.997584 0.998003
0.999838 0.998817 0.996445
1.00014 1.00099 0.993501
0.999928 0.998571 0.99625
0.999661 0.99739 0.999162
0.999741 0.997215 0.999175
1.00018 1.00337 0.991012
1.00037 1.00251 0.991642
1.00023 1.00309 0.991229
1.00034 1.00107 0.99306
1.00035 1.00231 0.991856
1.0001 0.998593 0.995898
1.00032 1.00085 0.993305
1.00037 1.00211 0.992029
0.999911 0.997069 0.999117
1.00014 0.998337 0.996092
1.00027 1.00063 0.993601
0.999964 0.996826 0.999176
1.00016 0.998109 0.996302
1 0.996628 0.999228
0.995633 0.994807 0.924103
0.994625 0.994697 0.937972
0.994645 0.994648 0.946112
1.00034 1.00311 0.991033
1.00033 1.00287 0.991343
1.00012 1.00345 0.990991
1.00021 1.00334 0.991065
1.00021 1.00354 0.990926
1.00017 1.00368 0.990802
1.00023 1.00397 0.990373
0.999909 1.00398 0.990667
1.00038 1.00298 0.991152
1.00031 1.00325 0.990927
1.00008 1.00356 0.991083
0.999419 1.00399 0.992321
0.995252 0.997969 0.890747
0.995547 0.999108 0.905598
0.994712 0.996985 0.917382
0.995223 0.998827 0.891051
0.994838 0.999941 0.918683
0.994939 1.00057 0.946309
0.995529 0.99721 0.965389
0.995063 0.995456 0.974164
0.994736 0.997991 0.879532
0.994916 1.00001 0.950422
0.997271 0.99988 0.9128
0.994876 0.996278 0.974993
0.995579 0.999973 0.95463
0.999355 0.997984 0.913091
0.998835 1.00185 0.995084
0.999066 1.0035 0.99296
0.999854 1.00471 0.99053
0.994838 0.999396 0.99225
0.996349 1.00379 0.996501
0.998461 1.00475 0.99287
0.997609 1.00243 0.997435
0.995489 1.00037 0.992018
0.996991 0.999905 0.993947
0.994878 0.998323 0.900217
0.994958 0.995699 0.927261
0.994589 0.994832 0.94605
0.995068 1.00507 0.992816
0.994918 0.999496 0.97156
0.994892 0.996335 0.921118
0.995258 0.999999 0.947369
0.99867 0.997759 0.907955
0.995502 0.99708 0.892831
0.99607 1.00269 0.989811
0.995 0.995634 0.904173
0.99982 0.996912 0.912668
0.994879 0.997864 0.968711
0.997535 0.998691 0.953395
0.997811 0.999779 0.992789
0.999852 0.995864 0.912602
0.999847 0.99802 0.953189
0.994865 0.996735 0.968304
0.997916 1.00125 0.997169
1.00212 0.998423 0.992867
1.00385 0.999084 0.989695
1.00088 1.00107 0.990633
1.00352 0.999533 0.988171
1.00466 0.998104 0.987792
1.00294 1.00378 0.98525
1.00418 1.00147 0.985147
1.00494 0.998362 0.987119
1.00429 1.00293 0.983476
1.00495 1.00038 0.985105
1.00507 0.997794 0.98757
1.00514 0.997863 0.987454
1.00515 1.00003 0.98531
1.0051 0.999304 0.986047
1.0051 1.00097 0.984397
1.00509 1.00144 0.984044
1.00491 1.00102 0.984636
1.00375 1.00236 0.985722
1.00444 1.0019 0.984731
1.00494 1.00205 0.983623
1.00188 1.0037 0.987735
1.00239 1.00358 0.986967
1.00271 1.00244 0.987312
1.00034 1.00368 0.990411
1.00089 1.00443 0.988805
1.0011 1.00434 0.988239
0.999675 0.999809 0.995379
1.00007 1.00286 0.991729
1.00032 1.00438 0.989919
0.999488 0.997805 0.999134
0.999734 0.999221 0.995936
1.0001 1.00171 0.992868
0.999584 0.997588 0.999144
0.999824 0.998858 0.996153
0.999656 0.997441 0.999156
1.00042 1.00321 0.990864
1.00023 1.00337 0.990993
1.00035 1.00283 0.991352
1.0003 1.00135 0.99285
1.00033 1.00255 0.99164
1.00022 1.00311 0.991196
1.00005 0.998828 0.995756
1.00033 1.00108 0.993062
1.00032 1.00234 0.99185
0.999856 0.99728 0.999073
1.00011 0.998578 0.995909
1.00031 1.00086 0.993305
0.999916 0.997025 0.999131
1.00014 0.998328 0.996105
0.999969 0.996786 0.999189
0.9954 0.996913 0.892554
0.995411 0.994843 0.923932
0.994616 0.994721 0.937894
1.00019 1.0033 0.991015
1.00081 1.0029 0.990901
1.00022 1.00349 0.990794
1.00024 1.00337 0.991092
1.00033 1.00345 0.990963
1.00001 1.00374 0.99087
1.00006 1.00391 0.990652
1.00018 1.00399 0.990439
1.0001 1.00438 0.990237
0.999858 1.00121 0.993384
1.00017 1.00341 0.991044
0.999514 1.00366 0.992089
0.9998 0.997358 0.908979
0.995234 0.997909 0.886095
0.995821 0.999313 0.905099
0.994701 0.998022 0.870724
0.996825 0.998765 0.921272
0.994891 0.999997 0.949513
0.995358 0.995186 0.971747
0.994962 0.996522 0.973412
0.998535 0.999195 0.915648
0.99621 0.999968 0.947771
0.994921 0.998099 0.974082
0.998732 0.998668 0.946086
1.00207 0.998291 0.993197
0.999035 1.00179 0.994838
0.999264 1.00341 0.992925
0.995017 1.0006 0.992089
0.99858 1.00226 0.997214
0.997619 1.00016 0.99325
0.999688 0.999354 0.990068
0.999934 0.99484 0.919227
0.994911 0.99738 0.901296
0.994763 0.994873 0.931282
0.996151 1.00288 0.98994
0.99489 0.997976 0.966975
0.995121 0.996236 0.90433
0.998656 0.998368 0.945233
0.999819 0.99739 0.921217
0.997597 0.999473 0.990814
0.999876 0.995517 0.917409
1.00131 0.997352 0.944407
0.994888 0.996452 0.971679
0.998942 0.996516 0.992631
1.00004 0.996208 0.953116
0.996255 0.99618 0.974163
1.00147 0.997422 0.993362
1.00368 0.998146 0.989649
1.00495 0.997251 0.989124
1.003 1.00014 0.988127
1.00438 0.998318 0.987797
1.0048 0.996848 0.988753
1.00404 1.00151 0.985142
1.00485 0.998483 0.987057
1.00509 0.996007 0.989116
1.00495 1.0002 0.98513
1.00507 0.997746 0.987575
1.00511 0.996245 0.989103
1.00511 0.996965 0.988605
1.00514 0.997698 0.987647
1.00517 0.998655 0.986821
1.00515 1.00024 0.985284
1.00516 1.00006 0.985336
1.00509 0.999224 0.986124
1.00487 1.00085 0.985103
1.0051 1.00097 0.984487
1.00508 1.00133 0.984199
1.00299 1.00292 0.986548
1.00372 1.00241 0.985706
1.00427 1.00193 0.984876
1.00103 1.00343 0.989441
1.00195 1.00366 0.987715
1.00246 1.00352 0.986948
0.999777 1.00062 0.994364
1.00044 1.00353 0.990418
1.00098 1.00434 0.988805
0.999506 0.998073 0.999018
0.999682 0.999907 0.99533
1.00018 1.00277 0.991716
0.999522 0.997829 0.998525
0.999722 0.999296 0.99591
0.999589 0.997643 0.999133
1.00061 1.00288 0.990887
1.00026 1.00331 0.990898
1.00027 1.0032 0.991042
1.00029 1.00336 0.990974
1.00029 1.00289 0.99135
1.00025 1.00168 0.992596
0.999978 0.999067 0.995653
1.00029 1.00134 0.992855
1.00026 1.00261 0.991639
0.999794 0.997474 0.999038
1.00005 0.998814 0.995764
1.00032 1.00109 0.993064
0.99986 0.997243 0.999086
1.00011 0.998568 0.995919
0.999923 0.996985 0.999145
0.999867 0.995271 0.918536
0.995466 0.997179 0.894273
0.995312 0.994866 0.923754
1.00005 1.00351 0.990997
1.00013 1.00374 0.990687
1.00056 1.00291 0.991101
1.00154 1.00297 0.989438
1.00024 1.00387 0.990578
1.00018 1.00389 0.990637
1.00016 1.00397 0.990504
1 1.00422 0.990464
1.00038 1.00345 0.989654
1.00078 1.0005 0.992868
1.00422 0.998513 0.988683
0.999792 1.00124 0.993641
0.999724 1.0033 0.991854
0.999267 0.997656 0.952585
0.999687 0.997823 0.912626
0.995287 0.997618 0.887512
0.999161 0.999429 0.90618
0.995885 0.999961 0.952096
0.994909 0.996433 0.975083
0.994867 0.99809 0.976142
0.997436 0.998603 0.955008
0.995979 0.998651 0.975217
1.00347 0.996189 0.992323
1.00144 0.998851 0.993318
0.999234 1.0018 0.994584
0.998383 1.00019 0.992618
1.00089 0.999709 0.988236
1.00003 0.994943 0.949279
0.999917 0.994875 0.922551
0.995033 0.996629 0.902465
0.997235 0.999339 0.98879
0.994882 0.99641 0.968596
0.999864 0.995884 0.918382
1 0.998159 0.952806
0.998338 0.997875 0.992998
1.00122 0.996295 0.952172
0.996521 0.996025 0.970964
1.0013 0.996884 0.991289
0.999164 0.995809 0.979528
1.00351 0.997308 0.989648
1.00491 0.996591 0.98906
1.00498 0.995772 0.990064
1.00413 0.998562 0.9878
1.00472 0.996883 0.9887
1.00511 0.995247 0.989942
1.00473 0.998599 0.986997
1.00509 0.996087 0.989087
1.00509 0.995099 0.99012
1.00507 0.997702 0.98758
1.00512 0.99625 0.989063
1.00511 0.996 0.989593
1.00512 0.996751 0.988741
1.00513 0.997646 0.987939
1.00514 0.997531 0.987841
1.00517 0.998676 0.9868
1.00517 0.999424 0.986086
1.00512 1.00019 0.985361
1.00515 1.00031 0.985246
1.00516 1.00009 0.985362
1.00415 1.00141 0.98594
1.00481 1.0009 0.985149
1.00507 1.00099 0.984578
1.00181 1.00288 0.988572
1.00301 1.00289 0.986543
1.0037 1.00244 0.985689
1.00006 1.00114 0.99332
1.00109 1.00337 0.989431
1.00196 1.00368 0.987695
0.99958 0.998513 0.998794
0.999822 1.00065 0.994335
1.00058 1.00335 0.990427
0.999553 0.998155 0.998953
0.999695 1 0.99528
0.999564 0.997861 0.999068
1.00153 1.00304 0.989048
1.00065 1.00275 0.990877
1.00036 1.00326 0.990705
1.00012 1.00337 0.990932
1.00023 1.00325 0.991003
1.00023 1.00212 0.992188
1.00024 1.00293 0.991349
1.00024 1.00168 0.992604
0.999891 0.999338 0.995542
0.999727 0.99766 0.999012
0.99998 0.999043 0.995661
1.00029 1.00133 0.99286
0.999799 0.997451 0.999049
1.00005 0.998803 0.995772
0.999866 0.9972 0.999099
1.00048 0.995185 0.955969
0.999876 0.995615 0.917445
0.995415 0.997659 0.891493
1.00004 1.00399 0.990581
1.00036 1.00286 0.991302
1.00035 1.0038 0.9906
1.00142 1.00292 0.989521
1.0027 1.00302 0.987134
1.00062 1.0035 0.98975
0.999886 1.00409 0.99069
1.00091 1.00352 0.989135
1.0006 1.00087 0.992741
1.00241 1.00056 0.989151
1.00443 0.997771 0.989828
1.00446 0.996996 0.989493
1.00372 0.998352 0.989403
0.99947 1.00153 0.993901
0.996047 0.99655 0.974812
1.00023 0.996967 0.950591
0.998484 0.997787 0.920968
0.998119 0.999221 0.945991
0.994835 0.998385 0.977323
0.996277 0.998442 0.979575
1.0001 0.998341 0.992277
1.00362 0.995923 0.992334
1.0011 0.999309 0.993443
1.00269 1.00003 0.986334
0.99687 0.997408 0.975498
1.00037 0.995285 0.957661
0.999899 0.994851 0.914525
0.997888 0.998761 0.993249
0.996544 0.995307 0.973096
1.00038 0.996643 0.950973
1.00114 0.996991 0.991419
0.99868 0.995872 0.978645
1.0038 0.996253 0.991126
1.00314 0.997824 0.988513
1.00483 0.995945 0.988971
1.00493 0.995637 0.990041
1.00511 0.994839 0.990541
1.00466 0.99691 0.988648
1.00511 0.995217 0.989898
1.00508 0.994943 0.990461
1.00508 0.996159 0.989056
1.0051 0.995221 0.99009
1.00512 0.99544 0.990103
1.00513 0.996253 0.989023
1.00511 0.995974 0.989493
1.00511 0.996736 0.988751
1.00512 0.996545 0.988875
1.00513 0.997508 0.988099
1.00518 0.99881 0.986751
1.00516 0.998698 0.986779
1.00517 0.99949 0.986053
1.00516 0.9998 0.985851
1.00468 1.00027 0.985928
1.00511 1.00027 0.98538
1.00515 1.00038 0.985208
1.00283 1.00176 0.98793
1.00413 1.00143 0.985952
1.00474 1.00095 0.985196
1.00034 1.00152 0.992427
1.00184 1.0029 0.988564
1.00304 1.00285 0.986538
0.999715 0.999026 0.998479
1.00013 1.00112 0.993308
1.00117 1.0033 0.989421
0.999654 0.998628 0.998681
0.99986 1.00069 0.994306
0.999613 0.998232 0.998869
1.00272 1.00308 0.986981
1.00162 1.0031 0.989035
1.00106 1.00333 0.989497
1.00064 1.00269 0.990866
1.00044 1.00322 0.990626
1.00039 1.00247 0.991606
1.00018 1.00331 0.990963
1.00022 1.00213 0.992193
0.99981 0.9997 0.995326
1.00023 1.00167 0.992611
0.999897 0.999299 0.995553
0.999663 0.997851 0.99898
0.999731 0.997639 0.99902
0.999983 0.999022 0.995668
0.999801 0.997419 0.999059
0.996571 0.996035 0.976385
1.00063 0.995341 0.948073
0.999853 0.99509 0.923196
1.00439 1.00197 0.984854
1.00046 1.00372 0.99062
1.00132 1.00288 0.989605
1.00086 1.00352 0.989566
1.00266 1.00292 0.987122
1.00249 1.0014 0.988501
1.00142 1.00359 0.988618
1.0004 1.00119 0.992619
1.00274 1.00046 0.989222
1.00446 0.997519 0.989407
1.00481 0.997458 0.988105
1.00422 0.9959 0.991215
1.00436 0.996704 0.989323
1.00312 0.998106 0.990123
1.00006 0.997439 0.993358
0.995911 0.996693 0.973158
0.999892 0.996605 0.94921
0.996386 0.997832 0.977518
1.00029 0.997293 0.994378
1.00324 0.995684 0.992324
1.00113 0.996957 0.988275
0.996629 0.996151 0.977237
1.00004 0.994925 0.949377
1.00071 0.99739 0.991596
0.998483 0.99654 0.977369
1.00351 0.995781 0.9914
1.00304 0.99741 0.98883
1.00464 0.994953 0.991192
1.00448 0.997385 0.990754
1.00492 0.995477 0.990021
1.00511 0.994878 0.990432
1.00511 0.994875 0.990465
1.0051 0.995195 0.989854
1.00507 0.994944 0.990454
1.00514 0.995118 0.990298
1.0051 0.995348 0.990059
1.00511 0.995434 0.990047
1.00511 0.996247 0.989241
1.00511 0.99595 0.989393
1.00511 0.996752 0.98875
1.00518 0.998105 0.987374
1.00513 0.99737 0.98826
1.00517 0.99869 0.986904
1.00518 0.999535 0.985997
1.00517 0.999557 0.98602
1.00515 0.99982 0.985782
1.0048 1.00001 0.986178
1.0035 1.00066 0.987847
1.00468 1.00033 0.985968
1.00511 1.00035 0.985398
1.00083 1.00132 0.991802
1.00279 1.00181 0.987938
1.00412 1.00144 0.985965
0.999799 0.999527 0.998189
1.00051 1.00135 0.992407
1.00186 1.0029 0.988558
0.999777 0.999121 0.998372
1.00023 1.00106 0.993294
0.999731 0.998719 0.998565
1.00432 1.00175 0.985236
1.00263 1.00311 0.987024
1.00199 1.00351 0.987827
1.00171 1.00316 0.989022
1.0011 1.0033 0.989517
1.00062 1.00289 0.990819
1.00053 1.00317 0.990545
1.00028 1.00261 0.991603
0.999773 1.00017 0.994913
1.00017 1.00216 0.992198
0.999817 0.999641 0.995345
0.999616 0.998083 0.998914
0.999902 0.999261 0.995565
0.999665 0.997825 0.998992
0.999735 0.99762 0.999028
1.00083 0.996272 0.991785
0.996887 0.995403 0.972703
1.0001 0.995144 0.956755
1.00366 1.00115 0.986276
1.00512 0.999757 0.985824
1.00436 1.00167 0.984984
1.00109 1.00355 0.98938
1.00261 1.00282 0.987099
1.00284 1.00135 0.988239
1.00509 0.997961 0.987647
1.00307 1.00035 0.989288
1.00448 0.997266 0.988979
1.00481 0.997477 0.988354
1.00501 0.996492 0.988929
1.00436 0.995456 0.991218
1.00415 0.996065 0.990956
1.0045 0.9966 0.98915
1.00018 0.997797 0.993493
0.99583 0.996954 0.971164
1.0006 0.996729 0.996532
1.00419 0.995578 0.992103
1.00085 0.997386 0.988439
0.996717 0.995494 0.974816
1.00353 0.995379 0.991646
1.00297 0.997492 0.989171
1.00469 0.995026 0.991435
1.00457 0.996601 0.990661
1.00513 0.994936 0.990366
1.00518 0.995119 0.990475
1.00512 0.994926 0.990323
1.0051 0.994887 0.990452
1.00514 0.995042 0.990308
1.00507 0.994945 0.990445
1.00513 0.995129 0.990247
1.00515 0.995738 0.989687
1.00511 0.995426 0.989992
1.00512 0.996258 0.98924
1.00518 0.997672 0.987817
1.00511 0.996768 0.988749
1.00517 0.998116 0.987386
1.0052 0.999286 0.986205
1.00517 0.998568 0.987057
1.00518 0.999488 0.986048
1.00486 0.999907 0.986168
1.00515 0.99984 0.985712
1.00479 1.00001 0.98614
1.00369 1.00022 0.987935
1.00118 1.0008 0.991655
1.00346 1.0007 0.987845
1.00468 1.00039 0.986009
0.999864 0.999993 0.997944
1.00089 1.00126 0.991788
1.00273 1.00189 0.987946
0.999855 0.999647 0.998092
1.00063 1.00125 0.992388
0.999837 0.999226 0.998268
1.00498 1.00058 0.98524
1.00427 1.00174 0.98521
1.00327 1.00251 0.986347
1.00255 1.00314 0.987066
1.00191 1.00357 0.987855
1.00107 1.00328 0.989653
1.00113 1.00327 0.989538
1.00051 1.003 0.990836
0.999884 1.0007 0.99423
1.0002 1.00272 0.991602
0.999772 1.00012 0.994933
0.999599 0.998419 0.998776
0.999824 0.999587 0.995365
0.99961 0.998043 0.99894
0.999667 0.997803 0.999002
1.00432 0.994946 0.992084
1.00099 0.995806 0.990351
0.996687 0.994892 0.972952
1.00514 0.998474 0.986966
1.00398 1.0007 0.986364
1.00513 0.9986 0.986991
1.00511 0.999795 0.985833
1.00433 1.00136 0.985124
1.00512 0.997215 0.988062
1.00319 1.0013 0.987984
1.00508 0.998076 0.987468
1.00513 0.995844 0.98931
1.0048 0.997513 0.988607
1.00496 0.996595 0.988837
1.00434 0.995582 0.991332
1.0039 0.996051 0.990686
1.00015 0.998023 0.993592
1.00514 0.994985 0.990246
1.00421 0.996119 0.992155
1.00061 0.997452 0.988578
1.0047 0.995106 0.99168
1.0046 0.995713 0.990575
1.00512 0.994939 0.990417
1.00517 0.994977 0.990412
1.00519 0.994937 0.990437
1.0051 0.994898 0.99044
1.00514 0.994996 0.990332
1.00517 0.99539 0.990061
1.00512 0.995136 0.990197
1.00515 0.99577 0.989619
1.00518 0.997401 0.988085
1.00513 0.99627 0.98924
1.00518 0.997688 0.987821
1.00521 0.999032 0.986455
1.00517 0.998127 0.987397
1.00519 0.999279 0.986223
1.00492 0.999832 0.98614
1.00517 0.999442 0.986099
1.00485 0.999914 0.986181
1.00379 1.00012 0.987866
1.00478 1.00001 0.986103
1.00369 1.00023 0.987924
1.00125 1.00041 0.993185
1.00009 1.00001 0.995222
1.00123 1.00075 0.992322
1.00343 1.00073 0.987844
0.999922 1.00007 0.997872
1.00101 1.00111 0.991778
0.999914 0.99975 0.997987
1.0052 0.9985 0.987011
1.00508 0.999616 0.986017
1.00501 1.00049 0.985347
1.0044 1.00086 0.985998
1.00421 1.00174 0.985184
1.00329 1.00256 0.986337
1.00199 1.0028 0.988415
1.00183 1.00364 0.987883
1.00098 1.00331 0.989685
1.00018 1.00125 0.993214
1.0004 1.00312 0.990853
0.999828 1.00071 0.994245
0.999603 0.998902 0.998539
0.999772 1.00006 0.994953
0.999577 0.998342 0.998833
0.999607 0.998005 0.998963
1.00512 0.995264 0.989935
1.00457 0.994943 0.992212
1.00142 0.995246 0.988941
1.00512 0.997525 0.987808
1.00513 0.998552 0.98685
1.00431 1.00027 0.986442
1.00512 0.998706 0.986926
1.00512 0.999837 0.985842
1.00512 0.99614 0.989442
1.0051 0.997235 0.987973
1.00508 0.998198 0.987292
1.00511 0.995872 0.989322
1.00497 0.996697 0.988745
1.00437 0.995808 0.99147
1.0052 0.995038 0.990434
1.00514 0.994995 0.990394
1.00427 0.996682 0.992211
1.00513 0.994907 0.990463
1.00517 0.994941 0.990348
1.00519 0.994937 0.990407
1.00516 0.995325 0.990277
1.00513 0.994959 0.990356
1.00517 0.995367 0.990016
1.00518 0.997198 0.988301
1.00515 0.995804 0.98955
1.00518 0.997406 0.988092
1.00522 0.998807 0.986678
1.00518 0.997705 0.987824
1.00521 0.999028 0.986466
1.00498 0.999779 0.986111
1.00519 0.999271 0.986242
1.00492 0.999832 0.986152
1.00388 1.0001 0.987726
1.00485 0.99992 0.986194
1.0038 1.00011 0.987863
1.00135 1.00011 0.993325
1.00368 1.00024 0.987914
1.00139 1.00032 0.993135
1.00005 1 0.995384
0.999937 1.00023 0.99652
1.00137 1.00067 0.992875
0.99995 1.00018 0.997818
1.00517 0.997981 0.987589
1.00519 0.999199 0.986279
1.00521 0.998313 0.98714
1.00481 0.999995 0.986191
1.00511 0.999675 0.985937
1.00504 1.0004 0.985453
1.00445 1.0008 0.98598
1.00305 1.00143 0.987803
1.00331 1.00262 0.986326
1.00198 1.00277 0.988414
1.00059 1.00154 0.992166
1.00088 1.00336 0.989716
1.00003 1.00136 0.993245
0.999644 0.999594 0.9982
0.999764 1.00073 0.99426
0.999568 0.998797 0.998635
0.999566 0.998273 0.99888
1.00517 0.995334 0.989976
1.00515 0.995275 0.98992
1.00472 0.994903 0.992308
1.00515 0.996791 0.988736
1.00512 0.997574 0.987787
1.00513 0.998631 0.986729
1.00512 0.998806 0.986863
1.00513 0.996119 0.98932
1.00509 0.997258 0.987883
1.00511 0.995859 0.989335
1.00516 0.99544 0.990158
1.00519 0.99504 0.990404
1.00516 0.995001 0.990542
1.00514 0.995978 0.989536
1.00519 0.994938 0.990377
1.00517 0.995437 0.9901
1.00518 0.996925 0.988786
1.00517 0.995336 0.989971
1.00519 0.99718 0.988307
1.00522 0.998607 0.986885
1.00518 0.997416 0.988098
1.00522 0.998807 0.986683
1.00504 0.999683 0.986114
1.0052 0.999024 0.986478
1.00497 0.999775 0.986124
1.00397 1.0001 0.987572
1.00492 0.999832 0.986164
1.00389 1.00008 0.987729
1.00144 1.00003 0.993279
1.0038 1.0001 0.987859
1.00147 1.00007 0.993243
1.00008 0.999915 0.99544
1.00152 1.00022 0.993093
0.999812 1.00015 0.995524
0.999578 1.0005 0.998049
1.00517 0.997877 0.987585
1.00517 0.99882 0.986763
1.00518 0.998012 0.987472
1.00487 0.999742 0.986574
1.00519 0.999065 0.986364
1.00522 0.998132 0.987267
1.00365 1.00035 0.987812
1.0048 0.99995 0.98618
1.00514 0.999741 0.985856
1.00449 1.00074 0.985963
1.00309 1.00139 0.987794
1.001 1.00123 0.991651
1.00198 1.00275 0.988413
1.00045 1.00166 0.992192
0.999724 1.0003 0.997894
0.999899 1.00146 0.993273
0.99958 0.999449 0.998335
0.999543 0.998673 0.998719
1.00517 0.996001 0.9894
1.00516 0.995295 0.989992
1.00515 0.995325 0.989903
1.00515 0.996702 0.988795
1.00512 0.997622 0.987765
1.00513 0.996102 0.989199
1.00513 0.996185 0.989509
1.00516 0.995429 0.990154
1.00518 0.995045 0.990375
1.00515 0.995995 0.989591
1.00515 0.997041 0.98858
1.00517 0.995547 0.989923
1.00518 0.997041 0.988555
1.0052 0.998278 0.98731
1.0052 0.997157 0.988313
1.00522 0.998595 0.986887
1.00507 0.999547 0.986186
1.00521 0.998798 0.986687
1.00503 0.99968 0.986124
1.00406 1.00006 0.987431
1.00497 0.99977 0.986138
1.00397 1.00009 0.987578
1.00151 1.00009 0.993095
1.0039 1.00006 0.987732
1.00154 0.999991 0.993176
1.00015 0.999898 0.995363
1.00157 1.00002 0.993171
0.99987 0.999969 0.995605
0.999587 1.00033 0.995648
1.00516 0.997207 0.988376
1.00519 0.998725 0.98677
1.00517 0.997714 0.987744
1.00494 0.999486 0.986625
1.00517 0.998888 0.986682
1.00518 0.998042 0.987355
1.00383 0.999958 0.987928
1.00487 0.999647 0.986467
1.00518 0.998928 0.986449
1.00124 1.00064 0.991758
1.00367 1.00034 0.987821
1.0048 0.999906 0.98617
1.00313 1.00137 0.987785
1.00093 1.00131 0.991657
0.999767 1.00066 0.997788
1.00032 1.00177 0.992225
0.999647 1.00014 0.998003
0.999533 0.999272 0.998459
1.00514 0.996342 0.989198
1.00516 0.996019 0.989401
1.00517 0.995253 0.990008
1.00514 0.996613 0.988854
1.00515 0.997179 0.988476
1.00514 0.99617 0.989541
1.00517 0.995416 0.99015
1.00516 0.996012 0.989645
1.00515 0.996967 0.988633
1.00518 0.998227 0.987459
1.00518 0.997157 0.988323
1.0052 0.998422 0.987137
1.00509 0.999271 0.986448
1.00522 0.998593 0.986889
1.00507 0.999546 0.986195
1.00414 0.999995 0.987351
1.00502 0.999682 0.986135
1.00406 1.00006 0.987436
1.00161 1.00014 0.99163
1.00397 1.00008 0.987584
1.00161 1.00006 0.992368
1.0001 0.999943 0.997811
1.00165 0.999968 0.993076
0.999958 0.999888 0.995541
0.99967 1.00003 0.995753
1.00515 0.997049 0.988626
1.00519 0.998441 0.987141
1.00516 0.997296 0.988325
1.00503 0.999272 0.986437
1.00519 0.998721 0.986804
1.00517 0.997552 0.987903
1.00393 0.999778 0.987652
1.00494 0.99949 0.986636
1.00517 0.998954 0.986602
1.00137 1.00015 0.992012
1.00383 0.999915 0.98782
1.00487 0.999546 0.986361
0.999807 1.00057 0.99784
1.00122 1.00066 0.991759
1.00368 1.00032 0.987831
1.00086 1.00138 0.991667
0.999753 1.00052 0.997808
0.999561 0.999979 0.998127
1.00513 0.997127 0.988525
1.00514 0.996355 0.989203
1.00515 0.996037 0.989402
1.00518 0.998212 0.987394
1.00514 0.997106 0.988541
1.00514 0.996156 0.989573
1.00514 0.996888 0.988687
1.00518 0.99821 0.987462
1.00508 0.999165 0.986761
1.0052 0.998567 0.986965
1.00508 0.99938 0.986442
1.00418 0.999833 0.987226
1.00506 0.999538 0.986204
1.00414 0.99999 0.987355
1.00167 1.00013 0.991542
1.00406 1.00006 0.987441
1.00162 1.00014 0.991626
1.00013 0.999976 0.997766
1.00163 1.00005 0.991724
1.00002 0.999934 0.996643
0.999767 0.999856 0.995715
1.00513 0.997373 0.988289
1.00518 0.998305 0.987231
1.00514 0.99703 0.98864
1.00507 0.999294 0.986414
1.00519 0.998488 0.987056
1.00516 0.997387 0.988274
1.00407 0.999676 0.987503
1.00503 0.999366 0.986482
1.00519 0.998718 0.986839
1.0015 0.999901 0.99203
1.00394 0.999779 0.987631
1.00494 0.999494 0.986646
0.999914 1.00029 0.997887
1.00137 1.00013 0.992018
1.00383 0.999873 0.987711
0.999822 1.00052 0.997809
1.00121 1.00067 0.991757
0.999686 1.00046 0.997856
1.00517 0.998075 0.98757
1.00513 0.997169 0.988461
1.00514 0.99637 0.989207
1.00504 0.999032 0.986962
1.00518 0.998144 0.987483
1.00513 0.997039 0.988606
1.00518 0.998195 0.987466
1.00508 0.999167 0.98676
1.00417 0.999713 0.987364
1.00507 0.999492 0.986437
1.00418 0.999879 0.987284
1.00172 1.00006 0.991515
1.00414 0.999982 0.98736
1.00167 1.00013 0.99154
1.00015 1.00001 0.997708
1.00162 1.00014 0.99162
1.00013 0.999988 0.99774
1.0001 0.999888 0.995305
1.00518 0.99826 0.987307
1.00514 0.99723 0.988389
1.00507 0.999206 0.986534
1.00518 0.998312 0.987227
1.00514 0.997009 0.988654
1.00413 0.999711 0.98763
1.00506 0.999297 0.986409
1.00519 0.998534 0.986971
1.00163 0.999863 0.991849
1.00407 0.999728 0.987567
1.00503 0.999465 0.986527
1.00007 1.00005 0.997844
1.0015 0.999894 0.992037
1.00394 0.999773 0.987609
0.999896 1.0003 0.997872
1.00137 1.00013 0.992022
0.999822 1.0005 0.997785
1.00501 0.999003 0.987043
1.00517 0.998126 0.987509
1.00513 0.997215 0.988397
1.00409 0.999637 0.987584
1.00504 0.999045 0.986963
1.00518 0.998071 0.987573
1.00508 0.999171 0.986759
1.00419 0.999707 0.987338
1.00172 1.00002 0.991565
1.00417 0.999924 0.98734
1.00171 1.00007 0.991515
1.00019 1.00001 0.997675
1.00167 1.00013 0.991539
1.00016 1.00001 0.997699
1.00015 0.999997 0.997719
1.00504 0.999131 0.986662
1.00518 0.998108 0.987464
1.00514 0.997088 0.988488
1.00411 0.999696 0.987692
1.00505 0.999211 0.986527
1.00518 0.998318 0.987223
1.00168 0.999944 0.991693
1.00413 0.999717 0.987624
1.00505 0.999301 0.986404
1.00017 0.999944 0.997759
1.00162 0.999879 0.991854
1.00408 0.999772 0.987632
1.00002 1.00008 0.997866
1.0015 0.999901 0.992046
0.999901 1.00029 0.997848
1.00404 0.999694 0.987826
1.00501 0.998966 0.986975
1.00517 0.998175 0.987447
1.00167 0.999973 0.991715
1.00411 0.999621 0.987556
1.00504 0.999056 0.986964
1.0042 0.999697 0.987311
1.00171 1.00001 0.991573
1.00021 1.00001 0.997649
1.0017 1.00008 0.991516
1.0002 1.00002 0.99766
1.00016 1.00002 0.99769
1.00407 0.99968 0.987786
1.00503 0.999042 0.986738
1.00518 0.997957 0.987621
1.00175 1.00001 0.992856
1.00411 0.999692 0.987689
1.00504 0.999215 0.986521
1.00019 0.99995 0.997699
1.00168 0.999963 0.991695
1.00413 0.999724 0.987618
1.00014 0.999977 0.997792
1.00161 0.999906 0.99186
0.999991 1.0001 0.99788
1.00167 0.999972 0.991735
1.00405 0.999648 0.987746
1.005 0.998928 0.986908
1.00017 0.999999 0.997677
1.00165 0.999972 0.991719
1.00413 0.999607 0.987528
1.0017 1 0.991578
1.0002 1.00001 0.997654
1.00021 1.00002 0.997652
1.00177 0.999987 0.992866
1.00408 0.999675 0.987786
1.00502 0.99895 0.986815
0.99987 0.999987 0.998004
1.00167 1.00001 0.991671
1.00412 0.999687 0.987688
1.00018 0.999961 0.997726
1.00168 0.999983 0.991697
1.00011 0.999997 0.997823
1.00013 0.999997 0.995234
1.00169 0.99997 0.992342
1.00406 0.999605 0.987666
1.00017 0.999998 0.997685
1.00165 0.999972 0.991728
1.00021 1 0.997655
0.999812 1.00001 0.99554
1.0017 0.999986 0.992304
1.00408 0.999672 0.987785
1.00001 0.999987 0.996596
1.00167 1.00001 0.991678
1.00017 0.999973 0.997752
1.00014 0.999994 0.997701
1.00161 0.999972 0.991802
1.00014 0.999997 0.997693
0.999976 0.999994 0.996627
1.00164 0.999989 0.991756
1.00017 0.999975 0.997711
1.00014 0.999989 0.997713
1.00014 0.999986 0.997708

TENSORS stress float
0.00164254 -8.07976e-05 0.000160608
-8.07976e-05 0.000609032 -2.05034e-05
0.000160608 -2.05034e-05 0.000588216
0.00510326 -0.000122157 0.000151272
-0.000122157 0.00264881 1.49898e-05
0.000151272 1.49898e-05 0.00262653
0.00147292 -8.12479e-06 7.69083e-05
-8.12479e-06 0.000520393 -7.62464e-06
7.69083e-05 -7.62464e-06 0.000489924
0.00177372 -4.94645e-05 0.000160508
-4.94645e-05 0.000662754 -1.32967e-05
0.000160508 -1.32967e-05 0.000644398
0.00170242 -7.28033e-05 0.00015675
-7.28033e-05 0.000636794 -1.8658e-05
0.00015675 -1.8658e-05 0.000617045
0.0015606 -7.57458e-05 0.000164162
-7.57458e-05 0.000557772 -1.99927e-05
0.000164162 -1.99927e-05 0.00053844
0.00144935 -5.0178e-05 2.22184e-05
-5.0178e-05 0.000428568 -8.42323e-06
2.22184e-05 -8.42323e-06 0.000351682
0.00493397 -0.000126168 3.5865e-06
-0.000126168 0.00254018 -5.86643e-07
3.5865e-06 -5.86643e-07 0.00252429
0.00517981 1.24529e-05 6.13884e-05
1.24529e-05 0.0026448 3.10933e-06
6.13884e-05 3.10933e-06 0.00263221
0.00495067 -0.000264146 -5.79424e-08
-0.000264146 0.0025757 4.33566e-06
-5.79424e-08 4.33566e-06 0.00253059
0.00164326 4.7695e-05 0.000150165
4.7695e-05 0.000608749 1.30562e-05
0.000150165 1.30562e-05 0.000598265
0.000701253 0.000157209 1.99265e-05
0.000157209 1.17705e-05 1.26943e-05
1.99265e-05 1.26943e-05 -7.01606e-05
0.00163259 -2.92085e-05 0.000173474
-2.92085e-05 0.000575137 2.07332e-06
0.000173474 2.07332e-06 0.000563045
0.00126837 -1.9873e-05 2.48019e-05
-1.9873e-05 0.0003841 1.1534e-06
2.48019e-05 1.1534e-06 0.000348842
0.0013754 7.93852e-06 -2.19288e-05
7.93852e-06 0.000463634 4.5053e-06
-2.19288e-05 4.5053e-06 0.000429896
0.00151283 -5.07363e-05 5.92214e-05
-5.07363e-05 0.000522643 -3.37823e-06
5.92214e-05 -3.37823e-06 0.000496342
0.00147088 1.11709e-05 8.38332e-05
1.11709e-05 0.000525916 -7.02415e-06
8.38332e-05 -7.02415e-06 0.000490544
0.00148445 -2.73684e-05 6.82281e-05
-2.73684e-05 0.000514912 -7.15802e-06
6.82281e-05 -7.15802e-06 0.000489496
0.00150937 -9.41764e-05 -2.89283e-05
-9.41764e-05 0.000451563 2.58227e-06
-2.89283e-05 2.58227e-06 0.000383606
0.00528424 -0.000105225 0.000197553
-0.000105225 0.00271122 -5.12359e-06
0.000197553 -5.12359e-06 0.00271107
0.0017593 -3.32461e-05 0.000163929
-3.32461e-05 0.000651017 -1.00255e-05
0.000163929 -1.00255e-05 0.000632974
0.00176447 -6.321e-05 0.000157916
-6.321e-05 0.000663412 -1.61913e-05
0.000157916 -1.61913e-05 0.000644814
0.00147227 -8.90258e-05 4.19022e-05
-8.90258e-05 0.000408816 -6.32231e-06
4.19022e-05 -6.32231e-06 0.000340354
0.00145735 -6.77617e-05 3.08957e-05
-6.77617e-05 0.000413585 -7.51625e-06
3.08957e-05 -7.51625e-06 0.000344403
0.0013432 -4.47613e-05 0.000147304
-4.47613e-05 0.000429345 -1.63905e-05
0.000147304 -1.63905e-05 0.000413694
0.0014102 -3.29712e-05 1.52785e-05
-3.29712e-05 0.000425952 -9.48721e-06
1.52785e-05 -9.48721e-06 0.000339473
0.00201405 -0.000200764 1.24601e-05
-0.000200764 0.000610101 -4.95595e-06
1.24601e-05 -4.95595e-06 0.000481258
0.00477067 -0.000169017 -0.000126607
-0.000169017 0.00245347 -8.76324e-06
-0.000126607 -8.76324e-06 0.00243225
0.00333782 3.92128e-05 -9.25157e-05
3.92128e-05 0.00158452 -6.35499e-06
-9.25157e-05 -6.35499e-06 0.0015663
0.00321407 -7.69449e-05 -8.61451e-05
-7.69449e-05 0.00154322 -2.79107e-06
-8.61451e-05 -2.79107e-06 0.00151408
0.00449309 -0.000154274 9.32396e-06
-0.000154274 0.00228904 -8.79536e-07
9.32396e-06 -8.79536e-07 0.00227229
0.000622496 0.000144841 -1.54177e-06
0.000144841 -3.2476e-05 -5.21849e-07
-1.54177e-06 -5.21849e-07 -0.0001118
0.00154502 4.99866e-05 0.000163832
4.99866e-05 0.000535267 1.19001e-05
0.000163832 1.19001e-05 0.000517628
0.00172092 0.000112739 0.000165795
0.000112739 0.000653864 1.7217e-05
0.000165795 1.7217e-05 0.000633797
0.0025485 0.00015788 0.000101165
0.00015788 0.001036 1.22767e-05
0.000101165 1.22767e-05 0.000976355
0.00354733 -0.00020648 8.44951e-06
-0.00020648 0.00175073 2.76382e-06
8.44951e-06 2.76382e-06 0.00172376
0.00259752 0.000182183 9.91415e-05
0.000182183 0.00109077 1.36216e-05
9.91415e-05 1.36216e-05 0.00102706
0.000681642 0.000109529 2.03876e-05
0.000109529 9.05392e-06 1.56544e-05
2.03876e-05 1.56544e-05 -6.18752e-05
0.000935179 0.00016205 8.74021e-06
0.00016205 7.13693e-05 4.47631e-06
8.74021e-06 4.47631e-06 -7.41386e-05
0.00289418 -0.000103003 7.94506e-05
-0.000103003 0.00134751 2.85596e-06
7.94506e-05 2.85596e-06 0.00135068
0.00534081 5.69467e-05 3.8801e-06
5.69467e-05 0.00273344 -1.12239e-06
3.8801e-06 -1.12239e-06 0.00273865
0.00333718 4.32248e-05 -7.57552e-05
4.32248e-05 0.00157633 -2.5466e-06
-7.57552e-05 -2.5466e-06 0.00156093
0.00527807 5.68621e-05 0.000195431
5.68621e-05 0.00269947 1.75076e-06
0.000195431 1.75076e-06 0.00270429
0.00130043 4.81673e-05 2.77058e-05
4.81673e-05 0.000400678 1.6033e-06
2.77058e-05 1.6033e-06 0.000368165
0.000705519 5.60255e-06 1.61408e-05
5.60255e-06 -6.30273e-05 1.6882e-06
1.61408e-05 1.6882e-06 -0.000131434
0.00509683 0.000170187 9.26792e-05
0.000170187 0.00261433 7.69389e-06
9.26792e-05 7.69389e-06 0.00259378
0.00263 4.61849e-05 0.00010069
4.61849e-05 0.00105076 5.77158e-06
0.00010069 5.77158e-06 0.0010012
0.00118836 -7.47871e-05 -3.8969e-05
-7.47871e-05 0.000350596 5.06565e-06
-3.8969e-05 5.06565e-06 0.000313243
0.00127831 -4.18301e-05 -3.34624e-05
-4.18301e-05 0.000402913 4.92276e-06
-3.34624e-05 4.92276e-06 0.000370821
0.00145695 6.94345e-05 -9.5703e-06
6.94345e-05 0.000524848 5.48305e-06
-9.5703e-06 5.48305e-06 0.000481488
0.00152453 -0.000109006 -8.68583e-05
-0.000109006 0.00045304 1.27301e-05
-8.68583e-05 1.27301e-05 0.000390927
0.0033514 1.70065e-05 -8.08976e-05
1.70065e-05 0.00159129 -1.43632e-06
-8.08976e-05 -1.43632e-06 0.00157284
0.00151439 -3.80604e-05 6.65696e-05
-3.80604e-05 0.000519446 -2.78752e-06
6.65696e-05 -2.78752e-06 0.000493605
0.00134062 2.7713e-05 7.80634e-05
2.7713e-05 0.000451753 -5.2776e-06
7.80634e-05 -5.2776e-06 0.000419078
0.00150787 -4.14208e-05 6.23196e-05
-4.14208e-05 0.000520229 -5.45994e-06
6.23196e-05 -5.45994e-06 0.000496102
0.00152017 -7.86582e-05 -2.3191e-05
-7.86582e-05 0.000431343 8.50893e-07
-2.3191e-05 8.50893e-07 0.000368057
0.0014922 -8.10395e-05 -3.36154e-05
-8.10395e-05 0.00045737 2.2023e-06
-3.36154e-05 2.2023e-06 0.000382702
0.00151344 -9.56311e-05 -2.42666e-05
-9.56311e-05 0.000442019 1.86645e-06
-2.42666e-05 1.86645e-06 0.000377662
0.00200412 -0.000198607 -5.95586e-06
-0.000198607 0.000603196 1.64166e-06
-5.95586e-06 1.64166e-06 0.000474734
0.00522663 4.99808e-05 0.000188119
4.99808e-05 0.00267102 -7.53036e-08
0.000188119 -7.53036e-08 0.00267594
0.00175066 -1.65914e-05 0.00016579
-1.65914e-05 0.000646618 -6.78674e-06
0.00016579 -6.78674e-06 0.000629582
0.00237651 3.28296e-05 2.67318e-05
3.28296e-05 0.000920363 -9.84456e-07
2.67318e-05 -9.84456e-07 0.000862664
0.00147923 -7.27886e-05 3.57612e-05
-7.27886e-05 0.000404924 -4.4797e-06
3.57612e-05 -4.4797e-06 0.000338109
0.00147328 -8.07409e-05 3.78386e-05
-8.07409e-05 0.000411864 -6.86623e-06
3.78386e-05 -6.86623e-06 0.00034492
0.0019462 -0.000122262 1.08972e-05
-0.000122262 0.000523534 -2.56019e-06
1.08972e-05 -2.56019e-06 0.000409653
0.00159671 -0.000157949 1.43169e-05
-0.000157949 0.000348322 -4.92623e-06
1.43169e-05 -4.92623e-06 0.000224943
0.00109897 7.3109e-06 0.000108055
7.3109e-06 0.000292901 -1.17756e-05
0.000108055 -1.17756e-05 0.000279461
0.00106077 7.44102e-06 9.04848e-06
7.44102e-06 0.000255679 -9.21829e-06
9.04848e-06 -9.21829e-06 0.00017552
0.00197056 -0.000214821 1.15278e-05
-0.000214821 0.000613589 -5.2092e-06
1.15278e-05 -5.2092e-06 0.000475073
0.00121361 -0.0001814 7.75984e-06
-0.0001814 5.99851e-05 -2.0586e-06
7.75984e-06 -2.0586e-06 -9.70904e-05
0.00538607 9.42116e-05 -0.000197098
9.42116e-05 0.00276227 -1.41936e-05
-0.000197098 -1.41936e-05 0.00276372
0.00419167 -0.000171249 -0.00010598
-0.000171249 0.00211722 -5.71904e-06
-0.00010598 -5.71904e-06 0.00209972
0.00510342 -9.62934e-05 -0.000156795
-9.62934e-05 0.00262505 -9.95333e-06
-0.000156795 -9.95333e-06 0.00261591
0.00052521 0.000143664 -2.00903e-05
0.000143664 -8.68611e-05 -1.29566e-05
-2.00903e-05 -1.29566e-05 -0.000164457
0.00542125 0.000129498 -2.84514e-06
0.000129498 0.00278079 -1.62486e-06
-2.84514e-06 -1.62486e-06 0.00278118
0.00540838 2.06598e-05 -8.44798e-06
2.06598e-05 0.00278426 -5.73084e-07
-8.44798e-06 -5.73084e-07 0.00278164
0.000564194 0.000114409 -3.24003e-07
0.000114409 -0.000109944 -2.15213e-07
-3.24003e-07 -2.15213e-07 -0.000187776
0.00236189 -0.00011187 -4.6687e-05
-0.00011187 0.00104943 -5.96124e-07
-4.6687e-05 -5.96124e-07 0.00103024
0.000564035 0.000160628 -9.56368e-07
0.000160628 -8.00991e-05 -2.60213e-07
-9.56368e-07 -2.60213e-07 -0.000161827
0.00139535 8.58573e-05 3.06296e-05
8.58573e-05 0.000432955 4.49415e-07
3.06296e-05 4.49415e-07 0.000371291
0.000901952 0.000156083 4.46785e-07
0.000156083 4.95381e-05 -4.42244e-07
4.46785e-07 -4.42244e-07 -9.48126e-05
0.00336908 -0.000105094 0.000103285
-0.000105094 0.00162234 4.42724e-06
0.000103285 4.42724e-06 0.00162368
0.0006073 -5.63614e-05 9.75839e-07
-5.63614e-05 1.49112e-05 6.95143e-06
9.75839e-07 6.95143e-06 -2.20685e-05
0.000679886 8.38374e-05 1.71236e-05
8.38374e-05 -6.2686e-05 8.07748e-06
1.71236e-05 8.07748e-06 -0.000136843
0.000708982 0.000135485 2.17253e-05
0.000135485 -1.46713e-05 1.34076e-05
2.17253e-05 1.34076e-05 -9.673e-05
0.00100927 0.000132574 1.26208e-05
0.000132574 -4.66452e-06 4.9694e-06
1.26208e-05 4.9694e-06 -0.000136585
0.00213448 1.99334e-05 6.30092e-05
1.99334e-05 0.000875678 7.97258e-06
6.30092e-05 7.97258e-06 0.000832379
0.000963863 0.000158896 1.04045e-05
0.000158896 3.35614e-05 5.33926e-06
1.04045e-05 5.33926e-06 -0.00010657
0.000952545 0.000157351 7.48915e-06
0.000157351 0.000148241 5.18551e-06
7.48915e-06 5.18551e-06 3.45479e-06
0.000931523 0.000191748 3.76852e-06
0.000191748 1.01206e-05 3.51957e-07
3.76852e-06 3.51957e-07 -0.000169453
0.00256637 -0.000111649 4.37904e-05
-0.000111649 0.00115585 2.39351e-06
4.37904e-05 2.39351e-06 0.001157
0.00276209 -0.000124221 7.38868e-06
-0.000124221 0.00127526 -4.23275e-07
7.38868e-06 -4.23275e-07 0.00127291
0.00540603 7.95988e-06 -0.000191285
7.95988e-06 0.00276736 -7.63819e-06
-0.000191285 -7.63819e-06 0.00277117
0.0053709 4.83844e-05 -0.000198678
4.83844e-05 0.00274907 -4.19784e-06
-0.000198678 -4.19784e-06 0.00275488
0.00532729 7.90422e-05 -1.2689e-07
7.90422e-05 0.00273408 -2.03176e-06
-1.2689e-07 -2.03176e-06 0.00273474
0.00332728 4.1213e-06 -9.0506e-05
4.1213e-06 0.00156899 -2.93169e-06
-9.0506e-05 -2.93169e-06 0.00155601
0.00165148 2.64564e-05 4.28563e-05
2.64564e-05 0.000485267 7.024e-07
4.28563e-05 7.024e-07 0.000427101
0.00338284 8.70831e-05 -7.67532e-05
8.70831e-05 0.00160454 -3.65896e-06
-7.67532e-05 -3.65896e-06 0.00158709
0.00167735 6.40049e-05 4.1597e-05
6.40049e-05 0.000504289 1.38203e-06
4.1597e-05 1.38203e-06 0.000442888
0.00529952 0.000142068 0.000198365
0.000142068 0.00272834 4.44986e-06
0.000198365 4.44986e-06 0.00272267
0.000636627 6.64371e-06 1.76702e-05
6.64371e-06 -0.000100313 4.16195e-07
1.76702e-05 4.16195e-07 -0.000167561
0.00265232 1.57234e-05 0.000101459
1.57234e-05 0.00106196 3.76608e-06
0.000101459 3.76608e-06 0.00101417
0.00105644 3.06973e-05 1.20593e-05
3.06973e-05 -1.37064e-05 1.22167e-06
1.20593e-05 1.22167e-06 -0.000129237
0.00254781 8.83705e-05 0.000101358
8.83705e-05 0.00101223 7.18605e-06
0.000101358 7.18605e-06 0.000959973
0.00106708 7.28425e-05 1.18069e-05
7.28425e-05 -8.22397e-08 2.43461e-06
1.18069e-05 2.43461e-06 -0.000121843
0.00163611 3.5754e-05 -0.000171143
3.5754e-05 0.000579838 1.27155e-06
-0.000171143 1.27155e-06 0.000567857
0.00125278 7.99517e-06 -2.53159e-05
7.99517e-06 0.00037788 1.60477e-06
-2.53159e-05 1.60477e-06 0.000343996
0.00134295 0.00013055 3.20276e-06
0.00013055 0.000486817 7.36518e-06
3.20276e-06 7.36518e-06 0.000430492
0.0012155 -6.16703e-05 -4.00992e-05
-6.16703e-05 0.000364395 5.25584e-06
-4.00992e-05 5.25584e-06 0.000330708
0.00162975 -5.80211e-05 -8.66475e-05
-5.80211e-05 0.00048735 7.0723e-06
-8.66475e-05 7.0723e-06 0.000430566
0.00156969 -9.36301e-05 -8.54146e-05
-9.36301e-05 0.000468878 1.13482e-05
-8.54146e-05 1.13482e-05 0.000409754
0.00151328 -0.000113526 -8.85857e-05
-0.000113526 0.000459526 1.32373e-05
-8.85857e-05 1.32373e-05 0.000392856
0.00199512 -0.000196832 -2.34726e-05
-0.000196832 0.000597438 7.75644e-06
-2.34726e-05 7.75644e-06 0.000469311
0.00529459 -8.19935e-05 2.06859e-06
-8.19935e-05 0.00271621 -1.28041e-06
2.06859e-06 -1.28041e-06 0.00271652
0.00148806 4.43682e-05 7.56199e-05
4.43682e-05 0.000503593 -2.26859e-06
7.56199e-05 -2.26859e-06 0.00047901
0.00112771 1.64287e-06 -4.543e-05
1.64287e-06 0.000187884 7.45387e-07
-4.543e-05 7.45387e-07 0.000128423
0.00154226 -4.31181e-05 -2.74981e-05
-4.31181e-05 0.000436617 1.20865e-06
-2.74981e-05 1.20865e-06 0.000374786
0.00260702 5.89126e-05 0.000111105
5.89126e-05 0.00118386 -1.49781e-06
0.000111105 -1.49781e-06 0.00117312
0.00175672 -4.31358e-05 -2.8985e-05
-4.31358e-05 0.000643603 -6.98657e-07
-2.8985e-05 -6.98657e-07 0.000570432
0.0015242 -8.87332e-05 -2.23936e-05
-8.87332e-05 0.000438838 1.30177e-06
-2.23936e-05 1.30177e-06 0.000375867
0.00179459 -0.00011431 -7.91935e-06
-0.00011431 0.000434715 1.36977e-06
-7.91935e-06 1.36977e-06 0.000319971
0.00197925 -0.000215634 -4.92746e-06
-0.000215634 0.000619863 1.42812e-06
-4.92746e-06 1.42812e-06 0.000480978
0.00181985 -0.000166945 -3.332e-06
-0.000166945 0.000476829 7.58271e-07
-3.332e-06 7.58271e-07 0.000354086
0.0012475 -0.000183189 2.94312e-07
-0.000183189 7.85236e-05 -4.46348e-08
2.94312e-07 -4.46348e-08 -7.85561e-05
0.000668435 1.12323e-05 1.80346e-05
1.12323e-05 -8.22822e-05 -1.20453e-06
1.80346e-05 -1.20453e-06 -0.000146975
0.00145993 1.73149e-05 2.71927e-05
1.73149e-05 0.00038933 -2.45302e-06
2.71927e-05 -2.45302e-06 0.00032533
0.00161199 -2.69696e-05 1.2417e-05
-2.69696e-05 0.000312316 -1.0418e-06
1.2417e-05 -1.0418e-06 0.000205243
0.00161574 -8.95275e-05 1.22214e-05
-8.95275e-05 0.000324932 -2.19077e-06
1.22214e-05 -2.19077e-06 0.000211068
0.00156853 -0.000133017 1.34704e-05
-0.000133017 0.000315514 -3.78447e-06
1.34704e-05 -3.78447e-06 0.00019664
0.00172973 -0.000135216 2.77119e-06
-0.000135216 0.000292761 -6.89753e-07
2.77119e-06 -6.89753e-07 0.000155538
0.00370932 0.000143884 9.61389e-05
0.000143884 0.00182813 -3.47741e-06
9.61389e-05 -3.47741e-06 0.00181918
0.00128536 -0.000166684 6.78655e-06
-0.000166684 7.95108e-05 -1.87532e-06
6.78655e-06 -1.87532e-06 -7.09693e-05
0.000412352 -3.67706e-05 9.20775e-06
-3.67706e-05 -0.000121238 -1.0751e-05
9.20775e-06 -1.0751e-05 -0.000180109
0.000778182 -0.000149692 7.16283e-06
-0.000149692 -5.75366e-06 -6.26217e-06
7.16283e-06 -6.26217e-06 -0.000148511
0.00128403 -0.000207533 8.73396e-06
-0.000207533 0.000128213 -1.88663e-06
8.73396e-06 -1.88663e-06 -4.05926e-05
0.00145277 -0.000216534 4.48726e-06
-0.000216534 0.000126659 2.8608e-07
4.48726e-06 2.8608e-07 -4.34015e-05
0.000468372 1.05943e-05 4.82909e-06
1.05943e-05 -7.78316e-05 -8.91278e-06
4.82909e-06 -8.91278e-06 -0.000124196
0.000659146 -1.17171e-05 1.29767e-06
-1.17171e-05 2.68424e-05 -4.13789e-06
1.29767e-06 -4.13789e-06 -6.92158e-05
0.0054251 0.00014074 -0.000208173
0.00014074 0.00278593 -1.50438e-05
-0.000208173 -1.50438e-05 0.00278517
0.0052714 2.87318e-06 -0.000178494
2.87318e-06 0.00270418 -1.19158e-05
-0.000178494 -1.19158e-05 0.00270432
0.000559161 0.000106266 -1.73316e-05
0.000106266 -0.000114013 -9.3395e-06
-1.73316e-05 -9.3395e-06 -0.000191733
0.00360032 -0.000147332 -9.09306e-05
-0.000147332 0.00176693 -3.32057e-06
-9.09306e-05 -3.32057e-06 0.00175804
0.000449329 7.18721e-05 -1.21628e-05
7.18721e-05 -0.00011231 -1.18865e-05
-1.21628e-05 -1.18865e-05 -0.000175922
0.00051419 0.000146795 -1.93399e-05
0.000146795 -0.000104297 -1.22418e-05
-1.93399e-05 -1.22418e-05 -0.000187276
0.000887683 0.000152665 -9.0981e-06
0.000152665 3.8731e-05 -5.63148e-06
-9.0981e-06 -5.63148e-06 -0.000104828
0.00321143 -0.000121472 5.78933e-06
-0.000121472 0.00153589 -2.99109e-07
5.78933e-06 -2.99109e-07 0.00153396
0.000540818 -6.36537e-05 3.18097e-07
-6.36537e-05 -2.13119e-05 3.28555e-07
3.18097e-07 3.28555e-07 -5.86322e-05
0.00162654 0.000106593 4.11658e-05
0.000106593 0.000487619 2.30871e-06
4.11658e-05 2.30871e-06 0.000421974
0.00155815 0.000150431 3.92459e-05
0.000150431 0.000479159 1.95375e-06
3.92459e-05 1.95375e-06 0.000406626
0.00102176 0.000135259 1.62362e-07
0.000135259 3.81648e-06 -1.34143e-07
1.62362e-07 -1.34143e-07 -0.000128801
0.000622061 1.97681e-05 -6.12909e-07
1.97681e-05 2.23951e-06 1.29627e-07
-6.12909e-07 1.29627e-07 -4.96207e-05
0.000961436 0.000158805 5.01172e-07
0.000158805 3.27574e-05 2.25952e-07
5.01172e-07 2.25952e-07 -0.000107417
0.000853389 0.000143217 2.93849e-07
0.000143217 8.95093e-05 -5.25735e-07
2.93849e-07 -5.25735e-07 -5.2757e-05
0.00100634 0.000198264 -6.63113e-08
0.000198264 5.10523e-05 1.56062e-07
-6.63113e-08 1.56062e-07 -0.000129266
0.000641015 -1.43882e-05 6.33604e-06
-1.43882e-05 2.56659e-05 8.1689e-06
6.33604e-06 8.1689e-06 -1.7894e-05
0.000605375 -6.84499e-05 -1.3485e-06
-6.84499e-05 9.26737e-06 5.78983e-06
-1.3485e-06 5.78983e-06 -2.11989e-05
0.000704997 2.99627e-05 2.66301e-06
2.99627e-05 6.45354e-05 3.92574e-06
2.66301e-06 3.92574e-06 -2.58039e-05
0.0010441 0.000112635 1.23378e-05
0.000112635 5.9052e-07 4.06676e-06
1.23378e-05 4.06676e-06 -0.000127678
0.00098665 0.000149974 1.20101e-05
0.000149974 1.03039e-05 5.37767e-06
1.20101e-05 5.37767e-06 -0.000125959
0.00133484 0.000177828 6.64223e-06
0.000177828 9.0602e-05 1.77206e-06
6.64223e-06 1.77206e-06 -6.86569e-05
0.000920714 0.000132423 5.82254e-06
0.000132423 0.000170487 5.34187e-06
5.82254e-06 5.34187e-06 3.96987e-05
0.000874071 0.000179826 4.45871e-06
0.000179826 -9.44968e-05 1.83529e-06
4.45871e-06 1.83529e-06 -0.000261481
0.000932904 0.000189979 3.40229e-06
0.000189979 9.60861e-05 1.12748e-06
3.40229e-06 1.12748e-06 -9.29453e-05
0.0013144 0.000237616 5.81392e-08
0.000237616 0.000179977 -2.4334e-08
5.81392e-08 -2.4334e-08 -7.90178e-06
0.00239449 -9.98096e-05 3.39449e-05
-9.98096e-05 0.00104927 2.85561e-06
3.39449e-05 2.85561e-06 0.00105341
0.00247822 -0.000111586 3.16354e-06
-0.000111586 0.00110538 -3.12529e-07
3.16354e-06 -3.12529e-07 0.00110624
0.00262351 -0.000125632 -4.11206e-05
-0.000125632 0.00119682 -2.39576e-06
-4.11206e-05 -2.39576e-06 0.00119365
0.000480457 2.3313e-05 3.45984e-06
2.3313e-05 -6.85634e-05 -7.70277e-06
3.45984e-06 -7.70277e-06 -0.000109591
0.00342786 0.000131478 8.27652e-05
0.000131478 0.00166027 -3.15448e-06
8.27652e-05 -3.15448e-06 0.00165487
0.0054306 0.000151121 -0.000211071
0.000151121 0.00279159 -1.39169e-05
-0.000211071 -1.39169e-05 0.00278947
0.00535523 4.42095e-05 -0.000194424
4.42095e-05 0.00273824 -5.99492e-06
-0.000194424 -5.99492e-06 0.0027439
0.000662304 7.41617e-05 -1.84231e-05
7.41617e-05 -8.09522e-05 -4.39002e-06
-1.84231e-05 -4.39002e-06 -0.000151907
0.000644936 3.23617e-05 -1.83481e-05
3.23617e-05 -9.31135e-05 -2.08871e-06
-1.83481e-05 -2.08871e-06 -0.000162394
0.00528071 -2.72258e-05 -0.000189936
-2.72258e-05 0.00269884 -9.12677e-07
-0.000189936 -9.12677e-07 0.002705
0.00526337 1.74104e-05 -6.58707e-07
1.74104e-05 0.00268996 -1.67452e-08
-6.58707e-07 -1.67452e-08 0.00269566
0.000625474 -4.63343e-07 -1.32623e-07
-4.63343e-07 -0.000107924 -1.47961e-07
-1.32623e-07 -1.47961e-07 -0.000174204
0.0016381 2.58028e-05 4.25892e-05
2.58028e-05 0.000477794 1.21697e-06
4.25892e-05 1.21697e-06 0.000419385
0.00106172 3.48431e-05 8.64014e-08
3.48431e-05 -1.05997e-05 -1.05961e-07
8.64014e-08 -1.05961e-07 -0.000126364
0.000636149 6.51795e-05 -3.2885e-07
6.51795e-05 -9.15556e-05 -2.25257e-07
-3.2885e-07 -2.25257e-07 -0.000163818
0.00106082 7.5348e-05 -4.03895e-08
7.5348e-05 -3.32508e-06 -1.75341e-07
-4.03895e-08 -1.75341e-07 -0.000125533
0.000614808 -2.23515e-05 1.80044e-05
-2.23515e-05 -0.000115103 -6.60789e-07
1.80044e-05 -6.60789e-07 -0.000179746
0.00105769 1.35533e-05 1.19055e-05
1.35533e-05 -1.40898e-05 4.64802e-07
1.19055e-05 4.64802e-07 -0.000127973
0.00105398 5.22215e-05 1.19702e-05
5.22215e-05 -1.2208e-05 1.78378e-06
1.19702e-05 1.78378e-06 -0.000130581
0.0014121 4.82529e-05 3.63221e-06
4.82529e-05 6.41924e-05 2.74283e-07
3.63221e-06 2.74283e-07 -6.31221e-05
0.00106154 9.19347e-05 1.19079e-05
9.19347e-05 2.22423e-06 3.20734e-06
1.19079e-05 3.20734e-06 -0.000122706
0.0014131 9.96139e-05 3.76257e-06
9.96139e-05 8.16586e-05 4.83264e-07
3.76257e-06 4.83264e-07 -5.62476e-05
0.00525554 -4.42243e-05 -0.00019691
-4.42243e-05 0.00268794 -7.1563e-08
-0.00019691 -7.1563e-08 0.00269214
0.00126138 -0.000109466 -2.70937e-05
-0.000109466 0.000387876 2.88064e-06
-2.70937e-05 2.88064e-06 0.000351711
-0.000217031 -9.69866e-07 -1.32759e-05
-9.69866e-07 -0.000588908 2.08377e-06
-1.32759e-05 2.08377e-06 -0.000664459
0.00162134 -3.97227e-05 -8.77685e-05
-3.97227e-05 0.000477955 5.19757e-06
-8.77685e-05 5.19757e-06 0.000421105
0.00394826 0.000250392 -4.85519e-06
0.000250392 0.00200271 3.54379e-06
-4.85519e-06 3.54379e-06 0.00196196
0.002453 -0.000131427 -8.32253e-05
-0.000131427 0.00102501 1.26397e-05
-8.32253e-05 1.26397e-05 0.000962993
0.00161244 -7.6715e-05 -8.57702e-05
-7.6715e-05 0.000483548 9.25314e-06
-8.57702e-05 9.25314e-06 0.000426322
0.00161647 -0.000105657 -2.47206e-05
-0.000105657 0.000330392 4.73074e-06
-2.47206e-05 4.73074e-06 0.00021496
0.0020308 -0.000175402 -2.21362e-05
-0.000175402 0.000598514 6.64955e-06
-2.21362e-05 6.64955e-06 0.000476559
0.00203063 -0.00021906 -2.12404e-05
-0.00021906 0.00065107 7.815e-06
-2.12404e-05 7.815e-06 0.000511436
0.00129385 -0.000185836 -6.71892e-06
-0.000185836 0.000104084 1.79838e-06
-6.71892e-06 1.79838e-06 -5.31047e-05
0.000620041 8.38329e-06 -2.42652e-08
8.38329e-06 -0.000108783 -4.41056e-08
-2.42652e-08 -4.41056e-08 -0.000174168
0.0015612 -5.46444e-05 -2.75173e-05
-5.46444e-05 0.000445718 3.04037e-07
-2.75173e-05 3.04037e-07 0.000384915
0.00117939 -2.30858e-05 -5.92903e-06
-2.30858e-05 6.2898e-05 2.78561e-07
-5.92903e-06 2.78561e-07 -4.82196e-05
0.00182128 -9.18783e-05 -4.29811e-06
-9.18783e-05 0.000441419 6.24156e-07
-4.29811e-06 6.24156e-07 0.000329118
0.00378501 0.000135622 -3.53566e-06
0.000135622 0.00187071 -5.34118e-07
-3.53566e-06 -5.34118e-07 0.00186315
0.00137622 -4.02928e-05 1.51249e-07
-4.02928e-05 0.000437429 5.05257e-07
1.51249e-07 5.05257e-07 0.000372485
0.00130969 -0.000178989 5.47138e-07
-0.000178989 0.000304399 -1.29446e-06
5.47138e-07 -1.29446e-06 0.000161429
0.00159427 -0.000132537 -4.63333e-06
-0.000132537 0.000330024 9.76421e-07
-4.63333e-06 9.76421e-07 0.000211177
0.00149434 -0.000127686 -2.57385e-06
-0.000127686 0.000155493 5.7182e-07
-2.57385e-06 5.7182e-07 1.78314e-05
0.00115842 -0.000198884 1.88741e-07
-0.000198884 5.47349e-05 7.62518e-08
1.88741e-07 7.62518e-08 -0.00011441
0.00151781 -0.00017648 2.71442e-07
-0.00017648 0.000212011 -1.76008e-07
2.71442e-07 -1.76008e-07 6.24662e-05
0.00143218 -0.000214444 4.58938e-07
-0.000214444 0.000117505 -6.01654e-08
4.58938e-07 -6.01654e-08 -5.18274e-05
0.000526876 5.12676e-06 -7.01673e-07
5.12676e-06 -4.57549e-05 1.12645e-07
-7.01673e-07 1.12645e-07 -9.22999e-05
0.000663638 -2.7356e-05 -5.12689e-07
-2.7356e-05 2.85442e-05 -3.70791e-08
-5.12689e-07 -3.70791e-08 -6.89607e-05
0.00105035 -1.12721e-05 1.17791e-05
-1.12721e-05 -1.49123e-05 -9.37869e-07
1.17791e-05 -9.37869e-07 -0.000127579
0.00163006 -5.32062e-05 1.19312e-05
-5.32062e-05 0.000325296 -1.5052e-06
1.19312e-05 -1.5052e-06 0.000215571
0.00170236 -3.88114e-05 2.40303e-06
-3.88114e-05 0.000245937 -1.0187e-07
2.40303e-06 -1.0187e-07 0.000123545
0.00133254 -9.92336e-05 4.52934e-06
-9.92336e-05 4.97087e-05 -5.47598e-07
4.52934e-06 -5.47598e-07 -8.3736e-05
0.00162141 -0.000162351 4.69667e-06
-0.000162351 0.000251552 -9.43161e-07
4.69667e-06 -9.43161e-07 0.000109045
0.00166487 -0.000152722 -3.87586e-07
-0.000152722 0.000162014 5.94163e-07
-3.87586e-07 5.94163e-07 2.70266e-05
0.000421101 -1.50156e-05 7.39296e-06
-1.50156e-05 -0.000110249 -9.73941e-06
7.39296e-06 -9.73941e-06 -0.000161797
0.00146568 -0.000198161 2.67667e-06
-0.000198161 0.000106891 5.61008e-07
2.67667e-06 5.61008e-07 -4.95908e-05
0.000631593 -0.000118265 4.27909e-06
-0.000118265 -1.99546e-05 -4.89432e-06
4.27909e-06 -4.89432e-06 -0.000152727
0.000891469 -0.000195093 7.56902e-06
-0.000195093 -2.47278e-05 -4.67313e-06
7.56902e-06 -4.67313e-06 -0.000207419
0.00184991 -0.000266468 3.78322e-06
-0.000266468 0.000387071 2.62033e-07
3.78322e-06 2.62033e-07 0.000198911
0.00176475 -0.000249421 -5.17934e-07
-0.000249421 0.000247236 3.17887e-06
-5.17934e-07 3.17887e-06 8.20243e-05
0.000737096 -6.62455e-05 3.01468e-06
-6.62455e-05 7.01663e-05 -3.82501e-06
3.01468e-06 -3.82501e-06 -4.10828e-05
0.000597007 -3.67909e-06 1.0758e-06
-3.67909e-06 -3.82202e-06 -3.50984e-06
1.0758e-06 -3.50984e-06 -8.94769e-05
0.000946462 -0.000112136 1.01435e-06
-0.000112136 0.000199925 -7.10936e-07
1.01435e-06 -7.10936e-07 5.75476e-05
0.000597454 8.53625e-05 -1.67976e-05
8.53625e-05 -0.000105648 -7.22186e-06
-1.67976e-05 -7.22186e-06 -0.000180146
0.00305461 -0.000141338 -5.98551e-05
-0.000141338 0.00144962 -2.11273e-06
-5.98551e-05 -2.11273e-06 0.00144273
0.000466098 -7.33541e-05 2.05412e-06
-7.33541e-05 -6.0112e-05 -6.58569e-06
2.05412e-06 -6.58569e-06 -9.9213e-05
0.000522314 0.000129971 -1.82194e-05
0.000129971 -0.000116108 -1.13262e-05
-1.82194e-05 -1.13262e-05 -0.000197405
0.00102795 0.000137855 -1.30314e-05
0.000137855 8.72433e-06 -5.21488e-06
-1.30314e-05 -5.21488e-06 -0.000124591
0.000420945 1.12575e-05 -7.53502e-06
1.12575e-05 -0.000110553 -9.83847e-06
-7.53502e-06 -9.83847e-06 -0.000161464
0.000714381 0.000126839 -5.6143e-06
0.000126839 8.51827e-06 -5.94995e-06
-5.6143e-06 -5.94995e-06 -0.000130936
0.000954687 0.000158186 -1.01808e-05
0.000158186 2.96449e-05 -5.06499e-06
-1.01808e-05 -5.06499e-06 -0.000110503
0.00102076 0.000199996 -5.67711e-06
0.000199996 5.72664e-05 -1.62687e-06
-5.67711e-06 -1.62687e-06 -0.000123047
0.000538637 -2.51441e-05 1.41215e-06
-2.51441e-05 -3.13527e-05 3.60616e-07
1.41215e-06 3.60616e-07 -7.44469e-05
0.000557638 -7.15593e-05 -3.17448e-07
-7.15593e-05 -1.75258e-05 2.19736e-07
-3.17448e-07 2.19736e-07 -4.83595e-05
0.000639338 -8.4856e-06 4.98069e-07
-8.4856e-06 2.20162e-05 3.67329e-07
4.98069e-07 3.67329e-07 -6.16769e-05
0.00104399 0.000114861 6.9147e-08
0.000114861 1.58652e-06 -2.41146e-07
6.9147e-08 -2.41146e-07 -0.000127361
0.00099838 0.000151965 3.82661e-07
0.000151965 1.79993e-05 -1.95766e-07
3.82661e-07 -1.95766e-07 -0.000118691
0.00131286 0.000176116 2.10232e-07
0.000176116 8.15221e-05 3.9772e-08
2.10232e-07 3.9772e-08 -7.769e-05
0.000791725 0.000116643 -2.41049e-07
0.000116643 9.82019e-05 2.60596e-07
-2.41049e-07 2.60596e-07 -3.02923e-05
0.0010924 0.000194624 -3.79574e-07
0.000194624 3.20307e-05 -2.43686e-07
-3.79574e-07 -2.43686e-07 -0.000136945
0.00108672 0.000200911 9.58246e-07
0.000200911 0.000185822 -1.02459e-06
9.58246e-07 -1.02459e-06 -4.02199e-06
0.00122947 0.00023428 -5.40803e-07
0.00023428 0.000124956 8.61517e-07
-5.40803e-07 8.61517e-07 -6.25404e-05
0.000599011 -6.32028e-05 -2.42874e-07
-6.32028e-05 -6.25144e-06 4.74337e-06
-2.42874e-07 4.74337e-06 -3.06365e-05
0.000739665 7.62172e-05 3.95722e-06
7.62172e-05 7.69591e-05 3.71714e-06
3.95722e-06 3.71714e-06 -3.1064e-05
0.000673456 -2.35272e-05 6.46674e-07
-2.35272e-05 3.5492e-05 3.28194e-06
6.46674e-07 3.28194e-06 -2.9654e-05
0.000860667 7.71099e-05 7.61292e-07
7.71099e-05 0.000168459 1.08463e-06
7.61292e-07 1.08463e-06 3.78266e-05
0.00136806 0.000152873 5.88315e-06
0.000152873 8.21791e-05 1.11746e-06
5.88315e-06 1.11746e-06 -6.96705e-05
0.00122848 0.000192302 6.9466e-06
0.000192302 6.64811e-05 2.20535e-06
6.9466e-06 2.20535e-06 -9.84631e-05
0.001551 0.000222792 1.75614e-06
0.000222792 0.000140171 8.26648e-08
1.75614e-06 8.26648e-08 -2.89134e-05
0.00101043 0.00016732 2.58335e-06
0.00016732 0.000199872 3.73802e-06
2.58335e-06 3.73802e-06 2.8348e-05
0.00127869 0.000228758 9.14855e-07
0.000228758 8.1376e-05 1.14034e-06
9.14855e-07 1.14034e-06 -9.68889e-05
0.00103665 0.000215974 2.24379e-06
0.000215974 0.000116941 -1.24215e-06
2.24379e-06 -1.24215e-06 -9.78339e-05
0.00185228 0.000283994 1.08412e-06
0.000283994 0.0004109 4.52993e-07
1.08412e-06 4.52993e-07 0.000217625
0.000667673 -1.0694e-05 1.89425e-06
-1.0694e-05 1.09081e-05 2.06083e-06
1.89425e-06 2.06083e-06 -3.32637e-05
0.000594452 -4.43449e-05 7.83747e-07
-4.43449e-05 -3.0018e-05 4.19677e-06
7.83747e-07 4.19677e-06 -4.63365e-05
0.002301 -8.70843e-05 2.89622e-05
-8.70843e-05 0.000986393 3.28107e-06
2.89622e-05 3.28107e-06 0.000993757
0.00233912 -9.78903e-05 2.50074e-06
-9.78903e-05 0.00101654 -2.40496e-07
2.50074e-06 -2.40496e-07 0.00102107
0.00239714 -0.000109217 -3.56516e-05
-0.000109217 0.00105834 -2.65845e-06
-3.56516e-05 -2.65845e-06 0.00105965
0.000502312 2.85066e-05 2.57354e-06
2.85066e-05 -5.86108e-05 -6.53958e-06
2.57354e-06 -6.53958e-06 -9.32891e-05
0.00313451 0.000122137 6.70667e-05
0.000122137 0.00148676 -3.02094e-06
6.70667e-05 -3.02094e-06 0.0014838
0.000543812 2.12068e-05 -2.86586e-07
2.12068e-05 -3.32268e-05 1.42888e-07
-2.86586e-07 1.42888e-07 -7.44645e-05
0.00350673 0.000123148 -2.79092e-06
0.000123148 0.00170385 -3.75969e-07
-2.79092e-06 -3.75969e-07 0.00170035
0.000654638 8.61032e-05 -1.82355e-05
8.61032e-05 -7.9439e-05 -5.7295e-06
-1.82355e-05 -5.7295e-06 -0.000152897
0.000656727 3.11186e-05 -1.78113e-05
3.11186e-05 -8.77884e-05 -3.0831e-06
-1.78113e-05 -3.0831e-06 -0.000156922
0.0010605 7.72978e-05 -1.16773e-05
7.72978e-05 -3.36195e-06 -2.77387e-06
-1.16773e-05 -2.77387e-06 -0.000125923
0.00106099 3.70414e-05 -1.21545e-05
3.70414e-05 -1.09565e-05 -1.41882e-06
-1.21545e-05 -1.41882e-06 -0.000126851
0.000666542 -4.89693e-06 -1.83204e-05
-4.89693e-06 -8.74759e-05 -8.34726e-07
-1.83204e-05 -8.34726e-07 -0.000152013
0.00531751 -9.63524e-05 -0.000204538
-9.63524e-05 0.00272872 2.84994e-06
-0.000204538 2.84994e-06 0.00272993
0.000651562 -7.33605e-07 1.4336e-07
-7.33605e-07 -9.51928e-05 -3.53566e-07
1.4336e-07 -3.53566e-07 -0.000159528
0.00106146 1.81987e-05 -1.25816e-08
1.81987e-05 -1.16946e-05 -1.41617e-07
-1.25816e-08 -1.41617e-07 -0.000125695
0.00106093 5.38859e-05 -1.67479e-08
5.38859e-05 -7.96309e-06 -1.49534e-07
-1.67479e-08 -1.49534e-07 -0.000126587
0.00139701 4.74689e-05 -6.75878e-08
4.74689e-05 5.64685e-05 4.29298e-08
-6.75878e-08 4.29298e-08 -7.09405e-05
0.00105407 9.45937e-05 -3.88566e-08
9.45937e-05 -1.15486e-06 -1.83645e-07
-3.88566e-08 -1.83645e-07 -0.000126797
0.00139344 0.000101154 -4.51719e-08
0.000101154 7.07506e-05 -7.80508e-08
-4.51719e-08 -7.80508e-08 -6.76814e-05
0.00106182 -2.87106e-07 1.18506e-05
-2.87106e-07 -1.00732e-05 -2.86766e-07
1.18506e-05 -2.86766e-07 -0.000123135
0.00140532 2.75199e-05 3.46521e-06
2.75199e-05 5.87718e-05 1.46033e-07
3.46521e-06 1.46033e-07 -6.58103e-05
0.00141959 7.52208e-05 3.75925e-06
7.52208e-05 7.58637e-05 2.54935e-07
3.75925e-06 2.54935e-07 -5.6316e-05
0.0016699 6.888e-05 -9.98338e-07
6.888e-05 9.06614e-05 -2.81448e-07
-9.98338e-07 -2.81448e-07 -2.33148e-05
0.00140832 0.000127474 4.23593e-06
0.000127474 8.76688e-05 7.61539e-07
4.23593e-06 7.61539e-07 -5.69373e-05
0.00163689 0.000129163 -4.94911e-07
0.000129163 0.000100146 -9.25759e-07
-4.94911e-07 -9.25759e-07 -2.96247e-05
0.0006372 5.17311e-06 -1.74516e-05
5.17311e-06 -9.81852e-05 9.34589e-07
-1.74516e-05 9.34589e-07 -0.000164542
0.0016267 -1.89153e-05 -8.8239e-05
-1.89153e-05 0.000478299 3.37002e-06
-8.8239e-05 3.37002e-06 0.000422675
0.000730589 -1.79468e-05 -1.33826e-05
-1.79468e-05 -0.000195704 1.59345e-06
-1.33826e-05 1.59345e-06 -0.000310974
0.00202016 -9.30742e-05 -2.18392e-05
-9.30742e-05 0.000553781 3.35267e-06
-2.18392e-05 3.35267e-06 0.000443202
0.00388378 0.000118847 -0.000116912
0.000118847 0.00192477 5.25462e-06
-0.000116912 5.25462e-06 0.00192003
0.00235065 -6.81014e-05 -7.03819e-05
-6.81014e-05 0.000991416 9.49578e-06
-7.03819e-05 9.49578e-06 0.000937066
0.00196747 -0.000219757 -1.62054e-05
-0.000219757 0.000684349 6.79307e-06
-1.62054e-05 6.79307e-06 0.00053961
0.00160191 -0.000131094 -2.23486e-05
-0.000131094 0.000333851 5.433e-06
-2.23486e-05 5.433e-06 0.000215271
0.00125743 -0.00011999 -6.5306e-06
-0.00011999 1.72828e-05 1.34256e-06
-6.5306e-06 1.34256e-06 -0.000120795
0.00175451 -0.00018663 -7.59945e-06
-0.00018663 0.00034691 1.85855e-06
-7.59945e-06 1.85855e-06 0.000198256
0.00101269 -0.000188864 -7.49104e-06
-0.000188864 -3.05461e-05 1.60495e-06
-7.49104e-06 1.60495e-06 -0.000199771
0.00142557 -0.000213425 -3.04421e-06
-0.000213425 0.000115525 -6.17665e-07
-3.04421e-06 -6.17665e-07 -5.3202e-05
0.000600224 -3.70265e-06 -7.02762e-06
-3.70265e-06 -4.50089e-06 8.72202e-06
-7.02762e-06 8.72202e-06 -5.17361e-05
0.00070255 -4.49729e-05 -2.7437e-06
-4.49729e-05 5.16e-05 3.36903e-06
-2.7437e-06 3.36903e-06 -4.84733e-05
0.000894184 -6.88365e-06 -3.97598e-07
-6.88365e-06 -0.000104401 -9.55992e-08
-3.97598e-07 -9.55992e-08 -0.000218131
0.0016358 -5.42259e-05 -4.91542e-06
-5.42259e-05 0.000327466 4.99915e-07
-4.91542e-06 4.99915e-07 0.000217769
0.00170116 -3.5276e-05 -2.35169e-06
-3.5276e-05 0.000241985 2.88912e-07
-2.35169e-06 2.88912e-07 0.000120992
0.00153083 -0.000102713 3.68399e-07
-0.000102713 0.000163428 -5.17903e-08
3.68399e-07 -5.17903e-08 3.05312e-05
0.000547456 -2.57606e-05 9.16876e-08
-2.57606e-05 -4.03945e-05 2.54926e-07
9.16876e-08 2.54926e-07 -9.28347e-05
0.000847802 -0.00014088 -2.1851e-07
-0.00014088 0.000101589 2.61637e-07
-2.1851e-07 2.61637e-07 -3.45652e-05
0.000969702 -0.000200708 1.74758e-06
-0.000200708 2.23356e-05 -1.61541e-06
1.74758e-06 -1.61541e-06 -0.000160408
0.00168456 -0.000162839 -2.0508e-06
-0.000162839 0.000286404 5.14692e-07
-2.0508e-06 5.14692e-07 0.000143788
0.00167427 -0.000152995 -2.62413e-08
-0.000152995 0.000162299 1.90515e-07
-2.62413e-08 1.90515e-07 2.97229e-05
0.00170703 -0.000258038 -2.13263e-06
-0.000258038 0.000304741 2.66124e-07
-2.13263e-06 2.66124e-07 0.000116331
0.00147499 -0.000198726 3.97497e-07
-0.000198726 0.000111573 -4.38778e-08
3.97497e-07 -4.38778e-08 -4.46817e-05
0.00172597 -0.000248997 6.34228e-07
-0.000248997 0.00022133 5.09311e-07
6.34228e-07 5.09311e-07 5.59024e-05
0.000728836 -7.56408e-05 -1.94969e-07
-7.56408e-05 6.55017e-05 -1.87588e-07
-1.94969e-07 -1.87588e-07 -4.68518e-05
0.000661521 -7.2357e-05 -7.48717e-07
-7.2357e-05 2.91042e-05 -6.54774e-07
-7.48717e-07 -6.54774e-07 -0.000104097
0.000664899 -1.37072e-05 1.90925e-07
-1.37072e-05 3.3299e-05 2.19005e-07
1.90925e-07 2.19005e-07 -5.28148e-05
0.00169841 -1.36746e-05 2.04537e-06
-1.36746e-05 0.000235634 -1.35746e-07
2.04537e-06 -1.35746e-07 0.000114652
0.00168662 -6.65941e-05 2.3923e-06
-6.65941e-05 0.000235798 1.7028e-07
2.3923e-06 1.7028e-07 0.000111251
0.00164805 -5.0035e-05 -1.04359e-06
-5.0035e-05 9.5471e-05 8.06556e-07
-1.04359e-06 8.06556e-07 -1.74723e-05
0.0016075 -0.000125123 -1.54e-06
-0.000125123 9.93255e-05 9.86204e-07
-1.54e-06 9.86204e-07 -2.74783e-05
0.00149495 -0.0001787 1.27282e-06
-0.0001787 9.2143e-05 1.22462e-06
1.27282e-06 1.22462e-06 -5.08508e-05
0.00172728 -0.000173632 -2.02735e-06
-0.000173632 0.000122539 1.54929e-06
-2.02735e-06 1.54929e-06 7.55443e-06
0.000686754 -9.88335e-05 3.78737e-06
-9.88335e-05 3.77013e-05 -3.36754e-06
3.78737e-06 -3.36754e-06 -8.40766e-05
0.00160539 -0.00023229 -1.05127e-06
-0.00023229 0.000115468 1.93847e-06
-1.05127e-06 1.93847e-06 -3.2802e-05
0.000989844 -0.000190796 2.01766e-06
-0.000190796 0.000140826 -3.83676e-06
2.01766e-06 -3.83676e-06 -3.48069e-05
0.00131716 -0.000254946 5.27262e-06
-0.000254946 0.000147791 -3.62531e-06
5.27262e-06 -3.62531e-06 -6.22349e-05
0.00184298 -0.000284132 1.23797e-06
-0.000284132 0.000332458 3.0014e-06
1.23797e-06 3.0014e-06 0.000137877
0.00188618 -0.000278394 -2.93922e-06
-0.000278394 0.0002656 3.89778e-06
-2.93922e-06 3.89778e-06 0.000110146
0.000613345 -8.59272e-06 1.19053e-06
-8.59272e-06 2.71351e-06 -3.06708e-06
1.19053e-06 -3.06708e-06 -7.22799e-05
0.00079713 -0.000119026 2.22114e-06
-0.000119026 8.83253e-05 7.69449e-07
2.22114e-06 7.69449e-07 -4.88725e-05
0.000582359 -4.88299e-05 9.67004e-07
-4.88299e-05 4.97544e-06 -1.62203e-06
9.67004e-07 -1.62203e-06 -0.000124598
0.0012069 -0.000179962 -6.24176e-07
-0.000179962 0.00034013 1.91971e-06
-6.24176e-07 1.91971e-06 0.00018274
0.00103773 0.00011709 -1.28064e-05
0.00011709 -9.46487e-07 -4.49269e-06
-1.28064e-05 -4.49269e-06 -0.000130576
0.000513072 -6.77111e-05 7.47745e-08
-6.77111e-05 -4.51925e-05 -5.04033e-06
7.47745e-08 -5.04033e-06 -7.46876e-05
0.000446018 -4.26414e-05 -4.7173e-07
-4.26414e-05 -8.00523e-05 -8.33109e-06
-4.7173e-07 -8.33109e-06 -0.000124053
0.000614831 -4.04046e-05 1.1178e-06
-4.04046e-05 1.17999e-05 -3.8962e-06
1.1178e-06 -3.8962e-06 -7.16549e-05
0.00101327 0.000154543 -1.17496e-05
0.000154543 2.74926e-05 -5.82706e-06
-1.17496e-05 -5.82706e-06 -0.000109741
0.00129207 0.000174446 -6.31559e-06
0.000174446 7.30728e-05 -1.73777e-06
-6.31559e-06 -1.73777e-06 -8.60961e-05
0.000665893 9.86538e-05 -3.70706e-06
9.86538e-05 2.73911e-05 -3.98727e-06
-3.70706e-06 -3.98727e-06 -9.84349e-05
0.0012839 0.000215435 -4.7518e-06
0.000215435 0.000300562 -4.47421e-06
-4.7518e-06 -4.47421e-06 0.000109013
0.00135877 0.000212504 -5.59791e-06
0.000212504 0.000185994 -1.67188e-06
-5.59791e-06 -1.67188e-06 1.47348e-05
0.00113891 0.00023009 -3.27486e-06
0.00023009 6.80408e-05 1.29129e-06
-3.27486e-06 1.29129e-06 -0.000119089
0.000572732 -5.93902e-05 -9.96283e-08
-5.93902e-05 -2.32513e-05 8.30777e-08
-9.96283e-08 8.30777e-08 -4.66143e-05
0.000735257 6.62277e-05 4.05974e-07
6.62277e-05 7.9582e-05 -1.94337e-07
4.05974e-07 -1.94337e-07 -3.0219e-05
0.000629426 -3.91653e-05 -6.99829e-07
-3.91653e-05 1.36518e-05 6.28997e-07
-6.99829e-07 6.28997e-07 -5.23193e-05
0.000784235 4.8462e-05 9.19222e-07
4.8462e-05 0.000122513 -4.82243e-07
9.19222e-07 -4.82243e-07 -3.64357e-06
0.00135312 0.000151944 5.82007e-07
0.000151944 7.66901e-05 -8.37691e-08
5.82007e-07 -8.37691e-08 -7.5294e-05
0.00127947 0.000196104 2.03167e-07
0.000196104 9.78921e-05 9.94573e-09
2.03167e-07 9.94573e-09 -6.75721e-05
0.00155987 0.000223423 2.2928e-07
0.000223423 0.000145068 1.65444e-07
2.2928e-07 1.65444e-07 -2.43423e-05
0.000981955 0.000166288 6.62735e-07
0.000166288 0.000186346 6.80811e-07
6.62735e-07 6.80811e-07 1.60693e-05
0.00154332 0.000245136 -6.45031e-07
0.000245136 0.000237993 -5.0179e-07
-6.45031e-07 -5.0179e-07 5.81711e-05
0.00112954 0.000226042 3.02301e-07
0.000226042 0.000169181 -2.29058e-06
3.02301e-07 -2.29058e-06 -4.93032e-05
0.00154213 0.000260686 -2.48928e-06
0.000260686 0.000240148 -4.23101e-07
-2.48928e-06 -4.23101e-07 5.11351e-05
0.00058923 -5.24079e-05 7.82202e-07
-5.24079e-05 -2.44516e-05 4.30053e-06
7.82202e-07 4.30053e-06 -4.37743e-05
0.000685728 -2.59484e-05 1.25537e-06
-2.59484e-05 3.55325e-05 2.45999e-06
1.25537e-06 2.45999e-06 -1.83181e-05
0.000964699 0.000121205 2.15349e-06
0.000121205 0.000202818 1.94774e-06
2.15349e-06 1.94774e-06 5.70227e-05
0.000811421 4.73331e-05 -4.34116e-07
4.73331e-05 0.000143411 2.29022e-06
-4.34116e-07 2.29022e-06 3.41278e-05
0.000918459 0.000122279 2.07984e-07
0.000122279 0.000210218 -5.44201e-07
2.07984e-07 -5.44201e-07 5.74929e-05
0.00160179 0.000192947 1.56754e-06
0.000192947 0.000133206 -9.78112e-07
1.56754e-06 -9.78112e-07 -2.17874e-05
0.00143366 0.000236074 1.23645e-06
0.000236074 0.000118471 1.29159e-06
1.23645e-06 1.29159e-06 -5.88159e-05
0.0017334 0.000261333 -1.5033e-07
0.000261333 0.000193856 -4.49271e-07
-1.5033e-07 -4.49271e-07 2.89371e-05
0.00117722 0.000211908 3.58272e-06
0.000211908 0.000286441 4.92782e-06
3.58272e-06 4.92782e-06 7.3173e-05
0.00161046 0.00027577 2.84692e-06
0.00027577 0.000230818 1.17283e-06
2.84692e-06 1.17283e-06 4.30537e-05
0.000837559 0.00022 3.30247e-06
0.00022 -8.7534e-05 -1.79035e-06
3.30247e-06 -1.79035e-06 -0.000302987
0.000663006 -1.43373e-05 2.28679e-06
-1.43373e-05 1.01984e-05 2.05224e-06
2.28679e-06 2.05224e-06 -3.52544e-05
0.000710331 3.20217e-05 2.97068e-07
3.20217e-05 6.09785e-05 9.30113e-07
2.97068e-07 9.30113e-07 -1.25348e-05
0.000684413 -9.46973e-07 1.61131e-06
-9.46973e-07 2.02616e-05 2.05956e-06
1.61131e-06 2.05956e-06 -2.33897e-05
0.000664745 -2.39981e-05 -3.61153e-07
-2.39981e-05 1.08086e-05 1.18904e-08
-3.61153e-07 1.18904e-08 -3.42195e-05
0.00126081 -5.05748e-05 1.09946e-06
-5.05748e-05 0.000352764 2.48902e-06
1.09946e-06 2.48902e-06 0.000341946
0.000941395 -5.06756e-05 6.93647e-07
-5.06756e-05 0.000172351 -6.45087e-08
6.93647e-07 -6.45087e-08 0.000157748
0.0009115 -4.56986e-05 2.40919e-05
-4.56986e-05 0.000165104 6.97848e-06
2.40919e-05 6.97848e-06 0.000169279
0.00226628 -8.53121e-05 2.50405e-06
-8.53121e-05 0.000965175 -2.16154e-07
2.50405e-06 -2.16154e-07 0.000972962
0.00228523 -9.55279e-05 -3.2105e-05
-9.55279e-05 0.000984405 -3.04593e-06
-3.2105e-05 -3.04593e-06 0.000989472
0.000517907 4.4912e-05 -2.45788e-07
4.4912e-05 -5.17797e-05 -5.70857e-06
-2.45788e-07 -5.70857e-06 -8.24558e-05
0.00287039 0.000115329 4.82738e-05
0.000115329 0.00132909 -3.10943e-06
4.82738e-05 -3.10943e-06 0.00132797
0.000556463 2.72239e-05 -2.60918e-07
2.72239e-05 -2.78643e-05 1.61529e-07
-2.60918e-07 1.61529e-07 -6.28392e-05
0.00322951 0.000115192 -3.70644e-06
0.000115192 0.00153967 -3.06831e-07
-3.70644e-06 -3.06831e-07 0.00153847
0.000600927 1.82534e-05 -4.02529e-06
1.82534e-05 -1.58169e-06 7.8707e-06
-4.02529e-06 7.8707e-06 -4.30678e-05
0.00358559 0.000113477 -0.000102423
0.000113477 0.00174725 4.32065e-06
-0.000102423 4.32065e-06 0.00174573
0.00105733 9.74863e-05 -1.21468e-05
9.74863e-05 1.18618e-06 -3.5247e-06
-1.21468e-05 -3.5247e-06 -0.000125098
0.00107084 5.80288e-05 -1.18988e-05
5.80288e-05 -1.87163e-06 -2.05681e-06
-1.18988e-05 -2.05681e-06 -0.00012092
0.00136912 9.92068e-05 -4.14871e-06
9.92068e-05 5.71582e-05 -6.71798e-07
-4.14871e-06 -6.71798e-07 -8.14762e-05
0.00138119 4.6862e-05 -3.85099e-06
4.6862e-05 4.85081e-05 -1.51381e-07
-3.85099e-06 -1.51381e-07 -7.90023e-05
0.00106374 2.15996e-05 -1.20647e-05
2.15996e-05 -1.011e-05 -8.03599e-07
-1.20647e-05 -8.03599e-07 -0.000124245
0.000626713 2.14511e-05 -1.79813e-05
2.14511e-05 -0.000108671 -5.23626e-08
-1.79813e-05 -5.23626e-08 -0.000173231
0.00105848 2.00421e-06 8.44978e-09
2.00421e-06 -1.20468e-05 -1.10203e-07
8.44978e-09 -1.10203e-07 -0.000125144
0.00139339 2.91489e-05 -9.06342e-08
2.91489e-05 5.20339e-05 -1.1731e-08
-9.06342e-08 -1.1731e-08 -7.26814e-05
0.00139324 7.21711e-05 1.57736e-09
7.21711e-05 6.24069e-05 -6.40586e-08
1.57736e-09 -6.40586e-08 -6.9804e-05
0.00171068 6.97624e-05 -5.32591e-08
6.97624e-05 0.000110288 2.43667e-07
-5.32591e-08 2.43667e-07 -1.80861e-06
0.00138359 0.000126644 -1.95176e-07
0.000126644 7.51514e-05 -6.41709e-08
-1.95176e-07 -6.41709e-08 -6.96688e-05
0.0016441 0.00012755 -1.91094e-07
0.00012755 0.00010888 4.88204e-08
-1.91094e-07 4.88204e-08 -2.08962e-05
0.00139444 6.77847e-06 3.64147e-06
6.77847e-06 5.5021e-05 -7.2533e-08
3.64147e-06 -7.2533e-08 -6.84382e-05
0.00171703 4.12364e-05 -1.68618e-06
4.12364e-05 0.000110792 1.25998e-07
-1.68618e-06 1.25998e-07 3.46881e-06
0.00165524 0.000104505 -8.40191e-07
0.000104505 9.0327e-05 -7.50476e-07
-8.40191e-07 -7.50476e-07 -3.07011e-05
0.00178112 7.6851e-05 -1.44375e-06
7.6851e-05 8.94284e-05 2.8639e-08
-1.44375e-06 2.8639e-08 -4.146e-06
0.00162833 0.000155128 -9.66847e-08
0.000155128 0.000123372 -1.0215e-06
-9.66847e-08 -1.0215e-06 -1.71209e-05
0.00169856 0.000151402 -2.75148e-06
0.000151402 7.26653e-05 -1.12905e-06
-2.75148e-06 -1.12905e-06 -3.40014e-05
0.000733821 -4.03063e-06 -1.16642e-05
-4.03063e-06 -0.000196044 6.49095e-07
-1.16642e-05 6.49095e-07 -0.000310894
0.00166369 -5.66983e-05 -2.15542e-05
-5.66983e-05 0.000342248 2.44186e-06
-2.15542e-05 2.44186e-06 0.000232564
0.00170467 -2.89716e-05 -6.89491e-06
-2.89716e-05 0.000240856 3.80779e-07
-6.89491e-06 3.80779e-07 0.000121416
0.00172694 -0.000106423 -5.07025e-06
-0.000106423 0.000275973 8.25773e-07
-5.07025e-06 8.25773e-07 0.000143605
0.000684012 -3.78856e-05 -9.76704e-06
-3.78856e-05 3.67565e-05 1.0027e-05
-9.76704e-06 1.0027e-05 -1.78458e-05
0.000906446 -0.000153909 -6.56552e-06
-0.000153909 0.000135897 6.0999e-06
-6.56552e-06 6.0999e-06 -2.55912e-06
0.00106635 -0.000207697 -4.16811e-06
-0.000207697 8.00319e-05 1.31827e-06
-4.16811e-06 1.31827e-06 -0.000103017
0.00174561 -0.000163153 -8.19468e-06
-0.000163153 0.000320076 2.01899e-06
-8.19468e-06 2.01899e-06 0.000177378
0.00167755 -0.000152938 -3.84961e-07
-0.000152938 0.00015907 -6.94071e-07
-3.84961e-07 -6.94071e-07 2.89429e-05
0.00148618 -0.000199371 -2.2e-06
-0.000199371 0.000117304 -5.6414e-07
-2.2e-06 -5.6414e-07 -3.87227e-05
0.00153826 -0.000247254 -5.6552e-06
-0.000247254 0.000208647 -1.8077e-07
-5.6552e-06 -1.8077e-07 2.02524e-05
0.00168643 -0.000248112 2.21468e-06
-0.000248112 0.000195144 -2.56401e-06
2.21468e-06 -2.56401e-06 2.96274e-05
0.000715383 -8.16607e-05 -4.01655e-06
-8.16607e-05 5.52762e-05 3.33359e-06
-4.01655e-06 3.33359e-06 -5.65783e-05
0.000499212 -6.35879e-05 -2.37421e-06
-6.35879e-05 -6.1997e-05 -4.559e-07
-2.37421e-06 -4.559e-07 -0.000195004
0.000704332 -2.07171e-05 -1.33216e-06
-2.07171e-05 5.47798e-05 3.63242e-06
-1.33216e-06 3.63242e-06 -3.2142e-05
0.0015514 -1.17048e-05 -2.37986e-06
-1.17048e-05 0.000149861 1.63572e-07
-2.37986e-06 1.63572e-07 2.77592e-05
0.00169545 -7.3408e-05 -2.20517e-06
-7.3408e-05 0.000240935 3.7914e-07
-2.20517e-06 3.7914e-07 0.000115834
0.0016472 -4.65993e-05 3.17528e-07
-4.65993e-05 9.39909e-05 3.15735e-07
3.17528e-07 3.15735e-07 -1.57906e-05
0.00163961 -0.000122746 -1.25411e-06
-0.000122746 0.000114709 3.05105e-07
-1.25411e-06 3.05105e-07 -1.21572e-05
0.000761603 -0.000113632 3.31012e-07
-0.000113632 8.03157e-05 1.81963e-07
3.31012e-07 1.81963e-07 -4.34681e-05
0.00106125 -0.000197572 -1.00328e-06
-0.000197572 0.000176463 3.37107e-07
-1.00328e-06 3.37107e-07 1.98279e-07
0.00114619 -0.000238731 9.98336e-07
-0.000238731 5.73512e-05 -1.0044e-06
9.98336e-07 -1.0044e-06 -0.000148551
0.00155075 -0.000181026 -4.08247e-07
-0.000181026 0.000124909 3.41844e-07
-4.08247e-07 3.41844e-07 -2.0049e-05
0.00175763 -0.000173807 1.29514e-06
-0.000173807 0.00014285 1.5552e-07
1.29514e-06 1.5552e-07 3.17309e-05
0.00171798 -0.000279834 -8.95421e-07
-0.000279834 0.000259562 6.19117e-07
-8.95421e-07 6.19117e-07 6.27851e-05
0.00163049 -0.000232427 1.2652e-07
-0.000232427 0.000130295 2.75742e-07
1.2652e-07 2.75742e-07 -1.75764e-05
0.0019342 -0.000279343 1.35382e-06
-0.000279343 0.000295013 -4.95209e-07
1.35382e-06 -4.95209e-07 0.000141986
0.000933532 -0.000138941 2.20736e-07
-0.000138941 0.000170219 3.21846e-07
2.20736e-07 3.21846e-07 2.86319e-05
0.00105309 -0.000174808 -2.86855e-07
-0.000174808 0.00025527 3.21137e-07
-2.86855e-07 3.21137e-07 9.61915e-05
0.000659949 -1.50648e-05 1.39988e-07
-1.50648e-05 2.92069e-05 1.97725e-07
1.39988e-07 1.97725e-07 -4.64592e-05
0.000483712 -2.09575e-05 -2.05417e-07
-2.09575e-05 -5.84109e-05 -7.68839e-07
-2.05417e-07 -7.68839e-07 -0.000180908
0.00166862 -2.74486e-05 -8.02524e-07
-2.74486e-05 0.000100802 5.22659e-08
-8.02524e-07 5.22659e-08 -8.91864e-06
0.00184002 -8.37704e-05 -6.2293e-07
-8.37704e-05 0.000208096 1.03525e-06
-6.2293e-07 1.03525e-06 9.25112e-05
0.00161866 -6.10626e-05 3.94765e-07
-6.10626e-05 6.54709e-06 1.17103e-07
3.94765e-07 1.17103e-07 -8.93035e-05
0.00176448 -0.000151441 -3.73421e-06
-0.000151441 0.000110398 1.12712e-06
-3.73421e-06 1.12712e-06 1.26905e-05
0.00169721 -0.000205378 -3.00057e-06
-0.000205378 0.000132441 2.80524e-06
-3.00057e-06 2.80524e-06 4.79499e-06
0.00182254 -0.00017386 1.09555e-06
-0.00017386 0.000149301 4.50949e-08
1.09555e-06 4.50949e-08 5.46787e-05
0.000838069 -0.000164443 1.59639e-06
-0.000164443 9.84792e-05 -1.15773e-06
1.59639e-06 -1.15773e-06 -5.46049e-05
0.00161791 -0.000250036 -4.05391e-06
-0.000250036 7.94263e-05 3.01475e-06
-4.05391e-06 3.01475e-06 -4.85164e-05
0.000402625 -0.000170272 4.76399e-07
-0.000170272 -0.000237812 -5.45882e-06
4.76399e-07 -5.45882e-06 -0.000432256
0.00196148 -0.000327235 3.73763e-06
-0.000327235 0.000472497 -6.33227e-07
3.73763e-06 -6.33227e-07 0.000242072
0.00170377 -0.000295726 3.64402e-09
-0.000295726 0.000205393 5.4616e-06
3.64402e-09 5.4616e-06 1.00368e-05
0.00190672 -0.000274788 -4.46848e-07
-0.000274788 0.000258879 1.47951e-06
-4.46848e-07 1.47951e-06 0.000112015
0.000616077 -1.61369e-05 1.50598e-06
-1.61369e-05 2.34156e-06 -2.93358e-06
1.50598e-06 -2.93358e-06 -6.48503e-05
0.000556883 -2.1626e-05 -1.57971e-07
-2.1626e-05 -5.12995e-06 -2.14642e-06
-1.57971e-07 -2.14642e-06 -0.000123271
0.000891762 -0.000178772 2.4411e-07
-0.000178772 0.000137026 1.81635e-06
2.4411e-07 1.81635e-06 -1.9678e-05
0.000824014 -0.000125452 1.65666e-06
-0.000125452 0.000151733 9.44269e-07
1.65666e-06 9.44269e-07 -1.57191e-06
0.00127908 -0.000213209 -1.38164e-06
-0.000213209 0.000375734 3.90513e-06
-1.38164e-06 3.90513e-06 0.000213736
0.000555462 -5.64462e-05 -1.04961e-06
-5.64462e-05 -3.45396e-05 -4.3818e-06
-1.04961e-06 -4.3818e-06 -5.71509e-05
0.00133985 0.000151025 -4.72486e-06
0.000151025 7.24949e-05 -1.2954e-06
-4.72486e-06 -1.2954e-06 -7.96145e-05
0.000567831 -5.56902e-05 -1.12449e-07
-5.56902e-05 -1.71608e-05 -2.62628e-06
-1.12449e-07 -2.62628e-06 -8.48315e-05
0.000724998 4.55395e-05 -1.13238e-06
4.55395e-05 7.05154e-05 -3.92857e-06
-1.13238e-06 -3.92857e-06 -3.49311e-05
0.000690878 1.83848e-05 1.6517e-06
1.83848e-05 6.54835e-05 -1.78328e-06
1.6517e-06 -1.78328e-06 -5.53071e-05
0.00129763 0.000198023 -6.49896e-06
0.000198023 0.000110407 -2.1218e-06
-6.49896e-06 -2.1218e-06 -5.54655e-05
0.00157535 0.000224407 -5.01648e-07
0.000224407 0.000153943 4.11125e-07
-5.01648e-07 4.11125e-07 -1.58147e-05
0.00104948 0.000179348 -2.16628e-06
0.000179348 0.000229083 -2.77945e-06
-2.16628e-06 -2.77945e-06 5.71217e-05
0.00131389 0.000244221 -3.16499e-06
0.000244221 0.000271467 -2.67657e-06
-3.16499e-06 -2.67657e-06 4.82766e-05
0.00175704 0.000258156 -3.55461e-06
0.000258156 0.000365596 -1.84805e-06
-3.55461e-06 -1.84805e-06 0.000184579
0.00122485 0.000237012 -7.80792e-06
0.000237012 6.49451e-05 -5.21533e-07
-7.80792e-06 -5.21533e-07 -0.000119741
0.000584884 -5.0493e-05 5.61657e-08
-5.0493e-05 -2.78288e-05 1.64397e-09
5.61657e-08 1.64397e-09 -4.67465e-05
0.000648906 -3.43825e-05 -6.06336e-07
-3.43825e-05 1.61302e-05 2.5679e-07
-6.06336e-07 2.5679e-07 -3.82935e-05
0.000926922 0.000121428 4.44006e-07
0.000121428 0.00018055 3.74451e-07
4.44006e-07 3.74451e-07 3.5638e-05
0.000710829 -1.49126e-06 -4.77131e-07
-1.49126e-06 8.14987e-05 3.75991e-07
-4.77131e-07 3.75991e-07 -2.20014e-05
0.00071498 8.4775e-05 1.05439e-06
8.4775e-05 8.68234e-05 -4.67822e-07
1.05439e-06 -4.67822e-07 -5.95468e-05
0.00159911 0.000194165 3.62892e-07
0.000194165 0.000129285 -4.81113e-07
3.62892e-07 -4.81113e-07 -2.62637e-05
0.00146945 0.000237505 7.41056e-07
0.000237505 0.000141089 6.66919e-07
7.41056e-07 6.66919e-07 -3.64253e-05
0.00166591 0.000259402 1.54382e-06
0.000259402 0.000155377 2.56834e-07
1.54382e-06 2.56834e-07 -1.00939e-05
0.00112373 0.000207476 1.24077e-06
0.000207476 0.000262775 1.49114e-06
1.24077e-06 1.49114e-06 4.79542e-05
0.00170895 0.000283572 4.58812e-07
0.000283572 0.000282905 -1.48744e-07
4.58812e-07 -1.48744e-07 9.45431e-05
0.00104915 0.000235013 -1.98198e-06
0.000235013 2.73506e-05 -1.30355e-07
-1.98198e-06 -1.30355e-07 -0.000188918
0.000689702 -2.06705e-05 2.13643e-06
-2.06705e-05 2.98753e-05 2.15569e-06
2.13643e-06 2.15569e-06 -1.83036e-05
0.000777238 3.1007e-05 5.42291e-07
3.1007e-05 0.000109764 1.93479e-06
5.42291e-07 1.93479e-06 2.23825e-05
0.000981157 0.00018371 -1.07299e-06
0.00018371 0.000210045 -1.63388e-07
-1.07299e-06 -1.63388e-07 3.49114e-05
0.000922159 4.07114e-05 -3.53727e-07
4.07114e-05 0.000209 1.09119e-06
-3.53727e-07 1.09119e-06 8.31624e-05
0.00127704 0.000105471 -3.68906e-06
0.000105471 0.000383743 -3.95001e-06
-3.68906e-06 -3.95001e-06 0.000232398
0.00166829 0.000205551 -2.71351e-06
0.000205551 0.000125906 -2.66787e-06
-2.71351e-06 -2.66787e-06 -1.54688e-05
0.00164655 0.000286971 1.60189e-06
0.000286971 0.00019185 3.04239e-07
1.60189e-06 3.04239e-07 9.20801e-06
0.00150797 0.000278744 1.95469e-06
0.000278744 3.16505e-05 -1.16358e-06
1.95469e-06 -1.16358e-06 -0.00012908
0.00104952 0.000215262 -5.06635e-07
0.000215262 0.000190164 2.86569e-06
-5.06635e-07 2.86569e-06 -4.73897e-05
0.0013839 0.000282334 5.79587e-06
0.000282334 0.000116116 -6.73265e-07
5.79587e-06 -6.73265e-07 -9.07745e-05
0.000664628 -2.29827e-05 -1.76862e-07
-2.29827e-05 1.20195e-05 2.98853e-09
-1.76862e-07 2.98853e-09 -3.38472e-05
0.000587762 1.03708e-05 1.45521e-06
1.03708e-05 -1.85095e-05 1.32674e-06
1.45521e-06 1.32674e-06 -8.84658e-05
0.000603128 -4.8496e-06 -5.74362e-07
-4.8496e-06 -4.62758e-06 -7.79133e-08
-5.74362e-07 -7.79133e-08 -7.54574e-05
0.000922237 6.64965e-05 7.14654e-07
6.64965e-05 0.000192253 -3.06097e-07
7.14654e-07 -3.06097e-07 0.000104917
0.000717223 5.00189e-05 1.75104e-06
5.00189e-05 6.4645e-05 1.1522e-06
1.75104e-06 1.1522e-06 -7.66613e-06
0.000668676 1.16043e-05 1.57939e-06
1.16043e-05 1.35444e-05 2.09177e-06
1.57939e-06 2.09177e-06 -3.06004e-05
0.000668302 -1.80261e-05 -5.68464e-07
-1.80261e-05 1.25316e-05 2.45704e-08
-5.68464e-07 2.45704e-08 -3.18773e-05
0.00125765 -3.96016e-05 7.7444e-07
-3.96016e-05 0.000345636 2.4197e-06
7.7444e-07 2.4197e-06 0.000336599
0.000664867 -3.31994e-05 -9.18115e-07
-3.31994e-05 1.1839e-05 -2.09605e-06
-9.18115e-07 -2.09605e-06 -3.36387e-05
0.00129006 -4.74631e-05 -5.02907e-06
-4.74631e-05 0.00036927 -1.32726e-06
-5.02907e-06 -1.32726e-06 0.000358915
0.000884707 -3.70566e-05 2.22944e-05
-3.70566e-05 0.000140905 7.17657e-06
2.22944e-05 7.17657e-06 0.000147729
0.00129796 -5.4604e-05 -9.63727e-06
-5.4604e-05 0.000380642 -3.64253e-06
-9.63727e-06 -3.64253e-06 0.00036819
0.00154922 -5.93977e-05 2.03473e-05
-5.93977e-05 0.000537923 1.93721e-06
2.03473e-05 1.93721e-06 0.000545298
0.00223729 -8.35521e-05 -2.8481e-05
-8.35521e-05 0.000947216 -3.48683e-06
-2.8481e-05 -3.48683e-06 0.000955424
0.000530593 5.14625e-05 -2.21872e-07
5.14625e-05 -5.04114e-05 -4.88933e-06
-2.21872e-07 -4.88933e-06 -7.63304e-05
0.000551625 3.6512e-05 5.39779e-08
3.6512e-05 -3.41062e-05 1.81921e-07
5.39779e-08 1.81921e-07 -6.38712e-05
0.00265745 0.000102144 3.7894e-05
0.000102144 0.0011996 -3.40737e-06
3.7894e-05 -3.40737e-06 0.00120183
0.00296529 0.000109241 -5.71039e-06
0.000109241 0.00138261 -2.99172e-07
-5.71039e-06 -2.99172e-07 0.00138314
0.000612416 2.56532e-05 -3.11948e-06
2.56532e-05 3.81754e-06 6.78887e-06
-3.11948e-06 6.78887e-06 -3.14795e-05
0.00331434 0.000105722 -8.91347e-05
0.000105722 0.00158652 3.91362e-06
-8.91347e-05 3.91362e-06 0.00158749
0.00135981 0.000126009 -4.66956e-06
0.000126009 6.30187e-05 -9.09375e-07
-4.66956e-06 -9.09375e-07 -8.20419e-05
0.00136845 7.22442e-05 -4.0102e-06
7.22442e-05 4.99056e-05 -3.68905e-07
-4.0102e-06 -3.68905e-07 -8.26361e-05
0.00164482 0.000126966 8.73756e-08
0.000126966 0.000114021 9.99796e-07
8.73756e-08 9.99796e-07 -1.58952e-05
0.00175137 7.06663e-05 8.22572e-07
7.06663e-05 0.000129756 6.20168e-07
8.22572e-07 6.20168e-07 1.95514e-05
0.00138369 3.22172e-05 -3.47098e-06
3.22172e-05 4.63884e-05 -1.38853e-07
-3.47098e-06 -1.38853e-07 -7.85027e-05
0.00106448 6.69267e-06 -1.17927e-05
6.69267e-06 -8.93049e-06 -3.58312e-08
-1.17927e-05 -3.58312e-08 -0.000121994
0.00139059 1.02024e-05 6.46329e-08
1.02024e-05 5.26669e-05 -2.1573e-08
6.46329e-08 -2.1573e-08 -7.0899e-05
0.00172574 3.125e-05 -1.05873e-06
3.125e-05 0.000116628 -1.29759e-08
-1.05873e-06 -1.29759e-08 9.6127e-06
0.00167345 0.000103357 -1.12288e-07
0.000103357 0.000102024 5.1723e-08
-1.12288e-07 5.1723e-08 -1.88316e-05
0.00180594 7.75044e-05 1.45238e-06
7.75044e-05 0.000102668 9.03022e-07
1.45238e-06 9.03022e-07 1.27839e-05
0.0016158 0.000155941 -2.37163e-07
0.000155941 0.000114257 -7.30011e-08
-2.37163e-07 -7.30011e-08 -2.68057e-05
0.00171058 0.000148658 -3.11502e-07
0.000148658 7.67267e-05 9.06933e-07
-3.11502e-07 9.06933e-07 -2.73525e-05
0.00170302 -2.11932e-07 -7.71535e-07
-2.11932e-07 0.00011382 9.7205e-08
-7.71535e-07 9.7205e-08 7.11368e-06
0.00168558 4.23751e-05 -2.47419e-07
4.23751e-05 4.43485e-05 6.72768e-07
-2.47419e-07 6.72768e-07 -4.48633e-05
0.00182217 0.000118213 -3.6285e-06
0.000118213 0.000118639 -9.55423e-07
-3.6285e-06 -9.55423e-07 2.57983e-05
0.00180687 8.22981e-05 1.63915e-06
8.22981e-05 8.71323e-05 6.34296e-08
1.63915e-06 6.34296e-08 1.41159e-05
0.00164131 0.000160703 -1.65565e-06
0.000160703 7.3959e-05 -2.55859e-06
-1.65565e-06 -2.55859e-06 -4.5479e-05
0.00187731 0.000160646 1.66974e-06
0.000160646 0.000134625 5.31736e-08
1.66974e-06 5.31736e-08 4.72073e-05
0.00140104 -1.01512e-05 -5.4916e-06
-1.01512e-05 6.19751e-05 2.8794e-07
-5.4916e-06 2.8794e-07 -6.12502e-05
0.00171151 -7.71494e-05 -6.90318e-06
-7.71494e-05 0.0002501 6.4051e-07
-6.90318e-06 6.4051e-07 0.000124639
0.00163927 -4.44779e-05 9.26232e-07
-4.44779e-05 8.82971e-05 -7.17956e-07
9.26232e-07 -7.17956e-07 -1.84181e-05
0.00166613 -0.000120701 -6.28141e-07
-0.000120701 0.000126809 -2.47293e-07
-6.28141e-07 -2.47293e-07 -1.7076e-07
0.000884692 -0.000132837 -4.97446e-06
-0.000132837 0.00015085 4.59246e-06
-4.97446e-06 4.59246e-06 2.44832e-05
0.00117802 -0.000207842 -3.63816e-06
-0.000207842 0.000238567 4.20176e-06
-3.63816e-06 4.20176e-06 6.10836e-05
0.000794515 -0.000208155 -2.99762e-06
-0.000208155 -0.000136083 6.1277e-07
-2.99762e-06 6.1277e-07 -0.000336598
0.00161119 -0.000183557 -1.80264e-06
-0.000183557 0.00016023 -1.0296e-08
-1.80264e-06 -1.0296e-08 1.32841e-05
0.00178674 -0.00017381 3.24773e-06
-0.00017381 0.000162425 -2.01514e-06
3.24773e-06 -2.01514e-06 5.51985e-05
0.0016594 -0.000232729 1.68571e-06
-0.000232729 0.000147484 -1.4333e-06
1.68571e-06 -1.4333e-06 7.38463e-09
0.00160888 -0.000277694 -1.4028e-06
-0.000277694 0.000195858 -1.47953e-06
-1.4028e-06 -1.47953e-06 -3.60898e-06
0.0019863 -0.000280104 4.71569e-06
-0.000280104 0.000327252 -6.21332e-06
4.71569e-06 -6.21332e-06 0.000176716
0.000925958 -0.000139539 -1.52769e-06
-0.000139539 0.00016715 1.35005e-07
-1.52769e-06 1.35005e-07 2.55219e-05
0.000766043 -0.000131163 -1.31195e-06
-0.000131163 8.28131e-05 -1.30232e-06
-1.31195e-06 -1.30232e-06 -6.6217e-05
0.000713682 -1.93962e-05 -1.53076e-06
-1.93962e-05 5.89567e-05 3.22985e-06
-1.53076e-06 3.22985e-06 -1.69736e-05
0.000478248 -2.34992e-06 2.78004e-09
-2.34992e-06 -6.37135e-05 2.3116e-08
2.78004e-09 2.3116e-08 -0.000181951
0.00165959 -2.72127e-05 -7.42105e-09
-2.72127e-05 9.61332e-05 5.84847e-08
-7.42105e-09 5.84847e-08 -1.36928e-05
0.00175794 -8.28589e-05 -1.94137e-07
-8.28589e-05 0.000160906 -1.6645e-07
-1.94137e-07 -1.6645e-07 4.35018e-05
0.00169187 -6.08822e-05 1.33669e-06
-6.08822e-05 4.93254e-05 -3.37833e-07
1.33669e-06 -3.37833e-07 -4.43018e-05
0.00169435 -0.000148232 -1.26972e-06
-0.000148232 7.79472e-05 5.8581e-07
-1.26972e-06 5.8581e-07 -2.16826e-05
0.000963887 -0.0001655 -3.73126e-07
-0.0001655 0.0001693 9.88718e-07
-3.73126e-07 9.88718e-07 1.63243e-05
0.000694596 -0.000190788 1.31384e-06
-0.000190788 -6.83767e-05 -2.09734e-06
1.31384e-06 -2.09734e-06 -0.000263117
0.00162283 -0.000301471 -2.81073e-08
-0.000301471 0.00027651 8.29186e-07
-2.81073e-08 8.29186e-07 4.74048e-05
0.00164408 -0.000202761 -1.39705e-06
-0.000202761 0.000106845 6.68589e-07
-1.39705e-06 6.68589e-07 -2.39371e-05
0.00173286 -0.00017333 2.03025e-06
-0.00017333 9.32822e-05 -1.07891e-06
2.03025e-06 -1.07891e-06 1.88913e-06
0.00169372 -0.000296586 -7.23818e-07
-0.000296586 0.000201592 1.0582e-06
-7.23818e-07 1.0582e-06 5.24039e-06
0.00166509 -0.00025199 -3.67303e-07
-0.00025199 0.000108152 9.51921e-07
-3.67303e-07 9.51921e-07 -1.99686e-05
0.00179955 -0.000269649 3.03707e-06
-0.000269649 0.000188305 -4.50659e-06
3.03707e-06 -4.50659e-06 4.50303e-05
0.00101198 -0.000189366 2.95149e-07
-0.000189366 0.000204189 8.49039e-07
2.95149e-07 8.49039e-07 4.57327e-05
0.00115102 -0.000195325 1.98764e-06
-0.000195325 0.000295729 7.97975e-07
1.98764e-06 7.97975e-07 0.000140072
0.000821335 -9.53248e-05 -3.87771e-07
-9.53248e-05 0.000145952 1.74834e-07
-3.87771e-07 1.74834e-07 -4.94945e-06
0.000518518 2.84349e-06 -9.38487e-07
2.84349e-06 -5.39793e-05 2.00528e-07
-9.38487e-07 2.00528e-07 -0.0001226
0.000491464 7.41443e-06 -1.95773e-07
7.41443e-06 -4.58085e-05 -7.23899e-07
-1.95773e-07 -7.23899e-07 -0.000159545
0.00178045 -3.83331e-05 1.23268e-07
-3.83331e-05 9.50587e-05 -4.23791e-07
1.23268e-07 -4.23791e-07 6.08354e-06
0.00178608 -8.85587e-05 6.46373e-07
-8.85587e-05 9.62434e-05 4.04711e-07
6.46373e-07 4.04711e-07 8.8598e-06
0.00185317 -0.000173056 -9.11181e-07
-0.000173056 0.000133095 -5.8783e-07
-9.11181e-07 -5.8783e-07 5.30141e-05
0.00156266 -0.000201261 -9.79688e-07
-0.000201261 1.51298e-05 8.41221e-07
-9.79688e-07 8.41221e-07 -8.65537e-05
0.000981606 -0.000194785 -9.29017e-07
-0.000194785 0.000172514 -1.50671e-06
-9.29017e-07 -1.50671e-06 -1.02747e-06
0.00214598 -0.000294376 -3.12626e-06
-0.000294376 0.000332343 1.55109e-06
-3.12626e-06 1.55109e-06 0.000209998
0.00031872 -0.000182497 1.38644e-06
-0.000182497 -0.00031955 -6.00734e-06
1.38644e-06 -6.00734e-06 -0.000531718
0.00182 -0.000343268 3.85076e-06
-0.000343268 0.00034019 1.88194e-06
3.85076e-06 1.88194e-06 9.74786e-05
0.00154927 -0.000292693 1.17417e-06
-0.000292693 8.20577e-05 4.17146e-06
1.17417e-06 4.17146e-06 -0.000107007
0.000326185 1.51403e-05 8.39273e-07
1.51403e-05 -0.000165528 -3.6043e-06
8.39273e-07 -3.6043e-06 -0.000227097
0.00077636 -2.47666e-05 1.01898e-06
-2.47666e-05 0.000124374 -1.39679e-06
1.01898e-06 -1.39679e-06 1.83415e-05
0.000934534 -6.05995e-05 -3.90748e-07
-6.05995e-05 0.000208281 -5.35579e-07
-3.90748e-07 -5.35579e-07 7.50974e-05
0.0010774 -0.000201573 -3.2969e-06
-0.000201573 0.000226866 2.2651e-06
-3.2969e-06 2.2651e-06 6.83803e-05
0.000708725 -0.000117866 3.05711e-06
-0.000117866 7.21168e-05 2.83328e-06
3.05711e-06 2.83328e-06 -9.22485e-05
0.000600574 -0.00016713 4.51403e-07
-0.00016713 -5.07873e-05 1.42953e-06
4.51403e-07 1.42953e-06 -0.000201879
0.000583395 -4.91548e-05 -1.15042e-06
-4.91548e-05 -2.92244e-05 -4.232e-06
-1.15042e-06 -4.232e-06 -4.78761e-05
0.000616359 -3.72515e-05 -1.8529e-06
-3.72515e-05 -2.03929e-06 -2.05597e-06
-1.8529e-06 -2.05597e-06 -5.63923e-05
0.00159763 0.000195556 -9.49283e-07
0.000195556 0.000125575 7.2809e-09
-9.49283e-07 7.2809e-09 -3.05642e-05
0.000624593 -6.4509e-05 1.41919e-06
-6.4509e-05 3.1184e-05 -1.80653e-06
1.41919e-06 -1.80653e-06 -6.86005e-05
0.000805115 0.000111016 -8.82432e-07
0.000111016 0.000109399 -7.41784e-07
-8.82432e-07 -7.41784e-07 -3.18459e-05
0.00050185 5.16308e-05 1.75333e-06
5.16308e-05 -4.20794e-05 -1.69238e-07
1.75333e-06 -1.69238e-07 -0.000182186
0.00154268 0.000241375 -1.17503e-06
0.000241375 0.000184921 -3.72365e-07
-1.17503e-06 -3.72365e-07 6.95603e-06
0.00159563 0.000257023 9.49177e-07
0.000257023 0.000115978 5.90345e-07
9.49177e-07 5.90345e-07 -4.99598e-05
0.00101295 0.000198144 1.80493e-08
0.000198144 0.000207656 -1.48192e-06
1.80493e-08 -1.48192e-06 -8.61008e-06
0.00123368 0.000247596 -1.92512e-06
0.000247596 0.000126401 -5.59541e-07
-1.92512e-06 -5.59541e-07 -8.83825e-05
0.00180586 0.000291659 -4.21674e-06
0.000291659 0.000334243 -1.35666e-06
-4.21674e-06 -1.35666e-06 0.000145169
0.000663217 -2.15466e-05 -2.49784e-07
-2.15466e-05 1.51746e-05 7.71521e-08
-2.49784e-07 7.71521e-08 -3.3049e-05
0.00071668 -1.60126e-05 -8.82347e-07
-1.60126e-05 7.33724e-05 3.50439e-07
-8.82347e-07 3.50439e-07 -1.12185e-05
0.000979098 0.000183154 -8.17068e-07
0.000183154 0.000211431 -2.40139e-07
-8.17068e-07 -2.40139e-07 3.59916e-05
0.000783564 4.48637e-06 1.19895e-07
4.48637e-06 0.000126067 1.1395e-07
1.19895e-07 1.1395e-07 6.01969e-06
0.000964176 0.000120718 4.81287e-07
0.000120718 0.000219287 3.71832e-07
4.81287e-07 3.71832e-07 6.10289e-05
0.00166726 0.000208219 -1.73954e-06
0.000208219 0.000124609 -1.25732e-06
-1.73954e-06 -1.25732e-06 -1.78715e-05
0.00162839 0.000284711 1.31454e-06
0.000284711 0.000178436 3.33355e-07
1.31454e-06 3.33355e-07 -4.17564e-06
0.00163686 0.000282541 5.06216e-07
0.000282541 0.00010584 1.90383e-07
5.06216e-07 1.90383e-07 -5.3985e-05
0.000712002 0.000190686 2.43053e-07
0.000190686 -7.65478e-06 3.52932e-06
2.43053e-07 3.52932e-06 -0.000240324
0.00161065 0.000300489 -1.64743e-06
0.000300489 0.000249376 -6.71306e-07
-1.64743e-06 -6.71306e-07 3.78414e-05
0.000775791 2.38357e-05 9.50925e-07
2.38357e-05 9.7875e-05 1.46596e-06
9.50925e-07 1.46596e-06 2.20964e-05
0.000556125 -1.94214e-05 -9.20101e-07
-1.94214e-05 -1.14788e-05 2.51156e-06
-9.20101e-07 2.51156e-06 -0.000111492
0.000958414 0.00019101 -2.88154e-06
0.00019101 0.000177266 -8.35055e-07
-2.88154e-06 -8.35055e-07 -1.33531e-05
0.00083846 7.1819e-05 -2.90025e-06
7.1819e-05 0.000175983 -1.93294e-06
-2.90025e-06 -1.93294e-06 2.29441e-05
0.000875553 0.000174455 -1.14673e-06
0.000174455 0.000142634 -1.77038e-06
-1.14673e-06 -1.77038e-06 -2.13514e-05
0.00157938 0.000223152 -4.01164e-07
0.000223152 -8.79122e-07 -2.58102e-06
-4.01164e-07 -2.58102e-06 -0.00011868
0.00186237 0.000328952 2.2344e-06
0.000328952 0.00028503 -1.81715e-06
2.2344e-06 -1.81715e-06 9.29484e-05
0.00150451 0.000288668 2.47716e-06
0.000288668 1.87125e-05 1.26242e-07
2.47716e-06 1.26242e-07 -0.000142541
0.00177153 0.000287997 3.90968e-06
0.000287997 0.000519767 6.84842e-06
3.90968e-06 6.84842e-06 0.000268406
0.00167565 0.00032315 -3.68494e-07
0.00032315 0.000262143 -1.03828e-06
-3.68494e-07 -1.03828e-06 4.36215e-05
0.000656463 -2.86917e-05 -1.44145e-06
-2.86917e-05 8.66007e-06 -2.11744e-06
-1.44145e-06 -2.11744e-06 -3.78906e-05
0.000652159 1.38643e-05 6.95884e-07
1.38643e-05 2.05141e-05 3.82604e-07
6.95884e-07 3.82604e-07 -5.01011e-05
0.000592525 -1.19442e-05 -1.6378e-07
-1.19442e-05 -7.20545e-06 6.65413e-07
-1.6378e-07 6.65413e-07 -8.68008e-05
0.000509467 -3.60807e-05 -7.79016e-07
-3.60807e-05 -6.06606e-05 -1.04809e-06
-7.79016e-07 -1.04809e-06 -0.000130255
0.000699615 2.12226e-05 -1.38896e-07
2.12226e-05 5.31087e-05 3.02944e-08
-1.38896e-07 3.02944e-08 -1.7756e-05
0.000725272 2.56419e-05 -1.21315e-07
2.56419e-05 7.01693e-05 -3.62124e-07
-1.21315e-07 -3.62124e-07 -1.04017e-05
0.000836495 5.4005e-05 -5.2818e-07
5.4005e-05 0.000143319 -9.88097e-07
-5.2818e-07 -9.88097e-07 5.34558e-05
0.000597731 -2.27496e-05 7.22725e-07
-2.27496e-05 6.48092e-06 3.79807e-07
7.22725e-07 3.79807e-07 -8.18431e-05
0.000721379 3.9442e-05 7.37168e-07
3.9442e-05 6.22295e-05 1.15735e-06
7.37168e-07 1.15735e-06 -5.91665e-06
0.000671322 1.82858e-05 1.54044e-06
1.82858e-05 1.8584e-05 2.08653e-06
1.54044e-06 2.08653e-06 -2.64394e-05
0.000672644 -5.74089e-06 -7.16353e-07
-5.74089e-06 1.62149e-05 1.62312e-08
-7.16353e-07 1.62312e-08 -2.81057e-05
0.00126472 -2.85364e-05 8.25152e-07
-2.85364e-05 0.000346396 2.36871e-06
8.25152e-07 2.36871e-06 0.000338275
0.0006567 -3.44461e-05 -5.70035e-07
-3.44461e-05 7.14547e-06 -2.0801e-06
-5.70035e-07 -2.0801e-06 -3.78747e-05
0.00129442 -3.67364e-05 -4.3172e-06
-3.67364e-05 0.000366795 -1.39181e-06
-4.3172e-06 -1.39181e-06 0.00035797
0.000893671 -3.05589e-05 1.85079e-05
-3.05589e-05 0.000140183 7.48515e-06
1.85079e-05 7.48515e-06 0.000148263
0.00131942 -4.52417e-05 -8.30736e-06
-4.52417e-05 0.000385896 -5.20352e-06
-8.30736e-06 -5.20352e-06 0.00037575
0.00083111 -3.80336e-05 6.99434e-06
-3.80336e-05 0.000109572 2.79467e-06
6.99434e-06 2.79467e-06 0.000115918
0.00216833 -7.85923e-05 -5.43645e-06
-7.85923e-05 0.000899431 -1.78425e-06
-5.43645e-06 -1.78425e-06 0.000908919
0.000561089 4.11504e-05 1.75984e-07
4.11504e-05 -4.25395e-05 -4.11937e-06
1.75984e-07 -4.11937e-06 -6.21054e-05
0.000553958 4.80388e-05 1.83959e-08
4.80388e-05 -3.68915e-05 1.00168e-07
1.83959e-08 1.00168e-07 -6.28669e-05
0.00248602 8.9222e-05 2.9158e-05
8.9222e-05 0.00109346 -3.7019e-06
2.9158e-05 -3.7019e-06 0.00109897
0.000592662 3.06491e-05 -2.5171e-06
3.06491e-05 -1.11563e-05 5.77234e-06
-2.5171e-06 5.77234e-06 -4.0582e-05
0.00273739 0.000102665 -5.05559e-06
0.000102665 0.00124567 -3.33962e-07
-5.05559e-06 -3.33962e-07 0.00124788
0.00304471 0.000100196 -7.29092e-05
0.000100196 0.00142673 3.47267e-06
-7.29092e-05 3.47267e-06 0.0014294
0.00160224 0.000156599 -1.34276e-06
0.000156599 0.000104814 6.62736e-07
-1.34276e-06 6.62736e-07 -3.67974e-05
0.00169581 0.000101349 1.00903e-06
0.000101349 0.000115867 9.38185e-07
1.00903e-06 9.38185e-07 -4.70866e-06
0.00171841 0.000145885 2.46549e-06
0.000145885 7.83805e-05 2.22615e-06
2.46549e-06 2.22615e-06 -2.31025e-05
0.00182825 7.79691e-05 3.23141e-06
7.79691e-05 0.000114154 7.74645e-07
3.23141e-06 7.74645e-07 2.79847e-05
0.00173236 2.37361e-05 -7.36204e-07
2.37361e-05 0.000121615 1.45246e-08
-7.36204e-07 1.45246e-08 1.48563e-05
0.00138581 1.29322e-05 -3.34897e-06
1.29322e-05 4.98046e-05 5.34687e-08
-3.34897e-06 5.34687e-08 -7.38146e-05
0.00167828 2.15586e-06 -9.07185e-07
2.15586e-06 9.96452e-05 -4.53659e-08
-9.07185e-07 -4.53659e-08 -8.55332e-06
0.00170391 3.78191e-05 1.10598e-06
3.78191e-05 5.80629e-05 -4.26086e-08
1.10598e-06 -4.26086e-08 -3.28079e-05
0.0017932 0.000116531 -1.25385e-06
0.000116531 0.000101891 -4.01361e-07
-1.25385e-06 -4.01361e-07 7.77381e-06
0.00175556 8.11202e-05 2.10899e-06
8.11202e-05 5.75519e-05 4.75486e-07
2.10899e-06 4.75486e-07 -1.2218e-05
0.00165665 0.000159454 -7.32317e-07
0.000159454 8.89904e-05 -1.91044e-07
-7.32317e-07 -1.91044e-07 -3.04024e-05
0.00180376 0.000161786 3.4362e-06
0.000161786 9.11083e-05 1.1642e-06
3.4362e-06 1.1642e-06 6.69706e-06
0.00173479 -3.47698e-06 -9.08328e-07
-3.47698e-06 8.63728e-05 1.81174e-07
-9.08328e-07 1.81174e-07 -4.56643e-06
0.00171238 4.46937e-05 1.73568e-06
4.46937e-05 3.11329e-05 4.89364e-07
1.73568e-06 4.89364e-07 -3.46654e-05
0.00184172 0.000117934 1.3391e-06
0.000117934 9.04001e-05 -3.44581e-07
1.3391e-06 -3.44581e-07 1.89843e-05
0.00184379 0.000196175 -1.6205e-07
0.000196175 0.00012206 -1.34834e-06
-1.6205e-07 -1.34834e-06 3.13005e-05
0.00164833 -2.69678e-05 3.28255e-07
-2.69678e-05 9.05294e-05 1.00594e-07
3.28255e-07 1.00594e-07 -1.94029e-05
0.00167307 -8.38346e-05 8.37515e-07
-8.38346e-05 0.000112357 -1.06582e-06
8.37515e-07 -1.06582e-06 -6.97958e-06
0.00177143 -6.10364e-05 3.10187e-06
-6.10364e-05 9.60867e-05 -6.01215e-07
3.10187e-06 -6.01215e-07 4.65987e-06
0.00163066 -0.000144946 2.33387e-07
-0.000144946 4.88918e-05 -2.96861e-07
2.33387e-07 -2.96861e-07 -5.26189e-05
0.00113333 -0.00017895 -1.64309e-06
-0.00017895 0.000266827 2.87841e-06
-1.64309e-06 2.87841e-06 0.000110901
0.000945424 -0.000208598 5.11518e-07
-0.000208598 7.79042e-05 2.15465e-06
5.11518e-07 2.15465e-06 -0.000116245
0.00140049 -0.00028502 -3.19621e-06
-0.00028502 0.00014635 1.24572e-06
-3.19621e-06 1.24572e-06 -8.26627e-05
0.00158728 -0.000200035 1.20826e-07
-0.000200035 7.94512e-05 -7.52272e-07
1.20826e-07 -7.52272e-07 -5.44628e-05
0.00165354 -0.000173402 3.68773e-06
-0.000173402 4.34284e-05 -2.58518e-06
3.68773e-06 -2.58518e-06 -4.48418e-05
0.00171392 -0.000254071 3.13731e-06
-0.000254071 0.000137052 -1.00916e-06
3.13731e-06 -1.00916e-06 8.73043e-06
0.00167142 -0.000296933 -1.32327e-06
-0.000296933 0.00019027 -3.31595e-06
-1.32327e-06 -3.31595e-06 -6.97651e-06
0.00169447 -0.000264769 2.70393e-06
-0.000264769 0.000119912 -1.03681e-05
2.70393e-06 -1.03681e-05 -1.98433e-05
0.00117447 -0.000203531 8.38283e-07
-0.000203531 0.000296516 4.46294e-08
8.38283e-07 4.46294e-08 0.000135575
0.00104558 -0.000186869 1.34257e-06
-0.000186869 0.000228528 -3.75072e-06
1.34257e-06 -3.75072e-06 7.65251e-05
0.000790749 -7.6108e-05 9.44334e-10
-7.6108e-05 0.000124163 -4.02756e-07
9.44334e-10 -4.02756e-07 -2.50092e-05
0.000410089 1.4638e-05 -1.6254e-06
1.4638e-05 -0.000115763 2.87165e-06
-1.6254e-06 2.87165e-06 -0.000186244
0.000476335 3.34037e-05 5.38554e-07
3.34037e-05 -5.61512e-05 6.50574e-07
5.38554e-07 6.50574e-07 -0.000166778
0.00183996 -4.21448e-05 3.87742e-07
-4.21448e-05 0.000131334 -9.32572e-08
3.87742e-07 -9.32572e-08 4.2084e-05
0.00182073 -9.22673e-05 8.32224e-07
-9.22673e-05 0.000115369 -5.63457e-07
8.32224e-07 -5.63457e-07 2.6847e-05
0.00178014 -0.000168191 -1.74475e-06
-0.000168191 9.43005e-05 1.11657e-07
-1.74475e-06 1.11657e-07 1.24759e-05
0.00108414 -0.000202232 -2.04475e-07
-0.000202232 0.000228668 1.16092e-06
-2.04475e-07 1.16092e-06 5.39946e-05
0.000992907 -0.000233619 2.03789e-06
-0.000233619 6.03981e-05 -3.25925e-06
2.03789e-06 -3.25925e-06 -0.000155285
0.00165824 -0.000332805 -4.50399e-07
-0.000332805 0.000250934 8.95947e-07
-4.50399e-07 8.95947e-07 6.22623e-06
0.00159617 -0.000202415 3.49885e-07
-0.000202415 3.04002e-05 -2.23465e-07
3.49885e-07 -2.23465e-07 -7.17497e-05
0.00161609 -0.000293229 8.95935e-07
-0.000293229 0.000121886 -2.52233e-06
8.95935e-07 -2.52233e-06 -6.14646e-05
0.00182068 -0.000276868 -4.84424e-07
-0.000276868 0.00015558 -1.05472e-06
-4.84424e-07 -1.05472e-06 3.30166e-05
0.000358779 2.40356e-05 1.18667e-07
2.40356e-05 -0.000149145 -8.09254e-07
1.18667e-07 -8.09254e-07 -0.000208474
0.00112662 -0.000204604 -2.71429e-07
-0.000204604 0.000249078 8.53253e-07
-2.71429e-07 8.53253e-07 9.07737e-05
0.000687958 -0.000171933 -5.67239e-07
-0.000171933 7.55589e-06 2.25197e-07
-5.67239e-07 2.25197e-07 -0.000138786
0.000952884 -0.000139269 -4.68104e-07
-0.000139269 0.00021552 3.77372e-07
-4.68104e-07 3.77372e-07 4.47049e-05
0.00101608 -6.02805e-05 -6.07563e-08
-6.02805e-05 0.000255549 -2.31662e-07
-6.07563e-08 -2.31662e-07 0.000122792
0.000654301 5.94557e-06 -3.67836e-07
5.94557e-06 4.89864e-05 3.65975e-07
-3.67836e-07 3.65975e-07 -5.47162e-05
0.00153225 -4.77402e-05 -5.98386e-07
-4.77402e-05 -6.63688e-05 1.01017e-07
-5.98386e-07 1.01017e-07 -0.000143286
0.00195885 -0.000129211 1.33347e-06
-0.000129211 0.0001354 -1.71851e-07
1.33347e-06 -1.71851e-07 7.09229e-05
0.00157756 -0.000192089 5.70409e-07
-0.000192089 -3.49351e-05 -3.4141e-07
5.70409e-07 -3.4141e-07 -0.000113292
0.00197494 -0.000254574 -1.40187e-06
-0.000254574 0.000173026 -8.88933e-07
-1.40187e-06 -8.88933e-07 7.80243e-05
0.00113667 -0.000219514 -2.62812e-06
-0.000219514 0.000233415 -1.53835e-06
-2.62812e-06 -1.53835e-06 4.89868e-05
0.00180531 -0.0003087 1.38457e-06
-0.0003087 0.000166666 4.32583e-06
1.38457e-06 4.32583e-06 1.59601e-05
0.00127723 -0.000294319 -1.01236e-06
-0.000294319 0.000149905 -2.69079e-06
-1.01236e-06 -2.69079e-06 -0.000112297
0.0016142 -0.000345527 -2.16221e-07
-0.000345527 0.000206539 4.02684e-06
-2.16221e-07 4.02684e-06 -4.78818e-05
0.000344511 4.41492e-05 -1.14358e-06
4.41492e-05 -0.000162116 -2.77627e-06
-1.14358e-06 -2.77627e-06 -0.000213418
0.000782788 -6.56657e-06 6.67592e-07
-6.56657e-06 0.000120461 -1.32303e-06
6.67592e-07 -1.32303e-06 2.83597e-05
0.000981319 -8.47686e-05 -4.69074e-07
-8.47686e-05 0.000240553 6.57685e-07
-4.69074e-07 6.57685e-07 0.000118455
0.000871248 -2.08586e-05 -8.51754e-07
-2.08586e-05 0.000173466 5.83661e-07
-8.51754e-07 5.83661e-07 1.60117e-05
0.000779332 -0.000191103 -1.34368e-06
-0.000191103 2.72467e-05 -1.59094e-08
-1.34368e-06 -1.59094e-08 -0.000129387
0.000935665 -0.000191616 -4.3397e-06
-0.000191616 0.000153973 2.37168e-06
-4.3397e-06 2.37168e-06 -1.72045e-05
0.000639468 -2.9915e-05 -2.00255e-06
-2.9915e-05 2.42421e-06 -2.04941e-06
-2.00255e-06 -2.04941e-06 -4.61179e-05
0.000636355 -5.4899e-05 9.49842e-08
-5.4899e-05 2.54609e-05 -1.28376e-06
9.49842e-08 -1.28376e-06 -5.63826e-05
0.00166766 0.000211145 -1.50558e-06
0.000211145 0.000123426 1.02985e-08
-1.50558e-06 1.02985e-08 -2.02114e-05
0.000639887 -3.11246e-05 7.47966e-07
-3.11246e-05 4.09611e-05 -1.00823e-06
7.47966e-07 -1.00823e-06 -7.37697e-05
0.000954347 0.000180586 8.32462e-07
0.000180586 0.000198965 -8.53854e-07
8.32462e-07 -8.53854e-07 2.41335e-05
0.000360783 6.8227e-05 2.23806e-06
6.8227e-05 -0.000132089 9.76009e-07
2.23806e-06 9.76009e-07 -0.00028099
0.0016156 0.000282782 -1.4425e-07
0.000282782 0.000168093 2.22748e-07
-1.4425e-07 2.22748e-07 -1.45138e-05
0.00178829 0.000287898 -1.07253e-06
0.000287898 0.000191132 1.28902e-06
-1.07253e-06 1.28902e-06 3.19742e-05
0.000515361 0.000176901 -1.05558e-06
0.000176901 -0.000125233 7.05597e-07
-1.05558e-06 7.05597e-07 -0.000354347
0.00185895 0.000319804 -2.34836e-06
0.000319804 0.000395998 8.76648e-07
-2.34836e-06 8.76648e-07 0.000178762
0.000712465 -5.9114e-07 -7.46683e-07
-5.9114e-07 5.96465e-05 1.52899e-07
-7.46683e-07 1.52899e-07 -1.40156e-05
0.000665909 1.18465e-06 3.07953e-07
1.18465e-06 5.1162e-05 1.10638e-06
3.07953e-07 1.10638e-06 -5.029e-05
0.00114124 0.000206382 -2.01332e-07
0.000206382 0.000290721 -2.52158e-06
-2.01332e-07 -2.52158e-06 9.57901e-05
0.00055206 8.70165e-06 -6.12063e-07
8.70165e-06 -5.52207e-06 -2.05205e-07
-6.12063e-07 -2.05205e-07 -0.000144345
0.0006977 0.000144062 -1.59093e-06
0.000144062 3.61344e-05 -6.5656e-07
-1.59093e-06 -6.5656e-07 -0.000112448
0.00184947 0.000233099 -2.48372e-06
0.000233099 0.000152625 -1.2772e-06
-2.48372e-06 -1.2772e-06 3.69385e-05
0.00190491 0.000327978 1.26068e-06
0.000327978 0.000311111 -2.1339e-07
1.26068e-06 -2.1339e-07 0.000120801
0.00165369 0.000304158 1.12847e-06
0.000304158 9.7536e-05 1.78149e-06
1.12847e-06 1.78149e-06 -6.58128e-05
0.00139959 0.000261247 2.90753e-06
0.000261247 0.000317802 3.99656e-06
2.90753e-06 3.99656e-06 6.2535e-05
0.00158678 0.000319925 -2.85524e-06
0.000319925 0.000210581 4.50665e-07
-2.85524e-06 4.50665e-07 -1.02765e-05
0.000454573 -2.67386e-05 -3.38462e-07
-2.67386e-05 -7.70817e-05 2.03992e-06
-3.38462e-07 2.03992e-06 -0.000162555
0.000345841 6.85148e-05 -1.52546e-07
6.85148e-05 -0.000108453 1.0966e-06
-1.52546e-07 1.0966e-06 -0.00023849
0.00119631 0.000218109 1.40511e-06
0.000218109 0.000285362 3.22119e-06
1.40511e-06 3.22119e-06 7.35079e-05
-0.000400236 5.25703e-05 2.3235e-06
5.25703e-05 -0.00056286 -8.53337e-09
2.3235e-06 -8.53337e-09 -0.00071852
0.00187775 0.000240773 -3.04463e-06
0.000240773 4.20023e-05 -9.8501e-07
-3.04463e-06 -9.8501e-07 -3.46653e-05
0.00206789 0.000287855 4.42014e-07
0.000287855 0.000269887 -2.16509e-07
4.42014e-07 -2.16509e-07 0.000139232
0.00178271 0.000357273 -1.90654e-06
0.000357273 0.000224976 -3.10632e-06
-1.90654e-06 -3.10632e-06 1.96437e-05
-3.84887e-05 0.000170037 -3.26864e-07
0.000170037 -0.000569174 1.61564e-06
-3.26864e-07 1.61564e-06 -0.000822387
0.000708702 3.73506e-05 -8.61155e-07
3.73506e-05 5.80898e-05 -4.8929e-07
-8.61155e-07 -4.8929e-07 -1.53769e-05
0.000667621 1.68419e-05 -1.85947e-07
1.68419e-05 4.14702e-05 4.1684e-07
-1.85947e-07 4.1684e-07 -4.15789e-05
0.000873545 2.22909e-06 -9.37125e-07
2.22909e-06 0.000162262 -7.57208e-07
-9.37125e-07 -7.57208e-07 7.90573e-05
0.000684196 -1.39701e-05 -1.31772e-06
-1.39701e-05 3.91036e-05 -1.04149e-06
-1.31772e-06 -1.04149e-06 -2.7746e-05
0.000532336 -1.92345e-05 -2.40078e-07
-1.92345e-05 -3.86667e-05 -6.89539e-07
-2.40078e-07 -6.89539e-07 -0.000119729
0.000707655 1.17031e-05 1.99961e-08
1.17031e-05 5.60904e-05 -7.46097e-09
1.99961e-08 -7.46097e-09 -1.3114e-05
0.000694493 5.36776e-05 -4.80791e-07
5.36776e-05 6.99938e-05 -3.22435e-07
-4.80791e-07 -3.22435e-07 -2.41051e-05
0.000663948 7.65362e-06 5.73109e-07
7.65362e-06 4.69784e-05 3.64482e-07
5.73109e-07 3.64482e-07 -4.26136e-05
0.000772573 2.40416e-05 9.95284e-07
2.40416e-05 0.000104604 -5.34755e-08
9.95284e-07 -5.34755e-08 1.57613e-05
0.000737544 -3.05955e-05 1.10545e-06
-3.05955e-05 8.92681e-05 -5.03755e-07
1.10545e-06 -5.03755e-07 -6.4863e-06
0.000584524 3.13876e-05 5.68343e-07
3.13876e-05 -1.83595e-06 1.04443e-06
5.68343e-07 1.04443e-06 -9.20228e-05
0.000695609 5.22247e-05 1.02048e-06
5.22247e-05 5.13467e-05 1.44299e-06
1.02048e-06 1.44299e-06 -2.00606e-05
0.000640636 2.89257e-05 1.06939e-06
2.89257e-05 5.86687e-06 1.96054e-06
1.06939e-06 1.96054e-06 -4.0909e-05
0.000652107 -4.74449e-06 -6.11513e-07
-4.74449e-06 8.21632e-06 1.72365e-08
-6.11513e-07 1.72365e-08 -3.72877e-05
0.00127299 -1.80335e-05 6.41143e-07
-1.80335e-05 0.000349395 2.30153e-06
6.41143e-07 2.30153e-06 0.000341645
0.000653613 -3.0881e-05 -2.97926e-07
-3.0881e-05 6.29402e-06 -2.11383e-06
-2.97926e-07 -2.11383e-06 -3.8659e-05
0.00130198 -2.59025e-05 -3.5917e-06
-2.59025e-05 0.000368171 -1.46287e-06
-3.5917e-06 -1.46287e-06 0.000360088
0.000898754 -2.33396e-05 1.54569e-05
-2.33396e-05 0.000138603 7.80493e-06
1.54569e-05 7.80493e-06 0.00014752
0.00132796 -3.45894e-05 -6.88297e-06
-3.45894e-05 0.000386197 -5.22953e-06
-6.88297e-06 -5.22953e-06 0.000377397
0.000839597 -3.09637e-05 5.66956e-06
-3.09637e-05 0.000108235 2.90262e-06
5.66956e-06 2.90262e-06 0.000116145
0.000775545 -3.72976e-05 -1.63735e-06
-3.72976e-05 7.69849e-05 -1.99493e-06
-1.63735e-06 -1.99493e-06 8.33493e-05
0.000577469 3.4581e-05 4.54619e-07
3.4581e-05 -4.25996e-05 -3.65998e-06
4.54619e-07 -3.65998e-06 -5.70885e-05
0.000574362 4.43274e-05 -9.35489e-08
4.43274e-05 -3.41127e-05 1.00621e-07
-9.35489e-08 1.00621e-07 -5.43556e-05
0.00230554 7.48078e-05 2.32625e-05
7.48078e-05 0.000980832 -3.8839e-06
2.32625e-05 -3.8839e-06 0.000990144
0.000578641 4.03278e-05 -1.63048e-06
4.03278e-05 -2.38564e-05 5.07888e-06
-1.63048e-06 5.07888e-06 -4.90299e-05
0.00255045 9.03434e-05 -4.7125e-06
9.03434e-05 0.00113108 -3.09335e-07
-4.7125e-06 -3.09335e-07 0.00113634
0.00281125 9.72063e-05 -5.37901e-05
9.72063e-05 0.00128738 3.29124e-06
-5.37901e-05 3.29124e-06 0.00129104
0.00167001 0.000158222 1.02549e-06
0.000158222 0.000102878 2.26994e-06
1.02549e-06 2.26994e-06 -1.64806e-05
0.00176776 0.000114789 3.84715e-07
0.000114789 8.73502e-05 4.96239e-07
3.84715e-07 4.96239e-07 -8.04308e-06
0.00173305 0.000162875 4.16704e-06
0.000162875 4.93342e-05 1.75818e-06
4.16704e-06 1.75818e-06 -3.20842e-05
0.00172009 8.03581e-05 2.62011e-06
8.03581e-05 3.7577e-05 1.08466e-06
2.62011e-06 1.08466e-06 -2.89355e-05
0.00172454 3.40851e-05 2.83834e-06
3.40851e-05 7.31581e-05 -2.80289e-07
2.83834e-06 -2.80289e-07 -1.94228e-05
0.00165925 9.14643e-07 -8.1915e-07
9.14643e-07 8.84187e-05 -2.46185e-08
-8.1915e-07 -2.46185e-08 -2.12026e-05
0.00174 -4.87185e-07 -1.96518e-07
-4.87185e-07 9.03304e-05 -5.41732e-09
-1.96518e-07 -5.41732e-09 -1.93951e-07
0.0016975 4.38274e-05 1.89255e-06
4.38274e-05 3.12649e-05 -3.08075e-07
1.89255e-06 -3.08075e-07 -3.62792e-05
0.00182861 0.000121645 3.77787e-07
0.000121645 8.24431e-05 -4.71766e-07
3.77787e-07 -4.71766e-07 1.08037e-05
0.00191785 0.000193971 2.91051e-07
0.000193971 0.000152892 2.75464e-07
2.91051e-07 2.75464e-07 6.38004e-05
0.00167551 -2.36767e-06 -1.59155e-06
-2.36767e-06 2.39576e-05 3.4339e-07
-1.59155e-06 3.4339e-07 -4.71388e-05
0.00196245 8.62567e-05 2.92889e-06
8.62567e-05 0.000104116 2.11643e-07
2.92889e-06 2.11643e-07 5.78934e-05
0.00174944 0.000176146 1.38457e-06
0.000176146 -1.48955e-05 -4.04681e-07
1.38457e-06 -4.04681e-07 -8.50872e-05
0.0019013 -4.57908e-05 1.7548e-06
-4.57908e-05 0.000168503 1.31756e-07
1.7548e-06 1.31756e-07 7.89862e-05
0.00185018 -9.56079e-05 8.43264e-07
-9.56079e-05 0.000131593 -7.47913e-07
8.43264e-07 -7.47913e-07 4.19491e-05
0.0017025 -0.000162584 -8.67948e-07
-0.000162584 5.35471e-05 2.36776e-08
-8.67948e-07 2.36776e-08 -2.99975e-05
0.00119694 -0.000210502 2.43415e-08
-0.000210502 0.000290624 3.98784e-06
2.43415e-08 3.98784e-06 0.000114706
0.00178351 -0.000293952 -1.36646e-06
-0.000293952 0.000505603 2.14339e-06
-1.36646e-06 2.14339e-06 0.000285744
0.00153925 -0.000325749 -3.72307e-06
-0.000325749 0.000185442 -5.40254e-09
-3.72307e-06 -5.40254e-09 -6.05827e-05
0.00162437 -0.000203294 6.89127e-07
-0.000203294 4.30784e-05 -7.50212e-07
6.89127e-07 -7.50212e-07 -5.94735e-05
0.00149492 -0.000261628 1.72809e-07
-0.000261628 -2.42229e-05 -3.17021e-06
1.72809e-07 -3.17021e-06 -0.000147445
0.001706 -0.000296089 -1.61483e-06
-0.000296089 0.000172059 -8.4612e-06
-1.61483e-06 -8.4612e-06 -5.96008e-06
0.0011576 -0.000206192 1.77803e-06
-0.000206192 0.000261082 1.75764e-07
1.77803e-06 1.75764e-07 0.000103133
0.000691382 -0.000169136 -6.68006e-06
-0.000169136 1.84926e-05 -1.26405e-06
-6.68006e-06 -1.26405e-06 -0.000122011
0.00125525 -0.000164125 -2.42601e-07
-0.000164125 0.000398947 -3.34113e-07
-2.42601e-07 -3.34113e-07 0.000217138
0.000400947 1.89268e-05 -1.43327e-07
1.89268e-05 -0.00012543 1.38773e-06
-1.43327e-07 1.38773e-06 -0.0001838
0.000955706 -5.70473e-05 5.40432e-07
-5.70473e-05 0.000217053 6.52166e-07
5.40432e-07 6.52166e-07 8.8514e-05
0.000541505 3.33688e-05 1.30426e-06
3.33688e-05 -2.21828e-05 1.91634e-06
1.30426e-06 1.91634e-06 -0.000123088
0.00172934 -4.86442e-05 -8.47904e-07
-4.86442e-05 4.40703e-05 1.07172e-07
-8.47904e-07 1.07172e-07 -3.24146e-05
0.0019611 -0.000132625 1.10242e-07
-0.000132625 0.000138506 -9.45571e-08
1.10242e-07 -9.45571e-08 7.23493e-05
0.00164591 -0.000192594 -1.32897e-07
-0.000192594 4.77838e-06 4.21062e-07
-1.32897e-07 4.21062e-07 -7.34519e-05
0.00116581 -0.000219688 -5.25967e-08
-0.000219688 0.000246034 1.96088e-06
-5.25967e-08 1.96088e-06 6.17212e-05
0.00107144 -0.000272474 -1.73806e-06
-0.000272474 4.60002e-05 2.08716e-07
-1.73806e-06 2.08716e-07 -0.000205576
0.00169045 -0.000349047 -3.2943e-06
-0.000349047 0.000247862 -4.74038e-08
-3.2943e-06 -4.74038e-08 -4.35198e-07
0.0019275 -0.000257699 1.03031e-06
-0.000257699 0.000147751 -5.73833e-07
1.03031e-06 -5.73833e-07 5.10006e-05
0.00170009 -0.000305741 1.12949e-06
-0.000305741 0.000100782 -1.79609e-06
1.12949e-06 -1.79609e-06 -5.02697e-05
0.000499521 3.31292e-05 6.31262e-08
3.31292e-05 -7.44837e-05 -8.21027e-07
6.31262e-08 -8.21027e-07 -0.000122599
0.000788726 -6.10857e-06 -4.97228e-07
-6.10857e-06 0.000122905 2.95991e-07
-4.97228e-07 2.95991e-07 3.13222e-05
0.000395126 -0.000157936 -2.70751e-06
-0.000157936 -0.000190389 2.16689e-06
-2.70751e-06 2.16689e-06 -0.000339991
0.00135893 -0.000213155 -4.51375e-08
-0.000213155 0.000406999 -1.47517e-07
-4.51375e-08 -1.47517e-07 0.000237754
0.000927687 -5.13235e-05 -1.31772e-07
-5.13235e-05 0.000211397 -2.53288e-07
-1.31772e-07 -2.53288e-07 5.37354e-05
0.000856812 -5.99167e-05 -4.00316e-07
-5.99167e-05 0.000168566 1.27672e-06
-4.00316e-07 1.27672e-06 4.63688e-05
0.00192787 -7.63863e-05 2.64807e-06
-7.63863e-05 9.12466e-05 2.57347e-07
2.64807e-06 2.57347e-07 4.14095e-05
0.00185961 -0.000185447 3.31107e-07
-0.000185447 3.4446e-05 -1.11049e-06
3.31107e-07 -1.11049e-06 -8.00536e-06
0.00182371 -0.000215044 2.90107e-07
-0.000215044 6.18114e-05 -7.21625e-07
2.90107e-07 -7.21625e-07 -7.81987e-06
0.0020757 -0.000348937 5.66269e-06
-0.000348937 0.000201733 -1.08078e-06
5.66269e-06 -1.08078e-06 8.16034e-05
9.32156e-05 -0.000153515 -3.54325e-06
-0.000153515 -0.000385311 -2.67148e-06
-3.54325e-06 -2.67148e-06 -0.00057882
0.00173789 -0.000361067 -1.76981e-06
-0.000361067 0.000238619 1.0544e-05
-1.76981e-06 1.0544e-05 8.89093e-06
0.0028205 -0.000447127 1.56479e-06
-0.000447127 0.000985274 -3.65673e-06
1.56479e-06 -3.65673e-06 0.000688036
0.000665989 3.34586e-05 4.45421e-07
3.34586e-05 1.49328e-05 -1.77925e-06
4.45421e-07 -1.77925e-06 -2.62147e-05
0.000713419 -9.06582e-05 2.09739e-06
-9.06582e-05 7.64535e-05 -1.96995e-06
2.09739e-06 -1.96995e-06 -5.00559e-07
0.000502367 2.70801e-05 -7.06195e-07
2.70801e-05 -4.42346e-05 -1.91538e-06
-7.06195e-07 -1.91538e-06 -0.00012851
0.000775199 -3.76049e-05 4.52457e-07
-3.76049e-05 0.000131102 9.89935e-07
4.52457e-07 9.89935e-07 1.61402e-05
0.000642906 -1.04777e-05 1.5603e-06
-1.04777e-05 3.82935e-05 -1.814e-06
1.5603e-06 -1.814e-06 -8.84566e-05
0.000184053 -9.70287e-05 1.18256e-06
-9.70287e-05 -0.000199979 1.18914e-06
1.18256e-06 1.18914e-06 -0.000357576
0.00023299 -0.000154643 -5.70504e-07
-0.000154643 -0.000329552 -8.27909e-07
-5.70504e-07 -8.27909e-07 -0.000471144
0.00248208 -0.000308003 -8.62744e-06
-0.000308003 0.00110001 3.0149e-06
-8.62744e-06 3.0149e-06 0.000867769
0.000676944 -2.15145e-05 -1.02019e-06
-2.15145e-05 3.50355e-05 -8.80819e-07
-1.02019e-06 -8.80819e-07 -3.48555e-05
0.000825248 6.61752e-06 1.7417e-07
6.61752e-06 0.00014479 -5.56644e-07
1.7417e-07 -5.56644e-07 4.04566e-05
0.0021209 0.000242166 -7.79928e-07
0.000242166 0.000308488 3.15167e-07
-7.79928e-07 3.15167e-07 0.00019507
0.000731247 3.9467e-05 -2.8312e-07
3.9467e-05 0.000104855 3.24605e-07
-2.8312e-07 3.24605e-07 -4.18677e-05
0.00133249 0.000223154 1.23364e-06
0.000223154 0.000411293 -3.26267e-06
1.23364e-06 -3.26267e-06 0.000209867
0.000501118 0.000112579 5.52266e-07
0.000112579 -7.81752e-05 4.54654e-07
5.52266e-07 4.54654e-07 -0.000211845
0.00191511 0.000324144 -1.11494e-06
0.000324144 0.000319559 4.77156e-07
-1.11494e-06 4.77156e-07 0.000131538
0.00178484 0.000318393 -8.24523e-07
0.000318393 0.00016613 3.79005e-06
-8.24523e-07 3.79005e-06 9.78723e-07
0.000976113 0.00023184 -7.6138e-08
0.00023184 8.52712e-05 -4.7728e-07
-7.6138e-08 -4.7728e-07 -0.000173531
0.00148275 0.000315938 -3.36371e-06
0.000315938 0.000148319 2.78489e-06
-3.36371e-06 2.78489e-06 -7.42275e-05
0.000513292 -4.58124e-06 -6.18516e-09
-4.58124e-06 -3.66836e-05 9.29158e-07
-6.18516e-09 9.29158e-07 -0.000128007
0.000496196 7.42355e-05 -6.32684e-07
7.42355e-05 -2.31324e-05 -1.66973e-06
-6.32684e-07 -1.66973e-06 -0.00015494
0.00116777 0.000217495 1.78374e-06
0.000217495 0.000280705 -2.22121e-06
1.78374e-06 -2.22121e-06 6.45252e-05
0.000619504 0.000125717 -1.18214e-06
0.000125717 1.42862e-05 -2.48135e-06
-1.18214e-06 -2.48135e-06 -0.000147346
0.00196358 0.000238774 8.15382e-07
0.000238774 8.81448e-05 -1.13944e-06
8.15382e-07 -1.13944e-06 1.43152e-05
0.00198912 0.000290771 2.67086e-06
0.000290771 0.000230421 7.86212e-07
2.67086e-06 7.86212e-07 9.51298e-05
0.00177808 0.000350805 -1.37996e-06
0.000350805 0.000216832 -6.37364e-08
-1.37996e-06 -6.37364e-08 1.40961e-05
0.000956107 0.000253565 6.38102e-07
0.000253565 -2.90945e-05 1.38629e-06
6.38102e-07 1.38629e-06 -0.000285402
0.000610396 1.79628e-05 -3.40563e-07
1.79628e-05 1.39453e-05 2.08846e-06
-3.40563e-07 2.08846e-06 -7.83559e-05
0.00195537 0.000188642 -2.31792e-06
0.000188642 6.04671e-05 1.25049e-06
-2.31792e-06 1.25049e-06 1.40895e-05
0.00149334 0.000214597 4.25805e-07
0.000214597 0.000557536 3.46205e-06
4.25805e-07 3.46205e-06 0.000380023
0.00109183 0.00022053 2.22263e-06
0.00022053 0.00021242 4.38389e-06
2.22263e-06 4.38389e-06 -4.87823e-06
0.00234838 0.000286411 -1.37991e-05
0.000286411 0.000332827 -2.45296e-06
-1.37991e-05 -2.45296e-06 0.000245218
0.00117718 0.000328825 -3.12409e-06
0.000328825 -0.000183902 -5.33871e-06
-3.12409e-06 -5.33871e-06 -0.000370244
0.00170928 0.000341059 -2.66601e-06
0.000341059 0.000311328 -4.26562e-07
-2.66601e-06 -4.26562e-07 5.67638e-05
0.000743725 2.81218e-05 -1.40014e-06
2.81218e-05 8.57416e-05 -1.9502e-07
-1.40014e-06 -1.9502e-07 3.03616e-06
0.000752969 1.81704e-05 -7.06202e-07
1.81704e-05 9.65586e-05 -2.0659e-07
-7.06202e-07 -2.0659e-07 1.14372e-05
0.000861793 4.66538e-06 -3.66022e-07
4.66538e-06 0.000170428 6.50706e-07
-3.66022e-07 6.50706e-07 8.23916e-05
0.00067631 -1.40558e-05 -2.84024e-07
-1.40558e-05 3.9785e-05 -1.46579e-06
-2.84024e-07 -1.46579e-06 -3.07326e-05
0.000706731 2.81926e-05 5.25136e-07
2.81926e-05 7.31094e-05 5.12859e-08
5.25136e-07 5.12859e-08 -1.69597e-05
0.000495743 -1.85876e-06 -8.7695e-07
-1.85876e-06 -3.55715e-05 3.52149e-07
-8.7695e-07 3.52149e-07 -0.000132659
0.00068382 -3.84086e-06 -3.40242e-07
-3.84086e-06 4.98601e-05 -4.14014e-08
-3.40242e-07 -4.14014e-08 -2.53735e-05
0.000572346 -2.48315e-05 -6.26854e-07
-2.48315e-05 -2.60483e-06 3.61717e-07
-6.26854e-07 3.61717e-07 -9.60626e-05
0.000635723 -2.05758e-05 6.64924e-07
-2.05758e-05 2.82197e-05 -2.13368e-07
6.64924e-07 -2.13368e-07 -6.00031e-05
0.000799549 2.38702e-05 3.5687e-07
2.38702e-05 0.000134112 7.152e-08
3.5687e-07 7.152e-08 3.19682e-05
0.000935896 1.08147e-05 6.33632e-07
1.08147e-05 0.000181018 -8.44446e-07
6.33632e-07 -8.44446e-07 9.67786e-05
0.000749122 -4.15258e-05 1.21295e-06
-4.15258e-05 8.81863e-05 -4.08876e-07
1.21295e-06 -4.08876e-07 -3.56259e-06
0.000785507 2.32976e-05 4.70132e-07
2.32976e-05 0.000122626 2.87009e-07
4.70132e-07 2.87009e-07 1.79392e-05
0.000679602 2.66016e-05 1.93011e-06
2.66016e-05 6.00566e-05 1.14833e-06
1.93011e-06 1.14833e-06 -4.06955e-05
0.000707762 1.58477e-05 1.21294e-06
1.58477e-05 5.78203e-05 1.55949e-06
1.21294e-06 1.55949e-06 -1.58111e-05
0.000635833 -1.38295e-05 -1.00605e-07
-1.38295e-05 3.48905e-06 1.83818e-06
-1.00605e-07 1.83818e-06 -4.29418e-05
0.000647914 -9.16501e-06 -2.52878e-07
-9.16501e-06 8.73262e-06 4.75394e-08
-2.52878e-07 4.75394e-08 -3.71059e-05
0.00127752 -7.85812e-06 5.16534e-07
-7.85812e-06 0.000351687 2.20074e-06
5.16534e-07 2.20074e-06 0.000343622
0.000664042 -2.19242e-05 4.06278e-07
-2.19242e-05 1.47167e-05 -2.21983e-06
4.06278e-07 -2.21983e-06 -3.04841e-05
0.00130825 -1.56685e-05 -2.69185e-06
-1.56685e-05 0.000370469 -1.52244e-06
-2.69185e-06 -1.52244e-06 0.000362602
0.000893595 -1.59601e-05 1.15644e-05
-1.59601e-05 0.000132329 8.00078e-06
1.15644e-05 8.00078e-06 0.000141805
0.00134118 -2.41175e-05 -4.95618e-06
-2.41175e-05 0.00039118 -5.33801e-06
-4.95618e-06 -5.33801e-06 0.000382951
0.000849832 -2.36722e-05 3.86225e-06
-2.36722e-05 0.000109365 3.01669e-06
3.86225e-06 3.01669e-06 0.000118237
0.000788844 -3.00257e-05 -1.1328e-06
-3.00257e-05 7.80274e-05 -1.97831e-06
-1.1328e-06 -1.97831e-06 8.61209e-05
0.000689035 8.97508e-06 8.1406e-07
8.97508e-06 2.53084e-05 -1.9649e-06
8.1406e-07 -1.9649e-06 -1.26725e-05
0.000593902 2.7406e-05 4.8328e-07
2.7406e-05 -4.00916e-05 -3.67075e-06
4.8328e-07 -3.67075e-06 -5.1019e-05
0.000597757 3.54263e-05 -1.51643e-08
3.54263e-05 -3.07146e-05 7.99775e-08
-1.51643e-08 7.99775e-08 -4.5472e-05
0.00219385 6.10744e-05 1.95567e-05
6.10744e-05 0.000907641 -4.08747e-06
1.95567e-05 -4.08747e-06 0.00092038
0.000596411 4.84953e-05 8.68523e-07
4.84953e-05 -2.01621e-05 4.5944e-06
8.68523e-07 4.5944e-06 -4.13883e-05
0.00238828 7.72215e-05 -3.40784e-06
7.72215e-05 0.00102962 -2.29371e-07
-3.40784e-06 -2.29371e-07 0.00103825
0.00263011 9.11682e-05 -3.61051e-05
9.11682e-05 0.00117728 3.6008e-06
-3.61051e-05 3.6008e-06 0.00118238
0.00199204 0.000191753 9.70231e-07
0.000191753 0.00018379 2.29559e-06
9.70231e-07 2.29559e-06 9.63804e-05
0.00182232 0.000125439 -2.37881e-07
0.000125439 7.82975e-05 6.61241e-08
-2.37881e-07 6.61241e-08 6.41162e-06
0.00166219 4.53322e-05 1.23711e-06
4.53322e-05 1.92129e-05 -5.70931e-07
1.23711e-06 -5.70931e-07 -5.01532e-05
0.00174172 2.67236e-06 1.19187e-06
2.67236e-06 9.23491e-05 -2.73492e-07
1.19187e-06 -2.73492e-07 2.25485e-06
0.00173691 1.72588e-06 -1.04384e-06
1.72588e-06 5.67233e-05 9.1064e-08
-1.04384e-06 9.1064e-08 -1.19958e-05
0.00196372 8.16673e-05 2.62151e-07
8.16673e-05 0.000104291 6.28659e-08
2.62151e-07 6.28659e-08 5.74065e-05
0.00182059 0.000180243 -9.21358e-07
0.000180243 2.33966e-05 -2.8902e-07
-9.21358e-07 -2.8902e-07 -4.62375e-05
0.00186721 3.9344e-06 2.7142e-06
3.9344e-06 3.77582e-05 -3.24738e-08
2.7142e-06 -3.24738e-08 2.22559e-06
0.00198016 0.000116006 2.39745e-06
0.000116006 5.99661e-05 4.36116e-07
2.39745e-06 4.36116e-07 2.09091e-05
0.00186082 6.33378e-05 -4.16598e-06
6.33378e-05 3.80645e-05 2.04823e-06
-4.16598e-06 2.04823e-06 5.5456e-05
0.001931 -4.96778e-05 -9.18005e-07
-4.96778e-05 0.000157202 -1.99252e-07
-9.18005e-07 -1.99252e-07 8.11594e-05
0.0019531 -0.000137041 -2.16264e-06
-0.000137041 0.00013422 4.49538e-07
-2.16264e-06 4.49538e-07 6.66546e-05
0.00171685 -0.000193613 -1.70028e-06
-0.000193613 4.51249e-05 8.46503e-07
-1.70028e-06 8.46503e-07 -3.29557e-05
0.00120206 -0.000220904 -5.99283e-08
-0.000220904 0.000262157 5.98161e-06
-5.99283e-08 5.98161e-06 7.74732e-05
0.00081316 -0.000246606 8.89974e-07
-0.000246606 -8.57994e-05 5.58409e-06
8.89974e-07 5.58409e-06 -0.000327911
0.00175437 -0.000350256 -4.35221e-06
-0.000350256 0.000285536 -3.79377e-06
-4.35221e-06 -3.79377e-06 4.3855e-05
0.00188165 -0.000258609 2.95614e-06
-0.000258609 0.000123722 -6.76683e-07
2.95614e-06 -6.76683e-07 2.56266e-05
0.00157965 -0.000297417 -1.74318e-06
-0.000297417 3.31585e-05 -5.9478e-06
-1.74318e-06 -5.9478e-06 -0.000117183
0.00011598 -0.000133395 -3.72415e-06
-0.000133395 -0.000346722 3.72198e-06
-3.72415e-06 3.72198e-06 -0.000490866
0.00186967 -0.000245585 1.01136e-05
-0.000245585 0.00071069 -3.84538e-06
1.01136e-05 -3.84538e-06 0.000541019
0.000802142 -1.72599e-05 -5.3314e-07
-1.72599e-05 0.000129099 -4.83552e-08
-5.3314e-07 -4.83552e-08 -1.58964e-05
0.000638166 1.38103e-05 -3.46576e-07
1.38103e-05 4.12141e-06 1.04884e-06
-3.46576e-07 1.04884e-06 -4.11645e-05
0.000823721 1.59325e-05 -2.93871e-07
1.59325e-05 0.000141254 1.66367e-06
-2.93871e-07 1.66367e-06 4.99951e-05
0.00078946 -2.98442e-05 5.86392e-08
-2.98442e-05 0.000129375 2.33239e-06
5.86392e-08 2.33239e-06 6.85143e-06
0.0018581 -7.6529e-05 1.93259e-07
-7.6529e-05 5.12723e-05 4.69628e-08
1.93259e-07 4.69628e-08 2.70583e-06
0.000649246 1.11784e-05 1.06029e-06
1.11784e-05 5.75829e-06 7.90907e-08
1.06029e-06 7.90907e-08 -3.54088e-05
0.000592623 -2.60309e-05 -1.40682e-06
-2.60309e-05 -7.58481e-06 -3.96353e-08
-1.40682e-06 -3.96353e-08 -7.54684e-05
0.00187815 -0.000180184 -1.8892e-07
-0.000180184 5.86373e-05 2.76211e-07
-1.8892e-07 2.76211e-07 1.07609e-05
0.00175652 -0.000214396 -1.70241e-06
-0.000214396 2.2024e-05 5.18068e-07
-1.70241e-06 5.18068e-07 -4.89636e-05
0.000383676 -0.000174681 1.68451e-06
-0.000174681 -0.000207615 3.89629e-06
1.68451e-06 3.89629e-06 -0.000398136
0.00195443 -0.000373217 -2.99148e-06
-0.000373217 0.000511452 8.63831e-07
-2.99148e-06 8.63831e-07 0.000216647
0.00151282 -0.000343839 2.16978e-06
-0.000343839 0.000101652 -1.64241e-06
2.16978e-06 -1.64241e-06 -0.000121127
0.00203544 -0.000345477 2.39365e-06
-0.000345477 0.000192311 -1.06294e-06
2.39365e-06 -1.06294e-06 7.04722e-05
0.000755339 -1.82443e-05 1.00677e-06
-1.82443e-05 0.000102337 -9.49835e-07
1.00677e-06 -9.49835e-07 1.99462e-05
0.000774073 -2.51058e-05 1.74848e-07
-2.51058e-05 0.000130661 1.07367e-06
1.74848e-07 1.07367e-06 1.43399e-05
0.000926582 -0.000193454 -2.34928e-06
-0.000193454 6.61326e-05 -4.82432e-07
-2.34928e-06 -4.82432e-07 -8.31357e-05
0.00149434 -0.000231767 1.11389e-05
-0.000231767 0.000529015 -2.67974e-06
1.11389e-05 -2.67974e-06 0.000335677
0.000523259 -8.12537e-05 -2.02472e-06
-8.12537e-05 -1.73863e-05 6.92293e-08
-2.02472e-06 6.92293e-08 -0.000170705
0.000708274 -8.8442e-06 2.63072e-07
-8.8442e-06 8.23219e-05 -6.6244e-07
2.63072e-07 -6.6244e-07 -4.60245e-05
0.00188309 -8.41599e-05 2.49252e-06
-8.41599e-05 4.03358e-06 -7.59558e-08
2.49252e-06 -7.59558e-08 -3.20725e-05
0.00181149 -0.000189313 7.86695e-07
-0.000189313 -6.87754e-06 -8.6223e-07
7.86695e-07 -8.6223e-07 -1.73331e-05
0.00195302 -0.000317696 -9.15737e-07
-0.000317696 5.48154e-05 -1.60926e-06
-9.15737e-07 -1.60926e-06 -2.25359e-05
0.00162147 -0.00038319 2.58483e-06
-0.00038319 4.07528e-05 1.22436e-06
2.58483e-06 1.22436e-06 -0.000107628
0.000615455 -0.000155237 -7.98237e-06
-0.000155237 -7.48334e-05 -6.58782e-06
-7.98237e-06 -6.58782e-06 -0.000263925
0.00283914 -0.000479997 -6.00465e-06
-0.000479997 0.000960883 5.74216e-06
-6.00465e-06 5.74216e-06 0.000648918
0.000455295 5.64157e-05 -1.10849e-06
5.64157e-05 -7.92397e-05 -2.69927e-06
-1.10849e-06 -2.69927e-06 -0.000150595
0.000710969 -5.44397e-05 2.48044e-06
-5.44397e-05 6.37644e-05 -1.32174e-06
2.48044e-06 -1.32174e-06 -7.17536e-06
0.000935842 -7.25983e-05 1.64689e-06
-7.25983e-05 0.000206964 1.86889e-07
1.64689e-06 1.86889e-07 0.000114252
0.00049 1.83429e-05 -5.73965e-07
1.83429e-05 -3.47126e-05 1.06508e-06
-5.73965e-07 1.06508e-06 -0.000147402
0.000953043 -4.71975e-05 -8.74799e-08
-4.71975e-05 0.000223113 1.31516e-07
-8.74799e-08 1.31516e-07 0.000108071
0.000982693 -4.77881e-05 2.6653e-06
-4.77881e-05 0.000211357 -3.73e-07
2.6653e-06 -3.73e-07 7.0845e-05
-0.000151985 -8.5843e-05 6.30446e-06
-8.5843e-05 -0.000286289 9.04312e-07
6.30446e-06 9.04312e-07 -0.000540933
0.000374282 -0.000204348 -1.58159e-05
-0.000204348 -0.000228851 3.1874e-06
-1.58159e-05 3.1874e-06 -0.000379291
0.000535019 2.58015e-05 -2.42631e-07
2.58015e-05 -2.04882e-05 -6.41424e-07
-2.42631e-07 -6.41424e-07 -0.000115954
0.000650503 9.26977e-05 -3.49533e-06
9.26977e-05 6.47817e-05 -3.39329e-06
-3.49533e-06 -3.39329e-06 -6.96324e-05
0.00203659 0.000237359 -1.67132e-06
0.000237359 0.00012567 -8.95164e-07
-1.67132e-06 -8.95164e-07 5.46007e-05
0.00191574 0.000294339 5.76738e-08
0.000294339 0.000193686 2.27087e-06
5.76738e-08 2.27087e-06 5.35971e-05
0.00156186 0.00017541 -5.36474e-06
0.00017541 0.00054053 -2.49262e-06
-5.36474e-06 -2.49262e-06 0.000377928
0.00105318 0.000208829 -1.8193e-06
0.000208829 0.000225293 -8.18236e-06
-1.8193e-06 -8.18236e-06 6.87176e-06
0.00179612 0.000346194 1.15593e-06
0.000346194 0.000220922 1.55176e-06
1.15593e-06 1.55176e-06 2.02229e-05
0.00193501 0.000334061 7.15953e-07
0.000334061 0.000505432 1.67567e-07
7.15953e-07 1.67567e-07 0.000245052
0.000665653 4.02266e-05 6.63061e-07
4.02266e-05 5.53442e-05 -8.0072e-07
6.63061e-07 -8.0072e-07 -4.49653e-05
0.00190812 0.00018147 2.43742e-07
0.00018147 2.14991e-05 -3.52713e-08
2.43742e-07 -3.52713e-08 -1.60276e-05
0.000941252 0.000152071 8.2081e-07
0.000152071 0.000238237 1.71425e-06
8.2081e-07 1.71425e-06 7.29383e-05
0.000745148 0.000192995 1.47599e-06
0.000192995 1.59637e-05 -1.26467e-07
1.47599e-06 -1.26467e-07 -0.000200957
0.00215245 0.000278354 2.51649e-06
0.000278354 0.000224995 3.45268e-07
2.51649e-06 3.45268e-07 0.000137312
0.00143051 0.000343597 -7.07202e-07
0.000343597 -4.44738e-05 -2.13379e-06
-7.07202e-07 -2.13379e-06 -0.000229676
0.00206367 0.000370033 -3.75546e-08
0.000370033 0.000521888 1.88272e-07
-3.75546e-08 1.88272e-07 0.000263907
0.0011725 0.000100361 -2.37723e-06
0.000100361 0.000365238 2.74731e-06
-2.37723e-06 2.74731e-06 0.000231995
0.00234416 0.000196159 -3.19884e-05
0.000196159 0.000311773 -6.00709e-06
-3.19884e-05 -6.00709e-06 0.000307067
0.00238835 0.000322594 -4.04433e-06
0.000322594 0.00101984 4.38217e-07
-4.04433e-06 4.38217e-07 0.000820842
0.0022091 0.000340906 -6.73414e-06
0.000340906 0.000765805 1.58841e-06
-6.73414e-06 1.58841e-06 0.000525618
0.00186239 0.000377415 -1.28406e-05
0.000377415 8.37111e-05 -1.08115e-05
-1.28406e-05 -1.08115e-05 -3.59135e-05
0.0012874 0.000339067 -1.00416e-05
0.000339067 2.37812e-05 -1.47489e-06
-1.00416e-05 -1.47489e-06 -0.000210524
0.000489824 0.000236157 2.09878e-05
0.000236157 -0.00060196 -9.66178e-06
2.09878e-05 -9.66178e-06 -0.000813607
0.000629865 3.05827e-05 3.98105e-07
3.05827e-05 3.21561e-05 -2.41146e-07
3.98105e-07 -2.41146e-07 -5.60707e-05
0.000739636 1.0981e-05 -6.06796e-08
1.0981e-05 0.000107522 7.03353e-07
-6.06796e-08 7.03353e-07 1.77352e-05
0.00114095 3.06702e-05 4.25398e-07
3.06702e-05 0.000319915 -7.2511e-07
4.25398e-07 -7.2511e-07 0.0002269
0.000669752 -5.55496e-05 -1.65462e-07
-5.55496e-05 4.68676e-05 -1.86809e-06
-1.65462e-07 -1.86809e-06 -3.16367e-05
0.000620031 -4.46192e-05 -1.25572e-06
-4.46192e-05 2.17983e-05 5.5919e-08
-1.25572e-06 5.5919e-08 -6.90149e-05
0.000884914 0.000101062 -4.25557e-07
0.000101062 0.00018447 4.93984e-07
-4.25557e-07 4.93984e-07 8.08451e-05
0.000490456 -3.13323e-05 -1.04113e-06
-3.13323e-05 -4.95434e-05 1.14319e-06
-1.04113e-06 1.14319e-06 -0.000140274
0.000681752 -2.40379e-05 4.95079e-09
-2.40379e-05 5.26923e-05 -2.20088e-08
4.95079e-09 -2.20088e-08 -2.72033e-05
0.000667048 2.91315e-05 -7.11664e-08
2.91315e-05 4.13966e-05 -3.06297e-07
-7.11664e-08 -3.06297e-07 -5.13019e-05
0.000816578 5.89742e-06 -5.63716e-07
5.89742e-06 0.000114309 -3.48257e-07
-5.63716e-07 -3.48257e-07 2.80724e-05
0.000779975 6.8027e-06 3.38376e-07
6.8027e-06 0.00011 1.13888e-08
3.38376e-07 1.13888e-08 1.21404e-05
0.000808136 -1.98459e-05 -1.03221e-07
-1.98459e-05 0.000120836 -1.23347e-07
-1.03221e-07 -1.23347e-07 2.81308e-05
0.000860727 4.33167e-06 -2.9941e-07
4.33167e-06 0.000133127 -1.42705e-06
-2.9941e-07 -1.42705e-06 4.82254e-05
0.00084413 2.06999e-05 -4.71878e-07
2.06999e-05 0.000134699 -1.43737e-06
-4.71878e-07 -1.43737e-06 3.43434e-05
0.000825531 5.39077e-05 5.55188e-07
5.39077e-05 0.000128033 4.86757e-07
5.55188e-07 4.86757e-07 3.23072e-05
0.00070531 3.44985e-05 3.26073e-07
3.44985e-05 7.37079e-05 1.02399e-06
3.26073e-07 1.02399e-06 -3.22704e-05
0.000554401 -1.6965e-05 -1.83904e-07
-1.6965e-05 -3.35512e-05 1.84749e-06
-1.83904e-07 1.84749e-06 -0.00010955
0.000889363 -1.59617e-05 2.10457e-07
-1.59617e-05 0.000195298 -8.37448e-07
2.10457e-07 -8.37448e-07 8.74463e-05
0.000507529 -3.46136e-06 -5.45766e-07
-3.46136e-06 -5.53505e-05 1.86544e-06
-5.45766e-07 1.86544e-06 -0.000135535
0.000615653 8.89913e-06 -7.51381e-07
8.89913e-06 -5.90308e-06 1.77462e-06
-7.51381e-07 1.77462e-06 -5.41131e-05
0.000627877 1.45955e-05 6.86253e-07
1.45955e-05 2.06963e-07 2.89308e-09
6.86253e-07 2.89308e-09 -4.69758e-05
0.00059914 2.06751e-06 1.62423e-07
2.06751e-06 -4.31755e-05 3.64957e-06
1.62423e-07 3.64957e-06 -5.58754e-05
0.00063768 -3.22952e-06 -8.81167e-07
-3.22952e-06 3.66565e-06 -2.02995e-06
-8.81167e-07 -2.02995e-06 -4.27716e-05
0.000964288 -5.14659e-06 -1.78544e-06
-5.14659e-06 0.000169553 -1.6037e-06
-1.78544e-06 -1.6037e-06 0.000159356
0.0022822 -1.2001e-05 7.38414e-06
-1.2001e-05 0.000940361 5.00961e-06
7.38414e-06 5.00961e-06 0.000957634
0.00134861 -1.41412e-05 -2.88422e-06
-1.41412e-05 0.000394489 -5.28493e-06
-2.88422e-06 -5.28493e-06 0.000386374
0.000849557 -1.59771e-05 2.04169e-06
-1.59771e-05 0.000105639 3.09332e-06
2.04169e-06 3.09332e-06 0.000115235
0.000803145 -2.2393e-05 -5.76303e-07
-2.2393e-05 8.12353e-05 -2.00905e-06
-5.76303e-07 -2.00905e-06 9.0391e-05
0.00065143 9.12921e-06 -3.41504e-07
9.12921e-06 5.93005e-06 -1.97094e-06
-3.41504e-07 -1.97094e-06 -3.13579e-05
0.000671367 -3.05814e-06 6.56229e-07
-3.05814e-06 1.6107e-05 -6.87112e-08
6.56229e-07 -6.87112e-08 -2.25718e-05
0.000618749 2.08429e-05 3.95421e-07
2.08429e-05 -2.9649e-05 -3.59251e-06
3.95421e-07 -3.59251e-06 -3.81744e-05
0.000927482 3.25671e-05 -4.20077e-07
3.25671e-05 0.000155023 4.51699e-08
-4.20077e-07 4.51699e-08 0.000145589
0.00213796 4.85607e-05 1.55642e-05
4.85607e-05 0.000868267 -4.25563e-06
1.55642e-05 -4.25563e-06 0.000883614
0.000606175 3.67138e-05 -8.22462e-08
3.67138e-05 -2.54924e-05 3.93302e-06
-8.22462e-08 3.93302e-06 -4.05792e-05
0.0022509 6.33041e-05 -2.75037e-06
6.33041e-05 0.000941809 -1.6033e-07
-2.75037e-06 -1.6033e-07 0.000953911
0.00245852 7.91917e-05 -2.60133e-05
7.91917e-05 0.00107102 3.9555e-06
-2.60133e-05 3.9555e-06 0.00107908
0.00189394 0.00018446 -3.13971e-06
0.00018446 6.2927e-05 -8.58808e-07
-3.13971e-06 -8.58808e-07 -6.20993e-06
0.00195057 7.74789e-05 -1.21907e-06
7.74789e-05 9.60704e-05 -1.79239e-07
-1.21907e-06 -1.79239e-07 4.85493e-05
0.00180781 3.35609e-06 -1.20578e-06
3.35609e-06 9.50033e-05 -4.16865e-07
-1.20578e-06 -4.16865e-07 2.87126e-05
0.00183995 5.84136e-06 5.67418e-08
5.84136e-06 2.60348e-05 -2.26074e-07
5.67418e-08 -2.26074e-07 -1.00931e-05
0.00190295 0.000113431 -3.28786e-08
0.000113431 2.92496e-05 -1.47602e-07
-3.28786e-08 -1.47602e-07 -1.11446e-05
0.00175724 5.83841e-05 2.92203e-06
5.83841e-05 -2.85865e-05 3.62062e-07
2.92203e-06 3.62062e-07 -1.92878e-05
0.00190798 1.42336e-05 8.93294e-07
1.42336e-05 1.04347e-06 9.93141e-08
8.93294e-07 9.93141e-08 2.25394e-07
0.00264904 0.000220052 2.48503e-05
0.000220052 -5.8578e-05 -1.95336e-06
2.48503e-05 -1.95336e-06 -7.37063e-05
0.00199723 3.02441e-05 -2.60863e-05
3.02441e-05 0.000247746 5.31181e-06
-2.60863e-05 5.31181e-06 0.000290557
0.000668109 6.81952e-05 -6.5553e-07
6.81952e-05 4.33045e-05 -1.22317e-06
-6.5553e-07 -1.22317e-06 -2.28881e-05
0.00178333 -7.64511e-05 -2.65398e-06
-7.64511e-05 9.16571e-06 -2.36013e-07
-2.65398e-06 -2.36013e-07 -3.84376e-05
0.00191768 -0.000174601 -7.08364e-07
-0.000174601 9.63176e-05 1.06177e-06
-7.08364e-07 1.06177e-06 4.23334e-05
0.00169313 -0.000214709 1.02397e-06
-0.000214709 -1.51868e-05 1.31338e-06
1.02397e-06 1.31338e-06 -8.70044e-05
0.000590019 -0.000188152 3.73129e-06
-0.000188152 -7.89032e-05 8.05711e-06
3.73129e-06 8.05711e-06 -0.000264892
0.00112087 -0.000301367 2.23561e-06
-0.000301367 5.85714e-05 5.50148e-06
2.23561e-06 5.50148e-06 -0.000234763
0.00136568 -0.000335528 -6.22494e-07
-0.000335528 4.40826e-06 -8.67412e-06
-6.22494e-07 -8.67412e-06 -0.000214144
0.00198547 -0.000344137 -5.42245e-06
-0.000344137 0.000176465 -2.98146e-06
-5.42245e-06 -2.98146e-06 5.2282e-05
0.0015958 -0.00023415 9.56954e-06
-0.00023415 0.000443372 -3.06136e-06
9.56954e-06 -3.06136e-06 0.000286484
0.000465431 -0.000153893 8.33008e-06
-0.000153893 -6.15677e-05 -6.00643e-06
8.33008e-06 -6.00643e-06 -0.000216574
0.00088282 -9.13292e-05 -9.2408e-08
-9.13292e-05 0.000183309 -1.45244e-06
-9.2408e-08 -1.45244e-06 2.976e-05
0.000647399 -2.01185e-06 -1.17143e-06
-2.01185e-06 4.55982e-06 1.9565e-06
-1.17143e-06 1.9565e-06 -3.60826e-05
0.000819302 -1.3067e-05 5.55595e-07
-1.3067e-05 0.000154541 4.43539e-07
5.55595e-07 4.43539e-07 2.28839e-05
0.000970183 -4.68342e-05 8.86669e-07
-4.68342e-05 0.000231582 2.48827e-07
8.86669e-07 2.48827e-07 0.000148342
0.000779702 -1.81349e-05 -3.19857e-07
-1.81349e-05 0.00013166 4.21296e-07
-3.19857e-07 4.21296e-07 1.56716e-05
0.000465057 -1.83912e-05 -1.49594e-06
-1.83912e-05 -8.64249e-05 1.50046e-06
-1.49594e-06 1.50046e-06 -0.000151546
0.00191713 -9.42598e-05 -1.14509e-07
-9.42598e-05 4.87623e-06 1.11422e-07
-1.14509e-07 1.11422e-07 -1.99588e-05
0.000562574 3.54233e-05 7.70388e-08
3.54233e-05 -1.42128e-05 -1.03971e-06
7.70388e-08 -1.03971e-06 -8.61365e-05
0.000702775 -5.43392e-05 2.7258e-07
-5.43392e-05 6.58422e-05 3.14985e-07
2.7258e-07 3.14985e-07 -9.23548e-06
0.000798415 -4.11246e-05 -3.96894e-07
-4.11246e-05 0.000129786 7.69008e-07
-3.96894e-07 7.69008e-07 3.43586e-05
0.00180902 -0.000194571 9.76685e-07
-0.000194571 -7.74447e-06 -2.9622e-07
9.76685e-07 -2.9622e-07 -2.32539e-05
0.00198588 -0.00031691 -1.07143e-06
-0.00031691 8.67083e-05 -4.79108e-07
-1.07143e-06 -4.79108e-07 5.08767e-06
0.000963822 -0.000202809 3.08173e-06
-0.000202809 0.000110059 -7.90067e-08
3.08173e-06 -7.90067e-08 -7.75759e-05
0.00189302 -0.000400667 4.08326e-06
-0.000400667 0.000466438 2.88528e-07
4.08326e-06 2.88528e-07 0.000162914
0.00182144 -0.000398789 -1.20063e-07
-0.000398789 0.000160438 1.75643e-06
-1.20063e-07 1.75643e-06 5.45442e-06
0.000583081 -7.52042e-06 -3.15509e-07
-7.52042e-06 2.07966e-05 -8.04727e-08
-3.15509e-07 -8.04727e-08 -9.0506e-05
0.000829208 -5.92424e-05 -1.19371e-06
-5.92424e-05 0.000157558 3.23489e-07
-1.19371e-06 3.23489e-07 3.55984e-05
0.000691326 -0.000229323 -3.89062e-06
-0.000229323 -3.20208e-05 1.19337e-06
-3.89062e-06 1.19337e-06 -0.000204791
0.000530292 -9.05556e-05 -3.32313e-07
-9.05556e-05 5.72679e-05 -9.90187e-07
-3.32313e-07 -9.90187e-07 -0.000167807
0.000750934 -6.47052e-05 -9.59338e-08
-6.47052e-05 8.1707e-05 -2.68987e-07
-9.59338e-08 -2.68987e-07 -5.68488e-05
0.00213214 -0.000184692 -2.92981e-06
-0.000184692 0.000110273 -9.31813e-07
-2.92981e-06 -9.31813e-07 0.000100344
0.00180584 -0.000212787 -6.56709e-06
-0.000212787 -4.6958e-05 1.29904e-06
-6.56709e-06 1.29904e-06 -4.07776e-05
0.00230375 -0.000434363 -4.23603e-06
-0.000434363 0.000277916 -6.43293e-07
-4.23603e-06 -6.43293e-07 0.00015072
0.00299295 -0.000514345 -2.08931e-05
-0.000514345 0.000915853 2.99669e-06
-2.08931e-05 2.99669e-06 0.000697637
0.000963585 -0.000224188 -9.10758e-06
-0.000224188 0.000146438 -3.57897e-06
-9.10758e-06 -3.57897e-06 -7.52106e-05
0.000488938 1.72992e-05 1.36721e-06
1.72992e-05 -5.07175e-05 -2.14758e-06
1.36721e-06 -2.14758e-06 -0.000142644
0.000479787 4.74464e-05 8.57685e-07
4.74464e-05 -6.04555e-05 -3.31394e-07
8.57685e-07 -3.31394e-07 -0.000158593
0.000627189 7.02578e-06 1.00767e-06
7.02578e-06 3.57303e-05 -1.11255e-06
1.00767e-06 -1.11255e-06 -7.08884e-05
0.00117034 -0.000125311 2.30426e-07
-0.000125311 0.000367014 2.24736e-06
2.30426e-07 2.24736e-06 0.000241701
0.000747886 -5.33567e-05 7.93008e-07
-5.33567e-05 9.09885e-05 2.31442e-06
7.93008e-07 2.31442e-06 -2.57593e-05
0.000191288 -5.81723e-05 2.55092e-06
-5.81723e-05 -0.000127868 1.00224e-06
2.55092e-06 1.00224e-06 -0.000354568
0.000588426 -0.000249181 3.71446e-06
-0.000249181 9.2621e-05 -4.33865e-07
3.71446e-06 -4.33865e-07 -0.000186753
0.000752025 7.15695e-05 8.3341e-07
7.15695e-05 0.000116174 -3.86948e-06
8.3341e-07 -3.86948e-06 5.94706e-06
0.000280615 7.11523e-05 2.77439e-07
7.11523e-05 -0.000146038 -1.21153e-06
2.77439e-07 -1.21153e-06 -0.000295189
0.00199953 0.000175882 6.42828e-06
0.000175882 6.15619e-05 -6.24768e-09
6.42828e-06 -6.24768e-09 3.32258e-05
0.00196689 0.000270552 1.02579e-05
0.000270552 0.000123639 1.97474e-06
1.02579e-05 1.97474e-06 3.64947e-05
0.00175683 0.000361749 7.61046e-06
0.000361749 0.000133838 2.66348e-06
7.61046e-06 2.66348e-06 -5.00664e-05
0.000401139 0.000166508 1.14844e-06
0.000166508 -0.000180595 -2.00913e-06
1.14844e-06 -2.00913e-06 -0.000396589
0.00245255 0.000402779 3.44918e-06
0.000402779 0.000749543 1.57137e-06
3.44918e-06 1.57137e-06 0.000489538
0.00124216 8.31669e-05 -1.88066e-07
8.31669e-05 0.000395569 5.68706e-07
-1.88066e-07 5.68706e-07 0.000272124
0.00211435 0.000170832 -2.35922e-06
0.000170832 0.00019925 1.57631e-07
-2.35922e-06 1.57631e-07 0.000202855
0.00147122 0.000230101 -1.54353e-06
0.000230101 0.000498653 -2.62172e-07
-1.54353e-06 -2.62172e-07 0.000317472
0.00157656 0.000288945 -6.49699e-07
0.000288945 0.000434153 1.42288e-06
-6.49699e-07 1.42288e-06 0.000190711
0.00197168 0.000370468 -1.18534e-06
0.000370468 0.000148393 -2.54581e-06
-1.18534e-06 -2.54581e-06 3.28164e-05
0.00155042 0.000365072 -1.68051e-06
0.000365072 0.000167534 3.11985e-06
-1.68051e-06 3.11985e-06 -7.42106e-05
0.00171492 0.000304951 2.6514e-05
0.000304951 -0.000196939 1.12227e-06
2.6514e-05 1.12227e-06 -0.000486392
0.00120081 0.00014479 -3.18879e-06
0.00014479 0.000385672 -8.01585e-07
-3.18879e-06 -8.01585e-07 0.000242531
0.00228485 0.000282126 -3.67679e-05
0.000282126 0.000329551 -1.85902e-05
-3.67679e-05 -1.85902e-05 0.000331287
0.00123791 0.000231714 -5.00144e-06
0.000231714 0.000330094 -4.97018e-07
-5.00144e-06 -4.97018e-07 0.000148368
0.00104299 0.000277224 -3.38097e-06
0.000277224 6.00093e-05 -2.51593e-06
-3.38097e-06 -2.51593e-06 -0.000189108
0.000398038 0.000364564 -1.09756e-05
0.000364564 -0.000579428 -8.526e-06
-1.09756e-05 -8.526e-06 -0.000773897
0.00898635 0.000291019 -0.000142826
0.000291019 0.00215444 -3.83556e-05
-0.000142826 -3.83556e-05 0.00120515
0.00496352 0.000592402 0.000122253
0.000592402 0.000707667 -1.13443e-05
0.000122253 -1.13443e-05 0.000195518
0.00143635 0.000437899 2.14704e-05
0.000437899 1.24318e-05 1.46497e-05
2.14704e-05 1.46497e-05 -0.000166575
-0.00480332 -0.000537221 0.000239239
-0.000537221 -0.00156258 4.5724e-07
0.000239239 4.5724e-07 -0.00243259
0.00605368 -0.0015844 -9.03312e-06
-0.0015844 0.00104588 7.56925e-06
-9.03312e-06 7.56925e-06 0.00260447
0.000599218 2.00772e-05 1.60081e-06
2.00772e-05 3.24413e-05 2.05656e-07
1.60081e-06 2.05656e-07 -5.84426e-05
0.000881866 1.25862e-05 6.64489e-07
1.25862e-05 0.000183198 -6.519e-07
6.64489e-07 -6.519e-07 9.06134e-05
0.000912913 6.20723e-05 -1.66397e-06
6.20723e-05 0.000189857 -1.82094e-06
-1.66397e-06 -1.82094e-06 9.48153e-05
0.000665592 -5.83945e-05 8.17203e-08
-5.83945e-05 4.9961e-05 -1.5708e-06
8.17203e-08 -1.5708e-06 -3.41814e-05
0.000641791 5.44231e-05 -1.20482e-06
5.44231e-05 2.94806e-05 -1.05134e-06
-1.20482e-06 -1.05134e-06 -6.61908e-05
0.000785339 -3.42999e-05 -4.40264e-09
-3.42999e-05 0.000114189 -3.09804e-07
-4.40264e-09 -3.09804e-07 1.58445e-05
0.000866198 4.06125e-06 -1.45419e-06
4.06125e-06 0.000152002 1.29118e-06
-1.45419e-06 1.29118e-06 5.89458e-05
0.000738508 -3.42378e-06 -7.61902e-07
-3.42378e-06 7.10933e-05 -4.72621e-08
-7.61902e-07 -4.72621e-08 -1.7058e-05
0.000761994 6.49562e-05 -1.14412e-06
6.49562e-05 0.000101528 -3.78238e-07
-1.14412e-06 -3.78238e-07 -2.36307e-06
0.000613333 -7.48444e-06 -6.81025e-08
-7.48444e-06 5.90821e-06 6.92483e-07
-6.81025e-08 6.92483e-07 -7.25149e-05
0.000705953 2.06302e-05 5.34706e-08
2.06302e-05 7.13369e-05 -5.27933e-09
5.34706e-08 -5.27933e-09 -3.25081e-05
0.000796868 6.62644e-06 5.89664e-07
6.62644e-06 9.57209e-05 4.99718e-07
5.89664e-07 4.99718e-07 1.03572e-05
0.000836267 2.52629e-05 -5.17814e-07
2.52629e-05 0.000129254 -2.65906e-07
-5.17814e-07 -2.65906e-07 3.1845e-05
0.00097934 6.59431e-05 -5.69836e-07
6.59431e-05 0.000210983 -7.3149e-07
-5.69836e-07 -7.3149e-07 0.00011244
0.000548798 2.87123e-05 5.08715e-07
2.87123e-05 -3.49734e-05 -1.94692e-06
5.08715e-07 -1.94692e-06 -0.000125141
0.000857572 6.29903e-05 1.5725e-06
6.29903e-05 0.000142443 7.6696e-07
1.5725e-06 7.6696e-07 4.20506e-05
0.000636484 -1.46205e-05 9.25609e-07
-1.46205e-05 1.83991e-05 3.10317e-07
9.25609e-07 3.10317e-07 -7.92997e-05
0.000537794 -4.77493e-05 -1.14545e-06
-4.77493e-05 -3.67611e-05 1.54264e-06
-1.14545e-06 1.54264e-06 -0.000118439
0.000814751 9.34763e-06 -6.81112e-07
9.34763e-06 0.0001333 -1.25602e-07
-6.81112e-07 -1.25602e-07 3.10832e-05
0.000820426 4.71056e-05 6.09015e-08
4.71056e-05 0.000135047 -1.77034e-06
6.09015e-08 -1.77034e-06 3.43128e-05
0.000684841 -7.56132e-06 -8.73641e-07
-7.56132e-06 6.77976e-05 -1.1679e-07
-8.73641e-07 -1.1679e-07 -2.98013e-05
0.000814097 -7.92669e-06 1.0066e-06
-7.92669e-06 0.000137935 -5.24292e-07
1.0066e-06 -5.24292e-07 3.81858e-05
0.000698303 -6.64809e-05 -1.88584e-06
-6.64809e-05 5.58781e-05 1.10106e-06
-1.88584e-06 1.10106e-06 -2.19878e-05
0.000537711 -1.8309e-06 1.3321e-07
-1.8309e-06 -3.50347e-05 7.08973e-07
1.3321e-07 7.08973e-07 -0.000117504
0.000641453 -1.83178e-06 -1.00856e-06
-1.83178e-06 5.25665e-06 1.95518e-06
-1.00856e-06 1.95518e-06 -4.22226e-05
0.000631871 -9.15813e-06 5.81689e-07
-9.15813e-06 2.66112e-06 -2.71232e-08
5.81689e-07 -2.71232e-08 -4.51059e-05
0.000624698 7.23182e-06 -3.84708e-07
7.23182e-06 -2.68096e-05 5.26106e-06
-3.84708e-07 5.26106e-06 -4.0274e-05
0.00062836 5.18846e-06 -3.63281e-07
5.18846e-06 -2.53913e-09 -1.87703e-06
-3.63281e-07 -1.87703e-06 -4.67176e-05
0.000607459 2.08367e-06 3.04159e-07
2.08367e-06 -3.82003e-05 -1.59921e-08
3.04159e-07 -1.59921e-08 -5.0975e-05
0.00229829 -1.31581e-06 -2.54121e-07
-1.31581e-06 0.00094923 5.10565e-06
-2.54121e-07 5.10565e-06 0.000966374
0.000640958 -3.41269e-06 -4.94414e-07
-3.41269e-06 -1.89317e-05 -5.33039e-06
-4.94414e-07 -5.33039e-06 -3.1319e-05
0.00156876 -9.1291e-06 -1.79927e-07
-9.1291e-06 0.000523417 6.92622e-08
-1.79927e-07 6.92622e-08 0.000536825
0.00080133 -1.43462e-05 -8.39885e-08
-1.43462e-05 7.65532e-05 -2.00203e-06
-8.39885e-08 -2.00203e-06 8.6493e-05
0.000654318 -3.24622e-07 5.3129e-07
-3.24622e-07 8.54234e-06 -1.85671e-06
5.3129e-07 -1.85671e-06 -2.72304e-05
0.000661712 -8.33473e-06 3.95742e-07
-8.33473e-06 1.13534e-05 6.68743e-09
3.95742e-07 6.68743e-09 -2.58701e-05
0.000629449 1.40323e-05 2.91178e-07
1.40323e-05 -2.62935e-05 -3.44461e-06
2.91178e-07 -3.44461e-06 -3.31491e-05
0.000649654 -1.4979e-05 -1.77081e-06
-1.4979e-05 3.49222e-06 1.92565e-06
-1.77081e-06 1.92565e-06 -3.5188e-05
0.000914545 2.40878e-05 -1.04703e-07
2.40878e-05 0.000142832 -7.26385e-07
-1.04703e-07 -7.26385e-07 0.000136186
0.00207509 3.58859e-05 1.19465e-05
3.58859e-05 0.00082651 -4.39511e-06
1.19465e-05 -4.39511e-06 0.000844011
0.000605882 2.88308e-05 -4.57332e-07
2.88308e-05 -3.22166e-05 3.66831e-06
-4.57332e-07 3.66831e-06 -4.37581e-05
0.00220422 4.99135e-05 -7.45693e-06
4.99135e-05 0.000908818 1.15769e-06
-7.45693e-06 1.15769e-06 0.000923515
0.00229923 6.52296e-05 -1.99604e-05
6.52296e-05 0.000970821 4.10918e-06
-1.99604e-05 4.10918e-06 0.00098237
0.00182766 0.00011088 -2.66446e-06
0.00011088 -3.35764e-07 -6.55505e-07
-2.66446e-06 -6.55505e-07 -4.21224e-05
0.00181525 7.28154e-06 -2.1465e-06
7.28154e-06 1.59629e-05 -5.03546e-07
-2.1465e-06 -5.03546e-07 -2.07714e-05
0.0015639 5.15511e-05 1.1749e-05
5.15511e-05 -0.000146329 -1.87376e-08
1.1749e-05 -1.87376e-08 -0.000144582
0.00226271 0.000154146 2.77238e-05
0.000154146 -0.000180426 6.64631e-06
2.77238e-05 6.64631e-06 -0.000187607
0.00187537 4.20673e-06 -2.8338e-06
4.20673e-06 -1.3133e-05 -5.32566e-07
-2.8338e-06 -5.32566e-07 -1.41338e-05
0.00178232 4.01479e-05 4.55641e-06
4.01479e-05 0.00013523 -1.42219e-06
4.55641e-06 -1.42219e-06 0.000162633
0.00303841 -4.51194e-06 -2.40242e-05
-4.51194e-06 0.000820447 1.90769e-06
-2.40242e-05 1.90769e-06 0.000798895
0.00267229 -3.69285e-05 0.000120502
-3.69285e-05 -0.000482987 -2.03985e-05
0.000120502 -2.03985e-05 -0.000550546
0.00260371 2.56218e-05 2.35751e-06
2.56218e-05 0.000203288 8.15421e-06
2.35751e-06 8.15421e-06 0.000234141
0.000686089 6.24729e-05 -2.0927e-07
6.24729e-05 5.67111e-05 -1.3598e-06
-2.0927e-07 -1.3598e-06 -1.21714e-05
0.000700102 -8.19455e-06 7.31405e-07
-8.19455e-06 6.65852e-05 -1.33241e-07
7.31405e-07 -1.33241e-07 -3.96935e-06
0.000672555 -7.90231e-05 3.12445e-07
-7.90231e-05 5.35368e-05 -7.25294e-07
3.12445e-07 -7.25294e-07 -3.06363e-05
0.000712203 -3.28383e-05 -9.73494e-07
-3.28383e-05 9.20914e-05 -7.27788e-08
-9.73494e-07 -7.27788e-08 -3.29715e-06
0.00192948 -0.000103314 -4.74805e-06
-0.000103314 -6.89988e-06 1.31999e-07
-4.74805e-06 1.31999e-07 -2.00588e-05
0.00178611 -0.000197598 -8.95279e-07
-0.000197598 -1.68642e-05 1.03495e-06
-8.95279e-07 1.03495e-06 -3.80448e-05
0.00200617 -0.000313944 -5.11863e-06
-0.000313944 0.000112911 8.66157e-07
-5.11863e-06 8.66157e-07 2.62942e-05
0.00164708 -0.000285424 3.92114e-06
-0.000285424 0.000478832 5.69979e-06
3.92114e-06 5.69979e-06 0.000288414
0.000642921 -0.000298832 7.90598e-06
-0.000298832 -0.000200133 -4.71668e-06
7.90598e-06 -4.71668e-06 -0.000491725
0.00215128 -0.000423419 4.85639e-06
-0.000423419 0.000348746 -3.70544e-06
4.85639e-06 -3.70544e-06 0.000186765
0.000934866 -0.000238165 -5.0203e-06
-0.000238165 0.000121599 1.41211e-07
-5.0203e-06 1.41211e-07 -6.91542e-05
0.00141552 -0.000103037 -7.72605e-07
-0.000103037 0.000514357 -1.08196e-06
-7.72605e-07 -1.08196e-06 0.000317944
0.000419821 -7.76488e-05 -1.72614e-06
-7.76488e-05 -0.000106035 7.81171e-07
-1.72614e-06 7.81171e-07 -0.000240988
0.000715727 -2.85344e-05 -7.15561e-07
-2.85344e-05 6.91343e-05 1.62613e-06
-7.15561e-07 1.62613e-06 -2.76823e-06
0.000608847 -6.86372e-05 -6.59484e-07
-6.86372e-05 3.75183e-05 -3.53451e-07
-6.59484e-07 -3.53451e-07 -9.12254e-05
0.000791299 -8.55863e-06 -6.45322e-07
-8.55863e-06 0.000139463 1.60497e-08
-6.45322e-07 1.60497e-08 2.98441e-05
0.000703351 6.1376e-06 9.93057e-08
6.1376e-06 7.19788e-05 8.3977e-07
9.93057e-08 8.3977e-07 -1.89637e-06
0.00060557 1.62818e-05 -1.9077e-06
1.62818e-05 2.22664e-05 2.75885e-06
-1.9077e-06 2.75885e-06 -7.54541e-05
0.00213026 -0.000166135 1.13542e-06
-0.000166135 0.000126593 6.76362e-07
1.13542e-06 6.76362e-07 0.00012228
0.00068936 -2.58735e-06 9.37765e-07
-2.58735e-06 7.22977e-05 -4.66762e-07
9.37765e-07 -4.66762e-07 -2.22799e-05
0.00068317 9.40853e-06 1.34706e-06
9.40853e-06 6.42308e-05 -2.49377e-07
1.34706e-06 -2.49377e-07 -3.64152e-05
0.000556417 5.87438e-05 -1.25507e-07
5.87438e-05 3.77829e-07 1.52531e-06
-1.25507e-07 1.52531e-06 -0.00010251
0.00180112 -0.000214971 -1.58705e-06
-0.000214971 -6.94385e-05 -1.05166e-06
-1.58705e-06 -1.05166e-06 -6.8002e-05
0.00193094 -0.00040612 1.53022e-06
-0.00040612 8.45046e-05 -4.61548e-07
1.53022e-06 -4.61548e-07 -3.49496e-05
0.00121543 -0.000278193 -8.11382e-07
-0.000278193 0.000265885 -1.72599e-06
-8.11382e-07 -1.72599e-06 4.04573e-05
0.00239228 -0.000473192 -4.41853e-06
-0.000473192 0.000594571 1.77452e-06
-4.41853e-06 1.77452e-06 0.000380375
0.00104287 -5.83808e-05 -7.64644e-07
-5.83808e-05 0.000281796 4.27404e-07
-7.64644e-07 4.27404e-07 0.000162197
0.000686516 -7.09825e-05 -2.98882e-07
-7.09825e-05 5.60139e-05 1.07782e-06
-2.98882e-07 1.07782e-06 -6.92753e-05
0.00098484 -0.00028456 2.37766e-06
-0.00028456 0.000317843 -4.59869e-07
2.37766e-06 -4.59869e-07 3.18331e-05
0.000987954 -0.000131584 3.83138e-07
-0.000131584 0.000300524 3.14627e-07
3.83138e-07 3.14627e-07 7.48437e-05
0.00205636 -0.000170152 -1.70163e-05
-0.000170152 3.79789e-05 3.162e-07
-1.70163e-05 3.162e-07 7.45297e-05
0.00226152 -0.000338169 -1.7068e-05
-0.000338169 0.000157304 4.10743e-06
-1.7068e-05 4.10743e-06 0.000172153
0.00284729 -0.000538737 -1.22104e-05
-0.000538737 0.000660728 -4.80219e-06
-1.22104e-05 -4.80219e-06 0.000476138
0.00192549 -0.000420944 -2.40347e-06
-0.000420944 0.000546918 5.10419e-06
-2.40347e-06 5.10419e-06 0.000332103
0.000611123 1.16109e-05 -5.22011e-07
1.16109e-05 3.88793e-05 -2.86135e-06
-5.22011e-07 -2.86135e-06 -7.85405e-05
0.00062324 -7.37244e-05 1.38846e-06
-7.37244e-05 4.50496e-05 -3.21942e-06
1.38846e-06 -3.21942e-06 -7.82052e-05
0.000587096 -8.31335e-05 9.54954e-08
-8.31335e-05 6.31139e-05 2.34929e-06
9.54954e-08 2.34929e-06 -8.07782e-05
0.00053977 -0.000101271 2.08522e-06
-0.000101271 0.000190151 -4.65227e-06
2.08522e-06 -4.65227e-06 -0.000159094
0.000590703 -0.000283196 2.75257e-05
-0.000283196 -0.00244241 -3.91254e-06
2.75257e-05 -3.91254e-06 -0.00293375
0.00124612 7.07842e-05 7.6221e-07
7.07842e-05 0.0003919 -3.21653e-06
7.6221e-07 -3.21653e-06 0.000276227
0.000438642 0.000133593 2.6022e-06
0.000133593 -8.2543e-05 1.79239e-07
2.6022e-06 1.79239e-07 -0.000247311
0.0018716 0.000150962 3.49554e-05
0.000150962 7.93042e-05 4.93092e-06
3.49554e-05 4.93092e-06 8.896e-05
0.00205633 0.000362984 1.21686e-05
0.000362984 0.000199153 4.6418e-06
1.21686e-05 4.6418e-06 8.68358e-05
0.00169362 0.000382287 5.08093e-06
0.000382287 0.000248716 5.62391e-06
5.08093e-06 5.62391e-06 -1.39354e-06
0.00084207 0.000227948 4.18948e-06
0.000227948 4.56889e-05 2.25556e-06
4.18948e-06 2.25556e-06 -0.000200786
0.00278806 0.000379413 4.51444e-05
0.000379413 0.000151499 1.46338e-05
4.51444e-05 1.46338e-05 -0.000230049
0.00117641 0.000124878 1.69252e-06
0.000124878 0.000375027 -2.33436e-07
1.69252e-06 -2.33436e-07 0.000234757
0.00232545 0.000283198 -9.6337e-06
0.000283198 0.000338724 -1.17136e-06
-9.6337e-06 -1.17136e-06 0.000352442
0.00105664 0.000216254 9.323e-07
0.000216254 0.000242514 -5.40866e-08
9.323e-07 -5.40866e-08 6.29909e-05
0.00123 0.000304768 7.64756e-07
0.000304768 0.000170253 -6.20185e-07
7.64756e-07 -6.20185e-07 -8.43272e-05
0.00137833 0.000436277 -4.46806e-06
0.000436277 -8.85523e-05 -1.31984e-06
-4.46806e-06 -1.31984e-06 -0.00027917
0.00331908 -0.000194564 -8.62294e-05
-0.000194564 -0.000943269 -2.88371e-05
-8.62294e-05 -2.88371e-05 -0.00189801
0.00490387 0.000475947 -8.86873e-06
0.000475947 0.000440872 -2.5341e-05
-8.86873e-06 -2.5341e-05 -0.00017406
0.000309122 0.000315223 -1.77636e-06
0.000315223 -0.000480084 7.77011e-06
-1.77636e-06 7.77011e-06 -0.000681825
-0.000962059 -0.000403398 0.000113583
-0.000403398 0.00078035 4.34009e-05
0.000113583 4.34009e-05 -0.000292052
-0.000331018 -0.00156305 -6.38201e-05
-0.00156305 -0.0012888 -8.23084e-05
-6.38201e-05 -8.23084e-05 0.000457414
0.00109667 0.000156875 -3.63392e-06
0.000156875 0.000321214 -3.55598e-06
-3.63392e-06 -3.55598e-06 0.000192238
0.000329153 0.00031496 9.81763e-05
0.00031496 0.00121824 -2.61083e-05
9.81763e-05 -2.61083e-05 0.000302712
0.00128186 -0.000531313 -7.19888e-05
-0.000531313 0.0018208 -0.000123643
-7.19888e-05 -0.000123643 0.000833872
0.00283721 0.00042383 -2.53121e-05
0.00042383 0.000675809 -1.10757e-05
-2.53121e-05 -1.10757e-05 0.00068958
0.00109849 0.000151619 -1.11777e-05
0.000151619 0.000258304 -1.60076e-06
-1.11777e-05 -1.60076e-06 7.39288e-05
0.000260363 0.000376822 -1.60388e-05
0.000376822 -0.000380447 -1.35515e-05
-1.60388e-05 -1.35515e-05 -0.000654281
7.25849e-05 0.000361588 2.78785e-05
0.000361588 -0.000625988 5.81392e-05
2.78785e-05 5.81392e-05 -0.000728476
0.0103245 0.000440742 -3.14813e-05
0.000440742 0.00337537 -2.663e-05
-3.14813e-05 -2.663e-05 0.00191952
0.00348712 0.000806044 4.17315e-06
0.000806044 0.000805497 1.06785e-05
4.17315e-06 1.06785e-05 -0.000350925
0.00183302 -0.00135269 0.00016377
-0.00135269 -0.000328569 0.000124918
0.00016377 0.000124918 7.55776e-05
0.00341614 -0.000784006 6.29996e-06
-0.000784006 -0.00133432 0.00017444
6.29996e-06 0.00017444 7.67042e-05
0.000732237 7.21746e-07 6.54182e-07
7.21746e-07 0.000107802 -1.01358e-06
6.54182e-07 -1.01358e-06 1.51086e-05
0.000854541 6.25755e-05 1.03468e-06
6.25755e-05 0.000161896 9.92535e-07
1.03468e-06 9.92535e-07 6.54897e-05
0.00129596 0.00011487 -2.08133e-06
0.00011487 0.000423184 -2.79327e-06
-2.08133e-06 -2.79327e-06 0.000338607
0.000672139 3.9711e-06 4.30448e-07
3.9711e-06 5.48323e-05 -4.81344e-07
4.30448e-07 -4.81344e-07 -3.23008e-05
0.000763104 2.80719e-05 -5.69101e-08
2.80719e-05 0.000102583 -1.11218e-06
-5.69101e-08 -1.11218e-06 1.19735e-07
0.000589451 -1.44282e-05 -1.1044e-06
-1.44282e-05 -8.50992e-06 -3.65989e-07
-1.1044e-06 -3.65989e-07 -0.000103621
0.000821639 3.10793e-05 -8.44072e-07
3.10793e-05 0.000120497 4.67987e-07
-8.44072e-07 4.67987e-07 2.56304e-05
0.000743967 8.27084e-06 -3.46843e-07
8.27084e-06 6.40357e-05 5.34579e-07
-3.46843e-07 5.34579e-07 -2.17807e-05
0.000528291 -9.21938e-07 3.53825e-07
-9.21938e-07 -3.94773e-05 7.13581e-07
3.53825e-07 7.13581e-07 -0.000123156
0.000853871 2.38468e-05 9.17437e-08
2.38468e-05 0.000139962 1.21942e-07
9.17437e-08 1.21942e-07 4.19379e-05
0.00083641 2.19044e-05 3.98311e-08
2.19044e-05 0.000131727 2.75498e-07
3.98311e-08 2.75498e-07 3.10877e-05
0.000720328 1.75402e-05 6.19144e-07
1.75402e-05 7.98522e-05 -3.75142e-07
6.19144e-07 -3.75142e-07 -2.5758e-05
0.000586039 3.16695e-05 -1.37349e-07
3.16695e-05 -1.40701e-05 -5.7551e-08
-1.37349e-07 -5.7551e-08 -0.000103566
0.00104804 3.22065e-05 9.64882e-08
3.22065e-05 0.00024742 -1.05547e-06
9.64882e-08 -1.05547e-06 0.000154093
0.000324697 4.3162e-05 -1.52855e-06
4.3162e-05 -0.000145833 -3.74072e-06
-1.52855e-06 -3.74072e-06 -0.000240422
0.000785094 -6.90647e-05 -1.96088e-07
-6.90647e-05 0.000100927 5.32612e-07
-1.96088e-07 5.32612e-07 -4.73682e-06
0.000804927 -5.50955e-05 -8.30186e-07
-5.50955e-05 0.000132438 -8.4798e-07
-8.30186e-07 -8.4798e-07 2.28676e-05
0.000824364 -2.01282e-05 -5.20557e-07
-2.01282e-05 0.000143227 -3.46109e-07
-5.20557e-07 -3.46109e-07 3.72361e-05
0.000840388 2.35149e-05 -4.68506e-07
2.35149e-05 0.000139001 -3.01724e-07
-4.68506e-07 -3.01724e-07 4.31098e-05
0.000854674 1.27591e-05 -1.39868e-06
1.27591e-05 0.00016292 -1.8853e-06
-1.39868e-06 -1.8853e-06 4.76865e-05
0.00074927 3.23367e-05 6.47296e-07
3.23367e-05 9.59997e-05 -7.21483e-07
6.47296e-07 -7.21483e-07 -1.27103e-06
0.000444299 -1.96636e-06 4.92693e-07
-1.96636e-06 -0.000100124 -1.66967e-06
4.92693e-07 -1.66967e-06 -0.000185076
0.000647876 2.61012e-05 9.72818e-07
2.61012e-05 4.10445e-05 4.48139e-07
9.72818e-07 4.48139e-07 -5.52566e-05
0.000690147 -2.44989e-05 5.19939e-09
-2.44989e-05 5.52126e-05 2.39699e-07
5.19939e-09 2.39699e-07 -2.91466e-05
0.000728786 -2.45614e-05 -2.21619e-07
-2.45614e-05 8.83279e-05 -1.84874e-08
-2.21619e-07 -1.84874e-08 -6.68241e-06
0.00069446 -3.1702e-05 -1.51197e-06
-3.1702e-05 4.54992e-05 8.73223e-07
-1.51197e-06 8.73223e-07 -2.44007e-05
0.000732308 -1.66306e-05 1.23901e-06
-1.66306e-05 7.53417e-05 -3.70572e-07
1.23901e-06 -3.70572e-07 -1.53476e-05
0.000652813 -6.11776e-05 -1.13039e-08
-6.11776e-05 2.78815e-05 1.3167e-07
-1.13039e-08 1.3167e-07 -5.00935e-05
0.000667694 -3.11177e-07 -1.51883e-06
-3.11177e-07 1.68919e-05 2.06934e-06
-1.51883e-06 2.06934e-06 -3.03295e-05
0.000546974 -2.83522e-06 9.46539e-07
-2.83522e-06 -2.32376e-05 -4.66633e-07
9.46539e-07 -4.66633e-07 -0.00011006
0.000642833 6.36291e-06 7.48795e-07
6.36291e-06 7.41404e-06 -2.36544e-08
7.48795e-07 -2.36544e-08 -4.0929e-05
0.00137032 1.6621e-05 -2.70694e-06
1.6621e-05 0.000409326 5.1816e-06
-2.70694e-06 5.1816e-06 0.000399516
0.00063566 2.13401e-05 -1.2407e-07
2.13401e-05 4.73322e-06 -1.80254e-06
-1.2407e-07 -1.80254e-06 -4.29696e-05
0.000988812 8.69683e-06 -1.55826e-06
8.69683e-06 0.000185516 7.9318e-07
-1.55826e-06 7.9318e-07 0.000174133
0.000857107 3.85878e-06 -3.64646e-06
3.85878e-06 0.000108931 4.95813e-06
-3.64646e-06 4.95813e-06 0.000118049
0.000617365 2.03846e-06 8.44577e-08
2.03846e-06 -3.22773e-05 -3.63531e-06
8.44577e-08 -3.63531e-06 -4.51372e-05
0.00230448 2.23647e-07 3.87945e-06
2.23647e-07 0.00095291 -4.38092e-09
3.87945e-06 -4.38092e-09 0.000969992
0.000873601 -3.51352e-06 -3.75784e-06
-3.51352e-06 0.000118153 -5.00207e-06
-3.75784e-06 -5.00207e-06 0.000127832
0.00069781 6.65865e-05 1.43557e-06
6.65865e-05 7.0346e-05 -6.51192e-07
1.43557e-06 -6.51192e-07 -5.45228e-06
0.000654149 1.39191e-05 -7.24259e-07
1.39191e-05 1.10819e-05 -2.03136e-06
-7.24259e-07 -2.03136e-06 -2.54921e-05
0.000647305 -3.6241e-06 7.77841e-07
-3.6241e-06 5.59641e-06 1.86268e-08
7.77841e-07 1.86268e-08 -3.09731e-05
0.000630786 7.90564e-06 9.98696e-08
7.90564e-06 -2.68805e-05 -3.41492e-06
9.98696e-08 -3.41492e-06 -3.30798e-05
0.000669828 -2.08997e-05 -1.48635e-06
-2.08997e-05 1.66792e-05 1.9588e-06
-1.48635e-06 1.9588e-06 -2.12118e-05
0.000611078 1.39502e-05 1.02161e-08
1.39502e-05 -3.74864e-05 -7.57641e-07
1.02161e-08 -7.57641e-07 -4.41471e-05
0.00205468 2.3823e-05 8.01874e-06
2.3823e-05 0.000810808 -4.56637e-06
8.01874e-06 -4.56637e-06 0.000829637
0.00122445 2.97233e-05 -8.28503e-07
2.97233e-05 0.000324229 2.08043e-06
-8.28503e-07 2.08043e-06 0.000318878
0.00149388 3.07648e-05 2.20304e-07
3.07648e-05 0.000487939 1.44946e-06
2.20304e-07 1.44946e-06 0.000501502
0.000922174 3.39308e-05 -1.52512e-05
3.39308e-05 0.000159986 7.30015e-06
-1.52512e-05 7.30015e-06 0.000167733
0.00151224 8.75381e-05 5.46763e-05
8.75381e-05 -0.000488619 1.55193e-05
5.46763e-05 1.55193e-05 -0.000509649
0.00185953 -5.52718e-06 1.58871e-06
-5.52718e-06 -1.83342e-05 1.77523e-07
1.58871e-06 1.77523e-07 -2.05625e-05
0.0018424 5.11012e-05 2.99527e-05
5.11012e-05 0.000184637 -5.81885e-06
2.99527e-05 -5.81885e-06 0.000199675
0.00100004 6.66262e-05 -3.97636e-06
6.66262e-05 -0.000963063 -6.55642e-06
-3.97636e-06 -6.55642e-06 -0.0010657
0.00182755 2.95356e-05 1.44958e-05
2.95356e-05 -0.000139993 1.13534e-06
1.44958e-05 1.13534e-06 -0.000118805
0.00233522 -1.20625e-05 -4.59028e-07
-1.20625e-05 0.000355452 -1.35222e-06
-4.59028e-07 -1.35222e-06 0.000338185
0.00330534 -4.8779e-05 -5.80164e-05
-4.8779e-05 0.000755873 4.60998e-06
-5.80164e-05 4.60998e-06 0.000744748
0.00326289 -7.74985e-05 0.000123434
-7.74985e-05 0.000530079 -5.98917e-06
0.000123434 -5.98917e-06 0.00030885
0.00874114 -0.000318461 3.63045e-06
-0.000318461 0.00216252 1.98513e-05
3.63045e-06 1.98513e-05 0.000895848
0.00738754 0.00128773 0.000234924
0.00128773 0.00362976 -0.000105304
0.000234924 -0.000105304 0.00371202
0.00354736 0.00132898 8.83439e-06
0.00132898 0.00238886 1.23596e-05
8.83439e-06 1.23596e-05 0.00323432
0.000427033 -7.21272e-05 2.29763e-06
-7.21272e-05 -8.17791e-05 -1.16963e-06
2.29763e-06 -1.16963e-06 -0.000169045
0.000697119 -9.3957e-06 1.16139e-06
-9.3957e-06 6.50251e-05 -1.3049e-07
1.16139e-06 -1.3049e-07 -5.43125e-06
0.00071878 -7.13063e-05 -1.54736e-06
-7.13063e-05 8.23969e-05 1.77268e-06
-1.54736e-06 1.77268e-06 7.49275e-06
0.00064545 -2.78624e-05 -4.15289e-07
-2.78624e-05 4.02226e-05 1.89752e-07
-4.15289e-07 1.89752e-07 -4.61646e-05
0.000766369 7.39388e-05 2.32191e-07
7.39388e-05 0.000125298 3.59181e-07
2.32191e-07 3.59181e-07 1.9774e-05
0.000838459 0.000117987 1.40868e-06
0.000117987 0.000158288 1.01255e-06
1.40868e-06 1.01255e-06 5.3495e-05
0.000775516 -7.75901e-06 1.691e-06
-7.75901e-06 0.000121798 -2.19389e-06
1.691e-06 -2.19389e-06 2.72586e-05
0.000635495 -2.8021e-05 -6.67144e-07
-2.8021e-05 3.99325e-05 6.63373e-07
-6.67144e-07 6.63373e-07 -4.99706e-05
0.00212032 -0.000150467 4.59795e-06
-0.000150467 0.000134639 9.75005e-07
4.59795e-06 9.75005e-07 0.00013665
0.0018149 -0.000222116 4.85558e-06
-0.000222116 -9.22305e-05 -1.67273e-06
4.85558e-06 -1.67273e-06 -9.33673e-05
0.00164437 -0.000383619 1.61417e-06
-0.000383619 -6.77992e-05 2.41906e-06
1.61417e-06 2.41906e-06 -0.000180042
0.00115464 -0.000297856 6.10662e-06
-0.000297856 0.000217872 3.93663e-06
6.10662e-06 3.93663e-06 -9.92305e-06
0.00195108 -0.000443107 5.16403e-06
-0.000443107 0.000363434 -2.93065e-07
5.16403e-06 -2.93065e-07 0.000151781
0.00125278 -0.00030872 -8.16273e-08
-0.00030872 0.000469738 -6.97939e-07
-8.16273e-08 -6.97939e-07 0.000178563
0.00166015 -0.000199434 -1.12975e-06
-0.000199434 0.000668058 -7.93143e-07
-1.12975e-06 -7.93143e-07 0.000437696
0.000736476 -0.000101449 1.15732e-07
-0.000101449 8.54874e-05 6.09315e-07
1.15732e-07 6.09315e-07 -5.07467e-05
0.0007585 -2.31418e-05 -4.07984e-07
-2.31418e-05 0.000113155 2.20762e-06
-4.07984e-07 2.20762e-06 1.24327e-05
0.00093266 -1.86914e-05 -1.15865e-06
-1.86914e-05 0.000208241 -3.65979e-06
-1.15865e-06 -3.65979e-06 9.45409e-05
0.000961912 -1.61618e-05 8.9473e-07
-1.61618e-05 0.000232035 1.11015e-06
8.9473e-07 1.11015e-06 0.000137276
0.000730142 0.000121645 2.31442e-06
0.000121645 0.000106698 3.45287e-06
2.31442e-06 3.45287e-06 2.9877e-06
0.00176861 -0.000167544 -5.60075e-07
-0.000167544 -8.40988e-05 9.24355e-08
-5.60075e-07 9.24355e-08 -5.16323e-05
0.000720938 2.61277e-05 -1.23758e-06
2.61277e-05 0.000103167 2.36607e-07
-1.23758e-06 2.36607e-07 -1.34221e-05
0.000817649 -6.74484e-05 -1.15302e-06
-6.74484e-05 0.000151322 3.68867e-07
-1.15302e-06 3.68867e-07 3.38495e-05
0.0017603 -0.000326703 9.99988e-07
-0.000326703 -0.000103411 -1.40826e-06
9.99988e-07 -1.40826e-06 -9.81042e-05
0.00143383 -0.000431679 2.98577e-07
-0.000431679 -6.98006e-05 2.50838e-06
2.98577e-07 2.50838e-06 -0.000227953
0.00160486 -0.000394755 1.19831e-06
-0.000394755 0.000375647 -1.31787e-06
1.19831e-06 -1.31787e-06 0.000148173
0.000882142 -0.000104246 3.78917e-07
-0.000104246 0.000228497 -2.70529e-06
3.78917e-07 -2.70529e-06 6.82907e-05
0.000955119 -0.000138137 -2.53289e-07
-0.000138137 0.000391428 1.38802e-07
-2.53289e-07 1.38802e-07 6.57611e-05
0.00288182 -0.000255632 -2.27399e-05
-0.000255632 0.00057291 4.1334e-06
-2.27399e-05 4.1334e-06 0.000541547
0.00285119 -0.000465354 -2.86221e-05
-0.000465354 0.000552913 3.83131e-06
-2.86221e-05 3.83131e-06 0.000565035
0.000993428 -0.000440725 -7.87985e-06
-0.000440725 -0.000187113 2.47349e-06
-7.87985e-06 2.47349e-06 -0.00034904
0.00047755 -0.000274112 -3.32187e-06
-0.000274112 -0.000105031 1.81359e-05
-3.32187e-06 1.81359e-05 -0.000343777
0.000662995 -0.000114595 1.76719e-06
-0.000114595 6.71961e-05 -8.35986e-07
1.76719e-06 -8.35986e-07 -6.01233e-05
0.000556969 -7.73912e-05 2.511e-06
-7.73912e-05 2.88092e-05 -4.23569e-06
2.511e-06 -4.23569e-06 -0.000108384
0.00104343 -4.65165e-05 8.70631e-07
-4.65165e-05 0.000425606 -5.39513e-06
8.70631e-07 -5.39513e-06 0.000150269
-0.00441362 -4.27389e-05 0.000227515
-4.27389e-05 -0.00266383 1.67065e-06
0.000227515 1.67065e-06 -0.00202803
0.00950717 -0.000116318 -1.3189e-05
-0.000116318 0.00291297 5.46523e-07
-1.3189e-05 5.46523e-07 0.00223967
0.00130926 0.000106574 3.41158e-06
0.000106574 0.000446964 -1.13412e-06
3.41158e-06 -1.13412e-06 0.000312826
0.000794465 0.000193932 3.22195e-06
0.000193932 0.000106805 -1.98365e-06
3.22195e-06 -1.98365e-06 -6.95363e-05
0.00214637 0.000265346 2.77455e-05
0.000265346 0.000236318 1.74291e-05
2.77455e-05 1.74291e-05 0.00026322
0.00236516 0.000506376 7.87966e-06
0.000506376 0.00040942 7.78545e-06
7.87966e-06 7.78545e-06 0.000224068
0.00159549 0.000346751 6.91564e-06
0.000346751 0.00037763 1.51235e-06
6.91564e-06 1.51235e-06 0.000117773
0.00892918 0.000417957 4.70911e-05
0.000417957 0.00220631 6.60764e-06
4.70911e-05 6.60764e-06 0.00112394
0.00704592 0.00072272 -0.000131912
0.00072272 0.00119291 -2.99288e-05
-0.000131912 -2.99288e-05 0.000665223
-0.000940437 0.000186671 -5.93851e-07
0.000186671 -0.00103531 -1.84334e-05
-5.93851e-07 -1.84334e-05 -0.00126379
0.00623397 -0.0010462 -4.33107e-05
-0.0010462 0.00309272 2.79458e-05
-4.33107e-05 2.79458e-05 0.00265527
-0.00722231 -0.00158966 -0.000375489
-0.00158966 -0.00368367 -0.000292629
-0.000375489 -0.000292629 -0.00184457
0.000947423 0.000152734 -1.18813e-07
0.000152734 0.000246364 -1.78594e-06
-1.18813e-07 -1.78594e-06 0.000116537
-0.00241111 -0.000457288 8.74683e-05
-0.000457288 -0.0018077 9.18066e-06
8.74683e-05 9.18066e-06 -0.0019473
-0.00194377 -0.000421371 -0.000100049
-0.000421371 0.000759582 -4.83079e-05
-0.000100049 -4.83079e-05 -0.00053326
0.00261216 0.000388833 -5.42563e-06
0.000388833 0.000530249 -1.16214e-06
-5.42563e-06 -1.16214e-06 0.000565473
0.000873338 0.000174566 -1.94078e-06
0.000174566 0.0001637 7.29606e-07
-1.94078e-06 7.29606e-07 -3.33023e-05
0.000839537 0.000364368 3.99193e-06
0.000364368 -5.01585e-05 1.79889e-06
3.99193e-06 1.79889e-06 -0.000314897
0.000949487 0.000306628 1.22116e-05
0.000306628 -6.5791e-05 1.12318e-05
1.22116e-05 1.12318e-05 -8.17019e-05
0.00765068 0.000326516 -3.74457e-05
0.000326516 0.00152722 -2.21475e-05
-3.74457e-05 -2.21475e-05 -0.000142674
0.00639482 0.00105291 -4.67806e-05
0.00105291 0.00168512 -1.8627e-05
-4.67806e-05 -1.8627e-05 0.000894895
0.00829133 -0.0012569 8.39385e-05
-0.0012569 0.00392321 -3.89718e-05
8.39385e-05 -3.89718e-05 0.00393895
0.00284398 -0.000945225 0.00010301
-0.000945225 -0.00179223 0.000215261
0.00010301 0.000215261 -0.000355949
0.00146695 0.00013535 -1.24601e-05
0.00013535 0.00055951 -7.08994e-06
-1.24601e-05 -7.08994e-06 0.000447395
-0.00440885 0.000112382 -7.28717e-05
0.000112382 0.000418583 -4.44241e-05
-7.28717e-05 -4.44241e-05 -0.00148036
0.00253436 0.000170816 -0.000112896
0.000170816 0.00102696 -0.000165194
-0.000112896 -0.000165194 -0.00085103
0.000521782 0.000318933 -1.45465e-05
0.000318933 -0.000275742 2.71909e-06
-1.45465e-05 2.71909e-06 -0.000285163
0.00134699 0.0003728 -3.96189e-05
0.0003728 0.000492721 -1.23405e-05
-3.96189e-05 -1.23405e-05 0.000262462
0.00250563 0.000297512 -6.92285e-05
0.000297512 0.00115818 -6.11502e-06
-6.92285e-05 -6.11502e-06 0.000848154
0.00325659 0.000849694 -5.39927e-05
0.000849694 0.000428148 -1.47418e-05
-5.39927e-05 -1.47418e-05 7.43067e-05
0.000667563 0.00045939 0.000121328
0.00045939 -0.000226295 9.15036e-05
0.000121328 9.15036e-05 -0.0026234
0.00889588 -0.0013421 2.51212e-05
-0.0013421 0.00280748 0.000182093
2.51212e-05 0.000182093 0.00252665
0.0032264 -0.000587272 -1.49554e-05
-0.000587272 -0.00207742 -2.1452e-05
-1.49554e-05 -2.1452e-05 -0.000731379
0.000907721 8.03195e-05 2.46243e-06
8.03195e-05 0.000199576 3.47455e-06
2.46243e-06 3.47455e-06 9.72205e-05
0.00117143 0.000106995 4.38194e-06
0.000106995 0.000344437 2.61835e-06
4.38194e-06 2.61835e-06 0.00026076
0.000366995 6.57469e-05 2.77346e-07
6.57469e-05 -9.10321e-05 -4.63647e-06
2.77346e-07 -4.63647e-06 -0.000167673
0.000524382 4.40418e-05 1.03065e-06
4.40418e-05 -4.26761e-05 -1.32246e-07
1.03065e-06 -1.32246e-07 -0.00012579
0.000761206 4.35571e-05 -6.49243e-07
4.35571e-05 0.000109388 -1.2685e-06
-6.49243e-07 -1.2685e-06 1.02858e-06
0.000795961 -6.03401e-06 -3.97912e-07
-6.03401e-06 0.000108394 5.78148e-07
-3.97912e-07 5.78148e-07 8.41882e-06
0.000795574 -2.79311e-06 1.02889e-06
-2.79311e-06 0.000111289 -2.7524e-07
1.02889e-06 -2.7524e-07 1.06417e-05
0.000581485 2.49565e-05 -5.43226e-08
2.49565e-05 -1.63029e-05 2.4141e-06
-5.43226e-08 2.4141e-06 -0.00010446
0.000804776 3.96627e-05 3.9947e-08
3.96627e-05 0.000132999 -7.1285e-07
3.9947e-08 -7.1285e-07 2.303e-05
0.000891373 2.88642e-05 -9.36281e-08
2.88642e-05 0.00015701 2.70925e-07
-9.36281e-08 2.70925e-07 6.33031e-05
0.000817839 -3.24478e-05 -2.07471e-07
-3.24478e-05 0.000122448 4.77971e-07
-2.07471e-07 4.77971e-07 1.49349e-05
0.000273343 3.34571e-05 2.16135e-07
3.34571e-05 -0.000165142 1.62758e-07
2.16135e-07 1.62758e-07 -0.000258265
-7.97779e-05 1.86441e-05 -2.28291e-06
1.86441e-05 -0.000270557 -3.41167e-06
-2.28291e-06 -3.41167e-06 -0.000359597
0.000937001 -4.32512e-06 -2.1746e-06
-4.32512e-06 0.000192597 -2.18472e-06
-2.1746e-06 -2.18472e-06 8.94489e-05
0.000950161 4.05523e-06 -2.24492e-07
4.05523e-06 0.000216287 -1.3427e-06
-2.24492e-07 -1.3427e-06 9.22565e-05
0.000823165 -4.93447e-05 -2.39958e-08
-4.93447e-05 0.000145872 -6.26504e-07
-2.39958e-08 -6.26504e-07 3.69657e-05
0.000880919 -1.20478e-05 -4.71446e-07
-1.20478e-05 0.000156905 8.98581e-07
-4.71446e-07 8.98581e-07 6.37016e-05
0.000838612 -3.71931e-05 3.83872e-07
-3.71931e-05 0.000144783 -4.42936e-07
3.83872e-07 -4.42936e-07 3.54548e-05
0.000776969 2.70322e-05 -2.4838e-07
2.70322e-05 0.000109044 -1.08031e-07
-2.4838e-07 -1.08031e-07 1.27759e-05
0.000602812 -2.8498e-05 -9.56708e-08
-2.8498e-05 -7.65231e-06 6.01584e-07
-9.56708e-08 6.01584e-07 -9.36655e-05
0.000668036 3.34683e-05 8.32117e-07
3.34683e-05 5.01203e-05 6.03508e-07
8.32117e-07 6.03508e-07 -4.42917e-05
0.000526455 -3.41811e-06 -4.66482e-07
-3.41811e-06 -3.23774e-05 -3.09908e-06
-4.66482e-07 -3.09908e-06 -0.000134134
0.000569625 -1.80222e-05 1.45875e-06
-1.80222e-05 -1.93585e-05 -9.5045e-07
1.45875e-06 -9.5045e-07 -0.000104323
0.000833381 -4.03172e-06 2.91677e-06
-4.03172e-06 0.000117608 -3.86882e-06
2.91677e-06 -3.86882e-06 2.29582e-05
0.000196347 -3.80194e-05 8.35883e-07
-3.80194e-05 -0.000199074 3.00818e-07
8.35883e-07 3.00818e-07 -0.000339379
0.000339761 2.47585e-05 -4.59931e-07
2.47585e-05 -0.000121671 -7.04633e-07
-4.59931e-07 -7.04633e-07 -0.000224995
0.000732854 1.96259e-05 3.39694e-07
1.96259e-05 8.89349e-05 3.73381e-07
3.39694e-07 3.73381e-07 -8.43648e-06
0.000673489 9.82733e-06 -7.93249e-08
9.82733e-06 4.77337e-05 4.72118e-07
-7.93249e-08 4.72118e-07 -3.72871e-05
0.00073645 -1.00307e-05 -5.23864e-08
-1.00307e-05 9.17845e-05 -1.23297e-08
-5.23864e-08 -1.23297e-08 1.69918e-07
0.000642745 1.04135e-05 -6.0678e-07
1.04135e-05 2.1919e-05 7.74777e-07
-6.0678e-07 7.74777e-07 -4.97351e-05
0.00077426 -7.26623e-06 2.57779e-07
-7.26623e-06 0.000112653 -2.09795e-08
2.57779e-07 -2.09795e-08 1.87322e-05
0.00070662 -3.07059e-05 -2.93509e-07
-3.07059e-05 5.85882e-05 5.0054e-08
-2.93509e-07 5.0054e-08 -1.54241e-05
0.000627142 4.00281e-05 -6.8855e-07
4.00281e-05 -5.82796e-06 2.05373e-06
-6.8855e-07 2.05373e-06 -5.44985e-05
0.000603422 -5.26583e-05 1.23535e-06
-5.26583e-05 -4.85851e-06 -7.88519e-07
1.23535e-06 -7.88519e-07 -8.13463e-05
0.000648544 1.19762e-05 -2.17947e-07
1.19762e-05 6.4029e-06 -3.01975e-08
-2.17947e-07 -3.01975e-08 -4.10877e-05
0.0013697 2.55963e-05 -4.75203e-06
2.55963e-05 0.00040993 5.22913e-06
-4.75203e-06 5.22913e-06 0.000399718
0.000641001 -8.09335e-06 6.82674e-07
-8.09335e-06 5.7862e-06 -1.8221e-06
6.82674e-07 -1.8221e-06 -4.21251e-05
0.000982736 1.56933e-05 -2.47393e-06
1.56933e-05 0.000182716 7.51529e-07
-2.47393e-06 7.51529e-07 0.00017112
0.000800947 1.43797e-05 -3.52706e-07
1.43797e-05 7.69184e-05 1.94858e-06
-3.52706e-07 1.94858e-06 8.58462e-05
0.000601408 6.83461e-06 4.02523e-07
6.83461e-06 -4.11831e-05 -3.66075e-06
4.02523e-07 -3.66075e-06 -5.43661e-05
0.00231865 1.25923e-05 3.5232e-06
1.25923e-05 0.000961869 3.86038e-08
3.5232e-06 3.86038e-08 0.000978615
0.00231551 1.78841e-06 -2.99289e-07
1.78841e-06 0.00095941 -5.13106e-06
-2.99289e-07 -5.13106e-06 0.000976366
0.00100613 7.03021e-05 -1.29426e-06
7.03021e-05 0.000242613 -1.46456e-06
-1.29426e-06 -1.46456e-06 0.000170085
0.000659175 2.33184e-05 -8.66704e-07
2.33184e-05 1.50129e-05 -2.2214e-06
-8.66704e-07 -2.2214e-06 -2.33598e-05
0.000681968 -4.18841e-06 7.00048e-07
-4.18841e-06 5.95127e-05 8.33e-07
7.00048e-07 8.33e-07 -1.48818e-05
0.000632365 2.11143e-06 -4.07028e-09
2.11143e-06 -2.67899e-05 -3.51549e-06
-4.07028e-09 -3.51549e-06 -3.285e-05
0.000649361 -5.55366e-06 2.32871e-07
-5.55366e-06 8.18552e-06 -3.25893e-08
2.32871e-07 -3.25893e-08 -2.83318e-05
0.000653824 -2.00048e-05 -1.28814e-06
-2.00048e-05 9.48133e-06 1.80764e-06
-1.28814e-06 1.80764e-06 -2.72779e-05
0.000621427 7.83335e-06 -1.80136e-07
7.83335e-06 -3.24042e-05 -1.96017e-08
-1.80136e-07 -1.96017e-08 -3.85576e-05
0.00205098 1.20171e-05 3.63229e-06
1.20171e-05 0.000806195 -4.70103e-06
3.63229e-06 -4.70103e-06 0.000825747
0.00121061 1.98062e-05 -6.93854e-07
1.98062e-05 0.000312843 2.08661e-06
-6.93854e-07 2.08661e-06 0.000309364
0.00143644 2.0565e-05 1.47139e-06
2.0565e-05 0.000449371 6.23669e-08
1.47139e-06 6.23669e-08 0.000464797
0.000874502 2.43263e-05 -1.3789e-05
2.43263e-05 0.000125744 7.1819e-06
-1.3789e-05 7.1819e-06 0.000136523
-0.00737641 0.000246141 0.000163446
0.000246141 -0.00336905 6.56018e-07
0.000163446 6.56018e-07 -0.00396736
-0.00205688 0.000126055 0.000170566
0.000126055 0.000980711 1.48338e-05
0.000170566 1.48338e-05 -8.88779e-05
0.00370054 0.000192162 -0.000185955
0.000192162 0.000285655 -3.58912e-07
-0.000185955 -3.58912e-07 0.000250671
0.00045602 3.24389e-05 3.33134e-05
3.24389e-05 -0.000820482 -5.01505e-06
3.33134e-05 -5.01505e-06 -0.000832216
0.00135685 -2.02805e-05 1.78489e-05
-2.02805e-05 -0.000272386 -3.02381e-07
1.78489e-05 -3.02381e-07 -0.000286631
0.000651082 4.46431e-05 9.10651e-06
4.46431e-05 -0.000687384 -4.26772e-06
9.10651e-06 -4.26772e-06 -0.000726538
0.00240449 -8.21946e-05 1.16307e-06
-8.21946e-05 0.000222128 2.93322e-06
1.16307e-06 2.93322e-06 0.000190269
0.00799047 0.000140538 2.99862e-05
0.000140538 0.00158287 -2.77376e-05
2.99862e-05 -2.77376e-05 0.000598841
-0.00348308 0.000717452 -3.33955e-05
0.000717452 -0.0010722 -6.38957e-06
-3.33955e-05 -6.38957e-06 -0.00185235
-0.00182579 0.0014177 -7.75749e-05
0.0014177 -0.000634239 3.52088e-05
-7.75749e-05 3.52088e-05 0.000785462
0.00113595 -0.00017252 5.13572e-05
-0.00017252 -0.000740777 9.46671e-06
5.13572e-05 9.46671e-06 -0.000975553
0.0104808 -8.25796e-05 6.17835e-05
-8.25796e-05 0.00317619 -2.87443e-05
6.17835e-05 -2.87443e-05 0.00180202
0.00140248 0.00134268 0.000110933
0.00134268 -0.000325434 -0.000184442
0.000110933 -0.000184442 0.000271677
0.00509467 0.00102376 -0.00012094
0.00102376 0.000225958 8.74775e-05
-0.00012094 8.74775e-05 0.000794978
0.000728731 6.88579e-05 -8.68633e-07
6.88579e-05 0.00010988 -6.50712e-07
-8.68633e-07 -6.50712e-07 -7.25275e-06
0.00058017 1.18636e-05 -2.86755e-07
1.18636e-05 3.40734e-06 -6.88747e-07
-2.86755e-07 -6.88747e-07 -8.14301e-05
0.000704495 -7.89717e-05 -1.19958e-06
-7.89717e-05 7.36036e-05 1.45492e-06
-1.19958e-06 1.45492e-06 -3.0215e-07
0.000587531 7.76655e-07 -5.19774e-08
7.76655e-07 1.16478e-05 1.07154e-06
-5.19774e-08 1.07154e-06 -7.887e-05
0.000734254 6.73087e-05 9.25431e-07
6.73087e-05 0.000110641 1.46242e-06
9.25431e-07 1.46242e-06 4.52581e-06
0.000863374 7.20205e-05 -7.41057e-09
7.20205e-05 0.000179537 -4.86752e-07
-7.41057e-09 -4.86752e-07 6.36468e-05
0.000781298 8.37812e-05 1.64449e-06
8.37812e-05 0.000129973 1.65065e-06
1.64449e-06 1.65065e-06 2.28524e-05
0.000706579 4.29231e-06 1.50962e-06
4.29231e-06 7.46389e-05 -9.63575e-07
1.50962e-06 -9.63575e-07 -2.57137e-05
0.000676289 -1.6647e-05 5.4122e-07
-1.6647e-05 6.72865e-05 -9.68726e-07
5.4122e-07 -9.68726e-07 -3.07483e-05
0.000559742 -8.97692e-06 -5.53643e-07
-8.97692e-06 -1.12158e-05 1.25535e-06
-5.53643e-07 1.25535e-06 -9.61948e-05
0.00149502 -0.000159315 1.41998e-05
-0.000159315 -0.000196752 -9.21142e-07
1.41998e-05 -9.21142e-07 -0.000166758
0.00173269 -0.000332687 1.72081e-05
-0.000332687 -0.000100337 -3.28031e-06
1.72081e-05 -3.28031e-06 -0.0001151
-8.50492e-05 -0.000316133 1.34159e-05
-0.000316133 -0.000855437 2.19732e-06
1.34159e-05 2.19732e-06 -0.000984561
0.00130351 -0.000374041 1.97119e-06
-0.000374041 0.000223042 -1.21784e-06
1.97119e-06 -1.21784e-06 -1.205e-05
0.00151439 -0.000168927 -3.31573e-07
-0.000168927 0.000671133 6.32435e-06
-3.31573e-07 6.32435e-06 0.000371849
0.00108918 -0.000141015 -4.13861e-07
-0.000141015 0.000349949 1.09744e-06
-4.13861e-07 1.09744e-06 0.00017097
0.000923428 -6.16e-05 -1.19208e-06
-6.16e-05 0.000201613 5.42132e-07
-1.19208e-06 5.42132e-07 9.36442e-05
0.000714964 3.58084e-05 -1.66446e-06
3.58084e-05 0.000100518 2.35898e-06
-1.66446e-06 2.35898e-06 -1.33045e-05
0.00169968 -0.000201961 -3.58637e-07
-0.000201961 -3.43622e-05 -9.73559e-07
-3.58637e-07 -9.73559e-07 -3.99719e-05
0.000638839 -4.77703e-05 -2.42058e-07
-4.77703e-05 5.62027e-05 -1.05196e-07
-2.42058e-07 -1.05196e-07 -7.27404e-05
0.000523371 -6.59533e-05 8.27186e-07
-6.59533e-05 1.28815e-05 -1.31693e-06
8.27186e-07 -1.31693e-06 -0.000127818
0.00206329 -0.00041922 4.57165e-06
-0.00041922 0.000160124 -6.49405e-07
4.57165e-06 -6.49405e-07 0.000162019
0.000818293 -0.000422331 1.15998e-06
-0.000422331 -0.000257899 3.08012e-06
1.15998e-06 3.08012e-06 -0.000408163
0.000916338 -0.000328916 8.26618e-06
-0.000328916 0.000129594 -2.57178e-06
8.26618e-06 -2.57178e-06 -0.000128525
0.00137062 -9.41364e-05 -4.63587e-07
-9.41364e-05 0.000584296 -3.2685e-06
-4.63587e-07 -3.2685e-06 0.000323723
0.00085378 -0.000265436 -1.61132e-05
-0.000265436 -0.000155606 -7.64738e-07
-1.61132e-05 -7.64738e-07 -0.000393112
0.00131781 -0.000340109 -2.74786e-05
-0.000340109 7.55316e-05 1.07226e-05
-2.74786e-05 1.07226e-05 3.37849e-05
-0.000281951 -0.00017847 -1.72965e-05
-0.00017847 -0.000342761 3.68987e-05
-1.72965e-05 3.68987e-05 -0.000624353
0.000534341 3.29379e-05 6.81686e-07
3.29379e-05 -4.20629e-06 9.97138e-07
6.81686e-07 9.97138e-07 -0.00013053
0.000516236 -0.00010071 2.70314e-06
-0.00010071 7.59512e-07 -1.84274e-06
2.70314e-06 -1.84274e-06 -0.000139836
0.000741141 -6.59988e-05 2.57127e-06
-6.59988e-05 0.000181953 -7.06027e-06
2.57127e-06 -7.06027e-06 -1.20283e-05
0.000586629 0.000126258 -0.000119914
0.000126258 0.00282328 1.70082e-06
-0.000119914 1.70082e-06 0.00163121
0.00204544 -0.000272332 1.83334e-05
-0.000272332 0.00146994 1.62846e-05
1.83334e-05 1.62846e-05 0.0013402
0.000264965 0.000533683 -6.08447e-05
0.000533683 -0.00272681 2.03079e-05
-6.08447e-05 2.03079e-05 -0.00333256
0.000774795 0.00014048 4.69727e-06
0.00014048 0.000159545 1.35365e-06
4.69727e-06 1.35365e-06 3.17681e-05
0.000592197 0.000193003 5.3127e-06
0.000193003 3.56291e-05 4.85203e-06
5.3127e-06 4.85203e-06 -0.000172252
0.00227913 0.000344522 1.5668e-05
0.000344522 0.000329065 1.12767e-05
1.5668e-05 1.12767e-05 0.000380491
0.00156916 0.00036439 1.38821e-05
0.00036439 0.000349812 1.17176e-05
1.38821e-05 1.17176e-05 8.66751e-05
0.00592646 -0.000555661 4.63083e-05
-0.000555661 0.00233151 3.01397e-05
4.63083e-05 3.01397e-05 0.00246422
0.0013084 -5.80465e-05 -0.000106142
-5.80465e-05 -0.00157411 -8.57187e-06
-0.000106142 -8.57187e-06 -0.00309337
0.00293632 0.000934076 -8.76882e-05
0.000934076 -0.000326915 -2.26249e-05
-8.76882e-05 -2.26249e-05 -0.00110366
0.000469944 0.000185705 2.48445e-05
0.000185705 -0.000179816 -1.96673e-05
2.48445e-05 -1.96673e-05 -0.000162161
-0.00381789 -0.000631825 -5.97754e-05
-0.000631825 -0.00127954 -8.34618e-05
-5.97754e-05 -8.34618e-05 -0.00154681
-0.000249793 -0.000603003 -4.52733e-05
-0.000603003 0.000896179 1.05894e-05
-4.52733e-05 1.05894e-05 -0.000434266
0.00745038 -0.00126002 0.000144278
-0.00126002 0.000618913 0.000119043
0.000144278 0.000119043 0.00212041
0.00068473 0.000102725 4.97635e-06
0.000102725 0.000135788 -2.6203e-06
4.97635e-06 -2.6203e-06 1.67152e-05
-0.00131892 -2.62394e-05 -6.21627e-05
-2.62394e-05 0.00144351 -1.90478e-05
-6.21627e-05 -1.90478e-05 -0.000123322
0.00292919 0.000194814 -1.03484e-05
0.000194814 0.00120503 -4.82747e-05
-1.03484e-05 -4.82747e-05 -0.000740221
0.00108525 0.000312229 -7.82451e-06
0.000312229 6.61544e-05 3.79768e-06
-7.82451e-06 3.79768e-06 9.76146e-06
0.000576037 0.000226177 1.47896e-07
0.000226177 0.000103736 1.83614e-06
1.47896e-07 1.83614e-06 -0.000125199
-6.73502e-05 0.000217661 3.35398e-05
0.000217661 -0.000251599 -3.06355e-05
3.35398e-05 -3.06355e-05 -0.000475344
0.00536981 0.00114968 -8.26838e-06
0.00114968 0.00167853 2.41526e-06
-8.26838e-06 2.41526e-06 0.000955385
0.0100134 0.000401726 4.83064e-05
0.000401726 0.00360942 1.79524e-05
4.83064e-05 1.79524e-05 0.00180502
0.00250032 -0.000847834 1.21643e-05
-0.000847834 -0.00091707 -2.55764e-05
1.21643e-05 -2.55764e-05 -0.0010091
0.00785368 -0.000822852 7.63009e-06
-0.000822852 0.000942646 -2.46153e-05
7.63009e-06 -2.46153e-05 0.00220853
0.000857208 0.00016653 -1.12076e-05
0.00016653 0.00027305 -8.00774e-06
-1.12076e-05 -8.00774e-06 0.00016415
0.00235809 8.26222e-06 -8.31947e-05
8.26222e-06 0.000748287 -3.57666e-05
-8.31947e-05 -3.57666e-05 -0.000535909
0.000473148 7.02614e-05 -1.45503e-05
7.02614e-05 0.000286974 -7.65147e-05
-1.45503e-05 -7.65147e-05 -0.00105853
-0.000916633 3.99221e-05 -1.78903e-05
3.99221e-05 -0.000454161 -1.64934e-05
-1.78903e-05 -1.64934e-05 -0.000600932
0.00210244 0.00036459 -2.24949e-05
0.00036459 0.00071703 4.57753e-05
-2.24949e-05 4.57753e-05 7.25375e-05
0.00945379 0.000683405 3.06215e-05
0.000683405 0.00393029 -2.1418e-06
3.06215e-05 -2.1418e-06 0.00128474
-0.00693947 -0.00124825 -3.87728e-05
-0.00124825 -0.00405829 8.78474e-05
-3.87728e-05 8.78474e-05 -0.00567352
0.00581902 0.000291707 3.74186e-06
0.000291707 -0.000818649 -0.000121444
3.74186e-06 -0.000121444 0.000615153
0.00103277 9.20991e-05 1.90096e-06
9.20991e-05 0.00025444 6.61337e-06
1.90096e-06 6.61337e-06 0.000174516
0.000918766 0.00010678 -3.85771e-06
0.00010678 0.000230017 -8.90725e-07
-3.85771e-06 -8.90725e-07 0.000149223
0.000910525 8.66921e-05 -6.0753e-06
8.66921e-05 0.000340775 -4.18119e-07
-6.0753e-06 -4.18119e-07 0.000244382
0.000816071 7.69075e-05 -1.95291e-06
7.69075e-05 0.000130246 -7.30137e-07
-1.95291e-06 -7.30137e-07 2.6349e-05
0.00086681 -3.40871e-05 -5.31072e-07
-3.40871e-05 0.000159699 3.99849e-07
-5.31072e-07 3.99849e-07 4.59595e-05
0.000715551 3.34981e-05 2.77792e-07
3.34981e-05 5.61324e-05 1.09318e-06
2.77792e-07 1.09318e-06 -3.87582e-05
0.000260061 2.6242e-05 1.02948e-06
2.6242e-05 -0.000162469 2.0422e-06
1.02948e-06 2.0422e-06 -0.000254792
0.000856033 -1.27903e-06 8.81386e-07
-1.27903e-06 0.000147088 1.17936e-07
8.81386e-07 1.17936e-07 3.41445e-05
0.00088548 1.3727e-05 2.30936e-08
1.3727e-05 0.00016755 -5.8741e-07
2.30936e-08 -5.8741e-07 6.30718e-05
0.000363667 1.91022e-06 -7.52174e-07
1.91022e-06 -5.37261e-06 2.185e-06
-7.52174e-07 2.185e-06 -0.000102494
0.000440138 1.11186e-05 -5.74291e-06
1.11186e-05 0.000180738 -2.31544e-06
-5.74291e-06 -2.31544e-06 7.44358e-05
0.000898211 -1.66721e-05 -1.15156e-06
-1.66721e-05 0.000267961 -7.07593e-06
-1.15156e-06 -7.07593e-06 0.0001678
0.000991768 4.01612e-05 -7.41256e-07
4.01612e-05 0.00023599 -3.05238e-06
-7.41256e-07 -3.05238e-06 0.000121405
0.000859141 -8.44223e-05 1.17638e-06
-8.44223e-05 0.000146396 8.62213e-07
1.17638e-06 8.62213e-07 4.32479e-05
0.000774995 2.93e-05 -5.61333e-07
2.93e-05 0.000105312 -7.17044e-08
-5.61333e-07 -7.17044e-08 1.02787e-05
0.000741918 -3.56792e-05 -1.89808e-06
-3.56792e-05 7.29019e-05 2.20487e-06
-1.89808e-06 2.20487e-06 -1.29193e-05
0.000602695 -1.51198e-05 9.56026e-07
-1.51198e-05 2.67364e-06 7.97382e-07
9.56026e-07 7.97382e-07 -9.31113e-05
0.000737537 3.00639e-05 3.1519e-07
3.00639e-05 9.10314e-05 2.13095e-07
3.1519e-07 2.13095e-07 -4.80386e-06
0.000705583 -9.22055e-08 -6.99325e-07
-9.22055e-08 5.78202e-05 1.24772e-07
-6.99325e-07 1.24772e-07 -2.71323e-05
0.000933004 7.50466e-06 2.88942e-07
7.50466e-06 0.00018371 -1.94488e-06
2.88942e-07 -1.94488e-06 9.40847e-05
0.000309616 -2.24578e-05 2.81971e-06
-2.24578e-05 -0.000139258 -3.77263e-06
2.81971e-06 -3.77263e-06 -0.00021393
0.000499756 -8.69905e-05 1.31277e-06
-8.69905e-05 -0.000112676 -9.25134e-07
1.31277e-06 -9.25134e-07 -0.000207067
0.000908573 -2.80134e-05 -1.79972e-06
-2.80134e-05 0.000166451 -3.123e-07
-1.79972e-06 -3.123e-07 6.75991e-05
0.000438051 -6.69882e-05 3.29936e-06
-6.69882e-05 -7.20218e-05 1.56399e-06
3.29936e-06 1.56399e-06 -0.000202068
0.00103023 -0.000197507 3.47331e-07
-0.000197507 0.000232547 5.70018e-06
3.47331e-07 5.70018e-06 3.51106e-05
0.00124255 -8.31808e-05 1.52528e-06
-8.31808e-05 0.00039632 -1.50963e-06
1.52528e-06 -1.50963e-06 0.000274631
0.000342791 -5.68468e-05 -1.69597e-06
-5.68468e-05 -0.000102765 -3.46087e-06
-1.69597e-06 -3.46087e-06 -0.000241445
0.000649095 1.40211e-05 -3.5846e-07
1.40211e-05 4.85134e-05 -4.06726e-07
-3.5846e-07 -4.06726e-07 -5.29258e-05
0.000401838 1.35414e-05 4.94871e-07
1.35414e-05 -9.86214e-05 2.83015e-07
4.94871e-07 2.83015e-07 -0.000190909
0.00083264 8.32581e-06 -1.47121e-07
8.32581e-06 0.000145398 5.46579e-07
-1.47121e-07 5.46579e-07 4.68369e-05
0.000755225 -1.78558e-05 -5.79704e-07
-1.78558e-05 0.000101862 4.96116e-07
-5.79704e-07 4.96116e-07 1.01718e-05
0.000662602 5.1466e-08 -7.05819e-07
5.1466e-08 3.10486e-05 8.39159e-07
-7.05819e-07 8.39159e-07 -3.94018e-05
0.000819545 -3.72994e-05 3.47255e-07
-3.72994e-05 0.000149491 -3.44362e-07
3.47255e-07 -3.44362e-07 4.96697e-05
0.000706706 -3.45937e-05 -4.79489e-07
-3.45937e-05 6.02154e-05 1.64878e-08
-4.79489e-07 1.64878e-08 -1.32975e-05
0.000641589 3.30602e-05 -1.61524e-06
3.30602e-05 1.60229e-06 1.79435e-06
-1.61524e-06 1.79435e-06 -4.66618e-05
0.000741691 -6.37756e-05 1.46117e-06
-6.37756e-05 8.17731e-05 -9.31454e-07
1.46117e-06 -9.31454e-07 5.45387e-06
0.000675786 4.27019e-06 -2.79772e-07
4.27019e-06 1.88142e-05 1.1834e-08
-2.79772e-07 1.1834e-08 -2.78955e-05
0.00136034 3.48886e-05 -6.97898e-06
3.48886e-05 0.000406373 5.18364e-06
-6.97898e-06 5.18364e-06 0.000395715
0.000658762 -1.55547e-05 1.70675e-06
-1.55547e-05 1.22417e-05 -1.8748e-06
1.70675e-06 -1.8748e-06 -3.52798e-05
0.000984748 2.36221e-05 -3.35789e-06
2.36221e-05 0.000185081 7.09068e-07
-3.35789e-06 7.09068e-07 0.000173112
0.000804281 2.23719e-05 -7.57952e-07
2.23719e-05 8.2872e-05 1.9647e-06
-7.57952e-07 1.9647e-06 9.07828e-05
0.00059298 1.30944e-05 4.54481e-07
1.30944e-05 -4.54045e-05 -3.72077e-06
4.54481e-07 -3.72077e-06 -5.87785e-05
0.00155722 2.1473e-05 5.30693e-06
2.1473e-05 0.000518775 -1.46796e-06
5.30693e-06 -1.46796e-06 0.000531337
0.00231767 1.48613e-05 4.16945e-06
1.48613e-05 0.000961629 -5.03628e-06
4.16945e-06 -5.03628e-06 0.000978287
0.000755011 -2.38688e-06 8.54221e-07
-2.38688e-06 8.96677e-05 -1.61546e-06
8.54221e-07 -1.61546e-06 1.54465e-05
0.000683323 1.77386e-05 -4.85061e-07
1.77386e-05 2.72611e-05 -2.27039e-06
-4.85061e-07 -2.27039e-06 -1.26581e-05
0.00074574 -1.94861e-06 8.49443e-07
-1.94861e-06 9.03887e-05 1.79353e-07
8.49443e-07 1.79353e-07 1.7987e-05
0.000626818 -4.063e-06 5.13132e-09
-4.063e-06 -2.99905e-05 -3.64262e-06
5.13132e-09 -3.64262e-06 -3.6639e-05
0.000652405 1.5195e-05 5.03723e-08
1.5195e-05 1.04775e-05 -1.6527e-08
5.03723e-08 -1.6527e-08 -2.74272e-05
0.000675787 -7.38448e-05 -3.00039e-06
-7.38448e-05 5.07866e-05 2.12179e-06
-3.00039e-06 2.12179e-06 -1.9471e-05
0.00205309 2.23388e-07 -9.54575e-07
2.23388e-07 0.000806226 -4.76501e-06
-9.54575e-07 -4.76501e-06 0.000826066
0.00062493 2.01827e-06 -1.46926e-07
2.01827e-06 -3.09521e-05 -5.7074e-09
-1.46926e-07 -5.7074e-09 -3.69869e-05
0.000636191 -1.34455e-05 -1.10985e-06
-1.34455e-05 1.71616e-07 1.93839e-06
-1.10985e-06 1.93839e-06 -3.61379e-05
0.000612961 7.78299e-06 -2.90403e-07
7.78299e-06 -3.74e-05 3.46237e-06
-2.90403e-07 3.46237e-06 -4.35211e-05
0.00206283 1.32911e-05 -3.42385e-06
1.32911e-05 0.000813278 -3.95401e-08
-3.42385e-06 -3.95401e-08 0.000832747
0.00205787 2.4403e-05 -1.0415e-05
2.4403e-05 0.000812792 4.43937e-06
-1.0415e-05 4.43937e-06 0.000831684
-0.00317912 -0.000174287 -3.49887e-05
-0.000174287 0.000775362 1.29908e-05
-3.49887e-05 1.29908e-05 -0.00082225
-0.00108153 0.000376451 -4.85356e-05
0.000376451 -0.000503389 1.17325e-05
-4.85356e-05 1.17325e-05 -0.000890385
0.00317425 -0.00020927 -0.0001617
-0.00020927 0.000877341 0.000129802
-0.0001617 0.000129802 -0.00085464
-0.00274953 0.000163376 0.000230456
0.000163376 0.00106129 -0.000101712
0.000230456 -0.000101712 0.000104843
0.00140565 0.000176533 -7.13625e-05
0.000176533 -0.000536197 1.31011e-05
-7.13625e-05 1.31011e-05 -0.000696717
0.00222452 -0.000125863 9.29621e-05
-0.000125863 7.84605e-05 -1.00338e-05
9.29621e-05 -1.00338e-05 5.44034e-05
0.00174176 -0.000409497 -7.38447e-05
-0.000409497 -0.0013946 -4.97027e-05
-7.38447e-05 -4.97027e-05 -0.00250568
0.00830272 0.000768702 -5.94893e-05
0.000768702 0.00405955 -1.45612e-05
-5.94893e-05 -1.45612e-05 0.00369753
-0.00731759 0.00155366 -0.000377929
0.00155366 -0.00382667 0.000299597
-0.000377929 0.000299597 -0.00183524
0.00252293 -5.46848e-05 -1.00393e-05
-5.46848e-05 -0.000131656 -4.85448e-06
-1.00393e-05 -4.85448e-06 -0.000328404
0.00410584 -0.000222331 3.40026e-05
-0.000222331 6.63407e-05 -4.59345e-05
3.40026e-05 -4.59345e-05 -0.00188484
0.00890479 0.00144723 -5.02378e-05
0.00144723 0.00286758 -5.75123e-05
-5.02378e-05 -5.75123e-05 0.00353229
0.00233566 0.000968607 -5.31585e-05
0.000968607 -0.00145526 0.00011849
-5.31585e-05 0.00011849 -0.000786721
0.00238984 -0.000526637 -5.69253e-05
-0.000526637 -0.000503609 1.60293e-05
-5.69253e-05 1.60293e-05 -0.000806868
0.00248521 -0.000579503 0.000155597
-0.000579503 0.000343218 -0.000112798
0.000155597 -0.000112798 -0.00257432
-0.00537337 0.00064263 -4.6994e-05
0.00064263 -0.00455553 -0.000233377
-4.6994e-05 -0.000233377 -0.00444635
0.00220976 0.000599281 -3.74459e-05
0.000599281 -0.00294848 -6.30105e-06
-3.74459e-05 -6.30105e-06 -0.00169736
0.000804847 -1.31859e-05 1.13625e-06
-1.31859e-05 0.000154256 -2.75198e-07
1.13625e-06 -2.75198e-07 2.86222e-05
0.000739456 5.843e-05 -1.79388e-06
5.843e-05 0.000112162 -7.91962e-07
-1.79388e-06 -7.91962e-07 4.26106e-08
0.000697428 5.15124e-05 4.37074e-08
5.15124e-05 6.86433e-05 -2.29748e-07
4.37074e-08 -2.29748e-07 -1.30992e-05
0.000646059 6.78273e-05 2.34906e-06
6.78273e-05 6.16683e-05 2.43081e-06
2.34906e-06 2.43081e-06 -4.29905e-05
0.000710868 3.49677e-05 -5.90672e-08
3.49677e-05 9.0901e-05 -6.27031e-07
-5.90672e-08 -6.27031e-07 -3.73658e-05
0.000850035 7.328e-05 1.903e-07
7.328e-05 0.000173345 9.99497e-07
1.903e-07 9.99497e-07 5.80354e-05
0.00068602 1.9676e-05 -8.97811e-07
1.9676e-05 7.15206e-05 2.31287e-06
-8.97811e-07 2.31287e-06 -3.18466e-05
0.000894802 0.000107942 -1.09654e-07
0.000107942 0.000202003 -3.91169e-07
-1.09654e-07 -3.91169e-07 8.30595e-05
0.000844494 6.01973e-05 -1.54448e-07
6.01973e-05 0.000171094 5.53294e-07
-1.54448e-07 5.53294e-07 6.00158e-05
0.000602885 -6.11113e-06 -1.85719e-06
-6.11113e-06 2.74803e-05 4.67743e-07
-1.85719e-06 4.67743e-07 -7.39323e-05
0.00113569 -0.000190619 3.18346e-05
-0.000190619 -0.000314439 -1.3319e-05
3.18346e-05 -1.3319e-05 -0.000299638
0.000893764 -0.000359375 2.70137e-05
-0.000359375 -0.000433329 -4.18803e-06
2.70137e-05 -4.18803e-06 -0.000442756
0.00109181 -0.000440533 1.52908e-05
-0.000440533 -9.66102e-05 -2.67773e-06
1.52908e-05 -2.67773e-06 -0.000241611
0.00119667 -0.000371928 9.38574e-06
-0.000371928 0.000271922 -1.77781e-05
9.38574e-06 -1.77781e-05 -1.49217e-05
0.00148681 -0.000124448 -1.37016e-06
-0.000124448 0.000621708 1.12741e-05
-1.37016e-06 1.12741e-05 0.000377594
0.000692917 -8.34814e-05 -1.64945e-06
-8.34814e-05 0.000117191 4.59446e-06
-1.64945e-06 4.59446e-06 -3.18715e-05
0.00062949 6.54653e-05 -6.68238e-07
6.54653e-05 5.46291e-05 -3.96111e-07
-6.68238e-07 -3.96111e-07 -7.7603e-05
0.000720681 -4.86263e-05 -4.59309e-07
-4.86263e-05 0.000106701 1.34537e-06
-4.59309e-07 1.34537e-06 -2.70443e-05
0.00135591 -0.000253088 -1.79229e-06
-0.000253088 7.55395e-05 -2.03611e-07
-1.79229e-06 -2.03611e-07 -7.79243e-05
0.000837735 -7.66869e-06 1.48086e-07
-7.66869e-06 0.000183828 3.38293e-07
1.48086e-07 3.38293e-07 4.09646e-05
0.00124136 -0.000102609 -6.8434e-09
-0.000102609 0.000473353 2.00662e-07
-6.8434e-09 2.00662e-07 0.000267966
0.00114535 -0.000332576 -2.60981e-06
-0.000332576 -4.28699e-05 -1.92941e-06
-2.60981e-06 -1.92941e-06 -7.522e-05
0.00106018 -0.000228691 -1.33018e-05
-0.000228691 0.000361013 4.59443e-06
-1.33018e-05 4.59443e-06 9.66096e-05
-0.000209923 -0.000332321 -1.37075e-05
-0.000332321 -0.000785398 -1.88966e-05
-1.37075e-05 -1.88966e-05 -0.000763615
0.000664373 -0.000155667 -1.81866e-05
-0.000155667 0.000127143 2.47158e-05
-1.81866e-05 2.47158e-05 3.37204e-05
0.000308365 -5.02343e-05 -5.44049e-06
-5.02343e-05 -1.82527e-05 2.80228e-05
-5.44049e-06 2.80228e-05 -0.000221837
0.000693901 -3.3257e-06 4.78774e-07
-3.3257e-06 7.74431e-05 -4.81438e-07
4.78774e-07 -4.81438e-07 -5.38195e-05
0.000634531 2.2123e-05 2.04771e-06
2.2123e-05 0.000126544 -5.84294e-06
2.04771e-06 -5.84294e-06 -6.35652e-05
0.00166866 -3.54049e-05 -1.54536e-05
-3.54049e-05 0.000719866 -2.36872e-06
-1.54536e-05 -2.36872e-06 -0.000390941
-0.00171059 4.49825e-05 -9.19149e-05
4.49825e-05 0.00189502 -4.60266e-06
-9.19149e-05 -4.60266e-06 0.000397693
-0.00856207 -0.000351496 -0.000255022
-0.000351496 -0.00441494 4.9772e-06
-0.000255022 4.9772e-06 -0.00434739
-5.44797e-05 8.05278e-05 5.77382e-06
8.05278e-05 -0.000260694 -1.87939e-06
5.77382e-06 -1.87939e-06 -0.000390927
0.000107639 0.000109144 3.15155e-06
0.000109144 -0.000133202 3.43358e-06
3.15155e-06 3.43358e-06 -0.00035583
0.00159296 0.000293317 1.39283e-05
0.000293317 0.00034652 4.31815e-06
1.39283e-05 4.31815e-06 0.000283883
-0.00306651 0.000215823 -2.38715e-05
0.000215823 0.000686768 9.6863e-06
-2.38715e-05 9.6863e-06 -0.00103434
0.00201451 0.000406414 -6.8581e-05
0.000406414 0.000284516 -6.17679e-05
-6.8581e-05 -6.17679e-05 -0.00256077
0.00308188 0.000894873 9.88445e-05
0.000894873 0.000367068 1.67756e-05
9.88445e-05 1.67756e-05 -0.000186375
0.000618146 0.00027525 5.84494e-06
0.00027525 1.82173e-05 -1.76958e-05
5.84494e-06 -1.76958e-05 -3.23199e-05
0.0110839 -0.00104057 1.85206e-05
-0.00104057 0.00335911 -7.08141e-05
1.85206e-05 -7.08141e-05 0.00330216
0.00341606 0.000210293 9.74074e-05
0.000210293 0.00149669 6.69642e-05
9.74074e-05 6.69642e-05 -0.00051406
0.00778036 -0.000724977 3.15649e-05
-0.000724977 0.00114687 1.17784e-06
3.15649e-05 1.17784e-06 0.00249488
0.000979245 0.000171047 1.31198e-06
0.000171047 0.000379507 -2.10263e-06
1.31198e-06 -2.10263e-06 0.000264321
0.00264971 1.35908e-05 6.02825e-06
1.35908e-05 0.00107479 -6.76537e-06
6.02825e-06 -6.76537e-06 -5.26356e-05
0.000880891 9.78254e-05 9.43085e-06
9.78254e-05 0.000246963 1.41231e-05
9.43085e-06 1.41231e-05 -0.00113222
-0.000142582 0.000163793 -8.28683e-06
0.000163793 -9.58973e-05 -1.50909e-06
-8.28683e-06 -1.50909e-06 -0.00027661
0.00265902 0.000529059 -6.28806e-05
0.000529059 0.000836906 -3.56817e-05
-6.28806e-05 -3.56817e-05 0.000187948
0.00229671 0.00112389 5.70603e-05
0.00112389 0.000581292 4.38384e-05
5.70603e-05 4.38384e-05 -0.00234403
0.00477405 0.000115924 -8.2847e-06
0.000115924 -0.00207714 -8.44563e-05
-8.2847e-06 -8.44563e-05 -9.69844e-05
0.00137904 -0.000742133 -2.41311e-05
-0.000742133 -1.25687e-05 -2.23459e-05
-2.41311e-05 -2.23459e-05 -0.0011122
0.000997679 0.00011675 -4.68215e-06
0.00011675 0.000553997 -8.83479e-06
-4.68215e-06 -8.83479e-06 0.000433456
0.000852552 -5.32384e-05 -2.6146e-06
-5.32384e-05 0.000132481 -2.19015e-05
-2.6146e-06 -2.19015e-05 -8.59991e-05
0.00247841 -1.05382e-05 1.93377e-05
-1.05382e-05 0.000350169 -6.88883e-05
1.93377e-05 -6.88883e-05 -0.000673385
0.00237348 0.000634758 4.41709e-05
0.000634758 -0.00284841 4.95761e-06
4.41709e-05 4.95761e-06 -0.00169896
-0.00100827 5.29818e-05 -4.36699e-06
5.29818e-05 -0.000253636 -1.64889e-05
-4.36699e-06 -1.64889e-05 -0.000683013
0.00986868 0.000841216 0.000106442
0.000841216 0.00460421 4.45466e-05
0.000106442 4.45466e-05 0.00144843
-0.00891247 -0.000278771 5.85796e-05
-0.000278771 -0.0010347 0.000124781
5.85796e-05 0.000124781 -0.00259583
0.00166586 0.000171359 1.45615e-05
0.000171359 0.000663617 6.81943e-06
1.45615e-05 6.81943e-06 0.000575498
0.000903266 0.000108355 -3.08107e-06
0.000108355 0.000323525 2.5663e-07
-3.08107e-06 2.5663e-07 0.000220783
0.000540448 8.08563e-05 -9.9632e-06
8.08563e-05 0.000320012 -5.49966e-09
-9.9632e-06 -5.49966e-09 0.000197202
0.000790588 0.000122267 1.07502e-06
0.000122267 0.000118286 1.32334e-06
1.07502e-06 1.32334e-06 3.19318e-07
0.000754642 4.53233e-05 6.55982e-07
4.53233e-05 8.94932e-05 1.12892e-06
6.55982e-07 1.12892e-06 -1.09809e-05
0.000719864 -1.34955e-06 4.05509e-06
-1.34955e-06 0.000212396 6.866e-06
4.05509e-06 6.866e-06 0.000105223
0.000723342 3.82168e-05 -2.54105e-07
3.82168e-05 7.56569e-05 -4.03475e-07
-2.54105e-07 -4.03475e-07 -3.15801e-05
0.000774568 -2.92264e-05 -3.97103e-07
-2.92264e-05 0.000201592 -1.28405e-06
-3.97103e-07 -1.28405e-06 9.63163e-05
0.000344968 1.42198e-05 7.68985e-06
1.42198e-05 0.000122651 3.24808e-06
7.68985e-06 3.24808e-06 1.34819e-05
0.00108196 1.94361e-05 -1.12482e-05
1.94361e-05 0.000514825 -1.15111e-05
-1.12482e-05 -1.15111e-05 0.000440933
0.000321194 -3.06398e-05 -2.25595e-06
-3.06398e-05 -7.59852e-05 -6.68636e-06
-2.25595e-06 -6.68636e-06 -0.000172561
0.000649718 -2.44527e-05 5.06054e-07
-2.44527e-05 1.97369e-05 3.10384e-06
5.06054e-07 3.10384e-06 -6.90875e-05
0.000790098 3.05084e-05 -3.07727e-07
3.05084e-05 0.00012209 8.00904e-08
-3.07727e-07 8.00904e-08 2.50512e-05
0.000874506 1.0913e-05 -4.21227e-06
1.0913e-05 0.000153548 2.86154e-06
-4.21227e-06 2.86154e-06 6.83683e-05
0.000722372 -2.38546e-05 1.76177e-06
-2.38546e-05 9.08455e-05 1.7138e-07
1.76177e-06 1.7138e-07 1.49031e-05
0.000737588 1.51518e-05 -1.51394e-07
1.51518e-05 7.53301e-05 1.77728e-07
-1.51394e-07 1.77728e-07 -1.57821e-05
0.00072184 -6.76791e-05 2.513e-06
-6.76791e-05 8.98463e-05 -1.34127e-07
2.513e-06 -1.34127e-07 -1.29381e-06
0.000554768 -6.93411e-05 -1.52125e-06
-6.93411e-05 -5.38183e-05 -9.03496e-07
-1.52125e-06 -9.03496e-07 -0.000137846
0.000319445 -0.000135514 5.64778e-06
-0.000135514 -0.000157577 4.46238e-08
5.64778e-06 4.46238e-08 -0.000318831
0.00102605 -5.33319e-05 -7.80474e-07
-5.33319e-05 0.000237639 8.89035e-07
-7.80474e-07 8.89035e-07 0.000135001
0.00104416 -0.000122018 -7.33605e-07
-0.000122018 0.000263577 2.11091e-06
-7.33605e-07 2.11091e-06 0.000124528
0.000224201 -0.000150616 3.96006e-07
-0.000150616 -0.000258977 3.594e-06
3.96006e-07 3.594e-06 -0.000449209
0.000650747 -0.000170577 -6.28565e-06
-0.000170577 -1.44068e-05 8.48605e-08
-6.28565e-06 8.48605e-08 -0.000211567
0.000966765 -0.000152754 -1.61064e-06
-0.000152754 0.000254262 3.03524e-06
-1.61064e-06 3.03524e-06 9.74971e-05
0.000644616 -0.000160337 9.81749e-07
-0.000160337 1.64774e-05 5.16424e-07
9.81749e-07 5.16424e-07 -0.000172468
0.000852154 -4.57061e-05 5.77567e-07
-4.57061e-05 0.000159989 2.78223e-07
5.77567e-07 2.78223e-07 5.46972e-05
0.00101431 -7.62359e-05 -1.22662e-06
-7.62359e-05 0.000273589 -7.04143e-07
-1.22662e-06 -7.04143e-07 0.000147999
0.000543823 -7.92907e-05 9.05272e-07
-7.92907e-05 2.52759e-05 -6.95934e-06
9.05272e-07 -6.95934e-06 -0.000111593
0.000964771 3.29645e-06 -9.20845e-07
3.29645e-06 0.000222113 -4.65318e-07
-9.20845e-07 -4.65318e-07 0.00012266
0.000548137 5.85618e-06 2.14837e-07
5.85618e-06 -1.33174e-05 -2.92446e-08
2.14837e-07 -2.92446e-08 -0.000106929
0.000656798 1.28085e-05 -3.32389e-07
1.28085e-05 3.02872e-05 7.16305e-07
-3.32389e-07 7.16305e-07 -4.41478e-05
0.000806463 -3.45486e-05 -1.99875e-08
-3.45486e-05 0.000138676 2.05184e-07
-1.99875e-08 2.05184e-07 4.0478e-05
0.000705439 -1.832e-05 -3.18976e-07
-1.832e-05 6.12317e-05 8.34306e-09
-3.18976e-07 8.34306e-09 -1.37193e-05
0.000643418 3.25346e-05 -9.84568e-07
3.25346e-05 6.4712e-06 1.79517e-06
-9.84568e-07 1.79517e-06 -4.39355e-05
0.000750109 -5.19479e-05 8.13099e-07
-5.19479e-05 9.02523e-05 -9.78481e-07
8.13099e-07 -9.78481e-07 1.27163e-05
0.000660949 2.42365e-05 -6.4161e-07
2.42365e-05 1.24126e-05 -3.35131e-08
-6.4161e-07 -3.35131e-08 -3.5951e-05
0.00133097 4.5481e-05 -8.05647e-06
4.5481e-05 0.000393533 3.49589e-06
-8.05647e-06 3.49589e-06 0.000381909
0.000681833 -8.58688e-06 1.98342e-06
-8.58688e-06 2.22918e-05 -1.92319e-06
1.98342e-06 -1.92319e-06 -2.45771e-05
0.000969549 3.21099e-05 -4.22649e-06
3.21099e-05 0.000178497 6.32806e-07
-4.22649e-06 6.32806e-07 0.000166058
0.000813522 3.02289e-05 -1.30704e-06
3.02289e-05 9.30108e-05 1.99532e-06
-1.30704e-06 1.99532e-06 9.98466e-05
0.000579389 1.97668e-05 7.19397e-07
1.97668e-05 -5.22861e-05 -3.84211e-06
7.19397e-07 -3.84211e-06 -6.588e-05
0.00155884 3.18906e-05 7.15042e-06
3.18906e-05 0.000523535 -1.35175e-06
7.15042e-06 -1.35175e-06 0.000535091
0.0023234 2.80267e-05 8.20771e-06
2.80267e-05 0.000967513 -4.89772e-06
8.20771e-06 -4.89772e-06 0.000983467
0.000472139 2.4576e-06 1.40714e-07
2.4576e-06 -6.46859e-05 -2.24102e-06
1.40714e-07 -2.24102e-06 -0.000154345
0.00039197 -1.9227e-06 -2.29842e-07
-1.9227e-06 -0.000141843 -3.2658e-06
-2.29842e-07 -3.2658e-06 -0.000188338
0.000781613 8.93503e-06 9.61032e-08
8.93503e-06 0.000110136 6.87049e-08
9.61032e-08 6.87049e-08 3.24506e-05
0.00062176 -1.02794e-05 3.39976e-08
-1.02794e-05 -3.21896e-05 -3.81412e-06
3.39976e-08 -3.81412e-06 -4.04837e-05
0.000511706 6.00371e-06 7.86746e-07
6.00371e-06 -7.19017e-05 -5.18498e-08
7.86746e-07 -5.18498e-08 -0.000113264
0.000478718 -6.88699e-05 -6.1942e-07
-6.88699e-05 -6.18815e-05 1.74043e-06
-6.1942e-07 1.74043e-06 -0.000137121
0.00209338 -1.18462e-05 -5.35828e-06
-1.18462e-05 0.000830023 -4.80688e-06
-5.35828e-06 -4.80688e-06 0.000849393
0.000626549 -3.9989e-06 -1.35083e-07
-3.9989e-06 -3.00618e-05 -2.71609e-08
-1.35083e-07 -2.71609e-08 -3.66805e-05
0.000636142 -3.61978e-06 -1.01103e-06
-3.61978e-06 8.47558e-07 2.12273e-06
-1.01103e-06 2.12273e-06 -3.67886e-05
0.00206482 1.43368e-06 -3.48461e-06
1.43368e-06 0.000813129 5.60834e-09
-3.48461e-06 5.60834e-09 0.000832919
0.000617107 1.97038e-06 -1.07277e-07
1.97038e-06 -3.53383e-05 3.48219e-06
-1.07277e-07 3.48219e-06 -4.13505e-05
0.00206585 1.45354e-05 -3.58972e-06
1.45354e-05 0.000815199 4.61617e-06
-3.58972e-06 4.61617e-06 0.000834595
0.000803256 -9.83418e-05 -7.25618e-05
-9.83418e-05 -8.10429e-05 2.73316e-05
-7.25618e-05 2.73316e-05 -0.00122376
0.00152782 0.00014534 -1.66471e-05
0.00014534 0.00261642 -1.02314e-05
-1.66471e-05 -1.02314e-05 0.00166113
0.00134847 -0.000297227 -0.000174017
-0.000297227 0.00170656 -7.03326e-06
-0.000174017 -7.03326e-06 0.000972472
0.000751508 6.37329e-05 8.40438e-08
6.37329e-05 0.000101344 -1.23074e-07
8.40438e-08 -1.23074e-07 -1.34373e-05
0.00340943 -0.000162603 -2.28842e-05
-0.000162603 0.00192737 8.06502e-05
-2.28842e-05 8.06502e-05 0.000958531
0.0031643 -0.000245882 -5.70084e-05
-0.000245882 0.000987295 5.57932e-06
-5.70084e-05 5.57932e-06 -0.000931331
0.00154169 0.000507794 0.000118483
0.000507794 0.00242672 -0.000119147
0.000118483 -0.000119147 0.00189822
0.00374528 -0.000179282 1.0134e-05
-0.000179282 0.000257957 -2.89653e-05
1.0134e-05 -2.89653e-05 1.09691e-05
0.0103673 -0.000103189 8.39156e-05
-0.000103189 0.00316993 -4.25937e-05
8.39156e-05 -4.25937e-05 0.00148044
-0.00336304 0.00103538 -9.48589e-05
0.00103538 -0.00370937 0.000107694
-9.48589e-05 0.000107694 -0.0028463
0.00441994 0.00107498 1.07683e-05
0.00107498 -0.000210478 3.662e-05
1.07683e-05 3.662e-05 0.00041858
0.00469172 -0.000649382 -8.04138e-05
-0.000649382 0.000394382 -8.70099e-08
-8.04138e-05 -8.70099e-08 -0.000216706
0.00942746 -0.00039816 5.2098e-05
-0.00039816 0.00371701 -1.43263e-05
5.2098e-05 -1.43263e-05 0.00169169
0.00556242 0.000753554 4.41904e-05
0.000753554 0.000291057 -8.02154e-05
4.41904e-05 -8.02154e-05 0.000223876
0.00435303 0.000583691 -1.48116e-05
0.000583691 -0.001609 8.30396e-06
-1.48116e-05 8.30396e-06 -0.000495096
0.00482513 -0.00111727 -3.68842e-06
-0.00111727 0.000771187 -5.18325e-06
-3.68842e-06 -5.18325e-06 -0.000219205
0.0102754 -0.000894694 6.36773e-05
-0.000894694 0.00505458 -3.98492e-05
6.36773e-05 -3.98492e-05 0.00158207
0.00234017 -0.000136056 5.57969e-05
-0.000136056 -0.00020593 -0.000129786
5.57969e-05 -0.000129786 -0.000405659
0.00584328 0.000196838 -2.08055e-05
0.000196838 -0.000777931 5.6822e-05
-2.08055e-05 5.6822e-05 0.000772938
0.000778703 -2.96479e-05 3.70237e-07
-2.96479e-05 0.000131963 -1.19444e-06
3.70237e-07 -1.19444e-06 -3.20339e-06
0.000756918 -3.98602e-05 3.70464e-07
-3.98602e-05 0.00012942 6.68586e-08
3.70464e-07 6.68586e-08 2.37648e-07
0.000857681 8.52438e-05 -1.24043e-06
8.52438e-05 0.000185345 1.36261e-07
-1.24043e-06 1.36261e-07 7.11e-05
0.000718461 2.43946e-05 -3.8829e-07
2.43946e-05 7.09688e-05 -9.23577e-07
-3.8829e-07 -9.23577e-07 -4.2196e-05
0.000829816 7.71119e-05 -7.47342e-07
7.71119e-05 0.000161121 7.32296e-07
-7.47342e-07 7.32296e-07 3.35364e-05
0.000849513 5.88585e-05 1.52886e-07
5.88585e-05 0.000171536 2.30133e-06
1.52886e-07 2.30133e-06 5.86572e-05
0.000958931 0.000101766 -7.46894e-07
0.000101766 0.000236295 7.14446e-10
-7.46894e-07 7.14446e-10 0.000119
0.000976683 0.000107503 8.36706e-07
0.000107503 0.000255079 2.72517e-06
8.36706e-07 2.72517e-06 0.000139564
0.00146396 -0.00022285 4.99527e-05
-0.00022285 7.75614e-05 -1.6229e-05
4.99527e-05 -1.6229e-05 2.14031e-05
0.000865669 -0.000316166 7.74914e-06
-0.000316166 -0.000217404 -1.70634e-05
7.74914e-06 -1.70634e-05 -0.000234716
0.000750396 -0.000144666 -1.66558e-06
-0.000144666 0.000133615 1.01613e-06
-1.66558e-06 1.01613e-06 -9.01317e-06
0.00227625 -0.0002592 7.60753e-06
-0.0002592 0.000997466 -2.51239e-05
7.60753e-06 -2.51239e-05 0.000751868
0.00186918 -0.000138188 -2.93294e-06
-0.000138188 0.000825146 7.13621e-06
-2.93294e-06 7.13621e-06 0.000616299
0.00089823 -4.99013e-05 -2.30196e-06
-4.99013e-05 0.000210162 -6.31254e-07
-2.30196e-06 -6.31254e-07 7.16954e-05
0.000807226 1.37234e-05 2.41964e-07
1.37234e-05 0.000152768 -2.25809e-07
2.41964e-07 -2.25809e-07 1.53476e-05
0.000423363 -0.000382994 -1.01479e-05
-0.000382994 -0.000502428 -3.75388e-07
-1.01479e-05 -3.75388e-07 -0.00049326
0.00105036 3.83614e-05 -1.38022e-07
3.83614e-05 0.000366114 2.34314e-06
-1.38022e-07 2.34314e-06 0.000167957
0.000977993 -0.000117068 -3.58492e-06
-0.000117068 0.000327345 1.25316e-06
-3.58492e-06 1.25316e-06 0.000124644
0.000386962 -0.000141647 2.33192e-06
-0.000141647 -5.93717e-05 3.84834e-06
2.33192e-06 3.84834e-06 -0.000107226
0.00065079 2.85667e-05 1.5434e-06
2.85667e-05 4.03544e-05 -1.41545e-06
1.5434e-06 -1.41545e-06 -8.06021e-05
0.00135243 -0.000322527 2.03596e-05
-0.000322527 3.75169e-05 -3.04169e-05
2.03596e-05 -3.04169e-05 0.000199892
0.000389423 -0.000113029 -1.02265e-05
-0.000113029 0.000187916 3.0637e-05
-1.02265e-05 3.0637e-05 8.53611e-05
0.000809521 -9.72856e-06 -8.88992e-07
-9.72856e-06 0.000279352 1.01879e-05
-8.88992e-07 1.01879e-05 6.71158e-05
0.00134406 0.000174948 2.16061e-06
0.000174948 0.000495311 -2.67356e-06
2.16061e-06 -2.67356e-06 0.000329873
0.00103657 -3.54373e-05 -9.43171e-06
-3.54373e-05 0.000540109 -4.44168e-06
-9.43171e-06 -4.44168e-06 6.37793e-05
0.00142503 -5.16468e-05 6.00569e-05
-5.16468e-05 0.000633425 -6.2377e-06
6.00569e-05 -6.2377e-06 -0.000486946
-0.0038622 -5.33867e-05 -9.82657e-05
-5.33867e-05 0.00106452 5.39149e-06
-9.82657e-05 5.39149e-06 -0.00074651
0.000930148 0.000153897 1.42038e-05
0.000153897 0.000395852 8.90545e-07
1.42038e-05 8.90545e-07 0.00027537
-0.000707736 0.000210651 1.25246e-05
0.000210651 -0.000423049 1.11908e-05
1.25246e-05 1.11908e-05 -0.000653974
0.00292886 4.31161e-06 7.17683e-05
4.31161e-06 0.00136115 4.58658e-06
7.17683e-05 4.58658e-06 0.000394292
0.00792248 0.000356879 0.000121899
0.000356879 0.00357595 6.32762e-05
0.000121899 6.32762e-05 0.000579369
0.00275254 0.000593346 -8.72002e-05
0.000593346 0.0010533 -8.08087e-05
-8.72002e-05 -8.08087e-05 6.62443e-05
0.0035233 -0.000446593 -3.05865e-07
-0.000446593 0.000780464 -0.000133891
-3.05865e-07 -0.000133891 -0.000315799
0.00121741 0.000116524 3.27121e-05
0.000116524 0.000222922 0.000104424
3.27121e-05 0.000104424 -0.00119503
0.00385416 -3.48865e-06 1.0136e-06
-3.48865e-06 -0.00338429 -8.21043e-05
1.0136e-06 -8.21043e-05 -0.000853795
0.000726934 0.000136822 8.45896e-07
0.000136822 0.000406862 -1.27661e-06
8.45896e-07 -1.27661e-06 0.000270806
0.000890789 -5.30986e-05 -2.40097e-07
-5.30986e-05 0.000171386 -8.34101e-06
-2.40097e-07 -8.34101e-06 -4.32645e-05
0.00251385 1.24542e-05 3.20164e-05
1.24542e-05 0.000583269 7.52926e-06
3.20164e-05 7.52926e-06 -0.000288353
-0.000872799 0.000112728 -1.20537e-05
0.000112728 -0.000349013 -5.61564e-06
-1.20537e-05 -5.61564e-06 -0.00069576
0.00463574 0.000676447 1.22407e-05
0.000676447 -0.0015762 -8.23349e-06
1.22407e-05 -8.23349e-06 -0.000476767
0.00544505 0.000817968 8.79009e-05
0.000817968 0.00275578 3.8762e-05
8.79009e-05 3.8762e-05 -0.000500135
0.00314937 0.00019185 -5.05829e-05
0.00019185 0.00210184 7.77465e-06
-5.05829e-05 7.77465e-06 0.00121145
0.00017147 0.000147042 -2.00366e-05
0.000147042 0.000169614 -1.37477e-05
-2.00366e-05 -1.37477e-05 -3.96871e-05
0.00173734 3.49572e-05 -5.15385e-07
3.49572e-05 4.80555e-05 -2.36484e-05
-5.15385e-07 -2.36484e-05 -1.49427e-05
0.00348217 -0.000126926 2.50043e-05
-0.000126926 0.0018782 -8.04555e-05
2.50043e-05 -8.04555e-05 0.000952181
0.00548761 0.00110335 0.000119918
0.00110335 4.99791e-05 -8.85468e-05
0.000119918 -8.85468e-05 0.000791326
0.00537597 -7.82521e-05 -7.20161e-05
-7.82521e-05 0.000813886 0.000117791
-7.20161e-05 0.000117791 0.000846366
0.00123098 0.000200368 -1.29947e-05
0.000200368 8.0915e-05 -4.31457e-05
-1.29947e-05 -4.31457e-05 8.81271e-05
-0.000445269 0.000682098 0.000108289
0.000682098 0.00208273 3.73389e-05
0.000108289 3.73389e-05 -0.00280219
0.000725815 0.0001247 2.96858e-06
0.0001247 0.000207442 6.01382e-06
2.96858e-06 6.01382e-06 0.000102093
0.000360472 7.58952e-05 6.44539e-06
7.58952e-05 0.000217905 1.80015e-06
6.44539e-06 1.80015e-06 9.19742e-05
0.00109574 3.96805e-05 -2.73284e-05
3.96805e-05 0.000711024 -1.91324e-05
-2.73284e-05 -1.91324e-05 0.000613994
0.000504366 -1.56599e-05 7.60338e-07
-1.56599e-05 -6.16609e-05 3.23281e-06
7.60338e-07 3.23281e-06 -0.000158494
0.000831571 -3.79611e-05 1.92186e-06
-3.79611e-05 0.000232471 4.07035e-06
1.92186e-06 4.07035e-06 0.000128695
-8.30405e-05 9.20461e-07 -1.28595e-07
9.20461e-07 -0.000131948 6.28135e-06
-1.28595e-07 6.28135e-06 -0.000239318
0.000718189 -5.26228e-05 5.40899e-07
-5.26228e-05 0.000139503 -4.05388e-07
5.40899e-07 -4.05388e-07 4.96669e-05
0.000129705 -8.43715e-06 3.15961e-06
-8.43715e-06 -3.1849e-05 -3.86567e-10
3.15961e-06 -3.86567e-10 -0.00010916
0.00112996 -0.000167742 7.12615e-06
-0.000167742 0.000543042 -7.63907e-06
7.12615e-06 -7.63907e-06 0.000378767
0.00115935 -3.55247e-05 -1.77794e-06
-3.55247e-05 0.000335478 3.751e-06
-1.77794e-06 3.751e-06 0.000257239
0.000465573 3.22136e-05 -1.01734e-06
3.22136e-05 -7.48154e-05 1.57991e-06
-1.01734e-06 1.57991e-06 -0.000167173
0.00131806 -0.00011151 1.06198e-06
-0.00011151 0.000419162 1.7294e-06
1.06198e-06 1.7294e-06 0.000319484
-3.79022e-05 -0.000117724 4.16591e-06
-0.000117724 -0.000242007 1.46482e-06
4.16591e-06 1.46482e-06 -0.000451997
0.000456803 -4.53933e-05 -4.34276e-06
-4.53933e-05 -8.13829e-05 1.33258e-06
-4.34276e-06 1.33258e-06 -0.000154689
0.000160871 -0.00012153 1.74943e-06
-0.00012153 -0.000248153 -1.05411e-06
1.74943e-06 -1.05411e-06 -0.000396767
0.00103319 -0.000231072 7.69994e-06
-0.000231072 0.000201979 -1.73456e-06
7.69994e-06 -1.73456e-06 -1.96917e-05
0.00131437 -0.000272447 -3.13635e-06
-0.000272447 0.000206475 4.34778e-06
-3.13635e-06 4.34778e-06 -3.14095e-05
0.00164224 -0.000177271 -2.26937e-06
-0.000177271 0.000595265 1.8412e-07
-2.26937e-06 1.8412e-07 0.000446905
0.000613873 -0.000184142 -1.06939e-07
-0.000184142 -4.79365e-05 9.02199e-08
-1.06939e-07 9.02199e-08 -0.000248137
0.00190279 -0.000288209 1.78577e-06
-0.000288209 0.000666121 -1.45089e-06
1.78577e-06 -1.45089e-06 0.000466934
0.00014487 -9.96632e-05 -2.55109e-06
-9.96632e-05 -0.000231757 1.42218e-07
-2.55109e-06 1.42218e-07 -0.000405997
0.000892493 -0.000189012 -5.25361e-07
-0.000189012 0.000127185 8.54342e-07
-5.25361e-07 8.54342e-07 -6.81038e-05
0.000666696 -4.14114e-05 8.51365e-08
-4.14114e-05 6.376e-05 1.29767e-07
8.51365e-08 1.29767e-07 -5.63433e-05
0.00104667 -0.000166675 -3.34295e-06
-0.000166675 0.000301135 2.35728e-06
-3.34295e-06 2.35728e-06 0.000141453
0.000214179 -0.00011951 -1.95672e-06
-0.00011951 -0.000225066 -1.74725e-06
-1.95672e-06 -1.74725e-06 -0.000406012
0.000648816 3.1636e-05 4.5953e-07
3.1636e-05 3.44947e-05 9.79548e-07
4.5953e-07 9.79548e-07 -5.15359e-05
0.000727966 -3.18542e-05 8.20818e-07
-3.18542e-05 9.40625e-05 -9.45304e-08
8.20818e-07 -9.45304e-08 -1.32233e-05
0.000841949 -7.353e-05 2.41701e-06
-7.353e-05 0.000183857 -2.73387e-06
2.41701e-06 -2.73387e-06 5.33096e-05
0.000711413 -4.25388e-06 3.42657e-07
-4.25388e-06 8.15159e-05 -3.37727e-07
3.42657e-07 -3.37727e-07 -1.33974e-05
0.000715427 -4.24302e-06 -5.5348e-07
-4.24302e-06 6.92433e-05 -1.23859e-07
-5.5348e-07 -1.23859e-07 -9.80606e-06
0.000640381 3.61958e-05 -1.21371e-06
3.61958e-05 8.19808e-06 1.90721e-06
-1.21371e-06 1.90721e-06 -4.48389e-05
0.000759062 -3.42357e-05 6.99987e-07
-3.42357e-05 9.67547e-05 -8.22605e-07
6.99987e-07 -8.22605e-07 1.78346e-05
0.000660217 2.83999e-05 -4.53765e-07
2.83999e-05 1.48754e-05 -5.59499e-08
-4.53765e-07 -5.59499e-08 -3.50035e-05
0.000597951 4.30251e-05 -1.09552e-06
4.30251e-05 -2.80909e-05 3.87636e-06
-1.09552e-06 3.87636e-06 -4.52819e-05
0.000701489 1.27725e-06 1.94103e-06
1.27725e-06 3.31402e-05 -1.85376e-06
1.94103e-06 -1.85376e-06 -1.38473e-05
0.000601377 3.53892e-05 1.3446e-07
3.53892e-05 -3.27298e-05 1.41183e-08
1.3446e-07 1.41183e-08 -4.79704e-05
0.00220765 6.71102e-05 -4.35088e-06
6.71102e-05 0.000913947 1.80607e-06
-4.35088e-06 1.80607e-06 0.000925584
0.000578072 2.77063e-05 8.56279e-07
2.77063e-05 -5.03078e-05 -3.89599e-06
8.56279e-07 -3.89599e-06 -6.45238e-05
0.00155016 4.1912e-05 8.63075e-06
4.1912e-05 0.000523452 -1.17884e-06
8.63075e-06 -1.17884e-06 0.000533811
0.00231547 4.06163e-05 1.24644e-05
4.06163e-05 0.000966773 -4.66769e-06
1.24644e-05 -4.66769e-06 0.000981726
0.000472387 -5.53434e-06 -1.23094e-07
-5.53434e-06 -7.48471e-05 -2.08214e-06
-1.23094e-07 -2.08214e-06 -0.000162192
0.000370447 -4.39151e-06 -1.84402e-07
-4.39151e-06 -0.000155105 -3.22582e-06
-1.84402e-07 -3.22582e-06 -0.000206881
0.000639993 1.20317e-05 -4.22028e-07
1.20317e-05 3.14428e-05 -8.29715e-07
-4.22028e-07 -8.29715e-07 -5.65156e-05
0.000618003 -1.66434e-05 5.89004e-10
-1.66434e-05 -3.27131e-05 -4.00564e-06
5.89004e-10 -4.00564e-06 -4.34609e-05
0.000365104 -2.66429e-06 -2.86122e-07
-2.66429e-06 -0.000157162 -1.00454e-06
-2.86122e-07 -1.00454e-06 -0.00020438
0.000799565 1.94279e-05 -1.16035e-07
1.94279e-05 0.000128109 1.89058e-06
-1.16035e-07 1.89058e-06 4.54775e-05
0.00215719 -2.41734e-05 -9.64838e-06
-2.41734e-05 0.000868814 -4.79239e-06
-9.64838e-06 -4.79239e-06 0.000887035
0.000620141 -1.02578e-05 -1.55235e-07
-1.02578e-05 -3.30747e-05 -4.26933e-08
-1.55235e-07 -4.26933e-08 -4.12825e-05
0.000346 -1.72266e-06 4.45052e-07
-1.72266e-06 -0.000167369 2.24623e-06
4.45052e-07 2.24623e-06 -0.000210338
0.00208511 -1.05906e-05 -3.3867e-06
-1.05906e-05 0.000824993 4.12067e-08
-3.3867e-06 4.12067e-08 0.000844517
0.000623971 -3.94307e-06 -3.60843e-08
-3.94307e-06 -3.14674e-05 3.59256e-06
-3.60843e-08 3.59256e-06 -3.8043e-05
0.00207461 2.65875e-06 8.74227e-07
2.65875e-06 0.000818901 4.72489e-06
8.74227e-07 4.72489e-06 0.000838615
0.0011976 8.03228e-06 -5.85227e-07
8.03228e-06 0.000518619 1.61885e-05
-5.85227e-07 1.61885e-05 0.000227136
0.00131401 -7.59821e-05 8.72984e-06
-7.59821e-05 0.000244436 -5.9798e-06
8.72984e-06 -5.9798e-06 -0.000902825
0.00182323 8.29677e-05 2.54525e-05
8.29677e-05 0.00276305 -3.29643e-05
2.54525e-05 -3.29643e-05 0.00193899
0.000804826 7.00009e-05 -1.81121e-07
7.00009e-05 0.000126446 2.81701e-07
-1.81121e-07 2.81701e-07 1.7548e-05
0.000650031 4.09196e-05 7.79452e-08
4.09196e-05 2.19946e-05 -5.10109e-08
7.79452e-08 -5.10109e-08 -7.77955e-05
0.000920299 9.59503e-05 5.9516e-08
9.59503e-05 0.000188821 8.75345e-07
5.9516e-08 8.75345e-07 7.37915e-05
0.00217708 -5.7946e-05 8.86599e-06
-5.7946e-05 0.00020319 0.000130708
8.86599e-06 0.000130708 -0.000846572
0.00311338 -0.000138711 -1.92941e-06
-0.000138711 0.00181432 9.81208e-07
-1.92941e-06 9.81208e-07 0.00078367
0.00344716 -0.000278463 4.5761e-05
-0.000278463 0.00126097 -9.66666e-05
4.5761e-05 -9.66666e-05 -0.000814677
0.00515472 -0.000711082 -5.05432e-05
-0.000711082 0.000905573 1.09894e-07
-5.05432e-05 1.09894e-07 0.000247161
0.00173989 -0.000535789 -8.95609e-05
-0.000535789 0.000111488 7.09465e-05
-8.95609e-05 7.09465e-05 -0.00237897
0.00868504 0.00104573 7.32081e-05
0.00104573 0.00278917 4.33835e-05
7.32081e-05 4.33835e-05 0.00249198
0.00198033 0.000196767 2.48828e-05
0.000196767 -0.00303444 -5.53651e-05
2.48828e-05 -5.53651e-05 -0.00188916
0.00539839 -0.00112304 -1.5571e-05
-0.00112304 0.00140733 4.33828e-06
-1.5571e-05 4.33828e-06 0.00063755
0.00676234 -0.000761651 1.95623e-07
-0.000761651 0.00304058 1.20786e-05
1.95623e-07 1.20786e-05 7.15354e-05
-0.00233387 0.000565918 -1.69769e-05
0.000565918 -0.000451576 -7.93776e-05
-1.69769e-05 -7.93776e-05 -0.00172274
0.00468349 -1.39386e-05 -1.37664e-05
-1.39386e-05 -0.00212135 3.34717e-05
-1.37664e-05 3.34717e-05 -0.000100872
0.00251265 -0.000775889 -4.03095e-05
-0.000775889 0.000321764 -1.44383e-05
-4.03095e-05 -1.44383e-05 -0.000350025
0.011057 -0.00103568 -9.56722e-06
-0.00103568 0.00512569 3.70409e-05
-9.56722e-06 3.70409e-05 0.00157779
-0.00897408 -0.000104035 4.71579e-05
-0.000104035 -0.000889091 -0.000158696
4.71579e-05 -0.000158696 -0.00261756
0.00317153 -0.000593778 6.85273e-06
-0.000593778 -0.00197474 -3.03888e-05
6.85273e-06 -3.03888e-05 -0.000652705
0.000766779 3.75334e-05 -3.82557e-07
3.75334e-05 0.000102493 -3.34553e-07
-3.82557e-07 -3.34553e-07 -2.2877e-05
0.000723113 1.08494e-06 1.33457e-07
1.08494e-06 9.90172e-05 -6.25107e-07
1.33457e-07 -6.25107e-07 -3.53302e-05
0.000731765 -5.73511e-05 1.00502e-07
-5.73511e-05 0.000115184 3.79338e-07
1.00502e-07 3.79338e-07 -1.66383e-05
0.000762456 4.7897e-05 -4.6124e-07
4.7897e-05 9.91226e-05 -5.99441e-07
-4.6124e-07 -5.99441e-07 -1.68227e-05
0.000900891 0.000116069 1.05171e-06
0.000116069 0.000202377 1.72043e-06
1.05171e-06 1.72043e-06 7.70419e-05
0.00104956 0.000114345 -7.51318e-07
0.000114345 0.000290792 1.16433e-06
-7.51318e-07 1.16433e-06 0.000171598
0.000536033 -0.00038876 1.72964e-05
-0.00038876 -0.000455744 6.91797e-06
1.72964e-05 6.91797e-06 -0.000482502
-0.000524762 -9.05362e-05 1.59426e-05
-9.05362e-05 -0.000569903 -2.26005e-05
1.59426e-05 -2.26005e-05 -0.000575402
0.00093607 6.02014e-05 -1.34707e-06
6.02014e-05 0.000233955 -8.20311e-08
-1.34707e-06 -8.20311e-08 9.2083e-05
0.00132928 -0.000155438 1.9571e-05
-0.000155438 0.000482745 -3.16306e-05
1.9571e-05 -3.16306e-05 0.000284885
0.00129667 1.75539e-05 -2.49391e-06
1.75539e-05 0.000500087 1.69971e-06
-2.49391e-06 1.69971e-06 0.00029889
0.000707285 1.94319e-05 -2.08229e-08
1.94319e-05 7.34065e-05 4.66547e-07
-2.08229e-08 4.66547e-07 -5.31005e-05
0.000617706 8.82752e-05 2.79094e-07
8.82752e-05 7.61206e-05 4.73324e-08
2.79094e-07 4.73324e-08 -7.55125e-05
0.00021987 -0.000324042 -3.61043e-06
-0.000324042 -0.000537434 -3.02068e-06
-3.61043e-06 -3.02068e-06 -0.000514821
0.000853289 -2.44632e-05 4.17206e-06
-2.44632e-05 0.000297699 -1.83276e-06
4.17206e-06 -1.83276e-06 9.4949e-05
0.000496378 -5.58547e-05 2.25e-05
-5.58547e-05 0.000263123 1.883e-07
2.25e-05 1.883e-07 0.000157778
0.00106076 6.61473e-05 2.65277e-06
6.61473e-05 0.00028368 -3.89021e-06
2.65277e-06 -3.89021e-06 0.000162439
-0.00249512 0.000134499 -5.97625e-05
0.000134499 -0.0011286 -1.37622e-05
-5.97625e-05 -1.37622e-05 -0.0014888
7.87136e-05 8.31513e-06 6.13134e-06
8.31513e-06 1.49101e-05 3.46415e-05
6.13134e-06 3.46415e-05 -8.25469e-05
0.00127553 5.61481e-06 2.6241e-06
5.61481e-06 0.000535799 1.60632e-06
2.6241e-06 1.60632e-06 0.000367565
0.00112603 -2.96597e-05 1.60764e-06
-2.96597e-05 -8.9956e-06 4.26297e-07
1.60764e-06 4.26297e-07 -0.000413984
0.000864589 -2.78018e-05 -1.47825e-05
-2.78018e-05 0.000407779 -6.52641e-06
-1.47825e-05 -6.52641e-06 5.82368e-06
0.00100055 -3.48722e-05 0.000139684
-3.48722e-05 0.000474693 -4.30866e-06
0.000139684 -4.30866e-06 -0.000691507
0.000845197 0.000175654 1.60375e-05
0.000175654 0.00045952 1.25406e-05
1.60375e-05 1.25406e-05 0.000312374
0.00187831 0.000391622 1.38087e-05
0.000391622 0.000642687 -1.28854e-05
1.38087e-05 -1.28854e-05 0.000421374
0.000935148 -5.34926e-05 2.73506e-06
-5.34926e-05 0.000213677 5.14463e-06
2.73506e-06 5.14463e-06 2.57935e-06
-0.00187479 0.000437311 2.71392e-05
0.000437311 -2.01689e-06 3.66303e-05
2.71392e-05 3.66303e-05 -0.00333288
-0.0105062 0.000218167 -5.94016e-05
0.000218167 -0.00370579 -0.000160163
-5.94016e-05 -0.000160163 -0.00546665
0.00254332 3.08413e-05 3.36559e-05
3.08413e-05 0.000814738 6.19849e-05
3.36559e-05 6.19849e-05 0.000121553
0.00217611 0.000328855 -3.22457e-05
0.000328855 -0.00295416 5.63098e-05
-3.22457e-05 5.63098e-05 -0.00185223
0.000458818 0.000142255 5.27737e-06
0.000142255 0.000334937 -1.72454e-06
5.27737e-06 -1.72454e-06 0.000148492
0.00157893 -4.33486e-06 9.10231e-06
-4.33486e-06 -5.35579e-05 -1.55892e-05
9.10231e-06 -1.55892e-05 -4.85527e-05
0.00318524 -9.94772e-05 1.09071e-06
-9.94772e-05 0.00176324 -1.24314e-06
1.09071e-06 -1.24314e-06 0.000759248
0.00135134 0.000211293 -1.14052e-05
0.000211293 0.000258295 -3.94005e-06
-1.14052e-05 -3.94005e-06 -0.000146666
0.00255305 0.00101238 4.99456e-05
0.00101238 -0.00159175 -0.00011684
4.99456e-05 -0.00011684 -0.00075568
-0.00208472 0.000533779 1.4578e-05
0.000533779 -0.00111988 7.85089e-05
1.4578e-05 7.85089e-05 -0.00192123
0.00677453 -1.17042e-05 6.23708e-05
-1.17042e-05 0.00484076 -2.24282e-05
6.23708e-05 -2.24282e-05 0.000205446
0.00165295 -1.43271e-05 3.33102e-05
-1.43271e-05 0.00123424 -1.65053e-05
3.33102e-05 -1.65053e-05 0.000902133
0.0012448 3.41185e-05 -1.53227e-06
3.41185e-05 0.000487689 -1.36376e-05
-1.53227e-06 -1.36376e-05 0.000207217
0.00327176 -0.000171859 0.00016037
-0.000171859 0.000812178 -0.000131319
0.00016037 -0.000131319 -0.000857919
0.00371565 0.00137848 -7.92341e-06
0.00137848 0.00239978 -1.3456e-05
-7.92341e-06 -1.3456e-05 0.00331998
-0.00505242 0.000625091 4.22609e-05
0.000625091 -0.0046009 0.00022247
4.22609e-05 0.00022247 -0.00447093
0.0120629 -0.000906041 9.27372e-05
-0.000906041 0.00502177 -8.80212e-05
9.27372e-05 -8.80212e-05 0.0016188
0.00426377 -0.000405898 -9.14587e-05
-0.000405898 0.00137524 9.95981e-05
-9.14587e-05 9.95981e-05 0.00126475
0.000762007 9.60891e-05 5.86848e-06
9.60891e-05 0.000443976 4.26264e-06
5.86848e-06 4.26264e-06 0.000309465
-8.83714e-05 3.04901e-06 -9.19123e-06
3.04901e-06 4.71231e-05 1.90376e-06
-9.19123e-06 1.90376e-06 -8.09002e-05
0.00122101 -0.000233889 1.18176e-05
-0.000233889 0.000779424 -1.46761e-05
1.18176e-05 -1.46761e-05 0.000533593
0.000960666 -6.43738e-05 1.35528e-06
-6.43738e-05 0.000270285 2.38714e-06
1.35528e-06 2.38714e-06 0.000184416
-0.000515932 -2.76279e-05 4.56948e-06
-2.76279e-05 -0.00039873 1.3771e-05
4.56948e-06 1.3771e-05 -0.000483905
0.000151738 -0.000140491 -1.42617e-06
-0.000140491 2.00279e-05 -2.71119e-07
-1.42617e-06 -2.71119e-07 -0.000134139
0.00124142 -0.000243954 2.35699e-05
-0.000243954 0.000545915 -1.45536e-05
2.35699e-05 -1.45536e-05 0.000272464
0.00202159 -0.000157781 -3.99133e-06
-0.000157781 0.000809847 3.69261e-06
-3.99133e-06 3.69261e-06 0.000700999
0.00161108 -0.000267883 1.67282e-06
-0.000267883 0.000618656 1.52604e-07
1.67282e-06 1.52604e-07 0.000398103
0.00118096 -0.000266128 8.44628e-06
-0.000266128 0.000395125 2.41972e-06
8.44628e-06 2.41972e-06 4.21784e-05
5.42406e-05 -0.000102555 -1.76733e-06
-0.000102555 -0.000310988 -4.97406e-07
-1.76733e-06 -4.97406e-07 -0.000444851
0.00121179 -0.000243928 -3.45609e-07
-0.000243928 0.000278617 1.49776e-06
-3.45609e-07 1.49776e-06 4.84994e-05
0.00261893 -0.000412519 2.82312e-06
-0.000412519 0.000944109 2.91063e-06
2.82312e-06 2.91063e-06 0.000641058
0.00178226 -0.000351831 -2.02726e-06
-0.000351831 0.000358819 2.04741e-06
-2.02726e-06 2.04741e-06 9.35e-05
0.000503448 -0.00019394 7.23485e-07
-0.00019394 -0.000216169 6.83933e-06
7.23485e-07 6.83933e-06 -0.000421645
0.00130594 -0.000272907 -3.9342e-06
-0.000272907 0.000208827 1.94635e-06
-3.9342e-06 1.94635e-06 -3.08911e-05
0.0009671 -0.000214757 -6.0315e-06
-0.000214757 0.000141661 1.4862e-06
-6.0315e-06 1.4862e-06 -6.80158e-05
0.00174589 -0.000263724 5.06293e-06
-0.000263724 0.000611901 -2.9251e-06
5.06293e-06 -2.9251e-06 0.000420119
0.00128563 -0.000232636 2.93803e-06
-0.000232636 0.000319644 -2.72741e-06
2.93803e-06 -2.72741e-06 0.00013711
0.000198445 -4.63527e-05 1.9295e-06
-4.63527e-05 -0.000201087 8.39879e-07
1.9295e-06 8.39879e-07 -0.000351434
0.00071039 -0.000151065 1.52867e-06
-0.000151065 9.47257e-05 -5.94361e-07
1.52867e-06 -5.94361e-07 -8.49806e-05
0.00113946 -0.000207768 5.85498e-06
-0.000207768 0.000271261 -4.62548e-06
5.85498e-06 -4.62548e-06 7.83144e-05
0.000639645 3.78266e-05 1.31729e-06
3.78266e-05 3.69233e-05 1.52174e-06
1.31729e-06 1.52174e-06 -6.55026e-05
0.00088838 -7.25075e-05 -4.77245e-07
-7.25075e-05 0.000196158 1.08557e-07
-4.77245e-07 1.08557e-07 6.87122e-05
0.00104688 -0.000173395 -6.98561e-07
-0.000173395 0.000301473 -5.8636e-07
-6.98561e-07 -5.8636e-07 0.000140171
0.000629038 3.36658e-05 -1.19031e-06
3.36658e-05 6.0203e-06 1.99324e-06
-1.19031e-06 1.99324e-06 -5.14996e-05
0.000731911 1.90139e-06 -6.84533e-07
1.90139e-06 8.00653e-05 -2.83e-07
-6.84533e-07 -2.83e-07 -6.56972e-06
0.000606812 -1.86351e-05 1.63212e-07
-1.86351e-05 2.98998e-05 -5.15068e-07
1.63212e-07 -5.15068e-07 -7.95136e-05
0.000770514 -2.43635e-05 6.18149e-07
-2.43635e-05 0.000102712 -1.06281e-06
6.18149e-07 -1.06281e-06 2.1363e-05
0.000667839 2.03535e-05 -2.62952e-07
2.03535e-05 2.18655e-05 -8.18105e-08
-2.62952e-07 -8.18105e-08 -3.01365e-05
0.000582624 5.1108e-05 -9.14506e-07
5.1108e-05 -2.81447e-05 4.1209e-06
-9.14506e-07 4.1209e-06 -4.84225e-05
0.000683982 1.06253e-05 1.88643e-06
1.06253e-05 2.61446e-05 -1.80687e-06
1.88643e-06 -1.80687e-06 -2.24766e-05
0.00059938 4.42729e-05 -1.26034e-08
4.42729e-05 -2.71159e-05 -9.39735e-09
-1.26034e-08 -9.39735e-09 -4.44641e-05
0.00225112 7.34334e-05 -2.36317e-05
7.34334e-05 0.000946748 3.78465e-06
-2.36317e-05 3.78465e-06 0.000957063
0.00058965 3.61265e-05 9.26779e-07
3.61265e-05 -3.95296e-05 -3.86258e-06
9.26779e-07 -3.86258e-06 -5.48022e-05
0.00153319 5.21531e-05 1.02801e-05
5.21531e-05 0.000520197 -1.03493e-06
1.02801e-05 -1.03493e-06 0.000528916
0.00230993 5.30461e-05 1.63767e-05
5.30461e-05 0.00096881 -4.34955e-06
1.63767e-05 -4.34955e-06 0.000982376
0.000713345 5.20359e-05 -5.31666e-07
5.20359e-05 6.4766e-05 -1.05862e-06
-5.31666e-07 -1.05862e-06 -2.51901e-05
0.000659865 1.17037e-05 -7.05946e-07
1.17037e-05 1.06146e-05 -2.47705e-06
-7.05946e-07 -2.47705e-06 -4.28393e-05
0.000595729 3.2162e-05 -1.03908e-06
3.2162e-05 4.64666e-06 -8.1299e-07
-1.03908e-06 -8.1299e-07 -8.79478e-05
0.000606916 -2.34658e-05 1.59182e-07
-2.34658e-05 -3.62219e-05 -4.28525e-06
1.59182e-07 -4.28525e-06 -5.00355e-05
0.000498378 6.33898e-06 -1.04215e-06
6.33898e-06 -8.11794e-05 -9.99203e-07
-1.04215e-06 -9.99203e-07 -0.000131796
0.000814272 3.09094e-05 3.48187e-07
3.09094e-05 0.000132508 6.62318e-07
3.48187e-07 6.62318e-07 4.52689e-05
0.00223652 -3.68096e-05 -1.42116e-05
-3.68096e-05 0.000917809 -4.71695e-06
-1.42116e-05 -4.71695e-06 0.000934375
0.000613935 -1.64242e-05 -2.27563e-07
-1.64242e-05 -3.51134e-05 -4.12761e-08
-2.27563e-07 -4.12761e-08 -4.57224e-05
0.000328886 -2.99647e-06 -4.86497e-07
-2.99647e-06 -0.000177917 1.4319e-06
-4.86497e-07 1.4319e-06 -0.000225783
0.00214745 -2.2965e-05 -3.4496e-06
-2.2965e-05 0.000862744 8.10659e-08
-3.4496e-06 8.10659e-08 0.000881213
0.000619827 -1.02783e-05 -5.99573e-08
-1.02783e-05 -3.31663e-05 3.7274e-06
-5.99573e-08 3.7274e-06 -4.13049e-05
0.00208782 -9.32179e-06 5.4358e-06
-9.32179e-06 0.0008264 4.7492e-06
5.4358e-06 4.7492e-06 0.000845988
0.00166357 -2.86646e-05 -1.55543e-06
-2.86646e-05 1.22885e-05 2.50461e-05
-1.55543e-06 2.50461e-05 -4.04699e-05
0.00120745 -1.91048e-06 -2.68637e-06
-1.91048e-06 0.000444324 -1.18673e-06
-2.68637e-06 -1.18673e-06 0.000200199
0.00174918 -6.84102e-05 9.17319e-05
-6.84102e-05 0.000502211 -2.4457e-05
9.17319e-05 -2.4457e-05 -0.000613971
0.000628585 1.7374e-06 -2.0957e-07
1.7374e-06 2.01215e-06 -6.83144e-07
-2.0957e-07 -6.83144e-07 -9.03403e-05
0.000874161 2.63967e-05 -1.14749e-06
2.63967e-05 0.000151093 -6.5438e-07
-1.14749e-06 -6.5438e-07 4.8167e-05
0.000812233 6.94551e-05 1.23411e-06
6.94551e-05 0.000127867 8.02251e-07
1.23411e-06 8.02251e-07 2.35814e-05
0.000662284 2.54491e-05 1.9485e-07
2.54491e-05 2.32955e-05 1.54121e-07
1.9485e-07 1.54121e-07 -7.19716e-05
0.000785153 4.88538e-05 7.22528e-08
4.88538e-05 0.000109701 2.14117e-07
7.22528e-08 2.14117e-07 -2.73129e-06
0.000771597 3.38113e-05 -8.38846e-07
3.38113e-05 9.36796e-05 -9.90374e-08
-8.38846e-07 -9.90374e-08 -9.37421e-06
0.000931807 0.000161029 6.98587e-07
0.000161029 0.00021223 3.48135e-07
6.98587e-07 3.48135e-07 7.87375e-05
0.00031298 2.77253e-05 3.58904e-05
2.77253e-05 0.000167943 0.000122602
3.58904e-05 0.000122602 -0.0011641
0.00238751 -3.59025e-05 -7.65664e-06
-3.59025e-05 0.000584197 4.4948e-05
-7.65664e-06 4.4948e-05 -0.000273017
0.00272462 -0.000109072 1.162e-05
-0.000109072 0.00167166 -6.41216e-05
1.162e-05 -6.41216e-05 0.000558624
0.0034818 -0.000130438 -2.52401e-05
-0.000130438 -0.00352805 3.96671e-05
-2.52401e-05 3.96671e-05 -0.00103809
0.00344718 -0.000954747 -4.70003e-05
-0.000954747 0.00114591 5.52709e-05
-4.70003e-05 5.52709e-05 0.000152884
-0.00182372 -0.000980889 1.87414e-05
-0.000980889 -0.000622056 6.08754e-05
1.87414e-05 6.08754e-05 -0.00403734
0.00686614 0.00121357 5.7903e-05
0.00121357 0.00396249 -2.47311e-05
5.7903e-05 -2.47311e-05 0.00226586
0.00402231 -0.000909307 -2.07054e-05
-0.000909307 0.00102098 5.50841e-06
-2.07054e-05 5.50841e-06 0.000275775
0.000226917 -0.000421775 3.59696e-05
-0.000421775 0.00100808 9.13752e-06
3.59696e-05 9.13752e-06 -0.00272816
0.00434507 -5.26574e-05 -1.1719e-05
-5.26574e-05 0.00232194 -5.93597e-06
-1.1719e-05 -5.93597e-06 0.00144895
0.00772275 -0.00083035 -2.72829e-05
-0.00083035 0.000930342 -3.27173e-05
-2.72829e-05 -3.27173e-05 0.00220383
0.000701262 2.45769e-05 -9.0523e-05
2.45769e-05 -0.000736565 5.84717e-05
-9.0523e-05 5.84717e-05 -0.000621456
0.000660181 0.000796642 -8.8698e-06
0.000796642 0.0010798 -9.43964e-05
-8.8698e-06 -9.43964e-05 -0.00255701
-0.0069042 -0.00123423 5.56999e-05
-0.00123423 -0.00416127 -0.000102553
5.56999e-05 -0.000102553 -0.00577932
0.00316068 -0.00078608 1.15093e-05
-0.00078608 -0.00139101 -0.000172756
1.15093e-05 -0.000172756 9.2365e-05
0.000720978 6.20403e-06 -1.01717e-06
6.20403e-06 7.51169e-05 -5.94645e-07
-1.01717e-06 -5.94645e-07 -3.20686e-05
0.000713775 3.94972e-05 2.85067e-07
3.94972e-05 7.52623e-05 1.9307e-07
2.85067e-07 1.9307e-07 -5.1221e-05
0.000717355 1.51814e-05 -4.29932e-07
1.51814e-05 0.000103269 1.12087e-07
-4.29932e-07 1.12087e-07 -3.60277e-05
0.000799345 4.20247e-05 -5.6654e-08
4.20247e-05 0.000130631 -7.68592e-07
-5.6654e-08 -7.68592e-07 6.67455e-06
0.000170277 -0.00035454 3.22168e-07
-0.00035454 -0.000610617 2.04299e-05
3.22168e-07 2.04299e-05 -0.000666167
0.00107263 -4.92497e-05 -7.04342e-06
-4.92497e-05 0.000591737 -2.82025e-05
-7.04342e-06 -2.82025e-05 0.000501361
0.000578312 1.72711e-05 -1.51174e-06
1.72711e-05 -1.11351e-05 1.23994e-07
-1.51174e-06 1.23994e-07 -0.000131611
0.000742453 9.1936e-05 -1.89291e-06
9.1936e-05 0.000153018 1.92726e-06
-1.89291e-06 1.92726e-06 6.44195e-07
0.00187317 -4.91998e-05 6.72775e-06
-4.91998e-05 0.000869957 -2.40191e-05
6.72775e-06 -2.40191e-05 0.000676415
0.000802589 4.52141e-05 -2.847e-07
4.52141e-05 0.000137273 8.89198e-07
-2.847e-07 8.89198e-07 1.88435e-05
0.000849174 5.71707e-05 -1.62103e-06
5.71707e-05 0.000308805 -2.37931e-06
-1.62103e-06 -2.37931e-06 0.000129811
-0.000279757 2.91867e-05 2.3342e-05
2.91867e-05 -6.99316e-05 -1.30806e-05
2.3342e-05 -1.30806e-05 -0.000515414
0.000757217 -1.45252e-05 3.08339e-05
-1.45252e-05 0.000402 2.02316e-07
3.08339e-05 2.02316e-07 0.000331547
0.00022159 9.86953e-05 -5.13816e-07
9.86953e-05 -7.74468e-05 -2.33893e-06
-5.13816e-07 -2.33893e-06 -0.000204051
0.000227628 -6.1349e-05 -2.40044e-05
-6.1349e-05 0.000670529 -3.78417e-05
-2.40044e-05 -3.78417e-05 -0.000429513
0.00321434 7.79195e-05 1.34403e-05
7.79195e-05 0.00169351 2.08523e-05
1.34403e-05 2.08523e-05 0.00153305
0.00104496 -1.79536e-05 7.38038e-06
-1.79536e-05 0.000523186 4.58682e-06
7.38038e-06 4.58682e-06 5.67413e-05
0.00137172 -3.06052e-05 3.05604e-07
-3.06052e-05 0.000177405 4.46141e-07
3.05604e-07 4.46141e-07 -9.8353e-05
0.00066263 -2.88217e-05 -5.93603e-06
-2.88217e-05 0.000272347 -9.34728e-06
-5.93603e-06 -9.34728e-06 -7.28752e-05
6.63954e-06 0.000101846 9.33233e-06
0.000101846 0.000112253 6.61262e-06
9.33233e-06 6.61262e-06 -5.09224e-05
-0.000200258 0.000213718 1.60569e-05
0.000213718 -0.000592308 3.40772e-05
1.60569e-05 3.40772e-05 -0.000707083
0.00142459 -2.3316e-05 1.14911e-05
-2.3316e-05 -0.000141865 6.46723e-07
1.14911e-05 6.46723e-07 -7.51948e-05
0.00390305 -0.000797416 0.000132692
-0.000797416 0.00351469 -0.000127753
0.000132692 -0.000127753 -0.000929514
0.00681958 0.00125478 -5.50711e-05
0.00125478 0.00335947 3.32596e-05
-5.50711e-05 3.32596e-05 0.00194274
0.00281445 -7.70967e-05 -1.56796e-05
-7.70967e-05 0.00163106 6.44576e-05
-1.56796e-05 6.44576e-05 0.000522809
0.00445197 0.00108848 -1.37253e-05
0.00108848 -0.000243437 -3.18164e-05
-1.37253e-05 -3.18164e-05 0.000437205
-0.000284396 9.58212e-05 7.08815e-06
9.58212e-05 0.00025615 5.93922e-06
7.08815e-06 5.93922e-06 -0.000166744
0.0012563 1.96551e-05 2.53153e-06
1.96551e-05 0.000441747 1.14862e-06
2.53153e-06 1.14862e-06 0.000208862
0.00322683 -0.000214402 5.53191e-05
-0.000214402 0.00090487 -5.54644e-06
5.53191e-05 -5.54644e-06 -0.000961703
0.00032023 -0.000116062 8.69759e-07
-0.000116062 -0.000724999 2.42112e-05
8.69759e-07 2.42112e-05 -0.000605288
-0.00165253 0.00147203 8.12512e-05
0.00147203 -0.000598734 -3.36645e-05
8.12512e-05 -3.36645e-05 0.000830369
0.00581328 0.000757023 -3.87326e-05
0.000757023 0.000215464 8.04633e-05
-3.87326e-05 8.04633e-05 0.000299967
-0.00224853 -0.00074793 6.12503e-05
-0.00074793 5.01315e-05 -5.56146e-05
6.12503e-05 -5.56146e-05 -0.00431745
0.00116718 -6.99459e-05 4.25894e-05
-6.99459e-05 0.000572546 -1.1703e-05
4.25894e-05 -1.1703e-05 0.000404771
0.000925654 -8.34901e-05 5.88851e-05
-8.34901e-05 -8.65264e-05 -2.38057e-05
5.88851e-05 -2.38057e-05 -0.00118198
-0.00183331 0.000176321 -0.000171972
0.000176321 0.000995767 -1.65881e-05
-0.000171972 -1.65881e-05 -4.06881e-05
0.00168794 0.00131604 -0.000112589
0.00131604 -0.000152899 0.000176808
-0.000112589 0.000176808 0.000315206
0.00783398 -0.000469964 2.37701e-05
-0.000469964 0.00359723 -2.00012e-05
2.37701e-05 -2.00012e-05 0.000555181
0.00364048 -0.00037328 -5.99748e-05
-0.00037328 0.000940315 6.09612e-05
-5.99748e-05 6.09612e-05 0.000630097
-0.00117737 1.137e-05 8.87259e-06
1.137e-05 -0.000545303 1.44415e-05
8.87259e-06 1.44415e-05 -0.000707687
0.000227854 -0.000166015 -8.25422e-06
-0.000166015 0.000263163 8.73503e-07
-8.25422e-06 8.73503e-07 2.21343e-05
0.000711965 -0.000240034 2.2267e-05
-0.000240034 0.000234941 -6.82361e-06
2.2267e-05 -6.82361e-06 8.49756e-05
-0.000780686 -0.000109259 -3.30445e-06
-0.000109259 -0.000480011 6.85334e-06
-3.30445e-06 6.85334e-06 -0.000620737
-0.000567509 -0.000129228 1.55539e-06
-0.000129228 -0.000393903 -3.77002e-06
1.55539e-06 -3.77002e-06 -0.000671223
0.00265529 -0.000445653 2.60173e-05
-0.000445653 0.000951225 -5.44962e-06
2.60173e-05 -5.44962e-06 0.000684434
0.00319565 -0.000421284 -6.37299e-06
-0.000421284 0.00144041 2.2922e-06
-6.37299e-06 2.2922e-06 0.00120812
0.00187717 -0.000320956 3.58657e-06
-0.000320956 0.000727436 8.18071e-07
3.58657e-06 8.18071e-07 0.000391743
0.00111839 -0.000315824 7.58161e-06
-0.000315824 0.000132179 -4.33778e-06
7.58161e-06 -4.33778e-06 -0.000201373
0.00147272 -0.000264824 -5.50617e-06
-0.000264824 0.000399494 9.56175e-07
-5.50617e-06 9.56175e-07 0.000160896
0.00226276 -0.000385739 2.51977e-06
-0.000385739 0.000730575 -8.6021e-08
2.51977e-06 -8.6021e-08 0.000429216
0.00207115 -0.000390783 2.05693e-06
-0.000390783 0.000521406 -4.96665e-06
2.05693e-06 -4.96665e-06 0.000223729
0.0017647 -0.000336888 4.73832e-07
-0.000336888 0.000278342 -3.27154e-06
4.73832e-07 -3.27154e-06 5.13487e-05
0.00237076 -0.000386938 -5.38984e-06
-0.000386938 0.000699063 5.33464e-06
-5.38984e-06 5.33464e-06 0.000441246
0.00180927 -0.000355255 -1.44473e-06
-0.000355255 0.000373944 -4.48005e-07
-1.44473e-06 -4.48005e-07 0.000104053
0.000286414 -0.000162776 5.1178e-06
-0.000162776 -0.000314892 4.68523e-07
5.1178e-06 4.68523e-07 -0.000496394
0.00101634 -0.000232717 3.04722e-06
-0.000232717 7.52078e-05 -1.55978e-07
3.04722e-06 -1.55978e-07 -0.00012857
0.0013568 -0.000277891 -1.8916e-06
-0.000277891 0.00024538 -1.9606e-06
-1.8916e-06 -1.9606e-06 3.5012e-06
0.00115597 -0.000201583 2.15074e-06
-0.000201583 0.000300501 3.97133e-07
2.15074e-06 3.97133e-07 0.000112825
0.00130831 -0.00022442 -2.14532e-06
-0.00022442 0.000359035 -1.61764e-06
-2.14532e-06 -1.61764e-06 0.000173179
0.000677618 -0.000177955 4.73839e-06
-0.000177955 -2.08431e-05 -2.9505e-06
4.73839e-06 -2.9505e-06 -0.00018708
0.000685569 -3.39366e-05 2.14169e-06
-3.39366e-05 7.31433e-05 1.56205e-06
2.14169e-06 1.56205e-06 -5.86485e-05
0.00055378 -7.89441e-05 2.34796e-08
-7.89441e-05 9.31784e-06 8.29106e-07
2.34796e-08 8.29106e-07 -0.000145205
0.00130005 -0.000205223 2.57756e-06
-0.000205223 0.000435126 -2.75086e-06
2.57756e-06 -2.75086e-06 0.000249471
0.000575214 4.7587e-05 -7.57476e-08
4.7587e-05 -1.33359e-05 2.59807e-06
-7.57476e-08 2.59807e-06 -8.33477e-05
0.000732496 -5.38741e-06 -4.1781e-07
-5.38741e-06 9.25108e-05 -5.05155e-07
-4.1781e-07 -5.05155e-07 -1.53008e-05
0.00109169 -9.87259e-05 -4.67258e-07
-9.87259e-05 0.00031764 -6.61985e-07
-4.67258e-07 -6.61985e-07 0.000183797
0.000549402 5.90019e-05 -1.53642e-06
5.90019e-05 -3.71511e-05 5.77122e-06
-1.53642e-06 5.77122e-06 -6.10289e-05
0.00065644 3.06201e-05 -2.81406e-07
3.06201e-05 2.06248e-05 -2.35022e-07
-2.81406e-07 -2.35022e-07 -3.68337e-05
0.0008047 -1.99498e-05 -1.43296e-07
-1.99498e-05 0.000122929 -1.35638e-06
-1.43296e-07 -1.35638e-06 3.36856e-05
0.00067747 1.86827e-05 1.52415e-06
1.86827e-05 2.66553e-05 -1.98188e-06
1.52415e-06 -1.98188e-06 -2.52054e-05
0.000586946 5.2968e-05 3.5251e-08
5.2968e-05 -2.48301e-05 -6.03699e-09
3.5251e-08 -6.03699e-09 -4.55052e-05
0.00228288 8.58462e-05 -2.64632e-05
8.58462e-05 0.000973658 3.42014e-06
-2.64632e-05 3.42014e-06 0.000981161
0.000598422 4.56629e-05 6.55146e-07
4.56629e-05 -2.75451e-05 -3.98124e-06
6.55146e-07 -3.98124e-06 -4.50704e-05
0.00227626 7.54104e-05 2.33588e-06
7.54104e-05 0.00096228 1.85127e-07
2.33588e-06 1.85127e-07 0.00097219
0.00228002 6.47616e-05 1.97872e-05
6.47616e-05 0.000957744 -3.96504e-06
1.97872e-05 -3.96504e-06 0.000969687
0.000738469 3.66008e-05 -5.28587e-07
3.66008e-05 8.75189e-05 -8.9685e-07
-5.28587e-07 -8.9685e-07 -1.99312e-05
0.000776088 6.78362e-05 -5.77091e-07
6.78362e-05 0.00011018 -1.4569e-06
-5.77091e-07 -1.4569e-06 1.01435e-05
0.000665128 3.49735e-06 -8.7991e-07
3.49735e-06 1.27545e-05 -2.55092e-06
-8.7991e-07 -2.55092e-06 -4.46608e-05
0.000736106 6.1834e-05 -8.75199e-08
6.1834e-05 7.77539e-05 1.90895e-08
-8.75199e-08 1.90895e-08 -1.23884e-05
0.000593242 -3.06241e-05 7.25607e-08
-3.06241e-05 -3.93053e-05 -4.61358e-06
7.25607e-08 -4.61358e-06 -5.68024e-05
0.000662986 1.1298e-05 -1.17804e-07
1.1298e-05 1.28167e-05 -6.72058e-08
-1.17804e-07 -6.72058e-08 -4.06263e-05
0.000699808 3.5286e-05 -8.21633e-07
3.5286e-05 5.46497e-05 7.60025e-07
-8.21633e-07 7.60025e-07 -3.02931e-05
0.00232985 -4.98567e-05 -1.86918e-05
-4.98567e-05 0.000976173 -4.62137e-06
-1.86918e-05 -4.62137e-06 0.000990577
0.000607689 -2.30875e-05 -1.95636e-07
-2.30875e-05 -3.57382e-05 -4.83548e-08
-1.95636e-07 -4.83548e-08 -4.94298e-05
0.000635171 1.51045e-05 -5.57801e-07
1.51045e-05 -2.2859e-06 1.52192e-06
-5.57801e-07 1.52192e-06 -5.1735e-05
0.00222167 -3.5613e-05 -3.59266e-06
-3.5613e-05 0.000908641 1.25398e-07
-3.59266e-06 1.25398e-07 0.000925511
0.000613676 -1.62475e-05 -1.07885e-07
-1.62475e-05 -3.52645e-05 3.88407e-06
-1.07885e-07 3.88407e-06 -4.5756e-05
0.00213225 -2.17043e-05 9.65164e-06
-2.17043e-05 0.000853485 4.71605e-06
9.65164e-06 4.71605e-06 0.000872202
0.000901591 -7.03812e-05 3.93608e-06
-7.03812e-05 0.000130211 2.07702e-05
3.93608e-06 2.07702e-05 -6.83178e-05
0.00155668 -4.54489e-05 -1.03932e-05
-4.54489e-05 -6.38872e-05 1.63899e-05
-1.03932e-05 1.63899e-05 -5.76943e-05
0.00126292 -1.43367e-05 5.85614e-07
-1.43367e-05 0.000353771 -1.22187e-05
5.85614e-07 -1.22187e-05 0.000199491
0.000747055 3.67691e-05 -1.60526e-07
3.67691e-05 8.37373e-05 -2.94357e-08
-1.60526e-07 -2.94357e-08 -1.88305e-05
0.000727886 1.36628e-05 2.31741e-07
1.36628e-05 6.72841e-05 8.51213e-08
2.31741e-07 8.51213e-08 -3.39524e-05
0.000624951 1.69976e-05 -2.35629e-06
1.69976e-05 9.02762e-06 -1.90038e-06
-2.35629e-06 -1.90038e-06 -9.29824e-05
0.00055029 -7.21209e-06 -8.70844e-07
-7.21209e-06 -3.42603e-05 -9.98502e-07
-8.70844e-07 -9.98502e-07 -0.000134364
0.0010296 9.94786e-05 -1.67222e-06
9.94786e-05 0.000255338 -9.81901e-07
-1.67222e-06 -9.81901e-07 0.000135695
0.000694531 7.21601e-06 -5.80978e-08
7.21601e-06 3.77756e-05 3.29843e-07
-5.80978e-08 3.29843e-07 -5.44273e-05
0.000684003 2.97804e-05 6.61566e-07
2.97804e-05 4.3532e-05 -3.66366e-07
6.61566e-07 -3.66366e-07 -6.22092e-05
0.000764531 4.33667e-05 -1.06566e-07
4.33667e-05 9.29746e-05 -5.57805e-08
-1.06566e-07 -5.57805e-08 -1.28501e-05
0.000867403 7.64729e-05 5.03611e-07
7.64729e-05 0.000154716 4.58276e-07
5.03611e-07 4.58276e-07 3.86746e-05
0.000972104 5.02646e-05 -1.19644e-06
5.02646e-05 0.000228092 -6.16948e-07
-1.19644e-06 -6.16948e-07 0.000114374
0.00224286 9.84185e-05 0.000108489
9.84185e-05 0.000986399 0.000162897
0.000108489 0.000162897 -0.000918514
0.000835331 6.28143e-05 1.06216e-05
6.28143e-05 0.000232895 4.23959e-05
1.06216e-05 4.23959e-05 -0.00112422
0.0026358 -1.7231e-05 -1.3892e-05
-1.7231e-05 0.000961444 -1.66708e-05
-1.3892e-05 -1.66708e-05 0.000321442
0.00758183 -0.000734281 -5.8412e-05
-0.000734281 0.00100631 -6.68486e-05
-5.8412e-05 -6.68486e-05 0.0023385
-0.0105907 0.000504218 -4.36891e-05
0.000504218 -0.0035642 0.000189011
-4.36891e-05 0.000189011 -0.00541191
0.00530737 -0.000910104 -0.000100744
-0.000910104 0.00185772 5.1526e-05
-0.000100744 5.1526e-05 0.00112485
0.00971217 -0.000552446 -4.7159e-05
-0.000552446 0.00395383 -2.30242e-05
-4.7159e-05 -2.30242e-05 0.000911344
0.00259908 -0.000123725 -2.17525e-05
-0.000123725 0.000313516 5.20357e-05
-2.17525e-05 5.20357e-05 -2.13224e-05
0.0110874 -0.000163657 2.77181e-05
-0.000163657 0.00524952 -1.5489e-05
2.77181e-05 -1.5489e-05 0.00160457
0.00162465 -0.000718987 4.54832e-05
-0.000718987 6.84978e-06 4.30694e-05
4.54832e-05 4.30694e-05 -0.000982712
0.00257117 -0.000931657 -9.47967e-05
-0.000931657 -0.00186278 -0.000207373
-9.47967e-05 -0.000207373 -0.000420852
0.00348542 0.000165455 -8.65804e-05
0.000165455 0.000621989 1.8886e-05
-8.65804e-05 1.8886e-05 0.000155884
0.00906523 0.000569769 -2.96392e-06
0.000569769 0.00403532 2.49616e-05
-2.96392e-06 2.49616e-05 0.00117658
0.00979618 -0.00148764 -4.45209e-06
-0.00148764 0.00305989 -0.000160504
-4.45209e-06 -0.000160504 0.00305583
0.00539335 -0.00144923 4.77531e-05
-0.00144923 0.000845742 5.27912e-06
4.77531e-05 5.27912e-06 0.00237662
0.000291299 4.7481e-05 -6.50796e-07
4.7481e-05 -0.000100471 4.27634e-08
-6.50796e-07 4.27634e-08 -0.00019368
0.000908479 2.84574e-06 5.67064e-08
2.84574e-06 0.000191484 9.61175e-07
5.67064e-08 9.61175e-07 7.84324e-05
0.000708771 3.69128e-05 6.37287e-08
3.69128e-05 7.32736e-05 5.03827e-07
6.37287e-08 5.03827e-07 -5.29113e-05
0.00100108 1.31217e-05 -3.87157e-05
1.31217e-05 0.000549223 1.53229e-05
-3.87157e-05 1.53229e-05 -3.90649e-06
0.000940231 -4.68834e-05 -7.07278e-05
-4.68834e-05 0.000534777 -3.02216e-05
-7.07278e-05 -3.02216e-05 0.000478553
0.000625332 -5.6717e-06 -1.28232e-06
-5.6717e-06 3.71626e-05 3.1305e-06
-1.28232e-06 3.1305e-06 -8.23015e-05
-0.00053749 4.89257e-05 -9.36412e-07
4.89257e-05 -0.000451552 -4.38255e-06
-9.36412e-07 -4.38255e-06 -0.000642848
0.000629404 7.60888e-05 -1.67443e-07
7.60888e-05 0.00016014 -2.75008e-06
-1.67443e-07 -2.75008e-06 2.22984e-05
0.000584187 6.91897e-05 -4.15525e-06
6.91897e-05 0.000288894 4.29044e-06
-4.15525e-06 4.29044e-06 0.000113208
-0.000227254 -1.40937e-05 9.62249e-05
-1.40937e-05 0.000606661 -3.80016e-05
9.62249e-05 -3.80016e-05 -0.000502668
-0.00228673 -8.15892e-06 -2.12668e-05
-8.15892e-06 -0.00128806 1.16075e-05
-2.12668e-05 1.16075e-05 -0.00142185
0.0020083 0.000219855 -1.78239e-05
0.000219855 0.0011293 -3.58871e-05
-1.78239e-05 -3.58871e-05 0.000424501
0.00181191 -5.39293e-06 6.07072e-05
-5.39293e-06 0.000701949 7.44891e-06
6.07072e-05 7.44891e-06 -0.000438123
0.000862207 -2.04552e-05 1.59598e-05
-2.04552e-05 0.000396098 6.99174e-06
1.59598e-05 6.99174e-06 8.79362e-06
0.00164144 -3.72692e-05 -2.36685e-06
-3.72692e-05 0.000373768 -6.39512e-07
-2.36685e-06 -6.39512e-07 0.000221838
-0.00258994 0.000106484 3.00519e-05
0.000106484 -0.000917919 9.98272e-06
3.00519e-05 9.98272e-06 -0.00146316
0.00328711 8.0102e-05 -1.66e-05
8.0102e-05 0.000811876 -1.43657e-05
-1.66e-05 -1.43657e-05 0.000408536
0.00130479 2.91194e-06 2.15109e-06
2.91194e-06 0.000368077 8.74337e-06
2.15109e-06 8.74337e-06 0.000228797
0.0153448 -0.00100195 0.000107006
-0.00100195 0.00677626 -2.00547e-05
0.000107006 -2.00547e-05 0.00329447
0.00846444 0.0010856 -6.35099e-05
0.0010856 0.00264451 -3.22572e-05
-6.35099e-05 -3.22572e-05 0.00226313
0.00355701 -0.000248136 -4.81079e-05
-0.000248136 0.00117996 9.85749e-05
-4.81079e-05 9.85749e-05 -0.000818217
-0.00708289 0.00162759 0.000384233
0.00162759 -0.00374909 -0.000298258
0.000384233 -0.000298258 -0.001817
0.000649008 -7.78929e-05 -4.35586e-06
-7.78929e-05 0.000439794 -6.92945e-07
-4.35586e-06 -6.92945e-07 0.000207493
0.00136937 -7.13622e-05 -9.02834e-06
-7.13622e-05 0.000176396 6.08134e-06
-9.02834e-06 6.08134e-06 -0.000946108
-0.00252979 0.000220826 -0.000229659
0.000220826 0.00106747 0.000102307
-0.000229659 0.000102307 0.000151361
0.001892 -0.000298613 -2.19768e-05
-0.000298613 0.000112817 3.08699e-05
-2.19768e-05 3.08699e-05 -0.000157414
0.00908348 0.0015224 5.21425e-05
0.0015224 0.00295954 5.44757e-05
5.21425e-05 5.44757e-05 0.00351028
0.00751058 -0.000940079 6.76119e-05
-0.000940079 0.00313795 -4.32482e-05
6.76119e-05 -4.32482e-05 0.000369574
0.0014014 -0.000240534 1.03779e-05
-0.000240534 0.000343307 2.5334e-05
1.03779e-05 2.5334e-05 0.00045826
-0.0031657 -0.000154868 2.06925e-05
-0.000154868 0.000740948 -1.27961e-05
2.06925e-05 -1.27961e-05 -0.000830387
0.00735253 0.00134833 -0.000233432
0.00134833 0.00359909 0.000107583
-0.000233432 0.000107583 0.00360785
0.00245013 -0.00047656 -0.000146503
-0.00047656 4.27604e-05 0.00010026
-0.000146503 0.00010026 -0.00278419
0.00246377 -0.0007944 6.00406e-05
-0.0007944 0.000348829 -1.99648e-05
6.00406e-05 -1.99648e-05 -6.87105e-05
-0.00105529 -9.5044e-05 -7.98428e-06
-9.5044e-05 -0.000401009 1.24936e-05
-7.98428e-06 1.24936e-05 -0.000647179
0.000388339 -0.000219256 -5.14738e-06
-0.000219256 9.67711e-05 3.32481e-06
-5.14738e-06 3.32481e-06 -0.00010924
0.00399121 -0.000518989 3.06084e-05
-0.000518989 0.00155056 3.52944e-06
3.06084e-05 3.52944e-06 0.00146462
-0.00229774 -2.29778e-05 -6.12172e-06
-2.29778e-05 -0.00129473 8.02732e-06
-6.12172e-06 8.02732e-06 -0.00157262
0.000735724 -0.000278491 2.89665e-06
-0.000278491 -1.03619e-05 3.2455e-07
2.89665e-06 3.2455e-07 -0.000283343
0.00177349 -0.000433203 5.67679e-06
-0.000433203 0.000240078 3.91473e-08
5.67679e-06 3.91473e-08 2.24357e-05
0.00244369 -0.000362639 -8.80974e-06
-0.000362639 0.000988086 2.36855e-06
-8.80974e-06 2.36855e-06 0.000672561
0.00125678 -0.000322546 -2.46412e-06
-0.000322546 0.000184819 -2.84498e-06
-2.46412e-06 -2.84498e-06 -0.000129761
0.00209609 -0.000438101 5.29423e-06
-0.000438101 0.000417417 -3.80607e-06
5.29423e-06 -3.80607e-06 0.000174484
0.00190899 -0.000358216 -3.5374e-06
-0.000358216 0.000519391 -1.35742e-06
-3.5374e-06 -1.35742e-06 0.00022002
0.0015585 -0.000349002 -1.95587e-07
-0.000349002 0.000226019 -3.42106e-06
-1.95587e-07 -3.42106e-06 -6.06303e-05
0.00186933 -0.000363063 3.60795e-07
-0.000363063 0.000269293 -6.09035e-06
3.60795e-07 -6.09035e-06 5.1022e-05
0.00162957 -0.000287073 -1.00107e-06
-0.000287073 0.000129558 -3.25709e-06
-1.00107e-06 -3.25709e-06 -5.21147e-05
0.00155686 -0.000319 2.10644e-06
-0.000319 0.00017335 -1.5514e-06
2.10644e-06 -1.5514e-06 -6.23292e-05
0.00162296 -0.000326028 1.66135e-06
-0.000326028 0.000202679 -1.27047e-06
1.66135e-06 -1.27047e-06 -2.21326e-05
0.00166494 -0.000297584 -1.71851e-06
-0.000297584 0.000337667 5.12893e-06
-1.71851e-06 5.12893e-06 0.000116105
0.0019674 -0.000356087 -1.40694e-06
-0.000356087 0.000476781 1.90149e-07
-1.40694e-06 1.90149e-07 0.000218708
0.00176373 -0.000353157 -6.00417e-07
-0.000353157 0.00034925 -2.3255e-06
-6.00417e-07 -2.3255e-06 7.53348e-05
0.00107939 -0.000211527 2.86501e-06
-0.000211527 0.000188955 -9.93657e-08
2.86501e-06 -9.93657e-08 8.70095e-07
0.000570618 -0.000182912 -1.09691e-06
-0.000182912 -0.0001482 -1.9135e-06
-1.09691e-06 -1.9135e-06 -0.000327395
0.00147451 -0.000267691 6.64025e-06
-0.000267691 0.00033522 -6.50497e-06
6.64025e-06 -6.50497e-06 0.000134187
0.000848944 -0.000135707 -2.07222e-08
-0.000135707 0.000140161 2.96411e-07
-2.07222e-08 2.96411e-07 -1.6986e-05
0.000877381 -0.000172164 2.12357e-07
-0.000172164 0.00014258 1.26747e-07
2.12357e-07 1.26747e-07 -3.9276e-05
0.000866221 -0.000184526 -1.67851e-06
-0.000184526 0.000103429 6.15951e-07
-1.67851e-06 6.15951e-07 -7.64837e-05
0.000537825 4.85324e-05 1.18916e-06
4.85324e-05 -2.52672e-05 4.01239e-06
1.18916e-06 4.01239e-06 -0.000114891
0.000784325 -5.4545e-05 8.17339e-07
-5.4545e-05 0.000134607 3.54379e-07
8.17339e-07 3.54379e-07 -4.377e-06
0.000912825 -0.00011722 -1.89884e-06
-0.00011722 0.000222576 6.69318e-07
-1.89884e-06 6.69318e-07 6.29677e-05
0.00134414 9.47753e-05 -1.36675e-05
9.47753e-05 0.000441137 3.8475e-06
-1.36675e-05 3.8475e-06 0.000413178
0.000651147 2.4976e-05 -5.32447e-07
2.4976e-05 2.59069e-05 -5.79213e-07
-5.32447e-07 -5.79213e-07 -4.31663e-05
0.000838376 -4.11498e-05 -1.21259e-06
-4.11498e-05 0.000156226 -1.87414e-06
-1.21259e-06 -1.87414e-06 4.28002e-05
0.00075897 4.64288e-05 -2.65198e-05
4.64288e-05 9.26148e-05 3.39783e-06
-2.65198e-05 3.39783e-06 9.29217e-05
0.000985813 7.45447e-05 -7.73311e-06
7.45447e-05 0.000219455 1.40429e-07
-7.73311e-06 1.40429e-07 0.000195833
0.000680665 2.63763e-05 8.4316e-07
2.63763e-05 3.31395e-05 -2.38516e-06
8.4316e-07 -2.38516e-06 -2.41379e-05
0.000593111 5.57233e-05 2.43341e-07
5.57233e-05 -2.00644e-05 -4.25014e-06
2.43341e-07 -4.25014e-06 -4.13376e-05
0.0023208 8.77611e-05 2.47914e-06
8.77611e-05 0.00099659 2.17287e-07
2.47914e-06 2.17287e-07 0.00100366
0.00229431 7.69881e-05 2.32186e-05
7.69881e-05 0.000973731 -3.65086e-06
2.32186e-05 -3.65086e-06 0.000983302
0.000687609 2.98384e-05 -4.60455e-07
2.98384e-05 4.86296e-05 -8.3292e-07
-4.60455e-07 -8.3292e-07 -5.46499e-05
0.000790099 5.22022e-05 -3.98298e-07
5.22022e-05 0.000116416 -1.83611e-06
-3.98298e-07 -1.83611e-06 1.46032e-05
0.000701082 2.23809e-05 5.53061e-08
2.23809e-05 5.55494e-05 2.4985e-08
5.53061e-08 2.4985e-08 -4.44266e-05
0.00066958 -7.88139e-06 -1.11194e-06
-7.88139e-06 1.66109e-05 -2.73981e-06
-1.11194e-06 -2.73981e-06 -4.4463e-05
0.000742097 4.23627e-05 6.56234e-07
4.23627e-05 8.04705e-05 1.7981e-08
6.56234e-07 1.7981e-08 -1.18671e-05
0.000580315 -3.62598e-05 -2.11987e-07
-3.62598e-05 -4.09812e-05 -4.91147e-06
-2.11987e-07 -4.91147e-06 -6.21416e-05
0.000657296 6.84334e-06 -1.309e-07
6.84334e-06 9.44898e-06 -5.84361e-08
-1.309e-07 -5.84361e-08 -4.83562e-05
0.000759387 5.70083e-05 5.65468e-07
5.70083e-05 0.000104697 1.63116e-06
5.65468e-07 1.63116e-06 5.07257e-06
0.00244574 -6.30293e-05 -2.4358e-05
-6.30293e-05 0.00104878 -4.43029e-06
-2.4358e-05 -4.43029e-06 0.00106065
0.00059306 -2.97761e-05 -3.56574e-07
-2.97761e-05 -3.97192e-05 -3.33622e-08
-3.56574e-07 -3.33622e-08 -5.70039e-05
0.000654034 1.19306e-05 5.76036e-07
1.19306e-05 8.11394e-06 2.62111e-06
5.76036e-07 2.62111e-06 -4.5336e-05
0.00231487 -4.87669e-05 -3.47959e-06
-4.87669e-05 0.000966834 1.67524e-07
-3.47959e-06 1.67524e-07 0.000981564
0.000605072 -2.27661e-05 -7.46379e-08
-2.27661e-05 -3.71957e-05 4.15991e-06
-7.46379e-08 4.15991e-06 -5.07692e-05
0.00220958 -3.43911e-05 1.38898e-05
-3.43911e-05 0.000901059 4.66782e-06
1.38898e-05 4.66782e-06 0.000918201
0.0032086 -5.10335e-06 6.73353e-05
-5.10335e-06 0.00119916 2.96724e-05
6.73353e-05 2.96724e-05 0.000322516
0.000900566 -6.74006e-05 3.34799e-07
-6.74006e-05 0.000159874 8.59168e-06
3.34799e-07 8.59168e-06 -4.22337e-05
0.00143899 -5.58784e-05 -1.39375e-05
-5.58784e-05 -0.000123122 -1.67986e-06
-1.39375e-05 -1.67986e-06 -7.79651e-05
0.000761399 9.03693e-05 -3.50454e-06
9.03693e-05 9.16209e-05 -1.96825e-07
-3.50454e-06 -1.96825e-07 -2.09066e-05
0.000818264 3.94865e-05 4.23627e-07
3.94865e-05 0.000121481 6.40751e-07
4.23627e-07 6.40751e-07 2.1381e-05
0.000628529 7.6324e-06 9.08394e-07
7.6324e-06 9.98359e-06 8.84715e-07
9.08394e-07 8.84715e-07 -8.97957e-05
0.000807452 1.23959e-05 3.50883e-08
1.23959e-05 0.000108811 -9.47066e-08
3.50883e-08 -9.47066e-08 1.00311e-05
0.000897611 5.2641e-05 -2.55554e-07
5.2641e-05 0.00016792 -8.45521e-08
-2.55554e-07 -8.45521e-08 6.11337e-05
0.000826433 7.62608e-05 4.6476e-07
7.62608e-05 0.000137435 7.27679e-07
4.6476e-07 7.27679e-07 2.2678e-05
0.00079239 6.37183e-05 -2.54349e-06
6.37183e-05 0.000112689 -2.71103e-06
-2.54349e-06 -2.71103e-06 -7.19259e-06
0.000376717 4.94822e-06 -1.19738e-06
4.94822e-06 -0.000122463 -1.09912e-06
-1.19738e-06 -1.09912e-06 -0.000229242
0.000825715 9.69318e-05 3.17856e-07
9.69318e-05 0.000134592 4.27031e-08
3.17856e-07 4.27031e-08 2.24639e-05
0.000729532 -1.61851e-06 1.43926e-06
-1.61851e-06 5.55965e-05 1.80523e-07
1.43926e-06 1.80523e-07 -4.3124e-05
0.000793642 4.49644e-05 -4.31368e-07
4.49644e-05 0.000122368 5.37785e-08
-4.31368e-07 5.37785e-08 1.27277e-05
0.00150989 0.000100663 4.03621e-06
0.000100663 0.000572974 4.81379e-06
4.03621e-06 4.81379e-06 0.000465583
0.00106465 -0.000562463 6.21976e-05
-0.000562463 0.00182162 0.000132808
6.21976e-05 0.000132808 0.000817659
0.00284269 0.000143958 1.24699e-05
0.000143958 0.00124869 4.7314e-05
1.24699e-05 4.7314e-05 -0.000695896
0.00124579 8.49372e-05 -1.08309e-05
8.49372e-05 0.000347659 -3.65054e-05
-1.08309e-05 -3.65054e-05 -0.00102867
0.00740089 -0.00122538 -0.000164539
-0.00122538 0.000693275 -0.000130061
-0.000164539 -0.000130061 0.00212968
0.00463002 -0.000365212 2.31616e-05
-0.000365212 0.0007232 0.000158596
2.31616e-05 0.000158596 -0.000104478
0.000459301 -0.000573093 -9.57908e-05
-0.000573093 0.000986893 9.54878e-05
-9.57908e-05 9.54878e-05 -0.0027368
0.0021681 -0.000191475 -5.01476e-05
-0.000191475 0.000373695 7.56609e-05
-5.01476e-05 7.56609e-05 -0.000148651
0.00355786 -0.000100383 1.47644e-05
-0.000100383 0.000706903 4.54645e-05
1.47644e-05 4.54645e-05 0.000434863
-0.000639328 -0.00147887 5.6395e-05
-0.00147887 -0.00139806 7.35085e-05
5.6395e-05 7.35085e-05 0.000319511
0.00521214 0.000592617 6.16716e-06
0.000592617 0.00309748 -4.74587e-06
6.16716e-06 -4.74587e-06 -0.000476727
0.00186134 -0.000794447 -2.17274e-05
-0.000794447 -0.00128878 3.02223e-05
-2.17274e-05 3.02223e-05 -0.00121965
0.00128075 0.0003143 -4.81546e-07
0.0003143 -0.000320268 2.74399e-05
-4.81546e-07 2.74399e-05 -0.000411981
0.00787454 0.000340222 -2.29512e-05
0.000340222 0.00394635 7.89803e-06
-2.29512e-05 7.89803e-06 0.00114456
0.00114417 -0.0012551 -7.74465e-05
-0.0012551 -0.000695619 -0.000107348
-7.74465e-05 -0.000107348 -0.000263353
0.00060866 0.000222674 2.1736e-06
0.000222674 4.53469e-05 -5.72267e-06
2.1736e-06 -5.72267e-06 -6.0328e-05
0.000780424 6.54977e-05 4.97437e-06
6.54977e-05 0.000169118 -3.52849e-07
4.97437e-06 -3.52849e-07 7.56019e-05
0.00110131 2.96524e-05 -1.11026e-07
2.96524e-05 0.000305004 1.60108e-06
-1.11026e-07 1.60108e-06 0.000190803
0.000272718 -5.99165e-06 -0.000146201
-5.99165e-06 0.00084746 -4.26664e-05
-0.000146201 -4.26664e-05 -0.000228845
-0.00162501 8.20445e-05 8.64324e-06
8.20445e-05 -0.000913554 -1.18397e-05
8.64324e-06 -1.18397e-05 -0.00109702
0.000896135 0.000115275 1.03831e-06
0.000115275 0.000314821 -1.60603e-06
1.03831e-06 -1.60603e-06 0.000168898
0.000641672 0.000227202 8.15663e-06
0.000227202 0.000233185 3.26247e-06
8.15663e-06 3.26247e-06 8.79109e-05
0.000641282 0.000210268 -4.46668e-06
0.000210268 0.000348968 -2.95518e-05
-4.46668e-06 -2.95518e-05 -0.000239215
-0.000173567 0.000354046 1.88713e-05
0.000354046 -0.000494474 -1.14241e-06
1.88713e-05 -1.14241e-06 -0.00074127
1.78122e-05 0.000123741 0.000113055
0.000123741 0.00245837 1.04821e-05
0.000113055 1.04821e-05 0.000925113
0.00185756 -2.62791e-05 -4.56882e-06
-2.62791e-05 0.000772683 1.35432e-05
-4.56882e-06 1.35432e-05 -0.000159129
0.000661803 -2.21495e-05 4.56756e-06
-2.21495e-05 0.00028067 9.6185e-06
4.56756e-06 9.6185e-06 -4.34654e-05
0.000703195 -8.35234e-05 -3.05724e-05
-8.35234e-05 0.00057409 9.18882e-06
-3.05724e-05 9.18882e-06 0.000338157
0.000577466 -0.00012554 -3.7825e-05
-0.00012554 -0.00103651 -6.46767e-06
-3.7825e-05 -6.46767e-06 -0.000892846
0.00173419 -6.82041e-05 -7.68027e-05
-6.82041e-05 0.000372994 2.14538e-05
-7.68027e-05 2.14538e-05 -0.000740253
-0.0012799 -0.00097571 4.62508e-05
-0.00097571 -0.000371151 -6.7483e-05
4.62508e-05 -6.7483e-05 -0.0036666
-0.00293581 0.00106476 9.24918e-05
0.00106476 -0.003666 -0.000105844
9.24918e-05 -0.000105844 -0.00294093
0.00162492 0.000567215 -0.000116595
0.000567215 0.00239129 0.000119846
-0.000116595 0.000119846 0.00189985
0.00217202 -0.000107228 -9.10944e-06
-0.000107228 0.000536546 1.41474e-06
-9.10944e-06 1.41474e-06 0.000792212
0.00157419 0.000154847 1.63608e-05
0.000154847 0.00260977 9.52425e-06
1.63608e-05 9.52425e-06 0.00169359
-0.00370387 0.000776723 3.13379e-05
0.000776723 -0.00110233 7.07046e-06
3.13379e-05 7.07046e-06 -0.0020178
0.0037344 -0.000882394 1.40315e-05
-0.000882394 0.00126824 -3.15705e-06
1.40315e-05 -3.15705e-06 0.000434802
0.00987183 -0.000306017 6.89668e-06
-0.000306017 0.00353525 -7.5525e-06
6.89668e-06 -7.5525e-06 0.00168997
0.00191567 -0.000421197 -5.52603e-07
-0.000421197 0.000378227 2.22018e-05
-5.52603e-07 2.22018e-05 0.000469511
-0.00730783 0.000297833 -0.000162069
0.000297833 -0.00346855 -1.72523e-06
-0.000162069 -1.72523e-06 -0.00403335
0.0103296 -0.000109408 -5.51735e-05
-0.000109408 0.00318474 2.07803e-05
-5.51735e-05 2.07803e-05 0.00171973
0.004494 -0.00100433 -1.61775e-06
-0.00100433 0.000366097 -5.37718e-06
-1.61775e-06 -5.37718e-06 -0.000347336
0.000392055 -0.000209099 -2.35443e-05
-0.000209099 0.000137622 1.50333e-05
-2.35443e-05 1.50333e-05 -0.000130659
0.00175457 -0.000374469 -3.00235e-06
-0.000374469 0.000304609 1.08616e-06
-3.00235e-06 1.08616e-06 0.000296454
0.00281222 -0.000425239 1.43844e-05
-0.000425239 0.000673025 -2.49576e-06
1.43844e-05 -2.49576e-06 0.000659413
-0.00120755 -0.000109019 -4.39651e-06
-0.000109019 -0.000985136 2.88049e-07
-4.39651e-06 2.88049e-07 -0.00126896
0.00134172 -0.000393654 -3.65328e-06
-0.000393654 4.03706e-05 -1.20942e-06
-3.65328e-06 -1.20942e-06 -0.000184654
0.00218784 -0.000468427 2.79823e-06
-0.000468427 0.000324923 -4.80297e-07
2.79823e-06 -4.80297e-07 0.000143971
0.00132115 -0.000324756 -1.02576e-05
-0.000324756 0.000202591 -2.45407e-06
-1.02576e-05 -2.45407e-06 -9.59986e-05
0.00152392 -0.000389832 2.93516e-07
-0.000389832 0.000126381 3.61758e-07
2.93516e-07 3.61758e-07 -0.000116627
0.00193843 -0.000378077 -1.22842e-06
-0.000378077 0.000206077 -4.99597e-06
-1.22842e-06 -4.99597e-06 2.97591e-05
0.0010531 -0.000308629 -6.61053e-06
-0.000308629 -6.51509e-05 5.92326e-08
-6.61053e-06 5.92326e-08 -0.000341364
0.00163936 -0.000343958 -4.22662e-07
-0.000343958 0.000138397 3.82395e-07
-4.22662e-07 3.82395e-07 -7.60659e-05
0.0017736 -0.000299568 -8.51574e-07
-0.000299568 0.000124886 -5.42418e-06
-8.51574e-07 -5.42418e-06 -2.46465e-05
0.00158482 -0.000236992 -2.66844e-06
-0.000236992 4.39624e-05 -3.46549e-06
-2.66844e-06 -3.46549e-06 -9.48184e-05
0.00149223 -0.000269902 -8.56305e-07
-0.000269902 8.19368e-05 -2.56591e-06
-8.56305e-07 -2.56591e-06 -0.000109927
0.00155021 -0.000275923 6.55175e-07
-0.000275923 8.6891e-05 1.22906e-06
6.55175e-07 1.22906e-06 -9.12721e-05
0.00124798 -0.000269474 -3.59444e-06
-0.000269474 2.32946e-05 3.47371e-07
-3.59444e-06 3.47371e-07 -0.000190855
0.00157956 -0.000316824 2.07905e-06
-0.000316824 0.000190935 -2.42547e-07
2.07905e-06 -2.42547e-07 -4.09561e-05
0.00149626 -0.000316352 6.78868e-07
-0.000316352 0.000134795 2.12165e-06
6.78868e-07 2.12165e-06 -8.79139e-05
0.00126937 -0.000240552 4.5527e-07
-0.000240552 0.00019604 3.35978e-06
4.5527e-07 3.35978e-06 -2.98914e-06
0.00123096 -0.00026451 2.80882e-06
-0.00026451 9.76768e-05 -1.09343e-06
2.80882e-06 -1.09343e-06 -0.000119684
0.00140089 -0.000311591 -6.83942e-07
-0.000311591 0.000163406 -3.131e-06
-6.83942e-07 -3.131e-06 -9.38836e-05
0.000967253 -0.000179101 -1.15943e-06
-0.000179101 0.000149855 1.21427e-06
-1.15943e-06 1.21427e-06 -1.95901e-05
0.00111502 -0.000213161 1.1948e-07
-0.000213161 0.000203336 -1.04187e-06
1.1948e-07 -1.04187e-06 1.58434e-05
0.000875909 -0.000204405 -1.56117e-06
-0.000204405 3.01961e-05 -5.66571e-06
-1.56117e-06 -5.66571e-06 -0.000147502
0.000677072 -4.81252e-05 -5.68335e-07
-4.81252e-05 4.19652e-05 4.4514e-06
-5.68335e-07 4.4514e-06 -7.08931e-05
0.000935854 -0.000134419 5.13889e-07
-0.000134419 0.000188998 2.60832e-07
5.13889e-07 2.60832e-07 3.06763e-05
0.000582107 -0.000139801 -2.42842e-06
-0.000139801 -2.59445e-05 8.93218e-07
-2.42842e-06 8.93218e-07 -0.000201221
0.000451932 7.14516e-05 2.58517e-06
7.14516e-05 -6.93646e-05 6.71899e-06
2.58517e-06 6.71899e-06 -0.000109919
0.000682782 -1.60423e-05 -4.65041e-07
-1.60423e-05 5.51738e-05 -4.44439e-07
-4.65041e-07 -4.44439e-07 -3.75267e-05
0.000932162 -8.11341e-05 3.15185e-07
-8.11341e-05 0.000222521 -1.52783e-06
3.15185e-07 -1.52783e-06 7.69058e-05
0.00243535 0.00012104 -8.39875e-06
0.00012104 0.00107982 1.44242e-06
-8.39875e-06 1.44242e-06 0.00107811
0.000564191 7.21461e-05 -3.25953e-07
7.21461e-05 -1.36603e-05 -2.1596e-07
-3.25953e-07 -2.1596e-07 -4.54025e-05
0.000718677 4.47063e-06 1.64657e-06
4.47063e-06 6.23801e-05 -3.46366e-06
1.64657e-06 -3.46366e-06 -7.13748e-06
0.00238082 9.87695e-05 2.56819e-06
9.87695e-05 0.00103913 2.21106e-07
2.56819e-06 2.21106e-07 0.00104356
0.000590136 6.72523e-05 -1.13081e-06
6.72523e-05 -8.99688e-06 -4.77395e-06
-1.13081e-06 -4.77395e-06 -3.53667e-05
0.00237389 8.97726e-05 2.78758e-05
8.97726e-05 0.00102829 -3.21859e-06
2.78758e-05 -3.21859e-06 0.00103492
0.000875462 9.22648e-05 -8.58966e-07
9.22648e-05 0.000157115 5.21254e-07
-8.58966e-07 5.21254e-07 4.26679e-05
0.000768854 4.27723e-05 -1.30447e-07
4.27723e-05 9.69172e-05 -2.44703e-07
-1.30447e-07 -2.44703e-07 -8.87873e-06
0.000794146 3.31613e-05 -3.89338e-07
3.31613e-05 0.000125062 -2.20263e-06
-3.89338e-07 -2.20263e-06 1.45913e-05
0.000674425 -1.25627e-05 -1.26118e-06
-1.25627e-05 2.32894e-05 -3.14911e-06
-1.26118e-06 -3.14911e-06 -4.18718e-05
0.000732209 2.3542e-05 4.81124e-07
2.3542e-05 7.90343e-05 9.78245e-08
4.81124e-07 9.78245e-08 -1.88662e-05
0.000663563 3.19603e-05 1.1326e-06
3.19603e-05 3.9366e-05 1.11645e-06
1.1326e-06 1.11645e-06 -6.44066e-05
0.00057642 -4.29888e-05 -4.16172e-07
-4.29888e-05 -3.65923e-05 -5.26887e-06
-4.16172e-07 -5.26887e-06 -6.12816e-05
0.000656148 -1.28545e-06 -5.56637e-08
-1.28545e-06 1.01611e-05 -6.00384e-08
-5.56637e-08 -6.00384e-08 -5.13443e-05
0.000729954 3.95687e-05 1.35457e-06
3.95687e-05 7.00887e-05 1.46426e-06
1.35457e-06 1.46426e-06 -1.93128e-05
0.00254667 -7.57049e-05 -3.05985e-05
-7.57049e-05 0.00111341 -4.13119e-06
-3.05985e-05 -4.13119e-06 0.00112273
0.000577001 -3.60617e-05 -3.70869e-07
-3.60617e-05 -4.32079e-05 -1.85005e-08
-3.70869e-07 -1.85005e-08 -6.42113e-05
0.000658713 9.25973e-06 9.53615e-07
9.25973e-06 1.09864e-05 2.69497e-06
9.53615e-07 2.69497e-06 -4.69635e-05
0.00241562 -6.19542e-05 -3.90571e-06
-6.19542e-05 0.00103058 2.1779e-07
-3.90571e-06 2.1779e-07 0.0010428
0.000592753 -2.90776e-05 -1.41191e-07
-2.90776e-05 -4.00753e-05 4.50894e-06
-1.41191e-07 4.50894e-06 -5.71781e-05
0.0022901 -4.73925e-05 1.81976e-05
-4.73925e-05 0.000951779 4.5642e-06
1.81976e-05 4.5642e-06 0.000966889
-0.00434337 3.77639e-05 -6.77882e-06
3.77639e-05 0.000376901 4.56531e-05
-6.77882e-06 4.56531e-05 -0.00143507
0.00297631 -4.55647e-05 6.16637e-07
-4.55647e-05 0.00119611 1.14216e-05
6.16637e-07 1.14216e-05 0.00028577
0.00092362 -6.80522e-05 -2.86557e-06
-6.80522e-05 0.000180296 -3.45249e-06
-2.86557e-06 -3.45249e-06 -2.43205e-05
0.000622443 5.39255e-05 -4.98892e-07
5.39255e-05 9.14224e-06 2.79534e-07
-4.98892e-07 2.79534e-07 -9.70775e-05
0.0015386 0.000217559 -1.17036e-06
0.000217559 0.00054571 1.12908e-06
-1.17036e-06 1.12908e-06 0.000404574
0.000666242 5.4991e-05 -3.0374e-06
5.4991e-05 3.73324e-05 -1.96234e-07
-3.0374e-06 -1.96234e-07 -7.61692e-05
0.000980055 1.15182e-05 6.53282e-07
1.15182e-05 0.000204452 1.91951e-07
6.53282e-07 1.91951e-07 0.000107496
0.00113912 8.9627e-05 2.10077e-06
8.9627e-05 0.000305621 6.82935e-07
2.10077e-06 6.82935e-07 0.000196318
0.000565438 2.51368e-05 3.51837e-07
2.51368e-05 -2.02787e-05 2.7176e-06
3.51837e-07 2.7176e-06 -0.000123645
0.000639552 4.00503e-05 -1.05585e-06
4.00503e-05 3.49633e-05 3.44379e-07
-1.05585e-06 3.44379e-07 -8.13387e-05
0.000777215 4.94951e-05 -2.20081e-07
4.94951e-05 0.000102353 -2.44984e-07
-2.20081e-07 -2.44984e-07 -1.38814e-05
0.000879626 9.25051e-05 -8.83898e-07
9.25051e-05 0.000184782 -2.38547e-06
-8.83898e-07 -2.38547e-06 4.47907e-05
0.000414844 0.000138833 2.36512e-06
0.000138833 -0.000128477 -6.59962e-06
2.36512e-06 -6.59962e-06 -0.000225361
0.000761338 6.28259e-05 7.03481e-07
6.28259e-05 0.000107521 -2.72442e-08
7.03481e-07 -2.72442e-08 -8.02722e-06
0.000928802 9.29953e-05 5.50574e-07
9.29953e-05 0.000240995 2.00607e-06
5.50574e-07 2.00607e-06 0.000129757
-0.00521404 -0.000652811 -0.000254192
-0.000652811 -0.00158623 2.20758e-05
-0.000254192 2.20758e-05 -0.00239292
-0.00225167 -0.000454091 0.00010734
-0.000454091 0.000754605 5.0095e-05
0.00010734 5.0095e-05 -0.000516894
0.00339362 0.000162274 -9.27676e-05
0.000162274 0.00144371 -6.67721e-05
-9.27676e-05 -6.67721e-05 -0.000545492
-0.00740595 -0.00152933 0.000293216
-0.00152933 -0.00364136 0.000254784
0.000293216 0.000254784 -0.00183812
0.0102794 -0.00103876 -7.5142e-05
-0.00103876 0.00313989 7.3782e-05
-7.5142e-05 7.3782e-05 0.0031236
-0.00041259 0.000784548 -1.38158e-06
0.000784548 5.15275e-05 -4.14205e-05
-1.38158e-06 -4.14205e-05 -0.00345056
0.00350575 -5.23419e-05 -0.000151233
-5.23419e-05 0.000983155 5.09407e-05
-0.000151233 5.09407e-05 0.000227947
0.00291073 0.000299722 -1.58538e-05
0.000299722 0.000689285 1.64817e-05
-1.58538e-05 1.64817e-05 0.000416071
0.00759507 -0.00118584 -0.000108701
-0.00118584 0.00369984 4.45335e-05
-0.000108701 4.45335e-05 0.00381737
0.000413275 0.000610376 -2.50709e-06
0.000610376 0.000539673 -1.44295e-05
-2.50709e-06 -1.44295e-05 -0.00226996
0.00128427 0.000524369 -7.20822e-05
0.000524369 0.000194649 -7.12037e-05
-7.20822e-05 -7.12037e-05 -0.000308061
0.0036691 0.00102868 -0.000131185
0.00102868 0.000362187 -8.07037e-05
-0.000131185 -8.07037e-05 -0.00174136
0.00202986 0.000505477 1.39938e-05
0.000505477 0.000482387 -1.91956e-05
1.39938e-05 -1.91956e-05 0.00028674
0.000769682 0.000222396 -4.96311e-06
0.000222396 0.000128551 1.14623e-06
-4.96311e-06 1.14623e-06 2.45435e-05
0.00114286 7.05153e-05 -1.00843e-07
7.05153e-05 0.00036607 -1.67422e-06
-1.00843e-07 -1.67422e-06 0.000273513
-0.000604385 0.00017626 -3.76237e-05
0.00017626 -0.000238901 -3.6972e-05
-3.76237e-05 -3.6972e-05 -0.000723511
0.00279815 0.000346515 -1.39688e-05
0.000346515 0.00135631 -1.04857e-05
-1.39688e-05 -1.04857e-05 0.00119785
0.00114024 0.000461518 1.43012e-05
0.000461518 0.000105426 -3.96424e-06
1.43012e-05 -3.96424e-06 -0.000152701
0.00307757 0.000741386 8.16512e-05
0.000741386 0.000459047 2.66166e-05
8.16512e-05 2.66166e-05 0.000399292
-0.00429258 -3.78771e-05 -0.000245299
-3.78771e-05 -0.00283105 -1.36033e-06
-0.000245299 -1.36033e-06 -0.00208829
-0.00183583 7.3604e-05 8.9646e-05
7.3604e-05 0.00169742 1.28638e-06
8.9646e-05 1.28638e-06 1.83109e-05
0.00169617 -4.96041e-05 -5.40136e-05
-4.96041e-05 0.000705995 1.95107e-05
-5.40136e-05 1.95107e-05 -6.46198e-05
0.00278457 -0.000218331 -5.33787e-05
-0.000218331 0.000781283 -3.33574e-05
-5.33787e-05 -3.33574e-05 0.00101164
0.0023544 -0.000821577 -3.98184e-05
-0.000821577 0.000322656 3.20253e-06
-3.98184e-05 3.20253e-06 -0.000332813
0.00198418 0.000102141 -1.5754e-05
0.000102141 0.00279627 3.1824e-05
-1.5754e-05 3.1824e-05 0.00199077
0.00152036 -0.000527007 0.000119379
-0.000527007 -3.42493e-05 -9.7517e-05
0.000119379 -9.7517e-05 -0.00242094
0.00925712 0.0007967 4.2393e-05
0.0007967 0.00447429 1.2927e-05
4.2393e-05 1.2927e-05 0.00401545
0.00247116 -0.000569446 -1.64059e-05
-0.000569446 0.000528836 5.89793e-06
-1.64059e-05 5.89793e-06 0.000485294
-0.00105023 0.000424439 3.72557e-05
0.000424439 -0.000523708 -1.16144e-05
3.72557e-05 -1.16144e-05 -0.000935959
0.00385512 -0.000134509 -3.42078e-05
-0.000134509 -9.26575e-05 4.50116e-05
-3.42078e-05 4.50116e-05 -0.00207968
0.0058306 -0.00102767 -3.12853e-05
-0.00102767 0.00137897 1.22048e-05
-3.12853e-05 1.22048e-05 0.000645913
-3.91295e-05 -0.000299773 3.08155e-05
-0.000299773 -0.000629434 -7.38799e-06
3.08155e-05 -7.38799e-06 -0.000859629
0.0089581 -0.000326836 2.77982e-05
-0.000326836 0.00221151 -2.92552e-05
2.77982e-05 -2.92552e-05 0.000964199
0.00360326 -0.00047513 4.63834e-05
-0.00047513 -0.000101726 -2.85904e-05
4.63834e-05 -2.85904e-05 -0.000357416
-0.000517709 -0.000229166 -1.99724e-05
-0.000229166 -0.000959293 6.14548e-06
-1.99724e-05 6.14548e-06 -0.000888608
0.000783333 -0.000312254 -5.83584e-06
-0.000312254 -0.000416222 -9.0373e-07
-5.83584e-06 -9.0373e-07 -0.000391653
0.00279913 -0.000437545 2.00068e-05
-0.000437545 0.00050908 -1.55048e-05
2.00068e-05 -1.55048e-05 0.000505311
0.000642488 -0.000332138 -1.03019e-05
-0.000332138 -0.000295672 -3.31503e-06
-1.03019e-05 -3.31503e-06 -0.000522239
0.00169385 -0.000428012 -4.05762e-07
-0.000428012 7.70928e-05 -3.78173e-07
-4.05762e-07 -3.78173e-07 -9.38759e-05
0.00210193 -0.000390094 -4.0207e-06
-0.000390094 0.000173528 -8.0414e-07
-4.0207e-06 -8.0414e-07 5.81239e-05
0.00113501 -0.000354973 -2.03393e-06
-0.000354973 -6.91823e-05 2.21897e-06
-2.03393e-06 2.21897e-06 -0.000312405
0.00178208 -0.000365928 -2.55839e-06
-0.000365928 0.000123502 -4.06723e-08
-2.55839e-06 -4.06723e-08 -5.26788e-05
0.00177938 -0.000294769 -2.18786e-06
-0.000294769 2.99432e-05 -1.4825e-06
-2.18786e-06 -1.4825e-06 -8.19607e-05
0.00142064 -0.000325379 2.33094e-06
-0.000325379 1.47697e-05 4.38929e-06
2.33094e-06 4.38929e-06 -0.000195969
0.00169484 -0.000290129 1.59723e-08
-0.000290129 8.6599e-05 5.86485e-07
1.59723e-08 5.86485e-07 -6.085e-05
0.00177934 -0.000244678 -1.65359e-06
-0.000244678 9.46514e-05 -2.20978e-06
-1.65359e-06 -2.20978e-06 -1.07676e-05
0.00181115 -0.00022176 -1.46092e-06
-0.00022176 0.000170495 -1.08526e-06
-1.46092e-06 -1.08526e-06 5.79964e-05
0.0016181 -0.000236353 -2.4037e-06
-0.000236353 6.31262e-05 2.83366e-06
-2.4037e-06 2.83366e-06 -7.14915e-05
0.00171646 -0.000240893 -4.37303e-07
-0.000240893 0.000157688 -5.5443e-06
-4.37303e-07 -5.5443e-06 5.65435e-06
0.0016214 -0.000267569 -3.52776e-06
-0.000267569 0.000178166 -1.59435e-06
-3.52776e-06 -1.59435e-06 -1.28737e-05
0.00158841 -0.000274635 1.10853e-06
-0.000274635 0.000133839 5.65386e-07
1.10853e-06 5.65386e-07 -5.80351e-05
0.00148239 -0.000265218 5.4347e-07
-0.000265218 5.0443e-05 6.04321e-06
5.4347e-07 6.04321e-06 -0.000124224
0.001253 -0.000241156 -6.50383e-06
-0.000241156 8.5772e-05 1.87761e-06
-6.50383e-06 1.87761e-06 -0.000109867
0.0013721 -0.000278216 1.53032e-08
-0.000278216 9.24098e-05 -1.45431e-07
1.53032e-08 -1.45431e-07 -0.00012137
0.00159968 -0.000314578 3.11497e-06
-0.000314578 0.000206657 5.82596e-07
3.11497e-06 5.82596e-07 -2.13921e-05
0.00111058 -0.000203917 -2.15751e-06
-0.000203917 0.000161779 3.1258e-06
-2.15751e-06 3.1258e-06 -2.0642e-05
0.00123141 -0.000236109 9.91953e-07
-0.000236109 0.00017234 1.05637e-06
9.91953e-07 1.05637e-06 -2.60282e-05
0.00102599 -0.00024967 2.46477e-06
-0.00024967 -1.35652e-05 -5.66675e-06
2.46477e-06 -5.66675e-06 -0.000228224
0.000735839 -0.000110893 -4.33124e-06
-0.000110893 4.69122e-05 3.85817e-06
-4.33124e-06 3.85817e-06 -8.34828e-05
0.00106711 -0.000188526 2.99842e-07
-0.000188526 0.000204643 -5.97625e-07
2.99842e-07 -5.97625e-07 3.37289e-05
0.00117801 -0.000217199 -9.40295e-07
-0.000217199 0.000234221 -2.71665e-06
-9.40295e-07 -2.71665e-06 4.67878e-05
0.00044536 2.60997e-05 -9.85241e-07
2.60997e-05 -8.73222e-05 8.61648e-06
-9.85241e-07 8.61648e-06 -0.000133495
0.000745614 -7.17294e-05 3.11406e-07
-7.17294e-05 8.41076e-05 4.01509e-07
3.11406e-07 4.01509e-07 -3.4099e-05
0.00103829 -0.000141804 6.24237e-07
-0.000141804 0.000247705 -3.44419e-07
6.24237e-07 -3.44419e-07 8.60716e-05
0.00270252 0.000127154 -4.18556e-05
0.000127154 0.00123838 2.26116e-06
-4.18556e-05 2.26116e-06 0.00123547
0.000551911 5.4384e-05 -3.17526e-07
5.4384e-05 -1.85982e-05 -5.20844e-07
-3.17526e-07 -5.20844e-07 -5.62969e-05
0.000825494 -5.99944e-05 2.80486e-06
-5.99944e-05 0.000136697 -4.37311e-06
2.80486e-06 -4.37311e-06 4.02545e-05
0.00168806 8.96153e-05 1.85152e-05
8.96153e-05 0.000641739 -6.04904e-08
1.85152e-05 -6.04904e-08 0.000639595
0.000605288 6.54925e-05 -5.66977e-07
6.54925e-05 8.17988e-06 -5.5655e-06
-5.66977e-07 -5.5655e-06 -2.23566e-05
0.00246083 0.000101337 3.42527e-05
0.000101337 0.001086 -2.67613e-06
3.42527e-05 -2.67613e-06 0.00109001
0.000915701 0.000103886 1.03647e-06
0.000103886 0.000168285 9.34224e-07
1.03647e-06 9.34224e-07 5.35428e-05
0.000655973 4.8564e-05 -2.61288e-07
4.8564e-05 2.48605e-05 5.22373e-07
-2.61288e-07 5.22373e-07 -8.02545e-05
0.000700667 1.36136e-05 -4.85296e-07
1.36136e-05 5.90875e-05 -1.64431e-06
-4.85296e-07 -1.64431e-06 -4.68994e-05
0.00089507 6.42989e-05 9.5696e-07
6.42989e-05 0.000171539 8.11996e-07
9.5696e-07 8.11996e-07 6.23243e-05
0.000725966 1.05713e-05 2.10444e-07
1.05713e-05 7.15618e-05 4.32461e-08
2.10444e-07 4.32461e-08 -2.77248e-05
0.000674572 -1.25245e-05 -1.394e-06
-1.25245e-05 2.74844e-05 -3.56213e-06
-1.394e-06 -3.56213e-06 -4.29566e-05
0.000577278 -4.89011e-05 -4.89199e-07
-4.89011e-05 -2.82744e-05 -5.74199e-06
-4.89199e-07 -5.74199e-06 -5.62717e-05
0.000652262 -9.77964e-06 2.21418e-07
-9.77964e-06 1.14884e-05 -8.47231e-08
2.21418e-07 -8.47231e-08 -5.39199e-05
0.00066997 -5.82112e-06 2.96514e-07
-5.82112e-06 2.93286e-05 1.61138e-06
2.96514e-07 1.61138e-06 -5.78129e-05
0.00261735 -8.76222e-05 -3.7047e-05
-8.76222e-05 0.00116099 -3.72488e-06
-3.7047e-05 -3.72488e-06 0.00116793
0.000565151 -4.00614e-05 -4.25303e-07
-4.00614e-05 -4.36203e-05 2.00771e-08
-4.25303e-07 2.00771e-08 -6.78529e-05
0.000647969 5.76035e-06 1.68062e-06
5.76035e-06 6.93688e-06 2.8533e-06
1.68062e-06 2.8533e-06 -5.51717e-05
0.0025234 -7.49607e-05 -3.97009e-06
-7.49607e-05 0.00109932 2.56311e-07
-3.97009e-06 2.56311e-07 0.00110884
0.0005757 -3.50767e-05 1.12603e-07
-3.50767e-05 -4.4271e-05 4.85562e-06
1.12603e-07 4.85562e-06 -6.50641e-05
0.00239395 -6.09202e-05 2.24133e-05
-6.09202e-05 0.00101725 4.43153e-06
2.24133e-05 4.43153e-06 0.00102978
0.000501814 0.000282964 -0.000113498
0.000282964 0.00128092 5.55874e-05
-0.000113498 5.55874e-05 0.000394135
-0.00160117 -8.83871e-05 7.01996e-06
-8.83871e-05 0.00128595 1.27782e-05
7.01996e-06 1.27782e-05 -0.000445363
0.002794 -7.23257e-05 -5.53747e-05
-7.23257e-05 0.00127634 -4.25905e-06
-5.53747e-05 -4.25905e-06 0.000338677
0.000541793 2.33702e-05 2.36324e-06
2.33702e-05 -3.85194e-05 -7.90261e-07
2.36324e-06 -7.90261e-07 -0.000139811
0.000641575 3.34289e-05 1.44906e-06
3.34289e-05 2.19041e-05 2.84918e-07
1.44906e-06 2.84918e-07 -8.94083e-05
0.00117612 0.000181419 -9.11189e-07
0.000181419 0.000345065 5.27285e-07
-9.11189e-07 5.27285e-07 0.000211212
0.00149193 0.000243729 7.26242e-07
0.000243729 0.000477395 -4.96141e-07
7.26242e-07 -4.96141e-07 0.00031257
0.000985315 0.000139489 -5.75994e-06
0.000139489 0.000248007 -1.96448e-06
-5.75994e-06 -1.96448e-06 0.000107399
0.000906584 8.9098e-05 2.10571e-06
8.9098e-05 0.000187412 2.32911e-06
2.10571e-06 2.32911e-06 6.7504e-05
0.000789688 5.80972e-05 3.33896e-06
5.80972e-05 0.000110414 1.85167e-06
3.33896e-06 1.85167e-06 -4.92072e-06
0.000696072 0.000108199 -2.76653e-06
0.000108199 8.29074e-05 -2.60822e-06
-2.76653e-06 -2.60822e-06 -5.13619e-05
-0.000562734 7.41706e-05 -1.57317e-06
7.41706e-05 -0.000663157 -1.43298e-07
-1.57317e-06 -1.43298e-07 -0.000804273
0.00112602 0.000218144 1.63654e-07
0.000218144 0.000219586 -4.31577e-06
1.63654e-07 -4.31577e-06 0.000108483
0.00223975 0.000456396 3.70953e-06
0.000456396 0.00053248 -1.30452e-05
3.70953e-06 -1.30452e-05 0.000342795
0.000562023 0.000155467 -4.5847e-06
0.000155467 -2.60781e-05 -3.00235e-07
-4.5847e-06 -3.00235e-07 -0.000125742
0.000614242 4.26946e-05 2.12648e-06
4.26946e-05 3.47455e-05 -1.01026e-06
2.12648e-06 -1.01026e-06 -6.71978e-05
0.0108972 0.000502582 -6.29695e-05
0.000502582 0.00310429 3.42129e-05
-6.29695e-05 3.42129e-05 0.00178872
-0.000967039 -0.000518862 -0.000129028
-0.000518862 0.000953267 -3.62621e-05
-0.000129028 -3.62621e-05 -2.89181e-05
-0.000537265 -0.000668233 5.42765e-05
-0.000668233 0.00095905 -2.82416e-05
5.42765e-05 -2.82416e-05 -0.000369414
-0.00285706 -0.000584747 -1.75885e-05
-0.000584747 -0.00108669 9.39498e-05
-1.75885e-05 9.39498e-05 -0.00104147
0.0104389 0.000487377 8.40083e-06
0.000487377 0.00497491 -6.28698e-06
8.40083e-06 -6.28698e-06 0.00195285
0.00117374 0.000310876 -5.21171e-05
0.000310876 -0.000193488 -1.64324e-05
-5.21171e-05 -1.64324e-05 -0.000311323
0.00138203 0.000551282 -2.05355e-05
0.000551282 0.000149401 -1.06538e-05
-2.05355e-05 -1.06538e-05 -0.000235251
0.0090651 0.000450805 3.47109e-05
0.000450805 0.00313607 1.87653e-05
3.47109e-05 1.87653e-05 0.00136537
0.00523808 0.00107069 -2.41339e-05
0.00107069 0.000891755 -3.85805e-05
-2.41339e-05 -3.85805e-05 0.000386951
0.00201988 0.000565137 -5.69463e-07
0.000565137 0.000290972 -5.12215e-07
-5.69463e-07 -5.12215e-07 0.000129516
0.000961303 0.000376713 5.25286e-06
0.000376713 4.53991e-05 -2.47059e-06
5.25286e-06 -2.47059e-06 -0.000144436
0.000985397 0.000217854 -1.5107e-05
0.000217854 0.000255386 1.07082e-05
-1.5107e-05 1.07082e-05 0.000154823
0.00258883 0.00059959 -3.76363e-05
0.00059959 0.000718863 -1.24509e-05
-3.76363e-05 -1.24509e-05 0.000471128
0.00225856 0.000682046 -1.23319e-06
0.000682046 1.62289e-05 1.65758e-05
-1.23319e-06 1.65758e-05 -8.22333e-05
0.000470269 -0.000280408 -2.41779e-05
-0.000280408 -0.00259416 -1.17734e-06
-2.41779e-05 -1.17734e-06 -0.00307451
0.00240559 -0.000285617 -1.27124e-06
-0.000285617 0.00139694 -1.64798e-05
-1.27124e-06 -1.64798e-05 0.0013941
-0.00358818 1.09674e-05 0.000110354
1.09674e-05 0.00107465 -8.5663e-06
0.000110354 -8.5663e-06 -0.000737392
0.00235866 -0.000626025 -3.84725e-05
-0.000626025 0.000406931 4.45597e-06
-3.84725e-05 4.45597e-06 0.000290727
0.00353668 -0.000922787 2.9499e-05
-0.000922787 0.000823716 -1.38403e-05
2.9499e-05 -1.38403e-05 -0.00020508
0.00122975 -0.00025078 0.000149136
-0.00025078 0.00151377 1.32118e-05
0.000149136 1.32118e-05 0.000839615
0.0110204 -0.00012781 -9.90414e-05
-0.00012781 0.00373133 5.37644e-05
-9.90414e-05 5.37644e-05 0.00207699
0.000732627 -0.000346244 -2.01631e-05
-0.000346244 -0.00031794 -2.04888e-06
-2.01631e-05 -2.04888e-06 -0.000450395
0.0078033 7.07089e-05 -2.61116e-05
7.07089e-05 0.00147004 2.50395e-05
-2.61116e-05 2.50395e-05 0.00050168
0.00453632 -0.000559833 6.45344e-05
-0.000559833 0.000191728 6.19392e-07
6.45344e-05 6.19392e-07 -0.000362859
0.00220008 -0.000345731 3.14277e-05
-0.000345731 0.000417434 -8.35243e-06
3.14277e-05 -8.35243e-06 0.000120674
0.00308556 -0.000177158 -7.83041e-05
-0.000177158 0.000167931 -6.96498e-06
-7.83041e-05 -6.96498e-06 -2.14187e-05
-0.000949703 -0.000219338 -1.66121e-05
-0.000219338 -0.00136006 4.21833e-06
-1.66121e-05 4.21833e-06 -0.00129617
0.00154688 -0.000376177 5.62992e-07
-0.000376177 -0.000140761 -7.98083e-07
5.62992e-07 -7.98083e-07 -0.000144162
0.00209564 -0.000301695 1.01379e-05
-0.000301695 4.92243e-05 -6.71769e-06
1.01379e-05 -6.71769e-06 7.39304e-05
0.00131932 -0.000397914 -2.25743e-06
-0.000397914 -0.000107327 2.10701e-06
-2.25743e-06 2.10701e-06 -0.000272042
0.00181131 -0.000363251 -1.79379e-06
-0.000363251 3.71282e-05 -2.41652e-08
-1.79379e-06 -2.41652e-08 -7.5822e-05
0.0020376 -0.000275961 -6.84177e-07
-0.000275961 8.06501e-05 1.47016e-06
-6.84177e-07 1.47016e-06 2.939e-05
0.00155426 -0.000348088 -2.42632e-06
-0.000348088 3.78661e-06 4.44241e-06
-2.42632e-06 4.44241e-06 -0.000171656
0.00182632 -0.000295139 5.55102e-07
-0.000295139 5.73764e-05 1.5195e-06
5.55102e-07 1.5195e-06 -5.41021e-05
0.00173454 -0.000245213 -3.36733e-07
-0.000245213 5.25535e-06 9.27222e-07
-3.36733e-07 9.27222e-07 -7.59394e-05
0.00162613 -0.000281873 2.92459e-06
-0.000281873 5.28142e-05 5.33521e-06
2.92459e-06 5.33521e-06 -9.27343e-05
0.00174003 -0.000244482 -1.22431e-07
-0.000244482 7.20353e-05 1.18131e-06
-1.22431e-07 1.18131e-06 -3.43212e-05
0.00200194 -0.000239055 4.47462e-07
-0.000239055 0.000244653 -3.41615e-07
4.47462e-07 -3.41615e-07 0.000149242
0.0017415 -0.000221183 -3.64212e-06
-0.000221183 0.000122514 3.47371e-06
-3.64212e-06 3.47371e-06 1.29273e-05
0.00178335 -0.000226597 2.20473e-06
-0.000226597 0.000179947 -3.419e-06
2.20473e-06 -3.419e-06 5.32878e-05
0.00164663 -0.000236048 1.22344e-06
-0.000236048 7.94475e-05 7.69903e-06
1.22344e-06 7.69903e-06 -5.11136e-05
0.00171945 -0.000242624 5.74084e-07
-0.000242624 0.000160207 -8.09644e-07
5.74084e-07 -8.09644e-07 7.4763e-06
0.00163557 -0.000232369 -1.57508e-06
-0.000232369 0.000157649 -3.01665e-06
-1.57508e-06 -3.01665e-06 -6.97774e-06
0.0013957 -0.000231563 -6.01391e-06
-0.000231563 0.000106876 5.28219e-07
-6.01391e-06 5.28219e-07 -7.51819e-05
0.00166697 -0.000271839 4.13293e-07
-0.000271839 0.000207327 -6.79793e-07
4.13293e-07 -6.79793e-07 1.46802e-05
0.00168518 -0.000279635 2.42311e-06
-0.000279635 0.000186673 3.50373e-06
2.42311e-06 3.50373e-06 -5.28514e-06
0.00118643 -0.000212798 -5.99275e-06
-0.000212798 0.000115937 3.00018e-06
-5.99275e-06 3.00018e-06 -6.44596e-05
0.00124623 -0.00023959 -1.68569e-06
-0.00023959 8.31243e-05 7.38337e-07
-1.68569e-06 7.38337e-07 -0.000111888
0.00145299 -0.000283713 4.04227e-06
-0.000283713 0.000137456 -1.10848e-06
4.04227e-06 -1.10848e-06 -7.57291e-05
0.000767977 -0.000133244 -5.38436e-06
-0.000133244 1.82523e-05 5.14002e-06
-5.38436e-06 5.14002e-06 -0.00012155
0.00111229 -0.000204105 8.94414e-07
-0.000204105 0.000159923 2.6147e-07
8.94414e-07 2.6147e-07 -2.21097e-05
0.00122207 -0.000234245 3.02749e-06
-0.000234245 0.000164509 -1.87772e-06
3.02749e-06 -1.87772e-06 -3.35815e-05
0.00044125 -3.62419e-05 -8.78113e-06
-3.62419e-05 -0.000111262 1.00905e-05
-8.78113e-06 1.00905e-05 -0.00016557
0.000799532 -0.000124761 -2.96494e-07
-0.000124761 8.25078e-05 1.09189e-07
-2.96494e-07 1.09189e-07 -4.9781e-05
0.00107113 -0.000186701 1.1631e-06
-0.000186701 0.000204465 -1.95962e-06
1.1631e-06 -1.95962e-06 3.4259e-05
0.00321635 0.000149003 -5.72757e-05
0.000149003 0.00153834 2.19236e-06
-5.72757e-05 2.19236e-06 0.00152991
0.000561944 7.27482e-06 6.01834e-07
7.27482e-06 -2.49016e-05 -3.99173e-07
6.01834e-07 -3.99173e-07 -7.08871e-05
0.000847108 -0.000115787 4.11883e-06
-0.000115787 0.000141588 -3.67548e-06
4.11883e-06 -3.67548e-06 1.95302e-05
0.00285171 0.0001269 4.92736e-06
0.0001269 0.00132274 3.63503e-07
4.92736e-06 3.63503e-07 0.00132019
0.000654826 3.98749e-05 2.85536e-06
3.98749e-05 3.67331e-05 -7.04546e-06
2.85536e-06 -7.04546e-06 -3.00866e-08
0.00261762 0.000111416 4.55494e-05
0.000111416 0.00118193 -2.24015e-06
4.55494e-05 -2.24015e-06 0.00118369
0.000954095 0.000181893 1.7984e-06
0.000181893 0.000163692 -1.98875e-06
1.7984e-06 -1.98875e-06 8.63716e-06
0.000819803 0.000130242 8.62542e-07
0.000130242 0.000121438 -8.06376e-08
8.62542e-07 -8.06376e-08 4.35401e-08
0.000540796 2.57778e-05 -9.7884e-07
2.57778e-05 -3.95016e-05 -6.56627e-07
-9.7884e-07 -6.56627e-07 -0.000150206
0.000423431 1.43238e-05 9.44369e-07
1.43238e-05 -0.000109503 4.2066e-07
9.44369e-07 4.2066e-07 -0.000209426
0.000606983 -4.20394e-06 -1.93876e-07
-4.20394e-06 1.34539e-06 4.09085e-07
-1.93876e-07 4.09085e-07 -0.000101449
0.000661477 -1.00658e-05 -1.5415e-06
-1.00658e-05 2.27632e-05 -3.67161e-06
-1.5415e-06 -3.67161e-06 -5.54819e-05
0.000654054 -7.87231e-06 4.67485e-07
-7.87231e-06 2.36279e-05 1.86128e-06
4.67485e-07 1.86128e-06 -6.98121e-05
0.000638723 -1.74548e-05 3.2624e-07
-1.74548e-05 8.38091e-06 -1.83958e-07
3.2624e-07 -1.83958e-07 -6.22323e-05
0.000578743 -5.31521e-05 -6.22142e-07
-5.31521e-05 -1.9194e-05 -6.28104e-06
-6.22142e-07 -6.28104e-06 -5.05897e-05
0.00267092 -9.92025e-05 -4.29636e-05
-9.92025e-05 0.00119916 -3.22842e-06
-4.29636e-05 -3.22842e-06 0.00120371
0.000557435 -4.64253e-05 1.18111e-08
-4.64253e-05 -4.04278e-05 1.13715e-08
1.18111e-08 1.13715e-08 -6.7917e-05
0.000620284 -8.33411e-06 1.89009e-06
-8.33411e-06 -5.84166e-06 3.14126e-06
1.89009e-06 3.14126e-06 -7.14719e-05
0.00261038 -8.72703e-05 -3.85718e-06
-8.72703e-05 0.00115649 2.92251e-07
-3.85718e-06 2.92251e-07 0.00116343
0.00055576 -4.04315e-05 4.3341e-07
-4.04315e-05 -4.90029e-05 5.23404e-06
4.3341e-07 5.23404e-06 -7.32111e-05
0.00249337 -7.39693e-05 2.78701e-05
-7.39693e-05 0.00108116 4.22625e-06
2.78701e-05 4.22625e-06 0.00109095
0.0102768 0.000407858 0.00015225
0.000407858 0.00266169 7.28534e-05
0.00015225 7.28534e-05 0.00170413
-0.00253459 -0.000539352 -8.70787e-05
-0.000539352 -0.00176358 -9.19387e-06
-8.70787e-05 -9.19387e-06 -0.00192227
-0.00360444 0.000152015 -3.8401e-05
0.000152015 0.000329716 -3.08607e-05
-3.8401e-05 -3.08607e-05 -0.00173788
0.000632526 6.39904e-06 5.60832e-06
6.39904e-06 1.28851e-05 8.35087e-07
5.60832e-06 8.35087e-07 -9.4811e-05
0.000825674 0.000156726 -6.97705e-07
0.000156726 0.000150269 1.1025e-06
-6.97705e-07 1.1025e-06 2.30776e-05
0.00119408 0.000160144 -2.67915e-08
0.000160144 0.000363243 -2.24116e-07
-2.67915e-08 -2.24116e-07 0.00022135
0.00121502 0.000218755 -2.24798e-06
0.000218755 0.000322481 1.27059e-07
-2.24798e-06 1.27059e-07 0.000162823
0.00144133 0.000261058 1.93425e-05
0.000261058 0.00036518 -1.56455e-06
1.93425e-05 -1.56455e-06 0.000171757
0.000276009 0.0001433 -2.5812e-06
0.0001433 -0.00018455 -1.9569e-06
-2.5812e-06 -1.9569e-06 -0.00033519
0.000510301 0.000110473 -9.05076e-07
0.000110473 -1.35846e-05 -2.00445e-06
-9.05076e-07 -2.00445e-06 -0.00014606
0.000214895 0.000145707 4.99707e-07
0.000145707 -0.000237115 1.24992e-06
4.99707e-07 1.24992e-06 -0.0003961
0.000996963 0.000210271 -8.10276e-07
0.000210271 0.000156766 4.57971e-07
-8.10276e-07 4.57971e-07 4.11633e-05
0.000343215 0.000209815 2.58888e-06
0.000209815 -0.000311165 -3.08282e-07
2.58888e-06 -3.08282e-07 -0.000463706
0.00335521 0.000501375 -3.73151e-06
0.000501375 0.0011362 -4.87117e-06
-3.73151e-06 -4.87117e-06 0.000964464
0.00198797 0.000463919 -4.94663e-06
0.000463919 0.000291935 2.07705e-06
-4.94663e-06 2.07705e-06 0.000124079
0.00161074 0.000404794 3.58569e-06
0.000404794 0.000213256 -3.46373e-06
3.58569e-06 -3.46373e-06 3.98078e-05
0.00044735 0.000162744 -1.44049e-06
0.000162744 -7.38435e-05 5.4347e-06
-1.44049e-06 5.4347e-06 -0.000175016
0.00486852 0.000437082 -1.94726e-05
0.000437082 0.0003507 1.13454e-05
-1.94726e-05 1.13454e-05 0.000325219
0.00779449 0.000336163 5.47282e-05
0.000336163 0.00161407 3.53899e-05
5.47282e-05 3.53899e-05 0.000218025
0.00553177 -0.000999417 5.0682e-05
-0.000999417 0.00308065 -6.17197e-05
5.0682e-05 -6.17197e-05 0.00264929
0.004115 0.000879331 0.000283032
0.000879331 0.000420647 0.000111326
0.000283032 0.000111326 -0.00238222
0.00167764 0.000531049 -6.92625e-06
0.000531049 0.000169142 1.71681e-05
-6.92625e-06 1.71681e-05 0.000125884
0.00331175 0.000841623 -7.12767e-05
0.000841623 4.51044e-05 -2.34111e-05
-7.12767e-05 -2.34111e-05 -0.000236542
0.00336897 0.00069054 4.3319e-05
0.00069054 0.000569752 2.24094e-05
4.3319e-05 2.24094e-05 0.000570003
0.00276325 0.000619064 3.78722e-06
0.000619064 0.000606772 8.35217e-06
3.78722e-06 8.35217e-06 0.000455494
0.000728524 0.000332841 -6.20756e-06
0.000332841 -2.07024e-05 1.41772e-05
-6.20756e-06 1.41772e-05 -0.00020106
0.00338568 0.000774316 -0.000109566
0.000774316 0.000559943 -3.23021e-05
-0.000109566 -3.23021e-05 0.000376792
0.00303808 -0.000194006 -9.38899e-05
-0.000194006 0.000459488 8.66178e-06
-9.38899e-05 8.66178e-06 0.000140893
0.00981519 -0.000217631 4.109e-06
-0.000217631 0.0029737 -3.05015e-06
4.109e-06 -3.05015e-06 0.0022904
-0.00829323 -0.000375091 0.000266533
-0.000375091 -0.00453848 -7.26038e-06
0.000266533 -7.26038e-06 -0.00430581
0.00112131 -0.000391643 -3.81359e-05
-0.000391643 -0.000239514 8.82698e-06
-3.81359e-05 8.82698e-06 -0.000310214
0.00597297 -0.000679443 0.000108409
-0.000679443 0.000969725 1.47858e-05
0.000108409 1.47858e-05 0.000409805
0.00138156 -0.000391349 4.20746e-05
-0.000391349 -0.00174307 5.67673e-05
4.20746e-05 5.67673e-05 -0.00285377
0.00146189 -0.000282856 2.05499e-05
-0.000282856 -1.32151e-05 -3.44353e-07
2.05499e-05 -3.44353e-07 -0.000190376
0.00235651 -7.00168e-05 -1.35323e-06
-7.00168e-05 -0.000331132 6.66154e-06
-1.35323e-06 6.66154e-06 -0.000529168
0.00403512 -0.000304915 1.59371e-05
-0.000304915 0.0010534 -6.47007e-06
1.59371e-05 -6.47007e-06 0.00106236
0.00339447 -6.31609e-05 6.9141e-05
-6.31609e-05 0.000788345 -5.92014e-07
6.9141e-05 -5.92014e-07 0.000763184
0.000134014 -0.000311735 -7.97004e-06
-0.000311735 -0.000875633 6.25353e-06
-7.97004e-06 6.25353e-06 -0.000872294
0.00174522 -0.000294089 -1.90641e-07
-0.000294089 -0.000137329 6.52522e-07
-1.90641e-07 6.52522e-07 -0.000114836
0.00171602 -0.000184466 1.06752e-05
-0.000184466 -0.000165024 -6.62864e-07
1.06752e-05 -6.62864e-07 -0.00010303
0.00154681 -0.000340139 1.98503e-06
-0.000340139 -9.13467e-05 6.31508e-07
1.98503e-06 6.31508e-07 -0.000200973
0.00192 -0.000271961 2.10007e-06
-0.000271961 2.27149e-05 9.72473e-07
2.10007e-06 9.72473e-07 -3.0228e-05
0.00182226 -0.000207049 1.44935e-06
-0.000207049 2.90132e-05 1.60532e-06
1.44935e-06 1.60532e-06 -8.04914e-06
0.00185442 -0.000294542 6.13801e-06
-0.000294542 7.34491e-05 3.77665e-06
6.13801e-06 3.77665e-06 -3.73122e-05
0.00183475 -0.000247785 9.70234e-07
-0.000247785 6.77062e-05 4.22984e-07
9.70234e-07 4.22984e-07 -1.33909e-05
0.00197582 -0.000215542 -7.48229e-07
-0.000215542 0.000197639 1.01244e-06
-7.48229e-07 1.01244e-06 0.000119419
0.00169819 -0.000243563 2.32512e-06
-0.000243563 4.85637e-05 4.11877e-06
2.32512e-06 4.11877e-06 -5.85844e-05
0.00181572 -0.000231737 2.72728e-08
-0.000231737 0.000143868 6.08861e-07
2.72728e-08 6.08861e-07 4.76214e-05
0.00166283 -0.000217562 3.92114e-06
-0.000217562 8.76714e-05 -2.00995e-06
3.92114e-06 -2.00995e-06 -2.21414e-05
0.00167835 -0.00022091 -2.89034e-06
-0.00022091 7.86879e-05 7.51457e-06
-2.89034e-06 7.51457e-06 -2.80535e-05
0.00182593 -0.000226407 -1.97947e-06
-0.000226407 0.000203406 1.00823e-07
-1.97947e-06 1.00823e-07 7.99965e-05
0.00171951 -0.000212983 8.58801e-07
-0.000212983 0.000186917 -1.94983e-06
8.58801e-07 -1.94983e-06 4.05069e-05
0.00172288 -0.000244002 1.70197e-06
-0.000244002 0.000162705 3.51603e-06
1.70197e-06 3.51603e-06 9.37069e-06
0.0016836 -0.000234631 7.19462e-07
-0.000234631 0.000186019 -7.30919e-07
7.19462e-07 -7.30919e-07 2.04763e-05
0.00164135 -0.000216057 -2.97885e-06
-0.000216057 0.000222017 -7.23158e-07
-2.97885e-06 -7.23158e-07 5.66329e-05
0.000979683 -0.000183702 -8.76238e-06
-0.000183702 -6.03949e-05 2.02938e-06
-8.76238e-06 2.02938e-06 -0.000226969
0.00151281 -0.000240404 -1.10529e-06
-0.000240404 0.000177235 -3.54415e-08
-1.10529e-06 -3.54415e-08 -6.12241e-06
0.00170312 -0.000275227 3.8952e-06
-0.000275227 0.0002308 3.06118e-07
3.8952e-06 3.06118e-07 3.67317e-05
0.00095016 -0.000158673 -8.39359e-06
-0.000158673 5.72635e-05 6.05133e-06
-8.39359e-06 6.05133e-06 -8.74252e-05
0.00117726 -0.000210168 2.56133e-07
-0.000210168 0.000110349 6.55233e-07
2.56133e-07 6.55233e-07 -6.9146e-05
0.00119906 -0.000234358 2.68199e-06
-0.000234358 5.73716e-05 -6.55528e-07
2.68199e-06 -6.55528e-07 -0.00013637
0.000451293 -6.98625e-05 -1.27385e-05
-6.98625e-05 -0.000122035 1.1369e-05
-1.27385e-05 1.1369e-05 -0.000186825
0.000866977 -0.000145249 2.81731e-07
-0.000145249 7.56139e-05 5.11333e-08
2.81731e-07 5.11333e-08 -6.62066e-05
0.00112895 -0.000205492 4.03423e-06
-0.000205492 0.000167025 -2.47697e-06
4.03423e-06 -2.47697e-06 -1.48577e-05
0.00386707 0.000157626 -9.16244e-05
0.000157626 0.00191414 3.02528e-06
-9.16244e-05 3.02528e-06 0.00190313
0.000589607 -4.37883e-05 5.35971e-07
-4.37883e-05 -2.82175e-05 -2.67777e-07
5.35971e-07 -2.67777e-07 -8.44542e-05
0.000896447 -0.000138835 5.52207e-06
-0.000138835 0.000136076 -4.46199e-06
5.52207e-06 -4.46199e-06 2.1249e-06
0.00341451 0.000131048 6.36712e-06
0.000131048 0.00164803 2.85089e-07
6.36712e-06 2.85089e-07 0.00164401
0.00068483 -2.60013e-06 7.10484e-06
-2.60013e-06 4.21648e-05 -8.4568e-06
7.10484e-06 -8.4568e-06 -3.91464e-06
0.00299987 0.000109354 7.64309e-05
0.000109354 0.00140406 -2.69256e-06
7.64309e-05 -2.69256e-06 0.00140599
0.00128942 0.00022932 -1.18269e-06
0.00022932 0.0002833 -5.49961e-06
-1.18269e-06 -5.49961e-06 9.71526e-05
0.00127159 0.000208339 3.94773e-07
0.000208339 0.000349214 -4.13834e-09
3.94773e-07 -4.13834e-09 0.000189411
0.000760878 0.000119793 -1.05279e-06
0.000119793 6.52749e-05 -3.57177e-06
-1.05279e-06 -3.57177e-06 -7.24147e-05
0.000684286 0.000143862 -1.32541e-07
0.000143862 5.26328e-05 2.57831e-07
-1.32541e-07 2.57831e-07 -7.41914e-05
0.000572022 4.27197e-05 -3.08796e-07
4.27197e-05 -2.13953e-05 -2.18133e-07
-3.08796e-07 -2.18133e-07 -0.00013598
0.000744842 5.17848e-05 -2.57738e-06
5.17848e-05 7.98019e-05 -3.36566e-06
-2.57738e-06 -3.36566e-06 -1.81537e-05
0.000517064 -1.96866e-05 7.02969e-07
-1.96866e-05 -5.29824e-05 1.61516e-06
7.02969e-07 1.61516e-06 -0.000153382
0.000646542 -1.22305e-05 2.84824e-07
-1.22305e-05 1.68133e-05 -2.74451e-07
2.84824e-07 -2.74451e-07 -6.23889e-05
0.000580614 -5.07798e-05 -1.06701e-06
-5.07798e-05 -1.21269e-05 -6.89509e-06
-1.06701e-06 -6.89509e-06 -4.72314e-05
0.0006062 -2.10023e-05 1.4404e-06
-2.10023e-05 -9.07563e-06 3.47973e-06
1.4404e-06 3.47973e-06 -7.97597e-05
0.000551459 -5.13292e-05 2.19494e-07
-5.13292e-05 -3.57102e-05 -3.9551e-08
2.19494e-07 -3.9551e-08 -6.65977e-05
0.00273497 -0.000110066 -4.97984e-05
-0.000110066 0.00124332 -2.66202e-06
-4.97984e-05 -2.66202e-06 0.00124551
0.00266576 -9.8976e-05 -2.87998e-06
-9.8976e-05 0.0011957 2.85098e-07
-2.87998e-06 2.85098e-07 0.00120017
0.000544542 -4.14967e-05 1.48455e-06
-4.14967e-05 -4.9087e-05 5.6189e-06
1.48455e-06 5.6189e-06 -7.57823e-05
0.00258652 -8.655e-05 3.39081e-05
-8.655e-05 0.00114217 3.91254e-06
3.39081e-05 3.91254e-06 0.0011492
0.00315391 -1.75278e-05 -4.44264e-06
-1.75278e-05 -8.65542e-05 2.49676e-05
-4.44264e-06 2.49676e-05 -6.54568e-05
0.00206695 -0.000487746 4.29627e-05
-0.000487746 -0.00164708 2.09913e-05
4.29627e-05 2.09913e-05 -0.00270022
0.00568172 -0.000631182 -4.04244e-05
-0.000631182 0.00223544 -5.70406e-05
-4.04244e-05 -5.70406e-05 0.0024297
0.0013136 0.0002636 9.36441e-06
0.0002636 0.000143264 5.47653e-06
9.36441e-06 5.47653e-06 -6.84551e-05
0.0014189 0.000186156 3.18606e-06
0.000186156 0.000489146 1.29151e-06
3.18606e-06 1.29151e-06 0.000344462
0.000988393 0.000198471 -2.02336e-06
0.000198471 0.00019699 1.84961e-06
-2.02336e-06 1.84961e-06 4.15514e-05
0.000705329 0.000183256 9.64403e-07
0.000183256 5.40775e-05 1.49311e-06
9.64403e-07 1.49311e-06 -0.00010555
0.00117383 0.000241333 -1.45338e-07
0.000241333 0.000214819 -3.99589e-06
-1.45338e-07 -3.99589e-06 2.25324e-05
0.00072424 0.000225201 1.23606e-06
0.000225201 -8.75151e-05 -4.15084e-07
1.23606e-06 -4.15084e-07 -0.000251155
0.000957937 0.000215226 -1.25196e-06
0.000215226 0.000170432 -1.43008e-06
-1.25196e-06 -1.43008e-06 -6.313e-06
0.000780383 0.000200824 1.98994e-06
0.000200824 4.71014e-05 5.35074e-06
1.98994e-06 5.35074e-06 -7.25979e-05
0.00118211 0.000278991 1.64734e-06
0.000278991 0.000148897 -3.66961e-07
1.64734e-06 -3.66961e-07 -1.18632e-05
0.00236992 0.000427757 2.51146e-06
0.000427757 0.000600414 6.73676e-06
2.51146e-06 6.73676e-06 0.00043615
0.00167373 0.000405088 -1.12065e-06
0.000405088 0.000122587 -6.30001e-07
-1.12065e-06 -6.30001e-07 -5.34069e-05
0.00150822 0.00036881 4.16196e-06
0.00036881 4.14225e-05 6.56503e-06
4.16196e-06 6.56503e-06 -7.35061e-05
0.0010852 0.000401106 -1.93446e-06
0.000401106 -0.000187648 -2.91134e-06
-1.93446e-06 -2.91134e-06 -0.000351237
0.000566771 0.000317316 9.54733e-07
0.000317316 -0.000322681 3.57748e-06
9.54733e-07 3.57748e-06 -0.000474387
0.000829879 0.000263288 1.81991e-05
0.000263288 -0.00037204 2.13078e-05
1.81991e-05 2.13078e-05 -0.000361173
0.0050031 0.000570494 -3.75029e-05
0.000570494 0.000256371 -6.72333e-06
-3.75029e-05 -6.72333e-06 0.000127224
0.00194012 0.000148811 0.00019068
0.000148811 -0.00132678 2.01578e-05
0.00019068 2.01578e-05 -0.0027865
0.00115441 0.000664337 9.19868e-06
0.000664337 -0.000845626 -9.17435e-06
9.19868e-06 -9.17435e-06 -0.00119567
0.00219381 0.000548089 -2.52607e-05
0.000548089 0.000228216 -2.10297e-06
-2.52607e-05 -2.10297e-06 0.000200053
0.00174107 0.000519995 -4.53916e-05
0.000519995 0.000119082 -2.12057e-05
-4.53916e-05 -2.12057e-05 -3.35084e-05
0.00231483 -0.000157507 1.10986e-05
-0.000157507 0.000148991 2.03551e-06
1.10986e-05 2.03551e-06 9.92186e-05
0.00127702 -9.2629e-06 -6.34248e-06
-9.2629e-06 -0.000307827 4.15121e-06
-6.34248e-06 4.15121e-06 -0.00049106
0.00068237 0.000538594 7.69857e-05
0.000538594 -0.00250314 -2.70454e-05
7.69857e-05 -2.70454e-05 -0.00315567
0.000429315 -0.000188645 -1.07628e-05
-0.000188645 -0.000577524 2.33831e-05
-1.07628e-05 2.33831e-05 -0.000625191
0.00307386 -8.67542e-05 -1.9154e-05
-8.67542e-05 -0.000107933 3.18788e-05
-1.9154e-05 3.18788e-05 -0.000416971
0.00187336 -0.000205384 -9.15924e-06
-0.000205384 -5.7653e-05 3.11773e-06
-9.15924e-06 3.11773e-06 -2.08183e-05
0.00270723 -9.64348e-05 -6.76915e-06
-9.64348e-05 0.0004046 -2.75451e-06
-6.76915e-06 -2.75451e-06 0.000358763
0.00150458 -0.000118793 2.45763e-05
-0.000118793 -0.000265915 -6.1721e-07
2.45763e-05 -6.1721e-07 -0.000207467
0.00302558 -5.57252e-05 2.32852e-05
-5.57252e-05 0.000843924 1.79468e-06
2.32852e-05 1.79468e-06 0.000800462
0.00146721 -0.000290463 -1.19055e-05
-0.000290463 -0.000284324 5.54569e-06
-1.19055e-05 5.54569e-06 -0.000268014
0.00175111 -0.000194946 1.38903e-06
-0.000194946 -0.000158432 1.85741e-06
1.38903e-06 1.85741e-06 -0.000107483
0.00188763 -0.0002011 1.31998e-06
-0.0002011 -4.5547e-06 8.87418e-07
1.31998e-06 8.87418e-07 1.40261e-05
0.00177857 -0.000266379 2.52644e-06
-0.000266379 -4.51921e-05 1.23886e-06
2.52644e-06 1.23886e-06 -0.000100437
0.00182197 -0.000217597 4.63101e-07
-0.000217597 2.36148e-05 1.04418e-07
4.63101e-07 1.04418e-07 -1.89269e-05
0.00187018 -0.00020401 2.89875e-07
-0.00020401 0.000100566 1.07697e-06
2.89875e-07 1.07697e-06 3.97641e-05
0.00193993 -0.000251367 7.79708e-07
-0.000251367 0.000133142 1.06737e-06
7.79708e-07 1.06737e-06 5.16345e-05
0.001875 -0.000219674 -8.60463e-07
-0.000219674 0.000140794 5.57048e-08
-8.60463e-07 5.57048e-08 6.02069e-05
0.00167367 -0.000196014 1.6847e-06
-0.000196014 7.0371e-05 -8.59363e-08
1.6847e-06 -8.59363e-08 -2.61222e-05
0.00163122 -0.000224635 -1.58512e-06
-0.000224635 4.38918e-05 1.94851e-06
-1.58512e-06 1.94851e-06 -5.32323e-05
0.00167977 -0.00021832 5.10251e-07
-0.00021832 0.000100531 -6.79673e-07
5.10251e-07 -6.79673e-07 -9.45837e-06
0.00164498 -0.000202087 2.11753e-06
-0.000202087 0.000112687 -1.8714e-06
2.11753e-06 -1.8714e-06 -2.01907e-05
0.0018704 -0.000226117 -4.95624e-06
-0.000226117 0.000227916 5.05421e-06
-4.95624e-06 5.05421e-06 0.000107789
0.00177082 -0.000213991 -9.10844e-07
-0.000213991 0.000213539 8.57252e-08
-9.10844e-07 8.57252e-08 6.99243e-05
0.00153141 -0.000186353 -2.2046e-06
-0.000186353 0.000139464 -3.82192e-07
-2.2046e-06 -3.82192e-07 -1.60103e-05
0.00173347 -0.000237149 2.79546e-06
-0.000237149 0.000215508 1.3312e-06
2.79546e-06 1.3312e-06 4.89913e-05
0.00156978 -0.000213019 9.81726e-07
-0.000213019 0.000180472 -6.35389e-07
9.81726e-07 -6.35389e-07 1.40882e-05
0.00127657 -0.000176736 -7.32141e-06
-0.000176736 8.40414e-05 2.14767e-06
-7.32141e-06 2.14767e-06 -7.20511e-05
0.00100533 -0.000158594 -1.08782e-05
-0.000158594 3.74283e-05 5.20489e-06
-1.08782e-05 5.20489e-06 -0.000100668
0.00111888 -0.00019178 -2.10398e-06
-0.00019178 2.04045e-05 4.29894e-07
-2.10398e-06 4.29894e-07 -0.000146527
0.0016402 -0.000250161 3.77941e-06
-0.000250161 0.00025375 -6.27707e-07
3.77941e-06 -6.27707e-07 6.8896e-05
0.000537652 -0.000146073 -1.89247e-05
-0.000146073 -9.00226e-05 1.25463e-05
-1.89247e-05 1.25463e-05 -0.000168322
0.000910693 -0.000158071 7.19219e-07
-0.000158071 3.68086e-05 5.14542e-07
7.19219e-07 5.14542e-07 -0.00010805
0.00118473 -0.000208986 6.57643e-06
-0.000208986 0.000113783 -1.68777e-06
6.57643e-06 -1.68777e-06 -6.49787e-05
0.00439633 0.000175003 -0.000110775
0.000175003 0.002227 5.24444e-06
-0.000110775 5.24444e-06 0.00220926
0.000607606 -0.000107468 4.33679e-07
-0.000107468 -3.24275e-05 -3.40022e-08
4.33679e-07 -3.40022e-08 -0.000103027
0.000905389 -0.000154197 7.04669e-06
-0.000154197 9.83495e-05 -5.4828e-06
7.04669e-06 -5.4828e-06 -4.51646e-05
0.00401238 0.000137474 5.41082e-06
0.000137474 0.00199404 5.89693e-07
5.41082e-06 5.89693e-07 0.00198648
0.000728483 -6.19854e-05 1.20541e-05
-6.19854e-05 4.97839e-05 -1.03386e-05
1.20541e-05 -1.03386e-05 -9.16064e-06
0.00358278 0.000106817 0.000106503
0.000106817 0.00173969 -4.71103e-06
0.000106503 -4.71103e-06 0.00174006
0.00123744 0.000239752 -5.65144e-06
0.000239752 0.000127368 -7.88101e-07
-5.65144e-06 -7.88101e-07 -7.17817e-05
0.00115439 0.00021782 1.69247e-07
0.00021782 0.000211762 -1.33463e-06
1.69247e-07 -1.33463e-06 2.72561e-05
0.00111027 0.000189044 -1.80669e-06
0.000189044 0.00022405 -3.42521e-06
-1.80669e-06 -3.42521e-06 5.60717e-05
0.00157599 0.00023353 -1.04421e-06
0.00023353 0.000526957 1.0864e-06
-1.04421e-06 1.0864e-06 0.000362673
0.000849751 0.000128513 -1.05887e-06
0.000128513 0.000115767 -1.5107e-06
-1.05887e-06 -1.5107e-06 -2.22187e-05
0.000849769 9.21469e-05 -3.68801e-06
9.21469e-05 0.000135854 -3.50134e-06
-3.68801e-06 -3.50134e-06 2.20205e-05
0.000614836 6.39063e-05 3.87739e-07
6.39063e-05 7.37956e-07 3.31931e-07
3.87739e-07 3.31931e-07 -0.000116368
0.000663747 9.52456e-06 -5.377e-07
9.52456e-06 2.86176e-05 -8.49191e-08
-5.377e-07 -8.49191e-08 -6.29087e-05
0.00058318 -3.74223e-05 -3.04139e-06
-3.74223e-05 -9.54428e-06 -7.40467e-06
-3.04139e-06 -7.40467e-06 -4.95493e-05
0.000591146 -2.74555e-05 1.23897e-06
-2.74555e-05 -1.32847e-05 3.73777e-06
1.23897e-06 3.73777e-06 -9.20144e-05
0.000537901 -5.4492e-05 3.93769e-07
-5.4492e-05 -3.57806e-05 -1.58027e-07
3.93769e-07 -1.58027e-07 -7.11844e-05
0.00285706 -0.000119405 -6.01229e-05
-0.000119405 0.00132023 -2.1474e-06
-6.01229e-05 -2.1474e-06 0.00132018
0.000527068 -4.9575e-05 1.28249e-06
-4.9575e-05 -5.05613e-05 6.08785e-06
1.28249e-06 6.08785e-06 -8.09115e-05
0.00272008 -0.000110562 -2.17456e-06
-0.000110562 0.00123441 2.64034e-07
-2.17456e-06 2.64034e-07 0.00123632
0.00266073 -9.84315e-05 4.04426e-05
-9.84315e-05 0.00119238 3.49304e-06
4.04426e-05 3.49304e-06 0.00119684
0.0004361 3.25876e-05 8.29314e-06
3.25876e-05 -0.000694114 8.48032e-06
8.29314e-06 8.48032e-06 -0.000681207
0.00418328 2.10143e-05 4.23495e-05
2.10143e-05 0.000294605 8.14264e-06
4.23495e-05 8.14264e-06 0.000122241
0.00949014 0.000483152 -8.27414e-05
0.000483152 0.0028454 -4.48857e-05
-8.27414e-05 -4.48857e-05 0.00170825
0.000357561 0.000187448 1.42781e-06
0.000187448 -0.000412972 2.29524e-06
1.42781e-06 2.29524e-06 -0.000591078
0.00168223 0.000293572 1.42976e-06
0.000293572 0.000227279 2.85263e-06
1.42976e-06 2.85263e-06 4.01725e-05
0.00100121 0.000244953 -3.67178e-06
0.000244953 -3.64009e-05 8.09319e-07
-3.67178e-06 8.09319e-07 -0.000243983
0.00108486 0.000218603 5.91288e-07
0.000218603 0.000264218 1.39808e-06
5.91288e-07 1.39808e-06 9.64391e-05
0.000871235 0.000217757 -1.27319e-06
0.000217757 4.33446e-05 2.03756e-07
-1.27319e-06 2.03756e-07 -0.000147197
0.00127298 0.000274723 6.69522e-06
0.000274723 0.00020212 1.14621e-06
6.69522e-06 1.14621e-06 2.84531e-05
0.00228679 0.000415506 -7.86915e-06
0.000415506 0.000465253 -3.77174e-06
-7.86915e-06 -3.77174e-06 0.000285853
0.00203306 0.000349088 -1.4294e-06
0.000349088 0.000615099 1.67145e-06
-1.4294e-06 1.67145e-06 0.00044597
0.00138403 0.000354681 1.05855e-05
0.000354681 6.1046e-05 1.83903e-05
1.05855e-05 1.83903e-05 -9.59817e-05
0.00203839 0.00042616 -2.14844e-06
0.00042616 0.000325778 9.46264e-07
-2.14844e-06 9.46264e-07 0.000150697
0.00205747 0.000392625 -1.36504e-05
0.000392625 0.000239266 9.32055e-07
-1.36504e-05 9.32055e-07 8.95995e-05
0.000751625 0.000178536 1.23107e-05
0.000178536 -0.000435573 5.13165e-06
1.23107e-05 5.13165e-06 -0.000490201
0.00122959 0.000346127 8.74963e-06
0.000346127 -9.88721e-05 5.71559e-07
8.74963e-06 5.71559e-07 -0.000214501
0.00113799 0.000399299 -6.35349e-06
0.000399299 -0.000169326 -6.56837e-06
-6.35349e-06 -6.56837e-06 -0.000333605
0.00149529 0.000265959 -2.80779e-08
0.000265959 -3.51295e-05 4.3988e-06
-2.80779e-08 4.3988e-06 -3.9586e-05
0.00494896 0.000357706 3.00981e-05
0.000357706 0.000149972 -1.23768e-05
3.00981e-05 -1.23768e-05 -8.57317e-05
0.00215869 0.000476774 1.15532e-05
0.000476774 0.000435859 -2.05741e-05
1.15532e-05 -2.05741e-05 0.000406126
0.00135198 -3.72606e-05 2.27555e-05
-3.72606e-05 -5.67801e-05 3.11493e-06
2.27555e-05 3.11493e-06 -7.99627e-05
0.00207399 -9.03628e-05 -1.85568e-05
-9.03628e-05 7.8598e-05 -7.72938e-07
-1.85568e-05 -7.72938e-07 2.13201e-05
0.00121888 0.000150543 2.70446e-05
0.000150543 -0.000723661 -9.90944e-06
2.70446e-05 -9.90944e-06 -0.000973499
0.000598037 -0.000166667 -2.5816e-05
-0.000166667 -0.000701086 1.85041e-05
-2.5816e-05 1.85041e-05 -0.000646338
0.00286538 -0.000150082 -8.60225e-05
-0.000150082 0.000457373 1.42798e-06
-8.60225e-05 1.42798e-06 0.00042029
0.00176399 -0.00014827 1.82278e-06
-0.00014827 -0.000107969 -1.25452e-06
1.82278e-06 -1.25452e-06 -4.7425e-05
0.00231851 -6.09338e-05 -7.18581e-06
-6.09338e-05 0.000396693 3.01628e-07
-7.18581e-06 3.01628e-07 0.000351976
0.00195625 -0.000163499 2.53407e-06
-0.000163499 1.0813e-05 1.0138e-06
2.53407e-06 1.0138e-06 9.75935e-06
0.00221178 -2.77204e-05 4.06448e-06
-2.77204e-05 0.000210036 9.10185e-07
4.06448e-06 9.10185e-07 0.000173343
0.00182174 -0.000207319 -4.42171e-06
-0.000207319 -0.000138627 1.38853e-06
-4.42171e-06 1.38853e-06 -9.49421e-05
0.00188379 -0.000196472 -1.80211e-06
-0.000196472 -1.85697e-08 -6.99003e-08
-1.80211e-06 -6.99003e-08 1.36847e-05
0.00197153 -0.000168756 -1.80138e-06
-0.000168756 7.29797e-05 7.06358e-07
-1.80138e-06 7.06358e-07 3.79682e-05
0.00184982 -0.000228074 -1.69294e-06
-0.000228074 3.34006e-05 -1.07441e-06
-1.69294e-06 -1.07441e-06 -1.39235e-05
0.00179084 -0.000199414 9.9133e-08
-0.000199414 6.17672e-05 -2.9007e-07
9.9133e-08 -2.9007e-07 -2.90481e-06
0.00176528 -0.000175348 4.03695e-07
-0.000175348 7.39284e-05 2.65115e-07
4.03695e-07 2.65115e-07 -8.78445e-06
0.0017738 -0.000223195 -3.10174e-06
-0.000223195 8.3967e-05 -4.10301e-07
-3.10174e-06 -4.10301e-07 1.27887e-06
0.00170607 -0.000196885 2.79181e-07
-0.000196885 8.9223e-05 -1.57082e-07
2.79181e-07 -1.57082e-07 -7.27766e-06
0.00168787 -0.000182406 2.08007e-06
-0.000182406 0.000100246 -7.33156e-07
2.08007e-06 -7.33156e-07 -2.07602e-05
0.00169417 -0.000218938 -2.39996e-06
-0.000218938 0.000112045 5.86826e-07
-2.39996e-06 5.86826e-07 1.88895e-06
0.00167063 -0.000202375 -8.74938e-08
-0.000202375 0.000128192 -3.70672e-07
-8.74938e-08 -3.70672e-07 -4.49766e-06
0.00152514 -0.000172994 -1.2008e-06
-0.000172994 0.000115986 -3.2646e-07
-1.2008e-06 -3.2646e-07 -3.29353e-05
0.00181715 -0.000214896 -1.51618e-06
-0.000214896 0.000237294 3.01663e-06
-1.51618e-06 3.01663e-06 9.64763e-05
0.00153256 -0.00018701 -5.10478e-07
-0.00018701 0.000139241 -1.24161e-07
-5.10478e-07 -1.24161e-07 -1.54947e-05
0.00127913 -0.000157258 -6.71589e-06
-0.000157258 7.14424e-05 2.00849e-06
-6.71589e-06 2.00849e-06 -7.92774e-05
0.0015007 -0.000210272 4.87302e-06
-0.000210272 0.000140267 -4.54747e-07
4.87302e-06 -4.54747e-07 -2.71621e-05
0.00120845 -0.000173586 -2.9655e-08
-0.000173586 4.52268e-05 -4.90423e-08
-2.9655e-08 -4.90423e-08 -0.00011129
0.00101536 -0.000142921 -1.17815e-05
-0.000142921 2.05872e-05 5.20615e-06
-1.17815e-05 5.20615e-06 -0.000109519
0.000482826 -0.000150683 -1.9415e-05
-0.000150683 -0.000136347 1.2137e-05
-1.9415e-05 1.2137e-05 -0.00021862
0.000967343 -0.000155788 2.19975e-07
-0.000155788 1.69262e-05 7.55667e-08
2.19975e-07 7.55667e-08 -0.000120963
0.00124515 -0.000198966 5.29678e-06
-0.000198966 9.40058e-05 -1.47703e-06
5.29678e-06 -1.47703e-06 -7.31797e-05
0.00489565 0.000175207 -0.000124944
0.000175207 0.00251732 7.43659e-06
-0.000124944 7.43659e-06 0.00249628
0.000601388 -0.000136163 -1.38936e-06
-0.000136163 -5.5702e-05 4.59118e-07
-1.38936e-06 4.59118e-07 -0.000134653
0.000885424 -0.000159487 9.03738e-06
-0.000159487 2.56761e-05 -4.84176e-06
9.03738e-06 -4.84176e-06 -0.000119682
0.00457929 0.00015737 1.03692e-05
0.00015737 0.00232938 1.15173e-06
1.03692e-05 1.15173e-06 0.00231371
0.000760718 -0.000110886 1.66176e-05
-0.000110886 4.96927e-05 -1.19904e-05
1.66176e-05 -1.19904e-05 -2.1854e-05
0.00417293 0.000117689 0.000126151
0.000117689 0.00208168 -6.24498e-06
0.000126151 -6.24498e-06 0.00207704
0.00142581 0.000245228 -5.55118e-06
0.000245228 0.00016328 1.54528e-06
-5.55118e-06 1.54528e-06 -2.70464e-05
0.00103797 0.000222983 -1.30785e-06
0.000222983 1.44305e-05 2.32989e-06
-1.30785e-06 2.32989e-06 -0.000183102
0.00100054 0.000192435 -5.61737e-06
0.000192435 6.98371e-05 -1.18361e-06
-5.61737e-06 -1.18361e-06 -0.000109154
0.00101679 0.000206402 -5.16069e-07
0.000206402 0.000138603 1.64103e-06
-5.16069e-07 1.64103e-06 -4.42758e-05
0.00102488 0.000180852 -8.89785e-07
0.000180852 0.000179008 -4.93192e-07
-8.89785e-07 -4.93192e-07 1.22499e-05
0.000950936 0.000137609 -5.27368e-06
0.000137609 0.000173831 -4.9014e-06
-5.27368e-06 -4.9014e-06 4.08903e-05
0.000913381 0.000134615 2.18118e-07
0.000134615 0.000151936 -3.42599e-08
2.18118e-07 -3.42599e-08 1.39483e-05
0.000741616 7.08834e-05 -3.23339e-07
7.08834e-05 7.54853e-05 -6.39712e-08
-3.23339e-07 -6.39712e-08 -3.57364e-05
0.000658162 3.62285e-06 -7.34891e-06
3.62285e-06 2.70668e-05 -8.52056e-06
-7.34891e-06 -8.52056e-06 -2.13195e-05
0.000615522 -1.88191e-05 1.13534e-06
-1.88191e-05 7.55654e-07 3.58344e-06
1.13534e-06 3.58344e-06 -8.80699e-05
0.000526736 -4.56229e-05 -2.80674e-08
-4.56229e-05 -3.99408e-05 -2.43296e-07
-2.80674e-08 -2.43296e-07 -8.04347e-05
0.00310097 -0.000124413 -7.78889e-05
-0.000124413 0.00146629 -2.03523e-06
-7.78889e-05 -2.03523e-06 0.00146455
0.000503831 -5.58078e-05 8.94075e-07
-5.58078e-05 -5.52544e-05 6.66086e-06
8.94075e-07 6.66086e-06 -9.05338e-05
0.00281839 -0.000122263 -2.05986e-06
-0.000122263 0.00129824 2.59177e-07
-2.05986e-06 2.59177e-07 0.0012973
0.00271157 -0.0001102 4.57757e-05
-0.0001102 0.00122916 2.98253e-06
4.57757e-05 2.98253e-06 0.00123102
0.000856126 4.84981e-05 1.11203e-05
4.84981e-05 -0.000385083 -1.34988e-06
1.11203e-05 -1.34988e-06 -0.000388686
0.00180263 -8.45551e-07 -6.48686e-06
-8.45551e-07 -0.000130643 1.31189e-06
-6.48686e-06 1.31189e-06 -0.000122577
0.00391429 1.25523e-06 0.00011755
1.25523e-06 -1.46202e-06 3.74432e-06
0.00011755 3.74432e-06 4.73982e-05
0.00179654 0.000331016 -2.2912e-06
0.000331016 0.000210096 1.3943e-06
-2.2912e-06 1.3943e-06 3.76132e-05
0.000742492 0.00023365 7.83682e-07
0.00023365 -0.000201953 -1.06164e-06
7.83682e-07 -1.06164e-06 -0.000383128
0.00188713 0.000295928 -1.45578e-06
0.000295928 0.000245255 3.4737e-06
-1.45578e-06 3.4737e-06 8.0779e-05
0.00174213 0.000297006 1.23618e-06
0.000297006 0.000264322 5.31585e-07
1.23618e-06 5.31585e-07 7.65713e-05
0.000726565 0.000230588 -2.2986e-06
0.000230588 -0.000195754 3.99356e-06
-2.2986e-06 3.99356e-06 -0.000399876
0.00185757 0.000324842 -6.13112e-06
0.000324842 0.000125694 1.52816e-06
-6.13112e-06 1.52816e-06 -2.44962e-05
0.00178578 0.000321548 -1.09837e-06
0.000321548 0.000472773 -1.11266e-07
-1.09837e-06 -1.11266e-07 0.000289458
0.00216069 0.000403234 -1.35586e-07
0.000403234 0.00039953 -1.43528e-06
-1.35586e-07 -1.43528e-06 0.000219257
0.001786 0.000227064 -1.11225e-05
0.000227064 1.43095e-05 -1.10186e-08
-1.11225e-05 -1.10186e-08 -8.71527e-05
0.00241706 0.000449105 5.77696e-06
0.000449105 0.000537559 4.14346e-06
5.77696e-06 4.14346e-06 0.000362989
0.00199881 0.000391015 -1.23586e-06
0.000391015 0.000203955 5.11804e-07
-1.23586e-06 5.11804e-07 5.22491e-05
0.000937727 0.00019468 1.76298e-06
0.00019468 -0.000306395 2.33436e-06
1.76298e-06 2.33436e-06 -0.000366665
0.000134633 0.000276897 1.09239e-06
0.000276897 -0.000659298 -1.98555e-06
1.09239e-06 -1.98555e-06 -0.000773287
0.00149707 0.000262713 -3.44808e-05
0.000262713 -4.14424e-05 -1.51389e-05
-3.44808e-05 -1.51389e-05 -5.75164e-05
0.00175 3.28822e-05 1.5451e-06
3.28822e-05 -5.16182e-05 6.48412e-07
1.5451e-06 6.48412e-07 -9.65506e-05
0.0020538 -2.1098e-05 6.89914e-07
-2.1098e-05 0.000355045 2.16312e-06
6.89914e-07 2.16312e-06 0.000335801
0.00138627 -9.9475e-06 -5.90116e-05
-9.9475e-06 -0.000227276 -8.8004e-06
-5.90116e-05 -8.8004e-06 -0.000327735
0.00201601 -0.000175282 -2.37911e-05
-0.000175282 4.3089e-05 7.455e-07
-2.37911e-05 7.455e-07 0.000104412
0.00126257 -6.8449e-05 -8.26484e-06
-6.8449e-05 -0.000245246 -4.12824e-07
-8.26484e-06 -4.12824e-07 -0.000289532
0.00191959 -0.000155716 1.72672e-07
-0.000155716 -4.35693e-06 -3.84878e-07
1.72672e-07 -3.84878e-07 -2.52159e-06
0.00198259 -2.75106e-05 -2.49954e-06
-2.75106e-05 5.85032e-05 7.36626e-07
-2.49954e-06 7.36626e-07 2.68186e-05
0.00196185 -5.96216e-05 -5.74888e-06
-5.96216e-05 4.11548e-05 -7.44154e-07
-5.74888e-06 -7.44154e-07 9.95229e-06
0.00187427 -0.000191245 -2.96847e-06
-0.000191245 3.92588e-06 -1.23737e-06
-2.96847e-06 -1.23737e-06 1.18526e-05
0.00190016 -0.000162274 5.68508e-07
-0.000162274 4.1575e-05 -1.57217e-07
5.68508e-07 -1.57217e-07 4.13782e-06
0.0019989 -0.000129192 -4.71026e-07
-0.000129192 0.000137366 -4.50697e-07
-4.71026e-07 -4.50697e-07 7.92569e-05
0.00171011 -0.000195266 -8.99978e-07
-0.000195266 2.18272e-05 -1.04364e-06
-8.99978e-07 -1.04364e-06 -4.67996e-05
0.00171766 -0.000172552 7.32733e-08
-0.000172552 4.99616e-05 -5.53529e-08
7.32733e-08 -5.53529e-08 -3.37872e-05
0.00174203 -0.000148087 1.55085e-06
-0.000148087 9.38233e-05 -3.49614e-07
1.55085e-06 -3.49614e-07 -1.629e-05
0.00174235 -0.000197846 -1.19277e-06
-0.000197846 0.000109855 -1.84195e-07
-1.19277e-06 -1.84195e-07 1.3353e-05
0.00171766 -0.000182111 4.4607e-08
-0.000182111 0.000118675 -1.33263e-07
4.4607e-08 -1.33263e-07 -2.16199e-06
0.00158475 -0.000155215 -3.03892e-07
-0.000155215 0.000118799 -3.58971e-07
-3.03892e-07 -3.58971e-07 -2.22166e-05
0.00169704 -0.000202751 -1.85364e-06
-0.000202751 0.000144016 1.01421e-06
-1.85364e-06 1.01421e-06 1.15055e-05
0.00153813 -0.000173208 -1.73188e-07
-0.000173208 0.000121917 -2.44942e-08
-1.73188e-07 -2.44942e-08 -2.66756e-05
0.00130584 -0.000140611 -5.71245e-06
-0.000140611 7.31856e-05 1.67704e-06
-5.71245e-06 1.67704e-06 -7.39574e-05
0.00153427 -0.00018761 1.81499e-06
-0.00018761 0.000139225 3.88314e-07
1.81499e-06 3.88314e-07 -1.47549e-05
0.00130164 -0.000157809 -1.6629e-07
-0.000157809 8.386e-05 6.68304e-08
-1.6629e-07 6.68304e-08 -6.66579e-05
0.00104283 -0.000127061 -1.24398e-05
-0.000127061 2.32187e-05 5.10222e-06
-1.24398e-05 5.10222e-06 -0.00010309
0.00114379 -0.000170612 6.61476e-06
-0.000170612 8.4069e-06 -1.89738e-06
6.61476e-06 -1.89738e-06 -0.000148548
0.00101181 -0.000141389 1.71683e-07
-0.000141389 1.81426e-05 -4.72998e-08
1.71683e-07 -4.72998e-08 -0.000111737
0.00232351 -8.28797e-05 -2.17588e-05
-8.28797e-05 0.000926001 7.47988e-06
-2.17588e-05 7.47988e-06 0.000855123
0.00156057 -3.07769e-05 -0.000154244
-3.07769e-05 0.000544933 1.55441e-05
-0.000154244 1.55441e-05 0.000526333
0.00150372 -0.000120907 -2.47691e-06
-0.000120907 0.000454116 -1.90206e-07
-2.47691e-06 -1.90206e-07 0.000375045
0.000939954 -0.000153813 1.06575e-05
-0.000153813 2.40661e-06 -4.89473e-06
1.06575e-05 -4.89473e-06 -0.00013539
0.00505852 0.000131898 3.69559e-06
0.000131898 0.00260244 1.99858e-07
3.69559e-06 1.99858e-07 0.00258729
0.000683884 -0.000156505 1.99058e-05
-0.000156505 -9.36132e-06 -1.23952e-05
1.99058e-05 -1.23952e-05 -9.14672e-05
0.0047354 0.000117861 0.000146738
0.000117861 0.00241214 -9.30602e-06
0.000146738 -9.30602e-06 0.0024014
0.00186191 0.000241146 3.49955e-07
0.000241146 0.00020272 9.68258e-07
3.49955e-07 9.68258e-07 5.45729e-05
0.00151087 0.000241872 -3.37754e-07
0.000241872 0.000144629 2.73922e-06
-3.37754e-07 2.73922e-06 -2.80516e-05
0.00153138 0.000254967 -3.32003e-07
0.000254967 0.000223538 -1.74826e-07
-3.32003e-07 -1.74826e-07 3.3436e-05
0.00116801 0.000203534 -7.06435e-06
0.000203534 7.32537e-05 -1.08536e-06
-7.06435e-06 -1.08536e-06 -9.96697e-05
0.000844075 0.000206683 1.9171e-06
0.000206683 -9.49819e-05 3.07279e-06
1.9171e-06 3.07279e-06 -0.000290995
0.00111083 0.000200317 -1.15538e-06
0.000200317 0.000134943 1.10651e-06
-1.15538e-06 1.10651e-06 -4.55467e-05
0.000919903 0.000155234 -7.6162e-06
0.000155234 9.6381e-05 -4.43385e-06
-7.6162e-06 -4.43385e-06 -4.83148e-05
0.000947772 0.000173194 1.42659e-06
0.000173194 0.000138765 3.19268e-06
1.42659e-06 3.19268e-06 -2.68574e-05
0.000802001 0.000121916 -5.4443e-09
0.000121916 8.96941e-05 -3.10021e-07
-5.4443e-09 -3.10021e-07 -4.04399e-05
0.00078483 7.26603e-05 -1.23664e-05
7.26603e-05 8.78257e-05 -1.08083e-05
-1.23664e-05 -1.08083e-05 2.46425e-05
0.000657178 4.96338e-05 1.87094e-06
4.96338e-05 2.52812e-05 2.79609e-06
1.87094e-06 2.79609e-06 -8.12778e-05
0.00054046 -8.14448e-06 -6.13504e-07
-8.14448e-06 -3.81542e-05 -3.75289e-07
-6.13504e-07 -3.75289e-07 -8.52708e-05
0.00347346 -0.000121268 -0.00010208
-0.000121268 0.00168624 -3.33344e-06
-0.00010208 -3.33344e-06 0.00168288
0.000463757 -5.41345e-05 6.39282e-07
-5.41345e-05 -7.2936e-05 7.46596e-06
6.39282e-07 7.46596e-06 -0.000114513
0.00301406 -0.000134478 -2.74172e-06
-0.000134478 0.00141783 2.99716e-07
-2.74172e-06 2.99716e-07 0.00141355
0.00279045 -0.000122627 5.10426e-05
-0.000122627 0.00128199 2.40998e-06
5.10426e-05 2.40998e-06 0.00128087
0.00177363 0.000125129 -3.5933e-06
0.000125129 -4.04815e-05 5.96395e-07
-3.5933e-06 5.96395e-07 -0.000106844
0.00189834 4.10505e-05 1.18586e-05
4.10505e-05 0.000159933 1.15184e-06
1.18586e-05 1.15184e-06 0.000149822
0.00382667 -2.68597e-05 -7.00419e-05
-2.68597e-05 0.000768431 -1.54932e-05
-7.00419e-05 -1.54932e-05 0.000765654
0.00170105 0.000279076 -3.95203e-06
0.000279076 5.55522e-05 1.1991e-06
-3.95203e-06 1.1991e-06 -8.87967e-05
0.00168575 0.000320378 -1.10634e-06
0.000320378 0.000165594 -1.33514e-07
-1.10634e-06 -1.33514e-07 -6.79157e-06
0.00115269 0.000281407 -1.64279e-05
0.000281407 2.42925e-05 -6.24494e-06
-1.64279e-05 -6.24494e-06 -0.000160029
0.00190369 0.000286296 2.3171e-06
0.000286296 0.000257112 6.4693e-07
2.3171e-06 6.4693e-07 9.42415e-05
0.00181417 0.00030086 7.00448e-08
0.00030086 0.000309055 -3.20813e-06
7.00448e-08 -3.20813e-06 0.000120664
0.00215017 0.000224107 -3.34716e-06
0.000224107 0.000235587 1.29533e-06
-3.34716e-06 1.29533e-06 0.000137169
0.00171874 0.000319655 -1.40906e-06
0.000319655 5.57825e-05 8.26908e-07
-1.40906e-06 8.26908e-07 -9.59347e-05
0.00205013 0.000392364 3.31422e-06
0.000392364 0.000340737 -4.28231e-08
3.31422e-06 -4.28231e-08 0.000159373
0.001823 0.000229222 -8.92105e-07
0.000229222 3.87857e-05 8.57581e-08
-8.92105e-07 8.57581e-08 -6.30777e-05
0.00208787 0.000398438 1.81121e-05
0.000398438 0.000237126 1.77329e-06
1.81121e-05 1.77329e-06 8.28749e-05
0.00148026 0.000215464 -1.79747e-05
0.000215464 -9.02199e-08 -2.9493e-06
-1.79747e-05 -2.9493e-06 -6.54675e-05
0.00198396 4.02735e-05 -5.72083e-06
4.02735e-05 8.22552e-05 -1.70605e-07
-5.72083e-06 -1.70605e-07 3.43382e-05
0.00186153 4.27165e-05 -1.8952e-06
4.27165e-05 1.32034e-05 1.66478e-07
-1.8952e-06 1.66478e-07 -3.30102e-05
0.00289512 -4.60995e-06 -3.83377e-05
-4.60995e-06 0.000849992 -5.94891e-06
-3.83377e-05 -5.94891e-06 0.000827458
0.00185896 -0.000146964 -7.89449e-06
-0.000146964 -3.84531e-05 -1.43893e-06
-7.89449e-06 -1.43893e-06 -3.35951e-05
0.00191328 -2.70684e-05 3.16991e-06
-2.70684e-05 -1.42967e-06 -9.5669e-07
3.16991e-06 -9.5669e-07 -3.00036e-05
0.00195379 -6.38354e-05 7.59604e-08
-6.38354e-05 2.21259e-05 1.63681e-07
7.59604e-08 1.63681e-07 -3.30757e-06
0.00195167 -4.60241e-05 -1.48567e-06
-4.60241e-05 0.000120178 -9.41936e-08
-1.48567e-06 -9.41936e-08 6.14649e-05
0.00183272 -0.000155377 2.76746e-06
-0.000155377 1.35027e-05 -1.04711e-06
2.76746e-06 -1.04711e-06 -2.65503e-05
0.00187709 -0.000128797 5.27905e-07
-0.000128797 7.45633e-05 -1.14493e-07
5.27905e-07 -1.14493e-07 1.10544e-05
0.00181119 -0.00010689 3.28961e-06
-0.00010689 0.000108426 -1.27591e-06
3.28961e-06 -1.27591e-06 7.51853e-06
0.00167134 -0.000169885 -3.28423e-07
-0.000169885 2.69347e-05 4.51328e-08
-3.28423e-07 4.51328e-08 -5.79347e-05
0.00176904 -0.00014865 -3.63699e-08
-0.00014865 0.000108684 -6.92197e-08
-3.63699e-08 -6.92197e-08 -1.35735e-06
0.00165742 -0.000130948 -2.70846e-08
-0.000130948 0.000121663 -4.00295e-07
-2.70846e-08 -4.00295e-07 -1.11584e-05
0.001747 -0.000181697 -1.61446e-06
-0.000181697 0.000136973 4.31131e-07
-1.61446e-06 4.31131e-07 1.63243e-05
0.00158727 -0.000154883 -2.23851e-07
-0.000154883 0.00011915 6.3851e-08
-2.23851e-07 6.3851e-08 -2.16301e-05
0.00134355 -0.000121576 -5.02896e-06
-0.000121576 7.86074e-05 1.33622e-06
-5.02896e-06 1.33622e-06 -6.52679e-05
0.00154961 -0.000173376 8.49853e-07
-0.000173376 0.000127125 2.80588e-07
8.49853e-07 2.80588e-07 -2.11387e-05
0.00132522 -0.00014108 -1.19192e-07
-0.00014108 8.25131e-05 7.99633e-08
-1.19192e-07 7.99633e-08 -6.44171e-05
0.00104989 -0.000111756 -1.24217e-05
-0.000111756 1.67558e-05 4.38558e-06
-1.24217e-05 4.38558e-06 -0.000108058
0.00132454 -0.000158426 6.17597e-06
-0.000158426 9.64528e-05 -1.79392e-06
6.17597e-06 -1.79392e-06 -5.3873e-05
0.00103566 -0.00012493 2.24138e-07
-0.00012493 1.8265e-05 9.52612e-08
2.24138e-07 9.52612e-08 -0.000107562
0.00236865 -9.35625e-05 -2.88427e-05
-9.35625e-05 0.000938317 6.56335e-06
-2.88427e-05 6.56335e-06 0.000875026
0.000998793 -0.000139564 1.1764e-05
-0.000139564 1.04835e-05 -5.23394e-06
1.1764e-05 -5.23394e-06 -0.000119177
0.00248374 -0.000130822 3.4068e-05
-0.000130822 0.00101062 -3.82699e-06
3.4068e-05 -3.82699e-06 0.000946455
0.00168294 -7.16075e-05 -0.000160927
-7.16075e-05 0.000622486 1.93591e-05
-0.000160927 1.93591e-05 0.000603258
0.00337589 1.44671e-05 -0.000159576
1.44671e-05 0.00161999 7.33121e-06
-0.000159576 7.33121e-06 0.00160212
0.00258232 -0.000176472 9.87539e-05
-0.000176472 0.00107198 -1.27144e-05
9.87539e-05 -1.27144e-05 0.00100944
0.00521011 0.000124327 0.000152186
0.000124327 0.00270206 -1.42677e-05
0.000152186 -1.42677e-05 0.00268001
0.00195922 0.000238312 -1.99752e-06
0.000238312 0.000222632 -1.87807e-07
-1.99752e-06 -1.87807e-07 8.56673e-05
0.00157963 0.000212047 2.13501e-06
0.000212047 0.000143618 1.30534e-06
2.13501e-06 1.30534e-06 -1.28514e-05
0.0018139 0.000241402 3.65399e-07
0.000241402 0.000173077 -8.63171e-07
3.65399e-07 -8.63171e-07 2.80052e-05
0.00134416 0.000200907 -6.89784e-06
0.000200907 0.000125783 -7.99551e-07
-6.89784e-06 -7.99551e-07 -3.66055e-05
0.00154601 0.000241828 4.64415e-07
0.000241828 0.000159518 3.76441e-07
4.64415e-07 3.76441e-07 -1.38877e-05
0.0016157 0.00026331 4.63424e-06
0.00026331 0.000272337 -1.16348e-06
4.63424e-06 -1.16348e-06 8.25942e-05
0.00118469 0.000205656 -5.11048e-08
0.000205656 8.26263e-05 2.67041e-08
-5.11048e-08 2.67041e-08 -9.06715e-05
0.000880487 0.000154697 -1.01637e-05
0.000154697 -3.28699e-06 -4.07878e-06
-1.01637e-05 -4.07878e-06 -0.000146477
0.00122903 0.000208781 3.86175e-06
0.000208781 0.000204588 3.47235e-06
3.86175e-06 3.47235e-06 2.25036e-05
0.000861364 0.000147449 -8.08041e-07
0.000147449 6.20608e-05 4.65556e-07
-8.08041e-07 4.65556e-07 -8.14033e-05
0.000761341 0.000134911 -1.86258e-05
0.000134911 5.52589e-05 -1.18408e-05
-1.86258e-05 -1.18408e-05 -2.16768e-05
0.00064491 0.0001048 3.10467e-06
0.0001048 1.43934e-06 3.57821e-06
3.10467e-06 3.57821e-06 -0.000125893
0.000574012 4.8001e-05 -1.61423e-07
4.8001e-05 -2.83006e-05 -3.37066e-07
-1.61423e-07 -3.37066e-07 -8.83813e-05
0.00410298 -0.000111432 -0.00013176
-0.000111432 0.00205702 -7.07788e-06
-0.00013176 -7.07788e-06 0.00204916
0.000418255 -3.22143e-05 2.33787e-06
-3.22143e-05 -0.000101916 8.39063e-06
2.33787e-06 8.39063e-06 -0.000150054
0.00336942 -0.000145838 -4.90243e-06
-0.000145838 0.00163006 3.90688e-07
-4.90243e-06 3.90688e-07 0.00162197
0.0029536 -0.00013704 5.76527e-05
-0.00013704 0.00138321 1.90639e-06
5.76527e-05 1.90639e-06 0.00137829
0.00183851 0.000130381 -3.8179e-06
0.000130381 1.44245e-05 9.80697e-07
-3.8179e-06 9.80697e-07 -5.67733e-05
0.0018302 0.000123915 6.62774e-07
0.000123915 -4.38741e-06 -4.20405e-07
6.62774e-07 -4.20405e-07 -7.02357e-05
0.00253413 3.54606e-05 -4.72347e-05
3.54606e-05 0.000497413 -7.22469e-06
-4.72347e-05 -7.22469e-06 0.000487896
0.00198565 0.000199197 3.18515e-07
0.000199197 0.000168175 1.38779e-06
3.18515e-07 1.38779e-06 5.96554e-05
0.00170321 0.000273987 -6.52497e-07
0.000273987 6.76667e-05 1.59168e-07
-6.52497e-07 1.59168e-07 -7.60747e-05
0.00158114 0.000310403 -3.08707e-07
0.000310403 0.000123493 -3.67434e-06
-3.08707e-07 -3.67434e-06 -4.89391e-05
0.00190718 0.000275502 5.21496e-07
0.000275502 0.000261536 -2.60729e-06
5.21496e-07 -2.60729e-06 0.000100477
0.00195748 0.000214399 -6.25827e-07
0.000214399 0.000125698 -2.30726e-07
-6.25827e-07 -2.30726e-07 2.65194e-05
0.0015914 0.000314668 2.3583e-06
0.000314668 -6.79022e-06 -4.14773e-07
2.3583e-06 -4.14773e-07 -0.000159954
0.00181089 0.000226959 1.27542e-05
0.000226959 5.16115e-05 -8.98971e-09
1.27542e-05 -8.98971e-09 -4.99271e-05
0.00191774 2.91716e-05 -4.13122e-07
2.91716e-05 8.71142e-05 6.14286e-07
-4.13122e-07 6.14286e-07 2.44979e-05
0.00193408 3.94962e-05 1.28512e-07
3.94962e-05 5.72796e-05 4.29413e-08
1.28512e-07 4.29413e-08 8.40293e-06
0.00202401 5.28982e-05 -5.88421e-06
5.28982e-05 0.000103928 -2.0143e-06
-5.88421e-06 -2.0143e-06 5.82639e-05
0.00160553 -1.57997e-05 -1.48522e-06
-1.57997e-05 -4.13571e-05 1.24983e-07
-1.48522e-06 1.24983e-07 -0.000115323
0.00194725 -7.07146e-05 5.18499e-06
-7.07146e-05 4.1034e-06 1.43539e-08
5.18499e-06 1.43539e-08 -1.53098e-05
0.00187678 -4.75733e-05 -1.12146e-06
-4.75733e-05 7.30796e-05 5.84164e-07
-1.12146e-06 5.84164e-07 1.39652e-05
0.00201048 -5.39733e-05 4.69181e-07
-5.39733e-05 0.000221256 -7.97637e-07
4.69181e-07 -7.97637e-07 0.000131917
0.00174511 -0.0001282 1.57331e-06
-0.0001282 5.34718e-06 -5.24134e-08
1.57331e-06 -5.24134e-08 -6.33113e-05
0.00181102 -0.000106799 1.9981e-06
-0.000106799 0.000107515 -6.13938e-07
1.9981e-06 -6.13938e-07 6.80513e-06
0.00170173 -9.54463e-05 6.83418e-07
-9.54463e-05 0.000114168 -9.05465e-07
6.83418e-07 -9.05465e-07 -1.07239e-05
0.00180112 -0.000148754 -1.352e-06
-0.000148754 0.00012655 2.37152e-07
-1.352e-06 2.37152e-07 1.66568e-05
0.00164881 -0.000129026 -1.64441e-07
-0.000129026 0.000118723 -6.18226e-08
-1.64441e-07 -6.18226e-08 -1.37983e-05
0.00137785 -9.81879e-05 -4.4752e-06
-9.81879e-05 7.74674e-05 9.77187e-07
-4.4752e-06 9.77187e-07 -6.24431e-05
0.00159081 -0.000154508 3.95005e-07
-0.000154508 0.000120126 3.85853e-07
3.95005e-07 3.85853e-07 -2.04029e-05
0.00134728 -0.000121359 -1.31857e-07
-0.000121359 7.82543e-05 1.01645e-07
-1.31857e-07 1.01645e-07 -6.53747e-05
0.00105538 -9.47731e-05 -1.21306e-05
-9.47731e-05 1.04397e-05 3.63148e-06
-1.21306e-05 3.63148e-06 -0.000113469
0.00134545 -0.000141534 5.43799e-06
-0.000141534 9.22587e-05 -1.49366e-06
5.43799e-06 -1.49366e-06 -5.44471e-05
0.00104899 -0.000109272 9.9708e-08
-0.000109272 1.5167e-05 1.60668e-07
9.9708e-08 1.60668e-07 -0.000108988
0.00241545 -0.00010756 -3.6268e-05
-0.00010756 0.00095705 6.09523e-06
-3.6268e-05 6.09523e-06 0.000896366
0.00102351 -0.000122599 1.23457e-05
-0.000122599 1.0375e-05 -4.91684e-06
1.23457e-05 -4.91684e-06 -0.000114928
0.00247585 -0.000128184 3.07098e-05
-0.000128184 0.000996874 -3.33884e-06
3.07098e-05 -3.33884e-06 0.000937557
0.00172181 -6.269e-05 -0.000156712
-6.269e-05 0.000642004 1.74693e-05
-0.000156712 1.74693e-05 0.000623213
0.00261676 -0.000152226 9.92049e-05
-0.000152226 0.00108302 -1.46958e-05
9.92049e-05 -1.46958e-05 0.00102309
0.00148918 -4.94341e-06 -7.51282e-05
-4.94341e-06 0.000520196 7.19624e-06
-7.51282e-05 7.19624e-06 0.000491285
0.00506268 0.000242028 8.15182e-06
0.000242028 0.00262428 -3.45884e-06
8.15182e-06 -3.45884e-06 0.00258479
0.00177752 0.000188814 1.0043e-06
0.000188814 0.000103396 8.87584e-07
1.0043e-06 8.87584e-07 -2.4573e-05
0.00175384 0.000205902 -5.46481e-07
0.000205902 0.00019871 -2.4866e-07
-5.46481e-07 -2.4866e-07 5.2719e-05
0.00184371 0.000234087 -2.79822e-06
0.000234087 0.000154665 4.22166e-08
-2.79822e-06 4.22166e-08 1.62536e-05
0.00172882 0.000196853 -4.27099e-06
0.000196853 0.000327197 -5.53532e-07
-4.27099e-06 -5.53532e-07 0.000176071
0.00151905 0.000214313 8.58878e-07
0.000214313 0.00010522 -8.8248e-07
8.58878e-07 -8.8248e-07 -5.04929e-05
0.00177664 0.00024224 -7.12135e-07
0.00024224 0.000149422 -2.78341e-06
-7.12135e-07 -2.78341e-06 7.41218e-06
0.00094564 0.000151181 -1.19242e-05
0.000151181 -1.55224e-05 -4.22403e-06
-1.19242e-05 -4.22403e-06 -0.000150744
0.0012586 0.000195803 3.97256e-08
0.000195803 7.67533e-05 2.33822e-07
3.97256e-08 2.33822e-07 -8.51076e-05
0.0016059 0.00024386 3.03691e-06
0.00024386 0.000187645 -1.03566e-06
3.03691e-06 -1.03566e-06 1.31799e-05
0.00119588 0.000207574 7.17852e-06
0.000207574 8.86829e-05 1.12402e-06
7.17852e-06 1.12402e-06 -8.49851e-05
0.000927059 0.000156955 -7.51794e-07
0.000156955 2.21693e-05 3.03563e-07
-7.51794e-07 3.03563e-07 -0.000121191
0.000642942 0.000176576 -2.21824e-05
0.000176576 -2.98932e-05 -1.17454e-05
-2.21824e-05 -1.17454e-05 -0.000115284
0.000794377 0.000139269 5.91917e-06
0.000139269 2.30713e-05 5.49878e-06
5.91917e-06 5.49878e-06 -0.000119047
0.000610053 0.000124725 -1.78284e-07
0.000124725 -2.39663e-05 2.68646e-07
-1.78284e-07 2.68646e-07 -0.000100619
0.00489518 -0.000108036 -0.000151319
-0.000108036 0.00252849 -1.29438e-05
-0.000151319 -1.29438e-05 0.00250862
0.000416328 3.48052e-05 7.91758e-06
3.48052e-05 -0.000115967 9.87231e-06
7.91758e-06 9.87231e-06 -0.000172847
0.00391691 -0.000157722 -9.08156e-06
-0.000157722 0.00195684 7.12097e-07
-9.08156e-06 7.12097e-07 0.00194252
0.00324569 -0.000155041 6.7816e-05
-0.000155041 0.00155978 1.62981e-06
6.7816e-05 1.62981e-06 0.00154961
0.00177804 0.0001073 -1.97226e-07
0.0001073 1.61606e-05 1.58267e-06
-1.97226e-07 1.58267e-06 -6.51966e-05
0.00179035 0.000131648 -4.24311e-07
0.000131648 -1.65592e-05 2.17126e-07
-4.24311e-07 2.17126e-07 -8.78551e-05
0.00189005 0.000127326 4.43739e-06
0.000127326 2.5536e-05 -4.41734e-07
4.43739e-06 -4.41734e-07 -4.09944e-05
0.00193453 0.000195389 9.02854e-07
0.000195389 0.00014229 -1.08217e-07
9.02854e-07 -1.08217e-07 3.55862e-05
0.00169822 0.000268402 5.06695e-07
0.000268402 7.60039e-05 -1.44515e-06
5.06695e-07 -1.44515e-06 -6.7095e-05
0.00174256 0.000204249 3.39622e-06
0.000204249 2.80364e-06 -1.32035e-06
3.39622e-06 -1.32035e-06 -9.72103e-05
0.00189183 2.95032e-05 -2.27324e-07
2.95032e-05 0.000122688 3.46597e-07
-2.27324e-07 3.46597e-07 4.67174e-05
0.00189774 2.97066e-05 9.62318e-07
2.97066e-05 7.78991e-05 -2.2363e-07
9.62318e-07 -2.2363e-07 1.4991e-05
0.00185739 3.92099e-05 5.63713e-06
3.92099e-05 2.02857e-05 2.33807e-07
5.63713e-06 2.33807e-07 -2.9571e-05
0.0017235 -2.24986e-05 -1.96312e-06
-2.24986e-05 2.77721e-05 2.8491e-08
-1.96312e-06 2.8491e-08 -4.54745e-05
0.00170015 -2.8284e-05 6.7868e-07
-2.8284e-05 5.4066e-05 -5.72838e-07
6.7868e-07 -5.72838e-07 -3.7941e-05
0.00180329 -4.89333e-05 7.115e-07
-4.89333e-05 2.71797e-05 1.016e-06
7.115e-07 1.016e-06 -3.24817e-05
0.00184577 -5.32635e-05 -9.03127e-07
-5.32635e-05 0.000127524 4.20414e-07
-9.03127e-07 4.20414e-07 3.43918e-05
0.00175413 -5.13293e-05 1.46811e-07
-5.13293e-05 0.000130695 -6.72118e-07
1.46811e-07 -6.72118e-07 1.58617e-05
0.00180288 -0.000107066 9.73565e-07
-0.000107066 0.000102449 7.38425e-08
9.73565e-07 7.38425e-08 1.86403e-06
0.00168025 -9.64799e-05 7.57775e-07
-9.64799e-05 0.000105199 -4.41111e-07
7.57775e-07 -4.41111e-07 -1.97859e-05
0.00140812 -6.64661e-05 -4.40828e-06
-6.64661e-05 7.06253e-05 4.6041e-07
-4.40828e-06 4.6041e-07 -6.46585e-05
0.00162759 -0.000128534 -5.30628e-08
-0.000128534 0.000108371 2.01842e-07
-5.30628e-08 2.01842e-07 -2.4058e-05
0.00137299 -9.75751e-05 -2.7806e-08
-9.75751e-05 7.0835e-05 8.93023e-08
-2.7806e-08 8.93023e-08 -6.89129e-05
0.00105389 -7.40016e-05 -1.19217e-05
-7.40016e-05 -1.40281e-06 2.97425e-06
-1.19217e-05 2.97425e-06 -0.000123878
0.00134928 -0.000121026 4.61676e-06
-0.000121026 7.68955e-05 -1.11031e-06
4.61676e-06 -1.11031e-06 -6.64797e-05
0.00105411 -9.20582e-05 -3.14557e-08
-9.20582e-05 8.924e-06 1.52622e-07
-3.14557e-08 1.52622e-07 -0.000114364
0.00240504 -0.000123586 -3.97824e-05
-0.000123586 0.000947779 5.57499e-06
-3.97824e-05 5.57499e-06 0.000885285
0.00104534 -0.000106762 1.2377e-05
-0.000106762 1.1896e-05 -4.15112e-06
1.2377e-05 -4.15112e-06 -0.000111578
0.00247849 -0.000119176 2.96546e-05
-0.000119176 0.000990651 -2.57203e-06
2.96546e-05 -2.57203e-06 0.000933004
0.00176253 -5.43658e-05 -0.00015682
-5.43658e-05 0.000659777 1.50793e-05
-0.00015682 1.50793e-05 0.00064123
0.00258056 -0.000132541 9.80696e-05
-0.000132541 0.00105324 -1.29377e-05
9.80696e-05 -1.29377e-05 0.000997921
0.00149046 -2.02503e-05 -6.80295e-05
-2.02503e-05 0.000513719 6.71564e-06
-6.80295e-05 6.71564e-06 0.00048857
0.00135664 1.01646e-05 2.33834e-05
1.01646e-05 0.000445561 -4.36478e-06
2.33834e-05 -4.36478e-06 0.000412376
0.00189783 0.000112493 3.83747e-07
0.000112493 0.000146146 2.07042e-06
3.83747e-07 2.07042e-06 4.48941e-05
0.0016778 0.000169074 -1.12799e-06
0.000169074 0.000121538 4.32208e-07
-1.12799e-06 4.32208e-07 -1.73907e-05
0.00179504 0.000189568 -8.64618e-07
0.000189568 0.000107696 -9.35075e-08
-8.64618e-07 -9.35075e-08 -1.7553e-05
0.00166245 0.000172381 -4.02381e-06
0.000172381 0.000254832 -6.0257e-07
-4.02381e-06 -6.0257e-07 0.000110437
0.00171948 0.000202341 8.79593e-07
0.000202341 0.000182657 1.83909e-07
8.79593e-07 1.83909e-07 3.59421e-05
0.00172203 0.000229693 1.08435e-06
0.000229693 8.39483e-05 -3.18923e-07
1.08435e-06 -3.18923e-07 -5.59576e-05
0.00103617 0.000140678 -1.26306e-05
0.000140678 1.53944e-05 -4.33189e-06
-1.26306e-05 -4.33189e-06 -0.000113053
0.00144928 0.000186265 3.29496e-06
0.000186265 0.000164899 7.81038e-07
3.29496e-06 7.81038e-07 1.29103e-05
0.00145578 0.000216379 1.85764e-06
0.000216379 6.55184e-05 -1.98753e-06
1.85764e-06 -1.98753e-06 -8.93916e-05
0.00057367 0.000164156 -2.19088e-05
0.000164156 -8.57938e-05 -1.0394e-05
-2.19088e-05 -1.0394e-05 -0.000167963
0.000983636 0.000153683 -5.22659e-07
0.000153683 6.06869e-06 2.68719e-08
-5.22659e-07 2.68719e-08 -0.000129319
0.00117635 0.000190757 7.47748e-06
0.000190757 3.0057e-05 1.51856e-06
7.47748e-06 1.51856e-06 -0.000131263
0.00098056 0.000159888 1.00134e-05
0.000159888 5.17864e-05 4.95481e-06
1.00134e-05 4.95481e-06 -9.19084e-05
0.000595865 0.000164628 1.70635e-06
0.000164628 -5.54903e-05 4.54352e-07
1.70635e-06 4.54352e-07 -0.000139874
0.00538564 -8.7652e-05 -0.000155162
-8.7652e-05 0.00281792 -1.74609e-05
-0.000155162 -1.74609e-05 0.00278987
0.000454159 0.000112784 1.40367e-05
0.000112784 -0.000111613 1.17117e-05
1.40367e-05 1.17117e-05 -0.000184521
0.00462057 -0.000148213 -9.85536e-06
-0.000148213 0.00236922 6.90332e-07
-9.85536e-06 6.90332e-07 0.00235008
0.00371164 -0.000176846 8.42127e-05
-0.000176846 0.00184053 2.26552e-06
8.42127e-05 2.26552e-06 0.00182312
0.00176475 7.85087e-05 -2.97788e-07
7.85087e-05 5.20868e-05 3.63149e-07
-2.97788e-07 3.63149e-07 -3.10612e-05
0.00178097 0.000106599 7.01138e-07
0.000106599 2.29631e-05 5.72063e-07
7.01138e-07 5.72063e-07 -5.84426e-05
0.00177278 0.000133 5.44921e-06
0.000133 -3.09726e-05 -2.08874e-07
5.44921e-06 -2.08874e-07 -0.00010222
0.0018861 0.000191425 8.73578e-07
0.000191425 0.000117404 -1.21402e-06
8.73578e-07 -1.21402e-06 1.25868e-05
0.00174107 -7.5071e-06 1.59552e-06
-7.5071e-06 7.38549e-05 9.48318e-08
1.59552e-06 9.48318e-08 -2.04276e-05
0.00192365 2.40496e-05 -2.76573e-07
2.40496e-05 0.000138235 -2.56733e-07
-2.76573e-07 -2.56733e-07 6.28974e-05
0.00186706 2.95544e-05 2.23191e-06
2.95544e-05 6.29109e-05 -9.17185e-08
2.23191e-06 -9.17185e-08 -2.26948e-07
0.00183984 -2.69003e-05 -3.71274e-06
-2.69003e-05 9.57936e-05 -1.0426e-06
-3.71274e-06 -1.0426e-06 2.33009e-05
0.00166547 -2.09607e-05 -1.4956e-06
-2.09607e-05 3.41923e-05 -2.87446e-08
-1.4956e-06 -2.87446e-08 -5.65558e-05
0.00176996 -2.00145e-05 1.90375e-06
-2.00145e-05 0.000154582 -5.37823e-07
1.90375e-06 -5.37823e-07 4.34488e-05
0.0016824 -5.25482e-05 -2.10784e-06
-5.25482e-05 3.38642e-05 1.54642e-06
-2.10784e-06 1.54642e-06 -6.30652e-05
0.00170633 -5.22579e-05 1.52019e-07
-5.22579e-05 0.000106555 2.88849e-07
1.52019e-07 2.88849e-07 -1.12254e-05
0.00143981 -3.44609e-05 -3.9318e-06
-3.44609e-05 6.84378e-05 1.41791e-07
-3.9318e-06 1.41791e-07 -6.0268e-05
0.00167397 -9.61767e-05 9.212e-07
-9.61767e-05 0.000104741 -1.26997e-08
9.212e-07 -1.26997e-08 -2.01353e-05
0.00139916 -6.46575e-05 -7.39941e-09
-6.46575e-05 6.16307e-05 -4.00204e-08
-7.39941e-09 -4.00204e-08 -7.33793e-05
0.00105376 -4.92851e-05 -1.19525e-05
-4.92851e-05 -1.13582e-05 2.25454e-06
-1.19525e-05 2.25454e-06 -0.000132171
0.00136555 -9.49159e-05 4.132e-06
-9.49159e-05 6.28034e-05 -7.85392e-07
4.132e-06 -7.85392e-07 -7.65761e-05
0.00105489 -7.29077e-05 1.35919e-08
-7.29077e-05 -1.09986e-06 1.92577e-07
1.35919e-08 1.92577e-07 -0.000123313
0.00063063 -6.75202e-05 -1.82751e-05
-6.75202e-05 -9.61403e-05 4.37715e-06
-1.82751e-05 4.37715e-06 -0.000165535
0.00106169 -8.9684e-05 1.20156e-05
-8.9684e-05 1.22357e-05 -3.36997e-06
1.20156e-05 -3.36997e-06 -0.000110416
0.00156359 -7.7623e-05 3.9796e-05
-7.7623e-05 0.000451338 -2.46305e-06
3.9796e-05 -2.46305e-06 0.000389981
0.00526875 -0.000108526 -0.00019329
-0.000108526 0.00269446 1.1361e-05
-0.00019329 1.1361e-05 0.00269609
0.00256227 -0.000108519 9.76714e-05
-0.000108519 0.00103245 -1.05449e-05
9.76714e-05 -1.05449e-05 0.000979835
0.00150503 -3.61907e-05 -6.13007e-05
-3.61907e-05 0.000516957 4.97242e-06
-6.13007e-05 4.97242e-06 0.000492529
0.00127189 -3.77477e-05 3.40812e-05
-3.77477e-05 0.000394167 -4.71951e-06
3.40812e-05 -4.71951e-06 0.000362669
0.00190328 8.14195e-05 1.04826e-06
8.14195e-05 0.000164021 1.27325e-06
1.04826e-06 1.27325e-06 7.03534e-05
0.00177849 0.000114349 3.20901e-07
0.000114349 0.000161005 1.57693e-06
3.20901e-07 1.57693e-06 3.7404e-05
0.00192713 0.000109909 3.76623e-07
0.000109909 0.000169252 6.70706e-09
3.76623e-07 6.70706e-09 6.70705e-05
0.00135668 0.000133113 -4.7839e-06
0.000133113 4.29818e-05 -5.70828e-07
-4.7839e-06 -5.70828e-07 -9.75192e-05
0.00172322 0.000168155 1.37508e-07
0.000168155 0.000147037 -8.2381e-09
1.37508e-07 -8.2381e-09 9.17899e-06
0.00181525 0.000190711 -6.31448e-07
0.000190711 0.00011288 -9.51557e-07
-6.31448e-07 -9.51557e-07 -9.72204e-06
0.00067079 0.000103742 -1.44169e-05
0.000103742 -0.000211578 -4.29856e-06
-1.44169e-05 -4.29856e-06 -0.000337549
0.00168615 0.000174574 1.95935e-06
0.000174574 0.000268545 5.50307e-07
1.95935e-06 5.50307e-07 0.000124019
0.00168256 0.000198774 1.67692e-06
0.000198774 0.00016513 -1.62162e-07
1.67692e-06 -1.62162e-07 1.76536e-05
0.000552388 0.000123555 -1.89417e-05
0.000123555 -0.000110184 -8.48222e-06
-1.89417e-05 -8.48222e-06 -0.000186745
0.000817087 0.000130534 5.40089e-07
0.000130534 -0.000111129 1.31122e-07
5.40089e-07 1.31122e-07 -0.000240415
0.00116342 0.000175301 9.3055e-06
0.000175301 -1.38205e-06 1.68505e-06
9.3055e-06 1.68505e-06 -0.000154175
0.00546611 -2.91614e-06 -0.000167528
-2.91614e-06 0.00283472 -1.60425e-05
-0.000167528 -1.60425e-05 0.00282211
0.000556505 0.000150969 1.46548e-06
0.000150969 -9.38872e-05 5.3308e-07
1.46548e-06 5.3308e-07 -0.000177241
0.00101396 0.000155941 1.20398e-05
0.000155941 2.33316e-05 4.33918e-06
1.20398e-05 4.33918e-06 -0.000112223
0.000497038 0.000152842 1.92563e-05
0.000152842 -0.000108502 1.19993e-05
1.92563e-05 1.19993e-05 -0.000192987
0.00518828 -8.67854e-05 4.29667e-06
-8.67854e-05 0.00268895 -9.90783e-07
4.29667e-06 -9.90783e-07 0.00267159
0.00433484 -0.000200901 0.000100937
-0.000200901 0.00221675 5.40406e-06
0.000100937 5.40406e-06 0.00218898
0.00180118 5.04349e-05 -8.60993e-07
5.04349e-05 0.000100982 -4.75855e-07
-8.60993e-07 -4.75855e-07 6.52569e-06
0.00178995 7.77799e-05 -1.89477e-07
7.77799e-05 6.31352e-05 4.63465e-07
-1.89477e-07 4.63465e-07 -1.98879e-05
0.00178408 0.000106081 1.84112e-06
0.000106081 3.01123e-05 -3.80183e-07
1.84112e-06 -3.80183e-07 -5.137e-05
0.00166389 1.91549e-06 2.04112e-06
1.91549e-06 8.43827e-05 -4.23721e-07
2.04112e-06 -4.23721e-07 -2.80643e-05
0.00171613 -5.5591e-06 2.52211e-07
-5.5591e-06 6.40806e-05 1.30484e-07
2.52211e-07 1.30484e-07 -2.8912e-05
0.00195843 1.71624e-05 -1.14588e-06
1.71624e-05 0.000155616 -1.54673e-08
-1.14588e-06 -1.54673e-08 8.08626e-05
0.00162517 -1.48795e-05 -2.56542e-06
-1.48795e-05 1.0959e-05 7.35919e-07
-2.56542e-06 7.35919e-07 -7.85393e-05
0.0017505 -1.52535e-05 1.09345e-06
-1.52535e-05 0.000142278 -2.53984e-07
1.09345e-06 -2.53984e-07 3.12937e-05
0.00172994 -1.25181e-05 -1.69486e-06
-1.25181e-05 0.000232775 -2.17537e-07
-1.69486e-06 -2.17537e-07 0.000110162
0.0016576 -5.32495e-05 -1.763e-07
-5.32495e-05 8.23114e-05 9.04786e-07
-1.763e-07 9.04786e-07 -3.84257e-05
0.00156797 -3.46751e-05 9.07962e-09
-3.46751e-05 0.000141903 7.16798e-08
9.07962e-09 7.16798e-08 1.31627e-05
0.000778703 -2.24478e-05 -1.37226e-05
-2.24478e-05 -0.000176555 1.61427e-06
-1.37226e-05 1.61427e-06 -0.000297831
0.00139595 -6.5075e-05 4.07316e-06
-6.5075e-05 5.5875e-05 -5.47007e-07
4.07316e-06 -5.47007e-07 -7.9061e-05
0.00104798 -4.61449e-05 1.06539e-08
-4.61449e-05 -1.51476e-05 1.3437e-07
1.06539e-08 1.3437e-07 -0.000135595
0.000636074 -2.03593e-05 -1.76676e-05
-2.03593e-05 -9.9136e-05 2.878e-06
-1.76676e-05 2.878e-06 -0.000168397
0.00105654 -7.0794e-05 1.19449e-05
-7.0794e-05 -5.1385e-07 -2.58786e-06
1.19449e-05 -2.58786e-06 -0.000122348
0.000641755 -5.24561e-05 -1.85001e-07
-5.24561e-05 -8.87855e-05 3.11872e-07
-1.85001e-07 3.11872e-07 -0.000159117
0.00531852 -2.87182e-06 -0.000184596
-2.87182e-06 0.00271923 7.0866e-06
-0.000184596 7.0866e-06 0.00272281
0.000674625 -6.1039e-05 1.62201e-05
-6.1039e-05 -6.66776e-05 -6.21765e-06
1.62201e-05 -6.21765e-06 -0.000137593
0.00335162 -7.11837e-05 8.93566e-05
-7.11837e-05 0.00158643 -2.60153e-06
8.93566e-05 -2.60153e-06 0.00156986
0.00121136 -6.2379e-05 3.94495e-05
-6.2379e-05 0.000360936 -5.19295e-06
3.94495e-05 -5.19295e-06 0.000326558
0.00181215 7.50454e-05 8.14527e-08
7.50454e-05 0.000131603 1.85405e-07
8.14527e-08 1.85405e-07 3.24229e-05
0.00163765 6.65023e-05 1.60652e-06
6.65023e-05 7.87379e-05 1.76215e-06
1.60652e-06 1.76215e-06 -3.79433e-05
0.00189058 7.87044e-05 -2.30497e-07
7.87044e-05 0.000156971 -2.36025e-07
-2.30497e-07 -2.36025e-07 6.37365e-05
0.00142157 9.4833e-05 -3.67306e-06
9.4833e-05 6.68675e-05 -1.03595e-07
-3.67306e-06 -1.03595e-07 -6.75476e-05
0.00172958 0.000112679 4.96613e-07
0.000112679 0.000129992 1.49901e-07
4.96613e-07 1.49901e-07 5.13619e-06
0.00195819 0.000107147 -9.41832e-07
0.000107147 0.00019348 -1.84363e-06
-9.41832e-07 -1.84363e-06 9.03972e-05
0.000681889 8.29872e-05 -1.39191e-05
8.29872e-05 -0.000220452 -3.22787e-06
-1.39191e-05 -3.22787e-06 -0.000343937
0.00154514 0.000138432 -7.46858e-07
0.000138432 0.000154064 4.53091e-09
-7.46858e-07 4.53091e-09 1.41021e-05
0.001772 0.000167248 1.24078e-06
0.000167248 0.000174623 -6.2182e-07
1.24078e-06 -6.2182e-07 3.78588e-05
0.00057025 8.83188e-05 -1.74383e-05
8.83188e-05 -0.00011575 -6.50257e-06
-1.74383e-05 -6.50257e-06 -0.000187458
0.000648683 0.000103466 -2.81601e-06
0.000103466 -0.000224044 -5.84183e-07
-2.81601e-06 -5.84183e-07 -0.000350519
0.00171234 0.000176991 8.07219e-06
0.000176991 0.000283703 1.79149e-06
8.07219e-06 1.79149e-06 0.000139018
0.00540455 8.08699e-05 -0.000185001
8.08699e-05 0.00277844 -1.46928e-05
-0.000185001 -1.46928e-05 0.002777
0.000550575 0.000116637 6.08649e-07
0.000116637 -0.000111091 3.06946e-07
6.08649e-07 3.06946e-07 -0.000188223
0.000599058 0.000120669 1.24631e-05
0.000120669 -0.00023711 4.10354e-06
1.24631e-05 4.10354e-06 -0.000367275
0.00537915 1.10097e-05 1.21562e-05
1.10097e-05 0.00278277 2.09796e-07
1.21562e-05 2.09796e-07 0.00277245
0.000521876 0.000137531 1.87019e-05
0.000137531 -0.000111831 1.04286e-05
1.87019e-05 1.04286e-05 -0.000196297
0.00498982 -0.000130582 0.000137893
-0.000130582 0.00257256 8.01591e-06
0.000137893 8.01591e-06 0.00255658
0.00177226 3.57191e-05 3.74202e-07
3.57191e-05 0.000138212 -3.91653e-07
3.74202e-07 -3.91653e-07 2.82514e-05
0.00175655 4.83393e-05 -8.58316e-07
4.83393e-05 8.0891e-05 2.02794e-07
-8.58316e-07 2.02794e-07 -1.45621e-05
0.00181567 7.67842e-05 2.46052e-07
7.67842e-05 7.45174e-05 -3.78046e-08
2.46052e-07 -3.78046e-08 -8.37564e-06
0.00169818 -3.61775e-06 -1.23414e-06
-3.61775e-06 0.000220237 -3.58154e-07
-1.23414e-06 -3.58154e-07 0.000100326
0.00169398 1.77093e-07 4.52035e-07
1.77093e-07 0.000101124 6.90507e-08
4.52035e-07 6.90507e-08 -9.79594e-06
0.00170166 -1.98368e-06 5.50134e-07
-1.98368e-06 5.9982e-05 -2.11342e-08
5.50134e-07 -2.11342e-08 -3.17054e-05
0.00173183 -1.08603e-05 4.60245e-08
-1.08603e-05 0.000130459 5.47525e-07
4.60245e-08 5.47525e-07 1.95985e-05
0.00173041 -1.18525e-05 2.32216e-06
-1.18525e-05 0.000232661 -2.29431e-07
2.32216e-06 -2.29431e-07 0.000110037
0.000786043 -8.31458e-06 -1.30297e-05
-8.31458e-06 -0.000174323 6.32588e-07
-1.30297e-05 6.32588e-07 -0.00029336
0.00169737 -3.49933e-05 4.69022e-06
-3.49933e-05 0.000216056 -2.01617e-07
4.69022e-06 -2.01617e-07 8.72771e-05
0.000913304 -2.14249e-05 -2.4868e-06
-2.14249e-05 -9.91035e-05 2.89637e-07
-2.4868e-06 2.89637e-07 -0.000219257
0.000643308 -5.7524e-06 -1.7985e-05
-5.7524e-06 -0.000101154 1.90423e-06
-1.7985e-05 1.90423e-06 -0.000169796
0.00104921 -4.43081e-05 1.16489e-05
-4.43081e-05 -1.49487e-05 -1.96923e-06
1.16489e-05 -1.96923e-06 -0.000135127
0.000627661 -2.60476e-05 6.0492e-07
-2.60476e-05 -0.000105354 -5.97294e-09
6.0492e-07 -5.97294e-09 -0.000173763
0.00533489 -9.78236e-05 -0.000195693
-9.78236e-05 0.00273369 6.79773e-06
-0.000195693 6.79773e-06 0.00273482
0.000630642 -3.71623e-05 1.68846e-05
-3.71623e-05 -9.60781e-05 -3.43834e-06
1.68846e-05 -3.43834e-06 -0.000165942
0.00531581 -3.75523e-05 8.07479e-06
-3.75523e-05 0.0027185 4.38216e-08
8.07479e-06 4.38216e-08 0.00272198
0.00152794 -1.33242e-05 0.000163171
-1.33242e-05 0.000523132 -8.19333e-06
0.000163171 -8.19333e-06 0.000508295
0.00165584 5.21827e-05 1.48017e-06
5.21827e-05 8.98596e-05 3.74275e-07
1.48017e-06 3.74275e-07 -2.43953e-05
0.00178596 7.91996e-05 -2.27017e-06
7.91996e-05 0.000109971 -3.2065e-07
-2.27017e-06 -3.2065e-07 1.24533e-05
0.00143945 5.5716e-05 -3.07617e-06
5.5716e-05 7.73474e-05 1.57818e-07
-3.07617e-06 1.57818e-07 -5.06278e-05
0.00163995 6.53893e-05 4.99739e-07
6.53893e-05 8.11213e-05 1.42234e-08
4.99739e-07 1.42234e-08 -3.55743e-05
0.00187493 7.60793e-05 -1.30984e-06
7.60793e-05 0.000147956 -2.16968e-06
-1.30984e-06 -2.16968e-06 5.51544e-05
0.00106306 6.79693e-05 -1.1872e-05
6.79693e-05 -9.77828e-06 -2.02076e-06
-1.1872e-05 -2.02076e-06 -0.000127783
0.00140192 9.42635e-05 6.77355e-08
9.42635e-05 5.65689e-05 1.34881e-07
6.77355e-08 1.34881e-07 -7.79908e-05
0.00167787 0.000110973 1.34878e-08
0.000110973 9.74152e-05 -9.77826e-07
1.34878e-08 -9.77826e-07 -2.87073e-05
0.000596596 6.21049e-05 -1.69849e-05
6.21049e-05 -0.000115253 -4.706e-06
-1.69849e-05 -4.706e-06 -0.000184713
0.000848086 8.99874e-05 -3.23661e-06
8.99874e-05 -0.000124387 -4.07744e-07
-3.23661e-06 -4.07744e-07 -0.000247457
0.00174054 0.000143937 5.09311e-06
0.000143937 0.000269105 1.00338e-06
5.09311e-06 1.00338e-06 0.000129679
0.00538969 0.000135681 -0.000204267
0.000135681 0.00276505 -1.42036e-05
-0.000204267 -1.42036e-05 0.00276511
0.000577367 8.61348e-05 8.06999e-08
8.61348e-05 -0.000111926 1.05638e-07
8.06999e-08 1.05638e-07 -0.000183739
0.00062265 0.000103134 8.64501e-06
0.000103134 -0.000238917 2.99839e-06
8.64501e-06 2.99839e-06 -0.000365863
0.00534608 9.95684e-05 1.03216e-05
9.95684e-05 0.00275144 1.89418e-06
1.03216e-05 1.89418e-06 0.00274709
0.000554035 0.000108432 1.74564e-05
0.000108432 -0.000109544 8.30081e-06
1.74564e-05 8.30081e-06 -0.000186824
0.00531399 6.5e-06 0.000174903
6.5e-06 0.00273326 1.1836e-05
0.000174903 1.1836e-05 0.00273113
0.00170759 2.49024e-05 -1.16066e-06
2.49024e-05 0.000229013 -1.86991e-07
-1.16066e-06 -1.86991e-07 0.000110215
0.00173969 3.12504e-05 -6.7838e-07
3.12504e-05 0.000122336 1.29788e-07
-6.7838e-07 1.29788e-07 1.14685e-05
0.00171531 4.60294e-05 -1.29358e-06
4.60294e-05 6.33738e-05 2.60138e-07
-1.29358e-06 2.60138e-07 -3.30355e-05
0.000764021 -9.40904e-06 -1.3438e-05
-9.40904e-06 -0.000182357 -3.58659e-07
-1.3438e-05 -3.58659e-07 -0.000298903
0.00172044 2.59817e-06 2.53795e-06
2.59817e-06 0.000233026 -8.73092e-08
2.53795e-06 -8.73092e-08 0.000113128
0.00171829 -1.64566e-06 -1.16933e-07
-1.64566e-06 0.00011475 3.26891e-07
-1.16933e-07 3.26891e-07 5.37027e-06
0.0017321 -1.15677e-05 6.19065e-06
-1.15677e-05 0.000233269 -1.21235e-08
6.19065e-06 -1.21235e-08 0.000110631
0.000768963 -8.09159e-06 -1.91565e-06
-8.09159e-06 -0.000184752 1.43025e-07
-1.91565e-06 1.43025e-07 -0.000304064
0.000650328 -2.23641e-05 -1.81187e-05
-2.23641e-05 -9.93776e-05 7.20993e-07
-1.81187e-05 7.20993e-07 -0.000167156
0.00103896 -1.96657e-05 9.48294e-06
-1.96657e-05 -2.67627e-05 -1.23564e-06
9.48294e-06 -1.23564e-06 -0.000145786
0.000628455 3.89052e-06 1.97988e-07
3.89052e-06 -0.000109837 6.69516e-08
1.97988e-07 6.69516e-08 -0.000178204
0.00540258 -7.68403e-05 -0.00020433
-7.68403e-05 0.00276991 4.60034e-06
-0.00020433 4.60034e-06 0.00277279
0.000632608 -2.40464e-05 1.75837e-05
-2.40464e-05 -0.000101882 -2.28516e-06
1.75837e-05 -2.28516e-06 -0.000170904
0.00537473 8.52067e-06 -2.97134e-06
8.52067e-06 0.00274931 1.09069e-06
-2.97134e-06 1.09069e-06 0.00275468
0.00534248 -5.89523e-05 0.000196442
-5.89523e-05 0.00273141 -6.23783e-06
0.000196442 -6.23783e-06 0.00273645
0.00143491 3.58397e-05 -3.06281e-06
3.58397e-05 7.83688e-05 -1.06017e-07
-3.06281e-06 -1.06017e-07 -4.64736e-05
0.00167796 5.50447e-05 -5.30828e-07
5.50447e-05 0.000101513 -7.91057e-07
-5.30828e-07 -7.91057e-07 -1.01529e-05
0.00175852 8.35882e-05 -3.70551e-06
8.35882e-05 8.77078e-05 -3.25534e-07
-3.70551e-06 -3.25534e-07 -8.16231e-06
0.00106144 3.73185e-05 -1.16887e-05
3.73185e-05 -1.24431e-05 -1.44589e-06
-1.16887e-05 -1.44589e-06 -0.000126966
0.00140269 5.57444e-05 2.08071e-07
5.57444e-05 5.52128e-05 5.74349e-08
2.08071e-07 5.74349e-08 -7.31293e-05
0.00164127 6.421e-05 -8.40704e-07
6.421e-05 8.32001e-05 -1.66704e-06
-8.40704e-07 -1.66704e-06 -3.35073e-05
0.00062021 3.71824e-05 -1.6541e-05
3.71824e-05 -0.000109363 -3.46618e-06
-1.6541e-05 -3.46618e-06 -0.00017766
0.00105405 6.96668e-05 1.15974e-07
6.96668e-05 -1.45903e-05 2.29938e-07
1.15974e-07 2.29938e-07 -0.000133001
0.00138188 9.36658e-05 4.10918e-06
9.36658e-05 4.59865e-05 4.4723e-07
4.10918e-06 4.4723e-07 -8.87225e-05
0.00537637 0.000142671 -0.000216828
0.000142671 0.00275832 -1.25273e-05
-0.000216828 -1.25273e-05 0.00275786
0.000613044 6.33353e-05 2.71847e-07
6.33353e-05 -0.000105533 1.82686e-07
2.71847e-07 1.82686e-07 -0.000175218
0.00100984 9.68771e-05 8.78733e-06
9.68771e-05 -3.09305e-05 2.57645e-06
8.78733e-06 2.57645e-06 -0.00015354
0.00534438 0.000148931 5.5184e-06
0.000148931 0.00274593 2.08723e-06
5.5184e-06 2.08723e-06 0.0027432
0.000587487 8.45262e-05 1.66864e-05
8.45262e-05 -0.000106085 6.60239e-06
1.66864e-05 6.60239e-06 -0.000177935
0.00532008 0.000120123 0.000192728
0.000120123 0.00273373 1.54816e-05
0.000192728 1.54816e-05 0.00273174
0.00107828 1.12861e-05 -1.2327e-05
1.12861e-05 -2.01152e-08 -7.85241e-07
-1.2327e-05 -7.85241e-07 -0.000112796
0.00155213 1.98952e-05 2.86581e-06
1.98952e-05 0.000140169 8.68229e-08
2.86581e-06 8.68229e-08 2.01889e-05
0.0017033 2.58591e-05 -1.45603e-06
2.58591e-05 0.000103813 2.46021e-07
-1.45603e-06 2.46021e-07 -7.97465e-06
0.000671258 2.655e-05 -1.85862e-05
2.655e-05 -9.26883e-05 -4.98898e-07
-1.85862e-05 -4.98898e-07 -0.000154128
0.000750194 -3.95774e-06 -2.14857e-06
-3.95774e-06 -0.000191563 -4.43504e-09
-2.14857e-06 -4.43504e-09 -0.000308355
0.00174359 8.86609e-06 6.37119e-06
8.86609e-06 0.000246294 2.05522e-07
6.37119e-06 2.05522e-07 0.000126399
0.000746728 -7.44188e-06 9.14221e-06
-7.44188e-06 -0.00019818 -3.37861e-07
9.14221e-06 -3.37861e-07 -0.000317758
0.000638605 -2.68998e-06 2.08239e-07
-2.68998e-06 -0.000106233 3.31845e-07
2.08239e-07 3.31845e-07 -0.000173784
0.00542397 4.90505e-05 -0.000211754
4.90505e-05 0.00277857 -8.50081e-07
-0.000211754 -8.50081e-07 0.00278394
0.000610659 1.33545e-05 1.72379e-05
1.33545e-05 -0.000120434 -1.18305e-06
1.72379e-05 -1.18305e-06 -0.000188357
0.00540624 -7.64522e-05 -7.88809e-06
-7.64522e-05 0.00277209 1.35221e-06
-7.88809e-06 1.35221e-06 0.00277468
0.00536773 3.03794e-05 0.000189128
3.03794e-05 0.00274572 -2.71858e-06
0.000189128 -2.71858e-06 0.00275046
0.00106517 1.96929e-05 -1.21721e-05
1.96929e-05 -8.95649e-06 -1.22822e-06
-1.21721e-05 -1.22822e-06 -0.000121711
0.00138594 3.51907e-05 -1.76393e-09
3.51907e-05 4.87127e-05 -9.04873e-08
-1.76393e-09 -9.04873e-08 -7.5031e-05
0.0017041 5.77375e-05 -2.45607e-06
5.77375e-05 0.000115384 -1.41702e-06
-2.45607e-06 -1.41702e-06 6.30871e-06
0.00258269 3.93193e-05 -0.000104103
3.93193e-05 0.00102348 -3.04904e-06
-0.000104103 -3.04904e-06 0.000976374
0.0010644 3.95624e-05 1.76602e-07
3.95624e-05 -1.11129e-05 1.88059e-07
1.76602e-07 1.88059e-07 -0.000125835
0.00136601 5.5657e-05 3.73348e-06
5.5657e-05 3.30626e-05 4.13705e-08
3.73348e-06 4.13705e-08 -9.56497e-05
0.00534772 0.000124415 -0.000220124
0.000124415 0.00274291 -9.6731e-06
-0.000220124 -9.6731e-06 0.00274297
0.000650845 5.0035e-05 6.50913e-07
5.0035e-05 -9.02386e-05 2.86652e-07
6.50913e-07 2.86652e-07 -0.00015965
0.00105561 7.16926e-05 1.18535e-05
7.16926e-05 -1.35794e-05 2.46211e-06
1.18535e-05 2.46211e-06 -0.000132376
0.00538824 0.000155627 1.20367e-06
0.000155627 0.00276868 1.62254e-06
1.20367e-06 1.62254e-06 0.00276675
0.000637983 6.58642e-05 1.70754e-05
6.58642e-05 -9.02515e-05 5.37821e-06
1.70754e-05 5.37821e-06 -0.000160478
0.00530801 0.000170664 0.000202466
0.000170664 0.00273048 1.68127e-05
0.000202466 1.68127e-05 0.00272526
0.000707822 8.14308e-06 -1.62821e-05
8.14308e-06 -6.1318e-05 -1.77676e-06
-1.62821e-05 -1.77676e-06 -0.000128613
0.000908924 9.01107e-06 6.33044e-07
9.01107e-06 -9.72243e-05 2.04443e-07
6.33044e-07 2.04443e-07 -0.000211313
0.00139098 1.46663e-05 6.03951e-06
1.46663e-05 4.81172e-05 2.4067e-07
6.03951e-06 2.4067e-07 -7.30232e-05
0.00532026 -9.24009e-05 -0.000196206
-9.24009e-05 0.00273457 -1.91002e-07
-0.000196206 -1.91002e-07 0.00273065
0.000636416 7.68609e-06 -3.62424e-07
7.68609e-06 -0.000107815 1.99169e-07
-3.62424e-07 1.99169e-07 -0.000171863
0.000742875 1.17182e-06 9.07528e-06
1.17182e-06 -0.000197072 2.13233e-07
9.07528e-06 2.13233e-07 -0.000314094
0.000608756 1.95757e-05 1.75665e-05
1.95757e-05 -0.000123299 2.06859e-07
1.75665e-05 2.06859e-07 -0.000190547
0.00539193 1.38257e-05 2.75667e-06
1.38257e-05 0.0027637 -4.07095e-07
2.75667e-06 -4.07095e-07 0.00276633
0.00542905 1.46155e-05 0.000200589
1.46155e-05 0.00277719 -9.09032e-07
0.000200589 -9.09032e-07 0.00278363
0.00262779 2.85179e-06 -0.000101765
2.85179e-06 0.00104652 -2.0245e-06
-0.000101765 -2.0245e-06 0.00100037
0.00107889 2.23651e-05 1.79102e-08
2.23651e-05 -1.57728e-06 4.35607e-08
1.79102e-08 4.35607e-08 -0.000114425
0.00133426 3.47325e-05 3.46881e-06
3.47325e-05 1.75588e-05 -1.26039e-07
3.46881e-06 -1.26039e-07 -0.000105088
0.00501013 -6.49366e-05 -5.38122e-05
-6.49366e-05 0.00255841 9.07457e-08
-5.38122e-05 9.07457e-08 0.00254361
0.000661419 4.09478e-05 -3.55853e-08
4.09478e-05 -8.61484e-05 2.41539e-07
-3.55853e-08 2.41539e-07 -0.000154247
0.00108048 4.22988e-05 1.17767e-05
4.22988e-05 -2.60047e-06 1.86333e-06
1.17767e-05 1.86333e-06 -0.000117479
0.00538836 9.02834e-05 -1.11797e-05
9.02834e-05 0.00276161 -7.14047e-07
-1.11797e-05 -7.14047e-07 0.00276399
0.000679474 6.90904e-05 1.85057e-05
6.90904e-05 -7.27538e-05 4.47991e-06
1.85057e-05 4.47991e-06 -0.000142902
0.00537437 0.000178691 0.000212929
0.000178691 0.00276769 1.61766e-05
0.000212929 1.61766e-05 0.00276241
0.0016602 -4.24721e-05 -0.00017281
-4.24721e-05 0.000593299 4.85624e-07
-0.00017281 4.85624e-07 0.00058027
0.00164264 2.15203e-05 -4.19106e-05
2.15203e-05 0.000474445 2.05945e-07
-4.19106e-05 2.05945e-07 0.000421206
0.000746608 9.1376e-06 1.19981e-05
9.1376e-06 -0.000190429 9.36148e-07
1.19981e-05 9.36148e-07 -0.000305853
0.00534239 -3.80271e-05 8.25225e-06
-3.80271e-05 0.00274275 5.49492e-07
8.25225e-06 5.49492e-07 0.00274257
0.00063955 -1.02489e-05 1.80034e-05
-1.02489e-05 -0.00010223 9.7714e-07
1.80034e-05 9.7714e-07 -0.000168378
0.00541161 -5.63381e-05 0.000215627
-5.63381e-05 0.00277528 -1.08555e-06
0.000215627 -1.08555e-06 0.0027787
0.0012824 -6.83811e-06 -2.60663e-05
-6.83811e-06 0.000396221 -6.83104e-07
-2.60663e-05 -6.83104e-07 0.000362387
0.00163637 1.09316e-05 -4.22577e-05
1.09316e-05 0.00047467 -3.85267e-07
-4.22577e-05 -3.85267e-07 0.000418798
0.00108001 2.35513e-05 1.19386e-05
2.35513e-05 -1.07442e-06 1.34624e-06
1.19386e-05 1.34624e-06 -0.000114041
0.00332243 3.94526e-05 7.9078e-05
3.94526e-05 0.0015669 1.65738e-06
7.9078e-05 1.65738e-06 0.0015534
0.000671296 4.94711e-05 1.85634e-05
4.94711e-05 -8.02002e-05 3.57634e-06
1.85634e-05 3.57634e-06 -0.000148585
0.00541566 8.4984e-05 0.000203868
8.4984e-05 0.00277393 1.02028e-05
0.000203868 1.02028e-05 0.00277835
0.00526746 -2.51127e-05 -8.86192e-06
-2.51127e-05 0.0027024 -1.19033e-06
-8.86192e-06 -1.19033e-06 0.0027016
0.000648372 3.63567e-05 1.90281e-05
3.63567e-05 -0.000101 1.79236e-06
1.90281e-05 1.79236e-06 -0.00016224
0.00526963 5.47741e-05 0.000200328
5.47741e-05 0.00269823 -3.54122e-07
0.000200328 -3.54122e-07 0.00270055
0.00328557 2.73587e-05 9.31221e-05
2.73587e-05 0.00155038 2.32641e-06
9.31221e-05 2.32641e-06 0.00153621
0.000677733 5.30117e-06 1.80385e-05
5.30117e-06 -7.77995e-05 2.49016e-06
1.80385e-05 2.49016e-06 -0.000143823
0.00535941 -3.60953e-05 0.000196656
-3.60953e-05 0.00274425 4.81954e-06
0.000196656 4.81954e-06 0.00274727
0.00528022 -0.000132135 0.000195047
-0.000132135 0.00271637 -2.00726e-06
0.000195047 -2.00726e-06 0.00271045
0.00528235 -2.1135e-05 0.000194235
-2.1135e-05 0.00269728 2.32437e-06
0.000194235 2.32437e-06 0.00270348
