# vtk DataFile Version 2.0
Wound Healing Simulation
ASCII
DATASET UNSTRUCTURED_GRID
POINTS 3012 float
69.9759 18.75 4
67.2507 60.3285 4
69.976 18.75 2
73.0099 25.446 4
71.1327 20.9142 4
68.6801 16.6661 4
67.8226 19.9265 3.97589
67.2507 60.3286 2
71.1327 54.0858 4
68.6801 58.3339 4
65.6939 62.2254 4
65.3096 58.9997 3.97508
74.6784 42.3946 4
73.7221 47.2057 4
69.9759 18.75 0
73.0099 25.446 2
68.6801 16.6661 2
71.1327 20.9142 2
67.8233 19.93 2
74.6792 32.6053 4
73.7222 27.7943 4
72.1454 23.1494 4
70.612 26.2216 3.97576
68.883 21.9581 3.97623
67.2507 14.6715 4
66.634 17.9731 3.97461
65.7892 21.0287 3.9645
67.2507 60.3285 0
71.1327 54.0858 2
68.6801 58.3339 2
65.694 62.2255 2
65.3108 58.9948 2
72.1454 51.8506 4
69.9759 56.25 4
68.8335 53.1133 3.97566
64.0165 64.0165 4
66.6079 57.1327 3.9755
63.8826 60.7637 3.97476
63.4934 57.7644 3.96612
60.3285 67.2507 4
74.6792 42.3947 2
73.7222 47.2057 2
74.9194 39.9526 4
74.2788 44.8158 4
72.1667 42.0857 3.97699
73.0099 49.554 4
71.2471 46.598 3.97554
73.0099 25.446 0
71.1327 20.9142 0
68.6801 16.6661 0
67.8226 19.9265 0.0241119
74.6792 32.6053 2
73.7222 27.7943 2
67.2508 14.6715 2
72.1455 23.1494 2
70.6117 26.2222 2
66.6349 17.9776 2
68.8832 21.9605 2
65.7874 21.0302 2
74.9197 35.0474 4
74.2794 30.1841 4
72.1834 32.9442 3.9772
71.2763 28.4322 3.9759
69.8131 24.0598 3.97618
68.3406 26.9543 3.9648
66.7549 22.936 3.96431
65.694 12.7746 4
65.3203 16.1055 3.97361
64.7054 19.2004 3.96493
63.8106 22.0653 3.96439
71.1327 54.0858 0
65.6939 62.2254 0
68.6801 58.3339 0
65.3096 58.9997 0.0249203
72.1455 51.8506 2
69.9759 56.25 2
68.8337 53.1109 2
64.0165 64.0165 2
66.6087 57.1283 2
63.8844 60.7584 2
63.4919 57.7641 2
62.2254 65.694 4
58.892 65.4131 3.98414
69.7663 50.9892 3.97539
67.7808 55.167 3.97579
66.6405 52.207 3.96447
62.3328 62.4244 3.97767
64.653 56.0271 3.9656
62.1963 59.392 3.96616
61.7814 56.6564 3.96209
58.3339 68.6801 4
60.3285 67.2508 2
73.7221 47.2057 0
74.6784 42.3946 0
74.9197 39.9526 2
74.2794 44.8159 2
72.1659 42.0854 2
73.0099 49.554 2
71.2468 46.5975 2
75 37.5 4
72.404 39.8025 3.9779
71.7808 44.3529 3.97661
69.7993 41.79 3.96715
70.5727 48.8135 3.97513
68.9061 46.0141 3.96561
74.6792 32.6053 0
73.7222 27.7943 0
67.2507 14.6715 0
72.1454 23.1494 0
70.612 26.2216 0.0242367
68.883 21.9581 0.0237677
66.634 17.9731 0.0253882
65.7892 21.0287 0.0355005
74.9197 35.0474 2
74.2794 30.1841 2
72.1826 32.9445 2
71.2759 28.4327 2
65.694 12.7745 2
65.3217 16.1108 2
69.813 24.0611 2
68.3402 26.9554 2
64.7041 19.2015 2
66.7545 22.9374 2
63.8099 22.066 2
72.4119 35.2249 3.97794
71.8023 30.6772 3.97686
69.8354 33.2709 3.96705
68.9605 29.0411 3.96552
67.6046 24.9146 3.96452
66.1031 27.6583 3.96802
64.0165 10.9835 4
64.6713 23.8585 3.9657
63.8863 14.3303 3.97428
63.5047 17.4565 3.96543
62.8359 20.3527 3.96262
61.9317 23.0039 3.96812
60.6813 11.1014 3.97905
57.6064 11.4712 3.96999
72.1454 51.8506 0
69.9759 56.25 0
68.8335 53.1133 0.0243387
64.0165 64.0165 0
63.8826 60.7637 0.0252415
66.6079 57.1327 0.0244958
63.4934 57.7644 0.0338765
62.2255 65.694 2
58.8943 65.4097 2
69.766 50.9878 2
67.7813 55.1636 2
66.6395 52.2059 2
62.3353 62.4199 2
64.6517 56.0265 2
62.1941 59.3917 2
61.7819 56.6567 2
60.6661 63.9738 3.98031
57.0231 66.7339 3.98735
57.5533 63.6777 3.97132
67.4985 50.1749 3.9645
65.6942 54.1705 3.96482
64.4391 51.3565 3.96581
60.7677 60.9186 3.96873
62.7581 55.0419 3.96362
60.6319 58.1329 3.96096
60.2356 55.7386 3.96462
56.25 69.9759 4
58.3339 68.6801 2
60.3285 67.2507 0
58.9185 9.65908 3.98051
62.2254 9.30607 4
73.0099 49.554 0
74.2788 44.8158 0
71.2471 46.598 0.0244571
72.1667 42.0857 0.0230119
74.9194 39.9526 0
75 37.5 2
72.4038 39.8024 2
71.7805 44.3523 2
69.7985 41.7896 2
70.5723 48.813 2
68.9058 46.0133 2
72.4874 37.5126 3.97752
70.0368 39.6583 3.96754
69.425 43.9072 3.96652
67.5069 41.4898 3.97152
68.2585 48.1058 3.96488
66.6035 45.4212 3.96984
74.9197 35.0474 0
74.2794 30.1841 0
72.1834 32.9442 0.0227963
71.2763 28.4322 0.0240954
65.694 12.7746 0
65.3203 16.1055 0.0263913
69.8131 24.0598 0.0238177
68.3406 26.9543 0.0351982
66.7549 22.936 0.0356912
64.7054 19.2004 0.0350741
63.8106 22.0653 0.0356068
72.4117 35.2249 2
71.8021 30.6778 2
69.8346 33.2715 2
68.9603 29.042 2
64.0165 10.9835 2
63.8883 14.3355 2
63.5033 17.4575 2
67.6042 24.9159 2
66.1024 27.659 2
62.8357 20.3531 2
64.671 23.8593 2
61.9306 23.0049 2
60.6838 11.1055 2
57.6073 11.4639 2
70.0536 35.394 3.96752
69.4621 31.1523 3.96624
67.5734 33.6019 3.9708
66.6795 29.643 3.96878
65.4334 25.7257 3.96678
63.9441 28.3034 3.97443
62.3382 12.6589 3.97696
62.6787 24.6952 3.97036
62.1912 15.8004 3.96661
61.7573 18.7185 3.96132
61.0674 21.4062 3.96532
60.1828 23.8171 3.97212
59.24 12.8089 3.96782
55.8693 10.2526 3.97324
56.3945 13.1683 3.96872
69.7663 50.9892 0.0246108
62.2254 65.694 0
58.892 65.4131 0.0158568
67.7808 55.167 0.0242143
66.6405 52.207 0.0355318
62.3328 62.4244 0.0223277
62.1963 59.392 0.0338423
64.653 56.0271 0.0344027
61.7814 56.6564 0.0379052
60.6685 63.9707 2
57.0254 66.7324 2
57.5543 63.6811 2
67.4989 50.174 2
65.6928 54.1697 2
64.439 51.3561 2
60.7667 60.9202 2
62.7584 55.042 2
60.6357 58.1345 2
60.2348 55.7385 2
55.0689 67.9312 3.98853
59.2132 62.3381 3.96933
55.8015 64.902 3.97624
56.3167 62.0465 3.97005
65.223 49.381 3.96712
63.6219 53.264 3.9645
62.2352 50.594 3.96942
59.319 59.528 3.96321
60.9418 54.2568 3.96683
59.2086 56.9616 3.96201
59.1044 55.1202 3.9675
48.1 68.5749 3.98474
50.9467 69.9313 3.99015
54.0858 71.1327 4
56.25 69.976 2
58.3339 68.6801 0
57.0557 8.33849 3.98244
60.3285 7.74928 4
58.9213 9.66328 2
62.2255 9.30602 2
70.5727 48.8135 0.0248689
71.7808 44.3529 0.023392
68.9061 46.0141 0.0343902
69.7993 41.79 0.0328492
72.404 39.8025 0.0221003
75 37.5 0
72.4867 37.5125 2
70.0366 39.6582 2
69.4247 43.9067 2
67.5054 41.4896 2
68.2587 48.1051 2
66.6012 45.4206 2
70.1249 37.523 3.96757
67.7524 39.5097 3.97197
67.1225 43.4567 3.97051
65.3427 41.1901 3.97694
65.9578 47.3943 3.96866
64.4171 44.8085 3.97526
72.4119 35.2249 0.0220577
71.8023 30.6772 0.0231382
69.8354 33.2709 0.0329467
68.9605 29.0411 0.0344808
64.0165 10.9835 0
63.8863 14.3303 0.0257223
63.5047 17.4565 0.0345657
67.6046 24.9146 0.0354844
66.1031 27.6583 0.0319789
64.6713 23.8585 0.0342967
62.8359 20.3527 0.0373814
61.9317 23.0039 0.0318783
60.6813 11.1014 0.0209509
57.6064 11.4712 0.0300142
70.0534 35.3943 2
69.4618 31.153 2
67.5719 33.6023 2
66.6782 29.6437 2
62.3407 12.6636 2
62.1896 15.8011 2
61.7574 18.7185 2
65.4328 25.7266 2
63.9419 28.3045 2
61.0663 21.407 2
62.6776 24.6962 2
60.1817 23.8182 2
59.2406 12.8087 2
56.3959 13.1656 2
55.8712 10.2507 2
67.7916 35.554 3.97154
67.1802 31.638 3.9698
65.4989 33.9486 3.97707
64.4583 30.2327 3.97575
63.3459 26.468 3.97247
61.9531 28.8528 3.97621
60.7686 14.2459 3.96776
60.7796 25.4238 3.97466
60.579 17.1623 3.96101
60.0836 19.885 3.96212
59.4284 22.3538 3.96788
58.6686 24.4359 3.97448
54.0343 9.14681 3.97386
57.8978 14.3758 3.96649
54.7767 12.0622 3.96931
55.2946 14.7134 3.96677
67.4985 50.1749 0.0354991
57.0231 66.7339 0.0126453
60.6661 63.9738 0.0196878
57.5533 63.6777 0.0286797
65.6942 54.1705 0.0351782
64.4391 51.3565 0.0341935
60.7677 60.9186 0.0312723
60.6319 58.1329 0.0390383
62.7581 55.0419 0.0363826
60.2356 55.7386 0.0353799
55.0708 67.9298 2
59.2134 62.3401 2
55.8019 64.9015 2
56.3155 62.0466 2
65.2227 49.3804 2
63.6219 53.2638 2
62.2348 50.5934 2
59.3189 59.5302 2
60.9422 54.2567 2
59.2136 56.9627 2
59.1076 55.1205 2
53.041 68.9993 3.98991
53.9638 66.0058 3.97907
57.8682 60.834 3.96882
54.6756 63.1824 3.97119
55.1934 60.5645 3.97025
62.9718 48.6066 3.97149
61.5675 52.5186 3.96808
59.966 49.9335 3.97188
57.9783 58.2194 3.96164
59.1366 53.8747 3.96887
57.9661 55.7385 3.96298
50.1066 67.853 3.98389
47.461 66.5721 3.97986
46.0539 69.1542 3.9855
48.1005 68.5752 2
48.8006 70.7226 3.99058
50.9482 69.9307 2
51.8506 72.1454 4
54.0858 71.1327 2
56.25 69.9759 0
55.1008 7.1427 3.98623
58.3339 6.31992 4
57.0589 8.34182 2
60.3286 7.74926 2
58.9185 9.65908 0.0194892
62.2254 9.30607 0
68.2585 48.1058 0.035119
69.425 43.9072 0.0334842
66.6035 45.4212 0.0301586
67.5069 41.4898 0.02848
70.0368 39.6583 0.032463
72.4874 37.5126 0.0224788
70.1242 37.5231 2
67.7505 39.5095 2
67.1217 43.4563 2
65.3396 41.1894 2
65.9575 47.3939 2
64.4149 44.8076 2
67.8532 37.524 3.97194
65.5816 39.3618 3.97679
64.9579 42.9956 3.97676
63.4438 40.9025 3.97674
63.7277 46.6679 3.97338
62.466 44.1543 3.97656
70.0536 35.394 0.032482
69.4621 31.1523 0.0337558
67.5734 33.6019 0.0291981
66.6795 29.643 0.0312239
62.3382 12.6589 0.0230362
62.1912 15.8004 0.0333949
61.7573 18.7185 0.0386817
65.4334 25.7257 0.033221
63.9441 28.3034 0.0255664
62.6787 24.6952 0.0296414
61.0674 21.4062 0.0346822
60.1828 23.8171 0.0278788
59.24 12.8089 0.0321806
56.3945 13.1683 0.0312831
55.8693 10.2526 0.0267598
67.7895 35.5543 2
67.1797 31.6385 2
65.4954 33.9496 2
64.4558 30.2337 2
60.7683 14.2465 2
60.5783 17.1619 2
60.0822 19.8857 2
63.344 26.4691 2
61.9507 28.8538 2
59.4304 22.3543 2
60.778 25.425 2
58.6681 24.4371 2
57.8966 14.3758 2
55.2953 14.711 2
54.0364 9.14678 2
54.7775 12.0581 2
65.6801 35.679 3.97689
64.9782 32.1857 3.97666
64.0077 34.2771 3.9768
62.2701 30.6979 3.97625
61.3629 27.1539 3.97582
60.4772 29.2318 3.97642
59.2938 15.7057 3.9619
58.985 25.9131 3.97616
59.0301 18.4207 3.96072
58.532 20.9527 3.96347
57.9873 23.214 3.96943
57.6264 24.7976 3.97513
52.1096 8.16218 3.9775
53.0499 11.0506 3.97072
56.6522 15.802 3.96227
53.7911 13.7511 3.96573
54.3391 16.079 3.96138
55.0689 67.9312 0.011471
65.223 49.381 0.0328778
55.8015 64.902 0.0237597
59.2132 62.3381 0.0306692
56.3167 62.0465 0.0299482
63.6219 53.264 0.0355008
62.2352 50.594 0.0305803
59.319 59.528 0.0367932
59.2086 56.9616 0.0379934
60.9418 54.2568 0.0331731
59.1044 55.1202 0.0324976
53.0427 68.9987 2
53.9646 66.0058 2
57.8667 60.8349 2
54.6753 63.1841 2
55.191 60.5646 2
62.9707 48.6058 2
61.5676 52.5182 2
59.9671 49.933 2
57.9753 58.2202 2
59.1403 53.8748 2
57.9627 55.7369 2
52.0678 66.9952 3.98248
52.9485 64.2042 3.97608
56.6258 59.4464 3.9679
53.6648 61.5735 3.97085
54.2307 59.2691 3.97457
60.6425 47.7964 3.97321
59.4504 52.0226 3.96988
57.6361 49.5046 3.97349
56.6933 56.9255 3.96407
56.8827 54.0276 3.96663
50.107 67.8529 2
49.3347 65.9124 3.9798
47.4611 66.5722 2
46.8892 64.7221 3.97869
45.5564 67.0893 3.98026
43.9714 69.5862 3.98639
46.0544 69.1543 2
46.6071 71.367 3.99093
48.1 68.5749 0.015257
48.802 70.7223 2
49.554 73.0099 4
50.9467 69.9313 0.00984905
51.8506 72.1455 2
54.0858 71.1327 0
53.0631 6.07311 3.98901
55.104 7.14406 2
56.25 5.02411 4
58.3339 6.3199 2
57.0557 8.33849 0.0175551
60.3285 7.74928 0
65.9578 47.3943 0.0313426
67.1225 43.4567 0.0294925
64.4171 44.8085 0.0247377
65.3427 41.1901 0.0230629
67.7524 39.5097 0.028032
70.1249 37.523 0.0324293
67.8517 37.5241 2
65.5783 39.3615 2
64.9546 42.9946 2
63.4424 40.9023 2
63.7262 46.6671 2
62.4641 44.1535 2
65.6903 37.5042 3.97677
63.5933 39.2548 3.97677
62.9986 42.508 3.97656
62.0446 40.6633 3.9766
61.6102 45.8452 3.97531
61.0247 43.6125 3.97628
67.7916 35.554 0.0284582
67.1802 31.638 0.0302012
65.4989 33.9486 0.0229283
64.4583 30.2327 0.0242458
60.7686 14.2459 0.0322415
60.579 17.1623 0.0389896
60.0836 19.885 0.0378781
63.3459 26.468 0.0275341
61.9531 28.8528 0.023788
60.7796 25.4238 0.0253415
59.4284 22.3538 0.0321237
58.6686 24.4359 0.0255225
57.8978 14.3758 0.0335137
55.2946 14.7134 0.033226
54.0343 9.14681 0.0261358
54.7767 12.0622 0.0306938
65.6767 35.6795 2
64.9748 32.1867 2
64.0058 34.2777 2
62.2682 30.6983 2
59.2923 15.7048 2
59.0368 18.4189 2
58.5323 20.9534 2
61.3611 27.155 2
60.4763 29.2323 2
57.9812 23.2164 2
58.9842 25.9144 2
57.6319 24.7996 2
56.6504 15.8013 2
54.3429 16.0753 2
53.7906 13.7409 2
52.1115 8.16204 2
53.0509 11.0487 2
63.8021 35.6485 3.97663
62.5928 33.0905 3.97643
60.1934 30.6986 3.97611
59.179 28.0234 3.97617
57.8933 17.0428 3.95988
57.3448 25.8704 3.9761
57.5552 19.5714 3.96014
57.0905 21.9689 3.96372
56.8181 24.0941 3.9704
50.1107 7.29139 3.98262
51.227 10.1445 3.97409
52.1562 12.851 3.97152
55.4894 17.0506 3.95933
52.947 15.3486 3.96361
53.7058 17.0756 3.95919
53.041 68.9993 0.010095
53.9638 66.0058 0.0209277
62.9718 48.6066 0.0285052
54.6756 63.1824 0.0288114
57.8682 60.834 0.0311764
55.1934 60.5645 0.0297524
61.5675 52.5186 0.0319205
59.966 49.9335 0.0281249
57.9783 58.2194 0.0383637
57.9661 55.7385 0.0370167
59.1366 53.8747 0.0311281
52.0684 66.9956 2
52.948 64.2049 2
56.6239 59.4471 2
53.6633 61.5762 2
54.2282 59.2699 2
60.6421 47.7955 2
59.4512 52.0221 2
57.634 49.5034 2
56.6899 56.9287 2
56.8796 54.0261 2
51.165 65.1174 3.97834
52.0348 62.5162 3.97279
55.4347 58.1981 3.96302
52.8038 60.0672 3.96997
53.5976 58.4149 3.96783
57.8222 46.7276 3.97589
57.24 51.6807 3.97015
55.787 49.4219 3.97267
55.3415 55.7132 3.96471
55.0725 53.2762 3.9631
50.1066 67.853 0.0161067
49.3346 65.9121 2
48.6137 64.1094 3.97881
47.461 66.5721 0.020142
45.5565 67.0897 2
46.8897 64.7218 2
46.3758 63.0353 3.98232
45.1305 65.1828 3.97806
43.6299 67.461 3.98193
41.8592 69.8732 3.98604
43.9718 69.5867 2
44.3743 71.8615 3.99122
46.0539 69.1542 0.0144965
46.6082 71.3668 2
47.2057 73.7222 4
48.8006 70.7226 0.00942308
49.554 73.0099 2
51.8506 72.1454 0
50.9538 5.13372 3.9906
53.0655 6.0741 2
54.0858 3.86728 4
55.1008 7.1427 0.0137684
56.25 5.02406 2
58.3339 6.31992 0
63.7277 46.6679 0.0266197
64.9579 42.9956 0.023236
62.466 44.1543 0.0234395
63.4438 40.9025 0.0232617
65.5816 39.3618 0.0232081
67.8532 37.524 0.0280599
65.6867 37.5043 2
63.5922 39.2548 2
62.9973 42.5075 2
62.045 40.6632 2
61.6087 45.8442 2
61.0237 43.6123 2
63.6571 37.4583 3.97668
61.7542 39.3355 3.97678
60.7702 41.9011 3.97663
59.7886 44.672 3.97651
65.6801 35.679 0.023105
64.9782 32.1857 0.0233414
64.0077 34.2771 0.023196
62.2701 30.6979 0.0237537
59.2938 15.7057 0.0381012
59.0301 18.4207 0.0392827
58.532 20.9527 0.0365315
61.3629 27.1539 0.0241846
60.4772 29.2318 0.0235843
58.985 25.9131 0.0238402
57.9873 23.214 0.0305744
57.6264 24.7976 0.0248731
56.6522 15.802 0.03773
54.3391 16.079 0.0386236
53.7911 13.7511 0.0342737
52.1096 8.16218 0.0224959
53.0499 11.0506 0.0292785
63.8009 35.6485 2
62.5925 33.091 2
60.1938 30.6989 2
57.8908 17.0428 2
57.5688 19.5675 2
57.0858 21.9713 2
59.1777 28.0243 2
56.8348 24.0952 2
57.3462 25.8738 2
50.1125 7.2897 2
55.4901 17.0488 2
53.7114 17.0671 2
52.9472 15.3399 2
52.1571 12.8552 2
51.2285 10.1423 2
61.7966 35.3821 3.97645
59.8156 32.8124 3.97619
58.1206 30.1889 3.97597
56.8288 27.5351 3.9766
56.5489 18.2399 3.96072
55.8727 25.27 3.97528
56.1501 20.6432 3.96084
55.7664 23.0241 3.96392
48.0559 6.53104 3.9868
49.3218 9.34444 3.97678
50.4216 12.0326 3.97354
51.3502 14.5655 3.9652
54.3338 18.02 3.95966
52.3155 17.1471 3.95911
52.0678 66.9952 0.0175227
52.9485 64.2042 0.0239248
60.6425 47.7964 0.0267911
53.6648 61.5735 0.0291483
56.6258 59.4464 0.0320987
54.2307 59.2691 0.0254333
59.4504 52.0226 0.0301218
57.6361 49.5046 0.0265125
56.6933 56.9255 0.0359266
56.8827 54.0276 0.0333699
51.1649 65.1181 2
52.0335 62.5177 2
55.4335 58.1987 2
52.8024 60.0708 2
53.5959 58.417 2
57.8213 46.7266 2
57.2365 51.6793 2
55.7805 49.4199 2
55.3392 55.7131 2
55.0734 53.2762 2
50.3397 63.3663 3.97969
51.2217 60.8877 3.97495
54.1495 57.2063 3.968
52.2537 58.5647 3.97076
56.0582 44.0432 3.97663
54.9431 47.7468 3.97466
54.6639 51.2605 3.96576
53.8112 54.452 3.96563
49.3347 65.9124 0.0202028
48.6139 64.1084 2
47.9524 62.4575 3.98061
45.5564 67.0893 0.0197392
46.8892 64.7221 0.0213096
43.6299 67.4618 2
46.3762 63.035 2
45.1309 65.1829 2
45.9782 61.565 3.98918
44.7631 63.4333 3.97747
43.3558 65.4942 3.97856
41.6623 67.6794 3.98159
39.7016 70.0189 3.98551
41.8595 69.8737 2
42.1089 72.206 3.99163
43.9714 69.5862 0.0136127
44.3753 71.8616 2
44.8159 74.2794 4
46.6071 71.367 0.00907463
47.2057 73.7222 2
49.554 73.0099 0
48.7851 4.32395 3.99168
50.9556 5.13353 2
51.8506 2.85458 4
53.0631 6.07311 0.0109896
54.0858 3.86728 2
56.25 5.02411 0
61.6102 45.8452 0.0246888
62.9986 42.508 0.0234435
61.0247 43.6125 0.0237213
62.0446 40.6633 0.0234005
63.5933 39.2548 0.0232313
65.6903 37.5042 0.0232281
63.656 37.4582 2
61.755 39.3356 2
60.771 41.9011 2
59.7884 44.6713 2
61.5839 37.4444 3.9769
59.7303 39.8104 3.97683
58.4187 42.8295 3.97618
63.8021 35.6485 0.0233673
62.5928 33.0905 0.0235691
60.1934 30.6986 0.0238857
57.8933 17.0428 0.040116
57.5552 19.5714 0.0398611
57.0905 21.9689 0.0362827
59.179 28.0234 0.0238272
57.3448 25.8704 0.0239048
56.8181 24.0941 0.0296025
55.4894 17.0506 0.0406729
53.7058 17.0756 0.0408065
52.947 15.3486 0.0363852
50.1107 7.29139 0.0173769
52.1562 12.851 0.0284826
51.227 10.1445 0.0259119
61.7974 35.3822 2
59.816 32.8123 2
58.1217 30.1883 2
56.5516 18.2386 2
56.1662 20.6375 2
55.7728 23.0294 2
56.8283 27.5364 2
55.8762 25.275 2
48.0571 6.53003 2
49.3233 9.34293 2
54.3456 18.0177 2
52.3086 17.137 2
51.3474 14.5649 2
50.4232 12.0323 2
59.3668 35.153 3.97658
57.3967 32.3618 3.97565
55.989 29.4893 3.97627
54.9316 26.7984 3.97564
55.2198 19.2942 3.96207
54.5443 24.2402 3.97029
54.7424 21.7092 3.96015
45.9625 5.88522 3.98844
43.3742 7.4786 3.98433
47.3543 8.63159 3.9814
48.5925 11.3174 3.97412
49.6894 13.7892 3.96986
50.5908 16.216 3.96397
53.0264 18.7849 3.96203
51.2362 18.1957 3.9645
51.165 65.1174 0.0216576
52.0348 62.5162 0.0272143
57.8222 46.7276 0.0241118
52.8038 60.0672 0.0300303
55.4347 58.1981 0.0369802
53.5976 58.4149 0.0321665
57.24 51.6807 0.0298458
55.787 49.4219 0.0273259
55.3415 55.7132 0.0352889
55.0725 53.2762 0.0369036
50.3392 63.3655 2
51.2199 60.8864 2
54.1482 57.2075 2
52.2519 58.5662 2
56.0586 44.0425 2
54.9396 47.7452 2
54.6617 51.2592 2
53.8111 54.4536 2
49.5776 61.7283 3.97598
54.8117 41.6368 3.97408
50.5216 59.2765 3.96976
52.0738 56.4188 3.96811
53.4725 45.3856 3.97413
52.8102 49.1762 3.96966
52.3598 52.739 3.9605
48.6137 64.1094 0.0211919
47.9519 62.4554 2
47.3128 60.9887 3.99069
43.6299 67.461 0.018069
45.1305 65.1828 0.0219388
46.3758 63.0353 0.0176847
41.6627 67.6791 2
43.3565 65.4949 2
45.9769 61.5655 2
44.7637 63.4334 2
45.7478 60.6106 3.9883
44.4773 61.8085 3.97951
43.1443 63.7083 3.97827
41.5455 65.6321 3.97733
39.632 67.7565 3.98084
37.5259 70.0431 3.98436
39.7017 70.0192 2
39.8162 72.4025 3.99148
41.8592 69.8732 0.0139649
42.1096 72.2062 2
42.3947 74.6792 4
44.3743 71.8615 0.00877892
44.8159 74.2794 2
47.2057 73.7222 0
43.8518 5.36211 3.98769
46.5713 3.64839 3.99208
48.7861 4.32373 2
49.554 1.99015 4
50.9538 5.13372 0.00939934
51.8506 2.85453 2
54.0858 3.86728 0
59.7886 44.672 0.0234894
60.7702 41.9011 0.0233745
61.7542 39.3355 0.023217
63.6571 37.4583 0.0233156
61.5845 37.4444 2
59.7312 39.8102 2
58.4189 42.8293 2
59.2212 37.5656 3.97725
57.3483 40.5959 3.97717
54.2124 39.6498 3.97521
61.7966 35.3821 0.0235451
59.8156 32.8124 0.0238086
58.1206 30.1889 0.024029
56.5489 18.2399 0.0392778
56.1501 20.6432 0.0391593
55.7664 23.0241 0.0360824
56.8288 27.5351 0.0233995
55.8727 25.27 0.0247194
54.3338 18.02 0.0403372
52.3155 17.1471 0.0408855
51.3502 14.5655 0.0347978
48.0559 6.53104 0.0131959
49.3218 9.34444 0.023219
50.4216 12.0326 0.0264627
59.3677 35.1526 2
45.9632 5.88381 2
43.3746 7.4766 2
57.3979 32.3622 2
55.9888 29.4887 2
55.2105 19.2988 2
54.7695 21.7116 2
54.5411 24.2453 2
54.9292 26.8009 2
47.3556 8.62914 2
48.594 11.3166 2
53.0363 18.7622 2
51.2426 18.193 2
50.5883 16.216 2
49.6885 13.7915 2
56.7248 34.807 3.97712
55.0547 31.6418 3.97567
53.908 28.5974 3.97703
53.3089 25.716 3.97498
53.8116 20.2628 3.96105
53.2831 22.8984 3.95633
41.3999 7.08333 3.9837
45.3601 7.99845 3.98688
42.8664 9.42424 3.97881
46.6642 10.6661 3.97942
47.7258 13.1308 3.9749
48.8951 15.4634 3.96951
49.9404 17.7806 3.95948
51.5397 19.4794 3.97116
50.3397 63.3663 0.0203068
51.2217 60.8877 0.025045
56.0582 44.0432 0.0233654
54.9431 47.7468 0.0253434
52.2537 58.5647 0.0292447
54.1495 57.2063 0.0320018
54.6639 51.2605 0.0342373
53.8112 54.452 0.0343662
49.576 61.727 2
54.8014 41.6325 2
50.5197 59.2774 2
52.0761 56.4214 2
53.4682 45.3831 2
52.8096 49.1744 2
52.3611 52.7387 2
48.8183 60.18 3.97678
51.577 42.504 3.9833
49.7107 57.5733 3.96585
50.3921 54.3472 3.96192
51.1464 47.0925 3.97512
50.804 50.8149 3.95491
47.2599 43.5733 3.97484
47.9524 62.4575 0.0193916
47.3107 60.9868 2
46.5907 59.7795 3.99447
41.6623 67.6794 0.0184132
43.3558 65.4942 0.0214361
44.7631 63.4333 0.0225314
45.9782 61.565 0.0108185
39.6325 67.7572 2
41.5461 65.6305 2
45.747 60.6108 2
43.1445 63.7077 2
44.4755 61.8101 2
44.6045 60.2666 3.99547
42.9455 62.0601 3.97483
41.5995 63.8017 3.9773
39.6469 65.5961 3.97638
37.5632 67.7369 3.97887
31.698 65.1134 3.97637
33.3928 67.475 3.97875
35.334 69.9536 3.98452
37.5257 70.0445 2
37.509 72.4568 3.99198
39.7016 70.0189 0.0144911
39.8167 72.4026 2
39.9526 74.9197 4
42.1089 72.206 0.00836975
42.3947 74.6792 2
44.8159 74.2794 0
41.7366 4.9703 3.98819
43.8522 5.36054 2
44.3268 3.11145 3.99255
46.572 3.64792 2
47.2057 1.27793 4
48.7851 4.32395 0.00831573
49.554 1.99013 2
51.8506 2.85458 0
58.4187 42.8295 0.0238171
59.7303 39.8104 0.0231736
61.5839 37.4444 0.0230953
59.2224 37.5664 2
57.348 40.5975 2
54.2025 39.6567 2
56.0828 37.8771 3.97677
48.6041 41.2258 3.97274
52.1688 39.2889 3.98289
39.4436 6.80644 3.98476
59.3668 35.153 0.0234192
57.3967 32.3618 0.0243472
55.989 29.4893 0.0237267
55.2198 19.2942 0.0379316
54.7424 21.7092 0.039849
54.5443 24.2402 0.0297062
54.9316 26.7984 0.0243609
53.0264 18.7849 0.0379719
51.2362 18.1957 0.0355002
50.5908 16.216 0.0360295
45.9625 5.88522 0.0115621
49.6894 13.7892 0.0301415
47.3543 8.63159 0.0186019
48.5925 11.3174 0.0258808
43.3742 7.4786 0.0156703
56.7245 34.8079 2
41.4002 7.08329 2
45.3607 7.99636 2
42.8672 9.42228 2
55.0571 31.64 2
53.9067 28.5984 2
53.8157 20.2794 2
53.2716 22.8988 2
53.3059 25.7158 2
46.6656 10.662 2
47.7259 13.1278 2
51.5589 19.4801 2
49.9398 17.7824 2
48.8893 15.4742 2
54.0338 34.0058 3.9749
52.7635 30.6926 3.97564
52.0155 27.4466 3.97478
51.7916 24.3375 3.97867
52.2066 21.223 3.97378
41.0134 9.05734 3.97766
44.7261 9.99928 3.98557
42.4621 10.9083 4.00026
45.9884 12.7425 3.97092
47.6505 14.638 3.96762
48.048 17.0394 3.9656
49.7428 19.8677 3.97609
49.5776 61.7283 0.0240231
50.5216 59.2765 0.0302391
54.8117 41.6368 0.0259248
53.4725 45.3856 0.0258731
52.8102 49.1762 0.0303431
52.0738 56.4188 0.0318917
52.3598 52.739 0.0394993
48.8154 60.1779 2
51.5912 42.5166 2
49.7091 57.5734 2
50.3921 54.3485 2
51.1483 47.0907 2
50.8062 50.8145 2
47.2726 43.6067 2
47.9344 58.7011 3.98245
49.2459 45.1122 3.98082
48.4685 55.861 3.95969
48.8511 52.5004 3.97612
49.1657 48.8942 3.97058
45.0027 39.7888 3.85398
45.4933 42.4906 3.89296
45.7593 45.5735 3.98329
42.8313 41.0086 3.67554
41.5597 41.8011 3.47726
47.3128 60.9887 0.00931422
46.5887 59.7757 2
45.4291 58.7786 3.99469
39.632 67.7565 0.0191585
41.5455 65.6321 0.022673
43.1443 63.7083 0.0217333
44.4773 61.8085 0.0204861
45.7478 60.6106 0.0116979
41.5996 63.8003 2
37.5634 67.7384 2
39.6476 65.5971 2
44.6046 60.2677 2
42.9436 62.0603 2
41.7488 62.4672 3.97689
42.4666 59.9531 3.98115
39.8942 63.5327 3.97598
37.6419 65.4918 3.97569
35.4637 67.6464 3.97863
33.576 65.3251 3.97492
31.9604 63.2761 3.97639
29.8858 64.7042 3.98021
31.6977 65.1138 2
31.3779 67.1858 3.97924
33.3925 67.4758 2
33.1576 69.7472 3.98457
35.3335 69.9548 2
35.1957 72.3713 3.992
37.5259 70.0431 0.0156415
37.5091 72.4573 2
37.5 75 4
39.8162 72.4025 0.00852345
39.9526 74.9197 2
42.3947 74.6792 0
39.6246 4.71804 3.9893
41.7368 4.97001 2
42.0633 2.71847 3.99296
43.8518 5.36211 0.0123124
44.3271 3.11064 2
44.8158 0.721173 4
46.5713 3.64839 0.00792177
47.2057 1.27779 2
49.554 1.99015 0
57.3483 40.5959 0.0228343
59.2212 37.5656 0.0227481
54.2124 39.6498 0.024785
48.6285 41.2356 2
56.0831 37.8742 2
52.1639 39.2538 2
53.0286 36.6157 3.97793
46.534 40.3052 3.89666
49.5486 38.5069 3.9844
37.5176 6.67634 3.98546
39.4444 6.80485 2
39.2111 8.69827 3.98199
35.9435 8.49691 3.98383
56.7248 34.807 0.0228779
55.0547 31.6418 0.0243281
53.908 28.5974 0.0229733
53.8116 20.2628 0.0389484
53.2831 22.8984 0.0436712
53.3089 25.716 0.0250216
51.5397 19.4794 0.0288425
49.9404 17.7806 0.0405156
48.8951 15.4634 0.030486
45.3601 7.99845 0.01312
47.7258 13.1308 0.0250983
46.6642 10.6661 0.0205783
41.3999 7.08333 0.0163002
42.8664 9.42424 0.021193
54.033 34.0042 2
41.0148 9.05923 2
44.7269 9.99722 2
42.4636 10.9087 2
52.7582 30.6902 2
52.0226 27.4475 2
52.2058 21.2305 2
51.7815 24.3426 2
45.9886 12.7362 2
47.6438 14.6095 2
49.76 19.8546 2
48.0444 17.0467 2
51.5393 32.9189 3.98236
50.5931 29.4072 3.97751
50.3143 25.9481 3.97051
49.7683 22.4636 3.98512
40.5643 11.6195 3.98298
43.8447 11.9131 3.97948
45.7671 15.4775 3.98813
47.4457 19.4792 3.97868
45.4635 37.4822 3.85101
48.8183 60.18 0.0232229
49.7107 57.5733 0.0341464
51.577 42.504 0.0167035
51.1464 47.0925 0.0248841
50.804 50.8149 0.0450946
50.3921 54.3472 0.0380829
47.2599 43.5733 0.0251592
47.9323 58.7047 2
49.2625 45.1269 2
48.4644 55.8633 2
48.8502 52.5033 2
49.1681 48.8955 2
45.0909 39.81 2
45.5227 42.5146 2
45.766 45.5897 2
42.8793 41.0575 2
41.5961 41.8261 2
46.7615 57.3074 3.97873
43.5555 39.3494 3.67531
41.9331 40.7305 3.49283
47.4296 47.1424 3.9839
46.987 54.1691 3.9603
47.2307 50.645 3.9783
44.2891 47.2 3.98207
44.1428 41.8281 3.85183
44.2519 44.3084 3.89103
41.86 42.4297 3.71698
40.5808 42.0953 3.46276
46.5907 59.7795 0.00553383
45.4295 58.7766 2
43.8368 57.6653 3.9825
37.5632 67.7369 0.0211338
39.6469 65.5961 0.0236233
41.5995 63.8017 0.0226968
42.9455 62.0601 0.0251725
44.6045 60.2666 0.0045319
35.4636 67.6479 2
41.7474 62.4702 2
39.8936 63.5332 2
37.6422 65.4933 2
42.4687 59.9506 2
40.6194 61.6094 3.98081
40.4306 58.131 3.98305
37.8373 63.1881 3.97303
35.573 65.4142 3.9762
33.576 65.3259 2
31.9612 63.2785 2
33.6293 63.3162 3.97463
30.3802 62.8381 3.98068
32.1285 61.979 3.9872
26.8808 61.4606 3.97894
28.0666 64.1336 3.97886
29.8848 64.7056 2
29.4079 66.749 3.97994
31.698 65.1134 0.0236325
31.3775 67.1862 2
31.0155 69.4128 3.98454
33.3928 67.475 0.0212527
33.1569 69.748 2
32.8938 72.1457 3.99141
35.334 69.9536 0.0154804
35.1953 72.372 2
35.0474 74.9194 4
37.509 72.4568 0.00801894
37.5 75 2
39.9526 74.9197 0
35.6221 6.72787 3.9848
37.5244 4.61708 3.98962
39.6248 4.71657 2
39.7898 2.4752 3.99304
41.7366 4.9703 0.0118053
42.0633 2.71819 2
42.3946 0.32156 4
44.3268 3.11145 0.00744914
44.8159 0.72056 2
47.2057 1.27793 0
48.6041 41.2258 0.0272577
56.0828 37.8771 0.0232263
52.1688 39.2889 0.0171147
46.5556 40.3095 2
49.5475 38.5058 2
53.0275 36.6414 2
50.3531 35.565 3.97396
47.1985 37.7618 3.906
45.0258 35.1832 3.85304
42.8736 33.9473 3.67326
41.594 33.1604 3.47581
37.4588 8.53696 3.98469
37.5183 6.67572 2
39.4436 6.80644 0.0152388
39.2133 8.6962 2
38.976 10.1347 3.98429
35.8999 9.77962 3.97979
34.1535 8.82911 3.98186
35.9446 8.4942 2
54.0338 34.0058 0.0250981
52.7635 30.6926 0.0243596
52.0155 27.4466 0.0252188
52.2066 21.223 0.0262202
51.7916 24.3375 0.0213302
49.7428 19.8677 0.0239094
48.048 17.0394 0.0344031
47.6505 14.638 0.0323842
44.7261 9.99928 0.0144275
45.9884 12.7425 0.0290804
41.0134 9.05734 0.022343
42.4621 10.9083 -0.000257124
51.5503 32.9161 2
40.567 11.624 2
43.8436 11.9105 2
50.6115 29.4059 2
50.3097 25.9521 2
49.7577 22.4573 2
45.7566 15.427 2
47.448 19.5081 2
49.1233 31.5466 3.98654
48.6898 27.7173 3.97689
49.057 24.5971 3.97924
47.0799 22.2439 3.9899
38.2995 12.7501 3.97693
42.0839 14.3169 3.97911
44.7577 18.6049 3.97573
43.9788 37.4858 3.68752
45.5596 37.4868 2
47.9344 58.7011 0.017555
48.4685 55.861 0.0403111
49.2459 45.1122 0.0191818
49.1657 48.8942 0.0294238
48.8511 52.5004 0.023876
45.0027 39.7888 0.146022
45.4933 42.4906 0.107039
45.7593 45.5735 0.0167089
42.8313 41.0086 0.32446
41.5597 41.8011 0.522739
46.7588 57.3111 2
43.6226 39.3759 2
41.9394 40.7444 2
47.4367 47.1377 2
46.982 54.1727 2
47.2308 50.6513 2
44.3238 47.194 2
44.196 41.8615 2
44.3032 44.3385 2
41.9168 42.4837 2
40.6126 42.1092 2
45.295 55.8885 3.99939
42.2775 39.2056 3.50316
40.4693 40.6091 3.60795
45.6433 48.7849 4.00228
45.2784 52.4331 3.98392
43.0355 48.1949 3.99414
42.9337 45.8389 3.88374
43.024 43.5919 3.83305
40.6904 43.4354 3.69576
39.1713 42.3531 3.50823
45.4291 58.7786 0.00530733
43.8349 57.6723 2
42.0604 56.2515 3.98676
35.4637 67.6464 0.0213655
37.6419 65.4918 0.0243055
39.8942 63.5327 0.0240193
41.7488 62.4672 0.0231133
42.4666 59.9531 0.0188451
35.5735 65.4161 2
40.6195 61.6086 2
37.8376 63.1886 2
40.4308 58.1352 2
38.908 56.3971 3.99349
38.2475 60.2926 3.98029
35.6072 63.1823 3.97298
33.576 65.3251 0.0250812
31.9604 63.2761 0.0236077
33.6303 63.3173 2
30.3805 62.8402 2
32.1298 61.9812 2
28.688 62.1757 3.98006
33.348 61.4849 3.97846
31.0777 61.2031 3.98151
27.593 59.5526 3.98002
23.8278 59.0344 3.99246
25.0505 60.8303 3.97703
26.8814 61.4611 2
26.2358 63.4627 3.97641
28.0657 64.132 2
27.465 66.1733 3.97958
29.8858 64.7042 0.0197898
29.4071 66.7492 2
28.9082 68.9382 3.98385
31.3779 67.1858 0.0207564
31.0146 69.413 2
30.6167 71.7773 3.99091
33.1576 69.7472 0.0154252
32.8929 72.1461 2
32.6054 74.6784 4
35.1957 72.3713 0.0080035
35.0474 74.9197 2
37.5 75 0
33.7252 6.98417 3.98351
35.4365 4.68729 3.98927
35.6227 6.72647 2
37.5156 2.38756 3.99317
37.5246 4.61642 2
39.6246 4.71804 0.0106985
39.7896 2.47441 2
39.9526 0.0806499 4
42.0633 2.71847 0.00703781
42.3947 0.320817 2
44.8158 0.721173 0
43.5719 35.6218 3.6791
41.9548 34.2265 3.48145
46.534 40.3052 0.103344
49.5486 38.5069 0.0156041
53.0286 36.6157 0.0220746
47.1931 37.7374 2
50.3627 35.5602 2
45.1022 35.1622 2
42.9159 33.9018 2
41.6221 33.1348 2
47.3962 34.3457 3.94347
44.1948 33.1356 3.83594
41.9101 32.5344 3.71563
40.6099 32.8763 3.46184
37.3118 10.6342 3.98128
37.4606 8.53654 2
37.5176 6.67634 0.014543
39.2111 8.69827 0.0180071
38.9797 10.1328 2
34.7565 10.3893 3.98035
35.9019 9.77421 2
32.3804 9.37533 3.97802
34.1528 8.82453 2
35.9435 8.49691 0.0161657
51.5393 32.9189 0.0176359
50.5931 29.4072 0.0224941
50.3143 25.9481 0.0294886
49.7683 22.4636 0.0148827
47.4457 19.4792 0.0213201
45.7671 15.4775 0.0118667
43.8447 11.9131 0.0205233
40.5643 11.6195 0.0170198
49.1434 31.5342 2
38.3009 12.7449 2
42.0891 14.3284 2
48.6925 27.7198 2
49.0501 24.599 2
47.0651 22.2419 2
44.7604 18.6691 2
47.0355 29.7083 3.98413
46.7394 25.3212 3.97104
44.2122 21.6102 3.97969
36.586 12.9632 3.9741
38.6792 14.8642 3.97433
41.7268 17.9442 3.97906
42.4392 37.4677 3.53979
44.037 37.4867 2
45.4635 37.4822 0.148992
46.7615 57.3074 0.021268
46.987 54.1691 0.0397033
47.4296 47.1424 0.0161038
47.2307 50.645 0.0216992
43.5555 39.3494 0.324689
44.1428 41.8281 0.148174
44.2519 44.3084 0.108972
44.2891 47.2 0.0179296
41.86 42.4297 0.283017
41.9331 40.7305 0.507174
40.5808 42.0953 0.537237
45.2916 55.8908 2
42.2801 39.2121 2
40.5022 40.5946 2
45.6421 48.802 2
45.2734 52.4352 2
43.0716 48.2115 2
42.9909 45.8868 2
43.0763 43.624 2
40.7332 43.501 2
39.169 42.3686 2
43.6191 54.35 3.99407
40.5728 39.053 3.62689
39.0664 40.6838 3.57711
43.3633 50.2816 4.00372
41.6738 47.3463 3.92629
41.5865 44.9326 3.84485
39.341 44.0876 3.66136
37.4988 42.4664 3.5493
43.8368 57.6653 0.0175029
42.064 56.243 2
40.374 54.8111 3.99506
35.573 65.4142 0.0237986
37.8373 63.1881 0.0269737
40.6194 61.6094 0.0191854
40.4306 58.131 0.0169508
35.6078 63.1816 2
38.2465 60.2944 2
38.91 56.383 2
37.9828 55.0772 3.99491
36.9307 57.5829 3.99158
35.3646 60.8853 3.97907
33.6293 63.3162 0.0253742
30.3802 62.8381 0.0193239
32.1285 61.979 0.0127973
33.3489 61.4851 2
28.6884 62.1789 2
31.0788 61.2072 2
29.4212 60.2568 3.97606
32.369 59.7033 3.99291
28.0638 58.3381 4.01076
27.5947 59.5523 2
25.4159 58.553 3.9804
22.8133 58.1891 3.96786
23.4204 60.2993 3.97812
23.8296 59.0345 2
25.0515 60.8294 2
24.4415 62.7453 3.97693
26.8808 61.4606 0.0210571
26.236 63.4631 2
25.5501 65.4814 3.97824
28.0666 64.1336 0.0211376
27.4643 66.1734 2
26.8379 68.3266 3.98386
29.4079 66.749 0.0200647
28.9071 68.938 2
28.372 71.2626 3.9902
31.0155 69.4128 0.0154586
30.6156 71.7772 2
30.1842 74.2788 4
32.8938 72.1457 0.00859479
32.6053 74.6792 2
35.0474 74.9194 0
31.7897 7.42342 3.98204
33.3491 4.92719 3.98824
33.7251 6.98139 2
35.246 2.46349 3.9932
35.4365 4.68657 2
35.6221 6.72787 0.0152035
37.5 0 4
37.5151 2.38717 2
37.5244 4.61708 0.0103785
39.7898 2.4752 0.00695618
39.9526 0.0802889 2
42.3946 0.32156 0
42.2719 35.728 3.49051
43.6496 35.591 2
40.5082 34.3526 3.60804
41.9537 34.2092 2
47.1985 37.7618 0.0939952
50.3531 35.565 0.0260351
45.0258 35.1832 0.14696
42.8736 33.9473 0.326743
41.594 33.1604 0.524186
47.4235 34.3655 2
44.2362 33.1048 2
41.9627 32.4781 2
40.6388 32.8621 2
45.5053 31.7589 3.90416
43.0705 31.3721 3.82697
40.7326 31.5332 3.69513
39.1922 32.6351 3.50355
35.6958 11.787 3.97619
37.3158 10.6323 2
37.4588 8.53696 0.0153136
38.976 10.1347 0.0157149
33.1015 11.2276 3.97273
34.7557 10.3814 2
35.8999 9.77962 0.0202094
30.4861 10.0274 3.9773
32.38 9.37431 2
34.1535 8.82911 0.0181398
49.1233 31.5466 0.0134598
48.6898 27.7173 0.0231083
49.057 24.5971 0.0207564
47.0799 22.2439 0.0101006
44.7577 18.6049 0.0242716
42.0839 14.3169 0.0208865
38.2995 12.7501 0.023073
36.5829 12.9414 2
47.0445 29.6549 2
38.6771 14.8419 2
41.7185 17.9447 2
46.7406 25.3211 2
44.1973 21.5845 2
45.0042 27.8492 4.00073
43.5809 24.2504 4.0279
41.2868 20.9592 3.9876
35.7716 14.804 3.97708
38.667 17.6736 3.98305
40.6295 37.4524 3.64262
42.4502 37.4721 2
43.9788 37.4858 0.31248
45.295 55.8885 0.000612452
45.2784 52.4331 0.0160789
45.6433 48.7849 -0.00228441
42.2775 39.2056 0.496841
43.024 43.5919 0.16695
42.9337 45.8389 0.11626
43.0355 48.1949 0.00585673
40.6904 43.4354 0.304237
40.4693 40.6091 0.392049
39.1713 42.3531 0.491769
43.6168 54.3465 2
40.5808 39.0527 2
39.067 40.6781 2
43.3548 50.2945 2
41.6785 47.3819 2
41.608 44.9775 2
37.4947 42.4875 2
39.3571 44.1525 2
41.7711 52.8219 3.99905
39.0764 39.0886 3.58694
37.5029 40.7393 3.60857
35.834 42.3631 3.50671
40.8072 49.4253 3.99442
39.7217 45.6746 3.81516
37.4985 44.3519 3.69437
42.0604 56.2515 0.013238
40.3728 54.8194 2
38.7229 53.6252 3.99646
35.6072 63.1823 0.0270245
38.2475 60.2926 0.0197097
38.908 56.3971 0.00650714
35.3647 60.8802 2
36.9316 57.5855 2
37.9839 55.0767 2
36.3198 55.1523 3.9975
34.4967 58.489 3.99445
33.348 61.4849 0.0215409
28.688 62.1757 0.0199412
31.0777 61.2031 0.0184911
32.3694 59.7068 2
29.4225 60.2558 2
30.336 57.7797 3.98475
28.0667 58.3371 2
27.0291 56.7879 3.96766
27.593 59.5526 0.0199764
25.4185 58.5526 2
23.9376 56.7464 3.95914
21.4255 57.3327 3.95888
22.022 59.5706 3.97758
22.8149 58.1907 2
22.7481 61.9919 3.97325
23.4214 60.2988 2
23.8278 59.0344 0.00753627
25.0505 60.8303 0.0229711
24.4421 62.7485 2
23.6859 64.6973 3.97572
26.2358 63.4627 0.0235925
25.5493 65.4828 2
24.8105 67.5876 3.98263
27.465 66.1733 0.0204243
26.8368 68.3274 2
26.1672 70.6035 3.99008
28.9082 68.9382 0.016153
28.3707 71.2623 2
27.7943 73.7221 4
30.6167 71.7773 0.00909147
30.1841 74.2794 2
32.6054 74.6784 0
29.8126 7.99955 3.98008
31.2545 5.33378 3.98729
31.7893 7.42203 2
32.982 2.70177 3.99277
33.3487 4.92554 2
33.7252 6.98417 0.0164944
35.0474 0.080333 4
35.2454 2.46323 2
35.4365 4.68729 0.0107281
37.5 0 2
37.5156 2.38756 0.00683064
39.9526 0.0806499 0
40.6176 35.8758 3.62989
42.2768 35.7291 2
43.5719 35.6218 0.320897
28.5465 10.7026 3.97716
39.0782 34.3034 3.57474
40.5178 34.3619 2
41.9548 34.2265 0.518555
47.3962 34.3457 0.0565331
44.1948 33.1356 0.164056
41.9101 32.5344 0.284367
40.6099 32.8763 0.538156
45.5398 31.7409 2
43.1155 31.3373 2
40.7744 31.4676 2
39.1957 32.6204 2
43.8753 29.977 3.89735
41.6055 30.028 3.84613
39.3706 30.8897 3.66004
37.5304 32.5307 3.54751
34.0986 12.9522 3.97383
35.6957 11.7733 2
37.3118 10.6342 0.0187208
31.1916 11.9998 3.97739
33.102 11.2273 2
34.7565 10.3893 0.0196525
30.4845 10.023 2
32.3804 9.37533 0.0219779
47.0355 29.7083 0.0158721
46.7394 25.3212 0.0289601
36.586 12.9632 0.0259024
44.2122 21.6102 0.0203083
41.7268 17.9442 0.0209395
38.6792 14.8642 0.0256696
35.7752 14.8125 2
45.0008 27.8466 2
38.6652 17.6789 2
41.2701 20.9486 2
43.569 24.2337 2
33.6148 15.9095 3.98428
42.7398 26.6857 3.98515
40.7808 23.557 3.99534
38.3932 20.4464 3.99348
35.8462 17.5681 3.98089
39.0954 37.4874 3.6004
40.6303 37.4559 2
42.4392 37.4677 0.460208
43.6191 54.35 0.00592717
43.3633 50.2816 -0.00372409
40.5728 39.053 0.37311
41.5865 44.9326 0.155146
41.6738 47.3463 0.0737109
39.341 44.0876 0.338643
39.0664 40.6838 0.422885
37.4988 42.4664 0.450701
41.7625 52.8224 2
39.0696 39.0756 2
37.4997 40.7288 2
40.7913 49.4439 2
35.8317 42.3769 2
39.7392 45.7325 2
37.4917 44.4136 2
39.7246 51.6191 4.00303
37.5073 39.0924 3.62432
35.9468 40.6988 3.57794
34.4195 42.1124 3.46412
35.6563 44.1055 3.65044
38.6624 48.3231 3.93845
37.5283 45.9652 3.84636
40.374 54.8111 0.00494322
38.7232 53.6158 2
36.7578 52.9332 3.99651
35.3646 60.8853 0.0209292
36.9307 57.5829 0.00842422
37.9828 55.0772 0.00509172
34.495 58.4854 2
36.3228 55.141 2
33.2675 55.3505 3.99297
32.369 59.7033 0.00709484
29.4212 60.2568 0.0239398
30.3382 57.7756 2
28.8208 55.2834 3.98727
28.0638 58.3381 -0.0107552
27.0323 56.7869 2
25.4635 55.0755 3.95739
21.9733 55.2651 3.95973
25.4159 58.553 0.0195971
23.9397 56.748 2
20.2971 56.9647 3.96281
20.6819 58.7262 3.96727
21.4275 57.3344 2
21.1831 61.1224 3.97387
22.0228 59.5717 2
22.8133 58.1891 0.0321416
21.9014 63.8187 3.97523
22.7491 61.9937 2
23.4204 60.2993 0.0218815
24.4415 62.7453 0.0230715
23.6852 64.6968 2
22.839 66.7298 3.97987
25.5501 65.4814 0.0217598
24.8091 67.5881 2
24.0114 69.805 3.98996
26.8379 68.3266 0.0161352
26.1655 70.6034 2
25.446 73.0099 4
28.372 71.2626 0.00979802
27.7943 73.7222 2
30.1842 74.2788 0
27.8225 8.65964 3.98016
29.1567 5.88069 3.98543
29.8115 7.99622 2
30.7276 3.09853 3.99251
31.254 5.33243 2
31.7897 7.42342 0.0179564
32.6053 0.320823 4
32.9812 2.70115 2
33.3491 4.92719 0.0117588
35.0474 0.0802903 2
35.246 2.46349 0.00680458
37.5 0 0
39.0638 35.8956 3.59608
40.5998 35.8755 2
42.2719 35.728 0.509489
28.545 10.6996 2
26.6252 11.3989 3.97775
29.2325 12.6523 3.98111
37.5229 34.2636 3.60754
39.0933 34.3199 2
40.5082 34.3526 0.391961
45.5053 31.7589 0.0958425
43.0705 31.3721 0.173033
40.7326 31.5332 0.304875
39.1922 32.6351 0.496453
43.9072 29.9435 2
41.6349 29.9862 2
39.3786 30.8262 2
37.5315 32.5098 2
42.0316 28.6675 3.8673
39.7206 29.2934 3.83745
37.5246 30.6473 3.6957
35.8546 32.6376 3.51021
31.9267 14.4996 3.97987
34.0997 12.9583 2
35.6958 11.787 0.0238148
31.1903 11.993 2
33.1015 11.2276 0.0272748
30.4861 10.0274 0.0227008
45.0042 27.8492 -0.000726638
43.5809 24.2504 -0.0278978
35.7716 14.804 0.022922
41.2868 20.9592 0.0124008
38.667 17.6736 0.0169473
33.6103 15.8976 2
35.8402 17.5706 2
42.7741 26.6662 2
38.3774 20.5108 2
40.7745 23.5337 2
33.5512 17.4494 3.98099
40.2095 25.9681 3.95508
38.032 23.2956 3.99825
35.5667 20.1999 3.99663
37.5132 37.49 3.63989
39.0843 37.48 2
40.6295 37.4524 0.35738
41.7711 52.8219 0.000949078
40.8072 49.4253 0.00558182
39.0764 39.0886 0.41306
39.7217 45.6746 0.184843
37.4985 44.3519 0.305633
37.5029 40.7393 0.391434
35.834 42.3631 0.493286
39.7075 51.6252 2
37.509 39.0881 2
35.9443 40.688 2
38.6792 48.381 2
34.3919 42.1264 2
35.6352 44.1678 2
37.5227 46.0232 2
37.6805 50.6252 3.99552
35.9545 39.1007 3.59522
34.5391 40.6348 3.61074
33.4347 41.8208 3.47991
34.311 43.4484 3.6907
35.2429 45.6944 3.83315
36.9234 47.9315 3.90326
38.7229 53.6252 0.00353715
36.7612 52.9138 2
34.4517 52.2618 3.99839
34.4967 58.489 0.00554543
36.3198 55.1523 0.0024983
33.2731 55.3598 2
30.6605 53.2576 3.99303
30.336 57.7797 0.0152466
28.8229 55.2789 2
27.0979 53.364 3.95743
27.0291 56.7879 0.0323361
25.4669 55.0775 2
23.8216 53.3808 3.95521
20.7702 53.1072 3.95832
20.0678 55.7542 3.96189
21.9717 55.2673 2
23.9376 56.7464 0.0408648
19.4888 57.8328 3.96361
20.294 56.967 2
19.7255 60.1497 3.97363
20.6803 58.7281 2
21.4255 57.3327 0.0411229
20.216 62.8311 3.97163
21.1838 61.1238 2
22.022 59.5706 0.0224212
20.9411 65.7558 3.97709
21.9012 63.8222 2
22.7481 61.9919 0.0267506
23.6859 64.6973 0.0242767
22.8376 66.7295 2
21.9142 68.8721 3.98923
24.8105 67.5876 0.0173659
24.0093 69.8043 2
23.1494 72.1454 4
26.1672 70.6035 0.00991614
25.446 73.0099 2
27.7943 73.7221 0
25.8617 9.38876 3.97937
27.0715 6.54518 3.98399
27.8209 8.65746 2
28.4901 3.64452 3.99162
29.1558 5.87861 2
29.8126 7.99955 0.0199187
30.1841 0.720592 4
30.7263 3.09816 2
31.2545 5.33378 0.0127116
32.6053 0.320817 2
32.982 2.70177 0.0072265
35.0474 0.080333 0
37.5102 35.8935 3.6201
39.0485 35.8915 2
40.6176 35.8758 0.370112
24.7824 12.0879 3.97592
23.7645 14.3876 3.97561
28.5465 10.7026 0.0228402
26.6237 11.3962 2
29.2303 12.6499 2
27.3003 13.3849 3.97866
29.7936 14.2127 3.9816
35.9547 34.3056 3.57807
37.5302 34.2729 2
39.0782 34.3034 0.425262
37.5304 32.5307 0.452488
43.8753 29.977 0.102648
41.6055 30.028 0.153874
39.3706 30.8897 0.339965
42.0631 28.608 2
39.7446 29.2382 2
37.5272 30.5861 2
35.8547 32.6242 2
39.8845 27.9289 3.8805
37.4867 29.0257 3.83832
35.6845 30.9067 3.66324
34.4406 32.8892 3.46614
30.9414 16.8569 3.98758
31.9232 14.488 2
34.0986 12.9522 0.0261721
31.1916 11.9998 0.0226081
42.7398 26.6857 0.014846
40.7808 23.557 0.0046606
33.6148 15.9095 0.0157188
35.8462 17.5681 0.0191126
38.3932 20.4464 0.00651719
33.5464 17.4636 2
35.5808 20.1901 2
40.282 25.9535 2
38.0167 23.2539 2
32.8829 19.8464 3.99672
37.6565 25.6083 3.96805
35.236 22.9474 4.00269
35.934 37.4881 3.60271
37.5062 37.4896 2
39.0954 37.4874 0.399601
39.7246 51.6191 -0.00302774
38.6624 48.3231 0.0615532
37.5073 39.0924 0.37568
37.5283 45.9652 0.153638
35.6563 44.1055 0.349562
35.9468 40.6988 0.422061
34.4195 42.1124 0.535879
37.6637 50.6602 2
35.9714 39.0886 2
34.5068 40.627 2
36.9079 47.992 2
33.4001 41.8472 2
34.2709 43.511 2
35.222 45.7471 2
35.565 49.8137 3.98652
34.4332 39.0949 3.62853
33.071 40.7558 3.48687
33.13 42.4454 3.7207
33.4415 44.9402 3.83586
34.4681 47.0777 3.87551
36.7578 52.9332 0.00348602
34.4454 52.273 2
32.2285 51.0578 4.01141
33.2675 55.3505 0.00702696
30.6645 53.2606 2
28.6934 51.474 3.98591
28.8208 55.2834 0.0127296
27.0998 53.3629 2
25.3951 51.6181 3.95335
25.4635 55.0755 0.0426124
23.8222 53.3856 2
22.3348 51.6714 3.95141
19.6192 51.4992 3.9611
19.159 54.2095 3.96121
20.7718 53.1063 2
18.544 56.656 3.9633
20.0652 55.7561 2
21.9733 55.2651 0.0402726
18.3941 59.0622 3.96617
19.4862 57.8347 2
20.2971 56.9647 0.0371935
18.6307 61.7201 3.97176
19.7254 60.1524 2
20.6819 58.7262 0.0327272
19.1303 64.6663 3.97616
20.2162 62.8345 2
21.1831 61.1224 0.0261315
19.8884 67.8084 3.98708
20.9396 65.7546 2
21.9014 63.8187 0.0247684
22.839 66.7298 0.0201344
21.9116 68.8707 2
20.9142 71.1327 4
24.0114 69.805 0.0100379
23.1494 72.1455 2
25.446 73.0099 0
23.1047 12.8065 3.9773
23.9751 10.1783 3.9771
25.025 7.31613 3.98269
25.8597 9.38695 2
26.2819 4.32865 3.99071
27.0701 6.54382 2
27.8225 8.65964 0.0198378
27.7943 1.27781 4
28.4881 3.64424 2
29.1567 5.88069 0.0145692
30.1841 0.720551 2
30.7276 3.09853 0.00748752
32.6053 0.320823 0
35.941 35.8843 3.58602
37.5276 35.9022 2
39.0638 35.8956 0.403921
24.7791 12.0827 2
23.7649 14.3924 2
22.4974 15.0766 3.97916
25.3684 13.9307 3.97178
24.0509 15.6478 3.98539
26.6252 11.3989 0.0222507
29.2325 12.6523 0.0188887
27.3 13.3831 2
29.7887 14.2096 2
28.3776 15.9819 3.98394
34.5564 34.3723 3.60677
35.9519 34.3108 2
37.5229 34.2636 0.392465
35.8546 32.6376 0.489787
37.5246 30.6473 0.304296
42.0316 28.6675 0.132702
39.7206 29.2934 0.162545
39.9168 27.8868 2
37.483 28.9679 2
35.6698 30.8378 2
34.4082 32.8779 2
37.6227 27.6588 3.87534
35.2926 29.3097 3.83531
34.319 31.551 3.69095
33.4542 33.1777 3.47746
30.2294 19.433 3.98319
30.9364 16.8451 2
31.9267 14.4996 0.0201291
40.2095 25.9681 0.0449201
38.032 23.2956 0.00175047
33.5512 17.4494 0.0190053
35.5667 20.1999 0.00337164
32.8814 19.8711 2
35.238 22.9331 2
37.7147 25.5851 2
32.418 22.5809 3.99764
35.1141 25.5239 3.99069
34.3887 37.5074 3.64569
35.9353 37.4961 2
37.5132 37.49 0.360105
37.6805 50.6252 0.00448003
36.9234 47.9315 0.0967366
35.9545 39.1007 0.404778
35.2429 45.6944 0.166852
34.311 43.4484 0.309299
34.5391 40.6348 0.389263
33.4347 41.8208 0.520088
35.5451 49.8262 2
34.431 39.0921 2
33.0662 40.7692 2
34.4503 47.1287 2
33.0876 42.501 2
33.415 44.9846 2
33.4083 48.8981 3.97449
32.7425 39.2457 3.49437
32.1508 41.0329 3.67547
31.9643 43.6074 3.83216
32.6362 46.0624 3.87781
34.4517 52.2618 0.00161028
32.2343 51.0681 2
30.226 49.6302 4.0012
30.6605 53.2576 0.0069684
28.695 51.4683 2
26.905 49.8415 3.97296
27.0979 53.364 0.0425723
25.3953 51.6202 2
23.7811 50.0287 3.96293
23.8216 53.3808 0.0447891
22.3356 51.6694 2
20.943 50.1597 3.96438
18.4068 50.2003 3.96958
18.1755 52.6763 3.96369
19.6185 51.4983 2
17.6222 55.2563 3.96233
19.1568 54.2095 2
20.7702 53.1072 0.0416753
17.1884 57.821 3.96097
18.5395 56.6576 2
20.0678 55.7542 0.0381073
17.1478 60.5054 3.96703
18.3933 59.0634 2
19.4888 57.8328 0.0363887
17.4129 63.4474 3.96983
18.6313 61.7217 2
19.7255 60.1497 0.0263671
17.9446 66.6158 3.98554
19.1293 64.6635 2
20.216 62.8311 0.0283689
18.75 69.9759 4
19.8858 67.8059 2
20.9411 65.7558 0.0229066
21.9142 68.8721 0.0107718
20.9142 71.1327 2
23.1494 72.1454 0
21.5997 13.6348 3.97491
22.1949 11.0424 3.9735
23.1025 12.8118 2
23.0427 8.18294 3.98049
23.9722 10.1765 2
24.1196 5.14347 3.99002
25.0232 7.31514 2
25.8617 9.38876 0.0206332
25.446 1.99014 4
26.2794 4.329 2
27.0715 6.54518 0.0160114
27.7943 1.27778 2
28.4901 3.64452 0.00838097
30.1841 0.720592 0
34.4542 35.9146 3.62562
35.9515 35.9 2
37.5102 35.8935 0.379897
21.332 15.8836 3.98142
24.7824 12.0879 0.024083
23.7645 14.3876 0.0243906
25.3676 13.919 2
22.4991 15.0718 2
24.0545 15.6542 2
23.2993 16.2837 3.96901
25.4077 16.1179 3.98373
27.3003 13.3849 0.021337
29.7936 14.2127 0.0183998
28.3724 15.9899 2
27.472 18.8543 3.98311
33.0837 34.2502 3.4946
34.5235 34.3864 2
35.9547 34.3056 0.421926
34.4406 32.8892 0.533862
35.6845 30.9067 0.336758
37.4867 29.0257 0.161683
39.8845 27.9289 0.119495
37.5961 27.6198 2
33.4226 33.1539 2
35.2932 29.2467 2
34.2779 31.4852 2
35.1922 27.7567 3.8903
33.4396 30.0514 3.83705
33.1553 32.5516 3.71721
29.7302 22.0348 4.00539
30.2313 19.4374 2
30.9414 16.8569 0.0124197
37.6565 25.6083 0.0319531
35.236 22.9474 -0.0026874
32.8829 19.8464 0.00328427
32.4241 22.5737 2
35.1453 25.5134 2
31.99 25.8453 4.00523
32.5723 37.5057 3.53929
34.4003 37.502 2
35.934 37.4881 0.397292
35.565 49.8137 0.0134824
34.4681 47.0777 0.124493
34.4332 39.0949 0.371475
33.4415 44.9402 0.164139
33.13 42.4454 0.2793
33.071 40.7558 0.513129
33.3955 48.8993 2
32.7513 39.2522 2
32.1109 41.0749 2
32.6033 46.1117 2
31.9172 43.64 2
31.57 47.7458 3.98002
31.4506 39.366 3.67935
30.8359 41.853 3.84192
31.0275 44.6977 3.89021
32.2285 51.0578 -0.0114139
30.2327 49.6581 2
28.3768 48.0164 3.96393
28.6934 51.474 0.0140863
26.9043 49.8427 2
25.1855 48.2857 3.96601
25.3951 51.6181 0.0466451
23.7825 50.0276 2
22.2258 48.6079 3.97087
22.3348 51.6714 0.0485851
20.9416 50.1589 2
19.5211 48.9444 3.97339
17.2854 49.214 3.97476
17.1227 51.296 3.9686
18.4095 50.1988 2
16.631 53.7794 3.96506
18.1741 52.6758 2
19.6192 51.4992 0.0389001
16.0823 56.4151 3.96234
17.6207 55.2569 2
19.159 54.2095 0.0387939
15.7646 59.1748 3.9644
17.1842 57.823 2
18.544 56.656 0.0367018
15.7934 62.1043 3.9683
17.1489 60.5076 2
18.3941 59.0622 0.0338314
16.0914 65.2984 3.9835
17.4115 63.4541 2
18.6307 61.7201 0.0282388
16.6661 68.6801 4
17.942 66.6134 2
19.1303 64.6663 0.0238431
18.75 69.9759 2
19.8884 67.8084 0.012921
20.9142 71.1327 0
20.2344 14.647 3.96859
21.598 13.6467 2
20.5361 12.0213 3.97445
21.1461 9.1556 3.97818
22.1917 11.0408 2
23.1047 12.8065 0.0226982
22.0188 6.08226 3.9896
23.0403 8.1819 2
23.9751 10.1783 0.0229002
23.1494 2.85457 4
24.1166 5.14431 2
25.025 7.31613 0.0173109
25.446 1.99012 2
26.2819 4.32865 0.00928859
27.7943 1.27781 0
32.7337 35.77 3.50296
34.4442 35.9148 2
35.941 35.8843 0.413982
21.3349 15.8762 2
20.3442 17.0104 3.96894
22.1318 16.6819 3.96702
25.3684 13.9307 0.0282202
22.4974 15.0766 0.0208413
24.0509 15.6478 0.0146135
25.4105 16.1091 2
23.3035 16.2811 2
24.25 18.5551 3.9685
27.1642 21.6444 3.99412
28.3776 15.9819 0.0160595
27.4676 18.9017 2
32.19 33.9718 3.67012
33.0819 34.233 2
34.5564 34.3723 0.39323
33.4542 33.1777 0.522537
34.319 31.551 0.309045
35.2926 29.3097 0.164694
37.6227 27.6588 0.124657
35.1931 27.7068 2
33.0812 32.498 2
33.4099 30.0118 2
32.8865 28.4066 3.89959
31.9742 31.3935 3.82319
29.119 24.5283 4.00283
29.7256 22.0496 2
30.2294 19.433 0.0168108
35.1141 25.5239 0.00930893
32.418 22.5809 0.00236239
31.9812 25.8174 2
30.1078 27.4988 3.97784
31.0357 37.4974 3.68433
32.5776 37.5047 2
34.3887 37.5074 0.354308
33.4083 48.8981 0.0255135
32.6362 46.0624 0.122195
32.7425 39.2457 0.505633
31.9643 43.6074 0.167843
32.1508 41.0329 0.324533
31.523 47.7693 2
31.3762 39.3895 2
30.7956 41.8842 2
30.983 44.7376 2
29.7984 46.3544 3.99147
29.9914 39.8095 3.85599
29.5194 42.9641 3.89854
30.226 49.6302 -0.00119761
28.3727 48.0145 2
26.5942 46.4545 3.98217
26.905 49.8415 0.0270358
25.1863 48.2838 2
23.4723 46.8727 3.97368
23.7811 50.0287 0.0370698
22.2248 48.6082 2
20.524 47.4538 3.97654
20.943 50.1597 0.0356198
19.5215 48.943 2
18.1164 48.0471 3.97695
16.5181 48.5744 3.97653
17.2866 49.213 2
16.1904 50.0675 3.97291
15.6435 52.3264 3.96855
17.1243 51.295 2
18.4068 50.2003 0.0304179
15.0312 54.9096 3.96375
16.6327 53.779 2
18.1755 52.6763 0.0363072
14.494 57.7056 3.96206
16.0825 56.4156 2
17.6222 55.2563 0.0376735
14.2712 60.6692 3.96799
15.7669 59.1759 2
17.1884 57.821 0.0390344
14.3361 63.8553 3.97922
15.7942 62.1067 2
17.1478 60.5054 0.0329685
14.6715 67.2507 4
16.0888 65.2947 2
17.4129 63.4474 0.0301651
16.6661 68.6801 2
17.9446 66.6158 0.014462
18.75 69.9759 0
18.9542 15.8298 3.97622
20.2356 14.6436 2
18.9895 13.1438 3.97382
21.5997 13.6348 0.0250877
20.5345 12.0238 2
19.3463 10.2462 3.97583
19.9937 7.14746 3.98797
21.1428 9.15514 2
22.1949 11.0424 0.0264956
20.9142 3.86727 4
22.015 6.08372 2
23.0427 8.18294 0.0195102
23.1494 2.85451 2
24.1196 5.14347 0.00997887
25.446 1.99014 0
31.4755 35.6388 3.675
32.7382 35.7622 2
34.4542 35.9146 0.374377
21.332 15.8836 0.0185752
22.1347 16.6749 2
20.3464 17.0055 2
19.337 18.4758 3.95662
21.8256 17.9327 3.97841
25.4077 16.1179 0.0162744
23.2993 16.2837 0.0309869
24.241 18.5786 2
22.418 20.0002 3.96986
24.7458 21.515 3.98628
26.7388 23.8141 3.98114
27.1736 21.5687 2
27.472 18.8543 0.0168884
30.8919 33.1573 3.84775
32.1495 33.9204 2
33.0837 34.2502 0.5054
33.1553 32.5516 0.282794
33.4396 30.0514 0.162949
35.1922 27.7567 0.109704
32.8462 28.3752 2
31.9177 31.3524 2
30.7189 29.7901 3.92608
28.3717 26.6859 3.99657
29.1033 24.5349 2
29.7302 22.0348 -0.00539497
31.99 25.8453 -0.00523165
30.0992 27.4765 2
29.5429 37.4963 3.85202
30.9743 37.4957 2
32.5723 37.5057 0.46071
31.57 47.7458 0.0199804
31.0275 44.6977 0.10979
31.4506 39.366 0.32065
30.8359 41.853 0.158076
29.8026 46.3548 2
29.9189 39.8224 2
29.4879 42.9986 2
28.0662 44.6801 3.96994
27.7509 40.533 3.93276
28.3768 48.0164 0.0360652
26.5922 46.4536 2
24.7777 44.9875 3.97854
25.1855 48.2857 0.0339916
23.4706 46.8722 2
21.5465 45.7303 3.97777
22.2258 48.6079 0.0291268
20.5243 47.4529 2
18.8466 46.5977 3.9767
19.5211 48.9444 0.0266133
18.1171 48.0459 2
16.7552 47.5975 3.97643
16.5195 48.5734 2
15.5358 48.9189 3.97563
17.2854 49.214 0.0252359
16.1923 50.0666 2
14.7578 50.9023 3.97194
14.0044 53.3703 3.96646
15.645 52.3258 2
17.1227 51.296 0.0314047
13.3235 56.1315 3.96203
15.0317 54.9096 2
16.631 53.7794 0.0349381
12.8575 59.1084 3.96645
14.4976 57.7055 2
16.0823 56.4151 0.0376638
12.682 62.2971 3.97652
14.2729 60.6695 2
15.7646 59.1748 0.0356013
12.7746 65.6939 4
14.3338 63.8514 2
15.7934 62.1043 0.0316952
14.6714 67.2507 2
16.0914 65.2984 0.0164956
16.6661 68.6801 0
17.7112 17.2068 3.96334
18.9541 15.8275 2
17.5255 14.4142 3.96905
20.2344 14.647 0.0314063
18.9886 13.1483 2
17.6429 11.4662 3.97338
20.5361 12.0213 0.0255455
19.3429 10.2472 2
18.054 8.3405 3.98592
18.75 5.0241 4
19.9893 7.14971 2
21.1461 9.1556 0.0218217
20.9142 3.86727 2
22.0188 6.08226 0.0104001
23.1494 2.85457 0
30.0202 35.2017 3.85462
31.4037 35.6148 2
32.7337 35.77 0.497042
22.1318 16.6819 0.03298
20.3442 17.0104 0.0310617
21.8243 17.9319 2
19.3317 18.4699 2
18.1689 20.0304 3.96163
20.9999 19.4711 3.96596
24.25 18.5551 0.0315023
22.4102 20.0073 2
24.7538 21.4975 2
22.5868 21.8454 3.98156
25.0137 23.2527 3.97204
25.9747 26.062 3.97898
26.736 23.8071 2
27.1642 21.6444 0.00587533
29.282 32.5037 3.89907
30.8261 33.1221 2
32.19 33.9718 0.329883
31.9742 31.3935 0.176807
32.8865 28.4066 0.100413
30.6968 29.7795 2
27.7258 29.2641 4.01471
28.3577 26.6965 2
29.119 24.5283 -0.00282624
30.1078 27.4988 0.0221632
27.8888 37.3606 3.90157
29.4705 37.4882 2
31.0357 37.4974 0.315674
29.7984 46.3544 0.00852806
29.5194 42.9641 0.101465
29.9914 39.8095 0.144014
28.0606 44.7365 2
27.7198 40.5289 2
26.1502 43.0361 3.9885
25.0188 39.4426 3.97212
26.5942 46.4545 0.0178304
24.7672 44.9894 2
22.6905 43.77 3.97648
23.4723 46.8727 0.0263188
21.5431 45.7318 2
19.6125 44.8356 3.97635
20.524 47.4538 0.0234564
18.8464 46.5981 2
17.1112 46.0953 3.97633
18.1164 48.0471 0.0230467
16.7564 47.5967 2
15.2997 47.5727 3.97622
16.5181 48.5744 0.0234725
15.5377 48.918 2
14.0672 49.4687 3.97433
16.1904 50.0675 0.0270936
14.7591 50.9017 2
13.0754 51.8153 3.96878
12.2282 54.492 3.96345
14.0052 53.3699 2
15.6435 52.3264 0.0314464
11.5443 57.4465 3.96568
13.3239 56.1316 2
15.0312 54.9096 0.0362492
11.137 60.6226 3.97397
12.8594 59.1079 2
14.494 57.7056 0.0379357
10.9835 64.0165 4
12.6803 62.2924 2
14.2712 60.6692 0.0320055
12.7745 65.694 2
14.3361 63.8553 0.0207823
14.6715 67.2507 0
16.5135 18.7147 3.96179
17.7108 17.2046 2
16.1201 15.8203 3.96656
18.9542 15.8298 0.0237773
17.5247 14.4107 2
16.0271 12.835 3.97147
18.9895 13.1438 0.0261832
17.641 11.4719 2
16.205 9.6647 3.98346
19.3463 10.2462 0.0241725
18.0491 8.34469 2
16.6661 6.31991 4
18.75 5.02404 2
19.9937 7.14746 0.012027
20.9142 3.86727 0
28.4138 34.8456 3.89947
29.9383 35.1684 2
31.4755 35.6388 0.324996
16.9053 21.467 3.9671
21.8256 17.9327 0.0215922
19.337 18.4758 0.0433848
20.993 19.4675 2
18.1668 20.0277 2
19.9847 21.6851 3.97101
22.418 20.0002 0.0301365
24.7458 21.515 0.0137196
22.5818 21.8513 2
25.0068 23.2544 2
23.2908 24.7264 3.97191
25.2748 28.6622 3.98376
25.9667 26.0669 2
26.7388 23.8141 0.0188574
27.1348 31.8629 3.98231
29.2467 32.4825 2
30.8919 33.1573 0.152252
30.7189 29.7901 0.0739158
27.7375 29.243 2
28.3717 26.6859 0.0034309
25.7137 36.8503 3.97012
27.8701 37.3648 2
29.5429 37.4963 0.147979
28.0662 44.6801 0.03006
27.7509 40.533 0.0672356
26.127 43.0577 2
24.9948 39.4468 2
23.9026 41.7846 3.98238
22.7385 38.5235 3.97935
24.7777 44.9875 0.0214553
22.6883 43.7702 2
20.4898 42.786 3.97543
21.5465 45.7303 0.0222277
19.6128 44.8362 2
17.5179 44.2747 3.97574
18.8466 46.5977 0.0233036
17.1118 46.0955 2
15.2618 45.9963 3.97597
16.7552 47.5975 0.0235659
15.3012 47.5719 2
13.5971 47.9344 3.97562
15.5358 48.9189 0.0243668
14.0688 49.468 2
12.3061 50.1982 3.97079
14.7578 50.9023 0.0280633
13.0763 51.8147 2
11.226 52.8053 3.965
10.3357 55.7036 3.9648
12.2289 54.4916 2
14.0044 53.3703 0.033544
9.70384 58.8457 3.97369
11.5454 57.4462 2
13.3235 56.1315 0.0379742
9.30605 62.2254 4
11.1357 60.6186 2
12.8575 59.1084 0.0335467
10.9835 64.0165 2
12.682 62.2971 0.0234836
12.7746 65.6939 0
15.3012 20.2535 3.96361
16.5133 18.7142 2
14.7802 17.3412 3.96347
17.7112 17.2068 0.036664
16.1215 15.8188 2
14.4905 14.321 3.96703
17.5255 14.4142 0.0309529
16.026 12.8307 2
14.4474 11.1166 3.9811
17.6429 11.4662 0.0266234
16.2007 9.6703 2
14.6715 7.74927 4
18.054 8.3405 0.0140765
16.6661 6.31988 2
18.75 5.0241 0
26.3743 34.3538 3.97597
28.3962 34.8535 2
30.0202 35.2017 0.14538
18.1573 22.4313 3.97398
15.8072 23.011 3.9708
16.9072 21.4665 2
20.9999 19.4711 0.0340443
18.1689 20.0304 0.0383654
19.9825 21.683 2
20.0983 24.5229 3.972
22.5868 21.8454 0.0184437
25.0137 23.2527 0.0279602
23.2871 24.7279 2
22.6384 27.9909 3.97178
24.7 31.3523 3.98208
25.28 28.6544 2
25.9747 26.062 0.021025
27.1096 31.8248 2
29.282 32.5037 0.100932
27.7258 29.2641 -0.0147099
23.4665 36.2915 3.98264
25.6955 36.8485 2
27.8888 37.3606 0.0984271
26.1502 43.0361 0.0114955
25.0188 39.4426 0.0278817
23.8823 41.7834 2
22.7257 38.5197 2
21.5885 40.604 3.97489
20.9435 37.8022 3.97709
22.6905 43.77 0.023516
20.4889 42.7868 2
17.9961 42.0237 3.97572
19.6125 44.8356 0.0236527
17.518 44.2752 2
15.3107 44.1164 3.97561
17.1112 46.0953 0.0236734
15.2625 45.9961 2
13.2956 46.2243 3.97587
15.2997 47.5727 0.0237807
13.5987 47.9337 2
11.6963 48.4986 3.97258
14.0672 49.4687 0.0256668
12.3075 50.1974 2
10.3571 51.0521 3.96618
13.0754 51.8153 0.0312165
11.2268 52.8047 2
9.24544 53.8848 3.96465
8.3875 56.98 3.97479
10.3378 55.7027 2
12.2282 54.492 0.0365476
7.74927 60.3285 4
9.70282 58.8416 2
11.5443 57.4465 0.0343157
9.306 62.2255 2
11.137 60.6226 0.0260257
10.9835 64.0165 0
14.1341 21.8169 3.9669
15.299 20.2527 2
13.5075 18.9382 3.96313
16.5135 18.7147 0.0382102
14.7817 17.3402 2
13.035 15.907 3.96954
16.1201 15.8203 0.0334398
14.4914 14.3193 2
12.7852 12.6925 3.97808
16.0271 12.835 0.0285285
14.4444 11.1233 2
12.7746 9.30605 4
16.205 9.6647 0.0165352
14.6715 7.74924 2
16.6661 6.31991 0
24.0487 33.8802 3.98142
26.3538 34.3513 2
28.4138 34.8456 0.100533
18.0297 24.1639 3.97228
18.1641 22.4315 2
14.643 24.5411 3.97289
15.8095 23.011 2
16.9053 21.467 0.0329044
19.625 27.361 3.97424
19.9847 21.6851 0.0289903
20.0932 24.522 2
22.0094 30.8197 3.97461
23.2908 24.7264 0.0280852
22.6378 27.9932 2
24.668 31.3477 2
25.2748 28.6622 0.0162412
27.1348 31.8629 0.0176881
21.0668 35.9663 3.97643
23.4666 36.2929 2
25.7137 36.8503 0.0298818
23.9026 41.7846 0.01762
22.7385 38.5235 0.0206483
21.5924 40.6054 2
20.9435 37.8001 2
18.756 38.9881 3.97701
20.4898 42.786 0.0245667
17.9954 42.0241 2
15.2961 41.8646 3.97606
17.5179 44.2747 0.0242569
15.3104 44.1164 2
13.0612 44.3298 3.97597
15.2618 45.9963 0.024033
13.2971 46.2237 2
11.2112 46.6877 3.97437
13.5971 47.9344 0.024385
11.6982 48.4978 2
9.62749 49.2144 3.96722
12.3061 50.1982 0.0292088
10.3575 51.0514 2
8.27792 51.9994 3.96453
11.226 52.8053 0.0349988
9.24715 53.8835 2
7.1965 55.0317 3.97585
6.31991 58.3339 4
8.38658 56.9761 2
10.3357 55.7036 0.0351951
7.74924 60.3285 2
9.70384 58.8457 0.026307
9.30605 62.2254 0
13.508 25.4368 3.97579
13.0365 23.3442 3.96995
14.1328 21.8165 2
12.3188 20.5862 3.96381
15.3012 20.2535 0.0363946
13.5088 18.9375 2
11.6679 17.5807 3.9677
14.7802 17.3412 0.0365313
13.0379 15.9065 2
11.2235 14.3783 3.97457
14.4905 14.321 0.0329675
12.7828 12.6979 2
10.9835 10.9835 4
14.4474 11.1166 0.0188999
12.7745 9.306 2
14.6715 7.74927 0
21.416 33.4922 3.97623
24.052 33.8666 2
26.3743 34.3538 0.0240349
16.36 26.5175 3.97391
18.0333 24.164 2
18.1573 22.4313 0.0260222
14.6425 24.5411 2
15.8072 23.011 0.0291969
19.0267 30.3151 3.97472
19.625 27.3613 2
20.0983 24.5229 0.028002
22.0258 30.8208 2
22.6384 27.9909 0.0282209
24.7 31.3523 0.0179219
18.3637 35.9981 3.97757
21.0689 35.966 2
23.4665 36.2915 0.0173621
21.5885 40.604 0.0251108
20.9435 37.8022 0.0229088
18.754 38.9875 2
14.7928 39.1605 3.977
17.9961 42.0237 0.0242754
15.2954 41.8644 2
12.7575 42.236 3.97637
15.3107 44.1164 0.0243865
13.0621 44.3294 2
10.7981 44.7631 3.976
13.2956 46.2243 0.024131
11.2136 46.6868 2
9.01409 47.2964 3.96835
11.6963 48.4986 0.0274233
9.62815 49.2137 2
7.44322 50.0334 3.9645
10.3571 51.0521 0.0338217
8.27809 51.9982 2
6.1371 53.0074 3.97613
9.24544 53.8848 0.035351
7.19592 55.0285 2
5.0241 56.25 4
6.31988 58.3339 2
8.3875 56.98 0.0252057
7.74927 60.3285 0
13.7871 26.8935 3.97548
12.147 24.8439 3.97263
13.5072 25.4368 2
11.2467 22.2697 3.96568
13.0371 23.3445 2
14.1341 21.8169 0.0330958
12.3199 20.5859 2
10.4006 19.3293 3.9661
13.5075 18.9382 0.0368672
11.6705 17.5807 2
9.76411 16.1613 3.97401
13.035 15.907 0.0304582
11.2218 14.3839 2
9.30607 12.7746 4
12.7852 12.6925 0.021919
10.9835 10.9835 2
12.7746 9.30605 0
18.522 33.1864 3.97615
21.4152 33.4956 2
24.0487 33.8802 0.018582
15.9823 29.7469 3.97557
16.3591 26.5176 2
18.0297 24.1639 0.0277228
14.643 24.5411 0.0271087
19.0252 30.3154 2
19.625 27.361 0.0257637
22.0094 30.8197 0.0253859
15.4261 36.0366 3.97723
18.3629 35.9986 2
21.0668 35.9663 0.0235749
12.9875 37.829 3.97703
18.756 38.9881 0.0229876
14.7922 39.1604 2
12.2587 40.1193 3.97671
15.2961 41.8646 0.0239411
12.7582 42.2355 2
10.401 42.748 3.9765
13.0612 44.3298 0.0240305
10.8004 44.7622 2
8.49338 45.3022 3.96914
11.2112 46.6877 0.0256301
9.01473 47.2959 2
6.73385 47.9987 3.96465
9.62749 49.2144 0.0327811
7.44342 50.0323 2
5.21374 50.9108 3.97586
8.27792 51.9994 0.0354732
6.13694 53.0051 2
3.86727 54.0858 4
7.1965 55.0317 0.0241464
5.02404 56.25 2
6.31991 58.3339 0
13.2703 29.1046 3.97513
11.5936 26.5393 3.97352
13.7862 26.8935 2
10.3026 23.9972 3.96744
12.149 24.8444 2
13.508 25.4368 0.0242083
9.25527 21.1436 3.96541
11.2482 22.2698 2
13.0365 23.3442 0.0300502
12.3188 20.5862 0.0361914
10.4034 19.3294 2
8.42018 18.0318 3.97413
11.6679 17.5807 0.0323009
9.76309 16.1666 2
7.74928 14.6715 4
11.2235 14.3783 0.0254314
9.30602 12.7745 2
10.9835 10.9835 0
14.971 32.9209 3.97638
18.5207 33.1856 2
21.416 33.4922 0.0237688
15.9831 29.7472 2
16.36 26.5175 0.0260893
19.0267 30.3151 0.0252845
13.2877 36.2214 3.97676
15.4254 36.0365 2
18.3637 35.9981 0.0224282
12.9876 37.8289 2
11.587 38.3051 3.97706
14.7928 39.1605 0.0229985
12.2598 40.1192 2
9.97965 40.7365 3.97675
12.7575 42.236 0.0236335
10.4045 42.747 2
8.03968 43.2558 3.96993
10.7981 44.7631 0.0239963
8.49558 45.3015 2
6.13934 45.9039 3.96519
9.01409 47.2964 0.031654
6.73425 47.9977 2
4.42504 48.7514 3.97545
7.44322 50.0334 0.0355
5.21382 50.9095 2
2.85457 51.8506 4
6.1371 53.0074 0.0238666
3.86727 54.0858 2
5.0241 56.25 0
12.4009 31.3064 3.97608
11.005 28.459 3.97465
13.2707 29.1048 2
9.51867 25.8234 3.96833
11.5955 26.5399 2
13.7871 26.8935 0.0245205
8.24244 23.0259 3.9652
10.3035 23.9976 2
12.147 24.8439 0.0273729
7.20247 19.9802 3.97563
9.26129 21.1452 2
11.2467 22.2697 0.0343211
10.4006 19.3293 0.0338978
8.41973 18.036 2
6.31992 16.6661 4
9.76411 16.1613 0.0259909
7.74926 14.6714 2
9.30607 12.7746 0
12.4393 34.3234 3.97648
14.9706 32.9216 2
18.522 33.1864 0.0238529
15.9823 29.7469 0.0244258
11.1238 36.619 3.97681
13.2877 36.2213 2
15.4261 36.0366 0.0227717
12.9875 37.829 0.0229695
11.5886 38.3047 2
9.56053 38.8172 3.97695
12.2587 40.1193 0.0232934
9.98271 40.7359 2
7.64534 41.2023 3.97074
10.401 42.748 0.0234963
8.0402 43.2554 2
5.65048 43.767 3.96601
8.49338 45.3022 0.0308567
6.13963 45.903 2
3.77034 46.5368 3.97559
6.73385 47.9987 0.0353523
4.42532 48.7506 2
1.99014 49.554 4
5.21374 50.9108 0.0241403
2.85451 51.8506 2
3.86727 54.0858 0
11.2126 32.9526 3.97665
10.3096 30.4164 3.97541
12.4017 31.307 2
8.82684 27.7535 3.96865
11.0072 28.4596 2
13.2703 29.1046 0.0248687
7.3651 24.9836 3.96504
9.51924 25.8238 2
11.5936 26.5393 0.0264817
6.11934 22.0023 3.97639
8.24394 23.027 2
10.3026 23.9972 0.0325641
5.02411 18.75 4
7.20191 19.9834 2
9.25527 21.1436 0.0345885
8.42018 18.0318 0.0258693
6.3199 16.6661 2
7.74928 14.6715 0
10.7109 35.016 3.97669
12.4392 34.3237 2
14.971 32.9209 0.023622
9.21842 36.9875 3.97699
11.1257 36.6191 2
13.2877 36.2214 0.023243
11.587 38.3051 0.0229357
9.5638 38.817 2
7.31999 39.1781 3.97109
9.97965 40.7365 0.0232506
7.64669 41.202 2
5.2653 41.613 3.96644
8.03968 43.2558 0.0300742
5.6508 43.7663 2
3.24776 44.2816 3.97626
6.13934 45.9039 0.0348127
3.77071 46.5362 2
1.27781 47.2057 4
4.42504 48.7514 0.0245471
1.99012 49.554 2
2.85457 51.8506 0
10.3459 33.903 3.97655
9.58808 32.1787 3.97618
11.2146 32.9532 2
8.16794 29.7123 3.9692
10.3121 30.417 2
12.4009 31.3064 0.023917
6.60702 27.0092 3.96503
8.82797 27.7539 2
11.005 28.459 0.0253506
5.17454 24.0947 3.97625
7.3649 24.9844 2
9.51867 25.8234 0.0316684
3.86728 20.9142 4
6.11929 22.0046 2
8.24244 23.0259 0.0348022
5.02406 18.75 2
7.20247 19.9802 0.0243681
6.31992 16.6661 0
9.03253 35.2891 3.97714
10.713 35.0162 2
12.4393 34.3234 0.0235225
7.09626 37.2063 3.97095
9.22176 36.9877 2
11.1238 36.619 0.0231884
9.56053 38.8172 0.0230488
7.32175 39.1778 2
4.99255 39.4669 3.96698
7.64534 41.2023 0.0292603
5.26604 41.6126 2
2.85805 42.0018 3.97659
5.65048 43.767 0.0339897
3.24799 44.281 2
0.720592 44.8159 4
3.77034 46.5368 0.0244103
1.27778 47.2057 2
1.99014 49.554 0
9.07268 33.7139 3.97705
10.3488 33.9034 2
7.59756 31.6213 3.96985
9.59119 32.1793 2
11.2126 32.9526 0.0233506
5.9514 29.0704 3.96552
8.16885 29.7127 2
10.3096 30.4164 0.0245933
4.36194 26.2472 3.97592
6.60739 27.0099 2
8.82684 27.7535 0.0313477
2.85458 23.1494 4
5.17478 24.0958 2
7.3651 24.9836 0.0349559
3.86728 20.9142 2
6.11934 22.0023 0.0236085
5.02411 18.75 0
7.04369 35.3103 3.97067
9.03607 35.2895 2
10.7109 35.016 0.023312
4.84269 37.3398 3.9673
7.09842 37.2062 2
9.21842 36.9875 0.0230069
7.31999 39.1781 0.0289086
4.99329 39.4667 2
2.60594 39.7134 3.97695
5.2653 41.613 0.0335554
2.85861 42.0015 2
0.320823 42.3947 4
3.24776 44.2816 0.0237355
0.720551 44.8159 2
1.27781 47.2057 0
7.20698 33.469 3.97026
9.07616 33.7144 2
10.3459 33.903 0.0234514
5.42162 31.1344 3.96626
7.59891 31.6216 2
9.58808 32.1787 0.0238193
3.68328 28.4433 3.976
5.95176 29.071 2
8.16794 29.7123 0.0308036
1.99015 25.446 4
4.36224 26.2477 2
6.60702 27.0092 0.0349741
2.85453 23.1494 2
5.17454 24.0947 0.0237541
3.86728 20.9142 0
4.85702 35.252 3.96713
7.04516 35.3103 2
9.03253 35.2891 0.0228587
2.49739 37.4281 3.97778
4.84287 37.34 2
7.09626 37.2063 0.0290534
4.99255 39.4669 0.0330184
2.60662 39.7137 2
0.080333 39.9526 4
2.85805 42.0018 0.0234062
0.320817 42.3947 2
0.720592 44.8159 0
5.05052 33.1909 3.96686
7.20853 33.4692 2
9.07268 33.7139 0.0229495
3.14732 30.6662 3.97651
5.42198 31.135 2
7.59756 31.6213 0.0301504
1.27793 27.7943 4
3.6837 28.4437 2
5.9514 29.0704 0.0344752
1.99013 25.446 2
4.36194 26.2472 0.024076
2.85458 23.1494 0
2.54949 35.1588 3.97747
4.85783 35.2524 2
7.04369 35.3103 0.029327
0 37.5 4
2.49755 37.4286 2
4.84269 37.3398 0.0327011
2.60594 39.7134 0.0230482
0.0802903 39.9526 2
0.320823 42.3947 0
2.76718 32.9057 3.9775
5.05084 33.1914 2
7.20698 33.469 0.0297357
0.721173 30.1842 4
3.14776 30.6668 2
5.42162 31.1344 0.0337444
1.27779 27.7943 2
3.68328 28.4433 0.0239959
1.99015 25.446 0
0.0806499 35.0474 4
2.55024 35.1594 2
4.85702 35.252 0.032873
0 37.5 2
2.49739 37.4281 0.0222215
0.080333 39.9526 0
0.32156 32.6054 4
2.76742 32.9064 2
5.05052 33.1909 0.0331422
0.72056 30.1841 2
3.14732 30.6662 0.0234948
1.27793 27.7943 0
0.0802889 35.0474 2
2.54949 35.1588 0.0225315
0 37.5 0
0.320817 32.6053 2
2.76718 32.9057 0.0225014
0.721173 30.1842 0
0.0806499 35.0474 0
0.32156 32.6054 0
CELLS 1910 17190
8 18 6 25 56 2 0 5 16
8 57 23 6 18 17 4 0 2
8 78 36 9 29 31 11 1 7
8 31 11 1 7 79 37 10 30
8 110 57 18 50 48 17 2 14
8 50 18 56 111 14 2 16 49
8 116 62 22 55 52 20 3 15
8 56 25 67 118 16 5 24 53
8 119 63 23 57 54 21 4 17
8 55 22 63 119 15 3 21 54
8 58 26 68 121 18 6 25 56
8 122 65 26 58 57 23 6 18
8 73 31 7 27 142 79 30 71
8 143 78 29 72 73 31 7 27
8 83 147 76 34 32 74 28 8
8 84 148 78 36 33 75 29 9
8 76 34 8 28 148 84 33 75
8 37 79 150 86 10 30 77 35
8 151 87 36 78 80 38 11 31
8 80 38 11 31 152 88 37 79
8 175 100 42 94 96 44 12 40
8 44 96 176 101 12 40 95 43
8 101 176 98 46 43 95 41 13
8 46 98 178 103 13 41 97 45
8 178 103 45 97 147 83 32 74
8 189 116 55 109 106 52 15 47
8 111 56 118 191 49 16 53 107
8 192 119 57 110 108 54 17 48
8 109 55 119 192 47 15 54 108
8 194 122 58 112 110 57 18 50
8 112 58 121 195 50 18 56 111
8 115 61 19 51 197 124 59 113
8 115 61 125 198 51 19 60 114
8 198 125 62 116 114 60 20 52
8 200 127 64 120 116 62 22 55
8 118 67 132 202 53 24 66 117
8 121 68 133 203 56 25 67 118
8 120 64 128 204 55 22 63 119
8 204 128 65 122 119 63 23 57
8 206 134 68 121 123 69 26 58
8 123 69 26 58 207 131 65 122
8 226 147 74 138 140 76 28 70
8 229 148 75 139 143 78 29 72
8 140 76 28 70 229 148 75 139
8 142 79 30 71 231 150 77 141
8 144 80 31 73 232 152 79 142
8 233 151 78 143 144 80 31 73
8 150 86 35 77 235 154 81 145
8 235 154 81 145 146 82 39 91
8 146 82 39 91 236 155 90 165
8 238 157 83 147 149 85 34 76
8 239 158 84 148 151 87 36 78
8 149 85 34 76 239 158 84 148
8 152 88 37 79 241 160 86 150
8 242 161 87 151 153 89 38 80
8 153 89 38 80 243 162 88 152
8 171 98 41 92 265 178 97 169
8 265 178 97 169 226 147 74 138
8 172 96 40 93 266 176 95 170
8 266 176 95 170 171 98 41 92
8 269 175 94 173 172 96 40 93
8 271 180 99 174 175 100 42 94
8 197 124 59 113 271 180 99 174
8 272 181 100 175 177 102 44 96
8 273 182 101 176 179 104 46 98
8 177 102 44 96 273 182 101 176
8 179 104 46 98 275 184 103 178
8 275 184 103 178 238 157 83 147
8 188 115 51 105 283 197 113 186
8 188 115 198 284 105 51 114 187
8 284 198 116 189 187 114 52 106
8 286 200 120 193 189 116 55 109
8 191 118 202 288 107 53 117 190
8 195 121 203 289 111 56 118 191
8 193 120 204 290 109 55 119 192
8 290 204 122 194 192 119 57 110
8 196 123 58 112 292 207 122 194
8 293 206 121 195 196 123 58 112
8 199 126 61 115 297 211 124 197
8 298 212 127 200 198 125 62 116
8 199 126 212 298 115 61 125 198
8 205 129 64 120 300 214 127 200
8 301 217 130 201 202 132 66 117
8 209 136 168 264 301 217 130 201
8 302 219 132 202 203 133 67 118
8 303 220 133 203 206 134 68 121
8 205 129 215 304 120 64 128 204
8 304 215 131 207 204 128 65 122
8 306 221 134 206 208 135 69 123
8 208 135 69 123 307 218 131 207
8 210 137 167 263 309 223 136 209
8 328 238 147 226 230 149 76 140
8 228 146 91 166 329 236 165 260
8 231 150 77 141 330 235 145 227
8 330 235 145 227 228 146 91 166
8 332 239 148 229 233 151 78 143
8 230 149 76 140 332 239 148 229
8 232 152 79 142 334 241 150 231
8 234 153 80 144 335 243 152 232
8 336 242 151 233 234 153 80 144
8 236 155 90 165 338 245 164 259
8 241 160 86 150 339 246 154 235
8 339 246 154 235 237 156 82 146
8 237 156 82 146 340 247 155 236
8 342 249 157 238 240 159 85 149
8 343 250 158 239 242 161 87 151
8 240 159 85 149 343 250 158 239
8 243 162 88 152 345 252 160 241
8 244 163 253 346 153 89 161 242
8 244 163 89 153 347 254 162 243
8 311 224 261 371 210 137 167 263
8 263 167 262 372 209 136 168 264
8 267 179 98 171 375 275 178 265
8 375 275 178 265 328 238 147 226
8 376 273 176 266 267 179 98 171
8 268 177 96 172 376 273 176 266
8 379 272 175 269 268 177 96 172
8 380 271 174 270 269 175 94 173
8 283 197 113 186 380 271 174 270
8 381 277 180 271 272 181 100 175
8 297 211 124 197 381 277 180 271
8 382 278 181 272 274 183 102 177
8 274 183 102 177 383 279 182 273
8 383 279 182 273 276 185 104 179
8 385 281 184 275 342 249 157 238
8 276 185 104 179 385 281 184 275
8 285 199 115 188 393 297 197 283
8 394 298 200 286 284 198 116 189
8 285 199 298 394 188 115 198 284
8 291 205 120 193 396 300 200 286
8 397 301 201 287 288 202 117 190
8 295 209 264 374 397 301 201 287
8 398 302 202 288 289 203 118 191
8 399 303 203 289 293 206 121 195
8 291 205 304 400 193 120 204 290
8 400 304 207 292 290 204 122 194
8 294 208 123 196 402 307 207 292
8 403 306 206 293 294 208 123 196
8 296 210 263 373 405 309 209 295
8 408 312 213 299 297 211 126 199
8 299 213 313 409 199 126 212 298
8 409 313 214 300 298 212 127 200
8 305 216 129 205 411 315 214 300
8 412 318 217 301 302 219 132 202
8 309 223 136 209 412 318 217 301
8 413 320 219 302 303 220 133 203
8 306 221 321 414 206 134 220 303
8 307 218 131 207 415 316 215 304
8 305 216 316 415 205 129 215 304
8 417 322 221 306 308 222 135 208
8 308 222 135 208 418 319 218 307
8 310 225 137 210 420 325 223 309
8 423 326 224 311 310 225 137 210
8 329 236 165 260 441 338 259 368
8 442 342 238 328 333 240 149 230
8 331 237 146 228 443 340 236 329
8 334 241 150 231 444 339 235 330
8 444 339 235 330 331 237 146 228
8 446 343 239 332 336 242 151 233
8 333 240 149 230 446 343 239 332
8 335 243 152 232 448 345 241 334
8 337 244 153 234 449 347 243 335
8 337 244 346 450 234 153 242 336
8 338 245 164 259 452 349 258 367
8 340 247 155 236 453 350 245 338
8 345 252 160 241 454 351 246 339
8 454 351 246 339 341 248 156 237
8 341 248 156 237 455 352 247 340
8 240 159 251 344 342 249 354 457
8 242 161 253 346 343 250 355 458
8 343 250 355 458 240 159 251 344
8 347 254 162 243 460 357 252 345
8 348 255 358 461 244 163 253 346
8 348 255 163 244 462 359 254 347
8 473 360 257 365 363 256 364 482
8 452 349 258 367 365 257 366 485
8 422 324 369 488 311 224 261 371
8 371 261 370 490 263 167 262 372
8 407 311 371 491 296 210 263 373
8 373 263 372 492 295 209 264 374
8 493 385 275 375 442 342 238 328
8 377 276 179 267 493 385 275 375
8 378 274 177 268 494 383 273 376
8 494 383 273 376 377 276 179 267
8 497 382 272 379 378 274 177 268
8 498 381 271 380 379 272 175 269
8 393 297 197 283 498 381 271 380
8 499 387 277 381 382 278 181 272
8 408 312 211 297 499 387 277 381
8 500 388 278 382 384 280 183 274
8 501 389 279 383 386 282 185 276
8 384 280 183 274 501 389 279 383
8 386 282 185 276 503 391 281 385
8 503 391 281 385 457 354 249 342
8 511 408 299 395 393 297 199 285
8 395 299 409 512 285 199 298 394
8 512 409 300 396 394 298 200 286
8 401 305 205 291 514 411 300 396
8 515 412 301 397 398 302 202 288
8 405 309 209 295 515 412 301 397
8 516 413 302 398 399 303 203 289
8 403 306 414 517 293 206 303 399
8 402 307 207 292 518 415 304 400
8 401 305 415 518 291 205 304 400
8 404 308 208 294 520 418 307 402
8 521 417 306 403 404 308 208 294
8 406 310 210 296 523 420 309 405
8 526 423 311 407 406 310 210 296
8 410 314 213 299 527 424 312 408
8 528 425 315 411 409 313 214 300
8 410 314 425 528 299 213 313 409
8 416 317 216 305 530 427 315 411
8 531 430 318 412 413 320 219 302
8 420 325 223 309 531 430 318 412
8 532 432 320 413 414 321 220 303
8 417 322 433 533 306 221 321 414
8 418 319 218 307 534 428 316 415
8 416 317 428 534 305 216 316 415
8 419 323 434 536 308 222 322 417
8 419 323 222 308 537 431 319 418
8 421 327 225 310 539 438 325 420
8 421 327 439 541 310 225 326 423
8 543 437 324 422 423 326 224 311
8 441 338 259 368 559 452 367 486
8 443 340 236 329 560 453 338 441
8 333 240 344 447 442 342 457 561
8 445 341 237 331 562 455 340 443
8 448 345 241 334 563 454 339 444
8 563 454 339 444 445 341 237 331
8 336 242 346 450 446 343 458 565
8 446 343 458 565 333 240 344 447
8 449 347 243 335 567 460 345 448
8 451 348 244 337 568 462 347 449
8 451 348 461 569 337 244 346 450
8 570 463 349 452 473 360 257 365
8 453 350 245 338 570 463 349 452
8 455 352 247 340 571 464 350 453
8 460 357 252 345 572 465 351 454
8 572 465 351 454 456 353 248 341
8 456 353 248 341 573 466 352 455
8 344 251 356 459 457 354 468 575
8 458 355 469 576 344 251 356 459
8 346 253 358 461 458 355 469 576
8 462 359 254 347 578 471 357 460
8 348 255 359 462 461 358 472 579
8 591 474 360 473 475 361 256 363
8 475 361 256 363 594 477 362 479
8 363 256 364 482 479 362 480 603
8 590 473 365 484 481 363 482 605
8 482 364 257 365 606 483 366 485
8 559 452 367 486 484 365 485 607
8 542 436 487 609 422 324 369 488
8 525 422 488 611 407 311 371 491
8 488 369 489 612 371 261 370 490
8 491 371 490 613 373 263 372 492
8 495 386 276 377 614 503 385 493
8 614 503 385 493 561 457 342 442
8 615 501 383 494 495 386 276 377
8 496 384 274 378 615 501 383 494
8 618 500 382 497 496 384 274 378
8 619 499 381 498 497 382 272 379
8 511 408 297 393 619 499 381 498
8 620 505 387 499 500 388 278 382
8 527 424 312 408 620 505 387 499
8 502 390 506 621 384 280 388 500
8 622 507 389 501 504 392 282 386
8 502 390 280 384 622 507 389 501
8 504 392 282 386 624 509 391 503
8 624 509 391 503 575 468 354 457
8 513 410 299 395 630 527 408 511
8 631 528 411 514 512 409 300 396
8 513 410 528 631 395 299 409 512
8 519 416 305 401 633 530 411 514
8 634 531 412 515 516 413 302 398
8 523 420 309 405 634 531 412 515
8 635 532 413 516 517 414 303 399
8 521 417 533 636 403 306 414 517
8 520 418 307 402 637 534 415 518
8 519 416 534 637 401 305 415 518
8 522 419 308 404 639 537 418 520
8 522 419 536 640 404 308 417 521
8 524 421 310 406 642 539 420 523
8 524 421 541 644 406 310 423 526
8 646 543 422 525 526 423 311 407
8 529 426 314 410 647 544 424 527
8 528 425 545 648 411 315 427 530
8 529 426 545 648 410 314 425 528
8 535 429 317 416 649 546 427 530
8 650 548 430 531 532 432 320 413
8 539 438 325 420 650 548 430 531
8 533 433 550 651 414 321 432 532
8 536 434 551 652 417 322 433 533
8 537 431 319 418 653 547 428 534
8 535 429 547 653 416 317 428 534
8 538 435 552 654 419 323 434 536
8 538 435 323 419 655 549 431 537
8 540 440 327 421 657 556 438 539
8 540 440 557 659 421 327 439 541
8 541 439 555 660 423 326 437 543
8 661 554 436 542 543 437 324 422
8 676 570 452 559 590 473 365 484
8 560 453 338 441 676 570 452 559
8 562 455 340 443 677 571 453 560
8 447 344 459 566 561 457 575 678
8 564 456 341 445 679 573 455 562
8 567 460 345 448 680 572 454 563
8 680 572 454 563 564 456 341 445
8 565 458 576 682 447 344 459 566
8 450 346 461 569 565 458 576 682
8 568 462 347 449 684 578 460 567
8 451 348 462 568 569 461 579 685
8 686 580 463 570 591 474 360 473
8 571 464 350 453 686 580 463 570
8 573 466 352 455 687 581 464 571
8 572 465 582 688 460 357 471 578
8 574 467 582 688 456 353 465 572
8 574 467 353 456 689 583 466 573
8 459 356 470 577 575 468 585 691
8 576 469 586 692 459 356 470 577
8 461 358 472 579 576 469 586 692
8 462 359 471 578 579 472 588 694
8 704 591 473 590 593 475 363 481
8 595 476 592 705 475 361 474 591
8 593 475 363 481 707 594 479 602
8 594 477 362 479 709 598 478 600
8 595 476 361 475 711 597 477 594
8 479 362 480 603 600 478 601 720
8 481 363 482 605 602 479 603 722
8 603 480 364 482 723 604 483 606
8 605 482 365 484 724 606 485 607
8 656 553 608 726 542 436 487 609
8 645 542 609 728 525 422 488 611
8 609 487 610 729 488 369 489 612
8 611 488 612 730 491 371 490 613
8 616 504 386 495 731 624 503 614
8 731 624 503 614 678 575 457 561
8 732 622 501 615 616 504 386 495
8 617 502 384 496 732 622 501 615
8 617 502 621 735 496 384 500 618
8 736 620 499 619 618 500 382 497
8 630 527 408 511 736 620 499 619
8 621 506 626 737 500 388 505 620
8 647 544 424 527 737 626 505 620
8 623 508 627 738 502 390 506 621
8 623 508 390 502 739 628 507 622
8 625 510 628 739 504 392 507 622
8 740 629 509 624 691 585 468 575
8 625 510 392 504 740 629 509 624
8 632 529 410 513 744 647 527 630
8 631 528 648 745 514 411 530 633
8 632 529 648 745 513 410 528 631
8 638 535 416 519 746 649 530 633
8 747 650 531 634 635 532 413 516
8 642 539 420 523 747 650 531 634
8 636 533 651 748 517 414 532 635
8 640 536 652 749 521 417 533 636
8 639 537 418 520 750 653 534 637
8 638 535 653 750 519 416 534 637
8 641 538 419 522 751 655 537 639
8 641 538 654 752 522 419 536 640
8 643 540 421 524 753 657 539 642
8 643 540 659 755 524 421 541 644
8 644 541 660 757 526 423 543 646
8 758 661 542 645 646 543 422 525
8 529 426 544 647 648 545 662 759
8 530 427 545 648 649 546 663 760
8 535 429 546 649 653 547 664 761
8 762 666 548 650 651 550 432 532
8 657 556 438 539 762 666 548 650
8 652 551 668 763 533 433 550 651
8 654 552 669 764 536 434 551 652
8 655 549 431 537 765 665 547 653
8 538 435 549 655 654 552 667 766
8 661 554 671 768 542 436 553 656
8 658 558 440 540 769 674 556 657
8 658 558 675 770 540 440 557 659
8 659 557 673 771 541 439 555 660
8 660 555 672 772 543 437 554 661
8 788 686 570 676 704 591 473 590
8 677 571 453 560 788 686 570 676
8 679 573 455 562 789 687 571 677
8 566 459 577 683 678 575 691 790
8 681 574 456 564 791 689 573 679
8 680 572 688 792 567 460 578 684
8 681 574 688 792 564 456 572 680
8 682 576 692 794 566 459 577 683
8 569 461 579 685 682 576 692 794
8 568 462 578 684 685 579 694 796
8 687 581 464 571 798 696 580 686
8 798 696 580 686 705 592 474 591
8 689 583 466 573 799 697 581 687
8 688 582 698 800 578 471 588 694
8 690 584 698 800 574 467 582 688
8 690 584 467 574 801 699 583 689
8 693 587 701 803 577 470 585 691
8 693 587 470 577 804 702 586 692
8 695 589 702 804 579 472 586 692
8 695 589 472 579 805 703 588 694
8 708 595 705 813 593 475 591 704
8 710 596 706 814 595 476 592 705
8 707 594 479 602 816 709 600 719
8 708 595 475 593 817 711 594 707
8 709 598 478 600 819 715 599 717
8 711 597 477 594 820 714 598 709
8 710 596 476 595 822 713 597 711
8 600 478 601 720 717 599 718 832
8 602 479 603 722 719 600 720 834
8 720 601 480 603 835 721 604 723
8 722 603 482 605 836 723 606 724
8 767 670 725 839 656 553 608 726
8 756 656 726 841 645 542 609 728
8 726 608 727 842 609 487 610 729
8 728 609 729 843 611 488 612 730
8 844 740 624 731 790 691 575 678
8 733 625 504 616 844 740 624 731
8 734 623 502 617 845 739 622 732
8 733 625 739 845 616 504 622 732
8 734 623 738 846 617 502 621 735
8 735 621 737 847 618 500 620 736
8 744 647 527 630 847 737 620 736
8 621 506 627 738 737 626 741 848
8 647 544 626 737 759 662 741 848
8 623 508 628 739 738 627 742 849
8 740 629 585 691 850 743 700 802
8 625 510 629 740 739 628 743 850
8 632 529 647 744 745 648 759 854
8 633 530 648 745 746 649 760 855
8 638 535 649 746 750 653 761 856
8 857 762 650 747 748 651 532 635
8 753 657 539 642 857 762 650 747
8 749 652 763 858 636 533 651 748
8 752 654 764 859 640 536 652 749
8 751 655 537 639 860 765 653 750
8 641 538 655 751 752 654 766 861
8 754 658 540 643 862 769 657 753
8 754 658 770 863 643 540 659 755
8 755 659 771 864 644 541 660 757
8 758 661 768 866 645 542 656 756
8 757 660 772 867 646 543 661 758
8 759 662 773 868 648 545 663 760
8 649 546 663 760 761 664 774 871
8 765 665 547 653 872 775 664 761
8 873 777 666 762 763 668 550 651
8 769 674 556 657 873 777 666 762
8 764 669 779 874 652 551 668 763
8 654 552 667 766 764 669 778 875
8 655 549 665 765 766 667 776 876
8 768 671 782 877 656 553 670 767
8 772 672 783 878 661 554 671 768
8 658 558 674 769 770 675 786 879
8 659 557 675 770 771 673 785 881
8 882 784 672 772 771 673 555 660
8 789 687 571 677 897 798 686 788
8 897 798 686 788 813 705 591 704
8 791 689 573 679 898 799 687 789
8 795 693 803 900 683 577 691 790
8 793 690 574 681 901 801 689 791
8 792 688 800 902 684 578 694 796
8 793 690 800 902 681 574 688 792
8 795 693 577 683 903 804 692 794
8 797 695 804 903 685 579 692 794
8 797 695 579 685 904 805 694 796
8 905 806 697 799 798 696 581 687
8 814 706 806 905 705 592 696 798
8 689 583 697 799 801 699 808 907
8 800 698 809 908 694 588 703 805
8 690 584 699 801 800 698 809 908
8 803 701 810 909 691 585 700 802
8 693 587 702 804 803 701 811 910
8 695 589 703 805 804 702 812 911
8 818 710 814 919 708 595 705 813
8 821 712 815 920 710 596 706 814
8 816 709 600 719 922 819 717 831
8 817 711 594 707 923 820 709 816
8 818 710 595 708 924 822 711 817
8 819 715 599 717 926 827 716 829
8 820 714 598 709 927 826 715 819
8 929 825 713 822 820 714 597 711
8 821 712 596 710 930 824 713 822
8 717 599 718 832 829 716 830 942
8 719 600 720 834 831 717 832 944
8 832 718 601 720 945 833 721 835
8 834 720 603 722 946 835 723 836
8 869 780 838 950 767 670 725 839
8 865 767 839 952 756 656 726 841
8 839 725 840 953 726 608 727 842
8 841 726 842 954 728 609 729 843
8 844 740 691 790 955 850 802 899
8 733 625 740 844 845 739 850 955
8 734 623 739 845 846 738 849 956
8 735 621 738 846 847 737 848 957
8 744 647 737 847 854 759 848 957
8 738 627 742 849 848 741 851 958
8 848 741 851 958 759 662 773 868
8 850 743 700 802 959 852 807 906
8 849 742 628 739 959 852 743 850
8 854 759 868 965 745 648 760 855
8 746 649 760 855 856 761 871 966
8 860 765 653 750 967 872 761 856
8 968 873 762 857 858 763 651 748
8 862 769 657 753 968 873 762 857
8 859 764 874 969 749 652 763 858
8 752 654 766 861 859 764 875 970
8 751 655 765 860 861 766 876 971
8 754 658 769 862 863 770 879 972
8 755 659 770 863 864 771 881 974
8 976 882 772 867 864 771 660 757
8 866 768 877 977 756 656 767 865
8 867 772 878 978 758 661 768 866
8 760 663 773 868 871 774 883 980
8 870 781 837 948 982 890 780 869
8 982 890 780 869 877 782 670 767
8 761 664 774 871 872 775 884 984
8 876 776 665 765 985 885 775 872
8 873 777 668 763 986 887 779 874
8 769 674 777 873 879 786 887 986
8 764 669 778 875 874 779 888 987
8 766 667 776 876 875 778 886 988
8 878 783 892 989 768 671 782 877
8 878 783 672 772 990 893 784 882
8 880 787 675 770 991 896 786 879
8 880 787 895 992 770 675 785 881
8 881 785 894 993 771 673 784 882
8 1006 905 799 898 897 798 687 789
8 919 814 905 1006 813 705 798 897
8 791 689 799 898 901 801 907 1007
8 900 803 909 1009 790 691 802 899
8 795 693 804 903 900 803 910 1010
8 902 800 908 1011 796 694 805 904
8 793 690 801 901 902 800 908 1011
8 797 695 805 904 903 804 911 1012
8 799 697 806 905 907 808 912 1013
8 920 815 912 1013 814 706 806 905
8 802 700 810 909 906 807 913 1014
8 801 699 808 907 908 809 914 1015
8 805 703 809 908 911 812 915 1016
8 803 701 811 910 909 810 916 1017
8 911 812 917 1018 804 702 811 910
8 925 821 920 1030 818 710 814 919
8 928 823 921 1031 821 712 815 920
8 922 819 717 831 1033 926 829 941
8 923 820 709 816 1034 927 819 922
8 1035 929 822 924 923 820 711 817
8 925 821 710 818 1036 930 822 924
8 1038 933 825 929 927 826 714 820
8 926 827 716 829 1039 935 828 939
8 927 826 715 819 1040 934 827 926
8 928 823 712 821 1041 931 824 930
8 1042 932 824 930 929 825 713 822
8 829 716 830 942 939 828 940 1058
8 831 717 832 944 941 829 942 1060
8 942 830 718 832 1061 943 833 945
8 944 832 720 834 1062 945 835 946
8 981 889 947 1064 870 781 837 948
8 948 837 949 1067 869 780 838 950
8 975 869 950 1069 865 767 839 952
8 950 838 951 1070 839 725 840 953
8 952 839 953 1071 841 726 842 954
8 955 850 802 899 1072 959 906 1008
8 956 849 739 845 1072 959 850 955
8 846 738 849 956 957 848 958 1073
8 957 848 958 1073 854 759 868 965
8 849 742 852 959 958 851 961 1076
8 960 853 961 1076 906 807 852 959
8 958 851 961 1076 868 773 883 980
8 960 853 807 906 1077 963 913 1014
8 855 760 868 965 966 871 980 1085
8 856 761 871 966 967 872 984 1086
8 971 876 765 860 1087 985 872 967
8 968 873 763 858 1088 986 874 969
8 862 769 873 968 972 879 986 1088
8 859 764 875 970 969 874 987 1089
8 861 766 876 971 970 875 988 1090
8 973 880 770 863 1091 991 879 972
8 973 880 992 1092 863 770 881 974
8 974 881 993 1093 864 771 882 976
8 979 870 948 1066 1094 982 869 975
8 1094 982 869 975 977 877 767 865
8 978 878 772 867 1095 990 882 976
8 978 878 989 1096 866 768 877 977
8 871 774 883 980 984 884 994 1099
8 983 891 999 1100 870 781 889 981
8 1101 1000 890 982 989 892 782 877
8 983 891 781 870 1101 1000 890 982
8 872 775 884 984 985 885 995 1103
8 876 776 885 985 988 886 996 1104
8 986 887 779 874 1105 998 888 987
8 879 786 887 986 991 896 998 1105
8 875 778 886 988 987 888 997 1106
8 990 893 1002 1107 878 783 892 989
8 1108 1003 893 990 993 894 784 882
8 880 787 896 991 992 895 1005 1109
8 993 894 785 881 1110 1004 895 992
8 898 799 905 1006 1007 907 1013 1120
8 1030 920 1013 1120 919 814 905 1006
8 901 801 907 1007 1011 908 1015 1121
8 899 802 909 1009 1008 906 1014 1122
8 900 803 910 1010 1009 909 1017 1123
8 1012 911 1018 1124 903 804 910 1010
8 904 805 908 1011 1012 911 1016 1125
8 1013 912 1020 1127 907 808 914 1015
8 1031 921 1020 1127 920 815 912 1013
8 1019 918 962 1075 1128 1021 913 1014
8 1128 1021 913 1014 1017 916 810 909
8 1015 914 1022 1129 908 809 915 1016
8 1016 915 1023 1130 911 812 917 1018
8 1018 917 1024 1131 910 811 916 1017
8 1037 928 1031 1148 925 821 920 1030
8 928 823 931 1041 1031 921 1032 1149
8 1033 926 829 941 1151 1039 939 1057
8 1034 927 819 922 1152 1040 926 1033
8 1153 1038 929 1035 1034 927 820 923
8 1154 1042 930 1036 1035 929 822 924
8 1037 928 821 925 1155 1041 930 1036
8 1039 935 828 939 1156 1047 938 1055
8 1157 1043 932 1042 1038 933 825 929
8 1038 933 826 927 1158 1045 934 1040
8 1040 934 827 926 1159 1046 935 1039
8 930 824 932 1042 1041 931 1044 1160
8 1051 936 1048 1165 1175 1052 937 1053
8 1156 1047 938 1055 1053 937 1054 1178
8 939 828 940 1058 1055 938 1056 1181
8 941 829 942 1060 1057 939 1058 1183
8 942 830 943 1061 1058 940 1059 1184
8 1060 942 832 944 1185 1061 945 1062
8 1082 964 1063 1188 981 889 947 1064
8 1097 981 1064 1190 979 870 948 1066
8 1064 947 1065 1191 948 837 949 1067
8 1066 948 1067 1193 975 869 950 1069
8 1067 949 1068 1194 950 838 951 1070
8 1069 950 1070 1195 952 839 953 1071
8 956 849 959 1072 1073 958 1076 1197
8 1074 960 1076 1197 1008 906 959 1072
8 1073 958 1076 1197 965 868 980 1085
8 1074 960 906 1008 1198 1077 1014 1122
8 1133 1026 1079 1199 1019 918 962 1075
8 1077 963 913 1014 1200 1080 962 1075
8 960 853 963 1077 1076 961 1078 1201
8 980 883 961 1076 1099 994 1078 1201
8 1210 1083 964 1082 1100 999 889 981
8 966 871 980 1085 1086 984 1099 1215
8 967 872 984 1086 1087 985 1103 1216
8 971 876 985 1087 1090 988 1104 1217
8 1088 986 874 969 1218 1105 987 1089
8 972 879 986 1088 1091 991 1105 1218
8 970 875 988 1090 1089 987 1106 1219
8 973 880 991 1091 1092 992 1109 1220
8 1093 993 881 974 1221 1110 992 1092
8 1222 1108 990 1095 1093 993 882 976
8 1223 1101 982 1094 1096 989 877 977
8 1098 983 870 979 1223 1101 982 1094
8 1095 990 1107 1224 978 878 989 1096
8 1098 983 1100 1225 979 870 981 1097
8 984 884 994 1099 1103 995 1111 1227
8 1102 1001 1115 1228 983 891 999 1100
8 1101 1000 892 989 1229 1116 1002 1107
8 1102 1001 891 983 1229 1116 1000 1101
8 985 885 995 1103 1104 996 1112 1230
8 988 886 996 1104 1106 997 1113 1231
8 1105 998 888 987 1232 1114 997 1106
8 991 896 998 1105 1109 1005 1114 1232
8 1108 1003 1117 1233 990 893 1002 1107
8 1108 1003 894 993 1233 1117 1004 1110
8 992 895 1005 1109 1110 1004 1118 1234
8 1120 1013 1127 1244 1007 907 1015 1121
8 1148 1031 1127 1244 1030 920 1013 1120
8 1121 1015 1129 1245 1011 908 1016 1125
8 1126 1019 1075 1196 1246 1128 1014 1122
8 1246 1128 1014 1122 1123 1017 909 1009
8 1124 1018 1131 1247 1010 910 1017 1123
8 1125 1016 1130 1248 1012 911 1018 1124
8 1127 1020 1137 1254 1015 914 1022 1129
8 1031 921 1032 1149 1127 1020 1137 1254
8 1134 1027 918 1019 1257 1140 1021 1128
8 1257 1140 1021 1128 1131 1024 916 1017
8 1129 1022 1141 1258 1016 915 1023 1130
8 1130 1023 1142 1259 1018 917 1024 1131
8 1261 1144 1025 1132 1133 1026 1079 1199
8 1255 1138 1025 1132 1135 1028 1144 1261
8 1133 1026 918 1019 1262 1145 1027 1134
8 1136 1029 1139 1256 1263 1146 1028 1135
8 1037 928 1041 1155 1148 1031 1149 1275
8 1041 931 1044 1160 1149 1032 1150 1276
8 1151 1039 939 1057 1278 1156 1055 1180
8 1152 1040 926 1033 1279 1159 1039 1151
8 1153 1038 927 1034 1280 1158 1040 1152
8 1281 1157 1042 1154 1153 1038 929 1035
8 1036 930 1042 1154 1155 1041 1160 1282
8 1283 1164 1046 1159 1156 1047 935 1039
8 1165 1048 1164 1283 1053 937 1047 1156
8 1157 1043 933 1038 1284 1161 1045 1158
8 1157 1043 1161 1284 1042 932 1044 1160
8 1040 934 1046 1159 1158 1045 1163 1285
8 1166 1049 1167 1292 1051 936 1048 1165
8 1166 1049 936 1051 1293 1168 1050 1172
8 1051 936 1052 1175 1172 1050 1173 1306
8 1174 1051 1165 1290 1308 1175 1053 1177
8 1053 937 1054 1178 1175 1052 1176 1309
8 1278 1156 1055 1180 1177 1053 1178 1311
8 1055 938 1056 1181 1178 1054 1179 1312
8 1057 939 1058 1183 1180 1055 1181 1314
8 1058 940 1059 1184 1181 1056 1182 1315
8 1060 942 1061 1185 1183 1058 1184 1316
8 1208 1081 1187 1321 1082 964 1063 1188
8 1209 1082 1188 1322 1097 981 1064 1190
8 1188 1063 1189 1323 1064 947 1065 1191
8 1190 1064 1191 1325 1066 948 1067 1193
8 1191 1065 1192 1326 1067 949 1068 1194
8 1067 1193 1069 950 1194 1327 1195 1070
8 1250 1133 1199 1330 1126 1019 1075 1196
8 1198 1077 1014 1122 1331 1200 1075 1196
8 1074 960 1077 1198 1197 1076 1201 1332
8 1085 980 1076 1197 1215 1099 1201 1332
8 1199 1079 1203 1333 1075 962 1080 1200
8 1132 1025 1119 1243 1199 1079 1203 1333
8 1201 1078 963 1077 1334 1202 1080 1200
8 1099 994 1078 1201 1227 1111 1202 1334
8 1343 1207 1081 1208 1210 1083 964 1082
8 1214 1084 1186 1319 1343 1207 1081 1208
8 1345 1210 1082 1209 1225 1100 981 1097
8 1346 1211 1083 1210 1228 1115 999 1100
8 1086 984 1099 1215 1216 1103 1227 1352
8 1087 985 1103 1216 1217 1104 1230 1353
8 1090 988 1104 1217 1219 1106 1231 1354
8 1218 1105 987 1089 1355 1232 1106 1219
8 1091 991 1105 1218 1220 1109 1232 1355
8 1092 992 1109 1220 1221 1110 1234 1356
8 1222 1108 1233 1357 1095 990 1107 1224
8 1222 1108 993 1093 1357 1233 1110 1221
8 1223 1101 989 1096 1358 1229 1107 1224
8 1226 1102 983 1098 1358 1229 1101 1223
8 1226 1102 1228 1359 1098 983 1100 1225
8 1103 995 1111 1227 1230 1112 1235 1360
8 1107 1002 1117 1233 1229 1116 1240 1362
8 1102 1001 1116 1229 1228 1115 1240 1362
8 1104 996 1112 1230 1231 1113 1236 1363
8 1364 1237 1114 1232 1231 1113 997 1106
8 1109 1005 1114 1232 1234 1118 1238 1365
8 1110 1004 1118 1234 1233 1117 1241 1366
8 1242 1374 1255 1138 1119 1243 1132 1025
8 1244 1127 1254 1376 1121 1015 1129 1245
8 1148 1031 1149 1275 1244 1127 1254 1376
8 1245 1129 1258 1377 1125 1016 1130 1248
8 1251 1134 1019 1126 1378 1257 1128 1246
8 1378 1257 1128 1246 1247 1131 1017 1123
8 1248 1130 1259 1379 1124 1018 1131 1247
8 1261 1381 1250 1133 1132 1249 1330 1199
8 1255 1380 1252 1135 1132 1249 1381 1261
8 1250 1133 1019 1126 1382 1262 1134 1251
8 1253 1136 1256 1385 1384 1263 1135 1252
8 1254 1137 1265 1387 1129 1022 1141 1258
8 1149 1032 1150 1276 1254 1137 1265 1387
8 1028 1135 1255 1138 1139 1256 1388 1266
8 1136 1029 1147 1264 1256 1139 1267 1389
8 1390 1268 1140 1257 1259 1142 1024 1131
8 1260 1143 1027 1134 1390 1268 1140 1257
8 1258 1141 1269 1391 1130 1023 1142 1259
8 1262 1145 1027 1134 1393 1271 1143 1260
8 1261 1144 1026 1133 1394 1272 1145 1262
8 1135 1028 1144 1261 1263 1146 1272 1394
8 1136 1029 1146 1263 1264 1147 1273 1395
8 1155 1041 1160 1282 1275 1149 1276 1405
8 1276 1150 1044 1160 1406 1277 1162 1286
8 1408 1283 1159 1279 1278 1156 1039 1151
8 1290 1165 1283 1408 1177 1053 1156 1278
8 1152 1040 1159 1279 1280 1158 1285 1409
8 1281 1157 1038 1153 1410 1284 1158 1280
8 1281 1157 1284 1410 1154 1042 1160 1282
8 1159 1046 1164 1283 1285 1163 1289 1412
8 1292 1167 1289 1412 1165 1048 1164 1283
8 1158 1045 1163 1285 1284 1161 1288 1413
8 1284 1161 1288 1413 1160 1044 1162 1286
8 1291 1166 1292 1418 1174 1051 1165 1290
8 1291 1166 1051 1174 1419 1293 1172 1305
8 1294 1169 1296 1421 1166 1049 1167 1292
8 1293 1168 1050 1172 1422 1295 1171 1303
8 1294 1169 1049 1166 1423 1297 1168 1293
8 1422 1295 1171 1303 1301 1170 1302 1435
8 1172 1050 1173 1306 1303 1171 1304 1438
8 1174 1051 1175 1308 1305 1172 1306 1440
8 1175 1052 1176 1309 1306 1173 1307 1441
8 1177 1053 1178 1311 1308 1175 1309 1443
8 1178 1054 1179 1312 1309 1176 1310 1444
8 1180 1055 1181 1314 1311 1178 1312 1446
8 1056 1181 1312 1179 1182 1315 1447 1313
8 1183 1058 1184 1316 1314 1181 1315 1448
8 1319 1186 1084 1214 1451 1317 1213 1350
8 1319 1186 1318 1453 1208 1081 1187 1321
8 1321 1187 1320 1456 1188 1063 1189 1323
8 1344 1208 1321 1457 1209 1082 1188 1322
8 1322 1188 1323 1458 1190 1064 1191 1325
8 1323 1189 1324 1459 1191 1065 1192 1326
8 1191 1325 1193 1067 1326 1460 1327 1194
8 1242 1374 1243 1119 1328 1462 1335 1204
8 1330 1199 1333 1465 1196 1075 1200 1331
8 1132 1249 1330 1199 1243 1375 1465 1333
8 1332 1201 1077 1198 1466 1334 1200 1331
8 1215 1099 1201 1332 1352 1227 1334 1466
8 1119 1243 1333 1203 1204 1335 1470 1338
8 1333 1203 1338 1470 1200 1080 1202 1334
8 1227 1111 1202 1334 1360 1235 1338 1470
8 1328 1462 1335 1204 1205 1336 1471 1339
8 1337 1206 1340 1472 1464 1329 1205 1336
8 1346 1211 1342 1479 1210 1083 1207 1343
8 1346 1211 1115 1228 1479 1342 1239 1361
8 1348 1212 1084 1214 1479 1342 1207 1343
8 1480 1343 1208 1344 1345 1210 1082 1209
8 1351 1214 1319 1454 1480 1343 1208 1344
8 1481 1346 1210 1345 1359 1228 1100 1225
8 1348 1212 1347 1483 1214 1084 1213 1350
8 1216 1103 1227 1352 1353 1230 1360 1488
8 1217 1104 1230 1353 1354 1231 1363 1489
8 1490 1364 1232 1355 1354 1231 1106 1219
8 1220 1109 1232 1355 1356 1234 1365 1491
8 1221 1110 1234 1356 1357 1233 1366 1492
8 1224 1107 1233 1357 1358 1229 1362 1493
8 1226 1102 1229 1358 1359 1228 1362 1493
8 1230 1112 1235 1360 1363 1236 1367 1496
8 1361 1239 1115 1228 1497 1371 1240 1362
8 1366 1241 1372 1498 1233 1117 1240 1362
8 1364 1237 1113 1231 1499 1368 1236 1363
8 1364 1237 1368 1499 1232 1114 1238 1365
8 1234 1118 1238 1365 1366 1241 1369 1500
8 1507 1373 1242 1374 1388 1266 1138 1255
8 1508 1374 1243 1375 1380 1255 1132 1249
8 1376 1254 1387 1509 1245 1129 1258 1377
8 1275 1149 1276 1405 1376 1254 1387 1509
8 1377 1258 1391 1510 1248 1130 1259 1379
8 1511 1390 1257 1378 1379 1259 1131 1247
8 1383 1260 1134 1251 1511 1390 1257 1378
8 1252 1135 1256 1385 1380 1255 1388 1512
8 1261 1381 1513 1394 1133 1250 1382 1262
8 1135 1252 1384 1263 1261 1381 1513 1394
8 1382 1262 1134 1251 1514 1393 1260 1383
8 1253 1136 1263 1384 1386 1264 1395 1516
8 1253 1136 1264 1386 1385 1256 1389 1517
8 1387 1265 1397 1519 1258 1141 1269 1391
8 1276 1150 1277 1406 1387 1265 1397 1519
8 1256 1139 1267 1389 1388 1266 1398 1520
8 1264 1147 1274 1396 1389 1267 1399 1521
8 1392 1270 1143 1260 1522 1400 1268 1390
8 1390 1268 1142 1259 1522 1400 1269 1391
8 1392 1270 1401 1523 1260 1143 1271 1393
8 1272 1394 1524 1402 1145 1262 1393 1271
8 1395 1273 1146 1263 1524 1402 1272 1394
8 1273 1395 1264 1147 1403 1526 1396 1274
8 1405 1276 1160 1282 1534 1406 1286 1411
8 1414 1287 1407 1535 1286 1162 1277 1406
8 1279 1159 1283 1408 1409 1285 1412 1537
8 1418 1292 1412 1537 1290 1165 1283 1408
8 1280 1158 1285 1409 1410 1284 1413 1538
8 1410 1284 1413 1538 1282 1160 1286 1411
8 1285 1163 1289 1412 1413 1288 1417 1540
8 1421 1296 1417 1540 1292 1167 1289 1412
8 1414 1287 1162 1286 1541 1416 1288 1413
8 1420 1294 1421 1545 1291 1166 1292 1418
8 1419 1293 1172 1305 1546 1422 1303 1437
8 1420 1294 1166 1291 1547 1423 1293 1419
8 1294 1169 1297 1423 1421 1296 1425 1548
8 1423 1297 1168 1293 1549 1424 1295 1422
8 1301 1170 1298 1427 1422 1295 1424 1549
8 1432 1300 1428 1554 1301 1170 1298 1427
8 1431 1299 1428 1554 1560 1430 1300 1432
8 1563 1433 1300 1432 1435 1302 1170 1301
8 1546 1422 1303 1437 1434 1301 1435 1565
8 1303 1171 1304 1438 1435 1302 1436 1566
8 1305 1172 1306 1440 1437 1303 1438 1568
8 1306 1173 1307 1441 1438 1304 1439 1569
8 1308 1175 1309 1443 1440 1306 1441 1571
8 1309 1176 1310 1444 1441 1307 1442 1572
8 1311 1178 1312 1446 1443 1309 1444 1574
8 1179 1312 1444 1310 1313 1447 1575 1445
8 1314 1181 1315 1448 1446 1312 1447 1576
8 1350 1213 1349 1486 1451 1317 1449 1579
8 1451 1317 1450 1581 1319 1186 1318 1453
8 1454 1319 1214 1351 1582 1451 1350 1487
8 1453 1318 1452 1584 1321 1187 1320 1456
8 1454 1319 1453 1585 1344 1208 1321 1457
8 1456 1320 1455 1586 1323 1189 1324 1459
8 1457 1321 1456 1587 1322 1188 1323 1458
8 1458 1323 1459 1588 1325 1191 1326 1460
8 1205 1336 1464 1329 1328 1462 1590 1461
8 1507 1373 1461 1590 1374 1242 1328 1462
8 1508 1374 1462 1591 1375 1243 1335 1467
8 1337 1206 1329 1464 1473 1341 1463 1594
8 1375 1243 1335 1467 1465 1333 1470 1596
8 1465 1333 1470 1596 1331 1200 1334 1466
8 1352 1227 1334 1466 1488 1360 1470 1596
8 1591 1462 1336 1468 1467 1335 1471 1597
8 1469 1337 1472 1598 1595 1464 1336 1468
8 1471 1339 1474 1600 1335 1204 1338 1470
8 1600 1474 1367 1496 1470 1338 1235 1360
8 1336 1205 1340 1472 1471 1339 1475 1601
8 1337 1206 1341 1473 1472 1340 1476 1602
8 1495 1370 1478 1609 1361 1239 1342 1479
8 1348 1212 1342 1479 1483 1347 1478 1609
8 1481 1346 1479 1610 1345 1210 1343 1480
8 1481 1346 1228 1359 1610 1479 1361 1494
8 1484 1348 1214 1351 1610 1479 1343 1480
8 1483 1347 1482 1612 1350 1213 1349 1486
8 1484 1348 1483 1613 1351 1214 1350 1487
8 1353 1230 1360 1488 1489 1363 1496 1616
8 1490 1364 1231 1354 1617 1499 1363 1489
8 1490 1364 1499 1617 1355 1232 1365 1491
8 1356 1234 1365 1491 1492 1366 1500 1619
8 1492 1366 1498 1620 1357 1233 1362 1493
8 1494 1361 1228 1359 1621 1497 1362 1493
8 1495 1370 1239 1361 1622 1504 1371 1497
8 1363 1236 1367 1496 1499 1368 1501 1623
8 1497 1371 1240 1362 1624 1505 1372 1498
8 1625 1503 1372 1498 1500 1369 1241 1366
8 1365 1238 1368 1499 1500 1369 1502 1626
8 1520 1398 1506 1633 1388 1266 1373 1507
8 1634 1507 1374 1508 1512 1388 1255 1380
8 1509 1387 1519 1635 1377 1258 1391 1510
8 1405 1276 1406 1534 1509 1387 1519 1635
8 1515 1392 1260 1383 1636 1522 1390 1511
8 1511 1390 1259 1379 1636 1522 1391 1510
8 1385 1256 1389 1517 1512 1388 1520 1637
8 1513 1394 1262 1382 1638 1524 1393 1514
8 1395 1516 1638 1524 1263 1384 1513 1394
8 1515 1392 1523 1639 1383 1260 1393 1514
8 1516 1395 1526 1640 1386 1264 1396 1518
8 1386 1264 1396 1518 1517 1389 1521 1641
8 1519 1397 1527 1643 1391 1269 1400 1522
8 1535 1407 1527 1643 1406 1277 1397 1519
8 1389 1267 1399 1521 1520 1398 1528 1644
8 1645 1529 1399 1521 1525 1404 1274 1396
8 1392 1270 1400 1522 1523 1401 1531 1646
8 1524 1402 1271 1393 1648 1532 1401 1523
8 1403 1526 1648 1532 1273 1395 1524 1402
8 1525 1404 1274 1396 1649 1533 1403 1526
8 1539 1414 1535 1657 1411 1286 1406 1534
8 1542 1415 1536 1658 1414 1287 1407 1535
8 1409 1285 1412 1537 1538 1413 1540 1660
8 1545 1421 1540 1660 1418 1292 1412 1537
8 1539 1414 1286 1411 1661 1541 1413 1538
8 1540 1417 1544 1663 1413 1288 1416 1541
8 1421 1296 1425 1548 1540 1417 1544 1663
8 1542 1415 1287 1414 1664 1543 1416 1541
8 1420 1294 1423 1547 1545 1421 1548 1666
8 1547 1423 1293 1419 1667 1549 1422 1546
8 1434 1301 1427 1553 1546 1422 1549 1667
8 1423 1297 1424 1549 1548 1425 1550 1668
8 1551 1426 1550 1668 1427 1298 1424 1549
8 1551 1426 1298 1427 1671 1552 1428 1554
8 1562 1432 1554 1674 1434 1301 1427 1553
8 1431 1299 1429 1558 1554 1428 1555 1675
8 1431 1299 1430 1560 1558 1429 1557 1680
8 1560 1430 1300 1432 1683 1559 1433 1563
8 1561 1431 1554 1674 1684 1560 1432 1562
8 1685 1563 1432 1562 1565 1435 1301 1434
8 1435 1302 1436 1566 1563 1433 1564 1686
8 1437 1303 1438 1568 1565 1435 1566 1688
8 1438 1304 1439 1569 1566 1436 1567 1689
8 1440 1306 1441 1571 1568 1438 1569 1691
8 1441 1307 1442 1572 1569 1439 1570 1692
8 1443 1309 1444 1574 1571 1441 1572 1694
8 1310 1444 1572 1442 1445 1575 1695 1573
8 1446 1312 1447 1576 1574 1444 1575 1696
8 1486 1349 1485 1614 1579 1449 1577 1699
8 1451 1317 1449 1579 1581 1450 1578 1701
8 1487 1350 1486 1615 1582 1451 1579 1702
8 1581 1450 1580 1704 1453 1318 1452 1584
8 1582 1451 1581 1705 1454 1319 1453 1585
8 1584 1452 1583 1706 1456 1320 1455 1586
8 1585 1453 1584 1707 1457 1321 1456 1587
8 1587 1456 1586 1708 1458 1323 1459 1588
8 1633 1506 1589 1710 1507 1373 1461 1590
8 1464 1329 1461 1590 1594 1463 1589 1710
8 1468 1336 1462 1591 1595 1464 1590 1711
8 1634 1507 1590 1711 1508 1374 1462 1591
8 1473 1341 1463 1594 1603 1477 1593 1716
8 1469 1337 1464 1595 1599 1473 1594 1717
8 1471 1597 1467 1335 1600 1718 1596 1470
8 1718 1600 1496 1616 1596 1470 1360 1488
8 1336 1468 1597 1471 1472 1598 1719 1601
8 1469 1337 1473 1599 1598 1472 1602 1720
8 1722 1604 1501 1623 1600 1474 1367 1496
8 1475 1601 1471 1339 1604 1722 1600 1474
8 1602 1476 1605 1723 1472 1340 1475 1601
8 1476 1602 1724 1606 1341 1473 1603 1477
8 1483 1347 1478 1609 1612 1482 1608 1731
8 1495 1370 1504 1622 1609 1478 1608 1731
8 1618 1495 1609 1732 1494 1361 1479 1610
8 1484 1348 1479 1610 1613 1483 1609 1732
8 1486 1349 1482 1612 1614 1485 1611 1733
8 1613 1483 1612 1734 1487 1350 1486 1615
8 1489 1363 1496 1616 1617 1499 1623 1736
8 1491 1365 1499 1617 1619 1500 1626 1737
8 1618 1495 1361 1494 1738 1622 1497 1621
8 1739 1625 1498 1620 1619 1500 1366 1492
8 1621 1497 1362 1493 1740 1624 1498 1620
8 1742 1631 1504 1622 1624 1505 1371 1497
8 1743 1628 1502 1626 1623 1501 1368 1499
8 1744 1630 1505 1624 1625 1503 1372 1498
8 1745 1629 1503 1625 1626 1502 1369 1500
8 1520 1398 1528 1644 1633 1506 1632 1751
8 1637 1520 1633 1752 1512 1388 1507 1634
8 1635 1519 1643 1753 1510 1391 1522 1636
8 1657 1535 1643 1753 1534 1406 1519 1635
8 1515 1392 1522 1636 1639 1523 1646 1754
8 1517 1389 1521 1641 1637 1520 1644 1755
8 1524 1638 1756 1648 1393 1514 1639 1523
8 1640 1526 1395 1516 1756 1648 1524 1638
8 1642 1525 1396 1518 1757 1649 1526 1640
8 1758 1645 1521 1641 1642 1525 1396 1518
8 1646 1531 1400 1522 1760 1650 1527 1643
8 1535 1407 1536 1658 1643 1527 1650 1760
8 1521 1399 1529 1645 1644 1528 1651 1761
8 1647 1530 1652 1762 1525 1404 1529 1645
8 1401 1523 1648 1532 1531 1646 1763 1655
8 1525 1404 1533 1649 1647 1530 1654 1765
8 1533 1649 1766 1656 1403 1526 1648 1532
8 1662 1542 1658 1774 1539 1414 1535 1657
8 1542 1415 1543 1664 1658 1536 1659 1775
8 1660 1540 1663 1777 1538 1413 1541 1661
8 1545 1421 1548 1666 1660 1540 1663 1777
8 1662 1542 1414 1539 1778 1664 1541 1661
8 1664 1543 1416 1541 1779 1665 1544 1663
8 1548 1425 1550 1668 1663 1544 1665 1779
8 1547 1423 1549 1667 1666 1548 1668 1781
8 1670 1551 1668 1781 1553 1427 1549 1667
8 1551 1426 1552 1671 1668 1550 1669 1782
8 1670 1551 1427 1553 1784 1671 1554 1674
8 1675 1555 1672 1785 1554 1428 1552 1671
8 1678 1556 1673 1789 1558 1429 1555 1675
8 1561 1431 1558 1681 1674 1554 1675 1790
8 1794 1677 1556 1678 1680 1557 1429 1558
8 1560 1430 1559 1683 1680 1557 1679 1797
8 1561 1431 1560 1684 1681 1558 1680 1798
8 1563 1433 1564 1686 1683 1559 1682 1800
8 1684 1560 1432 1562 1801 1683 1563 1685
8 1565 1435 1566 1688 1685 1563 1686 1802
8 1566 1436 1567 1689 1686 1564 1687 1803
8 1568 1438 1569 1691 1688 1566 1689 1805
8 1569 1439 1570 1692 1689 1567 1690 1806
8 1571 1441 1572 1694 1691 1569 1692 1808
8 1442 1572 1692 1570 1573 1695 1809 1693
8 1574 1444 1575 1696 1694 1572 1695 1810
8 1614 1485 1592 1712 1699 1577 1697 1813
8 1579 1449 1577 1699 1701 1578 1698 1815
8 1615 1486 1614 1735 1702 1579 1699 1816
8 1701 1578 1700 1818 1581 1450 1580 1704
8 1582 1451 1579 1702 1705 1581 1701 1819
8 1704 1580 1703 1820 1584 1452 1583 1706
8 1705 1581 1704 1821 1585 1453 1584 1707
8 1707 1584 1706 1822 1587 1456 1586 1708
8 1710 1589 1506 1633 1824 1709 1632 1751
8 1594 1463 1589 1710 1716 1593 1709 1824
8 1752 1633 1710 1825 1634 1507 1590 1711
8 1595 1464 1590 1711 1717 1594 1710 1825
8 1830 1714 1592 1712 1733 1611 1485 1614
8 1603 1477 1593 1716 1725 1607 1715 1834
8 1599 1473 1594 1717 1721 1603 1716 1835
8 1837 1722 1623 1736 1718 1600 1496 1616
8 1719 1601 1722 1837 1597 1471 1600 1718
8 1602 1720 1598 1472 1723 1838 1719 1601
8 1720 1602 1473 1599 1839 1724 1603 1721
8 1723 1605 1726 1840 1601 1475 1604 1722
8 1840 1726 1628 1743 1722 1604 1501 1623
8 1724 1606 1727 1841 1602 1476 1605 1723
8 1725 1607 1728 1842 1603 1477 1606 1724
8 1612 1482 1608 1731 1733 1611 1730 1849
8 1741 1627 1730 1849 1622 1504 1608 1731
8 1613 1483 1609 1732 1734 1612 1731 1850
8 1618 1495 1622 1738 1732 1609 1731 1850
8 1615 1486 1612 1734 1735 1614 1733 1851
8 1852 1743 1626 1737 1736 1623 1499 1617
8 1853 1745 1625 1739 1737 1626 1500 1619
8 1855 1742 1622 1738 1740 1624 1497 1621
8 1856 1744 1624 1740 1739 1625 1498 1620
8 1741 1627 1504 1622 1857 1746 1631 1742
8 1742 1631 1505 1624 1858 1749 1630 1744
8 1859 1747 1629 1745 1743 1628 1502 1626
8 1860 1748 1630 1744 1745 1629 1503 1625
8 1644 1528 1651 1761 1751 1632 1750 1865
8 1637 1520 1644 1755 1752 1633 1751 1866
8 1754 1646 1522 1636 1867 1760 1643 1753
8 1657 1535 1658 1774 1753 1643 1760 1867
8 1639 1523 1646 1754 1756 1648 1763 1868
8 1641 1521 1645 1758 1755 1644 1761 1869
8 1757 1649 1526 1640 1870 1766 1648 1756
8 1642 1525 1649 1757 1759 1647 1765 1871
8 1759 1647 1762 1872 1642 1525 1645 1758
8 1760 1650 1767 1874 1646 1531 1655 1763
8 1658 1536 1659 1775 1760 1650 1767 1874
8 1762 1652 1768 1875 1645 1529 1651 1761
8 1764 1653 1769 1876 1647 1530 1652 1762
8 1656 1766 1877 1773 1532 1648 1763 1655
8 1771 1879 1765 1654 1653 1764 1647 1530
8 1533 1649 1765 1654 1656 1766 1880 1772
8 1662 1542 1664 1778 1774 1658 1775 1887
8 1664 1543 1665 1779 1775 1659 1776 1888
8 1778 1664 1541 1661 1890 1779 1663 1777
8 1666 1548 1668 1781 1777 1663 1779 1890
8 1782 1669 1780 1891 1668 1550 1665 1779
8 1670 1551 1671 1784 1781 1668 1782 1893
8 1671 1552 1672 1785 1782 1669 1783 1894
8 1790 1675 1785 1896 1674 1554 1671 1784
8 1675 1555 1673 1789 1785 1672 1786 1897
8 1792 1676 1788 1903 1678 1556 1673 1789
8 1795 1678 1789 1904 1681 1558 1675 1790
8 1792 1676 1556 1678 1906 1791 1677 1794
8 1680 1557 1679 1797 1794 1677 1793 1909
8 1910 1794 1678 1795 1798 1680 1558 1681
8 1683 1559 1682 1800 1797 1679 1796 1912
8 1684 1560 1683 1801 1798 1680 1797 1913
8 1686 1564 1687 1803 1800 1682 1799 1915
8 1685 1563 1686 1802 1801 1683 1800 1916
8 1688 1566 1689 1805 1802 1686 1803 1917
8 1689 1567 1690 1806 1803 1687 1804 1918
8 1691 1569 1692 1808 1805 1689 1806 1920
8 1692 1570 1693 1809 1806 1690 1807 1921
8 1694 1572 1695 1810 1808 1692 1809 1922
8 1829 1713 1811 1926 1712 1592 1697 1813
8 1813 1697 1812 1928 1699 1577 1698 1815
8 1735 1614 1712 1828 1816 1699 1813 1929
8 1815 1698 1814 1931 1701 1578 1700 1818
8 1702 1579 1699 1816 1819 1701 1815 1932
8 1818 1700 1817 1933 1704 1580 1703 1820
8 1819 1701 1818 1934 1705 1581 1704 1821
8 1821 1704 1820 1935 1707 1584 1706 1822
8 1824 1709 1632 1751 1937 1823 1750 1865
8 1716 1593 1709 1824 1834 1715 1823 1937
8 1825 1710 1633 1752 1938 1824 1751 1866
8 1717 1594 1710 1825 1835 1716 1824 1938
8 1945 1830 1712 1828 1851 1733 1614 1735
8 1830 1714 1831 1946 1712 1592 1713 1829
8 1947 1832 1714 1830 1849 1730 1611 1733
8 1843 1729 1607 1725 1950 1833 1715 1834
8 1721 1603 1716 1835 1836 1725 1834 1951
8 1836 1725 1842 1953 1721 1603 1724 1839
8 1723 1838 1719 1601 1840 1954 1837 1722
8 1954 1840 1743 1852 1837 1722 1623 1736
8 1724 1839 1720 1602 1841 1955 1838 1723
8 1841 1727 1844 1956 1723 1605 1726 1840
8 1956 1844 1747 1859 1840 1726 1628 1743
8 1728 1842 1724 1606 1845 1957 1841 1727
8 1725 1607 1729 1843 1842 1728 1846 1958
8 1741 1627 1746 1857 1849 1730 1848 1965
8 1734 1612 1731 1850 1851 1733 1849 1966
8 1854 1741 1849 1966 1738 1622 1731 1850
8 1967 1859 1745 1853 1852 1743 1626 1737
8 1968 1860 1744 1856 1853 1745 1625 1739
8 1854 1741 1622 1738 1969 1857 1742 1855
8 1855 1742 1624 1740 1970 1858 1744 1856
8 1857 1746 1631 1742 1971 1861 1749 1858
8 1858 1749 1630 1744 1972 1863 1748 1860
8 1859 1747 1862 1973 1745 1629 1748 1860
8 1875 1768 1864 1977 1761 1651 1750 1865
8 1755 1644 1761 1869 1866 1751 1865 1978
8 1867 1760 1874 1979 1754 1646 1763 1868
8 1774 1658 1775 1887 1867 1760 1874 1979
8 1870 1766 1648 1756 1980 1877 1763 1868
8 1872 1762 1875 1981 1758 1645 1761 1869
8 1757 1649 1766 1870 1871 1765 1880 1982
8 1983 1879 1764 1873 1871 1765 1647 1759
8 1873 1764 1876 1984 1759 1647 1762 1872
8 1877 1773 1655 1763 1986 1881 1767 1874
8 1775 1659 1776 1888 1874 1767 1881 1986
8 1876 1769 1882 1987 1762 1652 1768 1875
8 1878 1770 1883 1988 1764 1653 1769 1876
8 1880 1772 1656 1766 1989 1886 1773 1877
8 1878 1770 1653 1764 1990 1884 1771 1879
8 1765 1654 1772 1880 1879 1771 1885 1991
8 1778 1664 1779 1890 1887 1775 1888 1997
8 1998 1889 1776 1888 1891 1780 1665 1779
8 1893 1782 1891 2000 1781 1668 1779 1890
8 1894 1783 1892 2001 1782 1669 1780 1891
8 1784 1671 1785 1896 1893 1782 1894 2003
8 1897 1786 1895 2004 1785 1672 1783 1894
8 1790 1675 1789 1904 1896 1785 1897 2006
8 1901 1787 1898 2007 1789 1673 1786 1897
8 1903 1788 1900 2013 1789 1673 1787 1901
8 1792 1676 1791 1906 1903 1788 1902 2016
8 1907 1792 1903 2017 1795 1678 1789 1904
8 1906 1791 1677 1794 2019 1905 1793 1909
8 1907 1792 1678 1795 2020 1906 1794 1910
8 1797 1679 1796 1912 1909 1793 1908 2022
8 1798 1680 1797 1913 1910 1794 1909 2023
8 1800 1682 1799 1915 1912 1796 1911 2025
8 1801 1683 1800 1916 1913 1797 1912 2026
8 1803 1687 1804 1918 1915 1799 1914 2028
8 1802 1686 1803 1917 1916 1800 1915 2029
8 1805 1689 1806 1920 1917 1803 1918 2030
8 1806 1690 1807 1921 1918 1804 1919 2031
8 1808 1692 1809 1922 1920 1806 1921 2032
8 1939 1826 1924 2037 1829 1713 1811 1926
8 1926 1811 1925 2039 1813 1697 1812 1928
8 1944 1829 1926 2040 1828 1712 1813 1929
8 1928 1812 1927 2042 1815 1698 1814 1931
8 1929 1813 1928 2043 1816 1699 1815 1932
8 1931 1814 1930 2044 1818 1700 1817 1933
8 1932 1815 1931 2045 1819 1701 1818 1934
8 1934 1818 1933 2046 1821 1704 1820 1935
8 2048 1936 1823 1937 1977 1864 1750 1865
8 1950 1833 1715 1834 2048 1936 1823 1937
8 1938 1824 1751 1866 2049 1937 1865 1978
8 1835 1716 1824 1938 1951 1834 1937 2049
8 1939 1826 1713 1829 2053 1942 1831 1946
8 1940 1827 1923 2035 2053 1942 1826 1939
8 1945 1830 1946 2058 1828 1712 1829 1944
8 2059 1947 1830 1945 1966 1849 1733 1851
8 1947 1832 1730 1849 2060 1948 1848 1965
8 1947 1832 1948 2060 1830 1714 1831 1946
8 1959 1847 1729 1843 2063 1949 1833 1950
8 1952 1843 1725 1836 2064 1950 1834 1951
8 1836 1725 1843 1952 1953 1842 1958 2066
8 1953 1842 1957 2067 1839 1724 1841 1955
8 1841 1955 1838 1723 1956 2068 1954 1840
8 2068 1956 1859 1967 1954 1840 1743 1852
8 1956 1844 1960 2069 1859 1747 1862 1973
8 1845 1957 1841 1727 1960 2069 1956 1844
8 1728 1842 1957 1845 1846 1958 2071 1961
8 1962 2072 1959 1847 1846 1958 1843 1729
8 1971 1861 1964 2077 1857 1746 1848 1965
8 1854 1741 1857 1969 1966 1849 1965 2078
8 1967 1859 1973 2079 1853 1745 1860 1968
8 1970 1858 1744 1856 2080 1972 1860 1968
8 1969 1857 1742 1855 2081 1971 1858 1970
8 1971 1861 1749 1858 2082 1974 1863 1972
8 1973 1862 1975 2083 1860 1748 1863 1972
8 1987 1882 1976 2086 1875 1768 1864 1977
8 1981 1875 1977 2087 1869 1761 1865 1978
8 1980 1877 1763 1868 2088 1986 1874 1979
8 1887 1775 1888 1997 1979 1874 1986 2088
8 1880 1982 2089 1989 1766 1870 1980 1877
8 1984 1876 1987 2090 1872 1762 1875 1981
8 1765 1871 1983 1879 1880 1982 2091 1991
8 1985 1878 1764 1873 2092 1990 1879 1983
8 1985 1878 1988 2093 1873 1764 1876 1984
8 2094 1992 1881 1986 1998 1889 1776 1888
8 1986 1881 1992 2094 1877 1773 1886 1989
8 1988 1883 1993 2095 1876 1769 1882 1987
8 1878 1770 1884 1990 1988 1883 1994 2096
8 1991 1885 1772 1880 2097 1996 1886 1989
8 1879 1771 1885 1991 1990 1884 1995 2098
8 2103 1998 1888 1997 2000 1891 1779 1890
8 2104 1999 1889 1998 2001 1892 1780 1891
8 2003 1894 2001 2106 1893 1782 1891 2000
8 2004 1895 2002 2107 1894 1783 1892 2001
8 2006 1897 2004 2109 1896 1785 1894 2003
8 2007 1898 2005 2110 1897 1786 1895 2004
8 2014 1901 2007 2112 1904 1789 1897 2006
8 2011 1899 2008 2113 1901 1787 1898 2007
8 2119 2010 1899 2011 2013 1900 1787 1901
8 2016 1902 2012 2122 1903 1788 1900 2013
8 2017 1903 2013 2123 1904 1789 1901 2014
8 1906 1791 1905 2019 2016 1902 2015 2125
8 1907 1792 1906 2020 2017 1903 2016 2126
8 1909 1793 1908 2022 2019 1905 2018 2128
8 2020 1906 1794 1910 2129 2019 1909 2023
8 1912 1796 1911 2025 2022 1908 2021 2131
8 1913 1797 1912 2026 2023 1909 2022 2132
8 1915 1799 1914 2028 2025 1911 2024 2134
8 1916 1800 1915 2029 2026 1912 2025 2135
8 1918 1804 1919 2031 2028 1914 2027 2136
8 1917 1803 1918 2030 2029 1915 2028 2137
8 1920 1806 1921 2032 2030 1918 2031 2138
8 1940 1827 1941 2054 2035 1923 2033 2140
8 2035 1923 2034 2143 1939 1826 1924 2037
8 2037 1924 2036 2146 1926 1811 1925 2039
8 2051 1939 2037 2147 1944 1829 1926 2040
8 2039 1925 2038 2149 1928 1812 1927 2042
8 2040 1926 2039 2150 1929 1813 1928 2043
8 2042 1927 2041 2151 1931 1814 1930 2044
8 2043 1928 2042 2152 1932 1815 1931 2045
8 2045 1931 2044 2153 1934 1818 1933 2046
8 2155 2047 1936 2048 2086 1976 1864 1977
8 2063 1949 1833 1950 2155 2047 1936 2048
8 2156 2048 1937 2049 2087 1977 1865 1978
8 2064 1950 1834 1951 2156 2048 1937 2049
8 2051 1939 1829 1944 2160 2053 1946 2058
8 2052 1940 2035 2144 2160 2053 1939 2051
8 2053 1942 1831 1946 2163 2057 1948 2060
8 2055 1943 1827 1940 2163 2057 1942 2053
8 2055 1943 2056 2164 1940 1827 1941 2054
8 2059 1947 1849 1966 2167 2060 1965 2078
8 2059 1947 2060 2167 1945 1830 1946 2058
8 2077 1964 2061 2168 1965 1848 1948 2060
8 2070 1963 1847 1959 2170 2062 1949 2063
8 2065 1959 1843 1952 2171 2063 1950 2064
8 2173 2072 1958 2066 2065 1959 1843 1952
8 1953 1842 1958 2066 2067 1957 2071 2174
8 2068 1956 2069 2175 1967 1859 1973 2079
8 2067 1957 2069 2175 1955 1841 1956 2068
8 1845 1957 2069 1960 1961 2071 2176 2073
8 2069 1960 2073 2176 1973 1862 1975 2083
8 2070 1963 2075 2177 1959 1847 1962 2072
8 1846 1958 2071 1961 1962 2072 2178 2074
8 2077 1964 1861 1971 2182 2076 1974 2082
8 2081 1971 2077 2183 1969 1857 1965 2078
8 2079 1973 2083 2184 1968 1860 1972 2080
8 2081 1971 1858 1970 2185 2082 1972 2080
8 2083 1975 2084 2186 1972 1863 1974 2082
8 2086 1976 1882 1987 2189 2085 1993 2095
8 2090 1987 2086 2190 1981 1875 1977 2087
8 2191 2094 1986 2088 2103 1998 1888 1997
8 2088 1986 2094 2191 1980 1877 1989 2089
8 1991 2091 2192 2097 1880 1982 2089 1989
8 2093 1988 2095 2193 1984 1876 1987 2090
8 1879 1983 2092 1990 1991 2091 2194 2098
8 1985 1878 1990 2092 2093 1988 2096 2195
8 2097 1996 1886 1989 2196 2099 1992 2094
8 2196 2099 1992 2094 2104 1999 1889 1998
8 1994 2096 1988 1883 2100 2197 2095 1993
8 2096 1994 1884 1990 2198 2101 1995 2098
8 1995 2098 2199 2102 1885 1991 2097 1996
8 2203 2104 1998 2103 2106 2001 1891 2000
8 2107 2002 2105 2204 2001 1892 1999 2104
8 2109 2004 2107 2206 2003 1894 2001 2106
8 2110 2005 2108 2207 2004 1895 2002 2107
8 2112 2007 2110 2209 2006 1897 2004 2109
8 2113 2008 2111 2210 2007 1898 2005 2110
8 2120 2011 2113 2212 2014 1901 2007 2112
8 2117 2009 2114 2213 2011 1899 2008 2113
8 2219 2116 2009 2117 2119 2010 1899 2011
8 2222 2118 2010 2119 2122 2012 1900 2013
8 2223 2119 2011 2120 2123 2013 1901 2014
8 2016 1902 2015 2125 2122 2012 2121 2225
8 2126 2016 2122 2226 2017 1903 2013 2123
8 2019 1905 2018 2128 2125 2015 2124 2228
8 2020 1906 2019 2129 2126 2016 2125 2229
8 2022 1908 2021 2131 2128 2018 2127 2231
8 2023 1909 2022 2132 2129 2019 2128 2232
8 2025 1911 2024 2134 2131 2021 2130 2234
8 2026 1912 2025 2135 2132 2022 2131 2235
8 1914 2028 2134 2024 2027 2136 2236 2133
8 2029 1915 2028 2137 2135 2025 2134 2237
8 2030 1918 2031 2138 2137 2028 2136 2238
8 2157 2050 2139 2240 2054 1941 2033 2140
8 2052 1940 2054 2161 2144 2035 2140 2242
8 2140 2033 2141 2243 2035 1923 2034 2143
8 2143 2034 2142 2246 2037 1924 2036 2146
8 2144 2035 2143 2247 2051 1939 2037 2147
8 2146 2036 2145 2249 2039 1925 2038 2149
8 2147 2037 2146 2250 2040 1926 2039 2150
8 2149 2038 2148 2251 2042 1927 2041 2151
8 2150 2039 2149 2252 2043 1928 2042 2152
8 2152 2042 2151 2253 2045 1931 2044 2153
8 2255 2154 2047 2155 2189 2085 1976 2086
8 2170 2062 1949 2063 2255 2154 2047 2155
8 2256 2155 2048 2156 2190 2086 1977 2087
8 2171 2063 1950 2064 2256 2155 2048 2156
8 2258 2159 2050 2157 2164 2056 1941 2054
8 2160 2053 1946 2058 2262 2163 2060 2167
8 2162 2055 1940 2052 2262 2163 2053 2160
8 2162 2055 2164 2263 2052 1940 2054 2161
8 2163 2057 1948 2060 2264 2165 2061 2168
8 2055 1943 2057 2163 2164 2056 2165 2264
8 2182 2076 2166 2268 2077 1964 2061 2168
8 2183 2077 2168 2269 2078 1965 2060 2167
8 2070 1963 2062 2170 2177 2075 2169 2271
8 2172 2070 1959 2065 2272 2170 2063 2171
8 2172 2070 2177 2273 2065 1959 2072 2173
8 2066 1958 2072 2173 2174 2071 2178 2274
8 2067 1957 2071 2174 2175 2069 2176 2275
8 2175 2069 2176 2275 2079 1973 2083 2184
8 2071 1961 2074 2178 2176 2073 2179 2276
8 2176 2073 2179 2276 2083 1975 2084 2186
8 2072 1962 2075 2177 2178 2074 2180 2277
8 2182 2076 1974 2082 2280 2181 2084 2186
8 2183 2077 1971 2081 2281 2182 2082 2185
8 2184 2083 2186 2282 2080 1972 2082 2185
8 2189 2085 1993 2095 2285 2188 2100 2197
8 2190 2086 1987 2090 2286 2189 2095 2193
8 2192 2097 1989 2089 2287 2196 2094 2191
8 2287 2196 2094 2191 2203 2104 1998 2103
8 2194 2098 1991 2091 2288 2199 2097 2192
8 2195 2096 2197 2289 2093 1988 2095 2193
8 2096 2195 2290 2198 1990 2092 2194 2098
8 2097 1996 2099 2196 2199 2102 2200 2291
8 2196 2099 1999 2104 2291 2200 2105 2204
8 2100 2197 2292 2201 1994 2096 2198 2101
8 1995 2098 2198 2101 2102 2199 2293 2202
8 2206 2107 2204 2296 2106 2001 2104 2203
8 2207 2108 2205 2297 2107 2002 2105 2204
8 2209 2110 2207 2299 2109 2004 2107 2206
8 2210 2111 2208 2300 2110 2005 2108 2207
8 2212 2113 2210 2302 2112 2007 2110 2209
8 2213 2114 2211 2303 2113 2008 2111 2210
8 2220 2117 2213 2305 2120 2011 2113 2212
8 2216 2115 2214 2306 2117 2009 2114 2213
8 2216 2115 2009 2117 2311 2217 2116 2219
8 2219 2116 2010 2119 2314 2218 2118 2222
8 2315 2219 2117 2220 2223 2119 2011 2120
8 2122 2012 2121 2225 2222 2118 2221 2317
8 2318 2222 2119 2223 2226 2122 2013 2123
8 2125 2015 2124 2228 2225 2121 2224 2320
8 2126 2016 2125 2229 2226 2122 2225 2321
8 2128 2018 2127 2231 2228 2124 2227 2323
8 2129 2019 2128 2232 2229 2125 2228 2324
8 2131 2021 2130 2234 2231 2127 2230 2326
8 2132 2022 2131 2235 2232 2128 2231 2327
8 2134 2024 2133 2236 2234 2130 2233 2328
8 2135 2025 2134 2237 2235 2131 2234 2329
8 2137 2028 2136 2238 2237 2134 2236 2330
8 2157 2050 2158 2259 2240 2139 2239 2332
8 2257 2157 2240 2334 2161 2054 2140 2242
8 2240 2139 2241 2335 2140 2033 2141 2243
8 2242 2140 2243 2337 2144 2035 2143 2247
8 2243 2141 2244 2338 2143 2034 2142 2246
8 2246 2142 2245 2341 2146 2036 2145 2249
8 2247 2143 2246 2342 2147 2037 2146 2250
8 2249 2145 2248 2343 2149 2038 2148 2251
8 2250 2146 2249 2344 2150 2039 2149 2252
8 2252 2149 2251 2345 2152 2042 2151 2253
8 2169 2271 2347 2254 2062 2170 2255 2154
8 2189 2085 2188 2285 2255 2154 2254 2347
8 2348 2255 2155 2256 2286 2189 2086 2190
8 2272 2170 2063 2171 2348 2255 2155 2256
8 2349 2258 2157 2257 2263 2164 2054 2161
8 2258 2159 2261 2351 2157 2050 2158 2259
8 2258 2159 2056 2164 2351 2261 2165 2264
8 2262 2163 2060 2167 2355 2264 2168 2269
8 2162 2055 2163 2262 2263 2164 2264 2355
8 2357 2266 2165 2264 2268 2166 2061 2168
8 2268 2166 2076 2182 2361 2267 2181 2280
8 2281 2182 2268 2362 2183 2077 2168 2269
8 2271 2169 2270 2364 2177 2075 2180 2277
8 2172 2070 2170 2272 2273 2177 2271 2365
8 2072 2173 2274 2178 2177 2273 2366 2277
8 2071 2174 2275 2176 2178 2274 2367 2276
8 2275 2176 2276 2367 2184 2083 2186 2282
8 2283 2187 2084 2186 2368 2278 2179 2276
8 2178 2074 2180 2277 2276 2179 2278 2368
8 2283 2187 2279 2370 2186 2084 2181 2280
8 2281 2182 2082 2185 2371 2280 2186 2282
8 2188 2285 2374 2284 2100 2197 2292 2201
8 2286 2189 2095 2193 2375 2285 2197 2289
8 2192 2097 2196 2287 2288 2199 2291 2376
8 2287 2196 2104 2203 2376 2291 2204 2296
8 2194 2098 2199 2288 2290 2198 2293 2377
8 2289 2197 2096 2195 2378 2292 2198 2290
8 2291 2200 2105 2204 2379 2294 2205 2297
8 2199 2102 2200 2291 2293 2202 2294 2379
8 2198 2101 2202 2293 2292 2201 2295 2380
8 2299 2207 2297 2383 2206 2107 2204 2296
8 2300 2208 2298 2384 2207 2108 2205 2297
8 2302 2210 2300 2386 2209 2110 2207 2299
8 2303 2211 2301 2387 2210 2111 2208 2300
8 2305 2213 2303 2389 2212 2113 2210 2302
8 2306 2214 2304 2390 2213 2114 2211 2303
8 2310 2216 2306 2392 2220 2117 2213 2305
8 2308 2215 2307 2393 2216 2115 2214 2306
8 2308 2215 2115 2216 2396 2309 2217 2311
8 2310 2216 2117 2220 2398 2311 2219 2315
8 2311 2217 2116 2219 2399 2312 2218 2314
8 2314 2218 2118 2222 2402 2313 2221 2317
8 2315 2219 2119 2223 2403 2314 2222 2318
8 2225 2121 2224 2320 2317 2221 2316 2405
8 2226 2122 2225 2321 2318 2222 2317 2406
8 2228 2124 2227 2323 2320 2224 2319 2408
8 2229 2125 2228 2324 2321 2225 2320 2409
8 2231 2127 2230 2326 2323 2227 2322 2411
8 2232 2128 2231 2327 2324 2228 2323 2412
8 2234 2130 2233 2328 2326 2230 2325 2413
8 2235 2131 2234 2329 2327 2231 2326 2414
8 2237 2134 2236 2330 2329 2234 2328 2415
8 2259 2158 2260 2352 2332 2239 2331 2417
8 2257 2157 2259 2350 2334 2240 2332 2419
8 2240 2139 2239 2332 2335 2241 2333 2420
8 2334 2240 2335 2422 2242 2140 2243 2337
8 2335 2241 2336 2423 2243 2141 2244 2338
8 2337 2243 2338 2425 2247 2143 2246 2342
8 2338 2244 2339 2426 2246 2142 2245 2341
8 2341 2245 2340 2428 2249 2145 2248 2343
8 2342 2246 2341 2429 2250 2146 2249 2344
8 2344 2249 2343 2430 2252 2149 2251 2345
8 2188 2285 2347 2254 2284 2374 2432 2346
8 2347 2254 2346 2432 2271 2169 2270 2364
8 2365 2271 2170 2272 2433 2347 2255 2348
8 2286 2189 2285 2375 2348 2255 2347 2433
8 2349 2258 2351 2435 2257 2157 2259 2350
8 2349 2258 2164 2263 2435 2351 2264 2355
8 2259 2158 2261 2351 2352 2260 2354 2437
8 2356 2265 2354 2437 2264 2165 2261 2351
8 2441 2357 2264 2355 2362 2268 2168 2269
8 2356 2265 2165 2264 2442 2358 2266 2357
8 2443 2359 2266 2357 2361 2267 2166 2268
8 2370 2279 2360 2446 2280 2181 2267 2361
8 2362 2268 2182 2281 2447 2361 2280 2371
8 2180 2277 2368 2278 2270 2364 2449 2363
8 2271 2365 2273 2177 2364 2450 2366 2277
8 2372 2283 2186 2282 2451 2368 2276 2367
8 2178 2274 2367 2276 2277 2366 2451 2368
8 2283 2187 2278 2368 2370 2279 2369 2452
8 2372 2283 2370 2453 2282 2186 2280 2371
8 2284 2374 2455 2373 2201 2292 2380 2295
8 2375 2285 2197 2289 2456 2374 2292 2378
8 2376 2291 2204 2296 2457 2379 2297 2383
8 2288 2199 2291 2376 2377 2293 2379 2457
8 2198 2290 2378 2292 2293 2377 2458 2380
8 2293 2202 2294 2379 2380 2295 2381 2459
8 2384 2298 2381 2459 2297 2205 2294 2379
8 2386 2300 2384 2463 2299 2207 2297 2383
8 2387 2301 2385 2464 2300 2208 2298 2384
8 2389 2303 2387 2466 2302 2210 2300 2386
8 2390 2304 2388 2467 2303 2211 2301 2387
8 2392 2306 2390 2469 2305 2213 2303 2389
8 2393 2307 2391 2470 2306 2214 2304 2390
8 2395 2308 2393 2472 2310 2216 2306 2392
8 2308 2215 2309 2396 2393 2307 2394 2473
8 2395 2308 2216 2310 2475 2396 2311 2398
8 2396 2309 2217 2311 2476 2397 2312 2399
8 2398 2311 2219 2315 2478 2399 2314 2403
8 2399 2312 2218 2314 2479 2400 2313 2402
8 2317 2221 2316 2405 2402 2313 2401 2482
8 2403 2314 2222 2318 2483 2402 2317 2406
8 2320 2224 2319 2408 2405 2316 2404 2485
8 2321 2225 2320 2409 2406 2317 2405 2486
8 2323 2227 2322 2411 2408 2319 2407 2488
8 2324 2228 2323 2412 2409 2320 2408 2489
8 2326 2230 2325 2413 2411 2322 2410 2490
8 2327 2231 2326 2414 2412 2323 2411 2491
8 2329 2234 2328 2415 2414 2326 2413 2492
8 2417 2331 2260 2352 2494 2416 2353 2438
8 2350 2259 2352 2436 2419 2332 2417 2496
8 2332 2239 2331 2417 2420 2333 2418 2497
8 2334 2240 2332 2419 2422 2335 2420 2499
8 2420 2333 2421 2500 2335 2241 2336 2423
8 2422 2335 2423 2502 2337 2243 2338 2425
8 2423 2336 2424 2503 2338 2244 2339 2426
8 2425 2338 2426 2505 2342 2246 2341 2429
8 2426 2339 2427 2506 2341 2245 2340 2428
8 2429 2341 2428 2507 2344 2249 2343 2430
8 2432 2346 2284 2374 2509 2431 2373 2455
8 2432 2346 2431 2509 2364 2270 2363 2449
8 2375 2285 2374 2456 2433 2347 2432 2510
8 2347 2433 2365 2271 2432 2510 2450 2364
8 2350 2259 2351 2435 2436 2352 2437 2514
8 2440 2356 2437 2514 2355 2264 2351 2435
8 2352 2260 2354 2437 2438 2353 2439 2516
8 2356 2265 2358 2442 2437 2354 2439 2516
8 2440 2356 2264 2355 2518 2442 2357 2441
8 2519 2443 2357 2441 2447 2361 2268 2362
8 2443 2359 2444 2520 2357 2266 2358 2442
8 2443 2359 2267 2361 2520 2444 2360 2446
8 2446 2360 2279 2370 2523 2445 2369 2452
8 2453 2370 2446 2524 2371 2280 2361 2447
8 2449 2363 2448 2525 2368 2278 2369 2452
8 2366 2277 2364 2450 2451 2368 2449 2526
8 2372 2283 2368 2451 2453 2370 2452 2527
8 2455 2373 2295 2380 2529 2454 2382 2460
8 2456 2374 2292 2378 2530 2455 2380 2458
8 2377 2293 2379 2457 2458 2380 2459 2531
8 2463 2384 2459 2531 2383 2297 2379 2457
8 2533 2461 2382 2460 2459 2381 2295 2380
8 2464 2385 2461 2533 2384 2298 2381 2459
8 2466 2387 2464 2537 2386 2300 2384 2463
8 2467 2388 2465 2538 2387 2301 2385 2464
8 2469 2390 2467 2540 2389 2303 2387 2466
8 2470 2391 2468 2541 2390 2304 2388 2467
8 2472 2393 2470 2543 2392 2306 2390 2469
8 2393 2307 2394 2473 2470 2391 2471 2544
8 2395 2308 2396 2475 2472 2393 2473 2546
8 2396 2309 2397 2476 2473 2394 2474 2547
8 2475 2396 2311 2398 2549 2476 2399 2478
8 2476 2397 2312 2399 2550 2477 2400 2479
8 2478 2399 2314 2403 2552 2479 2402 2483
8 2479 2400 2313 2402 2553 2480 2401 2482
8 2405 2316 2404 2485 2482 2401 2481 2556
8 2406 2317 2405 2486 2483 2402 2482 2557
8 2408 2319 2407 2488 2485 2404 2484 2559
8 2409 2320 2408 2489 2486 2405 2485 2560
8 2411 2322 2410 2490 2488 2407 2487 2561
8 2412 2323 2411 2491 2489 2408 2488 2562
8 2414 2326 2413 2492 2491 2411 2490 2563
8 2513 2434 2493 2565 2438 2353 2416 2494
8 2496 2417 2352 2436 2567 2494 2438 2515
8 2494 2416 2495 2568 2417 2331 2418 2497
8 2419 2332 2417 2496 2499 2420 2497 2570
8 2497 2418 2498 2571 2420 2333 2421 2500
8 2499 2420 2500 2573 2422 2335 2423 2502
8 2500 2421 2501 2574 2423 2336 2424 2503
8 2502 2423 2503 2576 2425 2338 2426 2505
8 2503 2424 2504 2577 2426 2339 2427 2506
8 2505 2426 2506 2578 2429 2341 2428 2507
8 2509 2431 2373 2455 2580 2508 2454 2529
8 2509 2431 2508 2580 2449 2363 2448 2525
8 2432 2510 2581 2509 2374 2456 2530 2455
8 2432 2510 2450 2364 2509 2581 2526 2449
8 2583 2511 2434 2513 2516 2439 2353 2438
8 2436 2352 2437 2514 2515 2438 2516 2588
8 2440 2356 2442 2518 2514 2437 2516 2588
8 2442 2358 2444 2520 2516 2439 2517 2589
8 2519 2443 2520 2591 2441 2357 2442 2518
8 2519 2443 2361 2447 2591 2520 2446 2524
8 2446 2360 2445 2523 2520 2444 2521 2592
8 2525 2448 2522 2593 2452 2369 2445 2523
8 2524 2446 2370 2453 2594 2523 2452 2527
8 2526 2449 2525 2595 2451 2368 2452 2527
8 2534 2462 2528 2597 2460 2382 2454 2529
8 2530 2455 2380 2458 2598 2529 2460 2532
8 2599 2533 2460 2532 2531 2459 2380 2458
8 2537 2464 2533 2599 2463 2384 2459 2531
8 2534 2462 2382 2460 2601 2535 2461 2533
8 2538 2465 2535 2601 2464 2385 2461 2533
8 2540 2467 2538 2604 2466 2387 2464 2537
8 2541 2468 2539 2605 2467 2388 2465 2538
8 2543 2470 2541 2607 2469 2390 2467 2540
8 2470 2391 2471 2544 2541 2468 2542 2608
8 2472 2393 2473 2546 2543 2470 2544 2610
8 2473 2394 2474 2547 2544 2471 2545 2611
8 2475 2396 2476 2549 2546 2473 2547 2613
8 2476 2397 2477 2550 2547 2474 2548 2614
8 2549 2476 2399 2478 2616 2550 2479 2552
8 2479 2400 2480 2553 2550 2477 2551 2617
8 2552 2479 2402 2483 2619 2553 2482 2557
8 2482 2401 2481 2556 2553 2480 2554 2620
8 2485 2404 2484 2559 2556 2481 2555 2623
8 2486 2405 2485 2560 2557 2482 2556 2624
8 2488 2407 2487 2561 2559 2484 2558 2625
8 2489 2408 2488 2562 2560 2485 2559 2626
8 2491 2411 2490 2563 2562 2488 2561 2627
8 2513 2434 2512 2585 2565 2493 2564 2630
8 2586 2513 2565 2632 2515 2438 2494 2567
8 2565 2493 2566 2633 2494 2416 2495 2568
8 2567 2494 2568 2635 2496 2417 2497 2570
8 2568 2495 2569 2636 2497 2418 2498 2571
8 2570 2497 2571 2638 2499 2420 2500 2573
8 2571 2498 2572 2639 2500 2421 2501 2574
8 2573 2500 2574 2641 2502 2423 2503 2576
8 2574 2501 2575 2642 2503 2424 2504 2577
8 2576 2503 2577 2643 2505 2426 2506 2578
8 2597 2528 2579 2645 2529 2454 2508 2580
8 2580 2508 2579 2645 2525 2448 2522 2593
8 2581 2509 2455 2530 2646 2580 2529 2598
8 2581 2509 2580 2646 2526 2449 2525 2595
8 2583 2511 2582 2648 2513 2434 2512 2585
8 2583 2511 2439 2516 2648 2582 2517 2589
8 2649 2583 2513 2586 2588 2516 2438 2515
8 2589 2517 2444 2520 2653 2587 2521 2592
8 2518 2442 2520 2591 2588 2516 2589 2654
8 2593 2522 2590 2655 2523 2445 2521 2592
8 2524 2446 2523 2594 2591 2520 2592 2656
8 2595 2525 2593 2657 2527 2452 2523 2594
8 2602 2536 2596 2659 2534 2462 2528 2597
8 2600 2534 2597 2660 2532 2460 2529 2598
8 2600 2534 2460 2532 2661 2601 2533 2599
8 2604 2538 2601 2661 2537 2464 2533 2599
8 2602 2536 2462 2534 2663 2603 2535 2601
8 2601 2535 2465 2538 2663 2603 2539 2605
8 2607 2541 2605 2665 2540 2467 2538 2604
8 2608 2542 2606 2666 2541 2468 2539 2605
8 2543 2470 2544 2610 2607 2541 2608 2668
8 2544 2471 2545 2611 2608 2542 2609 2669
8 2546 2473 2547 2613 2610 2544 2611 2671
8 2547 2474 2548 2614 2611 2545 2612 2672
8 2549 2476 2550 2616 2613 2547 2614 2674
8 2550 2477 2551 2617 2614 2548 2615 2675
8 2552 2479 2553 2619 2616 2550 2617 2677
8 2553 2480 2554 2620 2617 2551 2618 2678
8 2557 2482 2556 2624 2619 2553 2620 2680
8 2556 2481 2555 2623 2620 2554 2621 2681
8 2559 2484 2558 2625 2623 2555 2622 2683
8 2560 2485 2559 2626 2624 2556 2623 2684
8 2562 2488 2561 2627 2626 2559 2625 2685
8 2690 2629 2564 2630 2650 2584 2512 2585
8 2586 2513 2585 2651 2632 2565 2630 2691
8 2630 2564 2631 2692 2565 2493 2566 2633
8 2632 2565 2633 2694 2567 2494 2568 2635
8 2633 2566 2634 2695 2568 2495 2569 2636
8 2635 2568 2636 2697 2570 2497 2571 2638
8 2636 2569 2637 2698 2571 2498 2572 2639
8 2638 2571 2639 2700 2573 2500 2574 2641
8 2639 2572 2640 2701 2574 2501 2575 2642
8 2641 2574 2642 2702 2576 2503 2577 2643
8 2597 2528 2596 2659 2645 2579 2644 2704
8 2645 2579 2644 2704 2593 2522 2590 2655
8 2660 2597 2645 2705 2598 2529 2580 2646
8 2646 2580 2645 2705 2595 2525 2593 2657
8 2650 2584 2512 2585 2707 2647 2582 2648
8 2648 2582 2517 2589 2707 2647 2587 2653
8 2649 2583 2648 2708 2586 2513 2585 2651
8 2649 2583 2516 2588 2708 2648 2589 2654
8 2655 2590 2652 2710 2592 2521 2587 2653
8 2654 2589 2520 2591 2711 2653 2592 2656
8 2657 2593 2655 2712 2594 2523 2592 2656
8 2602 2536 2603 2663 2659 2596 2658 2714
8 2662 2602 2659 2715 2600 2534 2597 2660
8 2662 2602 2534 2600 2717 2663 2601 2661
8 2661 2601 2538 2604 2717 2663 2605 2665
8 2666 2606 2664 2718 2605 2539 2603 2663
8 2668 2608 2666 2720 2607 2541 2605 2665
8 2608 2542 2609 2669 2666 2606 2667 2721
8 2610 2544 2611 2671 2668 2608 2669 2723
8 2611 2545 2612 2672 2669 2609 2670 2724
8 2613 2547 2614 2674 2671 2611 2672 2726
8 2614 2548 2615 2675 2672 2612 2673 2727
8 2616 2550 2617 2677 2674 2614 2675 2729
8 2617 2551 2618 2678 2675 2615 2676 2730
8 2619 2553 2620 2680 2677 2617 2678 2732
8 2620 2554 2621 2681 2678 2618 2679 2733
8 2624 2556 2623 2684 2680 2620 2681 2735
8 2681 2621 2555 2623 2736 2682 2622 2683
8 2626 2559 2625 2685 2684 2623 2683 2737
8 2688 2628 2584 2650 2740 2686 2647 2707
8 2688 2628 2687 2742 2650 2584 2629 2690
8 2690 2629 2689 2745 2630 2564 2631 2692
8 2746 2690 2630 2691 2709 2650 2585 2651
8 2691 2630 2692 2747 2632 2565 2633 2694
8 2692 2631 2693 2748 2633 2566 2634 2695
8 2694 2633 2695 2750 2635 2568 2636 2697
8 2695 2634 2696 2751 2636 2569 2637 2698
8 2697 2636 2698 2753 2638 2571 2639 2700
8 2698 2637 2699 2754 2639 2572 2640 2701
8 2700 2639 2701 2755 2641 2574 2642 2702
8 2659 2596 2658 2714 2704 2644 2703 2757
8 2704 2644 2703 2757 2655 2590 2652 2710
8 2660 2597 2659 2715 2705 2645 2704 2758
8 2705 2645 2704 2758 2657 2593 2655 2712
8 2759 2706 2647 2707 2710 2652 2587 2653
8 2709 2650 2585 2651 2760 2707 2648 2708
8 2708 2648 2589 2654 2760 2707 2653 2711
8 2712 2655 2710 2761 2656 2592 2653 2711
8 2763 2713 2658 2714 2718 2664 2603 2663
8 2662 2602 2663 2717 2715 2659 2714 2764
8 2720 2666 2718 2767 2665 2605 2663 2717
8 2768 2719 2664 2718 2721 2667 2606 2666
8 2668 2608 2669 2723 2720 2666 2721 2770
8 2669 2609 2670 2724 2721 2667 2722 2771
8 2671 2611 2672 2726 2723 2669 2724 2773
8 2672 2612 2673 2727 2724 2670 2725 2774
8 2674 2614 2675 2729 2726 2672 2727 2776
8 2675 2615 2676 2730 2727 2673 2728 2777
8 2677 2617 2678 2732 2729 2675 2730 2779
8 2678 2618 2679 2733 2730 2676 2731 2780
8 2680 2620 2681 2735 2732 2678 2733 2782
8 2733 2679 2621 2681 2783 2734 2682 2736
8 2735 2681 2623 2684 2784 2736 2683 2737
8 2740 2686 2647 2707 2787 2738 2706 2759
8 2688 2628 2686 2740 2742 2687 2739 2789
8 2743 2688 2650 2709 2790 2740 2707 2760
8 2742 2687 2741 2792 2690 2629 2689 2745
8 2743 2688 2742 2793 2709 2650 2690 2746
8 2745 2689 2744 2795 2692 2631 2693 2748
8 2746 2690 2745 2796 2691 2630 2692 2747
8 2747 2692 2748 2797 2694 2633 2695 2750
8 2748 2693 2749 2798 2695 2634 2696 2751
8 2750 2695 2751 2800 2697 2636 2698 2753
8 2751 2696 2752 2801 2698 2637 2699 2754
8 2753 2698 2754 2802 2700 2639 2701 2755
8 2763 2713 2756 2804 2714 2658 2703 2757
8 2759 2706 2652 2710 2804 2756 2703 2757
8 2715 2659 2714 2764 2758 2704 2757 2805
8 2758 2704 2757 2805 2712 2655 2710 2761
8 2806 2759 2707 2760 2761 2710 2653 2711
8 2765 2716 2762 2808 2718 2664 2713 2763
8 2809 2763 2714 2764 2767 2718 2663 2717
8 2765 2716 2664 2718 2811 2766 2719 2768
8 2813 2768 2718 2767 2770 2721 2666 2720
8 2814 2769 2719 2768 2771 2722 2667 2721
8 2723 2669 2724 2773 2770 2721 2771 2816
8 2724 2670 2725 2774 2771 2722 2772 2817
8 2726 2672 2727 2776 2773 2724 2774 2819
8 2727 2673 2728 2777 2774 2725 2775 2820
8 2729 2675 2730 2779 2776 2727 2777 2822
8 2730 2676 2731 2780 2777 2728 2778 2823
8 2732 2678 2733 2782 2779 2730 2780 2825
8 2780 2731 2679 2733 2826 2781 2734 2783
8 2782 2733 2681 2735 2827 2783 2736 2784
8 2830 2785 2738 2787 2804 2756 2706 2759
8 2789 2739 2686 2740 2832 2786 2738 2787
8 2790 2740 2707 2760 2833 2787 2759 2806
8 2742 2687 2739 2789 2792 2741 2788 2835
8 2743 2688 2740 2790 2793 2742 2789 2836
8 2792 2741 2791 2838 2745 2689 2744 2795
8 2793 2742 2792 2839 2746 2690 2745 2796
8 2795 2744 2794 2841 2748 2693 2749 2798
8 2796 2745 2795 2842 2747 2692 2748 2797
8 2797 2748 2798 2843 2750 2695 2751 2800
8 2798 2749 2799 2844 2751 2696 2752 2801
8 2800 2751 2801 2845 2753 2698 2754 2802
8 2808 2762 2803 2847 2763 2713 2756 2804
8 2809 2763 2804 2848 2764 2714 2757 2805
8 2806 2759 2710 2761 2848 2804 2757 2805
8 2765 2716 2766 2811 2808 2762 2807 2850
8 2810 2765 2808 2851 2767 2718 2763 2809
8 2810 2765 2718 2767 2852 2811 2768 2813
8 2811 2766 2719 2768 2853 2812 2769 2814
8 2855 2814 2768 2813 2816 2771 2721 2770
8 2856 2815 2769 2814 2817 2772 2722 2771
8 2773 2724 2774 2819 2816 2771 2817 2858
8 2774 2725 2775 2820 2817 2772 2818 2859
8 2776 2727 2777 2822 2819 2774 2820 2861
8 2777 2728 2778 2823 2820 2775 2821 2862
8 2779 2730 2780 2825 2822 2777 2823 2864
8 2823 2778 2731 2780 2865 2824 2781 2826
8 2825 2780 2733 2782 2866 2826 2783 2827
8 2869 2828 2785 2830 2847 2803 2756 2804
8 2871 2829 2786 2832 2830 2785 2738 2787
8 2872 2830 2787 2833 2848 2804 2759 2806
8 2789 2739 2786 2832 2835 2788 2831 2874
8 2836 2789 2740 2790 2875 2832 2787 2833
8 2792 2741 2788 2835 2838 2791 2834 2877
8 2793 2742 2789 2836 2839 2792 2835 2878
8 2838 2791 2837 2880 2795 2744 2794 2841
8 2839 2792 2838 2881 2796 2745 2795 2842
8 2841 2794 2840 2882 2798 2749 2799 2844
8 2842 2795 2841 2883 2797 2748 2798 2843
8 2843 2798 2844 2884 2800 2751 2801 2845
8 2886 2846 2803 2847 2850 2807 2762 2808
8 2851 2808 2847 2887 2809 2763 2804 2848
8 2850 2807 2766 2811 2889 2849 2812 2853
8 2810 2765 2811 2852 2851 2808 2850 2890
8 2852 2811 2768 2813 2891 2853 2814 2855
8 2853 2812 2769 2814 2892 2854 2815 2856
8 2894 2856 2814 2855 2858 2817 2771 2816
8 2817 2772 2818 2859 2856 2815 2857 2895
8 2819 2774 2820 2861 2858 2817 2859 2897
8 2820 2775 2821 2862 2859 2818 2860 2898
8 2822 2777 2823 2864 2861 2820 2862 2900
8 2823 2778 2824 2865 2862 2821 2863 2901
8 2864 2823 2780 2825 2902 2865 2826 2866
8 2904 2867 2828 2869 2886 2846 2803 2847
8 2869 2828 2868 2906 2830 2785 2829 2871
8 2907 2869 2830 2872 2887 2847 2804 2848
8 2871 2829 2870 2909 2832 2786 2831 2874
8 2910 2871 2832 2875 2872 2830 2787 2833
8 2835 2788 2831 2874 2877 2834 2873 2912
8 2836 2789 2832 2875 2878 2835 2874 2913
8 2877 2834 2876 2915 2838 2791 2837 2880
8 2839 2792 2835 2878 2881 2838 2877 2916
8 2880 2837 2879 2917 2841 2794 2840 2882
8 2881 2838 2880 2918 2842 2795 2841 2883
8 2883 2841 2882 2919 2843 2798 2844 2884
8 2921 2885 2846 2886 2889 2849 2807 2850
8 2922 2886 2847 2887 2890 2850 2808 2851
8 2889 2849 2812 2853 2924 2888 2854 2892
8 2890 2850 2811 2852 2925 2889 2853 2891
8 2891 2853 2814 2855 2926 2892 2856 2894
8 2892 2854 2815 2856 2927 2893 2857 2895
8 2858 2817 2859 2897 2894 2856 2895 2929
8 2859 2818 2860 2898 2895 2857 2896 2930
8 2861 2820 2862 2900 2897 2859 2898 2932
8 2862 2821 2863 2901 2898 2860 2899 2933
8 2864 2823 2865 2902 2900 2862 2901 2934
8 2904 2867 2846 2886 2936 2903 2885 2921
8 2904 2867 2903 2936 2869 2828 2868 2906
8 2937 2904 2869 2907 2922 2886 2847 2887
8 2906 2868 2905 2939 2871 2829 2870 2909
8 2907 2869 2906 2940 2872 2830 2871 2910
8 2909 2870 2908 2942 2874 2831 2873 2912
8 2910 2871 2909 2943 2875 2832 2874 2913
8 2912 2873 2911 2945 2877 2834 2876 2915
8 2878 2835 2874 2913 2916 2877 2912 2946
8 2915 2876 2914 2947 2880 2837 2879 2917
8 2916 2877 2915 2948 2881 2838 2880 2918
8 2918 2880 2917 2949 2883 2841 2882 2919
8 2921 2885 2849 2889 2951 2920 2888 2924
8 2952 2921 2886 2922 2925 2889 2850 2890
8 2924 2888 2854 2892 2954 2923 2893 2927
8 2925 2889 2853 2891 2955 2924 2892 2926
8 2926 2892 2856 2894 2956 2927 2895 2929
8 2895 2857 2896 2930 2927 2893 2928 2957
8 2897 2859 2898 2932 2929 2895 2930 2959
8 2898 2860 2899 2933 2930 2896 2931 2960
8 2900 2862 2901 2934 2932 2898 2933 2961
8 2936 2903 2885 2921 2963 2935 2920 2951
8 2936 2903 2935 2963 2906 2868 2905 2939
8 2937 2904 2886 2922 2964 2936 2921 2952
8 2937 2904 2936 2964 2907 2869 2906 2940
8 2939 2905 2938 2966 2909 2870 2908 2942
8 2940 2906 2939 2967 2910 2871 2909 2943
8 2942 2908 2941 2969 2912 2873 2911 2945
8 2943 2909 2942 2970 2913 2874 2912 2946
8 2945 2911 2944 2971 2915 2876 2914 2947
8 2946 2912 2945 2972 2916 2877 2915 2948
8 2948 2915 2947 2973 2918 2880 2917 2949
8 2951 2920 2888 2924 2975 2950 2923 2954
8 2952 2921 2889 2925 2976 2951 2924 2955
8 2927 2893 2928 2957 2954 2923 2953 2978
8 2955 2924 2892 2926 2979 2954 2927 2956
8 2929 2895 2930 2959 2956 2927 2957 2980
8 2930 2896 2931 2960 2957 2928 2958 2981
8 2932 2898 2933 2961 2959 2930 2960 2982
8 2951 2920 2950 2975 2963 2935 2962 2984
8 2963 2935 2962 2984 2939 2905 2938 2966
8 2964 2936 2921 2952 2985 2963 2951 2976
8 2964 2936 2963 2985 2940 2906 2939 2967
8 2966 2938 2965 2987 2942 2908 2941 2969
8 2967 2939 2966 2988 2943 2909 2942 2970
8 2969 2941 2968 2989 2945 2911 2944 2971
8 2970 2942 2969 2990 2946 2912 2945 2972
8 2972 2945 2971 2991 2948 2915 2947 2973
8 2954 2923 2953 2978 2975 2950 2974 2993
8 2976 2951 2924 2955 2994 2975 2954 2979
8 2957 2928 2958 2981 2978 2953 2977 2995
8 2956 2927 2957 2980 2979 2954 2978 2996
8 2959 2930 2960 2982 2980 2957 2981 2997
8 2984 2962 2983 2999 2966 2938 2965 2987
8 2975 2950 2974 2993 2984 2962 2983 2999
8 2976 2951 2975 2994 2985 2963 2984 3000
8 2985 2963 2984 3000 2967 2939 2966 2988
8 2987 2965 2986 3001 2969 2941 2968 2989
8 2988 2966 2987 3002 2970 2942 2969 2990
8 2990 2969 2989 3003 2972 2945 2971 2991
8 2978 2953 2977 2995 2993 2974 2992 3004
8 2979 2954 2978 2996 2994 2975 2993 3005
8 2980 2957 2981 2997 2996 2978 2995 3006
8 2974 2993 2999 2983 2992 3004 3007 2998
8 2983 2999 2987 2965 2998 3007 3001 2986
8 3000 2984 2999 3008 2988 2966 2987 3002
8 2994 2975 2993 3005 3000 2984 2999 3008
8 3002 2987 3001 3009 2990 2969 2989 3003
8 2996 2978 2995 3006 3005 2993 3004 3010
8 3005 2993 3004 3010 3008 2999 3007 3011
8 3008 2999 3007 3011 3002 2987 3001 3009

CELL_TYPES 1910
12
12
12
12
12
12
12
12
12
12
12
12
12
12
12
12
12
12
12
12
12
12
12
12
12
12
12
12
12
12
12
12
12
12
12
12
12
12
12
12
12
12
12
12
12
12
12
12
12
12
12
12
12
12
12
12
12
12
12
12
12
12
12
12
12
12
12
12
12
12
12
12
12
12
12
12
12
12
12
12
12
12
12
12
12
12
12
12
12
12
12
12
12
12
12
12
12
12
12
12
12
12
12
12
12
12
12
12
12
12
12
12
12
12
12
12
12
12
12
12
12
12
12
12
12
12
12
12
12
12
12
12
12
12
12
12
12
12
12
12
12
12
12
12
12
12
12
12
12
12
12
12
12
12
12
12
12
12
12
12
12
12
12
12
12
12
12
12
12
12
12
12
12
12
12
12
12
12
12
12
12
12
12
12
12
12
12
12
12
12
12
12
12
12
12
12
12
12
12
12
12
12
12
12
12
12
12
12
12
12
12
12
12
12
12
12
12
12
12
12
12
12
12
12
12
12
12
12
12
12
12
12
12
12
12
12
12
12
12
12
12
12
12
12
12
12
12
12
12
12
12
12
12
12
12
12
12
12
12
12
12
12
12
12
12
12
12
12
12
12
12
12
12
12
12
12
12
12
12
12
12
12
12
12
12
12
12
12
12
12
12
12
12
12
12
12
12
12
12
12
12
12
12
12
12
12
12
12
12
12
12
12
12
12
12
12
12
12
12
12
12
12
12
12
12
12
12
12
12
12
12
12
12
12
12
12
12
12
12
12
12
12
12
12
12
12
12
12
12
12
12
12
12
12
12
12
12
12
12
12
12
12
12
12
12
12
12
12
12
12
12
12
12
12
12
12
12
12
12
12
12
12
12
12
12
12
12
12
12
12
12
12
12
12
12
12
12
12
12
12
12
12
12
12
12
12
12
12
12
12
12
12
12
12
12
12
12
12
12
12
12
12
12
12
12
12
12
12
12
12
12
12
12
12
12
12
12
12
12
12
12
12
12
12
12
12
12
12
12
12
12
12
12
12
12
12
12
12
12
12
12
12
12
12
12
12
12
12
12
12
12
12
12
12
12
12
12
12
12
12
12
12
12
12
12
12
12
12
12
12
12
12
12
12
12
12
12
12
12
12
12
12
12
12
12
12
12
12
12
12
12
12
12
12
12
12
12
12
12
12
12
12
12
12
12
12
12
12
12
12
12
12
12
12
12
12
12
12
12
12
12
12
12
12
12
12
12
12
12
12
12
12
12
12
12
12
12
12
12
12
12
12
12
12
12
12
12
12
12
12
12
12
12
12
12
12
12
12
12
12
12
12
12
12
12
12
12
12
12
12
12
12
12
12
12
12
12
12
12
12
12
12
12
12
12
12
12
12
12
12
12
12
12
12
12
12
12
12
12
12
12
12
12
12
12
12
12
12
12
12
12
12
12
12
12
12
12
12
12
12
12
12
12
12
12
12
12
12
12
12
12
12
12
12
12
12
12
12
12
12
12
12
12
12
12
12
12
12
12
12
12
12
12
12
12
12
12
12
12
12
12
12
12
12
12
12
12
12
12
12
12
12
12
12
12
12
12
12
12
12
12
12
12
12
12
12
12
12
12
12
12
12
12
12
12
12
12
12
12
12
12
12
12
12
12
12
12
12
12
12
12
12
12
12
12
12
12
12
12
12
12
12
12
12
12
12
12
12
12
12
12
12
12
12
12
12
12
12
12
12
12
12
12
12
12
12
12
12
12
12
12
12
12
12
12
12
12
12
12
12
12
12
12
12
12
12
12
12
12
12
12
12
12
12
12
12
12
12
12
12
12
12
12
12
12
12
12
12
12
12
12
12
12
12
12
12
12
12
12
12
12
12
12
12
12
12
12
12
12
12
12
12
12
12
12
12
12
12
12
12
12
12
12
12
12
12
12
12
12
12
12
12
12
12
12
12
12
12
12
12
12
12
12
12
12
12
12
12
12
12
12
12
12
12
12
12
12
12
12
12
12
12
12
12
12
12
12
12
12
12
12
12
12
12
12
12
12
12
12
12
12
12
12
12
12
12
12
12
12
12
12
12
12
12
12
12
12
12
12
12
12
12
12
12
12
12
12
12
12
12
12
12
12
12
12
12
12
12
12
12
12
12
12
12
12
12
12
12
12
12
12
12
12
12
12
12
12
12
12
12
12
12
12
12
12
12
12
12
12
12
12
12
12
12
12
12
12
12
12
12
12
12
12
12
12
12
12
12
12
12
12
12
12
12
12
12
12
12
12
12
12
12
12
12
12
12
12
12
12
12
12
12
12
12
12
12
12
12
12
12
12
12
12
12
12
12
12
12
12
12
12
12
12
12
12
12
12
12
12
12
12
12
12
12
12
12
12
12
12
12
12
12
12
12
12
12
12
12
12
12
12
12
12
12
12
12
12
12
12
12
12
12
12
12
12
12
12
12
12
12
12
12
12
12
12
12
12
12
12
12
12
12
12
12
12
12
12
12
12
12
12
12
12
12
12
12
12
12
12
12
12
12
12
12
12
12
12
12
12
12
12
12
12
12
12
12
12
12
12
12
12
12
12
12
12
12
12
12
12
12
12
12
12
12
12
12
12
12
12
12
12
12
12
12
12
12
12
12
12
12
12
12
12
12
12
12
12
12
12
12
12
12
12
12
12
12
12
12
12
12
12
12
12
12
12
12
12
12
12
12
12
12
12
12
12
12
12
12
12
12
12
12
12
12
12
12
12
12
12
12
12
12
12
12
12
12
12
12
12
12
12
12
12
12
12
12
12
12
12
12
12
12
12
12
12
12
12
12
12
12
12
12
12
12
12
12
12
12
12
12
12
12
12
12
12
12
12
12
12
12
12
12
12
12
12
12
12
12
12
12
12
12
12
12
12
12
12
12
12
12
12
12
12
12
12
12
12
12
12
12
12
12
12
12
12
12
12
12
12
12
12
12
12
12
12
12
12
12
12
12
12
12
12
12
12
12
12
12
12
12
12
12
12
12
12
12
12
12
12
12
12
12
12
12
12
12
12
12
12
12
12
12
12
12
12
12
12
12
12
12
12
12
12
12
12
12
12
12
12
12
12
12
12
12
12
12
12
12
12
12
12
12
12
12
12
12
12
12
12
12
12
12
12
12
12
12
12
12
12
12
12
12
12
12
12
12
12
12
12
12
12
12
12
12
12
12
12
12
12
12
12
12
12
12
12
12
12
12
12
12
12
12
12
12
12
12
12
12
12
12
12
12
12
12
12
12
12
12
12
12
12
12
12
12
12
12
12
12
12
12
12
12
12
12
12
12
12
12
12
12
12
12
12
12
12
12
12
12
12
12
12
12
12
12
12
12
12
12
12
12
12
12
12
12
12
12
12
12
12
12
12
12
12
12
12
12
12
12
12
12
12
12
12
12
12
12
12
12
12
12
12
12
12
12
12
12
12
12
12
12
12
12
12
12
12
12
12
12
12
12
12
12
12
12
12
12
12
12
12
12
12
12
12
12
12
12
12
12
12
12
12
12
12
12
12
12
12
12
12
12
12
12
12
12
12
12
12
12
12
12
12
12
12
12
12
12
12
12
12
12
12
12
12
12
12
12
12
12
12
12
12
12
12
12
12
12
12
12
12
12
12
12
12
12
12
12
12
12
12
12
12
12
12
12
12
12
12
12
12
12
12
12
12
12
12
12
12
12
12
12
12
12
12
12
12
12
12
12
12
12
12
12
12
12
12
12
12
12
12
12
12
12
12
12
12
12
12
12
12
12
12
12
12
12
12
12
12
12
12
12
12
12
12
12
12
12
12
12
12
12
12
12
12
12
12
12
12
12
12
12
12
12
12
12
12
12
12
12
12
12
12
12
12
12
12
12
12
12
12
12
12
12
12
12
12
12
12
12
12
12
12
12
12
12
12
12
12
12
12
12
12
12
12
12
12
12
12
12
12
12
12
12
12
12
12
12
12
12
12
12
12
12
12
12
12
12
12
12
12
12
12
12
12
12
12
12
12
12
12
12
12
12
12
12
12
12
12
12
12
12
12
12
12
12
12
12
12
12
12
12
12
12
12
12
12
12
12
12
12
12
12
12
12
12
12
12
12
12
12
12
12
12
12
12
12
12
12
12
12
12
12
12
12
12
12
12
12
12
12
12
12
12
12
12
12
12
12
12
12
12
12
12
12
12
12
12
12
12
12
12
12
12
12
12
12
12
12
12
12
12
12
12
12
12
12
12
12
12
12
12
12
12
12
12
12
12
12
12
12
12
12
12
12
12
12
12
12
12
12
12
12
12
12
12
12
12
12
12
12
12
12
12
12
12
12
12
12
12
12
12

POINT_DATA 3012
SCALARS Jp_lamdaP float 4
LOOKUP_TABLE default
0.999677 1 1 0.999677
1 1 1 1
0.999686 1 1 0.999686
0.999623 1 1 0.999623
0.999679 1 1 0.999679
0.999659 1 1 0.999659
0.998901 1.00004 1 0.998857
1 1 1 1
1 1 1 1
1 1 1 1
0.999752 1 1 0.999752
0.998969 1 1 0.998969
0.999617 1 1 0.999617
0.999626 1 1 0.999626
0.999688 1 1 0.999688
0.999649 1 1 0.999649
0.999665 1 1 0.999665
0.999695 1 1 0.999695
0.998966 1.00011 1 0.998859
1 1 1 1
0.999604 1 1 0.999604
0.999656 1 1 0.999656
0.998733 1 1 0.998733
0.998879 1.00004 1 0.998835
0.999665 1 1 0.999665
0.998873 1 1 0.998873
1.01239 1.01482 1 0.997606
1 1 1 1
0.99983 1 1 0.99983
0.999843 1 1 0.999843
1 1 1 1
0.998978 1 1 0.998978
0.999652 1 1 0.999652
0.999679 1 1 0.999679
0.999296 1.00029 1 0.999003
1 1 1 1
0.999087 1 1 0.999087
0.99907 1 1 0.99907
1.00564 1.00807 1 0.997589
1 1 1 1
1 1 1 1
0.999813 1 1 0.999813
1 1 1 1
0.999631 1 1 0.999631
0.998662 1 1 0.998662
1 1 1 1
0.998905 1 1 0.998905
0.999672 1 1 0.999672
0.999707 1 1 0.999707
0.999667 1 1 0.999667
0.999006 1.00014 1 0.998864
0.999797 1 1 0.999797
0.999628 1 1 0.999628
0.999678 1 1 0.999678
0.999679 1 1 0.999679
0.99873 1 1 0.99873
0.998888 1.00001 1 0.998876
0.998874 1.00004 1 0.998836
1.01272 1.01517 1 0.997592
1 1 1 1
0.999604 1 1 0.999604
0.998931 1 1 0.998931
0.998702 1 1 0.998702
0.998787 1 1 0.998787
1.01573 1.01844 1 0.997339
1.01379 1.01637 1 0.997453
0.999729 1 1 0.999729
0.998976 1 1 0.998976
1.00975 1.01208 1 0.997698
1.03173 1.03513 1 0.99672
1 1 1 1
1 1 1 1
1 1 1 1
0.998986 1 1 0.998986
1 1 1 1
1 1 1 1
0.999055 1.00023 1 0.998829
0.999909 1 1 0.999909
0.998943 1.00001 1 0.998933
0.999211 1 1.00003 0.999183
1.00437 1.0068 1 0.997586
1 1 1 1
1.00118 1 1.00141 0.999773
0.998936 1.00018 1 0.998752
0.998998 1.00014 1 0.998863
1.01681 1.0197 1 0.997164
0.999769 1 1.00034 0.999432
1.01033 1.01287 1 0.997488
1.00149 1.00376 1 0.997739
1.01339 1.01657 1 0.996872
1 1 1 1
1 1 1 1
1 1 1 1
1 1 1 1
1 1 1 1
0.999814 1 1 0.999814
0.998789 1 1 0.998789
0.999815 1 1 0.999815
0.998813 1 1 0.998813
1 1 1 1
0.998675 1 1 0.998675
0.998897 1 1 0.998897
1.01533 1.01842 1 0.996973
0.998956 1.00002 1 0.99894
1.01834 1.02139 1 0.997009
0.999639 1 1 0.999639
0.99965 1 1 0.99965
0.999689 1 1 0.999689
0.999699 1 1 0.999699
0.998729 1 1 0.998729
0.998887 1.00005 1 0.998839
0.998927 1.00004 1 0.998882
1.01304 1.0155 1 0.997578
1 1 1 1
0.999627 1 1 0.999627
0.998703 1 1 0.998703
0.998697 1 1 0.998697
0.999865 1 1 0.999865
0.999053 1 1 0.999053
0.998786 1 1 0.998786
1.01572 1.01847 1 0.997302
1.01041 1.01276 1 0.99768
1.01409 1.01665 1 0.99748
1.03163 1.03502 1 0.996727
0.998698 1 1 0.998698
0.998698 1 1 0.998698
1.01423 1.01707 1 0.997213
1.01575 1.01855 1 0.997247
1.01549 1.01819 1 0.997351
1.04068 1.04418 1 0.996652
1 1 1 1
1.03477 1.0382 1 0.996694
0.999433 1 1.00025 0.999184
1.00529 1.00762 1 0.997679
1.02823 1.03159 1 0.996746
1.0381 1.04165 1 0.996592
1.00134 1 1.00183 0.999509
1.00647 1 1.00805 0.99844
1 1 1 1
1 1 1 1
0.999028 1.00019 1 0.998835
1 1 1 1
0.999295 1 1.00016 0.999139
0.99894 1 1 0.99894
1.00324 1.00567 1 0.997582
1 1 1 1
1.00079 1 1.001 0.999796
0.999106 1.00024 1 0.998863
0.999048 1.00008 1 0.998965
1.01626 1.01915 1 0.997164
1.00005 1 1.00068 0.999379
1.00901 1.01155 1 0.997491
1.0007 1.00296 1.00002 0.997737
1.01456 1.01776 1 0.99686
1.00121 1 1.00163 0.999582
1.00001 1 1.00012 0.999895
1.00355 1 1.00483 0.998729
1.01857 1.02157 1 0.997062
1.01416 1.01688 1 0.997325
1.03817 1.04175 1 0.996562
0.999868 1.00126 1.00059 0.998018
1.02354 1.02681 1 0.996817
1.00924 1.01174 1.00057 0.996963
1.02328 1.02666 1 0.996704
1 1 1 1
1 1 1 1
1 1 1 1
1.00074 1 1.00109 0.99965
1 1 1 1
1 1 1 1
1 1 1 1
0.998758 1.00004 1 0.998722
0.998695 1 1 0.998695
1 1 1 1
1 1 1 1
0.998676 1 1 0.998676
0.998806 1 1 0.998806
1.01591 1.01899 1 0.996974
0.998834 1.0001 1 0.998739
1.01853 1.02158 1 0.997008
0.998673 1 1 0.998673
1.01397 1.01708 1 0.99694
1.01708 1.02014 1 0.997003
1.04591 1.0495 1 0.99658
1.01882 1.02187 1 0.997018
1.04724 1.05084 1 0.996583
1 1 1 1
0.99965 1 1 0.99965
0.998453 1 1 0.998453
0.998693 1 1 0.998693
1 1 1 1
0.999131 1 1 0.999131
0.998788 1 1 0.998788
1.01569 1.01847 1 0.997264
1.01442 1.01695 1 0.997508
1.01108 1.01345 1 0.997663
1.03154 1.03492 1 0.996735
0.998695 1 1 0.998695
0.998693 1 1 0.998693
1.01413 1.01709 1 0.997088
1.01581 1.01859 1 0.997269
1 1 1 1
0.999336 1 1.00011 0.999227
1.00665 1.00892 1 0.997756
1.01544 1.01815 1 0.997347
1.04048 1.044 1 0.996636
1.0277 1.03106 1 0.996739
1.03501 1.03841 1 0.99673
1.03768 1.04122 1 0.996601
1.00121 1 1.00171 0.999498
1.00491 1 1.00648 0.998441
1.01367 1.01676 1 0.996961
1.01462 1.01743 1 0.997237
1.04302 1.04653 1 0.996646
1.04106 1.0446 1 0.996612
1.03807 1.04148 1 0.996727
1.04825 1.05178 0.999923 0.996725
1.00049 1 1.00115 0.999348
1.0405 1.04398 1 0.996671
1.00102 1.00305 1.00011 0.997865
1.02088 1.02413 1 0.996826
1.03559 1.03918 1 0.996537
1.0385 1.04186 1 0.996777
1.00307 1.00016 1.00471 0.998212
1.00392 1 1.0052 0.998725
1.00326 1.00005 1.00546 0.997761
0.999025 1.00024 1 0.998781
1 1 1 1
1.0002 1 1.00038 0.999819
0.99896 1.00006 1 0.998897
1.01563 1.01852 1 0.997165
1.00023 1 1.00085 0.999383
0.999583 1.00181 1.00004 0.997736
1.00771 1.01025 1 0.997494
1.01574 1.01895 1 0.996848
1.00106 1 1.00146 0.999604
0.999912 1 1 0.999912
1.0041 1 1.00538 0.99873
1.01807 1.02107 1 0.99706
1.01322 1.01594 1 0.997329
1.03827 1.04186 1 0.996557
0.999198 1.00069 1.00049 0.998022
1.02475 1.02802 1 0.996822
1.0085 1.0111 1.00047 0.996957
1.02402 1.02741 1 0.996698
0.999954 1 1 0.999954
1.00152 1.00021 1.00297 0.998346
1.0022 1 1.00309 0.999121
1.00398 1.00006 1.00588 0.99805
1.04256 1.0462 1 0.996527
1.03227 1.0357 1 0.996685
1.04247 1.04614 1 0.996495
1.00397 1.0062 1.00049 0.997291
1.03025 1.03365 1 0.996714
1.01917 1.02099 1.00158 0.996639
1.03162 1.03513 1 0.996611
0.999683 1 1 0.999683
0.999992 1 1 0.999992
1 1 1 1
1 1 1 1
1 1 1 1
0.999964 1 1.00018 0.999779
1 1 1 1
1.00119 1 1.00155 0.999636
1 1 1 1
0.998889 1.00015 1 0.99874
0.998712 1 1 0.998712
1.01879 1.02185 1 0.997008
1.01646 1.01954 1 0.996974
0.998678 1 1 0.998678
1 1 1 1
0.998672 1 1 0.998672
1.01432 1.01743 1 0.996941
1.01754 1.0206 1 0.997002
1.04513 1.04872 1 0.996578
1.01881 1.02186 1 0.997015
1.04735 1.05094 1 0.99658
1.01346 1.01657 1 0.996937
1.04441 1.04802 1 0.996551
1.04672 1.05029 1 0.996594
1.0516 1.05668 0.998337 0.996854
1.04665 1.05028 1 0.996551
1.05394 1.05782 0.999574 0.996759
0.998693 1 1 0.998693
0.998687 1 1 0.998687
1.01404 1.01713 1 0.996963
1.01589 1.01865 1 0.997291
1 1 1 1
0.99927 1 1 0.99927
1.00798 1.01017 1 0.997833
1.0154 1.0181 1 0.997342
1.04033 1.04386 1 0.99662
1.03521 1.03857 1 0.996765
1.02717 1.03054 1 0.996732
1.0374 1.04093 1 0.99661
1.00129 1 1.0018 0.999486
1.00408 1 1.00565 0.998443
1.01357 1.01667 1 0.996942
1.01466 1.01748 1 0.997232
1.04291 1.04641 0.999983 0.996667
1.0411 1.04463 1 0.996624
1.0002 1 1.00086 0.999337
1.00227 1.00434 1.00008 0.997863
1.02036 1.02358 1 0.996859
1.03836 1.04179 1 0.996711
1.04845 1.05195 0.999902 0.996765
1.03523 1.03885 1 0.996516
1.04034 1.04381 1 0.996676
1.03873 1.04209 1 0.996774
1.00277 1.00023 1.00433 0.998214
1.00395 1.00026 1.00594 0.997764
1.00435 1 1.00564 0.998723
1.04268 1.04623 1 0.996613
1.0423 1.04578 1 0.996681
1.05145 1.05614 0.998768 0.996794
1.04949 1.05331 0.999615 0.996757
1.04351 1.04692 0.999994 0.996749
1.04437 1.05026 0.997334 0.997049
0.999329 1.00068 1.0006 0.998052
1.04073 1.04406 0.999898 0.996905
1.00919 1.01209 1 0.997136
1.02685 1.03054 1 0.996423
1.03487 1.03852 1 0.996488
1.03346 1.03654 1 0.997025
1.00183 1 1.00284 0.998995
0.999224 1.00089 1.00067 0.99766
1.00831 1 1.01041 0.997922
1.00214 1.00198 1.00266 0.997512
1.01769 1.02069 1 0.997058
0.999929 1 1 0.999929
1.00107 1 1.00144 0.999626
1.00542 1 1.00669 0.998731
1.01227 1.01498 1 0.997333
1.03841 1.042 1 0.996552
0.998636 1.0002 1.00041 0.998027
1.00782 1.01057 1.00033 0.996951
1.02593 1.0292 1 0.996826
1.02403 1.02743 1 0.996691
0.999963 1 1 0.999963
1.00239 1.0001 1.00395 0.998347
1.00186 1 1.00273 0.99913
1.00465 1.00005 1.00657 0.998044
1.04246 1.0461 1 0.996521
1.03248 1.03592 1 0.996683
1.04206 1.04573 1 0.996492
1.00243 1.00469 1.00045 0.997298
1.02994 1.03334 1 0.996715
1.01869 1.02037 1.00173 0.996627
1.03136 1.03479 1 0.996691
0.999981 1 1 0.999981
1.00014 1 1.00074 0.9994
1.00128 1.00167 1.00191 0.997706
1.00503 1 1.00663 0.998407
1.00123 1.00029 1.00321 0.997742
1.04718 1.05081 1 0.996545
1.03626 1.03982 1 0.996574
1.03779 1.04132 1 0.996614
1.00765 1.00876 1.00199 0.996907
1.02875 1.03215 1 0.996707
1.018 1.0208 1.00086 0.996398
0.99964 1 1 0.99964
0.999129 1 1 0.999129
0.999715 1 1 0.999715
0.999685 1 1 0.999685
0.999996 1 1 0.999996
0.999993 1 1 0.999993
1 1 1 1
1 1 1 1
1 1 1 1
0.999894 1 1 0.999894
1 1 1 1
1.00034 1 1.00058 0.999763
1 1 1 1
1.00123 1 1.00161 0.999622
1 1 1 1
1.01876 1.02181 1 0.997012
1.01795 1.02101 1 0.997002
1.04717 1.05077 1 0.996577
1.04433 1.04791 1 0.996576
1.01473 1.01785 1 0.996941
0.998671 1 1 0.998671
1.01357 1.01669 1 0.996937
1.04406 1.04768 1 0.996551
1.04622 1.0498 1 0.996592
1.05191 1.05728 0.998048 0.996872
1.04595 1.04958 1 0.996546
1.05365 1.05745 0.999646 0.996757
1.04302 1.04664 1 0.996543
1.05094 1.05689 0.997493 0.996876
1.05325 1.05773 0.998938 0.996825
1.04814 1.05634 0.99513 0.997089
1.05047 1.05399 1 0.996658
1.04978 1.05717 0.995899 0.997102
1.0135 1.01663 1 0.996924
1.01472 1.01754 1 0.997227
1.04282 1.04632 0.99997 0.996687
1.04112 1.04463 1 0.996636
0.999891 1 1.00056 0.999326
1.00347 1.00558 1.00004 0.997861
1.02024 1.02342 1 0.996891
1.03867 1.04211 1 0.996695
1.04865 1.05215 0.99987 0.996805
1.04023 1.0437 1 0.99668
1.03472 1.03836 1 0.996495
1.03894 1.0423 1 0.996772
1.00214 1.00033 1.0036 0.998216
1.00451 1.00047 1.00629 0.997766
1.00456 1 1.00585 0.998721
1.04276 1.04633 1 0.996588
1.04249 1.04596 1 0.996679
1.051 1.05585 0.998567 0.996836
1.04954 1.05344 0.999548 0.996741
1.0001 1.00131 1.00074 0.99805
1.0103 1.01321 1 0.997131
1.02558 1.02918 1.00003 0.996466
1.04361 1.04706 0.99999 0.996719
1.0441 1.05026 0.99702 0.997098
1.03547 1.03916 1 0.996451
1.04075 1.04408 0.999904 0.996908
1.03425 1.03731 0.999993 0.99706
1.00054 1.00171 1.00117 0.997661
1.00226 1.00202 1.00277 0.997481
1.00236 1 1.00337 0.998992
1.00767 1 1.00973 0.997961
1.05097 1.05601 0.998403 0.996825
1.05178 1.05622 0.999002 0.99679
1.04424 1.05234 0.995281 0.997003
1.04388 1.05283 0.994359 0.997123
1.04232 1.04633 0.999126 0.997034
1.04083 1.04921 0.994725 0.997282
1.00172 1.00428 1 0.997447
1.03529 1.03973 0.99846 0.997264
1.01428 1.01764 1 0.996693
1.02483 1.02854 1.00018 0.996222
1.03641 1.04009 1 0.996469
1.03508 1.03809 1 0.997094
0.999872 1 1.00066 0.999217
1.00758 1 1.00939 0.998206
1.00085 1.00348 1 0.997383
1.00415 1.00007 1.00645 0.99765
1.00263 1.00308 1.00217 0.997395
0.999972 1 1 0.999972
1.04226 1.04591 1 0.996516
1.0009 1 1.00176 0.999139
1.00314 1.00009 1.00471 0.998348
1.00505 1.00003 1.007 0.998038
1.03271 1.03615 1 0.996681
1.04168 1.04535 1 0.996489
1.00111 1.00331 1.00051 0.997305
1.01951 1.02099 1.00193 0.996615
1.02976 1.03316 1 0.996716
1.03168 1.03502 1 0.99677
0.999985 1 1 0.999985
0.999831 1 1.00042 0.999409
1.00022 1.00117 1.00134 0.997709
1.00605 1 1.00766 0.998406
1.00155 1.00021 1.00363 0.997727
1.04706 1.0507 1 0.996539
1.03617 1.03973 1 0.996573
1.03784 1.04138 1 0.996603
1.00775 1.00872 1.00213 0.996911
1.03116 1.03457 1 0.996702
1.01828 1.02095 1.00096 0.996421
0.999559 1 1 0.999559
1.00145 1 1.00269 0.998759
1.00095 1.00311 1.00048 0.997366
1.00663 1.00017 1.00844 0.998036
1.00149 1.00177 1.00203 0.997684
1.04366 1.04708 1 0.996737
1.03222 1.03572 1 0.996629
1.0372 1.0405 1 0.996823
1.00321 1.0027 1.00379 0.996728
1.01659 1.02031 1 0.996351
0.999643 1 1 0.999643
0.99905 1 1 0.99905
0.999104 1 1 0.999104
0.998853 1 1 0.998853
0.99915 1 1 0.99915
0.999733 1 1 0.999733
0.999717 1 1 0.999717
0.999999 1 1 0.999999
0.999686 1 1 0.999686
0.999997 1 1 0.999997
1 1 1 1
0.999995 1 1 0.999995
1 1 1 1
1 1 1 1
0.999968 1 1 0.999968
0.999978 1 1.0001 0.999874
1 1 1 1
1 1 1 1
1.00072 1 1.00097 0.999747
1 1 1 1
1.04538 1.04901 1 0.996542
1.04595 1.04953 1 0.996589
1.05357 1.0573 0.999721 0.996755
1.05229 1.05793 0.997768 0.99689
1.04363 1.04724 1 0.996552
1.01361 1.01673 1 0.996937
1.04302 1.04663 1 0.996544
1.05084 1.05672 0.997556 0.996871
1.05354 1.05794 0.999013 0.996825
1.04733 1.05607 0.994585 0.99712
1.05124 1.05477 1 0.996651
1.04977 1.05703 0.995991 0.997124
1.05094 1.05645 0.997931 0.996845
1.04605 1.05477 0.994652 0.997064
1.04829 1.05729 0.994304 0.997164
1.04676 1.05808 0.992038 0.997244
1.04904 1.0532 0.999096 0.996946
1.04667 1.05772 0.992203 0.997333
1.04274 1.04634 1 0.996562
1.04263 1.0461 1 0.996677
1.05051 1.05554 0.998356 0.996877
1.04946 1.05346 0.999478 0.996726
1.00091 1.00197 1.00089 0.998047
1.01076 1.01368 1 0.997126
1.02394 1.02734 1.00018 0.996509
1.04369 1.04715 1 0.996689
1.0438 1.05025 0.996699 0.997148
1.0407 1.04402 0.999911 0.99691
1.03601 1.03974 1 0.996413
1.03434 1.03735 1 0.997095
1.00177 1.00233 1.00179 0.997662
1.00222 1.00187 1.0029 0.997451
1.00278 1 1.0038 0.998988
1.0067 1 1.00871 0.998001
1.0508 1.05583 0.998405 0.996825
1.05128 1.0556 0.999136 0.996769
1.04439 1.05259 0.995157 0.997036
1.0445 1.05294 0.994856 0.997105
1.00258 1.00515 1 0.997439
1.01276 1.01604 1.00003 0.996736
1.02505 1.02854 1.00039 0.996212
1.04231 1.04611 0.999382 0.996986
1.03973 1.04847 0.994309 0.997339
1.033 1.03668 1 0.996454
1.03619 1.04053 0.998556 0.997265
1.0357 1.03866 1 0.997153
1.00079 1.00342 1 0.997382
1.00236 1.00348 1.00149 0.997393
1.00509 1.00035 1.00711 0.997644
1.00029 1 1.00111 0.999181
1.00711 1 1.00888 0.998244
1.04469 1.0538 0.994284 0.997051
1.04494 1.05437 0.993954 0.99708
1.04045 1.05298 0.990752 0.997325
1.0365 1.0452 0.994323 0.997346
1.00481 1.00772 1 0.997118
1.04017 1.04471 0.998211 0.997442
1.00782 1.01112 1.00029 0.996441
1.02158 1.02514 1.00051 0.996017
1.03006 1.03372 1 0.996453
0.999384 1 1 0.999383
1.00373 1 1.00518 0.998559
1.00593 1 1.008 0.997955
1.00224 1.00498 1 0.997272
1.00383 1.00008 1.0064 0.997369
1.0031 1.00438 1.00148 0.997247
0.999988 1 1 0.999988
0.999551 1 1.00013 0.999419
1.04694 1.05058 1 0.996533
1.00733 1 1.00894 0.998405
0.998942 1.00049 1.00074 0.997711
1.00164 1.00003 1.0039 0.997712
1.03592 1.03949 1 0.996571
1.03777 1.04132 1 0.996591
1.00715 1.00796 1.00229 0.996915
1.01747 1.02032 1.00077 0.996443
1.03351 1.03693 1 0.996697
0.999565 1 1 0.999565
1.00137 1 1.00261 0.998763
1.00087 1.0031 1.00041 0.997363
1.00777 1.00004 1.00972 0.998029
1.00138 1.00196 1.00174 0.997685
1.04363 1.04705 1 0.996731
1.03271 1.03622 1 0.996617
1.03715 1.04043 1 0.996849
1.00418 1.00426 1.00324 0.996689
1.01543 1.01912 1.00006 0.996322
0.999119 1 1.00013 0.99899
1.00738 1 1.00907 0.998325
1.00233 1.0031 1.002 0.997234
1.00658 1.00198 1.00681 0.997805
1.00584 1.0073 1.001 0.997559
1.04231 1.04728 0.998021 0.997224
1.03202 1.03562 1 0.996526
1.03421 1.03749 1 0.996844
1.00626 1.00537 1.00433 0.996562
1.00656 1.01047 1 0.996133
0.999646 1 1 0.999646
0.999069 1 1 0.999069
0.998775 1 1 0.998775
0.999079 1 1 0.999079
0.999148 1 1 0.999148
0.998823 1 1 0.998823
0.998725 1 1 0.998725
0.998828 1 1.00006 0.998766
0.999166 1 1 0.999166
0.999727 1 1 0.999727
0.999733 1 1 0.999733
1 1 1 1
0.999719 1 1 0.999719
0.999999 1 1 0.999999
1 1 1 1
0.999998 1 1 0.999998
1 1 1 1
1 1 1 1
0.999995 1 1 0.999995
0.999953 1 1 0.999953
1 1 1 1
1.00025 1 1.0004 0.999855
1 1 1 1
1 1 1 1
1.05197 1.05551 1 0.996644
1.05359 1.05791 0.999085 0.996824
1.04973 1.05685 0.996101 0.997147
1.04646 1.05576 0.994023 0.997151
1.05078 1.05659 0.997631 0.996865
1.04314 1.04676 1 0.996545
1.05088 1.05628 0.998052 0.996826
1.04661 1.05491 0.995052 0.997057
1.04773 1.05678 0.994275 0.997148
1.04573 1.05765 0.991454 0.997256
1.04862 1.05256 0.999306 0.996947
1.04478 1.0566 0.991424 0.997373
1.0467 1.0547 0.995365 0.997038
1.047 1.0592 0.991217 0.99724
1.04694 1.05983 0.990478 0.997344
1.04214 1.0537 0.991603 0.997399
1.05069 1.05572 0.998408 0.996825
1.0509 1.0551 0.999275 0.996748
1.04458 1.05285 0.995065 0.997069
1.04521 1.05317 0.995336 0.997088
1.00391 1.00649 1 0.997431
1.01192 1.01519 1 0.996779
1.02527 1.02858 1.00058 0.996201
1.04233 1.04591 0.999637 0.996937
1.03856 1.04769 0.993874 0.997396
1.0374 1.04168 0.998624 0.997266
1.03046 1.03414 1 0.996439
1.03793 1.04084 1 0.997212
1.00104 1.00367 1 0.997381
1.00277 1.0047 1.00069 0.997391
1.00651 1.00055 1.00833 0.997637
1.00065 1 1.0015 0.999145
1.00688 1 1.00861 0.998283
1.04514 1.05419 0.994338 0.997053
1.04545 1.05488 0.993961 0.997075
1.04026 1.05221 0.991304 0.997316
1.00492 1.00783 1 0.997112
1.0084 1.0117 1.00026 0.996483
1.02022 1.02353 1.00076 0.996006
1.03703 1.0454 0.994639 0.997332
1.03292 1.03649 1 0.99656
1.03669 1.04146 0.998005 0.99741
0.999416 1 1 0.999416
1.00273 1.00548 1 0.997263
1.0015 1.0035 1.00064 0.997374
1.00572 1.00101 1.00737 0.99736
1.00619 1 1.00823 0.997978
1.00375 1 1.00523 0.998524
1.04539 1.0573 0.991581 0.99713
1.04372 1.05945 0.987872 0.99725
1.03409 1.05056 0.986882 0.997408
1.03508 1.048 0.990097 0.997549
1.00535 1.00846 1 0.996919
1.03192 1.03538 0.999645 0.997013
1.00405 1.0064 1.00165 0.996028
1.01161 1.01477 1.00104 0.995853
0.999645 1 1 0.999645
1.00017 1 1.00132 0.998851
1.00438 1 1.00617 0.998222
1.00614 1 1.00862 0.99754
1.00303 1.00464 1.00131 0.99709
1.00748 1.00204 1.00838 0.997069
0.99957 1 1 0.99957
1.00119 1 1.00243 0.998767
1.04381 1.04725 1 0.996724
1.00896 1 1.01096 0.998023
1.00083 1.00321 1.00027 0.997361
1.00085 1.00164 1.00152 0.997687
1.03342 1.03694 1 0.996605
1.03735 1.04061 1 0.996875
1.00556 1.00619 1.00273 0.996651
1.01432 1.01782 1.00027 0.996293
0.999015 1 1.00002 0.998993
1.00752 1 1.00922 0.998317
1.00292 1.0037 1.00198 0.997243
1.00569 1.00147 1.00642 0.997813
1.00604 1.00794 1.00048 0.997636
1.0434 1.04852 0.99784 0.99727
1.0316 1.03517 1 0.996547
1.03571 1.03891 1 0.996917
1.00622 1.00512 1.00458 0.996527
1.00688 1.01083 1.00003 0.996063
0.999653 1 1.00099 0.998662
1.00765 1 1.00973 0.997939
1.00747 1.00657 1.00378 0.99712
1.00517 1.00613 1.00161 0.99744
1.04009 1.06202 0.981782 0.997524
1.03664 1.04065 0.998841 0.997304
1.01976 1.02361 1 0.996239
1.00915 1.00877 1.00426 0.996145
0.999088 1 1 0.999088
0.998788 1 1 0.998788
0.99872 1 1 0.99872
0.999147 1 1 0.999147
0.998793 1 1 0.998793
0.999165 1 1 0.999165
0.998727 1 1 0.998727
0.998831 1 1.00005 0.998778
0.998749 1 1 0.998749
0.998848 1 1.00024 0.998608
0.998728 1 1 0.998728
0.999146 1 1 0.999146
0.9997 1 1 0.9997
0.999725 1 1 0.999725
1 1 1 1
0.999733 1 1 0.999733
1 1 1 1
1 1 1 1
1 1 1 1
1 1 1 1
1 1 1 1
1 1 1 1
0.99999 1 1 0.99999
1 1 1 1
0.999937 1 1 0.999937
1 1 1 1
1 1 1 1
1.04811 1.05182 0.999526 0.996948
1.04725 1.05637 0.994223 0.997132
1.04298 1.05556 0.990643 0.997413
1.04476 1.05729 0.990861 0.997267
1.04717 1.05508 0.995447 0.997049
1.05073 1.05604 0.998153 0.996807
1.04646 1.05459 0.995241 0.997038
1.04688 1.05888 0.991418 0.997231
1.04575 1.05901 0.99011 0.997343
1.04345 1.05466 0.991944 0.997409
1.04806 1.05925 0.992228 0.997185
1.04871 1.06566 0.98666 0.997394
1.04737 1.06484 0.986094 0.997465
1.04556 1.05458 0.994374 0.997055
1.04588 1.05532 0.993964 0.997071
1.04019 1.05146 0.99196 0.997307
1.00459 1.0075 1 0.997107
1.0084 1.01173 1.00018 0.996525
1.01852 1.02175 1.00085 0.995994
1.03757 1.04562 0.994967 0.997318
1.03259 1.03761 0.99778 0.997378
1.03428 1.03774 1 0.996667
1.00168 1.00436 1.00008 0.997253
0.998476 1.00098 1 0.997502
1.00692 1.00152 1.00806 0.99735
0.99945 1 1 0.99945
1.00558 1 1.00759 0.998002
1.00385 1 1.00537 0.998489
1.04616 1.05783 0.991809 0.997138
1.04315 1.05918 0.987567 0.997256
1.03429 1.05016 0.98746 0.9974
1.00291 1.00601 1 0.996911
1.00413 1.00665 1.0014 0.996106
1.01185 1.01508 1.0009 0.995929
1.03527 1.04772 0.990539 0.997553
1.02945 1.03348 0.999108 0.996994
0.999705 1 1 0.999705
1.00019 1 1.00135 0.998849
1.00031 1.003 1.00018 0.997138
1.0093 1.00159 1.01051 0.997217
1.0057 1.00001 1.00812 0.997584
1.00434 1 1.00617 0.998188
1.0463 1.06313 0.986825 0.997315
1.03553 1.05976 0.979717 0.997363
1.03118 1.05025 0.98421 0.997597
1.02544 1.03635 0.991896 0.997561
1.00236 1.00446 1.00131 0.996601
1.01152 1.01399 1.0014 0.996166
1.00442 1.00599 1.00264 0.995816
0.999852 1 1 0.999852
0.999366 1 1 0.999366
0.999098 1 1 0.999098
1.00093 1 1.00254 0.998392
1.00576 1 1.00792 0.997858
1.00864 1 1.0113 0.997371
0.999251 1.00192 1.00013 0.997209
1.03144 1.00089 1.03316 0.997452
0.999004 1 1.00001 0.998996
1.00799 1 1.0097 0.998309
1.04448 1.04972 0.99769 0.997316
1.0056 1.00155 1.00624 0.997821
1.00371 1.00432 1.00215 0.997252
1.00611 1.00838 1.00004 0.997713
1.03085 1.0344 1 0.996568
1.03705 1.04018 1 0.99699
1.00615 1.00485 1.00482 0.996493
1.00707 1.01112 1 0.995994
1.00007 1 1.00144 0.99863
1.00715 1 1.00922 0.997951
1.00904 1.00774 1.00415 0.997149
1.00459 1.00571 1.00142 0.997477
1.04233 1.06413 0.98192 0.997544
1.03734 1.04106 0.99917 0.997253
1.02006 1.02386 1 0.996287
1.01031 1.01046 1.00377 0.996093
1.00123 1 1.00281 0.998417
1.04272 1.06815 0.97859 0.99755
1.00199 1 1.0044 0.9976
1.00808 1.00852 1.00268 0.996885
1.03553 1.05119 0.987423 0.997644
1.01746 1.02115 1 0.996381
1.00759 1.00848 1.00323 0.995897
0.998801 1 1 0.998801
0.998708 1 1 0.998708
0.998759 1 1 0.998759
0.999163 1 1 0.999163
0.998789 1 1 0.998789
0.998729 1 1 0.998729
0.999143 1 1 0.999143
0.9988 1 1.00007 0.998733
0.998757 1 1 0.998757
0.998695 1 1.00007 0.998626
0.998815 1 1 0.998815
0.998712 1 1.00006 0.998652
0.998936 1 1.00043 0.998503
0.998676 1 1 0.998676
0.999084 1 1 0.999084
0.999664 1 1 0.999664
0.999697 1 1 0.999697
1 1 1 1
0.999724 1 1 0.999724
1 1 1 1
1 1 1 1
1 1 1 1
1 1 1 1
1 1 1 1
0.999877 1 1 0.999877
1 1 1 1
0.999999 1 1 0.999999
1 1 1 1
0.999984 1 1 0.999984
1 1 1 1
1 1 1 1
1.04471 1.05561 0.992243 0.997419
1.04452 1.05808 0.989812 0.997342
1.04671 1.05849 0.991624 0.997222
1.04624 1.05447 0.99514 0.997038
1.0477 1.05915 0.991961 0.997203
1.04855 1.06509 0.987048 0.997385
1.04542 1.06291 0.986034 0.997474
1.04841 1.06553 0.986529 0.997374
1.0573 1.07592 0.985168 0.997488
1.04794 1.07039 0.981231 0.997749
1.04692 1.05833 0.99205 0.997145
1.04254 1.05894 0.987216 0.997263
1.03437 1.04977 0.987905 0.997392
1.00241 1.00546 1.00006 0.996904
1.00477 1.00734 1.00126 0.996186
1.01405 1.01732 1.00078 0.996006
1.03543 1.04736 0.991025 0.997558
1.02731 1.03183 0.998642 0.996974
1.00054 1.00322 1.00014 0.997187
1.01226 1.0021 1.01281 0.997364
1.00651 1.0002 1.0087 0.997628
0.999765 1 1 0.999765
1.00012 1 1.00127 0.998848
1.00449 1 1.00634 0.998154
1.04619 1.06341 0.986449 0.997326
0.999847 1 1 0.999847
0.999334 1 1 0.999334
1.036 1.05897 0.980896 0.997365
1.02981 1.0494 0.983731 0.997566
1.00277 1.00436 1.00174 0.996687
1.00478 1.00567 1.00332 0.995806
1.01232 1.01537 1.00084 0.996159
1.02422 1.0358 0.991261 0.997536
0.999214 1 1.00004 0.999178
1.00082 1 1.00244 0.998384
1.00105 1.00179 1.00216 0.997107
1.02706 1.00095 1.02853 0.997618
1.00696 1.00007 1.00952 0.997389
1.00544 1 1.00758 0.997875
1.05504 1.07485 0.98409 0.997444
1.01742 1.05712 0.964854 0.997502
1.02047 1.04236 0.981209 0.99775
1.00618 1.01772 0.991384 0.997253
1.00397 1.00197 1.00526 0.996759
1.00444 1.00319 1.0055 0.995772
0.999306 1 1 0.999306
0.999326 1 1 0.999326
0.999035 1 1 0.999035
0.998585 1 1.00002 0.998562
1.00313 1 1.005 0.99814
1.00511 1.00016 1.00743 0.997531
1.04474 1 1.04746 0.997395
1.00185 1.00049 1.00366 0.997705
1.00037 1 1.00178 0.998597
1.00625 1 1.0083 0.997964
1.0438 1.06521 0.982299 0.997563
1.0377 1.0412 0.999437 0.997202
1.00404 1.00538 1.00115 0.997514
1.01068 1.00908 1.00441 0.997177
1.0207 1.02442 1.00004 0.996334
1.01162 1.01225 1.00335 0.99604
1.00146 1 1.00306 0.998401
1.04518 1.07126 0.977998 0.997602
1.00256 1 1.00495 0.997625
1.00688 1.00738 1.00269 0.996828
1.03417 1.05025 0.987041 0.997618
1.01684 1.02046 1 0.996459
1.00847 1.00909 1.00348 0.995913
1.00366 1 1.00559 0.998083
1.01527 1.04435 0.974077 0.998028
1.00344 1.003 1.00312 0.997331
1.00414 1.00394 1.00379 0.996413
1.01697 1.02674 0.993259 0.997201
1.00209 1.00378 1.00221 0.996105
0.981698 1.00385 0.980346 0.99754
0.998697 1 1 0.998697
0.999191 0.999855 1.00058 0.998757
0.999077 1 1.00041 0.998669
0.999141 1 1 0.999141
0.998979 1 1.00024 0.998738
0.998645 1 1 0.998645
0.998765 1 1 0.998765
0.999083 1 1 0.999083
0.998669 1 1 0.998668
0.998781 1 1 0.998781
0.998767 1 1.00026 0.998504
0.998706 1 1.00007 0.99864
0.99877 1 1 0.99877
0.998798 1 1.00047 0.998324
0.9996 1 1.00112 0.998481
0.998563 1 1 0.998561
0.998953 1 1 0.998953
0.998987 1 1.00025 0.998733
0.998928 1 1 0.998928
0.999646 1 1 0.999646
0.999662 1 1 0.999662
1 1 1 1
0.999694 1 1 0.999694
1 1 1 1
1 1 1 1
1 1 1 1
1 1 1 1
1 1 1 1
0.999901 1 1 0.999901
0.999877 1 1 0.999877
1 1 1 1
1 1 1 1
1 1 1 1
0.999999 1 1 0.999999
1 1 1 1
1 1 1 1
1.04373 1.06136 0.985872 0.997482
1.0483 1.06456 0.987314 0.997375
1.04739 1.05911 0.991696 0.997222
1.04844 1.0655 0.986587 0.997372
1.05494 1.07374 0.984975 0.997485
1.04743 1.06888 0.982214 0.997679
1.05855 1.08058 0.982014 0.997553
0.977042 1.01605 0.965493 0.995972
1.01223 1.0418 0.973152 0.998429
0.999433 1 1 0.999433
1.04609 1.0637 0.986072 0.997337
1.03662 1.05822 0.982177 0.997366
1.02847 1.04862 0.983201 0.997535
1.00018 1.00259 1.00082 0.996773
1.00418 1.00438 1.00402 0.995796
1.01224 1.0157 1.00044 0.996152
1.02319 1.03535 0.99072 0.997511
0.998934 1.00187 1.00006 0.997006
1.02008 1 1.02234 0.997786
1.00499 1 1.0076 0.997407
0.999842 1 1 0.999842
1.00637 1 1.00849 0.997892
0.999327 1 1.00007 0.999257
1.00077 1 1.0024 0.998377
0.999302 1 1 0.999302
1.05191 1.07511 0.980921 0.997452
0.999347 1 1 0.999347
0.999325 1 1 0.999325
0.999 1 1 0.999
1.02147 1.05736 0.968477 0.997501
1.02101 1.04281 0.981352 0.997703
1.0011 1.0017 1.00262 0.996786
1.00677 1.00534 1.00556 0.995884
1.00564 1.01565 0.992888 0.997238
0.998687 1 1.00007 0.998613
1.00338 1 1.0053 0.998094
1.00716 1.00031 1.00926 0.997605
1.03542 1 1.03809 0.997425
1.00397 1.00001 1.00641 0.997577
1.03509 1.06415 0.97508 0.997554
1.00281 1.04906 0.958165 0.997649
1.0133 1.02699 0.989229 0.997414
0.992933 1.0062 0.989791 0.996995
1.00351 1 1.00622 0.997316
0.998885 1 1 0.998885
0.99882 1 1 0.99882
0.999692 1 1.00097 0.998726
1.00263 1 1.00429 0.998344
1.00611 1 1.00817 0.99796
1.03367 1 1.03618 0.997582
1.02834 1.00117 1.02962 0.997584
1.00144 1 1.00307 0.998385
1.00307 1 1.00543 0.99765
1.04684 1.07525 0.975874 0.997653
1.03329 1.05003 0.986434 0.997591
1.01639 1.01992 1 0.996538
1.0055 1.00606 1.00268 0.996771
1.00904 1.00953 1.0036 0.99593
1.0034 1 1.00529 0.998124
1.01415 1.0445 0.972821 0.998061
1.00127 1.00195 1.00197 0.997345
1.00345 1.00297 1.00408 0.996417
1.0164 1.02707 0.992276 0.997312
1.00234 1.00353 1.00273 0.996096
0.981524 1.00385 0.981061 0.996635
1.00368 1.00065 1.00509 0.997952
1.00495 1.02308 0.984234 0.998006
1.00064 1.00137 1.00203 0.997249
1.00442 1.00138 1.00644 0.996621
0.992978 1.00605 0.989921 0.997052
0.925047 0.979214 0.966634 0.977292
0.925214 0.972741 0.962345 0.988357
0.972968 0.986205 0.988919 0.997632
0.7556 0.850614 0.927332 0.957907
0.680508 0.82002 0.877492 0.945727
0.999365 0.999698 1.00091 0.998756
0.999896 0.999849 1.00133 0.998721
0.999228 1 1.00052 0.998709
0.999082 1 1 0.999082
0.998659 1 1 0.998659
0.998536 1 1.00003 0.998505
0.998641 1 1.00001 0.998626
0.998747 1 1 0.998747
1.0003 1 1.00184 0.998457
0.998986 1 1 0.998986
0.998583 1 1 0.99858
0.998756 1 1.00002 0.998734
0.999116 1 1.00076 0.998359
1.00136 1 1.00299 0.998371
1.00196 1 1.00352 0.998446
1.00072 1 1.00234 0.998386
0.998712 1 1.00022 0.998497
0.998922 1 1 0.998922
0.998581 1 1 0.998581
0.998727 1 1.00017 0.998561
0.998759 1 1.00001 0.998745
0.99893 1 1.00024 0.998694
0.999037 1 1 0.999037
0.998925 1 1 0.998925
0.99964 1 1 0.99964
0.999646 1 1 0.999646
1 1 1 1
0.999659 1 1 0.999659
1 1 1 1
1 1 1 1
1 1 1 1
1 1 1 1
1 1 1 1
0.999925 1 1 0.999925
0.999898 1 1 0.999898
1 1 1 1
0.999876 1 1 0.999876
1 1 1 1
1 1 1 1
1 1 1 1
1 1 1 1
1 1 1 1
1.05225 1.07124 0.984751 0.997482
1.0485 1.06545 0.98668 0.99737
1.04753 1.06774 0.983428 0.997609
0.978816 1.01587 0.967355 0.996043
1.05546 1.07787 0.981612 0.997552
1.02387 1.04512 0.981338 0.998304
1.04133 1.05565 0.988735 0.997675
0.934673 0.981189 0.964674 0.987476
0.994516 1.01935 0.978774 0.996793
0.999448 1 1 0.999448
0.999429 1 1 0.999429
0.998996 1 1 0.998996
0.999074 1 1 0.999074
1.04968 1.07541 0.978557 0.997459
1.02508 1.05713 0.972108 0.9975
1.02141 1.04301 0.981591 0.997657
1.00031 1.00081 1.0027 0.996813
1.00948 1.00814 1.00536 0.995996
1.00466 1.01367 0.993875 0.997222
1.016 1 1.01854 0.997503
1.02821 1.00003 1.03079 0.997455
1.0021 1 1.00449 0.997622
0.999324 1 1 0.999324
1.00195 1 1.00391 0.998049
0.998737 1 1.00007 0.998665
0.999389 1 1 0.999389
0.998964 1 1 0.998964
1.03274 1.06397 0.973008 0.997569
0.998927 1 1 0.998927
0.998877 1 1 0.998877
0.999045 1 1.00018 0.998864
1.00749 1.0516 0.960315 0.997642
1.01255 1.0268 0.988684 0.997413
1.00361 1.00032 1.00601 0.997298
0.995243 1.00637 0.991859 0.997062
1.00123 1 1.00294 0.998299
1.00498 1 1.00713 0.997867
1.03403 1.0012 1.03531 0.997566
1.03395 1.00018 1.03634 0.997516
0.99747 1.04194 0.959481 0.997744
0.995574 1.03211 0.96689 0.997631
1.00453 1.01046 0.997029 0.997087
0.986426 1.00089 0.987616 0.997909
0.998952 1 1.00037 0.998579
1.00061 1 1.00212 0.998497
1.01218 1 1.01393 0.998274
1.05261 1 1.05516 0.997583
0.901083 0.968851 0.954199 0.974695
1.00373 1 1.00558 0.998165
0.999325 1.00088 1.00109 0.997359
1.01434 1.04431 0.973158 0.998097
1.01602 1.02702 0.99185 0.997423
1.00267 1.0033 1.0033 0.996085
1.00315 1.00228 1.00447 0.99642
0.982255 1.00495 0.981628 0.995708
1.00252 1.00031 1.00421 0.99801
1.0049 1.0243 0.983035 0.997993
1.00031 1.00139 1.00166 0.997264
1.00453 1.00181 1.00611 0.996623
0.996395 1.00696 0.992434 0.997052
0.923812 0.985654 0.961547 0.974739
0.919049 0.969949 0.961246 0.985724
0.976536 0.986673 0.992053 0.997654
0.753901 0.846862 0.928543 0.958736
0.666102 0.809306 0.874127 0.941572
1.00093 1.00013 1.0026 0.998205
0.784608 0.868636 0.94008 0.960838
0.71964 0.825715 0.920293 0.947019
0.988923 1.00645 0.984594 0.997957
1.00737 1.00142 1.00828 0.997681
1.01277 1.00477 1.01062 0.997373
0.967867 0.979821 0.989878 0.9979
0.910865 0.962742 0.969824 0.975554
0.893603 0.943744 0.962017 0.984255
0.742951 0.848199 0.911508 0.960953
0.739999 0.871549 0.898164 0.945331
1.00104 0.99971 1.00256 0.998773
1.00051 0.999911 1.00192 0.998685
1.00245 1 1.0036 0.998851
0.999019 1 1 0.999019
0.9986 1 1 0.9986
1.00068 1 1.00225 0.998432
0.99966 1 1.00127 0.998394
0.998698 1 1 0.998698
0.998923 1 1 0.998923
1.0015 1 1.00314 0.99836
1.00111 1 1.00272 0.998399
0.998581 1 1.00005 0.998534
1.0019 1 1.00344 0.998467
1.00377 1 1.00537 0.99841
1.00858 1 1.01003 0.99856
0.999432 1 1.0011 0.998334
0.998707 1 1.00016 0.998545
0.998589 1 1.00001 0.998577
0.998864 1 1.0003 0.998564
0.998939 1 1.00054 0.998399
0.999132 1 1.00054 0.998589
0.999804 1 1.00124 0.998564
1.00354 1 1.00517 0.998382
0.999531 1 1.00083 0.998705
0.998878 1 1.00013 0.998746
0.999072 1 1 0.999072
0.998801 1 1.00015 0.998655
0.99901 1 1 0.99901
0.99963 1 1 0.99963
0.998921 1 1 0.998921
0.999641 1 1 0.999641
1 1 1 1
0.999645 1 1 0.999645
1 1 1 1
1 1 1 1
1 1 1 1
1 1 1 1
1 1 1 1
0.999406 1 1 0.999406
0.999928 1 1 0.999928
0.999922 1 1 0.999922
1 1 1 1
0.999894 1 1 0.999894
1 1 1 1
1 1 1 1
1 1 1 1
1 1 1 1
1 1 1 1
0.981079 1.01573 0.969647 0.996119
1.05304 1.07487 0.982095 0.997552
1.03045 1.04817 0.98489 0.998177
0.928198 0.974731 0.963262 0.988578
0.994376 1.01907 0.978749 0.996955
1.04138 1.05932 0.985404 0.99763
1.00687 1.02711 0.983269 0.996973
0.942397 0.975572 0.975897 0.989853
0.92289 0.977997 0.967645 0.975207
0.751517 0.847797 0.922693 0.960704
0.649716 0.781836 0.879441 0.944933
0.999019 1 1 0.999019
0.999447 1 1 0.999447
0.999425 1 1 0.999425
0.998987 1 1 0.998987
0.998753 1 1 0.998753
0.998777 1 1 0.998777
0.99896 1 1 0.99896
0.999035 1 1 0.999035
1.02899 1.06408 0.969366 0.997583
1.0127 1.05523 0.961975 0.997635
1.01206 1.0267 0.988296 0.997412
1.00282 1.00108 1.00446 0.997281
0.997638 1.00627 0.994271 0.99713
1.0369 1.00068 1.03874 0.997546
1.03344 1.00026 1.03581 0.997451
1.00569 1 1.00793 0.997776
0.998933 1 1 0.998933
1.0012 1 1.00295 0.998252
0.99897 1 1 0.99897
0.999002 1 1 0.999002
0.996706 1.04267 0.958072 0.997755
0.99921 1 1.00061 0.998602
1.00053 1 1.00199 0.998543
0.994403 1.03078 0.967028 0.997606
1.00187 1.01077 0.993953 0.99722
0.98861 1.00118 0.989628 0.997794
1.02012 1.0001 1.02196 0.9981
1.04858 1.00092 1.05012 0.997612
0.983319 1.0271 0.959566 0.997717
0.985801 1.0099 0.978446 0.997636
0.980088 1.00166 0.980757 0.997662
0.989844 1.00118 0.990608 0.998056
1.00408 1 1.00588 0.998218
1.00932 1 1.01107 0.998271
1.0483 1 1.05049 0.997915
0.783748 0.877957 0.927546 0.962426
0.918757 0.975918 0.962373 0.978237
1.00086 1 1.0028 0.998068
0.999828 1.00121 1.00134 0.99728
1.00495 1.02583 0.981629 0.997981
0.99921 1.00824 0.993977 0.997054
1.00475 1.00243 1.00571 0.996627
0.919447 0.975319 0.966299 0.975592
0.923668 0.976637 0.95886 0.986342
0.977372 0.985325 0.994244 0.997671
0.756636 0.848578 0.927172 0.96169
0.653321 0.798757 0.872642 0.937294
1.00044 0.999913 1.00232 0.998205
0.782883 0.874686 0.930835 0.961551
0.70711 0.813921 0.91955 0.944776
0.988697 1.00733 0.983515 0.997954
1.00744 1.00183 1.00792 0.997703
1.01102 1.00311 1.01039 0.997524
0.960589 0.974155 0.987992 0.998058
0.919971 0.973764 0.9708 0.973175
0.891381 0.94358 0.957438 0.986674
0.74808 0.845423 0.922583 0.95911
0.738677 0.876981 0.891888 0.944396
1.0029 1 1.00425 0.998659
0.751793 0.837707 0.946414 0.948255
0.824438 0.909084 0.949005 0.955621
0.988833 0.997164 0.992963 0.998673
1.01457 1.00247 1.01348 0.998613
0.969929 0.965543 1.00676 0.997799
0.896563 0.931134 0.974714 0.987851
0.881084 0.932779 0.97183 0.97196
0.751809 0.84136 0.930859 0.959935
0.784556 0.915349 0.903698 0.948449
1.00134 0.999674 1.003 0.998662
1.00179 1 1.00298 0.998814
1.0055 0.999831 1.00659 0.999079
0.998924 1 1 0.998924
0.99857 1 1 0.99857
1.00178 1 1.00338 0.99841
1.00195 1 1.0036 0.99835
1.00158 1 1.00309 0.998489
0.998642 1 1.0001 0.998544
1.00237 1 1.00398 0.998394
0.999445 1 1.00111 0.998336
1.00882 0.999915 1.0103 0.998617
1.02707 0.999021 1.02901 0.999097
1.00431 1 1.00589 0.99842
0.998817 1 1.00052 0.998296
0.998581 1 1.00001 0.998573
0.999149 1 1.00058 0.998567
0.99922 1 1.00083 0.998393
0.999443 1 1.00086 0.998579
0.999328 1 1.00069 0.998639
1.00229 1 1.00378 0.998515
1.00023 1 1.00177 0.998467
1.00162 1 1.00298 0.998648
0.99911 1 1.0007 0.998407
0.998755 1 1.00093 0.997829
1.00287 1 1.0046 0.998279
1.00306 1 1.00469 0.998382
1.00263 1 1.00404 0.998602
1.00027 1 1.00157 0.998703
0.999054 1 1 0.999054
0.999188 1 1.00044 0.998747
0.999073 1 1 0.999073
0.999623 1 1 0.999623
0.998983 1 1 0.998983
0.999633 1 1 0.999633
0.999997 1 1 0.999997
0.999642 1 1 0.999642
0.999999 1 1 0.999999
1 1 1 1
1 1 1 1
1 1 1 1
1 1 1 1
0.999416 1 1 0.999416
0.999909 1 1 0.999909
0.999408 1 1 0.999408
1 1 1 1
0.999929 1 1 0.999929
0.999918 1 1 0.999918
1 1 1 1
1 1 1 1
1 1 1 1
1 1 1 1
1 1 1 1
0.777647 0.865625 0.936915 0.958855
0.713521 0.822076 0.916918 0.946596
0.929473 0.978589 0.960282 0.989094
0.995852 1.01881 0.980291 0.997121
1.0445 1.06327 0.984731 0.997585
0.924101 0.959541 0.971568 0.991249
1.00722 1.0265 0.984066 0.997109
0.934454 0.989695 0.967069 0.976335
0.752224 0.85032 0.922888 0.958552
0.649362 0.789727 0.874062 0.940735
0.957223 0.996239 0.967171 0.99345
0.921602 0.970778 0.972647 0.976041
0.740318 0.846622 0.910619 0.960267
0.72428 0.861622 0.890265 0.944214
0.999917 1 1.00131 0.998609
0.999052 1 1 0.999052
0.999445 1 1 0.999445
0.998978 1 1 0.998978
0.998805 1 1 0.998805
0.999665 1 1.00109 0.99858
0.998756 1 1 0.998756
0.998666 1 1 0.998666
0.99892 1 1 0.99892
0.998997 1 1 0.998997
0.997106 1.04284 0.958283 0.997766
0.991607 1.02823 0.96672 0.997584
0.999509 1.01136 0.990905 0.997354
0.990689 1.00129 0.991712 0.997678
1.04353 1.0024 1.04349 0.99764
1.0285 1.00015 1.03048 0.997926
0.999159 1 1.00057 0.998589
0.999396 1 1.00077 0.998625
0.984157 1.0274 0.960041 0.997778
1.00503 1 1.00686 0.998184
1.00891 1 1.0107 0.998227
0.983578 1.00814 0.978016 0.997571
0.978175 1.00128 0.979125 0.997755
0.991671 1.002 0.991691 0.997984
1.04211 1 1.04433 0.997874
0.98186 1.00391 0.979947 0.998054
0.972615 0.999626 0.974495 0.998444
1.01368 1.00091 1.01459 0.998197
1.00859 1 1.01047 0.998138
1.00873 1 1.01073 0.998026
1.02655 1 1.02859 0.998016
0.775655 0.852941 0.951721 0.955521
0.792067 0.876818 0.9385 0.962538
0.907349 0.972488 0.957142 0.974797
1.00036 0.999823 1.00234 0.998203
1.00715 1.0018 1.00763 0.997724
0.991225 1.0084 0.984986 0.997953
1.00944 1.00171 1.01006 0.997671
0.777972 0.869677 0.929169 0.962745
0.914875 0.969992 0.967561 0.9748
0.887725 0.940202 0.959187 0.984361
0.957687 0.970228 0.988842 0.998213
0.743051 0.84527 0.918739 0.956822
0.707504 0.815458 0.917667 0.945458
0.729345 0.86766 0.888037 0.946569
1.00316 0.999851 1.00467 0.998653
0.753538 0.840455 0.943043 0.950734
0.83546 0.919067 0.951472 0.955394
0.988751 0.994975 0.994976 0.998762
1.01446 1.00148 1.01442 0.99857
0.967316 0.964387 1.00486 0.998185
0.89059 0.934702 0.96675 0.985576
0.8953 0.940388 0.976785 0.974681
0.772125 0.863619 0.933393 0.957857
0.772137 0.903632 0.899155 0.950318
1.00723 0.998994 1.00882 0.999431
0.84938 0.923978 0.956209 0.961363
0.820664 0.91417 0.935381 0.959733
0.988456 0.974185 1.01494 0.999715
0.91775 0.930798 0.99418 0.991754
0.901861 0.930874 0.99523 0.973476
0.814392 0.892376 0.954431 0.956184
0.807398 0.939715 0.904725 0.949676
1.00175 1 1.00297 0.998776
1.00549 0.999528 1.0069 0.999074
1.02292 0.997957 1.02567 0.999354
0.99874 1 1.0002 0.998542
0.999374 1 1.00104 0.998338
1.0006 1 1.00223 0.998378
1.00901 0.999804 1.01055 0.998673
0.999069 1 1.00078 0.998295
1.00432 1 1.00592 0.998411
1.0317 0.99966 1.03291 0.999174
1.04265 0.996603 1.04678 0.999446
1.0328 0.99943 1.03436 0.999068
0.99904 1 1.00067 0.998367
0.999478 1 1.00109 0.998385
0.999345 1 1.00078 0.998569
0.998713 1 1 0.998713
0.999874 1 1.00139 0.998484
1.00157 1 1.00306 0.998516
1.00211 1 1.00345 0.998664
1.00099 1 1.00248 0.998515
1.0065 0.999584 1.00796 0.998968
0.997563 1.0002 0.998857 0.998505
0.999699 1.00045 1.00082 0.998429
0.998731 1 1.00069 0.998038
1.00073 1.00216 1.00153 0.997061
1.0021 1 1.00393 0.998177
0.998826 1 1.00079 0.998035
1.00255 1 1.00426 0.998297
1.00462 1 1.00619 0.998445
1.00231 1 1.00394 0.998382
1.00231 1 1.00371 0.998601
0.999165 1 1.0002 0.998962
1.00052 1 1.00182 0.9987
0.999051 1 1 0.999051
0.999609 1 1 0.999609
0.999074 1 1 0.999074
0.999624 1 1 0.999624
0.999992 1 1 0.999992
0.999635 1 1 0.999635
0.999996 1 1 0.999996
1 1 1 1
0.999999 1 1 0.999999
1 1 1 1
1 1 1 1
0.999191 1 1 0.999191
0.999872 1 1 0.999872
0.999345 1 1 0.999345
1 1 1 1
0.999913 1 1 0.999913
0.999409 1 1 0.999409
1 1 1 1
1 1 1 1
0.99993 1 1 0.99993
1 1 1 1
1 1 1 1
1 1 1 1
0.747646 0.837267 0.93889 0.951081
0.78365 0.872863 0.93481 0.960401
0.830233 0.918199 0.946826 0.954977
0.709068 0.818688 0.916246 0.945273
0.925105 0.968846 0.965623 0.988847
1.00513 1.02603 0.982327 0.997253
0.939863 0.987299 0.974094 0.977271
0.761225 0.853808 0.927841 0.960903
0.653063 0.801054 0.870569 0.936462
0.955557 0.991211 0.971213 0.992603
0.916136 0.970725 0.97092 0.972031
0.753566 0.855063 0.919401 0.958558
0.725969 0.866321 0.889469 0.942125
0.932998 0.977623 0.963671 0.990332
0.896645 0.937073 0.985024 0.971404
0.774818 0.873241 0.928057 0.956073
0.778473 0.913229 0.901326 0.945762
1.00163 1 1.00329 0.998345
0.999254 1 1.0006 0.998653
0.999086 1 1 0.999086
0.998858 1 1 0.998858
0.998652 1 1.0004 0.998251
0.998972 1 1.00035 0.998622
0.998736 1 1 0.998736
0.998633 1 1 0.998633
0.998711 1 1.00001 0.998703
0.998881 1 1 0.998881
0.98548 1.0286 0.960152 0.997838
0.983728 1.00719 0.979144 0.997508
0.976225 1.00129 0.977072 0.997847
0.995727 1.00326 0.994567 0.997915
1.03484 1 1.03709 0.997832
1.00805 1 1.00989 0.998184
1.00546 1 1.00732 0.998151
1.00767 1 1.00959 0.998102
0.97942 1.00417 0.977248 0.998061
1.00728 1 1.00928 0.998018
1.02721 1 1.02926 0.998002
0.97115 1.00001 0.972675 0.998419
1.01061 1.00196 1.01049 0.998155
0.954 0.983378 0.971605 0.998477
0.986457 0.991992 0.995183 0.999233
1.03841 0.999668 1.04041 0.998408
1.00459 1 1.00657 0.998028
1.01695 1 1.01891 0.998074
0.85872 0.929173 0.958126 0.964567
0.777408 0.852439 0.954967 0.954987
0.780822 0.871054 0.93334 0.960433
1.00344 0.999899 1.0049 0.998647
1.01487 1.00048 1.01587 0.998527
0.985463 0.992717 0.993834 0.998851
0.757359 0.843027 0.94412 0.951554
0.894963 0.936866 0.983129 0.971666
0.893511 0.932554 0.970695 0.987058
0.959113 0.96085 0.999633 0.998559
0.771702 0.865597 0.928418 0.960264
0.842423 0.924452 0.953971 0.955235
0.77689 0.907051 0.901129 0.950475
1.00579 0.998922 1.0075 0.999386
0.846288 0.922713 0.952614 0.962797
0.820899 0.914316 0.935448 0.959785
0.991123 0.978099 1.01377 0.999551
0.929122 0.940365 0.996511 0.991504
0.878045 0.923826 0.979375 0.97046
0.808325 0.939667 0.905146 0.950372
0.829057 0.900003 0.962276 0.957284
1.00371 0.982171 1.02223 0.999711
0.829726 0.909018 0.941813 0.969165
0.843091 0.935502 0.937503 0.961296
0.778129 0.912152 0.901791 0.945973
0.96649 0.955022 1.0142 0.997834
0.92687 0.944057 1.00732 0.974664
0.869691 0.931821 0.973463 0.958768
1.00596 0.999192 1.00771 0.999068
1.02269 0.997689 1.0258 0.99927
1.02262 0.986036 1.03755 0.999566
0.999121 1 1.00083 0.998295
1.004 1 1.0056 0.998402
1.03677 0.999831 1.03772 0.999251
0.999319 1 1.00095 0.998373
1.03211 0.999506 1.03357 0.999079
1.04391 0.996446 1.04824 0.999421
1.03253 0.992991 1.04035 0.999489
1.02136 0.999136 1.02321 0.999058
0.999739 1 1.00124 0.998502
1.00127 1 1.00276 0.998518
1.00269 1 1.00401 0.998682
1.00587 0.99986 1.00708 0.998941
1.00044 1 1.00193 0.998514
1.00228 1 1.00342 0.998859
0.998201 1.00006 0.999369 0.998767
1.0018 1.00016 1.00401 0.997632
1.00017 1.00088 1.00084 0.998454
0.999132 1.00061 1.00057 0.997955
0.99851 1.00068 1.00101 0.996819
1.01161 1.01356 1.00129 0.99679
1.00187 1.00128 1.00276 0.997839
0.999897 1.00141 1.00138 0.997109
1.00707 1 1.00883 0.998255
1.00304 1.00029 1.00459 0.998166
0.998885 1 1.00065 0.99824
1.0024 1 1.00409 0.998314
1.00403 1 1.00556 0.99848
0.999657 1 1.00082 0.998838
1.00218 1 1.00359 0.9986
0.999243 1 1.00028 0.998962
0.999556 1 1 0.999556
0.999049 1 1 0.999049
0.999607 1 1 0.999607
0.999988 1 1 0.999988
0.999624 1 1 0.999624
0.99999 1 1 0.99999
1 1 1 1
0.999994 1 1 0.999994
1 1 1 1
1 1 1 1
0.998957 1 1 0.998957
0.999691 1 1 0.999691
0.999189 1 1 0.999189
1 1 1 1
0.999824 1 1 0.999824
0.999275 1 1 0.999275
1 1 1 1
1 1 1 1
0.999917 1 1 0.999917
1 1 1 1
1 1 1 1
1 1 1 1
0.845389 0.926261 0.948767 0.961975
0.744642 0.836836 0.933844 0.952869
0.780393 0.86893 0.935523 0.960006
0.998513 1 1 0.998513
0.826655 0.911951 0.94229 0.961984
0.828949 0.91776 0.945949 0.954842
0.712194 0.825193 0.911302 0.947066
0.963044 0.993934 0.977201 0.991527
0.914038 0.964266 0.971787 0.975431
0.757665 0.867032 0.913912 0.956175
0.721115 0.855206 0.893916 0.943272
0.930856 0.974454 0.967378 0.987473
0.894281 0.937211 0.979243 0.974421
0.784754 0.875258 0.937415 0.956458
0.774541 0.907427 0.901982 0.946313
0.89337 0.938012 0.967297 0.984608
0.891234 0.922997 0.993521 0.971884
0.8426 0.91232 0.964485 0.957588
0.808258 0.939013 0.906423 0.949615
1.00117 1 1.00306 0.998117
1.00285 1 1.00456 0.998302
0.998812 1 1.00011 0.998698
0.998329 1 1.00002 0.998313
0.99888 1 1.00056 0.998316
0.998663 1 1 0.998663
0.998639 1 1 0.998639
0.998765 1 1.00003 0.99874
0.975788 1.00481 0.972998 0.998063
0.969147 1.00073 0.969994 0.9984
1.00714 1 1.00909 0.998065
1.00788 1.00297 1.0068 0.998112
1.02902 1 1.0311 0.997987
1.00666 1 1.00867 0.99801
1.00481 1 1.00679 0.998039
0.958644 0.984065 0.97556 0.998572
1.0153 1 1.01722 0.998104
1.0278 1.00032 1.02908 0.998438
0.983361 0.992826 0.991175 0.999286
1.00665 1 1.0085 0.998157
0.952319 0.970845 0.982555 0.998333
1.00202 0.988591 1.01412 0.999472
1.04772 0.997261 1.05214 0.998538
1.00825 1 1.01001 0.998263
0.840361 0.912099 0.948226 0.971654
0.858076 0.929059 0.957567 0.964523
0.780742 0.851859 0.960259 0.954445
1.00375 0.998648 1.00577 0.999344
0.994393 0.98128 1.01398 0.999391
0.845314 0.923367 0.949461 0.964199
0.903462 0.926612 1.00084 0.974194
0.918783 0.937799 0.99127 0.988351
0.828882 0.900891 0.96241 0.956005
0.821664 0.915337 0.935241 0.95982
0.810243 0.940529 0.905796 0.951071
1.00741 0.988157 1.01982 0.999669
0.831319 0.910294 0.942327 0.969135
0.842058 0.933357 0.936549 0.963306
0.975288 0.960495 1.01594 0.999469
0.773598 0.906065 0.902121 0.946436
0.905834 0.928305 1.00322 0.972659
0.876695 0.939478 0.973779 0.9583
1.00326 0.977785 1.02631 0.999755
0.853207 0.929547 0.945065 0.971229
0.824415 0.909352 0.94222 0.962191
0.722102 0.860054 0.889023 0.944409
0.841674 0.912154 0.964061 0.95713
0.953814 0.952952 1.00562 0.99531
0.933759 0.941514 1.02323 0.969249
1.01982 0.998078 1.02262 0.999188
1.02493 0.987375 1.03852 0.999534
1.011 0.975668 1.03665 0.999582
0.999531 1 1.00115 0.998379
1.03387 0.999561 1.03527 0.999091
1.04528 0.99763 1.04839 0.999396
1.01618 0.999288 1.01788 0.999045
1.03253 0.99465 1.03861 0.999488
1.01175 0.990469 1.02226 0.999235
1.00471 1 1.0058 0.998913
1.00003 1 1.00151 0.998514
1.00447 1 1.00564 0.998839
1.00952 1 1.01137 0.998171
0.999028 1 1 0.999028
1.00014 1.00016 1.00217 0.997814
1.00168 1.00082 1.00433 0.996549
1.0054 1.0074 1.00188 0.996137
0.999589 1.00132 1.0004 0.99787
0.998889 1.00116 1.00109 0.996642
1.01277 1.01541 1.00053 0.996882
1.007 1.00702 1.00261 0.997373
1.01075 1.01265 1.00125 0.996877
1.00685 1 1.00881 0.998055
1.0038 1.00268 1.0033 0.997817
0.99877 1.00034 1.00128 0.997157
1.00253 1 1.00388 0.998656
1.00652 1 1.00826 0.998268
1.00394 1.00049 1.0053 0.998156
1.00372 1 1.00521 0.998515
1.00014 1 1.0013 0.998837
0.999457 1 1 0.999457
0.999437 1 1.00048 0.998962
0.999552 1 1 0.999552
0.999983 1 1 0.999983
0.999604 1 1 0.999604
0.999987 1 1 0.999987
1 1 1 1
0.999989 1 1 0.999989
1 1 1 1
1 1 1 1
0.998871 1 1 0.998871
0.999553 1 1 0.999553
0.999 1 1 0.999
1 1 1 1
0.999677 1 1 0.999677
0.999187 1 1 0.999187
1 1 1 1
1 1 1 1
0.999777 1 1 0.999777
1 1 1 1
1 1 1 1
1 1 1 1
0.835648 0.911723 0.944944 0.969961
0.848155 0.925912 0.952246 0.961959
0.745005 0.836977 0.93398 0.953032
0.998545 1 1 0.998545
0.998475 1 1 0.998475
0.998409 1 1 0.998409
0.842206 0.936858 0.935364 0.96109
0.823268 0.911437 0.938907 0.962038
0.828352 0.917192 0.945978 0.954714
0.93565 0.978554 0.966354 0.989447
0.882118 0.9326 0.973825 0.971293
0.774566 0.858717 0.939596 0.959992
0.786831 0.916695 0.908205 0.945088
0.896022 0.94196 0.963515 0.987251
0.896564 0.926784 0.994934 0.972318
0.821286 0.889039 0.963791 0.958496
0.807804 0.939817 0.904529 0.950255
0.891372 0.931112 0.971771 0.985129
0.911277 0.932398 1.00411 0.973343
0.869371 0.929958 0.974837 0.95898
0.788371 0.918025 0.905494 0.948398
0.998806 1 1.00063 0.998176
1.00183 1 1.00375 0.998089
1.00278 1 1.00453 0.998258
0.998314 1 1.00001 0.998303
0.99872 1 1.00034 0.998382
0.998646 1 1 0.998646
0.961801 0.981923 0.980832 0.998649
0.978654 0.991946 0.987269 0.999323
1.005 1 1.00696 0.998049
1.01951 1.00052 1.02054 0.998468
1.016 1 1.0179 0.998134
1.00849 1 1.01037 0.998142
1.00854 0.999846 1.01042 0.998289
0.959005 0.971 0.989203 0.998426
1.04645 0.996963 1.05103 0.998679
1.00616 0.98463 1.02249 0.999391
1.008 0.999984 1.00959 0.998442
0.977853 0.963389 1.01683 0.998214
1.00649 0.978981 1.02871 0.999407
1.03487 0.991734 1.04475 0.998795
0.865856 0.934356 0.951829 0.973586
0.841706 0.912579 0.948756 0.972156
0.857509 0.928883 0.957162 0.964478
1.01248 0.994243 1.01872 0.999627
0.96423 0.95751 1.00869 0.998343
0.832896 0.911357 0.943043 0.969105
0.901108 0.916761 1.0064 0.976674
0.871269 0.936617 0.972205 0.956826
0.842082 0.931759 0.936229 0.965313
0.787771 0.915996 0.909768 0.945313
0.998972 0.975054 1.02475 0.999782
0.854319 0.929366 0.945758 0.971971
0.824727 0.911491 0.94031 0.962247
0.950108 0.948557 1.01005 0.991673
0.72428 0.864629 0.888855 0.942423
0.816355 0.887516 0.960333 0.957814
0.943342 0.947243 1.02295 0.973536
1.00175 0.961654 1.04276 0.998975
0.836436 0.911093 0.946355 0.970099
0.836931 0.922912 0.949251 0.955319
0.64851 0.779365 0.8801 0.945461
0.769175 0.867935 0.926971 0.95603
0.909699 0.929198 1.00653 0.972663
0.928814 0.944042 0.994744 0.989068
1.02831 0.988636 1.04065 0.999501
1.01502 0.982246 1.0338 0.999586
1.01269 0.987227 1.02629 0.999518
1.01082 0.999597 1.01221 0.999032
1.03079 0.995836 1.03563 0.999487
1.01524 0.988639 1.0276 0.999319
1.00862 1 1.00982 0.998816
1.00674 1 1.00793 0.998818
1.00802 1.00003 1.01001 0.998001
1.01869 1.00082 1.02122 0.996702
0.998385 1.00005 1.00033 0.997999
1.00316 1.00118 1.00547 0.996538
1.00422 1.00251 1.00605 0.995679
1.00542 1.00782 1.00191 0.995721
1.0075 1.00996 1.00108 0.99649
1.00522 1.00726 1.00189 0.996087
0.999131 1.00143 1.00124 0.996466
1.00562 1.00736 1.0011 0.997177
1.01292 1.01551 1.00048 0.996967
1.00238 1.00009 1.00464 0.997664
1.00822 1.00805 1.00274 0.997437
1.01049 1.01238 1.00117 0.996964
1.0072 1 1.00885 0.99836
1.00613 1.00013 1.00796 0.998053
1.00588 1.00429 1.0038 0.997795
0.999506 1 1.00018 0.999322
1.00214 1 1.00349 0.998654
1.00566 1 1.00739 0.998281
1.00004 1 1.00121 0.998836
0.999477 1 1.00003 0.999452
0.999969 1 1 0.999969
0.999548 1 1 0.999548
0.99998 1 1 0.99998
1 1 1 1
0.999986 1 1 0.999986
1 1 1 1
1 1 1 1
0.998838 1 1 0.998838
0.999537 1 1 0.999537
0.998897 1 1 0.998897
0.999999 1 1 0.999999
0.999595 1 1 0.999595
0.999043 1 1 0.999043
1 1 1 1
1 1 1 1
0.999663 1 1 0.999663
1 1 1 1
1 1 1 1
1 1 1 1
0.852699 0.929514 0.94469 0.971071
0.83765 0.912448 0.946479 0.969937
0.849602 0.925028 0.954769 0.961973
0.999336 1 1.00096 0.998375
0.999467 1 1.00123 0.998236
0.998579 1 1 0.998579
0.998464 1 1 0.998464
0.998399 1 1 0.998399
0.99839 1 1 0.99839
0.998352 1 1 0.998352
0.821152 0.916717 0.933549 0.959515
0.843798 0.934783 0.937228 0.963123
0.82141 0.91006 0.93815 0.962095
0.808022 0.940756 0.903248 0.95091
0.889662 0.937148 0.963865 0.984918
0.896332 0.923319 0.997969 0.972747
0.829964 0.89995 0.961163 0.959497
0.883086 0.932044 0.962677 0.984207
0.90874 0.925323 1.01216 0.970277
0.875575 0.93868 0.972724 0.958929
0.773915 0.905446 0.899459 0.950274
0.905448 0.935485 0.980895 0.986744
0.920806 0.934274 1.01614 0.969933
0.819401 0.896277 0.955777 0.956528
0.740997 0.873847 0.897268 0.945058
1.01245 1 1.01405 0.998424
1.0002 1 1.00201 0.998191
1.00291 1 1.00486 0.998062
0.998293 1 1 0.998293
0.965807 0.971328 0.995762 0.998548
1.00843 0.982654 1.02694 0.999306
1.00754 1 1.00944 0.998127
1.00814 1 1.00984 0.998315
1.03931 0.99532 1.04543 0.998821
1.00633 1 1.00791 0.998438
1.03555 0.991584 1.04561 0.998782
0.976076 0.962784 1.01686 0.996997
1.00457 0.970352 1.03573 0.999549
1.01262 0.992002 1.02189 0.99891
0.955698 0.934354 1.02627 0.996663
1.01566 0.970718 1.04703 0.999296
0.84135 0.911703 0.949673 0.971738
0.863819 0.933617 0.949314 0.97464
0.842703 0.912792 0.949169 0.972655
0.993618 0.970506 1.02402 0.999805
0.95624 0.953034 1.00777 0.995627
0.85359 0.928247 0.945361 0.972721
0.941499 0.950437 1.02137 0.969867
0.821014 0.894325 0.95741 0.958864
0.824448 0.913057 0.938329 0.9623
0.720445 0.853698 0.8944 0.94355
1.0033 0.964115 1.04154 0.999143
0.837139 0.913194 0.944991 0.970079
0.831723 0.919058 0.947432 0.955186
0.931393 0.944161 0.994883 0.991551
0.64927 0.788616 0.874625 0.94132
0.776997 0.868835 0.935291 0.956171
0.908737 0.926022 1.01105 0.970608
0.996063 0.969547 1.02985 0.997574
0.846473 0.927539 0.948402 0.962251
0.713611 0.821074 0.917611 0.947154
0.742333 0.848243 0.910876 0.96077
0.881783 0.912856 0.992529 0.973231
0.89684 0.926689 0.981977 0.985552
1.0189 0.986231 1.03355 0.99959
1.01328 0.984174 1.03007 0.999517
0.986655 0.981782 1.00564 0.999325
1.0194 0.987068 1.03337 0.999402
1.00629 0.993307 1.01418 0.998899
1.00191 1.0008 1.00331 0.997815
1.0068 1.00003 1.00897 0.997831
1.0166 1.00075 1.0193 0.996604
1.00944 1.00044 1.01328 0.995778
1.00481 1.00184 1.00646 0.996526
1.00481 1.00228 1.00696 0.99559
1.00202 1.0022 1.00448 0.995367
1.01838 1.02261 1 0.995866
1.01221 1.0155 1.00077 0.995996
1.00577 1.00795 1.00218 0.995665
1.00435 1.00746 1.00013 0.996786
1.00635 1.00908 1.00074 0.996553
1.00498 1.00707 1.0019 0.996038
1.00228 1.00395 1.00112 0.997226
1.00566 1.00744 1.00108 0.997154
1.01279 1.01535 1.00043 0.997051
1.00554 1.00001 1.00757 0.997973
1.00285 1.00052 1.00462 0.997725
1.00923 1.00885 1.00288 0.997501
1.00109 1 1.00202 0.999074
1.00588 1 1.00753 0.998365
1.00538 1.00025 1.00709 0.998052
0.999946 1 1 0.999946
0.999897 1 1.00058 0.999315
1.00213 1 1.00349 0.998652
0.999659 1 1.00021 0.999447
0.999963 1 1 0.999963
1 1 1 1
0.999976 1 1 0.999976
1 1 1 1
1 1 1 1
1.0012 1 1.00284 0.998364
0.998716 1 1.00001 0.998708
0.999426 1 1 0.999426
0.998835 1 1 0.998835
0.999989 1 1 0.999989
0.999539 1 1 0.999539
0.998923 1 1 0.998923
1 1 1 1
0.999999 1 1 0.999999
0.999636 1 1 0.999636
1 1 1 1
1 1 1 1
1 1 1 1
0.829079 0.909092 0.941123 0.96904
0.851269 0.927742 0.944171 0.971828
0.838537 0.91442 0.945466 0.969908
0.999326 1 1.00094 0.998387
1.00028 1 1.00205 0.998236
1.00019 1 1.00192 0.998272
0.999149 1 1.0009 0.998246
1.0051 1 1.00692 0.998196
0.998453 1 1 0.998453
0.998389 1 1 0.998389
0.998392 1 1 0.998392
0.998357 1 1 0.998357
1.00722 1 1.00882 0.998411
0.824782 0.910593 0.948115 0.955331
0.822045 0.916319 0.934892 0.959594
0.845104 0.933887 0.937609 0.965148
0.776392 0.908065 0.899574 0.950445
0.872075 0.93549 0.973964 0.957132
0.877051 0.927104 0.962496 0.982874
0.917694 0.933968 1.00984 0.972999
0.902686 0.938456 0.977702 0.983821
0.930625 0.944593 1.0125 0.973045
0.832357 0.900822 0.964404 0.958102
0.740321 0.879583 0.89157 0.944034
0.916452 0.931163 0.998129 0.986047
0.913737 0.927838 1.01145 0.973652
0.754133 0.843711 0.931488 0.95957
0.67995 0.819534 0.878067 0.944891
1.0118 1 1.01283 0.998982
1.01369 1 1.01528 0.998431
1.00282 1 1.00462 0.998206
0.977317 0.965125 1.01697 0.995733
1.00716 0.964535 1.04451 0.9997
1.00616 1 1.00774 0.998434
1.03801 0.991385 1.04832 0.998769
1.01388 0.994924 1.02016 0.998916
1.02091 0.977171 1.04551 0.999285
0.961721 0.944541 1.02164 0.996623
1.01784 0.993537 1.02513 0.999345
0.974015 0.960385 1.01725 0.996996
0.85724 0.928738 0.957259 0.964227
0.843504 0.912919 0.950354 0.972231
0.861717 0.932672 0.946937 0.975697
1.00547 0.969854 1.03746 0.99929
0.927976 0.942146 0.99745 0.987478
0.840155 0.915309 0.94623 0.970051
0.912631 0.934228 1.00666 0.970416
0.765694 0.850528 0.938084 0.959676
0.826744 0.915161 0.945883 0.955072
0.65273 0.799942 0.870742 0.9371
0.995044 0.968344 1.02986 0.997779
0.847785 0.925498 0.95199 0.962228
0.709326 0.818616 0.916098 0.945854
0.904075 0.93434 0.980396 0.986957
0.754785 0.855804 0.919676 0.95899
0.875733 0.917667 0.98267 0.971133
0.957479 0.957216 1.00409 0.996204
0.747922 0.83808 0.93787 0.951542
0.751412 0.847565 0.922307 0.961236
0.893018 0.936676 0.981363 0.971496
0.875126 0.923628 0.959232 0.987756
1.01209 0.981437 1.03174 0.999515
0.990528 0.980522 1.01091 0.999299
0.996034 0.993963 1.00362 0.998472
1.00367 0.985964 1.019 0.998979
1.00142 1.00085 1.00267 0.997898
0.998029 1.00199 0.999119 0.99693
1.01431 1.00067 1.01719 0.996504
1.00802 1.0007 1.01158 0.995784
0.999148 1.0018 1.00137 0.995988
1.00508 1.00195 1.00766 0.995501
1.00216 1.00309 1.0037 0.995399
1.01665 1.02065 1 0.99608
1.03849 1.04221 1 0.996429
1.02802 1.03219 1.00002 0.995944
1.01837 1.02257 1 0.995894
1.01366 1.01744 1 0.996279
1.01074 1.01377 1.00107 0.995944
1.00624 1.00822 1.00244 0.995609
1.00571 1.00879 1 0.996946
1.00288 1.00601 1.00002 0.99686
1.00497 1.00806 1.00032 0.996617
1.00066 1.00099 1.00208 0.99759
1.00226 1.00371 1.0013 0.997261
1.00585 1.00764 1.0011 0.997131
1.00626 1 1.00762 0.998652
1.00584 1.00023 1.00764 0.997976
1.00333 1.00082 1.00473 0.997785
0.999898 1 1 0.999898
1.00195 1 1.00289 0.999066
1.00522 1 1.00686 0.998369
0.999999 1 1 0.999999
0.999935 1 1 0.999935
1.00016 1 1.00085 0.999308
0.999957 1 1 0.999957
1 1 1 1
1 1 1 1
1.00438 1 1.00612 0.998273
0.999841 1 1.00127 0.99857
1.00165 1 1.00331 0.998345
0.999313 1 1 0.999313
0.998942 1 1.00024 0.998706
0.999969 1 1 0.999969
0.99943 1 1 0.99943
0.998832 1 1 0.998832
1 1 1 1
0.999993 1 1 0.999993
0.999542 1 1 0.999542
1 1 1 1
1 1 1 1
1 1 1 1
0.845254 0.924334 0.948073 0.964532
0.832185 0.91129 0.942394 0.969016
0.851414 0.925674 0.945701 0.972588
0.998838 1.00017 1.00039 0.99828
0.999825 1 1.00143 0.998398
1.00065 1 1.00241 0.998237
0.998975 1 1.00073 0.998243
1.00005 1 1.00176 0.998294
1.00319 1 1.00492 0.998276
1.01117 1 1.01325 0.997947
1.01334 1 1.01513 0.998233
0.998394 1 1 0.998394
0.998362 1 1 0.998362
1.00684 1 1.00846 0.998396
1.01993 0.999667 1.02169 0.998608
0.720056 0.825172 0.921912 0.946525
0.835237 0.920424 0.950099 0.95511
0.822985 0.91617 0.936055 0.959654
0.732059 0.871398 0.887887 0.946177
0.83409 0.904953 0.962861 0.957246
0.924396 0.937648 1.01636 0.969998
0.903476 0.931432 0.985227 0.984531
0.914864 0.930608 0.995006 0.988016
0.666843 0.810618 0.874357 0.940846
0.907889 0.925826 1.01012 0.970801
0.772811 0.864276 0.933999 0.957358
0.914492 0.938776 0.984893 0.989074
0.899484 0.92721 0.995246 0.974731
0.743198 0.849311 0.912103 0.959387
0.998609 1 0.999067 0.999541
1.01134 1 1.01237 0.998989
1.0136 1 1.01519 0.998437
0.960364 0.94528 1.01937 0.99665
1.02612 0.983418 1.04418 0.999273
1.01421 0.997237 1.01812 0.998924
1.01771 0.994619 1.02389 0.999344
0.971018 0.959367 1.01515 0.997041
0.993481 0.98702 1.00857 0.997992
0.776768 0.852766 0.956288 0.952517
0.854581 0.927967 0.953291 0.966041
0.843372 0.913469 0.949159 0.972718
0.996224 0.967426 1.03191 0.997924
0.894212 0.929703 0.973687 0.987818
0.846756 0.923527 0.952853 0.962239
0.881078 0.910123 0.995665 0.972301
0.760891 0.869855 0.914323 0.956701
0.712995 0.825474 0.911489 0.947615
0.95823 0.954931 1.00721 0.996275
0.744989 0.83736 0.933274 0.953297
0.75325 0.85047 0.923448 0.959109
0.875889 0.924549 0.962156 0.984631
0.892604 0.939554 0.974916 0.974473
0.949691 0.965844 0.985095 0.998154
0.774413 0.862777 0.935758 0.959204
0.923552 0.973223 0.972365 0.975932
0.886475 0.937849 0.960207 0.984394
0.993825 0.978899 1.01598 0.999278
0.987917 0.993748 0.995559 0.998566
0.994179 1.00132 0.995222 0.997636
1.00166 1.00095 1.00273 0.997981
1.00134 1.00243 1.002 0.996912
1.00025 1.00391 0.999428 0.996922
1.00672 1.00093 1.01004 0.99579
0.999017 1.00136 1.00167 0.995998
1.02157 1.02564 0.999167 0.996868
1.00257 1.00398 1.00319 0.995431
1.01563 1.01961 1 0.996091
1.03902 1.04247 0.999676 0.997012
1.0419 1.04498 1 0.997053
1.04114 1.04496 1 0.996345
1.03865 1.04233 1 0.996472
1.02922 1.03319 1 0.996164
1.02653 1.03065 1 0.996001
1.01817 1.02234 1 0.995921
1.01783 1.02128 1 0.996629
1.01385 1.01747 1.00014 0.996306
1.0094 1.01207 1.00148 0.995891
1.00207 1.00481 1 0.99727
1.00593 1.00902 1 0.99694
1.0015 1.00458 1 0.996934
1.0033 1.00012 1.00496 0.99822
1.00187 1.00195 1.00234 0.997587
1.002 1.00327 1.00145 0.997295
1.00038 1 1.00061 0.999777
1.00437 1 1.00573 0.998649
1.00518 1.00049 1.00673 0.997979
1 1 1 1
0.999889 1 1.00001 0.999879
1.00208 1 1.00303 0.999058
1 1 1 1
0.999926 1 1 0.999926
1 1 1 1
0.999805 1.00004 1.0016 0.99817
1.00303 1 1.00478 0.99826
1.00303 1 1.0046 0.998432
0.999779 1 1.00059 0.999194
1.00017 1 1.0016 0.998568
1.00115 1 1.00283 0.998326
0.99994 1 1 0.99994
0.999317 1 1 0.999317
0.998789 1 1.00008 0.998704
1 1 1 1
0.999975 1 1 0.999975
0.999434 1 1 0.999434
1 1 1 1
0.999996 1 1 0.999996
1 1 1 1
0.751588 0.837765 0.945618 0.948728
0.845901 0.924869 0.948237 0.964544
0.835564 0.913751 0.943694 0.968993
1.00125 1.00002 1.00298 0.99826
1.00463 1.00175 1.00492 0.997975
1.00902 1 1.01093 0.998111
0.999896 1 1.00166 0.998239
0.999788 1 1.00148 0.998315
1.00335 1 1.005 0.998355
1.0118 1 1.01362 0.998202
1.01063 1 1.01267 0.99799
1.01243 1.00024 1.01435 0.997868
0.988879 1.00069 0.989216 0.998974
1.00538 1 1.00701 0.998382
1.01606 0.999748 1.01776 0.998581
0.75302 0.846667 0.92929 0.957067
0.706403 0.812822 0.920361 0.944275
0.842375 0.926277 0.952308 0.954964
0.654755 0.800654 0.873042 0.936696
0.774331 0.865202 0.932506 0.959748
0.897102 0.921166 1.00112 0.97279
0.921352 0.936519 0.99831 0.98547
0.905021 0.932116 0.983818 0.986901
0.744519 0.843117 0.921643 0.958132
0.882252 0.916877 0.989691 0.972259
0.89461 0.937799 0.965446 0.988088
0.881814 0.938739 0.966434 0.971986
1.00353 1 1.00451 0.999021
0.998182 1 0.998697 0.999485
1.01106 1 1.01208 0.998994
0.968735 0.95921 1.01288 0.997087
1.01751 0.995434 1.02285 0.999344
0.994228 0.988123 1.00827 0.997926
0.980826 0.99195 0.991737 0.997023
0.78459 0.879832 0.9266 0.962389
0.777153 0.851511 0.957446 0.95324
0.855484 0.929159 0.951317 0.967824
0.961023 0.96153 1.00306 0.996426
0.878319 0.924545 0.964298 0.985174
0.745781 0.838052 0.933362 0.953433
0.87822 0.931622 0.970238 0.971596
0.76367 0.856278 0.927593 0.961465
0.953405 0.968336 0.987371 0.997175
0.783571 0.872416 0.934854 0.960751
0.919397 0.973699 0.971199 0.972233
0.890985 0.940158 0.960288 0.986888
0.960029 0.985186 0.976378 0.998041
0.927091 0.980157 0.969838 0.975275
0.93027 0.977659 0.962092 0.989021
0.979 0.992514 0.98772 0.998647
0.990795 1.00173 0.99145 0.997608
0.981683 1.00755 0.976772 0.9975
1.00323 1.00278 1.00356 0.996894
0.99961 1.00406 0.998648 0.996918
1.0224 1.03342 0.991763 0.997556
0.998744 1.00088 1.00186 0.996008
1.02076 1.02546 0.998565 0.996849
1.03597 1.04468 0.994066 0.997582
1.01462 1.01859 1 0.996103
1.03815 1.04205 0.999249 0.997007
1.04111 1.04597 0.997807 0.997541
1.03906 1.04195 0.999808 0.997418
1.0428 1.04588 0.99993 0.997122
1.04131 1.04454 1 0.996905
1.04256 1.04631 1 0.996409
1.04119 1.04499 1 0.99636
1.039 1.04264 1 0.996515
1.03013 1.03384 1 0.996413
1.03088 1.03481 1 0.996195
1.02502 1.02907 1 0.996059
1.01138 1.01445 1 0.99698
1.01689 1.02034 1 0.996625
1.01397 1.01753 1.00017 0.996333
0.998858 1.00067 1.00026 0.997927
1.00369 1.00644 1 0.997266
1.00663 1.00972 1 0.996934
1.00139 1 1.00184 0.99955
1.00289 1.00028 1.0044 0.998221
1.00361 1.00302 1.003 0.997585
1 1 1 1
1.00115 1 1.0014 0.999753
1.0037 1 1.00506 0.998646
0.999998 1 1 0.999998
1.00032 1 1.00045 0.999865
1 1 1 1
0.99861 1.00054 1 0.998069
1.00108 1.00008 1.00282 0.998185
1.00365 1 1.00536 0.998297
1.00116 1 1.00292 0.998247
1.00313 1 1.00471 0.998432
1.00114 1 1.0021 0.999044
0.999903 1 1 0.999903
0.999637 1 1.00044 0.999197
1.00104 1 1.00248 0.998566
1 1 1 1
0.999949 1 1 0.999949
0.999322 1 1 0.999322
1 1 1 1
0.999982 1 1 0.999982
1 1 1 1
0.783139 0.868108 0.939068 0.960656
0.754367 0.84033 0.945726 0.949222
0.845573 0.924891 0.947843 0.964549
1.00399 1 1.00576 0.99824
1.01126 1 1.01332 0.997967
1.0027 1.00107 1.00359 0.998049
1.00131 1.00329 1.00082 0.997215
1.01119 1.00107 1.01218 0.997961
1.0106 1 1.01245 0.998172
1.00873 1 1.01071 0.998033
1.01564 1.00046 1.01727 0.997941
0.99926 1.00161 1 0.997653
0.978826 1.00135 0.978885 0.998587
0.978628 1.00035 0.980516 0.997724
0.98911 1.00065 0.989445 0.999014
1.01042 1 1.01189 0.998554
0.908877 0.964988 0.966861 0.974135
0.750062 0.842736 0.928887 0.958169
0.705797 0.813862 0.917762 0.944929
0.742577 0.845701 0.918759 0.955704
0.893431 0.927978 0.990538 0.971968
0.90885 0.928563 0.989492 0.989164
0.895786 0.936841 0.966126 0.989702
0.897926 0.942449 0.976754 0.975433
0.922365 0.97078 0.960871 0.988819
0.994327 1.00132 0.99479 0.998218
1.00334 1 1.00434 0.998999
0.99801 1 0.99858 0.999428
0.995977 0.990564 1.00758 0.997898
0.986868 0.995464 0.994146 0.997202
0.903072 0.967204 0.957913 0.974716
0.792669 0.878255 0.9376 0.962617
0.776905 0.848878 0.959351 0.953993
0.959179 0.973564 0.989041 0.996141
0.894298 0.943883 0.962324 0.984562
0.782032 0.869345 0.93671 0.960346
0.913734 0.964387 0.971399 0.975373
0.967754 0.984943 0.984402 0.998116
0.936176 0.989634 0.969052 0.976192
0.926807 0.973742 0.964742 0.986585
0.980799 1.00411 0.979222 0.997509
0.953856 0.993681 0.967282 0.992391
0.991724 1.00428 0.989869 0.997602
0.981039 1.00724 0.976479 0.997451
0.997085 1.03394 0.966493 0.997784
0.999072 1.00405 0.998123 0.996914
1.02318 1.03384 0.992137 0.99753
1.03361 1.05248 0.984174 0.997859
1.01985 1.02526 0.99788 0.996831
1.03545 1.04482 0.99346 0.997559
1.03158 1.0448 0.98954 0.997783
1.03711 1.0415 0.998782 0.997001
1.04107 1.04642 0.997356 0.99752
1.03867 1.04481 0.996502 0.997616
1.03944 1.04243 0.999653 0.997472
1.03772 1.04074 0.999868 0.99723
1.04355 1.04666 0.999836 0.997192
1.04121 1.04445 1 0.996897
1.04338 1.04683 1 0.996708
1.03962 1.04332 1 0.996456
1.04236 1.04613 1 0.996398
1.04123 1.04502 1 0.996376
1.02396 1.02728 1 0.996765
1.02969 1.03339 1 0.996424
1.03259 1.0365 1 0.996226
1.00098 1.00328 1 0.997708
1.01181 1.01488 1 0.996977
1.01579 1.01923 1 0.996621
1.00024 1 1.00095 0.999288
0.999739 1.00132 1.00049 0.997927
1.00507 1.00783 1 0.997263
1 1 1 1
1.00127 1 1.00175 0.999525
1.00203 1.00042 1.00338 0.998222
1 1 1 1
1.00133 1 1.0016 0.999728
1 1 1 1
1.00248 1.00516 1 0.997334
0.998813 1.00076 1 0.998058
1.00027 1 1.00218 0.998093
1.0028 1 1.00461 0.998201
1.0031 1 1.00485 0.998267
1.00268 1 1.00386 0.998823
1.00352 1 1.0051 0.998431
1.00066 1 1.00162 0.999045
0.999853 1 1 0.999853
1 1 1 1
0.999913 1 1 0.999913
0.999421 1 1.00022 0.999199
1 1 1 1
0.999957 1 1 0.999957
1 1 1 1
0.927119 0.981186 0.966923 0.97722
0.7824 0.874171 0.930916 0.96144
0.759943 0.843946 0.949814 0.948043
1.01267 1 1.01488 0.997823
1.00061 1.00061 1.00188 0.998124
1.00921 1.00096 1.01033 0.997923
1.00275 1.00439 1.00108 0.997292
1.01144 1.0145 1.00016 0.996815
0.999499 1.00195 1 0.997552
1.02008 1.00078 1.02131 0.998012
0.999643 1.0022 1 0.997452
0.984822 1.00163 0.984627 0.998569
0.995443 1.00134 0.996443 0.997662
0.97557 1.00328 0.974498 0.997828
0.995294 1.00129 0.996685 0.997319
0.980197 1.00082 0.981501 0.997855
0.993056 1.00053 0.993464 0.999056
0.928388 0.976744 0.961206 0.988855
0.914254 0.970019 0.967318 0.974355
0.753767 0.84409 0.92922 0.961015
0.900767 0.945345 0.98079 0.971508
0.900595 0.936056 0.971173 0.990675
0.925228 0.967716 0.963715 0.992094
0.986701 1.00377 0.985453 0.997509
0.992265 1.00067 0.993393 0.998196
1.00316 1 1.00418 0.998978
0.988682 0.997867 0.993416 0.997362
0.939807 0.973949 0.975536 0.989143
0.918509 0.97405 0.964 0.978194
0.780578 0.872192 0.931805 0.960459
0.967463 0.98095 0.988044 0.998186
0.93004 0.978139 0.962144 0.988236
0.94075 0.987866 0.974677 0.977047
0.973081 1.00234 0.973195 0.997553
0.952514 0.989742 0.97051 0.991629
0.974192 1.02439 0.953373 0.997509
0.995461 1.01673 0.982544 0.996475
0.979597 1.00694 0.975389 0.997396
0.995273 1.03241 0.966175 0.997778
1.0044 1.05393 0.955116 0.997796
1.02457 1.03485 0.992547 0.997504
1.03337 1.05227 0.984167 0.99784
1.02863 1.04871 0.983081 0.997734
1.03536 1.04519 0.993042 0.997535
1.03135 1.04414 0.98996 0.997764
1.03805 1.05006 0.990953 0.997586
1.04121 1.04697 0.996995 0.997499
1.03669 1.04281 0.996513 0.997608
1.03885 1.04384 0.997878 0.997336
1.03987 1.04293 0.999537 0.997526
1.0381 1.04107 0.999874 0.997275
1.04182 1.04505 1 0.996909
1.04118 1.04443 1 0.996888
1.0434 1.04686 1 0.996697
1.04191 1.04543 1 0.996632
1.03195 1.03541 1 0.996664
1.03966 1.04335 1 0.99646
1.04211 1.04589 1 0.996386
1.00631 1.00882 1 0.997513
1.02307 1.02639 1 0.996768
1.02923 1.03292 1 0.996434
0.999201 1 1.00013 0.999073
1.00244 1.00474 1 0.997705
1.01211 1.01519 1 0.996975
1 1 1 1
0.999994 1 1.00072 0.999272
1.00051 1.00194 1.00065 0.997928
1 1 1 1
1.00133 1 1.00183 0.999501
1 1 1 1
1.01266 1.01579 1 0.996913
1.00425 1.00691 1 0.99736
1.004 1.00572 1.00066 0.997632
0.998838 1.00079 1 0.998046
1.0001 1 1.00205 0.998051
1.00181 1 1.00328 0.99853
1.00258 1 1.00435 0.998237
1.00262 1 1.0038 0.998825
1.00066 1 1.00088 0.999777
1.0004 1 1.00135 0.999046
0.999863 1 1 0.999863
1 1 1 1
1 1 1 1
0.999924 1 1 0.999924
1 1 1 1
0.930778 0.97691 0.962871 0.989518
0.918868 0.98055 0.961918 0.974194
0.775185 0.86709 0.92876 0.962582
1.02642 1.02984 1.00007 0.996615
1.00737 1.00067 1.00883 0.997886
1.00417 1.00546 1.00135 0.99737
0.999311 1.00178 1 0.997532
1.01069 1.01351 1.00042 0.996797
1.00276 1.00542 0.999889 0.997464
0.999614 1.00237 1 0.997251
0.98681 1.00133 0.98693 0.998551
0.993318 1.00159 0.994057 0.997675
0.969268 1.00222 0.969326 0.997727
1.00271 1.00976 0.995997 0.997014
1.00047 1.00687 0.996295 0.997341
0.99612 1.00195 0.996887 0.997282
0.98084 1.00134 0.981509 0.997985
0.984998 1.00613 0.980958 0.998004
0.923882 0.974894 0.959573 0.9876
0.915829 0.971615 0.966758 0.974996
0.918977 0.961665 0.965322 0.989939
0.9894 1.00537 0.985905 0.998188
0.992261 1.0002 0.993884 0.998167
0.985974 1.00668 0.983211 0.996153
0.925704 0.959827 0.973622 0.990578
0.905909 0.970828 0.957217 0.974836
0.969437 1.00027 0.971508 0.997597
0.959826 0.991724 0.976993 0.990627
0.977772 1.02547 0.955767 0.997611
0.997279 1.01638 0.984429 0.996725
0.993144 1.03931 0.957845 0.997631
1.0425 1.05488 0.990752 0.997485
0.992548 1.03031 0.9655 0.997773
1.00836 1.05527 0.957667 0.997783
1.01746 1.05943 0.962701 0.997592
1.03233 1.05154 0.983878 0.997821
1.02695 1.04761 0.982508 0.99773
1.03713 1.05586 0.984757 0.997471
1.03082 1.04333 0.990234 0.997746
1.0368 1.04893 0.990817 0.997599
1.04084 1.04936 0.994573 0.997285
1.03467 1.04083 0.996476 0.997601
1.03937 1.04432 0.997922 0.997335
1.04402 1.04742 0.999737 0.997009
1.03844 1.04136 0.999878 0.997321
1.04217 1.04536 1 0.996951
1.0439 1.04737 1 0.996688
1.0434 1.04687 1 0.996685
1.04168 1.04522 1 0.996614
1.03488 1.03832 1 0.996689
1.01162 1.01427 1 0.997391
1.03125 1.03468 1 0.996681
1.0397 1.04339 1 0.996464
0.998926 1 1 0.998926
1.00793 1.01044 1 0.997512
1.02238 1.02569 1 0.996771
1 1 1 1
0.999066 1 1.00001 0.99906
1.00403 1.00634 1 0.997703
1 1 1 1
0.999622 1 1.00037 0.999255
1 1 1 1
1.02557 1.02906 1 0.99661
1.01408 1.01721 1 0.996912
1.01186 1.01467 1 0.997235
1.00598 1.00861 1.00001 0.997386
1.00277 1.0046 1.00056 0.997626
1.0015 1.00136 1.00193 0.998214
0.999826 1 1.00182 0.998008
1.00277 1 1.00425 0.998531
1.0012 1 1.00155 0.999651
1.00205 1 1.00323 0.998826
1.00013 1 1.00034 0.999788
1 1 1 1
0.999873 1 1 0.999873
1 1 1 1
1 1 1 1
0.98063 1.01057 0.972533 0.997783
0.925241 0.97401 0.962322 0.987122
0.916195 0.970852 0.965352 0.977572
1.01806 1.02109 1.00001 0.997022
1.0365 1.03997 1 0.996665
1.02437 1.02764 1.00013 0.996682
0.999374 1.00187 1 0.997512
1.0101 1.01262 1.00073 0.996778
1.00363 1.00721 0.999003 0.997437
1.0194 1.02408 0.998455 0.996965
0.992303 1.0024 0.992226 0.997687
0.96562 1.00171 0.966267 0.997625
1.00396 1.01147 0.995458 0.9971
1.02214 1.03003 0.995504 0.996824
1.00593 1.02468 0.984086 0.997579
1.00299 1.00869 0.997041 0.997302
0.99749 1.00262 0.997628 0.997244
0.989482 1.00796 0.983398 0.998236
0.927432 0.977153 0.962359 0.986239
0.98934 1.0058 0.984729 0.998888
1.02237 1.04244 0.982609 0.998098
0.983795 1.00539 0.982178 0.996275
0.929681 0.970608 0.969064 0.988411
0.98076 1.02687 0.957292 0.997707
0.998993 1.01648 0.98576 0.996989
0.991394 1.03989 0.955501 0.997762
1.04217 1.0563 0.989093 0.9975
1.0368 1.06577 0.975266 0.99749
1.06888 1.08397 0.988433 0.997623
1.0125 1.05737 0.959705 0.997769
1.02271 1.06044 0.966744 0.997592
1.04047 1.06512 0.979434 0.997374
1.02559 1.04667 0.982089 0.997726
1.03693 1.05502 0.98535 0.99747
1.04123 1.05484 0.989822 0.997251
1.0356 1.04781 0.990716 0.997612
1.04133 1.04984 0.994599 0.997282
1.04642 1.05148 0.998176 0.997012
1.03986 1.04476 0.997967 0.997333
1.04433 1.04772 0.999753 0.997008
1.04691 1.05037 1 0.99671
1.04253 1.04567 1 0.996992
1.04342 1.04687 1 0.996702
1.03748 1.04094 1 0.99667
1.0415 1.04505 1 0.996596
1.03478 1.03822 1 0.996686
1.01384 1.01657 1 0.997323
0.999023 1.00016 1 0.998863
1.01216 1.01481 1 0.99739
1.03058 1.03399 1 0.996698
1 1 1 1
0.998955 1.00004 1 0.998914
1.0095 1.01202 1 0.997512
1 1 1 1
0.999047 1 1 0.999047
1 1 1 1
1.03411 1.03771 1 0.996536
1.02532 1.02882 1 0.996599
1.01884 1.02198 1 0.996931
1.01517 1.01831 1 0.99691
1.01059 1.01338 1 0.997242
1.003 1.00474 1.00035 0.997927
1.00142 1.00334 1.00046 0.99762
1.00153 1.00085 1.00246 0.998217
1.00052 1 1.00108 0.999444
1.00433 1 1.0058 0.998533
1.00106 1 1.00139 0.999668
1 1 1 1
0.99989 1 1.00009 0.999799
1 1 1 1
1 1 1 1
1.00597 1.03758 0.971432 0.998051
0.977709 1.00952 0.971358 0.997047
0.925438 0.975832 0.960036 0.987837
1.03156 1.03483 1 0.996846
1.01945 1.0223 1 0.997215
1.05151 1.05497 1 0.996724
1.03713 1.04061 1 0.996649
1.02242 1.02557 1.00018 0.99675
1.04312 1.04869 0.997959 0.996722
1.00434 1.00903 0.997938 0.99741
1.01921 1.02334 0.999056 0.996903
1.04079 1.05926 0.985528 0.996997
1.00408 1.01294 0.994041 0.997187
1.02258 1.03065 0.995389 0.996768
1.00721 1.02642 0.983627 0.997613
1.00336 1.00896 0.997178 0.997261
0.994414 1.00977 0.986313 0.998455
1.05426 1.07533 0.982696 0.997669
1.02374 1.04201 0.984316 0.998121
0.982259 1.00409 0.981799 0.996393
0.990386 1.03976 0.954523 0.997892
1.04081 1.05664 0.987474 0.997517
1.03247 1.0649 0.971965 0.997512
1.06983 1.08592 0.987538 0.997617
1.05809 1.0783 0.983711 0.997506
1.02757 1.06109 0.970747 0.997593
1.04118 1.0645 0.980661 0.997384
1.04266 1.06009 0.986248 0.997275
1.03669 1.05415 0.985927 0.997468
1.04117 1.05459 0.990022 0.997232
1.04588 1.05436 0.994939 0.996997
1.04185 1.05034 0.994627 0.997279
1.04657 1.05159 0.998211 0.997009
1.04997 1.05349 0.99994 0.996718
1.04467 1.04805 0.99977 0.997007
1.04674 1.05019 1 0.996713
1.04103 1.04456 1 0.996625
1.04294 1.04637 1 0.996716
1.03759 1.04105 1 0.996675
1.01485 1.01765 1 0.997251
1.03466 1.03811 1 0.996682
1.01408 1.0168 1 0.997322
0.999347 1.00029 1 0.999053
0.999641 1 1 0.999641
0.999091 1.00015 1 0.998946
1.01261 1.01526 1 0.997389
1 1 1 1
0.998914 1.00001 1 0.998902
1 1 1 1
1.05751 1.06089 1 0.996811
1.04324 1.04676 1 0.996639
1.03509 1.03869 1 0.996539
1.02659 1.0299 1 0.996783
1.02543 1.02894 1 0.996588
1.01986 1.023 1 0.99693
1.00727 1.00961 1 0.997688
1.00947 1.01225 1 0.997249
1.00197 1.00358 1.00047 0.99793
0.999308 1 1.00012 0.999187
1.00145 1.00041 1.00282 0.998219
1.00066 1 1.0012 0.999464
1 1 1 1
1.00051 1 1.00082 0.999684
1 1 1 1
1 1 1 1
1.04802 1.07383 0.978486 0.997418
1.01029 1.04323 0.970264 0.998107
0.974855 1.00962 0.969134 0.996321
1.04853 1.05251 0.999476 0.996746
1.02906 1.03226 1 0.996899
1.02054 1.02319 1 0.997405
1.05018 1.05361 1 0.996741
1.03778 1.04129 1 0.996634
1.05109 1.06786 0.987282 0.996977
1.03968 1.0456 0.997646 0.996682
1.01894 1.0223 0.999875 0.99684
1.03945 1.05773 0.985683 0.996992
1.02565 1.03341 0.995767 0.996712
1.01221 1.03227 0.982879 0.997653
1.05816 1.07609 0.9857 0.997605
1.05735 1.07747 0.983585 0.997703
1.02449 1.04184 0.985174 0.998144
1.02954 1.06522 0.96889 0.997532
1.07167 1.08873 0.986684 0.997611
1.05804 1.07924 0.982794 0.997514
1.04882 1.06204 0.990159 0.997369
1.04183 1.0638 0.981905 0.997393
1.04294 1.05979 0.986796 0.997263
1.04678 1.05663 0.993635 0.997032
1.04114 1.05436 0.990217 0.997213
1.04644 1.05492 0.994956 0.996996
1.05226 1.05628 0.99947 0.996721
1.04669 1.05168 0.998246 0.997005
1.05028 1.0538 0.999938 0.996719
1.04369 1.04728 1 0.996573
1.04658 1.05002 1 0.996717
1.04123 1.04475 1 0.996629
1.01616 1.01906 1 0.997157
1.0377 1.04116 1 0.996681
1.01528 1.01808 1 0.997251
0.999316 1.00025 1 0.999064
1.01425 1.01697 1 0.99732
0.99934 1.00029 1 0.999048
0.999663 1 1 0.999663
0.999828 1 1 0.999828
0.999249 1.00021 1 0.999035
1 1 1 1
1.05246 1.05631 0.999551 0.996803
1.04847 1.05194 1 0.996704
1.05647 1.05972 1 0.996933
1.03671 1.04012 1 0.996712
1.04527 1.0488 1 0.996628
1.036 1.03959 1 0.996542
1.02755 1.03087 1 0.996776
1.01255 1.01509 1 0.997493
1.02078 1.02392 1 0.996929
1.00576 1.00809 1 0.997689
0.998984 1 1 0.998984
1.00082 1.00237 1.00052 0.997933
0.999586 1 1.00038 0.999205
1 1 1 1
1.00098 1 1.0015 0.999484
1 1 1 1
1 1 1 1
1.04935 1.07032 0.983065 0.997306
1.04567 1.07132 0.978593 0.997413
1.01295 1.04623 0.969975 0.998155
1.05141 1.06145 0.993626 0.996892
1.04592 1.05012 0.999258 0.996747
1.02686 1.03 1 0.996952
1.04866 1.05207 1 0.996758
1.04962 1.06609 0.987557 0.996953
1.03615 1.0424 0.997348 0.996642
1.03394 1.05181 0.985979 0.996988
1.05248 1.06573 0.990106 0.99743
1.05668 1.07443 0.985881 0.997566
1.06024 1.07923 0.984626 0.997736
1.04745 1.05725 0.993444 0.997267
1.05755 1.07983 0.981794 0.997522
1.04874 1.06213 0.990005 0.997355
1.04852 1.05747 0.994386 0.997133
1.04326 1.0595 0.987385 0.99725
1.04694 1.05681 0.993602 0.997034
1.05284 1.05757 0.99878 0.996736
1.04696 1.05542 0.994976 0.996995
1.05207 1.05612 0.999441 0.996722
1.04474 1.04837 1 0.996537
1.05051 1.05403 0.999935 0.996719
1.0438 1.04738 1 0.996576
1.01709 1.02008 1 0.997065
1.04141 1.04493 1 0.996633
1.01647 1.01936 1 0.997157
0.999152 1.00011 1 0.999039
1.01581 1.01861 1 0.99725
0.999289 1.00024 1 0.999053
0.999668 1 1 0.999668
0.999376 1.00033 1 0.999045
0.999671 1 1 0.999671
1 1 1 1
1.05171 1.05725 0.998046 0.996707
1.05071 1.05424 1 0.996652
1.05416 1.05805 0.999525 0.996802
1.043 1.04641 1 0.996739
1.04975 1.05319 1 0.996736
1.05557 1.05869 1 0.997055
1.01629 1.01901 1 0.997335
1.03664 1.04007 1 0.996703
1.04752 1.05108 1 0.996616
1.0284 1.03174 1 0.996769
1.01102 1.01356 1 0.997494
0.999132 1.00025 1 0.99888
1.00425 1.00657 1 0.99769
0.999002 1 1 0.998998
1 1 1 1
0.999809 1 1.00059 0.999223
1 1 1 1
1 1 1 1
1.04766 1.06144 0.989808 0.997176
1.04925 1.07049 0.982827 0.997289
1.04549 1.07122 0.978522 0.997409
1.05072 1.06085 0.993519 0.996909
1.04301 1.04742 0.999034 0.996747
1.04911 1.06533 0.987812 0.996929
1.04905 1.05939 0.992955 0.997267
1.0528 1.06589 0.990276 0.997424
1.05526 1.0729 0.985999 0.997526
1.04786 1.05754 0.993538 0.997288
1.04827 1.05595 0.995636 0.997081
1.04864 1.06225 0.989818 0.997341
1.0488 1.05748 0.994687 0.997093
1.05238 1.05781 0.998035 0.996823
1.0471 1.05701 0.993568 0.997036
1.05254 1.05733 0.998731 0.996739
1.04498 1.04863 1 0.996513
1.05208 1.05616 0.99941 0.996723
1.04519 1.04882 1 0.996538
1.01739 1.02045 1 0.997003
1.04405 1.04763 1 0.996579
1.01719 1.02019 1 0.997066
0.998993 1.00001 1 0.998984
1.0168 1.0197 1 0.997157
0.999088 1.00007 1 0.999022
0.999647 1 1 0.999647
0.999207 1.00016 1 0.999046
0.999685 1 1 0.999685
0.999674 1 1 0.999674
1.05104 1.05929 0.995235 0.996962
1.05255 1.05629 0.999903 0.99656
1.05211 1.05855 0.997173 0.996735
1.04529 1.04879 1 0.996663
1.04988 1.05342 1 0.99664
1.05584 1.05976 0.9995 0.996801
1.01825 1.02108 1 0.997228
1.04282 1.04627 1 0.996708
1.05083 1.05423 1 0.996769
0.999681 1.00083 1 0.998851
1.01606 1.01878 1 0.997338
1.03678 1.04022 1 0.996694
1.00975 1.01228 1 0.997495
0.999166 1.00027 1 0.998892
1 1 1 1
0.999013 1 1 0.999013
1 1 1 1
1 1 1 1
1.04623 1.05652 0.993086 0.997161
1.04783 1.06151 0.989913 0.997168
1.04869 1.07013 0.982649 0.997272
1.05007 1.06029 0.993417 0.996925
1.04871 1.05506 0.99693 0.997039
1.04929 1.05946 0.993108 0.997277
1.05317 1.06602 0.990509 0.997417
1.0483 1.05784 0.993655 0.997308
1.04832 1.05611 0.995525 0.997091
1.05252 1.05754 0.998435 0.996812
1.04916 1.05752 0.995027 0.997052
1.05253 1.05766 0.99837 0.996775
1.04498 1.04873 0.99987 0.99656
1.05216 1.05699 0.998684 0.996741
1.04545 1.0491 1 0.996516
1.01693 1.02003 1 0.996957
1.04535 1.04898 1 0.99654
1.01723 1.02029 1 0.997004
0.998746 1 1 0.998746
1.01722 1.02021 1 0.997067
0.998882 1 1 0.998882
1 1 1 1
0.999019 1.00001 1 0.999008
0.999669 1 1 0.999669
0.999695 1 1 0.999695
1.04901 1.0562 0.996129 0.997054
1.0519 1.05643 0.999019 0.996688
1.05147 1.05908 0.995849 0.996952
1.04496 1.0486 1 0.996525
1.05144 1.05548 0.999595 0.996576
1.05255 1.05989 0.996304 0.996763
1.01822 1.02123 1 0.997054
1.04547 1.04897 1 0.996663
1.04908 1.05263 1 0.996628
0.999452 1.0006 1 0.998852
1.01787 1.02075 1 0.997187
1.0426 1.04608 1 0.996678
1 1 1 1
0.999477 1.00062 1 0.998862
1.0153 1.018 1 0.99734
0.999085 1.00018 1 0.998904
1 1 1 1
1 1 1 1
1.04746 1.05377 0.99695 0.997051
1.04656 1.05671 0.993214 0.997168
1.04792 1.06155 0.989971 0.99716
1.05264 1.05692 0.999199 0.99675
1.04808 1.05476 0.996604 0.997052
1.04952 1.05952 0.993256 0.997288
1.04831 1.05626 0.995363 0.997101
1.05215 1.0573 0.998312 0.996813
1.04411 1.04768 0.999966 0.996621
1.05254 1.05742 0.998647 0.996726
1.04509 1.04878 0.999921 0.996558
1.0161 1.01929 1 0.996866
1.04607 1.04972 1 0.996518
1.01673 1.01984 1 0.996958
0.998707 1 1 0.998707
1.01719 1.02025 1 0.997004
0.998744 1 1 0.998744
1 1 1 1
0.998765 1 1 0.998765
0.999815 1 1 0.999815
0.999689 1 1 0.999689
1.0484 1.05438 0.997307 0.997007
1.05253 1.05645 0.999532 0.996757
1.04902 1.05614 0.996182 0.997061
1.04467 1.04832 1 0.99652
1.05277 1.05698 0.999346 0.996673
1.0519 1.05887 0.996463 0.996942
1.01738 1.02048 1 0.996964
1.04478 1.0484 1 0.996547
1.0503 1.05466 0.999278 0.996592
0.998961 1.00013 1 0.998829
1.01806 1.02109 1 0.997041
1.04564 1.04914 1 0.996663
1 1 1 1
0.999556 1.0007 1 0.998861
1.01772 1.02063 1 0.997146
1 1 1 1
0.999553 1.00068 1 0.998874
1 1 1 1
1.05242 1.05673 0.999121 0.996796
1.04696 1.05324 0.996992 0.997036
1.04684 1.05684 0.99335 0.997175
1.04352 1.04707 0.999999 0.996617
1.05214 1.05672 0.998894 0.996772
1.04746 1.05446 0.996281 0.997064
1.05183 1.05706 0.998233 0.996814
1.04405 1.04772 0.999871 0.996621
1.01517 1.01838 1 0.996852
1.04525 1.04886 1 0.996557
1.016 1.01917 1 0.996891
0.998659 1 1 0.998659
1.01647 1.01957 1 0.996959
0.998704 1 1 0.998704
1 1 1 1
0.998741 1 1 0.998741
1 1 1 1
0.999663 1 1 0.999663
1.05366 1.05774 0.999374 0.996774
1.04765 1.05416 0.996789 0.99703
1.04421 1.04781 1 0.996557
1.05306 1.05689 0.999624 0.996755
1.04907 1.05615 0.99622 0.997068
1.01633 1.0194 1 0.996991
1.04415 1.0478 1 0.996516
1.05363 1.0575 0.999682 0.996657
0.998777 1 1 0.998777
1.01767 1.02074 1 0.996987
1.04457 1.04817 1 0.996569
1 1 1 1
0.999116 1.00028 1 0.998835
1.018 1.02103 1 0.997028
1 1 1 1
0.999561 1.00069 1 0.99887
1 1 1 1
1.04339 1.0469 1 0.996645
1.05238 1.05658 0.999241 0.996783
1.04646 1.05272 0.997031 0.99702
1.01428 1.01747 1 0.996866
1.04344 1.04704 0.999946 0.996617
1.05164 1.0565 0.998596 0.996793
1.04398 1.04776 0.99977 0.996621
1.01523 1.01844 1 0.996852
0.998631 1 1 0.998631
1.01592 1.01907 1 0.996916
0.998656 1 1 0.998656
1 1 1 1
0.998702 1 1 0.998702
1 1 1 1
1 1 1 1
1.04409 1.04767 1 0.996575
1.05339 1.05755 0.999253 0.996816
1.04688 1.05389 0.996286 0.997052
1.01549 1.01855 1 0.996989
1.04382 1.04743 1 0.996554
1.05359 1.05732 0.999719 0.996754
0.998728 1 1 0.998728
1.01673 1.01981 1 0.996989
1.04366 1.04732 1 0.996513
1 1 1 1
0.9988 1.00002 1 0.99878
1.01793 1.02098 1 0.997011
1 1 1 1
0.999177 1.00034 1 0.998841
1 1 1 1
1.01426 1.01738 1 0.996938
1.04327 1.04683 0.999982 0.996617
1.05239 1.05645 0.999382 0.996771
0.998647 1 1 0.998647
1.0144 1.01759 1 0.996863
1.04336 1.04703 0.999882 0.996617
1.01529 1.0185 1 0.996851
0.998631 1 1 0.998631
1 1 1 1
0.998654 1 1 0.998654
1 1 1 1
1 1 1 1
1.0148 1.01788 1 0.996972
1.04379 1.04736 1 0.996595
1.05312 1.05736 0.999126 0.996858
0.998916 1 1 0.998916
1.01575 1.01882 1 0.996987
1.04341 1.04703 1 0.99655
1 1 1 1
0.998729 1 1 0.998729
1.01712 1.02019 1 0.996987
1 1 1 1
0.99886 1.00008 1 0.998784
1 1 1 1
0.998637 1 1 0.998637
1.0144 1.01754 1 0.996914
1.04315 1.04677 0.999945 0.99659
1 1 1 1
0.998646 1 1 0.998646
1.01452 1.01772 1 0.996861
0.99863 1 1 0.99863
1 1 1 1
1 1 1 1
0.998876 1 1 0.998876
1.01502 1.0181 1 0.996972
1.04348 1.04702 1 0.996615
1 1 1 1
0.998703 1 1 0.998703
1.01602 1.01909 1 0.996986
1 1 1 1
0.99873 1 1 0.99873
1 1 1 1
0.999609 1 1 0.999609
0.998766 1 1 0.998766
1.01451 1.01768 1 0.99689
1 1 1 1
0.998647 1 1 0.998647
1 1 1 1
0.999624 1 1 0.999624
0.998784 1 1 0.998784
1.01527 1.01835 1 0.996972
0.999811 1 1 0.999811
0.998703 1 1 0.998703
1 1 1 1
1 1 1 1
0.998669 1 1 0.998669
1 1 1 1
0.99981 1 1 0.99981
0.998689 1 1 0.998689
1 1 1 1
1 1 1 1
1 1 1 1

VECTORS lamdaE float
1.00142 1.00011 0.993608
1.00096 1.00077 0.996871
1.00095 1.00031 0.993913
1.00151 1.00004 0.993529
1.00149 0.999961 0.993647
1.00138 1.00035 0.993391
1.00279 1.00042 0.990567
1.00097 1.00071 0.996868
1.00092 1.00015 0.997342
1.00041 1.00094 0.997368
1.00081 1.00091 0.993595
1.00246 1.0013 0.989324
1.00104 0.999978 0.994096
1.00082 1.00002 0.994195
1.00054 1.00051 0.99419
1.00116 1.00003 0.993869
1.00087 1.00071 0.99367
1.00111 1.00001 0.993968
1.00302 1.00024 0.990431
1.00107 1.00002 0.997002
1.00142 1.00008 0.993587
1.00151 0.999967 0.993613
1.00286 1.00015 0.990736
1.0029 1.00015 0.990662
1.00134 1.00052 0.993221
1.00263 1.00092 0.990333
1.00521 1.00075 0.985993
1.00098 1.00067 0.996878
1.00114 1.00004 0.995528
1.00073 1.00066 0.995524
1.00089 1.00073 0.996927
1.00236 1.00145 0.989336
1.00143 0.999816 0.993636
1.00119 1.0002 0.993732
1.0032 1.00005 0.990967
0.999962 1.00101 0.997635
1.00291 1.00074 0.990881
1.00213 1.00188 0.989285
1.00456 1.00146 0.98565
1.00018 0.999529 0.997963
1.00107 0.999989 0.996998
1.00105 1.00002 0.995552
1.00099 0.999973 0.997051
1.00065 1.00005 0.994426
1.00273 0.999932 0.990297
1.00102 0.999962 0.997267
1.00315 1.00007 0.991041
1.00083 0.999967 0.99421
1.00074 1.00005 0.994274
1.00037 1.00109 0.99393
1.00322 1.00006 0.990308
1.00088 1.00004 0.995706
1.00107 1.0001 0.993927
1.00079 1.00099 0.993479
1.00117 0.999941 0.993943
1.003 1.00012 0.990571
1.0029 1.00065 0.990199
1.00308 1.00006 0.990516
1.0052 1.00075 0.986009
1.00097 1 0.997047
1.00127 1.00007 0.993801
1.00249 0.999998 0.991982
1.00274 1.00015 0.990905
1.00289 1.00011 0.990717
1.00509 1.00026 0.986593
1.00519 1.0003 0.986336
1.00109 1.00048 0.993517
1.00211 1.00189 0.990161
1.00519 1.00103 0.985806
1.0053 1.0003 0.985538
1.00142 1.00006 0.996874
1.0008 1.00065 0.997081
1.00107 1.00054 0.996877
1.00228 1.00156 0.989342
1.00149 0.99994 0.996817
1.00129 1.00025 0.996895
1.00306 0.999999 0.989543
1.00023 1.00079 0.995906
1.00265 1.00077 0.989462
1.00199 1.00212 0.990174
1.00464 1.0013 0.985637
1.00045 1.00014 0.997532
1.00029 1.00201 0.992386
1.00322 0.999965 0.98938
1.00306 1.00013 0.989492
1.00521 1.00033 0.985729
1.00145 1.00257 0.991494
1.00495 1.0008 0.985649
1.0037 1.00274 0.985817
1.00527 1.00138 0.984418
0.999996 0.998649 0.998413
1.00003 0.999283 0.998152
1.00136 0.999994 0.99682
1.00113 0.999987 0.996973
1.00103 0.999979 0.997048
1.00091 1 0.995706
1.00278 0.999924 0.990975
1.00121 0.999975 0.995456
1.00308 1.00009 0.990338
1.001 0.999985 0.997065
1.00257 0.999844 0.990589
1.00298 1.00004 0.991353
1.00494 0.99935 0.98727
1.00323 1 0.990945
1.00517 0.999737 0.986508
1.00102 0.999997 0.994125
1.0007 1.00012 0.994271
1.00024 1.00151 0.993736
1.00083 0.999884 0.99427
1.00315 1.00013 0.990407
1.00325 0.999973 0.990378
1.00316 1.00036 0.990075
1.00518 1.00074 0.986026
1.00102 0.999986 0.997056
1.00092 1.00007 0.994138
1.00266 0.999958 0.990832
1.00289 1.00014 0.990731
1.00085 1.00091 0.995194
1.00249 1.00168 0.990233
1.00305 1.00005 0.990564
1.00511 1.00013 0.986733
1.00513 1.00103 0.98583
1.0052 1.00045 0.986235
1.00529 1.00029 0.985574
1.00256 0.999891 0.990585
1.00259 1.00005 0.991207
1.00485 0.999211 0.988052
1.00503 0.999778 0.987149
1.00513 1.00011 0.986631
1.00532 0.998766 0.9873
1.00045 1.00071 0.997321
1.00531 0.999653 0.986169
1.00156 1.00282 0.989136
1.00479 1.00138 0.985304
1.00529 1.00101 0.98489
1.00524 0.998456 0.987327
1.00078 1.00294 0.99051
1.00178 1.00466 0.987112
1.00149 0.99996 0.996836
1.00126 1.00029 0.996883
1.00308 0.999978 0.989533
1.00042 1.00047 0.997426
1.00164 1.00243 0.989467
1.00265 1.00076 0.989481
1.00473 1.00117 0.985625
1.00027 1.00007 0.997687
1.00016 1.00215 0.992416
1.00324 0.999994 0.990154
1.00308 1.0002 0.990215
1.00521 1.00034 0.985705
1.00107 1.00276 0.99018
1.00498 1.00076 0.985632
1.00392 1.00238 0.98581
1.00529 1.00128 0.984546
1.00064 1.00253 0.991136
1.00008 1.00126 0.993575
1.00157 1.00477 0.98785
1.00523 1.00015 0.985906
1.00516 1.00047 0.985642
1.00531 0.99945 0.986462
1.00311 1.00323 0.986319
1.0053 1.00051 0.985397
1.00504 1.00193 0.984238
1.0053 1.00048 0.985184
0.999943 0.998193 0.998687
0.999921 0.998618 0.998529
0.999918 0.999139 0.998322
1.00052 1.00273 0.991186
1.00023 1.00041 0.997582
1.00148 0.999962 0.996799
1.00122 0.999995 0.996894
1.00294 1.00011 0.989697
1.00266 0.999923 0.990357
1.00101 0.999978 0.997037
1.00097 0.999979 0.997061
1.00256 0.999856 0.990582
1.0029 1.00002 0.990662
1.00493 0.999351 0.987269
1.00308 1.00005 0.989481
1.00513 0.999744 0.986506
1.00252 0.999853 0.990648
1.00486 0.999242 0.987492
1.00506 0.999513 0.986911
1.00535 0.996978 0.989129
1.00523 0.999932 0.986164
1.00535 0.997731 0.988321
1.00098 0.999986 0.997055
1.00055 1.00012 0.994474
1.00269 0.999955 0.989824
1.00304 1.00014 0.990555
1.00016 1.00144 0.997293
1.00296 1.00128 0.990307
1.0032 1.00003 0.990413
1.00513 0.999973 0.986874
1.0052 1.00059 0.986132
1.00508 1.00105 0.985853
1.00529 1.00029 0.985611
1.00254 0.999884 0.990589
1.00274 1.00007 0.991032
1.00489 0.999194 0.98776
1.00506 0.999923 0.987008
1.00059 1.00074 0.997208
1.00181 1.00255 0.989984
1.00462 1.00175 0.985539
1.00514 1.00016 0.986589
1.00531 0.99841 0.987658
1.0053 1.00091 0.984971
1.00531 0.999772 0.986142
1.00523 0.998477 0.987347
1.00085 1.00284 0.990496
1.00186 1.0046 0.987114
1.00483 0.999313 0.987473
1.00494 0.999512 0.987621
1.00535 0.997551 0.988566
1.00533 0.997633 0.988382
1.00533 0.998916 0.986986
1.00525 0.996227 0.989818
1.0011 1.00304 0.98978
1.00524 0.997419 0.988407
1.00397 1.00243 0.985524
1.00532 1.0015 0.984209
1.00523 0.999858 0.986073
1.0052 0.996713 0.989248
1.00273 1.00377 0.986389
1.0011 1.00508 0.987908
1.00352 1.00276 0.986279
1.00312 0.999976 0.989474
1.00008 0.999897 0.997867
1.00004 1.00216 0.992444
1.00292 1.00022 0.989549
1.00522 1.00034 0.985679
1.001 1.00296 0.990116
1.00408 1.00199 0.985803
1.00502 1.00072 0.985616
1.00531 1.00117 0.984675
1.0006 1.00266 0.991141
1.00001 1.00112 0.993618
1.00124 1.00502 0.987811
1.00522 1.00017 0.985882
1.00516 1.00048 0.985623
1.00531 0.999453 0.986437
1.00322 1.00302 0.986333
1.00531 1.0006 0.985306
1.00517 1.00188 0.984203
1.0053 1.00025 0.98536
1.00007 1.00034 0.994397
1.00246 1.004 0.986937
1.0009 1.00449 0.989116
1.00262 1.00368 0.987065
1.00531 0.99882 0.987135
1.00531 1.00006 0.985803
1.00525 0.997628 0.988182
1.00473 1.00191 0.984856
1.00525 0.999126 0.986797
1.00529 1.0013 0.984685
1.0053 0.999444 0.986227
1.00023 1.00176 0.992734
1.00027 0.999134 0.995241
0.999973 0.997729 0.998842
0.99992 0.998069 0.998747
0.999877 0.998469 0.998621
1.00014 1.00247 0.992064
1.00011 1.00003 0.997828
1.00058 1.00267 0.991154
1.00033 1.0005 0.99749
1.00307 1.0001 0.989487
1.00281 1.00001 0.990034
1.00511 0.99975 0.986504
1.00491 0.999358 0.987267
1.00257 0.999871 0.990581
1.00102 0.999969 0.997059
1.00254 0.999848 0.990651
1.00485 0.999252 0.987492
1.00503 0.999531 0.98691
1.00534 0.996989 0.989138
1.00521 0.999966 0.986147
1.00535 0.997721 0.988311
1.00483 0.999244 0.987539
1.00532 0.99679 0.989364
1.00536 0.997312 0.988756
1.00524 0.994942 0.991248
1.00534 0.99822 0.987778
1.00524 0.995527 0.990559
1.00255 0.999882 0.990599
1.0029 1.00005 0.990858
1.00492 0.999155 0.98747
1.00509 1.00006 0.986867
1.00072 1.0008 0.997081
1.00216 1.00236 0.990633
1.00458 1.00205 0.985772
1.00516 1.00018 0.986547
1.00531 0.998052 0.988016
1.00531 0.999892 0.986116
1.00531 1.0008 0.985054
1.00523 0.998496 0.987366
1.00089 1.00276 0.990483
1.00191 1.00451 0.987115
1.00484 0.999134 0.987622
1.00497 0.999489 0.987598
1.00534 0.997335 0.988795
1.00533 0.998018 0.988003
1.00118 1.00296 0.989779
1.00391 1.00263 0.985544
1.0053 1.00162 0.98412
1.00533 0.999129 0.986825
1.00525 0.995928 0.990075
1.00524 0.999649 0.986279
1.00524 0.997436 0.988413
1.0052 0.996668 0.989183
1.0027 1.00388 0.98636
1.0033 1.00286 0.986217
1.00116 1.00499 0.987938
1.00532 0.997296 0.988871
1.00537 0.997508 0.988585
1.00522 0.995367 0.990878
1.00524 0.995348 0.990658
1.00525 0.996358 0.989398
1.00523 0.995123 0.990796
1.00335 1.00319 0.98591
1.0052 0.995606 0.990106
1.00523 1.0023 0.983688
1.00525 1.00085 0.984816
1.0052 0.998294 0.987583
1.00517 0.996021 0.989901
1.00067 1.00491 0.988709
1.00446 1.00226 0.985256
1.00244 1.00414 0.986467
1.00484 1.00193 0.985292
1.00521 1.00018 0.985857
0.999987 1.00111 0.99366
1.00044 1.00285 0.991153
1.0009 1.00508 0.987771
1.00516 1.00048 0.985603
1.00531 0.999458 0.986413
1.00334 1.00279 0.986351
1.00525 1.00189 0.984167
1.00531 1.00069 0.985214
1.00529 1.00002 0.985535
1.00007 1.00028 0.994435
1.00236 1.00392 0.986947
1.00071 1.00453 0.989119
1.00249 1.00367 0.987042
1.00532 0.998818 0.987113
1.00531 1.00007 0.985776
1.00525 0.997617 0.988179
1.00483 1.00186 0.98487
1.00525 0.999275 0.986603
1.00526 1.00117 0.984662
1.00529 0.999326 0.986388
1.00019 0.99962 0.994937
1.00059 1.00358 0.990462
1.0038 1.00225 0.986142
1.00169 1.00488 0.987818
1.00379 1.00136 0.98746
1.00527 0.996822 0.989023
1.00524 0.998398 0.987363
1.00522 0.99645 0.989192
1.00482 1.00163 0.984808
1.00525 0.99818 0.987552
1.00502 1.00042 0.985705
1.00033 1.00201 0.99234
1.00034 1.0033 0.991034
1.00011 1.00165 0.993062
1.0002 1.00179 0.99273
1.00024 0.998885 0.996127
1.00025 0.999086 0.995622
1.00016 0.997364 0.997522
0.999973 0.997677 0.998874
0.999908 0.997987 0.998796
0.999881 1.00167 0.993268
0.999931 0.999544 0.998188
1.00023 1.00236 0.992052
1.00019 1.0001 0.997731
1.00065 1.00258 0.991125
1.00045 1.00054 0.997397
1.00517 1 0.98613
1.00501 0.999544 0.986909
1.00534 0.997739 0.988301
1.00533 0.996998 0.989147
1.00484 0.999263 0.987493
1.00253 0.999837 0.990649
1.00482 0.999245 0.987543
1.00532 0.996797 0.989368
1.00535 0.997324 0.988757
1.00524 0.994942 0.99123
1.00533 0.998225 0.987762
1.00525 0.995495 0.990565
1.00531 0.996792 0.989381
1.00526 0.994958 0.991236
1.00523 0.995097 0.991052
1.00519 0.994958 0.991248
1.00527 0.996112 0.98984
1.00524 0.994898 0.990918
1.00485 0.998958 0.987772
1.005 0.999482 0.987574
1.00534 0.997148 0.989024
1.00533 0.998407 0.987625
1.00126 1.00289 0.989783
1.00371 1.00296 0.985568
1.00529 1.00175 0.98403
1.00532 0.999341 0.986663
1.00524 0.995631 0.990333
1.00523 0.997454 0.988418
1.00525 0.999449 0.986485
1.0052 0.996612 0.989118
1.00269 1.00408 0.986329
1.00325 1.00288 0.986156
1.00122 1.00487 0.987968
1.00532 0.997124 0.989061
1.00536 0.997484 0.988591
1.00523 0.99517 0.991051
1.00523 0.9956 0.990442
1.00328 1.00337 0.985903
1.00521 1.00232 0.983729
1.00525 1.00101 0.984664
1.00525 0.996683 0.989107
1.00524 0.995019 0.990819
1.00521 0.998211 0.987544
1.00521 0.995632 0.990084
1.00518 0.995914 0.989957
1.00427 1.00254 0.985218
1.00478 1.00191 0.985071
1.00082 1.00479 0.988727
1.00224 1.00416 0.986533
1.00523 0.994959 0.991311
1.00525 0.995503 0.990547
1.00515 0.994948 0.99133
1.0052 0.994909 0.990964
1.00522 0.995077 0.990615
1.00524 0.994929 0.990784
1.00512 1.00234 0.984058
1.00522 0.995015 0.990536
1.0052 1.00212 0.983693
1.00522 1.00015 0.98544
1.0052 0.997514 0.988106
1.00517 0.996067 0.989829
1.00044 1.0043 0.989756
1.00122 1.00509 0.987317
1.00509 1.00252 0.983954
1.00408 1.0035 0.985537
1.00501 1.00325 0.98355
1.00005 1.00016 0.994472
1.00532 0.998815 0.987092
1.00048 1.0047 0.989124
1.00226 1.00391 0.986956
1.00241 1.00363 0.987018
1.00531 1.00008 0.985748
1.00524 0.997605 0.988176
1.00514 1.00159 0.984883
1.00525 1.00107 0.984642
1.00525 0.999421 0.986411
1.0053 0.999224 0.986548
1.00018 0.999554 0.99497
1.00041 1.0037 0.990488
1.00404 1.00195 0.986184
1.00125 1.00501 0.987777
1.00358 1.0013 0.987441
1.00527 0.996798 0.989024
1.00524 0.998381 0.987358
1.00522 0.996403 0.989186
1.00497 1.00168 0.984745
1.00525 0.998264 0.987393
1.00509 1.00042 0.985808
1.0004 1.00265 0.991613
1.00087 1.00493 0.989044
1.00463 1.00113 0.985823
1.00216 1.00392 0.987689
1.00447 1.00015 0.987903
1.00526 0.995749 0.989928
1.00522 0.997219 0.98832
1.00524 0.995812 0.98947
1.00487 1.00109 0.985177
1.00508 0.999038 0.986616
1.00033 1.00199 0.992344
1.00038 1.00326 0.99082
1.00014 1.00349 0.990999
1.00052 1.00356 0.990731
1.00019 1.00335 0.991289
1.00003 1.00148 0.993328
1.00009 1.00163 0.993071
1.00021 0.998769 0.996284
1.00019 1.00182 0.992726
1.00025 0.998869 0.99615
1.00022 0.997115 0.997635
1.00024 0.999063 0.995994
1.00008 0.997383 0.998231
0.999978 0.997578 0.998901
0.999809 1.00056 0.994471
0.999926 1.00166 0.993256
0.99977 0.998803 0.998603
1.00006 0.999603 0.998039
1.00033 1.0023 0.992037
1.00027 1.00023 0.997639
1.00533 0.998227 0.987746
1.00534 0.997313 0.988759
1.00527 0.995454 0.990572
1.00525 0.994943 0.991212
1.00532 0.996803 0.989372
1.00482 0.999246 0.987547
1.00532 0.996796 0.989379
1.00526 0.994958 0.99124
1.00524 0.995078 0.991064
1.00519 0.994958 0.99121
1.00527 0.996072 0.989841
1.00524 0.994911 0.990916
1.00526 0.99496 0.99126
1.0052 0.994949 0.99129
1.00521 0.994939 0.991089
1.00526 0.994945 0.99108
1.00527 0.995187 0.990522
1.00528 0.994886 0.990856
1.00532 0.996947 0.989249
1.00536 0.997467 0.988598
1.00524 0.994957 0.991225
1.00521 0.995849 0.990226
1.00322 1.00349 0.985898
1.00518 1.0023 0.983768
1.00524 1.0011 0.98451
1.00524 0.997005 0.988816
1.00525 0.994914 0.990842
1.00522 0.99566 0.990061
1.00521 0.998125 0.987506
1.00518 0.995776 0.990018
1.00393 1.00298 0.985182
1.00464 1.00195 0.98485
1.001 1.00468 0.988745
1.00214 1.00413 0.986602
1.00524 0.994957 0.991302
1.00524 0.995492 0.990609
1.00514 0.994949 0.99131
1.00521 0.994915 0.990962
1.00491 1.00257 0.984063
1.0052 1.00218 0.983612
1.0052 1.00013 0.98542
1.00522 0.995182 0.990526
1.00524 0.994927 0.990761
1.00517 0.997557 0.988105
1.00521 0.995008 0.990518
1.00519 0.995852 0.989936
1.00499 1.00257 0.984002
1.00499 1.00343 0.983323
1.00368 1.00328 0.985556
1.00044 1.00412 0.989799
1.0011 1.0051 0.98747
1.00519 0.994952 0.99125
1.00519 0.994945 0.991115
1.00525 0.994917 0.990707
1.00525 0.994907 0.990705
1.00515 1.00299 0.983218
1.00522 0.995048 0.990457
1.00504 1.00167 0.983947
1.00516 0.999592 0.985926
1.00512 0.997211 0.98831
0.999901 1.00335 0.991302
1.00076 1.00511 0.988611
1.00179 1.00502 0.98703
1.00497 1.00385 0.982833
1.00461 1.00322 0.984407
1.00504 1.0032 0.982797
1.00017 0.999504 0.995004
1.00029 1.00384 0.990513
1.00526 0.996774 0.989025
1.00086 1.00512 0.987735
1.00409 1.00189 0.986227
1.00347 1.0014 0.987424
1.00523 0.998366 0.987353
1.00523 0.996359 0.989179
1.00515 1.00168 0.98468
1.00511 1.00046 0.985913
1.00526 0.998333 0.987233
1.00034 1.0027 0.991623
1.00053 1.005 0.989059
1.00484 1.001 0.985804
1.00198 1.00408 0.987652
1.0042 0.999609 0.987857
1.00526 0.995706 0.989942
1.00523 0.997235 0.988299
1.00524 0.995854 0.989453
1.00487 1.00112 0.985213
1.00509 0.999135 0.986602
1.00053 1.00405 0.990243
1.00018 1.00514 0.988817
1.00498 1.00109 0.985432
1.00234 1.00174 0.988135
1.00524 0.999534 0.987354
1.00524 0.995091 0.990297
1.00526 0.997241 0.98806
1.00529 0.996122 0.988936
1.00487 1.00007 0.986117
1.00514 0.999161 0.986503
1.00032 1.00196 0.992347
1.00039 1.00338 0.990813
1.00002 1.00367 0.990931
0.999994 1.00361 0.990964
1.00008 1.00348 0.991277
1.00012 1.00384 0.990796
0.999976 1.00326 0.991749
1 1.00408 0.990549
1.00004 1.00325 0.991623
1.00001 1.00153 0.993329
1.00002 1.00148 0.993331
1.00013 0.998734 0.996425
1.00007 1.00159 0.993079
1.00022 0.998753 0.996307
1.00021 0.996996 0.997727
1.00027 0.998844 0.996177
1.00019 0.997132 0.997636
0.999992 0.997389 0.998961
0.999838 0.999608 0.995385
0.999838 1.00063 0.994426
0.999724 0.998233 0.998867
1.00001 1.00159 0.993245
0.99987 0.999002 0.998452
1.00015 0.999727 0.997903
1.00527 0.996036 0.989843
1.00525 0.995063 0.991076
1.00523 0.994924 0.990915
1.00519 0.994958 0.991172
1.00526 0.994956 0.991244
1.00532 0.996801 0.989378
1.00525 0.994961 0.991278
1.0052 0.994949 0.991301
1.0052 0.994932 0.991118
1.00526 0.994937 0.991055
1.00527 0.995195 0.990546
1.00527 0.994886 0.990801
1.0052 0.994948 0.991292
1.00526 0.994935 0.99114
1.00527 0.994934 0.990925
1.00528 0.994862 0.990642
1.00525 0.994956 0.991292
1.00523 0.995477 0.99067
1.00514 0.994951 0.99129
1.00523 0.99492 0.990959
1.00476 1.00267 0.984067
1.00522 1.00226 0.983534
1.00519 1.0002 0.985401
1.00523 0.995289 0.990437
1.00523 0.994922 0.990739
1.0052 0.995017 0.9905
1.00514 0.997557 0.9881
1.00522 0.995649 0.990041
1.00475 1.00265 0.984049
1.00502 1.00335 0.983098
1.00314 1.00343 0.985576
1.00045 1.00392 0.989851
1.00109 1.0051 0.987626
1.00518 0.99495 0.99125
1.0052 0.994942 0.991124
1.00525 0.994922 0.990732
1.00509 1.003 0.983274
1.00511 1.00185 0.983868
1.00513 0.99967 0.985919
1.00524 0.994912 0.990706
1.00517 0.997039 0.988568
1.00521 0.995083 0.990405
0.999932 1.0031 0.991535
1.00489 1.00366 0.982919
1.00484 1.00417 0.982525
1.00436 1.00331 0.984474
1.00186 1.00499 0.987133
1.0006 1.00511 0.988601
1.00526 0.994944 0.991117
1.00528 0.99491 0.990843
1.00526 0.994908 0.990618
1.00523 0.994875 0.990603
1.00509 1.00297 0.983197
1.0052 0.995393 0.990004
1.00504 1.00136 0.984473
1.00506 0.999773 0.986031
1.00001 1.00134 0.993141
1.00009 1.00479 0.990057
1.00129 1.00505 0.988371
1.0026 1.00504 0.985405
1.00475 1.00412 0.983162
1.00503 1.00338 0.98314
1.00027 1.00276 0.991633
1.00013 1.00509 0.989076
1.00525 0.995666 0.989955
1.00168 1.00416 0.987614
1.00507 1.00084 0.985784
1.00378 0.999378 0.9878
1.00524 0.997251 0.988278
1.00525 0.99589 0.989434
1.00488 1.00117 0.985246
1.00513 0.999245 0.986587
1.00034 1.00416 0.990249
1.0006 1.00515 0.988577
1.00501 1.00097 0.985413
1.00275 1.00175 0.987996
1.00497 0.999692 0.98703
1.00525 0.995115 0.990345
1.00526 0.997152 0.98826
1.00528 0.996201 0.989004
1.00485 1.00007 0.986189
1.0051 0.999379 0.986264
0.999629 1.00425 0.99038
1.00051 1.00464 0.988749
1.00497 1.00012 0.986286
1.004 0.999725 0.987391
1.00533 0.994856 0.990334
1.00525 0.995759 0.989854
1.00522 0.998307 0.986869
1.00515 0.999395 0.98617
1.00049 1.00336 0.990805
1.00016 1.00364 0.990914
0.999443 1.00375 0.992434
0.999972 1.00362 0.991266
0.999676 1.00415 0.990862
1.00001 1.00326 0.991614
0.999687 1.00325 0.992072
1.00004 1.00423 0.99049
0.999684 1.00144 0.993952
0.999794 1.00427 0.991014
0.999885 1.00429 0.990518
1.00014 1.00309 0.991621
0.999974 1.00178 0.993074
0.999974 1.00153 0.99332
1.00001 0.998794 0.99653
1.00001 1.00146 0.993336
1.00013 0.99875 0.996442
1.00015 0.99702 0.997811
1.00022 0.998749 0.996332
1.0002 0.997009 0.997726
1.00015 0.997159 0.99763
0.99997 0.998857 0.995965
0.999841 0.999731 0.995319
0.999725 0.997763 0.999028
0.999832 1.00073 0.994376
0.999764 0.998316 0.998799
0.999998 0.999068 0.998286
1.00527 0.995199 0.990571
1.00519 0.994925 0.991146
1.00526 0.994884 0.990746
1.00526 0.99493 0.99103
1.0052 0.994948 0.991311
1.00525 0.994963 0.991296
1.0052 0.99495 0.991301
1.00526 0.994936 0.991139
1.00527 0.994923 0.990918
1.00527 0.994862 0.990665
1.00526 0.994943 0.991169
1.00528 0.994926 0.99103
1.00531 0.994872 0.990736
1.00517 0.994949 0.991248
1.00521 0.994941 0.991133
1.00525 0.994928 0.990756
1.00505 1.00298 0.98333
1.00511 1.00195 0.983785
1.00509 0.999636 0.985911
1.00523 0.994918 0.990706
1.00521 0.995126 0.990352
1.00521 0.996827 0.98882
1.00485 1.00361 0.983004
1.00495 1.00417 0.982268
1.0043 1.00325 0.984538
0.999981 1.00291 0.991774
1.00196 1.00487 0.987235
1.00036 1.00512 0.988583
1.00526 0.994944 0.991127
1.00528 0.994907 0.990812
1.00526 0.994908 0.990611
1.00499 1.00307 0.983232
1.00491 1.00128 0.984394
1.00506 0.99942 0.986384
1.00523 0.994879 0.990563
1.00514 0.995516 0.989949
1.00001 1.0013 0.993371
1.00002 1.00481 0.990028
1.00478 1.00322 0.983056
1.00468 1.00365 0.983412
1.003 1.00481 0.985587
1.00107 1.00506 0.988187
1.00529 0.994911 0.991023
1.00532 0.994865 0.990543
1.00528 0.994888 0.990553
1.00521 0.994918 0.99033
1.00443 1.00251 0.983951
1.00516 0.997478 0.988165
1.0049 1.00164 0.984518
1.00017 1.00044 0.994152
1.00031 1.00151 0.992953
0.999725 1.00311 0.992049
1.00046 1.00504 0.98916
1.00121 1.00506 0.98731
1.00341 1.00432 0.984116
1.00387 1.00397 0.984266
1.0039 1.00472 0.984566
1.00014 1.00434 0.990255
1.00089 1.00517 0.988336
1.00527 0.995142 0.990393
1.00318 1.00137 0.987864
1.00503 1.00082 0.9854
1.00484 0.999969 0.986719
1.00527 0.997038 0.988464
1.00527 0.996271 0.989075
1.0049 1.00004 0.98626
1.00507 0.999538 0.986027
0.999998 1.0041 0.990216
1.0007 1.00467 0.988547
1.0051 1.00008 0.986212
1.0045 1.00013 0.987358
1.00534 0.994842 0.990349
1.00527 0.995673 0.989779
1.00518 0.998265 0.986982
1.00516 0.999486 0.986132
0.999781 1.00422 0.990323
1.00536 0.9949 0.990336
1.00255 1.00379 0.988022
1.00485 0.999463 0.986888
1.00528 0.995041 0.990564
1.00518 0.997389 0.986885
1.00503 1.00068 0.985525
1.00026 1.00366 0.990896
0.999393 1.00356 0.992344
0.998647 1.00253 0.995103
1 1.00321 0.991605
1.00006 1.00441 0.990429
0.998887 1.00381 0.99239
1.00012 1.00305 0.991614
0.999856 1.00441 0.990518
0.99891 1.00202 0.994311
0.99991 1.00424 0.99091
0.999225 1.00001 0.99691
0.999081 1.00288 0.993399
0.999661 1.00498 0.990228
1.00034 1.00413 0.990139
1.00018 1.00335 0.991212
0.999905 1.00217 0.992792
0.999906 1.00192 0.993055
0.999891 0.999029 0.996556
0.999937 1.00162 0.993312
1.00003 0.998844 0.996527
1.00004 0.99711 0.997892
1.00014 0.998751 0.99646
1.00016 0.997012 0.997806
1.00019 0.997023 0.99772
1.00017 1.00048 0.994163
1.00005 0.998452 0.996248
0.999965 0.998938 0.995921
0.999802 0.997397 0.99912
0.999843 0.999848 0.995255
0.999755 0.997875 0.998989
0.999825 0.998468 0.998702
1.00526 0.994863 0.990689
1.00527 0.994912 0.990911
1.00527 0.994937 0.991138
1.0052 0.994952 0.991311
1.00526 0.994944 0.991169
1.00528 0.994924 0.991044
1.00529 0.994879 0.990705
1.00528 0.994925 0.991081
1.00534 0.99492 0.990849
1.00545 0.995028 0.991101
1.00526 0.994943 0.991136
1.00528 0.994903 0.990781
1.00527 0.994906 0.990605
1.00489 1.00321 0.98327
1.0049 1.00171 0.984337
1.00488 0.999172 0.986735
1.00522 0.994886 0.990523
1.00501 0.995723 0.989897
1.00452 1.00349 0.982951
1.00423 1.00438 0.983655
1.00291 1.00452 0.985769
0.999995 1.00122 0.993599
1.00006 1.0048 0.989999
1.00097 1.00505 0.988
1.00529 0.994909 0.991006
1.00015 1.00045 0.99414
1.00022 1.00159 0.992813
1.00532 0.994875 0.990556
1.00526 0.994891 0.990566
1.00479 1.00273 0.983857
1.00469 1.00161 0.984721
1.00512 0.997202 0.988069
1.00521 0.994913 0.990264
0.999764 1.00312 0.992218
1.00048 1.00504 0.98912
1.00405 1.0038 0.984106
1.00364 1.00417 0.984387
1.00371 1.00455 0.984138
1.00137 1.00503 0.987232
1.00537 0.994874 0.990753
1.00533 0.994831 0.990462
1.00523 0.994865 0.990382
1.00519 0.994928 0.99033
1.00407 1.00243 0.985014
1.00448 1.00121 0.985984
1.00006 1.00221 0.992287
1.00005 1.00169 0.993114
1.00134 1.00045 0.992645
1.00041 1.00368 0.990426
1.00067 1.00506 0.988728
1.00232 1.00449 0.986497
1.00231 1.00509 0.984585
1.003 1.0009 0.987727
1.00043 1.00396 0.990053
1.0011 1.00472 0.988343
1.00535 0.994829 0.990363
1.00529 0.995632 0.989704
1.00496 1.00047 0.98732
1.00518 1.00007 0.986133
1.00513 0.998235 0.987093
1.00518 0.999592 0.986098
1.00031 1.00397 0.990222
1.00538 0.994917 0.990567
1.00196 1.0038 0.988188
1.005 0.999641 0.986655
1.00528 0.995033 0.990586
1.00516 0.99758 0.987091
1.00494 1.00049 0.985513
0.999847 1.0049 0.990587
1.00494 0.994815 0.990873
1.00274 1.00259 0.987863
1.00474 1.00129 0.985048
1.00508 0.995692 0.989803
1.0037 1.00114 0.986138
0.998782 0.995503 0.98645
0.999188 1.00354 0.992259
0.998123 1.00284 0.995102
0.998695 1.00179 0.996215
1.00002 1.00312 0.991607
0.999812 1.00452 0.99052
1.00032 1.00382 0.99081
0.998473 1.00222 0.994685
1.00011 1.00344 0.991214
1.00025 1.0042 0.990179
0.999276 0.99991 0.996545
0.999803 1.00487 0.990241
0.999471 1.00281 0.992978
0.998373 1.00117 0.997121
1.00033 1.00433 0.990101
1.00016 1.00476 0.990047
1.00067 1.00419 0.989765
1.00012 1.00387 0.990572
1.00035 1.00445 0.990158
1.00012 1.00406 0.990339
0.999903 1.00228 0.992678
0.999924 1.00216 0.992773
0.999766 0.999162 0.995988
0.999904 1.00191 0.993032
0.999879 0.999082 0.996231
1 0.99728 0.999104
1.00003 0.998894 0.996526
1.00006 0.997082 0.997892
1.00017 0.997005 0.997797
1.00007 1.00044 0.994286
1.00018 1.00038 0.994195
1.0001 0.998257 0.996421
1.00005 0.99846 0.996524
0.999869 0.997144 0.999175
0.999952 0.99904 0.995876
0.999803 0.997475 0.999098
0.999786 0.997912 0.998952
1.00527 0.994886 0.990675
1.00527 0.994922 0.991058
1.00526 0.994945 0.99117
1.00528 0.994925 0.991081
1.00534 0.994918 0.990832
1.00543 0.994975 0.99081
1.00541 0.994891 0.990858
1.00135 0.994884 0.982086
1.00472 0.994932 0.992328
1.00008 1.00169 0.993011
1.00529 0.994907 0.990989
1.00532 0.994884 0.990569
1.00525 0.99489 0.990579
1.00476 1.00239 0.983743
1.00489 1.00121 0.984907
1.00509 0.997059 0.987973
1.00523 0.99489 0.990198
1.00448 1.00332 0.983982
1.00403 1.00379 0.984254
1.00361 1.00457 0.98416
1.00014 1.00047 0.994129
1.00185 1.00503 0.987152
0.999784 1.00311 0.992372
1.00046 1.00504 0.989076
1.00021 1.00157 0.992673
1.00537 0.994863 0.990754
1.00003 1.00226 0.992423
1.00004 1.00171 0.993127
1.00103 1.00041 0.992965
1.00534 0.994841 0.990431
1.00522 0.994866 0.990351
1.00332 1.00328 0.985102
1.00474 1.00001 0.986499
1.00518 0.994919 0.99025
1.00018 1.00373 0.990617
1.00091 1.00504 0.988535
1.00311 1.00235 0.987221
1.00291 1.00493 0.984398
1.00266 1.0041 0.986654
1.00533 0.994818 0.990937
1.00523 0.994776 0.990756
1.00517 0.994997 0.989915
1.00499 0.997002 0.990115
1.00191 1.00216 0.988669
0.999498 1.00357 0.991784
1.00111 1.00093 0.992205
1.00003 1.00012 0.993162
1.00044 1.00444 0.990634
1.00037 1.00508 0.989292
1.00091 1.00434 0.987863
1.00226 1.00021 0.990023
1.00105 1.00364 0.990119
1.00111 1.00379 0.988359
1.0054 0.994928 0.990788
1.00528 0.994984 0.990601
1.00515 0.997725 0.987295
1.00507 0.999774 0.986421
1.00487 1.00033 0.985504
1.00028 1.00468 0.99057
1.00467 0.994836 0.99108
1.00287 1.00232 0.987734
1.0048 1.00137 0.984929
1.00506 0.995578 0.99006
1.004 1.00099 0.98622
0.998549 0.996604 0.984587
0.999405 1.00437 0.991354
1.00299 0.996262 0.991091
1.00343 1.00239 0.985919
1.00307 1.00109 0.986926
1.00333 0.997577 0.990731
0.999955 0.994871 0.944787
0.99527 0.994807 0.965784
0.995606 0.999712 0.988322
0.999331 0.994785 0.862735
0.994715 0.99483 0.825441
0.997725 1.00311 0.9951
0.997836 1.00223 0.996505
0.997853 1.00293 0.996612
1.00007 1.00349 0.991215
1.00029 1.00398 0.990218
0.999971 1.00476 0.990255
0.999701 1.00291 0.992542
0.999239 0.999701 0.996172
1.00014 1.00464 0.990068
1.00015 1.00385 0.990659
1.00059 1.00416 0.989807
0.998621 1.00047 0.99655
0.999963 1.00448 0.990447
1.00041 1.00457 0.990443
0.99882 1.00455 0.992066
1.00014 1.00466 0.990173
1.00051 1.00461 0.989235
1.00021 1.00396 0.990382
1.00036 1.00493 0.989405
1.00044 1.00402 0.990542
0.999663 1.00478 0.990743
1.00018 1.00456 0.990111
1.00027 1.00373 0.990749
1.00016 1.00407 0.990327
0.999926 1.00227 0.992683
0.999915 1.00228 0.992682
0.999736 0.999247 0.995997
0.999893 1.00226 0.992755
0.999754 0.999204 0.995981
0.999949 0.997286 0.999132
0.99986 0.999149 0.995909
0.999978 0.997278 0.998502
1.00009 0.997056 0.997889
0.999935 1.00029 0.994613
1.00005 1.00048 0.994291
1.00009 0.998111 0.996589
1.0002 1.00028 0.994225
1.00009 0.998207 0.996702
0.999925 0.996883 0.999223
1.00007 0.998499 0.996208
0.999868 0.997254 0.999154
0.999813 0.997571 0.999078
1.00533 0.994915 0.990815
1.00528 0.994926 0.991081
1.00541 0.994939 0.990529
1.00076 0.994837 0.982232
1.00541 0.994891 0.990869
1.00459 0.994944 0.992088
1.00514 0.996154 0.991216
0.996273 0.994886 0.965061
1.00129 0.995607 0.984357
1.00013 1.00142 0.993282
1.00005 1.00185 0.992973
0.9994 1.0038 0.991902
0.999881 1.00229 0.992693
1.00537 0.994859 0.990753
1.00534 0.994857 0.990399
1.00521 0.994872 0.99032
1.00424 1.00359 0.985195
1.00465 0.99815 0.987033
1.00518 0.994921 0.990169
1.0027 1.0031 0.986692
1.0043 1.00496 0.984201
1.00286 1.00272 0.986803
0.999987 1.00182 0.993143
1.00088 1.00499 0.988353
1.00011 1.00377 0.990811
0.999928 1.00248 0.992556
1.00052 1.00072 0.993261
1.00534 0.994818 0.990943
0.999815 1.00349 0.991627
1.00126 1.00052 0.992428
0.998597 1.0012 0.995273
1.00524 0.994802 0.990664
1.00517 0.99505 0.98993
1.00314 1.00098 0.988656
1.00467 0.996067 0.990454
1.00056 1.00446 0.990024
1.00071 1.00485 0.988493
1.00196 1.00184 0.989916
1.00234 1.00368 0.987294
1.00433 0.995081 0.991656
1.00511 0.994959 0.991083
1.005 0.995958 0.989621
1.00334 0.996941 0.992795
0.99822 1.0046 0.992926
1.00088 1.00125 0.992045
0.998211 1.0048 0.99289
0.999299 1.00455 0.9909
0.999982 0.994895 0.931853
1.00052 1.00454 0.99055
1.00288 1.00247 0.987601
1.00433 0.99487 0.991316
1.0051 0.995524 0.990313
1.00416 1.00084 0.986285
1.00463 1.00151 0.984805
0.998442 0.997311 0.982585
0.999676 1.00428 0.991663
1.00294 0.996434 0.991
1.00336 1.00264 0.985966
1.00358 1.00109 0.987022
1.00375 0.997632 0.990458
1.00001 0.99487 0.932253
0.99568 0.994797 0.962247
0.995564 1.00022 0.988516
0.998339 0.994761 0.867519
0.994723 0.994831 0.815816
0.999491 1.00423 0.991363
0.999787 0.994821 0.87382
0.99472 0.994808 0.818129
1.0003 0.999707 0.992655
1.00161 1.00207 0.989399
1.00144 0.999491 0.992552
0.99507 0.998849 0.990838
0.997869 0.994823 0.943521
0.994918 0.994767 0.958331
0.996539 0.994855 0.884583
0.99473 0.994808 0.808753
0.997242 1.0026 0.996804
0.997585 1.00225 0.996455
0.997825 1.00443 0.995125
1.00022 1.00377 0.990744
1.00054 1.00413 0.98985
0.999665 1.00493 0.990089
0.999709 1.00461 0.990792
0.999095 0.999625 0.995985
1.00023 1.00394 0.990388
1.00015 1.00469 0.990339
1 1.00479 0.990038
1.00067 1.00451 0.989364
0.99876 1.00442 0.99235
0.999503 1.00465 0.991588
0.99765 1.00512 0.993099
1.00014 1.00504 0.989474
1.00054 1.00465 0.989433
1.00047 1.00482 0.989388
1.00024 1.00372 0.990803
1.00035 1.00499 0.989639
0.999865 1.00389 0.99131
0.999328 1.00283 0.991852
0.999289 1.00502 0.990863
0.99955 1.00473 0.990687
0.999841 1.00444 0.990768
1.00011 1.00371 0.990921
1.00006 1.00456 0.990066
1.00026 1.00372 0.990686
1 1.00223 0.992611
1.00023 1.00404 0.990315
0.999935 1.00224 0.992694
0.999915 0.999213 0.996444
0.999897 1.0023 0.992686
0.99978 0.999216 0.996258
0.999897 0.997282 0.997974
0.999745 0.999222 0.995973
0.999944 0.997306 0.99914
0.999974 0.997304 0.997896
1.00022 1.00141 0.993076
0.999924 1.00018 0.994763
0.999941 1.00032 0.994605
1.00006 0.998041 0.996697
1.00003 1.00053 0.994295
1.0001 0.998075 0.996588
0.999967 0.996776 0.999255
1.00007 0.998205 0.996946
0.999931 0.997036 0.99866
0.999899 0.997305 0.99802
1.00023 0.994813 0.982361
1.00541 0.994893 0.990879
1.00434 0.995604 0.991837
0.99647 0.994877 0.96567
1.00137 0.995302 0.984726
1.00518 0.995601 0.991188
1.00347 0.996342 0.9866
0.997205 0.994995 0.968422
0.999979 0.994868 0.942741
0.998282 0.994823 0.885949
0.99466 0.994794 0.824229
0.999728 1.00241 0.992637
1.00016 1.00136 0.993267
1.00015 1.00176 0.992934
0.999743 1.00324 0.99203
0.999259 1.00405 0.992272
1.00057 1.00196 0.991884
1.00016 1.00289 0.991988
1.0001 1.00212 0.992548
1.00534 0.994811 0.990942
1.00525 0.994819 0.990577
1.00518 0.995058 0.98994
1.00309 1.00122 0.988642
1.00449 0.995625 0.990794
1.00182 1.0026 0.989791
1.00378 1.00397 0.986732
1.00134 1.00506 0.987702
1.00127 1.0001 0.992648
1.00061 1.00456 0.989385
1.00039 1.00308 0.991484
0.997773 1.00138 0.997351
1.00429 0.994817 0.991926
0.998697 1.00412 0.992852
1.00069 1.00167 0.99243
1.00485 0.994906 0.991052
1.00475 0.99578 0.98994
1.00272 0.996932 0.992476
0.999487 1.00511 0.991303
1.00055 1.00339 0.991122
1.00328 0.994809 0.991437
1.00394 0.998499 0.990539
1.00465 0.995501 0.990933
1.00091 0.998201 0.99385
0.999444 1.00493 0.990676
0.998913 1.0043 0.992242
0.999375 1.00504 0.991893
0.999791 0.99491 0.876496
1.00027 0.994868 0.945418
1.00009 1.00386 0.991973
1.00352 1.00275 0.986022
1.00285 0.996979 0.990904
1.00409 0.9977 0.990196
1.00403 1.0012 0.987138
0.999992 0.994897 0.943158
0.99592 0.994767 0.961768
0.995573 1.00075 0.98875
0.997808 0.994814 0.884867
0.994727 0.994823 0.805645
0.999744 1.00416 0.991326
0.99981 0.994854 0.873131
0.994684 0.994789 0.81138
1.00041 0.999694 0.992629
1.00162 1.0022 0.989391
1.00136 0.999607 0.992942
0.994901 1.00003 0.991543
0.998635 0.99531 0.937409
0.994849 0.994782 0.959989
0.99607 0.995674 0.884089
0.994747 0.994803 0.807269
0.998666 1.00407 0.994149
0.994715 0.994807 0.809336
0.994746 0.994779 0.819067
0.996991 1.00217 0.996816
0.999823 1.00202 0.994371
0.994943 0.999658 0.988695
0.994984 0.994898 0.961205
0.995596 0.994779 0.932283
0.994763 0.996777 0.888807
0.99483 0.994834 0.813056
0.997577 1.00185 0.996305
0.998239 1.00371 0.994901
0.997012 1.00393 0.995374
1.00022 1.00394 0.990393
1.0008 1.00433 0.989492
1.00002 1.00489 0.989901
0.999876 1.00474 0.990238
0.998341 1.00434 0.992634
1.0005 1.00474 0.989422
0.99955 1.00442 0.99127
1.00035 1.00495 0.989483
0.997261 1.00503 0.993485
0.995933 1.00521 0.996312
0.99891 1.00497 0.991743
1.00051 1.00506 0.989362
1.00056 1.0047 0.989372
1.00015 1.0033 0.991059
1.00027 1.00496 0.989585
0.999981 1.00374 0.991218
0.999157 1.00297 0.992623
0.999015 1.00486 0.99127
0.998903 1.00496 0.991404
0.998832 1.00345 0.992968
1.00044 1.00171 0.992617
1.00216 0.999891 0.990945
0.99908 1.00487 0.991077
0.99947 1.00484 0.990911
0.999602 1.005 0.99008
0.999606 1.00487 0.990688
1.00004 1.00391 0.990807
0.999839 1.00448 0.990791
1.00015 1.00371 0.990944
1.00003 1.00223 0.992483
1.00026 1.00376 0.990623
0.999985 1.00223 0.992627
1.00004 0.999167 0.996265
0.999925 1.00224 0.992706
0.999893 0.999184 0.996101
1 0.997228 0.997837
0.999774 0.999201 0.995968
0.999952 0.997273 0.999147
0.999941 0.997302 0.999148
1.00028 1.00182 0.99292
0.999942 1.00034 0.994605
1.00013 1.00158 0.993086
1.00005 0.998002 0.996739
0.999918 1.00019 0.994764
0.999941 1.00037 0.994597
1.00006 0.998038 0.996686
0.999993 0.996691 0.99927
1.00007 0.998091 0.997078
0.999979 0.996774 0.998734
0.99995 0.997052 0.998147
0.99981 0.994828 0.861317
0.994688 0.994766 0.809548
0.996542 0.994875 0.966081
1.00124 0.994909 0.985186
1.00524 0.994826 0.991169
0.996853 0.99524 0.968138
1.00354 0.995491 0.987115
1.00086 0.994882 0.939496
0.998665 0.994783 0.867667
0.994698 0.994811 0.814831
0.998052 0.994847 0.973879
0.998791 0.994869 0.942806
0.996637 0.994855 0.884582
0.994739 0.994792 0.81501
1.00016 1.00328 0.991589
0.99988 1.00215 0.992773
1.00012 1.00143 0.993256
0.999908 1.00293 0.992158
0.999105 1.00401 0.992536
1.00022 1.00361 0.990803
1.00032 1.00275 0.991698
1.00045 1.00359 0.990432
1.00013 1.00288 0.99187
0.999997 1.00242 0.992396
1.00411 0.994779 0.992183
1.00471 0.994838 0.991022
1.00445 0.995646 0.99026
1.0023 0.997436 0.992153
1.00104 1.00314 0.991345
0.999549 1.00518 0.989737
1.0003 1.00207 0.992879
0.998867 1.00404 0.992765
1.0025 0.994917 0.991867
0.999524 1.00503 0.990451
0.998611 1.00466 0.992015
1.00372 0.997318 0.99073
1.00443 0.995536 0.991072
1.00107 0.998264 0.994176
0.999178 1.00503 0.991682
1.00026 0.995187 0.991108
1.00139 0.998615 0.99361
0.999132 1.0014 0.994943
0.998705 1.00488 0.989971
0.998742 1.00515 0.990747
0.998609 1.00501 0.99219
0.994725 0.994842 0.832409
0.99979 0.994881 0.881537
0.999992 0.994874 0.932176
0.999541 1.00403 0.99127
1.00184 1.00237 0.989359
1.00051 0.999474 0.992599
1.00125 0.999772 0.993339
0.999814 0.994874 0.885233
0.998164 0.994833 0.932454
0.994838 0.994847 0.9584
0.99489 1.001 0.99215
0.996837 0.994822 0.869524
0.994661 0.994789 0.816768
0.994789 0.994815 0.821202
0.998491 1.00347 0.993859
0.994705 0.994816 0.819186
0.994772 0.994784 0.818517
0.997123 1.00068 0.997469
0.999419 1.00202 0.994249
0.995006 0.998509 0.991102
0.995463 0.99486 0.959954
0.996439 0.997316 0.943229
0.994718 0.99736 0.872481
0.994946 0.99483 0.823266
0.997113 1.00405 0.996361
0.994786 0.99483 0.827372
0.994816 0.99479 0.815716
0.995013 1.00239 0.999979
0.995335 0.997055 0.968532
0.99484 0.99877 0.942355
0.995246 0.99613 0.864485
0.995194 0.994873 0.830303
0.998654 1.00271 0.994637
0.99734 1.00428 0.995551
0.995709 1.00423 0.997847
1.0004 1.00477 0.989411
1.00046 1.00496 0.989494
0.999687 1.00413 0.990953
0.997061 1.0049 0.993872
1.00029 1.00505 0.989369
0.998863 1.00499 0.991729
0.995774 1.00518 0.99668
0.995019 1.00501 0.998271
0.995791 1.00514 0.996823
0.999395 1.00497 0.991229
1.00025 1.00497 0.989529
1.00004 1.0035 0.991124
0.998844 1.00326 0.993374
0.998911 1.00495 0.991478
0.999214 1.00484 0.991287
0.998826 1.00364 0.993093
0.998883 1.00458 0.991951
0.996625 1.00496 0.995601
1.00233 0.997403 0.993309
1.00009 1.00148 0.993137
1.0011 1.00094 0.991699
1.0046 1.00052 0.98696
1.00152 1.0022 0.990819
1.00104 0.999801 0.99281
0.99961 1.00461 0.99081
0.999695 1.00512 0.989661
0.999711 1.0046 0.99096
0.999886 1.00503 0.990087
1.00007 1.00452 0.990172
0.99999 1.00471 0.990689
1.00026 1.0037 0.990791
1.00011 1.00234 0.992298
1.00034 1.00344 0.990969
1.00011 1.00221 0.992491
1.00015 0.999188 0.996064
1.00002 1.00218 0.992644
1.00003 0.999171 0.995891
1.00009 0.997246 0.997703
0.999896 0.999162 0.995806
0.999989 0.997236 0.998489
0.999963 0.997251 0.999129
1.00021 1.00247 0.992005
1.00008 1.00047 0.994306
1.00019 1.00186 0.992742
1.00004 0.998064 0.996686
0.99996 1.00029 0.994612
1.00013 1.00156 0.993097
1.00002 0.996652 0.999278
1.00004 0.998002 0.996739
0.999921 1.00021 0.994764
1.00007 0.998024 0.996675
0.999994 0.996727 0.999266
0.999964 0.996767 0.999251
0.994687 0.994778 0.813023
0.999798 0.994843 0.873016
0.994755 0.994769 0.816335
0.994707 0.994769 0.808564
0.996865 0.994888 0.966139
1.00344 0.994865 0.987637
0.999922 0.994863 0.935589
0.999129 0.994817 0.885841
0.994733 0.994825 0.805132
0.998496 0.994872 0.973051
0.999757 0.99594 0.929062
0.99628 0.996609 0.882718
0.994721 0.99479 0.80784
0.995263 0.99483 0.965827
0.996406 0.996572 0.930742
0.994826 0.997389 0.865076
0.994819 0.994855 0.811488
1.00084 1.00453 0.990227
0.999844 1.00327 0.991697
1.00002 1.00189 0.992906
0.998811 1.00376 0.992804
1.00082 1.004 0.989367
1.00017 1.00347 0.991014
0.999913 1.00326 0.99152
1.00092 1.00314 0.990438
1.00053 1.00367 0.99054
1.00017 1.0027 0.991755
1.0021 0.994789 0.992294
1.0036 0.996391 0.990938
1.00408 0.995634 0.991214
1.00093 0.997289 0.994525
1.00015 1.00504 0.991457
0.999003 1.00509 0.991798
0.99967 1.00498 0.990222
1.00015 1.00492 0.989723
0.999869 0.99535 0.991552
0.999624 1.00513 0.990493
0.99932 1.00499 0.99206
1.00133 0.99818 0.994312
0.999872 1.00035 0.994763
0.996559 0.998896 0.99121
0.996736 0.998982 1.00081
0.997199 1.00335 0.995469
0.999581 1.005 0.990612
0.997925 1.00512 0.993301
0.994814 0.994815 0.833291
0.994717 0.994823 0.828492
0.999799 0.99489 0.864991
0.998453 1.00302 0.993626
0.999135 1.00174 0.994117
0.997267 0.999939 0.998125
0.99468 0.9948 0.817882
0.996575 0.996574 0.932025
0.995617 0.994881 0.959826
0.994873 0.997114 0.993787
0.994796 0.997272 0.890544
0.994775 0.994787 0.818554
0.995064 0.994839 0.824299
0.997425 1.00405 0.996197
0.994792 0.994826 0.830261
0.994805 0.99479 0.816516
0.995216 1.0017 0.999083
0.995299 0.996277 0.970503
0.994863 0.996411 0.930913
0.995044 0.994864 0.826634
0.995 0.998697 0.872536
0.994962 1.00479 0.999802
0.994794 0.994824 0.823238
0.994867 0.994825 0.823457
0.994813 0.994849 0.812101
0.994815 0.998874 0.990362
0.994874 0.998672 0.945845
0.997045 0.996821 0.880327
0.997772 1.00485 0.995756
0.995866 1.00472 0.997659
0.99512 1.00479 0.999223
1.00021 1.00506 0.989377
0.998829 1.00504 0.991711
0.995608 1.00516 0.997043
0.999094 1.00504 0.991204
0.995969 1.00507 0.996822
0.995211 1.00486 0.998231
0.994975 1.00514 0.998453
0.995827 1.00492 0.996891
0.998833 1.00486 0.991565
0.999357 1.00491 0.991303
0.99886 1.00399 0.993242
0.996836 1.00487 0.995456
0.998906 1.00479 0.991836
0.999146 1.00207 0.99412
0.999945 0.997875 0.996706
1.00245 1.00032 0.989159
0.999727 1.00127 0.993618
1.00166 1.00101 0.991197
1.00435 1.00187 0.985907
1.00502 1.00224 0.984169
1.00331 0.99989 0.989707
1.00382 1.0005 0.987337
1.00076 1.00511 0.988845
1.00088 1.00249 0.991212
0.999922 0.999793 0.994651
1.00014 1.00439 0.990545
0.999873 1.00511 0.989699
1.00021 1.00496 0.989421
1.00014 1.00506 0.990095
1.00022 1.00434 0.990186
1.00014 1.00279 0.991759
1.00035 1.00365 0.990772
1.00015 1.00229 0.992289
1.00018 0.999245 0.99595
1.00013 1.00217 0.992499
1.00014 0.999196 0.995692
1.00017 0.997285 0.997553
1.00003 0.999179 0.995571
1.00007 0.997239 0.998392
1.00002 0.99722 0.999075
1.00054 1.00273 0.991082
1.0001 1.00084 0.993593
1.00035 1.00235 0.991996
1.0001 0.998121 0.996531
1.00005 1.00049 0.994156
1.00015 1.00187 0.992567
1.00004 0.996677 0.999262
1.00006 0.99803 0.996696
0.999977 1.00022 0.994619
1.00002 0.99667 0.999276
1.00003 0.998016 0.99674
0.999995 0.996701 0.999263
0.994822 0.99482 0.823898
0.994696 0.99481 0.825404
0.999799 0.994819 0.872193
1.00111 1.00271 0.99041
0.994818 0.994795 0.82255
0.994756 0.994768 0.816299
0.994737 0.994779 0.820709
0.999084 0.994883 0.972189
0.998387 0.994845 0.94171
0.996392 0.994857 0.867008
0.994697 0.994802 0.816202
0.996463 0.994851 0.963252
0.996539 0.998475 0.941502
0.994752 0.996776 0.868225
0.994825 0.99484 0.815695
0.994842 0.994963 0.957862
0.994836 0.996643 0.940084
0.995394 0.999961 0.875844
0.995096 0.994884 0.830141
0.999742 1.00493 0.99019
1.00029 1.00435 0.990137
1.00002 1.00329 0.991805
1.0006 1.00334 0.99042
1.00058 1.00437 0.989647
1.00015 1.00373 0.991222
1.00091 1.00327 0.9904
1.00051 1.00371 0.990642
0.998778 0.996728 0.991829
1.00095 0.997657 0.994927
1.00039 1.00498 0.989474
1.00067 0.99978 0.994589
0.999544 1.00494 0.991931
1.00004 1.00514 0.990249
0.999279 1.00488 0.990711
0.996004 0.99832 0.991903
0.99824 1.00512 0.993272
0.997792 1.00307 0.995743
0.996248 0.999821 1.00098
0.998893 1.00484 0.992026
0.994807 1.00075 0.988101
0.995374 1.00258 0.999142
0.996083 1.00494 0.996641
0.998035 1.00544 0.993872
0.994783 0.994805 0.82883
0.994819 0.994816 0.831075
0.994707 0.994812 0.824485
0.997711 1.00412 0.99601
0.99543 1.0007 0.998177
0.994807 0.994826 0.832974
0.994794 0.998398 0.942849
0.995612 0.996135 0.967857
0.995033 0.998656 0.870954
0.994806 0.99479 0.817125
0.994881 0.994855 0.822994
0.995415 1.00459 0.999453
0.994798 0.994821 0.823261
0.994862 0.994833 0.824705
0.994785 0.999455 0.994101
0.994821 0.994836 0.816021
0.994852 0.996292 0.938199
0.996015 0.99745 0.882389
0.99478 1.00332 0.998595
0.994835 0.994842 0.829257
0.994801 0.994801 0.823559
0.994741 0.994804 0.81531
0.995444 0.999961 0.874923
0.99489 1.00061 0.975509
0.995489 0.997921 0.931242
0.996166 1.00504 0.99748
0.995069 1.00505 0.999194
0.994885 1.00518 0.998478
0.998755 1.0051 0.99118
0.995892 1.00513 0.996825
0.995054 1.0052 0.998187
0.995892 1.00486 0.996816
0.994958 1.00514 0.998489
0.997756 1.00212 0.997537
0.997047 1.0047 0.995299
0.998903 1.00487 0.991734
0.99898 1.0023 0.994774
0.9989 1.00214 0.99264
0.99769 0.998315 0.999958
1.00222 0.999934 0.990353
1.00427 1.00424 0.982788
1.00471 1.00287 0.983648
1.00218 1.00101 0.990653
1.00429 1.00219 0.985175
1.0051 1.00221 0.984074
1.00472 1.00004 0.986663
1.00477 1.00201 0.984543
1.00151 1.00334 0.988828
1.00302 1.00043 0.989476
1.00312 1.00041 0.987732
1.00038 1.00512 0.988708
1.00031 1.00506 0.989104
1.00031 1.00266 0.991604
0.99998 1.00511 0.989737
1.00032 1.00495 0.989438
1.00018 1.0038 0.990754
1.00038 1.0043 0.9902
1.00018 1.00283 0.991741
1.00014 0.999457 0.995089
1.00022 1.0023 0.992282
1.0002 0.999243 0.99523
1.00008 0.997279 0.998952
1.00014 0.99923 0.995357
1.00013 0.997278 0.998278
1.00008 0.997232 0.999009
1.00052 1.00282 0.990983
1.00026 1.00133 0.992886
1.00047 1.00279 0.99123
1.00016 0.998288 0.99628
1.00018 1.00082 0.993513
1.00038 1.00234 0.991984
1.00007 0.996672 0.999228
1.00011 0.998099 0.996545
1.00005 1.00049 0.994006
1.00004 0.996654 0.999269
1.00007 0.997993 0.996707
1.00001 0.996708 0.999274
0.994799 0.994827 0.829657
0.994819 0.994819 0.824155
0.994688 0.994825 0.82534
1.00098 1.00276 0.990589
1.00075 1.00299 0.990475
1.00108 1.00214 0.991248
0.994871 0.994829 0.822616
0.994817 0.994792 0.823206
0.994755 0.994759 0.816339
0.996777 0.994852 0.96414
0.996189 0.994793 0.929899
0.994782 0.998945 0.889097
0.994823 0.994833 0.81021
0.994995 0.994972 0.96064
0.994902 0.998024 0.936407
0.995307 0.998057 0.872147
0.995065 0.994872 0.826233
0.995753 0.995151 0.957501
0.99485 0.997315 0.940968
0.996507 0.996932 0.880752
0.994838 0.99483 0.813947
0.999844 1.00332 0.991573
1.00034 1.00436 0.989998
1.00043 1.00394 0.990043
1.0008 1.00319 0.990359
1.00027 1.00457 0.98993
1.00088 1.00345 0.990363
0.995893 0.997055 0.99272
0.996091 1.00066 1.00128
0.99968 1.00416 0.990805
0.998637 1.00248 0.995943
0.998431 1.00511 0.993235
0.998439 1.00453 0.992556
0.997404 1.00538 0.993932
0.994905 1.00114 0.987975
0.99588 1.00511 0.997088
0.99582 1.00278 0.998412
0.997333 1.00522 0.994327
0.994933 1.00273 0.984877
0.995549 1.00451 0.995586
0.995468 1.00474 0.99812
0.994842 0.99483 0.828346
0.994785 0.994814 0.828234
0.994822 0.994812 0.828894
0.995746 1.00399 0.999071
0.994789 0.999805 0.990114
0.994795 0.994819 0.823295
0.994849 0.997979 0.937851
0.996537 0.996829 0.867435
0.994861 0.994835 0.825933
0.994816 0.99483 0.810944
0.994787 1.00313 0.999053
0.994826 0.994843 0.829657
0.994817 0.994802 0.824254
0.994876 0.999564 0.972912
0.994714 0.994801 0.808513
0.995826 0.999553 0.86958
0.995078 0.995541 0.944549
0.994864 1.00518 0.990963
0.994792 0.994839 0.829889
0.994776 0.994787 0.817523
0.994655 0.994805 0.825636
0.994785 0.997396 0.864349
0.994855 0.998922 0.939562
0.994881 1.00095 0.96722
0.995084 1.00494 0.999143
0.994925 1.00519 0.998433
0.996386 1.00357 0.9976
0.996052 1.00475 0.996743
0.994975 1.00508 0.998498
0.996393 1.00381 0.997607
0.999406 0.998556 0.998102
0.998777 1.00276 0.995415
1.00122 1.00165 0.991776
1.00227 1.00479 0.985774
1.00183 0.999609 0.991745
1.00424 1.00408 0.983395
1.0043 1.00495 0.982219
1.00503 1.00165 0.983974
1.00506 1.00188 0.984193
1.00467 1.00297 0.983561
1.00449 1.00244 0.98446
1.00509 1.00141 0.984947
1.00512 1.00212 0.984083
1.00355 1.001 0.987671
1.00451 1.00016 0.986982
1.00442 1.00182 0.984919
1.00073 1.00511 0.98802
1.00164 1.00357 0.988773
1.0026 1.0011 0.989235
1.00035 1.00451 0.989797
1.00067 1.00511 0.988715
1.00004 1.005 0.989363
1.00049 1.00488 0.989458
1.0003 1.00362 0.990759
1.00005 1.00005 0.99462
1.00028 1.00272 0.991723
1.00016 0.999501 0.995063
1.00008 0.99741 0.998917
1.00021 0.99926 0.995226
1.00014 0.997305 0.998228
1.00012 0.997272 0.998956
1.00061 1.00322 0.990757
1.00038 1.00159 0.99262
1.00064 1.00271 0.991039
1.00023 0.998543 0.995906
1.00026 1.00133 0.99297
1.00047 1.00279 0.99138
1.0001 0.996749 0.99917
1.00017 0.998236 0.9963
1.00022 1.0008 0.993434
1.00007 0.996691 0.999238
1.00011 0.998074 0.99656
1.00004 0.996665 0.999275
0.994834 0.994837 0.82848
0.994802 0.994841 0.82969
0.994816 0.99483 0.824464
1.00025 1.00445 0.989652
1.00115 1.00413 0.989818
1.00079 1.00289 0.990772
1.00065 1.00327 0.990366
1.00061 1.00232 0.991419
1.00032 1.00297 0.991265
1.00025 1.00192 0.99241
0.994833 0.994802 0.816009
0.994876 0.994838 0.823976
0.99481 0.994813 0.823878
0.994886 0.994863 0.822412
0.995153 0.994897 0.958167
0.994853 0.999163 0.931444
0.995431 0.995823 0.886122
0.995363 0.994951 0.956555
0.994838 0.998712 0.928642
0.995501 0.997728 0.882704
0.994886 0.994827 0.823966
0.996072 0.996389 0.960391
0.995035 0.999478 0.929898
0.995269 0.996424 0.864589
0.994735 0.994815 0.809666
0.997998 1.00479 0.9936
0.999628 1.00378 0.991846
1.00041 1.00461 0.989806
1.0009 1.00337 0.990303
0.995063 1.00131 0.98804
0.995927 1.00333 0.997532
0.998147 1.0051 0.993087
0.997182 1.00531 0.993998
0.995713 1.00513 0.997593
0.997324 1.00485 0.994399
0.995515 1.00473 0.998131
0.995843 1.00264 0.981497
0.995072 1.00509 0.995859
0.995766 1.00396 0.997528
0.994808 1.00489 0.98062
0.995211 1.00304 0.999181
0.99478 0.994816 0.829251
0.994838 0.994831 0.831388
0.99479 0.994828 0.827619
0.994793 1.00304 0.999489
0.994849 0.999417 0.976278
0.994819 0.994839 0.830106
0.995274 0.99748 0.932192
0.996046 0.996833 0.884501
0.994828 0.994822 0.824887
0.994697 0.994809 0.816686
0.994873 1.00449 0.99184
0.994808 0.994838 0.829946
0.994759 0.994783 0.817539
0.994886 0.999834 0.967158
0.994705 0.994816 0.816361
0.99472 0.997334 0.866669
0.995171 0.998818 0.927829
0.994959 1.0048 0.985778
0.994834 0.994819 0.824092
0.994679 0.994775 0.81109
0.996415 0.994857 0.886012
0.994782 0.998255 0.939447
0.994812 0.999988 0.960183
0.994955 1.00527 0.998776
0.995674 1.00412 0.997677
0.996895 1.00009 0.999043
0.995308 1.00501 0.997668
0.997726 1.00031 0.998409
1.00198 0.999337 0.993337
1.00361 1.00106 0.990922
1.00315 1.00489 0.98504
1.00372 1.00407 0.983467
1.00395 1.00409 0.984
1.00445 1.00475 0.982155
1.00438 1.00421 0.982798
1.00519 0.999987 0.985366
1.00513 1.00102 0.9849
1.00503 1.00187 0.983942
1.00509 1.00165 0.984525
1.00505 1.00176 0.984197
1.00454 1.00317 0.983473
1.00511 1.00109 0.985519
1.00498 1.00164 0.984795
1.00513 1.00205 0.984096
1.00236 1.00378 0.987367
1.0033 1.0012 0.987982
1.00431 1.00018 0.987302
1.0005 1.00485 0.988764
1.00111 1.00497 0.988074
1.00161 1.00382 0.988718
1.00011 1.0006 0.993952
1.00046 1.00431 0.989803
1.00089 1.0051 0.988721
1.00037 1.00352 0.990762
1.00007 1.00011 0.994586
1.00003 0.99767 0.998845
1.00017 0.999533 0.995038
1.00008 0.997423 0.998904
1.00012 0.997275 0.998932
1.00008 1.00508 0.989828
1.00071 1.00404 0.989886
1.0005 1.00205 0.992006
1.00061 1.00314 0.990742
1.00027 0.998879 0.995505
1.00038 1.00163 0.99261
1.00065 1.0027 0.991095
1.00012 0.996909 0.999078
1.00023 0.998522 0.995929
1.00026 1.00133 0.993053
1.0001 0.996736 0.999188
1.00018 0.998208 0.996321
1.00007 0.996669 0.99925
0.994798 0.994834 0.82333
0.994818 0.994832 0.828916
0.994811 0.994832 0.829716
1.00041 1.00467 0.989626
1.00061 1.0036 0.989995
1.00014 1.00291 0.990173
0.999801 1.0045 0.98996
1.0015 1.00341 0.990376
1.00076 1.00346 0.990257
1.00043 1.00244 0.991588
1.00041 1.00298 0.991289
1.00036 1.00209 0.992415
0.998984 1.00398 0.99278
0.994753 0.994778 0.819366
0.994815 0.9948 0.816861
0.994877 0.994833 0.825266
0.995042 0.994839 0.824937
0.995959 0.996936 0.868105
0.99504 0.995191 0.955272
0.994863 0.997636 0.940566
0.995388 0.996643 0.956697
0.994893 0.996174 0.941637
0.994975 0.999085 0.87316
0.994752 0.994802 0.808206
0.994844 0.998885 0.960119
0.994834 1.00077 0.941488
0.994771 0.998017 0.888357
0.994708 0.994837 0.826561
0.998339 1.00213 0.995954
0.997635 1.00467 0.993866
0.999568 1.00365 0.992129
0.996402 1.00237 0.977837
0.994953 1.00514 0.996174
0.997145 1.00475 0.994469
0.995085 1.00479 0.99814
0.996103 1.00396 0.997502
0.995168 1.00267 0.999463
0.994878 1.00257 0.979918
0.995839 1.00121 1.00007
0.9957 1.00042 0.986273
0.994817 0.99482 0.832283
0.994791 0.994826 0.828672
0.994831 0.99483 0.834467
0.994896 1.00387 0.992164
0.994843 0.999534 0.964686
0.994822 0.994843 0.829989
0.994853 0.9993 0.939507
0.99475 0.998968 0.887098
0.994742 0.994764 0.817696
0.994732 0.994828 0.806749
0.995317 1.00464 0.986521
0.994816 0.994825 0.824251
0.994702 0.994777 0.810196
0.995037 0.999328 0.961205
0.996109 0.996067 0.883694
0.99487 0.997957 0.934299
0.995151 1.00313 0.983521
0.994686 0.994784 0.813803
0.998253 0.994832 0.887177
0.996261 0.99668 0.930953
0.994846 0.996539 0.962574
0.995516 1.00498 0.997754
0.996421 1.00106 0.998999
0.998979 1.00215 0.995613
0.99603 1.00223 0.998686
1.00085 0.999737 0.994028
1.0036 0.999312 0.989694
1.00396 1.00491 0.98429
1.00366 1.0042 0.983352
1.00427 1.00115 0.985292
1.00473 1.00456 0.982093
1.00446 1.00377 0.982887
1.00496 1.00006 0.985862
1.00527 0.997422 0.987677
1.00524 0.999484 0.985733
1.0052 0.999893 0.985448
1.00518 1.00087 0.985122
1.00513 1.00106 0.98481
1.00505 1.00202 0.983908
1.00517 1.002 0.984408
1.005 1.00157 0.984555
1.00505 1.00166 0.984201
1.00432 1.00165 0.986252
1.00459 1.00149 0.985627
1.00489 1.00192 0.984644
1.00098 1.00509 0.987439
1.00224 1.00372 0.987366
1.00322 1.0014 0.988291
1.00008 1.00152 0.994058
1.00077 1.00485 0.988771
1.00145 1.00477 0.988131
1.00006 0.998186 0.996759
1.00011 1.00081 0.994307
1.00059 1.0042 0.989807
1.0001 1.00019 0.99455
1.00005 0.997748 0.998796
1.00009 0.997436 0.998888
1.00048 1.00508 0.989191
1.00083 1.00492 0.989041
0.999775 1.0051 0.989712
1.00052 1.0029 0.991154
1.00053 1.00426 0.989861
1.00023 0.999266 0.995171
1.00047 1.00206 0.992017
1.00071 1.00307 0.990725
1.00012 0.997161 0.998984
1.00026 0.99886 0.995521
1.00036 1.00167 0.9926
1.00012 0.996899 0.999107
1.00022 0.998486 0.995951
1.0001 0.996737 0.999206
0.994787 0.994823 0.833689
0.994807 0.994836 0.823369
0.994805 0.994846 0.829374
1.00149 1.00173 0.989848
1.00002 1.00506 0.989599
1.00042 1.00342 0.990185
1.00043 1.00482 0.989687
1.00103 1.00251 0.990244
1.00068 1.00321 0.991454
1.00294 1.00229 0.987782
0.998408 1.00495 0.991534
1.00045 1.00292 0.991311
1.00009 1.00195 0.992419
0.998754 1.00387 0.992693
0.9981 1.00494 0.993369
0.994716 0.994804 0.818331
0.994775 0.994782 0.818859
0.994815 0.994798 0.817548
0.99478 0.994814 0.821664
0.994897 0.998966 0.872026
0.995306 0.998551 0.930063
0.994898 0.996033 0.956804
0.994876 0.999269 0.959327
0.994716 0.994839 0.816804
0.99487 0.996607 0.933828
0.994761 0.998359 0.871931
0.994923 0.99656 0.964928
0.994864 0.999414 0.942569
0.996088 0.994854 0.885372
0.999572 0.995842 0.999581
0.998251 1.00196 0.995883
0.997582 1.00449 0.994118
0.994897 1.00172 0.97968
0.994954 1.00213 0.999708
0.996742 1.0039 0.997466
0.996909 1.00074 1.00025
0.995222 0.999244 0.986448
0.996467 0.998355 0.992054
0.994716 0.994845 0.827047
0.994815 0.994812 0.833736
0.994799 0.994827 0.828018
0.99498 1.00439 0.986791
0.994862 0.999972 0.960913
0.9948 0.994833 0.824591
0.994839 0.999288 0.929873
0.996249 0.994863 0.868374
0.994741 0.994791 0.822027
0.994775 1.00463 0.983486
0.994697 0.994818 0.825985
0.998317 0.99479 0.868799
0.99486 0.995859 0.958324
0.99629 0.998084 0.941942
0.994875 1.00272 0.989507
0.999803 0.994841 0.861511
0.998617 0.994878 0.943854
0.994843 0.994849 0.957434
0.995923 1.0018 0.999013
0.998305 1.0013 0.995352
1.00141 1.00308 0.99124
0.99979 0.99985 0.994723
1.00288 0.999927 0.989513
1.0043 0.999452 0.98789
1.00373 1.00429 0.983237
1.00427 1.0013 0.985213
1.00505 0.996924 0.988092
1.00447 1.00323 0.982977
1.00482 0.99992 0.985868
1.00528 0.99606 0.989022
1.00525 0.995838 0.989671
1.00527 0.997609 0.987608
1.00528 0.997359 0.987798
1.00526 0.999294 0.985951
1.00523 0.999449 0.985919
1.00519 0.999834 0.985532
1.00526 1.00122 0.984525
1.00519 1.00078 0.985078
1.00513 1.00108 0.984718
1.00515 1.00126 0.985011
1.00502 1.00193 0.984442
1.00488 1.00147 0.984584
1.00251 1.00384 0.986603
1.00403 1.00201 0.986168
1.00399 1.00187 0.985736
1.00016 1.00239 0.992026
1.0015 1.00498 0.987461
1.00218 1.00384 0.987361
0.999823 0.998993 0.998466
1.00012 1.00161 0.992995
1.001 1.00477 0.988779
1.00004 0.998145 0.998623
1.0001 1.00085 0.993824
1.00006 0.997796 0.998741
1.00262 1.00338 0.988089
1.00055 1.00504 0.989023
1.00095 1.00507 0.988631
1.00054 1.0038 0.990215
1.00058 1.00497 0.989015
0.999978 1.00511 0.989598
1.00015 0.999823 0.994775
1.00049 1.00288 0.991179
1.00032 1.00435 0.989834
1.0001 0.997384 0.998911
1.00024 0.99921 0.995187
1.00046 1.00205 0.992028
1.00012 0.997121 0.999012
1.00025 0.998844 0.995536
1.00011 0.996854 0.999136
0.994717 0.994807 0.811635
0.994806 0.994825 0.833975
0.994814 0.994837 0.82343
1.00136 1.00245 0.989794
1.00462 1.00161 0.987055
1.00187 1.00333 0.988897
1.00043 1.0047 0.989412
1.00216 1.00221 0.990311
0.999415 1.00253 0.992505
0.999232 1.0047 0.991129
1.00201 1.00285 0.988569
1.00214 1.00288 0.988911
0.999266 0.999912 0.99572
0.999466 1.00378 0.992597
0.998439 1.00487 0.993288
0.998924 0.994814 0.86224
0.994687 0.994795 0.81188
0.994782 0.994786 0.818925
0.994732 0.994823 0.806508
0.994801 0.997384 0.889852
0.994844 0.998563 0.929338
0.994967 0.996962 0.957879
0.994873 0.996876 0.962815
0.996346 0.997488 0.883348
0.994849 0.997566 0.930763
0.99486 0.997402 0.965977
0.996096 0.995068 0.930995
1.00027 0.995666 1.0007
0.999358 0.997144 0.999558
0.998062 1.00185 0.99584
0.994943 0.998888 0.986759
0.997667 1.00008 1.00043
0.996942 0.998473 0.99175
0.996837 0.995982 0.99063
0.999792 0.994922 0.875431
0.994706 0.994831 0.824642
0.994821 0.994813 0.835036
0.994788 1.0049 0.983807
0.994856 0.994899 0.956744
0.994692 0.994831 0.82577
0.996053 0.994791 0.931221
0.998897 0.994828 0.887269
0.994878 1.00075 0.986297
0.999783 0.994856 0.873333
0.998997 0.995471 0.930539
0.994856 0.994809 0.959416
0.996907 0.998123 0.987791
0.999947 0.994889 0.943556
0.995281 0.994818 0.964176
0.997883 1.00034 0.995063
1.00041 1.00126 0.991309
1.00371 0.999635 0.99063
1.00218 1.00088 0.989347
1.00409 0.999357 0.987872
1.00515 0.996254 0.989153
1.00431 1.00149 0.98514
1.00496 0.99741 0.988031
1.00526 0.995074 0.989951
1.00472 0.999773 0.985872
1.00528 0.996126 0.988967
1.00524 0.995045 0.990382
1.00525 0.995219 0.990417
1.00526 0.995771 0.989826
1.00523 0.996247 0.989537
1.00528 0.997954 0.987581
1.00526 0.997665 0.987737
1.0053 0.997286 0.987921
1.00529 1.00002 0.985615
1.00527 0.99934 0.985914
1.00522 0.999391 0.986106
1.00527 1.00153 0.984444
1.00527 1.00123 0.98456
1.00519 1.00073 0.985034
1.00348 1.00273 0.986177
1.00505 1.00137 0.984998
1.00482 1.00188 0.984476
1.00062 1.00293 0.990774
1.00257 1.00387 0.986589
1.00388 1.0021 0.986088
1.00003 0.999254 0.998193
1.00032 1.00227 0.991992
1.00191 1.00483 0.987483
0.99997 0.998917 0.997388
1.0002 1.00158 0.992996
1.00006 0.998396 0.99852
1.00399 1.00091 0.987835
1.0018 1.00337 0.988261
1.00084 1.00505 0.988274
1.00051 1.00501 0.988846
1.00065 1.00508 0.988666
1.00074 1.0045 0.989319
1.00012 1.00056 0.994128
1.00046 1.00394 0.990204
1.00022 1.00507 0.988992
1.00007 0.997684 0.998799
1.00014 0.999749 0.994801
1.00044 1.00291 0.991204
1.00009 0.997361 0.998932
1.00024 0.999167 0.995208
1.00011 0.997093 0.999039
0.999792 0.994831 0.873101
0.994704 0.994817 0.817222
0.994817 0.994824 0.83427
1.00111 1.00265 0.989743
1.0018 1.00364 0.988095
1.00397 1.00222 0.987126
1.00506 1.00355 0.983148
1.00176 1.00301 0.988543
0.999612 1.00487 0.990759
1.00143 1.00327 0.98935
1.00124 1.00307 0.989501
1.00429 0.997483 0.988701
1.00196 0.999469 0.992679
1.00284 0.995951 0.993806
1.00018 0.999285 0.995558
0.999349 1.00368 0.993216
0.998041 0.994869 0.941218
0.999058 0.994783 0.866919
0.994661 0.994791 0.817076
0.996427 0.995113 0.869671
0.994863 0.999247 0.939826
0.99488 0.995607 0.964161
0.99487 0.99692 0.967661
0.996738 0.998688 0.942955
0.995726 0.994816 0.967146
0.99963 0.996149 0.999485
0.999619 0.996048 1.00074
0.999068 0.998468 0.999506
0.997483 0.997991 0.991569
0.997618 0.996609 0.990881
0.99998 0.994896 0.931712
0.999793 0.994891 0.880961
0.994691 0.994813 0.822351
0.994879 0.99958 0.982803
0.995077 0.994804 0.957652
0.9998 0.994826 0.872648
0.998331 0.994847 0.942806
0.996633 0.998046 0.988027
1.0005 0.994891 0.939754
0.996237 0.994848 0.961914
1.00051 0.994847 0.987924
0.998344 0.994871 0.97194
0.999261 0.999401 0.991438
1.00304 0.997943 0.990667
1.00496 0.995225 0.991481
1.00391 0.999068 0.987846
1.0051 0.996141 0.989031
1.00526 0.994876 0.990339
1.00479 0.997866 0.987972
1.00526 0.995136 0.989899
1.00524 0.994874 0.990484
1.00527 0.996185 0.988914
1.00524 0.995081 0.990349
1.00526 0.994908 0.990601
1.00525 0.995162 0.990478
1.00522 0.995443 0.990399
1.00526 0.99571 0.989982
1.00523 0.996228 0.989536
1.00523 0.996809 0.988922
1.00529 0.998917 0.98683
1.00528 0.998015 0.987561
1.00526 0.997722 0.987866
1.00532 1.00116 0.984594
1.0053 1.0001 0.985484
1.00527 0.999387 0.985876
1.00415 1.00196 0.985772
1.00516 1.00157 0.984486
1.00528 1.00125 0.984594
1.00116 1.00303 0.989755
1.00332 1.00295 0.986176
1.00477 1.00164 0.984985
1.00015 1 0.997783
1.00075 1.00276 0.990768
1.00275 1.00395 0.986575
1.00011 0.999406 0.99805
1.00048 1.00222 0.991956
1.0001 0.998845 0.998277
1.00509 1.0026 0.98417
1.00367 1.00096 0.987715
1.00209 1.00351 0.987511
1.00115 1.00346 0.988449
1.00093 1.005 0.988089
1.001 1.00497 0.988404
1.0005 1.00508 0.988698
1.00051 1.00468 0.989281
1.00019 1.00132 0.993244
1.00005 0.998124 0.998591
1.00009 1.0005 0.99415
1.00034 1.00405 0.990194
1.00005 0.99764 0.99884
1.00015 0.999668 0.994816
1.00009 0.997333 0.998953
0.99997 0.994879 0.944624
0.999813 0.994857 0.872688
0.994683 0.994807 0.811538
1.00154 1.0046 0.987289
1.00324 1.00268 0.9872
1.00287 1.00285 0.987983
1.00463 1.0033 0.983711
1.0052 1.00107 0.984572
1.00354 1.00038 0.986895
1.00044 1.00336 0.990063
1.00444 0.997566 0.98844
1.00204 0.999085 0.992776
1.0039 0.996047 0.990309
1.00404 0.996841 0.991839
1.00268 0.996698 0.993227
1.00242 0.996179 0.993821
0.999669 0.999848 0.995396
0.995883 0.994854 0.965291
0.998984 0.996087 0.936911
0.997935 0.994841 0.883435
0.996143 0.99685 0.93064
0.994944 0.996831 0.968134
0.995478 0.995697 0.972991
0.999244 0.994867 0.992771
1.00033 0.995575 0.999025
0.998991 0.996209 1.0008
0.998747 0.998451 0.991173
0.997305 0.995654 0.966494
1.00009 0.994876 0.945185
0.999799 0.994897 0.864291
0.996151 0.998068 0.988343
0.996701 0.994858 0.962545
0.999872 0.994871 0.935611
0.999988 0.99534 0.988233
0.998531 0.994878 0.971183
1.00288 0.995035 0.990273
1.00324 0.996941 0.984983
1.00212 0.996437 0.990687
1.00448 0.99518 0.991499
1.0052 0.994786 0.990911
1.00501 0.996157 0.988912
1.00526 0.994876 0.99029
1.00527 0.994911 0.990485
1.00526 0.995216 0.989845
1.00524 0.994884 0.990463
1.00528 0.994911 0.990526
1.00524 0.995118 0.990315
1.00525 0.994914 0.990596
1.00525 0.994936 0.990646
1.00525 0.995098 0.990538
1.00522 0.995367 0.990428
1.00523 0.996008 0.9899
1.00523 0.996214 0.989535
1.00523 0.996846 0.988911
1.00527 0.998099 0.987769
1.00532 1.00035 0.985441
1.00529 0.999086 0.986608
1.00528 0.998078 0.98754
1.00493 1.00091 0.985527
1.00531 1.00116 0.984636
1.0053 1.00019 0.985353
1.00169 1.00269 0.9891
1.004 1.00224 0.985774
1.00505 1.00162 0.984527
1.0005 1.00059 0.997316
1.00122 1.00289 0.989749
1.00316 1.00321 0.986175
1.00033 1.00018 0.997593
1.0008 1.00262 0.990772
1.00024 0.999591 0.997877
1.00503 1.00172 0.984495
1.00506 1.00228 0.984366
1.00423 1.00207 0.985482
1.00338 1.00158 0.987594
1.0021 1.00355 0.987312
1.00199 1.00454 0.987328
1.00092 1.00489 0.987906
1.00086 1.00504 0.988409
1.00032 1.00213 0.99228
1.00038 1.00491 0.989247
1.00009 1.00142 0.993271
1.00002 0.998817 0.998314
1.00002 0.99809 0.99867
1.00003 1.00049 0.994177
1.00004 0.997588 0.998874
0.99687 0.994879 0.966933
0.999947 0.994872 0.931181
0.999812 0.994871 0.884542
1.00525 0.998951 0.986381
1.00409 1.00273 0.987438
1.00418 1.00305 0.984275
1.00432 1.0002 0.987179
1.00517 1.00129 0.984532
1.00489 0.997915 0.988156
1.0048 0.998941 0.988184
1.00186 0.998329 0.99288
1.00451 0.996696 0.990186
1.00388 0.997037 0.990904
1.00478 0.996207 0.989638
1.00326 0.994936 0.994291
1.00268 0.99633 0.993302
1.00229 0.996409 0.993826
0.998775 0.994851 0.991189
0.995828 0.994863 0.963679
0.998687 0.994847 0.931956
0.995134 0.996196 0.972012
0.998868 0.99486 0.995462
1.00043 0.995132 0.998512
1.00195 0.995416 0.982002
0.997352 0.995142 0.96662
0.999989 0.994891 0.931776
0.999242 0.995316 0.988559
0.998876 0.994885 0.970453
1.00202 0.994871 0.990779
1.0031 0.996172 0.985839
1.00393 0.995012 0.991169
1.00475 0.996973 0.990911
1.00408 0.99504 0.991506
1.00515 0.994819 0.990806
1.00533 0.994861 0.990416
1.00526 0.994874 0.990242
1.00526 0.994901 0.990484
1.00532 0.9949 0.990457
1.00524 0.994894 0.990443
1.00527 0.994907 0.990537
1.00527 0.994904 0.990677
1.00524 0.99492 0.99059
1.00525 0.994934 0.990634
1.00525 0.995182 0.990555
1.00522 0.995293 0.990457
1.00523 0.99588 0.990019
1.00528 0.997229 0.988715
1.00523 0.996879 0.988901
1.00527 0.998029 0.987841
1.0053 0.999938 0.985994
1.00518 1.00058 0.985473
1.00532 1.00049 0.985294
1.00529 0.99925 0.986388
1.00251 1.00152 0.988972
1.00481 1.00106 0.985531
1.00531 1.00115 0.984678
1.00082 1.00082 0.996979
1.00194 1.00239 0.989091
1.00385 1.00243 0.98578
1.00063 1.00065 0.997177
1.00136 1.00278 0.989746
1.00047 1.00032 0.997421
1.00528 1.00036 0.985263
1.00518 1.00174 0.98439
1.0051 1.00129 0.984941
1.00516 1.00191 0.984562
1.00443 1.00194 0.985449
1.00298 1.00371 0.986505
1.00226 1.00325 0.987112
1.00173 1.00468 0.98734
1.00057 1.00264 0.991246
1.0007 1.00507 0.98841
1.00018 1.00216 0.992305
1.00001 0.99955 0.997999
0.999988 1.00139 0.993298
0.99999 0.998693 0.998418
0.99999 0.997988 0.99874
1.00045 0.99494 0.986962
0.996684 0.99489 0.96339
0.999981 0.994874 0.944414
1.00518 0.997433 0.988163
1.00529 0.997019 0.988443
1.00526 0.99872 0.986643
1.00505 0.99956 0.987456
1.00515 1.00156 0.984493
1.00492 0.997784 0.988432
1.00518 0.995606 0.989389
1.00494 0.996612 0.990071
1.00372 0.997631 0.989974
1.00457 0.996735 0.99006
1.00507 0.995086 0.990779
1.00368 0.994976 0.99307
1.00291 0.995109 0.993975
1.00295 0.995871 0.993391
0.999462 0.994866 0.991269
0.995775 0.994859 0.962245
0.998818 0.994855 0.998276
1.00462 0.994889 0.990766
1.00184 0.995974 0.982129
0.997475 0.994863 0.965039
1.00171 0.994785 0.991245
1.00297 0.99531 0.986716
1.00395 0.994955 0.991836
1.00478 0.996106 0.99102
1.00531 0.994804 0.990924
1.00541 0.994871 0.991166
1.00511 0.994837 0.990702
1.00536 0.994862 0.990388
1.00535 0.994872 0.990493
1.00525 0.994891 0.990482
1.00531 0.994901 0.990481
1.00528 0.994902 0.990657
1.00526 0.994902 0.990548
1.00527 0.994902 0.990672
1.00525 0.994943 0.990834
1.00525 0.994933 0.990622
1.00525 0.995194 0.990531
1.00528 0.996445 0.989414
1.00523 0.995749 0.990138
1.00527 0.997163 0.988762
1.00533 0.999392 0.986487
1.00527 0.997961 0.987913
1.0053 0.999847 0.986102
1.00522 1.00049 0.985524
1.00285 1.00065 0.9892
1.00515 1.00062 0.985481
1.00533 1.00063 0.985147
1.00108 1.00081 0.996785
1.00253 1.00145 0.988963
1.0047 1.00128 0.985538
1.00092 1.00088 0.99688
1.00208 1.00217 0.98908
1.00075 1.00081 0.99704
1.00528 0.998576 0.986978
1.00526 1.00021 0.985458
1.00527 1.00088 0.985039
1.00519 1.00172 0.984284
1.00516 1.00124 0.984938
1.00356 1.00252 0.986399
1.00463 1.00184 0.98542
1.00287 1.00345 0.986502
1.00092 1.00297 0.990201
1.00139 1.00478 0.987353
1.00048 1.00275 0.99128
1.00012 1.00037 0.997643
1.00009 1.00228 0.992329
0.999971 0.999407 0.99812
0.999942 0.99859 0.998513
1.00434 0.99491 0.992132
1.00063 0.994937 0.984756
0.996557 0.994909 0.962868
1.00523 0.996352 0.98933
1.00515 0.997002 0.988471
1.00526 0.995879 0.989698
1.00528 0.997052 0.98841
1.00526 0.99845 0.9869
1.0053 0.994912 0.990074
1.00504 0.997834 0.988698
1.0052 0.99591 0.989402
1.00527 0.99483 0.990548
1.00446 0.997125 0.99048
1.00506 0.995178 0.990466
1.00339 0.995019 0.993335
1.00232 0.995556 0.993664
0.999922 0.994886 0.991158
1.00537 0.994892 0.990861
1.00461 0.995717 0.990979
1.00165 0.996403 0.98232
1.00384 0.994805 0.992488
1.00477 0.995335 0.991136
1.0053 0.994798 0.990979
1.00542 0.994893 0.991093
1.00539 0.994866 0.990914
1.00538 0.99487 0.990363
1.00535 0.994877 0.990505
1.00528 0.9949 0.990796
1.00531 0.994903 0.990505
1.00528 0.994906 0.990654
1.00522 0.994899 0.990984
1.00527 0.994901 0.990667
1.00526 0.994937 0.990806
1.00528 0.99574 0.990186
1.00525 0.995204 0.990507
1.00529 0.996477 0.989406
1.00536 0.998847 0.987067
1.00527 0.997095 0.98881
1.00533 0.999402 0.986512
1.00522 1.00041 0.985633
1.00531 0.999757 0.98621
1.00522 1.00049 0.985538
1.00289 1.00029 0.991173
1.00146 1.00024 0.99342
1.0029 1.00064 0.990027
1.0051 1.00067 0.985487
1.00111 1.00081 0.996771
1.00268 1.00125 0.988948
1.00099 1.00093 0.996801
1.00524 0.995784 0.990068
1.00526 0.997348 0.988437
1.00528 0.998561 0.987171
1.00531 1.00028 0.985549
1.00526 1.00009 0.985654
1.00529 1.00091 0.984974
1.00424 1.00134 0.986258
1.0052 1.00121 0.984933
1.00372 1.00207 0.986391
1.00157 1.00277 0.989388
1.00285 1.00319 0.986496
1.0009 1.00308 0.990191
1.00038 1.00096 0.997217
1.00035 1.00279 0.991313
1.00001 1.00011 0.997785
0.999922 0.999273 0.998233
1.00537 0.994834 0.990804
1.00438 0.994831 0.991866
1.00111 0.994881 0.982614
1.0053 0.995244 0.99016
1.00518 0.996324 0.989207
1.00517 0.996595 0.988783
1.00526 0.996046 0.989657
1.00528 0.997091 0.988377
1.00536 0.99483 0.990526
1.00531 0.994919 0.990094
1.00522 0.996179 0.989413
1.00523 0.994829 0.990588
1.00506 0.995213 0.990152
1.00321 0.994838 0.993599
1.00535 0.994912 0.990973
1.00539 0.994887 0.991037
1.00465 0.996393 0.991188
1.0053 0.994795 0.991014
1.00544 0.994908 0.991023
1.00539 0.99487 0.990877
1.00528 0.994927 0.99107
1.00535 0.994881 0.990517
1.00528 0.994904 0.990764
1.00519 0.994933 0.991109
1.00529 0.994909 0.99065
1.00523 0.9949 0.99097
1.00528 0.995232 0.990787
1.00527 0.994932 0.990778
1.00528 0.995765 0.990173
1.00536 0.998331 0.987633
1.0053 0.996508 0.989399
1.00535 0.99885 0.987089
1.00518 1.00035 0.98577
1.00532 0.999411 0.986537
1.00523 1.00039 0.985652
1.00298 1.00006 0.991276
1.00522 1.00049 0.98555
1.0031 1.00018 0.991043
1.00151 0.999951 0.993629
1.00119 1.00052 0.995183
1.0031 1.00059 0.990682
1.00112 1.00083 0.996772
1.00526 0.995115 0.99073
1.00525 0.996992 0.988814
1.00523 0.995652 0.990225
1.00532 0.999506 0.986333
1.00525 0.997408 0.988427
1.00528 0.998537 0.987365
1.0053 1.00031 0.98549
1.00495 1.00044 0.98593
1.0053 1.00096 0.984909
1.0044 1.00106 0.98625
1.00224 1.0019 0.989047
1.00381 1.00169 0.986388
1.00138 1.00293 0.989378
1.00064 1.00131 0.996889
1.00074 1.00325 0.9902
1.00022 1.00082 0.997387
0.999962 0.999947 0.997917
1.00532 0.994897 0.99075
1.00533 0.994835 0.990829
1.00429 0.994832 0.991598
1.0053 0.994858 0.990679
1.00528 0.995304 0.990135
1.0051 0.996305 0.989091
1.00526 0.996215 0.989616
1.00535 0.994836 0.990531
1.00532 0.994929 0.990113
1.00519 0.994829 0.990628
1.00529 0.994954 0.991066
1.00533 0.994913 0.990955
1.00541 0.994893 0.99121
1.00525 0.994949 0.991184
1.00538 0.994869 0.990841
1.00528 0.994927 0.991058
1.00519 0.99495 0.99119
1.00529 0.994908 0.990732
1.0052 0.994932 0.991112
1.00527 0.994992 0.991114
1.00524 0.9949 0.990955
1.00525 0.995247 0.990778
1.00536 0.997877 0.98813
1.00528 0.995791 0.990161
1.00535 0.998337 0.98765
1.00515 1.0002 0.985988
1.00535 0.998852 0.987112
1.00521 1.00031 0.985792
1.00297 1.00009 0.991243
1.00525 1.00036 0.98567
1.00315 1 0.99112
1.00157 0.999851 0.993638
1.0033 1.00007 0.990923
1.00108 1.00012 0.993924
1.00058 1.00086 0.99729
1.00525 0.994915 0.990839
1.00528 0.996139 0.989742
1.00526 0.995171 0.990648
1.00533 0.99913 0.986772
1.00526 0.996681 0.989067
1.00522 0.995518 0.990382
1.00521 1.0001 0.985899
1.00531 0.999504 0.986292
1.00525 0.997466 0.988418
1.00531 1.00033 0.98543
1.00501 1.00037 0.985921
1.00268 1.00099 0.989163
1.00457 1.00077 0.986244
1.00209 1.00209 0.989072
1.00082 1.00133 0.996775
1.00135 1.00306 0.989357
1.00055 1.00118 0.997006
1.00007 1.00061 0.997549
1.00527 0.994912 0.990957
1.00532 0.994897 0.990714
1.0053 0.994834 0.990855
1.0053 0.994862 0.99071
1.00526 0.995363 0.990111
1.00535 0.994843 0.990535
1.00526 0.99496 0.991117
1.00529 0.994948 0.991076
1.00532 0.994914 0.990937
1.00525 0.994951 0.991175
1.00516 0.994945 0.991383
1.00528 0.994928 0.991046
1.00519 0.99495 0.991228
1.00527 0.994937 0.991179
1.0052 0.994931 0.991114
1.00526 0.994989 0.991104
1.00537 0.99749 0.98855
1.00523 0.995253 0.990768
1.00537 0.997876 0.988135
1.0051 0.99999 0.986318
1.00535 0.998343 0.987669
1.00518 1.00018 0.986005
1.0029 1.00019 0.991217
1.00524 1.00027 0.985814
1.00313 1.00003 0.991077
1.00159 0.999898 0.993556
1.00331 0.999947 0.990973
1.00119 0.999894 0.993958
1.00067 1.0003 0.994203
1.00524 0.994913 0.991036
1.00526 0.995518 0.990434
1.00526 0.994907 0.990841
1.00535 0.998241 0.987673
1.00528 0.996215 0.98965
1.00526 0.995227 0.990565
1.00527 0.999958 0.986007
1.00533 0.998779 0.987058
1.00526 0.996375 0.98932
1.00289 1.00028 0.98951
1.00522 1.00008 0.985888
1.00531 0.99951 0.98625
1.00505 1.00032 0.985915
1.00262 1.00108 0.989183
1.00097 1.00106 0.996823
1.00193 1.00228 0.989096
1.00079 1.00125 0.996809
1.00042 1.00111 0.997141
1.00525 0.994952 0.991087
1.00528 0.994917 0.990932
1.00531 0.994898 0.990679
1.00531 0.994866 0.990742
1.00516 0.994955 0.991376
1.00525 0.994955 0.991126
1.00529 0.994942 0.991086
1.00524 0.994953 0.991166
1.00517 0.994945 0.991367
1.00525 0.995271 0.990897
1.00519 0.994948 0.991266
1.00527 0.995125 0.991008
1.00537 0.996859 0.989228
1.00524 0.994995 0.991094
1.00538 0.997487 0.988544
1.00502 0.999763 0.986691
1.00538 0.997888 0.988138
1.00512 0.999967 0.986323
1.00288 1.00025 0.989663
1.0052 1.00016 0.98602
1.00306 1.00016 0.990258
1.00138 0.999969 0.996841
1.0033 0.999997 0.990911
1.00125 0.999881 0.993884
1.00084 0.999933 0.994262
1.00521 0.994954 0.991136
1.00524 0.995365 0.990739
1.00524 0.994922 0.99104
1.00534 0.997628 0.988361
1.00526 0.995678 0.990222
1.00526 0.994899 0.990842
1.00524 0.999593 0.986408
1.00535 0.998236 0.987692
1.00527 0.996288 0.989558
1.00298 0.999874 0.989752
1.00525 0.999804 0.986122
1.00533 0.998422 0.987345
1.00111 1.00059 0.996926
1.00289 1.00025 0.989515
1.00525 1.00005 0.985872
1.00253 1.00116 0.989203
1.00097 1.00103 0.996792
1.00073 1.0012 0.99686
1.00515 0.994967 0.99129
1.00524 0.994955 0.991089
1.00529 0.994922 0.990906
1.00523 0.995306 0.99096
1.00517 0.994956 0.991346
1.00525 0.99495 0.991134
1.00518 0.994945 0.991351
1.00525 0.995311 0.990896
1.00536 0.997035 0.989083
1.00527 0.995327 0.990836
1.00537 0.997223 0.988857
1.00494 0.999233 0.987369
1.0054 0.99747 0.988538
1.00503 0.999751 0.986694
1.00279 1.00016 0.989915
1.00515 0.999948 0.986328
1.00288 1.00023 0.989676
1.0013 1.00002 0.996846
1.00309 1.00015 0.98944
1.00122 0.999977 0.995394
1.00091 0.999835 0.99421
1.00514 0.994966 0.991327
1.00522 0.995252 0.990989
1.0052 0.994955 0.991153
1.00534 0.997814 0.988189
1.00525 0.995297 0.990758
1.00523 0.99493 0.991044
1.0052 0.999519 0.98658
1.00533 0.997977 0.987998
1.00526 0.995838 0.99001
1.00305 0.999778 0.989766
1.00523 0.999569 0.98642
1.00534 0.998228 0.987711
1.00128 1.00018 0.996948
1.00302 0.999828 0.989754
1.00525 0.999647 0.986237
1.00114 1.00061 0.996885
1.00292 1.00023 0.989524
1.00093 1.00102 0.99679
1.00521 0.995366 0.990868
1.00515 0.994966 0.991317
1.00524 0.994958 0.991091
1.00536 0.997022 0.989111
1.00523 0.995344 0.990931
1.00517 0.994956 0.991316
1.00525 0.995347 0.990895
1.00536 0.99706 0.98909
1.00488 0.999061 0.987635
1.00538 0.997579 0.988487
1.00496 0.999392 0.987174
1.00271 1.00003 0.990158
1.00504 0.999736 0.986698
1.00276 1.00017 0.989927
1.0012 1.00003 0.99688
1.00287 1.00022 0.989686
1.00127 1.00003 0.996853
1.00132 0.999946 0.993665
1.0052 0.995514 0.990766
1.00513 0.994964 0.991284
1.00535 0.997589 0.988451
1.00524 0.995177 0.990995
1.00518 0.994956 0.99117
1.00512 0.999785 0.986491
1.00533 0.997824 0.98819
1.00526 0.995229 0.990777
1.00301 0.999888 0.989745
1.00518 0.999697 0.986421
1.00533 0.998335 0.987635
1.00139 0.999964 0.9969
1.00306 0.999771 0.989766
1.00522 0.999544 0.986434
1.00126 1.00022 0.996945
1.00305 0.999788 0.989755
1.00115 1.00062 0.996837
1.00536 0.997124 0.988987
1.00521 0.995398 0.990895
1.00515 0.994965 0.991344
1.00488 0.999009 0.987691
1.00536 0.997046 0.989112
1.00523 0.995377 0.990903
1.00535 0.997091 0.989096
1.00491 0.999045 0.987605
1.00261 0.999968 0.990392
1.00497 0.999548 0.986979
1.00269 1.00004 0.990167
1.00114 1.00002 0.996929
1.00275 1.00019 0.989941
1.00116 1.00006 0.996904
1.00123 1.00004 0.996868
1.00536 0.997409 0.988658
1.00521 0.995273 0.990952
1.00513 0.994962 0.991241
1.00503 0.999656 0.986797
1.00534 0.997599 0.988453
1.00525 0.995103 0.991
1.0029 1.00002 0.989848
1.00509 0.999816 0.986489
1.00533 0.997834 0.988192
1.00137 0.999928 0.996855
1.00301 0.99991 0.989742
1.00516 0.999865 0.986259
1.00137 1 0.99692
1.00307 0.99978 0.989766
1.0013 1.00022 0.996933
1.0049 0.999382 0.987279
1.00535 0.996965 0.989154
1.0052 0.99542 0.990921
1.00257 0.999888 0.99057
1.00488 0.998983 0.987688
1.00535 0.997071 0.989113
1.00493 0.999024 0.987576
1.00262 0.999941 0.9904
1.00109 1.00002 0.996961
1.00267 1.00005 0.990176
1.00112 1.00003 0.996935
1.00112 1.00007 0.99692
1.00496 0.999502 0.98709
1.00536 0.99719 0.988893
1.00522 0.995027 0.99114
1.00289 1.00003 0.991446
1.005 0.99967 0.986801
1.00534 0.997611 0.988454
1.00127 0.999965 0.996864
1.0029 1.00003 0.989842
1.00506 0.999848 0.986487
1.00138 0.99995 0.996871
1.00301 0.99994 0.989738
1.00138 1.00002 0.996936
1.00267 0.999885 0.990456
1.0049 0.999211 0.987436
1.00535 0.996814 0.989321
1.001 0.999982 0.997024
1.00256 0.999884 0.990564
1.0049 0.998963 0.987686
1.00262 0.999915 0.990404
1.00105 1.00001 0.996983
1.00109 1.00005 0.996948
1.00286 0.999955 0.991626
1.00494 0.999507 0.987091
1.00535 0.996973 0.989128
1.00069 1.00001 0.99743
1.00277 1.00003 0.990079
1.00498 0.99968 0.986807
1.0013 0.999972 0.996865
1.0029 1.00005 0.989835
1.00139 0.999964 0.996887
1.001 0.999942 0.994208
1.0027 0.99989 0.99114
1.00489 0.999041 0.987592
1.00103 0.999984 0.997031
1.00257 0.999885 0.990566
1.00107 0.999996 0.997
1.00052 0.999991 0.994651
1.00276 0.999938 0.990984
1.00492 0.999517 0.987092
1.00091 0.999995 0.995703
1.00276 1.00003 0.990097
1.00133 0.999975 0.996869
1.00103 0.999969 0.997022
1.00257 0.999879 0.990552
1.00099 0.999985 0.997028
1.0008 0.999964 0.995841
1.00266 0.99993 0.990387
1.00121 0.999988 0.9969
1.00105 0.999969 0.997027
1.00108 0.999976 0.996974

TENSORS stress float
0.00220084 -0.000150093 0.000254541
-0.000150093 0.00104385 -4.25818e-05
0.000254541 -4.25818e-05 0.00101786
0.00680555 4.83094e-05 0.000288802
4.83094e-05 0.00393753 3.26054e-05
0.000288802 3.26054e-05 0.00394158
0.00184125 -8.0644e-05 0.000107231
-8.0644e-05 0.000817388 -1.68684e-05
0.000107231 -1.68684e-05 0.000780099
0.00220195 -8.53379e-05 0.000246378
-8.53379e-05 0.00102054 -2.46326e-05
0.000246378 -2.46326e-05 0.00100396
0.00222599 -0.000131874 0.000248686
-0.000131874 0.00104945 -3.74406e-05
0.000248686 -3.74406e-05 0.00102682
0.00214248 -0.000152802 0.000263557
-0.000152802 0.00100867 -4.40948e-05
0.000263557 -4.40948e-05 0.000982766
0.00183144 -0.000137586 4.9423e-05
-0.000137586 0.000722343 -1.34174e-05
4.9423e-05 -1.34174e-05 0.000611211
0.00674802 3.82584e-05 -7.45931e-06
3.82584e-05 0.00389246 -1.34578e-06
-7.45931e-06 -1.34578e-06 0.00390103
0.0064973 0.000206317 0.000144617
0.000206317 0.00373155 1.38348e-05
0.000144617 1.38348e-05 0.00370612
0.00649285 -3.80513e-05 7.92038e-05
-3.80513e-05 0.00371694 3.9459e-06
7.92038e-05 3.9459e-06 0.00369665
0.00190396 0.000193527 0.000267222
0.000193527 0.000862888 3.42643e-05
0.000267222 3.42643e-05 0.000854383
0.000449114 0.000253262 2.62518e-05
0.000253262 -0.000108068 2.01197e-05
2.62518e-05 2.01197e-05 -0.000242272
0.00179859 -3.33799e-05 0.000242068
-3.33799e-05 0.000767451 3.97859e-06
0.000242068 3.97859e-06 0.000768098
0.00147013 1.905e-06 6.19733e-05
1.905e-06 0.000583723 1.75783e-06
6.19733e-05 1.75783e-06 0.000537707
0.00156558 -7.97102e-05 -5.60168e-05
-7.97102e-05 0.000653535 9.83123e-06
-5.60168e-05 9.83123e-06 0.000600425
0.00184089 -8.51289e-05 8.10593e-05
-8.51289e-05 0.000812229 -4.98293e-06
8.10593e-05 -4.98293e-06 0.00077823
0.0018817 -6.83035e-05 0.000116428
-6.83035e-05 0.000847861 -1.81733e-05
0.000116428 -1.81733e-05 0.000806652
0.00185827 -8.87257e-05 9.53492e-05
-8.87257e-05 0.000821068 -1.30831e-05
9.53492e-05 -1.30831e-05 0.000786775
0.00190154 -0.000173388 -4.06673e-05
-0.000173388 0.000763681 5.81125e-06
-4.06673e-05 5.81125e-06 0.000661881
0.00612288 -0.000142587 0.000313388
-0.000142587 0.00350782 -1.32859e-05
0.000313388 -1.32859e-05 0.00352503
0.00213926 -6.26406e-05 0.000244241
-6.26406e-05 0.000981387 -1.83223e-05
0.000244241 -1.83223e-05 0.00096774
0.00223974 -0.000109586 0.000246894
-0.000109586 0.00104959 -3.12275e-05
0.000246894 -3.12275e-05 0.0010305
0.00179221 -0.000137296 6.98396e-05
-0.000137296 0.00069012 -1.07054e-05
6.98396e-05 -1.07054e-05 0.000592547
0.00183333 -0.000143691 5.88056e-05
-0.000143691 0.000713806 -1.29844e-05
5.88056e-05 -1.29844e-05 0.000610109
0.00207308 -0.0001295 0.000262485
-0.0001295 0.000957881 -4.08567e-05
0.000262485 -4.08567e-05 0.000935331
0.00185668 -0.000134024 4.16003e-05
-0.000134024 0.000754006 -1.3799e-05
4.16003e-05 -1.3799e-05 0.000631531
0.00207188 -0.000319764 1.74229e-05
-0.000319764 0.000651486 -7.36548e-06
1.74229e-05 -7.36548e-06 0.000441869
0.0067021 2.35534e-05 -0.000286466
2.35534e-05 0.00385381 -2.29971e-05
-0.000286466 -2.29971e-05 0.00386718
0.00422548 0.000153669 -0.000144291
0.000153669 0.00230554 -1.61399e-05
-0.000144291 -1.61399e-05 0.00228321
0.00415707 6.53664e-05 -0.000142852
6.53664e-05 0.00227296 -1.36017e-05
-0.000142852 -1.36017e-05 0.00225152
0.00664576 -3.32141e-05 -3.87427e-06
-3.32141e-05 0.00383973 -4.0999e-07
-3.87427e-06 -4.0999e-07 0.00384406
0.000448575 0.000236334 -1.33282e-06
0.000236334 -0.00010605 -1.10782e-06
-1.33282e-06 -1.10782e-06 -0.00024022
0.00186116 6.88198e-05 0.000251907
6.88198e-05 0.000806795 2.31211e-05
0.000251907 2.31211e-05 0.000794035
0.00196853 0.000158431 0.000257868
0.000158431 0.000906913 3.58645e-05
0.000257868 3.58645e-05 0.000882444
0.00282863 0.000208992 0.000154631
0.000208992 0.00132803 2.22019e-05
0.000154631 2.22019e-05 0.00124616
0.00583771 -0.00030434 8.86519e-06
-0.00030434 0.00340259 5.27144e-06
8.86519e-06 5.27144e-06 0.00334457
0.00296648 0.000286549 0.000160014
0.000286549 0.00145534 2.7694e-05
0.000160014 2.7694e-05 0.00135779
0.000447123 0.000220896 2.66484e-05
0.000220896 -0.000104422 2.66237e-05
2.66484e-05 2.66237e-05 -0.000237416
0.000914953 0.000254759 1.32452e-05
0.000254759 3.49478e-05 6.32379e-06
1.32452e-05 6.32379e-06 -0.000182506
0.0046394 -0.000107007 0.000176974
-0.000107007 0.00263262 1.56539e-05
0.000176974 1.56539e-05 0.00263167
0.00610327 8.20194e-05 3.37645e-06
8.20194e-05 0.00348262 -1.82991e-06
3.37645e-06 -1.82991e-06 0.00350705
0.00398404 9.02512e-05 -0.000120727
9.02512e-05 0.00215255 -5.42178e-06
-0.000120727 -5.42178e-06 0.00214095
0.00595721 5.81102e-05 0.000304517
5.81102e-05 0.00339419 4.2614e-06
0.000304517 4.2614e-06 0.00341925
0.00142607 8.7634e-05 6.43185e-05
8.7634e-05 0.000559622 4.26352e-06
6.43185e-05 4.26352e-06 0.000518594
0.00051917 1.14604e-05 1.52578e-05
1.14604e-05 -0.000133351 1.89885e-06
1.52578e-05 1.89885e-06 -0.000218585
0.0063233 0.000233122 0.000175755
0.000233122 0.00364684 1.68811e-05
0.000175755 1.68811e-05 0.0036213
0.00282172 7.61791e-05 0.000145262
7.61791e-05 0.00129639 9.23357e-06
0.000145262 9.23357e-06 0.00123762
0.00143223 -8.63204e-05 -7.64503e-05
-8.63204e-05 0.000574896 9.69613e-06
-7.64503e-05 9.69613e-06 0.000522827
0.00148286 -0.000109081 -6.92756e-05
-0.000109081 0.000608768 1.19184e-05
-6.92756e-05 1.19184e-05 0.000553064
0.00163948 -3.83372e-05 -4.45806e-05
-3.83372e-05 0.00069724 8.5751e-06
-4.45806e-05 8.5751e-06 0.000643534
0.00194484 -0.000176448 -0.000137268
-0.000176448 0.00078334 2.49458e-05
-0.000137268 2.49458e-05 0.00069264
0.00383595 -1.88332e-05 -0.000122464
-1.88332e-05 0.00207023 -1.7452e-06
-0.000122464 -1.7452e-06 0.00205832
0.0018014 -6.63596e-05 8.58313e-05
-6.63596e-05 0.000784264 -3.9661e-06
8.58313e-05 -3.9661e-06 0.000754409
0.00183058 -4.59699e-05 0.000120968
-4.59699e-05 0.000819317 -1.67422e-05
0.000120968 -1.67422e-05 0.000776881
0.00185364 -8.76254e-05 8.66609e-05
-8.76254e-05 0.000817671 -8.51965e-06
8.66609e-05 -8.51965e-06 0.000784239
0.00186652 -0.000115344 -3.26116e-05
-0.000115344 0.000725967 2.22715e-06
-3.26116e-05 2.22715e-06 0.000639798
0.00190093 -0.000177145 -4.71934e-05
-0.000177145 0.00077439 6.66841e-06
-4.71934e-05 6.66841e-06 0.00066492
0.00189761 -0.000161082 -3.49711e-05
-0.000161082 0.000753571 4.12007e-06
-3.49711e-05 4.12007e-06 0.000657682
0.00207452 -0.000320964 -9.67839e-06
-0.000320964 0.000648837 2.56441e-06
-9.67839e-06 2.56441e-06 0.000439418
0.00594325 7.13398e-06 0.000300486
7.13398e-06 0.00338343 -2.16181e-06
0.000300486 -2.16181e-06 0.00340976
0.00206631 -3.82719e-05 0.000239405
-3.82719e-05 0.000939915 -1.26416e-05
0.000239405 -1.26416e-05 0.000929889
0.00244837 -7.76222e-06 5.13573e-05
-7.76222e-06 0.00108963 -1.0117e-06
5.13573e-05 -1.0117e-06 0.00102157
0.00175512 -0.00011148 6.22534e-05
-0.00011148 0.000661577 -7.08574e-06
6.22534e-05 -7.08574e-06 0.000572547
0.00180613 -0.000141862 6.59045e-05
-0.000141862 0.000697388 -1.22726e-05
6.59045e-05 -1.22726e-05 0.000597209
0.00190304 -0.000207352 1.09824e-05
-0.000207352 0.000473063 -2.92094e-06
1.09824e-05 -2.92094e-06 0.000307441
0.00191291 -0.000281408 1.64662e-05
-0.000281408 0.000512391 -5.54033e-06
1.64662e-05 -5.54033e-06 0.00032059
0.00183213 -8.61763e-05 0.000237562
-8.61763e-05 0.000809245 -3.2398e-05
0.000237562 -3.2398e-05 0.000791319
0.00177385 -0.000101904 3.22526e-05
-0.000101904 0.000720233 -1.34268e-05
3.22526e-05 -1.34268e-05 0.000595351
0.00212742 -0.00034947 1.75484e-05
-0.00034947 0.000730255 -8.24793e-06
1.75484e-05 -8.24793e-06 0.000505144
0.00167385 -0.000415116 6.53284e-06
-0.000415116 0.000180811 -5.91625e-07
6.53284e-06 -5.91625e-07 -7.64668e-05
0.00687044 0.000262992 -0.000340835
0.000262992 0.00396454 -3.7761e-05
-0.000340835 -3.7761e-05 0.00396991
0.00654754 -5.97182e-05 -0.000257149
-5.97182e-05 0.00378005 -1.83714e-05
-0.000257149 -1.83714e-05 0.00378612
0.00674368 0.000101486 -0.000302858
0.000101486 0.00387276 -2.77231e-05
-0.000302858 -2.77231e-05 0.00388838
0.000419912 0.000226958 -2.50541e-05
0.000226958 -0.000118218 -2.04231e-05
-2.50541e-05 -2.04231e-05 -0.000254769
0.00677004 0.000238701 -2.36884e-06
0.000238701 0.00389749 -2.37007e-06
-2.36884e-06 -2.37007e-06 0.00390712
0.00688506 0.00021189 -8.94436e-06
0.00021189 0.0039663 -2.90812e-06
-8.94436e-06 -2.90812e-06 0.00397472
0.000360723 0.000131004 2.52946e-07
0.000131004 -0.000218499 -2.88872e-07
2.52946e-07 -2.88872e-07 -0.000331689
0.0036518 -9.76428e-05 -0.000117446
-9.76428e-05 0.00200546 -4.47287e-06
-0.000117446 -4.47287e-06 0.00197173
0.000356656 0.000209282 3.20309e-07
0.000209282 -0.00017407 -4.7173e-07
3.20309e-07 -4.7173e-07 -0.000305424
0.00174914 0.00022771 5.70219e-05
0.00022771 0.000713676 3.22337e-06
5.70219e-05 3.22337e-06 0.000602976
0.000847214 0.000247527 3.16754e-07
0.000247527 -1.38021e-06 1.15657e-08
3.16754e-07 1.15657e-08 -0.000216604
0.0055594 -0.000133212 0.000206101
-0.000133212 0.00321912 2.24469e-05
0.000206101 2.24469e-05 0.00320611
0.000606675 5.32548e-05 1.47596e-05
5.32548e-05 5.51742e-05 1.34568e-05
1.47596e-05 1.34568e-05 -1.91687e-05
0.000469669 0.000101308 1.52446e-05
0.000101308 -0.000169413 1.02595e-05
1.52446e-05 1.02595e-05 -0.000276695
0.000483002 0.000160039 1.97844e-05
0.000160039 -0.000129382 1.79562e-05
1.97844e-05 1.79562e-05 -0.000250007
0.00113904 0.00024268 1.50688e-05
0.00024268 3.11694e-06 5.44309e-06
1.50688e-05 5.44309e-06 -0.00019492
0.00299638 0.000206237 0.000142808
0.000206237 0.00150663 2.00195e-05
0.000142808 2.00195e-05 0.00142748
0.00098807 0.000265627 1.47826e-05
0.000265627 1.19453e-05 6.64731e-06
1.47826e-05 6.64731e-06 -0.000202671
0.00082687 0.000250561 1.23046e-05
0.000250561 7.15003e-05 6.10115e-06
1.23046e-05 6.10115e-06 -0.000150906
0.00123345 0.000403695 1.9395e-06
0.000403695 0.00013 -1.43385e-06
1.9395e-06 -1.43385e-06 -0.000163414
0.00357549 -0.000122481 0.000109685
-0.000122481 0.00195458 6.87409e-06
0.000109685 6.87409e-06 0.00195354
0.00418775 -0.00016342 2.36499e-05
-0.00016342 0.00235844 -5.82677e-07
2.36499e-05 -5.82677e-07 0.00234461
0.00655841 6.13033e-05 -0.000323047
6.13033e-05 0.00375119 -1.60877e-05
-0.000323047 -1.60877e-05 0.00377429
0.00619606 7.31879e-05 -0.000314938
7.31879e-05 0.00353647 -9.80716e-06
-0.000314938 -9.80716e-06 0.00356203
0.00604706 8.37907e-05 -6.71713e-08
8.37907e-05 0.00345529 -3.78275e-06
-6.71713e-08 -3.78275e-06 0.00347713
0.00385163 3.25949e-05 -0.000131635
3.25949e-05 0.00206995 -6.86865e-06
-0.000131635 -6.86865e-06 0.00206363
0.00159482 3.84826e-05 6.26023e-05
3.84826e-05 0.000540045 1.72118e-06
6.26023e-05 1.72118e-06 0.0004719
0.00416998 0.000148993 -0.00012339
0.000148993 0.00227289 -7.33317e-06
-0.00012339 -7.33317e-06 0.00225334
0.00166208 9.273e-05 6.41529e-05
9.273e-05 0.000575305 3.17388e-06
6.41529e-05 3.17388e-06 0.00049606
0.00600019 0.000122214 0.000307316
0.000122214 0.00343503 7.25193e-06
0.000307316 7.25193e-06 0.00345183
0.000421279 1.04988e-05 1.84559e-05
1.04988e-05 -0.000189155 9.24112e-07
1.84559e-05 9.24112e-07 -0.000271179
0.00280151 3.95313e-05 0.000142672
3.95313e-05 0.00128722 6.2212e-06
0.000142672 6.2212e-06 0.00123448
0.00111387 6.37728e-05 1.18112e-05
6.37728e-05 -3.60833e-05 8.28052e-07
1.18112e-05 8.28052e-07 -0.000169099
0.00278374 0.00012153 0.000150898
0.00012153 0.0012755 1.23425e-05
0.000150898 1.23425e-05 0.00121004
0.00120974 0.000145224 1.19708e-05
0.000145224 2.54875e-06 1.8815e-06
1.19708e-05 1.8815e-06 -0.000153864
0.00181835 4.23169e-05 -0.000241223
4.23169e-05 0.000778094 3.03304e-06
-0.000241223 3.03304e-06 0.000780587
0.00142704 -1.6935e-05 -6.27725e-05
-1.6935e-05 0.000563399 2.85874e-06
-6.27725e-05 2.85874e-06 0.000517359
0.00166987 -1.30189e-06 -3.65482e-05
-1.30189e-06 0.000720661 8.25218e-06
-3.65482e-05 8.25218e-06 0.000665264
0.00142548 -0.000101628 -7.73831e-05
-0.000101628 0.000572917 1.17395e-05
-7.73831e-05 1.17395e-05 0.000519307
0.00199092 -9.43156e-05 -0.000130747
-9.43156e-05 0.000793344 1.2323e-05
-0.000130747 1.2323e-05 0.0007186
0.00198462 -0.000147947 -0.000133555
-0.000147947 0.000796839 2.10833e-05
-0.000133555 2.10833e-05 0.000713307
0.00189081 -0.00019031 -0.000140771
-0.00019031 0.000760712 2.66701e-05
-0.000140771 2.66701e-05 0.000663168
0.00204342 -0.000319161 -3.35233e-05
-0.000319161 0.000625133 1.15008e-05
-3.35233e-05 1.15008e-05 0.000416623
0.00603943 -0.000105253 2.31675e-06
-0.000105253 0.00345535 -1.86854e-06
2.31675e-06 -1.86854e-06 0.00347415
0.00170626 2.98733e-05 9.27802e-05
2.98733e-05 0.00071899 -4.52721e-06
9.27802e-05 -4.52721e-06 0.000697638
0.0011561 -1.05351e-05 -6.56993e-05
-1.05351e-05 0.00027163 1.95735e-06
-6.56993e-05 1.95735e-06 0.000202334
0.00183018 -7.55967e-05 -3.57584e-05
-7.55967e-05 0.000700802 2.87854e-06
-3.57584e-05 2.87854e-06 0.000621317
0.00431248 -3.50182e-05 0.000244798
-3.50182e-05 0.00237854 -1.59405e-05
0.000244798 -1.59405e-05 0.00237104
0.00243886 -0.000181626 -4.24249e-05
-0.000181626 0.00112338 3.62254e-06
-4.24249e-05 3.62254e-06 0.00101103
0.00188217 -0.000139401 -3.22445e-05
-0.000139401 0.00073925 2.9181e-06
-3.22445e-05 2.9181e-06 0.0006488
0.00196666 -0.000207571 -1.00424e-05
-0.000207571 0.000508645 1.84315e-06
-1.00424e-05 1.84315e-06 0.000346183
0.00204666 -0.000347023 -8.30481e-06
-0.000347023 0.000673917 2.44813e-06
-8.30481e-06 2.44813e-06 0.000448775
0.00198383 -0.000284132 -8.37005e-06
-0.000284132 0.00055719 2.21666e-06
-8.37005e-06 2.21666e-06 0.000364191
0.00170821 -0.000417278 7.67167e-07
-0.000417278 0.000203956 -1.69107e-07
7.67167e-07 -1.69107e-07 -5.29607e-05
0.000460491 9.77804e-06 1.9287e-05
9.77804e-06 -0.000168523 -7.0689e-07
1.9287e-05 -7.0689e-07 -0.000247184
0.00166781 -3.23807e-06 5.27119e-05
-3.23807e-06 0.000598206 -2.75296e-06
5.27119e-05 -2.75296e-06 0.00052193
0.00182097 -6.76089e-05 1.06597e-05
-6.76089e-05 0.000411103 -4.06065e-07
1.06597e-05 -4.06065e-07 0.000291529
0.00181399 -0.000163084 1.0731e-05
-0.000163084 0.000405173 -1.63396e-06
1.0731e-05 -1.63396e-06 0.000257609
0.00187605 -0.000243174 1.37123e-05
-0.000243174 0.000462406 -3.75331e-06
1.37123e-05 -3.75331e-06 0.000287129
0.00188264 -0.000290219 3.4184e-07
-0.000290219 0.00018906 -1.30545e-07
3.4184e-07 -1.30545e-07 1.40541e-05
0.00610712 0.000109683 0.000214097
0.000109683 0.00352992 -1.64189e-05
0.000214097 -1.64189e-05 0.00352421
0.00167427 -0.000382885 4.41717e-06
-0.000382885 0.000131702 -4.69963e-07
4.41717e-06 -4.69963e-07 -9.86641e-05
0.000256406 -0.000176501 2.04123e-05
-0.000176501 -0.00023107 -2.04711e-05
2.04123e-05 -2.04711e-05 -0.000347834
0.000903078 -0.000266246 1.38782e-05
-0.000266246 2.2673e-05 -8.63795e-06
1.38782e-05 -8.63795e-06 -0.000202712
0.00174878 -0.000460842 8.32157e-06
-0.000460842 0.000290116 -1.32273e-06
8.32157e-06 -1.32273e-06 -1.39567e-06
0.00190726 -0.000487312 2.28201e-06
-0.000487312 0.000218281 2.14075e-06
2.28201e-06 2.14075e-06 -2.84013e-05
0.000464926 -0.000140813 2.22027e-05
-0.000140813 -6.36885e-05 -1.6293e-05
2.22027e-05 -1.6293e-05 -0.000162496
0.000557141 -0.000123053 -2.83749e-07
-0.000123053 5.05364e-05 -8.32811e-08
-2.83749e-07 -8.32811e-08 -0.000187435
0.00684585 0.000262413 -0.000349439
0.000262413 0.00395059 -3.59152e-05
-0.000349439 -3.59152e-05 0.00395699
0.00683959 0.000198099 -0.00032451
0.000198099 0.00393608 -3.41037e-05
-0.00032451 -3.41037e-05 0.00394802
0.000354284 0.000128714 -1.83778e-05
0.000128714 -0.000224425 -1.26887e-05
-1.83778e-05 -1.26887e-05 -0.000337925
0.00583756 -0.000133434 -0.000202357
-0.000133434 0.00337186 -1.46687e-05
-0.000202357 -1.46687e-05 0.00336466
0.000345817 0.000198556 -2.31628e-05
0.000198556 -0.000167751 -2.03068e-05
-2.31628e-05 -2.03068e-05 -0.000285661
0.000367095 0.000197369 -2.08557e-05
0.000197369 -0.000166357 -1.85766e-05
-2.08557e-05 -1.85766e-05 -0.000298949
0.000847671 0.000244244 -1.42065e-05
0.000244244 3.16551e-06 -6.98017e-06
-1.42065e-05 -6.98017e-06 -0.000210359
0.00525777 -0.000128172 8.13352e-07
-0.000128172 0.00302035 6.01909e-07
8.13352e-07 6.01909e-07 0.00301338
0.000532364 4.10318e-05 1.48891e-06
4.10318e-05 1.30647e-05 4.94791e-07
1.48891e-06 4.94791e-07 -5.73255e-05
0.00167664 0.00014254 6.59828e-05
0.00014254 0.000589462 5.71291e-06
6.59828e-05 5.71291e-06 0.000497324
0.00166984 0.000205356 6.68704e-05
0.000205356 0.000619847 6.37718e-06
6.68704e-05 6.37718e-06 0.000512812
0.00111849 0.000241926 8.54789e-08
0.000241926 -4.33233e-06 -2.86716e-07
8.54789e-08 -2.86716e-07 -0.000203116
0.000452587 0.000172126 -6.1762e-08
0.000172126 -8.46417e-05 -4.62347e-07
-6.1762e-08 -4.62347e-07 -0.000188204
0.000960598 0.000259936 7.8027e-07
0.000259936 3.79006e-06 9.79047e-08
7.8027e-07 9.79047e-08 -0.000209404
0.000832429 0.000241176 2.8429e-07
0.000241176 6.73175e-05 -7.99901e-07
2.8429e-07 -7.99901e-07 -0.000150661
0.0013645 0.000424417 -2.6309e-07
0.000424417 0.000198761 -3.82311e-07
-2.6309e-07 -3.82311e-07 -9.81e-05
0.000425138 0.000122019 1.83364e-05
0.000122019 -7.29729e-05 1.62786e-05
1.83364e-05 1.62786e-05 -0.000169382
0.000709002 4.90722e-06 8.23697e-06
4.90722e-06 0.00012743 1.15386e-05
8.23697e-06 1.15386e-05 7.48322e-05
0.00125392 0.000187349 5.3108e-06
0.000187349 0.000498986 4.42211e-06
5.3108e-06 4.42211e-06 0.000284091
0.00118286 0.000214033 1.29876e-05
0.000214033 -1.30381e-06 4.07059e-06
1.29876e-05 4.07059e-06 -0.000185931
0.00107854 0.000262355 1.58871e-05
0.000262355 8.5229e-06 6.32753e-06
1.58871e-05 6.32753e-06 -0.000200119
0.00187076 0.000410891 3.71079e-06
0.000410891 0.000229172 -4.59629e-08
3.71079e-06 -4.59629e-08 -5.06357e-06
0.000720018 0.000216384 9.32185e-06
0.000216384 5.978e-05 5.94794e-06
9.32185e-06 5.94794e-06 -0.000154327
0.00172839 0.000467066 3.66447e-06
0.000467066 0.000311475 -7.21246e-07
3.66447e-06 -7.21246e-07 2.63949e-05
0.00104299 0.000369472 7.15849e-07
0.000369472 9.4847e-05 -1.49141e-06
7.15849e-07 -1.49141e-06 -0.00020519
0.00152648 0.000513941 -6.22988e-06
0.000513941 0.000199411 -4.19104e-06
-6.22988e-06 -4.19104e-06 -0.00011953
0.00318712 -0.000131938 6.91014e-05
-0.000131938 0.00170567 3.80156e-06
6.91014e-05 3.80156e-06 0.00170239
0.0035212 -0.000159307 1.35146e-05
-0.000159307 0.0019278 -8.32627e-07
1.35146e-05 -8.32627e-07 0.00191681
0.00396656 -0.000199561 -8.14164e-05
-0.000199561 0.00222504 -6.03673e-06
-8.14164e-05 -6.03673e-06 0.00220193
0.000474332 -0.000122933 2.08393e-05
-0.000122933 -4.10571e-05 -1.46594e-05
2.08393e-05 -1.46594e-05 -0.000125404
0.00549913 0.00015523 0.000174454
0.00015523 0.00318167 -1.69895e-05
0.000174454 -1.69895e-05 0.00316379
0.00676419 0.00022104 -0.000348148
0.00022104 0.00389414 -2.97767e-05
-0.000348148 -2.97767e-05 0.00390677
0.00631888 9.54749e-05 -0.000318415
9.54749e-05 0.00360915 -1.38339e-05
-0.000318415 -1.38339e-05 0.00363323
0.000424218 9.7672e-05 -1.93135e-05
9.7672e-05 -0.000196649 -5.57417e-06
-1.93135e-05 -5.57417e-06 -0.000292556
0.00042121 4.35235e-05 -1.90784e-05
4.35235e-05 -0.00019013 -2.781e-06
-1.90784e-05 -2.781e-06 -0.000276158
0.00599398 -6.10111e-06 -0.000302072
-6.10111e-06 0.00341315 -2.60916e-06
-0.000302072 -2.60916e-06 0.00343971
0.00593684 6.089e-06 -1.36898e-07
6.089e-06 0.00337893 -9.98637e-07
-1.36898e-07 -9.98637e-07 0.00340555
0.000402585 8.5466e-07 -8.72573e-08
8.5466e-07 -0.000203612 1.40025e-07
-8.72573e-08 1.40025e-07 -0.000283824
0.00159434 4.02345e-05 6.33128e-05
4.02345e-05 0.000533593 2.85152e-06
6.33128e-05 2.85152e-06 0.000462843
0.0010854 6.73957e-05 -7.83291e-08
6.73957e-05 -5.7699e-05 -6.09431e-08
-7.83291e-08 -6.09431e-08 -0.000191604
0.000386567 8.4019e-05 -6.68951e-07
8.4019e-05 -0.000220546 -4.51396e-07
-6.68951e-07 -4.51396e-07 -0.000323039
0.00113548 0.000145363 -2.15928e-07
0.000145363 -4.41643e-05 -1.69177e-07
-2.15928e-07 -1.69177e-07 -0.000201731
0.000396297 -3.15338e-05 1.90672e-05
-3.15338e-05 -0.00020887 -7.74284e-07
1.90672e-05 -7.74284e-07 -0.000286463
0.00106689 2.7568e-05 1.15263e-05
2.7568e-05 -5.42844e-05 4.43443e-07
1.15263e-05 4.43443e-07 -0.000181956
0.00114848 0.000104318 1.17932e-05
0.000104318 -2.76202e-05 1.36537e-06
1.17932e-05 1.36537e-06 -0.000170762
0.00184226 0.000108263 4.00766e-07
0.000108263 8.07393e-05 -4.33169e-07
4.00766e-07 -4.33169e-07 -2.55342e-05
0.00119899 0.000180221 1.19447e-05
0.000180221 -4.12799e-06 2.74034e-06
1.19447e-05 2.74034e-06 -0.000174374
0.00193177 0.000246001 9.09538e-07
0.000246001 0.000145144 -7.23972e-07
9.09538e-07 -7.23972e-07 4.54608e-07
0.00595614 -6.6665e-05 -0.000306299
-6.6665e-05 0.00339762 3.05135e-06
-0.000306299 3.05135e-06 0.00342043
0.001362 -0.000156038 -6.3641e-05
-0.000156038 0.000539197 7.70872e-06
-6.3641e-05 7.70872e-06 0.000488909
-0.000254439 -6.27091e-06 -1.20059e-05
-6.27091e-06 -0.000605709 1.80451e-06
-1.20059e-05 1.80451e-06 -0.000700468
0.00194308 -6.72588e-05 -0.000128611
-6.72588e-05 0.00076436 8.65354e-06
-0.000128611 8.65354e-06 0.000694272
0.0064736 0.000267388 -2.80015e-05
0.000267388 0.00376207 3.86212e-06
-2.80015e-05 3.86212e-06 0.00371121
0.00308423 -0.000268295 -0.000145154
-0.000268295 0.00152344 2.79793e-05
-0.000145154 2.79793e-05 0.00141629
0.00200384 -0.000120793 -0.00013183
-0.000120793 0.000803516 1.65112e-05
-0.00013183 1.65112e-05 0.000725253
0.00201019 -0.00020656 -3.04407e-05
-0.00020656 0.000531648 5.59849e-06
-3.04407e-05 5.59849e-06 0.000372603
0.00204104 -0.000286004 -3.18667e-05
-0.000286004 0.000593131 9.91082e-06
-3.18667e-05 9.91082e-06 0.000399237
0.00202328 -0.00034839 -3.1195e-05
-0.00034839 0.000654329 1.19435e-05
-3.1195e-05 1.19435e-05 0.000428576
0.00175915 -0.000420746 -4.87663e-06
-0.000420746 0.000237495 3.69148e-07
-4.87663e-06 3.69148e-07 -1.92516e-05
0.000400281 4.64727e-06 -3.66376e-08
4.64727e-06 -0.000203984 3.06584e-07
-3.66376e-08 3.06584e-07 -0.000283642
0.00180112 -8.61108e-05 -3.44303e-05
-8.61108e-05 0.000687489 4.86323e-07
-3.44303e-05 4.86323e-07 0.000612796
0.0014627 -6.32265e-05 -1.05337e-05
-6.32265e-05 0.000187253 6.9433e-07
-1.05337e-05 6.9433e-07 6.32927e-05
0.00189994 -0.000163869 -8.9622e-06
-0.000163869 0.000458189 1.42362e-06
-8.9622e-06 1.42362e-06 0.000309429
0.00634007 0.000108422 5.31882e-06
0.000108422 0.00367806 6.20844e-07
5.31882e-06 6.20844e-07 0.00367023
0.0017045 -0.000179715 4.47264e-06
-0.000179715 0.000686398 6.14631e-07
4.47264e-06 6.14631e-07 0.000560085
0.00137719 -0.000301695 1.38771e-06
-0.000301695 0.000320411 -1.07469e-06
1.38771e-06 -1.07469e-06 9.14222e-05
0.00193128 -0.000246628 -8.98523e-06
-0.000246628 0.000496128 2.26346e-06
-8.98523e-06 2.26346e-06 0.000320179
0.00190895 -0.000294031 -5.56517e-07
-0.000294031 0.000201412 1.74161e-08
-5.56517e-07 1.74161e-08 3.18605e-05
0.00175331 -0.000460058 1.10313e-06
-0.000460058 0.000295937 -3.36186e-07
1.10313e-06 -3.36186e-07 6.1451e-06
0.00180333 -0.000387983 6.50304e-07
-0.000387983 0.000215025 -1.98339e-07
6.50304e-07 -1.98339e-07 -1.56788e-05
0.0019419 -0.000488523 8.07733e-07
-0.000488523 0.000244741 1.06828e-07
8.07733e-07 1.06828e-07 -1.78572e-06
0.00047037 -0.000151014 1.91842e-06
-0.000151014 -6.46578e-05 5.64773e-07
1.91842e-06 5.64773e-07 -0.000164111
0.000701477 -0.000161427 7.89658e-07
-0.000161427 0.000125788 1.47835e-07
7.89658e-07 1.47835e-07 -0.000100831
0.00106608 -3.11314e-05 1.17412e-05
-3.11314e-05 -4.9658e-05 -5.36299e-07
1.17412e-05 -5.36299e-07 -0.000177713
0.00187416 -0.000112147 9.71865e-06
-0.000112147 0.000443851 -8.46489e-07
9.71865e-06 -8.46489e-07 0.000313135
0.00183473 -0.000113546 2.3996e-07
-0.000113546 0.000104369 2.6389e-07
2.3996e-07 2.6389e-07 -1.1006e-05
0.00180852 -0.000238004 -4.27374e-07
-0.000238004 0.000113222 8.63158e-07
-4.27374e-07 8.63158e-07 -2.8981e-05
0.0018014 -0.000344965 7.82633e-07
-0.000344965 0.000165705 4.13422e-07
7.82633e-07 4.13422e-07 -3.2585e-05
0.0020847 -0.000338805 2.10188e-06
-0.000338805 0.000196169 -2.95312e-07
2.10188e-06 -2.95312e-07 5.68328e-05
0.000363897 -0.000162297 2.01244e-05
-0.000162297 -0.000141566 -1.94532e-05
2.01244e-05 -1.94532e-05 -0.000253416
0.00195733 -0.000450089 6.72034e-07
-0.000450089 0.000202616 1.64108e-06
6.72034e-07 1.64108e-06 -4.71539e-06
0.000591669 -0.000232805 9.87961e-06
-0.000232805 -8.08885e-05 -8.31776e-06
9.87961e-06 -8.31776e-06 -0.000302879
0.00144208 -0.00046811 1.04739e-05
-0.00046811 0.000194354 -1.76803e-06
1.04739e-05 -1.76803e-06 -0.000126024
0.00210632 -0.000548892 2.68582e-06
-0.000548892 0.000408497 1.32489e-06
2.68582e-06 1.32489e-06 0.000109497
0.00222436 -0.000525058 -1.67627e-06
-0.000525058 0.000375498 4.29838e-06
-1.67627e-06 4.29838e-06 0.00015799
0.000618722 -0.000207309 1.84527e-06
-0.000207309 5.5095e-05 -3.39954e-06
1.84527e-06 -3.39954e-06 -0.000191903
0.000619368 -0.000116175 5.29506e-07
-0.000116175 9.52252e-05 -1.40584e-06
5.29506e-07 -1.40584e-06 -9.9471e-05
0.000946347 -0.000272066 -1.49019e-06
-0.000272066 0.000271636 2.72029e-06
-1.49019e-06 2.72029e-06 -1.86202e-05
0.000372902 0.000106941 -1.76929e-05
0.000106941 -0.000224781 -9.72102e-06
-1.76929e-05 -9.72102e-06 -0.000333143
0.00479993 -0.000187915 -0.000135918
-0.000187915 0.0027527 -1.12974e-05
-0.000135918 -1.12974e-05 0.00273115
0.000271015 3.14499e-05 -9.74543e-06
3.14499e-05 -0.000146034 -1.32037e-05
-9.74543e-06 -1.32037e-05 -0.000211201
0.000341132 0.00016095 -1.96351e-05
0.00016095 -0.00020962 -1.58495e-05
-1.96351e-05 -1.58495e-05 -0.0003318
0.00108889 0.00024054 -1.60037e-05
0.00024054 -1.70958e-05 -6.05257e-06
-1.60037e-05 -6.05257e-06 -0.000216493
0.000483961 0.000161271 -2.3031e-05
0.000161271 -6.61308e-05 -1.8435e-05
-2.3031e-05 -1.8435e-05 -0.000168511
0.000624924 0.000222496 -1.08503e-05
0.000222496 -6.2368e-05 -7.62162e-06
-1.08503e-05 -7.62162e-06 -0.000275261
0.000963645 0.00025647 -1.50049e-05
0.00025647 1.42471e-05 -7.05642e-06
-1.50049e-05 -7.05642e-06 -0.000197776
0.00146719 0.000442074 -3.54201e-06
0.000442074 0.000249461 4.92488e-07
-3.54201e-06 4.92488e-07 -5.01243e-05
0.000515432 0.000116333 -1.05984e-07
0.000116333 -2.29343e-05 1.19131e-06
-1.05984e-07 1.19131e-06 -0.000112593
0.000391824 -1.50403e-05 3.22525e-07
-1.50403e-05 -6.13929e-05 6.52129e-07
3.22525e-07 6.52129e-07 -0.000115187
0.000746505 0.000113533 3.40163e-06
0.000113533 0.000170373 -8.55309e-07
3.40163e-06 -8.55309e-07 -2.84446e-05
0.00115285 0.000214105 -1.14542e-07
0.000214105 -1.48255e-05 -3.05489e-07
-1.14542e-07 -3.05489e-07 -0.000200588
0.00105618 0.000259078 3.94584e-07
0.000259078 2.98243e-06 -2.21044e-07
3.94584e-07 -2.21044e-07 -0.000205475
0.00183856 0.000408675 -2.37163e-07
0.000408675 0.000207646 -1.34916e-07
-2.37163e-07 -1.34916e-07 -2.67096e-05
0.000667838 0.000218152 -3.15413e-07
0.000218152 2.93589e-05 4.11428e-08
-3.15413e-07 4.11428e-08 -0.000183394
0.0017286 0.000465252 -2.93061e-07
0.000465252 0.000306081 -3.38466e-07
-2.93061e-07 -3.38466e-07 2.01159e-05
0.00123355 0.000389264 5.03437e-07
0.000389264 0.000216866 -1.00105e-06
5.03437e-07 -1.00105e-06 -8.67194e-05
0.00151787 0.00052434 -4.72509e-07
0.00052434 0.000177697 1.62538e-06
-4.72509e-07 1.62538e-06 -0.00014177
0.000521261 -2.47221e-05 2.29788e-06
-2.47221e-05 1.45057e-05 9.51269e-06
2.29788e-06 9.51269e-06 -2.86686e-05
0.0010374 0.000185207 5.34906e-06
0.000185207 0.000314144 3.49293e-06
5.34906e-06 3.49293e-06 9.57938e-05
0.000998307 6.4217e-05 2.26537e-07
6.4217e-05 0.000318023 6.55801e-06
2.26537e-07 6.55801e-06 0.00016658
0.00115235 0.000196971 1.64963e-06
0.000196971 0.000445797 2.56705e-07
1.64963e-06 2.56705e-07 0.000169285
0.00191421 0.000364522 1.0512e-06
0.000364522 0.000195555 -1.46181e-06
1.0512e-06 -1.46181e-06 -6.75938e-06
0.0017868 0.000445578 4.37982e-06
0.000445578 0.000252812 7.19821e-08
4.37982e-06 7.19821e-08 -1.13906e-05
0.00206454 0.000479158 1.23947e-07
0.000479158 0.000252324 -8.86828e-07
1.23947e-07 -8.86828e-07 2.90347e-05
0.000904851 0.000296832 2.53867e-06
0.000296832 6.46363e-05 1.33497e-06
2.53867e-06 1.33497e-06 -0.000199221
0.00219601 0.000594137 -3.74058e-06
0.000594137 0.000482718 -1.80955e-06
-3.74058e-06 -1.80955e-06 0.000182387
0.00179872 0.000552824 -3.94582e-06
0.000552824 0.00047912 -5.63124e-06
-3.94582e-06 -5.63124e-06 0.000112359
0.00183588 0.000571315 -1.09589e-06
0.000571315 0.000278836 -1.30834e-06
-1.09589e-06 -1.30834e-06 -3.35239e-05
0.000559865 4.44734e-05 2.37889e-06
4.44734e-05 4.84487e-05 4.26695e-06
2.37889e-06 4.26695e-06 -2.47582e-05
0.000476926 -2.0578e-05 1.83694e-06
-2.0578e-05 -2.96378e-05 6.9375e-06
1.83694e-06 6.9375e-06 -5.81204e-05
0.00280939 -0.000121459 4.39663e-05
-0.000121459 0.00146021 4.04886e-06
4.39663e-05 4.04886e-06 0.00145937
0.00303724 -0.000144497 8.44374e-06
-0.000144497 0.00161403 -8.37303e-07
8.44374e-06 -8.37303e-07 0.00160688
0.00333049 -0.000172866 -5.53175e-05
-0.000172866 0.00181082 -3.95751e-06
-5.53175e-05 -3.95751e-06 0.00179532
0.000425652 -0.000102218 1.65867e-05
-0.000102218 -4.9693e-05 -1.43293e-05
1.65867e-05 -1.43293e-05 -0.000121331
0.00500989 0.000179702 0.000140702
0.000179702 0.00288908 -1.60828e-05
0.000140702 -1.60828e-05 0.00286503
0.000503405 -0.000121156 4.46515e-07
-0.000121156 -2.29497e-05 3.48134e-07
4.46515e-07 3.48134e-07 -0.000112596
0.00574299 0.000136221 4.40605e-06
0.000136221 0.0033278 8.41298e-07
4.40605e-06 8.41298e-07 0.00331304
0.000415439 0.000109764 -1.89778e-05
0.000109764 -0.000199852 -7.62979e-06
-1.89778e-05 -7.62979e-06 -0.000304473
0.000433349 3.48164e-05 -1.80698e-05
3.48164e-05 -0.000189933 -3.4601e-06
-1.80698e-05 -3.4601e-06 -0.000278501
0.00109807 0.000145862 -1.20232e-05
0.000145862 -6.98755e-05 -2.16937e-06
-1.20232e-05 -2.16937e-06 -0.000228371
0.00105915 6.98189e-05 -1.18718e-05
6.98189e-05 -7.77375e-05 -8.75164e-07
-1.18718e-05 -8.75164e-07 -0.000212352
0.000455735 -7.63333e-06 -1.91407e-05
-7.63333e-06 -0.000173695 -8.89323e-07
-1.91407e-05 -8.89323e-07 -0.000252125
0.00602958 -9.9874e-05 -0.000313202
-9.9874e-05 0.00344825 5.41859e-06
-0.000313202 5.41859e-06 0.00346891
0.00044383 -2.28503e-06 8.52307e-08
-2.28503e-06 -0.000180123 -6.65333e-07
8.52307e-08 -6.65333e-07 -0.000257639
0.00105101 3.28938e-05 -8.0414e-08
3.28938e-05 -6.59867e-05 4.98481e-08
-8.0414e-08 4.98481e-08 -0.000194139
0.00112248 0.000106132 -1.53587e-07
0.000106132 -4.67867e-05 -5.47726e-08
-1.53587e-07 -5.47726e-08 -0.000190885
0.00183509 0.000106388 -1.15534e-07
0.000106388 8.28196e-05 2.26792e-07
-1.15534e-07 2.26792e-07 -2.33116e-05
0.00116731 0.000181924 -2.58363e-07
0.000181924 -2.23416e-05 -2.65577e-07
-2.58363e-07 -2.65577e-07 -0.000194137
0.00189453 0.000243978 -1.7607e-07
0.000243978 0.000120422 1.30453e-07
-1.7607e-07 1.30453e-07 -2.44333e-05
0.00104514 -3.51033e-06 1.1562e-05
-3.51033e-06 -6.22649e-05 -2.40767e-07
1.1562e-05 -2.40767e-07 -0.000188959
0.00179775 5.05993e-05 9.75191e-07
5.05993e-05 5.98518e-05 -4.5767e-08
9.75191e-07 -4.5767e-08 -3.78406e-05
0.00187425 0.000174288 2.32216e-07
0.000174288 0.000104243 -7.70325e-07
2.32216e-07 -7.70325e-07 -1.80109e-05
0.00198752 0.000134424 3.66742e-06
0.000134424 5.79161e-05 1.04751e-06
3.66742e-06 1.04751e-06 2.38325e-06
0.0019512 0.000311317 1.05851e-06
0.000311317 0.000171244 -9.2904e-07
1.05851e-06 -9.2904e-07 -7.71422e-07
0.00204793 0.00027523 2.57619e-06
0.00027523 0.000108149 -4.17553e-07
2.57619e-06 -4.17553e-07 2.13923e-06
0.000428536 -2.60668e-06 -1.83071e-05
-2.60668e-06 -0.000183092 8.87655e-07
-1.83071e-05 8.87655e-07 -0.000264961
0.00189657 -4.18796e-05 -0.000126169
-4.18796e-05 0.000737607 5.79385e-06
-0.000126169 5.79385e-06 0.000673229
0.00106569 -5.79971e-05 -1.79574e-05
-5.79971e-05 -6.04952e-05 1.61238e-06
-1.79574e-05 1.61238e-06 -0.000189228
0.00196503 -0.000163712 -2.82232e-05
-0.000163712 0.000497557 4.24863e-06
-2.82232e-05 4.24863e-06 0.000347731
0.00654826 8.77446e-05 -0.000246844
8.77446e-05 0.00380209 2.39849e-05
-0.000246844 2.39849e-05 0.00379621
0.00319606 -0.000253538 -0.000152411
-0.000253538 0.00161055 2.3189e-05
-0.000152411 2.3189e-05 0.00151315
0.00206479 -0.000358644 -2.61177e-05
-0.000358644 0.000748142 1.08938e-05
-2.61177e-05 1.08938e-05 0.000511311
0.00195964 -0.000248177 -3.11448e-05
-0.000248177 0.000512394 7.89009e-06
-3.11448e-05 7.89009e-06 0.00033623
0.00192949 -0.000297652 -2.476e-06
-0.000297652 0.000209419 -3.36921e-07
-2.476e-06 -3.36921e-07 4.53116e-05
0.00192983 -0.000392906 -3.78192e-06
-0.000392906 0.000297436 7.53966e-07
-3.78192e-06 7.53966e-07 6.63946e-05
0.00173677 -0.000457525 -6.86669e-06
-0.000457525 0.000287352 4.25617e-07
-6.86669e-06 4.25617e-07 -3.21133e-07
0.00197846 -0.000490381 -4.90029e-07
-0.000490381 0.000270942 -1.99258e-06
-4.90029e-07 -1.99258e-06 2.44007e-05
0.000444529 -0.000157536 -2.02826e-05
-0.000157536 -7.51733e-05 1.77063e-05
-2.02826e-05 1.77063e-05 -0.000180916
0.000710482 -0.000186256 -6.79717e-07
-0.000186256 0.000131471 -2.18118e-07
-6.79717e-07 -2.18118e-07 -9.45074e-05
0.00104947 -2.60249e-05 3.01928e-07
-2.60249e-05 -6.22902e-05 7.05559e-08
3.01928e-07 7.05559e-08 -0.000187613
0.00187341 -0.000112646 -9.09486e-06
-0.000112646 0.000441331 1.0818e-06
-9.09486e-06 1.0818e-06 0.000310822
0.00185463 -0.000110464 1.12963e-07
-0.000110464 0.00011438 -2.06741e-07
1.12963e-07 -2.06741e-07 3.91612e-06
0.00179801 -0.000237023 -2.50789e-06
-0.000237023 0.000112654 7.70287e-07
-2.50789e-06 7.70287e-07 -3.59777e-05
0.000436465 -0.000183145 1.53697e-07
-0.000183145 -9.83188e-05 1.37676e-07
1.53697e-07 1.37676e-07 -0.000211067
0.000804921 -0.000247954 -4.49049e-07
-0.000247954 4.3185e-05 -1.3511e-07
-4.49049e-07 -1.3511e-07 -0.000181828
0.0014184 -0.000463807 1.9093e-06
-0.000463807 0.000186428 -3.68664e-07
1.9093e-06 -3.68664e-07 -0.000134175
0.00185527 -0.000346601 -2.99734e-06
-0.000346601 0.000201851 8.57347e-07
-2.99734e-06 8.57347e-07 4.70963e-07
0.00204346 -0.000339555 2.19637e-06
-0.000339555 0.000160274 -1.00257e-06
2.19637e-06 -1.00257e-06 2.5954e-05
0.00215382 -0.000557502 -6.72937e-07
-0.000557502 0.000433833 -5.77836e-07
-6.72937e-07 -5.77836e-07 0.000135844
0.00197143 -0.000450724 6.00688e-07
-0.000450724 0.000212968 2.14969e-08
6.00688e-07 2.14969e-08 5.51918e-06
0.00208693 -0.000518958 6.77466e-07
-0.000518958 0.000282966 8.76262e-07
6.77466e-07 8.76262e-07 6.49053e-05
0.000636673 -0.000199005 3.76232e-07
-0.000199005 6.72636e-05 -3.91364e-07
3.76232e-07 -3.91364e-07 -0.000176451
0.000473209 -0.000183734 7.92236e-07
-0.000183734 -5.04061e-05 5.26011e-07
7.92236e-07 5.26011e-07 -0.000316507
0.000708381 -0.000136851 6.74522e-07
-0.000136851 0.000152674 7.52627e-08
6.74522e-07 7.52627e-08 -4.82727e-05
0.00180646 -5.06449e-05 3.16406e-07
-5.06449e-05 8.55919e-05 9.33631e-08
3.16406e-07 9.33631e-08 -1.9822e-05
0.0019246 -0.00017235 -2.29297e-06
-0.00017235 0.00016869 8.29145e-07
-2.29297e-06 8.29145e-07 4.61459e-05
0.0019835 -0.000128251 5.49299e-06
-0.000128251 6.90465e-05 -1.05376e-06
5.49299e-06 -1.05376e-06 3.27805e-06
0.00195705 -0.000277814 6.49329e-07
-0.000277814 7.94443e-05 3.86897e-07
6.49329e-07 3.86897e-07 -2.51136e-05
0.00183864 -0.00039898 -9.60562e-07
-0.00039898 7.78751e-05 1.76428e-06
-9.60562e-07 1.76428e-06 -9.10334e-05
0.00220048 -0.000370006 3.78909e-06
-0.000370006 0.000201829 -1.22728e-06
3.78909e-06 -1.22728e-06 0.000101749
0.000648476 -0.00023546 6.3187e-06
-0.00023546 2.1821e-05 -6.87137e-06
6.3187e-06 -6.87137e-06 -0.000204105
0.00194233 -0.000476864 -6.68252e-07
-0.000476864 0.000139351 1.53934e-06
-6.68252e-07 1.53934e-06 -4.07627e-05
0.00129425 -0.000426395 7.73754e-06
-0.000426395 0.000251028 -3.07747e-06
7.73754e-06 -3.07747e-06 -7.1452e-05
0.0018198 -0.000613551 6.45348e-06
-0.000613551 0.000323931 1.82647e-06
6.45348e-06 1.82647e-06 -4.25254e-05
0.00222768 -0.000588114 3.56374e-06
-0.000588114 0.000433202 4.30021e-06
3.56374e-06 4.30021e-06 0.000150552
0.00227377 -0.00054854 -3.13618e-06
-0.00054854 0.000408386 2.43584e-06
-3.13618e-06 2.43584e-06 0.000199182
0.000438002 -0.00010788 -1.79246e-07
-0.00010788 -5.34453e-06 -6.05061e-06
-1.79246e-07 -6.05061e-06 -0.00017085
0.00116904 -0.000294627 7.96523e-07
-0.000294627 0.000301469 -1.84729e-06
7.96523e-07 -1.84729e-06 4.87713e-05
0.000490002 -0.000188218 3.19892e-07
-0.000188218 6.29055e-05 5.09011e-06
3.19892e-07 5.09011e-06 -0.000251708
0.00169411 -0.000376697 -2.43283e-06
-0.000376697 0.00065293 2.78883e-06
-2.43283e-06 2.78883e-06 0.000355158
0.00111839 0.000214442 -1.39631e-05
0.000214442 -3.1951e-05 -4.63778e-06
-1.39631e-05 -4.63778e-06 -0.000218918
0.000356618 -4.18631e-05 2.42904e-06
-4.18631e-05 -6.81525e-05 -1.20739e-05
2.42904e-06 -1.20739e-05 -0.000128927
0.000424498 9.62945e-05 -1.96022e-05
9.62945e-05 -7.89858e-05 -1.44634e-05
-1.96022e-05 -1.44634e-05 -0.000162551
-5.39199e-05 9.37799e-05 -2.24101e-06
9.37799e-05 -0.000316379 -4.40227e-06
-2.24101e-06 -4.40227e-06 -0.000517765
0.00102038 0.000255029 -1.6174e-05
0.000255029 -1.06345e-05 -6.94099e-06
-1.6174e-05 -6.94099e-06 -0.00021887
0.0018117 0.00040677 -3.64144e-06
0.00040677 0.000189175 4.89385e-08
-3.64144e-06 4.89385e-08 -4.5323e-05
0.000646684 0.000219553 -6.18092e-06
0.000219553 1.59717e-05 -4.20568e-06
-6.18092e-06 -4.20568e-06 -0.000195304
0.00138054 0.000404532 -3.44054e-06
0.000404532 0.000312262 -1.94384e-06
-3.44054e-06 -1.94384e-06 6.10282e-06
0.00172587 0.000463428 -3.81171e-06
0.000463428 0.000299163 3.2079e-07
-3.81171e-06 3.2079e-07 1.22528e-05
0.00147639 0.000529215 3.14559e-06
0.000529215 0.000141331 5.56169e-06
3.14559e-06 5.56169e-06 -0.000177182
0.000472703 -4.02751e-05 -3.63601e-06
-4.02751e-05 -7.9093e-06 8.32916e-07
-3.63601e-06 8.32916e-07 -5.47004e-05
0.000665254 0.00020182 -1.41965e-06
0.00020182 9.78566e-05 -6.73898e-07
-1.41965e-06 -6.73898e-07 -0.000130252
0.00060026 6.38043e-05 2.8962e-07
6.38043e-05 6.76978e-05 2.98376e-07
2.8962e-07 2.98376e-07 -7.46521e-05
0.00080155 0.000169171 6.40456e-07
0.000169171 0.000214437 -8.3096e-07
6.40456e-07 -8.3096e-07 -5.25321e-05
0.00189566 0.000362961 -1.17567e-06
0.000362961 0.000184013 -9.91679e-07
-1.17567e-06 -9.91679e-07 -1.84024e-05
0.00175279 0.000444079 -2.43188e-07
0.000444079 0.000230427 -2.17552e-07
-2.43188e-07 -2.17552e-07 -3.43967e-05
0.00203096 0.000474984 2.69859e-07
0.000474984 0.000235103 2.01801e-07
2.69859e-07 2.01801e-07 1.26685e-05
0.00106602 0.000312319 2.79824e-06
0.000312319 0.000181488 2.83197e-07
2.79824e-06 2.83197e-07 -8.40054e-05
0.00208735 0.000575726 -1.05955e-07
0.000575726 0.000424489 3.55231e-07
-1.05955e-07 3.55231e-07 0.000125932
0.00154539 0.000530224 -1.12355e-06
0.000530224 0.000321685 -1.77803e-06
-1.12355e-06 -1.77803e-06 -4.3294e-05
0.00185698 0.000564421 -4.11337e-06
0.000564421 0.000296895 1.88425e-06
-4.11337e-06 1.88425e-06 -8.27473e-06
0.000533309 -2.74983e-05 1.51888e-06
-2.74983e-05 1.36656e-05 8.06301e-06
1.51888e-06 8.06301e-06 -2.08819e-05
0.000832447 5.38402e-05 2.25094e-06
5.38402e-05 0.000212832 6.46522e-06
2.25094e-06 6.46522e-06 0.000101987
0.000773272 0.000234564 1.27669e-06
0.000234564 7.41639e-05 2.25272e-06
1.27669e-06 2.25272e-06 -0.000163252
0.00164519 0.000171661 2.90215e-07
0.000171661 0.000796521 1.74835e-06
2.90215e-07 1.74835e-06 0.00053257
0.00134339 0.000369953 -1.15278e-06
0.000369953 0.000495326 -1.62449e-06
-1.15278e-06 -1.62449e-06 0.000228559
0.00211872 0.000428429 -4.98627e-07
0.000428429 0.000220159 -2.74748e-06
-4.98627e-07 -2.74748e-06 3.6567e-05
0.00202554 0.000534426 -7.31599e-07
0.000534426 0.000298994 -1.13046e-06
-7.31599e-07 -1.13046e-06 3.42774e-05
0.00205855 0.00051981 -1.94041e-06
0.00051981 0.000230711 -9.26049e-07
-1.94041e-06 -9.26049e-07 1.44452e-05
0.00104768 0.000435531 4.92381e-06
0.000435531 0.00014566 1.21174e-06
4.92381e-06 1.21174e-06 -0.00019806
0.00227083 0.000641462 -2.2022e-06
0.000641462 0.000479637 -1.15272e-06
-2.2022e-06 -1.15272e-06 0.000179098
0.00160692 0.000588519 6.09377e-06
0.000588519 0.000292472 -3.30741e-06
6.09377e-06 -3.30741e-06 -7.05206e-05
0.000598989 4.12797e-05 2.27419e-06
4.12797e-05 7.12747e-05 4.59498e-06
2.27419e-06 4.59498e-06 -7.69677e-06
0.000626824 8.94842e-05 -1.51836e-07
8.94842e-05 0.000127901 2.37116e-06
-1.51836e-07 2.37116e-06 2.92553e-06
0.000587022 5.39996e-05 2.36414e-06
5.39996e-05 7.18324e-05 4.08447e-06
2.36414e-06 4.08447e-06 9.38379e-07
0.000530712 8.63246e-06 -6.59125e-07
8.63246e-06 3.13854e-05 -3.86276e-08
-6.59125e-07 -3.86276e-08 -4.19246e-05
0.00131021 -3.70693e-05 1.39474e-06
-3.70693e-05 0.000493129 3.97569e-06
1.39474e-06 3.97569e-06 0.000471385
0.000899358 -3.26491e-05 3.1675e-07
-3.26491e-05 0.000236962 -1.80675e-07
3.1675e-07 -1.80675e-07 0.00021048
0.000848571 -5.03229e-05 3.29066e-05
-5.03229e-05 0.000210161 9.17139e-06
3.29066e-05 9.17139e-06 0.000208391
0.00277852 -0.00012355 6.97362e-06
-0.00012355 0.00144075 -6.68324e-07
6.97362e-06 -6.68324e-07 0.00143935
0.00296081 -0.000146242 -4.41474e-05
-0.000146242 0.00156638 -3.89334e-06
-4.41474e-05 -3.89334e-06 0.00155868
0.000368617 -5.53073e-05 8.15549e-06
-5.53073e-05 -7.12927e-05 -1.16848e-05
8.15549e-06 -1.16848e-05 -0.000128537
0.00439893 0.000168176 0.000103107
0.000168176 0.00249289 -9.68451e-06
0.000103107 -9.68451e-06 0.00247443
0.000476682 -9.84967e-05 -1.67591e-06
-9.84967e-05 -1.90246e-05 5.76747e-07
-1.67591e-06 5.76747e-07 -9.44624e-05
0.00516952 0.000146001 -9.51638e-06
0.000146001 0.00297759 -1.01694e-06
-9.51638e-06 -1.01694e-06 0.00296147
0.000500498 -0.000126022 -2.00482e-05
-0.000126022 -2.85373e-05 1.54209e-05
-2.00482e-05 1.54209e-05 -0.000119848
0.00595761 0.000138159 -0.000207753
0.000138159 0.00346693 2.34385e-05
-0.000207753 2.34385e-05 0.00344959
0.00110972 0.000182486 -1.24142e-05
0.000182486 -5.5674e-05 -3.22933e-06
-1.24142e-05 -3.22933e-06 -0.000228953
0.0010869 0.000109649 -1.19314e-05
0.000109649 -7.10358e-05 -1.39629e-06
-1.19314e-05 -1.39629e-06 -0.000216394
0.00189536 0.000239443 -2.11435e-06
0.000239443 0.000121233 9.0864e-07
-2.11435e-06 9.0864e-07 -2.30179e-05
0.00182894 0.000104762 -4.17185e-07
0.000104762 8.57346e-05 9.78161e-07
-4.17185e-07 9.78161e-07 -2.02774e-05
0.00103931 3.77614e-05 -1.16187e-05
3.77614e-05 -7.56329e-05 -3.69236e-07
-1.16187e-05 -3.69236e-07 -0.000204274
0.000407702 2.89385e-05 -1.90653e-05
2.89385e-05 -0.000204486 -6.39091e-07
-1.90653e-05 -6.39091e-07 -0.000280662
0.00103715 2.25893e-07 -6.31513e-08
2.25893e-07 -6.75999e-05 -6.47744e-08
-6.31513e-08 -6.47744e-08 -0.000194338
0.00180776 5.13861e-05 -1.09965e-07
5.13861e-05 6.98326e-05 2.12169e-07
-1.09965e-07 2.12169e-07 -2.78876e-05
0.00187466 0.000171405 -6.95695e-08
0.000171405 0.000106753 2.24836e-08
-6.95695e-08 2.24836e-08 -1.51316e-05
0.00198511 0.000132791 -9.08287e-08
0.000132791 4.66307e-05 8.09311e-08
-9.08287e-08 8.09311e-08 -6.0135e-06
0.00192245 0.000308234 -4.33216e-07
0.000308234 0.000157718 -3.42345e-08
-4.33216e-07 -3.42345e-08 -1.41132e-05
0.00203699 0.000273868 -5.15232e-07
0.000273868 0.00010444 1.24913e-07
-5.15232e-07 1.24913e-07 -1.64295e-06
0.00178694 -6.73395e-07 1.05722e-06
-6.73395e-07 6.349e-05 1.76877e-07
1.05722e-06 1.76877e-07 -3.25361e-05
0.00197306 6.34186e-05 3.01448e-06
6.34186e-05 3.89984e-05 4.27879e-07
3.01448e-06 4.27879e-07 -1.43764e-06
0.00197956 0.000199693 3.39865e-06
0.000199693 5.52374e-05 6.44736e-07
3.39865e-06 6.44736e-07 -1.99071e-05
0.00202207 0.000123749 6.58439e-06
0.000123749 3.76105e-05 9.12888e-07
6.58439e-06 9.12888e-07 1.53309e-05
0.00213891 0.000364866 8.63261e-07
0.000364866 0.000194336 -1.08131e-06
8.63261e-07 -1.08131e-06 4.863e-05
0.00204843 0.000288909 3.08557e-06
0.000288909 2.66097e-05 1.091e-06
3.08557e-06 1.091e-06 -3.66794e-05
0.00103175 -2.20686e-05 -1.20882e-05
-2.20686e-05 -7.54876e-05 6.27913e-07
-1.20882e-05 6.27913e-07 -0.000198184
0.00189477 -0.000113839 -2.7635e-05
-0.000113839 0.000452764 3.02662e-06
-2.7635e-05 3.02662e-06 0.000322378
0.00191969 -0.000106002 -2.28332e-06
-0.000106002 0.000152767 -4.14316e-07
-2.28332e-06 -4.14316e-07 4.75624e-05
0.00179342 -0.000235736 -2.70621e-06
-0.000235736 0.000116334 6.67942e-07
-2.70621e-06 6.67942e-07 -3.86413e-05
0.000554202 -0.000210228 -2.55583e-05
-0.000210228 -2.63741e-05 1.94713e-05
-2.55583e-05 1.94713e-05 -0.000140811
0.000854049 -0.000253214 -1.17323e-05
-0.000253214 7.29054e-05 8.02055e-06
-1.17323e-05 8.02055e-06 -0.00015448
0.00143765 -0.000465335 -6.14976e-06
-0.000465335 0.000203445 1.48645e-06
-6.14976e-06 1.48645e-06 -0.000118978
0.00190646 -0.000347966 -5.24914e-06
-0.000347966 0.000236226 1.17387e-06
-5.24914e-06 1.17387e-06 3.18102e-05
0.00200906 -0.000340689 1.58082e-07
-0.000340689 0.00012858 -1.12834e-06
1.58082e-07 -1.12834e-06 -6.59549e-07
0.0019841 -0.000451361 -3.37306e-07
-0.000451361 0.00022207 -1.30037e-06
-3.37306e-07 -1.30037e-06 1.44802e-05
0.00220807 -0.000565634 -2.56966e-06
-0.000565634 0.000465509 -3.67583e-06
-2.56966e-06 -3.67583e-06 0.000168777
0.00193432 -0.000508718 2.73085e-06
-0.000508718 0.000181598 -2.86714e-06
2.73085e-06 -2.86714e-06 -3.5708e-05
0.000864951 -0.000201856 -5.43365e-06
-0.000201856 0.000200432 4.30066e-06
-5.43365e-06 4.30066e-06 -3.46228e-05
0.000275098 -0.000153073 6.66969e-07
-0.000153073 -0.000181256 -2.14138e-06
6.66969e-07 -2.14138e-06 -0.00044357
0.000726812 -0.000160516 -6.64996e-07
-0.000160516 0.000161218 1.24919e-06
-6.64996e-07 1.24919e-06 -4.14873e-05
0.00183155 -4.76785e-05 1.7139e-07
-4.76785e-05 9.91867e-05 1.35612e-08
1.7139e-07 1.35612e-08 -3.00746e-06
0.00189134 -0.000178984 -2.88514e-06
-0.000178984 0.00014693 4.18777e-07
-2.88514e-06 4.18777e-07 2.30181e-05
0.0019925 -0.000125475 2.69145e-06
-0.000125475 6.90887e-05 -4.21778e-07
2.69145e-06 -4.21778e-07 9.51753e-06
0.00194373 -0.000270246 -1.10082e-06
-0.000270246 7.31915e-05 4.97107e-07
-1.10082e-06 4.97107e-07 -3.35199e-05
0.000743507 -0.000239457 7.91655e-07
-0.000239457 7.98677e-05 -3.14157e-07
7.91655e-07 -3.14157e-07 -0.00014879
0.00134062 -0.000434308 -9.36972e-07
-0.000434308 0.000270972 -2.82461e-07
-9.36972e-07 -2.82461e-07 -5.28432e-05
0.00178344 -0.000606228 8.03576e-07
-0.000606228 0.000316938 8.05631e-07
8.03576e-07 8.05631e-07 -5.09364e-05
0.00184787 -0.000396921 -1.36609e-06
-0.000396921 8.94894e-05 1.03247e-06
-1.36609e-06 1.03247e-06 -8.47402e-05
0.00212676 -0.000369947 9.78364e-07
-0.000369947 0.000147067 -4.16228e-07
9.78364e-07 -4.16228e-07 5.10845e-05
0.00210954 -0.000585443 -3.06415e-07
-0.000585443 0.000348979 5.41092e-07
-3.06415e-07 5.41092e-07 6.45782e-05
0.00197358 -0.000478135 -1.81242e-07
-0.000478135 0.000157691 6.36383e-07
-1.81242e-07 6.36383e-07 -2.2814e-05
0.00220898 -0.000533671 7.38326e-07
-0.000533671 0.000358612 -6.29861e-07
7.38326e-07 -6.29861e-07 0.000155804
0.00105864 -0.000290498 -4.06618e-07
-0.000290498 0.000242057 1.01419e-06
-4.06618e-07 1.01419e-06 -1.94326e-05
0.00123006 -0.00033609 -7.16426e-07
-0.00033609 0.000360134 1.91533e-06
-7.16426e-07 1.91533e-06 6.42142e-05
0.000677482 -0.000120946 -3.57225e-07
-0.000120946 0.000143833 -5.87865e-07
-3.57225e-07 -5.87865e-07 -2.81465e-05
0.000108286 -0.00010757 8.92716e-07
-0.00010757 -0.000195567 -2.29517e-06
8.92716e-07 -2.29517e-06 -0.000484336
0.00199744 -6.50305e-05 4.52211e-06
-6.50305e-05 7.24424e-05 -8.11354e-07
4.52211e-06 -8.11354e-07 2.36572e-05
0.00191496 -0.00020455 3.3726e-06
-0.00020455 2.07145e-05 -9.17611e-07
3.3726e-06 -9.17611e-07 -6.36345e-05
0.0019796 -0.000118522 6.76674e-06
-0.000118522 4.68981e-05 -1.28483e-06
6.76674e-06 -1.28483e-06 2.41473e-05
0.00206104 -0.000300133 1.31924e-06
-0.000300133 5.05815e-05 -7.16033e-07
1.31924e-06 -7.16033e-07 -8.39539e-08
0.0019082 -0.000427026 -8.40087e-07
-0.000427026 7.07276e-05 1.28811e-07
-8.40087e-07 1.28811e-07 -7.07918e-05
0.00208961 -0.00038146 4.38667e-06
-0.00038146 8.76576e-05 -1.54405e-06
4.38667e-06 -1.54405e-06 1.27384e-05
0.00131191 -0.000371981 5.58968e-06
-0.000371981 0.000352412 -5.20057e-06
5.58968e-06 -5.20057e-06 5.76973e-05
0.0019774 -0.000506244 -3.19424e-06
-0.000506244 0.000137366 -2.46775e-08
-3.19424e-06 -2.46775e-08 -2.45038e-05
0.00156 -0.000600332 -2.23217e-06
-0.000600332 0.000338629 2.89429e-06
-2.23217e-06 2.89429e-06 -6.13295e-05
0.00201212 -0.000676483 4.8502e-06
-0.000676483 0.000396479 2.91001e-06
4.8502e-06 2.91001e-06 1.89827e-05
0.00206283 -0.000594361 -1.02551e-06
-0.000594361 0.000275013 4.6187e-06
-1.02551e-06 4.6187e-06 -3.15861e-07
0.00229258 -0.00056691 -1.07368e-05
-0.00056691 0.000381959 -1.92381e-06
-1.07368e-05 -1.92381e-06 0.000169498
0.000491781 -0.000106245 -1.19766e-06
-0.000106245 2.64605e-05 -6.90056e-06
-1.19766e-06 -6.90056e-06 -0.000108287
5.38423e-05 -0.000133631 -3.99117e-06
-0.000133631 -0.000157222 -1.16066e-06
-3.99117e-06 -1.16066e-06 -0.000448613
0.00140959 -0.000408173 1.09202e-07
-0.000408173 0.000437375 -3.50182e-06
1.09202e-07 -3.50182e-06 0.000120725
0.00237444 -0.0003973 -3.4984e-06
-0.0003973 0.00116338 9.50975e-06
-3.4984e-06 9.50975e-06 0.000839189
0.00169312 -0.000427547 -1.04114e-05
-0.000427547 0.000647627 6.52071e-06
-1.04114e-05 6.52071e-06 0.000300699
0.00032218 -4.56666e-05 -4.82808e-07
-4.56666e-05 -0.0001007 -9.02535e-06
-4.82808e-07 -9.02535e-06 -0.000146439
0.00186499 0.000360324 -3.04353e-06
0.000360324 0.000165565 -3.271e-07
-3.04353e-06 -3.271e-07 -3.68082e-05
0.000295703 3.03687e-05 -1.1044e-06
3.03687e-05 -0.000115106 -6.12907e-06
-1.1044e-06 -6.12907e-06 -0.00025114
0.000434489 0.000196466 -6.63001e-06
0.000196466 -6.73632e-05 -1.41817e-06
-6.63001e-06 -1.41817e-06 -0.000282202
0.000514239 0.000154233 -4.55942e-07
0.000154233 2.01949e-05 5.03507e-07
-4.55942e-07 5.03507e-07 -0.000236195
0.00173304 0.000443839 -4.42259e-06
0.000443839 0.000216696 -1.74432e-07
-4.42259e-06 -1.74432e-07 -4.8938e-05
0.00200021 0.000471159 1.09412e-06
0.000471159 0.000219315 1.44498e-06
1.09412e-06 1.44498e-06 -2.34219e-06
0.00142647 0.00035875 -2.39118e-06
0.00035875 0.000425799 -3.31392e-06
-2.39118e-06 -3.31392e-06 0.000148213
0.00138638 0.000524058 5.16219e-07
0.000524058 0.000214392 2.57333e-06
5.16219e-07 2.57333e-06 -0.000153831
0.00198105 0.000557122 1.95424e-06
0.000557122 0.000366518 2.93677e-06
1.95424e-06 2.93677e-06 6.9879e-05
0.00193281 0.000567372 3.1777e-06
0.000567372 0.000346674 8.60603e-06
3.1777e-06 8.60603e-06 4.5602e-05
0.00046205 -2.38591e-05 -9.29261e-07
-2.38591e-05 -3.04628e-05 2.85128e-07
-9.29261e-07 2.85128e-07 -6.42092e-05
0.000600351 3.87432e-05 2.91885e-07
3.87432e-05 7.28484e-05 3.22933e-07
2.91885e-07 3.22933e-07 -3.48151e-05
0.00096749 0.000268198 7.14663e-07
0.000268198 0.000197133 1.57708e-06
7.14663e-07 1.57708e-06 -4.29745e-05
0.000705066 0.000110383 1.30816e-07
0.000110383 0.000202807 -9.12126e-07
1.30816e-07 -9.12126e-07 -4.64894e-05
0.000723266 0.000267312 -1.46673e-06
0.000267312 6.88305e-05 2.0532e-06
-1.46673e-06 2.0532e-06 -0.000162673
0.00208891 0.000427036 -1.6016e-06
0.000427036 0.00020164 -1.75116e-06
-1.6016e-06 -1.75116e-06 1.81976e-05
0.00199244 0.000531376 5.75023e-07
0.000531376 0.000280308 1.68332e-07
5.75023e-07 1.68332e-07 1.61487e-05
0.00199674 0.000516144 1.68979e-06
0.000516144 0.000194123 1.55511e-07
1.68979e-06 1.55511e-07 -2.19899e-05
0.00136746 0.000468181 2.39918e-06
0.000468181 0.000354005 5.1595e-07
2.39918e-06 5.1595e-07 4.73052e-07
0.0021546 0.000627787 2.23332e-06
0.000627787 0.000395118 3.44349e-07
2.23332e-06 3.44349e-07 9.54284e-05
0.00194231 0.000621735 -3.25452e-06
0.000621735 0.000501993 -3.68258e-08
-3.25452e-06 -3.68258e-08 0.000134319
0.000644429 3.79887e-05 7.3421e-07
3.79887e-05 9.98046e-05 5.14131e-06
7.3421e-07 5.14131e-06 9.84882e-06
0.00144534 0.000176528 3.34679e-07
0.000176528 0.000658023 2.73257e-06
3.34679e-07 2.73257e-06 0.000462171
0.000964523 0.000342249 -2.56739e-06
0.000342249 0.000155137 4.84883e-06
-2.56739e-06 4.84883e-06 -0.000118018
0.00129353 0.000192663 2.55423e-06
0.000192663 0.000549243 -4.01657e-06
2.55423e-06 -4.01657e-06 0.000269644
0.00205823 0.000317417 -4.79091e-06
0.000317417 0.000809203 3.67238e-07
-4.79091e-06 3.67238e-07 0.000587522
0.00206773 0.000448218 -4.03907e-06
0.000448218 0.000167486 -2.19031e-06
-4.03907e-06 -2.19031e-06 -1.98629e-06
0.00204887 0.000584361 -1.22316e-06
0.000584361 0.000278116 -4.09523e-07
-1.22316e-06 -4.09523e-07 1.51768e-05
0.00190241 0.000560312 6.0052e-06
0.000560312 9.48747e-05 1.51446e-07
6.0052e-06 1.51446e-07 -0.000128108
0.00125977 0.000538797 8.91747e-06
0.000538797 0.000301649 -2.44886e-06
8.91747e-06 -2.44886e-06 -9.73615e-05
0.00159387 0.000614781 1.10807e-05
0.000614781 0.000179499 -9.24521e-07
1.10807e-05 -9.24521e-07 -0.000154723
0.000571793 3.47135e-05 -3.63899e-07
3.47135e-05 5.13963e-05 2.14807e-07
-3.63899e-07 2.14807e-07 -2.56603e-05
0.000344059 5.70652e-05 4.05145e-07
5.70652e-05 -6.77082e-05 2.63207e-06
4.05145e-07 2.63207e-06 -0.000184602
0.000366843 5.58645e-05 -5.95921e-07
5.58645e-05 -5.08247e-05 -2.52116e-07
-5.95921e-07 -2.52116e-07 -0.000161513
0.00102669 0.00015437 -1.51378e-06
0.00015437 0.000381464 -1.12153e-06
-1.51378e-06 -1.12153e-06 0.000238769
0.00069075 0.000114407 1.73804e-06
0.000114407 0.000171903 2.65214e-06
1.73804e-06 2.65214e-06 5.0434e-05
0.000544413 6.2802e-05 2.57577e-06
6.2802e-05 5.0754e-05 3.67571e-06
2.57577e-06 3.67571e-06 -1.89606e-05
0.000530103 1.46392e-05 -6.70606e-07
1.46392e-05 3.61526e-05 -5.13805e-08
-6.70606e-07 -5.13805e-08 -3.41429e-05
0.00128213 -2.21572e-05 1.26793e-06
-2.21572e-05 0.000474449 3.59102e-06
1.26793e-06 3.59102e-06 0.000455745
0.000550677 2.42245e-05 -1.63541e-06
2.42245e-05 3.85551e-05 -4.3604e-06
-1.63541e-06 -4.3604e-06 -3.13836e-05
0.00134243 -3.18853e-05 -8.05535e-06
-3.18853e-05 0.000512781 -1.57121e-06
-8.05535e-06 -1.57121e-06 0.000492417
0.000799161 -3.65372e-05 3.266e-05
-3.65372e-05 0.000171434 9.04383e-06
3.266e-05 9.04383e-06 0.000174154
0.00137063 -3.93506e-05 -1.434e-05
-3.93506e-05 0.000534809 -5.36519e-06
-1.434e-05 -5.36519e-06 0.000511506
0.00171262 -7.54767e-05 3.18319e-05
-7.54767e-05 0.000757534 1.52011e-06
3.18319e-05 1.52011e-06 0.000758471
0.00268567 -0.000119148 -3.81762e-05
-0.000119148 0.0013809 -4.22869e-06
-3.81762e-05 -4.22869e-06 0.00138052
0.000304823 8.10554e-05 -6.72068e-06
8.10554e-05 -8.2411e-05 -9.63703e-06
-6.72068e-06 -9.63703e-06 -0.000140341
0.000442184 -3.81578e-05 -3.23542e-07
-3.81578e-05 -2.06388e-05 7.18987e-07
-3.23542e-07 7.18987e-07 -8.35731e-05
0.00354332 0.000184228 1.32449e-05
0.000184228 0.00194884 -7.12078e-06
1.32449e-05 -7.12078e-06 0.00192653
0.00456484 0.000131963 -1.5435e-05
0.000131963 0.0025917 -1.40681e-06
-1.5435e-05 -1.40681e-06 0.00258145
0.00060741 -0.00010092 -1.59006e-05
-0.00010092 5.83828e-05 1.35979e-05
-1.59006e-05 1.35979e-05 -2.00673e-05
0.00541792 0.000132538 -0.000181025
0.000132538 0.00313145 2.09698e-05
-0.000181025 2.09698e-05 0.00311693
0.00189306 0.000305618 -2.10357e-06
0.000305618 0.000142727 9.28628e-07
-2.10357e-06 9.28628e-07 -2.90419e-05
0.00183879 0.000170703 -9.40923e-07
0.000170703 8.53577e-05 8.35087e-07
-9.40923e-07 8.35087e-07 -3.68574e-05
0.00202269 0.000273808 -2.34941e-06
0.000273808 9.72451e-05 9.65454e-07
-2.34941e-06 9.65454e-07 -9.19087e-06
0.0019837 0.000131016 -3.40337e-06
0.000131016 3.56341e-05 -4.0971e-07
-3.40337e-06 -4.0971e-07 -1.41687e-05
0.00181631 5.33968e-05 -8.74034e-07
5.33968e-05 7.96818e-05 5.00324e-07
-8.74034e-07 5.00324e-07 -1.80854e-05
0.00103904 5.02014e-06 -1.12512e-05
5.02014e-06 -6.64856e-05 1.1027e-08
-1.12512e-05 1.1027e-08 -0.000193165
0.00179873 2.76561e-06 7.5346e-08
2.76561e-06 7.21427e-05 1.86614e-07
7.5346e-08 1.86614e-07 -2.39402e-05
0.00196688 5.46803e-05 -6.51515e-07
5.46803e-05 3.69623e-05 4.49978e-10
-6.51515e-07 4.49978e-10 -3.60992e-06
0.00200135 0.000200166 -3.85701e-07
0.000200166 6.74797e-05 3.71638e-07
-3.85701e-07 3.71638e-07 -7.83649e-06
0.00198879 0.000121768 3.21107e-07
0.000121768 1.04379e-05 -6.96954e-08
3.21107e-07 -6.96954e-08 -6.4728e-06
0.00210246 0.000365096 -4.27535e-07
0.000365096 0.00016464 -5.97738e-08
-4.27535e-07 -5.97738e-08 1.87151e-05
0.00203538 0.000282529 1.42327e-07
0.000282529 2.02416e-05 2.56033e-07
1.42327e-07 2.56033e-07 -4.19125e-05
0.0019621 -5.20603e-06 3.88352e-06
-5.20603e-06 4.09866e-05 -1.47787e-07
3.88352e-06 -1.47787e-07 -1.59109e-06
0.00198906 5.26495e-05 5.74787e-06
5.26495e-05 3.00983e-05 1.53303e-07
5.74787e-06 1.53303e-07 1.89712e-05
0.00204492 0.000197642 3.20353e-06
0.000197642 2.2487e-05 6.68076e-07
3.20353e-06 6.68076e-07 -4.86889e-06
0.00207722 0.000124117 2.96394e-06
0.000124117 1.31835e-05 3.07094e-07
2.96394e-06 3.07094e-07 1.92717e-05
0.00199691 0.000356463 1.29258e-06
0.000356463 5.65571e-05 -7.13888e-10
1.29258e-06 -7.13888e-10 -6.15145e-05
0.00222549 0.000290179 3.44391e-06
0.000290179 7.57665e-05 1.11987e-06
3.44391e-06 1.11987e-06 4.86651e-05
0.00184901 -4.46933e-05 -1.66655e-06
-4.46933e-05 0.000108735 -3.69538e-07
-1.66655e-06 -3.69538e-07 9.79042e-06
0.00187636 -0.000184247 -3.41652e-06
-0.000184247 0.000135756 -6.0886e-09
-3.41652e-06 -6.0886e-09 1.08493e-05
0.00197918 -0.000123474 -6.76136e-07
-0.000123474 5.49452e-05 3.76277e-07
-6.76136e-07 3.76277e-07 1.47301e-06
0.0019233 -0.000263071 -2.45549e-06
-0.000263071 6.35949e-05 4.51592e-07
-2.45549e-06 4.51592e-07 -4.53775e-05
0.000765754 -0.000238589 -9.27503e-06
-0.000238589 9.03337e-05 7.98291e-06
-9.27503e-06 7.98291e-06 -0.000139646
0.00131458 -0.000432157 -8.00838e-06
-0.000432157 0.000249339 2.07224e-06
-8.00838e-06 2.07224e-06 -7.30402e-05
0.00160276 -0.000583993 1.53742e-06
-0.000583993 0.000224 -1.7928e-06
1.53742e-06 -1.7928e-06 -0.00014284
0.00185308 -0.000394522 -1.29136e-06
-0.000394522 9.88726e-05 4.25167e-08
-1.29136e-06 4.25167e-08 -8.07341e-05
0.00204745 -0.000368862 -1.15789e-06
-0.000368862 8.89243e-05 5.31359e-07
-1.15789e-06 5.31359e-07 -2.68947e-06
0.00199913 -0.000478998 2.39421e-07
-0.000478998 0.000173118 -2.63834e-07
2.39421e-07 -2.63834e-07 -7.75759e-06
0.00198126 -0.000585719 -2.20446e-06
-0.000585719 0.000258319 -3.77841e-06
-2.20446e-06 -3.77841e-06 -2.90996e-05
0.0020863 -0.000520647 8.82037e-06
-0.000520647 0.000279596 -4.4038e-06
8.82037e-06 -4.4038e-06 8.16596e-05
0.000836481 -0.000267418 -9.2669e-07
-0.000267418 0.000114049 2.37577e-06
-9.2669e-07 2.37577e-06 -0.000150681
0.000627626 -0.00025359 2.1652e-06
-0.00025359 -4.23681e-05 -5.36661e-07
2.1652e-06 -5.36661e-07 -0.000318549
0.000966738 -0.000130753 -6.84801e-07
-0.000130753 0.00031994 5.46218e-06
-6.84801e-07 5.46218e-06 0.000143969
-7.52632e-05 -7.00746e-05 2.13601e-06
-7.00746e-05 -0.000330077 -6.07689e-06
2.13601e-06 -6.07689e-06 -0.000595283
0.00199734 -6.48453e-05 -2.34674e-07
-6.48453e-05 7.354e-05 1.10002e-07
-2.34674e-07 1.10002e-07 2.46696e-05
0.0019568 -0.000205123 3.00506e-06
-0.000205123 5.46065e-05 -9.00289e-07
3.00506e-06 -9.00289e-07 -3.03684e-05
0.00195482 -0.000117205 9.22969e-07
-0.000117205 2.58842e-05 -1.6922e-07
9.22969e-07 -1.6922e-07 4.60127e-06
0.0020638 -0.000299011 -9.74137e-07
-0.000299011 5.90613e-05 2.52055e-07
-9.74137e-07 2.52055e-07 3.83376e-06
0.00114669 -0.000344072 -2.63706e-06
-0.000344072 0.000235514 5.69467e-08
-2.63706e-06 5.69467e-08 -5.0116e-05
0.00147497 -0.000578891 1.96009e-06
-0.000578891 0.000299686 -4.97226e-07
1.96009e-06 -4.97226e-07 -9.38939e-05
0.00191675 -0.00067855 -2.94905e-07
-0.00067855 0.000334931 3.7796e-07
-2.94905e-07 3.7796e-07 -4.79315e-05
0.00192879 -0.000424154 -1.24062e-06
-0.000424154 9.10758e-05 6.15362e-07
-1.24062e-06 6.15362e-07 -5.42295e-05
0.00205465 -0.000381711 1.19452e-06
-0.000381711 6.65521e-05 -1.6979e-07
1.19452e-06 -1.6979e-07 -4.48325e-06
0.00203226 -0.000595039 -2.65178e-07
-0.000595039 0.000281098 3.79013e-07
-2.65178e-07 3.79013e-07 3.93427e-06
0.00193081 -0.000504818 -9.30027e-07
-0.000504818 0.000102755 9.70233e-07
-9.30027e-07 9.70233e-07 -6.01637e-05
0.00216899 -0.000551877 3.5279e-06
-0.000551877 0.000300679 -4.83652e-06
3.5279e-06 -4.83652e-06 9.56054e-05
0.00129307 -0.000394007 -1.05418e-06
-0.000394007 0.000364678 -3.05406e-07
-1.05418e-06 -3.05406e-07 5.20319e-05
0.00160115 -0.000413655 -9.59662e-07
-0.000413655 0.000569804 1.65392e-06
-9.59662e-07 1.65392e-06 0.000231038
0.00110054 -0.000281029 8.65999e-07
-0.000281029 0.000358929 -2.5041e-07
8.65999e-07 -2.5041e-07 5.30201e-05
0.00029275 -7.7249e-05 -2.22805e-06
-7.7249e-05 -9.95657e-05 9.60034e-07
-2.22805e-06 9.60034e-07 -0.000234685
-1.75164e-06 -8.05584e-05 -7.994e-07
-8.05584e-05 -0.000211569 -9.69873e-07
-7.994e-07 -9.69873e-07 -0.000482323
0.00192529 -6.37935e-05 4.98118e-06
-6.37935e-05 -9.37352e-06 -4.29401e-07
4.98118e-06 -4.29401e-07 -1.81226e-05
0.00199189 -0.000181232 3.93314e-06
-0.000181232 7.24036e-06 -1.09139e-06
3.93314e-06 -1.09139e-06 -1.35982e-05
0.0021122 -0.00035019 8.27224e-07
-0.00035019 1.78325e-05 -4.98863e-07
8.27224e-07 -4.98863e-07 -1.12742e-05
0.0020684 -0.000444932 2.17344e-06
-0.000444932 9.95385e-05 -1.90882e-06
2.17344e-06 -1.90882e-06 6.91078e-06
0.00146615 -0.000488461 6.07928e-07
-0.000488461 0.000423467 -1.54228e-06
6.07928e-07 -1.54228e-06 5.85426e-05
0.0022311 -0.000608806 -4.91296e-06
-0.000608806 0.000197728 -5.20327e-06
-4.91296e-06 -5.20327e-06 1.25587e-05
0.0012108 -0.000636541 -1.47339e-05
-0.000636541 0.000123661 6.21425e-06
-1.47339e-05 6.21425e-06 -0.00030102
0.00204129 -0.000742098 2.24497e-06
-0.000742098 0.000371366 5.97662e-07
2.24497e-06 5.97662e-07 -2.48019e-05
0.00183425 -0.000558919 -1.47506e-05
-0.000558919 0.000155445 8.33101e-07
-1.47506e-05 8.33101e-07 -0.000104966
2.8089e-05 -8.63471e-06 -2.96006e-06
-8.63471e-06 -0.000251117 -6.32128e-06
-2.96006e-06 -6.32128e-06 -0.000357453
0.000814832 -0.000150761 -2.31524e-06
-0.000150761 0.000307267 -8.59814e-07
-2.31524e-06 -8.59814e-07 7.15779e-05
0.000983625 -0.000210569 -1.87854e-06
-0.000210569 0.000389776 -3.99968e-06
-1.87854e-06 -3.99968e-06 0.000100365
0.00164671 -0.000483197 -9.46828e-06
-0.000483197 0.000573135 2.74538e-06
-9.46828e-06 2.74538e-06 0.000206506
0.00182654 -0.00033772 -2.85402e-06
-0.00033772 0.000754903 1.14492e-05
-2.85402e-06 1.14492e-05 0.000432532
0.000906871 -0.00038543 -1.07952e-05
-0.00038543 0.00010589 1.5816e-05
-1.07952e-05 1.5816e-05 -0.000243142
0.000407409 -2.181e-05 -2.22408e-06
-2.181e-05 -6.4388e-05 -7.30526e-06
-2.22408e-06 -7.30526e-06 -9.74532e-05
0.000541303 2.81234e-05 -5.46894e-07
2.81234e-05 4.12189e-05 -6.47341e-06
-5.46894e-07 -6.47341e-06 -6.52031e-05
0.00206004 0.000425633 -2.07355e-06
0.000425633 0.000183967 -5.41295e-07
-2.07355e-06 -5.41295e-07 6.85191e-07
-0.000181162 1.81979e-05 3.96395e-07
1.81979e-05 -0.000349017 -2.10334e-06
3.96395e-07 -2.10334e-06 -0.000591178
0.00105673 0.000275533 -1.7391e-06
0.000275533 0.000251625 -2.21681e-07
-1.7391e-06 -2.21681e-07 1.78838e-05
0.000598457 0.000217377 -9.82288e-07
0.000217377 -4.41582e-05 1.82125e-06
-9.82288e-07 1.82125e-06 -0.000249653
0.00195359 0.00052742 1.66389e-06
0.00052742 0.000259282 1.36546e-06
1.66389e-06 1.36546e-06 -4.10147e-06
0.00194531 0.000512974 2.20502e-06
0.000512974 0.000164524 6.04181e-07
2.20502e-06 6.04181e-07 -5.14386e-05
0.00169632 0.000498893 -8.16566e-07
0.000498893 0.000572494 -9.63853e-07
-8.16566e-07 -9.63853e-07 0.000209468
0.0021997 0.000640523 -4.07794e-06
0.000640523 0.000668175 2.45581e-06
-4.07794e-06 2.45581e-06 0.000301989
0.00202469 0.000613564 7.49065e-07
0.000613564 0.000301858 2.02121e-06
7.49065e-07 2.02121e-06 3.00653e-06
0.000582769 3.50088e-05 -4.61374e-07
3.50088e-05 6.44111e-05 5.8504e-07
-4.61374e-07 5.8504e-07 -2.57702e-05
0.00074901 8.73689e-05 -1.028e-06
8.73689e-05 0.000213579 2.58266e-07
-1.028e-06 2.58266e-07 3.50517e-05
0.00125409 0.000372798 5.2777e-07
0.000372798 0.000332994 1.06459e-06
5.2777e-07 1.06459e-06 5.48672e-05
0.00101925 0.000158396 2.1177e-06
0.000158396 0.000366859 -6.30233e-07
2.1177e-06 -6.30233e-07 9.55214e-05
0.000538541 0.000205412 2.58514e-06
0.000205412 -0.000136914 -5.22797e-08
2.58514e-06 -5.22797e-08 -0.000337228
0.00202161 0.000448169 -2.37309e-06
0.000448169 0.00014192 -1.57566e-06
-2.37309e-06 -1.57566e-06 -2.82745e-05
0.00206642 0.000585566 1.91695e-06
0.000585566 0.000286892 6.11496e-07
1.91695e-06 6.11496e-07 2.36484e-05
0.00196963 0.000561137 9.79869e-07
0.000561137 0.000133669 1.62637e-07
9.79869e-07 1.62637e-07 -8.83082e-05
0.00135696 0.000560331 2.23584e-06
0.000560331 0.000342832 1.10947e-06
2.23584e-06 1.10947e-06 -5.7327e-05
0.00175752 0.000635467 -2.19739e-06
0.000635467 0.000292523 -1.98535e-06
-2.19739e-06 -1.98535e-06 -4.92961e-05
0.00103425 0.000119365 1.24562e-06
0.000119365 0.00038182 3.02106e-06
1.24562e-06 3.02106e-06 0.000238593
-0.000218599 -9.14344e-06 -2.62072e-06
-9.14344e-06 -0.000329635 9.54577e-07
-2.62072e-06 9.54577e-07 -0.000572637
0.00149521 0.000451415 -2.0651e-06
0.000451415 0.000471941 -1.86517e-06
-2.0651e-06 -1.86517e-06 0.000143535
-0.000660559 0.000108625 4.79971e-06
0.000108625 -0.000767996 -1.4925e-06
4.79971e-06 -1.4925e-06 -0.000992585
0.00252477 0.00047448 -3.06837e-06
0.00047448 0.00102922 -2.56302e-06
-3.06837e-06 -2.56302e-06 0.000766158
0.00197486 0.000482973 1.20824e-06
0.000482973 2.89127e-05 -1.74563e-07
1.20824e-06 -1.74563e-07 -0.000117241
0.00212943 0.000646382 9.01186e-06
0.000646382 0.000293011 -1.55336e-06
9.01186e-06 -1.55336e-06 3.24514e-06
0.0019953 0.000593331 9.82082e-06
0.000593331 0.000120443 1.94243e-06
9.82082e-06 1.94243e-06 -0.000118601
0.00132624 0.000581432 9.91126e-06
0.000581432 0.000273206 1.43064e-06
9.91126e-06 1.43064e-06 -0.000125698
0.00201449 0.000723819 2.75127e-06
0.000723819 0.000454558 8.18669e-08
2.75127e-06 8.18669e-08 8.05056e-05
0.000524212 2.68049e-05 -1.86196e-06
2.68049e-05 1.98372e-05 -4.53377e-06
-1.86196e-06 -4.53377e-06 -5.57797e-05
0.000531564 7.18793e-05 1.32798e-06
7.18793e-05 5.38213e-05 4.13613e-07
1.32798e-06 4.13613e-07 -6.61706e-05
0.000287223 5.77253e-05 -4.41183e-07
5.77253e-05 -0.000106394 1.29436e-06
-4.41183e-07 1.29436e-06 -0.00021893
0.000130673 -2.04181e-05 -1.2713e-07
-2.04181e-05 -0.000191812 -3.0961e-06
-1.2713e-07 -3.0961e-06 -0.000303646
0.000594998 6.37083e-05 -3.20436e-07
6.37083e-05 0.000111257 4.84546e-08
-3.20436e-07 4.84546e-08 -7.23798e-06
0.000563541 9.32549e-05 -6.93242e-07
9.32549e-05 7.97244e-05 -6.22918e-08
-6.93242e-07 -6.22918e-08 -4.43225e-05
0.000753908 0.000136581 -3.39277e-06
0.000136581 0.000215743 -4.38097e-06
-3.39277e-06 -4.38097e-06 8.89004e-05
0.00026034 1.67261e-05 -7.62832e-07
1.67261e-05 -9.31977e-05 -2.94527e-07
-7.62832e-07 -2.94527e-07 -0.000227903
0.000683251 9.81426e-05 6.71306e-07
9.81426e-05 0.000158344 2.70991e-06
6.71306e-07 2.70991e-06 4.92455e-05
0.00056566 7.06683e-05 3.34628e-06
7.06683e-05 6.71277e-05 3.54205e-06
3.34628e-06 3.54205e-06 -4.46053e-06
0.000524944 2.27119e-05 -2.46976e-06
2.27119e-05 3.68267e-05 1.81845e-08
-2.46976e-06 1.81845e-08 -3.15875e-05
0.00124667 -6.59258e-06 1.72212e-06
-6.59258e-06 0.000454921 3.19622e-06
1.72212e-06 3.19622e-06 0.000437974
0.00042736 -6.45025e-05 2.32667e-06
-6.45025e-05 -2.04011e-05 -4.00406e-06
2.32667e-06 -4.00406e-06 -9.46097e-05
0.00131192 -1.70057e-05 -6.98413e-06
-1.70057e-05 0.000492758 -1.64411e-06
-6.98413e-06 -1.64411e-06 0.000475107
0.000750583 -2.64274e-05 2.83887e-05
-2.64274e-05 0.000138588 9.20795e-06
2.83887e-05 9.20795e-06 0.000143479
0.00136866 -2.84677e-05 -1.27064e-05
-2.84677e-05 0.000528733 -7.11257e-06
-1.27064e-05 -7.11257e-06 0.000509121
0.000763588 -4.07789e-05 1.1351e-05
-4.07789e-05 0.000148841 3.40785e-06
1.1351e-05 3.40785e-06 0.00014955
0.00254068 -0.000112767 -1.90093e-06
-0.000112767 0.00128129 -2.81233e-06
-1.90093e-06 -2.81233e-06 0.00128186
0.000312934 6.16478e-05 -4.27786e-06
6.16478e-05 -9.54083e-05 -6.14744e-06
-4.27786e-06 -6.14744e-06 -0.000133936
0.000422434 1.39744e-05 -3.43706e-06
1.39744e-05 -2.90545e-05 1.50086e-07
-3.43706e-06 1.50086e-07 -7.7489e-05
0.00298303 0.000151354 5.49218e-06
0.000151354 0.00158848 -6.22782e-06
5.49218e-06 -6.22782e-06 0.00157648
0.000548103 -6.9629e-05 -1.05247e-05
-6.9629e-05 3.69307e-05 1.17983e-05
-1.05247e-05 1.17983e-05 -2.51911e-05
0.00385165 0.00013969 -3.42271e-05
0.00013969 0.00213464 -2.52601e-07
-3.42271e-05 -2.52601e-07 0.00212404
0.00477743 0.00010585 -0.000161453
0.00010585 0.00271842 1.68635e-05
-0.000161453 1.68635e-05 0.0027136
0.0020662 0.000365212 -2.2061e-06
0.000365212 0.000135447 1.00804e-06
-2.2061e-06 1.00804e-06 -1.06913e-05
0.0020246 0.000199412 -2.74892e-06
0.000199412 8.2019e-05 3.10508e-07
-2.74892e-06 3.10508e-07 6.81076e-06
0.00201968 0.000275449 -1.6294e-06
0.000275449 1.27306e-05 1.96218e-07
-1.6294e-06 1.96218e-07 -4.83197e-05
0.00195482 0.000119971 -3.31265e-06
0.000119971 -1.70786e-05 -4.81874e-07
-3.31265e-06 -4.81874e-07 -2.85284e-05
0.00195897 4.7544e-05 -4.70836e-06
4.7544e-05 3.38834e-05 -1.56475e-07
-4.70836e-06 -1.56475e-07 -7.00828e-06
0.00181028 5.52775e-06 -9.84392e-07
5.52775e-06 7.93316e-05 1.98564e-07
-9.84392e-07 1.98564e-07 -1.67616e-05
0.00197375 -5.82693e-06 -2.62442e-07
-5.82693e-06 5.24523e-05 -2.34014e-08
-2.62442e-07 -2.34014e-08 8.76045e-06
0.00199513 5.31632e-05 1.27329e-06
5.31632e-05 3.79012e-05 4.34263e-08
1.27329e-06 4.34263e-08 2.30164e-05
0.00204948 0.00019505 -1.96005e-08
0.00019505 2.89555e-05 5.40534e-08
-1.96005e-08 5.40534e-08 2.54328e-06
0.00204892 0.000125321 6.48605e-07
0.000125321 -9.75477e-06 1.60967e-07
6.48605e-07 1.60967e-07 1.77919e-06
0.00202069 0.000356936 -5.63359e-07
0.000356936 8.15286e-05 1.32686e-07
-5.63359e-07 1.32686e-07 -3.80163e-05
0.00214733 0.000290405 2.95202e-06
0.000290405 2.41178e-05 3.75362e-07
2.95202e-06 3.75362e-07 3.93017e-06
0.00194652 -1.14782e-05 5.0656e-06
-1.14782e-05 1.32239e-05 9.99036e-08
5.0656e-06 9.99036e-08 -3.52145e-06
0.00205057 5.97382e-05 1.17348e-06
5.97382e-05 -1.24651e-05 -2.61382e-07
1.17348e-06 -2.61382e-07 7.38494e-06
0.00211917 0.000193175 7.93329e-07
0.000193175 -7.85449e-06 1.85369e-07
7.93329e-07 1.85369e-07 1.93098e-06
0.00213596 0.000389475 9.97696e-09
0.000389475 2.63223e-05 8.62545e-07
9.97696e-09 8.62545e-07 -2.22001e-05
0.0019969 -6.46009e-05 -4.8416e-06
-6.46009e-05 7.39117e-05 9.68688e-07
-4.8416e-06 9.68688e-07 2.4939e-05
0.0019892 -0.000206222 1.38436e-07
-0.000206222 8.22574e-05 -6.16142e-07
1.38436e-07 -6.16142e-07 -3.55819e-06
0.00192971 -0.000115938 -5.01238e-06
-0.000115938 5.16889e-06 1.32707e-06
-5.01238e-06 1.32707e-06 -1.49884e-05
0.00207128 -0.000298259 -5.22446e-06
-0.000298259 6.88641e-05 1.23991e-06
-5.22446e-06 1.23991e-06 9.20042e-06
0.000958484 -0.000330935 -6.41546e-06
-0.000330935 0.000109838 3.02211e-06
-6.41546e-06 3.02211e-06 -0.000174949
0.00148021 -0.000568589 6.89992e-06
-0.000568589 0.000310856 -3.01562e-06
6.89992e-06 -3.01562e-06 -7.84166e-05
0.00194699 -0.00069369 -2.95081e-06
-0.00069369 0.000349406 -2.3809e-06
-2.95081e-06 -2.3809e-06 -4.17877e-05
0.00195818 -0.000422265 -2.75298e-06
-0.000422265 0.000116521 8.30511e-07
-2.75298e-06 8.30511e-07 -3.27421e-05
0.00201564 -0.000382376 -1.09308e-06
-0.000382376 4.32459e-05 1.05362e-06
-1.09308e-06 1.05362e-06 -2.38624e-05
0.00191035 -0.000506405 1.09773e-06
-0.000506405 8.05031e-05 1.78957e-06
1.09773e-06 1.78957e-06 -8.3808e-05
0.0019754 -0.000582955 6.32787e-07
-0.000582955 0.000265875 -3.15675e-06
6.32787e-07 -3.15675e-06 -8.60594e-06
0.00209573 -0.000538096 1.52815e-05
-0.000538096 0.000238665 -6.04403e-06
1.52815e-05 -6.04403e-06 4.12118e-05
0.000922017 -0.000352682 -9.20483e-07
-0.000352682 0.00013131 1.45827e-06
-9.20483e-07 1.45827e-06 -0.000171658
0.00129071 -0.000387602 9.77113e-06
-0.000387602 0.000346276 -4.26291e-06
9.77113e-06 -4.26291e-06 1.79094e-05
-1.88795e-05 -0.000161578 2.38224e-06
-0.000161578 -0.000325841 -1.01528e-05
2.38224e-06 -1.01528e-05 -0.000624613
0.000102411 -6.12604e-05 3.83794e-07
-6.12604e-05 -0.00021828 5.69549e-06
3.83794e-07 5.69549e-06 -0.000355223
0.000199255 -3.61765e-05 4.16604e-06
-3.61765e-05 -9.86107e-05 3.4948e-07
4.16604e-06 3.4948e-07 -0.000357528
0.00191408 -7.1885e-05 -4.57915e-09
-7.1885e-05 -1.95115e-05 -1.84759e-07
-4.57915e-09 -1.84759e-07 -2.93691e-05
0.00203251 -0.000182842 1.24029e-06
-0.000182842 2.97093e-05 -7.40949e-08
1.24029e-06 -7.40949e-08 8.26053e-06
0.00210496 -0.00034415 -6.50296e-07
-0.00034415 2.88983e-05 9.91814e-08
-6.50296e-07 9.91814e-08 -4.16086e-06
0.00140589 -0.000485048 -1.55335e-06
-0.000485048 0.000382308 -7.95579e-07
-1.55335e-06 -7.95579e-07 1.83978e-05
0.00149351 -0.000652757 3.16887e-06
-0.000652757 0.00028995 -8.98722e-07
3.16887e-06 -8.98722e-07 -0.000135008
0.0020775 -0.000750555 -3.33498e-08
-0.000750555 0.000400703 -1.6882e-07
-3.33498e-08 -1.6882e-07 -1.57769e-06
0.00204731 -0.000441652 2.03651e-07
-0.000441652 8.85641e-05 2.22805e-07
2.03651e-07 2.22805e-07 -6.25163e-06
0.00208232 -0.000600843 1.30586e-06
-0.000600843 0.000276567 -3.5394e-06
1.30586e-06 -3.5394e-06 1.2375e-05
0.00213769 -0.00058861 -1.62516e-06
-0.00058861 0.000173542 -3.21749e-07
-1.62516e-06 -3.21749e-07 -6.85411e-06
8.30268e-05 4.41762e-05 -1.94326e-06
4.41762e-05 -0.000228053 -8.83061e-07
-1.94326e-06 -8.83061e-07 -0.00032529
0.00130533 -0.000445027 -2.82139e-07
-0.000445027 0.000349567 -1.89302e-06
-2.82139e-07 -1.89302e-06 -5.38344e-06
0.00141869 -0.000447433 -1.68646e-06
-0.000447433 0.000437365 9.77596e-07
-1.68646e-06 9.77596e-07 7.11453e-05
0.00141081 -0.000338254 -1.06817e-06
-0.000338254 0.000525917 2.36957e-06
-1.06817e-06 2.36957e-06 0.000183887
0.00125786 -0.00021994 1.66278e-06
-0.00021994 0.000556281 -2.9727e-06
1.66278e-06 -2.9727e-06 0.000267814
0.000416691 -7.10381e-05 -8.58674e-07
-7.10381e-05 4.83267e-05 1.32198e-06
-8.58674e-07 1.32198e-06 -0.000176409
0.00203289 -9.33894e-05 2.02872e-06
-9.33894e-05 -6.4433e-06 -1.28447e-07
2.02872e-06 -1.28447e-07 6.24372e-06
0.00217762 -0.000239985 3.17463e-07
-0.000239985 -7.64304e-06 -1.2385e-07
3.17463e-07 -1.2385e-07 1.65483e-05
0.00217586 -0.000422101 1.02679e-06
-0.000422101 2.67941e-05 -4.3321e-07
1.02679e-06 -4.3321e-07 1.39464e-05
0.00222325 -0.000527057 2.21054e-06
-0.000527057 9.68238e-05 -2.53764e-06
2.21054e-06 -2.53764e-06 2.0256e-05
0.00160328 -0.000586877 -9.53823e-06
-0.000586877 0.000461869 4.7121e-06
-9.53823e-06 4.7121e-06 5.50132e-05
0.00215311 -0.00067138 -3.40826e-06
-0.00067138 0.000227412 -5.4702e-06
-3.40826e-06 -5.4702e-06 -1.30879e-05
0.0019053 -0.000773654 -3.0365e-05
-0.000773654 0.000502561 4.99723e-06
-3.0365e-05 4.99723e-06 3.33573e-05
0.00237877 -0.000818382 -1.85864e-05
-0.000818382 0.000592717 -7.06186e-07
-1.85864e-05 -7.06186e-07 0.000168469
1.80341e-06 5.49438e-05 -5.85812e-06
5.49438e-05 -0.000284065 -3.10112e-06
-5.85812e-06 -3.10112e-06 -0.000358168
0.000799075 -1.03221e-06 -2.50459e-06
-1.03221e-06 0.000273333 -1.32388e-06
-2.50459e-06 -1.32388e-06 0.000106604
0.00170266 -0.000246223 -5.24587e-06
-0.000246223 0.000869366 2.85506e-08
-5.24587e-06 2.85506e-08 0.000599725
0.000724009 -0.000120684 -5.16003e-07
-0.000120684 0.000170944 -4.21729e-06
-5.16003e-07 -4.21729e-06 -0.000132458
0.00230407 -0.000604547 -1.48085e-05
-0.000604547 0.000940275 1.13945e-05
-1.48085e-05 1.13945e-05 0.000530539
0.00159148 -0.000454185 -4.35712e-06
-0.000454185 0.000591392 2.32861e-05
-4.35712e-06 2.32861e-05 0.000171649
0.000517582 2.45482e-05 -1.38323e-06
2.45482e-05 2.50055e-05 -5.02168e-06
-1.38323e-06 -5.02168e-06 -6.40016e-05
-6.33779e-05 2.26635e-05 1.45732e-06
2.26635e-05 -0.000304987 -1.55853e-06
1.45732e-06 -1.55853e-06 -0.000462767
0.00197699 0.000448854 -1.80652e-06
0.000448854 0.00011547 -1.07543e-06
-1.80652e-06 -1.07543e-06 -5.56544e-05
0.000328699 8.75852e-05 6.94675e-08
8.75852e-05 -7.74793e-05 2.20906e-06
6.94675e-08 2.20906e-06 -0.000333118
0.00154223 0.000403597 -3.61866e-06
0.000403597 0.000508205 -3.46008e-06
-3.61866e-06 -3.46008e-06 0.000226168
-0.00091681 6.75182e-05 -1.91716e-06
6.75182e-05 -0.00105421 3.0952e-06
-1.91716e-06 3.0952e-06 -0.00121721
0.00207901 0.000586766 2.21018e-06
0.000586766 0.000291084 1.03017e-06
2.21018e-06 1.03017e-06 2.74616e-05
0.00201581 0.000560105 -7.03698e-06
0.000560105 0.000157757 -1.97296e-07
-7.03698e-06 -1.97296e-07 -6.29271e-05
0.00151622 0.000588772 -4.03534e-06
0.000588772 0.000421653 3.04043e-06
-4.03534e-06 3.04043e-06 1.80373e-05
0.00200707 0.000665163 -6.49857e-06
0.000665163 0.000458822 2.01023e-07
-6.49857e-06 2.01023e-07 0.000106353
0.000769821 7.65923e-05 -7.18026e-07
7.65923e-05 0.000209191 1.20717e-07
-7.18026e-07 1.20717e-07 7.65218e-05
0.000486074 6.81266e-05 1.14434e-06
6.81266e-05 0.000106415 3.60682e-07
1.14434e-06 3.60682e-07 -0.000150944
0.00130771 0.000426465 -2.97992e-06
0.000426465 0.000351356 -1.51389e-06
-2.97992e-06 -1.51389e-06 3.01072e-05
0.000153712 0.000132443 5.4291e-07
0.000132443 -0.000290474 -2.13903e-06
5.4291e-07 -2.13903e-06 -0.000509027
0.00163997 0.000374317 3.30744e-06
0.000374317 0.000465508 -2.39322e-06
3.30744e-06 -2.39322e-06 0.000226347
0.00212836 0.000496523 -2.71522e-06
0.000496523 0.000110369 -1.01652e-06
-2.71522e-06 -1.01652e-06 -3.52282e-05
0.0022712 0.00064777 2.80967e-06
0.00064777 0.000382261 -5.00158e-07
2.80967e-06 -5.00158e-07 9.83601e-05
0.00218957 0.000617622 2.50094e-06
0.000617622 0.000227639 2.85463e-06
2.50094e-06 2.85463e-06 -1.58778e-05
0.00143457 0.000597898 4.05444e-06
0.000597898 0.000342558 1.51284e-06
4.05444e-06 1.51284e-06 -6.21439e-05
0.00190326 0.000733138 -4.80651e-06
0.000733138 0.000388946 1.55923e-07
-4.80651e-06 1.55923e-07 3.18387e-06
-0.000622852 7.84117e-06 -3.07395e-06
7.84117e-06 -0.000647568 5.53983e-06
-3.07395e-06 5.53983e-06 -0.000776969
-0.000244909 0.000211857 9.61089e-07
0.000211857 -0.000277919 1.58602e-06
9.61089e-07 1.58602e-06 -0.000590438
0.00143343 0.000471613 2.76121e-06
0.000471613 0.000401667 -1.49268e-06
2.76121e-06 -1.49268e-06 6.05005e-05
-0.000251337 0.000172461 1.11115e-06
0.000172461 -0.000674499 -2.3472e-06
1.11115e-06 -2.3472e-06 -0.000877615
0.00233885 0.000501016 5.20214e-06
0.000501016 -4.89543e-05 2.56223e-06
5.20214e-06 2.56223e-06 -3.87997e-05
0.00274129 0.000625093 8.75534e-06
0.000625093 0.000489416 1.69259e-06
8.75534e-06 1.69259e-06 0.000290491
0.0021357 0.000733054 5.30407e-06
0.000733054 0.000326792 -2.88656e-06
5.30407e-06 -2.88656e-06 -2.14924e-05
0.00167196 0.000705038 1.63458e-06
0.000705038 0.000360368 7.99101e-07
1.63458e-06 7.99101e-07 -7.13865e-05
0.000719415 0.00011371 -7.89425e-07
0.00011371 0.000180172 -2.082e-06
-7.89425e-07 -2.082e-06 5.25358e-05
0.000541044 0.000100091 -9.26991e-07
0.000100091 6.64651e-05 -5.89153e-07
-9.26991e-07 -5.89153e-07 -5.84395e-05
0.00119973 0.000100689 -7.27183e-06
0.000100689 0.000478684 -3.5654e-06
-7.27183e-06 -3.5654e-06 0.000375123
0.000553147 4.36989e-05 -9.70214e-07
4.36989e-05 6.20349e-05 -3.07082e-06
-9.70214e-07 -3.07082e-06 -3.99944e-05
3.58127e-05 4.06801e-05 -1.23629e-07
4.06801e-05 -0.000246553 -7.56606e-07
-1.23629e-07 -7.56606e-07 -0.000360709
0.000604557 5.11967e-05 -6.11866e-07
5.11967e-05 0.000111167 1.91055e-07
-6.11866e-07 1.91055e-07 1.62547e-06
0.000501947 0.000126513 -2.28051e-07
0.000126513 7.64969e-05 7.1061e-07
-2.28051e-07 7.1061e-07 -5.02113e-05
0.000486871 5.552e-05 1.11459e-06
5.552e-05 5.64162e-05 -8.89378e-09
1.11459e-06 -8.89378e-09 -8.55716e-05
0.000625138 0.000103466 4.40796e-06
0.000103466 0.000106289 -2.98364e-06
4.40796e-06 -2.98364e-06 2.2087e-05
0.000738687 1.4025e-05 3.15762e-06
1.4025e-05 0.000211301 -4.97695e-06
3.15762e-06 -4.97695e-06 7.56266e-05
0.000244878 6.63765e-05 -7.33591e-08
6.63765e-05 -9.69865e-05 2.1602e-06
-7.33591e-08 2.1602e-06 -0.000233196
0.000671399 0.000110509 2.37714e-06
0.000110509 0.000153205 3.45869e-06
2.37714e-06 3.45869e-06 4.01758e-05
0.000468024 7.65833e-05 3.33069e-06
7.65833e-05 1.32539e-05 3.52058e-06
3.33069e-06 3.52058e-06 -6.49164e-05
0.00046413 1.49187e-05 -1.54541e-06
1.49187e-05 2.51542e-06 -3.00403e-07
-1.54541e-06 -3.00403e-07 -6.74868e-05
0.00121201 8.01764e-06 1.71787e-06
8.01764e-06 0.000439227 2.86859e-06
1.71787e-06 2.86859e-06 0.000422419
0.000457021 -4.31284e-05 1.75491e-07
-4.31284e-05 -6.92542e-06 -3.12434e-06
1.75491e-07 -3.12434e-06 -7.40277e-05
0.00130412 -5.54715e-06 -6.68986e-06
-5.54715e-06 0.00049103 -1.69542e-06
-6.68986e-06 -1.69542e-06 0.000474652
0.000747423 -1.66343e-05 2.58985e-05
-1.66343e-05 0.000138572 9.10185e-06
2.58985e-05 9.10185e-06 0.000144378
0.00135108 -1.98454e-05 -1.05235e-05
-1.98454e-05 0.000517418 -6.75992e-06
-1.05235e-05 -6.75992e-06 0.000500232
0.00074956 -3.01407e-05 9.87212e-06
-3.01407e-05 0.000136523 3.46541e-06
9.87212e-06 3.46541e-06 0.000139935
0.000723492 -4.16358e-05 1.9055e-07
-4.16358e-05 0.000123259 -3.09214e-06
1.9055e-07 -3.09214e-06 0.000123204
0.000392986 4.21652e-05 -1.75351e-06
4.21652e-05 -6.72918e-05 -4.1537e-06
-1.75351e-06 -4.1537e-06 -9.15754e-05
0.000405807 7.29853e-05 -2.28665e-07
7.29853e-05 -3.30404e-05 3.64208e-07
-2.28665e-07 3.64208e-07 -7.54516e-05
0.00253601 0.000117058 8.62458e-06
0.000117058 0.00129712 -5.07609e-06
8.62458e-06 -5.07609e-06 0.0012947
0.000479288 1.6315e-05 -5.11218e-06
1.6315e-05 9.99558e-06 1.01174e-05
-5.11218e-06 1.01174e-05 -4.1893e-05
0.00310216 0.000153923 -1.24854e-05
0.000153923 0.00166268 -1.33414e-06
-1.24854e-05 -1.33414e-06 0.0016498
0.00400958 8.42083e-05 -0.000133629
8.42083e-05 0.0022281 1.24888e-05
-0.000133629 1.24888e-05 0.00223067
0.00204076 0.000357001 -9.62337e-07
0.000357001 0.000105026 6.27487e-07
-9.62337e-07 6.27487e-07 -1.59891e-05
0.00205823 0.000193066 -4.98434e-06
0.000193066 3.70812e-05 -8.67553e-07
-4.98434e-06 -8.67553e-07 1.17224e-05
0.00207523 0.000290996 -6.00004e-07
0.000290996 -2.44389e-05 -1.84052e-07
-6.00004e-07 -1.84052e-07 -3.77544e-05
0.00201958 0.000126707 -1.18602e-06
0.000126707 -3.39799e-05 -1.55997e-07
-1.18602e-06 -1.55997e-07 -1.69199e-05
0.00200252 5.39621e-05 -4.71204e-06
5.39621e-05 4.6357e-05 -3.70114e-07
-4.71204e-06 -3.70114e-07 2.77773e-05
0.00198787 -8.57645e-06 -5.82097e-06
-8.57645e-06 6.56176e-05 3.92414e-07
-5.82097e-06 3.92414e-07 2.1044e-05
0.00195578 -9.497e-06 -6.53382e-08
-9.497e-06 1.97657e-05 -6.61247e-08
-6.53382e-08 -6.61247e-08 4.10719e-06
0.00204731 6.24481e-05 1.14173e-06
6.24481e-05 -9.55995e-06 1.67857e-07
1.14173e-06 1.67857e-07 8.13243e-06
0.00212207 0.000199804 1.04515e-06
0.000199804 -5.46932e-06 2.18035e-07
1.04515e-06 2.18035e-07 6.24361e-06
0.00214462 0.000380328 6.38012e-07
0.000380328 2.51628e-05 1.93887e-07
6.38012e-07 1.93887e-07 -2.29192e-05
0.00201992 -1.56161e-05 4.56927e-07
-1.56161e-05 -1.62613e-05 -1.42862e-07
4.56927e-07 -1.42862e-07 -4.05616e-06
0.00217881 0.000112956 -5.33566e-07
0.000112956 -4.27994e-05 -6.76854e-07
-5.33566e-07 -6.76854e-07 1.41543e-05
0.00233741 0.000303336 2.55794e-06
0.000303336 1.42692e-05 4.45438e-07
2.55794e-06 4.45438e-07 3.93824e-05
0.00190259 -7.99959e-05 -4.61389e-06
-7.99959e-05 -3.00439e-05 5.16137e-07
-4.61389e-06 5.16137e-07 -4.08331e-05
0.00207271 -0.000184034 -3.36069e-06
-0.000184034 5.25501e-05 6.83762e-07
-3.36069e-06 6.83762e-07 3.05904e-05
0.00209541 -0.000337582 -2.47362e-06
-0.000337582 3.93894e-05 6.48448e-07
-2.47362e-06 6.48448e-07 1.56289e-06
0.00138065 -0.000483407 -2.35466e-06
-0.000483407 0.000364806 -6.33847e-08
-2.35466e-06 -6.33847e-08 2.22306e-06
0.00148283 -0.000630915 1.79084e-05
-0.000630915 0.000287377 -6.50918e-06
1.79084e-05 -6.50918e-06 -0.000127934
0.00189801 -0.000736484 -1.72648e-06
-0.000736484 0.000310449 7.05659e-07
-1.72648e-06 7.05659e-07 -9.24125e-05
0.0020387 -0.000438771 -1.82392e-06
-0.000438771 8.50482e-05 1.50321e-06
-1.82392e-06 1.50321e-06 -1.20746e-05
0.00207775 -0.000569542 6.61215e-06
-0.000569542 0.000172382 3.0847e-06
6.61215e-06 3.0847e-06 -3.30486e-06
0.00222139 -0.000634574 1.53324e-05
-0.000634574 0.000343854 -6.96601e-06
1.53324e-05 -6.96601e-06 7.68395e-05
0.00125074 -0.000430479 2.88016e-06
-0.000430479 0.00031996 -3.57379e-06
2.88016e-06 -3.57379e-06 -2.84407e-05
0.00133888 -0.000450811 6.47496e-06
-0.000450811 0.000398403 -1.29195e-05
6.47496e-06 -1.29195e-05 3.16607e-05
0.00122831 -0.000380807 -6.85647e-07
-0.000380807 0.000441902 -1.09045e-05
-6.85647e-07 -1.09045e-05 7.91032e-05
0.000270094 4.24848e-05 3.50796e-06
4.24848e-05 -0.000115353 2.44784e-06
3.50796e-06 2.44784e-06 -0.000208539
0.00147783 -0.000237328 3.30821e-06
-0.000237328 0.00066701 3.62613e-06
3.30821e-06 3.62613e-06 0.00039502
-0.00018604 6.24075e-06 5.61544e-06
6.24075e-06 -0.000339097 9.72093e-07
5.61544e-06 9.72093e-07 -0.000550139
0.00204307 -9.1659e-05 -5.14732e-07
-9.1659e-05 -1.14449e-06 1.31681e-07
-5.14732e-07 1.31681e-07 9.75508e-06
0.00214417 -0.000247062 9.37175e-08
-0.000247062 -3.104e-05 -7.96408e-08
9.37175e-08 -7.96408e-08 -5.59503e-06
0.00216375 -0.00041466 -7.3107e-07
-0.00041466 2.63729e-05 2.8237e-07
-7.3107e-07 2.8237e-07 1.00676e-05
0.00153519 -0.00057281 -5.6194e-07
-0.00057281 0.000439642 6.62555e-07
-5.6194e-07 6.62555e-07 3.6633e-05
0.00129904 -0.000695932 4.01392e-06
-0.000695932 0.000153746 -1.91137e-06
4.01392e-06 -1.91137e-06 -0.000296839
0.0023473 -0.000800168 -4.74763e-06
-0.000800168 0.000570632 4.8809e-08
-4.74763e-06 4.8809e-08 0.000162586
0.00218446 -0.000534712 2.83858e-07
-0.000534712 7.54959e-05 -6.85232e-07
2.83858e-07 -6.85232e-07 -7.99478e-06
0.00206422 -0.000654353 2.17564e-06
-0.000654353 0.000188974 -1.97472e-06
2.17564e-06 -1.97472e-06 -4.42437e-05
0.000281974 6.04792e-05 -1.55067e-06
6.04792e-05 -0.000111093 -1.27372e-06
-1.55067e-06 -1.27372e-06 -0.000181136
0.000628974 -2.39141e-05 -6.82586e-07
-2.39141e-05 0.000159528 7.75208e-07
-6.82586e-07 7.75208e-07 -7.49205e-07
0.00092211 -0.000452351 -3.1638e-06
-0.000452351 8.99431e-05 2.00359e-06
-3.1638e-06 2.00359e-06 -0.000276217
0.00145032 -0.000411131 -3.66266e-06
-0.000411131 0.000522193 -4.46294e-07
-3.66266e-06 -4.46294e-07 0.000110493
0.00164899 -0.00021238 -6.03907e-07
-0.00021238 0.000741639 -1.41572e-06
-6.03907e-07 -1.41572e-06 0.000429887
0.00091468 -0.00018179 -7.46386e-07
-0.00018179 0.00036963 1.45904e-06
-7.46386e-07 1.45904e-06 0.000109747
0.00213483 -0.000127489 -1.62919e-06
-0.000127489 -4.73484e-05 4.12887e-07
-1.62919e-06 4.12887e-07 6.65917e-06
0.0022761 -0.000353629 -2.16088e-06
-0.000353629 -6.69538e-05 1.07418e-06
-2.16088e-06 1.07418e-06 6.02831e-06
0.00225172 -0.000499958 2.7768e-06
-0.000499958 2.75021e-05 -7.4281e-07
2.7768e-06 -7.4281e-07 2.12434e-05
0.00235947 -0.000694163 7.46235e-06
-0.000694163 0.00018516 -3.53456e-06
7.46235e-06 -3.53456e-06 3.1873e-05
0.000714254 -0.000525704 -5.86907e-06
-0.000525704 -6.59854e-05 -7.23883e-06
-5.86907e-06 -7.23883e-06 -0.000473095
0.00262445 -0.000874599 -1.53919e-06
-0.000874599 0.000642366 4.42394e-06
-1.53919e-06 4.42394e-06 0.000256112
0.0022918 -0.000883437 -3.31031e-05
-0.000883437 0.000667736 -4.55361e-06
-3.31031e-05 -4.55361e-06 0.000155026
0.000546802 4.58975e-05 -3.71492e-07
4.58975e-05 3.7307e-05 -2.0423e-07
-3.71492e-07 -2.0423e-07 -1.49384e-05
0.000670435 -0.000141297 3.84616e-06
-0.000141297 0.000170299 -1.1444e-06
3.84616e-06 -1.1444e-06 6.20333e-05
0.000321749 8.20992e-05 -7.90669e-06
8.20992e-05 -4.41576e-05 -8.03046e-07
-7.90669e-06 -8.03046e-07 -0.000157929
0.000785902 -6.17103e-05 -3.57077e-06
-6.17103e-05 0.000281296 1.64658e-06
-3.57077e-06 1.64658e-06 7.08874e-05
3.90853e-05 -0.000124455 2.14719e-06
-0.000124455 -0.000218213 -7.23075e-06
2.14719e-06 -7.23075e-06 -0.000475772
-0.000178226 -0.000118101 5.91225e-06
-0.000118101 -0.000341869 -1.01887e-06
5.91225e-06 -1.01887e-06 -0.000727755
0.00145117 -0.000541109 -3.22597e-05
-0.000541109 0.000426173 2.35342e-05
-3.22597e-05 2.35342e-05 5.33856e-05
0.00290969 -0.00053716 -2.79129e-05
-0.00053716 0.00159053 1.59539e-05
-2.79129e-05 1.59539e-05 0.000963696
0.000535923 3.71818e-05 -3.57889e-07
3.71818e-05 5.2495e-05 -1.7677e-06
-3.57889e-07 -1.7677e-06 -6.76264e-05
0.000878725 0.000201692 -5.57114e-07
0.000201692 0.000338651 5.09157e-07
-5.57114e-07 5.09157e-07 7.4008e-05
0.00228504 0.000510381 -3.42878e-06
0.000510381 0.000194634 -1.93541e-06
-3.42878e-06 -1.93541e-06 4.93439e-05
0.000463292 0.000216771 -4.25534e-06
0.000216771 -7.16377e-05 2.88273e-06
-4.25534e-06 2.88273e-06 -0.000322617
0.00110017 0.000401288 -2.37316e-06
0.000401288 0.000217264 3.41162e-07
-2.37316e-06 3.41162e-07 -9.86823e-05
0.0012771 0.000315138 -4.5141e-06
0.000315138 0.000224382 -5.86026e-06
-4.5141e-06 -5.86026e-06 4.17331e-07
0.00238808 0.000644662 -7.4649e-06
0.000644662 0.000459398 -7.84203e-07
-7.4649e-06 -7.84203e-07 0.000182789
0.00237741 0.000640814 -1.22242e-05
0.000640814 0.000332927 4.16251e-06
-1.22242e-05 4.16251e-06 8.5401e-05
0.00165247 0.000630971 -3.70557e-06
0.000630971 0.000473139 9.99508e-07
-3.70557e-06 9.99508e-07 6.04426e-05
0.00173304 0.000736991 -4.98138e-06
0.000736991 0.000286072 -8.52291e-07
-4.98138e-06 -8.52291e-07 -0.000109336
-0.000186398 6.53422e-05 7.6508e-07
6.53422e-05 -0.000371203 1.46051e-06
7.6508e-07 1.46051e-06 -0.000517985
-2.41735e-05 0.00022888 -3.55037e-07
0.00022888 -0.000149309 -2.8224e-06
-3.55037e-07 -2.8224e-06 -0.000458395
0.00162578 0.000503996 1.62329e-06
0.000503996 0.000503289 8.63328e-08
1.62329e-06 8.63328e-08 0.00015181
0.00151356 0.000338034 -2.69038e-06
0.000338034 0.00043508 1.18008e-06
-2.69038e-06 1.18008e-06 0.000200245
0.00234025 0.000482385 7.08544e-07
0.000482385 -6.53699e-05 -7.5828e-07
7.08544e-07 -7.5828e-07 -4.75879e-05
0.00258182 0.000623226 3.43822e-06
0.000623226 0.000395872 1.26631e-07
3.43822e-06 1.26631e-07 0.000190942
0.00208804 0.000715441 -1.77247e-06
0.000715441 0.000310825 9.33699e-08
-1.77247e-06 9.33699e-08 -3.00762e-05
0.00180341 0.000715185 9.37719e-07
0.000715185 0.000420218 2.91342e-07
9.37719e-07 2.91342e-07 -7.18966e-06
-0.000349922 4.09652e-05 -2.57722e-06
4.09652e-05 -0.000467979 4.5606e-06
-2.57722e-06 4.5606e-06 -0.000620564
0.00223761 0.000372066 1.21366e-05
0.000372066 -0.000175873 3.56987e-06
1.21366e-05 3.56987e-06 -0.000101874
0.00265467 0.000507107 6.61628e-06
0.000507107 0.00144084 8.58146e-06
6.61628e-06 8.58146e-06 0.00110388
0.00136088 0.000486926 2.63561e-06
0.000486926 0.000277741 -3.59855e-07
2.63561e-06 -3.59855e-07 -4.69899e-05
0.00258976 0.000603122 -1.38569e-05
0.000603122 0.000231857 -7.32025e-06
-1.38569e-05 -7.32025e-06 0.000153453
0.00119022 0.000664218 2.78613e-06
0.000664218 -0.000305878 -7.91046e-06
2.78613e-06 -7.91046e-06 -0.000626411
0.00267984 0.000835022 1.35532e-06
0.000835022 0.000868714 4.4348e-06
1.35532e-06 4.4348e-06 0.000411534
0.000788656 0.000116333 -1.19892e-06
0.000116333 0.000220948 -2.09772e-06
-1.19892e-06 -2.09772e-06 9.39263e-05
0.000640107 0.000109216 -3.5455e-06
0.000109216 0.000147823 -1.39302e-06
-3.5455e-06 -1.39302e-06 3.78107e-05
0.00134042 0.000110631 -3.51189e-06
0.000110631 0.000586406 2.42373e-07
-3.51189e-06 2.42373e-07 0.000510261
0.00050097 7.21104e-06 6.15679e-07
7.21104e-06 4.86102e-05 -3.48616e-06
6.15679e-07 -3.48616e-06 -6.17928e-05
0.000711043 8.56503e-05 2.10125e-06
8.56503e-05 0.000202503 -7.77478e-07
2.10125e-06 -7.77478e-07 5.5262e-05
-0.000166632 7.55948e-05 -2.14396e-06
7.55948e-05 -0.000315603 4.97258e-06
-2.14396e-06 4.97258e-06 -0.000432142
0.000554783 2.25363e-05 -1.44684e-06
2.25363e-05 8.67225e-05 1.27762e-08
-1.44684e-06 1.27762e-08 -2.9628e-05
0.000332176 -1.11517e-05 -1.00369e-06
-1.11517e-05 -2.68866e-05 -6.56348e-08
-1.00369e-06 -6.56348e-08 -0.000172522
9.93331e-05 5.15067e-05 -2.43686e-07
5.15067e-05 -0.000196403 1.45654e-06
-2.43686e-07 1.45654e-06 -0.000269673
0.000810015 9.51698e-05 1.02314e-06
9.51698e-05 0.000270834 -1.27505e-06
1.02314e-06 -1.27505e-06 0.000122559
0.00171793 0.000134002 -2.49679e-07
0.000134002 0.000776942 -2.34696e-06
-2.49679e-07 -2.34696e-06 0.000729734
0.000439979 2.27304e-05 1.02348e-05
2.27304e-05 1.13221e-05 -7.36652e-06
1.02348e-05 -7.36652e-06 -7.61983e-05
0.000307569 0.000107983 5.78428e-07
0.000107983 -3.12483e-05 2.21471e-06
5.78428e-07 2.21471e-06 -0.000188688
0.000553761 4.74953e-05 1.58705e-06
4.74953e-05 0.000106743 3.39855e-06
1.58705e-06 3.39855e-06 -5.19318e-05
0.000575605 3.38169e-05 2.76602e-06
3.38169e-05 9.10767e-05 3.03595e-06
2.76602e-06 3.03595e-06 -2.66876e-05
0.000476486 -5.68212e-05 -3.30911e-07
-5.68212e-05 1.62655e-05 3.07184e-06
-3.30911e-07 3.07184e-06 -6.28646e-05
0.000491641 1.03859e-05 2.33582e-07
1.03859e-05 1.99769e-05 -3.54421e-07
2.33582e-07 -3.54421e-07 -5.23326e-05
0.00129329 2.7685e-05 3.29838e-06
2.7685e-05 0.000498684 3.06667e-06
3.29838e-06 3.06667e-06 0.000479248
0.000494791 1.61684e-06 9.53823e-08
1.61684e-06 1.26769e-05 -3.23282e-06
9.53823e-08 -3.23282e-06 -5.12879e-05
0.00130672 1.07266e-05 -6.12121e-06
1.07266e-05 0.000498794 -1.70494e-06
-6.12121e-06 -1.70494e-06 0.00048178
0.000744032 -8.96406e-06 2.09651e-05
-8.96406e-06 0.000141068 8.83553e-06
2.09651e-05 8.83553e-06 0.000146754
0.0013486 -9.50939e-06 -8.20086e-06
-9.50939e-06 0.00051875 -6.5529e-06
-8.20086e-06 -6.5529e-06 0.000502738
0.000773255 -2.05808e-05 7.62699e-06
-2.05808e-05 0.000151723 3.49852e-06
7.62699e-06 3.49852e-06 0.000156398
0.00075491 -3.15834e-05 1.41455e-07
-3.15834e-05 0.000137773 -2.89361e-06
1.41455e-07 -2.89361e-06 0.000140653
0.000643386 -9.89468e-06 1.38555e-06
-9.89468e-06 9.23309e-05 -1.49274e-06
1.38555e-06 -1.49274e-06 4.32623e-05
0.000422106 2.80482e-05 -2.99947e-07
2.80482e-05 -6.07666e-05 -3.63424e-06
-2.99947e-07 -3.63424e-06 -7.80047e-05
0.000432865 4.69156e-05 4.14011e-07
4.69156e-05 -3.95845e-05 2.64453e-07
4.14011e-07 2.64453e-07 -6.56075e-05
0.00232023 9.12237e-05 1.23443e-05
9.12237e-05 0.00115066 -4.52595e-06
1.23443e-05 -4.52595e-06 0.00115536
0.000493373 6.55968e-05 5.6027e-06
6.55968e-05 1.60396e-05 7.77349e-06
5.6027e-06 7.77349e-06 -2.44908e-05
0.00271588 0.000126377 -5.16361e-06
0.000126377 0.0014116 -5.75051e-07
-5.16361e-06 -5.75051e-07 0.00140696
0.00333264 0.000119825 -4.88232e-05
0.000119825 0.00179794 5.78428e-06
-4.88232e-05 5.78428e-06 0.00179236
0.00214819 0.000371538 -2.45576e-07
0.000371538 2.05823e-05 -4.08239e-07
-2.45576e-07 -4.08239e-07 -2.68376e-05
0.00212379 0.000206252 -1.60806e-06
0.000206252 -2.43025e-06 -1.46192e-07
-1.60806e-06 -1.46192e-07 1.05527e-05
0.00204348 6.62595e-05 -1.21628e-06
6.62595e-05 -6.21963e-06 6.72581e-08
-1.21628e-06 6.72581e-08 9.23578e-06
0.00196332 -7.41612e-06 -4.80653e-06
-7.41612e-06 2.55194e-05 -1.08354e-07
-4.80653e-06 -1.08354e-07 1.07786e-05
0.00202322 -1.04973e-05 -9.20189e-07
-1.04973e-05 -1.57791e-05 -3.22961e-08
-9.20189e-07 -3.22961e-08 -9.66073e-07
0.00215828 0.00010605 -1.0729e-07
0.00010605 -4.58133e-05 2.66329e-07
-1.0729e-07 2.66329e-07 8.44906e-06
0.00227342 0.000310037 -1.1924e-06
0.000310037 -1.33238e-05 6.33455e-09
-1.1924e-06 6.33455e-09 1.11253e-05
0.00213747 -1.08564e-05 -1.63719e-06
-1.08564e-05 -6.16476e-05 -4.17356e-07
-1.63719e-06 -4.17356e-07 2.52378e-06
0.00235633 0.000160157 5.39857e-06
0.000160157 -5.11038e-05 -1.35476e-06
5.39857e-06 -1.35476e-06 1.47709e-05
0.00253134 0.00011352 1.19299e-05
0.00011352 0.000134796 1.19516e-05
1.19299e-05 1.19516e-05 0.000213145
0.00205248 -9.03756e-05 -1.83383e-06
-9.03756e-05 4.02237e-06 2.31276e-07
-1.83383e-06 2.31276e-07 1.30177e-05
0.00211517 -0.000255599 -6.36644e-07
-0.000255599 -5.26231e-05 -3.24003e-09
-6.36644e-07 -3.24003e-09 -2.58595e-05
0.00214963 -0.000406565 -4.95404e-07
-0.000406565 2.43272e-05 -5.92369e-08
-4.95404e-07 -5.92369e-08 5.81903e-06
0.00154306 -0.000577883 6.03592e-06
-0.000577883 0.000444853 -2.84351e-06
6.03592e-06 -2.84351e-06 3.88545e-05
0.00176368 -0.000744487 2.12641e-05
-0.000744487 0.000423793 -6.72855e-07
2.12641e-05 -6.72855e-07 -3.69628e-05
0.00195559 -0.00073785 8.62136e-06
-0.00073785 0.000350796 -2.86346e-07
8.62136e-06 -2.86346e-07 -3.41487e-05
0.00210635 -0.000538075 1.18102e-07
-0.000538075 3.31636e-05 3.2491e-06
1.18102e-07 3.2491e-06 -5.66284e-05
0.00189974 -0.000629204 3.79778e-06
-0.000629204 0.000112578 2.38116e-06
3.79778e-06 2.38116e-06 -0.000113031
0.000508261 -0.000400975 9.03983e-06
-0.000400975 -0.000160553 -1.69126e-05
9.03983e-06 -1.69126e-05 -0.000517165
0.00165167 -0.000403759 1.74447e-05
-0.000403759 0.00070005 -1.81385e-05
1.74447e-05 -1.81385e-05 0.000267843
0.0012592 -0.000126644 -1.47711e-06
-0.000126644 0.000468649 2.34099e-06
-1.47711e-06 2.34099e-06 0.000182534
0.000460108 1.97992e-05 2.99023e-06
1.97992e-05 -1.4916e-06 1.07651e-06
2.99023e-06 1.07651e-06 -6.6972e-05
0.000670451 3.05194e-05 6.34867e-06
3.05194e-05 0.000179675 2.26072e-06
6.34867e-06 2.26072e-06 2.17786e-05
0.000402015 -0.000125424 9.66632e-07
-0.000125424 3.76289e-05 6.50917e-06
9.66632e-07 6.50917e-06 -0.000214579
0.00214502 -0.00013042 5.76711e-07
-0.00013042 -4.96446e-05 -9.25594e-08
5.76711e-07 -9.25594e-08 6.74973e-06
0.000490354 1.06062e-05 1.72665e-06
1.06062e-05 1.99109e-06 3.15663e-07
1.72665e-06 3.15663e-07 -4.99843e-05
0.000394321 -7.2324e-05 -2.18498e-06
-7.2324e-05 -3.36314e-05 -5.42257e-07
-2.18498e-06 -5.42257e-07 -0.000122215
0.00225496 -0.000343487 -1.95449e-07
-0.000343487 -5.789e-05 1.5217e-07
-1.95449e-07 1.5217e-07 6.03856e-06
0.00220391 -0.000488517 -1.79201e-06
-0.000488517 7.01385e-06 3.32772e-07
-1.79201e-06 3.32772e-07 7.70422e-06
0.00183068 -0.000663877 -1.55877e-06
-0.000663877 0.00058498 2.01511e-06
-1.55877e-06 2.01511e-06 0.000143475
0.0019055 -0.000832608 6.8888e-06
-0.000832608 0.000471586 8.9301e-07
6.8888e-06 8.9301e-07 -3.64518e-05
0.00198739 -0.000808164 3.56086e-06
-0.000808164 0.000269908 -4.9506e-06
3.56086e-06 -4.9506e-06 -9.92087e-05
0.00227951 -0.00068542 3.05088e-06
-0.00068542 0.00014203 -1.10241e-06
3.05088e-06 -1.10241e-06 -5.52202e-06
0.000679986 1.3086e-05 -8.43647e-07
1.3086e-05 0.000189585 -1.16393e-06
-8.43647e-07 -1.16393e-06 7.14288e-05
0.000783779 -5.57802e-05 9.48076e-07
-5.57802e-05 0.00028095 1.91924e-06
9.48076e-07 1.91924e-06 6.95915e-05
0.00144957 -0.000523338 3.613e-06
-0.000523338 0.000442648 4.81728e-06
3.613e-06 4.81728e-06 5.59605e-05
0.00110793 -0.000367876 1.07306e-05
-0.000367876 0.000470402 -8.56446e-06
1.07306e-05 -8.56446e-06 -6.59697e-05
0.000955346 -0.000143364 -8.26728e-07
-0.000143364 0.000289487 -9.21744e-07
-8.26728e-07 -9.21744e-07 -5.2356e-05
0.000274973 -9.61014e-05 4.93488e-07
-9.61014e-05 -6.56614e-05 -1.63991e-06
4.93488e-07 -1.63991e-06 -0.000331615
0.00215309 -0.000151212 1.14841e-06
-0.000151212 -0.000182244 -7.45672e-07
1.14841e-06 -7.45672e-07 -0.000104912
0.00224781 -0.000440714 -1.17538e-06
-0.000440714 -0.000210865 3.16909e-06
-1.17538e-06 3.16909e-06 -1.45474e-05
0.00243955 -0.000673117 -3.45866e-06
-0.000673117 8.34331e-05 -1.21433e-06
-3.45866e-06 -1.21433e-06 4.54002e-05
0.00248451 -0.000892681 1.11332e-05
-0.000892681 0.00034322 -3.94528e-06
1.11332e-05 -3.94528e-06 0.000108579
0.00118976 -0.000625015 -2.96503e-06
-0.000625015 0.000252985 -1.88887e-05
-2.96503e-06 -1.88887e-05 -0.000200933
0.00297575 -0.00104037 -8.73783e-06
-0.00104037 0.000976691 8.18338e-06
-8.73783e-06 8.18338e-06 0.000427591
0.000163779 5.07294e-05 -2.64463e-06
5.07294e-05 -0.000169959 -4.7275e-06
-2.64463e-06 -4.7275e-06 -0.000266189
0.000563768 -4.61427e-05 3.97589e-06
-4.61427e-05 7.8661e-05 7.43217e-07
3.97589e-06 7.43217e-07 -7.07654e-06
0.00123755 -0.000155401 -2.41006e-06
-0.000155401 0.000471037 1.24717e-05
-2.41006e-06 1.24717e-05 0.000357823
0.000510799 1.74942e-05 -3.98532e-06
1.74942e-05 8.20019e-05 3.65174e-06
-3.98532e-06 3.65174e-06 -8.12359e-05
0.000736843 -9.20804e-05 -3.63266e-06
-9.20804e-05 0.000228911 6.96969e-06
-3.63266e-06 6.96969e-06 7.37867e-06
0.000766977 -7.05683e-05 1.0492e-05
-7.05683e-05 0.000163847 -1.01974e-05
1.0492e-05 -1.01974e-05 -8.98543e-05
-0.000963623 -0.000282183 9.79501e-07
-0.000282183 -0.000462131 -1.9344e-06
9.79501e-07 -1.9344e-06 -0.00123981
5.55149e-06 -0.000507798 -5.33419e-05
-0.000507798 -0.000469671 2.05667e-05
-5.33419e-05 2.05667e-05 -0.000816126
0.000419316 7.22443e-05 -8.70817e-07
7.22443e-05 2.54345e-05 -1.5413e-06
-8.70817e-07 -1.5413e-06 -0.000149348
0.000750511 0.00025353 -1.02422e-05
0.00025353 0.000305766 -5.49449e-06
-1.02422e-05 -5.49449e-06 6.30839e-06
0.00234236 0.000463678 -9.2064e-06
0.000463678 -7.29288e-05 -3.58472e-06
-9.2064e-06 -3.58472e-06 -5.02993e-05
0.00246894 0.000624198 -9.19654e-06
0.000624198 0.000332498 -1.22011e-06
-9.19654e-06 -1.22011e-06 0.000121206
0.00308899 0.000450128 -6.26789e-06
0.000450128 0.00139184 -8.24151e-07
-6.26789e-06 -8.24151e-07 0.00114799
0.00171906 0.00052225 -4.06232e-06
0.00052225 0.000549849 -3.77718e-06
-4.06232e-06 -3.77718e-06 0.00019071
0.00203004 0.000697375 -5.33178e-06
0.000697375 0.000288541 1.23308e-06
-5.33178e-06 1.23308e-06 -4.54736e-05
0.00195273 0.000724728 -3.60643e-06
0.000724728 0.00049225 -1.76114e-06
-3.60643e-06 -1.76114e-06 6.87164e-05
0.000422976 0.000106111 1.15221e-06
0.000106111 3.34184e-05 -1.34986e-06
1.15221e-06 -1.34986e-06 -0.000153012
0.00240299 0.000356498 -2.48165e-06
0.000356498 -7.19463e-05 -1.98355e-06
-2.48165e-06 -1.98355e-06 6.76213e-06
0.00144541 0.000333453 1.06465e-06
0.000333453 0.000669083 1.62649e-06
1.06465e-06 1.62649e-06 0.000377944
0.0015905 0.00050771 2.37161e-06
0.00050771 0.000446168 1.05969e-06
2.37161e-06 1.05969e-06 0.000110781
0.00259016 0.000598543 1.81023e-06
0.000598543 0.000247456 3.40049e-07
1.81023e-06 3.40049e-07 0.000168578
0.00167662 0.000706329 -1.69461e-06
0.000706329 -1.81593e-05 -4.6274e-06
-1.69461e-06 -4.6274e-06 -0.000343136
0.00213396 0.000764968 1.73314e-07
0.000764968 0.000569618 5.76137e-07
1.73314e-07 5.76137e-07 0.000125003
0.00120581 0.000270271 -4.32891e-06
0.000270271 0.000593934 2.84354e-06
-4.32891e-06 2.84354e-06 0.000342673
0.00346639 0.000509141 -7.75748e-05
0.000509141 0.000564013 -2.07448e-05
-7.75748e-05 -2.07448e-05 0.000696436
0.00144552 0.000479922 -6.36336e-06
0.000479922 0.000583826 4.67549e-06
-6.36336e-06 4.67549e-06 0.000254042
0.00160093 0.000594446 -2.16803e-06
0.000594446 0.000379475 -4.74639e-06
-2.16803e-06 -4.74639e-06 -2.28749e-05
0.00222314 0.000783292 -3.0662e-05
0.000783292 0.000138198 -1.8357e-05
-3.0662e-05 -1.8357e-05 -8.29796e-05
0.00109656 0.000666229 -2.04684e-05
0.000666229 -6.47822e-05 -1.89325e-06
-2.04684e-05 -1.89325e-06 -0.000472886
0.000373441 0.000779598 2.9585e-05
0.000779598 -0.00171237 -3.70247e-05
2.9585e-05 -3.70247e-05 -0.00140551
-4.02323e-05 0.000120364 3.47115e-06
0.000120364 -0.000244793 -9.18058e-07
3.47115e-06 -9.18058e-07 -0.000363474
0.000479036 0.000110014 5.28985e-07
0.000110014 0.000100666 1.8196e-06
5.28985e-07 1.8196e-06 1.34519e-05
0.00199312 0.000171172 1.53866e-06
0.000171172 0.000989744 2.0392e-07
1.53866e-06 2.0392e-07 0.000912025
0.000421141 -6.39451e-05 5.24188e-07
-6.39451e-05 1.18898e-05 -3.92093e-06
5.24188e-07 -3.92093e-06 -0.000107713
0.000396615 -3.9281e-05 -6.10518e-07
-3.9281e-05 8.53699e-06 -1.27289e-06
-6.10518e-07 -1.27289e-06 -0.000133522
0.00103229 0.00018491 2.69614e-07
0.00018491 0.000411591 1.12459e-06
2.69614e-07 1.12459e-06 0.000250958
-0.000159252 2.78291e-05 -6.34272e-06
2.78291e-05 -0.000334831 1.36372e-05
-6.34272e-06 1.36372e-05 -0.000405711
0.000527514 -1.41164e-05 -3.34386e-07
-1.41164e-05 7.79281e-05 -1.1986e-07
-3.34386e-07 -1.1986e-07 -4.8674e-05
0.000494125 6.75392e-05 1.36559e-07
6.75392e-05 5.06035e-05 -6.54063e-07
1.36559e-07 -6.54063e-07 -9.32577e-05
0.00115822 0.000113881 2.58176e-06
0.000113881 0.000426649 4.4778e-06
2.58176e-06 4.4778e-06 0.000378789
0.000519003 6.66062e-05 1.6112e-06
6.66062e-05 7.86758e-05 7.42332e-07
1.6112e-06 7.42332e-07 -6.86646e-05
0.000680064 5.09875e-05 -1.37366e-06
5.09875e-05 0.000152709 -2.05008e-06
-1.37366e-06 -2.05008e-06 5.53166e-05
0.00160203 0.000131317 -2.23682e-06
0.000131317 0.000733605 -1.26531e-05
-2.23682e-06 -1.26531e-05 0.000682322
0.000858235 0.000137167 -2.02277e-06
0.000137167 0.000250488 -2.60592e-06
-2.02277e-06 -2.60592e-06 0.000104776
0.000943978 0.000132615 1.72289e-06
0.000132615 0.000334312 1.38169e-06
1.72289e-06 1.38169e-06 0.000176618
0.000897972 8.95183e-05 2.49396e-07
8.95183e-05 0.000323835 1.70098e-06
2.49396e-07 1.70098e-06 0.00015021
0.000270244 -2.34996e-05 -1.08029e-07
-2.34996e-05 -0.000101496 2.48045e-06
-1.08029e-07 2.48045e-06 -0.000224824
0.0010565 -7.69614e-05 4.88121e-07
-7.69614e-05 0.000459084 -1.7996e-06
4.88121e-07 -1.7996e-06 0.000274393
0.000202282 -3.97976e-05 -1.24588e-06
-3.97976e-05 -0.000140892 3.44607e-06
-1.24588e-06 3.44607e-06 -0.000269245
0.000458382 3.90774e-06 -1.72076e-06
3.90774e-06 1.07592e-05 3.18641e-06
-1.72076e-06 3.18641e-06 -7.34673e-05
0.000476955 3.82774e-05 2.47816e-06
3.82774e-05 1.96616e-05 -1.48642e-07
2.47816e-06 -1.48642e-07 -6.20442e-05
0.000383448 2.15688e-05 1.98123e-07
2.15688e-05 -6.57354e-05 4.46531e-06
1.98123e-07 4.46531e-06 -8.93093e-05
0.000435482 6.98236e-06 -2.90261e-06
6.98236e-06 -6.73774e-06 -3.60094e-06
-2.90261e-06 -3.60094e-06 -8.44076e-05
0.000882623 1.62691e-05 -3.4463e-06
1.62691e-05 0.000240873 -1.54376e-06
-3.4463e-06 -1.54376e-06 0.000220374
0.002615 -4.93819e-06 1.8975e-05
-4.93819e-06 0.00131536 5.51824e-06
1.8975e-05 5.51824e-06 0.00132823
0.00139374 2.21733e-05 -9.93296e-06
2.21733e-05 0.000554331 -6.6269e-06
-9.93296e-06 -6.6269e-06 0.000536719
0.000767193 -1.08314e-05 6.60276e-06
-1.08314e-05 0.000152014 3.41054e-06
6.60276e-06 3.41054e-06 0.000157254
0.000789146 -2.15482e-05 5.74631e-07
-2.15482e-05 0.000158359 -2.64803e-06
5.74631e-07 -2.64803e-06 0.00016283
0.000498648 1.38443e-05 -2.26598e-06
1.38443e-05 9.50704e-06 -2.4344e-06
-2.26598e-06 -2.4344e-06 -4.01871e-05
0.000552921 -2.36921e-05 8.38927e-07
-2.36921e-05 3.89295e-05 -3.25405e-07
8.38927e-07 -3.25405e-07 -1.15795e-05
0.000497972 2.29407e-05 1.15475e-08
2.29407e-05 -1.8528e-05 -3.56795e-06
1.15475e-08 -3.56795e-06 -3.24933e-05
0.000801642 3.79246e-05 -1.30703e-07
3.79246e-05 0.000179082 1.20563e-07
-1.30703e-07 1.20563e-07 0.00016306
0.002195 7.12402e-05 9.60741e-06
7.12402e-05 0.00106372 -4.50287e-06
9.60741e-06 -4.50287e-06 0.00107311
0.0004847 5.48027e-05 5.01362e-06
5.48027e-05 -2.59091e-06 5.61301e-06
5.01362e-06 5.61301e-06 -3.15403e-05
0.00240733 9.72925e-05 -2.87347e-06
9.72925e-05 0.00120681 -2.82485e-07
-2.87347e-06 -2.82485e-07 0.00120999
0.00278536 0.000132635 3.90655e-06
0.000132635 0.00145632 7.19327e-06
3.90655e-06 7.19327e-06 0.00145018
0.00221413 0.000316671 -2.52642e-06
0.000316671 -4.11908e-05 -5.57565e-07
-2.52642e-06 -5.57565e-07 -1.63535e-05
0.00213399 0.00010079 1.8973e-06
0.00010079 -5.24773e-05 6.50288e-07
1.8973e-06 6.50288e-07 2.26575e-07
0.00202843 -6.13548e-06 -6.78549e-07
-6.13548e-06 -1.4619e-05 -8.75074e-08
-6.78549e-07 -8.75074e-08 2.82095e-06
0.00212586 -7.20626e-06 1.34265e-07
-7.20626e-06 -6.79227e-05 -2.32948e-07
1.34265e-07 -2.32948e-07 -3.92119e-06
0.00233266 0.000165599 -3.81295e-07
0.000165599 -5.04643e-05 4.63369e-07
-3.81295e-07 4.63369e-07 1.45671e-05
0.00225986 9.02028e-05 8.26946e-06
9.02028e-05 -4.94439e-05 -5.64159e-06
8.26946e-06 -5.64159e-06 2.38478e-05
0.00237623 -2.91539e-06 1.6401e-06
-2.91539e-06 -9.21037e-05 -1.84985e-06
1.6401e-06 -1.84985e-06 1.19053e-05
0.00452441 0.000806915 5.80101e-05
0.000806915 -0.000428118 1.14525e-05
5.80101e-05 1.14525e-05 0.000208532
0.00278721 6.9554e-05 -2.42104e-05
6.9554e-05 0.000435711 2.86016e-05
-2.42104e-05 2.86016e-05 0.000638208
0.000486707 0.000109017 -2.93754e-06
0.000109017 4.22759e-05 -1.18181e-06
-2.93754e-06 -1.18181e-06 -5.17496e-05
0.00215187 -0.000131443 8.82415e-07
-0.000131443 -5.38963e-05 -3.6539e-07
8.82415e-07 -3.6539e-07 5.07948e-06
0.00222772 -0.000332806 2.21417e-06
-0.000332806 -5.29289e-05 -8.30613e-07
2.21417e-06 -8.30613e-07 1.49583e-06
0.00216286 -0.000479738 -4.75737e-07
-0.000479738 -1.17559e-05 4.41632e-07
-4.75737e-07 4.41632e-07 -4.28995e-06
0.00104554 -0.000578987 -1.50056e-06
-0.000578987 0.000128639 9.38142e-06
-1.50056e-06 9.38142e-06 -0.000290326
0.00217667 -0.00085682 1.98671e-05
-0.00085682 0.000621653 9.89278e-06
1.98671e-05 9.89278e-06 0.000113962
0.00158309 -0.000764837 -6.43959e-06
-0.000764837 3.55746e-05 -4.66052e-06
-6.43959e-06 -4.66052e-06 -0.000321354
0.00220378 -0.000679391 -5.73036e-06
-0.000679391 0.000100314 1.36923e-06
-5.73036e-06 1.36923e-06 -4.31427e-05
0.00170342 -0.000522959 3.8812e-05
-0.000522959 0.000527498 -3.20779e-05
3.8812e-05 -3.20779e-05 0.000171856
0.00134073 -0.000408431 2.85622e-05
-0.000408431 0.000564043 -2.68363e-05
2.85622e-05 -2.68363e-05 9.2472e-05
0.000753095 -6.36679e-05 3.42821e-07
-6.36679e-05 0.000125194 5.27124e-06
3.42821e-07 5.27124e-06 -0.000179778
0.00048986 1.00495e-05 2.27536e-06
1.00495e-05 2.23068e-06 1.00561e-06
2.27536e-06 1.00561e-06 -5.02966e-05
0.00135025 -0.000107782 1.10401e-06
-0.000107782 0.000607468 6.57889e-06
1.10401e-06 6.57889e-06 0.000319705
0.000926168 -2.40927e-05 7.36613e-06
-2.40927e-05 0.000357488 -1.02835e-06
7.36613e-06 -1.02835e-06 0.000233539
0.000678441 -4.89049e-05 2.51661e-06
-4.89049e-05 0.000205469 -7.1742e-07
2.51661e-06 -7.1742e-07 7.38388e-08
0.000128963 -4.33106e-05 -3.24399e-06
-4.33106e-05 -0.000208153 -3.01069e-07
-3.24399e-06 -3.01069e-07 -0.000292596
0.00222537 -0.000168899 -4.98573e-07
-0.000168899 -0.000169877 9.95988e-09
-4.98573e-07 9.95988e-09 -6.63716e-05
0.000342943 2.60468e-05 4.05795e-07
2.60468e-05 -4.461e-05 -2.43422e-06
4.05795e-07 -2.43422e-06 -0.000146687
0.000584862 -5.66764e-05 2.59259e-06
-5.66764e-05 0.000106577 9.83861e-07
2.59259e-06 9.83861e-07 1.17212e-05
0.000895281 -0.000125584 3.42042e-06
-0.000125584 0.000254705 1.89491e-07
3.42042e-06 1.89491e-07 0.000152321
0.00226986 -0.000452951 2.04582e-06
-0.000452951 -0.000177282 -7.71098e-07
2.04582e-06 -7.71098e-07 -1.87786e-05
0.00234904 -0.000667525 5.2651e-07
-0.000667525 3.37874e-05 -6.4476e-07
5.2651e-07 -6.4476e-07 -4.00145e-06
0.000504879 -0.000479555 7.08193e-06
-0.000479555 -0.000143422 -7.98363e-08
7.08193e-06 -7.98363e-08 -0.000533488
0.00264398 -0.00101227 1.71289e-05
-0.00101227 0.000771272 3.35113e-07
1.71289e-05 3.35113e-07 0.000242993
0.00233904 -0.000881791 -8.58069e-07
-0.000881791 0.000280678 2.18916e-06
-8.58069e-07 2.18916e-06 3.46088e-05
0.000295226 -2.98161e-05 -8.36854e-07
-2.98161e-05 -5.24045e-05 1.6615e-07
-8.36854e-07 1.6615e-07 -0.000206981
0.00103359 -0.000120496 -9.30899e-07
-0.000120496 0.000432793 3.83217e-06
-9.30899e-07 3.83217e-06 0.000186798
0.00165711 -0.00070593 -1.66145e-06
-0.00070593 0.000501775 1.87539e-06
-1.66145e-06 1.87539e-06 6.96029e-05
0.000146592 -0.000208316 -1.03491e-06
-0.000208316 -9.77123e-06 1.42005e-06
-1.03491e-06 1.42005e-06 -0.000612398
0.00125029 -0.000123326 1.45248e-06
-0.000123326 0.000470331 5.95716e-06
1.45248e-06 5.95716e-06 0.000210926
0.00267811 -0.000319787 -7.13687e-06
-0.000319787 9.86391e-05 8.11485e-07
-7.13687e-06 8.11485e-07 0.00021039
0.00203694 -0.000502224 -1.60652e-05
-0.000502224 -0.000295137 7.48223e-06
-1.60652e-05 7.48223e-06 -6.58455e-05
0.00218137 -0.000801946 -6.58143e-06
-0.000801946 5.67966e-05 -8.33728e-07
-6.58143e-06 -8.33728e-07 -0.00012037
0.00436096 -0.00117928 -8.84741e-06
-0.00117928 0.00153974 -2.09265e-06
-8.84741e-06 -2.09265e-06 0.00118985
0.000204015 -0.000602954 -2.05235e-05
-0.000602954 -0.000346712 -7.41431e-06
-2.05235e-05 -7.41431e-06 -0.000774596
7.78666e-05 -2.81768e-05 3.53128e-07
-2.81768e-05 -0.000204626 1.77072e-07
3.53128e-07 1.77072e-07 -0.000313491
0.000752386 1.48866e-05 -3.55687e-06
1.48866e-05 0.000150374 1.07055e-05
-3.55687e-06 1.07055e-05 4.74607e-05
-0.00164762 -0.000117228 -5.93113e-06
-0.000117228 -0.00132234 -1.68875e-07
-5.93113e-06 -1.68875e-07 -0.00139818
0.00202437 -0.000280422 -2.07282e-05
-0.000280422 0.00104334 2.26009e-05
-2.07282e-05 2.26009e-05 0.000833213
0.000857331 -9.38894e-05 -5.02329e-06
-9.38894e-05 0.000303592 2.55153e-05
-5.02329e-06 2.55153e-05 7.40952e-05
-0.00147105 -0.000116686 5.77414e-06
-0.000116686 -0.000554478 -2.22919e-07
5.77414e-06 -2.22919e-07 -0.0013044
0.000347856 -0.000774585 -1.95749e-05
-0.000774585 4.23018e-05 8.00165e-06
-1.95749e-05 8.00165e-06 -0.000605084
0.00160268 0.000226991 -3.29706e-06
0.000226991 0.000773246 -6.56115e-06
-3.29706e-06 -6.56115e-06 0.00055521
-0.000432968 8.95634e-05 -4.40061e-06
8.95634e-05 -0.000516826 -2.161e-06
-4.40061e-06 -2.161e-06 -0.000746782
0.00253751 0.000331808 1.4666e-06
0.000331808 3.13908e-06 1.29676e-06
1.4666e-06 1.29676e-06 9.74459e-05
0.00254193 0.000591375 1.20443e-05
0.000591375 0.000227277 5.7391e-06
1.20443e-05 5.7391e-06 0.000152841
0.00213806 0.000746061 6.25054e-06
0.000746061 0.000253469 2.73071e-06
6.25054e-06 2.73071e-06 -7.50715e-05
0.0015822 0.00050225 -1.70691e-06
0.00050225 0.000465794 2.30859e-07
-1.70691e-06 2.30859e-07 0.00012642
0.00170206 0.000709552 1.01704e-06
0.000709552 0.000334762 2.04834e-06
1.01704e-06 2.04834e-06 -9.89348e-05
0.00196007 0.000293781 6.68249e-07
0.000293781 0.00100079 -4.42144e-07
6.68249e-07 -4.42144e-07 0.000773035
0.00274697 0.000412874 5.36364e-06
0.000412874 0.000185974 2.68118e-06
5.36364e-06 2.68118e-06 0.000349391
0.00119616 0.000400364 -3.68181e-06
0.000400364 0.000402027 2.96603e-06
-3.68181e-06 2.96603e-06 0.000107525
0.00168339 0.000608979 3.35727e-06
0.000608979 0.000466303 -1.9765e-07
3.35727e-06 -1.9765e-07 4.74181e-05
0.00227057 0.000769081 -3.19583e-06
0.000769081 0.000179879 -3.5588e-06
-3.19583e-06 -3.5588e-06 -2.26135e-05
0.00182304 0.000758312 -4.41987e-06
0.000758312 0.000344481 5.21184e-06
-4.41987e-06 5.21184e-06 -8.43519e-05
0.00307882 0.00108499 4.18101e-05
0.00108499 -0.000549417 7.87813e-06
4.18101e-05 7.87813e-06 -0.000417225
0.000472724 0.000270596 -4.12124e-06
0.000270596 0.000161709 2.48859e-06
-4.12124e-06 2.48859e-06 -8.97569e-05
0.00282743 0.000757292 -8.26419e-05
0.000757292 0.000348977 -3.70752e-05
-8.26419e-05 -3.70752e-05 0.000308583
0.000723514 0.000404607 -7.49942e-06
0.000404607 -5.29222e-05 3.4472e-06
-7.49942e-06 3.4472e-06 -0.000370788
-2.8412e-05 0.000456527 6.98837e-07
0.000456527 -0.000546844 -1.40636e-05
6.98837e-07 -1.40636e-05 -0.000937432
0.00124516 0.000807991 -3.53919e-05
0.000807991 -0.000177537 -1.0822e-05
-3.53919e-05 -1.0822e-05 -0.000441487
0.0145623 0.000391101 -0.000483946
0.000391101 0.00228024 -7.29027e-05
-0.000483946 -7.29027e-05 0.00176353
0.00371044 0.00167754 -5.156e-05
0.00167754 -0.0018659 -7.20577e-05
-5.156e-05 -7.20577e-05 -0.000678458
0.000281965 0.00123311 1.00049e-05
0.00123311 -0.000888044 1.4521e-06
1.00049e-05 1.4521e-06 -0.00113502
0.001916 -0.00215559 0.00145763
-0.00215559 0.00178254 0.000303653
0.00145763 0.000303653 -0.0014718
0.0213365 -0.00827938 -3.68186e-05
-0.00827938 0.00811252 8.01824e-05
-3.68186e-05 8.01824e-05 0.00580455
-0.000143378 0.000105477 7.86687e-06
0.000105477 -0.000246352 2.19566e-06
7.86687e-06 2.19566e-06 -0.000342042
0.00089914 0.000114112 -4.78625e-07
0.000114112 0.00036549 -2.70434e-06
-4.78625e-07 -2.70434e-06 0.000287516
0.00206583 0.000272299 1.1499e-06
0.000272299 0.0011071 -2.55446e-07
1.1499e-06 -2.55446e-07 0.00098543
0.000495996 -5.56422e-05 -7.31581e-07
-5.56422e-05 6.79789e-05 -2.71052e-06
-7.31581e-07 -2.71052e-06 -6.36987e-05
0.000339505 6.53402e-05 -1.12806e-06
6.53402e-05 -4.63838e-05 -3.03808e-06
-1.12806e-06 -3.03808e-06 -0.000190099
0.000786344 -2.1117e-05 -4.06558e-08
-2.1117e-05 0.000244021 -1.1424e-06
-4.06558e-08 -1.1424e-06 9.35688e-05
0.000760831 7.61625e-05 -4.17593e-06
7.61625e-05 0.000197112 1.05092e-05
-4.17593e-06 1.05092e-05 9.38716e-05
0.000212086 7.91046e-05 2.59821e-06
7.91046e-05 -0.000158341 9.61247e-06
2.59821e-06 9.61247e-06 -0.000204809
0.000724529 0.000142075 -1.42042e-06
0.000142075 0.000224309 -4.29025e-07
-1.42042e-06 -4.29025e-07 4.8531e-05
0.000406266 -9.55616e-06 4.15491e-07
-9.55616e-06 -7.609e-06 9.91618e-07
4.15491e-07 9.91618e-07 -0.000135973
0.000704461 5.23497e-05 -6.40214e-07
5.23497e-05 0.000194918 1.3165e-08
-6.40214e-07 1.3165e-08 2.96136e-05
0.000350219 8.82912e-05 -1.21617e-06
8.82912e-05 -4.34106e-05 -1.68324e-06
-1.21617e-06 -1.68324e-06 -9.34562e-05
0.000666971 0.000115878 -1.48946e-06
0.000115878 0.000148651 -1.68911e-07
-1.48946e-06 -1.68911e-07 5.58537e-06
0.00186919 0.00022353 -1.24985e-06
0.00022353 0.000927123 -1.11314e-06
-1.24985e-06 -1.11314e-06 0.000739618
0.000252743 0.000102161 3.97753e-07
0.000102161 -3.07787e-05 -3.59197e-06
3.97753e-07 -3.59197e-06 -0.000189698
0.000927968 0.000108867 3.1912e-06
0.000108867 0.000336335 -3.67015e-08
3.1912e-06 -3.67015e-08 0.000169359
0.000369321 -1.33646e-05 1.22862e-06
-1.33646e-05 -3.23467e-05 -1.47785e-07
1.22862e-06 -1.47785e-07 -0.000192043
0.000347781 -7.2279e-05 -7.72778e-07
-7.2279e-05 -4.52131e-05 1.91105e-06
-7.72778e-07 1.91105e-06 -0.000178268
0.000720388 -3.33982e-05 -7.9237e-07
-3.33982e-05 0.00020377 -6.97619e-07
-7.9237e-07 -6.97619e-07 3.93279e-05
0.00125561 -6.53087e-06 6.58049e-07
-6.53087e-06 0.000529508 -1.02638e-05
6.58049e-07 -1.02638e-05 0.000373453
0.000730095 -4.93308e-05 -1.01194e-06
-4.93308e-05 0.000250311 -1.22393e-06
-1.01194e-06 -1.22393e-06 9.185e-05
0.000762274 -7.1312e-05 1.90434e-06
-7.1312e-05 0.000246622 -7.05678e-07
1.90434e-06 -7.05678e-07 8.35627e-05
0.000663029 -0.000124326 -1.78664e-06
-0.000124326 0.000157085 2.86565e-06
-1.78664e-06 2.86565e-06 2.41589e-05
0.000295981 -2.42034e-05 1.49129e-07
-2.42034e-05 -7.86917e-05 1.10275e-06
1.49129e-07 1.10275e-06 -0.000210566
0.000503156 -5.57869e-05 -1.76577e-06
-5.57869e-05 2.8793e-05 3.86911e-06
-1.76577e-06 3.86911e-06 -4.98924e-05
0.000500532 -3.76991e-05 1.94913e-06
-3.76991e-05 3.44784e-05 1.00328e-07
1.94913e-06 1.00328e-07 -4.84563e-05
0.00044325 2.97026e-06 2.8693e-06
2.97026e-06 -2.51131e-05 6.42439e-06
2.8693e-06 6.42439e-06 -5.01828e-05
0.000515465 5.12178e-05 -1.97983e-06
5.12178e-05 3.77703e-05 -3.38234e-06
-1.97983e-06 -3.38234e-06 -4.00161e-05
0.000406118 3.16382e-05 3.59504e-07
3.16382e-05 -4.96283e-05 7.21798e-08
3.59504e-07 7.21798e-08 -7.42543e-05
0.0025387 4.78604e-06 5.32569e-06
4.78604e-06 0.00126971 5.38518e-06
5.32569e-06 5.38518e-06 0.00128218
0.000469031 3.91626e-05 -3.64653e-06
3.91626e-05 -1.49744e-05 -7.22475e-06
-3.64653e-06 -7.22475e-06 -4.01002e-05
0.00170802 -5.26489e-06 -3.4395e-06
-5.26489e-06 0.000746025 1.66027e-07
-3.4395e-06 1.66027e-07 0.000754122
0.000807527 -1.13384e-05 4.97643e-07
-1.13384e-05 0.000172718 -2.31939e-06
4.97643e-07 -2.31939e-06 0.000178043
0.000444462 4.8104e-06 -4.22844e-07
4.8104e-06 -2.78784e-05 -1.73539e-06
-4.22844e-07 -1.73539e-06 -6.93546e-05
0.000536936 -3.76971e-05 8.04703e-08
-3.76971e-05 3.6751e-05 9.24027e-09
8.04703e-08 9.24027e-09 -1.50163e-05
0.000524009 1.23014e-05 8.288e-07
1.23014e-05 -4.60631e-06 -3.34605e-06
8.288e-07 -3.34605e-06 -1.55428e-05
0.000476436 -3.70292e-05 -1.32722e-06
-3.70292e-05 -8.09959e-06 4.45546e-07
-1.32722e-06 4.45546e-07 -5.89666e-05
0.000798753 2.75949e-05 -1.76017e-07
2.75949e-05 0.000171075 -7.21259e-07
-1.76017e-07 -7.21259e-07 0.00015924
0.00201761 5.24528e-05 6.18875e-06
5.24528e-05 0.00094569 -4.5761e-06
6.18875e-06 -4.5761e-06 0.000959127
0.000460963 3.35799e-05 1.06184e-06
3.35799e-05 -3.50659e-05 3.77598e-06
1.06184e-06 3.77598e-06 -5.34753e-05
0.0023191 7.68815e-05 -5.82799e-06
7.68815e-05 0.00114464 1.15922e-06
-5.82799e-06 1.15922e-06 0.0011526
0.00254231 0.00010553 -1.57455e-06
0.00010553 0.00129377 5.69413e-06
-1.57455e-06 5.69413e-06 0.00129503
0.00230136 0.000173054 -3.13539e-06
0.000173054 -5.28559e-05 -7.39653e-07
-3.13539e-06 -7.39653e-07 1.16453e-05
0.00211785 -6.35324e-06 1.80888e-06
-6.35324e-06 -7.14998e-05 -4.3919e-08
1.80888e-06 -4.3919e-08 -8.02094e-06
0.00203353 6.52497e-05 -6.8768e-06
6.52497e-05 -0.000213976 3.29372e-06
-6.8768e-06 3.29372e-06 -0.000143766
0.00256897 0.00060198 9.1975e-05
0.00060198 -0.00141858 1.95797e-05
9.1975e-05 1.95797e-05 -0.000710774
0.00236449 -3.05298e-05 -3.77767e-07
-3.05298e-05 -7.6518e-05 -2.74379e-06
-3.77767e-07 -2.74379e-06 2.67661e-05
0.00219981 6.44354e-05 6.35307e-07
6.44354e-05 8.72215e-05 -9.26257e-06
6.35307e-07 -9.26257e-06 0.000228492
0.00325198 -4.08248e-05 -2.47026e-05
-4.08248e-05 0.000835346 -4.45411e-07
-2.47026e-05 -4.45411e-07 0.000862154
0.00324763 0.000109475 -1.45636e-05
0.000109475 -0.00185265 -3.69466e-05
-1.45636e-05 -3.69466e-05 -0.000804693
0.00258465 0.000207522 0.000125106
0.000207522 -0.000800272 4.9457e-05
0.000125106 4.9457e-05 -0.000283483
0.000591727 8.75282e-05 -2.98898e-07
8.75282e-05 0.000109962 -7.48979e-07
-2.98898e-07 -7.48979e-07 1.68625e-05
0.000576376 -2.9646e-06 4.52743e-07
-2.9646e-06 0.000111341 -1.0953e-07
4.52743e-07 -1.0953e-07 9.3735e-06
0.000347787 -9.05271e-05 -6.31656e-06
-9.05271e-05 -1.91828e-05 8.93325e-07
-6.31656e-06 8.93325e-07 -0.00013468
0.000427108 -5.06204e-05 -3.98176e-06
-5.06204e-05 3.43776e-05 2.12885e-06
-3.98176e-06 2.12885e-06 -8.325e-05
0.0023076 -0.000188866 -3.27091e-06
-0.000188866 -0.000143753 3.76778e-09
-3.27091e-06 3.76778e-09 -2.25562e-05
0.00227206 -0.000459841 9.525e-07
-0.000459841 -0.000149 -2.43491e-06
9.525e-07 -2.43491e-06 -2.69691e-05
0.00225823 -0.000658658 -3.55542e-06
-0.000658658 -1.32999e-05 1.31162e-06
-3.55542e-06 1.31162e-06 -5.07031e-05
0.00361168 -0.000832748 1.77977e-05
-0.000832748 0.00163979 1.3768e-05
1.77977e-05 1.3768e-05 0.00118445
0.000414463 -0.000772685 -1.89719e-06
-0.000772685 -0.000478958 6.15048e-07
-1.89719e-06 6.15048e-07 -0.000959776
0.00224729 -0.000873897 -1.18816e-07
-0.000873897 0.000246174 -2.59729e-06
-1.18816e-07 -2.59729e-06 -8.02695e-06
0.000957838 -0.000685346 1.93087e-05
-0.000685346 7.5812e-05 -1.84536e-05
1.93087e-05 -1.84536e-05 -0.000396503
0.00362898 -0.000310689 9.68593e-06
-0.000310689 0.00178945 -4.07666e-06
9.68593e-06 -4.07666e-06 0.00139649
-1.44751e-05 -1.85391e-05 -6.08928e-06
-1.85391e-05 -0.000384933 4.54354e-06
-6.08928e-06 4.54354e-06 -0.00058989
0.000638963 -5.41263e-05 3.82252e-06
-5.41263e-05 0.000139678 -6.26768e-07
3.82252e-06 -6.26768e-07 4.56953e-05
0.000605147 -0.000133972 -3.43093e-06
-0.000133972 0.000179331 -1.24696e-05
-3.43093e-06 -1.24696e-05 -6.93742e-05
0.000453032 -2.87713e-05 5.42569e-06
-2.87713e-05 4.52462e-05 -7.41317e-07
5.42569e-06 -7.41317e-07 -0.000104873
0.000603264 1.39242e-06 6.4909e-07
1.39242e-06 0.000144711 1.86539e-06
6.4909e-07 1.86539e-06 2.97318e-05
0.000562831 -7.17068e-05 -7.51762e-06
-7.17068e-05 4.7918e-05 -6.28076e-07
-7.51762e-06 -6.28076e-07 -4.10538e-05
0.00261937 -0.00030197 2.00232e-06
-0.00030197 7.4499e-05 1.37856e-06
2.00232e-06 1.37856e-06 0.000202652
0.000493011 -2.45075e-05 -7.05494e-07
-2.45075e-05 7.35839e-05 1.8333e-06
-7.05494e-07 1.8333e-06 -5.57175e-05
0.000844575 -4.34592e-05 6.51061e-06
-4.34592e-05 0.000220848 -1.29255e-07
6.51061e-06 -1.29255e-07 0.000107427
-0.000513446 -3.7073e-05 3.74854e-06
-3.7073e-05 -0.000562498 -1.48162e-08
3.74854e-06 -1.48162e-08 -0.000622883
0.0020361 -0.000514805 6.59248e-07
-0.000514805 -0.000318689 -1.25454e-06
6.59248e-07 -1.25454e-06 -0.000104533
0.0022668 -0.000809387 2.15814e-06
-0.000809387 9.95805e-05 -1.28724e-06
2.15814e-06 -1.28724e-06 -7.15066e-05
0.00189526 -0.000833605 -4.28034e-06
-0.000833605 0.000593349 3.21645e-07
-4.28034e-06 3.21645e-07 0.00012447
0.00259291 -0.00100552 -6.08442e-06
-0.00100552 0.00057544 1.63784e-06
-6.08442e-06 1.63784e-06 0.000245817
0.0014634 -0.000156422 3.00465e-06
-0.000156422 0.000677442 -2.45687e-06
3.00465e-06 -2.45687e-06 0.000477762
0.000219225 -3.5114e-05 7.35002e-06
-3.5114e-05 -0.00012154 9.221e-06
7.35002e-06 9.221e-06 -0.000343982
0.00176418 -0.00100072 2.21457e-06
-0.00100072 0.00091278 -2.82306e-06
2.21457e-06 -2.82306e-06 0.000188064
0.00102369 -0.000384983 -7.02415e-06
-0.000384983 0.000432511 -1.04204e-06
-7.02415e-06 -1.04204e-06 -6.57859e-05
0.0033717 -0.000442101 -4.28301e-05
-0.000442101 0.00042446 4.25347e-06
-4.28301e-05 4.25347e-06 0.000681155
0.00262444 -0.000671402 -4.15301e-05
-0.000671402 0.000221912 1.32483e-05
-4.15301e-05 1.32483e-05 0.000281381
0.00253508 -0.000941597 2.90135e-06
-0.000941597 0.000436709 -8.62161e-06
2.90135e-06 -8.62161e-06 0.000116966
0.00299746 -0.00100562 3.54121e-06
-0.00100562 0.00101286 5.14176e-06
3.54121e-06 5.14176e-06 0.0006715
0.000122951 -5.58532e-05 -2.31143e-06
-5.58532e-05 -9.64418e-05 -7.66777e-06
-2.31143e-06 -7.66777e-06 -0.000221412
0.000462037 -0.000124537 -1.1293e-05
-0.000124537 5.72631e-05 -4.93215e-06
-1.1293e-05 -4.93215e-06 -0.000120945
0.000130538 -0.000182643 -6.31779e-06
-0.000182643 0.000122896 4.92974e-05
-6.31779e-06 4.92974e-05 -0.000203099
-0.000549724 -0.000828403 -3.62433e-06
-0.000828403 0.000230114 -2.71314e-05
-3.62433e-06 -2.71314e-05 -0.000822032
0.00255136 -0.000464449 5.67954e-05
-0.000464449 -0.0051968 -1.87655e-05
5.67954e-05 -1.87655e-05 -0.00524348
0.00230887 0.000281696 4.12865e-07
0.000281696 0.00119239 -3.79645e-06
4.12865e-07 -3.79645e-06 0.000968246
0.00121332 0.000347757 -5.45091e-07
0.000347757 0.00039981 -7.72519e-07
-5.45091e-07 -7.72519e-07 0.000128491
0.00191124 0.0003378 5.78751e-05
0.0003378 -0.000277522 1.79456e-05
5.78751e-05 1.79456e-05 -9.03996e-05
0.0025549 0.000777759 2.34374e-05
0.000777759 0.000348258 9.54345e-06
2.34374e-05 9.54345e-06 0.000156676
0.00217009 0.000802603 7.39096e-06
0.000802603 0.000550299 1.06388e-05
7.39096e-06 1.06388e-05 0.000108341
0.00122899 0.000559094 6.05736e-06
0.000559094 0.000233001 6.25675e-06
6.05736e-06 6.25675e-06 -0.000189015
0.00545009 0.00140566 0.000115685
0.00140566 0.000366611 3.48482e-05
0.000115685 3.48482e-05 0.000294235
0.00149073 0.000312835 5.38072e-06
0.000312835 0.000755189 8.83075e-08
5.38072e-06 8.83075e-08 0.000515265
0.00263236 0.000717268 -2.34274e-05
0.000717268 0.000231626 7.23766e-07
-2.34274e-05 7.23766e-07 0.000222671
0.000921717 0.000429582 -4.70725e-06
0.000429582 0.000107219 3.52342e-06
-4.70725e-06 3.52342e-06 -0.000222956
0.00144581 0.000649845 7.87871e-07
0.000649845 0.000307086 -6.4631e-06
7.87871e-07 -6.4631e-06 -0.000122409
0.00222743 0.000892167 -1.13291e-05
0.000892167 0.000348874 -4.94717e-07
-1.13291e-05 -4.94717e-07 5.56035e-05
0.00462397 -0.000652107 -0.000162625
-0.000652107 -0.00469919 -8.456e-05
-0.000162625 -8.456e-05 -0.00556893
0.00703213 0.00173636 -0.000139005
0.00173636 -0.000282488 -5.99785e-05
-0.000139005 -5.99785e-05 0.000672849
0.00103575 0.00122405 -1.47279e-06
0.00122405 -0.000453044 6.15982e-06
-1.47279e-06 6.15982e-06 -0.000806805
0.000680547 -0.00193633 0.00052567
-0.00193633 0.0028119 0.000207472
0.00052567 0.000207472 -8.71657e-05
0.013172 -0.00839146 -0.000475272
-0.00839146 0.00625419 -0.000433425
-0.000475272 -0.000433425 0.00378355
0.000777294 0.000259709 -1.58632e-05
0.000259709 0.000225926 1.4559e-09
-1.58632e-05 1.4559e-09 1.18609e-05
0.00117472 0.000543825 0.000737005
0.000543825 0.00406746 7.09716e-05
0.000737005 7.09716e-05 0.00209656
0.00355037 -0.00299058 -0.000179886
-0.00299058 0.00558612 -0.000229741
-0.000179886 -0.000229741 0.000545468
0.00302885 0.00113644 -5.37657e-05
0.00113644 0.000578742 -1.24257e-05
-5.37657e-05 -1.24257e-05 0.000396187
0.000729336 0.000338646 -2.66143e-05
0.000338646 -1.26794e-06 -4.33598e-06
-2.66143e-05 -4.33598e-06 -0.00029074
0.000791484 0.000667925 -3.04515e-05
0.000667925 4.34622e-06 -2.61441e-05
-3.04515e-05 -2.61441e-05 -0.000358656
-0.000106069 0.00112298 5.43105e-05
0.00112298 -0.000819387 9.62919e-05
5.43105e-05 9.62919e-05 -0.00119132
0.0124537 0.0023915 5.44977e-05
0.0023915 0.00142228 -2.39275e-05
5.44977e-05 -2.39275e-05 0.000494978
0.00476033 0.00255981 -4.12493e-05
0.00255981 -0.000136449 -5.15263e-05
-4.12493e-05 -5.15263e-05 0.000384055
0.0149073 -0.00643111 0.000990631
-0.00643111 0.00467949 0.000521053
0.000990631 0.000521053 0.00118356
0.0128154 -0.00296001 -8.84078e-05
-0.00296001 0.00350027 0.00061071
-8.84078e-05 0.00061071 0.00195036
0.000404905 9.54424e-05 5.37406e-06
9.54424e-05 9.82475e-05 -3.73486e-06
5.37406e-06 -3.73486e-06 1.35723e-05
0.000160775 0.000127774 8.43745e-06
0.000127774 -5.1318e-05 1.17407e-06
8.43745e-06 1.17407e-06 -0.000157306
0.00191291 0.000297468 2.59312e-06
0.000297468 0.00102835 -1.34125e-06
2.59312e-06 -1.34125e-06 0.00085064
0.000577981 8.4876e-06 8.64818e-07
8.4876e-06 0.000124416 -1.80164e-07
8.64818e-07 -1.80164e-07 -1.99614e-05
0.000612652 7.00046e-05 -7.53817e-07
7.00046e-05 0.000129759 -2.02368e-06
-7.53817e-07 -2.02368e-06 -2.86484e-05
4.33578e-05 3.54723e-05 -1.84971e-06
3.54723e-05 -0.00021741 9.183e-07
-1.84971e-06 9.183e-07 -0.000370089
0.000724717 0.000114735 -7.77828e-06
0.000114735 0.000204023 2.16061e-06
-7.77828e-06 2.16061e-06 5.69531e-05
-0.000542275 5.66238e-05 -3.91386e-06
5.66238e-05 -0.000610487 3.40017e-07
-3.91386e-06 3.40017e-07 -0.000658756
0.000351395 -1.36476e-05 1.44319e-07
-1.36476e-05 -3.69949e-05 8.70253e-07
1.44319e-07 8.70253e-07 -0.000173909
0.00127434 0.000141595 1.82371e-06
0.000141595 0.000539491 1.13424e-07
1.82371e-06 1.13424e-07 0.000368763
0.000583932 5.74574e-05 9.77502e-08
5.74574e-05 0.000132636 1.47958e-07
9.77502e-08 1.47958e-07 -3.99424e-05
0.000761326 3.5587e-05 1.28355e-06
3.5587e-05 0.000240337 -4.1845e-07
1.28355e-06 -4.1845e-07 6.12911e-05
0.000323334 0.000103575 -5.23364e-07
0.000103575 1.26651e-05 -2.71455e-06
-5.23364e-07 -2.71455e-06 -0.000143615
0.0014402 0.000133657 -1.85259e-06
0.000133657 0.000669391 -3.18447e-06
-1.85259e-06 -3.18447e-06 0.000500837
-0.000371671 5.3298e-05 -6.00251e-06
5.3298e-05 -0.000286256 -5.7146e-06
-6.00251e-06 -5.7146e-06 -0.000504932
0.000466306 -8.11495e-05 1.97768e-07
-8.11495e-05 5.20777e-05 -5.72324e-07
1.97768e-07 -5.72324e-07 -0.00011847
0.000779265 -8.27941e-05 -1.13564e-06
-8.27941e-05 0.000258034 -7.18712e-07
-1.13564e-06 -7.18712e-07 7.82287e-05
0.000774732 -4.99573e-05 -2.36211e-07
-4.99573e-05 0.000252663 -6.36165e-07
-2.36211e-07 -6.36165e-07 7.61515e-05
0.000717946 -2.74492e-05 -3.71848e-06
-2.74492e-05 0.000180065 3.47769e-07
-3.71848e-06 3.47769e-07 4.17755e-05
0.00109631 2.0696e-06 -6.36942e-06
2.0696e-06 0.000486171 -5.2636e-06
-6.36942e-06 -5.2636e-06 0.000286867
0.000781064 -5.95614e-05 2.7495e-06
-5.95614e-05 0.000235167 -9.63389e-06
2.7495e-06 -9.63389e-06 9.99568e-05
-0.00129468 -2.28601e-06 -3.16363e-06
-2.28601e-06 -0.00104819 -6.78052e-06
-3.16363e-06 -6.78052e-06 -0.00116267
0.000407864 -4.45299e-05 2.13919e-06
-4.45299e-05 3.83602e-05 -2.04185e-06
2.13919e-06 -2.04185e-06 -0.000136057
0.000346005 -7.80961e-05 2.16965e-06
-7.80961e-05 -2.98975e-05 2.46051e-07
2.16965e-06 2.46051e-07 -0.00016529
0.000714086 -0.000103494 -1.24699e-06
-0.000103494 0.000220679 -1.37207e-08
-1.24699e-06 -1.37207e-08 6.91975e-05
0.000513173 -8.38965e-05 -1.08151e-06
-8.38965e-05 4.58059e-05 2.01018e-06
-1.08151e-06 2.01018e-06 -7.01407e-05
0.000409054 -8.28898e-05 3.37233e-06
-8.28898e-05 -8.02811e-06 8.24582e-07
3.37233e-06 8.24582e-07 -0.000146628
0.000542665 -0.000113778 8.15104e-09
-0.000113778 7.85956e-05 2.02028e-07
8.15104e-09 2.02028e-07 -5.29719e-05
0.000539174 -5.48071e-05 -1.91769e-06
-5.48071e-05 4.82176e-05 4.56513e-06
-1.91769e-06 4.56513e-06 -3.1023e-05
0.000382832 -1.00234e-05 8.34659e-07
-1.00234e-05 -8.67939e-06 -9.7827e-07
8.34659e-07 -9.7827e-07 -0.000152143
0.000492571 9.15853e-07 2.20524e-06
9.15853e-07 2.98246e-05 1.26035e-07
2.20524e-06 1.26035e-07 -5.36069e-05
0.00145141 -2.89192e-05 -9.00873e-06
-2.89192e-05 0.000598615 6.82931e-06
-9.00873e-06 6.82931e-06 0.000577632
0.000483018 6.65253e-05 -2.03884e-06
6.65253e-05 2.35791e-05 -3.31617e-06
-2.03884e-06 -3.31617e-06 -5.89193e-05
0.000871778 -1.59348e-05 -3.83844e-06
-1.59348e-05 0.000242453 7.29394e-07
-3.83844e-06 7.29394e-07 0.000219455
0.00078256 3.46949e-06 -2.81585e-06
3.46949e-06 0.000172005 4.82759e-06
-2.81585e-06 4.82759e-06 0.0001765
0.000396942 -1.73492e-05 3.22063e-06
-1.73492e-05 -5.61331e-05 -4.90887e-06
3.22063e-06 -4.90887e-06 -8.00213e-05
0.00256848 3.65016e-06 6.85767e-06
3.65016e-06 0.00128871 -1.22722e-08
6.85767e-06 -1.22722e-08 0.00130109
0.000889897 2.6284e-06 -8.83311e-06
2.6284e-06 0.000235187 -5.36878e-06
-8.83311e-06 -5.36878e-06 0.000239093
0.000497649 6.41055e-05 2.05411e-06
6.41055e-05 5.37045e-05 1.0092e-06
2.05411e-06 1.0092e-06 -4.57195e-05
0.000461297 5.1821e-05 -2.60936e-06
5.1821e-05 -6.4621e-06 -2.22292e-06
-2.60936e-06 -2.22292e-06 -5.29981e-05
0.0004818 -4.12708e-06 1.60059e-06
-4.12708e-06 7.04553e-06 1.34245e-07
1.60059e-06 1.34245e-07 -4.18238e-05
0.000484045 9.05126e-06 7.48087e-07
9.05126e-06 -2.87336e-05 -3.09856e-06
7.48087e-07 -3.09856e-06 -3.81956e-05
0.000553756 -6.1674e-05 -1.68741e-06
-6.1674e-05 5.51805e-05 2.17358e-06
-1.68741e-06 2.17358e-06 -9.92286e-07
0.000479694 1.32194e-05 8.82478e-08
1.32194e-05 -3.26767e-05 -7.15561e-07
8.82478e-08 -7.15561e-07 -4.34037e-05
0.00201028 3.64082e-05 4.19597e-06
3.64082e-05 0.000936825 -4.63727e-06
4.19597e-06 -4.63727e-06 0.000952528
0.0010975 3.55798e-05 -5.65541e-08
3.55798e-05 0.000360454 1.65362e-06
-5.65541e-08 1.65362e-06 0.00034976
0.00146392 4.52201e-05 -2.9065e-07
4.52201e-05 0.000598336 1.42639e-06
-2.9065e-07 1.42639e-06 0.000606983
0.000874193 4.88636e-05 -6.76177e-06
4.88636e-05 0.000233371 8.0374e-06
-6.76177e-06 8.0374e-06 0.000234543
0.000850974 0.000412871 7.83407e-05
0.000412871 -0.00224318 1.65627e-05
7.83407e-05 1.65627e-05 -0.00151234
0.00233642 -5.05206e-05 -4.59987e-06
-5.05206e-05 -6.04632e-05 6.08171e-06
-4.59987e-06 6.08171e-06 3.48468e-05
0.00219821 7.01642e-05 3.14257e-05
7.01642e-05 0.000112955 -1.25406e-05
3.14257e-05 -1.25406e-05 0.00023259
0.00270013 0.000369295 -5.17821e-05
0.000369295 -0.0017659 -3.49503e-05
-5.17821e-05 -3.49503e-05 -0.000478693
0.00242476 0.000114754 4.34427e-05
0.000114754 -0.000680348 -1.73751e-06
4.34427e-05 -1.73751e-06 -0.000273909
0.00258949 -5.0698e-05 3.08968e-06
-5.0698e-05 0.000349529 -9.41616e-06
3.08968e-06 -9.41616e-06 0.000405792
0.00473105 -0.000343766 -5.72048e-05
-0.000343766 0.0010903 -1.82736e-05
-5.72048e-05 -1.82736e-05 0.00121998
0.00300518 -0.000230902 2.73339e-05
-0.000230902 -0.000426809 5.16434e-06
2.73339e-05 5.16434e-06 0.000148256
0.0158748 -0.000834872 4.47355e-05
-0.000834872 0.00275243 -1.25574e-05
4.47355e-05 -1.25574e-05 0.00166607
0.0151699 0.00540681 0.00139653
0.00540681 0.0059386 -0.000457106
0.00139653 -0.000457106 0.00306419
0.0184452 0.00628267 3.91279e-05
0.00628267 0.0119036 1.0027e-05
3.91279e-05 1.0027e-05 0.00910525
0.000160252 -9.86336e-05 -3.66116e-07
-9.86336e-05 -0.000140674 -6.15785e-07
-3.66116e-07 -6.15785e-07 -0.000251019
0.000548364 -7.50163e-06 1.55875e-06
-7.50163e-06 8.21321e-05 -1.13185e-07
1.55875e-06 -1.13185e-07 -1.11495e-05
0.000624708 -8.75371e-05 -3.48032e-08
-8.75371e-05 0.000148019 3.31468e-06
-3.48032e-08 3.31468e-06 3.95193e-05
0.000541629 -3.23829e-05 7.0239e-07
-3.23829e-05 9.10652e-05 4.66636e-07
7.0239e-07 4.66636e-07 -2.4339e-05
0.000917966 0.000109192 -5.19757e-06
0.000109192 0.000368834 8.30962e-07
-5.19757e-06 8.30962e-07 0.000232327
0.000451615 0.000127625 4.60374e-07
0.000127625 6.69496e-06 7.86654e-06
4.60374e-07 7.86654e-06 -0.000113136
0.000969337 -7.18175e-06 2.38315e-06
-7.18175e-06 0.000375824 4.00898e-06
2.38315e-06 4.00898e-06 0.000237799
0.000510059 -2.80946e-05 -1.56574e-06
-2.80946e-05 6.71158e-05 1.36308e-06
-1.56574e-06 1.36308e-06 -4.65947e-05
0.00256512 -0.00028565 1.1398e-05
-0.00028565 3.56645e-05 -8.57574e-07
1.1398e-05 -8.57574e-07 0.000194782
0.00207811 -0.000538164 1.48292e-05
-0.000538164 -0.000330206 -7.00096e-06
1.48292e-05 -7.00096e-06 -0.000131062
0.0022821 -0.000812073 2.66178e-07
-0.000812073 0.000103582 2.9908e-06
2.66178e-07 2.9908e-06 -6.17884e-05
0.00216719 -0.000834929 1.73924e-05
-0.000834929 0.000714166 7.90564e-06
1.73924e-05 7.90564e-06 0.000272631
0.00197571 -0.000963257 -1.5759e-05
-0.000963257 0.000233454 4.49681e-06
-1.5759e-05 4.49681e-06 -9.8723e-05
0.00224885 -0.00108629 3.46029e-05
-0.00108629 0.00126093 -1.04397e-05
3.46029e-05 -1.04397e-05 0.000456947
0.00469215 -0.000738885 6.2647e-06
-0.000738885 0.00236932 3.64234e-06
6.2647e-06 3.64234e-06 0.00196684
0.000900603 -0.000211118 6.6426e-06
-0.000211118 0.000361724 -4.45159e-05
6.6426e-06 -4.45159e-05 6.7985e-05
0.000588405 -7.72004e-05 3.44025e-06
-7.72004e-05 4.21122e-05 5.18664e-07
3.44025e-06 5.18664e-07 -5.72036e-05
0.000825149 -8.0769e-05 9.62503e-06
-8.0769e-05 0.000244492 -1.78196e-05
9.62503e-06 -1.78196e-05 6.5015e-05
0.00108224 -5.00954e-05 3.69048e-06
-5.00954e-05 0.000432082 1.96127e-06
3.69048e-06 1.96127e-06 0.000292052
0.000784865 2.36001e-05 6.78382e-06
2.36001e-05 0.000256893 -5.21373e-06
6.78382e-06 -5.21373e-06 0.000222158
0.00241309 -0.000393997 -5.81682e-07
-0.000393997 -7.3241e-05 3.17332e-06
-5.81682e-07 3.17332e-06 0.000203669
0.000482511 -8.04821e-05 -3.17152e-06
-8.04821e-05 0.000114338 -1.49937e-07
-3.17152e-06 -1.49937e-07 -1.84948e-05
0.00117566 -0.000171399 -7.49504e-06
-0.000171399 0.000480231 5.12525e-06
-7.49504e-06 5.12525e-06 0.000321604
0.00173786 -0.00062115 7.46713e-06
-0.00062115 -0.000295573 -3.5259e-06
7.46713e-06 -3.5259e-06 -0.000188431
0.00182059 -0.000835993 1.16861e-06
-0.000835993 3.7125e-05 1.72377e-07
1.16861e-06 1.72377e-07 -0.000211955
0.000882022 -0.000758095 -1.03296e-06
-0.000758095 -0.000195518 -4.5092e-06
-1.03296e-06 -4.5092e-06 -0.000482043
0.00166698 -0.00034499 7.11163e-07
-0.00034499 0.000942801 -2.43951e-05
7.11163e-07 -2.43951e-05 0.000566972
0.00156967 -0.000648421 4.71698e-06
-0.000648421 0.00122806 3.48429e-06
4.71698e-06 3.48429e-06 0.000395501
0.00501141 -0.000797319 -5.15943e-05
-0.000797319 0.00119167 2.20719e-05
-5.15943e-05 2.20719e-05 0.00138617
0.00419579 -0.000965725 -4.90043e-05
-0.000965725 0.00135847 1.37294e-05
-4.90043e-05 1.37294e-05 0.00116751
0.0020819 -0.000959044 8.78832e-06
-0.000959044 0.000283131 -2.60969e-06
8.78832e-06 -2.60969e-06 2.35186e-05
-0.000748403 -0.000447558 -5.64746e-06
-0.000447558 -0.000823242 1.53469e-05
-5.64746e-06 1.53469e-05 -0.000960851
0.000329485 -0.00014119 8.28923e-07
-0.00014119 6.23419e-05 9.23562e-06
8.28923e-07 9.23562e-06 -0.000165581
0.000346881 -0.000169764 5.03963e-06
-0.000169764 0.000132123 4.86934e-07
5.03963e-06 4.86934e-07 -0.00012913
0.00195687 -0.000258535 -6.51783e-06
-0.000258535 0.00142672 -2.32627e-05
-6.51783e-06 -2.32627e-05 0.000757046
-0.00669598 -0.000362799 0.000546365
-0.000362799 -0.00430742 -2.8756e-05
0.000546365 -2.8756e-05 -0.00388275
0.0116478 -0.000340261 6.5202e-05
-0.000340261 0.00127864 1.90686e-05
6.5202e-05 1.90686e-05 0.00131679
0.00239221 0.000339985 1.02455e-05
0.000339985 0.00125237 -9.13453e-06
1.02455e-05 -9.13453e-06 0.0010414
0.00152606 0.000502893 -3.09269e-06
0.000502893 0.000508074 4.25893e-06
-3.09269e-06 4.25893e-06 0.00015504
0.00285771 0.000677274 9.79378e-05
0.000677274 0.000375786 4.20774e-05
9.79378e-05 4.20774e-05 0.000385578
0.00295214 0.000960708 2.31462e-05
0.000960708 0.000736267 8.71058e-06
2.31462e-05 8.71058e-06 0.000423935
0.00292693 0.000840189 1.66173e-05
0.000840189 0.00115857 4.37599e-06
1.66173e-05 4.37599e-06 0.000693258
0.0156995 0.000721929 8.11062e-05
0.000721929 0.00303392 -3.9536e-05
8.11062e-05 -3.9536e-05 0.00227577
0.00860167 0.00225569 -0.000213313
0.00225569 -0.000462807 -1.79323e-05
-0.000213313 -1.79323e-05 0.000749665
0.0018967 0.00123188 7.30417e-06
0.00123188 0.000135823 -3.21747e-05
7.30417e-06 -3.21747e-05 -0.000331569
0.0132064 -0.00417428 -0.000476073
-0.00417428 0.00561778 -3.82428e-06
-0.000476073 -3.82428e-06 0.00296989
0.00326279 -0.00873747 -0.00236692
-0.00873747 0.00423223 -0.00148631
-0.00236692 -0.00148631 0.00128857
0.00111259 0.000327709 1.77708e-06
0.000327709 0.000493346 -1.03925e-06
1.77708e-06 -1.03925e-06 0.000244872
-0.00172394 -0.0024548 0.000464306
-0.0024548 -0.00265446 7.72504e-05
0.000464306 7.72504e-05 -0.00448221
-0.00255366 -0.00227669 -0.000495677
-0.00227669 0.00538555 -0.000199433
-0.000495677 -0.000199433 0.000138871
0.00340106 0.00107647 -1.5908e-05
0.00107647 0.000740774 1.89673e-06
-1.5908e-05 1.89673e-06 0.000607988
0.000826248 0.000416747 -8.39065e-06
0.000416747 0.0001106 8.13342e-06
-8.39065e-06 8.13342e-06 -0.000226771
0.0012387 0.000771417 5.91654e-06
0.000771417 0.000240725 1.79555e-06
5.91654e-06 1.79555e-06 -0.000160719
0.00111105 0.00111396 5.23405e-05
0.00111396 7.3282e-05 3.53514e-05
5.23405e-05 3.53514e-05 -0.000209053
0.0140065 0.00251348 -0.000147356
0.00251348 0.00113451 -8.83971e-05
-0.000147356 -8.83971e-05 -0.000621399
0.00450097 0.00288054 -4.39732e-05
0.00288054 -0.000476684 -4.29698e-05
-4.39732e-05 -4.29698e-05 0.000319885
0.0171325 -0.00495751 0.000542346
-0.00495751 0.00697671 -1.23739e-05
0.000542346 -1.23739e-05 0.00328056
0.0154645 -0.00417261 0.000157392
-0.00417261 0.00274793 0.000711782
0.000157392 0.000711782 0.000865928
0.00218568 0.000391235 -2.0615e-05
0.000391235 0.00110648 -1.35154e-05
-2.0615e-05 -1.35154e-05 0.000890124
-0.0104658 0.00122528 -0.000144501
0.00122528 0.00357409 -0.000140115
-0.000144501 -0.000140115 -0.00287223
0.0049255 0.000854212 -0.000367957
0.000854212 0.00393888 -0.000486577
-0.000367957 -0.000486577 -0.000788139
0.00260401 0.000808956 -2.90896e-05
0.000808956 0.00065157 -1.73725e-06
-2.90896e-05 -1.73725e-06 0.000609154
0.00227667 0.0007927 -6.99051e-05
0.0007927 0.000955092 -2.63145e-05
-6.99051e-05 -2.63145e-05 0.000572989
0.000635837 0.000772955 -0.000101874
0.000772955 0.000644103 -2.41951e-05
-0.000101874 -2.41951e-05 -5.15196e-05
-0.00264015 0.00165392 -3.40962e-05
0.00165392 -0.00123012 -3.83823e-05
-3.40962e-05 -3.83823e-05 -0.00143707
0.00046161 0.00301904 0.000369366
0.00301904 -0.00205873 0.000134582
0.000369366 0.000134582 -0.00444312
0.0185787 -0.0060814 0.000215551
-0.0060814 0.00943321 0.000696323
0.000215551 0.000696323 0.00518899
0.00874986 -0.000947853 -0.000174227
-0.000947853 -0.0020356 -0.000147502
-0.000174227 -0.000147502 -0.00100108
-0.00071077 0.00012351 3.68973e-06
0.00012351 -0.000535773 -7.05624e-06
3.68973e-06 -7.05624e-06 -0.000669503
0.00159753 0.000286896 1.07342e-05
0.000286896 0.000820209 2.464e-06
1.07342e-05 2.464e-06 0.000647156
-0.000680609 6.05741e-05 -1.8927e-06
6.05741e-05 -0.000479477 -8.96536e-07
-1.8927e-06 -8.96536e-07 -0.000640552
0.000331986 5.27213e-05 1.67517e-06
5.27213e-05 -4.95846e-05 1.56947e-07
1.67517e-06 1.56947e-07 -0.00018584
0.00100065 9.13541e-05 -1.03508e-06
9.13541e-05 0.00039837 -1.43425e-06
-1.03508e-06 -1.43425e-06 0.000212474
0.000567736 1.29929e-05 -2.1082e-06
1.29929e-05 0.000130484 1.97326e-06
-2.1082e-06 1.97326e-06 -5.1207e-05
0.00052616 9.21519e-05 4.83314e-06
9.21519e-05 8.62574e-05 5.22093e-06
4.83314e-06 5.22093e-06 -8.5894e-05
-0.000432072 5.40245e-05 -4.07773e-06
5.40245e-05 -0.000435899 8.90537e-07
-4.07773e-06 8.90537e-07 -0.000582019
0.000778039 4.51678e-05 1.74084e-07
4.51678e-05 0.000260348 -9.47167e-07
1.74084e-07 -9.47167e-07 7.96996e-05
0.000752232 8.69012e-05 7.55045e-07
8.69012e-05 0.000235666 -1.42199e-07
7.55045e-07 -1.42199e-07 7.56038e-05
0.000855418 -4.70128e-05 -1.02357e-06
-4.70128e-05 0.000300397 2.02355e-06
-1.02357e-06 2.02355e-06 0.000120523
-0.000916926 2.24333e-05 2.34537e-06
2.24333e-05 -0.000603045 3.82336e-07
2.34537e-06 3.82336e-07 -0.000815914
-1.69624e-05 4.60183e-05 -2.78436e-06
4.60183e-05 0.000152648 4.93689e-06
-2.78436e-06 4.93689e-06 -0.000191098
0.000631597 -3.66277e-05 -1.76657e-06
-3.66277e-05 0.000238475 -8.84458e-06
-1.76657e-06 -8.84458e-06 5.02966e-05
0.00118893 -1.65468e-05 -4.41657e-07
-1.65468e-05 0.000543572 -6.29957e-09
-4.41657e-07 -6.29957e-09 0.000337971
0.000799661 -8.07051e-05 -5.26845e-07
-8.07051e-05 0.000273629 -1.2316e-06
-5.26845e-07 -1.2316e-06 9.14205e-05
0.000260063 -8.03961e-05 3.96006e-06
-8.03961e-05 -0.000115893 7.33559e-06
3.96006e-06 7.33559e-06 -0.000242949
0.000801428 -8.99743e-05 5.92723e-07
-8.99743e-05 0.000284283 -1.35683e-06
5.92723e-07 -1.35683e-06 9.73351e-05
0.000724068 -6.68863e-05 -1.77884e-06
-6.68863e-05 0.000188377 -1.7713e-08
-1.77884e-06 -1.7713e-08 5.48418e-05
-0.000400527 -5.8855e-05 1.99219e-06
-5.8855e-05 -0.000485602 3.83969e-06
1.99219e-06 3.83969e-06 -0.000596185
6.73732e-05 -5.10603e-05 3.29315e-07
-5.10603e-05 -0.000165245 -2.45481e-06
3.29315e-07 -2.45481e-06 -0.000320506
9.25467e-05 -3.29208e-05 -7.26185e-06
-3.29208e-05 -0.000104898 -3.96242e-06
-7.26185e-06 -3.96242e-06 -0.000274649
-9.84809e-06 -8.37321e-05 3.62448e-06
-8.37321e-05 -0.000210662 -5.29778e-06
3.62448e-06 -5.29778e-06 -0.00034394
0.00100901 -0.000113283 9.20156e-06
-0.000113283 0.000290745 -1.57862e-05
9.20156e-06 -1.57862e-05 0.00018889
0.000383626 -0.000153393 6.23315e-07
-0.000153393 -0.00013104 3.96964e-06
6.23315e-07 3.96964e-06 -0.000285505
-2.64128e-05 -5.54708e-05 -6.15095e-06
-5.54708e-05 -0.00022652 -2.85811e-06
-6.15095e-06 -2.85811e-06 -0.000394684
0.000659643 -5.73496e-05 1.33146e-06
-5.73496e-05 0.000186428 -1.01537e-06
1.33146e-06 -1.01537e-06 1.29643e-05
-1.89285e-05 -3.57517e-05 1.9081e-06
-3.57517e-05 -0.000240679 -1.42467e-06
1.9081e-06 -1.42467e-06 -0.000407372
0.000673738 -0.000107043 -8.41269e-08
-0.000107043 0.000199018 -2.38748e-07
-8.41269e-08 -2.38748e-07 4.19431e-05
0.000468688 -2.54123e-05 1.47118e-06
-2.54123e-05 2.35183e-05 1.31668e-06
1.47118e-06 1.31668e-06 -9.6625e-05
0.000811962 -0.000102565 -1.64032e-06
-0.000102565 0.000273449 1.22931e-06
-1.64032e-06 1.22931e-06 0.000125358
0.000635005 -8.25792e-05 -8.45988e-07
-8.25792e-05 0.000136397 1.34792e-07
-8.45988e-07 1.34792e-07 1.04277e-05
0.000422354 3.18243e-05 2.22365e-07
3.18243e-05 -2.57428e-05 4.10503e-06
2.22365e-07 4.10503e-06 -0.000106017
0.00052102 -0.000106761 1.10766e-06
-0.000106761 5.92793e-05 -1.49974e-06
1.10766e-06 -1.49974e-06 -6.96567e-05
0.000517539 -3.78929e-05 -4.28321e-07
-3.78929e-05 3.15253e-05 1.06521e-07
-4.28321e-07 1.06521e-07 -4.506e-05
0.00142033 1.07623e-05 -7.29552e-06
1.07623e-05 0.000571456 7.17878e-06
-7.29552e-06 7.17878e-06 0.000550914
0.000489068 -5.99072e-05 1.15083e-06
-5.99072e-05 2.28262e-05 -3.55961e-06
1.15083e-06 -3.55961e-06 -5.72619e-05
0.000871334 -1.64714e-05 -6.78282e-06
-1.64714e-05 0.000235365 8.16753e-07
-6.78282e-06 8.16753e-07 0.000212627
0.000764749 1.25252e-05 1.09262e-06
1.25252e-05 0.000151973 2.25791e-06
1.09262e-06 2.25791e-06 0.000155599
0.000430877 -1.55903e-05 2.41851e-06
-1.55903e-05 -3.72823e-05 -4.64805e-06
2.41851e-06 -4.64805e-06 -6.07081e-05
0.00254913 1.29286e-05 6.94892e-06
1.29286e-05 0.00127622 3.36039e-08
6.94892e-06 3.36039e-08 0.00128886
0.00256906 1.95424e-06 8.85448e-07
1.95424e-06 0.00128906 -5.07798e-06
8.85448e-07 -5.07798e-06 0.00130145
0.00102409 7.97573e-05 -9.71419e-07
7.97573e-05 0.000382498 1.08886e-06
-9.71419e-07 1.08886e-06 0.000278973
0.000513926 6.07073e-05 -1.94096e-06
6.07073e-05 3.04747e-05 -2.32659e-06
-1.94096e-06 -2.32659e-06 -2.11842e-05
0.000542423 -1.4787e-05 -1.52251e-07
-1.4787e-05 8.52342e-05 7.81553e-07
-1.52251e-07 7.81553e-07 -1.44361e-05
0.000485928 6.91252e-06 7.99026e-07
6.91252e-06 -2.78202e-05 -3.32155e-06
7.99026e-07 -3.32155e-06 -3.65784e-05
0.000463454 -1.27881e-05 9.47107e-07
-1.27881e-05 -6.13008e-06 -1.7092e-07
9.47107e-07 -1.7092e-07 -5.19639e-05
0.000539741 -5.88925e-05 -1.24236e-06
-5.88925e-05 4.6735e-05 2.15919e-06
-1.24236e-06 2.15919e-06 -4.61164e-06
0.000485923 7.24382e-06 -4.533e-07
7.24382e-06 -2.79922e-05 -4.57012e-09
-4.533e-07 -4.57012e-09 -3.74294e-05
0.00196992 2.22224e-05 -1.04606e-06
2.22224e-05 0.000908746 -4.70633e-06
-1.04606e-06 -4.70633e-06 0.000925951
0.00112958 2.37627e-05 -4.92528e-07
2.37627e-05 0.0003776 2.06952e-06
-4.92528e-07 2.06952e-06 0.000369682
0.00130664 2.93449e-05 -1.3463e-06
2.93449e-05 0.000492845 1.64174e-08
-1.3463e-06 1.64174e-08 0.00050522
0.000812431 3.51794e-05 -8.64754e-06
3.51794e-05 0.000187601 7.39036e-06
-8.64754e-06 7.39036e-06 0.000193269
-0.00873052 0.0012034 0.000513971
0.0012034 -0.00306807 -4.31219e-05
0.000513971 -4.31219e-05 -0.00579877
-0.0010316 0.000209295 0.00109767
0.000209295 0.00614043 -0.000278841
0.00109767 -0.000278841 0.00247946
0.00225682 0.000337258 -0.000161627
0.000337258 -0.00228069 -2.8018e-05
-0.000161627 -2.8018e-05 -0.000701891
0.00171159 1.46254e-05 1.41696e-05
1.46254e-05 -0.00102454 -2.92253e-05
1.41696e-05 -2.92253e-05 -0.000581382
0.00171314 -7.37498e-05 6.90743e-06
-7.37498e-05 -0.000267473 1.86533e-05
6.90743e-06 1.86533e-05 -0.000207466
-0.00130471 3.23648e-05 -9.51895e-05
3.23648e-05 -0.00161606 -2.59838e-05
-9.51895e-05 -2.59838e-05 -0.000564857
0.00387321 -0.000393974 3.63996e-06
-0.000393974 0.000437326 5.71506e-06
3.63996e-06 5.71506e-06 0.000579973
0.0120651 -8.68541e-05 0.000183696
-8.68541e-05 -0.000596937 -7.46753e-05
0.000183696 -7.46753e-05 -0.00134443
0.00129617 0.00357944 -8.47376e-07
0.00357944 0.000825494 -6.38736e-05
-8.47376e-07 -6.38736e-05 -0.00252244
0.0122561 0.00716106 -0.000504613
0.00716106 0.00841328 0.000252773
-0.000504613 0.000252773 0.00576708
0.00182957 -0.000756321 3.05208e-05
-0.000756321 -0.0022151 -4.04518e-05
3.05208e-05 -4.04518e-05 -0.00109839
0.015284 -0.00227883 0.000218395
-0.00227883 0.00180788 -7.5234e-05
0.000218395 -7.5234e-05 0.000347318
0.0158608 0.00617935 0.000378068
0.00617935 0.00492547 -0.000534117
0.000378068 -0.000534117 0.00150019
0.0191492 0.00420371 -0.000317441
0.00420371 0.00571397 0.000267481
-0.000317441 0.000267481 0.00371459
0.000978409 0.000166572 -3.19236e-06
0.000166572 0.000410089 4.24999e-06
-3.19236e-06 4.24999e-06 0.000234622
0.000357117 3.83799e-05 3.92095e-07
3.83799e-05 -3.29749e-05 -1.05708e-06
3.92095e-07 -1.05708e-06 -0.000135983
0.000555449 -9.51189e-05 1.77627e-06
-9.51189e-05 9.65882e-05 1.40601e-06
1.77627e-06 1.40601e-06 -2.36779e-06
0.000663186 1.34987e-05 7.06439e-06
1.34987e-05 0.000172193 -4.15334e-07
7.06439e-06 -4.15334e-07 5.13474e-05
0.000865369 8.81895e-05 2.48076e-06
8.81895e-05 0.000350531 1.38951e-06
2.48076e-06 1.38951e-06 0.000211991
0.000473591 1.11064e-05 -4.00442e-07
1.11064e-05 7.00479e-05 7.77725e-06
-4.00442e-07 7.77725e-06 -9.42222e-05
0.000751747 9.39187e-05 9.95128e-07
9.39187e-05 0.000222576 3.35678e-06
9.95128e-07 3.35678e-06 8.69779e-05
0.00045883 6.28653e-05 4.61829e-06
6.28653e-05 1.92253e-05 1.2597e-06
4.61829e-06 1.2597e-06 -0.000120645
0.000709208 -3.40328e-05 2.7562e-06
-3.40328e-05 0.000212855 -1.27449e-06
2.7562e-06 -1.27449e-06 7.57367e-05
0.000482044 -1.6577e-05 2.15371e-06
-1.6577e-05 3.96376e-05 -2.94566e-06
2.15371e-06 -2.94566e-06 -6.74335e-05
0.00140182 -0.000335726 3.37011e-05
-0.000335726 -0.000583494 -5.41333e-06
3.37011e-05 -5.41333e-06 -0.000301605
0.00110708 -0.000573607 3.06625e-05
-0.000573607 -0.000641819 -1.01076e-05
3.06625e-05 -1.01076e-05 -0.000500949
0.00104676 -0.000724249 2.22019e-06
-0.000724249 -0.000398473 3.29305e-06
2.22019e-06 3.29305e-06 -0.000573488
2.9754e-06 -0.000658451 -1.2727e-05
-0.000658451 -0.000667031 2.99552e-06
-1.2727e-05 2.99552e-06 -0.00093689
0.00297307 -0.00049435 8.91998e-06
-0.00049435 0.00184854 3.44989e-05
8.91998e-06 3.44989e-05 0.00119661
-0.000207234 -0.000493289 -3.11461e-06
-0.000493289 -0.000180225 -6.15369e-06
-3.11461e-06 -6.15369e-06 -0.000675634
0.00146712 -0.000236757 5.45566e-06
-0.000236757 0.000654399 -2.51641e-06
5.45566e-06 -2.51641e-06 0.000519581
0.000660236 -4.90828e-05 -1.80435e-07
-4.90828e-05 0.000216855 3.09403e-06
-1.80435e-07 3.09403e-06 8.11437e-05
0.00239314 -0.000577199 1.06837e-05
-0.000577199 -0.000195556 -8.57081e-06
1.06837e-05 -8.57081e-06 6.38304e-05
0.000359402 -5.20934e-05 6.66206e-07
-5.20934e-05 8.39163e-05 1.72329e-06
6.66206e-07 1.72329e-06 -0.000155604
-0.000212348 -0.00017886 -9.30179e-07
-0.00017886 -0.00019786 -5.62683e-06
-9.30179e-07 -5.62683e-06 -0.000460246
0.00186418 -0.000761707 1.96145e-05
-0.000761707 3.74626e-05 -2.39597e-06
1.96145e-05 -2.39597e-06 -2.75461e-05
0.0018974 -0.000947118 -6.88275e-07
-0.000947118 0.000111516 3.20389e-06
-6.88275e-07 3.20389e-06 -8.12012e-05
0.000306124 -0.000698036 1.97925e-05
-0.000698036 -0.000202971 -1.48048e-05
1.97925e-05 -1.48048e-05 -0.000459595
0.00114783 -0.000352778 4.87397e-06
-0.000352778 0.000971841 -1.86926e-05
4.87397e-06 -1.86926e-05 0.000290162
0.00251722 -0.000923668 -6.30878e-05
-0.000923668 0.000303998 3.74865e-05
-6.30878e-05 3.74865e-05 4.45626e-05
0.00101767 -0.000685445 -3.32528e-05
-0.000685445 -0.00018349 6.55439e-06
-3.32528e-05 6.55439e-06 -0.000206818
0.000433232 -0.000646268 -7.32704e-05
-0.000646268 0.000260235 4.73267e-05
-7.32704e-05 4.73267e-05 -0.000165972
-0.00260505 -0.00024023 -7.41929e-06
-0.00024023 -0.0017341 1.15931e-05
-7.41929e-06 1.15931e-05 -0.00197995
-0.00100012 -5.24131e-05 2.48703e-06
-5.24131e-05 -0.000667305 9.4053e-06
2.48703e-06 9.4053e-06 -0.0009556
0.000566363 -7.13851e-05 8.54966e-06
-7.13851e-05 0.000365238 -1.33043e-05
8.54966e-06 -1.33043e-05 -1.48388e-05
-0.00235868 0.00123796 -0.000401788
0.00123796 0.00696842 1.92493e-05
-0.000401788 1.92493e-05 0.00220657
0.000308855 -0.00146767 -1.05693e-05
-0.00146767 0.00230385 1.37974e-05
-1.05693e-05 1.37974e-05 0.0014419
0.00245279 0.00102386 -0.000122606
0.00102386 -0.00526109 -2.72758e-05
-0.000122606 -2.72758e-05 -0.00548923
0.000217363 0.000248542 1.27861e-05
0.000248542 -2.40926e-05 -4.07006e-06
1.27861e-05 -4.07006e-06 -0.000265008
0.00158697 0.000577138 1.15675e-05
0.000577138 0.000603745 1.90653e-05
1.15675e-05 1.90653e-05 0.000202554
0.00347556 0.000954433 6.64826e-05
0.000954433 0.000767643 1.95449e-05
6.64826e-05 1.95449e-05 0.000674417
0.00161088 0.000843121 1.45739e-05
0.000843121 0.000460116 2.07847e-05
1.45739e-05 2.07847e-05 2.5285e-05
0.0125836 -0.0028354 0.000218938
-0.0028354 0.00468317 7.24815e-05
0.000218938 7.24815e-05 0.00364443
0.00362437 0.00134367 -0.000364732
0.00134367 -0.00427709 -7.11614e-05
-0.000364732 -7.11614e-05 -0.0059197
0.00517918 0.0027467 2.26461e-05
0.0027467 0.000236159 2.93957e-05
2.26461e-05 2.93957e-05 0.000707309
0.00257112 0.00111942 5.38569e-05
0.00111942 0.00102203 -1.39502e-05
5.38569e-05 -1.39502e-05 0.000789628
0.00736873 -0.00315697 -0.000381579
-0.00315697 0.00339206 -0.000365372
-0.000381579 -0.000365372 6.5626e-05
-0.000294471 -0.00331607 -0.000668846
-0.00331607 0.00591198 -0.000212877
-0.000668846 -0.000212877 0.000539751
0.0234808 -0.00533924 0.000703657
-0.00533924 0.00652054 0.000370998
0.000703657 0.000370998 0.00436284
0.00040711 0.000240542 1.69864e-05
0.000240542 6.59084e-05 -4.16722e-06
1.69864e-05 -4.16722e-06 -0.000141898
-0.0041462 0.000453429 -0.000181134
0.000453429 0.005468 -3.54362e-05
-0.000181134 -3.54362e-05 8.72465e-06
0.00560236 0.00116863 -0.000124822
0.00116863 0.00325305 -0.0001701
-0.000124822 -0.0001701 -0.00194069
0.0017605 0.000826759 1.08988e-05
0.000826759 0.000300182 3.46243e-06
1.08988e-05 3.46243e-06 0.000191261
0.000764663 0.000612833 1.25151e-05
0.000612833 0.000229523 4.45603e-06
1.25151e-05 4.45603e-06 -0.000161847
0.000764333 0.000929212 -5.60678e-05
0.000929212 0.000505076 -6.15011e-05
-5.60678e-05 -6.15011e-05 -6.00291e-05
0.00416177 0.00308766 2.9298e-05
0.00308766 0.00124057 2.90105e-05
2.9298e-05 2.90105e-05 0.00103667
0.0166259 0.00406501 4.29163e-05
0.00406501 0.00379504 1.29616e-05
4.29163e-05 1.29616e-05 0.00163691
0.00778471 -0.00363484 8.43681e-05
-0.00363484 0.00328552 -8.62352e-05
8.43681e-05 -8.62352e-05 -0.00148957
0.0151156 -0.00220977 -9.11608e-06
-0.00220977 0.00214573 -6.83392e-05
-9.11608e-06 -6.83392e-05 0.00333803
0.000747516 0.000453498 -1.47311e-05
0.000453498 0.000285008 -7.83905e-06
-1.47311e-05 -7.83905e-06 1.0551e-06
0.00193845 0.000214297 -0.00033769
0.000214297 0.00213712 -7.93594e-05
-0.00033769 -7.93594e-05 -0.00245548
0.000904691 0.00074747 -0.000126834
0.00074747 -0.000187663 -0.000171139
-0.000126834 -0.000171139 -0.00176097
-0.00064396 0.000293606 -5.24967e-06
0.000293606 -0.00014176 -1.97997e-05
-5.24967e-06 -1.97997e-05 -0.000397313
-0.000808139 0.000630025 -0.000190109
0.000630025 0.000988173 -1.10037e-05
-0.000190109 -1.10037e-05 0.000197731
0.013813 0.00473308 0.000106629
0.00473308 0.00444169 -4.0956e-05
0.000106629 -4.0956e-05 0.000155871
-0.00200609 -0.00508913 -3.55446e-07
-0.00508913 -0.000238795 0.000229558
-3.55446e-07 0.000229558 -0.00501658
0.0117222 0.000292644 6.22069e-05
0.000292644 -0.00160018 -0.000324813
6.22069e-05 -0.000324813 0.000956386
0.000836326 0.000183006 -4.11124e-06
0.000183006 0.000313146 1.51917e-05
-4.11124e-06 1.51917e-05 0.000176378
0.000945029 0.000228445 -9.60668e-06
0.000228445 0.000518022 -5.57961e-06
-9.60668e-06 -5.57961e-06 0.000319261
-0.0003531 0.000107649 6.88004e-07
0.000107649 -7.11177e-05 -1.58599e-07
6.88004e-07 -1.58599e-07 -0.000373079
0.000601925 8.69977e-05 -1.73898e-06
8.69977e-05 0.000131792 -1.43949e-06
-1.73898e-06 -1.43949e-06 -3.51966e-05
0.00114605 -3.89319e-05 -2.16225e-06
-3.89319e-05 0.000492945 4.8255e-06
-2.16225e-06 4.8255e-06 0.000303232
0.00019319 7.26122e-05 2.50418e-06
7.26122e-05 -0.00012187 2.65136e-06
2.50418e-06 2.65136e-06 -0.000273793
-0.00106317 3.02567e-05 1.93173e-06
3.02567e-05 -0.000676207 2.69873e-06
1.93173e-06 2.69873e-06 -0.00088914
0.000668469 -2.68971e-05 1.22349e-06
-2.68971e-05 0.000184687 2.41017e-07
1.22349e-06 2.41017e-07 5.82821e-06
0.000527379 2.62657e-05 3.3774e-07
2.62657e-05 0.000168164 -2.32461e-06
3.3774e-07 -2.32461e-06 -1.55464e-05
4.73058e-05 2.98033e-05 2.00435e-06
2.98033e-05 0.000228398 2.90791e-06
2.00435e-06 2.90791e-06 -0.000141788
-0.000389088 5.78594e-05 -3.90514e-06
5.78594e-05 0.00014801 1.25067e-05
-3.90514e-06 1.25067e-05 -0.00034039
0.000373413 3.44845e-07 -2.87101e-06
3.44845e-07 0.000444634 -1.98093e-06
-2.87101e-06 -1.98093e-06 5.94827e-05
0.00107543 1.96319e-05 -1.62383e-06
1.96319e-05 0.000483282 -4.62852e-06
-1.62383e-06 -4.62852e-06 0.000315881
0.000696942 -0.000146433 2.53118e-06
-0.000146433 0.000203805 1.6338e-06
2.53118e-06 1.6338e-06 2.60902e-05
0.000386446 -4.42339e-05 8.95281e-07
-4.42339e-05 -3.6539e-05 3.53543e-06
8.95281e-07 3.53543e-06 -0.000161859
0.000352352 -9.19483e-05 1.20927e-06
-9.19483e-05 -1.40841e-05 1.27512e-05
1.20927e-06 1.27512e-05 -0.000113508
0.000216883 -4.10664e-05 2.42477e-06
-4.10664e-05 -5.00736e-05 3.28779e-06
2.42477e-06 3.28779e-06 -0.000203765
0.000563231 -4.79386e-05 -4.86042e-08
-4.79386e-05 0.000130872 6.84934e-07
-4.86042e-08 6.84934e-07 -2.06841e-05
0.000447033 -5.14611e-05 -1.42694e-07
-5.14611e-05 6.57342e-05 -2.08716e-06
-1.42694e-07 -2.08716e-06 -6.46122e-05
0.00032384 -5.58078e-05 -8.29227e-06
-5.58078e-05 -1.92351e-05 -4.92095e-06
-8.29227e-06 -4.92095e-06 -0.000152929
0.000530965 -7.71599e-05 9.95076e-06
-7.71599e-05 0.000278587 -7.25488e-06
9.95076e-06 -7.25488e-06 0.000114518
0.000612989 -0.000199398 1.10447e-06
-0.000199398 -4.81347e-05 3.9603e-06
1.10447e-06 3.9603e-06 -0.000136708
0.000589226 -0.000135561 -1.12847e-05
-0.000135561 5.6275e-05 -6.14492e-07
-1.12847e-05 -6.14492e-07 -5.38905e-05
0.00033478 -0.000181712 8.04468e-06
-0.000181712 -0.000118885 7.13566e-06
8.04468e-06 7.13566e-06 -0.00027227
0.00194761 -0.000513041 1.08473e-06
-0.000513041 0.000763484 2.0345e-05
1.08473e-06 2.0345e-05 0.000439161
0.00180968 -0.000245221 4.11286e-06
-0.000245221 0.000823134 -8.89085e-06
4.11286e-06 -8.89085e-06 0.000629068
8.69322e-05 -0.000129661 -9.05298e-06
-0.000129661 -0.000271973 -6.04689e-06
-9.05298e-06 -6.04689e-06 -0.000400696
0.000531863 -7.89833e-05 -8.9635e-08
-7.89833e-05 8.90081e-05 -7.91508e-07
-8.9635e-08 -7.91508e-07 -7.74454e-05
-0.0002203 -4.73391e-05 -3.70207e-07
-4.73391e-05 -0.000347982 -2.92093e-06
-3.70207e-07 -2.92093e-06 -0.000543638
0.000989472 -6.92726e-05 -3.92259e-07
-6.92726e-05 0.000381146 1.62304e-06
-3.92259e-07 1.62304e-06 0.000209476
0.000732502 -0.000123893 -3.52035e-07
-0.000123893 0.000232696 4.31521e-07
-3.52035e-07 4.31521e-07 5.31168e-05
0.000528705 -6.20387e-05 1.24231e-06
-6.20387e-05 4.8274e-05 1.66507e-06
1.24231e-06 1.66507e-06 -7.45803e-05
0.00136438 -0.000185662 -2.39869e-06
-0.000185662 0.000648648 -2.0229e-07
-2.39869e-06 -2.0229e-07 0.000466247
0.000673107 -0.00010392 -5.15602e-07
-0.00010392 0.00015194 3.73158e-08
-5.15602e-07 3.73158e-08 2.54351e-05
0.000505298 7.49394e-06 -1.0537e-06
7.49394e-06 2.07389e-05 3.4583e-06
-1.0537e-06 3.4583e-06 -6.01456e-05
0.000719865 -0.000129887 6.47119e-07
-0.000129887 0.000189424 -1.90355e-06
6.47119e-07 -1.90355e-06 5.93254e-05
0.000587587 -5.4147e-05 -1.50396e-07
-5.4147e-05 7.36246e-05 1.62538e-07
-1.50396e-07 1.62538e-07 -6.07841e-06
0.00143567 1.16532e-05 -1.19704e-05
1.16532e-05 0.000576472 7.43755e-06
-1.19704e-05 7.43755e-06 0.000554415
0.000538305 -6.70417e-05 1.63284e-06
-6.70417e-05 5.26825e-05 -4.1414e-06
1.63284e-06 -4.1414e-06 -2.93984e-05
0.000869494 -1.07961e-05 -8.07203e-06
-1.07961e-05 0.000227423 6.91746e-07
-8.07203e-06 6.91746e-07 0.000203913
0.000808233 2.19367e-05 1.14046e-06
2.19367e-05 0.000176074 2.83775e-06
1.14046e-06 2.83775e-06 0.00017806
0.000434829 -2.89371e-05 2.25038e-06
-2.89371e-05 -3.98142e-05 -5.06423e-06
2.25038e-06 -5.06423e-06 -6.46576e-05
0.00166047 2.13738e-05 1.06314e-05
2.13738e-05 0.000716857 -1.47321e-06
1.06314e-05 -1.47321e-06 0.000725001
0.00251872 1.23712e-05 1.09176e-05
1.23712e-05 0.0012565 -5.18e-06
1.09176e-05 -5.18e-06 0.00126926
0.000496663 5.01547e-05 1.34628e-06
5.01547e-05 3.16741e-05 -1.10946e-06
1.34628e-06 -1.10946e-06 -6.9236e-05
0.000601223 6.15444e-05 -1.36584e-06
6.15444e-05 7.9108e-05 -1.72135e-06
-1.36584e-06 -1.72135e-06 2.44694e-05
0.000590232 1.2042e-06 9.30451e-07
1.2042e-06 0.000104137 7.76007e-07
9.30451e-07 7.76007e-07 5.17384e-06
0.000474177 3.67209e-06 1.48368e-06
3.67209e-06 -3.39626e-05 -3.5832e-06
1.48368e-06 -3.5832e-06 -4.34585e-05
0.00049574 5.12715e-05 6.02666e-08
5.12715e-05 1.43603e-05 -1.67989e-07
6.02666e-08 -1.67989e-07 -3.44642e-05
0.000532064 -0.00011293 -2.63102e-06
-0.00011293 6.90968e-05 5.85533e-07
-2.63102e-06 5.85533e-07 -2.46317e-05
0.0019915 8.49719e-06 -6.18453e-06
8.49719e-06 0.000920271 -4.75138e-06
-6.18453e-06 -4.75138e-06 0.000938302
0.000463238 5.32303e-06 -2.42935e-07
5.32303e-06 -4.15796e-05 2.77464e-08
-2.42935e-07 2.77464e-08 -5.03209e-05
0.000498964 -1.22508e-05 -1.40713e-06
-1.22508e-05 1.27917e-05 2.07363e-06
-1.40713e-06 2.07363e-06 -3.10155e-05
0.000473356 5.67547e-06 -1.24137e-06
5.67547e-06 -3.65227e-05 3.36751e-06
-1.24137e-06 3.36751e-06 -4.59377e-05
0.00202194 2.38071e-05 -5.27773e-06
2.38071e-05 0.000941663 -1.07714e-07
-5.27773e-06 -1.07714e-07 0.000958531
0.00198517 3.74995e-05 -5.1966e-06
3.74995e-05 0.000921207 4.64406e-06
-5.1966e-06 4.64406e-06 0.00093694
-0.00647564 -0.00169535 -0.000179072
-0.00169535 0.00546818 5.57517e-05
-0.000179072 5.57517e-05 0.00132422
0.00186713 0.00136698 -0.000258445
0.00136698 0.000610193 7.99694e-05
-0.000258445 7.99694e-05 -0.00144426
0.00293591 -0.00098867 -0.000604027
-0.00098867 0.00123275 0.000260438
-0.000604027 0.000260438 -0.00336687
-0.000424185 0.000647763 0.00107797
0.000647763 0.00606686 -0.00033269
0.00107797 -0.00033269 0.00194465
0.00238838 0.000579443 -4.21319e-05
0.000579443 -0.00109526 8.71573e-07
-4.21319e-05 8.71573e-07 -0.000226427
0.0027362 -0.000461706 8.99733e-05
-0.000461706 -0.000289647 7.4381e-06
8.99733e-05 7.4381e-06 -0.000166967
0.000792258 -0.000367967 0.000275771
-0.000367967 -0.00481409 -6.15222e-05
0.000275771 -6.15222e-05 -0.00649307
0.0210891 0.00319724 -0.000800693
0.00319724 0.00937415 6.52626e-05
-0.000800693 6.52626e-05 0.00649911
0.00453246 0.00829153 -0.00226894
0.00829153 0.00413695 0.00147251
-0.00226894 0.00147251 0.00130326
0.00465942 -0.000622365 2.80028e-05
-0.000622365 -0.000423822 6.62489e-06
2.80028e-05 6.62489e-06 0.000277137
0.00890643 -0.0021571 0.000158373
-0.0021571 -0.00152435 -0.000135132
0.000158373 -0.000135132 -0.00377543
0.0200279 0.00541522 -0.000320133
0.00541522 0.00634342 -0.000110753
-0.000320133 -0.000110753 0.0029424
0.0143595 0.00431276 -1.80277e-05
0.00431276 0.00274878 0.00039657
-1.80277e-05 0.00039657 0.000523542
0.0017762 -0.00169789 -0.000114987
-0.00169789 -0.00304726 2.57474e-05
-0.000114987 2.57474e-05 -0.00192806
0.00617067 -0.00354513 0.000415834
-0.00354513 -0.000153446 -0.00022239
0.000415834 -0.00022239 -0.00392833
0.00632158 0.00335208 0.000101516
0.00335208 0.00115031 -0.000797775
0.000101516 -0.000797775 -0.00262646
0.00856723 0.000832697 -0.00027888
0.000832697 -0.00231183 6.26018e-06
-0.00027888 6.26018e-06 -0.00140201
0.00251129 -9.0965e-05 1.11718e-06
-9.0965e-05 0.00142423 1.67461e-05
1.11718e-06 1.67461e-05 0.00115385
0.000354099 0.000102995 -1.56925e-06
0.000102995 -6.14279e-06 -2.34229e-06
-1.56925e-06 -2.34229e-06 -0.000149293
0.000513276 0.000100238 3.04393e-06
0.000100238 5.25616e-05 -1.19352e-06
3.04393e-06 -1.19352e-06 -4.46979e-05
0.000175009 6.83046e-06 7.19985e-06
6.83046e-06 -9.81819e-05 -1.79674e-06
7.19985e-06 -1.79674e-06 -0.000211033
0.000445779 9.7825e-05 3.19339e-06
9.7825e-05 3.06548e-05 3.49914e-06
3.19339e-06 3.49914e-06 -0.000153935
0.000445952 3.80851e-05 -7.67571e-08
3.80851e-05 4.02194e-05 2.38625e-06
-7.67571e-08 2.38625e-06 -0.000109797
0.000246545 2.94597e-05 1.53688e-06
2.94597e-05 -8.99857e-05 -3.74822e-06
1.53688e-06 -3.74822e-06 -0.000219867
0.000922288 0.000179568 3.65293e-06
0.000179568 0.000345435 7.43206e-06
3.65293e-06 7.43206e-06 0.000170141
0.000911047 0.000130018 -2.24196e-07
0.000130018 0.000345946 -2.38171e-07
-2.24196e-07 -2.38171e-07 0.000175559
0.000385075 -1.8764e-05 -3.82817e-06
-1.8764e-05 -3.19899e-06 -6.62408e-06
-3.82817e-06 -6.62408e-06 -0.000133896
0.000486522 -0.000452656 8.25509e-05
-0.000452656 -0.00121365 -4.1663e-05
8.25509e-05 -4.1663e-05 -0.000911477
0.000199915 -0.00062792 1.49269e-05
-0.00062792 -0.000903924 -8.94423e-06
1.49269e-05 -8.94423e-06 -0.000896408
0.00140026 -0.000893465 -1.20559e-05
-0.000893465 -0.000212754 1.56891e-05
-1.20559e-05 1.56891e-05 -0.000322281
-0.00098286 -0.000681374 4.66348e-06
-0.000681374 -0.00088839 -6.16879e-06
4.66348e-06 -6.16879e-06 -0.00123736
0.00346138 -0.000456031 -2.48593e-05
-0.000456031 0.00214081 6.55293e-05
-2.48593e-05 6.55293e-05 0.00162909
0.00108886 -0.000215831 -3.55784e-06
-0.000215831 0.000616955 6.12732e-06
-3.55784e-06 6.12732e-06 0.000328973
0.000319583 0.000128447 -2.89631e-06
0.000128447 4.33408e-05 -1.60113e-05
-2.89631e-06 -1.60113e-05 -0.000192397
0.000704234 -7.68676e-05 -2.75088e-06
-7.68676e-05 0.000291981 9.6838e-06
-2.75088e-06 9.6838e-06 1.42282e-05
0.00174746 -0.000793473 -6.88231e-06
-0.000793473 -0.000204128 -4.10087e-06
-6.88231e-06 -4.10087e-06 -0.000253504
0.000823026 -6.53819e-05 1.24891e-06
-6.53819e-05 0.000392024 4.95528e-06
1.24891e-06 4.95528e-06 0.000120789
0.0021659 -0.000292277 2.06116e-06
-0.000292277 0.00131467 -1.56274e-06
2.06116e-06 -1.56274e-06 0.000917609
0.00141687 -0.000729307 7.2686e-06
-0.000729307 2.49618e-05 3.51979e-06
7.2686e-06 3.51979e-06 -1.05017e-05
0.000607875 -0.0006472 -3.00157e-05
-0.0006472 0.000284056 7.68284e-06
-3.00157e-05 7.68284e-06 -0.000100954
0.00204942 -0.00135674 3.62576e-05
-0.00135674 -2.20788e-09 -1.70006e-05
3.62576e-05 -1.70006e-05 -1.39778e-05
-0.000297772 -0.000463352 -6.25651e-06
-0.000463352 -0.000451855 2.32992e-05
-6.25651e-06 2.32992e-05 -0.000490534
-0.00124836 -7.88587e-05 1.76676e-05
-7.88587e-05 -0.00053397 -9.74117e-07
1.76676e-05 -9.74117e-07 -0.00101104
0.000705319 1.44407e-05 -4.7107e-06
1.44407e-05 0.000274763 -1.03335e-06
-4.7107e-06 -1.03335e-06 4.58569e-05
0.000659182 -2.40553e-05 7.07586e-06
-2.40553e-05 0.000413974 -7.61986e-06
7.07586e-06 -7.61986e-06 9.92303e-05
0.00131031 0.000121798 -4.21082e-05
0.000121798 0.00185426 -1.64114e-05
-4.21082e-05 -1.64114e-05 -0.00208197
-0.00647128 0.000422667 -0.000351515
0.000422667 0.00633357 -1.85621e-05
-0.000351515 -1.85621e-05 0.00130502
-0.0131826 -0.00239631 -0.00069394
-0.00239631 -0.0053676 -9.13391e-06
-0.00069394 -9.13391e-06 -0.0061101
-0.000754844 0.000172302 1.0469e-05
0.000172302 -0.000573844 -5.76869e-06
1.0469e-05 -5.76869e-06 -0.000803272
-0.000777447 0.0004583 -3.65393e-06
0.0004583 -0.000547068 8.61876e-06
-3.65393e-06 8.61876e-06 -0.000948768
0.00207268 0.000944427 3.02199e-05
0.000944427 0.000488515 2.50864e-05
3.02199e-05 2.50864e-05 0.000345603
-0.00556716 0.00189025 7.16734e-05
0.00189025 0.00594753 5.64881e-05
7.16734e-05 5.64881e-05 0.0013649
0.00684206 0.00348816 -0.000281077
0.00348816 0.000145906 -0.000161913
-0.000281077 -0.000161913 -0.00326543
0.00199092 0.00211969 0.000414631
0.00211969 0.000428414 0.000150535
0.000414631 0.000150535 0.00026645
0.000123731 0.00089154 2.40727e-05
0.00089154 2.06213e-05 -4.41397e-05
2.40727e-05 -4.41397e-05 -0.000254353
0.0261749 -0.00364258 -0.000161889
-0.00364258 0.00847044 -0.000355419
-0.000161889 -0.000355419 0.00528251
0.00617703 0.00150952 0.000524199
0.00150952 0.00310301 0.000190161
0.000524199 0.000190161 -0.00252247
0.0137947 -0.00192171 0.000171525
-0.00192171 0.00237734 3.14309e-05
0.000171525 3.14309e-05 0.00368375
0.00125192 0.000503284 2.55284e-06
0.000503284 0.000647662 -2.09356e-06
2.55284e-06 -2.09356e-06 0.000348751
0.00380419 0.000548313 -8.36497e-06
0.000548313 0.0030537 1.43087e-05
-8.36497e-06 1.43087e-05 -0.000386638
0.00159101 0.000682656 6.61209e-05
0.000682656 7.92981e-05 1.68643e-06
6.61209e-05 1.68643e-06 -0.00152337
-0.000436633 0.000468387 -2.94499e-06
0.000468387 -0.000143605 -5.3605e-06
-2.94499e-06 -5.3605e-06 -0.000465538
0.000261883 0.00122017 -0.000121056
0.00122017 0.000846422 -5.85589e-05
-0.000121056 -5.85589e-05 -0.000355534
0.000987109 0.00439233 0.000200021
0.00439233 0.000565562 0.000108281
0.000200021 0.000108281 -0.00383179
0.00942315 7.40935e-06 -4.69142e-06
7.40935e-06 -0.00342728 -0.000209337
-4.69142e-06 -0.000209337 -0.00060625
0.00520533 -0.00258802 -7.26585e-05
-0.00258802 0.00328761 -0.000162586
-7.26585e-05 -0.000162586 -0.00148464
0.000956315 0.000399842 -7.28237e-06
0.000399842 0.000769618 -1.41035e-05
-7.28237e-06 -1.41035e-05 0.00042243
-0.00284424 0.000205024 1.26117e-05
0.000205024 -2.09578e-06 2.26095e-05
1.26117e-05 2.26095e-05 -0.000366176
0.00482716 -0.000151977 0.000109446
-0.000151977 -0.000223747 -0.000155874
0.000109446 -0.000155874 -0.00143193
0.00844894 0.00100863 0.000283558
0.00100863 -0.00203549 -2.04047e-05
0.000283558 -2.04047e-05 -0.00122418
-0.00246923 0.000137995 3.18342e-05
0.000137995 -0.000121226 -3.03122e-05
3.18342e-05 -3.03122e-05 -0.000929133
0.0132361 0.00336698 0.000307298
0.00336698 0.00624169 7.31867e-05
0.000307298 7.31867e-05 0.00105142
0.00120194 -0.000532619 4.51515e-05
-0.000532619 0.0026122 0.000383464
4.51515e-05 0.000383464 -0.00097176
0.00318578 0.000456461 2.6743e-05
0.000456461 0.00190416 1.01969e-05
2.6743e-05 1.01969e-05 0.00164921
0.000399934 0.000203211 -5.68975e-06
0.000203211 0.000412137 -1.65539e-06
-5.68975e-06 -1.65539e-06 6.59069e-05
0.000210738 0.000179263 1.91358e-06
0.000179263 0.000473288 8.52236e-07
1.91358e-06 8.52236e-07 3.73093e-05
0.000520157 0.000146331 1.25337e-06
0.000146331 0.000105172 2.32284e-08
1.25337e-06 2.32284e-08 -7.96197e-05
0.000497459 7.0561e-05 8.81269e-07
7.0561e-05 0.000131389 3.41332e-06
8.81269e-07 3.41332e-06 -3.91992e-05
0.000167737 -1.67524e-05 6.58463e-06
-1.67524e-05 0.000330768 -2.78056e-06
6.58463e-06 -2.78056e-06 -5.94375e-05
0.000413645 2.54049e-05 1.25336e-07
2.54049e-05 5.9383e-05 -6.04033e-07
1.25336e-07 -6.04033e-07 -9.24518e-05
0.000681241 -3.61424e-05 -1.17214e-06
-3.61424e-05 0.000630219 -2.44856e-06
-1.17214e-06 -2.44856e-06 0.000245838
2.89404e-05 5.08343e-05 2.46711e-08
5.08343e-05 0.00039059 -1.67636e-06
2.46711e-08 -1.67636e-06 -9.1766e-05
-8.00968e-06 -1.06932e-05 -6.91504e-06
-1.06932e-05 0.000318929 8.75842e-06
-6.91504e-06 8.75842e-06 -8.32265e-05
0.000314639 -2.61869e-05 8.37428e-08
-2.61869e-05 0.000346002 -4.86538e-06
8.37428e-08 -4.86538e-06 3.86126e-05
4.10775e-05 -6.16392e-05 3.60735e-06
-6.16392e-05 -0.000185842 8.93733e-06
3.60735e-06 8.93733e-06 -0.000319758
0.00105127 -5.18917e-05 -9.07689e-07
-5.18917e-05 0.000425806 3.09786e-06
-9.07689e-07 3.09786e-06 0.000275245
0.00128323 -6.16613e-05 -1.41897e-05
-6.16613e-05 0.000579906 1.16545e-05
-1.41897e-05 1.16545e-05 0.000447921
0.000729352 -8.3758e-05 4.0367e-06
-8.3758e-05 0.000379858 -7.36198e-07
4.0367e-06 -7.36198e-07 0.00022355
0.000523626 -5.4692e-05 -8.27346e-07
-5.4692e-05 0.000100331 -8.83013e-07
-8.27346e-07 -8.83013e-07 -3.16823e-05
0.000424475 -0.00017634 -8.70402e-09
-0.00017634 3.82594e-05 3.03998e-06
-8.70402e-09 3.03998e-06 -9.98619e-05
0.000153318 -0.000155587 -1.17689e-05
-0.000155587 -0.000220403 -1.42948e-06
-1.17689e-05 -1.42948e-06 -0.000276446
-0.000781669 -0.000297059 1.07847e-05
-0.000297059 -0.000728298 1.8979e-05
1.07847e-05 1.8979e-05 -0.00101972
0.000115066 -0.000167236 5.62474e-06
-0.000167236 -0.000210498 -7.06671e-07
5.62474e-06 -7.06671e-07 -0.000326289
0.00116091 -0.000281713 -3.68031e-06
-0.000281713 0.000373799 1.12071e-05
-3.68031e-06 1.12071e-05 0.000191056
0.00200086 -0.00055015 -6.7216e-06
-0.00055015 0.000812774 1.3954e-05
-6.7216e-06 1.3954e-05 0.000452979
0.00159578 -0.000510942 -5.78222e-06
-0.000510942 0.000443042 -5.39443e-07
-5.78222e-06 -5.39443e-07 7.25654e-05
0.00136064 -0.000346685 1.96833e-06
-0.000346685 0.000497309 2.16448e-06
1.96833e-06 2.16448e-06 0.000257289
0.000479871 -0.000327807 9.54081e-06
-0.000327807 -0.000133177 -4.12947e-06
9.54081e-06 -4.12947e-06 -0.000406526
0.00123826 -0.000166743 3.09805e-06
-0.000166743 0.000542201 -4.22172e-06
3.09805e-06 -4.22172e-06 0.000297133
0.00121553 -0.000220416 -8.03076e-06
-0.000220416 0.000499482 9.21485e-07
-8.03076e-06 9.21485e-07 0.000294448
-8.48095e-05 -0.000121933 1.13349e-05
-0.000121933 -0.000341073 -1.64882e-05
1.13349e-05 -1.64882e-05 -0.000447443
0.00116623 -0.000107183 -1.56676e-06
-0.000107183 0.000452012 2.52213e-06
-1.56676e-06 2.52213e-06 0.000285417
0.000265691 -8.33736e-05 8.20703e-07
-8.33736e-05 -5.30468e-05 -4.69793e-07
8.20703e-07 -4.69793e-07 -0.000247515
0.00043333 -5.3264e-05 2.09681e-06
-5.3264e-05 -1.46413e-05 6.49252e-07
2.09681e-06 6.49252e-07 -0.000151983
0.00141647 -0.000213317 -1.86418e-06
-0.000213317 0.000666796 9.01102e-07
-1.86418e-06 9.01102e-07 0.000472236
0.000651393 -9.45835e-05 -3.89967e-07
-9.45835e-05 0.000138806 -1.35167e-07
-3.89967e-07 -1.35167e-07 2.57442e-06
0.000432705 1.30216e-05 3.2015e-06
1.30216e-05 -1.33304e-05 4.53763e-06
3.2015e-06 4.53763e-06 -0.000108426
0.000795492 -0.000132394 -7.4274e-07
-0.000132394 0.000241168 -2.21001e-06
-7.4274e-07 -2.21001e-06 0.000103674
0.000490671 7.46188e-06 -2.11233e-06
7.46188e-06 1.97998e-05 -2.07246e-07
-2.11233e-06 -2.07246e-07 -6.70217e-05
0.00141633 1.20036e-05 -1.59021e-05
1.20036e-05 0.000564632 5.25365e-06
-1.59021e-05 5.25365e-06 0.000541182
0.000584581 -6.26221e-05 1.9317e-06
-6.26221e-05 7.56998e-05 -4.13971e-06
1.9317e-06 -4.13971e-06 -6.58271e-06
0.000884268 -6.36293e-06 -8.10451e-06
-6.36293e-06 0.000231431 5.74411e-07
-8.10451e-06 5.74411e-07 0.000206784
0.000839626 3.20596e-05 4.29474e-07
3.20596e-05 0.000193704 3.05379e-06
4.29474e-07 3.05379e-06 0.000193473
0.000450031 -2.10426e-05 2.23392e-06
-2.10426e-05 -3.74862e-05 -5.82273e-06
2.23392e-06 -5.82273e-06 -6.35151e-05
0.00171527 3.34512e-05 1.36469e-05
3.34512e-05 0.000748688 -1.25377e-06
1.36469e-05 -1.25377e-06 0.000755662
0.00253877 2.66086e-05 1.56952e-05
2.66086e-05 0.00126698 -5.42633e-06
1.56952e-05 -5.42633e-06 0.00127936
0.000314387 1.70869e-05 1.12975e-06
1.70869e-05 -6.51407e-05 1.15657e-06
1.12975e-06 1.15657e-06 -0.00019692
0.000154802 1.91714e-05 -7.36364e-08
1.91714e-05 -0.000203147 -3.58553e-06
-7.36364e-08 -3.58553e-06 -0.000265494
0.000626884 4.99663e-05 1.11689e-07
4.99663e-05 0.000123904 1.34867e-07
1.11689e-07 1.34867e-07 1.27258e-05
0.000473611 3.27315e-06 1.29769e-06
3.27315e-06 -3.61253e-05 -3.70287e-06
1.29769e-06 -3.70287e-06 -4.71689e-05
0.000331943 6.00456e-06 1.58615e-06
6.00456e-06 -9.44499e-05 6.25137e-09
1.58615e-06 6.25137e-09 -0.000146797
0.000266153 -9.39936e-05 -1.00486e-06
-9.39936e-05 -0.000100332 -9.39033e-07
-1.00486e-06 -9.39033e-07 -0.000199456
0.00205254 -5.436e-06 -1.0913e-05
-5.436e-06 0.000957896 -4.7687e-06
-1.0913e-05 -4.7687e-06 0.000975805
0.000468296 2.82257e-06 -1.62252e-10
2.82257e-06 -3.85531e-05 -7.09645e-08
-1.62252e-10 -7.09645e-08 -4.77517e-05
0.000441614 -1.56112e-05 -2.42358e-06
-1.56112e-05 -2.45026e-05 2.15741e-06
-2.42358e-06 2.15741e-06 -7.02042e-05
0.00200701 9.86392e-06 -4.59863e-06
9.86392e-06 0.000930365 7.86792e-09
-4.59863e-06 7.86792e-09 0.000948195
0.000458897 4.51802e-06 -1.11911e-06
4.51802e-06 -4.37192e-05 3.24522e-06
-1.11911e-06 3.24522e-06 -5.25222e-05
0.00198069 2.47776e-05 1.13497e-06
2.47776e-05 0.000915651 4.78535e-06
1.13497e-06 4.78535e-06 0.000932589
-0.00024511 -0.000738151 -0.000235549
-0.000738151 -0.000143609 8.6918e-05
-0.000235549 8.6918e-05 -0.00321655
0.00172706 0.000586609 -0.000106904
0.000586609 0.0073093 1.90814e-05
-0.000106904 1.90814e-05 0.0033264
0.00211375 -5.38385e-05 -0.000816979
-5.38385e-05 0.00373346 0.000162849
-0.000816979 0.000162849 0.00188894
0.00071478 0.000123936 4.4878e-06
0.000123936 0.000179553 6.52482e-06
4.4878e-06 6.52482e-06 2.2393e-05
0.00489345 -0.000858594 -8.04522e-05
-0.000858594 0.00315965 0.000228967
-8.04522e-05 0.000228967 0.00109083
0.00406861 -0.00123111 -0.00026652
-0.00123111 0.001683 2.40353e-05
-0.00026652 2.40353e-05 -0.00289583
0.0103895 0.00309297 0.000345166
0.00309297 0.00747418 -0.00032991
0.000345166 -0.00032991 0.00346729
0.0070766 -0.000983718 0.000115183
-0.000983718 0.000796673 -2.28101e-05
0.000115183 -2.28101e-05 0.00105707
0.012983 -0.00218207 0.000259034
-0.00218207 0.00103032 -0.000127052
0.000259034 -0.000127052 -0.000177064
0.00774566 0.00459906 -0.000614544
0.00459906 0.000181902 0.0004123
-0.000614544 0.0004123 -0.00293898
0.0134448 0.00417225 9.56515e-05
0.00417225 0.00461063 0.000221129
9.56515e-05 0.000221129 0.00206432
0.00722249 -0.00212343 -0.000122963
-0.00212343 0.000165824 -6.11447e-06
-0.000122963 -6.11447e-06 0.000574702
0.0172857 -0.00384359 3.80933e-05
-0.00384359 0.00421503 -3.23474e-05
3.80933e-05 -3.23474e-05 0.00174652
0.00805343 0.00275904 0.000152472
0.00275904 0.002646 -0.000340865
0.000152472 -0.000340865 -0.00138071
0.0116718 0.0012463 1.23477e-05
0.0012463 -0.00047471 4.00244e-05
1.23477e-05 4.00244e-05 -0.000168909
0.00302575 -0.00236697 -5.61863e-05
-0.00236697 -1.68983e-06 7.60861e-05
-5.61863e-05 7.60861e-05 -0.000111738
0.0110936 -0.00416781 0.000146877
-0.00416781 0.00464958 -0.000104396
0.000146877 -0.000104396 0.000311216
0.00958035 -0.000254421 0.000133519
-0.000254421 0.00443825 -0.0004396
0.000133519 -0.0004396 0.00170182
0.0117355 0.000491354 -0.000128633
0.000491354 -0.0013519 0.000237689
-0.000128633 0.000237689 0.000870978
0.000359247 6.56606e-05 3.43962e-06
6.56606e-05 6.07108e-05 8.39555e-06
3.43962e-06 8.39555e-06 -0.000159188
0.000766195 -0.000132595 5.95795e-07
-0.000132595 0.000328388 -3.89892e-07
5.95795e-07 -3.89892e-07 8.15189e-05
0.000953304 0.000144088 1.73419e-06
0.000144088 0.000387522 -5.24664e-06
1.73419e-06 -5.24664e-06 0.000229974
0.000480828 0.000124687 9.27752e-07
0.000124687 2.15853e-05 9.96514e-06
9.27752e-07 9.96514e-06 -0.000123756
0.000822005 0.000185852 4.71424e-07
0.000185852 0.000294018 9.08258e-07
4.71424e-07 9.08258e-07 9.84624e-05
0.00109657 0.000101434 -4.79383e-06
0.000101434 0.00046275 -4.69787e-06
-4.79383e-06 -4.69787e-06 0.000305132
0.00103691 0.000169128 -1.48661e-06
0.000169128 0.000418817 -1.4135e-07
-1.48661e-06 -1.4135e-07 0.000241898
0.00106222 0.000180167 1.53636e-06
0.000180167 0.000458077 2.59457e-06
1.53636e-06 2.59457e-06 0.000278136
0.00036913 -0.000570858 0.000111568
-0.000570858 -0.000993431 -6.35941e-05
0.000111568 -6.35941e-05 -0.000846485
0.000635064 -0.000680293 -2.29893e-05
-0.000680293 -0.000491387 -5.40647e-06
-2.29893e-05 -5.40647e-06 -0.000445493
0.0010036 -0.000232902 2.12826e-06
-0.000232902 0.000495322 -2.80352e-05
2.12826e-06 -2.80352e-05 0.000199373
0.00164161 -0.000686964 1.89301e-05
-0.000686964 0.000817332 -2.56349e-05
1.89301e-05 -2.56349e-05 0.000472718
0.00256446 -0.000454738 -2.02195e-05
-0.000454738 0.00149251 1.95929e-05
-2.02195e-05 1.95929e-05 0.0011066
0.00152654 -0.000150328 2.66366e-06
-0.000150328 0.000810338 -2.24155e-05
2.66366e-06 -2.24155e-05 0.000527661
-6.02761e-05 -4.49588e-05 3.56957e-06
-4.49588e-05 -0.000207994 7.37184e-06
3.56957e-06 7.37184e-06 -0.000422526
0.000376856 -0.00111628 -5.17199e-06
-0.00111628 -0.000745819 -3.78864e-06
-5.17199e-06 -3.78864e-06 -0.000772301
0.00133799 8.58188e-06 -9.39661e-07
8.58188e-06 0.000828586 -1.28541e-06
-9.39661e-07 -1.28541e-06 0.000507164
0.000398652 -0.000234196 1.65171e-06
-0.000234196 0.000344723 3.98101e-06
1.65171e-06 3.98101e-06 -8.42957e-05
-0.000245929 -0.000375304 2.40026e-05
-0.000375304 -0.000432102 1.01357e-06
2.40026e-05 1.01357e-06 -0.000407596
0.000836429 0.000108644 -1.50734e-07
0.000108644 0.000359202 9.4036e-08
-1.50734e-07 9.4036e-08 0.00015784
-0.000392812 -0.000965795 -5.09379e-05
-0.000965795 -0.00058822 -2.5613e-05
-5.09379e-05 -2.5613e-05 -0.00077338
-0.000946238 -0.000388267 -1.50608e-05
-0.000388267 -0.000527274 3.10453e-05
-1.50608e-05 3.10453e-05 -0.000770588
-9.20206e-06 0.000145345 1.9079e-05
0.000145345 0.0003645 -2.80491e-05
1.9079e-05 -2.80491e-05 -0.00017621
0.00217002 0.00032845 -5.14366e-06
0.00032845 0.00131332 -3.20262e-06
-5.14366e-06 -3.20262e-06 0.00104775
-0.00114656 9.5483e-05 0.000103056
9.5483e-05 0.00141382 1.92491e-05
0.000103056 1.92491e-05 0.000546788
0.000494591 -1.80296e-05 0.000151225
-1.80296e-05 0.00125495 -3.28492e-05
0.000151225 -3.28492e-05 -0.00268573
-0.0111486 -0.000332583 -0.000258872
-0.000332583 0.00582263 2.6053e-05
-0.000258872 2.6053e-05 0.000358532
0.00173273 0.000537886 2.02924e-05
0.000537886 0.00100867 2.91051e-06
2.02924e-05 2.91051e-06 0.000700417
-0.000722912 0.000651863 1.26596e-05
0.000651863 -0.000334695 1.08288e-05
1.26596e-05 1.08288e-05 -0.000769195
0.00543973 0.000722684 0.000297395
0.000722684 0.00365527 5.58256e-05
0.000297395 5.58256e-05 0.00129624
0.0100679 0.00362967 0.000270139
0.00362967 0.00343586 0.000193682
0.000270139 0.000193682 -0.000663417
0.00422192 0.00228666 -8.11221e-05
0.00228666 0.00242258 -9.36567e-05
-8.11221e-05 -9.36567e-05 0.00106088
0.00487761 -0.00220528 -0.000177263
-0.00220528 0.00410437 -0.000441093
-0.000177263 -0.000441093 0.000403444
0.00262808 0.000573459 0.000130604
0.000573459 0.000333715 0.000183973
0.000130604 0.000183973 -0.00124358
0.00733952 -0.000201472 -4.9526e-05
-0.000201472 -0.00536066 -0.000232256
-4.9526e-05 -0.000232256 -0.00211748
0.00100313 0.00047392 6.03969e-06
0.00047392 0.000760101 1.77776e-06
6.03969e-06 1.77776e-06 0.000387672
-0.00242265 8.76343e-05 -2.64208e-06
8.76343e-05 6.06469e-05 1.74684e-06
-2.64208e-06 1.74684e-06 -0.000433721
0.00428351 -5.66546e-05 0.000107668
-5.66546e-05 -0.000257115 2.35242e-05
0.000107668 2.35242e-05 -0.000816551
-0.00173699 0.000405163 -1.29534e-05
0.000405163 -0.000302141 -1.05403e-05
-1.29534e-05 -1.05403e-05 -0.00101389
0.0113871 0.00137086 -5.35991e-06
0.00137086 -0.000403258 -4.06964e-05
-5.35991e-06 -4.06964e-05 -0.000180259
0.00251577 0.00183149 0.000210193
0.00183149 0.00369489 0.000131983
0.000210193 0.000131983 -0.00193428
0.00685089 0.000658906 -0.000167063
0.000658906 0.00315159 3.94071e-06
-0.000167063 3.94071e-06 -0.00042833
0.000402871 0.000410523 2.39142e-06
0.000410523 0.000537425 -2.34563e-05
2.39142e-06 -2.34563e-05 2.66664e-05
0.00141705 -1.28374e-05 7.07444e-06
-1.28374e-05 0.000171229 -1.7969e-05
7.07444e-06 -1.7969e-05 -0.000137295
0.00388211 -0.0010618 6.53221e-05
-0.0010618 0.00312971 -0.000230382
6.53221e-05 -0.000230382 0.00129068
0.0189695 0.00458111 0.000301702
0.00458111 0.0055881 -0.000269811
0.000301702 -0.000269811 0.00358126
0.00867093 -0.000119921 -0.000111182
-0.000119921 0.00444913 0.000444935
-0.000111182 0.000444935 0.00142476
0.000306582 0.000412912 -1.79437e-05
0.000412912 0.000658648 -0.000130864
-1.79437e-05 -0.000130864 3.64019e-05
0.00414964 0.00148708 0.000258211
0.00148708 0.00595041 2.97755e-05
0.000258211 2.97755e-05 -0.00215578
0.00133391 0.000329207 9.05131e-06
0.000329207 0.000951627 1.0267e-05
9.05131e-06 1.0267e-05 0.000592762
0.0006201 0.000232017 4.03861e-06
0.000232017 0.000703178 1.32151e-06
4.03861e-06 1.32151e-06 0.000282816
0.000392238 -2.57135e-05 -1.78629e-05
-2.57135e-05 0.000698064 -7.94765e-08
-1.78629e-05 -7.94765e-08 0.000339
-0.000349285 -4.71645e-05 1.22552e-06
-4.71645e-05 -0.000427733 3.85206e-06
1.22552e-06 3.85206e-06 -0.000562888
0.000558145 -1.33919e-05 4.64969e-06
-1.33919e-05 0.000562819 -2.4908e-06
4.64969e-06 -2.4908e-06 0.000170197
0.000159864 4.9938e-05 5.24769e-06
4.9938e-05 0.000464258 -4.39082e-06
5.24769e-06 -4.39082e-06 -1.01621e-05
0.000290957 -3.40484e-05 4.69613e-07
-3.40484e-05 0.000271575 2.71725e-07
4.69613e-07 2.71725e-07 1.93894e-05
-9.82088e-06 -3.20043e-05 4.25707e-06
-3.20043e-05 0.000314353 6.4239e-07
4.25707e-06 6.4239e-07 -9.13542e-05
0.00137798 -0.000343256 3.78351e-06
-0.000343256 0.000921127 -1.12468e-05
3.78351e-06 -1.12468e-05 0.00059588
0.000794857 -8.95801e-05 -6.70874e-06
-8.95801e-05 0.000395234 7.15555e-06
-6.70874e-06 7.15555e-06 0.000251538
0.000484454 -1.15961e-05 -1.29612e-06
-1.15961e-05 7.449e-05 1.90457e-06
-1.29612e-06 1.90457e-06 -5.56356e-05
0.00133962 -0.000268718 1.19244e-06
-0.000268718 0.000589898 5.34868e-06
1.19244e-06 5.34868e-06 0.000419775
-0.00262262 -0.000137452 1.83503e-05
-0.000137452 -0.00161812 1.86683e-05
1.83503e-05 1.86683e-05 -0.00194465
-0.000202436 -0.00011403 9.24379e-06
-0.00011403 -0.000348436 -2.30621e-06
9.24379e-06 -2.30621e-06 -0.000373047
-8.32454e-05 -0.00033339 -9.16492e-07
-0.00033339 -0.000355953 -4.72081e-06
-9.16492e-07 -4.72081e-06 -0.000611438
0.00125439 -0.00052386 2.34488e-09
-0.00052386 0.000315207 -1.24026e-06
2.34488e-09 -1.24026e-06 -0.000128009
0.00167321 -0.000623096 -5.88442e-06
-0.000623096 0.000448453 -4.26654e-07
-5.88442e-06 -4.26654e-07 1.71455e-05
0.00173228 -0.000359537 4.88522e-06
-0.000359537 0.000709517 -3.39929e-06
4.88522e-06 -3.39929e-06 0.000501826
0.00128604 -0.000468262 1.13643e-06
-0.000468262 0.000360507 7.26414e-07
1.13643e-06 7.26414e-07 8.51286e-06
0.00163773 -0.000524239 4.9026e-06
-0.000524239 0.000445664 -4.04694e-06
4.9026e-06 -4.04694e-06 8.12174e-05
0.000869846 -0.000338557 -1.51933e-06
-0.000338557 6.9466e-05 6.26948e-06
-1.51933e-06 6.26948e-06 -0.000210322
0.00113307 -0.0004508 2.18443e-06
-0.0004508 0.000172879 -5.10892e-06
2.18443e-06 -5.10892e-06 -0.000176781
0.000481468 -0.000151053 1.13002e-06
-0.000151053 4.7158e-05 -5.75408e-06
1.13002e-06 -5.75408e-06 -0.000203511
0.00110229 -0.000340589 -6.20015e-06
-0.000340589 0.00035057 3.84226e-06
-6.20015e-06 3.84226e-06 9.542e-05
-0.000856324 -0.000157202 -8.09448e-07
-0.000157202 -0.000945915 -9.71918e-06
-8.09448e-07 -9.71918e-06 -0.00117088
7.20126e-05 -5.46579e-05 1.37567e-06
-5.46579e-05 -0.000220396 -2.2548e-06
1.37567e-06 -2.2548e-06 -0.000397437
0.000413706 -0.000135104 2.49498e-07
-0.000135104 5.64045e-05 4.61138e-07
2.49498e-07 4.61138e-07 -0.000185809
0.000623158 -0.000207967 9.48254e-06
-0.000207967 0.000180828 -3.49631e-07
9.48254e-06 -3.49631e-07 -3.99014e-05
0.000578983 -0.000121217 -1.31791e-07
-0.000121217 0.000136025 3.16915e-06
-1.31791e-07 3.16915e-06 -5.6877e-05
0.000712511 -0.000108637 -4.08934e-08
-0.000108637 0.00017631 3.5369e-07
-4.08934e-08 3.5369e-07 2.24812e-05
0.000579695 -3.68836e-06 2.32114e-06
-3.68836e-06 6.96203e-05 6.30677e-06
2.32114e-06 6.30677e-06 -3.40021e-05
0.000986734 -0.000135233 -2.13102e-06
-0.000135233 0.000362769 -1.09142e-06
-2.13102e-06 -1.09142e-06 0.000211692
0.000575968 -5.57862e-06 -1.1884e-06
-5.57862e-06 6.56935e-05 -3.48939e-07
-1.1884e-06 -3.48939e-07 -2.45058e-05
0.000409418 4.49639e-05 2.09573e-06
4.49639e-05 -5.85504e-05 6.95016e-06
2.09573e-06 6.95016e-06 -9.37484e-05
0.000684607 -6.1841e-05 8.28052e-07
-6.1841e-05 0.000133083 -3.75573e-06
8.28052e-07 -3.75573e-06 4.89554e-05
0.000456572 4.53389e-06 -1.13917e-06
4.53389e-06 -3.96182e-05 -4.28418e-08
-1.13917e-06 -4.28418e-08 -6.86505e-05
0.00257509 9.03604e-05 -2.2597e-06
9.03604e-05 0.00129244 2.58382e-06
-2.2597e-06 2.58382e-06 0.00129737
0.000470746 -1.215e-05 2.32721e-06
-1.215e-05 -2.95197e-05 -6.01311e-06
2.32721e-06 -6.01311e-06 -5.70076e-05
0.00174872 4.69727e-05 1.64762e-05
4.69727e-05 0.000769124 -1.03727e-06
1.64762e-05 -1.03727e-06 0.000774145
0.00259984 4.25128e-05 2.25026e-05
4.25128e-05 0.00130419 -5.58754e-06
2.25026e-05 -5.58754e-06 0.00131562
0.000276112 2.10751e-05 9.87772e-07
2.10751e-05 -0.000108103 9.82321e-07
9.87772e-07 9.82321e-07 -0.000229472
0.000225144 1.07164e-05 1.15184e-06
1.07164e-05 -0.000160316 -2.77103e-06
1.15184e-06 -2.77103e-06 -0.000234394
0.000464402 3.7002e-05 -5.92751e-07
3.7002e-05 2.4399e-05 -1.20877e-06
-5.92751e-07 -1.20877e-06 -0.000101164
0.000497369 2.64248e-06 1.52083e-06
2.64248e-06 -2.1584e-05 -4.20348e-06
1.52083e-06 -4.20348e-06 -3.56464e-05
0.000199264 1.54163e-05 -5.79306e-07
1.54163e-05 -0.000175932 -1.76337e-06
-5.79306e-07 -1.76337e-06 -0.000240437
0.00066935 5.64085e-05 1.61942e-08
5.64085e-05 0.000163023 1.55399e-06
1.61942e-08 1.55399e-06 4.31055e-05
0.00207393 -1.88323e-05 -1.6208e-05
-1.88323e-05 0.000970218 -4.67348e-06
-1.6208e-05 -4.67348e-06 0.000987893
0.000475321 1.3129e-06 -6.28845e-07
1.3129e-06 -3.54253e-05 -6.78758e-08
-6.28845e-07 -6.78758e-08 -4.61569e-05
0.000119361 1.45384e-05 1.53048e-06
1.45384e-05 -0.000224375 1.57001e-06
1.53048e-06 1.57001e-06 -0.000280475
0.00202997 -4.19917e-06 -4.0378e-06
-4.19917e-06 0.00094352 4.46302e-08
-4.0378e-06 4.46302e-08 0.000961606
0.000456935 2.35558e-06 -1.38025e-06
2.35558e-06 -4.63395e-05 3.41519e-06
-1.38025e-06 3.41519e-06 -5.51758e-05
0.00205202 1.14147e-05 6.62245e-06
1.14147e-05 0.000959071 4.84195e-06
6.62245e-06 4.84195e-06 0.000976494
0.000431979 -3.82459e-05 0.000121664
-3.82459e-05 0.002035 4.54922e-05
0.000121664 4.54922e-05 0.0014536
-0.000213114 -0.000366821 -4.77924e-05
-0.000366821 0.000372078 -1.1375e-05
-4.77924e-05 -1.1375e-05 -0.00332762
0.000210695 0.000568436 -2.50047e-05
0.000568436 0.00696208 -4.3795e-05
-2.50047e-05 -4.3795e-05 0.00287793
0.000756803 0.000131765 5.08511e-07
0.000131765 0.00019672 6.873e-08
5.08511e-07 6.873e-08 5.01777e-05
0.000358253 9.12778e-05 5.56841e-06
9.12778e-05 -6.57173e-05 4.76293e-06
5.56841e-06 4.76293e-06 -0.000199567
0.00105928 0.000189222 7.67832e-06
0.000189222 0.000386359 8.13048e-06
7.67832e-06 8.13048e-06 0.000238035
0.00569043 -0.000289837 -8.08671e-05
-0.000289837 -0.000406253 0.000226868
-8.08671e-05 0.000226868 -0.0014045
0.00483989 -0.000980597 8.83342e-05
-0.000980597 0.00284702 3.83366e-06
8.83342e-05 3.83366e-06 0.00139804
0.00460451 -0.00166533 0.000182531
-0.00166533 0.00193819 -0.000246386
0.000182531 -0.000246386 -0.00272977
0.00850254 -0.00255083 -2.44535e-05
-0.00255083 0.000291913 -3.25717e-05
-2.44535e-05 -3.25717e-05 0.000914804
0.000874181 -0.00304857 -0.000388142
-0.00304857 -0.00197856 9.89736e-05
-0.000388142 9.89736e-05 -0.00475819
0.0256596 0.00400208 0.000206754
0.00400208 0.0104055 0.00016548
0.000206754 0.00016548 0.00598225
0.00705672 -9.43554e-05 0.000279693
-9.43554e-05 -0.0027886 -0.000225177
0.000279693 -0.000225177 -0.00291098
0.00448614 -0.00271737 -3.11642e-05
-0.00271737 9.33391e-05 1.73751e-05
-3.11642e-05 1.73751e-05 0.000394313
0.00728898 -0.00395013 -0.000111506
-0.00395013 0.00274335 2.06502e-05
-0.000111506 2.06502e-05 -0.00193091
-0.00243562 0.00360344 -8.76032e-05
0.00360344 0.00363782 -0.000302299
-8.76032e-05 -0.000302299 -0.001101
0.00970249 0.000132941 -7.26822e-05
0.000132941 -0.00353469 0.000138006
-7.26822e-05 0.000138006 -0.000617925
0.00191779 -0.00192461 -0.000113902
-0.00192461 0.00110609 4.93718e-05
-0.000113902 4.93718e-05 0.000683264
0.0106153 -0.00294201 -0.000291394
-0.00294201 0.00567424 0.000170893
-0.000291394 0.000170893 0.000621593
-0.000550757 -6.92147e-05 4.2925e-05
-6.92147e-05 0.00234367 -0.000341842
4.2925e-05 -0.000341842 -0.0013494
0.00886094 -0.000939707 0.000118648
-0.000939707 -0.00197487 5.74799e-05
0.000118648 5.74799e-05 -0.00117609
0.000274689 9.68625e-05 5.51379e-06
9.68625e-05 -5.97025e-05 1.77486e-05
5.51379e-06 1.77486e-05 -0.000210333
0.000720282 -7.45928e-06 2.59248e-06
-7.45928e-06 0.000263632 -3.3169e-06
2.59248e-06 -3.3169e-06 3.41378e-05
0.000438498 -0.000154503 1.58472e-06
-0.000154503 4.69217e-05 -1.09108e-05
1.58472e-06 -1.09108e-05 -0.000162368
0.000661588 0.000132907 -2.03926e-06
0.000132907 0.000137106 1.34414e-06
-2.03926e-06 1.34414e-06 -1.59142e-05
0.000735654 0.00013608 2.4357e-06
0.00013608 0.000241553 -4.62176e-06
2.4357e-06 -4.62176e-06 5.88332e-05
0.00117747 0.000196001 -3.51371e-06
0.000196001 0.000510927 -3.99297e-06
-3.51371e-06 -3.99297e-06 0.00033098
-0.000674875 -0.000952357 3.19672e-05
-0.000952357 -0.00122849 -1.38112e-05
3.19672e-05 -1.38112e-05 -0.00125382
0.00102335 -0.000360959 2.44235e-05
-0.000360959 0.000286941 -2.53996e-05
2.44235e-05 -2.53996e-05 0.000327966
5.23901e-06 3.73161e-05 -1.14014e-06
3.73161e-05 -0.000160988 -1.31624e-05
-1.14014e-06 -1.31624e-05 -0.000385462
0.00214789 -0.00045987 5.81361e-05
-0.00045987 0.00129444 -2.47499e-05
5.81361e-05 -2.47499e-05 0.000898695
0.00174568 -0.000111929 -2.14754e-06
-0.000111929 0.00103705 6.99855e-06
-2.14754e-06 6.99855e-06 0.000739612
-1.50078e-05 9.41091e-05 3.82533e-06
9.41091e-05 -0.00011236 4.37575e-06
3.82533e-06 4.37575e-06 -0.000332246
0.00065779 0.000130666 9.14962e-07
0.000130666 0.000376601 -2.8438e-06
9.14962e-07 -2.8438e-06 0.000145561
0.000289586 -0.00110188 -2.05051e-05
-0.00110188 -0.000299288 -2.72123e-06
-2.05051e-05 -2.72123e-06 -0.000586567
0.00024133 -3.31216e-05 -6.32064e-06
-3.31216e-05 0.000508205 5.04954e-06
-6.32064e-06 5.04954e-06 -1.39441e-05
0.00133197 -0.000340256 -1.64798e-07
-0.000340256 0.000744148 -9.46008e-06
-1.64798e-07 -9.46008e-06 0.000433407
0.000847629 0.00016201 5.68829e-07
0.00016201 0.000478084 -1.39234e-05
5.68829e-07 -1.39234e-05 0.000263911
-0.00233056 -0.000243072 -6.80485e-05
-0.000243072 -0.000400109 -1.52701e-05
-6.80485e-05 -1.52701e-05 -0.0012645
0.00042222 -0.000186234 -2.72015e-05
-0.000186234 0.000630556 8.13052e-06
-2.72015e-05 8.13052e-06 0.000257171
6.48581e-05 0.000105337 -1.10421e-05
0.000105337 0.000439041 1.15591e-05
-1.10421e-05 1.15591e-05 -4.64945e-06
-0.000213471 0.000167153 -9.75879e-06
0.000167153 -0.000613366 2.4515e-06
-9.75879e-06 2.4515e-06 -0.00165004
-0.00171837 0.000166996 4.78631e-05
0.000166996 0.0011363 -1.40354e-05
4.78631e-05 -1.40354e-05 0.000282293
-0.000332654 -0.000152966 0.000322041
-0.000152966 0.000682562 2.44102e-05
0.000322041 2.44102e-05 -0.00325983
6.46419e-05 0.000434893 1.00353e-06
0.000434893 0.000195815 1.55973e-05
1.00353e-06 1.55973e-05 -0.000196755
0.000533715 0.000788226 -1.7628e-05
0.000788226 0.000458001 -7.94007e-06
-1.7628e-05 -7.94007e-06 -0.000157855
-0.00220557 4.43064e-05 -3.14858e-05
4.43064e-05 0.000103653 -1.808e-05
-3.14858e-05 -1.808e-05 -0.000526966
-0.00461818 0.000715008 6.3178e-05
0.000715008 0.002414 0.000179366
6.3178e-05 0.000179366 -0.00290712
-0.00155724 0.00129728 -0.000189269
0.00129728 -0.00183091 -0.000460619
-0.000189269 -0.000460619 -0.00624075
0.00356505 2.63961e-05 8.185e-05
2.63961e-05 -0.000342913 9.88848e-05
8.185e-05 9.88848e-05 -0.000369657
0.00660908 5.65436e-05 -0.000280377
5.65436e-05 -0.00254835 0.000229914
-0.000280377 0.000229914 -0.00290676
0.00023322 0.000333927 3.0971e-07
0.000333927 0.000487191 -8.91586e-07
3.0971e-07 -8.91586e-07 4.36895e-05
0.00101977 1.51048e-06 3.04686e-05
1.51048e-06 8.95766e-05 -1.74509e-05
3.04686e-05 -1.74509e-05 -0.000195991
0.00407033 -0.000774243 -8.67388e-05
-0.000774243 0.00280799 2.44897e-06
-8.67388e-05 2.44897e-06 0.00132215
-0.000254318 0.000645965 -0.000129725
0.000645965 0.00106997 -5.90777e-06
-0.000129725 -5.90777e-06 -0.00027238
0.0137493 0.00467538 2.64446e-05
0.00467538 0.00272501 -0.000391024
2.64446e-05 -0.000391024 0.000529172
-4.87251e-05 0.00292956 7.49942e-05
0.00292956 0.00402797 0.000312492
7.49942e-05 0.000312492 -0.000737514
0.00528722 0.000597862 5.77997e-05
0.000597862 0.005848 -2.2905e-05
5.77997e-05 -2.2905e-05 -0.0013445
0.000777249 -2.36122e-05 4.35268e-05
-2.36122e-05 0.00143891 -2.80147e-05
4.35268e-05 -2.80147e-05 0.000456471
4.04016e-05 -0.000133609 -0.000106319
-0.000133609 0.00208655 3.58796e-06
-0.000106319 3.58796e-06 0.00136948
0.00208238 -0.000891491 0.000680496
-0.000891491 0.000727732 -0.000252254
0.000680496 -0.000252254 -0.00407387
0.0177342 0.00675885 -6.3467e-05
0.00675885 0.0120194 6.39995e-07
-6.3467e-05 6.39995e-07 0.00908532
0.00526371 0.00357661 -0.000157616
0.00357661 0.0011963 0.000766557
-0.000157616 0.000766557 -0.00251921
0.0118917 -0.00321788 0.000262137
-0.00321788 0.00584564 -0.000218078
0.000262137 -0.000218078 0.000280904
0.00364782 -0.000729825 -7.09978e-05
-0.000729825 0.00308672 3.86225e-05
-7.09978e-05 3.86225e-05 0.00222351
0.000616623 0.000234562 -1.53715e-06
0.000234562 0.000724781 2.50825e-06
-1.53715e-06 2.50825e-06 0.000294225
3.44567e-05 -5.16792e-05 -8.44471e-06
-5.16792e-05 0.000417326 -2.94623e-06
-8.44471e-06 -2.94623e-06 3.56026e-05
0.00130139 -0.000491373 3.68543e-05
-0.000491373 0.000934133 -1.36946e-05
3.68543e-05 -1.36946e-05 0.00044358
0.00041649 -7.60244e-05 -1.39075e-06
-7.60244e-05 0.000303703 3.18797e-06
-1.39075e-06 3.18797e-06 9.49336e-05
6.84846e-07 -4.14919e-05 9.4099e-07
-4.14919e-05 0.000294185 -1.15219e-05
9.4099e-07 -1.15219e-05 -9.19086e-05
0.000439068 -0.000281931 -4.10939e-06
-0.000281931 0.00049048 3.7518e-07
-4.10939e-06 3.7518e-07 0.000150222
0.000890376 -0.000553263 2.26954e-05
-0.000553263 0.000324664 -2.12039e-05
2.26954e-05 -2.12039e-05 6.04608e-05
0.00246685 -0.000374984 -2.04457e-06
-0.000374984 0.00128815 1.30993e-06
-2.04457e-06 1.30993e-06 0.00107344
0.00186005 -0.000635201 1.46515e-05
-0.000635201 0.000842943 -3.28473e-06
1.46515e-05 -3.28473e-06 0.000455191
0.00106774 -0.00054449 8.70035e-06
-0.00054449 0.000377395 5.20612e-07
8.70035e-06 5.20612e-07 -0.000219445
0.000551296 -0.000340003 -5.6285e-06
-0.000340003 -1.4663e-05 -4.93866e-06
-5.6285e-06 -4.93866e-06 -0.000222145
0.00190656 -0.000600199 -2.3106e-06
-0.000600199 0.000655827 -4.63801e-07
-2.3106e-06 -4.63801e-07 0.000208071
0.00222691 -0.000765497 -5.4477e-06
-0.000765497 0.000749007 2.79697e-07
-5.4477e-06 2.79697e-07 0.000202173
0.00190909 -0.000797861 -1.05633e-05
-0.000797861 0.000420332 1.79713e-06
-1.05633e-05 1.79713e-06 -5.95819e-05
0.00174024 -0.000662896 -1.50903e-06
-0.000662896 0.000469751 -7.74705e-07
-1.50903e-06 -7.74705e-07 4.46782e-05
0.00159367 -0.000617138 -4.86638e-06
-0.000617138 0.000391949 1.40189e-06
-4.86638e-06 1.40189e-06 -4.00775e-05
0.00118474 -0.000461636 -2.00783e-06
-0.000461636 0.000269974 -5.3923e-06
-2.00783e-06 -5.3923e-06 -9.07675e-05
0.00153132 -0.00047693 9.30941e-06
-0.00047693 0.000453257 -1.50081e-06
9.30941e-06 -1.50081e-06 0.000117477
0.00156302 -0.000522826 5.66842e-06
-0.000522826 0.00040149 -2.39856e-06
5.66842e-06 -2.39856e-06 3.71514e-05
0.000578088 -0.000223553 2.92484e-06
-0.000223553 -1.00074e-05 -3.87036e-07
2.92484e-06 -3.87036e-07 -0.000253049
0.00098281 -0.000361496 3.7877e-06
-0.000361496 0.000149907 -2.74694e-06
3.7877e-06 -2.74694e-06 -0.00013439
0.000475958 -0.000369328 -1.83962e-06
-0.000369328 -0.000220546 -8.43152e-06
-1.83962e-06 -8.43152e-06 -0.000545264
-7.33374e-05 -5.2079e-05 7.63234e-07
-5.2079e-05 -0.00028007 -2.67217e-06
7.63234e-07 -2.67217e-06 -0.000518226
0.00105926 -0.000219953 -4.23813e-07
-0.000219953 0.000417757 1.20722e-07
-4.23813e-07 1.20722e-07 0.000155412
0.000721807 -0.000318454 -3.13347e-06
-0.000318454 0.000127842 -1.66164e-06
-3.13347e-06 -1.66164e-06 -0.000138557
0.000664255 -4.07103e-05 5.00655e-07
-4.07103e-05 0.000117434 7.69244e-06
5.00655e-07 7.69244e-06 -1.00006e-06
0.000792327 -0.000111265 -3.45374e-07
-0.000111265 0.000224048 -1.33589e-07
-3.45374e-07 -1.33589e-07 4.13567e-05
2.92735e-05 -0.000107333 4.26008e-07
-0.000107333 -0.000174833 4.06425e-06
4.26008e-07 4.06425e-06 -0.000405972
0.00105139 -0.000130601 -5.27092e-07
-0.000130601 0.000397693 -6.0434e-07
-5.27092e-07 -6.0434e-07 0.000233203
0.000610097 -4.72233e-05 -1.43475e-07
-4.72233e-05 8.57921e-05 -3.68912e-07
-1.43475e-07 -3.68912e-07 -1.89928e-05
0.000367253 2.66576e-05 2.00924e-06
2.66576e-05 -7.79896e-05 9.13127e-06
2.00924e-06 9.13127e-06 -0.000119597
0.000650558 -5.26549e-05 -4.65534e-07
-5.26549e-05 0.000108759 -4.65433e-06
-4.65534e-07 -4.65433e-06 1.79548e-05
0.000482494 1.7325e-05 -2.59528e-06
1.7325e-05 -1.77739e-05 -2.36728e-07
-2.59528e-06 -2.36728e-07 -5.09428e-05
0.00272568 9.69861e-05 -3.66606e-05
9.69861e-05 0.00139389 4.63778e-06
-3.66606e-05 4.63778e-06 0.00139835
0.00050083 -3.31232e-06 2.16001e-06
-3.31232e-06 -1.39385e-05 -6.2237e-06
2.16001e-06 -6.2237e-06 -4.23857e-05
0.00174409 6.31646e-05 1.91461e-05
6.31646e-05 0.000768744 -7.3131e-07
1.91461e-05 -7.3131e-07 0.000771479
0.00266389 6.14038e-05 2.77383e-05
6.14038e-05 0.00134542 -5.24558e-06
2.77383e-05 -5.24558e-06 0.00135507
0.000748186 9.87099e-05 3.9823e-06
9.87099e-05 0.000200531 1.20021e-06
3.9823e-06 1.20021e-06 6.40943e-05
0.00051907 4.78687e-05 1.55429e-06
4.78687e-05 2.39058e-05 -2.02086e-06
1.55429e-06 -2.02086e-06 -5.6024e-05
0.000460063 5.34185e-05 -1.03271e-06
5.34185e-05 2.1756e-05 -1.25486e-06
-1.03271e-06 -1.25486e-06 -0.000110834
0.000492586 3.58246e-06 8.11512e-07
3.58246e-06 -2.42234e-05 -5.11217e-06
8.11512e-07 -5.11217e-06 -4.31034e-05
0.000330513 3.81887e-05 -2.23752e-06
3.81887e-05 -9.29704e-05 -1.83109e-06
-2.23752e-06 -1.83109e-06 -0.000166428
0.000662267 7.7269e-05 -7.74319e-07
7.7269e-05 0.000151902 -2.64801e-06
-7.74319e-07 -2.64801e-06 2.59029e-05
0.00217465 -3.41977e-05 -2.02406e-05
-3.41977e-05 0.00103361 -4.773e-06
-2.02406e-05 -4.773e-06 0.00104987
0.000468541 -3.12786e-06 2.01442e-08
-3.12786e-06 -4.03829e-05 -1.3628e-07
2.01442e-08 -1.3628e-07 -5.39487e-05
0.000131549 1.41003e-05 -1.38453e-06
1.41003e-05 -0.000218629 3.38955e-07
-1.38453e-06 3.38955e-07 -0.000284353
0.00211295 -1.82375e-05 -5.36562e-06
-1.82375e-05 0.000994909 1.25475e-07
-5.36562e-06 1.25475e-07 0.00101246
0.000463689 -1.794e-06 -2.26066e-06
-1.794e-06 -4.301e-05 3.50488e-06
-2.26066e-06 3.50488e-06 -5.3477e-05
0.0020619 -2.7601e-06 1.14567e-05
-2.7601e-06 0.000963553 4.81971e-06
1.14567e-05 4.81971e-06 0.000981508
0.00137959 -0.000229201 -5.53461e-05
-0.000229201 7.10732e-05 3.40454e-05
-5.53461e-05 3.40454e-05 -0.000266211
-0.000582016 -0.000205871 6.03677e-05
-0.000205871 0.00170669 -3.34971e-06
6.03677e-05 -3.34971e-06 0.000980432
-0.000785122 -0.000370779 0.000153964
-0.000370779 0.00059609 -0.000136408
0.000153964 -0.000136408 -0.00351521
0.000137074 4.94409e-05 2.80668e-06
4.94409e-05 -0.00020028 4.24772e-06
2.80668e-06 4.24772e-06 -0.000340464
0.00214106 0.000103561 1.37356e-06
0.000103561 0.00103662 2.26406e-06
1.37356e-06 2.26406e-06 0.000868346
0.000738758 0.000147074 -2.60735e-06
0.000147074 0.000191118 -5.00303e-06
-2.60735e-06 -5.00303e-06 4.77932e-05
0.000399035 7.75397e-05 8.41837e-07
7.75397e-05 -5.33145e-05 8.95419e-07
8.41837e-07 8.95419e-07 -0.000178243
0.000449795 9.49431e-05 3.75842e-07
9.49431e-05 -5.83408e-06 -6.86871e-07
3.75842e-07 -6.86871e-07 -0.000132379
0.000481975 8.88282e-05 6.02492e-06
8.88282e-05 1.1143e-05 2.79619e-06
6.02492e-06 2.79619e-06 -0.00010905
0.0004073 0.000150476 1.07223e-05
0.000150476 1.02243e-05 7.64496e-06
1.07223e-05 7.64496e-06 -0.000124921
0.00156348 0.000853229 0.000196763
0.000853229 -0.000459911 0.000242397
0.000196763 0.000242397 -0.00176662
0.00469996 -0.000192307 -4.66271e-05
-0.000192307 -0.000215496 5.6303e-05
-4.66271e-05 5.6303e-05 -0.00101647
0.00396515 -0.000670939 0.000188305
-0.000670939 0.00269249 -0.000106331
0.000188305 -0.000106331 0.00147142
0.00762244 -0.00012323 -3.53713e-07
-0.00012323 -0.00578565 0.000172997
-3.53713e-07 0.000172997 -0.00210556
0.00425565 -0.00266081 -0.0001139
-0.00266081 0.000496952 4.11918e-05
-0.0001139 4.11918e-05 0.000605086
0.0013523 -0.0037543 -0.000247901
-0.0037543 0.00152735 7.76622e-05
-0.000247901 7.76622e-05 -0.00403387
0.0149247 0.00408469 0.000116318
0.00408469 0.00705984 -0.000145268
0.000116318 -0.000145268 0.00273138
0.00243247 -0.00222974 -6.0608e-05
-0.00222974 0.000182786 2.38084e-05
-6.0608e-05 2.38084e-05 0.000389843
-0.00129406 -0.000764658 -5.45232e-05
-0.000764658 0.00368192 5.19789e-05
-5.45232e-05 5.19789e-05 -0.00316075
0.00778825 0.000567771 0.000188167
0.000567771 0.00318241 -2.54624e-05
0.000188167 -2.54624e-05 -0.00016607
0.0149576 -0.00206611 -7.24021e-05
-0.00206611 0.00196784 -1.92234e-05
-7.24021e-05 -1.92234e-05 0.00323507
-0.00126373 -0.000513115 -0.000192596
-0.000513115 0.000172161 0.000143263
-0.000192596 0.000143263 0.000142967
0.00350087 0.00202392 -0.000183011
0.00202392 0.00522521 -8.96919e-05
-0.000183011 -8.96919e-05 -0.00174587
-0.00205559 -0.00483662 8.20033e-06
-0.00483662 -0.000510635 -0.000242332
8.20033e-06 -0.000242332 -0.00527603
0.0131268 -0.00281132 0.000119159
-0.00281132 0.00333199 -0.00060491
0.000119159 -0.00060491 0.00199518
0.000826016 2.31191e-05 1.2067e-05
2.31191e-05 0.00042051 2.71058e-06
1.2067e-05 2.71058e-06 0.000201686
0.000816921 0.000181147 -1.17473e-06
0.000181147 0.000300303 -3.17167e-06
-1.17473e-06 -3.17167e-06 0.000134333
0.000997971 -2.24335e-05 8.16696e-07
-2.24335e-05 0.000456857 -2.58443e-06
8.16696e-07 -2.58443e-06 0.00020064
0.00107042 0.000159524 -3.92782e-06
0.000159524 0.000419571 -9.39534e-06
-3.92782e-06 -9.39534e-06 0.000243749
0.00096089 -0.000984083 3.27124e-05
-0.000984083 9.48971e-05 3.24249e-05
3.27124e-05 3.24249e-05 -0.000257553
0.00281552 -0.000326365 1.71486e-07
-0.000326365 0.00165724 -2.76757e-05
1.71486e-07 -2.76757e-05 0.0012621
0.000892846 9.90766e-05 -8.41772e-06
9.90766e-05 0.000430598 -1.36159e-05
-8.41772e-06 -1.36159e-05 0.00023474
0.000112641 9.36272e-05 -1.64567e-06
9.36272e-05 3.42623e-05 -4.22605e-06
-1.64567e-06 -4.22605e-06 -0.0001887
0.000469304 1.10422e-05 -1.59744e-06
1.10422e-05 0.000620178 1.73784e-05
-1.59744e-06 1.73784e-05 0.000171258
0.000409372 5.79732e-05 3.18626e-06
5.79732e-05 0.000161425 4.36231e-06
3.18626e-06 4.36231e-06 -1.51901e-05
0.000189115 0.000129678 3.58808e-06
0.000129678 0.000515637 1.82444e-06
3.58808e-06 1.82444e-06 5.70287e-05
0.00118982 -0.000407897 8.3831e-07
-0.000407897 0.0013347 4.36958e-06
8.3831e-07 4.36958e-06 0.000228204
0.000114629 -0.000118583 1.10005e-05
-0.000118583 0.000642867 1.55346e-06
1.10005e-05 1.55346e-06 0.000237619
-0.000798449 8.94996e-05 1.70327e-06
8.94996e-05 -0.000350969 -1.14998e-05
1.70327e-06 -1.14998e-05 -0.000584952
0.00209201 -2.1101e-05 -8.10378e-05
-2.1101e-05 0.00347569 -3.11246e-05
-8.10378e-05 -3.11246e-05 0.00174559
0.000852891 0.000317188 -2.99674e-05
0.000317188 0.00105219 1.79982e-05
-2.99674e-05 1.79982e-05 0.000523553
-0.00169347 6.02004e-05 -7.30085e-05
6.02004e-05 0.00147273 -9.76464e-06
-7.30085e-05 -9.76464e-06 0.000493228
0.000899704 4.36229e-05 1.28278e-05
4.36229e-05 -0.000115616 4.6812e-06
1.28278e-05 4.6812e-06 -0.000503821
-0.0024634 0.000214806 -1.1918e-05
0.000214806 0.000766854 -5.58398e-05
-1.1918e-05 -5.58398e-05 -5.29313e-05
0.000200913 0.000245232 -2.10888e-05
0.000245232 0.000564844 7.05452e-06
-2.10888e-05 7.05452e-06 0.000207739
-0.00150736 0.000784497 0.000135557
0.000784497 -0.000250021 0.000102178
0.000135557 0.000102178 -0.000957781
0.000682798 1.88476e-05 5.64252e-05
1.88476e-05 6.55185e-06 -6.03973e-06
5.64252e-05 -6.03973e-06 -8.61918e-05
0.00538302 -0.00199302 0.000218892
-0.00199302 0.00551024 -0.000176182
0.000218892 -0.000176182 -0.00250759
0.0171946 0.00357689 -0.000159364
0.00357689 0.00761353 0.000144912
-0.000159364 0.000144912 0.00342285
0.00334427 -0.000584203 -0.00017347
-0.000584203 0.00220399 0.000112903
-0.00017347 0.000112903 0.00112221
0.0126554 0.0044007 -6.2526e-05
0.0044007 0.00467927 -0.000206556
-6.2526e-05 -0.000206556 0.0019972
0.000405171 0.000200532 -5.67261e-05
0.000200532 0.00110807 1.42457e-05
-5.67261e-05 1.42457e-05 0.000160779
6.58564e-05 -0.000180602 -6.99383e-05
-0.000180602 0.00169728 1.12057e-06
-6.99383e-05 1.12057e-06 0.00120737
0.00331321 -0.00132034 0.000262149
-0.00132034 0.0015224 -3.31435e-05
0.000262149 -3.31435e-05 -0.00311192
-0.00232468 -0.000130412 4.12033e-05
-0.000130412 -0.000466758 3.02856e-05
4.12033e-05 3.02856e-05 -0.000878825
0.0115222 0.00756802 0.000548128
0.00756802 0.00843466 -0.000251435
0.000548128 -0.000251435 0.00570833
0.00719424 0.00289272 -0.000162221
0.00289272 0.0025876 0.000345421
-0.000162221 0.000345421 -0.00137624
-0.00272383 -0.00119988 0.000161134
-0.00119988 0.00265365 -0.000132633
0.000161134 -0.000132633 -0.00461666
-0.00050661 -0.00037806 2.53777e-05
-0.00037806 0.000587894 -2.6704e-05
2.53777e-05 -2.6704e-05 -0.000354699
0.000216725 -0.000690159 0.000265022
-0.000690159 -0.000211573 -6.38657e-05
0.000265022 -6.38657e-05 -0.00323964
-0.00113326 0.000390359 -0.00104604
0.000390359 0.00632427 0.000287939
-0.00104604 0.000287939 0.00264845
0.0159903 0.00650496 -0.000548587
0.00650496 0.00486714 0.000535509
-0.000548587 0.000535509 0.0014412
0.00852695 -0.00319822 -0.000140176
-0.00319822 0.00348095 5.01117e-05
-0.000140176 5.01117e-05 -0.000139218
0.0028196 -0.00136651 8.73489e-06
-0.00136651 0.00240568 9.83425e-06
8.73489e-06 9.83425e-06 0.00163606
0.000406031 -5.58184e-05 6.53897e-06
-5.58184e-05 0.000572053 8.23391e-07
6.53897e-06 8.23391e-07 0.00018376
0.000108461 -0.000354922 -6.61194e-08
-0.000354922 0.000358759 -7.59012e-07
-6.61194e-08 -7.59012e-07 -0.000142958
0.000484571 -0.00064077 4.0646e-06
-0.00064077 0.000272246 -3.4337e-06
4.0646e-06 -3.4337e-06 1.05703e-05
-0.00050993 -0.000212418 1.33862e-06
-0.000212418 4.14484e-05 7.77092e-06
1.33862e-06 7.77092e-06 -0.000309758
-0.000568107 -0.00036894 2.20211e-07
-0.00036894 -0.00034236 -8.40572e-07
2.20211e-07 -8.40572e-07 -0.000607807
0.00290497 -0.000827718 3.91097e-05
-0.000827718 0.00119687 -9.76569e-06
3.91097e-05 -9.76569e-06 0.000842744
0.00638848 -0.0011619 -1.37637e-05
-0.0011619 0.00332743 -9.036e-08
-1.37637e-05 -9.036e-08 0.00286818
0.00276241 -0.000762307 9.60293e-06
-0.000762307 0.00123065 -1.93734e-06
9.60293e-06 -1.93734e-06 0.000637655
0.00156253 -0.000754064 7.76518e-06
-0.000754064 0.00035445 -1.3738e-05
7.76518e-06 -1.3738e-05 -0.000244423
0.00210205 -0.000617298 -9.78211e-06
-0.000617298 0.000739001 -6.4185e-06
-9.78211e-06 -6.4185e-06 0.000298412
0.00230956 -0.000785216 2.33899e-06
-0.000785216 0.000773628 -1.16718e-06
2.33899e-06 -1.16718e-06 0.000217976
0.00248283 -0.000867324 -7.22018e-07
-0.000867324 0.00078167 -1.04749e-05
-7.22018e-07 -1.04749e-05 0.000231321
0.00212341 -0.000718795 -5.91061e-06
-0.000718795 0.000383217 -5.0704e-06
-5.91061e-06 -5.0704e-06 -7.45158e-07
0.00240251 -0.000853036 -7.17188e-06
-0.000853036 0.000674093 1.49701e-06
-7.17188e-06 1.49701e-06 0.00021176
0.0022291 -0.000836338 -2.75874e-06
-0.000836338 0.000596105 -1.29753e-07
-2.75874e-06 -1.29753e-07 0.000104955
0.00174064 -0.000635595 9.08763e-06
-0.000635595 0.000504272 -2.91328e-06
9.08763e-06 -2.91328e-06 0.000107194
0.00149058 -0.000623899 2.52943e-06
-0.000623899 0.0003266 -6.42638e-07
2.52943e-06 -6.42638e-07 -8.29546e-05
0.00143365 -0.000599201 2.8303e-06
-0.000599201 0.000287671 -3.18404e-08
2.8303e-06 -3.18404e-08 -0.000141705
0.00175957 -0.000443667 7.69189e-06
-0.000443667 0.000630528 3.17503e-06
7.69189e-06 3.17503e-06 0.000322899
0.0013942 -0.000459587 -1.17685e-06
-0.000459587 0.00037174 -1.75733e-06
-1.17685e-06 -1.75733e-06 3.73368e-05
0.00151364 -0.000523301 6.12386e-06
-0.000523301 0.000373698 1.19079e-06
6.12386e-06 1.19079e-06 9.54776e-06
0.00110718 -0.000212352 2.67118e-06
-0.000212352 0.000415838 -4.78099e-06
2.67118e-06 -4.78099e-06 0.000139236
0.000698427 -0.000242784 -2.40858e-06
-0.000242784 8.26897e-05 1.69293e-06
-2.40858e-06 1.69293e-06 -0.000161379
0.000978914 -0.000367293 7.40526e-07
-0.000367293 0.000154484 -9.39654e-06
7.40526e-07 -9.39654e-06 -0.000129504
4.08188e-05 -5.92691e-05 -8.10338e-07
-5.92691e-05 -0.000273212 5.20732e-06
-8.10338e-07 5.20732e-06 -0.000416917
0.000744551 -0.000105416 -1.64896e-07
-0.000105416 0.000223925 8.63105e-07
-1.64896e-07 8.63105e-07 -1.79111e-05
0.00126766 -0.000297384 2.19001e-06
-0.000297384 0.000571818 1.88134e-06
2.19001e-06 1.88134e-06 0.000293551
0.000355945 -3.43222e-06 -4.86105e-06
-3.43222e-06 -9.31893e-05 1.38341e-05
-4.86105e-06 1.38341e-05 -0.000138854
0.000648153 -6.02085e-05 6.77525e-07
-6.02085e-05 0.000100191 7.71749e-08
6.77525e-07 7.71749e-08 -1.78899e-05
0.0013263 -0.000185349 -1.74458e-06
-0.000185349 0.000555559 1.79288e-06
-1.74458e-06 1.79288e-06 0.00036505
0.000628707 -5.33299e-05 -7.97329e-07
-5.33299e-05 9.50653e-05 -5.66549e-06
-7.97329e-07 -5.66549e-06 -1.06186e-05
0.000451831 1.58847e-05 -3.96369e-07
1.58847e-05 -3.02586e-05 -4.0574e-07
-3.96369e-07 -4.0574e-07 -7.01837e-05
0.00286814 0.000121899 -3.74924e-05
0.000121899 0.00149294 4.53881e-06
-3.74924e-05 4.53881e-06 0.00149151
0.000525544 8.51232e-06 1.22621e-06
8.51232e-06 5.411e-06 -7.47607e-06
1.22621e-06 -7.47607e-06 -2.64161e-05
0.00272461 9.99124e-05 4.54437e-06
9.99124e-05 0.00139364 5.22156e-07
4.54437e-06 5.22156e-07 0.00139757
0.00263466 7.98357e-05 3.09212e-05
7.98357e-05 0.00133045 -4.78304e-06
3.09212e-05 -4.78304e-06 0.00133815
0.000880312 9.04457e-05 3.54508e-06
9.04457e-05 0.000346875 -5.0029e-06
3.54508e-06 -5.0029e-06 0.000149224
0.00092826 0.00014266 6.55702e-06
0.00014266 0.000339716 7.37226e-07
6.55702e-06 7.37226e-07 0.000171446
0.000579528 4.11518e-05 2.8734e-06
4.11518e-05 5.89064e-05 -3.15063e-06
2.8734e-06 -3.15063e-06 -2.99674e-05
0.000615762 0.000104502 2.50651e-07
0.000104502 0.0001129 -2.35516e-07
2.50651e-07 -2.35516e-07 -2.01224e-05
0.000474989 7.40494e-07 3.65945e-07
7.40494e-07 -3.27895e-05 -6.26051e-06
3.65945e-07 -6.26051e-06 -5.70888e-05
0.000535826 5.05278e-05 1.94981e-07
5.05278e-05 3.48896e-05 -1.36906e-07
1.94981e-07 -1.36906e-07 -4.51596e-05
0.000575691 5.56246e-05 -3.92634e-06
5.56246e-05 7.98698e-05 -2.14094e-06
-3.92634e-06 -2.14094e-06 -4.3575e-05
0.00232433 -5.0316e-05 -2.63757e-05
-5.0316e-05 0.0011293 -4.93763e-06
-2.63757e-05 -4.93763e-06 0.00114317
0.000476376 -1.60294e-06 -7.60504e-07
-1.60294e-06 -3.40427e-05 -1.6305e-07
-7.60504e-07 -1.6305e-07 -5.24223e-05
0.000478664 5.5614e-05 -3.17e-06
5.5614e-05 1.1062e-06 1.60986e-07
-3.17e-06 1.60986e-07 -7.1888e-05
0.00217345 -3.34852e-05 -4.72626e-06
-3.34852e-05 0.0010328 2.28422e-07
-4.72626e-06 2.28422e-07 0.00104919
0.000472413 -2.65978e-06 -2.33198e-06
-2.65978e-06 -3.84372e-05 3.87804e-06
-2.33198e-06 3.87804e-06 -5.1641e-05
0.00209586 -1.75502e-05 1.54994e-05
-1.75502e-05 0.000983993 4.6802e-06
1.54994e-05 4.6802e-06 0.00100163
-0.00221031 0.000163597 -1.41575e-05
0.000163597 0.00019576 -3.42454e-05
-1.41575e-05 -3.42454e-05 -0.000102244
0.00139335 -0.000190298 -1.55762e-05
-0.000190298 0.000220081 1.09493e-05
-1.55762e-05 1.09493e-05 5.18151e-05
7.89225e-06 -0.000195317 7.92981e-06
-0.000195317 0.00158751 -3.60385e-05
7.92981e-06 -3.60385e-05 0.000995837
0.000803224 0.000100733 -2.19413e-07
0.000100733 0.000256549 9.70093e-07
-2.19413e-07 9.70093e-07 8.46163e-05
0.000326218 8.69522e-05 5.16977e-06
8.69522e-05 -8.73497e-05 -1.40274e-06
5.16977e-06 -1.40274e-06 -0.000242442
-0.00160898 -1.36627e-05 -3.74036e-06
-1.36627e-05 -0.00126801 -7.11008e-06
-3.74036e-06 -7.11008e-06 -0.00141073
-0.000429349 2.93131e-05 5.96416e-07
2.93131e-05 -0.000531058 1.29024e-05
5.96416e-07 1.29024e-05 -0.000672415
0.00289256 0.000398461 -2.85812e-06
0.000398461 0.00153516 -3.43363e-07
-2.85812e-06 -3.43363e-07 0.00128105
0.000799863 4.64042e-05 -5.68318e-06
4.64042e-05 0.000185712 -4.8184e-06
-5.68318e-06 -4.8184e-06 6.25023e-05
0.000445203 9.97829e-05 -7.20616e-06
9.97829e-05 -1.11997e-05 -1.01704e-05
-7.20616e-06 -1.01704e-05 -0.000130724
0.000745902 6.81472e-05 3.25766e-07
6.81472e-05 0.000175776 -4.38921e-07
3.25766e-07 -4.38921e-07 5.4038e-05
0.000963498 0.000162521 -6.18673e-07
0.000162521 0.000337832 -2.07637e-06
-6.18673e-07 -2.07637e-06 0.000207925
0.000838516 0.000122341 7.32449e-06
0.000122341 0.000396432 -1.47763e-05
7.32449e-06 -1.47763e-05 0.000182673
0.00530941 0.00089152 0.000379818
0.00089152 0.00381683 0.000470616
0.000379818 0.000470616 -0.000824226
0.00215392 0.000698626 2.00216e-05
0.000698626 3.90764e-05 8.79989e-05
2.00216e-05 8.79989e-05 -0.00150314
0.00410838 -0.000139302 3.38145e-05
-0.000139302 -0.000201987 -1.90282e-05
3.38145e-05 -1.90282e-05 -0.000580851
0.0139414 -0.00180204 -0.000263716
-0.00180204 0.00214039 -0.000126575
-0.000263716 -0.000126575 0.0037593
-0.00343695 0.00152715 7.26939e-05
0.00152715 -0.00219322 0.000424407
7.26939e-05 0.000424407 -0.00664009
0.0022169 -0.00221252 -5.37641e-05
-0.00221252 0.000610919 -3.18708e-05
-5.37641e-05 -3.18708e-05 0.000647875
0.00876442 -0.0020673 -0.000125246
-0.0020673 0.00519378 3.04811e-05
-0.000125246 3.04811e-05 0.000132355
0.00104069 -0.000877673 -8.69138e-05
-0.000877673 0.000831073 0.000106588
-8.69138e-05 0.000106588 0.000512807
0.00943627 -9.88722e-05 -0.000147134
-9.88722e-05 0.00629024 1.65976e-06
-0.000147134 1.65976e-06 -7.35612e-05
0.00509997 -0.0025822 0.000100226
-0.0025822 0.00341792 0.000179647
0.000100226 0.000179647 -0.00125561
0.0156145 -0.00398582 -0.000153654
-0.00398582 0.0025695 -0.000701791
-0.000153654 -0.000701791 0.000825757
0.00300503 -1.8907e-05 -0.000128877
-1.8907e-05 0.00293302 0.000111629
-0.000128877 0.000111629 0.00187855
0.0131383 0.00252836 -0.000179919
0.00252836 0.00723537 1.38852e-05
-0.000179919 1.38852e-05 0.00219959
0.0192625 -0.00613722 -0.000169854
-0.00613722 0.00937383 -0.000686154
-0.000169854 -0.000686154 0.00521359
0.0215135 -0.00790207 8.25414e-05
-0.00790207 0.00827911 -7.00127e-05
8.25414e-05 -7.00127e-05 0.00598332
0.000987343 0.000292907 1.35792e-05
0.000292907 0.00056273 -4.3375e-07
1.35792e-05 -4.3375e-07 0.000276055
7.27885e-05 4.81854e-05 3.05968e-06
4.81854e-05 2.91324e-05 2.64619e-06
3.05968e-06 2.64619e-06 -0.000232126
0.000884329 0.000178525 -1.00271e-05
0.000178525 0.000357313 -1.35313e-05
-1.00271e-05 -1.35313e-05 0.000178556
0.00338444 -0.000591606 2.36854e-05
-0.000591606 0.00203033 2.65497e-05
2.36854e-05 2.65497e-05 0.000757869
5.94735e-05 -9.69831e-05 1.02584e-05
-9.69831e-05 0.000759596 -3.97065e-05
1.02584e-05 -3.97065e-05 0.000307135
-5.87678e-05 3.84439e-05 -5.1195e-06
3.84439e-05 -0.000126015 1.83952e-06
-5.1195e-06 1.83952e-06 -0.000297026
-0.000675456 1.86126e-05 1.26286e-05
1.86126e-05 1.45516e-05 -7.2897e-06
1.26286e-05 -7.2897e-06 -0.000453493
4.2975e-05 0.000110408 1.65958e-07
0.000110408 0.000123332 -9.9815e-07
1.65958e-07 -9.9815e-07 -0.000121075
0.000453435 0.000336785 1.28633e-05
0.000336785 0.000688475 -4.20141e-08
1.28633e-05 -4.20141e-08 0.000157919
-0.00201853 -8.35514e-05 0.000263934
-8.35514e-05 0.000870953 -2.03231e-05
0.000263934 -2.03231e-05 -0.000960829
-0.00123573 0.000319722 -1.00806e-05
0.000319722 -0.000637107 1.22826e-05
-1.00806e-05 1.22826e-05 -0.00100088
0.00297049 0.000901634 -0.000143449
0.000901634 0.00226722 -7.46029e-05
-0.000143449 -7.46029e-05 0.000892696
0.00132024 0.000197461 0.000173996
0.000197461 0.00169406 5.81133e-05
0.000173996 5.81133e-05 -0.0022534
-0.00202595 0.000163041 -5.1336e-05
0.000163041 0.00119663 1.59199e-05
-5.1336e-05 1.59199e-05 0.000171268
0.00223089 -0.000224267 -2.33153e-05
-0.000224267 0.000545633 -2.09867e-06
-2.33153e-05 -2.09867e-06 0.000729377
-0.00066079 0.000497042 0.000125255
0.000497042 0.000385758 1.26577e-05
0.000125255 1.26577e-05 -0.000635562
0.00130996 0.000310342 -9.32862e-05
0.000310342 0.00216559 9.05395e-05
-9.32862e-05 9.05395e-05 0.000828819
-0.000166282 -0.000247424 -1.08154e-05
-0.000247424 0.00150457 -4.03418e-06
-1.08154e-05 -4.03418e-06 0.000855449
0.0164339 -0.00385772 0.000218531
-0.00385772 0.00814911 -0.000103942
0.000218531 -0.000103942 0.00219904
0.0229494 0.00441989 -0.000115753
0.00441989 0.0101074 -0.000148461
-0.000115753 -0.000148461 0.00567947
0.00489697 -0.00149173 -0.000242512
-0.00149173 0.00244387 0.000239829
-0.000242512 0.000239829 -0.00203497
0.00403108 0.00866009 0.0023604
0.00866009 0.00413438 -0.00150388
0.0023604 -0.00150388 0.0013497
0.00111753 -0.000469356 3.69746e-05
-0.000469356 0.00141505 -1.10846e-05
3.69746e-05 -1.10846e-05 0.000389644
-0.000263684 -0.00050145 4.11067e-05
-0.00050145 0.000348672 1.38627e-05
4.11067e-05 1.38627e-05 -0.00325146
-0.000449173 0.000796962 -0.00109999
0.000796962 0.00605616 0.000333056
-0.00109999 0.000333056 0.00205084
0.000774475 -0.000787763 7.97717e-06
-0.000787763 0.0012141 3.21417e-05
7.97717e-06 3.21417e-05 0.000533927
0.019222 0.00583287 0.000331892
0.00583287 0.00596358 9.32641e-05
0.000331892 9.32641e-05 0.00253148
0.0074338 -0.00454581 0.000184744
-0.00454581 0.00244293 -7.42663e-05
0.000184744 -7.42663e-05 -0.00142589
0.00137563 -0.00118517 -1.14059e-05
-0.00118517 0.000864759 2.94257e-05
-1.14059e-05 2.94257e-05 0.000111511
-0.00637846 -0.00166187 0.000135939
-0.00166187 0.00525392 -7.37228e-05
0.000135939 -7.37228e-05 0.00134295
0.0155175 0.00558073 -0.00145295
0.00558073 0.0060817 0.000512433
-0.00145295 0.000512433 0.00330825
0.00616014 -0.00335657 -0.00042024
-0.00335657 -0.000388861 0.000184929
-0.00042024 0.000184929 -0.00373961
0.00130939 -0.00190366 0.000189393
-0.00190366 7.54133e-05 -0.000117197
0.000189393 -0.000117197 0.000967932
0.000967937 -0.00048041 -9.2292e-05
-0.00048041 0.000738698 3.20917e-05
-9.2292e-05 3.20917e-05 0.00028932
0.000713222 -0.000576131 -6.30055e-06
-0.000576131 0.000431755 1.19493e-05
-6.30055e-06 1.19493e-05 0.000105793
0.00323048 -0.0008751 2.11779e-05
-0.0008751 0.00147598 -1.04185e-05
2.11779e-05 -1.04185e-05 0.00111306
-0.00184823 -0.000186224 7.41788e-06
-0.000186224 -0.000894763 1.09993e-05
7.41788e-06 1.09993e-05 -0.00115978
0.00120512 -0.000615629 4.7809e-06
-0.000615629 0.000312344 -2.25618e-06
4.7809e-06 -2.25618e-06 -2.39572e-05
0.00292269 -0.00093029 9.67358e-06
-0.00093029 0.000902913 -1.11828e-06
9.67358e-06 -1.11828e-06 0.000521393
0.00407087 -0.00092737 -2.85694e-05
-0.00092737 0.00188419 3.03383e-06
-2.85694e-05 3.03383e-06 0.00129948
0.00138806 -0.000706643 -4.81977e-07
-0.000706643 0.000245832 -1.18583e-06
-4.81977e-07 -1.18583e-06 -0.000331266
0.00176812 -0.000867015 1.9129e-06
-0.000867015 0.000215067 -1.20375e-05
1.9129e-06 -1.20375e-05 -0.00024676
0.00279498 -0.000855437 4.13671e-07
-0.000855437 0.00101709 4.38051e-06
4.13671e-07 4.38051e-06 0.000447375
0.00218249 -0.000836579 9.67778e-07
-0.000836579 0.000590729 -4.67662e-06
9.67778e-07 -4.67662e-06 5.97786e-05
0.00259299 -0.000777739 -1.86074e-08
-0.000777739 0.000598713 -9.73192e-06
-1.86074e-08 -9.73192e-06 0.000218796
0.00172548 -0.00050437 -5.62018e-06
-0.00050437 2.89507e-07 -3.04708e-06
-5.62018e-06 -3.04708e-06 -0.000245661
0.00188212 -0.000718451 -1.8465e-06
-0.000718451 0.000193187 -1.43455e-06
-1.8465e-06 -1.43455e-06 -0.000189131
0.00212367 -0.000720196 2.93683e-06
-0.000720196 0.000375174 -2.91902e-06
2.93683e-06 -2.91902e-06 -6.82491e-06
0.00223956 -0.000748726 -3.02579e-06
-0.000748726 0.000642994 -7.55425e-07
-3.02579e-06 -7.55425e-07 0.000228611
0.00235135 -0.00084637 -2.92459e-06
-0.00084637 0.000655169 4.44456e-08
-2.92459e-06 4.44456e-08 0.000188685
0.0024876 -0.000868672 6.79485e-06
-0.000868672 0.000734389 -3.63816e-06
6.79485e-06 -3.63816e-06 0.000233103
0.0019199 -0.000556321 7.11817e-06
-0.000556321 0.000669655 6.41806e-07
7.11817e-06 6.41806e-07 0.00030811
0.0013871 -0.000586448 2.41306e-06
-0.000586448 0.000305519 -2.58266e-07
2.41306e-06 -2.58266e-07 -7.70408e-05
0.00126987 -0.000590902 2.1292e-06
-0.000590902 0.000199862 1.78352e-06
2.1292e-06 1.78352e-06 -0.000195418
0.00136997 -0.000348571 -3.07074e-07
-0.000348571 0.000456258 -4.62361e-07
-3.07074e-07 -4.62361e-07 0.000189367
0.00120708 -0.000374037 8.60995e-07
-0.000374037 0.000301264 -4.6584e-07
8.60995e-07 -4.6584e-07 9.18957e-06
0.00136343 -0.000452736 -6.78382e-06
-0.000452736 0.00035739 -2.29438e-07
-6.78382e-06 -2.29438e-07 2.1781e-05
-0.000324045 -9.03992e-05 -2.16183e-06
-9.03992e-05 -0.000488143 1.69988e-06
-2.16183e-06 1.69988e-06 -0.000697343
0.000723937 -0.000224593 5.34083e-07
-0.000224593 0.000186046 -3.25225e-07
5.34083e-07 -3.25225e-07 -9.33393e-05
0.00123527 -0.0002921 -4.76718e-06
-0.0002921 0.000434848 1.93178e-06
-4.76718e-06 1.93178e-06 0.000180483
0.00175735 2.81135e-05 -4.42001e-05
2.81135e-05 0.000795533 8.70697e-06
-4.42001e-05 8.70697e-06 0.000746934
0.000714846 -0.000106156 2.02938e-07
-0.000106156 0.000139037 -5.08356e-07
2.02938e-07 -5.08356e-07 -1.27934e-05
0.00137734 -0.000159839 -1.55639e-06
-0.000159839 0.000616496 3.11169e-06
-1.55639e-06 3.11169e-06 0.000367218
0.000712655 3.58774e-05 -4.9362e-05
3.58774e-05 0.000136223 6.01964e-06
-4.9362e-05 6.01964e-06 0.000126201
0.0011584 1.88597e-05 -1.63844e-05
1.88597e-05 0.00041373 -5.75199e-07
-1.63844e-05 -5.75199e-07 0.000369064
0.00078658 -7.32478e-05 2.08161e-06
-7.32478e-05 0.000180861 -7.02284e-06
2.08161e-06 -7.02284e-06 6.20101e-05
0.00059468 1.00123e-05 1.98792e-06
1.00123e-05 5.53226e-05 -9.51384e-06
1.98792e-06 -9.51384e-06 1.58328e-05
0.00294693 0.000122915 7.91664e-06
0.000122915 0.00154254 7.19987e-07
7.91664e-06 7.19987e-07 0.00154098
0.0027259 0.000100364 3.49018e-05
0.000100364 0.0013947 -4.61934e-06
3.49018e-05 -4.61934e-06 0.00139867
0.000967328 0.000139563 1.07633e-05
0.000139563 0.000382609 -1.34511e-06
1.07633e-05 -1.34511e-06 0.000164149
0.00130178 0.000164422 4.54205e-06
0.000164422 0.00058828 -1.9552e-06
4.54205e-06 -1.9552e-06 0.000387516
1.7552e-05 5.67127e-05 3.92734e-07
5.67127e-05 -0.000218331 6.17251e-07
3.92734e-07 6.17251e-07 -0.000392818
0.000653035 4.06894e-05 3.08628e-06
4.06894e-05 0.000105961 -4.55031e-06
3.08628e-06 -4.55031e-06 4.4292e-06
0.000790975 0.00011096 6.96202e-07
0.00011096 0.000238957 9.09885e-08
6.96202e-07 9.09885e-08 8.28882e-05
0.000466927 1.00489e-05 -1.78651e-06
1.00489e-05 -3.25356e-05 -7.75502e-06
-1.78651e-06 -7.75502e-06 -6.23183e-05
0.000545842 4.3355e-05 -1.06111e-07
4.3355e-05 4.11373e-05 -3.9969e-07
-1.06111e-07 -3.9969e-07 -4.87382e-05
0.000714281 6.73185e-05 -3.3074e-06
6.73185e-05 0.000198083 -5.29331e-07
-3.3074e-06 -5.29331e-07 4.81812e-05
0.00255429 -6.86876e-05 -3.47411e-05
-6.86876e-05 0.00127779 -4.90123e-06
-3.47411e-05 -4.90123e-06 0.00128838
0.000454249 3.02096e-06 -6.15329e-07
3.02096e-06 -4.49576e-05 -1.41118e-07
-6.15329e-07 -1.41118e-07 -6.90677e-05
0.000551858 5.45917e-05 -7.78434e-07
5.45917e-05 4.62781e-05 2.47903e-06
-7.78434e-07 2.47903e-06 -3.42925e-05
0.00233871 -5.06612e-05 -5.98177e-06
-5.06612e-05 0.00113838 3.54621e-07
-5.98177e-06 3.54621e-07 0.0011522
0.000439015 -1.06335e-05 -3.93802e-06
-1.06335e-05 -5.71418e-05 4.80736e-06
-3.93802e-06 4.80736e-06 -7.522e-05
0.00219942 -3.23025e-05 2.10748e-05
-3.23025e-05 0.0010491 4.64164e-06
2.10748e-05 4.64164e-06 0.00106557
0.00646974 0.000607432 0.000312443
0.000607432 0.00366323 6.77381e-05
0.000312443 6.77381e-05 0.00146941
-0.00192506 0.000106842 -2.4573e-06
0.000106842 0.000162644 -6.7701e-06
-2.4573e-06 -6.7701e-06 -0.000362307
0.000639864 7.86324e-05 -1.40012e-05
7.86324e-05 0.000299504 -7.52866e-06
-1.40012e-05 -7.52866e-06 7.69741e-05
-0.000450293 0.00010162 -7.75711e-06
0.00010162 -0.000604054 2.71855e-06
-7.75711e-06 2.71855e-06 -0.000753886
0.000392209 6.35786e-05 -6.17851e-06
6.35786e-05 -1.53888e-05 -3.43323e-06
-6.17851e-06 -3.43323e-06 -0.000169061
-0.000109229 5.67161e-05 -3.87609e-07
5.67161e-05 -0.000352523 -3.35639e-06
-3.87609e-07 -3.35639e-06 -0.000504685
0.00120373 7.22666e-05 1.40031e-06
7.22666e-05 0.000464849 -2.48276e-07
1.40031e-06 -2.48276e-07 0.000311335
0.000111853 9.0333e-05 -2.53453e-06
9.0333e-05 -0.00023425 -2.42879e-06
-2.53453e-06 -2.42879e-06 -0.000380241
0.00208399 0.000293968 -3.33504e-06
0.000293968 0.00104276 -3.88352e-06
-3.33504e-06 -3.88352e-06 0.000841845
0.00102055 0.000245857 -7.37353e-06
0.000245857 0.000343804 -1.40744e-05
-7.37353e-06 -1.40744e-05 4.4179e-05
-0.00103442 9.13852e-05 5.51571e-07
9.13852e-05 -0.000637581 9.29555e-07
5.51571e-07 9.29555e-07 -0.000965337
0.000764229 0.000146657 -5.76829e-06
0.000146657 0.000214035 -4.39991e-06
-5.76829e-06 -4.39991e-06 7.44342e-05
0.000125136 5.5424e-05 -8.40616e-06
5.5424e-05 -0.00022798 -8.49407e-06
-8.40616e-06 -8.49407e-06 -0.000320986
-1.85043e-05 4.60753e-05 9.3169e-08
4.60753e-05 -0.000142879 1.1361e-06
9.3169e-08 1.1361e-06 -0.000343733
0.000927368 0.0002825 1.62224e-05
0.0002825 0.00059217 -2.18923e-06
1.62224e-05 -2.18923e-06 0.000215813
0.00307146 -0.00289052 0.000130966
-0.00289052 0.00562415 0.000252273
0.000130966 0.000252273 0.00034232
0.00610073 0.00124309 0.000127005
0.00124309 0.00314096 0.000166876
0.000127005 0.000166876 -0.00189558
0.0029391 0.000460591 -3.39424e-05
0.000460591 0.0005617 -7.81792e-05
-3.39424e-05 -7.81792e-05 -0.00120687
0.0234097 -0.00504331 -0.000701307
-0.00504331 0.00623793 -0.000363184
-0.000701307 -0.000363184 0.00422238
0.00582668 -0.00171214 0.000265134
-0.00171214 0.00368534 0.000479095
0.000265134 0.000479095 0.000258184
0.00365297 -0.00155145 -0.000237992
-0.00155145 0.00500964 9.51771e-05
-0.000237992 9.51771e-05 -0.00205308
-0.00101726 -0.000507002 0.000131233
-0.000507002 0.00101074 1.47953e-05
0.000131233 1.47953e-05 7.84289e-05
-0.000396482 -0.000151934 8.81633e-05
-0.000151934 0.000964171 5.44706e-05
8.81633e-05 5.44706e-05 0.000297933
0.0135778 -0.00821997 0.000442417
-0.00821997 0.00626418 0.000416808
0.000442417 0.000416808 0.00372431
0.00167281 0.00143119 -9.38577e-05
0.00143119 0.0040265 -8.12251e-05
-9.38577e-05 -8.12251e-05 -0.00232975
0.00781967 -0.00360665 -0.000126896
-0.00360665 0.00341743 0.000101277
-0.000126896 0.000101277 -0.00133772
0.000547631 0.000684435 -1.69923e-05
0.000684435 0.00107686 6.98599e-05
-1.69923e-05 6.98599e-05 0.000748184
0.0117071 0.00376393 -0.000107675
0.00376393 0.00399528 5.69073e-06
-0.000107675 5.69073e-06 0.000258254
0.0139393 -0.00641746 -0.0007984
-0.00641746 0.00418092 -0.000504676
-0.0007984 -0.000504676 0.000439407
-0.000220192 0.000446009 1.2461e-06
0.000446009 -0.000518929 -5.11259e-06
1.2461e-06 -5.11259e-06 -0.000661198
0.000469868 0.000156158 7.9639e-06
0.000156158 0.000217742 3.71121e-06
7.9639e-06 3.71121e-06 -8.87642e-06
3.74508e-05 5.94842e-05 -8.64929e-06
5.94842e-05 -1.16672e-05 -5.10756e-06
-8.64929e-06 -5.10756e-06 -0.000259274
-0.00397309 -0.00035778 -0.00012669
-0.00035778 -0.000320661 -6.70454e-05
-0.00012669 -6.70454e-05 -0.00208804
-0.000831936 0.000250163 1.88773e-05
0.000250163 -0.000178329 -2.15823e-05
1.88773e-05 -2.15823e-05 -0.000695676
0.00148629 0.000189501 -5.2436e-06
0.000189501 0.000939903 1.17156e-05
-5.2436e-06 1.17156e-05 0.00069072
0.00107663 0.000628355 1.48326e-05
0.000628355 0.000563497 3.60163e-06
1.48326e-05 3.60163e-06 0.000173452
-0.000408114 0.000488598 4.10128e-05
0.000488598 0.00064428 -2.97553e-05
4.10128e-05 -2.97553e-05 -0.000536203
0.000669874 0.00123495 6.11371e-05
0.00123495 -4.71154e-05 7.17061e-06
6.11371e-05 7.17061e-06 -0.000836279
-0.00579313 0.00108629 0.000338497
0.00108629 0.00532026 7.18148e-06
0.000338497 7.18148e-06 -0.00125889
0.00227894 -0.000137359 -8.35174e-06
-0.000137359 0.001954 6.29445e-05
-8.35174e-06 6.29445e-05 -0.000768681
-0.00240376 -5.17542e-05 -1.15411e-05
-5.17542e-05 0.000725644 4.90044e-05
-1.15411e-05 4.90044e-05 -5.8914e-05
-0.000434159 -0.00026632 -6.34671e-05
-0.00026632 0.00068598 1.60087e-05
-6.34671e-05 1.60087e-05 -0.000390872
-0.00148991 -0.000395199 -5.84897e-05
-0.000395199 -0.000436867 4.67864e-05
-5.84897e-05 4.67864e-05 -0.000193012
-0.000187038 -0.000412775 -0.000179569
-0.000412775 0.00072272 0.000111323
-0.000179569 0.000111323 -0.00311905
0.000122127 -0.0036593 0.000262644
-0.0036593 0.00209399 -8.60162e-05
0.000262644 -8.60162e-05 -0.00348712
0.0086288 0.00493516 0.000658874
0.00493516 0.000221393 -0.000434028
0.000658874 -0.000434028 -0.00289818
0.00973466 0.00312874 -0.000391315
0.00312874 0.00728965 0.000308111
-0.000391315 0.000308111 0.00328991
0.00120588 -0.000758523 -1.07365e-05
-0.000758523 0.00120753 -2.00462e-06
-1.07365e-05 -2.00462e-06 0.000493928
0.001781 0.000513851 0.000118097
0.000513851 0.00708472 -1.8841e-05
0.000118097 -1.8841e-05 0.00322386
0.000469409 0.00381435 9.70036e-06
0.00381435 0.000621134 6.72639e-05
9.70036e-06 6.72639e-05 -0.0027876
0.00245912 -0.00245489 8.57953e-05
-0.00245489 0.000702837 -3.99944e-05
8.57953e-05 -3.99944e-05 0.00088891
0.0169055 -0.00367859 1.92259e-05
-0.00367859 0.00348492 -3.98992e-06
1.92259e-05 -3.98992e-06 0.00158643
0.00311982 -0.00152342 7.60432e-06
-0.00152342 0.00124075 1.97602e-05
7.60432e-06 1.97602e-05 0.000918918
-0.00847625 0.0011541 -0.000549145
0.0011541 -0.00268272 8.41572e-05
-0.000549145 8.41572e-05 -0.00528328
0.0158858 -0.00236399 -0.000223383
-0.00236399 0.00222364 6.94361e-05
-0.000223383 6.94361e-05 0.000803901
0.00385692 -0.00261015 0.000103593
-0.00261015 -0.000101399 -7.19169e-05
0.000103593 -7.19169e-05 0.000351505
0.000593545 -0.000485694 -1.39119e-05
-0.000485694 0.000447504 1.7364e-05
-1.39119e-05 1.7364e-05 5.31094e-05
0.000965384 -0.000750641 -1.10622e-06
-0.000750641 0.000141204 -1.50281e-06
-1.10622e-06 -1.50281e-06 -9.44361e-05
0.00568206 -0.00105684 2.46196e-05
-0.00105684 0.00243158 -1.15777e-05
2.46196e-05 -1.15777e-05 0.00205341
-0.00075561 -0.000386622 -7.37753e-06
-0.000386622 -0.000706582 7.28832e-06
-7.37753e-06 7.28832e-06 -0.00103032
0.00137217 -0.000756354 -3.91607e-06
-0.000756354 0.000113894 -6.9211e-07
-3.91607e-06 -6.9211e-07 -0.000268544
0.00293332 -0.000987446 5.19487e-06
-0.000987446 0.000717195 -7.63713e-06
5.19487e-06 -7.63713e-06 0.000326976
0.00156551 -0.000705252 -1.24327e-05
-0.000705252 0.000310395 7.94383e-06
-1.24327e-05 7.94383e-06 -0.000249486
0.00189962 -0.000871147 -1.28936e-06
-0.000871147 0.000288348 8.39802e-07
-1.28936e-06 8.39802e-07 -0.000181603
0.00173745 -0.000706617 -3.36987e-07
-0.000706617 -3.67837e-05 -6.87069e-06
-3.36987e-07 -6.87069e-06 -0.000328115
0.00152568 -0.000763812 -2.76663e-06
-0.000763812 0.000207458 2.85667e-06
-2.76663e-06 2.85667e-06 -0.000299912
0.00196366 -0.000697761 -1.10079e-06
-0.000697761 0.000259849 1.46654e-06
-1.10079e-06 1.46654e-06 -0.000102641
0.00199655 -0.000528949 -1.10149e-06
-0.000528949 8.97975e-05 -4.37677e-06
-1.10149e-06 -4.37677e-06 -0.000119766
0.00186422 -0.000436647 -5.23001e-06
-0.000436647 6.91323e-05 -9.7008e-07
-5.23001e-06 -9.7008e-07 -0.000103892
0.00169462 -0.000519678 -6.07411e-06
-0.000519678 -1.20187e-06 -2.01074e-06
-6.07411e-06 -2.01074e-06 -0.000258845
0.0018044 -0.000504844 1.51859e-06
-0.000504844 5.02367e-05 2.7386e-06
1.51859e-06 2.7386e-06 -0.000192263
0.00166212 -0.000620524 -5.98474e-06
-0.000620524 0.000120722 -2.4822e-06
-5.98474e-06 -2.4822e-06 -0.000222579
0.00205043 -0.000725326 2.76435e-06
-0.000725326 0.000311675 -3.45032e-07
2.76435e-06 -3.45032e-07 -6.67506e-05
0.00213116 -0.000720798 6.02459e-06
-0.000720798 0.000374174 1.4591e-06
6.02459e-06 1.4591e-06 -5.63424e-06
0.00162703 -0.000611889 -1.3294e-06
-0.000611889 0.000322223 -2.18409e-06
-1.3294e-06 -2.18409e-06 -5.8119e-05
0.00207099 -0.000735557 1.96568e-06
-0.000735557 0.000539189 -6.82901e-07
1.96568e-06 -6.82901e-07 0.000124762
0.00225836 -0.000833361 1.30751e-06
-0.000833361 0.000612143 -1.61658e-06
1.30751e-06 -1.61658e-06 0.000142569
0.00127512 -0.000364002 -5.9361e-06
-0.000364002 0.000293558 2.01982e-06
-5.9361e-06 2.01982e-06 2.06679e-05
0.00148942 -0.00050543 2.02107e-06
-0.00050543 0.000394505 1.15653e-06
2.02107e-06 1.15653e-06 4.6892e-05
0.000949974 -0.000526465 -5.37983e-06
-0.000526465 5.61722e-05 1.87394e-06
-5.37983e-06 1.87394e-06 -0.000309586
0.000503872 -0.000203872 -6.91697e-06
-0.000203872 -4.49053e-05 -8.02372e-07
-6.91697e-06 -8.02372e-07 -0.000263719
0.00107582 -0.000335995 3.82603e-07
-0.000335995 0.000264158 -6.11462e-07
3.82603e-07 -6.11462e-07 4.3079e-06
0.000384287 -0.000283765 -9.41581e-06
-0.000283765 -0.000191508 1.95636e-07
-9.41581e-06 1.95636e-07 -0.000464748
0.000310591 -4.47008e-05 -1.03733e-05
-4.47008e-05 -0.000127425 1.332e-05
-1.03733e-05 1.332e-05 -0.000198207
0.000843925 -0.000165029 2.57934e-06
-0.000165029 0.000235682 1.09967e-06
2.57934e-06 1.09967e-06 1.82016e-05
0.000733414 -0.000241322 2.31087e-07
-0.000241322 0.000193148 2.16491e-06
2.31087e-07 2.16491e-06 -8.26814e-05
0.00375265 0.000223866 3.04043e-06
0.000223866 0.00208542 4.87202e-06
3.04043e-06 4.87202e-06 0.00205243
0.000478848 -2.04167e-05 2.1038e-07
-2.04167e-05 -1.70929e-05 -4.07627e-07
2.1038e-07 -4.07627e-07 -7.48174e-05
0.00120152 -0.000107404 -2.82197e-07
-0.000107404 0.000445599 -6.44696e-06
-2.82197e-07 -6.44696e-06 0.000284017
0.0032713 0.000141289 8.5662e-06
0.000141289 0.00175387 6.92935e-07
8.5662e-06 6.92935e-07 0.00174768
0.000521562 -2.70927e-06 4.01522e-06
-2.70927e-06 1.13625e-05 -1.10994e-05
4.01522e-06 -1.10994e-05 -3.73142e-05
0.00297242 0.000117654 5.03727e-05
0.000117654 0.00155743 -4.78996e-06
5.03727e-05 -4.78996e-06 0.00155722
0.00217825 0.000320308 7.24334e-06
0.000320308 0.00105499 3.59935e-06
7.24334e-06 3.59935e-06 0.000824926
0.000807639 0.000153648 5.92134e-07
0.000153648 0.000290414 -4.00569e-06
5.92134e-07 -4.00569e-06 6.71361e-05
0.00125508 0.000166849 1.00962e-06
0.000166849 0.000575516 -6.8924e-06
1.00962e-06 -6.8924e-06 0.000339604
0.000659494 5.65546e-05 2.71497e-06
5.65546e-05 0.000113005 -5.47563e-06
2.71497e-06 -5.47563e-06 -6.81204e-06
0.000756254 0.000102926 2.25147e-07
0.000102926 0.000235479 1.46431e-06
2.25147e-07 1.46431e-06 4.83512e-05
0.000346651 0.000112295 -1.10596e-06
0.000112295 5.59539e-06 5.04791e-06
-1.10596e-06 5.04791e-06 -0.000185547
0.000510503 -6.48221e-07 -1.76322e-06
-6.48221e-07 1.46491e-06 -9.36554e-06
-1.76322e-06 -9.36554e-06 -3.53748e-05
0.000588882 4.26294e-05 -4.34653e-08
4.26294e-05 7.05848e-05 -3.44835e-07
-4.34653e-08 -3.44835e-07 -3.27057e-05
0.00039299 8.4697e-05 -4.88559e-06
8.4697e-05 -2.64412e-05 -3.17512e-07
-4.88559e-06 -3.17512e-07 -0.000165845
0.00271556 -8.59934e-05 -4.33727e-05
-8.59934e-05 0.0013847 -4.683e-06
-4.33727e-05 -4.683e-06 0.0013923
0.000425365 -1.84091e-05 2.72764e-06
-1.84091e-05 -5.67276e-05 -1.25673e-07
2.72764e-06 -1.25673e-07 -8.7214e-05
0.000503764 4.69748e-05 -2.09032e-06
4.69748e-05 1.67491e-05 3.20047e-06
-2.09032e-06 3.20047e-06 -7.36142e-05
0.00252554 -6.88655e-05 -6.54072e-06
-6.88655e-05 0.00125954 4.82535e-07
-6.54072e-06 4.82535e-07 0.00127004
0.00043982 -2.57499e-06 -2.02812e-06
-2.57499e-06 -5.39119e-05 5.98675e-06
-2.02812e-06 5.98675e-06 -7.75748e-05
0.00230303 -4.98585e-05 2.34546e-05
-4.98585e-05 0.00111578 4.66218e-06
2.34546e-05 4.66218e-06 0.00112989
-0.00963397 0.0010469 -9.97824e-05
0.0010469 0.00369716 8.07004e-05
-9.97824e-05 8.07004e-05 -0.00248465
0.00608395 0.000426552 2.21149e-06
0.000426552 0.00353692 -1.88775e-06
2.21149e-06 -1.88775e-06 0.0014475
-0.00155529 4.46804e-05 3.99503e-05
4.46804e-05 0.000183735 1.80712e-05
3.99503e-05 1.80712e-05 -0.000570597
0.000211812 0.000131839 -8.26825e-07
0.000131839 -0.00015603 2.08551e-06
-8.26825e-07 2.08551e-06 -0.000342789
0.00338825 0.0006535 1.34863e-05
0.0006535 0.00173099 1.07346e-05
1.34863e-05 1.07346e-05 0.00138205
0.00138246 0.000190435 -8.69155e-06
0.000190435 0.000657997 1.91281e-06
-8.69155e-06 1.91281e-06 0.000356403
0.000621112 7.2655e-05 -7.26164e-06
7.2655e-05 0.000102539 -1.3453e-05
-7.26164e-06 -1.3453e-05 -5.38853e-05
0.00258638 0.000279446 3.54405e-06
0.000279446 0.00126716 -1.85572e-06
3.54405e-06 -1.85572e-06 0.00110093
-0.000573786 3.89895e-05 -9.37256e-06
3.89895e-05 -0.000581952 8.95855e-06
-9.37256e-06 8.95855e-06 -0.000728019
0.000136655 9.87889e-05 -1.27719e-06
9.87889e-05 -1.92533e-05 5.52282e-06
-1.27719e-06 5.52282e-06 -0.000292698
0.000594067 0.000156351 -2.86204e-06
0.000156351 0.000136686 -5.60451e-06
-2.86204e-06 -5.60451e-06 -0.000164824
0.0018538 0.000487644 7.66627e-06
0.000487644 0.000918543 -2.72906e-05
7.66627e-06 -2.72906e-05 0.000487199
0.000156039 0.000456135 -1.52552e-05
0.000456135 -0.00023775 4.84264e-05
-1.52552e-05 4.84264e-05 -0.000394029
0.00148763 4.05819e-05 -1.27868e-05
4.05819e-05 0.000743251 1.44892e-05
-1.27868e-05 1.44892e-05 0.000553674
0.00141819 0.000251169 4.96443e-06
0.000251169 0.000890905 -1.05539e-05
4.96443e-06 -1.05539e-05 0.000533032
-0.000578384 -0.00226444 -0.00147092
-0.00226444 0.00133471 -0.000253801
-0.00147092 -0.000253801 -0.00231537
-0.00260122 -0.00219255 0.000499874
-0.00219255 0.00548786 0.000195615
0.000499874 0.000195615 6.09736e-05
0.00684053 0.00156837 -0.000524225
0.00156837 0.00294267 -0.000181493
-0.000524225 -0.000181493 -0.00247405
0.00345866 -0.00866004 0.00232666
-0.00866004 0.00411226 0.00147058
0.00232666 0.00147058 0.00098692
0.0244808 -0.00375021 6.39024e-05
-0.00375021 0.00832391 0.000347727
6.39024e-05 0.000347727 0.00503938
-0.00297906 0.00143597 -1.49902e-05
0.00143597 0.00220964 -0.000185736
-1.49902e-05 -0.000185736 -0.00338869
-0.00259694 0.000152101 -0.00039014
0.000152101 0.000641109 -6.64982e-05
-0.00039014 -6.64982e-05 -0.00100412
0.0011267 0.000717127 7.46904e-05
0.000717127 0.0015748 5.11227e-05
7.46904e-05 5.11227e-05 0.00125663
0.0192185 -0.00474459 -0.000614086
-0.00474459 0.00788028 6.23149e-06
-0.000614086 6.23149e-06 0.00426496
-0.00252318 0.00280966 -0.000108874
0.00280966 0.000327437 -4.5896e-05
-0.000108874 -4.5896e-05 -0.00433267
0.00317568 0.00205897 1.28956e-05
0.00205897 0.00097375 -7.07853e-05
1.28956e-05 -7.07853e-05 0.00160883
0.00249715 0.0044174 -0.000381833
0.0044174 -0.00206807 -0.00010735
-0.000381833 -0.00010735 -0.00473806
0.00326466 0.00114738 2.36311e-05
0.00114738 0.00121056 -1.38849e-05
2.36311e-05 -1.38849e-05 0.000865763
0.00101073 0.00055526 -5.73738e-06
0.00055526 0.000283836 -1.39484e-06
-5.73738e-06 -1.39484e-06 0.00011975
-0.000184653 0.000148731 -6.31097e-06
0.000148731 -0.000170564 5.1474e-07
-6.31097e-06 5.1474e-07 -0.000403185
-0.001682 0.000338068 -7.60291e-05
0.000338068 -1.18701e-05 -7.50539e-05
-7.60291e-05 -7.50539e-05 -0.0010351
0.00221981 0.000770201 -3.257e-05
0.000770201 0.00112338 -2.03315e-05
-3.257e-05 -2.03315e-05 0.000717209
0.00185147 0.00138191 1.10348e-05
0.00138191 0.000474652 -8.47417e-06
1.10348e-05 -8.47417e-06 -0.000305779
-0.000663155 0.00150855 0.000100064
0.00150855 -0.00164926 4.50871e-05
0.000100064 4.50871e-05 -0.00194729
-0.00615484 -0.000440261 -0.000568291
-0.000440261 -0.00442338 4.38423e-05
-0.000568291 4.38423e-05 -0.00403913
-0.00829199 0.000484972 0.000370385
0.000484972 0.00549187 1.62043e-05
0.000370385 1.62043e-05 -0.000607077
0.00292896 -0.000100307 -0.000119431
-0.000100307 0.00205173 3.36884e-05
-0.000119431 3.36884e-05 0.000291626
0.00230163 -0.000924646 -4.9011e-05
-0.000924646 0.00136867 -4.70428e-05
-4.9011e-05 -4.70428e-05 0.000679078
-0.000550863 -0.00187187 2.88163e-05
-0.00187187 -0.000675661 4.60183e-05
2.88163e-05 4.60183e-05 -0.000429597
0.00064296 0.00058919 4.94356e-05
0.00058919 0.00679209 4.19232e-05
4.94356e-05 4.19232e-05 0.00282433
0.00222331 -0.00313054 0.000451793
-0.00313054 -0.001637 -0.000118733
0.000451793 -0.000118733 -0.00394694
0.0212838 0.00333228 0.000804694
0.00333228 0.00936517 -9.76117e-05
0.000804694 -9.76117e-05 0.00652346
0.00159275 -0.00157636 -1.68792e-05
-0.00157636 0.000337705 4.85228e-06
-1.68792e-05 4.85228e-06 -0.00023158
0.00187756 0.00139567 0.000250185
0.00139567 0.000597484 -7.58767e-05
0.000250185 -7.58767e-05 -0.00144984
0.00770533 -0.00206745 -0.000158133
-0.00206745 -0.00223052 0.000138728
-0.000158133 0.000138728 -0.00441736
0.00393884 -0.00261862 -1.17437e-05
-0.00261862 -0.000331821 2.66467e-05
-1.17437e-05 2.66467e-05 0.000323873
0.00248042 -0.0013404 7.10964e-05
-0.0013404 0.000196706 -1.87798e-05
7.10964e-05 -1.87798e-05 6.58131e-05
0.0163519 -0.000821556 -6.29392e-05
-0.000821556 0.00324242 4.37127e-05
-6.29392e-05 4.37127e-05 0.00200252
0.00241081 -0.00169344 0.000124878
-0.00169344 -0.00307779 -9.15331e-05
0.000124878 -9.15331e-05 -0.00180316
-0.000738894 -0.000615237 -2.90605e-05
-0.000615237 -0.000873735 2.98239e-05
-2.90605e-05 2.98239e-05 -0.000976661
0.000170455 -0.000553201 -3.98081e-05
-0.000553201 -0.000588452 3.50359e-06
-3.98081e-05 3.50359e-06 -0.000724883
0.00610248 -0.00111124 6.29706e-05
-0.00111124 0.00230328 -2.30714e-05
6.29706e-05 -2.30714e-05 0.00208917
0.000390965 -0.000632987 -1.53276e-05
-0.000632987 -0.000366576 -1.43512e-06
-1.53276e-05 -1.43512e-06 -0.000752271
0.00211534 -0.000888169 -2.15027e-06
-0.000888169 0.000295206 -3.22106e-06
-2.15027e-06 -3.22106e-06 -6.94218e-05
0.0027113 -0.00081204 1.40239e-06
-0.00081204 0.000315774 -4.7922e-06
1.40239e-06 -4.7922e-06 0.000111106
0.0021801 -0.000892006 -6.32278e-07
-0.000892006 0.000439672 9.15332e-06
-6.32278e-07 9.15332e-06 -3.96943e-05
0.00214584 -0.00074182 -9.39519e-07
-0.00074182 0.000187994 1.03733e-06
-9.39519e-07 1.03733e-06 -0.000108224
0.00211756 -0.000552499 2.8906e-07
-0.000552499 3.60616e-05 -1.55671e-06
2.8906e-07 -1.55671e-06 -9.58469e-05
0.00143822 -0.000629509 5.81485e-06
-0.000629509 -2.42579e-05 7.76988e-06
5.81485e-06 7.76988e-06 -0.000371406
0.00197877 -0.000520201 -4.21463e-07
-0.000520201 8.24211e-05 2.23817e-06
-4.21463e-07 2.23817e-06 -0.000121542
0.00204329 -0.000484157 -2.55663e-06
-0.000484157 8.4e-05 1.22255e-06
-2.55663e-06 1.22255e-06 -5.6791e-05
0.00200218 -0.000453912 -4.6717e-06
-0.000453912 0.000150684 9.74148e-07
-4.6717e-06 9.74148e-07 -3.04184e-06
0.00198304 -0.000445262 -3.01153e-06
-0.000445262 0.000135482 3.3205e-06
-3.01153e-06 3.3205e-06 -3.44391e-05
0.00206335 -0.000458924 -2.81566e-06
-0.000458924 0.000229572 -4.04365e-06
-2.81566e-06 -4.04365e-06 4.34749e-05
0.00199238 -0.000548049 -7.03229e-06
-0.000548049 0.000205526 -2.70357e-06
-7.03229e-06 -2.70357e-06 -6.01579e-05
0.00191898 -0.000536297 1.82167e-06
-0.000536297 0.000142125 8.87502e-07
1.82167e-06 8.87502e-07 -0.000116259
0.00188087 -0.000505291 7.04968e-06
-0.000505291 9.68729e-05 7.59823e-06
7.04968e-06 7.59823e-06 -0.000142115
0.00188977 -0.000611004 -7.76519e-06
-0.000611004 0.000323203 -2.18315e-06
-7.76519e-06 -2.18315e-06 -2.03979e-05
0.00168124 -0.000629139 -5.03844e-07
-0.000629139 0.000118992 1.08349e-07
-5.03844e-07 1.08349e-07 -0.000227616
0.00218834 -0.000730327 8.28086e-06
-0.000730327 0.000410857 1.01004e-06
8.28086e-06 1.01004e-06 3.65207e-05
0.00142901 -0.000448277 -1.02497e-05
-0.000448277 0.000293411 3.64095e-06
-1.02497e-05 3.64095e-06 -1.91683e-05
0.001724 -0.00061977 -7.18306e-07
-0.00061977 0.000384732 7.33593e-07
-7.18306e-07 7.33593e-07 3.84105e-06
0.00196138 -0.000730365 2.63258e-06
-0.000730365 0.000469012 6.57552e-07
2.63258e-06 6.57552e-07 5.30707e-05
0.000704138 -0.000217093 -8.17987e-06
-0.000217093 2.73892e-05 4.27538e-06
-8.17987e-06 4.27538e-06 -0.000182818
0.00119137 -0.000363379 1.00767e-06
-0.000363379 0.000233623 -2.39767e-07
1.00767e-06 -2.39767e-07 -4.20262e-05
0.000996135 -0.000449488 -1.55929e-06
-0.000449488 7.72481e-05 1.64409e-06
-1.55929e-06 1.64409e-06 -0.000255883
0.000457935 -0.000121887 -2.16081e-05
-0.000121887 -6.71678e-05 1.51827e-05
-2.16081e-05 1.51827e-05 -0.000158799
0.000655342 -0.000196176 -1.69381e-06
-0.000196176 7.11112e-05 1.11936e-06
-1.69381e-06 1.11936e-06 -0.000161686
0.000768104 -0.000351431 1.52435e-06
-0.000351431 7.05021e-05 2.37747e-07
1.52435e-06 2.37747e-07 -0.000195019
0.00421314 0.000205501 -8.5615e-05
0.000205501 0.00237504 6.35554e-06
-8.5615e-05 6.35554e-06 0.00235043
0.000484889 -6.1969e-05 1.23462e-06
-6.1969e-05 -2.35107e-05 -4.16595e-07
1.23462e-06 -4.16595e-07 -0.000100541
0.00168498 -0.000243151 5.05385e-06
-0.000243151 0.00075273 -2.30343e-06
5.05385e-06 -2.30343e-06 0.000527206
0.00245051 0.000128889 4.97331e-05
0.000128889 0.00125017 1.36183e-06
4.97331e-05 1.36183e-06 0.00122839
0.000639592 -2.90923e-05 9.58953e-06
-2.90923e-05 7.95063e-05 -1.27271e-05
9.58953e-06 -1.27271e-05 1.92288e-05
0.00352719 0.000134708 7.89224e-05
0.000134708 0.00191453 -4.67821e-06
7.89224e-05 -4.67821e-06 0.00191028
0.00170259 0.000329382 4.48333e-06
0.000329382 0.000651311 -2.62678e-06
4.48333e-06 -2.62678e-06 0.000439888
0.000405684 0.000133837 -3.31702e-06
0.000133837 -6.61919e-05 -6.01336e-08
-3.31702e-06 -6.01336e-08 -0.000255986
0.000479862 0.00015507 1.93518e-06
0.00015507 5.95031e-05 -7.82133e-06
1.93518e-06 -7.82133e-06 -0.000165968
0.00044484 0.000126001 -2.63751e-06
0.000126001 4.43518e-05 1.08423e-05
-2.63751e-06 1.08423e-05 -0.000158653
0.00059544 9.48855e-05 8.35615e-07
9.48855e-05 0.000136325 1.96148e-07
8.35615e-07 1.96148e-07 -7.35708e-05
0.00092411 0.000104038 8.94006e-07
0.000104038 0.000269194 -8.46659e-06
8.94006e-07 -8.46659e-06 0.000128536
0.000584684 2.75411e-05 -4.68669e-06
2.75411e-05 4.98017e-05 -1.15927e-05
-4.68669e-06 -1.15927e-05 3.95338e-06
0.000653412 5.34861e-05 4.37708e-07
5.34861e-05 0.000115501 1.70485e-08
4.37708e-07 1.70485e-08 -5.68425e-06
-6.84299e-06 3.82255e-05 -6.16601e-06
3.82255e-05 -0.000267074 1.61442e-06
-6.16601e-06 1.61442e-06 -0.00043141
0.00291901 -9.99901e-05 -5.99201e-05
-9.99901e-05 0.00151983 -4.78978e-06
-5.99201e-05 -4.78978e-06 0.00152493
0.000425147 1.2568e-05 9.16638e-07
1.2568e-05 -5.03354e-05 -2.75099e-07
9.16638e-07 -2.75099e-07 -8.70155e-05
0.000529628 4.42854e-05 -3.27526e-06
4.42854e-05 3.96307e-05 4.42146e-06
-3.27526e-06 4.42146e-06 -6.57467e-05
0.00269843 -8.68343e-05 -7.16341e-06
-8.68343e-05 0.00137412 5.80747e-07
-7.16341e-06 5.80747e-07 0.00138122
0.000405553 -9.87513e-06 4.25825e-07
-9.87513e-06 -6.84718e-05 7.3188e-06
4.25825e-07 7.3188e-06 -9.86188e-05
0.00251439 -6.85187e-05 2.96389e-05
-6.85187e-05 0.00125229 4.83896e-06
2.96389e-05 4.83896e-06 0.00126278
0.00105453 0.000102834 -0.00080358
0.000102834 0.00366053 -5.67454e-05
-0.00080358 -5.67454e-05 0.0015813
-0.00577215 0.00017283 3.68374e-05
0.00017283 0.00467399 -1.71002e-06
3.68374e-05 -1.71002e-06 -0.00172413
0.00575582 0.000198112 -0.000234204
0.000198112 0.00343169 -6.22418e-05
-0.000234204 -6.22418e-05 0.00149249
-0.000186778 4.12955e-05 2.39724e-06
4.12955e-05 -0.000400446 -9.90991e-06
2.39724e-06 -9.90991e-06 -0.000588078
0.000529951 8.04885e-05 5.91117e-06
8.04885e-05 8.85754e-05 7.66079e-06
5.91117e-06 7.66079e-06 -0.000196876
0.00268677 0.000558914 -3.32355e-06
0.000558914 0.00133271 4.16872e-06
-3.32355e-06 4.16872e-06 0.00100082
0.00221143 0.000658959 1.48066e-05
0.000658959 0.000903486 6.54793e-06
1.48066e-05 6.54793e-06 0.000466135
0.000443182 0.000354334 5.42833e-06
0.000354334 8.84386e-05 1.64687e-06
5.42833e-06 1.64687e-06 -0.000274603
0.000781426 0.000143535 -6.69288e-06
0.000143535 0.000370595 8.78925e-06
-6.69288e-06 8.78925e-06 9.11264e-05
0.000857686 0.000161341 1.06532e-05
0.000161341 0.000327662 1.04712e-05
1.06532e-05 1.04712e-05 4.4382e-05
0.000601416 0.00040354 -5.53113e-06
0.00040354 0.00023201 -1.3556e-06
-5.53113e-06 -1.3556e-06 -0.000207777
-0.000426017 0.000506074 1.27154e-05
0.000506074 -0.0007445 -1.2029e-05
1.27154e-05 -1.2029e-05 -0.00106443
0.0024412 0.000802195 -1.01327e-05
0.000802195 0.000899179 2.58455e-05
-1.01327e-05 2.58455e-05 0.000677277
0.00142429 0.00085216 2.77099e-05
0.00085216 2.95915e-05 1.07504e-05
2.77099e-05 1.07504e-05 -0.000117025
0.00138361 0.000615282 -7.09524e-06
0.000615282 0.000504226 -3.48333e-06
-7.09524e-06 -3.48333e-06 0.000270569
0.00198738 0.000340291 -8.78805e-06
0.000340291 0.00110288 3.52181e-05
-8.78805e-06 3.52181e-05 0.000795485
0.0137553 0.00243045 -0.000118632
0.00243045 0.00178471 6.49483e-05
-0.000118632 6.49483e-05 0.000516847
0.00218142 -0.00190764 -0.000540781
-0.00190764 0.00367621 -0.000199179
-0.000540781 -0.000199179 0.000669648
-0.000222595 -0.00333808 0.000721534
-0.00333808 0.00602005 0.000199057
0.000721534 0.000199057 0.000508457
0.006592 -0.00289565 0.000289407
-0.00289565 0.00297058 0.000321222
0.000289407 0.000321222 -0.000416599
0.0140308 0.0045222 -0.00010793
0.0045222 0.00465067 -4.73603e-05
-0.00010793 -4.73603e-05 0.000709235
-0.00303223 0.000224764 -5.42941e-05
0.000224764 -0.000233835 -5.89157e-05
-5.42941e-05 -5.89157e-05 -0.00060651
0.00220281 0.00181973 -5.05465e-05
0.00181973 0.000561141 -2.01234e-05
-5.05465e-05 -2.01234e-05 0.00127479
0.0172972 0.00431506 1.73048e-05
0.00431506 0.00397459 3.7959e-05
1.73048e-05 3.7959e-05 0.00160796
0.00639386 0.003439 -7.32052e-05
0.003439 -9.78306e-05 -0.000101423
-7.32052e-05 -0.000101423 0.000264225
0.00159817 0.00115742 1.11792e-05
0.00115742 0.000100426 -5.98121e-06
1.11792e-05 -5.98121e-06 -0.000141942
0.00157693 0.000898116 9.43604e-06
0.000898116 0.000426412 -3.64972e-06
9.43604e-06 -3.64972e-06 0.000124873
0.00206926 0.000613633 -2.44421e-05
0.000613633 0.000976404 1.72054e-06
-2.44421e-05 1.72054e-06 0.000799145
0.00268737 0.00155779 -6.75809e-05
0.00155779 0.000769447 -2.57589e-05
-6.75809e-05 -2.57589e-05 8.05098e-06
0.00136789 0.0017358 7.0306e-05
0.0017358 -0.000808 3.60172e-05
7.0306e-05 3.60172e-05 -0.00118997
0.00222122 -0.000313459 -0.000118686
-0.000313459 -0.00485534 5.59819e-05
-0.000118686 5.59819e-05 -0.00509141
0.000829717 -0.00159554 9.86359e-06
-0.00159554 0.00209261 7.11916e-07
9.86359e-06 7.11916e-07 0.00124189
-0.0113369 -0.000251357 0.000300766
-0.000251357 0.00588451 -2.40693e-05
0.000300766 -2.40693e-05 0.00033888
0.000387919 -0.00171315 -5.65015e-05
-0.00171315 -0.000568676 1.72241e-05
-5.65015e-05 1.72241e-05 -0.00134151
0.00535662 -0.00300689 2.71926e-05
-0.00300689 0.000341277 4.46047e-05
2.71926e-05 4.46047e-05 0.00056114
0.00224792 -4.23157e-05 0.000865798
-4.23157e-05 0.00385276 -0.00020294
0.000865798 -0.00020294 0.00197174
0.0138383 -0.00231557 -0.000268975
-0.00231557 0.00157757 0.000142158
-0.000268975 0.000142158 0.000481367
0.00171429 -0.00133714 -3.04332e-05
-0.00133714 -0.000124941 -4.11379e-08
-3.04332e-05 -4.11379e-08 -0.000406725
0.0113796 -9.57763e-05 -0.000189364
-9.57763e-05 -0.000798075 6.30123e-05
-0.000189364 6.30123e-05 -0.0016574
0.00711306 -0.00198966 0.000101617
-0.00198966 -0.000249894 1.24787e-05
0.000101617 1.24787e-05 0.000436572
0.00360791 -0.0011516 6.17724e-05
-0.0011516 0.000408657 -4.32165e-05
6.17724e-05 -4.32165e-05 0.000196031
0.00270165 -0.000759088 -1.54694e-05
-0.000759088 -0.00182782 1.04969e-05
-1.54694e-05 1.04969e-05 -0.00073746
-0.00577774 -2.37046e-05 1.17377e-05
-2.37046e-05 -0.00380985 9.42312e-06
1.17377e-05 9.42312e-06 -0.00376906
0.00155859 -0.00071316 -1.67686e-05
-0.00071316 -0.000196965 1.80776e-06
-1.67686e-05 1.80776e-06 -0.000216582
0.00356703 -0.000743364 3.54386e-05
-0.000743364 0.000671653 -1.39504e-05
3.54386e-05 -1.39504e-05 0.000724725
0.00111161 -0.000773366 -1.00333e-05
-0.000773366 -0.000226409 7.09712e-06
-1.00333e-05 7.09712e-06 -0.000563663
0.00216234 -0.000759631 -3.60807e-06
-0.000759631 2.66914e-05 3.14157e-06
-3.60807e-06 3.14157e-06 -0.000172514
0.00237837 -0.000616639 5.623e-06
-0.000616639 -4.80467e-06 -1.48466e-06
5.623e-06 -1.48466e-06 -3.84122e-05
0.00225667 -0.000743392 -4.06506e-06
-0.000743392 0.000256499 1.08846e-05
-4.06506e-06 1.08846e-05 -3.7599e-05
0.00210312 -0.000549018 3.97683e-07
-0.000549018 2.62231e-05 1.47025e-06
3.97683e-07 1.47025e-06 -0.000101004
0.0022442 -0.000540661 -5.4996e-07
-0.000540661 8.83048e-05 2.76783e-07
-5.4996e-07 2.76783e-07 1.6966e-05
0.00192903 -0.000508374 3.72708e-06
-0.000508374 5.72673e-05 6.66066e-06
3.72708e-06 6.66066e-06 -0.000140328
0.00202786 -0.000484169 -4.46964e-08
-0.000484169 7.15297e-05 1.32525e-06
-4.46964e-08 1.32525e-06 -6.67863e-05
0.00217278 -0.000517921 -2.44296e-06
-0.000517921 0.000149954 1.49712e-06
-2.44296e-06 1.49712e-06 1.90568e-05
0.00201609 -0.00046126 -4.1961e-06
-0.00046126 0.000151447 2.56584e-06
-4.1961e-06 2.56584e-06 -1.1527e-06
0.0021481 -0.000462894 -1.36396e-06
-0.000462894 0.00027527 -1.26002e-06
-1.36396e-06 -1.26002e-06 0.000113808
0.0020982 -0.000453918 3.78204e-06
-0.000453918 0.000200876 6.07661e-06
3.78204e-06 6.07661e-06 3.40798e-05
0.00204412 -0.000457962 6.14416e-07
-0.000457962 0.000216074 -6.86971e-07
6.14416e-07 -6.86971e-07 3.0163e-05
0.00193872 -0.000474175 -3.23843e-06
-0.000474175 0.000154524 -3.03171e-06
-3.23843e-06 -3.03171e-06 -5.22376e-05
0.00202794 -0.000528722 -5.05081e-06
-0.000528722 0.000301205 -3.81121e-06
-5.05081e-06 -3.81121e-06 2.6611e-05
0.00205803 -0.000556045 -4.13018e-07
-0.000556045 0.000248382 -3.16098e-08
-4.13018e-07 -3.16098e-08 -2.00534e-05
0.00214947 -0.000553097 8.54124e-06
-0.000553097 0.00029022 4.16353e-06
8.54124e-06 4.16353e-06 3.11078e-05
0.00153162 -0.000485852 -1.00762e-05
-0.000485852 0.000212849 2.05229e-06
-1.00762e-05 2.05229e-06 -0.000103387
0.00181324 -0.000600745 -1.68732e-06
-0.000600745 0.000279369 -2.02064e-07
-1.68732e-06 -2.02064e-07 -6.40678e-05
0.00169946 -0.000636731 6.25619e-06
-0.000636731 0.000117009 1.92676e-06
6.25619e-06 1.92676e-06 -0.000232635
0.000731941 -0.000238567 -1.07873e-05
-0.000238567 -1.4038e-05 6.77857e-06
-1.07873e-05 6.77857e-06 -0.000230147
0.00130543 -0.000439579 1.14462e-06
-0.000439579 0.000215125 3.29936e-07
1.14462e-06 3.29936e-07 -9.63088e-05
0.00181943 -0.00062634 3.20074e-06
-0.00062634 0.000448359 2.07048e-06
3.20074e-06 2.07048e-06 6.73877e-05
0.000445681 -0.000180993 -2.24335e-05
-0.000180993 -8.83567e-05 1.87363e-05
-2.24335e-05 1.87363e-05 -0.00020358
0.00064315 -0.000220422 -5.85963e-07
-0.000220422 -3.03137e-06 2.7347e-07
-5.85963e-07 2.7347e-07 -0.00021836
0.000905566 -0.000333035 5.77583e-06
-0.000333035 4.73245e-05 -1.23383e-06
5.77583e-06 -1.23383e-06 -0.000222681
0.00500091 0.000180556 -0.000136336
0.000180556 0.00286446 9.28619e-06
-0.000136336 9.28619e-06 0.00284547
0.000500928 -0.000138455 -2.32124e-06
-0.000138455 -3.72037e-05 -7.93602e-07
-2.32124e-06 -7.93602e-07 -0.000135733
0.00118963 -0.000237467 5.62783e-06
-0.000237467 0.000415956 -1.40073e-06
5.62783e-06 -1.40073e-06 0.000171462
0.00441449 0.000177223 2.1786e-05
0.000177223 0.00249765 8.16785e-07
2.1786e-05 8.16785e-07 0.00248003
0.00076437 -8.23054e-05 1.80775e-05
-8.23054e-05 0.000145042 -1.42832e-05
1.80775e-05 -1.42832e-05 6.40806e-05
0.0039077 0.000137686 0.000109072
0.000137686 0.00215981 -6.48709e-06
0.000109072 -6.48709e-06 0.00215485
0.00197865 0.000536286 2.07945e-06
0.000536286 0.000775042 -3.47585e-06
2.07945e-06 -3.47585e-06 0.000416013
0.000804738 0.00025703 -4.31789e-07
0.00025703 0.000105195 -3.16799e-06
-4.31789e-07 -3.16799e-06 -9.99781e-05
0.000244708 0.000153475 4.58192e-06
0.000153475 -0.000176386 4.01561e-06
4.58192e-06 4.01561e-06 -0.000379793
-0.000790544 3.04427e-05 -2.29311e-06
3.04427e-05 -0.000783155 -6.85862e-08
-2.29311e-06 -6.85862e-08 -0.000974991
0.000369991 0.000105477 -3.67773e-07
0.000105477 -3.69118e-05 2.38563e-06
-3.67773e-07 2.38563e-06 -0.000245933
0.000943217 0.000103826 4.82027e-07
0.000103826 0.000285432 -9.29149e-06
4.82027e-07 -9.29149e-06 0.000112402
0.000289466 5.69132e-05 -3.14574e-06
5.69132e-05 -7.34338e-05 4.68154e-06
-3.14574e-06 4.68154e-06 -0.000267722
0.000568436 7.9218e-05 9.27434e-08
7.9218e-05 5.76304e-05 1.4647e-07
9.27434e-08 1.4647e-07 -8.12232e-05
0.000593412 3.22693e-05 -6.33521e-06
3.22693e-05 5.25705e-05 -1.47903e-05
-6.33521e-06 -1.47903e-05 -4.3246e-06
0.00320079 -0.000109246 -8.28656e-05
-0.000109246 0.00170548 -6.11261e-06
-8.28656e-05 -6.11261e-06 0.00170831
0.000437351 1.12049e-05 1.35316e-06
1.12049e-05 -3.73193e-05 -3.66836e-07
1.35316e-06 -3.66836e-07 -8.38322e-05
0.000506282 4.21302e-05 -3.76953e-06
4.21302e-05 3.04258e-05 6.15219e-06
-3.76953e-06 6.15219e-06 -9.09557e-05
0.00286778 -0.000106001 -8.03408e-06
-0.000106001 0.00148861 7.15525e-07
-8.03408e-06 7.15525e-07 0.0014916
0.000332122 -4.98644e-05 -6.04648e-06
-4.98644e-05 -0.000101224 8.86997e-06
-6.04648e-06 8.86997e-06 -0.000141408
0.00268803 -8.76136e-05 3.69402e-05
-8.76136e-05 0.00136723 4.87595e-06
3.69402e-05 4.87595e-06 0.00137391
0.0147454 0.000582092 0.0004684
0.000582092 0.00202414 0.000114412
0.0004684 0.000114412 0.00165061
-0.0013339 -0.00274529 -0.000481709
-0.00274529 -0.0025256 -8.03964e-05
-0.000481709 -8.03964e-05 -0.00455491
-0.00935863 0.00142398 -0.000198895
0.00142398 0.00406345 -0.000123183
-0.000198895 -0.000123183 -0.00268281
0.000139339 2.49449e-05 1.75965e-05
2.49449e-05 -0.000141815 -5.93637e-06
1.75965e-05 -5.93637e-06 -0.00044624
0.00158034 0.000420845 -9.60551e-06
0.000420845 0.00067166 -4.60872e-07
-9.60551e-06 -4.60872e-07 0.00037029
0.00227191 0.000558821 -1.0131e-05
0.000558821 0.00115448 -2.38756e-06
-1.0131e-05 -2.38756e-06 0.000744245
0.00152906 0.000578466 1.00967e-06
0.000578466 0.000492512 -6.77027e-07
1.00967e-06 -6.77027e-07 7.75817e-05
0.00142459 0.000620176 1.15201e-05
0.000620176 0.000248912 1.8249e-05
1.15201e-05 1.8249e-05 -0.000148978
-0.000773865 0.000395448 2.51169e-05
0.000395448 -0.000919612 5.12762e-06
2.51169e-05 5.12762e-06 -0.00124438
-0.000348109 0.0002844 -1.11866e-05
0.0002844 -0.000244031 1.18284e-05
-1.11866e-05 1.18284e-05 -0.000720026
-0.000237806 0.000517498 1.11097e-05
0.000517498 -0.000645956 -6.51787e-07
1.11097e-05 -6.51787e-07 -0.000971404
0.00220535 0.000766121 4.95884e-06
0.000766121 0.000817625 7.1685e-06
4.95884e-06 7.1685e-06 0.000549486
-0.000630677 0.000503492 5.33463e-06
0.000503492 -0.000994611 -3.5701e-06
5.33463e-06 -3.5701e-06 -0.00122798
0.00350582 0.000987536 2.62454e-06
0.000987536 0.0011462 1.51428e-05
2.62454e-06 1.51428e-05 0.000970215
0.00131878 0.000849317 2.02959e-05
0.000849317 -8.00466e-06 6.28419e-06
2.02959e-05 6.28419e-06 -0.000288204
0.000590204 0.000749075 2.98315e-06
0.000749075 -0.000460412 1.67672e-07
2.98315e-06 1.67672e-07 -0.000536949
0.00062089 0.000501102 3.48749e-06
0.000501102 6.50911e-05 -4.91585e-05
3.48749e-06 -4.91585e-05 -0.000142532
0.00521449 0.00166775 1.92105e-05
0.00166775 -0.00130437 2.53412e-05
1.92105e-05 2.53412e-05 5.87587e-05
0.0136531 0.00279968 0.000269898
0.00279968 0.00105743 0.000144275
0.000269898 0.000144275 -0.000523052
0.0112937 -0.00403584 0.000490713
-0.00403584 0.00538509 -3.98825e-05
0.000490713 -3.98825e-05 0.00235074
0.00563998 0.00457684 0.000528081
0.00457684 -0.000943523 0.000307417
0.000528081 0.000307417 -0.00505718
0.000194056 0.00123268 -5.80568e-05
0.00123268 0.000147957 -2.17928e-06
-5.80568e-05 -2.17928e-06 0.000768765
0.00396875 0.00245082 -0.000111345
0.00245082 -0.000535293 -5.35849e-05
-0.000111345 -5.35849e-05 0.000147363
0.0059492 0.00208861 7.49283e-05
0.00208861 0.00116228 3.04393e-05
7.49283e-05 3.04393e-05 0.000904678
0.004202 0.00151414 1.89721e-05
0.00151414 0.00126404 8.30616e-06
1.89721e-05 8.30616e-06 0.000951894
-0.000170985 0.000663371 -2.80524e-05
0.000663371 -0.000476352 1.13666e-05
-2.80524e-05 1.13666e-05 -0.000717341
0.00656816 0.00235903 -0.000177354
0.00235903 0.001606 -1.77334e-05
-0.000177354 -1.77334e-05 0.00107199
0.00301271 -0.000491845 1.70215e-05
-0.000491845 -0.000464082 1.19425e-05
1.70215e-05 1.19425e-05 0.000126581
0.0113522 -0.000541031 -4.37054e-05
-0.000541031 0.00131806 -7.59267e-06
-4.37054e-05 -7.59267e-06 0.00122172
-0.012511 -0.00256935 0.000733559
-0.00256935 -0.00538886 2.97802e-06
0.000733559 2.97802e-06 -0.00616298
0.000628567 -0.00113967 -0.000106438
-0.00113967 -0.00057202 3.12592e-05
-0.000106438 3.12592e-05 -0.000824553
0.00890367 -0.00248107 5.28413e-06
-0.00248107 3.02216e-05 9.25231e-05
5.28413e-06 9.25231e-05 0.00100852
0.00103228 -0.00028106 -0.000272403
-0.00028106 -0.00463297 3.39107e-05
-0.000272403 3.39107e-05 -0.00639577
0.00268979 -0.000977651 3.21431e-05
-0.000977651 -0.000125208 1.05488e-06
3.21431e-05 1.05488e-06 -4.94643e-05
0.00497701 -0.000682519 -4.51945e-05
-0.000682519 -0.000460549 -3.04182e-06
-4.51945e-05 -3.04182e-06 0.000278434
0.005645 -0.000846094 4.1643e-05
-0.000846094 0.00125292 -3.21042e-05
4.1643e-05 -3.21042e-05 0.00157761
0.00555891 -0.000427949 0.000104013
-0.000427949 0.00136507 2.72098e-06
0.000104013 2.72098e-06 0.00151877
-0.00336905 -0.00032472 7.9564e-06
-0.00032472 -0.00299725 1.04197e-05
7.9564e-06 1.04197e-05 -0.00274091
0.00202648 -0.000635761 -6.30615e-06
-0.000635761 -0.000226763 1.35402e-06
-6.30615e-06 1.35402e-06 -6.96432e-05
0.00232759 -0.000485494 2.47179e-05
-0.000485494 -0.000206568 -5.74321e-06
2.47179e-05 -5.74321e-06 5.39675e-05
0.00170915 -0.000720469 -3.33565e-07
-0.000720469 -0.000214098 6.65043e-06
-3.33565e-07 6.65043e-06 -0.000411905
0.00231885 -0.000612866 1.43895e-06
-0.000612866 -3.21589e-05 1.40622e-06
1.43895e-06 1.40622e-06 -6.76287e-05
0.00234666 -0.000535219 2.08528e-06
-0.000535219 1.5885e-05 -7.0745e-07
2.08528e-06 -7.0745e-07 2.08806e-05
0.00212573 -0.000550195 2.06707e-06
-0.000550195 3.72088e-05 5.51399e-06
2.06707e-06 5.51399e-06 -8.7865e-05
0.00219024 -0.000531692 3.59088e-07
-0.000531692 6.94818e-05 4.24674e-07
3.59088e-07 4.24674e-07 -3.73702e-06
0.00218265 -0.000475461 -2.23684e-06
-0.000475461 5.36987e-05 1.37495e-07
-2.23684e-06 1.37495e-07 -1.0342e-05
0.00203044 -0.00048587 3.62502e-06
-0.00048587 6.91234e-05 1.82421e-06
3.62502e-06 1.82421e-06 -6.76294e-05
0.002114 -0.000510129 -1.6249e-07
-0.000510129 0.000135886 7.28029e-08
-1.6249e-07 7.28029e-08 5.57158e-06
0.00202754 -0.000460172 -1.01416e-07
-0.000460172 0.00012158 2.83458e-07
-1.01416e-07 2.83458e-07 -1.14932e-05
0.00202682 -0.000468404 -2.9458e-07
-0.000468404 0.000150383 2.27503e-06
-2.9458e-07 2.27503e-06 -1.34987e-06
0.00208563 -0.000453702 -1.83122e-06
-0.000453702 0.000231107 3.35521e-07
-1.83122e-06 3.35521e-07 7.32608e-05
0.00214004 -0.000458823 -1.5047e-06
-0.000458823 0.000272033 -1.10287e-06
-1.5047e-06 -1.10287e-06 9.63501e-05
0.00202753 -0.000456262 4.89186e-06
-0.000456262 0.000204551 3.00918e-06
4.89186e-06 3.00918e-06 1.91029e-05
0.00199034 -0.000478389 -2.2117e-07
-0.000478389 0.000186463 -1.95775e-07
-2.2117e-07 -1.95775e-07 -2.14559e-05
0.00202571 -0.000470533 -1.33923e-06
-0.000470533 0.000260176 -2.72629e-06
-1.33923e-06 -2.72629e-06 3.22559e-05
0.00169119 -0.000454959 -8.90215e-06
-0.000454959 0.000206809 -3.13258e-07
-8.90215e-06 -3.13258e-07 -7.11715e-05
0.0019588 -0.000528436 -7.78454e-07
-0.000528436 0.000257971 -1.05714e-06
-7.78454e-07 -1.05714e-06 -2.19148e-05
0.00212175 -0.000564286 5.63837e-06
-0.000564286 0.000290595 2.50671e-06
5.63837e-06 2.50671e-06 1.92871e-05
0.000897535 -0.000263787 -1.41674e-05
-0.000263787 -5.51123e-06 7.09606e-06
-1.41674e-05 7.09606e-06 -0.000224751
0.00157334 -0.000484082 -1.8424e-07
-0.000484082 0.000245137 6.69361e-07
-1.8424e-07 6.69361e-07 -6.86588e-05
0.00173374 -0.000590154 3.56502e-06
-0.000590154 0.000233806 1.80984e-06
3.56502e-06 1.80984e-06 -0.000109385
0.000297278 -0.000184151 -1.9737e-05
-0.000184151 -0.000197987 1.9162e-05
-1.9737e-05 1.9162e-05 -0.000322277
0.000803233 -0.000248344 7.31663e-07
-0.000248344 2.70141e-05 3.01887e-07
7.31663e-07 3.01887e-07 -0.000193039
0.00114535 -0.000426515 1.05738e-05
-0.000426515 0.000115548 -1.85931e-06
1.05738e-05 -1.85931e-06 -0.000193751
0.00605874 0.000109539 -0.000209625
0.000109539 0.00349355 1.28841e-05
-0.000209625 1.28841e-05 0.0034897
0.000392576 -0.00018564 -8.67087e-07
-0.00018564 -0.000120578 4.09558e-09
-8.67087e-07 4.09558e-09 -0.000236675
0.000632681 -0.000223479 9.69292e-06
-0.000223479 -3.75291e-06 -5.56574e-06
9.69292e-06 -5.56574e-06 -0.000222794
0.00543058 0.000126816 -1.80365e-06
0.000126816 0.00311983 -1.23306e-06
-1.80365e-06 -1.23306e-06 0.0031114
0.000427509 -0.000138493 1.88713e-05
-0.000138493 -7.70437e-05 -1.69237e-05
1.88713e-05 -1.69237e-05 -0.000181464
0.0047524 0.000114278 0.000169696
0.000114278 0.00269733 -1.45414e-05
0.000169696 -1.45414e-05 0.00269338
0.00144956 0.000546193 -4.23689e-06
0.000546193 0.000309562 2.35483e-06
-4.23689e-06 2.35483e-06 -5.53911e-05
0.00171022 0.000503705 -1.08242e-06
0.000503705 0.00059476 -1.51608e-06
-1.08242e-06 -1.51608e-06 0.0002486
0.000714991 0.000291603 -1.6835e-06
0.000291603 -1.08515e-05 -3.23693e-06
-1.6835e-06 -3.23693e-06 -0.000268581
0.000808956 0.000274097 -8.08141e-06
0.000274097 0.000141862 -3.84748e-06
-8.08141e-06 -3.84748e-06 -7.94475e-05
5.81563e-05 0.00014843 2.07301e-06
0.00014843 -0.000285779 -4.37855e-07
2.07301e-06 -4.37855e-07 -0.000493705
0.0012009 0.000263301 -1.8851e-06
0.000263301 0.000458055 -5.5488e-06
-1.8851e-06 -5.5488e-06 0.000232171
-7.7718e-05 5.72251e-05 -1.4131e-06
5.72251e-05 -0.000331296 3.09753e-06
-1.4131e-06 3.09753e-06 -0.000528478
0.000703441 0.000117097 5.43061e-07
0.000117097 0.000147444 -1.91367e-07
5.43061e-07 -1.91367e-07 -2.93617e-05
0.000714509 6.24785e-05 -1.29057e-05
6.24785e-05 0.000120287 -1.66792e-05
-1.29057e-05 -1.66792e-05 4.87605e-05
0.000529123 5.30146e-05 -2.77405e-06
5.30146e-05 4.48448e-05 9.59399e-06
-2.77405e-06 9.59399e-06 -9.6981e-05
0.000522709 3.94281e-05 2.94408e-07
3.94281e-05 1.34217e-05 -2.88358e-07
2.94408e-07 -2.88358e-07 -4.29527e-05
0.00374106 -0.00012641 -0.000108404
-0.00012641 0.002057 -8.07114e-06
-0.000108404 -8.07114e-06 0.00205445
0.00319307 -0.00012573 -9.82904e-06
-0.00012573 0.00170346 8.85123e-07
-9.82904e-06 8.85123e-07 0.00170163
0.000336445 3.632e-05 5.11609e-06
3.632e-05 -9.88334e-05 1.14324e-05
5.11609e-06 1.14324e-05 -0.000143989
0.00281723 -0.000105824 4.51581e-05
-0.000105824 0.00145683 4.79541e-06
4.51581e-05 4.79541e-06 0.00145955
0.00402056 0.000156852 8.85818e-05
0.000156852 -0.00117963 2.6648e-05
8.85818e-05 2.6648e-05 0.00021628
0.00501384 -0.000925919 0.00016622
-0.000925919 -0.00421768 7.78702e-05
0.00016622 7.78702e-05 -0.00516202
0.0122821 -0.00295089 -0.000214792
-0.00295089 0.00484349 -9.59e-05
-0.000214792 -9.59e-05 0.00376397
0.00138817 0.000600514 8.71965e-06
0.000600514 3.60977e-05 8.761e-06
8.71965e-06 8.761e-06 -0.00030175
0.00445988 0.00079422 -1.12939e-05
0.00079422 0.00242612 1.79576e-06
-1.12939e-05 1.79576e-06 0.00197598
0.000776526 0.000486853 -6.78563e-06
0.000486853 4.37815e-05 -5.73701e-06
-6.78563e-06 -5.73701e-06 -0.000346575
0.0014267 0.000654808 2.07909e-06
0.000654808 0.000395918 -1.18839e-06
2.07909e-06 -1.18839e-06 1.32609e-05
0.00159294 0.000637785 -1.62273e-06
0.000637785 0.000373053 3.84011e-06
-1.62273e-06 3.84011e-06 -3.461e-05
0.00167854 0.000730692 2.3993e-05
0.000730692 0.000357197 1.38175e-05
2.3993e-05 1.38175e-05 9.26348e-07
0.00239909 0.000797918 -3.66989e-05
0.000797918 0.000932525 -4.99738e-07
-3.66989e-05 -4.99738e-07 0.00053001
0.000737465 0.000618593 1.99635e-05
0.000618593 1.52656e-05 -3.38526e-05
1.99635e-05 -3.38526e-05 -0.000257105
0.00175894 0.000796999 1.29105e-06
0.000796999 0.00036446 -2.3798e-06
1.29105e-06 -2.3798e-06 6.93546e-05
0.00201039 0.000844649 8.52311e-06
0.000844649 0.000230013 -9.15993e-08
8.52311e-06 -9.15993e-08 0.000183844
0.00203193 0.000863972 1.43238e-05
0.000863972 0.000231813 -2.71977e-06
1.43238e-05 -2.71977e-06 -6.54322e-05
0.00176332 0.000750672 2.29703e-05
0.000750672 0.000179895 1.88389e-05
2.29703e-05 1.88389e-05 -1.00581e-05
0.000854476 0.00080136 -5.56955e-06
0.00080136 -0.000255707 -5.61412e-06
-5.56955e-06 -5.61412e-06 -0.000518454
0.000529952 0.000733816 -1.40227e-05
0.000733816 -0.000485702 -2.53291e-05
-1.40227e-05 -2.53291e-05 -0.000546319
0.00110342 0.000736005 5.0708e-05
0.000736005 -0.00111475 3.58429e-05
5.0708e-05 3.58429e-05 -0.000795324
0.00611473 0.00172427 -9.05308e-05
0.00172427 -0.00112115 -2.69378e-05
-9.05308e-05 -2.69378e-05 0.0002134
0.0041342 0.00184886 0.000538182
0.00184886 -0.00425768 0.000106433
0.000538182 0.000106433 -0.00600999
0.0018011 0.00190411 -0.000155276
0.00190411 -0.000905428 -6.01607e-05
-0.000155276 -6.01607e-05 -0.000251929
0.00447771 0.00170223 -3.03721e-05
0.00170223 0.000802665 -9.09777e-06
-3.03721e-05 -9.09777e-06 0.000627333
0.00494525 0.00161068 -0.000143691
0.00161068 0.00156122 -3.47769e-05
-0.000143691 -3.47769e-05 0.00123023
0.00233265 -0.000247494 -6.25319e-05
-0.000247494 -0.000720326 -2.14069e-05
-6.25319e-05 -2.14069e-05 -0.000384737
-0.000413782 -0.000276579 8.01793e-05
-0.000276579 -0.00107682 1.71361e-05
8.01793e-05 1.71361e-05 -0.000285498
0.00298477 0.000827177 0.00020496
0.000827177 -0.00495512 -1.53494e-05
0.00020496 -1.53494e-05 -0.00515637
0.000319185 -0.000739503 -4.70541e-05
-0.000739503 -0.00133055 7.2333e-05
-4.70541e-05 7.2333e-05 -0.00106867
0.00662293 -0.000759647 -0.000158377
-0.000759647 0.000497059 4.49913e-05
-0.000158377 4.49913e-05 0.000772293
0.00250962 -0.000620057 -1.73624e-05
-0.000620057 -0.000426819 1.18206e-05
-1.73624e-05 1.18206e-05 -4.0637e-05
0.00429675 -0.00043856 -6.98292e-06
-0.00043856 0.000614736 -3.13283e-06
-6.98292e-06 -3.13283e-06 0.000741648
0.00268215 -0.000360436 6.05827e-05
-0.000360436 -0.000107204 -7.26899e-06
6.05827e-05 -7.26899e-06 0.000233486
0.00368093 -0.000106605 4.56422e-05
-0.000106605 0.00109524 4.42857e-07
4.56422e-05 4.42857e-07 0.00109666
0.000523332 -0.000517265 -2.43896e-05
-0.000517265 -0.001073 1.23404e-05
-2.43896e-05 1.23404e-05 -0.000822439
0.00213679 -0.000500474 -2.34605e-06
-0.000500474 -0.000347455 1.91002e-06
-2.34605e-06 1.91002e-06 -9.06381e-05
0.00239699 -0.000429436 5.19676e-06
-0.000429436 -0.000174908 -1.43111e-06
5.19676e-06 -1.43111e-06 3.49748e-05
0.00224666 -0.000603287 -2.50694e-06
-0.000603287 -6.15139e-05 3.96304e-06
-2.50694e-06 3.96304e-06 -9.5459e-05
0.00233027 -0.000525209 5.89954e-08
-0.000525209 2.21399e-05 -2.94118e-07
5.89954e-08 -2.94118e-07 3.07763e-05
0.00225591 -0.000418105 -4.76666e-07
-0.000418105 -1.05227e-05 -4.65028e-07
-4.76666e-07 -4.65028e-07 -1.13817e-06
0.00212817 -0.000520913 -8.99395e-08
-0.000520913 4.71151e-05 1.08911e-06
-8.99395e-08 1.08911e-06 -2.64956e-05
0.00217534 -0.000481171 -9.03391e-07
-0.000481171 5.95161e-05 1.04545e-07
-9.03391e-07 1.04545e-07 -5.8037e-06
0.00208959 -0.000410662 -1.61772e-06
-0.000410662 7.82227e-05 9.71925e-07
-1.61772e-06 9.71925e-07 -6.15753e-06
0.00204698 -0.000501684 8.00474e-07
-0.000501684 0.000116762 -8.64673e-07
8.00474e-07 -8.64673e-07 -1.24597e-05
0.00200961 -0.000459995 1.03119e-06
-0.000459995 0.000107061 -5.84602e-07
1.03119e-06 -5.84602e-07 -2.65533e-05
0.00200163 -0.00042643 -3.92881e-07
-0.00042643 0.000136266 -7.23594e-07
-3.92881e-07 -7.23594e-07 -1.16574e-05
0.00202394 -0.000444589 -1.51564e-06
-0.000444589 0.00018786 2.20229e-06
-1.51564e-06 2.20229e-06 3.3605e-05
0.00213288 -0.000456254 -1.8382e-06
-0.000456254 0.000261063 6.91485e-07
-1.8382e-06 6.91485e-07 8.91117e-05
0.00213316 -0.000448068 -8.85761e-07
-0.000448068 0.000288744 -2.07982e-06
-8.85761e-07 -2.07982e-06 9.18825e-05
0.00204105 -0.000482921 3.04242e-06
-0.000482921 0.000217449 2.86604e-06
3.04242e-06 2.86604e-06 8.27594e-06
0.0020419 -0.000473578 4.19942e-07
-0.000473578 0.000270431 -4.52479e-07
4.19942e-07 -4.52479e-07 4.26355e-05
0.00179362 -0.000408409 -6.42659e-06
-0.000408409 0.000226347 2.33248e-07
-6.42659e-06 2.33248e-07 -1.70294e-05
0.00101511 -0.000269825 -1.61225e-05
-0.000269825 2.82486e-07 7.45252e-06
-1.61225e-05 7.45252e-06 -0.000215812
0.00166357 -0.000450326 -1.0308e-06
-0.000450326 0.00019785 -3.65697e-07
-1.0308e-06 -3.65697e-07 -8.14998e-05
0.00189075 -0.000528402 3.27404e-06
-0.000528402 0.000214958 1.35846e-06
3.27404e-06 1.35846e-06 -7.02923e-05
0.000421604 -0.000231761 -2.27621e-05
-0.000231761 -0.000130677 1.88385e-05
-2.27621e-05 1.88385e-05 -0.000271077
0.000851676 -0.000265379 8.83039e-07
-0.000265379 -4.16969e-05 -1.20644e-07
8.83039e-07 -1.20644e-07 -0.000262984
0.00159523 -0.000481401 9.12006e-06
-0.000481401 0.000263361 -6.77468e-07
9.12006e-06 -6.77468e-07 -4.79844e-05
0.0066946 6.39741e-05 -0.000253448
6.39741e-05 0.0038679 1.71884e-05
-0.000253448 1.71884e-05 0.00387052
0.000463311 -0.000236808 -1.25102e-06
-0.000236808 -8.85112e-05 6.84784e-07
-1.25102e-06 6.84784e-07 -0.000223063
0.000757526 -0.000254823 1.26591e-05
-0.000254823 -4.30505e-06 -6.56353e-06
1.26591e-05 -6.56353e-06 -0.00022849
0.00625326 9.16428e-05 -5.29306e-06
9.16428e-05 0.00361774 -3.7057e-07
-5.29306e-06 -3.7057e-07 0.00361308
0.000560303 -0.00022446 2.54848e-05
-0.00022446 -1.664e-05 -1.91818e-05
2.54848e-05 -1.91818e-05 -0.000136146
0.00572542 0.000135046 0.000201219
0.000135046 0.00332197 -2.31987e-05
0.000201219 -2.31987e-05 0.00330426
0.00154673 0.000554465 2.25943e-07
0.000554465 0.000194934 4.99271e-06
2.25943e-07 4.99271e-06 -0.000144241
0.00169585 0.000579075 -2.23056e-06
0.000579075 0.000452991 1.97577e-07
-2.23056e-06 1.97577e-07 7.80144e-05
0.00121738 0.000407269 -7.54741e-06
0.000407269 0.000185524 -7.05584e-07
-7.54741e-06 -7.05584e-07 -0.000107403
0.00169736 0.000501565 3.00267e-07
0.000501565 0.000568083 8.27059e-07
3.00267e-07 8.27059e-07 0.000228088
0.000957335 0.000302722 -3.46044e-06
0.000302722 0.000143045 -2.16477e-06
-3.46044e-06 -2.16477e-06 -0.000112994
0.00128449 0.000250955 -8.08438e-06
0.000250955 0.000441553 -2.08012e-06
-8.08438e-06 -2.08012e-06 0.000215016
-0.000260115 0.000106649 -3.80518e-06
0.000106649 -0.000499008 -2.22279e-06
-3.80518e-06 -2.22279e-06 -0.000699738
0.000792482 0.00015247 -8.48053e-07
0.00015247 0.000188039 -7.41082e-07
-8.48053e-07 -7.41082e-07 -2.20223e-05
0.000577087 0.000106072 -2.04652e-05
0.000106072 1.63555e-05 -1.75752e-05
-2.04652e-05 -1.75752e-05 -6.94067e-05
0.00036562 8.27479e-05 5.74577e-08
8.27479e-05 -7.04299e-05 9.23213e-06
5.74577e-08 9.23213e-06 -0.000234725
0.000413703 5.64544e-05 -6.08611e-07
5.64544e-05 -6.14291e-05 -3.69848e-07
-6.08611e-07 -3.69848e-07 -0.000129306
0.00432007 -0.000148321 -0.000129475
-0.000148321 0.00243483 -1.09442e-05
-0.000129475 -1.09442e-05 0.00242399
0.000256681 4.29957e-05 6.90694e-06
4.29957e-05 -0.000146971 1.44454e-05
6.90694e-06 1.44454e-05 -0.000202711
0.00363715 -0.000145629 -1.01056e-05
-0.000145629 0.00199549 1.02107e-06
-1.01056e-05 1.02107e-06 0.00198784
0.00307988 -0.000130196 5.36318e-05
-0.000130196 0.00163291 4.97347e-06
5.36318e-05 4.97347e-06 0.00162932
0.000419247 0.000141187 -1.26623e-06
0.000141187 -0.0018197 1.02347e-05
-1.26623e-06 1.02347e-05 -0.00116246
0.00512935 3.34682e-05 6.60669e-05
3.34682e-05 -0.000571924 1.69094e-05
6.60669e-05 1.69094e-05 0.000694422
0.0139234 0.000819314 -2.79151e-05
0.000819314 0.00231976 1.02684e-05
-2.79151e-05 1.02684e-05 0.00200911
0.00191171 0.000722574 1.6024e-06
0.000722574 0.000321981 5.12044e-06
1.6024e-06 5.12044e-06 -1.24119e-05
0.00215039 0.000702932 2.5893e-07
0.000702932 0.000302209 3.57935e-06
2.5893e-07 3.57935e-06 -1.46573e-06
0.00149806 0.000615853 -3.04258e-07
0.000615853 0.000115062 -3.5304e-06
-3.04258e-07 -3.5304e-06 -0.000222491
0.00283881 0.000825319 -1.06662e-05
0.000825319 0.00122934 4.17547e-06
-1.06662e-05 4.17547e-06 0.000813205
0.00188104 0.000668542 -7.03118e-06
0.000668542 0.000570462 -9.76836e-06
-7.03118e-06 -9.76836e-06 0.000149329
0.00196621 0.000777027 7.46983e-06
0.000777027 0.000486322 3.09819e-06
7.46983e-06 3.09819e-06 0.000131566
0.00186917 0.000785627 -1.48426e-06
0.000785627 9.19843e-05 -3.77584e-06
-1.48426e-06 -3.77584e-06 -0.000202189
0.00261113 0.000911693 -1.90947e-05
0.000911693 0.000805418 5.72298e-06
-1.90947e-05 5.72298e-06 0.000491331
0.00110434 0.000753122 -8.40505e-06
0.000753122 -0.000351875 1.06242e-05
-8.40505e-06 1.06242e-05 -0.000287559
0.00270592 0.000935343 3.18068e-07
0.000935343 0.000622248 3.73077e-06
3.18068e-07 3.73077e-06 0.000309697
0.00267345 0.000808344 -4.2156e-06
0.000808344 0.000420422 2.89507e-06
-4.2156e-06 2.89507e-06 0.000187941
0.00124953 0.000396612 3.61892e-05
0.000396612 -0.000293116 1.76561e-05
3.61892e-05 1.76561e-05 -0.000248209
0.000475862 0.000632738 9.33506e-06
0.000632738 -0.00049215 -3.40741e-06
9.33506e-06 -3.40741e-06 -0.000668147
0.00101158 0.000816372 -3.41438e-05
0.000816372 -0.000172878 -5.39703e-06
-3.41438e-05 -5.39703e-06 -0.000440878
0.00290803 0.000876677 4.24435e-06
0.000876677 -0.000145334 7.80651e-06
4.24435e-06 7.80651e-06 4.74788e-05
0.00684909 0.00131939 -2.14772e-05
0.00131939 -0.000727502 -4.00181e-05
-2.14772e-05 -4.00181e-05 0.000249156
0.00414594 0.00142112 -4.03941e-05
0.00142112 0.00102147 -5.23884e-05
-4.03941e-05 -5.23884e-05 0.000918698
0.00158754 -7.30831e-05 3.26128e-05
-7.30831e-05 -0.000311825 2.65965e-06
3.26128e-05 2.65965e-06 -0.000160644
0.00268328 -0.000230436 -5.40924e-05
-0.000230436 -0.000438813 3.3535e-06
-5.40924e-05 3.3535e-06 -0.000105265
0.00348857 0.000351553 2.00387e-05
0.000351553 -0.000366914 -1.36691e-05
2.00387e-05 -1.36691e-05 0.00018119
0.000930692 -0.000525742 -6.67342e-05
-0.000525742 -0.00123317 4.98586e-05
-6.67342e-05 4.98586e-05 -0.000840805
0.00282624 -0.000492638 -9.88667e-05
-0.000492638 -0.000230747 -3.45182e-06
-9.88667e-05 -3.45182e-06 -0.000139729
0.00263004 -0.000363545 8.42388e-06
-0.000363545 -4.53039e-05 -3.56384e-06
8.42388e-06 -3.56384e-06 0.000286072
0.00249678 -0.000101738 -1.48143e-05
-0.000101738 0.000316831 6.529e-07
-1.48143e-05 6.529e-07 0.000338381
0.00239271 -0.000240392 1.41354e-05
-0.000240392 -4.18993e-05 -1.18107e-07
1.41354e-05 -1.18107e-07 8.64397e-05
0.00234161 1.34115e-06 1.04326e-05
1.34115e-06 -3.19676e-05 2.36504e-06
1.04326e-05 2.36504e-06 1.92166e-05
0.00199951 -0.000522396 -1.72732e-05
-0.000522396 -0.000465915 5.10072e-06
-1.72732e-05 5.10072e-06 -0.000213699
0.00241242 -0.000443039 -2.66393e-06
-0.000443039 -0.000159684 6.22687e-07
-2.66393e-06 6.22687e-07 1.43345e-05
0.00233069 -0.000308512 8.00717e-07
-0.000308512 -8.31146e-05 -1.2422e-06
8.00717e-07 -1.2422e-06 3.03452e-06
0.00231034 -0.000516275 -3.86186e-06
-0.000516275 2.35684e-05 1.15182e-06
-3.86186e-06 1.15182e-06 3.50071e-05
0.00225845 -0.000415038 -1.03145e-07
-0.000415038 3.88389e-06 -9.39942e-08
-1.03145e-07 -9.39942e-08 8.52288e-06
0.00215936 -0.000346112 -6.90753e-07
-0.000346112 1.60229e-05 3.56554e-07
-6.90753e-07 3.56554e-07 -5.11358e-06
0.00217255 -0.000487308 -2.93198e-07
-0.000487308 6.75828e-05 -6.75164e-07
-2.93198e-07 -6.75164e-07 6.70495e-07
0.00208666 -0.000409665 5.2768e-07
-0.000409665 7.2537e-05 -1.40928e-07
5.2768e-07 -1.40928e-07 -1.16711e-05
0.00206112 -0.000376224 -1.88927e-06
-0.000376224 0.000112921 6.58868e-07
-1.88927e-06 6.58868e-07 2.39421e-06
0.00199458 -0.000459923 2.16234e-06
-0.000459923 9.44038e-05 -1.32489e-06
2.16234e-06 -1.32489e-06 -3.97523e-05
0.0019931 -0.000425692 5.45448e-07
-0.000425692 0.000127292 -5.75073e-07
5.45448e-07 -5.75073e-07 -2.09263e-05
0.001992 -0.000400802 -6.96288e-07
-0.000400802 0.00015934 -1.48372e-06
-6.96288e-07 -1.48372e-06 -8.78293e-06
0.00212215 -0.000453492 -1.02729e-06
-0.000453492 0.000247655 2.88404e-06
-1.02729e-06 2.88404e-06 7.94627e-05
0.00209829 -0.000446505 -5.74341e-07
-0.000446505 0.000268523 -1.97169e-07
-5.74341e-07 -1.97169e-07 7.26542e-05
0.00176207 -0.00037539 -4.54732e-06
-0.00037539 0.000163391 1.54959e-07
-4.54732e-06 1.54959e-07 -5.64573e-05
0.00205877 -0.000476648 2.89769e-06
-0.000476648 0.000281067 2.17366e-06
2.89769e-06 2.17366e-06 5.33939e-05
0.0018313 -0.00041311 -7.37098e-07
-0.00041311 0.00024982 5.81083e-09
-7.37098e-07 5.81083e-09 7.12936e-06
0.00105327 -0.000249186 -1.65582e-05
-0.000249186 -1.1519e-05 6.98544e-06
-1.65582e-05 6.98544e-06 -0.000216464
0.000303053 -0.000197021 -1.95196e-05
-0.000197021 -0.000223349 1.72207e-05
-1.95196e-05 1.72207e-05 -0.000356131
0.00102441 -0.00027197 6.64583e-07
-0.00027197 1.86967e-06 6.00411e-08
6.64583e-07 6.00411e-08 -0.000214863
0.00164762 -0.000446733 6.42587e-06
-0.000446733 0.000195877 -7.44355e-07
6.42587e-06 -7.44355e-07 -8.49844e-05
0.00702991 -1.81929e-05 -0.000288847
-1.81929e-05 0.00405263 2.09168e-05
-0.000288847 2.09168e-05 0.00406403
0.000364962 -0.000223491 -1.22335e-06
-0.000223491 -0.000173908 1.21211e-06
-1.22335e-06 1.21211e-06 -0.000308794
0.000930078 -0.000273487 1.37211e-05
-0.000273487 -6.99715e-07 -6.38651e-06
1.37211e-05 -6.38651e-06 -0.000224632
0.00687632 3.55558e-05 -1.19281e-06
3.55558e-05 0.00397918 5.03337e-07
-1.19281e-06 5.03337e-07 0.00398275
0.000475817 -0.000238452 2.45897e-05
-0.000238452 -8.6287e-05 -1.96302e-05
2.45897e-05 -1.96302e-05 -0.00022077
0.00656815 5.98921e-05 0.000255686
5.98921e-05 0.00380617 -2.2817e-05
0.000255686 -2.2817e-05 0.00380529
0.00180451 0.000613369 1.10742e-07
0.000613369 0.000207056 5.55822e-06
1.10742e-07 5.55822e-06 -0.000106935
0.00159335 0.000565374 4.92348e-08
0.000565374 0.000226604 8.40176e-07
4.92348e-08 8.40176e-07 -0.000113064
0.00145919 0.000457807 -7.97672e-06
0.000457807 0.000234451 2.38228e-07
-7.97672e-06 2.38228e-07 -6.67356e-05
0.00153156 0.000565687 5.06407e-07
0.000565687 0.000344405 -1.39286e-06
5.06407e-07 -1.39286e-06 -2.98589e-05
0.00124616 0.000403481 -1.68037e-06
0.000403481 0.000210977 -1.38484e-08
-1.68037e-06 -1.38484e-08 -7.93226e-05
0.000967087 0.000237507 -1.13532e-05
0.000237507 0.000158638 -4.55002e-06
-1.13532e-05 -4.55002e-06 -5.35139e-05
0.001221 0.000318636 5.39294e-07
0.000318636 0.000313994 -1.33348e-06
5.39294e-07 -1.33348e-06 5.77558e-05
0.000612336 0.000205453 5.95618e-07
0.000205453 2.6303e-05 1.72753e-06
5.95618e-07 1.72753e-06 -0.000195869
0.000439185 0.000178561 -2.67051e-05
0.000178561 -8.60031e-05 -1.825e-05
-2.67051e-05 -1.825e-05 -0.000189246
0.00011625 9.53133e-05 2.76796e-07
9.53133e-05 -0.000222116 4.23509e-06
2.76796e-07 4.23509e-06 -0.000434402
0.00055667 9.17288e-05 -1.28846e-06
9.17288e-05 7.92395e-06 -4.00318e-07
-1.28846e-06 -4.00318e-07 -7.53527e-05
0.00526049 -0.000162858 -0.000172071
-0.000162858 0.00303844 -1.5534e-05
-0.000172071 -1.5534e-05 0.00301994
0.000408917 5.49771e-05 1.1077e-05
5.49771e-05 -6.03507e-05 1.71271e-05
1.1077e-05 1.71271e-05 -0.000126738
0.00419616 -0.000170014 -9.38607e-06
-0.000170014 0.00236225 1.10214e-06
-9.38607e-06 1.10214e-06 0.00234627
0.00351031 -0.000155826 7.25547e-05
-0.000155826 0.00191799 5.79593e-06
7.25547e-05 5.79593e-06 0.001907
0.00136054 0.00015829 2.91006e-05
0.00015829 -0.000376353 1.89894e-05
2.91006e-05 1.89894e-05 -0.000162325
0.00269343 0.000186441 -1.64009e-05
0.000186441 -0.000882424 -2.64307e-06
-1.64009e-05 -2.64307e-06 -0.000173786
0.00408474 0.000270471 0.000211344
0.000270471 -0.00163397 6.27637e-05
0.000211344 6.27637e-05 0.000126356
0.0026436 0.000762562 -7.48649e-06
0.000762562 0.000553174 -2.54756e-08
-7.48649e-06 -2.54756e-08 0.000260599
0.00172517 0.000724148 -6.21581e-06
0.000724148 0.000194687 -4.59618e-06
-6.21581e-06 -4.59618e-06 -0.000134723
0.00215312 0.000568978 1.014e-06
0.000568978 0.000173517 4.46334e-06
1.014e-06 4.46334e-06 -4.97572e-05
0.00213094 0.000691194 1.33384e-06
0.000691194 0.00029193 4.26253e-07
1.33384e-06 4.26253e-07 -8.52046e-06
0.00153761 0.000623747 7.36165e-07
0.000623747 0.000149582 -1.11361e-05
7.36165e-07 -1.11361e-05 -0.000186061
0.00200967 0.000609946 -2.24308e-06
0.000609946 3.16349e-06 8.46479e-07
-2.24308e-06 8.46479e-07 -0.000199699
0.00273876 0.00088108 -9.72757e-06
0.00088108 0.000901569 -3.40707e-06
-9.72757e-06 -3.40707e-06 0.000534486
0.00238194 0.000820178 2.06644e-07
0.000820178 0.000399403 1.05249e-08
2.06644e-07 1.05249e-08 9.35271e-05
0.0020672 0.000421286 -1.20714e-05
0.000421286 -0.000130744 -4.46484e-07
-1.20714e-05 -4.46484e-07 -0.000144385
0.00345431 0.00102554 -4.72346e-06
0.00102554 0.00103723 6.16337e-06
-4.72346e-06 6.16337e-06 0.000711595
0.00245923 0.000792182 3.39885e-07
0.000792182 0.00029877 -3.3505e-07
3.39885e-07 -3.3505e-07 6.51634e-05
0.00067547 0.000382911 5.56738e-07
0.000382911 -0.000597296 1.72846e-06
5.56738e-07 1.72846e-06 -0.000547398
-0.00111715 0.000489625 -2.42991e-05
0.000489625 -0.00131949 -8.88081e-06
-2.42991e-05 -8.88081e-06 -0.00146949
0.00383628 0.000994954 -0.000121459
0.000994954 0.000318085 -3.95975e-05
-0.000121459 -3.95975e-05 0.000405192
0.00211326 9.17803e-05 -9.09662e-07
9.17803e-05 -0.000197279 -2.85676e-07
-9.09662e-07 -2.85676e-07 -0.000105621
0.00262388 -7.89414e-05 8.80849e-06
-7.89414e-05 0.000408736 -5.86434e-07
8.80849e-06 -5.86434e-07 0.000511895
0.00278538 -0.000244425 -9.12337e-05
-0.000244425 -0.000328447 7.00618e-06
-9.12337e-05 7.00618e-06 7.96126e-06
0.00214845 -0.000355909 -7.05497e-05
-0.000355909 -0.000242841 6.46526e-06
-7.05497e-05 6.46526e-06 7.77663e-05
0.00135179 -0.000109714 -1.40743e-05
-0.000109714 -0.000431909 1.52675e-06
-1.40743e-05 1.52675e-06 -0.000391364
0.0023967 -0.000243228 1.2815e-06
-0.000243228 -5.64201e-05 -1.73031e-06
1.2815e-06 -1.73031e-06 9.44034e-05
0.00238199 3.27022e-06 -3.11373e-06
3.27022e-06 -3.66406e-05 1.31871e-06
-3.11373e-06 1.31871e-06 2.03626e-05
0.00237177 -7.65769e-05 1.04701e-06
-7.65769e-05 -6.42007e-05 -6.0419e-07
1.04701e-06 -6.0419e-07 2.2627e-05
0.00243124 -0.000453467 -6.67133e-06
-0.000453467 -0.00013585 1.03248e-06
-6.67133e-06 1.03248e-06 2.42671e-06
0.00229031 -0.000297659 3.71848e-07
-0.000297659 -8.89455e-05 -2.53498e-07
3.71848e-07 -2.53498e-07 -1.17308e-05
0.00220876 -0.000229414 4.81194e-07
-0.000229414 -2.25524e-05 -3.42556e-07
4.81194e-07 -3.42556e-07 1.74695e-05
0.0022632 -0.000412211 -2.89924e-07
-0.000412211 2.02281e-05 2.9179e-07
-2.89924e-07 2.9179e-07 2.00082e-05
0.00215832 -0.0003432 1.05925e-07
-0.0003432 1.9867e-05 1.84648e-07
1.05925e-07 1.84648e-07 -2.52782e-06
0.00207441 -0.000295014 -2.82315e-06
-0.000295014 5.83788e-05 7.76e-07
-2.82315e-06 7.76e-07 2.42494e-06
0.00208353 -0.000408625 2.10806e-06
-0.000408625 6.64642e-05 -1.07905e-06
2.10806e-06 -1.07905e-06 -1.75605e-05
0.00203612 -0.000373678 6.68623e-07
-0.000373678 9.48931e-05 -2.13339e-07
6.68623e-07 -2.13339e-07 -1.56945e-05
0.00200824 -0.000342433 -1.15539e-06
-0.000342433 0.000130316 -9.56294e-07
-1.15539e-06 -9.56294e-07 -4.15633e-06
0.00198208 -0.000424998 1.35333e-06
-0.000424998 0.000116478 -3.39433e-07
1.35333e-06 -3.39433e-07 -3.20745e-05
0.0020398 -0.000403529 -3.14564e-07
-0.000403529 0.00019063 -8.24016e-08
-3.14564e-07 -8.24016e-08 2.20203e-05
0.00182649 -0.000340467 -2.73881e-06
-0.000340467 0.000161028 -1.60172e-07
-2.73881e-06 -1.60172e-07 -3.47142e-05
0.00206257 -0.000444767 4.926e-07
-0.000444767 0.000247665 1.75767e-06
4.926e-07 1.75767e-06 5.28569e-05
0.00180353 -0.000377944 -5.59739e-07
-0.000377944 0.000189768 9.22616e-08
-5.59739e-07 9.22616e-08 -2.99623e-05
0.00107101 -0.000223714 -1.51353e-05
-0.000223714 -2.20191e-05 6.16797e-06
-1.51353e-05 6.16797e-06 -0.000215392
0.0018768 -0.000418325 5.4055e-06
-0.000418325 0.000278099 -3.44445e-08
5.4055e-06 -3.44445e-08 3.60423e-05
0.00108023 -0.000250336 2.08144e-07
-0.000250336 1.95733e-06 7.44172e-08
2.08144e-07 7.44172e-08 -0.000202546
0.00273285 -0.000179057 -4.8643e-05
-0.000179057 0.00127682 1.1838e-05
-4.8643e-05 1.1838e-05 0.00117377
0.00223356 -0.000101156 -0.000257566
-0.000101156 0.00104718 3.46553e-05
-0.000257566 3.46553e-05 0.001028
0.00161668 -0.000207 -1.32673e-05
-0.000207 0.000591234 -7.33428e-10
-1.32673e-05 -7.33428e-10 0.000468644
0.000978945 -0.00027009 1.5573e-05
-0.00027009 -2.92743e-05 -6.43096e-06
1.5573e-05 -6.43096e-06 -0.000246198
0.00708785 -3.67297e-05 -7.7165e-06
-3.67297e-05 0.00409595 1.16906e-06
-7.7165e-06 1.16906e-06 0.00410412
0.000388824 -0.000251802 2.51433e-05
-0.000251802 -0.000158454 -1.86143e-05
2.51433e-05 -1.86143e-05 -0.000296244
0.00699699 1.23381e-05 0.000283229
1.23381e-05 0.0040591 -2.70064e-05
0.000283229 -2.70064e-05 0.00406014
0.0021385 0.000438149 5.96331e-07
0.000438149 0.000157727 7.9375e-07
5.96331e-07 7.9375e-07 -9.31168e-06
0.00210834 0.000572952 3.35642e-06
0.000572952 0.000287522 5.30536e-06
3.35642e-06 5.30536e-06 2.99069e-05
0.00209295 0.00063697 2.09281e-07
0.00063697 0.000378505 2.07881e-07
2.09281e-07 2.07881e-07 6.39504e-05
0.00169174 0.000491254 -7.49336e-06
0.000491254 0.000265817 1.42842e-06
-7.49336e-06 1.42842e-06 -2.78049e-05
0.00169349 0.000583222 2.76617e-06
0.000583222 0.00028903 -3.26818e-06
2.76617e-06 -3.26818e-06 -5.30104e-05
0.00146226 0.000461845 -9.87616e-08
0.000461845 0.000227547 5.31731e-07
-9.87616e-08 5.31731e-07 -7.60453e-05
0.000853269 0.000259962 -1.34252e-05
0.000259962 -1.46248e-06 -5.57312e-06
-1.34252e-05 -5.57312e-06 -0.000213928
0.0012709 0.000399461 8.01079e-06
0.000399461 0.000234297 2.50299e-06
8.01079e-06 2.50299e-06 -5.35099e-05
0.000661225 0.000215315 1.23685e-06
0.000215315 -3.42561e-05 -3.19085e-08
1.23685e-06 -3.19085e-08 -0.000240396
0.000558365 0.000253129 -2.86801e-05
0.000253129 -2.60801e-05 -1.93094e-05
-2.86801e-05 -1.93094e-05 -0.000149103
0.000188323 0.000166021 3.64808e-06
0.000166021 -0.000248558 3.03852e-06
3.64808e-06 3.03852e-06 -0.000461259
0.00052715 0.000163219 8.7442e-07
0.000163219 -3.61783e-05 -8.19874e-07
8.7442e-07 -8.19874e-07 -0.00013505
0.00615092 -0.000140885 -0.000217906
-0.000140885 0.00358943 -2.20361e-05
-0.000217906 -2.20361e-05 0.00356844
0.000329939 8.26693e-05 1.67985e-05
8.26693e-05 -0.000129546 1.73472e-05
1.67985e-05 1.73472e-05 -0.000207309
0.00482453 -0.000185529 -8.18183e-06
-0.000185529 0.00276513 2.66826e-07
-8.18183e-06 2.66826e-07 0.0027427
0.00404692 -0.000185178 9.35589e-05
-0.000185178 0.00227217 7.79294e-06
9.35589e-05 7.79294e-06 0.00225214
0.00222569 0.000216512 -5.34478e-06
0.000216512 -0.000166477 -9.59447e-07
-5.34478e-06 -9.59447e-07 -5.2364e-05
0.00210122 0.0001096 2.25234e-05
0.0001096 -6.78422e-05 -2.97722e-06
2.25234e-05 -2.97722e-06 0.00017681
0.00573742 0.000284437 -0.000113221
0.000284437 0.000509887 -1.88082e-06
-0.000113221 -1.88082e-06 0.00124868
0.00217338 0.000522121 -2.94618e-06
0.000522121 0.000136233 1.27885e-06
-2.94618e-06 1.27885e-06 -4.86045e-05
0.00221652 0.000711087 -3.50004e-06
0.000711087 0.000336553 -2.48698e-07
-3.50004e-06 -2.48698e-07 5.24049e-05
0.00172207 0.000744084 -6.67622e-06
0.000744084 0.000172854 -1.04503e-05
-6.67622e-06 -1.04503e-05 -0.000154626
0.00227617 0.000563789 3.03418e-06
0.000563789 0.000266227 1.50645e-06
3.03418e-06 1.50645e-06 4.55178e-05
0.00211997 0.000680475 2.80891e-07
0.000680475 0.000287598 -4.61962e-06
2.80891e-07 -4.61962e-06 -9.92464e-06
0.00239981 0.000417097 -3.48355e-07
0.000417097 3.50901e-05 1.86021e-07
-3.48355e-07 1.86021e-07 1.34931e-05
0.00208717 0.000621712 -6.53814e-07
0.000621712 6.56258e-05 3.21673e-07
-6.53814e-07 3.21673e-07 -0.000137489
0.0028099 0.00084556 -5.56769e-06
0.00084556 0.000663124 -1.70282e-06
-5.56769e-06 -1.70282e-06 0.000345358
0.00202969 0.000411309 -5.63644e-08
0.000411309 -0.000133965 -3.97679e-07
-5.63644e-08 -3.97679e-07 -0.000146117
0.00219443 0.000767818 1.21447e-05
0.000767818 0.000138618 2.94843e-06
1.21447e-05 2.94843e-06 -9.47885e-05
6.79964e-05 0.000345558 -3.88994e-05
0.000345558 -0.000933786 -1.90818e-05
-3.88994e-05 -1.90818e-05 -0.000873978
0.00236782 8.76418e-05 1.07721e-06
8.76418e-05 -2.32633e-05 3.20734e-07
1.07721e-06 3.20734e-07 4.48273e-05
0.00228253 0.000101516 -1.92626e-06
0.000101516 -7.44741e-05 2.47127e-07
-1.92626e-06 2.47127e-07 9.33873e-06
0.00356387 -8.21196e-05 -4.78877e-05
-8.21196e-05 0.00106338 2.05938e-06
-4.78877e-05 2.05938e-06 0.00112668
0.00239397 -0.000242221 -2.2364e-05
-0.000242221 -7.98135e-05 1.91726e-06
-2.2364e-05 1.91726e-06 9.24276e-05
0.00243563 9.03985e-06 -6.902e-06
9.03985e-06 -3.82292e-05 -4.4589e-06
-6.902e-06 -4.4589e-06 2.41331e-05
0.00234236 -8.44278e-05 -3.2465e-07
-8.44278e-05 -9.80025e-05 6.60234e-08
-3.2465e-07 6.60234e-08 -4.01307e-06
0.00209476 -7.01125e-05 4.20747e-07
-7.01125e-05 -2.88413e-05 9.44852e-08
4.20747e-07 9.44852e-08 -1.08866e-07
0.00224526 -0.000285852 -6.32094e-07
-0.000285852 -9.65767e-05 5.20042e-07
-6.32094e-07 5.20042e-07 -2.81646e-05
0.00216428 -0.000234068 -1.96719e-07
-0.000234068 -4.27326e-05 2.31632e-08
-1.96719e-07 2.31632e-08 -8.98824e-06
0.0020489 -0.000196674 -2.12997e-06
-0.000196674 1.87599e-05 1.86287e-07
-2.12997e-06 1.86287e-07 -2.71145e-06
0.0021566 -0.000340293 8.94124e-07
-0.000340293 2.31999e-05 2.08175e-08
8.94124e-07 2.08175e-08 -4.15765e-07
0.00208346 -0.000295628 3.39857e-07
-0.000295628 5.98639e-05 -8.89935e-09
3.39857e-07 -8.89935e-09 3.58003e-06
0.00207354 -0.000279767 -2.24161e-06
-0.000279767 0.000128298 -2.58287e-07
-2.24161e-06 -2.58287e-07 2.70333e-05
0.00201374 -0.000371081 2.66519e-06
-0.000371081 7.87155e-05 -9.10205e-07
2.66519e-06 -9.10205e-07 -3.18774e-05
0.00202667 -0.000344196 -2.77282e-07
-0.000344196 0.000138684 -8.97377e-08
-2.77282e-07 -8.97377e-08 3.6553e-06
0.00184589 -0.000292704 -2.11324e-06
-0.000292704 0.00013785 -4.10227e-07
-2.11324e-06 -4.10227e-07 -3.27663e-05
0.00208654 -0.000406231 9.63132e-07
-0.000406231 0.000221285 1.02672e-06
9.63132e-07 1.02672e-06 5.21801e-05
0.00185215 -0.000342425 -3.92291e-07
-0.000342425 0.000176619 8.60156e-08
-3.92291e-07 8.60156e-08 -1.90036e-05
0.00107851 -0.000199539 -1.3953e-05
-0.000199539 -3.63975e-05 4.97953e-06
-1.3953e-05 4.97953e-06 -0.000220168
0.00183676 -0.000379967 3.47781e-06
-0.000379967 0.000211026 -7.40905e-08
3.47781e-06 -7.40905e-08 -8.54531e-06
0.00110428 -0.000224255 2.00631e-08
-0.000224255 -6.90381e-06 1.95334e-07
2.00631e-08 1.95334e-07 -0.000199368
0.00275064 -0.000174523 -5.70281e-05
-0.000174523 0.0012789 1.15375e-05
-5.70281e-05 1.15375e-05 0.00118423
0.00109307 -0.0002506 1.61279e-05
-0.0002506 7.0788e-06 -6.53455e-06
1.61279e-05 -6.53455e-06 -0.000196871
0.0028802 -0.000218241 4.87483e-05
-0.000218241 0.00136937 -7.61179e-06
4.87483e-05 -7.61179e-06 0.00127405
0.00222359 -0.000136169 -0.000255001
-0.000136169 0.00104794 3.94158e-05
-0.000255001 3.94158e-05 0.00102645
0.00454485 -0.000113177 -0.000251476
-0.000113177 0.00250919 2.57414e-05
-0.000251476 2.57414e-05 0.00250295
0.00296551 -0.000277629 0.000160849
-0.000277629 0.00143776 -2.56596e-05
0.000160849 -2.56596e-05 0.0013417
0.00714621 -5.09099e-05 0.000296687
-5.09099e-05 0.00414074 -3.13484e-05
0.000296687 -3.13484e-05 0.00414475
0.00230881 0.000433418 -1.66096e-06
0.000433418 0.000252816 -4.38106e-07
-1.66096e-06 -4.38106e-07 0.000108636
0.0019023 0.000441959 2.14194e-06
0.000441959 0.00011678 1.63598e-06
2.14194e-06 1.63598e-06 -8.17675e-05
0.00213258 0.000428544 2.99831e-07
0.000428544 0.000161564 -1.5634e-06
2.99831e-07 -1.5634e-06 1.4017e-06
0.0018406 0.000471136 -6.0806e-06
0.000471136 0.000245342 1.68769e-06
-6.0806e-06 1.68769e-06 -1.78148e-05
0.00218135 0.000579884 6.53966e-07
0.000579884 0.000318604 2.68595e-07
6.53966e-07 2.68595e-07 6.00226e-05
0.0023631 0.000659963 1.92458e-07
0.000659963 0.000539041 -4.72871e-06
1.92458e-07 -4.72871e-06 0.000223936
0.00165988 0.000492716 1.91476e-07
0.000492716 0.000239468 6.25263e-07
1.91476e-07 6.25263e-07 -5.64893e-05
0.000949393 0.000284132 -1.72322e-05
0.000284132 -3.55602e-05 -5.72403e-06
-1.72322e-05 -5.72403e-06 -0.000252343
0.00145731 0.000464736 9.31964e-06
0.000464736 0.000216594 1.31405e-06
9.31964e-06 1.31405e-06 -8.91916e-05
0.000787111 0.00025089 -8.08006e-07
0.00025089 -3.88489e-05 -1.13871e-07
-8.08006e-07 -1.13871e-07 -0.00024743
0.000429606 0.000252848 -2.56874e-05
0.000252848 -0.000115414 -1.98235e-05
-2.56874e-05 -1.98235e-05 -0.000252265
0.000300138 0.000189882 8.81478e-06
0.000189882 -0.000256705 2.20528e-06
8.81478e-06 2.20528e-06 -0.000456917
0.000324256 0.000207298 3.10282e-06
0.000207298 -0.000171373 3.70659e-07
3.10282e-06 3.70659e-07 -0.000289315
0.00682107 -5.82995e-05 -0.000260219
-5.82995e-05 0.00397667 -2.70666e-05
-0.000260219 -2.70666e-05 0.0039659
0.000382039 0.000123503 2.21094e-05
0.000123503 -0.000123554 1.71256e-05
2.21094e-05 1.71256e-05 -0.000218029
0.00581994 -0.000163359 3.58613e-06
-0.000163359 0.00337771 -2.00983e-06
3.58613e-06 -2.00983e-06 0.00335828
0.00466087 -0.000219411 0.00011336
-0.000219411 0.00267501 1.04431e-05
0.00011336 1.04431e-05 0.00264336
0.00237831 0.000252728 1.40071e-07
0.000252728 -2.73131e-05 5.61286e-07
1.40071e-07 5.61286e-07 3.69721e-05
0.00216296 0.000223271 1.70062e-06
0.000223271 -0.00018409 -1.37008e-08
1.70062e-06 -1.37008e-08 -7.12843e-05
0.00261663 6.88103e-05 -7.86422e-05
6.88103e-05 0.000126981 -9.25322e-06
-7.86422e-05 -9.25322e-06 0.000403012
0.00213656 0.000371223 6.21192e-07
0.000371223 7.16798e-06 1.98831e-07
6.21192e-07 1.98831e-07 -6.18471e-05
0.00216053 0.000517469 -8.76008e-07
0.000517469 0.000152112 3.27537e-07
-8.76008e-07 3.27537e-07 -3.05134e-05
0.00171641 0.000651048 5.44421e-06
0.000651048 7.83387e-05 -2.5517e-06
5.44421e-06 -2.5517e-06 -0.00019566
0.0023981 0.000558301 -7.85685e-07
0.000558301 0.000358599 -2.80468e-06
-7.85685e-07 -2.80468e-06 0.000140571
0.00234701 0.000401121 -8.81433e-07
0.000401121 2.00468e-05 3.37891e-08
-8.81433e-07 3.37891e-08 -2.98018e-07
0.00217864 0.000635333 -2.6037e-06
0.000635333 0.000135372 -2.95634e-08
-2.6037e-06 -2.95634e-08 -6.84441e-05
0.00193534 0.000398712 1.1657e-05
0.000398712 -0.000138839 1.8356e-07
1.1657e-05 1.8356e-07 -0.000150049
0.00216782 6.81722e-05 1.97946e-06
6.81722e-05 -1.08005e-05 3.78845e-07
1.97946e-06 3.78845e-07 1.84214e-05
0.00228498 8.22655e-05 7.22312e-08
8.22655e-05 -6.21646e-05 9.77156e-09
7.22312e-08 9.77156e-09 4.58923e-06
0.00243848 0.00011718 -9.04925e-06
0.00011718 4.39836e-05 -9.72761e-07
-9.04925e-06 -9.72761e-07 0.000118937
0.00202745 -1.24402e-05 -3.08077e-06
-1.24402e-05 1.33004e-05 3.62904e-07
-3.08077e-06 3.62904e-07 1.50676e-05
0.00230138 -9.84521e-05 -5.21216e-07
-9.84521e-05 -0.000138673 -6.03215e-07
-5.21216e-07 -6.03215e-07 -3.68851e-05
0.00211064 -7.31755e-05 -7.27736e-07
-7.31755e-05 -2.35605e-05 2.67365e-07
-7.27736e-07 2.67365e-07 5.37506e-06
0.001973 -0.000107764 -3.51375e-06
-0.000107764 -1.66878e-05 3.98632e-07
-3.51375e-06 3.98632e-07 -3.05729e-05
0.00211743 -0.000238469 7.53363e-08
-0.000238469 -6.43102e-05 2.98225e-07
7.53363e-08 2.98225e-07 -3.71419e-05
0.00205132 -0.000195517 1.09024e-06
-0.000195517 1.91789e-05 -3.06357e-07
1.09024e-06 -3.06357e-07 -1.85984e-06
0.0020853 -0.000199277 -6.37252e-07
-0.000199277 0.000110201 2.31056e-08
-6.37252e-07 2.31056e-08 3.83027e-05
0.00209597 -0.000295875 3.07085e-06
-0.000295875 6.36235e-05 -7.51131e-07
3.07085e-06 -7.51131e-07 7.08823e-06
0.00202378 -0.000275166 -2.07857e-07
-0.000275166 9.7118e-05 -2.88196e-07
-2.07857e-07 -2.88196e-07 -3.62071e-06
0.00181962 -0.000231319 -1.52363e-06
-0.000231319 9.82063e-05 -3.42142e-07
-1.52363e-06 -3.42142e-07 -4.78527e-05
0.00204394 -0.000345726 1.91271e-06
-0.000345726 0.000146933 4.76115e-07
1.91271e-06 4.76115e-07 1.1396e-05
0.00185824 -0.000292705 -3.32173e-07
-0.000292705 0.000146234 -4.7437e-08
-3.32173e-07 -4.7437e-08 -2.39873e-05
0.00108128 -0.000172334 -1.3189e-05
-0.000172334 -5.15249e-05 3.82547e-06
-1.3189e-05 3.82547e-06 -0.000224556
0.00187544 -0.000344099 1.84253e-06
-0.000344099 0.000190877 2.46373e-07
1.84253e-06 2.46373e-07 -4.57136e-06
0.00112414 -0.000199711 -1.9025e-07
-0.000199711 -1.30551e-05 2.46628e-07
-1.9025e-07 2.46628e-07 -0.000195533
0.00271145 -0.000167981 -6.41817e-05
-0.000167981 0.00125474 1.10949e-05
-6.41817e-05 1.10949e-05 0.00116368
0.00114045 -0.000225179 1.48058e-05
-0.000225179 9.22006e-06 -5.78845e-06
1.48058e-05 -5.78845e-06 -0.000182335
0.00283703 -0.00019719 4.45264e-05
-0.00019719 0.0013332 -5.99854e-06
4.45264e-05 -5.99854e-06 0.00124576
0.00224567 -0.000116017 -0.000248933
-0.000116017 0.00105316 3.45057e-05
-0.000248933 3.45057e-05 0.00103422
0.00299858 -0.000226422 0.000154313
-0.000226422 0.00143828 -2.67141e-05
0.000154313 -2.67141e-05 0.00135278
0.00186825 -7.33901e-05 -0.000103722
-7.33901e-05 0.000827202 1.5091e-05
-0.000103722 1.5091e-05 0.000792938
0.00666354 1.48924e-05 9.02104e-05
1.48924e-05 0.00381914 -4.29689e-06
9.02104e-05 -4.29689e-06 0.00379989
0.00210006 0.000369017 -4.77513e-07
0.000369017 8.53688e-05 -6.71456e-08
-4.77513e-07 -6.71456e-08 -2.44018e-05
0.00216693 0.000410036 -9.428e-07
0.000410036 0.000221809 -4.70594e-07
-9.428e-07 -4.70594e-07 5.77453e-05
0.00226134 0.000433562 -3.72988e-06
0.000433562 0.000213167 -1.52757e-07
-3.72988e-06 -1.52757e-07 6.7198e-05
0.00189716 0.000407725 -2.78643e-06
0.000407725 0.000213217 3.9136e-07
-2.78643e-06 3.9136e-07 -1.22866e-05
0.00189612 0.000448817 -8.85056e-07
0.000448817 9.4145e-05 -2.21606e-06
-8.85056e-07 -2.21606e-06 -0.000101262
0.00212304 0.000418989 -4.54021e-06
0.000418989 0.000163212 -4.34897e-06
-4.54021e-06 -4.34897e-06 9.92135e-06
0.00111462 0.000283384 -2.00578e-05
0.000283384 6.75917e-06 -6.1476e-06
-2.00578e-05 -6.1476e-06 -0.000203497
0.001757 0.000464269 1.02694e-06
0.000464269 0.000192472 3.72213e-07
1.02694e-06 3.72213e-07 -7.03254e-05
0.00225767 0.000586615 1.76182e-06
0.000586615 0.00035062 -4.15825e-06
1.76182e-06 -4.15825e-06 9.11732e-05
0.00161111 0.00049256 8.77735e-06
0.00049256 0.000202775 -1.93609e-08
8.77735e-06 -1.93609e-08 -9.51479e-05
0.00096288 0.000280023 -1.24524e-06
0.000280023 -1.66753e-05 1.37176e-09
-1.24524e-06 1.37176e-09 -0.000231538
0.000349386 0.000247959 -2.55161e-05
0.000247959 -0.000178983 -1.80297e-05
-2.55161e-05 -1.80297e-05 -0.000316313
0.000756353 0.000243251 1.33146e-05
0.000243251 -5.49723e-05 6.15692e-06
1.33146e-05 6.15692e-06 -0.000259661
0.000390236 0.00024292 2.11835e-06
0.00024292 -0.000134294 8.65884e-07
2.11835e-06 8.65884e-07 -0.000271441
0.00713928 3.20208e-05 -0.000284494
3.20208e-05 0.00415848 -3.4069e-05
-0.000284494 -3.4069e-05 0.00415032
0.000397431 0.000189294 2.45098e-05
0.000189294 -0.000131044 1.95665e-05
2.45098e-05 1.95665e-05 -0.000246298
0.00659559 -9.90365e-05 4.12572e-06
-9.90365e-05 0.00383325 -8.29159e-07
4.12572e-06 -8.29159e-07 0.00382367
0.005363 -0.000196414 0.000152315
-0.000196414 0.00309781 1.02676e-05
0.000152315 1.02676e-05 0.00307279
0.00213693 0.000201537 -2.55964e-07
0.000201537 -1.30051e-05 -2.71768e-07
-2.55964e-07 -2.71768e-07 -5.28829e-07
0.00234235 0.00025595 -8.5469e-08
0.00025595 -5.6101e-05 5.41637e-07
-8.5469e-08 5.41637e-07 1.03331e-05
0.00216368 0.000228448 3.34225e-06
0.000228448 -0.000183999 -7.2473e-08
3.34225e-06 -7.2473e-08 -7.14329e-05
0.00218125 0.000368472 -3.1162e-07
0.000368472 3.97446e-05 9.02833e-08
-3.1162e-07 9.02833e-08 -2.61549e-05
0.00213593 0.000511342 2.97247e-07
0.000511342 0.000163757 -6.72496e-07
2.97247e-07 -6.72496e-07 -1.63822e-05
0.00231988 0.000387175 1.78994e-06
0.000387175 1.39967e-05 -1.6376e-07
1.78994e-06 -1.6376e-07 -5.36039e-06
0.00204054 6.30174e-05 -1.08002e-06
6.30174e-05 -6.01379e-06 2.55316e-07
-1.08002e-06 2.55316e-07 -2.49722e-06
0.00215142 6.2964e-05 3.00781e-07
6.2964e-05 -1.85919e-05 -1.18173e-07
3.00781e-07 -1.18173e-07 9.86419e-06
0.00221182 7.68565e-05 -1.18878e-06
7.68565e-05 -9.60063e-05 -2.42786e-07
-1.18878e-06 -2.42786e-07 -3.0003e-05
0.0020131 -1.09927e-05 -9.0456e-07
-1.09927e-05 1.67896e-06 4.83459e-08
-9.0456e-07 4.83459e-08 2.9442e-06
0.00200933 -3.70733e-05 -6.36741e-06
-3.70733e-05 4.52602e-05 5.49797e-07
-6.36741e-06 5.49797e-07 2.67261e-05
0.00212863 -7.60008e-05 -1.8811e-07
-7.60008e-05 -1.73671e-05 2.38525e-07
-1.8811e-07 2.38525e-07 1.20104e-05
0.0020024 -0.000107707 -1.47012e-06
-0.000107707 7.78017e-06 2.13581e-07
-1.47012e-06 2.13581e-07 -8.87649e-06
0.00196585 -0.000123334 -5.49832e-06
-0.000123334 2.55273e-05 7.80916e-07
-5.49832e-06 7.80916e-07 -2.62805e-05
0.00205306 -0.000194767 4.27388e-06
-0.000194767 1.95288e-05 -8.25015e-07
4.27388e-06 -8.25015e-07 -1.18156e-06
0.00202205 -0.000197248 2.90453e-06
-0.000197248 7.21276e-05 -6.91015e-07
2.90453e-06 -6.91015e-07 3.01948e-07
0.0018515 -0.0001693 1.55369e-06
-0.0001693 0.000100345 -1.02508e-06
1.55369e-06 -1.02508e-06 -2.52174e-05
0.00195865 -0.000271655 2.50289e-06
-0.000271655 5.50049e-05 -4.49519e-07
2.50289e-06 -4.49519e-07 -4.55359e-05
0.0018617 -0.000234079 -1.65163e-07
-0.000234079 0.000121581 -3.08933e-08
-1.65163e-07 -3.08933e-08 -2.45169e-05
0.00110349 -0.000139072 -1.2566e-05
-0.000139072 -4.92447e-05 2.67998e-06
-1.2566e-05 2.67998e-06 -0.000209355
0.00187642 -0.000293234 1.09076e-06
-0.000293234 0.00015715 2.92985e-07
1.09076e-06 2.92985e-07 -1.27494e-05
0.00113361 -0.000171696 -3.40088e-07
-0.000171696 -2.11863e-05 2.79081e-07
-3.40088e-07 2.79081e-07 -0.00019292
0.00264642 -0.000169645 -6.64543e-05
-0.000169645 0.00121566 9.66715e-06
-6.64543e-05 9.66715e-06 0.00112714
0.00116156 -0.000199594 1.36382e-05
-0.000199594 5.1405e-06 -4.58094e-06
1.36382e-05 -4.58094e-06 -0.000176024
0.00277872 -0.000169118 4.2642e-05
-0.000169118 0.00129156 -4.59211e-06
4.2642e-05 -4.59211e-06 0.00120942
0.00224769 -9.65662e-05 -0.000246629
-9.65662e-05 0.00104784 2.89066e-05
-0.000246629 2.89066e-05 0.00103045
0.00292627 -0.000190182 0.000150908
-0.000190182 0.00138143 -2.27746e-05
0.000150908 -2.27746e-05 0.0013048
0.00187059 -7.66134e-05 -9.40431e-05
-7.66134e-05 0.000823254 1.20938e-05
-9.40431e-05 1.20938e-05 0.000791507
0.00157819 -7.09042e-05 6.01637e-05
-7.09042e-05 0.000656783 -9.34132e-06
6.01637e-05 -9.34132e-06 0.000606097
0.00209551 0.000241036 -1.70773e-06
0.000241036 3.99415e-05 -4.22265e-07
-1.70773e-06 -4.22265e-07 -5.32408e-06
0.00211582 0.000336589 -2.32402e-06
0.000336589 0.000157882 5.07331e-07
-2.32402e-06 5.07331e-07 2.96168e-05
0.00212505 0.000373165 -3.76827e-07
0.000373165 8.11098e-05 -4.72535e-08
-3.76827e-07 -4.72535e-08 -2.09763e-05
0.00199542 0.00037204 1.7721e-07
0.00037204 0.000219885 7.35511e-07
1.7721e-07 7.35511e-07 2.7218e-05
0.0021194 0.000403853 -1.12078e-06
0.000403853 0.000200609 -5.59105e-07
-1.12078e-06 -5.59105e-07 3.61327e-05
0.00221917 0.000434424 1.05477e-06
0.000434424 0.000176617 5.26206e-08
1.05477e-06 5.26206e-08 2.86757e-05
0.00119694 0.000253011 -1.82069e-05
0.000253011 2.1701e-05 -5.8758e-06
-1.82069e-05 -5.8758e-06 -0.000173177
0.00184359 0.000409566 2.2713e-06
0.000409566 0.000172153 -7.80144e-08
2.2713e-06 -7.80144e-08 -4.95275e-05
0.00189969 0.000456235 -2.18053e-06
0.000456235 7.81853e-05 -4.41565e-06
-2.18053e-06 -4.41565e-06 -0.00011415
0.000315582 0.000187377 -2.26731e-05
0.000187377 -0.000224485 -1.50379e-05
-2.26731e-05 -1.50379e-05 -0.000349087
0.00108065 0.000278668 -7.77416e-07
0.000278668 -1.23846e-05 1.42786e-08
-7.77416e-07 1.42786e-08 -0.000221699
0.00170774 0.000460794 8.09679e-06
0.000460794 0.000159814 -1.01915e-06
8.09679e-06 -1.01915e-06 -0.000103274
0.000938665 0.000274404 1.74941e-05
0.000274404 -2.19455e-05 6.80924e-06
1.74941e-05 6.80924e-06 -0.000235122
0.000360518 0.000230753 5.93196e-07
0.000230753 -0.000169688 1.11425e-06
5.93196e-07 1.11425e-06 -0.00030821
0.00720197 0.000132414 -0.000295351
0.000132414 0.00417938 -3.82619e-05
-0.000295351 -3.82619e-05 0.00417406
0.000303733 0.000224412 2.21346e-05
0.000224412 -0.00018583 1.87606e-05
2.21346e-05 1.87606e-05 -0.000320591
0.00700028 1.55515e-06 7.27291e-06
1.55515e-06 0.00405928 7.0266e-08
7.27291e-06 7.0266e-08 0.00405873
0.00636874 -0.000130644 0.000213264
-0.000130644 0.0036895 1.24953e-05
0.000213264 1.24953e-05 0.00367969
0.00205951 0.000127029 -3.60214e-06
0.000127029 2.37247e-05 -8.74936e-07
-3.60214e-06 -8.74936e-07 1.91693e-05
0.00214323 0.00020589 7.81262e-07
0.00020589 -1.09969e-05 3.33156e-07
7.81262e-07 3.33156e-07 -5.16917e-07
0.00229497 0.000259548 -4.12503e-07
0.000259548 -8.8101e-05 -7.76652e-07
-4.12503e-07 -7.76652e-07 -2.00425e-05
0.00222301 0.000364527 2.30739e-06
0.000364527 7.03152e-05 1.04085e-07
2.30739e-06 1.04085e-07 7.82402e-06
0.00197612 1.7627e-05 -6.21959e-06
1.7627e-05 4.46781e-05 2.49756e-07
-6.21959e-06 2.49756e-07 1.41862e-05
0.00202425 5.34938e-05 -1.28297e-08
5.34938e-05 -1.47555e-05 4.69419e-08
-1.28297e-08 4.69419e-08 -1.17857e-05
0.00213406 5.76382e-05 -1.16098e-06
5.76382e-05 -2.62546e-05 -2.1436e-07
-1.16098e-06 -2.1436e-07 8.3211e-07
0.00199722 -8.49613e-06 4.44002e-07
-8.49613e-06 -1.05391e-05 -5.6346e-07
4.44002e-07 -5.6346e-07 -1.00286e-05
0.00200663 -3.12796e-05 -6.9431e-07
-3.12796e-05 4.03066e-05 -1.7424e-07
-6.9431e-07 -1.7424e-07 2.29057e-05
0.0018821 -5.24558e-05 -4.25516e-06
-5.24558e-05 -1.22596e-05 2.48922e-07
-4.25516e-06 2.48922e-07 -6.74893e-05
0.00203119 -0.000107802 3.70229e-06
-0.000107802 3.18313e-05 -2.53746e-07
3.70229e-06 -2.53746e-07 1.20598e-05
0.00197722 -0.000124 -2.1215e-06
-0.000124 4.14936e-05 4.78471e-07
-2.1215e-06 4.78471e-07 -1.71783e-05
0.00189318 -0.000110704 -1.07646e-06
-0.000110704 0.000109895 -3.61669e-07
-1.07646e-06 -3.61669e-07 7.02025e-06
0.00197362 -0.00019435 6.60173e-06
-0.00019435 4.35311e-05 -1.37881e-06
6.60173e-06 -1.37881e-06 -2.79407e-05
0.00187807 -0.000168444 2.00118e-06
-0.000168444 0.000112467 -5.57294e-07
2.00118e-06 -5.57294e-07 -1.25645e-05
0.00110983 -0.000102993 -1.22427e-05
-0.000102993 -4.85102e-05 1.76449e-06
-1.22427e-05 1.76449e-06 -0.000196359
0.00192111 -0.000234968 1.14069e-06
-0.000234968 0.000157784 2.29056e-07
1.14069e-06 2.29056e-07 1.21657e-05
0.00111875 -0.000138197 -1.82516e-07
-0.000138197 -3.8805e-05 2.05802e-07
-1.82516e-07 2.05802e-07 -0.000198111
0.000410256 -8.97672e-05 -1.98664e-05
-8.97672e-05 -0.00020057 5.85459e-06
-1.98664e-05 5.85459e-06 -0.000296658
0.0011765 -0.0001705 1.30908e-05
-0.0001705 3.82004e-06 -3.381e-06
1.30908e-05 -3.381e-06 -0.000166543
0.00158192 -0.000111105 6.30164e-05
-0.000111105 0.000535093 -4.79291e-06
6.30164e-05 -4.79291e-06 0.000450258
0.0065826 -0.000163906 -0.000327862
-0.000163906 0.00377482 2.43253e-05
-0.000327862 2.43253e-05 0.00379259
0.00288062 -0.000153353 0.000148172
-0.000153353 0.00134447 -1.79565e-05
0.000148172 -1.79565e-05 0.00127362
0.00187442 -7.54037e-05 -8.52365e-05
-7.54037e-05 0.000824706 7.86761e-06
-8.52365e-05 7.86761e-06 0.000792974
0.00150469 -9.68729e-05 7.23258e-05
-9.68729e-05 0.000615246 -1.11309e-05
7.23258e-05 -1.11309e-05 0.000563332
0.00203301 0.000170806 -3.94235e-06
0.000170806 4.19362e-05 -9.61308e-07
-3.94235e-06 -9.61308e-07 3.24643e-06
0.00214703 0.000259888 -1.38271e-06
0.000259888 0.000160527 6.79717e-07
-1.38271e-06 6.79717e-07 6.75031e-05
0.00208183 0.00023425 1.2263e-07
0.00023425 3.9791e-05 1.4019e-07
1.2263e-07 1.4019e-07 -1.02401e-05
0.00197374 0.000298576 4.98115e-08
0.000298576 0.000187704 1.38666e-06
4.98115e-08 1.38666e-06 2.91635e-05
0.00203687 0.000331088 1.09494e-06
0.000331088 0.000111372 1.66489e-07
1.09494e-06 1.66489e-07 -1.66432e-05
0.00214842 0.000377704 7.70882e-07
0.000377704 7.56444e-05 3.12461e-07
7.70882e-07 3.12461e-07 -1.89498e-05
0.00118253 0.000221658 -1.52168e-05
0.000221658 -7.59859e-06 -4.05216e-06
-1.52168e-05 -4.05216e-06 -0.000185839
0.00199477 0.000369116 2.27159e-06
0.000369116 0.000219216 6.38692e-07
2.27159e-06 6.38692e-07 2.76704e-05
0.00205798 0.000396652 -7.64865e-07
0.000396652 0.000171295 -1.68183e-06
-7.64865e-07 -1.68183e-06 6.51882e-06
0.000310228 0.000133798 -1.94563e-05
0.000133798 -0.000249097 -1.15689e-05
-1.94563e-05 -1.15689e-05 -0.000359696
0.00111129 0.000249238 3.72109e-07
0.000249238 -3.08597e-05 4.29556e-07
3.72109e-07 4.29556e-07 -0.000224116
0.00177204 0.000409698 6.8942e-06
0.000409698 0.00011972 -1.23504e-06
6.8942e-06 -1.23504e-06 -9.77974e-05
0.00699854 0.000208261 -0.000302275
0.000208261 0.00403972 -3.78432e-05
-0.000302275 -3.78432e-05 0.00403949
0.000291837 0.000180199 3.33872e-07
0.000180199 -0.000238816 8.12564e-07
3.33872e-07 8.12564e-07 -0.000364144
0.00105093 0.000272715 2.08231e-05
0.000272715 -2.56833e-05 6.94902e-06
2.08231e-05 6.94902e-06 -0.000233493
0.000290063 0.000211834 2.11154e-05
0.000211834 -0.000209018 1.7753e-05
2.11154e-05 1.7753e-05 -0.000348341
0.00709351 0.000123653 1.01172e-05
0.000123653 0.00410608 1.18028e-06
1.01172e-05 1.18028e-06 0.00410757
0.00687549 -3.28732e-05 0.000265369
-3.28732e-05 0.00397234 1.79555e-05
0.000265369 1.79555e-05 0.00397659
0.00194325 7.01529e-05 -8.11025e-06
7.01529e-05 2.15796e-05 -4.05526e-07
-8.11025e-06 -4.05526e-07 -1.2452e-05
0.00204917 0.000123696 1.35392e-07
0.000123696 1.73359e-05 2.73586e-09
1.35392e-07 2.73586e-09 1.20473e-05
0.0021524 0.000210377 7.33459e-07
0.000210377 -7.4182e-06 3.31916e-07
7.33459e-07 3.31916e-07 1.4224e-06
0.00192833 6.30407e-06 -5.08618e-06
6.30407e-06 3.50474e-05 -3.18765e-07
-5.08618e-06 -3.18765e-07 -2.59376e-05
0.0019607 2.26196e-05 2.77193e-07
2.26196e-05 3.21255e-05 7.78972e-08
2.77193e-07 7.78972e-08 4.28205e-06
0.00201053 4.29372e-05 4.01049e-07
4.29372e-05 -2.21103e-05 -2.67677e-07
4.01049e-07 -2.67677e-07 -1.96187e-05
0.00200608 -2.62221e-05 3.97746e-06
-2.62221e-05 3.62453e-05 -3.64177e-07
3.97746e-06 -3.64177e-07 2.04813e-05
0.00193489 -5.10439e-05 -1.47946e-06
-5.10439e-05 2.43995e-05 2.716e-07
-1.47946e-06 2.716e-07 -2.9562e-05
0.00185529 -5.15261e-05 9.10757e-07
-5.15261e-05 9.85703e-05 -5.74302e-07
9.10757e-07 -5.74302e-07 -2.09467e-06
0.00200685 -0.000124742 8.10677e-07
-0.000124742 7.00007e-05 5.35656e-08
8.10677e-07 5.35656e-08 5.01612e-06
0.00188331 -0.000112054 4.84377e-07
-0.000112054 0.000108536 2.30013e-08
4.84377e-07 2.30013e-08 -1.29561e-06
0.00111453 -6.20213e-05 -1.25622e-05
-6.20213e-05 -4.73077e-05 8.46895e-07
-1.25622e-05 8.46895e-07 -0.000179582
0.00188199 -0.000169248 2.66641e-06
-0.000169248 0.000109692 -1.89132e-07
2.66641e-06 -1.89132e-07 -1.53e-05
0.00110877 -9.88224e-05 -6.72829e-08
-9.88224e-05 -4.79121e-05 4.90794e-08
-6.72829e-08 4.90794e-08 -0.000194799
0.000418894 -2.39026e-05 -1.84508e-05
-2.39026e-05 -0.000197842 3.40584e-06
-1.84508e-05 3.40584e-06 -0.000287345
0.0011636 -0.000137125 1.24622e-05
-0.000137125 -1.17438e-05 -2.34394e-06
1.24622e-05 -2.34394e-06 -0.000170011
0.000416235 -7.46201e-05 -1.27279e-07
-7.46201e-05 -0.000195495 4.66046e-07
-1.27279e-07 4.66046e-07 -0.000292147
0.00649652 -5.49109e-05 -0.000316927
-5.49109e-05 0.00371562 1.50546e-05
-0.000316927 1.50546e-05 0.00373837
0.000458954 -7.6722e-05 1.45578e-05
-7.6722e-05 -0.000171907 -7.76736e-06
1.45578e-05 -7.76736e-06 -0.000273937
0.00413208 -0.000106875 0.000140427
-0.000106875 0.00224376 -7.32232e-06
0.000140427 -7.32232e-06 0.00222763
0.00145518 -8.95109e-05 7.79829e-05
-8.95109e-05 0.000583966 -1.08147e-05
7.79829e-05 -1.08147e-05 0.000532801
0.00204227 0.000131454 -8.03438e-06
0.000131454 8.21624e-05 -9.49209e-07
-8.03438e-06 -9.49209e-07 3.88337e-05
0.00210004 0.000191833 -2.09901e-06
0.000191833 0.000140182 7.44767e-07
-2.09901e-06 7.44767e-07 6.10245e-05
0.00201204 0.000165028 -6.04712e-07
0.000165028 2.98765e-05 -1.18681e-07
-6.04712e-07 -1.18681e-07 -8.0966e-06
0.00187565 0.00022779 -4.05288e-08
0.00022779 0.000118185 1.05075e-06
-4.05288e-08 1.05075e-06 -2.51282e-05
0.002092 0.000257108 2.5e-07
0.000257108 0.000121833 9.41555e-08
2.5e-07 9.41555e-08 2.67133e-05
0.00206257 0.00022719 2.98375e-06
0.00022719 3.60493e-05 7.26656e-07
2.98375e-06 7.26656e-07 -1.86764e-05
0.00117491 0.000181635 -1.40457e-05
0.000181635 -1.62681e-05 -2.78545e-06
-1.40457e-05 -2.78545e-06 -0.000180579
0.00191849 0.0002946 1.86777e-06
0.0002946 0.000159318 7.04767e-07
1.86777e-06 7.04767e-07 -4.96376e-06
0.00196071 0.000325584 9.62054e-07
0.000325584 6.66005e-05 -6.05546e-07
9.62054e-07 -6.05546e-07 -6.10449e-05
0.000350466 9.5354e-05 -1.8367e-05
9.5354e-05 -0.000239242 -8.39431e-06
-1.8367e-05 -8.39431e-06 -0.000340725
0.00113625 0.000217925 -9.07485e-07
0.000217925 -3.46633e-05 2.99719e-07
-9.07485e-07 2.99719e-07 -0.000212274
0.00198876 0.000366204 4.57855e-06
0.000366204 0.000215038 5.32756e-07
4.57855e-06 5.32756e-07 2.45475e-05
0.00682662 0.000264061 -0.000318348
0.000264061 0.00393397 -3.64541e-05
-0.000318348 -3.64541e-05 0.00393546
0.000342997 0.0001328 -5.79425e-08
0.0001328 -0.000231845 4.12166e-07
-5.79425e-08 4.12166e-07 -0.000342878
0.00103893 0.00024737 1.7624e-05
0.00024737 -7.66107e-05 5.7407e-06
1.7624e-05 5.7407e-06 -0.000268599
0.00703487 0.000226515 1.36781e-05
0.000226515 0.00406935 3.73259e-06
1.36781e-05 3.73259e-06 0.00406709
0.000351828 0.000174876 2.01245e-05
0.000174876 -0.000203753 1.47179e-05
2.01245e-05 1.47179e-05 -0.000330137
0.00701324 8.61853e-05 0.000292562
8.61853e-05 0.00404178 2.60259e-05
0.000292562 2.60259e-05 0.00405137
0.00188812 5.27174e-05 -5.54782e-06
5.27174e-05 3.64929e-06 -3.14263e-07
-5.54782e-06 -3.14263e-07 -5.88671e-05
0.00197388 7.55044e-05 -8.5241e-07
7.55044e-05 4.86632e-05 -2.01304e-07
-8.5241e-07 -2.01304e-07 1.38743e-05
0.00203622 0.000120587 3.07337e-06
0.000120587 9.99782e-06 5.26989e-07
3.07337e-06 5.26989e-07 3.88221e-06
0.00185273 -5.6256e-06 1.53069e-06
-5.6256e-06 0.00010265 -5.46852e-07
1.53069e-06 -5.46852e-07 3.57539e-06
0.00194031 7.23959e-06 -1.95117e-06
7.23959e-06 4.17073e-05 2.51689e-07
-1.95117e-06 2.51689e-07 -1.66142e-05
0.00194322 2.88316e-05 7.04062e-06
2.88316e-05 1.82271e-05 -3.68937e-08
7.04062e-06 -3.68937e-08 -7.04894e-06
0.00198125 -4.96322e-05 1.03821e-06
-4.96322e-05 5.71797e-05 3.21763e-07
1.03821e-06 3.21763e-07 4.08272e-06
0.00188967 -5.10633e-05 2.60049e-06
-5.10633e-05 0.000120802 -1.23502e-07
2.60049e-06 -1.23502e-07 2.11658e-05
0.00108672 -2.61033e-05 -1.21099e-05
-2.61033e-05 -5.72169e-05 1.34715e-07
-1.21099e-05 1.34715e-07 -0.000182885
0.00186276 -0.000113443 1.74024e-07
-0.000113443 9.981e-05 4.2567e-07
1.74024e-07 4.2567e-07 -1.72472e-05
0.00109673 -6.1713e-05 -7.18911e-08
-6.1713e-05 -5.66859e-05 -5.629e-08
-7.18911e-08 -5.629e-08 -0.000191692
0.000422071 -8.64136e-06 -1.86588e-05
-8.64136e-06 -0.000195695 2.13321e-06
-1.86588e-05 2.13321e-06 -0.000281637
0.00110642 -9.59188e-05 1.15247e-05
-9.59188e-05 -4.72789e-05 -1.68721e-06
1.15247e-05 -1.68721e-06 -0.000193375
0.00039627 -3.61746e-05 8.63505e-07
-3.61746e-05 -0.000211708 -2.91433e-07
8.63505e-07 -2.91433e-07 -0.000300538
0.00629882 -0.000149667 -0.000318288
-0.000149667 0.00360888 1.63253e-05
-0.000318288 1.63253e-05 0.00362564
0.000378855 -5.80031e-05 1.77955e-05
-5.80031e-05 -0.000218495 -4.40265e-06
1.77955e-05 -4.40265e-06 -0.000314566
0.00642967 -9.10771e-05 7.50353e-06
-9.10771e-05 0.00367736 5.16633e-09
7.50353e-06 5.16633e-09 0.00369938
0.00180475 -3.5509e-05 0.00024721
-3.5509e-05 0.000771985 -1.63373e-05
0.00024721 -1.63373e-05 0.000761945
0.00199434 0.000127396 -4.92355e-06
0.000127396 6.88829e-05 -3.36249e-07
-4.92355e-06 -3.36249e-07 -4.77517e-06
0.00199839 0.000132553 -2.04251e-06
0.000132553 4.61781e-05 -2.5709e-07
-2.04251e-06 -2.5709e-07 7.22539e-06
0.00185658 0.000163183 8.55212e-07
0.000163183 9.96399e-05 1.02072e-06
8.55212e-07 1.02072e-06 -2.52733e-05
0.00204697 0.000190517 8.84242e-07
0.000190517 0.000100306 8.82213e-08
8.84242e-07 8.82213e-08 2.08602e-05
0.00199194 0.000159127 4.82837e-06
0.000159127 1.76624e-05 6.52308e-07
4.82837e-06 6.52308e-07 -1.94348e-05
0.0011589 0.000135626 -1.26378e-05
0.000135626 -1.76107e-05 -2.01729e-06
-1.26378e-05 -2.01729e-06 -0.000173042
0.00187362 0.000226282 1.73541e-07
0.000226282 0.000121364 6.62349e-08
1.73541e-07 6.62349e-08 -2.18212e-05
0.00204103 0.000254366 2.39607e-06
0.000254366 8.60643e-05 -5.58503e-07
2.39607e-06 -5.58503e-07 -1.12111e-05
0.000376511 6.9974e-05 -1.79916e-05
6.9974e-05 -0.000228663 -5.89714e-06
-1.79916e-05 -5.89714e-06 -0.000325426
0.00114079 0.000180631 -7.4116e-07
0.000180631 -3.52346e-05 3.52618e-07
-7.4116e-07 3.52618e-07 -0.000202463
0.00187128 0.00029083 2.56645e-06
0.00029083 0.000136639 3.65768e-07
2.56645e-06 3.65768e-07 -3.33873e-05
0.00669056 0.000278012 -0.000335159
0.000278012 0.00385904 -3.39221e-05
-0.000335159 -3.39221e-05 0.00386009
0.00036747 9.75493e-05 1.79756e-07
9.75493e-05 -0.000230543 2.08261e-07
1.79756e-07 2.08261e-07 -0.000332616
0.00108808 0.000213915 1.17569e-05
0.000213915 -6.35505e-05 4.27949e-06
1.17569e-05 4.27949e-06 -0.000240407
0.0068373 0.000287962 1.11854e-05
0.000287962 0.00395302 4.86777e-06
1.11854e-05 4.86777e-06 0.00394874
0.000365438 0.000130489 1.87219e-05
0.000130489 -0.000220914 1.18524e-05
1.87219e-05 1.18524e-05 -0.000332055
0.00699689 0.000228254 0.000320233
0.000228254 0.0040378 3.62097e-05
0.000320233 3.62097e-05 0.00404185
0.00182968 4.79903e-05 3.03014e-06
4.79903e-05 9.03824e-05 -1.7819e-07
3.03014e-06 -1.7819e-07 -1.17755e-05
0.00194523 5.34038e-05 -3.38505e-06
5.34038e-05 4.71094e-05 -1.12096e-07
-3.38505e-06 -1.12096e-07 -1.63755e-05
0.0020043 8.0292e-05 7.2807e-06
8.0292e-05 7.5503e-05 4.29697e-07
7.2807e-06 4.29697e-07 4.00595e-05
0.00106908 -1.01686e-05 -1.25148e-05
-1.01686e-05 -6.04851e-05 -1.72346e-07
-1.25148e-05 -1.72346e-07 -0.000184504
0.00187849 -9.81119e-07 3.01358e-06
-9.81119e-07 0.000120292 -1.05792e-07
3.01358e-06 -1.05792e-07 2.16598e-05
0.00194607 7.6847e-06 9.13023e-07
7.6847e-06 4.43364e-05 5.62631e-07
9.13023e-07 5.62631e-07 -1.1362e-05
0.00193037 -5.11218e-05 3.98853e-06
-5.11218e-05 0.000147318 2.35723e-07
3.98853e-06 2.35723e-07 4.87609e-05
0.00107733 -2.74101e-05 2.58597e-08
-2.74101e-05 -6.54483e-05 -3.94405e-08
2.58597e-08 -3.94405e-08 -0.000191375
0.000425254 -3.23857e-05 -1.91841e-05
-3.23857e-05 -0.000192301 8.82456e-07
-1.91841e-05 8.82456e-07 -0.000274828
0.0010533 -6.03623e-05 1.17817e-05
-6.03623e-05 -8.191e-05 -1.26478e-06
1.17817e-05 -1.26478e-06 -0.000219684
0.000400568 2.79353e-06 3.89006e-07
2.79353e-06 -0.000209975 7.47404e-08
3.89006e-07 7.47404e-08 -0.000294762
0.0062141 -0.000120461 -0.000318539
-0.000120461 0.00355505 1.21324e-05
-0.000318539 1.21324e-05 0.00357481
0.000410033 -4.37078e-05 1.86029e-05
-4.37078e-05 -0.000200545 -3.12766e-06
1.86029e-05 -3.12766e-06 -0.000290518
0.00629026 -4.44605e-05 -3.0971e-06
-4.44605e-05 0.00359133 2.77064e-06
-3.0971e-06 2.77064e-06 0.00361561
0.00638579 -0.000105178 0.000316842
-0.000105178 0.00365136 -1.45096e-05
0.000316842 -1.45096e-05 0.00367347
0.00181504 0.000102337 8.45937e-07
0.000102337 7.60178e-05 4.7493e-07
8.45937e-07 4.7493e-07 -3.711e-05
0.0019786 0.00012542 -3.5e-06
0.00012542 5.12188e-05 -7.13386e-07
-3.5e-06 -7.13386e-07 -1.68725e-05
0.00195887 0.000134247 6.063e-06
0.000134247 1.34681e-05 6.4602e-07
6.063e-06 6.4602e-07 -2.13571e-05
0.0011539 8.96899e-05 -1.21299e-05
8.96899e-05 -1.57889e-05 -1.38059e-06
-1.21299e-05 -1.38059e-06 -0.000158757
0.00186189 0.000161784 2.57529e-07
0.000161784 0.00010668 -1.17766e-07
2.57529e-07 -1.17766e-07 -1.82291e-05
0.00199323 0.00018913 2.36216e-06
0.00018913 6.01206e-05 -9.34346e-07
2.36216e-06 -9.34346e-07 -1.9641e-05
0.000401292 4.74431e-05 -1.73799e-05
4.74431e-05 -0.000212067 -4.18139e-06
-1.73799e-05 -4.18139e-06 -0.000304844
0.00113273 0.000137505 3.3604e-07
0.000137505 -3.47601e-05 2.74854e-07
3.3604e-07 2.74854e-07 -0.000191433
0.00187294 0.000224841 6.79488e-07
0.000224841 0.000125056 -8.81302e-07
6.79488e-07 -8.81302e-07 -1.80138e-05
0.00650897 0.000233317 -0.000342799
0.000233317 0.00374577 -2.77615e-05
-0.000342799 -2.77615e-05 0.00375404
0.000405874 7.59808e-05 6.01648e-07
7.59808e-05 -0.000210171 2.21395e-07
6.01648e-07 2.21395e-07 -0.000308201
0.00109651 0.00017903 1.19322e-05
0.00017903 -6.0943e-05 3.52177e-06
1.19322e-05 3.52177e-06 -0.000230977
0.00673029 0.000293885 5.71195e-06
0.000293885 0.00388923 3.41938e-06
5.71195e-06 3.41938e-06 0.00388796
0.000413126 0.0001031 1.79722e-05
0.0001031 -0.000202933 9.12213e-06
1.79722e-05 9.12213e-06 -0.000306244
0.0069149 0.000322512 0.000334535
0.000322512 0.00400882 4.27252e-05
0.000334535 4.27252e-05 0.00400053
0.00106673 2.55771e-05 -1.2408e-05
2.55771e-05 -5.64746e-05 -6.37368e-07
-1.2408e-05 -6.37368e-07 -0.00018723
0.00183902 4.54361e-05 3.2778e-06
4.54361e-05 9.45875e-05 3.7296e-08
3.2778e-06 3.7296e-08 -4.6815e-06
0.00199021 5.41789e-05 -5.45637e-07
5.41789e-05 8.21729e-05 4.73667e-07
-5.45637e-07 4.73667e-07 1.74778e-05
0.000463127 3.20674e-05 -1.9732e-05
3.20674e-05 -0.000176761 -8.83349e-07
-1.9732e-05 -8.83349e-07 -0.000251032
0.00104571 -4.57624e-06 -1.39153e-07
-4.57624e-06 -7.73896e-05 3.77088e-08
-1.39153e-07 3.77088e-08 -0.00020144
0.00190605 5.01185e-06 4.36821e-06
5.01185e-06 0.000139071 1.96586e-07
4.36821e-06 1.96586e-07 4.09594e-05
0.0010654 -2.82712e-05 1.22052e-05
-2.82712e-05 -7.553e-05 -4.99418e-07
1.22052e-05 -4.99418e-07 -0.000201695
0.000422408 -5.76124e-06 4.33318e-07
-5.76124e-06 -0.000194234 3.78907e-07
4.33318e-07 3.78907e-07 -0.000276763
0.00612049 1.51275e-05 -0.000321156
1.51275e-05 0.00348939 1.51436e-06
-0.000321156 1.51436e-06 0.00351622
0.000380815 1.43952e-05 1.81304e-05
1.43952e-05 -0.000223917 -1.10648e-06
1.81304e-05 -1.10648e-06 -0.0003073
0.00617703 -0.000118219 -7.83082e-06
-0.000118219 0.00353359 1.9904e-06
-7.83082e-06 1.9904e-06 0.00355291
0.00622262 -2.64306e-05 0.000304136
-2.64306e-05 0.00354948 -7.6339e-06
0.000304136 -7.6339e-06 0.00357389
0.00111825 5.30091e-05 -1.22783e-05
5.30091e-05 -3.01333e-05 -1.19426e-06
-1.22783e-05 -1.19426e-06 -0.000164749
0.00184664 9.93426e-05 -3.50621e-07
9.93426e-05 9.51657e-05 -3.73574e-07
-3.50621e-07 -3.73574e-07 -1.34403e-05
0.00195502 0.000122873 -1.55566e-06
0.000122873 2.82736e-05 -1.05414e-06
-1.55566e-06 -1.05414e-06 -3.41457e-05
0.00269459 6.41959e-05 -0.000148229
6.41959e-05 0.00122404 -5.37942e-06
-0.000148229 -5.37942e-06 0.0011711
0.00110502 9.10868e-05 3.2825e-07
9.10868e-05 -4.68632e-05 1.3369e-07
3.2825e-07 1.3369e-07 -0.000190771
0.00186892 0.000160352 5.81222e-07
0.000160352 0.000114892 -1.13962e-06
5.81222e-07 -1.13962e-06 -1.00178e-05
0.00634319 0.00016972 -0.000340419
0.00016972 0.00363693 -1.98322e-05
-0.000340419 -1.98322e-05 0.00365414
0.000430481 6.68088e-05 9.4512e-07
6.68088e-05 -0.000191558 4.53238e-07
9.4512e-07 4.53238e-07 -0.000286458
0.00110821 0.000139247 1.26675e-05
0.000139247 -5.08152e-05 2.42849e-06
1.26675e-05 2.42849e-06 -0.000208695
0.00661006 0.000249487 1.03619e-06
0.000249487 0.00380996 1.59983e-06
1.03619e-06 1.59983e-06 0.00381686
0.000428473 8.40308e-05 1.81355e-05
8.40308e-05 -0.000194432 7.03355e-06
1.81355e-05 7.03355e-06 -0.000294386
0.00678582 0.0003291 0.000343383
0.0003291 0.00393707 4.22896e-05
0.000343383 4.22896e-05 0.00392875
0.000541197 1.20431e-05 -1.56908e-05
1.20431e-05 -0.00011771 -2.05022e-06
-1.56908e-05 -2.05022e-06 -0.000201332
0.00104505 2.50684e-05 1.92084e-07
2.50684e-05 -7.45274e-05 2.15443e-07
1.92084e-07 2.15443e-07 -0.000202989
0.00185855 4.17939e-05 4.03728e-06
4.17939e-05 0.000105449 -4.13842e-08
4.03728e-06 -4.13842e-08 9.27842e-06
0.00595732 -0.000102015 -0.000303592
-0.000102015 0.00340615 3.92435e-06
-0.000303592 3.92435e-06 0.00342192
0.000419769 9.58844e-06 -5.85186e-07
9.58844e-06 -0.000199411 -1.03304e-07
-5.85186e-07 -1.03304e-07 -0.000276345
0.00104274 -2.35238e-07 1.21523e-05
-2.35238e-07 -8.16693e-05 1.11317e-08
1.21523e-05 1.11317e-08 -0.000205685
0.000378401 2.08748e-05 1.84187e-05
2.08748e-05 -0.000223201 3.73993e-07
1.84187e-05 3.73993e-07 -0.000304535
0.00606054 -2.04051e-05 1.97742e-06
-2.04051e-05 0.0034583 -1.61959e-06
1.97742e-06 -1.61959e-06 0.00348046
0.00616609 -4.04381e-05 0.000309897
-4.04381e-05 0.00351478 -5.31999e-06
0.000309897 -5.31999e-06 0.00354018
0.00277942 1.68641e-05 -0.00014231
1.68641e-05 0.0012762 -3.0829e-06
-0.00014231 -3.0829e-06 0.00122696
0.00109212 5.61285e-05 8.09545e-08
5.61285e-05 -4.79311e-05 -2.87682e-08
8.09545e-08 -2.87682e-08 -0.00018327
0.00187959 9.66095e-05 1.00735e-06
9.66095e-05 0.000115533 -7.95989e-07
1.00735e-06 -7.95989e-07 1.14391e-05
0.00582869 -3.34482e-05 -0.000133477
-3.34482e-05 0.00332848 2.73814e-07
-0.000133477 2.73814e-07 0.00331719
0.000438218 5.89366e-05 1.51368e-07
5.89366e-05 -0.000185061 2.52062e-07
1.51368e-07 2.52062e-07 -0.000274003
0.00107289 9.31574e-05 1.21303e-05
9.31574e-05 -6.81375e-05 1.58986e-06
1.21303e-05 1.58986e-06 -0.000212934
0.00642825 0.000146011 -1.04773e-05
0.000146011 0.00368422 -1.78335e-06
-1.04773e-05 -1.78335e-06 0.00370272
0.000454388 8.96993e-05 1.96607e-05
8.96993e-05 -0.000175874 5.88636e-06
1.96607e-05 5.88636e-06 -0.000271894
0.00667128 0.000273371 0.000350159
0.000273371 0.00385434 3.58663e-05
0.000350159 3.58663e-05 0.00385855
0.00180235 -5.37601e-05 -0.00024113
-5.37601e-05 0.000773486 1.31457e-06
-0.00024113 1.31457e-06 0.00077306
0.00159819 3.16032e-05 -6.11252e-05
3.16032e-05 0.000536033 9.9038e-08
-6.11252e-05 9.9038e-08 0.000474906
0.00101992 2.71727e-05 1.26764e-05
2.71727e-05 -9.42184e-05 7.16654e-07
1.26764e-05 7.16654e-07 -0.000220459
0.00603623 -4.87014e-05 6.85641e-06
-4.87014e-05 0.00344864 2.64678e-06
6.85641e-06 2.64678e-06 0.00346996
0.000436719 -1.15872e-05 1.90524e-05
-1.15872e-05 -0.000182354 8.78411e-07
1.90524e-05 8.78411e-07 -0.000263242
0.00610064 -8.34797e-05 0.000322283
-8.34797e-05 0.00348709 -4.98832e-06
0.000322283 -4.98832e-06 0.00350893
0.00136465 2.26569e-05 -6.2742e-05
2.26569e-05 0.000527514 -1.15782e-06
-6.2742e-05 -1.15782e-06 0.000488663
0.00158984 1.9261e-05 -6.20084e-05
1.9261e-05 0.000533148 -1.42301e-06
-6.20084e-05 -1.42301e-06 0.000467442
0.0010573 5.77708e-05 1.22076e-05
5.77708e-05 -7.09451e-05 1.13214e-06
1.22076e-05 1.13214e-06 -0.000207023
0.00384588 6.91972e-05 0.000120492
6.91972e-05 0.00206862 3.62724e-06
0.000120492 3.62724e-06 0.0020612
0.00045016 6.93037e-05 1.99043e-05
6.93037e-05 -0.000177661 4.51367e-06
1.99043e-05 4.51367e-06 -0.000266557
0.00651763 0.000133865 0.000333975
0.000133865 0.00373175 2.15161e-05
0.000333975 2.15161e-05 0.00375411
0.005992 -1.98375e-05 -8.85377e-06
-1.98375e-05 0.00342429 -3.21412e-06
-8.85377e-06 -3.21412e-06 0.00344432
0.000431598 5.05987e-05 2.06767e-05
5.05987e-05 -0.000196962 2.59729e-06
2.06767e-05 2.59729e-06 -0.000270878
0.00594895 3.66542e-05 0.000310424
3.66542e-05 0.00338976 2.31648e-07
0.000310424 2.31648e-07 0.00341481
0.00372072 3.26613e-05 0.000132097
3.26613e-05 0.00199564 5.1935e-06
0.000132097 5.1935e-06 0.00199036
0.000461849 9.32144e-06 1.90528e-05
9.32144e-06 -0.000169663 2.7446e-06
1.90528e-05 2.7446e-06 -0.000252485
0.00628432 2.50383e-06 0.000319893
2.50383e-06 0.00358811 9.57796e-06
0.000319893 9.57796e-06 0.00361229
0.00604621 -0.000118023 0.000308682
-0.000118023 0.0034621 -4.25637e-06
0.000308682 -4.25637e-06 0.00347779
0.00607582 1.01084e-05 0.000311828
1.01084e-05 0.0034591 5.54927e-06
0.000311828 5.54927e-06 0.0034863
