# vtk DataFile Version 2.0
Wound Healing Simulation
ASCII
DATASET UNSTRUCTURED_GRID
POINTS 3012 float
69.9759 18.75 4
67.2507 60.3285 4
69.976 18.75 2
73.0099 25.446 4
71.1327 20.9142 4
68.6801 16.6661 4
67.8238 19.9264 3.97833
67.2507 60.3286 2
71.1327 54.0858 4
68.6801 58.3339 4
65.6939 62.2254 4
65.3105 59.0004 3.97753
74.6784 42.3946 4
73.7221 47.2057 4
69.9759 18.75 0
73.0099 25.446 2
68.6801 16.6661 2
71.1327 20.9142 2
67.8243 19.93 2
74.6792 32.6053 4
73.7222 27.7943 4
72.1454 23.1494 4
70.6127 26.2213 3.97803
68.884 21.9582 3.97879
67.2507 14.6715 4
66.6352 17.9727 3.97736
65.792 21.0283 3.96739
67.2507 60.3285 0
71.1327 54.0858 2
68.6801 58.3339 2
65.694 62.2255 2
65.3117 58.9957 2
72.1454 51.8506 4
69.9759 56.25 4
68.8346 53.1131 3.97803
64.0165 64.0165 4
66.609 57.1332 3.9781
63.8835 60.7644 3.97776
63.4957 57.7664 3.96841
60.3285 67.2507 4
74.6792 42.3947 2
73.7222 47.2057 2
74.9194 39.9526 4
74.2788 44.8158 4
72.1672 42.0857 3.97832
73.0099 49.554 4
71.2479 46.598 3.97762
73.0099 25.446 0
71.1327 20.9142 0
68.6801 16.6661 0
67.8238 19.9264 0.0216698
74.6792 32.6053 2
73.7222 27.7943 2
67.2508 14.6715 2
72.1455 23.1494 2
70.6126 26.2219 2
66.6362 17.9774 2
68.8843 21.9605 2
65.7912 21.0294 2
74.9197 35.0474 4
74.2794 30.1841 4
72.1839 32.9439 3.97866
71.277 28.4318 3.97792
69.814 24.0598 3.97857
68.3425 26.9534 3.96696
66.7577 22.9355 3.96711
65.694 12.7746 4
65.3214 16.105 3.97673
64.7083 19.1995 3.9678
63.848 22.0512 3.96509
71.1327 54.0858 0
65.6939 62.2254 0
68.6801 58.3339 0
65.3105 59.0004 0.0224728
72.1455 51.8506 2
69.9759 56.25 2
68.8348 53.111 2
64.0165 64.0165 2
66.6098 57.129 2
63.8854 60.7602 2
63.4944 57.7661 2
62.2254 65.694 4
58.8931 65.4134 3.98713
69.7672 50.9889 3.97776
67.782 55.1671 3.97817
66.6444 52.2076 3.96678
62.3338 62.4255 3.98003
64.6558 56.0283 3.96803
62.1978 59.3951 3.96805
61.8098 56.6691 3.96383
58.3339 68.6801 4
60.3285 67.2508 2
73.7221 47.2057 0
74.6784 42.3946 0
74.9197 39.9526 2
74.2794 44.8159 2
72.1665 42.0855 2
73.0099 49.554 2
71.2477 46.5977 2
75 37.5 4
72.4045 39.8025 3.97917
71.7814 44.3529 3.97831
69.8005 41.7901 3.9679
70.5736 48.8135 3.97744
68.9079 46.0144 3.96729
74.6792 32.6053 0
73.7222 27.7943 0
67.2507 14.6715 0
72.1454 23.1494 0
70.6127 26.2213 0.0219691
68.884 21.9582 0.0212115
66.6352 17.9727 0.0226365
65.792 21.0283 0.0326065
74.9197 35.0474 2
74.2794 30.1841 2
72.1832 32.9442 2
71.2767 28.4324 2
65.694 12.7745 2
65.3231 16.1101 2
69.814 24.061 2
68.3422 26.9541 2
64.7074 19.2005 2
66.7571 22.9365 2
63.8481 22.0517 2
72.4123 35.2247 3.97912
71.8029 30.6768 3.97858
69.8367 33.2699 3.96809
68.9622 29.04 3.96735
67.6067 24.914 3.96696
66.143 27.6477 3.96709
64.0165 10.9835 4
64.7106 23.8453 3.96585
63.8874 14.3298 3.97734
63.5076 17.4548 3.96826
62.8737 20.3375 3.96413
61.9933 22.9796 3.96733
60.6822 11.1005 3.98179
57.609 11.4574 3.97283
72.1454 51.8506 0
69.9759 56.25 0
68.8346 53.1131 0.0219676
64.0165 64.0165 0
63.8835 60.7644 0.0222447
66.609 57.1332 0.0219011
63.4957 57.7664 0.0315915
62.2255 65.694 2
58.8952 65.4114 2
69.7671 50.9879 2
67.7824 55.1639 2
66.6437 52.2069 2
62.3358 62.4217 2
64.6547 56.0278 2
62.1967 59.3956 2
61.8109 56.6695 2
60.6667 63.9751 3.98301
57.024 66.7347 3.98905
57.5557 63.6854 3.97512
67.5025 50.1755 3.9666
65.6968 54.1711 3.96724
64.4846 51.3704 3.96547
60.7689 60.9249 3.9708
62.795 55.0557 3.96453
60.6474 58.1434 3.96391
60.29 55.7613 3.96433
56.25 69.9759 4
58.3339 68.6801 2
60.3285 67.2507 0
58.9196 9.65815 3.98391
62.2254 9.30607 4
73.0099 49.554 0
74.2788 44.8158 0
71.2479 46.598 0.0223792
72.1672 42.0857 0.0216794
74.9194 39.9526 0
75 37.5 2
72.4044 39.8025 2
71.7812 44.3525 2
69.7998 41.7898 2
70.5733 48.8131 2
68.9078 46.0139 2
72.4879 37.5124 3.97875
70.038 39.6581 3.96819
69.4266 43.9076 3.96782
67.5488 41.4937 3.96941
68.2611 48.1063 3.96673
66.6484 45.4297 3.96835
74.9197 35.0474 0
74.2794 30.1841 0
72.1839 32.9439 0.0213372
71.277 28.4318 0.0220776
65.694 12.7746 0
65.3214 16.105 0.0232659
69.814 24.0598 0.0214322
68.3425 26.9534 0.0330365
66.7577 22.9355 0.0328893
64.7083 19.1995 0.0321973
63.848 22.0512 0.0349133
72.4122 35.2247 2
71.8028 30.6774 2
69.836 33.2704 2
68.9621 29.0406 2
64.0165 10.9835 2
63.8896 14.3348 2
63.5066 17.4557 2
67.6063 24.9149 2
66.1432 27.6483 2
62.8742 20.3378 2
64.7105 23.8459 2
61.9925 22.9803 2
60.6849 11.1042 2
57.6109 11.4565 2
70.0547 35.3933 3.96812
69.4636 31.1512 3.96772
67.6122 33.5972 3.96902
66.7202 29.6342 3.96774
65.4737 25.7137 3.96651
64.0116 28.2859 3.97167
62.3392 12.6582 3.97938
62.7438 24.6724 3.96887
62.1934 15.7977 3.9691
61.7931 18.703 3.96347
61.1287 21.38 3.96518
60.2626 23.7837 3.97044
59.2419 12.8007 3.97089
55.8719 10.2426 3.97559
56.399 13.1505 3.97
69.7672 50.9889 0.0222373
62.2254 65.694 0
58.8931 65.4134 0.012872
67.782 55.1671 0.0218345
66.6444 52.2076 0.0332246
62.3338 62.4255 0.0199734
62.1978 59.3951 0.0319483
64.6558 56.0283 0.0319719
61.8098 56.6691 0.0361662
60.6689 63.9721 2
57.0258 66.7335 2
57.5563 63.6859 2
67.5021 50.1748 2
65.6959 54.1704 2
64.4847 51.3701 2
60.7677 60.9262 2
62.7956 55.0557 2
60.6472 58.1437 2
60.291 55.7615 2
55.0699 67.9316 3.99066
59.2151 62.3496 3.97184
55.8026 64.9047 3.97962
56.3206 62.0653 3.97252
65.2701 49.3936 3.96637
63.6651 53.2784 3.96484
62.313 50.6175 3.96788
59.3234 59.5374 3.96514
61.0078 54.2808 3.9661
59.2561 56.9846 3.96279
59.1775 55.1491 3.96673
48.1005 68.5765 3.98632
50.9477 69.9314 3.99118
54.0858 71.1327 4
56.25 69.976 2
58.3339 68.6801 0
57.057 8.33742 3.98582
60.3285 7.74928 4
58.9226 9.66102 2
62.2255 9.30602 2
70.5736 48.8135 0.0225615
71.7814 44.3529 0.021689
68.9079 46.0144 0.0327095
69.8005 41.7901 0.0320995
72.4045 39.8025 0.020827
75 37.5 0
72.4873 37.5125 2
70.0379 39.6581 2
69.4264 43.9072 2
67.5485 41.4935 2
68.2609 48.1056 2
66.6475 45.4293 2
70.1261 37.5226 3.96819
67.7912 39.5112 3.96937
67.1676 43.4629 3.969
65.42 41.1983 3.97599
66.0043 47.405 3.96745
64.4947 44.8234 3.97266
72.4123 35.2247 0.020881
71.8029 30.6768 0.0214171
69.8367 33.2699 0.0319146
68.9622 29.04 0.032647
64.0165 10.9835 0
63.8874 14.3298 0.0226603
63.5076 17.4548 0.031738
67.6067 24.914 0.0330436
66.143 27.6477 0.0329102
64.7106 23.8453 0.0341454
62.8737 20.3375 0.0358725
61.9933 22.9796 0.0326657
60.6822 11.1005 0.0182116
57.609 11.4574 0.027172
70.0546 35.3935 2
69.4634 31.1517 2
67.612 33.5975 2
66.7199 29.6346 2
62.342 12.6627 2
62.1922 15.7983 2
61.7939 18.7031 2
65.4737 25.7143 2
64.0097 28.2866 2
61.1275 21.3807 2
62.7428 24.6731 2
60.2622 23.7848 2
59.2435 12.8001 2
56.3998 13.1482 2
55.8733 10.2421 2
67.8316 35.5513 3.96939
67.2195 31.6311 3.9686
65.5709 33.9406 3.97519
64.525 30.218 3.97267
63.4144 26.4473 3.97035
62.0444 28.824 3.97602
60.7703 14.2417 3.97003
60.8647 25.3919 3.97283
60.5992 17.1494 3.96408
60.1466 19.8568 3.96284
59.5064 22.3181 3.96689
58.7631 24.3936 3.97338
54.0358 9.14359 3.97795
57.9012 14.365 3.96886
54.7813 12.037 3.97282
55.3008 14.6946 3.96706
67.5025 50.1755 0.0333969
57.024 66.7347 0.0109508
60.6667 63.9751 0.0169872
57.5557 63.6854 0.0248813
65.6968 54.1711 0.0327563
64.4846 51.3704 0.0345259
60.7689 60.9249 0.0291999
60.6474 58.1434 0.0360888
62.795 55.0557 0.035467
60.29 55.7613 0.0356748
55.0714 67.931 2
59.2157 62.3526 2
55.8032 64.9051 2
56.3199 62.0677 2
65.27 49.3932 2
63.6654 53.2783 2
62.3124 50.6171 2
59.3222 59.5385 2
61.008 54.2808 2
59.2596 56.9852 2
59.1798 55.1492 2
53.0419 68.9996 3.99102
53.9651 66.0097 3.98253
57.8719 60.8457 3.97008
54.6798 63.1971 3.97485
55.1998 60.5828 3.97
63.0501 48.6278 3.96953
61.6389 52.5426 3.96694
60.0691 49.966 3.97004
57.9979 58.2367 3.96502
59.2178 53.9052 3.9678
58.0381 55.77 3.96222
50.1072 67.8548 3.98567
47.4617 66.5755 3.98207
46.0544 69.1556 3.98678
48.1008 68.5772 2
48.8017 70.7226 3.99139
50.9487 69.931 2
51.8506 72.1454 4
54.0858 71.1327 2
56.25 69.9759 0
55.1019 7.14176 3.98842
58.3339 6.31992 4
57.0596 8.33905 2
60.3286 7.74926 2
58.9196 9.65815 0.0160853
62.2254 9.30607 0
68.2611 48.1063 0.0332655
69.4266 43.9076 0.0321821
66.6484 45.4297 0.0316534
67.5488 41.4937 0.0305942
70.038 39.6581 0.0318138
72.4879 37.5124 0.0212507
70.1255 37.5227 2
67.7902 39.5111 2
67.1681 43.4626 2
65.4179 41.1978 2
66.0044 47.4047 2
64.4927 44.8228 2
67.8922 37.5234 3.96945
65.6591 39.3653 3.97626
65.0298 43.007 3.97444
63.5341 40.9091 3.97681
63.8086 46.6865 3.97098
62.5674 44.1779 3.97656
70.0547 35.3933 0.0318792
69.4636 31.1512 0.0322754
67.6122 33.5972 0.0309777
66.7202 29.6342 0.0322595
62.3392 12.6582 0.020621
62.1934 15.7977 0.0309048
61.7931 18.703 0.0365295
65.4737 25.7137 0.0334931
64.0116 28.2859 0.0283349
62.7438 24.6724 0.0311287
61.1287 21.38 0.0348202
60.2626 23.7837 0.0295612
59.2419 12.8007 0.0291099
56.399 13.1505 0.0300023
55.8719 10.2426 0.0244107
67.8305 35.5515 2
67.2201 31.6315 2
65.5682 33.9411 2
64.5228 30.2187 2
60.7705 14.2424 2
60.5983 17.1499 2
60.1469 19.857 2
63.4131 26.448 2
62.0419 28.825 2
59.5081 22.319 2
60.864 25.3929 2
58.7624 24.3951 2
57.9013 14.3639 2
55.3014 14.6938 2
54.0371 9.14196 2
54.7822 12.0341 2
65.7541 35.6746 3.97597
65.0468 32.1745 3.97361
64.0911 34.2702 3.97672
62.3649 30.6772 3.97686
61.4495 27.1236 3.97405
60.5852 29.201 3.97718
59.2991 15.696 3.96626
59.086 25.87 3.97596
59.0839 18.3933 3.96174
58.6103 20.9148 3.96358
58.0762 23.1705 3.96816
57.7286 24.7503 3.97459
52.1112 8.15885 3.98119
53.0541 11.0346 3.97414
56.6603 15.7853 3.9673
53.7998 13.7216 3.9708
54.3551 16.054 3.96626
55.0699 67.9316 0.0093431
65.2701 49.3936 0.0336317
55.8026 64.9047 0.0203776
59.2151 62.3496 0.0281628
56.3206 62.0653 0.0274798
63.6651 53.2784 0.0351607
62.313 50.6175 0.032123
59.3234 59.5374 0.0348647
59.2561 56.9846 0.0372063
61.0078 54.2808 0.0339015
59.1775 55.1491 0.0332664
53.0431 68.9992 2
53.9656 66.0103 2
57.8712 60.8479 2
54.6795 63.1978 2
55.1994 60.5846 2
63.0491 48.6272 2
61.6392 52.5424 2
60.0693 49.9654 2
57.9972 58.2377 2
59.2202 53.9052 2
58.0356 55.7689 2
52.0685 66.9975 3.985
52.9511 64.2104 3.97931
56.6321 59.4596 3.96792
53.6724 61.6004 3.97485
54.2398 59.285 3.9713
60.751 47.8274 3.97144
59.5419 52.0546 3.96847
57.7611 49.5475 3.97205
56.7342 56.9512 3.96586
56.9798 54.0668 3.96599
50.1075 67.855 2
49.3357 65.916 3.98213
47.462 66.5761 2
46.8906 64.7275 3.98075
45.5569 67.0925 3.9822
43.9718 69.5875 3.98728
46.0546 69.1561 2
46.6081 71.3671 3.99155
48.1005 68.5765 0.0136806
48.8026 70.7226 2
49.554 73.0099 4
50.9477 69.9314 0.00882216
51.8506 72.1455 2
54.0858 71.1327 0
53.0639 6.07263 3.9906
55.104 7.1422 2
56.25 5.02411 4
58.3339 6.3199 2
57.057 8.33742 0.0141807
60.3285 7.74928 0
66.0043 47.405 0.0325453
67.1676 43.4629 0.030997
64.4947 44.8234 0.027343
65.42 41.1983 0.0240093
67.7912 39.5112 0.030627
70.1261 37.5226 0.0318051
67.8918 37.5235 2
65.6565 39.3651 2
65.0271 43.0064 2
63.5314 40.9088 2
63.8068 46.6858 2
62.5652 44.177 2
65.7661 37.5034 3.97619
63.6835 39.2579 3.97695
63.0941 42.5195 3.97668
62.1494 40.6728 3.97674
61.7206 45.8727 3.97369
61.1457 43.6338 3.97647
67.8316 35.5513 0.0306117
67.2195 31.6311 0.0314049
65.5709 33.9406 0.024812
64.525 30.218 0.0273265
60.7703 14.2417 0.029973
60.5992 17.1494 0.035916
60.1466 19.8568 0.0371577
63.4144 26.4473 0.0296502
62.0444 28.824 0.0239844
60.8647 25.3919 0.0271678
59.5064 22.3181 0.0331107
58.7631 24.3936 0.0266191
57.9012 14.365 0.0311445
55.3008 14.6946 0.0329434
54.0358 9.14359 0.0220507
54.7813 12.037 0.0271835
65.7519 35.6749 2
65.0444 32.1751 2
64.0886 34.2706 2
62.363 30.6781 2
59.2981 15.6963 2
59.085 18.393 2
58.6147 20.9154 2
61.4478 27.1247 2
60.5842 29.202 2
58.0732 23.1726 2
59.0858 25.8713 2
57.7296 24.7524 2
56.6602 15.784 2
54.356 16.0552 2
53.7996 13.7146 2
52.112 8.15761 2
53.0552 11.0325 2
63.8891 35.6451 3.97675
62.6909 33.0792 3.97688
60.3117 30.6724 3.9765
59.2935 27.9834 3.97652
57.9173 17.0213 3.96349
57.4626 25.8185 3.97631
57.6284 19.5334 3.96115
57.1827 21.9225 3.96377
56.9232 24.0437 3.96877
50.1119 7.28834 3.9851
51.2304 10.1358 3.97615
52.1637 12.8248 3.9751
55.51 17.0236 3.96605
52.9617 15.3157 3.96851
53.7294 17.0436 3.9703
53.0419 68.9996 0.00897782
53.9651 66.0097 0.0174681
63.0501 48.6278 0.030466
54.6798 63.1971 0.0251521
57.8719 60.8457 0.0299177
55.1998 60.5828 0.0299968
61.6389 52.5426 0.0330627
60.0691 49.966 0.0299636
57.9979 58.2367 0.0349764
58.0381 55.77 0.0377827
59.2178 53.9052 0.0322026
52.0689 66.998 2
52.9511 64.2111 2
56.6318 59.4611 2
53.6715 61.6 2
54.2395 59.2871 2
60.7504 47.8266 2
59.5429 52.0543 2
57.7583 49.5461 2
56.7327 56.9555 2
56.977 54.0653 2
51.1666 65.1223 3.98144
52.0405 62.5268 3.97658
55.4526 58.2168 3.96904
52.818 60.0993 3.97639
53.6113 58.4345 3.9744
57.9648 46.7734 3.97511
57.3517 51.7221 3.96867
55.9295 49.4719 3.97107
55.3972 55.7451 3.9648
55.1824 53.3199 3.96291
50.1072 67.8548 0.014333
49.3358 65.9161 2
48.6161 64.1149 3.98096
47.4617 66.5755 0.0179257
45.557 67.0931 2
46.8909 64.7281 2
46.3791 63.0422 3.9825
45.1312 65.1879 3.98012
43.6301 67.4634 3.98301
41.8595 69.8745 3.98687
43.9719 69.588 2
44.3753 71.8617 3.99159
46.0544 69.1556 0.0132212
46.6089 71.3671 2
47.2057 73.7222 4
48.8017 70.7226 0.00861455
49.554 73.0099 2
51.8506 72.1454 0
50.9545 5.133 3.99164
53.0654 6.07279 2
54.0858 3.86728 4
55.1019 7.14176 0.0115815
56.25 5.02406 2
58.3339 6.31992 0
63.8086 46.6865 0.0290211
65.0298 43.007 0.0255623
62.5674 44.1779 0.0234398
63.5341 40.9091 0.0231909
65.6591 39.3653 0.0237433
67.8922 37.5234 0.0305523
65.7634 37.5035 2
63.681 39.2579 2
63.0919 42.5189 2
62.1482 40.6724 2
61.7188 45.8718 2
61.144 43.6331 2
63.7462 37.4589 3.9768
61.8633 39.3406 3.977
60.8921 41.9185 3.97678
59.9277 44.7096 3.97678
65.7541 35.6746 0.0240288
65.0468 32.1745 0.0263907
64.0911 34.2702 0.0232778
62.3649 30.6772 0.0231386
59.2991 15.696 0.0337368
59.0839 18.3933 0.0382629
58.6103 20.9148 0.0364229
61.4495 27.1236 0.0259459
60.5852 29.201 0.0228235
59.086 25.87 0.0240392
58.0762 23.1705 0.031841
57.7286 24.7503 0.0254138
56.6603 15.7853 0.0327008
54.3551 16.054 0.0337378
53.7998 13.7216 0.0291988
52.1112 8.15885 0.0188051
53.0541 11.0346 0.0258637
63.8866 35.6452 2
62.6894 33.0799 2
60.311 30.6729 2
57.9164 17.0211 2
57.6336 19.5325 2
57.1828 21.9242 2
59.2926 27.9847 2
56.9283 24.0456 2
57.4623 25.8211 2
50.1126 7.28663 2
55.5116 17.0233 2
53.7295 17.0417 2
52.9617 15.3129 2
52.1649 12.8266 2
51.2317 10.1342 2
61.9032 35.3777 3.97669
59.943 32.7949 3.9766
58.262 30.1547 3.97656
56.9574 27.4849 3.97698
56.5935 18.2077 3.96189
55.996 25.2139 3.97487
56.232 20.5981 3.96114
55.8711 22.9715 3.96236
48.0566 6.52944 3.98831
49.3239 9.3392 3.97954
50.4276 12.015 3.97585
51.3634 14.5362 3.9692
54.3738 17.9833 3.96262
52.3355 17.1133 3.96016
52.0685 66.9975 0.015005
52.9511 64.2104 0.0206937
60.751 47.8274 0.028564
53.6724 61.6004 0.0251511
56.6321 59.4596 0.032082
54.2398 59.285 0.0287015
59.5419 52.0546 0.0315329
57.7611 49.5475 0.0279477
56.7342 56.9512 0.0341401
56.9798 54.0668 0.034014
51.1667 65.123 2
52.0399 62.528 2
55.4525 58.2183 2
52.8173 60.1026 2
53.611 58.4362 2
57.9639 46.7724 2
57.351 51.721 2
55.9253 49.4704 2
55.3966 55.7453 2
55.1855 53.3204 2
50.3434 63.3724 3.98084
51.2329 60.9133 3.97625
54.1756 57.231 3.97064
52.2852 58.593 3.9729
56.2381 44.0856 3.97715
55.1125 47.8026 3.97417
54.8056 51.3116 3.96544
53.8873 54.4893 3.9652
49.3357 65.916 0.0178665
48.6162 64.1149 2
47.9577 62.4644 3.98116
45.5569 67.0925 0.0177967
46.8906 64.7275 0.0192479
43.6303 67.4639 2
46.3794 63.0429 2
45.1315 65.1886 2
45.983 61.5733 3.98673
44.7651 63.4404 3.97908
43.3559 65.498 3.98029
41.6624 67.6815 3.98252
39.7018 70.0205 3.98673
41.8595 69.8751 2
42.1097 72.2064 3.99191
43.9718 69.5875 0.0127225
44.376 71.8618 2
44.8159 74.2794 4
46.6081 71.3671 0.00845044
47.2057 73.7222 2
49.554 73.0099 0
48.7854 4.32356 3.99242
50.9554 5.13257 2
51.8506 2.85458 4
53.0639 6.07263 0.00940284
54.0858 3.86728 2
56.25 5.02411 0
61.7206 45.8727 0.0263149
63.0941 42.5195 0.02332
61.1457 43.6338 0.0235325
62.1494 40.6728 0.0232617
63.6835 39.2579 0.0230495
65.7661 37.5034 0.0238104
63.7437 37.4587 2
61.8628 39.3406 2
60.8918 41.9182 2
59.9273 44.7088 2
61.6958 37.4434 3.97693
59.8661 39.8202 3.97694
58.573 42.854 3.97659
63.8891 35.6451 0.0232498
62.6909 33.0792 0.0231203
60.3117 30.6724 0.023495
57.9173 17.0213 0.0365112
57.6284 19.5334 0.0388501
57.1827 21.9225 0.0362322
59.2935 27.9834 0.0234776
57.4626 25.8185 0.0236884
56.9232 24.0437 0.0312265
55.51 17.0236 0.0339479
53.7294 17.0436 0.0297017
52.9617 15.3157 0.0314913
50.1119 7.28834 0.014896
52.1637 12.8248 0.0249021
51.2304 10.1358 0.0238464
61.9027 35.3779 2
59.9423 32.7949 2
58.2623 30.1545 2
56.5946 18.2076 2
56.2367 20.596 2
55.8748 22.9742 2
56.9568 27.4864 2
55.9938 25.2167 2
48.0569 6.52729 2
49.3249 9.33711 2
54.3752 17.9833 2
52.3341 17.1084 2
51.3624 14.5324 2
50.4293 12.0128 2
59.5071 35.1438 3.97677
57.5548 32.3367 3.97602
56.148 29.4464 3.97697
55.0677 26.7358 3.9766
55.2727 19.2558 3.96061
54.6505 24.1843 3.96527
54.8333 21.6592 3.96022
45.963 5.88329 3.98902
43.3745 7.4754 3.98534
47.3555 8.62816 3.98348
48.5972 11.3065 3.97557
49.7014 13.7674 3.97366
50.6088 16.1799 3.97274
53.0731 18.7411 3.96081
51.2656 18.1508 3.97488
51.1666 65.1223 0.0185562
52.0405 62.5268 0.0234198
57.9648 46.7734 0.0248871
52.818 60.0993 0.0236129
55.4526 58.2168 0.030958
53.6113 58.4345 0.0256024
57.3517 51.7221 0.0313269
55.9295 49.4719 0.0289318
55.3972 55.7451 0.0351962
55.1824 53.3199 0.0370853
50.3432 63.3725 2
51.2318 60.9122 2
54.1767 57.233 2
52.2843 58.5945 2
56.2383 44.0847 2
55.111 47.8013 2
54.8086 51.3117 2
53.8878 54.4911 2
49.5855 61.7352 3.97906
55.0308 41.6558 3.97477
50.5449 59.2992 3.97121
52.1278 56.4514 3.96821
53.6776 45.449 3.97463
52.9738 49.2322 3.96935
52.4743 52.7854 3.96147
48.6161 64.1149 0.0190431
47.9576 62.4637 2
47.321 60.9969 3.98652
43.6301 67.4634 0.0169899
45.1312 65.1879 0.0198816
46.3791 63.0422 0.0175039
41.6628 67.6815 2
43.3561 65.4987 2
45.983 61.5743 2
44.7655 63.4411 2
45.757 60.6183 3.9847
44.4804 61.8178 3.9804
43.1452 63.7131 3.97867
41.5456 65.6347 3.97877
39.632 67.7596 3.98234
37.5259 70.045 3.98552
39.7017 70.021 2
39.8168 72.4028 3.99168
41.8595 69.8745 0.0131306
42.1103 72.2066 2
42.3947 74.6792 4
44.3753 71.8617 0.00841153
44.8159 74.2794 2
47.2057 73.7222 0
43.852 5.36053 3.98859
46.5715 3.64771 3.99264
48.7858 4.32272 2
49.554 1.99015 4
50.9545 5.133 0.00836455
51.8506 2.85453 2
54.0858 3.86728 0
59.9277 44.7096 0.0232189
60.8921 41.9185 0.0232194
61.8633 39.3406 0.0230043
63.7462 37.4589 0.0232029
61.6951 37.4433 2
59.8665 39.8198 2
58.5733 42.8534 2
59.3628 37.5668 3.97731
57.5141 40.6143 3.97709
54.4395 39.6706 3.97525
61.9032 35.3777 0.0233085
59.943 32.7949 0.0233969
58.262 30.1547 0.0234413
56.5935 18.2077 0.0381098
56.232 20.5981 0.0388605
55.8711 22.9715 0.0376413
56.9574 27.4849 0.0230216
55.996 25.2139 0.0251302
54.3738 17.9833 0.0373835
52.3355 17.1133 0.0398375
51.3634 14.5362 0.0307957
48.0566 6.52944 0.0116939
49.3239 9.3392 0.0204647
50.4276 12.015 0.0241487
59.5078 35.1438 2
45.9627 5.88282 2
43.3743 7.47467 2
57.5555 32.3375 2
56.148 29.4466 2
55.2672 19.2576 2
54.8432 21.6609 2
54.6477 24.1866 2
55.0654 26.738 2
47.3561 8.62405 2
48.5987 11.3037 2
53.0725 18.7342 2
51.2667 18.1505 2
50.6094 16.1808 2
49.7014 13.7674 2
56.8994 34.7938 3.97716
55.2424 31.6039 3.97622
54.0682 28.5437 3.97727
53.4429 25.6542 3.97659
53.8709 20.2227 3.95963
53.3759 22.8407 3.95474
41.3996 7.08134 3.98519
45.3609 7.99542 3.98705
42.8667 9.41913 3.98141
46.6662 10.6612 3.98097
47.7355 13.1189 3.97633
48.9114 15.4332 3.97121
49.9682 17.7453 3.96789
51.5857 19.4298 3.96837
50.3434 63.3724 0.0191607
51.2329 60.9133 0.0237522
56.2381 44.0856 0.0228542
55.1125 47.8026 0.0258266
52.2852 58.593 0.0270956
54.1756 57.231 0.0293648
54.8056 51.3116 0.0345573
53.8873 54.4893 0.0348022
49.5847 61.7349 2
55.0246 41.6522 2
50.544 59.2994 2
52.1289 56.4541 2
53.6761 45.4476 2
52.983 49.2321 2
52.476 52.7861 2
48.8338 60.1896 3.97596
51.8371 42.5278 3.98292
49.7472 57.5957 3.96724
50.472 54.3832 3.96397
51.3416 47.1559 3.9753
50.9412 50.8665 3.95487
47.5137 43.6429 3.97935
47.9577 62.4644 0.0188425
47.3206 60.9963 2
46.6043 59.7851 3.99009
41.6624 67.6815 0.0174814
43.3559 65.498 0.0197087
44.7651 63.4404 0.0209156
45.983 61.5733 0.0132728
39.6324 67.7605 2
41.5456 65.6341 2
45.7569 60.6191 2
43.1456 63.7137 2
44.48 61.819 2
44.6135 60.276 3.99049
42.9478 62.0654 3.97453
41.5996 63.8054 3.97862
39.6471 65.6005 3.97805
37.5631 67.7401 3.98038
31.6977 65.117 3.97837
33.3924 67.478 3.9803
35.3338 69.9551 3.98561
37.5258 70.0461 2
37.5091 72.4574 3.9921
39.7018 70.0205 0.0132719
39.8172 72.4032 2
39.9526 74.9197 4
42.1097 72.2064 0.00808571
42.3947 74.6792 2
44.8159 74.2794 0
41.7366 4.96953 3.98891
43.8521 5.35959 2
44.3267 3.11095 3.99295
46.5716 3.64746 2
47.2057 1.27793 4
48.7854 4.32356 0.00758377
49.554 1.99013 2
51.8506 2.85458 0
58.573 42.854 0.0234094
59.8661 39.8202 0.0230638
61.6958 37.4434 0.0230693
59.3632 37.5676 2
57.5138 40.6148 2
54.4335 39.675 2
56.2716 37.8832 3.97702
48.8641 41.2363 3.97997
52.4285 39.3078 3.98386
39.4433 6.80519 3.98561
59.5071 35.1438 0.0232338
57.5548 32.3367 0.0239752
56.148 29.4464 0.0230288
55.2727 19.2558 0.0393925
54.8333 21.6592 0.0397832
54.6505 24.1843 0.0347273
55.0677 26.7358 0.0234037
53.0731 18.7411 0.0391889
51.2656 18.1508 0.0251211
50.6088 16.1799 0.0272556
45.963 5.88329 0.0109834
49.7014 13.7674 0.0263382
47.3555 8.62816 0.016525
48.5972 11.3065 0.0244337
43.3745 7.4754 0.0146559
56.899 34.7944 2
41.3997 7.08024 2
45.3603 7.99542 2
42.8662 9.41904 2
55.2452 31.6025 2
54.0688 28.5439 2
53.8731 20.228 2
53.3731 22.8389 2
53.4401 25.6553 2
46.667 10.6538 2
47.7367 13.1135 2
51.5893 19.4304 2
49.9673 17.7423 2
48.9096 15.436 2
54.2593 33.9903 3.97548
52.9721 30.6374 3.97673
52.1634 27.3761 3.9751
51.8947 24.2658 3.97803
52.2664 21.1717 3.97089
41.0138 9.05411 3.98051
44.7269 9.99487 3.98541
42.4666 10.9045 3.99218
45.9977 12.7394 3.97589
47.6635 14.6065 3.97072
48.0751 17.0137 3.96906
49.7749 19.7973 3.97077
49.5855 61.7352 0.0209423
50.5449 59.2992 0.0287907
55.0308 41.6558 0.0252254
53.6776 45.449 0.0253668
52.9738 49.2322 0.0306499
52.1278 56.4514 0.031789
52.4743 52.7854 0.0385277
48.8325 60.1878 2
51.8546 42.5372 2
49.7452 57.5963 2
50.4726 54.386 2
51.3483 47.1561 2
50.9442 50.8661 2
47.5264 43.6709 2
47.9585 58.7199 3.97829
49.4815 45.1665 3.97981
48.5216 55.8867 3.96484
48.9505 52.5428 3.9761
49.3226 48.953 3.97314
45.2625 39.817 3.86874
45.7445 42.5227 3.90112
45.9597 45.6567 3.982
43.0803 41.0489 3.71992
41.6927 41.8982 3.53507
47.321 60.9969 0.0134834
46.6032 59.7841 2
45.4474 58.7853 3.99071
39.632 67.7596 0.0176597
41.5456 65.6347 0.0212271
43.1452 63.7131 0.0213272
44.4804 61.8178 0.0195999
45.757 60.6183 0.015296
41.5997 63.8052 2
37.5633 67.741 2
39.6471 65.6017 2
44.614 60.2774 2
42.9473 62.0659 2
41.7511 62.4755 3.97703
42.4743 59.9568 3.97869
39.8941 63.5373 3.97672
37.642 65.4964 3.97722
35.4634 67.6495 3.98035
33.5756 65.3297 3.97704
31.9602 63.2833 3.97727
29.8846 64.7086 3.98085
31.6976 65.118 2
31.3773 67.1879 3.98077
33.3925 67.479 2
33.1572 69.7488 3.98571
35.3336 69.9561 2
35.1954 72.3717 3.99198
37.5259 70.045 0.0144816
37.5092 72.4579 2
37.5 75 4
39.8168 72.4028 0.00832412
39.9526 74.9197 2
42.3947 74.6792 0
39.6244 4.71735 3.98945
41.7367 4.96868 2
42.0631 2.71828 3.99326
43.852 5.36053 0.0114063
44.3268 3.11029 2
44.8158 0.721173 4
46.5715 3.64771 0.00736111
47.2057 1.27779 2
49.554 1.99015 0
57.5141 40.6143 0.0229117
59.3628 37.5668 0.022688
54.4395 39.6706 0.0247515
48.8921 41.2528 2
56.2709 37.8812 2
52.4269 39.278 2
53.2822 36.6278 3.97798
46.7894 40.3355 3.90441
49.8084 38.5161 3.98661
37.5173 6.67618 3.98565
39.4434 6.80353 2
39.2115 8.69626 3.98308
35.9435 8.49552 3.98425
56.8994 34.7938 0.0228383
55.2424 31.6039 0.0237765
54.0682 28.5437 0.0227323
53.8709 20.2227 0.0403694
53.3759 22.8407 0.0452573
53.4429 25.6542 0.0234113
51.5857 19.4298 0.0316282
49.9682 17.7453 0.0321145
48.9114 15.4332 0.0287948
45.3609 7.99542 0.0129527
47.7355 13.1189 0.0236656
46.6662 10.6612 0.0190347
41.3996 7.08134 0.0148064
42.8667 9.41913 0.0185857
54.2555 33.9907 2
41.014 9.05314 2
44.7249 9.99565 2
42.4664 10.9058 2
52.9685 30.6366 2
52.1716 27.3762 2
52.2713 21.1736 2
51.8937 24.2719 2
45.9987 12.7281 2
47.6623 14.5996 2
49.78 19.8002 2
48.0719 17.0111 2
51.7813 32.899 3.98221
50.781 29.3341 3.97682
50.4475 25.8862 3.97174
49.822 22.3931 3.98537
40.5679 11.6154 3.98139
43.8539 11.9114 3.97969
45.7818 15.4427 3.98609
47.4719 19.4031 3.97817
45.7018 37.4798 3.86316
48.8338 60.1896 0.0240361
49.7472 57.5957 0.0327632
51.8371 42.5278 0.0170818
51.3416 47.1559 0.0247034
50.9412 50.8665 0.0451346
50.472 54.3832 0.0360305
47.5137 43.6429 0.0206509
47.9569 58.7223 2
49.4963 45.1792 2
48.5182 55.8883 2
48.951 52.5478 2
49.3289 48.9516 2
45.3303 39.8336 2
45.7732 42.5643 2
45.9684 45.6656 2
43.1109 41.0826 2
41.7211 41.9209 2
46.7943 57.3237 3.97687
43.8195 39.355 3.72267
42.0498 40.7948 3.57034
47.6123 47.1908 3.98035
47.0551 54.2 3.9658
47.3509 50.6908 3.97822
44.4214 47.2787 3.97537
44.3926 41.8675 3.8532
44.4462 44.3989 3.91047
42.0423 42.5084 3.74995
40.665 42.2026 3.5497
46.6043 59.7851 0.00991106
45.4469 58.7843 2
43.8539 57.6842 3.97961
37.5631 67.7401 0.0196155
39.6471 65.6005 0.021955
41.5996 63.8054 0.02138
42.9478 62.0654 0.0254679
44.6135 60.276 0.00950612
35.4637 67.6504 2
41.7505 62.4774 2
39.8938 63.5382 2
37.6421 65.4971 2
42.4751 59.9563 2
40.6218 61.6211 3.97922
40.4366 58.1518 3.97936
37.8378 63.1942 3.9752
35.5729 65.4189 3.97768
33.5757 65.3306 2
31.9601 63.2847 2
33.6295 63.3217 3.97544
30.3795 62.8437 3.98018
32.1261 61.9863 3.98509
26.8757 61.4774 3.9771
28.0645 64.1368 3.97831
29.8842 64.7097 2
29.4072 66.7518 3.98167
31.6977 65.117 0.0216309
31.3774 67.1888 2
31.0149 69.4138 3.98545
33.3924 67.478 0.0196963
33.157 69.7497 2
32.8931 72.1462 3.99175
35.3338 69.9551 0.0143934
35.1951 72.3723 2
35.0474 74.9194 4
37.5091 72.4574 0.00790168
37.5 75 2
39.9526 74.9197 0
35.622 6.72703 3.98538
37.5241 4.61675 3.98959
39.6244 4.71596 2
39.7896 2.47494 3.99319
41.7366 4.96953 0.0110904
42.063 2.71775 2
42.3946 0.32156 4
44.3267 3.11095 0.0070479
44.8159 0.72056 2
47.2057 1.27793 0
48.8641 41.2363 0.0200289
56.2716 37.8832 0.0229759
52.4285 39.3078 0.0161395
46.8159 40.3303 2
49.811 38.5101 2
53.2838 36.6441 2
50.6065 35.5735 3.97499
47.4611 37.7683 3.92053
45.2763 35.1612 3.867
43.0985 33.9219 3.7175
41.7116 33.0775 3.53318
37.459 8.53745 3.98452
37.5173 6.67486 2
39.4433 6.80519 0.014386
39.2119 8.69431 2
38.9768 10.1316 3.98337
35.8997 9.77765 3.98034
34.153 8.82705 3.98233
35.9432 8.4937 2
54.2593 33.9903 0.0245176
52.9721 30.6374 0.0232747
52.1634 27.3761 0.0248975
52.2664 21.1717 0.0291103
51.8947 24.2658 0.0219678
49.7749 19.7973 0.0292311
48.0751 17.0137 0.0309377
47.6635 14.6065 0.0292837
44.7269 9.99487 0.0145942
45.9977 12.7394 0.0241068
41.0138 9.05411 0.0194887
42.4666 10.9045 0.00781864
51.7865 32.8959 2
40.5692 11.6157 2
43.852 11.9154 2
50.8025 29.3324 2
50.448 25.8867 2
49.8244 22.3932 2
45.777 15.4165 2
47.4741 19.4215 2
49.3473 31.5232 3.9875
48.8458 27.654 3.97764
49.1551 24.5492 3.97604
47.1176 22.1598 3.98622
38.3015 12.7439 3.97724
42.0942 14.3084 3.97989
44.7788 18.5565 3.97521
44.2177 37.4873 3.73042
45.7874 37.4831 2
47.9585 58.7199 0.0217112
48.5216 55.8867 0.0351638
49.4815 45.1665 0.0201932
49.3226 48.953 0.0268642
48.9505 52.5428 0.023898
45.2625 39.817 0.131257
45.7445 42.5227 0.0988766
45.9597 45.6567 0.0180044
43.0803 41.0489 0.280076
41.6927 41.8982 0.464932
46.7918 57.3257 2
43.8682 39.3769 2
42.0493 40.8089 2
47.62 47.1926 2
47.0512 54.2043 2
47.3546 50.6976 2
44.4445 47.2614 2
44.4251 41.8946 2
44.4854 44.4213 2
42.0927 42.5499 2
40.6892 42.2095 2
45.3355 55.9063 3.99166
42.3882 39.2391 3.58022
40.5499 40.675 3.68487
45.7777 48.8417 3.99881
45.3698 52.475 3.98146
43.153 48.2711 3.99537
43.0667 45.9172 3.89832
43.1916 43.6374 3.84182
40.7775 43.5711 3.72672
39.2078 42.4685 3.57305
45.4474 58.7853 0.00929466
43.8524 57.6882 2
42.0812 56.273 3.98384
35.4634 67.6495 0.0196488
37.642 65.4964 0.0227838
39.8941 63.5373 0.0232773
41.7511 62.4755 0.02297
42.4743 59.9568 0.0213143
35.5731 65.4197 2
40.622 61.6206 2
37.8377 63.1946 2
40.4372 58.1529 2
38.9113 56.4465 3.99289
38.2499 60.3061 3.97958
35.6075 63.1884 3.97513
33.5756 65.3297 0.0229645
31.9602 63.2833 0.0227342
33.6296 63.3228 2
30.3793 62.8448 2
32.1267 61.9879 2
28.6854 62.1832 3.97916
33.3471 61.4944 3.97737
31.073 61.2068 3.9804
27.5827 59.5693 3.98011
23.812 59.0576 3.98476
25.0427 60.8518 3.97719
26.8759 61.4776 2
26.2325 63.4662 3.97762
28.0643 64.1359 2
27.4641 66.1762 3.98113
29.8846 64.7086 0.0191461
29.4071 66.7522 2
28.9075 68.9395 3.98509
31.3773 67.1879 0.0192322
31.0146 69.4145 2
30.6159 71.7774 3.9912
33.1572 69.7488 0.0142872
32.8925 72.1466 2
32.6054 74.6784 4
35.1954 72.3717 0.00801521
35.0474 74.9197 2
37.5 75 0
33.725 6.98285 3.98429
35.4362 4.68682 3.98947
35.6218 6.72592 2
37.5153 2.3874 3.99325
37.524 4.61577 2
39.6244 4.71735 0.010553
39.7893 2.4742 2
39.9526 0.0806499 4
42.0631 2.71828 0.00673913
42.3947 0.320817 2
44.8158 0.721173 0
43.8271 35.6206 3.72364
42.0618 34.176 3.56253
46.7894 40.3355 0.09559
49.8084 38.5161 0.0133874
53.2822 36.6278 0.0220201
47.4571 37.7382 2
50.6152 35.5675 2
45.3391 35.1375 2
43.1361 33.8855 2
41.7374 33.0549 2
47.6441 34.3126 3.95102
44.416 33.0904 3.84244
42.0687 32.4705 3.74568
40.6818 32.7826 3.54793
37.3115 10.6348 3.98101
37.4591 8.53573 2
37.5173 6.67618 0.0143494
39.2115 8.69626 0.0169246
38.9784 10.13 2
34.7559 10.3866 3.98122
35.9004 9.77408 2
32.3801 9.3745 3.97915
34.1517 8.82414 2
35.9435 8.49552 0.0157492
51.7813 32.899 0.0177888
50.781 29.3341 0.0231787
50.4475 25.8862 0.0282618
49.822 22.3931 0.0146317
47.4719 19.4031 0.0218295
45.7818 15.4427 0.0139063
43.8539 11.9114 0.0203098
40.5679 11.6154 0.0186085
49.3638 31.5201 2
38.3017 12.742 2
42.0961 14.3152 2
48.8556 27.6545 2
49.1562 24.5457 2
47.11 22.1528 2
44.7801 18.5963 2
47.2182 29.6461 3.9851
46.8427 25.2866 3.97481
44.2426 21.5259 3.97916
36.5846 12.9487 3.97491
38.6824 14.8368 3.97538
41.7411 17.9027 3.97744
42.5295 37.4749 3.61218
44.2647 37.4858 2
45.7018 37.4798 0.136841
46.7943 57.3237 0.0231342
47.0551 54.2 0.0341956
47.6123 47.1908 0.0196544
47.3509 50.6908 0.0217757
43.8195 39.355 0.277329
44.3926 41.8675 0.1468
44.4462 44.3989 0.0895261
44.4214 47.2787 0.0246328
42.0423 42.5084 0.250054
42.0498 40.7948 0.429659
40.665 42.2026 0.4503
45.3322 55.9075 2
42.3845 39.2432 2
40.5649 40.6583 2
45.7831 48.8523 2
45.3675 52.4798 2
43.1645 48.2893 2
43.1208 45.9574 2
43.2365 43.6677 2
40.8118 43.6248 2
39.2056 42.4772 2
43.6627 54.3831 3.99923
40.6553 39.0979 3.69943
39.0908 40.7446 3.6615
43.4744 50.3454 4.00546
41.7759 47.4478 3.93436
41.684 45.0206 3.85603
39.3369 44.2299 3.70846
37.5039 42.5681 3.60577
43.8539 57.6842 0.0203883
42.081 56.2744 2
40.3905 54.8498 3.98717
35.5729 65.4189 0.022325
37.8378 63.1942 0.0248017
40.6218 61.6211 0.0207807
40.4366 58.1518 0.020645
35.6075 63.1885 2
38.2501 60.3069 2
38.9125 56.4381 2
37.9872 55.1413 3.99354
36.933 57.6033 3.98964
35.3649 60.8934 3.978
33.6295 63.3217 0.0245644
30.3795 62.8437 0.019816
32.1261 61.9863 0.0149112
33.3478 61.4957 2
28.6855 62.1842 2
31.0738 61.2091 2
29.414 60.266 3.97612
32.3639 59.7185 3.98826
28.0479 58.3518 4.00033
27.5844 59.5698 2
25.4005 58.5736 3.97832
22.7886 58.211 3.96896
23.4112 60.3248 3.97909
23.8134 59.0582 2
25.0432 60.8516 2
24.4369 62.757 3.97715
26.8757 61.4774 0.0229036
26.2328 63.4671 2
25.549 65.4844 3.97963
28.0645 64.1368 0.0216929
27.4641 66.1763 2
26.8371 68.3282 3.98513
29.4072 66.7518 0.0183335
28.9072 68.9396 2
28.3711 71.2627 3.99071
31.0149 69.4138 0.0145479
30.6151 71.7775 2
30.1842 74.2788 4
32.8931 72.1462 0.0082457
32.6053 74.6792 2
35.0474 74.9194 0
31.7896 7.4228 3.98283
33.3487 4.9265 3.98866
33.7245 6.98088 2
35.2456 2.46334 3.99321
35.4359 4.68621 2
35.622 6.72703 0.0146248
37.5 0 4
37.5148 2.3869 2
37.5241 4.61675 0.0104117
39.7896 2.47494 0.00681355
39.9526 0.0802889 2
42.3946 0.32156 0
42.3787 35.7111 3.57507
43.8894 35.5915 2
40.5695 34.305 3.68451
42.0578 34.1608 2
47.4611 37.7683 0.0794678
50.6065 35.5735 0.025011
45.2763 35.1612 0.132998
43.0985 33.9219 0.282501
41.7116 33.0775 0.466818
47.6582 34.332 2
44.449 33.07 2
42.1218 32.4259 2
40.7058 32.775 2
45.7108 31.703 3.91677
43.217 31.3406 3.83872
40.7979 31.4126 3.727
39.2212 32.5308 3.57015
35.6951 11.7833 3.97905
37.3137 10.6321 2
37.459 8.53745 0.0154806
38.9768 10.1316 0.0166311
33.1012 11.2259 3.97518
34.7548 10.3814 2
35.8997 9.77765 0.0196641
30.4851 10.0242 3.97908
32.3787 9.3732 2
34.153 8.82705 0.0176676
49.3473 31.5232 0.0124969
48.8458 27.654 0.0223648
49.1551 24.5492 0.0239602
47.1176 22.1598 0.0137813
44.7788 18.5565 0.0247901
42.0942 14.3084 0.0201081
38.3015 12.7439 0.0227559
36.5817 12.9346 2
47.2353 29.6062 2
38.68 14.821 2
41.7344 17.8959 2
46.8469 25.2835 2
44.2355 21.5075 2
45.1444 27.781 4.00466
43.6463 24.2169 4.0196
41.3093 20.8986 3.98195
35.7736 14.7873 3.97726
38.6788 17.6375 3.9793
40.7088 37.4665 3.7129
42.5353 37.4785 2
44.2177 37.4873 0.269581
45.3355 55.9063 0.00833557
45.3698 52.475 0.0185447
45.7777 48.8417 0.00119092
42.3882 39.2391 0.419783
43.1916 43.6374 0.158177
43.0667 45.9172 0.101677
43.153 48.2711 0.00462954
40.7775 43.5711 0.273281
40.5499 40.675 0.315127
39.2078 42.4685 0.426946
43.6582 54.3826 2
40.6512 39.0955 2
39.0926 40.7326 2
43.4722 50.3653 2
41.7689 47.4779 2
41.7091 45.0598 2
37.5004 42.5806 2
39.3502 44.2835 2
41.819 52.8849 3.99639
39.1035 39.1195 3.67888
37.5065 40.7968 3.68352
35.8021 42.4769 3.57363
40.8418 49.5128 3.99505
39.7607 45.8072 3.83257
37.5026 44.475 3.72783
42.0812 56.273 0.0161634
40.3859 54.8615 2
38.7207 53.6979 3.99633
35.6075 63.1884 0.024865
38.2499 60.3061 0.0204161
38.9113 56.4465 0.00710878
35.3652 60.8927 2
36.934 57.6036 2
37.9868 55.1393 2
36.3205 55.209 3.99539
34.4926 58.4994 3.99005
33.3471 61.4944 0.0226255
28.6854 62.1832 0.0208392
31.073 61.2068 0.0196031
32.3648 59.7219 2
29.4151 60.2653 2
30.3222 57.7906 3.98509
28.0499 58.3517 2
26.9959 56.8063 3.97048
27.5827 59.5693 0.0198859
25.4027 58.5743 2
23.8957 56.7714 3.96065
21.3809 57.3609 3.96187
22.0095 59.5925 3.97468
22.7899 58.2126 2
22.742 62.0084 3.97547
23.4118 60.3248 2
23.812 59.0576 0.0152366
25.0427 60.8518 0.0228125
24.4372 62.7583 2
23.6837 64.7012 3.97852
26.2325 63.4662 0.0223802
25.5488 65.4856 2
24.8096 67.589 3.98425
27.4641 66.1762 0.0188684
26.8369 68.3289 2
26.1662 70.6037 3.99079
28.9075 68.9395 0.0149079
28.3702 71.2626 2
27.7943 73.7221 4
30.6159 71.7774 0.00880283
30.1841 74.2794 2
32.6054 74.6784 0
29.8123 7.99752 3.98156
31.2542 5.3334 3.98768
31.7888 7.42129 2
32.9816 2.7016 3.99287
33.3482 4.92523 2
33.725 6.98285 0.0157082
35.0474 0.080333 4
35.245 2.46311 2
35.4362 4.68682 0.0105322
37.5 0 2
37.5153 2.3874 0.00675166
39.9526 0.0806499 0
40.6756 35.8528 3.69831
42.3774 35.7135 2
43.8271 35.6206 0.276356
28.5453 10.6991 3.9783
39.094 34.2541 3.6608
40.5726 34.3191 2
42.0618 34.176 0.437472
47.6441 34.3126 0.0489811
44.416 33.0904 0.157561
42.0687 32.4705 0.254318
40.6818 32.7826 0.452073
45.7422 31.6816 2
43.2584 31.3088 2
40.8354 31.3574 2
39.2246 32.524 2
44.0279 29.8993 3.91202
41.6884 29.9551 3.85776
39.3531 30.7628 3.70771
37.5222 32.442 3.60533
34.0969 12.949 3.97442
35.6934 11.7742 2
37.3115 10.6348 0.018995
31.1896 11.9948 3.97781
33.1005 11.2244 2
34.7559 10.3866 0.0187798
30.4832 10.0216 2
32.3801 9.3745 0.0208487
47.2182 29.6461 0.0148953
46.8427 25.2866 0.0251905
36.5846 12.9487 0.0250914
44.2426 21.5259 0.0208437
41.7411 17.9027 0.0225617
38.6824 14.8368 0.0246185
35.7753 14.793 2
45.1484 27.7768 2
38.6743 17.6448 2
41.3011 20.8945 2
43.6441 24.2041 2
33.612 15.8985 3.97885
42.8054 26.63 3.99203
40.8215 23.4838 3.9981
38.4071 20.4101 3.99129
35.8492 17.5413 3.97916
39.1153 37.4874 3.69805
40.6998 37.4684 2
42.5295 37.4749 0.387824
43.6627 54.3831 0.000769249
43.4744 50.3454 -0.00545825
40.6553 39.0979 0.30057
41.684 45.0206 0.143974
41.7759 47.4478 0.0656421
39.3369 44.2299 0.291537
39.0908 40.7446 0.338501
37.5039 42.5681 0.394231
41.8099 52.8868 2
39.0968 39.1054 2
37.5052 40.7806 2
40.8372 49.533 2
35.7991 42.484 2
39.7839 45.8595 2
37.4928 44.5205 2
39.7565 51.7148 4.00213
37.5074 39.1262 3.71027
35.927 40.7577 3.66196
34.3424 42.2188 3.55028
35.6725 44.2435 3.7017
38.6662 48.4526 3.94838
37.5195 46.0957 3.85719
40.3905 54.8498 0.0128338
38.7193 53.6837 2
36.7481 53.0081 3.99681
35.3649 60.8934 0.0220025
36.933 57.6033 0.010358
37.9872 55.1413 0.00645742
34.4931 58.4985 2
36.3213 55.2097 2
33.25 55.3994 3.99233
32.3639 59.7185 0.0117356
29.414 60.266 0.0238772
30.3244 57.789 2
28.7697 55.2889 3.98194
28.0479 58.3518 -0.000330909
26.9978 56.8064 2
25.4024 55.1057 3.96315
21.8964 55.3041 3.96149
25.4005 58.5736 0.0216756
23.897 56.774 2
20.2591 56.9917 3.96466
20.6677 58.7438 3.96965
21.3823 57.3625 2
21.1752 61.1471 3.97424
22.0102 59.5929 2
22.7886 58.211 0.0310419
21.898 63.8281 3.97776
22.7425 62.0093 2
23.4112 60.3248 0.020906
24.4369 62.757 0.0228529
23.6836 64.7021 2
22.8382 66.7318 3.98264
25.549 65.4844 0.0203686
24.8093 67.59 2
24.0104 69.8049 3.99063
26.8371 68.3282 0.0148747
26.1651 70.6037 2
25.446 73.0099 4
28.3711 71.2627 0.00928778
27.7943 73.7222 2
30.1842 74.2788 0
27.822 8.657 3.98155
29.1564 5.87967 3.98627
29.8111 7.99528 2
30.727 3.09852 3.9926
31.2535 5.33211 2
31.7896 7.4228 0.0171682
32.6053 0.320823 4
32.9808 2.70108 2
33.3487 4.9265 0.011337
35.0474 0.0802903 2
35.2456 2.46334 0.00678943
37.5 0 0
39.1002 35.8677 3.68288
40.6603 35.8551 2
42.3787 35.7111 0.424932
28.5438 10.6978 2
26.6236 11.3953 3.97847
29.229 12.6492 3.9801
37.5132 34.2152 3.68192
39.1014 34.2706 2
40.5695 34.305 0.31549
45.7108 31.703 0.0832252
43.217 31.3406 0.161278
40.7979 31.4126 0.273002
39.2212 32.5308 0.429848
44.0537 29.8757 2
41.7142 29.9188 2
39.36 30.7085 2
37.5229 32.4287 2
42.1221 28.5876 3.88348
39.7564 29.1758 3.85347
37.5195 30.5341 3.72628
35.8176 32.5349 3.57351
31.9212 14.4938 3.97896
34.0967 12.9506 2
35.6951 11.7833 0.0209501
31.1884 11.9912 2
33.1012 11.2259 0.0248195
30.4851 10.0242 0.0209236
45.1444 27.781 -0.00465699
43.6463 24.2169 -0.0196017
35.7736 14.7873 0.0227375
41.3093 20.8986 0.0180473
38.6788 17.6375 0.0206955
33.6096 15.8929 2
35.8455 17.5434 2
42.8112 26.6239 2
38.3955 20.4309 2
40.8113 23.4623 2
33.5531 17.4164 3.97983
40.247 25.8628 3.95913
38.0532 23.1968 4.00004
35.5828 20.1286 3.99209
37.5092 37.495 3.72734
39.108 37.4835 2
40.7088 37.4665 0.287102
41.819 52.8849 0.00361101
40.8418 49.5128 0.00495132
39.1035 39.1195 0.321115
39.7607 45.8072 0.16743
37.5026 44.475 0.272173
37.5065 40.7968 0.316483
35.8021 42.4769 0.426372
39.7501 51.7223 2
37.5086 39.1185 2
35.9251 40.7454 2
38.6762 48.5029 2
34.3191 42.2263 2
35.6516 44.2979 2
37.5128 46.1436 2
37.6713 50.7502 3.99833
35.9198 39.1352 3.68214
34.4675 40.6989 3.68677
33.3098 41.9177 3.53702
34.2242 43.5794 3.7244
35.2129 45.8156 3.84798
36.9247 48.0617 3.91521
38.7207 53.6979 0.00367385
36.7545 53.0104 2
34.4248 52.3357 3.99983
34.4926 58.4994 0.00995041
36.3205 55.209 0.00461083
33.2524 55.4031 2
30.6061 53.2944 3.99696
30.3222 57.7906 0.0149095
28.7711 55.2889 2
27.0168 53.3962 3.96468
26.9959 56.8063 0.0295225
25.4036 55.1091 2
23.7265 53.4269 3.95803
20.6552 53.1565 3.96
20.0003 55.7889 3.9625
21.8937 55.3062 2
23.8957 56.7714 0.0393458
19.4643 57.8555 3.96891
20.2582 56.9931 2
19.7174 60.1676 3.97212
20.6677 58.7446 2
21.3809 57.3609 0.0381345
20.2115 62.8488 3.97484
21.1758 61.1491 2
22.0095 59.5925 0.0253182
20.9396 65.7601 3.98095
21.8979 63.8292 2
22.742 62.0084 0.0245347
23.6837 64.7012 0.0214798
22.8378 66.7323 2
21.9129 68.872 3.99007
24.8096 67.589 0.0157528
24.009 69.8047 2
23.1494 72.1454 4
26.1662 70.6037 0.009211
25.446 73.0099 2
27.7943 73.7221 0
25.861 9.38596 3.98058
27.0711 6.54374 3.98517
27.8206 8.65584 2
28.4894 3.64441 3.9919
29.1554 5.87825 2
29.8123 7.99752 0.0184352
30.1841 0.720592 4
30.7259 3.0981 2
31.2542 5.3334 0.0123192
32.6053 0.320817 2
32.9816 2.7016 0.00713451
35.0474 0.080333 0
37.5091 35.8697 3.7083
39.0864 35.8724 2
40.6756 35.8528 0.301694
24.7793 12.0829 3.9774
23.7576 14.3761 3.97522
28.5453 10.6991 0.0217015
26.6223 11.3946 2
29.2279 12.6482 2
27.2957 13.3823 3.97871
29.7877 14.21 3.98038
35.9285 34.2567 3.66075
37.5187 34.232 2
39.094 34.2541 0.339198
37.5222 32.442 0.394667
44.0279 29.8993 0.0879833
41.6884 29.9551 0.142238
39.3531 30.7628 0.292285
42.1506 28.5413 2
39.7714 29.127 2
37.5225 30.4844 2
35.8168 32.5259 2
39.9233 27.8142 3.89049
37.4935 28.9057 3.85497
35.6882 30.7796 3.7114
34.3597 32.7933 3.55028
30.935 16.8531 3.98275
31.9195 14.4877 2
34.0969 12.949 0.0255792
31.1896 11.9948 0.0221879
42.8054 26.63 0.00796921
40.8215 23.4838 0.00190157
33.612 15.8985 0.0211464
35.8492 17.5413 0.0208438
38.4071 20.4101 0.00871139
33.549 17.4251 2
35.5839 20.1296 2
40.3057 25.8597 2
38.0383 23.1675 2
32.876 19.8195 3.99294
37.6818 25.5044 3.97244
35.2057 22.87 3.99955
35.9026 37.4974 3.69997
37.5065 37.4955 2
39.1153 37.4874 0.301946
39.7565 51.7148 -0.00212606
38.6662 48.4526 0.0516177
37.5074 39.1262 0.289734
37.5195 46.0957 0.142814
35.6725 44.2435 0.298299
35.927 40.7577 0.338042
34.3424 42.2188 0.449725
37.6609 50.777 2
35.9311 39.1219 2
34.4524 40.6845 2
36.9038 48.1152 2
33.2804 41.9397 2
34.195 43.6322 2
35.1921 45.8613 2
35.536 49.9292 3.98632
34.3618 39.1342 3.69902
32.9582 40.8181 3.56694
32.9584 42.5242 3.74981
33.342 45.0274 3.8512
34.4018 47.1911 3.88813
36.7481 53.0081 0.00318612
34.4209 52.3425 2
32.1471 51.1083 4.01842
33.25 55.3994 0.00767418
30.6077 53.2981 2
28.5973 51.5227 3.98975
28.7697 55.2889 0.0180602
27.0178 53.3994 2
25.2834 51.6747 3.9549
25.4024 55.1057 0.0368507
23.725 53.4309 2
22.2055 51.7258 3.95228
19.4724 51.5548 3.96132
19.0566 54.2522 3.96237
20.6539 53.1561 2
18.4913 56.6855 3.9643
19.998 55.7906 2
21.8964 55.3041 0.038511
18.3846 59.077 3.96912
19.4637 57.8566 2
20.2591 56.9917 0.0353421
18.6255 61.7408 3.97206
19.718 60.169 2
20.6677 58.7438 0.0303537
19.1286 64.669 3.97964
20.2115 62.8498 2
21.1752 61.1471 0.0257581
19.8871 67.8086 3.98966
20.939 65.7607 2
21.898 63.8281 0.022238
22.8382 66.7318 0.0173588
21.9114 68.8713 2
20.9142 71.1327 4
24.0104 69.8049 0.00937413
23.1494 72.1455 2
25.446 73.0099 0
23.0998 12.7995 3.97678
23.9738 10.1752 3.97879
25.0246 7.31452 3.98399
25.8597 9.3852 2
26.2812 4.32848 3.99126
27.0699 6.54296 2
27.822 8.657 0.0184524
27.7943 1.27781 4
28.4878 3.64423 2
29.1564 5.87967 0.0137321
30.1841 0.720551 2
30.727 3.09852 0.00740076
32.6053 0.320823 0
35.9097 35.8649 3.67644
37.5149 35.8805 2
39.1002 35.8677 0.317118
24.7772 12.0799 2
23.7577 14.3783 2
22.4887 15.0557 3.98033
25.3627 13.9224 3.97393
24.04 15.6386 3.98289
26.6236 11.3953 0.0215349
29.229 12.6492 0.0199048
27.296 13.3818 2
29.7848 14.2086 2
28.3685 15.982 3.98133
34.4756 34.3197 3.68453
35.9249 34.2681 2
37.5132 34.2152 0.318083
35.8176 32.5349 0.426493
37.5195 30.5341 0.273716
42.1221 28.5876 0.116519
39.7564 29.1758 0.146533
39.9433 27.7774 2
37.4938 28.8531 2
35.6722 30.7193 2
34.3334 32.7891 2
37.5905 27.543 3.89702
35.2382 29.1943 3.85254
34.2358 31.4306 3.72453
33.3262 33.0923 3.536
30.2225 19.3941 3.98193
30.9315 16.8456 2
31.9212 14.4938 0.0210431
40.247 25.8628 0.0408653
38.0532 23.1968 -4.42316e-05
33.5531 17.4164 0.0201734
35.5828 20.1286 0.00791203
32.871 19.8293 2
35.2001 22.8582 2
37.7395 25.4805 2
32.3595 22.5392 3.99614
35.0612 25.4288 3.99819
34.3102 37.5104 3.71432
35.9073 37.5006 2
37.5092 37.495 0.27266
37.6713 50.7502 0.00167371
36.9247 48.0617 0.0847876
35.9198 39.1352 0.317855
35.2129 45.8156 0.15202
34.2242 43.5794 0.275596
34.4675 40.6989 0.313233
33.3098 41.9177 0.462978
35.5239 49.939 2
34.3695 39.1298 2
32.9581 40.8304 2
34.3988 47.2348 2
32.9169 42.5648 2
33.3193 45.0658 2
33.3616 48.9778 3.97802
32.632 39.2752 3.57735
31.9184 41.0685 3.71975
31.8027 43.6516 3.84204
32.5292 46.1577 3.88993
34.4248 52.3357 0.000173361
32.1491 51.119 2
30.1054 49.6881 4.0026
30.6061 53.2944 0.00304007
28.5966 51.5187 2
26.771 49.8965 3.96833
27.0168 53.3962 0.0353169
25.2815 51.6739 2
23.6358 50.0896 3.96234
23.7265 53.4269 0.0419739
22.204 51.7244 2
20.7822 50.2205 3.96494
18.2781 50.2506 3.96864
18.0521 52.7239 3.9637
19.4703 51.5541 2
17.5366 55.2928 3.96251
19.0516 54.2528 2
20.6552 53.1565 0.039999
17.1575 57.8428 3.96402
18.4899 56.6863 2
20.0003 55.7889 0.0375008
17.1448 60.517 3.96824
18.3844 59.0781 2
19.4643 57.8555 0.031094
17.4099 63.4598 3.97421
18.6258 61.7411 2
19.7174 60.1676 0.0278819
17.9435 66.6169 3.98796
19.128 64.6691 2
20.2115 62.8488 0.0251592
18.75 69.9759 4
19.8854 67.8075 2
20.9396 65.7601 0.0190519
21.9129 68.872 0.00993095
20.9142 71.1327 2
23.1494 72.1454 0
21.593 13.6263 3.97703
22.1922 11.0368 3.97654
23.0988 12.8016 2
23.0424 8.18119 3.98252
23.9719 10.1734 2
24.1188 5.14328 3.99065
25.0233 7.31392 2
25.861 9.38596 0.0194193
25.446 1.99014 4
26.2793 4.32878 2
27.0711 6.54374 0.0148349
27.7943 1.27778 2
28.4894 3.64441 0.00809855
30.1841 0.720592 0
34.3681 35.8841 3.69834
35.9184 35.8792 2
37.5091 35.8697 0.291701
21.3208 15.8579 3.9838
24.7793 12.0829 0.0226017
23.7576 14.3761 0.0247768
25.3623 13.9165 2
22.4891 15.0555 2
24.0412 15.642 2
23.285 16.2673 3.97422
25.3961 16.1089 3.98194
27.2957 13.3823 0.0212859
29.7877 14.21 0.0196222
28.3651 15.9879 2
27.4583 18.8378 3.98007
32.9645 34.1982 3.57065
34.4607 34.3356 2
35.9285 34.2567 0.339252
34.3597 32.7933 0.449718
35.6882 30.7796 0.288596
37.4935 28.9057 0.145033
39.9233 27.8142 0.109514
37.571 27.5076 2
33.3011 33.0735 2
35.2349 29.1368 2
34.1977 31.3741 2
35.1334 27.6414 3.90004
33.3382 29.9794 3.85239
32.9787 32.4815 3.73525
29.661 21.9965 3.99863
30.2207 19.3997 2
30.935 16.8531 0.0172527
37.6818 25.5044 0.0275555
35.2057 22.87 0.000451922
32.876 19.8195 0.00706236
32.3617 22.5321 2
35.09 25.42 2
31.8972 25.7875 4.00408
32.4762 37.5099 3.61319
34.3258 37.5072 2
35.9026 37.4974 0.300032
35.536 49.9292 0.0136822
34.4018 47.1911 0.111872
34.3618 39.1342 0.300983
33.342 45.0274 0.148801
32.9584 42.5242 0.250189
32.9582 40.8181 0.433056
33.3502 48.9771 2
32.6436 39.2774 2
31.882 41.1015 2
32.4898 46.2007 2
31.7629 43.6822 2
31.4411 47.8227 3.98019
31.1898 39.3758 3.72395
30.6041 41.905 3.84712
30.845 44.7829 3.90778
32.1471 51.1083 -0.0184204
30.1068 49.7074 2
28.2227 48.0745 3.9597
28.5973 51.5227 0.0102477
26.7697 49.8966 2
25.0162 48.3501 3.9686
25.2834 51.6747 0.0451019
23.6344 50.0883 2
22.0485 48.6765 3.97131
22.2055 51.7258 0.0477169
20.7795 50.2194 2
19.3712 49.0014 3.9727
17.1628 49.2601 3.9741
17.0054 51.3406 3.96765
18.2804 50.2492 2
16.5318 53.8182 3.96486
18.0505 52.7236 2
19.4724 51.5548 0.0386827
16.0223 56.4432 3.96277
17.5325 55.2936 2
19.0566 54.2522 0.0376289
15.7604 59.1859 3.96782
17.1577 57.8438 2
18.4913 56.6855 0.0357037
15.7922 62.1163 3.97109
17.1449 60.5193 2
18.3846 59.077 0.0308769
16.0903 65.2986 3.98653
17.4089 63.4611 2
18.6255 61.7408 0.0279395
16.6661 68.6801 4
17.9415 66.6154 2
19.1286 64.669 0.0203608
18.75 69.9759 2
19.8871 67.8086 0.0103372
20.9142 71.1327 0
20.2278 14.6245 3.97328
21.5925 13.6266 2
20.5328 12.0106 3.97547
21.1451 9.15213 3.98093
22.1908 11.0371 2
23.0998 12.7995 0.0232248
22.0179 6.08228 3.99017
23.0406 8.18014 2
23.9738 10.1752 0.021214
23.1494 2.85457 4
24.1166 5.14388 2
25.0246 7.31452 0.0160078
25.446 1.99012 2
26.2812 4.32848 0.00874077
27.7943 1.27781 0
32.6234 35.7479 3.57901
34.3732 35.8862 2
35.9097 35.8649 0.32356
21.3217 15.8556 2
20.3277 16.989 3.97693
22.1172 16.6597 3.96916
25.3627 13.9224 0.0260683
22.4887 15.0557 0.0196708
24.04 15.6386 0.017106
25.3965 16.1032 2
23.2864 16.267 2
24.228 18.515 3.97053
27.0981 21.5514 3.99371
28.3685 15.982 0.0186711
27.4563 18.8488 2
31.9444 33.9557 3.71684
32.9691 34.1819 2
34.4756 34.3197 0.315471
33.3262 33.0923 0.463998
34.2358 31.4306 0.275473
35.2382 29.1943 0.147456
37.5905 27.543 0.102976
35.1411 27.5971 2
32.9077 32.4401 2
33.3167 29.9449 2
32.7719 28.319 3.91053
31.809 31.3636 3.83778
29.0139 24.4893 3.98969
29.6572 22.0061 2
30.2225 19.3941 0.018072
35.0612 25.4288 0.00180582
32.3595 22.5392 0.00386292
31.8914 25.7638 2
29.9577 27.4353 3.97765
30.7879 37.5093 3.72913
32.4851 37.5083 2
34.3102 37.5104 0.285678
33.3616 48.9778 0.021976
32.5292 46.1577 0.110073
32.632 39.2752 0.422652
31.8027 43.6516 0.157958
31.9184 41.0685 0.280248
31.4207 47.8377 2
31.1277 39.3999 2
30.5719 41.9232 2
30.8058 44.8189 2
29.6219 46.4357 3.99715
29.7354 39.8426 3.8695
29.2965 43.0252 3.9101
30.1054 49.6881 -0.00260015
28.2175 48.0677 2
26.4017 46.5243 3.98084
26.771 49.8965 0.0316744
25.0147 48.3498 2
23.275 46.9456 3.97507
23.6358 50.0896 0.037659
22.0457 48.6751 2
20.3583 47.5163 3.97682
20.7822 50.2205 0.0350592
19.3722 49 2
17.9791 48.0987 3.97698
16.3983 48.6179 3.97639
17.1642 49.259 2
16.0819 50.108 3.97174
15.5464 52.3631 3.96735
17.0066 51.3397 2
18.2781 50.2506 0.0313627
14.9571 54.9397 3.9637
16.5332 53.8177 2
18.0521 52.7239 0.0363019
14.4747 57.7194 3.9641
16.022 56.4435 2
17.5366 55.2928 0.0374906
14.2714 60.6757 3.96995
15.7615 59.1866 2
17.1575 57.8428 0.0359769
14.3354 63.8567 3.98248
15.7919 62.1189 2
17.1448 60.517 0.0317639
14.6715 67.2507 4
16.0876 65.2966 2
17.4099 63.4598 0.0257922
16.6661 68.6801 2
17.9435 66.6169 0.0120416
18.75 69.9759 0
18.9455 15.8105 3.97461
20.228 14.6225 2
18.9848 13.129 3.9752
21.593 13.6263 0.0229653
20.532 12.0121 2
19.3449 10.243 3.97859
19.9925 7.14705 3.98924
21.1434 9.15257 2
22.1922 11.0368 0.0234647
20.9142 3.86727 4
22.0152 6.08319 2
23.0424 8.18119 0.0174838
23.1494 2.85451 2
24.1188 5.14328 0.00934971
25.446 1.99014 0
31.2088 35.6396 3.72042
32.6328 35.7429 2
34.3681 35.8841 0.301658
21.3208 15.8579 0.0161981
22.1181 16.6584 2
20.3285 16.9856 2
19.2922 18.4416 3.96135
21.8068 17.8942 3.98302
25.3961 16.1089 0.0180631
23.285 16.2673 0.0257758
24.224 18.5233 2
22.3576 19.954 3.9637
24.6814 21.4425 3.98718
26.624 23.7886 3.97832
27.1013 21.5201 2
27.4583 18.8378 0.0199272
30.6512 33.1226 3.85865
31.9108 33.91 2
32.9645 34.1982 0.429351
32.9787 32.4815 0.264754
33.3382 29.9794 0.147605
35.1334 27.6414 0.0999558
32.738 28.2917 2
31.7563 31.3291 2
30.5379 29.7161 3.93656
28.2125 26.64 3.9936
29.0032 24.4977 2
29.661 21.9965 0.0013735
31.8972 25.7875 -0.00407647
29.9485 27.4132 2
29.2971 37.5108 3.86391
30.7419 37.5094 2
32.4762 37.5099 0.386809
31.4411 47.8227 0.0198097
30.845 44.7829 0.0922168
31.1898 39.3758 0.276054
30.6041 41.905 0.152883
29.6227 46.4345 2
29.674 39.8599 2
29.2664 43.0655 2
27.8568 44.7564 3.97323
27.4994 40.5799 3.94136
28.2227 48.0745 0.040298
26.3974 46.5277 2
24.5614 45.0638 3.97717
25.0162 48.3501 0.0313992
23.2729 46.9455 2
21.3615 45.7869 3.97789
22.0485 48.6765 0.0286895
20.357 47.515 2
18.6883 46.6479 3.97707
19.3712 49.0014 0.0273037
17.9795 48.0975 2
16.6228 47.6435 3.97684
16.3999 48.6169 2
15.4257 48.9577 3.97545
17.1628 49.2601 0.0258995
16.0841 50.1069 2
14.6652 50.9356 3.97013
13.9331 53.3979 3.9656
15.5473 52.3625 2
17.0054 51.3406 0.0323475
13.2829 56.1489 3.96361
14.9575 54.9396 2
16.5318 53.8182 0.0351364
12.8558 59.1133 3.96815
14.4761 57.7194 2
16.0223 56.4432 0.0372283
12.6815 62.2981 3.97871
14.2721 60.6759 2
15.7604 59.1859 0.0321838
12.7746 65.6939 4
14.3332 63.8531 2
15.7922 62.1163 0.0289067
14.6714 67.2507 2
16.0903 65.2986 0.0134667
16.6661 68.6801 0
17.6925 17.1877 3.96943
18.9457 15.809 2
17.519 14.3954 3.97318
20.2278 14.6245 0.0267152
18.9842 13.129 2
17.6411 11.4632 3.97661
20.5328 12.0106 0.0245335
19.3433 10.2436 2
18.0528 8.34047 3.98765
18.75 5.0241 4
19.9896 7.14893 2
21.1451 9.15213 0.0190742
20.9142 3.86727 2
22.0179 6.08228 0.0098269
23.1494 2.85457 0
29.757 35.1902 3.86918
31.1505 35.6176 2
32.6234 35.7479 0.420992
22.1172 16.6597 0.0308378
20.3277 16.989 0.0230655
21.8064 17.8925 2
19.2915 18.4382 2
18.0894 19.9924 3.95917
20.9467 19.4268 3.96245
24.228 18.515 0.0294698
22.3534 19.9567 2
24.6828 21.4332 2
22.4937 21.7931 3.98162
24.8936 23.2299 3.97514
25.8081 26.0232 3.97921
26.6224 23.7883 2
27.0981 21.5514 0.00629166
29.0358 32.4711 3.91373
30.5972 33.0897 2
31.9444 33.9557 0.283156
31.809 31.3636 0.162221
32.7719 28.319 0.0894736
30.5172 29.7106 2
27.5138 29.2239 4.01028
28.2003 26.6475 2
29.0139 24.4893 0.0103053
29.9577 27.4353 0.0223512
27.6175 37.3572 3.91741
29.2313 37.5026 2
30.7879 37.5093 0.270865
29.6219 46.4357 0.00285044
29.2965 43.0252 0.0899025
29.7354 39.8426 0.130495
27.8443 44.7904 2
27.4764 40.5695 2
25.9097 43.0646 3.98934
24.7582 39.4494 3.97291
26.4017 46.5243 0.0191627
24.5499 45.0655 2
22.4569 43.8282 3.97735
23.275 46.9456 0.0249305
21.3577 45.7868 2
19.4249 44.8839 3.97687
20.3583 47.5163 0.0231801
18.6882 46.6478 2
16.9638 46.1382 3.97681
17.9791 48.0987 0.0230245
16.624 47.6425 2
15.1826 47.6125 3.97635
16.3983 48.6179 0.0236053
15.4277 48.9568 2
13.9714 49.4999 3.97257
16.0819 50.108 0.028265
14.6663 50.9349 2
13.0057 51.8402 3.96748
12.1857 54.5087 3.96437
13.9331 53.3976 2
15.5464 52.3631 0.0326456
11.5416 57.4494 3.9677
13.2837 56.1488 2
14.9571 54.9397 0.036298
11.1363 60.6242 3.97725
12.857 59.1126 2
14.4747 57.7194 0.0359031
10.9835 64.0165 4
12.6797 62.2944 2
14.2714 60.6757 0.0300488
12.7745 65.694 2
14.3354 63.8567 0.0175216
14.6715 67.2507 0
16.4507 18.6854 3.96201
17.6915 17.1859 2
16.1146 15.8085 3.96767
18.9455 15.8105 0.0253924
17.5187 14.3943 2
16.0238 12.8188 3.97345
18.9848 13.129 0.0248008
17.64 11.4652 2
16.2037 9.66386 3.98633
19.3449 10.243 0.0214082
18.0497 8.34316 2
16.6661 6.31991 4
18.75 5.02404 2
19.9925 7.14705 0.0107567
20.9142 3.86727 0
28.1511 34.8293 3.90767
29.6937 35.1633 2
31.2088 35.6396 0.279585
16.8095 21.4285 3.96571
21.8068 17.8942 0.0169774
19.2922 18.4416 0.0386505
20.9445 19.4249 2
18.0868 19.9906 2
19.8787 21.6389 3.96924
22.3576 19.954 0.0363022
24.6814 21.4425 0.0128206
22.4904 21.7964 2
24.8904 23.2327 2
23.1349 24.6856 3.97459
25.0584 28.613 3.97991
25.7994 26.0311 2
26.624 23.7886 0.0216818
26.8874 31.816 3.97872
29.0066 32.4548 2
30.6512 33.1226 0.141353
30.5379 29.7161 0.063439
27.5263 29.2043 2
28.2125 26.64 0.00639572
25.4464 36.8565 3.97351
27.6047 37.3629 2
29.2971 37.5108 0.136088
27.8568 44.7564 0.0267668
27.4994 40.5799 0.0586356
25.8907 43.0825 2
24.7402 39.4535 2
23.6483 41.8092 3.98211
22.4762 38.5193 3.97816
24.5614 45.0638 0.0228323
22.457 43.8274 2
20.279 42.8261 3.97619
21.3615 45.7869 0.0221053
19.4256 44.884 2
17.3551 44.3122 3.97615
18.6883 46.6479 0.0229262
16.9653 46.1378 2
15.1352 46.0325 3.97632
16.6228 47.6435 0.0231551
15.1844 47.6117 2
13.4983 47.9644 3.97434
15.4257 48.9577 0.0245484
13.9727 49.4992 2
12.2337 50.2211 3.96905
14.6652 50.9356 0.029873
13.0063 51.8397 2
11.1847 52.8203 3.96525
10.3324 55.7052 3.9675
12.1859 54.5085 2
13.9331 53.3979 0.0343991
9.70289 58.8471 3.97672
11.5422 57.449 2
13.2829 56.1489 0.0363915
9.30605 62.2254 4
11.1347 60.6203 2
12.8558 59.1133 0.031847
10.9835 64.0165 2
12.6815 62.2981 0.0212928
12.7746 65.6939 0
15.2307 20.2246 3.96297
16.4527 18.6854 2
14.764 17.3285 3.96524
17.6925 17.1877 0.0305717
16.114 15.8067 2
14.4883 14.3118 3.97084
17.519 14.3954 0.0268193
16.0231 12.8204 2
14.4466 11.1162 3.98439
17.6411 11.4632 0.0233925
16.2008 9.66749 2
14.6715 7.74927 4
18.0528 8.34047 0.0123515
16.6661 6.31988 2
18.75 5.0241 0
26.1117 34.3292 3.98206
28.1303 34.837 2
29.757 35.1902 0.130823
18.0391 22.3856 3.97204
15.6984 22.9728 3.9692
16.8093 21.4284 2
20.9467 19.4268 0.0375504
18.0894 19.9924 0.0408325
19.8762 21.6374 2
19.9696 24.4685 3.97077
22.4937 21.7931 0.0183803
24.8936 23.2299 0.0248643
23.1314 24.684 2
22.4204 27.9321 3.97267
24.4471 31.2977 3.97722
25.0638 28.6094 2
25.8081 26.0232 0.0207934
26.8691 31.783 2
29.0358 32.4711 0.086266
27.5138 29.2239 -0.0102808
23.1998 36.2862 3.98267
25.4314 36.8576 2
27.6175 37.3572 0.0825939
25.9097 43.0646 0.0106555
24.7582 39.4494 0.0270903
23.6347 41.8102 2
22.468 38.5175 2
21.3477 40.625 3.97511
20.7198 37.8022 3.97707
22.4569 43.8282 0.0226459
20.2778 42.827 2
17.8249 42.0484 3.97595
19.4249 44.8839 0.0231323
17.3559 44.3128 2
15.1783 44.1441 3.97602
16.9638 46.1382 0.0231911
15.1364 46.0319 2
13.1939 46.2538 3.97543
15.1826 47.6125 0.0236464
13.4998 47.9638 2
11.6191 48.5199 3.97055
13.9714 49.4999 0.0274309
12.2348 50.2205 2
10.3142 51.0658 3.966
13.0057 51.8402 0.0325211
11.1852 52.8198 2
9.24123 53.8859 3.96738
8.38636 56.9807 3.97733
10.3331 55.7043 2
12.1857 54.5087 0.0356279
7.74927 60.3285 4
9.70163 58.843 2
11.5416 57.4494 0.0322998
9.306 62.2255 2
11.1363 60.6242 0.0227469
10.9835 64.0165 0
14.0584 21.7896 3.96567
15.2297 20.2242 2
13.4722 18.9229 3.96436
16.4507 18.6854 0.0379939
14.7658 17.3282 2
13.0344 15.903 3.96951
16.1146 15.8085 0.0323298
14.4879 14.3079 2
12.7843 12.6906 3.98138
16.0238 12.8188 0.0265546
14.4438 11.1204 2
12.7746 9.30605 4
16.2037 9.66386 0.0136706
14.6715 7.74924 2
16.6661 6.31991 0
23.7883 33.8646 3.98294
26.089 34.3192 2
28.1511 34.8293 0.0923297
17.8992 24.1161 3.9708
18.0447 22.3864 2
14.5408 24.5068 3.97085
15.6997 22.973 2
16.8095 21.4285 0.0342949
19.4506 27.2999 3.97309
19.8787 21.6389 0.0307614
19.9655 24.4685 2
21.7751 30.7709 3.97519
23.1349 24.6856 0.0254095
22.4223 27.9333 2
24.4235 31.2955 2
25.0584 28.613 0.0200934
26.8874 31.816 0.0212838
20.8431 35.9576 3.97652
23.2008 36.2869 2
25.4464 36.8565 0.0264887
23.6483 41.8092 0.0178868
22.4762 38.5193 0.0218401
21.3544 40.6259 2
20.7201 37.8009 2
18.5757 38.9969 3.97704
20.279 42.8261 0.0238134
17.8247 42.0485 2
15.1631 41.8804 3.97629
17.3551 44.3122 0.0238487
15.179 44.144 2
12.9569 44.3538 3.97626
15.1352 46.0325 0.0236777
13.1955 46.2531 2
11.1338 46.7063 3.97209
13.4983 47.9644 0.0256596
11.6205 48.5193 2
9.58204 49.2269 3.96663
12.2337 50.2211 0.0309528
10.3146 51.0653 2
8.27399 52.0002 3.96717
11.1847 52.8203 0.0347524
9.24186 53.8849 2
7.19535 55.0319 3.97823
6.31991 58.3339 4
8.38544 56.9768 2
10.3324 55.7052 0.0324961
7.74924 60.3285 2
9.70289 58.8471 0.0232821
9.30605 62.2254 0
13.4166 25.4082 3.97452
12.9595 23.3191 3.96825
14.0576 21.7893 2
12.2739 20.5702 3.96482
15.2307 20.2246 0.0370345
13.4721 18.9221 2
11.665 17.5781 3.96954
14.764 17.3285 0.034763
13.0362 15.9022 2
11.2226 14.3772 3.97705
14.4883 14.3118 0.0291607
12.782 12.6951 2
10.9835 10.9835 4
14.4466 11.1162 0.0156096
12.7745 9.306 2
14.6715 7.74927 0
21.2072 33.4678 3.97562
23.7903 33.8541 2
26.1117 34.3292 0.0179376
16.2284 26.4736 3.97304
17.9008 24.1164 2
18.0391 22.3856 0.0279583
14.5408 24.5071 2
15.6984 22.9728 0.0307969
18.8437 30.2687 3.97511
19.4487 27.3004 2
19.9696 24.4685 0.0292283
21.7866 30.7717 2
22.4204 27.9321 0.0273287
24.4471 31.2977 0.0227846
18.1855 35.9887 3.97767
20.8454 35.9584 2
23.1998 36.2862 0.0173335
21.3477 40.625 0.0248901
20.7198 37.8022 0.0229257
18.5741 38.9961 2
14.6662 39.166 3.97714
17.8249 42.0484 0.0240473
15.1632 41.8802 2
12.6532 42.2473 3.97657
15.1783 44.1441 0.0239766
12.9582 44.3532 2
10.7223 44.7794 3.97346
13.1939 46.2538 0.024566
11.1356 46.7058 2
8.96827 47.3074 3.96715
11.6191 48.5199 0.0294522
9.58223 49.2264 2
7.44072 50.0341 3.9669
10.3142 51.0658 0.0340031
8.27444 51.9992 2
6.13598 53.0073 3.97864
9.24123 53.8859 0.032621
7.19482 55.0288 2
5.0241 56.25 4
6.31988 58.3339 2
8.38636 56.9807 0.0226672
7.74927 60.3285 0
13.6874 26.8624 3.97485
12.07 24.8218 3.97052
13.4159 25.4084 2
11.1971 22.2542 3.96555
12.9603 23.3194 2
14.0584 21.7896 0.0343319
12.2745 20.5699 2
10.3971 19.3284 3.96839
13.4722 18.9229 0.0356361
11.667 17.5781 2
9.76319 16.1603 3.97696
13.0344 15.903 0.0304886
11.2207 14.3821 2
9.30607 12.7746 4
12.7843 12.6906 0.0186245
10.9835 10.9835 2
12.7746 9.30605 0
18.3534 33.1736 3.97663
21.208 33.4703 2
23.7883 33.8646 0.017057
15.852 29.7063 3.9755
16.2292 26.4741 2
17.8992 24.1161 0.0292021
14.5408 24.5068 0.0291518
18.8427 30.2694 2
19.4506 27.2999 0.0269078
21.7751 30.7709 0.024807
15.2902 36.0345 3.97734
18.1851 35.9891 2
20.8431 35.9576 0.0234821
12.8836 37.8298 3.97725
18.5757 38.9969 0.0229562
14.6661 39.1659 2
12.1572 40.126 3.97668
15.1631 41.8804 0.0237111
12.6545 42.2468 2
10.3235 42.761 3.97425
12.9569 44.3538 0.0237377
10.724 44.7789 2
8.44699 45.3112 3.96782
11.1338 46.7063 0.0279149
8.96803 47.307 2
6.7317 47.9995 3.96678
9.58204 49.2269 0.0333662
7.44103 50.0332 2
5.21274 50.9108 3.97835
8.27399 52.0002 0.0328264
6.13573 53.0052 2
3.86727 54.0858 4
7.19535 55.0319 0.0217713
5.02404 56.25 2
6.31991 58.3339 0
13.1702 29.0766 3.97476
11.5149 26.5195 3.97097
13.687 26.8626 2
10.2568 23.9844 3.96669
12.0717 24.8222 2
13.4166 25.4082 0.0254808
9.24967 21.1434 3.9678
11.197 22.254 2
12.9595 23.3191 0.0317491
12.2739 20.5702 0.0351812
10.3988 19.3286 2
8.41893 18.031 3.97692
11.665 17.5781 0.0304624
9.76189 16.1653 2
7.74928 14.6715 4
11.2226 14.3772 0.0229521
9.30602 12.7745 2
10.9835 10.9835 0
14.8416 32.9103 3.97683
18.352 33.1728 2
21.2072 33.4678 0.024382
15.8534 29.7068 2
16.2284 26.4736 0.0269589
18.8437 30.2687 0.0248941
13.178 36.2211 3.97695
15.2895 36.0342 2
18.1855 35.9887 0.0223304
12.8848 37.8295 2
11.4939 38.3084 3.97701
14.6662 39.166 0.0228647
12.1594 40.1257 2
9.89863 40.7446 3.97556
12.6532 42.2473 0.0234349
10.3262 42.7605 2
7.99334 43.2626 3.96855
10.7223 44.7794 0.0265403
8.44781 45.3108 2
6.1374 45.9047 3.96701
8.96827 47.3074 0.0328495
6.73201 47.9987 2
4.42413 48.7515 3.97783
7.44072 50.0341 0.0330991
5.21269 50.9096 2
2.85457 51.8506 4
6.13598 53.0073 0.0213637
3.86727 54.0858 2
5.0241 56.25 0
12.304 31.2905 3.97602
10.9338 28.4437 3.97146
13.1711 29.0771 2
9.47409 25.8126 3.96737
11.5162 26.5199 2
13.6874 26.8624 0.0251506
8.23647 23.0259 3.96752
10.2572 23.9845 2
12.07 24.8218 0.0294817
7.20113 19.9802 3.97784
9.25106 21.1438 2
11.1971 22.2542 0.0344545
10.3971 19.3284 0.0316118
8.4183 18.0355 2
6.31992 16.6661 4
9.76319 16.1603 0.0230376
7.74926 14.6714 2
9.30607 12.7746 0
12.3409 34.3186 3.97675
14.8419 32.911 2
18.3534 33.1736 0.0233741
15.852 29.7063 0.0245029
11.0356 36.6187 3.97679
13.1787 36.2209 2
15.2902 36.0345 0.022656
12.8836 37.8298 0.0227481
11.4966 38.308 2
9.48155 38.8206 3.97564
12.1572 40.126 0.0233156
9.90065 40.7442 2
7.60172 41.2067 3.96891
10.3235 42.761 0.0257531
7.99285 43.2623 2
5.64898 43.7677 3.96729
8.44699 45.3112 0.0321756
6.13764 45.9041 2
3.76955 46.537 3.97771
6.7317 47.9995 0.0332178
4.42432 48.7507 2
1.99014 49.554 4
5.21274 50.9108 0.0216454
2.85451 51.8506 2
3.86727 54.0858 0
11.1242 32.9422 3.97687
10.2431 30.4053 3.97235
12.3054 31.291 2
8.78446 27.7446 3.96764
10.9351 28.444 2
13.1702 29.0766 0.0252371
7.36168 24.9839 3.96725
9.47406 25.8128 2
11.5149 26.5195 0.0290274
6.11811 22.0029 3.97868
8.23734 23.0264 2
10.2568 23.9844 0.0333101
5.02411 18.75 4
7.20093 19.9835 2
9.24967 21.1434 0.0321959
8.41893 18.031 0.0230817
6.3199 16.6661 2
7.74928 14.6715 0
10.6303 35.013 3.97662
12.3423 34.3189 2
14.8416 32.9103 0.023172
9.14601 36.9876 3.97538
11.0385 36.6186 2
13.178 36.2211 0.0230537
11.4939 38.3084 0.0229868
9.48358 38.8204 2
7.278 39.1801 3.96918
9.89863 40.7446 0.0244424
7.60217 41.2064 2
5.26396 41.6136 3.9674
7.99334 43.2626 0.0314484
5.64918 43.7672 2
3.24714 44.2817 3.97798
6.1374 45.9047 0.0329896
3.76983 46.5365 2
1.27781 47.2057 4
4.42413 48.7515 0.0221735
1.99012 49.554 2
2.85457 51.8506 0
10.2684 33.8978 3.97651
9.52298 32.1713 3.97313
11.1265 32.9427 2
8.1285 29.7057 3.96803
10.2449 30.4057 2
12.304 31.2905 0.0239819
6.60496 27.0095 3.96716
8.78425 27.7448 2
10.9338 28.4437 0.0285422
5.17347 24.0952 3.97863
7.36218 24.9843 2
9.47409 25.8126 0.0326311
3.86728 20.9142 4
6.11813 22.0048 2
8.23647 23.0259 0.0324797
5.02406 18.75 2
7.20113 19.9802 0.0221621
6.31992 16.6661 0
8.96706 35.2868 3.97517
10.6331 35.0131 2
12.3409 34.3186 0.0232476
7.05533 37.2064 3.96937
9.14789 36.9876 2
11.0356 36.6187 0.0232076
9.48155 38.8206 0.0243592
7.27905 39.1799 2
4.99133 39.4672 3.96776
7.60172 41.2067 0.031087
5.26454 41.6132 2
2.85751 42.002 3.97812
5.64898 43.7677 0.0327108
3.24728 44.2813 2
0.720592 44.8159 4
3.76955 46.537 0.0222869
1.27778 47.2057 2
1.99014 49.554 0
9.01082 33.7094 3.97441
10.2712 33.8982 2
7.56011 31.6166 3.96862
9.52529 32.1717 2
11.1242 32.9422 0.0231326
5.94971 29.0703 3.96731
8.12822 29.7058 2
10.2431 30.4053 0.027646
4.36104 26.2476 3.97821
6.60526 27.0098 2
8.78446 27.7446 0.032356
2.85458 23.1494 4
5.17362 24.096 2
7.36168 24.9839 0.0327494
3.86728 20.9142 2
6.11811 22.0029 0.0213249
5.02411 18.75 0
7.00394 35.3087 3.96935
8.96897 35.2869 2
10.6303 35.013 0.0233767
4.84137 37.3399 3.96818
7.05657 37.2063 2
9.14601 36.9876 0.0246233
7.278 39.1801 0.0308194
4.9919 39.467 2
2.60545 39.7136 3.97831
5.26396 41.6136 0.0326008
2.85795 42.0018 2
0.320823 42.3947 4
3.24714 44.2817 0.0220172
0.720551 44.8159 2
1.27781 47.2057 0
7.1694 33.4659 3.96905
9.01292 33.7096 2
10.2684 33.8978 0.0234925
5.42007 31.1341 3.96784
7.5603 31.6167 2
9.52298 32.1713 0.0268708
3.68258 28.4435 3.97798
5.95 29.0707 2
8.1285 29.7057 0.031968
1.99015 25.446 4
4.36126 26.2478 2
6.60496 27.0095 0.0328367
2.85453 23.1494 2
5.17347 24.0952 0.0213698
3.86728 20.9142 0
4.85569 35.2518 3.96816
7.00422 35.3087 2
8.96706 35.2868 0.0248256
2.49686 37.4283 3.97911
4.84147 37.3399 2
7.05533 37.2064 0.0306255
4.99133 39.4672 0.0322381
2.606 39.7139 2
0.080333 39.9526 4
2.85751 42.002 0.0218805
0.320817 42.3947 2
0.720592 44.8159 0
5.04913 33.1906 3.96813
7.1698 33.4659 2
9.01082 33.7094 0.0255871
3.14669 30.6662 3.97826
5.42033 31.1345 2
7.56011 31.6166 0.0313795
1.27793 27.7943 4
3.68292 28.4437 2
5.94971 29.0703 0.0326852
1.99013 25.446 2
4.36104 26.2476 0.021787
2.85458 23.1494 0
2.54896 35.1589 3.97884
4.85639 35.252 2
7.00394 35.3087 0.0306502
0 37.5 4
2.49695 37.4286 2
4.84137 37.3399 0.0318218
2.60545 39.7136 0.0216932
0.0802903 39.9526 2
0.320823 42.3947 0
2.76662 32.9057 3.97896
5.04938 33.1909 2
7.1694 33.4659 0.0309517
0.721173 30.1842 4
3.14704 30.6666 2
5.42007 31.1341 0.03216
1.27779 27.7943 2
3.68258 28.4435 0.0220241
1.99015 25.446 0
0.0806499 35.0474 4
2.54961 35.1593 2
4.85569 35.2518 0.0318429
0 37.5 2
2.49686 37.4283 0.0208886
0.080333 39.9526 0
0.32156 32.6054 4
2.7668 32.9062 2
5.04913 33.1906 0.0318709
0.72056 30.1841 2
3.14669 30.6662 0.0217358
1.27793 27.7943 0
0.0802889 35.0474 2
2.54896 35.1589 0.0211584
0 37.5 0
0.320817 32.6053 2
2.76662 32.9057 0.0210364
0.721173 30.1842 0
0.0806499 35.0474 0
0.32156 32.6054 0
CELLS 1910 17190
8 18 6 25 56 2 0 5 16
8 57 23 6 18 17 4 0 2
8 78 36 9 29 31 11 1 7
8 31 11 1 7 79 37 10 30
8 110 57 18 50 48 17 2 14
8 50 18 56 111 14 2 16 49
8 116 62 22 55 52 20 3 15
8 56 25 67 118 16 5 24 53
8 119 63 23 57 54 21 4 17
8 55 22 63 119 15 3 21 54
8 58 26 68 121 18 6 25 56
8 122 65 26 58 57 23 6 18
8 73 31 7 27 142 79 30 71
8 143 78 29 72 73 31 7 27
8 83 147 76 34 32 74 28 8
8 84 148 78 36 33 75 29 9
8 76 34 8 28 148 84 33 75
8 37 79 150 86 10 30 77 35
8 151 87 36 78 80 38 11 31
8 80 38 11 31 152 88 37 79
8 175 100 42 94 96 44 12 40
8 44 96 176 101 12 40 95 43
8 101 176 98 46 43 95 41 13
8 46 98 178 103 13 41 97 45
8 178 103 45 97 147 83 32 74
8 189 116 55 109 106 52 15 47
8 111 56 118 191 49 16 53 107
8 192 119 57 110 108 54 17 48
8 109 55 119 192 47 15 54 108
8 194 122 58 112 110 57 18 50
8 112 58 121 195 50 18 56 111
8 115 61 19 51 197 124 59 113
8 115 61 125 198 51 19 60 114
8 198 125 62 116 114 60 20 52
8 200 127 64 120 116 62 22 55
8 118 67 132 202 53 24 66 117
8 121 68 133 203 56 25 67 118
8 120 64 128 204 55 22 63 119
8 204 128 65 122 119 63 23 57
8 206 134 68 121 123 69 26 58
8 123 69 26 58 207 131 65 122
8 226 147 74 138 140 76 28 70
8 229 148 75 139 143 78 29 72
8 140 76 28 70 229 148 75 139
8 142 79 30 71 231 150 77 141
8 144 80 31 73 232 152 79 142
8 233 151 78 143 144 80 31 73
8 150 86 35 77 235 154 81 145
8 235 154 81 145 146 82 39 91
8 146 82 39 91 236 155 90 165
8 238 157 83 147 149 85 34 76
8 239 158 84 148 151 87 36 78
8 149 85 34 76 239 158 84 148
8 152 88 37 79 241 160 86 150
8 242 161 87 151 153 89 38 80
8 153 89 38 80 243 162 88 152
8 171 98 41 92 265 178 97 169
8 265 178 97 169 226 147 74 138
8 172 96 40 93 266 176 95 170
8 266 176 95 170 171 98 41 92
8 269 175 94 173 172 96 40 93
8 271 180 99 174 175 100 42 94
8 197 124 59 113 271 180 99 174
8 272 181 100 175 177 102 44 96
8 273 182 101 176 179 104 46 98
8 177 102 44 96 273 182 101 176
8 179 104 46 98 275 184 103 178
8 275 184 103 178 238 157 83 147
8 188 115 51 105 283 197 113 186
8 188 115 198 284 105 51 114 187
8 284 198 116 189 187 114 52 106
8 286 200 120 193 189 116 55 109
8 191 118 202 288 107 53 117 190
8 195 121 203 289 111 56 118 191
8 193 120 204 290 109 55 119 192
8 290 204 122 194 192 119 57 110
8 196 123 58 112 292 207 122 194
8 293 206 121 195 196 123 58 112
8 199 126 61 115 297 211 124 197
8 298 212 127 200 198 125 62 116
8 199 126 212 298 115 61 125 198
8 205 129 64 120 300 214 127 200
8 301 217 130 201 202 132 66 117
8 209 136 168 264 301 217 130 201
8 302 219 132 202 203 133 67 118
8 303 220 133 203 206 134 68 121
8 205 129 215 304 120 64 128 204
8 304 215 131 207 204 128 65 122
8 306 221 134 206 208 135 69 123
8 208 135 69 123 307 218 131 207
8 210 137 167 263 309 223 136 209
8 328 238 147 226 230 149 76 140
8 228 146 91 166 329 236 165 260
8 231 150 77 141 330 235 145 227
8 330 235 145 227 228 146 91 166
8 332 239 148 229 233 151 78 143
8 230 149 76 140 332 239 148 229
8 232 152 79 142 334 241 150 231
8 234 153 80 144 335 243 152 232
8 336 242 151 233 234 153 80 144
8 236 155 90 165 338 245 164 259
8 241 160 86 150 339 246 154 235
8 339 246 154 235 237 156 82 146
8 237 156 82 146 340 247 155 236
8 342 249 157 238 240 159 85 149
8 343 250 158 239 242 161 87 151
8 240 159 85 149 343 250 158 239
8 243 162 88 152 345 252 160 241
8 244 163 253 346 153 89 161 242
8 244 163 89 153 347 254 162 243
8 311 224 261 371 210 137 167 263
8 263 167 262 372 209 136 168 264
8 267 179 98 171 375 275 178 265
8 375 275 178 265 328 238 147 226
8 376 273 176 266 267 179 98 171
8 268 177 96 172 376 273 176 266
8 379 272 175 269 268 177 96 172
8 380 271 174 270 269 175 94 173
8 283 197 113 186 380 271 174 270
8 381 277 180 271 272 181 100 175
8 297 211 124 197 381 277 180 271
8 382 278 181 272 274 183 102 177
8 274 183 102 177 383 279 182 273
8 383 279 182 273 276 185 104 179
8 385 281 184 275 342 249 157 238
8 276 185 104 179 385 281 184 275
8 285 199 115 188 393 297 197 283
8 394 298 200 286 284 198 116 189
8 285 199 298 394 188 115 198 284
8 291 205 120 193 396 300 200 286
8 397 301 201 287 288 202 117 190
8 295 209 264 374 397 301 201 287
8 398 302 202 288 289 203 118 191
8 399 303 203 289 293 206 121 195
8 291 205 304 400 193 120 204 290
8 400 304 207 292 290 204 122 194
8 294 208 123 196 402 307 207 292
8 403 306 206 293 294 208 123 196
8 296 210 263 373 405 309 209 295
8 408 312 213 299 297 211 126 199
8 299 213 313 409 199 126 212 298
8 409 313 214 300 298 212 127 200
8 305 216 129 205 411 315 214 300
8 412 318 217 301 302 219 132 202
8 309 223 136 209 412 318 217 301
8 413 320 219 302 303 220 133 203
8 306 221 321 414 206 134 220 303
8 307 218 131 207 415 316 215 304
8 305 216 316 415 205 129 215 304
8 417 322 221 306 308 222 135 208
8 308 222 135 208 418 319 218 307
8 310 225 137 210 420 325 223 309
8 423 326 224 311 310 225 137 210
8 329 236 165 260 441 338 259 368
8 442 342 238 328 333 240 149 230
8 331 237 146 228 443 340 236 329
8 334 241 150 231 444 339 235 330
8 444 339 235 330 331 237 146 228
8 446 343 239 332 336 242 151 233
8 333 240 149 230 446 343 239 332
8 335 243 152 232 448 345 241 334
8 337 244 153 234 449 347 243 335
8 337 244 346 450 234 153 242 336
8 338 245 164 259 452 349 258 367
8 340 247 155 236 453 350 245 338
8 345 252 160 241 454 351 246 339
8 454 351 246 339 341 248 156 237
8 341 248 156 237 455 352 247 340
8 240 159 251 344 342 249 354 457
8 242 161 253 346 343 250 355 458
8 343 250 355 458 240 159 251 344
8 347 254 162 243 460 357 252 345
8 348 255 358 461 244 163 253 346
8 348 255 163 244 462 359 254 347
8 473 360 257 365 363 256 364 482
8 452 349 258 367 365 257 366 485
8 422 324 369 488 311 224 261 371
8 371 261 370 490 263 167 262 372
8 407 311 371 491 296 210 263 373
8 373 263 372 492 295 209 264 374
8 493 385 275 375 442 342 238 328
8 377 276 179 267 493 385 275 375
8 378 274 177 268 494 383 273 376
8 494 383 273 376 377 276 179 267
8 497 382 272 379 378 274 177 268
8 498 381 271 380 379 272 175 269
8 393 297 197 283 498 381 271 380
8 499 387 277 381 382 278 181 272
8 408 312 211 297 499 387 277 381
8 500 388 278 382 384 280 183 274
8 501 389 279 383 386 282 185 276
8 384 280 183 274 501 389 279 383
8 386 282 185 276 503 391 281 385
8 503 391 281 385 457 354 249 342
8 511 408 299 395 393 297 199 285
8 395 299 409 512 285 199 298 394
8 512 409 300 396 394 298 200 286
8 401 305 205 291 514 411 300 396
8 515 412 301 397 398 302 202 288
8 405 309 209 295 515 412 301 397
8 516 413 302 398 399 303 203 289
8 403 306 414 517 293 206 303 399
8 402 307 207 292 518 415 304 400
8 401 305 415 518 291 205 304 400
8 404 308 208 294 520 418 307 402
8 521 417 306 403 404 308 208 294
8 406 310 210 296 523 420 309 405
8 526 423 311 407 406 310 210 296
8 410 314 213 299 527 424 312 408
8 528 425 315 411 409 313 214 300
8 410 314 425 528 299 213 313 409
8 416 317 216 305 530 427 315 411
8 531 430 318 412 413 320 219 302
8 420 325 223 309 531 430 318 412
8 532 432 320 413 414 321 220 303
8 417 322 433 533 306 221 321 414
8 418 319 218 307 534 428 316 415
8 416 317 428 534 305 216 316 415
8 419 323 434 536 308 222 322 417
8 419 323 222 308 537 431 319 418
8 421 327 225 310 539 438 325 420
8 421 327 439 541 310 225 326 423
8 543 437 324 422 423 326 224 311
8 441 338 259 368 559 452 367 486
8 443 340 236 329 560 453 338 441
8 333 240 344 447 442 342 457 561
8 445 341 237 331 562 455 340 443
8 448 345 241 334 563 454 339 444
8 563 454 339 444 445 341 237 331
8 336 242 346 450 446 343 458 565
8 446 343 458 565 333 240 344 447
8 449 347 243 335 567 460 345 448
8 451 348 244 337 568 462 347 449
8 451 348 461 569 337 244 346 450
8 570 463 349 452 473 360 257 365
8 453 350 245 338 570 463 349 452
8 455 352 247 340 571 464 350 453
8 460 357 252 345 572 465 351 454
8 572 465 351 454 456 353 248 341
8 456 353 248 341 573 466 352 455
8 344 251 356 459 457 354 468 575
8 458 355 469 576 344 251 356 459
8 346 253 358 461 458 355 469 576
8 462 359 254 347 578 471 357 460
8 348 255 359 462 461 358 472 579
8 591 474 360 473 475 361 256 363
8 475 361 256 363 594 477 362 479
8 363 256 364 482 479 362 480 603
8 590 473 365 484 481 363 482 605
8 482 364 257 365 606 483 366 485
8 559 452 367 486 484 365 485 607
8 542 436 487 609 422 324 369 488
8 525 422 488 611 407 311 371 491
8 488 369 489 612 371 261 370 490
8 491 371 490 613 373 263 372 492
8 495 386 276 377 614 503 385 493
8 614 503 385 493 561 457 342 442
8 615 501 383 494 495 386 276 377
8 496 384 274 378 615 501 383 494
8 618 500 382 497 496 384 274 378
8 619 499 381 498 497 382 272 379
8 511 408 297 393 619 499 381 498
8 620 505 387 499 500 388 278 382
8 527 424 312 408 620 505 387 499
8 502 390 506 621 384 280 388 500
8 622 507 389 501 504 392 282 386
8 502 390 280 384 622 507 389 501
8 504 392 282 386 624 509 391 503
8 624 509 391 503 575 468 354 457
8 513 410 299 395 630 527 408 511
8 631 528 411 514 512 409 300 396
8 513 410 528 631 395 299 409 512
8 519 416 305 401 633 530 411 514
8 634 531 412 515 516 413 302 398
8 523 420 309 405 634 531 412 515
8 635 532 413 516 517 414 303 399
8 521 417 533 636 403 306 414 517
8 520 418 307 402 637 534 415 518
8 519 416 534 637 401 305 415 518
8 522 419 308 404 639 537 418 520
8 522 419 536 640 404 308 417 521
8 524 421 310 406 642 539 420 523
8 524 421 541 644 406 310 423 526
8 646 543 422 525 526 423 311 407
8 529 426 314 410 647 544 424 527
8 528 425 545 648 411 315 427 530
8 529 426 545 648 410 314 425 528
8 535 429 317 416 649 546 427 530
8 650 548 430 531 532 432 320 413
8 539 438 325 420 650 548 430 531
8 533 433 550 651 414 321 432 532
8 536 434 551 652 417 322 433 533
8 537 431 319 418 653 547 428 534
8 535 429 547 653 416 317 428 534
8 538 435 552 654 419 323 434 536
8 538 435 323 419 655 549 431 537
8 540 440 327 421 657 556 438 539
8 540 440 557 659 421 327 439 541
8 541 439 555 660 423 326 437 543
8 661 554 436 542 543 437 324 422
8 676 570 452 559 590 473 365 484
8 560 453 338 441 676 570 452 559
8 562 455 340 443 677 571 453 560
8 447 344 459 566 561 457 575 678
8 564 456 341 445 679 573 455 562
8 567 460 345 448 680 572 454 563
8 680 572 454 563 564 456 341 445
8 565 458 576 682 447 344 459 566
8 450 346 461 569 565 458 576 682
8 568 462 347 449 684 578 460 567
8 451 348 462 568 569 461 579 685
8 686 580 463 570 591 474 360 473
8 571 464 350 453 686 580 463 570
8 573 466 352 455 687 581 464 571
8 572 465 582 688 460 357 471 578
8 574 467 582 688 456 353 465 572
8 574 467 353 456 689 583 466 573
8 459 356 470 577 575 468 585 691
8 576 469 586 692 459 356 470 577
8 461 358 472 579 576 469 586 692
8 462 359 471 578 579 472 588 694
8 704 591 473 590 593 475 363 481
8 595 476 592 705 475 361 474 591
8 593 475 363 481 707 594 479 602
8 594 477 362 479 709 598 478 600
8 595 476 361 475 711 597 477 594
8 479 362 480 603 600 478 601 720
8 481 363 482 605 602 479 603 722
8 603 480 364 482 723 604 483 606
8 605 482 365 484 724 606 485 607
8 656 553 608 726 542 436 487 609
8 645 542 609 728 525 422 488 611
8 609 487 610 729 488 369 489 612
8 611 488 612 730 491 371 490 613
8 616 504 386 495 731 624 503 614
8 731 624 503 614 678 575 457 561
8 732 622 501 615 616 504 386 495
8 617 502 384 496 732 622 501 615
8 617 502 621 735 496 384 500 618
8 736 620 499 619 618 500 382 497
8 630 527 408 511 736 620 499 619
8 621 506 626 737 500 388 505 620
8 647 544 424 527 737 626 505 620
8 623 508 627 738 502 390 506 621
8 623 508 390 502 739 628 507 622
8 625 510 628 739 504 392 507 622
8 740 629 509 624 691 585 468 575
8 625 510 392 504 740 629 509 624
8 632 529 410 513 744 647 527 630
8 631 528 648 745 514 411 530 633
8 632 529 648 745 513 410 528 631
8 638 535 416 519 746 649 530 633
8 747 650 531 634 635 532 413 516
8 642 539 420 523 747 650 531 634
8 636 533 651 748 517 414 532 635
8 640 536 652 749 521 417 533 636
8 639 537 418 520 750 653 534 637
8 638 535 653 750 519 416 534 637
8 641 538 419 522 751 655 537 639
8 641 538 654 752 522 419 536 640
8 643 540 421 524 753 657 539 642
8 643 540 659 755 524 421 541 644
8 644 541 660 757 526 423 543 646
8 758 661 542 645 646 543 422 525
8 529 426 544 647 648 545 662 759
8 530 427 545 648 649 546 663 760
8 535 429 546 649 653 547 664 761
8 762 666 548 650 651 550 432 532
8 657 556 438 539 762 666 548 650
8 652 551 668 763 533 433 550 651
8 654 552 669 764 536 434 551 652
8 655 549 431 537 765 665 547 653
8 538 435 549 655 654 552 667 766
8 661 554 671 768 542 436 553 656
8 658 558 440 540 769 674 556 657
8 658 558 675 770 540 440 557 659
8 659 557 673 771 541 439 555 660
8 660 555 672 772 543 437 554 661
8 788 686 570 676 704 591 473 590
8 677 571 453 560 788 686 570 676
8 679 573 455 562 789 687 571 677
8 566 459 577 683 678 575 691 790
8 681 574 456 564 791 689 573 679
8 680 572 688 792 567 460 578 684
8 681 574 688 792 564 456 572 680
8 682 576 692 794 566 459 577 683
8 569 461 579 685 682 576 692 794
8 568 462 578 684 685 579 694 796
8 687 581 464 571 798 696 580 686
8 798 696 580 686 705 592 474 591
8 689 583 466 573 799 697 581 687
8 688 582 698 800 578 471 588 694
8 690 584 698 800 574 467 582 688
8 690 584 467 574 801 699 583 689
8 693 587 701 803 577 470 585 691
8 693 587 470 577 804 702 586 692
8 695 589 702 804 579 472 586 692
8 695 589 472 579 805 703 588 694
8 708 595 705 813 593 475 591 704
8 710 596 706 814 595 476 592 705
8 707 594 479 602 816 709 600 719
8 708 595 475 593 817 711 594 707
8 709 598 478 600 819 715 599 717
8 711 597 477 594 820 714 598 709
8 710 596 476 595 822 713 597 711
8 600 478 601 720 717 599 718 832
8 602 479 603 722 719 600 720 834
8 720 601 480 603 835 721 604 723
8 722 603 482 605 836 723 606 724
8 767 670 725 839 656 553 608 726
8 756 656 726 841 645 542 609 728
8 726 608 727 842 609 487 610 729
8 728 609 729 843 611 488 612 730
8 844 740 624 731 790 691 575 678
8 733 625 504 616 844 740 624 731
8 734 623 502 617 845 739 622 732
8 733 625 739 845 616 504 622 732
8 734 623 738 846 617 502 621 735
8 735 621 737 847 618 500 620 736
8 744 647 527 630 847 737 620 736
8 621 506 627 738 737 626 741 848
8 647 544 626 737 759 662 741 848
8 623 508 628 739 738 627 742 849
8 740 629 585 691 850 743 700 802
8 625 510 629 740 739 628 743 850
8 632 529 647 744 745 648 759 854
8 633 530 648 745 746 649 760 855
8 638 535 649 746 750 653 761 856
8 857 762 650 747 748 651 532 635
8 753 657 539 642 857 762 650 747
8 749 652 763 858 636 533 651 748
8 752 654 764 859 640 536 652 749
8 751 655 537 639 860 765 653 750
8 641 538 655 751 752 654 766 861
8 754 658 540 643 862 769 657 753
8 754 658 770 863 643 540 659 755
8 755 659 771 864 644 541 660 757
8 758 661 768 866 645 542 656 756
8 757 660 772 867 646 543 661 758
8 759 662 773 868 648 545 663 760
8 649 546 663 760 761 664 774 871
8 765 665 547 653 872 775 664 761
8 873 777 666 762 763 668 550 651
8 769 674 556 657 873 777 666 762
8 764 669 779 874 652 551 668 763
8 654 552 667 766 764 669 778 875
8 655 549 665 765 766 667 776 876
8 768 671 782 877 656 553 670 767
8 772 672 783 878 661 554 671 768
8 658 558 674 769 770 675 786 879
8 659 557 675 770 771 673 785 881
8 882 784 672 772 771 673 555 660
8 789 687 571 677 897 798 686 788
8 897 798 686 788 813 705 591 704
8 791 689 573 679 898 799 687 789
8 795 693 803 900 683 577 691 790
8 793 690 574 681 901 801 689 791
8 792 688 800 902 684 578 694 796
8 793 690 800 902 681 574 688 792
8 795 693 577 683 903 804 692 794
8 797 695 804 903 685 579 692 794
8 797 695 579 685 904 805 694 796
8 905 806 697 799 798 696 581 687
8 814 706 806 905 705 592 696 798
8 689 583 697 799 801 699 808 907
8 800 698 809 908 694 588 703 805
8 690 584 699 801 800 698 809 908
8 803 701 810 909 691 585 700 802
8 693 587 702 804 803 701 811 910
8 695 589 703 805 804 702 812 911
8 818 710 814 919 708 595 705 813
8 821 712 815 920 710 596 706 814
8 816 709 600 719 922 819 717 831
8 817 711 594 707 923 820 709 816
8 818 710 595 708 924 822 711 817
8 819 715 599 717 926 827 716 829
8 820 714 598 709 927 826 715 819
8 929 825 713 822 820 714 597 711
8 821 712 596 710 930 824 713 822
8 717 599 718 832 829 716 830 942
8 719 600 720 834 831 717 832 944
8 832 718 601 720 945 833 721 835
8 834 720 603 722 946 835 723 836
8 869 780 838 950 767 670 725 839
8 865 767 839 952 756 656 726 841
8 839 725 840 953 726 608 727 842
8 841 726 842 954 728 609 729 843
8 844 740 691 790 955 850 802 899
8 733 625 740 844 845 739 850 955
8 734 623 739 845 846 738 849 956
8 735 621 738 846 847 737 848 957
8 744 647 737 847 854 759 848 957
8 738 627 742 849 848 741 851 958
8 848 741 851 958 759 662 773 868
8 850 743 700 802 959 852 807 906
8 849 742 628 739 959 852 743 850
8 854 759 868 965 745 648 760 855
8 746 649 760 855 856 761 871 966
8 860 765 653 750 967 872 761 856
8 968 873 762 857 858 763 651 748
8 862 769 657 753 968 873 762 857
8 859 764 874 969 749 652 763 858
8 752 654 766 861 859 764 875 970
8 751 655 765 860 861 766 876 971
8 754 658 769 862 863 770 879 972
8 755 659 770 863 864 771 881 974
8 976 882 772 867 864 771 660 757
8 866 768 877 977 756 656 767 865
8 867 772 878 978 758 661 768 866
8 760 663 773 868 871 774 883 980
8 870 781 837 948 982 890 780 869
8 982 890 780 869 877 782 670 767
8 761 664 774 871 872 775 884 984
8 876 776 665 765 985 885 775 872
8 873 777 668 763 986 887 779 874
8 769 674 777 873 879 786 887 986
8 764 669 778 875 874 779 888 987
8 766 667 776 876 875 778 886 988
8 878 783 892 989 768 671 782 877
8 878 783 672 772 990 893 784 882
8 880 787 675 770 991 896 786 879
8 880 787 895 992 770 675 785 881
8 881 785 894 993 771 673 784 882
8 1006 905 799 898 897 798 687 789
8 919 814 905 1006 813 705 798 897
8 791 689 799 898 901 801 907 1007
8 900 803 909 1009 790 691 802 899
8 795 693 804 903 900 803 910 1010
8 902 800 908 1011 796 694 805 904
8 793 690 801 901 902 800 908 1011
8 797 695 805 904 903 804 911 1012
8 799 697 806 905 907 808 912 1013
8 920 815 912 1013 814 706 806 905
8 802 700 810 909 906 807 913 1014
8 801 699 808 907 908 809 914 1015
8 805 703 809 908 911 812 915 1016
8 803 701 811 910 909 810 916 1017
8 911 812 917 1018 804 702 811 910
8 925 821 920 1030 818 710 814 919
8 928 823 921 1031 821 712 815 920
8 922 819 717 831 1033 926 829 941
8 923 820 709 816 1034 927 819 922
8 1035 929 822 924 923 820 711 817
8 925 821 710 818 1036 930 822 924
8 1038 933 825 929 927 826 714 820
8 926 827 716 829 1039 935 828 939
8 927 826 715 819 1040 934 827 926
8 928 823 712 821 1041 931 824 930
8 1042 932 824 930 929 825 713 822
8 829 716 830 942 939 828 940 1058
8 831 717 832 944 941 829 942 1060
8 942 830 718 832 1061 943 833 945
8 944 832 720 834 1062 945 835 946
8 981 889 947 1064 870 781 837 948
8 948 837 949 1067 869 780 838 950
8 975 869 950 1069 865 767 839 952
8 950 838 951 1070 839 725 840 953
8 952 839 953 1071 841 726 842 954
8 955 850 802 899 1072 959 906 1008
8 956 849 739 845 1072 959 850 955
8 846 738 849 956 957 848 958 1073
8 957 848 958 1073 854 759 868 965
8 849 742 852 959 958 851 961 1076
8 960 853 961 1076 906 807 852 959
8 958 851 961 1076 868 773 883 980
8 960 853 807 906 1077 963 913 1014
8 855 760 868 965 966 871 980 1085
8 856 761 871 966 967 872 984 1086
8 971 876 765 860 1087 985 872 967
8 968 873 763 858 1088 986 874 969
8 862 769 873 968 972 879 986 1088
8 859 764 875 970 969 874 987 1089
8 861 766 876 971 970 875 988 1090
8 973 880 770 863 1091 991 879 972
8 973 880 992 1092 863 770 881 974
8 974 881 993 1093 864 771 882 976
8 979 870 948 1066 1094 982 869 975
8 1094 982 869 975 977 877 767 865
8 978 878 772 867 1095 990 882 976
8 978 878 989 1096 866 768 877 977
8 871 774 883 980 984 884 994 1099
8 983 891 999 1100 870 781 889 981
8 1101 1000 890 982 989 892 782 877
8 983 891 781 870 1101 1000 890 982
8 872 775 884 984 985 885 995 1103
8 876 776 885 985 988 886 996 1104
8 986 887 779 874 1105 998 888 987
8 879 786 887 986 991 896 998 1105
8 875 778 886 988 987 888 997 1106
8 990 893 1002 1107 878 783 892 989
8 1108 1003 893 990 993 894 784 882
8 880 787 896 991 992 895 1005 1109
8 993 894 785 881 1110 1004 895 992
8 898 799 905 1006 1007 907 1013 1120
8 1030 920 1013 1120 919 814 905 1006
8 901 801 907 1007 1011 908 1015 1121
8 899 802 909 1009 1008 906 1014 1122
8 900 803 910 1010 1009 909 1017 1123
8 1012 911 1018 1124 903 804 910 1010
8 904 805 908 1011 1012 911 1016 1125
8 1013 912 1020 1127 907 808 914 1015
8 1031 921 1020 1127 920 815 912 1013
8 1019 918 962 1075 1128 1021 913 1014
8 1128 1021 913 1014 1017 916 810 909
8 1015 914 1022 1129 908 809 915 1016
8 1016 915 1023 1130 911 812 917 1018
8 1018 917 1024 1131 910 811 916 1017
8 1037 928 1031 1148 925 821 920 1030
8 928 823 931 1041 1031 921 1032 1149
8 1033 926 829 941 1151 1039 939 1057
8 1034 927 819 922 1152 1040 926 1033
8 1153 1038 929 1035 1034 927 820 923
8 1154 1042 930 1036 1035 929 822 924
8 1037 928 821 925 1155 1041 930 1036
8 1039 935 828 939 1156 1047 938 1055
8 1157 1043 932 1042 1038 933 825 929
8 1038 933 826 927 1158 1045 934 1040
8 1040 934 827 926 1159 1046 935 1039
8 930 824 932 1042 1041 931 1044 1160
8 1051 936 1048 1165 1175 1052 937 1053
8 1156 1047 938 1055 1053 937 1054 1178
8 939 828 940 1058 1055 938 1056 1181
8 941 829 942 1060 1057 939 1058 1183
8 942 830 943 1061 1058 940 1059 1184
8 1060 942 832 944 1185 1061 945 1062
8 1082 964 1063 1188 981 889 947 1064
8 1097 981 1064 1190 979 870 948 1066
8 1064 947 1065 1191 948 837 949 1067
8 1066 948 1067 1193 975 869 950 1069
8 1067 949 1068 1194 950 838 951 1070
8 1069 950 1070 1195 952 839 953 1071
8 956 849 959 1072 1073 958 1076 1197
8 1074 960 1076 1197 1008 906 959 1072
8 1073 958 1076 1197 965 868 980 1085
8 1074 960 906 1008 1198 1077 1014 1122
8 1133 1026 1079 1199 1019 918 962 1075
8 1077 963 913 1014 1200 1080 962 1075
8 960 853 963 1077 1076 961 1078 1201
8 980 883 961 1076 1099 994 1078 1201
8 1210 1083 964 1082 1100 999 889 981
8 966 871 980 1085 1086 984 1099 1215
8 967 872 984 1086 1087 985 1103 1216
8 971 876 985 1087 1090 988 1104 1217
8 1088 986 874 969 1218 1105 987 1089
8 972 879 986 1088 1091 991 1105 1218
8 970 875 988 1090 1089 987 1106 1219
8 973 880 991 1091 1092 992 1109 1220
8 1093 993 881 974 1221 1110 992 1092
8 1222 1108 990 1095 1093 993 882 976
8 1223 1101 982 1094 1096 989 877 977
8 1098 983 870 979 1223 1101 982 1094
8 1095 990 1107 1224 978 878 989 1096
8 1098 983 1100 1225 979 870 981 1097
8 984 884 994 1099 1103 995 1111 1227
8 1102 1001 1115 1228 983 891 999 1100
8 1101 1000 892 989 1229 1116 1002 1107
8 1102 1001 891 983 1229 1116 1000 1101
8 985 885 995 1103 1104 996 1112 1230
8 988 886 996 1104 1106 997 1113 1231
8 1105 998 888 987 1232 1114 997 1106
8 991 896 998 1105 1109 1005 1114 1232
8 1108 1003 1117 1233 990 893 1002 1107
8 1108 1003 894 993 1233 1117 1004 1110
8 992 895 1005 1109 1110 1004 1118 1234
8 1120 1013 1127 1244 1007 907 1015 1121
8 1148 1031 1127 1244 1030 920 1013 1120
8 1121 1015 1129 1245 1011 908 1016 1125
8 1126 1019 1075 1196 1246 1128 1014 1122
8 1246 1128 1014 1122 1123 1017 909 1009
8 1124 1018 1131 1247 1010 910 1017 1123
8 1125 1016 1130 1248 1012 911 1018 1124
8 1127 1020 1137 1254 1015 914 1022 1129
8 1031 921 1032 1149 1127 1020 1137 1254
8 1134 1027 918 1019 1257 1140 1021 1128
8 1257 1140 1021 1128 1131 1024 916 1017
8 1129 1022 1141 1258 1016 915 1023 1130
8 1130 1023 1142 1259 1018 917 1024 1131
8 1261 1144 1025 1132 1133 1026 1079 1199
8 1255 1138 1025 1132 1135 1028 1144 1261
8 1133 1026 918 1019 1262 1145 1027 1134
8 1136 1029 1139 1256 1263 1146 1028 1135
8 1037 928 1041 1155 1148 1031 1149 1275
8 1041 931 1044 1160 1149 1032 1150 1276
8 1151 1039 939 1057 1278 1156 1055 1180
8 1152 1040 926 1033 1279 1159 1039 1151
8 1153 1038 927 1034 1280 1158 1040 1152
8 1281 1157 1042 1154 1153 1038 929 1035
8 1036 930 1042 1154 1155 1041 1160 1282
8 1283 1164 1046 1159 1156 1047 935 1039
8 1165 1048 1164 1283 1053 937 1047 1156
8 1157 1043 933 1038 1284 1161 1045 1158
8 1157 1043 1161 1284 1042 932 1044 1160
8 1040 934 1046 1159 1158 1045 1163 1285
8 1166 1049 1167 1292 1051 936 1048 1165
8 1166 1049 936 1051 1293 1168 1050 1172
8 1051 936 1052 1175 1172 1050 1173 1306
8 1174 1051 1165 1290 1308 1175 1053 1177
8 1053 937 1054 1178 1175 1052 1176 1309
8 1278 1156 1055 1180 1177 1053 1178 1311
8 1055 938 1056 1181 1178 1054 1179 1312
8 1057 939 1058 1183 1180 1055 1181 1314
8 1058 940 1059 1184 1181 1056 1182 1315
8 1060 942 1061 1185 1183 1058 1184 1316
8 1208 1081 1187 1321 1082 964 1063 1188
8 1209 1082 1188 1322 1097 981 1064 1190
8 1188 1063 1189 1323 1064 947 1065 1191
8 1190 1064 1191 1325 1066 948 1067 1193
8 1191 1065 1192 1326 1067 949 1068 1194
8 1067 1193 1069 950 1194 1327 1195 1070
8 1250 1133 1199 1330 1126 1019 1075 1196
8 1198 1077 1014 1122 1331 1200 1075 1196
8 1074 960 1077 1198 1197 1076 1201 1332
8 1085 980 1076 1197 1215 1099 1201 1332
8 1199 1079 1203 1333 1075 962 1080 1200
8 1132 1025 1119 1243 1199 1079 1203 1333
8 1201 1078 963 1077 1334 1202 1080 1200
8 1099 994 1078 1201 1227 1111 1202 1334
8 1343 1207 1081 1208 1210 1083 964 1082
8 1214 1084 1186 1319 1343 1207 1081 1208
8 1345 1210 1082 1209 1225 1100 981 1097
8 1346 1211 1083 1210 1228 1115 999 1100
8 1086 984 1099 1215 1216 1103 1227 1352
8 1087 985 1103 1216 1217 1104 1230 1353
8 1090 988 1104 1217 1219 1106 1231 1354
8 1218 1105 987 1089 1355 1232 1106 1219
8 1091 991 1105 1218 1220 1109 1232 1355
8 1092 992 1109 1220 1221 1110 1234 1356
8 1222 1108 1233 1357 1095 990 1107 1224
8 1222 1108 993 1093 1357 1233 1110 1221
8 1223 1101 989 1096 1358 1229 1107 1224
8 1226 1102 983 1098 1358 1229 1101 1223
8 1226 1102 1228 1359 1098 983 1100 1225
8 1103 995 1111 1227 1230 1112 1235 1360
8 1107 1002 1117 1233 1229 1116 1240 1362
8 1102 1001 1116 1229 1228 1115 1240 1362
8 1104 996 1112 1230 1231 1113 1236 1363
8 1364 1237 1114 1232 1231 1113 997 1106
8 1109 1005 1114 1232 1234 1118 1238 1365
8 1110 1004 1118 1234 1233 1117 1241 1366
8 1242 1374 1255 1138 1119 1243 1132 1025
8 1244 1127 1254 1376 1121 1015 1129 1245
8 1148 1031 1149 1275 1244 1127 1254 1376
8 1245 1129 1258 1377 1125 1016 1130 1248
8 1251 1134 1019 1126 1378 1257 1128 1246
8 1378 1257 1128 1246 1247 1131 1017 1123
8 1248 1130 1259 1379 1124 1018 1131 1247
8 1261 1381 1250 1133 1132 1249 1330 1199
8 1255 1380 1252 1135 1132 1249 1381 1261
8 1250 1133 1019 1126 1382 1262 1134 1251
8 1253 1136 1256 1385 1384 1263 1135 1252
8 1254 1137 1265 1387 1129 1022 1141 1258
8 1149 1032 1150 1276 1254 1137 1265 1387
8 1028 1135 1255 1138 1139 1256 1388 1266
8 1136 1029 1147 1264 1256 1139 1267 1389
8 1390 1268 1140 1257 1259 1142 1024 1131
8 1260 1143 1027 1134 1390 1268 1140 1257
8 1258 1141 1269 1391 1130 1023 1142 1259
8 1262 1145 1027 1134 1393 1271 1143 1260
8 1261 1144 1026 1133 1394 1272 1145 1262
8 1135 1028 1144 1261 1263 1146 1272 1394
8 1136 1029 1146 1263 1264 1147 1273 1395
8 1155 1041 1160 1282 1275 1149 1276 1405
8 1276 1150 1044 1160 1406 1277 1162 1286
8 1408 1283 1159 1279 1278 1156 1039 1151
8 1290 1165 1283 1408 1177 1053 1156 1278
8 1152 1040 1159 1279 1280 1158 1285 1409
8 1281 1157 1038 1153 1410 1284 1158 1280
8 1281 1157 1284 1410 1154 1042 1160 1282
8 1159 1046 1164 1283 1285 1163 1289 1412
8 1292 1167 1289 1412 1165 1048 1164 1283
8 1158 1045 1163 1285 1284 1161 1288 1413
8 1284 1161 1288 1413 1160 1044 1162 1286
8 1291 1166 1292 1418 1174 1051 1165 1290
8 1291 1166 1051 1174 1419 1293 1172 1305
8 1294 1169 1296 1421 1166 1049 1167 1292
8 1293 1168 1050 1172 1422 1295 1171 1303
8 1294 1169 1049 1166 1423 1297 1168 1293
8 1422 1295 1171 1303 1301 1170 1302 1435
8 1172 1050 1173 1306 1303 1171 1304 1438
8 1174 1051 1175 1308 1305 1172 1306 1440
8 1175 1052 1176 1309 1306 1173 1307 1441
8 1177 1053 1178 1311 1308 1175 1309 1443
8 1178 1054 1179 1312 1309 1176 1310 1444
8 1180 1055 1181 1314 1311 1178 1312 1446
8 1056 1181 1312 1179 1182 1315 1447 1313
8 1183 1058 1184 1316 1314 1181 1315 1448
8 1319 1186 1084 1214 1451 1317 1213 1350
8 1319 1186 1318 1453 1208 1081 1187 1321
8 1321 1187 1320 1456 1188 1063 1189 1323
8 1344 1208 1321 1457 1209 1082 1188 1322
8 1322 1188 1323 1458 1190 1064 1191 1325
8 1323 1189 1324 1459 1191 1065 1192 1326
8 1191 1325 1193 1067 1326 1460 1327 1194
8 1242 1374 1243 1119 1328 1462 1335 1204
8 1330 1199 1333 1465 1196 1075 1200 1331
8 1132 1249 1330 1199 1243 1375 1465 1333
8 1332 1201 1077 1198 1466 1334 1200 1331
8 1215 1099 1201 1332 1352 1227 1334 1466
8 1119 1243 1333 1203 1204 1335 1470 1338
8 1333 1203 1338 1470 1200 1080 1202 1334
8 1227 1111 1202 1334 1360 1235 1338 1470
8 1328 1462 1335 1204 1205 1336 1471 1339
8 1337 1206 1340 1472 1464 1329 1205 1336
8 1346 1211 1342 1479 1210 1083 1207 1343
8 1346 1211 1115 1228 1479 1342 1239 1361
8 1348 1212 1084 1214 1479 1342 1207 1343
8 1480 1343 1208 1344 1345 1210 1082 1209
8 1351 1214 1319 1454 1480 1343 1208 1344
8 1481 1346 1210 1345 1359 1228 1100 1225
8 1348 1212 1347 1483 1214 1084 1213 1350
8 1216 1103 1227 1352 1353 1230 1360 1488
8 1217 1104 1230 1353 1354 1231 1363 1489
8 1490 1364 1232 1355 1354 1231 1106 1219
8 1220 1109 1232 1355 1356 1234 1365 1491
8 1221 1110 1234 1356 1357 1233 1366 1492
8 1224 1107 1233 1357 1358 1229 1362 1493
8 1226 1102 1229 1358 1359 1228 1362 1493
8 1230 1112 1235 1360 1363 1236 1367 1496
8 1361 1239 1115 1228 1497 1371 1240 1362
8 1366 1241 1372 1498 1233 1117 1240 1362
8 1364 1237 1113 1231 1499 1368 1236 1363
8 1364 1237 1368 1499 1232 1114 1238 1365
8 1234 1118 1238 1365 1366 1241 1369 1500
8 1507 1373 1242 1374 1388 1266 1138 1255
8 1508 1374 1243 1375 1380 1255 1132 1249
8 1376 1254 1387 1509 1245 1129 1258 1377
8 1275 1149 1276 1405 1376 1254 1387 1509
8 1377 1258 1391 1510 1248 1130 1259 1379
8 1511 1390 1257 1378 1379 1259 1131 1247
8 1383 1260 1134 1251 1511 1390 1257 1378
8 1252 1135 1256 1385 1380 1255 1388 1512
8 1261 1381 1513 1394 1133 1250 1382 1262
8 1135 1252 1384 1263 1261 1381 1513 1394
8 1382 1262 1134 1251 1514 1393 1260 1383
8 1253 1136 1263 1384 1386 1264 1395 1516
8 1253 1136 1264 1386 1385 1256 1389 1517
8 1387 1265 1397 1519 1258 1141 1269 1391
8 1276 1150 1277 1406 1387 1265 1397 1519
8 1256 1139 1267 1389 1388 1266 1398 1520
8 1264 1147 1274 1396 1389 1267 1399 1521
8 1392 1270 1143 1260 1522 1400 1268 1390
8 1390 1268 1142 1259 1522 1400 1269 1391
8 1392 1270 1401 1523 1260 1143 1271 1393
8 1272 1394 1524 1402 1145 1262 1393 1271
8 1395 1273 1146 1263 1524 1402 1272 1394
8 1273 1395 1264 1147 1403 1526 1396 1274
8 1405 1276 1160 1282 1534 1406 1286 1411
8 1414 1287 1407 1535 1286 1162 1277 1406
8 1279 1159 1283 1408 1409 1285 1412 1537
8 1418 1292 1412 1537 1290 1165 1283 1408
8 1280 1158 1285 1409 1410 1284 1413 1538
8 1410 1284 1413 1538 1282 1160 1286 1411
8 1285 1163 1289 1412 1413 1288 1417 1540
8 1421 1296 1417 1540 1292 1167 1289 1412
8 1414 1287 1162 1286 1541 1416 1288 1413
8 1420 1294 1421 1545 1291 1166 1292 1418
8 1419 1293 1172 1305 1546 1422 1303 1437
8 1420 1294 1166 1291 1547 1423 1293 1419
8 1294 1169 1297 1423 1421 1296 1425 1548
8 1423 1297 1168 1293 1549 1424 1295 1422
8 1301 1170 1298 1427 1422 1295 1424 1549
8 1432 1300 1428 1554 1301 1170 1298 1427
8 1431 1299 1428 1554 1560 1430 1300 1432
8 1563 1433 1300 1432 1435 1302 1170 1301
8 1546 1422 1303 1437 1434 1301 1435 1565
8 1303 1171 1304 1438 1435 1302 1436 1566
8 1305 1172 1306 1440 1437 1303 1438 1568
8 1306 1173 1307 1441 1438 1304 1439 1569
8 1308 1175 1309 1443 1440 1306 1441 1571
8 1309 1176 1310 1444 1441 1307 1442 1572
8 1311 1178 1312 1446 1443 1309 1444 1574
8 1179 1312 1444 1310 1313 1447 1575 1445
8 1314 1181 1315 1448 1446 1312 1447 1576
8 1350 1213 1349 1486 1451 1317 1449 1579
8 1451 1317 1450 1581 1319 1186 1318 1453
8 1454 1319 1214 1351 1582 1451 1350 1487
8 1453 1318 1452 1584 1321 1187 1320 1456
8 1454 1319 1453 1585 1344 1208 1321 1457
8 1456 1320 1455 1586 1323 1189 1324 1459
8 1457 1321 1456 1587 1322 1188 1323 1458
8 1458 1323 1459 1588 1325 1191 1326 1460
8 1205 1336 1464 1329 1328 1462 1590 1461
8 1507 1373 1461 1590 1374 1242 1328 1462
8 1508 1374 1462 1591 1375 1243 1335 1467
8 1337 1206 1329 1464 1473 1341 1463 1594
8 1375 1243 1335 1467 1465 1333 1470 1596
8 1465 1333 1470 1596 1331 1200 1334 1466
8 1352 1227 1334 1466 1488 1360 1470 1596
8 1591 1462 1336 1468 1467 1335 1471 1597
8 1469 1337 1472 1598 1595 1464 1336 1468
8 1471 1339 1474 1600 1335 1204 1338 1470
8 1600 1474 1367 1496 1470 1338 1235 1360
8 1336 1205 1340 1472 1471 1339 1475 1601
8 1337 1206 1341 1473 1472 1340 1476 1602
8 1495 1370 1478 1609 1361 1239 1342 1479
8 1348 1212 1342 1479 1483 1347 1478 1609
8 1481 1346 1479 1610 1345 1210 1343 1480
8 1481 1346 1228 1359 1610 1479 1361 1494
8 1484 1348 1214 1351 1610 1479 1343 1480
8 1483 1347 1482 1612 1350 1213 1349 1486
8 1484 1348 1483 1613 1351 1214 1350 1487
8 1353 1230 1360 1488 1489 1363 1496 1616
8 1490 1364 1231 1354 1617 1499 1363 1489
8 1490 1364 1499 1617 1355 1232 1365 1491
8 1356 1234 1365 1491 1492 1366 1500 1619
8 1492 1366 1498 1620 1357 1233 1362 1493
8 1494 1361 1228 1359 1621 1497 1362 1493
8 1495 1370 1239 1361 1622 1504 1371 1497
8 1363 1236 1367 1496 1499 1368 1501 1623
8 1497 1371 1240 1362 1624 1505 1372 1498
8 1625 1503 1372 1498 1500 1369 1241 1366
8 1365 1238 1368 1499 1500 1369 1502 1626
8 1520 1398 1506 1633 1388 1266 1373 1507
8 1634 1507 1374 1508 1512 1388 1255 1380
8 1509 1387 1519 1635 1377 1258 1391 1510
8 1405 1276 1406 1534 1509 1387 1519 1635
8 1515 1392 1260 1383 1636 1522 1390 1511
8 1511 1390 1259 1379 1636 1522 1391 1510
8 1385 1256 1389 1517 1512 1388 1520 1637
8 1513 1394 1262 1382 1638 1524 1393 1514
8 1395 1516 1638 1524 1263 1384 1513 1394
8 1515 1392 1523 1639 1383 1260 1393 1514
8 1516 1395 1526 1640 1386 1264 1396 1518
8 1386 1264 1396 1518 1517 1389 1521 1641
8 1519 1397 1527 1643 1391 1269 1400 1522
8 1535 1407 1527 1643 1406 1277 1397 1519
8 1389 1267 1399 1521 1520 1398 1528 1644
8 1645 1529 1399 1521 1525 1404 1274 1396
8 1392 1270 1400 1522 1523 1401 1531 1646
8 1524 1402 1271 1393 1648 1532 1401 1523
8 1403 1526 1648 1532 1273 1395 1524 1402
8 1525 1404 1274 1396 1649 1533 1403 1526
8 1539 1414 1535 1657 1411 1286 1406 1534
8 1542 1415 1536 1658 1414 1287 1407 1535
8 1409 1285 1412 1537 1538 1413 1540 1660
8 1545 1421 1540 1660 1418 1292 1412 1537
8 1539 1414 1286 1411 1661 1541 1413 1538
8 1540 1417 1544 1663 1413 1288 1416 1541
8 1421 1296 1425 1548 1540 1417 1544 1663
8 1542 1415 1287 1414 1664 1543 1416 1541
8 1420 1294 1423 1547 1545 1421 1548 1666
8 1547 1423 1293 1419 1667 1549 1422 1546
8 1434 1301 1427 1553 1546 1422 1549 1667
8 1423 1297 1424 1549 1548 1425 1550 1668
8 1551 1426 1550 1668 1427 1298 1424 1549
8 1551 1426 1298 1427 1671 1552 1428 1554
8 1562 1432 1554 1674 1434 1301 1427 1553
8 1431 1299 1429 1558 1554 1428 1555 1675
8 1431 1299 1430 1560 1558 1429 1557 1680
8 1560 1430 1300 1432 1683 1559 1433 1563
8 1561 1431 1554 1674 1684 1560 1432 1562
8 1685 1563 1432 1562 1565 1435 1301 1434
8 1435 1302 1436 1566 1563 1433 1564 1686
8 1437 1303 1438 1568 1565 1435 1566 1688
8 1438 1304 1439 1569 1566 1436 1567 1689
8 1440 1306 1441 1571 1568 1438 1569 1691
8 1441 1307 1442 1572 1569 1439 1570 1692
8 1443 1309 1444 1574 1571 1441 1572 1694
8 1310 1444 1572 1442 1445 1575 1695 1573
8 1446 1312 1447 1576 1574 1444 1575 1696
8 1486 1349 1485 1614 1579 1449 1577 1699
8 1451 1317 1449 1579 1581 1450 1578 1701
8 1487 1350 1486 1615 1582 1451 1579 1702
8 1581 1450 1580 1704 1453 1318 1452 1584
8 1582 1451 1581 1705 1454 1319 1453 1585
8 1584 1452 1583 1706 1456 1320 1455 1586
8 1585 1453 1584 1707 1457 1321 1456 1587
8 1587 1456 1586 1708 1458 1323 1459 1588
8 1633 1506 1589 1710 1507 1373 1461 1590
8 1464 1329 1461 1590 1594 1463 1589 1710
8 1468 1336 1462 1591 1595 1464 1590 1711
8 1634 1507 1590 1711 1508 1374 1462 1591
8 1473 1341 1463 1594 1603 1477 1593 1716
8 1469 1337 1464 1595 1599 1473 1594 1717
8 1471 1597 1467 1335 1600 1718 1596 1470
8 1718 1600 1496 1616 1596 1470 1360 1488
8 1336 1468 1597 1471 1472 1598 1719 1601
8 1469 1337 1473 1599 1598 1472 1602 1720
8 1722 1604 1501 1623 1600 1474 1367 1496
8 1475 1601 1471 1339 1604 1722 1600 1474
8 1602 1476 1605 1723 1472 1340 1475 1601
8 1476 1602 1724 1606 1341 1473 1603 1477
8 1483 1347 1478 1609 1612 1482 1608 1731
8 1495 1370 1504 1622 1609 1478 1608 1731
8 1618 1495 1609 1732 1494 1361 1479 1610
8 1484 1348 1479 1610 1613 1483 1609 1732
8 1486 1349 1482 1612 1614 1485 1611 1733
8 1613 1483 1612 1734 1487 1350 1486 1615
8 1489 1363 1496 1616 1617 1499 1623 1736
8 1491 1365 1499 1617 1619 1500 1626 1737
8 1618 1495 1361 1494 1738 1622 1497 1621
8 1739 1625 1498 1620 1619 1500 1366 1492
8 1621 1497 1362 1493 1740 1624 1498 1620
8 1742 1631 1504 1622 1624 1505 1371 1497
8 1743 1628 1502 1626 1623 1501 1368 1499
8 1744 1630 1505 1624 1625 1503 1372 1498
8 1745 1629 1503 1625 1626 1502 1369 1500
8 1520 1398 1528 1644 1633 1506 1632 1751
8 1637 1520 1633 1752 1512 1388 1507 1634
8 1635 1519 1643 1753 1510 1391 1522 1636
8 1657 1535 1643 1753 1534 1406 1519 1635
8 1515 1392 1522 1636 1639 1523 1646 1754
8 1517 1389 1521 1641 1637 1520 1644 1755
8 1524 1638 1756 1648 1393 1514 1639 1523
8 1640 1526 1395 1516 1756 1648 1524 1638
8 1642 1525 1396 1518 1757 1649 1526 1640
8 1758 1645 1521 1641 1642 1525 1396 1518
8 1646 1531 1400 1522 1760 1650 1527 1643
8 1535 1407 1536 1658 1643 1527 1650 1760
8 1521 1399 1529 1645 1644 1528 1651 1761
8 1647 1530 1652 1762 1525 1404 1529 1645
8 1401 1523 1648 1532 1531 1646 1763 1655
8 1525 1404 1533 1649 1647 1530 1654 1765
8 1533 1649 1766 1656 1403 1526 1648 1532
8 1662 1542 1658 1774 1539 1414 1535 1657
8 1542 1415 1543 1664 1658 1536 1659 1775
8 1660 1540 1663 1777 1538 1413 1541 1661
8 1545 1421 1548 1666 1660 1540 1663 1777
8 1662 1542 1414 1539 1778 1664 1541 1661
8 1664 1543 1416 1541 1779 1665 1544 1663
8 1548 1425 1550 1668 1663 1544 1665 1779
8 1547 1423 1549 1667 1666 1548 1668 1781
8 1670 1551 1668 1781 1553 1427 1549 1667
8 1551 1426 1552 1671 1668 1550 1669 1782
8 1670 1551 1427 1553 1784 1671 1554 1674
8 1675 1555 1672 1785 1554 1428 1552 1671
8 1678 1556 1673 1789 1558 1429 1555 1675
8 1561 1431 1558 1681 1674 1554 1675 1790
8 1794 1677 1556 1678 1680 1557 1429 1558
8 1560 1430 1559 1683 1680 1557 1679 1797
8 1561 1431 1560 1684 1681 1558 1680 1798
8 1563 1433 1564 1686 1683 1559 1682 1800
8 1684 1560 1432 1562 1801 1683 1563 1685
8 1565 1435 1566 1688 1685 1563 1686 1802
8 1566 1436 1567 1689 1686 1564 1687 1803
8 1568 1438 1569 1691 1688 1566 1689 1805
8 1569 1439 1570 1692 1689 1567 1690 1806
8 1571 1441 1572 1694 1691 1569 1692 1808
8 1442 1572 1692 1570 1573 1695 1809 1693
8 1574 1444 1575 1696 1694 1572 1695 1810
8 1614 1485 1592 1712 1699 1577 1697 1813
8 1579 1449 1577 1699 1701 1578 1698 1815
8 1615 1486 1614 1735 1702 1579 1699 1816
8 1701 1578 1700 1818 1581 1450 1580 1704
8 1582 1451 1579 1702 1705 1581 1701 1819
8 1704 1580 1703 1820 1584 1452 1583 1706
8 1705 1581 1704 1821 1585 1453 1584 1707
8 1707 1584 1706 1822 1587 1456 1586 1708
8 1710 1589 1506 1633 1824 1709 1632 1751
8 1594 1463 1589 1710 1716 1593 1709 1824
8 1752 1633 1710 1825 1634 1507 1590 1711
8 1595 1464 1590 1711 1717 1594 1710 1825
8 1830 1714 1592 1712 1733 1611 1485 1614
8 1603 1477 1593 1716 1725 1607 1715 1834
8 1599 1473 1594 1717 1721 1603 1716 1835
8 1837 1722 1623 1736 1718 1600 1496 1616
8 1719 1601 1722 1837 1597 1471 1600 1718
8 1602 1720 1598 1472 1723 1838 1719 1601
8 1720 1602 1473 1599 1839 1724 1603 1721
8 1723 1605 1726 1840 1601 1475 1604 1722
8 1840 1726 1628 1743 1722 1604 1501 1623
8 1724 1606 1727 1841 1602 1476 1605 1723
8 1725 1607 1728 1842 1603 1477 1606 1724
8 1612 1482 1608 1731 1733 1611 1730 1849
8 1741 1627 1730 1849 1622 1504 1608 1731
8 1613 1483 1609 1732 1734 1612 1731 1850
8 1618 1495 1622 1738 1732 1609 1731 1850
8 1615 1486 1612 1734 1735 1614 1733 1851
8 1852 1743 1626 1737 1736 1623 1499 1617
8 1853 1745 1625 1739 1737 1626 1500 1619
8 1855 1742 1622 1738 1740 1624 1497 1621
8 1856 1744 1624 1740 1739 1625 1498 1620
8 1741 1627 1504 1622 1857 1746 1631 1742
8 1742 1631 1505 1624 1858 1749 1630 1744
8 1859 1747 1629 1745 1743 1628 1502 1626
8 1860 1748 1630 1744 1745 1629 1503 1625
8 1644 1528 1651 1761 1751 1632 1750 1865
8 1637 1520 1644 1755 1752 1633 1751 1866
8 1754 1646 1522 1636 1867 1760 1643 1753
8 1657 1535 1658 1774 1753 1643 1760 1867
8 1639 1523 1646 1754 1756 1648 1763 1868
8 1641 1521 1645 1758 1755 1644 1761 1869
8 1757 1649 1526 1640 1870 1766 1648 1756
8 1642 1525 1649 1757 1759 1647 1765 1871
8 1759 1647 1762 1872 1642 1525 1645 1758
8 1760 1650 1767 1874 1646 1531 1655 1763
8 1658 1536 1659 1775 1760 1650 1767 1874
8 1762 1652 1768 1875 1645 1529 1651 1761
8 1764 1653 1769 1876 1647 1530 1652 1762
8 1656 1766 1877 1773 1532 1648 1763 1655
8 1771 1879 1765 1654 1653 1764 1647 1530
8 1533 1649 1765 1654 1656 1766 1880 1772
8 1662 1542 1664 1778 1774 1658 1775 1887
8 1664 1543 1665 1779 1775 1659 1776 1888
8 1778 1664 1541 1661 1890 1779 1663 1777
8 1666 1548 1668 1781 1777 1663 1779 1890
8 1782 1669 1780 1891 1668 1550 1665 1779
8 1670 1551 1671 1784 1781 1668 1782 1893
8 1671 1552 1672 1785 1782 1669 1783 1894
8 1790 1675 1785 1896 1674 1554 1671 1784
8 1675 1555 1673 1789 1785 1672 1786 1897
8 1792 1676 1788 1903 1678 1556 1673 1789
8 1795 1678 1789 1904 1681 1558 1675 1790
8 1792 1676 1556 1678 1906 1791 1677 1794
8 1680 1557 1679 1797 1794 1677 1793 1909
8 1910 1794 1678 1795 1798 1680 1558 1681
8 1683 1559 1682 1800 1797 1679 1796 1912
8 1684 1560 1683 1801 1798 1680 1797 1913
8 1686 1564 1687 1803 1800 1682 1799 1915
8 1685 1563 1686 1802 1801 1683 1800 1916
8 1688 1566 1689 1805 1802 1686 1803 1917
8 1689 1567 1690 1806 1803 1687 1804 1918
8 1691 1569 1692 1808 1805 1689 1806 1920
8 1692 1570 1693 1809 1806 1690 1807 1921
8 1694 1572 1695 1810 1808 1692 1809 1922
8 1829 1713 1811 1926 1712 1592 1697 1813
8 1813 1697 1812 1928 1699 1577 1698 1815
8 1735 1614 1712 1828 1816 1699 1813 1929
8 1815 1698 1814 1931 1701 1578 1700 1818
8 1702 1579 1699 1816 1819 1701 1815 1932
8 1818 1700 1817 1933 1704 1580 1703 1820
8 1819 1701 1818 1934 1705 1581 1704 1821
8 1821 1704 1820 1935 1707 1584 1706 1822
8 1824 1709 1632 1751 1937 1823 1750 1865
8 1716 1593 1709 1824 1834 1715 1823 1937
8 1825 1710 1633 1752 1938 1824 1751 1866
8 1717 1594 1710 1825 1835 1716 1824 1938
8 1945 1830 1712 1828 1851 1733 1614 1735
8 1830 1714 1831 1946 1712 1592 1713 1829
8 1947 1832 1714 1830 1849 1730 1611 1733
8 1843 1729 1607 1725 1950 1833 1715 1834
8 1721 1603 1716 1835 1836 1725 1834 1951
8 1836 1725 1842 1953 1721 1603 1724 1839
8 1723 1838 1719 1601 1840 1954 1837 1722
8 1954 1840 1743 1852 1837 1722 1623 1736
8 1724 1839 1720 1602 1841 1955 1838 1723
8 1841 1727 1844 1956 1723 1605 1726 1840
8 1956 1844 1747 1859 1840 1726 1628 1743
8 1728 1842 1724 1606 1845 1957 1841 1727
8 1725 1607 1729 1843 1842 1728 1846 1958
8 1741 1627 1746 1857 1849 1730 1848 1965
8 1734 1612 1731 1850 1851 1733 1849 1966
8 1854 1741 1849 1966 1738 1622 1731 1850
8 1967 1859 1745 1853 1852 1743 1626 1737
8 1968 1860 1744 1856 1853 1745 1625 1739
8 1854 1741 1622 1738 1969 1857 1742 1855
8 1855 1742 1624 1740 1970 1858 1744 1856
8 1857 1746 1631 1742 1971 1861 1749 1858
8 1858 1749 1630 1744 1972 1863 1748 1860
8 1859 1747 1862 1973 1745 1629 1748 1860
8 1875 1768 1864 1977 1761 1651 1750 1865
8 1755 1644 1761 1869 1866 1751 1865 1978
8 1867 1760 1874 1979 1754 1646 1763 1868
8 1774 1658 1775 1887 1867 1760 1874 1979
8 1870 1766 1648 1756 1980 1877 1763 1868
8 1872 1762 1875 1981 1758 1645 1761 1869
8 1757 1649 1766 1870 1871 1765 1880 1982
8 1983 1879 1764 1873 1871 1765 1647 1759
8 1873 1764 1876 1984 1759 1647 1762 1872
8 1877 1773 1655 1763 1986 1881 1767 1874
8 1775 1659 1776 1888 1874 1767 1881 1986
8 1876 1769 1882 1987 1762 1652 1768 1875
8 1878 1770 1883 1988 1764 1653 1769 1876
8 1880 1772 1656 1766 1989 1886 1773 1877
8 1878 1770 1653 1764 1990 1884 1771 1879
8 1765 1654 1772 1880 1879 1771 1885 1991
8 1778 1664 1779 1890 1887 1775 1888 1997
8 1998 1889 1776 1888 1891 1780 1665 1779
8 1893 1782 1891 2000 1781 1668 1779 1890
8 1894 1783 1892 2001 1782 1669 1780 1891
8 1784 1671 1785 1896 1893 1782 1894 2003
8 1897 1786 1895 2004 1785 1672 1783 1894
8 1790 1675 1789 1904 1896 1785 1897 2006
8 1901 1787 1898 2007 1789 1673 1786 1897
8 1903 1788 1900 2013 1789 1673 1787 1901
8 1792 1676 1791 1906 1903 1788 1902 2016
8 1907 1792 1903 2017 1795 1678 1789 1904
8 1906 1791 1677 1794 2019 1905 1793 1909
8 1907 1792 1678 1795 2020 1906 1794 1910
8 1797 1679 1796 1912 1909 1793 1908 2022
8 1798 1680 1797 1913 1910 1794 1909 2023
8 1800 1682 1799 1915 1912 1796 1911 2025
8 1801 1683 1800 1916 1913 1797 1912 2026
8 1803 1687 1804 1918 1915 1799 1914 2028
8 1802 1686 1803 1917 1916 1800 1915 2029
8 1805 1689 1806 1920 1917 1803 1918 2030
8 1806 1690 1807 1921 1918 1804 1919 2031
8 1808 1692 1809 1922 1920 1806 1921 2032
8 1939 1826 1924 2037 1829 1713 1811 1926
8 1926 1811 1925 2039 1813 1697 1812 1928
8 1944 1829 1926 2040 1828 1712 1813 1929
8 1928 1812 1927 2042 1815 1698 1814 1931
8 1929 1813 1928 2043 1816 1699 1815 1932
8 1931 1814 1930 2044 1818 1700 1817 1933
8 1932 1815 1931 2045 1819 1701 1818 1934
8 1934 1818 1933 2046 1821 1704 1820 1935
8 2048 1936 1823 1937 1977 1864 1750 1865
8 1950 1833 1715 1834 2048 1936 1823 1937
8 1938 1824 1751 1866 2049 1937 1865 1978
8 1835 1716 1824 1938 1951 1834 1937 2049
8 1939 1826 1713 1829 2053 1942 1831 1946
8 1940 1827 1923 2035 2053 1942 1826 1939
8 1945 1830 1946 2058 1828 1712 1829 1944
8 2059 1947 1830 1945 1966 1849 1733 1851
8 1947 1832 1730 1849 2060 1948 1848 1965
8 1947 1832 1948 2060 1830 1714 1831 1946
8 1959 1847 1729 1843 2063 1949 1833 1950
8 1952 1843 1725 1836 2064 1950 1834 1951
8 1836 1725 1843 1952 1953 1842 1958 2066
8 1953 1842 1957 2067 1839 1724 1841 1955
8 1841 1955 1838 1723 1956 2068 1954 1840
8 2068 1956 1859 1967 1954 1840 1743 1852
8 1956 1844 1960 2069 1859 1747 1862 1973
8 1845 1957 1841 1727 1960 2069 1956 1844
8 1728 1842 1957 1845 1846 1958 2071 1961
8 1962 2072 1959 1847 1846 1958 1843 1729
8 1971 1861 1964 2077 1857 1746 1848 1965
8 1854 1741 1857 1969 1966 1849 1965 2078
8 1967 1859 1973 2079 1853 1745 1860 1968
8 1970 1858 1744 1856 2080 1972 1860 1968
8 1969 1857 1742 1855 2081 1971 1858 1970
8 1971 1861 1749 1858 2082 1974 1863 1972
8 1973 1862 1975 2083 1860 1748 1863 1972
8 1987 1882 1976 2086 1875 1768 1864 1977
8 1981 1875 1977 2087 1869 1761 1865 1978
8 1980 1877 1763 1868 2088 1986 1874 1979
8 1887 1775 1888 1997 1979 1874 1986 2088
8 1880 1982 2089 1989 1766 1870 1980 1877
8 1984 1876 1987 2090 1872 1762 1875 1981
8 1765 1871 1983 1879 1880 1982 2091 1991
8 1985 1878 1764 1873 2092 1990 1879 1983
8 1985 1878 1988 2093 1873 1764 1876 1984
8 2094 1992 1881 1986 1998 1889 1776 1888
8 1986 1881 1992 2094 1877 1773 1886 1989
8 1988 1883 1993 2095 1876 1769 1882 1987
8 1878 1770 1884 1990 1988 1883 1994 2096
8 1991 1885 1772 1880 2097 1996 1886 1989
8 1879 1771 1885 1991 1990 1884 1995 2098
8 2103 1998 1888 1997 2000 1891 1779 1890
8 2104 1999 1889 1998 2001 1892 1780 1891
8 2003 1894 2001 2106 1893 1782 1891 2000
8 2004 1895 2002 2107 1894 1783 1892 2001
8 2006 1897 2004 2109 1896 1785 1894 2003
8 2007 1898 2005 2110 1897 1786 1895 2004
8 2014 1901 2007 2112 1904 1789 1897 2006
8 2011 1899 2008 2113 1901 1787 1898 2007
8 2119 2010 1899 2011 2013 1900 1787 1901
8 2016 1902 2012 2122 1903 1788 1900 2013
8 2017 1903 2013 2123 1904 1789 1901 2014
8 1906 1791 1905 2019 2016 1902 2015 2125
8 1907 1792 1906 2020 2017 1903 2016 2126
8 1909 1793 1908 2022 2019 1905 2018 2128
8 2020 1906 1794 1910 2129 2019 1909 2023
8 1912 1796 1911 2025 2022 1908 2021 2131
8 1913 1797 1912 2026 2023 1909 2022 2132
8 1915 1799 1914 2028 2025 1911 2024 2134
8 1916 1800 1915 2029 2026 1912 2025 2135
8 1918 1804 1919 2031 2028 1914 2027 2136
8 1917 1803 1918 2030 2029 1915 2028 2137
8 1920 1806 1921 2032 2030 1918 2031 2138
8 1940 1827 1941 2054 2035 1923 2033 2140
8 2035 1923 2034 2143 1939 1826 1924 2037
8 2037 1924 2036 2146 1926 1811 1925 2039
8 2051 1939 2037 2147 1944 1829 1926 2040
8 2039 1925 2038 2149 1928 1812 1927 2042
8 2040 1926 2039 2150 1929 1813 1928 2043
8 2042 1927 2041 2151 1931 1814 1930 2044
8 2043 1928 2042 2152 1932 1815 1931 2045
8 2045 1931 2044 2153 1934 1818 1933 2046
8 2155 2047 1936 2048 2086 1976 1864 1977
8 2063 1949 1833 1950 2155 2047 1936 2048
8 2156 2048 1937 2049 2087 1977 1865 1978
8 2064 1950 1834 1951 2156 2048 1937 2049
8 2051 1939 1829 1944 2160 2053 1946 2058
8 2052 1940 2035 2144 2160 2053 1939 2051
8 2053 1942 1831 1946 2163 2057 1948 2060
8 2055 1943 1827 1940 2163 2057 1942 2053
8 2055 1943 2056 2164 1940 1827 1941 2054
8 2059 1947 1849 1966 2167 2060 1965 2078
8 2059 1947 2060 2167 1945 1830 1946 2058
8 2077 1964 2061 2168 1965 1848 1948 2060
8 2070 1963 1847 1959 2170 2062 1949 2063
8 2065 1959 1843 1952 2171 2063 1950 2064
8 2173 2072 1958 2066 2065 1959 1843 1952
8 1953 1842 1958 2066 2067 1957 2071 2174
8 2068 1956 2069 2175 1967 1859 1973 2079
8 2067 1957 2069 2175 1955 1841 1956 2068
8 1845 1957 2069 1960 1961 2071 2176 2073
8 2069 1960 2073 2176 1973 1862 1975 2083
8 2070 1963 2075 2177 1959 1847 1962 2072
8 1846 1958 2071 1961 1962 2072 2178 2074
8 2077 1964 1861 1971 2182 2076 1974 2082
8 2081 1971 2077 2183 1969 1857 1965 2078
8 2079 1973 2083 2184 1968 1860 1972 2080
8 2081 1971 1858 1970 2185 2082 1972 2080
8 2083 1975 2084 2186 1972 1863 1974 2082
8 2086 1976 1882 1987 2189 2085 1993 2095
8 2090 1987 2086 2190 1981 1875 1977 2087
8 2191 2094 1986 2088 2103 1998 1888 1997
8 2088 1986 2094 2191 1980 1877 1989 2089
8 1991 2091 2192 2097 1880 1982 2089 1989
8 2093 1988 2095 2193 1984 1876 1987 2090
8 1879 1983 2092 1990 1991 2091 2194 2098
8 1985 1878 1990 2092 2093 1988 2096 2195
8 2097 1996 1886 1989 2196 2099 1992 2094
8 2196 2099 1992 2094 2104 1999 1889 1998
8 1994 2096 1988 1883 2100 2197 2095 1993
8 2096 1994 1884 1990 2198 2101 1995 2098
8 1995 2098 2199 2102 1885 1991 2097 1996
8 2203 2104 1998 2103 2106 2001 1891 2000
8 2107 2002 2105 2204 2001 1892 1999 2104
8 2109 2004 2107 2206 2003 1894 2001 2106
8 2110 2005 2108 2207 2004 1895 2002 2107
8 2112 2007 2110 2209 2006 1897 2004 2109
8 2113 2008 2111 2210 2007 1898 2005 2110
8 2120 2011 2113 2212 2014 1901 2007 2112
8 2117 2009 2114 2213 2011 1899 2008 2113
8 2219 2116 2009 2117 2119 2010 1899 2011
8 2222 2118 2010 2119 2122 2012 1900 2013
8 2223 2119 2011 2120 2123 2013 1901 2014
8 2016 1902 2015 2125 2122 2012 2121 2225
8 2126 2016 2122 2226 2017 1903 2013 2123
8 2019 1905 2018 2128 2125 2015 2124 2228
8 2020 1906 2019 2129 2126 2016 2125 2229
8 2022 1908 2021 2131 2128 2018 2127 2231
8 2023 1909 2022 2132 2129 2019 2128 2232
8 2025 1911 2024 2134 2131 2021 2130 2234
8 2026 1912 2025 2135 2132 2022 2131 2235
8 1914 2028 2134 2024 2027 2136 2236 2133
8 2029 1915 2028 2137 2135 2025 2134 2237
8 2030 1918 2031 2138 2137 2028 2136 2238
8 2157 2050 2139 2240 2054 1941 2033 2140
8 2052 1940 2054 2161 2144 2035 2140 2242
8 2140 2033 2141 2243 2035 1923 2034 2143
8 2143 2034 2142 2246 2037 1924 2036 2146
8 2144 2035 2143 2247 2051 1939 2037 2147
8 2146 2036 2145 2249 2039 1925 2038 2149
8 2147 2037 2146 2250 2040 1926 2039 2150
8 2149 2038 2148 2251 2042 1927 2041 2151
8 2150 2039 2149 2252 2043 1928 2042 2152
8 2152 2042 2151 2253 2045 1931 2044 2153
8 2255 2154 2047 2155 2189 2085 1976 2086
8 2170 2062 1949 2063 2255 2154 2047 2155
8 2256 2155 2048 2156 2190 2086 1977 2087
8 2171 2063 1950 2064 2256 2155 2048 2156
8 2258 2159 2050 2157 2164 2056 1941 2054
8 2160 2053 1946 2058 2262 2163 2060 2167
8 2162 2055 1940 2052 2262 2163 2053 2160
8 2162 2055 2164 2263 2052 1940 2054 2161
8 2163 2057 1948 2060 2264 2165 2061 2168
8 2055 1943 2057 2163 2164 2056 2165 2264
8 2182 2076 2166 2268 2077 1964 2061 2168
8 2183 2077 2168 2269 2078 1965 2060 2167
8 2070 1963 2062 2170 2177 2075 2169 2271
8 2172 2070 1959 2065 2272 2170 2063 2171
8 2172 2070 2177 2273 2065 1959 2072 2173
8 2066 1958 2072 2173 2174 2071 2178 2274
8 2067 1957 2071 2174 2175 2069 2176 2275
8 2175 2069 2176 2275 2079 1973 2083 2184
8 2071 1961 2074 2178 2176 2073 2179 2276
8 2176 2073 2179 2276 2083 1975 2084 2186
8 2072 1962 2075 2177 2178 2074 2180 2277
8 2182 2076 1974 2082 2280 2181 2084 2186
8 2183 2077 1971 2081 2281 2182 2082 2185
8 2184 2083 2186 2282 2080 1972 2082 2185
8 2189 2085 1993 2095 2285 2188 2100 2197
8 2190 2086 1987 2090 2286 2189 2095 2193
8 2192 2097 1989 2089 2287 2196 2094 2191
8 2287 2196 2094 2191 2203 2104 1998 2103
8 2194 2098 1991 2091 2288 2199 2097 2192
8 2195 2096 2197 2289 2093 1988 2095 2193
8 2096 2195 2290 2198 1990 2092 2194 2098
8 2097 1996 2099 2196 2199 2102 2200 2291
8 2196 2099 1999 2104 2291 2200 2105 2204
8 2100 2197 2292 2201 1994 2096 2198 2101
8 1995 2098 2198 2101 2102 2199 2293 2202
8 2206 2107 2204 2296 2106 2001 2104 2203
8 2207 2108 2205 2297 2107 2002 2105 2204
8 2209 2110 2207 2299 2109 2004 2107 2206
8 2210 2111 2208 2300 2110 2005 2108 2207
8 2212 2113 2210 2302 2112 2007 2110 2209
8 2213 2114 2211 2303 2113 2008 2111 2210
8 2220 2117 2213 2305 2120 2011 2113 2212
8 2216 2115 2214 2306 2117 2009 2114 2213
8 2216 2115 2009 2117 2311 2217 2116 2219
8 2219 2116 2010 2119 2314 2218 2118 2222
8 2315 2219 2117 2220 2223 2119 2011 2120
8 2122 2012 2121 2225 2222 2118 2221 2317
8 2318 2222 2119 2223 2226 2122 2013 2123
8 2125 2015 2124 2228 2225 2121 2224 2320
8 2126 2016 2125 2229 2226 2122 2225 2321
8 2128 2018 2127 2231 2228 2124 2227 2323
8 2129 2019 2128 2232 2229 2125 2228 2324
8 2131 2021 2130 2234 2231 2127 2230 2326
8 2132 2022 2131 2235 2232 2128 2231 2327
8 2134 2024 2133 2236 2234 2130 2233 2328
8 2135 2025 2134 2237 2235 2131 2234 2329
8 2137 2028 2136 2238 2237 2134 2236 2330
8 2157 2050 2158 2259 2240 2139 2239 2332
8 2257 2157 2240 2334 2161 2054 2140 2242
8 2240 2139 2241 2335 2140 2033 2141 2243
8 2242 2140 2243 2337 2144 2035 2143 2247
8 2243 2141 2244 2338 2143 2034 2142 2246
8 2246 2142 2245 2341 2146 2036 2145 2249
8 2247 2143 2246 2342 2147 2037 2146 2250
8 2249 2145 2248 2343 2149 2038 2148 2251
8 2250 2146 2249 2344 2150 2039 2149 2252
8 2252 2149 2251 2345 2152 2042 2151 2253
8 2169 2271 2347 2254 2062 2170 2255 2154
8 2189 2085 2188 2285 2255 2154 2254 2347
8 2348 2255 2155 2256 2286 2189 2086 2190
8 2272 2170 2063 2171 2348 2255 2155 2256
8 2349 2258 2157 2257 2263 2164 2054 2161
8 2258 2159 2261 2351 2157 2050 2158 2259
8 2258 2159 2056 2164 2351 2261 2165 2264
8 2262 2163 2060 2167 2355 2264 2168 2269
8 2162 2055 2163 2262 2263 2164 2264 2355
8 2357 2266 2165 2264 2268 2166 2061 2168
8 2268 2166 2076 2182 2361 2267 2181 2280
8 2281 2182 2268 2362 2183 2077 2168 2269
8 2271 2169 2270 2364 2177 2075 2180 2277
8 2172 2070 2170 2272 2273 2177 2271 2365
8 2072 2173 2274 2178 2177 2273 2366 2277
8 2071 2174 2275 2176 2178 2274 2367 2276
8 2275 2176 2276 2367 2184 2083 2186 2282
8 2283 2187 2084 2186 2368 2278 2179 2276
8 2178 2074 2180 2277 2276 2179 2278 2368
8 2283 2187 2279 2370 2186 2084 2181 2280
8 2281 2182 2082 2185 2371 2280 2186 2282
8 2188 2285 2374 2284 2100 2197 2292 2201
8 2286 2189 2095 2193 2375 2285 2197 2289
8 2192 2097 2196 2287 2288 2199 2291 2376
8 2287 2196 2104 2203 2376 2291 2204 2296
8 2194 2098 2199 2288 2290 2198 2293 2377
8 2289 2197 2096 2195 2378 2292 2198 2290
8 2291 2200 2105 2204 2379 2294 2205 2297
8 2199 2102 2200 2291 2293 2202 2294 2379
8 2198 2101 2202 2293 2292 2201 2295 2380
8 2299 2207 2297 2383 2206 2107 2204 2296
8 2300 2208 2298 2384 2207 2108 2205 2297
8 2302 2210 2300 2386 2209 2110 2207 2299
8 2303 2211 2301 2387 2210 2111 2208 2300
8 2305 2213 2303 2389 2212 2113 2210 2302
8 2306 2214 2304 2390 2213 2114 2211 2303
8 2310 2216 2306 2392 2220 2117 2213 2305
8 2308 2215 2307 2393 2216 2115 2214 2306
8 2308 2215 2115 2216 2396 2309 2217 2311
8 2310 2216 2117 2220 2398 2311 2219 2315
8 2311 2217 2116 2219 2399 2312 2218 2314
8 2314 2218 2118 2222 2402 2313 2221 2317
8 2315 2219 2119 2223 2403 2314 2222 2318
8 2225 2121 2224 2320 2317 2221 2316 2405
8 2226 2122 2225 2321 2318 2222 2317 2406
8 2228 2124 2227 2323 2320 2224 2319 2408
8 2229 2125 2228 2324 2321 2225 2320 2409
8 2231 2127 2230 2326 2323 2227 2322 2411
8 2232 2128 2231 2327 2324 2228 2323 2412
8 2234 2130 2233 2328 2326 2230 2325 2413
8 2235 2131 2234 2329 2327 2231 2326 2414
8 2237 2134 2236 2330 2329 2234 2328 2415
8 2259 2158 2260 2352 2332 2239 2331 2417
8 2257 2157 2259 2350 2334 2240 2332 2419
8 2240 2139 2239 2332 2335 2241 2333 2420
8 2334 2240 2335 2422 2242 2140 2243 2337
8 2335 2241 2336 2423 2243 2141 2244 2338
8 2337 2243 2338 2425 2247 2143 2246 2342
8 2338 2244 2339 2426 2246 2142 2245 2341
8 2341 2245 2340 2428 2249 2145 2248 2343
8 2342 2246 2341 2429 2250 2146 2249 2344
8 2344 2249 2343 2430 2252 2149 2251 2345
8 2188 2285 2347 2254 2284 2374 2432 2346
8 2347 2254 2346 2432 2271 2169 2270 2364
8 2365 2271 2170 2272 2433 2347 2255 2348
8 2286 2189 2285 2375 2348 2255 2347 2433
8 2349 2258 2351 2435 2257 2157 2259 2350
8 2349 2258 2164 2263 2435 2351 2264 2355
8 2259 2158 2261 2351 2352 2260 2354 2437
8 2356 2265 2354 2437 2264 2165 2261 2351
8 2441 2357 2264 2355 2362 2268 2168 2269
8 2356 2265 2165 2264 2442 2358 2266 2357
8 2443 2359 2266 2357 2361 2267 2166 2268
8 2370 2279 2360 2446 2280 2181 2267 2361
8 2362 2268 2182 2281 2447 2361 2280 2371
8 2180 2277 2368 2278 2270 2364 2449 2363
8 2271 2365 2273 2177 2364 2450 2366 2277
8 2372 2283 2186 2282 2451 2368 2276 2367
8 2178 2274 2367 2276 2277 2366 2451 2368
8 2283 2187 2278 2368 2370 2279 2369 2452
8 2372 2283 2370 2453 2282 2186 2280 2371
8 2284 2374 2455 2373 2201 2292 2380 2295
8 2375 2285 2197 2289 2456 2374 2292 2378
8 2376 2291 2204 2296 2457 2379 2297 2383
8 2288 2199 2291 2376 2377 2293 2379 2457
8 2198 2290 2378 2292 2293 2377 2458 2380
8 2293 2202 2294 2379 2380 2295 2381 2459
8 2384 2298 2381 2459 2297 2205 2294 2379
8 2386 2300 2384 2463 2299 2207 2297 2383
8 2387 2301 2385 2464 2300 2208 2298 2384
8 2389 2303 2387 2466 2302 2210 2300 2386
8 2390 2304 2388 2467 2303 2211 2301 2387
8 2392 2306 2390 2469 2305 2213 2303 2389
8 2393 2307 2391 2470 2306 2214 2304 2390
8 2395 2308 2393 2472 2310 2216 2306 2392
8 2308 2215 2309 2396 2393 2307 2394 2473
8 2395 2308 2216 2310 2475 2396 2311 2398
8 2396 2309 2217 2311 2476 2397 2312 2399
8 2398 2311 2219 2315 2478 2399 2314 2403
8 2399 2312 2218 2314 2479 2400 2313 2402
8 2317 2221 2316 2405 2402 2313 2401 2482
8 2403 2314 2222 2318 2483 2402 2317 2406
8 2320 2224 2319 2408 2405 2316 2404 2485
8 2321 2225 2320 2409 2406 2317 2405 2486
8 2323 2227 2322 2411 2408 2319 2407 2488
8 2324 2228 2323 2412 2409 2320 2408 2489
8 2326 2230 2325 2413 2411 2322 2410 2490
8 2327 2231 2326 2414 2412 2323 2411 2491
8 2329 2234 2328 2415 2414 2326 2413 2492
8 2417 2331 2260 2352 2494 2416 2353 2438
8 2350 2259 2352 2436 2419 2332 2417 2496
8 2332 2239 2331 2417 2420 2333 2418 2497
8 2334 2240 2332 2419 2422 2335 2420 2499
8 2420 2333 2421 2500 2335 2241 2336 2423
8 2422 2335 2423 2502 2337 2243 2338 2425
8 2423 2336 2424 2503 2338 2244 2339 2426
8 2425 2338 2426 2505 2342 2246 2341 2429
8 2426 2339 2427 2506 2341 2245 2340 2428
8 2429 2341 2428 2507 2344 2249 2343 2430
8 2432 2346 2284 2374 2509 2431 2373 2455
8 2432 2346 2431 2509 2364 2270 2363 2449
8 2375 2285 2374 2456 2433 2347 2432 2510
8 2347 2433 2365 2271 2432 2510 2450 2364
8 2350 2259 2351 2435 2436 2352 2437 2514
8 2440 2356 2437 2514 2355 2264 2351 2435
8 2352 2260 2354 2437 2438 2353 2439 2516
8 2356 2265 2358 2442 2437 2354 2439 2516
8 2440 2356 2264 2355 2518 2442 2357 2441
8 2519 2443 2357 2441 2447 2361 2268 2362
8 2443 2359 2444 2520 2357 2266 2358 2442
8 2443 2359 2267 2361 2520 2444 2360 2446
8 2446 2360 2279 2370 2523 2445 2369 2452
8 2453 2370 2446 2524 2371 2280 2361 2447
8 2449 2363 2448 2525 2368 2278 2369 2452
8 2366 2277 2364 2450 2451 2368 2449 2526
8 2372 2283 2368 2451 2453 2370 2452 2527
8 2455 2373 2295 2380 2529 2454 2382 2460
8 2456 2374 2292 2378 2530 2455 2380 2458
8 2377 2293 2379 2457 2458 2380 2459 2531
8 2463 2384 2459 2531 2383 2297 2379 2457
8 2533 2461 2382 2460 2459 2381 2295 2380
8 2464 2385 2461 2533 2384 2298 2381 2459
8 2466 2387 2464 2537 2386 2300 2384 2463
8 2467 2388 2465 2538 2387 2301 2385 2464
8 2469 2390 2467 2540 2389 2303 2387 2466
8 2470 2391 2468 2541 2390 2304 2388 2467
8 2472 2393 2470 2543 2392 2306 2390 2469
8 2393 2307 2394 2473 2470 2391 2471 2544
8 2395 2308 2396 2475 2472 2393 2473 2546
8 2396 2309 2397 2476 2473 2394 2474 2547
8 2475 2396 2311 2398 2549 2476 2399 2478
8 2476 2397 2312 2399 2550 2477 2400 2479
8 2478 2399 2314 2403 2552 2479 2402 2483
8 2479 2400 2313 2402 2553 2480 2401 2482
8 2405 2316 2404 2485 2482 2401 2481 2556
8 2406 2317 2405 2486 2483 2402 2482 2557
8 2408 2319 2407 2488 2485 2404 2484 2559
8 2409 2320 2408 2489 2486 2405 2485 2560
8 2411 2322 2410 2490 2488 2407 2487 2561
8 2412 2323 2411 2491 2489 2408 2488 2562
8 2414 2326 2413 2492 2491 2411 2490 2563
8 2513 2434 2493 2565 2438 2353 2416 2494
8 2496 2417 2352 2436 2567 2494 2438 2515
8 2494 2416 2495 2568 2417 2331 2418 2497
8 2419 2332 2417 2496 2499 2420 2497 2570
8 2497 2418 2498 2571 2420 2333 2421 2500
8 2499 2420 2500 2573 2422 2335 2423 2502
8 2500 2421 2501 2574 2423 2336 2424 2503
8 2502 2423 2503 2576 2425 2338 2426 2505
8 2503 2424 2504 2577 2426 2339 2427 2506
8 2505 2426 2506 2578 2429 2341 2428 2507
8 2509 2431 2373 2455 2580 2508 2454 2529
8 2509 2431 2508 2580 2449 2363 2448 2525
8 2432 2510 2581 2509 2374 2456 2530 2455
8 2432 2510 2450 2364 2509 2581 2526 2449
8 2583 2511 2434 2513 2516 2439 2353 2438
8 2436 2352 2437 2514 2515 2438 2516 2588
8 2440 2356 2442 2518 2514 2437 2516 2588
8 2442 2358 2444 2520 2516 2439 2517 2589
8 2519 2443 2520 2591 2441 2357 2442 2518
8 2519 2443 2361 2447 2591 2520 2446 2524
8 2446 2360 2445 2523 2520 2444 2521 2592
8 2525 2448 2522 2593 2452 2369 2445 2523
8 2524 2446 2370 2453 2594 2523 2452 2527
8 2526 2449 2525 2595 2451 2368 2452 2527
8 2534 2462 2528 2597 2460 2382 2454 2529
8 2530 2455 2380 2458 2598 2529 2460 2532
8 2599 2533 2460 2532 2531 2459 2380 2458
8 2537 2464 2533 2599 2463 2384 2459 2531
8 2534 2462 2382 2460 2601 2535 2461 2533
8 2538 2465 2535 2601 2464 2385 2461 2533
8 2540 2467 2538 2604 2466 2387 2464 2537
8 2541 2468 2539 2605 2467 2388 2465 2538
8 2543 2470 2541 2607 2469 2390 2467 2540
8 2470 2391 2471 2544 2541 2468 2542 2608
8 2472 2393 2473 2546 2543 2470 2544 2610
8 2473 2394 2474 2547 2544 2471 2545 2611
8 2475 2396 2476 2549 2546 2473 2547 2613
8 2476 2397 2477 2550 2547 2474 2548 2614
8 2549 2476 2399 2478 2616 2550 2479 2552
8 2479 2400 2480 2553 2550 2477 2551 2617
8 2552 2479 2402 2483 2619 2553 2482 2557
8 2482 2401 2481 2556 2553 2480 2554 2620
8 2485 2404 2484 2559 2556 2481 2555 2623
8 2486 2405 2485 2560 2557 2482 2556 2624
8 2488 2407 2487 2561 2559 2484 2558 2625
8 2489 2408 2488 2562 2560 2485 2559 2626
8 2491 2411 2490 2563 2562 2488 2561 2627
8 2513 2434 2512 2585 2565 2493 2564 2630
8 2586 2513 2565 2632 2515 2438 2494 2567
8 2565 2493 2566 2633 2494 2416 2495 2568
8 2567 2494 2568 2635 2496 2417 2497 2570
8 2568 2495 2569 2636 2497 2418 2498 2571
8 2570 2497 2571 2638 2499 2420 2500 2573
8 2571 2498 2572 2639 2500 2421 2501 2574
8 2573 2500 2574 2641 2502 2423 2503 2576
8 2574 2501 2575 2642 2503 2424 2504 2577
8 2576 2503 2577 2643 2505 2426 2506 2578
8 2597 2528 2579 2645 2529 2454 2508 2580
8 2580 2508 2579 2645 2525 2448 2522 2593
8 2581 2509 2455 2530 2646 2580 2529 2598
8 2581 2509 2580 2646 2526 2449 2525 2595
8 2583 2511 2582 2648 2513 2434 2512 2585
8 2583 2511 2439 2516 2648 2582 2517 2589
8 2649 2583 2513 2586 2588 2516 2438 2515
8 2589 2517 2444 2520 2653 2587 2521 2592
8 2518 2442 2520 2591 2588 2516 2589 2654
8 2593 2522 2590 2655 2523 2445 2521 2592
8 2524 2446 2523 2594 2591 2520 2592 2656
8 2595 2525 2593 2657 2527 2452 2523 2594
8 2602 2536 2596 2659 2534 2462 2528 2597
8 2600 2534 2597 2660 2532 2460 2529 2598
8 2600 2534 2460 2532 2661 2601 2533 2599
8 2604 2538 2601 2661 2537 2464 2533 2599
8 2602 2536 2462 2534 2663 2603 2535 2601
8 2601 2535 2465 2538 2663 2603 2539 2605
8 2607 2541 2605 2665 2540 2467 2538 2604
8 2608 2542 2606 2666 2541 2468 2539 2605
8 2543 2470 2544 2610 2607 2541 2608 2668
8 2544 2471 2545 2611 2608 2542 2609 2669
8 2546 2473 2547 2613 2610 2544 2611 2671
8 2547 2474 2548 2614 2611 2545 2612 2672
8 2549 2476 2550 2616 2613 2547 2614 2674
8 2550 2477 2551 2617 2614 2548 2615 2675
8 2552 2479 2553 2619 2616 2550 2617 2677
8 2553 2480 2554 2620 2617 2551 2618 2678
8 2557 2482 2556 2624 2619 2553 2620 2680
8 2556 2481 2555 2623 2620 2554 2621 2681
8 2559 2484 2558 2625 2623 2555 2622 2683
8 2560 2485 2559 2626 2624 2556 2623 2684
8 2562 2488 2561 2627 2626 2559 2625 2685
8 2690 2629 2564 2630 2650 2584 2512 2585
8 2586 2513 2585 2651 2632 2565 2630 2691
8 2630 2564 2631 2692 2565 2493 2566 2633
8 2632 2565 2633 2694 2567 2494 2568 2635
8 2633 2566 2634 2695 2568 2495 2569 2636
8 2635 2568 2636 2697 2570 2497 2571 2638
8 2636 2569 2637 2698 2571 2498 2572 2639
8 2638 2571 2639 2700 2573 2500 2574 2641
8 2639 2572 2640 2701 2574 2501 2575 2642
8 2641 2574 2642 2702 2576 2503 2577 2643
8 2597 2528 2596 2659 2645 2579 2644 2704
8 2645 2579 2644 2704 2593 2522 2590 2655
8 2660 2597 2645 2705 2598 2529 2580 2646
8 2646 2580 2645 2705 2595 2525 2593 2657
8 2650 2584 2512 2585 2707 2647 2582 2648
8 2648 2582 2517 2589 2707 2647 2587 2653
8 2649 2583 2648 2708 2586 2513 2585 2651
8 2649 2583 2516 2588 2708 2648 2589 2654
8 2655 2590 2652 2710 2592 2521 2587 2653
8 2654 2589 2520 2591 2711 2653 2592 2656
8 2657 2593 2655 2712 2594 2523 2592 2656
8 2602 2536 2603 2663 2659 2596 2658 2714
8 2662 2602 2659 2715 2600 2534 2597 2660
8 2662 2602 2534 2600 2717 2663 2601 2661
8 2661 2601 2538 2604 2717 2663 2605 2665
8 2666 2606 2664 2718 2605 2539 2603 2663
8 2668 2608 2666 2720 2607 2541 2605 2665
8 2608 2542 2609 2669 2666 2606 2667 2721
8 2610 2544 2611 2671 2668 2608 2669 2723
8 2611 2545 2612 2672 2669 2609 2670 2724
8 2613 2547 2614 2674 2671 2611 2672 2726
8 2614 2548 2615 2675 2672 2612 2673 2727
8 2616 2550 2617 2677 2674 2614 2675 2729
8 2617 2551 2618 2678 2675 2615 2676 2730
8 2619 2553 2620 2680 2677 2617 2678 2732
8 2620 2554 2621 2681 2678 2618 2679 2733
8 2624 2556 2623 2684 2680 2620 2681 2735
8 2681 2621 2555 2623 2736 2682 2622 2683
8 2626 2559 2625 2685 2684 2623 2683 2737
8 2688 2628 2584 2650 2740 2686 2647 2707
8 2688 2628 2687 2742 2650 2584 2629 2690
8 2690 2629 2689 2745 2630 2564 2631 2692
8 2746 2690 2630 2691 2709 2650 2585 2651
8 2691 2630 2692 2747 2632 2565 2633 2694
8 2692 2631 2693 2748 2633 2566 2634 2695
8 2694 2633 2695 2750 2635 2568 2636 2697
8 2695 2634 2696 2751 2636 2569 2637 2698
8 2697 2636 2698 2753 2638 2571 2639 2700
8 2698 2637 2699 2754 2639 2572 2640 2701
8 2700 2639 2701 2755 2641 2574 2642 2702
8 2659 2596 2658 2714 2704 2644 2703 2757
8 2704 2644 2703 2757 2655 2590 2652 2710
8 2660 2597 2659 2715 2705 2645 2704 2758
8 2705 2645 2704 2758 2657 2593 2655 2712
8 2759 2706 2647 2707 2710 2652 2587 2653
8 2709 2650 2585 2651 2760 2707 2648 2708
8 2708 2648 2589 2654 2760 2707 2653 2711
8 2712 2655 2710 2761 2656 2592 2653 2711
8 2763 2713 2658 2714 2718 2664 2603 2663
8 2662 2602 2663 2717 2715 2659 2714 2764
8 2720 2666 2718 2767 2665 2605 2663 2717
8 2768 2719 2664 2718 2721 2667 2606 2666
8 2668 2608 2669 2723 2720 2666 2721 2770
8 2669 2609 2670 2724 2721 2667 2722 2771
8 2671 2611 2672 2726 2723 2669 2724 2773
8 2672 2612 2673 2727 2724 2670 2725 2774
8 2674 2614 2675 2729 2726 2672 2727 2776
8 2675 2615 2676 2730 2727 2673 2728 2777
8 2677 2617 2678 2732 2729 2675 2730 2779
8 2678 2618 2679 2733 2730 2676 2731 2780
8 2680 2620 2681 2735 2732 2678 2733 2782
8 2733 2679 2621 2681 2783 2734 2682 2736
8 2735 2681 2623 2684 2784 2736 2683 2737
8 2740 2686 2647 2707 2787 2738 2706 2759
8 2688 2628 2686 2740 2742 2687 2739 2789
8 2743 2688 2650 2709 2790 2740 2707 2760
8 2742 2687 2741 2792 2690 2629 2689 2745
8 2743 2688 2742 2793 2709 2650 2690 2746
8 2745 2689 2744 2795 2692 2631 2693 2748
8 2746 2690 2745 2796 2691 2630 2692 2747
8 2747 2692 2748 2797 2694 2633 2695 2750
8 2748 2693 2749 2798 2695 2634 2696 2751
8 2750 2695 2751 2800 2697 2636 2698 2753
8 2751 2696 2752 2801 2698 2637 2699 2754
8 2753 2698 2754 2802 2700 2639 2701 2755
8 2763 2713 2756 2804 2714 2658 2703 2757
8 2759 2706 2652 2710 2804 2756 2703 2757
8 2715 2659 2714 2764 2758 2704 2757 2805
8 2758 2704 2757 2805 2712 2655 2710 2761
8 2806 2759 2707 2760 2761 2710 2653 2711
8 2765 2716 2762 2808 2718 2664 2713 2763
8 2809 2763 2714 2764 2767 2718 2663 2717
8 2765 2716 2664 2718 2811 2766 2719 2768
8 2813 2768 2718 2767 2770 2721 2666 2720
8 2814 2769 2719 2768 2771 2722 2667 2721
8 2723 2669 2724 2773 2770 2721 2771 2816
8 2724 2670 2725 2774 2771 2722 2772 2817
8 2726 2672 2727 2776 2773 2724 2774 2819
8 2727 2673 2728 2777 2774 2725 2775 2820
8 2729 2675 2730 2779 2776 2727 2777 2822
8 2730 2676 2731 2780 2777 2728 2778 2823
8 2732 2678 2733 2782 2779 2730 2780 2825
8 2780 2731 2679 2733 2826 2781 2734 2783
8 2782 2733 2681 2735 2827 2783 2736 2784
8 2830 2785 2738 2787 2804 2756 2706 2759
8 2789 2739 2686 2740 2832 2786 2738 2787
8 2790 2740 2707 2760 2833 2787 2759 2806
8 2742 2687 2739 2789 2792 2741 2788 2835
8 2743 2688 2740 2790 2793 2742 2789 2836
8 2792 2741 2791 2838 2745 2689 2744 2795
8 2793 2742 2792 2839 2746 2690 2745 2796
8 2795 2744 2794 2841 2748 2693 2749 2798
8 2796 2745 2795 2842 2747 2692 2748 2797
8 2797 2748 2798 2843 2750 2695 2751 2800
8 2798 2749 2799 2844 2751 2696 2752 2801
8 2800 2751 2801 2845 2753 2698 2754 2802
8 2808 2762 2803 2847 2763 2713 2756 2804
8 2809 2763 2804 2848 2764 2714 2757 2805
8 2806 2759 2710 2761 2848 2804 2757 2805
8 2765 2716 2766 2811 2808 2762 2807 2850
8 2810 2765 2808 2851 2767 2718 2763 2809
8 2810 2765 2718 2767 2852 2811 2768 2813
8 2811 2766 2719 2768 2853 2812 2769 2814
8 2855 2814 2768 2813 2816 2771 2721 2770
8 2856 2815 2769 2814 2817 2772 2722 2771
8 2773 2724 2774 2819 2816 2771 2817 2858
8 2774 2725 2775 2820 2817 2772 2818 2859
8 2776 2727 2777 2822 2819 2774 2820 2861
8 2777 2728 2778 2823 2820 2775 2821 2862
8 2779 2730 2780 2825 2822 2777 2823 2864
8 2823 2778 2731 2780 2865 2824 2781 2826
8 2825 2780 2733 2782 2866 2826 2783 2827
8 2869 2828 2785 2830 2847 2803 2756 2804
8 2871 2829 2786 2832 2830 2785 2738 2787
8 2872 2830 2787 2833 2848 2804 2759 2806
8 2789 2739 2786 2832 2835 2788 2831 2874
8 2836 2789 2740 2790 2875 2832 2787 2833
8 2792 2741 2788 2835 2838 2791 2834 2877
8 2793 2742 2789 2836 2839 2792 2835 2878
8 2838 2791 2837 2880 2795 2744 2794 2841
8 2839 2792 2838 2881 2796 2745 2795 2842
8 2841 2794 2840 2882 2798 2749 2799 2844
8 2842 2795 2841 2883 2797 2748 2798 2843
8 2843 2798 2844 2884 2800 2751 2801 2845
8 2886 2846 2803 2847 2850 2807 2762 2808
8 2851 2808 2847 2887 2809 2763 2804 2848
8 2850 2807 2766 2811 2889 2849 2812 2853
8 2810 2765 2811 2852 2851 2808 2850 2890
8 2852 2811 2768 2813 2891 2853 2814 2855
8 2853 2812 2769 2814 2892 2854 2815 2856
8 2894 2856 2814 2855 2858 2817 2771 2816
8 2817 2772 2818 2859 2856 2815 2857 2895
8 2819 2774 2820 2861 2858 2817 2859 2897
8 2820 2775 2821 2862 2859 2818 2860 2898
8 2822 2777 2823 2864 2861 2820 2862 2900
8 2823 2778 2824 2865 2862 2821 2863 2901
8 2864 2823 2780 2825 2902 2865 2826 2866
8 2904 2867 2828 2869 2886 2846 2803 2847
8 2869 2828 2868 2906 2830 2785 2829 2871
8 2907 2869 2830 2872 2887 2847 2804 2848
8 2871 2829 2870 2909 2832 2786 2831 2874
8 2910 2871 2832 2875 2872 2830 2787 2833
8 2835 2788 2831 2874 2877 2834 2873 2912
8 2836 2789 2832 2875 2878 2835 2874 2913
8 2877 2834 2876 2915 2838 2791 2837 2880
8 2839 2792 2835 2878 2881 2838 2877 2916
8 2880 2837 2879 2917 2841 2794 2840 2882
8 2881 2838 2880 2918 2842 2795 2841 2883
8 2883 2841 2882 2919 2843 2798 2844 2884
8 2921 2885 2846 2886 2889 2849 2807 2850
8 2922 2886 2847 2887 2890 2850 2808 2851
8 2889 2849 2812 2853 2924 2888 2854 2892
8 2890 2850 2811 2852 2925 2889 2853 2891
8 2891 2853 2814 2855 2926 2892 2856 2894
8 2892 2854 2815 2856 2927 2893 2857 2895
8 2858 2817 2859 2897 2894 2856 2895 2929
8 2859 2818 2860 2898 2895 2857 2896 2930
8 2861 2820 2862 2900 2897 2859 2898 2932
8 2862 2821 2863 2901 2898 2860 2899 2933
8 2864 2823 2865 2902 2900 2862 2901 2934
8 2904 2867 2846 2886 2936 2903 2885 2921
8 2904 2867 2903 2936 2869 2828 2868 2906
8 2937 2904 2869 2907 2922 2886 2847 2887
8 2906 2868 2905 2939 2871 2829 2870 2909
8 2907 2869 2906 2940 2872 2830 2871 2910
8 2909 2870 2908 2942 2874 2831 2873 2912
8 2910 2871 2909 2943 2875 2832 2874 2913
8 2912 2873 2911 2945 2877 2834 2876 2915
8 2878 2835 2874 2913 2916 2877 2912 2946
8 2915 2876 2914 2947 2880 2837 2879 2917
8 2916 2877 2915 2948 2881 2838 2880 2918
8 2918 2880 2917 2949 2883 2841 2882 2919
8 2921 2885 2849 2889 2951 2920 2888 2924
8 2952 2921 2886 2922 2925 2889 2850 2890
8 2924 2888 2854 2892 2954 2923 2893 2927
8 2925 2889 2853 2891 2955 2924 2892 2926
8 2926 2892 2856 2894 2956 2927 2895 2929
8 2895 2857 2896 2930 2927 2893 2928 2957
8 2897 2859 2898 2932 2929 2895 2930 2959
8 2898 2860 2899 2933 2930 2896 2931 2960
8 2900 2862 2901 2934 2932 2898 2933 2961
8 2936 2903 2885 2921 2963 2935 2920 2951
8 2936 2903 2935 2963 2906 2868 2905 2939
8 2937 2904 2886 2922 2964 2936 2921 2952
8 2937 2904 2936 2964 2907 2869 2906 2940
8 2939 2905 2938 2966 2909 2870 2908 2942
8 2940 2906 2939 2967 2910 2871 2909 2943
8 2942 2908 2941 2969 2912 2873 2911 2945
8 2943 2909 2942 2970 2913 2874 2912 2946
8 2945 2911 2944 2971 2915 2876 2914 2947
8 2946 2912 2945 2972 2916 2877 2915 2948
8 2948 2915 2947 2973 2918 2880 2917 2949
8 2951 2920 2888 2924 2975 2950 2923 2954
8 2952 2921 2889 2925 2976 2951 2924 2955
8 2927 2893 2928 2957 2954 2923 2953 2978
8 2955 2924 2892 2926 2979 2954 2927 2956
8 2929 2895 2930 2959 2956 2927 2957 2980
8 2930 2896 2931 2960 2957 2928 2958 2981
8 2932 2898 2933 2961 2959 2930 2960 2982
8 2951 2920 2950 2975 2963 2935 2962 2984
8 2963 2935 2962 2984 2939 2905 2938 2966
8 2964 2936 2921 2952 2985 2963 2951 2976
8 2964 2936 2963 2985 2940 2906 2939 2967
8 2966 2938 2965 2987 2942 2908 2941 2969
8 2967 2939 2966 2988 2943 2909 2942 2970
8 2969 2941 2968 2989 2945 2911 2944 2971
8 2970 2942 2969 2990 2946 2912 2945 2972
8 2972 2945 2971 2991 2948 2915 2947 2973
8 2954 2923 2953 2978 2975 2950 2974 2993
8 2976 2951 2924 2955 2994 2975 2954 2979
8 2957 2928 2958 2981 2978 2953 2977 2995
8 2956 2927 2957 2980 2979 2954 2978 2996
8 2959 2930 2960 2982 2980 2957 2981 2997
8 2984 2962 2983 2999 2966 2938 2965 2987
8 2975 2950 2974 2993 2984 2962 2983 2999
8 2976 2951 2975 2994 2985 2963 2984 3000
8 2985 2963 2984 3000 2967 2939 2966 2988
8 2987 2965 2986 3001 2969 2941 2968 2989
8 2988 2966 2987 3002 2970 2942 2969 2990
8 2990 2969 2989 3003 2972 2945 2971 2991
8 2978 2953 2977 2995 2993 2974 2992 3004
8 2979 2954 2978 2996 2994 2975 2993 3005
8 2980 2957 2981 2997 2996 2978 2995 3006
8 2974 2993 2999 2983 2992 3004 3007 2998
8 2983 2999 2987 2965 2998 3007 3001 2986
8 3000 2984 2999 3008 2988 2966 2987 3002
8 2994 2975 2993 3005 3000 2984 2999 3008
8 3002 2987 3001 3009 2990 2969 2989 3003
8 2996 2978 2995 3006 3005 2993 3004 3010
8 3005 2993 3004 3010 3008 2999 3007 3011
8 3008 2999 3007 3011 3002 2987 3001 3009

CELL_TYPES 1910
12
12
12
12
12
12
12
12
12
12
12
12
12
12
12
12
12
12
12
12
12
12
12
12
12
12
12
12
12
12
12
12
12
12
12
12
12
12
12
12
12
12
12
12
12
12
12
12
12
12
12
12
12
12
12
12
12
12
12
12
12
12
12
12
12
12
12
12
12
12
12
12
12
12
12
12
12
12
12
12
12
12
12
12
12
12
12
12
12
12
12
12
12
12
12
12
12
12
12
12
12
12
12
12
12
12
12
12
12
12
12
12
12
12
12
12
12
12
12
12
12
12
12
12
12
12
12
12
12
12
12
12
12
12
12
12
12
12
12
12
12
12
12
12
12
12
12
12
12
12
12
12
12
12
12
12
12
12
12
12
12
12
12
12
12
12
12
12
12
12
12
12
12
12
12
12
12
12
12
12
12
12
12
12
12
12
12
12
12
12
12
12
12
12
12
12
12
12
12
12
12
12
12
12
12
12
12
12
12
12
12
12
12
12
12
12
12
12
12
12
12
12
12
12
12
12
12
12
12
12
12
12
12
12
12
12
12
12
12
12
12
12
12
12
12
12
12
12
12
12
12
12
12
12
12
12
12
12
12
12
12
12
12
12
12
12
12
12
12
12
12
12
12
12
12
12
12
12
12
12
12
12
12
12
12
12
12
12
12
12
12
12
12
12
12
12
12
12
12
12
12
12
12
12
12
12
12
12
12
12
12
12
12
12
12
12
12
12
12
12
12
12
12
12
12
12
12
12
12
12
12
12
12
12
12
12
12
12
12
12
12
12
12
12
12
12
12
12
12
12
12
12
12
12
12
12
12
12
12
12
12
12
12
12
12
12
12
12
12
12
12
12
12
12
12
12
12
12
12
12
12
12
12
12
12
12
12
12
12
12
12
12
12
12
12
12
12
12
12
12
12
12
12
12
12
12
12
12
12
12
12
12
12
12
12
12
12
12
12
12
12
12
12
12
12
12
12
12
12
12
12
12
12
12
12
12
12
12
12
12
12
12
12
12
12
12
12
12
12
12
12
12
12
12
12
12
12
12
12
12
12
12
12
12
12
12
12
12
12
12
12
12
12
12
12
12
12
12
12
12
12
12
12
12
12
12
12
12
12
12
12
12
12
12
12
12
12
12
12
12
12
12
12
12
12
12
12
12
12
12
12
12
12
12
12
12
12
12
12
12
12
12
12
12
12
12
12
12
12
12
12
12
12
12
12
12
12
12
12
12
12
12
12
12
12
12
12
12
12
12
12
12
12
12
12
12
12
12
12
12
12
12
12
12
12
12
12
12
12
12
12
12
12
12
12
12
12
12
12
12
12
12
12
12
12
12
12
12
12
12
12
12
12
12
12
12
12
12
12
12
12
12
12
12
12
12
12
12
12
12
12
12
12
12
12
12
12
12
12
12
12
12
12
12
12
12
12
12
12
12
12
12
12
12
12
12
12
12
12
12
12
12
12
12
12
12
12
12
12
12
12
12
12
12
12
12
12
12
12
12
12
12
12
12
12
12
12
12
12
12
12
12
12
12
12
12
12
12
12
12
12
12
12
12
12
12
12
12
12
12
12
12
12
12
12
12
12
12
12
12
12
12
12
12
12
12
12
12
12
12
12
12
12
12
12
12
12
12
12
12
12
12
12
12
12
12
12
12
12
12
12
12
12
12
12
12
12
12
12
12
12
12
12
12
12
12
12
12
12
12
12
12
12
12
12
12
12
12
12
12
12
12
12
12
12
12
12
12
12
12
12
12
12
12
12
12
12
12
12
12
12
12
12
12
12
12
12
12
12
12
12
12
12
12
12
12
12
12
12
12
12
12
12
12
12
12
12
12
12
12
12
12
12
12
12
12
12
12
12
12
12
12
12
12
12
12
12
12
12
12
12
12
12
12
12
12
12
12
12
12
12
12
12
12
12
12
12
12
12
12
12
12
12
12
12
12
12
12
12
12
12
12
12
12
12
12
12
12
12
12
12
12
12
12
12
12
12
12
12
12
12
12
12
12
12
12
12
12
12
12
12
12
12
12
12
12
12
12
12
12
12
12
12
12
12
12
12
12
12
12
12
12
12
12
12
12
12
12
12
12
12
12
12
12
12
12
12
12
12
12
12
12
12
12
12
12
12
12
12
12
12
12
12
12
12
12
12
12
12
12
12
12
12
12
12
12
12
12
12
12
12
12
12
12
12
12
12
12
12
12
12
12
12
12
12
12
12
12
12
12
12
12
12
12
12
12
12
12
12
12
12
12
12
12
12
12
12
12
12
12
12
12
12
12
12
12
12
12
12
12
12
12
12
12
12
12
12
12
12
12
12
12
12
12
12
12
12
12
12
12
12
12
12
12
12
12
12
12
12
12
12
12
12
12
12
12
12
12
12
12
12
12
12
12
12
12
12
12
12
12
12
12
12
12
12
12
12
12
12
12
12
12
12
12
12
12
12
12
12
12
12
12
12
12
12
12
12
12
12
12
12
12
12
12
12
12
12
12
12
12
12
12
12
12
12
12
12
12
12
12
12
12
12
12
12
12
12
12
12
12
12
12
12
12
12
12
12
12
12
12
12
12
12
12
12
12
12
12
12
12
12
12
12
12
12
12
12
12
12
12
12
12
12
12
12
12
12
12
12
12
12
12
12
12
12
12
12
12
12
12
12
12
12
12
12
12
12
12
12
12
12
12
12
12
12
12
12
12
12
12
12
12
12
12
12
12
12
12
12
12
12
12
12
12
12
12
12
12
12
12
12
12
12
12
12
12
12
12
12
12
12
12
12
12
12
12
12
12
12
12
12
12
12
12
12
12
12
12
12
12
12
12
12
12
12
12
12
12
12
12
12
12
12
12
12
12
12
12
12
12
12
12
12
12
12
12
12
12
12
12
12
12
12
12
12
12
12
12
12
12
12
12
12
12
12
12
12
12
12
12
12
12
12
12
12
12
12
12
12
12
12
12
12
12
12
12
12
12
12
12
12
12
12
12
12
12
12
12
12
12
12
12
12
12
12
12
12
12
12
12
12
12
12
12
12
12
12
12
12
12
12
12
12
12
12
12
12
12
12
12
12
12
12
12
12
12
12
12
12
12
12
12
12
12
12
12
12
12
12
12
12
12
12
12
12
12
12
12
12
12
12
12
12
12
12
12
12
12
12
12
12
12
12
12
12
12
12
12
12
12
12
12
12
12
12
12
12
12
12
12
12
12
12
12
12
12
12
12
12
12
12
12
12
12
12
12
12
12
12
12
12
12
12
12
12
12
12
12
12
12
12
12
12
12
12
12
12
12
12
12
12
12
12
12
12
12
12
12
12
12
12
12
12
12
12
12
12
12
12
12
12
12
12
12
12
12
12
12
12
12
12
12
12
12
12
12
12
12
12
12
12
12
12
12
12
12
12
12
12
12
12
12
12
12
12
12
12
12
12
12
12
12
12
12
12
12
12
12
12
12
12
12
12
12
12
12
12
12
12
12
12
12
12
12
12
12
12
12
12
12
12
12
12
12
12
12
12
12
12
12
12
12
12
12
12
12
12
12
12
12
12
12
12
12
12
12
12
12
12
12
12
12
12
12
12
12
12
12
12
12
12
12
12
12
12
12
12
12
12
12
12
12
12
12
12
12
12
12
12
12
12
12
12
12
12
12
12
12
12
12
12
12
12
12
12
12
12
12
12
12
12
12
12
12
12
12
12
12
12
12
12
12
12
12
12
12
12
12
12
12
12
12
12
12
12
12
12
12
12
12
12
12
12
12
12
12
12
12
12
12
12
12
12
12
12
12
12
12
12
12
12
12
12
12
12
12
12
12
12
12
12
12
12
12
12
12
12
12
12
12
12
12
12
12
12
12
12
12
12
12
12
12
12
12
12
12
12
12
12
12
12
12
12
12
12
12
12
12
12
12
12
12
12
12
12
12
12
12
12
12
12
12
12
12
12
12
12
12
12
12
12
12
12
12
12
12
12
12
12
12
12
12
12
12
12
12
12
12
12
12
12
12
12
12
12
12
12
12
12
12
12
12
12
12
12
12
12
12
12
12
12
12
12
12
12
12
12
12
12
12
12
12
12
12
12
12
12
12
12
12
12
12
12
12
12
12
12
12
12
12
12
12
12
12
12
12
12
12
12
12
12
12
12
12
12
12
12
12
12
12
12
12
12
12
12
12
12
12
12
12
12
12
12
12
12
12
12
12
12
12
12
12
12
12
12
12
12
12
12
12
12
12
12
12
12
12
12
12
12
12
12
12
12
12
12
12
12
12
12
12
12
12
12
12
12
12
12
12
12
12
12
12
12
12
12
12
12
12
12
12
12
12
12
12
12
12
12
12
12
12

POINT_DATA 3012
SCALARS Jp_lamdaP float 4
LOOKUP_TABLE default
0.999772 1 1 0.999772
1 1 1 1
0.999779 1 1 0.999779
0.999722 1 1 0.999722
0.999773 1 1 0.999773
0.999761 1 1 0.999761
0.999095 1 1 0.999095
1 1 1 1
1 1 1 1
1 1 1 1
0.999846 1 1 0.999846
0.999232 1 1 0.999232
0.999698 1 1 0.999698
0.999718 1 1 0.999718
0.99978 1 1 0.99978
0.999743 1 1 0.999743
0.999766 1 1 0.999766
0.999785 1 1 0.999785
0.999097 1 1 0.999097
1 1 1 1
0.999701 1 1 0.999701
0.999752 1 1 0.999752
0.998964 1 1 0.998964
0.999068 1 1 0.999068
0.999774 1 1 0.999774
0.999119 1 1 0.999119
1.00438 1.00635 1 0.998041
1 1 1 1
0.999876 1 1 0.999876
0.999889 1 1 0.999889
1 1 1 1
0.999241 1 1 0.999241
0.999745 1 1 0.999745
0.99977 1 1 0.99977
0.99921 1 1 0.99921
1 1 1 1
0.999296 1 1 0.999296
0.999333 1 1 0.999333
0.999633 1.00159 1 0.998047
1 1 1 1
1 1 1 1
0.999858 1 1 0.999858
1 1 1 1
0.999716 1 1 0.999716
0.998891 1 1 0.998891
1 1 1 1
0.999111 1 1 0.999111
0.999761 1 1 0.999761
0.999793 1 1 0.999793
0.999767 1 1 0.999767
0.999102 1 1 0.999102
0.999842 1 1 0.999842
0.999721 1 1 0.999721
0.999785 1 1 0.999785
0.99977 1 1 0.99977
0.998963 1 1 0.998963
0.999123 1 1 0.999123
0.99907 1 1 0.99907
1.00479 1.00677 1 0.998026
1 1 1 1
0.999695 1 1 0.999695
0.999109 1 1 0.999109
0.998929 1 1 0.998929
0.999018 1 1 0.999018
1.00753 1.0098 1 0.997751
1.00578 1.00792 1 0.997877
0.999835 1 1 0.999835
0.999228 1 1 0.999228
1.0021 1.00397 1 0.99814
1.01766 1.02051 1 0.997202
1 1 1 1
1 1 1 1
1 1 1 1
0.999248 1 1 0.999248
1 1 1 1
1 1 1 1
0.999086 1 1 0.999086
0.999951 1 1 0.999951
0.999191 1 1 0.999191
0.999416 1 1 0.999416
0.999148 1.00111 1 0.998044
1 1 1 1
1.00037 1 1.00049 0.999878
0.999017 1 1 0.999017
0.999121 1 1 0.999121
1.00771 1.01011 1 0.997621
0.999631 1 1.00002 0.999615
1.00239 1.00445 1 0.997946
0.998491 1.0003 1 0.998189
1.00295 1.00556 1 0.997402
1 1 1 1
1 1 1 1
1 1 1 1
1 1 1 1
1 1 1 1
0.999855 1 1 0.999855
0.998994 1 1 0.998994
0.999862 1 1 0.999862
0.999043 1 1 0.999043
1 1 1 1
0.99889 1 1 0.99889
0.999092 1 1 0.999092
1.00669 1.00935 1 0.99737
0.999148 1 1 0.999148
1.00911 1.01171 1 0.997435
0.999718 1 1 0.999718
0.999739 1 1 0.999739
0.999795 1 1 0.999795
0.999785 1 1 0.999785
0.998963 1 1 0.998963
0.999074 1 1 0.999074
0.999129 1 1 0.999129
1.00519 1.0072 1 0.998012
1 1 1 1
0.999714 1 1 0.999714
0.998916 1 1 0.998916
0.998926 1 1 0.998926
0.999918 1 1 0.999918
0.999295 1 1 0.999295
0.999019 1 1 0.999019
1.00751 1.00982 1 0.99771
1.00274 1.00463 1 0.998122
1.00603 1.00814 1 0.997907
1.01756 1.02041 1 0.997208
0.998913 1 1 0.998913
0.998914 1 1 0.998914
1.00608 1.00853 1 0.997572
1.00758 1.00996 1 0.99764
1.0072 1.00946 1 0.997764
1.02589 1.02892 1 0.997057
1 1 1 1
1.02038 1.0233 1 0.99715
0.999598 1 1.00014 0.999454
0.999512 1.00137 1 0.998145
1.01433 1.01713 1 0.997254
1.02695 1.03004 1 0.997002
1.00044 1 1.00073 0.999712
1.00317 1 1.00436 0.99882
1 1 1 1
1 1 1 1
0.999092 1 1 0.999092
1 1 1 1
0.999395 1 1 0.999395
0.999197 1 1 0.999197
0.998578 1.00054 1 0.998041
1 1 1 1
1.00003 1 1.00013 0.999899
0.9991 1 1 0.9991
0.999198 1 1 0.999198
1.00711 1.00951 1 0.997623
0.999716 1 1.00011 0.999601
1.00148 1.00354 1 0.997949
0.99831 1.00012 1 0.998187
1.00281 1.00543 1 0.997386
1.00015 1 1.0004 0.999751
0.999955 1 1 0.999955
1.00103 1 1.00197 0.999061
1.00909 1.01161 1 0.997513
1.00542 1.00766 1 0.997784
1.02198 1.02504 1 0.99701
0.998585 1 1.00014 0.998442
1.00942 1.01215 1 0.99731
1.00181 1.00376 1.00057 0.997492
1.0102 1.01302 1 0.99721
1 1 1 1
1 1 1 1
1 1 1 1
0.999876 1 1.00006 0.999814
1 1 1 1
1 1 1 1
1 1 1 1
0.998974 1 1 0.998974
0.998921 1 1 0.998921
1 1 1 1
1 1 1 1
0.998892 1 1 0.998892
0.999023 1 1 0.999023
1.00709 1.00975 1 0.99737
0.998999 1 1 0.998999
1.00928 1.01187 1 0.997434
0.998886 1 1 0.998886
1.00567 1.00836 1 0.997328
1.00796 1.01058 1 0.997413
1.02823 1.03142 1 0.996911
1.00949 1.01206 1 0.997458
1.03085 1.03401 1 0.996947
1 1 1 1
0.999733 1 1 0.999733
0.998706 1 1 0.998706
0.998923 1 1 0.998923
1 1 1 1
0.999362 1 1 0.999362
0.999022 1 1 0.999022
1.00747 1.00982 1 0.997669
1.0063 1.00838 1 0.997937
1.00338 1.00529 1 0.998104
1.01744 1.02029 1 0.997214
0.998911 1 1 0.998911
0.998911 1 1 0.998911
1.00592 1.00848 1 0.997462
1.00758 1.00994 1 0.997667
1 1 1 1
0.999524 1 1.00005 0.999472
1.00035 1.00215 1 0.998211
1.00714 1.0094 1 0.997761
1.0258 1.02886 1 0.997026
1.01371 1.01652 1 0.997244
1.02058 1.02346 1 0.997185
1.02653 1.02961 1 0.99701
1.00064 1 1.00094 0.999702
1.00279 1 1.00397 0.998822
1.00517 1.00784 1 0.99735
1.00658 1.00899 1 0.997612
1.02667 1.02976 1 0.996998
1.02648 1.0296 1 0.996971
1.02304 1.02597 1 0.997144
1.03597 1.03907 1 0.997019
1.00029 1 1.0007 0.99959
1.02901 1.03207 1 0.997032
0.998633 1.00021 1.00011 0.99832
1.00752 1.01018 1 0.997362
1.02458 1.02766 1 0.997001
1.02865 1.03165 1 0.997096
1.00245 1 1.00382 0.998629
1.00049 1 1.00143 0.99906
1.00281 1 1.00461 0.998201
0.999041 1 1 0.999041
1 1 1 1
0.999919 1 1 0.999919
0.999152 1 1 0.999152
1.00651 1.0089 1 0.997624
0.999835 1 1.00023 0.999607
0.99823 1 1.00004 0.998186
1.00058 1.00263 1 0.997952
1.00294 1.00559 1 0.997369
1.00014 1 1.00037 0.999772
0.999966 1 1 0.999966
1.00128 1 1.00222 0.999063
1.00876 1.01127 1 0.997512
1.00456 1.00679 1 0.997789
1.02208 1.02515 1 0.997007
0.998684 1 1.00024 0.998445
1.0101 1.01281 1 0.997318
1.00122 1.00326 1.00047 0.997487
1.011 1.01384 1 0.997197
0.999987 1 1 0.999987
0.999891 1 1.00116 0.998732
1.00042 1 1.00104 0.999382
1.00156 1 1.00313 0.998439
1.02609 1.02924 1 0.996947
1.01664 1.01954 1 0.997161
1.02945 1.03268 1 0.996872
0.999693 1.00142 1.00049 0.997786
1.01785 1.02075 1 0.997153
1.00992 1.0112 1.00158 0.997159
1.02047 1.02346 1 0.997077
0.999779 1 1 0.999779
1 1 1 1
1 1 1 1
1 1 1 1
1 1 1 1
0.999895 1 1 0.999895
1 1 1 1
1.00025 1 1.00045 0.999801
1 1 1 1
0.999 1 1 0.999
0.998951 1 1 0.998951
1.00953 1.01213 1 0.997434
1.00747 1.01012 1 0.99737
0.998894 1 1 0.998894
1 1 1 1
0.998885 1 1 0.998885
1.00593 1.00863 1 0.997328
1.00836 1.01098 1 0.997413
1.02806 1.03125 1 0.996909
1.0095 1.01207 1 0.997456
1.0307 1.03386 1 0.996945
1.00505 1.00775 1 0.997323
1.02678 1.03001 1 0.996874
1.03011 1.03328 1 0.996939
1.04231 1.04549 0.999906 0.997059
1.02971 1.03287 1 0.996941
1.04051 1.04362 1 0.997016
0.998908 1 1 0.998908
0.998907 1 1 0.998907
1.00577 1.00844 1 0.997352
1.0076 1.00993 1 0.997695
1 1 1 1
0.999489 1 1 0.999489
1.00111 1.00284 1 0.998275
1.00709 1.00935 1 0.997759
1.02572 1.02881 1 0.996996
1.02074 1.02358 1 0.997219
1.0131 1.01591 1 0.997234
1.02623 1.0293 1 0.997017
1.00081 1 1.00112 0.999691
1.00241 1 1.00359 0.998824
1.00511 1.0078 1 0.997326
1.00656 1.00897 1 0.997608
1.02663 1.02972 1 0.997006
1.02665 1.02974 1 0.996998
1.00013 1 1.00055 0.999579
0.998839 1.00046 1.00006 0.998318
1.00796 1.01059 1 0.997398
1.02333 1.02627 1 0.997136
1.03602 1.03909 1 0.997045
1.02401 1.02712 1 0.996972
1.029 1.03206 1 0.997036
1.02896 1.03196 1 0.997095
1.00172 1 1.00309 0.998632
1.00295 1 1.00476 0.998204
1.00103 1 1.00197 0.999057
1.02576 1.02889 1 0.996953
1.02736 1.03042 1 0.997027
1.04091 1.04403 0.999986 0.997024
1.03749 1.0406 1 0.99701
1.03181 1.03485 1 0.997061
1.03501 1.03799 0.999853 0.997276
0.999016 1 1.00053 0.998492
1.03068 1.0336 1 0.99718
1.001 1.00333 1 0.997683
1.01571 1.01883 1 0.996943
1.02567 1.02887 1 0.996886
1.0252 1.02798 1 0.997302
0.99965 1 1.00037 0.999278
0.998745 1 1.00061 0.998135
1.00488 1 1.00656 0.998328
1.00053 1 1.00254 0.997996
1.00844 1.01095 1 0.997511
0.999977 1 1 0.999977
0.999885 1 1.00009 0.999793
1.00128 1 1.00222 0.999065
1.00371 1.00593 1 0.997793
1.02217 1.02524 1 0.997003
0.998696 1 1.00025 0.998449
1.00019 1.00238 1.00033 0.997483
1.01076 1.01347 1 0.997326
1.01132 1.01417 1 0.997184
0.999991 1 1 0.999991
1.00039 1 1.00165 0.998733
1.00002 1 1.00063 0.99939
1.00198 1 1.00355 0.998434
1.02599 1.02914 1 0.996942
1.01665 1.01955 1 0.99716
1.02923 1.03246 1 0.996869
0.999097 1.00086 1.00045 0.997792
1.01785 1.02075 1 0.997162
1.00957 1.01071 1.00173 0.997148
1.02055 1.02346 1 0.997149
0.999998 1 1 0.999998
0.999593 1 1 0.999593
0.999331 1.00009 1.0011 0.998144
1.00144 1 1.0027 0.998741
1.00036 1 1.00223 0.998139
1.03348 1.03671 1 0.996882
1.02377 1.02686 1 0.996988
1.02659 1.02974 1 0.996941
1.00449 1.0051 1.00199 0.997409
1.01856 1.02151 1 0.997111
1.01229 1.01459 1.00086 0.996883
0.999752 1 1 0.999752
0.999306 1 1 0.999306
0.999798 1 1 0.999798
0.999781 1 1 0.999781
1 1 1 1
1 1 1 1
1 1 1 1
1 1 1 1
1 1 1 1
0.999956 1 1 0.999956
1 1 1 1
0.99988 1 1 0.99988
1 1 1 1
1.00061 1 1.00083 0.999788
1 1 1 1
1.00946 1.01204 1 0.997454
1.0087 1.01132 1 0.997412
1.03034 1.0335 1 0.996944
1.02785 1.03104 1 0.996907
1.00627 1.00897 1 0.997328
0.998884 1 1 0.998884
1.00523 1.00793 1 0.997322
1.02659 1.02981 1 0.996874
1.02979 1.03295 1 0.996937
1.04176 1.04524 0.999594 0.997077
1.02912 1.03229 1 0.996938
1.04025 1.04337 1 0.997014
1.02593 1.02916 1 0.996865
1.04069 1.0446 0.999179 0.997076
1.04251 1.0456 1 0.997048
1.04121 1.04646 0.997694 0.997284
1.0365 1.03966 1 0.996954
1.03986 1.0431 0.99957 0.997322
1.00508 1.0078 1 0.997302
1.00655 1.00896 1 0.997604
1.02664 1.02971 1 0.997014
1.02681 1.02987 1 0.997026
0.999971 1 1.0004 0.999568
0.999069 1.00075 1 0.998316
1.0086 1.0112 1 0.997433
1.02365 1.0266 1 0.997127
1.0361 1.03914 1 0.997072
1.02901 1.03206 1 0.99704
1.0233 1.02644 1 0.996942
1.02927 1.03227 1 0.997095
1.00105 1 1.00242 0.998634
1.00314 1 1.00495 0.998206
1.00147 1 1.00242 0.999055
1.02578 1.02895 1 0.996921
1.02757 1.03064 1 0.997024
1.0406 1.04376 0.999915 0.997054
1.0376 1.04072 1 0.997005
0.999081 1 1.00059 0.99849
1.00253 1.00486 1 0.997677
1.01444 1.01746 1.00003 0.996992
1.03205 1.03511 1 0.997046
1.03505 1.03796 0.999868 0.997321
1.02595 1.02919 1 0.99685
1.03041 1.03332 1 0.997184
1.02559 1.02833 1 0.997333
0.999213 1.00005 1.00103 0.998136
1.00064 1 1.00267 0.997973
0.999908 1 1.00063 0.999274
1.00444 1 1.00609 0.998361
1.04071 1.04393 0.999889 0.997025
1.04016 1.04325 0.999995 0.99704
1.03856 1.04384 0.997734 0.997198
1.03611 1.04035 0.998586 0.997334
1.03258 1.0354 1 0.997277
1.03263 1.0367 0.998576 0.997499
0.998454 1.00049 1 0.997966
1.02639 1.02904 0.999922 0.9975
1.00584 1.0086 1 0.997259
1.01636 1.01953 1.00018 0.996717
1.027 1.03026 1 0.996841
1.02555 1.02825 1 0.997372
0.999445 1 1 0.999445
1.00207 1 1.00351 0.99856
0.997981 1.00007 1 0.997912
1.00331 1 1.00523 0.998088
1.00001 1.00007 1.002 0.997943
0.999995 1 1 0.999995
1.02583 1.02898 1 0.996938
0.999636 1 1.00024 0.999398
1.00116 1 1.00243 0.998734
1.00254 1 1.00412 0.998428
1.0167 1.0196 1 0.99716
1.02904 1.03228 1 0.996866
0.998672 1.00037 1.00051 0.997798
1.0101 1.01105 1.00193 0.997138
1.01794 1.02083 1 0.997171
1.0209 1.02374 1 0.997221
0.999999 1 1 0.999999
0.999601 1 1 0.999601
0.999123 1.00002 1.00096 0.998146
1.00179 1 1.00305 0.99874
1.00071 1 1.0026 0.998118
1.03352 1.03676 1 0.996876
1.02391 1.027 1 0.996987
1.0265 1.02966 1 0.99693
1.00351 1.00397 1.00213 0.997414
1.02117 1.02413 1 0.997114
1.0121 1.01427 1.00096 0.996902
0.999701 1 1 0.999701
0.999573 1 1.00055 0.999022
0.999407 1.00111 1.00048 0.997821
1.00281 1 1.00444 0.998381
0.999683 1 1.00165 0.998037
1.03128 1.03436 1 0.997024
1.02174 1.02482 1 0.996998
1.02514 1.02809 1 0.997131
1.00246 1.00147 1.00379 0.997213
1.01018 1.01343 1 0.996796
0.999755 1 1 0.999755
0.999236 1 1 0.999236
0.999282 1 1 0.999282
0.999048 1 1 0.999048
0.999317 1 1 0.999317
0.999806 1 1 0.999806
0.999799 1 1 0.999799
1 1 1 1
0.999783 1 1 0.999783
1 1 1 1
1 1 1 1
1 1 1 1
1 1 1 1
1 1 1 1
0.99999 1 1 0.99999
0.999941 1 1 0.999941
1 1 1 1
1 1 1 1
0.999865 1 1 0.999865
1 1 1 1
1.02864 1.0318 1 0.996935
1.02969 1.03286 1 0.996935
1.04014 1.04326 1 0.997011
1.0413 1.04509 0.999281 0.997095
1.02628 1.0295 1 0.996874
1.00532 1.00802 1 0.997322
1.02572 1.02894 1 0.996866
1.0407 1.04454 0.999245 0.99707
1.04216 1.04525 1 0.997048
1.04064 1.04634 0.997229 0.997316
1.03715 1.04033 1 0.996948
1.0393 1.04296 0.999148 0.997344
1.04024 1.04396 0.999385 0.997044
1.04022 1.04623 0.996993 0.997254
1.03995 1.04498 0.997814 0.997369
1.0376 1.04543 0.995053 0.997446
1.03636 1.03927 1 0.997196
1.03756 1.04275 0.997464 0.997548
1.02566 1.02887 1 0.996889
1.02775 1.03082 1 0.997022
1.04022 1.04343 0.999838 0.997085
1.03767 1.04079 1 0.996999
0.999165 1.00003 1.00065 0.998488
1.00382 1.00616 1 0.997671
1.01316 1.01599 1.00018 0.997041
1.0323 1.03537 1 0.99703
1.03502 1.03789 0.999872 0.997367
1.03011 1.03302 1 0.997187
1.02627 1.02955 1 0.996815
1.02564 1.02835 1 0.997364
0.999712 1.00016 1.00142 0.998138
1.00083 1.00007 1.00281 0.997951
1.00018 1 1.00091 0.999269
1.00369 1 1.00531 0.998394
1.04069 1.0439 0.999897 0.997025
1.03974 1.04286 0.999993 0.997019
1.0384 1.0436 0.997779 0.997231
1.03661 1.04042 0.999018 0.997317
0.999058 1.0011 1 0.997959
1.00515 1.00783 1.00003 0.997305
1.01683 1.01979 1.00039 0.996707
1.03198 1.03484 1 0.997235
1.03209 1.03609 0.998574 0.997557
1.02518 1.02845 1 0.996827
1.02737 1.02997 0.99997 0.997502
1.02637 1.02902 1 0.997424
0.998456 1.00055 1 0.99791
0.999613 1.0003 1.00136 0.997949
1.00387 1 1.0058 0.998082
0.999491 1 1.00008 0.999409
1.00182 1 1.00323 0.998592
1.03869 1.04516 0.996549 0.997243
1.03727 1.04278 0.99742 0.997283
1.0329 1.03986 0.995754 0.997545
1.0288 1.03296 0.998408 0.997568
0.999824 1.00214 1 0.997686
1.03117 1.03367 0.999905 0.997677
1.00397 1.00669 1.00029 0.997003
1.01475 1.0178 1.00051 0.996494
1.02309 1.02635 1 0.996818
0.99954 1 1 0.99954
1.00029 1 1.00143 0.998855
1.00224 1 1.00393 0.998322
0.998753 1.0009 1 0.997853
1.00398 1 1.00612 0.997866
0.999024 1.00038 1.0008 0.997845
0.999999 1 1 0.999999
0.999609 1 1 0.999609
1.03357 1.03682 1 0.996871
1.00225 1 1.00351 0.99874
0.998777 1 1.00063 0.998148
1.00122 1 1.00313 0.998097
1.02393 1.02703 1 0.996985
1.02624 1.02941 1 0.996919
1.0022 1.00249 1.00229 0.99742
1.0111 1.01344 1.00077 0.996921
1.0237 1.02666 1 0.997117
0.999706 1 1 0.999706
0.999444 1 1.00042 0.999025
0.998909 1.00068 1.00041 0.997818
1.00362 1 1.00525 0.998376
0.999679 1 1.00164 0.998038
1.03132 1.0344 1 0.997017
1.02204 1.02512 1 0.996988
1.02484 1.02776 1 0.997158
1.00272 1.00231 1.00324 0.997174
1.00905 1.01227 1.00006 0.996767
0.999197 1 1 0.999197
1.00198 1 1.00338 0.998605
1.00119 1.00151 1.002 0.997691
1.0025 1 1.00438 0.998128
0.999068 1.00014 1.001 0.997934
1.03141 1.03421 0.999813 0.997479
1.02021 1.02338 1 0.996904
1.02139 1.02428 1 0.997174
1.00417 1.00284 1.00433 0.997014
1.00217 1.00561 1 0.996579
0.999758 1 1 0.999758
0.999254 1 1 0.999254
0.998967 1 1 0.998967
0.999259 1 1 0.999259
0.999316 1 1 0.999316
0.999017 1 1 0.999017
0.998885 1 1 0.998885
0.998972 1 1 0.998972
0.999323 1 1 0.999323
0.999801 1 1 0.999801
0.999806 1 1 0.999806
1 1 1 1
0.999801 1 1 0.999801
1 1 1 1
1 1 1 1
1 1 1 1
1 1 1 1
1 1 1 1
1 1 1 1
0.999982 1 1 0.999982
1 1 1 1
0.999927 1 1 0.999927
1 1 1 1
1 1 1 1
1.03776 1.04095 1 0.996942
1.0416 1.04468 1 0.997047
1.03874 1.04281 0.998723 0.997366
1.04 1.04616 0.996763 0.997348
1.04076 1.04452 0.999331 0.997064
1.02565 1.02887 1 0.996866
1.04061 1.04414 0.99959 0.997024
1.04052 1.04627 0.997248 0.997247
1.04012 1.04489 0.998077 0.997351
1.03699 1.04515 0.99472 0.997459
1.03576 1.03867 1 0.997196
1.03609 1.0418 0.99692 0.997591
1.04004 1.04581 0.997252 0.997229
1.03836 1.04675 0.994533 0.997439
1.03749 1.04601 0.994292 0.997555
1.03457 1.03984 0.997296 0.997627
1.04079 1.044 0.999899 0.997025
1.03938 1.04251 1 0.996997
1.03829 1.04338 0.997855 0.997263
1.03718 1.04057 0.999441 0.997299
0.999687 1.00173 1 0.997951
1.00448 1.00715 1 0.99735
1.0172 1.01997 1.00058 0.996698
1.03132 1.03423 1 0.997193
1.03154 1.0355 0.998562 0.997614
1.02853 1.0311 1 0.997504
1.02372 1.027 1 0.996813
1.0279 1.0305 1 0.997476
0.998873 1.00097 1 0.997907
0.999157 1.00052 1.00068 0.997955
1.00521 1 1.00715 0.998075
0.999568 1 1.0002 0.999372
1.00171 1 1.00309 0.998624
1.03915 1.04549 0.99668 0.997246
1.03733 1.04294 0.997333 0.997279
1.03276 1.03923 0.99623 0.997534
1.00066 1.00299 1 0.997679
1.0044 1.00712 1.00026 0.997048
1.01407 1.01687 1.00076 0.996482
1.02934 1.03347 0.998448 0.997555
1.024 1.02717 1 0.99691
1.02834 1.03106 0.999706 0.997649
0.999562 1 1 0.999562
0.999536 1.0017 1 0.997841
0.998517 1.00014 1.00041 0.997966
1.00458 1 1.00675 0.997851
1.00245 1 1.00411 0.99834
1.0002 1 1.00138 0.998823
1.03653 1.04532 0.99425 0.99733
1.03518 1.04566 0.992496 0.997463
1.02703 1.03733 0.992423 0.997631
1.03065 1.03716 0.99594 0.997772
1.00152 1.00403 1 0.997504
1.02315 1.02593 1 0.997287
1.0032 1.005 1.00165 0.996575
1.00767 1.01032 1.00104 0.996333
0.999717 1 1 0.999717
0.999168 1 1.00009 0.999075
1.00048 1 1.00195 0.998533
1.00382 1 1.00585 0.997979
0.999651 1.00175 1.00021 0.997693
1.00512 1 1.00747 0.997666
0.999711 1 1 0.999711
0.999208 1 1.00018 0.999029
1.03155 1.03465 1 0.99701
1.00393 1 1.00557 0.998372
0.998336 1.00025 1.00027 0.997816
0.99956 1 1.00152 0.998039
1.0226 1.0257 1 0.996977
1.02485 1.02775 1 0.997184
1.00322 1.00336 1.00273 0.997135
1.00792 1.01095 1.00027 0.996738
0.9992 1 1 0.9992
1.00191 1 1.0033 0.998607
1.00093 1.00125 1.00198 0.997702
1.00244 1 1.00431 0.998135
0.998557 1.00006 1.00048 0.998021
1.03199 1.03495 0.999618 0.997521
1.01959 1.02275 1 0.996915
1.02283 1.02566 1 0.997247
1.0036 1.00205 1.00458 0.996976
1.00271 1.00618 1.00003 0.99652
0.998882 1 1.00001 0.998875
1.00302 1 1.00479 0.998245
1.00271 1.00138 1.00378 0.99755
0.999417 1 1.00161 0.997813
1.03215 1.04586 0.989106 0.997765
1.02563 1.02825 0.999872 0.997579
1.01163 1.01501 1 0.996668
1.00384 1.003 1.00426 0.9966
0.999272 1 1 0.999272
0.99898 1 1 0.99898
0.998865 1 1 0.998865
0.999316 1 1 0.999316
0.998986 1 1 0.998986
0.999322 1 1 0.999322
0.998875 1 1 0.998875
0.998985 1 1 0.998985
0.998827 1 1 0.998827
0.998802 1 1 0.998802
0.998941 1 1 0.998941
0.999306 1 1 0.999306
0.999786 1 1 0.999786
0.9998 1 1 0.9998
1 1 1 1
0.999806 1 1 0.999806
1 1 1 1
1 1 1 1
1 1 1 1
1 1 1 1
1 1 1 1
1 1 1 1
0.999998 1 1 0.999998
1 1 1 1
0.999974 1 1 0.999974
1 1 1 1
1 1 1 1
1.03505 1.03796 1 0.997195
1.04036 1.04488 0.998334 0.997334
1.03467 1.04088 0.996387 0.997634
1.03642 1.04492 0.994372 0.997472
1.04082 1.04632 0.997492 0.997239
1.04086 1.04423 0.999776 0.997004
1.03986 1.04573 0.997153 0.997228
1.03802 1.04628 0.994664 0.99743
1.03678 1.04533 0.99426 0.997554
1.03625 1.04129 0.997514 0.997635
1.03853 1.04658 0.994917 0.997382
1.03904 1.05124 0.990771 0.9976
1.03914 1.04953 0.9924 0.997684
1.03958 1.0458 0.996799 0.997248
1.03736 1.04307 0.997236 0.997275
1.0327 1.03859 0.996797 0.997524
1.00151 1.00384 1 0.997672
1.00471 1.00746 1.00018 0.997093
1.01315 1.01587 1.00085 0.996471
1.02991 1.03398 0.998521 0.997542
1.02524 1.02809 0.999608 0.997621
1.02428 1.02736 1 0.997002
0.999892 1.00207 1 0.99783
0.998087 1 1 0.998087
1.00498 1 1.00716 0.997837
0.999584 1 1 0.999584
1.00195 1 1.0036 0.998357
1.00007 1 1.00128 0.998792
1.03719 1.04571 0.994502 0.997337
1.03489 1.04561 0.992251 0.997471
1.02724 1.03692 0.993029 0.997624
1.00088 1.00339 1 0.997494
1.0029 1.00486 1.0014 0.996657
1.00751 1.01024 1.0009 0.996392
1.0308 1.03699 0.996243 0.997779
1.02284 1.02579 0.999856 0.99727
0.999766 1 1 0.999766
0.999121 1 1.00005 0.999075
0.998647 1.00091 1 0.997742
1.00715 1.00018 1.0092 0.997782
1.00388 1 1.00588 0.998012
1.00042 1 1.00192 0.998507
1.03686 1.04884 0.991031 0.997521
1.02745 1.04417 0.986364 0.997591
1.02525 1.03718 0.990653 0.997821
1.0214 1.02837 0.995418 0.997796
1.00121 1.00313 1.00091 0.997177
1.00646 1.00852 1.0014 0.996554
1.00278 1.00378 1.00264 0.996368
0.999881 1 1 0.999881
0.999456 1 1 0.999456
0.999225 1 1 0.999225
0.99891 1 1.00024 0.99867
1.00101 1 1.00279 0.99822
1.00743 1 1.00958 0.997865
0.998122 1.00034 1 0.997784
1.02757 1.00023 1.02943 0.99797
0.999203 1 1 0.999203
1.0021 1 1.0035 0.998608
1.03249 1.03561 0.999426 0.997562
1.00283 1 1.0047 0.998142
1.00093 1.00106 1.00215 0.997713
0.998143 1 1.00004 0.998107
1.01859 1.02173 1 0.996928
1.02404 1.02679 1 0.99732
1.00319 1.00145 1.00482 0.996939
1.00341 1.00697 1 0.996462
0.998986 1 1.00014 0.99885
1.00298 1 1.00473 0.99826
1.00308 1.00136 1.00415 0.997579
0.999318 1.00006 1.00142 0.997848
1.03393 1.04714 0.989585 0.997782
1.02545 1.02804 0.999949 0.997534
1.01272 1.01606 1 0.996711
1.00473 1.00442 1.00377 0.996551
0.999545 1 1.0009 0.998647
1.03145 1.05023 0.984292 0.997788
1.00139 1 1.00344 0.997952
1.00191 1.00194 1.00268 0.997298
1.03129 1.03823 0.99543 0.997873
1.01215 1.01539 1 0.996808
1.00529 1.00569 1.00323 0.996382
0.998993 1 1 0.998993
0.998858 1 1 0.998858
0.998821 1 1 0.998821
0.999321 1 1 0.999321
0.998998 1 1 0.998998
0.998865 1 1 0.998865
0.999304 1 1 0.999304
0.998945 1 1 0.998945
0.998821 1 1 0.998821
0.998823 1 1 0.998823
0.998818 1 1 0.998818
0.998754 1 1 0.998754
0.998806 1 1.00007 0.998739
0.998909 1 1 0.998909
0.999263 1 1 0.999263
0.999766 1 1 0.999766
0.999785 1 1 0.999785
1 1 1 1
0.999799 1 1 0.999799
1 1 1 1
1 1 1 1
1 1 1 1
1 1 1 1
1 1 1 1
0.999908 1 1 0.999908
1 1 1 1
1 1 1 1
1 1 1 1
0.999997 1 1 0.999997
1 1 1 1
1 1 1 1
1.03795 1.04278 0.997719 0.997643
1.03604 1.04456 0.994277 0.997553
1.03764 1.04577 0.994795 0.997421
1.0397 1.04565 0.997074 0.997228
1.03812 1.0465 0.994576 0.997401
1.03912 1.05088 0.991194 0.99759
1.03804 1.04876 0.992072 0.997694
1.0388 1.05111 0.990682 0.997577
1.04481 1.05842 0.989407 0.997704
1.0306 1.0501 0.983451 0.997945
1.03788 1.04612 0.994766 0.997344
1.03455 1.0456 0.991925 0.997479
1.02725 1.03648 0.993468 0.997616
1.00089 1.00336 1.00006 0.997484
1.00299 1.005 1.00126 0.996739
1.0079 1.01071 1.00078 0.996451
1.03104 1.03694 0.996515 0.997786
1.02267 1.02587 0.999632 0.997254
0.998124 1.00033 1 0.997792
1.00946 1.00054 1.01105 0.997898
1.00472 1 1.00669 0.998046
0.999815 1 1 0.999815
0.9991 1 1.00003 0.999074
1.00063 1 1.00216 0.998481
1.03684 1.04914 0.99072 0.997532
0.999876 1 1 0.999876
0.999429 1 1 0.999429
1.0273 1.04336 0.986986 0.997592
1.02478 1.03718 0.990232 0.99779
1.00074 1.00244 1.00105 0.997268
1.00335 1.00371 1.0033 0.99635
1.00715 1.00979 1.00084 0.99655
1.02024 1.02743 0.995217 0.997775
0.999296 1 1 0.999296
0.998948 1 1.00028 0.998664
0.99894 1.00068 1.00057 0.997693
1.0222 1.00022 1.02391 0.998115
1.0059 1 1.00805 0.997873
1.00146 1 1.00323 0.998238
1.04354 1.05701 0.989569 0.997663
1.01219 1.04161 0.973965 0.997731
1.019 1.03288 0.988547 0.997984
1.00395 1.01179 0.994743 0.997491
1.00174 1.00111 1.00334 0.997296
1.00355 1.00183 1.00547 0.996268
0.999426 1 1 0.999426
0.999406 1 1 0.999406
0.999143 1 1 0.999143
0.998765 1 1 0.998765
0.999477 1 1.00104 0.998439
1.00065 1 1.00271 0.997944
1.03681 1 1.03902 0.997864
1.00205 1.00032 1.0036 0.998131
0.999151 1 1.00033 0.998824
1.00252 1 1.00425 0.998276
1.03516 1.04765 0.990257 0.9978
1.02527 1.02785 1 0.997489
0.999129 1.0001 1.00115 0.997883
1.00335 1.00134 1.00441 0.997608
1.01416 1.01743 1.00004 0.996753
1.00544 1.0056 1.00335 0.996501
0.999697 1 1.00106 0.998635
1.03312 1.05256 0.983667 0.997828
1.00139 1 1.00343 0.997971
1.00157 1.00164 1.00269 0.997251
1.02995 1.03754 0.994828 0.997847
1.01229 1.01547 1 0.996875
1.0055 1.00563 1.00348 0.996398
1.00089 1 1.00257 0.998328
1.01766 1.03642 0.983638 0.998231
1.00164 1.00193 1.00201 0.997705
1.00318 1.00249 1.00379 0.996908
1.01516 1.02197 0.995852 0.997471
1.00209 1.00333 1.00221 0.996565
0.994182 1.00578 0.990417 0.998036
0.998851 1 1 0.998851
0.999024 1 1.00021 0.998818
0.998814 1 1.0001 0.998711
0.999302 1 1 0.999302
0.998949 1 1 0.998949
0.998844 1 1 0.998844
0.998815 1 1 0.998815
0.999262 1 1 0.999262
0.998899 1 1 0.998899
0.998789 1 1 0.998789
0.998756 1 1.00002 0.998739
0.998756 1 1 0.998756
0.998771 1 1 0.998771
0.998867 1 1.00029 0.998581
0.998896 1 1.00017 0.998724
0.998815 1 1 0.998815
0.999166 1 1 0.999166
0.998968 1 1 0.998968
0.999151 1 1 0.999151
0.999754 1 1 0.999754
0.999764 1 1 0.999764
1 1 1 1
0.999783 1 1 0.999783
1 1 1 1
1 1 1 1
1 1 1 1
1 1 1 1
1 1 1 1
0.999928 1 1 0.999928
0.999906 1 1 0.999906
1 1 1 1
1 1 1 1
1 1 1 1
1 1 1 1
1 1 1 1
1 1 1 1
1.03709 1.04822 0.991663 0.997704
1.03915 1.05057 0.991534 0.997579
1.03771 1.04643 0.994237 0.99742
1.03877 1.05103 0.990743 0.997575
1.04285 1.05643 0.989421 0.997701
1.03104 1.04942 0.984569 0.997892
1.04483 1.06091 0.987041 0.997768
0.984507 1.01605 0.972057 0.996811
1.00851 1.03352 0.977207 0.998553
0.999525 1 1 0.999525
1.0368 1.0494 0.99043 0.997544
1.02746 1.04264 0.987822 0.997592
1.02446 1.03725 0.989895 0.997758
0.999514 1.00134 1.00082 0.997358
1.00363 1.0033 1.00402 0.996333
1.0077 1.01073 1.00045 0.996548
1.01887 1.02622 0.995077 0.997754
0.9985 1.0009 1 0.997604
1.01637 1 1.01814 0.998262
1.0041 1 1.00623 0.997882
0.999872 1 1 0.999872
1.00172 1 1.00347 0.998256
0.999366 1 1 0.999366
0.998858 1 1.0002 0.998659
0.999403 1 1 0.999403
1.04122 1.05729 0.987098 0.99767
0.999462 1 1 0.999462
0.999404 1 1 0.999404
0.999105 1 1 0.999105
1.01507 1.04137 0.97696 0.997732
1.01939 1.03344 0.988445 0.997939
1.00037 1.00103 1.00202 0.99732
1.00374 1.00185 1.00556 0.996353
1.00311 1.00997 0.995719 0.997481
0.998808 1 1 0.998808
0.999517 1 1.00112 0.998402
1.00679 1.00019 1.00856 0.998045
1.02985 1 1.03202 0.997902
1.00052 1 1.00255 0.997979
1.02937 1.04886 0.98362 0.997761
1.00636 1.03932 0.970366 0.997861
1.01122 1.02052 0.993199 0.997672
0.996044 1.00401 0.994795 0.997259
1.00324 1 1.00558 0.997674
0.99904 1 1 0.99904
0.998949 1 1 0.998949
0.998894 1 1.00006 0.998831
0.999042 1 1.0005 0.998546
1.00042 1 1.00218 0.998241
1.02511 1 1.02723 0.997936
1.02459 1 1.02676 0.997885
0.999742 1 1.00112 0.998622
1.00138 1 1.0034 0.99799
1.03411 1.05553 0.981804 0.997868
1.02871 1.03714 0.994036 0.99782
1.01213 1.01523 1 0.996942
1.00131 1.00144 1.00268 0.997204
1.00542 1.00541 1.0036 0.996415
1.00084 1 1.00247 0.998369
1.01557 1.03638 0.981633 0.998254
1.00042 1.00128 1.00142 0.997724
1.00268 1.0017 1.00408 0.996916
1.01541 1.02216 0.995821 0.99757
1.00204 1.00277 1.00273 0.996552
0.993465 1.00541 0.990786 0.997305
1.00058 1.0002 1.0022 0.998184
1.00707 1.02051 0.988594 0.998212
1.00054 1.0009 1.00194 0.9977
1.00441 1.00096 1.00644 0.997026
0.995643 1.0058 0.992614 0.997267
0.941111 0.98257 0.975903 0.981455
0.949614 0.97999 0.978143 0.990657
0.983168 0.99284 0.992179 0.998065
0.802406 0.873039 0.947643 0.969876
0.740002 0.856242 0.8981 0.962304
0.999062 1 1.00025 0.998815
0.999155 1 1.00041 0.998744
0.998931 1 1.0002 0.998734
0.999262 1 1 0.999262
0.998888 1 1 0.998888
0.99874 1 1 0.99874
0.998758 1 1 0.998758
0.998761 1 1 0.998761
0.999413 1 1.00071 0.998701
0.999194 1 1 0.999194
0.998831 1 1 0.998831
0.998756 1 1 0.998756
0.999225 1 1.00063 0.9986
1.00058 1 1.00197 0.99861
1.00063 1 1.00201 0.998628
0.999531 1 1.0009 0.998631
0.998778 1 1 0.998778
0.999144 1 1 0.999144
0.998853 1 1 0.998853
0.998795 1 1 0.998795
0.99896 1 1 0.99896
0.998933 1 1 0.998933
0.99924 1 1 0.99924
0.999148 1 1 0.999148
0.999749 1 1 0.999749
0.999754 1 1 0.999754
1 1 1 1
0.999763 1 1 0.999763
1 1 1 1
1 1 1 1
1 1 1 1
1 1 1 1
1 1 1 1
0.999942 1 1 0.999942
0.999925 1 1 0.999925
1 1 1 1
0.999905 1 1 0.999905
1 1 1 1
1 1 1 1
1 1 1 1
1 1 1 1
1 1 1 1
1.04069 1.05426 0.989408 0.997698
1.03878 1.05095 0.99083 0.997574
1.03206 1.04896 0.986019 0.99784
0.988573 1.01587 0.976183 0.996871
1.04211 1.05842 0.986792 0.997766
1.01751 1.03633 0.983373 0.998444
1.03469 1.04436 0.992864 0.997864
0.945559 0.982801 0.972008 0.989813
0.998237 1.01935 0.981774 0.997466
0.999532 1 1 0.999532
0.999522 1 1 0.999522
0.999143 1 1 0.999143
0.999188 1 1 0.999188
1.03923 1.05747 0.985033 0.997678
1.01724 1.04066 0.979719 0.997732
1.01952 1.03373 0.988334 0.997893
0.999255 1.00073 1.00118 0.997343
1.00386 1.00208 1.00536 0.996436
1.00238 1.00866 0.996296 0.99747
1.01218 1 1.01425 0.997959
1.02326 1 1.02537 0.997938
1.00019 1 1.00218 0.998014
0.999403 1 1 0.999403
0.999446 1 1.00108 0.998365
0.998851 1 1 0.998851
0.999498 1 1 0.999498
0.999067 1 1 0.999067
1.02684 1.04849 0.981534 0.997776
0.999086 1 1 0.999086
0.998993 1 1 0.998993
0.998917 1 1 0.998917
1.00954 1.04154 0.97136 0.997859
1.01005 1.02 0.992552 0.997671
1.00289 1.00005 1.00519 0.997657
0.997229 1.00445 0.995495 0.997306
0.999184 1 1.00066 0.998525
1.00007 1 1.00189 0.998182
1.02764 1.00011 1.02971 0.997874
1.02612 1 1.02829 0.997894
1.0018 1.03668 0.968376 0.99791
1.0004 1.02775 0.975503 0.997824
1.00352 1.0082 0.997991 0.997365
0.990694 1.00035 0.992291 0.998046
0.998706 1 1 0.998706
0.999551 1 1.00091 0.998648
1.00858 1 1.0102 0.998393
1.04266 1 1.04495 0.997813
0.917572 0.971499 0.96397 0.979793
1.00112 1 1.00271 0.99841
0.999418 1.00058 1.00109 0.997742
1.01454 1.0362 0.980791 0.998277
1.0159 1.0226 0.995769 0.997668
1.00232 1.0025 1.0033 0.996538
1.00234 1.00096 1.00447 0.996923
0.994032 1.00535 0.992158 0.996558
1.00038 1.00009 1.00206 0.99823
1.00759 1.02102 0.988624 0.998202
1.00002 1.00087 1.00144 0.997713
1.0042 1.00108 1.00611 0.997025
0.998272 1.0068 0.994228 0.997282
0.940139 0.987129 0.971964 0.979868
0.945002 0.977692 0.977922 0.988386
0.983173 0.991162 0.993844 0.998084
0.802026 0.870723 0.949336 0.97026
0.724775 0.845278 0.893917 0.959194
0.999748 1 1.00132 0.998429
0.82983 0.893666 0.955694 0.971617
0.782402 0.860981 0.942863 0.963802
0.989168 1.00713 0.984028 0.998102
1.00576 1.00093 1.00686 0.99797
1.01218 1.00422 1.01045 0.997501
0.974505 0.986913 0.98914 0.998269
0.935287 0.970428 0.983443 0.980013
0.925567 0.95408 0.982608 0.987286
0.782683 0.871977 0.924123 0.971294
0.801226 0.904036 0.919947 0.9634
0.999681 1 1.00091 0.998776
0.999723 1 1.00101 0.998717
1.00036 1 1.00144 0.998918
0.999223 1 1 0.999223
0.998848 1 1 0.998848
0.999645 1 1.00097 0.998677
0.999701 1 1.00108 0.998619
0.998741 1 1 0.998741
0.999145 1 1 0.999145
1.00026 1 1.00166 0.998603
0.99991 1 1.00126 0.998647
0.998807 1 1 0.998807
1.00027 1 1.00163 0.998638
1.00199 1 1.00339 0.998608
1.00332 1 1.00463 0.998696
0.998687 1 1.00008 0.998607
0.998815 1 1 0.998815
0.99885 1 1 0.99885
0.998788 1 1 0.998788
0.998676 1 1 0.998676
0.999076 1 1.00028 0.998791
0.999046 1 1.0003 0.998751
1.00001 1 1.00141 0.99861
0.999234 1 1.00031 0.998929
0.998994 1 1.00003 0.998959
0.999265 1 1 0.999265
0.998898 1 1 0.998898
0.999215 1 1 0.999215
0.999743 1 1 0.999743
0.999146 1 1 0.999146
0.99975 1 1 0.99975
1 1 1 1
0.999753 1 1 0.999753
1 1 1 1
1 1 1 1
1 1 1 1
1 1 1 1
1 1 1 1
0.999499 1 1 0.999499
0.999942 1 1 0.999942
0.999939 1 1 0.999939
1 1 1 1
0.999921 1 1 0.999921
1 1 1 1
1 1 1 1
1 1 1 1
1 1 1 1
1 1 1 1
0.991701 1.01579 0.979285 0.996936
1.04006 1.05582 0.987285 0.997765
1.02315 1.03908 0.98632 0.998332
0.939913 0.976632 0.971309 0.990829
0.998632 1.01907 0.982307 0.997595
1.03585 1.04761 0.990936 0.99782
1.01382 1.02576 0.990881 0.997458
0.95464 0.978046 0.984095 0.991844
0.940343 0.980357 0.979128 0.979631
0.790163 0.868084 0.937645 0.97077
0.715795 0.824166 0.903149 0.961643
0.999139 1 1 0.999139
0.999531 1 1 0.999531
0.99952 1 1 0.99952
0.99913 1 1 0.99913
0.998899 1 1 0.998899
0.998932 1 1 0.998932
0.999107 1 1 0.999107
0.999157 1 1 0.999157
1.02382 1.0485 0.978628 0.99779
1.01379 1.04482 0.97238 0.997857
1.00915 1.01944 0.99222 0.99767
1.00277 1.00021 1.00493 0.997642
0.998518 1.00451 0.996673 0.997353
1.03007 1 1.03228 0.997862
1.02765 1 1.02986 0.997853
0.999918 1 1.0018 0.998122
0.999039 1 1 0.999039
0.999061 1 1.00056 0.998504
0.999132 1 1 0.999132
0.999002 1 1 0.999002
1.00269 1.03728 0.968685 0.997907
0.998754 1 1.00002 0.998736
0.999042 1 1.00036 0.998681
1.00036 1.02704 0.976163 0.997801
1.00067 1.0077 0.995535 0.997484
0.993048 1.00075 0.994337 0.997951
1.0123 1 1.01404 0.998289
1.03831 1 1.04057 0.997831
0.995427 1.02671 0.971574 0.997894
0.985633 1.00836 0.97956 0.997858
0.985668 1.00093 0.986836 0.997884
0.997753 1.00032 0.999281 0.998149
1.0001 1 1.00166 0.998443
1.00437 1 1.00596 0.998423
1.03721 1 1.0392 0.998089
0.821024 0.901172 0.936727 0.972603
0.93402 0.976833 0.973402 0.982299
0.999805 1 1.00153 0.998276
0.999582 1.00079 1.00107 0.997727
1.00826 1.02169 0.98865 0.998192
1.00061 1.00776 0.995596 0.997298
1.00404 1.00132 1.00571 0.997025
0.934869 0.976977 0.976517 0.979911
0.95112 0.984381 0.976947 0.989011
0.983489 0.989634 0.995687 0.998096
0.800787 0.87235 0.944622 0.971781
0.712158 0.8345 0.892661 0.956012
0.999801 1 1.00138 0.998427
0.825073 0.898126 0.944997 0.972131
0.773949 0.853004 0.942899 0.962268
0.990242 1.00796 0.984295 0.998098
1.00563 1.00112 1.00653 0.997996
1.01036 1.00256 1.01014 0.997654
0.966794 0.980798 0.987307 0.998395
0.94022 0.979395 0.981418 0.978178
0.926076 0.958199 0.976772 0.989458
0.785706 0.8674 0.934109 0.969712
0.79865 0.907115 0.914663 0.962571
1.00134 1 1.00258 0.998769
0.812775 0.871776 0.965691 0.965445
0.885345 0.937504 0.971806 0.971762
0.99013 0.999332 0.992073 0.998709
1.01372 1.00259 1.01244 0.998677
0.977 0.971107 1.00772 0.998363
0.914492 0.941279 0.980834 0.990525
0.915052 0.94637 0.989169 0.977495
0.795388 0.872644 0.939334 0.970335
0.834562 0.935411 0.923371 0.966228
1.00045 1 1.00175 0.998699
1.00027 1 1.00139 0.998887
1.00392 1 1.00482 0.999114
0.999146 1 1 0.999146
0.998837 1 1 0.998837
1.00043 1 1.00177 0.998664
1.00028 1 1.00168 0.998596
1.00011 1 1.00147 0.998647
0.998814 1 1 0.998814
1.0009 1 1.0023 0.998604
0.998688 1 1.00008 0.998609
1.00429 1 1.00556 0.998739
1.01934 0.999722 1.02052 0.999118
1.00094 1 1.00234 0.998601
0.998573 1 1 0.998573
0.998846 1 1 0.998846
0.998782 1 1 0.998782
0.998694 1 1.00002 0.998671
0.999113 1 1.00033 0.998785
0.999017 1 1.00023 0.99879
1 1 1.00128 0.998722
0.999013 1 1.00034 0.998673
0.999906 1 1.00112 0.998784
0.998749 1 1.0002 0.998552
0.99898 1 1.00093 0.998053
0.99995 1 1.00146 0.998492
0.999962 1 1.00136 0.998608
0.999909 1 1.00106 0.998852
0.999459 1 1.00053 0.998927
0.999255 1 1 0.999255
0.999116 1 1.00016 0.998959
0.999266 1 1 0.999266
0.99974 1 1 0.99974
0.999191 1 1 0.999191
0.999744 1 1 0.999744
1 1 1 1
0.99975 1 1 0.99975
1 1 1 1
1 1 1 1
1 1 1 1
1 1 1 1
1 1 1 1
0.999515 1 1 0.999515
0.999928 1 1 0.999928
0.9995 1 1 0.9995
1 1 1 1
0.999943 1 1 0.999943
0.999937 1 1 0.999937
1 1 1 1
1 1 1 1
1 1 1 1
1 1 1 1
1 1 1 1
0.821385 0.888696 0.952259 0.970596
0.781215 0.860125 0.942137 0.964039
0.942323 0.980987 0.968998 0.99132
1.00006 1.01871 0.983929 0.997727
1.03881 1.05092 0.990679 0.997776
0.938685 0.964957 0.979426 0.993208
1.01261 1.02517 0.99017 0.997554
0.948454 0.989224 0.977457 0.980898
0.797924 0.872522 0.942746 0.970041
0.710869 0.827855 0.895877 0.958488
0.968983 0.996443 0.977387 0.99494
0.938438 0.973486 0.983134 0.980535
0.777304 0.868778 0.921751 0.970662
0.787196 0.894211 0.915118 0.961979
0.999097 1 1.00031 0.998783
0.999166 1 1 0.999166
0.99953 1 1 0.99953
0.999118 1 1 0.999118
0.998941 1 1 0.998941
0.999276 1 1.00049 0.998785
0.998922 1 1 0.998922
0.998889 1 1 0.998889
0.999074 1 1 0.999074
0.999127 1 1 0.999127
1.00411 1.03738 0.969965 0.997905
0.99833 1.02507 0.976081 0.99778
0.997918 1.00759 0.992778 0.997604
0.994852 1.00098 0.996009 0.997856
1.03327 1.00022 1.03527 0.99785
1.01688 1 1.01873 0.998184
0.998715 1 1 0.998715
0.998765 1 1 0.998765
0.995348 1.027 0.97119 0.99793
1.0008 1 1.00239 0.99842
1.00451 1 1.00613 0.998387
0.984913 1.00675 0.980488 0.99778
0.984019 1.00045 0.985566 0.997984
0.999219 1.00103 1.00014 0.998056
1.03296 1 1.03497 0.998057
0.992428 1.0043 0.98993 0.998227
0.979738 1 0.981082 0.99863
1.01455 1.00052 1.01581 0.998246
1.00409 1 1.00571 0.998392
1.0034 1 1.00516 0.998254
1.0203 1 1.02216 0.998181
0.82959 0.883801 0.967416 0.970278
0.831102 0.900296 0.94923 0.972517
0.923489 0.974465 0.967169 0.979857
0.999782 1 1.00136 0.998424
1.00545 1.00114 1.0063 0.998021
0.992239 1.00862 0.985636 0.998096
1.00891 1.00101 1.0101 0.997805
0.817577 0.892802 0.941613 0.972526
0.938693 0.976442 0.980944 0.980014
0.91727 0.954658 0.973116 0.987381
0.962986 0.976002 0.988126 0.99852
0.784751 0.867018 0.9344 0.968659
0.775795 0.856972 0.940546 0.9625
0.786436 0.897249 0.909663 0.963541
1.00199 1 1.00322 0.998772
0.814188 0.875188 0.962055 0.966994
0.893575 0.94437 0.973861 0.97161
0.99177 0.999253 0.993705 0.998799
1.01346 1.0012 1.01362 0.998646
0.973909 0.969708 1.0058 0.998541
0.913122 0.944341 0.978222 0.988467
0.918977 0.951011 0.986713 0.979328
0.813869 0.89194 0.941076 0.969603
0.821797 0.92375 0.919845 0.967153
1.0056 0.999679 1.00648 0.999442
0.898702 0.946204 0.97299 0.976163
0.873658 0.934515 0.95804 0.975824
0.995914 0.982093 1.01436 0.999715
0.935191 0.941754 0.999272 0.993755
0.924154 0.943629 1.001 0.978383
0.851097 0.912055 0.963149 0.968868
0.847932 0.953164 0.920671 0.966249
1.00002 1 1.00117 0.998857
1.00341 1 1.0043 0.999116
1.01923 0.999989 1.0199 0.999354
0.998813 1 1 0.998813
0.99864 1 1.00003 0.998611
0.999588 1 1.00099 0.9986
1.00509 1 1.00632 0.998782
0.998572 1 1 0.998572
1.00136 1 1.00277 0.998593
1.02263 0.999976 1.02349 0.999185
1.03424 0.997194 1.03772 0.999446
1.02291 1 1.02387 0.999068
0.998566 1 1 0.998566
0.998699 1 1.00003 0.998666
0.998962 1 1.00018 0.998778
0.998828 1 1 0.998828
0.998815 1 1.00013 0.998688
0.999736 1 1.00101 0.998722
1.00019 1 1.0014 0.998795
0.999611 1 1.00093 0.998687
1.00384 1 1.00483 0.99901
0.998626 1 1 0.998626
0.998963 1.00011 1.00027 0.99858
0.99892 1 1.00069 0.998227
0.998994 1 1.00153 0.997472
1.00076 1 1.00236 0.998404
0.998973 1 1.00079 0.998182
0.999825 1 1.00131 0.998521
1.00014 1 1.00143 0.998712
0.999839 1 1.00123 0.998606
0.999645 1 1.0008 0.998851
0.999195 1 1 0.999195
0.999448 1 1.00052 0.998924
0.999253 1 1 0.999253
0.999734 1 1 0.999734
0.999267 1 1 0.999267
0.999741 1 1 0.999741
0.999999 1 1 0.999999
0.999746 1 1 0.999746
1 1 1 1
1 1 1 1
1 1 1 1
1 1 1 1
1 1 1 1
0.999337 1 1 0.999337
0.999903 1 1 0.999903
0.999453 1 1 0.999453
1 1 1 1
0.999932 1 1 0.999932
0.9995 1 1 0.9995
1 1 1 1
1 1 1 1
0.999944 1 1 0.999944
1 1 1 1
1 1 1 1
1 1 1 1
0.812126 0.873463 0.960762 0.967749
0.826325 0.896146 0.949451 0.971179
0.891133 0.944877 0.970937 0.971352
0.774386 0.854795 0.94079 0.962949
0.937776 0.971851 0.973666 0.991037
1.01026 1.02456 0.988362 0.997656
0.955443 0.988758 0.983973 0.982045
0.803801 0.876278 0.944657 0.971029
0.710618 0.835079 0.890788 0.955288
0.967243 0.99281 0.979965 0.994165
0.935103 0.97395 0.982044 0.977668
0.789802 0.876974 0.92916 0.969262
0.789265 0.898635 0.914378 0.960535
0.948464 0.980591 0.974499 0.992549
0.927123 0.950646 0.998092 0.97712
0.81461 0.897137 0.937574 0.968468
0.828666 0.93488 0.919487 0.964002
0.999954 1 1.00138 0.998575
0.998829 1 1.00001 0.998822
0.999192 1 1 0.999192
0.998983 1 1 0.998983
0.998675 1 1.00015 0.998529
0.99889 1 1.00007 0.998817
0.998912 1 1 0.998912
0.998855 1 1 0.998855
0.998922 1 1 0.998922
0.999041 1 1 0.999041
0.996717 1.02823 0.971324 0.997966
0.986721 1.00607 0.983028 0.997703
0.982809 1.00033 0.984373 0.998084
1.002 1.00199 1.00205 0.997967
1.02744 1 1.02948 0.998025
1.00374 1 1.0054 0.998351
1.0011 1 1.00271 0.998396
1.00328 1 1.00492 0.99837
0.988853 1.00483 0.985839 0.998233
1.00258 1 1.00433 0.998255
1.02011 1 1.02198 0.998172
0.979096 1.00039 0.98012 0.998568
1.01344 1.00131 1.01393 0.998212
0.961763 0.987999 0.974711 0.998701
0.997586 0.996688 1.00166 0.999238
1.03259 0.999985 1.03419 0.998461
1.0015 1 1.00324 0.998268
1.00963 1 1.01145 0.998198
0.90506 0.947443 0.976243 0.978513
0.833464 0.883836 0.972095 0.970078
0.820695 0.894599 0.944137 0.971669
1.00256 1 1.0038 0.998774
1.01316 0.999857 1.01471 0.998614
0.991061 0.998744 0.993415 0.998885
0.820931 0.879713 0.964185 0.967844
0.927481 0.950188 0.998812 0.977264
0.913672 0.942697 0.97915 0.989849
0.963664 0.965278 0.999633 0.998694
0.813817 0.891283 0.940845 0.970495
0.899582 0.948701 0.976062 0.971481
0.825025 0.926478 0.920639 0.967259
1.00425 0.999216 1.00563 0.99941
0.895243 0.944434 0.969941 0.977291
0.874941 0.935702 0.958218 0.975837
0.998531 0.98565 1.01351 0.999562
0.944231 0.949016 1.00155 0.993422
0.906528 0.938281 0.989563 0.976348
0.850365 0.954152 0.921524 0.967122
0.858963 0.917022 0.966314 0.96934
1.00503 0.988668 1.01684 0.999711
0.877096 0.930041 0.959111 0.983277
0.889129 0.951062 0.957007 0.976878
0.82958 0.934897 0.920359 0.964134
0.978661 0.966154 1.01462 0.998352
0.948205 0.957635 1.01105 0.979336
0.883885 0.931829 0.977808 0.970077
1.00333 1 1.00422 0.999116
1.01934 1 1.02008 0.999276
1.02043 0.991926 1.02918 0.999566
0.99857 1 1 0.99857
1.00164 1 1.00306 0.998586
1.02694 1 1.02771 0.999251
0.998575 1 1 0.998575
1.02189 1 1.02284 0.999079
1.0363 0.997204 1.03981 0.999421
1.02317 0.995725 1.02809 0.999489
1.01604 1 1.01699 0.999062
0.998749 1 1.00005 0.998703
0.999703 1 1.00098 0.998723
1.00056 1 1.00176 0.998806
1.003 1 1.00402 0.998986
0.999336 1 1.00065 0.998691
1.00175 1 1.00282 0.998925
0.998828 1 1 0.998828
1.00097 1 1.00303 0.997948
0.999153 1.00023 1.00032 0.99861
0.998894 1.00016 1.00057 0.998168
0.998285 1 1.00101 0.997275
1.00325 1.00465 1.00129 0.997326
1.00073 1 1.0026 0.998132
0.998959 1.00008 1.00138 0.997505
1.00247 1 1.00392 0.998557
1.00115 1 1.00278 0.998378
0.998956 1 1.00065 0.998311
0.999731 1 1.00118 0.99855
0.999951 1 1.00121 0.998745
0.999104 1 1 0.999104
0.999553 1 1.0007 0.998849
0.999194 1 1 0.999194
0.999704 1 1 0.999704
0.999252 1 1 0.999252
0.999731 1 1 0.999731
0.999998 1 1 0.999998
0.999741 1 1 0.999741
0.999999 1 1 0.999999
1 1 1 1
0.999999 1 1 0.999999
1 1 1 1
1 1 1 1
0.999144 1 1 0.999144
0.999758 1 1 0.999758
0.999335 1 1 0.999335
1 1 1 1
0.999862 1 1 0.999862
0.999392 1 1 0.999392
1 1 1 1
1 1 1 1
0.999935 1 1 0.999935
1 1 1 1
1 1 1 1
1 1 1 1
0.892317 0.944843 0.966721 0.976918
0.804819 0.87213 0.952866 0.968468
0.824803 0.892596 0.951702 0.970945
0.998741 1 1 0.998741
0.8777 0.931762 0.963759 0.977401
0.890028 0.94458 0.970141 0.971248
0.773299 0.858683 0.934467 0.96372
0.972814 0.994872 0.984531 0.993191
0.935345 0.97032 0.98354 0.980088
0.796417 0.889013 0.925297 0.968169
0.783917 0.889667 0.916897 0.960997
0.947989 0.979235 0.977882 0.989987
0.916269 0.946947 0.988132 0.979224
0.825561 0.901529 0.945352 0.96867
0.825905 0.929474 0.921638 0.964124
0.919296 0.951142 0.978587 0.987666
0.920623 0.938529 1.00399 0.97702
0.869051 0.926508 0.967652 0.969341
0.848233 0.952045 0.922109 0.966219
0.999916 1 1.00155 0.998366
1.00063 1 1.00209 0.99854
0.99886 1 1 0.99886
0.998546 1 1 0.998546
0.998826 1 1.00025 0.99858
0.998848 1 1 0.998848
0.998863 1 1 0.998863
0.998954 1 1 0.998954
0.983604 1.00531 0.980135 0.998237
0.97697 1.0002 0.978234 0.998509
1.00277 1 1.00443 0.998346
1.0129 1.00212 1.01261 0.998177
1.02183 1 1.02371 0.998163
1.00235 1 1.0041 0.998256
1.00182 1 1.00355 0.998275
0.967972 0.990428 0.978537 0.998763
1.01094 1 1.01272 0.998236
1.02568 1.00031 1.02692 0.998478
0.992627 0.996532 0.996796 0.999283
1.00085 1 1.00252 0.998334
0.959763 0.978363 0.982163 0.998804
1.00651 0.992651 1.01452 0.999454
1.04538 0.999073 1.04786 0.998567
1.00231 1 1.00394 0.99838
0.889122 0.933357 0.967172 0.98494
0.904046 0.946802 0.975723 0.9786
0.838727 0.883962 0.978296 0.969877
1.00238 0.998655 1.00436 0.999382
1.00267 0.989272 1.01414 0.999414
0.893159 0.943846 0.967186 0.978403
0.93172 0.942498 1.00978 0.978987
0.936316 0.946837 0.998237 0.990634
0.861805 0.92024 0.967156 0.968303
0.875812 0.936634 0.958208 0.975845
0.853879 0.956023 0.92269 0.967993
1.00742 0.992607 1.01526 0.999669
0.878364 0.930828 0.959702 0.983261
0.887331 0.949058 0.955495 0.97851
0.988289 0.973004 1.01607 0.999648
0.826116 0.929255 0.922019 0.964199
0.930556 0.944087 1.00783 0.97801
0.893142 0.942602 0.977282 0.969554
1.00712 0.987034 1.02059 0.999769
0.895102 0.946759 0.960086 0.984744
0.876831 0.93108 0.963389 0.977523
0.785881 0.893812 0.913863 0.96212
0.868734 0.927562 0.966586 0.968955
0.96312 0.960975 1.00556 0.99669
0.950186 0.951305 1.0241 0.97532
1.01669 1 1.01751 0.999199
1.02082 0.992163 1.02937 0.999534
1.00634 0.980795 1.02647 0.999582
0.998584 1 1 0.998584
1.02153 1 1.02246 0.999091
1.03693 0.998282 1.03934 0.999396
1.01171 1 1.01267 0.999047
1.02284 0.99673 1.02672 0.999488
1.01135 0.994662 1.01755 0.999241
1.00197 1 1.00301 0.998962
0.999112 1 1.00042 0.998695
1.00312 1 1.00423 0.998901
1.00675 1 1.00845 0.998318
0.999028 1 1 0.999028
1.00033 1 1.00224 0.998092
1.00163 1.00039 1.00413 0.997125
1.00317 1.00459 1.00188 0.996712
0.998854 1.00034 1.0004 0.998109
0.998694 1.00047 1.00109 0.997135
1.00454 1.00661 1.00053 0.99742
1.00226 1.00187 1.00261 0.997791
1.00327 1.00463 1.00125 0.997395
1.00468 1 1.00631 0.998377
1.00127 1.00023 1.00293 0.99812
0.998854 1.00004 1.00128 0.997538
0.999187 1 1.00024 0.998952
1.00229 1 1.00374 0.99856
1.00163 1 1.00329 0.998352
0.999742 1 1.00096 0.998778
0.999102 1 1 0.999102
0.999645 1 1 0.999645
0.999194 1 1 0.999194
0.9997 1 1 0.9997
0.999997 1 1 0.999997
0.999729 1 1 0.999729
0.999998 1 1 0.999998
1 1 1 1
0.999999 1 1 0.999999
1 1 1 1
1 1 1 1
0.999065 1 1 0.999065
0.999652 1 1 0.999652
0.99918 1 1 0.99918
1 1 1 1
0.999747 1 1 0.999747
0.999334 1 1 0.999334
1 1 1 1
1 1 1 1
0.999822 1 1 0.999822
1 1 1 1
1 1 1 1
1 1 1 1
0.881138 0.931677 0.961548 0.983575
0.895135 0.944667 0.969974 0.976899
0.804833 0.872904 0.951901 0.968607
0.998765 1 1 0.998765
0.998701 1 1 0.998701
0.998606 1 1 0.998606
0.887041 0.951383 0.954559 0.976755
0.874985 0.931347 0.961185 0.977422
0.890524 0.944359 0.971011 0.971146
0.952542 0.982168 0.97784 0.991815
0.912369 0.945902 0.987208 0.977048
0.814717 0.885784 0.947844 0.97038
0.838445 0.937884 0.927933 0.963405
0.923743 0.953702 0.978396 0.989974
0.919868 0.939335 1.00163 0.977677
0.85047 0.905692 0.96764 0.970431
0.849385 0.953614 0.921043 0.967057
0.912874 0.942968 0.979609 0.988237
0.934696 0.946689 1.00909 0.978438
0.884246 0.929967 0.979958 0.970281
0.83682 0.936391 0.924993 0.966132
0.998455 1 1.00009 0.99837
1.00036 1 1.00201 0.998349
1.00048 1 1.00198 0.998505
0.998539 1 1 0.998539
0.998632 1 1 0.998632
0.998871 1 1 0.998871
0.974681 0.992477 0.98324 0.99881
0.987794 0.996612 0.991826 0.99932
1.00205 1 1.00377 0.998282
1.01865 1.00056 1.01962 0.998495
1.01221 1 1.01396 0.998274
1.0012 1 1.0029 0.998307
1.00158 1 1.00318 0.998403
0.968015 0.979884 0.988997 0.998878
1.04035 0.999276 1.04247 0.998694
1.00806 0.988618 1.02023 0.999441
1.00111 1 1.00258 0.998531
0.981077 0.96792 1.01476 0.998856
1.00712 0.984302 1.0237 0.999489
1.03195 0.998588 1.03463 0.998819
0.908284 0.950853 0.968206 0.986599
0.889265 0.933487 0.966747 0.985393
0.903415 0.946164 0.975615 0.978683
1.01133 0.997078 1.01468 0.999627
0.979508 0.971784 1.00914 0.99882
0.879953 0.931809 0.960441 0.983245
0.926563 0.934169 1.0102 0.98184
0.889155 0.939624 0.976242 0.969317
0.88678 0.947395 0.954985 0.980141
0.839618 0.937984 0.929001 0.96354
1.00313 0.984688 1.01894 0.999788
0.896278 0.946986 0.960569 0.985305
0.875976 0.931771 0.961715 0.977545
0.961376 0.957725 1.01041 0.993467
0.788073 0.897966 0.913481 0.960742
0.847426 0.906719 0.96354 0.969972
0.959215 0.955316 1.02628 0.978372
1.00045 0.967718 1.03455 0.999299
0.881992 0.931992 0.962048 0.983684
0.894861 0.947603 0.971968 0.971577
0.714305 0.821931 0.903373 0.962013
0.812575 0.895443 0.937 0.968468
0.933014 0.94443 1.01024 0.977897
0.940575 0.953238 0.995328 0.991348
1.02377 0.992705 1.03181 0.999501
1.0098 0.98635 1.0242 0.999586
1.01445 0.991875 1.02324 0.999528
1.00751 1 1.00848 0.999032
1.02268 0.997457 1.02581 0.999487
1.01372 0.993583 1.02096 0.999322
1.00989 1 1.01109 0.998815
1.00457 1 1.0057 0.998878
1.00666 1 1.00849 0.998185
1.01499 1.00045 1.01743 0.997146
0.999681 1 1.00145 0.998238
1.00304 1.00087 1.00509 0.997096
1.00466 1.0024 1.00596 0.99631
1.00368 1.00551 1.00191 0.996283
1.00256 1.00445 1.00108 0.997041
1.00294 1.0044 1.00189 0.996665
0.999031 1.0008 1.00124 0.996995
1.00105 1.0023 1.0011 0.99766
1.00442 1.00645 1.00048 0.997509
1.00252 1 1.00449 0.998037
1.00269 1.00211 1.00274 0.997841
1.00347 1.00484 1.00117 0.997463
1.0027 1 1.00401 0.998696
1.00377 1 1.00541 0.998377
1.00181 1.00056 1.00316 0.998107
0.999549 1 1 0.999549
0.999428 1 1.00048 0.99895
1.00196 1 1.00341 0.998562
0.9991 1 1 0.9991
0.99964 1 1 0.99964
0.999993 1 1 0.999993
0.999697 1 1 0.999697
0.999996 1 1 0.999996
1 1 1 1
0.999998 1 1 0.999998
1 1 1 1
1 1 1 1
0.999043 1 1 0.999043
0.999647 1 1 0.999647
0.999088 1 1 0.999088
1 1 1 1
0.999689 1 1 0.999689
0.999216 1 1 0.999216
1 1 1 1
1 1 1 1
0.999737 1 1 0.999737
1 1 1 1
1 1 1 1
1 1 1 1
0.894871 0.946529 0.960158 0.984655
0.881979 0.932313 0.961821 0.983564
0.895896 0.944256 0.971219 0.976901
0.998807 1 1.00016 0.998643
0.998625 1 1.00012 0.998506
0.998789 1 1 0.998789
0.998695 1 1 0.998695
0.998589 1 1 0.998589
0.998587 1 1 0.998587
0.998504 1 1 0.998504
0.87187 0.935187 0.955566 0.975646
0.887363 0.949041 0.955652 0.9784
0.87214 0.930488 0.958921 0.977446
0.850959 0.955374 0.920248 0.967901
0.913523 0.945024 0.978472 0.987935
0.920339 0.937668 1.00315 0.978439
0.857964 0.912956 0.968501 0.970329
0.905389 0.942007 0.973379 0.987414
0.928878 0.939177 1.01291 0.976425
0.894386 0.943369 0.97728 0.970117
0.822159 0.924272 0.919808 0.967072
0.919117 0.944861 0.98292 0.989656
0.939981 0.948049 1.01584 0.976025
0.855002 0.915607 0.963532 0.969152
0.800789 0.904796 0.91896 0.963098
1.00425 1 1.00573 0.998529
0.998808 1 1.00043 0.998375
1.00106 1 1.00274 0.998332
0.998532 1 1 0.998532
0.973615 0.979203 0.995319 0.998969
1.00898 0.985314 1.02461 0.999426
1.00035 1 1.00208 0.998281
1.00131 1 1.00289 0.998425
1.0334 0.998867 1.03579 0.998821
1.0006 1 1.00208 0.998524
1.03234 0.997669 1.03599 0.998805
0.978771 0.966533 1.01478 0.997916
1.00803 0.979224 1.02982 0.999613
1.01274 0.995883 1.01802 0.998929
0.969665 0.951802 1.02112 0.997699
1.0234 0.983922 1.04086 0.999296
0.889765 0.933284 0.967894 0.984995
0.905369 0.949796 0.96549 0.987296
0.888775 0.933327 0.965938 0.985845
0.997528 0.980811 1.01724 0.999805
0.967113 0.962075 1.00833 0.99693
0.895921 0.946421 0.960206 0.985872
0.955979 0.957658 1.023 0.975802
0.850874 0.90992 0.964186 0.969844
0.873711 0.932288 0.958674 0.977568
0.783578 0.888867 0.917133 0.961199
1.00377 0.970885 1.03446 0.99943
0.881687 0.93284 0.960851 0.983674
0.891714 0.945712 0.970591 0.971473
0.942873 0.952754 0.995906 0.993698
0.710515 0.826562 0.896444 0.958902
0.82018 0.897422 0.94365 0.968503
0.930756 0.93948 1.01426 0.976783
0.999563 0.975381 1.02659 0.998254
0.893008 0.94542 0.966652 0.977148
0.78193 0.860028 0.942718 0.964436
0.778766 0.869445 0.92244 0.971017
0.915376 0.932474 1.00338 0.978356
0.914985 0.940607 0.984065 0.988512
1.01159 0.989991 1.02223 0.99959
1.01453 0.989593 1.02569 0.999522
0.996172 0.990141 1.00675 0.999347
1.01594 0.992471 1.02426 0.999402
1.00871 0.995915 1.01397 0.998895
1.0025 1.0008 1.00381 0.997902
1.0069 1 1.00886 0.998053
1.01404 1.00041 1.01659 0.997082
1.00889 1.00036 1.01222 0.996355
1.0047 1.00161 1.00604 0.997066
1.00508 1.00223 1.00664 0.996225
1.00255 1.00213 1.00445 0.995988
1.01035 1.01404 1 0.996367
1.0076 1.01035 1.00077 0.996515
1.00423 1.00584 1.00218 0.996228
1.0008 1.00337 1.00013 0.997311
1.00189 1.00406 1.00074 0.997103
1.00275 1.00425 1.0019 0.996617
0.999061 1.00027 1.00112 0.997682
1.00133 1.0026 1.00108 0.997646
1.0041 1.00609 1.00043 0.997597
1.00393 1 1.00558 0.998359
1.00239 1 1.00431 0.998091
1.00295 1.00219 1.00288 0.997892
0.999554 1 1.0002 0.999353
1.00223 1 1.00354 0.998699
1.00307 1 1.0047 0.998378
0.999984 1 1 0.999984
0.999542 1 1 0.999542
0.999704 1 1.00076 0.998948
0.999636 1 1 0.999636
0.999991 1 1 0.999991
1 1 1 1
0.999995 1 1 0.999995
1 1 1 1
1 1 1 1
0.999283 1 1.00066 0.998628
0.998954 1 1 0.998954
0.999565 1 1 0.999565
0.999041 1 1 0.999041
0.999997 1 1 0.999997
0.99965 1 1 0.99965
0.999111 1 1 0.999111
1 1 1 1
1 1 1 1
0.999726 1 1 0.999726
1 1 1 1
1 1 1 1
1 1 1 1
0.875918 0.929941 0.958009 0.983192
0.894797 0.946235 0.959819 0.985226
0.882937 0.933438 0.96172 0.983549
0.998753 1 1.0001 0.998655
0.998969 1 1.00047 0.998497
0.998722 1 1.00023 0.998493
0.998543 1 1.00004 0.998505
1.00142 1 1.003 0.998431
0.998689 1 1 0.998689
0.998572 1 1 0.998572
0.998588 1 1 0.998588
0.998508 1 1 0.998508
1.00267 1 1.00413 0.998553
0.885521 0.938057 0.971694 0.971494
0.874466 0.936297 0.957243 0.975679
0.888671 0.947896 0.956613 0.980041
0.823155 0.926361 0.91873 0.967194
0.89012 0.938327 0.978398 0.969569
0.897767 0.937739 0.970717 0.986254
0.936422 0.946842 1.01108 0.978155
0.918502 0.947995 0.981516 0.987135
0.951207 0.957103 1.01607 0.97812
0.861531 0.917893 0.967636 0.969989
0.799423 0.908474 0.914543 0.962189
0.93373 0.946924 0.997017 0.989017
0.937697 0.946141 1.01269 0.97866
0.796328 0.874373 0.938897 0.970012
0.741868 0.857279 0.900036 0.96149
1.00545 1 1.00643 0.999031
1.00531 1 1.00679 0.998527
0.999748 1 1.00137 0.998381
0.980212 0.969232 1.01442 0.99695
1.01131 0.975701 1.03677 0.999743
1.00058 1 1.00206 0.998516
1.03341 0.996792 1.03799 0.998792
1.01391 0.997819 1.01721 0.998937
1.02696 0.988338 1.03982 0.999285
0.97274 0.956647 1.01917 0.9977
1.01843 0.996109 1.02308 0.999345
0.981636 0.968497 1.01587 0.997732
0.904197 0.947409 0.975557 0.978303
0.890187 0.933577 0.967611 0.98544
0.90271 0.948789 0.962997 0.987993
1.00845 0.975945 1.03378 0.999546
0.943091 0.954729 0.99775 0.990038
0.883411 0.933736 0.96182 0.98366
0.934967 0.948247 1.01048 0.975767
0.809153 0.881026 0.946613 0.970218
0.8901 0.943843 0.970849 0.971376
0.711046 0.83449 0.891529 0.955743
0.999034 0.974244 1.02707 0.998413
0.89525 0.944942 0.969589 0.977129
0.775147 0.855256 0.940809 0.963356
0.918799 0.945216 0.9821 0.98977
0.790781 0.87714 0.929826 0.969584
0.903812 0.932125 0.992753 0.976704
0.967655 0.968004 1.00251 0.997138
0.812434 0.874298 0.959845 0.968116
0.79115 0.86816 0.938345 0.971173
0.925355 0.951213 0.995521 0.977193
0.899489 0.936743 0.969536 0.990402
1.01409 0.987822 1.02709 0.999515
0.999899 0.989309 1.01139 0.99932
0.999578 0.998855 1.00217 0.998555
1.00744 0.991508 1.01711 0.998973
1.0022 1.00093 1.00328 0.997992
0.998981 1.00199 0.999783 0.997217
1.01268 1.00031 1.01539 0.997017
1.00723 1.00052 1.01037 0.996367
0.999414 1.00155 1.00137 0.996498
1.00504 1.00195 1.00697 0.99614
1.00273 1.00303 1.0037 0.996016
1.01033 1.01382 1 0.996553
1.02609 1.02937 1 0.996819
1.0174 1.02104 1.00002 0.996426
1.01 1.01366 1 0.99639
1.00686 1.0101 1 0.99679
1.00582 1.00831 1.00107 0.996466
1.00487 1.00628 1.00244 0.996174
1.00017 1.00271 1 0.997466
0.999852 1.00245 1.00002 0.997383
1.00117 1.00369 1.00032 0.997166
1.00008 1 1.00206 0.998029
0.999738 1.00073 1.0013 0.997716
1.00167 1.00295 1.0011 0.997632
1.00208 1 1.00308 0.999006
1.00358 1 1.00523 0.998361
1.00222 1 1.00408 0.998144
0.999964 1 1 0.999964
0.999922 1 1.00058 0.999345
1.00181 1 1.00312 0.998702
1 1 1 1
0.99998 1 1 0.99998
0.999535 1 1 0.999535
0.999989 1 1 0.999989
1 1 1 1
1 1 1 1
0.999606 1 1.00106 0.998548
0.998978 1 1.00012 0.998854
0.999242 1 1.00063 0.998613
0.999489 1 1 0.999489
0.998953 1 1 0.998953
0.999985 1 1 0.999985
0.999568 1 1 0.999568
0.999038 1 1 0.999038
1 1 1 1
0.999998 1 1 0.999998
0.999654 1 1 0.999654
1 1 1 1
1 1 1 1
1 1 1 1
0.895137 0.946587 0.966298 0.978628
0.877695 0.930998 0.958874 0.98318
0.894643 0.945259 0.960087 0.9858
0.99856 1 1.00005 0.998509
0.998809 1 1.00014 0.998667
0.999009 1 1.00052 0.998489
0.998657 1 1.00014 0.998513
0.99859 1 1.00008 0.998512
1.00043 1 1.00196 0.998467
1.00527 1 1.00701 0.998274
1.00584 1 1.00742 0.998428
0.998589 1 1 0.998589
0.998511 1 1 0.998511
1.00252 1 1.00399 0.998542
1.00887 1 1.01014 0.998747
0.782986 0.861483 0.943452 0.963357
0.893465 0.945107 0.973248 0.971344
0.875962 0.936376 0.958775 0.975704
0.789444 0.900226 0.910479 0.963163
0.867243 0.925122 0.967123 0.969305
0.941581 0.948938 1.01656 0.976085
0.92162 0.944481 0.987783 0.987864
0.931593 0.944043 0.995853 0.990921
0.727219 0.847131 0.89563 0.958486
0.932295 0.941752 1.01377 0.976515
0.812234 0.891342 0.940228 0.969178
0.92835 0.947702 0.987902 0.991576
0.92372 0.940178 1.00304 0.979518
0.781856 0.873017 0.923403 0.969868
1.00058 1 1.00102 0.999554
1.00538 1 1.00635 0.999037
1.00588 1 1.00737 0.998526
0.96907 0.953286 1.01887 0.997732
1.03053 0.992869 1.03869 0.999273
1.01473 0.999075 1.01674 0.998945
1.01858 0.997479 1.02183 0.999344
0.979833 0.968469 1.01399 0.997781
0.996289 0.989036 1.0089 0.998447
0.832063 0.884712 0.971669 0.967912
0.901834 0.946547 0.972385 0.979819
0.889115 0.933421 0.966172 0.985884
0.999244 0.972599 1.0289 0.998536
0.910771 0.941765 0.976277 0.990589
0.894857 0.944394 0.969727 0.977127
0.909829 0.927804 1.00252 0.978157
0.799782 0.891092 0.926671 0.968553
0.773591 0.858757 0.934349 0.964122
0.96918 0.967165 1.00489 0.997205
0.804925 0.872608 0.952124 0.968819
0.799149 0.873003 0.943249 0.970477
0.903283 0.938295 0.974649 0.987726
0.916484 0.950057 0.985113 0.979241
0.959241 0.976977 0.983252 0.998571
0.818864 0.887061 0.950788 0.970901
0.939696 0.975796 0.982309 0.980348
0.916111 0.952113 0.974358 0.987509
1.00386 0.988546 1.01621 0.999296
0.991055 0.997783 0.994591 0.99866
0.993593 1.00243 0.993304 0.997869
1.00242 1.0011 1.00324 0.998081
1.00175 1.00242 1.00213 0.997203
1.00021 1.0035 0.999428 0.997295
1.00594 1.00075 1.00884 0.996379
0.999335 1.00116 1.00167 0.99651
1.01643 1.01934 0.999919 0.997228
1.00316 1.00395 1.00319 0.996043
1.00955 1.01303 1 0.996563
1.02604 1.02879 1 0.997325
1.03023 1.03298 1 0.997341
1.02873 1.03209 1 0.996742
1.02555 1.02878 1 0.996856
1.01756 1.02099 1 0.996638
1.01627 1.01987 1 0.996475
1.00937 1.013 1 0.996413
1.00731 1.01018 1 0.997163
1.00681 1.00988 1.00014 0.996818
1.0041 1.00623 1.00148 0.996417
0.99841 1.00065 1 0.997758
1.00117 1.00372 1 0.99746
0.998849 1.0014 1 0.997455
1.00178 1 1.00315 0.998628
1.00022 1.00017 1.00203 0.998029
1.00036 1.00117 1.00145 0.997749
0.999896 1 1 0.999896
1.00181 1 1.00282 0.999002
1.00293 1 1.00457 0.998363
1 1 1 1
0.999953 1 1 0.999953
1.00023 1 1.00089 0.999337
1 1 1 1
0.999975 1 1 0.999975
1 1 1 1
0.999031 1 1.00054 0.998489
0.999679 1 1.00114 0.998542
0.999756 1 1.00102 0.998736
0.999412 1 1 0.999412
0.998922 1 1.00007 0.998853
0.999027 1 1.00043 0.998598
0.999968 1 1 0.999968
0.999492 1 1 0.999492
0.998951 1 1 0.998951
1 1 1 1
0.999989 1 1 0.999989
0.999571 1 1 0.999571
1 1 1 1
1 1 1 1
1 1 1 1
0.812023 0.871402 0.964949 0.965707
0.893966 0.945317 0.966328 0.97863
0.880079 0.932604 0.959834 0.983169
0.999479 1 1.00099 0.998491
1.00051 1.0003 1.00187 0.998347
1.00361 1 1.00524 0.998377
0.999024 1 1.0005 0.998521
0.998581 1 1.00005 0.99853
1.00045 1 1.00195 0.998503
1.00541 1 1.00701 0.998413
1.00483 1 1.00655 0.998291
1.00658 1 1.00841 0.998186
0.995469 1 0.996468 0.998997
1.00179 1 1.00326 0.998532
1.00677 1 1.00807 0.998715
0.796715 0.869337 0.945623 0.969163
0.773378 0.852347 0.943392 0.961796
0.899558 0.949854 0.975108 0.971223
0.714018 0.835662 0.894299 0.955423
0.812576 0.889688 0.941501 0.970075
0.926275 0.94086 1.00589 0.978732
0.938107 0.948861 1.00006 0.988611
0.922995 0.944604 0.987368 0.989624
0.784366 0.866165 0.934633 0.968896
0.910741 0.933123 0.997922 0.978046
0.916063 0.948605 0.974945 0.990512
0.911452 0.950408 0.980962 0.977623
1.00642 1 1.00741 0.999021
1.00016 1 1.00067 0.999492
1.00513 1 1.00609 0.999042
0.97921 0.969565 1.01215 0.997825
1.01855 0.998772 1.02047 0.999344
0.996677 0.989784 1.00861 0.998364
0.987314 0.994131 0.995604 0.997527
0.822601 0.903207 0.936384 0.972631
0.8345 0.884264 0.974146 0.968769
0.901626 0.946757 0.970461 0.981318
0.970424 0.971857 1.0012 0.99733
0.904261 0.93891 0.974447 0.988352
0.805113 0.873629 0.951113 0.968942
0.910755 0.945671 0.985509 0.977239
0.806418 0.879191 0.944184 0.97145
0.963032 0.977935 0.986919 0.997814
0.82587 0.896022 0.948766 0.97148
0.938179 0.977007 0.98211 0.97775
0.923114 0.954734 0.976913 0.989731
0.968581 0.989599 0.980286 0.998444
0.943286 0.982411 0.980146 0.979624
0.947215 0.980955 0.973977 0.991404
0.981771 0.99615 0.986794 0.998755
0.990893 1.003 0.990064 0.997843
0.982365 1.00723 0.977531 0.997733
1.00352 1.00278 1.00356 0.997189
0.999494 1.00357 0.998648 0.997291
1.01936 1.02687 0.994827 0.997847
0.999088 1.00071 1.00186 0.996523
1.016 1.01934 0.999503 0.997213
1.02831 1.03282 0.997784 0.997841
1.00868 1.01215 1 0.996573
1.0255 1.02836 0.999899 0.997322
1.03118 1.03381 0.999677 0.997782
1.02797 1.03038 1 0.997659
1.03114 1.03383 1 0.997401
1.03048 1.03337 1 0.997205
1.0289 1.0322 1 0.996811
1.02911 1.03246 1 0.996752
1.02516 1.02836 1 0.996892
1.01662 1.01978 1 0.996903
1.01893 1.02233 1 0.996671
1.01523 1.01877 1 0.996524
1.00173 1.00424 1 0.997503
1.00699 1.00986 1 0.997157
1.00692 1.00994 1.00017 0.996846
0.998515 1 1.00015 0.998362
0.999281 1.00153 1 0.997756
1.00219 1.00475 1 0.997453
1.00008 1 1.00035 0.999736
1.00113 1 1.00251 0.998629
1.00066 1.00041 1.00223 0.99803
1 1 1 1
1.00017 1 1.00029 0.999873
1.00166 1 1.00266 0.998998
1 1 1 1
0.999941 1 1 0.999941
1 1 1 1
0.998418 1 1 0.998418
0.999352 1 1.00086 0.998493
1.00014 1 1.00152 0.998619
0.999697 1 1.00116 0.998536
0.999971 1 1.00124 0.998735
0.99969 1 1.00038 0.999306
0.999949 1 1 0.999949
0.999415 1 1 0.999415
0.999093 1 1.00024 0.998852
1 1 1 1
0.999973 1 1 0.999973
0.999495 1 1 0.999495
1 1 1 1
0.999993 1 1 0.999993
1 1 1 1
0.827636 0.892211 0.954825 0.971513
0.814749 0.875266 0.963863 0.965757
0.892708 0.94425 0.966063 0.978627
1.0003 1 1.00183 0.998473
1.00461 1 1.00634 0.99828
0.999508 1.00017 1.00093 0.998409
0.998648 1.00058 1.00027 0.997806
1.00401 1.00001 1.00574 0.998269
1.00524 1 1.00685 0.998399
1.00368 1 1.00538 0.998309
1.0075 1 1.00927 0.998237
0.998009 1 1 0.998009
0.989375 1.00065 0.99 0.99872
0.992538 1.00035 0.994354 0.997823
0.996955 1 0.997906 0.999047
1.00427 1 1.00559 0.998684
0.930011 0.971241 0.978309 0.97878
0.798658 0.866751 0.950138 0.969794
0.774085 0.85526 0.940823 0.962016
0.78207 0.867675 0.931453 0.96767
0.921255 0.941171 1.00181 0.977075
0.925023 0.940297 0.991998 0.991693
0.918052 0.947786 0.976512 0.991926
0.920454 0.952058 0.986463 0.980072
0.944418 0.977173 0.97526 0.990998
0.997665 1.00132 0.99813 0.998218
1.00559 1 1.0066 0.998999
0.999885 1 1.00045 0.99943
0.997834 0.991551 1.00804 0.998308
0.992289 0.99786 0.996843 0.997566
0.919817 0.970306 0.967497 0.979812
0.832505 0.901879 0.949049 0.972635
0.837095 0.883132 0.977542 0.969647
0.969127 0.981017 0.990834 0.997019
0.921832 0.953539 0.978831 0.987655
0.826274 0.893144 0.952542 0.971222
0.936524 0.971413 0.983809 0.97995
0.974811 0.989577 0.986558 0.998501
0.949657 0.98927 0.978821 0.980728
0.944577 0.978772 0.975574 0.989226
0.99068 1.0043 0.988531 0.997885
0.965837 0.994313 0.977181 0.994044
0.990583 1.00465 0.988144 0.997832
0.983367 1.00672 0.979068 0.997683
1.0035 1.03092 0.975385 0.997959
0.99898 1.00358 0.998123 0.997286
1.01959 1.02685 0.995092 0.997828
1.02857 1.04095 0.989999 0.998095
1.0156 1.01937 0.999104 0.997197
1.02783 1.03296 0.997205 0.997821
1.02561 1.03268 0.995128 0.998014
1.025 1.02803 0.999732 0.997319
1.03135 1.03425 0.999433 0.997763
1.02966 1.0326 0.99931 0.997842
1.02861 1.03097 1 0.99771
1.02753 1.03013 1 0.997475
1.032 1.03463 1 0.997461
1.03043 1.03332 1 0.997197
1.03161 1.03467 1 0.997044
1.02501 1.0282 1 0.996893
1.02875 1.03205 1 0.9968
1.02942 1.03277 1 0.996762
1.00928 1.01202 1 0.997289
1.01574 1.01888 1 0.996919
1.02027 1.02364 1 0.996705
0.998585 1.00043 1 0.998161
1.00306 1.00557 1 0.997499
1.00651 1.00939 1 0.997151
0.999954 1 1.00042 0.999531
0.99864 1.00003 1.00025 0.998362
1.00011 1.00236 1 0.997754
1 1 1 1
1.00032 1 1.00061 0.999712
1.00052 1 1.00189 0.998629
1 1 1 1
1.00056 1 1.00071 0.999851
1 1 1 1
1.00086 1.00301 1 0.997857
0.998412 1 1 0.998412
0.999638 1 1.00118 0.998459
0.999724 1 1.00123 0.998498
1.00017 1 1.00157 0.998596
0.999875 1 1.00074 0.999134
0.99986 1 1.00113 0.998734
0.999503 1 1.00019 0.999308
0.999925 1 1 0.999925
1 1 1 1
0.999954 1 1 0.999954
0.999418 1 1 0.999418
1 1 1 1
0.999978 1 1 0.999978
1 1 1 1
0.943143 0.983465 0.977167 0.981408
0.823183 0.896664 0.944408 0.972091
0.82354 0.880622 0.968995 0.965103
1.0056 1 1.00743 0.998184
0.998472 1 1 0.998471
1.00306 1 1.00481 0.998258
0.999609 1.00145 1.00032 0.997849
1.00652 1.00902 1.00016 0.99736
0.997996 1 1 0.997996
1.00867 1 1.0104 0.998286
0.997851 1 1 0.997851
0.992649 1.00043 0.993523 0.998694
0.997344 1.0006 0.998836 0.997908
0.990419 1.00303 0.989419 0.997989
0.995991 1.00129 0.997264 0.997438
0.992522 1.00082 0.993738 0.997959
0.999511 1 1.00041 0.999097
0.945412 0.980578 0.972773 0.991122
0.933217 0.97346 0.97892 0.979304
0.79596 0.868088 0.944046 0.971257
0.930299 0.957667 0.994057 0.977229
0.919923 0.946661 0.97876 0.992843
0.949 0.976869 0.977581 0.993751
0.99094 1.00377 0.989357 0.997841
0.995851 1.00067 0.996949 0.99823
1.0046 1 1.00563 0.998978
0.993819 1.0005 0.995723 0.997586
0.952477 0.976446 0.984042 0.991271
0.934137 0.975961 0.974425 0.982267
0.821453 0.895831 0.943639 0.971742
0.976905 0.988022 0.990183 0.998551
0.947194 0.981462 0.974077 0.990769
0.956316 0.989128 0.984737 0.981813
0.98425 1.00298 0.98338 0.99791
0.963961 0.991122 0.979114 0.993342
0.987071 1.02425 0.965871 0.997759
1.00379 1.01618 0.99071 0.997066
0.983806 1.00623 0.980045 0.997627
1.00195 1.02983 0.974926 0.997953
1.00796 1.04444 0.967006 0.998
1.02023 1.02735 0.995252 0.997808
1.02839 1.04083 0.989952 0.998078
1.02138 1.03528 0.98859 0.997963
1.02743 1.03312 0.996686 0.9978
1.02498 1.03203 0.995165 0.997997
1.02969 1.03636 0.995736 0.997813
1.03156 1.03465 0.999272 0.997744
1.0282 1.03119 0.99926 0.997835
1.02876 1.03148 0.999806 0.997563
1.02923 1.03154 1 0.99776
1.02779 1.03034 1 0.997518
1.03071 1.03361 1 0.997194
1.03045 1.03335 1 0.997188
1.03155 1.03462 1 0.997034
1.02837 1.03144 1 0.997024
1.01591 1.01881 1 0.997153
1.02496 1.02814 1 0.996906
1.02855 1.03186 1 0.99679
1.00026 1.00229 1 0.997977
1.00945 1.0122 1 0.99729
1.015 1.01812 1 0.996936
0.999346 1 1 0.999346
0.999002 1.00085 1 0.998159
1.00432 1.00685 1 0.997496
1 1 1 1
0.999751 1 1.00024 0.999515
0.998713 1.00007 1.00028 0.998362
1 1 1 1
1.0004 1 1.00072 0.999688
1 1 1 1
1.00571 1.00829 1 0.997446
1.0007 1.00283 1 0.997875
1.00041 1.00178 1.00054 0.998098
0.998406 1 1 0.998406
0.999492 1 1.00107 0.998427
1.00013 1 1.00123 0.998898
1.00039 1 1.00182 0.998573
0.999681 1 1.00055 0.999135
0.999888 1 1 0.999888
0.9994 1 1.00009 0.99931
0.999932 1 1 0.999932
1 1 1 1
1 1 1 1
0.99996 1 1 0.99996
1 1 1 1
0.945247 0.980484 0.972179 0.99165
0.937388 0.983152 0.973512 0.979394
0.816015 0.890394 0.942439 0.972439
1.01657 1.01948 1.00007 0.997078
1.00214 1 1.0039 0.998246
1.00082 1.0026 1.00033 0.997893
0.997969 1.00001 1 0.997963
1.00625 1.0085 1.00042 0.997346
1.00152 1.00369 1 0.997835
0.997692 1 1 0.997692
0.994917 1.00023 0.996011 0.998668
0.99656 1.00082 0.9978 0.997935
0.986241 1.0021 0.986217 0.997925
1.00119 1.00518 0.998754 0.99727
1.0013 1.0066 0.997302 0.997424
0.996847 1.00195 0.997504 0.997392
0.99231 1.00134 0.992876 0.998096
0.990817 1.00613 0.986413 0.998347
0.942012 0.980222 0.970691 0.990036
0.936528 0.975281 0.979641 0.980221
0.941798 0.97235 0.976523 0.991866
0.994034 1.00573 0.989994 0.998363
0.996311 1.0002 0.997869 0.998239
0.990963 1.00668 0.987373 0.996974
0.941451 0.965236 0.982584 0.992646
0.921966 0.973343 0.966624 0.979922
0.978898 1.00137 0.979586 0.997934
0.96949 0.992749 0.984023 0.992427
0.98918 1.02526 0.966909 0.997827
1.00276 1.01538 0.990278 0.997259
0.998538 1.0357 0.966225 0.997823
1.03533 1.04271 0.995214 0.997698
0.99988 1.02808 0.97457 0.997947
1.0108 1.04582 0.968462 0.997992
1.01235 1.0437 0.972086 0.997822
1.02751 1.04011 0.989809 0.998061
1.0207 1.03481 0.988377 0.997959
1.02807 1.04018 0.99063 0.997701
1.02416 1.03131 0.995078 0.997979
1.02892 1.03563 0.995682 0.997826
1.03208 1.03584 0.998862 0.997507
1.02677 1.02983 0.999202 0.997828
1.02927 1.03195 0.999842 0.997562
1.03264 1.03548 1 0.997253
1.02801 1.03053 1 0.997561
1.03083 1.0337 1 0.997228
1.03036 1.03343 1 0.997038
1.03146 1.03454 1 0.997024
1.02812 1.03121 1 0.997004
1.0193 1.02221 1 0.997155
1.00321 1.00536 1 0.997855
1.01535 1.01822 1 0.997176
1.0249 1.02807 1 0.996919
0.999204 1 1 0.999204
1.00114 1.00317 1 0.997976
1.00964 1.01239 1 0.997292
1 1 1 1
0.999333 1 1 0.999333
0.999407 1.00125 1 0.998158
1 1 1 1
0.999579 1 1.00008 0.999498
1 1 1 1
1.01197 1.01489 1 0.997123
1.00616 1.00873 1 0.99745
1.00411 1.00638 1 0.997746
1.00028 1.00238 1.00001 0.997892
0.999688 1.00104 1.00055 0.998099
0.999642 1 1.00102 0.998627
0.999425 1 1.00103 0.998395
1.00049 1 1.0016 0.998898
1.00035 1 1.00053 0.999811
0.999502 1 1.00037 0.999137
0.999897 1 1 0.999897
1 1 1 1
0.999939 1 1 0.999939
1 1 1 1
1 1 1 1
0.988936 1.01057 0.980321 0.99824
0.939619 0.977498 0.971379 0.989572
0.933169 0.973504 0.976385 0.98175
1.01247 1.0151 1.00001 0.997392
1.02357 1.02662 1 0.997027
1.01442 1.0172 1.00013 0.997132
0.997929 1 1 0.997929
1.00574 1.00769 1.00073 0.997331
1.00262 1.005 0.999843 0.997791
1.01406 1.01689 0.999954 0.997257
0.996146 1.00101 0.997175 0.997962
0.982765 1.00105 0.983843 0.99786
1.00215 1.00668 0.99816 0.997341
1.01642 1.02145 0.998026 0.997044
1.01016 1.02211 0.990582 0.997706
1.00288 1.00786 0.997658 0.997395
0.998143 1.00262 0.998179 0.997346
0.994918 1.00825 0.988237 0.998523
0.945702 0.98157 0.97435 0.988822
0.994432 1.0066 0.988997 0.998902
1.01859 1.03251 0.988185 0.998311
0.99048 1.00539 0.988054 0.99708
0.94445 0.973749 0.979036 0.99068
0.992191 1.02666 0.968467 0.997893
1.00168 1.01494 0.989445 0.997461
0.998373 1.03621 0.965494 0.997919
1.03599 1.0443 0.994323 0.997709
1.03109 1.05058 0.983712 0.997701
1.05397 1.06378 0.992939 0.997824
1.01422 1.0481 0.969638 0.997984
1.016 1.04387 0.975422 0.997824
1.03136 1.04818 0.986315 0.997604
1.0204 1.03455 0.988337 0.997956
1.02805 1.03958 0.991191 0.997699
1.03375 1.04104 0.995511 0.997473
1.02818 1.03489 0.995671 0.997838
1.03249 1.03615 0.998963 0.997504
1.03558 1.03851 0.999948 0.997235
1.02973 1.03237 0.999882 0.997561
1.03259 1.03544 1 0.997253
1.03339 1.03648 1 0.997025
1.03098 1.03381 1 0.997262
1.03005 1.0331 1 0.997048
1.02145 1.02441 1 0.997114
1.02791 1.03103 1 0.996983
1.01916 1.02207 1 0.997147
1.00528 1.00751 1 0.997784
0.999134 1 1 0.999134
1.00383 1.00599 1 0.997854
1.01484 1.01769 1 0.997199
1 1 1 1
0.999192 1 1 0.999192
1.00204 1.00407 1 0.997975
1 1 1 1
0.99932 1 1 0.99932
1 1 1 1
1.01959 1.02269 1 0.996968
1.0126 1.01554 1 0.997103
1.00814 1.01073 1 0.997438
1.00662 1.00919 1 0.997453
1.00274 1.005 1 0.997752
0.999316 1.00065 1.00031 0.998352
0.998832 1.00027 1.00046 0.998099
1.00015 1 1.00152 0.998629
1.0001 1 1.00044 0.99966
1.0005 1 1.0016 0.998898
0.999981 1 1.00015 0.999826
1 1 1 1
0.999907 1 1 0.999907
1 1 1 1
1 1 1 1
1.00847 1.03078 0.980135 0.998194
0.986664 1.00952 0.97963 0.997682
0.938644 0.979119 0.968031 0.990321
1.02296 1.02588 1 0.997159
1.01322 1.01568 1 0.99757
1.0376 1.0407 1 0.997023
1.02426 1.02733 1 0.997013
1.01251 1.01518 1.00018 0.997187
1.03213 1.03545 0.999808 0.996983
1.0036 1.00637 0.999507 0.997748
1.01235 1.01531 0.999898 0.997196
1.03491 1.04544 0.992678 0.997227
1.00244 1.00814 0.996928 0.997412
1.01725 1.02239 0.997963 0.997003
1.01058 1.02273 0.99037 0.997732
1.00311 1.00807 0.997712 0.997363
0.999168 1.01019 0.990388 0.998692
1.04237 1.05736 0.987908 0.997883
1.01867 1.03243 0.988335 0.998322
0.990099 1.00409 0.988855 0.997179
0.998657 1.03607 0.965806 0.998016
1.0357 1.04499 0.993373 0.99772
1.02804 1.05016 0.981176 0.99772
1.05432 1.06517 0.991975 0.997821
1.04603 1.0597 0.989354 0.997718
1.01913 1.04368 0.9786 0.997826
1.03167 1.04765 0.987108 0.997613
1.03492 1.04665 0.991278 0.997491
1.0279 1.03895 0.991649 0.997697
1.03332 1.04054 0.995598 0.997453
1.03765 1.04138 0.99921 0.997207
1.03299 1.03655 0.99906 0.997501
1.03568 1.03858 0.99997 0.997233
1.03686 1.03998 1 0.996993
1.03254 1.03538 1 0.997254
1.03324 1.03633 1 0.997028
1.02426 1.0273 1 0.997045
1.02973 1.03276 1 0.997059
1.02164 1.02459 1 0.997118
1.00619 1.0085 1 0.997709
1.01897 1.0219 1 0.997138
1.00549 1.00773 1 0.997782
0.999261 1 1 0.999261
0.999742 1 1 0.999742
0.999191 1 1 0.999191
1.00441 1.00658 1 0.997853
1 1 1 1
0.999181 1 1 0.999181
1 1 1 1
1.0447 1.04775 1 0.997089
1.02956 1.03266 1 0.997003
1.02042 1.02353 1 0.996963
1.01245 1.01522 1 0.997268
1.01343 1.0164 1 0.997083
1.0077 1.01028 1 0.99744
1.00065 1.00254 1 0.998121
1.00137 1.00362 1 0.997759
0.999185 1.00039 1.00044 0.998356
0.999556 1 1.00011 0.999448
1.00098 1 1.00235 0.998631
1.00019 1 1.00051 0.99968
1 1 1 1
0.999841 1 1 0.999841
1 1 1 1
1 1 1 1
1.0386 1.0559 0.985952 0.997635
1.01248 1.03496 0.979976 0.998266
0.984745 1.00962 0.978172 0.99713
1.03557 1.03868 1 0.997012
1.02198 1.02483 1 0.997217
1.01373 1.01602 1 0.997746
1.0365 1.03958 1 0.997042
1.02491 1.028 1 0.996998
1.04219 1.05044 0.99493 0.997206
1.02864 1.03199 0.999817 0.996942
1.01093 1.01383 1 0.997134
1.03409 1.04463 0.992671 0.997222
1.02004 1.02486 0.998339 0.996961
1.01363 1.02644 0.989739 0.997763
1.04587 1.05924 0.989545 0.997814
1.04438 1.05868 0.98856 0.997907
1.01885 1.03247 0.988459 0.998335
1.02617 1.05072 0.97885 0.997738
1.05548 1.06726 0.991126 0.997819
1.04613 1.06074 0.988468 0.997727
1.03945 1.04907 0.993246 0.997571
1.03194 1.047 0.987965 0.997622
1.03491 1.04615 0.991756 0.99748
1.03961 1.04497 0.997626 0.997234
1.03289 1.04001 0.995703 0.997434
1.03825 1.04197 0.999223 0.997207
1.03988 1.04304 1 0.996964
1.03576 1.03864 0.999993 0.99723
1.03687 1.03999 1 0.996994
1.02688 1.03 1 0.996968
1.03312 1.03619 1 0.997031
1.02455 1.02758 1 0.997047
1.00708 1.00949 1 0.997609
1.02183 1.02478 1 0.997122
1.00643 1.00874 1 0.997707
0.999266 1 1 0.999266
1.00573 1.00796 1 0.99778
0.999256 1 1 0.999256
0.999759 1 1 0.999759
0.999876 1 1 0.999876
0.999253 1 1 0.999253
1 1 1 1
1.04084 1.04393 1 0.997033
1.03553 1.03859 1 0.99705
1.04394 1.04687 1 0.997202
1.02038 1.02328 1 0.997165
1.03147 1.03458 1 0.996992
1.02132 1.02443 1 0.996957
1.01298 1.01576 1 0.997264
1.00404 1.00612 1 0.997938
1.00733 1.00991 1 0.997442
1 1.00188 1 0.998122
0.999261 1 1 0.999261
0.999076 1.0002 1.00052 0.998359
0.999692 1 1.00023 0.999467
1 1 1 1
1.00002 1 1.00032 0.9997
1 1 1 1
1 1 1 1
1.04088 1.05446 0.989577 0.997523
1.03761 1.05474 0.986095 0.99763
1.01492 1.03714 0.980209 0.998331
1.04277 1.04719 0.998665 0.997117
1.03393 1.03703 1 0.997013
1.02099 1.02378 1 0.997277
1.03524 1.03829 1 0.99706
1.04112 1.04942 0.9949 0.997182
1.02497 1.02833 0.999828 0.996901
1.03055 1.04096 0.992764 0.997216
1.04132 1.05184 0.992348 0.997633
1.04499 1.0581 0.989809 0.997775
1.04625 1.0598 0.989265 0.997931
1.03863 1.04618 0.995308 0.997463
1.04592 1.06153 0.987526 0.997737
1.03918 1.04906 0.99301 0.997558
1.0411 1.0473 0.99675 0.997331
1.03496 1.0457 0.992246 0.997469
1.03979 1.04519 0.997587 0.997236
1.04113 1.04431 1 0.996957
1.03884 1.04254 0.99924 0.997207
1.03969 1.04285 1 0.996965
1.02855 1.03174 1 0.99691
1.0368 1.03992 1 0.996995
1.02714 1.03027 1 0.99697
1.0078 1.01032 1 0.99751
1.02481 1.02784 1 0.99705
1.00729 1.00971 1 0.997608
0.999242 1 1 0.999242
1.00667 1.00898 1 0.997705
0.999257 1 1 0.999257
0.999763 1 1 0.999763
0.999254 1 1 0.999254
0.999764 1 1 0.999764
1 1 1 1
1.0414 1.04464 0.999964 0.996934
1.03676 1.03993 1 0.996951
1.04218 1.04528 1 0.99704
1.02551 1.02842 1 0.99717
1.0363 1.03934 1 0.997069
1.04333 1.04614 1 0.997315
1.00711 1.00935 1 0.997783
1.02043 1.02334 1 0.997158
1.03347 1.0366 1 0.996981
1.01338 1.01616 1 0.997259
1.00289 1.00496 1 0.997939
0.999152 1 1 0.999152
0.999244 1.00112 1 0.998123
0.999274 1 1 0.999274
1 1 1 1
0.999858 1 1.00037 0.999485
1 1 1 1
1 1 1 1
1.04112 1.04892 0.995171 0.997382
1.04106 1.05499 0.989263 0.997507
1.03797 1.0551 0.986105 0.997626
1.04179 1.04633 0.99852 0.997132
1.03221 1.0353 1 0.997014
1.04057 1.04892 0.994863 0.997159
1.0393 1.04744 0.994755 0.997466
1.04176 1.0519 0.992721 0.997626
1.04415 1.05707 0.990013 0.997736
1.03921 1.04664 0.995411 0.997484
1.04265 1.0478 0.997805 0.99727
1.03889 1.04905 0.992753 0.997545
1.04122 1.04715 0.997035 0.99729
1.04115 1.0448 0.999472 0.997034
1.03989 1.04534 0.997546 0.997239
1.0415 1.04468 0.999998 0.99696
1.02904 1.03227 1 0.996869
1.03966 1.04283 1 0.996967
1.02905 1.03223 1 0.996911
1.00815 1.01074 1 0.997437
1.02754 1.03066 1 0.996972
1.00794 1.01046 1 0.99751
0.999189 1 1 0.999189
1.00752 1.00993 1 0.997608
0.999228 1 1 0.999228
0.999745 1 1 0.999745
0.999251 1 1 0.999251
0.999775 1 1 0.999775
0.999765 1 1 0.999765
1.04266 1.04634 0.999311 0.99717
1.03912 1.04242 1 0.996836
1.04216 1.04563 0.999719 0.996959
1.02778 1.03082 1 0.997055
1.0361 1.03928 1 0.996946
1.04345 1.04654 1 0.997047
1.00822 1.01057 1 0.997672
1.02554 1.02849 1 0.997129
1.03692 1.03995 1 0.997089
0.999109 1 1 0.999109
1.0064 1.00864 1 0.997786
1.02059 1.0235 1 0.997151
1.00177 1.00384 1 0.997941
0.999162 1 1 0.999162
1 1 1 1
0.999288 1 1 0.999288
1 1 1 1
1 1 1 1
1.03831 1.04487 0.996349 0.997361
1.0405 1.04851 0.99498 0.997376
1.04101 1.05523 0.989003 0.997492
1.04079 1.04547 0.998371 0.997147
1.04147 1.04568 0.998738 0.99723
1.03991 1.04779 0.99499 0.997477
1.04223 1.05192 0.993154 0.997619
1.03981 1.0471 0.995519 0.997505
1.04222 1.04749 0.997686 0.997281
1.04152 1.04509 0.999546 0.997039
1.04142 1.0471 0.997325 0.997248
1.04169 1.04511 0.99973 0.996997
1.02861 1.03183 1 0.996882
1.04186 1.04505 0.999988 0.996963
1.02923 1.03246 1 0.996872
1.00778 1.01043 1 0.997378
1.02932 1.03251 1 0.996912
1.00803 1.01062 1 0.997437
0.998999 1 1 0.998999
1.00802 1.01054 1 0.99751
0.999113 1 1 0.999113
1 1 1 1
0.999215 1 1 0.999215
0.999762 1 1 0.999762
0.999783 1 1 0.999783
1.04001 1.04384 0.99907 0.997256
1.0397 1.04289 1 0.996939
1.04249 1.04608 0.999407 0.997163
1.02915 1.03236 1 0.996888
1.0387 1.04197 1 0.996857
1.043 1.04671 0.999469 0.996984
1.00871 1.01125 1 0.997485
1.02797 1.031 1 0.997054
1.0355 1.03868 1 0.996941
0.999099 1 1 0.999099
1.00807 1.01047 1 0.997628
1.02556 1.02856 1 0.997087
1 1 1 1
0.99912 1 1 0.99912
1.00565 1.00788 1 0.997788
0.999174 1 1 0.999174
1 1 1 1
1 1 1 1
1.03989 1.0439 0.998914 0.997247
1.03889 1.04542 0.996377 0.997368
1.03982 1.04806 0.994748 0.997369
1.04129 1.04449 0.999957 0.996977
1.04073 1.04525 0.998432 0.997243
1.04048 1.04811 0.995221 0.997487
1.04176 1.04717 0.997536 0.997292
1.04132 1.04501 0.999424 0.99704
1.02696 1.03011 1 0.996946
1.04213 1.04532 0.999988 0.996959
1.02838 1.03158 1 0.996898
1.00724 1.01 1 0.997262
1.02952 1.03274 1 0.996874
1.00766 1.01031 1 0.997379
0.998951 1 1 0.998951
1.008 1.01059 1 0.997437
0.998996 1 1 0.998996
1 1 1 1
0.999024 1 1 0.999024
0.999865 1 1 0.999865
0.999777 1 1 0.999777
1.03908 1.04256 0.999448 0.997208
1.03993 1.04306 1 0.996997
1.04041 1.04412 0.999176 0.997263
1.02951 1.03272 1 0.996888
1.04015 1.04335 1 0.996925
1.04235 1.04583 0.999513 0.997156
1.00881 1.01146 1 0.997385
1.02908 1.03226 1 0.996924
1.03824 1.04149 1 0.996877
0.999074 1 1 0.999074
1.00866 1.01122 1 0.997472
1.02815 1.03119 1 0.997054
1 1 1 1
0.999108 1 1 0.999108
1.00796 1.0104 1 0.997584
1 1 1 1
0.999131 1 1 0.999131
1 1 1 1
1.04186 1.04507 0.9999 0.997027
1.03913 1.04311 0.998948 0.997232
1.03947 1.04597 0.996405 0.997374
1.02692 1.03008 1 0.996938
1.0411 1.0445 0.999752 0.996999
1.04003 1.04484 0.998129 0.997257
1.04115 1.04493 0.999335 0.99704
1.02703 1.03017 1 0.996945
1.00657 1.00936 1 0.997237
1.02818 1.03136 1 0.996914
1.00717 1.0099 1 0.997295
0.998894 1 1 0.998894
1.00748 1.01012 1 0.99738
0.998948 1 1 0.998948
1 1 1 1
0.998993 1 1 0.998993
1 1 1 1
0.999754 1 1 0.999754
1.0415 1.04461 1 0.997019
1.03854 1.04216 0.999298 0.997231
1.02923 1.03241 1 0.996912
1.0402 1.04334 1 0.996995
1.04087 1.04447 0.999274 0.997269
1.00816 1.01078 1 0.997413
1.02914 1.03236 1 0.996885
1.04057 1.04379 1 0.996912
0.999023 1 1 0.999023
1.00896 1.01158 1 0.997414
1.029 1.03213 1 0.99696
1 1 1 1
0.999079 1 1 0.999079
1.00862 1.01119 1 0.997458
1 1 1 1
0.999116 1 1 0.999116
1 1 1 1
1.02781 1.03094 1 0.99697
1.04169 1.04487 0.999936 0.997014
1.03834 1.04232 0.998962 0.997216
1.00563 1.00841 1 0.997245
1.02692 1.03007 1 0.996938
1.0409 1.04449 0.999539 0.997021
1.02709 1.03024 1 0.996945
1.0066 1.00938 1 0.997238
0.998855 1 1 0.998855
1.00713 1.00983 1 0.997327
0.998891 1 1 0.998891
1 1 1 1
0.998946 1 1 0.998946
1 1 1 1
1 1 1 1
1.02905 1.03223 1 0.99692
1.04118 1.04435 0.999914 0.997051
1.03797 1.04167 0.999191 0.997255
1.00737 1.01 1 0.997399
1.02888 1.03207 1 0.996909
1.04042 1.04356 1 0.996993
0.998971 1 1 0.998971
1.00845 1.01107 1 0.997411
1.02881 1.03203 1 0.996882
1 1 1 1
0.999026 1 1 0.999026
1.00911 1.0117 1 0.997443
1 1 1 1
0.999085 1 1 0.999085
1 1 1 1
1.00557 1.00827 1 0.997331
1.02766 1.03082 1 0.996936
1.04155 1.04468 1 0.997001
0.998863 1 1 0.998863
1.0057 1.00848 1 0.997243
1.02693 1.03008 1 0.996938
1.00662 1.0094 1 0.997238
0.998855 1 1 0.998855
1 1 1 1
0.998888 1 1 0.998888
1 1 1 1
1 1 1 1
1.00638 1.00903 1 0.997372
1.02861 1.03178 1 0.996929
1.04088 1.04414 0.999795 0.997082
0.999103 1 1 0.999103
1.00763 1.01026 1 0.997397
1.02854 1.03173 1 0.996906
1 1 1 1
0.998973 1 1 0.998973
1.00871 1.01133 1 0.997409
1 1 1 1
0.99903 1 1 0.99903
1 1 1 1
0.998858 1 1 0.998858
1.00577 1.00849 1 0.997302
1.02753 1.03072 1 0.996902
1 1 1 1
0.998862 1 1 0.998862
1.00577 1.00855 1 0.997241
0.998854 1 1 0.998854
1 1 1 1
1 1 1 1
0.999058 1 1 0.999058
1.00669 1.00935 1 0.997372
1.02813 1.03129 1 0.996938
1 1 1 1
0.998937 1 1 0.998937
1.0079 1.01053 1 0.997396
1 1 1 1
0.998974 1 1 0.998974
1 1 1 1
0.999684 1 1 0.999684
0.998963 1 1 0.998963
1.00594 1.0087 1 0.997272
1 1 1 1
0.998863 1 1 0.998863
1 1 1 1
0.9997 1 1 0.9997
0.998987 1 1 0.998987
1.00704 1.00969 1 0.997372
0.999851 1 1 0.999851
0.998937 1 1 0.998937
1 1 1 1
1 1 1 1
0.998885 1 1 0.998885
1 1 1 1
0.999847 1 1 0.999847
0.998911 1 1 0.998911
1 1 1 1
1 1 1 1
1 1 1 1

VECTORS lamdaE float
1.00085 1.00015 0.994259
1.00051 1.00062 0.997233
1.00045 1.00036 0.994512
1.00105 0.999999 0.994122
1.00094 0.999972 0.994318
1.00079 1.00036 0.994103
1.00217 1.00048 0.99133
1.00053 1.00052 0.997237
1.00048 1.00018 0.997611
0.999993 1.00085 0.997654
1.00051 1.00054 0.994287
1.0019 1.00129 0.990241
1.00074 0.999985 0.994433
1.00048 0.999991 0.994642
1.00009 1.00058 0.994737
1.00075 0.999981 0.994414
1.00034 1.00072 0.994331
1.00061 1.00003 0.994584
1.00237 1.0003 0.991218
1.00074 1.00002 0.997238
1.001 1.00005 0.994115
1.00102 0.999937 0.994244
1.00241 1.00007 0.991348
1.00232 1.00014 0.99142
1.00078 1.00044 0.994009
1.00194 1.00103 0.991152
1.00481 1.00046 0.986857
1.00054 1.00048 0.997259
1.00066 1.00007 0.995957
1.00028 1.00061 0.995979
1.0005 1.00043 0.997313
1.00179 1.00143 0.990249
1.00096 0.999824 0.994225
1.00067 1.00029 0.994331
1.00262 1.00008 0.991691
0.99985 1.00045 0.997902
1.00228 1.00079 0.991652
1.00163 1.00169 0.990266
1.00407 1.0015 0.986302
0.999941 0.999044 0.998311
1.00077 0.999992 0.997219
1.00068 1 0.995917
1.0007 0.99998 0.99726
1.00036 1.00003 0.994792
1.00243 0.999962 0.990687
1.00062 0.99996 0.997529
1.00269 1.00005 0.991633
1.00046 0.999919 0.994706
1.0003 1.00008 0.994835
0.999911 1.00111 0.994542
1.00256 1.00011 0.991121
1.00058 1.00004 0.995986
1.00069 1.00006 0.994409
1.0003 1.00088 0.994211
1.00072 0.999918 0.994524
1.00253 1.00004 0.991214
1.00219 1.00077 0.991045
1.00248 1.00004 0.991305
1.00478 1.00048 0.986863
1.00068 1.00001 0.997263
1.00089 1.00006 0.994253
1.00219 1.00001 0.992318
1.00234 1.0001 0.991419
1.00239 1.00004 0.9914
1.00479 1.00012 0.987114
1.00482 1.00013 0.986953
1.00063 1.00032 0.99425
1.00146 1.00189 0.991033
1.00469 1.00079 0.986735
1.00525 1.00031 0.985481
1.00089 1.0001 0.997217
1.00043 1.00032 0.997437
1.00057 1.00046 0.997235
1.00174 1.0015 0.99025
1.001 0.999956 0.997161
1.00076 1.00029 0.99724
1.0025 1.00004 0.990372
1.00006 1.00029 0.996352
1.00204 1.00085 0.990351
1.00151 1.00191 0.991046
1.00417 1.00135 0.986302
1.0002 0.999719 0.997866
0.999954 1.0014 0.993471
1.00269 0.999943 0.990203
1.00244 1.00026 0.990353
1.00486 1.0002 0.986282
1.00101 1.00231 0.992299
1.00448 1.00079 0.986317
1.00328 1.00274 0.986447
1.00507 1.00123 0.984769
0.999804 0.998329 0.998688
0.999806 0.998907 0.998471
1.00094 0.999984 0.99714
1.00081 0.99999 0.997211
1.00074 0.999985 0.997258
1.00059 0.999997 0.996006
1.00246 0.999951 0.991362
1.00078 0.999965 0.995867
1.00263 1.00006 0.990982
1.00072 0.999992 0.997266
1.00229 0.999884 0.990935
1.0026 1.00004 0.991813
1.00477 0.999529 0.987177
1.00272 0.999983 0.991612
1.00487 0.999778 0.986765
1.00071 1.00001 0.99448
1.00038 1.00007 0.994708
0.999833 1.00135 0.994414
1.00043 0.999873 0.994801
1.00266 1.00004 0.99108
1.00262 0.999954 0.991196
1.00243 1.00046 0.990947
1.00475 1.0005 0.986869
1.00073 0.999993 0.997263
1.00058 1.00006 0.994549
1.00234 0.999981 0.991193
1.00246 1.00008 0.991275
1.00039 1.00072 0.995755
1.0018 1.00166 0.991158
1.00252 0.999987 0.991279
1.00481 1.00005 0.987143
1.00464 1.00084 0.986746
1.00481 1.00024 0.986945
1.00525 1.0003 0.985509
1.00228 0.999936 0.990932
1.00223 1.00005 0.991612
1.00466 0.999487 0.987884
1.00474 0.999846 0.987361
1.0048 1.00001 0.98709
1.00528 0.999278 0.986731
1.00007 1.00045 0.997668
1.00526 0.999889 0.985891
1.00105 1.00267 0.990156
1.00424 1.00126 0.986225
1.00524 1.00078 0.985077
1.0052 0.999221 0.98656
1.00022 1.00277 0.991579
1.00086 1.00508 0.988117
1.00099 0.999983 0.997179
1.00072 1.0003 0.997239
1.00251 1.00003 0.990365
1.0002 1.00001 0.997766
1.00117 1.0023 0.990395
1.00202 1.00087 0.990363
1.00424 1.00122 0.986303
1.00003 0.999595 0.998034
0.999872 1.00151 0.993511
1.00271 0.99998 0.990921
1.00244 1.0003 0.991029
1.00486 1.00021 0.986266
1.0007 1.00246 0.991089
1.00451 1.00075 0.986311
1.00338 1.00257 0.986442
1.00514 1.00114 0.984819
1.00019 1.00231 0.992165
0.999937 1.0004 0.994541
1.00093 1.00449 0.989091
1.00491 1.00006 0.986361
1.00473 1.00041 0.986274
1.00528 0.999844 0.985944
1.00232 1.00385 0.987001
1.0052 1.00064 0.985252
1.00479 1.00181 0.984799
1.0052 1.00095 0.984867
0.999802 0.997837 0.998906
0.999762 0.998217 0.998778
0.999718 0.998711 0.998605
1.00003 1.00225 0.992433
0.999893 1.00001 0.997963
1.00101 0.999964 0.997139
1.00084 0.999991 0.997175
1.00251 1.00008 0.990369
1.00236 0.999951 0.990764
1.00072 0.999985 0.99725
1.00069 0.999987 0.997266
1.00228 0.999896 0.990929
1.00252 1.00003 0.991174
1.00475 0.999531 0.987181
1.0026 1.00002 0.99025
1.00485 0.999782 0.98676
1.00225 0.999901 0.990975
1.00473 0.999456 0.987307
1.00481 0.999637 0.987006
1.00526 0.998007 0.987977
1.00492 0.999929 0.986521
1.0053 0.998553 0.987355
1.0007 0.999992 0.997259
1.00027 1.0001 0.994845
1.00236 0.99998 0.990194
1.0026 1.00008 0.991129
0.999788 1.00122 0.99762
1.00223 1.00127 0.991286
1.00266 0.999959 0.991159
1.00482 0.999965 0.987172
1.0048 1.00034 0.986937
1.00459 1.0009 0.986757
1.00525 1.00029 0.985537
1.00226 0.999927 0.990934
1.00236 1.00006 0.991467
1.00469 0.999474 0.98758
1.00477 0.99994 0.987311
1.00021 1.00049 0.997558
1.00126 1.00242 0.990927
1.00412 1.00157 0.986468
1.00481 1.00006 0.987056
1.00528 0.999043 0.986926
1.00524 1.00074 0.985116
1.00526 0.999953 0.98594
1.0052 0.999228 0.986584
1.00031 1.00267 0.991562
1.00102 1.00494 0.988116
1.00469 0.999527 0.987297
1.00468 0.999696 0.987675
1.00525 0.99841 0.987677
1.00528 0.998494 0.987415
1.00526 0.999378 0.986569
1.00524 0.997407 0.988497
1.00059 1.00295 0.990738
1.00522 0.998418 0.987377
1.00345 1.0023 0.986418
1.00521 1.00119 0.984639
1.0052 1.00027 0.985664
1.00519 0.997744 0.988173
1.00167 1.0046 0.987344
1.00059 1.00469 0.989067
1.00209 1.00474 0.986771
1.0026 0.999967 0.990287
0.999856 0.999479 0.998214
0.999819 1.00146 0.99355
1.0023 1.00034 0.990409
1.00486 1.00021 0.986248
1.00064 1.00257 0.991045
1.00344 1.00238 0.986437
1.00454 1.00072 0.986304
1.00518 1.00105 0.98487
1.00013 1.00234 0.992179
0.999929 1.0003 0.994587
1.00066 1.00461 0.989077
1.0049 1.00008 0.986342
1.00474 1.0004 0.986262
1.00528 0.999853 0.985923
1.00242 1.00367 0.987005
1.00522 1.00068 0.9852
1.00482 1.00174 0.98479
1.0052 1.00079 0.984954
0.999988 0.999603 0.995236
1.00157 1.00447 0.987865
1.00055 1.00348 0.990512
1.00145 1.00468 0.987855
1.00529 0.999397 0.986421
1.00526 1.00028 0.985517
1.00523 0.998675 0.987097
1.00408 1.00255 0.985382
1.00521 0.999925 0.986012
1.005 1.0015 0.984733
1.00516 1.00037 0.985448
1.00023 1.00102 0.993408
1.00022 0.99867 0.995746
0.999854 0.997521 0.999013
0.999787 0.99778 0.99895
0.999738 0.998107 0.998853
1.00001 1.00139 0.993325
0.999802 0.999461 0.998228
1.00012 1.00215 0.992411
0.999991 1.0001 0.997855
1.0026 1.00005 0.990253
1.00244 1.00001 0.990568
1.00483 0.999787 0.986755
1.00474 0.999536 0.987185
1.0023 0.999912 0.990929
1.00073 0.999979 0.997265
1.00227 0.999897 0.990978
1.00471 0.999466 0.98731
1.00479 0.999647 0.987004
1.00526 0.998016 0.987968
1.0049 0.999942 0.986506
1.0053 0.998552 0.98734
1.00469 0.999473 0.987344
1.00528 0.997884 0.988078
1.00526 0.998234 0.987737
1.00523 0.995558 0.990453
1.0053 0.99895 0.986903
1.00526 0.996678 0.989241
1.00227 0.999921 0.990939
1.0025 1.00003 0.991321
1.00471 0.999445 0.987278
1.00479 1.00002 0.98726
1.00031 1.00057 0.997446
1.00155 1.00222 0.991526
1.00411 1.00182 0.986708
1.00482 1.00009 0.987021
1.00528 0.998805 0.987121
1.00526 1.00002 0.985989
1.00523 1.00069 0.985157
1.0052 0.999232 0.986609
1.00035 1.00258 0.991548
1.00117 1.00485 0.988114
1.0047 0.999409 0.987363
1.0047 0.999673 0.987654
1.00525 0.998222 0.987897
1.00528 0.998754 0.987196
1.00068 1.00281 0.990732
1.00346 1.00245 0.986415
1.00517 1.00124 0.984615
1.00527 0.999519 0.986452
1.00524 0.997134 0.988785
1.0052 1.00015 0.985792
1.00522 0.99842 0.98739
1.00518 0.997673 0.988158
1.00171 1.00454 0.987347
1.00187 1.00463 0.986787
1.00067 1.00465 0.989072
1.00526 0.998218 0.987854
1.00526 0.998348 0.987763
1.00525 0.996095 0.989886
1.00525 0.996684 0.989178
1.00523 0.997484 0.988244
1.00518 0.995663 0.990242
1.00264 1.00342 0.986801
1.00519 0.996661 0.989017
1.00506 1.00161 0.984645
1.0052 1.00113 0.984636
1.00517 0.999128 0.986752
1.00514 0.996763 0.989127
1.00025 1.00429 0.990121
1.00318 1.00336 0.986116
1.00105 1.0051 0.987678
1.00341 1.00352 0.985999
1.00489 1.00009 0.986323
0.999927 1.00021 0.994632
1 1.00251 0.992197
1.00039 1.00475 0.989064
1.00475 1.00039 0.986249
1.00528 0.999862 0.985901
1.00247 1.00352 0.987012
1.00492 1.00172 0.984782
1.00524 1.00073 0.985148
1.0052 1.00065 0.98504
0.999999 0.999495 0.995273
1.00142 1.00453 0.987873
1.00039 1.00362 0.990529
1.0013 1.00479 0.987854
1.00529 0.999405 0.986401
1.00527 1.00028 0.985493
1.00522 0.998671 0.987088
1.00412 1.00241 0.985389
1.00521 1.00002 0.985885
1.00504 1.00137 0.984729
1.00516 1.00031 0.985594
1.00013 0.998967 0.9956
1.00037 1.00245 0.991803
1.00279 1.0035 0.986619
1.00079 1.00484 0.989077
1.00236 1.00366 0.987482
1.00524 0.998011 0.987786
1.00522 0.999304 0.986447
1.00519 0.997598 0.988051
1.00453 1.00153 0.985223
1.00515 0.999271 0.986615
1.00467 1.00126 0.985213
1.0003 1.00116 0.993171
1.00032 1.00243 0.991899
1.00014 1.00099 0.993606
1.00022 1.00103 0.993404
1.00021 0.998476 0.99648
1.0002 0.99864 0.996079
1.00002 0.997265 0.997778
0.999858 0.997476 0.999022
0.999779 0.997712 0.998981
0.999849 1.00062 0.994325
0.999786 0.998881 0.998518
1.00004 1.00139 0.993302
0.999893 0.999564 0.998134
1.00023 1.00199 0.992387
1.00012 1.00019 0.997744
1.00488 0.999952 0.986491
1.00478 0.999652 0.987002
1.0053 0.998571 0.987323
1.00526 0.998026 0.987959
1.0047 0.999476 0.987313
1.00226 0.999888 0.990978
1.00469 0.999473 0.987344
1.00527 0.997888 0.988079
1.00527 0.99825 0.987718
1.00523 0.995548 0.990474
1.0053 0.998955 0.986887
1.00526 0.996676 0.989232
1.00526 0.997881 0.988094
1.00521 0.995402 0.990722
1.00526 0.996004 0.989941
1.00523 0.994949 0.990955
1.00524 0.997367 0.98851
1.00525 0.995189 0.990422
1.0047 0.999294 0.987429
1.00472 0.999664 0.987633
1.00524 0.998053 0.988118
1.00528 0.999016 0.986976
1.00078 1.00271 0.99073
1.00331 1.00273 0.986416
1.00515 1.0013 0.984589
1.00527 0.999661 0.986335
1.00524 0.996863 0.989073
1.00522 0.998422 0.987403
1.0052 1.00002 0.98592
1.00518 0.997602 0.988143
1.00179 1.00447 0.987348
1.0018 1.00456 0.986804
1.00073 1.00455 0.989078
1.00526 0.998107 0.987947
1.00526 0.998339 0.987753
1.00525 0.995869 0.990136
1.00525 0.996849 0.989033
1.00263 1.00353 0.986798
1.00497 1.00166 0.98466
1.00519 1.00121 0.984553
1.00523 0.997769 0.98798
1.00518 0.995442 0.990388
1.00517 0.999069 0.986702
1.00518 0.996694 0.989014
1.00516 0.996625 0.989222
1.00327 1.0033 0.986108
1.00327 1.00356 0.985889
1.00035 1.00409 0.990138
1.00091 1.0051 0.987831
1.00523 0.99549 0.990569
1.00525 0.99641 0.98946
1.00523 0.995123 0.990879
1.00519 0.995 0.990755
1.00519 0.995875 0.989767
1.00516 0.995139 0.990677
1.00462 1.0018 0.985283
1.00516 0.995455 0.990089
1.00516 1.00205 0.983949
1.00512 1.00072 0.985047
1.00517 0.998433 0.987176
1.00517 0.996678 0.989173
1.00015 1.00332 0.99119
1.00051 1.00509 0.988671
1.0046 1.00194 0.985258
1.00156 1.00505 0.987239
1.00406 1.00315 0.985491
1 0.999404 0.995309
1.00529 0.999413 0.986381
1.00026 1.00375 0.990545
1.0013 1.00459 0.987878
1.00116 1.00484 0.987853
1.00527 1.00028 0.98547
1.00522 0.998668 0.98708
1.00435 1.00204 0.985393
1.00514 1.00127 0.984725
1.0052 1.00011 0.985759
1.00515 1.00025 0.985739
1.00014 0.998929 0.995623
1.00029 1.00252 0.99183
1.00285 1.00347 0.98662
1.00051 1.0049 0.98907
1.00212 1.00361 0.987491
1.00524 0.998002 0.987779
1.00521 0.999294 0.986438
1.00519 0.997563 0.988032
1.00479 1.00142 0.98522
1.00515 0.999326 0.986473
1.00485 1.00123 0.98523
1.00035 1.00159 0.99271
1.00045 1.00396 0.990441
1.00388 1.0018 0.986255
1.00092 1.00504 0.988772
1.00274 1.00239 0.988054
1.00521 0.996869 0.98883
1.00517 0.998351 0.98726
1.00521 0.996786 0.98846
1.00425 1.00108 0.98583
1.00495 0.999971 0.985855
1.0003 1.00115 0.99317
1.00032 1.00243 0.991795
1.00019 1.00257 0.991863
1.00043 1.00283 0.991498
1.00023 1.00251 0.991999
1.00006 1.00098 0.993731
1.00014 1.00097 0.99361
1.0002 0.998406 0.99656
1.00022 1.00105 0.993399
1.00022 0.998488 0.996493
1.0001 0.997061 0.997835
1.00019 0.998633 0.996406
0.999967 0.997267 0.998415
0.999867 0.997415 0.999032
0.99982 0.999743 0.995257
0.999877 1.00067 0.994297
0.999719 0.99829 0.998822
0.999845 0.998987 0.998407
1.00008 1.00143 0.993277
0.999977 0.999678 0.998034
1.00529 0.998959 0.986872
1.00528 0.998248 0.9877
1.00526 0.99667 0.989223
1.00524 0.995536 0.990493
1.00527 0.997894 0.988079
1.00469 0.999474 0.987344
1.00527 0.997885 0.988094
1.00522 0.99538 0.990731
1.00525 0.996006 0.989947
1.00523 0.994947 0.990963
1.00525 0.997347 0.988492
1.00525 0.995217 0.990431
1.00524 0.995395 0.990728
1.00519 0.994959 0.991088
1.00524 0.994935 0.990809
1.00522 0.994941 0.99095
1.00523 0.996008 0.989665
1.00526 0.994919 0.990674
1.00526 0.997992 0.98804
1.00526 0.998341 0.987742
1.00525 0.995634 0.990386
1.00525 0.997009 0.988888
1.00263 1.00361 0.986795
1.00491 1.0017 0.984675
1.00519 1.00122 0.984469
1.00523 0.998054 0.987716
1.00519 0.995227 0.990534
1.00518 0.996728 0.989012
1.00518 0.999025 0.986653
1.00516 0.996489 0.989319
1.00312 1.00338 0.986101
1.00289 1.00358 0.985779
1.00046 1.00396 0.990154
1.00079 1.00509 0.987986
1.00523 0.995495 0.990566
1.00526 0.996516 0.989394
1.00524 0.995043 0.990925
1.00519 0.994996 0.990764
1.00435 1.00217 0.98526
1.00507 1.00209 0.983897
1.00514 1.00065 0.985029
1.00519 0.996092 0.989584
1.00515 0.995043 0.990731
1.00515 0.998486 0.987149
1.00517 0.995437 0.990078
1.00516 0.996442 0.989318
1.00448 1.002 0.985255
1.00382 1.00319 0.985438
1.00154 1.00503 0.987236
1.00016 1.00325 0.991158
1.00037 1.00509 0.98879
1.0052 0.994961 0.991067
1.0052 0.994931 0.990973
1.00518 0.994911 0.990725
1.00518 0.995058 0.990556
1.00508 1.00214 0.984339
1.00519 0.995278 0.99024
1.00509 1.00192 0.983755
1.00513 1.00031 0.985276
1.00514 0.998325 0.987228
0.999968 1.00214 0.992399
1.0002 1.00481 0.989723
1.00092 1.00508 0.988413
1.00503 1.00222 0.984698
1.00203 1.00501 0.986144
1.00432 1.00308 0.98441
1.00014 0.998898 0.995646
1.00022 1.00258 0.991857
1.00523 0.997994 0.987771
1.00019 1.00497 0.989061
1.0027 1.00368 0.986624
1.00189 1.00357 0.987499
1.00521 0.999287 0.986429
1.00519 0.99753 0.988014
1.00501 1.00132 0.985218
1.00504 1.00124 0.985248
1.00515 0.999374 0.98633
1.00031 1.00159 0.992722
1.00019 1.00414 0.990442
1.00411 1.00177 0.986125
1.00066 1.00505 0.988762
1.0026 1.00218 0.98815
1.00521 0.996841 0.988824
1.00517 0.998366 0.987237
1.00521 0.996837 0.988466
1.0045 1.00104 0.985767
1.00497 1.00009 0.98586
1.00035 1.00296 0.991443
0.999772 1.00481 0.990039
1.00447 1.00042 0.986636
1.00081 1.00428 0.989014
1.00351 1.00068 0.988046
1.00521 0.99571 0.989665
1.00519 0.998297 0.987148
1.0052 0.996961 0.988153
1.00455 1.00041 0.986138
1.00501 0.999944 0.985878
1.0003 1.00113 0.993169
1.00032 1.00246 0.991812
1.00011 1.00292 0.991592
1.00009 1.00267 0.991828
1.00015 1.0026 0.991989
1.00019 1.00302 0.991506
1.00011 1.00279 0.991941
1.00006 1.00335 0.991215
1.00011 1.00259 0.992107
1.00002 1.0011 0.993697
1.00006 1.00098 0.993731
1.00015 0.998431 0.996615
1.00013 1.00094 0.993615
1.00021 0.998419 0.996569
1.00013 0.996942 0.997876
1.00023 0.998486 0.996508
1.00008 0.997051 0.99784
0.9999 0.997254 0.999068
0.99988 0.998995 0.995934
0.999812 0.999857 0.995212
0.999692 0.997855 0.999013
0.999906 1.00073 0.99427
0.999771 0.998435 0.998719
0.999909 0.999081 0.998306
1.00525 0.997327 0.988474
1.00524 0.996014 0.989954
1.00525 0.99524 0.990439
1.00523 0.994946 0.990971
1.00521 0.995358 0.990741
1.00527 0.997889 0.988095
1.00522 0.995386 0.990724
1.00519 0.99496 0.991099
1.00524 0.994936 0.990853
1.00522 0.994939 0.990924
1.00523 0.996027 0.989678
1.00526 0.994913 0.990637
1.0052 0.994959 0.991122
1.00521 0.994948 0.991018
1.00524 0.994926 0.990798
1.00524 0.995124 0.990383
1.00522 0.995505 0.990563
1.00526 0.996613 0.989328
1.00525 0.994956 0.990971
1.00519 0.994994 0.990773
1.00425 1.00236 0.985238
1.005 1.00214 0.983846
1.00515 1.00062 0.985012
1.00518 0.996313 0.9894
1.00515 0.994942 0.990785
1.00518 0.995432 0.990067
1.00513 0.998527 0.987121
1.00518 0.996166 0.989462
1.00437 1.00208 0.985252
1.00363 1.003 0.985382
1.00145 1.00503 0.987233
1.00019 1.00311 0.991131
1.0003 1.00509 0.98891
1.00521 0.994953 0.991055
1.0052 0.995011 0.990871
1.00518 0.994914 0.99076
1.00487 1.00222 0.984345
1.00503 1.00208 0.983738
1.00511 1.00027 0.985267
1.00517 0.995099 0.990517
1.00517 0.998048 0.987551
1.00517 0.995362 0.990135
1.00001 1.00195 0.992594
1.00474 1.00205 0.984667
1.00396 1.00296 0.985047
1.00221 1.00505 0.986211
1.00091 1.00508 0.988539
1.00017 1.00483 0.989611
1.00519 0.994953 0.991028
1.00521 0.994919 0.990811
1.00521 0.994896 0.990653
1.00516 0.994923 0.990615
1.00508 1.00269 0.983784
1.00514 0.996275 0.989173
1.005 1.00178 0.983938
1.00507 1.0007 0.985016
1.00008 1.00061 0.993827
0.999977 1.00391 0.990983
1.00046 1.00507 0.989309
1.0016 1.00505 0.987153
1.0048 1.003 0.983571
1.00392 1.00426 0.984043
1.00027 1.00158 0.992734
0.999976 1.00425 0.990444
1.00521 0.996813 0.988818
1.00037 1.00507 0.988753
1.00434 1.00169 0.985994
1.00217 1.00218 0.988251
1.00517 0.99838 0.987215
1.00521 0.996902 0.988469
1.00474 1.00103 0.985703
1.00502 1.00022 0.985866
1.00025 1.00302 0.991449
0.999958 1.00484 0.989887
1.00474 1.00039 0.986537
1.00055 1.00455 0.989092
1.00338 1.00051 0.988286
1.00522 0.995696 0.98979
1.00519 0.99822 0.987301
1.0052 0.99711 0.988126
1.00454 1.00053 0.986153
1.00501 1.00009 0.985651
0.999735 1.0036 0.991205
0.999884 1.00501 0.989451
1.00463 0.999515 0.987064
1.00231 1.0018 0.988192
1.00526 0.994931 0.99021
1.0052 0.99632 0.98938
1.00503 0.999274 0.986239
1.00499 0.999832 0.985824
1.00036 1.00243 0.99183
1.00018 1.00292 0.991587
0.999744 1.00322 0.992268
1.00008 1.00272 0.99198
0.999945 1.00321 0.991515
1.00008 1.00262 0.992097
0.999948 1.0028 0.992121
1.00011 1.00339 0.991205
0.999871 1.00186 0.993227
0.999964 1.00365 0.991291
1.00003 1.00363 0.990989
1.00012 1.00263 0.992036
0.999984 1.00131 0.993503
1 1.00109 0.993693
1.00007 0.998494 0.996672
1.00006 1.00096 0.993731
1.00016 0.998454 0.996622
1.00012 0.996939 0.997903
1.00021 0.998435 0.99658
1.00012 0.99693 0.997881
1.00005 0.99705 0.997839
0.999997 0.998423 0.996334
0.99988 0.999083 0.995881
0.999722 0.997479 0.999129
0.999799 0.999981 0.995166
0.999722 0.997932 0.998964
0.999842 0.998518 0.998596
1.00523 0.996052 0.989691
1.00524 0.994936 0.990897
1.00526 0.994906 0.990602
1.00522 0.994937 0.990898
1.00519 0.994961 0.99111
1.00521 0.995378 0.990719
1.0052 0.994963 0.991105
1.00521 0.994949 0.991013
1.00524 0.994924 0.990793
1.00523 0.995106 0.990441
1.00522 0.99496 0.991038
1.00525 0.994932 0.990875
1.00527 0.994901 0.990639
1.00522 0.994944 0.991043
1.00521 0.995094 0.99077
1.00518 0.994914 0.990794
1.00464 1.0023 0.984351
1.00493 1.00222 0.983717
1.0051 1.0002 0.985256
1.00517 0.995126 0.990479
1.00514 0.9954 0.990029
1.00517 0.997774 0.987873
1.00465 1.00201 0.984633
1.00348 1.00285 0.985677
1.00251 1.00506 0.986278
1.00006 1.00178 0.992791
1.00076 1.00506 0.988664
1.00009 1.00487 0.989496
1.0052 0.994946 0.991027
1.0052 0.994916 0.990786
1.0052 0.994893 0.990648
1.00486 1.00269 0.983827
1.00504 1.00178 0.983846
1.00507 1.00044 0.985344
1.00516 0.994926 0.990568
1.00512 0.996284 0.989099
1.00009 1.00053 0.99403
0.999976 1.00394 0.990965
1.0046 1.00258 0.983758
1.0035 1.00429 0.984915
1.00157 1.00505 0.987406
1.0004 1.00507 0.989187
1.00523 0.994929 0.990903
1.00525 0.994877 0.990528
1.00519 0.994893 0.990612
1.0051 0.994934 0.990429
1.00471 1.00291 0.98318
1.00504 0.999139 0.986544
1.00497 1.0024 0.983741
1.00025 0.999885 0.994545
1.00031 1.00103 0.993364
0.999949 1.00211 0.992661
1.00012 1.00484 0.98985
1.00064 1.00506 0.988411
1.0015 1.00464 0.986573
1.0045 1.00294 0.98397
1.00365 1.00397 0.985731
1.00013 1.00316 0.991456
1.00011 1.00497 0.989735
1.00523 0.995682 0.989914
1.00065 1.00451 0.989167
1.00498 1.00042 0.986441
1.00317 1.00036 0.988521
1.00519 0.99812 0.987456
1.00521 0.997218 0.988102
1.00467 1.00061 0.986169
1.00498 1.0002 0.985427
0.999868 1.00366 0.99108
1.00005 1.00503 0.989445
1.00486 0.999511 0.987109
1.00256 1.00194 0.988298
1.00528 0.994924 0.990267
1.0052 0.996276 0.989236
1.00502 0.999216 0.986333
1.005 0.99999 0.985737
0.999774 1.00404 0.990795
1.00529 0.994878 0.990331
1.00178 1.00409 0.988375
1.00459 0.999873 0.986971
1.00521 0.995275 0.990411
1.00502 0.99821 0.986362
1.00478 1.00112 0.985242
1.00021 1.00296 0.991582
0.999722 1.00313 0.992193
0.999242 1.00282 0.99372
1.00008 1.00259 0.992087
1.00014 1.00344 0.991196
0.999493 1.0031 0.9923
1.0001 1.00263 0.992026
0.999962 1.00371 0.991014
0.999431 1.00214 0.993433
1.00009 1.0035 0.99126
0.999705 1.00077 0.995091
0.999561 1.00277 0.99275
0.999975 1.00444 0.990351
1.00035 1.00361 0.990636
1.00011 1.00294 0.991717
0.999923 1.00168 0.993232
0.999938 1.00141 0.993488
0.999979 0.99869 0.996675
0.999976 1.00115 0.993688
1.00008 0.998546 0.996669
1.00006 0.996962 0.997962
1.00016 0.99848 0.996631
1.00012 0.99692 0.997903
1.00012 0.996919 0.997881
1.00019 1.00003 0.994521
1.0001 0.998093 0.996513
1 0.998477 0.996304
0.999808 0.997121 0.999192
0.999877 0.99918 0.995828
0.99974 0.997552 0.9991
0.999759 0.998041 0.998905
1.00522 0.995088 0.990497
1.00524 0.994923 0.990787
1.00522 0.994951 0.991009
1.0052 0.994966 0.991089
1.00522 0.994964 0.991029
1.00524 0.994933 0.990889
1.00525 0.994901 0.990615
1.00524 0.994928 0.990934
1.00531 0.99492 0.990685
1.00532 0.994957 0.991112
1.0052 0.994939 0.991027
1.0052 0.994916 0.990762
1.0052 0.994893 0.990642
1.00456 1.00269 0.983871
1.00507 1.00193 0.983764
1.00498 1.00024 0.985673
1.00516 0.994927 0.990522
1.00511 0.996381 0.989026
1.00454 1.0026 0.983951
1.00316 1.00435 0.985787
1.00133 1.00503 0.987658
1.00008 1.00039 0.994233
1.00012 1.00383 0.990949
1.00041 1.00507 0.989062
1.00523 0.994928 0.990892
1.0002 0.999927 0.994538
1.00024 1.00109 0.993268
1.00525 0.994889 0.99054
1.00518 0.994889 0.990623
1.00496 1.00293 0.983166
1.00482 1.00227 0.983836
1.00499 0.999001 0.986463
1.0051 0.995029 0.990353
1.00001 1.00207 0.992848
1.00014 1.00479 0.989816
1.0046 1.00332 0.983667
1.00284 1.00379 0.986537
1.00169 1.0048 0.986878
1.00072 1.00507 0.988438
1.00529 0.994918 0.990659
1.00525 0.994806 0.990532
1.00513 0.994881 0.990342
1.00483 0.995166 0.990329
1.00434 1.00323 0.983746
1.0044 1.00253 0.984485
1.00006 1.00161 0.992901
1.00028 1.00091 0.993482
1.00073 1.00097 0.99289
1.00034 1.00291 0.991279
1.00027 1.00502 0.9894
1.00205 1.0043 0.987574
1.0007 1.00517 0.987236
1.00374 1.0006 0.986477
1.00005 1.0036 0.990956
1.00034 1.00503 0.989441
1.00529 0.994909 0.990325
1.00519 0.99628 0.989093
1.00285 1.00214 0.988407
1.00498 0.999472 0.987155
1.00501 0.999186 0.986424
1.00507 1.00016 0.98565
1.00003 1.00394 0.990721
1.0053 0.994884 0.990536
1.00154 1.00416 0.988425
1.00472 0.999916 0.986782
1.0052 0.99525 0.990408
1.00501 0.998387 0.986617
1.00475 1.00098 0.985284
1.00014 1.00469 0.990166
1.00466 0.99486 0.991338
1.00303 1.00257 0.987605
1.00458 1.00116 0.985495
1.00482 0.996615 0.989578
1.00359 1.00163 0.985783
0.998545 0.997243 0.987644
0.999609 1.00314 0.99212
0.998886 1.00299 0.993695
0.999474 1.00222 0.994196
1.00004 1.0027 0.992016
0.999929 1.00379 0.991039
1.00035 1.00321 0.991232
0.999144 1.00224 0.993643
1.00008 1.00297 0.991715
1.00023 1.00372 0.990664
0.999671 1.00089 0.994715
1.00002 1.00442 0.990367
0.999799 1.0027 0.992496
0.999196 1.00149 0.995179
1.00034 1.00471 0.989742
1.0001 1.00448 0.990338
1.00052 1.00382 0.990229
1.00012 1.00333 0.991119
1.00027 1.00395 0.990674
1.00011 1.00349 0.990937
0.999934 1.00178 0.993105
0.999948 1.00166 0.993215
0.999887 0.998839 0.996092
0.99995 1.00139 0.99347
0.999974 0.998752 0.996359
1.00001 0.997103 0.999126
1.00008 0.998593 0.996667
1.00007 0.996933 0.997963
1.00013 0.996901 0.997899
1.0001 1.00005 0.994584
1.00021 0.999935 0.994542
1.0001 0.998009 0.996627
1.00007 0.998118 0.996774
0.999887 0.996935 0.999229
0.999998 0.998523 0.996274
0.999805 0.997232 0.999177
0.99976 0.997615 0.999073
1.00523 0.9949 0.990592
1.00524 0.994934 0.990902
1.00522 0.994967 0.991021
1.00525 0.994927 0.990933
1.0053 0.994918 0.990688
1.00531 0.99495 0.990754
1.00533 0.994915 0.990723
1.00122 0.994897 0.983951
1.00448 0.994924 0.992795
1.00001 1.00148 0.993315
1.00523 0.994926 0.990881
1.00525 0.994896 0.990553
1.00517 0.994882 0.990633
1.00485 1.00269 0.983142
1.005 1.00211 0.983928
1.00502 0.998966 0.986388
1.0051 0.995136 0.990275
1.00493 1.00327 0.983361
1.00203 1.00362 0.987336
1.00178 1.00499 0.987188
1.00014 1.00004 0.994533
1.00084 1.00508 0.988466
0.999973 1.00203 0.993027
1.00022 1.00481 0.989781
1.00025 1.00104 0.993171
1.00529 0.994904 0.990653
1.00008 1.00158 0.993011
1.00017 1.00108 0.993484
1.00061 1.00096 0.99299
1.00526 0.994826 0.990498
1.00514 0.994886 0.990355
1.00397 1.00361 0.983813
1.00461 1.00161 0.985079
1.0048 0.995679 0.990223
1 1.00312 0.991443
1.00041 1.00501 0.989261
1.00361 1.002 0.986307
1.0014 1.00496 0.987162
1.00176 1.00406 0.987747
1.00525 0.994862 0.990889
1.00515 0.994795 0.990794
1.00507 0.99516 0.989932
1.00462 0.997519 0.989595
1.00229 1.00318 0.987443
0.999825 1.00277 0.992118
1.00072 1.00103 0.992455
0.999925 1.00178 0.992614
0.999999 1.00446 0.991239
1.00022 1.00493 0.989681
1.00039 1.00459 0.988591
1.00191 1.00167 0.988689
1.0004 1.00376 0.990647
1.00109 1.00423 0.988474
1.00532 0.99488 0.990731
1.00521 0.995192 0.990399
1.00499 0.998575 0.986873
1.00473 0.999944 0.986591
1.00473 1.00081 0.985331
1.00041 1.00457 0.990175
1.00457 0.994858 0.991518
1.00303 1.00233 0.987475
1.00465 1.00106 0.985503
1.00491 0.996016 0.98984
1.00375 1.00176 0.985845
0.998605 0.997633 0.985686
1.00044 1.00436 0.990005
1.0026 0.998305 0.99108
1.00355 1.00167 0.98656
1.00287 1.00119 0.987263
1.00309 0.997796 0.990602
0.99998 0.994904 0.948509
0.996449 0.99481 0.967979
0.995737 1.00106 0.988142
0.999692 0.994816 0.876107
0.994701 0.994797 0.843421
0.998629 1.00318 0.993674
0.998786 1.00271 0.994483
0.998944 1.00278 0.994671
1.00007 1.00298 0.991715
1.00031 1.00353 0.990692
1.00006 1.00439 0.990383
1.00001 1.0026 0.992237
0.999646 1.001 0.994337
1.00016 1.00431 0.990289
1.00012 1.00333 0.991206
1.00046 1.0038 0.99029
0.999421 1.00099 0.99479
1.00012 1.00464 0.990018
1.00025 1.00457 0.990116
0.999432 1.00473 0.990853
1.00006 1.00461 0.990206
1.00047 1.00419 0.989797
1.00021 1.00338 0.99095
1.00037 1.00432 0.989953
1.00036 1.00389 0.990576
0.999852 1.00414 0.990887
1.0002 1.00402 0.990587
1.00018 1.00325 0.991327
1.00015 1.00349 0.990926
0.999967 1.00175 0.993096
0.99995 1.00177 0.993107
0.999864 0.998937 0.996079
0.999934 1.00172 0.9932
0.999881 0.998873 0.996083
0.999976 0.997106 0.999146
0.999962 0.998823 0.996043
1.00001 0.997097 0.998537
1.00009 0.996906 0.997962
1.00001 1.00005 0.994738
1.00012 1.00005 0.994588
1.0001 0.997911 0.996728
1.00024 0.999846 0.994562
1.0001 0.997947 0.996888
0.999933 0.996749 0.999263
1.00007 0.998189 0.996491
0.999874 0.997003 0.999214
0.999807 0.997279 0.999163
1.00529 0.994915 0.990692
1.00525 0.994927 0.990932
1.0053 0.994945 0.990406
1.0008 0.994893 0.984078
1.00532 0.994912 0.990733
1.00434 0.995254 0.992444
1.00502 0.996357 0.991283
0.996408 0.994913 0.967241
1.00059 0.996639 0.986231
1.00007 1.00135 0.993391
1.00006 1.00146 0.993292
0.999815 1.00277 0.992313
0.999867 1.00227 0.99274
1.00529 0.994897 0.990646
1.00527 0.994852 0.990464
1.00515 0.994889 0.990368
1.00473 1.00354 0.983877
1.00446 1.00021 0.985667
1.00471 0.996137 0.990111
1.00321 1.00325 0.986153
1.00237 1.00475 0.987087
1.00155 1.00366 0.987916
1.00004 1.00134 0.993488
1.00036 1.00505 0.989121
1.00006 1.00324 0.991607
1.00008 1.00162 0.993121
1.00045 1.00096 0.993079
1.00525 0.994854 0.990896
1.00001 1.00271 0.99211
1.00078 1.00099 0.992653
0.999345 1.00172 0.993792
1.00514 0.994804 0.990693
1.00503 0.995211 0.989937
1.00319 1.00203 0.987397
1.00431 0.996975 0.990034
1.0002 1.00398 0.990908
1.00037 1.00491 0.98906
1.00192 1.00303 0.988537
1.00159 1.00413 0.988231
1.00441 0.994797 0.99185
1.00495 0.995221 0.991014
1.00496 0.995932 0.989622
1.00261 0.998435 0.992087
0.999272 1.00373 0.992158
1.00046 1.00192 0.991861
0.998613 1.00446 0.992457
0.999262 1.00516 0.990112
0.999972 0.994893 0.937612
1.00056 1.0045 0.99018
1.00299 1.00222 0.987344
1.0044 0.994877 0.991718
1.005 0.995677 0.990097
1.00385 1.00184 0.98589
1.00467 1.00098 0.985505
0.998719 0.997366 0.983628
1.00043 1.00413 0.990365
1.00265 0.99767 0.991075
1.00343 1.002 0.986586
1.00348 1.00096 0.987294
1.0035 0.99783 0.990333
1.00067 0.994896 0.936883
0.996612 0.99483 0.963899
0.996071 1.00177 0.988157
0.999407 0.994807 0.88043
0.994705 0.994801 0.832586
1.0003 1.00404 0.990593
0.999797 0.994859 0.88732
0.994696 0.994784 0.838945
1.00079 1.00007 0.991711
1.0019 1.00152 0.989516
1.00144 0.999617 0.992229
0.995436 1.00178 0.989573
0.99945 0.994906 0.945278
0.99489 0.994805 0.961043
0.997173 0.995765 0.892618
0.994731 0.994803 0.831532
0.998211 1.00305 0.994772
0.998644 1.0025 0.994538
0.998898 1.00425 0.993255
1.00015 1.00329 0.991291
1.0004 1.00386 0.990352
0.999855 1.00462 0.990242
0.999922 1.00459 0.990295
0.999661 1.0004 0.994401
1.00019 1.00341 0.990951
1.00006 1.00491 0.990056
1.00001 1.00468 0.990162
1.00058 1.00399 0.989926
0.999356 1.00482 0.991049
0.999653 1.00506 0.990701
0.998692 1.00481 0.991708
1.00027 1.00462 0.989802
1.00044 1.00418 0.990005
1.00042 1.00426 0.989944
1.00025 1.00377 0.990723
1.00044 1.0045 0.989699
0.9999 1.0041 0.990954
0.999627 1.00347 0.991221
0.999789 1.0049 0.990225
0.999749 1.00455 0.990574
0.999954 1.00405 0.9909
1.00008 1.00317 0.991494
1.00013 1.00403 0.990501
1.00018 1.00323 0.991268
1.00002 1.00177 0.993015
1.0002 1.00346 0.990915
0.999957 1.00176 0.993105
0.999975 0.998896 0.996581
0.999935 1.00179 0.99311
0.999887 0.998901 0.996358
0.999953 0.99711 0.997991
0.999875 0.998893 0.996075
0.999974 0.997116 0.999151
1.00002 0.997105 0.997946
1.00013 1.00138 0.993221
0.999957 1.00006 0.994804
1.00001 1.00004 0.994737
1.00008 0.997895 0.996769
1.00013 1.00002 0.99459
1.00011 0.997866 0.996731
0.999974 0.996652 0.999281
1.00009 0.997934 0.997124
0.99995 0.996857 0.998736
0.999917 0.997082 0.998159
1.00042 0.994881 0.984214
1.00531 0.994915 0.990742
1.00403 0.996087 0.992085
0.996581 0.994897 0.968128
1.00055 0.99626 0.986577
1.00502 0.99578 0.99122
1.00308 0.9969 0.987473
0.996657 0.996014 0.97108
0.999976 0.994885 0.946119
0.999419 0.995371 0.895311
0.994663 0.994769 0.842144
0.999796 1.00237 0.992621
1.00007 1.00135 0.993383
1.00014 1.0014 0.993269
0.999889 1.00267 0.992336
0.999544 1.00358 0.992046
1.00032 1.00219 0.991972
1.00007 1.00279 0.992177
0.999979 1.00222 0.992589
1.00525 0.994834 0.990898
1.00515 0.994812 0.990594
1.00505 0.995157 0.989942
1.0033 1.00179 0.987358
1.00411 0.996729 0.990482
1.00216 1.00403 0.988373
1.00262 1.00384 0.987874
1.00071 1.00505 0.988445
1.00053 1.00104 0.992855
1.00013 1.00401 0.99057
1.00019 1.00264 0.992109
0.998953 1.00163 0.994958
1.00434 0.994782 0.992065
0.999384 1.00363 0.992197
1.00033 1.00228 0.992207
1.00484 0.995031 0.990978
1.00486 0.995544 0.989846
1.00235 0.998407 0.991641
0.999475 1.00498 0.991268
1.00036 1.00442 0.990278
1.00312 0.994788 0.992009
1.00422 0.997317 0.990814
1.00474 0.995261 0.99092
1.00103 0.99909 0.993122
0.999714 1.00469 0.990525
0.999367 1.00408 0.991752
0.999428 1.00529 0.991185
0.999818 0.994894 0.889689
1.00031 0.994899 0.949538
1.0005 1.00382 0.990724
1.00342 1.00223 0.986618
1.00263 0.997414 0.991069
1.00398 0.997988 0.990073
1.00404 1.00079 0.987343
0.999977 0.994892 0.947097
0.996549 0.994853 0.963372
0.996247 1.00249 0.988159
0.999105 0.994835 0.894653
0.994709 0.994802 0.821221
1.00029 1.00389 0.990533
0.99981 0.994859 0.887112
0.994669 0.994785 0.8326
1.00092 1.00006 0.991768
1.002 1.00143 0.989563
1.00152 0.999748 0.992543
0.995581 1.00223 0.99022
1.00084 0.995923 0.93855
0.994876 0.994789 0.964077
0.997479 0.998113 0.891643
0.994751 0.994794 0.830296
0.999554 1.00392 0.992719
0.994698 0.994832 0.83306
0.99475 0.994805 0.84575
0.998131 1.00154 0.995668
0.999781 1.00177 0.994239
0.994929 1.0021 0.988923
0.994915 0.996367 0.964497
0.997001 0.995983 0.934485
0.994727 0.999292 0.896585
0.994826 0.994811 0.833498
0.998521 1.00231 0.994411
0.999215 1.00368 0.992973
0.998207 1.00366 0.993758
1.00017 1.00344 0.990951
1.00065 1.00382 0.990056
0.999997 1.00472 0.990116
0.999881 1.00502 0.989996
0.999133 1.00477 0.991246
1.00042 1.00421 0.990004
0.999666 1.00494 0.990534
1.00034 1.00455 0.989806
0.998362 1.00484 0.992102
0.996389 1.00492 0.995314
0.999433 1.00475 0.991156
1.00052 1.00449 0.989648
1.00048 1.00421 0.989935
1.00024 1.00362 0.990866
1.0004 1.00459 0.989654
0.999978 1.00403 0.990893
0.999496 1.00339 0.991866
0.999456 1.00493 0.990649
0.999568 1.00456 0.990715
0.999001 1.00415 0.99205
1.00057 1.00219 0.991826
1.001 1.00223 0.990047
0.999531 1.00479 0.990434
0.999901 1.00476 0.990253
0.999797 1.0049 0.990075
0.999797 1.00465 0.990568
0.999999 1.00346 0.991301
0.999969 1.00414 0.990911
1.00011 1.00318 0.991496
1.00007 1.0017 0.992941
1.00018 1.00324 0.99121
1.00001 1.00175 0.993033
1.00006 0.998898 0.996424
0.999953 1.00176 0.993113
0.999963 0.998878 0.996251
1.00002 0.997051 0.997918
0.999886 0.998886 0.996069
0.999975 0.997115 0.999153
0.999973 0.997119 0.999156
1.00018 1.00169 0.99313
0.999952 1.00019 0.994698
1.00009 1.00147 0.993231
1.00008 0.997891 0.996774
0.999954 1.00007 0.994805
1.00002 1.00006 0.994736
1.00009 0.997882 0.996764
1 0.9966 0.999283
1.00009 0.997841 0.997206
0.99999 0.996658 0.998787
0.999968 0.996867 0.998244
0.999822 0.994864 0.876923
0.994669 0.994773 0.833686
0.997536 0.994877 0.9681
1.00059 0.995399 0.986975
1.00506 0.995073 0.991157
0.996294 0.995687 0.971564
1.00337 0.996066 0.987922
1.00111 0.994891 0.943835
0.999682 0.994808 0.880415
0.994692 0.994783 0.831485
0.998495 0.994845 0.976075
0.999871 0.995183 0.94538
0.997252 0.996454 0.891776
0.994727 0.99477 0.834741
1.00009 1.00322 0.991576
0.999867 1.0022 0.992738
1.00009 1.00134 0.993376
0.999908 1.00262 0.99236
0.999538 1.00341 0.99221
1.00006 1.00358 0.991158
1.00026 1.00271 0.991781
1.00034 1.00331 0.990876
1.00007 1.00274 0.99206
1.00001 1.0023 0.99244
1.0043 0.99478 0.99227
1.00472 0.994853 0.990951
1.00455 0.995289 0.990068
1.00207 0.998727 0.991194
1.00097 1.00421 0.990445
0.999619 1.00518 0.990082
1.00043 1.00207 0.992572
0.999459 1.00367 0.992231
1.00274 0.995065 0.992373
0.999774 1.00476 0.990362
0.999102 1.00426 0.991641
1.00418 0.996416 0.990958
1.00467 0.99541 0.990575
1.00097 0.999155 0.993314
0.999481 1.00524 0.990991
1.00048 0.995375 0.992362
1.00248 0.996835 0.993747
0.999975 1.00158 0.993622
0.998927 1.00487 0.990198
0.999375 1.00498 0.990358
0.999105 1.00515 0.991254
0.994729 0.994855 0.85407
0.999814 0.994896 0.894268
0.999969 0.99491 0.937889
1.00005 1.00388 0.990465
1.00216 1.0013 0.989598
1.00114 1.00005 0.991827
1.00154 0.999664 0.992856
0.999819 0.994862 0.896926
0.99957 0.99488 0.936253
0.994868 0.994813 0.961243
0.995639 1.00261 0.990848
0.997197 0.995971 0.878814
0.994651 0.994792 0.836692
0.994739 0.9948 0.840904
0.999307 1.00344 0.992513
0.994696 0.99483 0.841916
0.994778 0.994808 0.845302
0.997941 1.00118 0.996061
0.999423 1.00163 0.994187
0.995153 0.999453 0.991528
0.994961 0.995916 0.963068
0.997214 0.999047 0.945161
0.995513 0.999394 0.882179
0.994827 0.994806 0.842973
0.997295 1.00346 0.996029
0.994793 0.994852 0.854042
0.994812 0.994794 0.843764
0.995117 1.00212 1.00017
0.994909 0.998495 0.970974
0.994903 0.999941 0.945445
0.995222 0.997573 0.875466
0.994892 0.994848 0.845443
0.999458 1.00328 0.992674
0.998496 1.00365 0.994044
0.996707 1.00424 0.996242
1.00037 1.00426 0.990003
1.00046 1.00446 0.989811
0.999749 1.00484 0.990367
0.998015 1.00476 0.992501
1.0004 1.00457 0.989664
0.99943 1.00474 0.99111
0.996423 1.00482 0.995755
0.995154 1.0051 0.997574
0.996393 1.00498 0.995794
0.999981 1.0042 0.990793
1.00039 1.00469 0.989609
1.00002 1.00395 0.990832
0.999279 1.00351 0.992499
0.999575 1.00457 0.990786
0.999536 1.00493 0.990671
0.999024 1.00427 0.992145
0.999333 1.00455 0.991468
0.997484 1.00491 0.99403
1.00213 0.998183 0.992478
1.00047 1.00196 0.992118
1.00092 1.00216 0.990712
1.00379 1.00192 0.986837
1.00063 1.00403 0.990374
1.0004 1.00243 0.991128
0.999889 1.00462 0.990291
0.999785 1.00492 0.989862
1.00004 1.0046 0.990281
0.999945 1.00491 0.990081
1.00003 1.00398 0.990773
1.00003 1.00457 0.990562
1.00013 1.00336 0.991285
1.00013 1.00175 0.992824
1.00022 1.00304 0.991498
1.00012 1.00169 0.992946
1.00014 0.998924 0.99627
1.00003 1.00171 0.99305
1.00006 0.998904 0.996071
1.00007 0.997115 0.997785
0.999967 0.998866 0.995956
1 0.997074 0.998536
0.999981 0.997096 0.999144
1.0002 1.00224 0.992265
1.00004 1.00033 0.994462
1.00012 1.00173 0.992951
1.00007 0.997949 0.99672
0.999963 1.00016 0.994702
1.00004 1.00153 0.993239
1.00002 0.996571 0.999284
1.00007 0.997895 0.996774
0.999958 1.00007 0.994806
1.00009 0.997865 0.996758
1 0.99662 0.999284
0.999973 0.996641 0.999282
0.994684 0.994809 0.83815
0.999817 0.994865 0.886825
0.994766 0.994795 0.843478
0.994692 0.994781 0.831942
0.996109 0.995332 0.969189
1.00355 0.995077 0.988396
0.999995 0.994916 0.941017
0.99975 0.994866 0.895481
0.994726 0.994798 0.820474
0.998407 0.995061 0.97538
1.00133 0.99599 0.932677
0.997526 0.998428 0.890616
0.994747 0.99477 0.828534
0.995464 0.994887 0.968787
0.997219 0.997401 0.933978
0.994788 0.998749 0.876045
0.994819 0.994827 0.830215
1.00021 1.00428 0.99081
0.999967 1.00317 0.991698
0.999898 1.00213 0.992852
0.999514 1.00324 0.992377
1.00051 1.00401 0.989867
0.99996 1.00356 0.991326
1.00004 1.0031 0.991592
1.00074 1.00287 0.990896
1.00043 1.00332 0.990948
1.00008 1.00264 0.991944
1.00252 0.994821 0.992736
1.00421 0.995352 0.99112
1.00456 0.995597 0.990232
1.00094 0.998559 0.993525
1.00011 1.00517 0.990795
0.99929 1.00454 0.991539
0.99976 1.00491 0.990197
0.999899 1.00505 0.989918
1.00013 0.995403 0.992705
0.99978 1.00496 0.990239
0.999539 1.00517 0.991172
1.00251 0.99629 0.994099
1.00059 1.00035 0.993465
0.997712 0.996972 0.993304
0.998018 0.997873 0.999962
0.998134 1.00345 0.993951
0.999908 1.00471 0.990263
0.998951 1.0051 0.991774
0.994829 0.994832 0.859361
0.994726 0.99485 0.850809
0.999809 0.994885 0.880183
0.999227 1.00294 0.99233
0.99923 1.00145 0.994113
0.99797 1.0006 0.996462
0.994677 0.994824 0.84132
0.99726 0.997379 0.93499
0.994984 0.996032 0.96356
0.995468 0.997225 0.994334
0.994798 0.998281 0.897991
0.994789 0.994811 0.845155
0.99484 0.994816 0.843518
0.99748 1.00329 0.996344
0.994798 0.994845 0.856875
0.994801 0.994791 0.844177
0.995307 1.00178 0.999104
0.994956 0.998021 0.972762
0.995312 0.998963 0.934369
0.994865 0.994847 0.843086
0.994885 0.999516 0.883227
0.995276 1.00487 0.999131
0.994787 0.994826 0.856682
0.994844 0.994807 0.848562
0.994813 0.994828 0.830978
0.994946 0.999451 0.991219
0.994906 0.998947 0.949108
0.995428 0.998389 0.888677
0.998911 1.00383 0.994336
0.997116 1.00457 0.99562
0.994977 1.00518 0.998721
1.00032 1.00462 0.989681
0.999343 1.00475 0.99106
0.996506 1.00487 0.996188
0.999775 1.00441 0.990727
0.996652 1.005 0.99578
0.995399 1.00516 0.997553
0.995174 1.00528 0.997828
0.996872 1.00474 0.995254
0.999517 1.0046 0.990864
0.999595 1.00494 0.990694
0.99907 1.00444 0.992254
0.997764 1.00485 0.993886
0.999307 1.00461 0.991388
0.999044 1.00283 0.993513
1.00048 0.998864 0.994744
1.00202 1.00106 0.989048
1.00035 1.00176 0.992404
1.00151 1.00218 0.990299
1.00392 1.00222 0.986141
1.00497 1.00147 0.984783
1.00181 1.00285 0.989053
1.00307 1.00191 0.987039
1.00043 1.00499 0.989331
1.00036 1.00401 0.990563
0.999764 1.00264 0.992199
1.00024 1.00448 0.990147
0.999842 1.00497 0.989862
1.00018 1.00421 0.990302
1.00003 1.00493 0.990088
1.00013 1.00385 0.990783
1.00013 1.00211 0.992453
1.00019 1.00335 0.991269
1.00014 1.00175 0.992811
1.00015 0.998928 0.996215
1.00014 1.00165 0.992952
1.00014 0.99891 0.995929
1.0001 0.99718 0.997687
1.00007 0.998887 0.995762
1.00005 0.997114 0.998449
1.00001 0.997088 0.999106
1.00043 1.00235 0.991601
1.0001 1.00065 0.993783
1.00025 1.0022 0.992263
1.00011 0.99803 0.996579
1.00003 1.00033 0.994316
1.0001 1.00173 0.992776
1.00004 0.996613 0.999268
1.00008 0.997931 0.996727
0.999966 1.00013 0.994705
1.00002 0.996594 0.999284
1.00006 0.997901 0.996774
1 0.996607 0.999284
0.994825 0.994836 0.85125
0.994696 0.99483 0.848276
0.999814 0.994854 0.886623
1.00087 1.00275 0.990677
0.994816 0.994802 0.850765
0.994763 0.994792 0.843402
0.994712 0.994794 0.841422
0.998757 0.995501 0.974385
0.999543 0.99539 0.943902
0.997151 0.996221 0.87696
0.994736 0.994792 0.834398
0.996658 0.994892 0.965734
0.997269 0.999344 0.943945
0.995357 0.999596 0.879547
0.994811 0.994817 0.834653
0.994901 0.994876 0.961131
0.994882 0.998963 0.943196
0.994897 0.999977 0.885645
0.994878 0.994847 0.845117
1 1.00473 0.990181
1.00012 1.00417 0.990595
1.00007 1.00295 0.991819
1.00063 1.00331 0.990442
1.0004 1.00411 0.990108
0.999975 1.0036 0.991491
1.00076 1.00295 0.990877
1.00046 1.00335 0.991016
0.999229 0.996363 0.992913
1.00265 0.995891 0.994388
1.00018 1.00506 0.989636
1.0011 0.999959 0.993306
0.999781 1.00518 0.991087
1 1.00505 0.990125
0.999761 1.00472 0.990248
0.996774 0.996372 0.994026
0.999113 1.00477 0.991975
0.998653 1.00339 0.99411
0.997881 0.998379 1.00014
0.999689 1.00481 0.991018
0.995853 0.999621 0.990289
0.995845 1.00232 0.999185
0.996852 1.00474 0.99512
0.999052 1.00419 0.992581
0.994783 0.994802 0.862354
0.994831 0.994828 0.857998
0.994723 0.994848 0.847511
0.99755 1.00332 0.996675
0.995381 1.00109 0.998044
0.994807 0.994837 0.859573
0.994894 0.999929 0.945477
0.994955 0.997581 0.970194
0.994852 0.999609 0.882281
0.994799 0.994786 0.84448
0.994855 0.994847 0.840759
0.995491 1.00469 0.998839
0.99479 0.994828 0.856559
0.994842 0.994807 0.851059
0.994831 1.00014 0.994767
0.994802 0.994822 0.835165
0.994897 0.997457 0.942322
0.995165 0.998792 0.891549
0.994898 1.00379 0.998396
0.994811 0.994843 0.860985
0.994798 0.9948 0.851429
0.994715 0.994776 0.835303
0.995044 0.999979 0.885238
0.994908 1.00024 0.978168
0.995251 0.998722 0.935324
0.997776 1.00471 0.995013
0.995382 1.00517 0.998448
0.994927 1.00515 0.998563
0.999603 1.0045 0.990661
0.996796 1.00508 0.995771
0.995583 1.00515 0.997539
0.99704 1.00464 0.995203
0.995246 1.00509 0.99787
0.99769 1.00193 0.997582
0.99801 1.00471 0.993735
0.999253 1.00462 0.991315
0.999085 1.00298 0.993883
0.998966 1.00344 0.991979
0.998863 0.999512 0.996943
1.00196 1.0007 0.989941
1.00401 1.00289 0.984591
1.00494 1.0021 0.983935
1.00209 1.00218 0.989866
1.00401 1.00239 0.985411
1.00517 1.0013 0.984833
1.00395 1.00101 0.986839
1.00464 1.00141 0.985102
1.00049 1.00508 0.988715
1.00184 1.00301 0.988919
1.00233 1.0019 0.987241
1.00021 1.00455 0.989763
1.00015 1.00504 0.989475
1.00012 1.00395 0.990756
0.999901 1.00506 0.989863
1.00023 1.00416 0.990313
1.00021 1.00256 0.991853
1.00023 1.00378 0.990794
1.00014 1.00214 0.992442
1.00012 0.999106 0.995444
1.00018 1.00179 0.992799
1.00017 0.998927 0.99555
1.00001 0.99717 0.999024
1.00015 0.998917 0.995609
1.00007 0.99718 0.998363
1.00005 0.997134 0.999051
1.00043 1.00249 0.99143
1.00023 1.00098 0.993235
1.00039 1.0024 0.99173
1.00016 0.998166 0.996364
1.00014 1.00065 0.993715
1.00026 1.00221 0.992257
1.00005 0.996641 0.999237
1.00011 0.998005 0.996593
1.00004 1.00033 0.994171
1.00004 0.996589 0.999274
1.00008 0.997913 0.996734
1.00002 0.996615 0.999284
0.994795 0.994833 0.860532
0.994823 0.994841 0.851343
0.994689 0.994836 0.848378
1.00078 1.00279 0.990818
1.00065 1.00302 0.990615
1.00085 1.00265 0.990973
0.994857 0.994808 0.847917
0.994816 0.994794 0.851083
0.994758 0.994784 0.843354
0.996837 0.99487 0.967268
0.997282 0.996737 0.932823
0.994779 0.999925 0.896613
0.994825 0.994824 0.829801
0.994995 0.994982 0.964506
0.995225 0.999875 0.939738
0.994838 0.99916 0.883211
0.994871 0.994841 0.842599
0.994888 0.995664 0.960986
0.994878 0.998352 0.944946
0.995403 0.998725 0.888405
0.994842 0.994815 0.833775
1.00014 1.00362 0.990832
1.00025 1.00448 0.989979
1.00032 1.00406 0.990378
1.00072 1.00324 0.990395
1.00021 1.00422 0.990354
1.00077 1.00303 0.990859
0.996177 0.995974 0.994753
0.997397 0.998885 1.0004
0.99985 1.00447 0.990231
0.999138 1.00258 0.994254
0.999158 1.00461 0.992172
0.999446 1.0047 0.991058
0.99872 1.00455 0.992638
0.995404 0.999837 0.990247
0.996631 1.00502 0.995731
0.996291 1.00255 0.998395
0.998685 1.00442 0.992986
0.995224 1.00216 0.98653
0.995673 1.00428 0.996062
0.996382 1.00482 0.996526
0.994809 0.994816 0.86352
0.994783 0.994808 0.862409
0.994832 0.994826 0.856639
0.995464 1.00438 0.998501
0.994784 1.00047 0.991125
0.994794 0.99483 0.856444
0.994822 0.99904 0.942539
0.995396 0.998384 0.877884
0.994839 0.994805 0.853538
0.994822 0.994832 0.830632
0.994917 1.00363 0.998897
0.994808 0.994844 0.861979
0.994808 0.994797 0.851753
0.9949 0.999682 0.975377
0.994742 0.994777 0.829374
0.995204 0.999923 0.881755
0.994948 0.997656 0.947554
0.994968 1.00507 0.99243
0.994787 0.994839 0.8607
0.994777 0.994799 0.844449
0.994663 0.994757 0.843437
0.994824 0.99835 0.875775
0.99504 0.999777 0.943507
0.994901 1.00073 0.969395
0.995771 1.00514 0.998162
0.995104 1.00487 0.998569
0.997208 1.00213 0.998102
0.997247 1.00458 0.995153
0.995364 1.00501 0.997873
0.996464 1.00353 0.997549
0.999093 0.997149 0.999877
0.999118 1.00322 0.994244
1.00105 1.00246 0.991381
1.00244 1.004 0.986824
1.0018 1.00041 0.990919
1.00406 1.00276 0.98483
1.00441 1.00404 0.982966
1.00491 1.00179 0.984023
1.00513 1.00167 0.984209
1.00491 1.00217 0.983869
1.00432 1.00246 0.984688
1.00509 1.00081 0.986057
1.0051 1.0014 0.98475
1.00216 1.00302 0.987671
1.00378 1.00114 0.987077
1.00434 1.00136 0.985423
1.0003 1.00493 0.988853
1.00081 1.00499 0.988685
1.00175 1.0032 0.98878
1.00032 1.00313 0.991218
1.00043 1.00443 0.989765
0.999933 1.00508 0.989618
1.00032 1.00402 0.990323
1.00027 1.00252 0.991851
1.00007 0.999429 0.995213
1.00018 1.0021 0.992431
1.00014 0.99913 0.995427
0.999999 0.997304 0.998994
1.00018 0.998951 0.995542
1.00006 0.997203 0.998346
1.00005 0.997175 0.999018
1.00045 1.00292 0.991221
1.00033 1.0012 0.993048
1.0005 1.00242 0.991498
1.00021 0.998364 0.996071
1.00023 1.00098 0.99332
1.00038 1.00242 0.991861
1.00007 0.996717 0.999187
1.00016 0.998138 0.996382
1.00017 1.00063 0.993647
1.00005 0.996643 0.999246
1.00011 0.997983 0.996606
1.00004 0.996603 0.99928
0.994814 0.994839 0.860517
0.994795 0.994844 0.860405
0.994817 0.994853 0.851527
1.00038 1.00414 0.989862
1.00107 1.00393 0.989662
1.00065 1.00286 0.990963
1.00057 1.00323 0.990535
1.00055 1.00279 0.991055
1.00037 1.0032 0.990925
1.00039 1.00263 0.991534
0.994827 0.994788 0.843393
0.994854 0.99481 0.850504
0.994812 0.994799 0.851414
0.994862 0.994836 0.840168
0.994984 0.995021 0.961479
0.994869 0.999945 0.935654
0.994894 0.997758 0.894901
0.994889 0.996164 0.959952
0.994884 0.999311 0.933904
0.994979 0.998459 0.891822
0.994829 0.994807 0.843262
0.996178 0.996405 0.963037
0.994906 0.999412 0.935326
0.995212 0.998226 0.875821
0.994747 0.994797 0.831838
0.99881 1.0048 0.992219
0.999988 1.00391 0.990948
1.00028 1.0046 0.989776
1.00076 1.00335 0.99035
0.994992 0.999973 0.990498
0.99664 1.0029 0.997497
0.999305 1.0049 0.991099
0.998638 1.00451 0.992697
0.996696 1.00524 0.996322
0.99869 1.00413 0.992928
0.996387 1.00479 0.996515
0.996506 1.00197 0.983319
0.994948 1.00512 0.996603
0.996596 1.00441 0.996136
0.994727 1.00327 0.983596
0.995471 1.00365 0.998834
0.99478 0.994802 0.862514
0.994814 0.994815 0.866348
0.994779 0.994815 0.862454
0.994836 1.0035 0.999351
0.994931 0.99882 0.97893
0.994802 0.994842 0.863022
0.995554 0.997967 0.936164
0.995174 0.998505 0.89398
0.994815 0.994799 0.852062
0.994732 0.994795 0.835131
0.994905 1.00438 0.993202
0.994796 0.994835 0.860591
0.994758 0.994792 0.844395
0.994903 1.0004 0.969635
0.994692 0.994764 0.832911
0.995413 0.999582 0.878697
0.995103 0.99951 0.933133
0.995395 1.00445 0.987089
0.994827 0.994827 0.851633
0.994655 0.994763 0.83497
0.997212 0.996106 0.892985
0.994862 0.999765 0.94297
0.994882 0.999989 0.962627
0.995233 1.0048 0.998855
0.996206 1.00299 0.998238
0.996578 0.999285 1.00122
0.995361 1.00502 0.997504
0.997606 0.99855 1.00005
1.00196 0.998201 0.994197
1.00315 1.00135 0.990786
1.00316 1.00353 0.986351
1.00336 1.00439 0.983959
1.00392 1.00273 0.985068
1.00455 1.00397 0.982816
1.00431 1.00433 0.982769
1.00506 1.00065 0.985002
1.00507 1.00109 0.984753
1.00488 1.00199 0.984002
1.00506 1.00157 0.984907
1.00504 1.00157 0.984293
1.00478 1.00235 0.983802
1.00453 1.00102 0.986405
1.00482 1.00088 0.985889
1.00499 1.0015 0.984668
1.00119 1.00508 0.987656
1.00218 1.00321 0.987789
1.0037 1.00123 0.987316
1.00031 1.00387 0.990266
1.00062 1.0049 0.988876
1.00104 1.0049 0.988656
1.00005 0.999763 0.99493
1.00037 1.003 0.991213
1.00058 1.0044 0.989767
1.0003 1.00251 0.991849
1.00008 0.999464 0.995189
0.999939 0.997522 0.99895
1.00015 0.99915 0.995409
0.999993 0.997338 0.998983
1.00003 0.997205 0.999006
1.0001 1.00488 0.989786
1.00061 1.00338 0.990523
1.00039 1.00162 0.992548
1.00048 1.00285 0.99121
1.00023 0.998638 0.995758
1.00033 1.00123 0.993042
1.00048 1.00246 0.991567
1.00008 0.996863 0.999117
1.0002 0.998358 0.99609
1.00023 1.001 0.993402
1.00007 0.996713 0.999203
1.00016 0.998121 0.9964
1.00005 0.996619 0.999256
0.994789 0.994822 0.856294
0.994801 0.994835 0.861553
0.994804 0.994839 0.860266
1.00044 1.00428 0.989876
1.00073 1.00368 0.98981
1.00005 1.00255 0.990963
1.00008 1.00447 0.989894
1.00112 1.00363 0.990417
1.00064 1.00334 0.990454
1.00044 1.00291 0.991136
1.00046 1.00317 0.990942
1.00041 1.00277 0.991572
0.999521 1.00412 0.991632
0.994763 0.994793 0.845826
0.994815 0.994785 0.84386
0.994854 0.994805 0.853035
0.99484 0.994816 0.843765
0.995393 0.998726 0.878003
0.994879 0.996523 0.958439
0.994863 0.999032 0.944926
0.995032 0.996755 0.959837
0.9949 0.996712 0.946358
0.994847 0.999666 0.884345
0.994763 0.994782 0.830516
0.994786 0.997425 0.964204
0.99487 0.999978 0.945849
0.994737 0.999528 0.895669
0.994678 0.994764 0.842553
0.998257 1.0035 0.994231
0.998685 1.00468 0.992313
0.999982 1.00393 0.991067
0.996803 1.00183 0.979823
0.994817 1.00527 0.997222
0.998629 1.00414 0.992866
0.996165 1.00502 0.996507
0.996868 1.00417 0.996083
0.99525 1.00337 0.999081
0.995179 1.00146 0.982821
0.995822 1.00215 0.999028
0.995736 0.999793 0.988356
0.99482 0.994823 0.858382
0.994783 0.99481 0.862568
0.994819 0.994817 0.869185
0.994906 1.00334 0.99361
0.994878 0.999963 0.966764
0.994805 0.994839 0.860454
0.995069 0.999859 0.943265
0.994752 0.999866 0.895423
0.99474 0.994777 0.844402
0.994719 0.994775 0.82201
0.99557 1.00426 0.987777
0.994815 0.994835 0.851673
0.99468 0.994766 0.833362
0.994959 0.999761 0.963594
0.997424 0.998154 0.891496
0.995269 0.999798 0.938044
0.994973 1.00379 0.9856
0.994684 0.994802 0.838798
0.999506 0.994847 0.896359
0.997079 0.997384 0.93418
0.994869 0.997049 0.965511
0.995614 1.0038 0.998356
0.996311 0.999416 1.00119
0.998845 1.00248 0.995924
0.996118 0.999919 1.0002
1.00081 0.998738 0.99474
1.00329 0.999938 0.989107
1.00391 1.00294 0.985868
1.00338 1.00432 0.983868
1.00419 1.00176 0.984895
1.00477 1.00395 0.982669
1.00432 1.00396 0.982867
1.00481 1.00064 0.985519
1.00521 0.99824 0.986991
1.00519 0.999986 0.985355
1.00504 1.00054 0.985094
1.00511 1.00123 0.984769
1.00508 1.00113 0.984699
1.00486 1.00215 0.983979
1.00509 1.0014 0.985111
1.00477 1.00148 0.984974
1.00498 1.00147 0.984378
1.00306 1.00311 0.986625
1.00411 1.00134 0.986426
1.00457 1.00101 0.985718
1.00039 1.00481 0.988813
1.0013 1.00495 0.987682
1.00229 1.00339 0.987905
1 1.00052 0.995054
1.00048 1.0038 0.990253
1.00092 1.00489 0.988899
0.999917 0.997834 0.997331
1.00003 0.999904 0.99519
1.00043 1.00289 0.991208
1.00008 0.999504 0.995166
0.999938 0.99756 0.998931
0.999989 0.997352 0.99897
1.00011 1.00505 0.989877
1.00045 1.00451 0.989792
1 1.0049 0.989754
1.00045 1.00218 0.991928
1.00043 1.00369 0.990515
1.0002 0.998976 0.995472
1.00039 1.0016 0.992558
1.00059 1.00273 0.991197
1.00007 0.997075 0.999044
1.00023 0.99862 0.995773
1.00032 1.00125 0.993037
1.00007 0.996853 0.999139
1.00019 0.998342 0.996108
1.00007 0.9967 0.999218
0.994791 0.994826 0.860327
0.994797 0.994827 0.856167
0.994789 0.994842 0.862623
1.00048 1.00249 0.990962
1.00021 1.00462 0.98989
1.00059 1.00352 0.989961
1.00046 1.00449 0.989722
1.00066 1.0025 0.990999
1.00065 1.0033 0.99111
1.00195 1.00248 0.989227
0.999045 1.00485 0.990956
1.00048 1.00314 0.99096
1.00013 1.00273 0.991608
0.999413 1.00402 0.991579
0.998562 1.00526 0.992385
0.994684 0.994808 0.838907
0.994786 0.994796 0.845381
0.994809 0.994781 0.844233
0.994751 0.994775 0.840928
0.994834 0.999619 0.883765
0.9953 0.998622 0.935352
0.994871 0.997396 0.959147
0.995086 0.997185 0.964458
0.994698 0.99477 0.832146
0.994878 0.997926 0.939126
0.995521 0.999931 0.88121
0.994885 0.996182 0.967869
0.99488 0.999928 0.946258
0.997717 0.997319 0.88907
0.999319 0.999404 0.996629
0.998328 1.00348 0.994191
0.998573 1.00453 0.992403
0.99535 1.00113 0.982663
0.994949 1.00302 0.999322
0.997161 1.00373 0.996044
0.996846 1.00199 0.999043
0.995222 0.999062 0.988462
0.996803 0.998803 0.992039
0.994725 0.994862 0.848637
0.994821 0.994812 0.860589
0.994782 0.99481 0.862593
0.995327 1.00418 0.988154
0.99486 0.999975 0.963514
0.994803 0.994841 0.851854
0.994837 0.999927 0.934494
0.997083 0.9958 0.878161
0.994709 0.994779 0.842623
0.994826 1.00401 0.985639
0.994696 0.994826 0.84884
0.99948 0.994789 0.88142
0.994857 0.996339 0.961325
0.997133 0.999078 0.944269
0.994794 1.00346 0.990533
0.999802 0.994861 0.877227
0.999815 0.9949 0.946165
0.994882 0.994862 0.960624
0.99599 0.999398 1.00124
0.998314 1.00161 0.995648
1.00173 1.00313 0.990298
0.999652 0.999422 0.995285
1.00277 1.00058 0.988963
1.00436 0.999371 0.987583
1.00335 1.0043 0.983777
1.00407 1.00198 0.984879
1.00497 0.997189 0.987887
1.00431 1.00353 0.982965
1.0047 1.00041 0.985553
1.00523 0.996512 0.988615
1.00519 0.996498 0.989022
1.00522 0.998469 0.986831
1.00522 0.998128 0.987126
1.0052 0.999958 0.985431
1.00518 0.999967 0.985499
1.00503 1.00044 0.985187
1.00516 1.00141 0.984512
1.00508 1.00115 0.984785
1.00509 1.00113 0.984643
1.00471 1.0011 0.985772
1.00488 1.00137 0.985102
1.0045 1.00135 0.985039
1.00147 1.00459 0.987575
1.0031 1.00311 0.986594
1.00366 1.00163 0.986451
0.999858 1.00171 0.993267
1.00083 1.00464 0.988812
1.00145 1.0049 0.987706
0.999741 0.998339 0.99873
1.00002 1.00056 0.994148
1.00065 1.00365 0.990242
0.9999 0.997807 0.998864
1.00002 0.999986 0.994796
0.999941 0.997609 0.998911
1.00132 1.00373 0.989237
1.00013 1.00489 0.989773
1.00052 1.00497 0.989268
1.00032 1.00313 0.99118
1.00036 1.0045 0.989766
1.00012 1.00474 0.989722
1.00016 0.999352 0.995165
1.0004 1.00221 0.991946
1.00027 1.00383 0.990507
1.00004 0.997289 0.998976
1.00021 0.998919 0.995487
1.0004 1.00157 0.992567
1.00007 0.997039 0.999065
1.00022 0.998607 0.995788
1.00007 0.996827 0.999161
0.994708 0.994829 0.834834
0.994808 0.994828 0.860457
0.994807 0.994831 0.85605
1.00039 1.00272 0.990939
1.00337 1.00213 0.988623
1.00085 1.0032 0.99048
1.0005 1.00448 0.989549
1.00131 1.00232 0.991029
0.999861 1.00274 0.991795
0.99954 1.00471 0.9907
1.00133 1.0029 0.989536
1.00107 1.00428 0.989056
0.99975 0.999876 0.994848
0.999868 1.00394 0.991527
0.99873 1.00521 0.99214
0.999679 0.995904 0.874994
0.994661 0.994787 0.832681
0.994795 0.994799 0.845264
0.994716 0.994777 0.821288
0.995525 0.998856 0.896624
0.994834 0.999555 0.935202
0.995612 0.995387 0.961845
0.994848 0.996118 0.966359
0.997526 0.99839 0.889792
0.995258 0.999371 0.935096
0.994877 0.9975 0.968265
0.997265 0.997059 0.933942
1.00148 0.99651 0.997014
0.99925 1.00008 0.996592
0.998425 1.00355 0.994158
0.994802 0.998901 0.98865
0.99758 1.00173 0.999027
0.99724 0.998898 0.9918
0.997788 0.996524 0.990665
0.999819 0.994882 0.889147
0.994718 0.994853 0.84714
0.99483 0.994809 0.862686
0.994859 1.004 0.985922
0.994867 0.995756 0.959635
0.994691 0.994833 0.848827
0.997427 0.996126 0.933804
0.999485 0.994831 0.896726
0.994953 1.00184 0.987577
0.99981 0.994867 0.887171
1.00091 0.995788 0.933823
0.994891 0.994842 0.963554
0.997477 0.998111 0.989413
0.999979 0.994903 0.946878
0.995539 0.994905 0.966973
0.997987 1.0008 0.99531
1.00122 1.00111 0.990381
1.00435 0.998519 0.989848
1.00231 1.00102 0.988831
1.00412 0.999373 0.987596
1.00506 0.996118 0.989363
1.00403 1.00218 0.984867
1.00492 0.997613 0.987816
1.00519 0.995253 0.98985
1.00462 1.00018 0.985585
1.00523 0.99657 0.988563
1.00521 0.995269 0.990113
1.00518 0.995708 0.990091
1.00519 0.996373 0.989217
1.00519 0.997022 0.988692
1.00524 0.998874 0.986683
1.00521 0.99854 0.986922
1.00523 0.998024 0.987262
1.00523 1.00058 0.98513
1.00521 1 0.985387
1.00518 0.999931 0.985643
1.00507 1.00125 0.985
1.00512 1.00143 0.984554
1.005 1.00112 0.984806
1.00276 1.00324 0.986852
1.00455 1.00132 0.985748
1.00469 1.00139 0.985091
1.0001 1.00261 0.991917
1.0016 1.00446 0.987596
1.00316 1.00293 0.986563
0.999791 0.998764 0.998519
0.999958 1.00162 0.993225
1.00118 1.00455 0.98881
0.999823 0.99835 0.997855
1.00003 1.00062 0.994156
0.99991 0.997917 0.998792
1.00248 1.0021 0.988758
1.00078 1.00388 0.989478
1.00046 1.00506 0.988932
1.00019 1.00486 0.989668
1.00033 1.005 0.989263
1.00035 1.00394 0.990358
1.00007 1.00001 0.994698
1.00029 1.00316 0.991183
1.0002 1.00461 0.989741
0.999998 0.997519 0.998893
1.00015 0.999337 0.995183
1.00034 1.00226 0.991963
1.00004 0.997254 0.998997
1.00022 0.998881 0.995503
1.00006 0.997018 0.999087
0.999824 0.994868 0.886902
0.994699 0.994844 0.839559
0.994818 0.994827 0.860559
1.0003 1.00318 0.99091
1.00085 1.00404 0.989428
1.00259 1.00253 0.988958
1.00453 1.0034 0.983999
1.00088 1.00363 0.989473
0.999732 1.00475 0.990454
1.00095 1.0034 0.989848
1.00056 1.0043 0.989358
1.00251 1.0015 0.987767
1.00161 0.999776 0.99271
1.00379 0.995013 0.992684
1.0004 0.999446 0.994741
0.999467 1.0043 0.991896
0.998632 0.995606 0.944786
0.999807 0.994839 0.880052
0.994654 0.994786 0.836552
0.99774 0.997994 0.876476
0.994894 0.999916 0.943412
0.994806 0.995591 0.967124
0.994882 0.997176 0.969892
0.997288 0.999208 0.945678
0.99587 0.995611 0.969916
1.00093 0.99598 0.997213
1.00072 0.997158 0.997055
0.999107 1.00073 0.996553
0.997881 0.99837 0.991661
0.998344 0.997232 0.9909
0.999958 0.994899 0.937605
0.999812 0.994883 0.89388
0.994703 0.994842 0.84574
0.994889 1.00045 0.984451
0.994908 0.994848 0.960752
0.999806 0.994855 0.887061
0.999634 0.994892 0.944623
0.996844 0.998001 0.989799
1.00079 0.994904 0.944094
0.996508 0.994896 0.964442
1.00092 0.995782 0.989478
0.998741 0.994852 0.974143
1.00059 0.999164 0.99056
1.00398 0.997364 0.989818
1.00486 0.995508 0.991142
1.00378 0.999447 0.987605
1.00491 0.996178 0.989244
1.00519 0.99492 0.990335
1.00482 0.998065 0.987746
1.00519 0.995317 0.989792
1.00521 0.994915 0.990428
1.00523 0.996641 0.988512
1.00521 0.995323 0.990073
1.00519 0.995058 0.990509
1.00518 0.99555 0.990163
1.00518 0.995949 0.989884
1.0052 0.996243 0.989413
1.00519 0.997034 0.98868
1.00522 0.997794 0.98787
1.00526 0.999698 0.986034
1.00524 0.998931 0.986661
1.00521 0.998609 0.987014
1.00525 1.00101 0.984804
1.00523 1.00064 0.985029
1.00522 1.00004 0.98534
1.00368 1.00203 0.986353
1.00494 1.00134 0.985018
1.00502 1.00145 0.984596
1.00079 1.00262 0.990722
1.0027 1.00332 0.986858
1.00431 1.00165 0.985725
0.999914 0.999548 0.998158
1.00023 1.00247 0.991902
1.00182 1.00434 0.987618
0.999878 0.998959 0.998404
1.00011 1.00144 0.993182
0.999899 0.99839 0.998599
1.00416 1.00205 0.985427
1.00258 1.00184 0.988653
1.00091 1.00461 0.98824
1.00029 1.00384 0.989723
1.00046 1.00502 0.988844
1.00056 1.00446 0.989462
1.00021 1.00506 0.989258
1.00026 1.004 0.990343
1.00008 1.00065 0.994071
0.999949 0.997932 0.998749
1.00006 0.999936 0.994721
1.00026 1.00314 0.991187
0.999993 0.99751 0.998922
1.00013 0.9993 0.995198
1.00004 0.99722 0.999017
0.999988 0.994915 0.948611
0.999837 0.99488 0.886347
0.994683 0.994834 0.834706
1.0008 1.00475 0.988378
1.00199 1.00266 0.989301
1.00163 1.00361 0.988982
1.00407 1.00355 0.984661
1.0046 1.00256 0.983895
1.00275 1.00289 0.985977
1.00015 1.00444 0.989649
1.00347 1.00128 0.98676
1.00153 0.999643 0.99291
1.00318 0.998278 0.98992
1.00434 0.995501 0.992005
1.0035 0.995759 0.992601
1.00343 0.995175 0.992887
1.00007 0.999899 0.994633
0.99604 0.994862 0.968407
0.999754 0.995956 0.941079
0.998514 0.995599 0.894388
0.99707 0.998393 0.933782
0.994886 0.997297 0.970357
0.99551 0.996052 0.975426
0.999509 0.996417 0.992292
1.00142 0.995506 0.996858
1.00011 0.997846 0.997108
0.999217 0.998436 0.991161
0.996832 0.996498 0.96939
1.00008 0.994914 0.949453
0.999812 0.994871 0.879718
0.996257 0.997983 0.990093
0.996875 0.994869 0.965644
0.999999 0.994927 0.941107
1.00029 0.99512 0.989659
0.998462 0.99516 0.973557
1.00315 0.99476 0.990938
1.00292 0.99745 0.985845
1.00352 0.996093 0.989758
1.00466 0.995314 0.991153
1.00515 0.994775 0.990862
1.00485 0.996262 0.989128
1.00519 0.99492 0.9903
1.00523 0.994902 0.990474
1.0052 0.995384 0.989733
1.00521 0.994922 0.9904
1.00523 0.994922 0.990514
1.00521 0.995359 0.990033
1.00518 0.995069 0.990478
1.0052 0.99515 0.990423
1.00519 0.995399 0.990233
1.00518 0.995823 0.98997
1.0052 0.996987 0.988865
1.00519 0.99705 0.988667
1.00522 0.997854 0.987846
1.00524 0.998998 0.986842
1.00529 1.0004 0.985303
1.00526 0.999808 0.985897
1.00524 0.998991 0.986639
1.00441 1.00105 0.986145
1.0052 1.00103 0.98483
1.00524 1.0007 0.984928
1.00134 1.00228 0.990103
1.00364 1.00221 0.986334
1.00479 1.00144 0.985035
1.00026 1.00012 0.99768
1.00089 1.00251 0.990707
1.00263 1.00339 0.986864
1.00007 0.999672 0.99797
1.00028 1.00237 0.991893
0.99999 0.999069 0.998259
1.00461 1.00197 0.984556
1.00444 1.00199 0.985558
1.00314 1.00273 0.986319
1.00253 1.00183 0.988546
1.00113 1.00435 0.98804
1.00118 1.00479 0.988354
1.00036 1.00498 0.988755
1.00051 1.00455 0.989453
1.0001 1.00131 0.993369
1.00021 1.00411 0.990329
1.00003 1.00062 0.994099
0.999899 0.998404 0.998567
0.999938 0.997858 0.998803
1.00005 0.999894 0.994747
0.999986 0.997459 0.998948
0.996949 0.994878 0.969622
0.999985 0.994938 0.936901
0.999826 0.994874 0.896475
1.00517 1.00021 0.985183
1.00243 1.00363 0.988501
1.0036 1.00371 0.985322
1.00337 1.00261 0.986243
1.00467 1.0028 0.983791
1.00421 1.00009 0.986994
1.00437 1.00155 0.985752
1.00123 0.999244 0.993111
1.00363 0.998557 0.989572
1.00425 0.995517 0.99137
1.00478 0.995379 0.990281
1.00384 0.995465 0.992628
1.00346 0.995436 0.992636
1.00315 0.995355 0.993085
0.999483 0.996463 0.990823
0.995889 0.994858 0.96673
0.999264 0.994987 0.937523
0.995071 0.996504 0.973785
0.999324 0.996214 0.994591
1.00137 0.994948 0.996463
1.00117 0.997 0.98385
0.996809 0.995667 0.970222
0.99996 0.994913 0.9376
0.999385 0.994941 0.989887
0.998701 0.995459 0.972679
1.00231 0.995256 0.991368
1.00293 0.99706 0.98657
1.00414 0.994793 0.991325
1.00464 0.99747 0.99064
1.00443 0.995094 0.991154
1.00514 0.994785 0.990752
1.00528 0.994779 0.990469
1.00519 0.994916 0.990265
1.00522 0.994893 0.990466
1.00528 0.994891 0.990448
1.00521 0.994925 0.990372
1.00522 0.994921 0.990519
1.00523 0.994979 0.990592
1.00517 0.995079 0.990447
1.0052 0.995145 0.990405
1.00521 0.995985 0.989733
1.00518 0.995696 0.990057
1.00521 0.996827 0.989042
1.00524 0.998327 0.987562
1.00522 0.997914 0.987823
1.00524 0.998965 0.986872
1.00528 1.00012 0.985689
1.0047 1.00051 0.986213
1.00528 1.00049 0.985221
1.00526 0.999913 0.985761
1.00191 1.00145 0.98999
1.00434 1.00116 0.986147
1.00518 1.00105 0.984855
1.00051 1.00041 0.997349
1.00154 1.00199 0.990094
1.00361 1.00233 0.986316
1.00039 1.0002 0.997535
1.00103 1.00236 0.990693
1.00024 0.999857 0.997783
1.00523 1.00108 0.984556
1.00495 1.00191 0.984496
1.00469 1.00159 0.985133
1.00485 1.00195 0.98569
1.00341 1.00284 0.986126
1.00207 1.0043 0.987305
1.00139 1.00409 0.98784
1.0009 1.0049 0.988373
1.0002 1.00199 0.992487
1.00037 1.00462 0.989444
1.00005 1.00127 0.9934
0.999861 0.998987 0.998357
0.999989 1.00056 0.994126
0.999892 0.998321 0.998634
0.999933 0.997796 0.998851
1.00099 0.994868 0.988108
0.996745 0.994891 0.966426
0.999963 0.99488 0.948617
1.00511 0.998785 0.986968
1.0052 0.998293 0.987322
1.00517 1.00004 0.985414
1.00392 1.00219 0.986504
1.00474 1.00307 0.983686
1.00427 0.999898 0.987334
1.00515 0.996144 0.988826
1.00421 0.99854 0.989236
1.00427 0.995907 0.990732
1.00472 0.995987 0.990411
1.00518 0.995024 0.990492
1.004 0.995624 0.991822
1.0035 0.995728 0.992568
1.00369 0.99509 0.992679
1.00003 0.996194 0.99096
0.995655 0.994851 0.965158
0.999457 0.996055 0.996984
1.00442 0.995315 0.991125
1.00104 0.99702 0.984033
0.99678 0.995161 0.968141
1.00197 0.994815 0.991774
1.0029 0.996617 0.987322
1.00417 0.994813 0.991918
1.00467 0.996669 0.990707
1.00528 0.994891 0.990671
1.00537 0.994943 0.990861
1.00514 0.994797 0.990646
1.00529 0.994813 0.990441
1.0053 0.994872 0.990436
1.00521 0.994886 0.990458
1.00527 0.994889 0.99047
1.00524 0.994901 0.990607
1.00521 0.99492 0.990525
1.00523 0.99496 0.990575
1.00522 0.995418 0.990319
1.0052 0.995133 0.990387
1.00522 0.996012 0.989716
1.00525 0.997646 0.988188
1.00521 0.996664 0.989219
1.00524 0.998256 0.987631
1.00529 0.999768 0.986027
1.00524 0.998936 0.986902
1.00528 1.00005 0.98576
1.0048 1.00027 0.986295
1.0022 1.00076 0.990126
1.00467 1.00055 0.986216
1.00528 1.00059 0.985138
1.00063 1.00051 0.997208
1.00194 1.00139 0.989989
1.00425 1.00133 0.986149
1.00057 1.00046 0.997282
1.00166 1.00183 0.990086
1.00048 1.00031 0.997411
1.00526 0.999535 0.986034
1.00522 1.00099 0.984704
1.00517 1.00091 0.985076
1.00517 1.00182 0.984435
1.00484 1.00142 0.985167
1.00304 1.00296 0.98676
1.00368 1.00289 0.985933
1.00184 1.00434 0.987311
1.00049 1.00267 0.991316
1.00068 1.00505 0.988392
1.00009 1.0021 0.992518
0.999911 0.99965 0.998051
1.00001 1.00126 0.99343
0.999836 0.998855 0.998437
0.999874 0.998231 0.998697
1.00428 0.994863 0.992158
1.00101 0.994872 0.986094
0.996606 0.994893 0.965424
1.00515 0.997562 0.988299
1.00512 0.998342 0.987252
1.00525 0.996976 0.988575
1.0052 0.998286 0.987305
1.00517 0.999844 0.985643
1.00524 0.995507 0.989511
1.00437 0.999781 0.987668
1.00514 0.996552 0.988749
1.00528 0.994876 0.990334
1.00463 0.996358 0.99054
1.00512 0.995085 0.990289
1.00391 0.995647 0.992013
1.00294 0.995953 0.992509
1.0004 0.995875 0.990975
1.00533 0.994927 0.990628
1.00437 0.996225 0.991273
1.00099 0.996965 0.98424
1.00413 0.994859 0.992496
1.00467 0.99592 0.990778
1.00528 0.994861 0.990734
1.00538 0.994942 0.990807
1.00532 0.994927 0.990743
1.0053 0.994843 0.990414
1.0053 0.994886 0.990449
1.00525 0.994902 0.990687
1.00527 0.994889 0.990493
1.00525 0.994899 0.990604
1.00524 0.99505 0.990702
1.00524 0.994949 0.990557
1.00522 0.995422 0.990296
1.00524 0.996955 0.988909
1.00522 0.996039 0.989699
1.00524 0.997662 0.988198
1.0053 0.9994 0.986418
1.00524 0.998183 0.987699
1.00529 0.999765 0.98605
1.00482 1.0002 0.98634
1.00528 0.999988 0.985831
1.0048 1.00028 0.9863
1.00228 1.00036 0.991904
1.00092 1.00016 0.994098
1.00224 1.00074 0.990892
1.00465 1.00061 0.986218
1.00065 1.00054 0.997181
1.00207 1.0012 0.989985
1.0006 1.00052 0.99722
1.00525 0.996718 0.98901
1.00523 0.998439 0.987307
1.00525 0.999542 0.986198
1.00522 1.00043 0.985419
1.00522 1.0009 0.984851
1.00519 1.0009 0.985037
1.00387 1.00151 0.986626
1.00497 1.00126 0.985202
1.00313 1.00268 0.986751
1.00112 1.00257 0.990304
1.00166 1.00443 0.987316
1.00041 1.00275 0.991323
1.00011 1.00038 0.997602
1.00001 1.00209 0.992546
0.999834 0.999486 0.998177
0.999828 0.998738 0.99851
1.00534 0.994882 0.990572
1.00455 0.99486 0.991924
1.00126 0.994877 0.98413
1.00522 0.996035 0.989364
1.00513 0.997493 0.988148
1.00513 0.997915 0.987539
1.00524 0.997116 0.988567
1.0052 0.998284 0.987286
1.00529 0.995005 0.9904
1.00523 0.995513 0.989505
1.00514 0.996979 0.988671
1.00528 0.994876 0.990345
1.00509 0.995154 0.990084
1.00393 0.9957 0.99221
1.00529 0.994938 0.990821
1.00534 0.994929 0.990807
1.00433 0.996892 0.991426
1.00527 0.994836 0.990787
1.00539 0.994937 0.990757
1.00532 0.99492 0.990701
1.00523 0.994957 0.990932
1.00529 0.994896 0.990462
1.00525 0.994905 0.990665
1.00526 0.994916 0.990891
1.00525 0.994896 0.9906
1.00523 0.995042 0.990686
1.00523 0.996363 0.989523
1.00523 0.995427 0.990273
1.00524 0.996976 0.988914
1.0053 0.999047 0.986807
1.00524 0.997677 0.988208
1.0053 0.999396 0.986442
1.00483 1.00017 0.986372
1.00529 0.999761 0.986073
1.00484 1.00019 0.986352
1.00239 1.00009 0.992022
1.00481 1.00029 0.986305
1.00247 1.00026 0.9918
1.00095 0.999988 0.994256
1.00067 1.00043 0.995684
1.00243 1.00068 0.991504
1.00065 1.00059 0.997165
1.00523 0.995754 0.990078
1.00523 0.998055 0.987665
1.00524 0.996522 0.989215
1.00529 0.999837 0.985913
1.00524 0.998511 0.987277
1.00524 0.999552 0.986362
1.00524 1.00043 0.985369
1.00443 1.00062 0.986546
1.00522 1.00091 0.984998
1.00399 1.00128 0.986627
1.00165 1.0019 0.989989
1.00318 1.00236 0.986745
1.00095 1.00274 0.990303
1.00027 1.00094 0.997264
1.00021 1.00293 0.991336
0.999955 1.00022 0.997784
0.999775 0.999326 0.998285
1.00528 0.994864 0.990676
1.00532 0.994883 0.990556
1.00471 0.99487 0.991671
1.00525 0.995133 0.990388
1.00522 0.996106 0.989345
1.0051 0.997425 0.988002
1.00524 0.997258 0.98856
1.00528 0.995002 0.990364
1.00522 0.995529 0.989498
1.00524 0.994877 0.990357
1.00523 0.994956 0.990948
1.00528 0.994936 0.990809
1.00535 0.994932 0.990984
1.0052 0.994973 0.99104
1.00532 0.994915 0.99066
1.00523 0.994957 0.990918
1.00526 0.994942 0.990959
1.00525 0.994909 0.990643
1.00525 0.994917 0.990881
1.00523 0.995969 0.990008
1.00522 0.995034 0.990669
1.00525 0.996387 0.989519
1.00528 0.998729 0.987204
1.00524 0.996999 0.988919
1.0053 0.999041 0.986826
1.00483 1.0001 0.986457
1.0053 0.999392 0.986466
1.00485 1.00015 0.986389
1.00243 1.00005 0.991982
1.00486 1.00017 0.986363
1.00254 1.00002 0.991892
1.00101 0.999878 0.994295
1.00264 1.00015 0.991705
1.00059 1.00016 0.994499
1.00016 1.00075 0.997577
1.00523 0.995603 0.990086
1.00524 0.997275 0.988557
1.00524 0.99584 0.989889
1.00531 0.999513 0.986338
1.00524 0.99776 0.987907
1.00523 0.996331 0.98942
1.00479 1.00006 0.986513
1.00528 0.999844 0.985876
1.00525 0.998577 0.987247
1.00526 1.00042 0.985319
1.00448 1.00052 0.986542
1.00196 1.00123 0.9901
1.00408 1.00105 0.986629
1.00152 1.00208 0.989994
1.00034 1.00112 0.997166
1.00088 1.0029 0.990301
1.00021 1.00078 0.997378
0.999849 1.00002 0.997952
1.00522 0.994903 0.990889
1.00528 0.994866 0.990658
1.00532 0.994883 0.990541
1.00525 0.995124 0.99043
1.00521 0.996171 0.989325
1.00529 0.994992 0.990328
1.00521 0.99496 0.991008
1.00524 0.994952 0.990957
1.00528 0.994932 0.990797
1.0052 0.994972 0.991048
1.00522 0.994959 0.99103
1.00523 0.994955 0.990904
1.00526 0.994945 0.99094
1.00522 0.995705 0.990384
1.00523 0.994918 0.99087
1.00524 0.995941 0.99
1.00525 0.998462 0.987559
1.00526 0.996401 0.989516
1.00528 0.998716 0.987216
1.0048 1 0.986624
1.00531 0.999034 0.986845
1.00484 1.00009 0.986472
1.00243 1.00013 0.99189
1.00487 1.00013 0.986405
1.00257 1.00001 0.991836
1.00106 0.999892 0.99421
1.00268 0.999971 0.991772
1.00069 0.999931 0.994561
1.00024 1.00034 0.994727
1.00521 0.99521 0.990694
1.00523 0.996994 0.988856
1.00524 0.995461 0.990196
1.0053 0.998892 0.98701
1.00524 0.997401 0.988407
1.00524 0.995923 0.9897
1.0049 0.999859 0.986574
1.00531 0.999297 0.986472
1.00525 0.997469 0.98815
1.00222 1.0005 0.990338
1.0048 1.00003 0.986509
1.00528 0.999854 0.98584
1.00454 1.00043 0.986538
1.00191 1.0013 0.990112
1.00042 1.00106 0.997179
1.00141 1.00225 0.989999
1.00033 1.00103 0.997194
1.00006 1.00068 0.997521
1.0052 0.994939 0.991004
1.00523 0.994911 0.990852
1.00527 0.994869 0.990641
1.00525 0.995124 0.990473
1.00523 0.994969 0.990981
1.00521 0.994962 0.991014
1.00524 0.99495 0.990965
1.0052 0.994971 0.991056
1.00523 0.994969 0.991019
1.00523 0.995958 0.990098
1.00525 0.994953 0.99092
1.00523 0.995891 0.990137
1.00521 0.997936 0.988237
1.00526 0.995928 0.989991
1.00524 0.998455 0.987569
1.00477 0.999873 0.986816
1.00528 0.998713 0.987227
1.00481 0.999989 0.986633
1.00244 1.0002 0.990362
1.00486 1.00008 0.986486
1.00256 1.0001 0.991013
1.00092 0.999956 0.997185
1.00271 0.999972 0.991691
1.00077 0.999881 0.994486
1.00038 0.99997 0.994809
1.0052 0.995163 0.990846
1.00523 0.996524 0.989424
1.00522 0.995287 0.990595
1.00528 0.998499 0.987388
1.00523 0.997 0.988837
1.00524 0.995318 0.990306
1.0049 0.999642 0.986704
1.0053 0.998889 0.987021
1.00524 0.997525 0.988258
1.0024 0.999976 0.990556
1.00488 0.999778 0.986585
1.0053 0.999071 0.986608
1.00057 1.0007 0.997252
1.00223 1.00049 0.990346
1.0048 1 0.986505
1.00184 1.00136 0.990127
1.00042 1.00098 0.997168
1.0003 1.00097 0.99723
1.00522 0.994971 0.990983
1.00519 0.99494 0.991005
1.00524 0.994917 0.990815
1.00524 0.996023 0.990002
1.00523 0.994966 0.991009
1.0052 0.994962 0.991019
1.00524 0.994989 0.991008
1.00523 0.995966 0.990098
1.00523 0.997991 0.988225
1.00524 0.99606 0.98989
1.00521 0.998211 0.987937
1.00473 0.999526 0.987159
1.00523 0.998438 0.98758
1.00477 0.999864 0.986821
1.00241 1.00014 0.990474
1.00482 0.99998 0.986643
1.00245 1.00018 0.990367
1.00088 1 0.99717
1.00259 1.00008 0.990256
1.00079 0.999955 0.995839
1.00048 0.999849 0.99476
1.00524 0.995172 0.990716
1.00526 0.996461 0.989524
1.00521 0.9951 0.990865
1.00527 0.998586 0.98731
1.00523 0.996607 0.989334
1.00523 0.995365 0.990496
1.00488 0.999575 0.986817
1.00528 0.99872 0.987196
1.00523 0.997003 0.988819
1.00249 0.999798 0.990588
1.00487 0.999631 0.986714
1.0053 0.998888 0.987031
1.00075 1.00028 0.997283
1.00242 0.999953 0.99056
1.00487 0.999694 0.986595
1.00057 1.00068 0.997218
1.00223 1.00048 0.990353
1.00039 1.00095 0.99718
1.00523 0.996039 0.989981
1.00522 0.995033 0.990939
1.00518 0.994941 0.991005
1.00523 0.997904 0.988296
1.00523 0.996005 0.990027
1.00524 0.994963 0.991038
1.00523 0.995965 0.990099
1.00523 0.997971 0.988234
1.0047 0.999383 0.987361
1.00521 0.998492 0.987637
1.00475 0.999624 0.987062
1.00239 1.00004 0.99061
1.00478 0.999853 0.986825
1.00239 1.00015 0.99048
1.00082 1.00002 0.997166
1.00244 1.00017 0.990371
1.00086 1.00002 0.997164
1.00087 0.999916 0.99425
1.00527 0.996435 0.98949
1.00524 0.995083 0.990783
1.00527 0.998391 0.987554
1.00525 0.99646 0.98953
1.00521 0.995043 0.990883
1.00484 0.999725 0.986843
1.00527 0.998594 0.987306
1.00522 0.996688 0.989245
1.00253 0.999844 0.990517
1.00486 0.999679 0.986762
1.00528 0.998945 0.987003
1.00089 1.00002 0.997241
1.00251 0.999794 0.990589
1.00486 0.999613 0.986724
1.00073 1.00031 0.997274
1.00244 0.999945 0.990563
1.00058 1.00067 0.997188
1.00524 0.997944 0.988207
1.00523 0.996106 0.989933
1.00522 0.995109 0.990895
1.00466 0.999321 0.987485
1.00523 0.997899 0.988303
1.00523 0.99599 0.990053
1.00523 0.997951 0.988243
1.00472 0.999376 0.987332
1.00232 0.999992 0.990788
1.00475 0.999722 0.986965
1.00237 1.00005 0.990616
1.00081 1.00002 0.997179
1.00239 1.00016 0.990486
1.00081 1.00004 0.997175
1.00085 1.00002 0.997163
1.00526 0.998221 0.987763
1.00527 0.996206 0.989733
1.00524 0.994965 0.990851
1.00477 0.999663 0.987039
1.00527 0.998397 0.987548
1.00525 0.996459 0.989536
1.00248 0.999949 0.990515
1.00482 0.99974 0.986838
1.00527 0.998601 0.987302
1.00093 0.999942 0.997177
1.00253 0.99986 0.990516
1.00484 0.999777 0.986708
1.00086 1.00006 0.99726
1.00252 0.999807 0.99059
1.00075 1.00031 0.997255
1.00467 0.999547 0.987319
1.00524 0.997821 0.988299
1.00523 0.996158 0.989885
1.00227 0.999923 0.990956
1.00467 0.999306 0.987473
1.00523 0.997889 0.988311
1.00474 0.999366 0.987304
1.00232 0.999969 0.990796
1.00078 1.00002 0.997191
1.00235 1.00006 0.990621
1.0008 1.00003 0.997177
1.00078 1.00006 0.997179
1.0047 0.999595 0.987221
1.00526 0.998046 0.987953
1.00527 0.995994 0.989976
1.0025 0.999994 0.991945
1.00475 0.999669 0.98704
1.00526 0.998405 0.987542
1.00089 0.999957 0.997157
1.00249 0.999967 0.990513
1.00479 0.999756 0.986834
1.00093 0.99997 0.997203
1.00254 0.999883 0.990515
1.00085 1.00008 0.997273
1.00234 0.999924 0.990874
1.00466 0.999432 0.987391
1.00523 0.997697 0.988392
1.0007 0.999987 0.997245
1.00226 0.999923 0.990952
1.00468 0.999294 0.987461
1.00231 0.999948 0.9908
1.00075 1.00001 0.997209
1.00078 1.00004 0.997183
1.00249 0.999962 0.992046
1.0047 0.999596 0.98722
1.00526 0.997868 0.988144
1.00039 0.999995 0.997634
1.0024 0.999996 0.99065
1.00473 0.999672 0.987042
1.0009 0.999968 0.997169
1.00249 0.999987 0.99051
1.00092 0.999991 0.997225
1.00069 0.999964 0.994553
1.00237 0.999924 0.991538
1.00466 0.999318 0.987463
1.00073 0.99999 0.997251
1.00226 0.999926 0.990956
1.00076 0.999999 0.997222
1.00026 0.999989 0.994966
1.00241 0.999952 0.99144
1.00468 0.999602 0.987219
1.00059 0.999987 0.996021
1.0024 0.999997 0.990664
1.00091 0.999978 0.997183
1.00072 0.999978 0.997247
1.00226 0.999917 0.990968
1.00069 0.999991 0.99725
1.0005 0.999974 0.996112
1.00232 0.999946 0.990863
1.00084 0.999982 0.997183
1.00073 0.999976 0.997257
1.00074 0.999979 0.997228

TENSORS stress float
0.0019694 -0.000127291 0.000222905
-0.000127291 0.000873621 -3.49657e-05
0.000222905 -3.49657e-05 0.000849684
0.0061329 -1.353e-05 0.000239082
-1.353e-05 0.0034433 2.5553e-05
0.000239082 2.5553e-05 0.00343919
0.00168537 -5.93005e-05 9.71084e-05
-5.93005e-05 0.000700887 -1.39659e-05
9.71084e-05 -1.39659e-05 0.000667005
0.00204719 -7.37377e-05 0.000219546
-7.37377e-05 0.000896006 -2.07628e-05
0.000219546 -2.07628e-05 0.000879296
0.00202703 -0.000113032 0.000218543
-0.000113032 0.000899209 -3.09769e-05
0.000218543 -3.09769e-05 0.000878109
0.00191002 -0.000126823 0.000228983
-0.000126823 0.000838312 -3.5757e-05
0.000228983 -3.5757e-05 0.000815264
0.00167149 -0.000111048 4.06664e-05
-0.000111048 0.000608439 -1.17974e-05
4.06664e-05 -1.17974e-05 0.000509799
0.00605797 -2.13562e-05 -7.01511e-06
-2.13562e-05 0.00338736 -6.30569e-07
-7.01511e-06 -6.30569e-07 0.00338829
0.00599354 0.000155187 0.000118865
0.000155187 0.00333091 9.8437e-06
0.000118865 9.8437e-06 0.00331084
0.00585276 -0.000103497 5.34691e-05
-0.000103497 0.0032534 2.69222e-06
5.34691e-05 2.69222e-06 0.00323043
0.00175847 0.000163059 0.000231325
0.000163059 0.000732646 2.5531e-05
0.000231325 2.5531e-05 0.000730076
0.000566395 0.000232559 2.60579e-05
0.000232559 -4.48448e-05 1.75308e-05
2.60579e-05 1.75308e-05 -0.000158716
0.00171927 -3.45137e-05 0.000222016
-3.45137e-05 0.000691157 3.39596e-06
0.000222016 3.39596e-06 0.000688595
0.00137231 -2.87843e-06 5.15964e-05
-2.87843e-06 0.000501629 1.40642e-06
5.15964e-05 1.40642e-06 0.00045995
0.00145365 -5.72226e-05 -4.54288e-05
-5.72226e-05 0.000564845 7.97692e-06
-4.54288e-05 7.97692e-06 0.00051963
0.00170953 -7.54419e-05 7.34804e-05
-7.54419e-05 0.000704813 -4.34052e-06
7.34804e-05 -4.34052e-06 0.000673777
0.00168146 -4.47601e-05 0.000104881
-4.47601e-05 0.000706118 -1.44119e-05
0.000104881 -1.44119e-05 0.000668604
0.00170117 -7.07116e-05 8.65383e-05
-7.07116e-05 0.000701647 -1.11564e-05
8.65383e-05 -1.11564e-05 0.000671297
0.00172892 -0.000148496 -3.64221e-05
-0.000148496 0.000639047 4.67343e-06
-3.64221e-05 4.67343e-06 0.000549183
0.00583447 -0.000127693 0.000280103
-0.000127693 0.00324294 -1.04437e-05
0.000280103 -1.04437e-05 0.00325491
0.00199452 -5.29536e-05 0.00021897
-5.29536e-05 0.000863107 -1.54221e-05
0.00021897 -1.54221e-05 0.000848385
0.00206076 -9.48221e-05 0.000218523
-9.48221e-05 0.000910278 -2.61391e-05
0.000218523 -2.61391e-05 0.000891858
0.0016642 -0.000123555 6.20638e-05
-0.000123555 0.000585642 -9.41421e-06
6.20638e-05 -9.41421e-06 0.000497896
0.00167605 -0.000121021 5.01642e-05
-0.000121021 0.000597642 -1.11495e-05
5.01642e-05 -1.11495e-05 0.00050643
0.0018724 -0.000102185 0.000226902
-0.000102185 0.000807156 -3.22103e-05
0.000226902 -3.22103e-05 0.000788078
0.00164395 -0.000102599 3.28852e-05
-0.000102599 0.000611438 -1.26309e-05
3.28852e-05 -1.26309e-05 0.000502881
0.00204142 -0.000269916 1.57957e-05
-0.000269916 0.000660511 -6.97787e-06
1.57957e-05 -6.97787e-06 0.000483679
0.00604299 -3.63765e-05 -0.000237172
-3.63765e-05 0.00336899 -1.66069e-05
-0.000237172 -1.66069e-05 0.00337448
0.00387066 0.000121131 -0.000127941
0.000121131 0.00203126 -1.30525e-05
-0.000127941 -1.30525e-05 0.00201106
0.00375973 2.27127e-05 -0.000123043
2.27127e-05 0.00197868 -9.58922e-06
-0.000123043 -9.58922e-06 0.00195731
0.00594683 -9.04258e-05 -3.42669e-06
-9.04258e-05 0.00333209 1.54675e-07
-3.42669e-06 1.54675e-07 0.00332684
0.000520153 0.000213289 -1.60145e-06
0.000213289 -6.98548e-05 -1.02366e-06
-1.60145e-06 -1.02366e-06 -0.000183458
0.00172965 6.1781e-05 0.000224238
6.1781e-05 0.000703815 1.92143e-05
0.000224238 1.92143e-05 0.000689944
0.00185728 0.000145063 0.000227918
0.000145063 0.000812067 2.95003e-05
0.000227918 2.95003e-05 0.000788887
0.00272467 0.000194314 0.000137981
0.000194314 0.00123283 1.88409e-05
0.000137981 1.88409e-05 0.00115849
0.00521185 -0.00035469 -1.40335e-05
-0.00035469 0.002959 7.97531e-06
-1.40335e-05 7.97531e-06 0.00288873
0.00281851 0.000258544 0.0001399
0.000258544 0.00132614 2.28854e-05
0.0001399 2.28854e-05 0.00124069
0.000512666 0.00019213 2.74049e-05
0.00019213 -7.38741e-05 2.25128e-05
2.74049e-05 2.25128e-05 -0.000184399
0.000834188 0.000206955 1.18943e-05
0.000206955 1.3675e-05 5.78831e-06
1.18943e-05 5.78831e-06 -0.000173864
0.00396913 -0.00010398 0.000146908
-0.00010398 0.00213962 9.68283e-06
0.000146908 9.68283e-06 0.00214201
0.00584489 7.68909e-05 3.70288e-06
7.68909e-05 0.00323767 -1.64946e-06
3.70288e-06 -1.64946e-06 0.0032558
0.00373237 7.83136e-05 -0.000106622
7.83136e-05 0.00194255 -4.39348e-06
-0.000106622 -4.39348e-06 0.00193025
0.00570988 5.94459e-05 0.000273779
5.94459e-05 0.00315806 3.70635e-06
0.000273779 3.70635e-06 0.0031765
0.0013523 8.24363e-05 5.4533e-05
8.24363e-05 0.000489868 3.38254e-06
5.4533e-05 3.38254e-06 0.000452946
0.000588031 1.05044e-05 1.58278e-05
1.05044e-05 -0.000102519 1.79621e-06
1.58278e-05 1.79621e-06 -0.000182341
0.00586342 0.000214217 0.00015139
0.000214217 0.0032759 1.4017e-05
0.00015139 1.4017e-05 0.00325183
0.00275419 6.85486e-05 0.000131619
6.85486e-05 0.00121874 8.09888e-06
0.000131619 8.09888e-06 0.00116368
0.00132062 -7.90574e-05 -6.56741e-05
-7.90574e-05 0.00048335 8.16116e-06
-6.56741e-05 8.16116e-06 0.000437093
0.00136357 -9.15309e-05 -5.79723e-05
-9.15309e-05 0.000513007 9.53199e-06
-5.79723e-05 9.53199e-06 0.000465779
0.00151448 -1.13652e-05 -3.35777e-05
-1.13652e-05 0.000604845 7.2972e-06
-3.35777e-05 7.2972e-06 0.000558118
0.00176284 -0.000153356 -0.000120464
-0.000153356 0.000652628 2.10041e-05
-0.000120464 2.10041e-05 0.000572006
0.00366007 -6.1502e-06 -0.000110351
-6.1502e-06 0.00190661 -1.96882e-06
-0.000110351 -1.96882e-06 0.00189292
0.00168248 -5.79081e-05 7.8969e-05
-5.79081e-05 0.000684187 -3.54047e-06
7.8969e-05 -3.54047e-06 0.000656531
0.00164179 -2.15072e-05 0.000108467
-2.15072e-05 0.000684535 -1.25165e-05
0.000108467 -1.25165e-05 0.000646229
0.00171182 -7.44044e-05 7.86625e-05
-7.44044e-05 0.000704938 -7.46435e-06
7.86625e-05 -7.46435e-06 0.000675117
0.00172773 -0.000102436 -2.9315e-05
-0.000102436 0.00061534 1.71521e-06
-2.9315e-05 1.71521e-06 0.000537197
0.00170674 -0.000146064 -4.20126e-05
-0.000146064 0.000638902 5.10583e-06
-4.20126e-05 5.10583e-06 0.000542816
0.00173233 -0.00014055 -3.1237e-05
-0.00014055 0.000630932 3.31726e-06
-3.1237e-05 3.31726e-06 0.000546261
0.00202804 -0.000269252 -8.54218e-06
-0.000269252 0.000648464 2.2934e-06
-8.54218e-06 2.2934e-06 0.000471764
0.00569262 2.16512e-05 0.000268744
2.16512e-05 0.00314615 -1.02314e-06
0.000268744 -1.02314e-06 0.00316562
0.00193801 -3.0829e-05 0.000216176
-3.0829e-05 0.000831808 -1.06004e-05
0.000216176 -1.06004e-05 0.000819716
0.0024302 2.62025e-06 4.53292e-05
2.62025e-06 0.00104254 -9.36442e-07
4.53292e-05 -9.36442e-07 0.000977831
0.00164323 -0.000100018 5.49876e-05
-0.000100018 0.00056642 -6.25776e-06
5.49876e-05 -6.25776e-06 0.000485363
0.00166857 -0.000124169 5.76336e-05
-0.000124169 0.000588687 -1.0631e-05
5.76336e-05 -1.0631e-05 0.00049991
0.00189606 -0.000172512 1.14981e-05
-0.000172512 0.000503738 -2.9958e-06
1.14981e-05 -2.9958e-06 0.000357376
0.00178108 -0.000230043 1.64325e-05
-0.000230043 0.000465858 -5.65502e-06
1.64325e-05 -5.65502e-06 0.000300772
0.001653 -6.08414e-05 0.000204443
-6.08414e-05 0.00067241 -2.47115e-05
0.000204443 -2.47115e-05 0.000657244
0.00154914 -6.45679e-05 2.39959e-05
-6.45679e-05 0.00057253 -1.23429e-05
2.39959e-05 -1.23429e-05 0.000463214
0.00203346 -0.000289547 1.54437e-05
-0.000289547 0.000696203 -7.87867e-06
1.54437e-05 -7.87867e-06 0.000508358
0.0014604 -0.000322483 6.25154e-06
-0.000322483 0.000130639 -1.50872e-06
6.25154e-06 -1.50872e-06 -9.05435e-05
0.00629534 0.00021437 -0.000293219
0.00021437 0.00351704 -2.93595e-05
-0.000293219 -2.93595e-05 0.00352103
0.00578055 -0.000114545 -0.000206415
-0.000114545 0.00323157 -1.32888e-05
-0.000206415 -1.32888e-05 0.00322735
0.00608886 4.05956e-05 -0.000253777
4.05956e-05 0.00338723 -2.03957e-05
-0.000253777 -2.03957e-05 0.00339745
0.000482114 0.000206636 -2.48061e-05
0.000206636 -8.83336e-05 -1.80996e-05
-2.48061e-05 -1.80996e-05 -0.000204033
0.00627881 0.000208142 -2.628e-06
0.000208142 0.00350407 -2.15416e-06
-2.628e-06 -2.15416e-06 0.00351032
0.00629855 0.000155257 -8.88388e-06
0.000155257 0.00351525 -2.22138e-06
-8.88388e-06 -2.22138e-06 0.00352137
0.000437572 0.000126935 9.13333e-08
0.000126935 -0.000169082 -2.77753e-07
9.13333e-08 -2.77753e-07 -0.000270025
0.00327403 -0.000119491 -9.15816e-05
-0.000119491 0.00171632 -3.25426e-06
-9.15816e-05 -3.25426e-06 0.00168399
0.000445263 0.000197133 -9.75961e-08
0.000197133 -0.00012187 -4.11581e-07
-9.75961e-08 -4.11581e-07 -0.000235943
0.00165868 0.000191867 4.79011e-05
0.000191867 0.000631895 2.39458e-06
4.79011e-05 2.39458e-06 0.00053981
0.000865941 0.000207137 3.38577e-07
0.000207137 3.15304e-05 -1.16425e-08
3.38577e-07 -1.16425e-08 -0.000155001
0.00493862 -0.00012313 0.000180296
-0.00012313 0.00273737 1.46288e-05
0.000180296 1.46288e-05 0.00273189
0.000546471 1.60727e-05 9.1147e-06
1.60727e-05 1.15272e-05 1.15937e-05
9.1147e-06 1.15937e-05 -4.60555e-05
0.000537999 9.69411e-05 1.60945e-05
9.69411e-05 -0.000128523 9.44131e-06
1.60945e-05 9.44131e-06 -0.000224068
0.000580785 0.00015438 2.09927e-05
0.00015438 -6.76281e-05 1.65866e-05
2.09927e-05 1.65866e-05 -0.000175106
0.0010443 0.000193839 1.45785e-05
0.000193839 -3.62354e-06 5.26939e-06
1.45785e-05 5.26939e-06 -0.000175293
0.00281857 0.000144565 0.000119198
0.000144565 0.00136291 1.58763e-05
0.000119198 1.58763e-05 0.00129513
0.000914712 0.000211833 1.35215e-05
0.000211833 9.10398e-06 6.47963e-06
1.35215e-05 6.47963e-06 -0.000173981
0.000833178 0.000209501 1.12566e-05
0.000209501 7.60724e-05 5.41627e-06
1.12566e-05 5.41627e-06 -0.000117774
0.00101546 0.000288154 3.05092e-06
0.000288154 4.51929e-05 3.60118e-07
3.05092e-06 3.60118e-07 -0.000191789
0.00313735 -0.000120778 8.78944e-05
-0.000120778 0.00162434 3.91324e-06
8.78944e-05 3.91324e-06 0.00162436
0.00366764 -0.00015098 1.59639e-05
-0.00015098 0.00196278 -2.10518e-07
1.59639e-05 -2.10518e-07 0.00195385
0.00614096 4.53764e-05 -0.00028324
4.53764e-05 0.00340788 -1.30853e-05
-0.00028324 -1.30853e-05 0.00342468
0.0059157 6.73418e-05 -0.000281369
6.73418e-05 0.00327781 -8.08453e-06
-0.000281369 -8.08453e-06 0.00329684
0.00579941 8.44692e-05 -1.61282e-08
8.44692e-05 0.00321819 -3.34855e-06
-1.61282e-08 -3.34855e-06 0.00323298
0.00364784 2.4563e-05 -0.00011908
2.4563e-05 0.00188977 -5.66937e-06
-0.00011908 -5.66937e-06 0.00188184
0.00163109 3.64822e-05 5.68944e-05
3.64822e-05 0.000537222 1.33337e-06
5.68944e-05 1.33337e-06 0.000472398
0.00386674 0.000132147 -0.000109135
0.000132147 0.00202916 -6.02357e-06
-0.000109135 -6.02357e-06 0.00201032
0.00167463 8.64666e-05 5.70702e-05
8.64666e-05 0.000561983 2.59565e-06
5.70702e-05 2.59565e-06 0.00048948
0.00576532 0.000130609 0.000277209
0.000130609 0.00320691 6.91585e-06
0.000277209 6.91585e-06 0.00321618
0.00050436 1.06847e-05 1.88072e-05
1.06847e-05 -0.000148837 7.43586e-07
1.88072e-05 7.43586e-07 -0.000226108
0.00276277 3.39029e-05 0.00013074
3.39029e-05 0.00122472 5.53422e-06
0.00013074 5.53422e-06 0.00117402
0.00105454 4.88118e-05 1.23766e-05
4.88118e-05 -2.52827e-05 1.02136e-06
1.23766e-05 1.02136e-06 -0.000154382
0.00268993 0.000111873 0.000135837
0.000111873 0.00118514 1.05965e-05
0.000135837 1.05965e-05 0.0011246
0.00111035 0.000113842 1.22542e-05
0.000113842 -3.63198e-06 2.16136e-06
1.22542e-05 2.16136e-06 -0.000147091
0.00175588 4.28671e-05 -0.000221492
4.28671e-05 0.000713804 2.34215e-06
-0.000221492 2.34215e-06 0.000712349
0.00133454 -8.67676e-06 -5.23686e-05
-8.67676e-06 0.000483888 2.21906e-06
-5.23686e-05 2.21906e-06 0.000442423
0.00148791 2.52812e-05 -2.53123e-05
2.52812e-05 0.000594197 7.20421e-06
-2.53123e-05 7.20421e-06 0.000545431
0.00132298 -9.14771e-05 -6.64634e-05
-9.14771e-05 0.000487617 9.7493e-06
-6.64634e-05 9.7493e-06 0.00044073
0.00184518 -8.19467e-05 -0.000116893
-8.19467e-05 0.000677991 1.05602e-05
-0.000116893 1.05602e-05 0.000609596
0.0018144 -0.000129887 -0.000117978
-0.000129887 0.000672051 1.77791e-05
-0.000117978 1.77791e-05 0.000597356
0.00171842 -0.00016416 -0.000122704
-0.00016416 0.000637536 2.23818e-05
-0.000122704 2.23818e-05 0.00055143
0.00200948 -0.000268013 -3.04955e-05
-0.000268013 0.000633613 1.06143e-05
-3.04955e-05 1.06143e-05 0.000457314
0.00579637 -9.55336e-05 2.20867e-06
-9.55336e-05 0.00321889 -1.73069e-06
2.20867e-06 -1.73069e-06 0.0032321
0.00160232 3.70152e-05 8.66534e-05
3.70152e-05 0.000631476 -3.84939e-06
8.66534e-05 -3.84939e-06 0.000609798
0.00113965 -6.44738e-06 -5.98695e-05
-6.44738e-06 0.000242893 1.48943e-06
-5.98695e-05 1.48943e-06 0.000176502
0.00170591 -6.45555e-05 -3.27127e-05
-6.45555e-05 0.000598684 2.33197e-06
-3.27127e-05 2.33197e-06 0.000525297
0.0038613 6.20183e-06 0.000211856
6.20183e-06 0.00205045 -9.54617e-06
0.000211856 -9.54617e-06 0.00203943
0.00221679 -0.000141762 -3.76634e-05
-0.000141762 0.000964597 2.26133e-06
-3.76634e-05 2.26133e-06 0.000868011
0.00173552 -0.00012365 -2.8756e-05
-0.00012365 0.000625328 2.27317e-06
-2.8756e-05 2.27317e-06 0.000544354
0.00188839 -0.000169687 -9.64402e-06
-0.000169687 0.000495205 1.69143e-06
-9.64402e-06 1.69143e-06 0.000350065
0.0020101 -0.000290708 -7.27033e-06
-0.000290708 0.000677752 2.16966e-06
-7.27033e-06 2.16966e-06 0.000489095
0.00190615 -0.000235647 -6.35634e-06
-0.000235647 0.000543042 1.64489e-06
-6.35634e-06 1.64489e-06 0.000377712
0.00148486 -0.000323425 4.89852e-07
-0.000323425 0.000146814 -1.65654e-07
4.89852e-07 -1.65654e-07 -7.3814e-05
0.000542213 1.16339e-05 1.94449e-05
1.16339e-05 -0.000128957 -9.57289e-07
1.94449e-05 -9.57289e-07 -0.000203076
0.00156198 5.90422e-06 4.58084e-05
5.90422e-06 0.000510132 -2.645e-06
4.58084e-05 -2.645e-06 0.000438201
0.00172271 -4.89182e-05 1.18061e-05
-4.89182e-05 0.000388132 -8.68965e-07
1.18061e-05 -8.68965e-07 0.000270194
0.00172614 -0.000132033 1.1848e-05
-0.000132033 0.000389102 -1.96623e-06
1.1848e-05 -1.96623e-06 0.00025307
0.00176144 -0.00019875 1.43514e-05
-0.00019875 0.000428829 -4.1072e-06
1.43514e-05 -4.1072e-06 0.000274555
0.00180556 -0.000232463 5.95228e-07
-0.000232463 0.000228086 -3.75734e-07
5.95228e-07 -3.75734e-07 6.30505e-05
0.00540835 0.000162059 0.000168476
0.000162059 0.00303387 -1.23498e-05
0.000168476 -1.23498e-05 0.00301634
0.00148657 -0.000297101 5.10099e-06
-0.000297101 0.00010326 -1.19549e-06
5.10099e-06 -1.19549e-06 -9.96198e-05
0.000359804 -0.000151812 2.08149e-05
-0.000151812 -0.000166688 -1.77835e-05
2.08149e-05 -1.77835e-05 -0.000262078
0.000838595 -0.000214376 1.19132e-05
-0.000214376 1.05412e-05 -7.98166e-06
1.19132e-05 -7.98166e-06 -0.000178959
0.00149081 -0.000355114 7.16532e-06
-0.000355114 0.000206711 -2.18672e-06
7.16532e-06 -2.18672e-06 -3.69806e-05
0.00174222 -0.000397827 2.76856e-06
-0.000397827 0.000184295 1.34822e-06
2.76856e-06 1.34822e-06 -3.91815e-05
0.000473124 -9.79063e-05 1.80248e-05
-9.79063e-05 -5.12762e-05 -1.44421e-05
1.80248e-05 -1.44421e-05 -0.000129923
0.000470101 -7.96922e-05 -7.19583e-07
-7.96922e-05 -1.42358e-05 -5.04705e-06
-7.19583e-07 -5.04705e-06 -0.000198912
0.00631513 0.00022849 -0.000304714
0.00022849 0.00353175 -2.89125e-05
-0.000304714 -2.89125e-05 0.00353506
0.00620042 0.00013862 -0.000274211
0.00013862 0.00345366 -2.55601e-05
-0.000274211 -2.55601e-05 0.00346315
0.000437501 0.000122889 -1.85815e-05
0.000122889 -0.000170897 -1.15266e-05
-1.85815e-05 -1.15266e-05 -0.000271917
0.00523407 -0.000182749 -0.000159798
-0.000182749 0.00292881 -1.14689e-05
-0.000159798 -1.14689e-05 0.00291042
0.000454317 0.00016927 -2.3247e-05
0.00016927 -0.000107055 -1.68869e-05
-2.3247e-05 -1.68869e-05 -0.000203759
0.000424898 0.000182471 -2.09948e-05
0.000182471 -0.000131724 -1.66792e-05
-2.09948e-05 -1.66792e-05 -0.000247077
0.000849044 0.000203783 -1.28929e-05
0.000203783 2.09925e-05 -6.13968e-06
-1.28929e-05 -6.13968e-06 -0.000164045
0.00459775 -0.00014662 1.21758e-05
-0.00014662 0.00253578 -8.99194e-07
1.21758e-05 -8.99194e-07 0.00252635
0.000548485 2.69762e-06 1.25991e-06
2.69762e-06 1.68066e-05 6.50992e-07
1.25991e-06 6.50992e-07 -3.8265e-05
0.00166595 0.000132844 5.83417e-05
0.000132844 0.000565852 4.59021e-06
5.83417e-05 4.59021e-06 0.000483077
0.00162763 0.000189111 5.74751e-05
0.000189111 0.000578634 4.73857e-06
5.74751e-05 4.73857e-06 0.000483385
0.00101367 0.000192509 9.22549e-08
0.000192509 -1.64759e-05 -2.58024e-07
9.22549e-08 -2.58024e-07 -0.000188606
0.000520495 0.000133521 -4.26738e-07
0.000133521 -4.80388e-05 -2.16822e-07
-4.26738e-07 -2.16822e-07 -0.00013207
0.000903082 0.000208953 6.93852e-07
0.000208953 7.7962e-06 9.62728e-08
6.93852e-07 9.62728e-08 -0.000174497
0.000820322 0.000204935 3.26495e-07
0.000204935 6.44084e-05 -7.80789e-07
3.26495e-07 -7.80789e-07 -0.000127707
0.00115494 0.000305082 1.75058e-07
0.000305082 0.000126691 -3.53497e-07
1.75058e-07 -3.53497e-07 -0.000112972
0.000576295 8.40621e-05 1.69381e-05
8.40621e-05 1.69233e-05 1.39088e-05
1.69381e-05 1.39088e-05 -5.76373e-05
0.000579122 -2.86132e-05 3.58946e-06
-2.86132e-05 3.44918e-05 9.56893e-06
3.58946e-06 9.56893e-06 -8.50173e-06
0.001166 0.000121668 2.80867e-06
0.000121668 0.000414073 5.98116e-06
2.80867e-06 5.98116e-06 0.000247963
0.00108907 0.000171484 1.37075e-05
0.000171484 -2.39719e-06 4.14259e-06
1.37075e-05 4.14259e-06 -0.000165391
0.000979134 0.000208834 1.45649e-05
0.000208834 -2.60489e-06 6.13748e-06
1.45649e-05 6.13748e-06 -0.000181507
0.00161053 0.000317932 4.66004e-06
0.000317932 0.000164677 6.34022e-07
4.66004e-06 6.34022e-07 -4.39039e-05
0.000777417 0.000210918 8.78034e-06
0.000210918 0.000110427 5.4391e-06
8.78034e-06 5.4391e-06 -8.40788e-05
0.00139326 0.00034351 3.9457e-06
0.00034351 0.000188793 3.30977e-07
3.9457e-06 3.30977e-07 -4.93644e-05
0.00112158 0.000290741 4.1323e-06
0.000290741 0.000162102 1.06008e-06
4.1323e-06 1.06008e-06 -8.49667e-05
0.0013783 0.000385411 -5.49276e-06
0.000385411 0.000186164 -2.87874e-06
-5.49276e-06 -2.87874e-06 -7.95803e-05
0.00273182 -0.000126235 4.8059e-05
-0.000126235 0.00136998 3.22602e-06
4.8059e-05 3.22602e-06 0.00136839
0.00300114 -0.000146204 1.14219e-05
-0.000146204 0.00154502 -8.09376e-07
1.14219e-05 -8.09376e-07 0.00153778
0.00336116 -0.00017303 -6.50591e-05
-0.00017303 0.00177869 -3.52686e-06
-6.50591e-05 -3.52686e-06 0.00176322
0.000470349 -6.57472e-05 1.28315e-05
-6.57472e-05 -3.9624e-05 -1.2786e-05
1.28315e-05 -1.2786e-05 -0.000105611
0.00475179 0.000176421 0.000134054
0.000176421 0.00264771 -1.2135e-05
0.000134054 -1.2135e-05 0.00262562
0.00628149 0.000199257 -0.000305988
0.000199257 0.00350725 -2.45239e-05
-0.000305988 -2.45239e-05 0.00351493
0.0059575 8.24441e-05 -0.000280855
8.24441e-05 0.00330099 -1.12277e-05
-0.000280855 -1.12277e-05 0.00331885
0.000519216 9.4781e-05 -1.97621e-05
9.4781e-05 -0.000143797 -5.22289e-06
-1.97621e-05 -5.22289e-06 -0.000230172
0.000502282 4.25143e-05 -1.9319e-05
4.25143e-05 -0.000149725 -2.66099e-06
-1.9319e-05 -2.66099e-06 -0.00023024
0.00574428 -8.65772e-06 -0.000270756
-8.65772e-06 0.00317509 -2.08752e-06
-0.000270756 -2.08752e-06 0.00319523
0.00569996 1.2157e-05 -3.1891e-07
1.2157e-05 0.00314949 -7.7858e-07
-3.1891e-07 -7.7858e-07 0.00316949
0.000487588 7.76435e-07 -1.05138e-07
7.76435e-07 -0.000161785 7.89496e-08
-1.05138e-07 7.89496e-08 -0.000237224
0.00161469 3.64635e-05 5.69133e-05
3.64635e-05 0.000523918 2.36428e-06
5.69133e-05 2.36428e-06 0.000457916
0.00102097 5.2343e-05 -6.17283e-08
5.2343e-05 -4.7442e-05 -1.80655e-07
-6.17283e-08 -1.80655e-07 -0.000177178
0.000479908 8.03707e-05 -3.96571e-07
8.03707e-05 -0.000165562 -3.79193e-07
-3.96571e-07 -3.79193e-07 -0.000257249
0.00105216 0.000114723 -2.14784e-07
0.000114723 -3.87755e-05 -1.40016e-07
-2.14784e-07 -1.40016e-07 -0.000183134
0.000481581 -3.0308e-05 1.93754e-05
-3.0308e-05 -0.000167122 -7.60965e-07
1.93754e-05 -7.60965e-07 -0.00024013
0.00101948 2.04953e-05 1.21335e-05
2.04953e-05 -3.92392e-05 4.67141e-07
1.21335e-05 4.67141e-07 -0.000165235
0.00105897 8.08124e-05 1.19762e-05
8.08124e-05 -2.86985e-05 1.78793e-06
1.19762e-05 1.78793e-06 -0.000163701
0.00161416 8.14218e-05 -6.37843e-07
8.14218e-05 5.91669e-05 -9.95268e-08
-6.37843e-07 -9.95268e-08 -5.93759e-05
0.00111657 0.000143753 1.28961e-05
0.000143753 1.81176e-06 2.97436e-06
1.28961e-05 2.97436e-06 -0.000151407
0.00171565 0.000188873 1.1129e-06
0.000188873 0.000112644 -4.54315e-07
1.1129e-06 -4.54315e-07 -3.24956e-05
0.0057197 -5.63308e-05 -0.000276013
-5.63308e-05 0.00316638 1.80659e-06
-0.000276013 1.80659e-06 0.00318353
0.00129225 -0.00014725 -5.40623e-05
-0.00014725 0.000468676 6.11033e-06
-5.40623e-05 6.11033e-06 0.000425117
-0.000267345 -4.1438e-06 -1.25413e-05
-4.1438e-06 -0.00061441 2.04639e-06
-1.25413e-05 2.04639e-06 -0.000703588
0.00180573 -5.72341e-05 -0.000115719
-5.72341e-05 0.000653594 7.44387e-06
-0.000115719 7.44387e-06 0.000588161
0.00579699 0.00032424 -4.73522e-06
0.00032424 0.003294 5.55924e-06
-4.73522e-06 5.55924e-06 0.00323072
0.00286016 -0.000227695 -0.000125314
-0.000227695 0.00135115 2.29047e-05
-0.000125314 2.29047e-05 0.00126038
0.00184486 -0.000106005 -0.00011728
-0.000106005 0.000682071 1.41064e-05
-0.00011728 1.41064e-05 0.000611356
0.00185425 -0.000165506 -2.92e-05
-0.000165506 0.000470283 5.51029e-06
-2.92e-05 5.51029e-06 0.000326631
0.00200887 -0.00023968 -2.92087e-05
-0.00023968 0.000606111 8.95679e-06
-2.92087e-05 8.95679e-06 0.000440948
0.00201189 -0.000293352 -2.81326e-05
-0.000293352 0.000675611 1.1365e-05
-2.81326e-05 1.1365e-05 0.000485907
0.00151275 -0.000324598 -4.83451e-06
-0.000324598 0.000165249 1.16161e-06
-4.83451e-06 1.16161e-06 -5.48633e-05
0.00048222 5.98164e-06 -4.60035e-08
5.98164e-06 -0.000163595 1.70779e-07
-4.60035e-08 1.70779e-07 -0.000238694
0.00169249 -7.69945e-05 -3.16089e-05
-7.69945e-05 0.000593097 3.6421e-07
-3.16089e-05 3.6421e-07 0.000523359
0.00133172 -4.46366e-05 -9.02683e-06
-4.46366e-05 0.00015014 5.18899e-07
-9.02683e-06 5.18899e-07 2.77514e-05
0.00184925 -0.000133363 -7.18254e-06
-0.000133363 0.000464286 1.12408e-06
-7.18254e-06 1.12408e-06 0.000328425
0.00566081 0.000150877 1.29043e-06
0.000150877 0.00318527 2.95901e-07
1.29043e-06 2.95901e-07 0.00316917
0.00163879 -0.000143937 9.43054e-07
-0.000143937 0.000630599 3.39022e-07
9.43054e-07 3.39022e-07 0.000524079
0.00133145 -0.000247513 1.41628e-06
-0.000247513 0.000315941 -1.00401e-06
1.41628e-06 -1.00401e-06 0.000124129
0.00180355 -0.000200514 -7.3804e-06
-0.000200514 0.000454314 1.78469e-06
-7.3804e-06 1.78469e-06 0.000299669
0.0017711 -0.000233582 -1.55713e-06
-0.000233582 0.000202988 2.31363e-07
-1.55713e-06 2.31363e-07 4.07712e-05
0.00147572 -0.000353212 8.31289e-07
-0.000353212 0.000201799 -1.97351e-07
8.31289e-07 -1.97351e-07 -4.09542e-05
0.00164423 -0.000303914 5.19895e-07
-0.000303914 0.000201116 -1.78981e-07
5.19895e-07 -1.78981e-07 -1.16938e-06
0.00177793 -0.0003988 6.99391e-07
-0.0003988 0.000210667 7.64151e-08
6.99391e-07 7.64151e-08 -1.23797e-05
0.000529174 -0.000103057 1.02429e-07
-0.000103057 -1.82034e-05 6.06078e-07
1.02429e-07 6.06078e-07 -0.000100685
0.000650451 -0.000111017 2.08468e-07
-0.000111017 8.84879e-05 1.41934e-09
2.08468e-07 1.41934e-09 -9.51021e-05
0.00100125 -2.1761e-05 1.2094e-05
-2.1761e-05 -4.32182e-05 -7.99978e-07
1.2094e-05 -7.99978e-07 -0.000169446
0.00177485 -8.65624e-05 1.08258e-05
-8.65624e-05 0.000420743 -1.32729e-06
1.08258e-05 -1.32729e-06 0.00029634
0.00171165 -8.04544e-05 -5.27807e-07
-8.04544e-05 0.000137811 2.14644e-07
-5.27807e-07 2.14644e-07 1.5246e-05
0.00165751 -0.00018572 1.14862e-06
-0.00018572 0.000111357 5.09895e-07
1.14862e-06 5.09895e-07 -3.20679e-05
0.00173453 -0.00027657 1.95175e-06
-0.00027657 0.000217417 -1.81902e-07
1.95175e-06 -1.81902e-07 3.68122e-05
0.00191021 -0.000275653 2.22623e-07
-0.000275653 0.000161962 4.23484e-07
2.22623e-07 4.23484e-07 1.88802e-05
0.000459413 -0.00013405 1.93104e-05
-0.00013405 -7.97473e-05 -1.6918e-05
1.93104e-05 -1.6918e-05 -0.000170504
0.00179876 -0.000365041 9.49213e-07
-0.000365041 0.000176194 1.13047e-06
9.49213e-07 1.13047e-06 -1.71508e-05
0.000555935 -0.000195623 7.92075e-06
-0.000195623 -9.73979e-05 -7.63769e-06
7.92075e-06 -7.63769e-06 -0.000288163
0.00125658 -0.000347728 9.62543e-06
-0.000347728 0.000151083 -3.61895e-06
9.62543e-06 -3.61895e-06 -0.000106658
0.00191147 -0.000451834 2.37675e-06
-0.000451834 0.000347934 6.63152e-07
2.37675e-06 6.63152e-07 8.50691e-05
0.00209679 -0.000434035 -2.55448e-06
-0.000434035 0.000349425 3.51401e-06
-2.55448e-06 3.51401e-06 0.00014974
0.000692777 -0.000179099 1.05401e-06
-0.000179099 0.000116116 -5.51425e-06
1.05401e-06 -5.51425e-06 -0.000100826
0.000571607 -7.03958e-05 -3.68814e-07
-7.03958e-05 3.75848e-05 -4.80722e-06
-3.68814e-07 -4.80722e-06 -0.000105276
0.00112928 -0.000238479 -2.21688e-06
-0.000238479 0.000405139 1.53707e-07
-2.21688e-06 1.53707e-07 0.00014287
0.000465968 0.00010211 -1.79614e-05
0.00010211 -0.000167307 -8.82439e-06
-1.79614e-05 -8.82439e-06 -0.000263773
0.00425099 -0.00018957 -0.000107003
-0.00018957 0.00233546 -7.12444e-06
-0.000107003 -7.12444e-06 0.00231506
0.00038897 -1.26828e-05 -3.72489e-06
-1.26828e-05 -7.35552e-05 -1.10791e-05
-3.72489e-06 -1.10791e-05 -0.000128853
0.000420907 0.000152743 -1.98149e-05
0.000152743 -0.000157832 -1.45203e-05
-1.98149e-05 -1.45203e-05 -0.000265984
0.000984249 0.000191482 -1.51831e-05
0.000191482 -2.87381e-05 -5.77358e-06
-1.51831e-05 -5.77358e-06 -0.000201349
0.000459255 0.000125928 -2.19034e-05
0.000125928 -8.82691e-05 -1.54391e-05
-2.19034e-05 -1.54391e-05 -0.000168481
0.000683483 0.000193572 -9.82874e-06
0.000193572 -2.17192e-05 -6.93097e-06
-9.82874e-06 -6.93097e-06 -0.000211739
0.000916225 0.000207919 -1.36266e-05
0.000207919 2.14083e-05 -6.69611e-06
-1.36266e-05 -6.69611e-06 -0.000160346
0.00120645 0.000315219 -4.44018e-06
0.000315219 0.000153165 -1.52692e-06
-4.44018e-06 -1.52692e-06 -8.82935e-05
0.000499203 7.29459e-05 1.70847e-06
7.29459e-05 -2.96319e-05 8.61836e-07
1.70847e-06 8.61836e-07 -0.000101167
0.00047892 -4.80108e-05 1.94721e-08
-4.80108e-05 -1.90091e-05 3.95591e-07
1.94721e-08 3.95591e-07 -6.5053e-05
0.000644863 7.28545e-05 1.47762e-06
7.28545e-05 8.11387e-05 -3.0276e-08
1.47762e-06 -3.0276e-08 -6.77394e-05
0.00105038 0.00017107 -8.91358e-08
0.00017107 -2.19396e-05 -2.69905e-07
-8.91358e-08 -2.69905e-07 -0.00018576
0.000966009 0.000206864 3.54347e-07
0.000206864 -3.81639e-06 -2.04446e-07
3.54347e-07 -2.04446e-07 -0.000182582
0.00159661 0.000317374 -5.75292e-09
0.000317374 0.000154885 -7.22395e-08
-5.75292e-09 -7.22395e-08 -5.4105e-05
0.000754722 0.000203638 -6.13117e-07
0.000203638 9.31929e-05 -1.45624e-07
-6.13117e-07 -1.45624e-07 -0.000100582
0.00141963 0.000343718 -7.06987e-08
0.000343718 0.000200945 -1.423e-07
-7.06987e-08 -1.423e-07 -3.76146e-05
0.0010752 0.000285528 1.46835e-08
0.000285528 0.000135723 -6.32709e-07
1.46835e-08 -6.32709e-07 -0.000109409
0.00135195 0.00039659 -7.72563e-07
0.00039659 0.000156222 7.05369e-07
-7.72563e-07 7.05369e-07 -0.000112242
0.000544857 -5.06188e-05 -7.00848e-07
-5.06188e-05 1.29311e-05 7.82761e-06
-7.00848e-07 7.82761e-06 -2.26929e-05
0.000992937 0.00015135 5.34004e-06
0.00015135 0.000284251 4.3028e-06
5.34004e-06 4.3028e-06 9.87631e-05
0.000774778 3.858e-05 1.42521e-06
3.858e-05 0.000147814 5.82955e-06
1.42521e-06 5.82955e-06 3.6959e-05
0.000977967 0.000142412 9.24611e-07
0.000142412 0.000327706 2.13413e-07
9.24611e-07 2.13413e-07 9.85956e-05
0.00167038 0.000282724 2.83928e-06
0.000282724 0.000145758 -5.4562e-07
2.83928e-06 -5.4562e-07 -4.08345e-05
0.00150873 0.000339751 4.99513e-06
0.000339751 0.000173604 9.5791e-07
4.99513e-06 9.5791e-07 -5.37823e-05
0.00189755 0.000392711 1.07525e-06
0.000392711 0.000230077 -5.64904e-07
1.07525e-06 -5.64904e-07 2.16036e-05
0.00113228 0.000263946 5.33622e-06
0.000263946 0.000231863 1.94827e-06
5.33622e-06 1.94827e-06 -1.64465e-06
0.00197351 0.000477373 -2.41163e-06
0.000477373 0.000424546 -1.26256e-06
-2.41163e-06 -1.26256e-06 0.000160987
0.00139986 0.000382825 -3.0124e-06
0.000382825 0.000266983 -2.75134e-06
-3.0124e-06 -2.75134e-06 -2.41893e-05
0.00158893 0.000445669 -8.92902e-07
0.000445669 0.000196925 -1.05382e-06
-8.92902e-07 -1.05382e-06 -7.48791e-05
0.000576316 2.61384e-05 2.30018e-06
2.61384e-05 2.76174e-05 2.90719e-06
2.30018e-06 2.90719e-06 -3.19656e-05
0.000497029 -3.64829e-05 6.58467e-07
-3.64829e-05 -3.8039e-05 5.69413e-06
6.58467e-07 5.69413e-06 -6.13141e-05
0.00255659 -0.00011604 3.21527e-05
-0.00011604 0.00125466 3.54969e-06
3.21527e-05 3.54969e-06 0.00125587
0.00267702 -0.000133526 5.23148e-06
-0.000133526 0.00133797 -5.83692e-07
5.23148e-06 -5.83692e-07 0.00133427
0.00289114 -0.000155966 -4.0512e-05
-0.000155966 0.00147962 -3.25158e-06
-4.0512e-05 -3.25158e-06 0.00146932
0.000434515 -4.49283e-05 9.17047e-06
-4.49283e-05 -5.72863e-05 -1.10082e-05
9.17047e-06 -1.10082e-05 -0.000112783
0.00411626 0.000149612 0.000115022
0.000149612 0.00224614 -9.07671e-06
0.000115022 -9.07671e-06 0.00223315
0.000512027 -6.81729e-05 -1.19903e-06
-6.81729e-05 -1.75299e-05 2.57964e-07
-1.19903e-06 2.57964e-07 -8.64049e-05
0.00497889 0.000150575 -7.34e-06
0.000150575 0.00277597 -1.05209e-06
-7.34e-06 -1.05209e-06 0.0027604
0.000512172 0.00010569 -1.93393e-05
0.00010569 -0.000143769 -7.03753e-06
-1.93393e-05 -7.03753e-06 -0.000237228
0.000520068 3.39045e-05 -1.84383e-05
3.39045e-05 -0.000144021 -3.42167e-06
-1.84383e-05 -3.42167e-06 -0.00022537
0.00101606 0.000115565 -1.21232e-05
0.000115565 -6.18828e-05 -2.40089e-06
-1.21232e-05 -2.40089e-06 -0.000206993
0.00098908 5.44706e-05 -1.21122e-05
5.44706e-05 -6.84687e-05 -1.32387e-06
-1.21122e-05 -1.32387e-06 -0.000198678
0.000542278 -7.56663e-06 -1.95034e-05
-7.56663e-06 -0.000131874 -7.67525e-07
-1.95034e-05 -7.67525e-07 -0.000205392
0.00578632 -9.69366e-05 -0.000282515
-9.69366e-05 0.00321233 4.60691e-06
-0.000282515 4.60691e-06 0.00322689
0.000527927 -1.4806e-06 7.92444e-08
-1.4806e-06 -0.000139561 -5.95032e-07
7.92444e-08 -5.95032e-07 -0.000212615
0.00100333 2.55424e-05 -8.84668e-08
2.55424e-05 -5.00096e-05 -1.08781e-08
-8.84668e-08 -1.08781e-08 -0.000176334
0.00104417 8.2842e-05 -1.5848e-07
8.2842e-05 -4.00472e-05 -9.94306e-09
-1.5848e-07 -9.94306e-09 -0.000175699
0.00161397 8.04288e-05 -5.78911e-08
8.04288e-05 6.03907e-05 1.96055e-07
-5.78911e-08 1.96055e-07 -5.83108e-05
0.00106568 0.000144676 -2.48428e-07
0.000144676 -2.75591e-05 -2.76322e-07
-2.48428e-07 -2.76322e-07 -0.000181917
0.00168564 0.000187769 -1.30033e-07
0.000187769 9.53357e-05 2.52638e-08
-1.30033e-07 2.52638e-08 -5.02289e-05
0.000992142 -2.4096e-06 1.20395e-05
-2.4096e-06 -4.90573e-05 -2.27531e-07
1.20395e-05 -2.27531e-07 -0.000174502
0.0015972 3.92349e-05 -1.23244e-08
3.92349e-05 5.64342e-05 -3.78367e-08
-1.23244e-08 -3.78367e-08 -5.71985e-05
0.00164279 0.000131658 -4.48255e-07
0.000131658 6.82165e-05 -4.295e-07
-4.48255e-07 -4.295e-07 -6.07947e-05
0.00186206 0.000107815 5.72052e-07
0.000107815 5.1141e-05 -8.38718e-08
5.72052e-07 -8.38718e-08 -2.55753e-05
0.00171819 0.000241006 2.11712e-06
0.000241006 0.000132085 -3.29494e-07
2.11712e-06 -3.29494e-07 -3.30226e-05
0.00196328 0.000232286 1.07731e-06
0.000232286 0.000143585 -1.41198e-06
1.07731e-06 -1.41198e-06 2.46902e-05
0.00051073 -1.24322e-06 -1.8631e-05
-1.24322e-06 -0.00014344 9.61338e-07
-1.8631e-05 9.61338e-07 -0.000220624
0.00178296 -3.37522e-05 -0.000114385
-3.37522e-05 0.000640805 4.95174e-06
-0.000114385 4.95174e-06 0.000579344
0.000907904 -3.92816e-05 -1.60995e-05
-3.92816e-05 -0.000107306 1.79334e-06
-1.60995e-05 1.79334e-06 -0.00023446
0.00195147 -0.000133585 -2.65174e-05
-0.000133585 0.00052623 4.02896e-06
-2.65174e-05 4.02896e-06 0.000390704
0.00586194 0.000144073 -0.000199639
0.000144073 0.00331014 1.89269e-05
-0.000199639 1.89269e-05 0.003292
0.00292156 -0.000209582 -0.000130848
-0.000209582 0.00140405 1.83505e-05
-0.000130848 1.83505e-05 0.00132356
0.00201553 -0.000298214 -2.34033e-05
-0.000298214 0.00073446 1.02241e-05
-2.34033e-05 1.02241e-05 0.000537281
0.00182446 -0.00020075 -2.85843e-05
-0.00020075 0.000466481 7.23259e-06
-2.85843e-05 7.23259e-06 0.000311826
0.00173474 -0.000234705 -4.1022e-06
-0.000234705 0.000176275 3.42287e-07
-4.1022e-06 3.42287e-07 1.68737e-05
0.00180189 -0.000310732 -5.0815e-06
-0.000310732 0.000299558 1.39234e-06
-5.0815e-06 1.39234e-06 9.78586e-05
0.00145778 -0.0003514 -6.07351e-06
-0.0003514 0.000194524 1.37945e-06
-6.07351e-06 1.37945e-06 -4.73375e-05
0.00181227 -0.000400057 -9.28488e-07
-0.000400057 0.000234996 -1.34352e-06
-9.28488e-07 -1.34352e-06 1.2292e-05
0.000491377 -0.000115338 -1.719e-05
-0.000115338 -3.8981e-05 1.53881e-05
-1.719e-05 1.53881e-05 -0.000125762
0.000891395 -0.000143302 -7.50385e-07
-0.000143302 0.000232598 4.91812e-06
-7.50385e-07 4.91812e-06 4.73233e-05
0.000941714 -1.63515e-05 -2.25475e-11
-1.63515e-05 -8.1344e-05 -5.4661e-08
-2.25475e-11 -5.4661e-08 -0.00020644
0.00177398 -8.7146e-05 -7.56005e-06
-8.7146e-05 0.000418606 8.82112e-07
-7.56005e-06 8.82112e-07 0.000294365
0.00175304 -7.68673e-05 -7.702e-07
-7.68673e-05 0.000161534 2.44336e-07
-7.702e-07 2.44336e-07 4.32734e-05
0.00170211 -0.000186434 -1.46284e-06
-0.000186434 0.000142414 4.9141e-07
-1.46284e-06 4.9141e-07 -4.54909e-06
0.000481763 -0.000149934 5.58133e-07
-0.000149934 -6.81559e-05 2.27772e-07
5.58133e-07 2.27772e-07 -0.00016078
0.000801528 -0.000210904 -3.03612e-07
-0.000210904 4.9559e-05 -1.59132e-07
-3.03612e-07 -1.59132e-07 -0.000143383
0.00118712 -0.000341714 1.62638e-06
-0.000341714 0.000108618 -6.44479e-07
1.62638e-06 -6.44479e-07 -0.000148383
0.00176199 -0.000276172 -3.08224e-06
-0.000276172 0.000234329 8.3401e-07
-3.08224e-06 8.3401e-07 5.19271e-05
0.00195695 -0.00027987 1.63392e-06
-0.00027987 0.000184415 -4.30432e-07
1.63392e-06 -4.30432e-07 4.6096e-05
0.00196194 -0.000460566 -1.12311e-06
-0.000460566 0.000377497 -2.77057e-07
-1.12311e-06 -2.77057e-07 0.000114184
0.00182555 -0.000366561 5.13375e-07
-0.000366561 0.000192743 -2.12573e-09
5.13375e-07 -2.12573e-09 -5.68223e-07
0.00197997 -0.000428753 8.20058e-07
-0.000428753 0.000271557 6.97228e-07
8.20058e-07 6.97228e-07 7.20904e-05
0.000694849 -0.000179019 1.37923e-07
-0.000179019 0.000111907 -2.77759e-07
1.37923e-07 -2.77759e-07 -9.92289e-05
0.000451975 -0.000148719 -8.88699e-07
-0.000148719 -2.68262e-05 -2.54121e-07
-8.88699e-07 -2.54121e-07 -0.000268336
0.000722596 -9.05575e-05 4.57025e-07
-9.05575e-05 0.00012889 1.25995e-07
4.57025e-07 1.25995e-07 -1.88549e-05
0.00167664 -3.4149e-05 -6.84696e-07
-3.4149e-05 0.000118973 8.77517e-08
-6.84696e-07 8.77517e-08 2.29926e-06
0.0018211 -0.000128813 -1.40588e-06
-0.000128813 0.000201147 1.00813e-06
-1.40588e-06 1.00813e-06 7.4855e-05
0.00182888 -9.93185e-05 1.44255e-06
-9.93185e-05 4.82433e-05 5.38346e-07
1.44255e-06 5.38346e-07 -3.79478e-05
0.00185488 -0.000226242 -1.8061e-06
-0.000226242 9.62805e-05 1.2153e-06
-1.8061e-06 1.2153e-06 -2.24283e-05
0.00173598 -0.000326263 -7.89941e-07
-0.000326263 9.05504e-05 2.04233e-06
-7.89941e-07 2.04233e-06 -7.28038e-05
0.00205228 -0.000303228 1.52635e-06
-0.000303228 0.00020018 -8.52131e-08
1.52635e-06 -8.52131e-08 8.75145e-05
0.00062856 -0.000208754 4.51132e-06
-0.000208754 1.24597e-05 -6.69943e-06
4.51132e-06 -6.69943e-06 -0.00018738
0.00185247 -0.000395256 -2.21736e-06
-0.000395256 0.000145033 1.73442e-06
-2.21736e-06 1.73442e-06 -2.39991e-05
0.00127073 -0.000322117 6.43668e-06
-0.000322117 0.000252882 -5.32422e-06
6.43668e-06 -5.32422e-06 1.30244e-06
0.00163512 -0.000489857 4.1212e-06
-0.000489857 0.000280729 5.61017e-07
4.1212e-06 5.61017e-07 -2.90531e-05
0.00205044 -0.000493074 1.46398e-06
-0.000493074 0.000373353 3.38079e-06
1.46398e-06 3.38079e-06 0.000118312
0.0021465 -0.000451972 -3.23315e-06
-0.000451972 0.000369882 2.68908e-06
-3.23315e-06 2.68908e-06 0.000185289
0.000642273 -6.26767e-05 -3.07804e-08
-6.26767e-05 9.50698e-05 -4.69914e-06
-3.07804e-08 -4.69914e-06 -2.77916e-05
0.000941507 -0.000239657 6.22673e-09
-0.000239657 0.000190838 -8.47653e-07
6.22673e-09 -8.47653e-07 -3.41853e-05
0.000330514 -0.000126958 -1.69322e-06
-0.000126958 -4.30722e-05 1.90966e-06
-1.69322e-06 1.90966e-06 -0.000289535
0.00162881 -0.000310723 -4.50473e-06
-0.000310723 0.000633649 1.62323e-06
-4.50473e-06 1.62323e-06 0.000372737
0.00100873 0.000170802 -1.43667e-05
0.000170802 -4.34484e-05 -4.64189e-06
-1.43667e-05 -4.64189e-06 -0.000208112
0.000395564 -5.78014e-05 3.32718e-06
-5.78014e-05 -6.38462e-05 -9.77011e-06
3.32718e-06 -9.77011e-06 -0.000112145
0.000438916 5.31485e-05 -1.3393e-05
5.31485e-05 -6.45151e-05 -1.32983e-05
-1.3393e-05 -1.32983e-05 -0.000130906
0.000179306 4.23483e-05 -9.20914e-07
4.23483e-05 -0.000200384 -5.59658e-06
-9.20914e-07 -5.59658e-06 -0.000342581
0.000947264 0.000204857 -1.47965e-05
0.000204857 -8.43486e-06 -6.65198e-06
-1.47965e-05 -6.65198e-06 -0.000187102
0.00158497 0.000316854 -4.59252e-06
0.000316854 0.000146577 -6.25767e-07
-4.59252e-06 -6.25767e-07 -6.28004e-05
0.000680767 0.000193214 -6.19307e-06
0.000193214 4.4056e-05 -4.18324e-06
-6.19307e-06 -4.18324e-06 -0.000147182
0.00127278 0.00030135 -6.15468e-06
0.00030135 0.000260398 -2.71725e-06
-6.15468e-06 -2.71725e-06 1.41053e-05
0.00144007 0.000343216 -3.94352e-06
0.000343216 0.000210052 -8.37454e-07
-3.94352e-06 -8.37454e-07 -2.87947e-05
0.00131496 0.000404512 1.61854e-06
0.000404512 0.000123869 2.73747e-06
1.61854e-06 2.73747e-06 -0.000146369
0.000462681 -5.65425e-05 -2.35702e-06
-5.65425e-05 -3.40444e-05 7.14742e-07
-2.35702e-06 7.14742e-07 -7.10026e-05
0.000705782 0.00016229 1.13833e-07
0.00016229 0.000122045 -7.59127e-07
1.13833e-07 -7.59127e-07 -6.84838e-05
0.000605867 1.84632e-05 5.93786e-07
1.84632e-05 4.83454e-05 4.51228e-07
5.93786e-07 4.51228e-07 -5.79856e-05
0.000777526 0.000127472 1.50404e-06
0.000127472 0.000202806 -5.10516e-07
1.50404e-06 -5.10516e-07 -2.20826e-05
0.00165695 0.000281693 -5.78166e-07
0.000281693 0.00013788 -6.91898e-07
-5.78166e-07 -6.91898e-07 -4.8984e-05
0.0014958 0.000339556 -2.28434e-09
0.000339556 0.000165499 -1.19744e-07
-2.28434e-09 -1.19744e-07 -6.24667e-05
0.00187074 0.000390164 2.90905e-07
0.000390164 0.000215725 2.27933e-07
2.90905e-07 2.27933e-07 7.53895e-06
0.00102584 0.000257094 1.85708e-06
0.000257094 0.000170545 -5.79793e-08
1.85708e-06 -5.79793e-08 -6.09145e-05
0.00187683 0.000461183 -7.92131e-07
0.000461183 0.000371086 3.46199e-08
-7.92131e-07 3.46199e-08 0.000109676
0.00132189 0.000377608 1.36708e-08
0.000377608 0.000217714 -1.46782e-06
1.36708e-08 -1.46782e-06 -7.38507e-05
0.00167602 0.000446879 -3.6711e-06
0.000446879 0.00025187 1.36518e-06
-3.6711e-06 1.36518e-06 -1.56327e-05
0.000502344 -4.55033e-05 1.7419e-07
-4.55033e-05 -2.56304e-05 6.43825e-06
1.7419e-07 6.43825e-06 -5.33954e-05
0.000673828 1.29334e-05 4.27598e-07
1.29334e-05 9.00497e-05 5.06748e-06
4.27598e-07 5.06748e-06 5.1721e-06
0.000899417 0.000225471 1.17375e-06
0.000225471 0.000179373 6.57006e-07
1.17375e-06 6.57006e-07 -3.9418e-05
0.0013094 0.000112988 -1.61638e-06
0.000112988 0.000542923 2.71314e-06
-1.61638e-06 2.71314e-06 0.000346384
0.00131256 0.000251264 -2.43295e-06
0.000251264 0.000485271 -1.20653e-06
-2.43295e-06 -1.20653e-06 0.000247416
0.00195196 0.000348539 4.83909e-07
0.000348539 0.000205602 -2.29955e-06
4.83909e-07 -2.29955e-06 2.81766e-05
0.00185 0.000436522 3.77871e-07
0.000436522 0.000269414 -5.86625e-07
3.77871e-07 -5.86625e-07 3.00255e-05
0.00193711 0.000428718 -1.04527e-06
0.000428718 0.000225765 -7.20565e-07
-1.04527e-06 -7.20565e-07 2.54567e-05
0.000811596 0.000307164 1.79951e-06
0.000307164 -1.25633e-05 1.41978e-06
1.79951e-06 1.41978e-06 -0.000286247
0.00210899 0.000530269 -6.18816e-07
0.000530269 0.000449088 -7.62806e-07
-6.18816e-07 -7.62806e-07 0.000181025
0.00116959 0.000409217 4.58859e-06
0.000409217 6.68898e-05 -2.72691e-06
4.58859e-06 -2.72691e-06 -0.000228617
0.000593514 2.119e-05 2.41759e-06
2.119e-05 3.68615e-05 3.18113e-06
2.41759e-06 3.18113e-06 -2.61014e-05
0.000647217 6.54835e-05 -2.14221e-07
6.54835e-05 0.00010298 1.27396e-06
-2.14221e-07 1.27396e-06 -1.48327e-07
0.000598285 3.6271e-05 2.29887e-06
3.6271e-05 4.62364e-05 2.92328e-06
2.29887e-06 2.92328e-06 -1.2316e-05
0.000557496 -2.95877e-06 -5.75023e-07
-2.95877e-06 1.72852e-05 5.902e-09
-5.75023e-07 5.902e-09 -4.27235e-05
0.00125101 -4.71697e-05 8.21098e-07
-4.71697e-05 0.000423101 3.2094e-06
8.21098e-07 3.2094e-06 0.000406031
0.000888078 -4.63756e-05 4.77863e-07
-4.63756e-05 0.000203282 -1.51531e-07
4.77863e-07 -1.51531e-07 0.000181858
0.000853806 -5.31544e-05 2.57623e-05
-5.31544e-05 0.000190779 8.26213e-06
2.57623e-05 8.26213e-06 0.000190779
0.00251571 -0.000113529 5.40114e-06
-0.000113529 0.00122847 -5.09334e-07
5.40114e-06 -5.09334e-07 0.00123023
0.00260261 -0.000129852 -3.64568e-05
-0.000129852 0.00129153 -3.31206e-06
-3.64568e-05 -3.31206e-06 0.00128877
0.000369652 -1.79977e-05 4.15428e-06
-1.79977e-05 -8.96723e-05 -8.46796e-06
4.15428e-06 -8.46796e-06 -0.00013323
0.00365636 0.000144836 8.2899e-05
0.000144836 0.00195165 -5.31997e-06
8.2899e-05 -5.31997e-06 0.00194191
0.000477397 -4.52441e-05 -1.06641e-06
-4.52441e-05 -3.30278e-05 2.97968e-07
-1.06641e-06 2.97968e-07 -8.92514e-05
0.00435557 0.000135107 -9.56825e-06
0.000135107 0.00238857 -1.06534e-06
-9.56825e-06 -1.06534e-06 0.00237867
0.000522888 -7.00171e-05 -1.33234e-05
-7.00171e-05 -1.51882e-05 1.30433e-05
-1.33234e-05 1.30433e-05 -8.6975e-05
0.00524929 0.000136633 -0.000178792
0.000136633 0.00293718 1.59609e-05
-0.000178792 1.59609e-05 0.00292446
0.00101777 0.000145502 -1.30579e-05
0.000145502 -5.50699e-05 -3.46992e-06
-1.30579e-05 -3.46992e-06 -0.00021046
0.00100961 8.64007e-05 -1.20122e-05
8.64007e-05 -6.21869e-05 -1.77176e-06
-1.20122e-05 -1.77176e-06 -0.000198774
0.00168302 0.000183807 -2.15866e-06
0.000183807 9.58268e-05 4.10607e-07
-2.15866e-06 4.10607e-07 -4.95232e-05
0.00161217 7.96565e-05 -1.19744e-07
7.96565e-05 6.09663e-05 4.55409e-07
-1.19744e-07 4.55409e-07 -5.79219e-05
0.000992916 2.98771e-05 -1.20914e-05
2.98771e-05 -5.80222e-05 -5.20365e-07
-1.20914e-05 -5.20365e-07 -0.000184685
0.000489832 2.89977e-05 -1.93513e-05
2.89977e-05 -0.000163823 -4.52467e-07
-1.93513e-05 -4.52467e-07 -0.000235945
0.000991595 7.47219e-07 -1.90272e-08
7.47219e-07 -5.06287e-05 -9.57496e-08
-1.90272e-08 -9.57496e-08 -0.000176127
0.00158953 3.99603e-05 -7.31371e-08
3.99603e-05 5.39269e-05 7.34797e-08
-7.31371e-08 7.34797e-08 -5.98315e-05
0.00166214 0.000129588 -5.72706e-08
0.000129588 8.12741e-05 9.26863e-08
-5.72706e-08 9.26863e-08 -4.77068e-05
0.00190562 0.000106753 -1.50449e-07
0.000106753 7.5857e-05 3.72328e-07
-1.50449e-07 3.72328e-07 2.65646e-06
0.001691 0.000238597 -3.49538e-07
0.000238597 0.000119245 -7.18242e-08
-3.49538e-07 -7.18242e-08 -4.58714e-05
0.00193646 0.000229479 -5.14752e-07
0.000229479 0.000129263 3.66469e-08
-5.14752e-07 3.66469e-08 1.06218e-05
0.00156058 2.7461e-07 2.47546e-07
2.7461e-07 4.0602e-05 -2.28661e-09
2.47546e-07 -2.28661e-09 -7.19768e-05
0.0019307 5.54668e-05 -4.21235e-08
5.54668e-05 9.70388e-05 4.6748e-08
-4.21235e-08 4.6748e-08 3.5888e-05
0.00193087 0.000169335 1.29974e-06
0.000169335 9.84594e-05 -1.09823e-06
1.29974e-06 -1.09823e-06 3.70383e-06
0.00188226 0.000108339 6.39371e-06
0.000108339 9.81004e-06 7.01432e-07
6.39371e-06 7.01432e-07 -3.5197e-05
0.00197889 0.000295048 5.40791e-07
0.000295048 0.000186784 -1.57524e-06
5.40791e-07 -1.57524e-06 3.9783e-05
0.00184563 0.000245039 1.79504e-06
0.000245039 8.61058e-06 2.40576e-07
1.79504e-06 2.40576e-07 -8.32102e-05
0.00088317 -1.24006e-05 -1.22464e-05
-1.24006e-05 -0.000118892 6.29855e-07
-1.22464e-05 6.29855e-07 -0.000242941
0.00179555 -8.86569e-05 -2.58046e-05
-8.86569e-05 0.000430206 2.97132e-06
-2.58046e-05 2.97132e-06 0.000306063
0.00182058 -7.15622e-05 -2.91723e-06
-7.15622e-05 0.000200652 -2.12826e-07
-2.91723e-06 -2.12826e-07 8.69887e-05
0.00174811 -0.000186878 -3.15446e-06
-0.000186878 0.000174536 7.38347e-07
-3.15446e-06 7.38347e-07 2.40747e-05
0.000582657 -0.000165807 -2.25208e-05
-0.000165807 -5.75046e-06 1.72408e-05
-2.25208e-05 1.72408e-05 -0.0001028
0.000867065 -0.000215519 -1.02864e-05
-0.000215519 9.39259e-05 7.71384e-06
-1.02864e-05 7.71384e-06 -0.000100359
0.00116181 -0.000340119 -4.60543e-06
-0.000340119 9.21761e-05 2.40166e-06
-4.60543e-06 2.40166e-06 -0.000165035
0.00178983 -0.00027562 -6.51017e-06
-0.00027562 0.000251405 1.72681e-06
-6.51017e-06 1.72681e-06 6.72459e-05
0.00200305 -0.000283914 8.87047e-07
-0.000283914 0.000206254 -1.38017e-06
8.87047e-07 -1.38017e-06 7.27381e-05
0.00185392 -0.000368191 -4.08329e-07
-0.000368191 0.000210161 -1.01724e-06
-4.08329e-07 -1.01724e-06 1.68758e-05
0.00198749 -0.000466676 -3.1934e-06
-0.000466676 0.000393385 -1.9851e-06
-3.1934e-06 -1.9851e-06 0.00013017
0.00186321 -0.000421901 3.78494e-06
-0.000421901 0.000194064 -2.56577e-06
3.78494e-06 -2.56577e-06 -4.64772e-06
0.000800265 -0.000172863 -3.19108e-06
-0.000172863 0.000162447 5.94448e-06
-3.19108e-06 5.94448e-06 -3.94311e-05
0.000179117 -0.000117943 1.05218e-06
-0.000117943 -0.0001915 -1.00751e-06
1.05218e-06 -1.00751e-06 -0.000431784
0.000748014 -0.00011113 -7.94835e-07
-0.00011113 0.000143781 4.44137e-06
-7.94835e-07 4.44137e-06 -7.77416e-06
0.00165271 -3.10985e-05 -1.05444e-06
-3.10985e-05 0.000102757 1.63567e-07
-1.05444e-06 1.63567e-07 -1.24687e-05
0.00180079 -0.00013648 -2.89948e-06
-0.00013648 0.000186956 4.613e-07
-2.89948e-06 4.613e-07 5.93124e-05
0.00187541 -9.76741e-05 2.5891e-06
-9.76741e-05 7.44663e-05 -3.35351e-07
2.5891e-06 -3.35351e-07 -5.97532e-06
0.00187572 -0.000222309 -2.09666e-06
-0.000222309 0.000110153 5.94241e-07
-2.09666e-06 5.94241e-07 -1.03699e-05
0.000769949 -0.000218531 6.52732e-07
-0.000218531 0.000100761 -3.77652e-07
6.52732e-07 -3.77652e-07 -0.000101626
0.00115314 -0.000315768 -1.38504e-06
-0.000315768 0.00017127 -1.64694e-07
-1.38504e-06 -1.64694e-07 -7.99847e-05
0.00157584 -0.000477992 1.9918e-06
-0.000477992 0.000259302 8.33509e-08
1.9918e-06 8.33509e-08 -4.89155e-05
0.00175257 -0.000325677 -1.41907e-06
-0.000325677 0.000104308 8.81819e-07
-1.41907e-06 8.81819e-07 -6.38731e-05
0.00197497 -0.000300794 1.7349e-06
-0.000300794 0.000147005 -5.46252e-07
1.7349e-06 -5.46252e-07 3.7891e-05
0.00193631 -0.000491805 -5.72866e-07
-0.000491805 0.000296607 4.14554e-07
-5.72866e-07 4.14554e-07 3.93028e-05
0.0018786 -0.000395371 3.53716e-08
-0.000395371 0.000163169 5.05079e-07
3.53716e-08 5.05079e-07 -5.8175e-06
0.00211369 -0.000442324 1.93402e-06
-0.000442324 0.000341993 -4.99162e-07
1.93402e-06 -4.99162e-07 0.000162563
0.00109011 -0.000258961 -7.32702e-08
-0.000258961 0.000285204 5.06662e-07
-7.32702e-08 5.06662e-07 5.1275e-05
0.00116746 -0.000275775 -6.66281e-07
-0.000275775 0.000358994 1.76375e-07
-6.66281e-07 1.76375e-07 9.69798e-05
0.00063025 -7.51932e-05 -1.42102e-07
-7.51932e-05 8.46435e-05 6.23911e-08
-1.42102e-07 6.23911e-08 -4.00578e-05
0.000183807 -7.11593e-05 1.31265e-07
-7.11593e-05 -0.000151543 -1.21984e-06
1.31265e-07 -1.21984e-06 -0.000376403
0.0018758 -5.05442e-05 4.85349e-07
-5.05442e-05 7.37741e-05 4.72499e-07
4.85349e-07 4.72499e-07 3.60528e-06
0.00177955 -0.000161174 9.59578e-07
-0.000161174 2.30291e-05 4.06406e-07
9.59578e-07 4.06406e-07 -7.81921e-05
0.00196814 -0.000103838 5.91558e-06
-0.000103838 9.10914e-05 -5.99529e-07
5.91558e-06 -5.99529e-07 4.40485e-05
0.00191308 -0.00024674 -1.28931e-06
-0.00024674 6.13044e-05 -1.37728e-07
-1.28931e-06 -1.37728e-07 -1.63696e-05
0.00177475 -0.00034891 -2.9532e-06
-0.00034891 6.07407e-05 1.3489e-06
-2.9532e-06 1.3489e-06 -7.7336e-05
0.00201014 -0.000313911 4.00529e-06
-0.000313911 0.000144892 -1.77917e-06
4.00529e-06 -1.77917e-06 5.29559e-05
0.00118107 -0.000292548 3.09189e-06
-0.000292548 0.00025943 -4.19723e-06
3.09189e-06 -4.19723e-06 2.34697e-05
0.00180244 -0.000407937 -4.39284e-06
-0.000407937 0.00010516 9.07989e-07
-4.39284e-06 9.07989e-07 -4.32971e-05
0.0015735 -0.000462215 2.87422e-06
-0.000462215 0.000381791 -2.12786e-06
2.87422e-06 -2.12786e-06 6.23566e-05
0.00180393 -0.000553575 -4.59061e-07
-0.000553575 0.000329579 1.68727e-06
-4.59061e-07 1.68727e-06 4.10301e-06
0.00189037 -0.000500046 1.5111e-06
-0.000500046 0.000221673 4.10499e-06
1.5111e-06 4.10499e-06 -2.82379e-05
0.00221009 -0.000453021 -2.12587e-06
-0.000453021 0.000382842 -9.19423e-07
-2.12587e-06 -9.19423e-07 0.000202065
0.000506683 -6.09831e-05 -2.37663e-07
-6.09831e-05 1.28421e-05 -4.53628e-06
-2.37663e-07 -4.53628e-06 -9.14515e-05
0.000378824 -8.96012e-05 -3.38983e-06
-8.96012e-05 -1.75945e-05 -1.89317e-07
-3.38983e-06 -1.89317e-07 -0.000217712
0.00133525 -0.000327244 -1.70062e-06
-0.000327244 0.000371596 2.46561e-07
-1.70062e-06 2.46561e-07 0.00011971
0.000958548 -0.000199784 -2.94998e-06
-0.000199784 0.000320744 3.95748e-06
-2.94998e-06 3.95748e-06 6.53975e-05
0.00206736 -0.000394807 -8.94315e-06
-0.000394807 0.000882274 3.01776e-06
-8.94315e-06 3.01776e-06 0.000597473
0.000388708 -5.91677e-05 -2.17958e-07
-5.91677e-05 -7.7455e-05 -7.00934e-06
-2.17958e-07 -7.00934e-06 -0.000114615
0.00164061 0.000280311 -3.88466e-06
0.000280311 0.000128681 -7.22307e-07
-3.88466e-06 -7.22307e-07 -5.84034e-05
0.000486816 -4.22082e-06 7.64151e-07
-4.22082e-06 -1.81508e-05 -5.87179e-06
7.64151e-07 -5.87179e-06 -0.000122582
0.000512361 0.000162489 -3.83055e-06
0.000162489 -3.93374e-06 -2.94888e-06
-3.83055e-06 -2.94888e-06 -0.000188675
0.000487667 0.000113136 2.16082e-06
0.000113136 2.39258e-05 5.70863e-07
2.16082e-06 5.70863e-07 -0.000197265
0.0014854 0.000339724 -4.87912e-06
0.000339724 0.000158566 -1.02181e-06
-4.87912e-06 -1.02181e-06 -7.00657e-05
0.00184239 0.000387604 1.28694e-07
0.000387604 0.000200192 1.16587e-06
1.28694e-07 1.16587e-06 -7.73106e-06
0.00104106 0.000266461 -3.92596e-06
0.000266461 0.000182051 -3.29447e-06
-3.92596e-06 -3.29447e-06 -5.25828e-05
0.00146644 0.000400046 4.24272e-07
0.000400046 0.000296823 -7.61409e-07
4.24272e-07 -7.61409e-07 -1.45421e-06
0.00177653 0.000445119 2.54297e-07
0.000445119 0.00031442 1.58667e-06
2.54297e-07 1.58667e-06 5.50953e-05
0.00177942 0.000453078 7.51417e-07
0.000453078 0.000316287 7.03701e-06
7.51417e-07 7.03701e-06 5.14173e-05
0.000496186 -4.05489e-05 1.30919e-07
-4.05489e-05 -3.102e-05 5.49425e-08
1.30919e-07 5.49425e-08 -5.76107e-05
0.00060625 2.41514e-06 -6.0732e-07
2.41514e-06 5.2923e-05 4.93232e-07
-6.0732e-07 4.93232e-07 -3.18737e-05
0.00101484 0.000241224 5.00244e-07
0.000241224 0.000254002 8.31394e-07
5.00244e-07 8.31394e-07 3.16936e-05
0.000684862 5.94635e-05 -8.35901e-07
5.94635e-05 0.00015346 -2.71599e-07
-8.35901e-07 -2.71599e-07 -2.97549e-05
0.000654163 0.000175225 7.71228e-07
0.000175225 6.32631e-05 -9.6379e-08
7.71228e-07 -9.6379e-08 -0.000152454
0.00192463 0.00034789 -9.37698e-07
0.00034789 0.000188148 -1.34055e-06
-9.37698e-07 -1.34055e-06 1.04945e-05
0.00181138 0.000433785 5.61082e-07
0.000433785 0.000245532 1.59747e-07
5.61082e-07 1.59747e-07 6.38427e-06
0.00187367 0.000425764 1.63485e-06
0.000425764 0.000189822 2.68005e-07
1.63485e-06 2.68005e-07 -1.07357e-05
0.00131439 0.000355892 1.3663e-06
0.000355892 0.000302322 7.1847e-07
1.3663e-06 7.1847e-07 1.9061e-05
0.00196112 0.000514875 1.68462e-06
0.000514875 0.000344126 9.03415e-08
1.68462e-06 9.03415e-08 7.72142e-05
0.00162158 0.000451929 -2.26412e-06
0.000451929 0.000340931 -2.17073e-07
-2.26412e-06 -2.17073e-07 3.8788e-05
0.000677225 1.55e-05 1.14285e-06
1.55e-05 8.90377e-05 3.7641e-06
1.14285e-06 3.7641e-06 1.85939e-05
0.00112814 0.000118834 4.13072e-07
0.000118834 0.00041123 2.7866e-06
4.13072e-07 2.7866e-06 0.000267832
0.000837794 0.000267694 -2.45925e-06
0.000267694 7.13707e-05 -1.43489e-06
-2.45925e-06 -1.43489e-06 -0.000160146
0.00153031 0.000144804 -1.7168e-06
0.000144804 0.000680036 8.25742e-07
-1.7168e-06 8.25742e-07 0.000457061
0.00133813 0.000217733 -9.2583e-06
0.000217733 0.000421115 -5.75044e-06
-9.2583e-06 -5.75044e-06 0.000223834
0.00192144 0.000361618 -3.6996e-06
0.000361618 0.000161823 -2.79236e-06
-3.6996e-06 -2.79236e-06 1.7354e-06
0.00193117 0.000485588 -3.26992e-07
0.000485588 0.000272801 -5.52271e-08
-3.26992e-07 -5.52271e-08 3.39198e-05
0.00170824 0.000458458 4.37061e-06
0.000458458 5.50908e-05 -3.09092e-07
4.37061e-06 -3.09092e-07 -0.000145967
0.000561924 0.000328072 9.1844e-07
0.000328072 -0.000128906 -1.58919e-06
9.1844e-07 -1.58919e-06 -0.000430212
0.00143081 0.000473724 8.0668e-06
0.000473724 0.000130869 -7.96263e-07
8.0668e-06 -7.96263e-07 -0.000152354
0.00058547 1.41958e-05 -2.13936e-07
1.41958e-05 3.02689e-05 9.03499e-08
-2.13936e-07 9.03499e-08 -3.16825e-05
0.0004829 4.27058e-05 7.33454e-07
4.27058e-05 -9.81478e-06 1.9134e-06
7.33454e-07 1.9134e-06 -0.000106897
0.000478734 3.71538e-05 -6.27073e-07
3.71538e-05 -1.2139e-05 -2.03727e-07
-6.27073e-07 -2.03727e-07 -0.000105016
0.000936248 0.000122656 -6.8582e-07
0.000122656 0.000282207 -1.36107e-06
-6.8582e-07 -1.36107e-06 0.000163981
0.000665621 9.41976e-05 1.86678e-06
9.41976e-05 0.000116068 1.82321e-06
1.86678e-06 1.82321e-06 1.50004e-05
0.000559883 4.76299e-05 2.58594e-06
4.76299e-05 2.91533e-05 2.97324e-06
2.58594e-06 2.97324e-06 -2.99981e-05
0.000557221 3.8066e-06 -6.27868e-07
3.8066e-06 2.14737e-05 -1.32336e-08
-6.27868e-07 -1.32336e-08 -3.69646e-05
0.00123869 -3.27224e-05 7.99431e-07
-3.27224e-05 0.000413231 2.90936e-06
7.99431e-07 2.90936e-06 0.000398599
0.000569945 5.41919e-06 -1.45377e-06
5.41919e-06 2.14362e-05 -3.02945e-06
-1.45377e-06 -3.02945e-06 -3.6291e-05
0.00129904 -4.32012e-05 -6.49163e-06
-4.32012e-05 0.000452261 -1.47074e-06
-6.49163e-06 -1.47074e-06 0.000436041
0.000830838 -4.02477e-05 2.70166e-05
-4.02477e-05 0.000168726 8.18082e-06
2.70166e-05 8.18082e-06 0.000172507
0.00131951 -5.25734e-05 -1.07656e-05
-5.25734e-05 0.000469933 -4.53284e-06
-1.07656e-05 -4.53284e-06 0.000451098
0.00162835 -7.37805e-05 2.49584e-05
-7.37805e-05 0.000670655 1.69176e-06
2.49584e-05 1.69176e-06 0.000673605
0.00246238 -0.000109799 -3.22918e-05
-0.000109799 0.00119425 -3.7911e-06
-3.22918e-05 -3.7911e-06 0.00119685
0.000350432 7.72341e-05 -4.85411e-06
7.72341e-05 -8.22755e-05 -6.91464e-06
-4.85411e-06 -6.91464e-06 -0.000126412
0.000472541 -6.0627e-06 4.52436e-07
-6.0627e-06 -2.31194e-05 5.43945e-07
4.52436e-07 5.43945e-07 -7.09928e-05
0.00307303 0.000155124 2.05656e-05
0.000155124 0.00158998 -4.9293e-06
2.05656e-05 -4.9293e-06 0.00157787
0.00379255 0.000118175 -1.05276e-05
0.000118175 0.00203284 -7.86435e-07
-1.05276e-05 -7.86435e-07 0.00202924
0.000619107 -4.69458e-05 -9.56419e-06
-4.69458e-05 5.05705e-05 1.1088e-05
-9.56419e-06 1.1088e-05 -6.59778e-06
0.00458567 0.000114031 -0.000154873
0.000114031 0.00252329 1.30237e-05
-0.000154873 1.30237e-05 0.0025179
0.00166486 0.000236636 -2.91797e-06
0.000236636 0.000106248 2.18704e-07
-2.91797e-06 2.18704e-07 -5.89757e-05
0.0016516 0.000129978 -7.58953e-07
0.000129978 7.48618e-05 5.38004e-07
-7.58953e-07 5.38004e-07 -5.46766e-05
0.00190022 0.000227689 -1.51978e-06
0.000227689 0.000108457 1.61766e-06
-1.51978e-06 1.61766e-06 -1.01888e-05
0.00194477 0.0001055 -9.04996e-07
0.0001055 9.68001e-05 1.18966e-06
-9.04996e-07 1.18966e-06 2.71698e-05
0.00158649 4.20922e-05 -8.65109e-08
4.20922e-05 5.52977e-05 1.77633e-07
-8.65109e-08 1.77633e-07 -5.8583e-05
0.000999491 5.4807e-06 -1.19196e-05
5.4807e-06 -4.67418e-05 -7.5344e-08
-1.19196e-05 -7.5344e-08 -0.000172199
0.00157902 3.84485e-06 5.50375e-08
3.84485e-06 5.44997e-05 1.19656e-07
5.50375e-08 1.19656e-07 -5.80483e-05
0.00190924 4.63644e-05 -1.08673e-06
4.63644e-05 8.41771e-05 -1.24686e-08
-1.08673e-06 -1.24686e-08 2.30068e-05
0.00191133 0.000166481 -5.40485e-07
0.000166481 8.92377e-05 6.36836e-08
-5.40485e-07 6.36836e-08 -5.0472e-06
0.00191146 0.000107504 1.41846e-06
0.000107504 2.27881e-05 2.19759e-07
1.41846e-06 2.19759e-07 -1.72726e-05
0.00194462 0.000295348 -3.57726e-07
0.000295348 0.000159896 -1.623e-07
-3.57726e-07 -1.623e-07 1.23429e-05
0.00188687 0.000242015 -2.29258e-07
0.000242015 3.3163e-05 6.45864e-07
-2.29258e-07 6.45864e-07 -5.35903e-05
0.00194695 -3.05304e-06 6.32487e-07
-3.05304e-06 0.000115441 1.82908e-07
6.32487e-07 1.82908e-07 5.40055e-05
0.00188471 4.9662e-05 6.34105e-06
4.9662e-05 1.64993e-05 1.21754e-07
6.34105e-06 1.21754e-07 -1.62274e-05
0.0018629 0.000169273 2.59956e-06
0.000169273 -4.11863e-06 4.03926e-07
2.59956e-06 4.03926e-07 -5.98033e-05
0.00196877 0.000107728 5.4249e-06
0.000107728 3.41175e-05 6.29131e-07
5.4249e-06 6.29131e-07 1.4864e-05
0.00185546 0.000290353 9.87213e-07
0.000290353 6.76679e-05 -1.70385e-06
9.87213e-07 -1.70385e-06 -5.36444e-05
0.00202472 0.00024845 3.96205e-06
0.00024845 7.53964e-05 1.25456e-06
3.96205e-06 1.25456e-06 1.01155e-05
0.00162285 -2.81139e-05 -1.52371e-06
-2.81139e-05 8.41081e-05 -3.57643e-08
-1.52371e-06 -3.57643e-08 -2.96422e-05
0.00180064 -0.000142273 -4.34878e-06
-0.000142273 0.000184806 2.92814e-07
-4.34878e-06 2.92814e-07 5.61281e-05
0.00191706 -9.72642e-05 1.22711e-06
-9.72642e-05 9.82719e-05 -1.46763e-06
1.22711e-06 -1.46763e-06 2.34854e-05
0.00188774 -0.000218796 -1.26083e-06
-0.000218796 0.000119202 -1.86204e-08
-1.26083e-06 -1.86204e-08 -3.24737e-06
0.00088244 -0.000232579 -7.15528e-06
-0.000232579 0.000171411 7.43625e-06
-7.15528e-06 7.43625e-06 -3.41945e-05
0.0011017 -0.000315403 -6.73638e-06
-0.000315403 0.000131465 4.14612e-06
-6.73638e-06 4.14612e-06 -0.000120482
0.0014294 -0.000457067 9.87096e-07
-0.000457067 0.000185473 -1.44029e-07
9.87096e-07 -1.44029e-07 -0.000119989
0.00176797 -0.00032513 -9.70777e-07
-0.00032513 0.0001172 3.94192e-08
-9.70777e-07 3.94192e-08 -5.58332e-05
0.00190569 -0.000298342 1.18243e-06
-0.000298342 9.94026e-05 -8.23328e-07
1.18243e-06 -8.23328e-07 -6.03305e-06
0.00189614 -0.000394915 2.3281e-06
-0.000394915 0.000176429 -6.64713e-07
2.3281e-06 -6.64713e-07 7.53673e-06
0.0018594 -0.000495228 -3.88842e-07
-0.000495228 0.000241515 -2.17225e-06
-3.88842e-07 -2.17225e-06 -1.91281e-05
0.00207322 -0.000434348 6.86896e-06
-0.000434348 0.000312752 -5.26326e-06
6.86896e-06 -5.26326e-06 0.000137791
0.000833851 -0.000236351 -3.31628e-08
-0.000236351 0.000131922 1.49331e-06
-3.31628e-08 1.49331e-06 -0.000101247
8.64387e-05 -0.000158664 1.63622e-06
-0.000158664 -0.000310541 8.73253e-07
1.63622e-06 8.73253e-07 -0.000554277
0.000746834 -8.76027e-05 -7.79918e-07
-8.76027e-05 0.000152029 3.88405e-06
-7.79918e-07 3.88405e-06 2.52588e-05
0.000104285 -4.18796e-05 3.03482e-06
-4.18796e-05 -0.000213751 -3.63543e-06
3.03482e-06 -3.63543e-06 -0.000420021
0.00186446 -5.00921e-05 9.97076e-08
-5.00921e-05 6.73208e-05 2.93642e-07
9.97076e-08 2.93642e-07 -3.01822e-06
0.00184522 -0.000162708 1.76031e-06
-0.000162708 6.80956e-05 -6.32099e-07
1.76031e-06 -6.32099e-07 -3.45272e-05
0.00195163 -0.000103821 1.86112e-06
-0.000103821 8.03229e-05 -5.66204e-07
1.86112e-06 -5.66204e-07 3.44032e-05
0.00188571 -0.000243395 -1.95134e-06
-0.000243395 5.10129e-05 4.74096e-07
-1.95134e-06 4.74096e-07 -3.03086e-05
0.00102511 -0.000271799 -1.46081e-06
-0.000271799 0.000163105 3.72034e-07
-1.46081e-06 3.72034e-07 -6.86557e-05
0.00128995 -0.000425417 1.85284e-06
-0.000425417 0.000218562 -1.0079e-06
1.85284e-06 -1.0079e-06 -9.25011e-05
0.00173215 -0.000553937 -1.06703e-07
-0.000553937 0.000280918 3.62564e-07
-1.06703e-07 3.62564e-07 -4.80962e-05
0.00178736 -0.000347195 -1.48048e-06
-0.000347195 7.79387e-05 8.04581e-07
-1.48048e-06 8.04581e-07 -6.36676e-05
0.00194851 -0.000313132 1.34429e-06
-0.000313132 0.000110069 -7.86556e-07
1.34429e-06 -7.86556e-07 1.96498e-05
0.00187382 -0.000502675 -5.91268e-08
-0.000502675 0.000226361 5.11452e-07
-5.91268e-08 5.11452e-07 -2.57218e-05
0.00179594 -0.000409162 -8.63337e-07
-0.000409162 9.16048e-05 1.11299e-06
-8.63337e-07 1.11299e-06 -5.76274e-05
0.00206442 -0.000439511 3.94684e-06
-0.000439511 0.00028875 -5.63001e-06
3.94684e-06 -5.63001e-06 0.000114587
0.00111492 -0.000304536 2.45076e-07
-0.000304536 0.00023333 1.09267e-06
2.45076e-07 1.09267e-06 -1.39759e-05
0.00144605 -0.000327633 4.9973e-06
-0.000327633 0.000491623 1.12135e-06
4.9973e-06 1.12135e-06 0.000223374
0.000865975 -0.000173022 -1.6115e-07
-0.000173022 0.000261039 -4.86291e-09
-1.6115e-07 -4.86291e-09 5.35173e-06
0.000391488 -3.47779e-05 -2.02793e-06
-3.47779e-05 -5.91093e-05 5.58928e-07
-2.02793e-06 5.58928e-07 -0.000163826
0.000189205 -4.11353e-05 -4.08888e-07
-4.11353e-05 -0.000141211 -7.05281e-07
-4.08888e-07 -7.05281e-07 -0.000329001
0.00191239 -5.6929e-05 5.45807e-06
-5.6929e-05 3.56519e-05 -1.46222e-07
5.45807e-06 -1.46222e-07 6.51682e-06
0.0019115 -0.000152558 4.66962e-06
-0.000152558 4.52472e-05 -1.09451e-06
4.66962e-06 -1.09451e-06 -1.95681e-06
0.00196353 -0.000289599 2.31074e-06
-0.000289599 4.23942e-05 -1.333e-06
2.31074e-06 -1.333e-06 -1.51369e-05
0.00187316 -0.000354776 4.08644e-07
-0.000354776 8.5352e-05 -1.80393e-06
4.08644e-07 -1.80393e-06 -1.92101e-05
0.00168126 -0.000395444 -5.5353e-07
-0.000395444 0.000540661 -3.43995e-06
-5.5353e-07 -3.43995e-06 0.000255877
0.00212475 -0.000491799 -8.51094e-07
-0.000491799 0.000213087 -2.37826e-06
-8.51094e-07 -2.37826e-06 5.14587e-05
0.00127429 -0.000507351 -1.94404e-07
-0.000507351 0.000180669 1.85098e-07
-1.94404e-07 1.85098e-07 -0.000171126
0.00188857 -0.000615727 1.40637e-06
-0.000615727 0.000332078 2.7646e-07
1.40637e-06 2.7646e-07 -1.22578e-05
0.00186381 -0.000488619 -2.45966e-06
-0.000488619 0.000204708 2.68374e-06
-2.45966e-06 2.68374e-06 -3.89185e-05
7.59595e-05 -2.44204e-06 -1.13366e-06
-2.44204e-06 -0.000250317 -4.4962e-06
-1.13366e-06 -4.4962e-06 -0.000334793
0.000698783 -9.09887e-05 -1.45111e-06
-9.09887e-05 0.000181268 5.9993e-07
-1.45111e-06 5.9993e-07 1.2089e-05
0.00104495 -0.000127845 -2.38722e-06
-0.000127845 0.000382767 -6.45371e-07
-2.38722e-06 -6.45371e-07 0.000163945
0.00216614 -0.000437859 -9.57819e-06
-0.000437859 0.000858363 4.08223e-07
-9.57819e-06 4.08223e-07 0.000570703
0.000566821 -0.000162566 2.13601e-06
-0.000162566 4.60517e-05 5.40059e-06
2.13601e-06 5.40059e-06 -0.000224394
0.00123252 -0.000337711 -2.86394e-06
-0.000337711 0.000321955 2.46853e-06
-2.86394e-06 2.46853e-06 4.01845e-05
0.000487143 -4.41182e-05 -6.32152e-07
-4.41182e-05 -3.61333e-05 -5.89189e-06
-6.32152e-07 -5.89189e-06 -6.29859e-05
0.000555782 -2.23574e-06 -5.97427e-07
-2.23574e-06 2.61172e-05 -4.6337e-06
-5.97427e-07 -4.6337e-06 -5.87181e-05
0.00189759 0.000347255 -2.16578e-06
0.000347255 0.000170859 -3.14102e-07
-2.16578e-06 -3.14102e-07 -7.02156e-06
-4.33701e-05 -3.61776e-05 1.93098e-06
-3.61776e-05 -0.000289313 -2.46686e-06
1.93098e-06 -2.46686e-06 -0.000464224
0.000935684 0.000233882 -1.48405e-06
0.000233882 0.00021116 -8.21782e-08
-1.48405e-06 -8.21782e-08 -7.96345e-06
5.84041e-05 0.000105637 3.40699e-06
0.000105637 -0.000317354 5.81057e-07
3.40699e-06 5.81057e-07 -0.000514199
0.00177343 0.000430723 5.75852e-07
0.000430723 0.000223052 8.92624e-07
5.75852e-07 8.92624e-07 -1.57395e-05
0.00180743 0.000422173 1.57276e-06
0.000422173 0.000153594 7.11725e-07
1.57276e-06 7.11725e-07 -4.70604e-05
0.00167009 0.000387595 1.02748e-06
0.000387595 0.000532178 5.06984e-07
1.02748e-06 5.06984e-07 0.000241871
0.00214323 0.000498583 -1.80048e-06
0.000498583 0.00065709 7.57481e-07
-1.80048e-06 7.57481e-07 0.000350401
0.0018053 0.000498853 -5.51279e-07
0.000498853 0.000234366 1.35433e-06
-5.51279e-07 1.35433e-06 -3.13202e-05
0.000587171 1.6087e-05 -4.55927e-07
1.6087e-05 3.54867e-05 4.77329e-07
-4.55927e-07 4.77329e-07 -3.45174e-05
0.000727296 3.97433e-05 -8.83241e-07
3.97433e-05 0.000162731 3.31793e-07
-8.83241e-07 3.31793e-07 3.07131e-05
0.00116095 0.000301575 -5.03476e-07
0.000301575 0.000269833 -1.60733e-07
-5.03476e-07 -1.60733e-07 3.03833e-05
0.000884696 9.12676e-05 4.72593e-07
9.12676e-05 0.000277206 6.29691e-07
4.72593e-07 6.29691e-07 6.72212e-05
0.00079408 0.000208969 4.00502e-06
0.000208969 0.000109427 1.11573e-06
4.00502e-06 1.11573e-06 -9.15413e-05
0.00188083 0.000362277 -2.26558e-06
0.000362277 0.000138988 -1.66292e-06
-2.26558e-06 -1.66292e-06 -2.20379e-05
0.00191207 0.000482767 1.74401e-06
0.000482767 0.000261405 5.73596e-07
1.74401e-06 5.73596e-07 2.28879e-05
0.00179691 0.00045843 3.9441e-07
0.00045843 0.000109597 -1.60414e-07
3.9441e-07 -1.60414e-07 -9.0058e-05
0.00108102 0.000393765 2.50972e-06
0.000393765 0.000167703 2.70252e-06
2.50972e-06 2.70252e-06 -0.000142727
0.00167868 0.000499524 -2.72799e-06
0.000499524 0.000292229 -1.82971e-06
-2.72799e-06 -1.82971e-06 1.86064e-06
0.000843811 6.31199e-05 -5.51974e-08
6.31199e-05 0.000225486 2.32923e-06
-5.51974e-08 2.32923e-06 0.00011203
0.00013842 4.48113e-06 -2.25364e-06
4.48113e-06 -0.000169477 1.61235e-06
-2.25364e-06 1.61235e-06 -0.000331064
0.00104332 0.000316299 -5.31602e-06
0.000316299 0.000160161 -3.44908e-06
-5.31602e-06 -3.44908e-06 -8.88449e-05
0.000531051 0.000179758 -8.05549e-06
0.000179758 6.98153e-05 -3.41563e-06
-8.05549e-06 -3.41563e-06 -0.000152459
0.000892332 0.000269483 -3.84776e-06
0.000269483 0.000116099 -3.6973e-06
-3.84776e-06 -3.6973e-06 -8.96832e-05
0.00182338 0.00039177 -1.99942e-07
0.00039177 3.56975e-05 -1.46951e-06
-1.99942e-07 -1.46951e-06 -0.000106904
0.00202232 0.000533881 4.07133e-06
0.000533881 0.000305692 -1.68669e-06
4.07133e-06 -1.68669e-06 4.90093e-05
0.00171303 0.000477587 3.18039e-06
0.000477587 4.68148e-05 5.70517e-07
3.18039e-06 5.70517e-07 -0.000163247
0.00101034 0.000401979 4.25238e-06
0.000401979 8.86601e-05 3.76721e-06
4.25238e-06 3.76721e-06 -0.000229344
0.00183584 0.000552677 -1.78897e-06
0.000552677 0.000391519 -8.28555e-07
-1.78897e-06 -8.28555e-07 8.42654e-05
0.000558185 5.18856e-06 -1.57438e-06
5.18856e-06 1.3039e-05 -3.26628e-06
-1.57438e-06 -3.26628e-06 -4.84441e-05
0.000563502 4.8371e-05 1.21325e-06
4.8371e-05 4.13402e-05 4.18151e-07
1.21325e-06 4.18151e-07 -5.66997e-05
0.000433501 3.43296e-05 -6.96185e-07
3.43296e-05 -4.55077e-05 7.45073e-07
-6.96185e-07 7.45073e-07 -0.000142389
0.000331704 -2.16738e-05 -3.52076e-07
-2.16738e-05 -9.79938e-05 -1.80395e-06
-3.52076e-07 -1.80395e-06 -0.000191641
0.000619957 5.16675e-05 -3.16727e-07
5.16675e-05 8.76437e-05 1.79957e-08
-3.16727e-07 1.79957e-08 -1.153e-05
0.000639311 7.35902e-05 -7.15742e-07
7.35902e-05 8.88333e-05 -1.99962e-07
-7.15742e-07 -1.99962e-07 -1.57431e-05
0.000761034 0.00010884 -2.81059e-06
0.00010884 0.000174507 -3.73591e-06
-2.81059e-06 -3.73591e-06 6.4411e-05
0.000381963 1.67642e-06 3.53761e-07
1.67642e-06 -4.89434e-05 -4.16896e-07
3.53761e-07 -4.16896e-07 -0.000166058
0.000674019 8.22487e-05 9.34679e-07
8.22487e-05 0.000115633 2.24047e-06
9.34679e-07 2.24047e-06 2.16657e-05
0.000587737 5.6044e-05 3.10263e-06
5.6044e-05 5.0176e-05 2.97141e-06
3.10263e-06 2.97141e-06 -1.11626e-05
0.000556622 1.32075e-05 -1.92536e-06
1.32075e-05 2.5735e-05 -6.88781e-09
-1.92536e-06 -6.88781e-09 -3.26333e-05
0.00123251 -1.89789e-05 1.08903e-06
-1.89789e-05 0.000410742 2.74166e-06
1.08903e-06 2.74166e-06 0.000397211
0.00049482 -5.51058e-05 1.02982e-06
-5.51058e-05 -1.14876e-05 -2.97231e-06
1.02982e-06 -2.97231e-06 -7.2836e-05
0.00128937 -2.87553e-05 -5.69194e-06
-2.87553e-05 0.000443997 -1.51905e-06
-5.69194e-06 -1.51905e-06 0.000429961
0.000804714 -3.0918e-05 2.33058e-05
-3.0918e-05 0.00014861 8.47599e-06
2.33058e-05 8.47599e-06 0.000154265
0.00133436 -4.04217e-05 -9.76173e-06
-4.04217e-05 0.000473595 -6.10871e-06
-9.76173e-06 -6.10871e-06 0.000457832
0.000780003 -4.24009e-05 8.70403e-06
-4.24009e-05 0.000137014 3.1653e-06
8.70403e-06 3.1653e-06 0.00013965
0.002371 -0.000103044 -3.31407e-06
-0.000103044 0.00113009 -2.33942e-06
-3.31407e-06 -2.33942e-06 0.00113389
0.000401299 5.35255e-05 -2.26466e-06
5.35255e-05 -7.16086e-05 -4.34825e-06
-2.26466e-06 -4.34825e-06 -9.90466e-05
0.000443623 2.97383e-05 -2.65871e-06
2.97383e-05 -3.85034e-05 2.00185e-08
-2.65871e-06 2.00185e-08 -7.58273e-05
0.00265033 0.000124067 1.87389e-05
0.000124067 0.00132232 -4.24644e-06
1.87389e-05 -4.24644e-06 0.00131896
0.000598281 -3.09637e-05 -7.21168e-06
-3.09637e-05 4.61638e-05 8.92974e-06
-7.21168e-06 8.92974e-06 7.23249e-07
0.00326307 0.000130438 -2.94214e-05
0.000130438 0.00170196 -7.85497e-07
-2.94214e-05 -7.85497e-07 0.00169625
0.00394096 9.65634e-05 -0.000131693
9.65634e-05 0.00211961 1.01028e-05
-0.000131693 1.01028e-05 0.00212061
0.00190942 0.000295436 -2.34929e-06
0.000295436 0.000132795 1.05431e-06
-2.34929e-06 1.05431e-06 -1.52609e-05
0.00190909 0.000162942 -3.46261e-07
0.000162942 9.21979e-05 1.60686e-06
-3.46261e-07 1.60686e-06 -1.39031e-06
0.00192898 0.000238761 -8.17989e-07
0.000238761 5.79497e-05 1.86543e-06
-8.17989e-07 1.86543e-06 -2.36328e-05
0.0019435 0.000106875 -3.28912e-06
0.000106875 3.79693e-05 -2.50979e-07
-3.28912e-06 -2.50979e-07 2.85441e-06
0.00188275 3.92264e-05 -2.35154e-06
3.92264e-05 6.83088e-05 2.06491e-07
-2.35154e-06 2.06491e-07 6.83354e-06
0.00159873 6.6815e-06 3.31152e-08
6.6815e-06 6.76889e-05 2.38952e-07
3.31152e-08 2.38952e-07 -4.47787e-05
0.00188415 -2.57586e-06 -8.94022e-07
-2.57586e-06 7.7358e-05 7.65667e-08
-8.94022e-07 7.65667e-08 1.36436e-05
0.00189237 4.82647e-05 1.51436e-06
4.82647e-05 2.49707e-05 -1.8236e-08
1.51436e-06 -1.8236e-08 -9.98512e-06
0.00193369 0.000170116 -1.45701e-07
0.000170116 4.24114e-05 8.15065e-08
-1.45701e-07 8.15065e-08 -1.50737e-05
0.00195101 0.000108941 9.92057e-07
0.000108941 1.95372e-05 2.7756e-07
9.92057e-07 2.7756e-07 3.17621e-06
0.00188076 0.000288989 -7.9343e-07
0.000288989 9.15484e-05 -3.89294e-07
-7.9343e-07 -3.89294e-07 -2.92387e-05
0.00199333 0.000251921 3.25049e-06
0.000251921 5.42644e-05 8.60806e-07
3.25049e-06 8.60806e-07 -6.65989e-06
0.00191672 -8.00123e-06 6.01594e-06
-8.00123e-06 4.73271e-05 2.57054e-07
6.01594e-06 2.57054e-07 1.35825e-05
0.00193863 5.09502e-05 4.09229e-06
5.09502e-05 1.01563e-05 1.21366e-08
4.09229e-06 1.21366e-08 5.17781e-07
0.00199996 0.000172191 2.90491e-06
0.000172191 2.07784e-05 7.95204e-07
2.90491e-06 7.95204e-07 -4.61764e-07
0.00201582 0.000326449 -1.29165e-07
0.000326449 7.83315e-05 4.40165e-07
-1.29165e-07 4.40165e-07 -6.33881e-06
0.00185282 -4.96039e-05 -1.19484e-06
-4.96039e-05 5.97399e-05 1.213e-07
-1.19484e-06 1.213e-07 -1.07723e-05
0.00189688 -0.000165021 1.86484e-06
-0.000165021 0.000104332 -1.26959e-06
1.86484e-06 -1.26959e-06 9.80173e-08
0.00191528 -0.000103207 -2.0453e-06
-0.000103207 5.73749e-05 -2.12819e-07
-2.0453e-06 -2.12819e-07 1.2303e-05
0.00186515 -0.00023993 -3.97762e-06
-0.00023993 4.37477e-05 1.46459e-06
-3.97762e-06 1.46459e-06 -4.10592e-05
0.00102851 -0.000272289 -4.23281e-06
-0.000272289 0.000164253 4.31661e-06
-4.23281e-06 4.31661e-06 -6.89634e-05
0.00106862 -0.000395147 -3.9248e-07
-0.000395147 9.19923e-05 4.93315e-07
-3.9248e-07 4.93315e-07 -0.000211474
0.00169701 -0.000558958 1.28819e-06
-0.000558958 0.000255544 -1.09444e-06
1.28819e-06 -1.09444e-06 -7.83148e-05
0.0018095 -0.000346175 -9.74771e-07
-0.000346175 0.000101174 1.99951e-07
-9.74771e-07 1.99951e-07 -4.40677e-05
0.00187618 -0.000312076 -9.7465e-10
-0.000312076 6.86479e-05 1.16279e-06
-9.7465e-10 1.16279e-06 -2.01851e-05
0.00181294 -0.000412298 2.84789e-06
-0.000412298 9.03306e-05 1.21261e-06
2.84789e-06 1.21261e-06 -5.98517e-05
0.00184693 -0.000500535 -1.43053e-06
-0.000500535 0.000222336 -2.21428e-06
-1.43053e-06 -2.21428e-06 -3.03919e-05
0.00190784 -0.000425368 4.37269e-06
-0.000425368 0.000181239 -8.52479e-06
4.37269e-06 -8.52479e-06 1.40349e-05
0.000961568 -0.000289516 2.31326e-06
-0.000289516 0.000137739 1.72693e-06
2.31326e-06 1.72693e-06 -0.000107111
0.000630796 -0.000240427 4.04063e-06
-0.000240427 -3.03295e-05 6.44692e-07
4.04063e-06 6.44692e-07 -0.00027259
0.000616148 -0.000146177 3.92117e-06
-0.000146177 0.000110419 -5.0947e-06
3.92117e-06 -5.0947e-06 -0.00014804
0.000216898 -1.54349e-05 -2.15007e-07
-1.54349e-05 -0.000166481 3.8024e-06
-2.15007e-07 3.8024e-06 -0.000272816
0.000201169 1.15493e-06 3.24959e-06
1.15493e-06 -0.000138305 -5.55884e-07
3.24959e-06 -5.55884e-07 -0.000319072
0.00191317 -6.46003e-05 -2.82172e-07
-6.46003e-05 3.36383e-05 -1.16612e-07
-2.82172e-07 -1.16612e-07 2.69852e-06
0.00189602 -0.000151675 1.27647e-06
-0.000151675 3.41721e-05 -2.73331e-07
1.27647e-06 -2.73331e-07 -1.4135e-05
0.00196756 -0.000284317 -1.1812e-06
-0.000284317 5.89667e-05 1.02199e-07
-1.1812e-06 1.02199e-07 -1.88735e-06
0.00128692 -0.000357399 -1.62922e-06
-0.000357399 0.000294004 -1.56201e-07
-1.62922e-06 -1.56201e-07 1.62602e-05
0.00128334 -0.000495567 2.61006e-06
-0.000495567 0.000187574 -9.81859e-07
2.61006e-06 -9.81859e-07 -0.000159043
0.00178507 -0.000608131 -3.5373e-09
-0.000608131 0.00027782 -3.71873e-07
-3.5373e-09 -3.71873e-07 -6.87346e-05
0.00186075 -0.000353262 4.56236e-07
-0.000353262 7.51111e-05 8.74832e-08
4.56236e-07 8.74832e-08 -3.03167e-05
0.00198039 -0.000503912 8.55598e-07
-0.000503912 0.000264941 -3.12463e-06
8.55598e-07 -3.12463e-06 2.55067e-05
0.0019964 -0.000475008 -7.30825e-07
-0.000475008 0.000164002 -7.43157e-07
-7.30825e-07 -7.43157e-07 4.7965e-06
0.000207338 4.47199e-05 -1.20883e-06
4.47199e-05 -0.000177513 -8.14746e-07
-1.20883e-06 -8.14746e-07 -0.000256307
0.00114081 -0.000330781 3.28426e-07
-0.000330781 0.000218081 7.05761e-07
3.28426e-07 7.05761e-07 -4.5651e-05
0.00106811 -0.000318422 8.71372e-07
-0.000318422 0.000226941 2.36147e-06
8.71372e-07 2.36147e-06 -3.88758e-05
0.00114755 -0.000234344 -2.99548e-07
-0.000234344 0.000414084 2.47986e-07
-2.99548e-07 2.47986e-07 0.000125028
0.00121551 -0.000134339 7.9764e-07
-0.000134339 0.000486412 -2.52161e-06
7.9764e-07 -2.52161e-06 0.000268484
0.000485781 -2.39257e-05 -6.95418e-07
-2.39257e-05 4.11797e-05 1.27049e-06
-6.95418e-07 1.27049e-06 -0.000121881
0.00193519 -7.81381e-05 4.0881e-06
-7.81381e-05 1.74895e-05 -3.37303e-07
4.0881e-06 -3.37303e-07 7.68468e-06
0.00205306 -0.000197736 1.96405e-06
-0.000197736 2.92688e-05 -7.03814e-07
1.96405e-06 -7.03814e-07 1.99975e-05
0.00204346 -0.000344369 1.68045e-06
-0.000344369 6.74675e-05 -1.52846e-06
1.68045e-06 -1.52846e-06 2.73799e-05
0.00209689 -0.000429087 1.8904e-06
-0.000429087 0.00012478 -2.58755e-06
1.8904e-06 -2.58755e-06 2.82253e-05
0.00192337 -0.000480604 -4.45604e-06
-0.000480604 0.000658217 -4.1168e-06
-4.45604e-06 -4.1168e-06 0.000332152
0.00196402 -0.000537578 3.8993e-06
-0.000537578 0.000185394 8.41253e-07
3.8993e-06 8.41253e-07 -2.20942e-05
0.00150642 -0.000589134 -6.10865e-06
-0.000589134 0.000279511 1.18542e-06
-6.10865e-06 1.18542e-06 -0.000110118
0.00211356 -0.000663803 -6.21969e-06
-0.000663803 0.000477938 1.09504e-06
-6.21969e-06 1.09504e-06 0.000109897
0.000183621 5.87419e-05 -3.32362e-06
5.87419e-05 -0.000196796 -1.65315e-06
-3.32362e-06 -1.65315e-06 -0.000258411
0.000653746 7.85548e-06 -1.50984e-06
7.85548e-06 0.00013435 -9.28166e-08
-1.50984e-06 -9.28166e-08 6.26806e-06
0.00115623 -0.00015643 -4.30665e-06
-0.00015643 0.000464188 2.72963e-06
-4.30665e-06 2.72963e-06 0.000271159
0.000931576 -4.95749e-05 -3.11412e-06
-4.95749e-05 0.000280829 2.20058e-06
-3.11412e-06 2.20058e-06 3.53684e-05
0.00133422 -0.000398855 -2.5052e-06
-0.000398855 0.000319997 -3.11834e-06
-2.5052e-06 -3.11834e-06 1.07853e-05
0.00141581 -0.000345678 -1.15787e-05
-0.000345678 0.000494922 1.02178e-05
-1.15787e-05 1.02178e-05 0.000154886
0.000484267 8.27135e-06 -1.66833e-06
8.27135e-06 -2.69289e-05 -3.47669e-06
-1.66833e-06 -3.47669e-06 -9.57933e-05
0.000382685 -7.4003e-06 1.83355e-06
-7.4003e-06 -6.17214e-05 -2.09347e-06
1.83355e-06 -2.09347e-06 -0.000177237
0.00184705 0.000363978 -2.09329e-06
0.000363978 0.00011844 -6.99805e-07
-2.09329e-06 -6.99805e-07 -4.37246e-05
0.000183737 3.57828e-05 1.34802e-06
3.57828e-05 -0.000161633 -1.33719e-07
1.34802e-06 -1.33719e-07 -0.000354504
0.00140612 0.000326769 1.15638e-06
0.000326769 0.000418724 8.87226e-07
1.15638e-06 8.87226e-07 0.00017457
-0.000126751 0.000100644 6.12587e-06
0.000100644 -0.000466603 1.84492e-06
6.12587e-06 1.84492e-06 -0.000637455
0.00189506 0.000480555 1.31601e-06
0.000480555 0.000249233 6.82216e-07
1.31601e-06 6.82216e-07 1.09266e-05
0.00191612 0.000460928 -3.63862e-06
0.000460928 0.000179105 5.81791e-07
-3.63862e-06 5.81791e-07 -1.96282e-05
0.00159354 0.000458081 -3.73416e-07
0.000458081 0.000464396 2.52855e-06
-3.73416e-07 2.52855e-06 0.000143448
0.00199447 0.000531509 -2.90112e-06
0.000531509 0.00049545 2.90658e-07
-2.90112e-06 2.90658e-07 0.00019578
0.00068047 3.24275e-05 -9.79409e-07
3.24275e-05 0.000120611 1.99151e-07
-9.79409e-07 1.99151e-07 1.36667e-05
0.000418261 4.82779e-05 8.54615e-07
4.82779e-05 3.48634e-06 4.20524e-07
8.54615e-07 4.20524e-07 -0.000166789
0.00151997 0.000365319 -1.30992e-06
0.000365319 0.00045497 -1.42836e-06
-1.30992e-06 -1.42836e-06 0.000194941
0.000408947 7.81917e-05 -1.55106e-06
7.81917e-05 -4.55275e-05 -7.98784e-08
-1.55106e-06 -7.98784e-08 -0.000230149
0.000657459 0.000235619 6.94608e-07
0.000235619 -3.75293e-05 -1.40787e-06
6.94608e-07 -1.40787e-06 -0.000225074
0.00202017 0.000405062 -2.97466e-06
0.000405062 0.000145262 -1.22003e-06
-2.97466e-06 -1.22003e-06 4.72387e-06
0.00212782 0.000533828 2.32097e-06
0.000533828 0.00037204 -2.68204e-07
2.32097e-06 -2.68204e-07 0.000119974
0.00192123 0.00050011 2.50449e-06
0.00050011 0.000158797 2.76306e-06
2.50449e-06 2.76306e-06 -5.61088e-05
0.0012043 0.000424356 4.39038e-06
0.000424356 0.000214807 2.86412e-06
4.39038e-06 2.86412e-06 -0.000109313
0.00172607 0.000556239 -4.23466e-06
0.000556239 0.000325694 2.9242e-09
-4.23466e-06 2.9242e-09 1.02091e-05
-6.40796e-05 1.48868e-06 -1.52119e-06
1.48868e-06 -0.000325748 2.92105e-06
-1.52119e-06 2.92105e-06 -0.000433726
-0.000139861 0.000113324 1.10893e-06
0.000113324 -0.000287712 1.64892e-06
1.10893e-06 1.64892e-06 -0.000504678
0.000826283 0.000305061 -3.46132e-07
0.000305061 2.40653e-05 5.43824e-07
-3.46132e-07 5.43824e-07 -0.000236508
-0.000294018 0.000136718 3.18786e-06
0.000136718 -0.000561847 -1.75861e-07
3.18786e-06 -1.75861e-07 -0.000752003
0.00203874 0.000408473 1.24425e-06
0.000408473 -8.1276e-05 1.51121e-06
1.24425e-06 1.51121e-06 -0.000109742
0.00264078 0.000513362 2.69726e-06
0.000513362 0.000516034 -9.07234e-08
2.69726e-06 -9.07234e-08 0.000339726
0.00193267 0.000585147 -5.04504e-06
0.000585147 0.000286832 -4.4116e-06
-5.04504e-06 -4.4116e-06 -9.70316e-06
0.00130447 0.000496463 2.1187e-07
0.000496463 0.00018498 3.16522e-07
2.1187e-07 3.16522e-07 -0.000161567
0.000634204 8.41164e-05 -6.44263e-07
8.41164e-05 8.99552e-05 -1.13434e-06
-6.44263e-07 -1.13434e-06 -1.18658e-05
0.000604628 6.49097e-05 -3.90388e-07
6.49097e-05 7.10336e-05 -4.23001e-08
-3.90388e-07 -4.23001e-08 -3.52127e-05
0.000977808 6.42581e-05 -4.94785e-06
6.42581e-05 0.000296795 -2.17579e-06
-4.94785e-06 -2.17579e-06 0.000202924
0.000605121 3.04343e-05 -1.27183e-06
3.04343e-05 6.14285e-05 -2.03966e-06
-1.27183e-06 -2.03966e-06 -2.54544e-05
0.000327276 2.26607e-05 -1.85486e-07
2.26607e-05 -0.000100276 -4.82712e-09
-1.85486e-07 -4.82712e-09 -0.000199552
0.000626054 4.20041e-05 -3.40897e-07
4.20041e-05 8.88026e-05 8.01079e-08
-3.40897e-07 8.01079e-08 -6.0291e-06
0.000619632 0.000106398 -1.14082e-06
0.000106398 0.000102432 2.96015e-07
-1.14082e-06 2.96015e-07 -1.03213e-05
0.00052962 3.87506e-05 1.03745e-06
3.87506e-05 4.5413e-05 1.72851e-07
1.03745e-06 1.72851e-07 -7.57018e-05
0.000700154 7.88131e-05 1.39658e-06
7.88131e-05 0.000121498 -2.11136e-06
1.39658e-06 -2.11136e-06 3.66573e-05
0.00071602 2.22974e-06 3.26693e-06
2.22974e-06 0.000153916 -3.87443e-06
3.26693e-06 -3.87443e-06 3.55198e-05
0.000398571 6.13053e-05 4.34184e-07
6.13053e-05 -3.32315e-05 1.88591e-06
4.34184e-07 1.88591e-06 -0.000156191
0.000661921 9.45209e-05 1.9941e-06
9.45209e-05 0.000113763 2.72187e-06
1.9941e-06 2.72187e-06 1.4977e-05
0.000506019 6.41399e-05 2.83938e-06
6.41399e-05 6.97539e-06 2.82473e-06
2.83938e-06 2.82473e-06 -5.97018e-05
0.000513309 6.27697e-06 -1.48125e-06
6.27697e-06 5.4151e-06 -1.68669e-07
-1.48125e-06 -1.68669e-07 -5.58421e-05
0.00121363 -3.01498e-06 1.20347e-06
-3.01498e-06 0.000403129 2.55922e-06
1.20347e-06 2.55922e-06 0.000389901
0.000509049 -4.70731e-05 1.38552e-07
-4.70731e-05 -1.5941e-06 -2.76658e-06
1.38552e-07 -2.76658e-06 -6.08134e-05
0.00128868 -1.46008e-05 -5.08552e-06
-1.46008e-05 0.000445263 -1.60561e-06
-5.08552e-06 -1.60561e-06 0.000432058
0.000797118 -2.1585e-05 2.05606e-05
-2.1585e-05 0.000143726 8.69843e-06
2.05606e-05 8.69843e-06 0.000150154
0.00133112 -2.58943e-05 -8.69659e-06
-2.58943e-05 0.000469838 -5.97522e-06
-8.69659e-06 -5.97522e-06 0.000456012
0.000767468 -3.26211e-05 7.40048e-06
-3.26211e-05 0.000124768 3.24822e-06
7.40048e-06 3.24822e-06 0.000129647
0.000723747 -4.17555e-05 -4.56184e-07
-4.17555e-05 0.00010197 -2.58143e-06
-4.56184e-07 -2.58143e-06 0.000104361
0.000450724 3.96823e-05 -2.30472e-07
3.96823e-05 -5.824e-05 -3.18518e-06
-2.30472e-07 -3.18518e-06 -7.60904e-05
0.000453005 6.56003e-05 -9.87623e-08
6.56003e-05 -3.5081e-05 2.15047e-07
-9.87623e-08 2.15047e-07 -6.61916e-05
0.00234146 0.000100133 1.56379e-05
0.000100133 0.00112397 -3.97262e-06
1.56379e-05 -3.97262e-06 0.0011272
0.000528554 2.83007e-05 -3.87866e-06
2.83007e-05 1.59937e-05 7.34272e-06
-3.87866e-06 7.34272e-06 -2.36922e-05
0.00276446 0.000129809 -5.36733e-06
0.000129809 0.00139285 -5.65721e-07
-5.36733e-06 -5.65721e-07 0.00138796
0.00337663 8.62288e-05 -0.000104811
8.62288e-05 0.00176694 7.45964e-06
-0.000104811 7.45964e-06 0.00177178
0.00190784 0.000287424 -6.29283e-07
0.000287424 0.000117674 1.6539e-06
-6.29283e-07 1.6539e-06 -2.57828e-06
0.00199715 0.000170849 -4.52065e-06
0.000170849 8.37072e-05 -5.98989e-07
-4.52065e-06 -5.98989e-07 2.44672e-05
0.00195931 0.000255352 -5.77149e-07
0.000255352 3.14643e-05 -4.77644e-07
-5.77149e-07 -4.77644e-07 -2.52045e-05
0.00193558 0.000110436 -3.73849e-06
0.000110436 5.83133e-06 -5.43756e-07
-3.73849e-06 -5.43756e-07 -7.54854e-06
0.00190021 4.72335e-05 -4.44566e-06
4.72335e-05 3.33428e-05 -1.32869e-07
-4.44566e-06 -1.32869e-07 -3.76464e-06
0.00182279 -4.73932e-06 -2.33429e-06
-4.73932e-06 4.05185e-05 2.16958e-07
-2.33429e-06 2.16958e-07 -2.52576e-05
0.00189811 -6.04873e-06 -5.6065e-07
-6.04873e-06 3.56351e-05 -8.03599e-08
-5.6065e-07 -8.03599e-08 2.45439e-06
0.00193982 5.28586e-05 1.1515e-06
5.28586e-05 1.64457e-05 1.03818e-07
1.1515e-06 1.03818e-07 5.29655e-06
0.00201154 0.000177108 7.03813e-07
0.000177108 3.04696e-05 2.18495e-07
7.03813e-07 2.18495e-07 8.56686e-06
0.00205464 0.000322614 7.18512e-07
0.000322614 9.11717e-05 3.41696e-07
7.18512e-07 3.41696e-07 7.02799e-06
0.00192101 -1.21125e-05 2.96872e-06
-1.21125e-05 1.27852e-05 6.13356e-09
2.96872e-06 6.13356e-09 8.25261e-07
0.00205775 0.000101821 1.46806e-06
0.000101821 -8.09158e-06 -9.77768e-09
1.46806e-06 -9.77768e-09 1.20479e-05
0.00221149 0.000273596 2.38119e-06
0.000273596 6.76081e-05 1.19753e-06
2.38119e-06 1.19753e-06 4.4116e-05
0.00191958 -7.24764e-05 -4.7363e-06
-7.24764e-05 3.51575e-05 4.06261e-07
-4.7363e-06 4.06261e-07 2.53627e-06
0.00188276 -0.000150873 -2.00224e-06
-0.000150873 2.4738e-05 -7.23498e-08
-2.00224e-06 -7.23498e-08 -2.45823e-05
0.00196621 -0.000278916 -3.10216e-06
-0.000278916 7.32596e-05 1.41654e-06
-3.10216e-06 1.41654e-06 8.32429e-06
0.000859374 -0.000315192 -1.54682e-06
-0.000315192 2.67997e-05 2.53793e-06
-1.54682e-06 2.53793e-06 -0.000242765
0.00114668 -0.000466749 5.07492e-06
-0.000466749 0.000108517 -1.42389e-06
5.07492e-06 -1.42389e-06 -0.000228622
0.0016464 -0.000598424 1.75231e-07
-0.000598424 0.000203788 4.17443e-07
1.75231e-07 4.17443e-07 -0.000143585
0.00182918 -0.00035046 -7.56457e-07
-0.00035046 5.32814e-05 1.14333e-06
-7.56457e-07 1.14333e-06 -5.30526e-05
0.00179367 -0.000452498 1.8572e-07
-0.000452498 7.30101e-05 6.31429e-08
1.8572e-07 6.31429e-08 -8.36083e-05
0.00205191 -0.000515926 1.50544e-06
-0.000515926 0.000304062 -7.33067e-06
1.50544e-06 -7.33067e-06 6.89458e-05
0.000809015 -0.000296676 3.81237e-06
-0.000296676 9.84603e-06 4.45826e-06
3.81237e-06 4.45826e-06 -0.000246716
0.000562229 -0.000264503 -1.13681e-05
-0.000264503 -7.38132e-05 4.99423e-06
-1.13681e-05 4.99423e-06 -0.000316653
0.00202292 -0.000329688 1.82562e-06
-0.000329688 0.000971634 -1.08305e-06
1.82562e-06 -1.08305e-06 0.000653491
0.0003696 4.42702e-05 1.82606e-06
4.42702e-05 -8.0596e-05 7.86475e-07
1.82606e-06 7.86475e-07 -0.000157081
0.000984261 -0.000138496 3.60539e-06
-0.000138496 0.000333698 1.95779e-07
3.60539e-06 1.95779e-07 0.000131785
0.000195957 3.5526e-05 4.62881e-06
3.5526e-05 -0.000145182 9.81531e-07
4.62881e-06 9.81531e-07 -0.000301063
0.00193065 -7.82911e-05 -5.30656e-07
-7.82911e-05 1.40565e-05 8.4025e-08
-5.30656e-07 8.4025e-08 2.11261e-06
0.00200923 -0.000203352 2.24046e-07
-0.000203352 -4.94126e-07 -4.10944e-08
2.24046e-07 -4.10944e-08 -8.69176e-06
0.00201537 -0.000339169 -4.35645e-07
-0.000339169 5.80898e-05 4.12086e-07
-4.35645e-07 4.12086e-07 1.38416e-05
0.00143779 -0.000428773 -2.23666e-06
-0.000428773 0.000367577 -5.27072e-07
-2.23666e-06 -5.27072e-07 5.27822e-05
0.00144967 -0.000578894 1.63976e-06
-0.000578894 0.000246364 -1.03002e-06
1.63976e-06 -1.03002e-06 -0.00013907
0.00220459 -0.000664274 -5.06815e-06
-0.000664274 0.000527603 9.82392e-07
-5.06815e-06 9.82392e-07 0.000169068
0.00204038 -0.000432948 5.62398e-07
-0.000432948 9.33391e-05 -3.73641e-07
5.62398e-07 -3.73641e-07 -8.09329e-06
0.0018246 -0.000522896 1.42274e-06
-0.000522896 0.000103739 -3.19728e-06
1.42274e-06 -3.19728e-06 -0.000100862
0.000387338 5.7754e-05 -9.51322e-07
5.7754e-05 -7.57924e-05 -1.04504e-06
-9.51322e-07 -1.04504e-06 -0.000132858
0.000669604 -1.32515e-05 -7.46408e-07
-1.32515e-05 0.000140033 4.31299e-07
-7.46408e-07 4.31299e-07 1.45235e-05
0.000491908 -0.000311448 -4.93178e-06
-0.000311448 -0.000187979 3.86652e-06
-4.93178e-06 3.86652e-06 -0.000472692
0.00161111 -0.000336996 4.78935e-06
-0.000336996 0.000641706 -1.66979e-06
4.78935e-06 -1.66979e-06 0.000297541
0.00120969 -0.000110491 -2.07919e-07
-0.000110491 0.000463933 -2.16552e-06
-2.07919e-07 -2.16552e-06 0.000213095
0.000829587 -0.000115722 -6.1853e-07
-0.000115722 0.00026087 1.01725e-06
-6.1853e-07 1.01725e-06 7.09145e-05
0.00200447 -0.00010624 -3.73291e-08
-0.00010624 -1.55289e-05 -1.76748e-07
-3.73291e-08 -1.76748e-07 2.34547e-06
0.00211114 -0.000291466 -6.6396e-07
-0.000291466 -2.42408e-05 6.43967e-08
-6.6396e-07 6.43967e-08 3.65316e-06
0.00208237 -0.000387748 1.5252e-06
-0.000387748 6.07496e-05 -1.35589e-06
1.5252e-06 -1.35589e-06 2.81692e-05
0.00213351 -0.000571615 6.16526e-06
-0.000571615 0.000131403 -2.74527e-06
6.16526e-06 -2.74527e-06 -6.67109e-06
0.000821406 -0.000426403 1.64067e-07
-0.000426403 -2.0233e-05 -4.89477e-06
1.64067e-07 -4.89477e-06 -0.000369925
0.00220008 -0.000688572 -9.01668e-07
-0.000688572 0.000459092 1.22528e-05
-9.01668e-07 1.22528e-05 0.00012027
0.00232568 -0.000721541 -6.30116e-06
-0.000721541 0.000711529 -3.00954e-06
-6.30116e-06 -3.00954e-06 0.000276558
0.000597119 5.08408e-05 6.64869e-07
5.08408e-05 3.78837e-05 -9.09027e-07
6.64869e-07 -9.09027e-07 -6.9513e-06
0.000659602 -0.000126315 4.16353e-06
-0.000126315 0.000123876 -2.50501e-06
4.16353e-06 -2.50501e-06 3.10698e-05
0.000371893 7.36579e-05 -4.70248e-06
7.36579e-05 -5.2303e-05 1.03934e-06
-4.70248e-06 1.03934e-06 -0.00014855
0.00074891 -4.64196e-05 -3.44881e-06
-4.64196e-05 0.000209197 4.93164e-06
-3.44881e-06 4.93164e-06 4.48644e-05
0.000356853 -6.48088e-05 1.46672e-06
-6.48088e-05 -6.78947e-05 -9.80154e-07
1.46672e-06 -9.80154e-07 -0.000256364
-0.000783171 -3.99109e-06 6.2252e-07
-3.99109e-06 -0.000712196 -1.2271e-07
6.2252e-07 -1.2271e-07 -0.00101167
0.00114773 -0.000404521 -1.35461e-05
-0.000404521 0.000208364 3.32787e-06
-1.35461e-05 3.32787e-06 -9.28873e-05
0.00289293 -0.00048168 -1.58308e-05
-0.00048168 0.00150627 6.75654e-06
-1.58308e-05 6.75654e-06 0.00100717
0.000610884 7.53517e-06 -3.53075e-07
7.53517e-06 7.15141e-05 -1.28466e-06
-3.53075e-07 -1.28466e-06 -2.79057e-05
0.000754343 9.62449e-05 7.24472e-07
9.62449e-05 0.000214053 -8.60662e-07
7.24472e-07 -8.60662e-07 3.25638e-05
0.00221003 0.000417612 -2.00032e-06
0.000417612 0.000251801 -1.21154e-06
-2.00032e-06 -1.21154e-06 0.000113479
0.000704753 0.000122258 -1.10499e-06
0.000122258 0.00014822 2.37667e-06
-1.10499e-06 2.37667e-06 -4.98127e-05
0.00199048 0.000414481 1.07038e-06
0.000414481 0.000746485 1.84426e-06
1.07038e-06 1.84426e-06 0.000474062
0.000253395 0.00018372 -6.01187e-07
0.00018372 -0.00029182 4.17891e-08
-6.01187e-07 4.17891e-08 -0.000458496
0.00219113 0.000528328 -2.71622e-06
0.000528328 0.000417371 -3.12392e-07
-2.71622e-06 -3.12392e-07 0.000171236
0.00206919 0.000517891 -5.00304e-06
0.000517891 0.000237147 5.40292e-06
-5.00304e-06 5.40292e-06 1.84476e-05
0.00171506 0.000486528 -4.40011e-07
0.000486528 0.000523771 8.74355e-07
-4.40011e-07 8.74355e-07 0.000187635
0.00150525 0.000550072 6.14554e-07
0.000550072 0.000192263 3.73979e-07
6.14554e-07 3.73979e-07 -0.000129105
0.000170964 3.18866e-05 -1.20643e-07
3.18866e-05 -0.000176636 1.11474e-06
-1.20643e-07 1.11474e-06 -0.000294056
0.000285426 0.000148958 -9.41582e-07
0.000148958 -3.08889e-05 -3.03294e-06
-9.41582e-07 -3.03294e-06 -0.000250913
0.00152958 0.000386131 3.49545e-06
0.000386131 0.000443177 -4.2919e-07
3.49545e-06 -4.2919e-07 0.00016736
0.000691472 0.000215411 -2.92317e-06
0.000215411 3.45335e-05 -2.02948e-06
-2.92317e-06 -2.02948e-06 -0.000164773
0.00214725 0.00039913 9.03695e-07
0.00039913 -2.21365e-05 -8.00683e-07
9.03695e-07 -8.00683e-07 -4.97688e-05
0.00237228 0.000505672 3.20714e-06
0.000505672 0.000364586 5.40862e-07
3.20714e-06 5.40862e-07 0.000184275
0.00195449 0.000577199 -4.4116e-07
0.000577199 0.000296698 5.61545e-07
-4.4116e-07 5.61545e-07 5.18242e-06
0.00144875 0.000511847 6.14089e-07
0.000511847 0.000253444 5.09957e-07
6.14089e-07 5.09957e-07 -9.16557e-05
0.000125652 4.81063e-05 -1.798e-06
4.81063e-05 -0.000209687 4.11733e-06
-1.798e-06 4.11733e-06 -0.00033281
0.00208796 0.000321226 4.63798e-06
0.000321226 -0.000121541 3.85307e-06
4.63798e-06 3.85307e-06 -8.17934e-05
0.00184121 0.000358007 4.8191e-06
0.000358007 0.00086411 7.33739e-06
4.8191e-06 7.33739e-06 0.000595138
0.00138238 0.000389793 5.35038e-06
0.000389793 0.000324106 6.11618e-07
5.35038e-06 6.11618e-07 5.03712e-05
0.00248807 0.000497414 -1.76142e-05
0.000497414 0.000296125 -7.11931e-06
-1.76142e-05 -7.11931e-06 0.000188905
0.00101285 0.000529897 -9.79081e-06
0.000529897 -0.000338755 -9.27286e-06
-9.79081e-06 -9.27286e-06 -0.000612444
0.00209962 0.000607907 -3.4745e-06
0.000607907 0.000573919 2.3272e-06
-3.4745e-06 2.3272e-06 0.000204832
0.000727951 8.21829e-05 -9.86948e-07
8.21829e-05 0.000145459 -7.752e-07
-9.86948e-07 -7.752e-07 3.93394e-05
0.000663371 7.72895e-05 -2.48057e-06
7.72895e-05 0.000115029 -6.30436e-07
-2.48057e-06 -6.30436e-07 1.62215e-05
0.00125343 7.52417e-05 -3.68105e-06
7.52417e-05 0.000478979 -1.0422e-06
-3.68105e-06 -1.0422e-06 0.000397857
0.00055818 2.32246e-06 2.01565e-07
2.32246e-06 5.05126e-05 -2.88414e-06
2.01565e-07 -2.88414e-06 -4.60997e-05
0.000674847 6.91805e-05 1.52151e-06
6.91805e-05 0.000136906 1.20015e-07
1.52151e-06 1.20015e-07 1.28315e-05
0.000191971 5.24617e-05 -1.04925e-06
5.24617e-05 -0.00014329 3.81852e-06
-1.04925e-06 3.81852e-06 -0.000250783
0.000588745 1.33742e-05 -9.35556e-07
1.33742e-05 7.69193e-05 1.79182e-08
-9.35556e-07 1.79182e-08 -2.6247e-05
0.000370866 -1.51311e-05 -7.92343e-07
-1.51311e-05 -3.91434e-05 2.56731e-07
-7.92343e-07 2.56731e-07 -0.000166684
0.000308747 3.11606e-05 5.6377e-07
3.11606e-05 -0.000104299 5.84635e-07
5.6377e-07 5.84635e-07 -0.000181744
0.000751531 7.05741e-05 8.81869e-07
7.05741e-05 0.000189707 -8.10169e-07
8.81869e-07 -8.10169e-07 5.91418e-05
0.00141235 8.95534e-05 -5.72724e-07
8.95534e-05 0.000541261 -2.8558e-06
-5.72724e-07 -2.8558e-06 0.000483515
0.000571265 8.68888e-06 5.86882e-06
8.68888e-06 5.38603e-05 -4.83591e-06
5.86882e-06 -4.83591e-06 -3.50372e-05
0.000524369 7.54948e-05 2.02731e-07
7.54948e-05 6.00274e-05 2.00169e-06
2.02731e-07 2.00169e-06 -8.38252e-05
0.000611797 4.27253e-05 2.51347e-06
4.27253e-05 0.000107459 2.10156e-06
2.51347e-06 2.10156e-06 -3.41954e-05
0.000611639 3.25603e-05 2.1152e-06
3.25603e-05 8.45458e-05 2.51691e-06
2.1152e-06 2.51691e-06 -1.88098e-05
0.000506388 -4.46866e-05 -8.6774e-08
-4.46866e-05 6.30243e-06 2.71503e-06
-8.6774e-08 2.71503e-06 -6.1582e-05
0.00052879 1.33886e-06 -2.66882e-07
1.33886e-06 1.62623e-05 -1.80792e-07
-2.66882e-07 -1.80792e-07 -4.68095e-05
0.00127617 1.2408e-05 1.96666e-06
1.2408e-05 0.000447626 2.54843e-06
1.96666e-06 2.54843e-06 0.000432798
0.000529412 -1.4246e-05 5.29712e-07
-1.4246e-05 1.05759e-05 -2.86137e-06
5.29712e-07 -2.86137e-06 -4.72939e-05
0.00129228 2.08739e-06 -3.91035e-06
2.08739e-06 0.000451873 -1.61585e-06
-3.91035e-06 -1.61585e-06 0.000438438
0.000764972 -1.31697e-05 1.58174e-05
-1.31697e-05 0.000126439 8.54638e-06
1.58174e-05 8.54638e-06 0.000133284
0.00135226 -1.01278e-05 -7.15613e-06
-1.01278e-05 0.000484516 -6.10757e-06
-7.15613e-06 -6.10757e-06 0.000471242
0.000788852 -2.37346e-05 5.28857e-06
-2.37346e-05 0.000136474 3.34242e-06
5.28857e-06 3.34242e-06 0.000142292
0.00074972 -3.25777e-05 -2.90452e-07
-3.25777e-05 0.000112022 -2.48352e-06
-2.90452e-07 -2.48352e-06 0.000116812
0.000643641 2.65877e-06 1.8186e-06
2.65877e-06 6.41723e-05 -1.74743e-06
1.8186e-06 -1.74743e-06 2.17221e-05
0.000485293 2.87353e-05 5.16457e-07
2.87353e-05 -4.75964e-05 -3.37229e-06
5.16457e-07 -3.37229e-06 -6.02896e-05
0.000494341 4.19902e-05 3.26959e-07
4.19902e-05 -3.01355e-05 1.99019e-07
3.26959e-07 1.99019e-07 -4.88216e-05
0.0021248 7.8331e-05 1.57266e-05
7.8331e-05 0.000980759 -3.95685e-06
1.57266e-05 -3.95685e-06 0.00098978
0.000513036 6.51491e-05 4.93141e-06
6.51491e-05 1.36164e-06 5.97306e-06
4.93141e-06 5.97306e-06 -3.03426e-05
0.00245222 0.000105228 -5.45763e-06
0.000105228 0.0011927 -5.12335e-07
-5.45763e-06 -5.12335e-07 0.00119472
0.00293002 0.000122003 -2.91119e-05
0.000122003 0.00149146 4.74813e-06
-2.91119e-05 4.74813e-06 0.00148796
0.0020939 0.000319267 -1.02303e-07
0.000319267 0.00010376 1.46924e-07
-1.02303e-07 1.46924e-07 2.01751e-05
0.00202273 0.000181744 -3.0014e-06
0.000181744 4.10147e-05 -8.49332e-07
-3.0014e-06 -8.49332e-07 1.80542e-05
0.0019388 5.61739e-05 -3.82924e-06
5.61739e-05 2.18756e-05 -2.45704e-07
-3.82924e-06 -2.45704e-07 9.22244e-06
0.0018792 -3.96203e-06 -4.94994e-06
-3.96203e-06 2.39335e-05 -1.14932e-07
-4.94994e-06 -1.14932e-07 -8.83923e-06
0.0019225 -7.22518e-06 -8.74683e-07
-7.22518e-06 1.09477e-05 2.77875e-08
-8.74683e-07 2.77875e-08 2.15121e-06
0.00203883 9.50442e-05 -6.5577e-08
9.50442e-05 -1.10507e-05 1.18254e-07
-6.5577e-08 1.18254e-07 6.06009e-06
0.00213954 0.00027685 -9.7279e-07
0.00027685 2.66376e-05 -1.17552e-07
-9.7279e-07 -1.17552e-07 5.43675e-06
0.00201082 -9.4698e-06 3.26886e-07
-9.4698e-06 -2.80293e-05 -5.41988e-07
3.26886e-07 -5.41988e-07 -1.97364e-06
0.00219973 0.000148042 4.2733e-06
0.000148042 -1.66361e-05 1.09219e-08
4.2733e-06 1.09219e-08 1.06027e-05
0.00238602 9.96552e-05 2.73075e-06
9.96552e-05 0.000159431 1.10117e-05
2.73075e-06 1.10117e-05 0.000224599
0.00192621 -7.85322e-05 -4.20717e-06
-7.85322e-05 1.06866e-05 4.28778e-07
-4.20717e-06 4.28778e-07 -3.49726e-06
0.00197502 -0.000210212 -2.506e-06
-0.000210212 -2.57554e-05 5.42768e-07
-2.506e-06 5.42768e-07 -3.24477e-05
0.00199458 -0.000334019 -1.90624e-06
-0.000334019 5.24766e-05 8.52449e-07
-1.90624e-06 8.52449e-07 5.37977e-06
0.000756668 -0.000357858 2.60976e-07
-0.000357858 -4.77608e-05 2.22829e-06
2.60976e-07 2.22829e-06 -0.000347823
0.00160127 -0.000590247 3.15666e-06
-0.000590247 0.000334214 2.03125e-07
3.15666e-06 2.03125e-07 -5.24168e-05
0.00207695 -0.000638246 -8.61203e-07
-0.000638246 0.000461766 3.27088e-08
-8.61203e-07 3.27088e-08 0.000116795
0.00197039 -0.000435424 2.98269e-07
-0.000435424 5.40046e-05 2.26075e-06
2.98269e-07 2.26075e-06 -5.15856e-05
0.0018184 -0.000517939 -6.27196e-06
-0.000517939 0.000100717 -4.18753e-06
-6.27196e-06 -4.18753e-06 -0.000101915
0.000626125 -0.000319753 -6.92143e-06
-0.000319753 -0.000103099 3.10006e-06
-6.92143e-06 3.10006e-06 -0.000385547
0.00207273 -0.000362398 1.39511e-05
-0.000362398 0.000956721 -5.1586e-06
1.39511e-05 -5.1586e-06 0.000602308
0.000953576 -5.47087e-05 5.28311e-07
-5.47087e-05 0.000295165 9.18568e-07
5.28311e-07 9.18568e-07 6.227e-05
0.000459723 1.70319e-05 9.96305e-07
1.70319e-05 -3.43694e-05 -3.74197e-07
9.96305e-07 -3.74197e-07 -8.68863e-05
0.000830084 3.50643e-05 4.42165e-06
3.50643e-05 0.000233407 5.34534e-07
4.42165e-06 5.34534e-07 0.000106661
0.000683208 -7.8336e-05 1.15667e-06
-7.8336e-05 0.000167229 1.80807e-06
1.15667e-06 1.80807e-06 -2.30425e-05
0.00201419 -0.000108747 5.22908e-07
-0.000108747 -1.76061e-05 3.32204e-08
5.22908e-07 3.32204e-08 2.40709e-06
0.00052824 1.59545e-05 1.28564e-06
1.59545e-05 -3.48845e-06 2.23549e-07
1.28564e-06 2.23549e-07 -4.78975e-05
0.000463961 -6.10106e-05 -1.84971e-06
-6.10106e-05 -2.09645e-05 -1.85024e-07
-1.84971e-06 -1.85024e-07 -9.77103e-05
0.00210153 -0.000281527 -2.41864e-07
-0.000281527 -1.19001e-05 1.684e-07
-2.41864e-07 1.684e-07 1.15644e-05
0.00203821 -0.00038095 -1.37921e-06
-0.00038095 3.52301e-05 1.30052e-07
-1.37921e-06 1.30052e-07 7.86692e-06
0.00149409 -0.000502602 -2.37917e-06
-0.000502602 0.000366241 5.88846e-07
-2.37917e-06 5.88846e-07 2.04402e-06
0.00182713 -0.00066659 1.08092e-06
-0.00066659 0.000441119 1.17719e-06
1.08092e-06 1.17719e-06 9.16428e-06
0.00174103 -0.000642392 4.62898e-06
-0.000642392 0.000194672 -2.7209e-06
4.62898e-06 -2.7209e-06 -0.000132609
0.00216742 -0.000570279 2.66408e-06
-0.000570279 0.000161101 -7.123e-07
2.66408e-06 -7.123e-07 2.30652e-05
0.000717873 -2.4439e-06 2.26806e-07
-2.4439e-06 0.000166009 -1.41276e-06
2.26806e-07 -1.41276e-06 6.65622e-05
0.000683384 -3.55587e-05 1.4024e-07
-3.55587e-05 0.000168903 1.62803e-06
1.4024e-07 1.62803e-06 4.09877e-06
0.00149956 -0.000423964 2.19014e-06
-0.000423964 0.000415096 -1.90501e-07
2.19014e-06 -1.90501e-07 0.000103211
0.00166399 -0.000347938 1.68869e-05
-0.000347938 0.000764007 -4.25334e-06
1.68869e-05 -4.25334e-06 0.000341474
0.000395462 -5.41762e-05 -3.85455e-06
-5.41762e-05 -3.18575e-05 -1.277e-06
-3.85455e-06 -1.277e-06 -0.000303292
0.000604061 -4.24969e-05 9.72916e-07
-4.24969e-05 9.61164e-05 -1.298e-06
9.72916e-07 -1.298e-06 -0.000104599
0.00205297 -0.000127036 2.54927e-06
-0.000127036 -9.38649e-05 -1.12629e-06
2.54927e-06 -1.12629e-06 -6.56187e-05
0.00205917 -0.000354474 -7.04463e-07
-0.000354474 -0.000154501 1.24205e-06
-7.04463e-07 1.24205e-06 -1.92484e-05
0.00214614 -0.000513695 -5.53681e-06
-0.000513695 3.2754e-05 -2.84053e-07
-5.53681e-06 -2.84053e-07 -1.96979e-05
0.00164293 -0.000663086 4.39689e-06
-0.000663086 -2.66741e-05 -2.82282e-06
4.39689e-06 -2.82282e-06 -0.000211727
0.00118638 -0.000484407 -1.76905e-06
-0.000484407 0.000213934 -7.65026e-06
-1.76905e-06 -7.65026e-06 -0.000158864
0.00238652 -0.000789796 -1.104e-05
-0.000789796 0.000692779 1.03224e-05
-1.104e-05 1.03224e-05 0.000227526
0.000262586 4.88632e-05 -1.20935e-06
4.88632e-05 -0.00013184 -2.78622e-06
-1.20935e-06 -2.78622e-06 -0.000216012
0.000624782 -5.88404e-05 4.91594e-06
-5.88404e-05 7.39504e-05 -6.2794e-07
4.91594e-06 -6.2794e-07 2.01546e-07
0.000975097 -0.000123949 1.68149e-06
-0.000123949 0.000295076 4.26155e-06
1.68149e-06 4.26155e-06 0.000192384
0.00051568 2.44765e-05 -3.88322e-06
2.44765e-05 5.09796e-05 8.89551e-06
-3.88322e-06 8.89551e-06 -8.90554e-05
0.000786028 -8.56186e-05 -4.98591e-06
-8.56186e-05 0.000206574 7.58122e-06
-4.98591e-06 7.58122e-06 4.02199e-05
0.00156398 -4.85982e-05 4.77838e-06
-4.85982e-05 0.00060368 -1.3575e-06
4.77838e-06 -1.3575e-06 0.000402241
-0.00101551 -0.000159687 7.75102e-06
-0.000159687 -0.000563388 -5.21725e-07
7.75102e-06 -5.21725e-07 -0.00116159
-0.000233887 -0.000381289 -2.97533e-05
-0.000381289 -0.000632802 2.65869e-06
-2.97533e-05 2.65869e-06 -0.000926935
0.000362069 5.60259e-05 -2.45709e-08
5.60259e-05 -5.15948e-05 -7.33647e-07
-2.45709e-08 -7.33647e-07 -0.000181636
0.00101251 0.000194807 -7.76913e-06
0.000194807 0.000401903 -5.34277e-06
-7.76913e-06 -5.34277e-06 0.000180127
0.00222297 0.000388501 -5.68557e-06
0.000388501 2.39368e-05 -3.19224e-06
-5.68557e-06 -3.19224e-06 -4.37993e-06
0.00216585 0.000501292 -2.77849e-06
0.000501292 0.000250064 6.85187e-07
-2.77849e-06 6.85187e-07 6.51683e-05
0.00185173 0.00028816 -6.91354e-06
0.00028816 0.000721764 -1.08343e-06
-6.91354e-06 -1.08343e-06 0.00052
0.0018527 0.000422548 -4.45852e-06
0.000422548 0.000636427 -3.84224e-06
-4.45852e-06 -3.84224e-06 0.000353725
0.00199512 0.000571712 2.63553e-06
0.000571712 0.000315581 2.45826e-06
2.63553e-06 2.45826e-06 2.8054e-05
0.00175274 0.000541413 -2.64785e-07
0.000541413 0.000417183 -2.90042e-07
-2.64785e-07 -2.90042e-07 7.09551e-05
0.000480805 8.53099e-05 7.25361e-07
8.53099e-05 2.12044e-05 -9.42988e-07
7.25361e-07 -9.42988e-07 -0.00012055
0.0022307 0.00030559 -1.784e-06
0.00030559 -3.46825e-05 -1.46705e-06
-1.784e-06 -1.46705e-06 8.80932e-06
0.00139124 0.000272822 1.50901e-06
0.000272822 0.000572739 1.65925e-06
1.50901e-06 1.65925e-06 0.000328404
0.00146427 0.000398566 1.33548e-06
0.000398566 0.000383823 7.16721e-07
1.33548e-06 7.16721e-07 0.000104051
0.00242813 0.000494755 1.86157e-06
0.000494755 0.000267411 4.84845e-07
1.86157e-06 4.84845e-07 0.000162005
0.00161327 0.000574364 -1.82807e-06
0.000574364 2.6836e-06 -4.42901e-06
-1.82807e-06 -4.42901e-06 -0.000273711
0.00189324 0.000582523 4.12777e-07
0.000582523 0.000464145 4.75857e-07
4.12777e-07 4.75857e-07 9.87218e-05
0.00111443 0.000208216 -4.42197e-06
0.000208216 0.000437482 4.63018e-06
-4.42197e-06 4.63018e-06 0.000241888
0.00279029 0.000386781 -6.37082e-05
0.000386781 0.000347714 -1.82896e-05
-6.37082e-05 -1.82896e-05 0.000409474
0.0019045 0.000434292 -5.1852e-06
0.000434292 0.000787124 2.45179e-06
-5.1852e-06 2.45179e-06 0.0005106
0.00156433 0.000477942 -3.58147e-06
0.000477942 0.000358436 -4.93705e-06
-3.58147e-06 -4.93705e-06 2.7187e-05
0.00237628 0.000646877 -3.44898e-05
0.000646877 0.000307228 -1.70969e-05
-3.44898e-05 -1.70969e-05 0.000108108
0.000941571 0.000513636 -2.51844e-05
0.000513636 -0.000127909 -3.3565e-06
-2.51844e-05 -3.3565e-06 -0.000469701
0.000626388 0.000549174 3.27079e-05
0.000549174 -0.00104262 -3.25542e-05
3.27079e-05 -3.25542e-05 -0.00110341
0.00028834 8.95622e-05 2.27021e-06
8.95622e-05 -9.66757e-05 -3.25232e-07
2.27021e-06 -3.25232e-07 -0.00020151
0.000561759 7.99409e-05 -4.95633e-07
7.99409e-05 8.7239e-05 1.02296e-06
-4.95633e-07 1.02296e-06 9.38121e-07
0.00166811 0.000123002 3.68922e-07
0.000123002 0.000720238 -1.84216e-06
3.68922e-07 -1.84216e-06 0.000637028
0.000503085 -6.4267e-05 6.59886e-07
-6.4267e-05 3.32391e-05 -3.34731e-06
6.59886e-07 -3.34731e-06 -7.39197e-05
0.000446363 -4.03308e-05 -1.17234e-06
-4.03308e-05 2.46443e-06 -4.56709e-07
-1.17234e-06 -4.56709e-07 -0.000121132
0.000929575 0.000158168 8.23877e-08
0.000158168 0.000301004 1.45922e-06
8.23877e-08 1.45922e-06 0.000161659
4.15188e-05 1.32938e-05 -2.58396e-06
1.32938e-05 -0.000250329 9.2615e-06
-2.58396e-06 9.2615e-06 -0.000327433
0.000571948 -1.80509e-05 -4.91923e-07
-1.80509e-05 7.47301e-05 -2.97904e-08
-4.91923e-07 -2.97904e-08 -3.69565e-05
0.00054606 5.56774e-05 1.26411e-07
5.56774e-05 5.04282e-05 -5.54543e-07
1.26411e-07 -5.54543e-07 -7.72581e-05
0.000956759 7.58692e-05 5.09565e-07
7.58692e-05 0.000266883 2.84882e-06
5.09565e-07 2.84882e-06 0.000205657
0.000655173 4.51146e-05 1.40531e-06
4.51146e-05 0.000123903 5.82108e-07
1.40531e-06 5.82108e-07 -1.12969e-05
0.000678801 3.27353e-05 -1.49997e-06
3.27353e-05 0.00011363 -1.27104e-06
-1.49997e-06 -1.27104e-06 1.94976e-05
0.00131197 8.97643e-05 1.53796e-07
8.97643e-05 0.000500665 -8.92503e-06
1.53796e-07 -8.92503e-06 0.000439686
0.000974715 8.91107e-05 -2.34373e-06
8.91107e-05 0.000298905 -2.18646e-06
-2.34373e-06 -2.18646e-06 0.000154972
0.000891578 0.000106563 9.84995e-07
0.000106563 0.000259634 9.11994e-07
9.84995e-07 9.11994e-07 0.000126105
0.000747338 6.21424e-05 3.92992e-07
6.21424e-05 0.000191632 1.30807e-06
3.92992e-07 1.30807e-06 3.9503e-05
0.000355903 -2.32176e-05 3.12387e-08
-2.32176e-05 -7.45585e-05 2.97002e-06
3.12387e-08 2.97002e-06 -0.000183871
0.000959136 -3.78654e-05 -2.1968e-08
-3.78654e-05 0.000350062 -1.37141e-06
-2.1968e-08 -1.37141e-06 0.000192058
0.000292888 -3.09579e-05 -1.66341e-06
-3.09579e-05 -0.000109293 2.64593e-06
-1.66341e-06 2.64593e-06 -0.000223075
0.000498084 3.36498e-06 -1.87839e-06
3.36498e-06 5.40436e-06 2.86112e-06
-1.87839e-06 2.86112e-06 -6.68746e-05
0.000517605 3.18237e-05 2.1484e-06
3.18237e-05 1.51492e-05 -1.2758e-07
2.1484e-06 -1.2758e-07 -5.47928e-05
0.000437735 2.15168e-05 1.26932e-06
2.15168e-05 -6.06671e-05 4.07593e-06
1.26932e-06 4.07593e-06 -8.062e-05
0.000501009 5.64048e-06 -2.81886e-06
5.64048e-06 3.62479e-06 -2.88865e-06
-2.81886e-06 -2.88865e-06 -6.26445e-05
0.000903299 1.40117e-05 -2.93254e-06
1.40117e-05 0.000219835 -1.62891e-06
-2.93254e-06 -1.62891e-06 0.000202745
0.00251678 -1.04096e-05 1.26711e-05
-1.04096e-05 0.00120348 5.2886e-06
1.26711e-05 5.2886e-06 0.00121737
0.00137001 4.56345e-06 -5.90447e-06
4.56345e-06 0.000500087 -5.97054e-06
-5.90447e-06 -5.97054e-06 0.000486277
0.000778074 -1.43013e-05 3.83052e-06
-1.43013e-05 0.000131448 3.30916e-06
3.83052e-06 3.30916e-06 0.000138106
0.000777986 -2.31484e-05 2.41347e-07
-2.31484e-05 0.000127272 -2.43624e-06
2.41347e-07 -2.43624e-06 0.00013317
0.00053609 1.67112e-05 -1.15186e-06
1.67112e-05 3.29283e-06 -1.62995e-06
-1.15186e-06 -1.62995e-06 -3.90677e-05
0.000577543 -1.09905e-05 1.0091e-06
-1.09905e-05 2.48316e-05 -2.58985e-07
1.0091e-06 -2.58985e-07 -1.84317e-05
0.000533664 2.26173e-05 4.56591e-07
2.26173e-05 -2.04861e-05 -3.37819e-06
4.56591e-07 -3.37819e-06 -3.11195e-05
0.000817528 3.65423e-05 -2.19691e-07
3.65423e-05 0.00015905 8.42156e-08
-2.19691e-07 8.42156e-08 0.00014748
0.0021022 6.29314e-05 1.22727e-05
6.29314e-05 0.000959242 -4.19245e-06
1.22727e-05 -4.19245e-06 0.000971578
0.00050774 4.80667e-05 2.46802e-06
4.80667e-05 -1.91356e-05 4.0458e-06
2.46802e-06 4.0458e-06 -3.96032e-05
0.00225834 8.42255e-05 -2.95844e-06
8.42255e-05 0.00106433 -2.353e-07
-2.95844e-06 -2.353e-07 0.00107185
0.00255354 0.000110199 -1.27515e-05
0.000110199 0.00125558 4.71121e-06
-1.27515e-05 4.71121e-06 0.00125636
0.00207451 0.000280526 -2.79357e-06
0.000280526 -1.24083e-05 -1.40346e-06
-2.79357e-06 -1.40346e-06 -3.06667e-05
0.00202202 8.96894e-05 -1.73169e-07
8.96894e-05 -1.36035e-05 1.40815e-07
-1.73169e-07 1.40815e-07 1.16065e-06
0.00192268 -3.57984e-06 -3.48724e-06
-3.57984e-06 8.16292e-06 -1.03744e-07
-3.48724e-06 -1.03744e-07 2.56938e-06
0.00200753 -6.41835e-06 1.42393e-07
-6.41835e-06 -2.81423e-05 -1.84425e-07
1.42393e-07 -1.84425e-07 -2.43827e-06
0.00217829 0.00015076 -2.13426e-07
0.00015076 -1.33001e-05 2.69016e-07
-2.13426e-07 2.69016e-07 1.2562e-05
0.00208732 7.98999e-05 7.38963e-06
7.98999e-05 -3.77328e-05 -4.17215e-06
7.38963e-06 -4.17215e-06 2.20892e-05
0.00219029 -4.66033e-06 1.14764e-06
-4.66033e-06 -5.47819e-05 -8.38837e-07
1.14764e-06 -8.38837e-07 3.30147e-06
0.00382757 0.000540645 4.19099e-05
0.000540645 -0.000398673 8.26014e-06
4.19099e-05 8.26014e-06 7.86581e-05
0.00238464 5.7703e-05 -2.91271e-05
5.7703e-05 0.000301997 2.6815e-05
-2.91271e-05 2.6815e-05 0.00045649
0.000519066 9.67738e-05 -1.05834e-06
9.67738e-05 3.32029e-05 -8.14967e-09
-1.05834e-06 -8.14967e-09 -4.9454e-05
0.00202255 -0.000109973 -7.63922e-07
-0.000109973 -1.96676e-05 1.23377e-07
-7.63922e-07 1.23377e-07 2.40363e-06
0.002077 -0.000271325 9.5854e-07
-0.000271325 -8.07743e-06 1.88404e-07
9.5854e-07 1.88404e-07 9.4864e-06
0.00199322 -0.00037625 -2.72314e-07
-0.00037625 8.03579e-06 1.26615e-06
-2.72314e-07 1.26615e-06 -1.51546e-05
0.000774682 -0.000429758 -8.80589e-06
-0.000429758 -5.46137e-05 5.8471e-06
-8.80589e-06 5.8471e-06 -0.000402684
0.00223488 -0.000708943 4.46348e-06
-0.000708943 0.000668329 6.91457e-06
4.46348e-06 6.91457e-06 0.000228589
0.001688 -0.000641117 -2.44757e-06
-0.000641117 0.000147877 -8.98788e-06
-2.44757e-06 -8.98788e-06 -0.000176457
0.00222428 -0.000570207 -3.54974e-06
-0.000570207 0.00020628 -8.66042e-07
-3.54974e-06 -8.66042e-07 6.71871e-05
0.00182968 -0.000440986 1.70281e-05
-0.000440986 0.00058578 -1.11454e-05
1.70281e-05 -1.11454e-05 0.000275437
0.000449951 -0.000210895 1.52417e-05
-0.000210895 3.68895e-05 -7.08746e-06
1.52417e-05 -7.08746e-06 -0.000319542
0.00137405 -9.01236e-05 2.6076e-06
-9.01236e-05 0.000533346 -1.37905e-07
2.6076e-06 -1.37905e-07 0.000287671
0.000535204 7.56938e-06 -1.39695e-07
7.56938e-06 2.67434e-06 1.25963e-06
-1.39695e-07 1.25963e-06 -4.1567e-05
0.000924328 -2.32815e-05 2.37228e-06
-2.32815e-05 0.000300563 9.80811e-07
2.37228e-06 9.80811e-07 8.96933e-05
0.00083297 -2.05654e-05 4.15758e-06
-2.05654e-05 0.000244237 -2.38945e-06
4.15758e-06 -2.38945e-06 0.000144378
0.000854678 -3.49633e-05 2.38376e-06
-3.49633e-05 0.000269767 -3.45484e-06
2.38376e-06 -3.45484e-06 0.000103958
0.000269163 -3.77627e-05 -3.81023e-06
-3.77627e-05 -0.00014749 1.26498e-06
-3.81023e-06 1.26498e-06 -0.000220796
0.00209627 -0.000143015 -4.579e-07
-0.000143015 -9.59786e-05 -3.86542e-08
-4.579e-07 -3.86542e-08 -4.72241e-05
0.00041308 3.24785e-05 -8.02319e-08
3.24785e-05 -3.05814e-05 -1.75841e-06
-8.02319e-08 -1.75841e-06 -0.000119501
0.000596113 -5.3155e-05 1.75127e-06
-5.3155e-05 7.39337e-05 7.94329e-07
1.75127e-06 7.94329e-07 -8.19898e-06
0.000819405 -9.68013e-05 1.56406e-06
-9.68013e-05 0.000196538 4.94658e-07
1.56406e-06 4.94658e-07 9.92727e-05
0.00208614 -0.000361714 1.55829e-06
-0.000361714 -0.000117605 -5.83543e-07
1.55829e-06 -5.83543e-07 -1.22261e-05
0.00216801 -0.00051795 5.9404e-07
-0.00051795 4.6407e-05 -8.41484e-07
5.9404e-07 -8.41484e-07 -6.81744e-06
0.000817853 -0.000412411 7.03612e-06
-0.000412411 5.67292e-06 -1.24976e-08
7.03612e-06 -1.24976e-08 -0.000338984
0.00241929 -0.000796541 9.66749e-06
-0.000796541 0.000712534 -4.69535e-07
9.66749e-06 -4.69535e-07 0.000257579
0.00215186 -0.000703476 -2.29266e-06
-0.000703476 0.000277052 1.71511e-06
-2.29266e-06 1.71511e-06 7.2361e-05
0.000234348 -2.97087e-05 -5.58106e-07
-2.97087e-05 -0.000119959 -1.03945e-06
-5.58106e-07 -1.03945e-06 -0.000249218
0.000899318 -8.89799e-05 -1.40983e-06
-8.89799e-05 0.000288381 9.57636e-07
-1.40983e-06 9.57636e-07 0.000107476
0.00123556 -0.00053686 -6.59346e-06
-0.00053686 0.000220215 1.29439e-06
-6.59346e-06 1.29439e-06 -0.000133632
0.000432297 -0.000137751 4.34363e-07
-0.000137751 0.000133224 -3.03629e-06
4.34363e-07 -3.03629e-06 -0.00033588
0.000732028 -6.07256e-05 6.27034e-07
-6.07256e-05 0.000102808 1.6041e-06
6.27034e-07 1.6041e-06 -8.90624e-05
0.00251043 -0.000272436 -1.99669e-06
-0.000272436 0.000140962 6.18945e-08
-1.99669e-06 6.18945e-08 0.000193699
0.00189463 -0.000390341 -1.57432e-05
-0.000390341 -0.000223928 4.59339e-06
-1.57432e-05 4.59339e-06 -7.18947e-05
0.0021437 -0.000659366 -1.06495e-05
-0.000659366 0.000109966 1.06604e-06
-1.06495e-05 1.06604e-06 -4.42233e-05
0.00325092 -0.000857478 -2.12577e-05
-0.000857478 0.00101086 -1.22521e-06
-2.12577e-05 -1.22521e-06 0.000733003
0.000957982 -0.000517743 -2.4612e-05
-0.000517743 8.56755e-05 -2.88726e-06
-2.4612e-05 -2.88726e-06 -0.000283763
0.000247355 -1.62854e-05 1.93563e-06
-1.62854e-05 -0.00012843 7.9879e-07
1.93563e-06 7.9879e-07 -0.000230196
0.000416798 7.69604e-06 7.79572e-07
7.69604e-06 -6.92787e-05 3.65196e-06
7.79572e-07 3.65196e-06 -0.000163482
-0.00020982 -3.41731e-05 -7.55451e-07
-3.41731e-05 -0.000416493 -2.98109e-06
-7.55451e-07 -2.98109e-06 -0.000513328
0.00192352 -0.000242654 -1.08788e-05
-0.000242654 0.000936414 1.5073e-05
-1.08788e-05 1.5073e-05 0.000767219
0.000964261 -9.35447e-05 -5.31183e-06
-9.35447e-05 0.000296409 1.46483e-05
-5.31183e-06 1.46483e-05 0.00013484
-0.00103353 -8.90501e-05 2.3546e-06
-8.90501e-05 -0.000501499 4.817e-06
2.3546e-06 4.817e-06 -0.00105155
-0.000350966 -0.000635779 -4.51101e-06
-0.000635779 -0.000323044 -6.6709e-06
-4.51101e-06 -6.6709e-06 -0.000924463
0.00104777 0.000147998 -7.3183e-07
0.000147998 0.000378251 -5.48357e-06
-7.3183e-07 -5.48357e-06 0.000215248
0.000448065 0.000130924 -3.57077e-06
0.000130924 -2.18017e-05 -2.77618e-06
-3.57077e-06 -2.77618e-06 -0.000227992
0.00236235 0.000284064 6.4874e-06
0.000284064 3.69047e-05 2.29936e-07
6.4874e-06 2.29936e-07 9.26998e-05
0.00232806 0.000490194 1.60474e-05
0.000490194 0.000213808 5.37528e-06
1.60474e-05 5.37528e-06 0.000113258
0.00218975 0.000615553 1.81892e-05
0.000615553 0.000334159 4.91408e-06
1.81892e-05 4.91408e-06 5.57852e-05
0.00121708 0.000372563 -7.33973e-07
0.000372563 0.000244121 7.17699e-07
-7.33973e-07 7.17699e-07 -3.48227e-05
0.00165689 0.000554174 3.05062e-06
0.000554174 0.000337624 3.23866e-06
3.05062e-06 3.23866e-06 -2.24547e-05
0.00165169 0.000204517 1.11202e-07
0.000204517 0.000727659 -1.38788e-07
1.11202e-07 -1.38788e-07 0.000547414
0.00250274 0.000328671 -6.83758e-07
0.000328671 0.000217542 1.31492e-06
-6.83758e-07 1.31492e-06 0.000292717
0.00134026 0.000346818 -1.9199e-06
0.000346818 0.000428406 2.26805e-06
-1.9199e-06 2.26805e-06 0.00017613
0.0015869 0.000484143 1.95557e-06
0.000484143 0.000402275 -4.43359e-07
1.95557e-06 -4.43359e-07 5.96879e-05
0.00209528 0.000618174 -2.54381e-06
0.000618174 0.000153662 -3.23869e-06
-2.54381e-06 -3.23869e-06 -2.37115e-05
0.00163581 0.00058822 -4.41403e-06
0.00058822 0.00027259 4.88423e-06
-4.41403e-06 4.88423e-06 -8.59526e-05
0.00292612 0.000767065 5.70592e-05
0.000767065 -0.000133604 5.27003e-06
5.70592e-05 5.27003e-06 -0.000306343
0.00118369 0.00026858 -5.91626e-06
0.00026858 0.00047653 1.82177e-06
-5.91626e-06 1.82177e-06 0.000266633
0.00348806 0.000600973 -8.17217e-05
0.000600973 0.000908933 -3.25814e-05
-8.17217e-05 -3.25814e-05 0.000846548
0.000912964 0.000352668 -4.1412e-06
0.000352668 4.11835e-05 2.54367e-07
-4.1412e-06 2.54367e-07 -0.000224749
3.03858e-05 0.000350673 -3.10616e-06
0.000350673 -0.000502519 -1.29701e-05
-3.10616e-06 -1.29701e-05 -0.000827031
0.000652389 0.000590612 -3.44355e-05
0.000590612 -0.000436449 -7.64382e-06
-3.44355e-05 -7.64382e-06 -0.000639294
0.0129553 0.000378946 -0.00034808
0.000378946 0.00232394 -4.95432e-05
-0.00034808 -4.95432e-05 0.00155534
0.00536413 0.00126135 5.01953e-05
0.00126135 -0.000192535 -7.4684e-05
5.01953e-05 -7.4684e-05 0.000161708
-0.000629308 0.000817188 -1.92742e-06
0.000817188 -0.00123509 3.61337e-06
-1.92742e-06 3.61337e-06 -0.00154645
-0.00244733 -0.001398 0.000912007
-0.001398 0.000307619 0.000193599
0.000912007 0.000193599 -0.00214681
0.0153068 -0.00543767 -1.61243e-05
-0.00543767 0.0047493 5.55534e-05
-1.61243e-05 5.55534e-05 0.00457865
0.000139723 8.19885e-05 6.88794e-06
8.19885e-05 -0.000147441 1.28717e-06
6.88794e-06 1.28717e-06 -0.000237817
0.00104744 9.01215e-05 7.22666e-07
9.01215e-05 0.000379592 -2.25791e-06
7.22666e-07 -2.25791e-06 0.00029893
0.00181792 0.000205787 -1.15548e-06
0.000205787 0.00086559 -9.09664e-07
-1.15548e-06 -9.09664e-07 0.000755417
0.000544201 -5.91874e-05 -7.89792e-07
-5.91874e-05 6.66097e-05 -2.40148e-06
-7.89792e-07 -2.40148e-06 -5.02099e-05
0.00051395 6.22418e-05 -1.08703e-06
6.22418e-05 3.34713e-05 -1.97003e-06
-1.08703e-06 -1.97003e-06 -9.7645e-05
0.00071496 -1.54311e-05 -6.2663e-08
-1.54311e-05 0.000160416 -8.92477e-07
-6.2663e-08 -8.92477e-07 2.432e-05
0.000688074 5.45098e-05 -3.75839e-06
5.45098e-05 0.000114228 7.38649e-06
-3.75839e-06 7.38649e-06 1.56096e-05
0.000502482 5.75451e-05 2.19154e-06
5.75451e-05 -8.67005e-06 7.21018e-06
2.19154e-06 7.21018e-06 -7.23309e-05
0.000706944 0.000104721 -1.91009e-06
0.000104721 0.000167419 -4.75014e-07
-1.91009e-06 -4.75014e-07 1.74807e-05
0.000454544 -6.3553e-06 3.74402e-07
-6.3553e-06 -5.83489e-06 9.22706e-07
3.74402e-07 9.22706e-07 -0.00011908
0.000659085 3.17079e-05 -4.25219e-07
3.17079e-05 0.000132359 -3.23383e-08
-4.25219e-07 -3.23383e-08 -1.3853e-05
0.000578574 7.03488e-05 -1.18883e-07
7.03488e-05 4.72724e-05 -4.665e-07
-1.18883e-07 -4.665e-07 -1.41242e-05
0.000729952 8.9373e-05 -1.36002e-06
8.9373e-05 0.000156197 -3.72659e-07
-1.36002e-06 -3.72659e-07 1.65671e-05
0.00109565 0.000134677 -1.75765e-06
0.000134677 0.000396116 -9.96006e-07
-1.75765e-06 -9.96006e-07 0.000237792
0.000346153 8.48013e-05 6.57773e-07
8.48013e-05 -3.88061e-05 -2.90842e-06
6.57773e-07 -2.90842e-06 -0.000182382
0.000785089 9.45867e-05 2.53098e-06
9.45867e-05 0.000206091 5.43196e-07
2.53098e-06 5.43196e-07 6.25658e-05
0.000555621 -3.14647e-05 1.75979e-06
-3.14647e-05 5.51388e-05 6.46445e-07
1.75979e-06 6.46445e-07 -8.82222e-05
0.000375648 -6.42356e-05 -1.38086e-06
-6.42356e-05 -5.67287e-05 2.59166e-06
-1.38086e-06 2.59166e-06 -0.000173867
0.000734317 -1.62483e-05 -8.50206e-07
-1.62483e-05 0.000176264 8.04978e-08
-8.50206e-07 8.04978e-08 2.97041e-05
0.000985787 2.45205e-05 -1.64757e-07
2.45205e-05 0.000326465 -6.99198e-06
-1.64757e-07 -6.99198e-06 0.000185144
0.00054167 -3.02276e-05 -8.49753e-07
-3.02276e-05 8.21682e-05 -2.04317e-07
-8.49753e-07 -2.04317e-07 -5.53073e-05
0.00077838 -3.89724e-05 1.59516e-06
-3.89724e-05 0.000214987 -6.10572e-07
1.59516e-06 -6.10572e-07 7.30348e-05
0.000660984 -0.000107367 -2.59236e-06
-0.000107367 0.000123818 1.67585e-06
-2.59236e-06 1.67585e-06 8.54403e-06
0.000356536 -1.97796e-05 1.5391e-07
-1.97796e-05 -6.7098e-05 1.08736e-06
1.5391e-07 1.08736e-06 -0.000183899
0.000530928 -4.11904e-05 -2.20557e-06
-4.11904e-05 1.70654e-05 3.06739e-06
-2.20557e-06 3.06739e-06 -5.09997e-05
0.000531819 -3.02802e-05 1.63205e-06
-3.02802e-05 2.35772e-05 5.69268e-08
1.63205e-06 5.69268e-08 -4.76231e-05
0.000500401 4.76773e-06 1.53135e-06
4.76773e-06 -2.06624e-05 5.96477e-06
1.53135e-06 5.96477e-06 -4.1333e-05
0.000549903 3.83537e-05 -1.53331e-06
3.83537e-05 3.0166e-05 -2.95787e-06
-1.53331e-06 -2.95787e-06 -3.68215e-05
0.000462191 2.04574e-05 4.19511e-07
2.04574e-05 -4.528e-05 5.57992e-08
4.19511e-07 5.57992e-08 -6.54967e-05
0.00245701 3.58621e-07 5.5353e-07
3.58621e-07 0.00116837 5.2763e-06
5.5353e-07 5.2763e-06 0.00118217
0.000524928 2.20808e-05 -2.23934e-06
2.20808e-05 -1.1374e-05 -6.3635e-06
-2.23934e-06 -6.3635e-06 -3.15852e-05
0.00166758 -8.39235e-06 -7.8128e-07
-8.39235e-06 0.000680863 1.10904e-07
-7.8128e-07 1.10904e-07 0.000690462
0.000783925 -1.34935e-05 5.16499e-07
-1.34935e-05 0.000131806 -2.24223e-06
5.16499e-07 -2.24223e-06 0.000138685
0.000520501 -9.10098e-06 7.03888e-07
-9.10098e-06 -5.75124e-06 -1.20981e-06
7.03888e-07 -1.20981e-06 -4.46886e-05
0.000577179 -3.1845e-05 2.73627e-07
-3.1845e-05 2.99829e-05 -4.70726e-08
2.73627e-07 -4.70726e-08 -1.39554e-05
0.000547874 1.3488e-05 8.84576e-07
1.3488e-05 -1.38934e-05 -3.02763e-06
8.84576e-07 -3.02763e-06 -2.24518e-05
0.000531814 -2.71337e-05 -1.93203e-06
-2.71337e-05 -4.05947e-06 1.23815e-06
-1.93203e-06 1.23815e-06 -4.70706e-05
0.000805781 2.67556e-05 -4.97214e-08
2.67556e-05 0.000147229 -7.34274e-07
-4.97214e-08 -7.34274e-07 0.000138672
0.00199374 4.67556e-05 8.68804e-06
4.67556e-05 0.000887279 -4.3027e-06
8.68804e-06 -4.3027e-06 0.000902592
0.00051231 3.2418e-05 -3.07251e-07
3.2418e-05 -2.7851e-05 3.33141e-06
-3.07251e-07 3.33141e-06 -4.1706e-05
0.00214476 6.57929e-05 -6.54143e-06
6.57929e-05 0.000988059 1.1178e-06
-6.54143e-06 1.1178e-06 0.000999624
0.00231122 8.85036e-05 -1.03051e-05
8.85036e-05 0.00109808 4.38811e-06
-1.03051e-05 4.38811e-06 0.00110459
0.00214783 0.000154463 -2.93972e-06
0.000154463 -1.4483e-05 -1.25951e-06
-2.93972e-06 -1.25951e-06 1.03066e-05
0.00200177 -5.24836e-06 -1.24028e-07
-5.24836e-06 -2.98607e-05 1.20556e-07
-1.24028e-07 1.20556e-07 -4.68455e-06
0.00182193 5.87714e-05 2.10362e-06
5.87714e-05 -0.000221977 1.08565e-06
2.10362e-06 1.08565e-06 -0.00016618
0.00238367 0.000392027 6.30754e-05
0.000392027 -0.000972517 1.45396e-05
6.30754e-05 1.45396e-05 -0.000583879
0.00215932 -2.53818e-05 -1.69538e-06
-2.53818e-05 -5.60189e-05 -1.87586e-06
-1.69538e-06 -1.87586e-06 2.58523e-06
0.00207138 6.16244e-05 1.94573e-06
6.16244e-05 0.000129678 -7.41655e-06
1.94573e-06 -7.41655e-06 0.000241194
0.00319315 -2.92116e-05 -2.73509e-05
-2.92116e-05 0.00088451 3.81685e-06
-2.73509e-05 3.81685e-06 0.00087884
0.00253253 -2.0898e-05 4.23119e-06
-2.0898e-05 -0.00172629 -2.75827e-05
4.23119e-06 -2.75827e-05 -0.00105825
0.0025866 0.000150894 7.94957e-05
0.000150894 -0.000471838 4.90578e-05
7.94957e-05 4.90578e-05 -8.89889e-05
0.000589492 7.94593e-05 4.34986e-07
7.94593e-05 7.83452e-05 -1.765e-07
4.34986e-07 -1.765e-07 -6.1758e-06
0.000593838 -6.02824e-06 4.65901e-07
-6.02824e-06 8.62845e-05 -1.37673e-07
4.65901e-07 -1.37673e-07 -2.5975e-06
0.000508076 -0.000100178 -2.26107e-06
-0.000100178 3.78372e-05 1.44143e-06
-2.26107e-06 1.44143e-06 -6.5729e-05
0.000503848 -4.78876e-05 -1.5355e-06
-4.78876e-05 5.42245e-05 1.15458e-06
-1.5355e-06 1.15458e-06 -5.62474e-05
0.00215325 -0.000158994 -4.30086e-06
-0.000158994 -8.50865e-05 6.68373e-07
-4.30086e-06 6.68373e-07 -1.99223e-05
0.00211504 -0.00036411 1.26158e-06
-0.00036411 -7.43243e-05 -7.97855e-07
1.26158e-06 -7.97855e-07 3.72937e-06
0.00217778 -0.000517616 -1.80104e-06
-0.000517616 5.56631e-05 1.25242e-06
-1.80104e-06 1.25242e-06 2.99304e-06
0.00287798 -0.000638098 1.05901e-05
-0.000638098 0.00117756 2.90363e-06
1.05901e-05 2.90363e-06 0.000801469
0.000734921 -0.000624853 9.66223e-06
-0.000624853 -0.000213109 -2.72792e-06
9.66223e-06 -2.72792e-06 -0.000635884
0.00239398 -0.000717623 5.41484e-06
-0.000717623 0.000433261 -3.0504e-06
5.41484e-06 -3.0504e-06 0.000216866
0.00179451 -0.000600479 -9.83174e-07
-0.000600479 0.000540302 -1.12316e-06
-9.83174e-07 -1.12316e-06 0.00014876
0.00260499 -0.000172487 2.96096e-06
-0.000172487 0.00125068 -3.07609e-07
2.96096e-06 -3.07609e-07 0.000912319
-0.000111189 -3.23355e-05 -6.47276e-07
-3.23355e-05 -0.000421714 5.51376e-08
-6.47276e-07 5.51376e-08 -0.00059374
0.000669353 -5.18657e-05 3.80664e-07
-5.18657e-05 0.000123226 7.62071e-07
3.80664e-07 7.62071e-07 4.0628e-05
0.000622334 -0.000109843 1.36763e-06
-0.000109843 0.000132908 -6.97139e-06
1.36763e-06 -6.97139e-06 -5.58955e-05
0.000782547 1.96441e-06 2.5456e-06
1.96441e-06 0.00022549 -4.66195e-06
2.5456e-06 -4.66195e-06 8.88189e-05
0.000622286 2.46898e-06 -5.20637e-08
2.46898e-06 0.000109101 1.27297e-07
-5.20637e-08 1.27297e-07 1.41885e-05
0.000538142 -3.38584e-05 -7.16543e-06
-3.38584e-05 1.75173e-05 3.18666e-06
-7.16543e-06 3.18666e-06 -7.03291e-05
0.00246806 -0.000255281 1.62996e-06
-0.000255281 0.000123233 1.11374e-06
1.62996e-06 1.11374e-06 0.000192716
0.000588089 -2.48095e-05 4.56341e-07
-2.48095e-05 9.41004e-05 4.72394e-07
4.56341e-07 4.72394e-07 -2.11642e-05
0.000805857 -1.75503e-05 4.4916e-06
-1.75503e-05 0.000187937 -7.55622e-07
4.4916e-06 -7.55622e-07 8.06966e-05
-2.28137e-05 -4.06259e-06 1.27862e-06
-4.06259e-06 -0.000293327 9.28276e-07
1.27862e-06 9.28276e-07 -0.000369294
0.00185003 -0.000393932 8.5315e-08
-0.000393932 -0.000277936 -1.27906e-06
8.5315e-08 -1.27906e-06 -0.000130505
0.00207745 -0.000649053 2.04419e-06
-0.000649053 7.90255e-05 -1.16875e-06
2.04419e-06 -1.16875e-06 -6.66018e-05
0.00174143 -0.000639677 -1.31487e-06
-0.000639677 0.000512049 -1.14611e-07
-1.31487e-06 -1.14611e-07 0.000124737
0.00224112 -0.000773741 -5.94625e-06
-0.000773741 0.000458455 1.41767e-06
-5.94625e-06 1.41767e-06 0.000188478
0.00125895 -0.000101085 -8.72522e-07
-0.000101085 0.000498294 1.15543e-06
-8.72522e-07 1.15543e-06 0.000347052
0.000386149 -5.7253e-05 3.18298e-06
-5.7253e-05 -6.4698e-05 8.44998e-07
3.18298e-06 8.44998e-07 -0.00022698
0.00146057 -0.000769465 4.30728e-06
-0.000769465 0.000699218 -1.2329e-06
4.30728e-06 -1.2329e-06 8.25232e-05
0.00119364 -0.000283928 -2.57797e-06
-0.000283928 0.000544331 -3.1122e-07
-2.57797e-06 -3.1122e-07 0.000124886
0.00285733 -0.000349764 -2.85432e-05
-0.000349764 0.000228054 -6.8824e-07
-2.85432e-05 -6.8824e-07 0.000440192
0.00237976 -0.000528871 -3.98133e-05
-0.000528871 0.000166243 1.09585e-05
-3.98133e-05 1.09585e-05 0.00020539
0.0023795 -0.000780305 -7.27349e-06
-0.000780305 0.000379838 -2.13826e-06
-7.27349e-06 -2.13826e-06 0.000123549
0.00222976 -0.000721337 -1.39477e-05
-0.000721337 0.00063221 7.52489e-08
-1.39477e-05 7.52489e-08 0.00036755
0.000365474 -4.09816e-05 -5.70999e-07
-4.09816e-05 -1.39675e-05 -2.68135e-06
-5.70999e-07 -2.68135e-06 -0.000136168
0.000238143 -8.13944e-05 -3.7139e-06
-8.13944e-05 -0.00012249 -9.32238e-06
-3.7139e-06 -9.32238e-06 -0.000266362
9.78435e-05 -0.000147228 -4.53829e-06
-0.000147228 -6.14186e-06 2.43596e-05
-4.53829e-06 2.43596e-05 -0.000264018
-0.000766364 -0.000468405 -5.1704e-06
-0.000468405 -0.000113851 -2.12478e-05
-5.1704e-06 -2.12478e-05 -0.000918724
0.00166578 -0.00049468 3.4539e-05
-0.00049468 -0.00430289 2.06921e-06
3.4539e-05 2.06921e-06 -0.00438623
0.00191617 0.000196042 -2.84342e-07
0.000196042 0.000870498 -4.72317e-06
-2.84342e-07 -4.72317e-06 0.000697036
0.000868755 0.000280919 3.21086e-08
0.000280919 0.000141406 4.89587e-07
3.21086e-08 4.89587e-07 -9.81354e-05
0.00208073 0.000286281 6.45462e-05
0.000286281 -7.82981e-06 1.66302e-05
6.45462e-05 1.66302e-05 7.94545e-05
0.00216443 0.000613752 2.71813e-05
0.000613752 0.000191078 9.53787e-06
2.71813e-05 9.53787e-06 2.76835e-05
0.00208578 0.000637596 1.34976e-05
0.000637596 0.000540622 1.1602e-05
1.34976e-05 1.1602e-05 0.000167837
0.00150878 0.000480874 7.08398e-06
0.000480874 0.000375203 6.96943e-06
7.08398e-06 6.96943e-06 2.47799e-05
0.00430563 0.000934281 0.000108474
0.000934281 0.000282407 4.20939e-05
0.000108474 4.20939e-05 -4.82209e-05
0.00134972 0.000249001 4.5753e-06
0.000249001 0.000566791 2.19766e-07
4.5753e-06 2.19766e-07 0.000366617
0.0025447 0.000533088 -1.35734e-05
0.000533088 0.000367532 -1.05699e-07
-1.35734e-05 -1.05699e-07 0.000333984
0.00107159 0.00037039 -2.23156e-06
0.00037039 0.000164385 2.22162e-06
-2.23156e-06 2.22162e-06 -0.000108437
0.00136059 0.000511849 1.76369e-06
0.000511849 0.000255251 -4.42292e-06
1.76369e-06 -4.42292e-06 -9.70778e-05
0.00156033 0.000665136 -8.30059e-06
0.000665136 3.81059e-05 -3.06645e-07
-8.30059e-06 -3.06645e-07 -0.000183559
0.00371263 -0.000530814 -0.000157149
-0.000530814 -0.00371403 -5.25633e-05
-0.000157149 -5.25633e-05 -0.00474407
0.00705319 0.00117988 -7.05192e-05
0.00117988 0.000496905 -6.36451e-05
-7.05192e-05 -6.36451e-05 0.000588434
0.00121883 0.000862397 -1.05598e-05
0.000862397 -0.000185636 7.9988e-06
-1.05598e-05 7.9988e-06 -0.000570282
-0.000991297 -0.00116596 0.000345662
-0.00116596 0.00202783 0.000147477
0.000345662 0.000147477 -0.00031658
0.00691251 -0.00540272 -0.000309197
-0.00540272 0.00243355 -0.000298927
-0.000309197 -0.000298927 0.00226871
0.00141946 0.000272842 -1.24991e-05
0.000272842 0.000556899 6.53152e-07
-1.24991e-05 6.53152e-07 0.000364226
0.000506183 0.000518775 0.00047523
0.000518775 0.00307163 4.75974e-05
0.00047523 4.75974e-05 0.00141949
0.00169227 -0.00167893 -0.000158764
-0.00167893 0.00405379 -0.000216161
-0.000158764 -0.000216161 0.000439154
0.00253068 0.000825303 -4.43876e-05
0.000825303 0.000396048 -1.06249e-05
-4.43876e-05 -1.06249e-05 0.000312952
0.000840257 0.00025689 -2.15441e-05
0.00025689 4.2031e-05 -6.92241e-06
-2.15441e-05 -6.92241e-06 -0.000191152
0.000687594 0.000531585 -3.22972e-05
0.000531585 -6.85431e-05 -2.339e-05
-3.22972e-05 -2.339e-05 -0.000372321
0.000279848 0.000851621 3.59534e-05
0.000851621 -0.000634576 8.69875e-05
3.59534e-05 8.69875e-05 -0.000918531
0.0122331 0.00163805 1.80351e-05
0.00163805 0.00216732 -5.14529e-05
1.80351e-05 -5.14529e-05 0.000671454
0.00274465 0.00160935 -5.94184e-06
0.00160935 1.23599e-05 -2.82441e-05
-5.94184e-06 -2.82441e-05 -0.000543574
0.00828416 -0.00466552 0.000721392
-0.00466552 0.0018692 0.000431103
0.000721392 0.000431103 0.000436548
0.00980747 -0.00222418 -4.97503e-05
-0.00222418 0.00142007 0.000442839
-4.97503e-05 0.000442839 0.00100902
0.000505766 7.46403e-05 6.49429e-06
7.46403e-05 8.2065e-05 -2.00036e-06
6.49429e-06 -2.00036e-06 1.56505e-06
0.000436686 0.000118002 7.32961e-06
0.000118002 4.1691e-05 3.56341e-07
7.32961e-06 3.56341e-07 -6.07728e-05
0.00175859 0.00024251 1.76892e-06
0.00024251 0.000846572 -3.27244e-06
1.76892e-06 -3.27244e-06 0.000694936
0.000595857 1.06227e-05 8.15229e-07
1.06227e-05 0.000102654 -7.25602e-07
8.15229e-07 -7.25602e-07 -2.41444e-05
0.00069056 5.49138e-05 -1.22023e-06
5.49138e-05 0.000149393 -1.58985e-06
-1.22023e-06 -1.58985e-06 6.79596e-06
0.000340572 1.34576e-05 -1.48219e-06
1.34576e-05 -6.92673e-05 6.06439e-07
-1.48219e-06 6.06439e-07 -0.000203899
0.000558719 8.34569e-05 -6.05685e-06
8.34569e-05 6.2931e-05 1.18013e-06
-6.05685e-06 1.18013e-06 -7.64406e-05
-0.000261537 4.84984e-05 -3.19403e-06
4.84984e-05 -0.000470425 1.14686e-06
-3.19403e-06 1.14686e-06 -0.000531803
0.000385711 -1.00591e-05 2.01347e-07
-1.00591e-05 -4.43335e-05 9.31237e-07
2.01347e-07 9.31237e-07 -0.000164978
0.00102225 8.58975e-05 1.36333e-06
8.58975e-05 0.000350238 -2.06017e-07
1.36333e-06 -2.06017e-07 0.000197957
0.000686693 4.46234e-05 6.09303e-07
4.46234e-05 0.000153329 3.18711e-07
6.09303e-07 3.18711e-07 5.18788e-06
0.000715461 2.38987e-05 1.12899e-06
2.38987e-05 0.000170266 -4.58684e-07
1.12899e-06 -4.58684e-07 1.47986e-05
0.000577037 9.53449e-05 -3.24982e-07
9.53449e-05 0.000102274 -1.80744e-06
-3.24982e-07 -1.80744e-06 -3.89377e-05
0.00116461 9.89617e-05 -2.04869e-06
9.89617e-05 0.000456384 -1.87915e-06
-2.04869e-06 -1.87915e-06 0.000302408
-0.000167814 3.72689e-05 -4.69021e-06
3.72689e-05 -0.000290882 -4.51851e-06
-4.69021e-06 -4.51851e-06 -0.000449482
0.000728625 -9.19204e-05 -1.43385e-07
-9.19204e-05 0.000171661 -1.52318e-07
-1.43385e-07 -1.52318e-07 2.23513e-05
0.000768035 -7.10872e-05 -5.8093e-07
-7.10872e-05 0.000211986 -1.37032e-08
-5.8093e-07 -1.37032e-08 5.46368e-05
0.000754997 -3.83695e-05 -1.53609e-07
-3.83695e-05 0.000201407 -3.15868e-07
-1.53609e-07 -3.15868e-07 4.571e-05
0.000786027 -1.07419e-05 -2.32842e-06
-1.07419e-05 0.000192344 -1.23642e-07
-2.32842e-06 -1.23642e-07 6.29846e-05
0.000809076 2.1922e-05 -4.68175e-06
2.1922e-05 0.000245396 -3.63689e-06
-4.68175e-06 -3.63689e-06 7.55771e-05
0.000719006 -1.32861e-05 1.94795e-06
-1.32861e-05 0.000168676 -5.40617e-06
1.94795e-06 -5.40617e-06 3.84214e-05
-0.000481879 -2.27026e-05 -1.31591e-06
-2.27026e-05 -0.000578075 -4.8556e-06
-1.31591e-06 -4.8556e-06 -0.000686716
0.000611235 -3.23886e-05 1.52235e-06
-3.23886e-05 8.16717e-05 -9.62673e-07
1.52235e-06 -9.62673e-07 -5.17782e-05
0.00044772 -6.87471e-05 1.72542e-06
-6.87471e-05 -2.95458e-06 1.13835e-06
1.72542e-06 1.13835e-06 -0.000126801
0.000676432 -6.97437e-05 -9.65832e-07
-6.97437e-05 0.000157275 -3.02226e-07
-9.65832e-07 -3.02226e-07 2.0926e-05
0.000560177 -7.16854e-05 -2.13142e-06
-7.16854e-05 4.70583e-05 1.42329e-06
-2.13142e-06 1.42329e-06 -5.42353e-05
0.000517877 -5.60223e-05 2.50379e-06
-5.60223e-05 3.04309e-05 3.35689e-07
2.50379e-06 3.35689e-07 -9.50482e-05
0.000541758 -9.73905e-05 1.02312e-07
-9.73905e-05 4.77881e-05 2.53099e-07
1.02312e-07 2.53099e-07 -6.6304e-05
0.00056999 -4.02797e-05 -2.39651e-06
-4.02797e-05 3.9049e-05 3.39995e-06
-2.39651e-06 3.39995e-06 -2.9878e-05
0.00043107 -7.11806e-06 1.46844e-06
-7.11806e-06 -8.96785e-06 -7.87194e-07
1.46844e-06 -7.87194e-07 -0.000135266
0.000528757 1.1671e-06 1.76373e-06
1.1671e-06 2.24595e-05 4.99677e-08
1.76373e-06 4.99677e-08 -4.94017e-05
0.00142217 -9.76447e-06 -5.62748e-06
-9.76447e-06 0.00053978 6.10348e-06
-5.62748e-06 6.10348e-06 0.000523168
0.000530396 5.38441e-05 -1.08056e-06
5.38441e-05 2.30863e-05 -2.93815e-06
-1.08056e-06 -2.93815e-06 -4.79508e-05
0.000901562 -6.88531e-06 -2.80736e-06
-6.88531e-06 0.000224994 7.54621e-07
-2.80736e-06 7.54621e-07 0.000206538
0.000781924 2.88984e-06 -3.86224e-06
2.88984e-06 0.000141895 4.82933e-06
-3.86224e-06 4.82933e-06 0.000147782
0.000462578 -4.33344e-06 1.81476e-06
-4.33344e-06 -4.48077e-05 -4.35924e-06
1.81476e-06 -4.35924e-06 -6.50048e-05
0.00247417 1.27992e-06 5.42473e-06
1.27992e-06 0.00117901 -1.39809e-08
5.42473e-06 -1.39809e-08 0.0011928
0.000874946 -7.52555e-07 -5.33183e-06
-7.52555e-07 0.000195063 -5.13814e-06
-5.33183e-06 -5.13814e-06 0.000200694
0.000532711 6.37159e-05 2.63152e-06
6.37159e-05 4.83035e-05 5.82693e-07
2.63152e-06 5.82693e-07 -4.29419e-05
0.00050764 4.2144e-05 -1.77255e-06
4.2144e-05 -4.90765e-06 -1.74848e-06
-1.77255e-06 -1.74848e-06 -4.75817e-05
0.000526253 -6.14272e-06 1.2992e-06
-6.14272e-06 4.76002e-06 3.23638e-08
1.2992e-06 3.23638e-08 -3.87372e-05
0.000535022 8.44322e-06 8.40561e-07
8.44322e-06 -2.14048e-05 -2.94288e-06
8.40561e-07 -2.94288e-06 -2.92882e-05
0.000573172 -4.86611e-05 -1.85187e-06
-4.86611e-05 3.11699e-05 1.58438e-06
-1.85187e-06 1.58438e-06 -1.54449e-05
0.000511946 1.37773e-05 6.11119e-08
1.37773e-05 -3.66215e-05 -7.51222e-07
6.11119e-08 -7.51222e-07 -4.4847e-05
0.00197974 3.19593e-05 5.96316e-06
3.19593e-05 0.000874807 -4.45479e-06
5.96316e-06 -4.45479e-06 0.000891929
0.00109747 3.39933e-05 -6.48034e-07
3.39933e-05 0.000327751 1.75849e-06
-6.48034e-07 1.75849e-06 0.000320451
0.00145378 4.05701e-05 -9.49978e-08
4.05701e-05 0.000554615 1.38052e-06
-9.49978e-08 1.38052e-06 0.000565659
0.00088369 4.42976e-05 -1.07868e-05
4.42976e-05 0.00020869 7.28007e-06
-1.07868e-05 7.28007e-06 0.000213385
0.00107233 0.000264815 8.81345e-05
0.000264815 -0.00153708 1.41408e-05
8.81345e-05 1.41408e-05 -0.00118423
0.002121 -4.12617e-05 -1.48167e-06
-4.12617e-05 -5.28274e-05 3.15857e-06
-1.48167e-06 3.15857e-06 -6.17848e-07
0.00202323 7.263e-05 3.60933e-05
7.263e-05 0.000121508 -1.48994e-05
3.60933e-05 -1.48994e-05 0.000221902
0.00203015 0.000240223 -3.80058e-05
0.000240223 -0.00152237 -2.72415e-05
-3.80058e-05 -2.72415e-05 -0.000644736
0.00194824 9.19928e-05 2.92946e-05
9.19928e-05 -0.000632283 -1.86526e-06
2.92946e-05 -1.86526e-06 -0.000351361
0.00241939 -3.59868e-05 2.68565e-06
-3.59868e-05 0.00035186 -6.52197e-06
2.68565e-06 -6.52197e-06 0.000362615
0.00386966 -0.000198904 -4.72801e-05
-0.000198904 0.000881981 -1.11074e-05
-4.72801e-05 -1.11074e-05 0.000861461
0.00261896 -0.000100362 2.76904e-05
-0.000100362 -4.86769e-06 2.41363e-05
2.76904e-05 2.41363e-05 9.96106e-05
0.012887 -0.000701104 7.31821e-06
-0.000701104 0.00254746 2.94548e-05
7.31821e-06 2.94548e-05 0.0010979
0.0133668 0.00357294 0.00089573
0.00357294 0.00540345 -0.000363191
0.00089573 -0.000363191 0.00397836
0.011603 0.00410092 -1.25821e-05
0.00410092 0.00792764 7.30104e-06
-1.25821e-05 7.30104e-06 0.00683921
0.00032292 -9.61155e-05 1.41889e-06
-9.61155e-05 -6.97917e-05 -2.74525e-07
1.41889e-06 -2.74525e-07 -0.000172157
0.000585299 -1.03817e-05 1.29131e-06
-1.03817e-05 7.78885e-05 -1.39338e-07
1.29131e-06 -1.39338e-07 -8.1499e-06
0.000666275 -8.66985e-05 -1.37427e-06
-8.66985e-05 0.000138539 1.42192e-06
-1.37427e-06 1.42192e-06 4.2537e-05
0.000582838 -4.48019e-05 1.07499e-07
-4.48019e-05 8.26939e-05 4.54014e-07
1.07499e-07 4.54014e-07 -2.19791e-05
0.000651966 6.89695e-05 -2.18681e-06
6.89695e-05 0.000150973 2.22548e-06
-2.18681e-06 2.22548e-06 2.94376e-05
0.000421127 0.00011439 2.07208e-06
0.00011439 -3.06588e-05 5.69968e-06
2.07208e-06 5.69968e-06 -0.000143224
0.000946106 -1.74222e-05 3.69032e-06
-1.74222e-05 0.000324401 1.80857e-06
3.69032e-06 1.80857e-06 0.000200205
0.000502973 -2.48061e-05 -1.47324e-06
-2.48061e-05 3.65155e-05 1.15528e-06
-1.47324e-06 1.15528e-06 -6.8402e-05
0.00240188 -0.000241207 5.58185e-06
-0.000241207 7.88336e-05 1.88328e-07
5.58185e-06 1.88328e-07 0.000173025
0.00185047 -0.00040918 1.3545e-05
-0.00040918 -0.000316453 -4.99398e-06
1.3545e-05 -4.99398e-06 -0.000177486
0.00205558 -0.000643981 5.93392e-06
-0.000643981 6.83652e-05 8.67201e-07
5.93392e-06 8.67201e-07 -7.19324e-05
0.00168037 -0.000628155 2.19609e-05
-0.000628155 0.000463463 7.46094e-07
2.19609e-05 7.46094e-07 8.38908e-05
0.0019664 -0.000764619 2.60769e-06
-0.000764619 0.000304952 5.64098e-06
2.60769e-06 5.64098e-06 3.30572e-05
0.00334222 -0.000910831 1.78829e-05
-0.000910831 0.00175091 7.17661e-07
1.78829e-05 7.17661e-07 0.00110908
0.00314069 -0.000462359 2.55237e-06
-0.000462359 0.00149735 -3.18283e-06
2.55237e-06 -3.18283e-06 0.00115855
0.000561817 -0.000140295 8.64596e-06
-0.000140295 6.46501e-05 -1.39046e-05
8.64596e-06 -1.39046e-05 -0.000128798
0.000549022 -5.01323e-05 -5.97163e-07
-5.01323e-05 3.08258e-05 3.96787e-06
-5.97163e-07 3.96787e-06 -6.72836e-05
0.00064299 -8.46065e-05 6.69078e-06
-8.46065e-05 9.90346e-05 -1.77215e-05
6.69078e-06 -1.77215e-05 -3.55009e-05
0.000949448 -3.27499e-05 1.957e-06
-3.27499e-05 0.000314944 -2.51578e-07
1.957e-06 -2.51578e-07 0.000194511
0.000570005 4.60082e-05 2.09007e-06
4.60082e-05 7.41779e-05 1.26351e-06
2.09007e-06 1.26351e-06 1.4755e-05
0.00218585 -0.000319864 -1.4103e-06
-0.000319864 -7.6308e-05 3.26165e-06
-1.4103e-06 3.26165e-06 0.000122179
0.000545643 -2.01408e-05 -2.05121e-06
-2.01408e-05 9.32552e-05 -1.0168e-06
-2.05121e-06 -1.0168e-06 -3.04903e-05
0.000949323 -0.000141573 -5.2571e-06
-0.000141573 0.000302713 5.47022e-06
-5.2571e-06 5.47022e-06 0.000170334
0.00172767 -0.000502792 4.79181e-06
-0.000502792 -0.000203034 -2.03589e-06
4.79181e-06 -2.03589e-06 -0.000149004
0.00169116 -0.000695953 5.30981e-07
-0.000695953 1.30754e-06 -8.60276e-07
5.30981e-07 -8.60276e-07 -0.000204156
0.000879613 -0.000585676 -5.41485e-07
-0.000585676 -0.000121628 -1.20442e-06
-5.41485e-07 -1.20442e-06 -0.000369103
0.00144383 -0.000249843 1.01723e-06
-0.000249843 0.000724913 -1.27606e-05
1.01723e-06 -1.27606e-05 0.000443911
0.00144433 -0.000512885 -2.06386e-06
-0.000512885 0.00101722 2.47587e-06
-2.06386e-06 2.47587e-06 0.000329145
0.00361719 -0.00053389 -3.99074e-05
-0.00053389 0.000605794 7.54885e-06
-3.99074e-05 7.54885e-06 0.000732664
0.00349503 -0.000759052 -4.77348e-05
-0.000759052 0.000964909 1.44256e-05
-4.77348e-05 1.44256e-05 0.000861422
0.00207805 -0.000796244 -8.32495e-06
-0.000796244 0.00030224 1.12753e-06
-8.32495e-06 1.12753e-06 9.0725e-05
-0.000145297 -0.000396383 -1.5517e-05
-0.000396383 -0.000451798 1.64862e-05
-1.5517e-05 1.64862e-05 -0.000637989
0.000505077 -0.000138775 1.94072e-06
-0.000138775 8.44071e-05 5.40704e-06
1.94072e-06 5.40704e-06 -8.73934e-05
0.00051209 -0.000145676 4.08965e-06
-0.000145676 0.000131648 5.02965e-07
4.08965e-06 5.02965e-07 -6.57985e-05
0.00155599 -0.000180508 -2.05049e-06
-0.000180508 0.00104757 -1.27676e-05
-2.05049e-06 -1.27676e-05 0.000507347
-0.00620121 -0.000228324 0.000386303
-0.000228324 -0.00458812 -5.39142e-07
0.000386303 -5.39142e-07 -0.00337173
0.0109011 -0.00023119 4.10897e-05
-0.00023119 0.00209632 4.56633e-06
4.10897e-05 4.56633e-06 0.00169518
0.00162018 0.000221301 7.79979e-06
0.000221301 0.000698986 -6.43915e-06
7.79979e-06 -6.43915e-06 0.000521578
0.00134842 0.000400031 -2.02361e-06
0.000400031 0.000361771 3.56434e-06
-2.02361e-06 3.56434e-06 7.8678e-05
0.00189844 0.000448691 7.33111e-05
0.000448691 2.74647e-05 3.33455e-05
7.33111e-05 3.33455e-05 1.81117e-05
0.00286263 0.000779321 2.62612e-05
0.000779321 0.000722821 8.42742e-06
2.62612e-05 8.42742e-06 0.000474068
0.00266876 0.000668192 1.68733e-05
0.000668192 0.000996263 5.17703e-06
1.68733e-05 5.17703e-06 0.000619226
0.0134744 0.000691378 7.03306e-05
0.000691378 0.00308557 -3.30459e-07
7.03306e-05 -3.30459e-07 0.00206278
0.00804568 0.00161678 -0.000193068
0.00161678 0.000197105 2.27958e-05
-0.000193068 2.27958e-05 0.000347218
0.00252192 0.0009029 4.96792e-06
0.0009029 0.00057858 -2.80571e-05
4.96792e-06 -2.80571e-05 0.000111909
0.011575 -0.00274071 -0.000310017
-0.00274071 0.0049764 -1.84614e-05
-0.000310017 -1.84614e-05 0.00331595
-0.00289279 -0.00550436 -0.00157331
-0.00550436 -7.84184e-05 -0.00109327
-0.00157331 -0.00109327 -0.00060812
0.000999151 0.000268378 7.51325e-07
0.000268378 0.000345644 3.65863e-07
7.51325e-07 3.65863e-07 0.000137782
-0.00234924 -0.00159084 0.000292615
-0.00159084 -0.00267937 5.14721e-05
0.000292615 5.14721e-05 -0.00366441
-0.00334927 -0.00122065 -0.000314387
-0.00122065 0.0033868 -0.000150866
-0.000314387 -0.000150866 -0.000564258
0.00303089 0.000780523 -1.68968e-05
0.000780523 0.00064837 -6.05323e-07
-1.68968e-05 -6.05323e-07 0.000586716
0.00101503 0.000340321 -5.73877e-06
0.000340321 0.000179551 4.46187e-06
-5.73877e-06 4.46187e-06 -8.94273e-05
0.00145704 0.000645589 4.09779e-06
0.000645589 0.000348768 2.29682e-06
4.09779e-06 2.29682e-06 1.2308e-05
0.00152119 0.000815737 3.62295e-05
0.000815737 0.000197338 2.15805e-05
3.62295e-05 2.15805e-05 2.47963e-05
0.0130398 0.00150708 -0.000115449
0.00150708 0.001745 -6.43089e-05
-0.000115449 -6.43089e-05 -0.00019299
0.00543469 0.00225578 -6.68378e-05
0.00225578 0.000533988 -4.52794e-05
-6.68378e-05 -4.52794e-05 0.000352643
0.0155428 -0.00339319 0.000323353
-0.00339319 0.00632217 -2.28432e-05
0.000323353 -2.28432e-05 0.00472261
0.0105612 -0.00292152 0.000198702
-0.00292152 0.000594684 0.000543017
0.000198702 0.000543017 0.000228691
0.00227066 0.000318036 -1.94664e-05
0.000318036 0.00108876 -1.22524e-05
-1.94664e-05 -1.22524e-05 0.000909972
-0.00946813 0.000823455 -0.000119948
0.000823455 0.00229683 -0.000109205
-0.000119948 -0.000109205 -0.00256267
0.00419327 0.000593715 -0.000278465
0.000593715 0.00294054 -0.000367795
-0.000278465 -0.000367795 -0.00115722
0.00225964 0.000630081 -2.5894e-05
0.000630081 0.000482553 8.93086e-06
-2.5894e-05 8.93086e-06 0.000484832
0.00188506 0.000585645 -6.34219e-05
0.000585645 0.000732834 -2.46384e-05
-6.34219e-05 -2.46384e-05 0.000442273
0.00160034 0.000635728 -6.631e-05
0.000635728 0.00109888 -1.52248e-05
-6.631e-05 -1.52248e-05 0.000498877
8.99733e-05 0.00140443 -6.24999e-05
0.00140443 -0.000270411 -3.4039e-05
-6.24999e-05 -3.4039e-05 -0.000450346
-0.000619625 0.00178682 0.000275498
0.00178682 -0.00155538 0.000131362
0.000275498 0.000131362 -0.00456624
0.0150816 -0.00407979 0.000233572
-0.00407979 0.00663924 0.000513983
0.000233572 0.000513983 0.00444548
0.0073901 -0.00124663 -0.000107394
-0.00124663 -0.00203718 -0.000105449
-0.000107394 -0.000105449 -0.00087503
-0.000367109 0.000105207 2.75577e-06
0.000105207 -0.000409255 -5.76439e-06
2.75577e-06 -5.76439e-06 -0.000530011
0.00132389 0.000219563 9.54368e-06
0.000219563 0.000571009 3.60443e-06
9.54368e-06 3.60443e-06 0.000421753
-0.000209039 8.28097e-05 2.26631e-06
8.28097e-05 -0.000286876 -1.15551e-05
2.26631e-06 -1.15551e-05 -0.00043104
0.000367899 5.10313e-05 1.86304e-06
5.10313e-05 -5.4668e-05 -7.75451e-07
1.86304e-06 -7.75451e-07 -0.000174933
0.000830106 6.45573e-05 -8.59975e-07
6.45573e-05 0.000246722 -1.62296e-06
-8.59975e-07 -1.62296e-06 8.69875e-05
0.00065635 -9.33122e-07 -1.38264e-06
-9.33122e-07 0.00013973 1.76507e-06
-1.38264e-06 1.76507e-06 -1.3298e-05
0.000646362 3.79652e-05 4.6907e-06
3.79652e-05 0.000130724 1.12934e-06
4.6907e-06 1.12934e-06 -2.28522e-05
0.000215091 6.94698e-05 -2.84716e-06
6.94698e-05 -0.000111386 1.27088e-06
-2.84716e-06 1.27088e-06 -0.000246386
0.000747634 4.59806e-05 1.14531e-07
4.59806e-05 0.000200183 -8.99879e-07
1.14531e-07 -8.99879e-07 4.30399e-05
0.000775171 6.80433e-05 6.8e-07
6.80433e-05 0.000211396 -1.25921e-07
6.8e-07 -1.25921e-07 6.53293e-05
0.000800028 -5.30014e-05 -8.83285e-07
-5.30014e-05 0.000215064 1.37848e-06
-8.83285e-07 1.37848e-06 6.40873e-05
-0.000398038 2.96376e-05 1.68426e-06
2.96376e-05 -0.000403452 7.57401e-07
1.68426e-06 7.57401e-07 -0.000568619
-0.000736534 3.10393e-05 -1.7394e-06
3.10393e-05 -0.000364213 3.0843e-06
-1.7394e-06 3.0843e-06 -0.000648843
0.000809075 -1.27312e-05 -4.73885e-06
-1.27312e-05 0.000257485 -6.6116e-06
-4.73885e-06 -6.6116e-06 0.000110303
0.000920177 -9.66583e-06 1.60422e-07
-9.66583e-06 0.000311913 -7.54278e-07
1.60422e-07 -7.54278e-07 0.000139326
0.000790084 -6.76399e-05 -3.03737e-07
-6.76399e-05 0.000229465 -1.02351e-06
-3.03737e-07 -1.02351e-06 6.81909e-05
0.000738237 -6.01912e-05 1.9366e-06
-6.01912e-05 0.000154506 4.07773e-06
1.9366e-06 4.07773e-06 3.21485e-05
0.000791337 -5.94421e-05 9.50229e-07
-5.94421e-05 0.000222082 -1.20775e-06
9.50229e-07 -1.20775e-06 6.05652e-05
0.000736181 -1.84947e-05 -1.30251e-06
-1.84947e-05 0.000171879 6.27683e-08
-1.30251e-06 6.27683e-08 4.30366e-05
8.05307e-06 -6.04953e-05 1.35998e-06
-6.04953e-05 -0.000266754 2.61537e-06
1.35998e-06 2.61537e-06 -0.000374501
0.000405455 -1.84631e-05 1.56777e-06
-1.84631e-05 -1.45744e-05 -1.83105e-07
1.56777e-06 -1.83105e-07 -0.000147316
0.000207411 -6.47568e-06 -5.30004e-06
-6.47568e-06 -0.000112857 -4.58659e-06
-5.30004e-06 -4.58659e-06 -0.000256397
0.000133032 -6.15837e-05 3.00784e-06
-6.15837e-05 -0.000158951 -3.40512e-06
3.00784e-06 -3.40512e-06 -0.000276845
0.000962592 -8.03503e-05 5.60667e-06
-8.03503e-05 0.000230894 -1.16582e-05
5.60667e-06 -1.16582e-05 0.000132094
-0.000373051 -2.24623e-05 4.09029e-07
-2.24623e-05 -0.000578868 2.2225e-06
4.09029e-07 2.2225e-06 -0.000713317
0.000108309 -3.0856e-05 -3.62446e-06
-3.0856e-05 -0.00020956 -1.95207e-06
-3.62446e-06 -1.95207e-06 -0.000343967
0.000739369 -5.00988e-05 5.74572e-07
-5.00988e-05 0.000155551 -4.54546e-07
5.74572e-07 -4.54546e-07 2.03494e-05
0.00038234 -3.61214e-05 4.16181e-07
-3.61214e-05 -5.02598e-05 -3.50246e-08
4.16181e-07 -3.50246e-08 -0.000180642
0.00070997 -7.33496e-05 4.26436e-07
-7.33496e-05 0.000175822 4.27651e-08
4.26436e-07 4.27651e-08 3.7134e-05
0.000502971 -1.3946e-05 3.00495e-07
-1.3946e-05 1.91022e-05 1.65267e-06
3.00495e-07 1.65267e-06 -8.74072e-05
0.000868841 -6.52889e-05 -1.47097e-06
-6.52889e-05 0.000271079 3.2251e-07
-1.47097e-06 3.2251e-07 0.000135685
0.000634105 -6.65289e-05 -8.9201e-07
-6.65289e-05 0.00010372 4.49089e-08
-8.9201e-07 4.49089e-08 -5.56356e-06
0.000474821 3.51979e-05 -8.2616e-07
3.51979e-05 -2.01572e-05 3.11134e-06
-8.2616e-07 3.11134e-06 -9.02402e-05
0.000482929 -8.83025e-05 2.08043e-06
-8.83025e-05 6.11453e-06 -8.55289e-07
2.08043e-06 -8.55289e-07 -0.000105377
0.000546521 -2.38441e-05 -3.62843e-07
-2.38441e-05 2.24901e-05 8.84154e-08
-3.62843e-07 8.84154e-08 -4.46502e-05
0.00141424 9.61818e-06 -6.11782e-06
9.61818e-06 0.000530451 6.45743e-06
-6.11782e-06 6.45743e-06 0.000512976
0.000532554 -4.60961e-05 1.50629e-06
-4.60961e-05 2.11161e-05 -2.78875e-06
1.50629e-06 -2.78875e-06 -4.82716e-05
0.000901296 -6.80337e-06 -4.19721e-06
-6.80337e-06 0.000220364 7.24057e-07
-4.19721e-06 7.24057e-07 0.000201776
0.00075684 1.37131e-05 6.43108e-07
1.37131e-05 0.000120067 2.08275e-06
6.43108e-07 2.08275e-06 0.000125532
0.000472887 -6.50092e-06 1.66345e-06
-6.50092e-06 -3.97454e-05 -4.21597e-06
1.66345e-06 -4.21597e-06 -5.96159e-05
0.00247973 1.38299e-05 5.89361e-06
1.38299e-05 0.00118257 5.03229e-08
5.89361e-06 5.03229e-08 0.00119631
0.00248359 2.14777e-06 -3.95947e-07
2.14777e-06 0.00118484 -5.09281e-06
-3.95947e-07 -5.09281e-06 0.00119859
0.00099548 7.43519e-05 -4.35124e-07
7.43519e-05 0.000327793 -6.82382e-08
-4.35124e-07 -6.82382e-08 0.000235841
0.000539087 5.11253e-05 -1.29944e-06
5.11253e-05 1.8331e-05 -2.12978e-06
-1.29944e-06 -2.12978e-06 -2.82439e-05
0.000581659 -1.30658e-05 3.28727e-07
-1.30658e-05 7.94394e-05 8.5724e-07
3.28727e-07 8.5724e-07 -1.1614e-05
0.000529421 4.975e-06 8.65743e-07
4.975e-06 -2.47749e-05 -3.20251e-06
8.65743e-07 -3.20251e-06 -3.24741e-05
0.000517374 -1.49288e-05 4.3719e-07
-1.49288e-05 1.13482e-06 -7.92953e-08
4.3719e-07 -7.92953e-08 -4.15434e-05
0.000565442 -4.88223e-05 -1.59001e-06
-4.88223e-05 3.04752e-05 1.32609e-06
-1.59001e-06 1.32609e-06 -1.45065e-05
0.000520401 7.48052e-06 -3.6815e-07
7.48052e-06 -3.06112e-05 -2.64453e-08
-3.6815e-07 -2.64453e-08 -3.84069e-05
0.00197514 1.85421e-05 1.11727e-06
1.85421e-05 0.00086951 -4.5984e-06
1.11727e-06 -4.5984e-06 0.000887618
0.00109622 2.20502e-05 -7.87795e-07
2.20502e-05 0.000324276 1.79357e-06
-7.87795e-07 1.79357e-06 0.000319127
0.00133738 2.66569e-05 -2.89437e-07
2.66569e-05 0.000477617 -1.68006e-08
-2.89437e-07 -1.68006e-08 0.000491461
0.000820849 3.1691e-05 -1.08303e-05
3.1691e-05 0.000164018 6.98828e-06
-1.08303e-05 6.98828e-06 0.000172242
-0.00933965 0.000790056 0.000329585
0.000790056 -0.00366022 -4.41159e-06
0.000329585 -4.41159e-06 -0.00556786
-0.00227064 -0.000102326 0.000624558
-0.000102326 0.00426304 -0.000145773
0.000624558 -0.000145773 0.00147064
0.00362564 0.000265478 -0.000198507
0.000265478 -0.000959187 -2.49413e-05
-0.000198507 -2.49413e-05 0.000131979
0.000893299 4.98545e-05 2.19642e-05
4.98545e-05 -0.00116195 -3.47936e-05
2.19642e-05 -3.47936e-05 -0.000881413
0.00156934 -5.34394e-05 1.09601e-05
-5.34394e-05 -0.000229467 8.38061e-06
1.09601e-05 8.38061e-06 -0.000217429
-0.000792124 5.52407e-05 -5.78223e-05
5.52407e-05 -0.00111762 -1.72171e-05
-5.78223e-05 -1.72171e-05 -0.000559232
0.00349384 -0.000247418 -1.5811e-08
-0.000247418 0.000499015 4.74238e-06
-1.5811e-08 4.74238e-06 0.000532607
0.0108311 1.30991e-05 0.000125335
1.30991e-05 0.000287143 -4.61504e-05
0.000125335 -4.61504e-05 -0.000682751
-0.00104549 0.00231333 -8.77064e-06
0.00231333 0.000135908 -4.21614e-05
-8.77064e-06 -4.21614e-05 -0.00230494
0.00506773 0.00458106 -0.000320417
0.00458106 0.00418411 0.000172662
-0.000320417 0.000172662 0.00355475
0.0022416 -0.000486403 7.00341e-05
-0.000486403 -0.00125778 -3.468e-05
7.00341e-05 -3.468e-05 -0.000646732
0.0143943 -0.00129987 0.000167342
-0.00129987 0.00252944 -5.84006e-05
0.000167342 -5.84006e-05 0.000898763
0.00910695 0.00442718 0.000300774
0.00442718 0.00216732 -0.000444186
0.000300774 -0.000444186 0.000929443
0.0131938 0.00291846 -0.000296671
0.00291846 0.00314399 0.000210807
-0.000296671 0.000210807 0.00213666
0.000791876 0.000124689 -2.00619e-06
0.000124689 0.000241936 2.96736e-06
-2.00619e-06 2.96736e-06 9.4214e-05
0.000413527 2.74673e-05 6.3974e-08
2.74673e-05 -2.37892e-05 -8.8665e-07
6.3974e-08 -8.8665e-07 -0.000120669
0.000600591 -9.34228e-05 -3.18767e-07
-9.34228e-05 9.43468e-05 6.30746e-07
-3.18767e-07 6.30746e-07 3.41323e-06
0.000578448 -2.18063e-06 2.6725e-06
-2.18063e-06 8.70259e-05 -1.14281e-06
2.6725e-06 -1.14281e-06 -2.2082e-05
0.000616108 5.95119e-05 1.53432e-06
5.95119e-05 0.000135255 1.26105e-06
1.53432e-06 1.26105e-06 1.25523e-05
0.000634433 2.67862e-05 9.71884e-07
2.67862e-05 0.000141639 5.65517e-06
9.71884e-07 5.65517e-06 -5.70038e-06
0.000734883 9.34522e-05 1.21451e-06
9.34522e-05 0.000179929 2.35705e-06
1.21451e-06 2.35705e-06 5.39105e-05
0.00053227 4.29073e-05 5.03692e-06
4.29073e-05 4.0798e-05 9.51121e-07
5.03692e-06 9.51121e-07 -8.71387e-05
0.000728053 -3.36072e-05 2.2158e-06
-3.36072e-05 0.000190835 -1.06629e-06
2.2158e-06 -1.06629e-06 6.58565e-05
0.000492758 -7.70578e-06 2.96554e-08
-7.70578e-06 1.64353e-05 -1.32246e-06
2.96554e-08 -1.32246e-06 -8.26532e-05
0.00161154 -0.000286965 2.28904e-05
-0.000286965 -0.000313693 -1.71922e-06
2.28904e-05 -1.71922e-06 -0.000140727
0.00106638 -0.000462079 3.493e-05
-0.000462079 -0.000569028 -8.80093e-06
3.493e-05 -8.80093e-06 -0.000489741
0.000584871 -0.00057152 1.31221e-05
-0.00057152 -0.000606367 -1.36212e-06
1.31221e-05 -1.36212e-06 -0.000744761
-5.64839e-05 -0.000499019 5.89191e-06
-0.000499019 -0.00062884 1.78174e-06
5.89191e-06 1.78174e-06 -0.000862434
0.00310507 -0.000522255 6.09549e-06
-0.000522255 0.00185756 2.39186e-05
6.09549e-06 2.39186e-05 0.00127423
0.000469649 -0.000348684 6.3514e-06
-0.000348684 0.000130357 -3.80282e-06
6.3514e-06 -3.80282e-06 -0.000203588
0.00143712 -0.000176697 1.27289e-06
-0.000176697 0.000581119 -1.09222e-06
1.27289e-06 -1.09222e-06 0.000463198
0.000836424 -3.35597e-05 -2.70211e-06
-3.35597e-05 0.000268392 2.38227e-06
-2.70211e-06 2.38227e-06 0.000142918
0.00223488 -0.000429018 1.29113e-05
-0.000429018 -7.3035e-05 -6.6278e-06
1.29113e-05 -6.6278e-06 8.23449e-05
0.000521197 -6.47647e-05 -2.18039e-08
-6.47647e-05 9.78671e-05 2.85476e-07
-2.18039e-08 2.85476e-07 -8.32947e-05
-6.15576e-05 -0.00013213 7.40677e-07
-0.00013213 -0.000202539 -3.14883e-06
7.40677e-07 -3.14883e-06 -0.00040063
0.00198147 -0.000641159 1.17482e-05
-0.000641159 0.000134528 -1.77362e-06
1.17482e-05 -1.77362e-06 8.39464e-05
0.00181281 -0.000790613 1.91486e-07
-0.000790613 8.09063e-05 4.34227e-06
1.91486e-07 4.34227e-06 -7.63918e-05
0.000186883 -0.000494113 1.4082e-05
-0.000494113 -0.000252827 -8.78459e-06
1.4082e-05 -8.78459e-06 -0.000494352
0.00135967 -0.000249828 -1.25554e-08
-0.000249828 0.000918987 -1.06467e-05
-1.25554e-08 -1.06467e-05 0.000389606
0.00246236 -0.000669835 -6.19394e-05
-0.000669835 0.00051297 1.93007e-05
-6.19394e-05 1.93007e-05 0.000196436
0.00152923 -0.000617444 -4.39837e-05
-0.000617444 0.000106547 1.29841e-05
-4.39837e-05 1.29841e-05 4.2075e-05
0.00114925 -0.000492989 -6.79561e-05
-0.000492989 0.000566401 4.26943e-05
-6.79561e-05 4.26943e-05 0.000211222
-0.00168947 -0.000126328 -1.07109e-06
-0.000126328 -0.00121884 7.15545e-06
-1.07109e-06 7.15545e-06 -0.00140355
-0.000170129 -0.00010953 4.4946e-06
-0.00010953 -0.00026384 5.105e-06
4.4946e-06 5.105e-06 -0.000483463
0.000716875 -6.01247e-05 7.46438e-06
-6.01247e-05 0.000357355 -2.64541e-06
7.46438e-06 -2.64541e-06 3.67512e-05
-0.00147359 0.000787985 -0.00027774
0.000787985 0.00578793 1.40755e-05
-0.00027774 1.40755e-05 0.00233877
0.00106016 -0.000961597 7.04292e-07
-0.000961597 0.00174351 2.34001e-05
7.04292e-07 2.34001e-05 0.00150261
0.00160079 0.000981686 -8.32266e-05
0.000981686 -0.00427458 -3.23616e-05
-8.32266e-05 -3.23616e-05 -0.00458262
0.000197167 0.000195728 7.50599e-06
0.000195728 -0.00011455 -2.3401e-06
7.50599e-06 -2.3401e-06 -0.000313952
0.00128427 0.00043872 9.16764e-06
0.00043872 0.000364043 1.68224e-05
9.16764e-06 1.68224e-05 5.66243e-05
0.00381126 0.000734067 5.52004e-05
0.000734067 0.00107931 1.47771e-05
5.52004e-05 1.47771e-05 0.00101481
0.0017207 0.000692966 2.11383e-05
0.000692966 0.000500115 2.00149e-05
2.11383e-05 2.00149e-05 0.000143264
0.0101379 -0.00181834 0.000130521
-0.00181834 0.00341549 4.1317e-05
0.000130521 4.1317e-05 0.00333761
0.00375497 0.000651271 -0.00028836
0.000651271 -0.00311064 -3.07897e-05
-0.00028836 -3.07897e-05 -0.0050559
0.00427232 0.00208152 -2.44141e-05
0.00208152 -0.000101461 1.01612e-05
-2.44141e-05 1.01612e-05 -0.000152085
0.00238654 0.000693112 4.01479e-05
0.000693112 0.000907052 -2.58873e-05
4.01479e-05 -2.58873e-05 0.00077841
-0.0001251 -0.00222802 -0.000290888
-0.00222802 0.000857486 -0.000272336
-0.000290888 -0.000272336 -0.00100119
-0.000821302 -0.00195247 -0.000359514
-0.00195247 0.00359376 -0.00012238
-0.000359514 -0.00012238 -0.000428243
0.016629 -0.00366834 0.00043984
-0.00366834 0.00377988 0.000273721
0.00043984 0.000273721 0.00344926
0.000601906 0.000196127 1.24552e-05
0.000196127 0.000124083 -3.45197e-06
1.24552e-05 -3.45197e-06 -5.29315e-05
-0.003619 0.000310622 -0.000142827
0.000310622 0.00397787 -3.17616e-05
-0.000142827 -3.17616e-05 -9.74441e-05
0.0046302 0.000731564 -5.79823e-05
0.000731564 0.00263909 -0.000132142
-5.79823e-05 -0.000132142 -0.00174592
0.00169947 0.000629478 1.13523e-06
0.000629478 0.000262783 5.50841e-06
1.13523e-06 5.50841e-06 0.000205458
0.000470457 0.00043313 8.73375e-06
0.00043313 4.19459e-05 3.63171e-06
8.73375e-06 3.63171e-06 -0.000260674
3.30777e-05 0.00061979 -1.72923e-05
0.00061979 9.06827e-05 -5.15479e-05
-1.72923e-05 -5.15479e-05 -0.000356686
0.00358001 0.00213848 1.89655e-06
0.00213848 0.00110295 1.12974e-05
1.89655e-06 1.12974e-05 0.000759809
0.0158566 0.00238647 7.91094e-05
0.00238647 0.00459603 2.41363e-05
7.91094e-05 2.41363e-05 0.00248854
0.00602551 -0.00259455 6.53026e-05
-0.00259455 0.00125742 -6.4947e-05
6.53026e-05 -6.4947e-05 -0.00137799
0.0128125 -0.00190179 -3.10763e-06
-0.00190179 0.00173455 -5.78428e-05
-3.10763e-06 -5.78428e-05 0.00305161
0.000165582 0.000267117 -5.45231e-06
0.000267117 -8.27443e-05 -1.39752e-05
-5.45231e-06 -1.39752e-05 -0.000275048
0.00241398 0.000168181 -0.000230563
0.000168181 0.00158594 -4.7095e-05
-0.000230563 -4.7095e-05 -0.00173328
0.000278993 0.000358625 -6.27301e-05
0.000358625 -0.000151027 -0.000140882
-6.27301e-05 -0.000140882 -0.00166624
-0.000922432 0.000188646 -2.29271e-06
0.000188646 -0.000365987 -2.35242e-05
-2.29271e-06 -2.35242e-05 -0.00056882
-7.664e-05 0.000376518 -9.78313e-05
0.000376518 0.00104443 1.46175e-05
-9.78313e-05 1.46175e-05 0.00025029
0.012578 0.0029753 6.32571e-05
0.0029753 0.00444721 -1.29765e-05
6.32571e-05 -1.29765e-05 0.000759158
-0.0047474 -0.00368702 -1.46725e-05
-0.00368702 -0.00171049 0.000208425
-1.46725e-05 0.000208425 -0.0052575
0.010275 0.000559392 4.49278e-05
0.000559392 -0.00142796 -0.00026513
4.49278e-05 -0.00026513 0.00113452
0.000934509 0.000169679 -1.09177e-06
0.000169679 0.000313655 1.28619e-05
-1.09177e-06 1.28619e-05 0.000177908
0.000927698 0.00019333 -8.74452e-06
0.00019333 0.000400867 -2.26535e-06
-8.74452e-06 -2.26535e-06 0.000236816
0.000115085 0.000114512 2.40767e-06
0.000114512 0.000102807 -5.82768e-06
2.40767e-06 -5.82768e-06 -0.000158658
0.000720159 8.27206e-05 -1.85276e-06
8.27206e-05 0.00016982 -1.96164e-06
-1.85276e-06 -1.96164e-06 2.23715e-05
0.000966284 -3.79758e-05 -7.8389e-07
-3.79758e-05 0.000322093 2.81128e-06
-7.8389e-07 2.81128e-06 0.000164529
0.000590788 6.48912e-05 2.73722e-06
6.48912e-05 9.08009e-05 1.8561e-06
2.73722e-06 1.8561e-06 -4.88008e-05
-0.000820996 1.48843e-05 2.40596e-06
1.48843e-05 -0.000631566 2.30999e-06
2.40596e-06 2.30999e-06 -0.000800423
0.000778755 -2.14184e-05 1.18028e-06
-2.14184e-05 0.000203508 1.5812e-07
1.18028e-06 1.5812e-07 4.80947e-05
0.000709998 1.79558e-05 -7.04529e-08
1.79558e-05 0.000201562 -2.05405e-06
-7.04529e-08 -2.05405e-06 5.02249e-05
-0.000164935 -7.5572e-06 5.17805e-07
-7.5572e-06 -2.38603e-05 2.40756e-06
5.17805e-07 2.40756e-06 -0.000308037
-0.000817768 2.0131e-05 -2.10933e-06
2.0131e-05 -0.000172441 6.35625e-06
-2.10933e-06 6.35625e-06 -0.000599872
0.000107301 7.56739e-06 -2.69675e-06
7.56739e-06 0.00015079 -3.70439e-06
-2.69675e-06 -3.70439e-06 -0.000144019
0.000821354 2.00925e-05 -1.32061e-06
2.00925e-05 0.000247167 -5.6216e-06
-1.32061e-06 -5.6216e-06 0.00010224
0.000838937 -0.000130152 1.23593e-06
-0.000130152 0.000236442 1.08314e-06
1.23593e-06 1.08314e-06 8.39054e-05
0.000628541 -9.61112e-06 -5.33312e-07
-9.61112e-06 9.69649e-05 1.09152e-06
-5.33312e-07 1.09152e-06 -2.72377e-05
0.000553061 -8.39078e-05 5.93787e-07
-8.39078e-05 7.41362e-05 8.3106e-06
5.93787e-07 8.3106e-06 -2.76902e-05
0.000353663 -3.32981e-05 2.03191e-06
-3.32981e-05 -3.93672e-05 2.81844e-06
2.03191e-06 2.81844e-06 -0.000171953
0.000652965 -2.7852e-05 6.05388e-07
-2.7852e-05 0.000132156 1.6331e-07
6.05388e-07 1.6331e-07 -2.62922e-07
0.000529233 -4.20756e-05 -6.16982e-08
-4.20756e-05 7.55986e-05 -1.4675e-06
-6.16982e-08 -1.4675e-06 -4.00409e-05
0.000735603 -4.64929e-05 -4.16953e-06
-4.64929e-05 0.000176733 -5.01168e-06
-4.16953e-06 -5.01168e-06 5.97873e-05
0.000291109 -5.03369e-05 5.65307e-06
-5.03369e-05 4.92732e-05 -6.53815e-06
5.65307e-06 -6.53815e-06 -9.11206e-05
0.000111389 -0.000122143 4.07884e-07
-0.000122143 -0.000354923 1.14771e-06
4.07884e-07 1.14771e-06 -0.000446839
0.000814103 -0.000118396 -6.61925e-06
-0.000118396 0.000156504 -6.42531e-07
-6.61925e-06 -6.42531e-07 4.91854e-05
0.000267668 -0.00012837 6.33435e-06
-0.00012837 -0.000170721 4.2881e-06
6.33435e-06 4.2881e-06 -0.00031673
0.00180971 -0.000389982 1.84272e-06
-0.000389982 0.000670517 1.3563e-05
1.84272e-06 1.3563e-05 0.000401768
0.00170176 -0.000185435 1.82776e-06
-0.000185435 0.000742763 -3.75207e-06
1.82776e-06 -3.75207e-06 0.000570755
-7.19724e-05 -6.46697e-05 -6.71596e-06
-6.46697e-05 -0.000358236 -4.54871e-06
-6.71596e-06 -4.54871e-06 -0.000491742
0.000564913 -5.0704e-05 -6.47837e-08
-5.0704e-05 4.6818e-05 1.65148e-07
-6.47837e-08 1.65148e-07 -8.72054e-05
7.53011e-05 -3.53235e-05 -5.85115e-07
-3.53235e-05 -0.000231556 -1.05422e-06
-5.85115e-07 -1.05422e-06 -0.000370725
0.000881141 -7.4992e-05 -1.23859e-06
-7.4992e-05 0.000236717 1.21025e-06
-1.23859e-06 1.21025e-06 0.000100132
0.000771175 -8.91886e-05 -7.86021e-07
-8.91886e-05 0.000199863 5.53447e-07
-7.86021e-07 5.53447e-07 5.65375e-05
0.000594353 -4.74955e-05 -2.88844e-07
-4.74955e-05 6.18932e-05 1.5905e-06
-2.88844e-07 1.5905e-06 -4.48481e-05
0.00113532 -0.000123609 -6.65726e-07
-0.000123609 0.000453659 -1.10411e-06
-6.65726e-07 -1.10411e-06 0.000296012
0.000656755 -8.14079e-05 -4.77943e-07
-8.14079e-05 0.000113962 -3.58245e-08
-4.77943e-07 -3.58245e-08 3.16245e-06
0.00052585 1.6928e-05 -2.17217e-06
1.6928e-05 8.16808e-06 2.66567e-06
-2.17217e-06 2.66567e-06 -6.27218e-05
0.000717474 -0.000112115 1.67825e-06
-0.000112115 0.000156386 -1.89306e-06
1.67825e-06 -1.89306e-06 4.30268e-05
0.000603114 -3.78237e-05 -2.32374e-07
-3.78237e-05 5.38719e-05 1.24146e-07
-2.32374e-07 1.24146e-07 -1.48132e-05
0.0014289 1.49004e-05 -1.05906e-05
1.49004e-05 0.000536256 6.67151e-06
-1.05906e-05 6.67151e-06 0.000517283
0.000561213 -5.40765e-05 2.37769e-06
-5.40765e-05 3.70284e-05 -2.94016e-06
2.37769e-06 -2.94016e-06 -3.38481e-05
0.000908884 -4.12072e-07 -5.18734e-06
-4.12072e-07 0.00022058 6.59123e-07
-5.18734e-06 6.59123e-07 0.000200673
0.000778181 2.28796e-05 6.37228e-07
2.28796e-05 0.000132191 2.49562e-06
6.37228e-07 2.49562e-06 0.000135686
0.000480933 -1.23614e-05 1.28136e-06
-1.23614e-05 -3.90891e-05 -4.43746e-06
1.28136e-06 -4.43746e-06 -5.96602e-05
0.00161685 2.3177e-05 7.79337e-06
2.3177e-05 0.00065112 -1.47708e-06
7.79337e-06 -1.47708e-06 0.000660573
0.00245452 1.52211e-05 6.77548e-06
1.52211e-05 0.00116671 -5.08666e-06
6.77548e-06 -5.08666e-06 0.00118048
0.000613226 3.2434e-05 2.08137e-06
3.2434e-05 7.87025e-05 -9.9979e-07
2.08137e-06 -9.9979e-07 -1.54996e-05
0.000608642 4.92362e-05 -6.79402e-07
4.92362e-05 5.67738e-05 -1.87858e-06
-6.79402e-07 -1.87858e-06 7.86346e-06
0.000635914 -1.55388e-06 1.19019e-06
-1.55388e-06 0.000103758 5.2276e-07
1.19019e-06 5.2276e-07 1.37522e-05
0.000515931 5.43492e-07 1.26833e-06
5.43492e-07 -3.19488e-05 -3.52292e-06
1.26833e-06 -3.52292e-06 -4.03973e-05
0.000531724 4.09025e-05 1.25095e-07
4.09025e-05 1.03994e-05 -7.46861e-08
1.25095e-07 -7.46861e-08 -3.41349e-05
0.000575791 -0.000103832 -3.60437e-06
-0.000103832 6.94971e-05 8.71207e-07
-3.60437e-06 8.71207e-07 -1.64497e-05
0.00198922 5.18754e-06 -3.86018e-06
5.18754e-06 0.000876495 -4.70164e-06
-3.86018e-06 -4.70164e-06 0.000895156
0.000511364 3.86956e-06 -2.22702e-07
3.86956e-06 -3.52921e-05 1.4843e-08
-2.22702e-07 1.4843e-08 -4.30099e-05
0.000538053 -1.82208e-05 -2.00393e-06
-1.82208e-05 1.18355e-05 1.61068e-06
-2.00393e-06 1.61068e-06 -2.97037e-05
0.000500835 6.66437e-06 -1.19486e-06
6.66437e-06 -4.29145e-05 3.07592e-06
-1.19486e-06 3.07592e-06 -5.06361e-05
0.00200226 2.00316e-05 -4.70258e-06
2.00316e-05 0.000886387 -7.56667e-08
-4.70258e-06 -7.56667e-08 0.000904327
0.00196304 3.29457e-05 -7.4841e-06
3.29457e-05 0.000864524 4.33735e-06
-7.4841e-06 4.33735e-06 0.000881784
-0.00619563 -0.00108268 -0.000120153
-0.00108268 0.00370021 4.12261e-05
-0.000120153 4.12261e-05 0.000343121
0.000704841 0.000878789 -0.000173775
0.000878789 -1.32436e-06 4.86346e-05
-0.000173775 4.86346e-05 -0.00125106
0.00296536 -0.000750374 -0.000472422
-0.000750374 0.00116311 0.00022046
-0.000472422 0.00022046 -0.00295815
-0.00251198 0.000147323 0.000753826
0.000147323 0.00425512 -0.00027846
0.000753826 -0.00027846 0.00126424
0.000942325 0.000400219 -1.47063e-05
0.000400219 -0.00133576 -2.4127e-05
-1.47063e-05 -2.4127e-05 -0.000816017
0.00245928 -0.000310997 9.17456e-05
-0.000310997 -0.000192283 3.01794e-06
9.17456e-05 3.01794e-06 -0.000151086
0.000641467 -0.000366062 0.000166954
-0.000366062 -0.0036101 -6.92379e-05
0.000166954 -6.92379e-05 -0.00555486
0.0156636 0.00214842 -0.000426233
0.00214842 0.00720375 3.17825e-05
-0.000426233 3.17825e-05 0.0053874
-0.00249548 0.00527559 -0.0015028
0.00527559 -0.000185164 0.00108216
-0.0015028 0.00108216 -0.000647204
0.00372297 -0.00036738 8.58152e-06
-0.00036738 -0.000337821 7.28182e-06
8.58152e-06 7.28182e-06 6.85283e-06
0.00802758 -0.00127926 0.00010548
-0.00127926 -0.000497777 -9.44645e-05
0.00010548 -9.44645e-05 -0.00285112
0.0172734 0.00384208 -0.000204246
0.00384208 0.0050797 -9.72621e-05
-0.000204246 -9.72621e-05 0.00399679
0.00945374 0.00301094 -7.42529e-05
0.00301094 0.000628777 0.000292121
-7.42529e-05 0.000292121 -0.000591615
0.00167499 -0.00113734 -8.91104e-05
-0.00113734 -0.00225927 1.82919e-05
-8.91104e-05 1.82919e-05 -0.00164401
0.00380119 -0.00212515 0.000280035
-0.00212515 -0.000234558 -0.00018971
0.000280035 -0.00018971 -0.00409105
-4.02404e-06 0.0024621 1.83677e-05
0.0024621 -0.00176423 -0.000576878
1.83677e-05 -0.000576878 -0.00374077
0.00703406 0.00116068 -0.000172378
0.00116068 -0.00280028 2.29522e-06
-0.000172378 2.29522e-06 -0.00154494
0.0015426 -6.44277e-05 2.39511e-06
-6.44277e-05 0.00074219 1.01479e-05
2.39511e-06 1.01479e-05 0.000542647
0.000585365 0.000108489 -1.7776e-06
0.000108489 0.000102859 -2.01724e-06
-1.7776e-06 -2.01724e-06 -2.95725e-05
0.000562315 8.70972e-05 1.99024e-07
8.70972e-05 6.02523e-05 -1.95571e-06
1.99024e-07 -1.95571e-06 -3.18766e-05
0.000552724 4.58685e-05 4.78723e-06
4.58685e-05 9.82961e-05 8.21425e-08
4.78723e-06 8.21425e-08 -2.18916e-05
0.000530877 7.31568e-05 3.64502e-06
7.31568e-05 6.2575e-05 2.52241e-06
3.64502e-06 2.52241e-06 -0.000103801
0.000606737 4.93985e-05 -1.20194e-07
4.93985e-05 0.000120134 1.96386e-06
-1.20194e-07 1.96386e-06 -1.82552e-05
0.000508579 4.51035e-05 4.44604e-07
4.51035e-05 4.37913e-05 -1.39718e-06
4.44604e-07 -1.39718e-06 -8.05067e-05
0.000876658 0.000152799 2.74296e-06
0.000152799 0.000276764 3.45963e-06
2.74296e-06 3.45963e-06 0.000121736
0.000842373 0.000107118 -1.82378e-09
0.000107118 0.000260982 3.35753e-07
-1.82378e-09 3.35753e-07 0.000111485
0.00041964 -1.50273e-05 -4.6412e-06
-1.50273e-05 -5.69533e-06 -3.71759e-06
-4.6412e-06 -3.71759e-06 -0.000126877
0.0005992 -0.000334084 6.03967e-05
-0.000334084 -0.000922209 -2.38959e-05
6.03967e-05 -2.38959e-05 -0.000744681
0.000490289 -0.000542131 3.42927e-05
-0.000542131 -0.000687613 -1.08941e-05
3.42927e-05 -1.08941e-05 -0.000705001
0.00145367 -0.000761022 7.52179e-06
-0.000761022 -0.000149232 5.24509e-06
7.52179e-06 5.24509e-06 -0.000264178
-0.000352074 -0.000502476 9.94662e-06
-0.000502476 -0.000538388 -1.29064e-05
9.94662e-06 -1.29064e-05 -0.000840255
0.00268343 -0.000315295 -9.19473e-06
-0.000315295 0.00156417 3.89093e-05
-9.19473e-06 3.89093e-05 0.00113881
0.000683237 -0.000127784 -2.96641e-06
-0.000127784 0.000252927 2.53747e-06
-2.96641e-06 2.53747e-06 4.39058e-05
0.000474175 9.50216e-05 -1.93675e-06
9.50216e-05 7.21474e-05 -9.80474e-06
-1.93675e-06 -9.80474e-06 -0.000112881
0.000628014 -9.34253e-05 -1.43103e-06
-9.34253e-05 0.00018433 6.89932e-06
-1.43103e-06 6.89932e-06 -3.14187e-05
0.00149005 -0.000561673 7.72897e-07
-0.000561673 -0.000138585 -4.34515e-06
7.72897e-07 -4.34515e-06 -0.000261983
0.000669606 -3.85869e-05 4.96207e-07
-3.85869e-05 0.000208018 3.49879e-06
4.96207e-07 3.49879e-06 3.35163e-07
0.00175858 -0.000207259 3.0622e-07
-0.000207259 0.000974465 -1.18185e-06
3.0622e-07 -1.18185e-06 0.000641015
0.00148557 -0.000622271 1.42216e-06
-0.000622271 5.58732e-05 3.91072e-06
1.42216e-06 3.91072e-06 5.62844e-06
0.000772698 -0.000519237 -1.75915e-05
-0.000519237 0.000289155 6.33196e-06
-1.75915e-05 6.33196e-06 -4.98826e-05
0.00276544 -0.00106882 2.12218e-05
-0.00106882 0.000488152 -1.98778e-05
2.12218e-05 -1.98778e-05 0.000440695
-5.48872e-05 -0.000401313 -1.44413e-05
-0.000401313 -0.000326548 1.83616e-05
-1.44413e-05 1.83616e-05 -0.000418013
-0.000752026 -4.92642e-05 6.38046e-06
-4.92642e-05 -0.000321157 8.96019e-06
6.38046e-06 8.96019e-06 -0.000765074
0.000651986 9.56599e-06 -1.52421e-06
9.56599e-06 0.000160556 -1.33713e-06
-1.52421e-06 -1.33713e-06 -2.17011e-05
0.00103666 3.25524e-05 7.72653e-06
3.25524e-05 0.000519989 -5.4479e-06
7.72653e-06 -5.4479e-06 0.000263217
0.00145626 3.49163e-05 -2.373e-05
3.49163e-05 0.00163765 -1.18742e-05
-2.373e-05 -1.18742e-05 -0.0014561
-0.0049095 0.000282693 -0.000237041
0.000282693 0.00506622 -1.16066e-05
-0.000237041 -1.16066e-05 0.00112962
-0.0119879 -0.0015003 -0.000485203
-0.0015003 -0.00578714 -1.88955e-05
-0.000485203 -1.88955e-05 -0.00574954
-0.000629253 0.000131856 7.86186e-06
0.000131856 -0.000571415 -5.22033e-07
7.86186e-06 -5.22033e-07 -0.0007628
-0.000539733 0.000345607 -1.27496e-06
0.000345607 -0.000444464 1.11542e-05
-1.27496e-06 1.11542e-05 -0.000763131
0.00151944 0.000702459 3.13832e-05
0.000702459 0.000165614 1.29156e-05
3.13832e-05 1.29156e-05 8.5212e-05
-0.00509313 0.00121617 1.76903e-05
0.00121617 0.00399209 4.07269e-05
1.76903e-05 4.07269e-05 0.000308315
0.00355741 0.00200094 -0.000169947
0.00200094 -3.6044e-06 -0.000137868
-0.000169947 -0.000137868 -0.0038126
0.00237391 0.00157274 0.000295036
0.00157274 0.000569473 9.03272e-05
0.000295036 9.03272e-05 0.00037028
-0.000333171 0.000595531 9.90659e-06
0.000595531 -0.00028251 -3.76862e-05
9.90659e-06 -3.76862e-05 -0.00042715
0.0188108 -0.00269708 -0.000107732
-0.00269708 0.00581694 -0.000239657
-0.000107732 -0.000239657 0.00410485
0.00504628 0.000879803 0.000322616
0.000879803 0.00259899 0.000120483
0.000322616 0.000120483 -0.00209097
0.012602 -0.00166556 0.000106594
-0.00166556 0.00192107 2.77147e-05
0.000106594 2.77147e-05 0.00329854
0.000830553 0.00033093 3.66213e-06
0.00033093 0.000368416 -2.37291e-06
3.66213e-06 -2.37291e-06 0.00016293
0.00376804 0.000301109 5.53003e-06
0.000301109 0.00235439 1.36796e-05
5.53003e-06 1.36796e-05 -0.00013779
0.00100861 0.000361171 4.0361e-05
0.000361171 -2.62624e-07 8.8884e-06
4.0361e-05 8.8884e-06 -0.00156636
-0.000685176 0.000336873 -2.13353e-06
0.000336873 -0.000339871 -2.53013e-06
-2.13353e-06 -2.53013e-06 -0.00059897
0.00106547 0.000856238 -9.45296e-05
0.000856238 0.00109396 -4.318e-05
-9.45296e-05 -4.318e-05 -2.80695e-05
0.00174931 0.00292331 0.000129937
0.00292331 0.000710487 8.14729e-05
0.000129937 8.14729e-05 -0.00313726
0.00800579 0.000181979 -1.30788e-05
0.000181979 -0.00323159 -0.000178697
-1.30788e-05 -0.000178697 -0.000365291
0.00388301 -0.00208895 -5.3365e-05
-0.00208895 0.00200414 -0.000110179
-5.3365e-05 -0.000110179 -0.00134386
0.00115493 0.00027591 -3.80927e-06
0.00027591 0.000803559 -1.80815e-05
-3.80927e-06 -1.80815e-05 0.000560033
-0.001541 4.17007e-05 5.2726e-06
4.17007e-05 -0.000157882 4.07847e-06
5.2726e-06 4.07847e-06 -0.000150017
0.00367369 -3.92339e-06 6.36237e-05
-3.92339e-06 -0.000181325 -0.000134671
6.36237e-05 -0.000134671 -0.00118062
0.00706113 0.001228 0.000179179
0.001228 -0.0025967 -1.34501e-05
0.000179179 -1.34501e-05 -0.00146777
-0.00166116 0.000108965 1.23738e-05
0.000108965 -6.07201e-05 -3.11724e-05
1.23738e-05 -3.11724e-05 -0.000743913
0.0120034 0.00237038 0.000198273
0.00237038 0.00543184 5.67466e-05
0.000198273 5.67466e-05 0.000902267
-0.00465876 -0.000459536 8.7694e-05
-0.000459536 0.000974863 0.000330516
8.7694e-05 0.000330516 -0.00182012
0.00266342 0.000354398 2.162e-05
0.000354398 0.00145856 1.7397e-05
2.162e-05 1.7397e-05 0.00126124
0.000708758 0.000191308 -5.57599e-06
0.000191308 0.000462574 -1.88313e-06
-5.57599e-06 -1.88313e-06 0.000172049
-0.000150464 7.90011e-05 1.89616e-06
7.90011e-05 0.000192522 2.18427e-06
1.89616e-06 2.18427e-06 -0.00015489
0.000673907 0.000149444 8.27272e-07
0.000149444 0.000154912 7.9712e-07
8.27272e-07 7.9712e-07 -7.58029e-06
0.000432166 5.26135e-05 2.02938e-06
5.26135e-05 2.6386e-05 2.21322e-06
2.02938e-06 2.21322e-06 -0.000120005
0.000769615 -6.15505e-06 9.84649e-06
-6.15505e-06 0.00054482 4.9573e-07
9.84649e-06 4.9573e-07 0.000247743
0.000528039 3.39955e-05 2.06194e-07
3.39955e-05 6.25155e-05 -6.31293e-07
2.06194e-07 -6.31293e-07 -7.34278e-05
0.000770767 -1.726e-05 -2.93123e-06
-1.726e-05 0.000528986 -2.33288e-06
-2.93123e-06 -2.33288e-06 0.000244964
4.64659e-05 3.6707e-05 1.18703e-06
3.6707e-05 0.000311652 6.63084e-07
1.18703e-06 6.63084e-07 -0.000101266
-4.00482e-05 1.203e-05 -9.41779e-06
1.203e-05 0.000166362 -3.95145e-06
-9.41779e-06 -3.95145e-06 -0.00013256
0.000219457 -2.6165e-05 -5.96183e-07
-2.6165e-05 0.000152614 -6.81839e-06
-5.96183e-07 -6.81839e-06 -9.44059e-05
0.000374233 -6.20283e-05 1.51171e-06
-6.20283e-05 -4.19901e-05 7.34305e-06
1.51171e-06 7.34305e-06 -0.000162469
0.000845874 -3.63488e-05 -1.32917e-06
-3.63488e-05 0.000246589 1.04318e-06
-1.32917e-06 1.04318e-06 0.000113623
0.00105512 -4.35574e-05 -1.00027e-05
-4.35574e-05 0.000392067 8.1043e-06
-1.00027e-05 8.1043e-06 0.00027578
0.000717475 -6.64421e-05 3.08828e-06
-6.64421e-05 0.000282657 -3.15849e-07
3.08828e-06 -3.15849e-07 0.000150956
0.000650157 -4.4489e-05 -1.2647e-06
-4.4489e-05 0.000125531 -5.89115e-07
-1.2647e-06 -5.89115e-07 9.36147e-06
0.000420585 -0.000122439 1.41597e-06
-0.000122439 2.86261e-05 7.87594e-07
1.41597e-06 7.87594e-07 -0.000101916
0.000139927 -0.000113512 -7.14821e-06
-0.000113512 -0.000263066 -1.34204e-06
-7.14821e-06 -1.34204e-06 -0.000332037
-0.000907553 -0.00020862 9.16829e-06
-0.00020862 -0.000847598 9.01417e-06
9.16829e-06 9.01417e-06 -0.00107767
0.000650037 -0.000163867 2.76512e-06
-0.000163867 7.25882e-05 7.11093e-07
2.76512e-06 7.11093e-07 -4.20517e-05
0.00123561 -0.000238151 -1.4895e-06
-0.000238151 0.000401068 6.6782e-06
-1.4895e-06 6.6782e-06 0.000228662
0.00177579 -0.000425428 -7.76247e-06
-0.000425428 0.000651921 8.54716e-06
-7.76247e-06 8.54716e-06 0.000358807
0.00129303 -0.000364011 -5.15194e-06
-0.000364011 0.000258188 2.39961e-07
-5.15194e-06 2.39961e-07 -2.7323e-05
0.00106359 -0.000254559 -2.23773e-06
-0.000254559 0.000347172 5.12344e-06
-2.23773e-06 5.12344e-06 0.00012345
0.000229943 -0.000210143 8.90616e-06
-0.000210143 -0.000277849 -2.68657e-06
8.90616e-06 -2.68657e-06 -0.000505908
0.00103784 -0.000125164 1.56014e-06
-0.000125164 0.0003574 -2.19647e-06
1.56014e-06 -2.19647e-06 0.000174683
0.00124985 -0.000177156 -4.73128e-06
-0.000177156 0.000495801 -3.59552e-07
-4.73128e-06 -3.59552e-07 0.000313966
0.000147058 -9.94097e-05 6.57488e-06
-9.94097e-05 -0.000190689 -1.28318e-05
6.57488e-06 -1.28318e-05 -0.000320462
0.00102496 -7.21225e-05 -9.81203e-08
-7.21225e-05 0.000305684 1.34943e-06
-9.81203e-08 1.34943e-06 0.000171917
0.000289369 -5.46598e-05 4.96752e-07
-5.46598e-05 -9.8903e-05 -4.40192e-07
4.96752e-07 -4.40192e-07 -0.000241028
0.000646295 -3.96685e-05 1.15082e-07
-3.96685e-05 8.395e-05 7.25373e-07
1.15082e-07 7.25373e-07 -2.78811e-05
0.0010159 -0.000138194 -7.74117e-07
-0.000138194 0.000363657 9.94288e-08
-7.74117e-07 9.94288e-08 0.00020762
0.000663137 -6.76235e-05 -1.30491e-07
-6.76235e-05 0.000115029 3.26164e-08
-1.30491e-07 3.26164e-08 -1.3669e-06
0.000529861 2.07259e-05 8.03637e-07
2.07259e-05 1.83908e-05 3.11578e-06
8.03637e-07 3.11578e-06 -6.19007e-05
0.000758513 -0.000103691 3.29441e-07
-0.000103691 0.00018703 -2.20219e-06
3.29441e-07 -2.20219e-06 6.74175e-05
0.000542566 1.1903e-05 -1.63463e-06
1.1903e-05 2.27805e-05 -1.4354e-07
-1.63463e-06 -1.4354e-07 -5.14786e-05
0.00137668 2.93755e-05 -1.18332e-05
2.93755e-05 0.000505491 4.51822e-06
-1.18332e-05 4.51822e-06 0.000485444
0.000606485 -4.9154e-05 2.72965e-06
-4.9154e-05 5.84498e-05 -3.15745e-06
2.72965e-06 -3.15745e-06 -1.21115e-05
0.000911972 1.07089e-05 -6.27165e-06
1.07089e-05 0.000218959 6.34009e-07
-6.27165e-06 6.34009e-07 0.000197832
0.000821433 3.25875e-05 -1.22535e-07
3.25875e-05 0.000158542 2.7082e-06
-1.22535e-07 2.7082e-06 0.000160055
0.000486771 -3.65105e-06 1.32488e-06
-3.65105e-06 -4.076e-05 -4.95315e-06
1.32488e-06 -4.95315e-06 -6.27241e-05
0.00166201 3.54582e-05 1.06859e-05
3.54582e-05 0.000678103 -1.30985e-06
1.06859e-05 -1.30985e-06 0.000686088
0.00246884 3.06173e-05 1.0474e-05
3.06173e-05 0.00117484 -5.27106e-06
1.0474e-05 -5.27106e-06 0.00118797
0.000351843 1.18982e-05 1.28522e-06
1.18982e-05 -6.99418e-05 -3.69988e-07
1.28522e-06 -3.69988e-07 -0.000185899
0.000240768 1.36703e-05 3.22175e-07
1.36703e-05 -0.000170854 -3.27811e-06
3.22175e-07 -3.27811e-06 -0.000228011
0.000668935 3.75906e-05 -1.0058e-09
3.75906e-05 0.00012109 1.18261e-07
-1.0058e-09 1.18261e-07 2.03416e-05
0.000513798 -1.69399e-06 1.12979e-06
-1.69399e-06 -3.38597e-05 -3.66994e-06
1.12979e-06 -3.66994e-06 -4.39193e-05
0.000377052 2.86915e-06 1.45069e-06
2.86915e-06 -8.88011e-05 -1.75619e-08
1.45069e-06 -1.75619e-08 -0.000136662
0.000353088 -9.1959e-05 -2.02818e-06
-9.1959e-05 -6.92335e-05 1.69753e-07
-2.02818e-06 1.69753e-07 -0.000161196
0.0020599 -8.55669e-06 -8.5104e-06
-8.55669e-06 0.000919636 -4.74681e-06
-8.5104e-06 -4.74681e-06 0.000937922
0.000510499 1.42017e-07 -5.31189e-08
1.42017e-07 -3.57029e-05 -4.83834e-08
-5.31189e-08 -4.83834e-08 -4.39993e-05
0.000495186 -1.8774e-05 -2.4004e-06
-1.8774e-05 -1.50241e-05 1.95401e-06
-2.4004e-06 1.95401e-06 -5.74423e-05
0.00201351 6.59393e-06 -4.32714e-06
6.59393e-06 0.000891759 1.54939e-08
-4.32714e-06 1.54939e-08 0.000910227
0.000496633 3.20388e-06 -1.1158e-06
3.20388e-06 -4.3764e-05 3.16335e-06
-1.1158e-06 3.16335e-06 -5.15228e-05
0.00198321 2.12982e-05 -7.8611e-07
2.12982e-05 0.000874686 4.54635e-06
-7.8611e-07 4.54635e-06 0.000892634
0.0001657 -0.000452503 -0.000176121
-0.000452503 -0.000225598 5.13879e-05
-0.000176121 5.13879e-05 -0.0025142
0.00130399 0.00031502 -6.42159e-05
0.00031502 0.00553759 3.6259e-06
-6.42159e-05 3.6259e-06 0.00281601
0.0013305 -0.000284306 -0.000512304
-0.000284306 0.00298938 7.54482e-05
-0.000512304 7.54482e-05 0.0015118
0.000717374 0.000105827 3.26212e-06
0.000105827 0.000151181 2.17826e-06
3.26212e-06 2.17826e-06 7.81409e-06
0.00400873 -0.000548291 -2.97033e-05
-0.000548291 0.00281266 0.00016372
-2.97033e-05 0.00016372 0.00111296
0.00384125 -0.000895795 -0.00020181
-0.000895795 0.00149511 1.55112e-05
-0.00020181 1.55112e-05 -0.00254296
0.00609061 0.00167037 0.000309605
0.00167037 0.00557037 -0.000239437
0.000309605 -0.000239437 0.00303636
0.00594338 -0.000579368 7.05442e-05
-0.000579368 0.000820863 -2.39768e-05
7.05442e-05 -2.39768e-05 0.000778792
0.0122973 -0.00136664 0.000197273
-0.00136664 0.0016565 -8.36386e-05
0.000197273 -8.36386e-05 9.50057e-05
0.00233279 0.00333928 -0.000371111
0.00333928 -0.00220072 0.000307922
-0.000371111 0.000307922 -0.00317274
0.0100209 0.00308256 3.31677e-05
0.00308256 0.00232137 0.000135197
3.31677e-05 0.000135197 0.000621779
0.00612801 -0.00143134 -0.000117342
-0.00143134 0.000233838 -6.18266e-06
-0.000117342 -6.18266e-06 0.000278803
0.0155602 -0.00222178 4.74039e-05
-0.00222178 0.00458624 -2.32165e-05
4.74039e-05 -2.32165e-05 0.00231297
0.00819447 0.00202177 0.000133016
0.00202177 0.00151017 -0.000235875
0.000133016 -0.000235875 -0.000626489
0.00911036 0.00112828 1.3668e-05
0.00112828 -0.00116097 2.25944e-05
1.3668e-05 2.25944e-05 -0.000378361
0.00283047 -0.00183155 -2.00668e-05
-0.00183155 -0.000175217 3.12067e-05
-2.00668e-05 3.12067e-05 -0.000563492
0.0111865 -0.00280889 0.000133973
-0.00280889 0.00486983 -8.48292e-05
0.000133973 -8.48292e-05 0.000754864
0.00654643 -3.80667e-05 0.000118147
-3.80667e-05 0.00245815 -0.00033332
0.000118147 -0.00033332 0.000764045
0.0100603 0.000643779 -8.76697e-05
0.000643779 -0.00130491 0.000180973
-8.76697e-05 0.000180973 0.00101821
0.000772391 -1.20548e-05 3.73729e-06
-1.20548e-05 0.000253553 4.54725e-06
3.73729e-06 4.54725e-06 6.4734e-05
0.000819592 -0.000101875 -4.85883e-07
-0.000101875 0.000297862 3.31046e-07
-4.85883e-07 3.31046e-07 0.000101218
0.000696269 0.000127943 -3.81371e-07
0.000127943 0.000173018 -4.27624e-06
-3.81371e-07 -4.27624e-06 3.84346e-05
0.000662474 8.78023e-05 1.28155e-06
8.78023e-05 0.000104242 4.91515e-06
1.28155e-06 4.91515e-06 -3.35282e-05
0.00074259 0.000130564 -4.98489e-08
0.000130564 0.000204863 6.69322e-07
-4.98489e-08 6.69322e-07 3.54217e-05
0.000935125 7.52368e-05 -4.86663e-06
7.52368e-05 0.000323049 -2.48825e-06
-4.86663e-06 -2.48825e-06 0.000184803
0.00101345 0.000150261 -1.17292e-06
0.000150261 0.00036119 -5.10798e-09
-1.17292e-06 -5.10798e-09 0.000204823
0.00104206 0.000163336 3.88817e-07
0.000163336 0.000398692 1.9915e-06
3.88817e-07 1.9915e-06 0.000239198
-2.26958e-05 -0.000374394 7.70114e-05
-0.000374394 -0.00101785 -3.82729e-05
7.70114e-05 -3.82729e-05 -0.000952929
0.00188676 -0.000671331 7.03976e-06
-0.000671331 0.00022548 -1.39016e-05
7.03976e-06 -1.39016e-05 0.000192681
0.000932103 -0.000206318 -7.93984e-07
-0.000206318 0.000377663 -1.53675e-05
-7.93984e-07 -1.53675e-05 0.000146635
0.00134402 -0.000587253 2.2953e-05
-0.000587253 0.00058444 -2.26714e-05
2.2953e-05 -2.26714e-05 0.0002518
0.00233516 -0.000345644 -1.19798e-05
-0.000345644 0.00127932 7.38128e-06
-1.19798e-05 7.38128e-06 0.000952656
0.00118889 -0.000107781 -1.38306e-06
-0.000107781 0.000508953 -1.41531e-05
-1.38306e-06 -1.41531e-05 0.000298985
0.000273984 -4.12361e-05 1.48002e-06
-4.12361e-05 -6.51661e-05 4.35616e-06
1.48002e-06 4.35616e-06 -0.000246442
8.26148e-05 -0.000799362 1.52026e-07
-0.000799362 -0.000907502 -2.64829e-06
1.52026e-07 -2.64829e-06 -0.000878011
0.00122732 3.92331e-05 -6.53767e-07
3.92331e-05 0.000638996 1.2833e-06
-6.53767e-07 1.2833e-06 0.00037012
0.000902545 -0.000213414 3.1471e-06
-0.000213414 0.000539089 1.9113e-06
3.1471e-06 1.9113e-06 0.000160294
0.000480044 -0.00035991 1.48792e-05
-0.00035991 -3.86442e-05 3.37784e-06
1.48792e-05 3.37784e-06 -8.03859e-05
0.00136944 0.000119769 -6.34458e-08
0.000119769 0.000569076 -8.71994e-07
-6.34458e-08 -8.71994e-07 0.000421287
0.00147859 -0.000791468 -8.80864e-06
-0.000791468 0.00022741 -3.54406e-05
-8.80864e-06 -3.54406e-05 0.000170103
-0.000549094 -0.000327569 -1.73398e-05
-0.000327569 -0.000338453 2.34311e-05
-1.73398e-05 2.34311e-05 -0.000539654
-0.000473774 6.57678e-05 1.40953e-05
6.57678e-05 2.85479e-05 -4.79144e-06
1.40953e-05 -4.79144e-06 -0.000510728
0.00112174 0.000205124 1.91341e-06
0.000205124 0.000513171 -3.94623e-06
1.91341e-06 -3.94623e-06 0.000325695
-0.00060728 4.14632e-05 4.00037e-05
4.14632e-05 0.000927629 6.78448e-07
4.00037e-05 6.78448e-07 0.000284266
0.000841616 -3.46934e-05 0.000115093
-3.46934e-05 0.00122717 -2.48163e-05
0.000115093 -2.48163e-05 -0.00183607
-0.00862735 -0.000204063 -0.000195774
-0.000204063 0.00447579 1.77637e-05
-0.000195774 1.77637e-05 -5.82393e-05
0.00146122 0.00037851 1.55645e-05
0.00037851 0.000822126 4.77252e-06
1.55645e-05 4.77252e-06 0.000604788
-0.00135186 0.000447248 4.2013e-06
0.000447248 -0.000746339 1.38654e-05
4.2013e-06 1.38654e-05 -0.00109764
0.00497915 0.000356179 0.000184689
0.000356179 0.00295904 2.64484e-05
0.000184689 2.64484e-05 0.00126173
0.00927776 0.00221683 0.000236553
0.00221683 0.00362989 0.000135694
0.000236553 0.000135694 -0.000386479
0.00306146 0.00142046 -7.90847e-05
0.00142046 0.0018519 -7.92281e-05
-7.90847e-05 -7.92281e-05 0.000604987
0.00524805 -0.00163114 -0.000104715
-0.00163114 0.00290262 -0.00035392
-0.000104715 -0.00035392 0.000226474
0.00176648 0.000344161 9.13364e-05
0.000344161 0.000145376 0.000166028
9.13364e-05 0.000166028 -0.00139362
0.00591194 -0.000119095 -3.35496e-05
-0.000119095 -0.00508336 -0.000199269
-3.35496e-05 -0.000199269 -0.00180492
0.00076336 0.000295876 2.80482e-06
0.000295876 0.000574453 -7.00357e-07
2.80482e-06 -7.00357e-07 0.00030956
-0.00136195 8.28551e-07 -1.00072e-06
8.28551e-07 -0.000133315 -7.28274e-07
-1.00072e-06 -7.28274e-07 -0.000209935
0.00353838 5.1996e-05 7.30559e-05
5.1996e-05 -0.000102418 2.24111e-05
7.30559e-05 2.24111e-05 -0.000534893
-0.0012939 0.000288942 -9.27314e-06
0.000288942 -0.000341559 -7.09743e-06
-9.27314e-06 -7.09743e-06 -0.000924803
0.00901744 0.00123111 -9.08161e-06
0.00123111 -0.00109081 -1.95055e-05
-9.08161e-06 -1.95055e-05 -0.000390347
0.00353733 0.00138915 0.000163535
0.00138915 0.00326928 0.000101881
0.000163535 0.000101881 -0.00164177
0.00516231 0.000635144 -0.000129375
0.000635144 0.0029075 2.67077e-06
-0.000129375 2.67077e-06 0.000445352
0.000455989 0.000308593 -1.04479e-05
0.000308593 0.000426965 -2.18615e-05
-1.04479e-05 -2.18615e-05 3.63411e-05
0.00131063 5.82445e-05 1.50438e-05
5.82445e-05 -0.000279297 -2.2287e-05
1.50438e-05 -2.2287e-05 -0.000104016
0.00363786 -0.000558503 2.20802e-05
-0.000558503 0.00276618 -0.000166716
2.20802e-05 -0.000166716 0.00119055
0.0131198 0.00312702 0.000278666
0.00312702 0.00298532 -0.000211144
0.000278666 -0.000211144 0.00206922
0.00664271 -4.12627e-05 -9.60199e-05
-4.12627e-05 0.00261998 0.0003387
-9.60199e-05 0.0003387 0.000826825
0.000683415 0.000306615 -6.02463e-06
0.000306615 0.00042428 -0.000104061
-6.02463e-06 -0.000104061 3.69256e-05
0.00182522 0.00142919 0.000208214
0.00142919 0.00436599 4.25894e-05
0.000208214 4.25894e-05 -0.00269888
0.00177783 0.00032323 2.82395e-06
0.00032323 0.00103719 1.76381e-05
2.82395e-06 1.76381e-05 0.000755067
0.000679409 0.000184994 1.9927e-06
0.000184994 0.000640965 -6.35244e-07
1.9927e-06 -6.35244e-07 0.000309268
0.000129908 -2.37526e-05 -1.05913e-05
-2.37526e-05 0.0004006 -1.20534e-05
-1.05913e-05 -1.20534e-05 0.000142091
0.000146974 -4.02702e-05 9.01521e-07
-4.02702e-05 -0.000183836 5.64931e-06
9.01521e-07 5.64931e-06 -0.000306355
0.00124881 -4.33748e-07 4.29593e-06
-4.33748e-07 0.000793967 8.83297e-08
4.29593e-06 8.83297e-08 0.000521929
0.000546847 2.29089e-05 2.3438e-06
2.29089e-05 0.000571294 -2.29688e-06
2.3438e-06 -2.29688e-06 0.000179809
0.000446328 -4.02523e-05 8.3485e-07
-4.02523e-05 0.000239448 -1.61698e-07
8.3485e-07 -1.61698e-07 3.44227e-05
-9.06937e-05 -1.34956e-05 3.74881e-06
-1.34956e-05 0.000137853 1.36996e-06
3.74881e-06 1.36996e-06 -0.00016887
0.00115814 -0.000224867 1.6121e-06
-0.000224867 0.000705464 -1.23947e-05
1.6121e-06 -1.23947e-05 0.00044709
0.000916511 -7.90827e-05 -4.09704e-06
-7.90827e-05 0.000381006 7.46103e-06
-4.09704e-06 7.46103e-06 0.000258284
0.000419325 -1.35999e-05 -1.07414e-06
-1.35999e-05 -1.31058e-05 2.5482e-06
-1.07414e-06 2.5482e-06 -0.000127443
0.00133024 -0.000205243 2.62616e-06
-0.000205243 0.000557641 3.47736e-06
2.62616e-06 3.47736e-06 0.000409576
-0.00128214 -0.000203947 1.33974e-05
-0.000203947 -0.000880714 6.21187e-06
1.33974e-05 6.21187e-06 -0.00115543
0.00012286 -0.000103234 -4.4079e-07
-0.000103234 -0.000204712 -5.968e-08
-4.4079e-07 -5.968e-08 -0.000250897
-0.000243775 -0.000243054 2.15315e-06
-0.000243054 -0.000477611 -2.86516e-06
2.15315e-06 -2.86516e-06 -0.000688628
0.0011379 -0.000409034 5.92829e-06
-0.000409034 0.000217226 -4.34545e-06
5.92829e-06 -4.34545e-06 -0.000127717
0.00149827 -0.000474084 -2.58981e-06
-0.000474084 0.00031941 -6.96701e-08
-2.58981e-06 -6.96701e-08 -2.57774e-05
0.00210934 -0.000339902 1.14482e-06
-0.000339902 0.000916394 -3.97421e-07
1.14482e-06 -3.97421e-07 0.000718602
0.00122354 -0.000365382 1.50403e-06
-0.000365382 0.000296736 4.50834e-07
1.50403e-06 4.50834e-07 5.63499e-06
0.00162469 -0.000404473 2.27137e-06
-0.000404473 0.000441363 -1.86508e-06
2.27137e-06 -1.86508e-06 0.000157743
0.000747985 -0.000263114 -2.87869e-06
-0.000263114 1.97782e-05 4.4209e-06
-2.87869e-06 4.4209e-06 -0.000224468
0.000788288 -0.00030216 5.13091e-07
-0.00030216 -3.97137e-05 -3.74214e-06
5.13091e-07 -3.74214e-06 -0.000307319
0.000431898 -0.000111878 1.23396e-06
-0.000111878 1.73166e-05 -2.3705e-06
1.23396e-06 -2.3705e-06 -0.000203211
0.00117638 -0.000292549 -6.15397e-06
-0.000292549 0.000430788 3.90289e-06
-6.15397e-06 3.90289e-06 0.000189778
-0.00137584 -2.66123e-05 -3.58268e-06
-2.66123e-05 -0.00124211 -6.00283e-06
-3.58268e-06 -6.00283e-06 -0.00142959
0.000440921 -3.59097e-05 8.83064e-07
-3.59097e-05 -4.03035e-05 8.57819e-07
8.83064e-07 8.57819e-07 -0.000163991
0.000616674 -0.000103074 -7.77625e-09
-0.000103074 0.000115708 -1.00116e-07
-7.77625e-09 -1.00116e-07 -6.50167e-05
0.000836438 -0.000172085 5.62426e-06
-0.000172085 0.000270674 -1.83828e-06
5.62426e-06 -1.83828e-06 7.83923e-05
0.000566816 -7.36453e-05 4.56698e-07
-7.36453e-05 7.20353e-05 7.90946e-07
4.56698e-07 7.90946e-07 -7.29656e-05
0.000697875 -5.75329e-05 -4.8825e-07
-5.75329e-05 0.000129683 1.49891e-07
-4.8825e-07 1.49891e-07 7.17571e-06
0.000515671 1.41167e-05 5.81572e-07
1.41167e-05 2.18376e-06 3.81955e-06
5.81572e-07 3.81955e-06 -8.26716e-05
0.00079895 -8.57603e-05 9.3017e-10
-8.57603e-05 0.000208323 -1.20315e-06
9.3017e-10 -1.20315e-06 8.26496e-05
0.000567161 1.1306e-05 -1.17448e-06
1.1306e-05 3.65997e-05 -2.30929e-07
-1.17448e-06 -2.30929e-07 -4.12131e-05
0.000468321 3.21446e-05 -6.33469e-07
3.21446e-05 -4.84982e-05 5.6078e-06
-6.33469e-07 5.6078e-06 -7.64816e-05
0.000676841 -4.35816e-05 2.17711e-06
-4.35816e-05 9.88349e-05 -3.0832e-06
2.17711e-06 -3.0832e-06 2.71213e-05
0.000492843 1.61335e-05 -7.27881e-08
1.61335e-05 -4.023e-05 -3.49261e-08
-7.27881e-08 -3.49261e-08 -6.46608e-05
0.00246176 8.58705e-05 -3.04427e-06
8.58705e-05 0.00117556 2.32456e-06
-3.04427e-06 2.32456e-06 0.00118241
0.000496577 6.03974e-06 1.62408e-06
6.03974e-06 -3.78363e-05 -5.18237e-06
1.62408e-06 -5.18237e-06 -6.1256e-05
0.0016973 4.86343e-05 1.29273e-05
4.86343e-05 0.000700673 -1.09803e-06
1.29273e-05 -1.09803e-06 0.000706635
0.00253114 4.65741e-05 1.66924e-05
4.65741e-05 0.0012134 -5.34726e-06
1.66924e-05 -5.34726e-06 0.00122518
0.000318656 1.12451e-05 1.06335e-06
1.12451e-05 -0.000106147 -1.36157e-06
1.06335e-06 -1.36157e-06 -0.000214857
0.000252216 7.61048e-06 8.50006e-07
7.61048e-06 -0.00016691 -3.02105e-06
8.50006e-07 -3.02105e-06 -0.000232146
0.000516491 2.51462e-05 -4.86616e-07
2.51462e-05 3.01915e-05 -1.12688e-06
-4.86616e-07 -1.12688e-06 -8.26689e-05
0.000525487 -5.83529e-06 1.65235e-06
-5.83529e-06 -2.70879e-05 -4.0493e-06
1.65235e-06 -4.0493e-06 -3.97408e-05
0.000227436 1.11545e-05 -6.13524e-07
1.11545e-05 -0.000179395 -1.54308e-06
-6.13524e-07 -1.54308e-06 -0.00023784
0.000679113 4.59517e-05 -6.99257e-07
4.59517e-05 0.000137829 1.30836e-06
-6.99257e-07 1.30836e-06 3.02843e-05
0.00209801 -2.19113e-05 -1.37829e-05
-2.19113e-05 0.000942843 -4.64714e-06
-1.37829e-05 -4.64714e-06 0.00096056
0.000511327 -3.03238e-06 -4.0692e-07
-3.03238e-06 -3.58186e-05 -6.07074e-08
-4.0692e-07 -6.07074e-08 -4.56087e-05
0.00017494 1.00093e-05 7.44427e-07
1.00093e-05 -0.000210129 1.67721e-06
7.44427e-07 1.67721e-06 -0.000261319
0.00203331 -7.13106e-06 -3.89878e-06
-7.13106e-06 0.000903094 5.1576e-08
-3.89878e-06 5.1576e-08 0.0009216
0.000502824 -1.34825e-07 -1.23633e-06
-1.34825e-07 -4.06668e-05 3.4219e-06
-1.23633e-06 3.4219e-06 -4.87628e-05
0.00203684 8.10105e-06 4.25226e-06
8.10105e-06 0.000906429 4.70025e-06
4.25226e-06 4.70025e-06 0.000924654
0.00040032 -2.23142e-05 6.5075e-05
-2.23142e-05 0.0010836 1.49258e-05
6.5075e-05 1.49258e-05 0.00089405
7.79028e-05 -0.000264849 -2.44497e-05
-0.000264849 0.000156332 -1.48289e-05
-2.44497e-05 -1.48289e-05 -0.00261069
0.000505708 0.000267405 3.22491e-05
0.000267405 0.00525817 -3.04567e-05
3.22491e-05 -3.04567e-05 0.00261664
0.000760357 0.000114225 7.01918e-08
0.000114225 0.000169981 2.53141e-07
7.01918e-08 2.53141e-07 3.53066e-05
0.000500795 7.79411e-05 3.44162e-06
7.79411e-05 -4.65783e-06 1.06883e-06
3.44162e-06 1.06883e-06 -0.00012856
0.000984275 0.000162242 4.63096e-06
0.000162242 0.000306913 3.74404e-06
4.63096e-06 3.74404e-06 0.000166682
0.00416096 -9.88417e-05 -1.97127e-05
-9.88417e-05 -0.000362726 0.000215206
-1.97127e-05 0.000215206 -0.00108893
0.00395772 -0.000528431 5.20093e-05
-0.000528431 0.00264227 -5.28977e-06
5.20093e-05 -5.28977e-06 0.00131961
0.00440908 -0.00104414 0.000111537
-0.00104414 0.00183728 -0.000184576
0.000111537 -0.000184576 -0.00233213
0.00782453 -0.0017764 -6.54754e-05
-0.0017764 0.000800125 -1.82677e-05
-6.54754e-05 -1.82677e-05 0.00102517
0.000660149 -0.0018934 -0.00024701
-0.0018934 -0.00141013 0.000100114
-0.00024701 0.000100114 -0.00438221
0.0187389 0.00287254 0.000129746
0.00287254 0.00729605 0.000100636
0.000129746 0.000100636 0.00477394
0.00540742 0.000160965 0.000173653
0.000160965 -0.00308798 -0.000168328
0.000173653 -0.000168328 -0.00277569
0.0049303 -0.00208239 -3.24887e-05
-0.00208239 0.000646016 1.21519e-05
-3.24887e-05 1.21519e-05 0.000411302
0.00728642 -0.0024331 -7.3266e-05
-0.0024331 0.00295915 2.26017e-05
-7.3266e-05 2.26017e-05 -0.0010729
-0.00344673 0.00259891 -6.99102e-05
0.00259891 0.00186233 -0.000229064
-6.99102e-05 -0.000229064 -0.0016043
0.00799553 0.000236833 -4.17005e-05
0.000236833 -0.00333025 0.000102856
-4.17005e-05 0.000102856 -0.000412314
0.000924829 -0.00119783 -9.49266e-05
-0.00119783 0.000176626 2.48098e-05
-9.49266e-05 2.48098e-05 -0.000143685
0.0109304 -0.00227088 -0.000176642
-0.00227088 0.00522548 0.000120658
-0.000176642 0.000120658 0.000829562
-0.00505065 -7.65459e-06 3.57539e-05
-7.65459e-06 0.00113622 -0.000292177
3.57539e-05 -0.000292177 -0.00188288
0.00716819 -0.00125635 8.00676e-05
-0.00125635 -0.00199992 2.7122e-05
8.00676e-05 2.7122e-05 -0.00102797
0.000457855 8.14919e-05 2.64569e-06
8.14919e-05 6.38212e-06 9.68301e-06
2.64569e-06 9.68301e-06 -0.00013551
0.000740729 -1.81617e-05 2.44648e-06
-1.81617e-05 0.000223789 -1.96029e-06
2.44648e-06 -1.96029e-06 2.98798e-05
0.000901813 -0.000107823 -7.85148e-07
-0.000107823 0.000318257 -7.00601e-06
-7.85148e-07 -7.00601e-06 0.000128477
0.000694668 0.00010425 -1.48037e-06
0.00010425 0.000127185 3.51656e-07
-1.48037e-06 3.51656e-07 -1.54254e-05
0.000787087 0.000137752 7.92893e-08
0.000137752 0.000235709 -2.54283e-06
7.92893e-08 -2.54283e-06 7.31319e-05
0.00113901 0.000164743 -3.58773e-06
0.000164743 0.000442737 -1.68138e-06
-3.58773e-06 -1.68138e-06 0.000282633
-0.00117513 -0.000681585 1.84194e-05
-0.000681585 -0.00161306 -7.34816e-07
1.84194e-05 -7.34816e-07 -0.00155125
0.000216281 -0.000268604 2.60062e-05
-0.000268604 -0.000191384 -2.25239e-05
2.60062e-05 -2.25239e-05 -0.000179971
0.000114163 2.07044e-05 -2.65558e-06
2.07044e-05 -0.00015574 -7.37164e-06
-2.65558e-06 -7.37164e-06 -0.000342491
0.00130508 -0.000345953 4.56235e-05
-0.000345953 0.000700511 -2.69488e-05
4.56235e-05 -2.69488e-05 0.00035492
0.00137961 -3.80487e-05 -5.99725e-06
-3.80487e-05 0.000723065 -2.46074e-06
-5.99725e-06 -2.46074e-06 0.000457706
0.000640917 9.54396e-05 2.00256e-06
9.54396e-05 0.000157035 2.00552e-06
2.00256e-06 2.00552e-06 -1.66842e-06
0.000923718 0.000152539 -3.4502e-07
0.000152539 0.00038542 -2.4428e-06
-3.4502e-07 -2.4428e-06 0.000219446
0.000318584 -0.000817645 3.98767e-06
-0.000817645 -0.000422941 -4.14352e-06
3.98767e-06 -4.14352e-06 -0.000565766
0.000147715 8.49199e-06 -5.54918e-06
8.49199e-06 0.000331503 3.67779e-06
-5.54918e-06 3.67779e-06 -0.000122772
0.00131496 -0.000236637 9.77681e-06
-0.000236637 0.000668375 -6.57419e-06
9.77681e-06 -6.57419e-06 0.000440894
0.00115669 0.000153111 2.02501e-06
0.000153111 0.0005124 -5.72859e-06
2.02501e-06 -5.72859e-06 0.000364777
-0.00262346 -8.64066e-05 -0.000110027
-8.64066e-05 -0.000781125 -1.75134e-05
-0.000110027 -1.75134e-05 -0.0014594
5.91475e-05 -0.00012638 -1.79023e-05
-0.00012638 0.000276805 1.23095e-05
-1.79023e-05 1.23095e-05 6.033e-06
0.000266594 0.000119972 4.32468e-06
0.000119972 0.000357492 7.96406e-06
4.32468e-06 7.96406e-06 -5.97942e-06
0.000167862 4.73855e-05 -2.18826e-06
4.73855e-05 -0.000538181 3.36601e-07
-2.18826e-06 3.36601e-07 -0.00106638
-0.000986114 5.11841e-05 9.92434e-06
5.11841e-05 0.000626359 -1.55461e-05
9.92434e-06 -1.55461e-05 8.68207e-05
0.000116689 -0.000104183 0.000251314
-0.000104183 0.000800215 7.41551e-06
0.000251314 7.41551e-06 -0.00227217
-0.000557624 0.000219842 -4.81867e-06
0.000219842 -0.00018725 2.0088e-05
-4.81867e-06 2.0088e-05 -0.000477806
0.000852284 0.00062182 -3.8993e-06
0.00062182 0.000332272 -4.99803e-06
-3.8993e-06 -4.99803e-06 -0.000138225
-0.001248 -1.87379e-05 -7.34147e-07
-1.87379e-05 -0.000135724 -5.71827e-06
-7.34147e-07 -5.71827e-06 -0.000307547
-0.00376635 0.000642305 5.34177e-05
0.000642305 0.00144108 0.000132825
5.34177e-05 0.000132825 -0.00328066
-0.00637412 0.00106359 -0.000164252
0.00106359 -0.00298734 -0.000382825
-0.000164252 -0.000382825 -0.006234
0.00310823 8.38373e-05 6.11083e-05
8.38373e-05 -6.07734e-05 9.45563e-05
6.11083e-05 9.45563e-05 -6.6723e-05
0.00529246 0.00023188 -0.000179072
0.00023188 -0.00291559 0.000168482
-0.000179072 0.000168482 -0.00274144
0.000455881 0.000259458 3.71894e-06
0.000259458 0.000463675 -1.20736e-06
3.71894e-06 -1.20736e-06 0.000129479
0.00105288 5.46293e-06 2.28671e-05
5.46293e-06 -0.00039059 -2.82454e-05
2.28671e-05 -2.82454e-05 -0.000186648
0.00359127 -0.000421285 -5.37647e-05
-0.000421285 0.00257859 7.12895e-06
-5.37647e-05 7.12895e-06 0.00126135
0.000615649 0.00043671 -8.06792e-05
0.00043671 0.000947844 -6.2408e-06
-8.06792e-05 -6.2408e-06 -6.91063e-05
0.00915977 0.00316799 7.1801e-05
0.00316799 0.000536553 -0.000286423
7.1801e-05 -0.000286423 -0.000574363
-0.00162976 0.00205057 6.11157e-05
0.00205057 0.00183684 0.000228567
6.11157e-05 0.000228567 -0.00137738
0.0062836 0.000298318 4.75904e-05
0.000298318 0.00607082 -2.42336e-05
4.75904e-05 -2.42336e-05 -0.000365421
0.00104216 -1.61934e-05 3.5736e-05
-1.61934e-05 0.00134672 -2.53771e-05
3.5736e-05 -2.53771e-05 0.000597825
0.000307517 -4.35126e-05 -5.40121e-05
-4.35126e-05 0.0010395 3.5008e-06
-5.40121e-05 3.5008e-06 0.000823469
0.0026098 -0.000697303 0.000502432
-0.000697303 0.000934279 -0.000212175
0.000502432 -0.000212175 -0.00323962
0.0113322 0.00435185 -1.44735e-05
0.00435185 0.00801748 7.72203e-06
-1.44735e-05 7.72203e-06 0.00687747
-0.000645893 0.00252829 -6.9073e-05
0.00252829 -0.00187603 0.000560864
-6.9073e-05 0.000560864 -0.00378695
0.0122209 -0.00237827 0.000196115
-0.00237827 0.00539316 -0.000167963
0.000196115 -0.000167963 0.000717177
0.00332957 -0.000640446 -5.95659e-05
-0.000640446 0.00221646 5.16204e-05
-5.95659e-05 5.16204e-05 0.00157875
0.00143624 0.000253519 8.16759e-06
0.000253519 0.0010694 5.62519e-06
8.16759e-06 5.62519e-06 0.000737649
-7.70828e-05 -2.23863e-05 -9.24593e-06
-2.23863e-05 0.000221217 -1.40058e-06
-9.24593e-06 -1.40058e-06 -4.48139e-05
0.00172463 -0.000373255 2.5741e-05
-0.000373255 0.00106312 -1.10162e-05
2.5741e-05 -1.10162e-05 0.00069272
0.000813269 -8.73917e-05 4.28863e-07
-8.73917e-05 0.00042226 4.26736e-06
4.28863e-07 4.26736e-06 0.000250761
0.000124674 -3.90241e-05 -4.48158e-06
-3.90241e-05 0.000254124 3.25971e-06
-4.48158e-06 3.25971e-06 -5.10516e-05
0.000294216 -0.000204901 -2.3102e-06
-0.000204901 0.000296339 -3.36796e-07
-2.3102e-06 -3.36796e-07 2.89196e-05
0.000863451 -0.000407235 2.65529e-05
-0.000407235 0.000319669 -2.15003e-05
2.65529e-05 -2.15003e-05 0.000130321
0.00235085 -0.000293833 -4.07444e-06
-0.000293833 0.00116116 3.63326e-06
-4.07444e-06 3.63326e-06 0.00098868
0.00216501 -0.000547174 1.02007e-05
-0.000547174 0.000982637 -2.46262e-06
1.02007e-05 -2.46262e-06 0.000669674
0.00194882 -0.000540295 1.32482e-05
-0.000540295 0.00082648 -1.51249e-06
1.32482e-05 -1.51249e-06 0.000343119
0.000406985 -0.000253889 -3.84198e-06
-0.000253889 -0.000120813 -2.01914e-06
-3.84198e-06 -2.01914e-06 -0.000301467
0.00152402 -0.000450062 -2.47316e-06
-0.000450062 0.000398903 6.70088e-07
-2.47316e-06 6.70088e-07 4.95122e-05
0.00212538 -0.000608996 4.54387e-07
-0.000608996 0.000686349 1.07493e-06
4.54387e-07 1.07493e-06 0.000238525
0.00171281 -0.000611082 -3.91991e-06
-0.000611082 0.00033589 1.63871e-06
-3.91991e-06 1.63871e-06 -5.31104e-05
0.00156462 -0.000482843 -1.24758e-06
-0.000482843 0.000370998 8.98738e-07
-1.24758e-06 8.98738e-07 3.84586e-05
0.00146452 -0.000474585 -3.8827e-06
-0.000474585 0.000294493 1.28212e-06
-3.8827e-06 1.28212e-06 -5.28192e-05
0.00111961 -0.00035576 -5.29449e-06
-0.00035576 0.000201357 -2.03442e-07
-5.29449e-06 -2.03442e-07 -9.67406e-05
0.00231783 -0.000450837 4.18756e-06
-0.000450837 0.000919363 1.01205e-06
4.18756e-06 1.01205e-06 0.000643964
0.00144878 -0.000388576 4.70017e-06
-0.000388576 0.00033981 -2.87473e-06
4.70017e-06 -2.87473e-06 5.82686e-05
0.000205695 -0.000140768 7.17219e-07
-0.000140768 -0.000213547 7.11935e-08
7.17219e-07 7.11935e-08 -0.000435651
0.000827761 -0.000282374 3.48855e-06
-0.000282374 8.56558e-05 -1.05968e-06
3.48855e-06 -1.05968e-06 -0.000162909
0.000360499 -0.000250123 6.23487e-07
-0.000250123 -0.000288863 -6.69789e-06
6.23487e-07 -6.69789e-06 -0.000541012
-9.28154e-05 -1.53877e-05 4.8989e-07
-1.53877e-05 -0.000329122 1.66167e-06
4.8989e-07 1.66167e-06 -0.000507018
0.00105873 -0.000169625 -2.91567e-07
-0.000169625 0.000399171 1.68138e-08
-2.91567e-07 1.68138e-08 0.000169775
0.00104248 -0.000303826 -1.17803e-06
-0.000303826 0.000364475 -1.87122e-06
-1.17803e-06 -1.87122e-06 0.000111434
0.000693294 -7.90448e-06 -9.11903e-07
-7.90448e-06 0.00010772 4.37571e-06
-9.11903e-07 4.37571e-06 1.33418e-05
0.000805663 -8.40397e-05 -2.01365e-07
-8.40397e-05 0.000183176 -2.24213e-07
-2.01365e-07 -2.24213e-07 5.10218e-05
0.000337817 -8.01125e-05 -1.29144e-07
-8.01125e-05 -4.43832e-05 1.06817e-06
-1.29144e-07 1.06817e-06 -0.00022116
0.000720489 -7.95172e-05 6.13008e-07
-7.95172e-05 0.000148591 -9.56317e-07
6.13008e-07 -9.56317e-07 2.03673e-05
0.000613971 -2.76484e-05 -6.71336e-08
-2.76484e-05 5.76658e-05 -2.52412e-07
-6.71336e-08 -2.52412e-07 -2.61301e-05
0.000477164 3.622e-05 3.06138e-07
3.622e-05 -3.65174e-05 6.68962e-06
3.06138e-07 6.68962e-06 -6.91811e-05
0.000618273 -3.40204e-05 1.40914e-06
-3.40204e-05 6.31642e-05 -3.10603e-06
1.40914e-06 -3.10603e-06 -1.31336e-05
0.000510074 2.90529e-05 -1.11299e-06
2.90529e-05 -2.38126e-05 -1.46857e-07
-1.11299e-06 -1.46857e-07 -5.1827e-05
0.00257539 9.41366e-05 -3.05621e-05
9.41366e-05 0.00125219 4.32668e-06
-3.05621e-05 4.32668e-06 0.00125787
0.00052657 1.57802e-05 1.56332e-06
1.57802e-05 -1.99968e-05 -5.28558e-06
1.56332e-06 -5.28558e-06 -4.45443e-05
0.00167085 6.25723e-05 1.50224e-05
6.25723e-05 0.000687753 -8.60219e-07
1.50224e-05 -8.60219e-07 0.000691933
0.00256338 6.37735e-05 2.12523e-05
6.37735e-05 0.00123526 -5.02149e-06
2.12523e-05 -5.02149e-06 0.00124535
0.00070584 7.92461e-05 2.2526e-06
7.92461e-05 0.000141332 -4.77449e-07
2.2526e-06 -4.77449e-07 2.18189e-05
0.000549315 3.73944e-05 9.82989e-07
3.73944e-05 1.42011e-05 -2.62639e-06
9.82989e-07 -2.62639e-06 -5.4944e-05
0.000491016 4.45514e-05 -1.13403e-06
4.45514e-05 1.27443e-05 -1.1918e-06
-1.13403e-06 -1.1918e-06 -0.000105376
0.000513044 -6.2872e-06 9.78291e-07
-6.2872e-06 -3.4343e-05 -4.80546e-06
9.78291e-07 -4.80546e-06 -5.06546e-05
0.000377983 2.98302e-05 -1.96322e-06
2.98302e-05 -8.87593e-05 -1.54026e-06
-1.96322e-06 -1.54026e-06 -0.000153305
0.000712193 6.09045e-05 -9.33515e-07
6.09045e-05 0.000152194 -1.00668e-06
-9.33515e-07 -1.00668e-06 3.9795e-05
0.00217705 -3.65641e-05 -1.81608e-05
-3.65641e-05 0.000992094 -4.67956e-06
-1.81608e-05 -4.67956e-06 0.00100843
0.000508841 -7.38367e-06 -1.3484e-07
-7.38367e-06 -3.75063e-05 -9.78357e-08
-1.3484e-07 -9.78357e-08 -4.98896e-05
0.000177893 9.35103e-06 -1.61241e-06
9.35103e-06 -0.000210059 4.93992e-07
-1.61241e-06 4.93992e-07 -0.000269555
0.00211454 -2.10012e-05 -4.8076e-06
-2.10012e-05 0.000952974 1.10838e-07
-4.8076e-06 1.10838e-07 0.000970717
0.0005062 -4.84713e-06 -1.73765e-06
-4.84713e-06 -3.92876e-05 3.49514e-06
-1.73765e-06 3.49514e-06 -4.88636e-05
0.0020661 -5.66258e-06 9.09519e-06
-5.66258e-06 0.000923262 4.73467e-06
9.09519e-06 4.73467e-06 0.000941641
0.00120765 -0.000118047 -2.63503e-05
-0.000118047 -0.000321616 2.65662e-05
-2.63503e-05 2.65662e-05 -0.000182396
0.000123112 -0.000144473 3.46203e-05
-0.000144473 0.000931249 -2.23407e-06
3.46203e-05 -2.23407e-06 0.000733099
-5.50858e-05 -0.000276878 0.000138632
-0.000276878 0.00032436 -7.98828e-05
0.000138632 -7.98828e-05 -0.00263632
0.000386997 4.25249e-05 2.49946e-06
4.25249e-05 -8.15019e-05 1.1477e-06
2.49946e-06 1.1477e-06 -0.000204732
0.00156464 9.17335e-05 1.77055e-07
9.17335e-05 0.000620527 3.264e-06
1.77055e-07 3.264e-06 0.000477815
0.000752333 0.000123329 -1.3876e-06
0.000123329 0.000164718 -1.09624e-06
-1.3876e-06 -1.09624e-06 3.53529e-05
0.000514106 6.49255e-05 4.71788e-07
6.49255e-05 -7.13967e-06 6.65594e-07
4.71788e-07 6.65594e-07 -0.000123424
0.000572792 8.41265e-05 2.2732e-07
8.41265e-05 4.86657e-05 -1.24984e-07
2.2732e-07 -1.24984e-07 -7.79672e-05
0.000562637 7.37598e-05 3.04802e-06
7.37598e-05 3.20169e-05 -1.06469e-07
3.04802e-06 -1.06469e-07 -8.5299e-05
0.000615005 0.000163924 6.68508e-06
0.000163924 0.000112374 3.31565e-06
6.68508e-06 3.31565e-06 -3.08211e-05
0.000564608 0.000352079 0.000109562
0.000352079 -0.000378 0.000220017
0.000109562 0.000220017 -0.00162381
0.00355997 -7.37278e-05 -2.50783e-05
-7.37278e-05 -0.000108473 5.69887e-05
-2.50783e-05 5.69887e-05 -0.000626207
0.00357427 -0.000407789 9.45254e-05
-0.000407789 0.00242889 -9.01574e-05
9.45254e-05 -9.01574e-05 0.00144273
0.00596365 -0.00012464 -6.84454e-06
-0.00012464 -0.00536584 0.000123669
-6.84454e-06 0.000123669 -0.00177339
0.00286843 -0.00173173 -9.14647e-05
-0.00173173 0.000547536 6.19897e-05
-9.14647e-05 6.19897e-05 0.000161236
-0.000472693 -0.00249866 -0.000108664
-0.00249866 0.000725939 8.72671e-05
-0.000108664 8.72671e-05 -0.00407134
0.0117211 0.00306292 8.5051e-05
0.00306292 0.00585551 -0.000106388
8.5051e-05 -0.000106388 0.00271094
0.00296916 -0.00157937 -3.49694e-05
-0.00157937 0.000598585 1.52601e-05
-3.49694e-05 1.52601e-05 0.000590852
-0.00118331 -0.000616046 -9.36749e-06
-0.000616046 0.00260937 4.22289e-05
-9.36749e-06 4.22289e-05 -0.00309741
0.00570426 0.000383714 0.000106242
0.000383714 0.00267196 -1.61326e-05
0.000106242 -1.61326e-05 0.00023167
0.0125775 -0.00188476 -5.0984e-05
-0.00188476 0.00164793 -3.02244e-05
-5.0984e-05 -3.02244e-05 0.00299459
-0.000614003 -0.000302329 -0.000101878
-0.000302329 -0.000228907 9.55799e-05
-0.000101878 9.55799e-05 -1.3816e-05
0.00241047 0.00190265 -0.000124156
0.00190265 0.0037048 -7.97495e-05
-0.000124156 -7.97495e-05 -0.00209881
-0.00431003 -0.00348265 4.41836e-05
-0.00348265 -0.00186474 -0.000205223
4.41836e-05 -0.000205223 -0.00533373
0.00977599 -0.00217673 7.92897e-05
-0.00217673 0.0012898 -0.000440623
7.92897e-05 -0.000440623 0.00103598
0.000892891 2.8117e-05 8.6517e-06
2.8117e-05 0.000334015 2.49371e-06
8.6517e-06 2.49371e-06 0.000181103
0.000666917 0.000123714 -9.8238e-07
0.000123714 0.00014255 -1.24093e-06
-9.8238e-07 -1.24093e-06 -2.18987e-06
0.000712582 -1.58869e-05 -7.22041e-07
-1.58869e-05 0.000215714 -3.03118e-06
-7.22041e-07 -3.03118e-06 9.30787e-06
0.00086949 0.000102623 -2.83565e-06
0.000102623 0.000256763 -5.55355e-06
-2.83565e-06 -5.55355e-06 9.76852e-05
-0.000462135 -0.000598583 -4.27802e-06
-0.000598583 -0.000753174 4.06702e-05
-4.27802e-06 4.06702e-05 -0.000894588
0.00279366 -0.000257326 1.30191e-06
-0.000257326 0.00162378 -2.28905e-05
1.30191e-06 -2.28905e-05 0.00132039
0.000638145 6.7268e-05 -4.04707e-06
6.7268e-05 0.000136934 -7.03607e-06
-4.04707e-06 -7.03607e-06 -3.1428e-06
0.00074475 0.000193595 -2.4897e-06
0.000193595 0.000288633 -1.26305e-06
-2.4897e-06 -1.26305e-06 0.000117438
0.0014026 7.94527e-05 -2.94519e-06
7.94527e-05 0.000996572 -6.30204e-06
-2.94519e-06 -6.30204e-06 0.000640214
0.000670665 7.0888e-05 3.82272e-06
7.0888e-05 0.000182607 2.83551e-06
3.82272e-06 2.83551e-06 6.04582e-05
0.000238029 0.000130543 -7.31118e-07
0.000130543 0.000359315 1.07132e-06
-7.31118e-07 1.07132e-06 -1.93307e-05
0.00158498 -0.000318839 -5.16308e-06
-0.000318839 0.00131933 4.57188e-06
-5.16308e-06 4.57188e-06 0.000448449
-0.000108694 -9.55749e-05 2.13218e-05
-9.55749e-05 0.000323609 -3.52431e-07
2.13218e-05 -3.52431e-07 3.7997e-06
1.41754e-05 0.000110825 4.03057e-06
0.000110825 6.46629e-05 -2.24182e-06
4.03057e-06 -2.24182e-06 -0.000160341
0.00132073 -8.5645e-05 -2.5919e-05
-8.5645e-05 0.00222688 -3.91866e-05
-2.5919e-05 -3.91866e-05 0.000817809
0.00140282 0.000262329 -2.64944e-06
0.000262329 0.00110852 1.7664e-05
-2.64944e-06 1.7664e-05 0.000679914
-0.000745 4.71782e-05 -3.62576e-05
4.71782e-05 0.000963139 1.16125e-05
-3.62576e-05 1.16125e-05 0.000260506
0.0009556 -1.07772e-06 3.07846e-06
-1.07772e-06 -0.000210583 1.09634e-06
3.07846e-06 1.09634e-06 -0.000282511
-0.00131591 5.7167e-05 1.87435e-06
5.7167e-05 0.000323799 -3.46274e-05
1.87435e-06 -3.46274e-05 -6.45792e-05
0.000156412 0.000163908 -7.9703e-06
0.000163908 0.00038358 8.37436e-06
-7.9703e-06 8.37436e-06 0.000120015
-0.00124144 0.000543233 9.02449e-05
0.000543233 -0.000591961 8.15163e-05
9.02449e-05 8.15163e-05 -0.00109683
0.00086999 1.49591e-06 3.38409e-05
1.49591e-06 -0.00046915 -4.68964e-06
3.38409e-05 -4.68964e-06 -0.00014045
0.00373735 -0.00164163 0.000131144
-0.00164163 0.00441364 -0.000161337
0.000131144 -0.000161337 -0.00253129
0.0134996 0.00273112 -0.000130453
0.00273112 0.00608954 9.78456e-05
-0.000130453 9.78456e-05 0.00326021
0.00348861 -0.000316342 -9.31785e-05
-0.000316342 0.00227604 9.64196e-05
-9.31785e-05 9.64196e-05 0.00137684
0.00952867 0.0031448 -1.47628e-05
0.0031448 0.00232083 -0.000125776
-1.47628e-05 -0.000125776 0.000576158
0.000391661 0.000125916 -4.33941e-05
0.000125916 0.00089424 1.00149e-05
-4.33941e-05 1.00149e-05 0.000142419
0.000386556 -7.09002e-05 -4.02386e-05
-7.09002e-05 0.000884938 1.58373e-06
-4.02386e-05 1.58373e-06 0.000810903
0.00356801 -0.000891146 0.000199644
-0.000891146 0.00141315 -1.85818e-05
0.000199644 -1.85818e-05 -0.00261177
-0.00120863 -0.000180533 2.46889e-05
-0.000180533 -0.000367918 2.86578e-05
2.46889e-05 2.86578e-05 -0.000665257
0.00467835 0.00478829 0.000341645
0.00478829 0.00423618 -0.000169159
0.000341645 -0.000169159 0.00356919
0.00754449 0.00202749 -0.000129002
0.00202749 0.00133081 0.000237901
-0.000129002 0.000237901 -0.000683269
-0.00290818 -0.00096317 0.000101203
-0.00096317 0.00186481 -0.000107896
0.000101203 -0.000107896 -0.00434137
-0.000120378 -0.000305764 2.1067e-05
-0.000305764 0.000454356 -1.95072e-05
2.1067e-05 -1.95072e-05 -0.000280708
0.000220988 -0.000419281 0.000178256
-0.000419281 -0.000305731 -3.96193e-05
0.000178256 -3.96193e-05 -0.00256251
-0.00225319 -1.07493e-05 -0.000604866
-1.07493e-05 0.00434851 0.000157694
-0.000604866 0.000157694 0.0015438
0.00933073 0.00454163 -0.000424132
0.00454163 0.00218355 0.000460672
-0.000424132 0.000460672 0.000938821
0.00851766 -0.00207011 -6.74874e-05
-0.00207011 0.00359132 2.47786e-05
-6.74874e-05 2.47786e-05 -4.29802e-05
0.00276776 -0.000983022 -3.87372e-05
-0.000983022 0.00167524 2.57415e-05
-3.87372e-05 2.57415e-05 0.00116894
0.000358423 -4.54089e-05 7.34873e-06
-4.54089e-05 0.000408951 1.34879e-05
7.34873e-06 1.34879e-05 0.000155149
0.000340613 -0.000264368 4.91008e-06
-0.000264368 0.000369792 -5.65689e-07
4.91008e-06 -5.65689e-07 -2.35137e-06
0.00122638 -0.000537285 1.19917e-05
-0.000537285 0.000583267 -4.22771e-07
1.19917e-05 -4.22771e-07 0.000434521
-0.000447623 -0.000186391 -8.60284e-07
-0.000186391 -4.73544e-05 7.52489e-06
-8.60284e-07 7.52489e-06 -0.000318672
-0.000785786 -0.000257789 1.30872e-06
-0.000257789 -0.000486541 -1.56165e-06
1.30872e-06 -1.56165e-06 -0.000684307
0.00271899 -0.000655725 4.19067e-05
-0.000655725 0.00108098 -3.32822e-06
4.19067e-05 -3.32822e-06 0.000808101
0.00544782 -0.000897136 -1.39557e-05
-0.000897136 0.00275438 5.28339e-06
-1.39557e-05 5.28339e-06 0.0023955
0.00266523 -0.000627454 6.7351e-06
-0.000627454 0.00113896 2.10213e-07
6.7351e-06 2.10213e-07 0.000667026
0.00161638 -0.000601424 1.06496e-05
-0.000601424 0.000410555 -8.79211e-06
1.06496e-05 -8.79211e-06 -9.05431e-05
0.00152091 -0.000447306 -9.28303e-06
-0.000447306 0.000365142 -5.4903e-07
-9.28303e-06 -5.4903e-07 1.7378e-05
0.00225814 -0.000634254 2.31838e-06
-0.000634254 0.000732567 -1.93729e-07
2.31838e-06 -1.93729e-07 0.000276902
0.00228728 -0.000678408 3.4655e-06
-0.000678408 0.000692634 -8.70995e-06
3.4655e-06 -8.70995e-06 0.000234963
0.00202964 -0.000595469 -1.60594e-06
-0.000595469 0.000395493 -4.57411e-06
-1.60594e-06 -4.57411e-06 6.52768e-05
0.00200843 -0.000640893 -1.07878e-06
-0.000640893 0.000482343 1.29903e-06
-1.07878e-06 1.29903e-06 0.000113742
0.00191215 -0.000634694 -1.88382e-06
-0.000634694 0.00044562 -2.72457e-08
-1.88382e-06 -2.72457e-08 4.82436e-05
0.00205506 -0.000500345 7.39104e-06
-0.000500345 0.000700322 2.43969e-06
7.39104e-06 2.43969e-06 0.000389486
0.00125293 -0.000442 1.31638e-06
-0.000442 0.000190655 1.09429e-07
1.31638e-06 1.09429e-07 -0.000126903
0.00130212 -0.000458926 -4.39478e-07
-0.000458926 0.000198078 -6.99063e-08
-4.39478e-07 -6.99063e-08 -0.000148425
0.00160984 -0.000351546 3.85718e-06
-0.000351546 0.000524605 1.00293e-07
3.85718e-06 1.00293e-07 0.000275164
0.0015201 -0.000368665 -1.35704e-06
-0.000368665 0.000430151 -1.60013e-06
-1.35704e-06 -1.60013e-06 0.000169014
0.00117726 -0.000362179 1.04577e-05
-0.000362179 0.000181723 -5.77458e-06
1.04577e-05 -5.77458e-06 -9.53296e-05
0.000629139 -0.00016034 3.14323e-06
-0.00016034 0.000133803 5.64391e-07
3.14323e-06 5.64391e-07 -0.000115185
0.000684211 -0.000184899 -2.17115e-06
-0.000184899 9.47223e-05 1.6132e-06
-2.17115e-06 1.6132e-06 -0.000137622
0.00108399 -0.000321273 7.42583e-06
-0.000321273 0.000258941 -6.81349e-06
7.42583e-06 -6.81349e-06 2.62039e-06
0.000393731 -1.28361e-05 7.06367e-07
-1.28361e-05 -7.82003e-05 4.98319e-06
7.06367e-07 4.98319e-06 -0.00018596
0.000686857 -5.88833e-05 -9.24254e-07
-5.88833e-05 0.000149467 -1.52408e-08
-9.24254e-07 -1.52408e-08 -3.90167e-05
0.00146546 -0.000231201 1.11375e-06
-0.000231201 0.000651281 -3.90131e-08
1.11375e-06 -3.90131e-08 0.000412295
0.000472812 2.68516e-05 -2.99811e-06
2.68516e-05 -3.76203e-05 9.69489e-06
-2.99811e-06 9.69489e-06 -7.31399e-05
0.000636264 -1.51296e-05 -3.60758e-07
-1.51296e-05 6.84842e-05 -1.69064e-07
-3.60758e-07 -1.69064e-07 -2.48425e-05
0.00114994 -0.000121118 7.35497e-08
-0.000121118 0.000401491 -1.16021e-06
7.35497e-08 -1.16021e-06 0.000257317
0.000657958 -2.77065e-05 1.04648e-06
-2.77065e-05 8.36473e-05 -3.50768e-06
1.04648e-06 -3.50768e-06 -4.68675e-07
0.000501472 3.20275e-05 2.08228e-07
3.20275e-05 -2.29707e-05 -5.61668e-08
2.08228e-07 -5.61668e-08 -5.51751e-05
0.00267906 0.000115082 -3.2026e-05
0.000115082 0.00132456 4.07871e-06
-3.2026e-05 4.07871e-06 0.00132548
0.000547972 2.9646e-05 3.95067e-07
2.9646e-05 -1.76991e-06 -5.95543e-06
3.95067e-07 -5.95543e-06 -2.98259e-05
0.00259526 9.75059e-05 3.70567e-06
9.75059e-05 0.00126528 3.92522e-07
3.70567e-06 3.92522e-07 0.00127024
0.00253691 8.04282e-05 2.48345e-05
8.04282e-05 0.0012232 -4.58649e-06
2.48345e-05 -4.58649e-06 0.00123136
0.000659532 8.02335e-05 9.83768e-07
8.02335e-05 0.000148756 -1.25547e-06
9.83768e-07 -1.25547e-06 -1.21484e-05
0.000760951 0.000101029 3.56205e-06
0.000101029 0.000187419 -1.01996e-06
3.56205e-06 -1.01996e-06 4.66198e-05
0.000592159 2.95815e-05 1.59432e-06
2.95815e-05 3.98253e-05 -3.22555e-06
1.59432e-06 -3.22555e-06 -3.66633e-05
0.000648506 9.19177e-05 1.45011e-07
9.19177e-05 0.000103126 -1.84695e-07
1.45011e-07 -1.84695e-07 -1.49653e-05
0.000500491 -7.84855e-06 3.96685e-09
-7.84855e-06 -3.93453e-05 -5.76222e-06
3.96685e-09 -5.76222e-06 -6.01251e-05
0.000568543 4.03148e-05 2.11967e-07
4.03148e-05 2.63858e-05 -1.24131e-07
2.11967e-07 -1.24131e-07 -4.28307e-05
0.000597177 4.84044e-05 -3.16161e-06
4.84044e-05 6.56999e-05 -1.50221e-07
-3.16161e-06 -1.50221e-07 -4.36729e-05
0.00230381 -5.19384e-05 -2.37165e-05
-5.19384e-05 0.00107208 -4.72607e-06
-2.37165e-05 -4.72607e-06 0.00108618
0.000508998 -1.08399e-05 -5.66778e-07
-1.08399e-05 -3.62409e-05 -8.82535e-08
-5.66778e-07 -8.82535e-08 -5.24649e-05
0.00050687 4.57981e-05 -2.5955e-06
4.57981e-05 -8.68221e-06 8.56474e-07
-2.5955e-06 8.56474e-07 -7.24129e-05
0.0021869 -3.5705e-05 -4.49304e-06
-3.5705e-05 0.000998097 2.01091e-07
-4.49304e-06 2.01091e-07 0.00101453
0.00050843 -7.53208e-06 -1.83964e-06
-7.53208e-06 -3.79239e-05 3.78342e-06
-1.83964e-06 3.78342e-06 -5.00777e-05
0.00209775 -1.99889e-05 1.32971e-05
-1.99889e-05 0.000942374 4.65307e-06
1.32971e-05 4.65307e-06 0.000960269
-0.00117652 4.89915e-06 -9.58309e-06
4.89915e-06 -0.000120822 -4.61238e-06
-9.58309e-06 -4.61238e-06 -1.69711e-05
0.00119701 -0.000135462 -1.74057e-05
-0.000135462 -0.000348097 2.62228e-05
-1.74057e-05 2.62228e-05 -9.91337e-05
0.000301515 -0.000154087 7.64379e-06
-0.000154087 0.000891616 -2.47035e-05
7.64379e-06 -2.47035e-05 0.00069677
0.000754664 8.35989e-05 -3.39487e-07
8.35989e-05 0.000174375 4.05044e-07
-3.39487e-07 4.05044e-07 2.9591e-05
0.000565588 7.33719e-05 3.01638e-06
7.33719e-05 1.61866e-05 -8.93883e-07
3.01638e-06 -8.93883e-07 -0.000118245
-0.00113028 7.5431e-06 -4.26477e-06
7.5431e-06 -0.000996313 -6.672e-06
-4.26477e-06 -6.672e-06 -0.0011049
0.00021083 2.73404e-05 2.06766e-06
2.73404e-05 -0.000172451 7.04169e-06
2.06766e-06 7.04169e-06 -0.000301467
0.00235778 0.000296348 -1.19602e-06
0.000296348 0.00115595 5.83471e-07
-1.19602e-06 5.83471e-07 0.000957343
0.000710786 4.05861e-05 -3.67531e-06
4.05861e-05 0.000103951 -1.0817e-06
-3.67531e-06 -1.0817e-06 -9.77915e-06
0.000586173 7.74928e-05 -4.01193e-06
7.74928e-05 4.809e-05 -4.63585e-06
-4.01193e-06 -4.63585e-06 -6.975e-05
0.000736974 7.05449e-05 7.83929e-08
7.05449e-05 0.000141152 -3.15327e-07
7.83929e-08 -3.15327e-07 2.02857e-05
0.000959043 0.00013208 -5.47714e-08
0.00013208 0.000296471 -8.50796e-07
-5.47714e-08 -8.50796e-07 0.000167569
0.000779915 9.58018e-05 4.88121e-06
9.58018e-05 0.00026217 -5.62802e-06
4.88121e-06 -5.62802e-06 9.35859e-05
0.00426461 0.000541109 0.000272301
0.000541109 0.00293485 0.000361341
0.000272301 0.000361341 -0.00120689
0.00119191 0.000326824 1.40405e-05
0.000326824 -8.37242e-05 8.13232e-05
1.40405e-05 8.13232e-05 -0.00156254
0.00313501 -6.362e-05 -5.37886e-07
-6.362e-05 5.84961e-05 -1.33005e-05
-5.37886e-07 -1.33005e-05 -0.000205313
0.012569 -0.00162281 -0.000171201
-0.00162281 0.0017093 -0.000134542
-0.000171201 -0.000134542 0.00336035
-0.00660385 0.00147925 3.05416e-05
0.00147925 -0.00267853 0.000359328
3.05416e-05 0.000359328 -0.00613984
0.00370233 -0.00169243 -9.48027e-05
-0.00169243 0.00117379 1.46836e-05
-9.48027e-05 1.46836e-05 0.00118642
0.0104872 -0.00156453 -0.000107865
-0.00156453 0.00521453 7.20384e-06
-0.000107865 7.20384e-06 0.00104206
0.000830148 -0.000402196 -2.20687e-05
-0.000402196 0.000220893 8.08588e-05
-2.20687e-05 8.08588e-05 9.90289e-05
0.0101418 -0.000289116 -7.46961e-05
-0.000289116 0.00592267 -7.6991e-06
-7.46961e-05 -7.6991e-06 0.00039083
0.00381625 -0.00205312 8.12671e-05
-0.00205312 0.00203135 0.000126649
8.12671e-05 0.000126649 -0.00121634
0.0104043 -0.00283047 -0.000177355
-0.00283047 0.000459793 -0.00052166
-0.000177355 -0.00052166 0.000143275
0.00336081 0.000105443 -0.00010513
0.000105443 0.00210734 7.83735e-05
-0.00010513 7.83735e-05 0.00144506
0.0118466 0.00189377 -0.000109644
0.00189377 0.00575988 2.72127e-05
-0.000109644 2.72127e-05 0.00151679
0.0145921 -0.0040672 -0.000175679
-0.0040672 0.00622673 -0.000478434
-0.000175679 -0.000478434 0.00422254
0.0145438 -0.00507101 7.78217e-05
-0.00507101 0.00462768 -3.3228e-05
7.78217e-05 -3.3228e-05 0.00433521
0.000349309 0.000124692 1.02999e-05
0.000124692 8.20143e-05 7.13571e-07
1.02999e-05 7.13571e-07 -0.000100441
0.000513296 3.86631e-05 1.49558e-06
3.86631e-05 0.000141972 2.24834e-06
1.49558e-06 2.24834e-06 -3.45382e-05
0.00084604 0.000145223 -5.45508e-06
0.000145223 0.000259255 -7.62806e-06
-5.45508e-06 -7.62806e-06 0.000107622
0.00297467 -0.00032635 -5.54886e-05
-0.00032635 0.00160892 3.8057e-05
-5.54886e-05 3.8057e-05 0.000623432
0.000478394 -6.57443e-05 -1.53473e-05
-6.57443e-05 0.000707857 -3.5667e-05
-1.53473e-05 -3.5667e-05 0.000382438
0.00044997 2.00429e-06 -7.57323e-06
2.00429e-06 4.03157e-05 -1.09334e-06
-7.57323e-06 -1.09334e-06 -7.44203e-05
6.10844e-05 4.58195e-05 -9.48045e-07
4.58195e-05 0.000263731 -4.54754e-06
-9.48045e-07 -4.54754e-06 -0.000112877
0.000289848 9.74506e-05 1.20264e-06
9.74506e-05 0.000199683 -1.1119e-06
1.20264e-06 -1.1119e-06 -3.09773e-05
0.000537001 0.000231909 8.36325e-06
0.000231909 0.00057779 1.31244e-06
8.36325e-06 1.31244e-06 0.000149206
-0.0014039 -8.6465e-05 0.000194423
-8.6465e-05 0.000640766 -1.88828e-05
0.000194423 -1.88828e-05 -0.000892047
-0.00172424 0.000147174 -1.32024e-05
0.000147174 -0.000878378 1.31352e-05
-1.32024e-05 1.31352e-05 -0.00118455
0.00260669 0.000567805 -0.00011251
0.000567805 0.0018757 -6.73012e-05
-0.00011251 -6.73012e-05 0.00079833
0.00163771 0.000158324 0.000125686
0.000158324 0.00152999 3.83605e-05
0.000125686 3.83605e-05 -0.00157269
-0.00106302 5.98391e-05 -9.17263e-06
5.98391e-05 0.000679033 1.76092e-05
-9.17263e-06 1.76092e-05 5.74274e-05
0.00174763 -0.000123582 -6.35181e-06
-0.000123582 0.000147934 1.0927e-06
-6.35181e-06 1.0927e-06 0.000481211
-0.00116855 0.000390637 0.000115241
0.000390637 -3.36045e-05 1.18435e-05
0.000115241 1.18435e-05 -0.000881253
0.00178302 0.000246174 -5.96288e-05
0.000246174 0.00144643 5.34574e-05
-5.96288e-05 5.34574e-05 0.000359795
0.000288646 -0.000136354 -1.48169e-05
-0.000136354 0.000861944 8.5154e-06
-1.48169e-05 8.5154e-06 0.00067472
0.0160217 -0.00279873 0.000152817
-0.00279873 0.00742223 -6.75364e-05
0.000152817 -6.75364e-05 0.0024216
0.0170048 0.00306729 -5.78359e-05
0.00306729 0.00699161 -9.07489e-05
-5.78359e-05 -9.07489e-05 0.00450251
0.0044663 -0.000968469 -0.000135756
-0.000968469 0.00199875 0.000176436
-0.000135756 0.000176436 -0.00206585
-0.00263814 0.00546563 0.00155252
0.00546563 -0.000111389 -0.00110579
0.00155252 -0.00110579 -0.000578216
0.000757061 -0.000325946 2.12781e-05
-0.000325946 0.000960695 -6.09924e-06
2.12781e-05 -6.09924e-06 0.000146366
0.000146564 -0.000302568 2.0761e-05
-0.000302568 9.44503e-05 1.53156e-05
2.0761e-05 1.53156e-05 -0.00258181
-0.00239689 0.000262441 -0.000762351
0.000262441 0.00425661 0.000280251
-0.000762351 0.000280251 0.00133489
0.000944732 -0.000569347 -9.28574e-06
-0.000569347 0.00073796 3.42869e-05
-9.28574e-06 3.42869e-05 0.00029023
0.0170463 0.0040689 0.000212621
0.0040689 0.00494147 8.16653e-05
0.000212621 8.16653e-05 0.00383838
0.00781327 -0.00290433 0.000136568
-0.00290433 0.00291005 -6.4252e-05
0.000136568 -6.4252e-05 -0.000538683
0.00221686 -0.000882272 -1.16904e-05
-0.000882272 0.00113858 2.82386e-05
-1.16904e-05 2.82386e-05 0.000714289
-0.00610406 -0.00106084 8.64972e-05
-0.00106084 0.00353669 -4.70975e-05
8.64972e-05 -4.70975e-05 0.000357993
0.0132195 0.0037 -0.000934231
0.0037 0.00536338 0.000407203
-0.000934231 0.000407203 0.00395833
0.00366603 -0.0020049 -0.000295773
-0.0020049 -0.000539688 0.000169806
-0.000295773 0.000169806 -0.00411231
0.00223297 -0.00146011 0.000161267
-0.00146011 0.000428397 -8.86845e-05
0.000161267 -8.86845e-05 0.00098582
-5.37636e-05 -0.000279823 -6.39179e-05
-0.000279823 0.000133722 2.15535e-05
-6.39179e-05 2.15535e-05 -0.000215095
0.000693638 -0.000465482 -8.76946e-06
-0.000465482 0.000348977 1.20595e-05
-8.76946e-06 1.20595e-05 0.000125391
0.00330146 -0.000709396 2.67234e-05
-0.000709396 0.00149958 1.80502e-06
2.67234e-05 1.80502e-06 0.00123195
-0.00253024 -0.000111811 1.1105e-06
-0.000111811 -0.00133467 1.144e-05
1.1105e-06 1.144e-05 -0.0015418
0.000865218 -0.000445269 5.95531e-06
-0.000445269 0.000120697 8.04679e-07
5.95531e-06 8.04679e-07 -0.000139537
0.0022127 -0.000695285 8.6428e-06
-0.000695285 0.000543008 -1.12799e-06
8.6428e-06 -1.12799e-06 0.000238673
0.00329228 -0.000702334 -2.3449e-05
-0.000702334 0.00140362 7.19872e-06
-2.3449e-05 7.19872e-06 0.000946394
0.0014295 -0.00056454 -1.3275e-06
-0.00056454 0.000286818 -2.18388e-06
-1.3275e-06 -2.18388e-06 -0.000190892
0.00176835 -0.000699413 5.78321e-06
-0.000699413 0.000247685 -9.54598e-06
5.78321e-06 -9.54598e-06 -0.000137878
0.0026826 -0.000690435 -4.40734e-06
-0.000690435 0.000941743 2.02392e-06
-4.40734e-06 2.02392e-06 0.000477179
0.00188655 -0.000640877 2.83252e-07
-0.000640877 0.000450621 -4.72268e-06
2.83252e-07 -4.72268e-06 1.13189e-05
0.0023831 -0.000632946 2.70214e-06
-0.000632946 0.000537952 -8.40989e-06
2.70214e-06 -8.40989e-06 0.000216848
0.00167568 -0.000443614 -4.14444e-06
-0.000443614 4.96459e-05 -3.41241e-06
-4.14444e-06 -3.41241e-06 -0.000180164
0.00173582 -0.000585416 1.16966e-06
-0.000585416 0.000189728 -1.15975e-06
1.16966e-06 -1.15975e-06 -0.000135745
0.00193111 -0.00058503 2.41878e-06
-0.00058503 0.000337965 -2.87763e-06
2.41878e-06 -2.87763e-06 1.18509e-05
0.00193781 -0.000559293 8.1578e-07
-0.000559293 0.000508035 -2.16656e-07
8.1578e-07 -2.16656e-07 0.000175019
0.00201434 -0.000641229 -2.14415e-06
-0.000641229 0.000500428 1.28331e-07
-2.14415e-06 1.28331e-07 0.000126931
0.00210665 -0.000659697 6.09154e-07
-0.000659697 0.000551153 -2.97739e-06
6.09154e-07 -2.97739e-06 0.000145334
0.00187079 -0.000417392 4.25996e-06
-0.000417392 0.000624109 1.95027e-06
4.25996e-06 1.95027e-06 0.0003481
0.00123165 -0.000410713 1.65946e-06
-0.000410713 0.000217661 9.26169e-07
1.65946e-06 9.26169e-07 -7.19583e-05
0.00102919 -0.000412049 2.89599e-06
-0.000412049 6.01626e-05 2.0096e-07
2.89599e-06 2.0096e-07 -0.00024412
0.00107472 -0.0002892 -1.02844e-06
-0.0002892 0.000294062 3.3907e-07
-1.02844e-06 3.3907e-07 5.15524e-05
0.00103656 -0.000288803 -7.20081e-07
-0.000288803 0.00018213 -8.79862e-07
-7.20081e-07 -8.79862e-07 -5.60216e-05
0.000852579 -0.000299479 -3.92361e-06
-0.000299479 2.19079e-05 -3.10965e-06
-3.92361e-06 -3.10965e-06 -0.000228056
-9.33748e-05 -3.943e-05 -1.15342e-06
-3.943e-05 -0.000362016 5.27323e-06
-1.15342e-06 5.27323e-06 -0.000514043
0.000759097 -0.000167182 2.33067e-06
-0.000167182 0.000210237 2.08562e-07
2.33067e-06 2.08562e-07 -3.87104e-05
0.00137138 -0.000237147 -1.8226e-06
-0.000237147 0.000529848 1.48631e-06
-1.8226e-06 1.48631e-06 0.000283751
0.00163052 6.45891e-05 -2.79245e-05
6.45891e-05 0.000685204 6.51189e-06
-2.79245e-05 6.51189e-06 0.000644298
0.000702657 -5.20371e-05 5.61753e-07
-5.20371e-05 0.000104068 -5.37822e-07
5.61753e-07 -5.37822e-07 -7.09065e-06
0.0014605 -0.000102061 -3.27646e-06
-0.000102061 0.000626689 -2.17402e-06
-3.27646e-06 -2.17402e-06 0.00042626
0.00077605 4.79577e-05 -3.78878e-05
4.79577e-05 0.000154021 4.64474e-06
-3.78878e-05 4.64474e-06 0.000148002
0.00102512 4.3471e-05 -1.20716e-05
4.3471e-05 0.000305101 -4.61043e-07
-1.20716e-05 -4.61043e-07 0.000269978
0.000620887 -2.32583e-05 9.89537e-07
-2.32583e-05 5.43414e-05 -4.48459e-06
9.89537e-07 -4.48459e-06 -3.79073e-05
0.000530951 3.19771e-05 1.22253e-06
3.19771e-05 -5.14766e-06 -6.97281e-06
1.22253e-06 -6.97281e-06 -3.76383e-05
0.00270534 0.000116333 6.17908e-06
0.000116333 0.00134134 5.72377e-07
6.17908e-06 5.72377e-07 0.00134209
0.00258557 9.90861e-05 2.73565e-05
9.90861e-05 0.00126011 -4.41197e-06
2.73565e-05 -4.41197e-06 0.00126472
0.0011006 0.000119244 5.28427e-06
0.000119244 0.000397885 3.91402e-06
5.28427e-06 3.91402e-06 0.000243554
0.00098364 0.000122378 2.48997e-06
0.000122378 0.000337088 -2.39423e-06
2.48997e-06 -2.39423e-06 0.000179457
0.000430467 6.61124e-05 -6.42402e-07
6.61124e-05 -1.73858e-05 1.32048e-06
-6.42402e-07 1.32048e-06 -0.000159249
0.000637251 2.16153e-05 1.6232e-06
2.16153e-05 6.68416e-05 -4.21036e-06
1.6232e-06 -4.21036e-06 -1.84103e-05
0.000758052 8.70789e-05 5.95861e-07
8.70789e-05 0.000176283 -4.36187e-09
5.95861e-07 -4.36187e-09 4.56056e-05
0.000497227 -5.40827e-06 -9.22548e-07
-5.40827e-06 -3.65419e-05 -6.65886e-06
-9.22548e-07 -6.65886e-06 -6.192e-05
0.000565909 3.12311e-05 -5.79744e-08
3.12311e-05 2.53051e-05 -2.67786e-07
-5.79744e-08 -2.67786e-07 -5.17896e-05
0.000704926 6.74981e-05 -2.07538e-06
6.74981e-05 0.000156651 1.17889e-06
-2.07538e-06 1.17889e-06 2.40158e-05
0.00248068 -6.8708e-05 -3.09995e-05
-6.8708e-05 0.00118476 -4.61536e-06
-3.09995e-05 -4.61536e-06 0.00119595
0.000489038 -9.13458e-06 -7.66413e-07
-9.13458e-06 -4.60876e-05 -8.64597e-08
-7.66413e-07 -8.64597e-08 -6.66438e-05
0.000572575 4.48654e-05 -2.555e-07
4.48654e-05 2.96947e-05 2.87216e-06
-2.555e-07 2.87216e-06 -3.96555e-05
0.00231338 -5.16482e-05 -5.21656e-06
-5.16482e-05 0.00107789 3.05159e-07
-5.21656e-06 3.05159e-07 0.00109206
0.000489753 -1.39545e-05 -2.612e-06
-1.39545e-05 -4.76156e-05 4.61793e-06
-2.612e-06 4.61793e-06 -6.37393e-05
0.00218909 -3.43445e-05 1.86327e-05
-3.43445e-05 0.000999331 4.56494e-06
1.86327e-05 4.56494e-06 0.00101593
0.0059571 0.000327043 0.000204276
0.000327043 0.00287305 3.76527e-05
0.000204276 3.76527e-05 0.00124226
-0.00104715 -1.73249e-05 -8.25486e-07
-1.73249e-05 -0.000123022 -3.49527e-06
-8.25486e-07 -3.49527e-06 -0.000132388
0.000971617 -5.05212e-05 -2.39638e-05
-5.05212e-05 -0.000342368 1.09817e-06
-2.39638e-05 1.09817e-06 -3.46652e-05
-0.000141292 9.0853e-05 -6.58094e-06
9.0853e-05 -0.000391437 -1.96827e-06
-6.58094e-06 -1.96827e-06 -0.000518027
0.00072156 7.76676e-05 -3.63598e-06
7.76676e-05 0.000149487 -1.12506e-06
-3.63598e-06 -1.12506e-06 1.36744e-05
0.000214209 5.81173e-05 4.3215e-07
5.81173e-05 -0.00019987 -2.83439e-06
4.3215e-07 -2.83439e-06 -0.000327503
0.000928917 5.73783e-05 4.58447e-07
5.73783e-05 0.000249961 -4.09975e-07
4.58447e-07 -4.09975e-07 0.000116083
0.000385119 8.76993e-05 -1.37126e-06
8.76993e-05 -9.25983e-05 2.87887e-08
-1.37126e-06 2.87887e-08 -0.000209284
0.00170196 0.000230064 4.60462e-07
0.000230064 0.00075404 -2.54474e-06
4.60462e-07 -2.54474e-06 0.000587622
0.001033 0.000183548 -3.16697e-06
0.000183548 0.000317486 -1.16132e-05
-3.16697e-06 -1.16132e-05 9.80928e-05
-0.000334702 4.3956e-05 2.34012e-06
4.3956e-05 -0.00037152 4.59816e-06
2.34012e-06 4.59816e-06 -0.000578169
0.000771501 0.000130403 -3.00574e-06
0.000130403 0.000181048 -9.66673e-07
-3.00574e-06 -9.66673e-07 4.76365e-05
0.000245142 4.1497e-05 -4.57995e-06
4.1497e-05 -0.000169958 -3.57839e-06
-4.57995e-06 -3.57839e-06 -0.000269328
0.000285478 5.42109e-05 1.34509e-07
5.42109e-05 -4.81243e-05 1.02742e-06
1.34509e-07 1.02742e-06 -0.000206404
0.00115389 0.000212254 1.38041e-05
0.000212254 0.000578846 6.8151e-06
1.38041e-05 6.8151e-06 0.000337401
0.00150715 -0.00170701 0.000146494
-0.00170701 0.00397703 0.000240288
0.000146494 0.000240288 0.000168389
0.0048536 0.000711123 6.13515e-05
0.000711123 0.00262507 0.000133575
6.13515e-05 0.000133575 -0.00173653
0.00170425 0.000248534 -2.76218e-05
0.000248534 0.000270138 -6.78549e-05
-2.76218e-05 -6.78549e-05 -0.00142161
0.0164309 -0.00349916 -0.000457099
-0.00349916 0.003636 -0.000282359
-0.000457099 -0.000282359 0.00324595
0.00630608 -0.00127207 0.000166298
-0.00127207 0.00256747 0.000372716
0.000166298 0.000372716 0.000155917
0.00266381 -0.00112598 -0.000154431
-0.00112598 0.00367225 8.48363e-05
-0.000154431 8.48363e-05 -0.00222838
0.000981962 -0.000542058 4.72126e-05
-0.000542058 0.00111164 2.80815e-05
4.72126e-05 2.80815e-05 0.000403022
0.00128079 -0.0001069 1.54403e-05
-0.0001069 0.000971209 5.2402e-05
1.54403e-05 5.2402e-05 0.000622814
0.0065386 -0.0052296 0.000280906
-0.0052296 0.00231135 0.000273599
0.000280906 0.000273599 0.00194939
0.00306111 0.00124724 -5.56729e-05
0.00124724 0.00378649 -5.58823e-05
-5.56729e-05 -5.58823e-05 -0.00174106
0.00539287 -0.0024737 -8.31574e-05
-0.0024737 0.00110532 7.68686e-05
-8.31574e-05 7.68686e-05 -0.00136688
0.000424799 0.000465219 -2.23369e-05
0.000465219 0.000577162 6.09885e-05
-2.23369e-05 6.09885e-05 0.000415838
0.0101595 0.00231728 -8.38353e-05
0.00231728 0.00404564 -3.00861e-06
-8.38353e-05 -3.00861e-06 0.000576501
0.009298 -0.00431088 -0.000549564
-0.00431088 0.0020287 -0.000382967
-0.000549564 -0.000382967 0.000610675
0.000240298 0.000380267 3.89257e-06
0.000380267 -0.00019741 -5.34616e-06
3.89257e-06 -5.34616e-06 -0.000358135
0.000492011 0.000108568 5.76752e-06
0.000108568 0.00015458 1.7245e-06
5.76752e-06 1.7245e-06 -1.42703e-05
0.000129244 4.66903e-05 -6.31813e-06
4.66903e-05 -8.63883e-05 -3.69875e-06
-6.31813e-06 -3.69875e-06 -0.000264614
-0.00228161 -0.000259768 -9.40085e-05
-0.000259768 0.000283855 -5.05387e-05
-9.40085e-05 -5.05387e-05 -0.00122103
-0.000742 0.000172769 7.35984e-06
0.000172769 -0.00019408 -1.66072e-05
7.35984e-06 -1.66072e-05 -0.000623842
0.000337945 9.51745e-05 -8.83781e-06
9.51745e-05 0.000205701 1.25478e-06
-8.83781e-06 1.25478e-06 -3.2591e-05
0.00078395 0.00045319 1.42198e-05
0.00045319 0.000422639 3.40356e-06
1.42198e-05 3.40356e-06 8.69782e-05
-0.000209974 0.000320679 4.32419e-05
0.000320679 0.000484254 -2.81429e-05
4.32419e-05 -2.81429e-05 -0.00045536
0.00035457 0.000842926 4.16372e-05
0.000842926 -0.000195519 3.82566e-06
4.16372e-05 3.82566e-06 -0.000768732
-0.00404662 0.000742992 0.000240597
0.000742992 0.00446352 1.2023e-05
0.000240597 1.2023e-05 -0.000322944
0.00224894 -2.83844e-05 -5.2718e-06
-2.83844e-05 0.0017167 4.51474e-05
-5.2718e-06 4.51474e-05 -0.00054004
-0.00140794 -3.70808e-05 -6.39676e-06
-3.70808e-05 0.000305373 2.92397e-05
-6.39676e-06 2.92397e-05 -9.43115e-05
-0.000115394 -0.000193714 -6.00198e-05
-0.000193714 0.000618021 1.2291e-05
-6.00198e-05 1.2291e-05 -0.00021316
-0.00110002 -0.000235057 -6.16068e-05
-0.000235057 -0.000756724 3.65504e-05
-6.16068e-05 3.65504e-05 -0.000449295
0.000356659 -0.000233499 -0.000133833
-0.000233499 0.000282074 7.02966e-05
-0.000133833 7.02966e-05 -0.00248953
-0.00141926 -0.00239726 0.000153027
-0.00239726 0.00114931 -0.000101674
0.000153027 -0.000101674 -0.00371934
0.00261867 0.00350987 0.000419981
0.00350987 -0.00222453 -0.000332896
0.000419981 -0.000332896 -0.00327015
0.00569632 0.00174353 -0.0003233
0.00174353 0.00546264 0.00021844
-0.0003233 0.00021844 0.00297908
0.0013138 -0.000506024 -5.17346e-06
-0.000506024 0.000905535 -3.28721e-06
-5.17346e-06 -3.28721e-06 0.000512811
0.00135484 0.000307623 6.90783e-05
0.000307623 0.00536751 -4.16777e-06
6.90783e-05 -4.16777e-06 0.00277425
-0.00141108 0.00243739 1.64676e-05
0.00243739 1.04898e-05 4.11605e-05
1.64676e-05 4.11605e-05 -0.00244612
0.00269308 -0.00169347 7.57735e-05
-0.00169347 0.000844853 -2.72674e-05
7.57735e-05 -2.72674e-05 0.000714524
0.0156684 -0.00211927 2.61022e-05
-0.00211927 0.00412503 -1.19049e-05
2.61022e-05 -1.19049e-05 0.00222075
0.00299309 -0.00109151 -1.20447e-05
-0.00109151 0.00106267 2.41411e-05
-1.20447e-05 2.41411e-05 0.000936362
-0.0090958 0.000791711 -0.000351187
0.000791711 -0.00352067 3.33915e-05
-0.000351187 3.33915e-05 -0.00526102
0.014687 -0.00136277 -0.000167
-0.00136277 0.0027128 5.63915e-05
-0.000167 5.63915e-05 0.00116751
0.0034873 -0.00194958 6.86185e-05
-0.00194958 -0.000195892 -5.55339e-05
6.86185e-05 -5.55339e-05 -0.000247161
-9.73622e-05 -0.000343755 -1.42152e-05
-0.000343755 -3.24968e-06 1.51459e-05
-1.42152e-05 1.51459e-05 -0.000299243
0.00112314 -0.000568922 -3.06541e-06
-0.000568922 0.000212196 5.40799e-07
-3.06541e-06 5.40799e-07 7.0665e-05
0.0045331 -0.000772621 1.96985e-05
-0.000772621 0.0018292 -4.03801e-06
1.96985e-05 -4.03801e-06 0.00155687
-0.000777769 -0.00026352 -1.04753e-05
-0.00026352 -0.000715037 5.29026e-06
-1.04753e-05 5.29026e-06 -0.000972284
0.00139302 -0.000608973 -6.56528e-06
-0.000608973 0.000143259 -3.31437e-06
-6.56528e-06 -3.31437e-06 -0.000178611
0.00262086 -0.000794509 6.11845e-06
-0.000794509 0.00057016 -7.55539e-06
6.11845e-06 -7.55539e-06 0.000257526
0.00116631 -0.000521808 -1.61004e-05
-0.000521808 0.000123273 2.44324e-06
-1.61004e-05 2.44324e-06 -0.000332668
0.00171071 -0.000677922 -8.63654e-07
-0.000677922 0.000230697 -3.36708e-07
-8.63654e-07 -3.36708e-07 -0.000158135
0.00152072 -0.000565656 4.0441e-06
-0.000565656 -9.33261e-05 -5.4954e-06
4.0441e-06 -5.4954e-06 -0.000338376
0.00136885 -0.000592569 -7.48794e-06
-0.000592569 0.000142524 1.14254e-06
-7.48794e-06 1.14254e-06 -0.000278947
0.00177457 -0.000565692 -4.85969e-07
-0.000565692 0.00020723 1.19621e-06
-4.85969e-07 1.19621e-06 -0.000100512
0.00183929 -0.000445478 -4.00504e-07
-0.000445478 8.0935e-05 -4.77776e-06
-4.00504e-07 -4.77776e-06 -0.000106525
0.00173186 -0.000358062 -4.97142e-06
-0.000358062 5.68369e-05 -1.82667e-06
-4.97142e-06 -1.82667e-06 -9.98417e-05
0.00158479 -0.000443026 -4.61493e-06
-0.000443026 1.39023e-05 -2.12437e-06
-4.61493e-06 -2.12437e-06 -0.000223337
0.00169216 -0.000436746 1.25783e-06
-0.000436746 6.6655e-05 2.33168e-06
1.25783e-06 2.33168e-06 -0.000158081
0.00153525 -0.000503493 -3.25958e-06
-0.000503493 0.000126299 -1.87647e-06
-3.25958e-06 -1.87647e-06 -0.000170676
0.00188046 -0.000590161 2.18076e-06
-0.000590161 0.000287974 -5.06177e-07
2.18076e-06 -5.06177e-07 -3.40537e-05
0.00190441 -0.000580614 1.58608e-06
-0.000580614 0.000321342 9.842e-07
1.58608e-06 9.842e-07 -1.33743e-06
0.00150051 -0.000450504 -1.89553e-06
-0.000450504 0.000302111 1.06167e-06
-1.89553e-06 1.06167e-06 1.93839e-07
0.00177633 -0.000546712 7.16812e-07
-0.000546712 0.000412366 -1.90162e-07
7.16812e-07 -1.90162e-07 8.02602e-05
0.00195613 -0.000633822 -3.78898e-06
-0.000633822 0.000481432 -7.61516e-07
-3.78898e-06 -7.61516e-07 0.000104118
0.00117557 -0.000288601 -3.32321e-06
-0.000288601 0.000228059 8.41926e-07
-3.32321e-06 8.41926e-07 3.53753e-06
0.00128681 -0.0003608 1.77768e-06
-0.0003608 0.00025974 3.02693e-07
1.77768e-06 3.02693e-07 -4.96938e-06
0.000428073 -0.000322294 -8.32809e-07
-0.000322294 -0.000254235 -1.4841e-06
-8.32809e-07 -1.4841e-06 -0.000522946
0.000522305 -0.000156578 -3.01625e-06
-0.000156578 -3.96479e-06 3.3225e-06
-3.01625e-06 3.3225e-06 -0.000200487
0.00113738 -0.000291606 -1.28643e-07
-0.000291606 0.00031931 4.49987e-07
-1.28643e-07 4.49987e-07 8.1768e-05
0.000349727 -0.000218735 -5.13155e-06
-0.000218735 -0.000229337 -6.7914e-07
-5.13155e-06 -6.7914e-07 -0.000454653
0.000455413 1.8059e-06 -4.53305e-06
1.8059e-06 -3.73635e-05 1.0933e-05
-4.53305e-06 1.0933e-05 -9.49686e-05
0.000752 -0.000108169 3.00247e-08
-0.000108169 0.000156127 1.68081e-07
3.00247e-08 1.68081e-07 -1.123e-05
0.00110342 -0.000173878 9.3459e-07
-0.000173878 0.000415107 -1.16624e-06
9.3459e-07 -1.16624e-06 0.00016708
0.00306732 0.000179385 -2.31471e-06
0.000179385 0.00158925 3.30428e-06
-2.31471e-06 3.30428e-06 0.00157038
0.000443862 1.69913e-05 -1.14551e-07
1.69913e-05 -5.17132e-05 -9.53979e-08
-1.14551e-07 -9.53979e-08 -9.75793e-05
0.000903155 -8.08956e-05 2.77843e-06
-8.08956e-05 0.00022639 -5.84499e-06
2.77843e-06 -5.84499e-06 0.000108119
0.00287357 0.000132722 5.86446e-06
0.000132722 0.00145236 4.65322e-07
5.86446e-06 4.65322e-07 0.00144936
0.000551475 2.44442e-05 1.95152e-06
2.44442e-05 1.16424e-05 -7.988e-06
1.95152e-06 -7.988e-06 -2.59684e-05
0.00275442 0.000117024 3.73799e-05
0.000117024 0.00137191 -3.80252e-06
3.73799e-05 -3.80252e-06 0.00137265
0.00126391 0.000193375 5.63463e-06
0.000193375 0.000462191 5.46477e-06
5.63463e-06 5.46477e-06 0.000289925
0.000741811 0.000110473 5.8734e-07
0.000110473 0.000186349 -1.86718e-08
5.8734e-07 -1.86718e-08 2.72487e-05
0.00106322 0.000103794 1.28014e-06
0.000103794 0.000397889 -3.59671e-06
1.28014e-06 -3.59671e-06 0.000217837
0.000655306 2.57397e-05 1.32193e-06
2.57397e-05 8.65996e-05 -5.82763e-06
1.32193e-06 -5.82763e-06 -1.14499e-05
0.000712042 7.19902e-05 6.96426e-08
7.19902e-05 0.000157688 5.13427e-07
6.96426e-08 5.13427e-07 1.15853e-05
0.00041989 8.5179e-05 -2.64206e-07
8.5179e-05 -1.80619e-05 1.68169e-06
-2.64206e-07 1.68169e-06 -0.000165875
0.000515024 -6.67743e-06 -1.72296e-06
-6.67743e-06 -2.1745e-05 -7.76806e-06
-1.72296e-06 -7.76806e-06 -5.19524e-05
0.000595713 2.85004e-05 -6.14747e-08
2.85004e-05 4.62045e-05 -2.29577e-07
-6.14747e-08 -2.29577e-07 -4.05339e-05
0.000561865 7.48541e-05 -2.08868e-06
7.48541e-05 4.93809e-05 1.18281e-06
-2.08868e-06 1.18281e-06 -7.24871e-05
0.00262547 -8.45734e-05 -3.94385e-05
-8.45734e-05 0.00127915 -4.31527e-06
-3.94385e-05 -4.31527e-06 0.00128746
0.000464734 -1.82532e-05 1.76379e-06
-1.82532e-05 -5.59891e-05 -1.14996e-07
1.76379e-06 -1.14996e-07 -8.15472e-05
0.000561214 3.55289e-05 -1.15409e-06
3.55289e-05 2.33551e-05 3.28046e-06
-1.15409e-06 3.28046e-06 -5.41896e-05
0.0024588 -6.8266e-05 -5.61315e-06
-6.8266e-05 0.00117096 3.87109e-07
-5.61315e-06 3.87109e-07 0.00118224
0.000482202 -1.47179e-05 -2.02559e-06
-1.47179e-05 -4.9945e-05 5.55421e-06
-2.02559e-06 5.55421e-06 -7.04459e-05
0.00229924 -5.07328e-05 2.21613e-05
-5.07328e-05 0.00106905 4.53268e-06
2.21613e-05 4.53268e-06 0.00108343
-0.00871441 0.000733039 -4.78411e-05
0.000733039 0.00255778 7.39636e-05
-4.78411e-05 7.39636e-05 -0.00207839
0.00564573 0.000187525 -6.6711e-06
0.000187525 0.00295733 -2.78031e-06
-6.6711e-06 -2.78031e-06 0.00139339
-0.000867337 -4.11363e-05 5.02929e-06
-4.11363e-05 -0.000141567 -2.46955e-06
5.02929e-06 -2.46955e-06 -0.00027554
-4.99784e-05 7.12766e-05 -2.45932e-06
7.12766e-05 -0.000335407 2.35508e-06
-2.45932e-06 2.35508e-06 -0.000465107
0.00336602 0.000532502 5.97147e-06
0.000532502 0.00170384 8.06211e-06
5.97147e-06 8.06211e-06 0.00143395
0.00111453 0.000110888 -5.1177e-06
0.000110888 0.000393199 -1.73982e-07
-5.1177e-06 -1.73982e-07 0.00021332
0.000764716 6.21699e-05 -4.2669e-06
6.21699e-05 0.00014577 -7.41841e-06
-4.2669e-06 -7.41841e-06 1.1422e-05
0.00179485 0.000193007 2.46293e-06
0.000193007 0.0007489 -1.39329e-06
2.46293e-06 -1.39329e-06 0.000619623
-0.000112743 5.88977e-05 -6.33484e-06
5.88977e-05 -0.00035536 2.51729e-06
-6.33484e-06 2.51729e-06 -0.000477038
0.000355532 7.27291e-05 -1.20795e-06
7.27291e-05 2.04639e-05 3.39038e-06
-1.20795e-06 3.39038e-06 -0.000182945
0.000528704 0.000126556 -3.48741e-06
0.000126556 3.7597e-05 -4.46557e-06
-3.48741e-06 -4.46557e-06 -0.000175441
0.00137544 0.000281086 7.08333e-06
0.000281086 0.000595089 -1.29654e-05
7.08333e-06 -1.29654e-05 0.000296655
0.000372421 0.000355509 -6.87822e-06
0.000355509 -0.000136163 1.76567e-05
-6.87822e-06 1.76567e-05 -0.000276997
0.00125083 7.28935e-05 -5.8758e-06
7.28935e-05 0.000529075 4.8473e-06
-5.8758e-06 4.8473e-06 0.000364015
0.00109474 0.000184359 2.23724e-06
0.000184359 0.00055261 -8.10818e-07
2.23724e-06 -8.10818e-07 0.000315377
-0.00261886 -0.00151164 -0.000885067
-0.00151164 0.000412708 -0.000145269
-0.000885067 -0.000145269 -0.00204007
-0.00353996 -0.00125083 0.000324997
-0.00125083 0.00339507 0.000153034
0.000324997 0.000153034 -0.000713427
0.00543135 0.00085045 -0.000317795
0.00085045 0.00255582 -0.000115503
-0.000317795 -0.000115503 -0.0020602
-0.00328407 -0.00545274 0.00143544
-0.00545274 -0.000154549 0.00101895
0.00143544 0.00101895 -0.000941002
0.0196985 -0.00261841 1.05669e-05
-0.00261841 0.00632311 0.000245449
1.05669e-05 0.000245449 0.00478184
-0.00199489 0.00143604 -1.06823e-06
0.00143604 0.00131403 -0.00014492
-1.06823e-06 -0.00014492 -0.00363502
-0.000552281 0.000168644 -0.000283452
0.000168644 0.000384341 -3.5646e-05
-0.000283452 -3.5646e-05 -0.00076983
0.00146037 0.000576196 4.69988e-05
0.000576196 0.00106969 4.04236e-05
4.69988e-05 4.04236e-05 0.000886904
0.0142951 -0.00317637 -0.000378557
-0.00317637 0.00612718 3.33863e-05
-0.000378557 3.33863e-05 0.00443878
-0.00148558 0.00192211 -5.84498e-05
0.00192211 0.000478897 -4.44078e-05
-5.84498e-05 -4.44078e-05 -0.00369761
0.00246599 0.00140078 -2.16381e-05
0.00140078 0.000668991 -6.0804e-05
-2.16381e-05 -6.0804e-05 0.00104659
0.00283423 0.00288014 -0.000257577
0.00288014 -0.00121607 -0.000124503
-0.000257577 -0.000124503 -0.00391803
0.00284013 0.000907722 1.73568e-05
0.000907722 0.000942695 -1.25456e-05
1.73568e-05 -1.25456e-05 0.000641378
0.000991216 0.000430567 -5.64139e-06
0.000430567 0.0002744 -3.68966e-07
-5.64139e-06 -3.68966e-07 0.000107775
0.000845825 0.000156517 -7.21082e-06
0.000156517 0.000364204 -7.70176e-07
-7.21082e-06 -7.70176e-07 0.000191297
-0.00163648 0.000215397 -6.11732e-05
0.000215397 -0.00032446 -5.88464e-05
-6.11732e-05 -5.88464e-05 -0.00114298
0.00221762 0.000642928 -3.08606e-05
0.000642928 0.00113972 -1.90646e-05
-3.08606e-05 -1.90646e-05 0.000788935
0.00148263 0.000971974 1.4068e-05
0.000971974 0.000302614 -5.84882e-06
1.4068e-05 -5.84882e-06 -0.000261207
0.000655475 0.00121776 0.000101855
0.00121776 -0.000886805 3.81038e-05
0.000101855 3.81038e-05 -0.00112203
-0.00553652 -0.000244963 -0.000405177
-0.000244963 -0.0045769 1.9479e-05
-0.000405177 1.9479e-05 -0.00341823
-0.0061577 0.000357495 0.000243333
0.000357495 0.0042979 8.97795e-06
0.000243333 8.97795e-06 -0.000396637
0.00282938 -0.000101699 -9.35223e-05
-0.000101699 0.00189603 3.2912e-05
-9.35223e-05 3.2912e-05 0.000346019
0.00190458 -0.000595271 -3.92845e-05
-0.000595271 0.000886369 -4.84293e-05
-3.92845e-05 -4.84293e-05 0.000509946
0.000495835 -0.0014557 -1.68125e-05
-0.0014557 -0.000425259 4.14068e-05
-1.68125e-05 4.14068e-05 -0.000413709
0.000789106 0.000325353 -6.52728e-06
0.000325353 0.00511331 2.85e-05
-6.52728e-06 2.85e-05 0.00257737
0.00163906 -0.00195918 0.000303935
-0.00195918 -0.00115156 -0.000135899
0.000303935 -0.000135899 -0.00382761
0.0156512 0.00222168 0.00042934
0.00222168 0.007002 -6.18335e-05
0.00042934 -6.18335e-05 0.00523422
0.00227198 -0.00121595 -2.44426e-05
-0.00121595 0.000598221 7.57669e-06
-2.44426e-05 7.57669e-06 0.00020443
0.0007137 0.000898525 0.000164957
0.000898525 -0.000104126 -4.61104e-05
0.000164957 -4.61104e-05 -0.00125861
0.00753101 -0.00122329 -0.000106414
-0.00122329 -0.000844684 9.68132e-05
-0.000106414 9.68132e-05 -0.00313559
0.00502913 -0.00206429 -2.48272e-05
-0.00206429 0.000482564 2.28028e-05
-2.48272e-05 2.28028e-05 0.000402086
0.00281465 -0.000988522 7.79569e-05
-0.000988522 0.000577248 -9.82184e-06
7.79569e-05 -9.82184e-06 0.000392276
0.013414 -0.000659994 -6.65084e-06
-0.000659994 0.00293947 -4.04622e-07
-6.65084e-06 -4.04622e-07 0.00143721
0.00219775 -0.00116592 9.8229e-05
-0.00116592 -0.00225765 -7.54493e-05
9.8229e-05 -7.54493e-05 -0.00161971
-0.000426136 -0.00044891 -3.15076e-05
-0.00044891 -0.000721216 1.71289e-05
-3.15076e-05 1.71289e-05 -0.00074899
0.000179909 -0.000423512 -2.2426e-05
-0.000423512 -0.000573838 1.0347e-06
-2.2426e-05 1.0347e-06 -0.000674788
0.00460095 -0.000830346 5.03556e-05
-0.000830346 0.0014863 -2.15726e-05
5.03556e-05 -2.15726e-05 0.00136688
0.000468895 -0.000508122 -2.04459e-05
-0.000508122 -0.000321406 -5.25411e-06
-2.04459e-05 -5.25411e-06 -0.00064866
0.00191057 -0.000714319 -5.51251e-07
-0.000714319 0.000207548 -1.84939e-06
-5.51251e-07 -1.84939e-06 -8.52107e-05
0.00254575 -0.000664747 2.75594e-06
-0.000664747 0.000296674 -3.82628e-06
2.75594e-06 -3.82628e-06 0.000124674
0.00187496 -0.000679583 -6.10693e-06
-0.000679583 0.000327327 5.80967e-06
-6.10693e-06 5.80967e-06 -6.67919e-05
0.00194305 -0.000601689 -6.98655e-07
-0.000601689 0.000133929 1.56205e-06
-6.98655e-07 1.56205e-06 -0.000116134
0.0019919 -0.000458832 2.40162e-06
-0.000458832 5.84625e-05 -2.74419e-07
2.40162e-06 -2.74419e-07 -7.56664e-05
0.00121761 -0.000502989 2.88179e-06
-0.000502989 -9.61903e-05 6.62458e-06
2.88179e-06 6.62458e-06 -0.000391189
0.0018319 -0.00043827 -5.70784e-07
-0.00043827 8.15438e-05 1.59481e-06
-5.70784e-07 1.59481e-06 -0.000103547
0.00187809 -0.000388238 -2.39281e-06
-0.000388238 6.87576e-05 3.52556e-07
-2.39281e-06 3.52556e-07 -6.19878e-05
0.00205787 -0.000371345 -4.1901e-06
-0.000371345 0.00025537 4.61746e-07
-4.1901e-06 4.61746e-07 0.000122355
0.00183061 -0.000363039 -2.75752e-06
-0.000363039 0.000108754 3.33169e-06
-2.75752e-06 3.33169e-06 -4.40594e-05
0.00188445 -0.000382057 -2.39192e-06
-0.000382057 0.000176716 -4.77187e-06
-2.39192e-06 -4.77187e-06 4.45464e-06
0.00182227 -0.000457558 -5.07385e-06
-0.000457558 0.00018812 -2.2264e-06
-5.07385e-06 -2.2264e-06 -5.47195e-05
0.00178326 -0.000458801 1.55255e-06
-0.000458801 0.000135397 6.3428e-07
1.55255e-06 6.3428e-07 -0.000103225
0.00171689 -0.00043075 5.1853e-06
-0.00043075 8.71372e-05 7.03208e-06
5.1853e-06 7.03208e-06 -0.000132722
0.00166984 -0.000477 -6.60908e-06
-0.000477 0.000275038 -7.85248e-07
-6.60908e-06 -7.85248e-07 -1.63722e-05
0.00155926 -0.000510253 -6.91252e-07
-0.000510253 0.000129756 2.05058e-07
-6.91252e-07 2.05058e-07 -0.00016967
0.00200618 -0.000594511 3.92518e-06
-0.000594511 0.000373719 3.98746e-07
3.92518e-06 3.98746e-07 5.49706e-05
0.00133536 -0.000328007 -6.27162e-06
-0.000328007 0.000271083 4.66828e-06
-6.27162e-06 4.66828e-06 2.50368e-05
0.00150073 -0.000447713 2.47044e-07
-0.000447713 0.00030364 1.0115e-06
2.47044e-07 1.0115e-06 3.32635e-06
0.00155771 -0.000528897 1.13586e-06
-0.000528897 0.00028042 3.44483e-07
1.13586e-06 3.44483e-07 -4.93375e-05
0.000784718 -0.000202807 -6.51893e-06
-0.000202807 8.6118e-05 4.88988e-06
-6.51893e-06 4.88988e-06 -0.000105959
0.00105863 -0.000280276 1.56664e-07
-0.000280276 0.000157401 -7.12877e-07
1.56664e-07 -7.12877e-07 -6.79528e-05
0.000840017 -0.000317997 4.71838e-07
-0.000317997 -2.10379e-05 -1.22908e-06
4.71838e-07 -1.22908e-06 -0.000277434
0.000429099 -7.80285e-05 -1.47667e-05
-7.80285e-05 -7.77834e-05 1.36572e-05
-1.47667e-05 1.36572e-05 -0.00014868
0.000678533 -0.000156221 5.33908e-07
-0.000156221 9.88851e-05 9.60848e-07
5.33908e-07 9.60848e-07 -0.000103449
0.000994341 -0.000300369 1.60053e-06
-0.000300369 0.000220487 -1.08604e-07
1.60053e-06 -1.08604e-07 -1.44575e-05
0.00349689 0.000174972 -6.78746e-05
0.000174972 0.00185809 3.67586e-06
-6.78746e-05 3.67586e-06 0.00184213
0.00051841 -1.83618e-05 7.04527e-07
-1.83618e-05 -6.48934e-06 -5.50478e-07
7.04527e-07 -5.50478e-07 -6.51047e-05
0.00148486 -0.000154892 2.04241e-06
-0.000154892 0.00060405 -6.13663e-06
2.04241e-06 -6.13663e-06 0.000424883
0.00203324 0.000114192 3.59932e-05
0.000114192 0.000943898 1.03754e-06
3.59932e-05 1.03754e-06 0.000930411
0.000595064 1.14261e-05 4.76354e-06
1.14261e-05 3.76384e-05 -9.77187e-06
4.76354e-06 -9.77187e-06 -8.00327e-06
0.00295172 0.00012758 5.53941e-05
0.00012758 0.00149989 -3.49201e-06
5.53941e-05 -3.49201e-06 0.00149817
0.00114737 0.00022292 6.51223e-06
0.00022292 0.000326063 7.06449e-07
6.51223e-06 7.06449e-07 0.000153413
0.000506945 0.0001061 -9.37855e-07
0.0001061 -5.27058e-06 -4.66037e-07
-9.37855e-07 -4.66037e-07 -0.00015517
0.000608973 0.000115912 1.07166e-06
0.000115912 8.55298e-05 -2.21015e-06
1.07166e-06 -2.21015e-06 -8.03677e-05
0.000700992 0.000112684 -1.47868e-06
0.000112684 0.000162143 -6.57712e-07
-1.47868e-06 -6.57712e-07 1.36234e-07
0.000646279 7.6113e-05 2.58643e-07
7.6113e-05 0.000115509 4.04997e-07
2.58643e-07 4.04997e-07 -4.2138e-05
0.000723296 5.26613e-05 -3.9486e-07
5.26613e-05 0.000127282 -6.66228e-06
-3.9486e-07 -6.66228e-06 1.51752e-05
0.000564605 2.99095e-06 -3.17272e-06
2.99095e-06 1.58108e-05 -9.54235e-06
-3.17272e-06 -9.54235e-06 -2.18776e-05
0.000626376 2.49536e-05 4.75126e-07
2.49536e-05 7.28634e-05 -1.67763e-07
4.75126e-07 -1.67763e-07 -2.65335e-05
0.000442438 3.97229e-05 -2.70948e-06
3.97229e-05 -3.33691e-05 2.71513e-06
-2.70948e-06 2.71513e-06 -0.000159205
0.00273962 -9.81541e-05 -5.11427e-05
-9.81541e-05 0.00135592 -4.13751e-06
-5.11427e-05 -4.13751e-06 0.00136169
0.00047425 -4.79631e-06 5.76899e-07
-4.79631e-06 -4.4095e-05 -1.76648e-07
5.76899e-07 -1.76648e-07 -7.47533e-05
0.000541994 2.86096e-05 -1.50723e-06
2.86096e-05 1.94211e-05 4.12235e-06
-1.50723e-06 4.12235e-06 -6.93513e-05
0.00259931 -8.47673e-05 -6.08568e-06
-8.47673e-05 0.00126286 4.57037e-07
-6.08568e-06 4.57037e-07 0.001271
0.000454749 -2.17568e-05 -1.96154e-07
-2.17568e-05 -6.06867e-05 6.4516e-06
-1.96154e-07 6.4516e-06 -8.67468e-05
0.00245722 -6.76911e-05 2.77079e-05
-6.76911e-05 0.00116965 4.5781e-06
2.77079e-05 4.5781e-06 0.00118099
0.000380141 0.000279256 -0.000492149
0.000279256 0.00286001 -1.89127e-05
-0.000492149 -1.89127e-05 0.0011823
-0.00473662 0.00013966 3.42126e-05
0.00013966 0.00335204 6.64091e-06
3.42126e-05 6.64091e-06 -0.0013698
0.0052957 6.79052e-05 -0.000139587
6.79052e-05 0.00297107 -3.4354e-05
-0.000139587 -3.4354e-05 0.00150245
0.000360804 5.25015e-05 1.51533e-07
5.25015e-05 -8.89387e-05 -5.00413e-06
1.51533e-07 -5.00413e-06 -0.000218591
0.000836923 7.19514e-05 4.7325e-06
7.19514e-05 0.000222879 3.24907e-06
4.7325e-06 3.24907e-06 2.81216e-05
0.00243241 0.000425028 -2.2029e-06
0.000425028 0.00116021 2.76418e-06
-2.2029e-06 2.76418e-06 0.000918698
0.00180172 0.000456375 6.6779e-06
0.000456375 0.000644517 -2.28541e-06
6.6779e-06 -2.28541e-06 0.000320499
0.00053524 0.00023548 -4.79165e-07
0.00023548 9.37889e-05 -2.35938e-06
-4.79165e-07 -2.35938e-06 -0.000156865
0.000530739 0.000108842 -3.21786e-06
0.000108842 0.000128269 4.10441e-06
-3.21786e-06 4.10441e-06 -8.44754e-05
0.000722648 0.000145544 8.60297e-06
0.000145544 0.000179101 6.43408e-06
8.60297e-06 6.43408e-06 -3.07801e-05
0.000493188 0.00025323 -6.69054e-06
0.00025323 0.000102806 -3.47268e-06
-6.69054e-06 -3.47268e-06 -0.000199551
-0.00064544 0.000272124 6.54932e-06
0.000272124 -0.000772061 -3.19514e-06
6.54932e-06 -3.19514e-06 -0.00102181
0.00202961 0.000567091 3.31789e-06
0.000567091 0.000699025 1.24628e-05
3.31789e-06 1.24628e-05 0.000543054
0.00138805 0.000672939 1.8553e-05
0.000672939 4.54936e-05 -7.54047e-06
1.8553e-05 -7.54047e-06 -0.000135312
0.00120482 0.00044721 -8.86415e-06
0.00044721 0.000358945 -8.47546e-07
-8.86415e-06 -8.47546e-07 0.000182027
0.00133535 0.000188562 -6.67897e-06
0.000188562 0.000613231 6.35542e-06
-6.67897e-06 6.35542e-06 0.000404268
0.0133422 0.00164839 -8.23922e-05
0.00164839 0.00240873 5.88738e-05
-8.23922e-05 5.88738e-05 0.000993612
-0.000176637 -0.00125517 -0.000367408
-0.00125517 0.00278015 -0.000138047
-0.000367408 -0.000138047 0.00031911
-0.00109567 -0.00202323 0.000379571
-0.00202323 0.00364316 9.81928e-05
0.000379571 9.81928e-05 -0.000491052
0.00245166 -0.00187744 0.000153348
-0.00187744 0.00139865 0.000272166
0.000153348 0.000272166 -0.000240238
0.0119757 0.00272705 -4.84428e-05
0.00272705 0.00465601 -3.09978e-05
-4.84428e-05 -3.09978e-05 0.00085631
-0.00241366 0.000178457 -5.2522e-05
0.000178457 -0.000578414 -4.41268e-05
-5.2522e-05 -4.41268e-05 -0.000798939
0.00173752 0.00122335 -3.41046e-05
0.00122335 0.000419264 -1.2032e-05
-3.41046e-05 -1.2032e-05 0.000775269
0.0150247 0.0025461 2.34723e-05
0.0025461 0.00422978 3.11982e-05
2.34723e-05 3.11982e-05 0.00202446
0.00640927 0.00246385 -2.81651e-05
0.00246385 0.00067108 -8.08343e-05
-2.81651e-05 -8.08343e-05 0.000540901
0.00174391 0.000901581 9.40647e-06
0.000901581 0.000209236 -2.33174e-06
9.40647e-06 -2.33174e-06 5.16798e-06
0.00130889 0.000693029 6.29414e-06
0.000693029 0.000260619 -1.57543e-06
6.29414e-06 -1.57543e-06 -1.18853e-05
0.00148267 0.000438797 -2.10054e-05
0.000438797 0.000597487 6.71397e-06
-2.10054e-05 6.71397e-06 0.000433526
0.00254638 0.00113633 -5.33448e-05
0.00113633 0.00075712 -1.86259e-05
-5.33448e-05 -1.86259e-05 0.000207988
0.00192246 0.00134125 3.09959e-05
0.00134125 -0.000399869 2.19938e-05
3.09959e-05 2.19938e-05 -0.000660673
0.0013603 -0.000376402 -7.65245e-05
-0.000376402 -0.00397698 3.59834e-05
-7.65245e-05 3.59834e-05 -0.00430401
0.00142564 -0.00103716 6.20677e-06
-0.00103716 0.00153928 -1.87037e-05
6.20677e-06 -1.87037e-05 0.00128576
-0.00872932 -0.000112983 0.000229267
-0.000112983 0.00427152 -1.93111e-05
0.000229267 -1.93111e-05 -0.000325098
0.000577929 -0.00120997 -2.76358e-05
-0.00120997 -0.00043395 3.23616e-06
-2.76358e-05 3.23616e-06 -0.00100853
0.0035646 -0.0019783 3.36136e-05
-0.0019783 0.000216529 2.57953e-05
3.36136e-05 2.57953e-05 -0.000208708
0.00140178 -0.000249977 0.000532737
-0.000249977 0.00303628 -0.000106117
0.000532737 -0.000106117 0.00155645
0.0125097 -0.00146103 -0.000205747
-0.00146103 0.00186147 9.53738e-05
-0.000205747 9.53738e-05 0.000332394
0.00126418 -0.000940663 -3.19654e-05
-0.000940663 -0.000214105 -6.34145e-07
-3.19654e-05 -6.34145e-07 -0.000450496
0.0100152 -1.9106e-05 -0.00013663
-1.9106e-05 2.12512e-05 3.90139e-05
-0.00013663 3.90139e-05 -0.00102596
0.0061614 -0.00135644 9.46733e-05
-0.00135644 -2.81695e-05 1.37967e-05
9.46733e-05 1.37967e-05 0.000197907
0.004932 -0.000941148 7.7648e-05
-0.000941148 0.00147814 -1.80101e-05
7.7648e-05 -1.80101e-05 0.00115131
0.00294177 -0.000517991 -6.13311e-05
-0.000517991 -0.000952311 1.76134e-05
-6.13311e-05 1.76134e-05 -0.000388276
-0.0042207 -7.66083e-05 -7.06885e-06
-7.66083e-05 -0.00298838 4.20511e-06
-7.06885e-06 4.20511e-06 -0.00295396
0.00160911 -0.000602413 -7.25418e-06
-0.000602413 -0.000132553 1.52082e-07
-7.25418e-06 1.52082e-07 -0.000165622
0.00292777 -0.000577446 2.74899e-05
-0.000577446 0.000389098 -1.23111e-05
2.74899e-05 -1.23111e-05 0.000432
0.000980338 -0.00061821 -6.79962e-06
-0.00061821 -0.000262737 8.43053e-06
-6.79962e-06 8.43053e-06 -0.000535277
0.00195743 -0.000610999 -2.37043e-06
-0.000610999 -3.75606e-07 2.42948e-06
-2.37043e-06 2.42948e-06 -0.000168063
0.0022117 -0.000490938 4.99233e-06
-0.000490938 2.0889e-05 2.99133e-07
4.99233e-06 2.99133e-07 -2.75063e-05
0.00222829 -0.000622513 -6.8383e-06
-0.000622513 0.000290665 8.68723e-06
-6.8383e-06 8.68723e-06 3.76393e-05
0.00197932 -0.00045647 1.49519e-07
-0.00045647 5.0331e-05 1.44689e-06
1.49519e-07 1.44689e-06 -7.9642e-05
0.00209505 -0.000435786 -2.96206e-07
-0.000435786 0.000113665 1.17297e-06
-2.96206e-07 1.17297e-06 2.56597e-05
0.00182887 -0.000431642 2.36318e-06
-0.000431642 8.47491e-05 6.12104e-06
2.36318e-06 6.12104e-06 -9.76241e-05
0.00189458 -0.000391976 -1.96784e-07
-0.000391976 7.58931e-05 1.45584e-06
-1.96784e-07 1.45584e-06 -5.47318e-05
0.00202978 -0.000412884 -1.9961e-06
-0.000412884 0.000162495 1.28128e-06
-1.9961e-06 1.28128e-06 3.86002e-05
0.00195334 -0.000370219 -4.10382e-06
-0.000370219 0.000184427 3.19327e-06
-4.10382e-06 3.19327e-06 5.31207e-05
0.00203774 -0.000376247 -4.3821e-07
-0.000376247 0.000265891 -2.18867e-06
-4.3821e-07 -2.18867e-06 0.000124156
0.00192569 -0.00036861 3.85937e-06
-0.00036861 0.000158886 7.30769e-06
3.85937e-06 7.30769e-06 9.72571e-06
0.00189366 -0.000382586 3.7636e-07
-0.000382586 0.000181129 -7.83283e-07
3.7636e-07 -7.83283e-07 8.62492e-06
0.00179284 -0.000391846 -2.27045e-06
-0.000391846 0.000134339 -3.48633e-06
-2.27045e-06 -3.48633e-06 -5.87019e-05
0.00181807 -0.000429303 -4.35659e-06
-0.000429303 0.000261148 -2.40766e-06
-4.35659e-06 -2.40766e-06 1.43183e-05
0.00187861 -0.000463776 -1.21007e-07
-0.000463776 0.000223569 -1.40957e-07
-1.21007e-07 -1.40957e-07 -2.13809e-05
0.00198234 -0.000474222 6.38823e-06
-0.000474222 0.000258329 3.47358e-06
6.38823e-06 3.47358e-06 1.84451e-05
0.00133908 -0.000352878 -8.51043e-06
-0.000352878 0.000177475 2.81601e-06
-8.51043e-06 2.81601e-06 -7.61779e-05
0.00158902 -0.000465174 -1.584e-06
-0.000465174 0.000234247 -3.78371e-08
-1.584e-06 -3.78371e-08 -5.59704e-05
0.00157113 -0.000514827 3.64245e-06
-0.000514827 0.000126923 1.27494e-06
3.64245e-06 1.27494e-06 -0.000174482
0.000648496 -0.000192031 -8.33903e-06
-0.000192031 -6.33848e-05 6.80397e-06
-8.33903e-06 6.80397e-06 -0.000251002
0.00117925 -0.000318243 1.48849e-06
-0.000318243 0.000169654 4.20569e-07
1.48849e-06 4.20569e-07 -7.59227e-05
0.00133014 -0.000426579 3.84091e-06
-0.000426579 0.000204057 2.10615e-07
3.84091e-06 2.10615e-07 -9.09124e-05
0.000457344 -0.000146603 -2.08241e-05
-0.000146603 -8.94321e-05 1.6279e-05
-2.08241e-05 1.6279e-05 -0.000180558
0.000755445 -0.000210701 -7.08136e-07
-0.000210701 7.36037e-05 3.1204e-07
-7.08136e-07 3.1204e-07 -0.000121073
0.000909962 -0.000262898 2.7034e-06
-0.000262898 6.60394e-05 -2.15327e-06
2.7034e-06 -2.15327e-06 -0.000156884
0.0044145 0.000202863 -0.00010064
0.000202863 0.00243422 6.75605e-06
-0.00010064 6.75605e-06 0.00241013
0.000539657 -9.3954e-05 -1.02885e-07
-9.3954e-05 -8.82168e-06 -7.96213e-07
-1.02885e-07 -7.96213e-07 -8.68538e-05
0.00108813 -0.000187595 4.11313e-06
-0.000187595 0.000352546 -3.70794e-06
4.11313e-06 -3.70794e-06 0.000143281
0.00382869 0.000160467 1.38031e-05
0.000160467 0.00205834 3.30242e-07
1.38031e-05 3.30242e-07 0.00204702
0.000559677 -3.81441e-05 1.1611e-05
-3.81441e-05 1.22948e-05 -1.20213e-05
1.1611e-05 -1.20213e-05 -4.95307e-05
0.00333393 0.000129847 8.78619e-05
0.000129847 0.001741 -3.59575e-06
8.78619e-05 -3.59575e-06 0.00173898
0.000726005 0.000285374 4.83537e-06
0.000285374 -2.16818e-05 -5.55425e-06
4.83537e-06 -5.55425e-06 -0.000267953
0.00087104 0.000211906 2.29941e-06
0.000211906 0.000158344 -8.88061e-07
2.29941e-06 -8.88061e-07 -1.59021e-05
9.51744e-05 0.000102057 3.64429e-06
0.000102057 -0.000248652 -8.07949e-07
3.64429e-06 -8.07949e-07 -0.00042262
-0.000421571 2.9933e-05 -3.44533e-06
2.9933e-05 -0.000562451 -2.67789e-06
-3.44533e-06 -2.67789e-06 -0.00070004
0.000426745 5.8481e-05 -4.26062e-08
5.8481e-05 -3.47609e-05 9.19958e-07
-4.26062e-08 9.19958e-07 -0.000195032
0.000740965 7.59057e-05 -8.99984e-07
7.59057e-05 0.00012641 -7.67677e-06
-8.99984e-07 -7.67677e-06 -1.71161e-07
0.000439166 4.021e-05 -1.55134e-06
4.021e-05 -2.7175e-05 2.95341e-06
-1.55134e-06 2.95341e-06 -0.00017029
0.000574099 3.66109e-05 -8.09487e-08
3.66109e-05 4.05969e-05 -7.85334e-08
-8.09487e-08 -7.85334e-08 -7.09238e-05
0.000624162 4.07315e-06 -4.71836e-06
4.07315e-06 5.32189e-05 -1.1315e-05
-4.71836e-06 -1.1315e-05 7.11089e-06
0.00300958 -0.000112239 -6.8612e-05
-0.000112239 0.00153071 -4.32478e-06
-6.8612e-05 -4.32478e-06 0.00153313
0.000464544 -5.7596e-06 9.48472e-07
-5.7596e-06 -4.34111e-05 -2.78717e-07
9.48472e-07 -2.78717e-07 -8.11972e-05
0.000514361 2.53086e-05 -1.13591e-06
2.53086e-05 7.029e-06 5.87648e-06
-1.13591e-06 5.87648e-06 -9.26371e-05
0.00275745 -0.000101825 -6.81252e-06
-0.000101825 0.00136727 5.64027e-07
-6.81252e-06 5.64027e-07 0.00137185
0.00040204 -3.88063e-05 -3.02691e-06
-3.88063e-05 -8.41047e-05 7.4699e-06
-3.02691e-06 7.4699e-06 -0.000116442
0.00259104 -8.48828e-05 3.42267e-05
-8.48828e-05 0.00125716 4.46753e-06
3.42267e-05 4.46753e-06 0.0012652
0.0133309 0.000517141 0.000348408
0.000517141 0.00240529 9.08817e-05
0.000348408 9.08817e-05 0.00167232
-0.00239963 -0.00178965 -0.000295593
-0.00178965 -0.00275839 -5.27595e-05
-0.000295593 -5.27595e-05 -0.00380741
-0.00799883 0.000964484 -0.00012947
0.000964484 0.00247674 -9.51301e-05
-0.00012947 -9.51301e-05 -0.0027759
0.000242028 2.62763e-05 1.70677e-05
2.62763e-05 -0.000134832 5.69862e-07
1.70677e-05 5.69862e-07 -0.000348365
0.0015466 0.00031846 -1.2773e-05
0.00031846 0.000632424 2.66872e-06
-1.2773e-05 2.66872e-06 0.000422679
0.00172934 0.000365542 -5.87839e-06
0.000365542 0.000785209 -2.60074e-06
-5.87839e-06 -2.60074e-06 0.000505237
0.00176893 0.000447095 -5.25294e-07
0.000447095 0.000649659 8.1625e-07
-5.25294e-07 8.1625e-07 0.000332908
0.000934918 0.000411673 1.05378e-05
0.000411673 -2.91088e-06 9.97037e-06
1.05378e-05 9.97037e-06 -0.000321678
-0.000513121 0.000252988 1.46032e-05
0.000252988 -0.000712559 -7.44129e-07
1.46032e-05 -7.44129e-07 -0.000978531
1.05806e-06 0.000218681 -7.77629e-06
0.000218681 -0.00014566 -6.37962e-07
-7.77629e-06 -6.37962e-07 -0.00046313
0.000143975 0.000367714 5.13765e-06
0.000367714 -0.000347396 -1.19595e-07
5.13765e-06 -1.19595e-07 -0.00062879
0.00194749 0.00055996 1.92322e-06
0.00055996 0.000688827 2.61906e-06
1.92322e-06 2.61906e-06 0.000494108
0.000111576 0.000424206 8.08615e-06
0.000424206 -0.000486857 3.59899e-06
8.08615e-06 3.59899e-06 -0.0007061
0.00274666 0.000751475 2.71999e-06
0.000751475 0.000764965 2.9436e-06
2.71999e-06 2.9436e-06 0.00059463
0.00161592 0.000717187 1.23738e-05
0.000717187 0.000130652 1.29345e-07
1.23738e-05 1.29345e-07 -8.81601e-05
0.000902166 0.000614249 3.13016e-06
0.000614249 -0.000223015 -9.99955e-07
3.13016e-06 -9.99955e-07 -0.0003719
0.000777887 0.000395776 -3.0485e-07
0.000395776 0.000134367 -2.07809e-05
-3.0485e-07 -2.07809e-05 -4.52498e-05
0.00541703 0.00113076 4.39578e-06
0.00113076 -0.000442179 6.46834e-06
4.39578e-06 6.46834e-06 0.000335332
0.0118797 0.0016678 0.000191787
0.0016678 0.00160261 9.22008e-05
0.000191787 9.22008e-05 -0.000125098
0.0098379 -0.00265417 0.000259612
-0.00265417 0.00470026 -4.68756e-05
0.000259612 -4.68756e-05 0.00293589
0.00464616 0.00284704 0.000418027
0.00284704 -0.000455405 0.000239426
0.000418027 0.000239426 -0.00444631
0.000180614 0.000842239 -5.55158e-05
0.000842239 -1.7891e-05 -6.68519e-06
-5.55158e-05 -6.68519e-06 0.000392847
0.00342737 0.0018 -0.000107269
0.0018 -0.000322308 -4.18503e-05
-0.000107269 -4.18503e-05 -0.000190965
0.00542503 0.00158246 6.68483e-05
0.00158246 0.00113748 2.14201e-05
6.68483e-05 2.14201e-05 0.000952877
0.00358917 0.0011283 1.53887e-05
0.0011283 0.00102081 4.5495e-06
1.53887e-05 4.5495e-06 0.000785881
0.000414711 0.000561519 -1.76355e-05
0.000561519 -0.000157443 1.11443e-05
-1.76355e-05 1.11443e-05 -0.000398951
0.00522367 0.0016818 -0.000151491
0.0016818 0.0011057 -1.80958e-05
-0.000151491 -1.80958e-05 0.000784149
0.00283961 -0.000337649 1.48235e-06
-0.000337649 0.000177772 4.0955e-06
1.48235e-06 4.0955e-06 0.000256832
0.0107068 -0.000420284 -2.21672e-05
-0.000420284 0.00205123 3.64322e-06
-2.21672e-05 3.64322e-06 0.0015703
-0.0113414 -0.00156449 0.000505808
-0.00156449 -0.00570878 2.64064e-06
0.000505808 2.64064e-06 -0.00572408
-0.000101558 -0.000793798 -6.43478e-05
-0.000793798 -0.000933342 7.96144e-06
-6.43478e-05 7.96144e-06 -0.00112943
0.00841417 -0.00176761 6.07167e-05
-0.00176761 0.000723069 7.6096e-05
6.07167e-05 7.6096e-05 0.00120376
0.00105303 -0.000295792 -0.000173953
-0.000295792 -0.00334055 4.36647e-05
-0.000173953 4.36647e-05 -0.00535626
0.0018932 -0.000663814 1.23848e-05
-0.000663814 -0.000236414 2.7585e-06
1.23848e-05 2.7585e-06 -0.000299081
0.00415622 -0.00040422 -2.48561e-05
-0.00040422 -0.000246019 -3.28793e-06
-2.48561e-05 -3.28793e-06 0.000101833
0.0047102 -0.000612505 3.21335e-05
-0.000612505 0.000982702 -1.69258e-05
3.21335e-05 -1.69258e-05 0.0011842
0.00413242 -0.000237699 7.50625e-05
-0.000237699 0.000924769 5.8944e-06
7.50625e-05 5.8944e-06 0.000874168
-0.00181718 -0.000368196 -5.0271e-06
-0.000368196 -0.00202959 1.142e-05
-5.0271e-06 1.142e-05 -0.00193243
0.00196951 -0.000517827 -2.52515e-06
-0.000517827 -0.00014303 3.80212e-09
-2.52515e-06 3.80212e-09 -5.96993e-05
0.00201269 -0.000381111 1.85547e-05
-0.000381111 -0.000248204 -3.99606e-06
1.85547e-05 -3.99606e-06 -5.77617e-05
0.00169071 -0.00058786 -2.24193e-06
-0.00058786 -0.000139286 5.94966e-06
-2.24193e-06 5.94966e-06 -0.000307522
0.0021691 -0.000491177 1.53447e-06
-0.000491177 4.08523e-07 8.5427e-07
1.53447e-06 8.5427e-07 -4.94207e-05
0.00213425 -0.000419074 1.35081e-06
-0.000419074 3.23229e-05 6.21689e-07
1.35081e-06 6.21689e-07 1.91714e-05
0.00198951 -0.000455878 -7.4127e-08
-0.000455878 5.46114e-05 3.66957e-06
-7.4127e-08 3.66957e-06 -7.17306e-05
0.00202046 -0.000425349 3.87677e-07
-0.000425349 8.1267e-05 3.42414e-07
3.87677e-07 3.42414e-07 -5.5778e-06
0.00201207 -0.000381549 -3.14026e-06
-0.000381549 7.26368e-05 8.32107e-07
-3.14026e-06 8.32107e-07 -6.34592e-06
0.00189199 -0.000394313 3.76404e-06
-0.000394313 7.16547e-05 2.51563e-06
3.76404e-06 2.51563e-06 -5.92214e-05
0.00194445 -0.000405714 -7.89181e-08
-0.000405714 0.000127674 1.5145e-07
-7.89181e-08 1.5145e-07 4.18465e-06
0.00186427 -0.000370883 7.40178e-07
-0.000370883 0.000111649 -2.19532e-07
7.40178e-07 -2.19532e-07 -1.36725e-05
0.0018528 -0.000369147 -1.07035e-07
-0.000369147 0.000116363 4.12736e-06
-1.07035e-07 4.12736e-06 -1.32449e-05
0.00198087 -0.000368735 -2.18012e-06
-0.000368735 0.000226175 4.17611e-07
-2.18012e-06 4.17611e-07 8.83191e-05
0.00197755 -0.000373052 -6.27687e-08
-0.000373052 0.000237109 -1.80973e-06
-6.27687e-08 -1.80973e-06 7.36491e-05
0.00190151 -0.000382059 3.9633e-06
-0.000382059 0.000184848 3.51538e-06
3.9633e-06 3.51538e-06 1.24015e-05
0.00185282 -0.000397262 1.71335e-07
-0.000397262 0.000171772 -4.17717e-07
1.71335e-07 -4.17717e-07 -2.28937e-05
0.00187517 -0.000381675 -1.43115e-06
-0.000381675 0.00024929 -2.25494e-06
-1.43115e-06 -2.25494e-06 3.99541e-05
0.00141306 -0.000343646 -8.85398e-06
-0.000343646 0.000130204 1.04459e-06
-8.85398e-06 1.04459e-06 -0.00010504
0.00178715 -0.000430156 -9.21049e-07
-0.000430156 0.000243358 -6.71523e-07
-9.21049e-07 -6.71523e-07 -6.79016e-06
0.00193426 -0.000470154 4.12192e-06
-0.000470154 0.00025918 1.75586e-06
4.12192e-06 1.75586e-06 1.20515e-05
0.000840039 -0.000209935 -1.20969e-05
-0.000209935 -9.42986e-06 6.95423e-06
-1.20969e-05 6.95423e-06 -0.000197461
0.00130531 -0.000349545 1.76069e-07
-0.000349545 0.000156143 4.16188e-07
1.76069e-07 4.16188e-07 -9.64699e-05
0.00150976 -0.000454018 3.04839e-06
-0.000454018 0.000192987 6.56504e-07
3.04839e-06 6.56504e-07 -9.61954e-05
0.000446324 -0.000162486 -2.08405e-05
-0.000162486 -0.000118938 1.66893e-05
-2.08405e-05 1.66893e-05 -0.000219912
0.000807354 -0.00020505 4.33892e-07
-0.00020505 3.33298e-05 3.65883e-07
4.33892e-07 3.65883e-07 -0.000157427
0.000979199 -0.000304213 7.01413e-06
-0.000304213 4.25309e-05 -2.62332e-06
7.01413e-06 -2.62332e-06 -0.000201836
0.00542567 0.000161865 -0.000165901
0.000161865 0.00302896 9.19645e-06
-0.000165901 9.19645e-06 0.00301535
0.000505833 -0.000154234 -7.82042e-07
-0.000154234 -6.05054e-05 -8.17472e-08
-7.82042e-07 -8.17472e-08 -0.000154059
0.000697908 -0.000216273 7.67882e-06
-0.000216273 4.13601e-05 -5.53818e-06
7.67882e-06 -5.53818e-06 -0.000153872
0.00471526 0.000144632 9.44197e-06
0.000144632 0.00259989 1.6872e-07
9.44197e-06 1.6872e-07 0.00259001
0.000519878 -0.000105093 1.69705e-05
-0.000105093 -2.10533e-05 -1.45574e-05
1.69705e-05 -1.45574e-05 -0.000101899
0.00405528 0.000111039 0.000139404
0.000111039 0.00218779 -8.8446e-06
0.000139404 -8.8446e-06 0.00218754
0.000752043 0.000339103 -4.76728e-06
0.000339103 -8.93483e-05 -2.47919e-06
-4.76728e-06 -2.47919e-06 -0.00036673
0.0015118 0.000360156 -5.63101e-07
0.000360156 0.000465192 -9.04729e-07
-5.63101e-07 -9.04729e-07 0.000206365
0.000276687 0.000176402 -3.86755e-07
0.000176402 -0.000254087 -2.7308e-06
-3.86755e-07 -2.7308e-06 -0.00045954
0.000575571 0.00020182 -4.93125e-06
0.00020182 -8.39432e-06 -1.79723e-06
-4.93125e-06 -1.79723e-06 -0.000187626
-1.50822e-05 0.000102557 8.5771e-07
0.000102557 -0.000324102 -7.69225e-07
8.5771e-07 -7.69225e-07 -0.000500369
0.00116763 0.000191533 -3.15591e-06
0.000191533 0.000409691 -7.17109e-06
-3.15591e-06 -7.17109e-06 0.00023176
8.27701e-06 2.94268e-05 -1.15228e-06
2.94268e-05 -0.000295154 5.99886e-07
-1.15228e-06 5.99886e-07 -0.000450679
0.000736529 7.05282e-05 3.77345e-07
7.05282e-05 0.000129714 -4.17141e-07
3.77345e-07 -4.17141e-07 1.73287e-06
0.000605731 1.707e-05 -7.15451e-06
1.707e-05 4.05648e-05 -1.31919e-05
-7.15451e-06 -1.31919e-05 -1.39892e-05
0.000591329 2.4332e-05 -9.47902e-07
2.4332e-05 5.45936e-05 7.65882e-06
-9.47902e-07 7.65882e-06 -5.72197e-05
0.000492974 8.60822e-06 1.55783e-07
8.60822e-06 -2.40751e-05 -1.8762e-07
1.55783e-07 -1.8762e-07 -6.94967e-05
0.00330938 -0.00012584 -8.56943e-05
-0.00012584 0.00172449 -4.82392e-06
-8.56943e-05 -4.82392e-06 0.00172301
0.00295424 -0.000119138 -6.75912e-06
-0.000119138 0.00149745 6.26995e-07
-6.75912e-06 6.26995e-07 0.00149778
0.000403744 1.24369e-05 3.97331e-06
1.24369e-05 -8.06914e-05 9.24581e-06
3.97331e-06 9.24581e-06 -0.000117137
0.0027016 -0.000101267 4.19028e-05
-0.000101267 0.00133283 4.22912e-06
4.19028e-05 4.22912e-06 0.00133726
0.00398867 0.000111797 7.50317e-05
0.000111797 -0.000759728 1.78511e-05
7.50317e-05 1.78511e-05 0.00015864
0.00384934 -0.000788731 0.000112926
-0.000788731 -0.00334031 5.70668e-05
0.000112926 5.70668e-05 -0.00451324
0.0101022 -0.00191744 -0.000154016
-0.00191744 0.0037452 -7.38562e-05
-0.000154016 -7.38562e-05 0.0035251
0.00115254 0.00045726 8.76218e-06
0.00045726 -4.18534e-05 6.87885e-06
8.76218e-06 6.87885e-06 -0.000334996
0.00311743 0.000513699 -6.09069e-06
0.000513699 0.00159581 6.74625e-06
-6.09069e-06 6.74625e-06 0.00128416
0.00170636 0.000436503 -2.48661e-06
0.000436503 0.000633613 2.16536e-06
-2.48661e-06 2.16536e-06 0.000324606
0.00106544 0.000427982 3.25408e-06
0.000427982 0.000224357 1.87929e-06
3.25408e-06 1.87929e-06 -7.61993e-05
0.00133819 0.00045322 -2.41771e-06
0.00045322 0.000256103 1.39652e-06
-2.41771e-06 1.39652e-06 -7.72176e-05
0.0012765 0.000531633 1.61884e-05
0.000531633 0.00016346 1.28104e-05
1.61884e-05 1.28104e-05 -0.000131787
0.00150782 0.000517379 -2.44984e-05
0.000517379 0.000430473 -6.79625e-06
-2.44984e-05 -6.79625e-06 0.000103836
0.000869221 0.000477381 1.32401e-05
0.000477381 9.95176e-05 -1.21691e-05
1.32401e-05 -1.21691e-05 -0.000106632
0.00119649 0.000547247 2.19762e-06
0.000547247 0.000116687 -1.92745e-06
2.19762e-06 -1.92745e-06 -0.000124629
0.0015637 0.000639217 4.00601e-06
0.000639217 7.29063e-05 2.07409e-06
4.00601e-06 2.07409e-06 -2.9342e-05
0.00168492 0.000682181 1.07758e-05
0.000682181 9.7352e-05 1.74243e-07
1.07758e-05 1.74243e-07 -0.000139783
0.0016082 0.00062975 1.99648e-05
0.00062975 8.54833e-05 1.03907e-05
1.99648e-05 1.03907e-05 -8.0912e-05
0.00106015 0.000665829 -4.02114e-06
0.000665829 -0.000168736 -5.73283e-06
-4.02114e-06 -5.73283e-06 -0.000373223
0.000617368 0.000575883 -9.3978e-06
0.000575883 -0.000368746 -3.78777e-06
-9.3978e-06 -3.78777e-06 -0.000496664
0.00157244 0.000605787 4.17186e-05
0.000605787 -0.000581875 3.68949e-05
4.17186e-05 3.68949e-05 -0.000437916
0.00569972 0.00120635 -7.77705e-05
0.00120635 -0.000672413 -2.26547e-05
-7.77705e-05 -2.26547e-05 0.000179886
0.00354357 0.00108998 0.000403912
0.00108998 -0.00304358 6.22212e-05
0.000403912 6.22212e-05 -0.00494201
0.000381255 0.00133179 -9.07747e-05
0.00133179 -0.00142933 -3.2532e-05
-9.07747e-05 -3.2532e-05 -0.00116484
0.00395344 0.00128004 -3.24628e-05
0.00128004 0.000723786 -7.59409e-06
-3.24628e-05 -7.59409e-06 0.000582864
0.00346078 0.00112033 -0.000105379
0.00112033 0.000906099 -3.10579e-05
-0.000105379 -3.10579e-05 0.000664252
0.00271289 -0.000255331 -4.30128e-05
-0.000255331 -0.000155207 -1.86829e-05
-4.30128e-05 -1.86829e-05 3.91353e-05
0.000318809 -0.000171312 4.47632e-05
-0.000171312 -0.000380318 1.0926e-05
4.47632e-05 1.0926e-05 -0.00011678
0.00178164 0.000843197 0.000142123
0.000843197 -0.00424482 -7.09525e-06
0.000142123 -7.09525e-06 -0.00445819
-0.001278 -0.000426218 -2.86751e-05
-0.000426218 -0.00189671 3.84362e-05
-2.86751e-05 3.84362e-05 -0.00176123
0.005753 -0.00041549 -0.000104945
-0.00041549 0.000680274 3.5647e-05
-0.000104945 3.5647e-05 0.000642146
0.0024937 -0.000463799 -2.53213e-05
-0.000463799 -0.000176085 9.57478e-06
-2.53213e-05 9.57478e-06 8.26217e-05
0.00389843 -0.000277248 1.58139e-06
-0.000277248 0.000700347 -3.8241e-06
1.58139e-06 -3.8241e-06 0.000701029
0.00208637 -0.000271886 4.23636e-05
-0.000271886 -0.000309881 -5.06661e-06
4.23636e-05 -5.06661e-06 -3.04722e-05
0.00346056 -8.06541e-05 3.08889e-05
-8.06541e-05 0.00103689 -1.44589e-06
3.08889e-05 -1.44589e-06 0.00100291
0.000859531 -0.000440174 -2.48373e-05
-0.000440174 -0.000746428 1.21271e-05
-2.48373e-05 1.21271e-05 -0.000617596
0.00193709 -0.000392688 -6.51163e-07
-0.000392688 -0.000315831 2.1661e-06
-6.51163e-07 2.1661e-06 -0.000132657
0.00219132 -0.0003561 2.74724e-06
-0.0003561 -0.000136094 -6.78641e-07
2.74724e-06 -6.78641e-07 1.23823e-05
0.00210954 -0.000485715 -3.04284e-06
-0.000485715 -2.31781e-05 1.91654e-06
-3.04284e-06 1.91654e-06 -7.28286e-05
0.00212794 -0.0004167 3.10709e-07
-0.0004167 3.53245e-05 -1.38381e-07
3.10709e-07 -1.38381e-07 2.21101e-05
0.0020949 -0.000343588 -1.74158e-06
-0.000343588 3.13384e-05 -4.69939e-08
-1.74158e-06 -4.69939e-08 8.67932e-06
0.00193608 -0.000413787 -1.17009e-07
-0.000413787 4.32975e-05 5.75993e-07
-1.17009e-07 5.75993e-07 -4.12798e-05
0.00199913 -0.000387493 -6.80712e-07
-0.000387493 7.20342e-05 1.26408e-07
-6.80712e-07 1.26408e-07 -8.61489e-06
0.0019385 -0.000338712 -1.68435e-06
-0.000338712 9.86092e-05 1.05342e-06
-1.68435e-06 1.05342e-06 -3.46148e-06
0.00185714 -0.000398208 6.05144e-07
-0.000398208 9.15115e-05 -3.52392e-07
6.05144e-07 -3.52392e-07 -3.14568e-05
0.00183463 -0.000369876 1.08202e-06
-0.000369876 8.9526e-05 -6.54621e-07
1.08202e-06 -6.54621e-07 -3.62807e-05
0.00186258 -0.000349163 1.07341e-06
-0.000349163 0.000124738 -1.67182e-06
1.07341e-06 -1.67182e-06 -1.41613e-05
0.00192343 -0.000361191 -3.00113e-06
-0.000361191 0.000186563 3.67536e-06
-3.00113e-06 3.67536e-06 5.25751e-05
0.00201739 -0.000372677 -1.8294e-06
-0.000372677 0.000256685 5.1185e-07
-1.8294e-06 5.1185e-07 9.73564e-05
0.00192676 -0.000356128 -1.07142e-06
-0.000356128 0.00024661 -1.74898e-06
-1.07142e-06 -1.74898e-06 6.18379e-05
0.00191504 -0.000403285 2.61037e-06
-0.000403285 0.00021034 2.38684e-06
2.61037e-06 2.38684e-06 1.38951e-05
0.0018773 -0.000384129 7.1382e-07
-0.000384129 0.000251272 -5.55847e-07
7.1382e-07 -5.55847e-07 4.14172e-05
0.00154206 -0.000312105 -6.86337e-06
-0.000312105 0.000160398 1.11881e-06
-6.86337e-06 1.11881e-06 -5.16526e-05
0.000908014 -0.00021042 -1.34331e-05
-0.00021042 -1.83631e-05 6.81745e-06
-1.34331e-05 6.81745e-06 -0.000200626
0.00140313 -0.00034055 -1.19568e-06
-0.00034055 0.00013112 -6.76038e-08
-1.19568e-06 -6.76038e-08 -0.000104619
0.00175415 -0.000431168 2.81515e-06
-0.000431168 0.000223877 5.29801e-07
2.81515e-06 5.29801e-07 -2.96637e-05
0.000464703 -0.000205723 -2.26137e-05
-0.000205723 -0.000109366 1.732e-05
-2.26137e-05 1.732e-05 -0.000226997
0.000836544 -0.000212301 5.12625e-07
-0.000212301 -1.45486e-05 1.15959e-07
5.12625e-07 1.15959e-07 -0.000203793
0.00132098 -0.000350621 7.80326e-06
-0.000350621 0.000164441 -1.60267e-06
7.80326e-06 -1.60267e-06 -8.78309e-05
0.00600877 0.000119935 -0.00020836
0.000119935 0.00336544 1.23228e-05
-0.00020836 1.23228e-05 0.00335921
0.000493139 -0.000205221 -1.14633e-06
-0.000205221 -8.52786e-05 4.26439e-07
-1.14633e-06 4.26439e-07 -0.000194747
0.000895461 -0.000217822 1.09926e-05
-0.000217822 8.84285e-05 -6.6987e-06
1.09926e-05 -6.6987e-06 -0.000106011
0.00565105 0.000137052 -1.47805e-06
0.000137052 0.00316495 -2.98673e-07
-1.47805e-06 -2.98673e-07 0.00315343
0.000620311 -0.000175672 2.2355e-05
-0.000175672 1.10286e-05 -1.68496e-05
2.2355e-05 -1.68496e-05 -8.80522e-05
0.00512103 0.000121809 0.000180084
0.000121809 0.00284637 -1.51895e-05
0.000180084 -1.51895e-05 0.00283836
0.001324 0.000414952 -2.65105e-06
0.000414952 0.000140737 2.70163e-06
-2.65105e-06 2.70163e-06 -0.000146028
0.00142112 0.00040943 -3.68369e-06
0.00040943 0.000312716 -1.30471e-06
-3.68369e-06 -1.30471e-06 2.03658e-05
0.000968759 0.000287747 -5.96787e-06
0.000287747 5.97445e-05 -1.56098e-06
-5.96787e-06 -1.56098e-06 -0.000177397
0.00264751 0.000469449 -9.80646e-07
0.000469449 0.00116763 3.83247e-06
-9.80646e-07 3.83247e-06 0.000889483
0.000837986 0.000233693 -1.83731e-06
0.000233693 9.85526e-05 -1.16846e-06
-1.83731e-06 -1.16846e-06 -0.000121294
0.00120227 0.000221238 -5.61424e-06
0.000221238 0.000396465 -3.91203e-06
-5.61424e-06 -3.91203e-06 0.000198159
-3.30655e-05 9.80657e-05 -2.62491e-06
9.80657e-05 -0.000345656 -8.76207e-07
-2.62491e-06 -8.76207e-07 -0.000524497
0.000665782 0.000109012 -5.44278e-07
0.000109012 9.00034e-05 -2.83293e-07
-5.44278e-07 -2.83293e-07 -7.15757e-05
0.000598253 4.99044e-05 -1.23569e-05
4.99044e-05 2.89169e-05 -1.42938e-05
-1.23569e-05 -1.42938e-05 -3.88042e-05
0.000458299 3.94225e-05 3.7935e-07
3.94225e-05 -3.83935e-05 8.1927e-06
3.7935e-07 8.1927e-06 -0.000162039
0.00047896 1.29894e-05 1.749e-07
1.29894e-05 -3.33158e-05 -2.63004e-07
1.749e-07 -2.63004e-07 -8.74651e-05
0.00375948 -0.000137429 -0.000110188
-0.000137429 0.00201136 -5.75779e-06
-0.000110188 -5.75779e-06 0.00200605
0.000340824 1.20068e-05 4.63459e-06
1.20068e-05 -0.000114557 1.12288e-05
4.63459e-06 1.12288e-05 -0.00015931
0.00326855 -0.000136155 -6.45798e-06
-0.000136155 0.00170076 6.45984e-07
-6.45798e-06 6.45984e-07 0.00169654
0.00292059 -0.000121048 5.12436e-05
-0.000121048 0.00147668 4.07499e-06
5.12436e-05 4.07499e-06 0.00147633
0.000527816 9.28727e-05 8.44577e-06
9.28727e-05 -0.00135141 1.54633e-05
8.44577e-06 1.54633e-05 -0.000988073
0.00526025 2.24181e-05 6.08889e-05
2.24181e-05 1.05706e-05 7.94656e-06
6.08889e-05 7.94656e-06 0.000768533
0.0123649 0.000758706 -6.05147e-05
0.000758706 0.0027433 -5.36192e-06
-6.05147e-05 -5.36192e-06 0.00203595
0.00185316 0.000589374 4.04932e-06
0.000589374 0.000331147 3.91795e-06
4.04932e-06 3.91795e-06 3.99439e-05
0.00197027 0.000575816 1.95936e-06
0.000575816 0.00028856 2.81897e-06
1.95936e-06 2.81897e-06 1.94797e-05
0.00127859 0.000473947 5.02124e-07
0.000473947 4.71073e-05 -3.08169e-06
5.02124e-07 -3.08169e-06 -0.000246444
0.00228377 0.000565444 -5.3842e-06
0.000565444 0.000944324 6.17194e-06
-5.3842e-06 6.17194e-06 0.000617902
0.00175904 0.000493832 -4.33977e-06
0.000493832 0.000530888 -5.16135e-06
-4.33977e-06 -5.16135e-06 0.000182712
0.00167776 0.000576486 6.95724e-06
0.000576486 0.000372425 3.0344e-06
6.95724e-06 3.0344e-06 7.59105e-05
0.00162742 0.000627853 7.02461e-07
0.000627853 1.88019e-05 -1.98706e-06
7.02461e-07 -1.98706e-06 -0.000234279
0.00225618 0.000664773 -1.55755e-05
0.000664773 0.000689761 -8.4193e-07
-1.55755e-05 -8.4193e-07 0.000423683
0.00127589 0.000603596 6.05381e-07
0.000603596 -0.000118637 1.5419e-05
6.05381e-07 1.5419e-05 -0.000176533
0.00250911 0.00076103 -1.4658e-06
0.00076103 0.000557592 1.41915e-07
-1.4658e-06 1.41915e-07 0.000306415
0.0024855 0.00067092 -5.72237e-06
0.00067092 0.000380298 9.82445e-07
-5.72237e-06 9.82445e-07 0.000179121
0.000930505 0.000335728 2.28516e-05
0.000335728 -0.00042885 1.5702e-05
2.28516e-05 1.5702e-05 -0.000440439
0.000925492 0.000567534 1.07546e-05
0.000567534 -0.000255262 -2.07954e-06
1.07546e-05 -2.07954e-06 -0.000416524
0.00123583 0.000679816 -2.72389e-05
0.000679816 -7.74263e-05 3.14127e-06
-2.72389e-05 3.14127e-06 -0.000287418
0.00266576 0.000668956 3.84858e-06
0.000668956 -7.13822e-06 8.88669e-06
3.84858e-06 8.88669e-06 6.34616e-05
0.00551291 0.000821676 -4.72267e-06
0.000821676 -0.000691077 -2.47021e-05
-4.72267e-06 -2.47021e-05 -0.000252729
0.00360417 0.00107056 -1.80491e-05
0.00107056 0.000874619 -3.96628e-05
-1.80491e-05 -3.96628e-05 0.000779992
0.00139629 -5.50647e-05 2.65459e-05
-5.50647e-05 -0.000233748 7.18903e-07
2.65459e-05 7.18903e-07 -0.000175014
0.00228949 -0.000185915 -4.12445e-05
-0.000185915 -0.000273153 2.19095e-06
-4.12445e-05 2.19095e-06 -0.00015776
0.00202756 0.000256246 1.66952e-05
0.000256246 -0.000590024 -4.0698e-06
1.66952e-05 -4.0698e-06 -0.000467288
0.000226799 -0.000331491 -4.23523e-05
-0.000331491 -0.00135965 3.26073e-05
-4.23523e-05 3.26073e-05 -0.0010875
0.0034309 -0.000350031 -9.83214e-05
-0.000350031 0.000359296 -5.72354e-06
-9.83214e-05 -5.72354e-06 0.000400454
0.00224309 -0.000293477 6.91916e-06
-0.000293477 -0.000133997 -3.81816e-06
6.91916e-06 -3.81816e-06 0.000118506
0.00246018 -8.0959e-05 -1.02e-05
-8.0959e-05 0.000395437 4.3455e-07
-1.02e-05 4.3455e-07 0.000371956
0.00223932 -0.000217917 6.20888e-06
-0.000217917 -9.41853e-06 -2.0708e-07
6.20888e-06 -2.0708e-07 5.26747e-05
0.00216104 -1.24299e-05 6.39531e-06
-1.24299e-05 -1.14729e-05 6.67532e-07
6.39531e-06 6.67532e-07 -3.31713e-06
0.00191112 -0.000412272 -1.19401e-05
-0.000412272 -0.000364256 3.54919e-06
-1.19401e-05 3.54919e-06 -0.000189478
0.00222189 -0.000362349 -2.21641e-06
-0.000362349 -0.000103299 4.9497e-07
-2.21641e-06 4.9497e-07 1.55249e-05
0.00216764 -0.000260589 -5.16353e-07
-0.000260589 -3.31196e-05 -5.54121e-07
-5.16353e-07 -5.54121e-07 1.07695e-06
0.00211881 -0.000415683 -2.93185e-06
-0.000415683 3.45273e-05 -7.29816e-08
-2.93185e-06 -7.29816e-08 2.00827e-05
0.00209313 -0.000340601 -1.26005e-07
-0.000340601 4.14668e-05 6.51523e-08
-1.26005e-07 6.51523e-08 1.44666e-05
0.00200987 -0.000292617 -1.92557e-06
-0.000292617 4.62324e-05 5.79131e-07
-1.92557e-06 5.79131e-07 -1.14275e-05
0.00198904 -0.000393931 2.34137e-07
-0.000393931 7.31228e-05 -1.30807e-06
2.34137e-07 -1.30807e-06 -9.58109e-06
0.00190677 -0.00033532 6.51272e-07
-0.00033532 7.65064e-05 -2.22281e-07
6.51272e-07 -2.22281e-07 -2.59232e-05
0.00191748 -0.000310485 -2.84779e-07
-0.000310485 0.000115026 -3.27037e-07
-2.84779e-07 -3.27037e-07 -1.53899e-07
0.00179658 -0.000368592 1.0939e-06
-0.000368592 6.24774e-05 -9.72136e-07
1.0939e-06 -9.72136e-07 -6.3796e-05
0.00189798 -0.000351028 2.11858e-07
-0.000351028 0.000145364 -4.33562e-07
2.11858e-07 -4.33562e-07 6.02837e-06
0.00185356 -0.000325045 -4.34954e-07
-0.000325045 0.000162628 -1.54604e-06
-4.34954e-07 -1.54604e-06 -1.04638e-06
0.00205405 -0.000372185 -1.92327e-06
-0.000372185 0.000273904 3.62049e-06
-1.92327e-06 3.62049e-06 0.000118725
0.00192399 -0.000356433 -5.65194e-07
-0.000356433 0.000245739 -1.3069e-07
-5.65194e-07 -1.3069e-07 6.20942e-05
0.0015272 -0.000284339 -5.63028e-06
-0.000284339 0.000117162 8.80691e-07
-5.63028e-06 8.80691e-07 -7.84626e-05
0.0018827 -0.000386697 3.35511e-06
-0.000386697 0.00025527 1.29628e-06
3.35511e-06 1.29628e-06 4.48853e-05
0.00156565 -0.00031505 -4.17218e-07
-0.00031505 0.000175027 8.43044e-10
-4.17218e-07 8.43044e-10 -3.65213e-05
0.000950389 -0.00019643 -1.42454e-05
-0.00019643 -2.61767e-05 6.50272e-06
-1.42454e-05 6.50272e-06 -0.000199809
0.000386006 -0.000184011 -2.0022e-05
-0.000184011 -0.000169908 1.61549e-05
-2.0022e-05 1.61549e-05 -0.000285187
0.00093574 -0.000213605 2.47637e-07
-0.000213605 -4.94274e-06 7.48265e-08
2.47637e-07 7.48265e-08 -0.000188033
0.00140328 -0.000338233 5.80814e-06
-0.000338233 0.000138035 -1.32841e-06
5.80814e-06 -1.32841e-06 -9.83307e-05
0.00625066 4.36146e-05 -0.000236565
4.36146e-05 0.00349022 1.46031e-05
-0.000236565 1.46031e-05 0.00349457
0.000472612 -0.000201106 -1.4722e-06
-0.000201106 -0.000112025 9.51198e-07
-1.4722e-06 9.51198e-07 -0.000225366
0.000881624 -0.000216773 1.22609e-05
-0.000216773 1.01506e-05 -6.44226e-06
1.22609e-05 -6.44226e-06 -0.000180545
0.00611819 9.54181e-05 -1.49218e-06
9.54181e-05 0.00343052 8.93169e-08
-1.49218e-06 8.93169e-08 0.00342525
0.000554636 -0.000209814 2.46849e-05
-0.000209814 -5.28889e-05 -1.72977e-05
2.46849e-05 -1.72977e-05 -0.000162785
0.00584755 0.000117839 0.000206167
0.000117839 0.00328176 -1.74119e-05
0.000206167 -1.74119e-05 0.00327127
0.00160571 0.000481878 -1.20109e-06
0.000481878 0.000183277 3.76967e-06
-1.20109e-06 3.76967e-06 -8.95434e-05
0.00139188 0.00042961 3.48722e-07
0.00042961 0.000179232 8.55123e-07
3.48722e-07 8.55123e-07 -0.000109947
0.00127003 0.000335683 -6.98019e-06
0.000335683 0.000164505 -8.65899e-07
-6.98019e-06 -8.65899e-07 -8.05771e-05
0.00175162 0.000445237 1.16893e-06
0.000445237 0.000508619 2.21889e-06
1.16893e-06 2.21889e-06 0.000208351
0.00111907 0.000295796 -1.49592e-06
0.000295796 0.000155612 1.34278e-07
-1.49592e-06 1.34278e-07 -8.02299e-05
0.000980036 0.000223838 -9.81315e-06
0.000223838 0.000188098 -3.29656e-06
-9.81315e-06 -3.29656e-06 -6.89878e-06
0.00129167 0.00027836 -2.6934e-06
0.00027836 0.000380754 -2.03287e-07
-2.6934e-06 -2.03287e-07 0.000150522
0.000691429 0.000185812 5.44609e-07
0.000185812 9.31331e-05 5.67764e-07
5.44609e-07 5.67764e-07 -0.000104158
0.000648938 0.000124933 -2.11924e-05
0.000124933 4.51157e-05 -1.57196e-05
-2.11924e-05 -1.57196e-05 -3.9896e-05
0.000370329 5.59896e-05 4.16738e-07
5.59896e-05 -9.45506e-05 6.41268e-06
4.16738e-07 6.41268e-06 -0.000246295
0.000532723 3.99258e-05 -1.09966e-06
3.99258e-05 -6.99408e-06 -4.6001e-07
-1.09966e-06 -4.6001e-07 -7.14635e-05
0.00440758 -0.000145983 -0.000141228
-0.000145983 0.00241774 -8.61492e-06
-0.000141228 -8.61492e-06 0.00240781
0.000402273 1.24329e-05 6.23295e-06
1.24329e-05 -7.73335e-05 1.28118e-05
6.23295e-06 1.28118e-05 -0.000131008
0.00362265 -0.000154412 -6.52592e-06
-0.000154412 0.00193024 6.36624e-07
-6.52592e-06 6.36624e-07 0.00192041
0.00318559 -0.000141958 6.33637e-05
-0.000141958 0.0016507 4.11236e-06
6.33637e-05 4.11236e-06 0.00164455
0.000780925 0.000100667 2.15334e-05
0.000100667 -0.000593826 1.5877e-05
2.15334e-05 1.5877e-05 -0.000456999
0.00235414 9.88803e-05 -9.9886e-06
9.88803e-05 -0.000620451 -3.95e-06
-9.9886e-06 -3.95e-06 -0.000223461
0.00388346 0.000150298 0.000173487
0.000150298 -0.00124544 5.19658e-05
0.000173487 5.19658e-05 -6.52434e-06
0.00253462 0.000643767 -4.84725e-06
0.000643767 0.000549823 -2.47276e-07
-4.84725e-06 -2.47276e-07 0.000290255
0.00170658 0.000595202 -5.20935e-06
0.000595202 0.000229434 -4.45322e-06
-5.20935e-06 -4.45322e-06 -5.80219e-05
0.00203734 0.000482586 -6.13013e-07
0.000482586 0.000184206 3.97559e-06
-6.13013e-07 3.97559e-06 -2.32102e-05
0.00193169 0.00056384 1.04111e-06
0.00056384 0.000264352 3.32755e-07
1.04111e-06 3.32755e-07 -1.61963e-06
0.0013819 0.000488142 -2.68134e-08
0.000488142 0.000120104 -9.66515e-06
-2.68134e-08 -9.66515e-06 -0.000173288
0.00184857 0.00049883 -1.30462e-06
0.00049883 4.00679e-06 9.28958e-07
-1.30462e-06 9.28958e-07 -0.0001837
0.0022524 0.000640921 -7.46681e-06
0.000640921 0.00068482 -3.23923e-06
-7.46681e-06 -3.23923e-06 0.000383721
0.00206031 0.000655007 5.00931e-08
0.000655007 0.000284078 -5.24804e-07
5.00931e-08 -5.24804e-07 2.50619e-05
0.00197678 0.000375363 -9.20862e-06
0.000375363 -6.26251e-05 -6.43717e-08
-9.20862e-06 -6.43717e-08 -0.000124838
0.00291596 0.000807847 -4.28732e-06
0.000807847 0.00077494 6.34567e-06
-4.28732e-06 6.34567e-06 0.000523195
0.0022288 0.000653215 -8.94305e-07
0.000653215 0.000231396 -3.19943e-07
-8.94305e-07 -3.19943e-07 3.04727e-05
0.000781203 0.000335669 4.69562e-06
0.000335669 -0.000474879 3.13847e-06
4.69562e-06 3.13847e-06 -0.0004927
-0.000462341 0.000453862 -1.81523e-05
0.000453862 -0.000972591 -3.23535e-06
-1.81523e-05 -3.23535e-06 -0.00111371
0.00302141 0.000714337 -8.51272e-05
0.000714337 0.000155941 -3.12426e-05
-8.51272e-05 -3.12426e-05 0.000164416
0.00200063 5.95217e-05 -1.54114e-06
5.95217e-05 -0.000135841 -1.21311e-06
-1.54114e-06 -1.21311e-06 -8.87114e-05
0.00240548 -5.74599e-05 4.80114e-06
-5.74599e-05 0.000414001 2.83235e-07
4.80114e-06 2.83235e-07 0.000461199
0.00204885 -0.000152093 -6.75487e-05
-0.000152093 -0.000312669 6.87432e-06
-6.75487e-05 6.87432e-06 -0.000271761
0.00229005 -0.000311789 -4.90144e-05
-0.000311789 -2.2235e-05 6.47777e-06
-4.90144e-05 6.47777e-06 0.000194109
0.00146781 -9.30222e-05 -8.76923e-06
-9.30222e-05 -0.000237512 2.61628e-06
-8.76923e-06 2.61628e-06 -0.000250121
0.00219819 -0.000214763 1.24779e-08
-0.000214763 -4.11295e-05 -1.41461e-06
1.24779e-08 -1.41461e-06 3.82094e-05
0.00221778 -1.38005e-05 -2.03053e-06
-1.38005e-05 -3.98719e-06 1.39095e-06
-2.03053e-06 1.39095e-06 1.13704e-05
0.00222658 -7.32904e-05 -1.08111e-06
-7.32904e-05 -4.88659e-06 -1.56526e-07
-1.08111e-06 -1.56526e-07 2.93955e-05
0.00224652 -0.000365191 -4.70826e-06
-0.000365191 -6.95974e-05 1.0537e-07
-4.70826e-06 1.0537e-07 2.12886e-05
0.00214099 -0.000251285 4.47353e-07
-0.000251285 -3.29116e-05 -2.1448e-07
4.47353e-07 -2.1448e-07 -4.36057e-06
0.00208525 -0.000198339 -1.07084e-06
-0.000198339 1.06758e-05 -1.14681e-08
-1.07084e-06 -1.14681e-08 1.1184e-05
0.00209597 -0.000337785 9.36874e-07
-0.000337785 5.40382e-05 -3.2394e-07
9.36874e-07 -3.2394e-07 2.33718e-05
0.00200454 -0.000289326 1.7222e-07
-0.000289326 4.86043e-05 1.2319e-07
1.7222e-07 1.2319e-07 -9.36209e-06
0.00198204 -0.000249226 -1.46013e-06
-0.000249226 0.000106054 1.86345e-07
-1.46013e-06 1.86345e-07 2.04218e-05
0.0018823 -0.000332155 2.25715e-06
-0.000332155 5.83304e-05 -1.26124e-06
2.25715e-06 -1.26124e-06 -4.44564e-05
0.00190543 -0.000309701 2.99227e-07
-0.000309701 0.000105249 -2.24572e-07
2.99227e-07 -2.24572e-07 -1.02509e-05
0.00187044 -0.000283534 -4.42732e-08
-0.000283534 0.000128585 -1.32928e-06
-4.42732e-08 -1.32928e-06 -9.924e-06
0.00193161 -0.000352837 1.68168e-08
-0.000352837 0.000165003 6.64114e-07
1.68168e-08 6.64114e-07 2.52271e-05
0.00187969 -0.000326035 -3.57578e-07
-0.000326035 0.000179973 -4.44335e-08
-3.57578e-07 -4.44335e-08 1.63478e-05
0.00157722 -0.000259337 -3.67778e-06
-0.000259337 0.00011198 5.12787e-07
-3.67778e-06 5.12787e-07 -6.82552e-05
0.00192066 -0.000356592 5.40606e-07
-0.000356592 0.000244389 1.6218e-06
5.40606e-07 1.6218e-06 6.19231e-05
0.00155924 -0.000286363 -3.85423e-07
-0.000286363 0.000135904 9.92533e-08
-3.85423e-07 9.92533e-08 -5.9487e-05
0.000973631 -0.000177273 -1.44051e-05
-0.000177273 -3.09048e-05 5.87428e-06
-1.44051e-05 5.87428e-06 -0.000197036
0.00158561 -0.000317747 5.85687e-06
-0.000317747 0.000187512 -7.78064e-07
5.85687e-06 -7.78064e-07 -2.34978e-05
0.00098481 -0.000197675 1.22104e-07
-0.000197675 -7.89463e-06 8.44126e-08
1.22104e-07 8.44126e-08 -0.000181307
0.00260313 -0.000152109 -4.06762e-05
-0.000152109 0.00117046 1.0349e-05
-4.06762e-05 1.0349e-05 0.00107931
0.00192806 -7.57023e-05 -0.000220308
-7.57023e-05 0.000831921 2.75454e-05
-0.000220308 2.75454e-05 0.000813623
0.00157011 -0.000180784 -9.85008e-06
-0.000180784 0.000549066 -3.12151e-07
-9.85008e-06 -3.12151e-07 0.00044261
0.00095105 -0.000215966 1.32668e-05
-0.000215966 1.41414e-06 -6.32593e-06
1.32668e-05 -6.32593e-06 -0.000182427
0.00630505 2.66558e-05 -6.81605e-06
2.66558e-05 0.00353032 3.46481e-07
-6.81605e-06 3.46481e-07 0.0035312
0.000501441 -0.000227199 2.48084e-05
-0.000227199 -9.509e-05 -1.68956e-05
2.48084e-05 -1.68956e-05 -0.000210567
0.00620233 7.47833e-05 0.000229135
7.47833e-05 0.0034868 -2.04925e-05
0.000229135 -2.04925e-05 0.00347905
0.00205448 0.000370865 8.67002e-08
0.000370865 0.000170588 8.03368e-07
8.67002e-08 8.03368e-07 1.03403e-05
0.0019034 0.000470583 2.28284e-06
0.000470583 0.000244701 4.35767e-06
2.28284e-06 4.35767e-06 9.81888e-06
0.00187129 0.000505475 9.39095e-08
0.000505475 0.000336356 2.19162e-07
9.39095e-08 2.19162e-07 6.20123e-05
0.00140541 0.000364552 -6.06705e-06
0.000364552 0.000174087 8.1497e-08
-6.06705e-06 8.1497e-08 -6.949e-05
0.0014769 0.000447487 4.63762e-06
0.000447487 0.000225777 -7.83256e-07
4.63762e-06 -7.83256e-07 -6.676e-05
0.00123151 0.000330757 -4.4752e-07
0.000330757 0.000142458 3.01022e-07
-4.4752e-07 3.01022e-07 -0.000101809
0.000826744 0.000204466 -1.16179e-05
0.000204466 1.16069e-05 -5.25908e-06
-1.16179e-05 -5.25908e-06 -0.000171574
0.00125497 0.000302319 4.87201e-06
0.000302319 0.000243714 2.28691e-06
4.87201e-06 2.28691e-06 9.38888e-06
0.000756344 0.00020084 6.62032e-07
0.00020084 4.64113e-05 8.35922e-07
6.62032e-07 8.35922e-07 -0.000144768
0.000599009 0.00020147 -2.52889e-05
0.00020147 -3.0604e-06 -1.69671e-05
-2.52889e-05 -1.69671e-05 -0.000109038
0.000361288 0.000150134 2.1867e-06
0.000150134 -0.000105766 3.02199e-06
2.1867e-06 3.02199e-06 -0.000301902
0.000560675 0.000107616 -1.38235e-06
0.000107616 -7.44499e-06 -7.2796e-07
-1.38235e-06 -7.2796e-07 -8.94531e-05
0.00530875 -0.000144315 -0.00018427
-0.000144315 0.0029759 -1.4955e-05
-0.00018427 -1.4955e-05 0.00295921
0.000350765 3.03044e-05 9.04381e-06
3.03044e-05 -0.00011265 1.41655e-05
9.04381e-06 1.41655e-05 -0.000175614
0.00415753 -0.000173665 -8.32394e-06
-0.000173665 0.00227078 7.21238e-07
-8.32394e-06 7.21238e-07 0.00225433
0.00353711 -0.000162591 8.02881e-05
-0.000162591 0.00187859 4.33112e-06
8.02881e-05 4.33112e-06 0.00186656
0.00212895 0.000191773 -3.78877e-06
0.000191773 -8.02494e-05 -5.99421e-07
-3.78877e-06 -5.99421e-07 -3.12965e-05
0.0020339 7.12075e-05 2.33429e-05
7.12075e-05 5.15173e-05 -2.71364e-06
2.33429e-05 -2.71364e-06 0.000180248
0.00489288 0.00014985 -0.000108316
0.00014985 0.00050071 -1.35286e-05
-0.000108316 -1.35286e-05 0.000922779
0.00195027 0.000432407 -4.57491e-06
0.000432407 8.83511e-05 1.4555e-06
-4.57491e-06 1.4555e-06 -8.35332e-05
0.00209806 0.000599197 -3.11307e-06
0.000599197 0.000316503 -2.13984e-07
-3.11307e-06 -2.13984e-07 6.29031e-05
0.00161301 0.000605437 -7.13975e-06
0.000605437 0.000158766 -8.5916e-06
-7.13975e-06 -8.5916e-06 -0.000125102
0.00216702 0.00047764 3.02716e-06
0.00047764 0.000279572 1.29069e-06
3.02716e-06 1.29069e-06 7.49948e-05
0.00189207 0.000552804 -1.02458e-06
0.000552804 0.000240549 -3.7582e-06
-1.02458e-06 -3.7582e-06 -2.27428e-05
0.00227689 0.000360745 -7.34337e-07
0.000360745 0.000118349 9.16423e-08
-7.34337e-07 9.16423e-08 4.39453e-05
0.00182244 0.000498169 1.48803e-07
0.000498169 1.5853e-05 8.10938e-07
1.48803e-07 8.10938e-07 -0.000172767
0.00252963 0.000686204 -5.75287e-06
0.000686204 0.000570059 -1.19608e-06
-5.75287e-06 -1.19608e-06 0.000302628
0.00200057 0.000372187 -5.4104e-07
0.000372187 -4.08645e-05 -4.9421e-07
-5.4104e-07 -4.9421e-07 -0.000102068
0.00209302 0.000642621 1.27444e-05
0.000642621 0.00014265 1.94432e-06
1.27444e-05 1.94432e-06 -6.10922e-05
0.000958558 0.000337356 -3.62985e-05
0.000337356 -0.000353311 -1.40245e-05
-3.62985e-05 -1.40245e-05 -0.000378495
0.0021922 6.76474e-05 -4.35606e-07
6.76474e-05 -9.12049e-06 3.30181e-07
-4.35606e-07 3.30181e-07 2.57245e-05
0.00213192 7.07766e-05 -1.95964e-06
7.07766e-05 -4.07089e-05 2.66613e-07
-1.95964e-06 2.66613e-07 1.76149e-06
0.00310276 -5.13257e-05 -3.99929e-05
-5.13257e-05 0.000881504 3.06704e-06
-3.99929e-05 3.06704e-06 0.000915133
0.00213365 -0.000208972 -1.16609e-05
-0.000208972 -9.00351e-05 1.79913e-06
-1.16609e-05 1.79913e-06 5.42719e-06
0.00226112 -1.15423e-05 -3.0709e-06
-1.15423e-05 -9.48047e-06 -2.07335e-06
-3.0709e-06 -2.07335e-06 1.29042e-05
0.00218529 -7.87612e-05 -6.00651e-07
-7.87612e-05 -4.89472e-05 -9.98072e-08
-6.00651e-07 -9.98072e-08 -7.27523e-06
0.00198957 -6.31612e-05 -1.22481e-06
-6.31612e-05 -6.88966e-07 2.64494e-07
-1.22481e-06 2.64494e-07 3.73801e-07
0.00210669 -0.000240651 5.75571e-07
-0.000240651 -3.55045e-05 1.23423e-07
5.75571e-07 1.23423e-07 -1.2906e-05
0.00204097 -0.000201639 -1.51936e-07
-0.000201639 -6.63338e-06 9.97531e-09
-1.51936e-07 9.97531e-09 -1.13338e-05
0.00201504 -0.000169884 -9.27163e-07
-0.000169884 8.40408e-05 7.02224e-08
-9.27163e-07 7.02224e-08 3.1109e-05
0.00200161 -0.000286195 2.19686e-06
-0.000286195 5.28309e-05 -4.17735e-07
2.19686e-06 -4.17735e-07 -5.61399e-06
0.00192776 -0.000246462 1.35417e-07
-0.000246462 6.77444e-05 -1.89399e-07
1.35417e-07 -1.89399e-07 -1.8001e-05
0.00187043 -0.000228019 -3.13239e-07
-0.000228019 8.37443e-05 -9.41513e-07
-3.13239e-07 -9.41513e-07 -3.02628e-05
0.00189783 -0.000309074 1.42789e-06
-0.000309074 9.81953e-05 -1.14506e-07
1.42789e-06 -1.14506e-07 -1.76117e-05
0.00190448 -0.000285184 -3.07017e-07
-0.000285184 0.000149532 -6.25801e-08
-3.07017e-07 -6.25801e-08 1.08654e-05
0.00162128 -0.000226051 -2.42434e-06
-0.000226051 0.000104382 2.08603e-07
-2.42434e-06 2.08603e-07 -5.97814e-05
0.00190504 -0.000327037 2.44993e-07
-0.000327037 0.000196738 1.28337e-06
2.44993e-07 1.28337e-06 3.31496e-05
0.00160606 -0.00026107 -3.16308e-07
-0.00026107 0.000128143 5.14731e-08
-3.16308e-07 5.14731e-08 -5.18053e-05
0.000990173 -0.00015826 -1.38306e-05
-0.00015826 -3.65204e-05 4.93882e-06
-1.38306e-05 4.93882e-06 -0.000196929
0.00159101 -0.000288407 4.66008e-06
-0.000288407 0.000154455 -7.01322e-07
4.66008e-06 -7.01322e-07 -4.07092e-05
0.00101298 -0.000178006 2.15369e-08
-0.000178006 -1.0576e-05 1.45269e-07
2.15369e-08 1.45269e-07 -0.00017608
0.0026221 -0.000152311 -4.87116e-05
-0.000152311 0.00117104 9.77666e-06
-4.87116e-05 9.77666e-06 0.00108778
0.00101794 -0.000199207 1.42591e-05
-0.000199207 9.60772e-06 -6.21402e-06
1.42591e-05 -6.21402e-06 -0.000163662
0.00274378 -0.000193068 4.34399e-05
-0.000193068 0.00125517 -6.29964e-06
4.34399e-05 -6.29964e-06 0.00117081
0.00198912 -0.000114218 -0.000222843
-0.000114218 0.000875567 3.22195e-05
-0.000222843 3.22195e-05 0.000855197
0.00402797 -7.1688e-05 -0.000218276
-7.1688e-05 0.00213549 1.90148e-05
-0.000218276 1.90148e-05 0.00212688
0.00283362 -0.000248125 0.00013987
-0.000248125 0.00132269 -2.13063e-05
0.00013987 -2.13063e-05 0.00123867
0.00634989 1.15564e-05 0.00024459
1.15564e-05 0.00356665 -2.43083e-05
0.00024459 -2.43083e-05 0.00356337
0.00226978 0.000370701 -2.3915e-06
0.000370701 0.000292851 -1.7389e-07
-2.3915e-06 -1.7389e-07 0.000155627
0.00174095 0.000362197 2.86434e-06
0.000362197 9.31606e-05 1.662e-06
2.86434e-06 1.662e-06 -9.51679e-05
0.00203543 0.00036312 5.43716e-07
0.00036312 0.000162667 -1.75174e-06
5.43716e-07 -1.75174e-06 9.19503e-06
0.00156238 0.000360324 -5.00254e-06
0.000360324 0.000171167 7.16932e-07
-5.00254e-06 7.16932e-07 -5.54835e-05
0.00198596 0.000475816 5.32592e-07
0.000475816 0.000281899 4.3075e-07
5.32592e-07 4.3075e-07 4.6287e-05
0.00214033 0.000529921 1.39143e-06
0.000529921 0.000491408 -3.05888e-06
1.39143e-06 -3.05888e-06 0.000215351
0.00138898 0.000365331 1.36708e-07
0.000365331 0.000159157 3.04732e-07
1.36708e-07 3.04732e-07 -8.56973e-05
0.000903468 0.000222746 -1.34506e-05
0.000222746 -8.71428e-06 -5.60017e-06
-1.34506e-05 -5.60017e-06 -0.000192499
0.00127072 0.000332992 8.05425e-06
0.000332992 0.00016807 2.37709e-06
8.05425e-06 2.37709e-06 -7.68022e-05
0.000777277 0.0001994 -2.2167e-07
0.0001994 -2.02362e-05 -1.95743e-07
-2.2167e-07 -1.95743e-07 -0.000201011
0.000488067 0.000229879 -2.57665e-05
0.000229879 -8.66875e-05 -1.7513e-05
-2.57665e-05 -1.7513e-05 -0.000201007
0.00038423 0.000177029 6.56497e-06
0.000177029 -0.000183388 3.42287e-06
6.56497e-06 3.42287e-06 -0.000370697
0.000436601 0.000171696 1.9102e-06
0.000171696 -0.000104956 4.66511e-07
1.9102e-06 4.66511e-07 -0.00020378
0.00604549 -0.000118349 -0.000211381
-0.000118349 0.00342392 -2.09434e-05
-0.000211381 -2.09434e-05 0.00340269
0.000345268 7.53289e-05 1.53089e-05
7.53289e-05 -0.000135224 1.4967e-05
1.53089e-05 1.4967e-05 -0.000211324
0.00495921 -0.000177943 -8.04682e-06
-0.000177943 0.00276436 1.15542e-08
-8.04682e-06 1.15542e-08 0.00274422
0.00393515 -0.000186587 9.45293e-05
-0.000186587 0.00213753 5.26093e-06
9.45293e-05 5.26093e-06 0.00211764
0.00220618 0.00021592 -9.98488e-07
0.00021592 2.22356e-06 2.74551e-07
-9.98488e-07 2.74551e-07 1.54224e-05
0.00206354 0.000195762 1.19323e-06
0.000195762 -0.00011119 1.87465e-08
1.19323e-06 1.87465e-08 -6.35604e-05
0.00297876 4.74721e-05 -7.89139e-05
4.74721e-05 0.000532067 -1.21682e-05
-7.89139e-05 -1.21682e-05 0.000660185
0.00201957 0.000314132 -6.00068e-07
0.000314132 5.36535e-05 2.03637e-07
-6.00068e-07 2.03637e-07 -4.85466e-05
0.00198621 0.000432763 -1.04185e-07
0.000432763 0.000130883 4.60886e-07
-1.04185e-07 4.60886e-07 -4.14786e-05
0.00164774 0.000551667 2.64758e-06
0.000551667 7.57725e-05 -2.04941e-06
2.64758e-06 -2.04941e-06 -0.000171108
0.00229792 0.000472461 1.56334e-07
0.000472461 0.000376224 -2.99045e-06
1.56334e-07 -2.99045e-06 0.000174601
0.00217544 0.000347784 -6.42557e-07
0.000347784 6.64388e-05 2.65059e-08
-6.42557e-07 2.65059e-08 -6.0579e-06
0.00179116 0.000497032 -3.70566e-06
0.000497032 2.55592e-05 1.60492e-07
-3.70566e-06 1.60492e-07 -0.000163905
0.00191006 0.000362555 1.07518e-05
0.000362555 -6.29822e-05 2.07833e-07
1.07518e-05 2.07833e-07 -0.000122836
0.00203703 5.7284e-05 5.56226e-07
5.7284e-05 4.90504e-07 5.14887e-07
5.56226e-07 5.14887e-07 1.07949e-05
0.00214326 6.50613e-05 7.73827e-08
6.50613e-05 -2.75465e-05 6.69161e-09
7.73827e-08 6.69161e-09 4.748e-06
0.00224849 8.54121e-05 -7.52299e-06
8.54121e-05 4.82495e-05 -1.03671e-07
-7.52299e-06 -1.03671e-07 8.58718e-05
0.00190841 -1.15642e-05 -4.4793e-06
-1.15642e-05 9.26202e-06 5.01564e-07
-4.4793e-06 5.01564e-07 -5.77237e-06
0.00215771 -8.97303e-05 1.86432e-06
-8.97303e-05 -8.35488e-05 -5.48036e-07
1.86432e-06 -5.48036e-07 -3.455e-05
0.00200288 -6.58535e-05 -8.11607e-07
-6.58535e-05 2.71214e-06 3.1854e-07
-8.11607e-07 3.1854e-07 4.91818e-06
0.00197813 -9.84712e-05 -3.99006e-06
-9.84712e-05 4.97724e-05 3.37198e-07
-3.99006e-06 3.37198e-07 1.53808e-05
0.00199926 -0.000204895 1.7124e-06
-0.000204895 -2.27232e-05 -3.66001e-08
1.7124e-06 -3.66001e-08 -3.27631e-05
0.00196285 -0.000167032 1.83166e-06
-0.000167032 5.03614e-05 -3.94113e-07
1.83166e-06 -3.94113e-07 -2.14115e-06
0.00192112 -0.000157956 1.9944e-06
-0.000157956 9.51515e-05 -1.70161e-06
1.9944e-06 -1.70161e-06 2.66125e-06
0.00187179 -0.000243015 1.87012e-06
-0.000243015 2.82954e-05 -5.37477e-07
1.87012e-06 -5.37477e-07 -5.74577e-05
0.00193271 -0.000228922 -1.71822e-07
-0.000228922 0.000123422 -1.74474e-07
-1.71822e-07 -1.74474e-07 9.54101e-06
0.00166074 -0.000179705 -1.53474e-06
-0.000179705 0.000102865 -1.24978e-07
-1.53474e-06 -1.24978e-07 -4.40968e-05
0.00193811 -0.000286628 1.98648e-07
-0.000286628 0.000170861 9.99887e-07
1.98648e-07 9.99887e-07 3.20817e-05
0.00164163 -0.000226383 -2.55444e-07
-0.000226383 0.000115484 8.29918e-08
-2.55444e-07 8.29918e-08 -4.81852e-05
0.00100783 -0.000136389 -1.30993e-05
-0.000136389 -4.00077e-05 3.86744e-06
-1.30993e-05 3.86744e-06 -0.000194081
0.00163417 -0.000262657 2.86495e-06
-0.000262657 0.000144006 -4.20259e-07
2.86495e-06 -4.20259e-07 -3.5622e-05
0.00103073 -0.00015805 -1.14837e-07
-0.00015805 -1.55306e-05 2.20589e-07
-1.14837e-07 2.20589e-07 -0.000175007
0.00262026 -0.000152353 -5.63792e-05
-0.000152353 0.00116639 9.58013e-06
-5.63792e-05 9.58013e-06 0.00108609
0.00105297 -0.000178811 1.43183e-05
-0.000178811 9.92308e-06 -5.59382e-06
1.43183e-05 -5.59382e-06 -0.000154909
0.00270966 -0.000177606 3.9728e-05
-0.000177606 0.00122423 -5.04835e-06
3.9728e-05 -5.04835e-06 0.00114672
0.00202856 -9.8258e-05 -0.000217972
-9.8258e-05 0.000892828 2.84241e-05
-0.000217972 2.84241e-05 0.000874503
0.00286536 -0.000203725 0.000136652
-0.000203725 0.00132526 -2.26735e-05
0.000136652 -2.26735e-05 0.00124863
0.00170268 -5.29841e-05 -9.38564e-05
-5.29841e-05 0.000703355 1.25703e-05
-9.38564e-05 1.25703e-05 0.000671993
0.00599903 8.06003e-05 6.41253e-05
8.06003e-05 0.0033357 -2.73332e-06
6.41253e-05 -2.73332e-06 0.00331492
0.0019869 0.000308094 8.47536e-07
0.000308094 0.000100941 6.27195e-07
8.47536e-07 6.27195e-07 -2.01821e-05
0.00203935 0.00034183 3.17749e-07
0.00034183 0.000225295 -1.73783e-07
3.17749e-07 -1.73783e-07 6.44042e-05
0.00213025 0.000365443 -3.90668e-06
0.000365443 0.000199277 -6.81964e-08
-3.90668e-06 -6.81964e-08 5.92828e-05
0.00176737 0.000326174 -2.27263e-06
0.000326174 0.000235631 3.91787e-07
-2.27263e-06 3.91787e-07 3.43468e-05
0.00174472 0.00036805 -3.9273e-07
0.00036805 8.06127e-05 -1.8763e-06
-3.9273e-07 -1.8763e-06 -0.000104492
0.00202142 0.000355748 -3.79571e-06
0.000355748 0.000157817 -5.47723e-06
-3.79571e-06 -5.47723e-06 1.10851e-05
0.00101464 0.000222744 -1.46472e-05
0.000222744 5.82591e-07 -5.28527e-06
-1.46472e-05 -5.28527e-06 -0.000177753
0.00151335 0.000357546 4.93115e-07
0.000357546 0.000140331 3.52053e-07
4.93115e-07 3.52053e-07 -8.67753e-05
0.00206642 0.000480623 2.77049e-06
0.000480623 0.000317096 -3.04235e-06
2.77049e-06 -3.04235e-06 8.08563e-05
0.00135432 0.000364197 7.10455e-06
0.000364197 0.000134124 8.7078e-07
7.10455e-06 8.7078e-07 -0.000111639
0.00086729 0.000216371 -8.62098e-07
0.000216371 -2.48073e-05 2.73676e-08
-8.62098e-07 2.73676e-08 -0.00020657
0.000453003 0.00022861 -2.50802e-05
0.00022861 -0.000112366 -1.67537e-05
-2.50802e-05 -1.67537e-05 -0.000231021
0.000649772 0.00018768 1.13097e-05
0.00018768 -9.84606e-05 4.98155e-06
1.13097e-05 4.98155e-06 -0.000275792
0.000444247 0.000215627 2.21157e-06
0.000215627 -0.000107663 5.87983e-07
2.21157e-06 5.87983e-07 -0.000222542
0.00634314 -3.67334e-05 -0.00023264
-3.67334e-05 0.00359022 -2.6246e-05
-0.00023264 -2.6246e-05 0.00357399
0.000483123 0.000156799 2.26659e-05
0.000156799 -8.06836e-05 1.67842e-05
2.26659e-05 1.67842e-05 -0.000175173
0.00582181 -0.000149513 1.87444e-06
-0.000149513 0.00328192 -9.7887e-07
1.87444e-06 -9.7887e-07 0.00326314
0.00464405 -0.000223337 0.000114551
-0.000223337 0.0025881 7.59648e-06
0.000114551 7.59648e-06 0.00255607
0.00203104 0.000172042 -1.44027e-06
0.000172042 2.86644e-05 4.10707e-08
-1.44027e-06 4.10707e-08 -1.46264e-06
0.00219776 0.000218711 2.12993e-07
0.000218711 -1.10988e-05 5.46134e-07
2.12993e-07 5.46134e-07 4.50193e-06
0.0020704 0.000200425 3.87108e-06
0.000200425 -0.000112787 3.89938e-07
3.87108e-06 3.89938e-07 -6.60111e-05
0.00205028 0.000310793 -1.61068e-07
0.000310793 7.92414e-05 2.91769e-08
-1.61068e-07 2.91769e-08 -1.92702e-05
0.00200393 0.000431375 3.42626e-07
0.000431375 0.000164124 -6.80893e-07
3.42626e-07 -6.80893e-07 -8.47585e-06
0.00210577 0.000336566 1.09523e-06
0.000336566 2.94416e-05 -3.65643e-07
1.09523e-06 -3.65643e-07 -4.12953e-05
0.00195912 5.87521e-05 -2.41562e-06
5.87521e-05 1.86873e-05 3.70166e-07
-2.41562e-06 3.70166e-07 6.83316e-06
0.00202573 5.30281e-05 3.91925e-07
5.30281e-05 -1.53044e-06 -8.3004e-08
3.91925e-07 -8.3004e-08 5.81434e-06
0.00209381 6.26865e-05 5.16104e-07
6.26865e-05 -4.77384e-05 -3.27427e-07
5.16104e-07 -3.27427e-07 -1.73601e-05
0.00191969 -1.28965e-05 -1.34059e-06
-1.28965e-05 1.31202e-05 9.59106e-08
-1.34059e-06 9.59106e-08 -2.44755e-06
0.00186385 -3.87879e-05 -5.68205e-06
-3.87879e-05 -2.49572e-06 4.42655e-07
-5.68205e-06 4.42655e-07 -4.25108e-05
0.00201566 -6.82913e-05 1.32808e-06
-6.82913e-05 5.45827e-06 -7.08563e-08
1.32808e-06 -7.08563e-08 9.00701e-06
0.00193202 -9.67557e-05 -1.42987e-06
-9.67557e-05 2.62002e-05 2.24027e-07
-1.42987e-06 2.24027e-07 -1.13744e-05
0.0019727 -9.85144e-05 -2.74526e-06
-9.85144e-05 0.000121798 2.3617e-08
-2.74526e-06 2.3617e-08 4.87996e-05
0.00191362 -0.000164642 4.27092e-06
-0.000164642 1.95238e-05 -7.73359e-07
4.27092e-06 -7.73359e-07 -3.2645e-05
0.00191739 -0.0001597 2.588e-06
-0.0001597 8.91325e-05 -9.69665e-07
2.588e-06 -9.69665e-07 -3.59519e-06
0.00167323 -0.000128143 8.42356e-07
-0.000128143 9.53691e-05 -7.25884e-07
8.42356e-07 -7.25884e-07 -3.6906e-05
0.00198012 -0.000231008 3.96275e-07
-0.000231008 0.00015307 5.04685e-07
3.96275e-07 5.04685e-07 3.90027e-05
0.00166132 -0.000180334 -1.85808e-07
-0.000180334 9.91121e-05 2.68786e-08
-1.85808e-07 2.68786e-08 -4.767e-05
0.00102312 -0.000109012 -1.25716e-05
-0.000109012 -4.13921e-05 2.80764e-06
-1.25716e-05 2.80764e-06 -0.000187655
0.00166571 -0.000227054 1.66235e-06
-0.000227054 0.000127788 -3.70697e-08
1.66235e-06 -3.70697e-08 -3.54304e-05
0.00104206 -0.000135199 -2.39854e-07
-0.000135199 -2.18531e-05 2.77745e-07
-2.39854e-07 2.77745e-07 -0.000174974
0.00257727 -0.000158254 -5.93502e-05
-0.000158254 0.0011386 8.48096e-06
-5.93502e-05 8.48096e-06 0.00105958
0.00107127 -0.000157882 1.37499e-05
-0.000157882 5.22927e-06 -4.58141e-06
1.37499e-05 -4.58141e-06 -0.000153291
0.00268326 -0.000155336 3.81568e-05
-0.000155336 0.00120054 -3.84064e-06
3.81568e-05 -3.84064e-06 0.00112713
0.002054 -8.27844e-05 -0.000217084
-8.27844e-05 0.000901558 2.41195e-05
-0.000217084 2.41195e-05 0.000884369
0.00279724 -0.000172631 0.000134072
-0.000172631 0.00127125 -1.94177e-05
0.000134072 -1.94177e-05 0.00120232
0.00170182 -6.0228e-05 -8.51227e-05
-6.0228e-05 0.000697284 1.02944e-05
-8.51227e-05 1.02944e-05 0.000668626
0.00145659 -4.9974e-05 4.88627e-05
-4.9974e-05 0.000560665 -7.43014e-06
4.88627e-05 -7.43014e-06 0.000517114
0.00202589 0.000195546 -4.49298e-07
0.000195546 0.000103371 1.06365e-06
-4.49298e-07 1.06365e-06 2.62343e-05
0.00198496 0.000283607 -6.41199e-07
0.000283607 0.000160574 7.85913e-07
-6.41199e-07 7.85913e-07 2.09412e-05
0.00198804 0.000309365 -1.70125e-07
0.000309365 8.70018e-05 1.3847e-07
-1.70125e-07 1.3847e-07 -2.97726e-05
0.00186864 0.00029833 -1.24604e-06
0.00029833 0.000248516 3.88453e-07
-1.24604e-06 3.88453e-07 7.02848e-05
0.00197584 0.000336421 -4.52731e-07
0.000336421 0.000194974 -2.77528e-07
-4.52731e-07 -2.77528e-07 3.23724e-05
0.00198618 0.000360312 3.31214e-07
0.000360312 0.000103065 -2.9704e-07
3.31214e-07 -2.9704e-07 -3.97943e-05
0.00108524 0.000204752 -1.52065e-05
0.000204752 1.4918e-05 -4.86588e-06
-1.52065e-05 -4.86588e-06 -0.000154084
0.00167365 0.000325242 2.82271e-06
0.000325242 0.000170901 2.73081e-07
2.82271e-06 2.73081e-07 -2.88631e-05
0.00175955 0.000374755 -8.2523e-07
0.000374755 7.51552e-05 -3.49447e-06
-8.2523e-07 -3.49447e-06 -0.000106841
0.000377594 0.000183717 -2.24773e-05
0.000183717 -0.000177037 -1.40178e-05
-2.24773e-05 -1.40178e-05 -0.000287917
0.000971571 0.000217781 -5.61016e-07
0.000217781 -2.06086e-05 9.01412e-08
-5.61016e-07 9.01412e-08 -0.00019793
0.00147154 0.000355669 6.68579e-06
0.000355669 0.000113098 2.13309e-07
6.68579e-06 2.13309e-07 -0.000114668
0.000867531 0.000213064 1.35531e-05
0.000213064 -1.91899e-05 6.26991e-06
1.35531e-05 6.26991e-06 -0.000199458
0.000443697 0.000212468 1.04796e-06
0.000212468 -0.000115016 8.40138e-07
1.04796e-06 8.40138e-07 -0.000234805
0.00649173 6.3026e-05 -0.000247883
6.3026e-05 0.00366143 -3.00139e-05
-0.000247883 -3.00139e-05 0.00365125
0.000424647 0.00020014 2.29367e-05
0.00020014 -0.000117877 1.66991e-05
2.29367e-05 1.66991e-05 -0.000231365
0.0062342 -6.30648e-05 6.59547e-06
-6.30648e-05 0.00351143 -5.37442e-07
6.59547e-06 -5.37442e-07 0.00350235
0.00552585 -0.000183237 0.000163275
-0.000183237 0.00310273 8.79156e-06
0.000163275 8.79156e-06 0.00308114
0.00197265 0.000118164 -4.7074e-06
0.000118164 5.43791e-05 -8.43813e-07
-4.7074e-06 -8.43813e-07 2.22908e-05
0.00201724 0.000174074 9.549e-07
0.000174074 2.01519e-05 3.9768e-07
9.549e-07 3.9768e-07 -8.86199e-06
0.00217315 0.000221469 2.37e-07
0.000221469 -3.17348e-05 -5.37059e-07
2.37e-07 -5.37059e-07 -1.41374e-05
0.00209024 0.000307297 3.30982e-06
0.000307297 0.000110668 4.70755e-08
3.30982e-06 4.70755e-08 1.59331e-05
0.00179217 7.14748e-06 -4.15992e-06
7.14748e-06 -2.05203e-05 2.88768e-07
-4.15992e-06 2.88768e-07 -6.95225e-05
0.00194114 4.93399e-05 1.33104e-07
4.93399e-05 8.09608e-06 7.3596e-08
1.33104e-07 7.3596e-08 -5.27785e-06
0.00201546 4.87381e-05 1.68672e-07
4.87381e-05 -2.02673e-06 -3.47284e-07
1.68672e-07 -3.47284e-07 1.76126e-06
0.00193409 -1.26882e-05 1.73564e-06
-1.26882e-05 1.91709e-05 -6.48137e-07
1.73564e-06 -6.48137e-07 2.93217e-06
0.0018843 -3.39081e-05 -1.18679e-06
-3.39081e-05 1.13611e-05 -8.7108e-08
-1.18679e-06 -8.7108e-08 -2.75336e-05
0.00185231 -4.27512e-05 -9.73591e-07
-4.27512e-05 5.26112e-05 4.66308e-08
-9.73591e-07 4.66308e-08 -2.20435e-05
0.00188903 -9.52367e-05 2.28452e-06
-9.52367e-05 4.10469e-06 -3.21343e-08
2.28452e-06 -3.21343e-08 -3.67174e-05
0.00188783 -9.82303e-05 -1.55679e-06
-9.82303e-05 7.01676e-05 7.17522e-07
-1.55679e-06 7.17522e-07 -9.71909e-06
0.00178803 -7.94441e-05 -7.22595e-07
-7.94441e-05 0.00016257 -1.69808e-07
-7.22595e-07 -1.69808e-07 4.80459e-05
0.00193346 -0.000160621 4.03929e-06
-0.000160621 9.49717e-05 -3.66305e-07
4.03929e-06 -3.66305e-07 2.29819e-06
0.00165804 -0.000125684 1.56177e-06
-0.000125684 8.40604e-05 -5.17014e-07
1.56177e-06 -5.17014e-07 -4.76298e-05
0.00101863 -7.84968e-05 -1.22411e-05
-7.84968e-05 -4.82001e-05 2.065e-06
-1.22411e-05 2.065e-06 -0.000187095
0.00167347 -0.000178975 1.19422e-06
-0.000178975 0.000103839 1.33657e-07
1.19422e-06 1.33657e-07 -4.23478e-05
0.00103079 -0.000108046 -1.33664e-07
-0.000108046 -3.63601e-05 1.57523e-07
-1.33664e-07 1.57523e-07 -0.000182064
0.000496193 -8.65048e-05 -2.00051e-05
-8.65048e-05 -0.000153418 5.47832e-06
-2.00051e-05 5.47832e-06 -0.000239355
0.00107377 -0.000133815 1.3066e-05
-0.000133815 -4.8699e-06 -3.40368e-06
1.3066e-05 -3.40368e-06 -0.000156991
0.00158195 -0.000102741 5.55461e-05
-0.000102741 0.000516525 -3.95726e-06
5.55461e-05 -3.95726e-06 0.000440285
0.00610368 -0.00014323 -0.000285967
-0.00014323 0.00339263 1.98039e-05
-0.000285967 1.98039e-05 0.00340525
0.00276279 -0.000139979 0.000132295
-0.000139979 0.00123975 -1.55397e-05
0.000132295 -1.55397e-05 0.00117563
0.00171225 -6.39434e-05 -7.69532e-05
-6.39434e-05 0.000701538 6.80123e-06
-7.69532e-05 6.80123e-06 0.000672824
0.00137417 -8.20475e-05 6.04017e-05
-8.20475e-05 0.000513658 -8.89159e-06
6.04017e-05 -8.89159e-06 0.000468955
0.00200671 0.000147442 -2.3489e-06
0.000147442 0.000119167 3.55324e-07
-2.3489e-06 3.55324e-07 5.54785e-05
0.00198375 0.000208086 3.76252e-07
0.000208086 0.000146646 1.56147e-06
3.76252e-07 1.56147e-06 3.55923e-05
0.00199748 0.000191133 9.73891e-07
0.000191133 9.04228e-05 5.21511e-07
9.73891e-07 5.21511e-07 1.11575e-05
0.00176349 0.000240743 -1.14604e-06
0.000240743 0.000153618 6.67097e-07
-1.14604e-06 6.67097e-07 -3.59599e-06
0.00194815 0.00027927 6.66084e-07
0.00027927 0.0001411 5.4115e-08
6.66084e-07 5.4115e-08 2.13461e-06
0.00198823 0.000311127 8.83939e-07
0.000311127 7.18896e-05 1.48795e-07
8.83939e-07 1.48795e-07 -4.06288e-05
0.000980347 0.000174571 -1.59981e-05
0.000174571 -7.30211e-05 -3.90815e-06
-1.59981e-05 -3.90815e-06 -0.000232262
0.00187316 0.000297866 2.54863e-06
0.000297866 0.000250788 6.56533e-07
2.54863e-06 6.56533e-07 7.29255e-05
0.00190084 0.000330105 -1.10212e-06
0.000330105 0.000158078 -1.28284e-06
-1.10212e-06 -1.28284e-06 -6.14076e-06
0.000378855 0.000131662 -1.95038e-05
0.000131662 -0.000199987 -1.04749e-05
-1.95038e-05 -1.04749e-05 -0.000299206
0.000946535 0.000197694 3.7429e-07
0.000197694 -7.07682e-05 3.59654e-07
3.7429e-07 3.59654e-07 -0.000239373
0.00156757 0.000323373 7.71412e-06
0.000323373 9.83641e-05 -1.06768e-07
7.71412e-06 -1.06768e-07 -9.96899e-05
0.00645766 0.000145095 -0.000259237
0.000145095 0.00362087 -2.97792e-05
-0.000259237 -2.97792e-05 0.00361841
0.000401823 0.000174729 5.46316e-07
0.000174729 -0.00016288 7.67268e-07
5.46316e-07 7.67268e-07 -0.000274645
0.000918818 0.00021229 1.47532e-05
0.00021229 -4.72428e-05 5.78135e-06
1.47532e-05 5.78135e-06 -0.000223492
0.000378106 0.000195972 2.10248e-05
0.000195972 -0.000151259 1.65502e-05
2.10248e-05 1.65502e-05 -0.000271928
0.00636936 5.20485e-05 9.86193e-06
5.20485e-05 0.00357858 3.27593e-07
9.86193e-06 3.27593e-07 0.00357532
0.00613068 -9.58586e-05 0.000216267
-9.58586e-05 0.00344031 1.23222e-05
0.000216267 1.23222e-05 0.00343488
0.0018875 6.41071e-05 -7.03619e-06
6.41071e-05 4.33109e-05 -2.47296e-07
-7.03619e-06 -2.47296e-07 -9.25605e-06
0.00195493 0.000115379 2.61042e-07
0.000115379 3.98993e-05 8.82696e-08
2.61042e-07 8.82696e-08 7.78133e-06
0.00200294 0.000176218 1.89605e-06
0.000176218 1.11907e-05 3.814e-07
1.89605e-06 3.814e-07 -1.63499e-05
0.00179275 1.24746e-06 -3.37625e-07
1.24746e-06 2.62399e-05 8.41164e-09
-3.37625e-07 8.41164e-09 -5.33778e-05
0.00185608 1.2291e-05 2.04372e-08
1.2291e-05 1.92283e-05 3.24522e-09
2.04372e-08 3.24522e-09 -2.64421e-05
0.00192371 3.87598e-05 1.88077e-06
3.87598e-05 -2.23362e-06 -4.26053e-07
1.88077e-06 -4.26053e-07 -1.70568e-05
0.0019184 -2.99112e-05 2.50542e-06
-2.99112e-05 3.37807e-05 -2.82129e-07
2.50542e-06 -2.82129e-07 -3.6957e-06
0.00185376 -4.12316e-05 -6.99209e-07
-4.12316e-05 5.33495e-05 1.78934e-07
-6.99209e-07 1.78934e-07 -2.01484e-05
0.00183989 -3.46118e-05 1.71487e-06
-3.46118e-05 0.000210347 -4.84381e-07
1.71487e-06 -4.84381e-07 9.96633e-05
0.00178511 -9.74252e-05 -1.29871e-06
-9.74252e-05 7.90499e-06 1.15484e-06
-1.29871e-06 1.15484e-06 -7.87929e-05
0.00173592 -7.96661e-05 4.36985e-07
-7.96661e-05 0.000134534 5.69711e-08
4.36985e-07 5.69711e-08 1.50644e-05
0.000942716 -4.35431e-05 -1.31726e-05
-4.35431e-05 -9.9672e-05 1.25438e-06
-1.31726e-05 1.25438e-06 -0.000230233
0.00162974 -0.000125129 2.02887e-06
-0.000125129 6.44865e-05 -3.22011e-07
2.02887e-06 -3.22011e-07 -6.70034e-05
0.00101939 -7.48079e-05 -5.54609e-08
-7.48079e-05 -4.75292e-05 8.80109e-08
-5.54609e-08 8.80109e-08 -0.000185722
0.000497967 -2.21088e-05 -1.8582e-05
-2.21088e-05 -0.000155893 3.41084e-06
-1.8582e-05 3.41084e-06 -0.00023797
0.00105738 -0.000106588 1.23725e-05
-0.000106588 -2.10798e-05 -2.51227e-06
1.23725e-05 -2.51227e-06 -0.000166037
0.0004991 -7.05406e-05 -1.8292e-07
-7.05406e-05 -0.000149968 3.8758e-07
-1.8292e-07 3.8758e-07 -0.00023689
0.00605906 -3.66794e-05 -0.000276193
-3.66794e-05 0.00336089 1.20663e-05
-0.000276193 1.20663e-05 0.00337721
0.000532543 -7.25805e-05 1.52699e-05
-7.25805e-05 -0.00013033 -7.36279e-06
1.52699e-05 -7.36279e-06 -0.000221025
0.00383261 -9.36357e-05 0.000124388
-9.36357e-05 0.00200383 -5.74271e-06
0.000124388 -5.74271e-06 0.00198801
0.00133944 -8.20792e-05 6.65341e-05
-8.20792e-05 0.0004929 -9.05748e-06
6.65341e-05 -9.05748e-06 0.000447636
0.00187906 0.000113904 -5.14959e-06
0.000113904 5.25495e-05 -1.49628e-07
-5.14959e-06 -1.49628e-07 -1.33853e-05
0.0019372 0.000149727 9.88202e-07
0.000149727 0.000122032 2.12255e-06
9.88202e-07 2.12255e-06 2.40536e-05
0.00194929 0.000141609 -2.73886e-07
0.000141609 8.05529e-05 4.08424e-08
-2.73886e-07 4.08424e-08 1.71388e-05
0.00168473 0.000177956 -4.62651e-07
0.000177956 9.4518e-05 7.73331e-07
-4.62651e-07 7.73331e-07 -4.97256e-05
0.00195936 0.000207066 4.62034e-07
0.000207066 0.000128682 1.10249e-07
4.62034e-07 1.10249e-07 1.61199e-05
0.00197072 0.000186462 2.0904e-06
0.000186462 7.84748e-05 -1.49035e-07
2.0904e-06 -1.49035e-07 -2.93653e-06
0.000984286 0.000142984 -1.46112e-05
0.000142984 -8.25649e-05 -2.91374e-06
-1.46112e-05 -2.91374e-06 -0.000232302
0.00178139 0.000239366 8.24419e-07
0.000239366 0.000169829 4.56309e-07
8.24419e-07 4.56309e-07 9.91652e-06
0.00191296 0.000274933 -1.55486e-07
0.000274933 0.000122675 -1.00833e-06
-1.55486e-07 -1.00833e-06 -1.55788e-05
0.000403964 9.3704e-05 -1.81388e-05
9.3704e-05 -0.000202828 -7.50562e-06
-1.81388e-05 -7.50562e-06 -0.000293768
0.00091871 0.000170945 -1.92533e-06
0.000170945 -0.000109174 -8.52763e-08
-1.92533e-06 -8.52763e-08 -0.000268145
0.00188303 0.000297861 6.4163e-06
0.000297861 0.000256335 9.61802e-07
6.4163e-06 9.61802e-07 7.87562e-05
0.0063341 0.000211764 -0.00027652
0.000211764 0.00353945 -2.87632e-05
-0.00027652 -2.87632e-05 0.00354073
0.000409111 0.000129265 3.9992e-08
0.000129265 -0.000183037 4.21178e-07
3.9992e-08 4.21178e-07 -0.000282738
0.000815774 0.000191494 1.4586e-05
0.000191494 -0.00015196 4.8424e-06
1.4586e-05 4.8424e-06 -0.000320268
0.00638478 0.000160547 1.34742e-05
0.000160547 0.00358163 2.61194e-06
1.34742e-05 2.61194e-06 0.00357826
0.00041478 0.00016462 1.99242e-05
0.00016462 -0.000155587 1.38623e-05
1.99242e-05 1.38623e-05 -0.000268068
0.00626048 1.79683e-05 0.000242768
1.79683e-05 0.00350044 1.84759e-05
0.000242768 1.84759e-05 0.00350466
0.00184572 4.39068e-05 -1.53211e-06
4.39068e-05 4.69212e-05 -9.59676e-09
-1.53211e-06 -9.59676e-09 -3.31241e-05
0.00189762 6.58041e-05 -1.18642e-06
6.58041e-05 5.95109e-05 -3.18286e-08
-1.18642e-06 -3.18286e-08 5.47941e-06
0.00193087 0.000112494 4.07074e-06
0.000112494 2.16747e-05 5.02523e-07
4.07074e-06 5.02523e-07 -1.04476e-05
0.00180814 -4.11809e-06 2.18872e-06
-4.11809e-06 0.000189347 -3.94053e-07
2.18872e-06 -3.94053e-07 8.05839e-05
0.0017979 1.59335e-06 -1.25286e-06
1.59335e-06 2.676e-05 1.6186e-07
-1.25286e-06 1.6186e-07 -5.04354e-05
0.00191604 1.87497e-05 6.27595e-06
1.87497e-05 5.63113e-05 -7.81782e-08
6.27595e-06 -7.81782e-08 1.38831e-05
0.00184182 -4.01175e-05 -6.83444e-07
-4.01175e-05 4.58051e-05 4.5527e-07
-6.83444e-07 4.5527e-07 -2.68271e-05
0.00182191 -3.34547e-05 3.17217e-06
-3.34547e-05 0.000197922 -2.31735e-07
3.17217e-06 -2.31735e-07 8.74783e-05
0.000925466 -1.61615e-05 -1.28899e-05
-1.61615e-05 -0.000105941 3.49974e-07
-1.28899e-05 3.49974e-07 -0.000232061
0.00169031 -8.02137e-05 4.17142e-07
-8.02137e-05 0.000110387 2.82354e-07
4.17142e-07 2.82354e-07 -1.40689e-05
0.00097487 -4.34059e-05 -1.23544e-06
-4.34059e-05 -7.85497e-05 1.00558e-07
-1.23544e-06 1.00558e-07 -0.000210161
0.000502255 -7.46072e-06 -1.88241e-05
-7.46072e-06 -0.000155365 2.19838e-06
-1.88241e-05 2.19838e-06 -0.000235186
0.00102228 -7.23572e-05 1.16978e-05
-7.23572e-05 -4.49212e-05 -1.87733e-06
1.16978e-05 -1.87733e-06 -0.000182551
0.000478669 -3.40847e-05 8.3224e-07
-3.40847e-05 -0.000168323 -1.788e-07
8.3224e-07 -1.788e-07 -0.000249476
0.00593885 -0.000133394 -0.000281149
-0.000133394 0.00330012 1.31265e-05
-0.000281149 1.31265e-05 0.00331165
0.000466765 -5.38107e-05 1.7981e-05
-5.38107e-05 -0.000169548 -4.24522e-06
1.7981e-05 -4.24522e-06 -0.000256093
0.00601584 -7.28563e-05 7.58784e-06
-7.28563e-05 0.00333657 -6.81896e-08
7.58784e-06 -6.81896e-08 0.00335266
0.00167624 -2.84877e-05 0.000220249
-2.84877e-05 0.000670571 -1.35434e-05
0.000220249 -1.35434e-05 0.000659466
0.00181912 0.000100764 -1.85482e-07
0.000100764 3.65194e-05 6.2587e-07
-1.85482e-07 6.2587e-07 -5.65335e-05
0.00188829 0.000117754 -3.39202e-06
0.000117754 5.50213e-05 -9.0855e-07
-3.39202e-06 -9.0855e-07 -8.22648e-06
0.00167699 0.00012172 3.83003e-07
0.00012172 8.58032e-05 9.05447e-07
3.83003e-07 9.05447e-07 -4.40692e-05
0.00193106 0.00014863 7.99819e-07
0.00014863 0.00011587 1.84496e-07
7.99819e-07 1.84496e-07 1.80402e-05
0.00190248 0.00013613 2.83905e-06
0.00013613 4.78433e-05 -7.49366e-07
2.83905e-06 -7.49366e-07 -1.52851e-05
0.00109123 0.00010779 -1.27137e-05
0.00010779 -1.29498e-05 -1.93338e-06
-1.27137e-05 -1.93338e-06 -0.000154504
0.00168299 0.000176981 1.49604e-07
0.000176981 9.64449e-05 1.07026e-07
1.49604e-07 1.07026e-07 -4.78329e-05
0.00193242 0.000205908 5.07974e-07
0.000205908 0.000109337 -1.34385e-06
5.07974e-07 -1.34385e-06 -4.73534e-06
0.000445573 6.81711e-05 -1.7804e-05
6.81711e-05 -0.000187805 -5.39459e-06
-1.7804e-05 -5.39459e-06 -0.000274454
0.000995646 0.000143608 -1.93853e-06
0.000143608 -7.2255e-05 -2.54232e-08
-1.93853e-06 -2.54232e-08 -0.000223055
0.00180371 0.000237989 2.85408e-06
0.000237989 0.000189162 4.58141e-07
2.85408e-06 4.58141e-07 2.65739e-05
0.00622249 0.000239678 -0.000294101
0.000239678 0.00347834 -2.72604e-05
-0.000294101 -2.72604e-05 0.00347847
0.000444111 9.54623e-05 -8.01724e-08
9.54623e-05 -0.000179828 1.64356e-07
-8.01724e-08 1.64356e-07 -0.000271151
0.000858759 0.000167386 1.07422e-05
0.000167386 -0.00014463 3.52084e-06
1.07422e-05 3.52084e-06 -0.000303252
0.00631324 0.000233658 1.10873e-05
0.000233658 0.00353825 4.05667e-06
1.10873e-05 4.05667e-06 0.00353416
0.000445196 0.000125287 1.87196e-05
0.000125287 -0.000163077 1.05941e-05
1.87196e-05 1.05941e-05 -0.000262863
0.00634539 0.000157815 0.000268821
0.000157815 0.00354752 2.66523e-05
0.000268821 2.66523e-05 0.003551
0.00178117 3.6197e-05 3.24823e-06
3.6197e-05 0.000164418 2.3108e-07
3.24823e-06 2.3108e-07 5.37577e-05
0.00185121 4.18321e-05 -2.18655e-06
4.18321e-05 5.56208e-05 6.26348e-09
-2.18655e-06 6.26348e-09 -2.56441e-05
0.00193326 6.73691e-05 3.77869e-06
6.73691e-05 9.1796e-05 -3.30229e-08
3.77869e-06 -3.30229e-08 3.65141e-05
0.000918133 -8.22755e-06 -1.3247e-05
-8.22755e-06 -0.00010132 -1.55366e-07
-1.3247e-05 -1.55366e-07 -0.000225406
0.00180827 1.03261e-06 3.42083e-06
1.03261e-06 0.000189565 -8.68867e-08
3.42083e-06 -8.68867e-08 8.08832e-05
0.00181004 1.4826e-06 -1.03324e-06
1.4826e-06 3.17185e-05 2.80288e-07
-1.03324e-06 2.80288e-07 -4.29534e-05
0.00180419 -3.25477e-05 4.49449e-06
-3.25477e-05 0.000185616 1.3188e-07
4.49449e-06 1.3188e-07 7.54156e-05
0.000923863 -1.69112e-05 -9.21816e-07
-1.69112e-05 -0.000108336 4.31762e-08
-9.21816e-07 4.31762e-08 -0.00023473
0.000508072 -3.13967e-05 -1.93427e-05
-3.13967e-05 -0.000151529 9.5749e-07
-1.93427e-05 9.5749e-07 -0.000228549
0.000987396 -4.23381e-05 1.09967e-05
-4.23381e-05 -6.92362e-05 -1.26611e-06
1.09967e-05 -1.26611e-06 -0.000201924
0.000481943 3.78966e-06 3.50761e-07
3.78966e-06 -0.000168481 8.48963e-08
3.50761e-07 8.48963e-08 -0.000247348
0.00592164 -0.000107324 -0.000285254
-0.000107324 0.00328761 9.63866e-06
-0.000285254 9.63866e-06 0.00330189
0.000492943 -4.0399e-05 1.88189e-05
-4.0399e-05 -0.000157573 -2.98285e-06
1.88189e-05 -2.98285e-06 -0.000239865
0.00595509 -2.79568e-05 -3.02498e-06
-2.79568e-05 0.00329895 2.27037e-06
-3.02498e-06 2.27037e-06 0.00331719
0.00599884 -8.8426e-05 0.000280715
-8.8426e-05 0.00332619 -1.15982e-05
0.000280715 -1.15982e-05 0.00334296
0.00163079 7.29381e-05 5.56111e-07
7.29381e-05 6.07327e-05 4.98439e-07
5.56111e-07 4.98439e-07 -6.0441e-05
0.00186723 0.000101358 -2.68454e-06
0.000101358 6.23755e-05 -1.08861e-06
-2.68454e-06 -1.08861e-06 -2.51878e-05
0.00185602 0.00012108 -3.90688e-08
0.00012108 3.20956e-05 -4.56296e-07
-3.90688e-08 -4.56296e-07 -2.87941e-05
0.00108452 6.75518e-05 -1.22768e-05
6.75518e-05 -1.2776e-05 -1.3965e-06
-1.22768e-05 -1.3965e-06 -0.000145843
0.0016662 0.000120388 2.33907e-07
0.000120388 8.2159e-05 -3.37319e-08
2.33907e-07 -3.37319e-08 -4.7915e-05
0.00192518 0.000147411 -1.19941e-07
0.000147411 0.000110433 -1.89746e-06
-1.19941e-07 -1.89746e-06 1.27726e-05
0.000473285 4.47877e-05 -1.73984e-05
4.47877e-05 -0.000173516 -3.80458e-06
-1.73984e-05 -3.80458e-06 -0.000257124
0.00105359 0.000108994 3.24118e-07
0.000108994 -3.62503e-05 3.0284e-07
3.24118e-07 3.0284e-07 -0.000178682
0.00168096 0.000176017 1.09502e-06
0.000176017 9.78928e-05 -4.96985e-07
1.09502e-06 -4.96985e-07 -4.64389e-05
0.00610381 0.000210582 -0.000304655
0.000210582 0.00340675 -2.2923e-05
-0.000304655 -2.2923e-05 0.0034112
0.00047592 7.30957e-05 3.77888e-07
7.30957e-05 -0.000169249 1.56145e-07
3.77888e-07 1.56145e-07 -0.000256807
0.00100549 0.000144133 1.07674e-05
0.000144133 -6.31699e-05 2.95726e-06
1.07674e-05 2.95726e-06 -0.000214977
0.00623848 0.00025412 6.3344e-06
0.00025412 0.00349417 3.20615e-06
6.3344e-06 3.20615e-06 0.00349179
0.000488179 9.90773e-05 1.8111e-05
9.90773e-05 -0.00015341 8.06371e-06
1.8111e-05 8.06371e-06 -0.000245548
0.00631717 0.000261844 0.000287069
0.000261844 0.00354497 3.2859e-05
0.000287069 3.2859e-05 0.00353877
0.00101076 1.92796e-05 -1.26559e-05
1.92796e-05 -4.00311e-05 -5.82499e-07
-1.26559e-05 -5.82499e-07 -0.00016647
0.00173386 3.22019e-05 3.74389e-06
3.22019e-05 0.000134576 1.16375e-07
3.74389e-06 1.16375e-07 2.52939e-05
0.0018341 3.9234e-05 -3.81318e-06
3.9234e-05 4.99215e-05 -2.30633e-07
-3.81318e-06 -2.30633e-07 -3.28264e-05
0.000542658 3.11367e-05 -1.99105e-05
3.11367e-05 -0.000137757 -5.8951e-07
-1.99105e-05 -5.8951e-07 -0.0002071
0.000901259 -2.34317e-06 -1.0898e-06
-2.34317e-06 -0.000112998 -7.6968e-09
-1.0898e-06 -7.6968e-09 -0.000237255
0.00180253 7.29726e-06 4.67289e-06
7.29726e-06 0.000185905 1.67694e-07
4.67289e-06 1.67694e-07 7.72904e-05
0.00092209 -1.7295e-05 1.11752e-05
-1.7295e-05 -0.000111076 -4.95991e-07
1.11752e-05 -4.95991e-07 -0.000237717
0.000502628 -5.25716e-06 3.68929e-07
-5.25716e-06 -0.000154682 3.71992e-07
3.68929e-07 3.71992e-07 -0.000231864
0.00585776 2.56947e-05 -0.000289432
2.56947e-05 0.00324254 4.95022e-07
-0.000289432 4.95022e-07 0.00326253
0.000461344 1.53286e-05 1.83614e-05
1.53286e-05 -0.000182478 -1.24065e-06
1.83614e-05 -1.24065e-06 -0.000260095
0.00589289 -0.000105406 -7.76222e-06
-0.000105406 0.0032712 1.798e-06
-7.76222e-06 1.798e-06 0.00328513
0.00590683 -9.36994e-06 0.000270627
-9.36994e-06 0.00326958 -5.7255e-06
0.000270627 -5.7255e-06 0.00328783
0.00104811 3.78876e-05 -1.24866e-05
3.78876e-05 -2.51119e-05 -1.18284e-06
-1.24866e-05 -1.18284e-06 -0.000153199
0.00165829 7.05909e-05 -2.35791e-07
7.05909e-05 7.87002e-05 -1.47766e-07
-2.35791e-07 -1.47766e-07 -3.899e-05
0.00193849 0.000102256 -3.84831e-06
0.000102256 0.000102377 -2.35286e-06
-3.84831e-06 -2.35286e-06 2.05406e-05
0.00265263 5.82931e-05 -0.00013516
5.82931e-05 0.00116128 -4.50897e-06
-0.00013516 -4.50897e-06 0.00111089
0.00103766 6.91718e-05 3.51858e-07
6.91718e-05 -4.17118e-05 1.15696e-07
3.51858e-07 1.15696e-07 -0.000175474
0.00165795 0.000119041 9.67214e-07
0.000119041 7.99703e-05 -8.49965e-07
9.67214e-07 -8.49965e-07 -5.0311e-05
0.00598614 0.000156928 -0.000304334
0.000156928 0.00333006 -1.6574e-05
-0.000304334 -1.6574e-05 0.00334148
0.000508207 6.35141e-05 8.48817e-07
6.35141e-05 -0.0001501 4.26356e-07
8.48817e-07 4.26356e-07 -0.000235613
0.00101895 0.000110202 1.25453e-05
0.000110202 -5.76416e-05 2.44212e-06
1.25453e-05 2.44212e-06 -0.000200921
0.00617045 0.000224271 1.6745e-06
0.000224271 0.003449 1.63616e-06
1.6745e-06 1.63616e-06 0.00345226
0.000516884 8.09191e-05 1.82843e-05
8.09191e-05 -0.000143055 6.35088e-06
1.82843e-05 6.35088e-06 -0.000232189
0.006248 0.000285821 0.000298186
0.000285821 0.00351169 3.36575e-05
0.000298186 3.36575e-05 0.00350303
0.000599769 1.0787e-05 -1.61198e-05
1.0787e-05 -9.19754e-05 -1.8013e-06
-1.61198e-05 -1.8013e-06 -0.000170131
0.000950722 1.8229e-05 4.68348e-07
1.8229e-05 -8.02672e-05 2.23797e-07
4.68348e-07 2.23797e-07 -0.000205831
0.00168536 2.72171e-05 3.71266e-06
2.72171e-05 0.000103852 -9.56864e-08
3.71266e-06 -9.56864e-08 -4.00563e-06
0.00570318 -9.8014e-05 -0.000272342
-9.8014e-05 0.00316591 2.68706e-06
-0.000272342 2.68706e-06 0.00317534
0.000498418 8.68426e-06 -5.66027e-07
8.68426e-06 -0.000160154 -2.73431e-09
-5.66027e-07 -2.73431e-09 -0.000232088
0.000898938 2.5114e-06 1.10377e-05
2.5114e-06 -0.000115981 8.75589e-09
1.10377e-05 8.75589e-09 -0.000240359
0.000457182 2.09475e-05 1.86058e-05
2.09475e-05 -0.000183362 1.93926e-07
1.86058e-05 1.93926e-07 -0.000259606
0.00580124 -1.02403e-05 2.21727e-06
-1.02403e-05 0.00321356 -1.34838e-06
2.21727e-06 -1.34838e-06 0.00322944
0.00589195 -2.50672e-05 0.00027811
-2.50672e-05 0.0032596 -3.68097e-06
0.00027811 -3.68097e-06 0.00327907
0.00272843 1.28752e-05 -0.000130326
1.28752e-05 0.00120615 -2.63943e-06
-0.000130326 -2.63943e-06 0.00115821
0.00103005 4.10556e-05 9.36357e-08
4.10556e-05 -3.78845e-05 1.44574e-08
9.36357e-08 1.44574e-08 -0.000166489
0.00168177 6.83396e-05 1.06264e-06
6.83396e-05 9.45075e-05 -8.08697e-07
1.06264e-06 -8.08697e-07 -1.9687e-05
0.00551763 -4.30304e-05 -0.000111315
-4.30304e-05 0.0030551 5.24777e-07
-0.000111315 5.24777e-07 0.00304274
0.000522039 5.56959e-05 5.48623e-08
5.56959e-05 -0.00014132 2.21614e-07
5.48623e-08 2.21614e-07 -0.000222402
0.00100751 7.14114e-05 1.21737e-05
7.14114e-05 -6.10803e-05 1.62028e-06
1.21737e-05 1.62028e-06 -0.000195481
0.00605366 0.000130858 -1.06589e-05
0.000130858 0.00336622 -1.59684e-06
-1.06589e-05 -1.59684e-06 0.0033791
0.000539296 8.6565e-05 1.96456e-05
8.6565e-05 -0.000130574 5.37674e-06
1.96456e-05 5.37674e-06 -0.000216993
0.00620669 0.000248225 0.000307733
0.000248225 0.00347823 2.95136e-05
0.000307733 2.95136e-05 0.0034783
0.00173 -5.24172e-05 -0.000220546
-5.24172e-05 0.000702067 1.12528e-06
-0.000220546 1.12528e-06 0.000698296
0.00162194 2.90502e-05 -5.5347e-05
2.90502e-05 0.000526768 1.57763e-07
-5.5347e-05 1.57763e-07 0.000468645
0.000886542 1.98078e-05 1.24114e-05
1.98078e-05 -0.000122585 7.8199e-07
1.24114e-05 7.8199e-07 -0.000247348
0.00577224 -4.47909e-05 7.20718e-06
-4.47909e-05 0.00320197 2.13535e-06
7.20718e-06 2.13535e-06 0.00321634
0.000514261 -1.23487e-05 1.92098e-05
-1.23487e-05 -0.000144267 7.16771e-07
1.92098e-05 7.16771e-07 -0.000219942
0.00583551 -7.50933e-05 0.000290912
-7.50933e-05 0.00323722 -3.70358e-06
0.000290912 -3.70358e-06 0.00325308
0.00130598 1.86397e-05 -5.30532e-05
1.86397e-05 0.000468074 -8.2076e-07
-5.30532e-05 -8.2076e-07 0.000431891
0.00161208 1.6323e-05 -5.59456e-05
1.6323e-05 0.000523739 -1.08973e-06
-5.59456e-05 -1.08973e-06 0.000461882
0.00100174 4.28167e-05 1.22946e-05
4.28167e-05 -5.67335e-05 1.24277e-06
1.22946e-05 1.24277e-06 -0.000185883
0.00364724 6.14582e-05 0.000107531
6.14582e-05 0.00189167 2.95905e-06
0.000107531 2.95905e-06 0.00188273
0.000533808 6.62508e-05 1.99556e-05
6.62508e-05 -0.000134242 4.05929e-06
1.99556e-05 4.05929e-06 -0.000215315
0.00612664 0.00011888 0.000294478
0.00011888 0.00340375 1.77125e-05
0.000294478 1.77125e-05 0.0034201
0.00572016 -2.05044e-05 -8.88814e-06
-2.05044e-05 0.00317323 -2.73989e-06
-8.88814e-06 -2.73989e-06 0.00318646
0.000513258 4.78648e-05 2.07265e-05
4.78648e-05 -0.000155047 2.20467e-06
2.07265e-05 2.20467e-06 -0.000223879
0.00568217 4.21737e-05 0.000278321
4.21737e-05 0.00314319 2.13669e-07
0.000278321 2.13669e-07 0.00316092
0.00354375 2.97487e-05 0.000120094
2.97487e-05 0.0018332 4.38434e-06
0.000120094 4.38434e-06 0.00182555
0.000544749 7.3785e-06 1.91302e-05
7.3785e-06 -0.00012731 2.56682e-06
1.91302e-05 2.56682e-06 -0.000203876
0.00594691 -8.91474e-06 0.000283388
-8.91474e-06 0.0032958 7.73803e-06
0.000283388 7.73803e-06 0.0033131
0.00576536 -0.000121481 0.000275438
-0.000121481 0.0032055 -3.8486e-06
0.000275438 -3.8486e-06 0.00321416
0.00577213 1.97958e-06 0.000276836
1.97958e-06 0.00318891 4.32001e-06
0.000276836 4.32001e-06 0.00320925
