# vtk DataFile Version 2.0
Wound Healing Simulation
ASCII
DATASET UNSTRUCTURED_GRID
POINTS 3012 float
69.9759 18.75 4
67.2507 60.3285 4
69.976 18.75 2
73.0099 25.446 4
71.1327 20.9142 4
68.6801 16.6661 4
67.8187 19.9237 3.96842
67.2507 60.3286 2
71.1327 54.0858 4
68.6801 58.3339 4
65.6939 62.2254 4
65.3047 58.9997 3.96735
74.6784 42.3946 4
73.7221 47.2057 4
69.9759 18.75 0
73.0099 25.446 2
68.6801 16.6661 2
71.1327 20.9142 2
67.8191 19.9283 2
74.6792 32.6053 4
73.7222 27.7943 4
72.1454 23.1494 4
70.6102 26.2217 3.97036
68.8798 21.9564 3.969
67.2507 14.6715 4
66.6292 17.9702 3.96732
65.6755 21.068 3.9605
67.2507 60.3285 0
71.1327 54.0858 2
68.6801 58.3339 2
65.694 62.2255 2
65.3063 58.9935 2
72.1454 51.8506 4
69.9759 56.25 4
68.8303 53.1151 3.96885
64.0165 64.0165 4
66.6031 57.1347 3.96816
63.8777 60.7609 3.96296
63.3967 57.7245 3.95661
60.3285 67.2507 4
74.6792 42.3947 2
73.7222 47.2057 2
74.9194 39.9526 4
74.2788 44.8158 4
72.1652 42.0857 3.97298
73.0099 49.554 4
71.2457 46.5981 3.97128
73.0099 25.446 0
71.1327 20.9142 0
68.6801 16.6661 0
67.8187 19.9237 0.0315764
74.6792 32.6053 2
73.7222 27.7943 2
67.2508 14.6715 2
72.1455 23.1494 2
70.6094 26.2231 2
66.6305 17.9756 2
68.8797 21.9597 2
65.6774 21.0693 2
74.9197 35.0474 4
74.2794 30.1841 4
72.1819 32.945 3.97311
71.2749 28.4329 3.97114
69.8107 24.0592 3.96959
68.261 26.977 3.9646
66.6553 22.9694 3.96265
65.694 12.7746 4
65.3152 16.1036 3.96627
64.5803 19.2442 3.95773
63.596 22.1514 3.9678
71.1327 54.0858 0
65.6939 62.2254 0
68.6801 58.3339 0
65.3047 58.9997 0.0326519
72.1455 51.8506 2
69.9759 56.25 2
68.8303 53.1114 2
64.0165 64.0165 2
66.6045 57.1289 2
63.879 60.7535 2
63.3913 57.7231 2
62.2254 65.694 4
58.887 65.4092 3.97266
69.7638 50.9902 3.96963
67.7767 55.1695 3.96856
66.5308 52.1718 3.96305
62.3283 62.4221 3.9663
64.5361 55.9851 3.95899
62.1459 59.3584 3.95223
61.5698 56.5542 3.96218
58.3339 68.6801 4
60.3285 67.2508 2
73.7221 47.2057 0
74.6784 42.3946 0
74.9197 39.9526 2
74.2794 44.8159 2
72.164 42.0847 2
73.0099 49.554 2
71.2447 46.5964 2
75 37.5 4
72.4024 39.8027 3.97386
71.7791 44.3529 3.97231
69.7657 41.7846 3.96858
70.5709 48.8141 3.97056
68.8381 45.9977 3.96757
74.6792 32.6053 0
73.7222 27.7943 0
67.2507 14.6715 0
72.1454 23.1494 0
70.6102 26.2217 0.0296355
68.8798 21.9564 0.0310021
66.6292 17.9702 0.0326787
65.6755 21.068 0.0394978
74.9197 35.0474 2
74.2794 30.1841 2
72.1805 32.9452 2
71.2738 28.4339 2
65.694 12.7745 2
65.3163 16.1103 2
69.8102 24.0614 2
68.2632 26.9779 2
64.5747 19.2467 2
66.6575 22.9707 2
63.5961 22.1524 2
72.4104 35.2255 3.97394
71.8008 30.6781 3.9725
69.8013 33.278 3.96804
68.8957 29.058 3.966
67.5135 24.9429 3.96359
65.8991 27.7167 3.97554
64.0165 10.9835 4
64.4623 23.9354 3.97142
63.8803 14.3312 3.96285
63.3898 17.4985 3.95428
62.626 20.446 3.96453
61.6338 23.1364 3.97391
60.6763 11.1058 3.96771
57.5998 11.5105 3.96234
72.1454 51.8506 0
69.9759 56.25 0
68.8303 53.1151 0.0311547
64.0165 64.0165 0
63.8777 60.7609 0.037043
66.6031 57.1347 0.0318421
63.3967 57.7245 0.0433934
62.2255 65.694 2
58.8907 65.4026 2
69.7635 50.9875 2
67.7774 55.1645 2
66.5319 52.1704 2
62.3311 62.4128 2
64.5301 55.9829 2
62.1432 59.3578 2
61.5764 56.556 2
60.6611 63.9703 3.96612
57.0186 66.7278 3.97215
57.5418 63.6318 3.9672
67.3953 50.1447 3.96435
65.581 54.1317 3.9614
64.2195 51.2756 3.97244
60.7504 60.8892 3.95223
62.5365 54.945 3.96652
60.4033 58.0178 3.95759
59.9404 55.5918 3.96864
56.25 69.9759 4
58.3339 68.6801 2
60.3285 67.2507 0
58.9155 9.66471 3.96901
62.2254 9.30607 4
73.0099 49.554 0
74.2788 44.8158 0
71.2457 46.5981 0.028717
72.1652 42.0857 0.0270247
74.9194 39.9526 0
75 37.5 2
72.4017 39.8019 2
71.7785 44.3514 2
69.7668 41.784 2
70.5704 48.812 2
68.8405 45.9969 2
72.486 37.5129 3.97376
70.012 39.6563 3.96855
69.3792 43.8973 3.96844
67.3179 41.4685 3.97657
68.169 48.0821 3.96593
66.3984 45.3743 3.97619
74.9197 35.0474 0
74.2794 30.1841 0
72.1819 32.945 0.0268919
71.2749 28.4329 0.0288582
65.694 12.7746 0
65.3152 16.1036 0.0337324
69.8107 24.0592 0.0304089
68.261 26.977 0.0354049
66.6553 22.9694 0.0373499
64.5803 19.2442 0.0422712
63.596 22.1514 0.0321985
72.4096 35.2252 2
71.8 30.6789 2
69.8031 33.2785 2
68.8987 29.0586 2
64.0165 10.9835 2
63.8825 14.3385 2
63.4049 17.4951 2
67.5159 24.944 2
65.8959 27.7183 2
62.633 20.4453 2
64.4612 23.9367 2
61.6343 23.1385 2
60.6792 11.112 2
57.5954 11.4993 2
70.0252 35.3978 3.9682
69.4157 31.1635 3.96715
67.3836 33.625 3.97639
66.4793 29.6911 3.97634
65.2321 25.7931 3.97393
63.6445 28.3864 3.97536
62.3323 12.6606 3.9657
62.379 24.8171 3.97408
62.1437 15.8282 3.95242
61.5353 18.823 3.96062
60.7768 21.5465 3.971
59.82 23.9936 3.97387
59.228 12.8349 3.95742
55.8654 10.2937 3.9701
56.3642 13.2192 3.95994
69.7638 50.9902 0.0303748
62.2254 65.694 0
58.887 65.4092 0.0273351
67.7767 55.1695 0.031442
66.5308 52.1718 0.0369532
62.3283 62.4221 0.0337006
62.1459 59.3584 0.0477665
64.5361 55.9851 0.0410053
61.5698 56.5542 0.0378232
60.6653 63.9625 2
57.0226 66.7216 2
57.546 63.6443 2
67.3961 50.1433 2
65.58 54.13 2
64.2181 51.2749 2
60.7395 60.8941 2
62.5411 54.9464 2
60.4029 58.0177 2
59.9376 55.5902 2
55.0646 67.9297 3.98025
59.2072 62.3001 3.97051
55.7822 64.8405 3.96635
56.2968 61.9947 3.97915
65.0044 49.3097 3.97429
63.3942 53.1733 3.96925
61.9112 50.4645 3.97342
59.1797 59.4321 3.95451
60.6367 54.113 3.97247
58.8502 56.7883 3.95978
58.737 54.9387 3.97088
48.0956 68.5657 3.97737
50.9431 69.9293 3.98398
54.0858 71.1327 4
56.25 69.976 2
58.3339 68.6801 0
57.0544 8.33982 3.9764
60.3285 7.74928 4
58.9181 9.6709 2
62.2255 9.30602 2
70.5709 48.8141 0.0294445
71.7791 44.3529 0.027685
68.8381 45.9977 0.0324256
69.7657 41.7846 0.031424
72.4024 39.8027 0.0261449
75 37.5 0
72.4847 37.5124 2
70.0135 39.656 2
69.3795 43.8966 2
67.3145 41.4681 2
68.1686 48.0808 2
66.3945 45.3734 2
70.1001 37.5239 3.96843
67.5651 39.5004 3.97652
66.9288 43.4235 3.97642
65.0916 41.1684 3.97612
65.7414 47.334 3.97583
64.1456 44.7553 3.97556
72.4104 35.2255 0.0260646
71.8008 30.6781 0.0275032
69.8013 33.278 0.031964
68.8957 29.058 0.0340027
64.0165 10.9835 0
63.8803 14.3312 0.037153
63.3898 17.4985 0.0457164
67.5135 24.9429 0.0364086
65.8991 27.7167 0.0244623
64.4623 23.9354 0.0285781
62.626 20.446 0.0354662
61.6338 23.1364 0.0260874
60.6763 11.1058 0.0322933
57.5998 11.5105 0.0376639
70.027 35.398 2
69.4179 31.164 2
67.3806 33.6256 2
66.4758 29.6925 2
62.3355 12.6677 2
62.1521 15.8289 2
61.5419 18.8227 2
65.2298 25.7947 2
63.6435 28.3869 2
60.7773 21.5489 2
62.378 24.8185 2
59.8178 23.9957 2
59.225 12.8287 2
56.3589 13.2131 2
55.8658 10.2962 2
67.6066 35.5666 3.97657
66.9826 31.6746 3.97639
65.2494 33.976 3.97623
64.1681 30.2969 3.97543
63.0453 26.5741 3.97458
61.5827 28.9578 3.97494
60.7454 14.2708 3.95239
60.4024 25.581 3.97418
60.3676 17.2713 3.95853
59.7743 20.0411 3.96624
59.07 22.5391 3.97226
58.2397 24.6477 3.97383
54.0382 9.16308 3.98232
57.8201 14.4545 3.95226
54.7651 12.1284 3.97075
55.2091 14.8165 3.95352
67.3953 50.1447 0.0356526
57.0186 66.7278 0.0278542
60.6611 63.9703 0.0338755
57.5418 63.6318 0.0328003
65.581 54.1317 0.038599
64.2195 51.2756 0.027561
60.7504 60.8892 0.0477748
60.4033 58.0178 0.042413
62.5365 54.945 0.0334808
59.9404 55.5918 0.0313633
55.0697 67.9236 2
59.2025 62.3081 2
55.7862 64.8347 2
56.2938 61.9998 2
65.0022 49.3085 2
63.3944 53.1733 2
61.9105 50.4639 2
59.2037 59.4397 2
60.6357 54.112 2
58.8593 56.7899 2
58.7455 54.9395 2
53.0365 68.9953 3.98062
53.9499 65.9723 3.96877
57.8064 60.7779 3.94918
54.6464 63.0836 3.96616
55.1429 60.4979 3.97456
62.6525 48.4969 3.97414
61.2505 52.3774 3.97298
59.544 49.7527 3.97275
57.7122 58.0701 3.95638
58.7644 53.6882 3.97259
57.5244 55.5247 3.96274
50.0999 67.8423 3.97289
47.4485 66.55 3.97359
46.0511 69.1462 3.98013
48.1002 68.5659 2
48.7974 70.7207 3.98672
50.9487 69.9259 2
51.8506 72.1454 4
54.0858 71.1327 2
56.25 69.9759 0
55.1008 7.14254 3.98952
58.3339 6.31992 4
57.0583 8.34469 2
60.3286 7.74926 2
58.9155 9.66471 0.0309883
62.2254 9.30607 0
68.169 48.0821 0.0340696
69.3792 43.8973 0.0315645
66.3984 45.3743 0.0238073
67.3179 41.4685 0.0234276
70.012 39.6563 0.0314502
72.486 37.5129 0.0262438
70.1028 37.5238 2
67.5616 39.5002 2
66.9263 43.4223 2
65.0914 41.1682 2
65.7386 47.3326 2
64.1453 44.7552 2
67.668 37.5261 3.97646
65.3337 39.3517 3.97631
64.6963 42.9558 3.976
63.1261 40.8722 3.97631
63.4307 46.5893 3.97461
62.1206 44.0939 3.9757
70.0252 35.3978 0.0318038
69.4157 31.1635 0.0328539
67.3836 33.625 0.0236106
66.4793 29.6911 0.0236611
62.3323 12.6606 0.0343023
62.1437 15.8282 0.0475845
61.5353 18.823 0.039378
65.2321 25.7931 0.0260741
63.6445 28.3864 0.0246409
62.379 24.8171 0.0259167
60.7768 21.5465 0.0289963
59.82 23.9936 0.0261295
59.228 12.8349 0.0425835
56.3642 13.2192 0.0400562
55.8654 10.2937 0.0298977
67.6036 35.5669 2
66.9798 31.6757 2
65.2484 33.9762 2
64.168 30.2971 2
60.7406 14.2707 2
60.3611 17.274 2
59.7724 20.0442 2
63.0442 26.5749 2
61.5827 28.9579 2
59.0697 22.5419 2
60.4016 25.5816 2
58.235 24.6504 2
57.8171 14.4439 2
55.1947 14.7987 2
54.0413 9.15608 2
54.7558 12.1217 2
65.4326 35.6941 3.97625
64.7069 32.2275 3.97562
63.7115 34.3069 3.97608
61.9082 30.7768 3.9753
60.9829 27.2805 3.97453
60.0392 29.3563 3.97537
59.1356 15.8075 3.95511
58.5331 26.0977 3.97469
58.6996 18.5899 3.96066
58.1498 21.153 3.96763
57.5762 23.4359 3.97253
57.1502 25.0275 3.97473
52.1046 8.18894 3.96591
53.0501 11.0793 3.96389
56.4896 15.9322 3.95587
53.7478 13.8222 3.95522
54.1826 16.2087 3.95637
55.0646 67.9297 0.0197549
65.0044 49.3097 0.0257095
55.7822 64.8405 0.0336549
59.2072 62.3001 0.029492
56.2968 61.9947 0.0208496
63.3942 53.1733 0.0307461
61.9112 50.4645 0.0265807
59.1797 59.4321 0.0454942
58.8502 56.7883 0.0402165
60.6367 54.113 0.0275285
58.737 54.9387 0.0291191
53.0423 68.9914 2
53.9541 65.9674 2
57.8085 60.791 2
54.6417 63.0805 2
55.1399 60.5006 2
62.652 48.4963 2
61.2502 52.3766 2
59.544 49.7522 2
57.7142 58.071 2
58.7686 53.6874 2
57.521 55.5215 2
52.0574 66.9728 3.97239
52.924 64.1267 3.96771
56.4673 59.3281 3.95319
53.6042 61.448 3.96522
54.13 59.1478 3.96361
60.2307 47.6589 3.97365
59.0527 51.8395 3.97255
57.1238 49.2825 3.97323
56.3738 56.743 3.95945
56.3594 53.7748 3.96725
50.1042 67.8389 2
49.3171 65.8696 3.97167
47.4535 66.5422 2
46.8697 64.664 3.97788
45.5504 67.0714 3.97815
43.9705 69.5791 3.98226
46.0551 69.147 2
46.6048 71.3651 3.98831
48.0956 68.5657 0.0226278
48.8027 70.7193 2
49.554 73.0099 4
50.9431 69.9293 0.0160242
51.8506 72.1455 2
54.0858 71.1327 0
53.0628 6.08147 3.97898
55.1045 7.14475 2
56.25 5.02411 4
58.3339 6.3199 2
57.0544 8.33982 0.0236042
60.3285 7.74928 0
65.7414 47.334 0.0241718
66.9288 43.4235 0.0235783
64.1456 44.7553 0.0244443
65.0916 41.1684 0.0238791
67.5651 39.5004 0.0234812
70.1001 37.5239 0.0315683
67.6643 37.5261 2
65.3335 39.3517 2
64.6955 42.9555 2
63.1268 40.8724 2
63.4305 46.5887 2
62.121 44.0942 2
65.443 37.5067 3.9762
63.2744 39.2427 3.97632
62.6726 42.464 3.97608
61.6653 40.6323 3.97647
61.2352 45.7466 3.9749
60.6191 43.5423 3.97623
67.6066 35.5666 0.0234329
66.9826 31.6746 0.0236069
65.2494 33.976 0.0237672
64.1681 30.2969 0.0245696
60.7454 14.2708 0.0476114
60.3676 17.2713 0.0414749
59.7743 20.0411 0.033764
63.0453 26.5741 0.0254248
61.5827 28.9578 0.025057
60.4024 25.581 0.0258247
59.07 22.5391 0.0277389
58.2397 24.6477 0.0261673
57.8201 14.4545 0.0477437
55.2091 14.8165 0.0464821
54.0382 9.16308 0.0176805
54.7651 12.1284 0.0292503
65.4321 35.6942 2
64.7064 32.2279 2
63.7125 34.3067 2
61.9083 30.7765 2
59.1517 15.8049 2
58.7034 18.5914 2
58.1454 21.1569 2
60.9827 27.2811 2
60.0397 29.3565 2
57.5718 23.4403 2
58.5305 26.0987 2
57.145 25.03 2
56.4751 15.9366 2
54.1824 16.2089 2
53.732 13.8071 2
52.1038 8.19741 2
53.0476 11.0738 2
63.488 35.6694 3.97614
62.2382 33.1422 3.9759
59.7389 30.8068 3.9753
58.693 28.1833 3.97486
57.6159 17.2012 3.95686
56.8257 26.0967 3.97472
57.1525 19.784 3.96057
56.6498 22.2078 3.96872
56.3507 24.3411 3.97359
50.1046 7.31759 3.97216
51.1937 10.2206 3.96494
52.1199 12.9052 3.96731
55.2322 17.227 3.95508
52.8541 15.4563 3.96247
53.491 17.2399 3.95419
53.0365 68.9953 0.0193822
53.9499 65.9723 0.0312308
62.6525 48.4969 0.0258583
54.6464 63.0836 0.0338384
57.8064 60.7779 0.0508165
55.1429 60.4979 0.0254365
61.2505 52.3774 0.0270183
59.544 49.7527 0.0272486
57.7122 58.0701 0.0436225
57.5244 55.5247 0.0372632
58.7644 53.6882 0.0274059
52.0619 66.9713 2
52.9228 64.1201 2
56.4636 59.3296 2
53.599 61.4408 2
54.126 59.1463 2
60.2307 47.6584 2
59.0543 51.8388 2
57.1243 49.2827 2
56.3694 56.7438 2
56.357 53.7724 2
51.1436 65.063 3.96447
51.9836 62.3954 3.96296
55.2111 58.0415 3.95911
52.681 59.9212 3.95734
53.4489 58.2655 3.96179
57.2533 46.5353 3.97442
56.7471 51.4321 3.97269
55.2379 49.1414 3.97519
54.9804 55.5022 3.95942
54.5304 53.0056 3.96059
50.0999 67.8423 0.0271057
49.3206 65.8697 2
48.586 64.0406 3.97641
47.4485 66.55 0.0264083
45.5522 67.0792 2
46.8735 64.661 2
46.348 62.9651 3.98709
45.1143 65.1558 3.9814
43.6266 67.4505 3.9796
41.8589 69.8676 3.98248
43.9728 69.5808 2
44.373 71.8597 3.98916
46.0511 69.1462 0.0198676
46.6089 71.3643 2
47.2057 73.7222 4
48.7974 70.7207 0.0132821
49.554 73.0099 2
51.8506 72.1454 0
50.954 5.1361 3.98479
53.065 6.08088 2
54.0858 3.86728 4
55.1008 7.14254 0.0104836
56.25 5.02406 2
58.3339 6.31992 0
63.4307 46.5893 0.0253907
64.6963 42.9558 0.023999
62.1206 44.0939 0.0243047
63.1261 40.8722 0.0236889
65.3337 39.3517 0.0236858
67.668 37.5261 0.0235362
65.4423 37.5069 2
63.2757 39.2429 2
62.6735 42.4637 2
61.6657 40.6324 2
61.2354 45.7462 2
60.6189 43.5423 2
63.3399 37.4632 3.97637
61.3551 39.3182 3.97669
60.3496 41.8455 3.97684
59.3142 44.5676 3.97528
65.4326 35.6941 0.0237451
64.7069 32.2275 0.0243791
63.7115 34.3069 0.0239211
61.9082 30.7768 0.0247011
59.1356 15.8075 0.0448861
58.6996 18.5899 0.0393431
58.1498 21.153 0.0323721
60.9829 27.2805 0.0254673
60.0392 29.3563 0.0246286
58.5331 26.0977 0.0253141
57.5762 23.4359 0.0274699
57.1502 25.0275 0.0252694
56.4896 15.9322 0.0441327
54.1826 16.2087 0.043626
53.7478 13.8222 0.0447762
52.1046 8.18894 0.0340859
53.0501 11.0793 0.0361111
63.4894 35.6694 2
62.2396 33.1425 2
59.739 30.8067 2
57.6217 17.2018 2
57.1521 19.7851 2
56.6464 22.2127 2
58.6929 28.1828 2
56.3551 24.3427 2
56.8245 26.0964 2
50.1112 7.29466 2
55.2342 17.2219 2
53.4977 17.23 2
52.8417 15.4537 2
52.1285 12.9082 2
51.1982 10.2219 2
61.3965 35.4149 3.97642
59.3358 32.8911 3.97592
57.5656 30.3415 3.97487
56.2606 27.7403 3.97482
56.1962 18.4414 3.95763
55.3159 25.531 3.97357
55.6907 20.892 3.96174
55.2808 23.2939 3.96882
48.0567 6.53596 3.97892
49.2979 9.3935 3.97248
50.3724 12.1561 3.96981
51.2747 14.655 3.97624
54.0495 18.2249 3.95943
52.1193 17.2982 3.95658
52.0574 66.9728 0.0276143
52.924 64.1267 0.0322948
60.2307 47.6589 0.0263471
53.6042 61.448 0.0347793
56.4673 59.3281 0.0468057
54.13 59.1478 0.0363862
59.0527 51.8395 0.0274472
57.1238 49.2825 0.0267685
56.3738 56.743 0.0405522
56.3594 53.7748 0.0327521
51.1462 65.0636 2
51.9883 62.42 2
55.2068 58.0394 2
52.6724 59.9178 2
53.4474 58.267 2
57.2528 46.5346 2
56.7464 51.4305 2
55.2375 49.1406 2
54.9779 55.5009 2
54.5278 53.0047 2
50.3032 63.2936 3.96968
51.1231 60.7529 3.9696
53.8939 57.0252 3.96683
52.0204 58.3876 3.96432
55.4019 43.897 3.97504
54.3087 47.468 3.97491
54.0116 50.9491 3.96578
53.3973 54.2119 3.96322
49.3171 65.8696 0.0283346
48.5848 64.0586 2
47.9097 62.3884 3.99047
45.5504 67.0714 0.0218485
46.8697 64.664 0.0221169
43.6286 67.4518 2
46.3481 62.9621 2
45.12 65.1468 2
45.9405 61.4782 3.99013
44.7422 63.3794 3.97708
43.3474 65.4757 3.97958
41.6609 67.6697 3.97845
39.7016 70.0145 3.98149
41.8605 69.8696 2
42.1085 72.2039 3.99017
43.9705 69.5791 0.0177439
44.3761 71.8595 2
44.8159 74.2794 4
46.6048 71.3651 0.0116857
47.2057 73.7222 2
49.554 73.0099 0
48.7845 4.32545 3.98568
50.9542 5.13577 2
51.8506 2.85458 4
53.0628 6.08147 0.0210186
54.0858 3.86728 2
56.25 5.02411 0
61.2352 45.7466 0.0250997
62.6726 42.464 0.0239224
60.6191 43.5423 0.0237731
61.6653 40.6323 0.0235273
63.2744 39.2427 0.0236759
65.443 37.5067 0.0237954
63.3409 37.4632 2
61.3555 39.3186 2
60.3494 41.8455 2
59.3149 44.5672 2
61.1718 37.4517 3.97683
59.2411 39.7837 3.97655
57.8919 42.7471 3.97597
63.488 35.6694 0.0238584
62.2382 33.1422 0.0240969
59.7389 30.8068 0.0246987
57.6159 17.2012 0.0431369
57.1525 19.784 0.0394258
56.6498 22.2078 0.0312815
58.693 28.1833 0.0251392
56.8257 26.0967 0.0252761
56.3507 24.3411 0.0264067
55.2322 17.227 0.0449247
53.491 17.2399 0.0458058
52.8541 15.4563 0.0375313
50.1046 7.31759 0.027839
52.1199 12.9052 0.0326906
51.1937 10.2206 0.0350576
61.397 35.4149 2
59.3354 32.8916 2
57.5655 30.3422 2
56.1975 18.4415 2
55.7088 20.8881 2
55.2964 23.2959 2
56.2602 27.7404 2
55.3189 25.5358 2
48.0522 6.54657 2
49.3007 9.39492 2
54.0608 18.2228 2
52.1194 17.2918 2
51.2682 14.6491 2
50.3767 12.1516 2
58.8519 35.1981 3.97628
56.7929 32.4789 3.97504
55.3427 29.6843 3.97497
54.317 27.0593 3.97392
54.845 19.5221 3.96089
53.991 24.521 3.97123
54.2484 21.9865 3.96591
45.9615 5.89701 3.97926
43.3691 7.4961 3.97883
47.337 8.66305 3.97176
48.557 11.4058 3.96789
49.6116 13.9295 3.97792
50.4582 16.3458 3.95921
52.7387 19.0115 3.95783
51.0249 18.4044 3.95395
51.1436 65.063 0.0355253
51.9836 62.3954 0.0370359
57.2533 46.5353 0.0255827
52.681 59.9212 0.0426609
55.2111 58.0415 0.0408904
53.4489 58.2655 0.038211
56.7471 51.4321 0.0273081
55.2379 49.1414 0.0248127
54.9804 55.5022 0.0405772
54.5304 53.0056 0.039412
50.2996 63.2846 2
51.1221 60.7571 2
53.8854 57.0244 2
52.0125 58.3893 2
55.4054 43.8965 2
54.3095 47.468 2
54.007 50.9474 2
53.3878 54.2121 2
49.5086 61.6497 3.97601
54.0642 41.5428 3.97449
50.3585 59.12 3.96933
51.7195 56.1971 3.96344
52.6909 45.1176 3.97247
52.0778 48.828 3.96988
51.8309 52.4528 3.95809
48.586 64.0406 0.0235858
47.9066 62.3929 2
47.2558 60.9056 3.99199
43.6266 67.4505 0.0204015
45.1143 65.1558 0.0186037
46.348 62.9651 0.0129095
41.6637 67.6712 2
43.356 65.473 2
45.9411 61.4847 2
44.7441 63.3723 2
45.6875 60.5217 4.00221
44.4457 61.7413 3.98636
43.1299 63.6652 3.98074
41.5419 65.6132 3.97284
39.6318 67.7479 3.9766
37.5263 70.0393 3.98198
39.7026 70.0148 2
39.8164 72.4013 3.99037
41.8589 69.8676 0.0175214
42.1105 72.2047 2
42.3947 74.6792 4
44.373 71.8597 0.0108444
44.8159 74.2794 2
47.2057 73.7222 0
43.8502 5.37029 3.97856
46.569 3.65108 3.98707
48.7837 4.32893 2
49.554 1.99015 4
50.954 5.1361 0.015209
51.8506 2.85453 2
54.0858 3.86728 0
59.3142 44.5676 0.0247175
60.3496 41.8455 0.0231592
61.3551 39.3182 0.0233139
63.3399 37.4632 0.0236271
61.1724 37.4517 2
59.2396 39.7841 2
57.8899 42.7457 2
58.6943 37.572 3.97679
56.7703 40.5333 3.97755
53.4418 39.5976 3.97692
61.3965 35.4149 0.0235817
59.3358 32.8911 0.0240787
57.5656 30.3415 0.0251254
56.1962 18.4414 0.0423695
55.6907 20.892 0.0382598
55.2808 23.2939 0.0311819
56.2606 27.7403 0.0251836
55.3159 25.531 0.0264308
54.0495 18.2249 0.0405666
52.1193 17.2982 0.0434237
51.2747 14.655 0.0237576
48.0567 6.53596 0.0210829
49.2979 9.3935 0.0275166
50.3724 12.1561 0.0301941
58.8499 35.1974 2
45.9616 5.89521 2
43.3698 7.49893 2
56.7922 32.4792 2
55.3446 29.6824 2
54.8336 19.5286 2
54.2751 21.9862 2
53.9891 24.5298 2
54.3166 27.059 2
47.3399 8.65443 2
48.5596 11.3978 2
52.7415 18.9786 2
51.0324 18.4022 2
50.468 16.3451 2
49.6074 13.9301 2
56.0856 34.8804 3.97732
54.3289 31.8251 3.97419
53.1917 28.8424 3.97558
52.6886 26.005 3.97299
53.4255 20.5195 3.96774
52.7721 23.1938 3.96985
41.3965 7.09365 3.97752
45.3483 8.0137 3.98381
42.8562 9.4499 3.97247
46.6386 10.7331 3.97334
47.6672 13.2326 3.97373
48.767 15.5837 3.97481
49.7472 17.9868 3.95661
51.2527 19.7215 3.97689
50.3032 63.2936 0.0303183
51.1231 60.7529 0.0303984
55.4019 43.897 0.0249619
54.3087 47.468 0.0250935
52.0204 58.3876 0.0356764
53.8939 57.0252 0.0331736
54.0116 50.9491 0.0342204
53.3973 54.2119 0.0367781
49.5106 61.6464 2
54.0563 41.5347 2
50.357 59.1256 2
51.7218 56.202 2
52.6834 45.1138 2
52.0734 48.8258 2
51.8345 52.4539 2
48.7083 60.0927 3.99585
50.6121 42.3288 3.98262
49.4677 57.4043 3.96132
49.9667 54.0855 3.95898
50.3541 46.7145 3.97691
50.1788 50.4912 3.95357
46.3944 43.2483 3.95549
47.9097 62.3884 0.00953124
47.2602 60.9036 2
46.5018 59.6914 3.99346
41.6609 67.6697 0.0215529
43.3474 65.4757 0.0204202
44.7422 63.3794 0.0229243
45.9405 61.4782 0.0098746
39.6347 67.7487 2
41.5479 65.6103 2
45.694 60.5263 2
43.1295 63.6643 2
44.4462 61.7375 2
44.5687 60.1766 3.99343
42.9205 62 3.98012
41.5864 63.7789 3.98239
39.6443 65.5853 3.97562
37.563 67.7311 3.976
31.7044 65.0935 3.97349
33.3948 67.4695 3.97863
35.3348 69.9509 3.98226
37.5264 70.0412 2
37.5096 72.4553 3.99094
39.7016 70.0145 0.0185134
39.8177 72.4014 2
39.9526 74.9197 4
42.1085 72.2039 0.00983195
42.3947 74.6792 2
44.8159 74.2794 0
41.7352 4.97697 3.98361
43.8502 5.37068 2
44.3252 3.11345 3.98911
46.5704 3.65059 2
47.2057 1.27793 4
48.7845 4.32545 0.014321
49.554 1.99013 2
51.8506 2.85458 0
57.8919 42.7471 0.0240341
59.2411 39.7837 0.0234544
61.1718 37.4517 0.0231706
58.6951 37.5723 2
56.7702 40.535 2
53.4369 39.6015 2
55.409 37.8829 3.97694
47.623 41.0694 3.96604
51.132 39.2461 3.97937
39.4394 6.81663 3.97685
58.8519 35.1981 0.0237208
56.7929 32.4789 0.0249575
55.3427 29.6843 0.0250295
54.845 19.5221 0.0391098
54.2484 21.9865 0.0340905
53.991 24.521 0.0287679
54.317 27.0593 0.0260836
52.7387 19.0115 0.0421686
51.0249 18.4044 0.0460455
50.4582 16.3458 0.0407876
45.9615 5.89701 0.0207412
49.6116 13.9295 0.0220772
47.337 8.66305 0.0282372
48.557 11.4058 0.0321116
43.3691 7.4961 0.0211693
56.083 34.8817 2
41.3974 7.09532 2
45.3494 8.0134 2
42.8541 9.44908 2
54.3237 31.8245 2
53.1862 28.8441 2
53.4254 20.5274 2
52.7532 23.2075 2
52.6932 26.0019 2
46.6389 10.7236 2
47.6689 13.2193 2
51.2658 19.7192 2
49.7504 17.9699 2
48.7783 15.608 2
53.2152 34.144 3.97564
51.9442 30.8997 3.97468
51.3263 27.72 3.97501
51.1713 24.6267 3.97199
51.8032 21.5042 3.97277
41.006 9.06812 3.97617
44.7106 10.0445 3.97894
42.4451 10.9404 4.00376
45.9401 12.816 3.97272
47.5592 14.758 3.97635
47.8858 17.1767 3.97415
49.5033 20.1173 3.98709
49.5086 61.6497 0.0239903
50.3585 59.12 0.0306669
54.0642 41.5428 0.0255145
52.6909 45.1176 0.0275322
52.0778 48.828 0.0301172
51.7195 56.1971 0.0365609
51.8309 52.4528 0.0419094
48.707 60.0934 2
50.6389 42.356 2
49.4664 57.3977 2
49.966 54.0883 2
50.3549 46.714 2
50.1819 50.4911 2
46.4049 43.2871 2
47.7909 58.5538 3.99098
48.3896 44.8377 3.98309
48.1652 55.6534 3.94884
48.3704 52.2121 3.97518
48.4811 48.5403 3.97389
44.0369 39.6559 3.80282
44.617 42.203 3.8516
45.0052 45.1594 3.96921
41.9738 40.9425 3.55286
41.0846 41.386 3.35325
47.2558 60.9056 0.00801386
46.5098 59.6927 2
45.3443 58.6612 3.99378
39.6318 67.7479 0.0233974
41.5419 65.6132 0.027156
43.1299 63.6652 0.0192624
44.4457 61.7413 0.0136369
45.6875 60.5217 -0.00221121
41.5905 63.7737 2
37.5654 67.7336 2
39.6489 65.5874 2
44.5656 60.1885 2
42.9208 61.9949 2
41.7307 62.4257 3.98594
42.439 59.8628 3.98896
39.8839 63.5192 3.97997
37.6405 65.4851 3.97613
35.4639 67.641 3.97528
33.5796 65.3104 3.97376
31.9726 63.2482 3.99417
29.8976 64.6832 3.97994
31.6964 65.1025 2
31.3829 67.1829 3.9791
33.3964 67.4744 2
33.1589 69.7443 3.98264
35.3343 69.9526 2
35.1968 72.3707 3.99141
37.5263 70.0393 0.0180166
37.5103 72.4561 2
37.5 75 4
39.8164 72.4013 0.00962647
39.9526 74.9197 2
42.3947 74.6792 0
39.6238 4.72309 3.98515
41.735 4.97776 2
42.0619 2.72036 3.98979
43.8502 5.37029 0.0214362
44.3255 3.11353 2
44.8158 0.721173 4
46.569 3.65108 0.0129288
47.2057 1.27779 2
49.554 1.99015 0
56.7703 40.5333 0.0224484
58.6943 37.572 0.0232133
53.4418 39.5976 0.0230845
47.6675 41.0965 2
55.4073 37.8811 2
51.1499 39.2279 2
52.0774 36.6322 3.97706
45.5406 40.1843 3.87721
48.4458 38.4553 3.96262
37.5138 6.68495 3.9816
39.4406 6.81501 2
39.207 8.71704 3.98441
35.9421 8.51255 3.97656
56.0856 34.8804 0.0226803
54.3289 31.8251 0.0258105
53.1917 28.8424 0.0244216
53.4255 20.5195 0.0322646
52.7721 23.1938 0.03015
52.6886 26.005 0.0270075
51.2527 19.7215 0.0231089
49.7472 17.9868 0.0433908
48.767 15.5837 0.0251868
45.3483 8.0137 0.0161882
47.6672 13.2326 0.026272
46.6386 10.7331 0.0266583
41.3965 7.09365 0.0224774
42.8562 9.4499 0.027529
53.2173 34.1493 2
41.0029 9.07066 2
44.7105 10.0384 2
42.443 10.9455 2
51.9482 30.8966 2
51.3281 27.7233 2
51.7917 21.511 2
51.1588 24.638 2
45.9401 12.8033 2
47.5536 14.7383 2
49.529 20.1309 2
47.8879 17.1706 2
50.5771 33.1526 3.97461
49.7467 29.7127 3.97666
49.622 26.2476 3.97115
49.3282 22.6839 3.97304
40.5545 11.6313 3.99016
43.8073 11.9697 3.96842
45.6793 15.6175 4.00512
47.2255 19.6852 3.97678
44.269 37.509 3.8147
48.7083 60.0927 0.00415197
49.4677 57.4043 0.0386842
50.6121 42.3288 0.0173829
50.3541 46.7145 0.023089
50.1788 50.4912 0.0464336
49.9667 54.0855 0.0410182
46.3944 43.2483 0.0445092
47.7828 58.5564 2
48.404 44.8488 2
48.1602 55.6543 2
48.3702 52.2172 2
48.4854 48.5414 2
44.1546 39.6732 2
44.6569 42.251 2
45.0117 45.1837 2
42.0451 41.0098 2
41.133 41.3995 2
46.5765 57.1364 3.99283
42.5439 39.4092 3.5488
41.4564 40.3902 3.33538
46.6966 46.7718 3.99585
46.637 53.9192 3.95421
46.6847 50.3345 3.97248
43.6999 46.7632 3.97739
43.3053 41.6141 3.8101
43.5711 43.9599 3.83959
41.4174 42.0838 3.57053
40.2754 41.6518 3.27022
46.5018 59.6914 0.00654067
45.3382 58.6629 2
43.7594 57.5193 3.9962
37.563 67.7311 0.0240028
39.6443 65.5853 0.0243754
41.5864 63.7789 0.0176129
42.9205 62 0.0198794
44.5687 60.1766 0.00657297
35.4657 67.6428 2
41.7302 62.4223 2
39.886 63.523 2
37.6435 65.4886 2
42.4373 59.868 2
40.6032 61.566 3.98859
40.4072 58.0431 3.99299
37.8325 63.1716 3.97427
35.5737 65.4024 3.97461
33.5744 65.3032 2
31.9717 63.2319 2
33.6359 63.3018 3.99132
30.4081 62.7817 3.97953
32.1391 61.9476 3.9851
26.9388 61.3543 3.99123
28.0899 64.0732 3.98828
29.8935 64.6771 2
29.415 66.7337 3.98074
31.7044 65.0935 0.0265061
31.3842 67.1849 2
31.0172 69.4103 3.98312
33.3948 67.4695 0.0213662
33.1578 69.7472 2
32.8953 72.1449 3.99105
35.3348 69.9509 0.0177401
35.1964 72.3716 2
35.0474 74.9194 4
37.5096 72.4553 0.00906011
37.5 75 2
39.9526 74.9197 0
35.6189 6.73799 3.97797
37.5238 4.62206 3.98579
39.6232 4.72173 2
39.7887 2.47645 3.9913
41.7352 4.97697 0.0163884
42.0619 2.72067 2
42.3946 0.32156 4
44.3252 3.11345 0.0108853
44.8159 0.72056 2
47.2057 1.27793 0
47.623 41.0694 0.0339611
55.409 37.8829 0.0230584
51.132 39.2461 0.0206256
45.6122 40.1717 2
48.5021 38.4565 2
52.0704 36.6296 2
49.3101 35.6511 3.97871
46.0654 37.6872 3.82978
44.071 35.3295 3.80597
42.0255 34.0196 3.55264
41.1323 33.5693 3.35741
37.4573 8.54855 3.97951
37.515 6.68516 2
39.4394 6.81663 0.0231468
39.2066 8.72038 2
38.9702 10.156 3.99403
35.8984 9.79701 3.98159
34.1528 8.84423 3.97603
35.941 8.51255 2
53.2152 34.144 0.0243554
51.9442 30.8997 0.0253197
51.3263 27.72 0.0249897
51.8032 21.5042 0.0272325
51.1713 24.6267 0.0280087
49.5033 20.1173 0.0129108
47.8858 17.1767 0.0258549
47.5592 14.758 0.0236528
44.7106 10.0445 0.0210553
45.9401 12.816 0.0272842
41.006 9.06812 0.0238288
42.4451 10.9404 -0.00375536
50.6027 33.1358 2
40.5567 11.6471 2
43.8061 11.9463 2
49.7548 29.7085 2
49.6209 26.2658 2
49.3219 22.6715 2
45.6628 15.5573 2
47.2462 19.7343 2
48.1869 31.7111 3.97904
47.9404 28.0367 3.97552
48.4837 24.8504 3.96385
46.7434 22.5094 3.98907
38.2998 12.78 3.98037
42.0401 14.4313 3.996
44.5811 18.7181 3.99108
42.7618 37.4902 3.53902
44.3963 37.4964 2
47.7909 58.5538 0.00902289
48.1652 55.6534 0.0511593
48.3896 44.8377 0.016912
48.4811 48.5403 0.0261138
48.3704 52.2121 0.0248235
44.0369 39.6559 0.197182
44.617 42.203 0.148395
45.0052 45.1594 0.0307944
41.9738 40.9425 0.447136
41.0846 41.386 0.64675
46.5713 57.1406 2
42.6349 39.423 2
41.4897 40.3919 2
46.7019 46.7762 2
46.6284 53.922 2
46.684 50.3477 2
43.7423 46.7835 2
43.3774 41.6735 2
43.6395 43.9999 2
41.4801 42.1802 2
40.3697 41.669 2
45.071 55.6971 4.00432
41.7497 38.9973 3.34689
40.1039 40.3624 3.35428
45.0579 48.4155 4.00445
44.8504 52.1383 3.99558
42.5462 47.7387 3.986
42.3856 45.4014 3.85104
42.4364 43.2478 3.77017
40.6094 42.9373 3.54119
39.0795 41.9611 3.36147
45.3443 58.6612 0.0062212
43.7572 57.5303 2
41.9911 56.05 3.99533
35.4639 67.641 0.024716
37.6405 65.4851 0.0238743
39.8839 63.5192 0.020033
41.7307 62.4257 0.0140645
42.439 59.8628 0.0110386
35.5754 65.4104 2
40.6042 61.5547 2
37.835 63.1776 2
40.4069 58.055 2
38.8994 56.2038 3.99536
38.2355 60.2466 3.98948
35.6079 63.1672 3.97535
33.5796 65.3104 0.0262384
31.9726 63.2482 0.00583276
33.6345 63.3051 2
30.4046 62.7707 2
32.1536 61.9324 2
28.7304 62.0999 3.98673
33.3607 61.4717 3.99069
31.1465 61.1416 4.0071
27.698 59.4569 3.96857
23.9562 58.8817 3.97359
25.1289 60.6825 3.98487
26.9339 61.3637 2
26.2747 63.3934 3.97985
28.0907 64.0836 2
27.4795 66.1559 3.97734
29.8976 64.6832 0.0200599
29.4156 66.7484 2
28.9126 68.9298 3.9803
31.3829 67.1829 0.0208992
31.0154 69.4116 2
30.6189 71.777 3.99053
33.1589 69.7443 0.0173619
32.8938 72.1461 2
32.6054 74.6784 4
35.1968 72.3707 0.00858934
35.0474 74.9197 2
37.5 75 0
33.722 6.9948 3.97649
35.4363 4.69233 3.98526
35.62 6.73777 2
37.515 2.38892 3.99145
37.5226 4.62139 2
39.6238 4.72309 0.0148458
39.7884 2.476 2
39.9526 0.0806499 4
42.0619 2.72036 0.0102051
42.3947 0.320817 2
44.8158 0.721173 0
42.5889 35.5587 3.55382
41.4995 34.5526 3.32114
45.5406 40.1843 0.122788
48.4458 38.4553 0.0373841
52.0774 36.6322 0.0229428
46.1133 37.7061 2
49.3598 35.6648 2
44.187 35.3084 2
42.0984 33.9454 2
41.1497 33.5498 2
46.4422 34.5714 3.91781
43.3592 33.3429 3.8019
41.455 32.876 3.57345
40.2903 33.3095 3.26766
37.3086 10.651 3.98061
37.4574 8.54829 2
37.5138 6.68495 0.0184038
39.207 8.71704 0.015589
38.9729 10.1606 2
34.7575 10.4108 3.97463
35.9033 9.79679 2
32.3826 9.39528 3.97187
34.1512 8.84471 2
35.9421 8.51255 0.0234406
50.5771 33.1526 0.0253861
49.7467 29.7127 0.0233383
49.622 26.2476 0.0288482
49.3282 22.6839 0.0269588
47.2255 19.6852 0.0232156
45.6793 15.6175 -0.00512228
43.8073 11.9697 0.0315834
40.5545 11.6313 0.0098368
48.2061 31.6873 2
38.2953 12.7836 2
42.049 14.4235 2
47.9303 28.0349 2
48.4827 24.8641 2
46.7357 22.5018 2
44.6043 18.7858 2
46.2112 30.0817 3.97628
46.1852 25.557 3.9774
43.9822 21.7855 3.98317
36.5951 12.9966 3.98166
38.6565 14.9517 3.98228
41.637 18.0749 3.98979
41.8725 37.4558 3.34853
42.855 37.4911 2
44.269 37.509 0.185297
46.5765 57.1364 0.0071703
46.637 53.9192 0.0457894
46.6966 46.7718 0.00415445
46.6847 50.3345 0.0275176
42.5439 39.4092 0.451199
43.3053 41.6141 0.189902
43.5711 43.9599 0.160408
43.6999 46.7632 0.022612
41.4174 42.0838 0.429473
41.4564 40.3902 0.664615
40.2754 41.6518 0.729776
45.0674 55.697 2
41.7867 39.0026 2
40.2077 40.3489 2
45.0552 48.443 2
44.8402 52.1399 2
42.5964 47.7641 2
42.4547 45.4875 2
42.4958 43.2834 2
40.6814 43.0338 2
39.0225 42.0109 2
43.3951 54.0961 4.00339
40.116 38.9122 3.3925
38.9949 40.4685 3.36267
42.899 49.8566 4.00421
41.2768 46.8714 3.90868
41.1757 44.4509 3.77089
39.3681 43.6124 3.55368
37.505 42.1302 3.43767
43.7594 57.5193 0.00379512
41.988 56.0376 2
40.2963 54.6044 3.99743
35.5737 65.4024 0.0253906
37.8325 63.1716 0.0257342
40.6032 61.566 0.0114101
40.4072 58.0431 0.00701063
35.609 63.172 2
38.2373 60.2283 2
38.9003 56.1927 2
37.9645 54.8878 3.99621
36.9293 57.4529 3.99304
35.3649 60.8441 3.9846
33.6359 63.3018 0.00868381
30.4081 62.7817 0.0204674
32.1391 61.9476 0.0149035
33.3782 61.4644 2
28.7223 62.1127 2
31.1387 61.1361 2
29.5219 60.2786 3.9807
32.393 59.5964 3.99466
28.1912 58.2056 4.00813
27.6984 59.4663 2
25.5533 58.4074 3.96915
22.975 58.0221 3.96444
23.5085 60.1583 3.96862
23.9557 58.8807 2
25.1256 60.6798 2
24.4942 62.6569 3.96655
26.9388 61.3543 0.0087675
26.275 63.4075 2
25.5728 65.4374 3.97411
28.0899 64.0732 0.0117243
27.4744 66.1394 2
26.8449 68.3225 3.98146
29.415 66.7337 0.0192636
28.9082 68.9333 2
28.3752 71.2606 3.9873
31.0172 69.4103 0.016882
30.6164 71.7765 2
30.1842 74.2788 4
32.8953 72.1449 0.00895148
32.6053 74.6792 2
35.0474 74.9194 0
31.7872 7.43844 3.97367
33.3489 4.93238 3.98321
33.7232 6.99514 2
35.2458 2.46501 3.99107
35.4343 4.69243 2
35.6189 6.73799 0.0220336
37.5 0 4
37.5138 2.38882 2
37.5238 4.62206 0.0142135
39.7887 2.47645 0.00870101
39.9526 0.0802889 2
42.3946 0.32156 0
41.7563 35.9173 3.28818
42.6957 35.547 2
40.163 34.5748 3.37962
41.5309 34.5425 2
46.0654 37.6872 0.170217
49.3101 35.6511 0.0212876
44.071 35.3295 0.194034
42.0255 34.0196 0.44736
41.1323 33.5693 0.64259
46.4933 34.5655 2
43.4213 33.2905 2
41.5022 32.783 2
40.3542 33.2958 2
44.6553 32.0706 3.87086
42.4647 31.7108 3.75834
40.6421 32.0221 3.54787
39.0706 33.0049 3.36337
35.7002 11.817 3.97303
37.3156 10.65 2
37.4573 8.54855 0.0204921
38.9702 10.156 0.00596591
33.1078 11.2627 3.97089
34.7616 10.406 2
35.8984 9.79701 0.0184149
30.4924 10.0588 3.97123
32.3808 9.40019 2
34.1528 8.84423 0.0239696
48.1869 31.7111 0.020957
47.9404 28.0367 0.0244777
48.4837 24.8504 0.0361485
46.7434 22.5094 0.0109348
44.5811 18.7181 0.00891873
42.0401 14.4313 0.00399579
38.2998 12.78 0.0196308
36.5873 12.9968 2
46.1873 30.0272 2
38.6629 14.9213 2
41.6063 18.0464 2
46.1828 25.5452 2
43.9803 21.7838 2
44.3474 28.2597 3.98717
43.175 24.4596 4.00553
41.1036 21.1214 3.9958
35.7857 14.8275 3.99222
38.6085 17.8284 3.99334
40.1717 37.4059 3.42522
41.9203 37.4653 2
42.7618 37.4902 0.460979
45.071 55.6971 -0.00432327
44.8504 52.1383 0.00442117
45.0579 48.4155 -0.00445295
41.7497 38.9973 0.653111
42.4364 43.2478 0.229832
42.3856 45.4014 0.148962
42.5462 47.7387 0.0139957
40.6094 42.9373 0.458807
40.1039 40.3624 0.645725
39.0795 41.9611 0.638526
43.3887 54.0914 2
40.1824 38.9169 2
38.9481 40.4707 2
42.8788 49.8781 2
41.277 46.8988 2
41.2002 44.5052 2
37.4896 42.1496 2
39.3824 43.7115 2
41.5503 52.5496 4.00559
39.006 38.975 3.34403
37.4971 40.5009 3.44971
35.9112 41.9844 3.3614
40.5564 49.0327 3.98678
39.5213 45.1569 3.74381
37.4947 43.9348 3.60565
41.9911 56.05 0.00466782
40.2903 54.6066 2
38.6605 53.3509 3.99892
35.6079 63.1672 0.0246478
38.2355 60.2466 0.0105191
38.8994 56.2038 0.00463618
35.3779 60.8311 2
36.9348 57.466 2
37.9558 54.8822 2
36.3247 55.0088 3.9957
34.5104 58.3724 3.9949
33.3607 61.4717 0.00931244
28.7304 62.0999 0.0132716
31.1465 61.1416 -0.00710011
32.3956 59.5852 2
29.5202 60.2843 2
30.4286 57.5476 3.98298
28.1849 58.1977 2
27.2195 56.634 3.96292
27.698 59.4569 0.0314282
25.5533 58.4038 2
24.1685 56.5605 3.9561
21.684 57.141 3.95997
22.1288 59.4314 3.96903
22.9744 58.0231 2
22.8126 61.8612 3.97019
23.5076 60.1588 2
23.9562 58.8817 0.0264071
25.1289 60.6825 0.0151252
24.4933 62.6702 2
23.7145 64.6455 3.96368
26.2747 63.3934 0.0201487
25.5677 65.4311 2
24.8195 67.5829 3.97091
27.4795 66.1559 0.0226557
26.8402 68.3248 2
26.1709 70.6031 3.98767
28.9126 68.9298 0.019699
28.3714 71.2613 2
27.7943 73.7221 4
30.6189 71.777 0.00946558
30.1841 74.2794 2
32.6054 74.6784 0
29.811 8.01874 3.97018
31.2544 5.34171 3.98116
31.788 7.43607 2
32.9819 2.7032 3.99028
33.3464 4.93283 2
33.722 6.9948 0.0235106
35.0474 0.080333 4
35.2441 2.46519 2
35.4363 4.69233 0.0147414
37.5 0 2
37.515 2.38892 0.00855281
39.9526 0.0806499 0
40.2822 35.9695 3.44108
41.8131 35.915 2
42.5889 35.5587 0.446181
28.5565 10.7469 3.97001
38.9753 34.5184 3.34058
40.1719 34.5644 2
41.4995 34.5526 0.678857
46.4422 34.5714 0.0821859
43.3592 33.3429 0.198099
41.455 32.876 0.426548
40.2903 33.3095 0.732339
44.678 32.0356 2
42.5312 31.6671 2
40.7108 31.9288 2
39.0305 32.9561 2
43.2034 30.3885 3.85347
41.1928 30.4834 3.77246
39.3631 31.3488 3.55834
37.4959 32.8607 3.4347
34.1097 12.9877 3.9834
35.7031 11.8086 2
37.3086 10.651 0.0193891
31.2035 12.0466 3.97272
33.1105 11.2541 2
34.7575 10.4108 0.0253702
30.4879 10.0548 2
32.3826 9.39528 0.028125
46.2112 30.0817 0.0237167
46.1852 25.557 0.0225994
36.5951 12.9966 0.0183409
43.9822 21.7855 0.0168311
41.637 18.0749 0.010212
38.6565 14.9517 0.0177201
35.7683 14.8542 2
44.341 28.2732 2
38.6166 17.826 2
41.129 21.1016 2
43.1633 24.4418 2
33.6502 15.9687 3.9921
42.3119 27.0315 3.96788
40.692 23.881 4.00306
38.3493 20.661 3.99619
35.8325 17.7391 3.98913
39.0022 37.4875 3.31576
40.213 37.4156 2
41.8725 37.4558 0.651472
43.3951 54.0961 -0.00339192
42.899 49.8566 -0.00420975
40.116 38.9122 0.607503
41.1757 44.4509 0.229115
41.2768 46.8714 0.091323
39.3681 43.6124 0.446318
38.9949 40.4685 0.63733
37.505 42.1302 0.562332
41.5368 52.5419 2
38.9672 38.9729 2
37.4776 40.5091 2
40.5446 49.0374 2
35.9593 42.029 2
39.5586 45.2353 2
37.4858 44.0193 2
39.6536 51.2789 3.99846
37.491 38.9708 3.41313
36.0502 40.4926 3.35124
34.7292 41.6822 3.26477
35.6272 43.6333 3.55258
38.5547 47.8442 3.91577
37.4761 45.4449 3.77646
40.2963 54.6044 0.00257491
38.6488 53.3617 2
36.7809 52.6933 3.9991
35.3649 60.8441 0.0153974
36.9293 57.4529 0.00695913
37.9645 54.8878 0.00378665
34.5074 58.3777 2
36.3289 55.0079 2
33.4388 55.1914 4.00601
32.393 59.5964 0.00534464
29.5219 60.2786 0.0192992
30.4284 57.5408 2
29.0737 55.151 3.98428
28.1912 58.2056 -0.00813288
27.2237 56.631 2
25.7667 54.8805 3.95599
22.3497 55.0325 3.95905
25.5533 58.4074 0.0308542
24.1681 56.5594 2
20.5764 56.7738 3.96153
20.8297 58.577 3.95866
21.6855 57.1429 2
21.2567 60.9907 3.96561
22.1247 59.4358 2
22.975 58.0221 0.0355579
21.9397 63.7307 3.96755
22.8107 61.8663 2
23.5085 60.1583 0.0313759
24.4942 62.6569 0.0334507
23.708 64.6442 2
22.8501 66.713 3.96856
25.5728 65.4374 0.0258937
24.8149 67.5768 2
24.0148 69.8045 3.9854
26.8449 68.3225 0.0185395
26.1651 70.6021 2
25.446 73.0099 4
28.3752 71.2606 0.0127035
27.7943 73.7222 2
30.1842 74.2788 0
27.8229 8.69609 3.97115
29.1563 5.88792 3.97908
29.8109 8.01725 2
30.7278 3.10099 3.98913
31.2514 5.34087 2
31.7872 7.43844 0.0263345
32.6053 0.320823 4
32.9797 2.70373 2
33.3489 4.93238 0.0167926
35.0474 0.0802903 2
35.2458 2.46501 0.00892751
37.5 0 0
38.8714 36.0134 3.33172
40.2535 35.9703 2
41.7563 35.9173 0.711817
28.554 10.7461 2
26.6427 11.4488 3.97124
29.2504 12.694 3.97688
37.5069 34.4973 3.44945
38.9878 34.5258 2
40.163 34.5748 0.620384
44.6553 32.0706 0.129143
42.4647 31.7108 0.241662
40.6421 32.0221 0.452128
39.0706 33.0049 0.636634
43.2679 30.3371 2
41.2404 30.4222 2
39.3785 31.2463 2
37.5102 32.8377 2
41.6027 29.131 3.84637
39.5438 29.8104 3.76526
37.4923 31.0393 3.60901
35.9183 33.0224 3.36776
31.9576 14.5516 3.98526
34.1112 12.9825 2
35.7002 11.817 0.0269704
31.2021 12.0363 2
33.1078 11.2627 0.0291107
30.4924 10.0588 0.0287708
44.3474 28.2597 0.012829
43.175 24.4596 -0.00553245
35.7857 14.8275 0.00778187
41.1036 21.1214 0.00420167
38.6085 17.8284 0.00665706
33.6309 15.9469 2
35.8431 17.6359 2
42.3671 26.9865 2
38.298 20.7164 2
40.6642 23.9027 2
33.5912 17.5351 3.99052
40.1139 26.3949 3.95742
37.9806 23.6587 3.99573
35.5367 20.5293 3.99296
37.5285 37.4835 3.43544
38.9556 37.4876 2
40.1717 37.4059 0.574783
41.5503 52.5496 -0.00558724
40.5564 49.0327 0.0132217
39.006 38.975 0.655968
39.5213 45.1569 0.256188
37.4947 43.9348 0.394349
37.4971 40.5009 0.550293
35.9112 41.9844 0.638596
39.6395 51.2673 2
37.4713 38.9799 2
36.0308 40.4648 2
38.5815 47.9158 2
34.6511 41.6987 2
35.604 43.7375 2
37.4908 45.5231 2
37.6811 50.2497 3.98918
36.1361 39.0081 3.34134
34.8482 40.3949 3.38127
33.8918 41.4258 3.35633
34.3924 42.9702 3.53857
35.426 45.2382 3.77506
36.9535 47.4788 3.86561
38.6605 53.3509 0.00107801
36.8088 52.6323 2
34.5553 52.0517 3.99816
34.5104 58.3724 0.00510235
36.3247 55.0088 0.00430489
33.4434 55.1895 2
30.9628 53.1627 3.99432
30.4286 57.5476 0.0170231
29.0805 55.1532 2
27.465 53.1453 3.95202
27.2195 56.634 0.0370809
25.781 54.8775 2
24.2679 53.118 3.95324
21.2919 52.8342 3.95879
20.4531 55.5322 3.95976
22.353 55.032 2
24.1685 56.5605 0.0439006
19.7183 57.6666 3.96105
20.5692 56.778 2
19.7988 60.0466 3.97034
20.8208 58.5831 2
21.684 57.141 0.0400259
20.2689 62.7034 3.97037
21.2628 61.0014 2
22.1288 59.4314 0.0309735
20.9578 65.7079 3.96443
21.9352 63.723 2
22.8126 61.8612 0.0298122
23.7145 64.6455 0.0363246
22.8467 66.7043 2
21.9187 68.8676 3.98058
24.8195 67.5829 0.0290892
24.0097 69.8003 2
23.1494 72.1454 4
26.1709 70.6031 0.0123297
25.446 73.0099 2
27.7943 73.7221 0
25.8642 9.43675 3.97054
27.0713 6.55447 3.97543
27.822 8.68295 2
28.4905 3.64633 3.98827
29.1534 5.88822 2
29.811 8.01874 0.0298168
30.1841 0.720592 4
30.7244 3.10102 2
31.2544 5.34171 0.0188377
32.6053 0.320817 2
32.9819 2.7032 0.00971772
35.0474 0.080333 0
37.5196 35.9978 3.39984
38.844 35.9679 2
40.2822 35.9695 0.55892
24.8083 12.1338 3.96651
23.8156 14.5669 3.9801
28.5565 10.7469 0.0299909
26.6366 11.4564 2
29.2453 12.7215 2
27.3161 13.486 3.97411
29.8343 14.2494 4.00336
36.0042 34.5168 3.37068
37.5399 34.478 2
38.9753 34.5184 0.659419
37.4959 32.8607 0.565301
43.2034 30.3885 0.146526
41.1928 30.4834 0.22754
39.3631 31.3488 0.441663
41.6319 29.0503 2
39.5522 29.7289 2
37.4967 30.9568 2
35.9665 32.9734 2
39.7157 28.4221 3.84102
37.4704 29.4982 3.75997
35.6305 31.3725 3.55598
34.7047 33.333 3.27546
31.0166 16.913 3.99668
31.9489 14.5274 2
34.1097 12.9877 0.0166023
31.2035 12.0466 0.0272783
42.3119 27.0315 0.0321218
40.692 23.881 -0.00305787
33.6502 15.9687 0.00789799
35.8325 17.7391 0.010867
38.3493 20.661 0.00381182
33.5405 17.5741 2
35.4715 20.581 2
40.1275 26.3871 2
38.0509 23.6562 2
33.0386 20.115 3.99629
37.7671 26.0678 3.95364
35.4229 23.2838 4.00501
36.0811 37.4836 3.32483
37.4952 37.4826 2
39.0022 37.4875 0.684239
39.6536 51.2789 0.00153598
38.5547 47.8442 0.0842282
37.491 38.9708 0.586873
37.4761 45.4449 0.223537
35.6272 43.6333 0.447418
36.0502 40.4926 0.648757
34.7292 41.6822 0.735234
37.6264 50.2858 2
36.1944 38.9889 2
34.8053 40.4156 2
36.9267 47.5522 2
33.8489 41.4452 2
34.3206 43.0606 2
35.3943 45.3032 2
35.6025 49.4351 3.98062
34.7723 38.9767 3.43708
33.5159 40.4416 3.31989
33.5718 42.1209 3.5707
33.8548 44.4876 3.76178
34.7457 46.6476 3.84606
36.7809 52.6933 0.000899509
34.5446 52.0726 2
32.5055 50.8006 4.0049
33.4388 55.1914 -0.00601123
30.9682 53.1585 2
29.0903 51.1513 3.98372
29.0737 55.151 0.0157209
27.4737 53.1404 2
25.8948 51.3247 3.95565
25.7667 54.8805 0.0440121
24.2756 53.1195 2
22.8942 51.3775 3.95372
20.2116 51.2088 3.96579
19.6398 53.9606 3.96152
21.2892 52.8333 2
18.8954 56.4573 3.9613
20.4495 55.5347 2
22.3497 55.0325 0.0409459
18.5426 58.9316 3.95348
19.7152 57.6683 2
20.5764 56.7738 0.038466
18.6729 61.6593 3.9773
19.8076 60.0476 2
20.8297 58.577 0.0413356
19.1533 64.5917 3.96637
20.266 62.7076 2
21.2567 60.9907 0.0343936
19.8925 67.8071 3.97903
20.9498 65.7115 2
21.9397 63.7307 0.0324513
22.8501 66.713 0.0314392
21.9131 68.8642 2
20.9142 71.1327 4
24.0148 69.8045 0.0146033
23.1494 72.1455 2
25.446 73.0099 0
23.1297 12.9528 3.96993
23.9847 10.2124 3.96811
25.0261 7.32862 3.97104
25.8649 9.43075 2
26.2826 4.33124 3.98669
27.0677 6.55561 2
27.8229 8.69609 0.0288516
27.7943 1.27781 4
28.4858 3.64809 2
29.1563 5.88792 0.0209172
30.1841 0.720551 2
30.7278 3.10099 0.0108686
32.6053 0.320823 0
36.0236 36.0042 3.3488
37.5697 36.013 2
38.8714 36.0134 0.668277
24.7912 12.1867 2
23.8128 14.5776 2
22.5785 15.2295 3.97899
25.3986 14.0948 3.97189
24.147 15.8205 4.00252
26.6427 11.4488 0.0287648
29.2504 12.694 0.0231235
27.3276 13.4582 2
29.822 14.2739 2
28.4618 16.0067 3.98984
34.8734 34.6139 3.36388
36.0596 34.5178 2
37.5069 34.4973 0.550552
35.9183 33.0224 0.632241
37.4923 31.0393 0.390992
41.6027 29.131 0.15363
39.5438 29.8104 0.234744
39.7701 28.3598 2
37.4722 29.4532 2
35.6144 31.2758 2
34.6235 33.3141 2
37.5944 28.1161 3.83546
35.4685 29.8224 3.75835
34.3675 32.0439 3.54251
33.8817 33.5954 3.35776
30.3902 19.7607 3.98404
30.971 16.922 2
31.9576 14.5516 0.0147406
40.1139 26.3949 0.0425834
37.9806 23.6587 0.00427465
33.5912 17.5351 0.00948498
35.5367 20.5293 0.00703904
33.027 20.1275 2
35.3597 23.2634 2
37.729 26.0438 2
32.6942 22.892 4.00792
35.2666 25.921 3.97693
34.7843 37.5213 3.45222
36.0711 37.5087 2
37.5285 37.4835 0.56456
37.6811 50.2497 0.0108243
36.9535 47.4788 0.134392
36.1361 39.0081 0.658663
35.426 45.2382 0.224937
34.3924 42.9702 0.46143
34.8482 40.3949 0.618728
33.8918 41.4258 0.643671
35.6036 49.4444 2
34.7429 38.9916 2
33.4824 40.4378 2
34.6953 46.725 2
33.5106 42.2163 2
33.8032 44.5466 2
33.7125 48.5471 3.96805
33.2396 39.0613 3.28886
32.9871 40.9743 3.55173
32.5497 43.2872 3.76706
33.1108 45.6351 3.84035
34.5553 52.0517 0.00184063
32.5224 50.7906 2
30.7127 49.2869 4.00362
30.9628 53.1627 0.00567974
29.0989 51.1395 2
27.4661 49.5073 3.97943
27.465 53.1453 0.0479754
25.9043 51.3239 2
24.3868 49.7174 3.96973
24.2679 53.118 0.0467606
22.8966 51.3745 2
21.6039 49.8442 3.96709
18.9027 49.9451 3.97365
18.6907 52.4191 3.96747
20.2081 51.2076 2
18.0532 55.0361 3.96269
19.6331 53.9617 2
21.2919 52.8342 0.041206
17.4641 57.6574 3.95884
18.8939 56.4582 2
20.4531 55.5322 0.0402431
17.2346 60.4276 3.94806
18.549 58.9328 2
19.7183 57.6666 0.0389483
17.4162 63.4072 3.97109
18.6712 61.6505 2
19.7988 60.0466 0.0296627
17.9511 66.6073 3.96964
19.1417 64.5901 2
20.2689 62.7034 0.0296326
18.75 69.9759 4
19.8876 67.8011 2
20.9578 65.7079 0.0355749
21.9187 68.8676 0.0194212
20.9142 71.1327 2
23.1494 72.1454 0
21.6404 13.7694 3.96773
22.2095 11.1145 3.96343
23.1284 12.9465 2
23.0452 8.20441 3.97064
23.9798 10.241 2
24.1207 5.14603 3.98564
25.0204 7.32901 2
25.8642 9.43675 0.0294619
25.446 1.99014 4
26.2769 4.3331 2
27.0713 6.55447 0.024569
27.7943 1.27778 2
28.4905 3.64633 0.0117342
30.1841 0.720592 0
34.8628 36.0439 3.40116
36.0688 36.0054 2
37.5196 35.9978 0.600159
21.4544 16.0353 3.95823
24.8083 12.1338 0.0334885
23.8156 14.5669 0.0199002
25.399 14.057 2
22.5791 15.2241 2
24.149 15.839 2
23.4393 16.4464 3.96625
25.4968 16.3327 3.98861
27.3161 13.486 0.0258927
29.8343 14.2494 -0.00336301
28.4458 16.0734 2
27.6488 19.1562 3.98883
33.5108 34.5855 3.34053
34.7776 34.6266 2
36.0042 34.5168 0.629318
34.7047 33.333 0.724541
35.6305 31.3725 0.444017
37.4704 29.4982 0.240028
39.7157 28.4221 0.158976
37.5562 28.0844 2
33.8405 33.5821 2
35.4533 29.7494 2
34.3059 31.9498 2
35.3473 28.212 3.85812
33.8225 30.5146 3.77106
33.548 32.8897 3.57482
30.0417 22.3906 4.01227
30.36 19.7835 2
31.0166 16.913 0.00331875
37.7671 26.0678 0.0463552
35.4229 23.2838 -0.00501307
33.0386 20.115 0.00370987
32.7001 22.8508 2
35.2731 25.9115 2
32.3981 26.225 4.02246
33.1056 37.512 3.33434
34.7688 37.5168 2
36.0811 37.4836 0.675171
35.6025 49.4351 0.0193805
34.7457 46.6476 0.153942
34.7723 38.9767 0.562921
33.8548 44.4876 0.23822
33.5718 42.1209 0.429298
33.5159 40.4416 0.680105
33.6613 48.5469 2
33.2228 39.0668 2
32.9137 41.0499 2
33.0922 45.7061 2
32.497 43.3129 2
32.0846 47.3194 3.98105
32.4218 39.4339 3.55809
31.6546 41.6545 3.8042
31.6789 44.3309 3.83924
32.5055 50.8006 -0.00489979
30.7274 49.3037 2
29.0187 47.714 3.97457
29.0903 51.1513 0.0162762
27.4733 49.5062 2
25.8769 47.9476 3.97714
25.8948 51.3247 0.0443498
24.39 49.7154 2
22.9317 48.275 3.97313
22.8942 51.3775 0.0462785
21.604 49.8413 2
20.09 48.6811 3.97487
17.7783 48.9995 3.97567
17.5606 51.0687 3.97264
18.9044 49.9432 2
17.0691 53.5615 3.96839
18.6907 52.4178 2
20.2116 51.2088 0.0342119
16.436 56.2337 3.96342
18.049 55.037 2
19.6398 53.9606 0.0384824
15.8913 59.0713 3.95574
17.47 57.6576 2
18.8954 56.4573 0.0387043
15.7999 62.0548 3.96848
17.2227 60.4337 2
18.5426 58.9316 0.0465172
16.0978 65.2986 3.97462
17.4171 63.4172 2
18.6729 61.6593 0.0226951
16.6661 68.6801 4
17.9449 66.6028 2
19.1533 64.5917 0.033632
18.75 69.9759 2
19.8925 67.8071 0.0209733
20.9142 71.1327 0
20.3034 14.7703 3.95951
21.6419 13.7683 2
20.5622 12.1344 3.97014
21.1515 9.18719 3.97148
22.1994 11.133 2
23.1297 12.9528 0.0300691
22.0219 6.08583 3.98541
23.0397 8.21279 2
23.9847 10.2124 0.0318932
23.1494 2.85457 4
24.1143 5.15074 2
25.0261 7.32862 0.0289625
25.446 1.99012 2
26.2826 4.33124 0.0133062
27.7943 1.27781 0
33.2188 35.973 3.34417
34.7945 36.045 2
36.0236 36.0042 0.651203
21.4648 16.0382 2
20.5466 17.2184 3.96209
22.2906 16.8472 3.96748
25.3986 14.0948 0.0281121
22.5785 15.2295 0.0210108
24.147 15.8205 -0.00251527
25.4964 16.3278 2
23.4424 16.4519 2
24.4463 18.7974 3.9799
27.5111 21.9595 3.99022
28.4618 16.0067 0.0101627
27.6282 19.145 2
32.9735 34.0232 3.5518
33.4799 34.5868 2
34.8734 34.6139 0.636121
33.8817 33.5954 0.642243
34.3675 32.0439 0.457489
35.4685 29.8224 0.241647
37.5944 28.1161 0.164537
35.3287 28.1641 2
33.4993 32.7996 2
33.7734 30.4452 2
33.2959 28.8593 3.8685
32.5517 31.7179 3.76324
29.5699 24.884 4.01304
30.0439 22.353 2
30.3902 19.7607 0.0159631
35.2666 25.921 0.0230734
32.6942 22.892 -0.00791845
32.3772 26.1813 2
30.6925 27.8678 3.99006
32.2403 37.493 3.53722
33.0764 37.5135 2
34.7843 37.5213 0.547783
33.7125 48.5471 0.0319474
33.1108 45.6351 0.159649
33.2396 39.0613 0.71114
32.5497 43.2872 0.232945
32.9871 40.9743 0.44827
32.0429 47.3509 2
32.3288 39.4372 2
31.5858 41.7112 2
31.6008 44.3963 2
30.4847 45.9461 3.97484
30.9369 39.6697 3.80955
30.3546 42.6868 3.86468
30.7127 49.2869 -0.00361582
29.0248 47.722 2
27.3568 46.1487 3.98619
27.4661 49.5073 0.0205729
25.8825 47.9459 2
24.2578 46.5463 3.97591
24.3868 49.7174 0.0302662
22.9321 48.2726 2
21.1929 47.1891 3.97506
21.6039 49.8442 0.0329128
20.0893 48.6805 2
18.686 47.8218 3.97548
17.0212 48.3753 3.97519
17.7782 49 2
16.6119 49.8715 3.9746
16.0199 52.1342 3.97313
17.5622 51.0672 2
18.9027 49.9451 0.0263497
15.3622 54.7419 3.96924
17.0701 53.5605 2
18.6907 52.4191 0.0325262
14.698 57.5917 3.96171
16.4375 56.2337 2
18.0532 55.0361 0.0373137
14.2894 60.6383 3.95559
15.8871 59.0734 2
17.4641 57.6574 0.041165
14.3405 63.8521 3.96419
15.8055 62.0605 2
17.2346 60.4276 0.05194
14.6715 67.2507 4
16.092 65.289 2
17.4162 63.4072 0.0289109
16.6661 68.6801 2
17.9511 66.6073 0.0303567
18.75 69.9759 0
19.0843 15.9887 3.95723
20.3113 14.7594 2
19.0213 13.264 3.96612
21.6404 13.7694 0.0322683
20.5493 12.1318 2
19.3591 10.2963 3.96972
19.9973 7.1482 3.98061
21.1445 9.18858 2
22.2095 11.1145 0.0365665
20.9142 3.86727 4
22.0124 6.0873 2
23.0452 8.20441 0.0293557
23.1494 2.85451 2
24.1207 5.14603 0.0143641
25.446 1.99014 0
32.4361 35.5609 3.5423
33.1896 35.968 2
34.8628 36.0439 0.598835
21.4544 16.0353 0.0417715
22.304 16.8522 2
20.5617 17.2152 2
19.6255 18.7074 3.96726
22.0192 18.196 3.97994
25.4968 16.3327 0.0113869
23.4393 16.4464 0.03375
24.4603 18.8096 2
22.7704 20.2605 3.96919
25.1294 21.8021 3.98661
27.2289 24.1264 3.97371
27.5317 21.8694 2
27.6488 19.1562 0.0111681
31.646 33.3548 3.80256
32.9162 33.9706 2
33.5108 34.5855 0.659467
33.548 32.8897 0.425185
33.8225 30.5146 0.228943
35.3473 28.212 0.141883
33.2498 28.8057 2
32.4661 31.6512 2
31.3789 30.2006 3.88588
28.9916 27.0579 4.01483
29.5671 24.8652 2
30.0417 22.3906 -0.01227
32.3981 26.225 -0.0224554
30.6906 27.8768 2
30.7261 37.4822 3.81375
32.1267 37.494 2
33.1056 37.512 0.665658
32.0846 47.3194 0.0189456
31.6789 44.3309 0.160755
32.4218 39.4339 0.441908
31.6546 41.6545 0.195796
30.4996 45.9632 2
30.8377 39.6852 2
30.325 42.7196 2
28.8767 44.352 3.95581
28.6959 40.3277 3.90997
29.0187 47.714 0.0254317
27.3598 46.1483 2
25.6209 44.6971 3.97853
25.8769 47.9476 0.0228592
24.259 46.5462 2
22.3041 45.5145 3.97619
22.9317 48.275 0.0268657
21.1938 47.1889 2
19.4825 46.3907 3.97498
20.09 48.6811 0.0251282
18.6866 47.8223 2
17.2901 47.4104 3.97476
17.0228 48.376 2
15.9871 48.7367 3.97474
17.7783 48.9995 0.0243346
16.6136 49.8709 2
15.1222 50.7332 3.97398
14.3067 53.2225 3.97295
16.0205 52.1335 2
17.5606 51.0687 0.0273648
13.5561 56.0185 3.96281
15.3624 54.7418 2
17.0691 53.5615 0.031611
12.921 59.0661 3.95136
14.6988 57.5916 2
16.436 56.2337 0.0365824
12.6868 62.2935 3.96449
14.2941 60.6426 2
15.8913 59.0713 0.0442631
12.7746 65.6939 4
14.3369 63.8433 2
15.7999 62.0548 0.0315214
14.6714 67.2507 2
16.0978 65.2986 0.0253766
16.6661 68.6801 0
17.9699 17.3968 3.9599
19.1054 15.9817 2
17.5743 14.5138 3.95498
20.3034 14.7703 0.0404851
19.0133 13.2355 2
17.6666 11.5553 3.96909
20.5622 12.1344 0.0298587
19.3492 10.3173 2
18.0575 8.34393 3.97543
18.75 5.0241 4
19.9878 7.15918 2
21.1515 9.18719 0.0285203
20.9142 3.86727 2
22.0219 6.08583 0.0145915
23.1494 2.85457 0
30.9365 35.3379 3.80361
32.3332 35.5506 2
33.2188 35.973 0.655829
22.2906 16.8472 0.0325238
20.5466 17.2184 0.0379092
22.0428 18.1854 2
19.6289 18.7026 2
18.568 20.2808 3.96905
21.3406 19.7337 3.97508
24.4463 18.7974 0.0201019
22.7808 20.2589 2
25.1482 21.763 2
23.0633 22.1458 3.97422
25.5516 23.4536 3.97039
26.6357 26.427 3.98571
27.2288 24.1362 2
27.5111 21.9595 0.00977622
30.0875 32.7713 3.8617
31.5737 33.3008 2
32.9735 34.0232 0.448198
32.5517 31.7179 0.236764
33.2959 28.8593 0.131503
31.3563 30.1561 2
28.4856 29.6691 4.00339
28.982 27.0794 2
29.5699 24.884 -0.0130427
30.6925 27.8678 0.00994462
29.0167 37.4437 3.83167
30.6047 37.4985 2
32.2403 37.493 0.462783
30.4847 45.9461 0.0251608
30.3546 42.6868 0.135323
30.9369 39.6697 0.19045
28.884 44.4084 2
28.6488 40.3597 2
27.0679 42.8781 3.98276
26.051 39.3454 3.97744
27.3568 46.1487 0.0138073
25.6133 44.7054 2
23.5833 43.5758 3.97448
24.2578 46.5463 0.0240904
22.3032 45.5142 2
20.3331 44.6456 3.97452
21.1929 47.1891 0.024937
19.4826 46.3911 2
17.6814 45.9243 3.97489
18.686 47.8218 0.0245247
17.2906 47.4107 2
15.7672 47.4175 3.97466
17.0212 48.3753 0.0248065
15.9889 48.7369 2
14.4486 49.3153 3.97427
16.6119 49.8715 0.0253977
15.1231 50.7324 2
13.3756 51.6805 3.97396
12.4442 54.3934 3.96668
14.3076 53.222 2
16.0199 52.1342 0.0268729
11.651 57.3992 3.95695
13.5518 56.0195 2
15.3622 54.7419 0.0307601
11.1416 60.6197 3.96305
12.9171 59.0677 2
14.698 57.5917 0.0382881
10.9835 64.0165 4
12.6842 62.2846 2
14.2894 60.6383 0.0444121
12.7745 65.694 2
14.3405 63.8521 0.0358125
14.6715 67.2507 0
16.835 18.9148 3.96297
17.9787 17.3924 2
16.2662 15.9425 3.95683
19.0843 15.9887 0.0427688
17.5792 14.5115 2
16.0342 12.8812 3.95926
19.0213 13.264 0.0338762
17.6485 11.5473 2
16.2106 9.6706 3.96702
19.3591 10.2963 0.0302838
18.0492 8.35359 2
16.6661 6.31991 4
18.75 5.02404 2
19.9973 7.1482 0.0193902
20.9142 3.86727 0
29.3378 34.9807 3.87741
30.8108 35.3115 2
32.4361 35.5609 0.457698
17.3062 21.7038 3.97161
22.0192 18.196 0.0200551
19.6255 18.7074 0.0327419
21.3491 19.7298 2
18.5597 20.2732 2
20.4829 21.9874 3.97371
22.7704 20.2605 0.0308095
25.1294 21.8021 0.0133936
23.0663 22.1436 2
25.5394 23.4992 2
23.9492 25.0826 3.97199
26.0617 29.052 3.98373
26.6317 26.4517 2
27.2289 24.1264 0.0262897
27.9763 32.1173 3.97328
30.0362 32.748 2
31.646 33.3548 0.197443
31.3789 30.2006 0.114116
28.4899 29.6278 2
28.9916 27.0579 -0.014825
26.7992 36.8964 3.95372
28.957 37.3971 2
30.7261 37.4822 0.186254
28.8767 44.352 0.0441866
28.6959 40.3277 0.0900266
27.0433 42.9154 2
25.9972 39.3308 2
24.8565 41.566 3.97528
23.7476 38.5057 3.97522
25.6209 44.6971 0.0214712
23.5815 43.5829 2
21.2614 42.6253 3.97447
22.3041 45.5145 0.0238117
20.335 44.6464 2
18.1158 44.1285 3.97506
19.4825 46.3907 0.025021
17.682 45.9247 2
15.7399 45.8618 3.97498
17.2901 47.4104 0.025243
15.7674 47.4177 2
13.9841 47.8047 3.97459
15.9871 48.7367 0.0252626
14.4494 49.3151 2
12.6173 50.0763 3.97408
15.1222 50.7332 0.0260215
13.3763 51.6801 2
11.4381 52.7184 3.96978
10.4549 55.6571 3.95958
12.4409 54.3939 2
14.3067 53.2225 0.0270516
9.70875 58.8452 3.96538
11.6543 57.399 2
13.5561 56.0185 0.0371867
9.30605 62.2254 4
11.1402 60.6125 2
12.921 59.0661 0.0486393
10.9835 64.0165 2
12.6868 62.2935 0.0355058
12.7746 65.6939 0
15.6111 20.4371 3.96866
16.8423 18.9114 2
15.0043 17.4761 3.95958
17.9699 17.3968 0.0400962
16.2438 15.9315 2
14.4983 14.3668 3.95545
17.5743 14.5138 0.0450195
16.042 12.8851 2
14.4529 11.1211 3.96775
17.6666 11.5553 0.0309135
16.2028 9.68415 2
14.6715 7.74927 4
18.0575 8.34393 0.0245671
16.6661 6.31988 2
18.75 5.0241 0
27.2902 34.5048 3.9749
29.2905 34.9933 2
30.9365 35.3379 0.196389
18.6218 22.7081 3.97436
16.1943 23.2307 3.97244
17.306 21.6989 2
21.3406 19.7337 0.0249218
18.568 20.2808 0.0309489
20.4898 21.9862 2
20.6785 24.8519 3.97211
23.0633 22.1458 0.0257784
25.5516 23.4536 0.0296087
23.9509 25.0793 2
23.4421 28.3569 3.97055
25.5581 31.583 3.98258
26.0749 28.9549 2
26.6357 26.427 0.0142912
27.9404 32.0918 2
30.0875 32.7713 0.138299
28.4856 29.6691 -0.00339348
24.4761 36.3588 3.97844
26.7396 36.9051 2
29.0167 37.4437 0.168332
27.0679 42.8781 0.0172369
26.051 39.3454 0.0225571
24.8227 41.5767 2
23.7389 38.5106 2
22.465 40.4699 3.97531
21.7485 37.7886 3.97816
23.5833 43.5758 0.0255166
21.2622 42.6234 2
18.6224 41.9214 3.97566
20.3331 44.6456 0.0254793
18.1162 44.1284 2
15.7932 44.0105 3.97517
17.6814 45.9243 0.0251095
15.7396 45.8619 2
13.6797 46.1201 3.9748
15.7672 47.4175 0.0253355
13.9838 47.8046 2
12.0071 48.396 3.975
14.4486 49.3153 0.0257256
12.6182 50.0759 2
10.57 50.9743 3.97312
13.3756 51.6805 0.0260385
11.4383 52.7177 2
9.35339 53.8449 3.96199
8.3917 56.9812 3.96751
10.4579 55.6559 2
12.4442 54.3934 0.0333227
7.74927 60.3285 4
9.7075 58.8391 2
11.651 57.3992 0.0430526
9.306 62.2255 2
11.1416 60.6197 0.0369547
10.9835 64.0165 0
14.4453 21.9856 3.97258
15.6135 20.4328 2
13.7282 19.0597 3.96375
16.835 18.9148 0.0370269
14.9955 17.4678 2
13.0518 15.9406 3.95475
16.2662 15.9425 0.0431667
14.5134 14.3542 2
12.7887 12.6948 3.96632
16.0342 12.8812 0.0407413
14.4473 11.1357 2
12.7746 9.30605 4
16.2106 9.6706 0.0329762
14.6715 7.74924 2
16.6661 6.31991 0
24.9629 34.0114 3.98006
27.2633 34.4486 2
29.3378 34.9807 0.122588
18.5164 24.444 3.97205
18.6294 22.7068 2
15.0082 24.7068 3.97366
16.1928 23.2273 2
17.3062 21.7038 0.0283942
20.2364 27.6181 3.97281
20.4829 21.9874 0.02629
20.6818 24.852 2
22.8167 31.0405 3.9737
23.9492 25.0826 0.0280126
23.4351 28.3639 2
25.5005 31.661 2
26.0617 29.052 0.0162684
27.9763 32.1173 0.0267215
21.8297 36.0182 3.97764
24.4625 36.3748 2
26.7992 36.8964 0.0462766
24.8565 41.566 0.0247212
23.7476 38.5057 0.0247769
22.4715 40.4722 2
21.7457 37.7879 2
19.4305 38.9524 3.97705
21.2614 42.6253 0.0255307
18.6229 41.9214 2
15.7863 41.7981 3.97584
18.1158 44.1285 0.0249433
15.7928 44.0102 2
13.4397 44.2528 3.97512
15.7399 45.8618 0.0250165
13.679 46.1202 2
11.5166 46.605 3.97504
13.9841 47.8047 0.025407
12.008 48.3955 2
9.84498 49.145 3.97488
12.6173 50.0763 0.0259235
10.5708 50.9732 2
8.38111 51.9649 3.96346
11.4381 52.7184 0.0302244
9.35198 53.844 2
7.20023 55.0331 3.96862
6.31991 58.3339 4
8.39041 56.9756 2
10.4549 55.6571 0.0404195
7.74924 60.3285 2
9.70875 58.8452 0.0346201
9.30605 62.2254 0
13.8357 25.5839 3.97579
13.3375 23.4891 3.97343
14.4466 21.9816 2
12.5441 20.6953 3.96742
15.6111 20.4371 0.0313394
13.7163 19.0521 2
11.7577 17.6239 3.95449
15.0043 17.4761 0.0404154
13.0772 15.9388 2
11.2276 14.3823 3.96308
14.4983 14.3668 0.0445527
12.7878 12.7077 2
10.9835 10.9835 4
14.4529 11.1211 0.0322538
12.7745 9.306 2
14.6715 7.74927 0
22.1936 33.6314 3.97703
24.9599 33.9555 2
27.2902 34.5048 0.0250974
16.8127 26.7017 3.97379
18.5175 24.4434 2
18.6218 22.7081 0.0256373
15.0046 24.7069 2
16.1943 23.2307 0.0275616
19.6282 30.4811 3.97481
20.238 27.6156 2
20.6785 24.8519 0.0278862
22.8312 31.0279 2
23.4421 28.3569 0.0294497
25.5581 31.583 0.017421
18.9969 36.0429 3.97728
21.8297 36.0141 2
24.4761 36.3588 0.0215578
22.465 40.4699 0.0246886
21.7485 37.7886 0.0218354
19.4292 38.953 2
15.2651 39.1383 3.97682
18.6224 41.9214 0.0243392
15.7862 41.7979 2
13.1283 42.1854 3.97579
15.7932 44.0105 0.0248332
13.439 44.2528 2
11.0951 44.7031 3.97534
13.6797 46.1201 0.025199
11.517 46.6047 2
9.23437 47.2363 3.97597
12.0071 48.396 0.0250038
9.84711 49.1437 2
7.54168 50.0042 3.96457
10.57 50.9743 0.0268771
8.37941 51.9638 2
6.14018 53.0083 3.96933
9.35339 53.8449 0.0380111
7.1997 55.0283 2
5.0241 56.25 4
6.31988 58.3339 2
8.3917 56.9812 0.0324943
7.74927 60.3285 0
14.1454 27.0256 3.97454
12.4309 24.9641 3.97487
13.8339 25.5834 2
11.4591 22.3642 3.97174
13.3344 23.4866 2
14.4453 21.9856 0.0274172
12.5374 20.6901 2
10.5353 19.381 3.9581
13.7282 19.0597 0.036249
11.7706 17.6227 2
9.7682 16.1635 3.96491
13.0518 15.9406 0.0452499
11.2273 14.3901 2
9.30607 12.7746 4
12.7887 12.6948 0.0336847
10.9835 10.9835 2
12.7746 9.30605 0
19.1414 33.2859 3.97573
22.1861 33.6395 2
24.9629 34.0114 0.0199351
16.4416 29.8779 3.975
16.8123 26.7039 2
18.5164 24.444 0.0279486
15.0082 24.7068 0.0263443
19.6239 30.4827 2
20.2364 27.6181 0.0271914
22.8167 31.0405 0.0262954
15.9227 36.0707 3.97706
18.9946 36.0434 2
21.8297 36.0182 0.0223628
13.3716 37.8312 3.97707
19.4305 38.9524 0.0229502
15.2651 39.1383 2
12.6119 40.0955 3.97638
15.7863 41.7981 0.0241591
13.1274 42.1852 2
10.6858 42.7096 3.97564
13.4397 44.2528 0.0248751
11.0953 44.703 2
8.70781 45.2546 3.97612
11.5166 46.605 0.0249566
9.23726 47.235 2
6.81881 47.9764 3.96614
9.84498 49.145 0.0251181
7.54021 50.0032 2
5.21613 50.9114 3.97009
8.38111 51.9649 0.0365359
6.14017 53.0048 2
3.86727 54.0858 4
7.20023 55.0331 0.0313814
5.02404 56.25 2
6.31991 58.3339 0
13.6187 29.2018 3.97412
11.878 26.6345 3.97481
14.1452 27.026 2
10.5025 24.0777 3.9744
12.4316 24.9639 2
13.8357 25.5839 0.024213
9.37705 21.1895 3.96203
11.4585 22.3613 2
13.3375 23.4891 0.0265737
12.5441 20.6953 0.0325775
10.5443 19.381 2
8.4238 18.0317 3.96744
11.7577 17.6239 0.0455127
9.76875 16.1686 2
7.74928 14.6715 4
11.2276 14.3823 0.0369216
9.30602 12.7745 2
10.9835 10.9835 0
15.415 32.9876 3.97625
19.1416 33.2847 2
22.1936 33.6314 0.0229701
16.4425 29.8775 2
16.8127 26.7017 0.0262139
19.6282 30.4811 0.0251913
13.6853 36.242 3.97672
15.9225 36.0707 2
18.9969 36.0429 0.0227161
13.371 37.8312 2
11.9125 38.3032 3.97642
15.2651 39.1383 0.0231787
12.6112 40.0956 2
10.2511 40.7161 3.97606
13.1283 42.1854 0.0242056
10.6861 42.7091 2
8.24824 43.223 3.97612
11.0951 44.7031 0.024655
8.71119 45.254 2
6.20767 45.8887 3.96762
9.23437 47.2363 0.0240327
6.81794 47.9755 2
4.42684 48.7516 3.97076
7.54168 50.0042 0.0354335
5.21644 50.9088 2
2.85457 51.8506 4
6.14018 53.0083 0.0306703
3.86727 54.0858 2
5.0241 56.25 0
12.7331 31.3696 3.97549
11.2827 28.5394 3.97491
13.6185 29.2013 2
9.71929 25.8935 3.9757
11.8782 26.6348 2
14.1454 27.0256 0.0254592
8.34238 23.063 3.96384
10.5032 24.0761 2
12.4309 24.9641 0.0251268
7.20569 19.9795 3.96861
9.38124 21.1899 2
11.4591 22.3642 0.0282605
10.5353 19.381 0.0418991
8.42368 18.0356 2
6.31992 16.6661 4
9.7682 16.1635 0.0350896
7.74926 14.6714 2
9.30607 12.7746 0
12.784 34.3632 3.9766
15.4149 32.9879 2
19.1414 33.2859 0.024271
16.4416 29.8779 0.0250036
11.4267 36.6339 3.97638
13.6849 36.2421 2
15.9227 36.0707 0.0229379
13.3716 37.8312 0.0229327
11.9116 38.3031 2
9.81766 38.8136 3.97631
12.6119 40.0955 0.0236224
10.251 40.7159 2
7.84594 41.1846 3.97617
10.6858 42.7096 0.0243624
8.25058 43.2217 2
5.70003 43.7583 3.96855
8.70781 45.2546 0.0238778
6.20601 45.8879 2
3.77195 46.5369 3.97139
6.81881 47.9764 0.0338624
4.42749 48.7497 2
1.99014 49.554 4
5.21613 50.9114 0.0299146
2.85451 51.8506 2
3.86727 54.0858 0
11.5003 32.9985 3.97628
10.5746 30.4731 3.9753
12.732 31.3701 2
9.02199 27.8115 3.97584
11.2825 28.5389 2
13.6187 29.2018 0.0258845
7.45165 25.0136 3.96496
9.72002 25.8926 2
11.878 26.6345 0.0251944
6.12181 22.0021 3.96968
8.34218 23.0634 2
10.5025 24.0777 0.0256014
5.02411 18.75 4
7.20592 19.9827 2
9.37705 21.1895 0.0379679
8.4238 18.0317 0.0325574
6.3199 16.6661 2
7.74928 14.6715 0
10.994 35.0414 3.97606
12.7832 34.3632 2
15.415 32.9876 0.0237456
9.46221 36.9969 3.97636
11.4257 36.6341 2
13.6853 36.242 0.0232754
11.9125 38.3032 0.0235809
9.81794 38.8136 2
7.50794 39.1732 3.97641
10.2511 40.7161 0.0239448
7.84942 41.184 2
5.30351 41.6094 3.96883
8.24824 43.223 0.0238827
5.6995 43.7577 2
3.24943 44.2818 3.9723
6.20767 45.8887 0.0323775
3.77285 46.5354 2
1.27781 47.2057 4
4.42684 48.7516 0.0292402
1.99012 49.554 2
2.85457 51.8506 0
10.6051 33.9342 3.97564
9.82986 32.2199 3.97591
11.4995 32.9987 2
8.35512 29.7587 3.97606
10.5747 30.4737 2
12.7331 31.3696 0.0245137
6.67891 27.0325 3.96572
9.02393 27.8116 2
11.2827 28.5394 0.0250947
5.17623 24.0953 3.97027
7.45018 25.0139 2
9.71929 25.8935 0.0243033
3.86728 20.9142 4
6.12236 22.0042 2
8.34238 23.063 0.0361605
5.02406 18.75 2
7.20569 19.9795 0.0313901
6.31992 16.6661 0
9.2656 35.3097 3.9765
10.9932 35.0413 2
12.784 34.3632 0.0234024
7.27474 37.2123 3.97646
9.46308 36.997 2
11.4267 36.6339 0.0236155
9.81766 38.8136 0.0236936
7.51127 39.1729 2
5.02592 39.4673 3.96865
7.84594 41.1846 0.0238254
5.30251 41.6089 2
2.85964 42.0024 3.97288
5.70003 43.7583 0.0314466
3.25012 44.2806 2
0.720592 44.8159 4
3.77195 46.5369 0.0286106
1.27778 47.2057 2
1.99014 49.554 0
9.29841 33.7426 3.97658
10.6047 33.9341 2
7.77722 31.6549 3.97633
9.83134 32.2199 2
11.5003 32.9985 0.0237229
6.00862 29.0876 3.96607
8.35762 29.7592 2
10.5746 30.4731 0.0246969
4.36313 26.2488 3.9707
6.67707 27.0328 2
9.02199 27.8115 0.0241591
2.85458 23.1494 4
5.17705 24.0966 2
7.45165 25.0136 0.0350357
3.86728 20.9142 2
6.12181 22.0021 0.0303159
5.02411 18.75 0
7.21473 35.3261 3.97664
9.26712 35.3098 2
10.994 35.0414 0.0239448
4.87011 37.3435 3.96823
7.27811 37.2122 2
9.46221 36.9969 0.023636
7.50794 39.1732 0.0235869
5.02461 39.4669 2
2.60739 39.7144 3.97345
5.30351 41.6094 0.0311665
2.86063 42.0015 2
0.320823 42.3947 4
3.24943 44.2818 0.0277021
0.720551 44.8159 2
1.27781 47.2057 0
7.37632 33.4929 3.97683
9.30023 33.7428 2
10.6051 33.9342 0.0243569
5.4649 31.147 3.96652
7.77975 31.6553 2
9.82986 32.2199 0.0240924
3.68429 28.4455 3.97149
6.00569 29.0878 2
8.35512 29.7587 0.0239419
1.99015 25.446 4
4.364 26.2496 2
6.67891 27.0325 0.0342775
2.85453 23.1494 2
5.17623 24.0953 0.0297306
3.86728 20.9142 0
4.88459 35.2583 3.96743
7.21697 35.3263 2
9.2656 35.3097 0.0234969
2.49882 37.4295 3.97413
4.86714 37.3433 2
7.27474 37.2123 0.0235406
5.02592 39.4673 0.0313489
2.60853 39.7141 2
0.080333 39.9526 4
2.85964 42.0024 0.027115
0.320817 42.3947 2
0.720592 44.8159 0
5.08562 33.2001 3.9668
7.37805 33.4933 2
9.29841 33.7426 0.0234218
3.14835 30.6685 3.97243
5.46093 31.1471 2
7.77722 31.6549 0.0236739
1.27793 27.7943 4
3.68537 28.4463 2
6.00862 29.0876 0.0339265
1.99013 25.446 2
4.36313 26.2488 0.0293014
2.85458 23.1494 0
2.55078 35.1607 3.97387
4.88184 35.2584 2
7.21473 35.3261 0.0233601
0 37.5 4
2.49966 37.4295 2
4.87011 37.3435 0.0317697
2.60739 39.7144 0.0265531
0.0802903 39.9526 2
0.320823 42.3947 0
2.76842 32.9079 3.97352
5.08286 33.2003 2
7.37632 33.4929 0.0231741
0.721173 30.1842 4
3.14968 30.6692 2
5.4649 31.147 0.0334807
1.27779 27.7943 2
3.68429 28.4455 0.0285103
1.99015 25.446 0
0.0806499 35.0474 4
2.5522 35.1607 2
4.88459 35.2583 0.0325673
0 37.5 2
2.49882 37.4295 0.025866
0.080333 39.9526 0
0.32156 32.6054 4
2.76936 32.9084 2
5.08562 33.2001 0.0332023
0.72056 30.1841 2
3.14835 30.6685 0.0275698
1.27793 27.7943 0
0.0802889 35.0474 2
2.55078 35.1607 0.0261329
0 37.5 0
0.320817 32.6053 2
2.76842 32.9079 0.0264763
0.721173 30.1842 0
0.0806499 35.0474 0
0.32156 32.6054 0
CELLS 1910 17190
8 18 6 25 56 2 0 5 16
8 57 23 6 18 17 4 0 2
8 78 36 9 29 31 11 1 7
8 31 11 1 7 79 37 10 30
8 110 57 18 50 48 17 2 14
8 50 18 56 111 14 2 16 49
8 116 62 22 55 52 20 3 15
8 56 25 67 118 16 5 24 53
8 119 63 23 57 54 21 4 17
8 55 22 63 119 15 3 21 54
8 58 26 68 121 18 6 25 56
8 122 65 26 58 57 23 6 18
8 73 31 7 27 142 79 30 71
8 143 78 29 72 73 31 7 27
8 83 147 76 34 32 74 28 8
8 84 148 78 36 33 75 29 9
8 76 34 8 28 148 84 33 75
8 37 79 150 86 10 30 77 35
8 151 87 36 78 80 38 11 31
8 80 38 11 31 152 88 37 79
8 175 100 42 94 96 44 12 40
8 44 96 176 101 12 40 95 43
8 101 176 98 46 43 95 41 13
8 46 98 178 103 13 41 97 45
8 178 103 45 97 147 83 32 74
8 189 116 55 109 106 52 15 47
8 111 56 118 191 49 16 53 107
8 192 119 57 110 108 54 17 48
8 109 55 119 192 47 15 54 108
8 194 122 58 112 110 57 18 50
8 112 58 121 195 50 18 56 111
8 115 61 19 51 197 124 59 113
8 115 61 125 198 51 19 60 114
8 198 125 62 116 114 60 20 52
8 200 127 64 120 116 62 22 55
8 118 67 132 202 53 24 66 117
8 121 68 133 203 56 25 67 118
8 120 64 128 204 55 22 63 119
8 204 128 65 122 119 63 23 57
8 206 134 68 121 123 69 26 58
8 123 69 26 58 207 131 65 122
8 226 147 74 138 140 76 28 70
8 229 148 75 139 143 78 29 72
8 140 76 28 70 229 148 75 139
8 142 79 30 71 231 150 77 141
8 144 80 31 73 232 152 79 142
8 233 151 78 143 144 80 31 73
8 150 86 35 77 235 154 81 145
8 235 154 81 145 146 82 39 91
8 146 82 39 91 236 155 90 165
8 238 157 83 147 149 85 34 76
8 239 158 84 148 151 87 36 78
8 149 85 34 76 239 158 84 148
8 152 88 37 79 241 160 86 150
8 242 161 87 151 153 89 38 80
8 153 89 38 80 243 162 88 152
8 171 98 41 92 265 178 97 169
8 265 178 97 169 226 147 74 138
8 172 96 40 93 266 176 95 170
8 266 176 95 170 171 98 41 92
8 269 175 94 173 172 96 40 93
8 271 180 99 174 175 100 42 94
8 197 124 59 113 271 180 99 174
8 272 181 100 175 177 102 44 96
8 273 182 101 176 179 104 46 98
8 177 102 44 96 273 182 101 176
8 179 104 46 98 275 184 103 178
8 275 184 103 178 238 157 83 147
8 188 115 51 105 283 197 113 186
8 188 115 198 284 105 51 114 187
8 284 198 116 189 187 114 52 106
8 286 200 120 193 189 116 55 109
8 191 118 202 288 107 53 117 190
8 195 121 203 289 111 56 118 191
8 193 120 204 290 109 55 119 192
8 290 204 122 194 192 119 57 110
8 196 123 58 112 292 207 122 194
8 293 206 121 195 196 123 58 112
8 199 126 61 115 297 211 124 197
8 298 212 127 200 198 125 62 116
8 199 126 212 298 115 61 125 198
8 205 129 64 120 300 214 127 200
8 301 217 130 201 202 132 66 117
8 209 136 168 264 301 217 130 201
8 302 219 132 202 203 133 67 118
8 303 220 133 203 206 134 68 121
8 205 129 215 304 120 64 128 204
8 304 215 131 207 204 128 65 122
8 306 221 134 206 208 135 69 123
8 208 135 69 123 307 218 131 207
8 210 137 167 263 309 223 136 209
8 328 238 147 226 230 149 76 140
8 228 146 91 166 329 236 165 260
8 231 150 77 141 330 235 145 227
8 330 235 145 227 228 146 91 166
8 332 239 148 229 233 151 78 143
8 230 149 76 140 332 239 148 229
8 232 152 79 142 334 241 150 231
8 234 153 80 144 335 243 152 232
8 336 242 151 233 234 153 80 144
8 236 155 90 165 338 245 164 259
8 241 160 86 150 339 246 154 235
8 339 246 154 235 237 156 82 146
8 237 156 82 146 340 247 155 236
8 342 249 157 238 240 159 85 149
8 343 250 158 239 242 161 87 151
8 240 159 85 149 343 250 158 239
8 243 162 88 152 345 252 160 241
8 244 163 253 346 153 89 161 242
8 244 163 89 153 347 254 162 243
8 311 224 261 371 210 137 167 263
8 263 167 262 372 209 136 168 264
8 267 179 98 171 375 275 178 265
8 375 275 178 265 328 238 147 226
8 376 273 176 266 267 179 98 171
8 268 177 96 172 376 273 176 266
8 379 272 175 269 268 177 96 172
8 380 271 174 270 269 175 94 173
8 283 197 113 186 380 271 174 270
8 381 277 180 271 272 181 100 175
8 297 211 124 197 381 277 180 271
8 382 278 181 272 274 183 102 177
8 274 183 102 177 383 279 182 273
8 383 279 182 273 276 185 104 179
8 385 281 184 275 342 249 157 238
8 276 185 104 179 385 281 184 275
8 285 199 115 188 393 297 197 283
8 394 298 200 286 284 198 116 189
8 285 199 298 394 188 115 198 284
8 291 205 120 193 396 300 200 286
8 397 301 201 287 288 202 117 190
8 295 209 264 374 397 301 201 287
8 398 302 202 288 289 203 118 191
8 399 303 203 289 293 206 121 195
8 291 205 304 400 193 120 204 290
8 400 304 207 292 290 204 122 194
8 294 208 123 196 402 307 207 292
8 403 306 206 293 294 208 123 196
8 296 210 263 373 405 309 209 295
8 408 312 213 299 297 211 126 199
8 299 213 313 409 199 126 212 298
8 409 313 214 300 298 212 127 200
8 305 216 129 205 411 315 214 300
8 412 318 217 301 302 219 132 202
8 309 223 136 209 412 318 217 301
8 413 320 219 302 303 220 133 203
8 306 221 321 414 206 134 220 303
8 307 218 131 207 415 316 215 304
8 305 216 316 415 205 129 215 304
8 417 322 221 306 308 222 135 208
8 308 222 135 208 418 319 218 307
8 310 225 137 210 420 325 223 309
8 423 326 224 311 310 225 137 210
8 329 236 165 260 441 338 259 368
8 442 342 238 328 333 240 149 230
8 331 237 146 228 443 340 236 329
8 334 241 150 231 444 339 235 330
8 444 339 235 330 331 237 146 228
8 446 343 239 332 336 242 151 233
8 333 240 149 230 446 343 239 332
8 335 243 152 232 448 345 241 334
8 337 244 153 234 449 347 243 335
8 337 244 346 450 234 153 242 336
8 338 245 164 259 452 349 258 367
8 340 247 155 236 453 350 245 338
8 345 252 160 241 454 351 246 339
8 454 351 246 339 341 248 156 237
8 341 248 156 237 455 352 247 340
8 240 159 251 344 342 249 354 457
8 242 161 253 346 343 250 355 458
8 343 250 355 458 240 159 251 344
8 347 254 162 243 460 357 252 345
8 348 255 358 461 244 163 253 346
8 348 255 163 244 462 359 254 347
8 473 360 257 365 363 256 364 482
8 452 349 258 367 365 257 366 485
8 422 324 369 488 311 224 261 371
8 371 261 370 490 263 167 262 372
8 407 311 371 491 296 210 263 373
8 373 263 372 492 295 209 264 374
8 493 385 275 375 442 342 238 328
8 377 276 179 267 493 385 275 375
8 378 274 177 268 494 383 273 376
8 494 383 273 376 377 276 179 267
8 497 382 272 379 378 274 177 268
8 498 381 271 380 379 272 175 269
8 393 297 197 283 498 381 271 380
8 499 387 277 381 382 278 181 272
8 408 312 211 297 499 387 277 381
8 500 388 278 382 384 280 183 274
8 501 389 279 383 386 282 185 276
8 384 280 183 274 501 389 279 383
8 386 282 185 276 503 391 281 385
8 503 391 281 385 457 354 249 342
8 511 408 299 395 393 297 199 285
8 395 299 409 512 285 199 298 394
8 512 409 300 396 394 298 200 286
8 401 305 205 291 514 411 300 396
8 515 412 301 397 398 302 202 288
8 405 309 209 295 515 412 301 397
8 516 413 302 398 399 303 203 289
8 403 306 414 517 293 206 303 399
8 402 307 207 292 518 415 304 400
8 401 305 415 518 291 205 304 400
8 404 308 208 294 520 418 307 402
8 521 417 306 403 404 308 208 294
8 406 310 210 296 523 420 309 405
8 526 423 311 407 406 310 210 296
8 410 314 213 299 527 424 312 408
8 528 425 315 411 409 313 214 300
8 410 314 425 528 299 213 313 409
8 416 317 216 305 530 427 315 411
8 531 430 318 412 413 320 219 302
8 420 325 223 309 531 430 318 412
8 532 432 320 413 414 321 220 303
8 417 322 433 533 306 221 321 414
8 418 319 218 307 534 428 316 415
8 416 317 428 534 305 216 316 415
8 419 323 434 536 308 222 322 417
8 419 323 222 308 537 431 319 418
8 421 327 225 310 539 438 325 420
8 421 327 439 541 310 225 326 423
8 543 437 324 422 423 326 224 311
8 441 338 259 368 559 452 367 486
8 443 340 236 329 560 453 338 441
8 333 240 344 447 442 342 457 561
8 445 341 237 331 562 455 340 443
8 448 345 241 334 563 454 339 444
8 563 454 339 444 445 341 237 331
8 336 242 346 450 446 343 458 565
8 446 343 458 565 333 240 344 447
8 449 347 243 335 567 460 345 448
8 451 348 244 337 568 462 347 449
8 451 348 461 569 337 244 346 450
8 570 463 349 452 473 360 257 365
8 453 350 245 338 570 463 349 452
8 455 352 247 340 571 464 350 453
8 460 357 252 345 572 465 351 454
8 572 465 351 454 456 353 248 341
8 456 353 248 341 573 466 352 455
8 344 251 356 459 457 354 468 575
8 458 355 469 576 344 251 356 459
8 346 253 358 461 458 355 469 576
8 462 359 254 347 578 471 357 460
8 348 255 359 462 461 358 472 579
8 591 474 360 473 475 361 256 363
8 475 361 256 363 594 477 362 479
8 363 256 364 482 479 362 480 603
8 590 473 365 484 481 363 482 605
8 482 364 257 365 606 483 366 485
8 559 452 367 486 484 365 485 607
8 542 436 487 609 422 324 369 488
8 525 422 488 611 407 311 371 491
8 488 369 489 612 371 261 370 490
8 491 371 490 613 373 263 372 492
8 495 386 276 377 614 503 385 493
8 614 503 385 493 561 457 342 442
8 615 501 383 494 495 386 276 377
8 496 384 274 378 615 501 383 494
8 618 500 382 497 496 384 274 378
8 619 499 381 498 497 382 272 379
8 511 408 297 393 619 499 381 498
8 620 505 387 499 500 388 278 382
8 527 424 312 408 620 505 387 499
8 502 390 506 621 384 280 388 500
8 622 507 389 501 504 392 282 386
8 502 390 280 384 622 507 389 501
8 504 392 282 386 624 509 391 503
8 624 509 391 503 575 468 354 457
8 513 410 299 395 630 527 408 511
8 631 528 411 514 512 409 300 396
8 513 410 528 631 395 299 409 512
8 519 416 305 401 633 530 411 514
8 634 531 412 515 516 413 302 398
8 523 420 309 405 634 531 412 515
8 635 532 413 516 517 414 303 399
8 521 417 533 636 403 306 414 517
8 520 418 307 402 637 534 415 518
8 519 416 534 637 401 305 415 518
8 522 419 308 404 639 537 418 520
8 522 419 536 640 404 308 417 521
8 524 421 310 406 642 539 420 523
8 524 421 541 644 406 310 423 526
8 646 543 422 525 526 423 311 407
8 529 426 314 410 647 544 424 527
8 528 425 545 648 411 315 427 530
8 529 426 545 648 410 314 425 528
8 535 429 317 416 649 546 427 530
8 650 548 430 531 532 432 320 413
8 539 438 325 420 650 548 430 531
8 533 433 550 651 414 321 432 532
8 536 434 551 652 417 322 433 533
8 537 431 319 418 653 547 428 534
8 535 429 547 653 416 317 428 534
8 538 435 552 654 419 323 434 536
8 538 435 323 419 655 549 431 537
8 540 440 327 421 657 556 438 539
8 540 440 557 659 421 327 439 541
8 541 439 555 660 423 326 437 543
8 661 554 436 542 543 437 324 422
8 676 570 452 559 590 473 365 484
8 560 453 338 441 676 570 452 559
8 562 455 340 443 677 571 453 560
8 447 344 459 566 561 457 575 678
8 564 456 341 445 679 573 455 562
8 567 460 345 448 680 572 454 563
8 680 572 454 563 564 456 341 445
8 565 458 576 682 447 344 459 566
8 450 346 461 569 565 458 576 682
8 568 462 347 449 684 578 460 567
8 451 348 462 568 569 461 579 685
8 686 580 463 570 591 474 360 473
8 571 464 350 453 686 580 463 570
8 573 466 352 455 687 581 464 571
8 572 465 582 688 460 357 471 578
8 574 467 582 688 456 353 465 572
8 574 467 353 456 689 583 466 573
8 459 356 470 577 575 468 585 691
8 576 469 586 692 459 356 470 577
8 461 358 472 579 576 469 586 692
8 462 359 471 578 579 472 588 694
8 704 591 473 590 593 475 363 481
8 595 476 592 705 475 361 474 591
8 593 475 363 481 707 594 479 602
8 594 477 362 479 709 598 478 600
8 595 476 361 475 711 597 477 594
8 479 362 480 603 600 478 601 720
8 481 363 482 605 602 479 603 722
8 603 480 364 482 723 604 483 606
8 605 482 365 484 724 606 485 607
8 656 553 608 726 542 436 487 609
8 645 542 609 728 525 422 488 611
8 609 487 610 729 488 369 489 612
8 611 488 612 730 491 371 490 613
8 616 504 386 495 731 624 503 614
8 731 624 503 614 678 575 457 561
8 732 622 501 615 616 504 386 495
8 617 502 384 496 732 622 501 615
8 617 502 621 735 496 384 500 618
8 736 620 499 619 618 500 382 497
8 630 527 408 511 736 620 499 619
8 621 506 626 737 500 388 505 620
8 647 544 424 527 737 626 505 620
8 623 508 627 738 502 390 506 621
8 623 508 390 502 739 628 507 622
8 625 510 628 739 504 392 507 622
8 740 629 509 624 691 585 468 575
8 625 510 392 504 740 629 509 624
8 632 529 410 513 744 647 527 630
8 631 528 648 745 514 411 530 633
8 632 529 648 745 513 410 528 631
8 638 535 416 519 746 649 530 633
8 747 650 531 634 635 532 413 516
8 642 539 420 523 747 650 531 634
8 636 533 651 748 517 414 532 635
8 640 536 652 749 521 417 533 636
8 639 537 418 520 750 653 534 637
8 638 535 653 750 519 416 534 637
8 641 538 419 522 751 655 537 639
8 641 538 654 752 522 419 536 640
8 643 540 421 524 753 657 539 642
8 643 540 659 755 524 421 541 644
8 644 541 660 757 526 423 543 646
8 758 661 542 645 646 543 422 525
8 529 426 544 647 648 545 662 759
8 530 427 545 648 649 546 663 760
8 535 429 546 649 653 547 664 761
8 762 666 548 650 651 550 432 532
8 657 556 438 539 762 666 548 650
8 652 551 668 763 533 433 550 651
8 654 552 669 764 536 434 551 652
8 655 549 431 537 765 665 547 653
8 538 435 549 655 654 552 667 766
8 661 554 671 768 542 436 553 656
8 658 558 440 540 769 674 556 657
8 658 558 675 770 540 440 557 659
8 659 557 673 771 541 439 555 660
8 660 555 672 772 543 437 554 661
8 788 686 570 676 704 591 473 590
8 677 571 453 560 788 686 570 676
8 679 573 455 562 789 687 571 677
8 566 459 577 683 678 575 691 790
8 681 574 456 564 791 689 573 679
8 680 572 688 792 567 460 578 684
8 681 574 688 792 564 456 572 680
8 682 576 692 794 566 459 577 683
8 569 461 579 685 682 576 692 794
8 568 462 578 684 685 579 694 796
8 687 581 464 571 798 696 580 686
8 798 696 580 686 705 592 474 591
8 689 583 466 573 799 697 581 687
8 688 582 698 800 578 471 588 694
8 690 584 698 800 574 467 582 688
8 690 584 467 574 801 699 583 689
8 693 587 701 803 577 470 585 691
8 693 587 470 577 804 702 586 692
8 695 589 702 804 579 472 586 692
8 695 589 472 579 805 703 588 694
8 708 595 705 813 593 475 591 704
8 710 596 706 814 595 476 592 705
8 707 594 479 602 816 709 600 719
8 708 595 475 593 817 711 594 707
8 709 598 478 600 819 715 599 717
8 711 597 477 594 820 714 598 709
8 710 596 476 595 822 713 597 711
8 600 478 601 720 717 599 718 832
8 602 479 603 722 719 600 720 834
8 720 601 480 603 835 721 604 723
8 722 603 482 605 836 723 606 724
8 767 670 725 839 656 553 608 726
8 756 656 726 841 645 542 609 728
8 726 608 727 842 609 487 610 729
8 728 609 729 843 611 488 612 730
8 844 740 624 731 790 691 575 678
8 733 625 504 616 844 740 624 731
8 734 623 502 617 845 739 622 732
8 733 625 739 845 616 504 622 732
8 734 623 738 846 617 502 621 735
8 735 621 737 847 618 500 620 736
8 744 647 527 630 847 737 620 736
8 621 506 627 738 737 626 741 848
8 647 544 626 737 759 662 741 848
8 623 508 628 739 738 627 742 849
8 740 629 585 691 850 743 700 802
8 625 510 629 740 739 628 743 850
8 632 529 647 744 745 648 759 854
8 633 530 648 745 746 649 760 855
8 638 535 649 746 750 653 761 856
8 857 762 650 747 748 651 532 635
8 753 657 539 642 857 762 650 747
8 749 652 763 858 636 533 651 748
8 752 654 764 859 640 536 652 749
8 751 655 537 639 860 765 653 750
8 641 538 655 751 752 654 766 861
8 754 658 540 643 862 769 657 753
8 754 658 770 863 643 540 659 755
8 755 659 771 864 644 541 660 757
8 758 661 768 866 645 542 656 756
8 757 660 772 867 646 543 661 758
8 759 662 773 868 648 545 663 760
8 649 546 663 760 761 664 774 871
8 765 665 547 653 872 775 664 761
8 873 777 666 762 763 668 550 651
8 769 674 556 657 873 777 666 762
8 764 669 779 874 652 551 668 763
8 654 552 667 766 764 669 778 875
8 655 549 665 765 766 667 776 876
8 768 671 782 877 656 553 670 767
8 772 672 783 878 661 554 671 768
8 658 558 674 769 770 675 786 879
8 659 557 675 770 771 673 785 881
8 882 784 672 772 771 673 555 660
8 789 687 571 677 897 798 686 788
8 897 798 686 788 813 705 591 704
8 791 689 573 679 898 799 687 789
8 795 693 803 900 683 577 691 790
8 793 690 574 681 901 801 689 791
8 792 688 800 902 684 578 694 796
8 793 690 800 902 681 574 688 792
8 795 693 577 683 903 804 692 794
8 797 695 804 903 685 579 692 794
8 797 695 579 685 904 805 694 796
8 905 806 697 799 798 696 581 687
8 814 706 806 905 705 592 696 798
8 689 583 697 799 801 699 808 907
8 800 698 809 908 694 588 703 805
8 690 584 699 801 800 698 809 908
8 803 701 810 909 691 585 700 802
8 693 587 702 804 803 701 811 910
8 695 589 703 805 804 702 812 911
8 818 710 814 919 708 595 705 813
8 821 712 815 920 710 596 706 814
8 816 709 600 719 922 819 717 831
8 817 711 594 707 923 820 709 816
8 818 710 595 708 924 822 711 817
8 819 715 599 717 926 827 716 829
8 820 714 598 709 927 826 715 819
8 929 825 713 822 820 714 597 711
8 821 712 596 710 930 824 713 822
8 717 599 718 832 829 716 830 942
8 719 600 720 834 831 717 832 944
8 832 718 601 720 945 833 721 835
8 834 720 603 722 946 835 723 836
8 869 780 838 950 767 670 725 839
8 865 767 839 952 756 656 726 841
8 839 725 840 953 726 608 727 842
8 841 726 842 954 728 609 729 843
8 844 740 691 790 955 850 802 899
8 733 625 740 844 845 739 850 955
8 734 623 739 845 846 738 849 956
8 735 621 738 846 847 737 848 957
8 744 647 737 847 854 759 848 957
8 738 627 742 849 848 741 851 958
8 848 741 851 958 759 662 773 868
8 850 743 700 802 959 852 807 906
8 849 742 628 739 959 852 743 850
8 854 759 868 965 745 648 760 855
8 746 649 760 855 856 761 871 966
8 860 765 653 750 967 872 761 856
8 968 873 762 857 858 763 651 748
8 862 769 657 753 968 873 762 857
8 859 764 874 969 749 652 763 858
8 752 654 766 861 859 764 875 970
8 751 655 765 860 861 766 876 971
8 754 658 769 862 863 770 879 972
8 755 659 770 863 864 771 881 974
8 976 882 772 867 864 771 660 757
8 866 768 877 977 756 656 767 865
8 867 772 878 978 758 661 768 866
8 760 663 773 868 871 774 883 980
8 870 781 837 948 982 890 780 869
8 982 890 780 869 877 782 670 767
8 761 664 774 871 872 775 884 984
8 876 776 665 765 985 885 775 872
8 873 777 668 763 986 887 779 874
8 769 674 777 873 879 786 887 986
8 764 669 778 875 874 779 888 987
8 766 667 776 876 875 778 886 988
8 878 783 892 989 768 671 782 877
8 878 783 672 772 990 893 784 882
8 880 787 675 770 991 896 786 879
8 880 787 895 992 770 675 785 881
8 881 785 894 993 771 673 784 882
8 1006 905 799 898 897 798 687 789
8 919 814 905 1006 813 705 798 897
8 791 689 799 898 901 801 907 1007
8 900 803 909 1009 790 691 802 899
8 795 693 804 903 900 803 910 1010
8 902 800 908 1011 796 694 805 904
8 793 690 801 901 902 800 908 1011
8 797 695 805 904 903 804 911 1012
8 799 697 806 905 907 808 912 1013
8 920 815 912 1013 814 706 806 905
8 802 700 810 909 906 807 913 1014
8 801 699 808 907 908 809 914 1015
8 805 703 809 908 911 812 915 1016
8 803 701 811 910 909 810 916 1017
8 911 812 917 1018 804 702 811 910
8 925 821 920 1030 818 710 814 919
8 928 823 921 1031 821 712 815 920
8 922 819 717 831 1033 926 829 941
8 923 820 709 816 1034 927 819 922
8 1035 929 822 924 923 820 711 817
8 925 821 710 818 1036 930 822 924
8 1038 933 825 929 927 826 714 820
8 926 827 716 829 1039 935 828 939
8 927 826 715 819 1040 934 827 926
8 928 823 712 821 1041 931 824 930
8 1042 932 824 930 929 825 713 822
8 829 716 830 942 939 828 940 1058
8 831 717 832 944 941 829 942 1060
8 942 830 718 832 1061 943 833 945
8 944 832 720 834 1062 945 835 946
8 981 889 947 1064 870 781 837 948
8 948 837 949 1067 869 780 838 950
8 975 869 950 1069 865 767 839 952
8 950 838 951 1070 839 725 840 953
8 952 839 953 1071 841 726 842 954
8 955 850 802 899 1072 959 906 1008
8 956 849 739 845 1072 959 850 955
8 846 738 849 956 957 848 958 1073
8 957 848 958 1073 854 759 868 965
8 849 742 852 959 958 851 961 1076
8 960 853 961 1076 906 807 852 959
8 958 851 961 1076 868 773 883 980
8 960 853 807 906 1077 963 913 1014
8 855 760 868 965 966 871 980 1085
8 856 761 871 966 967 872 984 1086
8 971 876 765 860 1087 985 872 967
8 968 873 763 858 1088 986 874 969
8 862 769 873 968 972 879 986 1088
8 859 764 875 970 969 874 987 1089
8 861 766 876 971 970 875 988 1090
8 973 880 770 863 1091 991 879 972
8 973 880 992 1092 863 770 881 974
8 974 881 993 1093 864 771 882 976
8 979 870 948 1066 1094 982 869 975
8 1094 982 869 975 977 877 767 865
8 978 878 772 867 1095 990 882 976
8 978 878 989 1096 866 768 877 977
8 871 774 883 980 984 884 994 1099
8 983 891 999 1100 870 781 889 981
8 1101 1000 890 982 989 892 782 877
8 983 891 781 870 1101 1000 890 982
8 872 775 884 984 985 885 995 1103
8 876 776 885 985 988 886 996 1104
8 986 887 779 874 1105 998 888 987
8 879 786 887 986 991 896 998 1105
8 875 778 886 988 987 888 997 1106
8 990 893 1002 1107 878 783 892 989
8 1108 1003 893 990 993 894 784 882
8 880 787 896 991 992 895 1005 1109
8 993 894 785 881 1110 1004 895 992
8 898 799 905 1006 1007 907 1013 1120
8 1030 920 1013 1120 919 814 905 1006
8 901 801 907 1007 1011 908 1015 1121
8 899 802 909 1009 1008 906 1014 1122
8 900 803 910 1010 1009 909 1017 1123
8 1012 911 1018 1124 903 804 910 1010
8 904 805 908 1011 1012 911 1016 1125
8 1013 912 1020 1127 907 808 914 1015
8 1031 921 1020 1127 920 815 912 1013
8 1019 918 962 1075 1128 1021 913 1014
8 1128 1021 913 1014 1017 916 810 909
8 1015 914 1022 1129 908 809 915 1016
8 1016 915 1023 1130 911 812 917 1018
8 1018 917 1024 1131 910 811 916 1017
8 1037 928 1031 1148 925 821 920 1030
8 928 823 931 1041 1031 921 1032 1149
8 1033 926 829 941 1151 1039 939 1057
8 1034 927 819 922 1152 1040 926 1033
8 1153 1038 929 1035 1034 927 820 923
8 1154 1042 930 1036 1035 929 822 924
8 1037 928 821 925 1155 1041 930 1036
8 1039 935 828 939 1156 1047 938 1055
8 1157 1043 932 1042 1038 933 825 929
8 1038 933 826 927 1158 1045 934 1040
8 1040 934 827 926 1159 1046 935 1039
8 930 824 932 1042 1041 931 1044 1160
8 1051 936 1048 1165 1175 1052 937 1053
8 1156 1047 938 1055 1053 937 1054 1178
8 939 828 940 1058 1055 938 1056 1181
8 941 829 942 1060 1057 939 1058 1183
8 942 830 943 1061 1058 940 1059 1184
8 1060 942 832 944 1185 1061 945 1062
8 1082 964 1063 1188 981 889 947 1064
8 1097 981 1064 1190 979 870 948 1066
8 1064 947 1065 1191 948 837 949 1067
8 1066 948 1067 1193 975 869 950 1069
8 1067 949 1068 1194 950 838 951 1070
8 1069 950 1070 1195 952 839 953 1071
8 956 849 959 1072 1073 958 1076 1197
8 1074 960 1076 1197 1008 906 959 1072
8 1073 958 1076 1197 965 868 980 1085
8 1074 960 906 1008 1198 1077 1014 1122
8 1133 1026 1079 1199 1019 918 962 1075
8 1077 963 913 1014 1200 1080 962 1075
8 960 853 963 1077 1076 961 1078 1201
8 980 883 961 1076 1099 994 1078 1201
8 1210 1083 964 1082 1100 999 889 981
8 966 871 980 1085 1086 984 1099 1215
8 967 872 984 1086 1087 985 1103 1216
8 971 876 985 1087 1090 988 1104 1217
8 1088 986 874 969 1218 1105 987 1089
8 972 879 986 1088 1091 991 1105 1218
8 970 875 988 1090 1089 987 1106 1219
8 973 880 991 1091 1092 992 1109 1220
8 1093 993 881 974 1221 1110 992 1092
8 1222 1108 990 1095 1093 993 882 976
8 1223 1101 982 1094 1096 989 877 977
8 1098 983 870 979 1223 1101 982 1094
8 1095 990 1107 1224 978 878 989 1096
8 1098 983 1100 1225 979 870 981 1097
8 984 884 994 1099 1103 995 1111 1227
8 1102 1001 1115 1228 983 891 999 1100
8 1101 1000 892 989 1229 1116 1002 1107
8 1102 1001 891 983 1229 1116 1000 1101
8 985 885 995 1103 1104 996 1112 1230
8 988 886 996 1104 1106 997 1113 1231
8 1105 998 888 987 1232 1114 997 1106
8 991 896 998 1105 1109 1005 1114 1232
8 1108 1003 1117 1233 990 893 1002 1107
8 1108 1003 894 993 1233 1117 1004 1110
8 992 895 1005 1109 1110 1004 1118 1234
8 1120 1013 1127 1244 1007 907 1015 1121
8 1148 1031 1127 1244 1030 920 1013 1120
8 1121 1015 1129 1245 1011 908 1016 1125
8 1126 1019 1075 1196 1246 1128 1014 1122
8 1246 1128 1014 1122 1123 1017 909 1009
8 1124 1018 1131 1247 1010 910 1017 1123
8 1125 1016 1130 1248 1012 911 1018 1124
8 1127 1020 1137 1254 1015 914 1022 1129
8 1031 921 1032 1149 1127 1020 1137 1254
8 1134 1027 918 1019 1257 1140 1021 1128
8 1257 1140 1021 1128 1131 1024 916 1017
8 1129 1022 1141 1258 1016 915 1023 1130
8 1130 1023 1142 1259 1018 917 1024 1131
8 1261 1144 1025 1132 1133 1026 1079 1199
8 1255 1138 1025 1132 1135 1028 1144 1261
8 1133 1026 918 1019 1262 1145 1027 1134
8 1136 1029 1139 1256 1263 1146 1028 1135
8 1037 928 1041 1155 1148 1031 1149 1275
8 1041 931 1044 1160 1149 1032 1150 1276
8 1151 1039 939 1057 1278 1156 1055 1180
8 1152 1040 926 1033 1279 1159 1039 1151
8 1153 1038 927 1034 1280 1158 1040 1152
8 1281 1157 1042 1154 1153 1038 929 1035
8 1036 930 1042 1154 1155 1041 1160 1282
8 1283 1164 1046 1159 1156 1047 935 1039
8 1165 1048 1164 1283 1053 937 1047 1156
8 1157 1043 933 1038 1284 1161 1045 1158
8 1157 1043 1161 1284 1042 932 1044 1160
8 1040 934 1046 1159 1158 1045 1163 1285
8 1166 1049 1167 1292 1051 936 1048 1165
8 1166 1049 936 1051 1293 1168 1050 1172
8 1051 936 1052 1175 1172 1050 1173 1306
8 1174 1051 1165 1290 1308 1175 1053 1177
8 1053 937 1054 1178 1175 1052 1176 1309
8 1278 1156 1055 1180 1177 1053 1178 1311
8 1055 938 1056 1181 1178 1054 1179 1312
8 1057 939 1058 1183 1180 1055 1181 1314
8 1058 940 1059 1184 1181 1056 1182 1315
8 1060 942 1061 1185 1183 1058 1184 1316
8 1208 1081 1187 1321 1082 964 1063 1188
8 1209 1082 1188 1322 1097 981 1064 1190
8 1188 1063 1189 1323 1064 947 1065 1191
8 1190 1064 1191 1325 1066 948 1067 1193
8 1191 1065 1192 1326 1067 949 1068 1194
8 1067 1193 1069 950 1194 1327 1195 1070
8 1250 1133 1199 1330 1126 1019 1075 1196
8 1198 1077 1014 1122 1331 1200 1075 1196
8 1074 960 1077 1198 1197 1076 1201 1332
8 1085 980 1076 1197 1215 1099 1201 1332
8 1199 1079 1203 1333 1075 962 1080 1200
8 1132 1025 1119 1243 1199 1079 1203 1333
8 1201 1078 963 1077 1334 1202 1080 1200
8 1099 994 1078 1201 1227 1111 1202 1334
8 1343 1207 1081 1208 1210 1083 964 1082
8 1214 1084 1186 1319 1343 1207 1081 1208
8 1345 1210 1082 1209 1225 1100 981 1097
8 1346 1211 1083 1210 1228 1115 999 1100
8 1086 984 1099 1215 1216 1103 1227 1352
8 1087 985 1103 1216 1217 1104 1230 1353
8 1090 988 1104 1217 1219 1106 1231 1354
8 1218 1105 987 1089 1355 1232 1106 1219
8 1091 991 1105 1218 1220 1109 1232 1355
8 1092 992 1109 1220 1221 1110 1234 1356
8 1222 1108 1233 1357 1095 990 1107 1224
8 1222 1108 993 1093 1357 1233 1110 1221
8 1223 1101 989 1096 1358 1229 1107 1224
8 1226 1102 983 1098 1358 1229 1101 1223
8 1226 1102 1228 1359 1098 983 1100 1225
8 1103 995 1111 1227 1230 1112 1235 1360
8 1107 1002 1117 1233 1229 1116 1240 1362
8 1102 1001 1116 1229 1228 1115 1240 1362
8 1104 996 1112 1230 1231 1113 1236 1363
8 1364 1237 1114 1232 1231 1113 997 1106
8 1109 1005 1114 1232 1234 1118 1238 1365
8 1110 1004 1118 1234 1233 1117 1241 1366
8 1242 1374 1255 1138 1119 1243 1132 1025
8 1244 1127 1254 1376 1121 1015 1129 1245
8 1148 1031 1149 1275 1244 1127 1254 1376
8 1245 1129 1258 1377 1125 1016 1130 1248
8 1251 1134 1019 1126 1378 1257 1128 1246
8 1378 1257 1128 1246 1247 1131 1017 1123
8 1248 1130 1259 1379 1124 1018 1131 1247
8 1261 1381 1250 1133 1132 1249 1330 1199
8 1255 1380 1252 1135 1132 1249 1381 1261
8 1250 1133 1019 1126 1382 1262 1134 1251
8 1253 1136 1256 1385 1384 1263 1135 1252
8 1254 1137 1265 1387 1129 1022 1141 1258
8 1149 1032 1150 1276 1254 1137 1265 1387
8 1028 1135 1255 1138 1139 1256 1388 1266
8 1136 1029 1147 1264 1256 1139 1267 1389
8 1390 1268 1140 1257 1259 1142 1024 1131
8 1260 1143 1027 1134 1390 1268 1140 1257
8 1258 1141 1269 1391 1130 1023 1142 1259
8 1262 1145 1027 1134 1393 1271 1143 1260
8 1261 1144 1026 1133 1394 1272 1145 1262
8 1135 1028 1144 1261 1263 1146 1272 1394
8 1136 1029 1146 1263 1264 1147 1273 1395
8 1155 1041 1160 1282 1275 1149 1276 1405
8 1276 1150 1044 1160 1406 1277 1162 1286
8 1408 1283 1159 1279 1278 1156 1039 1151
8 1290 1165 1283 1408 1177 1053 1156 1278
8 1152 1040 1159 1279 1280 1158 1285 1409
8 1281 1157 1038 1153 1410 1284 1158 1280
8 1281 1157 1284 1410 1154 1042 1160 1282
8 1159 1046 1164 1283 1285 1163 1289 1412
8 1292 1167 1289 1412 1165 1048 1164 1283
8 1158 1045 1163 1285 1284 1161 1288 1413
8 1284 1161 1288 1413 1160 1044 1162 1286
8 1291 1166 1292 1418 1174 1051 1165 1290
8 1291 1166 1051 1174 1419 1293 1172 1305
8 1294 1169 1296 1421 1166 1049 1167 1292
8 1293 1168 1050 1172 1422 1295 1171 1303
8 1294 1169 1049 1166 1423 1297 1168 1293
8 1422 1295 1171 1303 1301 1170 1302 1435
8 1172 1050 1173 1306 1303 1171 1304 1438
8 1174 1051 1175 1308 1305 1172 1306 1440
8 1175 1052 1176 1309 1306 1173 1307 1441
8 1177 1053 1178 1311 1308 1175 1309 1443
8 1178 1054 1179 1312 1309 1176 1310 1444
8 1180 1055 1181 1314 1311 1178 1312 1446
8 1056 1181 1312 1179 1182 1315 1447 1313
8 1183 1058 1184 1316 1314 1181 1315 1448
8 1319 1186 1084 1214 1451 1317 1213 1350
8 1319 1186 1318 1453 1208 1081 1187 1321
8 1321 1187 1320 1456 1188 1063 1189 1323
8 1344 1208 1321 1457 1209 1082 1188 1322
8 1322 1188 1323 1458 1190 1064 1191 1325
8 1323 1189 1324 1459 1191 1065 1192 1326
8 1191 1325 1193 1067 1326 1460 1327 1194
8 1242 1374 1243 1119 1328 1462 1335 1204
8 1330 1199 1333 1465 1196 1075 1200 1331
8 1132 1249 1330 1199 1243 1375 1465 1333
8 1332 1201 1077 1198 1466 1334 1200 1331
8 1215 1099 1201 1332 1352 1227 1334 1466
8 1119 1243 1333 1203 1204 1335 1470 1338
8 1333 1203 1338 1470 1200 1080 1202 1334
8 1227 1111 1202 1334 1360 1235 1338 1470
8 1328 1462 1335 1204 1205 1336 1471 1339
8 1337 1206 1340 1472 1464 1329 1205 1336
8 1346 1211 1342 1479 1210 1083 1207 1343
8 1346 1211 1115 1228 1479 1342 1239 1361
8 1348 1212 1084 1214 1479 1342 1207 1343
8 1480 1343 1208 1344 1345 1210 1082 1209
8 1351 1214 1319 1454 1480 1343 1208 1344
8 1481 1346 1210 1345 1359 1228 1100 1225
8 1348 1212 1347 1483 1214 1084 1213 1350
8 1216 1103 1227 1352 1353 1230 1360 1488
8 1217 1104 1230 1353 1354 1231 1363 1489
8 1490 1364 1232 1355 1354 1231 1106 1219
8 1220 1109 1232 1355 1356 1234 1365 1491
8 1221 1110 1234 1356 1357 1233 1366 1492
8 1224 1107 1233 1357 1358 1229 1362 1493
8 1226 1102 1229 1358 1359 1228 1362 1493
8 1230 1112 1235 1360 1363 1236 1367 1496
8 1361 1239 1115 1228 1497 1371 1240 1362
8 1366 1241 1372 1498 1233 1117 1240 1362
8 1364 1237 1113 1231 1499 1368 1236 1363
8 1364 1237 1368 1499 1232 1114 1238 1365
8 1234 1118 1238 1365 1366 1241 1369 1500
8 1507 1373 1242 1374 1388 1266 1138 1255
8 1508 1374 1243 1375 1380 1255 1132 1249
8 1376 1254 1387 1509 1245 1129 1258 1377
8 1275 1149 1276 1405 1376 1254 1387 1509
8 1377 1258 1391 1510 1248 1130 1259 1379
8 1511 1390 1257 1378 1379 1259 1131 1247
8 1383 1260 1134 1251 1511 1390 1257 1378
8 1252 1135 1256 1385 1380 1255 1388 1512
8 1261 1381 1513 1394 1133 1250 1382 1262
8 1135 1252 1384 1263 1261 1381 1513 1394
8 1382 1262 1134 1251 1514 1393 1260 1383
8 1253 1136 1263 1384 1386 1264 1395 1516
8 1253 1136 1264 1386 1385 1256 1389 1517
8 1387 1265 1397 1519 1258 1141 1269 1391
8 1276 1150 1277 1406 1387 1265 1397 1519
8 1256 1139 1267 1389 1388 1266 1398 1520
8 1264 1147 1274 1396 1389 1267 1399 1521
8 1392 1270 1143 1260 1522 1400 1268 1390
8 1390 1268 1142 1259 1522 1400 1269 1391
8 1392 1270 1401 1523 1260 1143 1271 1393
8 1272 1394 1524 1402 1145 1262 1393 1271
8 1395 1273 1146 1263 1524 1402 1272 1394
8 1273 1395 1264 1147 1403 1526 1396 1274
8 1405 1276 1160 1282 1534 1406 1286 1411
8 1414 1287 1407 1535 1286 1162 1277 1406
8 1279 1159 1283 1408 1409 1285 1412 1537
8 1418 1292 1412 1537 1290 1165 1283 1408
8 1280 1158 1285 1409 1410 1284 1413 1538
8 1410 1284 1413 1538 1282 1160 1286 1411
8 1285 1163 1289 1412 1413 1288 1417 1540
8 1421 1296 1417 1540 1292 1167 1289 1412
8 1414 1287 1162 1286 1541 1416 1288 1413
8 1420 1294 1421 1545 1291 1166 1292 1418
8 1419 1293 1172 1305 1546 1422 1303 1437
8 1420 1294 1166 1291 1547 1423 1293 1419
8 1294 1169 1297 1423 1421 1296 1425 1548
8 1423 1297 1168 1293 1549 1424 1295 1422
8 1301 1170 1298 1427 1422 1295 1424 1549
8 1432 1300 1428 1554 1301 1170 1298 1427
8 1431 1299 1428 1554 1560 1430 1300 1432
8 1563 1433 1300 1432 1435 1302 1170 1301
8 1546 1422 1303 1437 1434 1301 1435 1565
8 1303 1171 1304 1438 1435 1302 1436 1566
8 1305 1172 1306 1440 1437 1303 1438 1568
8 1306 1173 1307 1441 1438 1304 1439 1569
8 1308 1175 1309 1443 1440 1306 1441 1571
8 1309 1176 1310 1444 1441 1307 1442 1572
8 1311 1178 1312 1446 1443 1309 1444 1574
8 1179 1312 1444 1310 1313 1447 1575 1445
8 1314 1181 1315 1448 1446 1312 1447 1576
8 1350 1213 1349 1486 1451 1317 1449 1579
8 1451 1317 1450 1581 1319 1186 1318 1453
8 1454 1319 1214 1351 1582 1451 1350 1487
8 1453 1318 1452 1584 1321 1187 1320 1456
8 1454 1319 1453 1585 1344 1208 1321 1457
8 1456 1320 1455 1586 1323 1189 1324 1459
8 1457 1321 1456 1587 1322 1188 1323 1458
8 1458 1323 1459 1588 1325 1191 1326 1460
8 1205 1336 1464 1329 1328 1462 1590 1461
8 1507 1373 1461 1590 1374 1242 1328 1462
8 1508 1374 1462 1591 1375 1243 1335 1467
8 1337 1206 1329 1464 1473 1341 1463 1594
8 1375 1243 1335 1467 1465 1333 1470 1596
8 1465 1333 1470 1596 1331 1200 1334 1466
8 1352 1227 1334 1466 1488 1360 1470 1596
8 1591 1462 1336 1468 1467 1335 1471 1597
8 1469 1337 1472 1598 1595 1464 1336 1468
8 1471 1339 1474 1600 1335 1204 1338 1470
8 1600 1474 1367 1496 1470 1338 1235 1360
8 1336 1205 1340 1472 1471 1339 1475 1601
8 1337 1206 1341 1473 1472 1340 1476 1602
8 1495 1370 1478 1609 1361 1239 1342 1479
8 1348 1212 1342 1479 1483 1347 1478 1609
8 1481 1346 1479 1610 1345 1210 1343 1480
8 1481 1346 1228 1359 1610 1479 1361 1494
8 1484 1348 1214 1351 1610 1479 1343 1480
8 1483 1347 1482 1612 1350 1213 1349 1486
8 1484 1348 1483 1613 1351 1214 1350 1487
8 1353 1230 1360 1488 1489 1363 1496 1616
8 1490 1364 1231 1354 1617 1499 1363 1489
8 1490 1364 1499 1617 1355 1232 1365 1491
8 1356 1234 1365 1491 1492 1366 1500 1619
8 1492 1366 1498 1620 1357 1233 1362 1493
8 1494 1361 1228 1359 1621 1497 1362 1493
8 1495 1370 1239 1361 1622 1504 1371 1497
8 1363 1236 1367 1496 1499 1368 1501 1623
8 1497 1371 1240 1362 1624 1505 1372 1498
8 1625 1503 1372 1498 1500 1369 1241 1366
8 1365 1238 1368 1499 1500 1369 1502 1626
8 1520 1398 1506 1633 1388 1266 1373 1507
8 1634 1507 1374 1508 1512 1388 1255 1380
8 1509 1387 1519 1635 1377 1258 1391 1510
8 1405 1276 1406 1534 1509 1387 1519 1635
8 1515 1392 1260 1383 1636 1522 1390 1511
8 1511 1390 1259 1379 1636 1522 1391 1510
8 1385 1256 1389 1517 1512 1388 1520 1637
8 1513 1394 1262 1382 1638 1524 1393 1514
8 1395 1516 1638 1524 1263 1384 1513 1394
8 1515 1392 1523 1639 1383 1260 1393 1514
8 1516 1395 1526 1640 1386 1264 1396 1518
8 1386 1264 1396 1518 1517 1389 1521 1641
8 1519 1397 1527 1643 1391 1269 1400 1522
8 1535 1407 1527 1643 1406 1277 1397 1519
8 1389 1267 1399 1521 1520 1398 1528 1644
8 1645 1529 1399 1521 1525 1404 1274 1396
8 1392 1270 1400 1522 1523 1401 1531 1646
8 1524 1402 1271 1393 1648 1532 1401 1523
8 1403 1526 1648 1532 1273 1395 1524 1402
8 1525 1404 1274 1396 1649 1533 1403 1526
8 1539 1414 1535 1657 1411 1286 1406 1534
8 1542 1415 1536 1658 1414 1287 1407 1535
8 1409 1285 1412 1537 1538 1413 1540 1660
8 1545 1421 1540 1660 1418 1292 1412 1537
8 1539 1414 1286 1411 1661 1541 1413 1538
8 1540 1417 1544 1663 1413 1288 1416 1541
8 1421 1296 1425 1548 1540 1417 1544 1663
8 1542 1415 1287 1414 1664 1543 1416 1541
8 1420 1294 1423 1547 1545 1421 1548 1666
8 1547 1423 1293 1419 1667 1549 1422 1546
8 1434 1301 1427 1553 1546 1422 1549 1667
8 1423 1297 1424 1549 1548 1425 1550 1668
8 1551 1426 1550 1668 1427 1298 1424 1549
8 1551 1426 1298 1427 1671 1552 1428 1554
8 1562 1432 1554 1674 1434 1301 1427 1553
8 1431 1299 1429 1558 1554 1428 1555 1675
8 1431 1299 1430 1560 1558 1429 1557 1680
8 1560 1430 1300 1432 1683 1559 1433 1563
8 1561 1431 1554 1674 1684 1560 1432 1562
8 1685 1563 1432 1562 1565 1435 1301 1434
8 1435 1302 1436 1566 1563 1433 1564 1686
8 1437 1303 1438 1568 1565 1435 1566 1688
8 1438 1304 1439 1569 1566 1436 1567 1689
8 1440 1306 1441 1571 1568 1438 1569 1691
8 1441 1307 1442 1572 1569 1439 1570 1692
8 1443 1309 1444 1574 1571 1441 1572 1694
8 1310 1444 1572 1442 1445 1575 1695 1573
8 1446 1312 1447 1576 1574 1444 1575 1696
8 1486 1349 1485 1614 1579 1449 1577 1699
8 1451 1317 1449 1579 1581 1450 1578 1701
8 1487 1350 1486 1615 1582 1451 1579 1702
8 1581 1450 1580 1704 1453 1318 1452 1584
8 1582 1451 1581 1705 1454 1319 1453 1585
8 1584 1452 1583 1706 1456 1320 1455 1586
8 1585 1453 1584 1707 1457 1321 1456 1587
8 1587 1456 1586 1708 1458 1323 1459 1588
8 1633 1506 1589 1710 1507 1373 1461 1590
8 1464 1329 1461 1590 1594 1463 1589 1710
8 1468 1336 1462 1591 1595 1464 1590 1711
8 1634 1507 1590 1711 1508 1374 1462 1591
8 1473 1341 1463 1594 1603 1477 1593 1716
8 1469 1337 1464 1595 1599 1473 1594 1717
8 1471 1597 1467 1335 1600 1718 1596 1470
8 1718 1600 1496 1616 1596 1470 1360 1488
8 1336 1468 1597 1471 1472 1598 1719 1601
8 1469 1337 1473 1599 1598 1472 1602 1720
8 1722 1604 1501 1623 1600 1474 1367 1496
8 1475 1601 1471 1339 1604 1722 1600 1474
8 1602 1476 1605 1723 1472 1340 1475 1601
8 1476 1602 1724 1606 1341 1473 1603 1477
8 1483 1347 1478 1609 1612 1482 1608 1731
8 1495 1370 1504 1622 1609 1478 1608 1731
8 1618 1495 1609 1732 1494 1361 1479 1610
8 1484 1348 1479 1610 1613 1483 1609 1732
8 1486 1349 1482 1612 1614 1485 1611 1733
8 1613 1483 1612 1734 1487 1350 1486 1615
8 1489 1363 1496 1616 1617 1499 1623 1736
8 1491 1365 1499 1617 1619 1500 1626 1737
8 1618 1495 1361 1494 1738 1622 1497 1621
8 1739 1625 1498 1620 1619 1500 1366 1492
8 1621 1497 1362 1493 1740 1624 1498 1620
8 1742 1631 1504 1622 1624 1505 1371 1497
8 1743 1628 1502 1626 1623 1501 1368 1499
8 1744 1630 1505 1624 1625 1503 1372 1498
8 1745 1629 1503 1625 1626 1502 1369 1500
8 1520 1398 1528 1644 1633 1506 1632 1751
8 1637 1520 1633 1752 1512 1388 1507 1634
8 1635 1519 1643 1753 1510 1391 1522 1636
8 1657 1535 1643 1753 1534 1406 1519 1635
8 1515 1392 1522 1636 1639 1523 1646 1754
8 1517 1389 1521 1641 1637 1520 1644 1755
8 1524 1638 1756 1648 1393 1514 1639 1523
8 1640 1526 1395 1516 1756 1648 1524 1638
8 1642 1525 1396 1518 1757 1649 1526 1640
8 1758 1645 1521 1641 1642 1525 1396 1518
8 1646 1531 1400 1522 1760 1650 1527 1643
8 1535 1407 1536 1658 1643 1527 1650 1760
8 1521 1399 1529 1645 1644 1528 1651 1761
8 1647 1530 1652 1762 1525 1404 1529 1645
8 1401 1523 1648 1532 1531 1646 1763 1655
8 1525 1404 1533 1649 1647 1530 1654 1765
8 1533 1649 1766 1656 1403 1526 1648 1532
8 1662 1542 1658 1774 1539 1414 1535 1657
8 1542 1415 1543 1664 1658 1536 1659 1775
8 1660 1540 1663 1777 1538 1413 1541 1661
8 1545 1421 1548 1666 1660 1540 1663 1777
8 1662 1542 1414 1539 1778 1664 1541 1661
8 1664 1543 1416 1541 1779 1665 1544 1663
8 1548 1425 1550 1668 1663 1544 1665 1779
8 1547 1423 1549 1667 1666 1548 1668 1781
8 1670 1551 1668 1781 1553 1427 1549 1667
8 1551 1426 1552 1671 1668 1550 1669 1782
8 1670 1551 1427 1553 1784 1671 1554 1674
8 1675 1555 1672 1785 1554 1428 1552 1671
8 1678 1556 1673 1789 1558 1429 1555 1675
8 1561 1431 1558 1681 1674 1554 1675 1790
8 1794 1677 1556 1678 1680 1557 1429 1558
8 1560 1430 1559 1683 1680 1557 1679 1797
8 1561 1431 1560 1684 1681 1558 1680 1798
8 1563 1433 1564 1686 1683 1559 1682 1800
8 1684 1560 1432 1562 1801 1683 1563 1685
8 1565 1435 1566 1688 1685 1563 1686 1802
8 1566 1436 1567 1689 1686 1564 1687 1803
8 1568 1438 1569 1691 1688 1566 1689 1805
8 1569 1439 1570 1692 1689 1567 1690 1806
8 1571 1441 1572 1694 1691 1569 1692 1808
8 1442 1572 1692 1570 1573 1695 1809 1693
8 1574 1444 1575 1696 1694 1572 1695 1810
8 1614 1485 1592 1712 1699 1577 1697 1813
8 1579 1449 1577 1699 1701 1578 1698 1815
8 1615 1486 1614 1735 1702 1579 1699 1816
8 1701 1578 1700 1818 1581 1450 1580 1704
8 1582 1451 1579 1702 1705 1581 1701 1819
8 1704 1580 1703 1820 1584 1452 1583 1706
8 1705 1581 1704 1821 1585 1453 1584 1707
8 1707 1584 1706 1822 1587 1456 1586 1708
8 1710 1589 1506 1633 1824 1709 1632 1751
8 1594 1463 1589 1710 1716 1593 1709 1824
8 1752 1633 1710 1825 1634 1507 1590 1711
8 1595 1464 1590 1711 1717 1594 1710 1825
8 1830 1714 1592 1712 1733 1611 1485 1614
8 1603 1477 1593 1716 1725 1607 1715 1834
8 1599 1473 1594 1717 1721 1603 1716 1835
8 1837 1722 1623 1736 1718 1600 1496 1616
8 1719 1601 1722 1837 1597 1471 1600 1718
8 1602 1720 1598 1472 1723 1838 1719 1601
8 1720 1602 1473 1599 1839 1724 1603 1721
8 1723 1605 1726 1840 1601 1475 1604 1722
8 1840 1726 1628 1743 1722 1604 1501 1623
8 1724 1606 1727 1841 1602 1476 1605 1723
8 1725 1607 1728 1842 1603 1477 1606 1724
8 1612 1482 1608 1731 1733 1611 1730 1849
8 1741 1627 1730 1849 1622 1504 1608 1731
8 1613 1483 1609 1732 1734 1612 1731 1850
8 1618 1495 1622 1738 1732 1609 1731 1850
8 1615 1486 1612 1734 1735 1614 1733 1851
8 1852 1743 1626 1737 1736 1623 1499 1617
8 1853 1745 1625 1739 1737 1626 1500 1619
8 1855 1742 1622 1738 1740 1624 1497 1621
8 1856 1744 1624 1740 1739 1625 1498 1620
8 1741 1627 1504 1622 1857 1746 1631 1742
8 1742 1631 1505 1624 1858 1749 1630 1744
8 1859 1747 1629 1745 1743 1628 1502 1626
8 1860 1748 1630 1744 1745 1629 1503 1625
8 1644 1528 1651 1761 1751 1632 1750 1865
8 1637 1520 1644 1755 1752 1633 1751 1866
8 1754 1646 1522 1636 1867 1760 1643 1753
8 1657 1535 1658 1774 1753 1643 1760 1867
8 1639 1523 1646 1754 1756 1648 1763 1868
8 1641 1521 1645 1758 1755 1644 1761 1869
8 1757 1649 1526 1640 1870 1766 1648 1756
8 1642 1525 1649 1757 1759 1647 1765 1871
8 1759 1647 1762 1872 1642 1525 1645 1758
8 1760 1650 1767 1874 1646 1531 1655 1763
8 1658 1536 1659 1775 1760 1650 1767 1874
8 1762 1652 1768 1875 1645 1529 1651 1761
8 1764 1653 1769 1876 1647 1530 1652 1762
8 1656 1766 1877 1773 1532 1648 1763 1655
8 1771 1879 1765 1654 1653 1764 1647 1530
8 1533 1649 1765 1654 1656 1766 1880 1772
8 1662 1542 1664 1778 1774 1658 1775 1887
8 1664 1543 1665 1779 1775 1659 1776 1888
8 1778 1664 1541 1661 1890 1779 1663 1777
8 1666 1548 1668 1781 1777 1663 1779 1890
8 1782 1669 1780 1891 1668 1550 1665 1779
8 1670 1551 1671 1784 1781 1668 1782 1893
8 1671 1552 1672 1785 1782 1669 1783 1894
8 1790 1675 1785 1896 1674 1554 1671 1784
8 1675 1555 1673 1789 1785 1672 1786 1897
8 1792 1676 1788 1903 1678 1556 1673 1789
8 1795 1678 1789 1904 1681 1558 1675 1790
8 1792 1676 1556 1678 1906 1791 1677 1794
8 1680 1557 1679 1797 1794 1677 1793 1909
8 1910 1794 1678 1795 1798 1680 1558 1681
8 1683 1559 1682 1800 1797 1679 1796 1912
8 1684 1560 1683 1801 1798 1680 1797 1913
8 1686 1564 1687 1803 1800 1682 1799 1915
8 1685 1563 1686 1802 1801 1683 1800 1916
8 1688 1566 1689 1805 1802 1686 1803 1917
8 1689 1567 1690 1806 1803 1687 1804 1918
8 1691 1569 1692 1808 1805 1689 1806 1920
8 1692 1570 1693 1809 1806 1690 1807 1921
8 1694 1572 1695 1810 1808 1692 1809 1922
8 1829 1713 1811 1926 1712 1592 1697 1813
8 1813 1697 1812 1928 1699 1577 1698 1815
8 1735 1614 1712 1828 1816 1699 1813 1929
8 1815 1698 1814 1931 1701 1578 1700 1818
8 1702 1579 1699 1816 1819 1701 1815 1932
8 1818 1700 1817 1933 1704 1580 1703 1820
8 1819 1701 1818 1934 1705 1581 1704 1821
8 1821 1704 1820 1935 1707 1584 1706 1822
8 1824 1709 1632 1751 1937 1823 1750 1865
8 1716 1593 1709 1824 1834 1715 1823 1937
8 1825 1710 1633 1752 1938 1824 1751 1866
8 1717 1594 1710 1825 1835 1716 1824 1938
8 1945 1830 1712 1828 1851 1733 1614 1735
8 1830 1714 1831 1946 1712 1592 1713 1829
8 1947 1832 1714 1830 1849 1730 1611 1733
8 1843 1729 1607 1725 1950 1833 1715 1834
8 1721 1603 1716 1835 1836 1725 1834 1951
8 1836 1725 1842 1953 1721 1603 1724 1839
8 1723 1838 1719 1601 1840 1954 1837 1722
8 1954 1840 1743 1852 1837 1722 1623 1736
8 1724 1839 1720 1602 1841 1955 1838 1723
8 1841 1727 1844 1956 1723 1605 1726 1840
8 1956 1844 1747 1859 1840 1726 1628 1743
8 1728 1842 1724 1606 1845 1957 1841 1727
8 1725 1607 1729 1843 1842 1728 1846 1958
8 1741 1627 1746 1857 1849 1730 1848 1965
8 1734 1612 1731 1850 1851 1733 1849 1966
8 1854 1741 1849 1966 1738 1622 1731 1850
8 1967 1859 1745 1853 1852 1743 1626 1737
8 1968 1860 1744 1856 1853 1745 1625 1739
8 1854 1741 1622 1738 1969 1857 1742 1855
8 1855 1742 1624 1740 1970 1858 1744 1856
8 1857 1746 1631 1742 1971 1861 1749 1858
8 1858 1749 1630 1744 1972 1863 1748 1860
8 1859 1747 1862 1973 1745 1629 1748 1860
8 1875 1768 1864 1977 1761 1651 1750 1865
8 1755 1644 1761 1869 1866 1751 1865 1978
8 1867 1760 1874 1979 1754 1646 1763 1868
8 1774 1658 1775 1887 1867 1760 1874 1979
8 1870 1766 1648 1756 1980 1877 1763 1868
8 1872 1762 1875 1981 1758 1645 1761 1869
8 1757 1649 1766 1870 1871 1765 1880 1982
8 1983 1879 1764 1873 1871 1765 1647 1759
8 1873 1764 1876 1984 1759 1647 1762 1872
8 1877 1773 1655 1763 1986 1881 1767 1874
8 1775 1659 1776 1888 1874 1767 1881 1986
8 1876 1769 1882 1987 1762 1652 1768 1875
8 1878 1770 1883 1988 1764 1653 1769 1876
8 1880 1772 1656 1766 1989 1886 1773 1877
8 1878 1770 1653 1764 1990 1884 1771 1879
8 1765 1654 1772 1880 1879 1771 1885 1991
8 1778 1664 1779 1890 1887 1775 1888 1997
8 1998 1889 1776 1888 1891 1780 1665 1779
8 1893 1782 1891 2000 1781 1668 1779 1890
8 1894 1783 1892 2001 1782 1669 1780 1891
8 1784 1671 1785 1896 1893 1782 1894 2003
8 1897 1786 1895 2004 1785 1672 1783 1894
8 1790 1675 1789 1904 1896 1785 1897 2006
8 1901 1787 1898 2007 1789 1673 1786 1897
8 1903 1788 1900 2013 1789 1673 1787 1901
8 1792 1676 1791 1906 1903 1788 1902 2016
8 1907 1792 1903 2017 1795 1678 1789 1904
8 1906 1791 1677 1794 2019 1905 1793 1909
8 1907 1792 1678 1795 2020 1906 1794 1910
8 1797 1679 1796 1912 1909 1793 1908 2022
8 1798 1680 1797 1913 1910 1794 1909 2023
8 1800 1682 1799 1915 1912 1796 1911 2025
8 1801 1683 1800 1916 1913 1797 1912 2026
8 1803 1687 1804 1918 1915 1799 1914 2028
8 1802 1686 1803 1917 1916 1800 1915 2029
8 1805 1689 1806 1920 1917 1803 1918 2030
8 1806 1690 1807 1921 1918 1804 1919 2031
8 1808 1692 1809 1922 1920 1806 1921 2032
8 1939 1826 1924 2037 1829 1713 1811 1926
8 1926 1811 1925 2039 1813 1697 1812 1928
8 1944 1829 1926 2040 1828 1712 1813 1929
8 1928 1812 1927 2042 1815 1698 1814 1931
8 1929 1813 1928 2043 1816 1699 1815 1932
8 1931 1814 1930 2044 1818 1700 1817 1933
8 1932 1815 1931 2045 1819 1701 1818 1934
8 1934 1818 1933 2046 1821 1704 1820 1935
8 2048 1936 1823 1937 1977 1864 1750 1865
8 1950 1833 1715 1834 2048 1936 1823 1937
8 1938 1824 1751 1866 2049 1937 1865 1978
8 1835 1716 1824 1938 1951 1834 1937 2049
8 1939 1826 1713 1829 2053 1942 1831 1946
8 1940 1827 1923 2035 2053 1942 1826 1939
8 1945 1830 1946 2058 1828 1712 1829 1944
8 2059 1947 1830 1945 1966 1849 1733 1851
8 1947 1832 1730 1849 2060 1948 1848 1965
8 1947 1832 1948 2060 1830 1714 1831 1946
8 1959 1847 1729 1843 2063 1949 1833 1950
8 1952 1843 1725 1836 2064 1950 1834 1951
8 1836 1725 1843 1952 1953 1842 1958 2066
8 1953 1842 1957 2067 1839 1724 1841 1955
8 1841 1955 1838 1723 1956 2068 1954 1840
8 2068 1956 1859 1967 1954 1840 1743 1852
8 1956 1844 1960 2069 1859 1747 1862 1973
8 1845 1957 1841 1727 1960 2069 1956 1844
8 1728 1842 1957 1845 1846 1958 2071 1961
8 1962 2072 1959 1847 1846 1958 1843 1729
8 1971 1861 1964 2077 1857 1746 1848 1965
8 1854 1741 1857 1969 1966 1849 1965 2078
8 1967 1859 1973 2079 1853 1745 1860 1968
8 1970 1858 1744 1856 2080 1972 1860 1968
8 1969 1857 1742 1855 2081 1971 1858 1970
8 1971 1861 1749 1858 2082 1974 1863 1972
8 1973 1862 1975 2083 1860 1748 1863 1972
8 1987 1882 1976 2086 1875 1768 1864 1977
8 1981 1875 1977 2087 1869 1761 1865 1978
8 1980 1877 1763 1868 2088 1986 1874 1979
8 1887 1775 1888 1997 1979 1874 1986 2088
8 1880 1982 2089 1989 1766 1870 1980 1877
8 1984 1876 1987 2090 1872 1762 1875 1981
8 1765 1871 1983 1879 1880 1982 2091 1991
8 1985 1878 1764 1873 2092 1990 1879 1983
8 1985 1878 1988 2093 1873 1764 1876 1984
8 2094 1992 1881 1986 1998 1889 1776 1888
8 1986 1881 1992 2094 1877 1773 1886 1989
8 1988 1883 1993 2095 1876 1769 1882 1987
8 1878 1770 1884 1990 1988 1883 1994 2096
8 1991 1885 1772 1880 2097 1996 1886 1989
8 1879 1771 1885 1991 1990 1884 1995 2098
8 2103 1998 1888 1997 2000 1891 1779 1890
8 2104 1999 1889 1998 2001 1892 1780 1891
8 2003 1894 2001 2106 1893 1782 1891 2000
8 2004 1895 2002 2107 1894 1783 1892 2001
8 2006 1897 2004 2109 1896 1785 1894 2003
8 2007 1898 2005 2110 1897 1786 1895 2004
8 2014 1901 2007 2112 1904 1789 1897 2006
8 2011 1899 2008 2113 1901 1787 1898 2007
8 2119 2010 1899 2011 2013 1900 1787 1901
8 2016 1902 2012 2122 1903 1788 1900 2013
8 2017 1903 2013 2123 1904 1789 1901 2014
8 1906 1791 1905 2019 2016 1902 2015 2125
8 1907 1792 1906 2020 2017 1903 2016 2126
8 1909 1793 1908 2022 2019 1905 2018 2128
8 2020 1906 1794 1910 2129 2019 1909 2023
8 1912 1796 1911 2025 2022 1908 2021 2131
8 1913 1797 1912 2026 2023 1909 2022 2132
8 1915 1799 1914 2028 2025 1911 2024 2134
8 1916 1800 1915 2029 2026 1912 2025 2135
8 1918 1804 1919 2031 2028 1914 2027 2136
8 1917 1803 1918 2030 2029 1915 2028 2137
8 1920 1806 1921 2032 2030 1918 2031 2138
8 1940 1827 1941 2054 2035 1923 2033 2140
8 2035 1923 2034 2143 1939 1826 1924 2037
8 2037 1924 2036 2146 1926 1811 1925 2039
8 2051 1939 2037 2147 1944 1829 1926 2040
8 2039 1925 2038 2149 1928 1812 1927 2042
8 2040 1926 2039 2150 1929 1813 1928 2043
8 2042 1927 2041 2151 1931 1814 1930 2044
8 2043 1928 2042 2152 1932 1815 1931 2045
8 2045 1931 2044 2153 1934 1818 1933 2046
8 2155 2047 1936 2048 2086 1976 1864 1977
8 2063 1949 1833 1950 2155 2047 1936 2048
8 2156 2048 1937 2049 2087 1977 1865 1978
8 2064 1950 1834 1951 2156 2048 1937 2049
8 2051 1939 1829 1944 2160 2053 1946 2058
8 2052 1940 2035 2144 2160 2053 1939 2051
8 2053 1942 1831 1946 2163 2057 1948 2060
8 2055 1943 1827 1940 2163 2057 1942 2053
8 2055 1943 2056 2164 1940 1827 1941 2054
8 2059 1947 1849 1966 2167 2060 1965 2078
8 2059 1947 2060 2167 1945 1830 1946 2058
8 2077 1964 2061 2168 1965 1848 1948 2060
8 2070 1963 1847 1959 2170 2062 1949 2063
8 2065 1959 1843 1952 2171 2063 1950 2064
8 2173 2072 1958 2066 2065 1959 1843 1952
8 1953 1842 1958 2066 2067 1957 2071 2174
8 2068 1956 2069 2175 1967 1859 1973 2079
8 2067 1957 2069 2175 1955 1841 1956 2068
8 1845 1957 2069 1960 1961 2071 2176 2073
8 2069 1960 2073 2176 1973 1862 1975 2083
8 2070 1963 2075 2177 1959 1847 1962 2072
8 1846 1958 2071 1961 1962 2072 2178 2074
8 2077 1964 1861 1971 2182 2076 1974 2082
8 2081 1971 2077 2183 1969 1857 1965 2078
8 2079 1973 2083 2184 1968 1860 1972 2080
8 2081 1971 1858 1970 2185 2082 1972 2080
8 2083 1975 2084 2186 1972 1863 1974 2082
8 2086 1976 1882 1987 2189 2085 1993 2095
8 2090 1987 2086 2190 1981 1875 1977 2087
8 2191 2094 1986 2088 2103 1998 1888 1997
8 2088 1986 2094 2191 1980 1877 1989 2089
8 1991 2091 2192 2097 1880 1982 2089 1989
8 2093 1988 2095 2193 1984 1876 1987 2090
8 1879 1983 2092 1990 1991 2091 2194 2098
8 1985 1878 1990 2092 2093 1988 2096 2195
8 2097 1996 1886 1989 2196 2099 1992 2094
8 2196 2099 1992 2094 2104 1999 1889 1998
8 1994 2096 1988 1883 2100 2197 2095 1993
8 2096 1994 1884 1990 2198 2101 1995 2098
8 1995 2098 2199 2102 1885 1991 2097 1996
8 2203 2104 1998 2103 2106 2001 1891 2000
8 2107 2002 2105 2204 2001 1892 1999 2104
8 2109 2004 2107 2206 2003 1894 2001 2106
8 2110 2005 2108 2207 2004 1895 2002 2107
8 2112 2007 2110 2209 2006 1897 2004 2109
8 2113 2008 2111 2210 2007 1898 2005 2110
8 2120 2011 2113 2212 2014 1901 2007 2112
8 2117 2009 2114 2213 2011 1899 2008 2113
8 2219 2116 2009 2117 2119 2010 1899 2011
8 2222 2118 2010 2119 2122 2012 1900 2013
8 2223 2119 2011 2120 2123 2013 1901 2014
8 2016 1902 2015 2125 2122 2012 2121 2225
8 2126 2016 2122 2226 2017 1903 2013 2123
8 2019 1905 2018 2128 2125 2015 2124 2228
8 2020 1906 2019 2129 2126 2016 2125 2229
8 2022 1908 2021 2131 2128 2018 2127 2231
8 2023 1909 2022 2132 2129 2019 2128 2232
8 2025 1911 2024 2134 2131 2021 2130 2234
8 2026 1912 2025 2135 2132 2022 2131 2235
8 1914 2028 2134 2024 2027 2136 2236 2133
8 2029 1915 2028 2137 2135 2025 2134 2237
8 2030 1918 2031 2138 2137 2028 2136 2238
8 2157 2050 2139 2240 2054 1941 2033 2140
8 2052 1940 2054 2161 2144 2035 2140 2242
8 2140 2033 2141 2243 2035 1923 2034 2143
8 2143 2034 2142 2246 2037 1924 2036 2146
8 2144 2035 2143 2247 2051 1939 2037 2147
8 2146 2036 2145 2249 2039 1925 2038 2149
8 2147 2037 2146 2250 2040 1926 2039 2150
8 2149 2038 2148 2251 2042 1927 2041 2151
8 2150 2039 2149 2252 2043 1928 2042 2152
8 2152 2042 2151 2253 2045 1931 2044 2153
8 2255 2154 2047 2155 2189 2085 1976 2086
8 2170 2062 1949 2063 2255 2154 2047 2155
8 2256 2155 2048 2156 2190 2086 1977 2087
8 2171 2063 1950 2064 2256 2155 2048 2156
8 2258 2159 2050 2157 2164 2056 1941 2054
8 2160 2053 1946 2058 2262 2163 2060 2167
8 2162 2055 1940 2052 2262 2163 2053 2160
8 2162 2055 2164 2263 2052 1940 2054 2161
8 2163 2057 1948 2060 2264 2165 2061 2168
8 2055 1943 2057 2163 2164 2056 2165 2264
8 2182 2076 2166 2268 2077 1964 2061 2168
8 2183 2077 2168 2269 2078 1965 2060 2167
8 2070 1963 2062 2170 2177 2075 2169 2271
8 2172 2070 1959 2065 2272 2170 2063 2171
8 2172 2070 2177 2273 2065 1959 2072 2173
8 2066 1958 2072 2173 2174 2071 2178 2274
8 2067 1957 2071 2174 2175 2069 2176 2275
8 2175 2069 2176 2275 2079 1973 2083 2184
8 2071 1961 2074 2178 2176 2073 2179 2276
8 2176 2073 2179 2276 2083 1975 2084 2186
8 2072 1962 2075 2177 2178 2074 2180 2277
8 2182 2076 1974 2082 2280 2181 2084 2186
8 2183 2077 1971 2081 2281 2182 2082 2185
8 2184 2083 2186 2282 2080 1972 2082 2185
8 2189 2085 1993 2095 2285 2188 2100 2197
8 2190 2086 1987 2090 2286 2189 2095 2193
8 2192 2097 1989 2089 2287 2196 2094 2191
8 2287 2196 2094 2191 2203 2104 1998 2103
8 2194 2098 1991 2091 2288 2199 2097 2192
8 2195 2096 2197 2289 2093 1988 2095 2193
8 2096 2195 2290 2198 1990 2092 2194 2098
8 2097 1996 2099 2196 2199 2102 2200 2291
8 2196 2099 1999 2104 2291 2200 2105 2204
8 2100 2197 2292 2201 1994 2096 2198 2101
8 1995 2098 2198 2101 2102 2199 2293 2202
8 2206 2107 2204 2296 2106 2001 2104 2203
8 2207 2108 2205 2297 2107 2002 2105 2204
8 2209 2110 2207 2299 2109 2004 2107 2206
8 2210 2111 2208 2300 2110 2005 2108 2207
8 2212 2113 2210 2302 2112 2007 2110 2209
8 2213 2114 2211 2303 2113 2008 2111 2210
8 2220 2117 2213 2305 2120 2011 2113 2212
8 2216 2115 2214 2306 2117 2009 2114 2213
8 2216 2115 2009 2117 2311 2217 2116 2219
8 2219 2116 2010 2119 2314 2218 2118 2222
8 2315 2219 2117 2220 2223 2119 2011 2120
8 2122 2012 2121 2225 2222 2118 2221 2317
8 2318 2222 2119 2223 2226 2122 2013 2123
8 2125 2015 2124 2228 2225 2121 2224 2320
8 2126 2016 2125 2229 2226 2122 2225 2321
8 2128 2018 2127 2231 2228 2124 2227 2323
8 2129 2019 2128 2232 2229 2125 2228 2324
8 2131 2021 2130 2234 2231 2127 2230 2326
8 2132 2022 2131 2235 2232 2128 2231 2327
8 2134 2024 2133 2236 2234 2130 2233 2328
8 2135 2025 2134 2237 2235 2131 2234 2329
8 2137 2028 2136 2238 2237 2134 2236 2330
8 2157 2050 2158 2259 2240 2139 2239 2332
8 2257 2157 2240 2334 2161 2054 2140 2242
8 2240 2139 2241 2335 2140 2033 2141 2243
8 2242 2140 2243 2337 2144 2035 2143 2247
8 2243 2141 2244 2338 2143 2034 2142 2246
8 2246 2142 2245 2341 2146 2036 2145 2249
8 2247 2143 2246 2342 2147 2037 2146 2250
8 2249 2145 2248 2343 2149 2038 2148 2251
8 2250 2146 2249 2344 2150 2039 2149 2252
8 2252 2149 2251 2345 2152 2042 2151 2253
8 2169 2271 2347 2254 2062 2170 2255 2154
8 2189 2085 2188 2285 2255 2154 2254 2347
8 2348 2255 2155 2256 2286 2189 2086 2190
8 2272 2170 2063 2171 2348 2255 2155 2256
8 2349 2258 2157 2257 2263 2164 2054 2161
8 2258 2159 2261 2351 2157 2050 2158 2259
8 2258 2159 2056 2164 2351 2261 2165 2264
8 2262 2163 2060 2167 2355 2264 2168 2269
8 2162 2055 2163 2262 2263 2164 2264 2355
8 2357 2266 2165 2264 2268 2166 2061 2168
8 2268 2166 2076 2182 2361 2267 2181 2280
8 2281 2182 2268 2362 2183 2077 2168 2269
8 2271 2169 2270 2364 2177 2075 2180 2277
8 2172 2070 2170 2272 2273 2177 2271 2365
8 2072 2173 2274 2178 2177 2273 2366 2277
8 2071 2174 2275 2176 2178 2274 2367 2276
8 2275 2176 2276 2367 2184 2083 2186 2282
8 2283 2187 2084 2186 2368 2278 2179 2276
8 2178 2074 2180 2277 2276 2179 2278 2368
8 2283 2187 2279 2370 2186 2084 2181 2280
8 2281 2182 2082 2185 2371 2280 2186 2282
8 2188 2285 2374 2284 2100 2197 2292 2201
8 2286 2189 2095 2193 2375 2285 2197 2289
8 2192 2097 2196 2287 2288 2199 2291 2376
8 2287 2196 2104 2203 2376 2291 2204 2296
8 2194 2098 2199 2288 2290 2198 2293 2377
8 2289 2197 2096 2195 2378 2292 2198 2290
8 2291 2200 2105 2204 2379 2294 2205 2297
8 2199 2102 2200 2291 2293 2202 2294 2379
8 2198 2101 2202 2293 2292 2201 2295 2380
8 2299 2207 2297 2383 2206 2107 2204 2296
8 2300 2208 2298 2384 2207 2108 2205 2297
8 2302 2210 2300 2386 2209 2110 2207 2299
8 2303 2211 2301 2387 2210 2111 2208 2300
8 2305 2213 2303 2389 2212 2113 2210 2302
8 2306 2214 2304 2390 2213 2114 2211 2303
8 2310 2216 2306 2392 2220 2117 2213 2305
8 2308 2215 2307 2393 2216 2115 2214 2306
8 2308 2215 2115 2216 2396 2309 2217 2311
8 2310 2216 2117 2220 2398 2311 2219 2315
8 2311 2217 2116 2219 2399 2312 2218 2314
8 2314 2218 2118 2222 2402 2313 2221 2317
8 2315 2219 2119 2223 2403 2314 2222 2318
8 2225 2121 2224 2320 2317 2221 2316 2405
8 2226 2122 2225 2321 2318 2222 2317 2406
8 2228 2124 2227 2323 2320 2224 2319 2408
8 2229 2125 2228 2324 2321 2225 2320 2409
8 2231 2127 2230 2326 2323 2227 2322 2411
8 2232 2128 2231 2327 2324 2228 2323 2412
8 2234 2130 2233 2328 2326 2230 2325 2413
8 2235 2131 2234 2329 2327 2231 2326 2414
8 2237 2134 2236 2330 2329 2234 2328 2415
8 2259 2158 2260 2352 2332 2239 2331 2417
8 2257 2157 2259 2350 2334 2240 2332 2419
8 2240 2139 2239 2332 2335 2241 2333 2420
8 2334 2240 2335 2422 2242 2140 2243 2337
8 2335 2241 2336 2423 2243 2141 2244 2338
8 2337 2243 2338 2425 2247 2143 2246 2342
8 2338 2244 2339 2426 2246 2142 2245 2341
8 2341 2245 2340 2428 2249 2145 2248 2343
8 2342 2246 2341 2429 2250 2146 2249 2344
8 2344 2249 2343 2430 2252 2149 2251 2345
8 2188 2285 2347 2254 2284 2374 2432 2346
8 2347 2254 2346 2432 2271 2169 2270 2364
8 2365 2271 2170 2272 2433 2347 2255 2348
8 2286 2189 2285 2375 2348 2255 2347 2433
8 2349 2258 2351 2435 2257 2157 2259 2350
8 2349 2258 2164 2263 2435 2351 2264 2355
8 2259 2158 2261 2351 2352 2260 2354 2437
8 2356 2265 2354 2437 2264 2165 2261 2351
8 2441 2357 2264 2355 2362 2268 2168 2269
8 2356 2265 2165 2264 2442 2358 2266 2357
8 2443 2359 2266 2357 2361 2267 2166 2268
8 2370 2279 2360 2446 2280 2181 2267 2361
8 2362 2268 2182 2281 2447 2361 2280 2371
8 2180 2277 2368 2278 2270 2364 2449 2363
8 2271 2365 2273 2177 2364 2450 2366 2277
8 2372 2283 2186 2282 2451 2368 2276 2367
8 2178 2274 2367 2276 2277 2366 2451 2368
8 2283 2187 2278 2368 2370 2279 2369 2452
8 2372 2283 2370 2453 2282 2186 2280 2371
8 2284 2374 2455 2373 2201 2292 2380 2295
8 2375 2285 2197 2289 2456 2374 2292 2378
8 2376 2291 2204 2296 2457 2379 2297 2383
8 2288 2199 2291 2376 2377 2293 2379 2457
8 2198 2290 2378 2292 2293 2377 2458 2380
8 2293 2202 2294 2379 2380 2295 2381 2459
8 2384 2298 2381 2459 2297 2205 2294 2379
8 2386 2300 2384 2463 2299 2207 2297 2383
8 2387 2301 2385 2464 2300 2208 2298 2384
8 2389 2303 2387 2466 2302 2210 2300 2386
8 2390 2304 2388 2467 2303 2211 2301 2387
8 2392 2306 2390 2469 2305 2213 2303 2389
8 2393 2307 2391 2470 2306 2214 2304 2390
8 2395 2308 2393 2472 2310 2216 2306 2392
8 2308 2215 2309 2396 2393 2307 2394 2473
8 2395 2308 2216 2310 2475 2396 2311 2398
8 2396 2309 2217 2311 2476 2397 2312 2399
8 2398 2311 2219 2315 2478 2399 2314 2403
8 2399 2312 2218 2314 2479 2400 2313 2402
8 2317 2221 2316 2405 2402 2313 2401 2482
8 2403 2314 2222 2318 2483 2402 2317 2406
8 2320 2224 2319 2408 2405 2316 2404 2485
8 2321 2225 2320 2409 2406 2317 2405 2486
8 2323 2227 2322 2411 2408 2319 2407 2488
8 2324 2228 2323 2412 2409 2320 2408 2489
8 2326 2230 2325 2413 2411 2322 2410 2490
8 2327 2231 2326 2414 2412 2323 2411 2491
8 2329 2234 2328 2415 2414 2326 2413 2492
8 2417 2331 2260 2352 2494 2416 2353 2438
8 2350 2259 2352 2436 2419 2332 2417 2496
8 2332 2239 2331 2417 2420 2333 2418 2497
8 2334 2240 2332 2419 2422 2335 2420 2499
8 2420 2333 2421 2500 2335 2241 2336 2423
8 2422 2335 2423 2502 2337 2243 2338 2425
8 2423 2336 2424 2503 2338 2244 2339 2426
8 2425 2338 2426 2505 2342 2246 2341 2429
8 2426 2339 2427 2506 2341 2245 2340 2428
8 2429 2341 2428 2507 2344 2249 2343 2430
8 2432 2346 2284 2374 2509 2431 2373 2455
8 2432 2346 2431 2509 2364 2270 2363 2449
8 2375 2285 2374 2456 2433 2347 2432 2510
8 2347 2433 2365 2271 2432 2510 2450 2364
8 2350 2259 2351 2435 2436 2352 2437 2514
8 2440 2356 2437 2514 2355 2264 2351 2435
8 2352 2260 2354 2437 2438 2353 2439 2516
8 2356 2265 2358 2442 2437 2354 2439 2516
8 2440 2356 2264 2355 2518 2442 2357 2441
8 2519 2443 2357 2441 2447 2361 2268 2362
8 2443 2359 2444 2520 2357 2266 2358 2442
8 2443 2359 2267 2361 2520 2444 2360 2446
8 2446 2360 2279 2370 2523 2445 2369 2452
8 2453 2370 2446 2524 2371 2280 2361 2447
8 2449 2363 2448 2525 2368 2278 2369 2452
8 2366 2277 2364 2450 2451 2368 2449 2526
8 2372 2283 2368 2451 2453 2370 2452 2527
8 2455 2373 2295 2380 2529 2454 2382 2460
8 2456 2374 2292 2378 2530 2455 2380 2458
8 2377 2293 2379 2457 2458 2380 2459 2531
8 2463 2384 2459 2531 2383 2297 2379 2457
8 2533 2461 2382 2460 2459 2381 2295 2380
8 2464 2385 2461 2533 2384 2298 2381 2459
8 2466 2387 2464 2537 2386 2300 2384 2463
8 2467 2388 2465 2538 2387 2301 2385 2464
8 2469 2390 2467 2540 2389 2303 2387 2466
8 2470 2391 2468 2541 2390 2304 2388 2467
8 2472 2393 2470 2543 2392 2306 2390 2469
8 2393 2307 2394 2473 2470 2391 2471 2544
8 2395 2308 2396 2475 2472 2393 2473 2546
8 2396 2309 2397 2476 2473 2394 2474 2547
8 2475 2396 2311 2398 2549 2476 2399 2478
8 2476 2397 2312 2399 2550 2477 2400 2479
8 2478 2399 2314 2403 2552 2479 2402 2483
8 2479 2400 2313 2402 2553 2480 2401 2482
8 2405 2316 2404 2485 2482 2401 2481 2556
8 2406 2317 2405 2486 2483 2402 2482 2557
8 2408 2319 2407 2488 2485 2404 2484 2559
8 2409 2320 2408 2489 2486 2405 2485 2560
8 2411 2322 2410 2490 2488 2407 2487 2561
8 2412 2323 2411 2491 2489 2408 2488 2562
8 2414 2326 2413 2492 2491 2411 2490 2563
8 2513 2434 2493 2565 2438 2353 2416 2494
8 2496 2417 2352 2436 2567 2494 2438 2515
8 2494 2416 2495 2568 2417 2331 2418 2497
8 2419 2332 2417 2496 2499 2420 2497 2570
8 2497 2418 2498 2571 2420 2333 2421 2500
8 2499 2420 2500 2573 2422 2335 2423 2502
8 2500 2421 2501 2574 2423 2336 2424 2503
8 2502 2423 2503 2576 2425 2338 2426 2505
8 2503 2424 2504 2577 2426 2339 2427 2506
8 2505 2426 2506 2578 2429 2341 2428 2507
8 2509 2431 2373 2455 2580 2508 2454 2529
8 2509 2431 2508 2580 2449 2363 2448 2525
8 2432 2510 2581 2509 2374 2456 2530 2455
8 2432 2510 2450 2364 2509 2581 2526 2449
8 2583 2511 2434 2513 2516 2439 2353 2438
8 2436 2352 2437 2514 2515 2438 2516 2588
8 2440 2356 2442 2518 2514 2437 2516 2588
8 2442 2358 2444 2520 2516 2439 2517 2589
8 2519 2443 2520 2591 2441 2357 2442 2518
8 2519 2443 2361 2447 2591 2520 2446 2524
8 2446 2360 2445 2523 2520 2444 2521 2592
8 2525 2448 2522 2593 2452 2369 2445 2523
8 2524 2446 2370 2453 2594 2523 2452 2527
8 2526 2449 2525 2595 2451 2368 2452 2527
8 2534 2462 2528 2597 2460 2382 2454 2529
8 2530 2455 2380 2458 2598 2529 2460 2532
8 2599 2533 2460 2532 2531 2459 2380 2458
8 2537 2464 2533 2599 2463 2384 2459 2531
8 2534 2462 2382 2460 2601 2535 2461 2533
8 2538 2465 2535 2601 2464 2385 2461 2533
8 2540 2467 2538 2604 2466 2387 2464 2537
8 2541 2468 2539 2605 2467 2388 2465 2538
8 2543 2470 2541 2607 2469 2390 2467 2540
8 2470 2391 2471 2544 2541 2468 2542 2608
8 2472 2393 2473 2546 2543 2470 2544 2610
8 2473 2394 2474 2547 2544 2471 2545 2611
8 2475 2396 2476 2549 2546 2473 2547 2613
8 2476 2397 2477 2550 2547 2474 2548 2614
8 2549 2476 2399 2478 2616 2550 2479 2552
8 2479 2400 2480 2553 2550 2477 2551 2617
8 2552 2479 2402 2483 2619 2553 2482 2557
8 2482 2401 2481 2556 2553 2480 2554 2620
8 2485 2404 2484 2559 2556 2481 2555 2623
8 2486 2405 2485 2560 2557 2482 2556 2624
8 2488 2407 2487 2561 2559 2484 2558 2625
8 2489 2408 2488 2562 2560 2485 2559 2626
8 2491 2411 2490 2563 2562 2488 2561 2627
8 2513 2434 2512 2585 2565 2493 2564 2630
8 2586 2513 2565 2632 2515 2438 2494 2567
8 2565 2493 2566 2633 2494 2416 2495 2568
8 2567 2494 2568 2635 2496 2417 2497 2570
8 2568 2495 2569 2636 2497 2418 2498 2571
8 2570 2497 2571 2638 2499 2420 2500 2573
8 2571 2498 2572 2639 2500 2421 2501 2574
8 2573 2500 2574 2641 2502 2423 2503 2576
8 2574 2501 2575 2642 2503 2424 2504 2577
8 2576 2503 2577 2643 2505 2426 2506 2578
8 2597 2528 2579 2645 2529 2454 2508 2580
8 2580 2508 2579 2645 2525 2448 2522 2593
8 2581 2509 2455 2530 2646 2580 2529 2598
8 2581 2509 2580 2646 2526 2449 2525 2595
8 2583 2511 2582 2648 2513 2434 2512 2585
8 2583 2511 2439 2516 2648 2582 2517 2589
8 2649 2583 2513 2586 2588 2516 2438 2515
8 2589 2517 2444 2520 2653 2587 2521 2592
8 2518 2442 2520 2591 2588 2516 2589 2654
8 2593 2522 2590 2655 2523 2445 2521 2592
8 2524 2446 2523 2594 2591 2520 2592 2656
8 2595 2525 2593 2657 2527 2452 2523 2594
8 2602 2536 2596 2659 2534 2462 2528 2597
8 2600 2534 2597 2660 2532 2460 2529 2598
8 2600 2534 2460 2532 2661 2601 2533 2599
8 2604 2538 2601 2661 2537 2464 2533 2599
8 2602 2536 2462 2534 2663 2603 2535 2601
8 2601 2535 2465 2538 2663 2603 2539 2605
8 2607 2541 2605 2665 2540 2467 2538 2604
8 2608 2542 2606 2666 2541 2468 2539 2605
8 2543 2470 2544 2610 2607 2541 2608 2668
8 2544 2471 2545 2611 2608 2542 2609 2669
8 2546 2473 2547 2613 2610 2544 2611 2671
8 2547 2474 2548 2614 2611 2545 2612 2672
8 2549 2476 2550 2616 2613 2547 2614 2674
8 2550 2477 2551 2617 2614 2548 2615 2675
8 2552 2479 2553 2619 2616 2550 2617 2677
8 2553 2480 2554 2620 2617 2551 2618 2678
8 2557 2482 2556 2624 2619 2553 2620 2680
8 2556 2481 2555 2623 2620 2554 2621 2681
8 2559 2484 2558 2625 2623 2555 2622 2683
8 2560 2485 2559 2626 2624 2556 2623 2684
8 2562 2488 2561 2627 2626 2559 2625 2685
8 2690 2629 2564 2630 2650 2584 2512 2585
8 2586 2513 2585 2651 2632 2565 2630 2691
8 2630 2564 2631 2692 2565 2493 2566 2633
8 2632 2565 2633 2694 2567 2494 2568 2635
8 2633 2566 2634 2695 2568 2495 2569 2636
8 2635 2568 2636 2697 2570 2497 2571 2638
8 2636 2569 2637 2698 2571 2498 2572 2639
8 2638 2571 2639 2700 2573 2500 2574 2641
8 2639 2572 2640 2701 2574 2501 2575 2642
8 2641 2574 2642 2702 2576 2503 2577 2643
8 2597 2528 2596 2659 2645 2579 2644 2704
8 2645 2579 2644 2704 2593 2522 2590 2655
8 2660 2597 2645 2705 2598 2529 2580 2646
8 2646 2580 2645 2705 2595 2525 2593 2657
8 2650 2584 2512 2585 2707 2647 2582 2648
8 2648 2582 2517 2589 2707 2647 2587 2653
8 2649 2583 2648 2708 2586 2513 2585 2651
8 2649 2583 2516 2588 2708 2648 2589 2654
8 2655 2590 2652 2710 2592 2521 2587 2653
8 2654 2589 2520 2591 2711 2653 2592 2656
8 2657 2593 2655 2712 2594 2523 2592 2656
8 2602 2536 2603 2663 2659 2596 2658 2714
8 2662 2602 2659 2715 2600 2534 2597 2660
8 2662 2602 2534 2600 2717 2663 2601 2661
8 2661 2601 2538 2604 2717 2663 2605 2665
8 2666 2606 2664 2718 2605 2539 2603 2663
8 2668 2608 2666 2720 2607 2541 2605 2665
8 2608 2542 2609 2669 2666 2606 2667 2721
8 2610 2544 2611 2671 2668 2608 2669 2723
8 2611 2545 2612 2672 2669 2609 2670 2724
8 2613 2547 2614 2674 2671 2611 2672 2726
8 2614 2548 2615 2675 2672 2612 2673 2727
8 2616 2550 2617 2677 2674 2614 2675 2729
8 2617 2551 2618 2678 2675 2615 2676 2730
8 2619 2553 2620 2680 2677 2617 2678 2732
8 2620 2554 2621 2681 2678 2618 2679 2733
8 2624 2556 2623 2684 2680 2620 2681 2735
8 2681 2621 2555 2623 2736 2682 2622 2683
8 2626 2559 2625 2685 2684 2623 2683 2737
8 2688 2628 2584 2650 2740 2686 2647 2707
8 2688 2628 2687 2742 2650 2584 2629 2690
8 2690 2629 2689 2745 2630 2564 2631 2692
8 2746 2690 2630 2691 2709 2650 2585 2651
8 2691 2630 2692 2747 2632 2565 2633 2694
8 2692 2631 2693 2748 2633 2566 2634 2695
8 2694 2633 2695 2750 2635 2568 2636 2697
8 2695 2634 2696 2751 2636 2569 2637 2698
8 2697 2636 2698 2753 2638 2571 2639 2700
8 2698 2637 2699 2754 2639 2572 2640 2701
8 2700 2639 2701 2755 2641 2574 2642 2702
8 2659 2596 2658 2714 2704 2644 2703 2757
8 2704 2644 2703 2757 2655 2590 2652 2710
8 2660 2597 2659 2715 2705 2645 2704 2758
8 2705 2645 2704 2758 2657 2593 2655 2712
8 2759 2706 2647 2707 2710 2652 2587 2653
8 2709 2650 2585 2651 2760 2707 2648 2708
8 2708 2648 2589 2654 2760 2707 2653 2711
8 2712 2655 2710 2761 2656 2592 2653 2711
8 2763 2713 2658 2714 2718 2664 2603 2663
8 2662 2602 2663 2717 2715 2659 2714 2764
8 2720 2666 2718 2767 2665 2605 2663 2717
8 2768 2719 2664 2718 2721 2667 2606 2666
8 2668 2608 2669 2723 2720 2666 2721 2770
8 2669 2609 2670 2724 2721 2667 2722 2771
8 2671 2611 2672 2726 2723 2669 2724 2773
8 2672 2612 2673 2727 2724 2670 2725 2774
8 2674 2614 2675 2729 2726 2672 2727 2776
8 2675 2615 2676 2730 2727 2673 2728 2777
8 2677 2617 2678 2732 2729 2675 2730 2779
8 2678 2618 2679 2733 2730 2676 2731 2780
8 2680 2620 2681 2735 2732 2678 2733 2782
8 2733 2679 2621 2681 2783 2734 2682 2736
8 2735 2681 2623 2684 2784 2736 2683 2737
8 2740 2686 2647 2707 2787 2738 2706 2759
8 2688 2628 2686 2740 2742 2687 2739 2789
8 2743 2688 2650 2709 2790 2740 2707 2760
8 2742 2687 2741 2792 2690 2629 2689 2745
8 2743 2688 2742 2793 2709 2650 2690 2746
8 2745 2689 2744 2795 2692 2631 2693 2748
8 2746 2690 2745 2796 2691 2630 2692 2747
8 2747 2692 2748 2797 2694 2633 2695 2750
8 2748 2693 2749 2798 2695 2634 2696 2751
8 2750 2695 2751 2800 2697 2636 2698 2753
8 2751 2696 2752 2801 2698 2637 2699 2754
8 2753 2698 2754 2802 2700 2639 2701 2755
8 2763 2713 2756 2804 2714 2658 2703 2757
8 2759 2706 2652 2710 2804 2756 2703 2757
8 2715 2659 2714 2764 2758 2704 2757 2805
8 2758 2704 2757 2805 2712 2655 2710 2761
8 2806 2759 2707 2760 2761 2710 2653 2711
8 2765 2716 2762 2808 2718 2664 2713 2763
8 2809 2763 2714 2764 2767 2718 2663 2717
8 2765 2716 2664 2718 2811 2766 2719 2768
8 2813 2768 2718 2767 2770 2721 2666 2720
8 2814 2769 2719 2768 2771 2722 2667 2721
8 2723 2669 2724 2773 2770 2721 2771 2816
8 2724 2670 2725 2774 2771 2722 2772 2817
8 2726 2672 2727 2776 2773 2724 2774 2819
8 2727 2673 2728 2777 2774 2725 2775 2820
8 2729 2675 2730 2779 2776 2727 2777 2822
8 2730 2676 2731 2780 2777 2728 2778 2823
8 2732 2678 2733 2782 2779 2730 2780 2825
8 2780 2731 2679 2733 2826 2781 2734 2783
8 2782 2733 2681 2735 2827 2783 2736 2784
8 2830 2785 2738 2787 2804 2756 2706 2759
8 2789 2739 2686 2740 2832 2786 2738 2787
8 2790 2740 2707 2760 2833 2787 2759 2806
8 2742 2687 2739 2789 2792 2741 2788 2835
8 2743 2688 2740 2790 2793 2742 2789 2836
8 2792 2741 2791 2838 2745 2689 2744 2795
8 2793 2742 2792 2839 2746 2690 2745 2796
8 2795 2744 2794 2841 2748 2693 2749 2798
8 2796 2745 2795 2842 2747 2692 2748 2797
8 2797 2748 2798 2843 2750 2695 2751 2800
8 2798 2749 2799 2844 2751 2696 2752 2801
8 2800 2751 2801 2845 2753 2698 2754 2802
8 2808 2762 2803 2847 2763 2713 2756 2804
8 2809 2763 2804 2848 2764 2714 2757 2805
8 2806 2759 2710 2761 2848 2804 2757 2805
8 2765 2716 2766 2811 2808 2762 2807 2850
8 2810 2765 2808 2851 2767 2718 2763 2809
8 2810 2765 2718 2767 2852 2811 2768 2813
8 2811 2766 2719 2768 2853 2812 2769 2814
8 2855 2814 2768 2813 2816 2771 2721 2770
8 2856 2815 2769 2814 2817 2772 2722 2771
8 2773 2724 2774 2819 2816 2771 2817 2858
8 2774 2725 2775 2820 2817 2772 2818 2859
8 2776 2727 2777 2822 2819 2774 2820 2861
8 2777 2728 2778 2823 2820 2775 2821 2862
8 2779 2730 2780 2825 2822 2777 2823 2864
8 2823 2778 2731 2780 2865 2824 2781 2826
8 2825 2780 2733 2782 2866 2826 2783 2827
8 2869 2828 2785 2830 2847 2803 2756 2804
8 2871 2829 2786 2832 2830 2785 2738 2787
8 2872 2830 2787 2833 2848 2804 2759 2806
8 2789 2739 2786 2832 2835 2788 2831 2874
8 2836 2789 2740 2790 2875 2832 2787 2833
8 2792 2741 2788 2835 2838 2791 2834 2877
8 2793 2742 2789 2836 2839 2792 2835 2878
8 2838 2791 2837 2880 2795 2744 2794 2841
8 2839 2792 2838 2881 2796 2745 2795 2842
8 2841 2794 2840 2882 2798 2749 2799 2844
8 2842 2795 2841 2883 2797 2748 2798 2843
8 2843 2798 2844 2884 2800 2751 2801 2845
8 2886 2846 2803 2847 2850 2807 2762 2808
8 2851 2808 2847 2887 2809 2763 2804 2848
8 2850 2807 2766 2811 2889 2849 2812 2853
8 2810 2765 2811 2852 2851 2808 2850 2890
8 2852 2811 2768 2813 2891 2853 2814 2855
8 2853 2812 2769 2814 2892 2854 2815 2856
8 2894 2856 2814 2855 2858 2817 2771 2816
8 2817 2772 2818 2859 2856 2815 2857 2895
8 2819 2774 2820 2861 2858 2817 2859 2897
8 2820 2775 2821 2862 2859 2818 2860 2898
8 2822 2777 2823 2864 2861 2820 2862 2900
8 2823 2778 2824 2865 2862 2821 2863 2901
8 2864 2823 2780 2825 2902 2865 2826 2866
8 2904 2867 2828 2869 2886 2846 2803 2847
8 2869 2828 2868 2906 2830 2785 2829 2871
8 2907 2869 2830 2872 2887 2847 2804 2848
8 2871 2829 2870 2909 2832 2786 2831 2874
8 2910 2871 2832 2875 2872 2830 2787 2833
8 2835 2788 2831 2874 2877 2834 2873 2912
8 2836 2789 2832 2875 2878 2835 2874 2913
8 2877 2834 2876 2915 2838 2791 2837 2880
8 2839 2792 2835 2878 2881 2838 2877 2916
8 2880 2837 2879 2917 2841 2794 2840 2882
8 2881 2838 2880 2918 2842 2795 2841 2883
8 2883 2841 2882 2919 2843 2798 2844 2884
8 2921 2885 2846 2886 2889 2849 2807 2850
8 2922 2886 2847 2887 2890 2850 2808 2851
8 2889 2849 2812 2853 2924 2888 2854 2892
8 2890 2850 2811 2852 2925 2889 2853 2891
8 2891 2853 2814 2855 2926 2892 2856 2894
8 2892 2854 2815 2856 2927 2893 2857 2895
8 2858 2817 2859 2897 2894 2856 2895 2929
8 2859 2818 2860 2898 2895 2857 2896 2930
8 2861 2820 2862 2900 2897 2859 2898 2932
8 2862 2821 2863 2901 2898 2860 2899 2933
8 2864 2823 2865 2902 2900 2862 2901 2934
8 2904 2867 2846 2886 2936 2903 2885 2921
8 2904 2867 2903 2936 2869 2828 2868 2906
8 2937 2904 2869 2907 2922 2886 2847 2887
8 2906 2868 2905 2939 2871 2829 2870 2909
8 2907 2869 2906 2940 2872 2830 2871 2910
8 2909 2870 2908 2942 2874 2831 2873 2912
8 2910 2871 2909 2943 2875 2832 2874 2913
8 2912 2873 2911 2945 2877 2834 2876 2915
8 2878 2835 2874 2913 2916 2877 2912 2946
8 2915 2876 2914 2947 2880 2837 2879 2917
8 2916 2877 2915 2948 2881 2838 2880 2918
8 2918 2880 2917 2949 2883 2841 2882 2919
8 2921 2885 2849 2889 2951 2920 2888 2924
8 2952 2921 2886 2922 2925 2889 2850 2890
8 2924 2888 2854 2892 2954 2923 2893 2927
8 2925 2889 2853 2891 2955 2924 2892 2926
8 2926 2892 2856 2894 2956 2927 2895 2929
8 2895 2857 2896 2930 2927 2893 2928 2957
8 2897 2859 2898 2932 2929 2895 2930 2959
8 2898 2860 2899 2933 2930 2896 2931 2960
8 2900 2862 2901 2934 2932 2898 2933 2961
8 2936 2903 2885 2921 2963 2935 2920 2951
8 2936 2903 2935 2963 2906 2868 2905 2939
8 2937 2904 2886 2922 2964 2936 2921 2952
8 2937 2904 2936 2964 2907 2869 2906 2940
8 2939 2905 2938 2966 2909 2870 2908 2942
8 2940 2906 2939 2967 2910 2871 2909 2943
8 2942 2908 2941 2969 2912 2873 2911 2945
8 2943 2909 2942 2970 2913 2874 2912 2946
8 2945 2911 2944 2971 2915 2876 2914 2947
8 2946 2912 2945 2972 2916 2877 2915 2948
8 2948 2915 2947 2973 2918 2880 2917 2949
8 2951 2920 2888 2924 2975 2950 2923 2954
8 2952 2921 2889 2925 2976 2951 2924 2955
8 2927 2893 2928 2957 2954 2923 2953 2978
8 2955 2924 2892 2926 2979 2954 2927 2956
8 2929 2895 2930 2959 2956 2927 2957 2980
8 2930 2896 2931 2960 2957 2928 2958 2981
8 2932 2898 2933 2961 2959 2930 2960 2982
8 2951 2920 2950 2975 2963 2935 2962 2984
8 2963 2935 2962 2984 2939 2905 2938 2966
8 2964 2936 2921 2952 2985 2963 2951 2976
8 2964 2936 2963 2985 2940 2906 2939 2967
8 2966 2938 2965 2987 2942 2908 2941 2969
8 2967 2939 2966 2988 2943 2909 2942 2970
8 2969 2941 2968 2989 2945 2911 2944 2971
8 2970 2942 2969 2990 2946 2912 2945 2972
8 2972 2945 2971 2991 2948 2915 2947 2973
8 2954 2923 2953 2978 2975 2950 2974 2993
8 2976 2951 2924 2955 2994 2975 2954 2979
8 2957 2928 2958 2981 2978 2953 2977 2995
8 2956 2927 2957 2980 2979 2954 2978 2996
8 2959 2930 2960 2982 2980 2957 2981 2997
8 2984 2962 2983 2999 2966 2938 2965 2987
8 2975 2950 2974 2993 2984 2962 2983 2999
8 2976 2951 2975 2994 2985 2963 2984 3000
8 2985 2963 2984 3000 2967 2939 2966 2988
8 2987 2965 2986 3001 2969 2941 2968 2989
8 2988 2966 2987 3002 2970 2942 2969 2990
8 2990 2969 2989 3003 2972 2945 2971 2991
8 2978 2953 2977 2995 2993 2974 2992 3004
8 2979 2954 2978 2996 2994 2975 2993 3005
8 2980 2957 2981 2997 2996 2978 2995 3006
8 2974 2993 2999 2983 2992 3004 3007 2998
8 2983 2999 2987 2965 2998 3007 3001 2986
8 3000 2984 2999 3008 2988 2966 2987 3002
8 2994 2975 2993 3005 3000 2984 2999 3008
8 3002 2987 3001 3009 2990 2969 2989 3003
8 2996 2978 2995 3006 3005 2993 3004 3010
8 3005 2993 3004 3010 3008 2999 3007 3011
8 3008 2999 3007 3011 3002 2987 3001 3009

CELL_TYPES 1910
12
12
12
12
12
12
12
12
12
12
12
12
12
12
12
12
12
12
12
12
12
12
12
12
12
12
12
12
12
12
12
12
12
12
12
12
12
12
12
12
12
12
12
12
12
12
12
12
12
12
12
12
12
12
12
12
12
12
12
12
12
12
12
12
12
12
12
12
12
12
12
12
12
12
12
12
12
12
12
12
12
12
12
12
12
12
12
12
12
12
12
12
12
12
12
12
12
12
12
12
12
12
12
12
12
12
12
12
12
12
12
12
12
12
12
12
12
12
12
12
12
12
12
12
12
12
12
12
12
12
12
12
12
12
12
12
12
12
12
12
12
12
12
12
12
12
12
12
12
12
12
12
12
12
12
12
12
12
12
12
12
12
12
12
12
12
12
12
12
12
12
12
12
12
12
12
12
12
12
12
12
12
12
12
12
12
12
12
12
12
12
12
12
12
12
12
12
12
12
12
12
12
12
12
12
12
12
12
12
12
12
12
12
12
12
12
12
12
12
12
12
12
12
12
12
12
12
12
12
12
12
12
12
12
12
12
12
12
12
12
12
12
12
12
12
12
12
12
12
12
12
12
12
12
12
12
12
12
12
12
12
12
12
12
12
12
12
12
12
12
12
12
12
12
12
12
12
12
12
12
12
12
12
12
12
12
12
12
12
12
12
12
12
12
12
12
12
12
12
12
12
12
12
12
12
12
12
12
12
12
12
12
12
12
12
12
12
12
12
12
12
12
12
12
12
12
12
12
12
12
12
12
12
12
12
12
12
12
12
12
12
12
12
12
12
12
12
12
12
12
12
12
12
12
12
12
12
12
12
12
12
12
12
12
12
12
12
12
12
12
12
12
12
12
12
12
12
12
12
12
12
12
12
12
12
12
12
12
12
12
12
12
12
12
12
12
12
12
12
12
12
12
12
12
12
12
12
12
12
12
12
12
12
12
12
12
12
12
12
12
12
12
12
12
12
12
12
12
12
12
12
12
12
12
12
12
12
12
12
12
12
12
12
12
12
12
12
12
12
12
12
12
12
12
12
12
12
12
12
12
12
12
12
12
12
12
12
12
12
12
12
12
12
12
12
12
12
12
12
12
12
12
12
12
12
12
12
12
12
12
12
12
12
12
12
12
12
12
12
12
12
12
12
12
12
12
12
12
12
12
12
12
12
12
12
12
12
12
12
12
12
12
12
12
12
12
12
12
12
12
12
12
12
12
12
12
12
12
12
12
12
12
12
12
12
12
12
12
12
12
12
12
12
12
12
12
12
12
12
12
12
12
12
12
12
12
12
12
12
12
12
12
12
12
12
12
12
12
12
12
12
12
12
12
12
12
12
12
12
12
12
12
12
12
12
12
12
12
12
12
12
12
12
12
12
12
12
12
12
12
12
12
12
12
12
12
12
12
12
12
12
12
12
12
12
12
12
12
12
12
12
12
12
12
12
12
12
12
12
12
12
12
12
12
12
12
12
12
12
12
12
12
12
12
12
12
12
12
12
12
12
12
12
12
12
12
12
12
12
12
12
12
12
12
12
12
12
12
12
12
12
12
12
12
12
12
12
12
12
12
12
12
12
12
12
12
12
12
12
12
12
12
12
12
12
12
12
12
12
12
12
12
12
12
12
12
12
12
12
12
12
12
12
12
12
12
12
12
12
12
12
12
12
12
12
12
12
12
12
12
12
12
12
12
12
12
12
12
12
12
12
12
12
12
12
12
12
12
12
12
12
12
12
12
12
12
12
12
12
12
12
12
12
12
12
12
12
12
12
12
12
12
12
12
12
12
12
12
12
12
12
12
12
12
12
12
12
12
12
12
12
12
12
12
12
12
12
12
12
12
12
12
12
12
12
12
12
12
12
12
12
12
12
12
12
12
12
12
12
12
12
12
12
12
12
12
12
12
12
12
12
12
12
12
12
12
12
12
12
12
12
12
12
12
12
12
12
12
12
12
12
12
12
12
12
12
12
12
12
12
12
12
12
12
12
12
12
12
12
12
12
12
12
12
12
12
12
12
12
12
12
12
12
12
12
12
12
12
12
12
12
12
12
12
12
12
12
12
12
12
12
12
12
12
12
12
12
12
12
12
12
12
12
12
12
12
12
12
12
12
12
12
12
12
12
12
12
12
12
12
12
12
12
12
12
12
12
12
12
12
12
12
12
12
12
12
12
12
12
12
12
12
12
12
12
12
12
12
12
12
12
12
12
12
12
12
12
12
12
12
12
12
12
12
12
12
12
12
12
12
12
12
12
12
12
12
12
12
12
12
12
12
12
12
12
12
12
12
12
12
12
12
12
12
12
12
12
12
12
12
12
12
12
12
12
12
12
12
12
12
12
12
12
12
12
12
12
12
12
12
12
12
12
12
12
12
12
12
12
12
12
12
12
12
12
12
12
12
12
12
12
12
12
12
12
12
12
12
12
12
12
12
12
12
12
12
12
12
12
12
12
12
12
12
12
12
12
12
12
12
12
12
12
12
12
12
12
12
12
12
12
12
12
12
12
12
12
12
12
12
12
12
12
12
12
12
12
12
12
12
12
12
12
12
12
12
12
12
12
12
12
12
12
12
12
12
12
12
12
12
12
12
12
12
12
12
12
12
12
12
12
12
12
12
12
12
12
12
12
12
12
12
12
12
12
12
12
12
12
12
12
12
12
12
12
12
12
12
12
12
12
12
12
12
12
12
12
12
12
12
12
12
12
12
12
12
12
12
12
12
12
12
12
12
12
12
12
12
12
12
12
12
12
12
12
12
12
12
12
12
12
12
12
12
12
12
12
12
12
12
12
12
12
12
12
12
12
12
12
12
12
12
12
12
12
12
12
12
12
12
12
12
12
12
12
12
12
12
12
12
12
12
12
12
12
12
12
12
12
12
12
12
12
12
12
12
12
12
12
12
12
12
12
12
12
12
12
12
12
12
12
12
12
12
12
12
12
12
12
12
12
12
12
12
12
12
12
12
12
12
12
12
12
12
12
12
12
12
12
12
12
12
12
12
12
12
12
12
12
12
12
12
12
12
12
12
12
12
12
12
12
12
12
12
12
12
12
12
12
12
12
12
12
12
12
12
12
12
12
12
12
12
12
12
12
12
12
12
12
12
12
12
12
12
12
12
12
12
12
12
12
12
12
12
12
12
12
12
12
12
12
12
12
12
12
12
12
12
12
12
12
12
12
12
12
12
12
12
12
12
12
12
12
12
12
12
12
12
12
12
12
12
12
12
12
12
12
12
12
12
12
12
12
12
12
12
12
12
12
12
12
12
12
12
12
12
12
12
12
12
12
12
12
12
12
12
12
12
12
12
12
12
12
12
12
12
12
12
12
12
12
12
12
12
12
12
12
12
12
12
12
12
12
12
12
12
12
12
12
12
12
12
12
12
12
12
12
12
12
12
12
12
12
12
12
12
12
12
12
12
12
12
12
12
12
12
12
12
12
12
12
12
12
12
12
12
12
12
12
12
12
12
12
12
12
12
12
12
12
12
12
12
12
12
12
12
12
12
12
12
12
12
12
12
12
12
12
12
12
12
12
12
12
12
12
12
12
12
12
12
12
12
12
12
12
12
12
12
12
12
12
12
12
12
12
12
12
12
12
12
12
12
12
12
12
12
12
12
12
12
12
12
12
12
12
12
12
12
12
12
12
12
12
12
12
12
12
12
12
12
12
12
12
12
12
12
12
12
12
12
12
12
12
12
12
12
12
12
12
12
12
12
12
12
12
12
12
12
12
12
12
12
12
12
12
12
12
12
12
12
12
12
12
12
12
12
12
12
12
12
12
12
12
12
12
12
12
12
12
12
12
12
12
12
12
12
12
12
12
12
12
12
12
12
12
12
12
12
12
12
12
12
12
12
12
12
12
12
12
12
12
12
12
12
12
12
12
12
12
12
12
12
12
12
12
12
12
12
12
12
12
12
12
12
12
12
12
12
12
12
12
12
12
12
12
12
12
12
12
12
12
12
12
12
12
12
12
12
12
12
12
12
12
12
12
12
12
12
12
12
12
12
12
12
12
12
12
12
12
12
12
12
12
12
12
12
12
12
12
12
12
12
12
12
12
12
12
12
12
12
12
12
12
12
12
12
12
12
12
12
12
12
12
12
12
12
12
12
12
12
12
12
12
12
12
12
12
12
12
12
12
12
12
12
12
12
12
12
12
12
12
12
12
12
12
12
12
12
12
12
12
12
12
12
12
12
12
12
12
12
12
12
12
12
12
12
12
12
12
12
12
12
12
12
12
12
12
12
12
12
12
12
12
12
12
12
12
12
12
12
12
12
12
12
12
12
12
12
12
12
12
12
12
12
12
12
12
12
12
12

POINT_DATA 3012
SCALARS Jp_lamdaP float 4
LOOKUP_TABLE default
0.999271 1 1 0.999271
1 1 1 1
0.999294 1 1 0.999294
0.999222 1 1 0.999222
0.999275 1 1 0.999275
0.999235 1 1 0.999235
1.02238 1.02443 1 0.997991
1 1 1 1
1 1 1 1
1 1 1 1
0.999287 1 1 0.999287
1.01881 1.02097 1 0.997883
0.99931 1 1 0.99931
0.999275 1 1 0.999275
0.999306 1 1 0.999306
0.999267 1 1 0.999267
0.999251 1 1 0.999251
0.999309 1 1 0.999309
1.02221 1.02428 1 0.997983
1 1 1 1
0.99922 1 1 0.99922
0.999251 1 1 0.999251
1.01434 1.01643 1 0.997941
1.01923 1.02127 1 0.998002
0.999216 1 1 0.999216
1.02423 1.02634 1 0.997949
1.0596 1.0637 1 0.996139
0.999997 1 1 0.999997
0.999645 1 1 0.999645
0.999654 1 1 0.999654
0.999998 1 1 0.999998
1.01663 1.01876 1.00002 0.99789
0.999283 1 1 0.999283
0.999308 1 1 0.999308
1.02067 1.02247 1 0.998245
1 1 1 1
1.02267 1.02443 1 0.998282
1.01109 1.01251 1.00071 0.997898
1.04634 1.05049 1.00013 0.99592
1 1 1 1
1 1 1 1
0.999642 1 1 0.999642
1 1 1 1
0.999306 1 1 0.999306
1.00359 1.00575 1 0.997852
1 1 1 1
1.01036 1.01219 1 0.998189
0.999306 1 1 0.999306
0.999336 1 1 0.999336
0.999258 1 1 0.999258
1.02214 1.0242 1 0.997982
0.999625 1 1 0.999625
0.99926 1 1 0.99926
0.99923 1 1 0.99923
0.999293 1 1 0.999293
1.0141 1.01621 1 0.997926
1.024 1.02611 1 0.997944
1.01905 1.0211 1 0.997993
1.06051 1.06462 1 0.996138
1 1 1 1
0.999251 1 1 0.999251
1.00474 1.00644 1 0.998311
1.01111 1.01319 1 0.997942
1.0169 1.01897 1 0.997974
1.05967 1.06383 1 0.996091
1.05984 1.06396 1 0.996132
0.999216 1 1 0.999216
1.01454 1.01652 1.0001 0.997955
1.05871 1.06284 1 0.996118
1.07949 1.08446 1 0.995422
1 1 1 1
1 1 1 1
1 1 1 1
1.01464 1.01678 1 0.997895
1 1 1 1
1 1 1 1
1.02073 1.02291 1 0.997868
0.999698 1 1 0.999698
1.02182 1.02394 1 0.997922
1.00913 1.01011 1.00087 0.99816
1.05043 1.05474 1 0.995913
1 1 1 1
1.00527 1 1.00621 0.999065
1.01814 1.0204 1 0.997787
1.02168 1.02385 1 0.997878
1.06541 1.06994 1 0.995767
1.00538 1.00476 1.00201 0.9986
1.0586 1.06294 1 0.995919
1.04011 1.04221 1.00195 0.99604
1.07749 1.08263 1 0.995254
1 1 1 1
1 1 1 1
1 1 1 1
1 1 1 1
1 1 1 1
0.999655 1 1 0.999655
1.0045 1.00645 1 0.998069
0.999635 1 1 0.999635
1.01168 1.0137 1 0.998004
1 1 1 1
1.00239 1.00449 1 0.997914
1.00656 1.00835 1 0.99822
1.05719 1.06157 1 0.995873
1.01508 1.0169 1 0.99821
1.06474 1.0692 1 0.995825
0.999334 1 1 0.999334
0.999297 1 1 0.999297
0.999238 1 1 0.999238
0.99933 1 1 0.99933
1.01385 1.01597 1 0.997915
1.01888 1.02093 1 0.997988
1.02337 1.02548 1 0.997944
1.06184 1.06595 1 0.996137
1 1 1 1
0.999288 1 1 0.999288
1.00425 1.00629 1 0.997973
1.01083 1.01293 1 0.997924
0.999616 1 1 0.999616
1.01606 1.0177 1.00031 0.998078
1.01667 1.01874 1 0.997964
1.06009 1.06425 1 0.996099
1.0588 1.06293 1 0.996116
1.06069 1.06481 1 0.996133
1.07882 1.08377 1 0.995432
1.00338 1.00545 1 0.997936
1.00734 1.00938 1 0.997982
1.05409 1.05846 0.99963 0.996234
1.05755 1.0618 0.999854 0.99614
1.05938 1.06351 1 0.996125
1.09091 1.09726 0.998467 0.995736
1 1 1 1
1.08472 1.08963 0.999947 0.995542
1.00518 1.00558 1.00165 0.997959
1.0511 1.05543 1 0.995896
1.07494 1.08002 1 0.995296
1.08026 1.08663 0.998469 0.995664
1.00322 1.00049 1.00418 0.998551
1.01232 1.00292 1.01233 0.997069
1 1 1 1
1 1 1 1
1.02109 1.02327 1 0.99787
1 1 1 1
1.00647 1.00715 1.00132 0.998004
1.02156 1.02368 1 0.997927
1.05404 1.05837 1 0.995907
1 1 1 1
1.00592 1 1.00683 0.999088
1.0191 1.02113 1 0.998005
1.0223 1.02426 1 0.998081
1.06455 1.06908 1 0.995762
1.00432 1.00312 1.00285 0.998351
1.05828 1.06262 1 0.995918
1.04041 1.04278 1.0017 0.996035
1.0766 1.08171 1 0.995279
1.00436 1.00088 1.00477 0.998713
1.00745 1 1.0081 0.999347
1.01665 1.00624 1.01283 0.997541
1.06638 1.07093 1 0.995743
1.06499 1.06943 1 0.995843
1.08885 1.09419 0.999632 0.995483
1.02942 1.02947 1.00349 0.996464
1.07503 1.07991 1 0.995481
1.06722 1.07128 1.00102 0.995196
1.08709 1.09219 1 0.995337
1 1 1 1
1 1 1 1
1 1 1 1
1.00454 1.00004 1.00567 0.998835
1 1 1 1
1 1 1 1
1 1 1 1
1.0128 1.01501 1 0.997827
1.00499 1.0071 1 0.997898
1 1 1 1
1 1 1 1
1.00264 1.00473 1 0.997915
1.00743 1.0094 1 0.99804
1.05655 1.06092 1 0.995875
1.01575 1.01798 1 0.997807
1.06268 1.06714 1 0.995823
1.00241 1.0045 1 0.997923
1.05454 1.05892 1 0.99586
1.06064 1.06504 1 0.995869
1.09052 1.09893 0.996374 0.995958
1.06656 1.07109 1 0.99577
1.09008 1.09787 0.997028 0.995871
1 1 1 1
0.999326 1 1 0.999326
1.00371 1.00613 1 0.997591
1.01056 1.01268 1 0.997909
1 1 1 1
1.01755 1.01937 1 0.998206
1.01644 1.01852 1 0.997956
1.06048 1.06462 1 0.996106
1.06161 1.06573 1 0.996134
1.05798 1.0621 1 0.996116
1.07736 1.0823 1 0.995442
1.00304 1.00512 1 0.997934
1.00715 1.00921 1 0.997965
1.05451 1.05916 0.999531 0.996079
1.05855 1.06276 0.999921 0.996119
1 1 1 1
1.00821 1.00918 1.0009 0.998135
1.04802 1.05174 1.00043 0.99603
1.05992 1.06405 1 0.996114
1.089 1.09613 0.997704 0.99578
1.07447 1.07954 1 0.995301
1.08491 1.08986 0.999896 0.995559
1.07979 1.08615 0.998463 0.995672
1.0032 1.0009 1.00377 0.998536
1.01299 1.00505 1.01087 0.997062
1.05327 1.05764 1 0.995872
1.05601 1.06055 0.99952 0.9962
1.09036 1.09779 0.997313 0.995903
1.08981 1.09768 0.99695 0.995868
1.0866 1.09365 0.997839 0.995703
1.08026 1.09316 0.99208 0.996089
1.00333 1.00226 1.00283 0.99824
1.08016 1.08992 0.995126 0.995898
1.0422 1.0446 1.00163 0.996072
1.07451 1.07971 1 0.995181
1.08169 1.08677 0.999955 0.995377
1.07412 1.08665 0.992396 0.996044
1.01526 1.01112 1.00749 0.99663
1.01322 1.00078 1.01485 0.997619
1.01917 1.01297 1.00996 0.996192
1.01963 1.02184 1 0.997829
1 1 1 1
1.00596 1 1.00686 0.999112
1.02241 1.02455 1 0.997916
1.06387 1.0684 1 0.995758
1.00372 1.00195 1.00342 0.99835
1.04224 1.0453 1.00105 0.99603
1.05744 1.06178 1 0.995915
1.0771 1.08218 1 0.995305
1.00447 1.0006 1.00513 0.998741
1.0068 1 1.00744 0.999365
1.01405 1.00379 1.01272 0.997543
1.06496 1.06952 1 0.995737
1.06342 1.06786 1 0.995842
1.08893 1.09423 0.999676 0.995478
1.02616 1.02653 1.00319 0.996464
1.07636 1.08126 1 0.99547
1.07104 1.07547 1.00071 0.99518
1.08722 1.09228 1 0.995371
1.00652 1 1.00697 0.999554
1.01937 1.01472 1.0076 0.996996
1.01711 1.0015 1.01761 0.998012
1.01575 1.01319 1.00562 0.996925
1.08908 1.09542 0.998611 0.995592
1.08341 1.08835 1 0.995456
1.08391 1.09437 0.994729 0.995694
1.04755 1.0463 1.00575 0.995476
1.07842 1.08355 0.999552 0.995709
1.07505 1.07866 1.00158 0.995086
1.09985 1.10487 1 0.995463
1.00261 1 1.00352 0.999093
1.00057 1 1.00079 0.999786
1 1 1 1
1 1 1 1
1 1 1 1
1.00482 1 1.00564 0.999186
1 1 1 1
1.00463 1.00009 1.00573 0.998812
1 1 1 1
1.01701 1.01924 1 0.997808
1.00842 1.01057 1 0.997866
1.06105 1.0655 1 0.995822
1.05596 1.06034 1 0.995876
1.00294 1.00503 1 0.997917
1 1 1 1
1.00236 1.00444 1 0.997923
1.05445 1.05883 1 0.995862
1.05961 1.06401 1 0.995869
1.09055 1.09892 0.996414 0.995957
1.06491 1.06944 1 0.995764
1.09132 1.09905 0.997089 0.995868
1.05313 1.05751 1 0.99586
1.09049 1.09885 0.996438 0.99594
1.09078 1.09874 0.996801 0.995941
1.07619 1.09032 0.990684 0.99633
1.08955 1.09685 0.997598 0.995742
1.0799 1.0939 0.990979 0.996192
1.00278 1.00485 1 0.997933
1.00696 1.00903 1 0.997948
1.05493 1.05988 0.999404 0.995925
1.05959 1.06374 1 0.996097
0.999999 1 1 0.999999
1.01121 1.01208 1.00082 0.998318
1.04573 1.04915 1.00058 0.996162
1.06044 1.06459 1 0.996104
1.08717 1.0951 0.996922 0.995824
1.08509 1.09008 0.999848 0.995577
1.07567 1.08074 1 0.995307
1.07981 1.08619 0.998438 0.995679
1.00323 1.00135 1.00336 0.99852
1.01494 1.0073 1.01056 0.997055
1.05351 1.05807 0.999799 0.995896
1.05667 1.06109 0.999646 0.996194
1.08966 1.0975 0.996913 0.995932
1.08957 1.09683 0.997556 0.995822
1.00367 1.00308 1.00236 0.998226
1.04003 1.04228 1.00178 0.996074
1.0773 1.08251 1 0.995182
1.08733 1.09368 0.99851 0.995675
1.08009 1.09382 0.991273 0.996142
1.0813 1.08635 0.999958 0.995395
1.07983 1.0897 0.995023 0.995899
1.07391 1.08679 0.992084 0.996026
1.01869 1.01465 1.00738 0.996628
1.0193 1.01112 1.01194 0.99619
1.01487 1.00104 1.01623 0.997625
1.09053 1.0979 0.997382 0.995894
1.09009 1.09827 0.996621 0.995912
1.0757 1.08825 0.992177 0.99626
1.07832 1.09264 0.990682 0.996183
1.0796 1.09319 0.991466 0.996065
1.07363 1.09418 0.984729 0.996436
1.02647 1.02639 1.00376 0.996334
1.0696 1.08949 0.985453 0.996238
1.06992 1.075 1 0.995269
1.07933 1.08474 1 0.995017
1.07496 1.08181 0.998106 0.995553
1.06535 1.08517 0.985367 0.996315
1.01796 1.00316 1.01677 0.99801
1.03226 1.02573 1.01059 0.995821
1.016 1.00147 1.01789 0.996678
1.02593 1.0204 1.00974 0.995725
1.06361 1.06817 1 0.99573
1.00665 1 1.00727 0.999383
1.00457 1.00013 1.00567 0.998769
1.01392 1.00202 1.01436 0.997543
1.06221 1.06665 1 0.995841
1.08892 1.09418 0.99972 0.995472
1.02084 1.02121 1.00318 0.996465
1.07117 1.07587 1.00047 0.995164
1.07775 1.08267 1 0.99546
1.08512 1.09013 1 0.995404
1.00542 1 1.00585 0.999568
1.01576 1.01053 1.00818 0.997013
1.01772 1.00154 1.01819 0.998007
1.01405 1.01031 1.0068 0.996928
1.09021 1.0964 0.998759 0.995586
1.08393 1.08888 1 0.995453
1.08356 1.09404 0.994703 0.995694
1.04721 1.04549 1.0062 0.995468
1.07724 1.08241 0.999549 0.995672
1.07049 1.07394 1.00173 0.995071
1.09965 1.10453 1 0.99558
1.00253 1 1.00285 0.999687
1.01514 1 1.01679 0.998372
1.02583 1.02343 1.00618 0.996187
1.01996 1.00696 1.01567 0.997283
1.01467 1.01312 1.00482 0.99673
1.08223 1.09666 0.990967 0.995842
1.08127 1.08832 0.997852 0.995661
1.07451 1.09089 0.989056 0.995883
1.03714 1.03835 1.00371 0.995144
1.08212 1.08966 0.997262 0.995806
1.05743 1.06177 1.00086 0.995055
1.00474 1 1.00584 0.998902
1.00816 1 1.00983 0.998342
1.00002 1 1.00076 0.999256
1.00163 1 1.00253 0.999095
0.999875 1 1 0.999875
1.00025 1 1.00045 0.999802
0.999985 1 1 0.999985
1 1 1 1
1 1 1 1
1.00248 1 1.00297 0.999506
1 1 1 1
1.00524 1 1.00608 0.999158
1 1 1 1
1.00406 1.00011 1.00516 0.998788
1 1 1 1
1.06295 1.06748 1 0.995758
1.0583 1.06269 1 0.995869
1.09221 1.09984 0.99718 0.995866
1.0905 1.09882 0.996459 0.995956
1.05428 1.05866 1 0.995863
1.00219 1.00428 1 0.997922
1.05335 1.05772 1 0.99586
1.09032 1.09869 0.996428 0.99594
1.09085 1.09888 0.996742 0.995939
1.07562 1.09045 0.990019 0.996345
1.09077 1.09799 0.997678 0.995738
1.07968 1.09351 0.991119 0.996192
1.09019 1.09831 0.996661 0.995928
1.07523 1.09 0.990059 0.996355
1.07807 1.09151 0.991366 0.996288
1.07869 1.09749 0.986282 0.99654
1.0794 1.0954 0.989318 0.996034
1.07833 1.10032 0.983456 0.996504
1.0536 1.05836 0.999579 0.99592
1.05737 1.06164 0.999789 0.996188
1.08903 1.09723 0.996556 0.995961
1.08924 1.09589 0.998144 0.995777
1.00456 1.0044 1.00195 0.998213
1.03913 1.04107 1.00206 0.996077
1.08026 1.08549 1 0.995184
1.08802 1.09367 0.999186 0.995646
1.07984 1.09439 0.990465 0.996196
1.07932 1.08931 0.994918 0.995899
1.08055 1.08556 0.999975 0.995414
1.07349 1.08677 0.99174 0.996008
1.02256 1.01869 1.0072 0.996625
1.01761 1.00957 1.01182 0.996188
1.01504 1.00147 1.01596 0.99763
1.08995 1.09753 0.997168 0.995915
1.0894 1.09777 0.996454 0.99591
1.07536 1.08873 0.991386 0.996304
1.07909 1.09287 0.991195 0.996158
1.03114 1.03081 1.004 0.996338
1.07029 1.07536 1.00002 0.995275
1.07944 1.08481 1.00003 0.995018
1.08004 1.09289 0.992207 0.996011
1.07332 1.0945 0.98411 0.99648
1.07586 1.08244 0.998402 0.995514
1.06986 1.08975 0.985455 0.996238
1.06511 1.08563 0.984683 0.996354
1.03016 1.02603 1.00824 0.995826
1.0228 1.01784 1.00924 0.995666
1.015 1.00272 1.01426 0.998014
1.01376 1.00179 1.01525 0.996747
1.07556 1.08866 0.991628 0.99631
1.07819 1.09178 0.991304 0.99622
1.07417 1.09236 0.98685 0.996458
1.07122 1.09586 0.98093 0.996517
1.07147 1.09228 0.9845 0.996394
1.07546 1.10066 0.980401 0.996638
1.05047 1.05335 1.00178 0.995498
1.06237 1.08975 0.978204 0.996592
1.06394 1.06928 1 0.995004
1.07239 1.07772 1.00011 0.994941
1.07182 1.08229 0.994704 0.995602
1.06665 1.08885 0.983167 0.996382
1.01396 1.00432 1.01143 0.998193
1.02407 1.00926 1.01771 0.997017
1.02837 1.02981 1.00319 0.995428
1.01478 1.00546 1.01301 0.996308
1.02305 1.0161 1.01139 0.995494
1.00429 1 1.00471 0.999583
1.09137 1.09742 0.998906 0.99558
1.01647 1.0016 1.01688 0.998002
1.01246 1.00661 1.0088 0.99703
1.01109 1.00692 1.00723 0.996931
1.08438 1.08934 1 0.99545
1.08315 1.09365 0.994676 0.995694
1.05034 1.04998 1.00489 0.995462
1.06975 1.07299 1.00193 0.995057
1.07646 1.08167 0.999546 0.995636
1.10043 1.10519 1 0.995697
1.00182 1 1.00213 0.999698
1.01594 1 1.01759 0.998382
1.02503 1.02259 1.00621 0.996201
1.01942 1.00583 1.01629 0.99727
1.01593 1.01357 1.00574 0.9966
1.08167 1.09613 0.990927 0.995839
1.08096 1.08806 0.99781 0.995662
1.07356 1.09011 0.988898 0.995872
1.03816 1.03985 1.00325 0.99514
1.08715 1.0946 0.997401 0.995775
1.05822 1.0624 1.00096 0.995116
1.00846 1 1.0098 0.998675
1.01942 1.00248 1.01937 0.997576
1.01372 1.01482 1.00312 0.9958
1.02619 1.01497 1.01423 0.996874
1.02537 1.02415 1.00485 0.996351
1.07653 1.0987 0.983685 0.996071
1.07479 1.08506 0.994701 0.995817
1.06296 1.08493 0.983585 0.996097
1.00985 1.01093 1.00379 0.995154
1.05279 1.05819 0.999703 0.995189
1.00477 1 1.00587 0.998905
1.00825 1 1.01009 0.998172
1.00867 1 1.01036 0.998325
1.00712 1 1.00897 0.998162
1.00403 1 1.00555 0.998489
0.999531 1 1.00018 0.999355
1.0002 1 1.00094 0.99926
0.999927 1 1 0.999927
1.00141 1 1.00232 0.999098
0.99989 1 1 0.99989
1 1 1 1
0.999998 1 1.00018 0.999818
0.999992 1 1 0.999992
1 1 1 1
1.00255 1 1.00286 0.999695
1.00414 1 1.00465 0.999492
1 1 1 1
1 1 1 1
1.00626 1 1.00714 0.999129
1 1 1 1
1.09214 1.09929 0.997752 0.995734
1.09121 1.09934 0.996653 0.995938
1.07957 1.09327 0.991251 0.996191
1.07513 1.09066 0.989359 0.996361
1.09015 1.09853 0.996417 0.99594
1.05378 1.05816 1 0.99586
1.09002 1.09814 0.99666 0.995928
1.07538 1.0899 0.990297 0.99635
1.07826 1.0917 0.991364 0.996289
1.07764 1.09725 0.985519 0.996567
1.07905 1.09518 0.989199 0.99603
1.07829 1.10051 0.98323 0.996527
1.07531 1.08942 0.990689 0.996327
1.07735 1.09738 0.985171 0.996526
1.0787 1.09818 0.985616 0.996593
1.07986 1.10519 0.980333 0.996684
1.07777 1.10072 0.982759 0.996324
1.0826 1.10856 0.979797 0.996719
1.08945 1.09722 0.996973 0.995936
1.08868 1.09724 0.996274 0.995909
1.07494 1.08916 0.990554 0.996348
1.07989 1.09313 0.991722 0.996133
1.03342 1.0327 1.00438 0.996343
1.0676 1.07259 1.00007 0.995279
1.0789 1.0841 1.00018 0.995019
1.08053 1.09261 0.992959 0.995958
1.07309 1.09483 0.98357 0.996525
1.07028 1.09017 0.985466 0.996238
1.07674 1.08306 0.998687 0.995476
1.0649 1.0861 0.984027 0.996394
1.02937 1.02493 1.00854 0.995831
1.02222 1.01468 1.01187 0.995606
1.01371 1.00244 1.01326 0.998018
1.012 1.00222 1.01299 0.996816
1.07575 1.08883 0.991648 0.996309
1.07805 1.09161 0.991341 0.996205
1.07358 1.0921 0.986504 0.996486
1.07247 1.09609 0.981891 0.9965
1.04961 1.05004 1.00411 0.995498
1.06333 1.06862 1.00003 0.995024
1.07173 1.07683 1.00034 0.994928
1.07237 1.09254 0.985137 0.996346
1.07296 1.09914 0.979416 0.996693
1.06994 1.08027 0.994823 0.995589
1.06346 1.09085 0.97822 0.996592
1.0651 1.08779 0.982622 0.996458
1.02856 1.02828 1.00485 0.995437
1.02078 1.01352 1.01174 0.995479
1.01779 1.00545 1.01602 0.996309
1.01406 1.00293 1.01294 0.998179
1.02127 1.00456 1.01964 0.997046
1.07606 1.09588 0.985351 0.996503
1.07631 1.09877 0.982995 0.996506
1.07171 1.10522 0.972909 0.996679
1.06817 1.09607 0.97778 0.996686
1.04189 1.04686 1.00002 0.995226
1.06354 1.09337 0.975885 0.996755
1.04391 1.04906 1.00029 0.994803
1.05947 1.06595 0.999081 0.99483
1.06491 1.08181 0.988713 0.995615
1.00871 1 1.01015 0.998566
1.01986 1.0007 1.02182 0.997376
1.02225 1.01301 1.01244 0.996724
1.02045 1.01892 1.00618 0.995345
1.02234 1.00771 1.01879 0.9958
1.02112 1.01095 1.01476 0.995371
1.00104 1 1.00133 0.999709
1.01693 1 1.01857 0.998391
1.08102 1.09552 0.990888 0.995836
1.02143 1.00416 1.02 0.997256
1.02385 1.01962 1.00796 0.996215
1.0179 1.01466 1.00675 0.996471
1.08036 1.08749 0.997772 0.995663
1.0728 1.08953 0.98874 0.995861
1.0369 1.03884 1.00301 0.995138
1.05754 1.06184 1.00077 0.995177
1.09248 1.09986 0.997534 0.995744
1.00893 1 1.01026 0.998681
1.02083 1.00124 1.02204 0.99758
1.01976 1.01965 1.00443 0.9957
1.02727 1.01347 1.01679 0.996883
1.02598 1.02504 1.00461 0.996324
1.07522 1.09722 0.983817 0.996066
1.07828 1.08852 0.994764 0.995802
1.0659 1.08862 0.982944 0.996117
1.01227 1.01392 1.00324 0.995143
1.05004 1.05543 0.999745 0.995146
1.0135 1.0009 1.01468 0.99794
1.0254 1.00345 1.02477 0.997169
1.00893 1.01045 1.00285 0.995654
1.0348 1.02463 1.01348 0.996491
1.04789 1.05076 1.00111 0.996169
1.06355 1.0977 0.972249 0.996549
1.08031 1.09257 0.993136 0.995606
1.07507 1.09435 0.986303 0.996022
1.01541 1.0159 1.00433 0.995201
1.02198 1.02721 1 0.994905
1.00418 1 1.00528 0.998909
1.00782 1.00009 1.00957 0.998173
1.00175 1 1.00357 0.998182
1.00659 1 1.0083 0.998306
1.00333 1 1.00486 0.998485
1.00829 1 1.01015 0.998165
1.00333 1 1.00507 0.998276
1.00778 1 1.00969 0.998109
1.00061 1 1.00203 0.998586
0.999363 1 1 0.999363
0.999355 1 1 0.999355
0.99996 1 1 0.99996
0.999747 1 1.00048 0.999264
0.999937 1 1 0.999937
1 1 1 1
0.999904 1 1 0.999904
0.999998 1 1 0.999998
1 1 1 1
1.00034 1 1.00051 0.99983
1.00199 1 1.00231 0.999677
1 1 1 1
1.00469 1 1.00522 0.999477
1 1 1 1
1 1 1 1
1.07871 1.09497 0.989078 0.996026
1.07827 1.0917 0.991373 0.99629
1.07825 1.10072 0.98298 0.996549
1.07653 1.09696 0.984729 0.996594
1.07556 1.08982 0.990536 0.996345
1.08975 1.09787 0.996662 0.995929
1.07558 1.08934 0.991021 0.99631
1.07791 1.09737 0.985696 0.996519
1.07837 1.09763 0.985825 0.99658
1.07745 1.10396 0.979219 0.996692
1.07817 1.10085 0.983012 0.996327
1.07963 1.10698 0.978475 0.996754
1.07809 1.09711 0.986113 0.996498
1.08118 1.10797 0.979062 0.996688
1.07892 1.10746 0.977387 0.996766
1.07375 1.1089 0.971464 0.996745
1.07597 1.08903 0.991667 0.996308
1.07796 1.09148 0.991389 0.99619
1.07306 1.09192 0.986163 0.996514
1.07377 1.09637 0.982846 0.996483
1.05077 1.05073 1.00456 0.995498
1.06421 1.06951 1 0.995044
1.07091 1.07576 1.00058 0.994916
1.07313 1.09274 0.985704 0.996299
1.07045 1.09764 0.978407 0.996748
1.06428 1.09166 0.978255 0.996591
1.06805 1.07838 0.994824 0.995575
1.06447 1.0874 0.982321 0.996533
1.02513 1.02456 1.00514 0.995446
1.0161 1.01112 1.00951 0.995463
1.02135 1.00605 1.01897 0.996309
1.01164 1.0021 1.01137 0.998167
1.01935 1.00068 1.02164 0.997077
1.07589 1.09563 0.985425 0.996504
1.07696 1.09932 0.983103 0.996502
1.07291 1.10468 0.974481 0.996673
1.04124 1.04602 1.00021 0.995225
1.04465 1.04981 1.00026 0.994831
1.05823 1.06407 0.999693 0.99482
1.06849 1.0958 0.978333 0.996674
1.06588 1.08297 0.988415 0.995748
1.06102 1.091 0.975721 0.996723
1.00813 1 1.0095 0.998642
1.0169 1.01584 1.00572 0.995343
1.02127 1.01031 1.01547 0.995448
1.02603 1.01015 1.02002 0.995781
1.02389 1.01282 1.01422 0.996752
1.02258 1.00424 1.02099 0.997322
1.07997 1.10587 0.97994 0.996569
1.0769 1.11218 0.971543 0.996642
1.06553 1.10441 0.967954 0.996741
1.05736 1.09631 0.967497 0.996867
1.02388 1.02859 1.00031 0.995106
1.05397 1.07886 0.980547 0.996306
1.02803 1.03199 1.00165 0.994525
1.04177 1.0513 0.996197 0.99472
1.00187 1 1.00276 0.999117
1.0173 1 1.01944 0.997897
1.01934 1.00696 1.0153 0.997041
1.02949 1.00957 1.02361 0.996222
1.01176 1.00618 1.0102 0.995395
1.02644 1.00866 1.02255 0.995183
1.00958 1 1.01091 0.998686
1.01854 1 1.021 0.997585
1.07392 1.09576 0.983945 0.996062
1.02559 1.01169 1.0169 0.99689
1.02569 1.02476 1.00533 0.995598
1.02513 1.02444 1.00439 0.996296
1.08194 1.09216 0.994834 0.995787
1.06851 1.09204 0.982246 0.996137
1.01547 1.01766 1.00273 0.995132
1.04707 1.05228 0.999945 0.995103
1.01198 1.00016 1.0139 0.997949
1.02466 1.00318 1.02437 0.997118
1.00984 1.01087 1.00335 0.995642
1.03587 1.02705 1.01216 0.996469
1.05348 1.05692 1.00056 0.996191
1.06661 1.10034 0.972659 0.996596
1.08 1.09221 0.993124 0.995665
1.0754 1.09385 0.986964 0.996119
1.018 1.01828 1.00458 0.995163
1.02078 1.02609 1.00003 0.994796
1.00869 1 1.01094 0.997778
1.02395 1.00352 1.02353 0.996905
1.02853 1.02903 1.00378 0.995745
1.04524 1.04618 1.00301 0.996104
1.0671 1.126 0.950707 0.996828
1.05981 1.09412 0.971959 0.996583
1.05923 1.06629 0.99829 0.995088
1.02976 1.03076 1.00426 0.994796
1.007 1 1.00884 0.998174
1.00318 0.999968 1.00507 0.998156
1.00104 0.99899 1.00359 0.998467
1.00482 1 1.00635 0.998481
1.0108 1 1.01266 0.998169
1.00091 1 1.00233 0.998578
1.00288 0.999523 1.00505 0.998317
1.00965 1 1.01155 0.998122
1.0002 1 1.0016 0.998609
1.00913 1 1.01111 0.99804
1.00528 1 1.00724 0.998062
0.999733 1 1.00119 0.99854
0.999316 1 1 0.999316
0.999359 1 1 0.999359
0.999976 1 1 0.999976
0.999355 1 1 0.999355
0.999965 1 1 0.999965
1 1 1 1
0.999947 1 1 0.999947
1 1 1 1
0.999996 1 1 0.999996
0.999915 1 1 0.999915
1.00198 1 1.00217 0.999805
1 1 1 1
1.00357 1 1.00392 0.999659
1 1 1 1
1 1 1 1
1.07848 1.10088 0.983264 0.996329
1.07814 1.09716 0.98605 0.996566
1.07676 1.10545 0.977187 0.996788
1.07513 1.10281 0.978124 0.996701
1.07847 1.09734 0.986239 0.996512
1.07584 1.08928 0.991342 0.996294
1.0777 1.09694 0.985913 0.9965
1.08027 1.10699 0.979112 0.996678
1.07842 1.10719 0.977188 0.996759
1.0731 1.10819 0.971485 0.996759
1.08278 1.10854 0.980068 0.996634
1.07783 1.11336 0.971169 0.996831
1.08018 1.11986 0.96762 0.996843
1.0757 1.09534 0.985513 0.996505
1.07759 1.09982 0.983228 0.996499
1.07397 1.1041 0.975967 0.996667
1.04138 1.04568 1.00067 0.995225
1.04411 1.04932 1.00018 0.994858
1.05749 1.06276 1.00023 0.994809
1.06897 1.09574 0.978829 0.996662
1.05798 1.08864 0.975059 0.99669
1.06685 1.08422 0.988046 0.995882
1.01501 1.01328 1.0064 0.99534
1.02022 1.00958 1.01507 0.995527
1.02958 1.01319 1.0205 0.995762
1.00984 1 1.01114 0.998718
1.02204 1.01094 1.01424 0.996779
1.02548 1.00681 1.02134 0.997265
1.0814 1.10674 0.980458 0.996579
1.07568 1.11208 0.970523 0.996644
1.06602 1.1042 0.968592 0.996734
1.02278 1.02738 1.00043 0.995097
1.02675 1.03088 1.0014 0.9946
1.04537 1.05499 0.996021 0.994841
1.0583 1.09685 0.967884 0.996867
1.05137 1.07687 0.979963 0.99628
1.00275 1 1.00354 0.999211
1.01618 1 1.01833 0.997889
1.00949 1.00563 1.00847 0.995413
1.02956 1.0085 1.02562 0.995385
1.02783 1.01072 1.02078 0.996226
1.02113 1.01013 1.01392 0.997007
1.07792 1.11455 0.970292 0.996744
1.06725 1.11918 0.956751 0.996704
1.05851 1.10401 0.961757 0.996912
1.04021 1.07807 0.967938 0.996846
1.00584 1.0095 1.00133 0.99505
1.03425 1.05463 0.985258 0.995342
1.02081 1.02418 1.00227 0.994456
0.999555 1 1.00006 0.999495
0.999505 1 1.00062 0.998885
1.00941 1 1.01101 0.998422
1.01274 1 1.01544 0.997335
1.01504 1 1.01839 0.996714
1.03781 1.01527 1.0266 0.995723
1.00954 1.00224 1.01156 0.99577
1.0512 1.00546 1.04966 0.996024
1.01322 1 1.01529 0.997958
1.02871 1.004 1.02763 0.997067
1.07007 1.10331 0.973146 0.996643
1.04038 1.03262 1.01111 0.996449
1.01054 1.01091 1.00401 0.995631
1.05856 1.0622 1.00037 0.996214
1.07969 1.09185 0.993108 0.995724
1.07592 1.09353 0.98763 0.996217
1.01986 1.01995 1.00482 0.995126
1.0193 1.02475 1 0.994687
1.01054 1.00025 1.01261 0.997699
1.02315 1.00429 1.022 0.996848
1.03601 1.03614 1.00415 0.995737
1.04277 1.0444 1.00232 0.996125
1.06809 1.12761 0.950219 0.996847
1.06734 1.09898 0.974598 0.996528
1.05447 1.06182 0.997916 0.995155
1.03128 1.03283 1.00377 0.994748
1.00662 0.999072 1.00979 0.997789
1.07886 1.13877 0.95036 0.996879
1.01434 1.00478 1.01301 0.996539
1.03664 1.03717 1.00396 0.99555
1.04324 1.10595 0.94614 0.996993
1.04354 1.05497 0.993914 0.995221
1.02121 1.02356 1.00323 0.994485
1.00527 1 1.00715 0.99813
0.999008 0.997797 1.00276 0.998459
1.00092 0.997256 1.00496 0.998723
1.00057 1 1.00201 0.99857
1.0101 1 1.01199 0.998135
1.00289 0.998592 1.00596 0.998359
0.999526 1 1.00099 0.998535
1.00517 1 1.00711 0.998076
1.00096 0.999296 1.00301 0.998664
1.00758 1 1.00956 0.998037
0.996707 0.997035 1.00086 0.998815
1.00378 1 1.00538 0.998414
1.00844 1 1.01058 0.997881
0.999611 1 1.00174 0.997872
0.998851 1 1.00043 0.998419
0.999267 1 1 0.999267
0.99931 1 1 0.99931
0.999983 1 1 0.999983
0.999355 1 1 0.999355
0.999978 1 1 0.999978
1 1 1 1
0.99997 1 1 0.99997
1 1 1 1
1 1 1 1
0.999685 1 1.00012 0.999565
0.999953 1 1 0.999953
0.999904 1 1 0.999904
1 1 1 1
1.0015 1 1.00172 0.99978
1 1 1 1
1 1 1 1
1.07231 1.10733 0.971511 0.996773
1.07792 1.10685 0.977031 0.996752
1.07925 1.10592 0.979148 0.996668
1.07735 1.09679 0.985731 0.996501
1.08229 1.10853 0.979613 0.996653
1.07736 1.113 0.971069 0.996822
1.07659 1.11619 0.967579 0.996844
1.07921 1.11579 0.970306 0.996813
1.08815 1.13172 0.964485 0.996913
1.10392 1.16027 0.954133 0.997167
1.08269 1.1075 0.980946 0.996589
1.07456 1.11198 0.969604 0.996645
1.06673 1.10401 0.969409 0.996726
1.02317 1.02772 1.00048 0.995088
1.02672 1.03091 1.00126 0.994678
1.04898 1.05873 0.995805 0.994961
1.05919 1.09687 0.968691 0.996867
1.04835 1.07404 0.979754 0.996255
1.01046 1.00569 1.00936 0.995432
1.03504 1.00907 1.03029 0.995579
1.0268 1.01004 1.02044 0.99623
1.00125 1 1.00194 0.999306
1.01464 1 1.01679 0.997881
1.02362 1.0136 1.01295 0.996974
1.07712 1.11443 0.969672 0.996753
0.99972 1 1.00023 0.999487
0.999957 1 1.00112 0.998833
1.06862 1.11847 0.958584 0.996706
1.05765 1.1028 0.962062 0.996884
1.00714 1.01013 1.00192 0.995124
1.0223 1.02536 1.00254 0.994496
1.03054 1.05077 0.985361 0.995326
1.03889 1.07736 0.967374 0.996813
1.00823 1 1.00972 0.998523
1.01328 1 1.01601 0.997317
1.01029 1.00218 1.01251 0.995634
1.04588 1.0066 1.04318 0.996011
1.03466 1.01148 1.02732 0.99572
1.01536 1.00241 1.01621 0.996765
1.08528 1.13875 0.956065 0.996845
1.05172 1.11704 0.944544 0.996807
1.04013 1.09115 0.956058 0.997057
1.02162 1.05258 0.974 0.996503
1.00927 1.00585 1.00791 0.995526
1.01836 1.02699 0.99682 0.994759
0.999611 1 1.00085 0.99876
1.00269 1 1.00384 0.998849
1.00096 1.00021 1.00227 0.998482
1.00701 1 1.00936 0.997672
1.01491 1 1.01789 0.997073
1.01023 1.0004 1.01338 0.996485
1.07865 1.00682 1.07568 0.995968
0.993616 1.00049 0.996034 0.997081
1.00882 1 1.01122 0.997622
1.01981 1.0031 1.01993 0.996791
1.06792 1.12737 0.950251 0.996866
1.07434 1.10325 0.977242 0.996472
1.04052 1.0423 1.00216 0.996144
1.04518 1.04506 1.00441 0.995727
1.0501 1.05767 0.997618 0.995221
1.03378 1.03582 1.00335 0.9947
1.00738 0.998935 1.0107 0.997779
1.07954 1.142 0.948186 0.996963
1.01517 1.00244 1.01612 0.996633
1.03143 1.03214 1.00386 0.99547
1.04419 1.1068 0.94629 0.996975
1.03844 1.05144 0.992263 0.995331
1.02283 1.02492 1.00348 0.994495
1.01774 0.99815 1.02204 0.997642
1.00051 1.08003 0.928879 0.997302
1.00746 0.999774 1.01139 0.996336
1.01282 1.01237 1.00563 0.994845
1.00416 1.0471 0.962358 0.996506
1.00465 1.00765 1.00221 0.994828
0.925392 1.00004 0.929792 0.995224
0.996019 0.995577 1.002 0.998451
0.99908 0.994308 1.00608 0.998728
1.00213 0.995177 1.00833 0.998668
0.999484 1 1.00096 0.99853
1.0067 1 1.00863 0.99809
1.00631 1 1.00829 0.998035
1.00259 0.99895 1.00493 0.998721
0.998802 1 1.00038 0.998418
1.00029 1 1.0024 0.997899
0.994431 0.994589 1.00106 0.998781
1.00972 1 1.01187 0.997877
1.00484 1 1.00648 0.998369
1.00016 0.993018 1.00843 0.99877
1.00924 1 1.01149 0.997769
1.007 1 1.00918 0.997842
0.998213 1 1.00045 0.997764
0.998341 1 1.00012 0.998222
1.00615 1 1.0082 0.997969
1.00034 1 1.00214 0.9982
0.99925 1 1 0.99925
0.999262 1 1 0.999262
0.999989 1 1 0.999989
0.999304 1 1 0.999304
0.999985 1 1 0.999985
1 1 1 1
0.99998 1 1 0.99998
1 1 1 1
1 1 1 1
0.999665 1 1 0.999665
0.999633 1 1.00006 0.99957
0.999978 1 1 0.999978
0.999947 1 1 0.999947
1 1 1 1
1.0008 1 1.00091 0.999893
1 1 1 1
1 1 1 1
1.07331 1.11307 0.967332 0.996845
1.07696 1.11282 0.970868 0.996813
1.08196 1.10868 0.979156 0.996672
1.07883 1.11546 0.970252 0.996811
1.08566 1.12989 0.963837 0.996902
1.10595 1.16058 0.955716 0.997078
1.09818 1.15036 0.95754 0.996979
0.9199 1.0163 0.911785 0.992715
1.04536 1.10567 0.947571 0.997763
0.999657 1 1.00067 0.998989
1.07645 1.11449 0.969004 0.996761
1.06977 1.11751 0.960444 0.996709
1.05637 1.10144 0.962103 0.996855
1.00402 1.00804 1.00082 0.995195
1.02364 1.02638 1.00281 0.994533
1.02722 1.04699 0.985744 0.995308
1.03817 1.07739 0.966706 0.996779
1.00575 1.00221 1.00805 0.995509
1.03933 1.00746 1.03577 0.996011
1.0326 1.00769 1.02913 0.995715
1.00101 1 1.00153 0.99948
1.01513 1.00386 1.01447 0.996814
1.00813 1 1.00952 0.998622
1.01399 1 1.01673 0.997299
1.00044 1 1.00166 0.998781
1.08448 1.13879 0.955311 0.996852
0.9993 1 1.00047 0.998826
1.00346 1 1.00461 0.998853
1.00083 1.00051 1.00188 0.998443
1.05495 1.11732 0.94721 0.996805
1.03698 1.08819 0.9558 0.997005
1.00432 1.0039 1.00488 0.995565
1.01927 1.0277 0.99687 0.994912
1.02228 1.05255 0.974665 0.996485
1.00691 1 1.00919 0.997739
1.01373 1 1.01674 0.997041
1.00457 1.00031 1.00745 0.996826
1.0668 1.00491 1.06592 0.995933
1.0107 1.00369 1.01048 0.996545
1.05932 1.13228 0.938449 0.99693
1.01878 1.09927 0.929591 0.996976
1.02709 1.06468 0.967909 0.996672
1.00765 1.03064 0.981372 0.996246
1.00079 1.00085 1.00338 0.996577
0.998615 1 1.0002 0.998414
1.00447 1.00038 1.00601 0.998096
1.00279 0.999089 1.00542 0.998291
1.01515 1 1.01766 0.997528
1.01381 1 1.01666 0.997197
1.04845 0.999932 1.05186 0.996826
1.02948 1.00335 1.02888 0.997247
1.00845 0.999565 1.01115 0.997766
1.01628 1.00065 1.01896 0.996729
1.07954 1.14642 0.944457 0.997045
1.04597 1.10885 0.946176 0.996954
1.03361 1.04829 0.990518 0.995442
1.02436 1.02546 1.00355 0.995392
1.02362 1.02558 1.0036 0.994506
1.018 0.998284 1.02202 0.99778
1.00287 1.08226 0.929097 0.997367
1.00446 1.00046 1.00769 0.996337
1.01022 1.00942 1.00599 0.994834
1.00288 1.04426 0.963585 0.996661
1.00597 1.00844 1.00273 0.99483
0.921294 0.997373 0.929541 0.993739
1.01919 0.994853 1.0269 0.997623
0.968206 1.02923 0.94327 0.997282
1.00192 1.00137 1.00464 0.995926
1.00424 1.00265 1.00614 0.995469
0.987815 1.00768 0.983783 0.996446
0.858237 0.967834 0.923343 0.960381
0.820049 0.940526 0.890563 0.979048
0.923512 0.971354 0.954701 0.995859
0.580368 0.754747 0.84855 0.9062
0.495172 0.675309 0.838889 0.874076
0.998009 0.991472 1.00787 0.998733
1.00396 0.992498 1.01285 0.998721
1.00409 0.992833 1.01266 0.998703
0.998431 1 1.00001 0.998419
1.00036 1 1.00244 0.997926
1.00953 1 1.01168 0.997873
1.00427 1 1.00596 0.998323
0.991025 0.992269 1 0.998747
1.00775 1 1.00993 0.997846
0.998263 1 1 0.998263
0.998564 1 1.00079 0.997778
0.999316 0.994434 1.00623 0.998693
1.0095 1 1.01166 0.997866
1.0146 1 1.01672 0.997919
1.01485 0.998321 1.01833 0.998263
1.00796 1 1.01014 0.99784
0.998962 1 1.00134 0.997627
0.998982 1 1.0008 0.998181
1.00227 1 1.00445 0.997826
1.00684 0.999919 1.00888 0.998062
1.0076 1 1.00947 0.998146
1.00591 1 1.00797 0.997947
1.00092 1 1.00257 0.998359
1.0011 1 1.00291 0.998195
0.99925 1 1 0.99925
0.999251 1 1 0.999251
0.999995 1 1 0.999995
0.999257 1 1 0.999257
0.999992 1 1 0.999992
1 1 1 1
0.999987 1 1 0.999987
1 1 1 1
1 1 1 1
0.999764 1 1 0.999764
0.999767 1 1.0001 0.999663
0.999993 1 1 0.999993
0.999783 1 1.00021 0.999576
0.999972 1 1 0.999972
1 1 1 1
0.999941 1 1 0.999941
1 1 1 1
1 1 1 1
1.08291 1.12776 0.963217 0.996892
1.07809 1.11475 0.97021 0.996809
1.11074 1.16237 0.958466 0.996992
0.925688 1.01537 0.9183 0.992791
1.09694 1.15074 0.956137 0.996975
1.05302 1.10847 0.952223 0.997639
1.06842 1.12617 0.951488 0.997092
0.872137 0.964776 0.923812 0.978532
0.965415 1.03043 0.943111 0.993416
0.999057 1 1 0.999057
0.99934 1 1.00036 0.998981
0.999719 1 1.00121 0.998515
0.998598 1 1 0.998598
1.08353 1.13899 0.954302 0.99686
1.05781 1.1179 0.949285 0.996804
1.03402 1.08542 0.955558 0.996952
1.0038 1.00378 1.00444 0.995604
1.0196 1.02844 0.996316 0.995069
1.0216 1.0516 0.974909 0.996468
1.01728 1 1.02079 0.996562
1.05585 1.00439 1.05556 0.995897
1.01285 1.00729 1.00894 0.996609
1.00328 1 1.00443 0.998857
1.01304 1.00061 1.01546 0.997013
1.00634 1 1.00855 0.997806
0.998892 1 1 0.998892
1.00062 1.00043 1.0018 0.998406
1.05985 1.13462 0.936962 0.996944
0.999237 0.999999 1.00083 0.998408
1.00324 1.0006 1.00444 0.998201
1.00246 0.998068 1.00577 0.998644
1.02729 1.10352 0.933756 0.996962
1.02648 1.06411 0.967864 0.99667
1.00054 1.00426 0.999716 0.996573
1.00881 1.03078 0.982305 0.996316
1.01433 1 1.01698 0.997392
1.014 1.00003 1.01702 0.997005
1.03654 1.00421 1.03506 0.997231
1.04966 1.00329 1.0497 0.996687
1.01045 1.0814 0.937167 0.997039
0.993588 1.06411 0.936546 0.996991
1.01116 1.02749 0.987778 0.996281
0.972802 1.00375 0.971606 0.997495
1.00805 0.999402 1.01021 0.998454
1.00815 1 1.01054 0.997626
1.02094 0.999112 1.02377 0.998121
1.07422 1.0015 1.07553 0.997287
0.855276 0.96707 0.927939 0.953079
1.01883 0.998121 1.02287 0.997919
1.00249 1.00091 1.00527 0.996336
1.00552 1.08388 0.930085 0.997441
1.00131 1.04118 0.964784 0.996814
1.00739 1.0093 1.0033 0.994826
1.00854 1.00712 1.00663 0.994821
0.919237 0.996705 0.929542 0.992183
1.01506 0.995015 1.02251 0.997687
0.967013 1.0294 0.941986 0.997252
1.00238 1.00151 1.00496 0.995937
1.00652 1.00519 1.00585 0.995494
0.990007 1.00873 0.984958 0.996425
0.846195 0.968321 0.916653 0.953337
0.822833 0.940846 0.896778 0.975233
0.926883 0.971368 0.958092 0.995942
0.578272 0.753164 0.844661 0.908992
0.493459 0.682618 0.832971 0.867847
1.00564 0.994961 1.01305 0.997714
0.627397 0.782439 0.877941 0.913329
0.535954 0.708353 0.866216 0.873477
0.973789 1.00558 0.970696 0.99762
1.01256 1.00212 1.01357 0.996891
1.01662 1.00648 1.01309 0.997024
0.920495 0.957641 0.964491 0.9966
0.788154 0.93282 0.881966 0.957991
0.790188 0.908852 0.894227 0.972275
0.55079 0.727904 0.825442 0.916696
0.539001 0.757551 0.823216 0.864299
1.00527 0.989802 1.01688 0.998773
1.00512 0.991494 1.01509 0.998676
1.01492 0.994465 1.02176 0.998837
0.998305 1 1 0.998305
0.999078 1 1.00129 0.997791
1.00859 1 1.01076 0.997851
1.01078 1 1.01284 0.997962
0.999058 0.99563 1.00484 0.998615
0.998886 1 1.00071 0.998181
1.01473 1 1.01685 0.99791
1.00836 1 1.01058 0.997806
0.998856 1 1.00118 0.99768
1.01448 0.997814 1.01841 0.998323
1.01483 1 1.01666 0.998193
1.03137 0.997162 1.03586 0.998495
1.00736 1 1.00975 0.997628
0.999382 1 1.00167 0.997719
1.00129 1 1.00348 0.997817
1.00581 0.999184 1.00851 0.998133
1.00137 0.999955 1.00356 0.99787
1.00156 0.998491 1.00486 0.998227
1.00997 0.996736 1.01491 0.99839
1.01244 0.999713 1.01474 0.998024
1.01113 1 1.01297 0.998191
1.00976 1 1.01163 0.998148
1.00629 1 1.00791 0.998397
1.00782 1 1.00991 0.997925
1.00136 1 1.00305 0.998317
0.999221 1 1 0.999221
1.0018 1 1.00362 0.998189
0.999254 1 1 0.999254
0.99999 1 1 0.99999
0.999252 1 1 0.999252
0.999994 1 1 0.999994
1 1 1 1
0.999993 1 1 0.999993
1 1 1 1
1 1 1 1
0.998975 1 1 0.998975
0.999797 1 1 0.999797
0.999759 1 1 0.999759
0.999999 1 1 0.999999
0.999726 1 1.00006 0.999662
0.999989 1 1 0.999989
1 1 1 1
0.999966 1 1 0.999966
1 1 1 1
1 1 1 1
0.928523 1.0144 0.921918 0.992866
1.09578 1.15041 0.955401 0.996971
1.05781 1.11034 0.955066 0.997511
0.859291 0.964432 0.909313 0.979841
0.959044 1.02973 0.937274 0.993681
1.07111 1.12884 0.95166 0.997053
0.969081 1.04882 0.928532 0.995093
0.87995 0.97469 0.919849 0.981466
0.859493 0.973297 0.921973 0.957809
0.594239 0.763214 0.847711 0.918473
0.465662 0.650538 0.819931 0.873015
0.999726 1 1.00113 0.998601
0.999294 1 1.00024 0.999055
0.999451 1 1.00048 0.998973
0.999919 1 1.00138 0.998544
1.00059 1 1.00214 0.998454
0.998656 1 1.00043 0.99823
0.999478 1 1.00114 0.99834
0.998649 1 1.0001 0.99855
1.06205 1.13664 0.937233 0.996956
1.03633 1.10786 0.938301 0.996949
1.02635 1.06423 0.967624 0.996668
0.999078 1.00604 0.996503 0.99657
1.01056 1.0311 0.983635 0.996384
1.04385 1.00469 1.04187 0.997213
1.05044 1.00608 1.04771 0.996548
1.01145 1.00036 1.01432 0.996809
1.00216 1.00077 1.00309 0.998302
1.01499 1 1.01778 0.997251
1.00011 1 1.00171 0.998403
1.00223 0.998036 1.00521 0.999002
1.00485 1.08103 0.932224 0.997112
1.00727 0.999204 1.00968 0.998405
1.01019 0.99998 1.01236 0.997877
0.992972 1.06235 0.937542 0.996962
1.01117 1.03014 0.98509 0.996445
0.974918 1.00306 0.974516 0.997357
1.03003 0.999169 1.03324 0.997726
1.06492 1.00361 1.06392 0.997337
0.95339 1.03597 0.92328 0.996756
0.995877 1.02162 0.977762 0.996975
0.974173 1.00266 0.974464 0.997045
0.972106 0.995592 0.978481 0.997883
1.01228 0.999997 1.01452 0.997794
1.01999 0.996545 1.02559 0.99799
1.05913 0.998821 1.06284 0.997691
0.656953 0.794032 0.903028 0.916209
0.861612 0.971326 0.922452 0.961619
1.01112 0.996318 1.01715 0.997753
1.00242 1.00132 1.00518 0.995951
0.96719 1.02951 0.942085 0.997221
0.992323 1.01009 0.985947 0.99641
1.0091 1.00787 1.00571 0.995528
0.850256 0.97094 0.914212 0.957879
0.829508 0.953245 0.891718 0.975862
0.928219 0.969313 0.961402 0.996052
0.593265 0.751739 0.859026 0.918704
0.490565 0.69126 0.823888 0.861365
1.00585 0.996886 1.01129 0.997726
0.644549 0.794033 0.887829 0.914298
0.50479 0.676112 0.85945 0.868704
0.974052 1.00671 0.969904 0.997584
1.01273 1.00279 1.01308 0.996886
1.01442 1.00423 1.01301 0.997169
0.91594 0.951616 0.965458 0.996947
0.787391 0.938049 0.880565 0.953243
0.789877 0.906259 0.893791 0.975149
0.571276 0.740936 0.842843 0.914784
0.549172 0.774707 0.821669 0.862727
1.00612 0.995389 1.01236 0.998437
0.538857 0.716027 0.86423 0.870793
0.581013 0.788667 0.841648 0.875309
0.984244 0.989201 0.996401 0.998582
1.01904 1.00238 1.01813 0.998517
0.927208 0.938624 0.991971 0.995833
0.812951 0.898171 0.925962 0.97749
0.723304 0.878003 0.867507 0.949624
0.607278 0.745478 0.88902 0.916306
0.630296 0.853479 0.848204 0.870666
1.00808 0.993824 1.01571 0.99865
1.01249 0.995889 1.0179 0.998787
1.01149 0.993354 1.01921 0.999074
0.998488 1 1.00031 0.998179
0.998762 1 1.00103 0.997734
1.00953 1 1.01179 0.997771
1.01485 1 1.01698 0.9979
1.01361 0.997219 1.01808 0.998385
0.998882 1 1.00117 0.997711
1.01511 1 1.01703 0.998121
1.0064 1 1.00879 0.99763
1.02819 0.994923 1.03493 0.998559
1.04551 0.992796 1.05405 0.999094
1.02194 0.999928 1.02389 0.998165
1.0037 1 1.00612 0.997601
1.00009 1 1.00229 0.997808
1.00433 0.999855 1.00628 0.998203
1.00149 0.999941 1.0037 0.997858
1.00134 0.999977 1.00317 0.998202
1.0025 0.992975 1.01109 0.998518
1.00364 0.999378 1.00608 0.998196
1.0171 0.99748 1.02147 0.998232
0.99606 0.987356 1.01027 0.998564
1.02105 1.00044 1.02273 0.997912
1.00736 1.00939 1.00093 0.997064
1.01915 0.999637 1.02181 0.997761
1.01281 0.999509 1.01531 0.998028
1.01499 1 1.01712 0.997903
1.0105 0.999944 1.01238 0.998197
1.00733 1 1.00902 0.99833
1.0081 1 1.00997 0.99815
1.00322 1 1.00481 0.998411
0.999389 1 1.00023 0.999159
1.00039 1 1.00212 0.998275
0.999225 1 1 0.999225
0.999969 1 1 0.999969
0.999258 1 1 0.999258
0.999986 1 1 0.999986
1 1 1 1
0.999994 1 1 0.999994
1 1 1 1
1 1 1 1
0.998943 1 1 0.998943
0.999746 1 1 0.999746
0.998979 1 1 0.998979
1 1 1 1
0.999796 1 1 0.999796
0.999755 1 1 0.999755
0.999998 1 1 0.999998
1 1 1 1
0.999985 1 1 0.999985
1 1 1 1
1 1 1 1
0.625784 0.781106 0.88402 0.906259
0.519402 0.70223 0.852382 0.86774
0.858885 0.962053 0.910419 0.980605
0.955947 1.02883 0.934786 0.993978
1.07378 1.13298 0.950583 0.997016
0.876116 0.960551 0.928328 0.982516
0.97288 1.0453 0.93501 0.995409
0.863952 0.978383 0.921972 0.957774
0.572819 0.754507 0.83505 0.909163
0.478981 0.672541 0.821586 0.866855
0.890709 0.990631 0.910532 0.987482
0.813744 0.947421 0.895677 0.958944
0.55687 0.734988 0.826857 0.916311
0.554225 0.767908 0.832413 0.867038
1.0012 1 1.00307 0.998139
0.999026 1 1.00039 0.998639
0.999359 1 1.0003 0.999055
0.999634 1 1.00106 0.998574
1.00014 1 1.00153 0.998606
1.00027 1 1.00242 0.997854
0.999014 1 1.00078 0.998235
1.00135 1 1.00352 0.997831
0.9991 1 1.00082 0.998283
0.998808 1 1.0003 0.998503
0.997271 1.08061 0.925489 0.997182
0.991869 1.06027 0.938361 0.996937
1.0116 1.0327 0.982899 0.99661
0.977524 1.00288 0.97743 0.997219
1.05507 1.00586 1.05167 0.997388
1.04071 0.999582 1.04392 0.997338
1.0109 0.999865 1.01293 0.998127
1.00643 0.998839 1.00926 0.998355
0.952781 1.03639 0.92215 0.996934
1.01566 0.999986 1.01799 0.99773
1.02022 0.99656 1.02582 0.997972
0.984535 1.01701 0.971063 0.996915
0.972014 1.00206 0.972837 0.997103
0.975956 0.997477 0.980504 0.99788
1.05157 0.997839 1.05634 0.997637
0.931548 1.0014 0.933203 0.996828
0.970442 0.996939 0.975293 0.998081
1.01791 0.986846 1.03338 0.998168
1.01118 1 1.01358 0.99763
1.02681 0.997717 1.03153 0.997701
1.02869 0.995793 1.03527 0.997838
0.560567 0.726536 0.871166 0.885664
0.64993 0.790005 0.896313 0.917862
0.858756 0.972776 0.92603 0.953305
1.00482 0.995509 1.01164 0.997735
1.01243 1.00288 1.01269 0.996872
0.975804 1.00796 0.970482 0.997546
1.01249 1.00257 1.01263 0.997307
0.652562 0.786978 0.901418 0.919883
0.797708 0.943241 0.887253 0.953177
0.78213 0.904446 0.889293 0.972415
0.916417 0.948389 0.968949 0.997254
0.564843 0.747124 0.833739 0.906786
0.49102 0.661443 0.851517 0.871793
0.561568 0.780948 0.825588 0.870997
1.00568 0.994962 1.01242 0.998374
0.542681 0.715669 0.865217 0.876411
0.602258 0.811074 0.848775 0.874842
0.979953 0.986329 0.994826 0.998702
1.01807 1.00105 1.01858 0.998456
0.924198 0.936006 0.99054 0.996815
0.800202 0.904209 0.908419 0.974192
0.749963 0.883827 0.887237 0.956385
0.606068 0.75222 0.88797 0.907357
0.623412 0.844023 0.842738 0.876453
1.00552 0.992502 1.01369 0.999431
0.624325 0.811078 0.869683 0.88509
0.62256 0.828414 0.854859 0.879102
0.966684 0.94314 1.02525 0.999715
0.854516 0.895544 0.969626 0.984078
0.761568 0.851541 0.937731 0.953728
0.707175 0.848638 0.922027 0.903776
0.681158 0.901228 0.857483 0.881429
1.00937 0.996044 1.01466 0.998736
1.01389 0.992753 1.02225 0.999059
1.0221 0.979501 1.04417 0.999354
0.999197 1 1.0015 0.997703
1.00493 1 1.00731 0.997632
1.01473 1 1.01671 0.998049
1.02587 0.993188 1.03433 0.998624
1.00415 1 1.00657 0.9976
1.02086 0.999338 1.02342 0.998153
1.05109 0.99274 1.05966 0.999173
1.04043 0.978127 1.06429 0.999446
1.04665 0.993593 1.05438 0.999068
1.01551 0.999498 1.01801 0.998046
1.00116 1 1.00332 0.997844
1.00038 1.00012 1.00209 0.998176
0.994325 0.987111 1.00868 0.998643
1.01554 0.997363 1.02 0.998258
1.00201 0.999825 1.00401 0.998184
0.99884 0.986455 1.01398 0.998598
1.02283 0.999231 1.02542 0.998242
1.01973 0.982045 1.03945 0.998962
1.00928 1.00318 1.00794 0.998161
1.01577 1.00133 1.0165 0.997949
1.00339 1.0019 1.00415 0.997342
1.01303 1.01565 1.00153 0.995902
1.01063 1.00515 1.0081 0.997372
1.00515 1.00697 1.00077 0.997435
1.01687 0.999837 1.01933 0.997754
1.02603 0.999907 1.02859 0.997606
1.01241 0.999362 1.01505 0.998034
1.01591 1 1.01804 0.997907
1.01028 1 1.01223 0.998064
1.01187 1 1.01369 0.998203
1.00906 1 1.01075 0.998329
1.00233 1 1.0033 0.99904
1.00371 1 1.00529 0.998426
1.00018 1 1.00102 0.999161
0.999929 1 1 0.999929
0.999333 1 1.0001 0.999231
0.999958 1 1 0.999958
1 1 1 1
0.999982 1 1 0.999982
1 1 1 1
1 1 1 1
0.99925 1 1.00071 0.998543
0.99965 1 1 0.99965
0.99895 1 1.00011 0.998841
0.999998 1 1 0.999998
0.999753 1 1 0.999753
0.999032 1 1.00005 0.998982
1 1 1 1
1 1 1 1
0.999796 1 1 0.999796
0.999996 1 1 0.999996
1 1 1 1
1 1 1 1
0.522747 0.702717 0.852409 0.872696
0.638334 0.788633 0.887026 0.912509
0.605131 0.816983 0.846658 0.87484
0.517624 0.705904 0.84622 0.866534
0.874891 0.962808 0.927486 0.979731
0.976503 1.04148 0.941617 0.995743
0.856311 0.982253 0.910724 0.95724
0.587502 0.748774 0.854513 0.918206
0.493536 0.69995 0.81926 0.860657
0.89837 0.984947 0.924833 0.986232
0.783207 0.932815 0.88392 0.949879
0.574751 0.743766 0.845166 0.914327
0.540479 0.757673 0.827326 0.862224
0.847026 0.952046 0.906352 0.981617
0.717129 0.853701 0.885834 0.948285
0.633776 0.791911 0.886281 0.903
0.619626 0.840362 0.84854 0.868943
1.00538 1 1.00773 0.997666
1.00128 1 1.00308 0.9982
0.998852 1 1.00018 0.998675
0.999901 1 1.00114 0.998759
0.999995 1 1.0026 0.997405
0.999937 1 1.00201 0.997926
0.999163 1 1.00092 0.99824
1.00094 1 1.00316 0.997792
1.00047 1 1.00261 0.997869
0.9987 1 1.00047 0.998226
0.953068 1.03715 0.921594 0.997104
0.975036 1.01278 0.965761 0.996861
0.968557 1.00129 0.970066 0.99716
0.978762 0.999102 0.981725 0.997878
1.03972 0.995855 1.04658 0.997579
1.02091 0.997619 1.02544 0.997958
1.01751 1 1.01989 0.997667
1.0109 1 1.01335 0.99758
0.933423 1.00065 0.935654 0.996965
1.02183 0.998479 1.02579 0.99766
1.02883 0.996409 1.0348 0.997816
0.969402 0.998408 0.972816 0.99808
1.01043 0.990574 1.02196 0.998124
0.933885 0.966861 0.968751 0.997051
0.95251 0.951615 1.00172 0.999221
1.04637 0.976977 1.07277 0.998377
1.01138 0.998502 1.0151 0.997827
1.03285 0.995196 1.03991 0.998004
0.63926 0.827022 0.867239 0.891296
0.552341 0.726922 0.860183 0.883342
0.639435 0.782996 0.89808 0.909331
1.00627 0.995826 1.01219 0.998316
1.01713 0.999284 1.0195 0.998392
0.973606 0.983589 0.991008 0.998831
0.534713 0.709445 0.860417 0.875977
0.720792 0.862173 0.881103 0.948831
0.804983 0.90181 0.914544 0.976038
0.913625 0.929483 0.985046 0.997862
0.616265 0.764845 0.879242 0.9164
0.619301 0.827402 0.85562 0.874791
0.619127 0.838118 0.842094 0.87723
1.00329 0.99268 1.01132 0.999376
0.629342 0.815447 0.870042 0.887056
0.617518 0.821238 0.85491 0.87955
0.969631 0.949093 1.02218 0.999473
0.865698 0.908001 0.968861 0.984053
0.736578 0.852587 0.912979 0.946278
0.671919 0.893452 0.854405 0.880201
0.723723 0.848215 0.939565 0.908113
0.9867 0.948224 1.04088 0.999711
0.623826 0.808509 0.868115 0.888795
0.669905 0.874056 0.86499 0.88606
0.617211 0.839081 0.846366 0.869103
0.916148 0.907287 1.01407 0.995752
0.836383 0.88761 0.985765 0.955894
0.788164 0.922998 0.933973 0.914285
1.01744 0.992901 1.0257 0.999043
1.02572 0.98486 1.04225 0.99927
1.04022 0.974401 1.06801 0.999566
1.00496 1 1.00738 0.9976
1.01951 0.998875 1.02256 0.998141
1.05574 0.991279 1.06582 0.999251
1.01857 0.999372 1.0212 0.998058
1.04682 0.993456 1.05469 0.999079
1.04823 0.980036 1.07021 0.999421
1.03393 0.968576 1.06802 0.999489
1.03049 0.989975 1.04191 0.999058
1.01357 0.997467 1.01788 0.998287
1.00167 1.00018 1.00332 0.998171
1.00382 0.988651 1.01674 0.998633
1.02134 0.986861 1.03604 0.998933
1.02952 0.999958 1.03137 0.998252
1.0151 1.00008 1.01624 0.998795
1.01098 0.999966 1.01244 0.998591
1.00386 1.00245 1.00462 0.996803
1.0117 1.00336 1.01034 0.997999
1.00463 1.00417 1.00325 0.997221
1.00443 1.00674 1.00227 0.995455
1.03011 1.03371 1.00129 0.995236
1.01235 1.01292 1.00258 0.996865
1.00886 1.01154 1.00138 0.995966
1.01741 1.00054 1.01968 0.997239
1.01065 1.00537 1.00787 0.997401
1.00295 1.00457 1.00059 0.997802
1.01486 0.999959 1.0172 0.997748
1.02512 0.999871 1.0277 0.997616
1.01608 1 1.01835 0.997763
1.01735 0.999888 1.0196 0.997911
1.00993 1.00032 1.01156 0.998061
1.00563 1 1.00684 0.998805
1.0068 1 1.00849 0.998327
1.00243 1 1.0034 0.999033
0.999889 1 1 0.999889
1.00018 1 1.00102 0.999162
0.999919 1 1 0.999919
1 1 1 1
0.999947 1 1 0.999947
1 1 1 1
1 1 1 1
1.00139 1 1.00324 0.998149
0.999433 1 1.00011 0.999325
0.999466 1 1.00093 0.998542
0.999991 1 1 0.999991
0.999574 1 1 0.999574
0.998818 1 1.00008 0.99874
1 1 1 1
0.999999 1 1 0.999999
0.99976 1 1 0.99976
1 1 1 1
1 1 1 1
1 1 1 1
0.645807 0.840801 0.867915 0.884978
0.53715 0.70731 0.862995 0.879989
0.6251 0.781677 0.87757 0.911256
1.00234 1 1.00466 0.997694
0.614679 0.815839 0.853068 0.883202
0.605955 0.814763 0.850309 0.874647
0.536449 0.727942 0.843626 0.873538
0.904246 0.990893 0.926532 0.984917
0.790354 0.926784 0.890167 0.958014
0.562695 0.746678 0.831802 0.905983
0.527844 0.734042 0.828839 0.867589
0.842395 0.948375 0.908461 0.977754
0.745972 0.873817 0.893191 0.955779
0.621409 0.769907 0.892294 0.904548
0.622479 0.842503 0.848675 0.870587
0.785056 0.895032 0.901658 0.972793
0.744141 0.841363 0.929676 0.95135
0.731213 0.852977 0.942583 0.909468
0.67895 0.895177 0.860466 0.881445
1.00334 1 1.00569 0.997656
1.00566 1 1.00802 0.997654
1.00113 1 1.00287 0.998262
1 1 1.00238 0.997625
1.00103 1 1.00356 0.997483
1.00011 1 1.00212 0.997998
1.00193 1 1.00415 0.997791
1.00015 1 1.00225 0.997906
0.93686 1.00195 0.937781 0.997069
0.970011 1.00115 0.970755 0.998089
1.00947 1 1.01198 0.997527
1.00262 0.994178 1.01044 0.998079
1.02915 0.995624 1.03596 0.997793
1.02271 0.99987 1.02529 0.997615
1.01622 0.99947 1.019 0.997799
0.935791 0.966299 0.971123 0.997226
1.03082 0.995996 1.03704 0.998003
1.0354 0.983833 1.05408 0.998422
0.957683 0.956007 1.00249 0.999262
1.02088 0.998119 1.02479 0.998065
0.919513 0.927226 0.995341 0.996324
0.982836 0.950008 1.0351 0.999476
1.07142 0.988219 1.08578 0.998536
1.06376 0.995047 1.07097 0.998211
0.619787 0.800677 0.866516 0.893323
0.637261 0.825407 0.867466 0.890013
0.54413 0.725602 0.851256 0.880936
1.00013 0.992697 1.00817 0.999322
0.973592 0.953696 1.02165 0.999233
0.63766 0.823244 0.871367 0.888912
0.754621 0.833031 0.948395 0.955166
0.854886 0.905741 0.963683 0.979422
0.710977 0.83836 0.936318 0.905735
0.61547 0.818039 0.855062 0.879903
0.668401 0.890821 0.853665 0.87894
0.996739 0.961409 1.03709 0.999669
0.625033 0.810702 0.867364 0.888874
0.675649 0.874918 0.869643 0.887999
0.933581 0.919423 1.01684 0.998585
0.620336 0.840824 0.847384 0.870646
0.804508 0.866244 0.976228 0.951348
0.783818 0.910498 0.942097 0.913777
0.990302 0.950362 1.04246 0.999584
0.672029 0.856852 0.87587 0.895453
0.618205 0.815543 0.857393 0.884109
0.550533 0.763795 0.831367 0.866988
0.724732 0.847208 0.941335 0.908747
0.91857 0.919767 1.00924 0.989558
0.853304 0.89857 1.0049 0.944993
1.02788 0.991241 1.03781 0.999188
1.03427 0.966826 1.07025 0.999534
1.01474 0.944134 1.07523 0.999581
1.0211 0.998713 1.0244 0.998069
1.04847 0.992061 1.05782 0.999091
1.05752 0.982679 1.07681 0.999396
1.02714 0.990305 1.03819 0.999045
1.0283 0.968427 1.06236 0.999488
0.985553 0.96445 1.02266 0.999234
1.02326 0.990432 1.03428 0.998903
1.0346 0.997394 1.03911 0.998266
1.02178 0.998738 1.02433 0.998764
1.0018 0.998717 1.00518 0.99792
1.01236 0.997684 1.01571 0.99902
0.998095 1.00253 0.998499 0.997076
1.00807 1.00394 1.00945 0.994719
1.01015 1.01285 1.00283 0.994514
1.00555 1.00677 1.00171 0.997085
1.00451 1.00729 1.00205 0.995203
1.02693 1.03128 1.00053 0.995252
1.02512 1.02657 1.00261 0.995989
1.0268 1.0303 1.00125 0.995353
1.01371 1.00639 1.01027 0.997032
1.01634 1.01625 1.00328 0.996819
1.00424 1.00695 1.00128 0.996034
1.02372 1 1.02625 0.997541
1.01744 1.00071 1.01951 0.997271
1.01095 1.00558 1.00793 0.99743
1.02427 1 1.02671 0.997627
1.01547 1.00024 1.0175 0.997765
1.01156 1 1.01307 0.998506
1.01041 1.00048 1.01188 0.998058
1.00602 1 1.00723 0.998799
1.00005 1 1.00023 0.99982
1.00378 1 1.00475 0.999029
0.99988 1 1 0.99988
1 1 1 1
0.999909 1 1 0.999909
1 1 1 1
1 1 1 1
1.00256 1 1.00451 0.998053
1.00111 1 1.00207 0.999043
1.0016 1 1.00338 0.998224
0.999973 1 1 0.999973
0.999308 1 1.00001 0.999294
0.999503 1 1.00096 0.99854
1 1 1 1
0.999993 1 1 0.999993
0.999497 1 1 0.999497
1 1 1 1
1 1 1 1
1 1 1 1
0.626786 0.809869 0.866645 0.893025
0.643678 0.837531 0.868354 0.885057
0.53876 0.705618 0.867735 0.879911
1.00258 1 1.00484 0.997742
1.00925 1 1.01165 0.997624
1.00112 1 1.00331 0.997822
0.676281 0.879293 0.868706 0.885362
0.615174 0.819693 0.849322 0.883638
0.60287 0.815549 0.845286 0.874521
0.844363 0.952199 0.90479 0.980062
0.718173 0.869321 0.871065 0.948414
0.635554 0.760303 0.912634 0.915945
0.624298 0.850285 0.84674 0.867115
0.791922 0.898585 0.902732 0.976258
0.757392 0.85165 0.93555 0.950587
0.727036 0.85045 0.938811 0.910603
0.672207 0.891318 0.856933 0.880083
0.813213 0.892196 0.93645 0.973328
0.801306 0.867364 0.969433 0.952969
0.791258 0.91958 0.940685 0.914712
0.634387 0.854909 0.85172 0.871238
1.00054 0.999285 1.00332 0.997949
1.00277 1 1.00517 0.997616
1.00538 1 1.00776 0.997641
1.00016 1 1.00256 0.997603
1.00145 1 1.0039 0.997561
1.00154 1 1.00376 0.99779
0.930696 0.958742 0.97324 0.997438
0.960563 0.955774 1.00574 0.999277
1.01477 0.999871 1.01717 0.997774
1.03038 0.992388 1.03988 0.998466
1.02686 0.997085 1.03192 0.998
1.02055 0.997604 1.02497 0.998083
1.04513 0.988073 1.0596 0.998248
0.919528 0.924098 0.998605 0.996445
1.06459 0.98256 1.08492 0.998678
0.98346 0.937616 1.04973 0.999206
1.03531 0.985703 1.05199 0.998418
0.935686 0.919562 1.0218 0.99583
1.00786 0.950684 1.06125 0.998957
1.02928 0.955966 1.078 0.998792
0.69255 0.873263 0.885523 0.895584
0.626474 0.805405 0.870457 0.893596
0.634461 0.823915 0.866463 0.888736
1.0074 0.974461 1.03419 0.999627
0.921596 0.918678 1.00687 0.996331
0.624681 0.810496 0.867016 0.888956
0.800605 0.851468 0.983615 0.955927
0.774562 0.914873 0.933226 0.907211
0.678411 0.877591 0.868657 0.889924
0.623267 0.848846 0.846539 0.867358
0.982821 0.943205 1.04231 0.999701
0.66795 0.849881 0.877006 0.896155
0.62188 0.825683 0.851426 0.884598
0.91404 0.915514 1.01432 0.984294
0.536234 0.751452 0.827469 0.862386
0.72787 0.849078 0.942676 0.909377
0.841451 0.894427 0.985765 0.954356
1.00308 0.938896 1.07109 0.997457
0.630108 0.810098 0.870234 0.893802
0.615514 0.82217 0.855083 0.875523
0.467882 0.648897 0.825338 0.873631
0.619911 0.7788 0.882106 0.902365
0.811061 0.864756 0.984676 0.952503
0.876307 0.896733 0.997256 0.97991
1.02863 0.962801 1.0689 0.999501
1.02666 0.959931 1.06997 0.999569
0.994789 0.952041 1.04552 0.999412
1.02313 0.991746 1.03264 0.999032
1.02268 0.96898 1.05596 0.999487
0.989316 0.961922 1.02918 0.999318
1.01334 0.992399 1.0224 0.998734
1.02929 0.998183 1.03248 0.99873
0.998786 1.00082 1.00039 0.997572
1.03236 1.00159 1.03553 0.995362
0.99162 1.00149 0.992768 0.997359
1.00946 1.00361 1.01108 0.994807
1.0087 1.00504 1.00985 0.99386
1.02017 1.02415 1.00191 0.994214
1.01834 1.02245 1.00108 0.994912
1.01036 1.01284 1.00312 0.994453
1.00431 1.00771 1.00169 0.994955
1.01796 1.02137 1.0011 0.995567
1.02999 1.0343 1.00048 0.99535
1.01526 1.01363 1.00525 0.99638
1.02617 1.02739 1.00274 0.996082
1.02463 1.02809 1.00117 0.995471
1.02324 1.00355 1.02237 0.997317
1.01553 1.00784 1.01065 0.997014
1.01964 1.01897 1.0039 0.996769
1.02098 1.00058 1.0222 0.998223
1.02248 1.00008 1.02492 0.997539
1.01832 1.00121 1.01984 0.997304
1.01627 1.00075 1.01778 0.997767
1.01111 1.00012 1.01251 0.998503
1.00121 1 1.00152 0.999695
1.00562 1 1.00684 0.998791
1.00025 1 1.00044 0.999806
1 1 1 1
0.999871 1 1 0.999871
1 1 1 1
1 1 1 1
1.00315 1 1.00519 0.997966
1.00234 1 1.00339 0.998957
1.0035 1 1.00543 0.99808
0.999937 1 1 0.999937
1.00045 1 1.00136 0.999101
1.0014 1 1.0031 0.998299
1 1 1 1
0.999979 1 1 0.999979
0.999264 1 1 0.999264
1 1 1 1
0.999996 1 1 0.999996
1 1 1 1
0.668999 0.854323 0.875439 0.894493
0.634812 0.812165 0.875169 0.89312
0.645517 0.838027 0.870221 0.885157
1.02693 1 1.02951 0.997486
1.00891 1.00196 1.00929 0.997668
1.0032 1 1.00542 0.997792
1.00887 1 1.0113 0.997598
1.00086 1 1.003 0.997864
1.00753 1 1.00975 0.997795
0.996712 0.998581 1 0.998128
0.630375 0.838098 0.855217 0.879483
0.678694 0.877361 0.871802 0.887316
0.623967 0.820211 0.8605 0.884066
0.669604 0.890694 0.85556 0.878697
0.796081 0.906492 0.902417 0.973163
0.767667 0.852273 0.9487 0.949434
0.732772 0.865722 0.924477 0.915575
0.801957 0.896609 0.920152 0.972049
0.806258 0.861715 0.98993 0.945162
0.783687 0.908212 0.943659 0.914408
0.627754 0.848626 0.843523 0.876953
0.8513 0.896287 0.973311 0.975852
0.830644 0.879026 0.99995 0.945008
0.710725 0.851132 0.923237 0.904465
0.545611 0.76611 0.823681 0.864635
1.05748 0.996452 1.06297 0.998375
1.0038 0.999293 1.00654 0.997986
1.00414 1 1.00658 0.997575
1.00153 1 1.00395 0.997583
0.92674 0.926731 1.00345 0.996577
0.983053 0.92952 1.05872 0.99893
1.02147 0.997533 1.02594 0.998101
1.03712 0.989801 1.04961 0.998285
1.0459 0.964957 1.08516 0.998821
1.03727 0.991776 1.04753 0.99842
1.03907 0.956806 1.0873 0.998779
0.937458 0.920788 1.02455 0.99371
1.01078 0.944021 1.07164 0.999133
1.01514 0.965011 1.0531 0.998906
0.932422 0.911242 1.03126 0.992225
0.979662 0.926429 1.0583 0.999209
0.627843 0.802639 0.874701 0.894276
0.686665 0.865271 0.883111 0.898624
0.636145 0.810419 0.878168 0.893858
0.971243 0.92995 1.04461 0.999805
0.92286 0.919913 1.01317 0.990163
0.662131 0.842019 0.876784 0.896869
0.859649 0.905721 1.00313 0.94617
0.729068 0.860343 0.926584 0.914559
0.629684 0.825852 0.861531 0.885012
0.524184 0.726866 0.8312 0.867608
1.00178 0.94003 1.06805 0.997788
0.636326 0.816131 0.872206 0.893925
0.610491 0.813305 0.857513 0.875358
0.880304 0.897284 0.998063 0.982981
0.481778 0.672822 0.825367 0.867561
0.61098 0.758019 0.892042 0.90357
0.810998 0.868718 0.986718 0.946124
0.98515 0.940612 1.05286 0.994764
0.654004 0.850192 0.868814 0.885394
0.516107 0.693854 0.856442 0.868509
0.555719 0.733327 0.826526 0.916857
0.74961 0.829427 0.948266 0.953075
0.826519 0.871556 0.973106 0.974534
1.0331 0.96501 1.071 0.99959
1.00086 0.95119 1.05282 0.999429
0.983656 0.962953 1.02236 0.99916
0.993657 0.959204 1.03654 0.999402
1.01404 0.97922 1.03674 0.998859
1.02325 1.0008 1.02497 0.997527
0.995432 1.00288 0.995336 0.997227
1.03197 1.00184 1.0351 0.995146
1.01851 1.00353 1.02085 0.994197
1.01104 1.00353 1.01265 0.994896
1.01016 1.00534 1.0111 0.993762
1.00785 1.00966 1.00448 0.993754
1.05963 1.06629 0.999109 0.994645
1.0361 1.04093 1.00077 0.994604
1.02001 1.02377 1.00218 0.994158
1.02048 1.02525 1.00013 0.99523
1.01599 1.02036 1.00074 0.994977
1.01055 1.01263 1.00357 0.994392
1.02494 1.02702 1.00244 0.995546
1.01866 1.02212 1.00108 0.995543
1.03225 1.03653 1.00043 0.995449
1.01602 1.00828 1.01087 0.996839
1.01476 1.01173 1.0065 0.996524
1.02726 1.02823 1.00289 0.996177
1.02101 1.00375 1.01932 0.997922
1.02147 1.00477 1.01934 0.997323
1.0161 1.00917 1.0099 0.996996
1.00504 1 1.00549 0.999546
1.0193 1.00075 1.02034 0.998225
1.01979 1 1.02231 0.997537
1.00954 1 1.01106 0.9985
1.0022 1 1.00252 0.999681
1 1 1 1
1.00039 1 1.0006 0.999792
1 1 1 1
1 1 1 1
1.01957 1.00082 1.02128 0.997502
1.0152 1.00034 1.01718 0.997714
1.0029 1 1.0042 0.998709
1.0051 1 1.00716 0.997961
0.999886 1 1 0.999886
1.0021 1 1.00314 0.998958
1.00533 1 1.00724 0.998107
1 1 1 1
0.999948 1 1 0.999948
1.00013 1 1.00097 0.999157
1 1 1 1
0.999985 1 1 0.999985
1 1 1 1
0.631671 0.81363 0.87301 0.889293
0.662066 0.848211 0.871885 0.895237
0.634235 0.815718 0.870481 0.893204
1.02864 1 1.03125 0.997466
1.0128 1.00127 1.01384 0.997706
0.998848 1.00131 1.00014 0.997395
1.03017 0.99993 1.03263 0.997689
1.0111 1.00478 1.00853 0.997781
1.01142 1 1.01389 0.99757
1.00025 0.999838 1.00251 0.997905
1.00924 0.999676 1.01179 0.997802
0.998104 0.999585 1.00032 0.998198
1.0302 0.99919 1.03288 0.998218
0.589567 0.799717 0.841957 0.875602
0.626309 0.828885 0.858624 0.880017
0.675224 0.87609 0.866687 0.889276
0.623451 0.845845 0.839749 0.877732
0.778377 0.912715 0.93954 0.907694
0.796472 0.889191 0.92328 0.970157
0.804827 0.858517 0.984584 0.952139
0.841822 0.90052 0.962558 0.97118
0.834083 0.893338 0.980332 0.952403
0.727375 0.848089 0.943037 0.90947
0.554499 0.781002 0.822698 0.862994
0.869306 0.898496 0.993241 0.974096
0.812283 0.854287 0.997438 0.953274
0.616896 0.750826 0.896636 0.916339
0.500373 0.681238 0.840445 0.873948
1.04448 0.998372 1.0473 0.998928
1.05778 0.995568 1.06421 0.998382
1.00888 1 1.01088 0.998025
0.934934 0.919251 1.02583 0.991447
1.01458 0.941875 1.07799 0.999253
1.03704 0.99469 1.04423 0.998422
1.05031 0.95363 1.10275 0.998767
1.02093 0.971288 1.05225 0.998912
0.984337 0.934802 1.05379 0.99924
0.927111 0.907323 1.02974 0.992296
1.0018 0.976139 1.02695 0.999353
0.945771 0.932083 1.02085 0.99396
0.650003 0.835591 0.872967 0.891095
0.640378 0.813397 0.880148 0.894496
0.679095 0.857893 0.877834 0.901748
1.00569 0.951936 1.05856 0.998027
0.875387 0.899412 0.995732 0.97746
0.646809 0.825841 0.876042 0.894035
0.814585 0.867984 0.988414 0.94948
0.620743 0.746976 0.908558 0.914645
0.60172 0.81262 0.845936 0.875325
0.494836 0.699347 0.82138 0.861439
0.981486 0.938569 1.0508 0.995168
0.649774 0.842862 0.870717 0.885378
0.515974 0.699747 0.850199 0.867293
0.840373 0.887086 0.970114 0.976526
0.573001 0.742241 0.843945 0.914738
0.741661 0.842362 0.928339 0.948419
0.921688 0.919154 1.01008 0.99275
0.523667 0.701886 0.854374 0.873255
0.597075 0.765168 0.848958 0.91915
0.719908 0.858983 0.883795 0.948289
0.795958 0.880979 0.924379 0.977406
1.00682 0.953598 1.05639 0.999451
0.985053 0.951891 1.03574 0.999128
0.997617 0.986442 1.01297 0.998375
1.01432 0.964359 1.05288 0.998979
1.01525 0.998937 1.01875 0.997628
0.990159 1.00451 0.989312 0.996364
1.03126 1.00182 1.03464 0.994925
1.0174 1.00494 1.01832 0.994189
1.004 1.00894 1.0003 0.994805
1.01128 1.00563 1.01203 0.993665
1.00667 1.00922 1.0037 0.993796
1.04425 1.0572 0.992773 0.994932
1.07887 1.09607 0.988698 0.995555
1.0747 1.08036 1 0.994749
1.06001 1.06718 0.998587 0.994681
1.04869 1.05406 1 0.994908
1.03455 1.03911 1.00107 0.994542
1.02007 1.02363 1.00244 0.994101
1.04296 1.04765 1.00026 0.995261
1.01818 1.02297 1.00002 0.995295
1.0134 1.01812 1.00032 0.995043
1.02736 1.02222 1.00903 0.996046
1.02094 1.02189 1.00345 0.995644
1.02012 1.02359 1.0011 0.995518
1.02358 1.00604 1.01999 0.997496
1.02075 1.00994 1.01391 0.996832
1.01524 1.01098 1.00757 0.996668
1.00785 1 1.00846 0.9994
1.02362 1.00522 1.02042 0.997924
1.0212 1.00594 1.01789 0.997329
0.999867 1 1 0.999867
1.00688 1 1.00736 0.999527
1.01967 1.00114 1.02032 0.998227
1.00374 1 1.00407 0.999666
1 1 1 1
1 1 1 1
1.01167 1.00403 1.01034 0.997299
1.02009 1.00068 1.02198 0.997474
1.02191 1.00061 1.02386 0.99748
1.00766 1 1.00921 0.998464
1.01284 1.00034 1.01482 0.997709
1.00067 1 1.00085 0.999823
1.0041 1 1.00539 0.998714
1.00647 1 1.00853 0.997954
1 1 1 1
0.9999 1 1 0.9999
1.00126 1 1.0023 0.99896
1 1 1 1
0.99996 1 1 0.99996
1 1 1 1
0.63601 0.82092 0.870046 0.890474
0.635513 0.818349 0.873146 0.889404
0.662437 0.838781 0.881492 0.895937
1.01271 1.0048 1.01087 0.997046
1.02513 1 1.02775 0.997448
1.01026 1 1.01254 0.997749
1.02436 1 1.02682 0.997604
1.00283 1.00443 1.001 0.997409
1.00319 1.00153 1.00365 0.998017
1.01814 1.00375 1.0175 0.996887
1.02292 0.990902 1.03431 0.998068
1.00894 0.999227 1.01194 0.99781
0.998187 1 0.99992 0.998267
1.03166 0.997109 1.03651 0.998204
1.05044 1.00052 1.0515 0.99847
0.536839 0.710636 0.865057 0.873277
0.608426 0.819155 0.848715 0.875143
0.625597 0.824455 0.861855 0.880427
0.566305 0.786644 0.826389 0.871139
0.715175 0.840613 0.937384 0.907609
0.834354 0.883998 0.998605 0.94516
0.849337 0.902058 0.968612 0.972065
0.865367 0.894992 0.990062 0.976606
0.49856 0.688175 0.834861 0.867769
0.804889 0.861772 0.985958 0.947295
0.616538 0.758323 0.896189 0.907205
0.864797 0.902329 0.978619 0.979345
0.76642 0.847833 0.945995 0.955581
0.557677 0.731642 0.832299 0.915807
0.984641 1.0012 0.983893 0.999559
1.04694 0.998628 1.0495 0.998934
1.05606 0.99424 1.06389 0.998386
0.931668 0.911752 1.02971 0.992361
0.992527 0.947428 1.04836 0.999273
1.03007 0.981879 1.05021 0.998919
0.99862 0.973411 1.02655 0.999364
0.94303 0.93319 1.01661 0.994036
0.96502 0.968146 1.00047 0.996307
0.552984 0.720854 0.870743 0.880999
0.646542 0.832094 0.870146 0.89296
0.646427 0.822958 0.87801 0.894628
0.979315 0.934925 1.05234 0.995384
0.834599 0.883448 0.966506 0.977445
0.64429 0.832996 0.873443 0.885531
0.759561 0.841834 0.951574 0.948186
0.563216 0.7473 0.831334 0.906577
0.537616 0.724396 0.848993 0.874162
0.922024 0.913347 1.01685 0.99277
0.53864 0.706483 0.865934 0.880465
0.575715 0.755299 0.837813 0.909791
0.795271 0.889483 0.919323 0.972545
0.749071 0.880887 0.889694 0.95579
0.916426 0.940232 0.977951 0.996656
0.62603 0.779376 0.886055 0.906541
0.818168 0.950494 0.897651 0.958927
0.784974 0.902834 0.894441 0.972067
0.988224 0.94431 1.04744 0.999103
0.983954 0.985425 1.00006 0.998445
0.984159 1.00023 0.986647 0.997248
1.00682 0.997559 1.01158 0.99773
0.992327 1.00443 0.9916 0.996315
0.990794 1.01076 0.984007 0.996178
1.017 1.00684 1.016 0.994182
1.00377 1.00883 1.00019 0.994798
1.03397 1.05656 0.982551 0.996005
1.00595 1.00897 1.00319 0.99384
1.04323 1.05641 0.992552 0.994936
1.07183 1.0974 0.980395 0.996235
1.06739 1.09114 0.981775 0.996388
1.08307 1.09588 0.992819 0.995467
1.08114 1.09807 0.988926 0.995607
1.08338 1.08884 0.999998 0.994988
1.07244 1.0781 0.999913 0.994835
1.05962 1.06734 0.998038 0.994716
1.06974 1.07498 1 0.995123
1.0486 1.05381 1.00014 0.994923
1.03263 1.03683 1.00148 0.994478
1.05006 1.0519 1.00278 0.995479
1.04043 1.04497 1.0004 0.995256
1.01609 1.02082 1 0.99536
1.01958 1.01112 1.01146 0.996947
1.03031 1.02531 1.00888 0.996034
1.01521 1.01484 1.00464 0.995743
1.0069 1.00022 1.00764 0.999047
1.02275 1.00869 1.0165 0.997486
1.02339 1.01133 1.01515 0.996822
1 1 1 1
1.00751 1.00011 1.00814 0.999263
1.02488 1.00667 1.0202 0.997925
1 1 1 1
1.00798 1 1.0085 0.999481
1 1 1 1
1.01376 1.01075 1.00608 0.996918
1.01026 1.00408 1.00894 0.997237
1.02003 1.00335 1.01936 0.997312
1.01534 1 1.01713 0.998243
1.02267 1.00075 1.02449 0.997471
1.02795 1 1.03057 0.997457
1.00286 1 1.00313 0.999729
1.0075 1 1.00905 0.99847
1.01072 1 1.01304 0.997704
1 1 1 1
1.00063 1 1.00079 0.999836
1.00511 1 1.0064 0.998718
1 1 1 1
0.999914 1 1 0.999914
1 1 1 1
0.535755 0.712042 0.863063 0.871802
0.640446 0.827871 0.868653 0.890581
0.639416 0.823888 0.872464 0.889545
1.01918 1.0036 1.01855 0.997023
1.03334 1.01488 1.02169 0.996583
1.03524 1.0029 1.03539 0.996967
1.02535 1 1.0279 0.997516
1.00625 1.00821 1.00064 0.997426
1.0002 0.999015 1.00294 0.998246
1.02472 0.996804 1.03012 0.997954
1.02034 1.00389 1.01934 0.997099
1.02052 0.998928 1.02432 0.997367
0.971312 0.999702 0.972616 0.998957
1.03309 0.99859 1.03643 0.998188
1.04508 0.999033 1.04773 0.998435
0.584451 0.7574 0.852307 0.905371
0.507292 0.679711 0.859221 0.868619
0.623026 0.832516 0.855189 0.875088
0.495806 0.696248 0.826751 0.861337
0.625082 0.767728 0.888651 0.916218
0.793429 0.856986 0.975999 0.948605
0.85978 0.887409 0.99548 0.973264
0.85069 0.894078 0.974875 0.975994
0.578541 0.744812 0.849885 0.913961
0.747786 0.84596 0.931795 0.948652
0.826992 0.90263 0.936211 0.978629
0.722792 0.887616 0.857565 0.949557
0.990233 1 0.991122 0.999104
0.984948 1.00085 0.984605 0.999495
1.0477 0.997726 1.05121 0.998939
0.930591 0.925072 1.0119 0.994141
0.99202 0.967402 1.02609 0.999376
0.967713 0.971676 0.999652 0.996268
0.947464 0.982623 0.969226 0.994834
0.659995 0.794076 0.907629 0.915736
0.547067 0.721172 0.861707 0.880322
0.650524 0.833627 0.872209 0.894686
0.92536 0.922092 1.01058 0.993042
0.799643 0.889549 0.923906 0.972968
0.540202 0.705948 0.869297 0.880268
0.720732 0.875845 0.867174 0.948943
0.588135 0.747087 0.856738 0.918877
0.913209 0.943606 0.972849 0.994795
0.641365 0.790059 0.889225 0.912923
0.786111 0.935691 0.884115 0.95026
0.78933 0.901171 0.898161 0.975208
0.914649 0.968124 0.948387 0.99618
0.860449 0.972701 0.923373 0.958006
0.843399 0.951304 0.904904 0.979741
0.969094 0.982385 0.987961 0.998492
0.979251 1.0003 0.981702 0.997205
0.968769 1.00912 0.962937 0.996964
0.994387 1.00404 0.994097 0.996269
0.990429 1.01003 0.984367 0.996164
1.00942 1.05848 0.956675 0.996837
1.00308 1.00841 0.999917 0.994792
1.03013 1.05425 0.981072 0.995973
1.04857 1.09534 0.960322 0.996856
1.04256 1.05593 0.992361 0.99494
1.07057 1.09714 0.97948 0.996221
1.05852 1.09198 0.972393 0.996878
1.06748 1.092 0.980712 0.996766
1.067 1.0914 0.98111 0.996465
1.0711 1.08901 0.987271 0.996237
1.08685 1.0961 0.996006 0.995538
1.0844 1.09621 0.993695 0.995504
1.08403 1.10069 0.989158 0.995658
1.08898 1.09427 0.999999 0.995171
1.08453 1.09007 0.999911 0.995012
1.07071 1.07635 0.99983 0.994921
1.07099 1.07607 1 0.995281
1.07207 1.07732 1 0.995121
1.0487 1.05386 1.00017 0.994938
1.02232 1.02305 1.0029 0.996392
1.05073 1.0532 1.00217 0.995491
1.03791 1.0423 1.00054 0.995251
1.00607 1.00049 1.00694 0.998643
1.02222 1.01425 1.01095 0.996938
1.03523 1.03002 1.00907 0.996025
1 1 1 1
1.00684 1.00001 1.00781 0.999025
1.0237 1.01128 1.01484 0.997476
0.999895 1 1 0.999895
1.00777 1 1.00851 0.999267
1 1 1 1
1.02545 1.01881 1.01004 0.996513
1.01192 1.00566 1.00933 0.996927
1.01248 1.00595 1.00939 0.997122
1.00905 1.00465 1.00723 0.997175
1.01784 1.00201 1.01853 0.997319
1.02064 1 1.02268 0.998007
1.00513 1 1.00555 0.999581
1.01431 1 1.0161 0.998241
1.02163 1.00003 1.02419 0.99747
1 1 1 1
1.00172 1 1.00197 0.999746
1.00722 1 1.00876 0.998477
1 1 1 1
1.00004 1 1.00018 0.999853
1 1 1 1
0.627228 0.782473 0.87816 0.912815
0.538396 0.713594 0.86282 0.874441
0.641978 0.831371 0.866925 0.890725
1.0235 1.00202 1.02451 0.997001
1.04276 1.00202 1.04413 0.996671
1.02748 1.01308 1.01767 0.996602
1.02035 1.02232 1.00242 0.995665
1.03244 1.00488 1.0303 0.997207
1.02101 0.999899 1.02332 0.997847
1.02054 1.00342 1.01981 0.99731
1.02085 1.00082 1.02257 0.997494
0.997271 1.00964 0.990709 0.997014
0.963144 1.00196 0.962788 0.998414
0.969432 1.00114 0.970651 0.997605
0.978385 1.00115 0.978263 0.998979
1.03925 0.998208 1.04278 0.998402
0.792859 0.936738 0.885623 0.955716
0.581582 0.756007 0.846945 0.908302
0.493864 0.665213 0.851825 0.871558
0.571375 0.751521 0.839064 0.906118
0.752563 0.847708 0.932663 0.951857
0.860455 0.895067 0.981592 0.979359
0.823209 0.897613 0.934834 0.981039
0.753862 0.883729 0.890947 0.95746
0.837772 0.949153 0.900784 0.979872
0.98415 1.00036 0.985517 0.998252
0.992934 0.999416 0.994434 0.999075
0.985417 1.00037 0.985608 0.999432
0.972996 0.977224 0.999361 0.99631
0.956889 0.986154 0.97446 0.995756
0.854891 0.963396 0.931107 0.953029
0.651898 0.790731 0.898527 0.917529
0.539643 0.718885 0.853308 0.879714
0.916647 0.952942 0.968896 0.992793
0.79249 0.911725 0.893896 0.972396
0.629186 0.784056 0.8802 0.911697
0.794532 0.932788 0.889076 0.958053
0.924469 0.970286 0.956321 0.996297
0.864752 0.978572 0.922758 0.957659
0.840209 0.948066 0.907696 0.976356
0.918447 0.998249 0.924156 0.995565
0.889729 0.985693 0.915461 0.985999
0.977119 1.00212 0.977801 0.997193
0.962201 1.00908 0.956488 0.996923
0.967596 1.04553 0.928006 0.997252
0.9898 1.00935 0.984427 0.996148
1.01351 1.06067 0.958608 0.996799
1.03705 1.09892 0.94637 0.997181
1.02638 1.05189 0.979728 0.995941
1.04886 1.09474 0.961138 0.996826
1.04899 1.09539 0.96044 0.997092
1.06878 1.09638 0.978534 0.996208
1.05813 1.09131 0.972655 0.996855
1.06308 1.09707 0.971991 0.996946
1.06507 1.09055 0.979747 0.996823
1.06903 1.09216 0.982184 0.996574
1.06632 1.09129 0.980509 0.996542
1.0701 1.0888 0.986546 0.996229
1.07347 1.08652 0.991968 0.995991
1.08823 1.09459 0.998716 0.995469
1.08803 1.09651 0.996728 0.995525
1.08559 1.09639 0.994578 0.995542
1.08256 1.08775 1 0.995227
1.0915 1.09683 0.99999 0.995156
1.08539 1.09101 0.999819 0.995036
1.03761 1.03963 1.00207 0.995987
1.0697 1.07477 1 0.995289
1.07471 1.07998 1 0.995119
1.00413 1.00208 1.00386 0.998189
1.02441 1.02482 1.00321 0.9964
1.05156 1.05411 1.00208 0.995503
1 1 1 1
1.00561 1.00072 1.00628 0.998613
1.02354 1.01721 1.00932 0.99693
1 1 1 1
1.00628 1 1.00728 0.999002
1 1 1 1
1.03304 1.03666 1.00086 0.99565
1.02383 1.02139 1.0059 0.996508
1.01794 1.00949 1.01176 0.996647
1.01059 1.00096 1.01272 0.996936
1.01337 1.0039 1.0124 0.997063
1.02015 1.00445 1.01802 0.997642
1.01976 1.00137 1.0211 0.997325
1.02237 1.00022 1.0242 0.997997
1.00987 1.00001 1.01051 0.999349
1 1 1 1
1.00491 1 1.00531 0.999595
1.01566 1 1.01746 0.998239
1 1 1 1
1.00189 1 1.00214 0.999758
1 1 1 1
0.856202 0.969768 0.919496 0.960194
0.643865 0.793064 0.888418 0.913838
0.531456 0.711358 0.857818 0.870932
1.05312 1.00153 1.05534 0.996372
1.02135 1.01236 1.01229 0.99662
1.02889 1.00671 1.0251 0.997006
1.01925 1.0213 1.00224 0.995756
1.04333 1.04788 1.00016 0.995498
1.00406 1.01522 0.992314 0.996666
1.02471 1.00376 1.02331 0.997616
0.998363 1.01089 0.990809 0.996769
0.971127 1.00247 0.970291 0.998392
1.00114 1.00872 0.99548 0.996993
0.973197 1.00397 0.971794 0.997484
0.988089 1.00172 0.989297 0.997067
0.968142 1.0014 0.969003 0.997711
0.985418 1.00039 0.986015 0.999002
0.847238 0.960336 0.900471 0.979744
0.793975 0.943051 0.882162 0.954386
0.597926 0.755159 0.862849 0.917644
0.723541 0.871945 0.874645 0.948729
0.83552 0.899961 0.945167 0.982257
0.845756 0.937789 0.915573 0.985024
0.944945 1.0032 0.945777 0.995934
0.980392 0.999875 0.982343 0.99814
0.995455 0.998692 0.997708 0.999048
0.96511 0.989404 0.978714 0.99666
0.878679 0.973028 0.921041 0.980451
0.860901 0.968859 0.92418 0.96147
0.641604 0.784075 0.900317 0.908897
0.922718 0.965539 0.959059 0.996447
0.838464 0.947711 0.904403 0.978242
0.857741 0.980738 0.913856 0.95703
0.919056 0.996563 0.92617 0.99574
0.894706 0.983424 0.923763 0.98487
0.937954 1.02585 0.917784 0.996227
0.944622 1.02676 0.925227 0.994355
0.955401 1.0091 0.949749 0.996875
0.964631 1.04216 0.92815 0.997259
1.00595 1.09266 0.923271 0.997154
1.01806 1.06335 0.960519 0.996761
1.03686 1.09855 0.946535 0.997155
1.05804 1.10613 0.959363 0.997041
1.04926 1.09442 0.961818 0.996796
1.05033 1.09527 0.961782 0.997072
1.06954 1.10632 0.969757 0.996901
1.05794 1.09092 0.972851 0.996833
1.06184 1.095 0.972695 0.996941
1.07018 1.09824 0.977701 0.996677
1.0628 1.08931 0.978713 0.996879
1.06855 1.09201 0.981837 0.996619
1.07342 1.09064 0.98792 0.99625
1.06917 1.08868 0.985807 0.996221
1.07374 1.08708 0.991715 0.995981
1.08167 1.0903 0.9963 0.995767
1.08317 1.08822 1 0.995356
1.08943 1.09543 0.999093 0.995427
1.0892 1.09686 0.997493 0.995513
1.05349 1.05791 1 0.99582
1.08089 1.08607 1 0.995235
1.09414 1.09949 0.999989 0.995142
1.00715 1.00756 1.00171 0.997887
1.03695 1.03874 1.0023 0.995989
1.06705 1.07202 1.00007 0.995299
1 1 1 1
1.00483 1.00356 1.00311 0.998161
1.0263 1.02634 1.00357 0.996408
1 1 1 1
1.00541 1.00091 1.00592 0.998583
1 1 1 1
1.05854 1.06345 1 0.995379
1.03299 1.03698 1.00049 0.995667
1.03799 1.03811 1.00396 0.995941
1.02289 1.02335 1.00306 0.996502
1.02142 1.01516 1.00963 0.996563
1.02276 1.01534 1.01018 0.997161
1.01254 1.00073 1.01484 0.997006
1.0176 1.00272 1.01724 0.997647
1.00847 1.00028 1.00915 0.999052
1.01996 1.00012 1.02189 0.99799
1.00763 1 1.00827 0.999361
1 1 1 1
1 1 1 1
1.00331 1 1.0037 0.999611
1 1 1 1
0.873995 0.961277 0.926478 0.981352
0.849073 0.965908 0.923182 0.952186
0.652193 0.785042 0.90359 0.919416
1.07246 1.07806 0.99926 0.995535
1.02485 1.00835 1.01961 0.996809
1.01891 1.02103 1.00208 0.995846
1.00621 1.01743 0.992266 0.996677
1.04465 1.04904 1.00033 0.995484
1.0314 1.03619 0.998769 0.996599
1.00077 1.01196 0.992396 0.996525
0.977522 1.00211 0.977061 0.998369
0.999358 1.01032 0.992118 0.997009
0.964889 1.0032 0.964392 0.997324
1.02307 1.0267 1.00021 0.996259
0.964492 1.00816 0.95938 0.997196
0.987998 1.00228 0.98864 0.997078
0.968199 1.00166 0.968715 0.997816
0.930194 1.00484 0.928861 0.996614
0.83374 0.951706 0.895862 0.977883
0.799792 0.950159 0.882978 0.953304
0.842512 0.931275 0.920814 0.982485
0.946704 1.00295 0.946507 0.99727
0.976857 0.999948 0.978852 0.998014
0.953033 1.01657 0.944581 0.992499
0.879581 0.960113 0.933275 0.981622
0.856013 0.969289 0.926474 0.953222
0.925249 0.996 0.932785 0.995905
0.901805 0.986146 0.929689 0.983634
0.94 1.0277 0.9179 0.99647
0.952604 1.02712 0.932305 0.994794
0.991037 1.06169 0.936385 0.996871
1.05404 1.12381 0.940907 0.996824
0.96093 1.03806 0.928235 0.997265
1.01275 1.09436 0.928081 0.997136
1.05571 1.12189 0.943938 0.996894
1.03681 1.09786 0.947114 0.997129
1.05467 1.10381 0.958312 0.997039
1.07221 1.11641 0.963506 0.996785
1.0516 1.09496 0.963238 0.997053
1.06696 1.10427 0.969204 0.996915
1.0744 1.10323 0.977161 0.996631
1.06062 1.09285 0.973485 0.996936
1.07083 1.09881 0.977788 0.996674
1.07373 1.09479 0.984328 0.996377
1.06802 1.09179 0.9815 0.996665
1.07298 1.09074 0.987372 0.996295
1.08169 1.09334 0.993345 0.995967
1.07397 1.08766 0.991409 0.995972
1.08143 1.09008 0.996283 0.995772
1.08427 1.08916 1 0.995509
1.06024 1.06469 1 0.995819
1.08266 1.08774 1 0.995337
1.09071 1.09634 0.999472 0.995385
1.01609 1.01821 1.00012 0.997794
1.05167 1.05607 1.00002 0.995821
1.07988 1.08505 1 0.995242
0.999999 1 1 0.999999
1.00996 1.01115 1.00095 0.997869
1.03723 1.03935 1.00198 0.99599
1 1 1 1
1.00568 1.0055 1.00204 0.998132
1 1 1 1
1.0766 1.08173 0.999961 0.995304
1.05605 1.06095 1 0.995372
1.06672 1.07149 1 0.995549
1.03183 1.03603 1.00026 0.995684
1.0433 1.04312 1.00428 0.995901
1.0338 1.03148 1.00555 0.996709
1.02449 1.02064 1.00732 0.996479
1.01878 1.01017 1.01138 0.997167
1.00596 1.00068 1.00653 0.998752
1.01844 1.00102 1.01981 0.997646
1.00909 1.00044 1.00959 0.999069
1 1 1 1
1.00689 1 1.00752 0.999373
1 1 1 1
1 1 1 1
0.932103 1.01006 0.92654 0.995983
0.863161 0.961316 0.918657 0.977399
0.848559 0.966617 0.913937 0.960531
1.06839 1.07508 0.99761 0.996157
1.07504 1.08932 0.991007 0.995849
1.07167 1.07766 0.998798 0.995637
1.00792 1.01948 0.99195 0.996686
1.04581 1.04997 1.00057 0.995468
1.03414 1.03976 0.997996 0.99659
1.05419 1.0768 0.98277 0.996172
0.998554 1.01209 0.989573 0.997026
0.959421 1.00293 0.959338 0.997166
1.02708 1.03072 1.00004 0.996426
1.02339 1.06561 0.964035 0.996216
0.976661 1.03216 0.948806 0.997286
0.977763 1.01176 0.969192 0.997115
0.992528 1.00275 0.992698 0.997086
0.926812 1.00539 0.924618 0.996998
0.844182 0.956183 0.90451 0.976071
0.9471 1.00153 0.946927 0.998656
1.03661 1.08902 0.954486 0.997267
0.948466 1.01603 0.94039 0.992671
0.879191 0.964377 0.931088 0.979142
0.94218 1.03002 0.917758 0.996693
0.958395 1.02761 0.937082 0.99526
0.98456 1.06178 0.929976 0.99709
1.05039 1.12172 0.939357 0.996865
1.06179 1.13759 0.9363 0.996867
1.10725 1.16609 0.952354 0.99705
1.01942 1.09727 0.931743 0.997117
1.06115 1.12535 0.945889 0.996895
1.07454 1.12683 0.956735 0.996723
1.05089 1.10157 0.956829 0.997036
1.07231 1.11605 0.96391 0.996787
1.07253 1.10839 0.970937 0.996607
1.06431 1.10222 0.968584 0.996929
1.07541 1.10416 0.977258 0.996627
1.07588 1.09796 0.983433 0.996394
1.07149 1.0994 0.97787 0.996671
1.07439 1.09541 0.984378 0.996374
1.08069 1.09478 0.991038 0.996056
1.07252 1.09083 0.98683 0.99634
1.08105 1.09301 0.993061 0.995976
1.08815 1.09341 0.999576 0.995612
1.08116 1.08979 0.996295 0.995776
1.08408 1.08898 0.999977 0.995524
1.06046 1.06488 1 0.995849
1.02165 1.02388 1 0.997822
1.06021 1.06465 1 0.995822
1.08236 1.08745 1 0.995317
0.999998 1 1 0.999998
1.0175 1.01948 1.00028 0.997787
1.04923 1.05321 1.0004 0.995821
0.999998 1 1 0.999998
1.01228 1.01358 1.00087 0.99785
0.999998 1 1 0.999998
1.07986 1.08783 0.997117 0.995538
1.07535 1.0806 0.999812 0.995331
1.07688 1.08185 1 0.995406
1.05393 1.05884 1 0.995364
1.06702 1.0718 1 0.995544
1.03558 1.03741 1.00192 0.996322
1.04984 1.04974 1.00425 0.995863
1.02901 1.0261 1.00615 0.99671
1.00398 1.00209 1.00351 0.998384
1.01414 1.00628 1.01066 0.997177
1.00604 1.00054 1.00674 0.998774
1 1 1 1
1.00799 1.00003 1.00888 0.999085
1 1 1 1
1 1 1 1
0.981348 1.05966 0.928337 0.997585
0.933788 1.0083 0.931171 0.994559
0.866142 0.965511 0.916822 0.978468
1.06755 1.08845 0.984639 0.996093
1.06621 1.07344 0.996875 0.99638
1.08027 1.10067 0.985358 0.996043
1.07457 1.09002 0.989956 0.995827
1.0704 1.0769 0.998211 0.995738
1.07412 1.11211 0.969715 0.996008
1.03708 1.04352 0.997237 0.996581
1.0517 1.0732 0.983799 0.99611
1.04866 1.11186 0.94662 0.996348
1.02524 1.03466 0.994275 0.996593
1.02319 1.06723 0.962479 0.996107
0.968883 1.03839 0.935553 0.997336
0.986166 1.01406 0.975391 0.99703
0.923881 1.00578 0.921043 0.997316
1.0929 1.15303 0.950606 0.997097
1.04149 1.09467 0.953997 0.997297
0.950653 1.01501 0.943335 0.992854
0.978185 1.061 0.92444 0.997303
1.0472 1.11936 0.938439 0.996907
1.05352 1.13243 0.933228 0.996886
1.11624 1.17358 0.953952 0.997054
1.0904 1.14329 0.956665 0.996933
1.06646 1.12821 0.948203 0.996897
1.075 1.1256 0.958179 0.996733
1.07299 1.11255 0.967669 0.996669
1.07254 1.11565 0.964459 0.99679
1.07325 1.10849 0.971525 0.996588
1.0753 1.09963 0.981409 0.996396
1.07645 1.10511 0.977363 0.996623
1.07626 1.09832 0.983461 0.99639
1.07943 1.0946 0.989984 0.99612
1.07506 1.09604 0.984429 0.996371
1.08142 1.09545 0.991099 0.996055
1.0921 1.09808 0.998847 0.995705
1.08041 1.09269 0.992752 0.995984
1.08782 1.09314 0.999516 0.995618
1.06103 1.06545 1 0.995855
1.08368 1.08859 0.999949 0.99554
1.06147 1.06589 1 0.995851
1.02187 1.02364 1 0.998271
0.999227 1 1 0.999227
1.02174 1.02378 1 0.998008
1.05976 1.0642 1 0.995824
1 1 1 1
1.01923 1.0215 1 0.997779
1 1 1 1
1.08599 1.10277 0.98857 0.996174
1.08057 1.09375 0.992073 0.995849
1.07918 1.08814 0.996176 0.995573
1.07514 1.08006 1 0.995446
1.0745 1.0798 0.999732 0.995359
1.07481 1.07979 1 0.995395
1.03955 1.04314 1.00052 0.996037
1.06701 1.07179 1 0.99554
1.03753 1.03962 1.00167 0.996319
1.00783 1.00899 1.00085 0.998003
1.02442 1.02004 1.0076 0.99671
1.00476 1.00186 1.0045 0.998405
0.999999 1 1 0.999999
1.00728 1.00097 1.00752 0.998797
1 1 1 1
1 1 1 1
1.07917 1.14153 0.948377 0.996824
0.995459 1.07158 0.931243 0.997554
0.931871 1.00816 0.930693 0.993162
1.07499 1.10264 0.97876 0.996081
1.06403 1.0848 0.984657 0.996134
1.06434 1.07196 0.99628 0.996601
1.0797 1.09849 0.986789 0.996058
1.0742 1.0906 0.989111 0.995804
1.07939 1.12812 0.960331 0.996327
1.06672 1.10582 0.968547 0.995963
1.04933 1.06978 0.984778 0.996048
1.04211 1.10488 0.946637 0.99635
1.02904 1.07086 0.964808 0.995999
0.963119 1.04848 0.920983 0.997395
1.08573 1.1311 0.962734 0.997043
1.09389 1.1535 0.951049 0.997135
1.04604 1.10105 0.952576 0.997328
1.04541 1.12811 0.929568 0.996901
1.12483 1.18163 0.95474 0.997058
1.09276 1.14593 0.956538 0.996935
1.08125 1.11376 0.973916 0.996807
1.07543 1.12429 0.959672 0.996743
1.07386 1.1124 0.968597 0.996651
1.07671 1.10084 0.981556 0.996455
1.07399 1.10861 0.972112 0.996568
1.07586 1.10015 0.981453 0.996395
1.0785 1.09425 0.989408 0.996159
1.07666 1.09871 0.98349 0.996385
1.08017 1.0953 0.990034 0.996118
1.09313 1.10015 0.997843 0.995771
1.0821 1.09608 0.991159 0.996054
1.0908 1.09687 0.99875 0.995709
1.06209 1.06654 1 0.995827
1.08752 1.0929 0.999454 0.995624
1.06212 1.06653 1 0.995859
1.02017 1.02191 1 0.998303
1.06289 1.06731 1 0.995853
1.02136 1.02313 1 0.998264
0.999265 1 1 0.999265
0.999634 1 1 0.999634
1.02203 1.02385 1 0.998214
1 1 1 1
1.07659 1.09878 0.983547 0.99619
1.08326 1.09523 0.99307 0.995977
1.08427 1.10104 0.988419 0.996307
1.08339 1.08854 0.999691 0.995573
1.08258 1.09521 0.992598 0.995847
1.07829 1.08835 0.995131 0.995608
1.07529 1.08022 1 0.995435
1.0556 1.05992 1 0.995921
1.07299 1.07796 1 0.995384
1.04439 1.04824 1.0003 0.996037
1.01766 1.01987 1 0.997837
1.03831 1.0409 1.00119 0.996317
1.00584 1.00607 1.00174 0.998029
0.999999 1 1 0.999999
1.00459 1.00105 1.00512 0.998428
1 1 1 1
1 1 1 1
1.07946 1.12511 0.962603 0.996698
1.06928 1.13041 0.948931 0.996828
1.00843 1.08063 0.935511 0.997518
1.077 1.10971 0.974161 0.996265
1.07186 1.1002 0.978078 0.996074
1.06011 1.08088 0.984551 0.996177
1.07885 1.0962 0.988054 0.996074
1.08018 1.12735 0.961719 0.9963
1.05897 1.0989 0.967614 0.995919
1.03218 1.09314 0.947691 0.996353
1.08497 1.11676 0.974586 0.996872
1.08446 1.12894 0.963488 0.996999
1.09475 1.15307 0.952108 0.997173
1.07995 1.10539 0.980201 0.996716
1.09498 1.14831 0.956483 0.996938
1.08085 1.11349 0.973808 0.996791
1.07921 1.10165 0.98299 0.996577
1.07471 1.11224 0.969521 0.996632
1.07706 1.10122 0.981543 0.996458
1.07835 1.09373 0.989706 0.996195
1.07637 1.10063 0.981498 0.996394
1.07875 1.09453 0.989379 0.996158
1.09268 1.10069 0.996895 0.995822
1.08093 1.09601 0.990086 0.996115
1.09199 1.099 0.997845 0.995773
1.06233 1.06682 1 0.995796
1.08947 1.09563 0.998655 0.995713
1.06359 1.06804 1 0.995831
1.0187 1.02044 1 0.998288
1.06321 1.06763 1 0.995862
1.0197 1.02145 1 0.998287
0.999268 1 1 0.999268
1.0207 1.02248 1 0.998261
0.999286 1 1 0.999286
1 1 1 1
1.07612 1.09753 0.984328 0.996105
1.07894 1.09435 0.989875 0.996007
1.07875 1.1 0.984432 0.996189
1.08949 1.09536 0.998952 0.995684
1.08276 1.09681 0.99112 0.996032
1.08285 1.09953 0.988351 0.996439
1.06637 1.07077 1 0.995893
1.0846 1.08961 0.999836 0.995563
1.08522 1.09723 0.99318 0.995845
1.07566 1.08061 1 0.995424
1.05638 1.06071 1 0.995919
1.02415 1.02636 1 0.997841
1.04938 1.05355 1 0.996037
1.01453 1.01651 1.0002 0.997852
1 1 1 1
1.00475 1.00411 1.0026 0.998051
0.999998 1 1 0.999998
1 1 1 1
1.0792 1.10984 0.975712 0.996593
1.08061 1.12736 0.961729 0.996672
1.06146 1.12271 0.948441 0.996833
1.07652 1.10896 0.974375 0.996282
1.06871 1.09784 0.977309 0.996068
1.08182 1.12776 0.96286 0.996272
1.08262 1.10691 0.981281 0.996714
1.08513 1.11659 0.974872 0.996868
1.08351 1.12718 0.964201 0.996955
1.0804 1.10545 0.980531 0.996738
1.07765 1.09707 0.985707 0.996546
1.08043 1.1132 0.973697 0.996776
1.07963 1.10144 0.983604 0.99654
1.07688 1.09252 0.989359 0.996291
1.07743 1.1016 0.98153 0.996461
1.07821 1.09361 0.989687 0.996198
1.092 1.10096 0.995987 0.995852
1.07908 1.0949 0.989346 0.996157
1.092 1.10011 0.996795 0.995823
1.061 1.06548 1 0.995791
1.09085 1.09785 0.997842 0.995776
1.06402 1.06851 1 0.9958
1.01621 1.018 1 0.998247
1.06513 1.06958 1 0.995836
1.01796 1.01973 1 0.998264
0.999244 1 1 0.999244
1.01921 1.02097 1 0.998275
0.999302 1 1 0.999302
0.999299 1 1 0.999299
1.07726 1.09868 0.984057 0.996385
1.07992 1.09343 0.991639 0.995974
1.07545 1.09852 0.982803 0.996129
1.0896 1.09801 0.996556 0.995769
1.07972 1.09395 0.990962 0.995991
1.08087 1.10119 0.985305 0.996188
1.06537 1.06978 1 0.99588
1.08897 1.09567 0.998168 0.99571
1.08197 1.09816 0.989133 0.996088
1.02285 1.02502 1 0.997886
1.06421 1.0686 1 0.99589
1.08514 1.09002 0.999972 0.995552
1.05702 1.06135 1 0.995917
1.02305 1.02526 1 0.997848
1 1 1 1
1.01116 1.0128 1.00051 0.997868
0.999999 1 1 0.999999
1 1 1 1
1.07857 1.10142 0.982588 0.996604
1.07918 1.10988 0.975676 0.996579
1.08106 1.1288 0.960926 0.996646
1.07641 1.10836 0.974781 0.9963
1.0781 1.09424 0.988704 0.996505
1.08275 1.10727 0.98107 0.996726
1.0854 1.11646 0.975237 0.996864
1.08085 1.10551 0.980876 0.99676
1.07764 1.09745 0.985346 0.996556
1.07737 1.09122 0.990984 0.996282
1.0801 1.10125 0.984237 0.996504
1.07794 1.09273 0.990187 0.996241
1.09047 1.10015 0.995251 0.99593
1.07809 1.0935 0.989669 0.9962
1.09137 1.10027 0.996047 0.995853
1.05881 1.06328 1 0.995794
1.09116 1.09934 0.996719 0.995824
1.06243 1.06692 1 0.995792
1.01229 1.01449 1 0.997838
1.06562 1.07011 1 0.995804
1.01496 1.01695 1 0.998047
1 1 1 1
1.01722 1.019 1 0.998244
0.999285 1 1 0.999285
0.999328 1 1 0.999328
1.07722 1.09471 0.987486 0.996496
1.07748 1.09192 0.990624 0.996123
1.07789 1.09808 0.985182 0.99638
1.08988 1.09721 0.997519 0.995782
1.07902 1.09278 0.9914 0.995974
1.07479 1.09951 0.981293 0.996153
1.06354 1.06797 1 0.995852
1.09016 1.09793 0.997138 0.99577
1.08056 1.09357 0.992096 0.995975
1.01891 1.02104 1 0.997921
1.06361 1.06802 1 0.995876
1.08835 1.09587 0.997387 0.995737
1 1 1 1
1.02386 1.02602 1 0.997893
1.06222 1.06661 1 0.995887
1.02203 1.02422 1 0.997857
1 1 1 1
0.999998 1 1 0.999998
1.07683 1.09184 0.989714 0.996505
1.07974 1.10209 0.983051 0.996609
1.07902 1.10981 0.975607 0.996566
1.0775 1.08939 0.992833 0.996227
1.07712 1.0939 0.98811 0.996514
1.08288 1.10763 0.98085 0.996738
1.07759 1.09783 0.984951 0.996566
1.07729 1.0913 0.990846 0.996282
1.09067 1.09894 0.996555 0.995909
1.0789 1.09286 0.991006 0.996191
1.09095 1.09993 0.995941 0.995877
1.05628 1.06122 0.999502 0.995835
1.09086 1.0997 0.996089 0.995855
1.05997 1.06445 1 0.995794
1.00864 1.01082 1 0.997843
1.06405 1.06854 1 0.995794
1.01119 1.01338 1 0.997837
1 1 1 1
1.01374 1.01596 1 0.997812
0.999614 1 1 0.999614
0.999321 1 1 0.999321
1.07311 1.088 0.989809 0.996469
1.07701 1.08888 0.992852 0.99622
1.07659 1.09388 0.987648 0.996504
1.08895 1.09612 0.997658 0.995788
1.07796 1.09207 0.990936 0.996112
1.07844 1.09739 0.9863 0.996374
1.06151 1.06608 0.999897 0.995807
1.09025 1.09723 0.997883 0.995748
1.07805 1.09211 0.991111 0.995974
1.01521 1.01734 1 0.997907
1.06255 1.067 0.999989 0.995845
1.09066 1.09787 0.997653 0.99577
1 1 1 1
1.02016 1.02228 1 0.997929
1.06216 1.06656 1 0.995873
1 1 1 1
1.02486 1.02702 1 0.997901
1 1 1 1
1.07805 1.08904 0.993625 0.99626
1.07594 1.09109 0.989584 0.996493
1.08091 1.10275 0.983527 0.996615
1.09077 1.09867 0.996892 0.995902
1.07699 1.08937 0.992364 0.996245
1.07616 1.09356 0.987518 0.996524
1.07723 1.09137 0.99073 0.996283
1.08997 1.09845 0.996357 0.995909
1.05367 1.05851 0.999583 0.995848
1.0914 1.0997 0.996609 0.995824
1.05721 1.06193 0.999741 0.995811
1.00573 1.00791 1 0.997838
1.06095 1.06543 1 0.995794
1.00766 1.00984 1 0.997841
1 1 1 1
1.01 1.01219 1 0.997835
1 1 1 1
0.999298 1 1 0.999298
1.0771 1.08777 0.993934 0.996235
1.07168 1.08761 0.988835 0.996481
1.08909 1.09615 0.997692 0.995856
1.0776 1.08941 0.992916 0.996219
1.07595 1.09307 0.987778 0.996513
1.0592 1.0637 1 0.995774
1.08959 1.09677 0.997658 0.995785
1.07855 1.09235 0.991234 0.996101
1.01179 1.01395 1 0.997863
1.06084 1.06537 0.999964 0.995788
1.09078 1.0973 0.998342 0.995714
1 1 1 1
1.01627 1.0184 1 0.997912
1.06161 1.06605 0.999998 0.995838
1 1 1 1
1.02131 1.02342 1 0.997935
1 1 1 1
1.09026 1.09743 0.997547 0.995914
1.07808 1.08889 0.993799 0.996251
1.075 1.0903 0.989457 0.996481
1.05228 1.05705 0.999618 0.995862
1.09012 1.09809 0.996822 0.995902
1.07646 1.08931 0.991904 0.996263
1.08926 1.09795 0.996162 0.99591
1.05429 1.05922 0.999498 0.995844
1.00415 1.00632 1 0.997849
1.05823 1.0627 1 0.995786
1.00524 1.00742 1 0.997837
1 1 1 1
1.00675 1.00893 1 0.997841
1 1 1 1
1 1 1 1
1.09016 1.09665 0.998184 0.995895
1.07676 1.08793 0.993429 0.996282
1.07038 1.08732 0.987882 0.996493
1.05639 1.06084 1 0.995806
1.08942 1.09647 0.997707 0.995853
1.07819 1.08991 0.993 0.996219
1.00853 1.01071 1 0.997839
1.05811 1.06261 1 0.995772
1.09015 1.09735 0.997651 0.995782
1 1 1 1
1.01276 1.01493 1 0.997866
1.06005 1.06456 1 0.995768
1 1 1 1
1.01731 1.01943 1 0.997917
1 1 1 1
1.05286 1.05727 1 0.995827
1.0897 1.09716 0.997257 0.995931
1.07813 1.08878 0.993952 0.996243
1.00315 1.00526 1 0.997893
1.05281 1.05766 0.999555 0.99586
1.08946 1.09753 0.99673 0.995902
1.05487 1.0599 0.999409 0.995841
1.00382 1.00599 1 0.99785
1 1 1 1
1.00475 1.00693 1 0.997835
1 1 1 1
1 1 1 1
1.05401 1.05843 1 0.995829
1.08975 1.09652 0.997894 0.995926
1.07632 1.08799 0.992918 0.996328
1.00626 1.00802 1 0.998252
1.05554 1.05999 1 0.995806
1.08963 1.09667 0.997721 0.99585
1 1 1 1
1.00944 1.01162 1 0.99784
1.05704 1.06153 1 0.99577
1 1 1 1
1.01378 1.01594 1 0.997869
1 1 1 1
1.00287 1.00502 1 0.997863
1.05225 1.05686 0.999789 0.995848
1.08916 1.09687 0.997005 0.995948
1 1 1 1
1.00302 1.00514 1 0.997891
1.05337 1.05829 0.999499 0.995857
1.00353 1.00569 1 0.997849
1 1 1 1
1 1 1 1
1.00435 1.00612 1 0.99824
1.05359 1.058 1 0.995831
1.08948 1.09653 0.997607 0.995957
1 1 1 1
1.00663 1.00879 1 0.997856
1.05491 1.05935 1 0.995806
1 1 1 1
1.01035 1.01254 1 0.997841
1 1 1 1
0.999327 1 1 0.999327
1.00338 1.00531 1 0.998079
1.05168 1.05652 0.999552 0.995869
1 1 1 1
1.00286 1.00498 1 0.997892
1 1 1 1
0.999329 1 1 0.999329
1.00469 1.00664 1 0.998066
1.053 1.05741 1 0.995831
0.999654 1 1 0.999654
1.00731 1.00947 1 0.99786
1 1 1 1
1 1 1 1
1.00346 1.00557 1 0.99791
1 1 1 1
0.999667 1 1 0.999667
1.00509 1.0072 1 0.997897
1 1 1 1
1 1 1 1
1 1 1 1

VECTORS lamdaE float
1.00335 0.999759 0.991744
1.003 1.00052 0.995749
1.00274 0.999931 0.992221
1.00267 1.00016 0.992194
1.00316 0.99991 0.991837
1.00355 0.999677 0.991599
1.00373 1.00093 0.989128
1.0031 1.00063 0.995655
1.00224 1.00003 0.996574
1.00214 1.00056 0.99654
1.00264 1.00141 0.991
1.00384 1.0019 0.986453
1.00198 0.999948 0.99316
1.00159 1.00013 0.993424
1.00216 1.00013 0.992671
1.00221 1.00017 0.992665
1.00284 1.00001 0.992044
1.00263 0.999974 0.992319
1.00403 1.00085 0.988842
1.00204 1.00001 0.996324
1.00246 1.00017 0.992407
1.00293 1.00005 0.991987
1.00352 1.00025 0.990168
1.00371 1.00063 0.98952
1.00368 0.999778 0.99138
1.00378 1.00139 0.988552
1.0053 1.00148 0.985232
1.00322 1.00069 0.995532
1.00256 0.999937 0.994369
1.00259 1.00026 0.994244
1.00305 1.00128 0.995438
1.00385 1.00201 0.986395
1.00258 0.999903 0.992333
1.00289 0.999827 0.992037
1.00413 1.00063 0.989405
1.0012 1.00284 0.996361
1.00414 1.00131 0.988874
1.00399 1.00264 0.985398
1.00543 1.00305 0.982927
1.00147 1.00148 0.996335
1.00201 0.999985 0.996332
1.00191 1.00007 0.994819
1.00194 0.999956 0.996401
1.00142 1.0001 0.993641
1.0035 0.999798 0.989459
1.00184 1.00003 0.996723
1.00384 1.0002 0.990308
1.00178 1.00014 0.993134
1.00212 1.00002 0.992786
1.00219 1.00032 0.992474
1.0043 1.00075 0.988572
1.00181 1.00002 0.994942
1.002 1.00022 0.992884
1.00297 1.00026 0.991767
1.00245 1.00007 0.99246
1.00376 1.00021 0.989893
1.00411 1.00123 0.988282
1.00396 1.00057 0.989239
1.00531 1.0014 0.985401
1.00193 0.999983 0.996381
1.00229 1.00008 0.992708
1.00322 0.999853 0.991326
1.00339 1.00007 0.990551
1.00366 1.00042 0.989817
1.00541 0.999284 0.987475
1.00529 0.99996 0.986861
1.00362 1.0003 0.99092
1.00383 1.00238 0.987629
1.00533 1.00261 0.984013
1.00532 0.997574 0.988374
1.00303 0.999857 0.995861
1.00292 1.00133 0.995566
1.00312 1.00017 0.995802
1.00387 1.00204 0.986338
1.00268 0.999923 0.995964
1.00304 0.999897 0.995857
1.00394 1.00068 0.987706
1.00165 1.00228 0.993829
1.0039 1.00127 0.98713
1.00403 1.00277 0.986527
1.00543 1.003 0.982904
1.00195 1.00187 0.99587
1.00222 1.00348 0.987812
1.00397 1.00044 0.988032
1.00413 1.00075 0.987385
1.00533 0.999787 0.986495
1.00361 1.00351 0.987456
1.00536 1.00165 0.984393
1.00544 1.00453 0.981424
1.00554 0.999968 0.98544
1.00093 1.00128 0.996827
1.00115 1.00156 0.996554
1.00232 1.00002 0.996115
1.00208 0.999985 0.996296
1.00198 0.99996 0.996392
1.00179 1 0.994971
1.00353 0.9998 0.990195
1.00213 1.00003 0.99466
1.0037 1.00021 0.989575
1.00194 0.999959 0.996416
1.00333 0.999649 0.989775
1.00375 1.00002 0.990603
1.00533 0.997613 0.988994
1.00387 1.00029 0.99008
1.00535 0.998035 0.988485
1.00199 0.999927 0.993168
1.00154 1.00026 0.993363
1.00219 1.0008 0.992143
1.00198 1.00006 0.992927
1.00399 1.00022 0.989618
1.00421 1.00053 0.988966
1.00441 1.00117 0.988017
1.00531 1.00131 0.985566
1.00198 0.999963 0.996399
1.00186 1.00008 0.993179
1.00346 0.999689 0.990246
1.00362 1.00004 0.990274
1.00315 1.00101 0.993206
1.00413 1.00207 0.987765
1.00389 1.00038 0.989544
1.00541 0.998917 0.9879
1.00534 1.00255 0.984192
1.00529 1.00024 0.986603
1.00534 0.997624 0.988349
1.00334 0.999675 0.989764
1.00329 0.999814 0.990955
1.00534 0.997562 0.989419
1.0054 0.998208 0.988642
1.00534 0.999119 0.987687
1.00528 0.995836 0.990657
1.00245 1.00157 0.995842
1.00532 0.996412 0.989543
1.00383 1.00307 0.985201
1.00535 1.00368 0.982126
1.00532 0.998898 0.987093
1.00535 0.995081 0.990682
1.00287 1.00359 0.986425
1.00412 1.00396 0.984766
1.00282 0.999899 0.995916
1.00315 0.999914 0.995838
1.00389 1.00073 0.987703
1.00225 1.00179 0.995765
1.00365 1.00315 0.985527
1.00392 1.00121 0.987099
1.00544 1.00287 0.982879
1.00184 1.00176 0.996035
1.00237 1.00354 0.987742
1.00399 1.00049 0.988846
1.00416 1.00086 0.988224
1.00533 0.999786 0.986468
1.0032 1.00364 0.98574
1.00538 1.0017 0.984351
1.0054 1.00442 0.98138
1.00556 0.999681 0.985753
1.0029 1.00356 0.986559
1.00194 1.00316 0.988772
1.00292 1.00246 0.986446
1.0054 0.999078 0.987224
1.00534 1.00062 0.985558
1.00531 0.995945 0.990105
1.00447 1.0051 0.982243
1.00546 0.997976 0.98788
1.00563 1.00224 0.983696
1.00563 0.99748 0.98742
1.00055 1.00052 0.997383
1.00073 1.00111 0.997029
1.001 1.00152 0.9967
1.0021 1.00403 0.987691
1.00165 1.00204 0.996106
1.00256 0.99996 0.996011
1.00217 1 0.996202
1.00349 1.00026 0.988905
1.00335 0.999809 0.989566
1.00196 0.999959 0.996377
1.00192 0.999951 0.996415
1.00332 0.999658 0.989774
1.00361 0.99999 0.989898
1.00532 0.997626 0.989004
1.00368 1.00038 0.988508
1.00534 0.998051 0.988492
1.00331 0.999606 0.989841
1.00533 0.997578 0.989038
1.00533 0.997743 0.988841
1.00532 0.994955 0.991828
1.00539 0.998493 0.987901
1.00531 0.994938 0.991663
1.00193 0.99996 0.996406
1.00137 1.00017 0.993649
1.0035 0.999591 0.989359
1.00386 1.00002 0.989997
1.00208 1.00188 0.99609
1.00446 1.00167 0.987915
1.00413 1.00036 0.989273
1.0054 0.998541 0.988323
1.00528 1.00051 0.986344
1.00534 1.00242 0.984384
1.00535 0.997683 0.988324
1.00332 0.999665 0.989764
1.0035 0.999823 0.990689
1.00534 0.997461 0.98938
1.00539 0.998526 0.988339
1.00263 1.00149 0.995722
1.00385 1.003 0.986448
1.00535 1.00377 0.982518
1.00534 0.999173 0.987676
1.00528 0.995492 0.990995
1.00532 0.998798 0.987177
1.00533 0.996742 0.989257
1.00534 0.995095 0.990638
1.00289 1.00363 0.986349
1.00347 1.00443 0.984692
1.00533 0.997692 0.988929
1.00536 0.997902 0.989123
1.00534 0.995433 0.99119
1.00529 0.994956 0.991531
1.00534 0.996221 0.989833
1.00516 0.994946 0.991527
1.00346 1.00329 0.985655
1.00535 0.994855 0.99103
1.0054 1.00468 0.981172
1.00542 0.999968 0.985608
1.00534 0.99636 0.989465
1.0054 0.994784 0.990806
1.00477 1.00455 0.982417
1.00159 1.00495 0.987897
1.00515 1.00355 0.983172
1.00379 1.00056 0.988082
1.00145 1.00176 0.996282
1.00216 1.00361 0.987679
1.00394 1.00091 0.987403
1.00533 0.999779 0.986445
1.00332 1.00353 0.985809
1.00543 1.00439 0.981338
1.00538 1.00174 0.984303
1.00556 0.999369 0.98607
1.00263 1.00372 0.986701
1.00172 1.00332 0.988762
1.00309 1.00348 0.986535
1.00537 0.999083 0.987218
1.00534 1.00064 0.985516
1.00534 0.995922 0.990124
1.00493 1.00441 0.982171
1.00545 0.998017 0.987827
1.00561 1.00206 0.983665
1.0056 0.9972 0.987653
1.00142 1.00273 0.990211
1.003 1.00419 0.985161
1.00316 1.00387 0.986199
1.00249 1.00255 0.987011
1.00526 0.995366 0.990939
1.00541 0.996917 0.988917
1.00537 0.994872 0.990879
1.00551 1.00443 0.981918
1.00543 0.995449 0.990088
1.00556 1.0004 0.985424
1.00558 0.996385 0.988597
1.00082 1.00432 0.989732
1.00052 1.00186 0.992267
1.00038 0.999542 0.997864
1.0004 1.00029 0.99759
1.00043 1.001 0.997274
1.00046 1.00325 0.990705
1.00072 1.00176 0.9967
1.00213 1.00379 0.987597
1.00191 1.00191 0.996018
1.00363 1.00042 0.988509
1.00344 0.99998 0.98926
1.00533 0.998063 0.988507
1.00531 0.997638 0.989014
1.00333 0.99967 0.989779
1.00197 0.99994 0.996411
1.00332 0.999606 0.989846
1.00533 0.99759 0.989045
1.00532 0.997758 0.988853
1.00533 0.994955 0.991828
1.00538 0.998501 0.987908
1.00531 0.994938 0.991674
1.00533 0.997622 0.989008
1.00534 0.994954 0.99185
1.00531 0.994957 0.991767
1.00524 0.994927 0.991726
1.0053 0.995029 0.991425
1.00521 0.994954 0.991542
1.00334 0.999663 0.989772
1.00373 0.999764 0.990424
1.00533 0.997343 0.989346
1.00538 0.998821 0.988037
1.00281 1.00141 0.995577
1.00414 1.00284 0.987405
1.00538 1.00371 0.982894
1.00534 0.999214 0.987666
1.00529 0.995155 0.991334
1.00534 0.997065 0.988972
1.00534 0.998721 0.987261
1.00533 0.995115 0.990592
1.00287 1.0036 0.986269
1.00309 1.00448 0.984623
1.00533 0.99745 0.989201
1.00536 0.997809 0.989143
1.00534 0.995448 0.991161
1.00529 0.99531 0.991231
1.00339 1.00337 0.985622
1.00539 1.00459 0.981214
1.00542 1.00035 0.985283
1.00532 0.996279 0.989905
1.00517 0.994944 0.991458
1.00535 0.996098 0.989709
1.00534 0.994855 0.990988
1.00539 0.994772 0.990761
1.00468 1.00476 0.982406
1.00455 1.00433 0.9833
1.00153 1.0044 0.988034
1.00534 0.995429 0.991265
1.00533 0.99556 0.990987
1.00523 0.994926 0.991826
1.00517 0.994953 0.991534
1.00528 0.9949 0.991117
1.00533 0.994913 0.991085
1.00535 1.00516 0.981041
1.00535 0.994833 0.990836
1.00555 1.00194 0.983581
1.00545 0.997488 0.987879
1.00541 0.995235 0.990392
1.00543 0.994743 0.99064
1.00145 1.00189 0.989451
1.00524 1.00505 0.98162
1.00283 1.00433 0.985448
1.00509 1.00424 0.982318
1.00535 0.999087 0.987214
1.00159 1.0035 0.98875
1.00259 1.00389 0.986814
1.0029 1.00443 0.986613
1.00535 1.00065 0.985478
1.00536 0.995902 0.990144
1.00528 1.00384 0.982075
1.00559 1.00191 0.983628
1.00544 0.998071 0.987774
1.00558 0.996965 0.987885
1.00111 1.0029 0.990241
1.00366 1.00389 0.985265
1.00274 1.00401 0.986058
1.00341 1.00206 0.987132
1.0053 0.995298 0.990958
1.00541 0.996874 0.988945
1.00536 0.99487 0.990909
1.00552 1.00436 0.981725
1.00542 0.995693 0.989905
1.00553 1.00031 0.98541
1.00559 0.996412 0.988855
1.0009 1.00226 0.991437
1.00244 1.0052 0.986565
1.0036 1.00515 0.983188
1.00312 1.00257 0.987396
1.00307 1.0026 0.987873
1.00528 0.9949 0.99114
1.00542 0.994912 0.990527
1.0054 0.99486 0.990601
1.00523 1.00354 0.983027
1.00545 0.995242 0.990154
1.00523 0.999363 0.986567
1.00125 1.00487 0.988349
1.00051 1.00511 0.989268
1.00028 1.00377 0.991003
1.00043 1.00446 0.989747
1.00029 1.001 0.994422
1.00041 1.00181 0.992927
1.00051 0.998852 0.995916
1.00031 0.999557 0.997948
1.00037 1.0001 0.997734
1.00014 1.00205 0.992663
0.99986 1.00042 0.997915
1.0008 1.00306 0.99057
1.00111 1.00186 0.996437
1.00223 1.00357 0.987499
1.00211 1.00183 0.995925
1.00536 0.998518 0.987912
1.00531 0.997775 0.988862
1.0053 0.994939 0.991685
1.00534 0.994955 0.991827
1.00532 0.997603 0.989051
1.00331 0.999596 0.989848
1.00533 0.997626 0.989007
1.00534 0.994954 0.991848
1.00532 0.994957 0.991772
1.00524 0.994925 0.99172
1.0053 0.994992 0.991444
1.00522 0.994956 0.991538
1.00535 0.994954 0.99185
1.00523 0.994935 0.991765
1.00524 0.994933 0.991674
1.00535 0.994909 0.991554
1.00521 0.994938 0.991343
1.0053 0.994931 0.991253
1.00533 0.997226 0.989468
1.00535 0.997741 0.989163
1.00534 0.995463 0.991134
1.00529 0.995668 0.990929
1.00334 1.00346 0.985608
1.00538 1.00473 0.981254
1.0054 1.00066 0.984962
1.0053 0.996337 0.989976
1.00518 0.994941 0.991389
1.00534 0.994855 0.990946
1.00536 0.99582 0.989954
1.00538 0.994764 0.990716
1.0043 1.00513 0.982402
1.00387 1.00517 0.983429
1.00143 1.00415 0.988165
1.00534 0.995199 0.99155
1.00533 0.995531 0.990996
1.00523 0.994924 0.991769
1.00518 0.994951 0.991597
1.00512 1.00514 0.98113
1.00554 1.00208 0.983633
1.00546 0.997698 0.987482
1.00529 0.994903 0.99114
1.00533 0.994909 0.991042
1.0054 0.995121 0.990417
1.00535 0.994836 0.990839
1.00544 0.994747 0.990636
1.00499 1.00504 0.981724
1.00511 1.00424 0.982256
1.00183 1.00239 0.989497
1.00305 1.00404 0.985731
1.00523 0.994931 0.991788
1.00522 0.994932 0.99168
1.00535 0.99492 0.991558
1.00535 0.994901 0.991142
1.00531 0.994909 0.990867
1.00538 0.994876 0.990866
1.0055 1.00371 0.982024
1.00538 0.994826 0.990638
1.00553 0.999899 0.985332
1.00545 0.996519 0.988664
1.00545 0.994839 0.990565
1.00539 0.994758 0.990628
1.00313 1.00172 0.987547
1.00204 1.00325 0.986328
1.00517 1.00413 0.982214
1.00496 1.00509 0.984158
1.00512 1.0043 0.982316
1.00083 1.00303 0.99028
1.00534 0.99523 0.990977
1.00317 1.00419 0.985912
1.00385 1.00354 0.985403
1.00419 1.00125 0.987258
1.0054 0.996828 0.988971
1.00534 0.994867 0.99094
1.00553 1.00422 0.981548
1.0055 1.00022 0.985397
1.00542 0.995914 0.989721
1.00561 0.996418 0.989115
1.00073 1.00236 0.991459
1.00212 1.00521 0.986477
1.00431 1.00453 0.983201
1.00319 1.00258 0.987309
1.00364 1.00183 0.986936
1.00526 0.994898 0.991152
1.00542 0.994931 0.990571
1.00539 0.994859 0.990607
1.0052 1.00363 0.983062
1.00548 0.995293 0.990044
1.00522 0.999559 0.98694
1.00169 1.00512 0.987391
1.0032 1.00516 0.98572
1.00354 1.00506 0.984108
1.00388 1.00259 0.986323
1.00468 1.00327 0.985345
1.00537 0.994865 0.99082
1.0054 0.994859 0.990446
1.00539 0.994772 0.990503
1.00505 1.00187 0.984473
1.0052 0.998079 0.987851
1.00107 1.00495 0.988379
1.00116 1.00511 0.987729
0.999701 1.00512 0.989386
1 1.00503 0.991036
1.0002 1.00489 0.990507
0.999915 1.00338 0.991794
1 1.00396 0.991025
1.00011 1.00048 0.995126
1.00022 1.00467 0.989759
1.00027 1.00091 0.994546
1.00033 0.998043 0.996687
1.00037 1.00185 0.993572
1.00028 0.999023 0.997092
1.00022 0.999472 0.998035
1.0004 1.00261 0.992044
1.00026 1.00162 0.992724
0.999852 1.00002 0.998184
1.00034 1.0007 0.997409
1.00119 1.00287 0.990454
1.00139 1.00214 0.996236
1.00531 0.994952 0.991462
1.00532 0.994957 0.991776
1.00522 0.994958 0.991534
1.00524 0.994923 0.991715
1.00535 0.994954 0.991846
1.00533 0.997628 0.989009
1.00535 0.994954 0.991848
1.00523 0.994934 0.991771
1.00523 0.994933 0.991672
1.00534 0.994907 0.991543
1.00521 0.99494 0.991346
1.00531 0.994926 0.991265
1.00523 0.994937 0.99179
1.00534 0.994916 0.991651
1.00532 0.99491 0.99147
1.00534 0.994897 0.991558
1.00532 0.994913 0.991064
1.00532 0.99491 0.991222
1.00534 0.994952 0.991836
1.00533 0.995502 0.991005
1.00523 0.994922 0.991712
1.00519 0.994949 0.99166
1.00495 1.00512 0.981207
1.00552 1.00232 0.983683
1.00547 0.997891 0.987089
1.0053 0.994909 0.991165
1.00532 0.994908 0.990999
1.00534 0.994838 0.990841
1.00539 0.995002 0.990441
1.00544 0.994746 0.99063
1.00481 1.00505 0.981821
1.00511 1.00477 0.982185
1.00223 1.00288 0.989538
1.00304 1.00316 0.985993
1.00523 0.994931 0.99179
1.00522 0.994934 0.991693
1.00534 0.994919 0.991529
1.00534 0.994903 0.991139
1.0055 1.00389 0.982097
1.00557 0.99996 0.985125
1.00544 0.996469 0.988674
1.00532 0.99491 0.990904
1.00538 0.994871 0.990853
1.00546 0.994789 0.990581
1.00538 0.994827 0.990632
1.00539 0.994765 0.990651
1.0051 1.00449 0.982253
1.00504 1.00457 0.982372
1.00393 1.00429 0.98427
1.00267 1.00258 0.987666
1.00242 1.00441 0.986246
1.00534 0.994908 0.991601
1.00535 0.994905 0.99141
1.00538 0.994859 0.990912
1.00536 0.994872 0.990703
1.00542 1.00278 0.983368
1.00537 0.994766 0.990446
1.00545 0.998986 0.985594
1.00539 0.99588 0.989232
1.00544 0.994729 0.990543
1.00109 1.00508 0.987689
1.00389 1.00452 0.986309
1.00216 1.00297 0.987273
1.00486 1.00498 0.98267
1.00487 1.0035 0.984985
1.00511 1.00347 0.98309
1.00056 1.00249 0.991478
1.0019 1.00521 0.986394
1.00524 0.994896 0.991165
1.00266 1.00258 0.987225
1.00523 1.00435 0.983206
1.0042 1.00119 0.986006
1.00541 0.994953 0.990614
1.00538 0.994859 0.990614
1.00529 1.00371 0.983103
1.00521 0.999793 0.987311
1.00551 0.995338 0.989934
1.00165 1.00515 0.987388
1.00266 1.00521 0.985711
1.00413 1.00501 0.983326
1.00393 1.00192 0.986456
1.00456 1.0022 0.985207
1.00537 0.994864 0.990817
1.00542 0.99486 0.990422
1.0054 0.994757 0.990512
1.00502 1.00201 0.984721
1.0052 0.99822 0.987673
1.00292 1.00517 0.985876
1.00156 1.00521 0.985945
1.00458 1.00315 0.984523
1.00283 1.00261 0.985124
1.00538 1.00107 0.985569
1.00538 0.994798 0.990606
1.00546 0.995466 0.989509
1.0054 0.994763 0.989999
1.00504 1.00086 0.986033
1.00511 0.99905 0.987169
1.00096 1.00494 0.988415
1.00159 1.00512 0.987517
0.999176 1.00458 0.991079
0.999408 1.0051 0.989477
0.999693 1.00502 0.990479
0.998932 1.00473 0.991456
0.998449 1.00438 0.993406
0.998781 1.00511 0.991654
0.999584 1.0048 0.991085
1.00003 1.00296 0.991966
0.999875 1.00331 0.99178
1 1.00015 0.995545
0.99972 1.004 0.991041
1.00011 1.00039 0.995195
1.0002 0.997833 0.997082
1.00026 1.00075 0.994672
1.00026 0.998196 0.996636
0.999986 0.999135 0.998297
1.00025 1.00224 0.992328
1.00063 1.00177 0.992137
0.99972 0.999961 0.998154
1.00067 1.00112 0.992768
0.999871 0.99984 0.998184
1.00075 1.00101 0.996952
1.0052 0.994942 0.991348
1.00523 0.994933 0.991669
1.00531 0.994921 0.991278
1.00534 0.994905 0.991532
1.00523 0.994933 0.991777
1.00535 0.994954 0.991845
1.00523 0.994939 0.991801
1.00534 0.994916 0.991643
1.00532 0.994913 0.991476
1.00534 0.994893 0.991543
1.00533 0.994913 0.991059
1.00532 0.994904 0.991229
1.00533 0.994909 0.991661
1.00536 0.994892 0.991613
1.00532 0.99488 0.991518
1.00537 0.99488 0.990863
1.00523 0.994931 0.991792
1.00523 0.994936 0.991706
1.00534 0.994917 0.991499
1.00533 0.994905 0.991136
1.00553 1.00402 0.982176
1.00563 1.00001 0.984915
1.00543 0.996433 0.988683
1.00533 0.99491 0.99094
1.00538 0.994866 0.990842
1.00538 0.994828 0.990626
1.00546 0.994741 0.990596
1.00539 0.994775 0.990675
1.0051 1.00464 0.982294
1.00477 1.00473 0.982429
1.00347 1.00376 0.984389
1.00225 1.00339 0.987816
1.00317 1.00526 0.986195
1.00534 0.99491 0.991587
1.00535 0.994907 0.991409
1.00538 0.99486 0.99092
1.00541 1.00287 0.983364
1.00544 0.999242 0.985491
1.00542 0.995723 0.989273
1.00536 0.994876 0.990719
1.00541 0.994709 0.990596
1.00538 0.99477 0.990466
1.00088 1.00488 0.987988
1.00479 1.0046 0.982697
1.00517 1.00395 0.982608
1.00457 1.00316 0.984822
1.00265 1.00349 0.987019
1.00327 1.00414 0.986189
1.00536 0.99489 0.991539
1.00539 0.994857 0.991235
1.00539 0.994836 0.99072
1.00538 0.994813 0.990484
1.00524 1.00252 0.983848
1.00536 0.994741 0.990331
1.00538 0.998291 0.986967
1.00536 0.995158 0.989562
1.00022 1.00413 0.989527
1.00176 1.005 0.987671
1.00325 1.00375 0.987606
1.00189 1.00159 0.990005
1.00454 1.00399 0.983976
1.00503 1.00345 0.983375
1.00136 1.00521 0.987383
1.00236 1.00512 0.985694
1.00537 0.994863 0.990815
1.00409 1.00104 0.986584
1.00476 1.00493 0.982541
1.00408 1.00254 0.985058
1.00545 0.99486 0.990398
1.00542 0.994744 0.990522
1.00497 1.00212 0.984967
1.00519 0.998377 0.987496
1.00253 1.00511 0.985938
1.00281 1.00503 0.985676
1.00445 1.00329 0.98432
1.00422 1.00334 0.984698
1.00531 1.00193 0.985336
1.00539 0.994804 0.99061
1.00546 0.995288 0.989784
1.00539 0.994763 0.990315
1.00509 1.00071 0.985907
1.00504 0.999557 0.986783
1.00019 1.00476 0.988277
1.00035 1.00506 0.987704
1.00496 1.00085 0.986111
1.00508 1.00182 0.985632
1.00545 0.994797 0.99054
1.00536 0.994684 0.990449
1.00526 0.997434 0.988011
1.00512 1.00009 0.986069
1.00217 1.0051 0.987316
0.999487 1.00484 0.990673
0.996865 1.00497 0.994551
0.999233 1.00511 0.990461
0.997354 1.00509 0.991871
0.99964 1.00466 0.991009
0.997978 1.0046 0.993774
0.998947 1.00508 0.99169
0.998587 1.00168 0.996135
0.998216 1.00501 0.992886
0.998715 1.00512 0.991358
1.00002 1.00453 0.990659
0.999983 1.00315 0.991829
0.999924 1.0031 0.991933
0.999899 0.999906 0.995848
0.999735 1.00347 0.991767
0.999989 1.0001 0.995587
1.00007 0.997797 0.997313
1.00008 1.00031 0.99526
1.00016 0.997917 0.99705
1.00013 0.99837 0.996572
1.00037 1.00101 0.993345
1.00028 1.00215 0.99225
0.999912 0.998888 0.99838
1.00048 1.0011 0.992234
0.999867 1.00002 0.998136
1.00013 0.999536 0.998051
1.00534 0.994914 0.991053
1.00533 0.994917 0.991482
1.00532 0.994899 0.991236
1.00533 0.994889 0.991527
1.00534 0.994917 0.991636
1.00523 0.994942 0.991811
1.00533 0.994909 0.991661
1.00535 0.994892 0.991606
1.00533 0.994883 0.99146
1.00536 0.994879 0.990917
1.00536 0.994886 0.991627
1.00537 0.994858 0.991547
1.00535 0.994857 0.991204
1.00535 0.994912 0.991573
1.00535 0.994908 0.991409
1.00538 0.994862 0.990928
1.00532 1.003 0.983363
1.00541 0.999499 0.985392
1.00544 0.995505 0.989313
1.00536 0.99488 0.990735
1.0054 0.994774 0.990485
1.00538 0.99469 0.990655
1.00492 1.00422 0.982727
1.00517 1.00436 0.982139
1.00384 1.0033 0.984658
1.00095 1.00484 0.988288
1.00341 1.00397 0.98674
1.00245 1.00381 0.986043
1.00537 0.994892 0.991557
1.00538 0.994858 0.991208
1.00539 0.994841 0.990736
1.00513 1.00262 0.983837
1.00535 0.998134 0.986856
1.00539 0.995046 0.989723
1.00538 0.994802 0.990458
1.00539 0.994749 0.990326
1.00014 1.00456 0.989747
1.00144 1.00503 0.987604
1.0046 1.00351 0.983731
1.00472 1.00331 0.983509
1.00266 1.0024 0.988838
1.0024 1.00336 0.987774
1.00539 0.994853 0.991456
1.00542 0.994841 0.99087
1.00538 0.994789 0.990526
1.00536 0.994771 0.990242
1.00468 1.00111 0.98597
1.00536 0.994712 0.99037
1.00485 0.997514 0.988338
1.00001 1.00438 0.990496
1.00055 1.00352 0.990701
0.999637 1.00504 0.989176
1.00132 1.00505 0.988098
1.00172 1.00458 0.989899
1.00412 1.0016 0.98561
1.00404 1.00354 0.985145
1.00363 1.00524 0.985165
1.00238 1.00517 0.986006
1.00317 1.00526 0.985404
1.00539 0.99481 0.990614
1.00529 1.00215 0.984282
1.0045 1.00337 0.984121
1.00537 1.00227 0.985117
1.00545 0.995093 0.99006
1.00537 0.994761 0.990629
1.00514 1.00054 0.985782
1.00495 0.999996 0.986396
1.00103 1.00413 0.987872
1.00127 1.00483 0.987111
1.00496 1.00095 0.985784
1.00502 1.00193 0.985489
1.00543 0.994804 0.990547
1.00538 0.994711 0.990461
1.00522 0.997334 0.98809
1.00511 1.00021 0.986111
0.998955 1.00368 0.991764
1.00549 0.994746 0.990969
1.00277 1.00347 0.988662
1.00468 1.00109 0.985913
1.00539 0.994713 0.990723
1.00514 0.996647 0.988043
1.00509 1.00077 0.98597
0.999945 1.00481 0.990274
0.997337 1.00471 0.994677
0.996236 1.00266 0.997145
0.999384 1.0046 0.990928
0.998833 1.00505 0.991718
0.996813 1.00492 0.994148
0.99987 1.0045 0.990638
0.998848 1.00509 0.991474
0.996686 1.0033 0.996541
0.99849 1.0048 0.992681
0.996636 1.00291 0.998045
0.996483 1.00483 0.995534
0.99891 1.00478 0.992352
1.00017 1.00491 0.989834
1.00022 1.00444 0.990164
0.999992 1.00305 0.991868
0.999914 1.00323 0.991808
0.999789 0.999944 0.996003
0.999801 1.0033 0.991903
0.99992 0.999927 0.995862
0.999943 0.997844 0.997536
0.999993 1 0.995637
1.00008 0.997815 0.99729
1.00014 0.997998 0.997011
1.00028 1.00367 0.990812
0.999974 1.0009 0.993899
1.00023 1.00114 0.993304
1.00006 0.998701 0.998529
1.00034 1.00191 0.992174
0.999882 0.99946 0.998283
0.999979 0.999853 0.998171
1.00534 0.994878 0.99097
1.00534 0.994886 0.991402
1.00534 0.994893 0.991599
1.00533 0.994909 0.991661
1.00536 0.994882 0.991637
1.00536 0.994858 0.991533
1.00535 0.994855 0.991144
1.0054 0.99485 0.991496
1.00537 0.994815 0.991552
1.00562 0.994691 0.991461
1.00537 0.994895 0.991576
1.00538 0.994856 0.991182
1.00538 0.994842 0.990751
1.00504 1.00272 0.983829
1.00534 0.998089 0.986754
1.00542 0.995021 0.989877
1.00538 0.994793 0.990432
1.00542 0.994751 0.990319
1.00505 1.00328 0.983482
1.00426 1.00303 0.983597
1.00273 1.00416 0.987678
1.00037 1.00458 0.989971
1.0012 1.00501 0.98753
1.00169 1.00327 0.987948
1.0054 0.994848 0.991451
1.00055 1.00368 0.990474
1.00005 1.00423 0.990604
1.00542 0.99483 0.99087
1.00539 0.994799 0.99055
1.00474 1.00133 0.985755
1.00527 0.997033 0.988598
1.00532 0.99471 0.990352
1.00534 0.99476 0.990178
1.00023 1.00503 0.989243
1.00123 1.00502 0.988024
1.00378 1.00403 0.984802
1.00394 1.0046 0.983908
1.00421 1.0029 0.985305
1.00099 1.00302 0.990551
1.00547 0.994739 0.991381
1.0054 0.995104 0.990498
1.00536 0.994737 0.990525
1.00526 0.994731 0.989925
1.00358 1.00062 0.987697
1.00528 0.995696 0.990123
1.00026 1.00435 0.99018
0.99956 1.004 0.990681
1.00045 1.00442 0.990699
1.00065 1.00475 0.988971
1.00116 1.00417 0.98958
1.00158 1.00112 0.990409
1.00257 1.00406 0.985601
1.00178 1.00266 0.989946
1.00129 1.00468 0.987484
1.00342 1.00513 0.986512
1.00541 0.994809 0.990554
1.0054 0.994737 0.990474
1.00492 1.00281 0.985345
1.00486 1.00113 0.985444
1.00518 0.997252 0.988169
1.0051 1.00033 0.986153
0.999267 1.00428 0.991706
1.00549 0.99473 0.99112
1.0018 1.00396 0.989198
1.00457 1.00107 0.985777
1.0054 0.994707 0.990792
1.00516 0.996786 0.988264
1.00506 1.00051 0.985875
0.998109 1.00441 0.994245
1.005 0.994674 0.990287
1.00167 1.0034 0.988621
1.00419 1.00305 0.984283
1.00492 0.995063 0.991415
1.00412 1.0003 0.98702
0.998489 0.994746 0.981106
0.997335 1.00483 0.994781
0.996943 1.00271 0.997142
0.995994 1.00281 0.998102
0.999833 1.00442 0.990613
0.998502 1.00507 0.991603
0.999266 1.00465 0.992484
0.995477 1.00361 0.996972
1.00018 1.00443 0.990187
0.999717 1.00501 0.990291
0.996099 1.00174 0.999256
0.99837 1.00493 0.9923
0.996889 1.00468 0.995072
0.994879 1.00522 0.997961
0.998151 1.00501 0.993173
0.998772 1.00484 0.992237
1.00019 1.0045 0.990324
0.999966 1.0046 0.990054
1.00001 1.00438 0.99112
0.999983 1.00413 0.990598
0.999886 1.00297 0.992021
0.999917 1.00316 0.991858
0.999684 0.999886 0.995465
0.999925 1.00312 0.991793
0.999784 0.999932 0.99565
0.999962 0.997778 0.998985
0.999912 0.999931 0.995883
0.999969 0.997768 0.99752
1.0001 0.997829 0.997259
0.99999 1.00304 0.991785
1.00049 1.00341 0.990877
1.0001 1.00012 0.994571
1.00012 1.00079 0.99436
0.999977 0.998251 0.998705
1.00007 1.00157 0.993262
0.999973 0.998507 0.998511
0.999894 0.999854 0.998129
1.00536 0.994854 0.991085
1.00535 0.994858 0.991519
1.00536 0.994878 0.991648
1.00539 0.99485 0.991498
1.00539 0.994816 0.991483
1.00563 0.994706 0.991464
1.00551 0.994784 0.991511
1.00027 0.994652 0.979745
1.00546 0.99467 0.989701
1.0003 1.00378 0.990612
1.00539 0.994845 0.991445
1.00542 0.994827 0.99087
1.0054 0.994813 0.990574
1.00472 1.00154 0.985525
1.0053 0.996214 0.988841
1.0053 0.99471 0.990315
1.00533 0.994754 0.990113
1.00406 1.00423 0.984526
1.00457 1.00508 0.982731
1.00381 1.00282 0.984983
1.00078 1.0033 0.990454
1.00102 1.00232 0.991177
1.00094 1.00503 0.989285
1.00089 1.00501 0.987953
1.00005 1.0044 0.990508
1.00546 0.994764 0.991396
1.00052 1.00403 0.990157
1.00021 1.00418 0.990678
0.999698 1.00436 0.991196
1.00539 0.994915 0.990525
1.00535 0.994736 0.990485
1.00356 1.00168 0.987722
1.00501 0.995444 0.990128
1.00529 0.994735 0.98995
1.00053 1.00485 0.989023
1.0011 1.00404 0.989963
1.00292 1.00284 0.989102
1.0031 1.00499 0.985058
1.00307 0.999887 0.990803
1.00546 0.994715 0.990944
1.00534 0.994858 0.990588
1.00525 0.994712 0.99044
1.00459 0.997366 0.989564
1.00337 1.00015 0.989049
0.999542 1.00338 0.992561
0.999906 1.00469 0.989702
0.998959 1.00333 0.992989
1.00066 1.00322 0.991855
1.0006 1.00074 0.99365
1.00003 1.0013 0.992609
1.00189 1.00044 0.992314
1.00101 1.00363 0.991593
1.00011 1.00418 0.989737
1.0055 0.994708 0.991261
1.00541 0.994704 0.990845
1.00518 0.996929 0.988486
1.00444 1.00121 0.985643
1.00504 1.00026 0.985788
0.998131 1.00472 0.995182
1.00451 0.99466 0.990392
1.00198 1.00332 0.988388
1.00451 1.00286 0.984179
1.0047 0.995028 0.991583
1.00435 1.00019 0.987068
0.998393 0.9947 0.979346
0.997389 1.00511 0.994304
1.00316 0.994612 0.990555
1.00222 1.00447 0.986065
1.00375 1.00147 0.986809
1.0035 0.997146 0.992734
0.99982 0.994831 0.93401
0.994843 0.994688 0.956426
0.997156 0.994619 0.984162
0.994805 0.99682 0.841282
0.994761 1.00065 0.801479
0.997799 1.00303 0.997145
0.996481 1.00268 0.998235
0.994957 1.00522 0.998477
1.00022 1.00443 0.990218
0.999504 1.00504 0.99075
0.998357 1.00499 0.992235
0.997223 1.00479 0.994592
0.995573 1.00104 1.00043
0.998609 1.00471 0.992603
1.00026 1.0044 0.990036
1.00014 1.00468 0.990192
0.995243 1.00475 0.997886
0.997728 1.00495 0.993603
0.997805 1.00488 0.994069
0.996128 1.0052 0.99603
0.998345 1.0048 0.993018
0.999871 1.00477 0.990173
1.00007 1.00449 0.990035
0.998998 1.00426 0.991751
0.996996 1.00474 0.994757
0.998596 1.00488 0.992276
0.999649 1.00441 0.991548
0.999972 1.00372 0.991212
0.999825 1.00409 0.990535
0.999964 1.00276 0.99223
0.999991 1.00291 0.99204
0.999666 0.999772 0.995618
0.999872 1.00326 0.991842
0.999671 0.999899 0.995474
0.999933 0.997745 0.999026
0.999762 0.999951 0.995306
0.999905 0.99778 0.998299
1.00003 0.997702 0.997499
0.999929 1.00234 0.99268
1.00012 1.00291 0.991818
1.00003 0.99965 0.995202
1.00066 1.00305 0.99094
1.00008 1.00019 0.99499
1.00001 0.997863 0.998856
1.0003 1.0005 0.9938
1.00001 0.998479 0.998622
0.99993 0.998845 0.998493
1.00541 0.994814 0.991413
1.00539 0.994849 0.991499
1.00566 0.994721 0.991491
0.999124 0.994671 0.97945
1.00554 0.994764 0.991515
1.00548 0.994695 0.98978
1.00547 0.994656 0.991304
0.994871 0.994756 0.959898
1.00485 0.994698 0.975066
1.00031 1.00344 0.990966
1.00047 1.00366 0.990618
0.998942 1.00379 0.992721
1.00047 1.00391 0.990304
1.00545 0.994787 0.991412
1.00538 0.994831 0.990554
1.00534 0.994734 0.990445
1.00376 1.0016 0.987755
1.00512 0.995573 0.990174
1.00531 0.994736 0.989998
1.00279 1.00164 0.98819
1.00416 1.00527 0.984519
1.00287 0.998118 0.99125
1.00025 1.00483 0.990687
1.00021 1.00329 0.990388
1.00048 1.00499 0.989073
1.00072 1.00372 0.990126
0.998899 1.00489 0.9918
1.00549 0.994737 0.990922
0.999329 1.00379 0.99198
1.00029 1.00448 0.989893
0.996508 1.00457 0.99545
1.00535 0.99487 0.99058
1.00525 0.994714 0.990421
1.0039 0.99876 0.989235
1.00448 0.997401 0.989605
1.00099 1.00298 0.991172
0.999443 1.00116 0.993085
1.00137 1.00055 0.992345
1.00191 1.00087 0.991564
1.00375 0.996888 0.989595
1.00521 0.994623 0.990951
1.00394 0.99885 0.989658
1.0045 0.998417 0.989554
0.996145 1.0046 0.996321
1.00097 1.00319 0.99017
0.997634 0.999219 1.00003
0.998057 1.00418 0.993442
0.999491 0.997453 0.91632
0.998163 1.00459 0.996164
1.00173 1.00357 0.988146
1.00391 0.994668 0.990542
1.00445 0.994985 0.991738
1.00447 0.999992 0.987089
1.00475 1.00266 0.984065
0.998082 0.994658 0.977228
0.997826 1.00462 0.994581
1.00279 0.994627 0.99052
1.00251 1.00444 0.986053
1.00407 1.00109 0.986998
1.00337 0.997454 0.992651
0.998253 0.994917 0.919376
0.995044 0.994706 0.953137
0.996882 0.994827 0.984596
0.996063 0.996467 0.848878
0.994797 0.998906 0.799421
0.997819 1.00461 0.993735
0.997373 0.994932 0.852884
0.994836 0.999101 0.798746
1.0014 0.994775 0.994254
1.0017 1.00287 0.989579
1.00157 1.00066 0.992661
0.995304 0.995551 0.987751
0.997409 0.994652 0.930784
0.994996 0.994713 0.947124
0.994748 0.997868 0.854421
0.994808 0.995947 0.777915
0.996889 1.00226 0.99838
0.99498 1.00526 0.998285
0.995166 1.00519 0.999336
1.00048 1.00417 0.990008
0.999946 1.00483 0.990054
0.997906 1.00485 0.992975
0.997477 1.00496 0.99403
0.995578 1.00423 0.997819
1.00016 1.00452 0.989992
0.997538 1.00479 0.994342
0.998293 1.0049 0.992579
1.00011 1.00473 0.990136
0.995907 1.00518 0.996406
0.996429 1.00514 0.99562
0.995095 1.00519 0.997477
0.998683 1.00507 0.991675
1.00009 1.00455 0.990114
0.999667 1.004 0.991648
0.99711 1.00439 0.995252
0.997634 1.00327 0.995018
0.998131 1.00337 0.994694
0.995244 1.00482 0.998528
0.998515 1.00186 0.99472
0.99706 1.00518 0.993455
0.998636 1.00494 0.992237
0.998871 1.00468 0.991356
0.999297 1.00437 0.991981
0.999924 1.00418 0.991114
1.00008 1.00286 0.992124
1.00004 1.0042 0.990463
0.999956 1.00274 0.992264
0.999874 0.999629 0.996213
0.999769 1.00321 0.99206
0.999747 0.999709 0.995912
0.999921 0.99761 0.997815
0.99967 0.999877 0.995472
0.999923 0.997744 0.999039
0.999906 0.997825 0.997608
1.00042 1.0039 0.990525
0.999847 1.00215 0.992957
0.999971 1.00229 0.992666
0.999975 0.999259 0.995656
1.00018 1.00292 0.991854
1.00006 0.999655 0.995176
1 0.997592 0.998977
1.00005 1.00039 0.995294
0.999973 0.998002 0.997991
0.999978 0.99833 0.9968
0.998275 0.994676 0.979127
1.00554 0.994751 0.991519
1.00549 0.994665 0.989847
0.995976 0.99476 0.95964
1.00473 0.994643 0.975076
1.00547 0.994656 0.991424
1.00435 0.994531 0.984251
0.999663 0.994715 0.956718
0.997679 0.995323 0.932707
0.996281 0.995024 0.867691
0.994886 1.00014 0.801659
0.999325 1.0039 0.991686
1.00033 1.00351 0.99102
1.0007 1.00356 0.990624
0.998971 1.00376 0.992821
0.997542 1.00471 0.994278
1.00007 1.00456 0.990667
1.00013 1.00504 0.989573
1.00021 1.00422 0.990415
1.0055 0.994751 0.990897
1.00536 0.994769 0.990569
1.00524 0.994712 0.990399
1.00422 0.998528 0.989409
1.00448 0.997328 0.98963
1.001 1.00118 0.992366
1.00427 0.999516 0.990534
1.00084 1.00204 0.992509
1.00065 1.00377 0.990032
1.00122 1.00298 0.990426
0.999135 1.00461 0.991405
0.994959 1.00499 0.997565
1.0042 0.995716 0.990027
0.996324 1.00479 0.995993
1.00032 1.00266 0.991947
1.00497 0.994635 0.990923
1.00388 0.999116 0.989528
1.00385 0.998639 0.989773
0.998411 1.0001 0.997528
0.999248 1.00287 0.99374
1.00253 0.996483 0.987964
1.00269 0.999404 0.990731
1.00375 1.00078 0.989447
1.00184 0.998845 0.993211
0.997766 1.00488 0.994043
0.996243 1.00298 0.997098
0.99719 1.00279 0.996902
0.999864 0.999951 0.84523
1.00075 0.994863 0.932955
0.998673 1.00355 0.994859
1.00295 1.00434 0.986058
1.00238 0.994649 0.990478
1.00331 0.997587 0.99259
1.0042 1.00074 0.987228
0.999974 0.994847 0.93113
0.995521 0.99471 0.95246
0.996594 0.995073 0.985294
0.994775 0.997664 0.867167
0.994832 0.998233 0.796963
0.998293 1.00436 0.993812
0.999441 0.995877 0.849909
0.994799 0.997064 0.792941
1.00096 0.995061 0.994063
1.00146 1.00298 0.989611
1.00157 1.00045 0.993655
0.9958 0.99633 0.988876
0.995492 0.994655 0.923943
0.995174 0.994712 0.948619
0.994785 0.998282 0.859765
0.994843 0.996826 0.774913
0.996692 1.00515 0.996904
0.994792 0.9949 0.786597
0.99474 0.994731 0.767501
0.997239 1.00043 0.996737
0.999057 1.00284 0.997143
0.994893 0.99794 0.986485
0.995059 0.994774 0.954248
0.994888 0.994561 0.912369
0.994815 0.997179 0.863652
0.9949 0.994906 0.794484
0.995211 1.00527 0.998116
0.995038 1.00486 0.999533
0.994926 1.00525 0.999214
1.00032 1.0044 0.989944
1.00036 1.00476 0.990102
0.998407 1.00502 0.992139
0.99723 1.00452 0.994612
0.995725 1.00516 0.996787
1.00028 1.00471 0.990016
0.996662 1.00505 0.995195
0.998936 1.00507 0.991698
0.995183 1.00514 0.99759
0.995028 1.00521 0.998149
0.996402 1.00506 0.995439
0.99983 1.00488 0.991695
1.00023 1.00363 0.99155
0.99704 1.00424 0.995734
0.997955 1.00316 0.99503
0.998499 1.00275 0.994554
0.995291 1.00517 0.997298
0.999902 1.00022 0.994894
0.995327 1.00483 0.996422
0.997088 1.00272 0.998827
1.0008 1.00476 0.989531
1.0051 1.00103 0.98733
0.997386 1.00441 0.992098
0.998356 1.0025 0.994803
0.998568 1.00512 0.991478
0.998054 1.00498 0.993587
0.999509 1.00459 0.990706
0.999199 1.00502 0.992195
0.99933 1.00436 0.99147
0.999515 1.0036 0.991747
0.999929 1.00446 0.991009
0.99992 1.0028 0.992164
0.999971 0.999673 0.995965
1.00009 1.00248 0.992296
0.999859 0.999591 0.995869
1.00004 0.997351 0.997742
0.999729 0.999724 0.995609
0.999969 0.997563 0.999074
0.999921 0.997702 0.999055
1.00068 1.00421 0.990159
0.999894 1.00246 0.992648
1.00053 1.00365 0.990528
0.999997 0.999101 0.995811
0.999998 1.00199 0.992941
1.0001 1.00214 0.992652
0.999997 0.999278 0.99564
0.999995 0.997342 0.999071
1.00006 0.999738 0.995857
1.00001 0.997637 0.998198
0.999998 0.99798 0.997286
0.999284 0.998421 0.835048
0.994847 0.995627 0.782212
0.995312 0.994785 0.960629
1.00459 0.994605 0.975339
1.0055 0.994689 0.991531
1.00269 0.994739 0.953537
1.00332 0.994623 0.985053
0.99948 0.995041 0.928209
0.994769 0.995705 0.846881
0.994878 0.99869 0.800061
0.998948 0.994712 0.966998
0.994862 0.994646 0.933772
0.994712 0.997705 0.856025
0.995098 0.997647 0.791244
0.999941 1.00427 0.992015
0.999938 1.00367 0.991411
1.0003 1.00343 0.991088
0.998997 1.00337 0.992938
0.997043 1.00408 0.995351
1.00032 1.00479 0.989681
0.999327 1.00474 0.991185
1.00097 1.00509 0.988293
1.00026 1.00498 0.989529
0.999387 1.00505 0.990537
1.00449 0.994778 0.990428
1.00483 0.994657 0.99089
1.00361 0.999437 0.989394
1.00296 0.998955 0.989996
0.999827 1.00286 0.994014
0.998978 1.00102 0.995096
0.999218 1.00251 0.993971
0.99647 1.00474 0.99566
1.00215 0.995696 0.98868
0.997667 1.00497 0.99378
0.996281 1.00308 0.997674
1.00254 0.999162 0.990855
1.00354 1.00183 0.988087
1.00098 0.999319 0.993897
0.997361 1.0032 0.996822
0.99937 0.99487 0.986693
1.00107 1.00155 0.992718
0.996859 1.00399 0.996162
0.998606 1.00443 0.993305
0.995984 1.00509 0.995689
0.995024 1.00497 0.998223
0.994794 0.994759 0.796
0.999737 0.995443 0.856456
0.999819 0.997441 0.916641
0.998509 1.00422 0.993863
1.00163 1.00316 0.989586
1.0005 0.995343 0.993849
1.00138 0.999963 0.994659
0.999256 0.999609 0.864596
0.994914 0.994666 0.918039
0.994937 0.994658 0.947327
0.996154 0.997222 0.989757
0.99476 0.997545 0.842875
0.994761 0.995593 0.798984
0.994993 0.997385 0.789924
0.996822 1.00495 0.99658
0.994806 0.995433 0.79172
0.994771 0.994757 0.767371
0.997622 0.998777 0.997406
0.998705 1.00265 0.997018
0.994925 0.996917 0.988176
0.995319 0.994766 0.950259
0.995246 0.994579 0.925708
0.994805 0.996699 0.842878
0.995313 0.994895 0.802751
0.995761 1.00478 1.00057
0.994721 0.994762 0.77502
0.994818 0.994835 0.77485
0.994864 1.00199 1.00051
0.994873 0.996653 0.962892
0.994799 0.994751 0.924174
0.995007 0.9949 0.848495
0.995596 0.994906 0.82536
0.994892 1.00468 0.99971
0.994847 1.00525 0.999516
0.994859 1.00503 1.00004
1 1.005 0.989921
0.999236 1.00507 0.991721
0.99693 1.00493 0.99477
0.995216 1.00511 0.997704
0.999092 1.00484 0.991659
0.996585 1.00503 0.995338
0.995068 1.00507 0.99821
0.994936 1.00512 0.998832
0.995522 1.00514 0.997817
0.997524 1.00499 0.994336
0.998351 1.00327 0.995027
0.998622 1.00212 0.99445
0.995586 1.00523 0.996161
0.995851 1.00435 0.996646
0.999844 1.00032 0.994638
0.995923 1.00224 0.99905
1.00133 1.0022 0.993433
0.994753 1.00527 0.999134
1.00249 1.00019 0.991147
1.00063 1.00381 0.990737
1.00223 1.00278 0.987791
1.00506 1.00101 0.985894
1.00422 1.00151 0.987563
1.00445 1.00077 0.98758
0.999023 1.00413 0.992098
0.998796 1.00519 0.98932
0.998367 1.00312 0.994893
0.999139 1.00482 0.991572
1.00127 1.00472 0.988518
0.998449 1.00451 0.993712
0.99949 1.00485 0.990778
0.999905 1.00407 0.99066
1.00015 1.0043 0.991583
1.00005 1.00331 0.99176
1.00023 1.00009 0.995283
0.999879 1.0029 0.99221
0.999957 0.999827 0.995456
1.00014 0.997519 0.997498
0.999868 0.999539 0.995569
1.00004 0.997396 0.998415
0.999985 0.997507 0.999071
1.00044 1.00488 0.989014
0.999982 1.00293 0.992091
1.00028 1.00448 0.989972
1.00002 0.999256 0.99562
0.99987 1.00244 0.992671
1.00038 1.0037 0.990526
1.00001 0.99731 0.999081
0.999978 0.999133 0.995809
0.999942 1.00212 0.992933
1.00002 0.999263 0.995626
1 0.997418 0.999046
1.00001 0.997654 0.998932
0.994765 0.994831 0.778069
0.998629 0.996089 0.849577
0.994822 0.99478 0.772807
0.994855 0.995951 0.784421
0.999508 0.995231 0.955129
1.00216 0.994688 0.985901
0.998919 0.994719 0.922923
0.994984 0.995934 0.866268
0.994864 0.997035 0.798773
0.998541 0.994755 0.965591
0.996067 0.994634 0.917345
0.994758 0.997435 0.861073
0.994845 0.997007 0.784147
0.994913 0.994757 0.958711
0.994797 0.994631 0.90941
0.994821 0.996407 0.837278
0.994865 0.994898 0.801618
1.00023 1.00443 0.990705
0.998802 1.00438 0.992196
0.999873 1.00394 0.991131
0.996338 1.00361 0.996375
1.00072 1.0046 0.989049
1.00019 1.00486 0.989853
0.998806 1.00472 0.991695
1.00156 1.00507 0.987777
1.00119 1.00505 0.988312
1.00049 1.00472 0.989478
1.00248 0.994678 0.989295
1.00226 0.999002 0.990994
1.00339 1.00294 0.986741
1.00043 0.999436 0.994594
0.997768 1.00453 0.996732
0.9969 1.0021 0.998259
0.998272 1.00501 0.993487
0.998982 1.0035 0.993349
0.999525 0.996081 0.987385
0.997059 1.00512 0.995233
0.996285 1.00342 0.998313
1.00071 1.00109 0.992681
0.997405 1.00339 0.996258
0.996798 0.998645 0.985933
0.996911 1.00298 0.997457
0.99471 1.00554 0.998291
0.996064 1.00461 0.997041
0.994887 1.00502 0.99801
0.994735 0.99475 0.779849
0.994811 0.99471 0.790801
0.999812 1.00069 0.835028
0.996869 1.00458 0.996316
0.998844 1.00256 0.996919
0.998313 0.997746 0.998041
0.994804 0.994896 0.786226
0.994802 0.994596 0.909886
0.994948 0.994758 0.951413
0.995067 0.995543 0.990331
0.994795 0.99683 0.860375
0.994814 0.994779 0.76807
0.99617 0.994884 0.804932
0.996106 1.00479 1.00044
0.994736 0.994789 0.774957
0.994797 0.994833 0.776015
0.99501 1.00255 0.999127
0.994864 0.995635 0.964561
0.99544 0.994762 0.909047
0.995766 0.994901 0.819686
0.995511 0.995475 0.85807
0.994846 1.00483 1.00188
0.994759 0.994829 0.762235
0.994865 0.994845 0.795687
0.994865 0.994888 0.800986
0.994763 1.00028 0.987201
0.994822 0.995681 0.930603
0.997234 0.994874 0.873278
0.994825 1.00524 0.999825
0.995154 1.00473 0.999833
0.994981 1.00485 0.999524
0.998692 1.00467 0.991643
0.996834 1.005 0.995236
0.995008 1.00492 0.998276
0.996924 1.00506 0.994506
0.995375 1.00467 0.997936
0.994923 1.00494 0.998788
0.994781 1.0051 0.999556
0.995242 1.00514 0.99805
0.996039 1.00364 0.996927
0.999783 1.00036 0.99436
0.994775 1.00205 0.999113
0.994771 1.0049 0.998948
0.999466 1.00127 0.993967
1.00072 1.00113 0.994695
0.999965 1.0012 0.994588
1.00345 1.00079 0.987984
1.00036 1.00284 0.991888
1.00263 1.00247 0.987944
1.00483 1.00215 0.985086
1.00509 1.00149 0.98508
1.00504 1.00034 0.986426
1.00485 1.00101 0.985897
1.00295 1.00396 0.987125
1.00315 1.00236 0.987633
1.00374 1.00062 0.987831
1.00071 1.00375 0.992091
1.00022 1.00518 0.988696
1.00231 1.00512 0.986095
0.999685 1.0048 0.991667
1.00125 1.00501 0.988441
1.00089 1.00484 0.988269
1.00006 1.00496 0.99083
1.00033 1.00371 0.990602
1.00035 1.00042 0.994818
1.00035 1.0027 0.991766
1.00023 1.00012 0.994807
1.00038 0.997763 0.996869
0.999904 0.999969 0.995113
1.00013 0.99748 0.998299
1.00008 0.997364 0.999034
1.00124 1.00511 0.987651
1.00022 1.00332 0.990872
1.00074 1.00484 0.989018
1.00005 0.999604 0.995219
1.00007 1.00284 0.991853
1.00041 1.00443 0.989783
1.00002 0.997397 0.999028
1.00002 0.999237 0.995638
1 1.00219 0.992689
0.999998 0.997319 0.999084
0.99996 0.999154 0.995806
1.00001 0.997416 0.999022
0.994784 0.994814 0.774458
0.994788 0.995384 0.792548
0.999463 0.99532 0.849239
1.00124 1.00515 0.987755
0.994774 0.994796 0.776525
0.994802 0.994789 0.772808
0.994858 0.996952 0.797298
0.99776 0.994695 0.965629
0.994822 0.994671 0.93239
0.994738 0.997464 0.844046
0.994833 0.996271 0.795855
0.995219 0.994747 0.955781
0.995023 0.994627 0.925307
0.994835 0.996785 0.843594
0.994907 0.994971 0.801718
0.994953 0.994734 0.94936
0.994821 0.994817 0.921148
0.996478 0.994904 0.860553
0.995198 0.994908 0.825703
0.998192 1.00393 0.993584
0.999367 1.00464 0.991249
0.998736 1.00377 0.992379
1.00134 1.00321 0.98987
1.00084 1.00493 0.989022
1.00006 1.00485 0.990024
1.00171 1.0051 0.987792
1.00134 1.00494 0.988332
0.998893 0.997181 0.987965
0.999926 1.00065 0.992579
0.997593 1.00439 0.993392
0.997591 1.00296 0.996271
0.996573 1.00359 0.998364
0.997333 1.00475 0.994763
0.996062 1.0043 0.996259
0.996487 0.999468 0.985987
0.995745 1.00491 0.997845
0.995173 1.00501 0.998299
0.996336 1.00295 0.997614
0.994984 1.00523 0.996916
0.995618 1.00372 0.983213
0.994713 1.00405 0.999065
0.994764 1.00526 0.999188
0.995018 1.00501 0.997738
0.994724 0.994801 0.761548
0.994723 0.994748 0.776231
0.99482 0.99465 0.785324
0.995996 1.00506 1.00028
0.995008 1.00175 0.997699
0.994753 0.994814 0.774808
0.994757 0.99481 0.925011
0.994859 0.995372 0.960589
0.995709 0.994906 0.857503
0.994779 0.994834 0.776959
0.994892 0.994894 0.813794
0.994886 1.00501 1.00166
0.994762 0.994824 0.762791
0.994876 0.994854 0.793208
0.994736 1.001 0.990799
0.994879 0.994936 0.800964
0.994834 0.996662 0.924434
0.996609 0.995991 0.874426
0.994733 1.00444 0.996954
0.994832 0.994838 0.779627
0.994788 0.99481 0.778573
0.994856 0.997508 0.789458
0.996664 0.994894 0.860495
0.994824 1.00159 0.969003
0.994936 0.994984 0.917428
0.995338 1.00483 0.999667
0.995031 1.00507 0.999555
0.994703 1.00529 0.998193
0.996384 1.00515 0.994649
0.995343 1.00414 0.998057
0.995003 1.00479 0.998808
0.995312 1.00468 0.997959
0.99476 1.00515 0.999435
0.997141 1.00302 0.999609
0.994808 1.00463 0.998785
0.99755 1.00036 0.994616
0.999285 1.00118 0.995383
1.00125 0.999954 0.991692
0.996644 1.00259 0.997551
1.00277 1.00071 0.988816
1.00464 1.0033 0.983472
1.00475 1.00222 0.984744
1.00332 1.00218 0.987982
1.00484 1.00223 0.984624
1.00514 1.00176 0.98486
1.00494 1.00174 0.985164
1.00499 1.00152 0.985085
1.00421 1.00212 0.987155
1.00402 1.00127 0.986369
1.00473 1.00093 0.985918
1.002 1.00519 0.98603
1.00208 1.00447 0.987032
1.00184 1.00333 0.987686
1.00117 1.00521 0.988081
1.00272 1.00491 0.986052
1.00177 1.00514 0.98618
1.00094 1.00514 0.988361
1.00115 1.00479 0.988258
1.00037 1.00147 0.992835
1.00105 1.0036 0.990585
1.0005 1.00029 0.99388
1.00015 0.997846 0.998666
1.00027 1.0001 0.994449
1.00027 0.99775 0.997866
1.00018 0.99765 0.998868
1.00111 1.00516 0.987546
1.00055 1.00383 0.989769
1.00111 1.00511 0.987893
1.00016 0.999927 0.994738
1.00024 1.00346 0.990752
1.00079 1.00506 0.989019
1.00004 0.99762 0.998932
1.00009 0.999529 0.995247
1.00002 1.00287 0.991618
1.00001 0.997389 0.999046
1.00001 0.999239 0.995658
0.999991 0.997335 0.999088
0.994733 0.994804 0.76927
0.994773 0.994792 0.774827
0.994789 0.996039 0.791159
1.00136 1.00512 0.987978
1.00042 1.00517 0.988051
1.00178 1.00335 0.990494
0.994878 0.994858 0.794402
0.994798 0.994799 0.777692
0.994785 0.994782 0.772985
0.99593 0.994745 0.956512
0.994882 0.994607 0.91092
0.994843 0.997402 0.861843
0.994886 0.994886 0.796458
0.995002 0.994767 0.952008
0.995118 0.994792 0.916831
0.995959 0.994917 0.861442
0.995493 0.994904 0.819911
0.994942 0.994882 0.951665
0.99478 0.996211 0.925847
0.996818 0.994903 0.873456
0.994897 0.994908 0.797104
0.997346 1.00346 0.995175
0.998202 1.00435 0.993619
0.999152 1.00506 0.991792
1.0009 1.00369 0.989738
1.00065 1.00508 0.989001
1.00162 1.00511 0.987802
0.996093 0.999858 0.986388
0.996448 1.00305 0.997808
0.997241 1.00334 0.995512
0.995923 1.00456 0.998234
0.996817 1.00451 0.99769
0.995142 1.0053 0.997017
0.995297 1.00529 0.997464
0.995337 1.00268 0.983235
0.994712 1.00527 0.999248
0.99469 1.00486 0.997497
0.99511 1.00546 0.998057
0.994753 1.00266 0.982133
0.994781 1.00507 0.994587
0.995139 1.0038 0.998735
0.994857 0.994852 0.76561
0.99473 0.994805 0.761371
0.994711 0.994747 0.772563
0.994946 1.00508 1.0014
0.994749 1.00199 0.986125
0.994757 0.994821 0.763357
0.994809 0.996896 0.92565
0.996403 0.994878 0.861206
0.994888 0.99485 0.790743
0.994875 0.994873 0.795823
0.99472 1.00459 0.997461
0.994809 0.99484 0.778151
0.994811 0.994793 0.779938
0.994844 1.00227 0.965092
0.994824 0.997334 0.782328
0.995909 0.99557 0.860543
0.994854 0.997367 0.93109
0.994761 1.00519 0.98783
0.994752 0.994808 0.772777
0.994798 0.994781 0.773138
0.994891 1.00128 0.799999
0.994788 0.997141 0.834873
0.99481 0.994901 0.928684
0.994803 1.00183 0.958543
0.995246 1.00493 0.99949
0.994757 1.00518 0.998215
0.995153 1.00521 0.998067
0.995268 1.00424 0.997859
0.994744 1.00521 0.999162
0.996111 1.00283 1.00001
0.998486 1.00278 0.998082
0.998141 1.00082 0.996019
1.00304 0.999521 0.990819
1.00188 1.00447 0.986077
1.00218 1.00076 0.990202
1.00442 1.00332 0.983722
1.00444 1.00311 0.983731
1.00522 0.999598 0.98604
1.0051 1.00143 0.985016
1.00483 1.00222 0.984633
1.00479 1.00245 0.984168
1.00498 1.00288 0.984373
1.00512 1.00151 0.984929
1.00514 1.00145 0.985401
1.00502 1.00208 0.985241
1.00479 1.00141 0.985086
1.0024 1.00282 0.987986
1.00352 1.00159 0.987019
1.00394 1.00186 0.986294
1.00259 1.00519 0.985236
1.00246 1.00519 0.986042
1.00104 1.0045 0.986948
1.00275 1.00489 0.986033
1.0025 1.00514 0.986183
1.00071 1.00245 0.991307
1.00202 1.00458 0.988213
1.00052 1.00138 0.992749
1.00029 0.998349 0.998481
1.00074 1.00006 0.993817
1.00036 0.997912 0.997718
1.0003 0.997667 0.998696
1.00218 1.00511 0.987175
1.0011 1.0043 0.989044
1.00148 1.00514 0.987502
1.00024 1.00037 0.994199
1.00055 1.00392 0.989939
1.00112 1.00509 0.988141
1.00007 0.997742 0.998822
1.00016 0.999878 0.994755
1.00041 1.00344 0.990633
1.00003 0.997528 0.998962
1.00011 0.999455 0.995272
1.00001 0.997376 0.999065
0.994834 0.994842 0.776502
0.994743 0.994822 0.769849
0.994783 0.994769 0.774806
1.00072 1.00516 0.987513
1.00319 1.00227 0.991
1.00075 1.00511 0.98821
1.00078 1.00514 0.987967
1.00047 1.00192 0.991369
1.00126 1.0024 0.991025
0.998519 1.00137 0.995313
0.994831 0.994838 0.777703
0.994875 0.994856 0.791725
0.994825 0.99482 0.778728
0.99489 0.994898 0.813831
0.995088 0.994752 0.949202
0.994839 0.994834 0.912564
0.996038 0.995134 0.871389
0.995302 0.994859 0.949961
0.994807 0.997133 0.911888
0.996325 0.995317 0.873299
0.995168 0.994897 0.805068
0.994844 0.995935 0.954372
0.99507 0.998534 0.913211
0.995095 0.994908 0.84914
0.994831 0.996544 0.780967
0.995202 1.00538 0.997076
0.996848 1.00384 0.995841
0.997907 1.00431 0.99366
1.00033 1.00481 0.989598
0.995378 1.00209 0.983142
0.99467 1.00523 0.996068
0.995138 1.00543 0.99716
0.995899 1.00533 0.997371
0.994708 1.00531 0.999614
0.99513 1.00547 0.99801
0.995742 1.00396 0.999207
0.994786 1.00243 0.979204
0.99482 1.00525 0.994501
0.995731 1.00316 0.999893
0.996183 1.0007 0.973994
0.995323 1.00428 0.997875
0.994729 0.994824 0.76575
0.994833 0.994856 0.772738
0.994737 0.994825 0.761191
0.994638 1.00516 0.997972
0.994843 1.00165 0.969949
0.994787 0.99484 0.776639
0.994905 0.994974 0.918471
0.995798 0.995 0.871142
0.994804 0.994818 0.780995
0.994804 0.99702 0.793839
0.994739 1.00507 0.989034
0.994744 0.994822 0.773482
0.994797 0.994809 0.773187
0.994815 1.00209 0.958952
0.994876 0.998994 0.798412
0.994799 0.997172 0.841373
0.994842 0.995 0.914812
0.995405 1.00404 0.982118
0.994814 0.994826 0.775606
0.994855 0.995648 0.781103
0.99471 0.998171 0.854476
0.994812 0.994956 0.923715
0.994832 0.99891 0.954408
0.994741 1.00514 0.999026
0.995018 1.00509 0.998134
0.994981 1.00526 0.997777
0.994911 1.00243 1.00042
0.99688 1.00275 0.998624
1.00069 1.0019 0.993808
1.00484 0.999122 0.989958
1.00301 1.00471 0.985338
1.00431 1.0017 0.985821
1.00427 1.00317 0.983967
1.0046 1.003 0.983719
1.00513 1.00101 0.985274
1.00542 0.996837 0.98827
1.00531 0.999224 0.98676
1.00521 0.999811 0.986063
1.00508 1.0018 0.985254
1.00514 1.00121 0.985059
1.00501 1.00214 0.984519
1.00523 1.00418 0.982787
1.005 1.00281 0.98449
1.00524 1.0015 0.985006
1.00427 1.0023 0.987237
1.004 1.00238 0.986101
1.00438 1.00287 0.985316
1.00367 1.00327 0.986007
1.00261 1.0027 0.987933
1.00324 1.00197 0.986878
1.00134 1.00241 0.99017
1.00293 1.00516 0.985364
1.00285 1.00515 0.986052
1.00259 1.00512 0.986184
1.0008 1.00225 0.991302
1.00032 0.999196 0.998095
1.00053 1.00138 0.992679
1.00031 0.998488 0.99836
1.00036 0.997748 0.998576
1.00342 1.00483 0.987291
1.00328 1.00521 0.986268
1.00155 1.00482 0.987903
1.00196 1.00481 0.987162
1.00016 1.00121 0.993525
1.00104 1.00447 0.989017
1.00163 1.00516 0.987455
1.00007 0.998096 0.998691
1.00021 1.00038 0.994218
1.0006 1.00406 0.990103
1.00005 0.997792 0.998854
1.00016 0.999884 0.994778
1.00003 0.997497 0.998993
0.994774 0.994843 0.76499
0.99482 0.994832 0.77511
0.994743 0.994819 0.770455
1.00164 1.00528 0.987116
1.00007 1.00239 0.991722
1.0026 1.00223 0.988639
0.998241 1.00489 0.991255
1.00213 0.998342 0.993281
1.00095 1.00521 0.987853
0.999657 1.00272 0.992369
1.0008 1.00307 0.991
0.998704 1.00008 0.997531
0.999321 1.00221 0.995677
0.994775 0.994744 0.771579
0.994814 0.994841 0.778997
0.994866 0.994842 0.789219
0.995605 0.994881 0.807451
0.996342 0.994908 0.861296
0.995096 0.994865 0.948366
0.994743 0.996575 0.92495
0.994869 0.996929 0.948668
0.994867 0.998275 0.925513
0.995231 0.995323 0.85872
0.994856 0.997036 0.778023
0.994898 0.999749 0.949511
0.994857 0.996117 0.924912
0.994831 0.997254 0.865051
0.994775 1.00121 0.803998
0.998238 1.00038 0.998196
0.995367 1.00501 0.997367
0.99728 1.00332 0.996523
0.99479 1.00204 0.975654
0.994817 1.00527 0.993384
0.995213 1.00544 0.997857
0.994872 1.00404 0.999459
0.995401 1.00399 0.99981
0.994887 1.0031 0.998514
0.994833 1.00222 0.974898
0.994994 1.00186 1.00373
0.994755 1.00093 0.982497
0.994756 0.994766 0.783111
0.994745 0.994837 0.765235
0.994815 0.994848 0.780316
0.994775 1.00487 0.989237
0.994837 0.999657 0.956443
0.994755 0.994826 0.774163
0.99483 0.994907 0.926363
0.994807 0.997396 0.859095
0.994832 0.994794 0.773556
0.994861 0.997325 0.797201
0.995091 1.00419 0.983073
0.994815 0.994801 0.775522
0.994854 0.996603 0.783207
0.994851 0.998247 0.955925
0.994752 0.99782 0.860039
0.99515 0.994824 0.913495
0.994795 1.00257 0.981029
0.994761 0.994881 0.777018
0.995698 0.995337 0.867588
0.994802 0.994618 0.908946
0.994943 0.995023 0.954765
0.994906 1.00522 0.998232
0.994896 1.00525 0.997565
0.997842 1 0.996988
0.995473 1.00273 0.999149
0.999649 1.002 0.994668
1.00421 0.996119 0.992962
1.00414 1.00513 0.984581
1.00415 1.00164 0.985786
1.00506 0.997117 0.988816
1.00459 1.00306 0.983712
1.00503 1.0007 0.98531
1.00531 0.997204 0.98832
1.00546 0.99479 0.99037
1.00545 0.996361 0.988407
1.00541 0.996759 0.98831
1.00545 0.998976 0.986971
1.0053 0.99925 0.986705
1.00519 0.999955 0.986088
1.00537 1.00235 0.98406
1.00504 1.00156 0.985115
1.00508 1.00092 0.985102
1.00531 1.00512 0.983053
1.00428 1.00403 0.983456
1.00499 1.00244 0.984608
1.0025 1.00401 0.987273
1.00303 1.00267 0.987133
1.00268 1.00279 0.986809
1.00215 1.00322 0.990223
1.00309 1.00354 0.986138
1.00268 1.00266 0.987875
1.00059 1.00033 0.994445
1.00159 1.00277 0.990437
1.0031 1.00518 0.985506
1.00107 1.00219 0.991268
1.00044 0.999379 0.997961
1.00036 0.99886 0.998231
1.00232 1.00244 0.986858
1.00312 1.00518 0.986025
1.00096 1.00476 0.987601
1.00158 1.00515 0.987496
1.00211 1.00517 0.986313
1.00003 1.00173 0.993076
1.00136 1.00491 0.987908
1.00185 1.00518 0.987139
1.00006 0.998489 0.998538
1.00017 1.001 0.993587
1.0008 1.00449 0.988993
1.00005 0.997995 0.998731
1.0002 1.00028 0.994235
1.00004 0.997694 0.998886
0.994753 0.994819 0.780797
0.99478 0.994836 0.765653
0.994796 0.994852 0.773425
1.0028 1.00502 0.985018
1.00109 1.00517 0.986779
0.998969 1.00269 0.992665
1.00024 1.00514 0.990544
1.00358 1.00089 0.988321
1.00115 0.997867 0.995853
1.00362 1.00057 0.989128
0.995584 1.00519 0.995078
1.00002 1.00343 0.990886
0.99803 0.997099 0.999576
0.997344 1.00297 0.995797
0.997531 1.0028 0.996025
0.994848 0.999049 0.800226
0.994793 0.994769 0.771361
0.9948 0.994848 0.779959
0.995086 0.997393 0.792758
0.995402 0.9949 0.857643
0.99503 0.998535 0.913601
0.994992 0.995629 0.949645
0.995518 0.99908 0.950729
0.994813 0.999178 0.802042
0.994831 0.996716 0.91621
0.994827 0.996981 0.844378
0.994852 0.996789 0.957797
0.994778 0.994807 0.926334
0.994731 0.997714 0.856484
0.998956 0.996742 1.00267
0.99801 1.00047 0.998131
0.994954 1.00545 0.997644
0.994896 1.00252 0.975463
0.995111 1.00204 0.999147
0.995596 1.00316 0.999842
0.995688 0.999717 1.00407
0.994942 0.999972 0.982712
0.995536 0.99599 0.995636
0.994772 0.994729 0.792311
0.994751 0.994785 0.781942
0.994775 0.994827 0.76437
0.994774 1.00482 0.983051
0.994834 0.999799 0.955557
0.994798 0.994802 0.775722
0.994829 0.994823 0.910915
0.99474 0.997448 0.842786
0.994848 0.998123 0.79619
0.994813 1.00438 0.980771
0.994785 0.995586 0.791927
0.994772 0.995806 0.84626
0.995187 0.994857 0.948787
0.995079 0.994614 0.924779
0.995973 0.998103 0.987376
0.998973 0.999482 0.834469
0.994857 0.994648 0.933997
0.994953 0.994722 0.946621
0.994836 1.00524 0.997415
0.997632 1.00151 0.996594
1.00112 0.996839 0.994313
0.998528 1.00263 0.995531
1.00327 0.997015 0.992732
1.00494 0.994662 0.992262
1.00408 1.00148 0.985754
1.00505 0.996962 0.988688
1.00523 0.995138 0.990322
1.00491 1.00026 0.985346
1.00527 0.997026 0.988241
1.0054 0.994752 0.99036
1.00536 0.994759 0.991025
1.00544 0.994829 0.990401
1.00545 0.994811 0.990365
1.00554 0.996066 0.988613
1.00547 0.996303 0.988569
1.00541 0.996692 0.988352
1.00554 0.9989 0.986505
1.00543 0.998808 0.986836
1.0053 0.999307 0.986646
1.00548 1.00326 0.982201
1.00539 1.00238 0.983973
1.00503 1.00137 0.984974
1.0036 1.00331 0.985648
1.00417 1.00493 0.983082
1.00362 1.00404 0.984132
1.00214 1.00329 0.987799
1.00302 1.00303 0.987135
1.00185 1.00276 0.987013
1.00016 1.00247 0.996956
1.00205 1.00345 0.988187
1.00343 1.00284 0.98623
1.00057 0.999874 0.997598
1.00168 1.00274 0.98967
1.00052 0.999356 0.997826
1.00457 1.00423 0.984323
1.00378 1.00241 0.986645
1.00227 1.00415 0.986381
1.00189 1.00521 0.987503
1.00261 1.005 0.986026
1.00108 1.00469 0.987893
1.00027 1.00209 0.992529
1.00147 1.00517 0.987505
1.00222 1.00446 0.986356
1.00007 0.999038 0.998447
0.999981 1.00185 0.993067
1.00127 1.00511 0.98791
1.00002 0.998508 0.998586
1.00015 1.00108 0.993633
1.00003 0.998006 0.99877
0.99478 0.994976 0.785173
0.994763 0.99481 0.780925
0.994782 0.994829 0.766437
1.00271 1.00479 0.985381
1.00471 1.00285 0.986135
1.00113 1.00454 0.987496
0.99994 1.00523 0.989801
1.00451 1.00068 0.988027
0.997086 0.998456 0.998148
0.998025 1.00237 0.994764
1.0017 1.00154 0.990567
1.00083 1.00086 0.992674
0.998705 1.00201 0.995231
0.997337 1.00306 0.995915
0.998772 1.00269 0.995985
0.995053 0.997487 0.841931
0.994802 0.997366 0.794833
0.994823 0.994788 0.771949
0.994851 0.998146 0.799635
0.994803 0.997309 0.861962
0.994844 0.995989 0.914082
0.994872 1.00002 0.94939
0.995042 0.997458 0.953614
0.994792 0.99852 0.860884
0.995008 0.994785 0.911712
0.994915 0.994801 0.959812
0.994896 0.994544 0.912793
0.998344 0.996158 1.00563
0.99896 0.996725 1.00236
0.997788 1.00053 0.998093
0.995079 0.999957 0.982989
0.995997 0.999098 1.00436
0.995483 0.996404 0.995091
0.995173 0.994639 0.992317
0.999377 0.999968 0.844665
0.994799 0.994692 0.788431
0.994746 0.994809 0.780569
0.994848 1.00415 0.981317
0.995003 0.99494 0.949116
0.99479 0.99568 0.790152
0.994886 0.994589 0.911357
0.995061 0.996706 0.865742
0.995818 0.99817 0.983679
0.998629 0.995729 0.849754
0.995803 0.994625 0.917691
0.995122 0.994754 0.948376
0.997277 0.996282 0.982994
0.997748 0.994878 0.933159
0.994907 0.994743 0.956986
0.997303 1.0024 0.996226
1.00063 0.996558 0.994229
1.00351 0.995927 0.992719
1.00242 0.997381 0.99251
1.00457 0.994677 0.992175
1.00513 0.994567 0.991389
1.00507 0.996887 0.988563
1.00523 0.995225 0.990183
1.00539 0.994633 0.990451
1.00519 0.996842 0.98816
1.00542 0.994744 0.990314
1.00537 0.994775 0.990664
1.00539 0.99485 0.990731
1.00535 0.994755 0.990997
1.00539 0.994778 0.991
1.00537 0.994875 0.990737
1.00545 0.994873 0.990523
1.00544 0.99482 0.990361
1.00552 0.996295 0.988737
1.00553 0.996033 0.988644
1.00548 0.996239 0.988731
1.00558 1.00058 0.984651
1.00558 0.998948 0.986507
1.00542 0.998671 0.986705
1.00532 1.00311 0.982507
1.00551 1.00345 0.982395
1.00542 1.00241 0.983884
1.00231 1.00407 0.986634
1.00352 1.00386 0.985562
1.00318 1.00498 0.983127
1.0013 1.00132 0.996685
1.00236 1.00338 0.987838
1.00275 1.00302 0.987014
1.0007 1.00158 0.995062
1.00209 1.00312 0.988497
1.0008 1.00073 0.99722
1.00489 1.00409 0.982588
1.00389 1.00442 0.984269
1.0033 1.00302 0.985667
1.00417 1.00245 0.986433
1.00322 1.00411 0.98647
1.002 1.0052 0.987176
1.00105 1.00246 0.991203
1.00158 1.00521 0.987409
1.00172 1.00499 0.986039
1.00019 0.998854 0.99819
1.00019 1.00211 0.992508
1.00152 1.00521 0.987515
0.999998 0.99873 0.998464
1.00005 1.00158 0.993099
0.999993 0.998345 0.998633
0.997398 0.995022 0.851927
0.994801 0.995394 0.790414
0.994766 0.994807 0.781195
1.00287 1.00454 0.985749
1.00161 1.00501 0.987563
1.00452 1.00224 0.985482
1.00509 0.998777 0.987903
1.00303 0.999728 0.990594
1.00045 1.00307 0.994471
1.00225 1.00041 0.991986
1.00151 1.00104 0.992841
1.00476 0.996679 0.99087
1.00179 0.99952 0.99345
1.00246 0.998842 0.993118
1.00022 1.0002 0.995348
0.999165 1.00247 0.996046
0.997422 0.994633 0.929058
0.996099 0.996922 0.848804
0.994764 0.995854 0.800323
0.99475 0.998044 0.844737
0.994788 0.994806 0.92285
0.995202 0.997603 0.957228
0.995057 0.994828 0.962095
0.994956 0.994592 0.927963
0.995584 0.994781 0.957625
0.997344 0.995292 1.00501
0.997566 0.996705 1.00577
0.999101 0.99663 1.00206
0.995275 0.996472 0.994779
0.996376 0.9947 0.993746
0.999549 0.997439 0.916305
0.999708 0.996107 0.854941
0.994822 0.994656 0.784377
0.995811 0.997371 0.979438
0.994942 0.994731 0.947025
0.999145 0.995155 0.84914
0.994824 0.99465 0.932624
0.997546 0.995069 0.983138
0.999354 0.994891 0.92853
0.995258 0.994749 0.953926
0.999743 0.994604 0.982797
0.998169 0.994742 0.966249
1.00023 0.997008 0.994098
1.00254 0.995383 0.992808
1.00488 0.99469 0.991811
1.00413 0.994704 0.992083
1.00504 0.994588 0.991298
1.00535 0.994681 0.990617
1.00522 0.995316 0.990043
1.00538 0.994657 0.990407
1.00541 0.994771 0.990391
1.00544 0.994738 0.990267
1.00537 0.994775 0.990674
1.0054 0.994804 0.990516
1.00539 0.994847 0.990696
1.0054 0.994849 0.990721
1.00535 0.994751 0.990968
1.00539 0.994768 0.991005
1.00536 0.994823 0.990995
1.00539 0.995216 0.990512
1.00538 0.994934 0.990732
1.00545 0.994925 0.990644
1.0055 0.999132 0.98635
1.00554 0.996374 0.988674
1.00552 0.995988 0.988673
1.00542 1.00419 0.98169
1.00556 1.00094 0.98471
1.00562 0.998987 0.98651
1.0033 1.00375 0.985468
1.00496 1.00377 0.982622
1.00554 1.00364 0.982591
1.00154 1.00144 0.996331
1.00272 1.00382 0.986502
1.00332 1.00429 0.985496
1.00132 1.00111 0.996607
1.00266 1.00329 0.987884
1.00117 1.00091 0.996806
1.00522 1.00226 0.985169
1.00504 1.00454 0.982736
1.00356 1.00503 0.982572
1.0038 1.00429 0.9842
1.00296 1.00414 0.985201
1.00229 1.00439 0.985606
1.0028 1.00357 0.986532
1.00174 1.00504 0.987053
1.00194 1.00324 0.989066
1.00036 1.00017 0.997618
1.00061 1.00278 0.991176
1.00123 1.00519 0.987321
1.00007 0.999373 0.998295
0.999792 1.00256 0.992427
0.999966 0.998822 0.998493
0.999953 0.994837 0.933831
0.999778 0.997002 0.848092
0.994803 0.99493 0.784703
1.00122 1.00514 0.987626
1.00474 1.00222 0.984831
1.00351 1.00017 0.989832
1.00498 0.999173 0.987492
1.00522 0.996874 0.988964
1.00495 0.995996 0.990563
1.00233 0.999425 0.992955
1.00489 0.996902 0.990161
1.00206 0.999927 0.993161
1.00439 0.998489 0.989876
1.00235 1.00011 0.99114
1.00282 0.998333 0.99406
1.00228 0.999745 0.993417
1.00104 0.999451 0.995449
0.994927 0.994718 0.957457
0.996125 0.994616 0.923818
0.994833 0.998062 0.866687
0.994807 0.994561 0.911544
0.994869 0.995398 0.963102
0.99563 0.994773 0.964489
0.998544 0.994691 0.989544
0.998608 0.994917 1.0035
0.996983 0.997125 1.00591
0.997238 0.994767 0.995184
0.999374 0.994715 0.956395
1.00094 0.994851 0.932868
0.999332 1.00179 0.833373
0.997611 0.994722 0.983583
0.995709 0.994752 0.954367
0.998317 0.994728 0.923352
0.999729 0.994653 0.983466
0.997679 0.994761 0.964856
1.0016 0.996194 0.986949
1.00404 0.994607 0.983545
1.00139 0.994692 0.992918
1.00417 0.994662 0.991959
1.00529 0.994834 0.990681
1.00494 0.994592 0.991206
1.00536 0.994666 0.990598
1.00543 0.994762 0.990435
1.00537 0.994677 0.990361
1.00541 0.994767 0.990402
1.00541 0.994808 0.990534
1.00537 0.994774 0.990683
1.00541 0.994809 0.99053
1.00541 0.994859 0.990677
1.00538 0.994843 0.990662
1.0054 0.994849 0.990709
1.00536 0.994863 0.990893
1.00539 0.994758 0.991009
1.00535 0.994812 0.990997
1.00538 0.995267 0.990642
1.00542 0.997403 0.988201
1.00539 0.995489 0.9902
1.00539 0.994996 0.990726
1.00542 1.0025 0.983066
1.00549 0.999264 0.986352
1.00555 0.996451 0.988612
1.00366 1.0033 0.985336
1.00519 1.00421 0.981735
1.00552 1.00131 0.984776
1.00223 1.00197 0.99559
1.00326 1.00381 0.985337
1.00449 1.00452 0.982727
1.00182 1.00175 0.995962
1.00308 1.0036 0.986359
1.00148 1.00116 0.996376
1.00544 0.999182 0.986457
1.00503 1.00229 0.984808
1.00543 1.00358 0.982947
1.00492 1.0039 0.982877
1.00478 1.00467 0.982353
1.00366 1.00516 0.983327
1.00402 1.00528 0.984761
1.00348 1.00421 0.985736
1.0024 1.0038 0.987024
1.00218 1.00482 0.986979
1.00145 1.00347 0.989075
1.00068 1.0014 0.996809
1.00021 0.999745 0.997847
1.00042 1.00277 0.991178
0.999948 0.999058 0.998362
0.994926 0.99478 0.961871
0.998107 0.995113 0.91702
0.999469 1.00051 0.863652
1.00545 0.995399 0.989721
1.0039 1.00038 0.98909
1.00496 0.999314 0.987084
1.0051 0.996266 0.990473
1.00533 0.996813 0.989049
1.00534 0.995626 0.990035
1.0048 0.9972 0.989478
1.00156 0.999915 0.992918
1.00449 0.997624 0.989914
1.00237 1.0003 0.990338
1.00343 0.998974 0.990272
1.00361 0.994463 0.994535
1.0018 0.997981 0.994586
1.00174 0.999996 0.99373
0.997672 0.994698 0.987683
0.995186 0.994707 0.955514
0.995158 0.994654 0.918465
0.99502 0.994741 0.965355
0.998545 0.994673 0.991568
0.999384 0.994776 1.00195
1.00454 0.99464 0.974453
1.00124 0.994764 0.953461
0.999815 0.997448 0.916797
0.999404 0.994714 0.984074
0.99637 0.994731 0.964735
1.00133 0.995474 0.987727
1.00262 0.994634 0.984173
1.00312 0.996265 0.990041
1.0055 0.994533 0.990563
1.00365 0.994664 0.992106
1.00529 0.994799 0.990655
1.00544 0.99495 0.990503
1.00537 0.99466 0.99058
1.00544 0.994774 0.990448
1.00541 0.994826 0.990665
1.00541 0.994766 0.990414
1.00541 0.994805 0.990518
1.00539 0.994863 0.990806
1.00541 0.994814 0.990545
1.00541 0.99486 0.990673
1.00535 0.994892 0.9909
1.0054 0.99485 0.990697
1.00536 0.99486 0.990864
1.00531 0.994869 0.991099
1.00535 0.9948 0.990999
1.00538 0.995062 0.990776
1.00541 0.996664 0.989359
1.00538 1.00139 0.984616
1.00545 0.997735 0.987909
1.0054 0.995744 0.989888
1.00384 1.0023 0.986
1.00543 1.00266 0.983069
1.00549 0.999383 0.986353
1.0028 1.00167 0.995487
1.00361 1.00326 0.985358
1.00517 1.00435 0.981775
1.00235 1.00203 0.995538
1.00321 1.00383 0.985226
1.00196 1.00207 0.995717
1.00551 0.996758 0.988396
1.00541 0.999264 0.986485
1.00563 1.00154 0.984371
1.00482 1.0027 0.984454
1.00529 1.00381 0.982868
1.00491 1.0045 0.981947
1.00534 1.00501 0.98214
1.00398 1.00471 0.983349
1.00268 1.00413 0.986113
1.003 1.00462 0.985738
1.00237 1.00411 0.987103
1.001 1.00261 0.996212
1.00121 1.00386 0.989081
1.00037 1.00132 0.997122
1.00004 0.999967 0.998048
0.998368 0.99469 0.985307
0.99636 0.994781 0.955939
0.99999 0.994832 0.933289
1.00542 0.994875 0.990094
1.00545 0.994774 0.990365
1.00545 0.995292 0.989817
1.00521 0.996586 0.990367
1.00539 0.99665 0.98914
1.00533 0.995729 0.990037
1.0054 0.995034 0.990099
1.00473 0.996844 0.98994
1.00326 1.00103 0.989536
1.00372 0.998206 0.990525
1.00526 0.994624 0.99132
1.00361 0.994735 0.992973
1.00261 0.994506 0.994506
1.00162 0.997664 0.995126
0.998751 0.994668 0.987493
0.995682 0.994742 0.954727
0.999478 0.994632 0.993715
1.0053 0.994621 0.989137
1.00444 0.994631 0.974374
0.999264 0.994797 0.954944
1.00164 0.994748 0.988381
1.00118 0.994663 0.984831
1.00364 0.995557 0.990336
1.00539 0.994546 0.9908
1.00554 0.994721 0.990943
1.00558 0.994619 0.991398
1.0053 0.994763 0.990631
1.00544 0.994885 0.990526
1.00544 0.994826 0.990981
1.00544 0.994783 0.990461
1.00542 0.994824 0.990671
1.00538 0.994853 0.990989
1.00542 0.994803 0.990502
1.00539 0.994864 0.990808
1.00536 0.994908 0.991008
1.0054 0.994862 0.990669
1.00535 0.994892 0.990897
1.00522 0.994907 0.991302
1.00537 0.994857 0.990836
1.00534 0.994872 0.991057
1.00537 0.995802 0.990312
1.00538 0.994861 0.99091
1.00541 0.996539 0.989394
1.00534 1.00044 0.985725
1.00389 1.00147 0.986858
1.00536 1.00137 0.984646
1.00546 0.998084 0.987618
1.00318 1.00099 0.995483
1.00382 1.0023 0.986071
1.00546 1.00273 0.983072
1.00286 1.00163 0.995446
1.00356 1.00329 0.985377
1.00249 1.00217 0.995469
1.0054 0.995274 0.990064
1.00548 0.996694 0.988604
1.00543 0.999714 0.986219
1.00537 0.999332 0.986515
1.00555 1.00144 0.984308
1.00527 1.00428 0.981833
1.00546 1.00372 0.982789
1.00493 1.00469 0.981886
1.00266 1.00421 0.985733
1.00514 1.00371 0.983445
1.00267 1.00411 0.986222
1.00127 1.00277 0.995985
1.00207 1.00432 0.987183
1.00087 1.00231 0.996403
1.00022 1.00083 0.997412
1.00376 0.994737 0.991995
0.997879 0.994718 0.982619
0.995744 0.994784 0.957938
1.00545 0.994749 0.99023
1.00541 0.994925 0.990134
1.00534 0.994829 0.99078
1.00545 0.994802 0.990346
1.00545 0.995238 0.989904
1.00543 0.994699 0.990522
1.00532 0.995805 0.990036
1.00536 0.994913 0.990126
1.00533 0.994725 0.990929
1.00385 0.997418 0.990778
1.00527 0.994603 0.9909
1.00289 0.99483 0.993165
1.00131 0.994522 0.994505
0.999439 0.994637 0.987133
1.00549 0.994687 0.991644
1.00533 0.994586 0.989179
1.00413 0.99463 0.974398
1.00399 0.994845 0.990589
1.00544 0.994556 0.991023
1.0055 0.994719 0.990848
1.00564 0.994616 0.991561
1.0055 0.994757 0.991482
1.00544 0.994815 0.990549
1.00544 0.994824 0.990978
1.00538 0.994848 0.991285
1.00542 0.994822 0.990678
1.00537 0.994856 0.990987
1.00536 0.994901 0.991187
1.00539 0.994864 0.99081
1.00535 0.994908 0.991014
1.0052 0.994948 0.991424
1.00535 0.994893 0.990894
1.00524 0.994908 0.991285
1.00534 0.995204 0.991103
1.00536 0.994875 0.991014
1.00534 0.995831 0.990294
1.00534 0.999689 0.98657
1.00541 0.996417 0.989429
1.00533 1.00043 0.985757
1.00374 1.0012 0.989445
1.00355 0.99996 0.991577
1.00391 1.00147 0.987897
1.00534 1.00135 0.984671
1.00309 1.00091 0.995561
1.0038 1.00223 0.986137
1.00289 1.00159 0.995449
1.00533 0.994895 0.99106
1.00538 0.994832 0.990781
1.00542 0.995253 0.990206
1.00539 0.997825 0.988005
1.00545 0.996605 0.988813
1.00546 0.999535 0.986181
1.00534 1.00342 0.982538
1.00556 1.00151 0.984239
1.00539 1.00415 0.981772
1.00321 1.00378 0.985403
1.00495 1.00506 0.981817
1.00289 1.00412 0.985761
1.00195 1.00275 0.995652
1.00274 1.00404 0.986341
1.00129 1.00261 0.996078
1.00045 1.00232 0.996652
1.00541 0.994765 0.991455
1.00317 0.994781 0.991491
0.997823 0.994742 0.979875
1.00535 0.994824 0.990758
1.00545 0.994763 0.990189
1.0054 0.994881 0.990181
1.00533 0.994832 0.990826
1.00546 0.994798 0.990327
1.00538 0.994788 0.991055
1.0054 0.994692 0.990481
1.00532 0.994896 0.99015
1.0053 0.994708 0.990982
1.00526 0.994609 0.990477
1.00231 0.994572 0.993278
1.00546 0.994779 0.991495
1.00549 0.994687 0.991641
1.00536 0.994561 0.989226
1.00547 0.994714 0.990748
1.00569 0.994614 0.991721
1.00551 0.994755 0.991457
1.00539 0.994855 0.991543
1.00543 0.994822 0.990975
1.00538 0.99485 0.991244
1.00535 0.994895 0.991396
1.00537 0.994858 0.990986
1.00535 0.994901 0.99119
1.00524 0.994939 0.991506
1.00534 0.994908 0.991019
1.0052 0.994947 0.991421
1.0053 0.994959 0.991541
1.00526 0.994908 0.991268
1.0053 0.995261 0.991086
1.00537 0.999037 0.987276
1.0053 0.99586 0.990277
1.00534 0.999683 0.986593
1.00373 1.00081 0.989769
1.00532 1.0004 0.985793
1.00402 1.001 0.989278
1.00333 0.999737 0.991842
1.00305 1.00031 0.993789
1.00416 1.00144 0.988703
1.00302 1.0008 0.995637
1.00529 0.994899 0.991057
1.00529 0.994892 0.991222
1.00531 0.994904 0.991102
1.0053 0.996378 0.989621
1.00536 0.994828 0.990839
1.00543 0.99527 0.990347
1.00536 0.997709 0.988038
1.00529 1.00194 0.984067
1.00542 0.999366 0.986149
1.00532 1.00351 0.982511
1.00361 1.00283 0.985898
1.00545 1.00393 0.981717
1.00323 1.00372 0.985408
1.00256 1.00217 0.995453
1.00302 1.00392 0.985798
1.00174 1.00249 0.995808
1.0012 1.00263 0.996132
1.0054 0.994806 0.991296
1.00536 0.99477 0.991501
1.00203 0.995177 0.991034
1.00533 0.994848 0.991085
1.00535 0.994818 0.990717
1.00546 0.994779 0.990152
1.00531 0.994836 0.990869
1.0054 0.994794 0.990998
1.00537 0.994683 0.990439
1.00529 0.994688 0.99103
1.0054 0.994843 0.991545
1.00545 0.994784 0.991482
1.00549 0.994682 0.991636
1.00535 0.994874 0.991614
1.00552 0.994754 0.991431
1.00539 0.994853 0.991533
1.00536 0.994894 0.991549
1.00538 0.994852 0.991203
1.00536 0.994896 0.9914
1.00525 0.99492 0.991628
1.00535 0.994901 0.991193
1.00523 0.994939 0.991513
1.00532 0.994932 0.991705
1.00521 0.994946 0.991418
1.00531 0.994984 0.991518
1.00538 0.998457 0.987971
1.00526 0.995319 0.991068
1.0054 0.999034 0.98728
1.00366 1.00056 0.990083
1.00535 0.999671 0.986616
1.00399 1.00067 0.989582
1.00317 0.999784 0.991975
1.00429 1.0008 0.989117
1.00272 0.999922 0.992293
1.00215 1.00069 0.996461
1.00529 0.994917 0.991148
1.00514 0.99492 0.991463
1.0053 0.994903 0.991084
1.00524 0.996371 0.989928
1.00527 0.994883 0.991201
1.0053 0.994913 0.991147
1.00531 1.00044 0.985714
1.00533 0.996259 0.989658
1.00536 0.994821 0.990897
1.00533 0.997556 0.988072
1.0053 1.00203 0.984035
1.00375 1.00176 0.986863
1.0054 1.00359 0.982475
1.00363 1.00275 0.985863
1.00275 1.00133 0.995607
1.00331 1.00369 0.985401
1.00246 1.00215 0.995518
1.00174 1.00235 0.995969
1.00534 0.994861 0.991422
1.0054 0.994801 0.991243
1.00533 0.994779 0.991549
1.00532 0.994852 0.9911
1.00534 0.99481 0.990676
1.00541 0.994802 0.990941
1.00535 0.994881 0.991623
1.0054 0.994849 0.991557
1.00543 0.994789 0.991468
1.00535 0.994876 0.99164
1.00534 0.994906 0.991644
1.00539 0.994852 0.991523
1.00535 0.994896 0.991562
1.00524 0.994917 0.991708
1.00536 0.994896 0.991405
1.00525 0.994921 0.991635
1.00534 0.994949 0.99175
1.00523 0.994939 0.99152
1.00532 0.994931 0.99169
1.00534 0.997981 0.988582
1.00531 0.995007 0.991494
1.00539 0.998451 0.987966
1.00349 1.0004 0.990455
1.00542 0.999032 0.987285
1.00389 1.00046 0.989902
1.00293 0.999897 0.992169
1.00424 1.00055 0.989404
1.00264 0.999869 0.992436
1.00214 1.00013 0.992729
1.00531 0.994901 0.991387
1.00515 0.99497 0.991475
1.0053 0.99491 0.991126
1.00527 0.995777 0.990568
1.00513 0.994929 0.991469
1.00531 0.994907 0.991111
1.00535 0.99957 0.986697
1.00528 0.99589 0.990298
1.00524 0.994874 0.991181
1.00376 1.00109 0.987539
1.00529 1.00051 0.985679
1.00535 0.996177 0.989695
1.00533 1.00209 0.984001
1.00372 1.00176 0.98679
1.00274 1.00074 0.995798
1.00359 1.00273 0.985827
1.0028 1.00142 0.995531
1.00229 1.00203 0.99562
1.00533 0.994896 0.991587
1.00534 0.994859 0.991381
1.0054 0.994796 0.991191
1.00531 0.994855 0.991115
1.00532 0.994915 0.991652
1.00535 0.99488 0.991629
1.0054 0.994854 0.991568
1.00535 0.994877 0.991667
1.00534 0.994905 0.991655
1.00523 0.994928 0.991857
1.00535 0.994898 0.991575
1.00524 0.994921 0.991755
1.00534 0.994949 0.991715
1.00524 0.994921 0.991642
1.00534 0.99495 0.991745
1.00532 0.997651 0.988978
1.00533 0.994931 0.991675
1.00535 0.997971 0.988568
1.00348 1.00025 0.988945
1.00541 0.99845 0.98796
1.00371 1.00034 0.98939
1.00241 0.999984 0.996091
1.00412 1.00038 0.989722
1.00245 0.999924 0.992616
1.00213 0.999934 0.992878
1.00532 0.994911 0.991523
1.00516 0.994954 0.99157
1.00531 0.994906 0.991416
1.00527 0.994984 0.991473
1.00515 0.994961 0.991501
1.00531 0.994901 0.991103
1.0054 0.998159 0.988112
1.00527 0.995766 0.990554
1.00513 0.99494 0.991475
1.00379 1.00068 0.987953
1.00533 0.999156 0.987106
1.00534 0.995392 0.990666
1.00269 1.00037 0.995914
1.00376 1.00109 0.987494
1.00527 1.00057 0.985645
1.00372 1.0018 0.986725
1.00283 1.00079 0.995736
1.00289 1.00146 0.995484
1.00533 0.994917 0.991562
1.00533 0.994898 0.991578
1.00534 0.994857 0.99134
1.0052 0.994932 0.991939
1.00532 0.994911 0.991639
1.00535 0.99488 0.991634
1.00534 0.994904 0.991665
1.00523 0.994927 0.991859
1.00534 0.995324 0.991274
1.00524 0.994925 0.991803
1.00534 0.995162 0.991504
1.00532 0.997079 0.989639
1.00534 0.994951 0.991739
1.00533 0.997628 0.988967
1.00342 0.999981 0.989295
1.00536 0.997956 0.988557
1.00351 1.00021 0.988963
1.00229 1.00003 0.996142
1.00377 1.00029 0.98852
1.00222 1.00002 0.994543
1.00198 0.999928 0.99306
1.00532 0.994915 0.991601
1.00516 0.994943 0.99173
1.00532 0.99491 0.991526
1.00527 0.994995 0.991648
1.00516 0.994957 0.991591
1.00531 0.994911 0.991445
1.00538 0.997867 0.988506
1.00527 0.995333 0.991168
1.00514 0.994951 0.991526
1.00371 1.00051 0.98827
1.0054 0.998095 0.988176
1.00527 0.995762 0.990542
1.00259 1.00015 0.995983
1.00376 1.00071 0.987933
1.0053 0.998751 0.987522
1.00277 1.00038 0.995875
1.00377 1.00108 0.987444
1.00287 1.00083 0.995666
1.00519 0.994927 0.991908
1.00533 0.994917 0.991578
1.00534 0.994899 0.991569
1.00534 0.995364 0.991261
1.00521 0.994929 0.991925
1.00532 0.994908 0.991626
1.00524 0.994926 0.991861
1.00534 0.995374 0.991266
1.00532 0.99702 0.98964
1.00534 0.995387 0.991291
1.00532 0.997289 0.98939
1.00337 0.999772 0.989582
1.00533 0.997609 0.988955
1.00341 0.999985 0.989303
1.00216 1 0.99622
1.00352 1.00017 0.988978
1.00223 1.00004 0.996167
1.00232 1 0.992605
1.00516 0.994919 0.991927
1.00532 0.994914 0.991513
1.00528 0.994959 0.991758
1.00516 0.994944 0.991735
1.00532 0.99491 0.991528
1.00537 0.998397 0.988031
1.00527 0.99498 0.99165
1.00516 0.994959 0.991611
1.00361 1.00042 0.988556
1.00537 0.998197 0.988184
1.00527 0.995671 0.990864
1.00245 1.00012 0.996016
1.00369 1.00056 0.988257
1.0054 0.998021 0.98824
1.00268 1.00016 0.995957
1.00374 1.00074 0.987907
1.00287 1.00037 0.995838
1.0053 0.995422 0.991217
1.00519 0.994926 0.991939
1.00532 0.994916 0.991593
1.00534 0.997152 0.989495
1.00534 0.995413 0.991249
1.00521 0.994926 0.991911
1.00534 0.995424 0.991257
1.00532 0.997081 0.989646
1.00332 0.999648 0.989802
1.00532 0.997486 0.989144
1.00338 0.999764 0.989582
1.00208 0.999978 0.996302
1.00343 0.999986 0.989315
1.00211 1.00003 0.996257
1.0022 1.00004 0.996199
1.00527 0.994941 0.991877
1.00516 0.994921 0.991852
1.00532 0.994914 0.991424
1.00535 0.998279 0.988215
1.00528 0.994958 0.991757
1.00516 0.994945 0.99174
1.0035 1.00029 0.988884
1.00536 0.998428 0.988043
1.00528 0.994978 0.991652
1.00228 1.00015 0.99606
1.00358 1.00047 0.98855
1.00537 0.998528 0.987861
1.00251 1.00012 0.996005
1.00366 1.00062 0.988241
1.00279 1.00014 0.995926
1.00535 0.997928 0.988631
1.00531 0.995188 0.991525
1.00519 0.994926 0.991971
1.00328 0.999631 0.989905
1.00533 0.99719 0.989517
1.00533 0.995465 0.991236
1.00532 0.997139 0.98965
1.00334 0.999627 0.989794
1.002 0.999959 0.996356
1.00338 0.999757 0.989581
1.00204 0.999981 0.996317
1.00206 1.00004 0.996285
1.00535 0.99816 0.988412
1.00527 0.994941 0.991835
1.00516 0.994922 0.991777
1.00357 1.00013 0.990659
1.00535 0.998308 0.988225
1.00528 0.994957 0.991756
1.00215 1.00016 0.996141
1.00347 1.00034 0.988884
1.00535 0.998463 0.988056
1.00235 1.00014 0.996045
1.00356 1.00053 0.988544
1.00259 1.0001 0.995991
1.00345 0.99965 0.989692
1.00534 0.997671 0.988967
1.00531 0.994935 0.991834
1.00191 0.999964 0.99642
1.00329 0.9996 0.989889
1.00533 0.997229 0.989542
1.00335 0.999603 0.989786
1.00197 0.999951 0.99638
1.002 0.999991 0.996339
1.00366 0.999892 0.990847
1.00534 0.998165 0.988421
1.00527 0.994943 0.991792
1.00144 1.00018 0.996938
1.00339 1.00013 0.989226
1.00535 0.998333 0.988237
1.00218 1.00016 0.996118
1.00345 1.00039 0.988884
1.0024 1.00012 0.996029
1.00193 0.999825 0.993349
1.00346 0.999693 0.990404
1.00533 0.997428 0.9893
1.00193 0.999959 0.99642
1.00332 0.999578 0.989879
1.00197 0.999948 0.996394
1.00125 1.00005 0.993907
1.00352 0.999823 0.990181
1.00534 0.998174 0.988427
1.0017 1.00013 0.994977
1.00336 1.00012 0.989251
1.00222 1.00016 0.996095
1.00194 0.999969 0.996399
1.0033 0.999692 0.989796
1.00191 0.999945 0.996411
1.00168 0.999943 0.995145
1.00338 0.999794 0.989577
1.00206 1.00014 0.996191
1.00193 1.00001 0.996386
1.00197 1.00004 0.996301

TENSORS stress float
0.00300146 -0.000209807 0.000343886
-0.000209807 0.0016461 -6.69586e-05
0.000343886 -6.69586e-05 0.00161653
0.00909214 0.000241322 0.000439493
0.000241322 0.00566404 6.10591e-05
0.000439493 6.10591e-05 0.00568731
0.00256127 -0.000137342 0.000133066
-0.000137342 0.0013491 -2.49395e-05
0.000133066 -2.49395e-05 0.00130166
0.00265928 -0.000115785 0.000311828
-0.000115785 0.00141736 -3.66005e-05
0.000311828 -3.66005e-05 0.0014029
0.00291774 -0.000181831 0.000332172
-0.000181831 0.0015891 -5.76005e-05
0.000332172 -5.76005e-05 0.0015636
0.00314518 -0.000223319 0.000362006
-0.000223319 0.00173306 -7.19716e-05
0.000362006 -7.19716e-05 0.00170486
0.00239968 -0.000286435 6.71312e-05
-0.000286435 0.00102691 -1.74088e-05
6.71312e-05 -1.74088e-05 0.000845381
0.00934622 0.000243384 -7.80607e-06
0.000243384 0.00582202 -4.12336e-06
-7.80607e-06 -4.12336e-06 0.00585058
0.00777247 0.000314425 0.000210039
0.000314425 0.00483931 2.60449e-05
0.000210039 2.60449e-05 0.0047997
0.00834467 0.000155708 0.000157402
0.000155708 0.00515168 1.34648e-05
0.000157402 1.34648e-05 0.0051277
0.00271083 0.000286078 0.000396499
0.000286078 0.00148715 6.90775e-05
0.000396499 6.90775e-05 0.00145618
0.000171694 0.000363679 2.64915e-05
0.000363679 -0.000363259 2.70806e-05
2.64915e-05 2.70806e-05 -0.000604964
0.00213957 -2.29264e-05 0.000295594
-2.29264e-05 0.00107311 6.46767e-06
0.000295594 6.46767e-06 0.00108261
0.00189456 1.38058e-05 8.68926e-05
1.38058e-05 0.000940757 4.18429e-06
8.68926e-05 4.18429e-06 0.00088546
0.00218487 -0.000131387 -8.85974e-05
-0.000131387 0.00111841 1.75516e-05
-8.85974e-05 1.75516e-05 0.00104198
0.00228904 -0.000110724 9.95068e-05
-0.000110724 0.00119464 -7.05954e-06
9.95068e-05 -7.05954e-06 0.0011536
0.00266659 -0.000132489 0.000146145
-0.000132489 0.00141165 -2.87774e-05
0.000146145 -2.87774e-05 0.00136312
0.0024969 -0.000135994 0.000119395
-0.000135994 0.00131438 -1.83695e-05
0.000119395 -1.83695e-05 0.00126829
0.00252925 -0.000321735 -5.36663e-05
-0.000321735 0.00111269 1.00407e-05
-5.36663e-05 1.00407e-05 0.00094293
0.00691635 -0.000182801 0.000395692
-0.000182801 0.00428122 -2.26337e-05
0.000395692 -2.26337e-05 0.00431451
0.0024952 -8.84065e-05 0.000301997
-8.84065e-05 0.00131163 -2.77046e-05
0.000301997 -2.77046e-05 0.00130169
0.00281066 -0.000148412 0.000322692
-0.000148412 0.00151619 -4.68523e-05
0.000322692 -4.68523e-05 0.00149663
0.00218773 -0.000206062 7.98672e-05
-0.000206062 0.000934443 -1.31906e-05
7.98672e-05 -1.31906e-05 0.000808229
0.00237212 -0.000268999 7.38618e-05
-0.000268999 0.00102834 -1.69317e-05
7.38618e-05 -1.69317e-05 0.000867856
0.0032963 -0.000211323 0.000379487
-0.000211323 0.00181649 -7.13884e-05
0.000379487 -7.13884e-05 0.00179431
0.00245736 -0.000309918 6.55795e-05
-0.000309918 0.00105482 -1.90556e-05
6.55795e-05 -1.90556e-05 0.000845303
0.00234009 -0.000567022 1.35977e-05
-0.000567022 0.000604785 -5.95251e-06
1.35977e-05 -5.95251e-06 0.000267229
0.00954961 0.000245976 -0.000486232
0.000245976 0.00594056 -5.64457e-05
-0.000486232 -5.64457e-05 0.00597651
0.00521935 0.000230764 -0.00018153
0.000230764 0.00312884 -2.39861e-05
-0.00018153 -2.39861e-05 0.00310071
0.00563132 0.000190885 -0.000195717
0.000190885 0.00338246 -2.68495e-05
-0.000195717 -2.68495e-05 0.00335848
0.00987607 0.000192256 -6.72724e-06
0.000192256 0.0061664 -3.46637e-06
-6.72724e-06 -3.46637e-06 0.00619707
0.000259383 0.000351523 -3.55655e-07
0.000351523 -0.000295971 -1.05038e-06
-3.55655e-07 -1.05038e-06 -0.000536061
0.00229058 8.95163e-05 0.000310633
8.95163e-05 0.00116743 3.37605e-05
0.000310633 3.37605e-05 0.00115745
0.0024857 0.000185474 0.000336098
0.000185474 0.00131478 5.51404e-05
0.000336098 5.51404e-05 0.00129031
0.00317079 0.000315514 0.000191615
0.000315514 0.0015565 3.13175e-05
0.000191615 3.13175e-05 0.0014266
0.00927806 -0.000131361 9.33937e-05
-0.000131361 0.00580875 5.23521e-06
9.33937e-05 5.23521e-06 0.00576988
0.00346603 0.000437464 0.000213691
0.000437464 0.0017916 4.34217e-05
0.000213691 4.34217e-05 0.00161773
3.08903e-05 0.000322333 2.25814e-05
0.000322333 -0.000421839 3.77116e-05
2.25814e-05 3.77116e-05 -0.000671143
0.00177938 0.000660558 2.51608e-05
0.000660558 0.000331412 5.5984e-06
2.51608e-05 5.5984e-06 -0.000112129
0.00776948 -2.35699e-05 0.000328785
-2.35699e-05 0.00490443 4.52627e-05
0.000328785 4.52627e-05 0.00491014
0.0068437 9.80274e-05 2.5434e-06
9.80274e-05 0.00421615 -2.36211e-06
2.5434e-06 -2.36211e-06 0.00425968
0.00454111 0.000114732 -0.000149209
0.000114732 0.00268989 -7.96402e-06
-0.000149209 -7.96402e-06 0.00268113
0.00672116 5.85214e-05 0.000384259
5.85214e-05 0.00413683 5.77972e-06
0.000384259 5.77972e-06 0.00418205
0.00176953 9.30595e-05 8.84045e-05
9.30595e-05 0.000864245 7.47923e-06
8.84045e-05 7.47923e-06 0.000812146
0.000355368 2.2064e-05 1.17719e-05
2.2064e-05 -0.000239832 3.04115e-06
1.17719e-05 3.04115e-06 -0.000341187
0.00705217 0.000262392 0.000222503
0.000262392 0.00439306 2.39691e-05
0.000222503 2.39691e-05 0.00436541
0.00300169 0.000122616 0.000169923
0.000122616 0.00147142 1.35092e-05
0.000169923 1.35092e-05 0.00140215
0.00190568 -0.000110808 -0.00010255
-0.000110808 0.000964347 1.47058e-05
-0.00010255 1.47058e-05 0.000896244
0.00206279 -0.000147607 -0.000100084
-0.000147607 0.00105808 1.94641e-05
-0.000100084 1.94641e-05 0.00097936
0.0022718 -9.92036e-05 -7.68789e-05
-9.92036e-05 0.00115537 1.53029e-05
-7.68789e-05 1.53029e-05 0.00108218
0.00261558 -0.000321724 -0.000181003
-0.000321724 0.00115546 3.72415e-05
-0.000181003 3.72415e-05 0.00100359
0.00442602 -5.38821e-05 -0.000150822
-5.38821e-05 0.00262026 -2.38057e-07
-0.000150822 -2.38057e-07 0.00261352
0.00219338 -8.84279e-05 0.000101884
-8.84279e-05 0.00113075 -5.56888e-06
0.000101884 -5.56888e-06 0.00109558
0.0029527 -0.000114875 0.000154677
-0.000114875 0.00158862 -2.881e-05
0.000154677 -2.881e-05 0.00154027
0.00240779 -0.000123819 0.000107979
-0.000123819 0.00126421 -1.18553e-05
0.000107979 -1.18553e-05 0.00122045
0.00229602 -0.000186785 -4.31802e-05
-0.000186785 0.000990056 4.20571e-06
-4.31802e-05 4.20571e-06 0.000880384
0.00258771 -0.000359723 -6.17849e-05
-0.000359723 0.00114244 1.17245e-05
-6.17849e-05 1.17245e-05 0.000945104
0.00246912 -0.00028136 -4.82502e-05
-0.00028136 0.00108662 7.64543e-06
-4.82502e-05 7.64543e-06 0.000939711
0.00247491 -0.000577967 -1.00541e-05
-0.000577967 0.000692355 2.67558e-06
-1.00541e-05 2.67558e-06 0.000356055
0.00673014 -2.98416e-05 0.000382289
-2.98416e-05 0.00413891 -6.89304e-06
0.000382289 -6.89304e-06 0.00418542
0.00241387 -6.1527e-05 0.000295628
-6.1527e-05 0.00126062 -1.99393e-05
0.000295628 -1.99393e-05 0.00125677
0.00247552 -4.36081e-05 6.16934e-05
-4.36081e-05 0.00117502 -1.55321e-06
6.16934e-05 -1.55321e-06 0.00109639
0.00213268 -0.000159912 7.18004e-05
-0.000159912 0.000910976 -8.96734e-06
7.18004e-05 -8.96734e-06 0.000803447
0.00230384 -0.000240561 7.86887e-05
-0.000240561 0.000996021 -1.56172e-05
7.86887e-05 -1.56172e-05 0.000853
0.00221793 -0.000360716 1.69782e-06
-0.000360716 0.000439007 -1.53844e-06
1.69782e-06 -1.53844e-06 0.000232819
0.00235427 -0.000508772 8.54822e-06
-0.000508772 0.000571608 -2.96179e-06
8.54822e-06 -2.96179e-06 0.000294334
0.00324986 -0.000190125 0.000387069
-0.000190125 0.00178521 -6.70067e-05
0.000387069 -6.70067e-05 0.00176241
0.00272474 -0.000287835 5.53342e-05
-0.000287835 0.00127057 -1.735e-05
5.53342e-05 -1.735e-05 0.00104827
0.00240383 -0.000653715 1.35151e-05
-0.000653715 0.000682298 -5.86267e-06
1.35151e-05 -5.86267e-06 0.000276828
0.00229908 -0.000750592 -2.65614e-06
-0.000750592 0.00031116 3.04434e-06
-2.65614e-06 3.04434e-06 -4.89741e-05
0.00832001 0.000370823 -0.000465139
0.000370823 0.00518831 -6.32234e-05
-0.000465139 -6.32234e-05 0.00520219
0.00982616 0.000156343 -0.000455509
0.000156343 0.00613715 -4.95329e-05
-0.000455509 -4.95329e-05 0.00616972
0.00894069 0.000295039 -0.000468507
0.000295039 0.00555606 -5.94067e-05
-0.000468507 -5.94067e-05 0.00558652
0.000252553 0.000340698 -2.59175e-05
0.000340698 -0.000289876 -2.70489e-05
-2.59175e-05 -2.70489e-05 -0.000530815
0.00774336 0.000296948 -2.45077e-06
0.000296948 0.00480803 -3.08722e-06
-2.45077e-06 -3.08722e-06 0.00483016
0.00840228 0.000348946 -7.23086e-06
0.000348946 0.00522766 -4.4344e-06
-7.23086e-06 -4.4344e-06 0.00524337
0.000379845 0.00021914 -2.14185e-07
0.00021914 -0.000296103 -4.23649e-07
-2.14185e-07 -4.23649e-07 -0.000474591
0.00580082 3.47979e-05 -0.00019931
3.47979e-05 0.003534 -1.75779e-05
-0.00019931 -1.75779e-05 0.00350065
0.000369502 0.000316379 1.20828e-06
0.000316379 -0.000260974 -3.661e-07
1.20828e-06 -3.661e-07 -0.000483424
0.00192631 0.00037023 0.000102168
0.00037023 0.000835146 8.72348e-06
0.000102168 8.72348e-06 0.000624495
0.00166887 0.000676906 -5.5991e-07
0.000676906 0.000230222 3.08204e-07
-5.5991e-07 3.08204e-07 -0.000224011
0.00877983 6.23762e-06 0.000375282
6.23762e-06 0.00553903 5.10906e-05
0.000375282 5.10906e-05 0.00554749
0.000515513 0.000269126 3.27217e-05
0.000269126 -7.14063e-05 1.96311e-05
3.27217e-05 1.96311e-05 -0.000212552
0.000511824 0.000176948 1.48414e-05
0.000176948 -0.000210975 1.25681e-05
1.48414e-05 1.25681e-05 -0.000367546
0.000493493 0.000258532 1.83627e-05
0.000258532 -0.000215199 2.24413e-05
1.83627e-05 2.24413e-05 -0.000411569
0.0017798 0.000491307 1.16093e-05
0.000491307 0.000120271 4.41085e-06
1.16093e-05 4.41085e-06 -0.000165762
0.003337 0.000403126 0.000226774
0.000403126 0.00179315 4.43335e-05
0.000226774 4.43335e-05 0.001629
0.00172119 0.000616073 2.39206e-05
0.000616073 0.00018833 6.41688e-06
2.39206e-05 6.41688e-06 -0.000203034
0.00159596 0.000656576 2.80441e-05
0.000656576 0.000326094 2.64305e-06
2.80441e-05 2.64305e-06 -0.000175338
0.00214843 0.000893078 -7.25473e-06
0.000893078 0.000325164 -9.14633e-06
-7.25473e-06 -9.14633e-06 -0.000186001
0.006944 -0.000173269 0.000211487
-0.000173269 0.00439796 2.96194e-05
0.000211487 2.96194e-05 0.00437211
0.00745871 -0.000128363 1.10651e-05
-0.000128363 0.00471311 5.65335e-06
1.10651e-05 5.65335e-06 0.00469983
0.00730878 9.99398e-05 -0.00040521
9.99398e-05 0.00450457 -2.48217e-05
-0.00040521 -2.48217e-05 0.00454569
0.00693628 9.09726e-05 -0.00039609
9.09726e-05 0.00427201 -1.53266e-05
-0.00039609 -1.53266e-05 0.00431699
0.0068018 8.42724e-05 -4.63696e-07
8.42724e-05 0.0041935 -4.7978e-06
-4.63696e-07 -4.7978e-06 0.00423682
0.00440711 5.88389e-05 -0.00015953
5.88389e-05 0.0025996 -9.91452e-06
-0.00015953 -9.91452e-06 0.0025975
0.00148272 5.14295e-05 7.60029e-05
5.14295e-05 0.000503622 2.66703e-06
7.60029e-05 2.66703e-06 0.000425732
0.00477293 0.000179763 -0.000153672
0.000179763 0.00284786 -1.07038e-05
-0.000153672 -1.07038e-05 0.00282913
0.00163376 0.000133309 7.72306e-05
0.000133309 0.00056515 4.80382e-06
7.72306e-05 4.80382e-06 0.00046608
0.00675543 9.97083e-05 0.000387548
9.97083e-05 0.00416956 7.03418e-06
0.000387548 7.03418e-06 0.00420911
0.000196822 1.11765e-05 1.42251e-05
1.11765e-05 -0.000333635 1.79124e-06
1.42251e-05 1.79124e-06 -0.00043013
0.00290975 7.06885e-05 0.000168026
7.06885e-05 0.00143068 9.48781e-06
0.000168026 9.48781e-06 0.00137327
0.0015656 0.000115194 6.09333e-06
0.000115194 -6.2739e-05 1.38877e-06
6.09333e-06 1.38877e-06 -0.000186015
0.00291507 0.000185224 0.000175085
0.000185224 0.00139538 1.73881e-05
0.000175085 1.73881e-05 0.00130827
0.00163088 0.000244423 4.47909e-06
0.000244423 -4.63103e-05 1.50084e-06
4.47909e-06 1.50084e-06 -0.000206176
0.0021481 2.75114e-05 -0.000295174
2.75114e-05 0.00107334 6.15505e-06
-0.000295174 6.15505e-06 0.00108613
0.00186082 -4.09273e-05 -8.86437e-05
-4.09273e-05 0.000924169 5.88701e-06
-8.86437e-05 5.88701e-06 0.000866359
0.0025141 -7.45039e-05 -7.37244e-05
-7.45039e-05 0.00130495 1.43092e-05
-7.37244e-05 1.43092e-05 0.00123117
0.00197429 -0.000131095 -0.000106078
-0.000131095 0.00100676 1.80411e-05
-0.000106078 1.80411e-05 0.000933363
0.00242888 -0.000166192 -0.000160628
-0.000166192 0.00106291 1.7401e-05
-0.000160628 1.7401e-05 0.000969746
0.00259251 -0.000266218 -0.000173265
-0.000266218 0.00114994 3.05063e-05
-0.000173265 3.05063e-05 0.00102227
0.00278634 -0.000392797 -0.000191533
-0.000392797 0.00127905 4.16953e-05
-0.000191533 4.16953e-05 0.00109269
0.00261262 -0.000591718 -3.06663e-05
-0.000591718 0.000780708 1.00156e-05
-3.06663e-05 1.00156e-05 0.000444622
0.00680866 -0.000130429 2.56061e-06
-0.000130429 0.00420741 -2.23959e-06
2.56061e-06 -2.23959e-06 0.00424447
0.00209998 2.64136e-08 0.000108121
2.64136e-08 0.00105662 -6.57521e-06
0.000108121 -6.57521e-06 0.00103484
0.00124071 -3.15837e-05 -7.89271e-05
-3.15837e-05 0.000340419 3.66379e-06
-7.89271e-05 3.66379e-06 0.000264796
0.00221993 -0.00012697 -4.46589e-05
-0.00012697 0.000954677 4.70563e-06
-4.46589e-05 4.70563e-06 0.000862451
0.00650283 -0.000191935 0.000378807
-0.000191935 0.00393694 -4.36452e-05
0.000378807 -4.36452e-05 0.00393956
0.00307385 -0.000361591 -5.9328e-05
-0.000361591 0.00151468 8.00902e-06
-5.9328e-05 8.00902e-06 0.00131238
0.00239386 -0.00023543 -4.47025e-05
-0.00023543 0.00104407 5.55045e-06
-4.47025e-05 5.55045e-06 0.000916692
0.00229605 -0.000365279 -8.46009e-06
-0.000365279 0.000486384 1.4596e-06
-8.46009e-06 1.4596e-06 0.000287955
0.00264843 -0.000685479 -7.37747e-06
-0.000685479 0.000856329 2.39062e-06
-7.37747e-06 2.39062e-06 0.000444818
0.0023658 -0.000509337 -1.12373e-05
-0.000509337 0.000580092 3.55578e-06
-1.12373e-05 3.55578e-06 0.000298147
0.00235735 -0.000755373 1.13566e-06
-0.000755373 0.000356893 -1.27473e-07
1.13566e-06 -1.27473e-07 -4.78808e-06
0.000229966 -3.12316e-06 1.52149e-05
-3.12316e-06 -0.000322581 5.07341e-08
1.52149e-05 5.07341e-08 -0.000416485
0.00208406 -4.82321e-05 6.38519e-05
-4.82321e-05 0.000886584 -3.45958e-06
6.38519e-05 -3.45958e-06 0.000801683
0.00212129 -0.000130765 1.32191e-06
-0.000130765 0.000342094 1.25247e-07
1.32191e-06 1.25247e-07 0.000232594
0.00220879 -0.000288504 -1.44985e-07
-0.000288504 0.00041851 -3.99362e-07
-1.44985e-07 -3.99362e-07 0.000258313
0.00228733 -0.000437612 4.10649e-06
-0.000437612 0.000502239 -1.80238e-06
4.10649e-06 -1.80238e-06 0.000271437
0.0023254 -0.000488519 2.82526e-06
-0.000488519 0.00015958 -1.54294e-06
2.82526e-06 -1.54294e-06 -1.487e-05
0.00949109 -0.000108003 0.000412059
-0.000108003 0.00593699 -4.55535e-05
0.000412059 -4.55535e-05 0.00596143
0.00219532 -0.000668021 7.20506e-07
-0.000668021 0.000161368 1.69041e-06
7.20506e-07 1.69041e-06 -0.000130745
8.02397e-05 -0.000277015 1.90466e-05
-0.000277015 -0.000412945 -3.1563e-05
1.90466e-05 -3.1563e-05 -0.000632628
0.00145531 -0.000714036 -2.70295e-06
-0.000714036 9.30225e-05 -2.49259e-06
-2.70295e-06 -2.49259e-06 -0.000405669
0.00245864 -0.000834855 -7.272e-06
-0.000834855 0.000502615 5.00536e-06
-7.272e-06 5.00536e-06 6.76182e-05
0.00245086 -0.000832933 -1.08129e-06
-0.000832933 0.00032383 -4.42177e-07
-1.08129e-06 -4.42177e-07 -5.29426e-06
0.000299424 -0.000269108 2.32576e-05
-0.000269108 -0.000223385 -2.67973e-05
2.32576e-05 -2.67973e-05 -0.000413631
0.00163122 -0.000322198 3.50332e-06
-0.000322198 0.000703603 3.96308e-06
3.50332e-06 3.96308e-06 0.000345998
0.00796248 0.00032756 -0.000455372
0.00032756 0.00495523 -5.50824e-05
-0.000455372 -5.50824e-05 0.00497489
0.00864328 0.000354233 -0.000469638
0.000354233 0.00538278 -6.4296e-05
-0.000469638 -6.4296e-05 0.00540313
0.00034592 0.000220531 -1.70419e-05
0.000220531 -0.000318447 -1.59422e-05
-1.70419e-05 -1.59422e-05 -0.000499213
0.00921596 6.23926e-05 -0.000395631
6.23926e-05 0.00577546 -4.18811e-05
-0.000395631 -4.18811e-05 0.00579888
0.000186055 0.000303863 -2.54943e-05
0.000303863 -0.000312737 -3.23802e-05
-2.54943e-05 -3.23802e-05 -0.000540993
0.000279474 0.000308313 -1.9993e-05
0.000308313 -0.000318593 -2.47739e-05
-1.9993e-05 -2.47739e-05 -0.00054282
0.00148231 0.000681779 -2.81102e-05
0.000681779 8.23839e-05 -5.29257e-06
-2.81102e-05 -5.29257e-06 -0.000380286
0.00860872 1.68784e-05 -1.50403e-05
1.68784e-05 0.00542048 1.36258e-07
-1.50403e-05 1.36258e-07 0.00543372
0.000822985 0.000235406 8.94845e-07
0.000235406 0.000119381 1.08026e-06
8.94845e-07 1.08026e-06 -1.72724e-05
0.00181224 0.000228936 8.34578e-05
0.000228936 0.000650799 8.62204e-06
8.34578e-05 8.62204e-06 0.000514263
0.0019237 0.000324736 9.0441e-05
0.000324736 0.000740256 1.15317e-05
9.0441e-05 1.15317e-05 0.0005624
0.00172594 0.000487976 -3.33227e-07
0.000487976 8.93362e-05 -2.26025e-07
-3.33227e-07 -2.26025e-07 -0.000197688
0.000152406 0.000285062 2.37204e-06
0.000285062 -0.000319152 -1.00872e-06
2.37204e-06 -1.00872e-06 -0.000532102
0.00176033 0.000617231 3.39577e-07
0.000617231 0.000218348 -1.67508e-07
3.39577e-07 -1.67508e-07 -0.000174229
0.00126342 0.00063212 5.69574e-07
0.00063212 9.34036e-05 -1.79128e-06
5.69574e-07 -1.79128e-06 -0.000401779
0.00225907 0.000907306 2.40798e-07
0.000907306 0.000397041 7.84174e-07
2.40798e-07 7.84174e-07 -0.000111723
0.000474114 0.00025158 1.82568e-05
0.00025158 -9.51356e-05 2.93593e-05
1.82568e-05 2.93593e-05 -0.00028602
0.000700468 0.000185027 2.52979e-05
0.000185027 9.09563e-05 2.09194e-05
2.52979e-05 2.09194e-05 -4.5323e-05
-0.00115217 0.000393203 1.09156e-05
0.000393203 -0.00101215 -7.30478e-06
1.09156e-05 -7.30478e-06 -0.00137241
0.0017981 0.000422203 8.97188e-06
0.000422203 9.90651e-05 3.06321e-06
8.97188e-06 3.06321e-06 -0.000141652
0.00176782 0.000554104 1.76263e-05
0.000554104 0.000144217 5.69439e-06
1.76263e-05 5.69439e-06 -0.000190966
0.00233505 0.000692818 2.13037e-06
0.000692818 0.000229921 -1.47699e-06
2.13037e-06 -1.47699e-06 -5.89178e-05
0.000907144 0.000524802 1.81265e-05
0.000524802 6.39653e-05 -2.13212e-07
1.81265e-05 -2.13212e-07 -0.000405487
0.00263955 0.000907401 -5.37596e-06
0.000907401 0.000610479 -6.46156e-06
-5.37596e-06 -6.46156e-06 0.000163208
0.00272009 0.00113979 -1.31736e-05
0.00113979 0.000874351 -1.25559e-05
-1.31736e-05 -1.25559e-05 0.000180691
0.0020685 0.00090022 -1.17166e-05
0.00090022 0.000137306 -7.5945e-06
-1.17166e-05 -7.5945e-06 -0.000331572
0.00579004 -0.000156025 0.000163346
-0.000156025 0.00361755 1.94352e-05
0.000163346 1.94352e-05 0.00359835
0.006533 -0.000171538 4.81362e-06
-0.000171538 0.00410778 2.67818e-06
4.81362e-06 2.67818e-06 0.00408512
0.00729179 -0.00016177 -0.000215606
-0.00016177 0.0045869 -1.82176e-05
-0.000215606 -1.82176e-05 0.00457123
0.00086432 -0.000291028 2.88243e-05
-0.000291028 0.000191285 -2.54268e-05
2.88243e-05 -2.54268e-05 2.39421e-05
0.00868901 -3.05865e-05 0.000346413
-3.05865e-05 0.00546332 -4.12459e-05
0.000346413 -4.12459e-05 0.00547403
0.00760191 0.000259906 -0.000437604
0.000259906 0.00471384 -4.34587e-05
-0.000437604 -4.34587e-05 0.00474256
0.00704198 0.000125039 -0.000397779
0.000125039 0.00433883 -2.14969e-05
-0.000397779 -2.14969e-05 0.00438031
0.000278568 0.00013305 -1.51482e-05
0.00013305 -0.000334464 -7.64978e-06
-1.51482e-05 -7.64978e-06 -0.00045917
0.000187335 5.29629e-05 -1.42993e-05
5.29629e-05 -0.000352491 -3.88709e-06
-1.42993e-05 -3.88709e-06 -0.000455494
0.00674873 3.63426e-06 -0.000382287
3.63426e-06 0.00415025 -4.73286e-06
-0.000382287 -4.73286e-06 0.00419674
0.00669442 -7.69652e-06 7.23731e-08
-7.69652e-06 0.0041156 -1.45454e-06
7.23731e-08 -1.45454e-06 0.00416253
0.000175981 4.9701e-06 -6.4351e-08
4.9701e-06 -0.000351146 2.37962e-07
-6.4351e-08 2.37962e-07 -0.000446268
0.00153296 6.85281e-05 7.68833e-05
6.85281e-05 0.000517088 4.09904e-06
7.68833e-05 4.09904e-06 0.000432981
0.00156547 0.000117876 1.01112e-07
0.000117876 -5.03958e-05 -3.20736e-08
1.01112e-07 -3.20736e-08 -0.000174559
0.000368033 0.000142258 -9.071e-07
0.000142258 -0.000290712 -3.35673e-07
-9.071e-07 -3.35673e-07 -0.000430431
0.00164318 0.000245238 -1.53303e-07
0.000245238 -1.51267e-05 5.28623e-09
-1.53303e-07 5.28623e-09 -0.000176066
0.000173713 -3.24516e-05 1.50567e-05
-3.24516e-05 -0.000354203 -1.05684e-07
1.50567e-05 -1.05684e-07 -0.000446441
0.00152729 5.37584e-05 5.02281e-06
5.37584e-05 -7.3186e-05 9.67407e-07
5.02281e-06 9.67407e-07 -0.000189096
0.00158567 0.000180387 5.19467e-06
0.000180387 -6.17627e-05 1.6831e-06
5.19467e-06 1.6831e-06 -0.000199397
0.00237507 0.000178638 3.44117e-06
0.000178638 0.000104982 8.11783e-07
3.44117e-06 8.11783e-07 5.8301e-05
0.00172663 0.000334215 6.69841e-06
0.000334215 2.68382e-05 1.96305e-06
6.69841e-06 1.96305e-06 -0.000169691
0.00238906 0.000376423 4.18845e-06
0.000376423 0.00015132 1.14972e-06
4.18845e-06 1.14972e-06 4.90708e-05
0.00672428 -9.39377e-05 -0.000385762
-9.39377e-05 0.00414628 7.25842e-06
-0.000385762 7.25842e-06 0.00418697
0.00176433 -0.000169093 -8.81765e-05
-0.000169093 0.000887642 1.24278e-05
-8.81765e-05 1.24278e-05 0.00082016
-8.68782e-05 -1.82961e-05 -8.66563e-06
-1.82961e-05 -0.000536866 1.23856e-06
-8.66563e-06 1.23856e-06 -0.000642394
0.00232937 -0.00011767 -0.000155473
-0.00011767 0.0010164 1.24419e-05
-0.000155473 1.24419e-05 0.000938183
0.00954317 7.48496e-05 -0.000112462
7.48496e-05 0.00591624 5.7122e-06
-0.000112462 5.7122e-06 0.00588503
0.00338715 -0.000428663 -0.00019809
-0.000428663 0.00174017 4.4203e-05
-0.00019809 4.4203e-05 0.00154993
0.00251546 -0.000215561 -0.000166841
-0.000215561 0.00110699 2.35615e-05
-0.000166841 2.35615e-05 0.00099765
0.00236559 -0.000369068 -2.1498e-05
-0.000369068 0.000527778 4.25289e-06
-2.1498e-05 4.25289e-06 0.000337358
0.00234977 -0.00050805 -2.71122e-05
-0.00050805 0.000567959 9.15888e-06
-2.71122e-05 9.15888e-06 0.000281841
0.00275624 -0.000697931 -3.52895e-05
-0.000697931 0.000938644 1.1834e-05
-3.52895e-05 1.1834e-05 0.000527099
0.00241741 -0.000757641 2.61438e-06
-0.000757641 0.000410165 -2.67524e-06
2.61438e-06 -2.67524e-06 4.78458e-05
0.000185525 -5.24417e-06 8.6077e-08
-5.24417e-06 -0.000348496 4.23137e-07
8.6077e-08 4.23137e-07 -0.000442992
0.00217477 -0.000119629 -4.33293e-05
-0.000119629 0.000954611 1.30977e-06
-4.33293e-05 1.30977e-06 0.000872581
0.00193566 -0.000128211 -1.33086e-05
-0.000128211 0.000210539 7.77546e-07
-1.33086e-05 7.77546e-07 0.000100555
0.00220884 -0.000285682 -1.28979e-05
-0.000285682 0.000414474 2.27759e-06
-1.28979e-05 2.27759e-06 0.000249118
0.00962754 -0.000102947 5.08498e-06
-0.000102947 0.00602021 -1.35633e-06
5.08498e-06 -1.35633e-06 0.00604365
0.00181305 -0.000302033 1.31963e-05
-0.000302033 0.0007427 6.52408e-07
1.31963e-05 6.52408e-07 0.000516
0.00212055 -0.0007159 6.44334e-06
-0.0007159 0.00055038 -2.7968e-06
6.44334e-06 -2.7968e-06 7.5098e-05
0.00235888 -0.000444145 -1.14847e-05
-0.000444145 0.000549942 3.25998e-06
-1.14847e-05 3.25998e-06 0.000317595
0.00235798 -0.000493114 3.1684e-06
-0.000493114 0.000177667 -1.02048e-06
3.1684e-06 -1.02048e-06 1.60606e-05
0.00242976 -0.000829823 1.9418e-06
-0.000829823 0.000487147 -2.79169e-07
1.9418e-06 -2.79169e-07 5.50658e-05
0.00225237 -0.000668414 2.75561e-07
-0.000668414 0.000204249 2.02101e-07
2.75561e-07 2.02101e-07 -9.1925e-05
0.00238472 -0.000825155 2.32404e-08
-0.000825155 0.000281817 1.11104e-06
2.32404e-08 1.11104e-06 -4.5953e-05
0.000309734 -0.000295809 1.40355e-06
-0.000295809 -0.000222463 -4.40277e-07
1.40355e-06 -4.40277e-07 -0.000412609
0.000686147 -0.000349658 1.87431e-07
-0.000349658 0.000132256 1.63025e-07
1.87431e-07 1.63025e-07 -0.000249337
0.00151583 -6.08207e-05 4.40138e-06
-6.08207e-05 -6.25057e-05 -1.31694e-07
4.40138e-06 -1.31694e-07 -0.000180574
0.0023015 -0.000208915 -1.19706e-07
-0.000208915 0.000465831 -1.21384e-07
-1.19706e-07 -1.21384e-07 0.000339053
0.00221657 -0.000189234 3.24252e-06
-0.000189234 3.60615e-06 -8.20763e-07
3.24252e-06 -8.20763e-07 -6.56703e-05
0.00223631 -0.000397058 1.06878e-06
-0.000397058 4.05848e-05 -6.19774e-07
1.06878e-06 -6.19774e-07 -6.87682e-05
0.00214785 -0.000588077 2.31304e-07
-0.000588077 6.69684e-05 -4.00076e-07
2.31304e-07 -4.00076e-07 -0.000159174
0.00240828 -0.000509539 5.27479e-06
-0.000509539 0.000139268 -1.43195e-06
5.27479e-06 -1.43195e-06 3.7793e-05
0.000189726 -0.000262258 1.78097e-05
-0.000262258 -0.000319402 -3.09474e-05
1.78097e-05 -3.09474e-05 -0.000529467
0.002514 -0.000749534 1.03518e-06
-0.000749534 0.000286795 -2.0593e-06
1.03518e-06 -2.0593e-06 4.53009e-05
0.00143984 -0.000646053 1.48729e-06
-0.000646053 0.00015426 -5.44521e-06
1.48729e-06 -5.44521e-06 -0.000342668
0.0022966 -0.000940841 1.21617e-06
-0.000940841 0.000437827 2.83511e-06
1.21617e-06 2.83511e-06 -9.91873e-05
0.00262658 -0.000907393 -3.22532e-06
-0.000907393 0.000514372 1.39038e-08
-3.22532e-06 1.39038e-08 9.9314e-05
0.00249454 -0.000859145 2.31011e-06
-0.000859145 0.000271417 -1.69662e-06
2.31011e-06 -1.69662e-06 7.34442e-08
0.000868697 -0.000365017 7.85003e-06
-0.000365017 0.000161213 2.73922e-06
7.85003e-06 2.73922e-06 -0.000256524
0.00144647 -0.000260197 -2.04505e-07
-0.000260197 0.000721403 -4.91465e-06
-2.04505e-07 -4.91465e-06 0.000394477
0.00155967 -0.000530932 6.27779e-06
-0.000530932 0.000613429 8.54553e-06
6.27779e-06 8.54553e-06 0.000110243
0.000360207 0.000185906 -1.58855e-05
0.000185906 -0.000310947 -1.19826e-05
-1.58855e-05 -1.19826e-05 -0.000472867
0.00806058 -3.25745e-05 -0.000314714
-3.25745e-05 0.00506267 -3.00982e-05
-0.000314714 -3.00982e-05 0.00507367
0.000309897 0.0001788 -2.10336e-05
0.0001788 -0.000187227 -2.10848e-05
-2.10336e-05 -2.10848e-05 -0.000329537
0.00032055 0.000262956 -1.86417e-05
0.000262956 -0.000321845 -2.05779e-05
-1.86417e-05 -2.05779e-05 -0.000523485
0.00166862 0.000485199 -1.33706e-05
0.000485199 5.45105e-05 -4.59769e-06
-1.33706e-05 -4.59769e-06 -0.000233667
0.000374799 0.000278557 -2.14437e-05
0.000278557 -0.000190637 -3.02844e-05
-2.14437e-05 -3.02844e-05 -0.000397248
0.00121651 0.000638349 -2.47976e-05
0.000638349 2.89413e-05 -4.46198e-06
-2.47976e-05 -4.46198e-06 -0.000462976
0.00174643 0.000612078 -2.56664e-05
0.000612078 0.000216564 -6.77872e-06
-2.56664e-05 -6.77872e-06 -0.000175762
0.00231293 0.000920259 3.02147e-07
0.000920259 0.000420618 7.34534e-06
3.02147e-07 7.34534e-06 -8.63543e-05
0.000269968 0.000267807 -6.13448e-06
0.000267807 -0.000230394 7.32323e-07
-6.13448e-06 7.32323e-07 -0.000411446
0.000365069 0.000149218 -1.54887e-06
0.000149218 -0.000112454 1.25779e-06
-1.54887e-06 1.25779e-06 -0.000245823
0.000903695 0.00040296 4.33611e-07
0.00040296 0.00024551 1.21354e-09
4.33611e-07 1.21354e-09 -6.06309e-05
0.00173177 0.000417481 -4.48469e-07
0.000417481 6.41877e-05 -3.45509e-07
-4.48469e-07 -3.45509e-07 -0.000177051
0.00174618 0.000548857 -3.05575e-07
0.000548857 0.000141667 -2.45087e-07
-3.05575e-07 -2.45087e-07 -0.000193296
0.0023987 0.000697837 -1.03243e-06
0.000697837 0.000274543 -3.32771e-07
-1.03243e-06 -3.32771e-07 -1.50334e-05
0.000882012 0.000479751 6.45974e-06
0.000479751 1.62598e-05 -1.75078e-06
6.45974e-06 -1.75078e-06 -0.000423368
0.0025713 0.000896342 -2.0048e-06
0.000896342 0.000559479 -1.00023e-06
-2.0048e-06 -1.00023e-06 0.000114864
0.00243168 0.00110941 -2.70348e-06
0.00110941 0.000654502 -1.64043e-06
-2.70348e-06 -1.64043e-06 -2.93734e-05
0.0020157 0.000892993 -1.16694e-07
0.000892993 8.28893e-05 5.00629e-06
-1.16694e-07 5.00629e-06 -0.00037751
0.000852926 0.000113085 1.34752e-05
0.000113085 0.00025202 2.0058e-05
1.34752e-05 2.0058e-05 0.000130559
-6.89561e-05 0.000519066 1.02871e-06
0.000519066 -0.000403453 -4.06711e-06
1.02871e-06 -4.06711e-06 -0.000783859
0.00100868 0.000264115 -1.61555e-06
0.000264115 0.000381696 5.92202e-07
-1.61555e-06 5.92202e-07 5.73344e-05
-0.00108403 0.00024564 -8.59717e-06
0.00024564 -0.000985854 1.73915e-06
-8.59717e-06 1.73915e-06 -0.00134948
0.00236204 0.000602475 2.49091e-06
0.000602475 0.000201361 -5.20648e-07
2.49091e-06 -5.20648e-07 -1.73539e-05
0.00244309 0.00079381 -9.55882e-07
0.00079381 0.000384208 -3.53859e-06
-9.55882e-07 -3.53859e-06 1.62981e-05
0.00250646 0.000765922 1.06524e-06
0.000765922 0.000253402 4.59221e-07
1.06524e-06 4.59221e-07 1.70333e-06
0.0025296 0.00104872 -1.62112e-05
0.00104872 0.000997799 -1.59441e-05
-1.62112e-05 -1.59441e-05 0.000260837
0.00264114 0.000968026 -5.98512e-06
0.000968026 0.000502821 -1.92048e-06
-5.98512e-06 -1.92048e-06 7.98839e-05
0.00277773 0.00123422 -1.63418e-05
0.00123422 0.000790476 -1.56728e-05
-1.63418e-05 -1.56728e-05 7.28656e-05
0.00226779 0.000907156 -3.75871e-06
0.000907156 0.000128996 -1.38394e-06
-3.75871e-06 -1.38394e-06 -0.00030302
0.00109488 0.000166407 -3.46146e-06
0.000166407 0.000503429 8.48022e-06
-3.46146e-06 8.48022e-06 0.000334994
0.000448683 7.13502e-05 7.27832e-06
7.13502e-05 1.74146e-05 1.53336e-05
7.27832e-06 1.53336e-05 -5.63115e-05
0.00468083 -0.000146438 9.42921e-05
-0.000146438 0.00286249 1.28065e-05
9.42921e-05 1.28065e-05 0.00284742
0.00540599 -0.000204412 2.19316e-05
-0.000204412 0.00337044 -1.54295e-06
2.19316e-05 -1.54295e-06 0.00333855
0.00605094 -0.00024698 -0.000117375
-0.00024698 0.00381654 -1.68199e-05
-0.000117375 -1.68199e-05 0.00377118
0.00018644 -0.000242701 2.73125e-05
-0.000242701 -0.00018101 -1.79576e-05
2.73125e-05 -1.79576e-05 -0.000306137
0.00701704 4.24678e-05 0.000237368
4.24678e-05 0.00439822 -3.10448e-05
0.000237368 -3.10448e-05 0.0043952
0.000488571 -0.000287109 3.35691e-06
-0.000287109 -6.16619e-05 1.16374e-06
3.35691e-06 1.16374e-06 -0.000232625
0.00899034 -6.70051e-05 5.34592e-06
-6.70051e-05 0.00565129 -9.51392e-07
5.34592e-06 -9.51392e-07 0.00566645
0.000345574 0.000165023 -1.61066e-05
0.000165023 -0.000308163 -9.64786e-06
-1.61066e-05 -9.64786e-06 -0.000452104
0.000217443 5.79722e-05 -1.31464e-05
5.79722e-05 -0.000355962 -4.75232e-06
-1.31464e-05 -4.75232e-06 -0.000465844
0.00166463 0.000245942 -4.51527e-06
0.000245942 1.74369e-05 -1.06217e-06
-4.51527e-06 -1.06217e-06 -0.000144453
0.00157236 0.000120165 -5.68499e-06
0.000120165 -3.40816e-05 -1.26727e-06
-5.68499e-06 -1.26727e-06 -0.000158968
0.000220205 -3.86575e-07 -1.47098e-05
-3.86575e-07 -0.000325746 -1.74017e-06
-1.47098e-05 -1.74017e-06 -0.000419692
0.00678782 -0.000104274 -0.000393517
-0.000104274 0.00419107 7.35194e-06
-0.000393517 7.35194e-06 0.00423165
0.000211756 -4.17795e-06 -3.49561e-08
-4.17795e-06 -0.000329265 -6.69898e-07
-3.49561e-08 -6.69898e-07 -0.000421251
0.00153665 5.88953e-05 1.07895e-08
5.88953e-05 -6.11372e-05 3.1016e-08
1.07895e-08 3.1016e-08 -0.000177541
0.00160464 0.000179998 1.35649e-08
0.000179998 -3.45002e-05 1.11651e-07
1.35649e-08 1.11651e-07 -0.000172684
0.00239113 0.000176536 -1.17103e-07
0.000176536 0.00011641 1.31373e-07
-1.17103e-07 1.31373e-07 6.98094e-05
0.00170483 0.000331092 -4.29948e-07
0.000331092 2.6668e-05 -2.02455e-07
-4.29948e-07 -2.02455e-07 -0.000170302
0.00238141 0.000376561 -8.23544e-08
0.000376561 0.00013889 1.72074e-07
-8.23544e-08 1.72074e-07 3.62772e-05
0.00151685 -4.86373e-06 4.03042e-06
-4.86373e-06 -6.61297e-05 3.40629e-07
4.03042e-06 3.40629e-07 -0.000181089
0.00238489 8.62216e-05 3.99541e-06
8.62216e-05 0.00010627 4.04431e-07
3.99541e-06 4.04431e-07 6.9759e-05
0.00236399 0.000272964 3.31119e-06
0.000272964 0.000114511 1.13128e-06
3.31119e-06 1.13128e-06 4.43665e-05
0.00220875 0.000180197 3.9259e-06
0.000180197 -2.83403e-05 5.54405e-07
3.9259e-06 5.54405e-07 -1.80722e-05
0.00239293 0.000490016 3.8535e-06
0.000490016 0.000181535 9.41494e-07
3.8535e-06 9.41494e-07 2.92906e-05
0.00226293 0.000357725 4.16386e-06
0.000357725 -1.12932e-06 6.2072e-07
4.16386e-06 6.2072e-07 -3.94752e-05
0.000222061 -1.01143e-05 -1.4223e-05
-1.01143e-05 -0.000319607 1.23898e-07
-1.4223e-05 1.23898e-07 -0.000415953
0.00224418 -7.58308e-05 -0.000153104
-7.58308e-05 0.000983393 8.64549e-06
-0.000153104 8.64549e-06 0.000917941
0.00172783 -0.000125511 -1.59339e-05
-0.000125511 6.36632e-05 1.42942e-06
-1.59339e-05 1.42942e-06 -4.69319e-05
0.00218253 -0.000282862 -1.93914e-05
-0.000282862 0.00038989 3.25192e-06
-1.93914e-05 3.25192e-06 0.000219139
0.00971757 -0.000134123 -0.000439874
-0.000134123 0.00606842 5.49227e-05
-0.000439874 5.49227e-05 0.00609352
0.00361484 -0.000413231 -0.000226345
-0.000413231 0.00193153 4.29814e-05
-0.000226345 4.29814e-05 0.00174445
0.00257497 -0.000729027 -1.5266e-05
-0.000729027 0.000902343 8.43118e-06
-1.5266e-05 8.43118e-06 0.000436538
0.00241469 -0.000449689 -2.60665e-05
-0.000449689 0.000586061 7.37786e-06
-2.60665e-05 7.37786e-06 0.00035239
0.00239519 -0.000497772 -2.86095e-08
-0.000497772 0.000198566 -4.31127e-07
-2.86095e-08 -4.31127e-07 4.9964e-05
0.00231022 -0.000669054 -2.62025e-08
-0.000669054 0.000248057 -2.34118e-07
-2.62025e-08 -2.34118e-07 -5.2246e-05
0.00247169 -0.000836833 7.95698e-06
-0.000836833 0.000509086 -4.12869e-06
7.95698e-06 -4.12869e-06 7.62637e-05
0.00232595 -0.000819415 2.85672e-06
-0.000819415 0.000241219 1.80344e-06
2.85672e-06 1.80344e-06 -8.57735e-05
0.000110196 -0.000305638 -2.48618e-05
-0.000305638 -0.000347227 2.82928e-05
-2.48618e-05 2.82928e-05 -0.000541211
-0.000238675 -0.000348648 -4.34509e-06
-0.000348648 -0.000413355 -3.56124e-06
-4.34509e-06 -3.56124e-06 -0.000827976
0.00158464 -5.82795e-05 8.81788e-07
-5.82795e-05 -2.06951e-05 -6.86586e-08
8.81788e-07 -6.86586e-08 -0.000131332
0.00218905 -0.000207633 -1.20331e-05
-0.000207633 0.000382127 1.34647e-06
-1.20331e-05 1.34647e-06 0.000254548
0.00221377 -0.00018495 2.40621e-06
-0.00018495 -2.1207e-06 -3.58923e-07
2.40621e-06 -3.58923e-07 -6.65024e-05
0.00226671 -0.000395072 -1.22088e-06
-0.000395072 8.40202e-05 3.27864e-07
-1.22088e-06 3.27864e-07 -3.74747e-05
9.57837e-05 -0.000279456 -2.26127e-06
-0.000279456 -0.000366849 -2.67274e-07
-2.26127e-06 -2.67274e-07 -0.000582284
0.0013375 -0.000641785 -1.32512e-06
-0.000641785 0.000128976 -2.63482e-07
-1.32512e-06 -2.63482e-07 -0.000373639
0.00237164 -0.000956484 -3.67254e-07
-0.000956484 0.00047729 1.54051e-06
-3.67254e-07 1.54051e-06 -7.15281e-05
0.00225667 -0.000589329 1.04729e-06
-0.000589329 0.000153295 -4.50471e-07
1.04729e-06 -4.50471e-07 -7.78228e-05
0.0023762 -0.000510539 1.22281e-07
-0.000510539 9.75855e-05 -1.00652e-07
1.22281e-07 -1.00652e-07 3.66864e-06
0.00263903 -0.000908166 2.11291e-06
-0.000908166 0.000519754 -2.017e-06
2.11291e-06 -2.017e-06 0.000109552
0.00244081 -0.000741517 -6.72212e-07
-0.000741517 0.000237363 3.13424e-07
-6.72212e-07 3.13424e-07 -1.6817e-06
0.00241726 -0.000864694 1.26726e-07
-0.000864694 0.000210987 4.25208e-07
1.26726e-07 4.25208e-07 -6.12277e-05
0.000949253 -0.000398093 -2.15303e-06
-0.000398093 0.000201793 3.55944e-07
-2.15303e-06 3.55944e-07 -0.000230974
0.00143083 -0.000489817 1.60113e-06
-0.000489817 0.00055575 1.56877e-06
1.60113e-06 1.56877e-06 5.83712e-05
0.000694342 -0.000227153 -2.81604e-06
-0.000227153 0.000292323 -2.98575e-07
-2.81604e-06 -2.98575e-07 -6.56314e-05
0.00222646 -9.33614e-05 3.65831e-06
-9.33614e-05 8.36006e-06 -3.89515e-07
3.65831e-06 -3.89515e-07 -4.87748e-05
0.00224166 -0.000281984 1.3467e-06
-0.000281984 2.01037e-05 -1.17745e-06
1.3467e-06 -1.17745e-06 -6.31241e-05
0.00229742 -0.000172114 6.50761e-06
-0.000172114 6.56192e-05 -6.48991e-07
6.50761e-06 -6.48991e-07 6.28834e-05
0.00228698 -0.000397895 3.25496e-06
-0.000397895 1.92271e-05 -8.35625e-07
3.25496e-06 -8.35625e-07 -2.77821e-05
0.0024142 -0.000649983 2.06513e-06
-0.000649983 0.00014427 -9.643e-07
2.06513e-06 -9.643e-07 -1.2722e-05
0.00253125 -0.000545756 1.21851e-06
-0.000545756 0.00010167 -7.37556e-09
1.21851e-06 -7.37556e-09 5.95597e-05
0.00145052 -0.000513601 1.12876e-05
-0.000513601 0.000379975 -6.62256e-06
1.12876e-05 -6.62256e-06 -8.71123e-05
0.00251438 -0.000789382 1.91201e-06
-0.000789382 0.000176541 -1.65025e-06
1.91201e-06 -1.65025e-06 1.21302e-05
0.00226242 -0.00107376 -8.06764e-07
-0.00107376 0.000542922 1.24124e-06
-8.06764e-07 1.24124e-06 -0.00012411
0.00267978 -0.001041 9.08273e-06
-0.001041 0.000581447 1.33239e-06
9.08273e-06 1.33239e-06 4.98236e-05
0.00274027 -0.000935527 5.37641e-06
-0.000935527 0.000553681 -2.75032e-06
5.37641e-06 -2.75032e-06 0.000170456
0.00257395 -0.000914246 5.42286e-06
-0.000914246 0.0002407 -2.69735e-06
5.42286e-06 -2.69735e-06 1.41637e-05
-0.0012731 -8.83801e-05 8.07308e-06
-8.83801e-05 -0.00101463 -9.49118e-08
8.07308e-06 -9.49118e-08 -0.00133573
0.002039 -0.000773276 7.80576e-07
-0.000773276 0.000832887 9.72295e-06
7.80576e-07 9.72295e-06 0.000187129
-3.37292e-05 -0.00033476 2.38758e-05
-0.00033476 -4.4908e-05 6.19678e-06
2.38758e-05 6.19678e-06 -0.000584334
0.00147217 -0.000754744 2.10256e-05
-0.000754744 0.000602821 2.11271e-05
2.10256e-05 2.11271e-05 -7.85744e-05
0.00166204 0.000412781 -1.03593e-05
0.000412781 2.64452e-05 -3.46605e-06
-1.03593e-05 -3.46605e-06 -0.000215305
0.0003136 0.000151837 -1.79928e-05
0.000151837 -0.000149906 -2.1562e-05
-1.79928e-05 -2.1562e-05 -0.000277307
0.000574745 0.00024017 -2.46355e-05
0.00024017 -4.18214e-05 -2.58952e-05
-2.46355e-05 -2.58952e-05 -0.000211344
0.00194761 0.000336456 -9.73715e-07
0.000336456 0.00092093 1.17494e-05
-9.73715e-07 1.17494e-05 0.000624014
0.00171104 0.000544297 -1.92963e-05
0.000544297 0.000126651 -5.67287e-06
-1.92963e-05 -5.67287e-06 -0.000208549
0.00246597 0.00070296 -2.22825e-06
0.00070296 0.000322354 1.4879e-06
-2.22825e-06 1.4879e-06 3.2024e-05
0.000743673 0.000421337 -1.55267e-05
0.000421337 -7.65489e-05 -9.25172e-06
-1.55267e-05 -9.25172e-06 -0.000485234
0.00216492 0.00106275 5.78908e-06
0.00106275 0.00047422 7.59322e-06
5.78908e-06 7.59322e-06 -0.000191933
0.00253507 0.000889653 6.36769e-06
0.000889653 0.000530223 6.69924e-06
6.36769e-06 6.69924e-06 8.69564e-05
0.00199942 0.00088493 1.05123e-05
0.00088493 6.76335e-05 1.51423e-05
1.05123e-05 1.51423e-05 -0.000383488
0.000406304 9.15046e-05 -1.94328e-06
9.15046e-05 -2.6182e-05 5.49495e-07
-1.94328e-06 5.49495e-07 -0.000146905
0.00119489 0.000409701 -6.55847e-06
0.000409701 0.000406634 4.55107e-06
-6.55847e-06 4.55107e-06 4.8932e-05
3.16596e-06 0.000248604 3.54963e-06
0.000248604 -0.000247431 -1.93675e-06
3.54963e-06 -1.93675e-06 -0.000587718
0.000578976 0.000322605 -4.03052e-06
0.000322605 4.4724e-05 9.74493e-06
-4.03052e-06 9.74493e-06 -0.000322267
0.00239854 0.000609057 -1.09853e-06
0.000609057 0.000219243 -7.00004e-07
-1.09853e-06 -7.00004e-07 -1.49897e-06
0.00240812 0.000791904 -1.26034e-06
0.000791904 0.00035792 -3.92248e-07
-1.26034e-06 -3.92248e-07 -9.45978e-06
0.00250373 0.000764707 2.9867e-07
0.000764707 0.00025416 1.43457e-07
2.9867e-07 1.43457e-07 3.51281e-06
0.00212694 0.00102628 3.78159e-07
0.00102628 0.000736521 -1.93469e-06
3.78159e-07 -1.93469e-06 -1.14995e-05
0.00265305 0.000967621 1.2524e-06
0.000967621 0.000526858 4.89091e-07
1.2524e-06 4.89091e-07 9.96861e-05
0.00259483 0.00119482 -1.42816e-06
0.00119482 0.000698022 -3.14159e-06
-1.42816e-06 -3.14159e-06 -6.31565e-06
0.00259398 0.000906245 -9.01228e-06
0.000906245 0.000377942 3.22635e-06
-9.01228e-06 3.22635e-06 -4.11476e-05
0.000715044 8.15169e-05 9.95608e-06
8.15169e-05 0.000177243 1.76954e-05
9.95608e-06 1.76954e-05 8.82783e-05
0.0016644 0.000219797 -2.05895e-06
0.000219797 0.00087216 1.44082e-05
-2.05895e-06 1.44082e-05 0.000563224
0.00026724 0.000638145 -6.77479e-06
0.000638145 -0.000182955 -1.3475e-05
-6.77479e-06 -1.3475e-05 -0.000753407
0.000907056 0.000444818 1.19054e-05
0.000444818 0.000312059 -8.61573e-07
1.19054e-05 -8.61573e-07 -5.33541e-05
0.00169233 0.000334549 2.21141e-06
0.000334549 0.000598801 1.47395e-05
2.21141e-06 1.47395e-05 0.000223531
0.00251011 0.000647151 1.47543e-06
0.000647151 0.000177438 1.64641e-07
1.47543e-06 1.64641e-07 2.47505e-05
0.00242014 0.00087209 -1.81969e-06
0.00087209 0.000279225 -6.0489e-08
-1.81969e-06 -6.0489e-08 -6.83348e-05
0.00256632 0.000835126 -1.7774e-06
0.000835126 0.000229367 5.15551e-07
-1.7774e-06 5.15551e-07 -3.77535e-08
0.00250125 0.00136138 -2.15052e-06
0.00136138 0.000982591 -1.07012e-05
-2.15052e-06 -1.07012e-05 7.88128e-05
0.00288197 0.0010153 -6.06808e-06
0.0010153 0.000563403 -9.35691e-07
-6.06808e-06 -9.35691e-07 0.000152711
0.00212189 0.0012362 6.76028e-06
0.0012362 0.000288665 -5.47085e-06
6.76028e-06 -5.47085e-06 -0.000412751
0.000885836 0.000172884 -2.39467e-07
0.000172884 0.00036346 1.14523e-05
-2.39467e-07 1.14523e-05 0.000160905
0.000847411 0.000219414 -9.68983e-06
0.000219414 0.000490318 4.83332e-06
-9.68983e-06 4.83332e-06 0.000187958
0.00086492 0.000130445 -1.96689e-06
0.000130445 0.000354798 4.80809e-06
-1.96689e-06 4.80809e-06 0.000222242
0.000421756 7.01591e-05 -3.09743e-06
7.01591e-05 6.04205e-05 -1.32113e-07
-3.09743e-06 -1.32113e-07 -9.70444e-05
0.00176902 1.89596e-05 1.54417e-06
1.89596e-05 0.00090236 9.04532e-06
1.54417e-06 9.04532e-06 0.000850106
0.0010653 4.63453e-05 -1.23713e-06
4.63453e-05 0.000430783 -2.00397e-07
-1.23713e-06 -2.00397e-07 0.000362635
0.00119755 1.45474e-06 9.86307e-05
1.45474e-06 0.000515473 1.89813e-05
9.86307e-05 1.89813e-05 0.000505133
0.00467736 -0.000153106 1.55353e-05
-0.000153106 0.0028666 -1.92944e-06
1.55353e-05 -1.92944e-06 0.0028486
0.00527019 -0.000224253 -9.18993e-05
-0.000224253 0.00329165 -1.49506e-05
-9.18993e-05 -1.49506e-05 0.00325309
0.000481368 -0.000159724 3.36507e-05
-0.000159724 4.01684e-05 -9.60704e-06
3.36507e-05 -9.60704e-06 -4.60428e-05
0.0048705 0.000156928 0.000110393
0.000156928 0.00302684 -1.7138e-05
0.000110393 -1.7138e-05 0.0030005
0.000522089 -0.000211904 -1.05982e-06
-0.000211904 4.64989e-05 2.21029e-06
-1.05982e-06 2.21029e-06 -9.29393e-05
0.00764894 1.43434e-05 1.8704e-06
1.43434e-05 0.0048275 2.03366e-06
1.8704e-06 2.03366e-06 0.0048247
0.000291542 -0.000289262 -2.68065e-05
-0.000289262 -0.000197409 2.45918e-05
-2.68065e-05 2.45918e-05 -0.000370828
0.00919918 -5.8142e-05 -0.000388497
-5.8142e-05 0.00578159 5.08421e-05
-0.000388497 5.08421e-05 0.005796
0.00168521 0.000327232 -7.47249e-06
0.000327232 3.09638e-05 -2.07892e-06
-7.47249e-06 -2.07892e-06 -0.000166209
0.00161152 0.000180418 -4.97106e-06
0.000180418 -1.20951e-05 -1.10171e-06
-4.97106e-06 -1.10171e-06 -0.000151114
0.00238683 0.000374483 -4.41826e-06
0.000374483 0.000135819 -8.98371e-07
-4.41826e-06 -8.98371e-07 3.33968e-05
0.0024052 0.000174662 -3.63784e-06
0.000174662 0.000127239 -5.12658e-07
-3.63784e-06 -5.12658e-07 8.06218e-05
0.00154611 6.42137e-05 -4.91807e-06
6.42137e-05 -4.83818e-05 -7.85643e-07
-4.91807e-06 -7.85643e-07 -0.000165273
0.000178997 2.61592e-05 -1.4878e-05
2.61592e-05 -0.000352591 -1.56043e-06
-1.4878e-05 -1.56043e-06 -0.000442629
0.00152336 8.68087e-07 -3.53177e-08
8.68087e-07 -6.11858e-05 -2.6718e-08
-3.53177e-08 -2.6718e-08 -0.000176141
0.00239092 8.4492e-05 -1.28168e-07
8.4492e-05 0.000111697 1.04407e-07
-1.28168e-07 1.04407e-07 7.54685e-05
0.00238972 0.000271962 1.59534e-08
0.000271962 0.000128626 1.40431e-07
1.59534e-08 1.40431e-07 5.98053e-05
0.00220442 0.000175883 -3.51923e-07
0.000175883 -4.05188e-05 -6.73928e-08
-3.51923e-07 -6.73928e-08 -2.30362e-05
0.00238834 0.000493616 -5.53606e-07
0.000493616 0.000169618 2.39603e-07
-5.53606e-07 2.39603e-07 1.63034e-05
0.00227054 0.000359386 -8.73569e-08
0.000359386 8.60728e-06 1.42303e-07
-8.73569e-08 1.42303e-07 -3.14281e-05
0.00238559 -5.18356e-06 3.66736e-06
-5.18356e-06 0.000110389 2.31292e-08
3.66736e-06 2.31292e-08 7.50283e-05
0.00216837 8.26797e-05 2.46549e-06
8.26797e-05 -6.52368e-05 1.31386e-07
2.46549e-06 1.31386e-07 -3.65821e-05
0.002219 0.000255383 4.45284e-06
0.000255383 -1.51895e-05 7.32337e-07
4.45284e-06 7.32337e-07 -2.67605e-05
0.00232665 0.000176524 1.08047e-06
0.000176524 -6.22414e-05 7.29283e-08
1.08047e-06 7.29283e-08 -7.36472e-06
0.00241472 0.000509808 2.92358e-06
0.000509808 8.16168e-05 7.07201e-07
2.92358e-06 7.07201e-07 4.48925e-06
0.00239903 0.000391537 6.29881e-08
0.000391537 -6.34798e-05 -5.60357e-07
6.29881e-08 -5.60357e-07 -3.59361e-05
0.00166924 -5.59802e-05 -6.69557e-06
-5.59802e-05 3.53146e-05 3.09425e-07
-6.69557e-06 3.09425e-07 -6.77141e-05
0.00209971 -0.000206339 -2.22561e-05
-0.000206339 0.000314797 2.7485e-06
-2.22561e-05 2.7485e-06 0.000186309
0.00222233 -0.000179346 2.27781e-06
-0.000179346 -1.53147e-06 -1.141e-07
2.27781e-06 -1.141e-07 -6.10556e-05
0.00230292 -0.000392287 -1.08479e-06
-0.000392287 0.000132509 1.23183e-06
-1.08479e-06 1.23183e-06 -6.84139e-07
8.75021e-05 -0.000305289 -2.35049e-05
-0.000305289 -0.000364089 3.13782e-05
-2.35049e-05 3.13782e-05 -0.00058413
0.00162255 -0.000658386 -4.23913e-06
-0.000658386 0.000322137 4.59945e-06
-4.23913e-06 4.59945e-06 -0.000182135
0.0023112 -0.000960343 6.38307e-06
-0.000960343 0.000420385 -2.05396e-06
6.38307e-06 -2.05396e-06 -0.000137707
0.00235829 -0.00058984 1.7582e-07
-0.00058984 0.000234701 -3.74243e-07
1.7582e-07 -3.74243e-07 -1.24907e-06
0.00233999 -0.000511316 -2.75234e-06
-0.000511316 5.34753e-05 5.71741e-07
-2.75234e-06 5.71741e-07 -3.2829e-05
0.00236581 -0.000732923 -9.2265e-07
-0.000732923 0.000187676 1.97296e-06
-9.2265e-07 1.97296e-06 -4.86748e-05
0.00263227 -0.000905722 3.2203e-06
-0.000905722 0.000514583 -2.69656e-06
3.2203e-06 -2.69656e-06 0.000110226
0.00233649 -0.000868508 -2.15942e-06
-0.000868508 0.000149884 3.2581e-06
-2.15942e-06 3.2581e-06 -0.000122061
0.000555569 -0.000399848 -7.43559e-06
-0.000399848 -5.49003e-05 -2.95693e-06
-7.43559e-06 -2.95693e-06 -0.000498626
0.00115861 -0.000405172 -1.17953e-05
-0.000405172 0.000408427 -1.35424e-05
-1.17953e-05 -1.35424e-05 -6.49296e-05
0.000274448 -0.000251231 7.3228e-07
-0.000251231 5.39417e-05 2.0476e-06
7.3228e-07 2.0476e-06 -0.000326273
0.00231343 -9.02497e-05 3.89171e-06
-9.02497e-05 7.05903e-05 -1.27517e-07
3.89171e-06 -1.27517e-07 2.14986e-05
0.00219197 -0.000285569 2.09161e-06
-0.000285569 -1.04598e-05 -6.54276e-07
2.09161e-06 -6.54276e-07 -9.29992e-05
0.00225514 -0.000166137 -1.86276e-07
-0.000166137 1.7606e-05 9.9614e-08
-1.86276e-07 9.9614e-08 2.35959e-05
0.0023527 -0.000393271 -3.38431e-07
-0.000393271 7.21357e-05 -2.0282e-09
-3.38431e-07 -2.0282e-09 2.19939e-05
0.00105327 -0.000516436 -2.78705e-06
-0.000516436 0.000107171 -1.18149e-06
-2.78705e-06 -1.18149e-06 -0.000374497
0.00249137 -0.00111884 1.94345e-06
-0.00111884 0.00069205 -3.72988e-07
1.94345e-06 -3.72988e-07 9.09171e-06
0.00243961 -0.00101932 1.2466e-06
-0.00101932 0.000422377 2.09371e-06
1.2466e-06 2.09371e-06 -0.000113201
0.00242145 -0.000646052 -5.99484e-07
-0.000646052 0.000163648 3.26258e-07
-5.99484e-07 3.26258e-07 2.3131e-07
0.00249252 -0.000547821 6.1894e-08
-0.000547821 6.1641e-05 -1.31005e-08
6.1894e-08 -1.31005e-08 2.52315e-05
0.00263772 -0.000925197 -8.31305e-07
-0.000925197 0.000479005 -1.38039e-07
-8.31305e-07 -1.38039e-07 9.56375e-05
0.00251302 -0.000790088 -6.67295e-07
-0.000790088 0.000173758 2.14806e-07
-6.67295e-07 2.14806e-07 9.42841e-06
0.0025357 -0.000916077 1.47575e-06
-0.000916077 0.000206594 -3.97993e-07
1.47575e-06 -3.97993e-07 -1.22434e-05
0.00159905 -0.000751557 -3.5816e-06
-0.000751557 0.000580786 -2.19066e-06
-3.5816e-06 -2.19066e-06 -6.05015e-05
0.00140596 -0.000746845 -2.98286e-06
-0.000746845 0.000560451 1.10213e-07
-2.98286e-06 1.10213e-07 -0.000112304
0.000432464 -0.000103995 3.97194e-06
-0.000103995 8.00793e-05 1.07239e-06
3.97194e-06 1.07239e-06 -0.000216543
0.000457938 -0.000247183 3.17974e-06
-0.000247183 0.000128841 -7.41008e-06
3.17974e-06 -7.41008e-06 -0.000309764
0.00219326 -9.4958e-05 5.14458e-06
-9.4958e-05 -2.15546e-05 -3.86351e-07
5.14458e-06 -3.86351e-07 -9.65062e-06
0.00229142 -0.000275016 3.86456e-06
-0.000275016 2.56745e-05 -1.12509e-06
3.86456e-06 -1.12509e-06 9.19695e-06
0.00233207 -0.000175322 1.63649e-06
-0.000175322 -1.25282e-05 -3.09074e-07
1.63649e-06 -3.09074e-07 3.57421e-05
0.002452 -0.000433179 -1.10196e-06
-0.000433179 -2.18321e-05 5.85707e-07
-1.10196e-06 5.85707e-07 1.50648e-05
0.0024419 -0.000671796 -4.44981e-07
-0.000671796 7.10451e-05 1.60734e-07
-4.44981e-07 1.60734e-07 -2.58779e-05
0.0025799 -0.000590924 1.54644e-06
-0.000590924 1.83936e-05 -7.34278e-08
1.54644e-06 -7.34278e-08 5.35239e-06
0.0017969 -0.00104358 -5.82279e-06
-0.00104358 0.000475694 7.8635e-06
-5.82279e-06 7.8635e-06 -0.000257004
0.00263943 -0.000859733 2.0263e-06
-0.000859733 0.000153878 -4.28199e-07
2.0263e-06 -4.28199e-07 3.25749e-05
0.00250432 -0.00122043 2.00775e-06
-0.00122043 0.00065935 3.20877e-06
2.00775e-06 3.20877e-06 -5.2807e-05
0.00279093 -0.00106793 1.1555e-05
-0.00106793 0.000628135 -1.66172e-06
1.1555e-05 -1.66172e-06 0.000104441
0.00271561 -0.000964328 2.75829e-06
-0.000964328 0.000471081 -2.65414e-06
2.75829e-06 -2.65414e-06 0.000114321
0.00259258 -0.000985035 2.04145e-06
-0.000985035 0.000178405 -3.35805e-06
2.04145e-06 -3.35805e-06 -4.90843e-05
-0.000328531 -0.000260509 1.21339e-05
-0.000260509 -0.000524409 -8.9038e-06
1.21339e-05 -8.9038e-06 -0.000804275
-0.00227127 3.83561e-05 1.04086e-06
3.83561e-05 -0.00162742 1.54074e-06
1.04086e-06 1.54074e-06 -0.00209372
0.00161782 -0.00103882 1.78604e-05
-0.00103882 0.000582084 8.81666e-06
1.78604e-05 8.81666e-06 -0.000199172
0.00454406 -0.00090019 1.40592e-05
-0.00090019 0.00277164 1.65127e-05
1.40592e-05 1.65127e-05 0.0021763
0.00179463 -0.000978208 -5.01428e-06
-0.000978208 0.000838635 1.27975e-05
-5.01428e-06 1.27975e-05 1.67991e-05
-1.22819e-05 6.95858e-05 -8.05305e-06
6.95858e-05 -0.000288208 -1.97336e-05
-8.05305e-06 -1.97336e-05 -0.000405079
0.00243899 0.000615874 -3.57981e-06
0.000615874 0.000239931 -4.22606e-07
-3.57981e-06 -4.22606e-07 1.71243e-05
0.00103936 0.000155328 2.35703e-06
0.000155328 0.000388344 -6.10081e-06
2.35703e-06 -6.10081e-06 6.38388e-05
0.00134522 0.000443248 -1.00402e-05
0.000443248 0.000465198 1.39813e-05
-1.00402e-05 1.39813e-05 0.000144238
0.00149186 0.000320863 -1.45193e-06
0.000320863 0.000596913 1.16386e-05
-1.45193e-06 1.16386e-05 0.000244284
0.00237315 0.000789891 1.25947e-06
0.000789891 0.00033219 3.61802e-06
1.25947e-06 3.61802e-06 -3.46373e-05
0.00250076 0.000763317 -1.04886e-06
0.000763317 0.000255044 -5.81737e-07
-1.04886e-06 -5.81737e-07 5.50636e-06
0.00168003 0.00104551 1.65332e-05
0.00104551 0.000453567 1.65475e-05
1.65332e-05 1.65475e-05 -0.000326887
0.00244669 0.00118067 6.72714e-06
0.00118067 0.00060556 8.44969e-06
6.72714e-06 8.44969e-06 -9.73483e-05
0.00264163 0.000961492 6.51275e-06
0.000961492 0.000532219 4.45448e-06
6.51275e-06 4.45448e-06 0.00010325
0.00294579 0.000915775 1.34064e-05
0.000915775 0.000639283 1.56512e-05
1.34064e-05 1.56512e-05 0.000228602
0.000495063 9.16077e-05 -2.95166e-06
9.16077e-05 3.78147e-05 4.01053e-07
-2.95166e-06 4.01053e-07 -4.76919e-05
0.000765431 0.00020944 -1.47926e-06
0.00020944 0.000313336 -7.44812e-07
-1.47926e-06 -7.44812e-07 -1.31863e-05
0.00107509 0.000667134 9.61194e-06
0.000667134 0.000318405 -4.38227e-06
9.61194e-06 -4.38227e-06 -0.000253537
0.000926945 0.000256551 -2.80041e-06
0.000256551 0.000315861 -4.31299e-06
-2.80041e-06 -4.31299e-06 -3.33387e-05
0.000631654 0.000372178 -2.38514e-06
0.000372178 -7.75204e-05 5.39249e-06
-2.38514e-06 5.39249e-06 -0.000493363
0.00248139 0.000644078 -6.02858e-07
0.000644078 0.000160345 -5.53341e-07
-6.02858e-07 -5.53341e-07 8.91878e-06
0.00247885 0.000875611 4.94382e-07
0.000875611 0.000322887 1.77561e-07
4.94382e-07 1.77561e-07 -2.4376e-05
0.00254523 0.000835358 1.22739e-06
0.000835358 0.000220267 5.11981e-07
1.22739e-06 5.11981e-07 -8.61578e-06
0.00255264 0.00136086 2.17985e-06
0.00136086 0.00103664 -7.00504e-07
2.17985e-06 -7.00504e-07 0.000138117
0.00286286 0.00101331 3.28608e-06
0.00101331 0.000522186 4.71232e-08
3.28608e-06 4.71232e-08 0.000110156
0.00282541 0.00131755 -6.17248e-06
0.00131755 0.000784478 8.36777e-07
-6.17248e-06 8.36777e-07 6.74341e-05
0.0009404 0.000205111 -6.33281e-07
0.000205111 0.000396444 1.1896e-05
-6.33281e-07 1.1896e-05 0.000151541
0.00228497 0.00058271 6.65993e-06
0.00058271 0.00135396 7.51923e-06
6.65993e-06 7.51923e-06 0.000902957
0.00137789 0.000943572 -9.90034e-07
0.000943572 0.000567412 -2.50668e-06
-9.90034e-07 -2.50668e-06 -0.000158056
0.0015854 0.000301741 1.11161e-05
0.000301741 0.000454842 -3.4104e-06
1.11161e-05 -3.4104e-06 0.000133676
0.00350232 0.000909025 3.09534e-06
0.000909025 0.00156334 2.41165e-06
3.09534e-06 2.41165e-06 0.000997561
0.00255437 0.000689205 -2.63652e-06
0.000689205 8.87999e-05 -1.15724e-06
-2.63652e-06 -1.15724e-06 -1.02029e-05
0.00260088 0.000955163 -3.16626e-06
0.000955163 0.000347632 1.11291e-06
-3.16626e-06 1.11291e-06 -3.83444e-06
0.00262808 0.000949345 -5.50996e-07
0.000949345 0.000224389 1.66497e-07
-5.50996e-07 1.66497e-07 -1.33006e-06
0.00191227 0.00138097 1.18502e-05
0.00138097 0.000695152 -3.51622e-06
1.18502e-05 -3.51622e-06 -0.000211104
0.00256721 0.00125299 1.72201e-05
0.00125299 0.0004766 -1.64593e-06
1.72201e-05 -1.64593e-06 -0.000153611
0.000639217 0.00014399 4.07409e-08
0.00014399 0.000204485 -4.61538e-07
4.07409e-08 -4.61538e-07 3.05658e-06
0.000157038 0.000271376 -7.62126e-06
0.000271376 -2.23596e-05 -2.08586e-06
-7.62126e-06 -2.08586e-06 -0.00033554
-0.000838163 0.000109045 7.28055e-07
0.000109045 -0.000607749 -2.43294e-06
7.28055e-07 -2.43294e-06 -0.000904467
0.00212318 0.00036484 -1.48459e-05
0.00036484 0.0013939 -9.1005e-07
-1.48459e-05 -9.1005e-07 0.00105517
0.00162259 0.000295527 -6.58234e-06
0.000295527 0.000977153 -1.08468e-06
-6.58234e-06 -1.08468e-06 0.000724644
0.000602519 0.000118312 -4.09444e-07
0.000118312 0.000189946 2.06946e-06
-4.09444e-07 2.06946e-06 7.14222e-05
0.00055326 6.62093e-05 -1.89509e-06
6.62093e-05 0.000152158 -2.79199e-07
-1.89509e-06 -2.79199e-07 2.23435e-05
0.00161525 3.01379e-05 1.62607e-06
3.01379e-05 0.000804863 6.65833e-06
1.62607e-06 6.65833e-06 0.000761407
0.000272069 7.75751e-05 6.62863e-06
7.75751e-05 -4.43748e-05 -7.31347e-06
6.62863e-06 -7.31347e-06 -0.000193266
0.00175066 1.79563e-05 -1.96716e-05
1.79563e-05 0.000889114 -2.54106e-06
-1.96716e-05 -2.54106e-06 0.000842737
0.000751276 -3.54702e-06 6.80043e-05
-3.54702e-06 0.000218965 1.44632e-05
6.80043e-05 1.44632e-05 0.000215154
0.00193424 5.03133e-05 -3.99853e-05
5.03133e-05 0.0010116 -1.24852e-05
-3.99853e-05 -1.24852e-05 0.00095405
0.00262226 -7.29887e-05 8.61629e-05
-7.29887e-05 0.00148331 1.84481e-06
8.61629e-05 1.84481e-06 0.00146919
0.00445443 -0.000166636 -7.44285e-05
-0.000166636 0.00272633 -1.19462e-05
-7.44285e-05 -1.19462e-05 0.00270393
0.000958773 2.26939e-05 3.05727e-06
2.26939e-05 0.000359425 -9.6804e-06
3.05727e-06 -9.6804e-06 0.000268537
0.000216301 -0.0001196 2.04128e-06
-0.0001196 -0.000129047 1.20202e-06
2.04128e-06 1.20202e-06 -0.00022741
0.00465801 0.000190701 5.9761e-05
0.000190701 0.00288989 -1.34764e-05
5.9761e-05 -1.34764e-05 0.00285216
0.00560579 8.56267e-05 -1.23523e-05
8.56267e-05 0.00350586 3.1605e-06
-1.23523e-05 3.1605e-06 0.00349298
0.00099341 -0.000209284 -2.06982e-05
-0.000209284 0.000348486 2.11193e-05
-2.06982e-05 2.11193e-05 0.000196016
0.00840914 -5.02757e-06 -0.00034317
-5.02757e-06 0.00532184 5.00844e-05
-0.00034317 5.00844e-05 0.00532208
0.00238081 0.00049753 -3.80495e-06
0.00049753 0.00015423 -2.57383e-07
-3.80495e-06 -2.57383e-07 -2.22289e-07
0.00240302 0.000272537 -3.81044e-06
0.000272537 0.000134133 -8.63926e-07
-3.81044e-06 -8.63926e-07 6.62479e-05
0.00227375 0.000361503 -3.88744e-06
0.000361503 1.47962e-05 -2.36059e-07
-3.88744e-06 -2.36059e-07 -2.69685e-05
0.00220083 0.000171263 -3.35232e-06
0.000171263 -5.28333e-05 -3.26691e-07
-3.35232e-06 -3.26691e-07 -2.81645e-05
0.00239845 8.33936e-05 -4.02177e-06
8.33936e-05 0.000118292 -1.72294e-07
-4.02177e-06 -1.72294e-07 8.23357e-05
0.00153337 6.39637e-06 -4.01435e-06
6.39637e-06 -5.62542e-05 -3.69191e-07
-4.01435e-06 -3.69191e-07 -0.000171205
0.00238224 -5.11791e-06 -1.01259e-08
-5.11791e-06 0.000109317 5.35018e-08
-1.01259e-08 5.35018e-08 7.3905e-05
0.00217155 7.47151e-05 -4.21912e-07
7.47151e-05 -6.02173e-05 -4.71201e-08
-4.21912e-07 -4.71201e-08 -3.3347e-05
0.00221522 0.000254864 -1.31551e-07
0.000254864 -2.01158e-05 7.25776e-08
-1.31551e-07 7.25776e-08 -3.1515e-05
0.00232011 0.000178723 1.43608e-07
0.000178723 -7.36851e-05 4.90811e-08
1.43608e-07 4.90811e-08 -1.17087e-05
0.00240978 0.00050826 1.45893e-07
0.00050826 7.87464e-05 -7.1777e-09
1.45893e-07 -7.1777e-09 3.36384e-06
0.00240515 0.000382151 2.37249e-07
0.000382151 -6.44137e-05 3.45479e-07
2.37249e-07 3.45479e-07 -3.16103e-05
0.00216923 -1.11735e-05 3.31371e-06
-1.11735e-05 -5.44396e-05 -1.76221e-07
3.31371e-06 -1.76221e-07 -2.90948e-05
0.00235792 7.52724e-05 4.15772e-07
7.52724e-05 -4.70804e-05 -3.67937e-07
4.15772e-07 -3.67937e-07 2.89987e-05
0.00234103 0.000254622 -8.12587e-07
0.000254622 -6.78861e-05 -4.69623e-07
-8.12587e-07 -4.69623e-07 -2.18272e-05
0.00245761 0.000189273 -1.17421e-08
0.000189273 -9.07132e-05 -3.4855e-07
-1.17421e-08 -3.4855e-07 1.97195e-05
0.00249014 0.00052388 -3.83667e-07
0.00052388 1.0814e-06 -4.86303e-07
-3.83667e-07 -4.86303e-07 -1.34016e-05
0.00249512 0.000374789 4.71759e-07
0.000374789 -0.000115773 -8.39233e-10
4.71759e-07 -8.39233e-10 -4.50979e-05
0.00237932 -8.70334e-05 -2.55153e-07
-8.70334e-05 0.000116227 8.5372e-08
-2.55153e-07 8.5372e-08 7.49737e-05
0.00216098 -0.000288872 2.95766e-06
-0.000288872 -3.00923e-05 1.04809e-07
2.95766e-06 1.04809e-07 -0.000111681
0.00220788 -0.000160147 -3.22905e-06
-0.000160147 -3.30805e-05 2.75706e-07
-3.22905e-06 2.75706e-07 -1.81053e-05
0.00241827 -0.000389278 -5.46991e-06
-0.000389278 0.00012548 1.65953e-06
-5.46991e-06 1.65953e-06 7.19136e-05
0.000762883 -0.000510138 -1.096e-05
-0.000510138 -8.87444e-05 3.88723e-06
-1.096e-05 3.88723e-06 -0.000578835
0.00281494 -0.00116009 8.31473e-07
-0.00116009 0.000926528 -1.31978e-06
8.31473e-07 -1.31978e-06 0.00023104
0.00217734 -0.00099105 1.25718e-06
-0.00099105 0.000252985 -2.34082e-07
1.25718e-06 -2.34082e-07 -0.000284536
0.00243826 -0.000642939 -4.41768e-06
-0.000642939 0.000189634 1.8297e-06
-4.41768e-06 1.8297e-06 1.94744e-05
0.00245484 -0.000549548 4.07794e-08
-0.000549548 2.30268e-05 -4.8847e-07
4.07794e-08 -4.8847e-07 -8.33799e-06
0.00250863 -0.000791295 -1.96004e-06
-0.000791295 0.000167858 1.71241e-06
-1.96004e-06 1.71241e-06 3.42277e-06
0.00254253 -0.000919561 -4.1943e-06
-0.000919561 0.000406873 2.67683e-06
-4.1943e-06 2.67683e-06 2.12505e-05
0.00252443 -0.000926866 -2.79965e-06
-0.000926866 0.000187404 1.3121e-06
-2.79965e-06 1.3121e-06 -2.76898e-05
0.00133368 -0.000729263 -2.51348e-06
-0.000729263 0.000404119 -1.46903e-05
-2.51348e-06 -1.46903e-05 -0.000233455
0.0020676 -0.000798618 -2.752e-05
-0.000798618 0.000974708 -1.29569e-05
-2.752e-05 -1.29569e-05 0.000296381
0.00215329 -0.000117635 3.96555e-06
-0.000117635 0.00120375 6.90905e-06
3.96555e-06 6.90905e-06 0.000910974
-0.000449926 -9.12495e-05 -1.37399e-05
-9.12495e-05 -0.000535522 -8.87588e-06
-1.37399e-05 -8.87588e-06 -0.000900781
0.00219267 -9.43875e-05 -1.13906e-07
-9.43875e-05 -2.30434e-05 2.63494e-08
-1.13906e-07 2.63494e-08 -1.12604e-05
0.00232791 -0.000277543 1.23912e-06
-0.000277543 5.32086e-05 -1.80619e-07
1.23912e-06 -1.80619e-07 3.58185e-05
0.00229607 -0.000172778 -4.50688e-09
-0.000172778 -4.24173e-05 -9.5097e-08
-4.50688e-09 -9.5097e-08 9.88913e-06
0.00241634 -0.000431822 -2.99746e-07
-0.000431822 -3.8117e-05 2.83105e-07
-2.99746e-07 2.83105e-07 -9.93384e-06
0.00216978 -0.00103162 -1.2836e-06
-0.00103162 0.000712315 -5.62216e-07
-1.2836e-06 -5.62216e-07 -7.03067e-06
0.00238885 -0.00120849 2.36644e-06
-0.00120849 0.000573628 2.99363e-07
2.36644e-06 2.99363e-07 -0.000137857
0.00274453 -0.00107797 -8.11154e-07
-0.00107797 0.000595878 7.4586e-07
-8.11154e-07 7.4586e-07 6.37145e-05
0.00248113 -0.000674149 -9.60044e-07
-0.000674149 0.000106419 2.19898e-07
-9.60044e-07 2.19898e-07 2.22535e-06
0.00255245 -0.000587714 6.88135e-07
-0.000587714 7.87918e-07 -5.29821e-07
6.88135e-07 -5.29821e-07 -1.56901e-06
0.00270889 -0.000972095 -1.87814e-06
-0.000972095 0.000475858 6.22567e-07
-1.87814e-06 6.22567e-07 0.00011291
0.00264777 -0.00086402 -1.1693e-06
-0.00086402 0.00015216 6.14745e-07
-1.1693e-06 6.14745e-07 2.9345e-05
0.00261529 -0.00098013 7.84296e-06
-0.00098013 0.000191552 -2.67397e-06
7.84296e-06 -2.67397e-06 -2.71833e-05
0.00198959 -0.00109943 6.07126e-07
-0.00109943 0.000840923 -9.29665e-07
6.07126e-07 -9.29665e-07 2.31837e-05
0.00210662 -0.0010137 -5.90717e-06
-0.0010137 0.00103008 -1.16617e-06
-5.90717e-06 -1.16617e-06 0.000209768
0.00105135 -0.000591019 -4.45083e-06
-0.000591019 0.000541412 3.52533e-06
-4.45083e-06 3.52533e-06 -3.39956e-05
4.84705e-06 -0.000193299 -6.65495e-06
-0.000193299 -0.000245863 1.03846e-06
-6.65495e-06 1.03846e-06 -0.000544574
0.00019782 7.06632e-05 -4.93081e-06
7.06632e-05 -1.90043e-05 -1.92258e-06
-4.93081e-06 -1.92258e-06 -0.000461575
0.00231875 -0.0001091 -4.58414e-07
-0.0001091 -6.469e-05 6.85446e-08
-4.58414e-07 6.85446e-08 6.88766e-06
0.00237543 -0.000262501 -1.298e-06
-0.000262501 -7.73737e-05 -2.06902e-07
-1.298e-06 -2.06902e-07 -8.92188e-06
0.00258544 -0.000526801 9.15463e-08
-0.000526801 -9.37182e-05 3.86832e-08
9.15463e-08 3.86832e-08 -7.54521e-06
0.00256733 -0.000719585 1.49511e-06
-0.000719585 2.65071e-05 4.12061e-07
1.49511e-06 4.12061e-07 -1.79204e-05
0.00253095 -0.00134519 -6.80167e-08
-0.00134519 0.000952038 -4.3932e-07
-6.80167e-08 -4.3932e-07 0.000101773
0.00277758 -0.000993407 1.44619e-07
-0.000993407 0.000130566 -2.03461e-06
1.44619e-07 -2.03461e-06 -2.02664e-05
0.00185307 -0.0011965 -1.44919e-06
-0.0011965 0.00025983 5.89859e-06
-1.44919e-06 5.89859e-06 -0.000455204
0.00288498 -0.00114158 -3.89326e-07
-0.00114158 0.000673893 -9.57594e-07
-3.89326e-07 -9.57594e-07 0.000139364
0.00264721 -0.00100577 -1.02063e-05
-0.00100577 0.000346144 -3.7472e-06
-1.02063e-05 -3.7472e-06 3.04857e-05
-0.000101437 -0.000189549 -1.50942e-06
-0.000189549 -0.000226783 3.7607e-06
-1.50942e-06 3.7607e-06 -0.000502999
0.00385138 -0.000447735 -4.34221e-06
-0.000447735 0.00237586 1.35931e-06
-4.34221e-06 1.35931e-06 0.00192034
-0.000916679 -0.000206307 -9.77037e-06
-0.000206307 -0.000826034 8.65582e-06
-9.77037e-06 8.65582e-06 -0.00122828
0.00279188 -0.00132011 -1.19017e-05
-0.00132011 0.00136732 9.7326e-06
-1.19017e-05 9.7326e-06 0.000454096
0.00371698 -0.000904111 2.83472e-06
-0.000904111 0.002109 1.01691e-05
2.83472e-06 1.01691e-05 0.00145912
0.00205383 -0.00106094 -1.77968e-05
-0.00106094 0.000955241 1.76262e-05
-1.77968e-05 1.76262e-05 9.94814e-05
0.000316988 9.71838e-05 -1.2999e-05
9.71838e-05 -7.68426e-05 -1.72615e-05
-1.2999e-05 -1.72615e-05 -0.000157961
7.95722e-05 0.000232498 -1.47774e-06
0.000232498 -0.000112838 -1.52699e-05
-1.47774e-06 -1.52699e-05 -0.000455133
0.00245064 0.000640738 -3.60016e-06
0.000640738 0.000142419 -1.64844e-06
-3.60016e-06 -1.64844e-06 -7.67764e-06
-0.000513596 -2.53159e-05 -6.38335e-06
-2.53159e-05 -0.000547084 -1.42059e-06
-6.38335e-06 -1.42059e-06 -0.000932832
0.00299551 0.000746634 1.88786e-05
0.000746634 0.00150043 6.4311e-07
1.88786e-05 6.4311e-07 0.00093215
-0.000215546 0.000432107 -1.53609e-05
0.000432107 -0.000621763 -3.33287e-06
-1.53609e-05 -3.33287e-06 -0.00109469
0.00253278 0.000877917 1.13341e-06
0.000877917 0.000365707 -4.41909e-07
1.13341e-06 -4.41909e-07 1.90972e-05
0.00252294 0.000835936 2.10809e-06
0.000835936 0.000209135 -1.25098e-07
2.10809e-06 -1.25098e-07 -1.93177e-05
0.00294319 0.00140027 7.08419e-06
0.00140027 0.00131426 8.03319e-06
7.08419e-06 8.03319e-06 0.000408784
0.00355725 0.00139374 -6.32275e-06
0.00139374 0.00129514 6.04206e-06
-6.32275e-06 6.04206e-06 0.000566741
0.0028409 0.00101508 3.244e-06
0.00101508 0.000474774 1.25677e-06
3.244e-06 1.25677e-06 5.98222e-05
0.000852302 0.000202426 6.14498e-08
0.000202426 0.000350635 -1.29065e-07
6.14498e-08 -1.29065e-07 9.76052e-05
0.000984867 0.000365892 -4.34838e-06
0.000365892 0.000518202 -6.43936e-07
-4.34838e-06 -6.43936e-07 8.05557e-05
0.00169522 0.0010129 3.61129e-07
0.0010129 0.000739741 -1.01696e-07
3.61129e-07 -1.01696e-07 -3.02882e-05
0.000919452 0.000274273 -5.33586e-07
0.000274273 3.96825e-05 -9.5153e-07
-5.33586e-07 -9.5153e-07 -0.000290579
0.00152406 0.000714869 8.62258e-07
0.000714869 0.000207671 -5.19512e-06
8.62258e-07 -5.19512e-06 -0.000310945
0.00254775 0.00068764 -1.98577e-06
0.00068764 9.82784e-05 -1.10325e-06
-1.98577e-06 -1.10325e-06 -2.49519e-06
0.00263807 0.000963521 2.61953e-06
0.000963521 0.000349223 5.51881e-07
2.61953e-06 5.51881e-07 -4.73996e-06
0.00269553 0.000955879 1.0718e-06
0.000955879 0.000233769 1.16052e-06
1.0718e-06 1.16052e-06 1.438e-05
0.00238106 0.00146889 2.63648e-06
0.00146889 0.000957276 1.27993e-06
2.63648e-06 1.27993e-06 3.10732e-05
0.00253572 0.0012736 -2.82393e-06
0.0012736 0.000502707 -3.84393e-06
-2.82393e-06 -3.84393e-06 -0.000147565
0.00172085 0.000545592 4.46152e-06
0.000545592 0.00096843 4.77508e-06
4.46152e-06 4.77508e-06 0.00058865
-0.00106307 0.000368381 1.80392e-06
0.000368381 -0.000832561 -7.35453e-06
1.80392e-06 -7.35453e-06 -0.00129239
0.00209799 0.00118003 2.69122e-06
0.00118003 0.00095868 -3.45102e-06
2.69122e-06 -3.45102e-06 0.000158502
-0.00222924 0.000579609 1.65178e-05
0.000579609 -0.00204348 -2.04369e-06
1.65178e-05 -2.04369e-06 -0.0025652
0.00282722 0.00116969 7.38484e-06
0.00116969 0.000951527 -4.13559e-06
7.38484e-06 -4.13559e-06 0.0002921
0.00270917 0.000810614 -2.40206e-06
0.000810614 3.44918e-05 -1.01426e-07
-2.40206e-06 -1.01426e-07 2.73625e-06
0.00271654 0.00103522 9.49063e-06
0.00103522 0.000323318 -2.20937e-06
9.49063e-06 -2.20937e-06 -6.649e-05
0.0023996 0.00090555 7.03379e-06
0.00090555 -3.78884e-05 9.59581e-07
7.03379e-06 9.59581e-07 -0.000271792
0.00282144 0.00155056 2.48294e-05
0.00155056 0.0011175 6.68414e-06
2.48294e-05 6.68414e-06 0.000204988
0.00287733 0.00152204 1.25492e-05
0.00152204 0.000812397 1.04874e-06
1.25492e-05 1.04874e-06 3.22029e-05
0.000402528 0.00010626 7.76059e-06
0.00010626 4.82242e-05 -1.10824e-05
7.76059e-06 -1.10824e-05 -0.000147879
0.000862086 0.000275361 -1.76534e-06
0.000275361 0.000423336 7.31162e-07
-1.76534e-06 7.31162e-07 0.000118977
-0.000343172 0.000137919 -9.00095e-06
0.000137919 -0.000361425 -2.62838e-05
-9.00095e-06 -2.62838e-05 -0.00056775
-0.00140152 -4.23473e-05 1.17321e-05
-4.23473e-05 -0.00102275 -2.22329e-06
1.17321e-05 -2.22329e-06 -0.00127015
0.000605718 0.000141261 -2.74486e-06
0.000141261 0.000281317 2.10427e-07
-2.74486e-06 2.10427e-07 6.26804e-05
-0.000173779 0.000112744 5.48841e-06
0.000112744 -0.000156639 1.10208e-06
5.48841e-06 1.10208e-06 -0.000425346
0.000976718 0.000274635 -3.39599e-06
0.000274635 0.000629702 -1.01245e-06
-3.39599e-06 -1.01245e-06 0.000369918
0.000333727 -1.78389e-06 -1.32633e-05
-1.78389e-06 0.000159322 6.42957e-06
-1.32633e-05 6.42957e-06 -9.23829e-05
0.000926869 0.000160082 -3.98482e-06
0.000160082 0.000453342 -2.67984e-06
-3.98482e-06 -2.67984e-06 0.000280549
0.0004949 0.000106462 8.84968e-07
0.000106462 0.000109801 2.58863e-06
8.84968e-07 2.58863e-06 -2.08426e-06
0.000404795 4.93365e-05 -3.23362e-06
4.93365e-05 4.76404e-05 2.29899e-07
-3.23362e-06 2.29899e-07 -6.17983e-05
0.00149698 8.7239e-06 1.4925e-06
8.7239e-06 0.000725619 5.1311e-06
1.4925e-06 5.1311e-06 0.000689911
-1.77539e-05 -7.77898e-05 1.00963e-05
-7.77898e-05 -0.00021838 -3.36548e-06
1.00963e-05 -3.36548e-06 -0.000343993
0.00157267 1.62491e-05 -1.70775e-05
1.62491e-05 0.000773329 -2.59878e-06
-1.70775e-05 -2.59878e-06 0.000735489
0.000728797 -3.57801e-06 5.3984e-05
-3.57801e-06 0.000205114 1.28836e-05
5.3984e-05 1.28836e-05 0.000203591
0.00168689 2.18462e-05 -2.57428e-05
2.18462e-05 0.000843528 -1.22137e-05
-2.57428e-05 -1.22137e-05 0.000802173
0.00074482 -2.60926e-05 2.90318e-05
-2.60926e-05 0.000216427 5.12966e-06
2.90318e-05 5.12966e-06 0.000204221
0.00384956 -0.000176371 1.80711e-05
-0.000176371 0.0023117 -7.36229e-06
1.80711e-05 -7.36229e-06 0.00228643
0.000430304 0.000116911 -3.3478e-06
0.000116911 6.90922e-05 -1.04204e-05
-3.3478e-06 -1.04204e-05 -3.63519e-05
0.000411694 -5.60149e-05 -8.31253e-06
-5.60149e-05 4.29744e-06 -1.56567e-06
-8.31253e-06 -1.56567e-06 -9.36968e-05
0.0042207 0.000258976 -3.80004e-05
0.000258976 0.00261343 -1.65156e-05
-3.80004e-05 -1.65156e-05 0.00256169
0.000500536 -0.000166788 -1.62955e-05
-0.000166788 5.35492e-05 1.39284e-05
-1.62955e-05 1.39284e-05 -5.30367e-05
0.00442244 0.000166537 -2.09869e-05
0.000166537 0.00273985 -6.24401e-07
-2.09869e-05 -6.24401e-07 0.00270915
0.00629672 7.03956e-05 -0.00025708
7.03956e-05 0.00399749 4.99533e-05
-0.00025708 4.99533e-05 0.00397378
0.00240647 0.000506776 -3.7737e-06
0.000506776 7.69221e-05 -1.01749e-06
-3.7737e-06 -1.01749e-06 3.27095e-06
0.00221482 0.000254014 -4.20917e-06
0.000254014 -2.15479e-05 -4.41697e-07
-4.20917e-06 -4.41697e-07 -3.28044e-05
0.002412 0.000373052 9.74665e-07
0.000373052 -6.52443e-05 8.99547e-07
9.74665e-07 8.99547e-07 -2.70487e-05
0.00231386 0.000181435 1.23306e-06
0.000181435 -8.47723e-05 3.73631e-07
1.23306e-06 3.73631e-07 -1.54962e-05
0.0021722 6.75669e-05 -3.45655e-06
6.75669e-05 -5.70533e-05 6.27694e-08
-3.45655e-06 6.27694e-08 -3.1983e-05
0.00237812 -5.44154e-06 -3.54854e-06
-5.44154e-06 0.000108266 1.4587e-07
-3.54854e-06 1.4587e-07 7.28468e-05
0.00217657 -1.2587e-05 2.55393e-07
-1.2587e-05 -4.44324e-05 -2.7832e-08
2.55393e-07 -2.7832e-08 -2.23391e-05
0.00233861 7.76155e-05 4.21587e-07
7.76155e-05 -5.57366e-05 2.87875e-08
4.21587e-07 2.87875e-08 1.54339e-05
0.00235865 0.00025506 -7.01799e-07
0.00025506 -4.96725e-05 -6.4758e-08
-7.01799e-07 -6.4758e-08 -5.90915e-06
0.00242361 0.000192007 6.03106e-07
0.000192007 -0.000118163 1.65892e-07
6.03106e-07 1.65892e-07 3.52005e-06
0.00250136 0.000527228 -2.86739e-07
0.000527228 1.11816e-05 1.0401e-09
-2.86739e-07 1.0401e-09 -6.81419e-06
0.00251699 0.000378854 1.81326e-06
0.000378854 -0.000101427 7.60516e-07
1.81326e-06 7.60516e-07 -1.95336e-05
0.00230621 -1.63174e-05 -1.10147e-06
-1.63174e-05 -7.31312e-05 -4.86224e-08
-1.10147e-06 -4.86224e-08 -3.08048e-06
0.00247079 9.54691e-05 -6.47333e-07
9.54691e-05 -0.000113536 -7.38581e-07
-6.47333e-07 -7.38581e-07 2.05868e-05
0.00251967 0.000268124 2.36044e-08
0.000268124 -9.83592e-05 -2.52342e-07
2.36044e-08 -2.52342e-07 2.76269e-05
0.00262959 0.000539553 -5.95278e-07
0.000539553 -0.00010698 2.60879e-07
-5.95278e-07 2.60879e-07 -1.38386e-05
0.00218969 -9.38793e-05 -5.10901e-06
-9.38793e-05 -2.65531e-05 5.13462e-07
-5.10901e-06 5.13462e-07 -1.4875e-05
0.00235661 -0.000280402 -4.11233e-06
-0.000280402 7.60438e-05 1.1658e-06
-4.11233e-06 1.1658e-06 5.76375e-05
0.00225599 -0.000171188 3.87342e-07
-0.000171188 -7.53891e-05 -3.1389e-07
3.87342e-07 -3.1389e-07 -1.91453e-05
0.00238622 -0.00043099 -1.73769e-06
-0.00043099 -5.16834e-05 -2.48197e-07
-1.73769e-06 -2.48197e-07 -3.23883e-05
0.00253908 -0.00105286 4.68754e-06
-0.00105286 0.000961713 -8.38808e-06
4.68754e-06 -8.38808e-06 0.000241033
0.00229041 -0.00120595 9.12173e-06
-0.00120595 0.000490119 -1.88005e-06
9.12173e-06 -1.88005e-06 -0.000223916
0.00269457 -0.00109197 -9.78207e-06
-0.00109197 0.000563785 9.82472e-07
-9.78207e-06 9.82472e-07 2.03501e-05
0.00252164 -0.000676379 -2.96834e-06
-0.000676379 0.000142569 1.14312e-06
-2.96834e-06 1.14312e-06 3.1789e-05
0.00252873 -0.0005853 1.80887e-06
-0.0005853 -1.42152e-05 -6.30159e-07
1.80887e-06 -6.30159e-07 -5.99424e-06
0.0026559 -0.000866959 -4.77577e-06
-0.000866959 0.000152922 1.66314e-06
-4.77577e-06 1.66314e-06 2.8761e-05
0.00266793 -0.000971925 -3.38109e-06
-0.000971925 0.000460547 3.50272e-06
-3.38109e-06 3.50272e-06 9.54481e-05
0.00261211 -0.000972575 1.88213e-07
-0.000972575 0.000186101 2.34964e-07
1.88213e-07 2.34964e-07 -2.44904e-05
0.00226743 -0.00112445 -2.05816e-05
-0.00112445 0.00103567 -7.89924e-06
-2.05816e-05 -7.89924e-06 0.000214305
0.00173329 -0.000954464 1.5552e-05
-0.000954464 0.000807223 -1.57864e-05
1.5552e-05 -1.57864e-05 1.84769e-05
-0.000729104 -0.000310666 -1.84808e-05
-0.000310666 -0.000606327 -8.2291e-06
-1.84808e-05 -8.2291e-06 -0.0011653
0.000399093 -0.000113761 -6.39313e-06
-0.000113761 4.3402e-05 2.12372e-06
-6.39313e-06 2.12372e-06 -0.000248505
0.00315712 2.38523e-05 9.71725e-07
2.38523e-05 0.00183807 -1.38715e-06
9.71725e-07 -1.38715e-06 0.00143698
0.00231166 -0.000117176 1.79241e-07
-0.000117176 -6.70149e-05 -8.35445e-08
1.79241e-07 -8.35445e-08 2.8046e-06
0.00238088 -0.000263914 1.80769e-06
-0.000263914 -7.55321e-05 -5.9384e-08
1.80769e-06 -5.9384e-08 -9.15376e-06
0.00255987 -0.000520559 -1.06111e-06
-0.000520559 -9.12402e-05 1.44006e-07
-1.06111e-06 1.44006e-07 -1.84314e-05
0.00265235 -0.00133826 -1.99597e-06
-0.00133826 0.00102923 9.80112e-08
-1.99597e-06 9.80112e-08 0.000186164
0.00196593 -0.00120463 5.3272e-06
-0.00120463 0.00032363 -4.03393e-07
5.3272e-06 -4.03393e-07 -0.000393128
0.00281862 -0.00115062 -1.49688e-06
-0.00115062 0.00063211 -7.07594e-07
-1.49688e-06 -7.07594e-07 8.61593e-05
0.00257641 -0.000710002 2.49795e-07
-0.000710002 4.06335e-05 -3.73634e-07
2.49795e-07 -3.73634e-07 -5.64058e-06
0.00265923 -0.00102578 5.5598e-06
-0.00102578 0.000334567 -2.87128e-06
5.5598e-06 -2.87128e-06 1.62336e-05
0.00278028 -0.000983695 -6.23267e-07
-0.000983695 0.000158217 -6.16086e-07
-6.23267e-07 -6.16086e-07 1.0527e-05
-0.000456599 -2.83187e-05 -3.29735e-06
-2.83187e-05 -0.000498596 -8.39844e-08
-3.29735e-06 -8.39844e-08 -0.000734365
0.002159 -0.00120323 8.05083e-07
-0.00120323 0.000972842 -4.90283e-07
8.05083e-07 -4.90283e-07 0.000104031
0.00226517 -0.00112451 -5.4829e-06
-0.00112451 0.00109795 3.68571e-06
-5.4829e-06 3.68571e-06 0.000199621
0.00218455 -0.000763563 3.78463e-06
-0.000763563 0.00119581 2.43275e-06
3.78463e-06 2.43275e-06 0.000526424
0.000653062 -0.000297789 -3.1307e-06
-0.000297789 0.000168901 3.72955e-08
-3.1307e-06 3.72955e-08 -0.000248321
0.00169064 -0.000194495 -3.41437e-06
-0.000194495 0.000918858 3.42284e-06
-3.41437e-06 3.42284e-06 0.000478001
0.00240813 -0.000150529 -1.61536e-06
-0.000150529 -0.000136219 3.31565e-07
-1.61536e-06 3.31565e-07 -1.69683e-05
0.00256845 -0.000347856 1.53993e-06
-0.000347856 -0.000169876 2.05854e-07
1.53993e-06 2.05854e-07 -8.74136e-06
0.0026932 -0.000657969 4.64069e-07
-0.000657969 -6.78927e-05 6.40209e-07
4.64069e-07 6.40209e-07 1.48916e-05
0.00272318 -0.000854462 7.36982e-07
-0.000854462 6.95658e-06 7.06099e-07
7.36982e-07 7.06099e-07 4.81766e-06
0.00272274 -0.00141813 -7.17307e-06
-0.00141813 0.00108986 7.34029e-06
-7.17307e-06 7.34029e-06 0.000216142
0.00278029 -0.00113059 -4.9741e-07
-0.00113059 0.000246315 -7.78541e-06
-4.9741e-07 -7.78541e-06 -2.87429e-05
0.00288504 -0.00146148 -4.74327e-05
-0.00146148 0.00089794 1.08216e-05
-4.74327e-05 1.08216e-05 9.57269e-05
0.0025182 -0.00119448 -3.19682e-05
-0.00119448 0.000447558 -2.57474e-07
-3.19682e-05 -2.57474e-07 -8.83948e-05
-0.000870827 -5.65543e-06 -1.87909e-06
-5.65543e-06 -0.000796041 -2.65122e-07
-1.87909e-06 -2.65122e-07 -0.000949563
0.00133842 -0.000224498 -3.04999e-06
-0.000224498 0.000839571 6.66974e-06
-3.04999e-06 6.66974e-06 0.000419894
0.00320368 -0.000508003 -1.54336e-05
-0.000508003 0.00189317 8.68419e-06
-1.54336e-05 8.68419e-06 0.00147559
0.000485655 -0.000360239 -1.33557e-08
-0.000360239 8.78593e-05 -4.50583e-06
-1.33557e-08 -4.50583e-06 -0.000344537
0.00275547 -0.00128177 -1.91668e-05
-0.00128177 0.00134172 2.69649e-05
-1.91668e-05 2.69649e-05 0.000445683
0.00219404 -0.00107503 -1.66052e-05
-0.00107503 0.0011014 2.15367e-05
-1.66052e-05 2.15367e-05 0.000183308
0.000240924 0.000159359 2.10326e-06
0.000159359 -2.7972e-05 -1.12872e-05
2.10326e-06 -1.12872e-05 -0.000292757
9.5752e-05 0.000194533 -2.62969e-06
0.000194533 -0.000106901 -5.00562e-06
-2.62969e-06 -5.00562e-06 -0.000491715
0.00254172 0.000686169 -1.15851e-06
0.000686169 0.000107958 -8.42941e-07
-1.15851e-06 -8.42941e-07 5.41273e-06
0.000186722 0.000252531 -8.99264e-06
0.000252531 -0.000432878 5.99163e-06
-8.99264e-06 5.99163e-06 -0.000750991
0.00205694 0.00108001 7.90084e-06
0.00108001 0.000950244 -7.35853e-07
7.90084e-06 -7.35853e-07 0.000140192
0.000531471 0.000552415 -1.7084e-05
0.000552415 -0.000371968 -4.1514e-06
-1.7084e-05 -4.1514e-06 -0.000838838
0.00268027 0.000972028 3.77824e-06
0.000972028 0.000353173 -1.30296e-06
3.77824e-06 -1.30296e-06 -3.29991e-06
0.00275998 0.000960999 -3.70222e-06
0.000960999 0.000242974 -8.94378e-07
-3.70222e-06 -8.94378e-07 3.07893e-05
0.00271878 0.00153707 -8.97669e-06
0.00153707 0.00113676 2.18549e-06
-8.97669e-06 2.18549e-06 0.000197018
0.00249466 0.00128883 -1.13238e-05
0.00128883 0.000534339 7.57936e-07
-1.13238e-05 7.57936e-07 -0.000135386
0.000770418 0.000321039 1.25425e-07
0.000321039 0.000357352 -6.54656e-07
1.25425e-07 -6.54656e-07 -1.07339e-05
0.00127489 0.000452334 -1.85679e-06
0.000452334 0.000635652 -6.53154e-06
-1.85679e-06 -6.53154e-06 0.000183258
0.00164404 0.00109036 -3.51535e-06
0.00109036 0.000684632 -1.28894e-06
-3.51535e-06 -1.28894e-06 -9.33705e-05
0.00170947 0.000598508 5.97858e-07
0.000598508 0.000340397 1.90861e-06
5.97858e-07 1.90861e-06 -8.02381e-05
0.00350536 0.00114746 -2.6194e-06
0.00114746 0.00144291 1.12469e-06
-2.6194e-06 1.12469e-06 0.000802447
0.00275277 0.000821812 -2.51585e-06
0.000821812 4.59428e-05 -4.37945e-07
-2.51585e-06 -4.37945e-07 7.22852e-06
0.00279183 0.000995519 2.77355e-06
0.000995519 0.000382595 -1.02528e-06
2.77355e-06 -1.02528e-06 1.95247e-05
0.002759 0.000933467 5.71614e-07
0.000933467 0.000215345 2.70591e-06
5.71614e-07 2.70591e-06 -2.77665e-05
0.00262765 0.00154184 7.05086e-06
0.00154184 0.000988494 2.10311e-06
7.05086e-06 2.10311e-06 7.03573e-05
0.00283816 0.00160113 -5.72969e-06
0.00160113 0.000796179 1.73029e-06
-5.72969e-06 1.73029e-06 -3.36787e-05
-0.00173622 0.000154806 -1.04236e-05
0.000154806 -0.00127234 -4.64495e-06
-1.04236e-05 -4.64495e-06 -0.00155465
-0.00178972 0.000541624 1.67602e-06
0.000541624 -0.000935295 -9.26336e-06
1.67602e-06 -9.26336e-06 -0.00161012
0.00233941 0.00124094 1.64634e-05
0.00124094 0.00093924 -7.09795e-07
1.64634e-05 -7.09795e-07 0.000162212
0.00330619 0.00091142 6.57792e-06
0.00091142 0.00124672 -8.03124e-06
6.57792e-06 -8.03124e-06 0.000751159
0.00289766 0.000741328 2.46627e-06
0.000741328 -0.000221379 3.26931e-06
2.46627e-06 3.26931e-06 -1.26343e-05
0.00279865 0.00100943 7.16959e-06
0.00100943 6.20281e-05 1.90736e-06
7.16959e-06 1.90736e-06 -4.78424e-05
0.00306145 0.00131482 1.23513e-05
0.00131482 0.000578046 -4.90292e-06
1.23513e-05 -4.90292e-06 -2.06875e-05
0.00261059 0.001659 1.40863e-05
0.001659 0.000749805 2.9134e-07
1.40863e-05 2.9134e-07 -0.000195302
0.00183107 0.000316926 9.84203e-06
0.000316926 0.00110743 5.97104e-07
9.84203e-06 5.97104e-07 0.000763181
0.00013968 0.000249191 -4.91075e-06
0.000249191 4.74597e-06 2.12828e-06
-4.91075e-06 2.12828e-06 -0.000243387
-0.0002706 0.000102525 -5.30741e-07
0.000102525 -0.000219223 -1.06212e-05
-5.30741e-07 -1.06212e-05 -0.000378002
-0.000330127 2.58166e-05 6.27058e-06
2.58166e-05 -0.000358139 1.07759e-06
6.27058e-06 1.07759e-06 -0.000558206
-0.00277722 7.06765e-06 4.5997e-06
7.06765e-06 -0.00176927 -2.78592e-06
4.5997e-06 -2.78592e-06 -0.00205834
0.000734953 0.000102159 -1.29247e-06
0.000102159 0.000329059 -4.00866e-07
-1.29247e-06 -4.00866e-07 0.000152597
0.000703474 0.000269085 1.04125e-05
0.000269085 0.000488928 3.56832e-06
1.04125e-05 3.56832e-06 0.000233336
0.00071955 0.000107805 1.71974e-06
0.000107805 0.000451802 2.63224e-06
1.71974e-06 2.63224e-06 0.000161358
0.00138379 0.000221253 -9.90145e-06
0.000221253 0.000718611 -1.28819e-05
-9.90145e-06 -1.28819e-05 0.000592247
0.00063922 7.35562e-05 -8.06483e-06
7.35562e-05 0.000421446 1.44106e-07
-8.06483e-06 1.44106e-07 0.000137718
-0.000220342 8.34342e-05 -7.05465e-06
8.34342e-05 -0.000241843 3.64293e-06
-7.05465e-06 3.64293e-06 -0.000460903
0.000899545 0.000175593 -8.59025e-08
0.000175593 0.000429783 1.74153e-06
-8.59025e-08 1.74153e-06 0.000251623
0.000475109 0.000112123 2.54388e-06
0.000112123 0.000104986 3.95853e-06
2.54388e-06 3.95853e-06 -1.33727e-05
0.000417766 2.56657e-05 -2.06856e-06
2.56657e-05 5.52416e-05 -5.55999e-07
-2.06856e-06 -5.55999e-07 -5.28238e-05
0.00134119 3.3983e-05 6.48796e-07
3.3983e-05 0.000628205 3.50794e-06
6.48796e-07 3.50794e-06 0.000594438
0.00030629 -5.16147e-05 4.13159e-06
-5.16147e-05 -2.24416e-05 -1.89099e-06
4.13159e-06 -1.89099e-06 -0.000126127
0.00143633 1.54917e-05 -1.5585e-05
1.54917e-05 0.000689981 -2.19731e-06
-1.5585e-05 -2.19731e-06 0.000654667
0.000701749 2.46844e-06 4.88432e-05
2.46844e-06 0.000190731 1.1973e-05
4.88432e-05 1.1973e-05 0.00019052
0.0014809 -3.74053e-05 -1.536e-05
-3.74053e-05 0.000716234 -1.02213e-05
-1.536e-05 -1.02213e-05 0.000679339
0.000724176 -1.73324e-05 2.42113e-05
-1.73324e-05 0.000201063 4.71369e-06
2.42113e-05 4.71369e-06 0.000194576
0.000646754 -3.5599e-05 6.61299e-06
-3.5599e-05 0.000154019 -5.80828e-06
6.61299e-06 -5.80828e-06 0.000137581
0.0004159 1.33576e-05 4.01425e-06
1.33576e-05 -3.03662e-06 -1.05439e-05
4.01425e-06 -1.05439e-05 -5.70743e-05
0.000295781 1.8609e-05 -1.66207e-06
1.8609e-05 -5.92726e-05 5.93411e-07
-1.66207e-06 5.93411e-07 -0.000148191
0.00342357 0.000190908 -2.60586e-05
0.000190908 0.00204655 -1.35697e-05
-2.60586e-05 -1.35697e-05 0.00201776
-0.000774071 -7.93355e-05 -2.2107e-05
-7.93355e-05 -0.000771951 7.11958e-06
-2.2107e-05 7.11958e-06 -0.000873127
0.00462716 0.000166298 -2.86323e-05
0.000166298 0.00284798 -1.5944e-06
-2.86323e-05 -1.5944e-06 0.00281888
0.00435227 6.55712e-05 -0.000157092
6.55712e-05 0.00267992 2.99873e-05
-0.000157092 2.99873e-05 0.00267502
0.00251024 0.000530066 8.17965e-07
0.000530066 2.04951e-05 7.08263e-07
8.17965e-07 7.08263e-07 -8.61731e-07
0.00237705 0.000255475 -1.10253e-08
0.000255475 -3.14458e-05 1.08353e-08
-1.10253e-08 1.08353e-08 9.91041e-06
0.00253951 0.000382103 1.23897e-06
0.000382103 -8.68407e-05 1.86303e-06
1.23897e-06 1.86303e-06 6.25247e-06
0.00238875 0.000194628 1.64975e-06
0.000194628 -0.000146573 3.90755e-07
1.64975e-06 3.90755e-07 -1.37649e-05
0.00232087 7.98909e-05 7.23477e-07
7.98909e-05 -6.2839e-05 3.68516e-07
7.23477e-07 3.68516e-07 3.24389e-06
0.0021878 -1.48456e-05 -5.18898e-06
-1.48456e-05 -3.19571e-05 2.04972e-07
-5.18898e-06 2.04972e-07 -1.30017e-05
0.00231169 -1.58606e-05 5.5833e-07
-1.58606e-05 -6.88328e-05 -2.97429e-08
5.5833e-07 -2.97429e-08 2.74136e-06
0.00243402 0.00010094 4.28834e-07
0.00010094 -0.000131759 1.92275e-07
4.28834e-07 1.92275e-07 1.76672e-06
0.0025094 0.000272851 6.9549e-07
0.000272851 -0.000109857 -1.77159e-10
6.9549e-07 -1.77159e-10 1.61145e-05
0.00263874 0.00052159 4.69911e-07
0.00052159 -9.79731e-05 2.70198e-07
4.69911e-07 2.70198e-07 1.27463e-06
0.00243431 -1.49871e-05 -1.92094e-06
-1.49871e-05 -0.000133202 -1.89789e-07
-1.92094e-06 -1.89789e-07 -5.03605e-06
0.00258549 0.000169542 3.86592e-08
0.000169542 -0.000158628 -8.42311e-07
3.86592e-08 -8.42311e-07 4.34116e-05
0.00274113 0.000368665 1.86242e-06
0.000368665 -0.000158155 -2.41213e-08
1.86242e-06 -2.41213e-08 2.83051e-05
0.00230794 -0.000124927 1.02291e-06
-0.000124927 -6.65071e-05 -3.0649e-07
1.02291e-06 -3.0649e-07 1.42835e-06
0.0023854 -0.000264302 -4.90657e-07
-0.000264302 -7.38629e-05 -3.01581e-07
-4.90657e-07 -3.01581e-07 -9.55861e-06
0.00252934 -0.000513509 -7.18205e-07
-0.000513509 -9.26447e-05 -2.75621e-08
-7.18205e-07 -2.75621e-08 -3.20391e-05
0.00260937 -0.00131708 -2.17717e-06
-0.00131708 0.000996561 -1.28738e-06
-2.17717e-06 -1.28738e-06 0.000159462
0.00203078 -0.00118934 8.51785e-06
-0.00118934 0.000367225 -4.39777e-06
8.51785e-06 -4.39777e-06 -0.000340446
0.00268776 -0.00113965 2.31867e-06
-0.00113965 0.000550905 1.11099e-06
2.31867e-06 1.11099e-06 2.4253e-06
0.00258287 -0.000700812 -1.33177e-06
-0.000700812 5.04818e-05 2.54374e-07
-1.33177e-06 2.54374e-07 2.87795e-06
0.00279213 -0.00097256 -1.85494e-06
-0.00097256 0.000188184 2.3494e-06
-1.85494e-06 2.3494e-06 4.84265e-05
0.00268901 -0.00104758 7.27174e-06
-0.00104758 0.000333543 -1.92145e-06
7.27174e-06 -1.92145e-06 1.23734e-05
0.00199966 -0.00117443 1.66096e-06
-0.00117443 0.000871912 -1.06251e-05
1.66096e-06 -1.06251e-05 1.36894e-05
0.0022267 -0.00115542 2.37025e-05
-0.00115542 0.00108755 -2.6611e-05
2.37025e-05 -2.6611e-05 0.000158281
0.000314525 -0.000749138 -1.00651e-05
-0.000749138 0.000112628 -8.36129e-06
-1.00651e-05 -8.36129e-06 -0.000623265
5.72173e-05 1.16212e-05 5.9171e-06
1.16212e-05 -0.000126415 -6.93827e-06
5.9171e-06 -6.93827e-06 -0.000384795
0.00281738 -0.000403951 1.12401e-05
-0.000403951 0.00149391 -5.01416e-06
1.12401e-05 -5.01416e-06 0.00110616
-0.000906657 5.44153e-05 9.00776e-06
5.44153e-05 -0.000808747 1.22223e-06
9.00776e-06 1.22223e-06 -0.00123417
0.00243616 -0.000141372 -3.30055e-07
-0.000141372 -0.000116754 1.42388e-07
-3.30055e-07 1.42388e-07 -1.69289e-06
0.0025629 -0.000363792 7.90643e-08
-0.000363792 -0.000181453 -4.70268e-07
7.90643e-08 -4.70268e-07 -1.50664e-05
0.00267751 -0.000642035 -3.24039e-07
-0.000642035 -7.16411e-05 -1.33791e-07
-3.24039e-07 -1.33791e-07 1.07057e-05
0.00256078 -0.00138896 -1.77855e-06
-0.00138896 0.000986893 5.33184e-07
-1.77855e-06 5.33184e-07 0.000121341
0.00237681 -0.00137722 1.0262e-05
-0.00137722 0.000602856 -3.29649e-06
1.0262e-05 -3.29649e-06 -0.000171704
0.00262988 -0.00119478 -7.58919e-07
-0.00119478 0.000493011 -1.76478e-06
-7.58919e-07 -1.76478e-06 -3.25415e-05
0.00272081 -0.000868365 5.87537e-07
-0.000868365 8.60116e-07 -5.02481e-07
5.87537e-07 -5.02481e-07 -1.0698e-05
0.00282256 -0.00112359 2.30886e-06
-0.00112359 0.000284148 -1.69973e-06
2.30886e-06 -1.69973e-06 1.62264e-05
-0.000110614 2.87622e-05 -6.12527e-08
2.87622e-05 -0.000280539 -6.07243e-06
-6.12527e-08 -6.07243e-06 -0.000440931
0.000544119 -0.000175378 -1.81418e-06
-0.000175378 0.000295989 3.81779e-07
-1.81418e-06 3.81779e-07 -9.58562e-05
0.00188655 -0.00116478 -8.47702e-06
-0.00116478 0.000808627 4.19823e-07
-8.47702e-06 4.19823e-07 -4.86776e-05
0.00126259 -0.000885104 1.5745e-06
-0.000885104 0.000568978 2.16068e-06
1.5745e-06 2.16068e-06 -0.000321243
0.00190683 -0.00038296 -2.83422e-06
-0.00038296 0.000946095 -7.48199e-06
-2.83422e-06 -7.48199e-06 0.000507618
0.000859007 -0.000366172 2.6601e-06
-0.000366172 0.000372938 -2.33643e-06
2.6601e-06 -2.33643e-06 -4.53212e-05
0.00253095 -0.000190975 1.89074e-06
-0.000190975 -0.000215549 7.6625e-07
1.89074e-06 7.6625e-07 -7.34782e-06
0.00280655 -0.000535506 3.46023e-06
-0.000535506 -0.000200044 4.18837e-07
3.46023e-06 4.18837e-07 3.81438e-05
0.00272527 -0.000806572 1.8815e-06
-0.000806572 -0.000125122 1.13215e-06
1.8815e-06 1.13215e-06 -3.81442e-05
0.00296593 -0.00112133 4.53719e-06
-0.00112133 0.00018952 -3.02604e-07
4.53719e-06 -3.02604e-07 5.20726e-05
0.00238099 -0.00142598 -4.13336e-06
-0.00142598 0.000910947 -4.73661e-06
-4.13336e-06 -4.73661e-06 5.78227e-05
0.00313354 -0.00143726 2.96026e-06
-0.00143726 0.000625583 -1.46542e-05
2.96026e-06 -1.46542e-05 0.000122587
0.00234055 -0.00148544 -5.70793e-05
-0.00148544 0.000572302 3.36435e-06
-5.70793e-05 3.36435e-06 -0.000237847
0.000421372 3.02132e-05 1.55374e-06
3.02132e-05 4.17051e-05 -5.42356e-06
1.55374e-06 -5.42356e-06 -6.98095e-05
0.000637922 -0.000191766 5.60759e-06
-0.000191766 0.000275911 -6.50808e-06
5.60759e-06 -6.50808e-06 8.57262e-05
-0.00137888 7.48997e-06 -8.39777e-06
7.48997e-06 -0.000977906 3.83135e-06
-8.39777e-06 3.83135e-06 -0.0012666
0.00104435 -0.000352198 -1.13661e-05
-0.000352198 0.000692182 1.521e-05
-1.13661e-05 1.521e-05 0.000260756
0.00406014 -0.00013719 -1.41065e-05
-0.00013719 0.00243546 -9.45679e-07
-1.41065e-05 -9.45679e-07 0.00210136
-0.000366148 -0.000338223 -5.81446e-06
-0.000338223 -0.000397027 5.64037e-07
-5.81446e-06 5.64037e-07 -0.00106107
0.00242505 -0.00132818 -4.12667e-05
-0.00132818 0.00103277 4.91004e-05
-4.12667e-05 4.91004e-05 0.000143766
0.00375615 -0.00128261 -4.94705e-05
-0.00128261 0.00212023 3.42596e-05
-4.94705e-05 3.42596e-05 0.00103069
0.000595789 0.000161467 7.77643e-06
0.000161467 0.000222075 -3.88047e-06
7.77643e-06 -3.88047e-06 -0.000123634
0.00212229 0.00058606 6.15893e-06
0.00058606 0.00119472 1.92798e-05
6.15893e-06 1.92798e-05 0.000697461
0.00280118 0.000835149 -6.14644e-07
0.000835149 5.77986e-05 -1.17117e-06
-6.14644e-07 -1.17117e-06 1.09566e-05
0.00213622 0.000452705 -8.29545e-06
0.000452705 0.000461071 -5.72219e-06
-8.29545e-06 -5.72219e-06 9.02315e-05
0.00158482 0.00105887 4.20988e-07
0.00105887 0.00065721 -4.00776e-06
4.20988e-07 -4.00776e-06 -0.000115553
0.00386808 0.00114936 -2.75109e-06
0.00114936 0.00168184 9.5159e-06
-2.75109e-06 9.5159e-06 0.00104424
0.00284509 0.000952333 -5.2616e-06
0.000952333 0.000427331 -2.09319e-06
-5.2616e-06 -2.09319e-06 9.24321e-05
0.00311751 0.000962045 -3.17113e-06
0.000962045 0.000466981 5.92851e-06
-3.17113e-06 5.92851e-06 0.000214356
0.0024394 0.00153432 -1.13913e-05
0.00153432 0.00086113 -2.11167e-06
-1.13913e-05 -2.11167e-06 -6.15131e-05
0.0026387 0.00166513 -2.24585e-05
0.00166513 0.000683558 -1.85788e-06
-2.24585e-05 -1.85788e-06 -0.000191549
-0.00130294 0.000229362 -2.84675e-07
0.000229362 -0.000943627 -4.115e-07
-2.84675e-07 -4.115e-07 -0.0012889
-0.000740618 0.000544278 4.43125e-06
0.000544278 -0.000312308 5.78427e-08
4.43125e-06 5.78427e-08 -0.000957703
0.00210515 0.001243 5.10667e-07
0.001243 0.000728757 -7.14277e-07
5.10667e-07 -7.14277e-07 -6.20267e-05
0.00303194 0.000877137 -8.53763e-06
0.000877137 0.00118026 -8.6883e-07
-8.53763e-06 -8.6883e-07 0.000671117
0.00282728 0.00070217 -4.69747e-08
0.00070217 -0.000305133 2.14479e-08
-4.69747e-08 2.14479e-08 -6.70593e-05
0.00296046 0.00101219 3.32094e-06
0.00101219 0.000165765 -1.11805e-06
3.32094e-06 -1.11805e-06 2.73858e-05
0.00281332 0.00126106 -4.6436e-06
0.00126106 0.00048802 -6.32199e-07
-4.6436e-06 -6.32199e-07 -8.98695e-05
0.00284019 0.0016536 1.81166e-06
0.0016536 0.000882035 1.11067e-06
1.81166e-06 1.11067e-06 -4.43569e-05
-0.00132789 1.97196e-05 -6.55148e-06
1.97196e-05 -0.000926298 -4.66505e-06
-6.55148e-06 -4.66505e-06 -0.00116639
0.00281282 0.000486487 3.5986e-06
0.000486487 -0.000354236 3.58044e-06
3.5986e-06 3.58044e-06 -5.43588e-05
0.00348944 0.000987023 -7.3585e-06
0.000987023 0.00226937 8.56819e-06
-7.3585e-06 8.56819e-06 0.00156631
0.00219096 0.0010885 9.31247e-06
0.0010885 0.000718047 -3.3676e-06
9.31247e-06 -3.3676e-06 2.24339e-05
0.00297258 0.00100653 -2.29612e-05
0.00100653 -6.726e-05 -1.3307e-05
-2.29612e-05 -1.3307e-05 4.31546e-05
0.00206275 0.001198 7.56206e-06
0.001198 -8.40958e-05 -1.21443e-05
7.56206e-06 -1.21443e-05 -0.000588772
0.00378853 0.00181595 8.85944e-06
0.00181595 0.00137299 3.8325e-06
8.85944e-06 3.8325e-06 0.000409115
0.000560625 0.000235607 5.14305e-06
0.000235607 0.000306787 1.01952e-05
5.14305e-06 1.01952e-05 2.3297e-05
0.000630139 0.000197122 -4.03151e-06
0.000197122 0.000371223 1.78248e-07
-4.03151e-06 1.78248e-07 0.000194447
-0.0015124 3.27725e-05 -1.00792e-05
3.27725e-05 -0.00099322 -1.84663e-06
-1.00792e-05 -1.84663e-06 -0.0011227
-5.50989e-05 4.6021e-06 4.59016e-06
4.6021e-06 -0.000208712 6.34851e-07
4.59016e-06 6.34851e-07 -0.000366038
0.000452687 0.000144899 7.93759e-06
0.000144899 0.00026598 -9.71813e-06
7.93759e-06 -9.71813e-06 -1.61078e-05
-0.00101698 0.000141579 -7.55557e-06
0.000141579 -0.000608355 8.71304e-06
-7.55557e-06 8.71304e-06 -0.000828798
0.000475938 4.58423e-05 -1.84658e-06
4.58423e-05 0.000145905 -6.21662e-07
-1.84658e-06 -6.21662e-07 -2.41041e-05
0.000200191 2.38859e-05 6.29831e-07
2.38859e-05 5.75064e-05 -9.18197e-07
6.29831e-07 -9.18197e-07 -0.000179496
-0.000177233 0.000113684 -3.56667e-06
0.000113684 -0.000198333 2.5231e-06
-3.56667e-06 2.5231e-06 -0.000318806
0.000664262 0.000181349 3.3294e-06
0.000181349 0.000442689 -4.12912e-06
3.3294e-06 -4.12912e-06 0.000152437
0.00120906 0.000207157 -5.71217e-06
0.000207157 0.000686722 -1.04913e-05
-5.71217e-06 -1.04913e-05 0.000589652
0.000170594 0.000104257 1.10361e-06
0.000104257 3.7329e-05 -1.38258e-05
1.10361e-06 -1.38258e-05 -0.000116463
0.00113923 9.32694e-05 -6.95285e-06
9.32694e-05 0.000729767 5.13258e-06
-6.95285e-06 5.13258e-06 0.00044211
0.000618916 6.23178e-05 -6.35817e-06
6.23178e-05 0.000295408 1.02971e-06
-6.35817e-06 1.02971e-06 5.88025e-05
0.000529354 5.34254e-05 -2.54134e-08
5.34254e-05 0.000156333 2.28677e-06
-2.54134e-08 2.28677e-06 -8.72319e-06
0.000421128 -9.46914e-05 -3.1797e-06
-9.46914e-05 5.61679e-05 3.45147e-06
-3.1797e-06 3.45147e-06 -5.5194e-05
0.000415573 1.63509e-05 9.76145e-07
1.63509e-05 4.54336e-05 -5.06339e-07
9.76145e-07 -5.06339e-07 -6.00916e-05
0.00137283 3.87279e-05 4.41342e-06
3.87279e-05 0.00065256 4.44426e-06
4.41342e-06 4.44426e-06 0.000619693
0.000402427 1.62328e-05 2.80584e-06
1.62328e-05 2.54169e-05 -2.38659e-06
2.80584e-06 -2.38659e-06 -6.93452e-05
0.00143193 2.29692e-05 -1.46194e-05
2.29692e-05 0.000691943 -2.28866e-06
-1.46194e-05 -2.28866e-06 0.000657237
0.00081923 7.79805e-06 4.37695e-05
7.79805e-06 0.000272056 1.07935e-05
4.37695e-05 1.07935e-05 0.000272292
0.00137397 -2.36896e-05 -1.38658e-05
-2.36896e-05 0.000646206 -8.92698e-06
-1.38658e-05 -8.92698e-06 0.000614401
0.000749613 -8.86079e-06 2.02894e-05
-8.86079e-06 0.000218126 4.65796e-06
2.02894e-05 4.65796e-06 0.000214412
0.000768036 -2.74411e-05 4.877e-06
-2.74411e-05 0.000227581 -4.44842e-06
4.877e-06 -4.44842e-06 0.000218412
0.000437978 -3.67325e-05 -2.40988e-08
-3.67325e-05 3.70576e-05 -5.92685e-06
-2.40988e-08 -5.92685e-06 -6.55109e-05
0.000162571 3.84535e-05 -8.00534e-07
3.84535e-05 -0.000150502 -9.60894e-06
-8.00534e-07 -9.60894e-06 -0.000204754
0.000222888 3.20361e-05 2.11026e-06
3.20361e-05 -0.000115641 1.3124e-06
2.11026e-06 1.3124e-06 -0.00017827
0.00370173 0.000143658 6.16696e-06
0.000143658 0.00220834 -8.9904e-06
6.16696e-06 -8.9904e-06 0.0021931
-2.59905e-05 -1.24537e-05 -3.63801e-06
-1.24537e-05 -0.000281578 1.04682e-05
-3.63801e-06 1.04682e-05 -0.000366612
0.00404832 0.000222763 -1.55449e-05
0.000222763 0.0024746 -2.29018e-06
-1.55449e-05 -2.29018e-06 0.00243712
0.00468265 0.000152568 -7.9483e-05
0.000152568 0.00288689 1.18275e-05
-7.9483e-05 1.18275e-05 0.00286381
0.00264894 0.000505172 7.31549e-07
0.000505172 -8.67598e-05 4.83533e-07
7.31549e-07 4.83533e-07 1.78115e-05
0.00249881 0.000278595 -4.4056e-07
0.000278595 -0.000120475 4.25553e-07
-4.4056e-07 4.25553e-07 4.76522e-06
0.00239159 0.000106732 1.50053e-06
0.000106732 -0.000153186 5.94136e-07
1.50053e-06 5.94136e-07 -2.00119e-05
0.00231393 -1.55048e-05 1.05416e-07
-1.55048e-05 -6.69364e-05 -3.50665e-08
1.05416e-07 -3.50665e-08 6.0434e-06
0.00243607 -1.14227e-05 -4.6309e-07
-1.14227e-05 -0.000135359 -8.68792e-08
-4.6309e-07 -8.68792e-08 -2.47007e-06
0.00253829 0.000169087 8.17092e-07
0.000169087 -0.000190738 2.16423e-07
8.17092e-07 2.16423e-07 1.3691e-05
0.00266334 0.000385845 -5.67695e-07
0.000385845 -0.000187131 8.72355e-09
-5.67695e-07 8.72355e-09 -3.19687e-06
0.00250137 -1.01603e-05 1.09767e-06
-1.01603e-05 -0.00025192 -1.34033e-07
1.09767e-06 -1.34033e-07 -2.84985e-05
0.00281579 0.000212237 3.32076e-06
0.000212237 -0.000211298 -1.58717e-06
3.32076e-06 -1.58717e-06 5.39041e-05
0.00264802 0.000225497 -1.65527e-06
0.000225497 -0.000497828 9.70311e-06
-1.65527e-06 9.70311e-06 -0.000160669
0.00246229 -0.000133051 1.25969e-06
-0.000133051 -9.80262e-05 -2.68735e-07
1.25969e-06 -2.68735e-07 1.30718e-05
0.00255803 -0.000380763 -2.23492e-06
-0.000380763 -0.000191831 1.89168e-07
-2.23492e-06 1.89168e-07 -2.13782e-05
0.00265664 -0.000626823 -2.99093e-07
-0.000626823 -7.69413e-05 3.68573e-07
-2.99093e-07 3.68573e-07 3.27588e-06
0.00249848 -0.00138266 -1.458e-06
-0.00138266 0.000933132 -4.46445e-06
-1.458e-06 -4.46445e-06 6.82271e-05
0.00206803 -0.00134121 2.79813e-05
-0.00134121 0.000417988 -4.33277e-06
2.79813e-05 -4.33277e-06 -0.000348262
0.00282064 -0.00121394 2.13175e-05
-0.00121394 0.000586149 -4.75618e-08
2.13175e-05 -4.75618e-08 6.35794e-05
0.00270583 -0.000879375 6.24151e-07
-0.000879375 -6.74486e-06 -1.1935e-06
6.24151e-07 -1.1935e-06 -3.02922e-05
0.0028589 -0.00111065 4.51242e-06
-0.00111065 0.00032571 5.40962e-06
4.51242e-06 5.40962e-06 6.45913e-05
0.00248111 -0.00125931 1.59136e-05
-0.00125931 0.0011495 -2.85063e-05
1.59136e-05 -2.85063e-05 0.000267394
-0.000328616 -0.000592063 2.23051e-05
-0.000592063 -0.000356155 -2.04826e-05
2.23051e-05 -2.04826e-05 -0.00121838
0.00299624 -0.000525244 6.34338e-06
-0.000525244 0.00162141 -2.32168e-08
6.34338e-06 -2.32168e-08 0.00118477
0.000758045 -7.92673e-05 -2.75395e-06
-7.92673e-05 0.00029565 9.1462e-06
-2.75395e-06 9.1462e-06 0.000141253
-0.00014207 -1.36989e-05 9.61788e-06
-1.36989e-05 -0.000197592 -9.53386e-06
9.61788e-06 -9.53386e-06 -0.000549969
-0.000672969 -0.000203366 6.91709e-06
-0.000203366 -0.000633224 -1.08745e-05
6.91709e-06 -1.08745e-05 -0.00104996
0.00254959 -0.000192268 1.3186e-07
-0.000192268 -0.000208056 -3.42772e-07
1.3186e-07 -3.42772e-07 4.08596e-06
0.000567583 -5.89908e-05 2.03082e-06
-5.89908e-05 0.000134404 4.45161e-07
2.03082e-06 4.45161e-07 1.52582e-05
0.000419064 -0.000124171 -3.9863e-06
-0.000124171 0.000101394 -3.38312e-07
-3.9863e-06 -3.38312e-07 -6.44059e-05
0.00273964 -0.00052635 4.67259e-09
-0.00052635 -0.000227776 1.24887e-07
4.67259e-09 1.24887e-07 -5.74601e-07
0.00274741 -0.000795079 -1.68365e-06
-0.000795079 -9.25226e-05 4.91035e-07
-1.68365e-06 4.91035e-07 -5.79166e-06
0.00258652 -0.0014764 -1.01653e-06
-0.0014764 0.00102846 2.37453e-06
-1.01653e-06 2.37453e-06 0.000146721
0.00323868 -0.00165348 1.05583e-05
-0.00165348 0.00105198 -2.98832e-06
1.05583e-05 -2.98832e-06 0.000199171
0.00297737 -0.00140224 3.83023e-06
-0.00140224 0.000556861 -8.70768e-07
3.83023e-06 -8.70768e-07 6.66078e-05
0.00284933 -0.00111306 2.44361e-06
-0.00111306 0.000119115 -1.2303e-06
2.44361e-06 -1.2303e-06 -9.61094e-06
6.19324e-05 -6.23854e-05 -3.24574e-06
-6.23854e-05 -3.91589e-05 -1.7777e-06
-3.24574e-06 -1.7777e-06 -0.000327634
0.000693022 -0.000254967 2.16934e-08
-0.000254967 0.000445947 6.19605e-07
2.16934e-08 6.19605e-07 2.41857e-05
0.00194058 -0.00118432 1.66856e-05
-0.00118432 0.000815275 6.34076e-06
1.66856e-05 6.34076e-06 -4.31856e-05
0.00176975 -0.000975042 1.70751e-05
-0.000975042 0.000983046 -1.84635e-05
1.70751e-05 -1.84635e-05 -6.14271e-05
0.00117866 -0.000429159 -3.15319e-06
-0.000429159 0.000612135 -1.33382e-07
-3.15319e-06 -1.33382e-07 -2.58396e-05
0.000986323 -0.000285755 9.95789e-06
-0.000285755 0.000469952 -3.54948e-06
9.95789e-06 -3.54948e-06 0.000148142
0.00261242 -0.000241323 3.07435e-06
-0.000241323 -0.000467357 -1.76672e-06
3.07435e-06 -1.76672e-06 -0.000115398
0.00299669 -0.000712401 -2.21232e-07
-0.000712401 -0.00015026 3.99311e-06
-2.21232e-07 3.99311e-06 0.000122924
0.00316956 -0.00117684 1.6032e-06
-0.00117684 9.20623e-05 -1.61925e-06
1.6032e-06 -1.61925e-06 6.64887e-05
0.00275363 -0.00132496 6.68007e-06
-0.00132496 0.000212857 -6.14277e-06
6.68007e-06 -6.14277e-06 -0.000102939
0.000996093 -0.00129929 1.09499e-05
-0.00129929 0.000136569 -1.01244e-05
1.09499e-05 -1.01244e-05 -0.000713852
0.0038729 -0.00193628 -3.16112e-07
-0.00193628 0.00122748 -1.87191e-05
-3.16112e-07 -1.87191e-05 0.000353936
0.00047227 8.44642e-05 -4.82378e-06
8.44642e-05 0.000124196 -5.40346e-06
-4.82378e-06 -5.40346e-06 -3.93822e-05
-0.000934551 -9.36227e-05 4.08068e-06
-9.36227e-05 -0.000756646 -6.73911e-08
4.08068e-06 -6.73911e-08 -0.000945708
0.00184008 -0.000283015 -1.28387e-05
-0.000283015 0.00106893 1.69748e-05
-1.28387e-05 1.69748e-05 0.000844366
0.00025801 -9.91199e-05 -8.15114e-06
-9.91199e-05 0.000100573 1.90881e-05
-8.15114e-06 1.90881e-05 -0.000219635
0.00158348 -0.000418161 -1.70292e-05
-0.000418161 0.000989233 3.14924e-05
-1.70292e-05 3.14924e-05 0.000588406
-0.000629572 -0.000107402 -1.49061e-05
-0.000107402 -0.000616523 -1.74303e-05
-1.49061e-05 -1.74303e-05 -0.000876025
-0.000664011 -0.000607912 -2.77782e-05
-0.000607912 4.20899e-05 2.05452e-05
-2.77782e-05 2.05452e-05 -0.00118806
0.00147667 -0.00146312 -9.33237e-05
-0.00146312 0.000322938 3.22729e-05
-9.33237e-05 3.22729e-05 -0.000382244
-0.00051983 0.000489685 2.15174e-06
0.000489685 -0.000335253 4.36085e-06
2.15174e-06 4.36085e-06 -0.000745414
0.00412485 0.000788121 -6.1077e-06
0.000788121 0.00260936 2.17106e-06
-6.1077e-06 2.17106e-06 0.00207848
0.00274566 0.000660553 -3.84256e-06
0.000660553 -0.000381689 -3.84633e-06
-3.84256e-06 -3.84633e-06 -0.000119766
0.0031148 0.00101328 -5.48391e-06
0.00101328 0.000268369 -1.50665e-06
-5.48391e-06 -1.50665e-06 0.000102072
0.00375052 0.000863923 -8.86022e-06
0.000863923 0.0017436 1.45656e-06
-8.86022e-06 1.45656e-06 0.0012512
0.00167438 0.00121874 -1.52233e-05
0.00121874 0.000399448 -7.85342e-06
-1.52233e-05 -7.85342e-06 -0.00039811
0.00261782 0.00121155 -7.20858e-06
0.00121155 0.000429535 2.73829e-06
-7.20858e-06 2.73829e-06 -0.000129088
0.00308769 0.00164209 -1.86547e-05
0.00164209 0.00102104 -2.20598e-06
-1.86547e-05 -2.20598e-06 0.000115244
0.000219718 0.000384485 1.75086e-06
0.000384485 0.000181709 3.28111e-07
1.75086e-06 3.28111e-07 -0.000172124
0.00279217 0.000480002 -4.78255e-06
0.000480002 -0.000365794 -5.01734e-06
-4.78255e-06 -5.01734e-06 -4.84497e-05
0.00246065 0.000790193 2.38598e-06
0.000790193 0.00166981 5.78793e-06
2.38598e-06 5.78793e-06 0.00104479
0.00158932 0.000987129 3.08362e-06
0.000987129 0.000400863 2.57933e-06
3.08362e-06 2.57933e-06 -0.000268614
0.00304413 0.000964419 4.39145e-08
0.000964419 2.6475e-05 2.07313e-07
4.39145e-08 2.07313e-07 0.000138123
0.00256499 0.00128598 -3.90249e-06
0.00128598 0.000221808 -6.87266e-06
-3.90249e-06 -6.87266e-06 -0.000293677
0.00326991 0.00168609 -1.52815e-06
0.00168609 0.00109908 -6.20656e-07
-1.52815e-06 -6.20656e-07 0.000178703
0.00128923 0.000540205 -9.39361e-06
0.000540205 0.000986119 -4.64569e-06
-9.39361e-06 -4.64569e-06 0.000492077
0.00482974 0.00105156 -0.000149669
0.00105156 0.000593111 -5.96263e-05
-0.000149669 -5.96263e-05 0.00114578
0.000666701 0.000740866 -1.03092e-05
0.000740866 0.00039926 2.03939e-05
-1.03092e-05 2.03939e-05 -0.000256182
0.00172689 0.0011347 3.18477e-06
0.0011347 0.000527349 -1.08953e-05
3.18477e-06 -1.08953e-05 -0.000268906
0.00389506 0.00141161 -5.6106e-05
0.00141161 0.000811179 -2.55808e-05
-5.6106e-05 -2.55808e-05 0.000559409
0.00221993 0.00152442 -3.48812e-05
0.00152442 0.000490158 -9.21287e-06
-3.48812e-05 -9.21287e-06 -0.000342467
0.00117832 0.00230558 -6.06397e-06
0.00230558 -0.00383301 -7.21073e-05
-6.06397e-06 -7.21073e-05 -0.00156171
0.000911475 0.000293464 1.26271e-05
0.000293464 0.000616141 1.72951e-05
1.26271e-05 1.72951e-05 0.000413826
0.000230549 0.00020104 -3.77471e-06
0.00020104 0.000179349 -1.55785e-06
-3.77471e-06 -1.55785e-06 4.96929e-06
-0.000684389 0.000113303 -7.89006e-06
0.000113303 -0.000396892 7.2878e-07
-7.89006e-06 7.2878e-07 -0.000574467
0.000242887 -5.84042e-05 4.51498e-06
-5.84042e-05 -1.00565e-05 -1.62834e-06
4.51498e-06 -1.62834e-06 -0.000177463
-0.000450794 3.02528e-05 5.90275e-06
3.02528e-05 -0.000366166 -5.20108e-06
5.90275e-06 -5.20108e-06 -0.000599274
0.00196362 0.000357194 -1.0395e-07
0.000357194 0.00129967 -8.87084e-06
-1.0395e-07 -8.87084e-06 0.000987205
-0.00197942 -8.43544e-06 -9.56527e-06
-8.43544e-06 -0.00128324 1.19669e-05
-9.56527e-06 1.19669e-05 -0.0014083
0.000432669 -4.33082e-06 3.11534e-07
-4.33082e-06 0.000106337 -4.84382e-07
3.11534e-07 -4.84382e-07 -6.55806e-05
0.000394302 0.000101628 5.83356e-07
0.000101628 0.00010828 -3.52522e-07
5.83356e-07 -3.52522e-07 -8.92863e-05
-2.65379e-05 0.000140676 2.59077e-06
0.000140676 -7.12993e-05 3.59399e-06
2.59077e-06 3.59399e-06 -0.000146334
5.35941e-05 8.92586e-05 1.08328e-06
8.92586e-05 -5.67426e-08 9.27328e-08
1.08328e-06 9.27328e-08 -0.000264439
0.000232425 0.000103005 1.17132e-06
0.000103005 8.795e-05 2.29545e-06
1.17132e-06 2.29545e-06 -8.36859e-05
0.000104026 0.000116969 9.85649e-06
0.000116969 0.00015506 -1.76811e-05
9.85649e-06 -1.76811e-05 -1.88607e-05
0.000909084 0.000148777 -4.96743e-06
0.000148777 0.000560247 2.6782e-06
-4.96743e-06 2.6782e-06 0.000304166
0.000776709 0.000132513 -4.91782e-06
0.000132513 0.000422927 1.24776e-06
-4.91782e-06 1.24776e-06 0.000190779
0.000769996 0.000142147 -7.95671e-06
0.000142147 0.000367254 -5.20234e-06
-7.95671e-06 -5.20234e-06 0.000160141
3.07797e-05 7.96512e-07 -3.88686e-06
7.96512e-07 -0.000189489 -1.08661e-06
-3.88686e-06 -1.08661e-06 -0.000340098
0.00130774 -0.000235429 9.80025e-06
-0.000235429 0.000837915 -1.28323e-05
9.80025e-06 -1.28323e-05 0.00052989
0.00015825 -7.43466e-05 -2.7885e-06
-7.43466e-05 -8.02592e-05 2.23346e-06
-2.7885e-06 2.23346e-06 -0.000251751
0.000278677 3.44747e-06 -2.94286e-06
3.44747e-06 -3.23141e-05 2.75319e-06
-2.94286e-06 2.75319e-06 -0.000143967
0.000384012 5.22544e-05 2.26132e-06
5.22544e-05 3.82918e-05 -8.17673e-08
2.26132e-06 -8.17673e-08 -7.59548e-05
0.000292189 1.91768e-05 -4.00197e-06
1.91768e-05 -5.54717e-05 5.8456e-06
-4.00197e-06 5.8456e-06 -9.52603e-05
0.000254406 -3.59286e-06 -1.05907e-07
-3.59286e-06 -4.84388e-05 -4.07843e-06
-1.05907e-07 -4.07843e-06 -0.00016186
0.000840917 1.87477e-05 -5.6582e-06
1.87477e-05 0.000305024 -1.67777e-06
-5.6582e-06 -1.67777e-06 0.000268464
0.0028151 1.23855e-05 3.92689e-05
1.23855e-05 0.00159578 7.23799e-06
3.92689e-05 7.23799e-06 0.00160631
0.00143955 7.64603e-05 -2.46723e-05
7.64603e-05 0.00070395 -9.29032e-06
-2.46723e-05 -9.29032e-06 0.000666936
0.000757128 -6.86867e-07 1.89052e-05
-6.86867e-07 0.000226376 4.42903e-06
1.89052e-05 4.42903e-06 0.000224807
0.000775617 -1.74023e-05 3.9684e-06
-1.74023e-05 0.000231091 -3.5289e-06
3.9684e-06 -3.5289e-06 0.000225826
0.000256281 7.63592e-06 -3.54744e-06
7.63592e-06 -5.91301e-05 -7.18838e-06
-3.54744e-06 -7.18838e-06 -0.000159003
0.000610312 -7.09881e-05 5.51322e-07
-7.09881e-05 0.000166768 -4.55222e-07
5.51322e-07 -4.55222e-07 5.27335e-05
0.000293016 2.53907e-05 -1.06608e-06
2.53907e-05 -7.70493e-05 -7.28274e-06
-1.06608e-06 -7.28274e-06 -0.000117872
0.000978707 4.26458e-05 -1.15449e-07
4.26458e-05 0.000382473 3.20093e-08
-1.15449e-07 3.20093e-08 0.000333611
0.00312728 0.00011362 -7.83739e-06
0.00011362 0.00181887 -8.50311e-06
-7.83739e-06 -8.50311e-06 0.00181208
0.000441169 2.48539e-05 -1.06246e-06
2.48539e-05 3.36133e-05 1.07736e-05
-1.06246e-06 1.07736e-05 -3.28239e-05
0.00320177 0.000146849 -8.93493e-07
0.000146849 0.00188037 -1.77592e-08
-8.93493e-07 -1.77592e-08 0.00186449
0.00444832 0.000142042 -3.37927e-05
0.000142042 0.00271161 1.00701e-05
-3.37927e-05 1.00701e-05 0.00268908
0.00259428 0.000401374 -2.32919e-06
0.000401374 -0.000215647 -8.65521e-07
-2.32919e-06 -8.65521e-07 -3.15874e-05
0.00248476 0.000168559 -2.1753e-07
0.000168559 -0.000230081 8.68524e-07
-2.1753e-07 8.68524e-07 -2.17703e-05
0.00244472 -7.67654e-06 1.07002e-06
-7.67654e-06 -0.000133993 8.58906e-08
1.07002e-06 8.58906e-08 3.54975e-06
0.00248025 -1.0968e-06 -7.49076e-08
-1.0968e-06 -0.000266047 -1.25947e-07
-7.49076e-08 -1.25947e-07 -4.11693e-05
0.00278285 0.000225475 1.09603e-06
0.000225475 -0.000224745 3.48861e-07
1.09603e-06 3.48861e-07 4.16593e-05
0.00281405 0.000190641 6.07246e-06
0.000190641 -0.000385996 -4.35724e-06
6.07246e-06 -4.35724e-06 -6.18774e-05
0.00294459 7.04729e-05 3.38916e-06
7.04729e-05 -0.000282989 1.69778e-06
3.38916e-06 1.69778e-06 5.46528e-05
0.00689492 0.00259554 3.4125e-07
0.00259554 -0.00186249 2.07306e-05
3.4125e-07 2.07306e-05 0.000793595
0.00294602 0.000244406 -8.56907e-05
0.000244406 -0.000500203 1.34465e-05
-8.56907e-05 1.34465e-05 0.000129766
0.000345519 0.000124649 -4.62049e-06
0.000124649 4.17593e-05 -2.77541e-06
-4.62049e-06 -2.77541e-06 -0.000114116
0.00256256 -0.000191805 -1.59151e-06
-0.000191805 -0.000206909 -6.11876e-07
-1.59151e-06 -6.11876e-07 1.01109e-05
0.00267898 -0.000514716 -3.78476e-06
-0.000514716 -0.000249803 -6.73801e-07
-3.78476e-06 -6.73801e-07 -3.38648e-05
0.00278257 -0.000780474 4.25269e-07
-0.000780474 -5.1239e-05 -9.51985e-07
4.25269e-07 -9.51985e-07 3.75872e-05
0.00245511 -0.00146714 -8.50728e-06
-0.00146714 0.000967433 -2.04886e-07
-8.50728e-06 -2.04886e-07 8.20721e-05
0.00248786 -0.00152174 2.91237e-05
-0.00152174 0.000620301 4.82986e-06
2.91237e-05 4.82986e-06 -0.000187104
0.00283106 -0.00137367 -2.04442e-06
-0.00137367 0.00049338 1.39701e-05
-2.04442e-06 1.39701e-05 1.06043e-05
0.002734 -0.00111049 1.78294e-08
-0.00111049 4.376e-05 -2.65927e-06
1.78294e-08 -2.65927e-06 -7.74858e-05
0.00266319 -0.00124208 6.94628e-05
-0.00124208 0.0011929 -6.71096e-05
6.94628e-05 -6.71096e-05 0.000364517
0.00239842 -0.00110104 6.07281e-05
-0.00110104 0.0012966 -6.06557e-05
6.07281e-05 -6.06557e-05 0.000271139
-0.000430535 -0.000306348 2.22706e-05
-0.000306348 -0.000366667 6.37217e-06
2.22706e-05 6.37217e-06 -0.00103619
0.000506047 -2.5713e-05 1.89695e-07
-2.5713e-05 8.70915e-05 6.49099e-06
1.89695e-07 6.49099e-06 -3.72127e-05
0.00101851 -0.000330138 -4.01935e-06
-0.000330138 0.000500409 -5.29934e-07
-4.01935e-06 -5.29934e-07 0.000160536
0.00171868 -0.000179961 1.11641e-05
-0.000179961 0.00110952 -6.18424e-06
1.11641e-05 -6.18424e-06 0.000774047
-0.000201263 -0.000137645 5.94504e-06
-0.000137645 -0.000183776 -1.39208e-05
5.94504e-06 -1.39208e-05 -0.000570101
0.00052428 -0.000113391 -7.31821e-06
-0.000113391 0.000184556 4.21359e-06
-7.31821e-06 4.21359e-06 8.60902e-06
0.00271437 -0.000261099 -6.29257e-07
-0.000261099 -0.000393549 -9.47944e-07
-6.29257e-07 -9.47944e-07 -4.7063e-05
0.000549954 7.54492e-05 1.20166e-06
7.54492e-05 0.00019076 -2.16114e-06
1.20166e-06 -2.16114e-06 1.54629e-05
0.000781198 -0.000200209 2.16004e-06
-0.000200209 0.000450799 2.82932e-06
2.16004e-06 2.82932e-06 0.000198696
0.0007405 -0.000168852 1.02646e-05
-0.000168852 0.00033372 7.10009e-07
1.02646e-05 7.10009e-07 0.000140556
0.00281489 -0.00070646 2.82372e-06
-0.00070646 -0.000283449 -5.39479e-07
2.82372e-06 -5.39479e-07 -1.61644e-05
0.00308326 -0.0011442 -8.30571e-07
-0.0011442 6.87026e-05 2.21884e-07
-8.30571e-07 2.21884e-07 5.62008e-05
0.00246784 -0.00144859 -5.34839e-06
-0.00144859 0.000936697 2.3434e-06
-5.34839e-06 2.3434e-06 0.00011151
0.00260267 -0.00174147 1.14335e-05
-0.00174147 0.000530618 -1.13663e-06
1.14335e-05 -1.13663e-06 -0.000284446
0.00288164 -0.00135999 3.7105e-07
-0.00135999 0.000287784 6.64652e-07
3.7105e-07 6.64652e-07 -5.07571e-05
0.000209579 -9.99211e-05 -1.10265e-06
-9.99211e-05 6.52632e-05 -2.83799e-07
-1.10265e-06 -2.83799e-07 -0.000248438
0.00180332 -0.000386992 1.03517e-05
-0.000386992 0.00114794 -1.11209e-06
1.03517e-05 -1.11209e-06 0.000741377
0.00383088 -0.00185618 -7.29943e-06
-0.00185618 0.00167991 1.27808e-05
-7.29943e-06 1.27808e-05 0.000735249
0.00152892 -0.000641396 -4.79727e-06
-0.000641396 0.000959266 8.06859e-06
-4.79727e-06 8.06859e-06 6.59081e-06
0.00176985 -0.000269513 1.04457e-05
-0.000269513 0.000901844 1.28317e-05
1.04457e-05 1.28317e-05 0.000584508
0.00299509 -0.000502097 -2.52669e-05
-0.000502097 -0.000377307 5.25484e-06
-2.52669e-05 5.25484e-06 5.46036e-05
0.00272853 -0.000835656 -2.324e-05
-0.000835656 -0.000358049 1.14554e-05
-2.324e-05 1.14554e-05 2.69218e-05
0.00312945 -0.0014027 -3.16913e-06
-0.0014027 0.000276517 -9.6929e-06
-3.16913e-06 -9.6929e-06 1.34067e-05
0.00350519 -0.00169041 1.23812e-05
-0.00169041 0.000927714 -1.23815e-05
1.23812e-05 -1.23815e-05 0.000291419
0.00214901 -0.00165791 1.69802e-05
-0.00165791 0.000558603 -4.24063e-07
1.69802e-05 -4.24063e-07 -0.000305336
0.00085907 4.41921e-06 -6.18639e-06
4.41921e-06 0.000423244 9.65744e-07
-6.18639e-06 9.65744e-07 0.000260814
-0.000461207 -9.76905e-05 -9.09773e-06
-9.76905e-05 -0.000476272 2.34376e-05
-9.09773e-06 2.34376e-05 -0.000693068
9.74768e-05 -0.00019045 -6.42736e-06
-0.00019045 -2.6558e-05 7.63463e-06
-6.42736e-06 7.63463e-06 -0.000217713
0.00233436 -0.00051238 -6.0534e-05
-0.00051238 0.00144247 5.70092e-05
-6.0534e-05 5.70092e-05 0.00106889
0.00112707 -0.000277183 4.25212e-06
-0.000277183 0.000630186 2.78364e-05
4.25212e-06 2.78364e-05 0.000335966
-0.00145204 -9.17278e-05 -7.57503e-06
-9.17278e-05 -0.000440024 1.9743e-06
-7.57503e-06 1.9743e-06 -0.00123248
0.00251482 -0.001907 -4.02722e-05
-0.001907 0.00131729 -1.6864e-05
-4.02722e-05 -1.6864e-05 0.000184267
0.00335751 0.00082277 7.55377e-06
0.00082277 0.00218683 3.95027e-06
7.55377e-06 3.95027e-06 0.00173301
-0.000791001 0.000338012 -2.98818e-06
0.000338012 -0.000305203 -2.50319e-06
-2.98818e-06 -2.50319e-06 -0.000828784
0.00274199 0.000466176 1.29711e-05
0.000466176 -0.000415948 4.87983e-06
1.29711e-05 4.87983e-06 -6.39957e-05
0.00312791 0.00092446 2.15061e-05
0.00092446 0.000115039 1.33388e-05
2.15061e-05 1.33388e-05 0.000235182
0.00306362 0.00137236 4.85055e-06
0.00137236 0.000523472 4.3681e-06
4.85055e-06 4.3681e-06 -1.18761e-06
0.00120151 0.000915198 -8.38094e-06
0.000915198 0.000224303 7.69922e-07
-8.38094e-06 7.69922e-07 -0.000425904
0.0027571 0.0015649 -9.52324e-07
0.0015649 0.000831304 6.74662e-06
-9.52324e-07 6.74662e-06 -4.83628e-05
0.00305071 0.000689902 -2.49355e-07
0.000689902 0.00207804 -1.55273e-06
-2.49355e-07 -1.55273e-06 0.00159232
0.00331595 0.000834221 2.40584e-05
0.000834221 -0.000301829 7.01514e-06
2.40584e-05 7.01514e-06 0.000386921
0.00101695 0.00073123 -7.13242e-06
0.00073123 0.000556076 9.39315e-06
-7.13242e-06 9.39315e-06 -5.18998e-05
0.00223555 0.00123952 4.77667e-06
0.00123952 0.000850448 -2.95752e-06
4.77667e-06 -2.95752e-06 1.15512e-05
0.00321852 0.00129021 -4.6059e-06
0.00129021 0.000497829 -3.91829e-06
-4.6059e-06 -3.91829e-06 0.000296296
0.00284135 0.00162793 -3.42723e-06
0.00162793 0.000826156 8.01001e-06
-3.42723e-06 8.01001e-06 -3.85789e-05
0.00280377 0.00277431 4.8551e-05
0.00277431 -0.00325148 1.67949e-06
4.8551e-05 1.67949e-06 -0.00111136
0.000334283 0.000463248 2.03445e-06
0.000463248 0.000529637 4.34687e-06
2.03445e-06 4.34687e-06 -8.68237e-05
0.00452889 0.00174286 -0.000143364
0.00174286 0.00048418 -5.82397e-05
-0.000143364 -5.82397e-05 0.00067334
0.000523791 0.000813193 -2.3345e-05
0.000813193 3.33349e-05 1.33178e-05
-2.3345e-05 1.33178e-05 -0.000628735
0.00193767 0.00138944 -9.53543e-06
0.00138944 0.000589117 -2.6895e-05
-9.53543e-06 -2.6895e-05 -0.000274759
0.00425726 0.001948 -6.75261e-05
0.001948 0.00130165 -3.83134e-05
-6.75261e-05 -3.83134e-05 0.000620903
0.0157109 0.00119761 -0.000969128
0.00119761 -0.00180038 -8.36903e-05
-0.000969128 -8.36903e-05 0.00102868
0.00275035 0.00433113 -0.000256959
0.00433113 -0.00603496 -0.000217014
-0.000256959 -0.000217014 -0.00026216
0.00119073 0.00326989 3.54467e-05
0.00326989 -0.00176949 -1.01104e-05
3.54467e-05 -1.01104e-05 -0.00130784
0.00788125 -0.00888679 0.00427098
-0.00888679 0.00661424 -0.000521338
0.00427098 -0.000521338 -0.00393011
0.0399717 -0.0220004 -0.000268261
-0.0220004 0.0295285 -1.93944e-05
-0.000268261 -1.93944e-05 0.010658
0.0027533 0.000382632 1.8177e-05
0.000382632 0.00182326 8.0464e-06
1.8177e-05 8.0464e-06 0.00160542
0.000538358 0.00018307 9.11754e-07
0.00018307 0.000424168 1.48887e-06
9.11754e-07 1.48887e-06 0.000207491
0.000376462 0.000270161 7.27666e-06
0.000270161 0.000418843 -7.10934e-06
7.27666e-06 -7.10934e-06 0.00011949
0.000560187 -6.41956e-05 3.71808e-06
-6.41956e-05 0.00020593 -4.08917e-07
3.71808e-06 -4.08917e-07 2.52895e-05
0.000600982 7.99714e-05 7.29897e-06
7.99714e-05 0.000266436 -2.30153e-06
7.29897e-06 -2.30153e-06 6.54997e-05
7.92783e-06 -1.09386e-05 3.32026e-06
-1.09386e-05 -3.36754e-05 -4.1554e-06
3.32026e-06 -4.1554e-06 -0.000294216
0.000471053 0.00012266 6.76318e-06
0.00012266 0.000227528 7.45697e-06
6.76318e-06 7.45697e-06 5.63986e-05
-0.000650177 0.000112504 7.62726e-06
0.000112504 -0.000447618 1.6218e-05
7.62726e-06 1.6218e-05 -0.000494959
0.000716222 0.000155246 -3.123e-06
0.000155246 0.000437535 1.81339e-06
-3.123e-06 1.81339e-06 0.000175657
0.000373282 -1.02688e-05 1.31288e-07
-1.02688e-05 4.9073e-05 4.9403e-07
1.31288e-07 4.9403e-07 -0.000114946
0.000733744 8.11317e-05 -7.99194e-07
8.11317e-05 0.000344436 6.02431e-07
-7.99194e-07 6.02431e-07 0.00013579
0.000217987 0.000137386 -2.01798e-06
0.000137386 0.000182673 -3.17895e-06
-2.01798e-06 -3.17895e-06 3.26854e-05
0.000431897 9.48469e-05 9.23643e-07
9.48469e-05 0.000249336 1.53265e-07
9.23643e-07 1.53265e-07 7.27473e-06
0.00115019 0.00017739 -2.21076e-06
0.00017739 0.000766319 6.65869e-06
-2.21076e-06 6.65869e-06 0.000472778
0.000222667 9.79534e-05 3.43545e-07
9.79534e-05 0.000253442 -7.08462e-06
3.43545e-07 -7.08462e-06 -3.52114e-05
0.000818247 0.000128017 -9.40793e-07
0.000128017 0.000501194 -2.16123e-06
-9.40793e-07 -2.16123e-06 0.000251858
0.000237916 1.08008e-05 -3.7561e-06
1.08008e-05 -1.6916e-05 -6.89569e-06
-3.7561e-06 -6.89569e-06 -0.000201406
7.85908e-05 -5.67565e-05 -1.8696e-06
-5.67565e-05 -0.000145918 -2.4862e-06
-1.8696e-06 -2.4862e-06 -0.000310369
-0.000229218 -4.5351e-05 2.75833e-06
-4.5351e-05 -0.000290083 -8.8869e-06
2.75833e-06 -8.8869e-06 -0.000474364
0.000127966 -8.79027e-05 1.25285e-05
-8.79027e-05 3.68721e-05 1.39665e-05
1.25285e-05 1.39665e-05 -0.000157682
0.000434315 -7.70131e-05 5.32057e-06
-7.70131e-05 0.000275378 -8.00977e-06
5.32057e-06 -8.00977e-06 -2.14096e-06
0.00117374 -0.000260187 2.07998e-06
-0.000260187 0.000698954 1.08898e-06
2.07998e-06 1.08898e-06 0.000437655
0.000394585 -0.000143294 -4.11265e-06
-0.000143294 0.000110093 -4.72709e-06
-4.11265e-06 -4.72709e-06 -7.71993e-05
-0.000348122 -5.28788e-05 -1.22002e-06
-5.28788e-05 -0.000412464 1.87524e-06
-1.22002e-06 1.87524e-06 -0.000584789
0.000456598 -8.90622e-05 -2.25101e-06
-8.90622e-05 7.10051e-05 2.25375e-06
-2.25101e-06 2.25375e-06 -3.17287e-05
0.000458962 -5.82638e-05 2.79746e-06
-5.82638e-05 8.53139e-05 6.26039e-08
2.79746e-06 6.26039e-08 -2.7636e-05
0.000300005 3.1683e-06 5.48002e-06
3.1683e-06 -4.73649e-05 7.68124e-06
5.48002e-06 7.68124e-06 -8.73335e-05
0.000427163 7.83924e-05 -1.21776e-06
7.83924e-05 5.63564e-05 -4.0155e-06
-1.21776e-06 -4.0155e-06 -5.11743e-05
0.000295091 3.34965e-05 4.77662e-07
3.34965e-05 -5.45295e-05 2.23568e-07
4.77662e-07 2.23568e-07 -9.3549e-05
0.00276443 1.9553e-05 2.67469e-05
1.9553e-05 0.00156301 6.81853e-06
2.67469e-05 6.81853e-06 0.00157249
0.000319712 8.48181e-05 -6.81423e-06
8.48181e-05 -3.16053e-05 -9.55571e-06
-6.81423e-06 -9.55571e-06 -7.78753e-05
0.00172876 3.33599e-06 -1.59965e-05
3.33599e-06 0.000872993 -1.94732e-07
-1.59965e-05 -1.94732e-07 0.00087652
0.000789346 -7.8729e-06 2.67818e-06
-7.8729e-06 0.000240104 -2.42309e-06
2.67818e-06 -2.42309e-06 0.000237982
0.000405451 2.47191e-05 -1.98882e-07
2.47191e-05 1.60047e-05 -3.84074e-06
-1.98882e-07 -3.84074e-06 -5.78343e-05
0.000410732 -5.43969e-05 1.26851e-06
-5.43969e-05 4.06657e-05 1.41229e-07
1.26851e-06 1.41229e-07 -6.01388e-05
0.000368543 -1.51316e-06 1.97596e-06
-1.51316e-06 -3.1984e-05 -6.45235e-06
1.97596e-06 -6.45235e-06 -6.31466e-05
0.000552276 -8.97131e-05 -6.33788e-07
-8.97131e-05 0.000129295 2.875e-06
-6.33788e-07 2.875e-06 1.22917e-05
0.000932126 4.05712e-05 8.42494e-07
4.05712e-05 0.000349652 -1.02687e-06
8.42494e-07 -1.02687e-06 0.000309482
0.00284751 7.99389e-05 -2.83227e-06
7.99389e-05 0.00162242 -7.39278e-06
-2.83227e-06 -7.39278e-06 0.00162377
0.000177686 2.68645e-05 -1.59258e-06
2.68645e-05 -0.000155746 9.14777e-06
-1.59258e-06 9.14777e-06 -0.000207199
0.00341446 0.000124575 -7.44816e-06
0.000124575 0.00201588 1.6356e-06
-7.44816e-06 1.6356e-06 0.00200631
0.00356923 0.000173799 3.62908e-05
0.000173799 0.00213726 1.51092e-05
3.62908e-05 1.51092e-05 0.00211525
0.00274601 0.000241576 -3.43036e-06
0.000241576 -0.000238779 -9.23485e-07
-3.43036e-06 -9.23485e-07 2.82968e-05
0.00247089 5.4439e-06 -7.22799e-07
5.4439e-06 -0.000267851 -1.72697e-07
-7.22799e-07 -1.72697e-07 -4.23875e-05
0.00304587 0.000154023 2.07333e-06
0.000154023 -0.000213382 1.21745e-06
2.07333e-06 1.21745e-06 7.93128e-05
0.00282727 0.0019717 0.000173348
0.0019717 -0.00402878 7.33316e-05
0.000173348 7.33316e-05 -0.00123765
0.00293073 2.93904e-05 -1.24519e-06
2.93904e-05 -0.000293029 -1.18074e-07
-1.24519e-06 -1.18074e-07 5.22964e-05
0.00301643 0.000195034 1.97193e-06
0.000195034 -0.000423309 -4.43425e-06
1.97193e-06 -4.43425e-06 0.000131401
0.00333255 -0.000128801 -5.61392e-05
-0.000128801 3.27308e-06 1.25669e-06
-5.61392e-05 1.25669e-06 0.000409217
0.00376559 0.00172483 -0.000260319
0.00172483 -0.00401121 5.10974e-06
-0.000260319 5.10974e-06 -0.000185403
0.00464682 0.000712817 0.000130465
0.000712817 -0.00185113 6.67524e-05
0.000130465 6.67524e-05 -8.05649e-05
0.000361961 8.89571e-05 9.63617e-07
8.89571e-05 5.5332e-05 -3.40298e-06
9.63617e-07 -3.40298e-06 -9.42445e-05
0.00055959 -4.17249e-05 1.0327e-07
-4.17249e-05 0.00019881 -1.98877e-07
1.0327e-07 -1.98877e-07 3.07278e-05
0.000348459 -0.000117113 7.15277e-07
-0.000117113 7.9362e-05 2.44677e-06
7.15277e-07 2.44677e-06 -6.99091e-05
0.000489822 -0.000101064 -4.48074e-07
-0.000101064 0.000165062 2.65446e-06
-4.48074e-07 2.65446e-06 -1.93028e-05
0.00283203 -0.000283177 -4.96453e-06
-0.000283177 -0.000309814 2.62508e-06
-4.96453e-06 2.62508e-06 3.25068e-05
0.00274018 -0.000703875 -1.85449e-06
-0.000703875 -0.000330722 -1.99285e-06
-1.85449e-06 -1.99285e-06 -7.78959e-05
0.00299804 -0.00111432 -3.4868e-06
-0.00111432 4.1664e-05 6.10225e-07
-3.4868e-06 6.10225e-07 4.22387e-05
0.00300906 -0.00152358 7.67557e-06
-0.00152358 0.00127569 7.38898e-06
7.67557e-06 7.38898e-06 0.0004236
0.00311206 -0.00187007 -1.75406e-05
-0.00187007 0.000797485 2.24323e-05
-1.75406e-05 2.24323e-05 -4.52866e-05
0.00303474 -0.0013885 -1.53454e-07
-0.0013885 0.000383131 2.26744e-06
-1.53454e-07 2.26744e-06 2.76545e-05
0.000553458 -0.00135161 4.6122e-05
-0.00135161 -7.0286e-05 -2.88592e-05
4.6122e-05 -2.88592e-05 -0.00104547
0.00404391 -0.000744074 4.16012e-05
-0.000744074 0.00220177 -2.62179e-05
4.16012e-05 -2.62179e-05 0.00149388
-0.000616413 -0.000263471 1.70237e-05
-0.000263471 -0.000645106 9.12353e-06
1.70237e-05 9.12353e-06 -0.00096877
0.00187389 -0.000136355 1.04047e-05
-0.000136355 0.00114722 -2.93729e-07
1.04047e-05 -2.93729e-07 0.000907484
-0.000828176 -6.35717e-05 -1.76717e-05
-6.35717e-05 -0.000502367 -2.06842e-05
-1.76717e-05 -2.06842e-05 -0.000906122
0.000384773 -7.99467e-05 2.91441e-06
-7.99467e-05 0.000159182 -1.65035e-05
2.91441e-06 -1.65035e-05 -0.000137086
0.000501134 -4.04607e-05 3.46977e-07
-4.04607e-05 0.000160042 4.75141e-06
3.46977e-07 4.75141e-06 -1.87153e-05
0.00055818 -0.000135154 -8.35537e-06
-0.000135154 0.00022495 2.26786e-06
-8.35537e-06 2.26786e-06 3.73871e-05
0.00291045 -0.000497571 4.64253e-06
-0.000497571 -0.000435109 -2.17636e-07
4.64253e-06 -2.17636e-07 1.42299e-05
0.000133946 -5.19505e-05 -1.41327e-06
-5.19505e-05 -6.22536e-05 5.62021e-06
-1.41327e-06 5.62021e-06 -0.000220825
0.000406619 -0.000163121 4.9194e-06
-0.000163121 0.000115746 -4.93399e-06
4.9194e-06 -4.93399e-06 -0.000124902
-0.000282377 -9.35984e-05 1.71713e-05
-9.35984e-05 -0.000206236 -7.15608e-06
1.71713e-05 -7.15608e-06 -0.000359213
0.00275226 -0.00088668 1.79515e-06
-0.00088668 -0.000346183 -1.00774e-06
1.79515e-06 -1.00774e-06 -2.01205e-05
0.00308454 -0.00138826 1.56507e-06
-0.00138826 0.000248438 -1.99922e-06
1.56507e-06 -1.99922e-06 -6.35726e-06
0.00203533 -0.0016869 -1.01877e-05
-0.0016869 0.000481706 -3.28984e-08
-1.01877e-05 -3.28984e-08 -0.000378367
0.00331286 -0.00172337 -3.98551e-06
-0.00172337 0.000795076 2.49092e-07
-3.98551e-06 2.49092e-07 0.000143989
0.00176034 -0.000325296 2.5761e-05
-0.000325296 0.00107538 -1.03775e-05
2.5761e-05 -1.03775e-05 0.000706143
-0.00188686 -4.56202e-05 1.54364e-05
-4.56202e-05 -0.0012098 3.10942e-06
1.54364e-05 3.10942e-06 -0.00156272
0.00101211 -0.00165646 1.99614e-07
-0.00165646 0.000606556 2.46634e-06
1.99614e-07 2.46634e-06 -0.000516336
0.00166944 -0.000682093 -2.38152e-05
-0.000682093 0.000961469 2.71804e-06
-2.38152e-05 2.71804e-06 0.00029276
0.00385313 -0.000742659 -9.06412e-05
-0.000742659 0.000205546 3.10788e-05
-9.06412e-05 3.10788e-05 0.000619078
0.00322184 -0.00127309 -4.17172e-05
-0.00127309 7.55405e-05 2.27517e-05
-4.17172e-05 2.27517e-05 0.000220634
0.0033832 -0.00158993 1.41566e-05
-0.00158993 0.000886531 -2.6011e-05
1.41566e-05 -2.6011e-05 0.000259288
0.00372915 -0.00208455 -5.65969e-06
-0.00208455 0.00120956 3.72076e-06
-5.65969e-06 3.72076e-06 0.000426706
0.0001051 -0.000215134 4.5937e-06
-0.000215134 0.000153671 -1.64463e-05
4.5937e-06 -1.64463e-05 -8.84447e-05
0.000704432 -0.00038626 -1.46817e-05
-0.00038626 0.000336674 3.3597e-05
-1.46817e-05 3.3597e-05 -1.22882e-05
0.000698905 -0.000371988 -2.82096e-05
-0.000371988 0.000667533 7.21007e-05
-2.82096e-05 7.21007e-05 0.000268423
-0.000961091 -0.00116312 8.55597e-06
-0.00116312 0.000200191 -4.56587e-05
8.55597e-06 -4.56587e-05 -0.00107395
0.00776138 -0.000467516 -1.07705e-06
-0.000467516 -0.00759473 4.22593e-05
-1.07705e-06 4.22593e-05 -0.00825361
0.0043443 0.000675819 1.76946e-05
0.000675819 0.00285045 -9.32619e-07
1.76946e-05 -9.32619e-07 0.00237839
0.000359722 0.000611772 -2.457e-06
0.000611772 0.000145427 -1.11637e-05
-2.457e-06 -1.11637e-05 -0.000421868
0.00165033 0.000654122 9.10128e-05
0.000654122 -0.00132909 4.18232e-05
9.10128e-05 4.18232e-05 -0.000503167
0.00241776 0.00115781 3.31177e-05
0.00115781 0.000112245 1.37932e-05
3.31177e-05 1.37932e-05 -3.12867e-05
0.00299872 0.00165273 1.50633e-05
0.00165273 0.000911329 1.91416e-05
1.50633e-05 1.91416e-05 3.56701e-05
0.00250066 0.00130909 1.25815e-05
0.00130909 0.00101659 1.43044e-05
1.25815e-05 1.43044e-05 0.00014228
0.00349071 0.00313342 0.000144685
0.00313342 -0.00320984 7.62888e-05
0.000144685 7.62888e-05 -0.00124702
0.00108598 0.000503604 3.55944e-06
0.000503604 0.00090273 -7.28565e-06
3.55944e-06 -7.28565e-06 0.000366116
0.00322219 0.00154086 -7.57851e-06
0.00154086 -0.000281724 4.59623e-06
-7.57851e-06 4.59623e-06 9.47983e-05
0.00123447 0.000931385 -1.30556e-05
0.000931385 0.00047562 1.00089e-05
-1.30556e-05 1.00089e-05 -0.00023085
0.00257556 0.00151721 3.37212e-06
0.00151721 0.00093994 -9.37273e-06
3.37212e-06 -9.37273e-06 4.39626e-05
0.00415002 0.00185056 -1.19508e-05
0.00185056 0.00130653 -1.08571e-06
-1.19508e-05 -1.08571e-06 0.000635393
0.00391935 0.000797588 -0.000276973
0.000797588 -0.0107922 -0.00019545
-0.000276973 -0.00019545 -0.00900812
0.00674319 0.00476832 -0.000232529
0.00476832 -0.00355554 -0.000124165
-0.000232529 -0.000124165 0.00104622
0.00089489 0.00305302 -1.78848e-05
0.00305302 -0.00182596 -1.28978e-05
-1.78848e-05 -1.28978e-05 -0.00139864
0.0158135 -0.00594548 0.00114357
-0.00594548 0.00965114 0.000163602
0.00114357 0.000163602 0.00193544
0.0412292 -0.0251948 -0.000391534
-0.0251948 0.0298463 -0.000526729
-0.000391534 -0.000526729 0.00947078
-3.67218e-05 0.000456986 -3.91169e-06
0.000456986 -4.34976e-06 -2.53814e-06
-3.91169e-06 -2.53814e-06 -0.000473472
0.00300706 -0.00353648 0.00286429
-0.00353648 0.00530193 -0.000200238
0.00286429 -0.000200238 0.000807476
0.0180253 -0.0147064 0.000311074
-0.0147064 0.0202169 -0.00028357
0.000311074 -0.00028357 0.00148231
0.00529502 0.00283796 -0.000101215
0.00283796 0.00114481 -3.58661e-05
-0.000101215 -3.58661e-05 0.000594337
0.00187359 0.00108899 -4.21879e-05
0.00108899 0.000741122 -4.58881e-06
-4.21879e-05 -4.58881e-06 2.36967e-05
0.00237826 0.00156429 -6.24546e-05
0.00156429 0.00077616 -5.61417e-05
-6.24546e-05 -5.61417e-05 -2.97232e-05
-0.000878498 0.00277792 0.000172381
0.00277792 -0.00182825 0.000139904
0.000172381 0.000139904 -0.00179165
0.015974 0.00737004 0.000377554
0.00737004 -0.00455277 -1.97158e-05
0.000377554 -1.97158e-05 0.00064184
0.00710035 0.00728171 -0.000223696
0.00728171 -0.00174933 -0.000237
-0.000223696 -0.000237 0.00080024
0.0300327 -0.0112441 0.00127699
-0.0112441 0.0166308 -4.77048e-05
0.00127699 -4.77048e-05 0.00352152
0.0260499 -0.00207854 -0.0011522
-0.00207854 0.0140381 0.000882784
-0.0011522 0.000882784 0.0065698
0.00118856 0.000208035 1.23144e-05
0.000208035 0.000873513 3.62323e-06
1.23144e-05 3.62323e-06 0.000633495
0.000277181 0.000247326 2.95082e-06
0.000247326 0.000375811 1.05566e-06
2.95082e-06 1.05566e-06 7.24038e-05
0.00131426 0.000516114 4.24006e-06
0.000516114 0.00101702 -8.83054e-06
4.24006e-06 -8.83054e-06 0.00056331
0.000484694 2.89088e-06 4.67594e-06
2.89088e-06 0.000147308 1.92371e-06
4.67594e-06 1.92371e-06 -3.55705e-05
0.000319326 0.000121444 6.77731e-06
0.000121444 4.25147e-05 2.55271e-06
6.77731e-06 2.55271e-06 -0.000146402
-0.00015067 2.284e-05 4.30928e-06
2.284e-05 -0.000160383 3.89338e-06
4.30928e-06 3.89338e-06 -0.000384561
0.000467592 0.000117853 -3.5648e-06
0.000117853 0.000296785 3.25412e-07
-3.5648e-06 3.25412e-07 4.42274e-05
0.000226514 0.000139093 -4.71844e-06
0.000139093 0.000155481 9.33447e-06
-4.71844e-06 9.33447e-06 2.05513e-05
0.000255371 1.61285e-05 -2.75975e-07
1.61285e-05 -1.7546e-05 8.45817e-07
-2.75975e-07 8.45817e-07 -0.000191279
0.000802502 0.000112635 2.94098e-06
0.000112635 0.000525621 2.73599e-06
2.94098e-06 2.73599e-06 0.000249633
0.00023218 6.95629e-05 -1.91911e-07
6.95629e-05 9.50603e-05 -3.02961e-06
-1.91911e-07 -3.02961e-06 -0.000144889
0.000639613 9.04774e-05 8.57362e-07
9.04774e-05 0.000296813 2.36134e-07
8.57362e-07 2.36134e-07 7.57764e-05
0.000206319 9.23695e-05 -2.46661e-06
9.23695e-05 0.000249228 -1.96114e-06
-2.46661e-06 -1.96114e-06 -3.41379e-05
0.000491063 7.11717e-05 -5.57242e-07
7.11717e-05 0.000360331 2.7406e-06
-5.57242e-07 2.7406e-06 0.00010333
-0.000492001 3.79022e-05 3.16818e-08
3.79022e-05 1.93377e-05 -4.5478e-06
3.16818e-08 -4.5478e-06 -0.000437562
5.70147e-05 -9.21935e-05 -5.09828e-06
-9.21935e-05 -1.36167e-05 -2.23891e-07
-5.09828e-06 -2.23891e-07 -0.000274931
0.000322358 -5.94561e-05 -6.56573e-06
-5.94561e-05 6.39765e-05 -1.01919e-05
-6.56573e-06 -1.01919e-05 -0.000142224
0.000751328 -2.37012e-05 8.08435e-07
-2.37012e-05 0.000394902 -6.40848e-06
8.08435e-07 -6.40848e-06 0.000174695
0.000619497 -0.000165254 2.46876e-07
-0.000165254 0.000360356 2.98193e-06
2.46876e-07 2.98193e-06 0.000166722
-0.000126027 4.14012e-05 -7.3599e-06
4.14012e-05 -0.000180218 2.10681e-06
-7.3599e-06 2.10681e-06 -0.000328785
0.000701874 -0.000211002 1.62485e-05
-0.000211002 0.000343756 8.23083e-06
1.62485e-05 8.23083e-06 0.000174084
0.00151644 -0.000100296 -5.42804e-06
-0.000100296 0.00108034 1.22898e-05
-5.42804e-06 1.22898e-05 0.000859646
-0.000706166 -1.56425e-06 1.18224e-06
-1.56425e-06 -0.000440334 -1.3379e-05
1.18224e-06 -1.3379e-05 -0.000751274
-0.000993873 8.85223e-06 -2.28847e-07
8.85223e-06 -0.000634261 -1.26491e-05
-2.28847e-07 -1.26491e-05 -0.000898004
0.000563212 -0.00022296 1.14304e-07
-0.00022296 0.000371874 8.49198e-07
1.14304e-07 8.49198e-07 7.24372e-05
-0.000510545 2.90618e-06 -6.94925e-07
2.90618e-06 -0.000450329 -3.72077e-06
-6.94925e-07 -3.72077e-06 -0.000658599
0.000962278 -0.00030005 -4.67931e-06
-0.00030005 0.000523013 3.34868e-07
-4.67931e-06 3.34868e-07 0.000288983
0.000823668 -0.000174017 2.02546e-06
-0.000174017 0.000402219 2.06653e-07
2.02546e-06 2.06653e-07 0.000206212
0.000701395 -9.05309e-05 -9.52281e-07
-9.05309e-05 0.000233479 1.25841e-06
-9.52281e-07 1.25841e-06 0.000126973
0.000170325 2.06352e-05 1.26193e-06
2.06352e-05 -3.43523e-05 6.56417e-07
1.26193e-06 6.56417e-07 -0.000237212
0.000447784 -6.63791e-06 3.27877e-06
-6.63791e-06 7.9132e-05 1.34455e-07
3.27877e-06 1.34455e-07 -3.14427e-05
0.00139942 -4.38009e-05 -2.05352e-05
-4.38009e-05 0.000669559 7.83876e-06
-2.05352e-05 7.83876e-06 0.000640114
0.000426316 0.000101928 -2.05269e-06
0.000101928 6.94551e-05 -2.26822e-06
-2.05269e-06 -2.26822e-06 -4.28849e-05
0.000803517 -3.64313e-05 -7.7658e-06
-3.64313e-05 0.000287104 9.10014e-07
-7.7658e-06 9.10014e-07 0.00024914
0.000856528 -9.29813e-06 -2.22083e-05
-9.29813e-06 0.000295054 5.32715e-06
-2.22083e-05 5.32715e-06 0.000296844
0.00025689 -6.16778e-05 7.50086e-06
-6.16778e-05 -7.872e-05 -6.48296e-06
7.50086e-06 -6.48296e-06 -0.000117968
0.00275978 -7.24718e-07 2.06575e-05
-7.24718e-07 0.00155928 -8.6641e-08
2.06575e-05 -8.6641e-08 0.00156843
0.000831305 7.70712e-06 -1.59322e-05
7.70712e-06 0.000281065 -6.12143e-06
-1.59322e-05 -6.12143e-06 0.000279334
0.000633752 9.48093e-05 2.67625e-06
9.48093e-05 0.000256902 -2.88091e-06
2.67625e-06 -2.88091e-06 8.64309e-05
0.000330067 7.87162e-05 -1.98993e-06
7.87162e-05 -6.08758e-06 -5.10111e-06
-1.98993e-06 -5.10111e-06 -9.17393e-05
0.00040055 4.59242e-06 3.13032e-06
4.59242e-06 3.61227e-05 2.44477e-07
3.13032e-06 2.44477e-07 -5.26801e-05
0.000319539 1.71957e-05 7.106e-07
1.71957e-05 -6.37819e-05 -5.32246e-06
7.106e-07 -5.32246e-06 -8.96404e-05
0.000607063 -0.000112603 -2.4615e-06
-0.000112603 0.000191275 5.87556e-06
-2.4615e-06 5.87556e-06 7.7353e-05
0.000390049 4.38313e-06 1.95028e-06
4.38313e-06 -1.73873e-05 -1.01429e-06
1.95028e-06 -1.01429e-06 -4.9671e-05
0.00262658 5.4722e-05 -3.76277e-06
5.4722e-05 0.00146996 -6.59029e-06
-3.76277e-06 -6.59029e-06 0.00147664
0.00157543 5.32533e-05 3.25128e-06
5.32533e-05 0.000781831 5.19335e-06
3.25128e-06 5.19335e-06 0.000740131
0.00174559 6.15291e-05 -2.62077e-06
6.15291e-05 0.000893221 2.39706e-06
-2.62077e-06 2.39706e-06 0.00088846
0.000528366 4.73076e-05 9.595e-06
4.73076e-05 9.08803e-05 1.61525e-05
9.595e-06 1.61525e-05 7.43982e-05
-0.000371633 0.00153345 0.000198078
0.00153345 -0.00592288 4.40862e-05
0.000198078 4.40862e-05 -0.00280949
0.00286205 -9.00145e-06 -3.96491e-06
-9.00145e-06 -0.000334475 -1.24872e-06
-3.96491e-06 -1.24872e-06 1.6254e-05
0.002905 0.000144414 7.33411e-05
0.000144414 -0.000465539 -7.95247e-06
7.33411e-05 -7.95247e-06 2.6936e-05
0.00583679 0.00203141 -0.000114947
0.00203141 -0.00409408 -4.84352e-05
-0.000114947 -4.84352e-05 0.000889475
0.00398284 0.000393797 0.000158239
0.000393797 -0.00269339 -1.26894e-05
0.000158239 -1.26894e-05 -0.000514842
0.00329922 -0.000150918 1.79309e-06
-0.000150918 -9.20325e-06 2.72328e-06
1.79309e-06 2.72328e-06 0.00036579
0.0072301 -0.00122796 -0.000106352
-0.00122796 0.00039707 -3.0309e-05
-0.000106352 -3.0309e-05 0.00198231
0.00489229 -0.000690544 -0.000212724
-0.000690544 -0.00448305 -7.21141e-05
-0.000212724 -7.21141e-05 5.54697e-05
0.0176324 -0.0016589 2.63347e-05
-0.0016589 -0.00216245 -0.000170327
2.63347e-05 -0.000170327 -0.000214096
0.0261941 0.0125449 0.00274883
0.0125449 0.0135809 0.000203438
0.00274883 0.000203438 0.00220016
0.0529376 0.0201963 0.000150749
0.0201963 0.0344097 0.000343627
0.000150749 0.000343627 0.0148637
-0.000129134 -0.00010597 6.95579e-06
-0.00010597 -0.000229589 1.81854e-06
6.95579e-06 1.81854e-06 -0.000390832
0.000583612 -3.39626e-05 2.28584e-06
-3.39626e-05 0.000218459 -9.49246e-08
2.28584e-06 -9.49246e-08 5.81406e-05
0.000907787 -0.000158523 -2.51583e-07
-0.000158523 0.000457459 3.60816e-06
-2.51583e-07 3.60816e-06 0.000267727
0.000523709 -0.000113875 7.62705e-06
-0.000113875 0.000178027 -6.60953e-07
7.62705e-06 -6.60953e-07 3.73661e-05
0.000694646 0.000141957 -2.44308e-06
0.000141957 0.000379435 -7.0795e-06
-2.44308e-06 -7.0795e-06 0.000212522
0.00105054 0.000220126 1.02455e-06
0.000220126 0.000569993 5.04337e-06
1.02455e-06 5.04337e-06 0.000366724
0.000339979 2.93442e-05 4.04598e-06
2.93442e-05 6.25622e-05 -1.32984e-06
4.04598e-06 -1.32984e-06 -0.000131771
0.000506242 -2.35314e-05 -1.01623e-06
-2.35314e-05 0.00016524 6.40087e-07
-1.01623e-06 6.40087e-07 -9.91417e-06
0.0028168 -0.000495799 2.09783e-05
-0.000495799 -0.000487778 -5.69451e-06
2.09783e-05 -5.69451e-06 -3.85489e-05
0.00266974 -0.000940086 2.11587e-05
-0.000940086 -0.00042736 -9.11564e-06
2.11587e-05 -9.11564e-06 -0.000150413
0.00301951 -0.00137413 -2.81958e-06
-0.00137413 0.000204478 1.08652e-05
-2.81958e-06 1.08652e-05 -4.02298e-05
0.00291141 -0.00178083 1.73138e-06
-0.00178083 0.000922717 1.22615e-05
1.73138e-06 1.22615e-05 0.00010203
0.00326576 -0.00176685 -2.87976e-05
-0.00176685 0.000755677 2.01729e-05
-2.87976e-05 2.01729e-05 7.12589e-05
0.00071554 -0.00159143 4.04769e-05
-0.00159143 0.000460063 1.68956e-05
4.04769e-05 1.68956e-05 -0.000691965
0.0045557 -0.00109628 3.29817e-05
-0.00109628 0.00235131 -2.96805e-06
3.29817e-05 -2.96805e-06 0.00173506
0.00202628 -0.000520895 3.82869e-05
-0.000520895 0.00132009 -5.53692e-05
3.82869e-05 -5.53692e-05 0.000856977
0.000422754 -5.29448e-05 1.94369e-06
-5.29448e-05 0.000102466 -4.42448e-06
1.94369e-06 -4.42448e-06 -0.000120283
0.00123307 -0.000173157 2.09434e-05
-0.000173157 0.000680069 -4.61546e-05
2.09434e-05 -4.61546e-05 0.000339169
9.0431e-05 -0.000162969 8.72637e-07
-0.000162969 -0.000101097 4.6986e-06
8.72637e-07 4.6986e-06 -0.000264728
-0.00022502 4.90742e-06 -2.83473e-05
4.90742e-06 -0.0001517 -9.14876e-06
-2.83473e-05 -9.14876e-06 -0.000257105
0.0029918 -0.000684058 -1.26605e-07
-0.000684058 -0.000368869 5.5257e-06
-1.26605e-07 5.5257e-06 0.000173703
0.000327515 -8.7621e-05 -6.78564e-06
-8.7621e-05 0.000243056 5.17966e-06
-6.78564e-06 5.17966e-06 2.93024e-05
0.000895105 -0.000321125 -3.18648e-06
-0.000321125 0.000465838 1.20075e-06
-3.18648e-06 1.20075e-06 0.000167316
0.00240562 -0.00120214 1.094e-05
-0.00120214 -0.000410715 -6.20122e-06
1.094e-05 -6.20122e-06 -0.000198053
0.0032452 -0.00157212 1.04961e-06
-0.00157212 0.000768641 4.78129e-06
1.04961e-06 4.78129e-06 0.000182873
0.00244169 -0.00183656 3.33547e-06
-0.00183656 0.000509052 -1.37048e-05
3.33547e-06 -1.37048e-05 -0.000198745
0.000462773 -0.000453086 -7.29356e-06
-0.000453086 0.000441905 -2.6326e-05
-7.29356e-06 -2.6326e-05 -9.14853e-05
0.000786272 -0.00100457 1.28116e-05
-0.00100457 0.00104887 -2.97243e-06
1.28116e-05 -2.97243e-06 -4.52809e-05
0.00627588 -0.00175192 -5.76831e-05
-0.00175192 0.000918709 4.98725e-05
-5.76831e-05 4.98725e-05 0.00164499
0.00266854 -0.00163128 -3.49653e-05
-0.00163128 0.000340562 2.22747e-05
-3.49653e-05 2.22747e-05 -0.000143239
0.00426696 -0.00215303 3.63632e-06
-0.00215303 0.00139504 -3.03718e-07
3.63632e-06 -3.03718e-07 0.000625666
0.00132723 -0.00145562 -4.92739e-05
-0.00145562 0.00036155 1.055e-05
-4.92739e-05 1.055e-05 -8.92122e-05
0.00090546 -0.000257036 1.64059e-05
-0.000257036 0.000719895 -2.44831e-06
1.64059e-05 -2.44831e-06 0.000343131
-0.00132728 -2.93654e-06 2.16944e-05
-2.93654e-06 -0.000603682 2.49573e-05
2.16944e-05 2.49573e-05 -0.000991707
-0.000226738 -0.000461725 -2.39117e-05
-0.000461725 0.00045049 -1.68176e-05
-2.39117e-05 -1.68176e-05 -0.000411604
-0.00675552 -0.00102963 0.00192271
-0.00102963 0.00299613 2.04585e-05
0.00192271 2.04585e-05 -0.00620593
0.0156029 -0.000466752 -9.42748e-05
-0.000466752 -0.00287264 5.36214e-05
-9.42748e-05 5.36214e-05 -2.30036e-05
0.00208416 0.000575631 1.00354e-05
0.000575631 0.00136865 -1.80623e-05
1.00354e-05 -1.80623e-05 0.000917213
0.00222463 0.00108872 -5.54251e-06
0.00108872 0.00109856 5.29656e-06
-5.54251e-06 5.29656e-06 0.000337447
0.00176158 0.00127362 0.000149564
0.00127362 -0.0011102 6.81088e-05
0.000149564 6.81088e-05 -0.000554207
0.00399861 0.00175441 4.14598e-05
0.00175441 0.00128262 2.36037e-05
4.14598e-05 2.36037e-05 0.000614368
0.00274971 0.00156724 2.25235e-05
0.00156724 0.00101562 1.12166e-05
2.25235e-05 1.12166e-05 0.00010948
0.0203937 0.00132704 2.63007e-05
0.00132704 -0.000958373 -0.000290016
2.63007e-05 -0.000290016 0.0020138
0.00798382 0.00558916 -0.000364312
0.00558916 -0.0049363 2.71317e-05
-0.000364312 2.71317e-05 0.000460327
0.000771369 0.00295113 -4.28103e-05
0.00295113 -0.00165643 -4.33741e-05
-4.28103e-05 -4.33741e-05 -0.00137246
0.0206595 -0.0104121 -0.00177629
-0.0104121 0.0128135 0.000626716
-0.00177629 0.000626716 0.00172609
0.0397755 -0.0300531 -0.0020314
-0.0300531 0.0300481 -0.00181381
-0.0020314 -0.00181381 0.00852849
0.000704326 0.000587606 9.98015e-06
0.000587606 0.000495912 -8.06868e-06
9.98015e-06 -8.06868e-06 -1.81051e-05
0.00479869 -0.00925387 0.00162789
-0.00925387 0.00313734 -6.12149e-05
0.00162789 -6.12149e-05 -0.00711023
0.00914683 -0.0111102 -0.00145648
-0.0111102 0.0198834 0.000182479
-0.00145648 0.000182479 0.00447915
0.00418959 0.00248365 -6.65874e-06
0.00248365 0.000527558 1.21982e-05
-6.65874e-06 1.21982e-05 0.000133059
0.00120798 0.00103824 -1.46796e-05
0.00103824 0.000429557 1.20316e-05
-1.46796e-05 1.20316e-05 -0.00031838
0.00364976 0.00183948 -7.93613e-06
0.00183948 0.00143021 -2.76416e-06
-7.93613e-06 -2.76416e-06 0.000530471
0.00213793 0.00306635 0.000106724
0.00306635 9.15891e-05 7.1513e-05
0.000106724 7.1513e-05 -5.10572e-05
0.0128577 0.00827914 -0.000391544
0.00827914 -0.00686576 -0.000135683
-0.000391544 -0.000135683 -0.00249715
0.00396276 0.00703813 -0.000110515
0.00703813 -0.00177385 -0.000120189
-0.000110515 -0.000120189 0.000443168
0.0363379 -0.0112262 0.00118174
-0.0112262 0.018759 -0.000449237
0.00118174 -0.000449237 0.00525028
0.0352679 -0.00753341 -0.000571821
-0.00753341 0.015123 0.0011534
-0.000571821 0.0011534 0.00334809
0.00123524 0.00077678 -1.85767e-05
0.00077678 0.000749609 -1.36904e-05
-1.85767e-05 -1.36904e-05 0.000226502
0.00173321 -0.0012076 0.000457429
-0.0012076 0.00962659 -0.000279823
0.000457429 -0.000279823 -0.00180522
0.0119422 0.00573829 -0.00139502
0.00573829 0.00863962 -0.000638636
-0.00139502 -0.000638636 0.00281045
0.00308959 0.00196668 -6.28865e-05
0.00196668 0.000469932 -3.99242e-05
-6.28865e-05 -3.99242e-05 0.000128874
0.00328463 0.00184675 -0.000100937
0.00184675 0.00154215 -4.57107e-05
-0.000100937 -4.57107e-05 0.000622944
0.000803191 0.00225584 -0.000135305
0.00225584 0.00090794 -7.1008e-05
-0.000135305 -7.1008e-05 -0.000111318
-0.00152101 0.00549706 0.000114751
0.00549706 -0.000195972 -8.40509e-05
0.000114751 -8.40509e-05 -0.000531201
0.00579388 0.0119426 0.00147515
0.0119426 -0.00592856 0.00025799
0.00147515 0.00025799 -0.00361064
0.0364357 -0.0134564 -0.0017127
-0.0134564 0.0228658 0.00146616
-0.0017127 0.00146616 0.00746741
0.0103205 0.00134769 -3.24278e-05
0.00134769 -0.0012536 -0.000296161
-3.24278e-05 -0.000296161 -0.00421062
0.00060382 0.000316578 -6.4313e-06
0.000316578 0.00058491 9.25179e-06
-6.4313e-06 9.25179e-06 0.00024834
0.000831226 0.000465739 5.99479e-06
0.000465739 0.000708071 1.3022e-06
5.99479e-06 1.3022e-06 0.000289796
0.000287786 0.000440065 9.41284e-07
0.000440065 0.000437449 2.63054e-06
9.41284e-07 2.63054e-06 -1.9105e-05
0.000365427 9.23977e-05 5.98877e-06
9.23977e-05 6.15162e-05 4.33497e-06
5.98877e-06 4.33497e-06 -0.000118101
0.0011946 0.000185312 1.86365e-06
0.000185312 0.000689722 5.12539e-06
1.86365e-06 5.12539e-06 0.000446209
3.87337e-05 4.34506e-05 1.65979e-06
4.34506e-05 -2.44097e-05 4.20324e-06
1.65979e-06 4.20324e-06 -0.000279155
6.03717e-05 4.53511e-05 9.40107e-06
4.53511e-05 5.9988e-05 -2.15564e-06
9.40107e-06 -2.15564e-06 -0.000214576
0.000299428 9.88473e-05 -2.24706e-06
9.88473e-05 0.000304537 6.65538e-06
-2.24706e-06 6.65538e-06 3.36844e-05
0.000826997 8.51275e-05 -1.28322e-06
8.51275e-05 0.000425403 -1.44534e-06
-1.28322e-06 -1.44534e-06 0.00019644
0.000301153 5.66673e-05 1.5787e-06
5.66673e-05 0.000235896 -2.86401e-06
1.5787e-06 -2.86401e-06 -3.29629e-05
0.000678265 -1.60267e-06 -8.79482e-08
-1.60267e-06 0.000400799 2.87992e-06
-8.79482e-08 2.87992e-06 0.000133134
-0.000167809 8.16096e-05 -1.92571e-06
8.16096e-05 0.000220816 -1.73126e-07
-1.92571e-06 -1.73126e-07 -0.000217179
-1.31798e-05 4.58081e-05 7.62939e-07
4.58081e-05 0.000464685 7.85871e-07
7.62939e-07 7.85871e-07 -0.000115779
2.1076e-05 -5.62772e-05 -8.0847e-07
-5.62772e-05 0.000173985 2.94434e-06
-8.0847e-07 2.94434e-06 -0.000186621
0.00240921 -0.000142316 -1.20819e-05
-0.000142316 0.00161513 -4.45389e-06
-1.20819e-05 -4.45389e-06 0.00127969
0.0013446 -0.000213409 -4.51398e-06
-0.000213409 0.000799681 -3.55358e-07
-4.51398e-06 -3.55358e-07 0.000560351
0.000934367 -0.000138645 -1.47396e-05
-0.000138645 0.00054218 8.76511e-08
-1.47396e-05 8.76511e-08 0.00037469
0.000465533 -0.000173347 -8.0719e-09
-0.000173347 0.000222723 3.6638e-06
-8.0719e-09 3.6638e-06 5.56867e-05
0.000485309 -0.000248384 2.6608e-06
-0.000248384 0.000146602 -2.31448e-06
2.6608e-06 -2.31448e-06 2.9159e-06
0.000273469 -5.8654e-05 -1.58775e-05
-5.8654e-05 0.000310862 9.33425e-06
-1.58775e-05 9.33425e-06 0.000106853
0.000521165 -0.000128028 1.68247e-05
-0.000128028 0.000182154 -1.77444e-05
1.68247e-05 -1.77444e-05 -1.29539e-06
-0.0013492 -4.85221e-05 -1.67246e-05
-4.85221e-05 -0.000713756 7.63228e-06
-1.67246e-05 7.63228e-06 -0.00101632
0.00290246 -0.000341538 1.62072e-05
-0.000341538 0.00189609 -2.07833e-06
1.62072e-05 -2.07833e-06 0.00170134
0.00162332 -1.04877e-05 1.81028e-05
-1.04877e-05 0.000895815 -1.72016e-05
1.81028e-05 -1.72016e-05 0.000557446
0.00414899 -0.000869406 2.40114e-06
-0.000869406 0.00224872 6.84564e-06
2.40114e-06 6.84564e-06 0.00177402
-0.00348183 -0.000316102 9.42706e-06
-0.000316102 -0.00210351 1.93406e-06
9.42706e-06 1.93406e-06 -0.00253885
-6.37963e-06 -4.71911e-05 8.11842e-08
-4.71911e-05 1.77478e-05 3.5529e-07
8.11842e-08 3.5529e-07 -0.000294298
-0.000444267 -4.64868e-05 1.5165e-05
-4.64868e-05 -0.00030043 -2.27297e-05
1.5165e-05 -2.27297e-05 -0.000620051
0.0012458 -0.000211361 -1.88565e-06
-0.000211361 0.000806586 -1.51918e-06
-1.88565e-06 -1.51918e-06 0.000524348
-0.000104103 -5.28326e-05 1.10846e-05
-5.28326e-05 -0.00018205 7.86141e-06
1.10846e-05 7.86141e-06 -0.000421737
0.001923 -0.000123174 -2.00726e-06
-0.000123174 0.00124198 4.49847e-06
-2.00726e-06 4.49847e-06 0.000950498
0.000241415 -9.30482e-05 -3.18084e-06
-9.30482e-05 2.86042e-05 8.53221e-08
-3.18084e-06 8.53221e-08 -0.000164403
-3.26507e-05 3.47475e-05 5.68747e-06
3.47475e-05 -0.000239183 -9.82125e-07
5.68747e-06 -9.82125e-07 -0.000348187
0.00109999 -0.000198726 5.92407e-08
-0.000198726 0.000578736 7.43471e-06
5.92407e-08 7.43471e-06 0.000386808
0.000328353 -5.70378e-05 -1.21552e-06
-5.70378e-05 -2.17565e-05 -7.7891e-08
-1.21552e-06 -7.7891e-08 -0.000118903
0.00132449 4.49891e-05 -9.84915e-06
4.49891e-05 0.000614879 8.3857e-06
-9.84915e-06 8.3857e-06 0.000584758
0.000427191 -9.88325e-05 1.69403e-06
-9.88325e-05 5.2953e-05 -1.19123e-06
1.69403e-06 -1.19123e-06 -5.18109e-05
0.000830248 -3.2332e-05 -1.45189e-05
-3.2332e-05 0.000293188 1.11104e-06
-1.45189e-05 1.11104e-06 0.000260259
0.00065935 6.97389e-06 2.35892e-06
6.97389e-06 0.000150687 1.80895e-06
2.35892e-06 1.80895e-06 0.000152927
0.000369149 -6.09454e-05 6.13549e-06
-6.09454e-05 -9.39898e-06 -5.5482e-06
6.13549e-06 -5.5482e-06 -4.58276e-05
0.00264881 -2.13604e-06 6.39795e-06
-2.13604e-06 0.00148242 -1.29936e-08
6.39795e-06 -1.29936e-08 0.00149349
0.00271569 -1.19965e-05 2.15385e-05
-1.19965e-05 0.0015292 -5.76201e-06
2.15385e-05 -5.76201e-06 0.00153875
0.00117506 9.51131e-05 -6.89626e-07
9.51131e-05 0.0006108 -3.18737e-06
-6.89626e-07 -3.18737e-06 0.000431299
0.000441461 9.19669e-05 -5.38334e-07
9.19669e-05 7.71011e-05 -6.64362e-06
-5.38334e-07 -6.64362e-06 -1.95568e-05
0.000522963 -1.20336e-05 -7.37683e-07
-1.20336e-05 0.00017478 8.97312e-07
-7.37683e-07 8.97312e-07 7.62381e-06
0.000364187 1.62678e-05 1.10425e-06
1.62678e-05 -3.60928e-05 -5.44064e-06
1.10425e-06 -5.44064e-06 -5.99055e-05
0.000406003 -1.95465e-05 2.58131e-06
-1.95465e-05 3.73424e-05 -3.1705e-07
2.58131e-06 -3.1705e-07 -4.67861e-05
0.000423486 -8.91463e-05 -3.81897e-06
-8.91463e-05 5.45623e-05 5.24795e-06
-3.81897e-06 5.24795e-06 -3.84429e-05
0.000375971 -6.20141e-06 -1.89328e-07
-6.20141e-06 -2.84737e-05 1.32246e-07
-1.89328e-07 1.32246e-07 -5.39034e-05
0.00237839 3.35915e-05 -7.6458e-06
3.35915e-05 0.00130142 -6.21769e-06
-7.6458e-06 -6.21769e-06 0.00131217
0.00146563 2.4265e-05 -3.94775e-07
2.4265e-05 0.000696652 4.94897e-06
-3.94775e-07 4.94897e-06 0.000668559
0.00161389 3.94578e-05 -8.93372e-06
3.94578e-05 0.000794693 -5.04511e-08
-8.93372e-06 -5.04511e-08 0.000796274
0.000778753 4.34363e-05 4.51461e-06
4.34363e-05 0.000248386 1.29642e-05
4.51461e-06 1.29642e-05 0.000239425
0.00217003 0.00630123 0.00187553
0.00630123 0.00448327 3.30101e-05
0.00187553 3.30101e-05 -0.00590625
0.0111274 0.00806842 0.00335152
0.00806842 0.0170906 0.000144286
0.00335152 0.000144286 0.00334838
0.00138953 0.00203751 -2.53957e-05
0.00203751 -0.00592196 -9.23062e-05
-2.53957e-05 -9.23062e-05 -0.000433919
0.0034846 5.91782e-05 0.000137827
5.91782e-05 -0.00329254 1.66108e-05
0.000137827 1.66108e-05 -0.000857457
0.0034116 -0.00017045 4.75614e-05
-0.00017045 5.41726e-05 -4.41455e-06
4.75614e-05 -4.41455e-06 0.000405625
0.00385678 0.000306252 -2.42092e-05
0.000306252 -0.0031034 -3.93366e-05
-2.42092e-05 -3.93366e-05 0.000630979
0.00508252 -0.00108843 3.30924e-05
-0.00108843 -0.000592257 2.36525e-07
3.30924e-05 2.36525e-07 0.000760435
0.0130262 -0.00154907 0.000475205
-0.00154907 -0.00541441 -0.000190044
0.000475205 -0.000190044 -0.003795
0.0125961 0.00826725 -0.000116929
0.00826725 0.0061395 -0.000126321
-0.000116929 -0.000126321 -0.00227266
0.0471633 0.0249387 -0.00068737
0.0249387 0.0323589 0.000269764
-0.00068737 0.000269764 0.0119796
0.00425315 -0.00271028 -0.000132379
-0.00271028 -0.00437769 -4.86972e-06
-0.000132379 -4.86972e-06 8.64512e-05
0.0138528 -0.00704316 0.000698869
-0.00704316 -0.00511553 -0.000136174
0.000698869 -0.000136174 -0.00240342
0.0317274 0.0115531 0.000167247
0.0115531 0.0168682 -0.000580569
0.000167247 -0.000580569 0.00339228
0.0376773 0.00727753 -0.00056716
0.00727753 0.0184112 0.000483301
-0.00056716 0.000483301 0.0083733
0.00230099 0.000216815 -4.90379e-06
0.000216815 0.00151228 2.23304e-06
-4.90379e-06 2.23304e-06 0.0012058
0.000538693 4.39371e-05 1.73499e-06
4.39371e-05 0.000184378 -9.33349e-07
1.73499e-06 -9.33349e-07 2.36924e-05
0.000493235 -0.000131217 2.38956e-06
-0.000131217 0.000163102 1.31566e-06
2.38956e-06 1.31566e-06 1.00194e-06
0.000167389 -2.17135e-05 5.76539e-06
-2.17135e-05 -4.74798e-05 -1.6107e-06
5.76539e-06 -1.6107e-06 -0.00018708
0.000200871 9.42751e-05 4.28475e-06
9.42751e-05 4.29328e-05 -3.74544e-09
4.28475e-06 -3.74544e-09 -8.63404e-05
0.000591385 0.000178485 2.0929e-06
0.000178485 0.000255565 5.41175e-06
2.0929e-06 5.41175e-06 2.33069e-05
0.000385499 7.68628e-05 -3.05681e-06
7.68628e-05 0.000131126 -8.32283e-09
-3.05681e-06 -8.32283e-09 -5.57066e-05
0.000500557 0.00014382 7.57835e-06
0.00014382 0.000167137 3.72209e-06
7.57835e-06 3.72209e-06 -7.32282e-05
0.000471749 4.20518e-05 3.79585e-07
4.20518e-05 0.000165257 -4.05201e-07
3.79585e-07 -4.05201e-07 -4.18341e-05
5.82575e-05 -2.67004e-05 9.75061e-08
-2.67004e-05 -0.000144384 -1.03417e-06
9.75061e-08 -1.03417e-06 -0.000294312
0.00204939 -0.000616176 7.34128e-05
-0.000616176 -0.00102291 -2.90661e-05
7.34128e-05 -2.90661e-05 -0.000320137
0.00180998 -0.00112659 2.47829e-05
-0.00112659 -0.000718045 -1.66488e-05
2.47829e-05 -1.66488e-05 -0.000465791
0.00253146 -0.00146535 8.46279e-07
-0.00146535 0.000347413 1.45837e-05
8.46279e-07 1.45837e-05 -0.000170114
0.000605386 -0.00149392 -8.74064e-06
-0.00149392 -0.000493029 1.05193e-05
-8.74064e-06 1.05193e-05 -0.00111228
0.00279295 -0.00101819 1.99229e-05
-0.00101819 0.00211145 7.04096e-05
1.99229e-05 7.04096e-05 0.00111962
-0.000186459 -0.000806 -2.49631e-05
-0.000806 9.16825e-05 -2.83835e-05
-2.49631e-05 -2.83835e-05 -0.000656637
0.000930271 -0.000317224 1.7335e-05
-0.000317224 0.000525082 -2.53898e-05
1.7335e-05 -2.53898e-05 0.000266821
0.000121484 -3.73069e-05 -4.85199e-06
-3.73069e-05 5.90159e-05 2.30793e-06
-4.85199e-06 2.30793e-06 -0.000126249
0.00379413 -0.00145495 5.18453e-06
-0.00145495 -0.000543321 -1.03542e-05
5.18453e-06 -1.03542e-05 0.000393531
0.000396091 -8.57336e-05 -6.67575e-07
-8.57336e-05 0.000392561 1.77932e-06
-6.67575e-07 1.77932e-06 1.05941e-05
-0.000180744 -0.000188941 -1.29225e-05
-0.000188941 0.000109329 2.05658e-06
-1.29225e-05 2.05658e-06 -0.000268148
0.00199309 -0.00146019 2.37381e-05
-0.00146019 -6.48567e-05 -9.2706e-07
2.37381e-05 -9.2706e-07 -0.00036384
0.00335232 -0.00194236 -2.72251e-06
-0.00194236 0.000956248 -7.53773e-06
-2.72251e-06 -7.53773e-06 0.000207422
0.000497431 -0.00130504 2.80331e-05
-0.00130504 -6.20514e-05 -1.66705e-05
2.80331e-05 -1.66705e-05 -0.00053673
0.000877723 -0.000661069 2.91473e-05
-0.000661069 0.0011275 -4.00005e-05
2.91473e-05 -4.00005e-05 0.000285149
0.00146794 -0.00223499 -2.72784e-05
-0.00223499 -0.00166026 5.15796e-05
-2.72784e-05 5.15796e-05 -0.00101379
0.0029814 -0.00174053 -4.70384e-05
-0.00174053 0.000998717 3.14531e-05
-4.70384e-05 3.14531e-05 0.000354313
-0.000454091 -0.000743286 -7.81322e-05
-0.000743286 0.000169896 2.08342e-05
-7.81322e-05 2.08342e-05 -0.00047126
0.00124073 0.000154842 5.13453e-06
0.000154842 0.000866544 -6.73349e-07
5.13453e-06 -6.73349e-07 0.000516178
-0.000861692 8.99227e-06 6.57455e-06
8.99227e-06 -0.000250606 1.74118e-05
6.57455e-06 1.74118e-05 -0.000725188
9.17761e-05 -9.12365e-05 1.51629e-05
-9.12365e-05 0.000385955 1.3195e-05
1.51629e-05 1.3195e-05 -5.5913e-05
-0.00276953 0.00220819 -0.000891326
0.00220819 0.00900636 -5.75879e-05
-0.000891326 -5.75879e-05 0.000393695
0.00143339 -0.00261846 6.96268e-06
-0.00261846 0.00756216 -5.98644e-05
6.96268e-06 -5.98644e-05 0.00124407
0.00871127 9.30024e-05 -7.11037e-05
9.30024e-05 -0.00782751 -1.78068e-05
-7.11037e-05 -1.78068e-05 -0.0080379
0.00100202 0.00062472 2.23366e-05
0.00062472 0.000726577 -1.53039e-05
2.23366e-05 -1.53039e-05 0.000195601
0.00176073 0.00118519 2.43704e-05
0.00118519 0.000808316 3.15107e-05
2.43704e-05 3.15107e-05 -1.92853e-05
0.0030367 0.00203829 0.000109541
0.00203829 -0.000110744 5.908e-05
0.000109541 5.908e-05 -0.000317304
0.0038344 0.00195854 5.12818e-05
0.00195854 0.00155138 4.52426e-05
5.12818e-05 4.52426e-05 0.00058671
0.0199286 -0.0108154 0.000342602
-0.0108154 0.0150947 0.000176906
0.000342602 0.000176906 0.00278884
0.00258905 0.0064931 -0.00105824
0.0064931 -0.013399 -0.000178937
-0.00105824 -0.000178937 -0.00970483
0.00647121 0.00755596 -5.62558e-05
0.00755596 -0.00126208 2.81598e-05
-5.62558e-05 2.81598e-05 0.00104275
0.00465413 0.00313137 0.00012714
0.00313137 0.00168565 3.98672e-05
0.00012714 3.98672e-05 0.00144198
0.0272181 -0.00786043 -0.000624926
-0.00786043 0.0131892 -0.000211246
-0.000624926 -0.000211246 0.0016199
0.00894571 -0.0111856 -0.00223173
-0.0111856 0.021255 6.33815e-05
-0.00223173 6.33815e-05 0.00697145
0.047148 -0.0131608 0.00206814
-0.0131608 0.0196733 0.000455937
0.00206814 0.000455937 0.00542194
0.000803639 0.000739812 1.58459e-05
0.000739812 0.000538941 -5.24225e-06
1.58459e-05 -5.24225e-06 -6.98417e-06
0.00349062 -0.0034758 5.47181e-05
-0.0034758 0.0124979 1.57134e-05
5.47181e-05 1.57134e-05 0.000602305
0.0111484 0.00590434 -0.000350457
0.00590434 0.00567074 -0.000205851
-0.000350457 -0.000205851 -0.00142394
0.0032824 0.0022232 1.15491e-05
0.0022232 0.000731309 5.9656e-06
1.15491e-05 5.9656e-06 0.000195639
0.00158645 0.00151876 6.24238e-06
0.00151876 0.000734821 7.75942e-06
6.24238e-06 7.75942e-06 -0.000130035
0.000117295 0.00226841 -0.00017428
0.00226841 0.000483648 -0.000117522
-0.00017428 -0.000117522 -0.000337224
0.00443796 0.00794885 0.000119453
0.00794885 0.00108553 5.8907e-05
0.000119453 5.8907e-05 0.00066143
0.0115864 0.012298 -4.14423e-05
0.012298 -0.00150834 -1.87395e-05
-4.14423e-05 -1.87395e-05 -0.00158895
0.0183651 -0.00779463 4.35849e-05
-0.00779463 0.0156222 -0.000192993
4.35849e-05 -0.000192993 0.00157718
0.0213809 -0.00251198 -0.000205968
-0.00251198 0.00475803 -2.77195e-05
-0.000205968 -2.77195e-05 0.00212917
0.00152739 0.00137317 -1.39646e-05
0.00137317 0.000941453 -1.12942e-05
-1.39646e-05 -1.12942e-05 0.000152012
0.00207925 0.00164249 -0.000821409
0.00164249 0.00475651 -0.000212816
-0.000821409 -0.000212816 -0.0025899
0.00541219 0.00148523 -1.51234e-05
0.00148523 0.00190428 -0.000208094
-1.51234e-05 -0.000208094 -0.00261182
-0.00108116 0.000920529 -3.08365e-06
0.000920529 2.02152e-05 -3.62917e-05
-3.08365e-06 -3.62917e-05 -0.000649582
-0.00282211 0.0024893 -6.8072e-05
0.0024893 0.000944254 5.42111e-05
-6.8072e-05 5.42111e-05 -0.000299764
0.00652749 0.0102575 0.000544602
0.0102575 0.00439523 6.76962e-05
0.000544602 6.76962e-05 -0.00154557
0.0154815 -0.0064562 9.42866e-05
-0.0064562 0.00598615 0.000215235
9.42866e-05 0.000215235 -0.0047785
0.0211027 -0.00132007 0.000144707
-0.00132007 0.00121034 -0.000331063
0.000144707 -0.000331063 0.00045056
0.000534913 0.000419236 5.43885e-06
0.000419236 0.000512206 2.07614e-05
5.43885e-06 2.07614e-05 0.000136399
0.000604983 0.000450154 -2.69877e-06
0.000450154 0.000645571 -5.17207e-06
-2.69877e-06 -5.17207e-06 0.000176885
0.000519566 0.00046464 1.19591e-05
0.00046464 0.000741455 1.20055e-06
1.19591e-05 1.20055e-06 0.000135301
0.000502566 0.000118792 1.79476e-06
0.000118792 0.000178137 8.01166e-06
1.79476e-06 8.01166e-06 -2.54556e-05
0.00140962 -2.19342e-05 -7.69741e-08
-2.19342e-05 0.000899659 7.10551e-06
-7.69741e-08 7.10551e-06 0.000619741
0.000153633 6.55551e-05 4.43415e-06
6.55551e-05 0.000135808 -1.12316e-06
4.43415e-06 -1.12316e-06 -0.000142088
3.99224e-06 0.000121608 1.96801e-06
0.000121608 0.000331346 1.08937e-06
1.96801e-06 1.08937e-06 -0.000100412
0.000638855 -4.05702e-05 5.12887e-06
-4.05702e-05 0.000359275 1.19079e-06
5.12887e-06 1.19079e-06 0.000101901
0.000267439 -1.91665e-05 2.99056e-07
-1.91665e-05 0.000308715 -4.28176e-06
2.99056e-07 -4.28176e-06 -3.34553e-05
-3.05763e-06 5.62687e-05 -7.83785e-08
5.62687e-05 0.000520739 1.03888e-06
-7.83785e-08 1.03888e-06 -0.000103575
-0.00053386 4.86062e-05 4.21885e-06
4.86062e-05 0.000365956 5.97868e-06
4.21885e-06 5.97868e-06 -0.000323372
0.00113006 -0.000115971 7.80098e-06
-0.000115971 0.00116278 -9.81279e-06
7.80098e-06 -9.81279e-06 0.000618821
0.000953565 -9.64219e-05 -2.56237e-05
-9.64219e-05 0.000792037 7.48733e-06
-2.56237e-05 7.48733e-06 0.000402426
0.00151901 -0.00025421 5.85072e-06
-0.00025421 0.000939886 7.33383e-06
5.85072e-06 7.33383e-06 0.000740942
-0.000267573 -0.000346439 -9.40267e-06
-0.000346439 -0.000380776 -3.5562e-06
-9.40267e-06 -3.5562e-06 -0.000502069
-0.000728579 -1.44063e-05 2.844e-05
-1.44063e-05 -0.00025627 -1.28105e-05
2.844e-05 -1.28105e-05 -0.00045242
-0.000534354 -2.96613e-05 1.69868e-06
-2.96613e-05 -0.000180144 -2.74455e-06
1.69868e-06 -2.74455e-06 -0.000487108
0.000191182 -0.000177501 -1.60583e-06
-0.000177501 -8.79326e-05 4.59167e-06
-1.60583e-06 4.59167e-06 -0.000228126
-0.000237273 -0.000225114 -1.43052e-05
-0.000225114 -6.08156e-05 3.41927e-06
-1.43052e-05 3.41927e-06 -0.000223961
0.00441788 -0.000371352 1.66362e-05
-0.000371352 0.00267782 3.72387e-07
1.66362e-05 3.72387e-07 0.00227838
0.00137062 -0.000145061 9.54851e-07
-0.000145061 0.0012489 7.85801e-06
9.54851e-07 7.85801e-06 0.000853647
0.00159554 -0.000683734 -1.07531e-05
-0.000683734 0.000884614 8.97231e-06
-1.07531e-05 8.97231e-06 0.000327187
0.00165313 -0.000187865 -1.92326e-05
-0.000187865 0.000872748 2.25746e-06
-1.92326e-05 2.25746e-06 0.0005577
0.000255371 -0.000448372 2.36359e-05
-0.000448372 -0.000132959 5.93877e-06
2.36359e-05 5.93877e-06 -0.000496097
0.00231065 -0.00109155 -1.22624e-05
-0.00109155 0.00106239 1.51274e-05
-1.22624e-05 1.51274e-05 0.000362887
0.00264494 -0.000444633 2.4105e-05
-0.000444633 0.00127644 -7.66372e-06
2.4105e-05 -7.66372e-06 0.000974728
0.00241262 -0.000666548 5.45428e-07
-0.000666548 0.00117801 -9.19207e-06
5.45428e-07 -9.19207e-06 0.000769587
0.000124301 -0.000348711 5.63134e-07
-0.000348711 7.56368e-05 -3.33188e-08
5.63134e-07 -3.33188e-08 -0.000303397
-0.00300333 -0.000298392 1.64543e-05
-0.000298392 -0.0018563 -1.70549e-05
1.64543e-05 -1.70549e-05 -0.00233229
0.00107852 -0.000157367 -3.21493e-06
-0.000157367 0.000694509 6.40116e-06
-3.21493e-06 6.40116e-06 0.000402701
0.000730256 -0.000459882 7.55439e-06
-0.000459882 0.000401246 -4.0748e-06
7.55439e-06 -4.0748e-06 7.43076e-05
0.00102364 -0.000160399 1.68461e-05
-0.000160399 0.000521348 7.4611e-06
1.68461e-05 7.4611e-06 0.000224582
0.00170578 -0.000571204 -1.18336e-05
-0.000571204 0.00109601 1.72424e-05
-1.18336e-05 1.72424e-05 0.000786564
0.000297246 -0.000200098 -8.75111e-07
-0.000200098 0.000155961 -8.66175e-07
-8.75111e-07 -8.66175e-07 -0.000138995
-2.55465e-05 -4.96762e-05 6.41888e-06
-4.96762e-05 -0.000224717 4.49893e-06
6.41888e-06 4.49893e-06 -0.000373481
0.00216297 -0.000356014 -3.82902e-06
-0.000356014 0.00135855 7.82271e-06
-3.82902e-06 7.82271e-06 0.00110632
0.000796728 -0.000123191 6.78555e-07
-0.000123191 0.000308595 7.82525e-07
6.78555e-07 7.82525e-07 0.000184887
0.00153824 -9.33108e-06 -1.84431e-05
-9.33108e-06 0.00075324 9.0904e-06
-1.84431e-05 9.0904e-06 0.000713887
0.000438608 -0.000106029 -1.00028e-06
-0.000106029 7.68343e-05 1.8386e-07
-1.00028e-06 1.8386e-07 -3.57702e-05
0.000797298 -2.12803e-05 -1.73841e-05
-2.12803e-05 0.00026664 8.73808e-07
-1.73841e-05 8.73808e-07 0.00023071
0.000782215 1.61508e-05 3.83665e-06
1.61508e-05 0.000229963 3.10068e-06
3.83665e-06 3.10068e-06 0.000228777
0.000359888 -6.36208e-05 5.05091e-06
-6.36208e-05 -2.08437e-05 -5.57373e-06
5.05091e-06 -5.57373e-06 -5.67316e-05
0.00166132 9.28099e-06 2.02301e-05
9.28099e-06 0.00082054 -2.01998e-06
2.02301e-05 -2.01998e-06 0.000828154
0.00259794 -6.19402e-06 2.96214e-05
-6.19402e-06 0.00144773 -5.73368e-06
2.96214e-05 -5.73368e-06 0.00145957
-1.16987e-05 0.000117508 2.4528e-06
0.000117508 -0.000234606 -2.63371e-06
2.4528e-06 -2.63371e-06 -0.000392158
0.000510491 9.31354e-05 1.02593e-06
9.31354e-05 0.000121763 -7.1411e-06
1.02593e-06 -7.1411e-06 1.6871e-05
0.000408555 2.73348e-05 1.15591e-06
2.73348e-05 8.39039e-05 1.15159e-06
1.15591e-06 1.15159e-06 -7.88613e-05
0.000371246 1.42003e-05 3.11261e-06
1.42003e-05 -3.19843e-05 -6.34762e-06
3.11261e-06 -6.34762e-06 -5.76917e-05
0.000395435 7.48279e-05 4.45361e-07
7.48279e-05 3.54178e-05 -1.29375e-09
4.45361e-07 -1.29375e-09 -5.35312e-05
0.000270911 -0.000118057 -4.56134e-06
-0.000118057 -1.8171e-05 5.32971e-06
-4.56134e-06 5.32971e-06 -0.00016654
0.00237315 1.73473e-05 -1.33051e-05
1.73473e-05 0.00129632 -6.39551e-06
-1.33051e-05 -6.39551e-06 0.00130845
0.000364443 1.06485e-05 -5.50539e-07
1.06485e-05 -3.5765e-05 -4.03027e-08
-5.50539e-07 -4.03027e-08 -5.94032e-05
0.000473484 -6.08029e-06 -3.45317e-06
-6.08029e-06 6.72257e-05 4.59932e-06
-3.45317e-06 4.59932e-06 -7.38998e-06
0.000396597 -1.51077e-05 -3.66022e-06
-1.51077e-05 -1.58994e-05 5.65977e-06
-3.66022e-06 5.65977e-06 -4.17358e-05
0.0024653 3.55611e-05 -6.57182e-06
3.55611e-05 0.0013599 -1.98063e-07
-6.57182e-06 -1.98063e-07 0.00136981
0.00266308 5.5332e-05 2.59403e-06
5.5332e-05 0.00149493 7.24036e-06
2.59403e-06 7.24036e-06 0.00150078
0.00472397 -0.000654202 -0.000535163
-0.000654202 0.0136342 8.76153e-05
-0.000535163 8.76153e-05 0.00532302
0.00892356 0.00718589 -0.000547088
0.00718589 0.00726875 0.00020716
-0.000547088 0.00020716 -0.00275986
0.00894704 -0.00316874 -0.000546604
-0.00316874 0.00317986 0.000366349
-0.000546604 0.000366349 -0.00277738
0.0166221 0.00907609 0.00174282
0.00907609 0.0172538 2.07481e-05
0.00174282 2.07481e-05 0.00298752
0.00602919 0.000955975 9.07402e-05
0.000955975 -0.00235034 2.05624e-05
9.07402e-05 2.05624e-05 0.000986789
0.00262329 -0.00103479 0.000131686
-0.00103479 -0.00183929 -4.08343e-06
0.000131686 -4.08343e-06 -0.000639902
0.00308745 -0.0012804 0.000686457
-0.0012804 -0.013135 -3.79484e-05
0.000686457 -3.79484e-05 -0.00934425
0.0223097 0.0092447 -0.00277318
0.0092447 0.016077 -0.000452508
-0.00277318 -0.000452508 0.00531589
0.0390595 0.0293095 -0.00227437
0.0293095 0.028174 0.00182043
-0.00227437 0.00182043 0.0072855
0.00596653 -0.00190304 9.19698e-05
-0.00190304 -0.00293967 -1.13882e-05
9.19698e-05 -1.13882e-05 0.000315441
0.00878982 -0.00754673 0.00045964
-0.00754673 -0.00869433 -0.000252302
0.00045964 -0.000252302 -0.00549288
0.0340734 0.0112106 -0.000734806
0.0112106 0.018332 -0.000457989
-0.000734806 -0.000457989 0.00435925
0.0287036 0.00661635 0.000601482
0.00661635 0.0146528 0.000632277
0.000601482 0.000632277 0.00483868
0.00304206 -0.00445001 -9.83598e-05
-0.00445001 -0.00503455 0.000150435
-9.83598e-05 0.000150435 -0.000976201
-0.000289096 -0.0109422 0.00136643
-0.0109422 -0.00510579 -0.000334858
0.00136643 -0.000334858 -0.00460115
0.0197208 0.00458811 -0.000907069
0.00458811 0.0111677 -0.00150971
-0.000907069 -0.00150971 -0.00078001
0.0129992 -0.00172682 -0.000370165
-0.00172682 0.00289846 4.92913e-05
-0.000370165 4.92913e-05 -0.000562997
0.00139303 1.24886e-05 5.15371e-06
1.24886e-05 0.000858518 1.51804e-05
5.15371e-06 1.51804e-05 0.000543478
0.00012283 2.02105e-06 -4.07109e-07
2.02105e-06 -2.11961e-05 -5.56816e-07
-4.07109e-07 -5.56816e-07 -0.000215397
0.000397056 0.000121892 -1.06716e-06
0.000121892 7.29781e-05 3.32946e-09
-1.06716e-06 3.32946e-09 -7.57752e-05
-0.000567013 -0.000100618 -1.26949e-05
-0.000100618 -0.000550535 1.34119e-06
-1.26949e-05 1.34119e-06 -0.000587693
0.000340203 0.00016751 5.96213e-06
0.00016751 6.97727e-05 2.0066e-05
5.96213e-06 2.0066e-05 -0.000172213
0.000635106 0.000130338 -1.59322e-06
0.000130338 0.000309446 -1.74259e-06
-1.59322e-06 -1.74259e-06 7.06063e-05
-9.40586e-05 -4.78259e-05 1.29789e-06
-4.78259e-05 -0.000192322 -1.4115e-06
1.29789e-06 -1.4115e-06 -0.000359049
0.0010301 0.000248955 1.24764e-05
0.000248955 0.000574756 8.14569e-06
1.24764e-05 8.14569e-06 0.000281618
0.000953537 0.000237352 -1.03873e-06
0.000237352 0.00051603 -3.00248e-06
-1.03873e-06 -3.00248e-06 0.000241127
0.000529407 6.39332e-05 -3.90669e-06
6.39332e-05 0.000206925 -1.98106e-06
-3.90669e-06 -1.98106e-06 -6.01877e-06
0.00267552 -0.00135931 0.000165777
-0.00135931 -0.00116436 -9.9006e-05
0.000165777 -9.9006e-05 -0.000209555
0.00107158 -0.00131234 -9.11355e-06
-0.00131234 -0.000656008 -1.33258e-05
-9.11355e-06 -1.33258e-05 -0.000769712
0.00260023 -0.00177466 8.83048e-06
-0.00177466 0.000606275 2.30571e-05
8.83048e-06 2.30571e-05 -0.000121515
3.80967e-05 -0.0012492 1.66868e-05
-0.0012492 -0.000312631 -3.22018e-07
1.66868e-05 -3.22018e-07 -0.000805232
0.00400108 -0.000749611 -6.05155e-05
-0.000749611 0.00276483 8.69704e-05
-6.05155e-05 8.69704e-05 0.00219391
0.000727841 -0.000312061 -9.27969e-06
-0.000312061 0.000704413 -2.23743e-05
-9.27969e-06 -2.23743e-05 0.000282496
0.00148886 0.000102116 -8.29289e-06
0.000102116 0.00107888 -1.18701e-05
-8.29289e-06 -1.18701e-05 0.000673071
0.000862083 8.33684e-05 -7.79647e-06
8.33684e-05 0.000577894 -1.13539e-06
-7.79647e-06 -1.13539e-06 0.000244843
0.0037299 -0.00239292 -4.45957e-05
-0.00239292 -0.000362693 8.26354e-06
-4.45957e-05 8.26354e-06 0.000284191
0.00120672 -0.000126324 -3.07592e-06
-0.000126324 0.000985729 8.41472e-06
-3.07592e-06 8.41472e-06 0.000539467
0.000941498 -0.000328984 1.35913e-05
-0.000328984 0.000848671 -6.94723e-06
1.35913e-05 -6.94723e-06 0.000388236
0.00136288 -0.00153259 2.20302e-05
-0.00153259 5.81318e-05 -4.97345e-06
2.20302e-05 -4.97345e-06 -0.000461932
0.000200244 -0.000777107 -9.73277e-06
-0.000777107 0.000391794 6.33604e-06
-9.73277e-06 6.33604e-06 -0.000143853
0.00149714 -0.00325222 -4.52878e-06
-0.00325222 -0.000130366 -6.82562e-07
-4.52878e-06 -6.82562e-07 -0.000872548
0.000563595 -0.00113686 -1.2759e-05
-0.00113686 0.000626493 1.0473e-05
-1.2759e-05 1.0473e-05 2.72282e-05
-0.00109268 -0.000225772 -8.9821e-06
-0.000225772 8.88452e-05 -1.07529e-05
-8.9821e-06 -1.07529e-05 -0.000671279
0.000831436 0.000129494 1.99922e-05
0.000129494 0.000658391 -5.83451e-06
1.99922e-05 -5.83451e-06 0.000373698
-0.000513449 -0.000107808 1.28379e-06
-0.000107808 3.80688e-05 1.90024e-05
1.28379e-06 1.90024e-05 -0.000437727
0.00337813 0.000321791 -0.000239782
0.000321791 0.00247948 -9.47603e-05
-0.000239782 -9.47603e-05 -0.00273466
-0.00616861 0.000594324 -0.00123197
0.000594324 0.00769598 4.64483e-05
-0.00123197 4.64483e-05 0.00108073
-0.00697406 -0.00471769 -0.00226144
-0.00471769 0.00277474 0.000141065
-0.00226144 0.000141065 -0.00645026
-8.49596e-05 0.000654334 2.41809e-05
0.000654334 7.21849e-05 -1.24145e-05
2.41809e-05 -1.24145e-05 -0.000501156
0.00160157 0.00145575 8.88407e-06
0.00145575 0.00082763 1.37212e-05
8.88407e-06 1.37212e-05 -3.51556e-05
0.00539555 0.00283759 9.06159e-05
0.00283759 0.00186947 8.92474e-05
9.06159e-05 8.92474e-05 0.00105336
0.00152167 -0.00120338 0.000277146
-0.00120338 0.0132773 9.51947e-05
0.000277146 9.51947e-05 0.00374563
0.000465583 0.0115008 -0.00130694
0.0115008 -0.00622786 -0.000244294
-0.00130694 -0.000244294 -0.00486023
0.00102889 0.00583618 0.000641328
0.00583618 -0.000726219 0.000358671
0.000641328 0.000358671 -0.000376577
-0.000162417 0.00214661 -6.12465e-06
0.00214661 0.00031777 -5.82027e-05
-6.12465e-06 -5.82027e-05 -8.26486e-05
0.0355425 -0.00811195 0.000414661
-0.00811195 0.0178199 -0.00083479
0.000414661 -0.00083479 0.00578541
0.0112415 0.00655073 0.00167921
0.00655073 0.00440429 0.000457046
0.00167921 0.000457046 -0.00388514
0.0155285 -0.000747143 -8.66214e-06
-0.000747143 0.00444109 8.4859e-05
-8.66214e-06 8.4859e-05 0.00379511
0.00233775 0.00144146 9.59489e-06
0.00144146 0.00142302 -1.42618e-07
9.59489e-06 -1.42618e-07 0.000636211
0.00418823 0.0028842 -0.000203428
0.0028842 0.00586066 -6.15019e-05
-0.000203428 -6.15019e-05 -0.00095532
0.00483488 0.0010726 0.000220004
0.0010726 0.00282589 -2.66383e-05
0.000220004 -2.66383e-05 -0.00127526
0.000593428 0.00155827 -3.57702e-05
0.00155827 0.00074332 -1.33787e-05
-3.57702e-05 -1.33787e-05 -0.000175214
-0.00157937 0.00370531 -0.000195064
0.00370531 0.000549441 -0.000153084
-0.000195064 -0.000153084 -0.00127413
0.00329928 0.0116201 0.000721459
0.0116201 0.00286568 0.000266607
0.000721459 0.000266607 -0.00313189
0.0157094 -0.00108053 3.90444e-05
-0.00108053 -0.0010651 -0.000207288
3.90444e-05 -0.000207288 -0.00139578
0.0112082 -0.00453662 -0.000115544
-0.00453662 0.00770862 -0.000290035
-0.000115544 -0.000290035 -0.00217879
0.001701 0.00119222 -1.30117e-06
0.00119222 0.00153485 -1.32644e-05
-1.30117e-06 -1.32644e-05 0.000650292
-0.00279999 0.00149782 0.000176218
0.00149782 0.00381276 0.000109246
0.000176218 0.000109246 -0.00150855
0.00998283 -0.00207491 0.000646703
-0.00207491 0.00121783 1.43605e-05
0.000646703 1.43605e-05 -0.00200994
0.0134215 -0.00195172 0.000386394
-0.00195172 0.00273579 -3.17918e-05
0.000386394 -3.17918e-05 -0.000394765
-0.00313706 0.00104851 7.31321e-05
0.00104851 0.000953645 -8.10931e-06
7.31321e-05 -8.10931e-06 -0.00073484
0.00636248 0.00521332 0.000570062
0.00521332 0.00700288 0.000326508
0.000570062 0.000326508 -0.00146345
0.0146998 -0.00118536 -7.57768e-05
-0.00118536 0.00425282 0.000454502
-7.57768e-05 0.000454502 -0.000783895
0.00102411 0.000487148 1.12057e-05
0.000487148 0.000920928 7.57995e-06
1.12057e-05 7.57995e-06 0.000420749
0.000380005 0.000494576 -7.90006e-06
0.000494576 0.000639227 -2.13904e-06
-7.90006e-06 -2.13904e-06 -6.67749e-06
-0.000333945 0.000254531 1.98725e-05
0.000254531 0.000521131 -5.86682e-06
1.98725e-05 -5.86682e-06 -0.000353054
-0.000542619 1.99852e-05 8.05667e-06
1.99852e-05 -0.0004334 5.39242e-06
8.05667e-06 5.39242e-06 -0.000665306
0.000686676 0.00010992 6.4111e-06
0.00010992 0.000565241 -4.86751e-06
6.4111e-06 -4.86751e-06 0.000233687
-0.000151069 5.651e-05 4.00659e-07
5.651e-05 0.000506597 6.03748e-08
4.00659e-07 6.03748e-08 -0.000160711
-8.16745e-05 -6.99734e-05 -1.34377e-06
-6.99734e-05 0.000113012 -1.03995e-07
-1.34377e-06 -1.03995e-07 -0.00026093
0.000139741 -6.45803e-05 -1.85233e-06
-6.45803e-05 0.000602499 -1.21325e-06
-1.85233e-06 -1.21325e-06 2.07269e-05
-0.000302726 3.36085e-05 3.18928e-06
3.36085e-05 0.000526211 1.12993e-06
3.18928e-06 1.12993e-06 -0.000156188
0.000429438 -0.00019702 -1.21194e-05
-0.00019702 0.000901071 1.76061e-05
-1.21194e-05 1.76061e-05 0.000318337
0.000888578 -0.000106002 4.33936e-07
-0.000106002 0.000971237 -6.93739e-06
4.33936e-07 -6.93739e-06 0.000513439
-0.000725685 5.94577e-06 2.25905e-05
5.94577e-06 -0.000338389 -1.00024e-05
2.25905e-05 -1.00024e-05 -0.000611537
-0.0002504 -0.000196696 -9.14294e-06
-0.000196696 -0.000419784 9.96565e-06
-9.14294e-06 9.96565e-06 -0.000530489
-0.00313168 -0.000109991 5.32394e-06
-0.000109991 -0.0018834 -1.40102e-05
5.32394e-06 -1.40102e-05 -0.00203005
0.00066248 -0.000104093 1.40938e-06
-0.000104093 0.000777599 4.36075e-06
1.40938e-06 4.36075e-06 0.000389764
-0.000804046 -6.94556e-05 -2.26175e-05
-6.94556e-05 -0.000368511 1.9903e-06
-2.26175e-05 1.9903e-06 -0.000903033
0.00360761 -0.000950591 2.83737e-06
-0.000950591 0.00220096 1.46476e-05
2.83737e-06 1.46476e-05 0.00162366
0.00163831 -0.00057142 1.16661e-05
-0.00057142 0.00093321 -3.25114e-06
1.16661e-05 -3.25114e-06 0.000545271
0.000855694 -0.000620903 7.44266e-06
-0.000620903 0.000186785 2.13845e-05
7.44266e-06 2.13845e-05 -0.000244395
0.0012523 -0.000270062 -8.9984e-06
-0.000270062 0.000588397 1.71551e-06
-8.9984e-06 1.71551e-06 0.000320066
0.0009997 -0.00052727 -6.6373e-06
-0.00052727 0.000347633 3.23307e-06
-6.6373e-06 3.23307e-06 -4.20182e-05
0.00264277 -0.00114363 -1.73031e-05
-0.00114363 0.00121296 1.54196e-05
-1.73031e-05 1.54196e-05 0.000483048
0.00209434 -0.00124628 -1.95505e-06
-0.00124628 0.000777243 -2.86676e-06
-1.95505e-06 -2.86676e-06 -2.4633e-05
0.00160787 -0.000624661 1.02998e-05
-0.000624661 0.000584516 -2.9879e-06
1.02998e-05 -2.9879e-06 0.000159111
0.00166991 -0.000970897 2.9827e-06
-0.000970897 0.000684076 -5.42151e-07
2.9827e-06 -5.42151e-07 2.75913e-05
0.0021777 -0.000386667 6.77204e-06
-0.000386667 0.00123983 -1.39675e-05
6.77204e-06 -1.39675e-05 0.00081515
0.00138311 -0.000366442 -4.59271e-06
-0.000366442 0.000546804 3.36909e-06
-4.59271e-06 3.36909e-06 0.000222093
0.00069779 -0.000468519 7.22334e-06
-0.000468519 0.000120431 -1.84311e-05
7.22334e-06 -1.84311e-05 -0.000223859
0.00365042 -0.000387526 -8.64804e-06
-0.000387526 0.00222413 8.15132e-06
-8.64804e-06 8.15132e-06 0.00187797
-0.000417425 -0.000477433 2.34757e-06
-0.000477433 -0.000306738 -4.18143e-06
2.34757e-06 -4.18143e-06 -0.00074483
0.000531804 -0.000116705 1.67321e-05
-0.000116705 0.000217675 5.81759e-06
1.67321e-05 5.81759e-06 -0.000171527
0.00227059 -0.000958833 -1.83312e-05
-0.000958833 0.00131006 2.18061e-05
-1.83312e-05 2.18061e-05 0.000995831
0.00131132 -0.000329658 7.4606e-08
-0.000329658 0.000717658 -7.93892e-07
7.4606e-08 -7.93892e-07 0.000407628
-8.60599e-05 -0.000146524 9.83819e-06
-0.000146524 -0.000272585 1.69367e-05
9.83819e-06 1.69367e-05 -0.00047905
0.00185567 -0.000247755 -9.8166e-06
-0.000247755 0.0011576 -5.99784e-06
-9.8166e-06 -5.99784e-06 0.000880539
0.000326253 -8.15982e-05 -3.03593e-06
-8.15982e-05 5.50258e-06 -7.29531e-07
-3.03593e-06 -7.29531e-07 -0.000150276
0.00161632 -5.62395e-05 -2.95411e-05
-5.62395e-05 0.000799106 8.21945e-06
-2.95411e-05 8.21945e-06 0.000756825
0.000581999 -0.000112962 -1.76185e-06
-0.000112962 0.000159504 -4.72195e-07
-1.76185e-06 -4.72195e-07 3.55334e-05
0.000892302 -4.27469e-05 -1.62721e-05
-4.27469e-05 0.00032218 1.10086e-06
-1.62721e-05 1.10086e-06 0.000280333
0.000765626 2.46655e-05 3.94754e-06
2.46655e-05 0.000213976 3.27803e-06
3.94754e-06 3.27803e-06 0.000205701
0.000414224 -5.43585e-05 3.33934e-06
-5.43585e-05 1.09187e-05 -6.56763e-06
3.33934e-06 -6.56763e-06 -2.85412e-05
0.00182228 2.18153e-05 2.35209e-05
2.18153e-05 0.000924643 -1.58786e-06
2.35209e-05 -1.58786e-06 0.000930736
0.00256016 5.53669e-06 3.31036e-05
5.53669e-06 0.00141778 -5.9802e-06
3.31036e-05 -5.9802e-06 0.0014309
0.000183491 2.56166e-05 3.01758e-06
2.56166e-05 -5.00215e-05 1.65142e-06
3.01758e-06 1.65142e-06 -0.000288426
-0.000121224 3.87533e-05 1.11564e-06
3.87533e-05 -0.000317562 -8.36605e-06
1.11564e-06 -8.36605e-06 -0.000431498
0.000593265 7.60307e-05 4.7686e-07
7.60307e-05 0.000214114 1.29816e-06
4.7686e-07 1.29816e-06 1.92771e-05
0.000363876 1.67975e-05 4.38257e-06
1.67975e-05 -3.45692e-05 -7.07632e-06
4.38257e-06 -7.07632e-06 -6.60322e-05
0.000249482 7.2381e-06 1.61194e-06
7.2381e-06 -7.20037e-05 2.46083e-07
1.61194e-06 2.46083e-07 -0.000168744
0.000339689 -0.000140133 -5.01312e-07
-0.000140133 5.11991e-05 5.40981e-06
-5.01312e-07 5.40981e-06 -0.000124868
0.00245583 1.99859e-06 -1.88194e-05
1.99859e-06 0.00135116 -6.75368e-06
-1.88194e-05 -6.75368e-06 0.00136297
0.000356732 1.28163e-05 1.61134e-06
1.28163e-05 -4.05032e-05 -1.05424e-07
1.61134e-06 -1.05424e-07 -6.65172e-05
0.000355059 -1.74396e-05 -6.89927e-06
-1.74396e-05 -1.08783e-06 5.7644e-06
-6.89927e-06 5.7644e-06 -8.54153e-05
0.00237101 1.77682e-05 -6.41577e-06
1.77682e-05 0.00129544 -3.54127e-08
-6.41577e-06 -3.54127e-08 0.00130736
0.000350365 -7.29552e-06 -4.55763e-06
-7.29552e-06 -4.45384e-05 5.40004e-06
-4.55763e-06 5.40004e-06 -6.80655e-05
0.00243892 3.90587e-05 1.34556e-05
3.90587e-05 0.00134318 7.35115e-06
1.34556e-05 7.35115e-06 0.00135267
-0.00219455 -0.00291106 -0.000346337
-0.00291106 7.44753e-05 0.000148121
-0.000346337 0.000148121 -0.00557196
0.00832393 0.00563058 -0.000529078
0.00563058 0.0164901 6.99687e-05
-0.000529078 6.99687e-05 0.00518897
0.0113375 0.00356806 -0.00248854
0.00356806 0.00860985 0.000272768
-0.00248854 0.000272768 0.0034923
0.000375644 0.000134952 1.00357e-05
0.000134952 0.000123748 3.57291e-06
1.00357e-05 3.57291e-06 -0.000156471
0.00963381 -0.00253427 -0.000304159
-0.00253427 0.00699331 0.00039966
-0.000304159 0.00039966 0.00249473
0.00617837 -0.00228665 -0.000250175
-0.00228665 0.00343531 3.32759e-05
-0.000250175 3.32759e-05 -0.00260772
0.0299656 0.0166367 -4.40522e-05
0.0166367 0.0205702 -0.000815674
-4.40522e-05 -0.000815674 0.00280451
0.00641834 -0.00298918 0.000221479
-0.00298918 -0.00330431 -5.79263e-05
0.000221479 -5.79263e-05 -0.000133336
0.011183 -0.00633894 0.000445495
-0.00633894 -0.00574441 -0.00036694
0.000445495 -0.00036694 -0.00179625
0.0244325 0.0087974 -0.00129783
0.0087974 0.0129585 0.000111194
-0.00129783 0.000111194 0.000244155
0.0219082 0.00614371 0.000803992
0.00614371 0.0158877 0.000465888
0.000803992 0.000465888 0.00862111
0.00739624 -0.00545967 -9.71831e-05
-0.00545967 -0.0023749 4.37703e-06
-9.71831e-05 4.37703e-06 0.000573943
0.01057 -0.0111442 5.94705e-05
-0.0111442 -0.000909662 -0.000108229
5.94705e-05 -0.000108229 -0.00140406
0.0174274 0.00211426 4.2294e-05
0.00211426 0.0132271 -0.000636799
4.2294e-05 -0.000636799 0.00196887
0.0192893 0.00140589 -4.83038e-05
0.00140589 0.00544558 0.000105885
-4.83038e-05 0.000105885 0.000196748
0.00498476 -0.00734015 1.17116e-05
-0.00734015 0.000319585 4.92646e-05
1.17116e-05 4.92646e-05 0.00126547
0.00702576 -0.0097193 0.000488338
-0.0097193 0.00454847 -0.000284455
0.000488338 -0.000284455 -0.000185785
0.00906029 0.00108266 -0.00022386
0.00108266 0.00844021 -0.000488571
-0.00022386 -0.000488571 0.00135648
0.0193621 -0.00114318 -0.000349573
-0.00114318 0.00217402 0.000346594
-0.000349573 0.000346594 0.000721268
2.16036e-05 0.000318105 2.60441e-05
0.000318105 -4.32312e-05 2.45555e-05
2.60441e-05 2.45555e-05 -0.000276562
0.000429468 -0.000108144 -1.48843e-06
-0.000108144 0.000230625 -3.89188e-06
-1.48843e-06 -3.89188e-06 -4.90385e-05
-0.000652016 -6.49731e-05 2.68146e-06
-6.49731e-05 -0.000589957 7.83755e-07
2.68146e-06 7.83755e-07 -0.000731447
0.000979756 0.000258074 2.01091e-05
0.000258074 0.000471544 2.08533e-05
2.01091e-05 2.08533e-05 0.000233434
0.00104936 0.000289423 -5.14797e-06
0.000289423 0.000601654 -4.92689e-06
-5.14797e-06 -4.92689e-06 0.000306621
0.000555632 0.00012691 2.57692e-06
0.00012691 0.000262558 -3.1862e-06
2.57692e-06 -3.1862e-06 2.29757e-05
0.00143896 0.000265804 -1.95727e-06
0.000265804 0.000866494 2.42139e-08
-1.95727e-06 2.42139e-08 0.00055256
0.00116323 0.000228587 -5.75611e-07
0.000228587 0.000675166 5.01754e-06
-5.75611e-07 5.01754e-06 0.000386054
0.00355022 -0.00227226 0.000192331
-0.00227226 -0.000526581 -0.000122606
0.000192331 -0.000122606 0.000320972
-0.00152804 -0.00113714 -1.36015e-05
-0.00113714 -0.00160161 -1.20929e-05
-1.36015e-05 -1.20929e-05 -0.00192607
-0.00108355 8.13185e-05 -1.59692e-05
8.13185e-05 -0.000748039 -8.45043e-06
-1.59692e-05 -8.45043e-06 -0.000972392
-2.55597e-05 -0.00069032 2.09315e-05
-0.00069032 0.000119718 -9.27652e-06
2.09315e-05 -9.27652e-06 -0.000296342
0.00195895 -0.00052444 -4.34742e-05
-0.00052444 0.0013983 3.97826e-06
-4.34742e-05 3.97826e-06 0.000945146
0.000638743 -8.13121e-05 4.27298e-06
-8.13121e-05 0.000607709 -2.958e-05
4.27298e-06 -2.958e-05 0.000143375
-0.000825193 0.000193932 1.89369e-06
0.000193932 -0.000417815 1.80036e-05
1.89369e-06 1.80036e-05 -0.000714371
0.00192411 -0.00325005 -2.83165e-05
-0.00325005 -2.71609e-05 -4.88985e-06
-2.83165e-05 -4.88985e-06 -0.000712382
0.00111495 -0.000252355 -3.96864e-06
-0.000252355 0.00101663 8.44748e-06
-3.96864e-06 8.44748e-06 0.000531485
-0.000573913 -0.000193861 -1.44284e-06
-0.000193861 0.000203629 8.20769e-06
-1.44284e-06 8.20769e-06 -0.000423087
-0.000853191 -0.000939541 1.28335e-05
-0.000939541 -0.000324833 1.63902e-06
1.28335e-05 1.63902e-06 -0.000752852
-0.0010351 -6.37934e-05 2.72107e-05
-6.37934e-05 -0.000453369 -3.28832e-07
2.72107e-05 -3.28832e-07 -0.00078672
0.003074 -0.00331881 -0.000108348
-0.00331881 0.00257984 -1.25589e-05
-0.000108348 -1.25589e-05 0.000892269
-0.000759087 -0.000843119 1.00584e-05
-0.000843119 0.000124338 -2.43434e-05
1.00584e-05 -2.43434e-05 -0.00057352
0.000289493 -1.16682e-05 1.65582e-05
-1.16682e-05 0.000866082 -2.32947e-05
1.65582e-05 -2.32947e-05 9.20995e-05
-0.000934344 -0.000178863 3.11726e-05
-0.000178863 5.47347e-05 2.33143e-05
3.11726e-05 2.33143e-05 -0.000715133
0.00190516 -0.000483551 0.000472227
-0.000483551 0.00756561 0.000105049
0.000472227 0.000105049 0.00185052
-0.000355075 5.99259e-05 0.000194219
5.99259e-05 0.00114389 1.88831e-06
0.000194219 1.88831e-06 -0.00414081
-0.0121307 -0.000835689 -0.00144986
-0.000835689 0.00550083 1.99194e-05
-0.00144986 1.99194e-05 0.000779817
0.00217423 0.00132421 2.72703e-05
0.00132421 0.00136533 5.3896e-06
2.72703e-05 5.3896e-06 0.000647058
-0.000492544 0.00179735 3.31943e-05
0.00179735 0.000219514 1.96401e-05
3.31943e-05 1.96401e-05 -0.000899105
0.00527106 0.00343556 0.000954008
0.00343556 0.00568538 0.000229207
0.000954008 0.000229207 -0.000890854
0.00202033 0.00669821 0.000232665
0.00669821 0.00348965 0.000294646
0.000232665 0.000294646 -0.000561195
0.000591126 0.0053183 -0.000324467
0.0053183 0.00182779 -0.000273246
-0.000324467 -0.000273246 -0.00101386
0.0103958 -0.00146906 -0.000151277
-0.00146906 0.00832271 -0.0005536
-0.000151277 -0.0005536 0.00108406
0.00555307 0.000275904 -1.4975e-05
0.000275904 0.00370186 7.59254e-05
-1.4975e-05 7.59254e-05 -0.00019602
0.0119067 -0.000151067 -4.38751e-05
-0.000151067 -0.00307745 -0.00032594
-4.38751e-05 -0.00032594 -0.00377314
0.000901561 0.0012798 5.92015e-06
0.0012798 0.00101888 -9.1181e-07
5.92015e-06 -9.1181e-07 4.53248e-05
-0.00133746 0.00103517 2.64462e-05
0.00103517 0.00413161 -5.9773e-06
2.64462e-05 -5.9773e-06 -0.00129938
0.00892806 -0.000706995 0.000363537
-0.000706995 0.00115613 6.33299e-06
0.000363537 6.33299e-06 -0.00255011
-0.00230771 0.00150244 -3.92083e-05
0.00150244 0.00051047 -2.11033e-05
-3.92083e-05 -2.11033e-05 -0.00110327
0.0205374 0.00183947 4.41972e-05
0.00183947 0.00537466 -0.000123973
4.41972e-05 -0.000123973 1.42438e-05
0.00365565 0.00368906 0.000476152
0.00368906 0.00705045 0.000320501
0.000476152 0.000320501 -0.00107716
0.0165968 0.000775805 -0.000262173
0.000775805 0.00620099 -3.79566e-05
-0.000262173 -3.79566e-05 -0.000199754
-2.99704e-05 0.00103227 6.23481e-06
0.00103227 0.000850802 -1.30761e-05
6.23481e-06 -1.30761e-05 -0.000322933
0.00611127 2.96475e-07 0.000238564
2.96475e-07 0.0042656 9.64659e-05
0.000238564 9.64659e-05 0.000118146
0.00383129 -0.00482666 0.00047417
-0.00482666 0.00543138 -0.000255161
0.00047417 -0.000255161 0.00171608
0.0398709 0.00879084 0.000753052
0.00879084 0.0192619 -0.000473494
0.000753052 -0.000473494 0.00793154
0.0117832 -2.24213e-05 3.15784e-05
-2.24213e-05 0.00984136 0.000655252
3.15784e-05 0.000655252 0.00258847
-0.00215597 0.00129757 -0.000205383
0.00129757 0.00161785 -0.000143161
-0.000205383 -0.000143161 -0.000235932
0.00155943 -0.000412366 0.000172572
-0.000412366 0.00623041 -8.04216e-05
0.000172572 -8.04216e-05 -0.00458051
0.000542751 0.000594492 -6.73486e-07
0.000594492 0.000689103 9.01985e-06
-6.73486e-07 9.01985e-06 6.75199e-06
0.000453303 0.000349588 7.62407e-07
0.000349588 0.00101797 4.8798e-06
7.62407e-07 4.8798e-06 0.000201729
0.000687446 -0.000147077 -2.14273e-05
-0.000147077 0.00160029 2.26217e-05
-2.14273e-05 2.26217e-05 0.000809383
-0.000983998 6.5167e-05 1.96161e-05
6.5167e-05 -0.000496729 -6.15633e-06
1.96161e-05 -6.15633e-06 -0.000845854
-0.000635482 8.37872e-06 9.206e-06
8.37872e-06 0.000173124 6.89054e-06
9.206e-06 6.89054e-06 -0.000439391
6.40061e-05 4.7199e-05 -1.04701e-05
4.7199e-05 0.000754162 -3.61633e-06
-1.04701e-05 -3.61633e-06 6.60774e-05
0.000207344 -3.23201e-05 -6.92953e-06
-3.23201e-05 0.000522311 1.76083e-06
-6.92953e-06 1.76083e-06 8.93919e-05
5.72824e-05 -0.000154567 1.86275e-06
-0.000154567 0.000719103 2.34023e-06
1.86275e-06 2.34023e-06 0.000113814
0.00368146 -0.000809142 1.82868e-05
-0.000809142 0.00250809 -7.65765e-06
1.82868e-05 -7.65765e-06 0.00201765
0.000168424 -6.4396e-05 -1.97224e-06
-6.4396e-05 0.000431004 -9.19348e-06
-1.97224e-06 -9.19348e-06 5.27249e-05
-0.00594488 0.000140408 6.30741e-07
0.000140408 -0.00332532 -2.37612e-06
6.30741e-07 -2.37612e-06 -0.00399648
0.00097522 -0.000654536 -2.18992e-07
-0.000654536 0.000771383 6.8952e-06
-2.18992e-07 6.8952e-06 5.86522e-05
-0.00145281 -0.000314721 2.29357e-05
-0.000314721 -0.000939322 2.29779e-05
2.29357e-05 2.29779e-05 -0.00141116
-0.000425044 -0.000308718 -5.40189e-06
-0.000308718 -0.000272099 -1.44866e-05
-5.40189e-06 -1.44866e-05 -0.000540782
0.000273873 -0.000621152 -1.25063e-05
-0.000621152 -0.000162775 -5.36068e-06
-1.25063e-05 -5.36068e-06 -0.000574166
0.0021629 -0.00119365 -2.17984e-05
-0.00119365 0.000901615 8.5693e-06
-2.17984e-05 8.5693e-06 2.58164e-05
0.00253227 -0.0014543 -1.6977e-05
-0.0014543 0.000953159 4.99319e-06
-1.6977e-05 4.99319e-06 6.08687e-05
0.00236343 -0.000668369 -1.98829e-06
-0.000668369 0.00117473 -1.32029e-05
-1.98829e-06 -1.32029e-05 0.000769784
0.00220218 -0.00109412 -1.44511e-06
-0.00109412 0.000937141 2.10194e-06
-1.44511e-06 2.10194e-06 0.000211113
0.00226607 -0.00133731 1.19882e-05
-0.00133731 0.000807758 -8.33739e-06
1.19882e-05 -8.33739e-06 -1.37344e-05
0.0017725 -0.00093681 4.58881e-06
-0.00093681 0.000695976 -1.91977e-06
4.58881e-06 -1.91977e-06 4.45341e-05
0.00180667 -0.00120955 4.63648e-06
-0.00120955 0.000609418 -3.26179e-06
4.63648e-06 -3.26179e-06 -0.000182061
0.00275572 -0.000417905 -1.86486e-06
-0.000417905 0.00138553 -9.71571e-06
-1.86486e-06 -9.71571e-06 0.00105634
0.000367868 -0.000524755 -3.68145e-07
-0.000524755 -0.00017899 2.06209e-07
-3.68145e-07 2.06209e-07 -0.000613795
0.00124113 -0.000880178 2.76099e-06
-0.000880178 0.000431888 -8.78647e-06
2.76099e-06 -8.78647e-06 -0.00018964
-0.000152089 -0.000212569 9.36587e-06
-0.000212569 -0.000178113 -3.3067e-07
9.36587e-06 -3.3067e-07 -0.000643334
0.000659729 -0.000365692 7.41583e-08
-0.000365692 0.000338907 -1.30517e-06
7.41583e-08 -1.30517e-06 -0.000118429
-0.00035286 -0.00023898 -6.02047e-06
-0.00023898 -0.000473256 -1.06258e-06
-6.02047e-06 -1.06258e-06 -0.000811411
0.00110405 -0.000605484 -1.61074e-05
-0.000605484 0.000605165 2.53321e-05
-1.61074e-05 2.53321e-05 0.000175646
0.001185 -0.000386458 1.75505e-06
-0.000386458 0.000609293 1.04539e-06
1.75505e-06 1.04539e-06 0.000221405
-0.000651045 -0.000125691 7.44689e-06
-0.000125691 -0.000616612 1.44842e-05
7.44689e-06 1.44842e-05 -0.000916884
0.000683581 -0.0005764 -1.53739e-05
-0.0005764 0.00034379 -8.16533e-06
-1.53739e-05 -8.16533e-06 -7.37318e-06
0.000411891 -0.000118457 -1.26417e-06
-0.000118457 5.36552e-05 -1.47823e-07
-1.26417e-06 -1.47823e-07 -0.000159829
0.000354752 1.82639e-05 2.84141e-06
1.82639e-05 -3.83331e-05 1.41176e-05
2.84141e-06 1.41176e-05 -0.000104384
0.00180734 -0.000229624 -7.56075e-06
-0.000229624 0.00097327 -6.43178e-06
-7.56075e-06 -6.43178e-06 0.000802041
0.000457999 -6.07604e-05 -2.7832e-06
-6.07604e-05 2.02897e-05 2.96161e-07
-2.7832e-06 2.96161e-07 -2.98546e-05
0.00288629 9.87615e-05 7.12458e-06
9.87615e-05 0.00163796 4.2664e-06
7.12458e-06 4.2664e-06 0.00163559
0.000463945 -6.94364e-05 2.88277e-06
-6.94364e-05 3.4827e-05 -7.01147e-06
2.88277e-06 -7.01147e-06 -1.27786e-05
0.00190063 3.27803e-05 3.11591e-05
3.27803e-05 0.000977416 -1.87956e-06
3.11591e-05 -1.87956e-06 0.000978602
0.00295382 1.91926e-05 4.63794e-05
1.91926e-05 0.00167907 -7.21742e-06
4.63794e-05 -7.21742e-06 0.0016901
-0.000199201 0.000101895 2.79686e-06
0.000101895 -0.000308891 7.47233e-06
2.79686e-06 7.47233e-06 -0.000551865
-0.000217762 5.45729e-05 2.92027e-06
5.45729e-05 -0.000370891 -8.33422e-06
2.92027e-06 -8.33422e-06 -0.000520559
0.000202584 0.000134203 -7.55941e-07
0.000134203 -2.32992e-05 8.57725e-07
-7.55941e-07 8.57725e-07 -0.000265271
0.000393354 2.42249e-05 3.69408e-06
2.42249e-05 -1.65956e-05 -8.05595e-06
3.69408e-06 -8.05595e-06 -5.39946e-05
-5.7513e-05 4.05125e-05 -9.51594e-07
4.05125e-05 -0.000270893 -2.79434e-06
-9.51594e-07 -2.79434e-06 -0.000388934
0.00100408 0.000117164 -1.14778e-06
0.000117164 0.000528595 5.874e-06
-1.14778e-06 5.874e-06 0.000305107
0.00268121 -1.35244e-05 -2.69758e-05
-1.35244e-05 0.00150219 -7.09433e-06
-2.69758e-05 -7.09433e-06 0.00151231
0.000369489 1.74046e-05 -3.27076e-07
1.74046e-05 -3.2428e-05 -2.45822e-07
-3.27076e-07 -2.45822e-07 -6.31314e-05
-0.000170893 2.35959e-05 -6.70258e-07
2.35959e-05 -0.000353275 6.61431e-06
-6.70258e-07 6.61431e-06 -0.000450575
0.00245343 1.72152e-06 -5.3309e-06
1.72152e-06 0.00134974 1.09722e-07
-5.3309e-06 1.09722e-07 0.00136149
0.000368332 2.28898e-05 -2.07229e-06
2.28898e-05 -3.22412e-05 6.00392e-06
-2.07229e-06 6.00392e-06 -5.82762e-05
0.0023825 1.86185e-05 1.31082e-05
1.86185e-05 0.00130373 6.47531e-06
1.31082e-05 6.47531e-06 0.00131535
0.0009569 -0.000497831 0.000424884
-0.000497831 0.00731645 0.000246419
0.000424884 0.000246419 0.00369526
-0.00260648 -0.000950367 -5.96825e-05
-0.000950367 0.000228893 1.14276e-05
-5.96825e-05 1.14276e-05 -0.00561804
0.00438429 0.00562833 -0.00108213
0.00562833 0.0150583 -0.000303134
-0.00108213 -0.000303134 0.00382778
0.000940056 0.000236189 -5.06436e-08
0.000236189 0.000505866 -7.71342e-07
-5.06436e-08 -7.71342e-07 0.00021823
-0.00105031 0.00013997 1.01843e-05
0.00013997 -0.000737472 -2.89849e-06
1.01843e-05 -2.89849e-06 -0.00107244
0.0029694 0.000434625 3.5975e-05
0.000434625 0.00186592 1.21334e-06
3.5975e-05 1.21334e-06 0.00157698
0.0111411 -0.0015028 -0.000621557
-0.0015028 0.000970246 4.59562e-05
-0.000621557 4.59562e-05 -0.00329555
0.0108157 -0.00454956 0.000254553
-0.00454956 0.00606694 6.18041e-05
0.000254553 6.18041e-05 0.0027734
0.00488043 -0.00585523 0.000422453
-0.00585523 0.0023082 -0.000358659
0.000422453 -0.000358659 -0.00283043
0.00851418 -0.00604026 7.22141e-05
-0.00604026 -0.0024259 -0.000142507
7.22141e-05 -0.000142507 0.000818165
0.00330833 -0.0109588 -0.00140331
-0.0109588 -0.00554687 0.000170798
-0.00140331 0.000170798 -0.00376151
0.0340026 0.00955725 0.00118391
0.00955725 0.0208797 0.000411905
0.00118391 0.000411905 0.00618574
0.0107822 -0.00220834 0.00053825
-0.00220834 0.000144078 -0.000334685
0.00053825 -0.000334685 -0.00426247
0.0041874 -0.0067871 6.98929e-06
-0.0067871 -0.000289917 1.1072e-05
6.98929e-06 1.1072e-05 0.00110718
0.00374393 -0.0106355 -0.000391134
-0.0106355 0.00342089 1.96121e-05
-0.000391134 1.96121e-05 -0.00281647
0.0117356 0.00526805 -0.000254783
0.00526805 0.00924009 -0.000458559
-0.000254783 -0.000458559 0.000678988
0.0157529 -0.000689489 -0.000237392
-0.000689489 8.30823e-05 0.000195459
-0.000237392 0.000195459 -0.00105454
0.00118338 -0.00581396 -0.000256035
-0.00581396 0.00235444 0.000153429
-0.000256035 0.000153429 0.000492795
0.00871965 -0.00508649 -0.000406953
-0.00508649 0.00779374 0.000374431
-0.000406953 0.000374431 0.000861628
0.0141388 -0.000414146 6.3096e-05
-0.000414146 0.00521426 -0.000400734
6.3096e-05 -0.000400734 -0.000583404
0.0105932 0.00138231 -0.000159298
0.00138231 -0.000125109 0.000286746
-0.000159298 0.000286746 -0.00390652
-0.000413353 0.000138177 1.82683e-05
0.000138177 -0.000296245 3.50193e-05
1.82683e-05 3.50193e-05 -0.000480121
0.000680192 4.34839e-05 -7.58301e-06
4.34839e-05 0.000405976 2.72994e-06
-7.58301e-06 2.72994e-06 0.000167879
0.00129 -0.00039143 1.07914e-05
-0.00039143 0.000816743 -1.38135e-05
1.07914e-05 -1.38135e-05 0.000519115
0.000439531 0.000198051 1.53679e-06
0.000198051 0.000100271 5.40243e-06
1.53679e-06 5.40243e-06 -0.000116035
0.000786087 0.000308269 -3.67566e-06
0.000308269 0.000434781 -1.359e-05
-3.67566e-06 -1.359e-05 0.000141274
0.00123169 0.000345413 -8.77827e-06
0.000345413 0.000748625 -5.58395e-06
-8.77827e-06 -5.58395e-06 0.000424719
0.00180773 -0.00280677 8.3933e-05
-0.00280677 0.000116241 -3.81262e-05
8.3933e-05 -3.81262e-05 -0.000332397
0.000195174 -0.000970615 8.83168e-06
-0.000970615 7.06358e-05 -2.60649e-05
8.83168e-06 -2.60649e-05 -0.000252538
-0.000483744 0.000211318 -1.65041e-05
0.000211318 -0.000256727 -3.33085e-05
-1.65041e-05 -3.33085e-05 -0.000559356
0.000639206 -0.000352702 4.24327e-05
-0.000352702 0.000722804 -1.4578e-05
4.24327e-05 -1.4578e-05 0.000157417
0.00290681 -0.000200758 -6.77316e-06
-0.000200758 0.00209714 -3.81778e-05
-6.77316e-06 -3.81778e-05 0.00160907
-0.000458002 2.71126e-05 6.9787e-06
2.71126e-05 -8.46756e-05 7.73423e-06
6.9787e-06 7.73423e-06 -0.000417199
-0.000327563 2.36779e-05 5.86285e-06
2.36779e-05 0.00046571 1.94621e-05
5.86285e-06 1.94621e-05 -0.000254135
0.00118824 -0.00285352 2.69949e-06
-0.00285352 0.00170087 -1.72361e-05
2.69949e-06 -1.72361e-05 0.000206233
-2.92566e-05 -4.63294e-05 -7.47567e-06
-4.63294e-05 0.000737601 1.25941e-07
-7.47567e-06 1.25941e-07 -9.72881e-05
0.000245692 -0.000818404 -4.60363e-06
-0.000818404 0.00103006 5.92678e-06
-4.60363e-06 5.92678e-06 9.31397e-05
2.58104e-05 0.000216809 6.39943e-05
0.000216809 0.000556032 -3.44898e-05
6.39943e-05 -3.44898e-05 -9.82098e-05
-0.00301944 -0.000602974 -0.000253384
-0.000602974 0.0006521 9.31517e-06
-0.000253384 9.31517e-06 -0.000745157
-0.000923327 -0.000292303 -6.80525e-05
-0.000292303 0.00122622 -3.33763e-05
-6.80525e-05 -3.33763e-05 0.000105779
-0.00217379 -6.83868e-05 4.27921e-05
-6.83868e-05 -0.000351266 8.69418e-07
4.27921e-05 8.69418e-07 -0.00116306
0.0022246 0.000902973 2.19868e-05
0.000902973 0.000276008 -3.05178e-05
2.19868e-05 -3.05178e-05 -0.00718089
-0.000586326 0.00182804 0.000326764
0.00182804 0.0070127 4.67001e-05
0.000326764 4.67001e-05 0.00196603
-0.00262744 0.00066621 0.00053783
0.00066621 0.00061848 4.43023e-05
0.00053783 4.43023e-05 -0.00407508
-6.11016e-05 0.00133649 1.8037e-05
0.00133649 0.000415004 2.89427e-05
1.8037e-05 2.89427e-05 -0.000650311
0.00181133 0.0023188 1.10748e-05
0.0023188 0.0020766 -5.08288e-05
1.10748e-05 -5.08288e-05 0.0004137
-0.000799043 0.00116275 -0.000468774
0.00116275 0.00468378 -0.000130126
-0.000468774 -0.000130126 -0.000822541
-0.00185137 0.00215351 0.00035748
0.00215351 0.00616633 0.000351928
0.00035748 0.000351928 -0.00102358
0.0111513 2.87758e-05 -0.000214959
2.87758e-05 0.000810727 -0.000538456
-0.000214959 -0.000538456 -0.00615201
0.00942773 7.99103e-05 8.37565e-05
7.99103e-05 0.000401151 -5.07007e-05
8.37565e-05 -5.07007e-05 -0.00258521
0.00959396 -0.00217344 -0.000562684
-0.00217344 -0.000649246 0.000322026
-0.000562684 0.000322026 -0.00451189
0.000548491 0.000948544 -2.22764e-05
0.000948544 0.00120245 -4.91513e-06
-2.22764e-05 -4.91513e-06 0.000160501
0.00315835 0.00105756 0.000133385
0.00105756 0.00424678 7.52433e-05
0.000133385 7.52433e-05 0.000239331
0.0101597 -0.00328626 -0.000257499
-0.00328626 0.00550828 -5.32473e-05
-0.000257499 -5.32473e-05 0.00258567
-0.000506975 0.00150085 -0.000205969
0.00150085 0.00343056 -3.24414e-05
-0.000205969 -3.24414e-05 0.000187317
0.0296342 0.00835795 -0.000684971
0.00835795 0.0158423 -0.000638335
-0.000684971 -0.000638335 0.00522986
0.0159739 0.00421702 0.000178038
0.00421702 0.0107856 0.000530892
0.000178038 0.000530892 0.000728466
0.00811148 0.00362929 0.000137909
0.00362929 0.00883861 -4.03581e-06
0.000137909 -4.03581e-06 0.000686242
-9.31555e-06 4.89634e-05 7.40279e-05
4.89634e-05 0.00213232 -1.63199e-05
7.40279e-05 -1.63199e-05 7.6208e-05
0.00333943 0.000583569 -0.000485798
0.000583569 0.00958513 -9.26266e-06
-0.000485798 -9.26266e-06 0.00557784
0.00236577 -0.00184367 0.000742922
-0.00184367 0.00170478 -0.000275874
0.000742922 -0.000275874 -0.00495138
0.0513455 0.0214309 4.24792e-05
0.0214309 0.0351537 -0.000297749
4.24792e-05 -0.000297749 0.0145928
0.0211205 0.00695371 0.00120718
0.00695371 0.0122563 0.0015796
0.00120718 0.0015796 -0.000307122
0.0122029 -0.00749452 0.000771433
-0.00749452 0.00975683 -0.000538823
0.000771433 -0.000538823 8.70966e-05
5.53895e-05 -0.000982956 -8.9777e-05
-0.000982956 0.00449431 6.58402e-05
-8.9777e-05 6.58402e-05 0.00218008
0.00119134 0.000408382 -1.2525e-05
0.000408382 0.00143539 -2.06123e-06
-1.2525e-05 -2.06123e-06 0.000699991
-0.00032566 -0.000115079 -1.63055e-05
-0.000115079 0.000790614 -7.86443e-06
-1.63055e-05 -7.86443e-06 -0.000116347
0.00114216 -0.00107539 7.22957e-05
-0.00107539 0.00140494 -1.57491e-05
7.22957e-05 -1.57491e-05 0.000273137
-0.00075855 2.54229e-05 2.02314e-06
2.54229e-05 -9.04151e-05 3.47521e-06
2.02314e-06 3.47521e-06 -0.000512649
-0.000428739 -0.000105857 1.71675e-05
-0.000105857 0.000440087 -1.9722e-05
1.71675e-05 -1.9722e-05 -0.000159814
0.00125458 -0.000544511 -8.9629e-06
-0.000544511 0.00116996 1.06444e-06
-8.9629e-06 1.06444e-06 0.000764187
0.00302516 -0.00142553 5.17959e-05
-0.00142553 0.00184838 -1.31178e-05
5.17959e-05 -1.31178e-05 0.000925095
-0.0016046 -0.000354358 7.34869e-06
-0.000354358 -0.000667671 -6.78308e-06
7.34869e-06 -6.78308e-06 -0.00149801
0.00204066 -0.00106278 2.12148e-05
-0.00106278 0.000863163 -6.74291e-06
2.12148e-05 -6.74291e-06 0.00026609
-0.000655726 -0.000788826 -1.26669e-05
-0.000788826 -0.000451455 2.35543e-06
-1.26669e-05 2.35543e-06 -0.00154048
0.000931495 -0.000711171 -1.35893e-05
-0.000711171 0.000266976 -4.80961e-06
-1.35893e-05 -4.80961e-06 -0.000123706
0.0018993 -0.00114055 2.85851e-06
-0.00114055 0.000745757 -2.6372e-06
2.85851e-06 -2.6372e-06 -0.000109355
0.00241828 -0.00151887 -2.79595e-05
-0.00151887 0.000811261 4.94385e-06
-2.79595e-05 4.94385e-06 -0.00020606
0.00299901 -0.00164783 -1.46461e-05
-0.00164783 0.000912273 -2.01148e-07
-1.46461e-05 -2.01148e-07 1.5842e-05
0.0025453 -0.0015821 -1.93379e-06
-0.0015821 0.000876606 -1.2138e-06
-1.93379e-06 -1.2138e-06 -4.79357e-05
0.00267746 -0.00146062 -3.9788e-06
-0.00146062 0.00102314 1.58673e-06
-3.9788e-06 1.58673e-06 0.00013079
0.00175484 -0.0010365 1.87642e-06
-0.0010365 0.000662713 -8.92601e-06
1.87642e-06 -8.92601e-06 -5.55245e-05
0.00248894 -0.00133779 1.23544e-05
-0.00133779 0.00106253 -8.79671e-06
1.23544e-05 -8.79671e-06 0.00022578
0.00195682 -0.0013129 1.18358e-05
-0.0013129 0.000609691 -3.72567e-06
1.18358e-05 -3.72567e-06 -0.000205466
0.00179126 -0.000628989 -8.94471e-06
-0.000628989 0.000681647 -2.95056e-06
-8.94471e-06 -2.95056e-06 0.000205713
0.00255718 -0.00102966 4.17111e-06
-0.00102966 0.00117029 -4.80729e-06
4.17111e-06 -4.80729e-06 0.000503082
0.00105741 -0.00111111 2.73986e-06
-0.00111111 0.000149097 -4.68603e-07
2.73986e-06 -4.68603e-07 -0.000614596
0.000372326 -4.55424e-05 2.56259e-06
-4.55424e-05 1.56856e-05 -2.95493e-06
2.56259e-06 -2.95493e-06 -0.000354383
0.000156516 -0.000425638 1.71879e-06
-0.000425638 -0.000270935 -2.36165e-07
1.71879e-06 -2.36165e-07 -0.000621518
0.000963484 -0.000594352 -1.33555e-05
-0.000594352 0.0001727 6.05695e-06
-1.33555e-05 6.05695e-06 -0.000285774
3.3878e-05 -0.000245278 8.9969e-06
-0.000245278 -0.000149654 8.16994e-06
8.9969e-06 8.16994e-06 -0.000542615
0.00100871 -0.000400366 -4.47918e-08
-0.000400366 0.000561526 1.31114e-06
-4.47918e-08 1.31114e-06 9.02453e-05
-0.00196189 -0.000496577 -7.30844e-06
-0.000496577 -0.00133765 1.24153e-05
-7.30844e-06 1.24153e-05 -0.0017972
0.00128363 -0.000577587 -1.02786e-05
-0.000577587 0.000659386 -5.12833e-06
-1.02786e-05 -5.12833e-06 0.000264469
0.00109047 -0.000211218 -3.8489e-07
-0.000211218 0.000489037 8.30411e-07
-3.8489e-07 8.30411e-07 0.000202768
0.000344355 -2.41285e-05 2.64594e-06
-2.41285e-05 -3.61009e-05 2.08356e-05
2.64594e-06 2.08356e-05 -0.000136969
0.0020748 -0.000219229 -3.50886e-06
-0.000219229 0.00111653 -1.62765e-05
-3.50886e-06 -1.62765e-05 0.000908708
0.000450133 -2.95543e-05 -8.49968e-06
-2.95543e-05 2.93723e-05 -9.51885e-07
-8.49968e-06 -9.51885e-07 -4.5014e-05
0.00366078 0.00010629 -5.52359e-05
0.00010629 0.00216428 8.4945e-06
-5.52359e-05 8.4945e-06 0.00216056
0.000568784 -6.71774e-05 2.77317e-06
-6.71774e-05 8.44596e-05 -1.19121e-05
2.77317e-06 -1.19121e-05 3.37518e-05
0.00212199 6.00833e-05 3.57312e-05
6.00833e-05 0.00112509 -6.31812e-07
3.57312e-05 -6.31812e-07 0.00112153
0.00299185 3.94714e-05 4.99197e-05
3.94714e-05 0.00170116 -7.06171e-06
4.99197e-05 -7.06171e-06 0.00171052
0.00164674 0.000264437 -9.62747e-08
0.000264437 0.000956548 -8.79445e-06
-9.62747e-08 -8.79445e-06 0.000646582
0.000647167 0.000137518 4.8909e-06
0.000137518 0.000218286 -6.3388e-06
4.8909e-06 -6.3388e-06 3.4309e-05
0.000515366 0.00011704 -1.26618e-06
0.00011704 0.000214986 2.85517e-06
-1.26618e-06 2.85517e-06 -6.85521e-05
0.000415911 4.8005e-05 -1.275e-06
4.8005e-05 5.16897e-06 -1.10789e-05
-1.275e-06 -1.10789e-05 -4.27619e-05
0.000137349 7.05518e-05 -2.88183e-06
7.05518e-05 -0.000131467 -3.97504e-06
-2.88183e-06 -3.97504e-06 -0.000278409
0.000566145 0.000108823 -1.74165e-06
0.000108823 0.000224871 -3.67826e-06
-1.74165e-06 -3.67826e-06 -1.75941e-05
0.00276101 -3.04849e-05 -3.15678e-05
-3.04849e-05 0.00155627 -7.51846e-06
-3.15678e-05 -7.51846e-06 0.00156479
0.000343384 5.01233e-06 6.4443e-07
5.01233e-06 -4.76434e-05 -3.80506e-07
6.4443e-07 -3.80506e-07 -8.50579e-05
0.000123951 1.62061e-05 -4.02447e-06
1.62061e-05 -0.000144821 3.43123e-06
-4.02447e-06 3.43123e-06 -0.000270707
0.00257541 -1.45772e-05 -7.68131e-06
-1.45772e-05 0.00143145 1.69426e-07
-7.68131e-06 1.69426e-07 0.00144198
0.000354512 9.42634e-06 -5.87059e-06
9.42634e-06 -4.29605e-05 6.70859e-06
-5.87059e-06 6.70859e-06 -7.29226e-05
0.00244807 2.65434e-06 1.79643e-05
2.65434e-06 0.00134651 6.58618e-06
1.79643e-05 6.58618e-06 0.00135824
0.00481911 -8.89016e-05 -0.000404265
-8.89016e-05 0.00369535 -2.83689e-05
-0.000404265 -2.83689e-05 -0.00051009
-0.00238462 0.000346719 0.000321557
0.000346719 0.00717504 3.41843e-06
0.000321557 3.41843e-06 0.00236786
0.000182223 -0.000714822 -5.53046e-05
-0.000714822 0.00153175 -0.000304767
-5.53046e-05 -0.000304767 -0.00482861
-0.00114146 -5.61799e-05 1.15691e-05
-5.61799e-05 -0.000705187 -1.36814e-05
1.15691e-05 -1.36814e-05 -0.00120201
0.00576397 0.000620053 2.07364e-05
0.000620053 0.00351152 1.49205e-05
2.07364e-05 1.49205e-05 0.0031546
-0.000147318 0.000161046 -7.74128e-06
0.000161046 -0.000184608 -3.32408e-07
-7.74128e-06 -3.32408e-07 -0.00047478
-0.000349488 0.000106241 2.74448e-06
0.000106241 -0.000324814 -3.8621e-06
2.74448e-06 -3.8621e-06 -0.000648837
-0.000773672 6.30873e-05 -2.04872e-07
6.30873e-05 -0.000704337 -7.8239e-06
-2.04872e-07 -7.8239e-06 -0.000878631
0.00126137 0.000237526 1.57499e-05
0.000237526 0.000676352 -7.51976e-06
1.57499e-05 -7.51976e-06 0.000413736
-0.00046239 5.75022e-05 2.36465e-05
5.75022e-05 -0.000456203 -2.52771e-05
2.36465e-05 -2.52771e-05 -0.000559043
0.0074532 0.00229436 0.000136477
0.00229436 0.00125468 0.000207465
0.000136477 0.000207465 -0.00273545
0.00999819 -0.000474842 -0.000228903
-0.000474842 0.00140413 2.28579e-05
-0.000228903 2.28579e-05 -0.00320566
0.00860759 -0.0014853 0.000697035
-0.0014853 0.00695114 -0.000120839
0.000697035 -0.000120839 0.00232871
0.0126032 0.000281084 -7.27405e-05
0.000281084 -0.002327 0.00025998
-7.27405e-05 0.00025998 -0.00354161
0.00669917 -0.00806547 -0.000111439
-0.00806547 0.000255993 1.6413e-05
-0.000111439 1.6413e-05 0.00100465
5.92446e-05 -0.00880995 -0.000575012
-0.00880995 0.00319385 0.000241959
-0.000575012 0.000241959 -0.00497099
0.0291468 0.00424264 0.000404369
0.00424264 0.0118868 -0.000451444
0.000404369 -0.000451444 0.00303566
0.0047297 -0.00781224 -0.000158674
-0.00781224 0.00231881 0.000107028
-0.000158674 0.000107028 0.000863417
-0.00115666 -0.00252318 -0.00021208
-0.00252318 0.00641409 9.12465e-05
-0.00021208 9.12465e-05 -0.00324568
0.015896 -2.91471e-06 0.000577944
-2.91471e-06 0.00638549 -4.49792e-05
0.000577944 -4.49792e-05 -0.000676192
0.0214298 -0.0020155 -2.97561e-05
-0.0020155 0.00441229 8.19502e-06
-2.97561e-05 8.19502e-06 0.00193271
-0.00551461 -0.0010812 -0.000277122
-0.0010812 0.000574239 0.000279696
-0.000277122 0.000279696 -0.000787824
0.00161085 -0.000105671 -0.000224961
-0.000105671 0.00697763 -0.000238761
-0.000224961 -0.000238761 -0.00236617
0.0163873 -0.00589567 -0.00016277
-0.00589567 0.006421 -0.000241916
-0.00016277 -0.000241916 -0.00430803
0.0270553 -0.00165268 0.00106581
-0.00165268 0.0136524 -0.000852074
0.00106581 -0.000852074 0.00642742
-0.000459263 0.000155992 5.1938e-05
0.000155992 0.000316972 -2.28603e-05
5.1938e-05 -2.28603e-05 -0.000426223
-5.3005e-05 0.000163959 -3.26945e-06
0.000163959 -3.01488e-05 -7.09991e-06
-3.26945e-06 -7.09991e-06 -0.000235136
-2.71985e-05 -2.27409e-05 -6.45359e-08
-2.27409e-05 -3.74571e-05 -1.99522e-05
-6.45359e-08 -1.99522e-05 -0.000280101
0.00052669 0.000169674 -9.90688e-06
0.000169674 0.000211099 -8.54817e-06
-9.90688e-06 -8.54817e-06 -3.37254e-05
0.000683331 -0.00286833 6.62811e-05
-0.00286833 0.001301 2.79906e-05
6.62811e-05 2.79906e-05 -0.00023485
0.000954358 -0.000771135 -4.30287e-06
-0.000771135 0.00170246 9.7555e-06
-4.30287e-06 9.7555e-06 0.000596475
-4.19628e-05 3.4485e-05 -4.0135e-05
3.4485e-05 0.00016338 -1.95921e-05
-4.0135e-05 -1.95921e-05 -0.000161932
0.000977421 -0.000233999 -1.10825e-05
-0.000233999 0.000995783 -6.63866e-05
-1.10825e-05 -6.63866e-05 0.000430231
0.00093059 2.12933e-05 -6.79213e-06
2.12933e-05 0.00139811 2.46229e-05
-6.79213e-06 2.46229e-05 0.000697097
0.000464153 0.000203108 -4.82665e-06
0.000203108 0.000712064 1.03973e-05
-4.82665e-06 1.03973e-05 0.000134705
0.000456808 -0.000154989 -9.03984e-07
-0.000154989 0.00105504 -2.34516e-06
-9.03984e-07 -2.34516e-06 0.000303306
-0.000430555 -0.00151453 3.99387e-05
-0.00151453 0.00193581 -1.30836e-05
3.99387e-05 -1.30836e-05 -0.000221866
9.90474e-05 -0.00015269 -1.96488e-05
-0.00015269 0.00166052 -2.03199e-05
-1.96488e-05 -2.03199e-05 0.000659925
0.000312047 0.000144131 4.50168e-05
0.000144131 0.000561896 -1.39086e-05
4.50168e-05 -1.39086e-05 4.69333e-05
-0.0017558 -0.000255349 -0.000287505
-0.000255349 0.00254647 -3.70558e-07
-0.000287505 -3.70558e-07 -0.000420447
0.00214697 0.000661478 7.37022e-05
0.000661478 0.00225985 6.36531e-06
7.37022e-05 6.36531e-06 0.00142107
-0.00534289 -0.000638176 9.59567e-06
-0.000638176 0.0067409 -0.000170803
9.59567e-06 -0.000170803 0.00228312
0.00348471 3.02298e-05 6.23551e-05
3.02298e-05 0.00277549 4.06981e-05
6.23551e-05 4.06981e-05 -0.00256577
-0.00502352 0.00324217 -0.000213619
0.00324217 0.00635353 -0.000117496
-0.000213619 -0.000117496 0.000658406
0.00138881 0.000854328 -6.8698e-06
0.000854328 0.0018009 -2.43477e-06
-6.8698e-06 -2.43477e-06 0.000905987
-0.00130321 0.00186924 0.000366447
0.00186924 0.00208032 0.000130177
0.000366447 0.000130177 7.67539e-05
0.000959805 -0.000199408 7.55082e-05
-0.000199408 0.00499265 -4.83758e-07
7.55082e-05 -4.83758e-07 0.00110636
0.00567406 -0.00151527 0.000502254
-0.00151527 0.00669773 -0.00024104
0.000502254 -0.00024104 -0.0042898
0.0314072 0.00388838 -0.000554119
0.00388838 0.0127344 0.00043969
-0.000554119 0.00043969 0.00258619
0.00454769 -0.00123152 -0.000687642
-0.00123152 0.00512555 -2.14116e-05
-0.000687642 -2.14116e-05 0.00107351
0.0223852 0.007345 -0.000936802
0.007345 0.0175436 -0.000458514
-0.000936802 -0.000458514 0.00913684
0.000709266 0.000297093 -7.91819e-05
0.000297093 0.00229539 8.29413e-06
-7.91819e-05 8.29413e-06 0.000284856
-0.00187969 -0.00146288 -0.000262344
-0.00146288 0.00678309 1.26117e-05
-0.000262344 1.26117e-05 0.00303009
0.00114818 -0.00288914 0.000233111
-0.00288914 0.00312014 -6.82398e-05
0.000233111 -6.82398e-05 -0.00352009
-0.00413553 0.000105519 0.000102958
0.000105519 0.00198479 5.6171e-05
0.000102958 5.6171e-05 0.000303278
0.0462804 0.0255662 0.000796896
0.0255662 0.0330493 -0.000218746
0.000796896 -0.000218746 0.0115534
0.0187071 0.00400986 -4.4156e-05
0.00400986 0.0143892 0.000625531
-4.4156e-05 0.000625531 0.00228768
2.45308e-06 -0.00232174 0.000480024
-0.00232174 0.00588721 -0.000290988
0.000480024 -0.000290988 -0.00454428
-0.00175685 -0.00124959 -3.08848e-05
-0.00124959 0.00159766 -5.81269e-05
-3.08848e-05 -5.81269e-05 -0.000582336
0.00222064 -0.00176983 0.000480702
-0.00176983 0.000579836 -0.000122998
0.000480702 -0.000122998 -0.00570867
0.00838178 0.00879531 -0.00343564
0.00879531 0.0184562 -0.000100091
-0.00343564 -0.000100091 0.00404408
0.0313464 0.0122438 -0.000168879
0.0122438 0.0170853 0.000570453
-0.000168879 0.000570453 0.00345101
0.00518428 -0.00775549 -0.000416409
-0.00775549 0.00475648 0.000218957
-0.000416409 0.000218957 -0.000196245
0.00260693 -0.00414989 5.41736e-05
-0.00414989 0.00547816 9.05428e-05
5.41736e-05 9.05428e-05 0.00222827
-0.000233846 -0.000178602 1.46074e-05
-0.000178602 0.000765864 -2.80723e-05
1.46074e-05 -2.80723e-05 -0.000236258
0.000692549 -0.00081629 -1.68156e-05
-0.00081629 0.00123321 3.77873e-06
-1.68156e-05 3.77873e-06 6.90954e-05
6.2173e-05 -0.00175557 2.44456e-05
-0.00175557 0.000557044 1.97539e-05
2.44456e-05 1.97539e-05 -0.000695614
-0.00192996 -0.000228638 5.51333e-06
-0.000228638 -0.000548271 -4.66604e-07
5.51333e-06 -4.66604e-07 -0.000881924
-0.000420366 -0.000820147 -1.66175e-05
-0.000820147 0.000100303 5.18178e-06
-1.66175e-05 5.18178e-06 -0.000644206
0.00274576 -0.00143276 3.72783e-05
-0.00143276 0.00128194 -9.43583e-06
3.72783e-05 -9.43583e-06 0.000370084
0.00560675 -0.00182615 -9.92172e-06
-0.00182615 0.00271862 1.67105e-06
-9.92172e-06 1.67105e-06 0.00198556
0.00221434 -0.00132496 1.04988e-05
-0.00132496 0.00100916 -3.57045e-06
1.04988e-05 -3.57045e-06 -0.000116927
0.00309054 -0.00183033 -3.069e-06
-0.00183033 0.00109685 -1.9105e-05
-3.069e-06 -1.9105e-05 -7.56252e-05
0.00161524 -0.00109972 3.32258e-06
-0.00109972 0.000536697 -1.30174e-05
3.32258e-06 -1.30174e-05 -0.000301534
0.00272702 -0.00157437 1.92489e-06
-0.00157437 0.000982447 -2.92872e-06
1.92489e-06 -2.92872e-06 -5.54734e-05
0.00408655 -0.00189789 -5.30839e-06
-0.00189789 0.00150272 -1.1381e-05
-5.30839e-06 -1.1381e-05 0.000479895
0.00276698 -0.00119634 -1.23244e-06
-0.00119634 0.000464703 -4.29663e-06
-1.23244e-06 -4.29663e-06 -0.000103089
0.00364599 -0.00167375 -6.53995e-06
-0.00167375 0.00124605 -2.91428e-06
-6.53995e-06 -2.91428e-06 0.000384657
0.00334089 -0.00171103 -3.6198e-06
-0.00171103 0.00109553 -9.93122e-07
-3.6198e-06 -9.93122e-07 0.000177141
0.00314412 -0.00162785 1.42822e-05
-0.00162785 0.00127084 -8.43616e-06
1.42822e-05 -8.43616e-06 0.000351394
0.00235404 -0.00151114 4.03443e-06
-0.00151114 0.000780159 -1.72615e-06
4.03443e-06 -1.72615e-06 -0.000109031
0.00295834 -0.00149134 1.22382e-05
-0.00149134 0.00117046 -4.89782e-06
1.22382e-05 -4.89782e-06 0.000270447
0.00262198 -0.00121445 6.58605e-06
-0.00121445 0.00122715 3.03148e-06
6.58605e-06 3.03148e-06 0.000413189
0.00265188 -0.00135757 -5.58775e-07
-0.00135757 0.00116579 -2.60675e-06
-5.58775e-07 -2.60675e-06 0.000325449
0.00238835 -0.00139344 -6.4539e-06
-0.00139344 0.000878699 5.99842e-06
-6.4539e-06 5.99842e-06 3.84137e-05
0.00319517 -0.000320145 1.24484e-05
-0.000320145 0.00170235 3.23609e-06
1.24484e-05 3.23609e-06 0.00131482
0.00126553 -0.000468434 -1.02712e-05
-0.000468434 0.000426218 4.77837e-06
-1.02712e-05 4.77837e-06 -2.74654e-05
0.00219187 -0.00101464 -4.53376e-06
-0.00101464 0.000963104 -3.1985e-06
-4.53376e-06 -3.1985e-06 0.000286063
0.00108572 -0.000316033 3.48712e-06
-0.000316033 0.000355103 -5.00394e-06
3.48712e-06 -5.00394e-06 2.70878e-05
0.00065324 -0.000217531 -4.29647e-06
-0.000217531 0.000175249 4.19087e-07
-4.29647e-06 4.19087e-07 -0.000196984
-0.000164565 -0.000185635 7.06451e-06
-0.000185635 -0.00044809 9.14021e-06
7.06451e-06 9.14021e-06 -0.000821793
9.98137e-05 -0.000138165 -1.94267e-05
-0.000138165 -0.000239729 2.59715e-05
-1.94267e-05 2.59715e-05 -0.00035848
0.00102742 -0.00028343 4.59862e-06
-0.00028343 0.000435568 2.56727e-06
4.59862e-06 2.56727e-06 8.68132e-05
0.00192623 -0.000538687 -5.77977e-06
-0.000538687 0.00112385 -1.48113e-06
-5.77977e-06 -1.48113e-06 0.000674677
0.00130189 -0.000169404 -7.27566e-06
-0.000169404 0.000612573 -1.53891e-05
-7.27566e-06 -1.53891e-05 0.000340039
0.000280969 -7.83382e-05 -5.72503e-07
-7.83382e-05 -0.000100602 -8.13532e-07
-5.72503e-07 -8.13532e-07 -0.000194169
0.00438266 0.000137807 -7.2256e-05
0.000137807 0.0026559 9.34312e-06
-7.2256e-05 9.34312e-06 0.00264253
0.000371104 -7.641e-05 6.24483e-06
-7.641e-05 -3.41044e-05 -1.66984e-05
6.24483e-06 -1.66984e-05 -0.000103573
0.00371055 0.000105743 1.25065e-05
0.000105743 0.00219818 1.15134e-06
1.25065e-05 1.15134e-06 0.00219413
0.0030726 6.14641e-05 5.70346e-05
6.14641e-05 0.00175691 -7.98161e-06
5.70346e-05 -7.98161e-06 0.0017642
0.00459119 0.000455423 1.75811e-05
0.000455423 0.0030141 -1.51043e-05
1.75811e-05 -1.51043e-05 0.00244431
0.00308178 0.000322537 1.31479e-05
0.000322537 0.00204213 -3.77177e-05
1.31479e-05 -3.77177e-05 0.0015548
0.000810336 0.00013841 5.6882e-06
0.00013841 0.000321869 -1.26781e-05
5.6882e-06 -1.26781e-05 0.000112735
0.000665477 0.000215421 2.12792e-06
0.000215421 0.000325905 1.6125e-06
2.12792e-06 1.6125e-06 6.57602e-06
0.000484354 -3.28531e-05 9.05163e-06
-3.28531e-05 5.50494e-05 -1.35188e-05
9.05163e-06 -1.35188e-05 -1.68878e-06
0.000723659 0.000136355 -5.27741e-07
0.000136355 0.000270142 -7.34777e-07
-5.27741e-07 -7.34777e-07 8.77892e-05
0.000810872 0.000132791 -5.86695e-06
0.000132791 0.000404485 -1.4239e-05
-5.86695e-06 -1.4239e-05 0.000114832
0.00309574 -4.71719e-05 -4.56796e-05
-4.71719e-05 0.00178414 -8.61103e-06
-4.56796e-05 -8.61103e-06 0.00179024
0.000390751 3.21011e-06 -3.30812e-06
3.21011e-06 -1.17605e-05 -3.83175e-07
-3.30812e-06 -3.83175e-07 -5.80716e-05
0.000697677 0.000122778 -6.90703e-06
0.000122778 0.000250006 5.32693e-06
-6.90703e-06 5.32693e-06 0.00010012
0.00284641 -3.49436e-05 -7.6482e-06
-3.49436e-05 0.001614 5.12743e-07
-7.6482e-06 5.12743e-07 0.00162155
0.00036949 -9.6069e-06 -7.29083e-06
-9.6069e-06 -3.19207e-05 7.9018e-06
-7.29083e-06 7.9018e-06 -6.82242e-05
0.00257578 -1.52428e-05 2.21104e-05
-1.52428e-05 0.00143136 6.8118e-06
2.21104e-05 6.8118e-06 0.00144184
-0.000690895 0.00186745 -0.000136408
0.00186745 0.00546199 -0.000206413
-0.000136408 -0.000206413 -0.000284916
0.00767177 -0.00078434 -8.12179e-05
-0.00078434 0.00547853 -0.000115197
-8.12179e-05 -0.000115197 0.00137169
-7.27877e-05 -0.000731736 0.000192875
-0.000731736 0.00734436 -0.000107028
0.000192875 -0.000107028 0.00299969
0.000645966 0.000164546 2.35649e-06
0.000164546 0.000570678 -1.23012e-05
2.35649e-06 -1.23012e-05 -4.41869e-05
-0.000582754 0.000427305 -1.05268e-05
0.000427305 -0.000425618 -1.23829e-05
-1.05268e-05 -1.23829e-05 -0.00079857
0.000830964 0.000405866 1.72934e-05
0.000405866 0.000211128 -2.37542e-05
1.72934e-05 -2.37542e-05 -6.83999e-05
-0.00208227 5.2539e-05 6.60604e-06
5.2539e-05 -0.00106111 2.94713e-05
6.60604e-06 2.94713e-05 -0.0017085
0.00107164 0.000607239 5.21028e-06
0.000607239 0.000477417 -1.01994e-05
5.21028e-06 -1.01994e-05 4.27631e-05
-1.95941e-05 0.000115278 -1.12205e-05
0.000115278 -9.14486e-05 9.9568e-06
-1.12205e-05 9.9568e-06 -0.00044488
-1.87791e-05 0.000120882 -2.06649e-05
0.000120882 -0.000182385 9.46097e-06
-2.06649e-05 9.46097e-06 -0.000353536
0.00110537 2.88179e-05 1.15485e-05
2.88179e-05 0.000593317 2.03447e-06
1.15485e-05 2.03447e-06 0.000318261
0.00134416 0.000244676 -1.07373e-05
0.000244676 0.000746401 -1.07263e-05
-1.07373e-05 -1.07263e-05 0.000630108
0.0029318 0.000301827 -4.35842e-06
0.000301827 0.0020043 -4.69423e-05
-4.35842e-06 -4.69423e-05 0.00155109
0.0136634 0.00613532 0.001331
0.00613532 0.00799103 0.000667977
0.001331 0.000667977 0.00244419
0.00641612 0.00189824 3.33304e-05
0.00189824 0.00324538 5.81317e-05
3.33304e-05 5.81317e-05 -0.00129612
0.0108509 -0.000528626 0.000320118
-0.000528626 0.00122549 6.60322e-06
0.000320118 6.60322e-06 -0.00215836
0.017206 -0.000244996 -0.00020096
-0.000244996 0.00334954 -0.000115279
-0.00020096 -0.000115279 0.00356667
0.0105587 0.000464017 0.000200537
0.000464017 0.00143639 0.000471336
0.000200537 0.000471336 -0.00600964
0.00421771 -0.00767888 -0.000186035
-0.00767888 0.00269788 9.79476e-05
-0.000186035 9.79476e-05 0.000960352
0.00319956 -0.00237716 -0.00068071
-0.00237716 0.00721308 0.000191862
-0.00068071 0.000191862 0.000282767
-0.00153322 -0.00272729 -0.000171642
-0.00272729 0.00210406 0.000199843
-0.000171642 0.000199843 -6.5054e-05
0.0121889 -0.000543814 -0.000511174
-0.000543814 0.00996105 -3.00282e-05
-0.000511174 -3.00282e-05 0.000640184
0.0102424 -0.00447852 0.00013313
-0.00447852 0.00756759 0.000297218
0.00013313 0.000297218 -0.00176482
0.0357294 -0.00716401 0.000559585
-0.00716401 0.0148798 -0.00117115
0.000559585 -0.00117115 0.00339483
-0.000683577 0.000783723 -0.000319436
0.000783723 0.00379655 0.000110757
-0.000319436 0.000110757 0.000673594
0.00294311 0.00198745 -0.000459517
0.00198745 0.00752521 -0.000182205
-0.000459517 -0.000182205 -4.52663e-05
0.0360224 -0.0132308 0.00176867
-0.0132308 0.0226074 -0.00146679
0.00176867 -0.00146679 0.00714556
0.0406809 -0.0218896 0.000223484
-0.0218896 0.0292746 -3.61003e-05
0.000223484 -3.61003e-05 0.0105371
0.000935105 0.000725947 6.22824e-05
0.000725947 0.00094443 1.41873e-05
6.22824e-05 1.41873e-05 0.000139903
-0.000296943 0.000129118 1.94224e-05
0.000129118 0.000431327 1.90435e-06
1.94224e-05 1.90435e-06 -0.000326343
0.00119921 0.000193672 -4.48988e-05
0.000193672 0.000785527 -1.32573e-05
-4.48988e-05 -1.32573e-05 0.000556087
0.00103895 -0.00211933 0.000105576
-0.00211933 0.00250689 1.3591e-05
0.000105576 1.3591e-05 -0.000210343
-0.00196509 -0.000216578 0.000174422
-0.000216578 0.000698272 3.85448e-05
0.000174422 3.85448e-05 -0.000459166
0.000635387 0.000216629 -5.22185e-05
0.000216629 0.000770942 9.90221e-06
-5.22185e-05 9.90221e-06 0.000237413
-0.00118589 3.12276e-05 -7.08834e-05
3.12276e-05 0.000442406 -5.96495e-06
-7.08834e-05 -5.96495e-06 -0.000477558
0.000492843 0.000324735 -1.58839e-05
0.000324735 0.000718683 3.1219e-06
-1.58839e-05 3.1219e-06 0.000182545
-0.000144905 0.000652974 2.29098e-05
0.000652974 0.000900141 1.98817e-06
2.29098e-05 1.98817e-06 5.31002e-05
-0.00321067 1.39858e-05 0.000222866
1.39858e-05 0.00192831 -0.000120747
0.000222866 -0.000120747 -0.000644307
0.00244727 0.00121514 7.2185e-05
0.00121514 0.00144849 8.69447e-05
7.2185e-05 8.69447e-05 0.000816478
0.000715669 0.00150988 -8.95497e-05
0.00150988 0.00220659 -0.000142204
-8.95497e-05 -0.000142204 -0.000235813
-0.000374782 -0.00164331 0.000394125
-0.00164331 0.00104151 0.000146367
0.000394125 0.000146367 -0.00408209
-0.00427704 0.00132375 -0.00032297
0.00132375 0.00672795 -3.01351e-05
-0.00032297 -3.01351e-05 0.000996599
0.00741281 -0.000922481 -0.000264507
-0.000922481 0.00591669 1.66834e-05
-0.000264507 1.66834e-05 0.00287708
-0.000145854 0.00105917 0.000109842
0.00105917 0.00149927 1.40356e-05
0.000109842 1.40356e-05 -0.000641355
-0.000692298 0.000604176 -2.41946e-05
0.000604176 0.00361964 0.000126937
-2.41946e-05 0.000126937 0.000629603
-0.00212577 -3.83033e-06 -0.000156902
-3.83033e-06 0.00541812 -0.000126884
-0.000156902 -0.000126884 0.00102418
0.0138002 -0.00799159 0.000666681
-0.00799159 0.0110782 -0.000372153
0.000666681 -0.000372153 0.000382402
0.0337819 0.0117339 -0.00124518
0.0117339 0.0215258 -0.000474584
-0.00124518 -0.000474584 0.00639907
0.00911909 -0.00411433 -0.000620126
-0.00411433 0.00465782 0.00036611
-0.000620126 0.00036611 -0.000652285
0.0387967 0.0300513 0.00200138
0.0300513 0.0288683 -0.00186504
0.00200138 -0.00186504 0.00723124
-0.00138128 -0.00100958 1.55569e-05
-0.00100958 0.00157306 2.03513e-06
1.55569e-05 2.03513e-06 -0.000691809
0.00104529 -0.00129269 0.000158888
-0.00129269 0.00154262 1.96162e-06
0.000158888 1.96162e-06 -0.00481955
0.0149488 0.00941425 -0.00172227
0.00941425 0.0182676 -4.82987e-05
-0.00172227 -4.82987e-05 0.00339421
-5.42077e-05 -0.00274016 4.41893e-05
-0.00274016 0.00308705 4.38351e-05
4.41893e-05 4.38351e-05 0.000688097
0.0347691 0.0120343 0.000752309
0.0120343 0.0186966 0.000462861
0.000752309 0.000462861 0.00466398
0.00411374 -0.0111992 0.000638128
-0.0111992 0.00383996 -0.000218761
0.000638128 -0.000218761 -0.00239192
-0.000607553 -0.0030253 3.85975e-05
-0.0030253 0.00130777 5.20304e-05
3.85975e-05 5.20304e-05 -0.000935555
0.00418265 -3.60624e-05 0.000185219
-3.60624e-05 0.0141243 -0.000196885
0.000185219 -0.000196885 0.00573238
0.0254241 0.0128369 -0.00274421
0.0128369 0.0133692 -0.000145684
-0.00274421 -0.000145684 0.00164535
0.000809154 -0.0108028 -0.00135846
-0.0108028 -0.0055982 0.000327694
-0.00135846 0.000327694 -0.00460126
3.89508e-05 -0.00467199 0.000282318
-0.00467199 0.000497722 -0.00023341
0.000282318 -0.00023341 0.000791251
0.00045373 -0.00063886 -8.84725e-05
-0.00063886 0.00106758 2.755e-05
-8.84725e-05 2.755e-05 -0.000102175
-0.000106605 -0.00136552 -2.90628e-05
-0.00136552 0.000603604 2.01248e-05
-2.90628e-05 2.01248e-05 -0.000567627
-0.00049602 -0.00137256 -1.08268e-05
-0.00137256 -0.000381401 -1.08844e-05
-1.08268e-05 -1.08844e-05 -0.00124123
-0.00325697 -0.000263052 2.57195e-05
-0.000263052 -0.00131151 -5.88239e-06
2.57195e-05 -5.88239e-06 -0.00188751
0.000976638 -0.00120293 8.16331e-06
-0.00120293 0.000331006 -7.70969e-06
8.16331e-06 -7.70969e-06 -0.000474603
0.00444543 -0.0020747 -4.86471e-06
-0.0020747 0.00152475 -2.90802e-06
-4.86471e-06 -2.90802e-06 0.000725
0.00524553 -0.00186437 -2.52236e-05
-0.00186437 0.00259175 1.49862e-06
-2.52236e-05 1.49862e-06 0.00142577
0.00252909 -0.0016719 -2.04143e-06
-0.0016719 0.000791808 -1.73559e-06
-2.04143e-06 -1.73559e-06 -0.00030984
0.00360124 -0.00193848 1.75268e-06
-0.00193848 0.000983183 -1.12662e-05
1.75268e-06 -1.12662e-05 9.96126e-05
0.00276579 -0.00156992 1.47316e-05
-0.00156992 0.00102161 3.83541e-07
1.47316e-05 3.83541e-07 -2.62977e-05
0.00336429 -0.00176666 3.48262e-06
-0.00176666 0.00110986 -5.06653e-06
3.48262e-06 -5.06653e-06 0.000136081
0.00343834 -0.00137421 -1.30692e-06
-0.00137421 0.000783094 -6.02182e-06
-1.30692e-06 -6.02182e-06 0.00021999
0.00240833 -0.000790775 -2.28966e-06
-0.000790775 6.05043e-05 2.00306e-07
-2.28966e-06 2.00306e-07 -0.000147311
0.00242892 -0.00113851 8.08794e-07
-0.00113851 0.000209333 -2.33157e-06
8.08794e-07 -2.33157e-06 -0.000345634
0.00274242 -0.00119853 4.96019e-06
-0.00119853 0.000428404 -1.6088e-06
4.96019e-06 -1.6088e-06 -0.000134941
0.00358756 -0.00150474 -1.94421e-06
-0.00150474 0.00125745 -3.75992e-06
-1.94421e-06 -3.75992e-06 0.00048529
0.0035835 -0.00167828 -4.62739e-06
-0.00167828 0.00121359 -7.18667e-07
-4.62739e-06 -7.18667e-07 0.000342045
0.00354057 -0.00175229 5.8027e-06
-0.00175229 0.00119674 -4.86817e-06
5.8027e-06 -4.86817e-06 0.000262523
0.0027821 -0.00144072 -7.08668e-06
-0.00144072 0.00107043 -1.22196e-05
-7.08668e-06 -1.22196e-05 0.000205828
0.00250217 -0.00152635 2.67937e-06
-0.00152635 0.000892315 -9.90292e-07
2.67937e-06 -9.90292e-07 3.89464e-06
0.00184066 -0.00139608 1.10925e-06
-0.00139608 0.000492417 2.27807e-06
1.10925e-06 2.27807e-06 -0.000348946
0.00426094 -0.000913423 1.72186e-05
-0.000913423 0.00233585 1.34286e-05
1.72186e-05 1.34286e-05 0.00171647
0.000973259 -0.00100587 5.20212e-06
-0.00100587 0.000243972 5.13965e-06
5.20212e-06 5.13965e-06 -0.00052964
0.00229427 -0.00130121 -1.44294e-05
-0.00130121 0.00093089 1.07088e-05
-1.44294e-05 1.07088e-05 0.000111753
0.0014193 -0.000412587 5.60616e-06
-0.000412587 0.000517087 -1.01508e-05
5.60616e-06 -1.01508e-05 0.000227166
0.000621098 -0.000444201 -1.22177e-06
-0.000444201 0.000125047 -7.34098e-06
-1.22177e-06 -7.34098e-06 -0.000311547
-0.000505357 -0.000292527 3.21028e-06
-0.000292527 -0.000574488 -2.78263e-06
3.21028e-06 -2.78263e-06 -0.00102696
0.00330865 -0.000161513 -0.000123959
-0.000161513 0.00183284 1.93868e-05
-0.000123959 1.93868e-05 0.00172383
0.000339643 -0.000309113 -4.37344e-06
-0.000309113 -8.81637e-05 8.85602e-07
-4.37344e-06 8.85602e-07 -0.000440401
0.00070199 -0.000503512 -5.62381e-06
-0.000503512 0.000193202 2.52155e-07
-5.62381e-06 2.52155e-07 -0.000198823
0.00143325 -2.11958e-05 -0.000123557
-2.11958e-05 0.000674364 1.32448e-05
-0.000123557 1.32448e-05 0.000649496
0.00159878 -0.000120951 -3.44997e-05
-0.000120951 0.000757131 -6.95453e-07
-3.44997e-05 -6.95453e-07 0.000631063
0.00173417 -0.000359689 -8.91541e-07
-0.000359689 0.000848763 -3.82142e-06
-8.91541e-07 -3.82142e-06 0.000525804
0.000761905 -0.000106285 1.49616e-05
-0.000106285 0.000205154 -1.90965e-05
1.49616e-05 -1.90965e-05 0.000106875
0.00472351 0.000129969 1.27343e-05
0.000129969 0.00288094 7.14791e-07
1.27343e-05 7.14791e-07 0.00287038
0.00420001 9.38513e-05 8.83732e-05
9.38513e-05 0.00252119 -9.72905e-06
8.83732e-05 -9.72905e-06 0.00251942
-0.00200879 0.000165285 1.51918e-05
0.000165285 -0.00149532 7.03639e-06
1.51918e-05 7.03639e-06 -0.00187633
0.00243808 0.000547153 3.79803e-06
0.000547153 0.00159557 -2.80383e-05
3.79803e-06 -2.80383e-05 0.00107657
-0.000995391 0.000116198 4.34797e-06
0.000116198 -0.00060613 1.78608e-07
4.34797e-06 1.78608e-07 -0.00112038
0.000846494 0.000176638 -8.59379e-07
0.000176638 0.000352495 -1.92354e-05
-8.59379e-07 -1.92354e-05 0.000104599
0.00035469 0.000240317 6.99938e-06
0.000240317 0.000198431 -1.05979e-06
6.99938e-06 -1.05979e-06 -0.000234302
0.0002993 4.45625e-05 -8.72233e-06
4.45625e-05 -4.8035e-05 -1.67422e-05
-8.72233e-06 -1.67422e-05 -0.00012296
0.000510657 0.000121999 -1.3121e-07
0.000121999 0.000138475 1.25518e-06
-1.3121e-07 1.25518e-06 -8.20888e-05
0.000881304 0.000253126 -3.88411e-06
0.000253126 0.000513651 5.64272e-06
-3.88411e-06 5.64272e-06 0.000166312
0.0034139 -6.7114e-05 -6.04334e-05
-6.7114e-05 0.00200325 -9.63149e-06
-6.04334e-05 -9.63149e-06 0.00200601
0.000278162 2.47425e-05 -1.56017e-06
2.47425e-05 -7.75041e-05 6.42355e-09
-1.56017e-06 6.42355e-09 -0.000134719
0.000172848 0.000118829 -4.71787e-06
0.000118829 -0.00010317 8.34838e-06
-4.71787e-06 8.34838e-06 -0.000273238
0.00295975 -5.44667e-05 -1.03251e-05
-5.44667e-05 0.00169371 6.74498e-07
-1.03251e-05 6.74498e-07 0.0016984
0.000247683 -1.89322e-05 -9.41631e-06
-1.89322e-05 -0.000106354 9.85357e-06
-9.41631e-06 9.85357e-06 -0.000150767
0.00272177 -3.42328e-05 2.7725e-05
-3.42328e-05 0.00153092 7.29447e-06
2.7725e-05 7.29447e-06 0.00153906
0.00590842 0.00219875 0.000794195
0.00219875 0.00613612 0.000182576
0.000794195 0.000182576 0.000983992
-0.000854648 0.00186865 -5.62722e-05
0.00186865 0.0046303 -3.52389e-06
-5.62722e-05 -3.52389e-06 -0.00119904
0.000654142 0.00255467 1.09454e-05
0.00255467 0.00555591 -3.79099e-05
1.09454e-05 -3.79099e-05 0.00036059
0.000399826 0.000560596 -2.39672e-05
0.000560596 0.00010854 4.16384e-06
-2.39672e-05 4.16384e-06 -0.000437618
-0.00128155 2.22591e-05 -2.46681e-05
2.22591e-05 -0.00079915 4.75724e-05
-2.46681e-05 4.75724e-05 -0.00132608
-0.00145656 0.000119289 -2.37857e-05
0.000119289 -0.00100554 -1.63753e-05
-2.37857e-05 -1.63753e-05 -0.00129893
0.00218263 0.000184375 1.386e-05
0.000184375 0.00140501 2.05356e-07
1.386e-05 2.05356e-07 0.00098013
0.000931702 0.000432135 3.75581e-06
0.000432135 0.0001887 -6.42359e-06
3.75581e-06 -6.42359e-06 -9.04461e-05
0.00145213 0.00064575 -2.96331e-05
0.00064575 0.000717366 -1.39631e-05
-2.96331e-05 -1.39631e-05 0.000402955
0.0019421 0.000621307 1.12867e-05
0.000621307 0.000884472 -3.464e-05
1.12867e-05 -3.464e-05 0.00042796
-0.00270337 0.000171411 -2.58916e-05
0.000171411 -0.0012504 1.00779e-05
-2.58916e-05 1.00779e-05 -0.00178276
-0.000426688 8.16674e-05 -8.92909e-06
8.16674e-05 -0.000295156 -2.16448e-06
-8.92909e-06 -2.16448e-06 -0.000617763
-0.00161614 3.49661e-05 -1.03989e-05
3.49661e-05 -0.00126762 2.57124e-05
-1.03989e-05 2.57124e-05 -0.00128528
-0.000589035 7.7109e-05 -1.32944e-05
7.7109e-05 -9.48648e-05 3.52282e-06
-1.32944e-05 3.52282e-06 -0.000583124
-0.00044204 0.000459837 4.35658e-06
0.000459837 0.000153872 2.03863e-05
4.35658e-06 2.03863e-05 -0.000702204
0.019676 -0.0148929 -0.000389305
-0.0148929 0.0200902 0.000285138
-0.000389305 0.000285138 0.00154845
0.0125477 0.00618531 0.000346542
0.00618531 0.00524725 0.000211694
0.000346542 0.000211694 -0.00138936
0.00633394 0.00118783 0.000319176
0.00118783 0.00466932 -4.20675e-05
0.000319176 -4.20675e-05 -0.00041243
0.047368 -0.0128462 -0.00193859
-0.0128462 0.0194065 -0.000493181
-0.00193859 -0.000493181 0.00555326
0.0102989 -0.000630774 0.000394336
-0.000630774 0.00751639 0.000662519
0.000394336 0.000662519 0.000674874
0.00188845 -2.60578e-05 -0.000297407
-2.60578e-05 0.00689676 0.000194061
-0.000297407 0.000194061 -0.00247021
-0.00120796 -0.00296889 -2.30825e-05
-0.00296889 0.00274972 0.000140989
-2.30825e-05 0.000140989 -0.000234464
-0.00142988 -0.000815072 0.000227969
-0.000815072 0.00309449 7.2725e-05
0.000227969 7.2725e-05 0.000734477
0.0426586 -0.0250436 0.000297623
-0.0250436 0.0298556 0.000538162
0.000297623 0.000538162 0.00954386
0.00324059 0.00310304 -0.000247829
0.00310304 0.00722511 -0.000154955
-0.000247829 -0.000154955 -0.00200433
0.0178088 -0.00728795 -8.21489e-05
-0.00728795 0.0154718 0.000221709
-8.21489e-05 0.000221709 0.00108202
-0.00043365 0.00199121 1.87683e-05
0.00199121 0.00264063 -3.71823e-05
1.87683e-05 -3.71823e-05 0.000418899
0.00427423 0.00830884 -0.000341635
0.00830884 0.00370285 2.09879e-05
-0.000341635 2.09879e-05 -0.0011856
0.0309818 -0.0111743 -0.00110063
-0.0111743 0.016889 -4.15377e-05
-0.00110063 -4.15377e-05 0.00322567
0.00227768 0.00131843 8.94702e-06
0.00131843 0.00107823 5.85699e-05
8.94702e-06 5.85699e-05 0.000633988
0.000168554 0.000571498 5.02438e-06
0.000571498 0.000550248 1.95609e-06
5.02438e-06 1.95609e-06 -0.000288776
-0.000417174 7.45859e-05 -8.0043e-05
7.45859e-05 0.00037957 2.04743e-05
-8.0043e-05 2.04743e-05 -0.000391047
-0.00195589 -0.000376275 -0.000207199
-0.000376275 0.00252644 -3.64026e-05
-0.000207199 -3.64026e-05 0.000143721
-0.000178348 0.000595887 -8.78694e-05
0.000595887 0.000502142 -8.56054e-06
-8.78694e-05 -8.56054e-06 -0.000235636
-0.000276287 0.000306157 -2.64151e-05
0.000306157 0.000284201 -3.91689e-06
-2.64151e-05 -3.91689e-06 -0.000300866
0.00123825 0.00106573 -4.82671e-06
0.00106573 0.000749872 1.04316e-06
-4.82671e-06 1.04316e-06 0.000119109
-3.0357e-05 0.0016075 -0.000112376
0.0016075 0.00176161 -9.9413e-05
-0.000112376 -9.9413e-05 -0.000468731
0.00309056 0.00352181 0.000130373
0.00352181 0.00168606 5.68364e-05
0.000130373 5.68364e-05 -0.000147275
-0.00694791 0.00187106 0.000817583
0.00187106 0.00664382 -7.28382e-05
0.000817583 -7.28382e-05 -0.00287083
0.000729188 -0.00160533 -8.34654e-05
-0.00160533 0.00248773 9.37733e-05
-8.34654e-05 9.37733e-05 -0.00151131
-0.00208912 0.000630373 -0.000100541
0.000630373 0.00562391 0.000151309
-0.000100541 0.000151309 1.39475e-05
-0.00213296 -0.000656688 -7.36794e-05
-0.000656688 0.00114415 3.28885e-06
-7.36794e-05 3.28885e-06 -0.00110659
-0.00123142 -0.00181634 5.65605e-06
-0.00181634 0.00200769 -1.79499e-07
5.65605e-06 -1.79499e-07 0.000828891
-0.00428589 -0.00272192 -0.00026417
-0.00272192 0.000937864 0.000194774
-0.00026417 0.000194774 -0.00527894
-0.00087038 -0.00877923 0.000543095
-0.00877923 0.00424569 -0.000329105
0.000543095 -0.000329105 -0.00475124
0.0249003 0.00978251 0.00112454
0.00978251 0.0131278 -0.000208423
0.00112454 -0.000208423 0.000193439
0.0302493 0.0167578 -0.000247334
0.0167578 0.0221074 0.000773517
-0.000247334 0.000773517 0.00301338
0.000154951 -0.00212751 -5.2964e-05
-0.00212751 0.00213616 1.80377e-05
-5.2964e-05 1.80377e-05 0.000136043
0.00922289 0.00525025 0.000654809
0.00525025 0.0172238 -5.41502e-05
0.000654809 -5.41502e-05 0.00534186
0.0122608 0.00859486 0.000101516
0.00859486 0.00663235 0.000132972
0.000101516 0.000132972 -0.00225239
0.00292867 -0.00721913 8.9206e-05
-0.00721913 0.0015056 -5.32952e-05
8.9206e-05 -5.32952e-05 0.000352462
0.0114354 -0.0112109 4.87532e-06
-0.0112109 -0.00171229 2.04609e-05
4.87532e-06 2.04609e-05 -0.00153764
0.00236753 -0.00355388 4.66576e-05
-0.00355388 0.0011104 -5.8127e-06
4.66576e-05 -5.8127e-06 0.00020166
0.00217263 0.00646032 -0.00215249
0.00646032 0.00517752 9.87347e-06
-0.00215249 9.87347e-06 -0.00563141
0.0145537 -0.00728979 -0.000657244
-0.00728979 -0.00452656 0.000119834
-0.000657244 0.000119834 -0.00206683
0.00519436 -0.00741303 0.000125959
-0.00741303 -0.0012366 -9.44854e-05
0.000125959 -9.44854e-05 0.000658456
8.51448e-05 -0.000998499 -1.48514e-05
-0.000998499 0.000807811 -1.28908e-05
-1.48514e-05 -1.28908e-05 -0.000311162
0.00238518 -0.00210486 4.61949e-05
-0.00210486 0.000971358 -2.20578e-05
4.61949e-05 -2.20578e-05 7.09556e-06
0.00263872 -0.00181943 -4.80648e-06
-0.00181943 0.000454547 -1.50178e-05
-4.80648e-06 -1.50178e-05 -0.000180881
-0.000257732 -0.00107634 -1.09635e-06
-0.00107634 -0.000349729 8.9744e-07
-1.09635e-06 8.9744e-07 -0.00107324
0.00240676 -0.00181659 -8.21081e-06
-0.00181659 0.000451615 2.03289e-06
-8.21081e-06 2.03289e-06 -0.000266119
0.00446194 -0.0019868 -3.11201e-06
-0.0019868 0.00124879 -3.12847e-06
-3.11201e-06 -3.12847e-06 0.000595188
0.00211306 -0.00155862 1.11351e-05
-0.00155862 0.000553817 7.82197e-06
1.11351e-05 7.82197e-06 -0.00048312
0.00321222 -0.00187826 -1.19378e-06
-0.00187826 0.00076916 3.99333e-06
-1.19378e-06 3.99333e-06 -0.000100273
0.00308979 -0.00142666 -1.31672e-06
-0.00142666 0.000381398 -1.03899e-06
-1.31672e-06 -1.03899e-06 -3.12368e-05
0.00238495 -0.00159603 7.31579e-06
-0.00159603 0.00057231 2.11045e-06
7.31579e-06 2.11045e-06 -0.000344781
0.00290541 -0.00128918 -3.55613e-06
-0.00128918 0.000475813 4.31342e-06
-3.55613e-06 4.31342e-06 -5.92772e-05
0.00260202 -0.000878854 1.16984e-07
-0.000878854 4.78142e-05 -6.40444e-07
1.16984e-07 -6.40444e-07 -0.000100606
0.00262158 -0.000864795 -3.2484e-06
-0.000864795 0.00019284 6.37944e-07
-3.2484e-06 6.37944e-07 4.5942e-05
0.00232978 -0.000788627 -4.58221e-06
-0.000788627 8.09845e-05 4.29691e-07
-4.58221e-06 4.29691e-07 -0.000175667
0.00236111 -0.000781081 9.84277e-07
-0.000781081 1.67038e-05 2.45167e-06
9.84277e-07 2.45167e-06 -0.000189395
0.002249 -0.000987358 -5.13942e-06
-0.000987358 0.000156665 -3.78078e-06
-5.13942e-06 -3.78078e-06 -0.000325027
0.00259526 -0.00114317 4.26607e-06
-0.00114317 0.000342586 7.05446e-07
4.26607e-06 7.05446e-07 -0.000206813
0.00276785 -0.00120344 3.30104e-06
-0.00120344 0.000425957 3.87733e-06
3.30104e-06 3.87733e-06 -0.000132941
0.00269461 -0.00129871 -8.7437e-06
-0.00129871 0.000702751 -6.22731e-06
-8.7437e-06 -6.22731e-06 -2.02413e-06
0.00312828 -0.00145624 2.21389e-06
-0.00145624 0.000963968 -1.31004e-06
2.21389e-06 -1.31004e-06 0.000199148
0.00355814 -0.00168516 -2.48307e-06
-0.00168516 0.00120591 -2.30563e-07
-2.48307e-06 -2.30563e-07 0.000323892
0.00152048 -0.000967673 -2.31368e-06
-0.000967673 0.000231797 -9.61684e-06
-2.31368e-06 -9.61684e-06 -0.000455674
0.00276833 -0.00143522 2.11528e-06
-0.00143522 0.00104731 -1.25417e-06
2.11528e-06 -1.25417e-06 0.000185072
0.00199061 -0.00144284 -2.38238e-06
-0.00144284 0.000590995 5.55249e-06
-2.38238e-06 5.55249e-06 -0.000271819
0.000962385 -0.000530723 -1.42269e-05
-0.000530723 0.000120272 -8.64101e-06
-1.42269e-05 -8.64101e-06 -0.000186598
0.00132917 -0.000866109 3.51608e-06
-0.000866109 0.00048563 4.48239e-06
3.51608e-06 4.48239e-06 -0.000135528
0.00022931 -0.000894885 2.45473e-06
-0.000894885 -0.000174679 9.66613e-06
2.45473e-06 9.66613e-06 -0.000911939
8.03534e-06 -0.000240846 -3.19305e-05
-0.000240846 -0.000407809 1.93589e-05
-3.19305e-05 1.93589e-05 -0.000543185
0.00095146 -0.000504218 3.18087e-06
-0.000504218 0.000300324 5.86778e-07
3.18087e-06 5.86778e-07 -5.67855e-05
-0.0022555 -0.000499184 -9.28368e-06
-0.000499184 -0.00165509 -1.21945e-05
-9.28368e-06 -1.21945e-05 -0.00212518
0.00716039 0.000405192 3.33848e-05
0.000405192 0.00458033 1.32605e-05
3.33848e-05 1.32605e-05 0.00448648
0.000532902 -0.000222224 5.14069e-06
-0.000222224 -2.8382e-05 1.38765e-06
5.14069e-06 1.38765e-06 -0.000168317
0.000291908 -0.000231031 -9.99684e-06
-0.000231031 -0.000145523 5.86046e-06
-9.99684e-06 5.86046e-06 -0.000490402
0.00520805 0.000166241 2.86906e-05
0.000166241 0.00322099 1.79135e-06
2.86906e-05 1.79135e-06 0.00319999
0.000699612 -0.000153256 1.46674e-05
-0.000153256 0.000150336 -1.94348e-05
1.46674e-05 -1.94348e-05 8.77873e-06
0.00468347 0.000126394 0.000100247
0.000126394 0.00285207 -1.2905e-05
0.000100247 -1.2905e-05 0.00284264
0.0026115 0.00063943 1.0404e-06
0.00063943 0.00134007 1.90284e-05
1.0404e-06 1.90284e-05 0.000875809
0.00114973 0.000379357 4.32669e-06
0.000379357 0.000459558 7.41159e-07
4.32669e-06 7.41159e-07 8.14865e-05
-0.0003574 0.000839679 1.64316e-06
0.000839679 -0.000383833 5.59086e-06
1.64316e-06 5.59086e-06 -0.00083307
0.00180448 0.000400518 -1.71374e-06
0.000400518 0.000936443 -1.91476e-05
-1.71374e-06 -1.91476e-05 0.000656657
0.000939144 0.000252902 -3.18386e-07
0.000252902 0.000635347 1.09834e-06
-3.18386e-07 1.09834e-06 0.000103165
-0.000465502 0.000251192 -5.26023e-06
0.000251192 -0.000194281 1.45095e-05
-5.26023e-06 1.45095e-05 -0.00074428
0.000593095 4.26547e-05 -5.52644e-06
4.26547e-05 0.000144656 -1.88523e-05
-5.52644e-06 -1.88523e-05 4.87257e-05
0.000618319 0.000177334 -1.24256e-07
0.000177334 0.00020708 1.45264e-06
-1.24256e-07 1.45264e-06 -4.28942e-05
-0.000372602 9.4413e-05 -1.2561e-05
9.4413e-05 -0.000358965 3.66816e-05
-1.2561e-05 3.66816e-05 -0.000727543
0.00411195 -9.98322e-05 -7.52091e-05
-9.98322e-05 0.00247924 -1.0576e-05
-7.52091e-05 -1.0576e-05 0.00247668
0.00035092 -2.27329e-05 4.59311e-07
-2.27329e-05 -1.56144e-05 -1.95356e-07
4.59311e-07 -1.95356e-07 -8.82437e-05
0.00059715 0.000100581 -6.29037e-06
0.000100581 0.000213309 1.14173e-05
-6.29037e-06 1.14173e-05 -1.98896e-05
0.00343712 -7.98815e-05 -1.26941e-05
-7.98815e-05 0.0020215 1.1369e-06
-1.26941e-05 1.1369e-06 0.00202099
0.000434878 4.77252e-05 1.25763e-06
4.77252e-05 2.44391e-05 1.28464e-05
1.25763e-06 1.28464e-05 -3.15734e-05
0.00298755 -5.85963e-05 2.95845e-05
-5.85963e-05 0.00171283 7.91841e-06
2.95845e-05 7.91841e-06 0.00171646
-4.10097e-05 -0.00212343 -0.000769193
-0.00212343 0.00848686 0.000174794
-0.000769193 0.000174794 -0.00230364
0.00667855 0.00212428 0.000148153
0.00212428 0.00512905 7.73337e-06
0.000148153 7.73337e-06 0.00048206
0.000164129 0.00228959 0.000436176
0.00228959 0.00449886 0.000171635
0.000436176 0.000171635 -0.00115108
0.000309377 0.000426532 -4.12546e-06
0.000426532 9.45949e-05 3.57907e-06
-4.12546e-06 3.57907e-06 -0.000500016
0.00423309 0.00138726 -1.07932e-06
0.00138726 0.00233792 3.24058e-05
-1.07932e-06 3.24058e-05 0.00151582
-0.00107648 0.000283258 -2.89834e-05
0.000283258 -0.000437525 6.21485e-07
-2.89834e-05 6.21485e-07 -0.0012378
0.000424727 0.000299917 -9.30554e-06
0.000299917 0.000368555 -1.70191e-05
-9.30554e-06 -1.70191e-05 -0.000110391
0.00258133 0.000617826 -4.24937e-06
0.000617826 0.00117471 -1.69347e-06
-4.24937e-06 -1.69347e-06 0.00086669
-0.00448441 6.53415e-05 2.73072e-05
6.53415e-05 -0.00309707 4.24098e-05
2.73072e-05 4.24098e-05 -0.00314495
-0.00121324 0.000365867 -6.61286e-07
0.000365867 -0.000551663 4.37541e-06
-6.61286e-07 4.37541e-06 -0.00105008
0.000434206 0.00042396 -1.11925e-05
0.00042396 0.000150894 -3.89104e-07
-1.11925e-05 -3.89104e-07 -0.000349288
0.000781325 0.00119191 -4.57551e-05
0.00119191 0.000539475 -1.07387e-05
-4.57551e-05 -1.07387e-05 -0.000300848
-0.000635217 0.000990876 -6.09238e-05
0.000990876 -0.000606749 8.25687e-05
-6.09238e-05 8.25687e-05 -0.00109336
-0.000344251 0.000204469 -1.09836e-05
0.000204469 -2.5048e-05 3.1419e-05
-1.09836e-05 3.1419e-05 -0.000482634
0.00234096 0.00096699 3.15792e-05
0.00096699 0.00166189 1.8423e-06
3.15792e-05 1.8423e-06 0.000903521
0.0106083 -0.00901834 -0.00418868
-0.00901834 0.00763913 0.000536534
-0.00418868 0.000536534 -0.00388375
0.0113286 -0.0115366 0.00135095
-0.0115366 0.019652 -0.00017009
0.00135095 -0.00017009 0.0041599
0.0120155 0.00651795 -0.00156818
0.00651795 0.00401637 -0.000433056
-0.00156818 -0.000433056 -0.00361449
0.0411888 -0.0297253 0.00194506
-0.0297253 0.0300463 0.00178568
0.00194506 0.00178568 0.00839762
0.0344479 -0.00773973 -0.000424129
-0.00773973 0.0177375 0.00072822
-0.000424129 0.00072822 0.00575435
0.00133607 0.00298846 -0.000245164
0.00298846 0.00621716 -0.000293557
-0.000245164 -0.000293557 -0.00174148
0.000357189 -0.000594678 -0.000251551
-0.000594678 0.00511281 8.43221e-05
-0.000251551 8.43221e-05 0.00196075
-8.04759e-05 0.00206682 2.03141e-05
0.00206682 0.0030851 3.63498e-05
2.03141e-05 3.63498e-05 0.000880239
0.0366309 -0.0111121 -0.00120766
-0.0111121 0.01886 0.0004599
-0.00120766 0.0004599 0.00487686
-0.00105649 0.00872839 -0.000479894
0.00872839 0.00193112 -5.66061e-05
-0.000479894 -5.66061e-05 -0.0037932
0.00120397 0.00544481 -1.60853e-05
0.00544481 0.000897842 -0.000159313
-1.60853e-05 -0.000159313 0.000476529
0.00718158 0.0144369 -0.00137517
0.0144369 -0.00466626 -0.000187062
-0.00137517 -0.000187062 -0.00405413
0.00402173 0.00220911 3.53389e-05
0.00220911 0.0017583 3.58184e-05
3.53389e-05 3.58184e-05 0.00101572
0.00195448 0.00121749 -1.7974e-05
0.00121749 0.000864799 -5.90519e-06
-1.7974e-05 -5.90519e-06 0.00050809
-0.0003483 0.000433559 -6.71823e-05
0.000433559 0.00019619 -1.25357e-05
-6.71823e-05 -1.25357e-05 -0.000572811
4.93607e-05 0.00179472 -0.000162495
0.00179472 0.00190429 -9.36949e-05
-0.000162495 -9.36949e-05 -0.000149486
0.00127993 0.00117612 -8.34936e-05
0.00117612 0.000803796 -8.84827e-05
-8.34936e-05 -8.84827e-05 0.00019656
0.00286293 0.00354877 1.68651e-06
0.00354877 0.00130133 -1.88739e-05
1.68651e-06 -1.88739e-05 -0.000389725
0.000607532 0.00400155 0.000225566
0.00400155 -0.00136559 0.00014432
0.000225566 0.00014432 -0.00201355
-0.00769814 -0.000704154 -0.00192462
-0.000704154 0.00318139 7.46953e-07
-0.00192462 7.46953e-07 -0.00682544
-0.00947911 0.00107278 0.00128286
0.00107278 0.00718276 -5.32439e-05
0.00128286 -5.32439e-05 -0.00024393
0.000367483 0.000964022 -0.000298163
0.000964022 0.00282382 5.71553e-05
-0.000298163 5.71553e-05 -0.000435189
0.000835966 -0.00249299 -0.000115736
-0.00249299 0.00187954 -7.63689e-05
-0.000115736 -7.63689e-05 -0.000182278
0.00175348 -0.00637451 0.00016219
-0.00637451 0.00128182 7.70844e-05
0.00016219 7.70844e-05 5.34202e-05
0.00547422 0.00528528 0.00126597
0.00528528 0.0159621 0.000367488
0.00126597 0.000367488 0.00436709
0.00571549 -0.0115268 0.00146851
-0.0115268 -0.00578969 -0.000292506
0.00146851 -0.000292506 -0.00357935
0.0223001 0.00961889 0.00273976
0.00961889 0.0166786 0.000396504
0.00273976 0.000396504 0.00564651
0.00378657 -0.00466123 -1.70141e-05
-0.00466123 0.00153358 -1.07825e-05
-1.70141e-05 -1.07825e-05 7.55806e-05
0.00925689 0.00752391 0.000594753
0.00752391 0.00764673 -0.000200821
0.000594753 -0.000200821 -0.00287434
0.00878284 -0.00766977 -0.0004684
-0.00766977 -0.00878277 0.000237659
-0.0004684 0.000237659 -0.00554701
0.00335705 -0.00639291 -9.21047e-05
-0.00639291 -0.00167261 9.2343e-05
-9.21047e-05 9.2343e-05 0.000557257
0.00369486 -0.00358389 6.50679e-05
-0.00358389 -8.10045e-05 -3.87013e-05
6.50679e-05 -3.87013e-05 0.000155149
0.0169122 -0.00179928 -0.000117797
-0.00179928 -0.00207952 0.000164041
-0.000117797 0.000164041 -0.000121013
0.00380633 -0.00454677 0.000143832
-0.00454677 -0.00532244 -0.000206267
0.000143832 -0.000206267 -0.000840934
0.00388491 -0.00257208 -0.000101222
-0.00257208 0.00172213 5.59281e-05
-0.000101222 5.59281e-05 0.000728443
0.000675205 -0.00154773 -1.43524e-05
-0.00154773 -0.000622147 2.44437e-06
-1.43524e-05 2.44437e-06 -0.00102916
0.00609565 -0.00199694 5.24843e-05
-0.00199694 0.00193349 -2.77138e-05
5.24843e-05 -2.77138e-05 0.0015418
-0.000100344 -0.00145636 -4.38184e-06
-0.00145636 -0.000852317 2.75914e-06
-4.38184e-06 2.75914e-06 -0.00148053
0.00311945 -0.00179162 1.97756e-06
-0.00179162 0.0005597 -6.95174e-07
1.97756e-06 -6.95174e-07 -1.66569e-05
0.00355848 -0.00142804 -1.14203e-06
-0.00142804 0.000465718 -1.6647e-06
-1.14203e-06 -1.6647e-06 0.000304721
0.00303618 -0.00184824 1.13432e-05
-0.00184824 0.000670653 1.19005e-05
1.13432e-05 1.19005e-05 -0.000191056
0.00307852 -0.00140872 -4.06592e-06
-0.00140872 0.000374767 2.53664e-06
-4.06592e-06 2.53664e-06 -1.9856e-05
0.00278653 -0.000956014 -5.79775e-07
-0.000956014 -2.36783e-05 3.89437e-07
-5.79775e-07 3.89437e-07 -4.69352e-06
0.00227633 -0.00118997 7.39913e-06
-0.00118997 0.000118101 7.18172e-06
7.39913e-06 7.18172e-06 -0.000385705
0.0025447 -0.000867444 -9.66469e-08
-0.000867444 6.00738e-06 2.78266e-06
-9.66469e-08 2.78266e-06 -0.000131453
0.00269266 -0.000918242 -2.07157e-06
-0.000918242 6.56301e-05 5.96294e-07
-2.07157e-06 5.96294e-07 -5.28131e-06
0.00264526 -0.000884531 -4.32317e-06
-0.000884531 0.000132118 -1.21261e-07
-4.32317e-06 -1.21261e-07 -3.75871e-06
0.00256414 -0.00086399 -3.68844e-06
-0.00086399 0.000144138 1.68752e-06
-3.68844e-06 1.68752e-06 5.54643e-06
0.00255249 -0.000828106 -8.76421e-07
-0.000828106 0.000237527 -1.1598e-06
-8.76421e-07 -1.1598e-06 4.4891e-05
0.00254932 -0.000828927 -6.32321e-06
-0.000828927 0.000298312 -9.29072e-07
-6.32321e-06 -9.29072e-07 -2.68042e-06
0.00252851 -0.000793963 1.53255e-06
-0.000793963 0.000228479 1.2399e-06
1.53255e-06 1.2399e-06 -3.32665e-05
0.00230618 -0.000774183 3.63411e-06
-0.000774183 -3.84256e-05 5.41184e-06
3.63411e-06 5.41184e-06 -0.000243692
0.00237207 -0.000985347 -7.11048e-06
-0.000985347 0.000282946 -6.73731e-06
-7.11048e-06 -6.73731e-06 -0.000197108
0.00225354 -0.00100698 -5.40568e-07
-0.00100698 0.000143239 -4.68713e-08
-5.40568e-07 -4.68713e-08 -0.000345817
0.00275452 -0.00115045 8.14906e-06
-0.00115045 0.000466484 4.46562e-06
8.14906e-06 4.46562e-06 -7.85562e-05
0.00195364 -0.00112666 -5.52866e-06
-0.00112666 0.000240389 -7.05982e-06
-5.52866e-06 -7.05982e-06 -0.000423087
0.00288082 -0.00133481 -1.78114e-06
-0.00133481 0.000789121 8.86351e-07
-1.78114e-06 8.86351e-07 7.29182e-05
0.00274495 -0.00142066 4.29314e-06
-0.00142066 0.00071522 3.17064e-06
4.29314e-06 3.17064e-06 -4.61793e-05
0.000597589 -0.00041851 -1.00489e-05
-0.00041851 -0.000266632 7.33768e-06
-1.00489e-05 7.33768e-06 -0.000656846
0.00211232 -0.00104616 -2.6459e-06
-0.00104616 0.000621519 2.90395e-06
-2.6459e-06 2.90395e-06 -8.01906e-05
0.00279251 -0.00143809 1.04108e-05
-0.00143809 0.00104394 9.1088e-06
1.04108e-05 9.1088e-06 0.000180782
-6.72695e-05 -0.000224231 -1.94111e-05
-0.000224231 -0.000417028 2.78548e-05
-1.94111e-05 2.78548e-05 -0.000621002
0.00144893 -0.000547464 -1.16167e-05
-0.000547464 0.000475254 -1.35645e-06
-1.16167e-05 -1.35645e-06 0.000126096
-0.0008938 -0.000857573 -4.81467e-06
-0.000857573 -0.000901084 2.44383e-07
-4.81467e-06 2.44383e-07 -0.00154903
0.00766706 0.000183378 -0.000226802
0.000183378 0.00483507 1.97205e-05
-0.000226802 1.97205e-05 0.00481525
0.000733206 -0.000248399 -7.46304e-06
-0.000248399 6.81118e-05 -1.48942e-06
-7.46304e-06 -1.48942e-06 -8.17755e-05
0.000124061 -0.000548868 1.75939e-05
-0.000548868 -0.000133167 1.03857e-06
1.75939e-05 1.03857e-06 -0.000551665
0.00435645 0.000147065 0.000109842
0.000147065 0.0026578 -4.42002e-06
0.000109842 -4.42002e-06 0.00260466
0.000613748 -0.000231639 3.04841e-05
-0.000231639 2.40083e-05 -1.87391e-05
3.04841e-05 -1.87391e-05 -0.000122122
0.00642791 0.000106931 0.000210078
0.000106931 0.00401459 -1.84292e-05
0.000210078 -1.84292e-05 0.00400937
0.0010527 0.000720015 -2.70376e-05
0.000720015 0.00019502 1.8797e-05
-2.70376e-05 1.8797e-05 -0.000414479
0.00110828 0.000469223 -9.42875e-06
0.000469223 0.000415791 1.33482e-06
-9.42875e-06 1.33482e-06 -3.67156e-05
-0.000397501 0.000251368 1.70219e-05
0.000251368 -0.000573556 2.39707e-05
1.70219e-05 2.39707e-05 -0.000928099
0.00185205 0.000442886 -1.06818e-06
0.000442886 0.000878857 -9.21072e-06
-1.06818e-06 -9.21072e-06 0.000506481
0.00191636 0.000367992 3.30561e-06
0.000367992 0.0010817 -1.14892e-06
3.30561e-06 -1.14892e-06 0.000658679
0.00161963 0.00033669 2.48295e-06
0.00033669 0.000869422 -1.41609e-05
2.48295e-06 -1.41609e-05 0.000508828
0.00104677 0.000172283 -2.21038e-05
0.000172283 0.000408998 -2.57776e-05
-2.21038e-05 -2.57776e-05 0.000290294
0.000852085 0.000251148 -1.23967e-06
0.000251148 0.000394798 9.07645e-07
-1.23967e-06 9.07645e-07 7.99272e-05
-0.0011592 7.35949e-05 -2.03532e-05
7.35949e-05 -0.000766593 3.31107e-05
-2.03532e-05 3.31107e-05 -0.00127199
0.00373228 -8.88981e-05 -9.88426e-05
-8.88981e-05 0.00222853 -1.49949e-05
-9.88426e-05 -1.49949e-05 0.00222939
0.000388908 9.67667e-05 1.27175e-06
9.67667e-05 1.46794e-05 -6.04854e-07
1.27175e-06 -6.04854e-07 -7.71798e-05
0.000783019 0.000213054 -3.91398e-06
0.000213054 0.00033293 1.72667e-05
-3.91398e-06 1.72667e-05 7.34969e-05
0.00352019 -9.19436e-05 -1.09832e-05
-9.19436e-05 0.00208514 9.17975e-07
-1.09832e-05 9.17975e-07 0.00208256
0.000170297 -1.78212e-07 2.47707e-06
-1.78212e-07 -0.00013023 1.51191e-05
2.47707e-06 1.51191e-05 -0.000201765
0.00319953 -8.23023e-05 3.75388e-05
-8.23023e-05 0.00186265 9.02643e-06
3.75388e-05 9.02643e-06 0.00186134
0.00347882 -0.00409319 -0.00299951
-0.00409319 0.00564936 0.000191209
-0.00299951 0.000191209 0.000699279
0.00119002 -0.00372841 -0.000291535
-0.00372841 0.0105721 -9.00998e-05
-0.000291535 -9.00998e-05 -0.00111764
0.00708228 0.00171671 -0.00079394
0.00171671 0.0044642 -0.000203559
-0.00079394 -0.000203559 8.96808e-05
0.000871611 0.000337281 5.55943e-06
0.000337281 0.000410844 1.09174e-05
5.55943e-06 1.09174e-05 -0.000133399
0.00099214 0.000384673 1.52452e-05
0.000384673 0.00073553 -5.68204e-07
1.52452e-05 -5.68204e-07 -3.59031e-06
0.00190382 0.00106674 -3.41864e-06
0.00106674 0.000889978 -1.74041e-06
-3.41864e-06 -1.74041e-06 9.6068e-05
0.00252147 0.00144146 5.48162e-06
0.00144146 0.00101315 2.33268e-05
5.48162e-06 2.33268e-05 0.000180456
0.00162983 0.00122539 -4.57058e-05
0.00122539 0.00101759 1.83867e-05
-4.57058e-05 1.83867e-05 6.33556e-05
0.00533463 0.000849776 1.03318e-05
0.000849776 0.00334918 8.48087e-06
1.03318e-05 8.48087e-06 0.00294835
0.00207228 0.000647477 3.2282e-05
0.000647477 0.00129372 2.33301e-05
3.2282e-05 2.33301e-05 0.00071935
0.00290188 0.0012464 -5.9968e-06
0.0012464 0.00174801 2.03152e-07
-5.9968e-06 2.03152e-07 0.00095035
0.00270785 0.00169223 -2.99171e-05
0.00169223 0.00109255 2.5713e-06
-2.99171e-05 2.5713e-06 0.000278741
0.00224639 0.00156257 -2.85056e-05
0.00156257 0.000762125 5.89378e-05
-2.85056e-05 5.89378e-05 0.00025346
0.00201508 0.00212441 4.68556e-05
0.00212441 9.52025e-05 -1.83408e-05
4.68556e-05 -1.83408e-05 -0.000495156
0.00123986 0.00130383 2.09132e-05
0.00130383 0.00045248 1.02044e-05
2.09132e-05 1.02044e-05 -0.000123727
0.00333241 0.00116226 -1.86653e-05
0.00116226 0.002265 -6.45783e-06
-1.86653e-05 -6.45783e-06 0.00136175
0.0188567 0.00812032 -0.000231302
0.00812032 -0.00183477 0.000107399
-0.000231302 0.000107399 0.00111064
0.017686 -0.00642337 -0.00106612
-0.00642337 0.00999916 -0.000179826
-0.00106612 -0.000179826 0.00151538
0.0110439 -0.011529 0.00218227
-0.011529 0.0212111 -3.56351e-05
0.00218227 -3.56351e-05 0.00671428
0.0281721 -0.0074147 0.000644328
-0.0074147 0.0134854 0.000169958
0.000644328 0.000169958 0.00147166
0.00815707 0.0102515 -0.000349236
0.0102515 0.00481082 -0.000151579
-0.000349236 -0.000151579 -0.00036286
0.000517068 0.00229251 6.32592e-05
0.00229251 0.00356168 6.36715e-05
6.32592e-05 6.36715e-05 0.00122053
0.00154666 0.00519973 -0.000185235
0.00519973 0.00108807 -0.000114178
-0.000185235 -0.000114178 0.00104336
0.0103455 0.011829 0.000123961
0.011829 -0.0011891 0.000131712
0.000123961 0.000131712 -0.00175055
0.00843034 0.00843198 -0.000216687
0.00843198 -0.00098202 -0.000172372
-0.000216687 -0.000172372 0.000282757
0.00179401 0.00223955 6.73971e-06
0.00223955 0.000122274 -3.11814e-05
6.73971e-06 -3.11814e-05 -0.000426115
0.00250483 0.00190753 1.94501e-05
0.00190753 0.000941427 5.96849e-06
1.94501e-05 5.96849e-06 0.000290127
0.00174234 0.00112498 -5.96773e-06
0.00112498 0.000780056 -5.394e-05
-5.96773e-06 -5.394e-05 0.000435485
0.00228821 0.00357745 -0.000108717
0.00357745 0.000755615 -6.87851e-05
-0.000108717 -6.87851e-05 -0.000878492
0.0054084 0.00461792 0.000125843
0.00461792 0.000966136 3.84815e-05
0.000125843 3.84815e-05 -0.000184361
0.00766405 -0.000200558 -3.57712e-05
-0.000200558 -0.00688327 1.5644e-06
-3.57712e-05 1.5644e-06 -0.00777834
0.0012849 -0.00299545 -5.32818e-05
-0.00299545 0.00776761 8.07825e-05
-5.32818e-05 8.07825e-05 0.000880898
-0.0126225 7.68922e-05 0.00184113
7.68922e-05 0.00832886 4.74207e-05
0.00184113 4.74207e-05 0.00293703
0.00347228 -0.00550411 -0.000206625
-0.00550411 0.00086618 0.000130416
-0.000206625 0.000130416 -0.000931675
0.00689728 -0.00803775 -4.5236e-05
-0.00803775 -0.00103437 0.000146708
-4.5236e-05 0.000146708 0.000750423
0.0108298 0.00374901 0.00287856
0.00374901 0.00845021 -0.000290141
0.00287856 -0.000290141 0.0029843
0.0121761 -0.00686001 -0.000496952
-0.00686001 -0.00600366 0.000379801
-0.000496952 0.000379801 -0.00186802
0.00313552 -0.00361914 -4.49444e-05
-0.00361914 -0.000509254 1.64712e-05
-4.49444e-05 1.64712e-05 -0.00040606
0.0133949 -0.00154221 -0.000471218
-0.00154221 -0.00507705 0.000171319
-0.000471218 0.000171319 -0.00352015
0.0078239 -0.00532067 0.00012121
-0.00532067 -0.00271437 -1.15673e-05
0.00012121 -1.15673e-05 0.000618123
0.00394104 -0.00278213 7.35254e-05
-0.00278213 -0.00124579 -8.54029e-05
7.35254e-05 -8.54029e-05 -0.000137808
0.00431144 -0.00219816 0.000169639
-0.00219816 -0.00448202 -5.63938e-05
0.000169639 -5.63938e-05 6.48296e-07
-3.82617e-05 -0.00148393 5.10303e-06
-0.00148393 -0.00110155 2.12314e-05
5.10303e-06 2.12314e-05 -0.00136356
0.00244672 -0.00154793 -3.55337e-05
-0.00154793 -0.000248314 1.16988e-05
-3.55337e-05 1.16988e-05 -0.000209178
0.00475455 -0.00140839 5.34325e-05
-0.00140839 0.000926249 -2.77953e-05
5.34325e-05 -2.77953e-05 0.00108752
0.00154368 -0.00155843 -3.8097e-06
-0.00155843 -0.0002518 1.06951e-05
-3.8097e-06 1.06951e-05 -0.000734524
0.00313924 -0.00140767 -5.77389e-06
-0.00140767 0.000216707 1.96348e-06
-5.77389e-06 1.96348e-06 6.16999e-05
0.00313432 -0.00103775 3.6534e-06
-0.00103775 -3.61017e-06 -1.37574e-06
3.6534e-06 -1.37574e-06 0.000122559
0.00303694 -0.00138641 -1.2725e-05
-0.00138641 0.000353831 9.49717e-06
-1.2725e-05 9.49717e-06 -2.26178e-05
0.00271209 -0.000948492 -2.95138e-07
-0.000948492 -6.80594e-05 1.25613e-06
-2.95138e-07 1.25613e-06 -5.02785e-05
0.00284477 -0.000906727 -1.42138e-06
-0.000906727 -6.99453e-06 -2.87291e-07
-1.42138e-06 -2.87291e-07 3.95602e-05
0.0024768 -0.00085192 2.8239e-06
-0.00085192 -3.86587e-05 4.37089e-06
2.8239e-06 4.37089e-06 -0.000163583
0.00268406 -0.000909223 -2.36426e-07
-0.000909223 7.43019e-05 5.86028e-07
-2.36426e-07 5.86028e-07 3.15978e-06
0.00275865 -0.000875518 -2.26566e-06
-0.000875518 5.55973e-05 -1.64537e-07
-2.26566e-06 -1.64537e-07 5.59276e-06
0.00260042 -0.000883066 -5.03836e-06
-0.000883066 0.000100426 4.8365e-07
-5.03836e-06 4.8365e-07 -2.61872e-05
0.00255933 -0.000829297 -1.16737e-06
-0.000829297 0.000123214 -7.21047e-07
-1.16737e-06 -7.21047e-07 -1.4232e-05
0.00250674 -0.000862878 2.90277e-07
-0.000862878 9.90041e-05 3.13397e-06
2.90277e-07 3.13397e-06 -3.20788e-05
0.00255388 -0.000828144 8.96392e-07
-0.000828144 0.000235593 -5.65758e-07
8.96392e-07 -5.65758e-07 4.93349e-05
0.00252668 -0.000813703 -2.49213e-06
-0.000813703 0.000293455 4.28791e-07
-2.49213e-06 4.28791e-07 5.33512e-05
0.00253501 -0.000850805 -1.02062e-06
-0.000850805 0.000365136 -4.47685e-06
-1.02062e-06 -4.47685e-06 1.66853e-05
0.0026648 -0.000834496 -2.68204e-07
-0.000834496 0.000379886 -8.75208e-08
-2.68204e-07 -8.75208e-08 7.12243e-05
0.00273016 -0.000797995 7.90005e-06
-0.000797995 0.000381821 1.94585e-06
7.90005e-06 1.94585e-06 0.000115393
0.00238402 -0.00100285 -1.74648e-06
-0.00100285 0.000402767 -3.76858e-06
-1.74648e-06 -3.76858e-06 -0.000137309
0.00241919 -0.00100914 -3.71431e-06
-0.00100914 0.000297618 -7.95721e-07
-3.71431e-06 -7.95721e-07 -0.000194323
0.00221365 -0.00101811 6.00236e-06
-0.00101811 0.000104617 3.43602e-06
6.00236e-06 3.43602e-06 -0.00038898
0.00155764 -0.000678278 -1.51626e-05
-0.000678278 0.000279491 4.42529e-06
-1.51626e-05 4.42529e-06 -0.000222668
0.00245152 -0.00118054 -1.76195e-06
-0.00118054 0.000593387 -2.35213e-07
-1.76195e-06 -2.35213e-07 -8.51668e-05
0.00306506 -0.00137184 8.56209e-06
-0.00137184 0.000871832 6.35608e-06
8.56209e-06 6.35608e-06 0.000143973
0.000199129 -0.00027982 -1.67523e-05
-0.00027982 -0.000287823 2.90892e-05
-1.67523e-05 2.90892e-05 -0.000518378
0.000863083 -0.000463403 4.93009e-06
-0.000463403 -5.73395e-05 -4.66762e-07
4.93009e-06 -4.66762e-07 -0.00047316
0.00270157 -0.00110934 3.74886e-06
-0.00110934 0.00100428 8.77906e-06
3.74886e-06 8.77906e-06 0.000296502
0.00789864 1.4671e-05 -0.000296238
1.4671e-05 0.00493642 2.7379e-05
-0.000296238 2.7379e-05 0.00494744
0.000401796 -0.000272039 -6.27982e-06
-0.000272039 -0.000137073 9.1065e-07
-6.27982e-06 9.1065e-07 -0.000339587
0.00145501 -0.000636461 5.10474e-06
-0.000636461 0.000583155 6.25504e-07
5.10474e-06 6.25504e-07 0.000161798
0.00727372 0.000114734 1.58496e-05
0.000114734 0.00456171 -4.3726e-06
1.58496e-05 -4.3726e-06 0.00455392
0.0014007 -0.000286886 2.9e-05
-0.000286886 0.000490873 -2.42705e-05
2.9e-05 -2.42705e-05 0.000337386
0.00691901 0.000178235 0.000190078
0.000178235 0.00435431 -2.4789e-05
0.000190078 -2.4789e-05 0.00433103
0.00365752 0.00143521 -1.11529e-05
0.00143521 0.00174096 1.96183e-05
-1.11529e-05 1.96183e-05 0.000907818
0.00225493 0.000933864 -1.62192e-06
0.000933864 0.00103116 1.68718e-06
-1.62192e-06 1.68718e-06 0.000350893
-0.00117112 0.000440614 -5.05976e-06
0.000440614 -0.00103206 1.85196e-05
-5.05976e-06 1.85196e-05 -0.00156716
0.000519167 0.000342553 2.09827e-06
0.000342553 8.2921e-05 -9.89435e-06
2.09827e-06 -9.89435e-06 -0.000355232
-0.000266062 0.000456675 2.25829e-06
0.000456675 -0.000472169 -8.13589e-06
2.25829e-06 -8.13589e-06 -0.000839794
-0.000992137 0.000610524 -3.4189e-06
0.000610524 -0.000947583 -4.23468e-06
-3.4189e-06 -4.23468e-06 -0.0013192
0.000224409 0.0001607 -1.82932e-05
0.0001607 5.31943e-07 -7.11243e-06
-1.82932e-05 -7.11243e-06 -0.000439047
0.000607701 0.000464616 2.74287e-06
0.000464616 0.00019882 6.83907e-07
2.74287e-06 6.83907e-07 -0.000172308
0.00126425 0.000272369 -3.60133e-05
0.000272369 0.000463782 -2.85326e-05
-3.60133e-05 -2.85326e-05 0.000326437
0.00519174 -0.000136713 -0.000140439
-0.000136713 0.00322683 -2.4854e-05
-0.000140439 -2.4854e-05 0.00321338
0.000445609 0.000118124 5.1365e-06
0.000118124 3.85301e-05 -5.08884e-07
5.1365e-06 -5.08884e-07 -8.57965e-05
-0.000174474 0.000133292 -6.1105e-06
0.000133292 -0.000227928 2.30021e-05
-6.1105e-06 2.30021e-05 -0.000572354
0.00435617 -0.000139447 -1.62594e-05
-0.000139447 0.00265916 2.04691e-06
-1.62594e-05 2.04691e-06 0.00264614
1.88965e-05 -6.4772e-05 -1.39008e-05
-6.4772e-05 -0.000199084 1.92245e-05
-1.39008e-05 1.92245e-05 -0.000304028
0.00362414 -0.000108575 5.06233e-05
-0.000108575 0.00215814 1.07667e-05
5.06233e-05 1.07667e-05 0.00215094
0.0162291 0.00118686 0.000913538
0.00118686 -0.0020875 0.00016886
0.000913538 0.00016886 0.00113415
0.00631671 -0.00956475 -0.00167035
-0.00956475 0.00428258 8.39929e-05
-0.00167035 8.39929e-05 -0.0066445
-0.00140732 -0.0011802 -0.000344563
-0.0011802 0.00983 -6.2518e-05
-0.000344563 -6.2518e-05 -0.000126895
0.000319113 0.000194134 6.48334e-06
0.000194134 0.00028331 -1.58141e-05
6.48334e-06 -1.58141e-05 -0.000455972
0.00147596 0.00103573 2.77951e-05
0.00103573 0.000646129 -2.46586e-05
2.77951e-05 -2.46586e-05 -0.00016956
0.00247889 0.00125388 -9.28243e-06
0.00125388 0.00136625 -1.0525e-05
-9.28243e-06 -1.0525e-05 0.000508191
0.00214796 0.00141057 -4.32416e-06
0.00141057 0.000799711 -5.83993e-07
-4.32416e-06 -5.83993e-07 -4.02804e-05
0.00217908 0.00131708 2.46222e-05
0.00131708 0.000543034 2.95901e-05
2.46222e-05 2.95901e-05 -0.000163769
0.00176662 0.00159547 -1.77546e-05
0.00159547 0.000475612 1.73802e-05
-1.77546e-05 1.73802e-05 -0.000299922
0.00269877 0.00115353 -6.2819e-06
0.00115353 0.00149725 -1.48936e-05
-6.2819e-06 -1.48936e-05 0.000717518
0.00236214 0.00166605 2.6863e-06
0.00166605 0.000848987 3.26077e-06
2.6863e-06 3.26077e-06 4.99823e-05
0.00314965 0.00159189 3.70301e-05
0.00159189 0.00145598 1.0268e-05
3.70301e-05 1.0268e-05 0.000746628
0.00353897 0.00165902 4.31988e-06
0.00165902 0.00142754 1.06709e-05
4.31988e-06 1.06709e-05 0.000653884
0.00122363 0.00156942 -8.42415e-07
0.00156942 -7.7615e-05 6.13475e-06
-8.42415e-07 6.13475e-06 -0.000626777
0.00463422 0.00234153 1.80751e-05
0.00234153 0.0015458 2.76172e-05
1.80751e-05 2.76172e-05 0.000707631
0.00312306 0.00218703 1.68203e-05
0.00218703 0.000803312 4.68979e-06
1.68203e-05 4.68979e-06 0.000153385
0.00268027 0.00138192 -4.34005e-05
0.00138192 0.0012386 -0.000119278
-4.34005e-05 -0.000119278 0.000619437
0.00565354 0.00433132 3.76743e-05
0.00433132 -0.00504727 9.27072e-05
3.76743e-05 9.27072e-05 0.000132522
0.013327 0.00928474 0.000685501
0.00928474 -0.0059445 0.000305531
0.000685501 0.000305531 -0.00276248
0.0222007 -0.0107327 0.00179167
-0.0107327 0.0133349 -0.000636436
0.00179167 -0.000636436 0.00146355
0.00332243 0.014241 0.00165716
0.014241 -0.00426119 0.000535766
0.00165716 0.000535766 -0.0049694
-0.000614462 0.00408428 -9.58082e-06
0.00408428 0.000638025 4.54758e-05
-9.58082e-06 4.54758e-05 0.000400933
0.00356806 0.00511822 -0.000146292
0.00511822 -0.00181023 -0.000129467
-0.000146292 -0.000129467 0.000275867
0.00769211 0.00424166 5.37036e-05
0.00424166 0.000850326 2.47668e-05
5.37036e-05 2.47668e-05 0.000707242
0.00592561 0.00311708 2.04684e-05
0.00311708 0.00198751 8.25953e-06
2.04684e-05 8.25953e-06 0.00118519
0.00140863 0.00166619 -1.78943e-05
0.00166619 0.000363078 -3.56991e-05
-1.78943e-05 -3.56991e-05 -0.000220507
0.00890663 0.00501071 -0.000170279
0.00501071 0.00251512 9.8373e-05
-0.000170279 9.8373e-05 0.00111687
0.00635689 -0.00103428 0.000236963
-0.00103428 -0.00408792 8.04756e-05
0.000236963 8.04756e-05 0.000414203
0.0165351 -0.000361833 3.47146e-05
-0.000361833 -0.00214716 -5.76726e-05
3.47146e-05 -5.76726e-05 0.000491917
-0.00721435 -0.00524173 0.00228426
-0.00524173 0.0031035 -0.000168995
0.00228426 -0.000168995 -0.00718124
0.00337519 -0.00357841 -0.000166763
-0.00357841 -0.000369995 9.41767e-05
-0.000166763 9.41767e-05 -0.000195681
0.00774558 -0.00554213 -0.000178762
-0.00554213 -0.00312671 0.000214697
-0.000178762 0.000214697 0.000658116
0.00278549 -0.0010635 -0.000586856
-0.0010635 -0.0126861 4.75684e-05
-0.000586856 4.75684e-05 -0.00936111
0.00408909 -0.00265597 5.2575e-05
-0.00265597 -0.00110477 -5.47717e-07
5.2575e-05 -5.47717e-07 0.000151748
0.00524263 -0.00220341 -0.000116865
-0.00220341 -0.00362675 2.51574e-05
-0.000116865 2.51574e-05 -4.64949e-05
0.00607954 -0.00183904 7.11112e-05
-0.00183904 0.000262095 -7.22116e-05
7.11112e-05 -7.22116e-05 0.00135257
0.0097123 -0.00148816 0.000207712
-0.00148816 0.0015815 7.0382e-06
0.000207712 7.0382e-06 0.00328151
-0.00170165 -0.00111071 4.64941e-05
-0.00111071 -0.00286686 1.27534e-05
4.64941e-05 1.27534e-05 -0.00227864
0.00275072 -0.0012147 -1.74513e-05
-0.0012147 -0.000349018 2.59457e-06
-1.74513e-05 2.59457e-06 8.38984e-05
0.00297945 -0.00084426 3.35934e-05
-0.00084426 -0.000317043 -1.81593e-05
3.35934e-05 -1.81593e-05 0.000151669
0.00265963 -0.00138417 -3.62176e-06
-0.00138417 -6.85625e-05 4.00289e-06
-3.62176e-06 4.00289e-06 -0.000215934
0.00309262 -0.00103614 3.50841e-07
-0.00103614 -2.17055e-05 9.44276e-07
3.50841e-07 9.44276e-07 0.000105866
0.00296521 -0.000843859 -1.27364e-06
-0.000843859 -0.000104473 -1.11677e-06
-1.27364e-06 -1.11677e-06 2.25425e-06
0.00264416 -0.000943784 7.35815e-07
-0.000943784 -0.00011333 2.4812e-06
7.35815e-07 2.4812e-06 -9.60517e-05
0.00281509 -0.000904812 -7.19629e-08
-0.000904812 -1.58496e-05 1.84213e-07
-7.19629e-08 1.84213e-07 2.13338e-05
0.00273227 -0.000752528 -2.08972e-06
-0.000752528 -5.83743e-05 -5.32244e-07
-2.08972e-06 -5.32244e-07 -2.91828e-05
0.0026803 -0.000902743 1.60879e-06
-0.000902743 8.17385e-05 8.67716e-07
1.60879e-06 8.67716e-07 1.0546e-05
0.00275559 -0.000876262 -2.1129e-07
-0.000876262 7.95547e-05 -2.10463e-07
-2.1129e-07 -2.10463e-07 2.14666e-05
0.00267404 -0.000753551 1.0157e-06
-0.000753551 9.71787e-05 -8.44789e-07
1.0157e-06 -8.44789e-07 3.63673e-05
0.00255189 -0.000881609 -1.72177e-06
-0.000881609 6.43665e-05 1.03402e-06
-1.72177e-06 1.03402e-06 -5.21997e-05
0.00253606 -0.000834381 -1.43364e-06
-0.000834381 9.93232e-05 2.48063e-07
-1.43364e-06 2.48063e-07 -3.43797e-05
0.00249458 -0.000769501 -1.5792e-06
-0.000769501 0.000175736 2.39907e-07
-1.5792e-06 2.39907e-07 1.9887e-06
0.00254809 -0.00082624 3.24412e-06
-0.00082624 0.000228859 5.62694e-07
3.24412e-06 5.62694e-07 4.98658e-05
0.00250846 -0.000804489 3.98178e-07
-0.000804489 0.000276759 -3.11553e-07
3.98178e-07 -3.11553e-07 4.22757e-05
0.0025916 -0.000811974 -1.11549e-06
-0.000811974 0.000379051 -3.92786e-08
-1.11549e-06 -3.92786e-08 8.8524e-05
0.00216887 -0.000805206 2.19332e-06
-0.000805206 0.000211411 -6.76547e-06
2.19332e-06 -6.76547e-06 -0.000184928
0.00252465 -0.000853605 -1.3821e-07
-0.000853605 0.000356151 -1.55452e-06
-1.3821e-07 -1.55452e-06 -4.10505e-06
0.00278567 -0.000841333 5.29625e-06
-0.000841333 0.00046575 7.69078e-07
5.29625e-06 7.69078e-07 0.000148557
0.00137899 -0.000672401 -1.90659e-05
-0.000672401 -1.30553e-05 8.82338e-07
-1.90659e-05 8.82338e-07 -0.000468362
0.002528 -0.00100587 -2.4456e-07
-0.00100587 0.000516212 4.27194e-07
-2.4456e-07 4.27194e-07 -2.20927e-05
0.00245374 -0.00103284 1.04517e-06
-0.00103284 0.000302078 4.42735e-06
1.04517e-06 4.42735e-06 -0.000202077
0.000213478 -0.000300518 -1.9546e-05
-0.000300518 -0.000309101 2.97714e-05
-1.9546e-05 2.97714e-05 -0.000544902
0.00110858 -0.0006332 4.48826e-06
-0.0006332 1.52562e-05 1.5328e-06
4.48826e-06 1.5328e-06 -0.00048325
0.0029087 -0.00122421 1.79694e-06
-0.00122421 0.000928227 6.09618e-06
1.79694e-06 6.09618e-06 0.000237818
0.00919294 -0.000102101 -0.000385785
-0.000102101 0.005744 4.08625e-05
-0.000385785 4.08625e-05 0.00576151
2.19807e-07 -0.000292193 2.95897e-06
-0.000292193 -0.000411352 9.52618e-07
2.95897e-06 9.52618e-07 -0.000646617
0.00098848 -0.000480694 5.39742e-06
-0.000480694 6.70236e-05 4.33905e-07
5.39742e-06 4.33905e-07 -0.000372034
0.00845016 -1.21028e-05 -2.45128e-05
-1.21028e-05 0.0053108 -1.09077e-06
-2.45128e-05 -1.09077e-06 0.00531416
0.000731617 -0.000272284 1.4163e-05
-0.000272284 6.27296e-05 -3.0526e-05
1.4163e-05 -3.0526e-05 -0.000142957
0.00737512 5.402e-05 0.000298254
5.402e-05 0.00464786 -4.40236e-05
0.000298254 -4.40236e-05 0.00464204
0.00240676 0.00121144 -1.0353e-05
0.00121144 0.000644942 2.04533e-05
-1.0353e-05 2.04533e-05 -4.3332e-05
0.00263755 0.00127793 2.07797e-06
0.00127793 0.00110121 4.0474e-07
2.07797e-06 4.0474e-07 0.000315356
0.00246771 0.00102611 1.32488e-06
0.00102611 0.000957532 1.92724e-05
1.32488e-06 1.92724e-05 0.000278948
0.00126151 0.00087083 2.66034e-05
0.00087083 0.00039844 -1.53381e-05
2.66034e-05 -1.53381e-05 -0.000280297
0.00112113 0.00056639 -1.2838e-06
0.00056639 0.000241242 -7.77665e-07
-1.2838e-06 -7.77665e-07 -0.000266982
0.000214548 0.00043691 -3.78954e-06
0.00043691 -0.000132529 -2.18393e-06
-3.78954e-06 -2.18393e-06 -0.000605886
0.00334144 0.000406288 -3.63543e-06
0.000406288 0.00181383 -1.61174e-05
-3.63543e-06 -1.61174e-05 0.00144084
0.00176135 0.000364423 6.88541e-06
0.000364423 0.000825076 -3.52906e-06
6.88541e-06 -3.52906e-06 0.000475535
0.000284903 0.000274669 -3.30457e-05
0.000274669 -0.00021017 -3.19243e-05
-3.30457e-05 -3.19243e-05 -0.000386292
0.00116885 0.000306622 -4.91371e-06
0.000306622 0.000571575 1.88141e-05
-4.91371e-06 1.88141e-05 0.000206828
0.000411975 0.00023966 -5.89588e-06
0.00023966 -4.7097e-05 -6.51921e-07
-5.89588e-06 -6.51921e-07 -0.000193756
0.00651779 -0.000147381 -0.000212726
-0.000147381 0.0041263 -3.6929e-05
-0.000212726 -3.6929e-05 0.00409985
0.00454506 -0.000158428 -2.31666e-05
-0.000158428 0.00280102 2.71978e-06
-2.31666e-05 2.71978e-06 0.00278011
-2.88923e-05 0.000198242 2.85298e-05
0.000198242 -0.000276613 2.54622e-05
2.85298e-05 2.54622e-05 -0.000386934
0.00373002 -0.000126263 6.55127e-05
-0.000126263 0.00224056 1.18796e-05
6.55127e-05 1.18796e-05 0.00222885
0.00168159 0.00127947 0.000202293
0.00127947 -0.00466009 5.8165e-05
0.000202293 5.8165e-05 -0.000465561
0.00341037 0.000670595 0.000318196
0.000670595 -0.0103639 0.000214141
0.000318196 0.000214141 -0.0095931
0.0214456 -0.0110269 -0.000407324
-0.0110269 0.0164374 -0.000192188
-0.000407324 -0.000192188 0.00328909
0.00225933 0.00108793 1.47665e-05
0.00108793 0.000321754 1.82096e-05
1.47665e-05 1.82096e-05 -0.000197605
0.00276242 0.00123676 2.27e-05
0.00123676 0.00139747 -1.74285e-05
2.27e-05 -1.74285e-05 0.000589706
0.00166584 0.00137327 5.31336e-06
0.00137327 0.00050015 -2.57275e-05
5.31336e-06 -2.57275e-05 -0.000344333
0.00249162 0.00167306 3.69241e-06
0.00167306 0.000904665 1.89126e-06
3.69241e-06 1.89126e-06 9.96985e-05
0.00253273 0.00137546 1.1676e-06
0.00137546 0.000761032 3.24097e-06
1.1676e-06 3.24097e-06 3.36941e-05
0.00282693 0.0015046 7.29379e-06
0.0015046 0.000830368 1.64101e-05
7.29379e-06 1.64101e-05 0.000120112
0.00157964 0.00154415 1.0258e-05
0.00154415 0.000369638 -2.18525e-06
1.0258e-05 -2.18525e-06 -0.000399525
0.00146609 0.00129734 2.45006e-05
0.00129734 0.000529124 -5.89462e-05
2.45006e-05 -5.89462e-05 -0.00011359
0.0025782 0.00164435 8.76814e-07
0.00164435 0.000771321 -1.30669e-06
8.76814e-07 -1.30669e-06 4.31057e-05
0.000325671 0.00150588 1.12416e-05
0.00150588 -0.000660091 -3.20296e-05
1.12416e-05 -3.20296e-05 -0.00108662
0.00289928 0.00151658 1.22884e-05
0.00151658 0.000797267 7.7614e-07
1.22884e-05 7.7614e-07 5.58784e-05
0.00376763 0.00150074 7.0201e-05
0.00150074 0.000967958 9.48694e-05
7.0201e-05 9.48694e-05 0.000758396
0.00165929 0.0017607 -1.62266e-05
0.0017607 4.00694e-05 -2.1083e-05
-1.62266e-05 -2.1083e-05 -0.000556697
0.00233706 0.00195075 -3.02806e-05
0.00195075 0.000446047 -1.17035e-05
-3.02806e-05 -1.17035e-05 -8.97127e-05
0.00260071 0.00199013 2.2052e-05
0.00199013 -0.00258941 7.28104e-05
2.2052e-05 7.28104e-05 -0.000537351
0.00651912 0.00471589 -0.000190729
0.00471589 -0.00453409 -9.17708e-05
-0.000190729 -9.17708e-05 0.000679645
0.00338028 0.0069077 0.00128376
0.0069077 -0.0129163 0.000362187
0.00128376 0.000362187 -0.0094786
0.00226051 0.00483045 -0.000289598
0.00483045 -0.00152129 -0.000152877
-0.000289598 -0.000152877 0.000140777
0.00583995 0.00344082 -2.61666e-05
0.00344082 0.000348907 -1.72201e-05
-2.61666e-05 -1.72201e-05 0.000551408
0.00906753 0.00377673 -0.000256502
0.00377673 0.0033218 -8.42109e-05
-0.000256502 -8.42109e-05 0.00237367
0.00552776 3.93187e-05 -3.92526e-05
3.93187e-05 -0.00134079 -2.79736e-05
-3.92526e-05 -2.79736e-05 0.000323699
0.0026264 -0.000351941 9.50419e-05
-0.000351941 -0.00368018 3.12717e-05
9.50419e-05 3.12717e-05 -0.000191464
0.0101057 -0.000265226 0.000172194
-0.000265226 -0.00677501 -3.4176e-05
0.000172194 -3.4176e-05 -0.00708466
0.00336817 -0.00245174 -8.90939e-05
-0.00245174 -0.00136182 0.000144265
-8.90939e-05 0.000144265 -8.87947e-05
0.00463793 -0.00221305 -0.000261544
-0.00221305 -0.00452726 0.000113864
-0.000261544 0.000113864 -0.00117834
0.0040248 -0.00160038 -7.4188e-06
-0.00160038 -0.000870693 1.24972e-05
-7.4188e-06 1.24972e-05 0.000352307
0.00521142 -0.00115836 -8.59499e-05
-0.00115836 -0.000750897 1.2264e-06
-8.59499e-05 1.2264e-06 0.000786403
0.00422662 -0.000752152 0.000130996
-0.000752152 0.000286694 -3.39281e-05
0.000130996 -3.39281e-05 0.000815801
0.00337785 -0.000165453 7.62396e-05
-0.000165453 -0.000178818 -6.3524e-06
7.62396e-05 -6.3524e-06 0.000355307
0.00116657 -0.00101659 -1.9711e-05
-0.00101659 -0.00125997 1.89749e-05
-1.9711e-05 1.89749e-05 -0.000634693
0.00292373 -0.000871822 -5.91189e-06
-0.000871822 -0.000318876 1.42705e-06
-5.91189e-06 1.42705e-06 9.02359e-05
0.00294503 -0.000620595 4.55951e-06
-0.000620595 -0.000270302 -3.8148e-06
4.55951e-06 -3.8148e-06 5.79586e-05
0.00304122 -0.00103171 -2.49436e-06
-0.00103171 -3.77056e-05 1.8956e-06
-2.49436e-06 1.8956e-06 8.81828e-05
0.00296266 -0.000817323 -3.34522e-07
-0.000817323 -6.47706e-05 -3.36796e-07
-3.34522e-07 -3.36796e-07 5.09495e-05
0.0027254 -0.00060474 -2.00285e-06
-0.00060474 -0.000192628 -3.8094e-07
-2.00285e-06 -3.8094e-07 -4.00873e-05
0.0027837 -0.00090108 2.00417e-07
-0.00090108 -2.12484e-05 5.26713e-07
2.00417e-07 5.26713e-07 5.53474e-06
0.00271319 -0.000754132 -5.30648e-07
-0.000754132 -5.47745e-05 2.52023e-09
-5.30648e-07 2.52023e-09 -2.33889e-05
0.00261378 -0.000620401 4.11636e-07
-0.000620401 1.49196e-06 -5.52532e-07
4.11636e-07 -5.52532e-07 5.45238e-06
0.00275232 -0.000875725 6.29179e-07
-0.000875725 0.000105234 5.46056e-07
6.29179e-07 5.46056e-07 3.85692e-05
0.00267152 -0.000754114 1.01717e-06
-0.000754114 9.21073e-05 -6.97965e-08
1.01717e-06 -6.97965e-08 3.05343e-05
0.00249485 -0.000669726 3.46625e-07
-0.000669726 9.68653e-05 -3.42856e-07
3.46625e-07 -3.42856e-07 3.14439e-06
0.00251672 -0.000840205 -1.20258e-06
-0.000840205 7.82578e-05 1.49628e-06
-1.20258e-06 1.49628e-06 -5.20703e-05
0.00246973 -0.000773822 -1.04859e-06
-0.000773822 0.000147727 2.34866e-07
-1.04859e-06 2.34866e-07 -2.10673e-05
0.0024837 -0.000740992 -1.92025e-06
-0.000740992 0.000225339 2.58773e-07
-1.92025e-06 2.58773e-07 9.67093e-06
0.00249324 -0.000795569 3.3315e-06
-0.000795569 0.000261346 -8.71738e-07
3.3315e-06 -8.71738e-07 3.2861e-05
0.0025115 -0.000803751 -2.00285e-07
-0.000803751 0.00032184 7.31257e-07
-2.00285e-07 7.31257e-07 3.63183e-05
0.0025003 -0.000750107 -7.2683e-07
-0.000750107 0.000405835 -3.18763e-06
-7.2683e-07 -3.18763e-06 7.52977e-05
0.00177134 -0.000608357 -2.00741e-05
-0.000608357 0.000189724 4.48909e-06
-2.00741e-05 4.48909e-06 -0.000191742
0.00227228 -0.000814201 5.48916e-07
-0.000814201 0.000292606 -1.96966e-06
5.48916e-07 -1.96966e-06 -0.000112079
0.00251314 -0.000855885 -1.02523e-06
-0.000855885 0.000344491 2.89751e-06
-1.02523e-06 2.89751e-06 -2.71667e-05
0.000162107 -0.000345926 -2.08162e-05
-0.000345926 -0.000370282 2.63153e-05
-2.08162e-05 2.63153e-05 -0.000620308
0.00166721 -0.000688714 -1.29499e-06
-0.000688714 0.000184477 -2.03721e-08
-1.29499e-06 -2.03721e-08 -0.000269629
0.00267888 -0.0010125 -2.27813e-06
-0.0010125 0.000629897 6.40959e-06
-2.27813e-06 6.40959e-06 9.20166e-05
0.00994471 -0.000168167 -0.000452311
-0.000168167 0.00620721 4.925e-05
-0.000452311 4.925e-05 0.00623373
6.7675e-05 -0.000341488 -1.27036e-07
-0.000341488 -0.000384999 1.74681e-06
-1.27036e-07 1.74681e-06 -0.000640295
0.00136311 -0.000656014 1.72772e-05
-0.000656014 0.000179289 -1.05921e-07
1.72772e-05 -1.05921e-07 -0.000320851
0.00950558 -0.000132747 -7.40386e-06
-0.000132747 0.00595244 1.75356e-06
-7.40386e-06 1.75356e-06 0.00597182
-0.000249096 -0.000338487 2.3642e-05
-0.000338487 -0.000564458 -3.27976e-05
2.3642e-05 -3.27976e-05 -0.000805805
0.00888889 -4.34766e-05 0.000377906
-4.34766e-05 0.00559778 -5.29085e-05
0.000377906 -5.29085e-05 0.00560338
0.00219507 0.00101964 -3.03669e-06
0.00101964 0.000315268 1.75682e-05
-3.03669e-06 1.75682e-05 -0.000208687
0.00246108 0.00119573 -1.06131e-06
0.00119573 0.000711681 2.43846e-06
-1.06131e-06 2.43846e-06 3.14998e-05
0.00270902 0.00113823 1.48381e-05
0.00113823 0.00087258 2.41458e-05
1.48381e-05 2.41458e-05 0.000203596
0.00211063 0.00117738 4.42464e-06
0.00117738 0.000796804 -2.02067e-05
4.42464e-06 -2.02067e-05 3.98881e-05
0.00230452 0.00103229 3.84232e-06
0.00103229 0.000864585 2.58124e-06
3.84232e-06 2.58124e-06 0.000171586
0.000675482 0.000479986 -3.08261e-05
0.000479986 -0.000148007 6.58066e-06
-3.08261e-05 6.58066e-06 -0.000607848
0.00268367 0.000735289 4.82813e-07
0.000735289 0.00122061 -1.29793e-05
4.82813e-07 -1.29793e-05 0.000671492
0.000384512 0.000395714 1.89822e-06
0.000395714 -0.000132713 -1.63588e-06
1.89822e-06 -1.63588e-06 -0.000532002
0.00020865 0.000317974 -4.0911e-05
0.000317974 -0.000307578 -3.40826e-05
-4.0911e-05 -3.40826e-05 -0.000482168
0.00123205 0.000461763 1.34287e-06
0.000461763 0.000478091 5.38804e-07
1.34287e-06 5.38804e-07 0.000124466
0.000790919 0.000304151 6.91845e-06
0.000304151 9.89548e-05 -1.70454e-06
6.91845e-06 -1.70454e-06 -5.72016e-05
0.00815059 -0.000249867 -0.000238956
-0.000249867 0.00524917 -4.68315e-05
-0.000238956 -4.68315e-05 0.00518402
0.000405083 0.000221748 2.85934e-05
0.000221748 -3.3425e-05 3.01848e-05
2.85934e-05 3.01848e-05 -0.00018144
0.00613899 -0.000231455 -2.54388e-05
-0.000231455 0.00390394 2.82473e-06
-2.54388e-05 2.82473e-06 0.00385515
0.00478954 -0.000193949 7.88601e-05
-0.000193949 0.00297445 1.66958e-05
7.88601e-05 1.66958e-05 0.00294386
0.000875976 0.00101731 4.53001e-05
0.00101731 -0.00410004 7.54584e-05
4.53001e-05 7.54584e-05 -0.00131919
0.00624838 0.00128063 7.9698e-05
0.00128063 -0.00370659 2.65639e-05
7.9698e-05 2.65639e-05 0.000957927
0.0179746 0.00130994 4.45017e-05
0.00130994 -0.00186504 0.000227453
4.45017e-05 0.000227453 0.00163691
0.00249952 0.00120125 -3.87837e-08
0.00120125 0.000372852 8.67375e-06
-3.87837e-08 8.67375e-06 -0.000153093
0.0027505 0.00112698 4.13896e-06
0.00112698 0.000375876 7.5445e-06
4.13896e-06 7.5445e-06 -2.25913e-05
0.00231246 0.00110152 -1.27581e-06
0.00110152 0.000353223 -4.04556e-06
-1.27581e-06 -4.04556e-06 -0.000164934
0.00315454 0.0017338 2.43935e-05
0.0017338 0.00129602 -8.7035e-06
2.43935e-05 -8.7035e-06 0.00047299
0.00262369 0.00139139 -1.25273e-05
0.00139139 0.000816241 -1.98869e-05
-1.25273e-05 -1.98869e-05 8.24231e-05
0.00294652 0.00156226 8.51857e-06
0.00156226 0.000854177 2.46098e-06
8.51857e-06 2.46098e-06 0.00013129
0.00340386 0.00144987 -1.53861e-05
0.00144987 0.000621457 -5.64198e-07
-1.53861e-05 -5.64198e-07 0.000164081
0.0021605 0.00169274 1.14787e-05
0.00169274 0.000452591 -8.4834e-06
1.14787e-05 -8.4834e-06 -0.000272451
0.00255404 0.00187988 7.66747e-06
0.00187988 0.000612028 9.86627e-05
7.66747e-06 9.86627e-05 5.55374e-06
0.00282748 0.0016173 7.3332e-06
0.0016173 0.00066801 -3.53488e-06
7.3332e-06 -3.53488e-06 -8.6924e-05
0.00369085 0.00140494 3.9419e-06
0.00140494 0.000609709 3.57311e-05
3.9419e-06 3.57311e-05 0.000381283
0.00270603 0.000728123 9.79405e-05
0.000728123 0.000175992 1.22554e-05
9.79405e-05 1.22554e-05 0.000487021
0.000586376 0.00110662 -8.25196e-06
0.00110662 -0.00074832 -3.56704e-05
-8.25196e-06 -3.56704e-05 -0.000811422
0.00117332 0.00162714 -4.66766e-05
0.00162714 -0.000135189 4.95981e-06
-4.66766e-05 4.95981e-06 -0.000725104
0.00515029 0.00221809 5.69316e-05
0.00221809 -0.00108243 1.8682e-05
5.69316e-05 1.8682e-05 0.000816839
0.0100086 0.00462303 -0.000111301
0.00462303 -0.00211083 -8.85504e-05
-0.000111301 -8.85504e-05 0.00196268
0.00697429 0.00306288 -0.000147601
0.00306288 0.00154641 -0.000124302
-0.000147601 -0.000124302 0.00175842
0.00378674 5.48839e-05 0.000117424
5.48839e-05 7.24791e-05 7.78574e-06
0.000117424 7.78574e-06 0.000627671
0.00462663 -0.000189134 -0.00017626
-0.000189134 -0.00247516 1.33106e-05
-0.00017626 1.33106e-05 -0.000172997
0.00533726 0.000304939 -8.76413e-05
0.000304939 -0.00278926 -5.2007e-05
-8.76413e-05 -5.2007e-05 0.000575399
0.00334978 -0.00154624 -0.0001616
-0.00154624 -0.00119803 0.000113905
-0.0001616 0.000113905 1.75726e-05
0.000772367 -0.00098004 -0.000112063
-0.00098004 -0.0032581 2.66554e-05
-0.000112063 2.66554e-05 -0.0017135
0.0038334 -0.000720986 1.26091e-05
-0.000720986 1.26666e-05 -1.06879e-05
1.26091e-05 -1.06879e-05 0.000645116
0.00277617 -0.000170333 -2.33446e-05
-0.000170333 -0.000513744 -2.22417e-06
-2.33446e-05 -2.22417e-06 3.11459e-05
0.00293472 -0.000408669 1.17347e-05
-0.000408669 -0.000426631 -8.18898e-06
1.17347e-05 -8.18898e-06 2.5143e-05
0.00260728 0.000157713 1.00769e-05
0.000157713 -0.000678925 -3.77516e-06
1.00769e-05 -3.77516e-06 -0.00028489
0.00290939 -0.000908355 -2.35617e-05
-0.000908355 -0.0003133 1.39391e-05
-2.35617e-05 1.39391e-05 4.43387e-05
0.00295419 -0.00065062 -3.38805e-06
-0.00065062 -0.000295786 8.22841e-07
-3.38805e-06 8.22841e-07 6.08902e-06
0.00281616 -0.00045452 -1.73788e-06
-0.00045452 -0.000252848 -5.11679e-07
-1.73788e-06 -5.11679e-07 1.88979e-05
0.00296323 -0.00079061 -1.69874e-06
-0.00079061 -2.95134e-05 7.21121e-07
-1.69874e-06 7.21121e-07 9.99891e-05
0.00272725 -0.000609452 3.32469e-07
-0.000609452 -0.000184867 -2.10251e-07
3.32469e-07 -2.10251e-07 -3.86421e-05
0.00263052 -0.000500106 5.35786e-07
-0.000500106 -0.000102692 -1.75482e-07
5.35786e-07 -1.75482e-07 1.12111e-05
0.00269523 -0.000756344 -5.19548e-08
-0.000756344 -5.20509e-05 8.50382e-07
-5.19548e-08 8.50382e-07 -1.79178e-05
0.00261074 -0.000618294 3.63514e-07
-0.000618294 -7.32518e-06 -1.22008e-07
3.63514e-07 -1.22008e-07 -2.8513e-06
0.00246854 -0.000547607 6.03573e-07
-0.000547607 2.69326e-05 -1.91591e-07
6.03573e-07 -1.91591e-07 -4.58256e-06
0.0026685 -0.000754936 1.61451e-06
-0.000754936 8.63341e-05 5.5303e-07
1.61451e-06 5.5303e-07 2.40015e-05
0.00249922 -0.000670355 5.93395e-07
-0.000670355 9.5281e-05 -1.95389e-07
5.93395e-07 -1.95389e-07 1.13154e-06
0.00241364 -0.000626074 -3.03163e-06
-0.000626074 0.000139375 3.48571e-07
-3.03163e-06 3.48571e-07 -2.43161e-06
0.00244583 -0.000778389 3.75413e-07
-0.000778389 0.000120324 5.16577e-07
3.75413e-07 5.16577e-07 -4.36533e-05
0.00248932 -0.000746544 5.74462e-07
-0.000746544 0.000228044 -1.44193e-07
5.74462e-07 -1.44193e-07 1.24024e-05
0.0024693 -0.000691982 -1.63712e-06
-0.000691982 0.000317787 -2.14139e-06
-1.63712e-06 -2.14139e-06 4.25931e-05
0.00242834 -0.000795946 -6.20928e-08
-0.000795946 0.000263675 1.22115e-06
-6.20928e-08 1.22115e-06 -1.74276e-05
0.0023882 -0.000745457 -2.6978e-07
-0.000745457 0.000325755 1.75558e-07
-2.6978e-07 1.75558e-07 -3.499e-06
0.0016979 -0.000520498 -1.39811e-05
-0.000520498 0.000115468 3.92457e-06
-1.39811e-05 3.92457e-06 -0.000201584
0.000286469 -0.000311321 -1.75821e-05
-0.000311321 -0.000328991 2.26596e-05
-1.75821e-05 2.26596e-05 -0.000556371
0.00175357 -0.000606601 4.05761e-09
-0.000606601 0.000177262 1.57052e-07
4.05761e-09 1.57052e-07 -0.0002027
0.00238612 -0.000825342 -3.48839e-06
-0.000825342 0.000380755 4.04359e-06
-3.48839e-06 4.04359e-06 -3.31087e-05
0.00982096 -0.000242537 -0.000474028
-0.000242537 0.00611221 5.31333e-05
-0.000474028 5.31333e-05 0.00614156
0.000231198 -0.000347429 -3.89754e-07
-0.000347429 -0.000340685 1.61241e-06
-3.89754e-07 1.61241e-06 -0.000584918
0.00183146 -0.000682766 1.86384e-05
-0.000682766 0.000302518 -2.54912e-06
1.86384e-05 -2.54912e-06 -0.000145216
0.00997624 -0.00019662 -5.60086e-06
-0.00019662 0.00622845 3.02457e-06
-5.60086e-06 3.02457e-06 0.00625358
3.69056e-05 -0.0003531 2.04604e-05
-0.0003531 -0.000410082 -2.96477e-05
2.04604e-05 -2.96477e-05 -0.000669779
0.00994585 -0.000176927 0.000451358
-0.000176927 0.00623277 -5.619e-05
0.000451358 -5.619e-05 0.00625342
0.00239329 0.00103824 4.87368e-06
0.00103824 0.000298584 1.38796e-05
4.87368e-06 1.38796e-05 -0.000147077
0.00232563 0.00103135 2.46975e-06
0.00103135 0.000413939 -5.56562e-07
2.46975e-06 -5.56562e-07 -0.000108242
0.00260767 0.0010182 1.26007e-05
0.0010182 0.000659859 2.10867e-05
1.26007e-05 2.10867e-05 0.000105432
0.00246663 0.00117699 1.02298e-05
0.00117699 0.000743816 -1.57119e-05
1.02298e-05 -1.57119e-05 7.18802e-05
0.00230516 0.00108071 4.57082e-07
0.00108071 0.000599626 7.54589e-07
4.57082e-07 7.54589e-07 -5.18918e-05
0.00134689 0.000606068 -4.4446e-05
0.000606068 0.000164403 5.96659e-06
-4.4446e-05 5.96659e-06 -0.000307906
0.00250627 0.00103399 -2.4098e-05
0.00103399 0.000901822 -2.27858e-05
-2.4098e-05 -2.27858e-05 0.000228224
0.00082431 0.000454401 -1.56937e-06
0.000454401 -6.50127e-06 1.19688e-06
-1.56937e-06 1.19688e-06 -0.000455313
-0.000237563 0.00030168 -3.22522e-05
0.00030168 -0.000552949 -3.53176e-05
-3.22522e-05 -3.53176e-05 -0.000761355
0.00185775 0.000263072 3.01292e-06
0.000263072 0.000716624 3.15063e-06
3.01292e-06 3.15063e-06 0.000389035
0.000306676 0.000282035 4.49272e-06
0.000282035 -0.000235142 -3.24669e-07
4.49272e-06 -3.24669e-07 -0.00041211
0.00872741 -0.000112121 -0.000301955
-0.000112121 0.00553128 -4.27463e-05
-0.000301955 -4.27463e-05 0.00551204
0.000463086 0.000296058 4.00453e-05
0.000296058 -8.91699e-05 3.21891e-05
4.00453e-05 3.21891e-05 -0.000247692
0.00771265 -0.000181514 -1.12849e-06
-0.000181514 0.00490547 -3.20669e-06
-1.12849e-06 -3.20669e-06 0.00487188
0.00550989 -0.000250592 0.000104902
-0.000250592 0.00348766 2.55282e-05
0.000104902 2.55282e-05 0.00343448
0.00178882 0.000525734 7.09297e-05
0.000525734 -0.000846835 4.60724e-05
7.09297e-05 4.60724e-05 -0.000167238
0.00150057 0.00114407 4.84723e-05
0.00114407 -0.00408111 -1.3979e-05
4.84723e-05 -1.3979e-05 -0.00139444
0.00633196 0.0022159 0.00031164
0.0022159 -0.00384948 0.000158461
0.00031164 0.000158461 0.00129403
0.00292549 0.00117048 -5.89491e-06
0.00117048 0.000364915 3.20337e-07
-5.89491e-06 3.20337e-07 1.70608e-05
0.00266778 0.00124309 -1.03631e-05
0.00124309 0.000472883 -3.63239e-06
-1.03631e-05 -3.63239e-06 -5.972e-05
0.00261828 0.000857105 7.10656e-06
0.000857105 0.000171181 2.5995e-06
7.10656e-06 2.5995e-06 -3.50928e-05
0.00274018 0.00111575 9.89539e-07
0.00111575 0.00036511 2.13354e-07
9.89539e-07 2.13354e-07 -1.91884e-05
0.00240116 0.00111339 -7.48039e-06
0.00111339 0.000414958 -1.82216e-05
-7.48039e-06 -1.82216e-05 -0.000100136
0.00308509 0.00103378 -5.44398e-06
0.00103378 0.000170572 1.48051e-06
-5.44398e-06 1.48051e-06 4.79255e-05
0.0030469 0.00162184 4.88098e-06
0.00162184 0.000869656 -8.03474e-06
4.88098e-06 -8.03474e-06 0.000133336
0.00319316 0.00137066 -3.52916e-07
0.00137066 0.000532305 -1.39935e-06
-3.52916e-07 -1.39935e-06 9.79678e-05
0.00246581 0.000647324 -4.30347e-06
0.000647324 -0.000431181 4.36993e-06
-4.30347e-06 4.36993e-06 -0.000165757
0.00223067 0.00164844 -7.48825e-06
0.00164844 0.000239067 1.93757e-05
-7.48825e-06 1.93757e-05 -0.000484662
0.00317693 0.00133637 3.68334e-06
0.00133637 0.000321684 -7.74439e-06
3.68334e-06 -7.74439e-06 0.000115481
0.000954785 0.000730653 -4.85655e-05
0.000730653 -0.00107975 -5.43759e-06
-4.85655e-05 -5.43759e-06 -0.000543268
-0.00355822 0.000639722 -1.56043e-05
0.000639722 -0.00298776 -2.32402e-05
-1.56043e-05 -2.32402e-05 -0.00288918
0.00644155 0.0023712 -0.000266293
0.0023712 -0.000326517 -0.000109853
-0.000266293 -0.000109853 0.00145212
0.00284731 0.000273397 5.67996e-06
0.000273397 -0.000370199 -3.28085e-07
5.67996e-06 -3.28085e-07 1.23324e-06
0.00360367 7.64287e-05 -2.15156e-06
7.64287e-05 -0.000137119 -8.52212e-06
-2.15156e-06 -8.52212e-06 0.000444478
0.00333708 -0.00047238 -0.000241239
-0.00047238 -0.00333134 -2.64198e-05
-0.000241239 -2.64198e-05 -0.000932404
0.00300254 -0.000655665 -0.000142724
-0.000655665 -0.000530627 3.91607e-05
-0.000142724 3.91607e-05 0.000225895
0.00251814 -0.000190416 -2.95868e-05
-0.000190416 -0.000604822 5.36485e-06
-2.95868e-05 5.36485e-06 -7.85002e-05
0.00280576 -0.000436753 7.56848e-06
-0.000436753 -0.000550342 -1.03812e-06
7.56848e-06 -1.03812e-06 -4.14195e-05
0.00296426 0.000174048 -1.38366e-06
0.000174048 -0.000406676 2.58019e-06
-1.38366e-06 2.58019e-06 -4.81966e-05
0.00282301 -7.98419e-05 6.66335e-07
-7.98419e-05 -0.000340117 -2.49943e-06
6.66335e-07 -2.49943e-06 1.0237e-05
0.00292776 -0.000674355 -2.54116e-06
-0.000674355 -0.000337256 3.17695e-06
-2.54116e-06 3.17695e-06 -6.12989e-05
0.0027442 -0.000434579 3.64914e-07
-0.000434579 -0.000286972 -2.67968e-07
3.64914e-07 -2.67968e-07 -2.10963e-05
0.00263872 -0.000323713 7.79249e-07
-0.000323713 -0.000163393 -6.47412e-07
7.79249e-07 -6.47412e-07 3.81885e-05
0.00272923 -0.000614123 1.20102e-06
-0.000614123 -0.000175028 6.80543e-07
1.20102e-06 6.80543e-07 -3.66783e-05
0.00261473 -0.000499509 2.96745e-07
-0.000499509 -0.000109113 1.21518e-07
2.96745e-07 1.21518e-07 -1.83876e-07
0.00244998 -0.000420369 8.42994e-07
-0.000420369 -3.85723e-05 -1.7337e-07
8.42994e-07 -1.7337e-07 -2.03164e-06
0.00260906 -0.000616044 2.51925e-07
-0.000616044 -1.53659e-05 2.63529e-07
2.51925e-07 2.63529e-07 -1.03962e-05
0.00246374 -0.000547549 2.78584e-07
-0.000547549 2.02639e-05 -1.26496e-08
2.78584e-07 -1.26496e-08 -1.1274e-05
0.00236363 -0.00049977 -3.473e-06
-0.00049977 7.88307e-05 9.39481e-07
-3.473e-06 9.39481e-07 3.38553e-08
0.00250443 -0.00067109 7.47471e-07
-0.00067109 9.41587e-05 -1.13033e-07
7.47471e-07 -1.13033e-07 -4.65482e-07
0.00244674 -0.000630491 3.58111e-07
-0.000630491 0.000157957 -4.01547e-07
3.58111e-07 -4.01547e-07 1.41458e-05
0.00243448 -0.000604654 -2.143e-06
-0.000604654 0.000241205 -3.24166e-07
-2.143e-06 -3.24166e-07 2.7339e-05
0.00249409 -0.000752065 1.95393e-06
-0.000752065 0.000229685 4.91881e-08
1.95393e-06 4.91881e-08 1.43379e-05
0.00239901 -0.00068547 -9.9969e-07
-0.00068547 0.000270554 -2.22227e-07
-9.9969e-07 -2.22227e-07 -3.26555e-06
0.00164682 -0.000460408 -1.0114e-05
-0.000460408 5.54907e-05 3.39329e-06
-1.0114e-05 3.39329e-06 -0.000217668
0.00228013 -0.000739565 5.59015e-07
-0.000739565 0.000249737 2.87146e-06
5.59015e-07 2.87146e-06 -7.75878e-05
0.00170549 -0.00052224 -1.33849e-07
-0.00052224 0.000113054 9.33464e-08
-1.33849e-07 9.33464e-08 -0.00020336
0.00321651 -0.000330912 -6.69404e-05
-0.000330912 0.00159873 1.75779e-05
-6.69404e-05 1.75779e-05 0.00142026
0.00353383 -0.00019211 -0.000383079
-0.00019211 0.00197098 6.39653e-05
-0.000383079 6.39653e-05 0.00195347
0.00183491 -0.000343459 -2.3342e-05
-0.000343459 0.000691215 6.91336e-07
-2.3342e-05 6.91336e-07 0.000478167
0.00170045 -0.000600687 1.77697e-05
-0.000600687 0.000143323 -4.01166e-06
1.77697e-05 -4.01166e-06 -0.000234128
0.00961818 -0.000247655 -6.69668e-06
-0.000247655 0.0059921 3.6484e-06
-6.69668e-06 3.6484e-06 0.00601768
0.000177185 -0.000372717 2.42806e-05
-0.000372717 -0.000372431 -2.55266e-05
2.42806e-05 -2.55266e-05 -0.000623064
0.00999623 -0.000209887 0.000457055
-0.000209887 0.00624722 -5.79161e-05
0.000457055 -5.79161e-05 0.00626815
0.00248115 0.000665421 3.80947e-06
0.000665421 0.000107546 5.91627e-07
3.80947e-06 5.91627e-07 -2.7811e-05
0.00251214 0.00089183 8.75057e-06
0.00089183 0.000270046 8.48277e-06
8.75057e-06 8.48277e-06 -2.80709e-05
0.00260226 0.0010563 4.21136e-07
0.0010563 0.000432396 -5.40359e-07
4.21136e-07 -5.40359e-07 -5.46849e-06
0.00252655 0.000936534 1.00704e-05
0.000936534 0.00053235 1.70286e-05
1.00704e-05 1.70286e-05 6.70293e-05
0.00245605 0.00104647 2.59223e-06
0.00104647 0.000507247 -1.84098e-05
2.59223e-06 -1.84098e-05 -1.52291e-05
0.00239094 0.000991409 1.70488e-06
0.000991409 0.000515129 4.4218e-07
1.70488e-06 4.4218e-07 -3.11099e-05
0.00158505 0.000672786 -4.10412e-05
0.000672786 0.000238037 1.53272e-06
-4.10412e-05 1.53272e-06 -0.0002264
0.00232867 0.0010676 -1.19214e-05
0.0010676 0.000625644 -2.13967e-05
-1.19214e-05 -2.13967e-05 -1.98892e-05
0.00136459 0.000615603 -1.73188e-06
0.000615603 0.000145623 2.64761e-07
-1.73188e-06 2.64761e-07 -0.000325197
-2.41038e-05 0.00035125 -3.1627e-05
0.00035125 -0.000424101 -3.08e-05
-3.1627e-05 -3.08e-05 -0.000667423
0.00123692 0.000434381 2.97624e-05
0.000434381 0.0003075 -4.0271e-06
2.97624e-05 -4.0271e-06 -0.000133012
0.000207669 0.000277989 3.52664e-06
0.000277989 -0.000281049 -5.00976e-07
3.52664e-06 -5.00976e-07 -0.000486841
0.00980508 5.61865e-05 -0.000402965
5.61865e-05 0.00616841 -5.10225e-05
-0.000402965 -5.10225e-05 0.00617532
0.000508174 0.000266235 3.07229e-05
0.000266235 -0.000109168 3.36446e-05
3.07229e-05 3.36446e-05 -0.000282689
0.0086755 -0.000104221 1.81144e-05
-0.000104221 0.00548265 -3.24182e-06
1.81144e-05 -3.24182e-06 0.00547019
0.00713057 -0.000219863 0.000179702
-0.000219863 0.00452817 2.73618e-05
0.000179702 2.73618e-05 0.00448796
0.00260304 0.000310708 1.70943e-06
0.000310708 -0.000492958 4.38404e-06
1.70943e-06 4.38404e-06 -0.000107627
0.00142922 0.000446802 -7.05954e-06
0.000446802 -0.00147076 -1.06186e-05
-7.05954e-06 -1.06186e-05 -0.000530218
0.00307991 0.0013934 -0.000214932
0.0013934 -0.00375659 -8.46506e-05
-0.000214932 -8.46506e-05 -0.000889349
0.00269612 0.000803373 -9.20419e-07
0.000803373 0.000104435 -1.21354e-06
-9.20419e-07 -1.21354e-06 -3.54065e-06
0.00280504 0.00114345 -5.06709e-06
0.00114345 0.000322509 -4.50545e-07
-5.06709e-06 -4.50545e-07 -1.56477e-05
0.00271656 0.00127315 -1.24975e-06
0.00127315 0.000492824 -9.83359e-06
-1.24975e-06 -9.83359e-06 -4.31048e-05
0.00258678 0.000839454 1.64026e-06
0.000839454 0.000174969 1.11429e-06
1.64026e-06 1.11429e-06 -3.54124e-05
0.00269105 0.00110307 -3.26955e-06
0.00110307 0.00032906 -9.73866e-06
-3.26955e-06 -9.73866e-06 -4.28446e-05
0.00294179 0.000637283 4.66714e-06
0.000637283 -7.63985e-05 1.25206e-06
4.66714e-06 1.25206e-06 8.7594e-05
0.00297515 0.00102141 -1.89754e-06
0.00102141 0.000125145 9.26504e-07
-1.89754e-06 9.26504e-07 1.71325e-05
0.00309962 0.00130876 6.75629e-06
0.00130876 0.000511334 -2.23457e-06
6.75629e-06 -2.23457e-06 9.49808e-05
0.00234859 0.000585896 -4.62524e-08
0.000585896 -0.000424307 1.29355e-06
-4.62524e-08 1.29355e-06 -0.00014045
0.00266309 0.00122669 5.51064e-06
0.00122669 3.01048e-05 -1.30876e-05
5.51064e-06 -1.30876e-05 -0.000144487
-0.000971259 0.000612138 -3.72522e-05
0.000612138 -0.00257938 -7.40418e-06
-3.72522e-05 -7.40418e-06 -0.00157831
0.00273227 0.000148744 3.6732e-06
0.000148744 -0.000266011 1.02512e-07
3.6732e-06 1.02512e-07 2.30431e-05
0.00282385 0.000253362 1.70209e-06
0.000253362 -0.000389307 -1.20869e-06
1.70209e-06 -1.20869e-06 -1.539e-05
0.00345464 8.2596e-05 -8.89569e-05
8.2596e-05 -0.00026782 1.42967e-05
-8.89569e-05 1.42967e-05 0.000296687
0.002676 -0.000474499 -3.12913e-05
-0.000474499 -0.000695114 1.12897e-05
-3.12913e-05 1.12897e-05 -0.000121509
0.00329332 0.000196041 -5.18828e-06
0.000196041 -0.000166871 2.04992e-06
-5.18828e-06 2.04992e-06 0.000166323
0.00282792 -7.96697e-05 -9.04367e-07
-7.96697e-05 -0.000345508 -7.56792e-07
-9.04367e-07 -7.56792e-07 -3.93493e-07
0.00250991 -8.96901e-05 7.6976e-07
-8.96901e-05 -0.000189859 -3.70391e-07
7.6976e-07 -3.70391e-07 -5.0499e-06
0.00266667 -0.000413725 1.84829e-06
-0.000413725 -0.000324201 -4.11948e-07
1.84829e-06 -4.11948e-07 -6.39337e-05
0.00260046 -0.000334633 -4.21899e-08
-0.000334633 -0.000181733 1.00402e-07
-4.21899e-08 1.00402e-07 8.20096e-06
0.00239795 -0.000276777 1.87611e-06
-0.000276777 -9.0389e-05 -7.51281e-07
1.87611e-06 -7.51281e-07 -1.25178e-05
0.00259563 -0.000498697 -8.9766e-07
-0.000498697 -0.000117768 3.51421e-07
-8.9766e-07 3.51421e-07 -1.36455e-05
0.00244631 -0.000419135 2.58289e-08
-0.000419135 -4.43826e-05 7.02196e-08
2.58289e-08 7.02196e-08 -7.7522e-06
0.00231702 -0.000380155 -3.68433e-06
-0.000380155 1.88442e-05 6.76581e-07
-3.68433e-06 6.76581e-07 -1.07834e-05
0.00245927 -0.000547546 5.31492e-08
-0.000547546 1.35968e-05 2.55214e-08
5.31492e-08 2.55214e-08 -1.79757e-05
0.00236749 -0.000501671 2.94538e-07
-0.000501671 7.64981e-05 -1.58858e-08
2.94538e-07 -1.58858e-08 -3.29378e-06
0.00237708 -0.000489656 -3.07669e-06
-0.000489656 0.000163318 3.53168e-07
-3.07669e-06 3.53168e-07 1.1671e-05
0.00248099 -0.000634948 3.07433e-06
-0.000634948 0.000177774 -1.00716e-06
3.07433e-06 -1.00716e-06 3.19399e-05
0.00239359 -0.000597856 -5.54439e-07
-0.000597856 0.00022162 -1.58472e-07
-5.54439e-07 -1.58472e-07 9.50433e-06
0.0016326 -0.000392834 -8.06962e-06
-0.000392834 2.07682e-05 2.56631e-06
-8.06962e-06 2.56631e-06 -0.000211329
0.0023258 -0.000678764 1.38943e-06
-0.000678764 0.000221065 8.79295e-07
1.38943e-06 8.79295e-07 -5.13381e-05
0.00168756 -0.000464263 -8.13671e-08
-0.000464263 7.53133e-05 6.52116e-08
-8.13671e-08 6.52116e-08 -0.000197451
0.00304358 -0.000294017 -7.15027e-05
-0.000294017 0.00148478 1.60592e-05
-7.15027e-05 1.60592e-05 0.00132889
0.00170432 -0.000525027 1.22762e-05
-0.000525027 0.00010142 -3.90728e-06
1.22762e-05 -3.90728e-06 -0.000214864
0.00331226 -0.000359081 6.33576e-05
-0.000359081 0.00166535 -1.16104e-05
6.33576e-05 -1.16104e-05 0.00150126
0.00305377 -0.00019497 -0.000345992
-0.00019497 0.00167397 6.26094e-05
-0.000345992 6.26094e-05 0.00165043
0.00607256 -0.000235714 -0.000332232
-0.000235714 0.00366974 4.61652e-05
-0.000332232 4.61652e-05 0.00366937
0.00349864 -0.000428052 0.000208949
-0.000428052 0.00179888 -4.01111e-05
0.000208949 -4.01111e-05 0.0016248
0.00939951 -0.000247462 0.000440989
-0.000247462 0.00585765 -5.91734e-05
0.000440989 -5.91734e-05 0.00587775
0.002506 0.000636518 -7.10873e-07
0.000636518 7.83115e-05 -1.14695e-06
-7.10873e-07 -1.14695e-06 6.38358e-06
0.0025302 0.000719209 3.67636e-06
0.000719209 0.000280689 3.48042e-06
3.67636e-06 3.48042e-06 7.2101e-05
0.00247559 0.000650509 5.12291e-07
0.000650509 0.000115239 -1.63853e-07
5.12291e-07 -1.63853e-07 -1.19731e-05
0.00236589 0.00079126 4.01294e-06
0.00079126 0.000328223 1.11183e-05
4.01294e-06 1.11183e-05 -2.5311e-05
0.00255748 0.000891953 2.25265e-07
0.000891953 0.000291621 -1.30126e-07
2.25265e-07 -1.30126e-07 -7.3877e-06
0.0028667 0.00108001 -4.5431e-06
0.00108001 0.000603803 -1.31847e-05
-4.5431e-06 -1.31847e-05 0.000173036
0.00235848 0.000920266 8.62331e-07
0.000920266 0.000415205 3.18412e-07
8.62331e-07 3.18412e-07 -4.59543e-05
0.00167657 0.000651203 -3.08858e-05
0.000651203 0.000160516 3.58601e-07
-3.08858e-05 3.58601e-07 -0.00025518
0.00205351 0.000951691 -1.0623e-05
0.000951691 0.000287691 -2.02441e-05
-1.0623e-05 -2.02441e-05 -0.000247476
0.00161435 0.00070896 -2.8712e-06
0.00070896 0.000229549 4.01303e-07
-2.8712e-06 4.01303e-07 -0.000250067
0.000292508 0.000386193 -2.96884e-05
0.000386193 -0.000276515 -2.46095e-05
-2.96884e-05 -2.46095e-05 -0.000531747
0.00109997 0.000582144 4.38776e-05
0.000582144 -6.69412e-05 -6.06993e-06
4.38776e-05 -6.06993e-06 -0.000521059
-7.09801e-05 0.000307655 1.71999e-06
0.000307655 -0.000464842 2.16198e-06
1.71999e-06 2.16198e-06 -0.000695378
0.010093 0.000163411 -0.000434776
0.000163411 0.00632092 -5.75986e-05
-0.000434776 -5.75986e-05 0.00633271
0.000263644 0.000238779 2.9458e-05
0.000238779 -0.000267596 3.42998e-05
2.9458e-05 3.42998e-05 -0.000459923
0.00915982 1.23909e-06 1.47409e-05
1.23909e-06 0.00574666 -1.36246e-06
1.47409e-05 -1.36246e-06 0.00575125
0.00856639 -0.000117114 0.000287634
-0.000117114 0.00540363 2.88064e-05
0.000287634 2.88064e-05 0.00539483
0.00278482 0.00039558 3.53397e-06
0.00039558 -0.000184567 7.12169e-07
3.53397e-06 7.12169e-07 4.63613e-05
0.00248391 0.000323794 2.50207e-06
0.000323794 -0.000482385 -2.61534e-06
2.50207e-06 -2.61534e-06 -0.000101275
0.000273521 0.000405391 -6.52288e-05
0.000405391 -0.00257561 -1.34013e-05
-6.52288e-05 -1.34013e-05 -0.00139073
0.00260537 0.000557132 2.84927e-06
0.000557132 -6.20206e-05 3.13539e-07
2.84927e-06 3.13539e-07 -3.98108e-06
0.00262485 0.000799794 -8.52706e-07
0.000799794 6.60399e-05 1.08946e-06
-8.52706e-07 1.08946e-06 -3.34109e-05
0.0027121 0.00111667 5.5876e-06
0.00111667 0.000298878 -3.38986e-06
5.5876e-06 -3.38986e-06 -2.86651e-05
0.00255977 0.000821834 -5.84985e-06
0.000821834 0.000179505 -2.56846e-06
-5.84985e-06 -2.56846e-06 -3.32123e-05
0.00285854 0.000626195 -2.26666e-06
0.000626195 -0.000122276 4.02979e-07
-2.26666e-06 4.02979e-07 3.43716e-05
0.0028772 0.00100779 1.87601e-06
0.00100779 9.57592e-05 -2.76099e-06
1.87601e-06 -2.76099e-06 -2.95919e-07
0.00222076 0.000587555 1.96524e-06
0.000587555 -0.000386989 -8.33127e-06
1.96524e-06 -8.33127e-06 -0.000111556
0.00256046 0.000117847 2.39387e-06
0.000117847 -0.000170604 1.92906e-07
2.39387e-06 1.92906e-07 5.60717e-06
0.00269207 0.000151874 -3.38614e-07
0.000151874 -0.000272655 -1.21655e-07
-3.38614e-07 -1.21655e-07 7.70485e-06
0.00278853 0.000249454 -1.59098e-05
0.000249454 -0.000404927 2.70006e-06
-1.59098e-05 2.70006e-06 -3.65729e-05
0.00236041 -1.10808e-05 5.8066e-07
-1.10808e-05 -0.000166747 -8.74313e-08
5.8066e-07 -8.74313e-08 -3.64549e-05
0.00284813 -8.33776e-05 -1.5777e-07
-8.33776e-05 -0.000339068 1.56019e-06
-1.5777e-07 1.56019e-06 -5.64547e-07
0.00251895 -9.44208e-05 -4.13548e-08
-9.44208e-05 -0.00018304 2.54675e-07
-4.13548e-08 2.54675e-07 5.25637e-07
0.00237199 -0.000143901 7.79932e-07
-0.000143901 -9.95326e-05 -2.3064e-07
7.79932e-07 -2.3064e-07 -9.37173e-06
0.00256255 -0.000345305 -4.88039e-07
-0.000345305 -0.000199976 5.24826e-07
-4.88039e-07 5.24826e-07 -2.15876e-05
0.00240479 -0.000273177 6.0576e-07
-0.000273177 -8.76621e-05 -4.55375e-07
6.0576e-07 -4.55375e-07 -9.01529e-06
0.00226521 -0.000261164 -2.79659e-06
-0.000261164 -2.66513e-05 4.00783e-07
-2.79659e-06 4.00783e-07 -2.48819e-05
0.00244524 -0.00041769 -5.07602e-07
-0.00041769 -4.845e-05 2.56788e-07
-5.07602e-07 2.56788e-07 -1.17146e-05
0.00231664 -0.000379045 4.93446e-08
-0.000379045 1.58772e-05 -1.62011e-08
4.93446e-08 -1.62011e-08 -1.31802e-05
0.00238843 -0.00037662 -3.6248e-06
-0.00037662 0.000139175 9.02524e-07
-3.6248e-06 9.02524e-07 3.86144e-05
0.00237278 -0.000503633 3.70634e-06
-0.000503633 7.50866e-05 -9.9831e-07
3.70634e-06 -9.9831e-07 -5.72516e-06
0.0023751 -0.000486144 -2.70359e-07
-0.000486144 0.000170437 -2.82741e-07
-2.70359e-07 -2.82741e-07 1.92404e-05
0.00165327 -0.000319846 -6.32039e-06
-0.000319846 1.64836e-05 1.4746e-06
-6.32039e-06 1.4746e-06 -0.000176634
0.00235128 -0.000590821 1.97398e-06
-0.000590821 0.000201295 -3.30646e-07
1.97398e-06 -3.30646e-07 -9.00699e-06
0.00169572 -0.000397734 -3.39199e-07
-0.000397734 5.2889e-05 2.93227e-07
-3.39199e-07 2.93227e-07 -0.000178869
0.00289572 -0.000259975 -7.52618e-05
-0.000259975 0.00139378 1.46104e-05
-7.52618e-05 1.46104e-05 0.00125623
0.00172797 -0.000468371 8.596e-06
-0.000468371 9.47639e-05 -3.32878e-06
8.596e-06 -3.32878e-06 -0.000177599
0.0031545 -0.000309825 5.75417e-05
-0.000309825 0.00155747 -8.90412e-06
5.75417e-05 -8.90412e-06 0.00141618
0.00295421 -0.00016264 -0.000332602
-0.00016264 0.00160478 5.2753e-05
-0.000332602 5.2753e-05 0.00158605
0.00339853 -0.000358452 0.000196173
-0.000358452 0.00171639 -3.86522e-05
0.000196173 -3.86522e-05 0.00157112
0.0026056 -0.000128018 -0.000129433
-0.000128018 0.00137797 2.21211e-05
-0.000129433 2.21211e-05 0.00133396
0.00844939 -0.000173501 0.000165621
-0.000173501 0.00522772 -1.44603e-05
0.000165621 -1.44603e-05 0.00520156
0.0024782 0.000535423 3.3462e-08
0.000535423 4.80657e-05 4.75827e-07
3.3462e-08 4.75827e-07 1.0815e-05
0.00245818 0.000608919 -2.03478e-06
0.000608919 0.000168547 -5.4727e-07
-2.03478e-06 -5.4727e-07 4.51746e-05
0.00254097 0.00063318 -2.12508e-06
0.00063318 0.000105768 8.28092e-08
-2.12508e-06 8.28092e-08 2.70839e-05
0.00230467 0.000667697 -3.19742e-07
0.000667697 0.000227411 4.55756e-06
-3.19742e-07 4.55756e-06 -4.87249e-05
0.002499 0.000724581 -6.04941e-07
0.000724581 0.000226603 -1.89937e-06
-6.04941e-07 -1.89937e-06 3.48157e-05
0.00247054 0.000634737 -6.2956e-06
0.000634737 0.00012458 -2.37813e-06
-6.2956e-06 -2.37813e-06 5.21337e-06
0.0017431 0.000558065 -2.13207e-05
0.000558065 0.000107743 -1.04881e-06
-2.13207e-05 -1.04881e-06 -0.000226638
0.00234017 0.000791364 1.83805e-06
0.000791364 0.000303549 1.27211e-08
1.83805e-06 1.27211e-08 -5.06109e-05
0.00261637 0.000895407 -5.34844e-06
0.000895407 0.000320473 -7.0534e-06
-5.34844e-06 -7.0534e-06 1.87595e-05
0.00212454 0.000897758 -9.48088e-06
0.000897758 0.000251645 -1.72117e-05
-9.48088e-06 -1.72117e-05 -0.000203649
0.00179193 0.000663669 -6.24407e-07
0.000663669 0.000238771 2.55291e-07
-6.24407e-07 2.55291e-07 -0.00018173
0.000444047 0.000356099 -2.56204e-05
0.000356099 -0.000218208 -2.00941e-05
-2.56204e-05 -2.00941e-05 -0.000458158
0.00184888 0.000762469 4.47858e-05
0.000762469 0.000351282 6.67949e-07
4.47858e-05 6.67949e-07 -0.000145677
0.000152967 0.000355314 5.44973e-07
0.000355314 -0.000358804 1.80117e-06
5.44973e-07 1.80117e-06 -0.000608459
0.00952815 0.000242105 -0.000426192
0.000242105 0.00595189 -6.27531e-05
-0.000426192 -6.27531e-05 0.00595896
7.5978e-05 0.000286818 2.90724e-05
0.000286818 -0.000377533 3.03997e-05
2.90724e-05 3.03997e-05 -0.000603011
0.0099324 0.000119799 7.81839e-06
0.000119799 0.00621028 1.78033e-06
7.81839e-06 1.78033e-06 0.00622745
0.00918866 -2.54686e-05 0.000341435
-2.54686e-05 0.0057589 3.10415e-05
0.000341435 3.10415e-05 0.00576807
0.00251733 0.000314663 1.2207e-06
0.000314663 -0.000132038 8.05859e-07
1.2207e-06 8.05859e-07 -6.33962e-06
0.00272877 0.000403372 -9.83636e-07
0.000403372 -0.000255183 9.15495e-07
-9.83636e-07 9.15495e-07 -1.21471e-05
0.00241958 0.000298126 -8.18797e-06
0.000298126 -0.000472258 -1.54407e-06
-8.18797e-06 -1.54407e-06 -8.17133e-05
0.00259753 0.000552533 -5.41365e-07
0.000552533 -6.19565e-05 4.06496e-07
-5.41365e-07 4.06496e-07 -3.25077e-06
0.00255224 0.000797368 -1.28109e-06
0.000797368 2.61998e-05 -9.52583e-07
-1.28109e-06 -9.52583e-07 -6.42159e-05
0.00277402 0.000611113 1.98192e-07
0.000611113 -0.000181159 -2.13263e-06
1.98192e-07 -2.13263e-06 -2.70701e-05
0.00245067 0.000107909 1.82625e-06
0.000107909 -0.000100778 1.15685e-07
1.82625e-06 1.15685e-07 1.10357e-05
0.00256178 0.000116608 -1.6139e-08
0.000116608 -0.000162577 -1.30666e-07
-1.6139e-08 -1.30666e-07 1.12987e-05
0.0026295 0.000152884 -3.04433e-06
0.000152884 -0.000300646 2.67225e-08
-3.04433e-06 2.67225e-08 -2.66993e-05
0.00240073 -6.603e-06 -6.58976e-07
-6.603e-06 -0.000133773 2.37783e-08
-6.58976e-07 2.37783e-08 -7.19614e-06
0.00233088 -3.17392e-05 -1.54137e-07
-3.17392e-05 -6.26484e-05 -1.68066e-07
-1.54137e-07 -1.68066e-07 1.0998e-05
0.00252805 -9.92389e-05 -1.72219e-06
-9.92389e-05 -0.000176134 8.84751e-07
-1.72219e-06 8.84751e-07 6.14065e-06
0.00237099 -0.000146316 -8.28411e-07
-0.000146316 -9.08073e-05 2.53709e-07
-8.28411e-07 2.53709e-07 -6.80177e-06
0.00220347 -0.000159205 -2.98487e-06
-0.000159205 -6.93311e-05 5.32127e-07
-2.98487e-06 5.32127e-07 -4.32493e-05
0.00240815 -0.000269775 -3.29374e-07
-0.000269775 -8.69048e-05 -1.37387e-07
-3.29374e-07 -1.37387e-07 -7.48529e-06
0.00226198 -0.000259317 9.16677e-07
-0.000259317 -2.6681e-05 -3.10559e-07
9.16677e-07 -3.10559e-07 -2.4501e-05
0.00242651 -0.000277273 -3.18142e-06
-0.000277273 0.0001323 1.0732e-06
-3.18142e-06 1.0732e-06 6.87599e-05
0.00231074 -0.000378467 3.79906e-06
-0.000378467 9.34721e-06 -7.52196e-07
3.79906e-06 -7.52196e-07 -1.92285e-05
0.00238206 -0.0003755 4.64466e-08
-0.0003755 0.000136954 -1.36308e-07
4.64466e-08 -1.36308e-07 3.73531e-05
0.00164692 -0.000247234 -5.17295e-06
-0.000247234 3.9092e-06 1.01449e-06
-5.17295e-06 1.01449e-06 -0.000156583
0.00237183 -0.000482458 3.0985e-06
-0.000482458 0.000176312 -1.00555e-06
3.0985e-06 -1.00555e-06 2.56526e-05
0.00167895 -0.000322241 -3.31757e-07
-0.000322241 2.05721e-05 1.22188e-07
-3.31757e-07 1.22188e-07 -0.000172061
0.00275138 -0.000230999 -7.47214e-05
-0.000230999 0.00131173 1.23004e-05
-7.47214e-05 1.23004e-05 0.00119123
0.00175857 -0.000402714 7.08412e-06
-0.000402714 8.44737e-05 -2.27999e-06
7.08412e-06 -2.27999e-06 -0.000146914
0.00301301 -0.00025695 5.37234e-05
-0.00025695 0.00146571 -6.74897e-06
5.37234e-05 -6.74897e-06 0.00134459
0.00283275 -0.000130761 -0.000319627
-0.000130761 0.00152432 4.25801e-05
-0.000319627 4.25801e-05 0.00150978
0.00327217 -0.000298981 0.000187987
-0.000298981 0.00162427 -3.15379e-05
0.000187987 -3.15379e-05 0.00150171
0.0025249 -0.000117705 -0.000116992
-0.000117705 0.00132792 1.67076e-05
-0.000116992 1.67076e-05 0.00128719
0.00220034 -0.000118082 9.29705e-05
-0.000118082 0.00113032 -1.69767e-05
9.29705e-05 -1.69767e-05 0.00105757
0.00239882 0.000340773 1.23341e-06
0.000340773 -4.53501e-05 2.90028e-07
1.23341e-06 2.90028e-07 -1.1233e-05
0.00233306 0.000473986 -2.88391e-06
0.000473986 6.9182e-05 1.10621e-07
-2.88391e-06 1.10621e-07 -1.65177e-05
0.00247962 0.000537511 -8.15259e-07
0.000537511 2.58635e-05 -3.029e-07
-8.15259e-07 -3.029e-07 2.96145e-06
0.00236166 0.000590673 9.44273e-08
0.000590673 0.000182882 1.45329e-06
9.44273e-08 1.45329e-06 -1.64018e-05
0.002451 0.000606281 -2.09879e-07
0.000606281 0.000175573 -4.18307e-08
-2.09879e-07 -4.18307e-08 4.23535e-05
0.00257268 0.000630762 8.03338e-08
0.000630762 0.000130467 7.06522e-07
8.03338e-08 7.06522e-07 4.47023e-05
0.00170483 0.000473359 -1.33194e-05
0.000473359 7.64947e-05 -1.3271e-06
-1.33194e-05 -1.3271e-06 -0.000199735
0.00230754 0.000678151 -7.2207e-07
0.000678151 0.000209831 -1.66995e-06
-7.2207e-07 -1.66995e-06 -5.48322e-05
0.00246155 0.000729935 -4.30372e-06
0.000729935 0.000167817 -4.23247e-06
-4.30372e-06 -4.23247e-06 -6.98748e-06
0.000409637 0.00028433 -2.15281e-05
0.00028433 -0.00025345 -1.58021e-05
-2.15281e-05 -1.58021e-05 -0.000458748
0.00170697 0.000546874 3.13339e-07
0.000546874 0.000102038 -1.26736e-07
3.13339e-07 -1.26736e-07 -0.000230172
0.00232973 0.000790827 -3.0111e-06
0.000790827 0.000294347 -1.2553e-05
-3.0111e-06 -1.2553e-05 -6.01908e-05
0.00186459 0.000673791 3.39674e-05
0.000673791 0.000288151 2.50252e-07
3.39674e-05 2.50252e-07 -0.000137114
0.000289353 0.000342097 4.96141e-07
0.000342097 -0.000315484 1.02625e-06
4.96141e-07 1.02625e-06 -0.000555346
0.00889737 0.000323013 -0.000418938
0.000323013 0.00554716 -6.58984e-05
-0.000418938 -6.58984e-05 0.0055489
-4.44899e-05 0.000317493 2.51824e-05
0.000317493 -0.000479274 2.38426e-05
2.51824e-05 2.38426e-05 -0.000721313
0.00967507 0.000227362 9.01365e-06
0.000227362 0.00603373 2.79364e-06
9.01365e-06 2.79364e-06 0.00605088
0.00949938 7.92825e-05 0.000386005
7.92825e-05 0.00592211 3.82901e-05
0.000386005 3.82901e-05 0.00593934
0.00243352 0.000195941 1.61613e-06
0.000195941 -5.79834e-05 2.43661e-08
1.61613e-06 2.43661e-08 2.97894e-05
0.00248845 0.000320244 5.10606e-07
0.000320244 -0.000158963 4.97419e-07
5.10606e-07 4.97419e-07 -3.29194e-05
0.00268838 0.00041586 -1.39441e-06
0.00041586 -0.000305983 -1.57269e-06
-1.39441e-06 -1.57269e-06 -5.41037e-05
0.00257925 0.000545404 5.36597e-07
0.000545404 -6.94804e-05 -8.47608e-07
5.36597e-07 -8.47608e-07 -1.06485e-05
0.00228425 4.96901e-05 -4.27756e-07
4.96901e-05 -4.50471e-05 2.83422e-08
-4.27756e-07 2.83422e-08 -9.79919e-07
0.00245024 9.54554e-05 1.41924e-07
9.54554e-05 -0.000105693 -7.39512e-08
1.41924e-07 -7.39512e-08 9.74341e-06
0.00256485 0.000114994 -1.45968e-06
0.000114994 -0.000152705 -9.6874e-08
-1.45968e-06 -9.6874e-08 1.80576e-05
0.00244033 -1.74932e-06 -2.96931e-06
-1.74932e-06 -0.000100997 1.9372e-07
-2.96931e-06 1.9372e-07 2.1759e-05
0.00234298 -2.54928e-05 -7.04682e-07
-2.54928e-05 -5.9862e-05 -1.62553e-07
-7.04682e-07 -1.62553e-07 1.74349e-05
0.0022625 -5.7336e-05 -4.13427e-06
-5.7336e-05 4.02665e-06 1.36573e-07
-4.13427e-06 1.36573e-07 2.52623e-05
0.00237059 -0.000148585 -8.24903e-07
-0.000148585 -8.16975e-05 4.73567e-07
-8.24903e-07 4.73567e-07 -4.04222e-06
0.00225616 -0.000160395 -1.57716e-06
-0.000160395 -2.19271e-05 2.82392e-07
-1.57716e-06 2.82392e-07 -4.28758e-06
0.00234083 -0.000183046 -2.78152e-06
-0.000183046 4.814e-05 6.73794e-07
-2.78152e-06 6.73794e-07 1.10066e-05
0.00226482 -0.000256967 4.61565e-06
-0.000256967 -2.37204e-05 -9.93593e-07
4.61565e-06 -9.93593e-07 -2.1013e-05
0.002415 -0.000275192 6.04465e-07
-0.000275192 0.000128409 -1.37513e-07
6.04465e-07 -1.37513e-07 6.47298e-05
0.00163261 -0.000182353 -5.6738e-06
-0.000182353 -9.66326e-06 1.05324e-06
-5.6738e-06 1.05324e-06 -0.00014702
0.00238242 -0.000373439 3.65399e-06
-0.000373439 0.000139385 -1.16869e-06
3.65399e-06 -1.16869e-06 4.09414e-05
0.00163779 -0.000247389 -1.24022e-07
-0.000247389 -1.59457e-05 1.52143e-08
-1.24022e-07 1.52143e-08 -0.000175854
0.000286657 -0.000124008 -1.56766e-05
-0.000124008 -0.000325226 7.08443e-06
-1.56766e-05 7.08443e-06 -0.000448279
0.00171001 -0.000324741 5.90186e-06
-0.000324741 2.95351e-05 -1.55881e-06
5.90186e-06 -1.55881e-06 -0.000162562
0.00163054 -0.000171766 7.86688e-05
-0.000171766 0.00055502 -7.00642e-06
7.86688e-05 -7.00642e-06 0.000442243
0.00741346 -0.000204432 -0.000413793
-0.000204432 0.00458482 3.62628e-05
-0.000413793 3.62628e-05 0.00461819
0.00314363 -0.000238758 0.000179414
-0.000238758 0.00154082 -2.40786e-05
0.000179414 -2.40786e-05 0.00143809
0.00241483 -0.000104149 -0.000105184
-0.000104149 0.00126247 1.0641e-05
-0.000105184 1.0641e-05 0.00122423
0.00208616 -0.000126162 0.000102369
-0.000126162 0.00106593 -1.77518e-05
0.000102369 -1.77518e-05 0.000994679
0.00235129 0.000230499 8.34928e-07
0.000230499 -1.74127e-05 -5.18135e-07
8.34928e-07 -5.18135e-07 1.4735e-05
0.0022755 0.000358908 -2.31155e-06
0.000358908 5.27448e-06 -4.46303e-10
-2.31155e-06 -4.46303e-10 -3.01335e-05
0.00241877 0.00033168 -3.52625e-07
0.00033168 -1.50153e-05 -5.24374e-08
-3.52625e-07 -5.24374e-08 1.0759e-05
0.00227659 0.000465914 3.72081e-07
0.000465914 9.64717e-05 1.18845e-06
3.72081e-07 1.18845e-06 -4.53836e-05
0.00235029 0.000477123 6.35673e-08
0.000477123 8.52246e-05 -2.09798e-07
6.35673e-08 -2.09798e-07 1.28494e-06
0.00248028 0.000539607 -3.74427e-07
0.000539607 3.5867e-06 -6.95235e-07
-3.74427e-07 -6.95235e-07 -5.21486e-06
0.00173014 0.000416785 -5.79357e-06
0.000416785 6.97856e-05 8.66843e-07
-5.79357e-06 8.66843e-07 -0.000153367
0.00231828 0.000583652 -1.78546e-06
0.000583652 0.000155447 -9.70039e-07
-1.78546e-06 -9.70039e-07 -4.72906e-05
0.0024354 0.00060218 1.85578e-06
0.00060218 0.000178192 -4.62792e-07
1.85578e-06 -4.62792e-07 3.5235e-05
0.00038757 0.000212631 -1.79447e-05
0.000212631 -0.000272547 -1.15154e-05
-1.79447e-05 -1.15154e-05 -0.00044581
0.0016498 0.000467754 5.06712e-07
0.000467754 4.62276e-05 4.10277e-07
5.06712e-07 4.10277e-07 -0.000221797
0.00230662 0.000687813 -2.85907e-06
0.000687813 0.00018971 -8.61223e-06
-2.85907e-06 -8.61223e-06 -6.31146e-05
0.00838728 0.000362269 -0.000414294
0.000362269 0.00522198 -6.26819e-05
-0.000414294 -6.26819e-05 0.00522294
0.000364781 0.000284178 2.3484e-07
0.000284178 -0.000289548 8.47786e-07
2.3484e-07 8.47786e-07 -0.000497987
0.00167445 0.000536942 2.3842e-05
0.000536942 9.77193e-05 4.73789e-07
2.3842e-05 4.73789e-07 -0.000232647
0.000235584 0.000330409 2.36209e-05
0.000330409 -0.000346864 2.02231e-05
2.36209e-05 2.02231e-05 -0.000587089
0.00910013 0.000323018 9.77502e-06
0.000323018 0.00567524 3.89805e-06
9.77502e-06 3.89805e-06 0.0056827
0.00987521 0.000201303 0.000452205
0.000201303 0.006144 4.85529e-05
0.000452205 4.85529e-05 0.00617002
0.00226188 0.000125333 -1.1778e-06
0.000125333 -4.01292e-05 8.49024e-08
-1.1778e-06 8.49024e-08 -1.2502e-05
0.00242742 0.000189928 -9.76938e-08
0.000189928 -6.44703e-05 4.55655e-08
-9.76938e-08 4.55655e-08 2.00442e-05
0.00246063 0.000326106 -7.31779e-07
0.000326106 -0.000184637 -5.65106e-07
-7.31779e-07 -5.65106e-07 -5.81146e-05
0.00226547 2.82979e-05 -6.26852e-06
2.82979e-05 4.23523e-05 -2.63297e-07
-6.26852e-06 -2.63297e-07 4.73089e-05
0.00227377 5.82339e-05 8.64135e-07
5.82339e-05 -5.66668e-05 4.47251e-08
8.64135e-07 4.47251e-08 -7.3518e-06
0.00245044 8.22367e-05 -1.88115e-06
8.22367e-05 -0.000110385 -7.23971e-09
-1.88115e-06 -7.23971e-09 8.79208e-06
0.00235542 -1.9348e-05 -6.69987e-07
-1.9348e-05 -5.72995e-05 2.56799e-07
-6.69987e-07 2.56799e-07 2.3962e-05
0.00226585 -5.71523e-05 -2.10216e-07
-5.71523e-05 4.86973e-06 9.28815e-09
-2.10216e-07 9.28815e-09 2.76399e-05
0.00210848 -8.32559e-05 -2.79273e-06
-8.32559e-05 -0.000101851 3.00018e-07
-2.79273e-06 3.00018e-07 -0.000149196
0.00230807 -0.000161853 3.85749e-06
-0.000161853 2.57399e-05 -3.95314e-07
3.85749e-06 -3.95314e-07 3.50316e-05
0.00231552 -0.00018564 4.47189e-07
-0.00018564 4.22164e-05 1.68257e-08
4.47189e-07 1.68257e-08 -6.89629e-06
0.00173735 -0.00011987 -5.96791e-06
-0.00011987 6.18964e-05 6.98534e-07
-5.96791e-06 6.98534e-07 -4.62789e-05
0.00239644 -0.000274176 3.98259e-06
-0.000274176 0.000120414 -1.32951e-06
3.98259e-06 -1.32951e-06 5.63311e-05
0.00160508 -0.000178881 6.34437e-08
-0.000178881 -4.37692e-05 -2.66171e-08
6.34437e-08 -2.66171e-08 -0.000180124
0.000233737 -5.03859e-05 -1.38646e-05
-5.03859e-05 -0.000348488 4.12523e-06
-1.38646e-05 4.12523e-06 -0.000456722
0.00163106 -0.000246129 5.15389e-06
-0.000246129 -3.71445e-05 -1.36414e-06
5.15389e-06 -1.36414e-06 -0.000196103
0.000295702 -0.000108182 -3.69519e-07
-0.000108182 -0.000313319 4.51852e-07
-3.69519e-07 4.51852e-07 -0.00043481
0.00727164 -9.73218e-05 -0.000400312
-9.73218e-05 0.00448264 2.36851e-05
-0.000400312 2.36851e-05 0.00452365
0.00044535 -0.000128715 1.24302e-05
-0.000128715 -0.000229489 -9.18051e-06
1.24302e-05 -9.18051e-06 -0.000364483
0.00477938 -0.000136088 0.00016794
-0.000136088 0.00284392 -1.09384e-05
0.00016794 -1.09384e-05 0.00282939
0.00196966 -0.000108069 0.000104512
-0.000108069 0.000994106 -1.58766e-05
0.000104512 -1.58766e-05 0.000927961
0.0023606 0.000193904 -3.83122e-06
0.000193904 6.59883e-05 -3.88921e-07
-3.83122e-06 -3.88921e-07 8.23344e-05
0.00224274 0.000255302 -5.53583e-06
0.000255302 2.03265e-05 -2.17699e-07
-5.53583e-06 -2.17699e-07 -6.0458e-06
0.0023374 0.000220325 -8.04995e-07
0.000220325 -2.04825e-05 -3.47584e-07
-8.04995e-07 -3.47584e-07 1.23856e-05
0.00238455 0.000378727 -5.51788e-07
0.000378727 0.000161101 6.16004e-07
-5.51788e-07 6.16004e-07 5.15302e-05
0.00229588 0.000355482 -1.07168e-07
0.000355482 2.18446e-05 -2.02386e-07
-1.07168e-07 -2.02386e-07 -1.50386e-05
0.00244158 0.000323001 -2.58611e-07
0.000323001 1.77785e-05 -2.95106e-07
-2.58611e-07 -2.95106e-07 3.51698e-05
0.00167543 0.000332847 -2.83902e-06
0.000332847 2.14914e-05 2.54209e-07
-2.83902e-06 2.54209e-07 -0.000162598
0.00230942 0.000467404 9.7617e-07
0.000467404 0.000131265 5.29806e-08
9.7617e-07 5.29806e-08 -2.09725e-05
0.00236821 0.000480361 3.05567e-06
0.000480361 0.000101398 -1.472e-08
3.05567e-06 -1.472e-08 1.96879e-05
0.000344294 0.000159245 -1.55057e-05
0.000159245 -0.000295261 -8.21471e-06
-1.55057e-05 -8.21471e-06 -0.000445888
0.00170589 0.000407809 2.37866e-06
0.000407809 6.07224e-05 1.28725e-06
2.37866e-06 1.28725e-06 -0.000158631
0.0022881 0.000577592 -3.36643e-06
0.000577592 0.000136825 -3.56803e-06
-3.36643e-06 -3.56803e-06 -6.8991e-05
0.00793418 0.000372627 -0.000417754
0.000372627 0.00494308 -5.76065e-05
-0.000417754 -5.76065e-05 0.00494468
0.000361021 0.00021762 4.93194e-07
0.00021762 -0.000295786 5.32501e-07
4.93194e-07 5.32501e-07 -0.000472583
0.00160801 0.000464374 1.37286e-05
0.000464374 2.3231e-05 2.69867e-07
1.37286e-05 2.69867e-07 -0.000237262
0.00852326 0.000387735 1.16501e-05
0.000387735 0.00532177 6.15646e-06
1.16501e-05 6.15646e-06 0.00531961
0.000307293 0.000282684 1.93598e-05
0.000282684 -0.000334833 1.65539e-05
1.93598e-05 1.65539e-05 -0.000546362
0.00915059 0.000305371 0.000453471
0.000305371 0.00569146 5.82984e-05
0.000453471 5.82984e-05 0.00571023
0.00223603 9.97373e-05 -6.1399e-06
9.97373e-05 2.67561e-05 -1.30184e-07
-6.1399e-06 -1.30184e-07 2.04582e-05
0.00226683 0.000133397 -7.19976e-07
0.000133397 -2.9066e-05 -3.1595e-07
-7.19976e-07 -3.1595e-07 -1.12606e-06
0.00242179 0.00018428 -1.21736e-06
0.00018428 -7.02686e-05 4.29084e-09
-1.21736e-06 4.29084e-09 1.08012e-05
0.00210737 3.99791e-06 -1.63699e-06
3.99791e-06 -9.67611e-05 -4.61777e-08
-1.63699e-06 -4.61777e-08 -0.000144438
0.0022619 3.15358e-05 -1.83144e-07
3.15358e-05 3.41746e-05 2.55917e-08
-1.83144e-07 2.55917e-08 4.36317e-05
0.00226364 6.72095e-05 3.00913e-07
6.72095e-05 -6.79736e-05 2.7146e-07
3.00913e-07 2.7146e-07 -1.34417e-05
0.00226874 -5.71207e-05 3.5296e-06
-5.71207e-05 5.64803e-06 -5.44785e-08
3.5296e-06 -5.44785e-08 2.97564e-05
0.00215965 -8.20869e-05 -1.66733e-06
-8.20869e-05 -5.93767e-05 1.73647e-07
-1.66733e-06 1.73647e-07 -0.000104551
0.0015985 -5.06617e-05 -4.16659e-06
-5.06617e-05 -1.91705e-05 4.34932e-07
-4.16659e-06 4.34932e-07 -0.000120404
0.00230381 -0.000188407 2.17967e-06
-0.000188407 4.65958e-05 -9.99893e-07
2.17967e-06 -9.99893e-07 -1.43016e-05
0.00167611 -0.000121587 3.12844e-06
-0.000121587 1.15767e-05 -2.27973e-07
3.12844e-06 -2.27973e-07 -0.00010365
0.000195263 -2.37219e-05 -1.38175e-05
-2.37219e-05 -0.000357945 2.70155e-06
-1.38175e-05 2.70155e-06 -0.000458661
0.00157381 -0.000177229 5.81723e-06
-0.000177229 -7.76332e-05 -1.40843e-06
5.81723e-06 -1.40843e-06 -0.000213324
0.000226271 -5.83112e-05 3.9879e-07
-5.83112e-05 -0.00034709 -3.81094e-07
3.9879e-07 -3.81094e-07 -0.000454311
0.00703808 -0.000182177 -0.000397602
-0.000182177 0.00435073 2.53146e-05
-0.000397602 2.53146e-05 0.0043838
0.000286262 -9.22574e-05 1.36376e-05
-9.22574e-05 -0.000314047 -5.61443e-06
1.36376e-05 -5.61443e-06 -0.000433237
0.00718774 -0.000131022 6.36479e-06
-0.000131022 0.00443376 3.47364e-07
6.36479e-06 3.47364e-07 0.00447284
0.00221402 -5.9058e-05 0.000302201
-5.9058e-05 0.00112259 -2.46984e-05
0.000302201 -2.46984e-05 0.00111732
0.00227389 0.000181506 -7.88344e-06
0.000181506 6.9795e-05 -5.22715e-07
-7.88344e-06 -5.22715e-07 4.96477e-05
0.00226077 0.000195063 -6.59508e-07
0.000195063 -1.63094e-05 -1.96997e-08
-6.59508e-07 -1.96997e-08 9.32468e-06
0.00239 0.000281405 5.19533e-07
0.000281405 0.00014166 6.2891e-07
5.19533e-07 6.2891e-07 6.09112e-05
0.00224812 0.000255637 6.00741e-07
0.000255637 2.02899e-05 4.87923e-08
6.00741e-07 4.87923e-08 -6.41882e-06
0.00232257 0.000209917 -2.87783e-07
0.000209917 -2.46571e-05 -2.22144e-07
-2.87783e-07 -2.22144e-07 9.2352e-06
0.00159256 0.000250471 -1.53969e-06
0.000250471 -3.10666e-05 -2.6265e-07
-1.53969e-06 -2.6265e-07 -0.000200408
0.00238209 0.000378959 3.42539e-07
0.000378959 0.000152665 1.94223e-08
3.42539e-07 1.94223e-08 4.32771e-05
0.00231274 0.00035172 3.56438e-06
0.00035172 3.48278e-05 5.6024e-07
3.56438e-06 5.6024e-07 -3.29643e-06
0.00032514 0.000119292 -1.42933e-05
0.000119292 -0.000295362 -5.93805e-06
-1.42933e-05 -5.93805e-06 -0.000429643
0.00164715 0.000327167 3.19931e-06
0.000327167 1.61644e-05 1.12802e-06
3.19931e-06 1.12802e-06 -0.000173917
0.00233035 0.000468959 -3.19776e-07
0.000468959 0.000156985 -1.14769e-06
-3.19776e-07 -1.14769e-06 -6.61508e-06
0.00758265 0.000346394 -0.000423336
0.000346394 0.00472687 -5.09058e-05
-0.000423336 -5.09058e-05 0.004733
0.000361227 0.000167457 4.28157e-07
0.000167457 -0.000287582 2.45295e-07
4.28157e-07 2.45295e-07 -0.000441615
0.0016672 0.000397799 8.68026e-06
0.000397799 4.10634e-05 1.58182e-06
8.68026e-06 1.58182e-06 -0.000174337
0.00809252 0.000402966 8.54947e-06
0.000402966 0.00505764 6.17343e-06
8.54947e-06 6.17343e-06 0.00505382
0.000344028 0.000221604 1.63869e-05
0.000221604 -0.00031256 1.21914e-05
1.63869e-05 1.21914e-05 -0.000492788
0.00869391 0.000406312 0.000452556
0.000406312 0.00543052 6.77982e-05
0.000452556 6.77982e-05 0.00543141
0.00206585 9.64781e-05 3.11583e-07
9.64781e-05 -0.000107533 -3.7772e-07
3.11583e-07 -3.7772e-07 -0.000166696
0.00226638 0.000100204 -1.97211e-06
0.000100204 5.38217e-05 -5.79767e-08
-1.97211e-06 -5.79767e-08 4.60561e-05
0.00226967 0.000141375 2.12946e-06
0.000141375 -1.92796e-05 5.60266e-08
2.12946e-06 5.60266e-08 8.95852e-06
0.00158923 -3.11439e-06 -2.74648e-06
-3.11439e-06 -1.20939e-05 3.16825e-07
-2.74648e-06 3.16825e-07 -0.000113554
0.00214398 5.19441e-06 -1.69648e-06
5.19441e-06 -6.24321e-05 4.138e-08
-1.69648e-06 4.138e-08 -0.000109522
0.00225809 3.43093e-05 4.39901e-06
3.43093e-05 2.61021e-05 3.4044e-07
4.39901e-06 3.4044e-07 3.9967e-05
0.00221189 -8.13137e-05 -1.20061e-06
-8.13137e-05 -1.59639e-05 2.28148e-08
-1.20061e-06 2.28148e-08 -5.90257e-05
0.00169429 -5.45094e-05 2.47759e-06
-5.45094e-05 4.15453e-05 -7.96033e-08
2.47759e-06 -7.96033e-08 -5.87443e-05
0.000214774 -3.39443e-05 -1.45873e-05
-3.39443e-05 -0.000336552 1.87639e-06
-1.45873e-05 1.87639e-06 -0.000432037
0.00160491 -0.000122319 8.86219e-06
-0.000122319 -4.79088e-05 -1.56797e-06
8.86219e-06 -1.56797e-06 -0.000170236
0.000205857 -1.26233e-05 -2.60967e-08
-1.26233e-05 -0.000350492 6.79217e-08
-2.60967e-08 6.79217e-08 -0.0004494
0.00693449 -0.000145964 -0.000397295
-0.000145964 0.00428034 1.9387e-05
-0.000397295 1.9387e-05 0.00431833
0.000258676 -6.32794e-05 1.43878e-05
-6.32794e-05 -0.000318321 -4.10605e-06
1.43878e-05 -4.10605e-06 -0.000425536
0.00703358 -8.37954e-05 -2.62578e-06
-8.37954e-05 0.00433248 3.93061e-06
-2.62578e-06 3.93061e-06 0.00437521
0.00715604 -0.000144084 0.000397264
-0.000144084 0.00441624 -2.33407e-05
0.000397264 -2.33407e-05 0.00445487
0.00234506 0.000185247 1.33862e-06
0.000185247 0.000110581 -2.05867e-07
1.33862e-06 -2.05867e-07 4.61897e-05
0.00221448 0.000182932 -5.42565e-07
0.000182932 1.5012e-05 8.03699e-08
-5.42565e-07 8.03699e-08 -5.02234e-07
0.00216376 0.00019641 2.05042e-06
0.00019641 -9.70881e-05 3.15121e-07
2.05042e-06 3.15121e-07 -6.23855e-05
0.00154108 0.000173983 -3.83866e-07
0.000173983 -5.95157e-05 -3.13933e-09
-3.83866e-07 -3.13933e-09 -0.000206985
0.00239392 0.000279733 3.09545e-07
0.000279733 0.000141486 -2.93126e-08
3.09545e-07 -2.93126e-08 6.11178e-05
0.00225947 0.000256307 4.94364e-06
0.000256307 2.48343e-05 5.25363e-08
4.94364e-06 5.25363e-08 -2.44605e-06
0.000284309 8.27838e-05 -1.32343e-05
8.27838e-05 -0.000307374 -4.29203e-06
-1.32343e-05 -4.29203e-06 -0.000427939
0.00162565 0.000251323 6.07317e-09
0.000251323 7.85825e-06 1.93543e-07
6.07317e-09 1.93543e-07 -0.00016239
0.00239738 0.000379759 6.1945e-07
0.000379759 0.000158083 -6.74206e-07
6.1945e-07 -6.74206e-07 4.88709e-05
0.00730202 0.000280385 -0.000424668
0.000280385 0.00454002 -4.08585e-05
-0.000424668 -4.08585e-05 0.00455927
0.000337714 0.000128532 3.40891e-07
0.000128532 -0.000289803 1.94023e-07
3.40891e-07 1.94023e-07 -0.000427255
0.00161181 0.000320452 5.32374e-06
0.000320452 6.56781e-06 1.55343e-06
5.32374e-06 1.55343e-06 -0.000188942
0.00769951 0.00036694 5.00185e-06
0.00036694 0.00480727 3.84615e-06
5.00185e-06 3.84615e-06 0.00481106
0.000373176 0.000176812 1.53184e-05
0.000176812 -0.000281843 9.14196e-06
1.53184e-05 9.14196e-06 -0.00043991
0.00826091 0.000447038 0.000453187
0.000447038 0.00518235 7.11806e-05
0.000453187 7.11806e-05 0.00517197
0.00146643 5.38865e-05 -3.13933e-06
5.38865e-05 -8.77459e-05 3.81167e-07
-3.13933e-06 3.81167e-07 -0.000210848
0.00218551 9.43484e-05 -3.08993e-06
9.43484e-05 -2.14919e-05 -3.03154e-07
-3.08993e-06 -3.03154e-07 -7.13951e-05
0.00230063 0.000101021 5.22102e-06
0.000101021 8.3165e-05 5.2979e-07
5.22102e-06 5.2979e-07 7.40863e-05
0.000246181 3.23144e-05 -1.53231e-05
3.23144e-05 -0.000316865 -1.9356e-07
-1.53231e-05 -1.9356e-07 -0.000404835
0.00166904 -7.82857e-07 2.70405e-06
-7.82857e-07 3.87228e-05 6.78265e-08
2.70405e-06 6.78265e-08 -6.17604e-05
0.00218505 8.24471e-06 -2.24946e-06
8.24471e-06 -2.53066e-05 2.11446e-09
-2.24946e-06 2.11446e-09 -7.16136e-05
0.00178195 -5.77268e-05 1.03787e-05
-5.77268e-05 9.70609e-05 -1.061e-06
1.03787e-05 -1.061e-06 -2.27136e-06
0.000209235 -9.14462e-06 2.37893e-07
-9.14462e-06 -0.000338828 3.79739e-07
2.37893e-07 3.79739e-07 -0.000434082
0.00681292 -5.84745e-06 -0.000397936
-5.84745e-06 0.00419008 4.98001e-06
-0.000397936 4.98001e-06 0.00423763
0.000202199 -1.10123e-06 1.41706e-05
-1.10123e-06 -0.000352472 -1.75603e-06
1.41706e-05 -1.75603e-06 -0.00044952
0.00687908 -0.000142542 -6.90015e-06
-0.000142542 0.00424638 2.42912e-06
-6.90015e-06 2.42912e-06 0.00428375
0.00696491 -6.75734e-05 0.00038341
-6.75734e-05 0.00428735 -1.41061e-05
0.00038341 -1.41061e-05 0.00433046
0.00153365 0.000109684 -1.90619e-06
0.000109684 -4.35315e-05 -3.0119e-08
-1.90619e-06 -3.0119e-08 -0.000176087
0.00230079 0.000180544 -2.77987e-07
0.000180544 7.32458e-05 -3.16534e-07
-2.77987e-07 -3.16534e-07 1.22331e-05
0.00215084 0.000184129 3.62426e-06
0.000184129 -4.21917e-05 -2.93872e-07
3.62426e-06 -2.93872e-07 -5.30071e-05
0.00273869 9.46811e-05 -0.000171759
9.46811e-05 0.00132766 -7.73245e-06
-0.000171759 -7.73245e-06 0.00126762
0.0015866 0.000175878 -1.80884e-08
0.000175878 -1.49216e-05 8.09412e-08
-1.80884e-08 8.09412e-08 -0.000163211
0.00238993 0.000277556 3.37011e-07
0.000277556 0.00013649 -6.12228e-07
3.37011e-07 -6.12228e-07 5.65791e-05
0.00711151 0.000210237 -0.000420512
0.000210237 0.00440672 -3.0093e-05
-0.000420512 -3.0093e-05 0.00443837
0.000307723 0.000102822 4.79438e-07
0.000102822 -0.000293181 4.64418e-07
4.79438e-07 4.64418e-07 -0.000417109
0.00166514 0.000251871 1.49445e-06
0.000251871 5.11931e-05 3.66426e-07
1.49445e-06 3.66426e-07 -0.000119934
0.00741392 0.000297998 2.49483e-06
0.000297998 0.00461387 2.1185e-06
2.49483e-06 2.1185e-06 0.00463115
0.000364921 0.000140183 1.49764e-05
0.000140183 -0.000273829 7.10736e-06
1.49764e-05 7.10736e-06 -0.000415106
0.00782397 0.000402194 0.000444414
0.000402194 0.00490119 6.39253e-05
0.000444414 6.39253e-05 0.00489908
0.000354552 2.12774e-05 -1.19031e-05
2.12774e-05 -0.000235118 -1.22498e-06
-1.19031e-05 -1.22498e-06 -0.000332796
0.00157121 5.43374e-05 -9.75158e-07
5.43374e-05 -1.47161e-05 -4.73733e-08
-9.75158e-07 -4.73733e-08 -0.000129758
0.00227927 9.08841e-05 -2.23805e-06
9.08841e-05 4.49722e-05 2.91822e-07
-2.23805e-06 2.91822e-07 3.99901e-06
0.00668897 -9.97021e-05 -0.000381753
-9.97021e-05 0.00412574 6.92389e-06
-0.000381753 6.92389e-06 0.00416327
0.000207104 1.40583e-05 -6.77372e-07
1.40583e-05 -0.000338738 -3.05446e-07
-6.77372e-07 -3.05446e-07 -0.000429201
0.00175398 -2.41097e-08 9.23368e-06
-2.41097e-08 9.24924e-05 -6.53078e-07
9.23368e-06 -6.53078e-07 -7.05587e-06
0.000188932 1.52699e-05 1.44666e-05
1.52699e-05 -0.000352858 -4.91615e-07
1.44666e-05 -4.91615e-07 -0.000446764
0.00675862 -3.74723e-05 1.51984e-06
-3.74723e-05 0.00416196 -2.15123e-06
1.51984e-06 -2.15123e-06 0.00420382
0.00684457 -7.25715e-05 0.000385655
-7.25715e-05 0.00421033 -1.05372e-05
0.000385655 -1.05372e-05 0.00425411
0.00285415 4.06371e-05 -0.000166902
4.06371e-05 0.00140795 -4.02242e-06
-0.000166902 -4.02242e-06 0.00135609
0.00154698 0.000112478 -2.00631e-07
0.000112478 -2.96176e-05 2.76019e-08
-2.00631e-07 2.76019e-08 -0.000162891
0.0022617 0.000176072 -2.27519e-07
0.000176072 3.87626e-05 -6.10961e-07
-2.27519e-07 -6.10961e-07 -1.89036e-05
0.00666608 1.80449e-05 -0.00018808
1.80449e-05 0.00412295 -2.67316e-06
-0.00018808 -2.67316e-06 0.00411499
0.00026747 8.06184e-05 4.67432e-07
8.06184e-05 -0.00030782 2.00926e-07
4.67432e-07 2.00926e-07 -0.000418963
0.00163377 0.000178866 1.05608e-06
0.000178866 2.85833e-05 -4.77119e-08
1.05608e-06 -4.77119e-08 -0.000120664
0.00717081 0.000188522 -6.71703e-06
0.000188522 0.00443763 -1.61707e-06
-6.71703e-06 -1.61707e-06 0.00447077
0.00032864 0.000123804 1.58397e-05
0.000123804 -0.000281739 6.0342e-06
1.58397e-05 6.0342e-06 -0.000408344
0.00748443 0.000318448 0.000437084
0.000318448 0.00466373 5.1449e-05
0.000437084 5.1449e-05 0.00467961
0.00212573 -4.54923e-05 -0.000293022
-4.54923e-05 0.00106654 1.90368e-06
-0.000293022 1.90368e-06 0.00107645
0.00147856 4.33275e-05 -7.51608e-05
4.33275e-05 0.000500493 -5.30765e-07
-7.51608e-05 -5.30765e-07 0.000431269
0.00169146 5.74921e-05 5.12254e-06
5.74921e-05 7.08555e-05 -2.25429e-07
5.12254e-06 -2.25429e-07 -3.59442e-05
0.00673829 -4.6657e-05 6.33396e-06
-4.6657e-05 0.00415189 3.78761e-06
6.33396e-06 3.78761e-06 0.00419535
0.000205715 -2.3683e-06 1.51448e-05
-2.3683e-06 -0.000333276 -1.63103e-08
1.51448e-05 -1.63103e-08 -0.000427251
0.00676439 -9.42247e-05 0.00039748
-9.42247e-05 0.0041714 -8.32721e-06
0.00039748 -8.32721e-06 0.00421285
0.00168541 3.4989e-05 -8.74353e-05
3.4989e-05 0.000813505 -2.3681e-06
-8.74353e-05 -2.3681e-06 0.000766123
0.00148889 4.1147e-05 -7.566e-05
4.1147e-05 0.000503065 -2.57507e-06
-7.566e-05 -2.57507e-06 0.000426893
0.00156116 0.000113442 2.17196e-06
0.000113442 -1.38651e-05 -1.5771e-07
2.17196e-06 -1.5771e-07 -0.000147747
0.0043848 9.75003e-05 0.000150024
9.75003e-05 0.00259216 6.26563e-06
0.000150024 6.26563e-06 0.00258792
0.000238584 9.17048e-05 1.56482e-05
9.17048e-05 -0.000330304 4.62467e-06
1.56482e-05 4.62467e-06 -0.000442144
0.00722356 0.000176878 0.000414721
0.000176878 0.00446293 3.22994e-05
0.000414721 3.22994e-05 0.00449977
0.00673291 -3.65365e-06 -7.62906e-06
-3.65365e-06 0.00415389 -4.24638e-06
-7.62906e-06 -4.24638e-06 0.00419492
0.000222078 5.85576e-05 1.71287e-05
5.85576e-05 -0.000334738 2.11075e-06
1.71287e-05 2.11075e-06 -0.000424378
0.00667193 3.47367e-05 0.000387968
3.47367e-05 0.00410437 8.56234e-07
0.000387968 8.56234e-07 0.00415075
0.00429496 5.76184e-05 0.000159809
5.76184e-05 0.00253309 7.93039e-06
0.000159809 7.93039e-06 0.00253365
0.000246735 2.94316e-05 1.51426e-05
2.94316e-05 -0.000319587 2.32111e-06
1.51426e-05 2.32111e-06 -0.000419942
0.00699167 4.78857e-05 0.000399141
4.78857e-05 0.00430607 1.65314e-05
0.000399141 1.65314e-05 0.00434919
0.0067465 -9.11089e-05 0.000387708
-9.11089e-05 0.00416352 -3.40774e-06
0.000387708 -3.40774e-06 0.00420197
0.00678359 4.60109e-05 0.000390954
4.60109e-05 0.00417016 1.08711e-05
0.000390954 1.08711e-05 0.00421649
