# vtk DataFile Version 2.0
Wound Healing Simulation
ASCII
DATASET UNSTRUCTURED_GRID
POINTS 3012 float
69.9759 18.75 4
67.2507 60.3285 4
69.976 18.75 2
73.0099 25.446 4
71.1327 20.9142 4
68.6801 16.6661 4
67.826 19.9261 3.98348
67.2507 60.3286 2
71.1327 54.0858 4
68.6801 58.3339 4
65.6939 62.2254 4
65.3127 59.0018 3.98392
74.6784 42.3946 4
73.7221 47.2057 4
69.9759 18.75 0
73.0099 25.446 2
68.6801 16.6661 2
71.1327 20.9142 2
67.8264 19.9289 2
74.6792 32.6053 4
73.7222 27.7943 4
72.1454 23.1494 4
70.6146 26.221 3.9835
68.8863 21.9581 3.98417
67.2507 14.6715 4
66.6374 17.9717 3.98298
65.7976 21.0252 3.97508
67.2507 60.3285 0
71.1327 54.0858 2
68.6801 58.3339 2
65.694 62.2255 2
65.3139 58.999 2
72.1454 51.8506 4
69.9759 56.25 4
68.8367 53.1131 3.9831
64.0165 64.0165 4
66.611 57.134 3.98338
63.8863 60.7667 3.98599
63.501 57.7722 3.97657
60.3285 67.2507 4
74.6792 42.3947 2
73.7222 47.2057 2
74.9194 39.9526 4
74.2788 44.8158 4
72.1685 42.0857 3.98215
73.0099 49.554 4
71.2496 46.5983 3.98241
73.0099 25.446 0
71.1327 20.9142 0
68.6801 16.6661 0
67.826 19.9261 0.016517
74.6792 32.6053 2
73.7222 27.7943 2
67.2508 14.6715 2
72.1455 23.1494 2
70.6147 26.2216 2
66.6382 17.9748 2
68.8866 21.9602 2
65.7971 21.0255 2
74.9197 35.0474 4
74.2794 30.1841 4
72.1851 32.9432 3.9825
71.2786 28.4313 3.98293
69.8161 24.0598 3.98399
68.3476 26.951 3.97362
66.7633 22.9329 3.97467
65.694 12.7746 4
65.3243 16.1027 3.98464
64.7139 19.1952 3.97517
63.8863 22.0359 3.97135
71.1327 54.0858 0
65.6939 62.2254 0
68.6801 58.3339 0
65.3127 59.0018 0.0160804
72.1455 51.8506 2
69.9759 56.25 2
68.837 53.111 2
64.0165 64.0165 2
66.6119 57.1309 2
63.8877 60.7647 2
63.5008 57.7727 2
62.2254 65.694 4
58.8951 65.4145 3.9918
69.7693 50.989 3.9831
67.784 55.1674 3.98309
66.6497 52.2094 3.97329
62.3368 62.428 3.98847
64.6611 56.0317 3.97551
62.2036 59.4053 3.97824
61.8224 56.6805 3.97204
58.3339 68.6801 4
60.3285 67.2508 2
73.7221 47.2057 0
74.6784 42.3946 0
74.9197 39.9526 2
74.2794 44.8159 2
72.1682 42.0857 2
73.0099 49.554 2
71.2496 46.5979 2
75 37.5 4
72.4057 39.8023 3.98226
71.7829 44.353 3.98237
69.8044 41.7898 3.97237
70.5755 48.8137 3.98273
68.9128 46.0151 3.97255
74.6792 32.6053 0
73.7222 27.7943 0
67.2507 14.6715 0
72.1454 23.1494 0
70.6146 26.221 0.0165001
68.8863 21.9581 0.0158316
66.6374 17.9717 0.0170203
65.7976 21.0252 0.0249164
74.9197 35.0474 2
74.2794 30.1841 2
72.1848 32.9434 2
71.2786 28.4317 2
65.694 12.7745 2
65.3255 16.1052 2
69.8162 24.0609 2
68.3475 26.9512 2
64.7136 19.195 2
66.763 22.9333 2
63.8859 22.0358 2
72.4135 35.2241 3.98224
71.8042 30.6762 3.9827
69.8404 33.2679 3.97284
68.9668 29.0377 3.97329
67.612 24.9116 3.97396
66.1945 27.6341 3.96984
64.0165 10.9835 4
64.7564 23.8299 3.97077
63.8909 14.3263 3.98695
63.5142 17.4462 3.97744
62.9052 20.3223 3.97026
62.0903 22.9449 3.9694
60.6844 11.0971 3.98928
57.6125 11.4464 3.98247
72.1454 51.8506 0
69.9759 56.25 0
68.8367 53.1131 0.016904
64.0165 64.0165 0
63.8863 60.7667 0.0140124
66.611 57.134 0.0166181
63.501 57.7722 0.0234289
62.2255 65.694 2
58.8958 65.4142 2
69.7694 50.9878 2
67.7845 55.1645 2
66.6494 52.2089 2
62.338 62.4268 2
64.6608 56.0318 2
62.2036 59.4064 2
61.8221 56.6815 2
60.6694 63.9774 3.99032
57.0259 66.7352 3.99244
57.5586 63.693 3.98491
67.5079 50.177 3.97287
65.7021 54.1733 3.9741
64.5366 51.3848 3.96926
60.7738 60.9391 3.98071
62.8188 55.0667 3.97103
60.6581 58.1594 3.97309
60.325 55.7828 3.97113
56.25 69.9759 4
58.3339 68.6801 2
60.3285 67.2507 0
58.9216 9.65548 3.99023
62.2254 9.30607 4
73.0099 49.554 0
74.2788 44.8158 0
71.2496 46.5983 0.0175923
72.1685 42.0857 0.0178544
74.9194 39.9526 0
75 37.5 2
72.4056 39.8024 2
71.7828 44.3527 2
69.8042 41.7895 2
70.5755 48.8131 2
68.9128 46.0147 2
72.489 37.512 3.98202
70.0415 39.6573 3.97223
69.4309 43.9077 3.97253
67.5971 41.4974 3.96923
68.2664 48.1075 3.97258
66.7095 45.4398 3.96905
74.9197 35.0474 0
74.2794 30.1841 0
72.1851 32.9432 0.0174954
71.2786 28.4313 0.0170697
65.694 12.7746 0
65.3243 16.1027 0.0153622
69.8161 24.0598 0.0160087
68.3476 26.951 0.0263812
66.7633 22.9329 0.0253325
64.7139 19.1952 0.0248294
63.8863 22.0359 0.0286544
72.4134 35.2241 2
71.8042 30.6765 2
69.8401 33.2682 2
68.9668 29.0379 2
64.0165 10.9835 2
63.8921 14.328 2
63.514 17.4455 2
67.6118 24.912 2
66.1944 27.6342 2
62.9049 20.3218 2
64.756 23.8299 2
62.0899 22.9448 2
60.6855 11.0981 2
57.6127 11.4456 2
70.0581 35.3916 3.97233
69.4676 31.149 3.97288
67.6553 33.5906 3.96951
66.7721 29.6223 3.96953
65.5238 25.6989 3.97019
64.145 28.2558 3.9695
62.3423 12.6543 3.98829
62.8551 24.6382 3.96955
62.2003 15.7833 3.98022
61.8127 18.6859 3.97156
61.2125 21.3454 3.96816
60.4199 23.731 3.96882
59.2467 12.7778 3.98118
55.8745 10.2328 3.98415
56.4052 13.1138 3.97887
69.7693 50.989 0.0168964
62.2254 65.694 0
58.8951 65.4145 0.00819557
67.784 55.1674 0.0169094
66.6497 52.2094 0.0267109
62.3368 62.428 0.0115322
62.2036 59.4053 0.0217587
64.6611 56.0317 0.0244876
61.8224 56.6805 0.0279611
60.6704 63.9768 2
57.0265 66.7351 2
57.5587 63.6942 2
67.5077 50.1765 2
65.7017 54.173 2
64.5362 51.3848 2
60.7739 60.9404 2
62.8185 55.0674 2
60.6579 58.1607 2
60.3249 55.7832 2
55.0715 67.9321 3.99272
59.2198 62.3674 3.98204
55.8055 64.9111 3.98745
56.3272 62.0913 3.98067
65.3312 49.4082 3.96895
63.7045 53.2913 3.96964
62.4385 50.65 3.96799
59.3335 59.5578 3.97721
61.0725 54.3055 3.96931
59.2871 57.0089 3.97071
59.2372 55.1771 3.97408
48.1035 68.579 3.98863
50.9491 69.9318 3.99293
54.0858 71.1327 4
56.25 69.976 2
58.3339 68.6801 0
57.059 8.33555 3.99088
60.3285 7.74928 4
58.9226 9.6561 2
62.2255 9.30602 2
70.5755 48.8137 0.0172667
71.7829 44.353 0.0176252
68.9128 46.0151 0.0274462
69.8044 41.7898 0.0276335
72.4057 39.8023 0.0177409
75 37.5 0
72.4887 37.5121 2
70.0414 39.6572 2
69.4308 43.9074 2
67.5968 41.4972 2
68.2664 48.107 2
66.7095 45.4397 2
70.1294 37.5213 3.97225
67.8342 39.5121 3.96926
67.2235 43.4698 3.96915
65.5464 41.2088 3.96992
66.0683 47.418 3.96895
64.6474 44.8471 3.9691
72.4135 35.2241 0.0177602
71.8042 30.6762 0.0173031
69.8404 33.2679 0.0271605
68.9668 29.0377 0.0267052
64.0165 10.9835 0
63.8909 14.3263 0.0130496
63.5142 17.4462 0.0225552
67.612 24.9116 0.0260415
66.1945 27.6341 0.0301637
64.7564 23.8299 0.0292276
62.9052 20.3223 0.0297385
62.0903 22.9449 0.0305963
60.6844 11.0971 0.0107185
57.6125 11.4464 0.0175305
70.058 35.3918 2
69.4675 31.1492 2
67.6551 33.5906 2
66.7721 29.6223 2
62.3434 12.6557 2
62.2001 15.7824 2
61.8126 18.6848 2
65.5236 25.6989 2
64.1448 28.2558 2
61.2124 21.3451 2
62.8548 24.6382 2
60.4201 23.7311 2
59.2468 12.7772 2
56.405 13.1128 2
55.8746 10.2319 2
67.8701 35.5472 3.96929
67.2651 31.622 3.96943
65.6926 33.9273 3.97003
64.66 30.1924 3.9693
63.5366 26.4148 3.96948
62.2468 28.7801 3.97174
60.7762 14.2222 3.9811
61.039 25.3408 3.9701
60.6131 17.1274 3.97641
60.2175 19.8213 3.96769
59.6513 22.2634 3.96728
58.9661 24.3261 3.97036
54.0376 9.13565 3.9853
57.9105 14.332 3.97946
54.7867 12.0127 3.98024
55.3119 14.6485 3.97752
67.5079 50.177 0.0271319
57.0259 66.7352 0.00756149
60.6694 63.9774 0.00968184
57.5586 63.693 0.0150943
65.7021 54.1733 0.0259031
64.5366 51.3848 0.0307377
60.7738 60.9391 0.0192923
60.6581 58.1594 0.0269097
62.8188 55.0667 0.0289675
60.325 55.7828 0.0288733
55.0719 67.9322 2
59.2199 62.3685 2
55.8055 64.9121 2
56.3272 62.0926 2
65.331 49.4081 2
63.7041 53.2915 2
62.4385 50.65 2
59.3335 59.5591 2
61.0725 54.3058 2
59.2872 57.0092 2
59.2374 55.1772 2
53.0433 69 3.99285
53.968 66.0135 3.98824
57.8808 60.8709 3.97903
54.6844 63.209 3.98325
55.2111 60.6166 3.97855
63.1882 48.6592 3.96827
61.7371 52.5723 3.96815
60.2554 50.0125 3.96819
58.017 58.26 3.97313
59.3193 53.9406 3.96863
58.1215 55.8027 3.96803
50.1103 67.857 3.9886
47.4638 66.5816 3.98599
46.057 69.1583 3.98864
48.1035 68.5795 2
48.8032 70.7231 3.99301
50.9495 69.9319 2
51.8506 72.1454 4
54.0858 71.1327 2
56.25 69.9759 0
55.1035 7.14017 3.99139
58.3339 6.31992 4
57.0597 8.33583 2
60.3286 7.74926 2
58.9216 9.65548 0.00976724
62.2254 9.30607 0
68.2664 48.1075 0.0274215
69.4309 43.9077 0.027473
66.7095 45.4398 0.0309523
67.5971 41.4974 0.0307738
70.0415 39.6573 0.02777
72.489 37.512 0.0179804
70.1293 37.5213 2
67.8342 39.512 2
67.2233 43.4697 2
65.546 41.2087 2
66.0682 47.4179 2
64.6471 44.8469 2
67.9304 37.5217 3.96922
65.7771 39.3695 3.97012
65.1704 43.0242 3.96951
63.7219 40.9277 3.97233
63.9575 46.715 3.96862
62.7875 44.213 3.97218
70.0581 35.3916 0.0276679
69.4676 31.149 0.0271207
67.6553 33.5906 0.0304878
66.7721 29.6223 0.0304701
62.3423 12.6543 0.0117077
62.2003 15.7833 0.01978
61.8127 18.6859 0.0284351
65.5238 25.6989 0.029809
64.145 28.2558 0.0304967
62.8551 24.6382 0.0304521
61.2125 21.3454 0.0318423
60.4199 23.731 0.0311826
59.2467 12.7778 0.0188246
56.4052 13.1138 0.0211286
55.8745 10.2328 0.0158467
67.8701 35.5473 2
67.265 31.622 2
65.6925 33.9273 2
64.6598 30.1923 2
60.7761 14.2215 2
60.6128 17.1261 2
60.2176 19.8204 2
63.5363 26.4148 2
62.2463 28.7803 2
59.6516 22.2636 2
61.0388 25.3409 2
58.9658 24.3265 2
57.9101 14.3311 2
55.3114 14.6477 2
54.0377 9.13493 2
54.7866 12.0116 2
65.8668 35.6666 3.96992
65.1788 32.1546 3.96959
64.2617 34.25 3.97188
62.5704 30.638 3.9719
61.6388 27.0754 3.97054
60.8241 29.1441 3.97476
59.3111 15.6684 3.97876
59.3094 25.8026 3.97276
59.1212 18.358 3.97292
58.7291 20.8619 3.96523
58.271 23.0993 3.96664
57.9452 24.6722 3.97184
52.1123 8.15381 3.98623
53.058 11.0182 3.98163
56.6761 15.7438 3.97868
53.8089 13.6835 3.97817
54.3749 16.0027 3.97788
55.0715 67.9321 0.00727828
65.3312 49.4082 0.0310457
55.8055 64.9111 0.0125511
59.2198 62.3674 0.0179609
56.3272 62.0913 0.0193261
63.7045 53.2913 0.0303619
62.4385 50.65 0.032014
59.3335 59.5578 0.0227898
59.2871 57.0089 0.0292914
61.0725 54.3055 0.0306911
59.2372 55.1771 0.0259178
53.0437 69 2
53.9678 66.0142 2
57.8806 60.872 2
54.6844 63.2102 2
55.2111 60.6181 2
63.1881 48.6591 2
61.7369 52.5723 2
60.2555 50.0123 2
58.0169 58.2616 2
59.3195 53.9405 2
58.1215 55.8026 2
52.0714 67.0001 3.98853
52.954 64.22 3.9851
56.6476 59.4883 3.97674
53.6812 61.6235 3.9809
54.2588 59.3206 3.97607
60.9647 47.8739 3.96919
59.6967 52.0985 3.96783
57.9882 49.605 3.97101
56.7733 56.9783 3.97033
57.1081 54.1091 3.96659
50.1102 67.8575 2
49.3377 65.922 3.98593
47.4637 66.5821 2
46.8931 64.7369 3.98451
45.5588 67.0987 3.98594
43.9738 69.5906 3.98864
46.0571 69.1588 2
46.6098 71.3675 3.993
48.1035 68.579 0.0113745
48.8035 70.7232 2
49.554 73.0099 4
50.9491 69.9318 0.00707124
51.8506 72.1455 2
54.0858 71.1327 0
53.0647 6.07174 3.99164
55.1041 7.14026 2
56.25 5.02411 4
58.3339 6.3199 2
57.059 8.33555 0.00911564
60.3285 7.74928 0
66.0683 47.418 0.0310468
67.2235 43.4698 0.0308528
64.6474 44.8471 0.0309005
65.5464 41.2088 0.0300796
67.8342 39.5121 0.030742
70.1294 37.5213 0.0277457
67.9303 37.5217 2
65.7768 39.3694 2
65.1702 43.0241 2
63.7216 40.9276 2
63.9572 46.7148 2
62.7868 44.2128 2
65.8794 37.5013 3.96983
63.8584 39.2654 3.97194
63.2988 42.5474 3.9721
62.3775 40.6954 3.97461
61.9447 45.9143 3.97105
61.4089 43.6784 3.97526
67.8701 35.5472 0.0307082
67.2651 31.622 0.0305652
65.6926 33.9273 0.0299666
64.66 30.1924 0.0307028
60.7762 14.2222 0.0189048
60.6131 17.1274 0.0235922
60.2175 19.8213 0.0323149
63.5366 26.4148 0.0305165
62.2468 28.7801 0.028264
61.039 25.3408 0.029899
59.6513 22.2634 0.0327159
58.9661 24.3261 0.0296428
57.9105 14.332 0.0205407
55.3119 14.6485 0.0224783
54.0376 9.13565 0.0147024
54.7867 12.0127 0.0197566
65.8664 35.6666 2
65.1788 32.1546 2
64.2617 34.25 2
62.5701 30.638 2
59.3107 15.6674 2
59.1212 18.3567 2
58.7296 20.8619 2
61.6383 27.0755 2
60.824 29.1442 2
58.271 23.0996 2
59.3096 25.803 2
57.9449 24.6727 2
56.6754 15.7428 2
54.3741 16.002 2
53.8086 13.6823 2
52.1123 8.15319 2
53.0578 11.0173 2
64.0569 35.6322 3.97156
62.8916 33.0475 3.97232
60.5721 30.6155 3.97509
59.5391 27.916 3.97398
57.9383 16.9846 3.97722
57.7069 25.7342 3.97425
57.7077 19.4822 3.96954
57.3503 21.8509 3.9638
57.1596 23.956 3.96869
50.1125 7.28515 3.98711
51.2326 10.1259 3.98289
52.1717 12.7997 3.98002
55.5357 16.9754 3.97818
52.9761 15.2686 3.97564
53.7556 16.9858 3.97969
53.0433 69 0.00715254
53.968 66.0135 0.0117568
63.1882 48.6592 0.03173
54.6844 63.209 0.0167476
57.8808 60.8709 0.0209696
55.2111 60.6166 0.0214513
61.7371 52.5723 0.0318529
60.2554 50.0125 0.0318122
58.017 58.26 0.0268731
58.1215 55.8027 0.0319691
59.3193 53.9406 0.031365
52.0713 67.0006 2
52.9538 64.2207 2
56.6474 59.4893 2
53.6812 61.6249 2
54.2589 59.322 2
60.964 47.8736 2
59.6973 52.0983 2
57.9865 49.6045 2
56.7728 56.9828 2
57.1085 54.1089 2
51.1687 65.1291 3.98576
52.0467 62.5401 3.98303
55.4786 58.2482 3.97705
52.8336 60.1354 3.97873
53.6373 58.47 3.97971
58.2515 46.8376 3.97384
57.5402 51.774 3.96856
56.1949 49.5396 3.97137
55.4631 55.777 3.96717
55.3364 53.3658 3.9663
50.1103 67.857 0.0114016
49.3375 65.9226 2
48.6189 64.1236 3.98465
47.4638 66.5816 0.014008
45.5588 67.0993 2
46.893 64.7374 2
46.3828 63.054 3.98389
45.1334 65.1979 3.98443
43.6319 67.4693 3.98596
41.8609 69.878 3.98849
43.9739 69.5911 2
44.3771 71.8624 3.99289
46.057 69.1583 0.0113623
46.6101 71.3678 2
47.2057 73.7222 4
48.8032 70.7231 0.00699369
49.554 73.0099 2
51.8506 72.1454 0
50.9545 5.1319 3.99207
53.0652 6.07169 2
54.0858 3.86728 4
55.1035 7.14017 0.00860732
56.25 5.02406 2
58.3339 6.31992 0
63.9575 46.715 0.0313827
65.1704 43.0242 0.0304851
62.7875 44.213 0.0278192
63.7219 40.9277 0.0276687
65.7771 39.3695 0.0298769
67.9304 37.5217 0.0307773
65.879 37.5013 2
63.8579 39.2654 2
63.2984 42.5473 2
62.3771 40.6953 2
61.9437 45.914 2
61.408 43.6782 2
63.9206 37.4563 3.9716
62.0905 39.3534 3.97354
61.1582 41.9541 3.97518
60.2091 44.7636 3.97514
65.8668 35.6666 0.0300782
65.1788 32.1546 0.0304114
64.2617 34.25 0.0281249
62.5704 30.638 0.0280976
59.3111 15.6684 0.0212392
59.1212 18.358 0.0270786
58.7291 20.8619 0.0347745
61.6388 27.0754 0.0294634
60.8241 29.1441 0.0252404
59.3094 25.8026 0.0272449
58.271 23.0993 0.033358
57.9452 24.6722 0.0281587
56.6761 15.7438 0.0213215
54.3749 16.0027 0.0221159
53.8089 13.6835 0.0218337
52.1123 8.15381 0.0137743
53.058 11.0182 0.0183677
64.0564 35.6322 2
62.8912 33.0476 2
60.5722 30.6156 2
57.9378 16.9835 2
57.7079 19.4805 2
57.351 21.8512 2
59.5387 27.9163 2
57.1583 23.9567 2
57.7076 25.7347 2
50.1125 7.28462 2
55.535 16.9744 2
53.7549 16.985 2
52.9757 15.2674 2
52.1714 12.7988 2
51.2325 10.1252 2
62.1258 35.3599 3.97312
60.221 32.7482 3.97508
58.5623 30.0827 3.97615
57.2407 27.3909 3.97538
56.6325 18.1601 3.97679
56.2519 25.1129 3.97185
56.3431 20.532 3.96756
56.0773 22.8821 3.96491
48.0564 6.52774 3.98807
49.3246 9.33286 3.98353
50.4331 11.9966 3.98107
51.3765 14.5025 3.97816
54.4106 17.9257 3.97908
52.358 17.0446 3.97514
52.0714 67.0001 0.0114732
52.954 64.22 0.0149025
60.9647 47.8739 0.0308113
53.6812 61.6235 0.0191045
56.6476 59.4883 0.0232577
54.2588 59.3206 0.0239274
59.6967 52.0985 0.0321664
57.9882 49.605 0.0289888
56.7733 56.9783 0.0296716
57.1081 54.1091 0.0334146
51.1685 65.1297 2
52.0464 62.5411 2
55.4784 58.2491 2
52.8336 60.1369 2
53.6372 58.4709 2
58.251 46.8372 2
57.5403 51.7737 2
56.1937 49.5391 2
55.4636 55.778 2
55.3374 53.3658 2
50.347 63.382 3.98417
51.2441 60.9362 3.98071
54.2141 57.2648 3.97715
52.3104 58.6319 3.97671
56.6171 44.168 3.97741
55.4238 47.8789 3.97384
55.0386 51.3743 3.96825
53.9871 54.5235 3.96618
49.3377 65.922 0.0140687
48.6187 64.1242 2
47.9629 62.4755 3.9838
45.5588 67.0987 0.0140649
46.8931 64.7369 0.0154923
43.6318 67.47 2
46.3827 63.0545 2
45.1332 65.1985 2
45.9883 61.5863 3.9836
44.768 63.4544 3.98354
43.3573 65.5073 3.98433
41.6639 67.6881 3.98565
39.7025 70.0251 3.98858
41.861 69.8786 2
42.1113 72.2072 3.9928
43.9738 69.5906 0.0113639
44.3773 71.8626 2
44.8159 74.2794 4
46.6098 71.3675 0.00699682
47.2057 73.7222 2
49.554 73.0099 0
48.7851 4.3227 3.99252
50.9549 5.13177 2
51.8506 2.85458 4
53.0647 6.07174 0.00835866
54.0858 3.86728 2
56.25 5.02411 0
61.9447 45.9143 0.028954
63.2988 42.5474 0.0278998
61.4089 43.6784 0.0247414
62.3775 40.6954 0.0253903
63.8584 39.2654 0.0280598
65.8794 37.5013 0.0301689
63.92 37.4563 2
62.0897 39.3533 2
61.1577 41.9539 2
60.208 44.7632 2
61.9294 37.444 3.97358
60.1668 39.8437 3.97638
58.9124 42.9093 3.97669
64.0569 35.6322 0.0284361
62.8916 33.0475 0.027682
60.5721 30.6155 0.0249094
57.9383 16.9846 0.0227788
57.7077 19.4822 0.0304565
57.3503 21.8509 0.0361985
59.5391 27.916 0.0260216
57.7069 25.7342 0.025755
57.1596 23.956 0.0313088
55.5357 16.9754 0.0218201
53.7556 16.9858 0.020307
52.9761 15.2686 0.0243628
50.1125 7.28515 0.0128889
52.1717 12.7997 0.0199797
51.2326 10.1259 0.0171126
62.1247 35.36 2
60.2199 32.7483 2
58.5616 30.0831 2
56.6321 18.1587 2
56.3434 20.5291 2
56.0778 22.8828 2
57.2424 27.3913 2
56.2525 25.1137 2
48.0564 6.52705 2
49.3245 9.33233 2
54.4102 17.9249 2
52.3573 17.0439 2
51.376 14.5014 2
50.4328 11.996 2
59.8063 35.1202 3.97598
57.903 32.2775 3.97698
56.4781 29.3513 3.97658
55.3869 26.6133 3.97561
55.3338 19.1944 3.97593
54.8873 24.0721 3.96735
54.9781 21.5772 3.96594
45.9624 5.88246 3.98875
43.3739 7.47377 3.98581
47.3552 8.62553 3.98444
48.6001 11.2971 3.98148
49.713 13.7477 3.98018
50.6312 16.1388 3.9774
53.118 18.6681 3.97499
51.2953 18.0584 3.98124
51.1687 65.1291 0.0142352
52.0467 62.5401 0.0169749
58.2515 46.8376 0.0261609
52.8336 60.1354 0.0212681
55.4786 58.2482 0.0229526
53.6373 58.47 0.0202854
57.5402 51.774 0.0314376
56.1949 49.5396 0.0286299
55.4631 55.777 0.0328318
55.3364 53.3658 0.0336983
50.3467 63.3825 2
51.2439 60.9372 2
54.214 57.266 2
52.3102 58.6328 2
56.6164 44.1675 2
55.4219 47.8781 2
55.0389 51.374 2
53.988 54.525 2
49.5924 61.7456 3.98284
55.4952 41.687 3.97754
50.5657 59.3278 3.97658
52.1768 56.4847 3.97081
54.0712 45.5409 3.97707
53.2626 49.3089 3.9711
52.6356 52.8297 3.96578
48.6189 64.1236 0.0153524
47.9627 62.4759 2
47.3299 61.0096 3.98337
43.6319 67.4693 0.0140367
45.1334 65.1979 0.0155696
46.3828 63.054 0.0161135
41.6639 67.6886 2
43.3571 65.5081 2
45.9883 61.587 2
44.7679 63.4551 2
45.7668 60.6304 3.98204
44.4843 61.8351 3.98302
43.1472 63.7265 3.98306
41.5467 65.6448 3.98365
39.6329 67.7677 3.98533
37.526 70.0501 3.98846
39.7025 70.0257 2
39.818 72.4043 3.99263
41.8609 69.878 0.0115087
42.1116 72.2076 2
42.3947 74.6792 4
44.3771 71.8624 0.0071134
44.8159 74.2794 2
47.2057 73.7222 0
43.8518 5.35922 3.98899
46.571 3.64711 3.99276
48.7853 4.32244 2
49.554 1.99015 4
50.9545 5.1319 0.00793156
51.8506 2.85453 2
54.0858 3.86728 0
60.2091 44.7636 0.0248595
61.1582 41.9541 0.0248196
62.0905 39.3534 0.0264585
63.9206 37.4563 0.0283975
61.9285 37.444 2
60.1661 39.8435 2
58.9117 42.909 2
59.662 37.565 3.9764
57.8859 40.6478 3.9773
54.9364 39.7057 3.97713
62.1258 35.3599 0.0268813
60.221 32.7482 0.0249235
58.5623 30.0827 0.0238523
56.6325 18.1601 0.0232082
56.3431 20.532 0.0324422
56.0773 22.8821 0.0350941
57.2407 27.3909 0.0246152
56.2519 25.1129 0.0281537
54.4106 17.9257 0.0209207
52.358 17.0446 0.0248556
51.3765 14.5025 0.0218409
48.0564 6.52774 0.0119279
49.3246 9.33286 0.0164653
50.4331 11.9966 0.0189348
59.805 35.1202 2
45.9624 5.88208 2
43.3738 7.47335 2
57.9034 32.2779 2
56.4774 29.3518 2
55.3337 19.1934 2
54.9789 21.5763 2
54.887 24.0735 2
55.3815 26.6148 2
47.3551 8.62468 2
48.5998 11.2966 2
53.1178 18.6673 2
51.2947 18.0577 2
50.6306 16.1378 2
49.7124 13.7471 2
57.2687 34.7673 3.97745
55.6343 31.5328 3.97824
54.4118 28.4235 3.97857
53.7231 25.516 3.97354
53.9559 20.1466 3.97488
53.546 22.7315 3.96125
41.3991 7.07882 3.98643
45.36 7.9957 3.98573
42.8659 9.41739 3.98331
46.6667 10.6566 3.98197
47.7448 13.1071 3.98127
48.9294 15.4072 3.97827
50.0013 17.7076 3.97911
51.6392 19.3331 3.98281
50.347 63.382 0.0158301
51.2441 60.9362 0.0192941
56.6171 44.168 0.02259
55.4238 47.8789 0.0261639
52.3104 58.6319 0.023293
54.2141 57.2648 0.0228524
55.0386 51.3743 0.0317474
53.9871 54.5235 0.0338221
49.592 61.7459 2
55.4946 41.6867 2
50.5655 59.3289 2
52.1768 56.4855 2
54.074 45.5403 2
53.2656 49.3084 2
52.6378 52.8292 2
48.8488 60.2022 3.98098
52.3577 42.6142 3.97895
49.7853 57.6217 3.97679
50.572 54.4147 3.96835
51.7005 47.2443 3.9761
51.1584 50.9255 3.96585
47.9963 43.7714 3.99131
47.9629 62.4755 0.0161998
47.3298 61.01 2
46.619 59.7956 3.98273
41.6639 67.6881 0.0143451
43.3573 65.5073 0.0156673
44.768 63.4544 0.0164565
45.9883 61.5863 0.0164017
39.633 67.7684 2
41.5465 65.6451 2
45.7666 60.6311 2
43.1472 63.7272 2
44.4843 61.8358 2
44.6237 60.2924 3.98257
42.9513 62.0828 3.98181
41.6006 63.8195 3.98303
39.648 65.6125 3.98291
37.5635 67.7499 3.98515
31.6966 65.1314 3.98365
33.3921 67.4874 3.9851
35.3333 69.9602 3.98847
37.526 70.0508 2
37.5095 72.4589 3.99253
39.7025 70.0251 0.0114179
39.8181 72.4047 2
39.9526 74.9197 4
42.1113 72.2072 0.00719527
42.3947 74.6792 2
44.8159 74.2794 0
41.7365 4.96831 3.98938
43.8518 5.35874 2
44.3262 3.11017 3.99311
46.5712 3.64692 2
47.2057 1.27793 4
48.7851 4.3227 0.00747723
49.554 1.99013 2
51.8506 2.85458 0
58.9124 42.9093 0.0233138
60.1668 39.8437 0.0236163
61.9294 37.444 0.0264155
59.6616 37.5649 2
57.8843 40.6475 2
54.9374 39.704 2
56.6734 37.8899 3.97799
49.3907 41.3148 3.98906
52.9571 39.3051 3.98129
39.4425 6.80222 3.98654
59.8063 35.1202 0.0240217
57.903 32.2775 0.0230174
56.4781 29.3513 0.0234179
55.3338 19.1944 0.0240678
54.9781 21.5772 0.0340619
54.8873 24.0721 0.0326548
55.3869 26.6133 0.0243906
53.118 18.6681 0.025015
51.2953 18.0584 0.0187562
50.6312 16.1388 0.0225957
45.9624 5.88246 0.0112547
49.713 13.7477 0.0198216
47.3552 8.62553 0.0155642
48.6001 11.2971 0.0185199
43.3739 7.47377 0.0141871
57.267 34.7676 2
41.3991 7.07835 2
45.3599 7.99541 2
42.8657 9.417 2
55.6339 31.5331 2
54.4073 28.4252 2
53.9562 20.1462 2
53.5464 22.729 2
53.7211 25.5174 2
46.6664 10.6556 2
47.7443 13.1064 2
51.639 19.3322 2
50.0007 17.7067 2
48.9287 15.4068 2
54.725 33.9755 3.97691
53.3692 30.5071 3.97751
52.5114 27.2264 3.97541
52.0942 24.1233 3.9729
52.3694 21.0681 3.9785
41.0139 9.04986 3.9836
44.7244 9.9972 3.98328
42.4689 10.9052 3.98322
46.005 12.7351 3.97949
47.6797 14.5907 3.97855
48.1088 16.9954 3.97724
49.811 19.6444 3.97651
49.5924 61.7456 0.0171576
50.5657 59.3278 0.0234185
55.4952 41.687 0.0224638
54.0712 45.5409 0.0229313
53.2626 49.3089 0.0289
52.1768 56.4847 0.0291911
52.6356 52.8297 0.0342206
48.8486 60.202 2
52.3625 42.6134 2
49.7852 57.6231 2
50.5726 54.4155 2
51.7029 47.2434 2
51.1604 50.9246 2
48.0011 43.7839 2
47.9854 58.7417 3.97943
49.943 45.252 3.97833
48.5869 55.9126 3.97755
49.0929 52.5767 3.97214
49.5915 49.0255 3.97104
45.7943 39.8608 3.89089
46.2368 42.6517 3.93151
46.3552 45.8154 3.99133
43.6288 41.1497 3.83811
41.9275 42.0158 3.74579
47.3299 61.0096 0.0166304
46.6185 59.7961 2
45.4678 58.7922 3.98208
39.6329 67.7677 0.0146712
41.5467 65.6448 0.0163541
43.1472 63.7265 0.0169446
44.4843 61.8351 0.0169752
45.7668 60.6304 0.0179614
41.6006 63.82 2
37.5635 67.7507 2
39.6479 65.6132 2
44.6236 60.293 2
42.9513 62.0834 2
41.7542 62.4936 3.98204
42.4809 59.9822 3.98276
39.8942 63.5536 3.98207
37.6424 65.5115 3.98302
35.4635 67.6592 3.98504
33.5751 65.3446 3.98315
31.9591 63.303 3.98303
29.8826 64.7225 3.98431
31.6967 65.1321 2
31.3765 67.1972 3.98533
33.3921 67.4881 2
33.1562 69.7535 3.9883
35.3333 69.9609 2
35.1947 72.3732 3.99248
37.526 70.0501 0.0115387
37.5095 72.4593 2
37.5 75 4
39.818 72.4043 0.00737315
39.9526 74.9197 2
42.3947 74.6792 0
39.6241 4.71547 3.98963
41.7365 4.96784 2
42.0625 2.7177 3.99324
43.8518 5.35922 0.0110109
44.3264 3.10988 2
44.8158 0.721173 4
46.571 3.64711 0.0072368
47.2057 1.27779 2
49.554 1.99015 0
57.8859 40.6478 0.0227011
59.662 37.565 0.0236001
54.9364 39.7057 0.0228657
49.4065 41.3181 2
56.6717 37.8901 2
52.9592 39.307 2
53.8042 36.6319 3.97709
47.3168 40.3919 3.93804
50.3313 38.5104 3.99151
37.5164 6.67331 3.9868
39.4425 6.80171 2
39.2114 8.69228 3.98432
35.9422 8.49209 3.98463
57.2687 34.7673 0.0225489
55.6343 31.5328 0.0217583
54.4118 28.4235 0.0214302
53.9559 20.1466 0.0251224
53.546 22.7315 0.0387516
53.7231 25.516 0.0264623
51.6392 19.3331 0.0171942
50.0013 17.7076 0.0208863
48.9294 15.4072 0.0217302
45.36 7.9957 0.0142674
47.7448 13.1071 0.0187341
46.6667 10.6566 0.0180329
41.3991 7.07882 0.0135692
42.8659 9.41739 0.0166909
54.7277 33.9748 2
41.0137 9.04955 2
44.7239 9.9971 2
42.4685 10.9052 2
53.3641 30.5064 2
52.5164 27.2278 2
52.37 21.0667 2
52.0954 24.1246 2
46.0044 12.7337 2
47.6791 14.5899 2
49.8109 19.6431 2
48.1081 16.995 2
52.2886 32.8931 3.98017
51.198 29.1767 3.97807
50.7136 25.7581 3.97296
49.9196 22.2277 3.97806
40.5702 11.6098 3.98086
43.8585 11.9209 3.98011
45.8002 15.4297 3.98011
47.4996 19.2579 3.97692
46.1303 37.4872 3.89823
48.8488 60.2022 0.0190164
49.7853 57.6217 0.0232054
52.3577 42.6142 0.0210542
51.7005 47.2443 0.0238986
51.1584 50.9255 0.0341528
50.572 54.4147 0.0316463
47.9963 43.7714 0.00869173
47.985 58.7425 2
49.9495 45.2558 2
48.5867 55.915 2
49.0934 52.579 2
49.5946 49.0249 2
45.8217 39.8708 2
46.2559 42.6664 2
46.3554 45.8096 2
43.6519 41.1684 2
41.9391 42.0246 2
46.8349 57.3437 3.9827
44.3754 39.4301 3.8383
42.2733 40.8783 3.78398
47.9621 47.2171 3.97636
47.148 54.2339 3.9753
47.532 50.7315 3.96584
44.6992 47.3991 3.98604
44.8979 41.9503 3.89002
44.8226 44.5497 3.94433
42.4822 42.6652 3.84715
40.8317 42.3575 3.77803
46.619 59.7956 0.0172671
45.4673 58.7926 2
43.8744 57.7164 3.98462
37.5635 67.7499 0.0148522
39.648 65.6125 0.0170944
41.6006 63.8195 0.0169661
42.9513 62.0828 0.0181869
44.6237 60.2924 0.0174342
35.4635 67.66 2
41.7542 62.4941 2
39.8941 63.5542 2
37.6424 65.5124 2
42.481 59.9826 2
40.6236 61.6506 3.98205
40.4436 58.2112 3.98219
37.8374 63.2148 3.98129
35.573 65.4335 3.98288
33.5752 65.3451 2
31.9589 63.3036 2
33.6288 63.3424 3.98249
30.3779 62.8618 3.98333
32.1228 62.009 3.98355
26.8678 61.5048 3.98264
28.0615 64.1503 3.98398
29.8827 64.7233 2
29.4058 66.761 3.98554
31.6966 65.1314 0.016352
31.3766 67.1979 2
31.0133 69.4184 3.98827
33.3921 67.4874 0.0149028
33.1561 69.7541 2
32.8916 72.1474 3.99252
35.3333 69.9602 0.0115321
35.1947 72.3736 2
35.0474 74.9194 4
37.5095 72.4589 0.00747216
37.5 75 2
39.9526 74.9197 0
35.621 6.72436 3.98647
37.5235 4.61502 3.98969
39.6242 4.71499 2
39.7889 2.47411 3.9933
41.7365 4.96831 0.0106191
42.0626 2.7174 2
42.3946 0.32156 4
44.3262 3.11017 0.00688723
44.8159 0.72056 2
47.2057 1.27793 0
49.3907 41.3148 0.0109393
56.6734 37.8899 0.0220062
52.9571 39.3051 0.0187102
47.3335 40.4048 2
50.3448 38.5083 2
53.8105 36.633 2
51.126 35.5774 3.97915
47.9745 37.74 3.95204
45.7951 35.1338 3.89188
43.635 33.8425 3.83557
41.9354 32.9862 3.74257
37.4583 8.53377 3.98473
37.5164 6.67262 2
39.4425 6.80222 0.0134611
39.2113 8.69172 2
38.9771 10.1266 3.98343
35.899 9.77283 3.98296
34.1507 8.82162 3.98419
35.9419 8.49134 2
54.725 33.9755 0.0230856
53.3692 30.5071 0.0224851
52.5114 27.2264 0.0245944
52.3694 21.0681 0.0214973
52.0942 24.1233 0.0270993
49.811 19.6444 0.0234915
48.1088 16.9954 0.0227591
47.6797 14.5907 0.0214535
44.7244 9.9972 0.0167243
46.005 12.7351 0.020512
41.0139 9.04986 0.0164015
42.4689 10.9052 0.0167843
52.292 32.8934 2
40.5702 11.6101 2
43.8576 11.921 2
51.2105 29.1772 2
50.7156 25.7607 2
49.9202 22.2265 2
45.7994 15.428 2
47.4991 19.257 2
49.8198 31.4228 3.9765
49.1876 27.5252 3.97613
49.3539 24.4419 3.98423
47.1739 21.9947 3.97403
38.303 12.7367 3.97991
42.1016 14.3103 3.97842
44.7977 18.4738 3.97724
44.6706 37.4953 3.84055
46.1677 37.4946 2
47.9854 58.7417 0.0205678
48.5869 55.9126 0.0224512
49.943 45.252 0.0216709
49.5915 49.0255 0.0289597
49.0929 52.5767 0.0278587
45.7943 39.8608 0.109106
46.2368 42.6517 0.0684945
46.3552 45.8154 0.00867415
43.6288 41.1497 0.161894
41.9275 42.0158 0.254215
46.8341 57.3448 2
44.394 39.4433 2
42.267 40.8801 2
47.9627 47.2193 2
47.1479 54.2388 2
47.5336 50.7335 2
44.7035 47.3765 2
44.9175 41.9653 2
44.8393 44.5667 2
42.5133 42.6881 2
40.8313 42.3584 2
45.39 55.9348 3.9887
42.5952 39.2724 3.79643
40.7311 40.796 3.86002
46.0131 48.8983 3.98398
45.5057 52.5266 3.98201
43.3726 48.4266 4.00218
43.3124 46.1011 3.93467
43.5489 43.7471 3.88503
41.0422 43.8207 3.84213
39.2833 42.7047 3.79252
45.4678 58.7922 0.0179208
43.874 57.7163 2
42.104 56.3398 3.98717
35.4635 67.6592 0.014961
37.6424 65.5115 0.0169763
39.8942 63.5536 0.017935
41.7542 62.4936 0.017957
42.4809 59.9822 0.0172437
35.573 65.4345 2
40.6236 61.6513 2
37.8372 63.2156 2
40.4434 58.2125 2
38.9227 56.5041 3.98891
38.2505 60.3324 3.98125
35.6071 63.2082 3.98125
33.5751 65.3446 0.0168545
31.9591 63.303 0.0169723
33.6287 63.3431 2
30.3778 62.8624 2
32.1226 62.0097 2
28.6805 62.2064 3.98307
33.3456 61.5212 3.98265
31.0659 61.2262 3.98306
27.5674 59.6012 3.9817
23.7916 59.0876 3.98058
25.0335 60.8773 3.98155
26.8678 61.5054 2
26.2281 63.4827 3.98401
28.0616 64.1511 2
27.4623 66.1849 3.98557
29.8826 64.7225 0.0156853
29.4059 66.7617 2
28.9055 68.944 3.98825
31.3765 67.1972 0.0146696
31.0133 69.4191 2
30.6139 71.7783 3.99257
33.1562 69.7535 0.0117043
32.8915 72.1478 2
32.6054 74.6784 4
35.1947 72.3732 0.00751866
35.0474 74.9197 2
37.5 75 0
33.7237 6.97899 3.98601
35.435 4.68524 3.9895
35.6209 6.72372 2
37.5143 2.38675 3.9933
37.5235 4.61452 2
39.6241 4.71547 0.0103715
39.7889 2.47381 2
39.9526 0.0806499 4
42.0625 2.7177 0.00676488
42.3947 0.320817 2
44.8158 0.721173 0
44.3903 35.5604 3.83302
42.2837 34.1156 3.77956
47.3168 40.3919 0.0619564
50.3313 38.5104 0.00849054
53.8042 36.6319 0.0229123
47.9879 37.7487 2
51.1368 35.5769 2
45.8157 35.116 2
43.6606 33.8243 2
41.9462 32.9766 2
48.1499 34.3062 3.97489
44.9044 33.0408 3.88178
42.4957 32.3375 3.8427
40.8413 32.6464 3.77615
37.3114 10.6302 3.98209
37.4581 8.53281 2
37.5164 6.67331 0.0131977
39.2114 8.69228 0.0156829
38.9771 10.1259 2
34.7542 10.379 3.98221
35.899 9.77209 2
32.3775 9.36845 3.98348
34.1504 8.82108 2
35.9422 8.49209 0.0153709
52.2886 32.8931 0.019832
51.198 29.1767 0.021933
50.7136 25.7581 0.027036
49.9196 22.2277 0.021943
47.4996 19.2579 0.0230804
45.8002 15.4297 0.0198876
43.8585 11.9209 0.0198904
40.5702 11.6098 0.0191449
49.8287 31.4179 2
38.3027 12.736 2
42.1009 14.3119 2
49.1903 27.5279 2
49.3555 24.4406 2
47.1737 21.9933 2
44.7972 18.4769 2
47.6598 29.5249 3.99048
47.0498 25.1845 3.98333
44.2814 21.3606 3.97594
36.5827 12.9328 3.98022
38.6816 14.8105 3.97851
41.7481 17.8518 3.97764
42.7175 37.4878 3.80243
44.6851 37.4957 2
46.1303 37.4872 0.10177
46.8349 57.3437 0.0172973
47.148 54.2339 0.0246951
47.9621 47.2171 0.0236378
47.532 50.7315 0.0341624
44.3754 39.4301 0.161698
44.8979 41.9503 0.109985
44.8226 44.5497 0.0556726
44.6992 47.3991 0.0139589
42.4822 42.6652 0.152846
42.2733 40.8783 0.21602
40.8317 42.3575 0.221973
45.3897 55.9347 2
42.5925 39.2704 2
40.7235 40.7893 2
46.0133 48.9016 2
45.5071 52.5317 2
43.3753 48.4455 2
43.3384 46.1273 2
43.569 43.7669 2
41.0642 43.8434 2
39.276 42.6978 2
43.7259 54.4454 3.99716
40.8308 39.1675 3.89134
39.1576 40.8821 3.89003
43.646 50.4811 4.00174
41.9123 47.6491 3.96835
41.8392 45.1712 3.88998
39.348 44.5463 3.85252
37.4963 42.8171 3.80968
43.8744 57.7164 0.0153776
42.1032 56.3405 2
40.4138 54.9476 3.99097
35.573 65.4335 0.0171203
37.8374 63.2148 0.0187092
40.6236 61.6506 0.0179459
40.4436 58.2112 0.017812
35.6069 63.209 2
38.2503 60.3337 2
38.9226 56.5059 2
37.9973 55.2576 3.98765
36.9331 57.6321 3.9808
35.3636 60.9186 3.98232
33.6288 63.3424 0.0175141
30.3779 62.8618 0.0166683
32.1228 62.009 0.0164482
33.3454 61.5219 2
28.6804 62.2071 2
31.0659 61.2268 2
29.4023 60.2948 3.98229
32.3563 59.7537 3.9859
28.0229 58.3812 3.98605
27.5675 59.6017 2
25.3784 58.5996 3.97948
22.757 58.244 3.97384
23.3995 60.3564 3.97979
23.7916 59.0884 2
25.0336 60.878 2
24.4307 62.7751 3.98345
26.8678 61.5048 0.0173596
26.2282 63.4834 2
25.5463 65.4949 3.98554
28.0615 64.1503 0.0160175
27.4624 66.1855 2
26.835 68.3325 3.98829
29.4058 66.761 0.0144646
28.9055 68.9446 2
28.3689 71.2635 3.99266
31.0133 69.4184 0.0117252
30.6137 71.7787 2
30.1842 74.2788 4
32.8916 72.1474 0.007477
32.6053 74.6792 2
35.0474 74.9194 0
31.7881 7.41892 3.98554
33.3471 4.9244 3.98923
33.7235 6.97837 2
35.2444 2.46283 3.99332
35.435 4.68474 2
35.621 6.72436 0.0135325
37.5 0 4
37.5143 2.38645 2
37.5235 4.61502 0.0103109
39.7889 2.47411 0.00670088
39.9526 0.0802889 2
42.3946 0.32156 0
42.5989 35.711 3.7976
44.403 35.5489 2
40.7399 34.2034 3.8583
42.2765 34.1153 2
47.9745 37.74 0.047962
51.126 35.5774 0.0208494
45.7951 35.1338 0.108118
43.635 33.8425 0.164426
41.9354 32.9862 0.257428
48.1649 34.2874 2
44.9252 33.0279 2
42.5202 32.3167 2
40.8406 32.6446 2
46.1759 31.5637 3.94994
43.5524 31.2545 3.88264
41.0548 31.1841 3.84151
39.2915 32.3009 3.79156
35.693 11.7757 3.98097
37.3115 10.6291 2
37.4583 8.53377 0.0152726
38.9771 10.1266 0.0165671
33.0981 11.2161 3.98101
34.7543 10.3784 2
35.899 9.77283 0.0170366
30.4821 10.0167 3.98286
32.3772 9.36802 2
34.1507 8.82162 0.0158073
49.8198 31.4228 0.0235002
49.1876 27.5252 0.0238705
49.3539 24.4419 0.0157726
47.1739 21.9947 0.0259664
44.7977 18.4738 0.0227593
42.1016 14.3103 0.0215753
38.303 12.7367 0.0200867
36.5825 12.9322 2
47.6624 29.5075 2
38.6809 14.8103 2
41.7474 17.8542 2
47.0527 25.1833 2
44.2809 21.3511 2
45.4629 27.6591 4.00181
43.7708 24.0867 4.00227
41.3374 20.7395 3.97885
35.7725 14.7604 3.97893
38.6815 17.6021 3.9772
40.8765 37.4811 3.9016
42.7222 37.4891 2
44.6706 37.4953 0.159449
45.39 55.9348 0.0113046
45.5057 52.5266 0.017995
46.0131 48.8983 0.0160208
42.5952 39.2724 0.20357
43.5489 43.7471 0.11497
43.3124 46.1011 0.0653317
43.3726 48.4266 -0.00218263
41.0422 43.8207 0.157874
40.7311 40.796 0.139978
39.2833 42.7047 0.207484
43.7254 54.4464 2
40.8231 39.1626 2
39.1473 40.8721 2
43.6467 50.4965 2
41.9038 47.664 2
41.8612 45.1917 2
37.4974 42.8063 2
39.3661 44.5636 2
41.8664 53.0194 3.99382
39.172 39.1669 3.92533
37.4959 40.9244 3.90746
35.7148 42.7053 3.79223
40.8804 49.7037 4.00073
39.8047 46.0688 3.87193
37.4947 44.7697 3.84033
42.104 56.3398 0.0128329
40.4136 54.9479 2
38.7261 53.8713 3.99579
35.6071 63.2082 0.0187485
38.2505 60.3324 0.0187479
38.9227 56.5041 0.0110858
35.3634 60.9193 2
36.9331 57.6337 2
37.9975 55.2584 2
36.3186 55.3854 3.98822
34.4873 58.5308 3.98616
33.3456 61.5212 0.0173498
28.6805 62.2064 0.0169285
31.0659 61.2262 0.0169378
32.3563 59.7543 2
29.4023 60.2954 2
30.2993 57.8267 3.98586
28.0228 58.3818 2
26.9481 56.8317 3.9792
27.5674 59.6012 0.018299
25.3784 58.6003 2
23.8422 56.8024 3.97194
21.3353 57.3986 3.97313
21.9928 59.627 3.97887
22.7569 58.2455 2
22.7347 62.0262 3.98216
23.3996 60.3573 2
23.7916 59.0876 0.0194199
25.0335 60.8773 0.0184453
24.4309 62.7759 2
23.6802 64.7132 3.98525
26.2281 63.4827 0.0159928
25.5464 65.4955 2
24.8071 67.5936 3.98825
27.4623 66.1849 0.0144282
26.835 68.333 2
26.164 70.6043 3.99276
28.9055 68.944 0.0117507
28.3686 71.2638 2
27.7943 73.7221 4
30.6139 71.7783 0.00743401
30.1841 74.2794 2
32.6054 74.6784 0
29.8105 7.99231 3.9849
31.2523 5.33153 3.98869
31.7879 7.41832 2
32.98 2.70102 3.99315
33.347 4.92386 2
33.7237 6.97899 0.0139907
35.0474 0.080333 4
35.2443 2.46254 2
35.435 4.68524 0.0104972
37.5 0 2
37.5143 2.38675 0.00670219
39.9526 0.0806499 0
40.8317 35.8076 3.89296
42.5955 35.7141 2
44.3903 35.5604 0.166983
28.5428 10.6922 3.98247
39.1641 34.122 3.8896
40.7301 34.2097 2
42.2837 34.1156 0.220439
48.1499 34.3062 0.0251077
44.9044 33.0408 0.11822
42.4957 32.3375 0.157298
40.8413 32.6464 0.223854
46.198 31.5547 2
43.566 31.2376 2
41.076 31.1602 2
39.2853 32.3073 2
44.3429 29.761 3.94144
41.8586 29.8355 3.89245
39.3699 30.4556 3.85325
37.506 32.1914 3.80968
34.0931 12.9344 3.98
35.6931 11.7749 2
37.3114 10.6302 0.0179145
31.186 11.9845 3.98131
33.0982 11.2156 2
34.7542 10.379 0.0177921
30.4819 10.016 2
32.3775 9.36845 0.0165204
47.6598 29.5249 0.00952188
47.0498 25.1845 0.0166736
36.5827 12.9328 0.0197793
44.2814 21.3606 0.0240578
41.7481 17.8518 0.0223555
38.6816 14.8105 0.021485
35.7723 14.7603 2
45.4652 27.6578 2
38.68 17.6035 2
41.3359 20.7321 2
43.7721 24.0799 2
33.6083 15.8777 3.97881
43.0031 26.4992 3.9971
40.9008 23.3087 4.00429
38.4177 20.3564 3.97667
35.8485 17.5148 3.97776
39.186 37.4837 3.93395
40.8693 37.4805 2
42.7175 37.4878 0.19757
43.7259 54.4454 0.00284319
43.646 50.4811 -0.00174095
40.8308 39.1675 0.10866
41.8392 45.1712 0.110017
41.9123 47.6491 0.0316476
39.348 44.5463 0.147479
39.1576 40.8821 0.109967
37.4963 42.8171 0.190321
41.8688 53.0189 2
39.1586 39.1645 2
37.4959 40.9116 2
40.8915 49.7131 2
35.7204 42.6997 2
39.8294 46.0927 2
37.4918 44.7817 2
39.8013 51.9235 3.9964
37.4945 39.1826 3.94448
35.8333 40.8924 3.88893
34.1612 42.3557 3.77743
35.6287 44.5507 3.85132
38.6818 48.72 3.98103
37.4859 46.3795 3.87697
40.4138 54.9476 0.00902996
38.7269 53.8701 2
36.7238 53.2137 4.0039
35.3636 60.9186 0.0176841
36.9331 57.6321 0.0191959
37.9973 55.2576 0.0123515
34.487 58.5313 2
36.319 55.3881 2
33.2305 55.5154 3.99104
32.3563 59.7537 0.014095
29.4023 60.2948 0.0177113
30.2993 57.8274 2
28.6976 55.3215 3.97917
28.0229 58.3812 0.013946
26.9478 56.8322 2
25.3186 55.14 3.97409
21.8162 55.3452 3.96871
25.3784 58.5996 0.0205184
23.8418 56.8044 2
20.2207 57.027 3.97817
20.6451 58.7827 3.97661
21.335 57.4004 2
21.1654 61.1747 3.98052
21.9927 59.6281 2
22.757 58.244 0.0261608
21.8936 63.8409 3.98456
22.7349 62.0271 2
23.3995 60.3564 0.0202056
24.4307 62.7751 0.0165477
23.6803 64.7139 2
22.8353 66.7372 3.98817
25.5463 65.4949 0.014461
24.8072 67.5942 2
24.0083 69.8054 3.99281
26.835 68.3325 0.0117116
26.1638 70.6045 2
25.446 73.0099 4
28.3689 71.2635 0.00733554
27.7943 73.7222 2
30.1842 74.2788 0
27.8204 8.65207 3.98459
29.1542 5.8773 3.98814
29.8104 7.99157 2
30.7252 3.09822 3.99288
31.2521 5.33104 2
31.7881 7.41892 0.0144624
32.6053 0.320823 4
32.9799 2.7007 2
33.3471 4.9244 0.0107678
35.0474 0.0802903 2
35.2444 2.46283 0.00668064
37.5 0 0
39.1813 35.8129 3.92406
40.8227 35.8117 2
42.5989 35.711 0.202404
28.5428 10.6917 2
26.6215 11.3875 3.98269
29.2248 12.6412 3.98208
37.5013 34.0844 3.90611
39.1508 34.1326 2
40.7399 34.2034 0.141698
46.1759 31.5637 0.0500615
43.5524 31.2545 0.117359
41.0548 31.1841 0.158492
39.2915 32.3009 0.208444
44.3615 29.745 2
41.8765 29.816 2
39.3842 30.4366 2
37.5085 32.2025 2
42.3411 28.405 3.92414
39.8571 28.9299 3.89086
37.5235 30.2299 3.84
35.7254 32.299 3.79127
31.9148 14.4801 3.98041
34.0932 12.934 2
35.693 11.7757 0.0190262
31.1862 11.9839 2
33.0981 11.2161 0.0189914
30.4821 10.0167 0.0171416
45.4629 27.6591 -0.00180629
43.7708 24.0867 -0.00227359
35.7725 14.7604 0.0210713
41.3374 20.7395 0.0211511
38.6815 17.6021 0.0227973
33.6075 15.8774 2
35.8469 17.5153 2
43.0084 26.4969 2
38.4184 20.3512 2
40.8993 23.2982 2
33.5505 17.3886 3.98064
40.3871 25.6499 4.00356
38.0707 22.8957 3.99458
35.582 20.0887 3.9794
37.4952 37.4946 3.95598
39.1723 37.4841 2
40.8765 37.4811 0.0984004
41.8664 53.0194 0.00618035
40.8804 49.7037 -0.000730268
39.172 39.1669 0.0746745
39.8047 46.0688 0.128069
37.4947 44.7697 0.159675
37.4959 40.9244 0.0925409
35.7148 42.7053 0.207767
39.8095 51.9238 2
37.4949 39.1796 2
35.8449 40.8828 2
38.6823 48.7521 2
34.162 42.3575 2
35.6143 44.5694 2
37.4862 46.403 2
37.64 51.0057 4.00909
35.8201 39.1841 3.92554
34.263 40.8059 3.85997
33.0597 42.0163 3.74392
33.9389 43.8111 3.84046
35.1482 46.0508 3.88302
36.8639 48.3583 3.95202
38.7261 53.8713 0.00420546
36.7241 53.2174 2
34.3661 52.4779 3.99395
34.4873 58.5308 0.0138442
36.3186 55.3854 0.0117839
33.23 55.5159 2
30.5271 53.3733 3.97978
30.2993 57.8267 0.0141429
28.6971 55.3227 2
26.896 53.4324 3.97356
26.9481 56.8317 0.0207957
25.3182 55.1432 2
23.5889 53.4737 3.96647
20.4845 53.2141 3.96167
19.9367 55.8292 3.97171
21.8151 55.3467 2
23.8422 56.8024 0.02806
19.4385 57.8881 3.97587
20.2202 57.0285 2
19.7057 60.2063 3.97811
20.6449 58.7838 2
21.3353 57.3986 0.0268711
20.2062 62.8615 3.98278
21.1655 61.1758 2
21.9928 59.627 0.021125
20.9367 65.7661 3.98788
21.8937 63.8418 2
22.7347 62.0262 0.0178403
23.6802 64.7132 0.0147475
22.8354 66.7378 2
21.9108 68.8724 3.99272
24.8071 67.5936 0.0117525
24.0079 69.8056 2
23.1494 72.1454 4
26.164 70.6043 0.00723856
25.446 73.0099 2
27.7943 73.7221 0
25.8595 9.3804 3.98418
27.069 6.54146 3.98752
27.8202 8.65143 2
28.4873 3.64422 3.99261
29.154 5.87672 2
29.8105 7.99231 0.0151029
30.1841 0.720592 4
30.725 3.09794 2
31.2523 5.33153 0.011314
32.6053 0.320817 2
32.98 2.70102 0.0068535
35.0474 0.080333 0
37.497 35.8122 3.94491
39.1646 35.8159 2
40.8317 35.8076 0.107042
24.7763 12.0705 3.98297
23.751 14.3564 3.98209
28.5428 10.6922 0.0175307
26.6216 11.387 2
29.225 12.6405 2
27.2909 13.3737 3.98251
29.7801 14.201 3.98158
35.8423 34.1164 3.88989
37.4994 34.0969 2
39.1641 34.122 0.110398
37.506 32.1914 0.190324
44.3429 29.761 0.0585619
41.8586 29.8355 0.107553
39.3699 30.4556 0.146749
42.3626 28.3826 2
39.8719 28.9032 2
37.522 30.2207 2
35.7332 32.3048 2
40.0434 27.5608 3.9196
37.5319 28.6188 3.88516
35.6593 30.4611 3.85471
34.1806 32.6463 3.77693
30.9262 16.8373 3.98103
31.9147 14.4797 2
34.0931 12.9344 0.0200014
31.186 11.9845 0.0186888
43.0031 26.4992 0.00290204
40.9008 23.3087 -0.00428815
33.6083 15.8777 0.0211922
35.8485 17.5148 0.0222389
38.4177 20.3564 0.0233284
33.5493 17.389 2
35.5835 20.0892 2
40.3884 25.6399 2
38.0672 22.8913 2
32.8619 19.7965 3.98129
37.7982 25.2083 4.01003
35.1965 22.6517 3.98887
35.8101 37.5004 3.93659
37.4947 37.4937 2
39.186 37.4837 0.0660511
39.8013 51.9235 0.00360091
38.6818 48.72 0.0189688
37.4945 39.1826 0.0555176
37.4859 46.3795 0.123029
35.6287 44.5507 0.148682
35.8333 40.8924 0.111074
34.1612 42.3557 0.222574
37.6485 51.0187 2
35.8352 39.1806 2
34.2712 40.8001 2
36.8562 48.3806 2
33.0494 42.0261 2
33.9212 43.8327 2
35.1337 46.0718 2
35.4799 50.1382 4.00265
34.1714 39.1853 3.89507
32.7089 40.8851 3.78176
32.5009 42.6661 3.8472
33.1466 45.1647 3.89035
34.2737 47.4259 3.92933
36.7238 53.2137 -0.00390063
34.3667 52.4833 2
32.0219 51.1831 4.00196
33.2305 55.5154 0.00896336
30.5267 53.3779 2
28.4455 51.5874 3.97774
28.6976 55.3215 0.0208293
26.8951 53.4349 2
25.1008 51.7374 3.9629
25.3186 55.14 0.0259146
23.5879 53.4759 2
21.991 51.7948 3.96197
19.2223 51.6292 3.96517
18.9325 54.3017 3.96457
20.4835 53.2135 2
18.4491 56.7203 3.97593
19.9359 55.8308 2
21.8162 55.3452 0.0312909
18.3687 59.1094 3.97541
19.4381 57.8892 2
20.2207 57.027 0.0218305
18.6178 61.7672 3.98027
19.7057 60.2076 2
20.6451 58.7827 0.0233911
19.1258 64.6766 3.98694
20.2063 62.8626 2
21.1654 61.1747 0.0194802
19.8848 67.809 3.99261
20.9368 65.7669 2
21.8936 63.8409 0.0154374
22.8353 66.7372 0.0118259
21.9104 68.8725 2
20.9142 71.1327 4
24.0083 69.8054 0.00719192
23.1494 72.1455 2
25.446 73.0099 0
23.0957 12.7854 3.98262
23.9719 10.1671 3.98397
25.0227 7.31182 3.98702
25.8594 9.37985 2
26.2789 4.32854 3.99227
27.0687 6.54096 2
27.8204 8.65207 0.0154123
27.7943 1.27781 4
28.487 3.64394 2
29.1542 5.8773 0.0118603
30.1841 0.720551 2
30.7252 3.09822 0.00711606
32.6053 0.320823 0
35.8203 35.8197 3.92693
37.4957 35.8142 2
39.1813 35.8129 0.0759387
24.7765 12.0702 2
23.7515 14.3561 2
22.4798 15.0333 3.9816
25.3571 13.9055 3.98202
24.0245 15.6192 3.98113
26.6215 11.3875 0.0173116
29.2248 12.6412 0.0179196
27.2913 13.3732 2
29.7802 14.2006 2
28.3563 15.975 3.98196
34.2719 34.2027 3.85953
35.8528 34.1266 2
37.5013 34.0844 0.0938937
35.7254 32.299 0.208727
37.5235 30.2299 0.160004
42.3411 28.405 0.0758604
39.8571 28.9299 0.109143
40.0547 27.5426 2
37.5358 28.5939 2
35.6388 30.4359 2
34.1757 32.6449 2
37.6156 27.2572 3.93389
35.1922 28.9343 3.88779
33.9553 31.1884 3.84069
33.0858 32.9844 3.74447
30.2079 19.3407 3.98507
30.9256 16.8376 2
31.9148 14.4801 0.0195935
40.3871 25.6499 -0.00356073
38.0707 22.8957 0.00541932
33.5505 17.3886 0.0193631
35.582 20.0887 0.0206048
32.8623 19.798 2
35.1954 22.6502 2
37.783 25.2028 2
32.3103 22.4157 3.99137
34.9951 25.1974 4.00505
34.1199 37.502 3.90321
35.8242 37.4991 2
37.4952 37.4946 0.0440162
37.64 51.0057 -0.00908663
36.8639 48.3583 0.0479848
35.8201 39.1841 0.0744599
35.1482 46.0508 0.116978
33.9389 43.8111 0.159538
34.263 40.8059 0.140033
33.0597 42.0163 0.256078
35.4775 50.1541 2
34.1844 39.1811 2
32.7142 40.8857 2
34.2681 47.4609 2
32.4825 42.6843 2
33.1316 45.1848 2
33.2691 49.1297 4.00201
32.3914 39.285 3.79972
31.3494 41.1551 3.83727
31.4461 43.7476 3.88839
32.2754 46.3474 3.92788
34.3661 52.4779 0.0060518
32.0203 51.1914 2
29.8897 49.7027 3.99013
30.5271 53.3733 0.0202165
28.4437 51.5875 2
26.5395 49.9747 3.97106
26.896 53.4324 0.0264359
25.099 51.7358 2
23.3745 50.1837 3.97051
23.5889 53.4737 0.0335265
21.9899 51.7936 2
20.4913 50.3089 3.9681
18.011 50.3255 3.96897
17.8509 52.7867 3.96409
19.2211 51.6287 2
17.4434 55.335 3.96769
18.9315 54.3016 2
20.4845 53.2141 0.0383265
17.136 57.8712 3.97508
18.4483 56.7213 2
19.9367 55.8292 0.0282894
17.1363 60.5483 3.97709
18.3685 59.1106 2
19.4385 57.8881 0.0241341
17.4066 63.4684 3.98439
18.6179 61.7685 2
19.7057 60.2063 0.0218858
17.9411 66.6174 3.99235
19.1257 64.6776 2
20.2062 62.8615 0.0172209
18.75 69.9759 4
19.8844 67.8091 2
20.9367 65.7661 0.0121235
21.9108 68.8724 0.00728339
20.9142 71.1327 2
23.1494 72.1454 0
21.5867 13.6059 3.98206
22.19 11.0266 3.98355
23.0961 12.7853 2
23.0405 8.1774 3.9867
23.972 10.1667 2
24.1165 5.14338 3.99198
25.0224 7.31133 2
25.8595 9.3804 0.0158249
25.446 1.99014 4
26.2786 4.32833 2
27.069 6.54146 0.0124787
27.7943 1.27778 2
28.4873 3.64422 0.007389
30.1841 0.720592 0
34.1651 35.8196 3.89292
35.834 35.8202 2
37.497 35.8122 0.055086
21.3053 15.8291 3.9816
24.7763 12.0705 0.0170261
23.751 14.3564 0.0179125
25.3576 13.9053 2
22.4805 15.0332 2
24.0252 15.6191 2
23.264 16.2513 3.98059
25.38 16.0876 3.98167
27.2909 13.3737 0.0174893
29.7801 14.201 0.0184178
28.3566 15.9752 2
27.4398 18.798 3.98403
32.7292 34.1153 3.77976
34.2845 34.2095 2
35.8423 34.1164 0.110112
34.1806 32.6463 0.223072
35.6593 30.4611 0.145286
37.5319 28.6188 0.114837
40.0434 27.5608 0.0803989
37.6165 27.2271 2
33.0705 32.9753 2
35.1793 28.9132 2
33.9385 31.1606 2
35.0723 27.3851 3.93644
33.1712 29.8405 3.88644
32.5212 32.3284 3.83826
29.58 21.9349 3.99712
30.2083 19.343 2
30.9262 16.8373 0.0189659
37.7982 25.2083 -0.010026
35.1965 22.6517 0.0111253
32.8619 19.7965 0.0187103
32.3083 22.4153 2
35.0089 25.1907 2
31.7299 25.6368 4.00212
32.2707 37.504 3.8047
34.13 37.5032 2
35.8101 37.5004 0.0634076
35.4799 50.1382 -0.00264982
34.2737 47.4259 0.0706734
34.1714 39.1853 0.104932
33.1466 45.1647 0.109649
32.5009 42.6661 0.152799
32.7089 40.8851 0.21824
33.2635 49.1227 2
32.3962 39.2813 2
31.3262 41.1689 2
32.2528 46.3721 2
31.427 43.7633 2
31.1913 47.96 3.99308
30.6009 39.4365 3.83455
30.0869 41.958 3.88272
30.4753 44.9354 3.94128
32.0219 51.1831 -0.0019623
29.8864 49.7022 2
27.9246 48.1693 3.9714
28.4455 51.5874 0.0222561
26.5377 49.9734 2
24.6978 48.4586 3.97364
25.1008 51.7374 0.0370982
23.3741 50.1821 2
21.7117 48.7805 3.97099
21.991 51.7948 0.0380266
20.49 50.308 2
19.0716 49.0866 3.97245
16.9173 49.3267 3.97212
16.7898 51.4025 3.9665
18.0113 50.3248 2
16.4006 53.8651 3.96531
17.8498 52.7864 2
19.2223 51.6292 0.0348339
15.9802 56.4715 3.9701
17.4427 55.3356 2
18.9325 54.3017 0.0354269
15.7504 59.2085 3.97602
17.1357 57.8725 2
18.4491 56.7203 0.0240725
15.7878 62.1373 3.98097
17.1363 60.5498 2
18.3687 59.1094 0.0245873
16.088 65.3001 3.99163
17.4065 63.4695 2
18.6178 61.7672 0.0197272
16.6661 68.6801 4
17.9406 66.6175 2
19.1258 64.6766 0.0130557
18.75 69.9759 2
19.8848 67.809 0.00738648
20.9142 71.1327 0
20.2189 14.595 3.98118
21.5871 13.6059 2
20.5293 11.9966 3.98295
21.1433 9.1473 3.98646
22.1902 11.0264 2
23.0957 12.7854 0.0173783
22.0155 6.08246 3.99181
23.0402 8.17698 2
23.9719 10.1671 0.0160311
23.1494 2.85457 4
24.116 5.14323 2
25.0227 7.31182 0.0129795
25.446 1.99012 2
26.2789 4.32854 0.00772946
27.7943 1.27781 0
32.3961 35.7177 3.79541
34.1759 35.8257 2
35.8203 35.8197 0.0730692
21.3059 15.8289 2
20.3034 16.963 3.98193
22.0972 16.6355 3.97938
25.3571 13.9055 0.0179849
22.4798 15.0333 0.0184
24.0245 15.6192 0.0188677
25.3806 16.0875 2
23.2647 16.2512 2
24.2043 18.4528 3.97845
27.0194 21.4581 3.99017
28.3563 15.975 0.0180399
27.4408 18.7982 2
31.3822 33.8509 3.839
32.7371 34.115 2
34.2719 34.2027 0.140471
33.0858 32.9844 0.255528
33.9553 31.1884 0.159307
35.1922 28.9343 0.112206
37.6156 27.2572 0.0661086
35.055 27.3516 2
32.4837 32.3111 2
33.1544 29.8122 2
32.5905 28.1134 3.951
31.4504 31.2605 3.88864
28.8334 24.4057 3.98188
29.577 21.9387 2
30.2079 19.3407 0.0149325
34.9951 25.1974 -0.0050452
32.3103 22.4157 0.00863006
31.7365 25.6215 2
29.7 27.3194 3.96732
30.3084 37.495 3.8405
32.2706 37.5013 2
34.1199 37.502 0.0967871
33.2691 49.1297 -0.00200955
32.2754 46.3474 0.0721238
32.3914 39.285 0.20028
31.4461 43.7476 0.111608
31.3494 41.1551 0.162725
31.1878 47.9631 2
30.5793 39.4492 2
30.0673 41.9716 2
30.4515 44.9524 2
29.2542 46.5612 4.00123
29.1848 39.8536 3.89078
28.802 43.1597 3.94431
29.8897 49.7027 0.00987374
27.9205 48.1659 2
26.0214 46.6424 3.97528
26.5395 49.9747 0.0289432
24.6973 48.4563 2
22.8812 47.0656 3.9753
23.3745 50.1837 0.0294885
21.7114 48.7794 2
20.0377 47.6112 3.97717
20.4913 50.3089 0.0319038
19.0723 49.0857 2
17.7043 48.1734 3.97576
16.1631 48.6787 3.97435
16.9182 49.3261 2
15.8654 50.1656 3.96936
15.3867 52.4116 3.96664
16.789 51.4022 2
18.011 50.3255 0.0310261
14.8755 54.9714 3.96664
16.4 53.8652 2
17.8509 52.7867 0.0359098
14.461 57.7367 3.97339
15.9798 56.4725 2
17.4434 55.335 0.0323083
14.2663 60.6908 3.97959
15.7503 59.21 2
17.136 57.8712 0.0249244
14.3328 63.859 3.98975
15.7876 62.1385 2
17.1363 60.5483 0.0229076
14.6715 67.2507 4
16.0873 65.2998 2
17.4066 63.4684 0.0156074
16.6661 68.6801 2
17.9411 66.6174 0.00765429
18.75 69.9759 0
18.9331 15.7823 3.98067
20.2194 14.595 2
18.9791 13.1077 3.98199
21.5867 13.6059 0.0179379
20.5297 11.9965 2
19.3426 10.2353 3.98607
19.9901 7.14713 3.99176
21.1432 9.14701 2
22.19 11.0266 0.0164525
20.9142 3.86727 4
22.015 6.08246 2
23.0405 8.1774 0.0133013
23.1494 2.85451 2
24.1165 5.14338 0.00801574
25.446 1.99014 0
30.6175 35.5732 3.83764
32.4027 35.7191 2
34.1651 35.8196 0.107083
21.3053 15.8291 0.0183957
22.0979 16.6354 2
20.304 16.9624 2
19.2458 18.4112 3.9781
21.7822 17.8528 3.98013
25.38 16.0876 0.0183256
23.264 16.2513 0.0194069
24.2051 18.4527 2
22.2827 19.898 3.97539
24.5989 21.3277 3.98387
26.4436 23.7243 3.96991
27.0187 21.458 2
27.4398 18.798 0.0159739
30.1148 33.0471 3.88662
31.3547 33.8203 2
32.7292 34.1153 0.220239
32.5212 32.3284 0.161742
33.1712 29.8405 0.113559
35.0723 27.3851 0.0635584
32.5831 28.1004 2
31.4462 31.2403 2
30.1865 29.5538 3.9603
27.9407 26.5459 3.97852
28.8345 24.4155 2
29.58 21.9349 0.00287557
31.7299 25.6368 -0.00212264
29.6981 27.2832 2
28.8482 37.5136 3.89881
30.3007 37.499 2
32.2707 37.504 0.195301
31.1913 47.96 0.00692077
30.4753 44.9354 0.0587172
30.6009 39.4365 0.165452
30.0869 41.958 0.11728
29.2505 46.5765 2
29.1629 39.8726 2
28.777 43.1766 2
27.3844 44.8557 3.98356
26.9564 40.5843 3.96554
27.9246 48.1693 0.0285973
26.0172 46.6445 2
24.106 45.199 3.97724
24.6978 48.4586 0.0263553
22.8811 47.064 2
21.0095 45.8842 3.97885
21.7117 48.7805 0.0290108
20.0395 47.6101 2
18.3714 46.7315 3.97785
19.0716 49.0866 0.027551
17.7046 48.1727 2
16.3629 47.7086 3.97549
16.1637 48.6783 2
15.2088 49.0111 3.97194
16.9173 49.3267 0.0278775
15.866 50.1652 2
14.4995 50.9811 3.96824
13.8365 53.43 3.96812
15.3871 52.4116 2
16.7898 51.4025 0.0335003
13.2586 56.1628 3.96979
14.8752 54.9717 2
16.4006 53.8651 0.0346913
12.8493 59.1242 3.97835
14.4609 57.7378 2
15.9802 56.4715 0.0299019
12.6786 62.3013 3.98743
14.2661 60.6919 2
15.7504 59.2085 0.0239761
12.7746 65.6939 4
14.3318 63.8585 2
15.7878 62.1373 0.0190292
14.6714 67.2507 2
16.088 65.3001 0.00836757
16.6661 68.6801 0
17.6688 17.1586 3.97795
18.9336 15.782 2
17.5109 14.3725 3.98077
20.2189 14.595 0.018823
18.9796 13.1075 2
17.6382 11.4543 3.9851
20.5293 11.9966 0.0170517
19.3427 10.235 2
18.0503 8.33991 3.99172
18.75 5.0241 4
19.9895 7.14736 2
21.1433 9.1473 0.0135352
20.9142 3.86727 2
22.0155 6.08246 0.00818909
23.1494 2.85457 0
29.2048 35.1287 3.89495
30.5982 35.5579 2
32.3961 35.7177 0.20459
22.0972 16.6355 0.0206184
20.3034 16.963 0.0180709
21.7828 17.8526 2
19.2463 18.4104 2
17.9861 19.9446 3.97408
20.8799 19.3835 3.97795
24.2043 18.4528 0.0215465
22.2832 19.8976 2
24.5988 21.3284 2
22.3686 21.7251 3.97789
24.717 23.1721 3.97299
25.5224 25.9536 3.96935
26.4472 23.7242 2
27.0194 21.4581 0.00982756
28.4875 32.3436 3.93993
30.0904 33.0395 2
31.3822 33.8509 0.160999
31.4504 31.2605 0.111359
32.5905 28.1134 0.0489976
30.1705 29.5443 2
27.1119 29.1364 4.00342
27.9374 26.548 2
28.8334 24.4057 0.018119
29.7 27.3194 0.0326829
27.0788 37.3681 3.94829
28.8166 37.5032 2
30.3084 37.495 0.159502
29.2542 46.5612 -0.00122759
28.802 43.1597 0.055689
29.1848 39.8536 0.109219
27.3786 44.8721 2
26.9429 40.601 2
25.4027 43.1649 3.98014
24.2063 39.4371 3.97906
26.0214 46.6424 0.0247165
24.0994 45.198 2
22.0007 43.9391 3.9791
22.8812 47.0656 0.024701
21.0098 45.8832 2
19.0529 44.9625 3.97835
20.0377 47.6112 0.0228274
18.373 46.7308 2
16.6678 46.2075 3.97599
17.7043 48.1734 0.0242424
16.3632 47.7082 2
14.9474 47.6656 3.97308
16.1631 48.6787 0.0256491
15.2095 49.0108 2
13.7957 49.5427 3.96961
15.8654 50.1656 0.0306366
14.5001 50.9809 2
12.9018 51.8711 3.96869
12.1467 54.5228 3.97036
13.8368 53.43 2
15.3867 52.4116 0.0333598
11.5354 57.4556 3.97538
13.2586 56.1635 2
14.8755 54.9714 0.0333605
11.1334 60.6272 3.98576
12.8492 59.125 2
14.461 57.7367 0.0266124
10.9835 64.0165 4
12.6774 62.3 2
14.2663 60.6908 0.0204142
12.7745 65.694 2
14.3328 63.859 0.0102475
14.6715 67.2507 0
16.4036 18.6539 3.9755
17.6691 17.1579 2
16.1024 15.7821 3.97979
18.9331 15.7823 0.0193348
17.5113 14.3719 2
16.02 12.8082 3.98318
18.9791 13.1077 0.0180122
17.6384 11.4539 2
16.2016 9.66279 3.99155
19.3426 10.2353 0.0139318
18.0498 8.34035 2
16.6661 6.31991 4
18.75 5.02404 2
19.9901 7.14713 0.00824147
20.9142 3.86727 0
27.6015 34.7828 3.94035
29.1794 35.1125 2
30.6175 35.5732 0.162358
16.6925 21.3845 3.96676
21.7822 17.8528 0.0198728
19.2458 18.4112 0.0218983
20.8804 19.3829 2
17.9865 19.9436 2
19.7343 21.5796 3.97696
22.2827 19.898 0.0246089
24.5989 21.3277 0.0161302
22.3689 21.725 2
24.7184 23.1714 2
22.8797 24.6064 3.97064
24.654 28.5333 3.97496
25.5204 25.9521 2
26.4436 23.7243 0.0300885
26.3309 31.7114 3.98879
28.462 32.327 2
30.1148 33.0471 0.113383
30.1865 29.5538 0.0396999
27.124 29.1293 2
27.9407 26.5459 0.0214772
24.9052 36.858 3.98915
27.0581 37.3653 2
28.8482 37.5136 0.101189
27.3844 44.8557 0.0164357
26.9564 40.5843 0.0344581
25.39 43.1707 2
24.1943 39.4368 2
23.1052 41.7967 3.98015
21.9244 38.5104 3.97761
24.106 45.199 0.0227583
22.0004 43.9397 2
19.8459 42.8792 3.97802
21.0095 45.8842 0.0211506
19.0534 44.9619 2
17.016 44.3748 3.97663
18.3714 46.7315 0.0221479
16.6684 46.2071 2
14.8788 46.086 3.97364
16.3629 47.7086 0.0245138
14.9478 47.6653 2
13.3052 48.0054 3.97032
15.2088 49.0111 0.0280557
13.7963 49.5426 2
12.1201 50.2505 3.96903
14.4995 50.9811 0.0317593
12.9021 51.871 2
11.1416 52.8341 3.97066
10.3267 55.7083 3.97442
12.147 54.5229 2
13.8365 53.43 0.0318764
9.70038 58.8491 3.98346
11.5354 57.4561 2
13.2586 56.1628 0.0302075
9.30605 62.2254 4
11.132 60.6254 2
12.8493 59.1242 0.0216548
10.9835 64.0165 2
12.6786 62.3013 0.0125696
12.7746 65.6939 0
15.1533 20.1915 3.96932
16.4039 18.6531 2
14.7493 17.3057 3.9771
17.6688 17.1586 0.0220451
16.1027 15.7811 2
14.4827 14.2908 3.98164
17.5109 14.3725 0.0192304
16.0202 12.8075 2
14.4445 11.1138 3.99081
17.6382 11.4543 0.0149016
16.201 9.66337 2
14.6715 7.74927 4
18.0503 8.33991 0.00827552
16.6661 6.31988 2
18.75 5.0241 0
25.5573 34.2705 3.99107
27.5805 34.7746 2
29.2048 35.1287 0.105052
17.8719 22.3311 3.97951
15.5392 22.9241 3.97047
16.6928 21.3839 2
20.8799 19.3835 0.0220533
17.9861 19.9446 0.025918
19.7346 21.579 2
19.6989 24.3862 3.96931
22.3686 21.7251 0.0221072
24.717 23.1721 0.0270132
22.8801 24.6058 2
22.0221 27.8323 3.97126
23.8917 31.1959 3.97522
24.661 28.5336 2
25.5224 25.9536 0.0306496
26.3203 31.6967 2
28.4875 32.3436 0.0600675
27.1119 29.1364 -0.00341517
22.6557 36.2831 3.98073
24.8853 36.8551 2
27.0788 37.3681 0.0517136
25.4027 43.1649 0.0198592
24.2063 39.4371 0.0209367
23.0996 41.7953 2
21.9184 38.5098 2
20.8449 40.6382 3.97662
20.2476 37.7919 3.97759
22.0007 43.9391 0.0208965
19.8465 42.8793 2
17.4539 42.0963 3.97736
19.0529 44.9625 0.0216487
17.0172 44.3744 2
14.8986 44.1962 3.97372
16.6678 46.2075 0.0240094
14.8792 46.0858 2
12.9824 46.2924 3.97064
14.9474 47.6656 0.0269208
13.3056 48.0053 2
11.4908 48.5481 3.96908
13.7957 49.5427 0.0303901
12.1204 50.2504 2
10.2669 51.0789 3.97033
12.9018 51.8711 0.0313067
11.142 52.834 2
9.23526 53.888 3.9747
8.38419 56.9816 3.98249
10.327 55.708 2
12.1467 54.5228 0.0296374
7.74927 60.3285 4
9.69913 58.8464 2
11.5354 57.4556 0.0246163
9.306 62.2255 2
11.1334 60.6272 0.0142361
10.9835 64.0165 0
13.9679 21.7576 3.96848
15.1536 20.1906 2
13.4528 18.9048 3.97248
16.4036 18.6539 0.0245035
14.7496 17.3045 2
13.0286 15.8842 3.98033
16.1024 15.7821 0.0202111
14.4829 14.2897 2
12.7821 12.6873 3.98921
16.02 12.8082 0.0168209
14.4439 11.1145 2
12.7746 9.30605 4
16.2016 9.66279 0.00845022
14.6715 7.74924 2
16.6661 6.31991 0
23.229 33.8082 3.98002
25.5366 34.2667 2
27.6015 34.7828 0.0596492
17.6584 24.047 3.9706
17.8722 22.3305 2
14.3285 24.4529 3.96992
15.5399 22.9238 2
16.6925 21.3845 0.0332407
19.1224 27.2104 3.97057
19.7343 21.5796 0.0230442
19.6989 24.3858 2
21.3011 30.6723 3.97298
22.8797 24.6064 0.0293582
22.0252 27.8324 2
23.8799 31.1967 2
24.654 28.5333 0.0250418
26.3309 31.7114 0.0112063
20.375 35.931 3.97702
22.6522 36.28 2
24.9052 36.858 0.0108483
23.1052 41.7967 0.0198543
21.9244 38.5104 0.0223911
20.8428 40.6388 2
20.2479 37.7923 2
18.1895 39.0007 3.97775
19.8459 42.8792 0.0219776
17.4547 42.096 2
14.8781 41.9146 3.97376
17.016 44.3748 0.0233658
14.8994 44.196 2
12.7342 44.3885 3.97084
14.8788 46.086 0.0263589
12.9826 46.2923 2
10.9923 46.7322 3.96872
13.3052 48.0054 0.0296779
11.491 48.5481 2
9.52997 49.2393 3.96987
12.1201 50.2505 0.0309721
10.2673 51.0788 2
8.26803 52.0018 3.97442
11.1416 52.8341 0.0293352
9.23564 53.8875 2
7.19311 55.0322 3.98327
6.31991 58.3339 4
8.38335 56.9785 2
10.3267 55.7083 0.0255832
7.74924 60.3285 2
9.70038 58.8491 0.0165406
9.30605 62.2254 0
13.2395 25.3641 3.9711
12.8343 23.2837 3.9695
13.9685 21.7573 2
12.2405 20.5546 3.97042
15.1533 20.1915 0.030683
13.4532 18.9035 2
11.6595 17.5661 3.97784
14.7493 17.3057 0.0228952
13.0287 15.883 2
11.2196 14.3726 3.98716
14.4827 14.2908 0.0183562
12.7812 12.6882 2
10.9835 10.9835 4
14.4445 11.1138 0.00918628
12.7745 9.306 2
14.6715 7.74927 0
20.7363 33.4032 3.97523
23.2342 33.8097 2
25.5573 34.2705 0.00893011
15.9554 26.4053 3.97087
17.6585 24.0466 2
17.8719 22.3311 0.0204866
14.3288 24.4527 2
15.5392 22.9241 0.0295318
18.4791 30.1793 3.97368
19.1215 27.2102 2
19.6989 24.3862 0.0306936
21.3084 30.6724 2
22.0221 27.8323 0.0287422
23.8917 31.1959 0.0247825
17.8094 35.9662 3.97811
20.372 35.9315 2
22.6557 36.2831 0.0192668
20.8449 40.6382 0.0233805
20.2476 37.7919 0.0224077
18.1915 39.0008 2
14.3958 39.1741 3.9748
17.4539 42.0963 0.0226431
14.8788 41.9145 2
12.437 42.2735 3.97132
14.8986 44.1962 0.0262839
12.7346 44.3884 2
10.5724 44.8008 3.96876
12.9824 46.2924 0.0293562
10.9924 46.7322 2
8.91225 47.3187 3.96926
11.4908 48.5481 0.0309187
9.53019 49.2392 2
7.43499 50.0354 3.97377
10.2669 51.0789 0.0296665
8.26836 52.0013 2
6.13369 53.0072 3.98388
9.23526 53.888 0.0253026
7.19257 55.0294 2
5.0241 56.25 4
6.31988 58.3339 2
8.38419 56.9816 0.0175116
7.74927 60.3285 0
13.4899 26.8166 3.97052
11.9445 24.7888 3.97049
13.2396 25.364 2
11.1441 22.2377 3.97021
12.8348 23.2835 2
13.9679 21.7576 0.0315216
12.2413 20.5539 2
10.3912 19.3214 3.97541
13.4528 18.9048 0.0275186
11.6598 17.5651 2
9.76074 16.1565 3.98499
13.0286 15.8842 0.0196707
11.2186 14.3739 2
9.30607 12.7746 4
12.7821 12.6873 0.010787
10.9835 10.9835 2
12.7746 9.30605 0
17.979 33.1157 3.97639
20.7349 33.403 2
23.229 33.8082 0.0199761
15.5619 29.641 3.97261
15.9551 26.4052 2
17.6584 24.047 0.0293963
14.3285 24.4529 0.030079
18.4793 30.1794 2
19.1224 27.2104 0.0294321
21.3011 30.6723 0.0270205
15.0049 36.019 3.97525
17.8097 35.9663 2
20.375 35.931 0.0229828
12.6593 37.8283 3.97425
18.1895 39.0007 0.0222539
14.3964 39.174 2
11.9561 40.1383 3.9721
14.8781 41.9146 0.0262394
12.4373 42.2734 2
10.1778 42.7761 3.96887
12.7342 44.3885 0.0291583
10.5724 44.8008 2
8.39011 45.3206 3.96881
10.9923 46.7322 0.0312821
8.9123 47.3186 2
6.72633 48.0006 3.97316
9.52997 49.2393 0.0301295
7.43517 50.0349 2
5.21054 50.9106 3.98376
8.26803 52.0018 0.0255805
6.1334 53.0052 2
3.86727 54.0858 4
7.19311 55.0322 0.0167315
5.02404 56.25 2
6.31991 58.3339 0
12.9564 29.0351 3.97013
11.3767 26.488 3.96905
13.4894 26.8164 2
10.2019 23.9688 3.97068
11.945 24.7886 2
13.2395 25.3641 0.0288994
9.24422 21.1398 3.97415
11.1448 22.2374 2
12.8343 23.2837 0.0304981
12.2405 20.5546 0.0295752
10.392 19.321 2
8.41694 18.0283 3.98318
11.6595 17.5661 0.0221561
9.75965 16.1587 2
7.74928 14.6715 4
11.2196 14.3726 0.0128353
9.30602 12.7745 2
10.9835 10.9835 0
14.5651 32.865 3.97419
17.9799 33.1159 2
20.7363 33.4032 0.0247689
15.5623 29.6411 2
15.9554 26.4053 0.0291331
18.4791 30.1793 0.0263221
12.9548 36.209 3.97304
15.0063 36.019 2
17.8094 35.9662 0.0218927
12.66 37.8282 2
11.3055 38.3086 3.97246
14.3958 39.1741 0.0251991
11.9568 40.1382 2
9.76903 40.7528 3.9694
12.437 42.2735 0.0286834
10.1781 42.776 2
7.93941 43.2694 3.96855
10.5724 44.8008 0.0312391
8.39018 45.3205 2
6.13263 45.9057 3.9726
8.91225 47.3187 0.0307418
6.72636 48.0003 2
4.42217 48.7513 3.98321
7.43499 50.0354 0.0262262
5.2104 50.9095 2
2.85457 51.8506 4
6.13369 53.0072 0.0161246
3.86727 54.0858 2
5.0241 56.25 0
12.1029 31.2581 3.97125
10.7927 28.4156 3.96893
12.9568 29.0351 2
9.41659 25.7983 3.96998
11.3769 26.4878 2
13.4899 26.8166 0.0294836
8.23085 23.0236 3.97423
10.2024 23.9687 2
11.9445 24.7888 0.0295064
7.19928 19.9787 3.9827
9.24502 21.1398 2
11.1441 22.2377 0.0297912
10.3912 19.3214 0.0245861
8.41629 18.0311 2
6.31992 16.6661 4
9.76074 16.1565 0.0150114
7.74926 14.6714 2
9.30607 12.7746 0
12.1344 34.2953 3.97336
14.566 32.8651 2
17.979 33.1157 0.0236097
15.5619 29.641 0.027387
10.8674 36.6106 3.97197
12.9556 36.209 2
15.0049 36.019 0.024754
12.6593 37.8283 0.0257491
11.3062 38.3085 2
9.36227 38.8224 3.96989
11.9561 40.1383 0.0279043
9.76954 40.7526 2
7.55079 41.2107 3.96859
10.1778 42.7761 0.0311282
7.9395 43.2692 2
5.64479 43.7686 3.97217
8.39011 45.3206 0.0311882
6.13269 45.9054 2
3.76785 46.5371 3.98261
6.72633 48.0006 0.026839
4.42211 48.7509 2
1.99014 49.554 4
5.21054 50.9106 0.0162448
2.85451 51.8506 2
3.86727 54.0858 0
10.9497 32.9199 3.97238
10.11 30.3827 3.9691
12.1037 31.2582 2
8.72448 27.7317 3.96939
10.7928 28.4155 2
12.9564 29.0351 0.0298686
7.35633 24.9823 3.97356
9.41686 25.7981 2
11.3767 26.488 0.0309504
6.11611 22.0023 3.98356
8.23145 23.0237 2
10.2019 23.9688 0.0293162
5.02411 18.75 4
7.19903 19.9813 2
9.24422 21.1398 0.0258513
8.41694 18.0283 0.0168174
6.3199 16.6661 2
7.74928 14.6715 0
10.4735 35 3.97174
12.1354 34.2953 2
14.5651 32.865 0.0258066
9.03097 36.9843 3.97011
10.8685 36.6105 2
12.9548 36.209 0.0269569
11.3055 38.3086 0.0275395
9.36279 38.8223 2
7.23121 39.1816 3.96895
9.76903 40.7528 0.0306042
7.55102 41.2106 2
5.26029 41.6141 3.97163
7.93941 43.2694 0.0314477
5.64487 43.7683 2
3.24567 44.282 3.98223
6.13263 45.9057 0.0273952
3.76792 46.5368 2
1.27781 47.2057 4
4.42217 48.7513 0.0167855
1.99012 49.554 2
2.85457 51.8506 0
10.1112 33.8817 3.97204
9.39895 32.1548 3.96968
10.9501 32.9199 2
8.07349 29.6952 3.96916
10.1103 30.3827 2
12.1029 31.2581 0.0287516
6.60015 27.0082 3.97305
8.72451 27.7316 2
10.7927 28.4156 0.0310741
5.17147 24.0951 3.98368
7.35664 24.9824 2
9.41659 25.7983 0.0300241
3.86728 20.9142 4
6.11604 22.004 2
8.23085 23.0236 0.0257701
5.02406 18.75 2
7.19928 19.9787 0.0172998
6.31992 16.6661 0
8.85535 35.2792 3.97026
10.4741 35 2
12.1344 34.2953 0.0266434
7.01485 37.2055 3.96912
9.03111 36.9842 2
10.8674 36.6106 0.0280302
9.36227 38.8224 0.0301116
7.23138 39.1815 2
4.98815 39.4673 3.97159
7.55079 41.2107 0.0314112
5.2605 41.6138 2
2.85627 42.0023 3.98189
5.64479 43.7686 0.0278258
3.24578 44.2819 2
0.720592 44.8159 4
3.76785 46.5371 0.0173924
1.27778 47.2057 2
1.99014 49.554 0
8.89268 33.6978 3.97022
10.1117 33.8817 2
7.51102 31.6089 3.96929
9.39922 32.1547 2
10.9497 32.9199 0.0276171
5.94534 29.0692 3.97281
8.07342 29.6951 2
10.11 30.3827 0.0308986
4.35925 26.2475 3.98312
6.60022 27.0083 2
8.72448 27.7317 0.0306118
2.85458 23.1494 4
5.17146 24.0959 2
7.35633 24.9823 0.0264357
3.86728 20.9142 2
6.11611 22.0023 0.0164424
5.02411 18.75 0
6.96501 35.3057 3.96925
8.85578 35.2791 2
10.4735 35 0.0282589
4.83819 37.3396 3.97211
7.01493 37.2055 2
9.03097 36.9843 0.0298927
7.23121 39.1816 0.0310534
4.98832 39.4671 2
2.60443 39.714 3.98154
5.26029 41.6141 0.0283705
2.85649 42.0025 2
0.320823 42.3947 4
3.24567 44.282 0.0177673
0.720551 44.8159 2
1.27781 47.2057 0
7.12482 33.4606 3.96948
8.89283 33.6977 2
10.1112 33.8817 0.027964
5.41628 31.1331 3.97266
7.51106 31.6088 2
9.39895 32.1548 0.0303179
3.68102 28.4434 3.98262
5.94528 29.0692 2
8.07349 29.6952 0.0308431
1.99015 25.446 4
4.35926 26.2477 2
6.60015 27.0082 0.026952
2.85453 23.1494 2
5.17147 24.0951 0.0163241
3.86728 20.9142 0
4.85246 35.2512 3.9723
6.96524 35.3057 2
8.85535 35.2792 0.0297381
2.4958 37.4285 3.98207
4.83825 37.3396 2
7.01485 37.2055 0.0308755
4.98815 39.4673 0.0284103
2.60464 39.7144 2
0.080333 39.9526 4
2.85627 42.0023 0.018113
0.320817 42.3947 2
0.720592 44.8159 0
5.04573 33.1898 3.9726
7.12497 33.4606 2
8.89268 33.6978 0.0297831
3.14538 30.666 3.98222
5.41632 31.1333 2
7.51102 31.6089 0.0307081
1.27793 27.7943 4
3.68105 28.4435 2
5.94534 29.0692 0.027188
1.99013 25.446 2
4.35925 26.2475 0.0168843
2.85458 23.1494 0
2.54791 35.159 3.98213
4.8527 35.2514 2
6.96501 35.3057 0.0307507
0 37.5 4
2.4959 37.4289 2
4.83819 37.3396 0.0278871
2.60443 39.714 0.0184566
0.0802903 39.9526 2
0.320823 42.3947 0
2.76545 32.9057 3.98228
5.04588 33.19 2
7.12482 33.4606 0.0305164
0.721173 30.1842 4
3.1455 30.6665 2
5.41628 31.1331 0.0273389
1.27779 27.7943 2
3.68102 28.4434 0.0173811
1.99015 25.446 0
0.0806499 35.0474 4
2.54819 35.1594 2
4.85246 35.2512 0.0276972
0 37.5 2
2.4958 37.4285 0.0179278
0.080333 39.9526 0
0.32156 32.6054 4
2.7656 32.9062 2
5.04573 33.1898 0.0273965
0.72056 30.1841 2
3.14538 30.666 0.0177802
1.27793 27.7943 0
0.0802889 35.0474 2
2.54791 35.159 0.0178653
0 37.5 0
0.320817 32.6053 2
2.76545 32.9057 0.0177151
0.721173 30.1842 0
0.0806499 35.0474 0
0.32156 32.6054 0
CELLS 1910 17190
8 18 6 25 56 2 0 5 16
8 57 23 6 18 17 4 0 2
8 78 36 9 29 31 11 1 7
8 31 11 1 7 79 37 10 30
8 110 57 18 50 48 17 2 14
8 50 18 56 111 14 2 16 49
8 116 62 22 55 52 20 3 15
8 56 25 67 118 16 5 24 53
8 119 63 23 57 54 21 4 17
8 55 22 63 119 15 3 21 54
8 58 26 68 121 18 6 25 56
8 122 65 26 58 57 23 6 18
8 73 31 7 27 142 79 30 71
8 143 78 29 72 73 31 7 27
8 83 147 76 34 32 74 28 8
8 84 148 78 36 33 75 29 9
8 76 34 8 28 148 84 33 75
8 37 79 150 86 10 30 77 35
8 151 87 36 78 80 38 11 31
8 80 38 11 31 152 88 37 79
8 175 100 42 94 96 44 12 40
8 44 96 176 101 12 40 95 43
8 101 176 98 46 43 95 41 13
8 46 98 178 103 13 41 97 45
8 178 103 45 97 147 83 32 74
8 189 116 55 109 106 52 15 47
8 111 56 118 191 49 16 53 107
8 192 119 57 110 108 54 17 48
8 109 55 119 192 47 15 54 108
8 194 122 58 112 110 57 18 50
8 112 58 121 195 50 18 56 111
8 115 61 19 51 197 124 59 113
8 115 61 125 198 51 19 60 114
8 198 125 62 116 114 60 20 52
8 200 127 64 120 116 62 22 55
8 118 67 132 202 53 24 66 117
8 121 68 133 203 56 25 67 118
8 120 64 128 204 55 22 63 119
8 204 128 65 122 119 63 23 57
8 206 134 68 121 123 69 26 58
8 123 69 26 58 207 131 65 122
8 226 147 74 138 140 76 28 70
8 229 148 75 139 143 78 29 72
8 140 76 28 70 229 148 75 139
8 142 79 30 71 231 150 77 141
8 144 80 31 73 232 152 79 142
8 233 151 78 143 144 80 31 73
8 150 86 35 77 235 154 81 145
8 235 154 81 145 146 82 39 91
8 146 82 39 91 236 155 90 165
8 238 157 83 147 149 85 34 76
8 239 158 84 148 151 87 36 78
8 149 85 34 76 239 158 84 148
8 152 88 37 79 241 160 86 150
8 242 161 87 151 153 89 38 80
8 153 89 38 80 243 162 88 152
8 171 98 41 92 265 178 97 169
8 265 178 97 169 226 147 74 138
8 172 96 40 93 266 176 95 170
8 266 176 95 170 171 98 41 92
8 269 175 94 173 172 96 40 93
8 271 180 99 174 175 100 42 94
8 197 124 59 113 271 180 99 174
8 272 181 100 175 177 102 44 96
8 273 182 101 176 179 104 46 98
8 177 102 44 96 273 182 101 176
8 179 104 46 98 275 184 103 178
8 275 184 103 178 238 157 83 147
8 188 115 51 105 283 197 113 186
8 188 115 198 284 105 51 114 187
8 284 198 116 189 187 114 52 106
8 286 200 120 193 189 116 55 109
8 191 118 202 288 107 53 117 190
8 195 121 203 289 111 56 118 191
8 193 120 204 290 109 55 119 192
8 290 204 122 194 192 119 57 110
8 196 123 58 112 292 207 122 194
8 293 206 121 195 196 123 58 112
8 199 126 61 115 297 211 124 197
8 298 212 127 200 198 125 62 116
8 199 126 212 298 115 61 125 198
8 205 129 64 120 300 214 127 200
8 301 217 130 201 202 132 66 117
8 209 136 168 264 301 217 130 201
8 302 219 132 202 203 133 67 118
8 303 220 133 203 206 134 68 121
8 205 129 215 304 120 64 128 204
8 304 215 131 207 204 128 65 122
8 306 221 134 206 208 135 69 123
8 208 135 69 123 307 218 131 207
8 210 137 167 263 309 223 136 209
8 328 238 147 226 230 149 76 140
8 228 146 91 166 329 236 165 260
8 231 150 77 141 330 235 145 227
8 330 235 145 227 228 146 91 166
8 332 239 148 229 233 151 78 143
8 230 149 76 140 332 239 148 229
8 232 152 79 142 334 241 150 231
8 234 153 80 144 335 243 152 232
8 336 242 151 233 234 153 80 144
8 236 155 90 165 338 245 164 259
8 241 160 86 150 339 246 154 235
8 339 246 154 235 237 156 82 146
8 237 156 82 146 340 247 155 236
8 342 249 157 238 240 159 85 149
8 343 250 158 239 242 161 87 151
8 240 159 85 149 343 250 158 239
8 243 162 88 152 345 252 160 241
8 244 163 253 346 153 89 161 242
8 244 163 89 153 347 254 162 243
8 311 224 261 371 210 137 167 263
8 263 167 262 372 209 136 168 264
8 267 179 98 171 375 275 178 265
8 375 275 178 265 328 238 147 226
8 376 273 176 266 267 179 98 171
8 268 177 96 172 376 273 176 266
8 379 272 175 269 268 177 96 172
8 380 271 174 270 269 175 94 173
8 283 197 113 186 380 271 174 270
8 381 277 180 271 272 181 100 175
8 297 211 124 197 381 277 180 271
8 382 278 181 272 274 183 102 177
8 274 183 102 177 383 279 182 273
8 383 279 182 273 276 185 104 179
8 385 281 184 275 342 249 157 238
8 276 185 104 179 385 281 184 275
8 285 199 115 188 393 297 197 283
8 394 298 200 286 284 198 116 189
8 285 199 298 394 188 115 198 284
8 291 205 120 193 396 300 200 286
8 397 301 201 287 288 202 117 190
8 295 209 264 374 397 301 201 287
8 398 302 202 288 289 203 118 191
8 399 303 203 289 293 206 121 195
8 291 205 304 400 193 120 204 290
8 400 304 207 292 290 204 122 194
8 294 208 123 196 402 307 207 292
8 403 306 206 293 294 208 123 196
8 296 210 263 373 405 309 209 295
8 408 312 213 299 297 211 126 199
8 299 213 313 409 199 126 212 298
8 409 313 214 300 298 212 127 200
8 305 216 129 205 411 315 214 300
8 412 318 217 301 302 219 132 202
8 309 223 136 209 412 318 217 301
8 413 320 219 302 303 220 133 203
8 306 221 321 414 206 134 220 303
8 307 218 131 207 415 316 215 304
8 305 216 316 415 205 129 215 304
8 417 322 221 306 308 222 135 208
8 308 222 135 208 418 319 218 307
8 310 225 137 210 420 325 223 309
8 423 326 224 311 310 225 137 210
8 329 236 165 260 441 338 259 368
8 442 342 238 328 333 240 149 230
8 331 237 146 228 443 340 236 329
8 334 241 150 231 444 339 235 330
8 444 339 235 330 331 237 146 228
8 446 343 239 332 336 242 151 233
8 333 240 149 230 446 343 239 332
8 335 243 152 232 448 345 241 334
8 337 244 153 234 449 347 243 335
8 337 244 346 450 234 153 242 336
8 338 245 164 259 452 349 258 367
8 340 247 155 236 453 350 245 338
8 345 252 160 241 454 351 246 339
8 454 351 246 339 341 248 156 237
8 341 248 156 237 455 352 247 340
8 240 159 251 344 342 249 354 457
8 242 161 253 346 343 250 355 458
8 343 250 355 458 240 159 251 344
8 347 254 162 243 460 357 252 345
8 348 255 358 461 244 163 253 346
8 348 255 163 244 462 359 254 347
8 473 360 257 365 363 256 364 482
8 452 349 258 367 365 257 366 485
8 422 324 369 488 311 224 261 371
8 371 261 370 490 263 167 262 372
8 407 311 371 491 296 210 263 373
8 373 263 372 492 295 209 264 374
8 493 385 275 375 442 342 238 328
8 377 276 179 267 493 385 275 375
8 378 274 177 268 494 383 273 376
8 494 383 273 376 377 276 179 267
8 497 382 272 379 378 274 177 268
8 498 381 271 380 379 272 175 269
8 393 297 197 283 498 381 271 380
8 499 387 277 381 382 278 181 272
8 408 312 211 297 499 387 277 381
8 500 388 278 382 384 280 183 274
8 501 389 279 383 386 282 185 276
8 384 280 183 274 501 389 279 383
8 386 282 185 276 503 391 281 385
8 503 391 281 385 457 354 249 342
8 511 408 299 395 393 297 199 285
8 395 299 409 512 285 199 298 394
8 512 409 300 396 394 298 200 286
8 401 305 205 291 514 411 300 396
8 515 412 301 397 398 302 202 288
8 405 309 209 295 515 412 301 397
8 516 413 302 398 399 303 203 289
8 403 306 414 517 293 206 303 399
8 402 307 207 292 518 415 304 400
8 401 305 415 518 291 205 304 400
8 404 308 208 294 520 418 307 402
8 521 417 306 403 404 308 208 294
8 406 310 210 296 523 420 309 405
8 526 423 311 407 406 310 210 296
8 410 314 213 299 527 424 312 408
8 528 425 315 411 409 313 214 300
8 410 314 425 528 299 213 313 409
8 416 317 216 305 530 427 315 411
8 531 430 318 412 413 320 219 302
8 420 325 223 309 531 430 318 412
8 532 432 320 413 414 321 220 303
8 417 322 433 533 306 221 321 414
8 418 319 218 307 534 428 316 415
8 416 317 428 534 305 216 316 415
8 419 323 434 536 308 222 322 417
8 419 323 222 308 537 431 319 418
8 421 327 225 310 539 438 325 420
8 421 327 439 541 310 225 326 423
8 543 437 324 422 423 326 224 311
8 441 338 259 368 559 452 367 486
8 443 340 236 329 560 453 338 441
8 333 240 344 447 442 342 457 561
8 445 341 237 331 562 455 340 443
8 448 345 241 334 563 454 339 444
8 563 454 339 444 445 341 237 331
8 336 242 346 450 446 343 458 565
8 446 343 458 565 333 240 344 447
8 449 347 243 335 567 460 345 448
8 451 348 244 337 568 462 347 449
8 451 348 461 569 337 244 346 450
8 570 463 349 452 473 360 257 365
8 453 350 245 338 570 463 349 452
8 455 352 247 340 571 464 350 453
8 460 357 252 345 572 465 351 454
8 572 465 351 454 456 353 248 341
8 456 353 248 341 573 466 352 455
8 344 251 356 459 457 354 468 575
8 458 355 469 576 344 251 356 459
8 346 253 358 461 458 355 469 576
8 462 359 254 347 578 471 357 460
8 348 255 359 462 461 358 472 579
8 591 474 360 473 475 361 256 363
8 475 361 256 363 594 477 362 479
8 363 256 364 482 479 362 480 603
8 590 473 365 484 481 363 482 605
8 482 364 257 365 606 483 366 485
8 559 452 367 486 484 365 485 607
8 542 436 487 609 422 324 369 488
8 525 422 488 611 407 311 371 491
8 488 369 489 612 371 261 370 490
8 491 371 490 613 373 263 372 492
8 495 386 276 377 614 503 385 493
8 614 503 385 493 561 457 342 442
8 615 501 383 494 495 386 276 377
8 496 384 274 378 615 501 383 494
8 618 500 382 497 496 384 274 378
8 619 499 381 498 497 382 272 379
8 511 408 297 393 619 499 381 498
8 620 505 387 499 500 388 278 382
8 527 424 312 408 620 505 387 499
8 502 390 506 621 384 280 388 500
8 622 507 389 501 504 392 282 386
8 502 390 280 384 622 507 389 501
8 504 392 282 386 624 509 391 503
8 624 509 391 503 575 468 354 457
8 513 410 299 395 630 527 408 511
8 631 528 411 514 512 409 300 396
8 513 410 528 631 395 299 409 512
8 519 416 305 401 633 530 411 514
8 634 531 412 515 516 413 302 398
8 523 420 309 405 634 531 412 515
8 635 532 413 516 517 414 303 399
8 521 417 533 636 403 306 414 517
8 520 418 307 402 637 534 415 518
8 519 416 534 637 401 305 415 518
8 522 419 308 404 639 537 418 520
8 522 419 536 640 404 308 417 521
8 524 421 310 406 642 539 420 523
8 524 421 541 644 406 310 423 526
8 646 543 422 525 526 423 311 407
8 529 426 314 410 647 544 424 527
8 528 425 545 648 411 315 427 530
8 529 426 545 648 410 314 425 528
8 535 429 317 416 649 546 427 530
8 650 548 430 531 532 432 320 413
8 539 438 325 420 650 548 430 531
8 533 433 550 651 414 321 432 532
8 536 434 551 652 417 322 433 533
8 537 431 319 418 653 547 428 534
8 535 429 547 653 416 317 428 534
8 538 435 552 654 419 323 434 536
8 538 435 323 419 655 549 431 537
8 540 440 327 421 657 556 438 539
8 540 440 557 659 421 327 439 541
8 541 439 555 660 423 326 437 543
8 661 554 436 542 543 437 324 422
8 676 570 452 559 590 473 365 484
8 560 453 338 441 676 570 452 559
8 562 455 340 443 677 571 453 560
8 447 344 459 566 561 457 575 678
8 564 456 341 445 679 573 455 562
8 567 460 345 448 680 572 454 563
8 680 572 454 563 564 456 341 445
8 565 458 576 682 447 344 459 566
8 450 346 461 569 565 458 576 682
8 568 462 347 449 684 578 460 567
8 451 348 462 568 569 461 579 685
8 686 580 463 570 591 474 360 473
8 571 464 350 453 686 580 463 570
8 573 466 352 455 687 581 464 571
8 572 465 582 688 460 357 471 578
8 574 467 582 688 456 353 465 572
8 574 467 353 456 689 583 466 573
8 459 356 470 577 575 468 585 691
8 576 469 586 692 459 356 470 577
8 461 358 472 579 576 469 586 692
8 462 359 471 578 579 472 588 694
8 704 591 473 590 593 475 363 481
8 595 476 592 705 475 361 474 591
8 593 475 363 481 707 594 479 602
8 594 477 362 479 709 598 478 600
8 595 476 361 475 711 597 477 594
8 479 362 480 603 600 478 601 720
8 481 363 482 605 602 479 603 722
8 603 480 364 482 723 604 483 606
8 605 482 365 484 724 606 485 607
8 656 553 608 726 542 436 487 609
8 645 542 609 728 525 422 488 611
8 609 487 610 729 488 369 489 612
8 611 488 612 730 491 371 490 613
8 616 504 386 495 731 624 503 614
8 731 624 503 614 678 575 457 561
8 732 622 501 615 616 504 386 495
8 617 502 384 496 732 622 501 615
8 617 502 621 735 496 384 500 618
8 736 620 499 619 618 500 382 497
8 630 527 408 511 736 620 499 619
8 621 506 626 737 500 388 505 620
8 647 544 424 527 737 626 505 620
8 623 508 627 738 502 390 506 621
8 623 508 390 502 739 628 507 622
8 625 510 628 739 504 392 507 622
8 740 629 509 624 691 585 468 575
8 625 510 392 504 740 629 509 624
8 632 529 410 513 744 647 527 630
8 631 528 648 745 514 411 530 633
8 632 529 648 745 513 410 528 631
8 638 535 416 519 746 649 530 633
8 747 650 531 634 635 532 413 516
8 642 539 420 523 747 650 531 634
8 636 533 651 748 517 414 532 635
8 640 536 652 749 521 417 533 636
8 639 537 418 520 750 653 534 637
8 638 535 653 750 519 416 534 637
8 641 538 419 522 751 655 537 639
8 641 538 654 752 522 419 536 640
8 643 540 421 524 753 657 539 642
8 643 540 659 755 524 421 541 644
8 644 541 660 757 526 423 543 646
8 758 661 542 645 646 543 422 525
8 529 426 544 647 648 545 662 759
8 530 427 545 648 649 546 663 760
8 535 429 546 649 653 547 664 761
8 762 666 548 650 651 550 432 532
8 657 556 438 539 762 666 548 650
8 652 551 668 763 533 433 550 651
8 654 552 669 764 536 434 551 652
8 655 549 431 537 765 665 547 653
8 538 435 549 655 654 552 667 766
8 661 554 671 768 542 436 553 656
8 658 558 440 540 769 674 556 657
8 658 558 675 770 540 440 557 659
8 659 557 673 771 541 439 555 660
8 660 555 672 772 543 437 554 661
8 788 686 570 676 704 591 473 590
8 677 571 453 560 788 686 570 676
8 679 573 455 562 789 687 571 677
8 566 459 577 683 678 575 691 790
8 681 574 456 564 791 689 573 679
8 680 572 688 792 567 460 578 684
8 681 574 688 792 564 456 572 680
8 682 576 692 794 566 459 577 683
8 569 461 579 685 682 576 692 794
8 568 462 578 684 685 579 694 796
8 687 581 464 571 798 696 580 686
8 798 696 580 686 705 592 474 591
8 689 583 466 573 799 697 581 687
8 688 582 698 800 578 471 588 694
8 690 584 698 800 574 467 582 688
8 690 584 467 574 801 699 583 689
8 693 587 701 803 577 470 585 691
8 693 587 470 577 804 702 586 692
8 695 589 702 804 579 472 586 692
8 695 589 472 579 805 703 588 694
8 708 595 705 813 593 475 591 704
8 710 596 706 814 595 476 592 705
8 707 594 479 602 816 709 600 719
8 708 595 475 593 817 711 594 707
8 709 598 478 600 819 715 599 717
8 711 597 477 594 820 714 598 709
8 710 596 476 595 822 713 597 711
8 600 478 601 720 717 599 718 832
8 602 479 603 722 719 600 720 834
8 720 601 480 603 835 721 604 723
8 722 603 482 605 836 723 606 724
8 767 670 725 839 656 553 608 726
8 756 656 726 841 645 542 609 728
8 726 608 727 842 609 487 610 729
8 728 609 729 843 611 488 612 730
8 844 740 624 731 790 691 575 678
8 733 625 504 616 844 740 624 731
8 734 623 502 617 845 739 622 732
8 733 625 739 845 616 504 622 732
8 734 623 738 846 617 502 621 735
8 735 621 737 847 618 500 620 736
8 744 647 527 630 847 737 620 736
8 621 506 627 738 737 626 741 848
8 647 544 626 737 759 662 741 848
8 623 508 628 739 738 627 742 849
8 740 629 585 691 850 743 700 802
8 625 510 629 740 739 628 743 850
8 632 529 647 744 745 648 759 854
8 633 530 648 745 746 649 760 855
8 638 535 649 746 750 653 761 856
8 857 762 650 747 748 651 532 635
8 753 657 539 642 857 762 650 747
8 749 652 763 858 636 533 651 748
8 752 654 764 859 640 536 652 749
8 751 655 537 639 860 765 653 750
8 641 538 655 751 752 654 766 861
8 754 658 540 643 862 769 657 753
8 754 658 770 863 643 540 659 755
8 755 659 771 864 644 541 660 757
8 758 661 768 866 645 542 656 756
8 757 660 772 867 646 543 661 758
8 759 662 773 868 648 545 663 760
8 649 546 663 760 761 664 774 871
8 765 665 547 653 872 775 664 761
8 873 777 666 762 763 668 550 651
8 769 674 556 657 873 777 666 762
8 764 669 779 874 652 551 668 763
8 654 552 667 766 764 669 778 875
8 655 549 665 765 766 667 776 876
8 768 671 782 877 656 553 670 767
8 772 672 783 878 661 554 671 768
8 658 558 674 769 770 675 786 879
8 659 557 675 770 771 673 785 881
8 882 784 672 772 771 673 555 660
8 789 687 571 677 897 798 686 788
8 897 798 686 788 813 705 591 704
8 791 689 573 679 898 799 687 789
8 795 693 803 900 683 577 691 790
8 793 690 574 681 901 801 689 791
8 792 688 800 902 684 578 694 796
8 793 690 800 902 681 574 688 792
8 795 693 577 683 903 804 692 794
8 797 695 804 903 685 579 692 794
8 797 695 579 685 904 805 694 796
8 905 806 697 799 798 696 581 687
8 814 706 806 905 705 592 696 798
8 689 583 697 799 801 699 808 907
8 800 698 809 908 694 588 703 805
8 690 584 699 801 800 698 809 908
8 803 701 810 909 691 585 700 802
8 693 587 702 804 803 701 811 910
8 695 589 703 805 804 702 812 911
8 818 710 814 919 708 595 705 813
8 821 712 815 920 710 596 706 814
8 816 709 600 719 922 819 717 831
8 817 711 594 707 923 820 709 816
8 818 710 595 708 924 822 711 817
8 819 715 599 717 926 827 716 829
8 820 714 598 709 927 826 715 819
8 929 825 713 822 820 714 597 711
8 821 712 596 710 930 824 713 822
8 717 599 718 832 829 716 830 942
8 719 600 720 834 831 717 832 944
8 832 718 601 720 945 833 721 835
8 834 720 603 722 946 835 723 836
8 869 780 838 950 767 670 725 839
8 865 767 839 952 756 656 726 841
8 839 725 840 953 726 608 727 842
8 841 726 842 954 728 609 729 843
8 844 740 691 790 955 850 802 899
8 733 625 740 844 845 739 850 955
8 734 623 739 845 846 738 849 956
8 735 621 738 846 847 737 848 957
8 744 647 737 847 854 759 848 957
8 738 627 742 849 848 741 851 958
8 848 741 851 958 759 662 773 868
8 850 743 700 802 959 852 807 906
8 849 742 628 739 959 852 743 850
8 854 759 868 965 745 648 760 855
8 746 649 760 855 856 761 871 966
8 860 765 653 750 967 872 761 856
8 968 873 762 857 858 763 651 748
8 862 769 657 753 968 873 762 857
8 859 764 874 969 749 652 763 858
8 752 654 766 861 859 764 875 970
8 751 655 765 860 861 766 876 971
8 754 658 769 862 863 770 879 972
8 755 659 770 863 864 771 881 974
8 976 882 772 867 864 771 660 757
8 866 768 877 977 756 656 767 865
8 867 772 878 978 758 661 768 866
8 760 663 773 868 871 774 883 980
8 870 781 837 948 982 890 780 869
8 982 890 780 869 877 782 670 767
8 761 664 774 871 872 775 884 984
8 876 776 665 765 985 885 775 872
8 873 777 668 763 986 887 779 874
8 769 674 777 873 879 786 887 986
8 764 669 778 875 874 779 888 987
8 766 667 776 876 875 778 886 988
8 878 783 892 989 768 671 782 877
8 878 783 672 772 990 893 784 882
8 880 787 675 770 991 896 786 879
8 880 787 895 992 770 675 785 881
8 881 785 894 993 771 673 784 882
8 1006 905 799 898 897 798 687 789
8 919 814 905 1006 813 705 798 897
8 791 689 799 898 901 801 907 1007
8 900 803 909 1009 790 691 802 899
8 795 693 804 903 900 803 910 1010
8 902 800 908 1011 796 694 805 904
8 793 690 801 901 902 800 908 1011
8 797 695 805 904 903 804 911 1012
8 799 697 806 905 907 808 912 1013
8 920 815 912 1013 814 706 806 905
8 802 700 810 909 906 807 913 1014
8 801 699 808 907 908 809 914 1015
8 805 703 809 908 911 812 915 1016
8 803 701 811 910 909 810 916 1017
8 911 812 917 1018 804 702 811 910
8 925 821 920 1030 818 710 814 919
8 928 823 921 1031 821 712 815 920
8 922 819 717 831 1033 926 829 941
8 923 820 709 816 1034 927 819 922
8 1035 929 822 924 923 820 711 817
8 925 821 710 818 1036 930 822 924
8 1038 933 825 929 927 826 714 820
8 926 827 716 829 1039 935 828 939
8 927 826 715 819 1040 934 827 926
8 928 823 712 821 1041 931 824 930
8 1042 932 824 930 929 825 713 822
8 829 716 830 942 939 828 940 1058
8 831 717 832 944 941 829 942 1060
8 942 830 718 832 1061 943 833 945
8 944 832 720 834 1062 945 835 946
8 981 889 947 1064 870 781 837 948
8 948 837 949 1067 869 780 838 950
8 975 869 950 1069 865 767 839 952
8 950 838 951 1070 839 725 840 953
8 952 839 953 1071 841 726 842 954
8 955 850 802 899 1072 959 906 1008
8 956 849 739 845 1072 959 850 955
8 846 738 849 956 957 848 958 1073
8 957 848 958 1073 854 759 868 965
8 849 742 852 959 958 851 961 1076
8 960 853 961 1076 906 807 852 959
8 958 851 961 1076 868 773 883 980
8 960 853 807 906 1077 963 913 1014
8 855 760 868 965 966 871 980 1085
8 856 761 871 966 967 872 984 1086
8 971 876 765 860 1087 985 872 967
8 968 873 763 858 1088 986 874 969
8 862 769 873 968 972 879 986 1088
8 859 764 875 970 969 874 987 1089
8 861 766 876 971 970 875 988 1090
8 973 880 770 863 1091 991 879 972
8 973 880 992 1092 863 770 881 974
8 974 881 993 1093 864 771 882 976
8 979 870 948 1066 1094 982 869 975
8 1094 982 869 975 977 877 767 865
8 978 878 772 867 1095 990 882 976
8 978 878 989 1096 866 768 877 977
8 871 774 883 980 984 884 994 1099
8 983 891 999 1100 870 781 889 981
8 1101 1000 890 982 989 892 782 877
8 983 891 781 870 1101 1000 890 982
8 872 775 884 984 985 885 995 1103
8 876 776 885 985 988 886 996 1104
8 986 887 779 874 1105 998 888 987
8 879 786 887 986 991 896 998 1105
8 875 778 886 988 987 888 997 1106
8 990 893 1002 1107 878 783 892 989
8 1108 1003 893 990 993 894 784 882
8 880 787 896 991 992 895 1005 1109
8 993 894 785 881 1110 1004 895 992
8 898 799 905 1006 1007 907 1013 1120
8 1030 920 1013 1120 919 814 905 1006
8 901 801 907 1007 1011 908 1015 1121
8 899 802 909 1009 1008 906 1014 1122
8 900 803 910 1010 1009 909 1017 1123
8 1012 911 1018 1124 903 804 910 1010
8 904 805 908 1011 1012 911 1016 1125
8 1013 912 1020 1127 907 808 914 1015
8 1031 921 1020 1127 920 815 912 1013
8 1019 918 962 1075 1128 1021 913 1014
8 1128 1021 913 1014 1017 916 810 909
8 1015 914 1022 1129 908 809 915 1016
8 1016 915 1023 1130 911 812 917 1018
8 1018 917 1024 1131 910 811 916 1017
8 1037 928 1031 1148 925 821 920 1030
8 928 823 931 1041 1031 921 1032 1149
8 1033 926 829 941 1151 1039 939 1057
8 1034 927 819 922 1152 1040 926 1033
8 1153 1038 929 1035 1034 927 820 923
8 1154 1042 930 1036 1035 929 822 924
8 1037 928 821 925 1155 1041 930 1036
8 1039 935 828 939 1156 1047 938 1055
8 1157 1043 932 1042 1038 933 825 929
8 1038 933 826 927 1158 1045 934 1040
8 1040 934 827 926 1159 1046 935 1039
8 930 824 932 1042 1041 931 1044 1160
8 1051 936 1048 1165 1175 1052 937 1053
8 1156 1047 938 1055 1053 937 1054 1178
8 939 828 940 1058 1055 938 1056 1181
8 941 829 942 1060 1057 939 1058 1183
8 942 830 943 1061 1058 940 1059 1184
8 1060 942 832 944 1185 1061 945 1062
8 1082 964 1063 1188 981 889 947 1064
8 1097 981 1064 1190 979 870 948 1066
8 1064 947 1065 1191 948 837 949 1067
8 1066 948 1067 1193 975 869 950 1069
8 1067 949 1068 1194 950 838 951 1070
8 1069 950 1070 1195 952 839 953 1071
8 956 849 959 1072 1073 958 1076 1197
8 1074 960 1076 1197 1008 906 959 1072
8 1073 958 1076 1197 965 868 980 1085
8 1074 960 906 1008 1198 1077 1014 1122
8 1133 1026 1079 1199 1019 918 962 1075
8 1077 963 913 1014 1200 1080 962 1075
8 960 853 963 1077 1076 961 1078 1201
8 980 883 961 1076 1099 994 1078 1201
8 1210 1083 964 1082 1100 999 889 981
8 966 871 980 1085 1086 984 1099 1215
8 967 872 984 1086 1087 985 1103 1216
8 971 876 985 1087 1090 988 1104 1217
8 1088 986 874 969 1218 1105 987 1089
8 972 879 986 1088 1091 991 1105 1218
8 970 875 988 1090 1089 987 1106 1219
8 973 880 991 1091 1092 992 1109 1220
8 1093 993 881 974 1221 1110 992 1092
8 1222 1108 990 1095 1093 993 882 976
8 1223 1101 982 1094 1096 989 877 977
8 1098 983 870 979 1223 1101 982 1094
8 1095 990 1107 1224 978 878 989 1096
8 1098 983 1100 1225 979 870 981 1097
8 984 884 994 1099 1103 995 1111 1227
8 1102 1001 1115 1228 983 891 999 1100
8 1101 1000 892 989 1229 1116 1002 1107
8 1102 1001 891 983 1229 1116 1000 1101
8 985 885 995 1103 1104 996 1112 1230
8 988 886 996 1104 1106 997 1113 1231
8 1105 998 888 987 1232 1114 997 1106
8 991 896 998 1105 1109 1005 1114 1232
8 1108 1003 1117 1233 990 893 1002 1107
8 1108 1003 894 993 1233 1117 1004 1110
8 992 895 1005 1109 1110 1004 1118 1234
8 1120 1013 1127 1244 1007 907 1015 1121
8 1148 1031 1127 1244 1030 920 1013 1120
8 1121 1015 1129 1245 1011 908 1016 1125
8 1126 1019 1075 1196 1246 1128 1014 1122
8 1246 1128 1014 1122 1123 1017 909 1009
8 1124 1018 1131 1247 1010 910 1017 1123
8 1125 1016 1130 1248 1012 911 1018 1124
8 1127 1020 1137 1254 1015 914 1022 1129
8 1031 921 1032 1149 1127 1020 1137 1254
8 1134 1027 918 1019 1257 1140 1021 1128
8 1257 1140 1021 1128 1131 1024 916 1017
8 1129 1022 1141 1258 1016 915 1023 1130
8 1130 1023 1142 1259 1018 917 1024 1131
8 1261 1144 1025 1132 1133 1026 1079 1199
8 1255 1138 1025 1132 1135 1028 1144 1261
8 1133 1026 918 1019 1262 1145 1027 1134
8 1136 1029 1139 1256 1263 1146 1028 1135
8 1037 928 1041 1155 1148 1031 1149 1275
8 1041 931 1044 1160 1149 1032 1150 1276
8 1151 1039 939 1057 1278 1156 1055 1180
8 1152 1040 926 1033 1279 1159 1039 1151
8 1153 1038 927 1034 1280 1158 1040 1152
8 1281 1157 1042 1154 1153 1038 929 1035
8 1036 930 1042 1154 1155 1041 1160 1282
8 1283 1164 1046 1159 1156 1047 935 1039
8 1165 1048 1164 1283 1053 937 1047 1156
8 1157 1043 933 1038 1284 1161 1045 1158
8 1157 1043 1161 1284 1042 932 1044 1160
8 1040 934 1046 1159 1158 1045 1163 1285
8 1166 1049 1167 1292 1051 936 1048 1165
8 1166 1049 936 1051 1293 1168 1050 1172
8 1051 936 1052 1175 1172 1050 1173 1306
8 1174 1051 1165 1290 1308 1175 1053 1177
8 1053 937 1054 1178 1175 1052 1176 1309
8 1278 1156 1055 1180 1177 1053 1178 1311
8 1055 938 1056 1181 1178 1054 1179 1312
8 1057 939 1058 1183 1180 1055 1181 1314
8 1058 940 1059 1184 1181 1056 1182 1315
8 1060 942 1061 1185 1183 1058 1184 1316
8 1208 1081 1187 1321 1082 964 1063 1188
8 1209 1082 1188 1322 1097 981 1064 1190
8 1188 1063 1189 1323 1064 947 1065 1191
8 1190 1064 1191 1325 1066 948 1067 1193
8 1191 1065 1192 1326 1067 949 1068 1194
8 1067 1193 1069 950 1194 1327 1195 1070
8 1250 1133 1199 1330 1126 1019 1075 1196
8 1198 1077 1014 1122 1331 1200 1075 1196
8 1074 960 1077 1198 1197 1076 1201 1332
8 1085 980 1076 1197 1215 1099 1201 1332
8 1199 1079 1203 1333 1075 962 1080 1200
8 1132 1025 1119 1243 1199 1079 1203 1333
8 1201 1078 963 1077 1334 1202 1080 1200
8 1099 994 1078 1201 1227 1111 1202 1334
8 1343 1207 1081 1208 1210 1083 964 1082
8 1214 1084 1186 1319 1343 1207 1081 1208
8 1345 1210 1082 1209 1225 1100 981 1097
8 1346 1211 1083 1210 1228 1115 999 1100
8 1086 984 1099 1215 1216 1103 1227 1352
8 1087 985 1103 1216 1217 1104 1230 1353
8 1090 988 1104 1217 1219 1106 1231 1354
8 1218 1105 987 1089 1355 1232 1106 1219
8 1091 991 1105 1218 1220 1109 1232 1355
8 1092 992 1109 1220 1221 1110 1234 1356
8 1222 1108 1233 1357 1095 990 1107 1224
8 1222 1108 993 1093 1357 1233 1110 1221
8 1223 1101 989 1096 1358 1229 1107 1224
8 1226 1102 983 1098 1358 1229 1101 1223
8 1226 1102 1228 1359 1098 983 1100 1225
8 1103 995 1111 1227 1230 1112 1235 1360
8 1107 1002 1117 1233 1229 1116 1240 1362
8 1102 1001 1116 1229 1228 1115 1240 1362
8 1104 996 1112 1230 1231 1113 1236 1363
8 1364 1237 1114 1232 1231 1113 997 1106
8 1109 1005 1114 1232 1234 1118 1238 1365
8 1110 1004 1118 1234 1233 1117 1241 1366
8 1242 1374 1255 1138 1119 1243 1132 1025
8 1244 1127 1254 1376 1121 1015 1129 1245
8 1148 1031 1149 1275 1244 1127 1254 1376
8 1245 1129 1258 1377 1125 1016 1130 1248
8 1251 1134 1019 1126 1378 1257 1128 1246
8 1378 1257 1128 1246 1247 1131 1017 1123
8 1248 1130 1259 1379 1124 1018 1131 1247
8 1261 1381 1250 1133 1132 1249 1330 1199
8 1255 1380 1252 1135 1132 1249 1381 1261
8 1250 1133 1019 1126 1382 1262 1134 1251
8 1253 1136 1256 1385 1384 1263 1135 1252
8 1254 1137 1265 1387 1129 1022 1141 1258
8 1149 1032 1150 1276 1254 1137 1265 1387
8 1028 1135 1255 1138 1139 1256 1388 1266
8 1136 1029 1147 1264 1256 1139 1267 1389
8 1390 1268 1140 1257 1259 1142 1024 1131
8 1260 1143 1027 1134 1390 1268 1140 1257
8 1258 1141 1269 1391 1130 1023 1142 1259
8 1262 1145 1027 1134 1393 1271 1143 1260
8 1261 1144 1026 1133 1394 1272 1145 1262
8 1135 1028 1144 1261 1263 1146 1272 1394
8 1136 1029 1146 1263 1264 1147 1273 1395
8 1155 1041 1160 1282 1275 1149 1276 1405
8 1276 1150 1044 1160 1406 1277 1162 1286
8 1408 1283 1159 1279 1278 1156 1039 1151
8 1290 1165 1283 1408 1177 1053 1156 1278
8 1152 1040 1159 1279 1280 1158 1285 1409
8 1281 1157 1038 1153 1410 1284 1158 1280
8 1281 1157 1284 1410 1154 1042 1160 1282
8 1159 1046 1164 1283 1285 1163 1289 1412
8 1292 1167 1289 1412 1165 1048 1164 1283
8 1158 1045 1163 1285 1284 1161 1288 1413
8 1284 1161 1288 1413 1160 1044 1162 1286
8 1291 1166 1292 1418 1174 1051 1165 1290
8 1291 1166 1051 1174 1419 1293 1172 1305
8 1294 1169 1296 1421 1166 1049 1167 1292
8 1293 1168 1050 1172 1422 1295 1171 1303
8 1294 1169 1049 1166 1423 1297 1168 1293
8 1422 1295 1171 1303 1301 1170 1302 1435
8 1172 1050 1173 1306 1303 1171 1304 1438
8 1174 1051 1175 1308 1305 1172 1306 1440
8 1175 1052 1176 1309 1306 1173 1307 1441
8 1177 1053 1178 1311 1308 1175 1309 1443
8 1178 1054 1179 1312 1309 1176 1310 1444
8 1180 1055 1181 1314 1311 1178 1312 1446
8 1056 1181 1312 1179 1182 1315 1447 1313
8 1183 1058 1184 1316 1314 1181 1315 1448
8 1319 1186 1084 1214 1451 1317 1213 1350
8 1319 1186 1318 1453 1208 1081 1187 1321
8 1321 1187 1320 1456 1188 1063 1189 1323
8 1344 1208 1321 1457 1209 1082 1188 1322
8 1322 1188 1323 1458 1190 1064 1191 1325
8 1323 1189 1324 1459 1191 1065 1192 1326
8 1191 1325 1193 1067 1326 1460 1327 1194
8 1242 1374 1243 1119 1328 1462 1335 1204
8 1330 1199 1333 1465 1196 1075 1200 1331
8 1132 1249 1330 1199 1243 1375 1465 1333
8 1332 1201 1077 1198 1466 1334 1200 1331
8 1215 1099 1201 1332 1352 1227 1334 1466
8 1119 1243 1333 1203 1204 1335 1470 1338
8 1333 1203 1338 1470 1200 1080 1202 1334
8 1227 1111 1202 1334 1360 1235 1338 1470
8 1328 1462 1335 1204 1205 1336 1471 1339
8 1337 1206 1340 1472 1464 1329 1205 1336
8 1346 1211 1342 1479 1210 1083 1207 1343
8 1346 1211 1115 1228 1479 1342 1239 1361
8 1348 1212 1084 1214 1479 1342 1207 1343
8 1480 1343 1208 1344 1345 1210 1082 1209
8 1351 1214 1319 1454 1480 1343 1208 1344
8 1481 1346 1210 1345 1359 1228 1100 1225
8 1348 1212 1347 1483 1214 1084 1213 1350
8 1216 1103 1227 1352 1353 1230 1360 1488
8 1217 1104 1230 1353 1354 1231 1363 1489
8 1490 1364 1232 1355 1354 1231 1106 1219
8 1220 1109 1232 1355 1356 1234 1365 1491
8 1221 1110 1234 1356 1357 1233 1366 1492
8 1224 1107 1233 1357 1358 1229 1362 1493
8 1226 1102 1229 1358 1359 1228 1362 1493
8 1230 1112 1235 1360 1363 1236 1367 1496
8 1361 1239 1115 1228 1497 1371 1240 1362
8 1366 1241 1372 1498 1233 1117 1240 1362
8 1364 1237 1113 1231 1499 1368 1236 1363
8 1364 1237 1368 1499 1232 1114 1238 1365
8 1234 1118 1238 1365 1366 1241 1369 1500
8 1507 1373 1242 1374 1388 1266 1138 1255
8 1508 1374 1243 1375 1380 1255 1132 1249
8 1376 1254 1387 1509 1245 1129 1258 1377
8 1275 1149 1276 1405 1376 1254 1387 1509
8 1377 1258 1391 1510 1248 1130 1259 1379
8 1511 1390 1257 1378 1379 1259 1131 1247
8 1383 1260 1134 1251 1511 1390 1257 1378
8 1252 1135 1256 1385 1380 1255 1388 1512
8 1261 1381 1513 1394 1133 1250 1382 1262
8 1135 1252 1384 1263 1261 1381 1513 1394
8 1382 1262 1134 1251 1514 1393 1260 1383
8 1253 1136 1263 1384 1386 1264 1395 1516
8 1253 1136 1264 1386 1385 1256 1389 1517
8 1387 1265 1397 1519 1258 1141 1269 1391
8 1276 1150 1277 1406 1387 1265 1397 1519
8 1256 1139 1267 1389 1388 1266 1398 1520
8 1264 1147 1274 1396 1389 1267 1399 1521
8 1392 1270 1143 1260 1522 1400 1268 1390
8 1390 1268 1142 1259 1522 1400 1269 1391
8 1392 1270 1401 1523 1260 1143 1271 1393
8 1272 1394 1524 1402 1145 1262 1393 1271
8 1395 1273 1146 1263 1524 1402 1272 1394
8 1273 1395 1264 1147 1403 1526 1396 1274
8 1405 1276 1160 1282 1534 1406 1286 1411
8 1414 1287 1407 1535 1286 1162 1277 1406
8 1279 1159 1283 1408 1409 1285 1412 1537
8 1418 1292 1412 1537 1290 1165 1283 1408
8 1280 1158 1285 1409 1410 1284 1413 1538
8 1410 1284 1413 1538 1282 1160 1286 1411
8 1285 1163 1289 1412 1413 1288 1417 1540
8 1421 1296 1417 1540 1292 1167 1289 1412
8 1414 1287 1162 1286 1541 1416 1288 1413
8 1420 1294 1421 1545 1291 1166 1292 1418
8 1419 1293 1172 1305 1546 1422 1303 1437
8 1420 1294 1166 1291 1547 1423 1293 1419
8 1294 1169 1297 1423 1421 1296 1425 1548
8 1423 1297 1168 1293 1549 1424 1295 1422
8 1301 1170 1298 1427 1422 1295 1424 1549
8 1432 1300 1428 1554 1301 1170 1298 1427
8 1431 1299 1428 1554 1560 1430 1300 1432
8 1563 1433 1300 1432 1435 1302 1170 1301
8 1546 1422 1303 1437 1434 1301 1435 1565
8 1303 1171 1304 1438 1435 1302 1436 1566
8 1305 1172 1306 1440 1437 1303 1438 1568
8 1306 1173 1307 1441 1438 1304 1439 1569
8 1308 1175 1309 1443 1440 1306 1441 1571
8 1309 1176 1310 1444 1441 1307 1442 1572
8 1311 1178 1312 1446 1443 1309 1444 1574
8 1179 1312 1444 1310 1313 1447 1575 1445
8 1314 1181 1315 1448 1446 1312 1447 1576
8 1350 1213 1349 1486 1451 1317 1449 1579
8 1451 1317 1450 1581 1319 1186 1318 1453
8 1454 1319 1214 1351 1582 1451 1350 1487
8 1453 1318 1452 1584 1321 1187 1320 1456
8 1454 1319 1453 1585 1344 1208 1321 1457
8 1456 1320 1455 1586 1323 1189 1324 1459
8 1457 1321 1456 1587 1322 1188 1323 1458
8 1458 1323 1459 1588 1325 1191 1326 1460
8 1205 1336 1464 1329 1328 1462 1590 1461
8 1507 1373 1461 1590 1374 1242 1328 1462
8 1508 1374 1462 1591 1375 1243 1335 1467
8 1337 1206 1329 1464 1473 1341 1463 1594
8 1375 1243 1335 1467 1465 1333 1470 1596
8 1465 1333 1470 1596 1331 1200 1334 1466
8 1352 1227 1334 1466 1488 1360 1470 1596
8 1591 1462 1336 1468 1467 1335 1471 1597
8 1469 1337 1472 1598 1595 1464 1336 1468
8 1471 1339 1474 1600 1335 1204 1338 1470
8 1600 1474 1367 1496 1470 1338 1235 1360
8 1336 1205 1340 1472 1471 1339 1475 1601
8 1337 1206 1341 1473 1472 1340 1476 1602
8 1495 1370 1478 1609 1361 1239 1342 1479
8 1348 1212 1342 1479 1483 1347 1478 1609
8 1481 1346 1479 1610 1345 1210 1343 1480
8 1481 1346 1228 1359 1610 1479 1361 1494
8 1484 1348 1214 1351 1610 1479 1343 1480
8 1483 1347 1482 1612 1350 1213 1349 1486
8 1484 1348 1483 1613 1351 1214 1350 1487
8 1353 1230 1360 1488 1489 1363 1496 1616
8 1490 1364 1231 1354 1617 1499 1363 1489
8 1490 1364 1499 1617 1355 1232 1365 1491
8 1356 1234 1365 1491 1492 1366 1500 1619
8 1492 1366 1498 1620 1357 1233 1362 1493
8 1494 1361 1228 1359 1621 1497 1362 1493
8 1495 1370 1239 1361 1622 1504 1371 1497
8 1363 1236 1367 1496 1499 1368 1501 1623
8 1497 1371 1240 1362 1624 1505 1372 1498
8 1625 1503 1372 1498 1500 1369 1241 1366
8 1365 1238 1368 1499 1500 1369 1502 1626
8 1520 1398 1506 1633 1388 1266 1373 1507
8 1634 1507 1374 1508 1512 1388 1255 1380
8 1509 1387 1519 1635 1377 1258 1391 1510
8 1405 1276 1406 1534 1509 1387 1519 1635
8 1515 1392 1260 1383 1636 1522 1390 1511
8 1511 1390 1259 1379 1636 1522 1391 1510
8 1385 1256 1389 1517 1512 1388 1520 1637
8 1513 1394 1262 1382 1638 1524 1393 1514
8 1395 1516 1638 1524 1263 1384 1513 1394
8 1515 1392 1523 1639 1383 1260 1393 1514
8 1516 1395 1526 1640 1386 1264 1396 1518
8 1386 1264 1396 1518 1517 1389 1521 1641
8 1519 1397 1527 1643 1391 1269 1400 1522
8 1535 1407 1527 1643 1406 1277 1397 1519
8 1389 1267 1399 1521 1520 1398 1528 1644
8 1645 1529 1399 1521 1525 1404 1274 1396
8 1392 1270 1400 1522 1523 1401 1531 1646
8 1524 1402 1271 1393 1648 1532 1401 1523
8 1403 1526 1648 1532 1273 1395 1524 1402
8 1525 1404 1274 1396 1649 1533 1403 1526
8 1539 1414 1535 1657 1411 1286 1406 1534
8 1542 1415 1536 1658 1414 1287 1407 1535
8 1409 1285 1412 1537 1538 1413 1540 1660
8 1545 1421 1540 1660 1418 1292 1412 1537
8 1539 1414 1286 1411 1661 1541 1413 1538
8 1540 1417 1544 1663 1413 1288 1416 1541
8 1421 1296 1425 1548 1540 1417 1544 1663
8 1542 1415 1287 1414 1664 1543 1416 1541
8 1420 1294 1423 1547 1545 1421 1548 1666
8 1547 1423 1293 1419 1667 1549 1422 1546
8 1434 1301 1427 1553 1546 1422 1549 1667
8 1423 1297 1424 1549 1548 1425 1550 1668
8 1551 1426 1550 1668 1427 1298 1424 1549
8 1551 1426 1298 1427 1671 1552 1428 1554
8 1562 1432 1554 1674 1434 1301 1427 1553
8 1431 1299 1429 1558 1554 1428 1555 1675
8 1431 1299 1430 1560 1558 1429 1557 1680
8 1560 1430 1300 1432 1683 1559 1433 1563
8 1561 1431 1554 1674 1684 1560 1432 1562
8 1685 1563 1432 1562 1565 1435 1301 1434
8 1435 1302 1436 1566 1563 1433 1564 1686
8 1437 1303 1438 1568 1565 1435 1566 1688
8 1438 1304 1439 1569 1566 1436 1567 1689
8 1440 1306 1441 1571 1568 1438 1569 1691
8 1441 1307 1442 1572 1569 1439 1570 1692
8 1443 1309 1444 1574 1571 1441 1572 1694
8 1310 1444 1572 1442 1445 1575 1695 1573
8 1446 1312 1447 1576 1574 1444 1575 1696
8 1486 1349 1485 1614 1579 1449 1577 1699
8 1451 1317 1449 1579 1581 1450 1578 1701
8 1487 1350 1486 1615 1582 1451 1579 1702
8 1581 1450 1580 1704 1453 1318 1452 1584
8 1582 1451 1581 1705 1454 1319 1453 1585
8 1584 1452 1583 1706 1456 1320 1455 1586
8 1585 1453 1584 1707 1457 1321 1456 1587
8 1587 1456 1586 1708 1458 1323 1459 1588
8 1633 1506 1589 1710 1507 1373 1461 1590
8 1464 1329 1461 1590 1594 1463 1589 1710
8 1468 1336 1462 1591 1595 1464 1590 1711
8 1634 1507 1590 1711 1508 1374 1462 1591
8 1473 1341 1463 1594 1603 1477 1593 1716
8 1469 1337 1464 1595 1599 1473 1594 1717
8 1471 1597 1467 1335 1600 1718 1596 1470
8 1718 1600 1496 1616 1596 1470 1360 1488
8 1336 1468 1597 1471 1472 1598 1719 1601
8 1469 1337 1473 1599 1598 1472 1602 1720
8 1722 1604 1501 1623 1600 1474 1367 1496
8 1475 1601 1471 1339 1604 1722 1600 1474
8 1602 1476 1605 1723 1472 1340 1475 1601
8 1476 1602 1724 1606 1341 1473 1603 1477
8 1483 1347 1478 1609 1612 1482 1608 1731
8 1495 1370 1504 1622 1609 1478 1608 1731
8 1618 1495 1609 1732 1494 1361 1479 1610
8 1484 1348 1479 1610 1613 1483 1609 1732
8 1486 1349 1482 1612 1614 1485 1611 1733
8 1613 1483 1612 1734 1487 1350 1486 1615
8 1489 1363 1496 1616 1617 1499 1623 1736
8 1491 1365 1499 1617 1619 1500 1626 1737
8 1618 1495 1361 1494 1738 1622 1497 1621
8 1739 1625 1498 1620 1619 1500 1366 1492
8 1621 1497 1362 1493 1740 1624 1498 1620
8 1742 1631 1504 1622 1624 1505 1371 1497
8 1743 1628 1502 1626 1623 1501 1368 1499
8 1744 1630 1505 1624 1625 1503 1372 1498
8 1745 1629 1503 1625 1626 1502 1369 1500
8 1520 1398 1528 1644 1633 1506 1632 1751
8 1637 1520 1633 1752 1512 1388 1507 1634
8 1635 1519 1643 1753 1510 1391 1522 1636
8 1657 1535 1643 1753 1534 1406 1519 1635
8 1515 1392 1522 1636 1639 1523 1646 1754
8 1517 1389 1521 1641 1637 1520 1644 1755
8 1524 1638 1756 1648 1393 1514 1639 1523
8 1640 1526 1395 1516 1756 1648 1524 1638
8 1642 1525 1396 1518 1757 1649 1526 1640
8 1758 1645 1521 1641 1642 1525 1396 1518
8 1646 1531 1400 1522 1760 1650 1527 1643
8 1535 1407 1536 1658 1643 1527 1650 1760
8 1521 1399 1529 1645 1644 1528 1651 1761
8 1647 1530 1652 1762 1525 1404 1529 1645
8 1401 1523 1648 1532 1531 1646 1763 1655
8 1525 1404 1533 1649 1647 1530 1654 1765
8 1533 1649 1766 1656 1403 1526 1648 1532
8 1662 1542 1658 1774 1539 1414 1535 1657
8 1542 1415 1543 1664 1658 1536 1659 1775
8 1660 1540 1663 1777 1538 1413 1541 1661
8 1545 1421 1548 1666 1660 1540 1663 1777
8 1662 1542 1414 1539 1778 1664 1541 1661
8 1664 1543 1416 1541 1779 1665 1544 1663
8 1548 1425 1550 1668 1663 1544 1665 1779
8 1547 1423 1549 1667 1666 1548 1668 1781
8 1670 1551 1668 1781 1553 1427 1549 1667
8 1551 1426 1552 1671 1668 1550 1669 1782
8 1670 1551 1427 1553 1784 1671 1554 1674
8 1675 1555 1672 1785 1554 1428 1552 1671
8 1678 1556 1673 1789 1558 1429 1555 1675
8 1561 1431 1558 1681 1674 1554 1675 1790
8 1794 1677 1556 1678 1680 1557 1429 1558
8 1560 1430 1559 1683 1680 1557 1679 1797
8 1561 1431 1560 1684 1681 1558 1680 1798
8 1563 1433 1564 1686 1683 1559 1682 1800
8 1684 1560 1432 1562 1801 1683 1563 1685
8 1565 1435 1566 1688 1685 1563 1686 1802
8 1566 1436 1567 1689 1686 1564 1687 1803
8 1568 1438 1569 1691 1688 1566 1689 1805
8 1569 1439 1570 1692 1689 1567 1690 1806
8 1571 1441 1572 1694 1691 1569 1692 1808
8 1442 1572 1692 1570 1573 1695 1809 1693
8 1574 1444 1575 1696 1694 1572 1695 1810
8 1614 1485 1592 1712 1699 1577 1697 1813
8 1579 1449 1577 1699 1701 1578 1698 1815
8 1615 1486 1614 1735 1702 1579 1699 1816
8 1701 1578 1700 1818 1581 1450 1580 1704
8 1582 1451 1579 1702 1705 1581 1701 1819
8 1704 1580 1703 1820 1584 1452 1583 1706
8 1705 1581 1704 1821 1585 1453 1584 1707
8 1707 1584 1706 1822 1587 1456 1586 1708
8 1710 1589 1506 1633 1824 1709 1632 1751
8 1594 1463 1589 1710 1716 1593 1709 1824
8 1752 1633 1710 1825 1634 1507 1590 1711
8 1595 1464 1590 1711 1717 1594 1710 1825
8 1830 1714 1592 1712 1733 1611 1485 1614
8 1603 1477 1593 1716 1725 1607 1715 1834
8 1599 1473 1594 1717 1721 1603 1716 1835
8 1837 1722 1623 1736 1718 1600 1496 1616
8 1719 1601 1722 1837 1597 1471 1600 1718
8 1602 1720 1598 1472 1723 1838 1719 1601
8 1720 1602 1473 1599 1839 1724 1603 1721
8 1723 1605 1726 1840 1601 1475 1604 1722
8 1840 1726 1628 1743 1722 1604 1501 1623
8 1724 1606 1727 1841 1602 1476 1605 1723
8 1725 1607 1728 1842 1603 1477 1606 1724
8 1612 1482 1608 1731 1733 1611 1730 1849
8 1741 1627 1730 1849 1622 1504 1608 1731
8 1613 1483 1609 1732 1734 1612 1731 1850
8 1618 1495 1622 1738 1732 1609 1731 1850
8 1615 1486 1612 1734 1735 1614 1733 1851
8 1852 1743 1626 1737 1736 1623 1499 1617
8 1853 1745 1625 1739 1737 1626 1500 1619
8 1855 1742 1622 1738 1740 1624 1497 1621
8 1856 1744 1624 1740 1739 1625 1498 1620
8 1741 1627 1504 1622 1857 1746 1631 1742
8 1742 1631 1505 1624 1858 1749 1630 1744
8 1859 1747 1629 1745 1743 1628 1502 1626
8 1860 1748 1630 1744 1745 1629 1503 1625
8 1644 1528 1651 1761 1751 1632 1750 1865
8 1637 1520 1644 1755 1752 1633 1751 1866
8 1754 1646 1522 1636 1867 1760 1643 1753
8 1657 1535 1658 1774 1753 1643 1760 1867
8 1639 1523 1646 1754 1756 1648 1763 1868
8 1641 1521 1645 1758 1755 1644 1761 1869
8 1757 1649 1526 1640 1870 1766 1648 1756
8 1642 1525 1649 1757 1759 1647 1765 1871
8 1759 1647 1762 1872 1642 1525 1645 1758
8 1760 1650 1767 1874 1646 1531 1655 1763
8 1658 1536 1659 1775 1760 1650 1767 1874
8 1762 1652 1768 1875 1645 1529 1651 1761
8 1764 1653 1769 1876 1647 1530 1652 1762
8 1656 1766 1877 1773 1532 1648 1763 1655
8 1771 1879 1765 1654 1653 1764 1647 1530
8 1533 1649 1765 1654 1656 1766 1880 1772
8 1662 1542 1664 1778 1774 1658 1775 1887
8 1664 1543 1665 1779 1775 1659 1776 1888
8 1778 1664 1541 1661 1890 1779 1663 1777
8 1666 1548 1668 1781 1777 1663 1779 1890
8 1782 1669 1780 1891 1668 1550 1665 1779
8 1670 1551 1671 1784 1781 1668 1782 1893
8 1671 1552 1672 1785 1782 1669 1783 1894
8 1790 1675 1785 1896 1674 1554 1671 1784
8 1675 1555 1673 1789 1785 1672 1786 1897
8 1792 1676 1788 1903 1678 1556 1673 1789
8 1795 1678 1789 1904 1681 1558 1675 1790
8 1792 1676 1556 1678 1906 1791 1677 1794
8 1680 1557 1679 1797 1794 1677 1793 1909
8 1910 1794 1678 1795 1798 1680 1558 1681
8 1683 1559 1682 1800 1797 1679 1796 1912
8 1684 1560 1683 1801 1798 1680 1797 1913
8 1686 1564 1687 1803 1800 1682 1799 1915
8 1685 1563 1686 1802 1801 1683 1800 1916
8 1688 1566 1689 1805 1802 1686 1803 1917
8 1689 1567 1690 1806 1803 1687 1804 1918
8 1691 1569 1692 1808 1805 1689 1806 1920
8 1692 1570 1693 1809 1806 1690 1807 1921
8 1694 1572 1695 1810 1808 1692 1809 1922
8 1829 1713 1811 1926 1712 1592 1697 1813
8 1813 1697 1812 1928 1699 1577 1698 1815
8 1735 1614 1712 1828 1816 1699 1813 1929
8 1815 1698 1814 1931 1701 1578 1700 1818
8 1702 1579 1699 1816 1819 1701 1815 1932
8 1818 1700 1817 1933 1704 1580 1703 1820
8 1819 1701 1818 1934 1705 1581 1704 1821
8 1821 1704 1820 1935 1707 1584 1706 1822
8 1824 1709 1632 1751 1937 1823 1750 1865
8 1716 1593 1709 1824 1834 1715 1823 1937
8 1825 1710 1633 1752 1938 1824 1751 1866
8 1717 1594 1710 1825 1835 1716 1824 1938
8 1945 1830 1712 1828 1851 1733 1614 1735
8 1830 1714 1831 1946 1712 1592 1713 1829
8 1947 1832 1714 1830 1849 1730 1611 1733
8 1843 1729 1607 1725 1950 1833 1715 1834
8 1721 1603 1716 1835 1836 1725 1834 1951
8 1836 1725 1842 1953 1721 1603 1724 1839
8 1723 1838 1719 1601 1840 1954 1837 1722
8 1954 1840 1743 1852 1837 1722 1623 1736
8 1724 1839 1720 1602 1841 1955 1838 1723
8 1841 1727 1844 1956 1723 1605 1726 1840
8 1956 1844 1747 1859 1840 1726 1628 1743
8 1728 1842 1724 1606 1845 1957 1841 1727
8 1725 1607 1729 1843 1842 1728 1846 1958
8 1741 1627 1746 1857 1849 1730 1848 1965
8 1734 1612 1731 1850 1851 1733 1849 1966
8 1854 1741 1849 1966 1738 1622 1731 1850
8 1967 1859 1745 1853 1852 1743 1626 1737
8 1968 1860 1744 1856 1853 1745 1625 1739
8 1854 1741 1622 1738 1969 1857 1742 1855
8 1855 1742 1624 1740 1970 1858 1744 1856
8 1857 1746 1631 1742 1971 1861 1749 1858
8 1858 1749 1630 1744 1972 1863 1748 1860
8 1859 1747 1862 1973 1745 1629 1748 1860
8 1875 1768 1864 1977 1761 1651 1750 1865
8 1755 1644 1761 1869 1866 1751 1865 1978
8 1867 1760 1874 1979 1754 1646 1763 1868
8 1774 1658 1775 1887 1867 1760 1874 1979
8 1870 1766 1648 1756 1980 1877 1763 1868
8 1872 1762 1875 1981 1758 1645 1761 1869
8 1757 1649 1766 1870 1871 1765 1880 1982
8 1983 1879 1764 1873 1871 1765 1647 1759
8 1873 1764 1876 1984 1759 1647 1762 1872
8 1877 1773 1655 1763 1986 1881 1767 1874
8 1775 1659 1776 1888 1874 1767 1881 1986
8 1876 1769 1882 1987 1762 1652 1768 1875
8 1878 1770 1883 1988 1764 1653 1769 1876
8 1880 1772 1656 1766 1989 1886 1773 1877
8 1878 1770 1653 1764 1990 1884 1771 1879
8 1765 1654 1772 1880 1879 1771 1885 1991
8 1778 1664 1779 1890 1887 1775 1888 1997
8 1998 1889 1776 1888 1891 1780 1665 1779
8 1893 1782 1891 2000 1781 1668 1779 1890
8 1894 1783 1892 2001 1782 1669 1780 1891
8 1784 1671 1785 1896 1893 1782 1894 2003
8 1897 1786 1895 2004 1785 1672 1783 1894
8 1790 1675 1789 1904 1896 1785 1897 2006
8 1901 1787 1898 2007 1789 1673 1786 1897
8 1903 1788 1900 2013 1789 1673 1787 1901
8 1792 1676 1791 1906 1903 1788 1902 2016
8 1907 1792 1903 2017 1795 1678 1789 1904
8 1906 1791 1677 1794 2019 1905 1793 1909
8 1907 1792 1678 1795 2020 1906 1794 1910
8 1797 1679 1796 1912 1909 1793 1908 2022
8 1798 1680 1797 1913 1910 1794 1909 2023
8 1800 1682 1799 1915 1912 1796 1911 2025
8 1801 1683 1800 1916 1913 1797 1912 2026
8 1803 1687 1804 1918 1915 1799 1914 2028
8 1802 1686 1803 1917 1916 1800 1915 2029
8 1805 1689 1806 1920 1917 1803 1918 2030
8 1806 1690 1807 1921 1918 1804 1919 2031
8 1808 1692 1809 1922 1920 1806 1921 2032
8 1939 1826 1924 2037 1829 1713 1811 1926
8 1926 1811 1925 2039 1813 1697 1812 1928
8 1944 1829 1926 2040 1828 1712 1813 1929
8 1928 1812 1927 2042 1815 1698 1814 1931
8 1929 1813 1928 2043 1816 1699 1815 1932
8 1931 1814 1930 2044 1818 1700 1817 1933
8 1932 1815 1931 2045 1819 1701 1818 1934
8 1934 1818 1933 2046 1821 1704 1820 1935
8 2048 1936 1823 1937 1977 1864 1750 1865
8 1950 1833 1715 1834 2048 1936 1823 1937
8 1938 1824 1751 1866 2049 1937 1865 1978
8 1835 1716 1824 1938 1951 1834 1937 2049
8 1939 1826 1713 1829 2053 1942 1831 1946
8 1940 1827 1923 2035 2053 1942 1826 1939
8 1945 1830 1946 2058 1828 1712 1829 1944
8 2059 1947 1830 1945 1966 1849 1733 1851
8 1947 1832 1730 1849 2060 1948 1848 1965
8 1947 1832 1948 2060 1830 1714 1831 1946
8 1959 1847 1729 1843 2063 1949 1833 1950
8 1952 1843 1725 1836 2064 1950 1834 1951
8 1836 1725 1843 1952 1953 1842 1958 2066
8 1953 1842 1957 2067 1839 1724 1841 1955
8 1841 1955 1838 1723 1956 2068 1954 1840
8 2068 1956 1859 1967 1954 1840 1743 1852
8 1956 1844 1960 2069 1859 1747 1862 1973
8 1845 1957 1841 1727 1960 2069 1956 1844
8 1728 1842 1957 1845 1846 1958 2071 1961
8 1962 2072 1959 1847 1846 1958 1843 1729
8 1971 1861 1964 2077 1857 1746 1848 1965
8 1854 1741 1857 1969 1966 1849 1965 2078
8 1967 1859 1973 2079 1853 1745 1860 1968
8 1970 1858 1744 1856 2080 1972 1860 1968
8 1969 1857 1742 1855 2081 1971 1858 1970
8 1971 1861 1749 1858 2082 1974 1863 1972
8 1973 1862 1975 2083 1860 1748 1863 1972
8 1987 1882 1976 2086 1875 1768 1864 1977
8 1981 1875 1977 2087 1869 1761 1865 1978
8 1980 1877 1763 1868 2088 1986 1874 1979
8 1887 1775 1888 1997 1979 1874 1986 2088
8 1880 1982 2089 1989 1766 1870 1980 1877
8 1984 1876 1987 2090 1872 1762 1875 1981
8 1765 1871 1983 1879 1880 1982 2091 1991
8 1985 1878 1764 1873 2092 1990 1879 1983
8 1985 1878 1988 2093 1873 1764 1876 1984
8 2094 1992 1881 1986 1998 1889 1776 1888
8 1986 1881 1992 2094 1877 1773 1886 1989
8 1988 1883 1993 2095 1876 1769 1882 1987
8 1878 1770 1884 1990 1988 1883 1994 2096
8 1991 1885 1772 1880 2097 1996 1886 1989
8 1879 1771 1885 1991 1990 1884 1995 2098
8 2103 1998 1888 1997 2000 1891 1779 1890
8 2104 1999 1889 1998 2001 1892 1780 1891
8 2003 1894 2001 2106 1893 1782 1891 2000
8 2004 1895 2002 2107 1894 1783 1892 2001
8 2006 1897 2004 2109 1896 1785 1894 2003
8 2007 1898 2005 2110 1897 1786 1895 2004
8 2014 1901 2007 2112 1904 1789 1897 2006
8 2011 1899 2008 2113 1901 1787 1898 2007
8 2119 2010 1899 2011 2013 1900 1787 1901
8 2016 1902 2012 2122 1903 1788 1900 2013
8 2017 1903 2013 2123 1904 1789 1901 2014
8 1906 1791 1905 2019 2016 1902 2015 2125
8 1907 1792 1906 2020 2017 1903 2016 2126
8 1909 1793 1908 2022 2019 1905 2018 2128
8 2020 1906 1794 1910 2129 2019 1909 2023
8 1912 1796 1911 2025 2022 1908 2021 2131
8 1913 1797 1912 2026 2023 1909 2022 2132
8 1915 1799 1914 2028 2025 1911 2024 2134
8 1916 1800 1915 2029 2026 1912 2025 2135
8 1918 1804 1919 2031 2028 1914 2027 2136
8 1917 1803 1918 2030 2029 1915 2028 2137
8 1920 1806 1921 2032 2030 1918 2031 2138
8 1940 1827 1941 2054 2035 1923 2033 2140
8 2035 1923 2034 2143 1939 1826 1924 2037
8 2037 1924 2036 2146 1926 1811 1925 2039
8 2051 1939 2037 2147 1944 1829 1926 2040
8 2039 1925 2038 2149 1928 1812 1927 2042
8 2040 1926 2039 2150 1929 1813 1928 2043
8 2042 1927 2041 2151 1931 1814 1930 2044
8 2043 1928 2042 2152 1932 1815 1931 2045
8 2045 1931 2044 2153 1934 1818 1933 2046
8 2155 2047 1936 2048 2086 1976 1864 1977
8 2063 1949 1833 1950 2155 2047 1936 2048
8 2156 2048 1937 2049 2087 1977 1865 1978
8 2064 1950 1834 1951 2156 2048 1937 2049
8 2051 1939 1829 1944 2160 2053 1946 2058
8 2052 1940 2035 2144 2160 2053 1939 2051
8 2053 1942 1831 1946 2163 2057 1948 2060
8 2055 1943 1827 1940 2163 2057 1942 2053
8 2055 1943 2056 2164 1940 1827 1941 2054
8 2059 1947 1849 1966 2167 2060 1965 2078
8 2059 1947 2060 2167 1945 1830 1946 2058
8 2077 1964 2061 2168 1965 1848 1948 2060
8 2070 1963 1847 1959 2170 2062 1949 2063
8 2065 1959 1843 1952 2171 2063 1950 2064
8 2173 2072 1958 2066 2065 1959 1843 1952
8 1953 1842 1958 2066 2067 1957 2071 2174
8 2068 1956 2069 2175 1967 1859 1973 2079
8 2067 1957 2069 2175 1955 1841 1956 2068
8 1845 1957 2069 1960 1961 2071 2176 2073
8 2069 1960 2073 2176 1973 1862 1975 2083
8 2070 1963 2075 2177 1959 1847 1962 2072
8 1846 1958 2071 1961 1962 2072 2178 2074
8 2077 1964 1861 1971 2182 2076 1974 2082
8 2081 1971 2077 2183 1969 1857 1965 2078
8 2079 1973 2083 2184 1968 1860 1972 2080
8 2081 1971 1858 1970 2185 2082 1972 2080
8 2083 1975 2084 2186 1972 1863 1974 2082
8 2086 1976 1882 1987 2189 2085 1993 2095
8 2090 1987 2086 2190 1981 1875 1977 2087
8 2191 2094 1986 2088 2103 1998 1888 1997
8 2088 1986 2094 2191 1980 1877 1989 2089
8 1991 2091 2192 2097 1880 1982 2089 1989
8 2093 1988 2095 2193 1984 1876 1987 2090
8 1879 1983 2092 1990 1991 2091 2194 2098
8 1985 1878 1990 2092 2093 1988 2096 2195
8 2097 1996 1886 1989 2196 2099 1992 2094
8 2196 2099 1992 2094 2104 1999 1889 1998
8 1994 2096 1988 1883 2100 2197 2095 1993
8 2096 1994 1884 1990 2198 2101 1995 2098
8 1995 2098 2199 2102 1885 1991 2097 1996
8 2203 2104 1998 2103 2106 2001 1891 2000
8 2107 2002 2105 2204 2001 1892 1999 2104
8 2109 2004 2107 2206 2003 1894 2001 2106
8 2110 2005 2108 2207 2004 1895 2002 2107
8 2112 2007 2110 2209 2006 1897 2004 2109
8 2113 2008 2111 2210 2007 1898 2005 2110
8 2120 2011 2113 2212 2014 1901 2007 2112
8 2117 2009 2114 2213 2011 1899 2008 2113
8 2219 2116 2009 2117 2119 2010 1899 2011
8 2222 2118 2010 2119 2122 2012 1900 2013
8 2223 2119 2011 2120 2123 2013 1901 2014
8 2016 1902 2015 2125 2122 2012 2121 2225
8 2126 2016 2122 2226 2017 1903 2013 2123
8 2019 1905 2018 2128 2125 2015 2124 2228
8 2020 1906 2019 2129 2126 2016 2125 2229
8 2022 1908 2021 2131 2128 2018 2127 2231
8 2023 1909 2022 2132 2129 2019 2128 2232
8 2025 1911 2024 2134 2131 2021 2130 2234
8 2026 1912 2025 2135 2132 2022 2131 2235
8 1914 2028 2134 2024 2027 2136 2236 2133
8 2029 1915 2028 2137 2135 2025 2134 2237
8 2030 1918 2031 2138 2137 2028 2136 2238
8 2157 2050 2139 2240 2054 1941 2033 2140
8 2052 1940 2054 2161 2144 2035 2140 2242
8 2140 2033 2141 2243 2035 1923 2034 2143
8 2143 2034 2142 2246 2037 1924 2036 2146
8 2144 2035 2143 2247 2051 1939 2037 2147
8 2146 2036 2145 2249 2039 1925 2038 2149
8 2147 2037 2146 2250 2040 1926 2039 2150
8 2149 2038 2148 2251 2042 1927 2041 2151
8 2150 2039 2149 2252 2043 1928 2042 2152
8 2152 2042 2151 2253 2045 1931 2044 2153
8 2255 2154 2047 2155 2189 2085 1976 2086
8 2170 2062 1949 2063 2255 2154 2047 2155
8 2256 2155 2048 2156 2190 2086 1977 2087
8 2171 2063 1950 2064 2256 2155 2048 2156
8 2258 2159 2050 2157 2164 2056 1941 2054
8 2160 2053 1946 2058 2262 2163 2060 2167
8 2162 2055 1940 2052 2262 2163 2053 2160
8 2162 2055 2164 2263 2052 1940 2054 2161
8 2163 2057 1948 2060 2264 2165 2061 2168
8 2055 1943 2057 2163 2164 2056 2165 2264
8 2182 2076 2166 2268 2077 1964 2061 2168
8 2183 2077 2168 2269 2078 1965 2060 2167
8 2070 1963 2062 2170 2177 2075 2169 2271
8 2172 2070 1959 2065 2272 2170 2063 2171
8 2172 2070 2177 2273 2065 1959 2072 2173
8 2066 1958 2072 2173 2174 2071 2178 2274
8 2067 1957 2071 2174 2175 2069 2176 2275
8 2175 2069 2176 2275 2079 1973 2083 2184
8 2071 1961 2074 2178 2176 2073 2179 2276
8 2176 2073 2179 2276 2083 1975 2084 2186
8 2072 1962 2075 2177 2178 2074 2180 2277
8 2182 2076 1974 2082 2280 2181 2084 2186
8 2183 2077 1971 2081 2281 2182 2082 2185
8 2184 2083 2186 2282 2080 1972 2082 2185
8 2189 2085 1993 2095 2285 2188 2100 2197
8 2190 2086 1987 2090 2286 2189 2095 2193
8 2192 2097 1989 2089 2287 2196 2094 2191
8 2287 2196 2094 2191 2203 2104 1998 2103
8 2194 2098 1991 2091 2288 2199 2097 2192
8 2195 2096 2197 2289 2093 1988 2095 2193
8 2096 2195 2290 2198 1990 2092 2194 2098
8 2097 1996 2099 2196 2199 2102 2200 2291
8 2196 2099 1999 2104 2291 2200 2105 2204
8 2100 2197 2292 2201 1994 2096 2198 2101
8 1995 2098 2198 2101 2102 2199 2293 2202
8 2206 2107 2204 2296 2106 2001 2104 2203
8 2207 2108 2205 2297 2107 2002 2105 2204
8 2209 2110 2207 2299 2109 2004 2107 2206
8 2210 2111 2208 2300 2110 2005 2108 2207
8 2212 2113 2210 2302 2112 2007 2110 2209
8 2213 2114 2211 2303 2113 2008 2111 2210
8 2220 2117 2213 2305 2120 2011 2113 2212
8 2216 2115 2214 2306 2117 2009 2114 2213
8 2216 2115 2009 2117 2311 2217 2116 2219
8 2219 2116 2010 2119 2314 2218 2118 2222
8 2315 2219 2117 2220 2223 2119 2011 2120
8 2122 2012 2121 2225 2222 2118 2221 2317
8 2318 2222 2119 2223 2226 2122 2013 2123
8 2125 2015 2124 2228 2225 2121 2224 2320
8 2126 2016 2125 2229 2226 2122 2225 2321
8 2128 2018 2127 2231 2228 2124 2227 2323
8 2129 2019 2128 2232 2229 2125 2228 2324
8 2131 2021 2130 2234 2231 2127 2230 2326
8 2132 2022 2131 2235 2232 2128 2231 2327
8 2134 2024 2133 2236 2234 2130 2233 2328
8 2135 2025 2134 2237 2235 2131 2234 2329
8 2137 2028 2136 2238 2237 2134 2236 2330
8 2157 2050 2158 2259 2240 2139 2239 2332
8 2257 2157 2240 2334 2161 2054 2140 2242
8 2240 2139 2241 2335 2140 2033 2141 2243
8 2242 2140 2243 2337 2144 2035 2143 2247
8 2243 2141 2244 2338 2143 2034 2142 2246
8 2246 2142 2245 2341 2146 2036 2145 2249
8 2247 2143 2246 2342 2147 2037 2146 2250
8 2249 2145 2248 2343 2149 2038 2148 2251
8 2250 2146 2249 2344 2150 2039 2149 2252
8 2252 2149 2251 2345 2152 2042 2151 2253
8 2169 2271 2347 2254 2062 2170 2255 2154
8 2189 2085 2188 2285 2255 2154 2254 2347
8 2348 2255 2155 2256 2286 2189 2086 2190
8 2272 2170 2063 2171 2348 2255 2155 2256
8 2349 2258 2157 2257 2263 2164 2054 2161
8 2258 2159 2261 2351 2157 2050 2158 2259
8 2258 2159 2056 2164 2351 2261 2165 2264
8 2262 2163 2060 2167 2355 2264 2168 2269
8 2162 2055 2163 2262 2263 2164 2264 2355
8 2357 2266 2165 2264 2268 2166 2061 2168
8 2268 2166 2076 2182 2361 2267 2181 2280
8 2281 2182 2268 2362 2183 2077 2168 2269
8 2271 2169 2270 2364 2177 2075 2180 2277
8 2172 2070 2170 2272 2273 2177 2271 2365
8 2072 2173 2274 2178 2177 2273 2366 2277
8 2071 2174 2275 2176 2178 2274 2367 2276
8 2275 2176 2276 2367 2184 2083 2186 2282
8 2283 2187 2084 2186 2368 2278 2179 2276
8 2178 2074 2180 2277 2276 2179 2278 2368
8 2283 2187 2279 2370 2186 2084 2181 2280
8 2281 2182 2082 2185 2371 2280 2186 2282
8 2188 2285 2374 2284 2100 2197 2292 2201
8 2286 2189 2095 2193 2375 2285 2197 2289
8 2192 2097 2196 2287 2288 2199 2291 2376
8 2287 2196 2104 2203 2376 2291 2204 2296
8 2194 2098 2199 2288 2290 2198 2293 2377
8 2289 2197 2096 2195 2378 2292 2198 2290
8 2291 2200 2105 2204 2379 2294 2205 2297
8 2199 2102 2200 2291 2293 2202 2294 2379
8 2198 2101 2202 2293 2292 2201 2295 2380
8 2299 2207 2297 2383 2206 2107 2204 2296
8 2300 2208 2298 2384 2207 2108 2205 2297
8 2302 2210 2300 2386 2209 2110 2207 2299
8 2303 2211 2301 2387 2210 2111 2208 2300
8 2305 2213 2303 2389 2212 2113 2210 2302
8 2306 2214 2304 2390 2213 2114 2211 2303
8 2310 2216 2306 2392 2220 2117 2213 2305
8 2308 2215 2307 2393 2216 2115 2214 2306
8 2308 2215 2115 2216 2396 2309 2217 2311
8 2310 2216 2117 2220 2398 2311 2219 2315
8 2311 2217 2116 2219 2399 2312 2218 2314
8 2314 2218 2118 2222 2402 2313 2221 2317
8 2315 2219 2119 2223 2403 2314 2222 2318
8 2225 2121 2224 2320 2317 2221 2316 2405
8 2226 2122 2225 2321 2318 2222 2317 2406
8 2228 2124 2227 2323 2320 2224 2319 2408
8 2229 2125 2228 2324 2321 2225 2320 2409
8 2231 2127 2230 2326 2323 2227 2322 2411
8 2232 2128 2231 2327 2324 2228 2323 2412
8 2234 2130 2233 2328 2326 2230 2325 2413
8 2235 2131 2234 2329 2327 2231 2326 2414
8 2237 2134 2236 2330 2329 2234 2328 2415
8 2259 2158 2260 2352 2332 2239 2331 2417
8 2257 2157 2259 2350 2334 2240 2332 2419
8 2240 2139 2239 2332 2335 2241 2333 2420
8 2334 2240 2335 2422 2242 2140 2243 2337
8 2335 2241 2336 2423 2243 2141 2244 2338
8 2337 2243 2338 2425 2247 2143 2246 2342
8 2338 2244 2339 2426 2246 2142 2245 2341
8 2341 2245 2340 2428 2249 2145 2248 2343
8 2342 2246 2341 2429 2250 2146 2249 2344
8 2344 2249 2343 2430 2252 2149 2251 2345
8 2188 2285 2347 2254 2284 2374 2432 2346
8 2347 2254 2346 2432 2271 2169 2270 2364
8 2365 2271 2170 2272 2433 2347 2255 2348
8 2286 2189 2285 2375 2348 2255 2347 2433
8 2349 2258 2351 2435 2257 2157 2259 2350
8 2349 2258 2164 2263 2435 2351 2264 2355
8 2259 2158 2261 2351 2352 2260 2354 2437
8 2356 2265 2354 2437 2264 2165 2261 2351
8 2441 2357 2264 2355 2362 2268 2168 2269
8 2356 2265 2165 2264 2442 2358 2266 2357
8 2443 2359 2266 2357 2361 2267 2166 2268
8 2370 2279 2360 2446 2280 2181 2267 2361
8 2362 2268 2182 2281 2447 2361 2280 2371
8 2180 2277 2368 2278 2270 2364 2449 2363
8 2271 2365 2273 2177 2364 2450 2366 2277
8 2372 2283 2186 2282 2451 2368 2276 2367
8 2178 2274 2367 2276 2277 2366 2451 2368
8 2283 2187 2278 2368 2370 2279 2369 2452
8 2372 2283 2370 2453 2282 2186 2280 2371
8 2284 2374 2455 2373 2201 2292 2380 2295
8 2375 2285 2197 2289 2456 2374 2292 2378
8 2376 2291 2204 2296 2457 2379 2297 2383
8 2288 2199 2291 2376 2377 2293 2379 2457
8 2198 2290 2378 2292 2293 2377 2458 2380
8 2293 2202 2294 2379 2380 2295 2381 2459
8 2384 2298 2381 2459 2297 2205 2294 2379
8 2386 2300 2384 2463 2299 2207 2297 2383
8 2387 2301 2385 2464 2300 2208 2298 2384
8 2389 2303 2387 2466 2302 2210 2300 2386
8 2390 2304 2388 2467 2303 2211 2301 2387
8 2392 2306 2390 2469 2305 2213 2303 2389
8 2393 2307 2391 2470 2306 2214 2304 2390
8 2395 2308 2393 2472 2310 2216 2306 2392
8 2308 2215 2309 2396 2393 2307 2394 2473
8 2395 2308 2216 2310 2475 2396 2311 2398
8 2396 2309 2217 2311 2476 2397 2312 2399
8 2398 2311 2219 2315 2478 2399 2314 2403
8 2399 2312 2218 2314 2479 2400 2313 2402
8 2317 2221 2316 2405 2402 2313 2401 2482
8 2403 2314 2222 2318 2483 2402 2317 2406
8 2320 2224 2319 2408 2405 2316 2404 2485
8 2321 2225 2320 2409 2406 2317 2405 2486
8 2323 2227 2322 2411 2408 2319 2407 2488
8 2324 2228 2323 2412 2409 2320 2408 2489
8 2326 2230 2325 2413 2411 2322 2410 2490
8 2327 2231 2326 2414 2412 2323 2411 2491
8 2329 2234 2328 2415 2414 2326 2413 2492
8 2417 2331 2260 2352 2494 2416 2353 2438
8 2350 2259 2352 2436 2419 2332 2417 2496
8 2332 2239 2331 2417 2420 2333 2418 2497
8 2334 2240 2332 2419 2422 2335 2420 2499
8 2420 2333 2421 2500 2335 2241 2336 2423
8 2422 2335 2423 2502 2337 2243 2338 2425
8 2423 2336 2424 2503 2338 2244 2339 2426
8 2425 2338 2426 2505 2342 2246 2341 2429
8 2426 2339 2427 2506 2341 2245 2340 2428
8 2429 2341 2428 2507 2344 2249 2343 2430
8 2432 2346 2284 2374 2509 2431 2373 2455
8 2432 2346 2431 2509 2364 2270 2363 2449
8 2375 2285 2374 2456 2433 2347 2432 2510
8 2347 2433 2365 2271 2432 2510 2450 2364
8 2350 2259 2351 2435 2436 2352 2437 2514
8 2440 2356 2437 2514 2355 2264 2351 2435
8 2352 2260 2354 2437 2438 2353 2439 2516
8 2356 2265 2358 2442 2437 2354 2439 2516
8 2440 2356 2264 2355 2518 2442 2357 2441
8 2519 2443 2357 2441 2447 2361 2268 2362
8 2443 2359 2444 2520 2357 2266 2358 2442
8 2443 2359 2267 2361 2520 2444 2360 2446
8 2446 2360 2279 2370 2523 2445 2369 2452
8 2453 2370 2446 2524 2371 2280 2361 2447
8 2449 2363 2448 2525 2368 2278 2369 2452
8 2366 2277 2364 2450 2451 2368 2449 2526
8 2372 2283 2368 2451 2453 2370 2452 2527
8 2455 2373 2295 2380 2529 2454 2382 2460
8 2456 2374 2292 2378 2530 2455 2380 2458
8 2377 2293 2379 2457 2458 2380 2459 2531
8 2463 2384 2459 2531 2383 2297 2379 2457
8 2533 2461 2382 2460 2459 2381 2295 2380
8 2464 2385 2461 2533 2384 2298 2381 2459
8 2466 2387 2464 2537 2386 2300 2384 2463
8 2467 2388 2465 2538 2387 2301 2385 2464
8 2469 2390 2467 2540 2389 2303 2387 2466
8 2470 2391 2468 2541 2390 2304 2388 2467
8 2472 2393 2470 2543 2392 2306 2390 2469
8 2393 2307 2394 2473 2470 2391 2471 2544
8 2395 2308 2396 2475 2472 2393 2473 2546
8 2396 2309 2397 2476 2473 2394 2474 2547
8 2475 2396 2311 2398 2549 2476 2399 2478
8 2476 2397 2312 2399 2550 2477 2400 2479
8 2478 2399 2314 2403 2552 2479 2402 2483
8 2479 2400 2313 2402 2553 2480 2401 2482
8 2405 2316 2404 2485 2482 2401 2481 2556
8 2406 2317 2405 2486 2483 2402 2482 2557
8 2408 2319 2407 2488 2485 2404 2484 2559
8 2409 2320 2408 2489 2486 2405 2485 2560
8 2411 2322 2410 2490 2488 2407 2487 2561
8 2412 2323 2411 2491 2489 2408 2488 2562
8 2414 2326 2413 2492 2491 2411 2490 2563
8 2513 2434 2493 2565 2438 2353 2416 2494
8 2496 2417 2352 2436 2567 2494 2438 2515
8 2494 2416 2495 2568 2417 2331 2418 2497
8 2419 2332 2417 2496 2499 2420 2497 2570
8 2497 2418 2498 2571 2420 2333 2421 2500
8 2499 2420 2500 2573 2422 2335 2423 2502
8 2500 2421 2501 2574 2423 2336 2424 2503
8 2502 2423 2503 2576 2425 2338 2426 2505
8 2503 2424 2504 2577 2426 2339 2427 2506
8 2505 2426 2506 2578 2429 2341 2428 2507
8 2509 2431 2373 2455 2580 2508 2454 2529
8 2509 2431 2508 2580 2449 2363 2448 2525
8 2432 2510 2581 2509 2374 2456 2530 2455
8 2432 2510 2450 2364 2509 2581 2526 2449
8 2583 2511 2434 2513 2516 2439 2353 2438
8 2436 2352 2437 2514 2515 2438 2516 2588
8 2440 2356 2442 2518 2514 2437 2516 2588
8 2442 2358 2444 2520 2516 2439 2517 2589
8 2519 2443 2520 2591 2441 2357 2442 2518
8 2519 2443 2361 2447 2591 2520 2446 2524
8 2446 2360 2445 2523 2520 2444 2521 2592
8 2525 2448 2522 2593 2452 2369 2445 2523
8 2524 2446 2370 2453 2594 2523 2452 2527
8 2526 2449 2525 2595 2451 2368 2452 2527
8 2534 2462 2528 2597 2460 2382 2454 2529
8 2530 2455 2380 2458 2598 2529 2460 2532
8 2599 2533 2460 2532 2531 2459 2380 2458
8 2537 2464 2533 2599 2463 2384 2459 2531
8 2534 2462 2382 2460 2601 2535 2461 2533
8 2538 2465 2535 2601 2464 2385 2461 2533
8 2540 2467 2538 2604 2466 2387 2464 2537
8 2541 2468 2539 2605 2467 2388 2465 2538
8 2543 2470 2541 2607 2469 2390 2467 2540
8 2470 2391 2471 2544 2541 2468 2542 2608
8 2472 2393 2473 2546 2543 2470 2544 2610
8 2473 2394 2474 2547 2544 2471 2545 2611
8 2475 2396 2476 2549 2546 2473 2547 2613
8 2476 2397 2477 2550 2547 2474 2548 2614
8 2549 2476 2399 2478 2616 2550 2479 2552
8 2479 2400 2480 2553 2550 2477 2551 2617
8 2552 2479 2402 2483 2619 2553 2482 2557
8 2482 2401 2481 2556 2553 2480 2554 2620
8 2485 2404 2484 2559 2556 2481 2555 2623
8 2486 2405 2485 2560 2557 2482 2556 2624
8 2488 2407 2487 2561 2559 2484 2558 2625
8 2489 2408 2488 2562 2560 2485 2559 2626
8 2491 2411 2490 2563 2562 2488 2561 2627
8 2513 2434 2512 2585 2565 2493 2564 2630
8 2586 2513 2565 2632 2515 2438 2494 2567
8 2565 2493 2566 2633 2494 2416 2495 2568
8 2567 2494 2568 2635 2496 2417 2497 2570
8 2568 2495 2569 2636 2497 2418 2498 2571
8 2570 2497 2571 2638 2499 2420 2500 2573
8 2571 2498 2572 2639 2500 2421 2501 2574
8 2573 2500 2574 2641 2502 2423 2503 2576
8 2574 2501 2575 2642 2503 2424 2504 2577
8 2576 2503 2577 2643 2505 2426 2506 2578
8 2597 2528 2579 2645 2529 2454 2508 2580
8 2580 2508 2579 2645 2525 2448 2522 2593
8 2581 2509 2455 2530 2646 2580 2529 2598
8 2581 2509 2580 2646 2526 2449 2525 2595
8 2583 2511 2582 2648 2513 2434 2512 2585
8 2583 2511 2439 2516 2648 2582 2517 2589
8 2649 2583 2513 2586 2588 2516 2438 2515
8 2589 2517 2444 2520 2653 2587 2521 2592
8 2518 2442 2520 2591 2588 2516 2589 2654
8 2593 2522 2590 2655 2523 2445 2521 2592
8 2524 2446 2523 2594 2591 2520 2592 2656
8 2595 2525 2593 2657 2527 2452 2523 2594
8 2602 2536 2596 2659 2534 2462 2528 2597
8 2600 2534 2597 2660 2532 2460 2529 2598
8 2600 2534 2460 2532 2661 2601 2533 2599
8 2604 2538 2601 2661 2537 2464 2533 2599
8 2602 2536 2462 2534 2663 2603 2535 2601
8 2601 2535 2465 2538 2663 2603 2539 2605
8 2607 2541 2605 2665 2540 2467 2538 2604
8 2608 2542 2606 2666 2541 2468 2539 2605
8 2543 2470 2544 2610 2607 2541 2608 2668
8 2544 2471 2545 2611 2608 2542 2609 2669
8 2546 2473 2547 2613 2610 2544 2611 2671
8 2547 2474 2548 2614 2611 2545 2612 2672
8 2549 2476 2550 2616 2613 2547 2614 2674
8 2550 2477 2551 2617 2614 2548 2615 2675
8 2552 2479 2553 2619 2616 2550 2617 2677
8 2553 2480 2554 2620 2617 2551 2618 2678
8 2557 2482 2556 2624 2619 2553 2620 2680
8 2556 2481 2555 2623 2620 2554 2621 2681
8 2559 2484 2558 2625 2623 2555 2622 2683
8 2560 2485 2559 2626 2624 2556 2623 2684
8 2562 2488 2561 2627 2626 2559 2625 2685
8 2690 2629 2564 2630 2650 2584 2512 2585
8 2586 2513 2585 2651 2632 2565 2630 2691
8 2630 2564 2631 2692 2565 2493 2566 2633
8 2632 2565 2633 2694 2567 2494 2568 2635
8 2633 2566 2634 2695 2568 2495 2569 2636
8 2635 2568 2636 2697 2570 2497 2571 2638
8 2636 2569 2637 2698 2571 2498 2572 2639
8 2638 2571 2639 2700 2573 2500 2574 2641
8 2639 2572 2640 2701 2574 2501 2575 2642
8 2641 2574 2642 2702 2576 2503 2577 2643
8 2597 2528 2596 2659 2645 2579 2644 2704
8 2645 2579 2644 2704 2593 2522 2590 2655
8 2660 2597 2645 2705 2598 2529 2580 2646
8 2646 2580 2645 2705 2595 2525 2593 2657
8 2650 2584 2512 2585 2707 2647 2582 2648
8 2648 2582 2517 2589 2707 2647 2587 2653
8 2649 2583 2648 2708 2586 2513 2585 2651
8 2649 2583 2516 2588 2708 2648 2589 2654
8 2655 2590 2652 2710 2592 2521 2587 2653
8 2654 2589 2520 2591 2711 2653 2592 2656
8 2657 2593 2655 2712 2594 2523 2592 2656
8 2602 2536 2603 2663 2659 2596 2658 2714
8 2662 2602 2659 2715 2600 2534 2597 2660
8 2662 2602 2534 2600 2717 2663 2601 2661
8 2661 2601 2538 2604 2717 2663 2605 2665
8 2666 2606 2664 2718 2605 2539 2603 2663
8 2668 2608 2666 2720 2607 2541 2605 2665
8 2608 2542 2609 2669 2666 2606 2667 2721
8 2610 2544 2611 2671 2668 2608 2669 2723
8 2611 2545 2612 2672 2669 2609 2670 2724
8 2613 2547 2614 2674 2671 2611 2672 2726
8 2614 2548 2615 2675 2672 2612 2673 2727
8 2616 2550 2617 2677 2674 2614 2675 2729
8 2617 2551 2618 2678 2675 2615 2676 2730
8 2619 2553 2620 2680 2677 2617 2678 2732
8 2620 2554 2621 2681 2678 2618 2679 2733
8 2624 2556 2623 2684 2680 2620 2681 2735
8 2681 2621 2555 2623 2736 2682 2622 2683
8 2626 2559 2625 2685 2684 2623 2683 2737
8 2688 2628 2584 2650 2740 2686 2647 2707
8 2688 2628 2687 2742 2650 2584 2629 2690
8 2690 2629 2689 2745 2630 2564 2631 2692
8 2746 2690 2630 2691 2709 2650 2585 2651
8 2691 2630 2692 2747 2632 2565 2633 2694
8 2692 2631 2693 2748 2633 2566 2634 2695
8 2694 2633 2695 2750 2635 2568 2636 2697
8 2695 2634 2696 2751 2636 2569 2637 2698
8 2697 2636 2698 2753 2638 2571 2639 2700
8 2698 2637 2699 2754 2639 2572 2640 2701
8 2700 2639 2701 2755 2641 2574 2642 2702
8 2659 2596 2658 2714 2704 2644 2703 2757
8 2704 2644 2703 2757 2655 2590 2652 2710
8 2660 2597 2659 2715 2705 2645 2704 2758
8 2705 2645 2704 2758 2657 2593 2655 2712
8 2759 2706 2647 2707 2710 2652 2587 2653
8 2709 2650 2585 2651 2760 2707 2648 2708
8 2708 2648 2589 2654 2760 2707 2653 2711
8 2712 2655 2710 2761 2656 2592 2653 2711
8 2763 2713 2658 2714 2718 2664 2603 2663
8 2662 2602 2663 2717 2715 2659 2714 2764
8 2720 2666 2718 2767 2665 2605 2663 2717
8 2768 2719 2664 2718 2721 2667 2606 2666
8 2668 2608 2669 2723 2720 2666 2721 2770
8 2669 2609 2670 2724 2721 2667 2722 2771
8 2671 2611 2672 2726 2723 2669 2724 2773
8 2672 2612 2673 2727 2724 2670 2725 2774
8 2674 2614 2675 2729 2726 2672 2727 2776
8 2675 2615 2676 2730 2727 2673 2728 2777
8 2677 2617 2678 2732 2729 2675 2730 2779
8 2678 2618 2679 2733 2730 2676 2731 2780
8 2680 2620 2681 2735 2732 2678 2733 2782
8 2733 2679 2621 2681 2783 2734 2682 2736
8 2735 2681 2623 2684 2784 2736 2683 2737
8 2740 2686 2647 2707 2787 2738 2706 2759
8 2688 2628 2686 2740 2742 2687 2739 2789
8 2743 2688 2650 2709 2790 2740 2707 2760
8 2742 2687 2741 2792 2690 2629 2689 2745
8 2743 2688 2742 2793 2709 2650 2690 2746
8 2745 2689 2744 2795 2692 2631 2693 2748
8 2746 2690 2745 2796 2691 2630 2692 2747
8 2747 2692 2748 2797 2694 2633 2695 2750
8 2748 2693 2749 2798 2695 2634 2696 2751
8 2750 2695 2751 2800 2697 2636 2698 2753
8 2751 2696 2752 2801 2698 2637 2699 2754
8 2753 2698 2754 2802 2700 2639 2701 2755
8 2763 2713 2756 2804 2714 2658 2703 2757
8 2759 2706 2652 2710 2804 2756 2703 2757
8 2715 2659 2714 2764 2758 2704 2757 2805
8 2758 2704 2757 2805 2712 2655 2710 2761
8 2806 2759 2707 2760 2761 2710 2653 2711
8 2765 2716 2762 2808 2718 2664 2713 2763
8 2809 2763 2714 2764 2767 2718 2663 2717
8 2765 2716 2664 2718 2811 2766 2719 2768
8 2813 2768 2718 2767 2770 2721 2666 2720
8 2814 2769 2719 2768 2771 2722 2667 2721
8 2723 2669 2724 2773 2770 2721 2771 2816
8 2724 2670 2725 2774 2771 2722 2772 2817
8 2726 2672 2727 2776 2773 2724 2774 2819
8 2727 2673 2728 2777 2774 2725 2775 2820
8 2729 2675 2730 2779 2776 2727 2777 2822
8 2730 2676 2731 2780 2777 2728 2778 2823
8 2732 2678 2733 2782 2779 2730 2780 2825
8 2780 2731 2679 2733 2826 2781 2734 2783
8 2782 2733 2681 2735 2827 2783 2736 2784
8 2830 2785 2738 2787 2804 2756 2706 2759
8 2789 2739 2686 2740 2832 2786 2738 2787
8 2790 2740 2707 2760 2833 2787 2759 2806
8 2742 2687 2739 2789 2792 2741 2788 2835
8 2743 2688 2740 2790 2793 2742 2789 2836
8 2792 2741 2791 2838 2745 2689 2744 2795
8 2793 2742 2792 2839 2746 2690 2745 2796
8 2795 2744 2794 2841 2748 2693 2749 2798
8 2796 2745 2795 2842 2747 2692 2748 2797
8 2797 2748 2798 2843 2750 2695 2751 2800
8 2798 2749 2799 2844 2751 2696 2752 2801
8 2800 2751 2801 2845 2753 2698 2754 2802
8 2808 2762 2803 2847 2763 2713 2756 2804
8 2809 2763 2804 2848 2764 2714 2757 2805
8 2806 2759 2710 2761 2848 2804 2757 2805
8 2765 2716 2766 2811 2808 2762 2807 2850
8 2810 2765 2808 2851 2767 2718 2763 2809
8 2810 2765 2718 2767 2852 2811 2768 2813
8 2811 2766 2719 2768 2853 2812 2769 2814
8 2855 2814 2768 2813 2816 2771 2721 2770
8 2856 2815 2769 2814 2817 2772 2722 2771
8 2773 2724 2774 2819 2816 2771 2817 2858
8 2774 2725 2775 2820 2817 2772 2818 2859
8 2776 2727 2777 2822 2819 2774 2820 2861
8 2777 2728 2778 2823 2820 2775 2821 2862
8 2779 2730 2780 2825 2822 2777 2823 2864
8 2823 2778 2731 2780 2865 2824 2781 2826
8 2825 2780 2733 2782 2866 2826 2783 2827
8 2869 2828 2785 2830 2847 2803 2756 2804
8 2871 2829 2786 2832 2830 2785 2738 2787
8 2872 2830 2787 2833 2848 2804 2759 2806
8 2789 2739 2786 2832 2835 2788 2831 2874
8 2836 2789 2740 2790 2875 2832 2787 2833
8 2792 2741 2788 2835 2838 2791 2834 2877
8 2793 2742 2789 2836 2839 2792 2835 2878
8 2838 2791 2837 2880 2795 2744 2794 2841
8 2839 2792 2838 2881 2796 2745 2795 2842
8 2841 2794 2840 2882 2798 2749 2799 2844
8 2842 2795 2841 2883 2797 2748 2798 2843
8 2843 2798 2844 2884 2800 2751 2801 2845
8 2886 2846 2803 2847 2850 2807 2762 2808
8 2851 2808 2847 2887 2809 2763 2804 2848
8 2850 2807 2766 2811 2889 2849 2812 2853
8 2810 2765 2811 2852 2851 2808 2850 2890
8 2852 2811 2768 2813 2891 2853 2814 2855
8 2853 2812 2769 2814 2892 2854 2815 2856
8 2894 2856 2814 2855 2858 2817 2771 2816
8 2817 2772 2818 2859 2856 2815 2857 2895
8 2819 2774 2820 2861 2858 2817 2859 2897
8 2820 2775 2821 2862 2859 2818 2860 2898
8 2822 2777 2823 2864 2861 2820 2862 2900
8 2823 2778 2824 2865 2862 2821 2863 2901
8 2864 2823 2780 2825 2902 2865 2826 2866
8 2904 2867 2828 2869 2886 2846 2803 2847
8 2869 2828 2868 2906 2830 2785 2829 2871
8 2907 2869 2830 2872 2887 2847 2804 2848
8 2871 2829 2870 2909 2832 2786 2831 2874
8 2910 2871 2832 2875 2872 2830 2787 2833
8 2835 2788 2831 2874 2877 2834 2873 2912
8 2836 2789 2832 2875 2878 2835 2874 2913
8 2877 2834 2876 2915 2838 2791 2837 2880
8 2839 2792 2835 2878 2881 2838 2877 2916
8 2880 2837 2879 2917 2841 2794 2840 2882
8 2881 2838 2880 2918 2842 2795 2841 2883
8 2883 2841 2882 2919 2843 2798 2844 2884
8 2921 2885 2846 2886 2889 2849 2807 2850
8 2922 2886 2847 2887 2890 2850 2808 2851
8 2889 2849 2812 2853 2924 2888 2854 2892
8 2890 2850 2811 2852 2925 2889 2853 2891
8 2891 2853 2814 2855 2926 2892 2856 2894
8 2892 2854 2815 2856 2927 2893 2857 2895
8 2858 2817 2859 2897 2894 2856 2895 2929
8 2859 2818 2860 2898 2895 2857 2896 2930
8 2861 2820 2862 2900 2897 2859 2898 2932
8 2862 2821 2863 2901 2898 2860 2899 2933
8 2864 2823 2865 2902 2900 2862 2901 2934
8 2904 2867 2846 2886 2936 2903 2885 2921
8 2904 2867 2903 2936 2869 2828 2868 2906
8 2937 2904 2869 2907 2922 2886 2847 2887
8 2906 2868 2905 2939 2871 2829 2870 2909
8 2907 2869 2906 2940 2872 2830 2871 2910
8 2909 2870 2908 2942 2874 2831 2873 2912
8 2910 2871 2909 2943 2875 2832 2874 2913
8 2912 2873 2911 2945 2877 2834 2876 2915
8 2878 2835 2874 2913 2916 2877 2912 2946
8 2915 2876 2914 2947 2880 2837 2879 2917
8 2916 2877 2915 2948 2881 2838 2880 2918
8 2918 2880 2917 2949 2883 2841 2882 2919
8 2921 2885 2849 2889 2951 2920 2888 2924
8 2952 2921 2886 2922 2925 2889 2850 2890
8 2924 2888 2854 2892 2954 2923 2893 2927
8 2925 2889 2853 2891 2955 2924 2892 2926
8 2926 2892 2856 2894 2956 2927 2895 2929
8 2895 2857 2896 2930 2927 2893 2928 2957
8 2897 2859 2898 2932 2929 2895 2930 2959
8 2898 2860 2899 2933 2930 2896 2931 2960
8 2900 2862 2901 2934 2932 2898 2933 2961
8 2936 2903 2885 2921 2963 2935 2920 2951
8 2936 2903 2935 2963 2906 2868 2905 2939
8 2937 2904 2886 2922 2964 2936 2921 2952
8 2937 2904 2936 2964 2907 2869 2906 2940
8 2939 2905 2938 2966 2909 2870 2908 2942
8 2940 2906 2939 2967 2910 2871 2909 2943
8 2942 2908 2941 2969 2912 2873 2911 2945
8 2943 2909 2942 2970 2913 2874 2912 2946
8 2945 2911 2944 2971 2915 2876 2914 2947
8 2946 2912 2945 2972 2916 2877 2915 2948
8 2948 2915 2947 2973 2918 2880 2917 2949
8 2951 2920 2888 2924 2975 2950 2923 2954
8 2952 2921 2889 2925 2976 2951 2924 2955
8 2927 2893 2928 2957 2954 2923 2953 2978
8 2955 2924 2892 2926 2979 2954 2927 2956
8 2929 2895 2930 2959 2956 2927 2957 2980
8 2930 2896 2931 2960 2957 2928 2958 2981
8 2932 2898 2933 2961 2959 2930 2960 2982
8 2951 2920 2950 2975 2963 2935 2962 2984
8 2963 2935 2962 2984 2939 2905 2938 2966
8 2964 2936 2921 2952 2985 2963 2951 2976
8 2964 2936 2963 2985 2940 2906 2939 2967
8 2966 2938 2965 2987 2942 2908 2941 2969
8 2967 2939 2966 2988 2943 2909 2942 2970
8 2969 2941 2968 2989 2945 2911 2944 2971
8 2970 2942 2969 2990 2946 2912 2945 2972
8 2972 2945 2971 2991 2948 2915 2947 2973
8 2954 2923 2953 2978 2975 2950 2974 2993
8 2976 2951 2924 2955 2994 2975 2954 2979
8 2957 2928 2958 2981 2978 2953 2977 2995
8 2956 2927 2957 2980 2979 2954 2978 2996
8 2959 2930 2960 2982 2980 2957 2981 2997
8 2984 2962 2983 2999 2966 2938 2965 2987
8 2975 2950 2974 2993 2984 2962 2983 2999
8 2976 2951 2975 2994 2985 2963 2984 3000
8 2985 2963 2984 3000 2967 2939 2966 2988
8 2987 2965 2986 3001 2969 2941 2968 2989
8 2988 2966 2987 3002 2970 2942 2969 2990
8 2990 2969 2989 3003 2972 2945 2971 2991
8 2978 2953 2977 2995 2993 2974 2992 3004
8 2979 2954 2978 2996 2994 2975 2993 3005
8 2980 2957 2981 2997 2996 2978 2995 3006
8 2974 2993 2999 2983 2992 3004 3007 2998
8 2983 2999 2987 2965 2998 3007 3001 2986
8 3000 2984 2999 3008 2988 2966 2987 3002
8 2994 2975 2993 3005 3000 2984 2999 3008
8 3002 2987 3001 3009 2990 2969 2989 3003
8 2996 2978 2995 3006 3005 2993 3004 3010
8 3005 2993 3004 3010 3008 2999 3007 3011
8 3008 2999 3007 3011 3002 2987 3001 3009

CELL_TYPES 1910
12
12
12
12
12
12
12
12
12
12
12
12
12
12
12
12
12
12
12
12
12
12
12
12
12
12
12
12
12
12
12
12
12
12
12
12
12
12
12
12
12
12
12
12
12
12
12
12
12
12
12
12
12
12
12
12
12
12
12
12
12
12
12
12
12
12
12
12
12
12
12
12
12
12
12
12
12
12
12
12
12
12
12
12
12
12
12
12
12
12
12
12
12
12
12
12
12
12
12
12
12
12
12
12
12
12
12
12
12
12
12
12
12
12
12
12
12
12
12
12
12
12
12
12
12
12
12
12
12
12
12
12
12
12
12
12
12
12
12
12
12
12
12
12
12
12
12
12
12
12
12
12
12
12
12
12
12
12
12
12
12
12
12
12
12
12
12
12
12
12
12
12
12
12
12
12
12
12
12
12
12
12
12
12
12
12
12
12
12
12
12
12
12
12
12
12
12
12
12
12
12
12
12
12
12
12
12
12
12
12
12
12
12
12
12
12
12
12
12
12
12
12
12
12
12
12
12
12
12
12
12
12
12
12
12
12
12
12
12
12
12
12
12
12
12
12
12
12
12
12
12
12
12
12
12
12
12
12
12
12
12
12
12
12
12
12
12
12
12
12
12
12
12
12
12
12
12
12
12
12
12
12
12
12
12
12
12
12
12
12
12
12
12
12
12
12
12
12
12
12
12
12
12
12
12
12
12
12
12
12
12
12
12
12
12
12
12
12
12
12
12
12
12
12
12
12
12
12
12
12
12
12
12
12
12
12
12
12
12
12
12
12
12
12
12
12
12
12
12
12
12
12
12
12
12
12
12
12
12
12
12
12
12
12
12
12
12
12
12
12
12
12
12
12
12
12
12
12
12
12
12
12
12
12
12
12
12
12
12
12
12
12
12
12
12
12
12
12
12
12
12
12
12
12
12
12
12
12
12
12
12
12
12
12
12
12
12
12
12
12
12
12
12
12
12
12
12
12
12
12
12
12
12
12
12
12
12
12
12
12
12
12
12
12
12
12
12
12
12
12
12
12
12
12
12
12
12
12
12
12
12
12
12
12
12
12
12
12
12
12
12
12
12
12
12
12
12
12
12
12
12
12
12
12
12
12
12
12
12
12
12
12
12
12
12
12
12
12
12
12
12
12
12
12
12
12
12
12
12
12
12
12
12
12
12
12
12
12
12
12
12
12
12
12
12
12
12
12
12
12
12
12
12
12
12
12
12
12
12
12
12
12
12
12
12
12
12
12
12
12
12
12
12
12
12
12
12
12
12
12
12
12
12
12
12
12
12
12
12
12
12
12
12
12
12
12
12
12
12
12
12
12
12
12
12
12
12
12
12
12
12
12
12
12
12
12
12
12
12
12
12
12
12
12
12
12
12
12
12
12
12
12
12
12
12
12
12
12
12
12
12
12
12
12
12
12
12
12
12
12
12
12
12
12
12
12
12
12
12
12
12
12
12
12
12
12
12
12
12
12
12
12
12
12
12
12
12
12
12
12
12
12
12
12
12
12
12
12
12
12
12
12
12
12
12
12
12
12
12
12
12
12
12
12
12
12
12
12
12
12
12
12
12
12
12
12
12
12
12
12
12
12
12
12
12
12
12
12
12
12
12
12
12
12
12
12
12
12
12
12
12
12
12
12
12
12
12
12
12
12
12
12
12
12
12
12
12
12
12
12
12
12
12
12
12
12
12
12
12
12
12
12
12
12
12
12
12
12
12
12
12
12
12
12
12
12
12
12
12
12
12
12
12
12
12
12
12
12
12
12
12
12
12
12
12
12
12
12
12
12
12
12
12
12
12
12
12
12
12
12
12
12
12
12
12
12
12
12
12
12
12
12
12
12
12
12
12
12
12
12
12
12
12
12
12
12
12
12
12
12
12
12
12
12
12
12
12
12
12
12
12
12
12
12
12
12
12
12
12
12
12
12
12
12
12
12
12
12
12
12
12
12
12
12
12
12
12
12
12
12
12
12
12
12
12
12
12
12
12
12
12
12
12
12
12
12
12
12
12
12
12
12
12
12
12
12
12
12
12
12
12
12
12
12
12
12
12
12
12
12
12
12
12
12
12
12
12
12
12
12
12
12
12
12
12
12
12
12
12
12
12
12
12
12
12
12
12
12
12
12
12
12
12
12
12
12
12
12
12
12
12
12
12
12
12
12
12
12
12
12
12
12
12
12
12
12
12
12
12
12
12
12
12
12
12
12
12
12
12
12
12
12
12
12
12
12
12
12
12
12
12
12
12
12
12
12
12
12
12
12
12
12
12
12
12
12
12
12
12
12
12
12
12
12
12
12
12
12
12
12
12
12
12
12
12
12
12
12
12
12
12
12
12
12
12
12
12
12
12
12
12
12
12
12
12
12
12
12
12
12
12
12
12
12
12
12
12
12
12
12
12
12
12
12
12
12
12
12
12
12
12
12
12
12
12
12
12
12
12
12
12
12
12
12
12
12
12
12
12
12
12
12
12
12
12
12
12
12
12
12
12
12
12
12
12
12
12
12
12
12
12
12
12
12
12
12
12
12
12
12
12
12
12
12
12
12
12
12
12
12
12
12
12
12
12
12
12
12
12
12
12
12
12
12
12
12
12
12
12
12
12
12
12
12
12
12
12
12
12
12
12
12
12
12
12
12
12
12
12
12
12
12
12
12
12
12
12
12
12
12
12
12
12
12
12
12
12
12
12
12
12
12
12
12
12
12
12
12
12
12
12
12
12
12
12
12
12
12
12
12
12
12
12
12
12
12
12
12
12
12
12
12
12
12
12
12
12
12
12
12
12
12
12
12
12
12
12
12
12
12
12
12
12
12
12
12
12
12
12
12
12
12
12
12
12
12
12
12
12
12
12
12
12
12
12
12
12
12
12
12
12
12
12
12
12
12
12
12
12
12
12
12
12
12
12
12
12
12
12
12
12
12
12
12
12
12
12
12
12
12
12
12
12
12
12
12
12
12
12
12
12
12
12
12
12
12
12
12
12
12
12
12
12
12
12
12
12
12
12
12
12
12
12
12
12
12
12
12
12
12
12
12
12
12
12
12
12
12
12
12
12
12
12
12
12
12
12
12
12
12
12
12
12
12
12
12
12
12
12
12
12
12
12
12
12
12
12
12
12
12
12
12
12
12
12
12
12
12
12
12
12
12
12
12
12
12
12
12
12
12
12
12
12
12
12
12
12
12
12
12
12
12
12
12
12
12
12
12
12
12
12
12
12
12
12
12
12
12
12
12
12
12
12
12
12
12
12
12
12
12
12
12
12
12
12
12
12
12
12
12
12
12
12
12
12
12
12
12
12
12
12
12
12
12
12
12
12
12
12
12
12
12
12
12
12
12
12
12
12
12
12
12
12
12
12
12
12
12
12
12
12
12
12
12
12
12
12
12
12
12
12
12
12
12
12
12
12
12
12
12
12
12
12
12
12
12
12
12
12
12
12
12
12
12
12
12
12
12
12
12
12
12
12
12
12
12
12
12
12
12
12
12
12
12
12
12
12
12
12
12
12
12
12
12
12
12
12
12
12
12
12
12
12
12
12
12
12
12
12
12
12
12
12
12
12
12
12
12
12
12
12
12
12
12
12
12
12
12
12
12
12
12
12
12
12
12
12
12
12
12
12
12
12
12
12
12
12
12
12
12
12
12
12
12
12
12
12
12
12
12
12
12
12
12
12
12
12
12
12
12
12
12
12
12
12
12
12
12
12
12
12
12
12
12
12
12
12
12
12
12
12
12
12
12
12
12
12
12
12
12
12
12
12
12
12
12
12
12
12
12
12
12
12
12
12
12
12
12
12
12
12
12
12
12
12
12
12
12
12
12
12
12
12
12
12
12
12
12
12
12
12
12
12
12
12
12
12
12
12
12
12
12
12
12
12
12
12
12
12
12
12
12
12
12
12
12
12
12
12
12
12
12
12
12
12
12
12
12
12
12
12
12
12
12
12
12
12
12
12
12
12
12
12
12
12
12
12
12
12
12
12
12
12
12
12
12
12
12
12
12
12
12
12
12
12
12
12
12
12
12
12
12
12
12
12
12
12
12
12
12
12
12
12
12
12
12
12
12
12
12
12
12
12
12
12
12
12
12
12
12
12
12
12
12
12
12
12
12
12
12
12
12
12
12
12
12
12
12
12
12
12
12
12
12
12
12
12
12
12
12
12
12
12
12
12
12
12
12
12
12
12
12
12
12
12
12
12
12
12
12
12
12
12
12
12
12
12
12
12
12
12
12
12
12
12
12
12
12
12
12
12
12
12
12
12
12
12
12
12
12
12
12
12
12
12
12
12
12
12
12
12
12
12
12
12
12
12
12
12
12

POINT_DATA 3012
SCALARS Jp_lamdaP float 4
LOOKUP_TABLE default
0.999956 1 1 0.999956
1 1 1 1
0.999959 1 1 0.999959
0.999929 1 1 0.999929
0.999952 1 1 0.999952
0.999964 1 1 0.999964
0.999659 1 1 0.999659
1 1 1 1
1 1 1 1
1 1 1 1
0.999998 1 1 0.999998
0.999821 1 1 0.999821
0.99989 1 1 0.99989
0.999922 1 1 0.999922
0.999959 1 1 0.999959
0.999936 1 1 0.999936
0.999967 1 1 0.999967
0.999956 1 1 0.999956
0.999662 1 1 0.999662
1 1 1 1
0.999917 1 1 0.999917
0.999941 1 1 0.999941
0.999543 1 1 0.999543
0.999623 1 1 0.999623
0.999982 1 1 0.999982
0.999708 1 1 0.999708
0.999174 1 1 0.999174
1 1 1 1
0.999969 1 1 0.999969
0.999983 1 1 0.999983
1 1 1 1
0.999828 1 1 0.999828
0.999934 1 1 0.999934
0.999956 1 1 0.999956
0.999702 1 1 0.999702
1 1 1 1
0.999791 1 1 0.999791
0.999877 1 1 0.999877
0.999271 1 1 0.999271
1 1 1 1
1 1 1 1
0.999959 1 1 0.999959
1 1 1 1
0.999911 1 1 0.999911
0.999491 1 1 0.999491
1 1 1 1
0.99963 1 1 0.99963
0.999941 1 1 0.999941
0.999958 1 1 0.999958
0.99997 1 1 0.99997
0.999666 1 1 0.999666
0.999945 1 1 0.999945
0.999925 1 1 0.999925
0.999986 1 1 0.999986
0.999947 1 1 0.999947
0.999545 1 1 0.999545
0.999712 1 1 0.999712
0.999626 1 1 0.999626
0.99916 1 1 0.99916
1 1 1 1
0.999903 1 1 0.999903
0.999579 1 1 0.999579
0.999518 1 1 0.999518
0.999582 1 1 0.999582
0.998897 1 1 0.998897
0.999032 1 1 0.999032
0.999998 1 1 0.999998
0.999799 1 1 0.999799
0.999288 1 1 0.999288
0.998671 1 1 0.998671
1 1 1 1
1 1 1 1
1 1 1 1
0.999836 1 1 0.999836
1 1 1 1
1 1 1 1
0.999678 1 1 0.999678
1 1 1 1
0.999782 1 1 0.999782
0.999893 1 1 0.999893
0.999269 1 1 0.999269
1 1 1 1
0.999997 1 1 0.999997
0.99963 1 1 0.99963
0.999716 1 1 0.999716
0.998911 1 1 0.998911
0.99994 1 1 0.99994
0.999188 1 1 0.999188
0.999355 1 1 0.999355
0.998921 1 1 0.998921
1 1 1 1
1 1 1 1
1 1 1 1
1 1 1 1
1 1 1 1
0.999952 1 1 0.999952
0.999534 1 1 0.999534
0.999963 1 1 0.999963
0.999614 1 1 0.999614
1 1 1 1
0.999461 1 1 0.999461
0.999599 1 1 0.999599
0.998597 1 1 0.998597
0.999654 1 1 0.999654
0.998705 1 1 0.998705
0.999902 1 1 0.999902
0.999931 1 1 0.999931
0.99999 1 1 0.99999
0.999952 1 1 0.999952
0.999547 1 1 0.999547
0.99963 1 1 0.99963
0.999717 1 1 0.999717
0.999146 1 1 0.999146
1 1 1 1
0.999911 1 1 0.999911
0.999485 1 1 0.999485
0.999518 1 1 0.999518
0.999999 1 1 0.999999
0.999832 1 1 0.999832
0.999584 1 1 0.999584
0.998868 1 1 0.998868
0.999269 1 1 0.999269
0.999052 1 1 0.999052
0.998673 1 1 0.998673
0.999479 1 1 0.999479
0.999493 1 1 0.999493
0.998699 1 1 0.998699
0.998804 1 1 0.998804
0.998924 1 1 0.998924
0.998516 1.00009 1 0.998431
1 1 1 1
0.998593 1 1 0.998593
0.99993 1 1 0.99993
0.999349 1 1 0.999349
0.998756 1 1 0.998756
0.998869 1.0004 1 0.998469
0.999982 1 1 0.999982
0.999617 1 1 0.999617
1 1 1 1
1 1 1 1
0.999684 1 1 0.999684
1 1 1 1
0.999907 1 1 0.999907
0.999786 1 1 0.999786
0.999267 1 1 0.999267
1 1 1 1
0.999999 1 1 0.999999
0.999656 1 1 0.999656
0.99974 1 1 0.99974
0.998914 1 1 0.998914
0.999953 1 1 0.999953
0.99919 1 1 0.99919
0.999355 1 1 0.999355
0.998908 1 1 0.998908
0.999981 1 1 0.999981
1 1 1 1
0.999702 1 1 0.999702
0.998806 1 1 0.998806
0.999056 1 1 0.999056
0.998841 1.00034 1 0.998499
0.999465 1 1 0.999465
0.998821 1 1 0.998821
0.999048 1 1.00006 0.998985
0.998784 1 1 0.998784
1 1 1 1
1 1 1 1
1 1 1 1
0.999994 1 1 0.999994
1 1 1 1
1 1 1 1
1 1 1 1
0.999595 1 1 0.999595
0.99951 1 1 0.99951
1 1 1 1
1 1 1 1
0.999463 1 1 0.999463
0.999582 1 1 0.999582
0.998597 1 1 0.998597
0.999616 1 1 0.999616
0.998705 1 1 0.998705
0.99945 1 1 0.99945
0.998537 1 1 0.998537
0.998661 1 1 0.998661
1.00036 1.00214 1 0.998219
0.998745 1 1 0.998745
0.999394 1.00107 1 0.998327
1 1 1 1
0.99992 1 1 0.99992
0.999385 1 1 0.999385
0.999519 1 1 0.999519
1 1 1 1
0.999865 1 1 0.999865
0.999588 1 1 0.999588
0.998839 1 1 0.998839
0.999073 1 1 0.999073
0.99925 1 1 0.99925
0.998676 1 1 0.998676
0.999476 1 1 0.999476
0.999493 1 1 0.999493
0.998639 1 1 0.998639
0.998826 1 1 0.998826
1 1 1 1
0.999918 1 1 0.999918
0.999375 1 1 0.999375
0.998925 1 1 0.998925
0.998535 1.00014 1 0.998397
0.998752 1 1 0.998752
0.998611 1 1 0.998611
0.998905 1.00043 1 0.998472
0.999976 1 1 0.999976
0.999616 1 1 0.999616
0.998551 1 1 0.998551
0.99876 1 1 0.99876
0.99956 1.00127 1 0.998297
0.998608 1.00029 1 0.998315
0.998529 1.00001 1 0.998522
1.00089 1.00262 1 0.998275
0.999961 1 1 0.999961
0.999093 1.00068 1 0.99841
0.99943 1 1 0.99943
0.998905 1 1 0.998905
0.998758 1.00021 1 0.998549
1.00044 1.00203 1 0.998416
0.999525 1 1 0.999525
0.999726 1 1 0.999726
0.999232 1 1 0.999232
0.999644 1 1 0.999644
1 1 1 1
1 1 1 1
0.999738 1 1 0.999738
0.998916 1 1 0.998916
0.999966 1 1 0.999966
0.999355 1 1 0.999355
0.999192 1 1 0.999192
0.998895 1 1 0.998895
0.999987 1 1 0.999987
1 1 1 1
0.999703 1 1 0.999703
0.998807 1 1 0.998807
0.99906 1 1 0.99906
0.998716 1.00022 1 0.998499
0.999466 1 1 0.999466
0.99883 1 1 0.99883
0.998987 1 1 0.998982
0.998773 1 1 0.998773
1 1 1 1
0.999576 1 1 0.999576
0.999823 1 1 0.999823
0.999327 1 1 0.999327
0.999373 1.00097 1 0.998403
0.998673 1 1 0.998669
1.00161 1.00332 1 0.998304
0.999116 1 1.00001 0.999107
0.999077 1.0004 1 0.998678
0.99965 1 1.0009 0.998752
0.998668 1 1 0.998668
0.999956 1 1 0.999956
1 1 1 1
1 1 1 1
1 1 1 1
1 1 1 1
0.999999 1 1 0.999999
1 1 1 1
0.999991 1 1 0.999991
1 1 1 1
0.999618 1 1 0.999618
0.99956 1 1 0.99956
0.998705 1 1 0.998705
0.998598 1 1 0.998598
0.999465 1 1 0.999465
1 1 1 1
0.999449 1 1 0.999449
0.998537 1 1 0.998537
0.998661 1 1 0.998661
1.00018 1.00197 1 0.998218
0.998745 1 1 0.998745
0.999448 1.00112 1 0.998327
0.998523 1 1 0.998523
1.00064 1.00249 1 0.99816
0.999772 1.00149 1 0.99828
1.00653 1.0084 1 0.99814
0.999525 1.00117 1 0.99836
1.00412 1.00591 1 0.99822
0.999473 1 1 0.999473
0.999493 1 1 0.999493
0.998579 1 1 0.998579
0.998848 1 1 0.998848
1 1 1 1
0.999906 1 1 0.999906
0.9994 1 1 0.9994
0.998926 1 1 0.998926
0.99855 1.00019 1 0.998363
0.99863 1 1 0.99863
0.998748 1 1 0.998748
0.998919 1.00044 1 0.998476
0.999971 1 1 0.999971
0.999616 1 1 0.999616
0.998532 1 1 0.998532
0.998758 1 1 0.998758
0.999719 1.00144 1 0.998284
0.99874 1.00039 1 0.99835
0.999953 1 1 0.999953
0.999428 1 1 0.999428
0.998934 1 1 0.998934
0.998532 1.00001 1 0.998523
1.00123 1.00297 1 0.998269
0.998717 1.0002 1 0.998521
0.999388 1.00098 1 0.998411
1.00069 1.00228 1 0.998416
0.999527 1 1 0.999527
0.99923 1 1 0.99923
0.999724 1 1 0.999724
1.00006 1.00183 1 0.998233
0.999647 1.00133 1 0.998321
1.00576 1.00764 1 0.998137
1.00238 1.00419 1 0.998201
1.00009 1.00175 1 0.998342
1.00629 1.00802 1 0.998292
0.999478 1 1 0.999478
1.00222 1.00384 1 0.998381
0.999105 1 1 0.999105
0.998635 1 1 0.998635
0.998982 1.00059 1 0.99839
1.00434 1.00587 1 0.998478
0.999809 1 1 0.999809
0.999214 1 1 0.999214
0.999285 1 1 0.999285
0.999094 1 1 0.999094
0.998808 1 1 0.998808
1 1 1 1
0.999993 1 1 0.999993
0.999705 1 1 0.999705
0.999065 1 1 0.999065
0.998608 1.00011 1 0.998498
0.999467 1 1 0.999467
0.99898 1 1 0.99898
0.99884 1 1 0.99884
0.998762 1 1 0.998762
1 1 1 1
0.999576 1 1 0.999576
0.999827 1 1 0.999827
0.999324 1 1 0.999324
0.999186 1.00079 1 0.998401
0.99868 1.00001 1 0.998671
1.00123 1.00294 1 0.998303
0.999141 1 1.00003 0.99911
0.998913 1.00022 1 0.99869
0.999613 1 1.00087 0.998743
0.998725 1 1 0.998725
1 1 1 1
0.999895 1 1 0.999895
0.999225 1 1 0.999225
0.999444 1 1 0.999444
0.999115 1 1 0.999115
1.00247 1.00424 1 0.998241
1.00016 1.00168 1 0.998482
1.00379 1.00555 1 0.998252
1.00006 1 1.00122 0.998843
0.998899 1.00029 1 0.998607
0.999284 1 1.00076 0.998523
0.999945 1 1 0.999945
0.999693 1 1 0.999693
0.999963 1 1 0.999963
0.999958 1 1 0.999958
1 1 1 1
1 1 1 1
1 1 1 1
1 1 1 1
1 1 1 1
1 1 1 1
1 1 1 1
0.999998 1 1 0.999998
1 1 1 1
0.999988 1 1 0.999988
1 1 1 1
0.998744 1 1 0.998744
0.998661 1 1 0.998661
0.999497 1.00117 1 0.998327
1 1.00179 1 0.998217
0.998537 1 1 0.998537
0.999448 1 1 0.999448
0.998523 1 1 0.998523
1.00058 1.00243 1 0.99816
0.999597 1.00132 1 0.99828
1.00666 1.00853 1 0.998139
0.999525 1.00117 1 0.998358
1.00363 1.00542 1 0.99822
1.00058 1.00244 1 0.998144
1.00845 1.01038 1 0.998093
1.00525 1.00708 1 0.99818
1.01234 1.01419 1 0.998171
1.00304 1.00482 1 0.998236
1.00877 1.01049 1 0.9983
0.998513 1 1 0.998513
0.998757 1 1 0.998757
0.99986 1.00159 1 0.998272
0.998873 1.00049 1 0.998386
0.999946 1 1 0.999946
0.999427 1 1 0.999427
0.998963 1 1 0.998963
0.998537 1.00001 1 0.998524
1.00158 1.00333 1 0.998263
0.99968 1.00127 1 0.998412
0.998681 1.00019 1 0.998492
1.001 1.00259 1 0.998416
0.999529 1 1 0.999529
0.999229 1 1 0.999229
0.999722 1 1 0.999722
1.00023 1.00203 1 0.998204
0.9996 1.00128 1 0.99832
1.00581 1.00769 1 0.99813
1.00296 1.00476 1 0.998207
0.999479 1 1 0.999479
0.9991 1 1 0.9991
0.998704 1 1.00003 0.998672
1.00034 1.00199 1 0.998352
1.00592 1.00763 1 0.998305
0.999162 1.00079 1 0.998369
1.00232 1.00394 1 0.998383
1.0039 1.00542 1 0.99849
0.999217 1 1 0.999217
0.999078 1 1 0.999078
0.999806 1 1 0.999806
0.9993 1 1 0.9993
1.00681 1.00875 1 0.99808
1.00533 1.00717 1 0.998171
1.01274 1.01466 1 0.998111
1.00815 1.00993 1 0.998235
1.00458 1.00624 1 0.998351
1.00959 1.01124 1 0.998363
0.999192 1 1 0.999192
1.00558 1.00709 1 0.998502
0.998875 1 1 0.998875
0.999203 1.0006 1.00018 0.998433
1.00208 1.00378 1 0.998305
1.00611 1.00762 1 0.998499
0.999855 1 1 0.999855
0.999388 1 1 0.999388
0.999084 1 1 0.999084
0.999115 1 1 0.999115
0.99903 1 1 0.99903
1 1 1 1
0.998976 1.00058 1 0.998399
0.999831 1 1 0.999831
0.999576 1 1 0.999576
0.999322 1 1 0.999322
0.998674 1 1 0.998674
1.00083 1.00253 1 0.998303
0.999112 1 1 0.999112
0.999637 1 1.0009 0.998734
0.998712 1.00001 1 0.998703
0.998782 1 1 0.998782
1 1 1 1
0.9999 1 1 0.9999
0.999225 1 1 0.999225
0.999444 1 1 0.999444
0.999099 1 1 0.999099
1.00263 1.0044 1 0.998238
0.999684 1.0012 1 0.998483
1.00386 1.00563 1 0.998245
0.999953 1 1.00111 0.998847
0.998959 1.00034 1 0.998619
0.999439 1 1.0009 0.998541
0.999927 1 1 0.999927
0.999551 1 1 0.999551
0.999292 1 1.00031 0.998985
0.99921 1 1 0.99921
0.999078 1 1.00009 0.998984
1.00611 1.0079 1 0.998229
1.00102 1.00261 1 0.998413
1.00441 1.00605 1 0.998369
1.00213 1 1.0035 0.998634
0.998573 1.00016 1 0.99841
0.999948 1 1 0.999948
0.999635 1 1 0.999635
0.999677 1 1 0.999677
0.999517 1 1 0.999517
0.9997 1 1 0.9997
0.999965 1 1 0.999965
0.999964 1 1 0.999964
1 1 1 1
0.99996 1 1 0.99996
1 1 1 1
1 1 1 1
1 1 1 1
1 1 1 1
1 1 1 1
1 1 1 1
1 1 1 1
1 1 1 1
1 1 1 1
0.999997 1 1 0.999997
1 1 1 1
0.999551 1.0012 1 0.998357
0.999418 1.00114 1 0.99828
1.00316 1.00495 1 0.99822
1.00678 1.00866 1 0.998138
1.00053 1.00238 1 0.99816
0.998522 1 1 0.998522
1.00062 1.00248 1 0.998145
1.00854 1.01047 1 0.998085
1.005 1.00683 1 0.99818
1.01225 1.0141 1 0.998179
1.00322 1.00499 1 0.998233
1.00881 1.01052 1 0.998305
1.0079 1.00986 1 0.998061
1.01422 1.01613 1 0.998114
1.01015 1.01193 1 0.998243
1.01228 1.01409 1 0.998219
1.00811 1.00985 1 0.998281
1.01109 1.01273 1 0.998386
1.00042 1.00225 1 0.998174
0.999551 1.00123 1 0.998319
1.00587 1.00776 1 0.998123
1.00354 1.00534 1 0.998213
0.99948 1 1 0.99948
0.999096 1 1 0.999096
0.99889 1 1.00018 0.998709
1.00062 1.00226 1 0.998362
1.00553 1.00723 1 0.998318
1.00237 1.004 1 0.998384
0.99933 1.00098 1 0.998347
1.00348 1.00498 1 0.998502
0.99922 1 1 0.99922
0.999062 1 1 0.999062
0.999803 1 1 0.999803
0.999315 1 1 0.999315
1.00685 1.00879 1 0.998081
1.00544 1.00729 1 0.998168
1.01244 1.01435 1 0.998117
1.00759 1.00938 1 0.998231
0.99919 1 1 0.99919
0.998937 1 1.00003 0.998906
0.999327 1.00051 1.00039 0.998429
1.00436 1.00603 1 0.998341
1.00955 1.01117 1 0.998398
1.00222 1.00393 1 0.998296
1.00543 1.00693 1 0.998504
1.00624 1.00772 1 0.99853
0.999084 1 1 0.999084
0.999027 1 1 0.999027
0.999112 1 1 0.999112
0.999829 1 1 0.999829
0.9994 1 1 0.9994
1.01396 1.0159 1 0.998088
1.0121 1.01399 1 0.998136
1.01055 1.01224 1 0.998325
1.0081 1.00967 1 0.99845
0.999054 1 1 0.999054
1.00774 1.00916 1 0.998594
0.999008 1 1.00029 0.99872
1.00044 1.00172 1.00051 0.998212
1.00505 1.00682 1 0.998244
0.999843 1 1 0.999843
0.999518 1 1 0.999518
0.999221 1 1 0.999221
0.999045 1 1 0.999045
0.99898 1 1 0.99898
0.998981 1 1 0.998981
1 1 1 1
0.999905 1 1 0.999905
1.00278 1.00456 1 0.998234
0.999444 1 1 0.999444
0.999225 1 1 0.999225
0.999083 1 1 0.999083
0.999284 1.0008 1 0.998484
1.00383 1.0056 1 0.998239
0.999876 1 1.00103 0.99885
0.999301 1 1.00074 0.998559
0.99909 1.00046 1 0.998631
0.999931 1 1 0.999931
0.999552 1 1 0.999552
0.999245 1 1.00025 0.998993
0.999209 1 1 0.999209
0.999062 1 1.00009 0.99897
1.00614 1.00793 1 0.998225
1.00087 1.00246 1 0.998407
1.00439 1.00601 1 0.998388
1.00155 1 1.00293 0.998619
0.998652 1.00022 1.00006 0.99838
0.999622 1 1 0.999622
0.999284 1 1 0.999284
1.00059 1 1.00176 0.998831
0.999146 1 1.00015 0.998997
0.999083 1 1.00021 0.998877
1.00948 1.011 1 0.998492
1.00107 1.00275 1 0.998325
1.00452 1.00612 1 0.998412
1.00276 1 1.00427 0.998494
0.998412 1.00024 1 0.998177
0.999951 1 1 0.999951
0.999649 1 1 0.999649
0.999432 1 1 0.999432
0.99966 1 1 0.99966
0.9997 1 1 0.9997
0.999492 1 1 0.999492
0.999367 1 1 0.999367
0.999482 1 1 0.999482
0.999705 1 1 0.999705
0.999964 1 1 0.999964
0.999966 1 1 0.999966
1 1 1 1
0.999966 1 1 0.999966
1 1 1 1
1 1 1 1
1 1 1 1
1 1 1 1
1 1 1 1
1 1 1 1
1 1 1 1
1 1 1 1
1 1 1 1
1 1 1 1
1 1 1 1
1.00337 1.00515 1 0.99823
1.00475 1.00658 1 0.99818
1.00885 1.01056 1 0.99831
1.01218 1.01402 1 0.998187
1.00862 1.01056 1 0.998078
1.00066 1.00252 1 0.998145
1.00796 1.00992 1 0.998055
1.01428 1.0162 1 0.998112
1.01047 1.01226 1 0.998229
1.01254 1.01434 1 0.99822
1.0075 1.00923 1 0.998281
1.01109 1.0127 1 0.998408
1.0135 1.01545 1 0.998082
1.01396 1.0158 1 0.998187
1.0128 1.01451 1 0.998317
1.01089 1.01243 1 0.99848
1.00688 1.00881 1 0.998082
1.00553 1.00738 1 0.998165
1.01214 1.01405 1 0.998122
1.00704 1.00883 1 0.998228
0.999188 1 1 0.999188
0.998937 1 1 0.998937
0.999445 1.00044 1.00058 0.998424
1.00412 1.0058 1 0.998331
1.00953 1.01111 1 0.998432
1.00534 1.00684 1 0.998505
1.00229 1.00402 1 0.998286
1.00623 1.00768 1 0.998561
0.999085 1 1 0.999085
0.999023 1 1 0.999023
0.999109 1 1 0.999109
0.999803 1 1 0.999803
0.999413 1 1 0.999413
1.01364 1.01557 1 0.998091
1.01196 1.01384 1 0.998143
1.01037 1.01207 1 0.998327
0.99905 1 1 0.99905
0.999008 1 1.00026 0.998752
1.00069 1.00173 1.00076 0.998205
1.00831 1.00988 1 0.998441
1.00503 1.00676 1 0.998288
1.00717 1.00859 1 0.998589
0.999846 1 1 0.999846
0.999043 1 1 0.999043
0.999001 1 1 0.999001
0.999004 1 1.00003 0.998973
0.999229 1 1 0.999229
0.999498 1 1 0.999498
1.01392 1.01583 1 0.99812
1.01257 1.01439 0.99998 0.998225
1.01035 1.01197 1 0.998403
1.01043 1.01187 1 0.998573
0.998964 1 1 0.998964
1.00501 1.00662 1 0.998397
1.00006 1 1.00165 0.998417
1.00155 1.00243 1.00104 0.998078
0.999883 1 1 0.999883
0.999585 1 1 0.999585
0.99931 1 1 0.99931
0.999027 1 1 0.999027
0.998975 1 1 0.998975
0.998963 1 1.00006 0.998906
0.999935 1 1 0.999935
0.999554 1 1 0.999554
1.00624 1.00804 1 0.998222
0.999208 1 1 0.999208
0.999107 1 1.00011 0.999001
0.999086 1 1.00013 0.998957
1.00065 1.00226 1 0.998401
1.00447 1.00608 1 0.998408
1.001 1 1.0024 0.998604
0.998866 1.00025 1.00027 0.998349
0.999623 1 1 0.999623
0.999294 1 1 0.999294
1.00058 1 1.00173 0.998848
0.99921 1 1.00021 0.999002
0.999012 1 1.00011 0.998899
1.00959 1.0111 1 0.998504
1.0011 1.00278 1 0.998322
1.00467 1.00619 1 0.998488
1.00301 1 1.00454 0.998478
0.99838 1.00021 1.00003 0.998144
0.999383 1 1 0.999383
0.999064 1 1 0.999064
1.00244 1 1.00373 0.998716
0.999014 1 1.00022 0.998797
1.01616 1.01766 0.999923 0.998594
1.00983 1.01137 0.999872 0.998602
1.00242 1.00428 1 0.998152
1.00253 1.00011 1.00426 0.998168
0.999663 1 1 0.999663
0.999443 1 1 0.999443
0.999308 1 1 0.999308
0.9997 1 1 0.9997
0.999468 1 1 0.999468
0.999705 1 1 0.999705
0.999349 1 1 0.999349
0.999491 1 1 0.999491
0.999245 1 1 0.999245
0.999345 1 1 0.999345
0.999484 1 1 0.999484
0.999702 1 1 0.999702
0.99996 1 1 0.99996
0.999963 1 1 0.999963
1 1 1 1
0.999966 1 1 0.999966
1 1 1 1
1 1 1 1
1 1 1 1
1 1 1 1
1 1 1 1
1 1 1 1
1 1 1 1
1 1 1 1
1 1 1 1
1 1 1 1
1 1 1 1
1.00689 1.00862 1 0.998282
1.01078 1.01258 1 0.998215
1.01109 1.01268 1 0.99843
1.01278 1.01458 1 0.998221
1.01434 1.01626 1 0.99811
1.00803 1.01 1 0.998049
1.01347 1.01541 1 0.998088
1.01336 1.0152 1 0.998185
1.01254 1.01424 1 0.998321
1.01184 1.01339 1 0.998475
1.01416 1.01604 1 0.99815
1.01608 1.01779 1 0.998318
1.01543 1.01706 0.999946 0.998443
1.0133 1.01524 1 0.998095
1.01182 1.0137 1 0.99815
1.01015 1.01185 1 0.998328
0.999046 1 1 0.999046
0.998962 1 1.00018 0.998784
1.0008 1.00176 1.00085 0.998198
1.0084 1.00999 1 0.998432
1.00677 1.0082 1 0.998584
1.00524 1.00691 1 0.998333
0.999041 1 1 0.999041
0.999021 1 1 0.999021
0.998966 1 1 0.998965
0.99985 1 1 0.99985
0.999237 1 1 0.999237
0.999478 1 1 0.999478
1.01442 1.01632 1 0.998123
1.01258 1.01439 0.999994 0.998227
1.01022 1.01184 1 0.998392
0.998956 1 1 0.998956
0.999872 1 1.0014 0.998475
1.00165 1.00266 1.0009 0.998089
1.01061 1.01204 1 0.998588
1.00537 1.00699 1 0.99839
0.999906 1 1 0.999906
0.999585 1 1 0.999585
0.99898 1 1 0.99898
0.998954 1 1.00002 0.998937
0.999028 1 1 0.999028
0.999294 1 1 0.999294
1.01646 1.01829 0.999971 0.998235
1.01158 1.0142 0.999079 0.998334
1.01222 1.01411 0.999562 0.998574
1.00893 1.01031 1 0.998632
0.999692 1 1.00088 0.998809
1.00194 1.00248 1.0014 0.99807
1.00089 1 1.00264 0.998256
0.999957 1 1 0.999957
0.999716 1 1 0.999716
0.999594 1 1 0.999594
0.99934 1 1 0.99934
0.999113 1 1 0.999113
0.998939 1 1.00004 0.998896
0.999006 1 1 0.999006
1.00354 1 1.00454 0.999004
0.999624 1 1 0.999624
0.999303 1 1 0.999303
1.00957 1.01107 1 0.998517
0.999207 1 1.0002 0.999007
1.00076 1 1.0019 0.998866
0.99894 1 1.00002 0.998921
1.00113 1.00281 1 0.99832
1.00469 1.00614 1 0.998563
1.00325 1 1.0048 0.998461
0.99821 1.0001 1 0.998112
0.999373 1 1 0.999373
0.999074 1 1 0.999073
1.00284 1 1.00411 0.998731
0.999002 1 1.00019 0.998816
1.01587 1.0174 0.999909 0.998592
1.00912 1.0106 0.999949 0.998587
1.00283 1.00465 1 0.998189
1.00211 1.0002 1.00377 0.998142
0.999231 1 1 0.999231
1.01598 1.01915 0.998324 0.998555
0.999409 1 1.00051 0.998898
1.00122 1 1.00268 0.998546
1.01559 1.01738 0.999553 0.998684
1.00611 1.00791 1 0.998219
1.00339 1.00215 1.00323 0.998007
0.999454 1 1 0.999454
0.999307 1 1 0.999307
0.999188 1 1 0.999188
0.999705 1 1 0.999705
0.9995 1 1 0.9995
0.99933 1 1 0.99933
0.999702 1 1 0.999702
0.999485 1 1 0.999485
0.999229 1 1 0.999229
0.999363 1 1 0.999363
0.99915 1 1 0.99915
0.999225 1 1 0.999225
0.999369 1 1 0.999369
0.999492 1 1 0.999492
0.999691 1 1 0.999691
0.999956 1 1 0.999956
0.999959 1 1 0.999959
1 1 1 1
0.999962 1 1 0.999962
1 1 1 1
1 1 1 1
1 1 1 1
1 1 1 1
1 1 1 1
0.999973 1 1 0.999973
1 1 1 1
1 1 1 1
1 1 1 1
1 1 1 1
1 1 1 1
1 1 1 1
1.01281 1.01436 1 0.998471
1.01227 1.01397 1 0.998324
1.01276 1.0146 1 0.998182
1.01344 1.01537 1 0.998093
1.01388 1.01575 1 0.99816
1.01615 1.01788 0.999991 0.998305
1.01584 1.01746 0.999952 0.998457
1.01727 1.01906 0.999963 0.998283
1.01933 1.02164 0.999314 0.99843
1.00844 1.0159 0.994042 0.998607
1.01491 1.01681 1 0.998126
1.01265 1.01445 1 0.99823
1.0102 1.01184 1 0.99838
0.999005 1 1.00006 0.998949
0.999794 1 1.00126 0.998534
1.0016 1.00273 1.00078 0.9981
1.01092 1.01233 1 0.998604
1.00531 1.00694 1 0.998383
0.998984 1 1 0.998984
0.998967 1 1 0.998967
0.999093 1 1.00006 0.999029
0.99993 1 1 0.99993
0.999585 1 1 0.999585
0.999279 1 1 0.999279
1.01627 1.01807 0.999981 0.99825
0.999953 1 1 0.999953
0.999702 1 1 0.999702
1.01143 1.01374 0.999391 0.998332
1.01339 1.01512 0.99976 0.998544
0.99969 1 1.00084 0.99885
1.00152 1 1.0033 0.998222
1.00149 1.00258 1.00084 0.998078
1.00836 1.00975 1 0.998625
0.999635 1 1 0.999635
0.999339 1 1 0.999339
0.998967 1 1 0.998967
1.00145 1 1.00238 0.999075
0.998911 1 1.00004 0.998876
0.999117 1 1 0.999117
1.01817 1.02077 0.99905 0.9984
1.01372 1.01676 0.998547 0.998456
1.01157 1.01479 0.99806 0.998772
1.00295 1.00461 0.999951 0.998391
1.00115 1 1.00234 0.998808
1.00403 1.00053 1.00547 0.998042
0.999721 1 1 0.999721
0.999674 1 1 0.999674
0.999516 1 1 0.999516
0.999341 1 1 0.999341
0.999187 1 1 0.999187
0.998941 1 1 0.998941
1.00543 1 1.00663 0.998805
0.999296 1 1.0002 0.999098
0.999364 1 1 0.999364
0.999082 1 1 0.999082
1.01567 1.01722 0.999889 0.99859
1.0087 1.01014 1 0.998572
0.999007 1 1.00017 0.998835
1.00312 1 1.00438 0.998746
1.0034 1.00515 1.00004 0.998226
1.00178 1.00032 1.00335 0.998115
0.999227 1 1 0.999227
1.01578 1.01949 0.997776 0.998574
0.999265 1 1.00036 0.998906
1.00121 1 1.00269 0.998525
1.01539 1.01716 0.999594 0.998663
1.00689 1.00866 1 0.998245
1.00342 1.00192 1.00348 0.998016
0.999204 1 1.00017 0.999036
1.01756 1.02343 0.995491 0.998775
0.999276 1 1.00053 0.99875
1.00224 1.00014 1.00379 0.998314
1.00748 1.01188 0.997225 0.998414
1.00198 1.00173 1.00221 0.998048
1.00572 1.00836 0.998499 0.998882
0.999306 1 1 0.999306
0.999187 1 1 0.999187
0.99909 1 1 0.99909
0.999701 1 1 0.999701
0.999485 1 1 0.999485
0.999382 1 1 0.999382
0.999213 1 1 0.999213
0.99969 1 1 0.99969
0.999483 1 1 0.999483
0.999142 1 1 0.999142
0.999368 1 1 0.999368
0.999241 1 1 0.999241
0.999133 1 1 0.999133
0.999274 1 1 0.999274
0.999371 1 1 0.999371
0.99945 1 1 0.99945
0.999647 1 1 0.999647
0.999518 1 1 0.999518
0.999649 1 1 0.999649
0.999953 1 1 0.999953
0.999955 1 1 0.999955
1 1 1 1
0.999958 1 1 0.999958
1 1 1 1
1 1 1 1
1 1 1 1
1 1 1 1
1 1 1 1
0.999982 1 1 0.999982
0.99997 1 1 0.99997
1 1 1 1
1 1 1 1
1 1 1 1
1 1 1 1
1 1 1 1
1 1 1 1
1.01621 1.01782 0.999956 0.99847
1.01625 1.01799 0.999991 0.998293
1.01365 1.0155 1 0.998171
1.01741 1.01918 0.999981 0.998281
1.01859 1.02089 0.999317 0.998428
1.00969 1.0163 0.994884 0.998608
1.01642 1.02094 0.997069 0.998497
1.00753 1.01596 0.993182 0.998515
1.016 1.02385 0.99345 0.998877
0.999777 1 1 0.999777
1.0161 1.01787 1 0.998265
1.01115 1.01316 0.999691 0.998331
1.01428 1.01591 0.999883 0.998514
0.999712 1 1.00082 0.998892
1.00221 1.00001 1.00402 0.998188
1.0014 1.00286 1.00045 0.998085
1.0078 1.0092 1 0.998618
0.998929 1 1 0.998929
0.999361 1 1.00021 0.999147
0.998855 1 1 0.998855
0.999949 1 1 0.999949
0.999122 1 1 0.999122
0.999676 1 1 0.999676
0.999338 1 1 0.999338
0.999687 1 1 0.999687
1.01809 1.02131 0.99843 0.998406
0.99974 1 1 0.99974
0.999673 1 1 0.999673
0.999485 1 1 0.999485
1.01397 1.01716 0.998408 0.998459
1.01095 1.01386 0.998397 0.998729
1.00043 1 1.00161 0.998824
1.0038 1.00024 1.00553 0.998044
1.00304 1.00453 1.00012 0.998395
0.999362 1 1 0.999362
0.999176 1 1 0.999176
1.00059 1 1.00154 0.999048
1.00442 1 1.00559 0.998837
0.998958 1 1 0.998958
1.01315 1.01864 0.996131 0.998472
1.01354 1.01865 0.996408 0.998576
1.00681 1.00984 0.99844 0.998552
1.00441 1.00291 1.00323 0.998267
1.00353 1 1.00478 0.998757
0.999485 1 1 0.999485
0.999404 1 1 0.999404
0.99932 1 1 0.99932
0.999187 1 1 0.999187
0.999046 1 1 0.999046
1.00287 1 1.00403 0.998843
1.00716 1 1.00843 0.998743
0.999223 1 1 0.999223
0.999087 1 1.00017 0.998914
1.01559 1.01973 0.997342 0.998593
1.01501 1.0168 0.999594 0.998643
1.00733 1.00908 1 0.99827
1.00118 1 1.00268 0.998503
1.00317 1.00155 1.0036 0.998025
0.999193 1 1.00013 0.999061
1.01731 1.02368 0.994998 0.998779
0.999277 1 1.00051 0.998764
1.00242 1.00004 1.00406 0.998325
1.00839 1.01213 0.99784 0.998464
1.0025 1.00177 1.00269 0.998038
1.00609 1.0088 0.99867 0.998646
0.9991 1 1.00017 0.998927
1.00367 1.01466 0.990398 0.998757
1.00054 1 1.00183 0.998717
1.0046 1 1.00636 0.99825
1.00276 1.00349 1.00104 0.998235
0.959157 0.973688 0.993705 0.991316
0.98938 0.990429 1.00287 0.99608
0.982527 1.00183 0.981703 0.999015
0.900723 0.927347 0.978758 0.992371
0.881098 0.934834 0.94993 0.992197
0.999185 1 1 0.999185
0.999101 1 1 0.999101
0.9991 1 1 0.9991
0.99969 1 1 0.99969
0.999473 1 1 0.999473
0.999367 1 1 0.999367
0.999257 1 1 0.999257
0.999134 1 1 0.999134
0.999354 1 1 0.999354
0.999663 1 1 0.999663
0.999462 1 1 0.999462
0.999139 1 1 0.999139
0.999271 1 1 0.999271
0.999279 1 1 0.999279
0.999208 1 1 0.999208
0.999316 1 1 0.999316
0.999428 1 1 0.999428
0.999644 1 1 0.999644
0.999478 1 1 0.999478
0.999375 1 1 0.999375
0.999491 1 1 0.999491
0.999495 1 1 0.999495
0.999685 1 1 0.999685
0.999648 1 1 0.999648
0.999951 1 1 0.999951
0.999952 1 1 0.999952
1 1 1 1
0.999954 1 1 0.999954
1 1 1 1
1 1 1 1
1 1 1 1
1 1 1 1
1 1 1 1
0.999986 1 1 0.999986
0.99998 1 1 0.99998
1 1 1 1
0.999967 1 1 0.999967
1 1 1 1
1 1 1 1
1 1 1 1
1 1 1 1
1 1 1 1
1.01794 1.02021 0.999342 0.998427
1.01745 1.01922 0.999983 0.998279
1.01081 1.01663 0.99566 0.99861
1.00787 1.01572 0.993722 0.998544
1.01598 1.02049 0.99708 0.998496
1.01782 1.02494 0.994218 0.998825
1.02122 1.02539 0.997457 0.99848
0.97312 0.984914 0.992608 0.995384
1.01397 1.01935 0.995939 0.998778
0.999787 1 1 0.999787
0.999776 1 1 0.999776
0.999551 1 1 0.999551
0.999577 1 1 0.999577
1.0181 1.02188 0.997888 0.998413
1.01438 1.01756 0.998412 0.998463
1.01055 1.01302 0.998875 0.998686
0.99961 1 1.00077 0.998839
1.00339 1 1.00536 0.998045
1.00323 1.0047 1.00013 0.998399
1.00188 1 1.00288 0.998997
1.00338 1 1.00452 0.99887
0.998976 1 1 0.998976
0.999672 1 1 0.999672
0.999164 1 1 0.999164
0.999383 1 1 0.999383
0.99976 1 1 0.99976
0.999454 1 1 0.999454
1.0118 1.01678 0.99661 0.998488
0.999518 1 1 0.999518
0.999422 1 1 0.999422
0.99932 1 1 0.99932
1.01539 1.02005 0.99684 0.998588
1.00553 1.00887 0.998139 0.998548
1.00342 1 1.00468 0.998752
1.00423 1.00316 1.00282 0.998253
0.99919 1 1 0.99919
0.999053 1 1 0.999053
1.00668 1 1.00795 0.998743
1.00376 1 1.00494 0.998823
1.01758 1.02269 0.996508 0.99849
1.00011 1.0148 0.986929 0.998576
1.00436 1.00537 1.00073 0.99827
1.00171 1 1.00306 0.998647
0.999259 1 1 0.999259
0.999233 1 1 0.999233
0.999622 1 1.00063 0.998992
1.01177 1 1.01317 0.998614
0.948683 0.971369 0.985497 0.991018
0.999213 1 1.00013 0.999086
0.999361 1 1.00058 0.998778
1.01651 1.02375 0.994134 0.998783
1.00941 1.01236 0.99857 0.998515
1.00325 1.00193 1.0033 0.998027
1.0028 1 1.00447 0.998337
1.00599 1.00905 0.998557 0.998405
0.999289 1 1.00034 0.998946
1.00289 1.01427 0.990028 0.998744
1.00009 1 1.00136 0.998725
1.00435 1 1.00611 0.998251
1.00303 1.00456 1.00022 0.998251
0.956901 0.9734 0.991581 0.991396
0.985235 0.98936 1.00099 0.994847
0.984568 1.00095 0.98455 0.999065
0.904733 0.92805 0.9827 0.992038
0.868502 0.924923 0.946976 0.991577
0.999532 1 1.00052 0.999014
0.915148 0.937287 0.984452 0.991801
0.913072 0.939443 0.979013 0.992765
0.980165 1.00514 0.976382 0.998737
1.00463 1 1.00589 0.998751
1.00946 1.0009 1.01016 0.998403
0.984214 0.998254 0.986728 0.999196
0.964139 0.973019 0.999959 0.990914
0.980458 0.98066 1.00536 0.994463
0.885825 0.928044 0.961919 0.992295
0.91753 0.963082 0.958757 0.993684
0.999111 1 1 0.999111
0.999098 1 1 0.999098
0.999217 1 1 0.999217
0.99968 1 1 0.99968
0.999475 1 1 0.999475
0.999338 1 1 0.999338
0.999268 1 1 0.999268
0.999145 1 1 0.999145
0.999644 1 1 0.999644
0.999279 1 1 0.999279
0.999332 1 1 0.999332
0.999446 1 1 0.999446
0.999201 1 1 0.999201
0.999232 1 1 0.999232
0.999413 1 1.0002 0.999216
0.999315 1 1 0.999315
0.99946 1 1 0.99946
0.999477 1 1 0.999477
0.999361 1 1 0.999361
0.999341 1 1 0.999341
0.999352 1 1 0.999352
0.999293 1 1 0.999293
0.999251 1 1 0.999251
0.999471 1 1 0.999471
0.999491 1 1 0.999491
0.999685 1 1 0.999685
0.999471 1 1 0.999471
0.999671 1 1 0.999671
0.999951 1 1 0.999951
0.999647 1 1 0.999647
0.999951 1 1 0.999951
1 1 1 1
0.999952 1 1 0.999952
1 1 1 1
1 1 1 1
1 1 1 1
1 1 1 1
1 1 1 1
0.999779 1 1 0.999779
0.999987 1 1 0.999987
0.999985 1 1 0.999985
1 1 1 1
0.999978 1 1 0.999978
1 1 1 1
1 1 1 1
1 1 1 1
1 1 1 1
1 1 1 1
1.0091 1.01579 0.994834 0.998574
1.01551 1.02014 0.996961 0.998495
1.02026 1.02625 0.995384 0.998774
0.974983 0.984043 0.9947 0.996073
1.0134 1.01907 0.995601 0.998827
1.02213 1.02696 0.996827 0.998462
1.01806 1.02303 0.996554 0.99858
0.978541 0.986526 0.995537 0.996352
0.95928 0.97452 0.994054 0.990248
0.884029 0.920957 0.968457 0.991167
0.870597 0.918905 0.955051 0.992019
0.999542 1 1 0.999542
0.999787 1 1 0.999787
0.999776 1 1 0.999776
0.999542 1 1 0.999542
0.999399 1 1 0.999399
0.999433 1 1 0.999433
0.999553 1 1 0.999553
0.999563 1 1 0.999563
1.01024 1.0149 0.996896 0.998503
1.01731 1.02192 0.996888 0.9986
1.00426 1.0079 0.997836 0.998544
1.00348 1 1.00474 0.998748
1.00408 1.00312 1.00272 0.99824
1.00625 1 1.00751 0.998744
1.0048 1 1.006 0.998804
0.99906 1 1 0.99906
0.99944 1 1 0.99944
0.999194 1 1 0.999194
0.99955 1 1 0.99955
0.999321 1 1 0.999321
1.01791 1.02331 0.996255 0.998468
0.999277 1 1 0.999277
0.999236 1 1 0.999236
1.00155 1.01338 0.989748 0.998562
1.00416 1.00596 0.999867 0.998345
1.00337 1.00003 1.00475 0.9986
1.00018 1 1.0012 0.998981
1.0104 1 1.0118 0.998618
1.01566 1.02175 0.995609 0.998424
0.9849 1.00421 0.982192 0.998552
0.999553 1 1.00103 0.998523
1.00694 1 1.0083 0.998654
0.999168 1 1 0.999168
0.999611 1 1.00055 0.999059
1.00531 1 1.00653 0.998793
0.904643 0.938617 0.97148 0.992099
0.955352 0.972557 0.990538 0.991693
0.9994 1 1.00044 0.998965
0.999766 1 1.00104 0.998733
1.00305 1.01428 0.990181 0.998731
1.00335 1.00576 0.999332 0.998268
1.00395 1 1.00571 0.998253
0.958053 0.973892 0.993503 0.990169
0.986196 0.991209 0.999358 0.995582
0.987086 1.00033 0.987635 0.999113
0.899384 0.929345 0.975892 0.991669
0.855579 0.914036 0.94459 0.990954
0.999358 1 1.00034 0.999014
0.909442 0.940078 0.975002 0.992214
0.912183 0.936604 0.981224 0.992562
0.982931 1.00595 0.978364 0.998726
1.00413 1 1.00537 0.998766
1.00878 1.00051 1.00981 0.998471
0.977399 0.995391 0.982688 0.999223
0.965286 0.975345 0.999332 0.990348
0.981423 0.983275 1.00248 0.995644
0.887296 0.924278 0.96844 0.991272
0.916009 0.963006 0.957573 0.993342
1.00065 1 1.00154 0.999116
0.931586 0.942783 0.994314 0.993773
0.981578 0.984496 1.00106 0.995976
0.987741 1.00071 0.987949 0.999081
1.01004 1.00017 1.0108 0.999077
1.00008 0.993082 1.00751 0.999545
0.972961 0.979304 0.99679 0.996722
0.965159 0.968263 1.00645 0.990402
0.909715 0.948184 0.967812 0.991338
0.940581 0.980592 0.964115 0.994899
0.999095 1 1 0.999095
0.999195 1 1 0.999195
0.999761 1 1.00042 0.99934
0.999643 1 1 0.999643
0.999465 1 1 0.999465
0.999349 1 1 0.999349
0.999279 1 1 0.999279
0.999194 1 1 0.999194
0.99946 1 1 0.99946
0.999243 1 1 0.999243
0.999314 1 1 0.999314
0.99947 1 1.00024 0.999226
0.999868 1 1.00055 0.999314
0.999319 1 1.00009 0.999232
0.999316 1 1 0.999316
0.999476 1 1 0.999476
0.999346 1 1 0.999346
0.999341 1 1 0.999341
0.999351 1 1 0.999351
0.999292 1 1 0.999292
0.999318 1 1 0.999318
0.999272 1 1 0.999272
0.999263 1 1 0.999263
0.999103 1 1 0.999103
0.999604 1 1.00068 0.998929
0.999159 1 1 0.999159
0.999249 1 1 0.999249
0.99943 1 1 0.99943
0.99947 1 1 0.99947
0.999677 1 1 0.999677
0.99949 1 1 0.99949
0.999685 1 1 0.999685
0.999951 1 1 0.999951
0.999657 1 1 0.999657
0.99995 1 1 0.99995
1 1 1 1
0.999951 1 1 0.999951
1 1 1 1
1 1 1 1
1 1 1 1
1 1 1 1
1 1 1 1
0.999795 1 1 0.999795
0.999983 1 1 0.999983
0.999779 1 1 0.999779
1 1 1 1
0.999987 1 1 0.999987
0.999984 1 1 0.999984
1 1 1 1
1 1 1 1
1 1 1 1
1 1 1 1
1 1 1 1
0.907635 0.934144 0.979139 0.992322
0.919076 0.940491 0.983865 0.993256
0.977577 0.985009 0.995897 0.996545
1.01328 1.01871 0.995788 0.998876
1.023 1.02837 0.996322 0.998444
0.977686 0.98463 0.995488 0.997448
1.01884 1.02288 0.997444 0.998596
0.960912 0.975345 0.993726 0.991421
0.897003 0.925809 0.976567 0.992134
0.861183 0.915661 0.948675 0.991388
0.996826 1.00001 0.998618 0.998195
0.963136 0.972635 0.998936 0.991289
0.879989 0.924447 0.959463 0.992127
0.915692 0.959298 0.961342 0.992928
0.999346 1 1 0.999346
0.999555 1 1 0.999555
0.999786 1 1 0.999786
0.999532 1 1 0.999532
0.999417 1 1 0.999417
0.999374 1 1 0.999374
0.999433 1 1 0.999433
0.999469 1 1 0.999469
0.999535 1 1 0.999535
0.999548 1 1 0.999548
1.01821 1.02373 0.996157 0.998446
1.00214 1.0112 0.992484 0.998548
1.00397 1.00657 0.998995 0.99842
1.00485 1.00008 1.00622 0.998554
1.00852 1 1.00991 0.998623
1.00064 1 1.00167 0.998971
0.999239 1 1 0.999239
0.999294 1 1 0.999294
1.01361 1.02177 0.993592 0.99841
0.999162 1 1 0.999162
0.999544 1 1.0005 0.99904
0.986624 1.00389 0.984278 0.9985
0.999928 1 1.00133 0.998596
1.00638 1 1.0078 0.998595
1.00526 1 1.00649 0.998778
1.00319 1.00824 0.996357 0.998631
0.992794 1 0.99382 0.998968
1.00836 1 1.00964 0.998727
0.999152 1 1 0.999152
0.999187 1 1.00016 0.999029
1.00108 1 1.0022 0.998878
0.932277 0.945478 0.991626 0.994365
0.910581 0.938364 0.9786 0.991613
0.952524 0.97403 0.986805 0.990997
0.999014 1 1 0.999014
1.00356 1 1.00478 0.998781
0.985681 1.00656 0.980521 0.998715
1.0081 1 1.00958 0.998539
0.906428 0.938214 0.974374 0.991529
0.964098 0.973654 0.998341 0.991831
0.979352 0.984288 1.00047 0.994522
0.974743 0.993344 0.982005 0.999256
0.890506 0.924323 0.971079 0.992107
0.914084 0.940046 0.979799 0.99243
0.911247 0.96112 0.95471 0.993086
1.00109 1 1.00198 0.999116
0.93099 0.944951 0.991325 0.993847
0.983147 0.985644 1.00151 0.995959
0.990126 1.00032 0.990681 0.999123
1.00978 0.999983 1.01074 0.999067
0.999621 0.994203 1.00625 0.999205
0.973858 0.978734 0.999851 0.995165
0.963239 0.970572 1.00192 0.990542
0.91331 0.952293 0.966335 0.992475
0.933014 0.974107 0.962966 0.994651
1.0016 0.999926 1.00218 0.999493
0.982335 0.985333 0.999953 0.997005
0.985652 0.983997 1.00418 0.997517
1.00974 0.998347 1.0117 0.999715
0.986384 0.982531 1.00574 0.998195
0.967828 0.96948 1.00823 0.990146
0.943521 0.967753 0.982035 0.992796
0.944145 0.987405 0.961524 0.994451
0.999173 1 1 0.999173
0.999701 1 1.00036 0.999346
1.00075 1 1.0013 0.999451
0.999459 1 1 0.999459
0.999313 1 1 0.999313
0.999253 1 1 0.999253
0.999517 1 1.00028 0.999236
0.999316 1 1 0.999316
0.999261 1 1.00003 0.99923
1.00027 1 1.00093 0.999335
1.00031 1 1.00086 0.999454
0.999491 1 1.00021 0.999279
0.999248 1 1 0.999248
0.99934 1 1 0.99934
0.99935 1 1 0.99935
0.999292 1 1 0.999292
0.999275 1 1 0.999275
0.999316 1 1 0.999316
0.999267 1 1 0.999267
0.999215 1 1 0.999215
0.999274 1 1 0.999274
0.999096 1 1 0.999096
0.999116 1 1 0.999116
0.999657 1 1.00069 0.998973
0.999977 1 1.00126 0.99872
0.999115 1 1 0.999115
0.99946 1 1.00048 0.998981
0.999184 1 1 0.999184
0.999336 1 1 0.999336
0.999247 1 1 0.999247
0.999428 1 1 0.999428
0.999653 1 1 0.999653
0.999468 1 1 0.999468
0.999676 1 1 0.999676
0.999949 1 1 0.999949
0.999685 1 1 0.999685
0.99995 1 1 0.99995
1 1 1 1
0.99995 1 1 0.99995
1 1 1 1
1 1 1 1
1 1 1 1
1 1 1 1
1 1 1 1
0.99972 1 1 0.99972
0.99998 1 1 0.99998
0.999762 1 1 0.999762
1 1 1 1
0.999985 1 1 0.999985
0.999779 1 1 0.999779
1 1 1 1
1 1 1 1
0.999987 1 1 0.999987
1 1 1 1
1 1 1 1
1 1 1 1
0.935646 0.946343 0.994288 0.994377
0.908362 0.93636 0.978155 0.991764
0.983164 0.987326 0.999929 0.995855
0.91082 0.934703 0.98136 0.992957
0.973526 0.983473 0.993869 0.995992
1.01884 1.02277 0.997545 0.998611
0.961141 0.975932 0.992184 0.992602
0.897415 0.929148 0.974304 0.991321
0.852921 0.913393 0.942505 0.990757
0.993857 0.998747 0.997455 0.997642
0.965206 0.973094 1.00136 0.990551
0.886028 0.928881 0.962459 0.991072
0.912758 0.957915 0.959881 0.992684
0.98987 0.99433 0.998115 0.997394
0.968785 0.969732 1.00893 0.990179
0.91337 0.953601 0.965219 0.992326
0.938312 0.981128 0.961798 0.994347
0.999239 1 1 0.999239
0.999365 1 1 0.999365
0.999569 1 1 0.999569
0.999436 1 1 0.999436
0.999266 1 1 0.999266
0.999387 1 1 0.999387
0.999433 1 1 0.999433
0.999451 1 1 0.999451
0.999488 1 1 0.999488
0.999518 1 1 0.999518
1.01188 1.02239 0.991307 0.998398
0.989341 1.00393 0.986999 0.998447
1.00026 1 1.00159 0.998669
1.00635 1 1.00782 0.998536
1.0056 1 1.00685 0.998762
0.999445 1 1.00042 0.999021
0.999155 1 1 0.999155
0.999155 1 1 0.999155
0.997594 1.00728 0.991722 0.99865
0.9991 1 1.00006 0.99904
1.00119 1 1.00232 0.998873
0.990898 1 0.991977 0.998912
1.00704 1 1.00833 0.99872
0.977626 0.998043 0.980439 0.999086
1.00879 1 1.0095 0.999297
1.00157 1 1.00268 0.998896
0.999068 1 1 0.999068
1.00079 1 1.00191 0.998879
0.979478 0.982177 0.999723 0.997528
0.935466 0.945589 0.99473 0.994536
0.907615 0.936878 0.976146 0.99244
1.00163 1 1.00252 0.999116
1.00952 0.999713 1.01076 0.999057
0.990984 1 0.991814 0.999163
0.937938 0.948146 0.994923 0.994283
0.970795 0.970818 1.00993 0.990143
0.97549 0.979717 0.999399 0.996284
0.992354 0.993179 1.00033 0.998837
0.912306 0.949977 0.968746 0.991328
0.983868 0.985857 1.00205 0.995942
0.928195 0.970054 0.961935 0.994713
1.00164 0.999796 1.00236 0.999489
0.981436 0.983966 1.00009 0.997334
0.988723 0.986583 1.00465 0.997529
1.00984 0.998785 1.01149 0.999582
0.985191 0.982264 1.00524 0.997752
0.969614 0.972395 1.0074 0.989817
0.94508 0.990518 0.959034 0.994884
0.930547 0.96025 0.976684 0.992201
1.00332 0.998678 1.00494 0.999711
0.985128 0.985782 1.00028 0.999059
0.995639 0.995126 1.00272 0.997806
0.940654 0.982593 0.962749 0.994358
0.999058 0.985473 1.01432 0.999474
0.977395 0.975087 1.0119 0.990575
0.922021 0.944281 0.983633 0.992674
0.99962 1 1.00027 0.999352
1.0005 1 1.00109 0.999412
1.00312 1 1.00355 0.999566
0.999316 1 1 0.999316
0.999227 1 1 0.999227
1.00073 1 1.00138 0.999357
0.999251 1 1 0.999251
0.999607 1 1.00033 0.999282
1.00069 1 1.00126 0.999428
0.999849 1 1.00035 0.999495
0.999264 1 1 0.999264
0.999278 1 1 0.999278
0.999315 1 1 0.999315
0.999271 1 1 0.999271
0.99927 1 1 0.99927
0.999224 1 1 0.999224
0.999528 1 1.00029 0.999237
0.999145 1 1 0.999145
1.00134 1 1.00255 0.998786
0.99913 1 1 0.99913
0.999508 1 1.00055 0.998959
0.999574 1 1.001 0.998578
0.999871 1 1.00118 0.998695
0.999157 1 1.00014 0.999016
0.999821 1 1.00109 0.99873
0.99927 1 1 0.99927
0.999094 1 1 0.999094
0.999315 1 1.00028 0.999033
0.999209 1 1 0.999209
0.999357 1 1 0.999357
0.999609 1 1 0.999609
0.999427 1 1 0.999427
0.999652 1 1 0.999652
0.999944 1 1 0.999944
0.999675 1 1 0.999675
0.999948 1 1 0.999948
1 1 1 1
0.999949 1 1 0.999949
1 1 1 1
1 1 1 1
1 1 1 1
1 1 1 1
1 1 1 1
0.999621 1 1 0.999621
0.999925 1 1 0.999925
0.999719 1 1 0.999719
1 1 1 1
0.99996 1 1 0.99996
0.999728 1 1 0.999728
1 1 1 1
1 1 1 1
0.999986 1 1 0.999986
1 1 1 1
1 1 1 1
1 1 1 1
0.980435 0.983414 0.999662 0.997309
0.927535 0.944934 0.987508 0.994004
0.90927 0.934417 0.981401 0.99153
0.999392 1 1 0.999392
0.981357 0.981057 1.00249 0.997817
0.984205 0.9871 1.00123 0.995842
0.903902 0.933614 0.97527 0.992725
0.992905 0.998779 0.997089 0.997022
0.969714 0.974918 1.00354 0.99115
0.891701 0.935927 0.960515 0.991912
0.907133 0.954352 0.957681 0.992525
0.991601 0.996084 0.999671 0.995827
0.961867 0.966768 1.00435 0.990625
0.919061 0.954832 0.970313 0.991986
0.937318 0.980265 0.961898 0.994064
0.979853 0.983887 1.00111 0.994791
0.972778 0.966499 1.01754 0.98915
0.930542 0.961621 0.975642 0.99184
0.941935 0.986094 0.960554 0.994445
0.999143 1 1 0.999143
0.999228 1 1 0.999228
0.999385 1 1 0.999385
0.999261 1 1 0.999261
0.99929 1 1 0.99929
0.9994 1 1 0.9994
0.999456 1 1 0.999456
0.999508 1 1 0.999508
0.991616 1.00599 0.98703 0.998667
0.988536 1 0.989668 0.998857
0.999157 1 1 0.999157
1.00546 1 1.00675 0.998712
1.00135 1 1.00248 0.998868
0.999094 1 1.00004 0.999051
0.999078 1 1.00001 0.999072
0.983202 1.00023 0.983862 0.999096
1.00072 1 1.00181 0.998907
1.00232 1 1.00343 0.998895
1.00392 1 1.00461 0.999311
0.999098 1 1 0.999098
0.976448 0.991418 0.985405 0.999489
1.01208 0.999017 1.01363 0.999454
1.00044 1 1.00145 0.99899
0.999204 1 1.00018 0.999027
0.984973 0.986356 0.99935 0.999248
0.979185 0.981825 0.999741 0.997571
0.93979 0.946149 0.99856 0.994712
1.00152 0.999771 1.00227 0.999487
1.01108 0.999424 1.01222 0.999451
0.980499 0.982802 0.999995 0.997662
0.975696 0.970739 1.01482 0.990429
0.983146 0.979559 1.00765 0.996043
0.934892 0.963031 0.979043 0.991561
0.991151 0.988479 1.00518 0.99754
0.947395 0.994927 0.956707 0.995316
1.00368 0.998872 1.00514 0.999678
0.983681 0.984858 0.999733 0.999071
0.994738 0.993644 1.00293 0.998176
1.0072 0.992063 1.01534 0.999922
0.93856 0.981622 0.961843 0.994063
0.972956 0.971802 1.01081 0.990477
0.930928 0.957619 0.980384 0.991579
1.00734 0.995969 1.01165 0.999771
0.994325 0.994892 1.00008 0.999349
0.982354 0.982847 1.00167 0.997828
0.916266 0.96133 0.959878 0.992963
0.929854 0.963645 0.973014 0.991696
0.986672 0.981304 1.00602 0.999455
0.978443 0.968429 1.02102 0.989543
1.00026 1 1.00089 0.999373
1.00201 0.999736 1.00273 0.99955
1.00566 0.993541 1.01262 0.999582
0.999255 1 1 0.999255
0.99965 1 1.00037 0.999285
1.00094 1 1.00154 0.999402
0.999259 1 1 0.999259
0.999928 1 1.00043 0.999495
1.00511 0.999191 1.00659 0.999339
0.999265 1 1 0.999265
0.999232 1 1 0.999232
1.00007 1 1.00086 0.99921
1.00629 1 1.00741 0.998888
0.999194 1 1 0.999194
1.0008 1 1.00196 0.998843
1.00258 1 1.00413 0.998456
1.00021 1 1.00188 0.998341
0.999335 1 1.00039 0.998945
0.999628 1 1.00109 0.998537
0.999298 1 1.00053 0.998773
1.00003 1 1.00112 0.998915
0.999775 1 1.00105 0.998729
0.999198 1 1 0.999198
0.999198 1 1.00019 0.999012
0.999704 1 1.00097 0.99874
0.99954 1 1 0.99954
0.999263 1 1 0.999263
0.999073 1 1 0.999073
0.999378 1 1 0.999378
0.999607 1 1 0.999607
0.999931 1 1 0.999931
0.999651 1 1 0.999651
0.999941 1 1 0.999941
1 1 1 1
0.999946 1 1 0.999946
1 1 1 1
1 1 1 1
1 1 1 1
1 1 1 1
1 1 1 1
0.999582 1 1 0.999582
0.999891 1 1 0.999891
0.999641 1 1 0.999641
1 1 1 1
0.999923 1 1 0.999923
0.999717 1 1 0.999717
1 1 1 1
1 1 1 1
0.999941 1 1 0.999941
1 1 1 1
1 1 1 1
1 1 1 1
0.981505 0.982903 0.999524 0.999053
0.979923 0.98288 0.999674 0.997316
0.927701 0.945811 0.98673 0.994043
0.999401 1 1 0.999401
0.999364 1 1 0.999364
0.999283 1 1 0.999283
0.994398 0.99362 1.00299 0.997803
0.983353 0.982232 1.00331 0.997834
0.984953 0.986899 1.00221 0.995829
0.997718 0.996367 1.00431 0.997054
0.96324 0.967464 1.00544 0.990245
0.913228 0.949299 0.970367 0.99138
0.940207 0.982855 0.962286 0.994099
0.975565 0.979107 1.00023 0.996154
0.967628 0.966271 1.01133 0.990182
0.928376 0.955424 0.978662 0.992876
0.943845 0.989531 0.958739 0.99488
0.966024 0.973086 0.997098 0.995632
0.98105 0.972013 1.01915 0.990334
0.922753 0.943113 0.985594 0.992713
0.939425 0.979249 0.964287 0.994862
0.999135 1 1 0.999135
0.99914 1 1 0.99914
0.999217 1 1 0.999217
0.999259 1 1 0.999259
0.999313 1 1 0.999313
0.999461 1 1 0.999461
0.989543 1.00241 0.988045 0.999105
0.999243 1 0.999919 0.999324
0.999075 1 1 0.999075
1.00282 1 1.00393 0.998893
1.00076 1 1.00182 0.998936
0.999084 1 1 0.999084
0.999408 1 1.00037 0.999034
0.987008 0.994618 0.992861 0.999484
1.00107 1 1.00203 0.999048
1.0079 0.996221 1.01225 0.99948
0.999127 1 1 0.999127
1.00298 0.986463 1.01701 0.999734
0.99338 0.993064 1.00073 0.999588
0.999643 1 1.00048 0.99916
0.997867 0.998779 0.999502 0.999584
0.985153 0.986523 0.999269 0.999341
0.978924 0.98141 0.999855 0.997612
1.00405 0.999113 1.0053 0.999644
1.00242 0.993617 1.00912 0.999743
0.982494 0.984177 0.999205 0.999083
0.977794 0.971478 1.01345 0.993146
0.934999 0.956021 0.984954 0.99295
0.994095 0.992369 1.0032 0.998547
0.941226 0.984077 0.962118 0.994114
1.00669 0.996654 1.01028 0.999788
0.993451 0.994746 0.999272 0.999425
0.984588 0.983945 1.00281 0.997846
0.985321 0.977747 1.01028 0.997492
0.913244 0.959626 0.958633 0.992733
0.925676 0.958526 0.972801 0.99273
0.988675 0.974094 1.02488 0.990327
1.00969 0.984493 1.02574 0.999855
0.98244 0.983763 0.999587 0.999069
0.984184 0.988762 0.99947 0.995897
0.869556 0.918677 0.954058 0.99211
0.914696 0.954588 0.96559 0.992356
0.981356 0.973455 1.01804 0.990256
0.960127 0.972319 0.990748 0.996683
1.00082 0.999364 1.00192 0.999534
1.00873 0.995523 1.01369 0.999586
1.019 0.999081 1.02042 0.999529
0.999254 1 1 0.999254
1.00005 1 1.00055 0.999495
1.00466 0.999632 1.00566 0.999374
1.01571 1 1.01667 0.999058
1.00057 1 1.00139 0.999183
1.0064 1 1.00758 0.998825
1.01275 1 1.01441 0.998361
1.00034 1 1.00145 0.998901
1.00342 1 1.00498 0.998443
1.0032 1 1.00512 0.998098
1.00052 1.00055 1.00191 0.99806
0.999656 1 1.00108 0.99858
1.0002 1 1.00189 0.998317
0.999721 1 1.00123 0.998496
0.999861 1 1.00096 0.998902
0.999303 1 1.00048 0.998824
0.999844 1 1.00079 0.999058
1.00009 1 1.00115 0.998939
0.999635 1 1.00087 0.998764
0.999442 1 1 0.999442
0.9992 1 1 0.9992
0.999244 1 1.00024 0.999008
0.999902 1 1 0.999902
0.999539 1 1 0.999539
0.999256 1 1 0.999256
0.999606 1 1 0.999606
0.999927 1 1 0.999927
1 1 1 1
0.999939 1 1 0.999939
1 1 1 1
1 1 1 1
1 1 1 1
1 1 1 1
1 1 1 1
0.999581 1 1 0.999581
0.99991 1 1 0.99991
0.999596 1 1 0.999596
1 1 1 1
0.999914 1 1 0.999914
0.999661 1 1 0.999661
1 1 1 1
1 1 1 1
0.999921 1 1 0.999921
1 1 1 1
1 1 1 1
1 1 1 1
0.994594 0.994646 1.0006 0.999347
0.983729 0.984683 0.999965 0.999067
0.979814 0.982267 1.00018 0.997327
0.999346 1 1 0.999346
0.999254 1 1 0.999254
0.999409 1 1 0.999409
0.999362 1 1 0.999362
0.999268 1 1 0.999268
0.999269 1 1 0.999269
0.999196 1 1 0.999196
0.984719 0.983353 1.00389 0.997504
0.992716 0.991705 1.00285 0.998174
0.985459 0.983411 1.00424 0.997853
0.947479 0.994354 0.957344 0.995315
0.968891 0.974426 0.999408 0.994909
0.973567 0.970041 1.01247 0.991275
0.931076 0.951816 0.986473 0.991624
0.965853 0.973586 0.997011 0.995031
0.971963 0.967375 1.01486 0.990026
0.933027 0.958216 0.981732 0.991831
0.932806 0.973924 0.962976 0.994605
0.959058 0.970426 0.991868 0.996387
0.970945 0.970092 1.01119 0.989805
0.946441 0.969818 0.982957 0.992816
0.91586 0.9621 0.958077 0.993593
0.999177 1 1 0.999177
0.999135 1 1 0.999135
0.999138 1 1 0.999138
0.999257 1 1 0.999257
0.996077 0.997652 0.99894 0.99948
1.00422 0.993845 1.01094 0.999505
0.99907 1 1 0.99907
0.999445 1 1.0004 0.999041
1.00159 1 1.00249 0.999105
0.999122 1 1 0.999122
0.999531 1 1.00039 0.999146
0.998583 0.984988 1.0144 0.999409
0.994635 0.994271 1.0007 0.999666
0.999194 1 1 0.999194
1.00484 0.982053 1.02378 0.999439
1.00184 0.996755 1.00574 0.999365
0.985344 0.98631 0.999753 0.999267
0.995886 0.99679 0.999448 0.999645
0.985518 0.986735 0.999332 0.999434
1.00631 0.997525 1.00901 0.999805
0.986917 0.977828 1.00986 0.999443
0.992211 0.994422 0.998273 0.999502
0.97675 0.968335 1.01917 0.989713
0.928645 0.954045 0.981753 0.991468
0.986775 0.985081 1.00386 0.997863
0.908413 0.955793 0.957537 0.992576
1.01413 0.986049 1.02863 0.999856
0.984005 0.98512 0.999786 0.999082
0.985292 0.988642 1.00073 0.995883
0.963458 0.974167 0.990527 0.998466
0.861821 0.916263 0.948664 0.991482
0.916653 0.953886 0.968751 0.991965
0.983137 0.972097 1.02104 0.990514
1.00042 0.984846 1.01623 0.999593
0.982092 0.984668 1.00004 0.997348
0.920334 0.941518 0.984046 0.993348
0.882339 0.92489 0.961461 0.992233
0.973877 0.967441 1.01642 0.990387
0.953578 0.970181 0.987337 0.995492
1.01259 0.998162 1.01487 0.99959
1.01858 0.997599 1.02152 0.999522
1.01318 1 1.01379 0.999392
1.00433 1 1.00492 0.999408
1.01553 0.999775 1.01666 0.999106
1.00965 1 1.01114 0.998526
1.00663 1 1.00788 0.998762
1.01214 1 1.01384 0.998321
1.00637 1.00017 1.0082 0.998023
1.0042 1 1.00578 0.998429
1.00338 1 1.00532 0.998061
1.00288 1.00158 1.00337 0.997931
1.00019 1.00215 1 0.998044
0.999016 1.00001 1.00077 0.998237
1.00064 1.00045 1.00218 0.998019
0.998885 1 1.00013 0.998759
0.999355 1 1.00074 0.998613
1.00019 1 1.0019 0.998293
0.999682 1 1.00074 0.998942
0.999915 1 1.00102 0.998894
0.9993 1 1.00043 0.998874
0.999305 1 1 0.999305
0.999679 1 1.0006 0.999082
1.00014 1 1.00118 0.998964
0.99983 1 1 0.99983
0.999442 1 1 0.999442
0.999202 1 1 0.999202
1 1 1 1
0.999897 1 1 0.999897
0.999538 1 1 0.999538
0.999923 1 1 0.999923
1 1 1 1
1 1 1 1
1 1 1 1
1 1 1 1
1 1 1 1
0.999343 1 1 0.999343
0.999548 1 1 0.999548
0.999889 1 1 0.999889
0.99958 1 1 0.99958
1 1 1 1
0.999914 1 1 0.999914
0.999609 1 1 0.999609
1 1 1 1
1 1 1 1
0.999938 1 1 0.999938
1 1 1 1
1 1 1 1
1 1 1 1
0.985356 0.985249 1.00104 0.999074
0.993413 0.994373 0.999611 0.999423
0.985621 0.986482 1.00005 0.99908
0.999354 1 1 0.999354
0.999242 1 1 0.999242
0.999187 1 1 0.999187
0.999243 1 1 0.999243
0.999176 1 1 0.999176
0.99936 1 1 0.99936
0.999253 1 1 0.999253
0.99927 1 1 0.99927
0.999191 1 1 0.999191
0.999218 1 1 0.999218
0.98016 0.983281 1.00091 0.995921
0.987529 0.98549 1.00456 0.997519
0.990731 0.98953 1.00267 0.998545
0.929122 0.971094 0.961901 0.994675
0.933923 0.953515 0.986326 0.993032
0.95751 0.967735 0.995063 0.994343
0.977619 0.974406 1.01321 0.990219
0.960699 0.971197 0.99432 0.994841
0.983549 0.977567 1.01613 0.990151
0.933025 0.96226 0.977101 0.992343
0.915372 0.962492 0.957523 0.993234
0.977654 0.976967 1.0051 0.995622
0.973496 0.973507 1.00962 0.990457
0.908602 0.948087 0.966793 0.99127
0.880008 0.934331 0.949436 0.992018
0.999396 1 1 0.999396
0.999179 1 1 0.999179
0.999134 1 1 0.999134
0.994743 0.983004 1.01287 0.999083
0.994743 0.994339 1.00066 0.999748
0.999117 1 1 0.999117
0.999617 1 1.00048 0.999133
0.99926 1 1.00006 0.999203
1.00256 0.997611 1.0056 0.999358
1.0026 0.981221 1.02234 0.999461
1.00378 1 1.0044 0.99938
1.00319 0.989098 1.01505 0.999215
0.980855 0.983497 0.999824 0.997489
0.985486 0.986503 0.999609 0.99936
0.993854 0.994842 0.999301 0.999706
1.01752 0.98677 1.03131 0.999855
0.96537 0.976617 0.992333 0.99612
0.985296 0.986495 0.99969 0.999095
0.976223 0.972571 1.01526 0.988668
0.912987 0.948759 0.970647 0.991396
0.986099 0.988566 1.00164 0.995871
0.855168 0.914858 0.943383 0.990854
0.999533 0.983995 1.01614 0.999652
0.981877 0.984588 0.999891 0.997355
0.912031 0.935802 0.98142 0.99305
0.954095 0.971539 0.985639 0.996354
0.887843 0.929274 0.963916 0.991181
0.963809 0.965026 1.00922 0.989617
0.980254 0.985072 0.996002 0.999103
0.93667 0.94711 0.994485 0.994462
0.886246 0.921822 0.969875 0.991268
0.972804 0.971979 1.01071 0.990243
0.967175 0.974779 0.995685 0.996499
1.01747 0.995984 1.02206 0.999515
1.01522 0.999806 1.01605 0.999378
0.993257 1 0.994269 0.998982
1.01525 0.999613 1.0165 0.999154
1.00997 1.00016 1.01123 0.99859
1.00239 1.00141 1.00272 0.998267
1.01136 1 1.0131 0.998281
1.00528 1.00028 1.00698 0.998032
0.999597 1.00145 1.00003 0.998114
1.00342 1 1.0054 0.998024
1.00309 1.00256 1.00259 0.997945
1.00358 1.00545 1 0.998142
1.00338 1.00516 1 0.998238
0.999669 1.00154 1.00002 0.998112
1.00032 1.00227 1 0.998055
0.998468 1 1 0.998468
0.999282 1.00001 1.00107 0.998199
1.00076 1.00035 1.00244 0.997977
0.998897 1 1 0.998897
0.998823 1 1.00002 0.998799
0.998964 1 1.00032 0.998646
0.999165 1 1 0.999165
0.999788 1 1.00084 0.998954
0.999981 1 1.0011 0.998886
0.999701 1 1 0.999701
0.999317 1 1.00001 0.999305
0.99952 1 1.00041 0.999105
1 1 1 1
0.999826 1 1 0.999826
0.999443 1 1 0.999443
1 1 1 1
1 1 1 1
0.999892 1 1 0.999892
1 1 1 1
1 1 1 1
1 1 1 1
0.999279 1 1 0.999279
0.999508 1 1 0.999508
0.999333 1 1 0.999333
0.999872 1 1 0.999872
0.999548 1 1 0.999548
1 1 1 1
0.999892 1 1 0.999892
0.99958 1 1 0.99958
1 1 1 1
1 1 1 1
0.999917 1 1 0.999917
1 1 1 1
1 1 1 1
1 1 1 1
0.983198 0.985664 0.99982 0.997677
0.983825 0.984407 1.00032 0.999087
0.991982 0.99394 0.998529 0.9995
0.999178 1 1 0.999178
0.999362 1 1 0.999362
0.99923 1 1 0.99923
0.999255 1 1 0.999255
0.9992 1 1 0.9992
0.999171 1 1 0.999171
0.999114 1 1 0.999114
0.999157 1 1 0.999157
0.99927 1 1 0.99927
0.999186 1 1 0.999186
0.999212 1 1 0.999212
0.999249 1 1 0.999249
0.912181 0.938251 0.979407 0.992656
0.981687 0.984384 1.00136 0.995903
0.989506 0.986805 1.00522 0.997534
0.910778 0.960624 0.954829 0.992963
0.939728 0.967544 0.979223 0.991859
0.971386 0.969797 1.01191 0.98985
0.962938 0.970322 0.996531 0.995845
0.978118 0.976558 1.00461 0.997
0.868173 0.92488 0.946814 0.991417
0.976842 0.97208 1.01558 0.98948
0.911642 0.95156 0.96547 0.992314
0.973853 0.97875 0.997735 0.997256
0.968512 0.966252 1.01154 0.990903
0.883408 0.926644 0.961013 0.992017
1.00005 1 1.00041 0.999646
0.999398 1 1 0.999398
0.999181 1 1 0.999181
1.00351 0.983646 1.02073 0.999478
1.00406 0.99918 1.00554 0.999351
0.999331 1 1.00012 0.999211
1.00406 1 1.00468 0.999382
1.00195 0.989302 1.01355 0.999251
1.00492 0.99614 1.00939 0.999429
0.932511 0.945614 0.992391 0.993705
0.980923 0.983078 0.999896 0.997912
0.985907 0.986714 0.999729 0.999453
0.998099 0.982685 1.01598 0.999711
0.953851 0.973516 0.982757 0.996991
0.982034 0.984466 1.00017 0.997364
0.970645 0.967739 1.01182 0.99129
0.894997 0.937471 0.962376 0.992018
0.904115 0.934077 0.974925 0.992819
0.979648 0.985823 0.994578 0.999153
0.928256 0.945487 0.987613 0.994089
0.899207 0.926033 0.978619 0.992247
0.966779 0.971985 0.999681 0.994962
0.963307 0.969161 1.00335 0.990639
0.96955 0.99162 0.97836 0.999371
0.908032 0.934956 0.97863 0.992409
0.965138 0.973491 1.00036 0.991065
0.97987 0.985724 0.999309 0.994749
1.01797 0.999549 1.01908 0.999364
0.989689 1 0.990637 0.999043
0.981963 1.00158 0.981634 0.998755
1.01054 1.00023 1.01167 0.998654
1.00268 1.0016 1.00282 0.998262
1.00061 1.00273 0.999428 0.998459
1.00438 1.0004 1.00595 0.998041
0.999555 1.00102 1.0004 0.998129
1.00653 1.00809 1 0.998457
1.00339 1.00355 1.00189 0.997958
1.00346 1.00532 1 0.998147
1.00751 1.00905 1 0.998475
1.00706 1.00859 1 0.99848
1.00236 1.00414 1 0.998227
1.0035 1.00525 1 0.998257
0.999458 1.00116 1 0.998298
0.999869 1.00173 1 0.998142
1.00042 1.00236 1 0.998066
0.998743 1 1 0.998743
0.998669 1.00005 1.00014 0.998476
0.999635 1 1.00148 0.998159
0.999074 1 1 0.999074
0.998893 1 1 0.998893
0.998839 1 1 0.998839
0.999548 1 1 0.999548
0.999176 1 1.00001 0.999167
0.999888 1 1.00092 0.998966
1 1 1 1
0.999699 1 1 0.999699
0.999322 1 1.00002 0.999305
1 1 1 1
1 1 1 1
0.999822 1 1 0.999822
1 1 1 1
1 1 1 1
1 1 1 1
0.999261 1 1 0.999261
0.999282 1 1 0.999282
0.999453 1 1 0.999453
0.999852 1 1 0.999852
0.999508 1 1 0.999508
0.999323 1 1 0.999323
1 1 1 1
0.999875 1 1 0.999875
0.999548 1 1 0.999548
1 1 1 1
1 1 1 1
0.999895 1 1 0.999895
1 1 1 1
1 1 1 1
1 1 1 1
0.931222 0.942888 0.99378 0.993809
0.982111 0.984498 0.999883 0.997692
0.982664 0.983916 0.999628 0.9991
0.999167 1 1 0.999167
0.999131 1 1 0.999131
0.999109 1 1 0.999109
0.999267 1 1 0.999267
0.999212 1 1 0.999212
0.999166 1 1 0.999166
0.999156 1 1 0.999156
0.999112 1 1 0.999112
0.999044 1 1 0.999044
0.999228 1 1 0.999228
0.999207 1 1 0.999207
0.999248 1 1 0.999248
0.896928 0.924884 0.977429 0.992168
0.909488 0.934587 0.980547 0.99245
0.983558 0.985752 1.00189 0.995887
0.855799 0.914402 0.944586 0.990816
0.910308 0.948631 0.968082 0.99124
0.982147 0.977733 1.013 0.991626
0.980862 0.974751 1.01086 0.995458
0.970375 0.975387 0.999031 0.995826
0.88459 0.923243 0.966772 0.991064
0.96417 0.964503 1.00868 0.99105
0.972051 0.976509 0.999215 0.996217
0.966277 0.972033 1.00358 0.990527
1.0074 1 1.00819 0.99922
0.999882 1 1.00027 0.999616
0.9994 1 1 0.9994
0.997842 0.986698 1.01202 0.999286
1.00432 1 1.00494 0.999385
1.00576 0.997267 1.00918 0.999342
0.99976 1.00067 1.00033 0.998758
0.904642 0.939417 0.970588 0.992163
0.936137 0.946054 0.995285 0.994205
0.981009 0.982926 0.999718 0.998332
0.978223 0.986503 0.992383 0.999218
0.966052 0.97141 0.998566 0.995913
0.928834 0.946312 0.98733 0.994126
0.96625 0.968899 1.00702 0.990318
0.900729 0.931165 0.975691 0.991415
0.972926 0.992128 0.981516 0.999113
0.909596 0.937154 0.978592 0.991827
0.967825 0.974688 1.0025 0.990481
0.982342 0.98342 1.00287 0.996047
0.986601 0.998444 0.988973 0.999156
0.959622 0.975574 0.99346 0.990124
0.987239 0.991684 0.998705 0.996809
0.986062 1 0.986946 0.999104
0.982565 1.00165 0.982184 0.998736
0.982832 1.00412 0.980095 0.998681
1.00274 1.00188 1.0026 0.998257
1.00026 1.00316 0.998648 0.998454
1.00675 1.01075 0.997227 0.998812
0.99943 1.00057 1.00071 0.998144
1.00657 1.00813 1 0.998453
1.01256 1.01383 1 0.99875
1.00331 1.00517 1 0.998152
1.00693 1.00847 1 0.998475
1.00909 1.01042 1 0.998679
1.00725 1.00865 1 0.998611
1.00692 1.00843 1 0.998507
1.00494 1.00652 1 0.998431
1.00121 1.0029 1 0.998315
1.0027 1.00448 1 0.99823
1.00362 1.00535 1 0.998276
0.998902 1.00039 1 0.998516
0.999557 1.00123 1 0.998328
1.00016 1.00199 1 0.998172
0.998968 1 1 0.998968
0.998738 1 1 0.998738
0.998731 1.00008 1.00017 0.998484
0.99943 1 1 0.99943
0.999074 1 1 0.999074
0.998889 1 1 0.998889
0.999987 1 1 0.999987
0.999547 1 1 0.999547
0.999193 1 1.00002 0.99917
1 1 1 1
0.999997 1 1 0.999997
0.999696 1 1 0.999696
1 1 1 1
1 1 1 1
1 1 1 1
0.999197 1 1 0.999197
0.999248 1 1 0.999248
0.999394 1 1 0.999394
0.999284 1 1 0.999284
0.999453 1 1 0.999453
0.999812 1 1 0.999812
1 1 1 1
0.999854 1 1 0.999854
0.999508 1 1 0.999508
1 1 1 1
1 1 1 1
0.999877 1 1 0.999877
1 1 1 1
1 1 1 1
1 1 1 1
0.914932 0.936682 0.984851 0.991804
0.930869 0.944576 0.991925 0.993512
0.980518 0.982819 0.999953 0.997706
0.999156 1 1 0.999156
0.999091 1 1 0.999091
0.999149 1 1 0.999149
0.999043 1 1 0.999043
0.99906 1 1 0.99906
0.999154 1 1 0.999154
0.99911 1 1 0.99911
0.999054 1 1 0.999054
0.998984 1 1 0.998984
0.999082 1 1 0.999082
0.998983 1.00009 1.00026 0.998636
0.999283 1 1.00003 0.999252
0.999247 1 1 0.999247
0.964814 0.978468 0.996181 0.989825
0.900996 0.925775 0.981222 0.991859
0.911151 0.937226 0.979706 0.992316
0.884878 0.922986 0.966561 0.99188
0.970626 0.966589 1.01509 0.989253
0.972605 0.973929 1.00128 0.99736
0.974993 0.978996 0.998843 0.997065
0.967353 0.973652 1.00249 0.991058
0.985278 0.995384 0.993741 0.996082
1.00432 1.00132 1.00453 0.998472
1.00586 1 1.00666 0.999202
0.999586 1 1 0.999586
1.00616 0.998866 1.00804 0.999263
0.999561 1.00101 0.999848 0.998702
0.949728 0.973216 0.984727 0.991001
0.910579 0.939162 0.977671 0.99171
0.940787 0.946721 0.999016 0.994711
0.976557 0.993162 0.984416 0.998847
0.979294 0.979898 1.00461 0.9948
0.910118 0.935819 0.980807 0.991568
0.970892 0.975127 1.00469 0.991006
0.985294 0.999616 0.986518 0.999143
0.960957 0.976133 0.993151 0.991241
0.988747 0.99351 0.999756 0.995449
1.00101 1.00567 0.996674 0.998689
0.992468 0.996936 0.997691 0.997822
0.982924 1.00185 0.982364 0.998718
0.985179 1.00366 0.982923 0.998638
1.00336 1.01814 0.986749 0.99872
1.00012 1.00355 0.998123 0.998449
1.00541 1.00945 0.997193 0.998804
1.01292 1.01757 0.99653 0.998891
1.00658 1.00815 1 0.998449
1.0128 1.01417 0.999912 0.998736
1.01202 1.01327 0.999987 0.998783
1.0064 1.00794 1 0.998475
1.00919 1.01054 1 0.998667
1.00782 1.00917 1 0.998661
1.0075 1.00887 1 0.998641
1.0057 1.00719 1 0.998517
1.00684 1.00831 1 0.998535
1.00484 1.00643 1 0.998426
1.00211 1.00372 1 0.998398
0.998995 1.00057 1 0.99843
1.0011 1.0028 1 0.998309
1.00293 1.00471 1 0.998233
0.998814 1 1 0.998814
0.998878 1.00034 1 0.998537
0.999665 1.00131 1 0.998359
0.999339 1 1 0.999339
0.998964 1 1 0.998964
0.998732 1 1 0.998732
0.999949 1 1 0.999949
0.999432 1 1 0.999432
0.999075 1 1 0.999075
1 1 1 1
0.999977 1 1 0.999977
0.999547 1 1 0.999547
1 1 1 1
0.999994 1 1 0.999994
1 1 1 1
0.999073 1 1 0.999073
0.999197 1 1 0.999197
0.999296 1 1 0.999296
0.999236 1 1 0.999236
0.999377 1 1 0.999377
0.999731 1 1 0.999731
0.999453 1 1 0.999453
0.999814 1 1 0.999814
1 1 1 1
1 1 1 1
1 1 1 1
0.999856 1 1 0.999856
1 1 1 1
1 1 1 1
1 1 1 1
0.963123 0.977233 0.994299 0.991212
0.90881 0.938934 0.975443 0.992285
0.937301 0.94792 0.995189 0.993578
0.999073 1 1 0.999073
0.999167 1 1 0.999167
0.999069 1 1 0.999069
0.999049 1 1 0.999049
0.998896 1 1 0.998896
0.999034 1 1 0.999034
0.999064 1 1 0.999064
0.998937 1 1 0.998937
0.999098 1 1.00004 0.999055
0.998851 1 1 0.998851
1.00072 1.00202 1 0.998703
0.999235 1.00096 1.00011 0.998162
0.999333 1.00059 1.00006 0.998688
0.999362 1 1.00009 0.999276
0.983182 0.99272 0.994109 0.99626
0.964535 0.976928 0.996576 0.990706
0.895686 0.926881 0.974729 0.991398
0.974134 0.97547 1.00839 0.990323
0.972775 0.980283 0.994554 0.997775
0.989721 0.99639 0.995723 0.997573
0.99576 1.00459 0.992552 0.998644
1.00161 1.00067 1.00237 0.998566
1.00481 1 1.00563 0.999184
0.997689 1.00112 0.997932 0.998637
0.979261 0.986285 0.996766 0.996099
0.956808 0.973581 0.991041 0.991656
0.906574 0.937296 0.974515 0.992518
0.985608 1.00102 0.985462 0.999128
0.994207 0.99397 1.00376 0.996487
0.961264 0.976558 0.99188 0.992396
0.994989 1.0044 0.991925 0.998699
0.990584 0.996467 0.996794 0.997292
1.01001 1.02036 0.991372 0.998473
1.00793 1.01454 0.995045 0.998432
0.987477 1.00309 0.98582 0.998595
1.00494 1.01809 0.98836 0.998713
1.01169 1.02083 0.992319 0.998712
1.00416 1.00838 0.997017 0.998796
1.01303 1.01721 0.997012 0.998881
1.01194 1.01505 0.99823 0.998698
1.0131 1.01458 0.999827 0.998723
1.01153 1.01287 0.999913 0.99877
1.00917 1.01061 1 0.99858
1.00922 1.01058 1 0.998655
1.00743 1.00878 1 0.998667
1.00677 1.0083 1 0.998485
1.00772 1.00906 1 0.998671
1.00545 1.00693 1 0.998536
1.0023 1.00388 1 0.998421
1.00478 1.00637 1 0.998421
1.00201 1.00362 1 0.998393
0.999402 1.00094 1 0.998463
0.998663 1 1 0.998663
0.999049 1.0006 1 0.998449
1.00104 1.00274 1 0.998303
0.99922 1 1 0.99922
0.998813 1 1 0.998813
0.998862 1.00031 1 0.998558
0.999892 1 1 0.999892
0.999338 1 1 0.999338
0.99896 1 1 0.99896
1 1 1 1
0.999937 1 1 0.999937
0.999433 1 1 0.999433
1 1 1 1
0.999968 1 1 0.999968
1 1 1 1
0.998938 1 1 0.998938
0.999084 1 1 0.999084
0.999199 1 1 0.999199
0.999198 1 1 0.999198
0.999285 1 1 0.999285
0.99962 1 1 0.99962
0.99936 1 1 0.99936
0.999733 1 1 0.999733
0.999999 1 1 0.999999
0.999815 1 1 0.999815
1 1 1 1
1 1 1 1
1 1 1 1
1 1 1 1
1 1 1 1
0.976004 0.986272 0.993154 0.99641
0.957387 0.975058 0.990932 0.990862
0.905461 0.937193 0.974379 0.991545
0.999082 1.00038 1 0.998704
0.999078 1 1 0.999078
0.999055 1 1 0.999055
0.999025 1 1 0.999025
0.998922 1 1.00003 0.998887
0.999021 1 1 0.999021
0.99889 1 1 0.99889
0.99909 1 1.00006 0.999028
0.99889 1 1 0.99889
1.00002 1.00131 1 0.998705
1.00098 1.00272 1 0.998262
1.00372 1.0058 0.999965 0.997964
0.999964 1.00171 1.00013 0.998133
0.999914 1.00117 1 0.998741
1.00027 1.00629 0.995001 0.99901
0.98408 0.994119 0.994236 0.99564
0.967801 0.978041 0.997762 0.99175
0.987638 0.994964 0.996226 0.996397
1.00054 1.00644 0.995329 0.998799
1.00077 1.0002 1.00191 0.998661
1.0035 1.00668 0.998241 0.998593
0.978707 0.985082 0.996389 0.997129
0.954159 0.974183 0.988283 0.991057
0.988375 1.00269 0.986996 0.998707
0.990123 0.996219 0.997185 0.996687
1.00946 1.02083 0.990372 0.998475
1.00753 1.01265 0.996415 0.998525
1.0168 1.02471 0.993824 0.998448
1.01414 1.01764 0.998164 0.998393
1.0066 1.01791 0.990168 0.998707
1.01319 1.02186 0.992782 0.998722
1.00808 1.01386 0.99573 0.998564
1.01304 1.01667 0.997552 0.998871
1.01316 1.01591 0.998587 0.998695
1.00956 1.01146 0.999665 0.998452
1.01109 1.01251 0.999838 0.998758
1.00912 1.01054 1 0.998598
1.00849 1.01014 1 0.998363
1.00708 1.00842 1 0.998672
1.00639 1.00792 1 0.998485
1.00399 1.00564 1 0.998361
1.00522 1.00667 1 0.998556
1.00243 1.00401 1 0.998428
0.99937 1.00095 1 0.998419
1.00189 1.0035 1 0.998387
0.999371 1.00092 1 0.998448
0.998625 1 1 0.998625
0.999104 1 1 0.999104
0.998684 1 1 0.998684
0.999096 1.00063 1 0.998468
0.999818 1 1 0.999818
0.999219 1 1 0.999219
0.998813 1 1 0.998813
1 1 1 1
0.999881 1 1 0.999881
0.999337 1 1 0.999337
1 1 1 1
0.999925 1 1 0.999925
1 1 1 1
0.998745 1 1 0.998745
0.998941 1 1 0.998941
0.999091 1 1 0.999091
0.999095 1 1 0.999095
0.999206 1 1 0.999206
0.999512 1 1 0.999512
0.999273 1 1 0.999273
0.999619 1 1 0.999619
0.99999 1 1 0.99999
0.999734 1 1 0.999734
1 1 1 1
1 1 1 1
1 1 1 1
1 1 1 1
1 1 1 1
1.00544 1.01009 0.996365 0.99903
0.975895 0.987196 0.993329 0.995191
0.961589 0.974007 0.995846 0.991369
0.999426 1.00065 1 0.998779
1.00105 1.00263 1 0.998426
0.998959 1.00017 1.00006 0.998732
0.999015 1 1 0.999015
0.998987 1 1.00011 0.998877
0.999052 1.00007 1 0.998983
1.00169 1.0033 1 0.998397
0.998929 1 1 0.998929
0.999148 1.00044 1 0.998707
1.00108 1.00279 1 0.9983
1.00515 1.00723 1 0.997929
1.01118 1.01379 0.999145 0.998281
1.00281 1.0049 0.999957 0.997962
1.00052 1.00242 1 0.998105
1.0034 1.00899 0.995382 0.999073
0.982685 0.99318 0.994519 0.994885
1.0029 1.00773 0.996254 0.998956
1.01324 1.01542 0.999024 0.998824
1.00243 1.00539 0.998403 0.998651
0.97594 0.985119 0.994882 0.995779
1.00875 1.02147 0.989049 0.99848
1.00645 1.01071 0.997157 0.99862
1.01556 1.0248 0.99248 0.998488
1.01621 1.01923 0.998623 0.998411
1.01075 1.01676 0.995647 0.998442
1.01992 1.02217 0.999258 0.99854
1.01442 1.02304 0.992831 0.998731
1.00805 1.01373 0.995828 0.998568
1.01132 1.01475 0.998251 0.998363
1.01433 1.01673 0.998947 0.998693
1.00966 1.01147 0.999753 0.998454
1.01051 1.01226 1 0.998277
1.00902 1.01042 1 0.998616
1.0082 1.00986 1 0.998361
1.00685 1.00861 1 0.998256
1.00601 1.00753 1 0.998485
1.00413 1.00578 1 0.998361
0.999882 1.00153 1 0.99835
1.00256 1.00413 1 0.998436
0.999503 1.00108 1 0.99842
0.99857 1 1 0.99857
0.999339 1.00091 1 0.998433
0.998616 1 1 0.998616
0.999024 1 1 0.999024
0.999752 1 1 0.999752
0.999104 1 1 0.999104
0.998705 1 1 0.998705
1 1 1 1
0.999808 1 1 0.999808
0.999218 1 1 0.999218
1 1 1 1
0.99987 1 1 0.99987
1 1 1 1
0.998752 1.00025 1 0.998505
0.998721 1 1 0.998721
0.998922 1 1 0.998922
0.998944 1 1 0.998944
0.999094 1 1 0.999094
0.999411 1 1 0.999411
0.999212 1 1 0.999212
0.999511 1 1 0.999511
0.999959 1 1 0.999959
0.999619 1 1 0.999619
0.999993 1 1 0.999993
1 1 1 1
1 1 1 1
1 1 1 1
1 1 1 1
1.01179 1.01497 0.998212 0.998646
1.00396 1.00929 0.995845 0.998869
0.974767 0.986168 0.992449 0.995959
1.00375 1.00536 1 0.998395
0.99928 1.00035 1 0.998927
1.00615 1.00792 1 0.998248
1.00094 1.00253 1 0.998412
0.99883 1 1.00007 0.998761
1.0102 1.0122 1 0.998023
0.999091 1.00015 1 0.998945
1.00173 1.00338 1 0.998352
1.01343 1.01538 1 0.998077
1.00117 1.00283 1 0.998338
1.00574 1.00785 1 0.997906
1.00961 1.01203 0.999321 0.998285
1.00137 1.00341 1 0.997959
1.00597 1.01099 0.995893 0.999139
1.01991 1.02135 0.999959 0.998634
1.01313 1.01536 0.998979 0.998823
1.00167 1.00409 0.998885 0.998708
1.01466 1.02504 0.99134 0.998528
1.01793 1.0206 0.998959 0.998429
1.01147 1.01738 0.995726 0.998453
1.02047 1.023 0.998973 0.998548
1.01907 1.02142 0.999257 0.998444
1.00803 1.01352 0.996006 0.998573
1.01146 1.01443 0.998702 0.998369
1.01349 1.01534 0.999928 0.998255
1.00976 1.01151 0.999817 0.998456
1.00997 1.01173 1 0.998265
1.00965 1.0115 1 0.998166
1.00792 1.00957 1 0.99836
1.00671 1.00847 1 0.998254
1.00121 1.00297 1 0.998254
1.00427 1.00592 1 0.998361
1.00019 1.00185 1 0.99835
0.998485 1 1 0.998485
0.999639 1.00122 1 0.998421
0.998571 1 1 0.998571
0.998954 1 1 0.998954
0.998607 1 1 0.998607
0.999023 1 1 0.999023
0.999741 1 1 0.999741
0.999949 1 1 0.999949
0.999756 1 1 0.999756
0.999103 1 1 0.999103
1 1 1 1
0.999798 1 1 0.999798
1 1 1 1
1.00766 1.00939 1 0.998292
1.00023 1.00183 1 0.998401
0.998601 1.00012 1 0.998483
0.998762 1 1 0.998762
0.998697 1 1 0.998697
0.998926 1 1 0.998926
0.999303 1 1 0.999303
0.999098 1 1 0.999098
0.999412 1 1 0.999412
0.999907 1 1 0.999907
0.999511 1 1 0.999511
0.999969 1 1 0.999969
1 1 1 1
0.999997 1 1 0.999997
1 1 1 1
1 1 1 1
1.01862 1.02023 1 0.998414
1.01552 1.01841 0.998442 0.99872
1.00389 1.00962 0.995613 0.998707
1.01159 1.01351 1 0.998103
1.00294 1.00447 1 0.998473
0.999072 1 1 0.999072
1.00659 1.00833 1 0.998273
1.00082 1.00242 1 0.998397
1.01708 1.01907 1 0.998048
1.00972 1.01175 1 0.997991
1.00186 1.00356 1 0.998306
1.01371 1.01567 1 0.99807
1.00722 1.00935 1 0.997883
1.01018 1.01254 0.99937 0.998291
1.02148 1.02309 0.999898 0.998527
1.02054 1.02197 0.999967 0.998632
1.01362 1.01559 0.999235 0.998822
1.01232 1.01816 0.995797 0.998463
1.02129 1.02398 0.998816 0.998557
1.0191 1.02192 0.998782 0.998459
1.01824 1.01997 1 0.998299
1.01168 1.01415 0.999191 0.998375
1.01314 1.01494 0.999971 0.99825
1.01253 1.01441 1 0.998144
1.00943 1.0112 1 0.998254
1.00962 1.01148 1 0.998166
1.00352 1.00536 1 0.99817
1.00658 1.00834 1 0.998253
1.00157 1.00332 1 0.998253
0.998493 1.0001 1 0.998391
1.0005 1.00216 1 0.99835
0.998498 1.00001 1 0.998485
0.998869 1 1 0.998869
0.998573 1 1 0.998573
0.998952 1 1 0.998952
0.999728 1 1 0.999728
0.999022 1 1 0.999022
0.999736 1 1 0.999736
0.999947 1 1 0.999947
0.999975 1 1 0.999975
0.999761 1 1 0.999761
1 1 1 1
1.01051 1.01241 1 0.998122
1.00097 1.00257 1 0.998401
1.00717 1.00881 1 0.99838
0.998623 1 1 0.998623
1.00046 1.00206 1 0.998399
0.998461 1 1 0.998461
0.998762 1 1 0.998762
0.999176 1 1 0.999176
0.998931 1 1 0.998931
0.999305 1 1 0.999305
0.999844 1 1 0.999844
0.999414 1 1 0.999414
0.999921 1 1 0.999921
1 1 1 1
0.99998 1 1 0.99998
1 1 1 1
1 1 1 1
1.01946 1.02121 1 0.99829
1.01777 1.0194 0.999991 0.998412
1.0173 1.02001 0.998551 0.998792
1.01595 1.01794 1 0.998047
1.01114 1.01305 1 0.998107
1.00214 1.00359 1 0.998552
1.007 1.00872 1 0.998297
1.01672 1.01872 1 0.998039
1.00904 1.0111 1 0.997959
1.01207 1.01403 1 0.998062
1.01937 1.02104 1 0.998361
1.02111 1.02275 0.999903 0.998493
1.02095 1.02245 0.999907 0.99863
1.01771 1.01951 1 0.998236
1.01905 1.02238 0.998262 0.998474
1.01819 1.01994 0.999992 0.998299
1.01497 1.01681 1 0.998186
1.01279 1.01457 1 0.998244
1.01268 1.01456 1 0.998146
1.00634 1.00824 1 0.998119
1.00958 1.01143 1 0.998166
1.00372 1.00556 1 0.99817
0.998944 1.00063 1 0.99831
1.00191 1.00367 1 0.998252
0.99861 1.00022 1 0.998391
0.998782 1 1 0.998782
0.998508 1.00002 1 0.998485
0.998867 1 1 0.998867
0.99971 1 1 0.99971
0.998951 1 1 0.998951
0.999723 1 1 0.999723
0.999947 1 1 0.999947
0.999732 1 1 0.999732
0.999948 1 1 0.999948
1 1 1 1
1.01156 1.01356 1 0.998025
1.00334 1.00513 1 0.998209
1.01071 1.01258 1 0.998151
0.998577 1.00001 1 0.998568
1.00095 1.00256 1 0.998398
1.00671 1.00825 1 0.998467
0.999029 1 1 0.999029
0.998645 1.00002 1 0.99862
1.00071 1.00232 1 0.998396
0.998762 1 1 0.998762
0.999177 1 1 0.999177
0.999774 1 1 0.999774
0.999307 1 1 0.999307
0.999856 1 1 0.999856
1 1 1 1
0.999935 1 1 0.999935
1 1 1 1
1 1 1 1
1.01789 1.01972 1 0.998199
1.01961 1.02137 1 0.998273
1.01824 1.01987 1 0.99841
1.01559 1.01758 1 0.998049
1.01071 1.01263 1 0.99811
1.01674 1.01875 1 0.99803
1.01697 1.01876 1 0.998238
1.01937 1.02105 1 0.998356
1.02057 1.02224 0.999907 0.998459
1.01799 1.01978 1 0.998245
1.01488 1.01676 1 0.998158
1.01809 1.01983 0.999993 0.998298
1.01491 1.01677 1 0.998174
1.00842 1.01032 1 0.998123
1.01282 1.01469 1 0.998148
1.00626 1.00815 1 0.998122
0.999997 1.00176 1 0.998241
1.00397 1.00581 1 0.998171
0.999256 1.00095 1 0.99831
0.998714 1 1 0.998714
0.998731 1.00034 1 0.998391
0.99878 1 1 0.99878
0.99968 1 1 0.99968
0.998865 1 1 0.998865
0.999703 1 1 0.999703
0.999941 1 1 0.999941
0.999718 1 1 0.999718
0.999951 1 1 0.999951
0.999948 1 1 0.999948
1.01361 1.0155 1 0.998137
1.00518 1.00711 1 0.998077
1.01182 1.01382 1 0.998025
0.998969 1.00056 1 0.998409
1.00309 1.00488 1 0.998221
1.01084 1.01268 1 0.998181
0.998907 1 1 0.998907
0.998555 1.00002 1 0.998531
1.00092 1.00253 1 0.998395
0.999708 1 1 0.999708
0.999031 1 1 0.999031
0.998655 1.00004 1 0.998617
0.999179 1 1 0.999179
0.999783 1 1 0.999783
1 1 1 1
0.999867 1 1 0.999867
1 1 1 1
1 1 1 1
1.01566 1.01752 1 0.998172
1.01763 1.01947 1 0.998197
1.01951 1.02129 1 0.998256
1.01521 1.01719 1 0.998051
1.01523 1.01713 1 0.99813
1.01747 1.01926 1 0.998244
1.01942 1.02111 1 0.99835
1.01827 1.02005 1 0.998255
1.0148 1.01667 1 0.998163
1.00857 1.01046 1 0.998126
1.01489 1.01676 1 0.998161
1.00822 1.01011 1 0.998123
1.00123 1.00304 1 0.99819
1.00614 1.00803 1 0.998125
1.00039 1.00216 1 0.998242
0.998651 1 1 0.998651
0.999557 1.00125 1 0.99831
0.998713 1 1 0.998713
0.999613 1 1 0.999613
0.998779 1 1 0.998779
0.999659 1 1 0.999659
1 1 1 1
0.999696 1 1 0.999696
0.999946 1 1 0.999946
0.999952 1 1 0.999952
1.01319 1.01505 1 0.998166
1.00626 1.00817 1 0.998111
1.01341 1.0153 1 0.998138
1.00008 1.00184 1 0.998241
1.00512 1.00704 1 0.998096
1.01214 1.01414 1 0.998025
0.99874 1 1 0.99874
0.998959 1.00055 1 0.998408
1.00289 1.00466 1 0.998232
0.999663 1 1 0.999663
0.998874 1 1 0.998874
0.998543 1.00005 1 0.998494
1 1 1 1
0.999717 1 1 0.999717
0.999033 1 1 0.999033
0.999792 1 1 0.999792
1 1 1 1
1 1 1 1
1.01463 1.01653 1 0.998135
1.0161 1.01795 1 0.998181
1.01737 1.01921 1 0.998195
1.00919 1.01113 1 0.99808
1.01459 1.01649 1 0.998131
1.01797 1.01975 1 0.998251
1.01471 1.01658 1 0.998168
1.00862 1.01051 1 0.998126
1.00174 1.00353 1 0.998215
1.00801 1.0099 1 0.998123
1.00145 1.00323 1 0.998221
0.998531 1 1 0.998531
1.0008 1.00256 1 0.998243
0.998651 1 1 0.998651
0.999568 1 1 0.999568
0.998712 1 1 0.998712
0.999611 1 1 0.999611
1 1 1 1
0.999634 1 1 0.999634
0.999967 1 1 0.999967
0.99995 1 1 0.99995
1.01154 1.01341 1 0.998156
1.00658 1.00845 1 0.998148
1.01313 1.01499 1 0.998167
1.0006 1.00236 1 0.998247
1.00654 1.00845 1 0.998111
1.01322 1.01511 1 0.998138
0.998643 1 1 0.998643
1.00001 1.00173 1 0.998281
1.00505 1.00695 1 0.998115
0.999633 1 1 0.999633
0.998727 1 1 0.998727
0.998945 1.00054 1 0.998406
1 1 1 1
0.999671 1 1 0.999671
0.998842 1 1 0.998842
1 1 1 1
0.999728 1 1 0.999728
1 1 1 1
1.00918 1.01109 1 0.998107
1.01422 1.01611 1 0.998133
1.01658 1.01843 1 0.99819
1.00129 1.00311 1 0.998187
1.0092 1.01113 1 0.998089
1.01401 1.01591 1 0.998132
1.00868 1.01057 1 0.998126
1.00175 1.00354 1 0.998215
0.99848 1 1 0.99848
1.00167 1.00342 1 0.998252
0.998561 1 1 0.998561
0.999505 1 1 0.999505
0.998651 1 1 0.998651
0.999565 1 1 0.999565
1 1 1 1
0.999608 1 1 0.999608
1 1 1 1
0.999942 1 1 0.999942
1.00663 1.00848 1 0.998163
1.01168 1.01354 1 0.998157
1.00024 1.00199 1 0.998249
1.00648 1.00834 1 0.998148
1.01305 1.01491 1 0.998167
0.998651 1 1 0.998651
1.00055 1.00231 1 0.998245
1.00681 1.00872 1 0.998111
0.999603 1 1 0.999603
0.998665 1 1 0.998665
0.999932 1.00161 1 0.998321
1 1 1 1
0.999639 1 1 0.999639
0.998714 1 1 0.998714
1 1 1 1
0.999679 1 1 0.999679
1 1 1 1
1.00092 1.00271 1 0.998218
1.00907 1.01098 1 0.998107
1.01372 1.01562 1 0.998131
0.998466 1 1 0.998466
1.0013 1.00312 1 0.998187
1.00917 1.01109 1 0.998097
1.00176 1.00355 1 0.998214
0.998485 1 1 0.998485
0.999451 1 1 0.999451
0.998591 1 1 0.998591
0.999502 1 1 0.999502
1 1 1 1
0.999562 1 1 0.999562
1 1 1 1
1 1 1 1
1.00006 1.00182 1 0.998236
1.00637 1.00823 1 0.99816
1.01181 1.01368 1 0.998159
0.998625 1 1 0.998625
1.00042 1.00218 1 0.998247
1.00635 1.00822 1 0.998148
0.999567 1 1 0.999567
0.99865 1 1 0.99865
1.00051 1.00227 1 0.998242
1 1 1 1
0.999606 1 1 0.999606
0.998688 1 1 0.998688
1 1 1 1
0.999644 1 1 0.999644
1 1 1 1
0.998536 1 1 0.998536
1.00091 1.00272 1 0.998188
1.00899 1.01091 1 0.998107
0.999436 1 1 0.999436
0.998466 1 1 0.998466
1.00131 1.00313 1 0.998187
0.998489 1 1 0.998489
0.99945 1 1 0.99945
1 1 1 1
0.999498 1 1 0.999498
1 1 1 1
1 1 1 1
0.998583 1 1 0.998583
1.0001 1.00188 1 0.998226
1.00614 1.00799 1 0.998158
0.999587 1 1 0.999587
0.998623 1 1 0.998623
1.0006 1.00236 1 0.998245
1 1 1 1
0.999569 1 1 0.999569
0.998649 1 1 0.998649
1 1 1 1
0.99961 1 1 0.99961
1 1 1 1
0.999436 1 1 0.999436
0.998512 1 1 0.998512
1.00089 1.00274 1 0.998157
1 1 1 1
0.999435 1 1 0.999435
0.998467 1 1 0.998467
0.999448 1 1 0.999448
1 1 1 1
1 1 1 1
0.99954 1 1 0.99954
0.998583 1 1 0.998583
1.00014 1.00192 1 0.998215
1 1 1 1
0.99953 1 1 0.99953
0.998621 1 1 0.998621
1 1 1 1
0.99957 1 1 0.99957
1 1 1 1
0.999862 1 1 0.999862
0.999484 1 1 0.999484
0.998488 1 1 0.998488
1 1 1 1
0.999435 1 1 0.999435
1 1 1 1
0.999881 1 1 0.999881
0.999516 1 1 0.999516
0.998584 1 1 0.998584
0.999945 1 1 0.999945
0.999528 1 1 0.999528
1 1 1 1
1 1 1 1
0.999451 1 1 0.999451
1 1 1 1
0.999936 1 1 0.999936
0.999486 1 1 0.999486
1 1 1 1
1 1 1 1
1 1 1 1

VECTORS lamdaE float
0.999702 1.0002 0.995682
0.999616 1.00006 0.998094
0.999483 1.00039 0.995802
0.999959 0.99992 0.995597
0.999759 1.00003 0.995795
0.999645 1.00024 0.995617
1.00084 1.00055 0.993071
0.999584 0.999933 0.998155
0.999583 1.00025 0.998195
0.999293 1.00049 0.998254
0.999604 0.999673 0.996339
1.0005 1.00107 0.992733
0.999993 1.00001 0.995376
0.999723 0.999951 0.995683
0.999284 1.00063 0.995896
0.999792 0.999899 0.995761
0.999444 1.00049 0.995737
0.99957 1.00012 0.995925
1.00097 1.00042 0.993017
0.999961 1 0.99787
1.00001 0.999972 0.995454
0.999878 0.999915 0.995735
1.00123 0.999944 0.992985
1.001 1.00016 0.993184
0.999556 0.999908 0.995988
1.00056 1.00106 0.992988
1.00318 1.00043 0.989164
0.999535 0.999826 0.998231
0.999697 1.00012 0.996902
0.999448 1.00037 0.996963
0.999551 0.999488 0.998351
1.00039 1.00118 0.992747
0.99993 0.999855 0.995582
0.999698 1.00039 0.995607
1.00132 1.00017 0.993304
0.999366 0.998882 0.998771
1.0009 1.00082 0.993446
1.0002 1.00099 0.99332
1.00184 1.00218 0.989234
0.99945 0.998135 0.99902
0.999994 1.00001 0.997834
0.999847 0.999982 0.996779
0.999999 1 0.997823
0.999715 1.00002 0.995673
1.00149 1.00006 0.991892
0.999746 0.999955 0.99814
1.00153 1.00006 0.993063
0.999624 0.999846 0.995925
0.999394 1.00021 0.996041
0.999224 1.0008 0.995853
1.00108 1.00027 0.992974
0.999879 1.00001 0.996739
0.99983 0.999963 0.995629
0.999402 1.00009 0.996103
0.999707 0.999923 0.995883
1.0013 0.999905 0.992924
1.00067 1.00097 0.992955
1.0011 1.00006 0.993133
1.00316 1.00045 0.989172
0.999965 1 0.997852
1.00002 1.00001 0.99539
1.00135 1.00001 0.993305
1.00128 0.999989 0.992841
1.00115 0.999964 0.99311
1.00358 0.999881 0.988933
1.00335 0.999985 0.988985
0.999589 0.999186 0.996596
0.999878 1.00136 0.993692
1.0026 1.00134 0.98926
1.00433 0.999993 0.986879
0.999827 1.00014 0.997976
0.999501 0.999276 0.998493
0.999579 1.00019 0.998068
1.0003 1.00126 0.992765
0.999946 0.999978 0.997957
0.999737 1.0003 0.99799
1.00123 1.00013 0.992204
0.99943 0.998958 0.997848
1.00071 1.00091 0.992389
1.00008 1.00102 0.993935
1.00184 1.00213 0.989232
0.999501 0.998488 0.998825
0.999603 0.999539 0.995843
1.00142 0.999925 0.992132
1.00112 1.00044 0.992206
1.00358 1.00015 0.988045
0.999867 1.00059 0.995201
1.00263 1.00128 0.988679
1.00105 1.00287 0.990011
1.00267 1.00244 0.987353
0.999456 0.99781 0.999144
0.999412 0.998072 0.999072
0.999977 0.999966 0.9979
0.99999 1 0.997846
1.00001 1 0.997825
0.999847 1 0.996763
1.00151 1.00004 0.992497
0.999849 0.999952 0.996827
1.00148 1.00008 0.992527
1.00002 1 0.997821
1.00146 0.999994 0.991962
1.00153 1.0001 0.993043
1.00383 0.999838 0.987913
1.00148 0.999964 0.9932
1.0038 0.999952 0.987886
0.999967 1.00001 0.995439
0.999651 0.999942 0.995809
0.999228 1.00028 0.996248
0.99954 0.999917 0.996028
1.00137 0.999896 0.992862
1.0012 0.999963 0.993089
1.00078 1.00083 0.992924
1.00315 1.00048 0.989179
0.999999 1 0.997834
0.999837 1 0.99557
1.00144 0.999995 0.992318
1.00135 0.999969 0.992773
0.999479 0.999314 0.997532
1.00011 1.00125 0.993833
1.00123 0.999912 0.993056
1.0036 0.999865 0.988799
1.00261 1.00141 0.989212
1.00334 1.00005 0.989092
1.00429 1.00003 0.986891
1.00145 1.00001 0.99199
1.00132 0.999997 0.992759
1.00377 0.999769 0.988444
1.00364 0.999855 0.988588
1.00351 0.999833 0.988826
1.00471 0.999571 0.9869
0.999528 0.998742 0.998707
1.00443 0.99976 0.986941
0.999768 1.00106 0.993912
1.00136 1.00241 0.989708
1.00385 1.00117 0.986679
1.0049 0.99961 0.986131
0.999764 1.0002 0.994817
1.00019 1.00243 0.991891
0.999926 1.00001 0.997964
0.99968 1.00026 0.998003
1.00124 1.00011 0.99221
0.999463 0.998757 0.998755
0.999919 1.0012 0.993499
1.00064 1.00098 0.992401
1.00185 1.00209 0.98923
0.999449 0.998423 0.9989
0.999607 0.999462 0.995884
1.00143 0.999958 0.992704
1.00109 1.00046 0.992785
1.00358 1.00015 0.988048
0.999773 1.0006 0.99447
1.00263 1.00126 0.98869
1.00101 1.00287 0.990017
1.00269 1.00244 0.987273
0.999643 1.00011 0.9952
0.999682 0.998981 0.996272
1.00008 1.0017 0.992844
1.00373 0.999999 0.987945
1.00321 1.00059 0.988274
1.00468 0.999945 0.986282
1.00058 1.0028 0.990945
1.00366 1.00122 0.986673
1.00173 1.00364 0.98806
1.00297 1.00252 0.98688
0.999524 0.997533 0.999195
0.999445 0.997762 0.999163
0.999381 0.998012 0.999112
0.999763 0.999803 0.995224
0.999544 0.998443 0.998834
0.999967 0.999962 0.997935
0.999973 0.999988 0.997869
1.00142 1.00008 0.991977
1.00144 1.00005 0.991948
0.999984 1 0.997836
0.999999 1 0.997824
1.00145 1 0.991961
1.00148 1.00009 0.992497
1.00384 0.999837 0.987911
1.00141 0.999982 0.992075
1.0038 0.999953 0.987881
1.00146 0.999988 0.991961
1.00386 0.999777 0.98793
1.00381 0.999901 0.987901
1.00487 0.999333 0.986572
1.00378 0.999974 0.987894
1.00485 0.999581 0.986367
0.999999 1 0.997825
0.99966 1.00001 0.995752
1.00145 0.999992 0.991413
1.00143 0.99996 0.992702
0.999285 0.99936 0.998606
1.00037 1.00108 0.993961
1.0013 0.999876 0.993004
1.00361 0.999837 0.988665
1.00334 1.00011 0.989199
1.00262 1.00151 0.989165
1.00426 1.00006 0.986904
1.00144 0.999998 0.991988
1.0014 0.999997 0.992682
1.00377 0.99976 0.988156
1.00366 0.99989 0.988678
0.999531 0.998815 0.998657
0.999906 1.00094 0.994318
1.00145 1.00248 0.989852
1.00351 0.999867 0.988817
1.00471 0.999483 0.986781
1.00375 1.00112 0.986658
1.00444 0.999803 0.987049
1.00491 0.999639 0.986145
0.999759 1.00023 0.994811
1.00023 1.00235 0.991897
1.00384 0.999769 0.987957
1.00372 0.999834 0.988472
1.00482 0.999398 0.986864
1.00475 0.999404 0.986633
1.00461 0.999592 0.986989
1.00511 0.99897 0.986587
0.999764 1.0006 0.99438
1.00496 0.999315 0.986382
1.00065 1.00278 0.990623
1.00249 1.0027 0.987142
1.00466 1.00074 0.985883
1.0051 0.99939 0.986135
1.00036 1.00256 0.991486
1.00014 1.00194 0.992456
1.00056 1.00333 0.990423
1.00137 0.99994 0.992171
0.999402 0.99835 0.998972
0.999611 0.999376 0.995923
1.00097 1.00053 0.992258
1.00358 1.00016 0.98805
0.999727 1.00063 0.994415
1.00096 1.00287 0.990025
1.00262 1.00125 0.988701
1.0027 1.00243 0.987194
0.999639 1.00004 0.995229
0.999681 0.998933 0.996297
1.00002 1.00177 0.992859
1.00372 1.00001 0.987944
1.00322 1.00058 0.988282
1.00468 0.999938 0.986272
1.00051 1.00284 0.990958
1.00372 1.00124 0.986681
1.0017 1.00366 0.988047
1.00298 1.00243 0.986877
0.999782 0.998591 0.996477
1.00027 1.00234 0.991863
1 1.00094 0.99373
1.00025 1.00308 0.991221
1.00479 0.999785 0.986264
1.00434 1.00041 0.986414
1.00508 0.99969 0.985811
1.001 1.00387 0.989214
1.00428 1.00084 0.985994
1.00194 1.00409 0.987068
1.00357 1.00185 0.986314
1.00026 0.999781 0.994446
0.999956 0.998139 0.996602
0.999621 0.997277 0.999221
0.99953 0.997479 0.999204
0.999438 0.997701 0.99918
0.999792 0.999423 0.995568
0.999543 0.998188 0.998939
0.999758 0.999855 0.995204
0.99956 0.998488 0.998791
1.00141 1 0.992069
1.00143 1.00008 0.991944
1.0038 0.999956 0.987877
1.00384 0.999837 0.98791
1.00146 1.00001 0.991961
1.00002 1 0.997817
1.00147 0.99999 0.99196
1.00385 0.999782 0.987929
1.00381 0.999908 0.987898
1.00487 0.999335 0.986565
1.00377 0.999989 0.987888
1.00485 0.999582 0.98636
1.00386 0.999767 0.987941
1.00489 0.99924 0.986635
1.00486 0.999461 0.98647
1.00516 0.998552 0.98685
1.00484 0.99968 0.98629
1.00517 0.998908 0.98645
1.00145 0.999986 0.991986
1.00147 0.999983 0.992604
1.00377 0.999737 0.987871
1.00368 0.99992 0.988767
0.999538 0.998892 0.998602
1.00005 1.0009 0.994663
1.0016 1.00252 0.989995
1.0035 0.999891 0.988808
1.00471 0.999393 0.986662
1.00444 0.999848 0.987158
1.00365 1.00109 0.986637
1.00491 0.999665 0.98616
0.99976 1.00027 0.994804
1.00027 1.00227 0.991903
1.00384 0.999733 0.987882
1.00373 0.999823 0.98846
1.00483 0.999341 0.98688
1.00475 0.999483 0.986738
0.999797 1.0006 0.99438
1.00076 1.00275 0.990595
1.00247 1.00279 0.987277
1.00461 0.999635 0.986992
1.00511 0.998859 0.986654
1.00465 1.00063 0.98578
1.00495 0.999318 0.986403
1.00509 0.999354 0.986137
1.00039 1.0025 0.991498
1.00048 1.00336 0.990441
1.00017 1.00192 0.992446
1.00487 0.999331 0.986825
1.0048 0.999387 0.986845
1.00514 0.998647 0.986859
1.00514 0.99882 0.986606
1.00504 0.998943 0.98657
1.00517 0.997949 0.987412
1.00046 1.00262 0.991224
1.00512 0.998733 0.986629
1.00142 1.00327 0.988868
1.00346 1.00282 0.985402
1.00502 1.00041 0.985408
1.00513 0.998775 0.986695
1.00016 1.00142 0.992954
1.00078 1.00291 0.990404
1.00027 1.00345 0.990689
1.00081 1.0034 0.990007
1.00372 1.00002 0.987942
0.999674 0.998897 0.996322
0.999634 0.999982 0.995257
0.999984 1.00182 0.992874
1.00322 1.00057 0.988289
1.00469 0.999933 0.986262
1.00043 1.0029 0.99097
1.00168 1.00367 0.988033
1.0038 1.00128 0.986689
1.00298 1.00237 0.986873
0.999779 0.998571 0.996485
1.00025 1.00238 0.991864
0.999999 1.00092 0.993753
1.00019 1.00318 0.991213
1.00479 0.999784 0.986256
1.00435 1.00042 0.986405
1.00509 0.99969 0.985797
1.00096 1.00383 0.989228
1.00435 1.0009 0.986029
1.00199 1.00415 0.98701
1.00343 1.00156 0.986817
0.99988 0.99832 0.996562
1.00009 1.00033 0.994213
1.00058 1.0035 0.99029
1.00015 1.0023 0.992168
1.0002 1.00406 0.990353
1.00511 0.999459 0.985999
1.0049 1.00001 0.985769
1.00513 0.99934 0.986071
1.00122 1.00473 0.987897
1.00461 1.00046 0.985817
1.00269 1.00325 0.985953
1.00023 0.999847 0.994436
1.00023 1.00095 0.993354
1.00028 0.999757 0.994441
1.00025 0.999795 0.994443
0.999999 0.997959 0.997139
0.999944 0.998128 0.99686
0.999778 0.99709 0.998217
0.999633 0.997234 0.999226
0.999538 0.997427 0.999213
0.999846 0.999084 0.995815
0.999562 0.997948 0.999018
0.999789 0.999468 0.995547
0.999565 0.998226 0.998905
0.999754 0.999903 0.995184
0.999577 0.998539 0.998746
1.00377 0.999999 0.987882
1.00381 0.999912 0.987894
1.00484 0.999593 0.986353
1.00487 0.999337 0.986559
1.00385 0.999788 0.987927
1.00146 0.999993 0.99196
1.00386 0.999765 0.987941
1.00488 0.999242 0.986635
1.00486 0.999473 0.986463
1.00516 0.99848 0.986939
1.00483 0.999685 0.986282
1.00517 0.99893 0.986443
1.00489 0.999221 0.986647
1.00514 0.998368 0.987102
1.00517 0.998681 0.986674
1.00516 0.99765 0.987752
1.00514 0.999193 0.986221
1.00516 0.997704 0.987644
1.00383 0.999698 0.987806
1.00375 0.999821 0.988448
1.00483 0.99929 0.986897
1.00476 0.999562 0.986843
0.999835 1.00059 0.994379
1.00081 1.00276 0.990569
1.00245 1.00286 0.98741
1.00462 0.999678 0.986994
1.00511 0.998745 0.98672
1.00494 0.999322 0.986424
1.00466 1.00051 0.985678
1.00509 0.999331 0.98614
1.00041 1.00243 0.991509
1.00045 1.00335 0.990458
1.00019 1.00191 0.992436
1.00488 0.999294 0.986733
1.00481 0.999384 0.986835
1.00514 0.998531 0.986955
1.00513 0.998856 0.98662
1.0005 1.00258 0.991216
1.0015 1.00325 0.988827
1.00328 1.00292 0.985659
1.00505 0.999058 0.986544
1.00516 0.997799 0.987587
1.00503 1.00036 0.98531
1.00512 0.99873 0.986655
1.00512 0.998717 0.986788
1.00081 1.00291 0.990409
1.0008 1.00343 0.989958
1.00017 1.00143 0.992944
1.00022 1.00341 0.990772
1.00515 0.998534 0.986918
1.00514 0.998708 0.986893
1.00514 0.997868 0.98753
1.00516 0.997399 0.987973
1.00515 0.998163 0.98725
1.00513 0.996967 0.988454
1.00103 1.00281 0.990048
1.00512 0.997677 0.987637
1.00164 1.00405 0.987295
1.00441 1.00251 0.984646
1.00516 0.999978 0.985361
1.00511 0.9984 0.987035
1.00017 1.00107 0.993305
1.00016 1.00301 0.991301
1.001 1.00298 0.989972
1.00042 1.00398 0.990017
1.001 1.00312 0.989932
0.999775 0.998556 0.996494
1.00478 0.999783 0.986248
1 1.00088 0.993775
1.00021 1.00246 0.991866
1.00012 1.00328 0.991206
1.00436 1.00042 0.986396
1.00509 0.99969 0.985782
1.00097 1.00376 0.989243
1.00206 1.00421 0.986951
1.00443 1.00096 0.986064
1.00331 1.00128 0.987315
0.999876 0.998315 0.996565
1.00009 1.0003 0.994224
1.00058 1.00345 0.9903
1.00008 1.00238 0.992177
1.00015 1.00417 0.990237
1.00511 0.999469 0.985979
1.00491 1.00002 0.985758
1.00512 0.999347 0.986037
1.00116 1.00476 0.987917
1.00457 1.00052 0.985942
1.00292 1.00312 0.986009
1.00018 1 0.994385
1.00016 1.00156 0.992899
1.00072 1.00436 0.989193
0.999997 1.00357 0.9912
1.00033 1.00449 0.989811
1.00513 0.998766 0.98663
1.00505 0.999757 0.985714
1.00511 0.998312 0.986857
1.00144 1.00488 0.987179
1.00435 1.00142 0.985245
1.00022 0.999861 0.994433
1.00023 1.00095 0.993284
1.00021 1.00097 0.993315
1.00016 1.00167 0.992877
1.00022 1.00099 0.993338
1.00027 0.999783 0.994418
1.00027 0.999766 0.994441
1.00006 0.997841 0.997141
1.00025 0.999811 0.99444
1.00001 0.997961 0.997138
0.999883 0.996864 0.99824
0.999933 0.998123 0.997113
0.99975 0.997045 0.99873
0.999645 0.99719 0.999231
0.999904 0.998799 0.996006
0.999841 0.999124 0.9958
0.999606 0.997725 0.999071
0.999578 0.997988 0.998993
0.999785 0.999516 0.995526
0.999587 0.998263 0.998867
1.00483 0.999689 0.986275
1.00485 0.999475 0.986455
1.00516 0.99895 0.986437
1.00516 0.998408 0.987027
1.00488 0.999244 0.986635
1.00386 0.999763 0.987941
1.00489 0.99922 0.986649
1.00514 0.998378 0.987102
1.00517 0.998693 0.986674
1.00516 0.997524 0.987911
1.00514 0.999206 0.986202
1.00517 0.997584 0.987754
1.00515 0.998418 0.98706
1.00512 0.997664 0.987804
1.00517 0.997348 0.988047
1.00511 0.996826 0.988663
1.00514 0.998132 0.987227
1.00514 0.996774 0.988697
1.00488 0.999255 0.986642
1.00481 0.999388 0.986825
1.00513 0.99841 0.987051
1.00513 0.998889 0.986635
1.00056 1.00255 0.991209
1.00158 1.00324 0.988787
1.0031 1.00299 0.985916
1.00505 0.999176 0.986517
1.00516 0.997648 0.987763
1.00511 0.998726 0.986681
1.00504 1.0003 0.985211
1.00511 0.998645 0.986882
1.00079 1.00296 0.990415
1.00071 1.00354 0.989908
1.00018 1.00144 0.992933
1.00019 1.00336 0.990856
1.00514 0.998538 0.986917
1.00514 0.998747 0.98681
1.00515 0.99782 0.987603
1.00516 0.997501 0.987856
1.00104 1.00291 0.990013
1.00163 1.00402 0.987528
1.00428 1.00237 0.98462
1.00514 0.998285 0.987102
1.00514 0.996796 0.988573
1.00515 1 0.985345
1.00511 0.997696 0.987649
1.00513 0.998222 0.98711
1.00104 1.00298 0.989964
1.001 1.00309 0.989961
1.00036 1.00409 0.990001
1.00016 1.00107 0.99323
1.00014 1.00295 0.991381
1.00513 0.997742 0.987799
1.00514 0.997446 0.988001
1.00512 0.996296 0.989158
1.00511 0.996876 0.988431
1.00112 1.00342 0.989269
1.00511 0.99727 0.9882
1.0018 1.00402 0.98666
1.00495 1.00193 0.984339
1.00515 0.999491 0.985684
1.00013 1.00076 0.993478
1.00014 1.00252 0.992003
1.00018 1.00367 0.990797
1.00115 1.00282 0.989901
1.00053 1.00428 0.989531
1.00123 1.00261 0.989796
0.999871 0.998315 0.996568
1.00009 1.00028 0.994235
1.00512 0.999479 0.985958
1.00002 1.00246 0.992186
1.00053 1.00347 0.990309
1.00009 1.0043 0.990122
1.00493 1.00002 0.985747
1.00512 0.999353 0.986004
1.0011 1.00481 0.987937
1.00314 1.00306 0.986065
1.00452 1.00057 0.986072
1.00017 1 0.994386
1.00014 1.00156 0.992914
1.00068 1.00441 0.989168
0.999933 1.00365 0.991202
1.00028 1.00443 0.98982
1.00513 0.998797 0.986607
1.00507 0.999769 0.985676
1.00511 0.99832 0.986915
1.00143 1.00484 0.987055
1.00437 1.00154 0.985306
1.00021 1.00112 0.993249
0.999915 1.00282 0.991934
1.00088 1.00431 0.988823
0.999924 1.00454 0.990213
1.00065 1.00405 0.989596
1.00513 0.997068 0.988164
1.00508 0.999429 0.985976
1.00507 0.998064 0.987124
1.00249 1.00412 0.986474
1.00453 1.00086 0.985254
1.00022 0.999874 0.99443
1.00023 1.00095 0.993319
1.00006 1.00172 0.992822
1.0002 1.00098 0.993277
1.00021 1.00101 0.993336
1.00011 1.0017 0.992824
1.00004 1.00211 0.992595
1.00012 1.00176 0.992695
1.00021 1.00107 0.993291
1.00024 0.999871 0.994384
1.00027 0.999796 0.994418
1.00011 0.997785 0.997113
1.00027 0.999775 0.99444
1.00007 0.997853 0.997136
0.999959 0.996728 0.998239
1.00002 0.997961 0.997139
0.999871 0.996838 0.998246
0.999718 0.99699 0.999252
0.999959 0.998508 0.996209
0.999903 0.998823 0.995992
0.999667 0.997485 0.999115
0.999836 0.999165 0.995784
0.999612 0.997763 0.999055
0.999596 0.998021 0.998966
1.00514 0.999219 0.986183
1.00518 0.998707 0.986673
1.00517 0.997461 0.987865
1.00515 0.997399 0.98807
1.00514 0.998388 0.987102
1.00489 0.999221 0.986651
1.00515 0.998467 0.986993
1.00512 0.997739 0.987747
1.00516 0.997417 0.987958
1.00511 0.996677 0.988773
1.00514 0.998156 0.987222
1.00513 0.996567 0.988825
1.00512 0.997826 0.987718
1.00508 0.996812 0.988671
1.00512 0.996206 0.989202
1.00512 0.996541 0.988921
1.00514 0.998542 0.986916
1.00513 0.998785 0.986727
1.00515 0.997776 0.987675
1.00516 0.997605 0.987737
1.00109 1.00295 0.989978
1.00163 1.00398 0.98776
1.00416 1.00226 0.984595
1.00514 0.998407 0.986954
1.00514 0.996629 0.988692
1.00511 0.997716 0.987662
1.00514 1.00004 0.985328
1.00514 0.998056 0.987185
1.00108 1.00299 0.989956
1.00105 1.00298 0.989989
1.00031 1.00419 0.989986
1.00016 1.00106 0.993154
1.00012 1.00289 0.991462
1.00513 0.997752 0.987793
1.00514 0.997473 0.987996
1.00512 0.996399 0.989013
1.0012 1.00342 0.98923
1.00198 1.00412 0.986778
1.00479 1.00171 0.984307
1.00511 0.996919 0.988416
1.00514 0.999323 0.985888
1.00511 0.997232 0.988051
1.00013 1.00072 0.993532
1.00122 1.00276 0.989877
1.00116 1.0025 0.990073
1.00055 1.00439 0.989431
1.00019 1.00367 0.990818
1.00013 1.00251 0.991941
1.00505 0.997195 0.988317
1.00515 0.996112 0.989277
1.00509 0.995862 0.98942
1.00511 0.996204 0.989146
1.00134 1.00361 0.988757
1.0051 0.997957 0.987331
1.00277 1.00368 0.98554
1.00499 1.00132 0.984572
1.00015 1.00029 0.99392
1.00013 1.00217 0.992385
1.00018 1.00318 0.991366
1.00014 1.00439 0.990069
1.00136 1.00251 0.989726
1.00127 1.00328 0.989186
1.00017 1 0.994386
1.00011 1.00154 0.99293
1.00513 0.998828 0.986584
0.999874 1.0037 0.991205
1.00065 1.00444 0.989144
1.00016 1.00438 0.989829
1.0051 0.999779 0.985638
1.00511 0.998332 0.986972
1.00144 1.00483 0.986931
1.0044 1.00163 0.985366
1.0002 1.00111 0.993258
0.999966 1.00277 0.991965
1.00089 1.00437 0.988836
0.999832 1.0047 0.990185
1.00049 1.00383 0.989956
1.00513 0.997041 0.98835
1.00508 0.999433 0.986018
1.00507 0.998152 0.987084
1.00234 1.00426 0.986384
1.00463 1.00077 0.985201
0.99999 1.00199 0.992615
0.999799 1.00383 0.990948
1.00131 1.00389 0.988518
1.00004 1.0048 0.989191
1.00512 0.995582 0.989673
1.00502 0.997099 0.988469
1.00505 0.999331 0.98602
1.00303 1.00256 0.985559
1.00024 1.00093 0.993355
1.00007 1.00174 0.992839
0.999894 1.00236 0.992597
1.0002 1.00102 0.993335
1.00007 1.00173 0.99277
1.00021 1.00107 0.993286
1.00002 1.0021 0.992574
1.00012 1.00175 0.992722
0.999976 1.00235 0.992438
1.00008 1.00216 0.992412
1.00014 1.00184 0.992547
1.00021 1.00117 0.993178
1.00021 0.999958 0.994357
1.00024 0.999869 0.994382
1.00014 0.997769 0.997077
1.00027 0.999796 0.994417
1.00011 0.997809 0.997107
1.00002 0.996647 0.998215
1.00007 0.997866 0.997134
0.999951 0.996698 0.998245
0.99986 0.996814 0.998248
1.00002 0.998199 0.996409
0.999963 0.998521 0.996194
0.99974 0.997209 0.999165
0.999901 0.998852 0.995978
0.999668 0.997536 0.999101
0.999622 0.997801 0.999038
1.00514 0.99818 0.987217
1.00516 0.997488 0.987869
1.00513 0.996361 0.988953
1.00512 0.996528 0.988884
1.00513 0.997815 0.987691
1.00515 0.998517 0.986927
1.00512 0.997822 0.987726
1.00509 0.996858 0.988629
1.00512 0.996236 0.989151
1.00513 0.996492 0.988961
1.00502 0.997158 0.988477
1.00517 0.9957 0.989747
1.00515 0.995507 0.989642
1.00512 0.99776 0.987787
1.00513 0.997501 0.987991
1.00512 0.996505 0.988869
1.00127 1.00343 0.989192
1.00218 1.00423 0.986897
1.00463 1.00151 0.984275
1.00511 0.996961 0.988401
1.00512 0.997193 0.987901
1.00513 0.999161 0.986092
1.00128 1.00271 0.989854
1.00104 1.00244 0.990351
1.00057 1.00454 0.989332
1.00014 1.00067 0.993585
1.00019 1.00366 0.990839
1.00013 1.0025 0.991878
1.00504 0.99724 0.988349
1.00516 0.996037 0.989342
1.00509 0.995864 0.98946
1.00137 1.00362 0.988722
1.00262 1.00385 0.985827
1.00495 1.00108 0.984693
1.00511 0.996254 0.989083
1.0051 0.997922 0.987299
1.00015 1.00027 0.99405
1.00013 1.00216 0.992378
1.00122 1.00243 0.989809
1.0012 1.0033 0.989507
1.00018 1.00435 0.99008
1.00015 1.00323 0.991306
1.00512 0.99579 0.989673
1.00514 0.995239 0.990019
1.00508 0.995574 0.989762
1.0051 0.996408 0.989023
1.00142 1.00351 0.988161
1.005 0.999762 0.985699
1.00373 1.00334 0.98512
1.00018 0.999958 0.994418
1.00014 1.00123 0.99324
1.00011 1.00177 0.992624
1.00007 1.00303 0.991608
1.00007 1.00385 0.990737
1.00008 1.00432 0.989961
1.00186 1.00119 0.989836
1.00114 1.00288 0.990453
1.00019 1.00111 0.993266
1.00001 1.00275 0.991995
1.00513 0.997018 0.988536
0.99986 1.00482 0.990156
1.00088 1.00446 0.988849
1.00032 1.00366 0.990316
1.00508 0.999431 0.986061
1.00508 0.998233 0.987045
1.00218 1.00436 0.986298
1.00476 1.00067 0.985148
1.00002 1.00202 0.992561
0.99986 1.00388 0.990942
1.00123 1.00398 0.988578
1.00027 1.00479 0.989305
1.00513 0.995501 0.989789
1.00504 0.997172 0.988256
1.00504 0.999332 0.986029
1.00337 1.0027 0.985412
0.999839 1.00291 0.992091
1.0051 0.994985 0.990225
1.00013 1.00474 0.990047
1.00143 1.00459 0.987567
1.005 0.995915 0.989855
1.0049 0.998435 0.986761
1.00442 1.00142 0.985396
1.00007 1.00177 0.992855
0.999888 1.00235 0.992581
0.999737 1.00289 0.992355
1.00021 1.00105 0.993282
1.00012 1.00176 0.992748
0.99998 1.00211 0.992552
1.00022 1.00116 0.993168
1.00013 1.00184 0.992569
0.999943 1.00239 0.9924
1.00011 1.00212 0.992448
1.00007 1.0024 0.992237
1.00006 1.00233 0.992268
1.00015 1.00232 0.99218
1.00026 1.00189 0.992346
1.00023 1.00127 0.993043
1.00018 1.00003 0.99433
1.00021 0.999963 0.994356
1.00016 0.997796 0.997024
1.00024 0.999882 0.99438
1.00014 0.997802 0.99707
1.00006 0.996587 0.998192
1.00011 0.997833 0.997102
1.00001 0.996611 0.998221
0.999943 0.996669 0.99825
1.00016 0.999821 0.994592
1.00007 0.997957 0.996564
1.00003 0.998211 0.996396
0.99982 0.996947 0.999207
0.999966 0.99854 0.99618
0.999736 0.997271 0.999149
0.99967 0.997584 0.999087
1.00513 0.996443 0.989001
1.00512 0.996266 0.9891
1.00509 0.996904 0.988587
1.00512 0.997817 0.987734
1.00503 0.997107 0.988548
1.00515 0.995696 0.989742
1.00515 0.995546 0.989632
1.00514 0.995629 0.989774
1.00521 0.995077 0.990196
1.00505 0.994924 0.990603
1.00504 0.997285 0.98838
1.00517 0.995963 0.989408
1.00509 0.995853 0.9895
1.00139 1.00363 0.988687
1.00247 1.00402 0.986114
1.0049 1.00082 0.984815
1.00511 0.996309 0.989021
1.0051 0.997869 0.987267
1.00109 1.00238 0.989892
1.00115 1.0033 0.989824
1.00014 1.00437 0.990091
1.00015 1.00025 0.99418
1.00015 1.00215 0.99237
1.00012 1.00328 0.991247
1.00513 0.995745 0.989683
1.00017 0.99997 0.994415
1.00013 1.00125 0.993184
1.00513 0.995291 0.990024
1.00509 0.995529 0.989726
1.00123 1.00366 0.988498
1.00359 1.00331 0.985051
1.00494 0.999683 0.98569
1.00504 0.996409 0.988916
1.00012 1.00175 0.992795
1.00009 1.00299 0.991593
1.00202 1.00146 0.989603
1.00074 1.00292 0.990705
1.00009 1.00441 0.989974
1.00006 1.00381 0.990798
1.00521 0.995143 0.990092
1.00506 0.995 0.990369
1.00509 0.99516 0.989899
1.00504 0.996698 0.9883
1.00165 1.00294 0.988655
1.00416 1.0027 0.985008
1.00012 1.00111 0.993256
1.00014 1.0014 0.99308
1.00009 1.00227 0.992428
1.00004 1.00295 0.991542
1.00001 1.00361 0.991244
1.00024 1.00397 0.990194
0.999618 1.00467 0.990369
1.00122 1.00133 0.990933
1.00004 1.00204 0.992508
0.999925 1.00391 0.990936
1.00514 0.995414 0.989905
1.00505 0.997266 0.988044
1.00049 1.0048 0.989419
1.00116 1.00405 0.988635
1.00501 0.99933 0.986036
1.00373 1.00288 0.985262
0.999855 1.00291 0.992055
1.00511 0.99497 0.990262
0.99997 1.0047 0.990145
1.00142 1.00443 0.987539
1.00498 0.995793 0.989737
1.00483 0.998454 0.986983
1.00434 1.00162 0.985429
0.999833 1.00415 0.991156
1.00478 0.995121 0.99145
1.00086 1.00469 0.989339
1.00243 1.0042 0.986954
1.00481 0.996764 0.988787
1.00399 1.00061 0.986401
0.999631 0.998182 0.991957
0.99988 1.00236 0.992564
0.999712 1.00292 0.992345
0.999941 1.00303 0.991977
1.00022 1.00117 0.993158
1.00013 1.00185 0.992591
1.00013 1.00208 0.992485
0.999923 1.00239 0.992361
1.00023 1.00127 0.993039
1.00024 1.00191 0.992345
1.00008 1.00245 0.992144
1.00013 1.00234 0.992183
1.0001 1.0023 0.992289
1.00021 1.00224 0.992143
1.00023 1.00246 0.991879
1.0002 1.00234 0.992068
1.00035 1.00198 0.992106
1.00026 1.00133 0.992838
1.00027 1.00181 0.99253
1.00025 1.00132 0.992849
1.00017 1.00007 0.994298
1.00018 1.00003 0.99433
1.00018 0.997865 0.996452
1.0002 0.999963 0.994355
1.00017 0.997832 0.996754
1.00003 0.996531 0.999221
1.00014 0.997834 0.997065
1.00006 0.996546 0.998198
1.00001 0.996576 0.998226
1.00014 0.999702 0.994739
1.00017 0.999807 0.994593
1.0001 0.997791 0.996687
1.00006 0.99796 0.996815
0.999892 0.996736 0.999243
1.00003 0.99822 0.996383
0.999813 0.997008 0.999195
0.999734 0.997336 0.999133
1.00515 0.995589 0.989622
1.00514 0.995684 0.989738
1.00503 0.997054 0.98862
1.00512 0.995627 0.989771
1.00521 0.995073 0.990145
1.00505 0.994929 0.990429
1.0052 0.994899 0.990292
1.00083 0.997453 0.988425
1.00452 0.994982 0.992452
1.00008 1.00102 0.993552
1.00514 0.995691 0.989693
1.00513 0.995352 0.99003
1.00509 0.995491 0.989689
1.00104 1.00379 0.988835
1.00347 1.0033 0.984983
1.0049 0.999619 0.985681
1.00498 0.996422 0.988807
1.00223 1.00162 0.989375
1.00032 1.00295 0.990965
1.00015 1.00445 0.989988
1.00016 0.999988 0.994413
1.00007 1.00377 0.99086
1.00014 1.00172 0.992966
1.0001 1.00298 0.991577
1.00012 1.00124 0.993127
1.00522 0.995039 0.99014
1.00011 1.00109 0.993353
1.00014 1.00141 0.993078
1.00011 1.00225 0.99232
1.00505 0.995038 0.990363
1.00509 0.99527 0.989775
1.00173 1.0028 0.988716
1.00381 1.00237 0.985243
1.00499 0.996964 0.988255
1.00004 1.00294 0.991631
1.00004 1.00357 0.991138
1.00115 1.00172 0.990691
0.999754 1.00466 0.990443
1.00029 1.00388 0.990253
1.00511 0.994975 0.990441
1.0051 0.994948 0.990337
1.00507 0.995817 0.989246
1.0043 0.999305 0.987931
1.00116 1.00309 0.989471
1.00007 1.00216 0.99228
1.00011 1.00247 0.991883
0.999935 1.00327 0.991565
0.999934 1.00401 0.990993
0.999986 1.00396 0.990699
0.999836 1.00456 0.990201
0.999908 1.00449 0.990326
0.999885 1.00289 0.992018
0.999808 1.00469 0.990243
1.00512 0.99495 0.990298
1.00497 0.995651 0.989621
1.00479 0.998456 0.987205
1.00142 1.00423 0.987513
1.00428 1.0018 0.985464
0.999793 1.00402 0.991298
1.00469 0.995056 0.991475
1.00054 1.00452 0.989534
1.00208 1.00431 0.98697
1.0048 0.996586 0.989063
1.0041 1.00052 0.986334
0.999616 0.9981 0.990162
0.999965 1.00421 0.990789
1.00424 0.995806 0.991648
1.0005 1.00454 0.989516
1.00232 1.00289 0.987333
1.0042 0.998023 0.987758
1.00081 0.995571 0.957347
0.996179 0.997456 0.976093
0.998165 1.00127 0.991747
0.999882 0.996479 0.922104
0.994923 0.998153 0.907521
0.999703 1.00292 0.992334
0.999804 1.00312 0.99204
1.00008 1.00241 0.992253
1.00023 1.00126 0.993035
1.00026 1.00186 0.992344
1.00013 1.00234 0.992185
1.00013 1.00226 0.99231
1.00009 1.00251 0.992051
1.00022 1.00231 0.992025
1.00025 1.00131 0.992904
1.00035 1.00198 0.992124
1.00021 1.00225 0.992123
1.00021 1.00248 0.991909
1.00026 1.00247 0.991871
1.00017 1.00225 0.992087
1.00033 1.00238 0.991817
1.0004 1.00198 0.991971
1.00027 1.00134 0.992797
1.00035 1.00189 0.992263
1.00029 1.00201 0.99225
1.00016 1.00186 0.992569
1.00027 1.00182 0.992469
1.00025 1.00122 0.993055
1.00026 1.00132 0.992839
1.0002 1.00006 0.994266
1.00017 1.00007 0.994298
1.00017 0.997925 0.996431
1.00017 1.00003 0.994329
1.00018 0.99787 0.996451
1.00004 0.996533 0.999214
1.00018 0.997868 0.996484
1.00006 0.996532 0.998691
1.00006 0.996506 0.998203
1.00011 0.999637 0.994844
1.00014 0.999706 0.994736
1.00013 0.997663 0.996769
1.00017 0.999794 0.994594
1.0001 0.997762 0.996939
0.999949 0.996557 0.999271
1.00007 0.998 0.99653
0.999882 0.996818 0.999225
0.999807 0.997056 0.999183
1.0052 0.995066 0.990093
1.00511 0.995641 0.989768
1.00504 0.994934 0.990256
1.00078 0.997103 0.988529
1.0052 0.994904 0.990263
1.00446 0.995323 0.992194
1.00491 0.996045 0.990993
0.997161 0.997492 0.973933
1.00165 0.996219 0.990098
1.00009 1.00098 0.99359
1.0001 1.001 0.993546
0.999983 1.00213 0.992598
1.00007 1.00187 0.99273
1.00522 0.994931 0.990189
1.00503 0.995057 0.990357
1.0051 0.995377 0.98965
1.00194 1.0026 0.988777
1.00343 1.00196 0.985475
1.00493 0.997276 0.98821
1.00102 1.00222 0.990441
0.999909 1.00467 0.990515
1.00031 1.00378 0.99031
1.00012 1.00144 0.993076
1.00007 1.0035 0.991032
1.00006 1.00293 0.991721
1.00011 1.00109 0.99345
1.00011 1.00225 0.992211
1.00512 0.994939 0.990421
1.00005 1.00222 0.992407
1.00011 1.00248 0.991998
0.999897 1.00309 0.991758
1.00511 0.994924 0.99032
1.00507 0.995667 0.989239
1.00143 1.00274 0.989432
1.00421 0.999241 0.988016
0.999949 1.00399 0.990966
1.00007 1.00394 0.990568
0.999928 1.00456 0.990331
1.00009 1.00448 0.990185
1.00501 0.995136 0.990619
1.00509 0.994958 0.990346
1.00439 0.997463 0.989165
1.00148 1.00191 0.990271
0.999959 1.0034 0.991324
0.999981 1.00367 0.991013
0.999633 1.0046 0.990706
0.999795 1.00512 0.989805
1.00021 0.994918 0.952477
0.99973 1.00391 0.991439
1.00018 1.0044 0.989727
1.00463 0.995011 0.991494
1.00478 0.996417 0.989338
1.00422 1.00039 0.986264
1.00168 1.0044 0.986985
0.999684 0.997945 0.988327
0.999819 1.00428 0.990914
1.00434 0.995633 0.99161
1.00039 1.00453 0.98957
1.00245 1.0027 0.987324
1.00441 0.998022 0.987907
1.00148 0.995806 0.951695
0.995911 0.997616 0.972225
0.998095 1.00124 0.991665
0.999839 0.997118 0.924427
0.994697 0.998145 0.900101
0.999815 1.00367 0.991654
0.999898 0.995342 0.928447
0.995087 0.998746 0.908998
1.00322 0.998675 0.990835
1.00013 1.00439 0.990169
1.00269 1.00139 0.98767
0.997402 1.00256 0.992212
0.999771 0.996811 0.956332
0.994863 0.997972 0.970579
0.99846 0.998106 0.927359
0.994775 0.99968 0.908671
0.999674 1.00321 0.992103
0.99999 1.00263 0.992189
0.999971 1.00145 0.993637
1.00026 1.00128 0.992969
1.00034 1.00198 0.992143
1.00016 1.00236 0.991982
1.0002 1.00248 0.991941
1.00021 1.00226 0.992103
1.00027 1.00133 0.992798
1.00024 1.0025 0.991832
1.00031 1.00237 0.991844
1.0004 1.00198 0.992033
1.00019 1.00217 0.992148
1.00025 1.00255 0.991839
1.0002 1.0019 0.992328
1.00044 1.00238 0.99158
1.00041 1.00196 0.992081
1.00037 1.00187 0.992253
1.0003 1.002 0.99225
1.00043 1.00199 0.991996
1.00015 1.00217 0.992286
1.00022 1.00195 0.992295
0.999846 1.00293 0.992009
1.00005 1.00202 0.99259
1.00016 1.00188 0.992567
1.00021 1.00121 0.993127
1.00027 1.00184 0.992408
1.00025 1.00124 0.993005
1.00023 1.00002 0.994255
1.00026 1.00133 0.992829
1.0002 1.00006 0.994268
1.00013 0.997953 0.996974
1.00018 1.00007 0.994298
1.00016 0.997914 0.996703
1.00009 0.996564 0.998124
1.00018 0.997876 0.99645
1.00004 0.996541 0.999212
1.0001 0.996535 0.99816
1.00011 1.00104 0.993498
1.00011 0.999627 0.994863
1.00012 0.999636 0.994843
1.00014 0.9976 0.996803
1.00014 0.99971 0.994734
1.00014 0.997644 0.996767
0.999995 0.996439 0.999286
1.00009 0.997771 0.997172
0.999963 0.99663 0.99876
0.999925 0.996866 0.998189
1.00064 0.996786 0.988656
1.00519 0.994909 0.990234
1.00441 0.995666 0.991935
0.996522 0.997111 0.975529
1.0014 0.996394 0.990332
1.00496 0.995549 0.990824
1.00386 0.996162 0.990085
0.997635 0.996396 0.978292
1.00006 0.995514 0.955654
0.999315 0.997795 0.928794
0.994653 0.998143 0.906058
0.999982 1.00198 0.992592
1.00009 1.00098 0.993587
1.00012 1.00098 0.99354
1.00001 1.00212 0.992557
0.999973 1.00289 0.991918
1.00019 1.0024 0.992075
1.0001 1.00204 0.992545
1.00003 1.00196 0.992657
1.00514 0.994905 0.990399
1.00512 0.994926 0.990298
1.00508 0.995453 0.989235
1.00159 1.00247 0.989396
1.00417 0.999162 0.988099
0.999947 1.00455 0.990338
1.00034 1.0044 0.990169
1.00017 1.00395 0.990437
1.00009 1.00248 0.992113
0.999948 1.00401 0.990937
1.00004 1.00229 0.992535
0.999925 1.00288 0.991951
1.005 0.995065 0.990657
0.999958 1.00337 0.991403
0.999965 1.00367 0.991136
1.00505 0.994955 0.990235
1.00397 0.997252 0.98954
1.00163 1.00174 0.990129
0.999773 1.00467 0.990517
0.999982 1.005 0.989824
1.00292 0.998887 0.991041
1.0044 0.99604 0.991094
1.00271 0.998044 0.990719
1.00078 1.00243 0.990594
0.999967 1.00386 0.990835
0.99976 1.00453 0.990569
0.999712 1.00518 0.990063
0.99994 0.994853 0.928328
1.00076 0.994981 0.959858
0.999701 1.00432 0.99104
1.00029 1.00444 0.989624
1.00438 0.995443 0.991576
1.0046 0.998075 0.988055
1.00257 1.0026 0.987317
1.00035 0.995272 0.9556
0.996323 0.997856 0.971757
0.997996 1.00104 0.991569
0.998705 0.996852 0.930529
0.994653 0.998144 0.892614
0.999729 1.00364 0.99168
0.999915 0.995773 0.927219
0.995212 0.998615 0.90542
1.00319 0.998554 0.990814
1.00004 1.00431 0.990284
1.00231 1.00138 0.988372
0.997773 1.00221 0.992846
1.00106 0.996807 0.951961
0.994963 0.997459 0.974047
0.998571 0.998852 0.92766
0.994908 0.999672 0.906625
0.999347 1.0031 0.993216
0.995277 0.998303 0.910648
0.995025 1.00062 0.92565
1.00023 1.00084 0.992968
0.999279 1.00419 0.992296
0.996604 1.00279 0.993565
0.994844 0.999527 0.97497
0.997696 0.998492 0.950292
0.995258 0.999903 0.932245
0.994747 0.998442 0.916186
0.999945 1.00281 0.992126
1 1.00141 0.993568
0.999725 1.00016 0.994855
1.00027 1.00133 0.9928
1.00039 1.00198 0.992095
1.0003 1.00235 0.991871
1.00024 1.00254 0.991793
1.00019 1.00212 0.992209
1.00041 1.00198 0.992072
1.00026 1.00251 0.991828
1.00044 1.0024 0.991578
1.00005 1.00191 0.992485
0.999319 1.00207 0.99362
1.00031 1.00259 0.991677
1.00054 1.00221 0.99168
1.00039 1.00185 0.992242
1.00031 1.00199 0.992249
1.00044 1.002 0.991993
1.00016 1.00218 0.992275
1.00023 1.00194 0.992338
0.999996 1.00247 0.992218
1.0003 1.00189 0.992176
1.00002 1.00207 0.992562
1.00011 1.00278 0.991765
0.999711 1.00475 0.990133
0.999635 1.00355 0.991578
0.999855 1.00298 0.991994
0.999965 1.00224 0.992519
1.00006 1.00203 0.992586
1.00016 1.00123 0.993165
1.00015 1.00191 0.992566
1.00022 1.0012 0.99313
1.00025 0.999969 0.994267
1.00026 1.00124 0.992955
1.00023 1.00001 0.994258
1.00011 0.997983 0.996985
1.0002 1.00005 0.99427
1.00014 0.997942 0.996705
1.00006 0.996585 0.998132
1.00018 0.997895 0.996431
1.00003 0.996567 0.999207
1.00004 0.996546 0.99921
1.00015 1.00112 0.99354
1.00013 0.999673 0.994792
1.0001 1.00104 0.993499
1.00015 0.997574 0.99681
1.00011 0.999622 0.994864
1.00012 0.999639 0.994841
1.00015 0.997598 0.996801
1.00002 0.996379 0.999291
1.00011 0.997637 0.997249
1.00001 0.99646 0.998793
0.999995 0.996621 0.998275
0.999869 0.995904 0.923079
0.995183 0.998029 0.908857
0.997747 0.996641 0.976233
1.00118 0.996484 0.990574
1.005 0.995013 0.990657
0.99691 0.995987 0.980167
1.00387 0.995891 0.990271
1.00132 0.995666 0.955469
0.999828 0.996841 0.922897
0.994653 0.998138 0.898624
0.998391 0.996972 0.983227
0.999518 0.997371 0.956598
0.998474 0.998636 0.925683
0.994743 0.999327 0.907293
1.00011 1.00281 0.991706
1.00001 1.00196 0.992666
1.0001 1.00097 0.993584
1.00002 1.00209 0.992516
0.999971 1.00278 0.992005
1.00022 1.00259 0.991813
1.00019 1.00237 0.992065
1.00017 1.00219 0.992202
1.00011 1.00203 0.992473
1.00002 1.00202 0.992584
1.00496 0.994868 0.990701
1.00507 0.994941 0.990139
1.00354 0.997031 0.98992
1.00171 1.00166 0.989988
1.00018 1.00492 0.989843
0.999916 1.00473 0.990329
0.999935 1.00366 0.991261
0.999927 1.00335 0.991482
1.0031 0.997981 0.991257
0.999954 1.00389 0.990813
0.999766 1.00462 0.990446
1.00427 0.995971 0.990809
1.00235 0.998035 0.991458
1.00103 1.00258 0.99008
0.999922 1.00513 0.989964
0.999925 0.99955 0.993479
1.00165 0.99782 0.994185
0.999751 1.00399 0.9907
0.999934 1.00386 0.990855
0.999868 1.00454 0.990294
0.999768 1.00513 0.989991
0.994744 0.998233 0.92232
0.999935 0.994965 0.931097
1.00024 0.994969 0.952345
0.999602 1.00376 0.991707
0.999975 1.00418 0.990399
1.00319 0.998408 0.990796
1.00202 1.00149 0.989072
0.999883 0.995497 0.931569
0.999334 0.996749 0.95205
0.994894 0.996849 0.970644
0.998165 1.00126 0.993416
0.998471 0.998141 0.921064
0.995177 0.998451 0.906272
0.994997 0.999662 0.910069
0.999154 1.00307 0.993223
0.995173 0.997811 0.914912
0.995219 1.00078 0.925055
1.00056 1.00087 0.992952
0.998913 1.0043 0.992289
0.996377 1.00072 0.996151
0.994877 0.998737 0.972934
0.997632 0.998756 0.956996
0.997225 0.999887 0.925703
0.994736 0.998402 0.919968
0.998039 1.00239 0.995841
0.995035 0.998498 0.935947
0.994563 0.998462 0.93921
0.99615 1.00242 0.998954
0.994876 1.00002 0.981412
0.995587 1.00002 0.956562
0.994808 0.999945 0.924722
0.994812 0.997066 0.917004
1.00001 1.00136 0.9935
0.99976 1.00026 0.995018
0.998917 1.00085 0.996365
1.0004 1.002 0.992063
1.00044 1.00243 0.991577
1.00028 1.00244 0.991816
0.999921 1.00194 0.992643
1.00049 1.00225 0.99167
1.0003 1.00256 0.991685
0.999331 1.00191 0.993828
0.997726 1.00256 0.995832
0.9995 1.00288 0.992891
1.00042 1.00226 0.991794
1.00045 1.00199 0.991989
1.00016 1.00218 0.992264
1.00024 1.00194 0.99238
1.0003 1.00192 0.992188
1 1.0025 0.992211
1.00007 1.00207 0.992559
1.00008 1.00229 0.992391
0.999681 1.00183 0.993348
1.00049 1.00153 0.992179
1.00014 1.00267 0.991879
0.99978 1.00407 0.990859
1.0007 1.00494 0.988547
0.999824 1.00427 0.991016
0.9996 1.0048 0.990419
0.999699 1.00354 0.991665
0.999851 1.00263 0.992163
0.999868 1.00302 0.991979
0.999996 1.00223 0.992511
1.00013 1.00133 0.993146
1.00009 1.00202 0.992582
1.00018 1.00123 0.993164
1.00023 0.999987 0.994279
1.00023 1.00121 0.993133
1.00025 0.999975 0.994268
1.00007 0.998013 0.99701
1.00024 1.00001 0.99426
1.00012 0.997973 0.996722
1.00001 0.996668 0.998145
1.00016 0.997919 0.996434
1.00003 0.9966 0.998668
1.00003 0.996582 0.999208
1.00017 1.00128 0.993181
1.00016 0.999744 0.994679
1.00012 1.00116 0.993392
1.00016 0.997588 0.996787
1.00013 0.999664 0.994796
1.00008 1.00108 0.993499
1.00003 0.996356 0.999293
1.00015 0.997574 0.996811
1.00012 0.999608 0.994865
1.00015 0.997596 0.996798
1.00002 0.996388 0.99929
0.999992 0.996454 0.999282
0.994828 0.997011 0.917027
0.999902 0.995464 0.926584
0.995271 1.00052 0.925153
0.995232 0.998458 0.906585
0.997675 0.995697 0.976897
1.00384 0.996 0.990461
1.00075 0.996123 0.955017
0.999845 0.996857 0.929579
0.994664 0.998142 0.891177
0.998331 0.997194 0.982098
1.00124 0.997092 0.948606
0.998565 0.998958 0.926213
0.994741 0.999512 0.90327
0.994979 0.99964 0.978041
0.998271 0.999706 0.949473
0.995911 0.999808 0.922183
0.994734 0.998127 0.910536
1.0001 1.00323 0.991336
1.00008 1.0028 0.991801
0.999992 1.00201 0.992739
0.99997 1.00268 0.992091
1.00032 1.00272 0.991403
1.00022 1.00256 0.991865
1.00016 1.00237 0.992054
1.00029 1.00214 0.992152
1.00021 1.00214 0.992282
1.00012 1.00204 0.992401
1.00335 0.997279 0.991469
1.00412 0.995952 0.990527
1.00208 0.998097 0.99219
1.00132 1.00261 0.989575
1.00005 1.0051 0.989865
0.9998 1.0047 0.990323
0.999992 1.00385 0.990791
0.999979 1.00384 0.990876
1.00028 0.999417 0.993746
0.999927 1.00458 0.99032
0.999868 1.00514 0.990004
1.00172 0.997782 0.993806
1.00023 1.00373 0.990569
0.998684 0.997189 0.99563
0.998657 0.999072 0.998636
0.999577 1.00411 0.991079
0.999998 1.00427 0.99043
0.999876 1.00504 0.989824
0.99471 0.998159 0.941527
0.994756 0.998161 0.921061
0.999898 0.995147 0.925061
0.998957 1.00304 0.993224
0.998614 1.00423 0.992268
1.00082 1.00088 0.992946
0.99513 0.997201 0.916387
0.997965 0.998657 0.950601
0.994861 0.998143 0.973723
0.996368 0.999819 0.998945
0.996234 0.999519 0.932052
0.995541 1.00095 0.924465
0.994746 0.998366 0.920023
0.998077 1.00234 0.996047
0.9951 0.997667 0.938585
0.994605 0.998612 0.939041
0.996363 1.00294 0.998286
0.99486 0.999928 0.982189
0.996296 1 0.950277
0.994793 0.99749 0.918599
0.994879 0.999973 0.929468
0.996776 1.00308 0.998117
0.994422 0.995658 0.959612
0.994621 0.997454 0.942294
0.994748 0.998179 0.910689
0.994922 1.00165 0.99456
0.995817 0.999769 0.958845
0.994871 1.00001 0.928086
0.999871 1.00036 0.995179
0.999035 1.00076 0.996118
0.997061 1.00218 0.998233
1.00044 1.00229 0.991661
1.00027 1.00254 0.991693
0.999285 1.00182 0.99404
1.00035 1.00222 0.991868
0.9995 1.00282 0.992914
0.997993 1.00255 0.995455
0.997469 1.00297 0.996299
0.999459 1.00252 0.993226
1.0003 1.00195 0.992201
1 1.00253 0.992205
1.00011 1.00206 0.992556
0.999792 1.00183 0.993277
1.00008 1.0022 0.992414
0.999594 1.00219 0.993244
1.00008 1.00183 0.992623
1.00036 1.00336 0.990451
1.00017 1.00255 0.991994
1.00008 1.00399 0.990714
1.00083 1.00444 0.988318
1.00091 1.00467 0.988173
0.999938 1.00475 0.990195
1.00057 1.00487 0.988665
0.999888 1.00331 0.991669
0.999781 1.00432 0.990923
0.999482 1.00483 0.990705
0.999763 1.00354 0.991753
0.999878 1.00259 0.99225
1.00009 1.00151 0.993033
1.00002 1.00223 0.992503
1.00015 1.00132 0.993144
1.00019 1.00007 0.994271
1.0002 1.00123 0.993162
1.00024 0.999982 0.994279
1.00001 0.998067 0.997042
1.00026 0.999969 0.994269
1.00008 0.998004 0.996752
0.999939 0.996765 0.998169
1.00014 0.997941 0.996454
0.999986 0.99668 0.998675
0.999995 0.996647 0.99921
1.00024 1.0014 0.992755
1.00019 0.999899 0.994279
1.00017 1.00129 0.993181
1.00016 0.997662 0.99671
1.00016 0.999752 0.994567
1.00009 1.00118 0.993244
1.00003 0.996386 0.999286
1.00016 0.997589 0.996791
1.00013 0.999652 0.994799
1.00003 0.99636 0.999292
1.00015 0.997573 0.996812
1.00002 0.996398 0.999289
0.994904 0.996879 0.939877
0.99487 0.997139 0.919555
0.999884 0.995899 0.927519
1.00037 1.00212 0.991952
0.994548 0.999031 0.942087
0.995356 1.00072 0.924636
0.99535 0.998643 0.909087
0.998405 0.997463 0.98059
0.999706 0.997706 0.956194
0.998472 0.998688 0.91924
0.994727 0.99973 0.904898
0.995696 0.999087 0.974276
0.997587 0.999162 0.955809
0.997362 0.999901 0.92542
0.994735 0.998434 0.911628
0.995052 0.999087 0.970497
0.995433 1.0008 0.955146
0.994839 0.999937 0.929172
0.994783 0.997347 0.916943
1.00022 1.00338 0.990941
1.00011 1.00327 0.991272
1.00009 1.00277 0.991897
1.00033 1.00261 0.991501
1.00033 1.00269 0.991499
1.0002 1.00253 0.991918
1.00031 1.00214 0.992167
1.00024 1.0021 0.992363
1.00056 0.999532 0.993987
1.00175 0.99777 0.99341
1 1.00382 0.990898
1.00069 1.00357 0.99043
1.00003 1.00512 0.990015
0.999868 1.00469 0.990344
1.00003 1.00423 0.990464
0.99859 0.998156 0.996066
0.999909 1.00505 0.989885
0.999995 1.00358 0.991132
0.998751 0.998605 0.998633
1.00004 1.00381 0.990757
0.99717 0.998776 0.996116
0.9972 0.999996 1.00066
0.999715 1.00452 0.990681
0.999983 1.00479 0.990166
0.994336 0.996455 0.9632
0.994672 0.998467 0.942216
0.994773 0.997918 0.919821
0.998 1.00236 0.996273
0.996342 1.00312 0.997592
0.995056 0.99712 0.941176
0.995687 1.00007 0.957303
0.994859 0.999105 0.978585
0.994983 0.999975 0.928566
0.994614 0.998756 0.938882
0.994748 0.997814 0.920179
0.99684 1.00286 0.997971
0.994405 0.995813 0.959547
0.994561 0.997243 0.946788
0.994957 1.0026 0.997587
0.994755 0.998466 0.911755
0.995249 0.999463 0.955092
0.995196 1 0.931151
0.995962 1.00342 0.998609
0.994436 0.994893 0.965502
0.994537 0.999085 0.942323
0.994757 0.999377 0.907548
0.995653 0.999951 0.928289
0.995248 0.999267 0.988298
0.995936 1.00107 0.948085
0.999071 1.0005 0.995855
0.997126 1.00257 0.997741
0.995749 1.00306 1.00028
1.00029 1.00215 0.991941
0.999484 1.0027 0.992937
0.998356 1.00237 0.995064
0.999498 1.00242 0.993202
0.997509 1.00277 0.996262
0.997842 1.00369 0.995022
0.999906 1.00184 0.993205
1.00005 1.00213 0.992438
0.999764 1.0023 0.993162
0.999313 1.00418 0.991384
0.999654 1.00213 0.993063
1.00016 1.00325 0.99081
1.001 1.00457 0.988321
1.00259 1.00369 0.986276
1.00038 1.00392 0.990566
1.00101 1.00453 0.988093
1.00163 1.00384 0.988395
1.00002 1.00498 0.989345
1.00095 1.00459 0.988379
0.999803 1.00408 0.990976
0.999981 1.00472 0.990173
1.00044 1.00483 0.988785
1.00004 1.00194 0.992679
0.999863 1.00329 0.991643
0.999741 1.00438 0.990829
0.999907 1.00256 0.992337
1.00011 1.00151 0.993023
1.00014 1.00022 0.994219
1.00016 1.00131 0.993142
1.0002 1.00006 0.994272
0.999964 0.99819 0.996529
1.00025 0.999979 0.99428
1.00004 0.998063 0.996523
0.999812 0.996871 0.999234
1.0001 0.99798 0.996487
0.999924 0.996772 0.998689
0.999947 0.996722 0.999214
1.00028 1.00148 0.992606
1.00023 1.00008 0.994005
1.00025 1.00141 0.992838
1.00015 0.997794 0.996587
1.00019 0.99991 0.994246
1.00018 1.0013 0.993181
1.00001 0.996475 0.999265
1.00016 0.997662 0.996716
1.00015 0.999764 0.994456
1.00003 0.996376 0.999288
1.00016 0.997589 0.996794
1.00003 0.996364 0.999292
0.994331 0.995812 0.960371
0.994813 0.997963 0.93967
0.994896 0.997813 0.919695
1.00034 1.00214 0.992015
1.00034 1.00206 0.992021
1.00037 1.00242 0.991717
0.994597 0.997289 0.942051
0.994612 0.99863 0.941932
0.995404 1.00121 0.924122
0.995214 0.9989 0.976576
0.998492 0.999918 0.948639
0.995242 0.999893 0.932005
0.994751 0.998775 0.90894
0.995259 0.998469 0.973612
0.996399 1.00002 0.953358
0.994796 0.999996 0.930741
0.99475 0.997534 0.918458
0.994898 0.998822 0.969841
0.995674 1.00005 0.956711
0.994847 1.00002 0.92858
0.994719 0.998582 0.915903
1.00035 1.00303 0.991073
1.00023 1.00335 0.990946
1.00012 1.0033 0.991208
1.00035 1.00262 0.991484
1.00032 1.00267 0.991595
1.00034 1.00213 0.992182
0.998449 0.998721 0.996488
0.998574 0.998321 0.998641
1.00008 1.00417 0.990499
1.00039 1.00299 0.991186
0.999899 1.00506 0.989946
1.00012 1.00381 0.990649
0.999854 1.00479 0.990169
0.99712 0.998341 0.99648
0.999651 1.00421 0.991273
0.996909 1.00043 1.00039
1 1.00374 0.991101
0.995714 0.998112 0.996945
0.99703 1.00278 0.997839
0.999166 1.00483 0.991679
0.994323 0.995959 0.970526
0.994374 0.996145 0.965046
0.994646 0.998691 0.942875
0.997061 1.00286 0.997824
0.995457 1.00242 0.995185
0.994455 0.995943 0.95948
0.995085 0.999462 0.959451
0.994859 0.999991 0.925517
0.994534 0.997099 0.951279
0.994767 0.998831 0.909161
0.995799 1.00388 0.998912
0.994355 0.994844 0.96713
0.994604 0.998617 0.942177
0.994924 0.999517 0.98408
0.994742 0.999536 0.903685
0.994806 0.999962 0.929952
0.995549 1.00089 0.955533
0.994916 1.00333 0.999108
0.994328 0.995437 0.960916
0.995249 1.00041 0.925762
0.994642 0.998122 0.907039
0.996006 0.998897 0.922409
0.996209 1.00006 0.955495
0.995719 1.00034 0.978057
0.997302 1.00297 0.997306
0.995968 1.00228 1.00026
0.996472 1.00313 0.998518
0.999553 1.00237 0.993177
0.997462 1.00272 0.996217
0.997388 1.00405 0.995269
0.999089 1.00325 0.993441
0.99994 1.00242 0.993082
1.00004 1.00401 0.990999
1.00091 1.00496 0.988057
0.999951 1.00313 0.991174
1.0011 1.00453 0.98818
1.00288 1.00451 0.985579
1.00426 1.00262 0.984323
1.00214 1.00342 0.987019
1.00258 1.00394 0.98614
1.0012 1.0046 0.98787
1.0012 1.00384 0.989095
1.00136 1.00356 0.988861
0.999865 1.00478 0.989907
1.00011 1.00499 0.989454
1.00099 1.00449 0.988589
0.999966 1.0028 0.991946
0.999894 1.00399 0.990982
1.00001 1.00468 0.990151
1.00007 1.00051 0.994048
1.00007 1.00193 0.992666
0.999838 1.00327 0.991617
1.00013 1.00151 0.993014
1.00014 1.00022 0.994217
0.999877 0.99837 0.996501
1.00021 1.00005 0.994272
0.999967 0.998186 0.996528
0.999745 0.997029 0.999227
1.00004 0.998052 0.99652
0.999841 0.996895 0.998705
0.999885 0.996815 0.999222
1.00034 1.00151 0.992609
1.00028 1.00022 0.993956
1.0003 1.00147 0.99265
1.00014 0.997961 0.996443
1.00024 1.00008 0.99408
1.00026 1.00142 0.992921
0.999973 0.996614 0.999236
1.00015 0.99779 0.996595
1.0002 0.999917 0.994212
1.00001 0.996455 0.999272
1.00015 0.997663 0.996722
1.00003 0.996369 0.999291
0.994351 0.994811 0.965393
0.99442 0.995427 0.960304
0.994736 0.998414 0.939564
1.00026 1.00218 0.992023
1.00016 1.00271 0.991775
1.00031 1.00215 0.992078
1.00032 1.00209 0.992028
1.00033 1.00246 0.99169
1.00026 1.00238 0.991905
1.00043 1.00248 0.991558
0.994545 0.998105 0.939153
0.994531 0.997287 0.946598
0.994676 0.998121 0.941779
0.994739 0.997655 0.919968
0.994864 0.998942 0.970809
0.995358 1.00004 0.952515
0.994845 0.99998 0.933361
0.995007 0.998993 0.969192
0.995093 1.00004 0.951195
0.995024 0.99999 0.932356
0.994725 0.998417 0.919872
0.995888 0.997307 0.973088
0.995109 1.00043 0.950205
0.994783 0.99994 0.925307
0.994759 0.999567 0.908259
1.00002 1.00305 0.991657
1.00033 1.00303 0.991086
1.00024 1.00333 0.990951
1.00037 1.00262 0.991466
0.997215 0.998325 0.996844
0.996828 1.0008 1.00012
1.00011 1.00388 0.990541
0.999924 1.00469 0.990171
0.999746 1.00392 0.99187
0.999932 1.00371 0.991104
0.999078 1.00489 0.991641
0.995635 0.999097 0.9945
0.996636 1.00349 0.99818
0.998864 1.00397 0.992645
0.995427 0.999159 0.993214
0.997564 1.00477 0.996232
0.994341 0.995771 0.964118
0.994174 0.995395 0.972728
0.994379 0.995818 0.966889
0.995507 1.00434 0.999147
0.995177 0.998299 0.989277
0.994243 0.994805 0.968777
0.996594 1.00105 0.948643
0.99522 0.999949 0.932345
0.994672 0.998121 0.942028
0.994719 0.999702 0.905266
0.995128 1.00204 0.999473
0.994402 0.995206 0.960861
0.995386 1.00052 0.925235
0.994888 1.00091 0.980111
0.994647 0.998104 0.899521
0.997349 0.999891 0.925134
0.994965 1.00002 0.950631
0.995448 1.00367 0.994335
0.994976 0.996183 0.94082
0.995155 0.997936 0.909766
0.998583 0.997335 0.927312
0.995652 0.999985 0.95626
0.994896 0.999488 0.973029
0.996314 1.00124 1.00015
0.996101 1.00384 0.998505
0.998492 0.999729 0.998325
0.996978 1.00427 0.995515
0.998274 1.00345 0.993837
1.00236 1.0007 0.989949
1.00078 1.00383 0.99061
1.0012 1.00494 0.987913
1.0027 1.0032 0.985923
1.00121 1.00451 0.98804
1.00282 1.00459 0.985381
1.00415 1.00264 0.984462
1.00504 1.00075 0.984587
1.00437 1.00289 0.984582
1.00444 1.0026 0.984074
1.00171 1.00336 0.987808
1.00213 1.00345 0.987296
1.00258 1.00424 0.986003
1.0008 1.00449 0.988946
1.00111 1.00379 0.989097
1.00108 1.00331 0.989325
1.00001 1.00381 0.99084
0.999923 1.00472 0.990026
1.00022 1.00499 0.989564
0.999984 1.00112 0.993557
1.00003 1.00272 0.991941
0.999976 1.00389 0.990989
0.999788 0.998583 0.996445
1.00007 1.00053 0.994037
1.0001 1.00193 0.992654
1.00015 1.00021 0.994216
0.99988 0.998375 0.996498
0.999651 0.997217 0.999219
0.999971 0.998183 0.996527
0.999734 0.997063 0.999225
0.99981 0.996931 0.999227
1.00025 1.00228 0.991997
1.00037 1.00158 0.9925
1.00031 1.00037 0.993753
1.00034 1.00152 0.992599
1.00011 0.998165 0.996291
1.00028 1.00024 0.993953
1.00029 1.00151 0.992693
0.999926 0.996786 0.999201
1.00013 0.99796 0.996452
1.00024 1.00009 0.994154
0.999979 0.996582 0.999244
1.00015 0.997788 0.996603
1.00002 0.99643 0.999279
0.99438 0.994859 0.960205
0.994294 0.994817 0.967044
0.994507 0.995143 0.960231
1.0003 1.00213 0.992047
1.00012 1.00275 0.991735
1.00005 1.00309 0.991502
1.00013 1.00262 0.991778
1.00015 1.00312 0.991452
1.00031 1.00211 0.992036
1.00029 1.0025 0.991662
1.00026 1.00237 0.991901
1.00039 1.0025 0.99157
1.00014 1.00262 0.991955
0.995034 1.00015 0.925538
0.9946 0.998285 0.939017
0.994472 0.997358 0.95114
0.994762 0.998252 0.919943
0.994858 1 0.926058
0.9949 0.999126 0.967852
0.994971 1.00016 0.956248
0.995158 0.997535 0.969753
0.995458 1.00025 0.956252
0.994927 0.999965 0.930625
0.994945 0.999471 0.906088
0.995533 0.995481 0.974429
0.995028 1.00029 0.956978
0.995479 0.999882 0.931634
0.994963 0.998181 0.905969
0.999163 1.00222 0.993868
0.999982 1.00314 0.99171
1.00032 1.00304 0.991098
0.995468 0.999724 0.992034
0.996208 1.00402 0.998478
0.999904 1.00371 0.991108
0.998752 1.00504 0.991602
0.998871 1.004 0.992675
0.997105 1.00429 0.996148
0.995075 0.999547 0.993468
0.997131 1.00309 0.996503
0.995885 1.00098 0.992824
0.994733 0.997832 0.941696
0.994301 0.995525 0.965898
0.994033 0.994911 0.974932
0.995277 1.00091 0.999903
0.994902 1.00078 0.975611
0.994475 0.995047 0.960797
0.996996 1.00031 0.953169
0.995188 0.999913 0.931685
0.995443 1.00096 0.924724
0.994662 0.998141 0.891977
0.995482 1.00363 0.994658
0.994885 0.997357 0.940599
0.995254 0.998291 0.907499
0.994915 0.999491 0.974188
0.998574 0.998631 0.927421
0.996315 0.999994 0.952517
0.996457 1.00048 0.992488
0.994895 0.996729 0.917994
0.999188 0.997243 0.929739
0.997863 0.998502 0.950783
0.994849 0.998383 0.975206
0.995795 1.00447 0.998471
0.99835 0.999759 0.998283
1.00289 0.998086 0.99312
0.997517 1.00351 0.994198
1.00149 1.0011 0.990451
1.00377 0.998557 0.988374
1.0015 1.00486 0.987767
1.00277 1.0033 0.985976
1.00441 1.0001 0.986235
1.00278 1.00463 0.985184
1.00407 1.00255 0.984538
1.00505 0.999532 0.985788
1.00508 0.999362 0.985963
1.00501 1.00144 0.984142
1.00504 1.00072 0.984642
1.00355 1.00307 0.985421
1.00409 1.00286 0.984439
1.00461 1.00258 0.983825
1.0015 1.00387 0.988169
1.00163 1.00333 0.98814
1.00212 1.00349 0.987573
1.00055 1.00396 0.989742
1.00068 1.00446 0.989044
1.00101 1.00375 0.989098
0.99995 1.00214 0.992572
1.00008 1.00375 0.990847
0.999983 1.00467 0.990145
0.99969 0.998928 0.996791
0.999999 1.00114 0.993536
1.00009 1.00264 0.991936
0.999568 0.997462 0.998129
0.999786 0.998626 0.996684
1.00007 1.00054 0.994026
0.999882 0.998382 0.996495
0.999641 0.997258 0.999215
0.999724 0.997094 0.999223
1.00018 1.00264 0.991712
1.00035 1.00178 0.992343
1.00022 1.00234 0.991964
1.00031 1.00053 0.993606
1.00034 1.00162 0.992496
1.00006 0.998372 0.99616
1.00031 1.00039 0.993751
1.00036 1.00152 0.99259
0.999869 0.99699 0.999164
1.0001 0.998162 0.996299
1.00027 1.00025 0.99395
0.999933 0.996751 0.999212
1.00013 0.997959 0.996461
0.999985 0.996554 0.999253
0.995143 0.996255 0.942702
0.994381 0.995034 0.960146
0.994222 0.994798 0.968707
1.00012 1.00306 0.991473
1.0003 1.00215 0.992071
1.0001 1.00279 0.991695
1.00017 1.00263 0.99181
1.00012 1.00302 0.991546
1.0001 1.00312 0.991444
1.00009 1.00347 0.991116
0.999977 1.00318 0.991404
1.00028 1.00234 0.991897
1.00034 1.00251 0.991583
1.0001 1.00267 0.991905
0.999564 1.00306 0.99283
0.995074 0.998986 0.908173
0.995328 1.00031 0.92492
0.994623 0.998496 0.938888
0.995167 0.999366 0.909482
0.994878 0.999945 0.930223
0.995059 1.00045 0.95039
0.995887 0.997563 0.967554
0.995601 0.995346 0.976285
0.994797 0.998159 0.898785
0.99544 1.00003 0.953122
0.997305 0.999896 0.924912
0.995236 0.996771 0.977035
0.995695 1.00003 0.957937
0.999031 0.997598 0.92486
0.999066 1.00086 0.995483
0.999347 1.00214 0.993842
0.999928 1.00323 0.991764
0.994909 0.999532 0.993698
0.996991 1.00373 0.996064
0.998958 1.00388 0.992704
0.998119 1.00271 0.996275
0.995551 1.00127 0.992975
0.997497 1.00091 0.993734
0.994775 0.999265 0.916421
0.994686 0.996951 0.946042
0.994251 0.995188 0.967679
0.99541 1.00432 0.995014
0.994912 0.999343 0.97493
0.994772 0.997926 0.940458
0.99526 1.00003 0.95183
0.998579 0.997378 0.920581
0.995466 0.998282 0.909941
0.996569 1.0008 0.992522
0.99495 0.996755 0.920457
0.999846 0.996432 0.923828
0.994865 0.998497 0.971248
0.997545 0.998635 0.956974
0.99824 0.998856 0.99426
0.999855 0.995738 0.923643
0.999315 0.997746 0.956516
0.994886 0.997978 0.970724
0.998157 0.999973 0.998301
1.00216 0.997505 0.993774
1.00392 0.997769 0.990508
1.00068 1.0015 0.990956
1.0036 0.999149 0.988287
1.00481 0.997366 0.988072
1.00282 1.00345 0.98603
1.00424 1.00029 0.986239
1.00496 0.997793 0.987699
1.00397 1.00248 0.984613
1.00505 0.999468 0.985778
1.0051 0.997642 0.987613
1.00515 0.998081 0.987124
1.00512 1.00018 0.985166
1.00508 0.999296 0.985983
1.00468 1.00143 0.984607
1.00491 1.00135 0.984291
1.00504 1.00068 0.984696
1.0026 1.00343 0.986585
1.00327 1.00306 0.985588
1.00383 1.00281 0.984295
1.00133 1.00344 0.988872
1.00157 1.00381 0.98814
1.00156 1.00327 0.988473
1.00022 1.00286 0.991418
1.00059 1.00395 0.989753
1.00056 1.00442 0.989143
0.999636 0.999452 0.995795
1.00003 1.00206 0.992551
1.00015 1.00368 0.990853
0.999447 0.997711 0.999184
0.99969 0.998997 0.996218
1.00002 1.00115 0.993514
0.999554 0.997459 0.999199
0.999783 0.998651 0.996412
0.999633 0.997303 0.99921
1.00027 1.00277 0.991515
1.00021 1.00264 0.991699
1.00032 1.00208 0.992088
1.00026 1.00074 0.99348
1.00032 1.00181 0.992345
1.00022 1.00235 0.991931
1 0.998565 0.996076
1.0003 1.00054 0.993607
1.00033 1.00164 0.992492
0.999803 0.997191 0.999133
1.00006 0.998367 0.996166
1.0003 1.0004 0.99375
0.999876 0.996947 0.999175
1.0001 0.998158 0.996308
0.99994 0.996712 0.999222
0.995116 0.998482 0.911019
0.995073 0.996372 0.942512
0.994417 0.995173 0.960083
1.00003 1.00319 0.991431
1.00037 1.00335 0.991001
1 1.00355 0.991145
1.00019 1.00264 0.991842
1.00018 1.00294 0.991589
1.00001 1.00317 0.991436
1.00006 1.00315 0.991385
1.00005 1.0035 0.991105
0.999976 1.00399 0.990856
1.00011 1.00145 0.992846
1.00016 1.0026 0.991854
0.999611 1.0028 0.992719
0.999829 0.99657 0.921274
0.995062 0.99897 0.904385
0.995567 1.00047 0.924333
0.994656 0.998148 0.891562
0.996462 0.998795 0.931095
0.99518 1.00002 0.95369
0.995681 0.99517 0.97384
0.995033 0.997078 0.975351
0.998546 0.998528 0.92652
0.996355 0.999996 0.952093
0.995497 0.998191 0.976344
0.999101 0.998091 0.950348
1.00183 0.998924 0.992971
0.999303 1.00078 0.995247
0.999481 1.00204 0.993828
0.994936 1.00176 0.993096
0.998832 1.00243 0.996041
0.997861 1.00112 0.993169
1.00066 0.998654 0.990139
0.999925 0.994848 0.928404
0.99481 0.998593 0.918138
0.994662 0.996355 0.950312
0.996694 1.0009 0.992649
0.994868 0.99855 0.970155
0.995027 0.997301 0.920583
0.998014 0.997958 0.950158
0.999875 0.997142 0.9306
0.998081 0.998925 0.992449
0.999904 0.995456 0.92714
1.00125 0.996759 0.949143
0.994971 0.997594 0.973757
0.999245 0.996335 0.993977
1.00007 0.996404 0.955456
0.995755 0.99847 0.976215
1.00145 0.996868 0.994405
1.00383 0.997124 0.990482
1.00503 0.996378 0.989461
1.00332 0.999754 0.988201
1.00464 0.997438 0.988061
1.00484 0.996478 0.988983
1.00412 1.00043 0.986246
1.00485 0.997877 0.987661
1.00508 0.99606 0.989087
1.00505 0.999413 0.985768
1.0051 0.997602 0.987613
1.00514 0.996455 0.988754
1.00514 0.997341 0.988024
1.00514 0.997939 0.987273
1.00515 0.998935 0.98643
1.00514 1.00027 0.985173
1.00512 1.00021 0.985151
1.00508 0.999235 0.986002
1.00406 1.00183 0.985356
1.00465 1.00143 0.984684
1.00479 1.00126 0.98444
1.00208 1.00325 0.987736
1.00267 1.00338 0.986557
1.00299 1.00308 0.985754
1.00069 1.00284 0.990583
1.00142 1.0034 0.988851
1.00164 1.00377 0.98811
0.999678 1.00017 0.994987
1.0003 1.00274 0.991417
1.00067 1.00391 0.989763
0.999442 0.997966 0.999094
0.999632 0.999549 0.995752
1.00011 1.002 0.992531
0.999479 0.997736 0.998616
0.999687 0.999043 0.9962
0.999552 0.997532 0.999186
1.00037 1.00291 0.9912
1.00017 1.00286 0.991518
1.00022 1.00252 0.991773
1.00025 1.00264 0.991686
1.00027 1.00213 0.992088
1.0002 1.00104 0.993282
0.99992 0.998763 0.996029
1.00026 1.00074 0.993485
1.00027 1.00186 0.992347
0.99973 0.997376 0.999113
1 0.99856 0.99608
1.0003 1.00054 0.993608
0.99981 0.997157 0.999142
1.00006 0.998366 0.996173
0.999883 0.996907 0.999187
0.999905 0.995177 0.928635
0.995057 0.998657 0.911763
0.994982 0.996489 0.942308
0.999941 1.00334 0.99139
0.99995 1.00376 0.991007
1.0002 1.00333 0.991175
1.00097 1.00348 0.989738
0.999952 1.00421 0.99068
1.00012 1.00318 0.991366
1.00004 1.00352 0.991093
0.999909 1.00383 0.99098
1.00008 1.00379 0.990014
1.00063 1.00153 0.992078
1.00396 0.999659 0.98795
0.999875 1.00162 0.993181
0.999762 1.00249 0.992605
1.00048 0.996893 0.954813
0.999815 0.996699 0.923882
0.995072 0.998769 0.905475
0.99891 0.998302 0.919278
0.995729 0.999977 0.954968
0.99522 0.997059 0.977483
0.99522 0.998081 0.978422
0.997481 0.998429 0.958081
0.996575 0.998615 0.976785
1.00381 0.99656 0.991297
1.00143 0.999026 0.993007
0.999543 1.00075 0.995
0.998289 1.00116 0.992655
1.0015 0.999395 0.988813
1.00025 0.994992 0.952428
0.999931 0.994889 0.931297
0.994841 0.997518 0.919938
0.997823 0.999079 0.990619
0.994857 0.997407 0.971001
0.999883 0.995742 0.928034
0.999755 0.997674 0.956505
0.998875 0.99768 0.994318
1.00143 0.995923 0.954938
0.99592 0.998203 0.973042
1.00077 0.998632 0.992032
0.999381 0.996669 0.981016
1.00369 0.996449 0.990485
1.00502 0.995937 0.989329
1.00505 0.995335 0.99007
1.0045 0.997554 0.988048
1.00477 0.996469 0.988969
1.00506 0.995149 0.989983
1.00473 0.997948 0.987623
1.00507 0.996072 0.989065
1.00513 0.995336 0.989772
1.0051 0.99756 0.987612
1.00513 0.996472 0.988717
1.00512 0.996436 0.988996
1.00515 0.997155 0.98814
1.00516 0.998076 0.987295
1.00514 0.997797 0.987423
1.00515 0.998937 0.986416
1.00514 0.999496 0.985918
1.00489 1.00027 0.985517
1.00514 1.00029 0.985154
1.00512 1.00023 0.985136
1.00321 1.00231 0.986681
1.00408 1.00187 0.985347
1.00461 1.00143 0.984762
1.00119 1.0027 0.989782
1.00214 1.00321 0.987707
1.00275 1.00334 0.986528
0.999868 1.0007 0.9941
1.00074 1.0028 0.990584
1.00146 1.00339 0.98883
0.999478 0.99833 0.998928
0.999701 1.00021 0.994958
1.00039 1.00262 0.991417
0.999474 0.998027 0.999048
0.999632 0.999637 0.995708
0.999503 0.997774 0.999132
1.00103 1.00309 0.989826
1.0004 1.00283 0.991189
1.00027 1.00285 0.991284
1.00009 1.00291 0.991522
1.0002 1.00259 0.991716
1.00015 1.00151 0.99288
1.00024 1.00216 0.992089
1.00019 1.00103 0.993291
0.999823 0.999001 0.995968
0.999654 0.997551 0.9991
0.99992 0.99875 0.996033
1.00025 1.00073 0.99349
0.999737 0.997353 0.999119
0.999998 0.998557 0.996085
0.999817 0.997117 0.999151
1.00102 0.994988 0.958062
0.999918 0.995786 0.927137
0.994992 0.99902 0.909705
0.999893 1.00397 0.99087
1.00006 1.00326 0.991348
1 1.00418 0.990729
1.00087 1.00344 0.989833
1.00156 1.00396 0.988093
1.00023 1.00392 0.990065
0.999838 1.00371 0.991104
1.00044 1.00386 0.989682
1.0005 1.00193 0.991847
1.00193 1.00134 0.989159
1.00394 0.999355 0.988895
1.00457 0.997748 0.988257
1.00343 0.999576 0.988638
0.999499 1.00198 0.993518
0.995689 0.998264 0.975807
1.00061 0.99616 0.953491
0.999253 0.996989 0.930345
0.998841 0.998827 0.950322
0.994917 0.99818 0.979642
0.996787 0.998529 0.981264
1.00075 0.998279 0.992273
1.00378 0.996366 0.991569
1.00131 0.999052 0.993045
1.00273 1.00022 0.987432
0.997764 0.996564 0.977207
1.00062 0.99504 0.959846
0.999878 0.995067 0.925187
0.99864 0.998471 0.99457
0.995829 0.997656 0.975205
1.00085 0.996255 0.954238
1.00078 0.998514 0.992169
0.998694 0.996948 0.980002
1.00342 0.998283 0.990667
1.00384 0.996673 0.98936
1.005 0.995533 0.989177
1.00504 0.995278 0.99001
1.00508 0.994833 0.990527
1.00471 0.99647 0.988956
1.00506 0.995196 0.989947
1.00508 0.995051 0.990278
1.00507 0.996098 0.989043
1.00514 0.995415 0.989745
1.00513 0.995909 0.989539
1.00513 0.996489 0.988679
1.00512 0.996432 0.9889
1.00515 0.997356 0.987942
1.00515 0.996974 0.988255
1.00516 0.997955 0.987443
1.00515 0.999021 0.986434
1.00515 0.998943 0.986403
1.00514 0.999562 0.985889
1.00495 0.999748 0.986071
1.00419 1.00063 0.986391
1.00489 1.00034 0.985525
1.00513 1.00033 0.985135
1.00203 1.00216 0.988857
1.00318 1.00227 0.986696
1.00409 1.00191 0.985338
1.00004 1.00117 0.993292
1.00124 1.00272 0.989764
1.00219 1.00317 0.987678
0.999565 0.998778 0.998679
0.999919 1.00069 0.99409
1.0008 1.00275 0.990583
0.999531 0.998427 0.998843
0.999719 1.00026 0.994929
0.999517 0.998093 0.998992
1.00157 1.00363 0.988342
1.00109 1.00308 0.989865
1.00074 1.00298 0.990403
1.0004 1.00279 0.991179
1.00032 1.00286 0.991199
1.00025 1.00197 0.992276
1.00017 1.00266 0.991659
1.00015 1.00151 0.992889
0.999732 0.999342 0.995791
1.00019 1.00103 0.993299
0.99983 0.998965 0.995978
0.999588 0.997721 0.999083
0.999661 0.997532 0.999104
0.999921 0.998737 0.996038
0.999743 0.997324 0.999124
0.996843 0.996963 0.977547
1.00079 0.995306 0.951398
0.999867 0.994917 0.931726
1.00325 1.00262 0.986507
1.00006 1.00414 0.990778
1.00077 1.00342 0.989928
1.00039 1.00398 0.989944
1.00146 1.00408 0.988038
1.00184 1.00187 0.989245
1.00079 1.00392 0.989352
1.00043 1.00228 0.991617
1.00216 1.0013 0.98933
1.00395 0.999248 0.988553
1.00472 0.99836 0.987392
1.00428 0.996594 0.990113
1.00451 0.997826 0.987934
1.00289 0.999403 0.989327
0.999974 0.998633 0.993825
0.996207 0.998419 0.974156
1.00037 0.996351 0.952625
0.996908 0.998201 0.979038
1.00078 0.997294 0.994323
1.00329 0.996255 0.991822
1.0018 0.996075 0.98944
0.997047 0.99574 0.979294
1.00025 0.994936 0.95259
1.00057 0.998845 0.992331
0.998798 0.997049 0.978715
1.00328 0.997437 0.990897
1.00377 0.996247 0.98948
1.00491 0.995111 0.990781
1.00476 0.99656 0.990785
1.00507 0.995205 0.989955
1.00505 0.994864 0.990471
1.00507 0.994882 0.990465
1.00505 0.995231 0.98991
1.00508 0.99504 0.990276
1.00511 0.995488 0.989892
1.00515 0.995494 0.989717
1.00513 0.995887 0.989472
1.00513 0.996998 0.988351
1.00512 0.996425 0.988804
1.00515 0.997371 0.987947
1.00517 0.998535 0.986791
1.00515 0.997833 0.987591
1.00515 0.998932 0.986523
1.00499 0.999518 0.986152
1.00514 0.999621 0.985859
1.00496 0.999765 0.985989
1.00442 0.999974 0.986741
1.00291 1.00102 0.988432
1.00413 1.0007 0.986458
1.00489 1.00038 0.985532
1.0004 1.00128 0.992546
1.00202 1.00217 0.988858
1.00316 1.00224 0.98671
0.999593 0.999266 0.998431
1.00018 1.00103 0.993272
1.00128 1.00273 0.989747
0.999604 0.998869 0.998589
0.999979 1.00065 0.994079
0.999588 0.998505 0.998751
1.00272 1.00307 0.986649
1.00153 1.00363 0.98837
1.00135 1.00319 0.989244
1.00115 1.00307 0.989903
1.00077 1.00295 0.990419
1.0004 1.0024 0.991602
1.00036 1.00286 0.991114
1.00017 1.00208 0.992275
0.999685 0.999819 0.995391
1.00012 1.00152 0.992897
0.999745 0.999276 0.995812
0.999548 0.997914 0.999032
0.999837 0.998932 0.995988
0.99959 0.9977 0.99909
0.999666 0.997513 0.999108
1.00104 0.997238 0.99209
0.997245 0.996374 0.973917
1.00012 0.995148 0.958897
1.00334 1.00069 0.987584
1.0049 0.999119 0.986655
1.00304 1.0024 0.986716
1.00053 1.00404 0.989822
1.00137 1.00417 0.987971
1.00217 1.00176 0.98904
1.00483 0.998592 0.98758
1.00235 1.00127 0.989499
1.00386 0.999149 0.988207
1.00465 0.998375 0.987622
1.00504 0.99726 0.988099
1.00452 0.995723 0.990441
1.00436 0.996656 0.989822
1.00458 0.997858 0.987613
1.00017 0.998695 0.993956
0.996157 0.998539 0.972036
1.00095 0.996591 0.996404
1.00456 0.995123 0.991914
1.00153 0.99644 0.989588
0.99745 0.99526 0.976594
1.00333 0.996792 0.99111
1.00372 0.996313 0.989618
1.00491 0.995071 0.990961
1.00483 0.995922 0.990631
1.00509 0.994945 0.990292
1.0051 0.995041 0.990272
1.00502 0.994917 0.990412
1.00503 0.994898 0.990458
1.00514 0.995316 0.989901
1.00508 0.995024 0.990274
1.00511 0.995559 0.98977
1.00514 0.996516 0.988781
1.00514 0.995864 0.989406
1.00513 0.997013 0.988358
1.00519 0.998243 0.98708
1.00514 0.997387 0.987952
1.00517 0.998538 0.986807
1.00505 0.999344 0.986211
1.00515 0.99884 0.986611
1.00499 0.999493 0.986166
1.00451 0.999879 0.98669
1.00496 0.99979 0.985907
1.00441 0.999983 0.986671
1.00329 1.00027 0.988486
1.00081 1.0009 0.992137
1.00288 1.00104 0.98844
1.00407 1.00077 0.986525
0.999601 0.999795 0.998201
1.00049 1.00121 0.992522
1.002 1.00222 0.98886
0.999629 0.999389 0.998348
1.00029 1.00095 0.993249
0.999644 0.998964 0.998505
1.00417 1.00069 0.986138
1.00273 1.00295 0.986596
1.00224 1.00298 0.987728
1.0015 1.00362 0.988397
1.00127 1.0032 0.989278
1.00073 1.00272 0.990771
1.00079 1.00292 0.990435
1.00033 1.00249 0.991604
0.999765 1.00034 0.994751
1.00012 1.00216 0.992275
0.999695 0.99975 0.995415
0.999541 0.998201 0.998906
0.999758 0.999213 0.995834
0.99954 0.997884 0.999053
0.999593 0.997684 0.999096
1.00467 0.995076 0.991173
1.00112 0.996812 0.990852
0.996612 0.995865 0.974556
1.0051 0.99825 0.98723
1.00315 1.00024 0.988353
1.00516 0.998539 0.986841
1.00489 0.999319 0.986602
1.00279 1.00221 0.986938
1.00509 0.997746 0.987509
1.00248 1.00161 0.988844
1.00489 0.99861 0.987295
1.00514 0.996432 0.988647
1.00462 0.998425 0.987853
1.00498 0.997313 0.988075
1.00456 0.995829 0.990548
1.00429 0.996826 0.989518
1.00017 0.998717 0.994097
1.00511 0.995176 0.989903
1.00457 0.9956 0.991975
1.0013 0.996531 0.989713
1.00492 0.994919 0.991147
1.00484 0.995257 0.990481
1.00509 0.99494 0.990356
1.00512 0.994998 0.990248
1.00516 0.995185 0.990084
1.00501 0.994919 0.990452
1.00514 0.995344 0.989917
1.00518 0.99622 0.989029
1.00511 0.995633 0.989647
1.00513 0.996625 0.988681
1.00518 0.998034 0.987302
1.00513 0.997028 0.988364
1.00518 0.998253 0.987089
1.00512 0.999218 0.98624
1.00516 0.998541 0.986822
1.00505 0.999342 0.986227
1.00462 0.999814 0.986565
1.005 0.999468 0.98618
1.0045 0.999887 0.986699
1.0034 1.00008 0.988476
1.0044 0.99999 0.9866
1.00328 1.00028 0.988476
1.00097 1.00048 0.993473
0.999815 0.999981 0.995546
1.00087 1.00085 0.992769
1.00284 1.00108 0.988448
0.999663 0.999906 0.998116
1.00062 1.00107 0.992504
0.999671 0.999487 0.998255
1.00519 0.998552 0.986865
1.00491 0.999269 0.986473
1.00422 1.00072 0.986171
1.00335 1.00175 0.986843
1.00273 1.00283 0.986544
1.0022 1.00303 0.98774
1.00134 1.00263 0.989724
1.0012 1.00322 0.989312
1.00065 1.00274 0.990795
0.999979 1.00082 0.99393
1.00026 1.00258 0.991606
0.999735 1.00032 0.994764
0.999538 0.998635 0.998696
0.999705 0.99968 0.995438
0.999518 0.998142 0.998956
0.999536 0.997858 0.999071
1.00516 0.995653 0.989393
1.00485 0.995081 0.991486
1.00146 0.996293 0.989623
1.00514 0.997984 0.987269
1.00494 0.99833 0.987354
1.00303 0.999816 0.989098
1.00516 0.998592 0.986826
1.00489 0.999507 0.98655
1.00511 0.996661 0.98885
1.00508 0.997754 0.987436
1.00497 0.998642 0.987007
1.00512 0.996423 0.988661
1.00497 0.99734 0.988051
1.00465 0.995926 0.990676
1.00513 0.995264 0.99019
1.00513 0.995212 0.990032
1.00459 0.996058 0.992041
1.0051 0.994923 0.990416
1.00513 0.994986 0.990223
1.00517 0.995084 0.990133
1.00516 0.996354 0.989045
1.00514 0.995369 0.989932
1.00518 0.996262 0.988994
1.00516 0.997844 0.987537
1.00513 0.996732 0.98858
1.00519 0.998038 0.987301
1.00516 0.999109 0.986301
1.00517 0.998263 0.987098
1.00511 0.999216 0.986253
1.00472 0.99978 0.986407
1.00505 0.99934 0.986243
1.00461 0.999814 0.986572
1.0035 1.00006 0.988311
1.00449 0.999895 0.986708
1.0034 1.00008 0.988468
1.00107 1.00014 0.993654
1.00327 1.0003 0.988466
1.0011 1.00039 0.993442
0.999833 1.00005 0.995633
0.999713 1.0002 0.996749
1.00101 1.00077 0.993297
0.999712 1.00003 0.998035
1.00518 0.998294 0.987078
1.00509 0.998929 0.98671
1.00519 0.998442 0.986884
1.00424 1.00023 0.986741
1.00494 0.999253 0.986471
1.00426 1.00076 0.986204
1.00339 1.00177 0.986814
1.00221 1.00187 0.988817
1.00216 1.00308 0.987753
1.0013 1.00261 0.989744
1.00026 1.0012 0.993061
1.00057 1.00277 0.990818
0.999872 1.0009 0.993947
0.999509 0.999247 0.998434
0.9997 1.00032 0.994777
0.999515 0.998542 0.998777
0.999506 0.998085 0.998999
1.0051 0.995906 0.98944
1.00515 0.995674 0.989387
1.00495 0.995073 0.991768
1.00513 0.997339 0.988068
1.00513 0.997981 0.987284
1.00477 0.998416 0.987484
1.00516 0.998654 0.986811
1.00511 0.996654 0.988724
1.00507 0.997767 0.987362
1.0051 0.996419 0.988674
1.00517 0.996179 0.989245
1.00513 0.995333 0.990055
1.00516 0.995218 0.99016
1.00512 0.996873 0.988501
1.00517 0.994982 0.990182
1.00516 0.996344 0.98902
1.00513 0.997643 0.987935
1.00519 0.996306 0.988958
1.00517 0.99784 0.987538
1.00516 0.998971 0.986441
1.00519 0.998046 0.987301
1.00515 0.999109 0.986311
1.00481 0.999744 0.98628
1.0051 0.999214 0.986266
1.00472 0.999774 0.986414
1.00362 1.00007 0.988101
1.0046 0.999814 0.986579
1.00351 1.00005 0.98831
1.00117 1.00002 0.993644
1.00341 1.00007 0.988459
1.00117 1.0001 0.993593
0.999845 0.999956 0.99573
1.00122 1.00029 0.993419
0.999622 1.00021 0.995745
0.999415 1.00046 0.998174
1.00517 0.998265 0.987069
1.00513 0.998867 0.986615
1.00519 0.998316 0.986998
1.00459 0.999594 0.987093
1.00506 0.998803 0.986723
1.00519 0.99833 0.986903
1.00304 1.00071 0.988424
1.00427 1.00023 0.986719
1.00496 0.999233 0.986468
1.00343 1.00178 0.986784
1.00223 1.00183 0.988816
1.00059 1.0012 0.992408
1.00126 1.00259 0.989765
1.00013 1.00131 0.99309
0.9995 0.999937 0.998176
0.999781 1.00098 0.993962
0.999489 0.999113 0.998535
0.999497 0.998439 0.998849
1.00514 0.996724 0.98858
1.00511 0.995806 0.989474
1.00514 0.995715 0.989382
1.00513 0.997281 0.988113
1.00513 0.99797 0.987299
1.00511 0.996647 0.988598
1.00514 0.996955 0.988533
1.00516 0.996256 0.989166
1.00513 0.995401 0.98992
1.00512 0.996876 0.988595
1.00511 0.997741 0.98778
1.00516 0.996335 0.988995
1.00513 0.997737 0.987763
1.00514 0.998693 0.986799
1.00517 0.997832 0.987539
1.00515 0.998964 0.986449
1.00488 0.999661 0.986238
1.00514 0.999102 0.986321
1.00481 0.999741 0.98629
1.00373 1.00005 0.987902
1.00472 0.999769 0.986421
1.00362 1.00005 0.988103
1.00125 1.00005 0.993462
1.00352 1.00003 0.988308
1.00126 0.999981 0.993556
0.999912 0.999912 0.995677
1.00127 1.00005 0.993541
0.999659 1.00002 0.995863
0.999425 1.00041 0.995841
1.00515 0.997732 0.987701
1.00515 0.998898 0.986471
1.00517 0.998136 0.987199
1.00474 0.99938 0.986915
1.00513 0.998924 0.986561
1.00519 0.998339 0.986918
1.00344 1.00002 0.988427
1.00457 0.999511 0.98698
1.00502 0.998683 0.986737
1.00091 1.00074 0.992216
1.00307 1.0007 0.988424
1.0043 1.00023 0.986698
1.00225 1.0018 0.988815
1.00049 1.0013 0.992425
0.99955 1.00045 0.99801
0.999997 1.00143 0.993117
0.999457 0.99979 0.998273
0.999472 0.998962 0.998627
1.00513 0.997068 0.988331
1.00514 0.996695 0.98862
1.00512 0.995705 0.989507
1.00512 0.997224 0.988157
1.00512 0.997811 0.987699
1.00514 0.996951 0.988555
1.00516 0.996333 0.989086
1.00511 0.996881 0.988689
1.00511 0.997682 0.98783
1.00512 0.998621 0.986971
1.00512 0.997829 0.987592
1.00514 0.998801 0.986678
1.00492 0.99944 0.986347
1.00514 0.998963 0.986458
1.00487 0.999662 0.986249
1.00384 1.00001 0.987735
1.00479 0.999743 0.986299
1.00374 1.00004 0.987905
1.00136 1.0001 0.992045
1.00363 1.00004 0.988105
1.00134 1.00002 0.992783
0.999891 0.999949 0.997982
1.00135 0.999959 0.993471
0.999748 0.999911 0.995825
0.999486 1.0001 0.995978
1.00514 0.99763 0.987873
1.00516 0.998693 0.986734
1.00515 0.997807 0.987655
1.00485 0.999253 0.986564
1.00516 0.998885 0.986533
1.00517 0.998008 0.987328
1.00361 0.999716 0.988136
1.00474 0.999396 0.986912
1.00513 0.998978 0.986508
1.00111 1.00021 0.992351
1.00344 0.999971 0.988316
1.00454 0.999422 0.986867
0.999609 1.00054 0.997994
1.00087 1.00078 0.992224
1.00308 1.0007 0.988424
1.0004 1.00135 0.992454
0.999496 1.00031 0.998062
0.999416 0.999619 0.998372
1.00514 0.997731 0.987741
1.00513 0.997078 0.988332
1.00513 0.996665 0.98866
1.00513 0.998588 0.986923
1.00512 0.997756 0.987749
1.00514 0.996947 0.988577
1.00511 0.997617 0.98788
1.00512 0.998604 0.986976
1.00492 0.999334 0.986683
1.00514 0.99891 0.986557
1.00491 0.999527 0.986402
1.00392 0.999889 0.987464
1.00486 0.999658 0.98626
1.00384 1.00001 0.987738
1.00144 1.00011 0.991892
1.00374 1.00004 0.987908
1.00137 1.0001 0.992039
0.999925 0.999971 0.997938
1.00136 0.999999 0.992175
0.999826 0.99993 0.996871
0.999584 0.999894 0.995968
1.00515 0.997906 0.987565
1.00516 0.998596 0.98677
1.00515 0.997611 0.987878
1.00489 0.999302 0.986547
1.00516 0.998734 0.98666
1.00515 0.997883 0.98761
1.00376 0.999605 0.987958
1.00485 0.999322 0.986673
1.00516 0.998873 0.986595
1.00125 0.999914 0.992392
1.00361 0.999722 0.988113
1.00475 0.999413 0.98691
0.99972 1.00032 0.998027
1.0011 1.0002 0.992356
1.00345 0.999919 0.988204
0.999602 1.00046 0.997985
1.00083 1.00081 0.992231
0.999422 1.00021 0.998134
1.00515 0.998457 0.987053
1.00513 0.997762 0.987689
1.00513 0.997089 0.988332
1.0049 0.999212 0.986839
1.00513 0.998538 0.98699
1.00512 0.997707 0.987799
1.00512 0.998589 0.986981
1.00492 0.999338 0.986681
1.00394 0.999786 0.987537
1.00491 0.999616 0.986456
1.00392 0.999928 0.987549
1.00151 1.00008 0.991789
1.00384 1.00001 0.987742
1.00144 1.00011 0.991887
0.999967 0.999997 0.997872
1.00137 1.0001 0.992032
0.999938 0.999979 0.99791
0.999895 0.999871 0.995609
1.00516 0.998572 0.986866
1.00515 0.997786 0.987641
1.0049 0.999266 0.986587
1.00516 0.998604 0.986767
1.00515 0.997589 0.987884
1.00383 0.999674 0.988069
1.00489 0.999305 0.986541
1.00516 0.998774 0.986585
1.00138 0.999834 0.992243
1.00376 0.999651 0.988048
1.00485 0.999394 0.986782
0.999866 1.00007 0.997997
1.00125 0.999906 0.992399
1.00363 0.999721 0.988089
0.999701 1.00031 0.998011
1.0011 1.0002 0.992358
0.99956 1.00043 0.99799
1.00488 0.999171 0.986908
1.00515 0.998495 0.987002
1.00513 0.997796 0.987638
1.00388 0.999713 0.987703
1.0049 0.999224 0.98684
1.00514 0.998484 0.987057
1.00492 0.999342 0.986678
1.00395 0.999781 0.987517
1.00154 1.00004 0.99178
1.00391 0.999965 0.987633
1.00151 1.00007 0.991788
1.00002 1.00001 0.997819
1.00144 1.00011 0.991883
0.999986 1 0.997854
0.999956 0.999987 0.997885
1.0049 0.999224 0.986652
1.00516 0.998457 0.986964
1.00515 0.997667 0.987717
1.00384 0.999709 0.988023
1.00489 0.999267 0.986579
1.00516 0.998612 0.986764
1.00144 0.999908 0.992068
1.00383 0.999682 0.988064
1.00488 0.999308 0.986535
0.999968 0.999952 0.997925
1.00137 0.999848 0.992248
1.00377 0.99969 0.988138
0.999821 1.00011 0.998013
1.00124 0.999911 0.992407
0.999699 1.00031 0.99799
1.00385 0.999759 0.987967
1.00489 0.999136 0.98682
1.00515 0.998531 0.98695
1.0015 0.999994 0.991889
1.0039 0.999703 0.987682
1.0049 0.999235 0.986841
1.00396 0.999774 0.987498
1.00153 1.00003 0.991787
1.00006 1.00001 0.997777
1.0015 1.00007 0.991785
1.00004 1.00001 0.997799
0.999998 1.00001 0.997839
1.00385 0.999728 0.988001
1.00489 0.999157 0.986678
1.00516 0.998343 0.987063
1.00153 0.999991 0.993125
1.00385 0.999707 0.98802
1.00488 0.99927 0.98657
1 0.999947 0.997859
1.00144 0.999929 0.992072
1.00383 0.99969 0.988059
0.999934 0.999986 0.997954
1.00137 0.999873 0.992254
0.999793 1.00012 0.998022
1.00151 0.999984 0.99191
1.00385 0.999717 0.987875
1.00489 0.999098 0.986731
1.00004 1 0.997793
1.0015 0.999996 0.991891
1.00391 0.999695 0.987661
1.00152 1.00003 0.99179
1.00006 1.00001 0.997778
1.00005 1.00001 0.997786
1.00159 0.999985 0.99306
1.00385 0.999723 0.988001
1.00488 0.99909 0.986703
0.999743 0.999984 0.99811
1.00146 0.999993 0.991978
1.00386 0.999703 0.988016
0.99999 0.999961 0.997889
1.00144 0.999951 0.992077
0.999905 1.00001 0.997981
1.00001 1 0.995385
1.00153 0.999982 0.99251
1.00386 0.999678 0.987783
1.00004 1 0.997797
1.00149 0.999997 0.991898
1.00007 1.00001 0.997774
0.999725 1 0.995678
1.00152 0.999986 0.992517
1.00386 0.999719 0.988001
0.999864 0.999984 0.996759
1.00146 0.999988 0.991982
0.99997 0.999974 0.997917
1.00001 0.999995 0.997813
1.00146 0.999986 0.991973
1.00002 1 0.997804
0.999865 0.999994 0.996752
1.00147 0.99999 0.991975
0.999997 0.999972 0.997865
1.00001 0.99999 0.997827
0.999996 0.999985 0.997839

TENSORS stress float
0.001562 -6.59351e-05 0.000141502
-6.59351e-05 0.000540273 -1.69123e-05
0.000141502 -1.69123e-05 0.000519289
0.00464025 -0.000106396 0.000133549
-0.000106396 0.00231023 1.04681e-05
0.000133549 1.04681e-05 0.00229517
0.00144147 9.70887e-06 7.09177e-05
9.70887e-06 0.000485992 -5.84643e-06
7.09177e-05 -5.84643e-06 0.000454322
0.00172326 -4.21746e-05 0.000141876
-4.21746e-05 0.000611361 -1.13129e-05
0.000141876 -1.13129e-05 0.000592429
0.00163338 -6.00911e-05 0.000137959
-6.00911e-05 0.000576102 -1.55746e-05
0.000137959 -1.55746e-05 0.000556031
0.00138056 -5.69399e-05 0.000138199
-5.69399e-05 0.000436306 -1.59155e-05
0.000138199 -1.59155e-05 0.000417582
0.00141067 -3.00155e-05 1.62986e-05
-3.00155e-05 0.000391985 -7.74682e-06
1.62986e-05 -7.74682e-06 0.000318982
0.00445127 -0.000136064 9.16424e-06
-0.000136064 0.00220539 -1.23643e-06
9.16424e-06 -1.23643e-06 0.00218882
0.00501526 -4.18522e-05 4.35053e-05
-4.18522e-05 0.00249012 2.12944e-06
4.35053e-05 2.12944e-06 0.00247663
0.004631 -0.000302383 -1.32997e-05
-0.000302383 0.00235092 5.80361e-06
-1.32997e-05 5.80361e-06 0.0022974
0.00149435 1.72681e-05 0.000120499
1.72681e-05 0.000501448 9.45313e-06
0.000120499 9.45313e-06 0.00049076
0.000753718 0.00012407 1.66632e-05
0.00012407 3.45989e-05 1.08865e-05
1.66632e-05 1.08865e-05 -3.52952e-05
0.00162955 -2.30927e-05 0.000156311
-2.30927e-05 0.000551717 1.79691e-06
0.000156311 1.79691e-06 0.000535955
0.00126313 -1.87903e-05 1.62368e-05
-1.87903e-05 0.00036147 1.53657e-06
1.62368e-05 1.53657e-06 0.00032863
0.00140188 3.42807e-05 -1.43584e-05
3.42807e-05 0.000464164 4.20439e-06
-1.43584e-05 4.20439e-06 0.00043018
0.00148519 -3.4825e-05 5.48916e-05
-3.4825e-05 0.000484318 -3.25772e-06
5.48916e-05 -3.25772e-06 0.000460083
0.00137783 2.42961e-05 7.33813e-05
2.42961e-05 0.000455993 -5.11618e-06
7.33813e-05 -5.11618e-06 0.000421987
0.00145187 -1.18798e-05 6.23326e-05
-1.18798e-05 0.000479342 -5.80558e-06
6.23326e-05 -5.80558e-06 0.000453782
0.00147777 -7.60234e-05 -2.68026e-05
-7.60234e-05 0.000416324 1.97542e-06
-2.68026e-05 1.97542e-06 0.000352631
0.00515973 -0.000102233 0.000168536
-0.000102233 0.00257296 -3.64137e-06
0.000168536 -3.64137e-06 0.00256891
0.00171073 -2.73739e-05 0.000145289
-2.73739e-05 0.000600918 -8.60783e-06
0.000145289 -8.60783e-06 0.000582016
0.00169951 -5.30907e-05 0.000139044
-5.30907e-05 0.0006042 -1.36523e-05
0.000139044 -1.36523e-05 0.000585044
0.00145304 -7.00359e-05 3.48194e-05
-7.00359e-05 0.000375477 -5.32186e-06
3.48194e-05 -5.32186e-06 0.000313961
0.00142823 -5.0178e-05 2.46071e-05
-5.0178e-05 0.000381341 -6.69002e-06
2.46071e-05 -6.69002e-06 0.00031737
0.00119173 -1.62791e-05 0.000114593
-1.62791e-05 0.000329984 -1.26226e-05
0.000114593 -1.26226e-05 0.000314518
0.0012844 -1.55107e-05 1.07221e-05
-1.55107e-05 0.000344552 -8.68511e-06
1.07221e-05 -8.68511e-06 0.000265361
0.00197043 -0.00018131 1.07756e-05
-0.00018131 0.000565528 -4.06998e-06
1.07756e-05 -4.06998e-06 0.00044786
0.00427117 -0.000165804 -0.000102008
-0.000165804 0.00210762 -6.1851e-06
-0.000102008 -6.1851e-06 0.002088
0.0032313 8.7784e-06 -8.1571e-05
8.7784e-06 0.00148256 -4.38224e-06
-8.1571e-05 -4.38224e-06 0.00146349
0.00299905 -9.1221e-05 -6.74499e-05
-9.1221e-05 0.00138069 -2.05074e-06
-6.74499e-05 -2.05074e-06 0.0013524
0.00399563 -0.000136994 6.82189e-06
-0.000136994 0.00194016 -5.27198e-07
6.82189e-06 -5.27198e-07 0.00192871
0.000638972 0.000109486 -3.40482e-07
0.000109486 -2.55643e-05 -3.71061e-07
-3.40482e-07 -3.71061e-07 -9.42058e-05
0.00153139 4.74392e-05 0.000144679
4.74392e-05 0.000505837 1.01595e-05
0.000144679 1.01595e-05 0.000487
0.00173891 9.86406e-05 0.000146526
9.86406e-05 0.000636564 1.40928e-05
0.000146526 1.40928e-05 0.000617331
0.00249723 0.000143977 8.92941e-05
0.000143977 0.00097233 1.0558e-05
8.92941e-05 1.0558e-05 0.000917141
0.00322349 -0.000168998 1.27872e-05
-0.000168998 0.00150704 1.94562e-06
1.27872e-05 1.94562e-06 0.00148994
0.0025098 0.000146315 8.37104e-05
0.000146315 0.00101259 1.13154e-05
8.37104e-05 1.13154e-05 0.000954197
0.000686507 7.00007e-05 1.4655e-05
7.00007e-05 7.06219e-06 1.29589e-05
1.4655e-05 1.29589e-05 -5.28713e-05
0.00095704 0.00014063 6.78914e-06
0.00014063 8.91908e-05 3.79506e-06
6.78914e-06 3.79506e-06 -3.71656e-05
0.00271589 -9.99534e-05 6.23841e-05
-9.99534e-05 0.00120134 2.43676e-06
6.23841e-05 2.43676e-06 0.00120445
0.00521252 4.89516e-05 4.18211e-06
4.89516e-05 0.00259211 -9.21221e-07
4.18211e-06 -9.21221e-07 0.0025938
0.00324091 2.76266e-05 -6.6053e-05
2.76266e-05 0.00147926 -1.95575e-06
-6.6053e-05 -1.95575e-06 0.00146257
0.00520203 5.72722e-05 0.000168251
5.72722e-05 0.00258761 1.12881e-06
0.000168251 1.12881e-06 0.00258862
0.00132186 2.41152e-05 1.74321e-05
2.41152e-05 0.000393428 1.40389e-06
1.74321e-05 1.40389e-06 0.000361827
0.000728211 2.66452e-06 1.60161e-05
2.66452e-06 -6.23092e-05 1.88737e-06
1.60161e-05 1.88737e-06 -0.000127412
0.00492149 0.000145488 7.18023e-05
0.000145488 0.00244538 5.61194e-06
7.18023e-05 5.61194e-06 0.00242729
0.00255573 3.66428e-05 8.94833e-05
3.66428e-05 0.000976335 5.29343e-06
8.94833e-05 5.29343e-06 0.000929135
0.00119533 -6.31283e-05 -3.21776e-05
-6.31283e-05 0.000333897 4.08675e-06
-3.21776e-05 4.08675e-06 0.000300712
0.00129439 -2.06258e-05 -2.57976e-05
-2.06258e-05 0.000394545 4.04312e-06
-2.57976e-05 4.04312e-06 0.000365058
0.00142196 0.000108633 2.71247e-08
0.000108633 0.00050108 5.97586e-06
2.71247e-08 5.97586e-06 0.000452551
0.00149334 -9.5435e-05 -7.66097e-05
-9.5435e-05 0.000417776 1.0733e-05
-7.66097e-05 1.0733e-05 0.000359358
0.00330518 2.39231e-05 -7.11572e-05
2.39231e-05 0.00152164 -1.04058e-06
-7.11572e-05 -1.04058e-06 0.00150079
0.00148708 -3.67752e-05 5.98185e-05
-3.67752e-05 0.000484357 -2.29162e-06
5.98185e-05 -2.29162e-06 0.00045865
0.00121342 3.70871e-05 5.81686e-05
3.70871e-05 0.000360318 -4.07809e-06
5.81686e-05 -4.07809e-06 0.000332635
0.00147664 -2.89272e-05 5.70421e-05
-2.89272e-05 0.000483071 -4.80684e-06
5.70421e-05 -4.80684e-06 0.000459658
0.00149741 -6.91064e-05 -2.10025e-05
-6.91064e-05 0.000397269 7.29342e-07
-2.10025e-05 7.29342e-07 0.00033916
0.0013888 -5.38208e-05 -3.03227e-05
-5.38208e-05 0.000391292 9.67974e-07
-3.03227e-05 9.67974e-07 0.000321251
0.00148308 -8.06057e-05 -2.23475e-05
-8.06057e-05 0.000406197 1.57235e-06
-2.23475e-05 1.57235e-06 0.000347175
0.00197492 -0.000179835 -5.05691e-06
-0.000179835 0.000567453 1.35632e-06
-5.05691e-06 1.35632e-06 0.000450091
0.00515441 5.8439e-05 0.00015983
5.8439e-05 0.00256236 -1.96809e-07
0.00015983 -1.96809e-07 0.00256315
0.00170706 -1.21764e-05 0.000148348
-1.21764e-05 0.000597853 -5.84782e-06
0.000148348 -5.84782e-06 0.000579239
0.00235363 4.79777e-05 1.95202e-05
4.79777e-05 0.000875322 -1.23349e-06
1.95202e-05 -1.23349e-06 0.00081889
0.0014556 -6.86969e-05 3.13097e-05
-6.86969e-05 0.000372773 -4.22291e-06
3.13097e-05 -4.22291e-06 0.000310457
0.00144722 -6.53287e-05 3.13605e-05
-6.53287e-05 0.000377752 -6.00678e-06
3.13605e-05 -6.00678e-06 0.000316641
0.00196297 -0.00011188 1.01212e-05
-0.00011188 0.000507514 -2.43363e-06
1.01212e-05 -2.43363e-06 0.000403029
0.00153034 -0.000141444 1.24734e-05
-0.000141444 0.000293425 -4.40961e-06
1.24734e-05 -4.40961e-06 0.000181353
0.00111087 3.16834e-05 8.36839e-05
3.16834e-05 0.000281479 -9.33056e-06
8.36839e-05 -9.33056e-06 0.000267644
0.000899816 1.38399e-05 8.51926e-06
1.38399e-05 0.000158462 -7.29919e-06
8.51926e-06 -7.29919e-06 9.23733e-05
0.00184349 -0.00018303 8.78685e-06
-0.00018303 0.000540664 -4.46763e-06
8.78685e-06 -4.46763e-06 0.00041678
0.00128784 -0.000170019 6.95745e-06
-0.000170019 8.88489e-05 -9.6496e-07
6.95745e-06 -9.6496e-07 -5.45851e-05
0.00517971 5.09051e-05 -0.00016741
5.09051e-05 0.00257763 -1.06797e-05
-0.00016741 -1.06797e-05 0.0025772
0.00375734 -0.000150432 -8.82944e-05
-0.000150432 0.00180657 -3.67238e-06
-8.82944e-05 -3.67238e-06 0.0017944
0.00468729 -0.00013958 -0.000120578
-0.00013958 0.00233889 -8.22203e-06
-0.000120578 -8.22203e-06 0.00232118
0.000526262 0.000105992 -1.47645e-05
0.000105992 -8.5974e-05 -1.11161e-05
-1.47645e-05 -1.11161e-05 -0.000153339
0.00522778 9.75339e-05 -2.56583e-06
9.75339e-05 0.00260081 -1.32269e-06
-2.56583e-06 -1.32269e-06 0.00259987
0.00518318 -2.58206e-05 -7.89866e-06
-2.58206e-05 0.00259469 -2.38896e-08
-7.89866e-06 -2.38896e-08 0.00258711
0.00058649 0.000108758 -4.35082e-07
0.000108758 -0.000107829 -2.36447e-07
-4.35082e-07 -2.36447e-07 -0.000179208
0.002171 -0.000100541 -3.77242e-05
-0.000100541 0.000899886 -1.90641e-07
-3.77242e-05 -1.90641e-07 0.000885956
0.000596196 0.000138883 -1.24316e-06
0.000138883 -6.80991e-05 -1.4435e-07
-1.24316e-06 -1.4435e-07 -0.000140047
0.00131343 4.86452e-05 2.42443e-05
4.86452e-05 0.000371666 3.0351e-07
2.42443e-05 3.0351e-07 0.000319035
0.000897787 0.000133358 3.60646e-07
0.000133358 5.39662e-05 -1.95579e-07
3.60646e-07 -1.95579e-07 -7.11063e-05
0.0030868 -0.000101324 8.33589e-05
-0.000101324 0.00141203 3.23042e-06
8.33589e-05 3.23042e-06 0.00141376
0.000612673 -6.40761e-05 -3.36137e-07
-6.40761e-05 9.24656e-07 6.07252e-06
-3.36137e-07 6.07252e-06 -3.14166e-05
0.000701445 7.7847e-05 1.69029e-05
7.7847e-05 -6.11976e-05 7.89449e-06
1.69029e-05 7.89449e-06 -0.000129204
0.00073202 0.000126374 2.11608e-05
0.000126374 -1.34026e-05 1.25357e-05
2.11608e-05 1.25357e-05 -8.81608e-05
0.00105058 0.000123459 1.15613e-05
0.000123459 2.73113e-06 4.49405e-06
1.15613e-05 4.49405e-06 -0.000118825
0.0019259 -9.39069e-06 4.88065e-05
-9.39069e-06 0.000730606 6.00876e-06
4.88065e-05 6.00876e-06 0.000693084
0.000990363 0.000143472 8.76039e-06
0.000143472 5.03841e-05 4.63762e-06
8.76039e-06 4.63762e-06 -7.61524e-05
0.000953242 0.000125782 5.93579e-06
0.000125782 0.000139751 3.89705e-06
5.93579e-06 3.89705e-06 1.82949e-05
0.00092552 0.000165785 2.77188e-06
0.000165785 2.40189e-05 8.3414e-07
2.77188e-06 8.3414e-07 -0.000133189
0.00243685 -9.64662e-05 4.11518e-05
-9.64662e-05 0.00103922 2.51321e-06
4.11518e-05 2.51321e-06 0.00104342
0.00259467 -0.00010777 4.02232e-06
-0.00010777 0.00113497 -2.74145e-07
4.02232e-06 -2.74145e-07 0.00113591
0.00520955 9.81402e-06 -0.000162399
9.81402e-06 0.00258775 -6.52401e-06
-0.000162399 -6.52401e-06 0.00258894
0.00521421 4.35238e-05 -0.000168477
4.35238e-05 0.00259233 -3.21341e-06
-0.000168477 -3.21341e-06 0.00259441
0.00522421 7.66505e-05 -5.95037e-08
7.66505e-05 0.00260646 -1.47381e-06
-5.95037e-08 -1.47381e-06 0.00260342
0.00324808 -7.30783e-06 -7.96124e-05
-7.30783e-06 0.00148141 -2.08572e-06
-7.96124e-05 -2.08572e-06 0.00146659
0.00164103 2.02275e-05 3.8105e-05
2.02275e-05 0.000456316 4.96507e-07
3.8105e-05 4.96507e-07 0.000400296
0.00327492 6.87981e-05 -6.66597e-05
6.87981e-05 0.00149777 -3.10236e-06
-6.66597e-05 -3.10236e-06 0.00148094
0.00165723 5.31396e-05 3.65987e-05
5.31396e-05 0.000471491 1.05273e-06
3.65987e-05 1.05273e-06 0.000413964
0.00522828 0.000143582 0.000171832
0.000143582 0.00261794 3.33143e-06
0.000171832 3.33143e-06 0.00260867
0.000665035 1.4792e-06 1.67433e-05
1.4792e-06 -9.75473e-05 5.0705e-07
1.67433e-05 5.0705e-07 -0.000162067
0.00258861 8.03759e-06 9.06655e-05
8.03759e-06 0.000992987 3.53377e-06
9.06655e-05 3.53377e-06 0.000946495
0.00111358 2.73252e-05 1.15439e-05
2.73252e-05 -1.62051e-07 1.31734e-06
1.15439e-05 1.31734e-06 -0.000110484
0.00248178 7.95516e-05 8.94599e-05
7.95516e-05 0.000942818 6.42805e-06
8.94599e-05 6.42805e-06 0.000893438
0.00111975 6.66185e-05 1.12615e-05
6.66185e-05 1.31974e-05 2.45182e-06
1.12615e-05 2.45182e-06 -0.000100323
0.00165142 2.9655e-05 -0.000154927
2.9655e-05 0.000565902 1.02213e-06
-0.000154927 1.02213e-06 0.00055028
0.00123935 -4.81336e-06 -2.04847e-05
-4.81336e-06 0.000351418 1.83539e-06
-2.04847e-05 1.83539e-06 0.000320311
0.00124087 0.000115928 -5.89483e-07
0.000115928 0.00040005 5.46079e-06
-5.89483e-07 5.46079e-06 0.00035527
0.00123111 -4.45515e-05 -3.20887e-05
-4.45515e-05 0.000354106 4.17708e-06
-3.20887e-05 4.17708e-06 0.000323987
0.00159239 -5.1164e-05 -7.67735e-05
-5.1164e-05 0.000444926 6.23012e-06
-7.67735e-05 6.23012e-06 0.000391859
0.00153016 -8.23734e-05 -7.5037e-05
-8.23734e-05 0.000427292 9.62473e-06
-7.5037e-05 9.62473e-06 0.000372408
0.0014361 -9.22393e-05 -7.53777e-05
-9.22393e-05 0.000405837 1.079e-05
-7.53777e-05 1.079e-05 0.000344795
0.00199062 -0.000179501 -2.03422e-05
-0.000179501 0.000576156 6.51047e-06
-2.03422e-05 6.51047e-06 0.000458935
0.00521592 -7.99328e-05 2.13204e-06
-7.99328e-05 0.00260213 -1.12948e-06
2.13204e-06 -1.12948e-06 0.0025987
0.00147673 3.84764e-05 6.85819e-05
3.84764e-05 0.000476283 -1.91301e-06
6.85819e-05 -1.91301e-06 0.000451246
0.00113128 4.31438e-06 -4.06845e-05
4.31438e-06 0.000171487 6.01875e-07
-4.06845e-05 6.01875e-07 0.000113706
0.00151049 -4.08633e-05 -2.47627e-05
-4.08633e-05 0.00039829 8.49269e-07
-2.47627e-05 8.49269e-07 0.000340801
0.00236216 7.01516e-05 8.42582e-05
7.01516e-05 0.00100455 -6.25051e-07
8.42582e-05 -6.25051e-07 0.000994812
0.00155101 -1.84521e-05 -2.1833e-05
-1.84521e-05 0.000514446 -6.54981e-07
-2.1833e-05 -6.54981e-07 0.0004531
0.00149661 -7.6321e-05 -2.05297e-05
-7.6321e-05 0.000402974 1.07955e-06
-2.05297e-05 1.07955e-06 0.000345151
0.00178212 -0.000103633 -7.14431e-06
-0.000103633 0.000404053 1.22051e-06
-7.14431e-06 1.22051e-06 0.000298421
0.00192202 -0.000189079 -4.1438e-06
-0.000189079 0.000584449 1.02233e-06
-4.1438e-06 1.02233e-06 0.000458901
0.00177383 -0.000150558 -2.63376e-06
-0.000150558 0.000430986 5.54426e-07
-2.63376e-06 5.54426e-07 0.000319743
0.00124999 -0.00016677 3.62949e-07
-0.00016677 6.96341e-05 2.47221e-07
3.62949e-07 2.47221e-07 -7.34537e-05
0.000693656 8.59479e-06 1.70397e-05
8.59479e-06 -8.1185e-05 -1.25423e-06
1.70397e-05 -1.25423e-06 -0.000144322
0.00145049 1.32511e-05 2.37151e-05
1.32511e-05 0.000363544 -2.47268e-06
2.37151e-05 -2.47268e-06 0.000302734
0.00160078 -2.27774e-05 1.17055e-05
-2.27774e-05 0.000279808 -1.18032e-06
1.17055e-05 -1.18032e-06 0.000176472
0.00157825 -8.03113e-05 1.14587e-05
-8.03113e-05 0.000282827 -2.19199e-06
1.14587e-05 -2.19199e-06 0.000176763
0.00154403 -0.000120864 1.22902e-05
-0.000120864 0.000281343 -3.68373e-06
1.22902e-05 -3.68373e-06 0.000172227
0.00176174 -0.000119063 3.12926e-06
-0.000119063 0.000305315 -7.9436e-07
3.12926e-06 -7.9436e-07 0.000177478
0.003362 0.000129828 7.84444e-05
0.000129828 0.00157079 -2.56669e-06
7.84444e-05 -2.56669e-06 0.0015655
0.00131784 -0.00015107 6.08516e-06
-0.00015107 8.84899e-05 -1.95495e-06
6.08516e-06 -1.95495e-06 -4.81854e-05
0.000481641 -2.71163e-06 6.20145e-06
-2.71163e-06 -8.71675e-05 -8.33792e-06
6.20145e-06 -8.33792e-06 -0.000137977
0.000692682 -0.00011935 5.01839e-06
-0.00011935 -3.27584e-05 -4.50744e-06
5.01839e-06 -4.50744e-06 -0.000153227
0.00137019 -0.00019384 6.59003e-06
-0.00019384 0.000185672 -2.22481e-06
6.59003e-06 -2.22481e-06 2.69874e-05
0.00132882 -0.000178406 3.93637e-06
-0.000178406 5.63215e-05 4.12298e-07
3.93637e-06 4.12298e-07 -9.51882e-05
0.00051222 3.5099e-05 2.77012e-06
3.5099e-05 -6.71602e-05 -7.30654e-06
2.77012e-06 -7.30654e-06 -0.000107483
0.000682696 1.11427e-05 8.85712e-07
1.11427e-05 1.72331e-05 -3.50697e-06
8.85712e-07 -3.50697e-06 -6.5325e-05
0.00523046 0.000104347 -0.000178436
0.000104347 0.00260402 -1.14406e-05
-0.000178436 -1.14406e-05 0.0026027
0.00499182 -4.36549e-05 -0.000146642
-4.36549e-05 0.0024865 -9.12279e-06
-0.000146642 -9.12279e-06 0.00248137
0.000583209 9.98484e-05 -1.63596e-05
9.98484e-05 -0.000110414 -8.89147e-06
-1.63596e-05 -8.89147e-06 -0.000181787
0.00327598 -0.000132448 -7.39217e-05
-0.000132448 0.00152743 -2.51394e-06
-7.39217e-05 -2.51394e-06 0.00152156
0.000488622 3.66402e-05 -7.91756e-06
3.66402e-05 -9.25856e-05 -9.8028e-06
-7.91756e-06 -9.8028e-06 -0.000147408
0.000517184 0.000127952 -1.72115e-05
0.000127952 -0.000108514 -1.09534e-05
-1.72115e-05 -1.09534e-05 -0.000180795
0.000853708 0.000128027 -6.92232e-06
0.000128027 2.75808e-05 -4.42138e-06
-6.92232e-06 -4.42138e-06 -9.64877e-05
0.00295863 -0.000113341 4.62629e-06
-0.000113341 0.00134307 -2.32806e-07
4.62629e-06 -2.32806e-07 0.00134236
0.000567162 -7.37785e-05 1.68866e-07
-7.37785e-05 -2.14793e-05 2.54249e-07
1.68866e-07 2.54249e-07 -5.53445e-05
0.00160093 9.692e-05 3.58391e-05
9.692e-05 0.00045081 1.6942e-06
3.58391e-05 1.6942e-06 0.000390118
0.00152487 0.000135023 3.3535e-05
0.000135023 0.000438631 1.29953e-06
3.3535e-05 1.29953e-06 0.000372752
0.00106023 0.000125799 1.73401e-07
0.000125799 9.30847e-06 -1.89926e-07
1.73401e-07 -1.89926e-07 -0.000112782
0.000627731 -7.89797e-06 -5.56232e-07
-7.89797e-06 -4.29872e-06 1.39026e-07
-5.56232e-07 1.39026e-07 -4.90895e-05
0.000968442 0.000141681 5.91369e-07
0.000141681 3.86232e-05 8.97488e-08
5.91369e-07 8.97488e-08 -8.76012e-05
0.000845176 0.000114461 2.09624e-07
0.000114461 7.81918e-05 -2.64745e-07
2.09624e-07 -2.64745e-07 -4.10175e-05
0.000867135 0.000162077 -5.10778e-08
0.000162077 -1.02961e-05 1.80831e-07
-5.10778e-08 1.80831e-07 -0.000168112
0.000626642 -3.6706e-05 4.10543e-06
-3.6706e-05 5.73626e-06 6.90224e-06
4.10543e-06 6.90224e-06 -3.30677e-05
0.000636287 -6.97081e-05 -1.69497e-06
-6.97081e-05 7.27619e-06 5.10741e-06
-1.69497e-06 5.10741e-06 -1.92388e-05
0.000682705 1.11889e-05 2.13833e-06
1.11889e-05 3.06476e-05 3.41641e-06
2.13833e-06 3.41641e-06 -4.5832e-05
0.0010839 0.000104213 1.14926e-05
0.000104213 5.39368e-06 3.91051e-06
1.14926e-05 3.91051e-06 -0.000112852
0.00101811 0.000138559 1.06682e-05
0.000138559 1.823e-05 4.8036e-06
1.06682e-05 4.8036e-06 -0.000106875
0.00132239 0.000156407 6.42237e-06
0.000156407 7.3878e-05 1.70309e-06
6.42237e-06 1.70309e-06 -7.27268e-05
0.000900092 9.72945e-05 4.73449e-06
9.72945e-05 0.000138808 3.92175e-06
4.73449e-06 3.92175e-06 2.92101e-05
0.000894362 0.000161748 3.90781e-06
0.000161748 -7.32091e-05 2.03701e-06
3.90781e-06 2.03701e-06 -0.000228246
0.00112001 0.000175273 2.69384e-06
0.000175273 0.000204798 1.2738e-06
2.69384e-06 1.2738e-06 4.56309e-05
0.00123775 0.000200558 -3.39011e-06
0.000200558 0.000179041 -5.85505e-07
-3.39011e-06 -5.85505e-07 8.91023e-06
0.00228906 -8.57342e-05 3.40114e-05
-8.57342e-05 0.000947541 2.84997e-06
3.40114e-05 2.84997e-06 0.000954717
0.00236331 -9.60324e-05 1.8447e-06
-9.60324e-05 0.000997615 -1.98898e-07
1.8447e-06 -1.98898e-07 0.00100182
0.00248221 -0.000107587 -3.97832e-05
-0.000107587 0.00107242 -2.42252e-06
-3.97832e-05 -2.42252e-06 0.00107319
0.000529882 4.56613e-05 1.82147e-06
4.56613e-05 -5.69265e-05 -6.44316e-06
1.82147e-06 -6.44316e-06 -9.28459e-05
0.00315121 0.000120046 6.6905e-05
0.000120046 0.00144647 -2.61994e-06
6.6905e-05 -2.61994e-06 0.00144413
0.0052239 0.000131638 -0.000180034
0.000131638 0.00260435 -1.09425e-05
-0.000180034 -1.09425e-05 0.0026003
0.00518293 2.42453e-05 -0.000164191
2.42453e-05 0.00257298 -4.71202e-06
-0.000164191 -4.71202e-06 0.00257542
0.000696722 6.24789e-05 -1.71983e-05
6.24789e-05 -7.07837e-05 -4.34188e-06
-1.71983e-05 -4.34188e-06 -0.000136861
0.000676943 2.54926e-05 -1.72674e-05
2.54926e-05 -8.652e-05 -2.167e-06
-1.72674e-05 -2.167e-06 -0.000152167
0.00518501 -3.95915e-05 -0.000161358
-3.95915e-05 0.00257717 -8.00352e-07
-0.000161358 -8.00352e-07 0.00257912
0.00520415 1.56328e-05 -4.16307e-07
1.56328e-05 0.00258793 3.65384e-07
-4.16307e-07 3.65384e-07 0.0025895
0.000660756 -1.77637e-06 -1.46279e-07
-1.77637e-06 -0.000100344 -1.75632e-07
-1.46279e-07 -1.75632e-07 -0.000164368
0.00162508 2.15888e-05 3.75733e-05
2.15888e-05 0.000449843 9.26125e-07
3.75733e-05 9.26125e-07 0.00039402
0.00112098 3.15578e-05 1.12641e-07
3.15578e-05 4.15945e-06 -1.42125e-07
1.12641e-07 -1.42125e-07 -0.000106382
0.000662369 5.69779e-05 -5.96588e-08
5.69779e-05 -8.67379e-05 -1.79403e-07
-5.96588e-08 -1.79403e-07 -0.000153072
0.00111377 6.90715e-05 -6.40391e-08
6.90715e-05 1.01949e-05 -1.37271e-07
-6.40391e-08 -1.37271e-07 -0.000103725
0.00065271 -1.81947e-05 1.70601e-05
-1.81947e-05 -0.000106613 -5.00313e-07
1.70601e-05 -5.00313e-07 -0.000169925
0.00111925 1.2032e-05 1.14253e-05
1.2032e-05 -5.32635e-07 5.65153e-07
1.14253e-05 5.65153e-07 -0.000110343
0.00111286 4.7486e-05 1.14359e-05
4.7486e-05 4.65186e-06 1.95126e-06
1.14359e-05 1.95126e-06 -0.000106967
0.00140186 3.82872e-05 4.24408e-06
3.82872e-05 6.30702e-05 4.14431e-07
4.24408e-06 4.14431e-07 -6.12854e-05
0.00111042 8.45748e-05 1.12544e-05
8.45748e-05 1.26314e-05 3.10972e-06
1.12544e-05 3.10972e-06 -0.000103035
0.00140027 8.21115e-05 4.3492e-06
8.21115e-05 8.01507e-05 7.19352e-07
4.3492e-06 7.19352e-07 -5.07387e-05
0.00519931 -4.76843e-05 -0.000170254
-4.76843e-05 0.00258745 -5.32826e-07
-0.000170254 -5.32826e-07 0.00258744
0.00127344 -8.05184e-05 -1.9016e-05
-8.05184e-05 0.000372837 2.09573e-06
-1.9016e-05 2.09573e-06 0.000339543
-0.000176554 -5.92171e-07 -1.34951e-05
-5.92171e-07 -0.00056947 2.19631e-06
-1.34951e-05 2.19631e-06 -0.00064139
0.00158938 -3.46123e-05 -7.80784e-05
-3.46123e-05 0.000438939 4.58511e-06
-7.80784e-05 4.58511e-06 0.000385444
0.00346697 0.000195703 -1.25899e-05
0.000195703 0.00165811 2.11741e-06
-1.25899e-05 2.11741e-06 0.00163237
0.00219765 -8.52909e-05 -6.39122e-05
-8.52909e-05 0.000861883 9.53912e-06
-6.39122e-05 9.53912e-06 0.000809502
0.00157266 -6.81211e-05 -7.56972e-05
-6.81211e-05 0.000440897 8.10666e-06
-7.56972e-05 8.10666e-06 0.000387405
0.00158019 -9.49741e-05 -2.2499e-05
-9.49741e-05 0.000288493 4.37551e-06
-2.2499e-05 4.37551e-06 0.000181858
0.00201191 -0.000159686 -1.91647e-05
-0.000159686 0.00056568 5.72813e-06
-1.91647e-05 5.72813e-06 0.00045533
0.00203012 -0.000196328 -1.75205e-05
-0.000196328 0.000645495 6.93383e-06
-1.75205e-05 6.93383e-06 0.000518066
0.00122942 -0.000164488 -5.83498e-06
-0.000164488 5.97193e-05 1.39278e-06
-5.83498e-06 1.39278e-06 -8.30753e-05
0.000655206 8.96522e-06 7.65148e-10
8.96522e-06 -0.000102569 -1.47263e-07
7.65148e-10 -1.47263e-07 -0.000165902
0.0015412 -4.34653e-05 -2.58927e-05
-4.34653e-05 0.000411789 2.74689e-07
-2.58927e-05 2.74689e-07 0.000354203
0.00117687 -1.95553e-05 -5.08903e-06
-1.95553e-05 4.03583e-05 2.25818e-07
-5.08903e-06 2.25818e-07 -6.66789e-05
0.00181473 -8.31706e-05 -3.55949e-06
-8.31706e-05 0.000414594 4.94598e-07
-3.55949e-06 4.94598e-07 0.000310222
0.00340302 0.000123973 -2.22379e-06
0.000123973 0.00159395 -3.76047e-07
-2.22379e-06 -3.76047e-07 0.00158954
0.00126645 -1.33178e-05 1.65585e-06
-1.33178e-05 0.000356151 5.47405e-07
1.65585e-06 5.47405e-07 0.000303332
0.00126351 -0.000147369 6.5044e-07
-0.000147369 0.000287491 -7.14959e-07
6.5044e-07 -7.14959e-07 0.000166039
0.00156237 -0.000120125 -3.92258e-06
-0.000120125 0.000291833 7.43537e-07
-3.92258e-06 7.43537e-07 0.00018274
0.00146597 -0.000109387 -2.60954e-06
-0.000109387 0.000137067 5.9096e-07
-2.60954e-06 5.9096e-07 8.19421e-06
0.00100466 -0.000170183 -5.62753e-07
-0.000170183 -1.77147e-05 -4.93558e-07
-5.62753e-07 -4.93558e-07 -0.000174083
0.00155436 -0.000159797 1.97016e-07
-0.000159797 0.000222026 -1.07761e-07
1.97016e-07 -1.07761e-07 8.62676e-05
0.0014214 -0.000183732 4.78749e-07
-0.000183732 0.0001081 2.09365e-07
4.78749e-07 2.09365e-07 -4.38341e-05
0.000547326 2.94822e-05 -6.74171e-07
2.94822e-05 -4.84014e-05 9.03555e-08
-6.74171e-07 9.03555e-08 -8.86293e-05
0.000674902 -3.53828e-06 -3.06892e-07
-3.53828e-06 1.12704e-05 5.97931e-08
-3.06892e-07 5.97931e-08 -7.17623e-05
0.00111079 -9.76548e-06 1.13166e-05
-9.76548e-06 -4.28522e-06 -1.09517e-06
1.13166e-05 -1.09517e-06 -0.000113515
0.00160344 -4.66875e-05 1.12702e-05
-4.66875e-05 0.000287108 -1.59077e-06
1.12702e-05 -1.59077e-06 0.000182978
0.00175974 -3.07357e-05 3.01677e-06
-3.07357e-05 0.000275283 -2.54045e-07
3.01677e-06 -2.54045e-07 0.000155762
0.00124988 -8.23492e-05 5.2042e-06
-8.23492e-05 6.25453e-06 -9.10196e-07
5.2042e-06 -9.10196e-07 -0.000121464
0.00164711 -0.000144902 4.76104e-06
-0.000144902 0.000254838 -1.24648e-06
4.76104e-06 -1.24648e-06 0.000123111
0.0016591 -0.000122624 -2.55025e-07
-0.000122624 0.000183088 3.30905e-07
-2.55025e-07 3.30905e-07 5.37357e-05
0.000475891 1.33938e-05 5.00217e-06
1.33938e-05 -8.99092e-05 -7.77647e-06
5.00217e-06 -7.77647e-06 -0.000134479
0.00143146 -0.000162988 2.71572e-06
-0.000162988 9.64739e-05 -2.34537e-07
2.71572e-06 -2.34537e-07 -4.58245e-05
0.000624839 -8.79678e-05 3.36195e-06
-8.79678e-05 -2.80318e-05 -2.84482e-06
3.36195e-06 -2.84482e-06 -0.000137247
0.000534309 -0.000143475 5.07418e-06
-0.000143475 -0.00018577 -4.65529e-06
5.07418e-06 -4.65529e-06 -0.000346015
0.0019231 -0.000241658 3.09712e-06
-0.000241658 0.000433724 2.95113e-07
3.09712e-06 2.95113e-07 0.000261629
0.0016708 -0.000202194 -2.67685e-07
-0.000202194 0.000206835 1.84166e-06
-2.67685e-07 1.84166e-06 5.4499e-05
0.000749918 -3.98525e-05 2.29733e-06
-3.98525e-05 5.61386e-05 -3.12776e-06
2.29733e-06 -3.12776e-06 -3.88622e-05
0.000646863 1.24145e-05 1.316e-06
1.24145e-05 -2.25923e-06 -3.02566e-06
1.316e-06 -3.02566e-06 -7.55089e-05
0.000861887 -7.96131e-05 1.11363e-06
-7.96131e-05 0.000120698 -6.14455e-07
1.11363e-06 -6.14455e-07 2.09839e-06
0.00062616 7.93173e-05 -1.59825e-05
7.93173e-05 -9.95731e-05 -6.9706e-06
-1.59825e-05 -6.9706e-06 -0.000167978
0.00283221 -0.00012225 -5.20559e-05
-0.00012225 0.00127433 -2.20475e-06
-5.20559e-05 -2.20475e-06 0.00127136
0.000507379 -7.27548e-05 9.25914e-07
-7.27548e-05 -5.55237e-05 -5.47145e-06
9.25914e-07 -5.47145e-06 -8.87298e-05
0.000537702 0.000119295 -1.69734e-05
0.000119295 -0.000116087 -1.04767e-05
-1.69734e-05 -1.04767e-05 -0.000189578
0.00106692 0.000128274 -1.18448e-05
0.000128274 1.42e-05 -4.8555e-06
-1.18448e-05 -4.8555e-06 -0.000108448
0.000472732 -1.6652e-05 -4.60538e-06
-1.6652e-05 -8.90384e-05 -8.18273e-06
-4.60538e-06 -8.18273e-06 -0.000133666
0.000718263 0.000101144 -4.31631e-06
0.000101144 6.42501e-06 -4.09822e-06
-4.31631e-06 -4.09822e-06 -0.000110467
0.000937377 0.000139088 -8.10325e-06
0.000139088 2.19526e-05 -4.59371e-06
-8.10325e-06 -4.59371e-06 -0.000103879
0.000765081 0.000155414 -4.07544e-06
0.000155414 -6.92787e-05 -1.6277e-06
-4.07544e-06 -1.6277e-06 -0.000227282
0.000550111 -4.43694e-05 1.40637e-06
-4.43694e-05 -3.6943e-05 2.40359e-07
1.40637e-06 2.40359e-07 -7.51208e-05
0.000597738 -6.44396e-05 -2.80031e-07
-6.44396e-05 -1.65051e-05 1.61846e-07
-2.80031e-07 1.61846e-07 -4.15404e-05
0.000648082 -2.58179e-05 3.73606e-07
-2.58179e-05 7.94767e-06 3.91804e-07
3.73606e-07 3.91804e-07 -6.40672e-05
0.00108764 0.00010642 5.02347e-08
0.00010642 8.40073e-06 -1.65653e-07
5.02347e-08 -1.65653e-07 -0.000110378
0.00102004 0.000139671 4.33553e-07
0.000139671 2.02137e-05 -1.99653e-07
4.33553e-07 -1.99653e-07 -0.000105109
0.00132061 0.000157065 2.69062e-07
0.000157065 7.36212e-05 2.19993e-08
2.69062e-07 2.19993e-08 -7.32384e-05
0.000795583 8.62299e-05 -1.10779e-08
8.62299e-05 8.17879e-05 1.10538e-07
-1.10779e-08 1.10538e-07 -2.62969e-05
0.00111127 0.00017584 -8.22989e-08
0.00017584 4.80736e-05 -4.97947e-08
-8.22989e-08 -4.97947e-08 -0.000108424
0.00106282 0.000169769 4.93458e-07
0.000169769 0.000173574 -5.60918e-07
4.93458e-07 -5.60918e-07 1.5327e-05
0.00115502 0.000198171 -7.44655e-07
0.000198171 0.000130035 1.57571e-06
-7.44655e-07 1.57571e-06 -3.98705e-05
0.000639895 -5.64117e-05 9.23823e-07
-5.64117e-05 -4.77498e-06 4.04667e-06
9.23823e-07 4.04667e-06 -2.43707e-05
0.000729848 4.90884e-05 2.9945e-06
4.90884e-05 5.05791e-05 3.10049e-06
2.9945e-06 3.10049e-06 -4.08074e-05
0.000659449 -3.69885e-05 3.62955e-07
-3.69885e-05 8.12205e-06 2.7204e-06
3.62955e-07 2.7204e-06 -4.81543e-05
0.000831323 4.96272e-05 2.97902e-07
4.96272e-05 0.000123877 1.31958e-06
2.97902e-07 1.31958e-06 1.24139e-05
0.00137441 0.000132181 6.18029e-06
0.000132181 8.17272e-05 1.46579e-06
6.18029e-06 1.46579e-06 -5.90498e-05
0.00125302 0.000174073 6.38207e-06
0.000174073 7.22899e-05 2.05133e-06
6.38207e-06 2.05133e-06 -8.00698e-05
0.00150967 0.000183521 2.98647e-06
0.000183521 0.00011632 5.77753e-07
2.98647e-06 5.77753e-07 -3.93152e-05
0.00112152 0.000146387 2.54808e-06
0.000146387 0.000249683 2.78493e-06
2.54808e-06 2.78493e-06 0.000107062
0.00119989 0.000196959 -2.18475e-07
0.000196959 4.4775e-05 3.03906e-06
-2.18475e-07 3.03906e-06 -0.000121749
0.000987553 0.000181759 -1.03823e-06
0.000181759 0.000118881 -1.46328e-06
-1.03823e-06 -1.46328e-06 -6.55041e-05
0.00118251 0.00020814 2.73376e-08
0.00020814 9.2927e-05 3.69972e-07
2.73376e-08 3.69972e-07 -8.1595e-05
0.000700558 -2.37449e-05 1.51663e-06
-2.37449e-05 6.16106e-06 1.87541e-06
1.51663e-06 1.87541e-06 -3.38342e-05
0.000638807 -4.18397e-05 1.04642e-06
-4.18397e-05 -2.40158e-05 3.82402e-06
1.04642e-06 3.82402e-06 -3.73549e-05
0.00221047 -7.52454e-05 2.90967e-05
-7.52454e-05 0.000893825 3.25194e-06
2.90967e-05 3.25194e-06 0.000903835
0.00223638 -8.43764e-05 1.90809e-06
-8.43764e-05 0.000916745 -1.75334e-07
1.90809e-06 -1.75334e-07 0.000924259
0.00227955 -9.38024e-05 -3.51242e-05
-9.38024e-05 0.000949762 -2.69012e-06
-3.51242e-05 -2.69012e-06 0.000954451
0.000553729 4.89921e-05 1.23067e-06
4.89921e-05 -4.75931e-05 -5.64505e-06
1.23067e-06 -5.64505e-06 -7.87183e-05
0.00292689 0.000110361 5.51415e-05
0.000110361 0.00131603 -2.84701e-06
5.51415e-05 -2.84701e-06 0.00131608
0.000564705 4.30582e-05 -2.69506e-07
4.30582e-05 -3.7825e-05 1.10565e-07
-2.69506e-07 1.10565e-07 -7.37493e-05
0.00319849 0.000114304 -2.15084e-06
0.000114304 0.0014721 -2.58617e-07
-2.15084e-06 -2.58617e-07 0.00147097
0.00068233 7.4001e-05 -1.69113e-05
7.4001e-05 -7.39908e-05 -5.58248e-06
-1.69113e-05 -5.58248e-06 -0.00014152
0.000677965 3.04811e-05 -1.67926e-05
3.04811e-05 -8.45926e-05 -3.17104e-06
-1.67926e-05 -3.17104e-06 -0.000149911
0.00111337 7.09139e-05 -1.10993e-05
7.09139e-05 1.01447e-05 -2.69653e-06
-1.10993e-05 -2.69653e-06 -0.00010409
0.00112116 3.37479e-05 -1.16067e-05
3.37479e-05 4.46984e-06 -1.58073e-06
-1.16067e-05 -1.58073e-06 -0.000106205
0.000688325 -2.68139e-06 -1.73233e-05
-2.68139e-06 -8.67116e-05 -9.69318e-07
-1.73233e-05 -9.69318e-07 -0.000149583
0.00523496 -9.6843e-05 -0.000177335
-9.6843e-05 0.00261197 2.11611e-06
-0.000177335 2.11611e-06 0.00260951
0.000677218 -1.01806e-06 1.12258e-07
-1.01806e-06 -9.37749e-05 -3.2055e-07
1.12258e-07 -3.2055e-07 -0.000156764
0.00112305 1.65461e-05 1.0273e-09
1.65461e-05 1.84814e-06 -1.40801e-07
1.0273e-09 -1.40801e-07 -0.00010806
0.00111729 4.88908e-05 -1.73448e-08
4.88908e-05 7.41441e-06 -1.05853e-07
-1.73448e-08 -1.05853e-07 -0.00010441
0.00139542 3.77106e-05 -4.26868e-08
3.77106e-05 6.07743e-05 -2.91352e-08
-4.26868e-08 -2.91352e-08 -6.36445e-05
0.00110371 8.7128e-05 -3.40069e-08
8.7128e-05 9.76915e-06 -1.97323e-07
-3.40069e-08 -1.97323e-07 -0.000106507
0.00138723 8.40729e-05 -4.45614e-08
8.40729e-05 7.29445e-05 -5.70122e-08
-4.45614e-08 -5.70122e-08 -5.83566e-05
0.00112724 -3.42416e-07 1.13893e-05
-3.42416e-07 3.45983e-06 -2.11508e-07
1.13893e-05 -2.11508e-07 -0.000106101
0.00140764 2.27946e-05 4.05786e-06
2.27946e-05 6.0425e-05 2.95524e-07
4.05786e-06 2.95524e-07 -6.25441e-05
0.00140404 6.12171e-05 4.38006e-06
6.12171e-05 7.41413e-05 5.67641e-07
4.38006e-06 5.67641e-07 -5.31479e-05
0.00159104 5.25667e-05 -1.80058e-07
5.25667e-05 8.00874e-05 -1.80561e-07
-1.80058e-07 -1.80561e-07 -3.7807e-05
0.00139604 0.00010692 4.61353e-06
0.00010692 8.28334e-05 9.4313e-07
4.61353e-06 9.4313e-07 -5.2697e-05
0.00155186 9.82543e-05 -8.81074e-08
9.82543e-05 8.7261e-05 -5.34758e-07
-8.81074e-08 -5.34758e-07 -4.08422e-05
0.000664616 9.59485e-06 -1.64628e-05
9.59485e-06 -9.75168e-05 8.09851e-07
-1.64628e-05 8.09851e-07 -0.000161243
0.00160254 -1.49529e-05 -7.92168e-05
-1.49529e-05 0.000442118 3.04677e-06
-7.92168e-05 3.04677e-06 0.000388648
0.000736757 -1.49461e-05 -1.24438e-05
-1.49461e-05 -0.000208129 1.6567e-06
-1.24438e-05 1.6567e-06 -0.000318942
0.00203863 -8.4743e-05 -1.97947e-05
-8.4743e-05 0.000539036 3.13577e-06
-1.97947e-05 3.13577e-06 0.000436518
0.0034551 0.000112231 -9.38508e-05
0.000112231 0.00162228 3.47e-06
-9.38508e-05 3.47e-06 0.00161971
0.0020862 -2.9231e-05 -5.37232e-05
-2.9231e-05 0.000814389 6.70273e-06
-5.37232e-05 6.70273e-06 0.000768832
0.00192771 -0.000184944 -1.24465e-05
-0.000184944 0.000658342 5.78481e-06
-1.24465e-05 5.78481e-06 0.000534755
0.00156536 -0.000118662 -1.97319e-05
-0.000118662 0.000293504 4.9704e-06
-1.97319e-05 4.9704e-06 0.000184617
0.00116775 -9.9471e-05 -6.66989e-06
-9.9471e-05 -3.25615e-05 1.57812e-06
-6.66989e-06 1.57812e-06 -0.000162439
0.00178532 -0.000168346 -7.02515e-06
-0.000168346 0.000352582 1.96707e-06
-7.02515e-06 1.96707e-06 0.000217731
0.000637266 -0.0001462 -6.2468e-06
-0.0001462 -0.000221844 5.25498e-07
-6.2468e-06 5.25498e-07 -0.000375885
0.00147917 -0.000187049 -2.71713e-06
-0.000187049 0.000140994 -1.50411e-07
-2.71713e-06 -1.50411e-07 -1.11979e-05
0.000594652 2.10117e-05 -5.04184e-06
2.10117e-05 -2.22374e-05 7.03048e-06
-5.04184e-06 7.03048e-06 -6.27012e-05
0.000685922 -1.91379e-05 -2.26811e-06
-1.91379e-05 1.73495e-05 2.96059e-06
-2.26811e-06 2.96059e-06 -6.72013e-05
0.000932606 -5.49041e-06 -4.5301e-07
-5.49041e-06 -0.000104056 -1.82683e-07
-4.5301e-07 -1.82683e-07 -0.000214467
0.00161082 -4.78606e-05 -4.18582e-06
-4.78606e-05 0.000290345 4.06152e-07
-4.18582e-06 4.06152e-07 0.000186202
0.00172374 -2.7193e-05 -2.38812e-06
-2.7193e-05 0.000252168 3.28778e-07
-2.38812e-06 3.28778e-07 0.000133105
0.0015234 -8.72093e-05 8.36541e-07
-8.72093e-05 0.00015987 -2.05177e-07
8.36541e-07 -2.05177e-07 3.36161e-05
0.000565267 3.5264e-06 1.54372e-07
3.5264e-06 -4.20889e-05 1.84377e-07
1.54372e-07 1.84377e-07 -8.67933e-05
0.000834815 -0.000108034 -6.72435e-08
-0.000108034 8.78885e-05 3.64534e-07
-6.72435e-08 3.64534e-07 -2.41627e-05
0.000775323 -0.000159101 1.39794e-06
-0.000159101 -4.57813e-05 -1.71746e-06
1.39794e-06 -1.71746e-06 -0.000206338
0.00172083 -0.000145692 -1.61429e-06
-0.000145692 0.000295983 3.84176e-07
-1.61429e-06 3.84176e-07 0.000164404
0.00159837 -0.000119735 -4.541e-07
-0.000119735 0.000144315 3.65087e-07
-4.541e-07 3.65087e-07 1.64189e-05
0.0016061 -0.000221653 -1.66765e-06
-0.000221653 0.000251933 4.57182e-07
-1.66765e-06 4.57182e-07 8.10175e-05
0.00143933 -0.000163465 3.04058e-07
-0.000163465 9.92128e-05 -1.37817e-08
3.04058e-07 -1.37817e-08 -4.29253e-05
0.0016214 -0.000200509 5.01336e-07
-0.000200509 0.000176279 3.92113e-07
5.01336e-07 3.92113e-07 2.41325e-05
0.000733241 -4.53959e-05 -3.14119e-07
-4.53959e-05 4.65254e-05 -1.89168e-07
-3.14119e-07 -1.89168e-07 -4.90889e-05
0.000724027 -4.73155e-05 -6.47933e-07
-4.73155e-05 3.74005e-05 -4.50659e-07
-6.47933e-07 -4.50659e-07 -7.46121e-05
0.000676865 3.77656e-06 3.90091e-07
3.77656e-06 1.2879e-05 2.39798e-07
3.90091e-07 2.39798e-07 -6.03774e-05
0.00175874 -8.98788e-06 2.74312e-06
-8.98788e-06 0.000264473 -2.5763e-07
2.74312e-06 -2.5763e-07 0.000144975
0.00167077 -5.47651e-05 3.38778e-06
-5.47651e-05 0.000227323 -1.76901e-07
3.38778e-06 -1.76901e-07 0.000106093
0.00166805 -3.63595e-05 -2.61887e-07
-3.63595e-05 0.000133591 5.29015e-07
-2.61887e-07 5.29015e-07 1.64096e-05
0.00154697 -9.66493e-05 -6.34485e-07
-9.66493e-05 9.83591e-05 4.02275e-07
-6.34485e-07 4.02275e-07 -2.72989e-05
0.00141275 -0.000141217 1.84244e-06
-0.000141217 6.0959e-05 3.29179e-07
1.84244e-06 3.29179e-07 -7.28937e-05
0.00166087 -0.000133876 -2.73586e-06
-0.000133876 0.000114182 1.33634e-06
-2.73586e-06 1.33634e-06 -9.39128e-07
0.000706881 -7.03554e-05 3.15696e-06
-7.03554e-05 3.20272e-05 -2.26451e-06
3.15696e-06 -2.26451e-06 -7.04439e-05
0.00152884 -0.00018361 -7.95894e-07
-0.00018361 9.6344e-05 1.44063e-06
-7.95894e-07 1.44063e-06 -4.27505e-05
0.000897852 -0.000154044 1.66483e-06
-0.000154044 9.8062e-05 -1.96238e-06
1.66483e-06 -1.96238e-06 -4.70022e-05
0.000957097 -0.000195089 5.02783e-06
-0.000195089 -1.10314e-05 -4.24482e-06
5.02783e-06 -4.24482e-06 -0.000201091
0.00189809 -0.000245459 2.79448e-06
-0.000245459 0.000372413 2.13388e-06
2.79448e-06 2.13388e-06 0.000195465
0.00184046 -0.00022962 -3.19244e-06
-0.00022962 0.00024848 3.4551e-06
-3.19244e-06 3.4551e-06 0.000102512
0.000658418 2.86453e-06 1.53598e-06
2.86453e-06 6.23839e-07 -2.67706e-06
1.53598e-06 -2.67706e-06 -6.40607e-05
0.000811333 -9.56092e-05 1.88971e-06
-9.56092e-05 7.64464e-05 6.34151e-07
1.88971e-06 6.34151e-07 -3.98081e-05
0.000646049 -2.77503e-05 1.11529e-06
-2.77503e-05 7.91388e-06 -1.7313e-06
1.11529e-06 -1.7313e-06 -0.00010218
0.00106707 -0.000146437 1.08414e-07
-0.000146437 0.000231599 1.64756e-06
1.08414e-07 1.64756e-06 9.90497e-05
0.00108474 0.000108686 -1.18817e-05
0.000108686 7.66995e-06 -4.15656e-06
-1.18817e-05 -4.15656e-06 -0.000111647
0.000565607 -5.9592e-05 -1.03751e-06
-5.9592e-05 -3.61953e-05 -4.26045e-06
-1.03751e-06 -4.26045e-06 -6.00069e-05
0.000484989 -6.53859e-05 1.80595e-06
-6.53859e-05 -6.73808e-05 -7.26777e-06
1.80595e-06 -7.26777e-06 -0.000108322
0.000650335 -5.7216e-05 1.49941e-06
-5.7216e-05 1.36635e-05 -3.49901e-06
1.49941e-06 -3.49901e-06 -5.95746e-05
0.0010224 0.000141137 -1.01581e-05
0.000141137 2.25306e-05 -5.24814e-06
-1.01581e-05 -5.24814e-06 -0.000103097
0.00131412 0.000157374 -6.08475e-06
0.000157374 7.06818e-05 -1.70056e-06
-6.08475e-06 -1.70056e-06 -7.64075e-05
0.000693817 7.46172e-05 -2.9589e-06
7.46172e-05 2.61714e-05 -3.1007e-06
-2.9589e-06 -3.1007e-06 -8.01091e-05
0.000991006 0.000163244 -3.42411e-06
0.000163244 0.00013398 -3.27905e-06
-3.42411e-06 -3.27905e-06 -2.3557e-05
0.0013804 0.000193228 -4.61194e-06
0.000193228 0.000198412 -1.89129e-06
-4.61194e-06 -1.89129e-06 4.00899e-05
0.00107251 0.000195556 -1.27837e-06
0.000195556 8.22146e-05 -1.14339e-06
-1.27837e-06 -1.14339e-06 -8.75442e-05
0.000615211 -5.37524e-05 6.62927e-09
-5.37524e-05 -1.95644e-05 4.17041e-08
6.62927e-09 4.17041e-08 -3.8617e-05
0.00073639 4.17353e-05 4.18197e-07
4.17353e-05 5.91096e-05 -1.52681e-07
4.18197e-07 -1.52681e-07 -3.43904e-05
0.000648443 -5.30297e-05 -7.85098e-07
-5.30297e-05 5.49243e-06 5.57003e-07
-7.85098e-07 5.57003e-07 -5.24499e-05
0.000793622 2.41019e-05 6.19709e-07
2.41019e-05 0.000101449 -2.8733e-07
6.19709e-07 -2.8733e-07 -7.07348e-06
0.00135602 0.000131662 8.39658e-07
0.000131662 7.29555e-05 7.74378e-08
8.39658e-07 7.74378e-08 -6.79495e-05
0.00127873 0.000177056 1.81517e-07
0.000177056 8.71316e-05 2.93293e-08
1.81517e-07 2.93293e-08 -6.59209e-05
0.00151262 0.000182814 3.68732e-07
0.000182814 0.00012019 2.20353e-07
3.68732e-07 2.20353e-07 -3.5437e-05
0.000984628 0.000138844 2.70133e-07
0.000138844 0.000173109 6.21584e-07
2.70133e-07 6.21584e-07 3.22269e-05
0.00152951 0.000216611 -1.45264e-06
0.000216611 0.000230689 -8.5889e-07
-1.45264e-06 -8.5889e-07 6.25696e-05
0.00113546 0.000194192 1.18195e-07
0.000194192 0.000202143 -1.26946e-06
1.18195e-07 -1.26946e-06 1.47332e-05
0.00110564 0.000202824 -2.23322e-06
0.000202824 5.7316e-05 -1.14461e-06
-2.23322e-06 -1.14461e-06 -0.00010925
0.00063599 -4.8513e-05 1.22424e-06
-4.8513e-05 -1.7683e-05 3.84764e-06
1.22424e-06 3.84764e-06 -3.34918e-05
0.000690596 -3.8389e-05 9.89599e-07
-3.8389e-05 1.76958e-05 2.12179e-06
9.89599e-07 2.12179e-06 -2.97238e-05
0.000978486 9.08578e-05 2.26646e-06
9.08578e-05 0.000190711 1.54471e-06
2.26646e-06 1.54471e-06 6.60009e-05
0.000788128 3.01163e-05 -1.97794e-07
3.01163e-05 9.49665e-05 1.82793e-06
-1.97794e-07 1.82793e-06 2.87614e-06
0.000899166 0.000105628 4.51283e-07
0.000105628 0.00017073 2.90725e-07
4.51283e-07 2.90725e-07 4.06537e-05
0.00152666 0.000152979 2.17516e-06
0.000152979 0.000105266 -3.4917e-07
2.17516e-06 -3.4917e-07 -4.02991e-05
0.00141158 0.00019858 3.04989e-06
0.00019858 9.72672e-05 1.44992e-06
3.04989e-06 1.44992e-06 -6.49954e-05
0.00167793 0.000215631 -2.26083e-07
0.000215631 0.000170864 -3.65072e-07
-2.26083e-07 -3.65072e-07 1.4442e-05
0.00113657 0.000182728 3.96978e-06
0.000182728 0.00025877 4.07365e-06
3.96978e-06 4.07365e-06 7.82189e-05
0.00143833 0.000227896 2.82728e-06
0.000227896 0.000140563 3.90606e-06
2.82728e-06 3.90606e-06 -3.09416e-05
0.00030944 0.000149923 2.93862e-06
0.000149923 -0.000328313 -2.66877e-06
2.93862e-06 -2.66877e-06 -0.000520537
0.00069474 -2.6806e-05 1.95599e-06
-2.6806e-05 6.10702e-06 1.79526e-06
1.95599e-06 1.79526e-06 -3.47961e-05
0.000735867 2.08241e-05 4.24935e-07
2.08241e-05 4.68425e-05 7.42113e-07
4.24935e-07 7.42113e-07 -1.78792e-05
0.00071784 -1.40537e-05 1.19125e-06
-1.40537e-05 1.35399e-05 1.91218e-06
1.19125e-06 1.91218e-06 -2.57934e-05
0.000704103 -2.66663e-05 -4.93737e-08
-2.66663e-05 8.85875e-06 -8.66429e-09
-4.93737e-08 -8.66429e-09 -3.14238e-05
0.00126393 -4.68189e-05 1.31932e-06
-4.68189e-05 0.000327253 2.32215e-06
1.31932e-06 2.32215e-06 0.000319095
0.000957532 -4.70235e-05 7.70153e-07
-4.70235e-05 0.000158369 -5.21179e-08
7.70153e-07 -5.21179e-08 0.000146682
0.000927868 -4.11216e-05 2.42282e-05
-4.11216e-05 0.000149597 6.65624e-06
2.42282e-05 6.65624e-06 0.000156026
0.00218633 -7.41633e-05 1.89112e-06
-7.41633e-05 0.00087896 -1.61429e-07
1.89112e-06 -1.61429e-07 0.000889284
0.00219592 -8.29094e-05 -3.14707e-05
-8.29094e-05 0.000892701 -3.05403e-06
-3.14707e-05 -3.05403e-06 0.000900616
0.000566753 5.05292e-05 7.75464e-07
5.05292e-05 -4.63482e-05 -5.03779e-06
7.75464e-07 -5.03779e-06 -7.34745e-05
0.00274022 0.000100227 4.52014e-05
0.000100227 0.00120571 -3.15481e-06
4.52014e-05 -3.15481e-06 0.00120818
0.000580718 4.71966e-05 -2.36135e-07
4.71966e-05 -3.24273e-05 8.72717e-08
-2.36135e-07 8.72717e-08 -6.36227e-05
0.00299232 0.000107386 -2.93771e-06
0.000107386 0.00135183 -2.35702e-07
-2.93771e-06 -2.35702e-07 0.00135267
0.000595303 3.96087e-05 -2.30556e-06
3.96087e-05 -2.11564e-05 6.60447e-06
-2.30556e-06 6.60447e-06 -5.70912e-05
0.00325317 0.000107404 -8.24433e-05
0.000107404 0.00150171 3.17394e-06
-8.24433e-05 3.17394e-06 0.00150191
0.00110768 8.98796e-05 -1.14136e-05
8.98796e-05 1.24786e-05 -3.44865e-06
-1.14136e-05 -3.44865e-06 -0.000104341
0.00112442 5.28753e-05 -1.13291e-05
5.28753e-05 1.1807e-05 -2.12631e-06
-1.13291e-05 -2.12631e-06 -0.000100373
0.00136594 8.24194e-05 -4.59042e-06
8.24194e-05 6.11712e-05 -8.43284e-07
-4.59042e-06 -8.43284e-07 -7.02684e-05
0.00138919 3.73509e-05 -4.47374e-06
3.73509e-05 5.86273e-05 -4.43981e-07
-4.47374e-06 -4.43981e-07 -6.58605e-05
0.0011266 1.97725e-05 -1.15876e-05
1.97725e-05 4.10861e-06 -8.92392e-07
-1.15876e-05 -8.92392e-07 -0.000105914
0.00065883 1.66193e-05 -1.69968e-05
1.66193e-05 -0.000103284 -1.47098e-07
-1.69968e-05 -1.47098e-07 -0.000166509
0.00112221 1.89715e-06 2.44787e-08
1.89715e-06 6.54609e-07 -1.38821e-07
2.44787e-08 -1.38821e-07 -0.000108944
0.00140012 2.44291e-05 -8.4024e-08
2.44291e-05 5.69996e-05 -4.01623e-10
-8.4024e-08 -4.01623e-10 -6.60481e-05
0.00138711 5.8421e-05 2.65111e-09
5.8421e-05 6.62585e-05 -4.47772e-08
2.65111e-09 -4.47772e-08 -6.10079e-05
0.00163539 5.3816e-05 -1.17015e-07
5.3816e-05 0.000101957 1.97737e-07
-1.17015e-07 1.97737e-07 -1.45044e-05
0.00137735 0.000106723 -1.60303e-07
0.000106723 7.26298e-05 -9.65122e-08
-1.60303e-07 -9.65122e-08 -6.30966e-05
0.00155994 9.70977e-05 -1.11571e-07
9.70977e-05 9.61099e-05 5.66952e-08
-1.11571e-07 5.66952e-08 -3.20374e-05
0.00140263 6.46048e-06 4.26761e-06
6.46048e-06 5.73771e-05 -1.94585e-08
4.26761e-06 -1.94585e-08 -6.51745e-05
0.00165382 3.55631e-05 -7.04646e-07
3.55631e-05 9.83555e-05 3.71942e-07
-7.04646e-07 3.71942e-07 -1.53253e-05
0.00156233 7.98678e-05 -1.90193e-07
7.98678e-05 7.72551e-05 -4.71501e-07
-1.90193e-07 -4.71501e-07 -4.52909e-05
0.00173793 6.52801e-05 -1.22307e-06
6.52801e-05 9.4851e-05 2.00105e-07
-1.22307e-06 2.00105e-07 -8.12926e-06
0.0015502 0.000117696 1.22763e-07
0.000117696 0.00010314 -6.67486e-07
1.22763e-07 -6.67486e-07 -3.19461e-05
0.00167582 0.000117289 -3.23171e-06
0.000117289 9.06998e-05 -8.14248e-07
-3.23171e-06 -8.14248e-07 -1.75218e-05
0.000751051 -2.90941e-06 -1.11986e-05
-2.90941e-06 -0.000205513 6.11454e-07
-1.11986e-05 6.11454e-07 -0.000317156
0.00163855 -5.05759e-05 -1.94872e-05
-5.05759e-05 0.000304922 2.35119e-06
-1.94872e-05 2.35119e-06 0.000200749
0.00168968 -2.06268e-05 -7.4312e-06
-2.06268e-05 0.000230269 6.957e-07
-7.4312e-06 6.957e-07 0.000111792
0.0017961 -9.2304e-05 -5.21102e-06
-9.2304e-05 0.000313054 8.97063e-07
-5.21102e-06 8.97063e-07 0.000188247
0.000657714 -7.0545e-06 -7.20357e-06
-7.0545e-06 8.98352e-06 7.66177e-06
-7.20357e-06 7.66177e-06 -3.69768e-05
0.000935723 -0.000121126 -5.32537e-06
-0.000121126 0.000144829 4.24321e-06
-5.32537e-06 4.24321e-06 3.0585e-05
0.00101983 -0.00017548 -2.31021e-06
-0.00017548 9.60073e-05 1.27992e-06
-2.31021e-06 1.27992e-06 -6.49903e-05
0.00179598 -0.000146536 -7.74465e-06
-0.000146536 0.000337928 2.05622e-06
-7.74465e-06 2.05622e-06 0.000206501
0.00153378 -0.000116669 -8.39624e-07
-0.000116669 0.00010323 -5.95764e-08
-8.39624e-07 -5.95764e-08 -2.31922e-05
0.00145986 -0.000164557 -2.22007e-06
-0.000164557 0.000108826 1.61363e-07
-2.22007e-06 1.61363e-07 -3.31837e-05
0.00128899 -0.000201634 -5.18423e-06
-0.000201634 6.93343e-05 -1.28867e-07
-5.18423e-06 -1.28867e-07 -0.000100283
0.00160523 -0.000200675 1.29111e-06
-0.000200675 0.000163613 -1.8401e-06
1.29111e-06 -1.8401e-06 1.14414e-05
0.000713499 -4.88388e-05 -3.37206e-06
-4.88388e-05 3.32402e-05 2.58772e-06
-3.37206e-06 2.58772e-06 -6.17593e-05
0.000659351 -3.85428e-05 -2.13273e-06
-3.85428e-05 1.9475e-06 -2.5738e-07
-2.13273e-06 -2.5738e-07 -0.000109473
0.00069544 -3.214e-06 -1.35693e-06
-3.214e-06 2.18699e-05 3.09665e-06
-1.35693e-06 3.09665e-06 -5.15526e-05
0.00158881 -7.39363e-06 -2.37732e-06
-7.39363e-06 0.000166921 1.45996e-07
-2.37732e-06 1.45996e-07 4.59784e-05
0.00167356 -6.05873e-05 -1.79089e-06
-6.05873e-05 0.000229035 3.23504e-07
-1.79089e-06 3.23504e-07 0.000107407
0.00162674 -3.25833e-05 -2.56099e-07
-3.25833e-05 0.000108755 2.54765e-07
-2.56099e-07 2.54765e-07 -6.68875e-06
0.00161009 -9.53297e-05 -7.4123e-07
-9.53297e-05 0.000129414 9.92311e-08
-7.4123e-07 9.92311e-08 4.09438e-06
0.000769047 -8.09863e-05 1.53631e-07
-8.09863e-05 6.61817e-05 -2.88891e-08
1.53631e-07 -2.88891e-08 -3.74069e-05
0.00101557 -0.000163711 -4.13027e-07
-0.000163711 0.000160796 8.34674e-07
-4.13027e-07 8.34674e-07 1.42394e-05
0.000972453 -0.000192203 6.84691e-07
-0.000192203 9.48625e-06 -1.73924e-06
6.84691e-07 -1.73924e-06 -0.000177768
0.00154652 -0.000147023 -4.18418e-08
-0.000147023 0.000135694 5.32039e-08
-4.18418e-08 5.32039e-08 6.98541e-07
0.00168093 -0.000133722 8.31896e-07
-0.000133722 0.000126836 3.09499e-07
8.31896e-07 3.09499e-07 1.48286e-05
0.00171829 -0.000234934 -3.81507e-07
-0.000234934 0.000267035 4.06572e-07
-3.81507e-07 4.06572e-07 8.99362e-05
0.00155255 -0.000183732 2.22153e-07
-0.000183732 0.000109175 2.43635e-07
2.22153e-07 2.43635e-07 -2.94659e-05
0.00187772 -0.00023127 9.43417e-07
-0.00023127 0.000271523 -2.77583e-07
9.43417e-07 -2.77583e-07 0.000127037
0.000916609 -0.00010833 6.06223e-09
-0.00010833 0.000138423 1.22974e-07
6.06223e-09 1.22974e-07 1.93236e-05
0.00101055 -0.000144987 -3.44418e-07
-0.000144987 0.000201759 3.64241e-07
-3.44418e-07 3.64241e-07 6.75809e-05
0.000685455 -3.20254e-06 1.72305e-07
-3.20254e-06 1.54899e-05 1.74183e-07
1.72305e-07 1.74183e-07 -4.95779e-05
0.000578104 -3.99659e-06 -1.36095e-07
-3.99659e-06 -3.46551e-05 -7.38909e-07
-1.36095e-07 -7.38909e-07 -0.000139155
0.00161915 -1.96989e-05 2.15373e-07
-1.96989e-05 9.48658e-05 -2.9415e-08
2.15373e-07 -2.9415e-08 -2.13273e-05
0.00181792 -6.38117e-05 -9.75489e-08
-6.38117e-05 0.000223494 6.59553e-07
-9.75489e-08 6.59553e-07 0.000105255
0.00165662 -4.96441e-05 2.77326e-07
-4.96441e-05 5.1234e-05 1.24127e-07
2.77326e-07 1.24127e-07 -5.53885e-05
0.00170377 -0.000120218 -3.90562e-06
-0.000120218 0.000107389 6.18455e-07
-3.90562e-06 6.18455e-07 4.02686e-06
0.00168213 -0.000161506 -2.73299e-06
-0.000161506 0.000149258 2.06995e-06
-2.73299e-06 2.06995e-06 2.59567e-05
0.00173305 -0.000137884 -3.35758e-07
-0.000137884 0.000110502 2.69332e-07
-3.35758e-07 2.69332e-07 1.34138e-05
0.000846673 -0.000140622 1.43203e-06
-0.000140622 9.1819e-05 -4.53909e-08
1.43203e-06 -4.53909e-08 -3.57871e-05
0.00162267 -0.000203506 -4.53719e-06
-0.000203506 9.54447e-05 2.84005e-06
-4.53719e-06 2.84005e-06 -2.77788e-05
0.000403074 -0.00013694 -2.3067e-07
-0.00013694 -0.000195902 -4.76392e-06
-2.3067e-07 -4.76392e-06 -0.000364818
0.00213182 -0.000290685 4.45015e-06
-0.000290685 0.000577417 -1.85025e-06
4.45015e-06 -1.85025e-06 0.000366785
0.00172082 -0.000246271 7.54406e-07
-0.000246271 0.000218173 4.69864e-06
7.54406e-07 4.69864e-06 4.1278e-05
0.00186716 -0.000235623 -7.18312e-07
-0.000235623 0.000232263 1.52636e-06
-7.18312e-07 1.52636e-06 9.15084e-05
0.000672993 -6.75174e-06 1.98479e-06
-6.75174e-06 6.90692e-06 -2.56066e-06
1.98479e-06 -2.56066e-06 -5.23857e-05
0.000590034 -1.0459e-05 2.51478e-07
-1.0459e-05 -1.56473e-05 -1.83227e-06
2.51478e-07 -1.83227e-06 -0.000118354
0.000885925 -0.000153625 6.35177e-07
-0.000153625 0.000121945 1.97455e-06
6.35177e-07 1.97455e-06 -1.24768e-05
0.000887406 -0.000108494 1.99516e-06
-0.000108494 0.000145869 -4.68526e-08
1.99516e-06 -4.68526e-08 1.72951e-05
0.00107155 -0.000170035 -4.53751e-07
-0.000170035 0.000229385 3.53926e-06
-4.53751e-07 3.53926e-06 9.04772e-05
0.000594129 -5.18275e-05 -1.47996e-06
-5.18275e-05 -3.19631e-05 -3.91057e-06
-1.47996e-06 -3.91057e-06 -5.06331e-05
0.0013318 0.000130879 -4.50565e-06
0.000130879 6.12167e-05 -1.33436e-06
-4.50565e-06 -1.33436e-06 -7.98145e-05
0.000622395 -7.03301e-05 8.39897e-08
-7.03301e-05 -4.23208e-06 -2.21492e-06
8.39897e-08 -2.21492e-06 -6.48302e-05
0.000728813 2.39938e-05 -5.77726e-07
2.39938e-05 5.22075e-05 -3.49186e-06
-5.77726e-07 -3.49186e-06 -3.79376e-05
0.000743931 -2.75799e-06 1.52207e-06
-2.75799e-06 7.15284e-05 -1.46858e-06
1.52207e-06 -1.46858e-06 -3.34854e-05
0.00129365 0.000179239 -6.13266e-06
0.000179239 9.60511e-05 -2.03894e-06
-6.13266e-06 -2.03894e-06 -5.75998e-05
0.00151036 0.000181874 -1.98838e-06
0.000181874 0.000121373 -1.55623e-07
-1.98838e-06 -1.55623e-07 -3.42361e-05
0.000928829 0.000146174 -2.14948e-06
0.000146174 0.000144218 -1.79474e-06
-2.14948e-06 -1.79474e-06 2.24591e-06
0.00133369 0.000210866 -2.43919e-06
0.000210866 0.000312666 -2.06043e-06
-2.43919e-06 -2.06043e-06 0.000121382
0.00185507 0.000235777 -3.69209e-06
0.000235777 0.000414082 -2.14294e-06
-3.69209e-06 -2.14294e-06 0.000244531
0.0010567 0.000199603 -4.51242e-06
0.000199603 3.69718e-05 -1.62502e-06
-4.51242e-06 -1.62502e-06 -0.000121905
0.000622904 -4.70555e-05 5.94582e-08
-4.70555e-05 -2.53098e-05 1.05157e-09
5.94582e-08 1.05157e-09 -4.09165e-05
0.000677994 -4.69213e-05 -5.87309e-07
-4.69213e-05 1.2223e-05 1.92238e-07
-5.87309e-07 1.92238e-07 -3.61288e-05
0.00092158 9.31841e-05 7.57088e-07
9.31841e-05 0.000158051 -4.21865e-09
7.57088e-07 -4.21865e-09 3.41022e-05
0.00073731 -1.61746e-05 -4.12084e-07
-1.61746e-05 6.54159e-05 2.36869e-07
-4.12084e-07 2.36869e-07 -2.37119e-05
0.000747931 7.07462e-05 1.01683e-06
7.07462e-05 8.12356e-05 -3.72716e-07
1.01683e-06 -3.72716e-07 -4.54669e-05
0.00153205 0.000154189 8.7451e-07
0.000154189 0.000106567 -1.4341e-07
8.7451e-07 -1.4341e-07 -3.94923e-05
0.00145337 0.000201019 4.73015e-07
0.000201019 0.000123384 4.60515e-07
4.73015e-07 4.60515e-07 -3.9243e-05
0.00163745 0.000215786 1.33973e-06
0.000215786 0.000147557 3.51733e-07
1.33973e-06 3.51733e-07 -9.76121e-06
0.00105869 0.00017593 1.26732e-06
0.00017593 0.000218995 1.20385e-06
1.26732e-06 1.20385e-06 3.94811e-05
0.0015811 0.000235195 2.03629e-06
0.000235195 0.000225418 -7.18561e-07
2.03629e-06 -7.18561e-07 5.44882e-05
0.00084279 0.000189348 -2.78195e-06
0.000189348 -3.87897e-05 -1.90735e-06
-2.78195e-06 -1.90735e-06 -0.000234457
0.000704105 -3.28314e-05 1.80985e-06
-3.28314e-05 1.68884e-05 1.82165e-06
1.80985e-06 1.82165e-06 -2.61315e-05
0.000786177 1.95718e-05 3.30604e-07
1.95718e-05 8.22362e-05 1.481e-06
3.30604e-07 1.481e-06 7.58314e-06
0.00106147 0.000164014 -4.09242e-07
0.000164014 0.000242263 -1.89753e-07
-4.09242e-07 -1.89753e-07 8.86606e-05
0.000855562 2.87415e-05 7.35099e-08
2.87415e-05 0.000139025 1.0938e-06
7.35099e-08 1.0938e-06 3.20415e-05
0.00111169 8.66908e-05 -2.91294e-06
8.66908e-05 0.000275426 -3.6954e-06
-2.91294e-06 -3.6954e-06 0.000140704
0.00160859 0.000162804 -2.67728e-06
0.000162804 0.00010179 -2.79327e-06
-2.67728e-06 -2.79327e-06 -3.41186e-05
0.00157636 0.000232391 1.58545e-06
0.000232391 0.000151264 9.35232e-07
1.58545e-06 9.35232e-07 -1.6747e-05
0.00147387 0.000232654 -3.97583e-07
0.000232654 2.32897e-05 -1.56773e-06
-3.97583e-07 -1.56773e-06 -0.000122418
0.000976406 0.000177796 -5.06317e-07
0.000177796 0.000163056 1.7281e-06
-5.06317e-07 1.7281e-06 -4.78921e-05
0.00134287 0.00023901 3.96162e-06
0.00023901 0.000111837 9.24166e-09
3.96162e-06 9.24166e-09 -7.90525e-05
0.000698821 -2.98967e-05 -9.45279e-09
-2.98967e-05 9.10845e-06 -1.22963e-08
-9.45279e-09 -1.22963e-08 -3.20981e-05
0.000628309 -1.30058e-07 1.36068e-06
-1.30058e-07 -2.06973e-05 1.11648e-06
1.36068e-06 1.11648e-06 -8.2603e-05
0.000650185 -1.56695e-05 -5.90683e-07
-1.56695e-05 -4.0222e-06 -6.82111e-08
-5.90683e-07 -6.82111e-08 -6.722e-05
0.000923211 4.76792e-05 8.99027e-07
4.76792e-05 0.000162902 -3.64943e-07
8.99027e-07 -3.64943e-07 8.5488e-05
0.000747855 3.74604e-05 1.62722e-06
3.74604e-05 5.24011e-05 8.86291e-07
1.62722e-06 8.86291e-07 -1.13794e-05
0.000708913 -1.0567e-06 1.18374e-06
-1.0567e-06 8.52924e-06 1.85758e-06
1.18374e-06 1.85758e-06 -3.09117e-05
0.000712469 -1.96023e-05 -2.44377e-07
-1.96023e-05 1.13259e-05 1.19043e-08
-2.44377e-07 1.19043e-08 -2.8298e-05
0.00126396 -3.73768e-05 8.69651e-07
-3.73768e-05 0.000321135 2.32158e-06
8.69651e-07 2.32158e-06 0.000314655
0.000710032 -2.918e-05 -1.17588e-06
-2.918e-05 1.28573e-05 -1.91695e-06
-1.17588e-06 -1.91695e-06 -2.76808e-05
0.00128648 -4.40089e-05 -4.81649e-06
-4.40089e-05 0.00033952 -1.27705e-06
-4.81649e-06 -1.27705e-06 0.000331765
0.000911624 -3.39277e-05 2.176e-05
-3.39277e-05 0.000131488 6.88252e-06
2.176e-05 6.88252e-06 0.000140256
0.00128375 -4.97783e-05 -9.85123e-06
-4.97783e-05 0.000345247 -3.42852e-06
-9.85123e-06 -3.42852e-06 0.000335625
0.00152144 -5.25588e-05 1.994e-05
-5.25588e-05 0.000489776 1.96035e-06
1.994e-05 1.96035e-06 0.000499372
0.00216278 -7.29369e-05 -2.80279e-05
-7.29369e-05 0.000864401 -3.43013e-06
-2.80279e-05 -3.43013e-06 0.000875068
0.000589105 4.28276e-05 1.04462e-06
4.28276e-05 -4.20469e-05 -4.62418e-06
1.04462e-06 -4.62418e-06 -6.4638e-05
0.00058958 4.81109e-05 -2.82139e-07
4.81109e-05 -3.34936e-05 5.7842e-08
-2.82139e-07 5.7842e-08 -6.05481e-05
0.00261033 8.96405e-05 3.77474e-05
8.96405e-05 0.00112617 -3.51235e-06
3.77474e-05 -3.51235e-06 0.00113113
0.0028073 9.93299e-05 -3.47862e-06
9.93299e-05 0.00124307 -2.44499e-07
-3.47862e-06 -2.44499e-07 0.00124587
0.000609939 4.51042e-05 -1.61787e-06
4.51042e-05 -1.60414e-05 5.8804e-06
-1.61787e-06 5.8804e-06 -4.73133e-05
0.00304995 0.000101261 -7.07892e-05
0.000101261 0.00138294 3.09357e-06
-7.07892e-05 3.09357e-06 0.0013852
0.00135988 0.000106721 -4.87358e-06
0.000106721 6.29048e-05 -1.13544e-06
-4.87358e-06 -1.13544e-06 -7.30405e-05
0.00137327 5.88142e-05 -4.58288e-06
5.88142e-05 6.02264e-05 -6.42115e-07
-4.58288e-06 -6.42115e-07 -6.7272e-05
0.00156386 9.70088e-05 -1.18643e-07
9.70088e-05 0.000102694 6.40632e-07
-1.18643e-07 6.40632e-07 -2.55991e-05
0.0016791 5.50757e-05 1.93399e-07
5.50757e-05 0.000123482 3.91473e-07
1.93399e-07 3.91473e-07 8.46263e-06
0.00139548 2.74867e-05 -4.08583e-06
2.74867e-05 5.50629e-05 -2.72164e-07
-4.08583e-06 -2.72164e-07 -6.8099e-05
0.00112702 6.72668e-06 -1.13321e-05
6.72668e-06 3.08694e-06 -1.58069e-07
-1.13321e-05 -1.58069e-07 -0.00010648
0.00140404 1.00347e-05 7.5709e-08
1.00347e-05 5.80122e-05 -8.11832e-08
7.5709e-08 -8.11832e-08 -6.46191e-05
0.00166551 2.52088e-05 -6.72465e-07
2.52088e-05 0.000104792 2.78288e-08
-6.72465e-07 2.78288e-08 -8.74757e-06
0.00158463 7.88606e-05 -8.52875e-08
7.88606e-05 9.1555e-05 -4.54045e-09
-8.52875e-08 -4.54045e-09 -3.08433e-05
0.00178427 6.7937e-05 1.00664e-06
6.7937e-05 0.000119125 7.66569e-07
1.00664e-06 7.66569e-07 1.87598e-05
0.00154119 0.000118679 -1.79075e-07
0.000118679 9.67735e-05 -5.7239e-08
-1.79075e-07 -5.7239e-08 -3.88555e-05
0.00168075 0.000115166 -2.37592e-07
0.000115166 9.11356e-05 7.53705e-07
-2.37592e-07 7.53705e-07 -1.48253e-05
0.00165593 -1.32217e-06 1.32474e-07
-1.32217e-06 0.000106382 1.67539e-07
1.32474e-07 1.67539e-07 -7.56279e-06
0.0017 4.29098e-05 -4.93712e-08
4.29098e-05 6.39141e-05 8.95553e-07
-4.93712e-08 8.95553e-07 -3.84081e-05
0.00178157 9.69215e-05 -3.7427e-06
9.69215e-05 0.000130428 -5.89463e-07
-3.7427e-06 -5.89463e-07 3.087e-05
0.0018109 7.49413e-05 1.32582e-07
7.49413e-05 0.000122161 3.47371e-07
1.32582e-07 3.47371e-07 3.44913e-05
0.00157368 0.000119993 -2.07545e-06
0.000119993 5.29272e-05 -2.17041e-06
-2.07545e-06 -2.17041e-06 -6.4312e-05
0.00191458 0.000129359 3.49698e-07
0.000129359 0.000183035 -3.83738e-08
3.49698e-07 -3.83738e-08 9.27295e-05
0.00141513 -6.21186e-06 -6.14277e-06
-6.21186e-06 6.70999e-05 3.9715e-07
-6.14277e-06 3.9715e-07 -5.52909e-05
0.00168068 -6.33691e-05 -7.03019e-06
-6.33691e-05 0.000233081 8.101e-07
-7.03019e-06 8.101e-07 0.000111196
0.00158084 -3.04686e-05 -4.82051e-07
-3.04686e-05 8.13305e-05 -3.10081e-07
-4.82051e-07 -3.10081e-07 -3.2455e-05
0.00167062 -9.44573e-05 -9.79865e-07
-9.44573e-05 0.000159009 -4.55563e-08
-9.79865e-07 -4.55563e-08 3.39915e-05
0.000860358 -9.36667e-05 -4.14205e-06
-9.36667e-05 0.000116668 2.7886e-06
-4.14205e-06 2.7886e-06 1.17407e-05
0.00114725 -0.000174363 -2.45357e-06
-0.000174363 0.000231798 3.52895e-06
-2.45357e-06 3.52895e-06 8.35401e-05
0.000925989 -0.000184139 -2.59182e-06
-0.000184139 -4.40592e-06 1.07196e-06
-2.59182e-06 1.07196e-06 -0.000189154
0.00168098 -0.000152816 -1.93661e-06
-0.000152816 0.00021075 2.22828e-07
-1.93661e-06 2.22828e-07 7.46032e-05
0.00170163 -0.000133538 3.43022e-06
-0.000133538 0.000139877 -1.38985e-06
3.43022e-06 -1.38985e-06 3.09954e-05
0.00156528 -0.00018326 1.53847e-06
-0.00018326 0.000116499 -9.36438e-07
1.53847e-06 -9.36438e-07 -2.16448e-05
0.00152051 -0.000223682 -2.90612e-06
-0.000223682 0.000151806 -7.55314e-07
-2.90612e-06 -7.55314e-07 -2.53948e-05
0.00188885 -0.000231042 4.49205e-06
-0.000231042 0.000279613 -5.28613e-06
4.49205e-06 -5.28613e-06 0.000136907
0.000941696 -0.000105721 -1.54053e-06
-0.000105721 0.000152961 -2.62178e-07
-1.54053e-06 -2.62178e-07 3.4247e-05
0.000866264 -0.000110678 -1.78751e-06
-0.000110678 0.000113852 -1.21318e-06
-1.78751e-06 -1.21318e-06 -1.36923e-05
0.000709501 -6.15601e-06 -1.65442e-06
-6.15601e-06 2.83525e-05 2.80528e-06
-1.65442e-06 2.80528e-06 -3.68957e-05
0.000547066 1.25626e-05 -2.1831e-07
1.25626e-05 -5.35682e-05 3.28478e-07
-2.1831e-07 3.28478e-07 -0.000155056
0.00161372 -1.94493e-05 -4.25793e-09
-1.94493e-05 9.1923e-05 -5.30779e-09
-4.25793e-09 -5.30779e-09 -2.43131e-05
0.00174498 -6.27462e-05 -4.79405e-07
-6.27462e-05 0.000181357 -7.75135e-09
-4.79405e-07 -7.75135e-09 6.18412e-05
0.00169723 -4.88953e-05 6.25496e-07
-4.88953e-05 7.64124e-05 -1.9239e-07
6.25496e-07 -1.9239e-07 -2.89118e-05
0.00166155 -0.00011827 -8.75638e-07
-0.00011827 9.06393e-05 3.63184e-07
-8.75638e-07 3.63184e-07 -1.46707e-05
0.000961345 -0.000137334 -3.71458e-07
-0.000137334 0.0001539 5.86622e-07
-3.71458e-07 5.86622e-07 2.69738e-05
0.000675163 -0.000154346 9.59196e-07
-0.000154346 -4.02443e-05 -1.59728e-06
9.59196e-07 -1.59728e-06 -0.000208135
0.0015536 -0.000250169 -8.80127e-07
-0.000250169 0.00025856 4.18303e-07
-8.80127e-07 4.18303e-07 5.01992e-05
0.00162171 -0.000159112 -1.14441e-06
-0.000159112 0.000119286 4.73021e-07
-1.14441e-06 4.73021e-07 -6.39013e-06
0.00168378 -0.000139046 1.8137e-06
-0.000139046 8.10869e-05 -9.15694e-07
1.8137e-06 -9.15694e-07 -1.35986e-05
0.00171111 -0.000245579 -1.24647e-06
-0.000245579 0.000211941 9.54067e-07
-1.24647e-06 9.54067e-07 3.46683e-05
0.00164123 -0.000203641 -2.58245e-07
-0.000203641 0.000108077 6.93878e-07
-2.58245e-07 6.93878e-07 -1.51028e-05
0.00175395 -0.0002307 2.5138e-06
-0.0002307 0.000164762 -3.67945e-06
2.5138e-06 -3.67945e-06 2.67556e-05
0.000993247 -0.000162101 2.8854e-07
-0.000162101 0.000181878 5.3545e-07
2.8854e-07 5.3545e-07 4.61649e-05
0.00106753 -0.000161773 9.19689e-07
-0.000161773 0.000223086 5.71109e-07
9.19689e-07 5.71109e-07 8.71606e-05
0.00085219 -7.7849e-05 -4.58682e-07
-7.7849e-05 0.000123296 -1.57928e-07
-4.58682e-07 -1.57928e-07 -1.56781e-06
0.000547702 8.4819e-06 -6.72926e-07
8.4819e-06 -6.34415e-05 1.05556e-07
-6.72926e-07 1.05556e-07 -0.000124241
0.000563412 1.45179e-05 -2.14631e-08
1.45179e-05 -3.42346e-05 -5.45127e-07
-2.14631e-08 -5.45127e-07 -0.000132811
0.00181963 -3.21576e-05 5.50072e-07
-3.21576e-05 0.000134277 -2.18353e-07
5.50072e-07 -2.18353e-07 3.19695e-05
0.00175777 -7.07232e-05 -2.10866e-07
-7.07232e-05 0.000104721 1.7378e-07
-2.10866e-07 1.7378e-07 5.20412e-06
0.00181552 -0.000137796 -2.34895e-06
-0.000137796 0.000131958 -3.65222e-07
-2.34895e-06 -3.65222e-07 4.78761e-05
0.0015571 -0.000162022 -2.00702e-06
-0.000162022 2.41715e-05 1.21424e-06
-2.00702e-06 1.21424e-06 -7.70651e-05
0.000876873 -0.00015767 -5.81836e-07
-0.00015767 0.000109602 -7.05083e-08
-5.81836e-07 -7.05083e-08 -3.54489e-05
0.00203978 -0.000237736 -3.13595e-06
-0.000237736 0.000281235 1.80275e-06
-3.13595e-06 1.80275e-06 0.00016387
-6.1086e-05 -0.000114427 -1.48011e-06
-0.000114427 -0.000472101 -5.69436e-06
-1.48011e-06 -5.69436e-06 -0.000651476
0.00249762 -0.000330144 2.69124e-06
-0.000330144 0.000717561 -2.13681e-08
2.69124e-06 -2.13681e-08 0.000497558
0.00161803 -0.000249692 1.84131e-06
-0.000249692 0.000113364 3.30591e-06
1.84131e-06 3.30591e-06 -5.86201e-05
0.000383844 1.63219e-05 1.30083e-06
1.63219e-05 -0.000156425 -3.43836e-06
1.30083e-06 -3.43836e-06 -0.0002135
0.000833279 -1.80465e-05 1.44641e-06
-1.80465e-05 0.000123488 -1.05112e-06
1.44641e-06 -1.05112e-06 3.05954e-05
0.000895748 -5.31924e-05 -4.79403e-07
-5.31924e-05 0.000156553 -4.73186e-07
-4.79403e-07 -4.73186e-07 4.37921e-05
0.000996172 -0.00016605 -1.62567e-06
-0.00016605 0.000174493 2.82319e-06
-1.62567e-06 2.82319e-06 3.77657e-05
0.000908567 -0.000106755 2.14332e-06
-0.000106755 0.000147047 2.27828e-06
2.14332e-06 2.27828e-06 1.25941e-05
0.000743509 -0.000150389 2.86765e-07
-0.000150389 2.22643e-05 1.94608e-06
2.86765e-07 1.94608e-06 -0.000113145
0.000612903 -4.58942e-05 -1.38275e-06
-4.58942e-05 -3.10567e-05 -3.86313e-06
-1.38275e-06 -3.86313e-06 -4.65234e-05
0.000663591 -4.97607e-05 -1.6278e-06
-4.97607e-05 4.22665e-06 -1.6898e-06
-1.6278e-06 -1.6898e-06 -4.41502e-05
0.00154499 0.000155755 -8.8238e-07
0.000155755 0.000111923 -8.95343e-08
-8.8238e-07 -8.95343e-08 -3.46459e-05
0.00070237 -6.65017e-05 1.07484e-06
-6.65017e-05 4.52682e-05 -1.45674e-06
1.07484e-06 -1.45674e-06 -4.12909e-05
0.000819313 8.62016e-05 -5.17272e-07
8.62016e-05 9.80344e-05 -9.60236e-07
-5.17272e-07 -9.60236e-07 -2.23396e-05
0.000623903 3.96322e-05 1.41672e-06
3.96322e-05 6.70036e-06 -4.97495e-07
1.41672e-06 -4.97495e-07 -0.000116389
0.00148572 0.000203121 -2.80082e-06
0.000203121 0.000143947 -7.12353e-07
-2.80082e-06 -7.12353e-07 -1.90779e-05
0.00160149 0.000215906 1.23843e-06
0.000215906 0.000127574 8.58229e-07
1.23843e-06 8.58229e-07 -3.05892e-05
0.000964874 0.0001679 -1.91962e-07
0.0001679 0.000170915 -8.3772e-07
-1.91962e-07 -8.3772e-07 -7.64396e-06
0.00142001 0.000231473 -1.67454e-06
0.000231473 0.000274285 -1.517e-06
-1.67454e-06 -1.517e-06 7.6807e-05
0.00169437 0.000241034 -4.10458e-06
0.000241034 0.000293972 -2.89127e-06
-4.10458e-06 -2.89127e-06 0.000123688
0.000693643 -3.37855e-05 -2.24859e-07
-3.37855e-05 1.14102e-05 3.75225e-08
-2.24859e-07 3.75225e-08 -3.17228e-05
0.000738183 -2.04789e-05 -7.41956e-07
-2.04789e-05 5.41378e-05 3.71487e-07
-7.41956e-07 3.71487e-07 -1.86326e-05
0.00100557 0.000159288 -7.73287e-07
0.000159288 0.000212422 -1.28466e-07
-7.73287e-07 -1.28466e-07 5.93639e-05
0.000798548 -7.00885e-06 2.12397e-07
-7.00885e-06 0.000104663 1.09168e-07
2.12397e-07 1.09168e-07 1.5306e-06
0.000902392 9.04958e-05 2.59148e-07
9.04958e-05 0.000163488 -2.28272e-07
2.59148e-07 -2.28272e-07 2.65459e-05
0.00162546 0.000166134 -1.62849e-06
0.000166134 0.000111569 -1.29083e-06
-1.62849e-06 -1.29083e-06 -2.54398e-05
0.00158121 0.000231852 1.54187e-06
0.000231852 0.000154254 5.96628e-07
1.54187e-06 5.96628e-07 -1.40821e-05
0.00157515 0.000234221 5.87847e-07
0.000234221 7.95626e-05 5.06669e-08
5.87847e-07 5.06669e-08 -6.48545e-05
0.000718979 0.000160943 3.31951e-07
0.000160943 1.54351e-05 2.99904e-06
3.31951e-07 2.99904e-06 -0.000192173
0.00168716 0.000263702 -1.03402e-06
0.000263702 0.000306454 -2.19267e-08
-1.03402e-06 -2.19267e-08 0.000112002
0.000778814 1.60019e-05 9.61121e-07
1.60019e-05 6.91864e-05 1.00629e-06
9.61121e-07 1.00629e-06 3.93896e-06
0.000583796 -2.79087e-05 -9.65003e-07
-2.79087e-05 -2.29406e-05 1.82621e-06
-9.65003e-07 1.82621e-06 -0.00011083
0.000924954 0.000160029 -2.53354e-06
0.000160029 0.000157881 -1.70793e-06
-2.53354e-06 -1.70793e-06 -1.20956e-05
0.000664137 3.97404e-05 -2.29663e-06
3.97404e-05 4.0671e-05 -1.35566e-06
-2.29663e-06 -1.35566e-06 -8.57885e-05
0.00100257 0.000149087 -1.04074e-06
0.000149087 0.000207413 -2.06847e-06
-1.04074e-06 -2.06847e-06 6.06067e-05
0.00161791 0.000181336 -2.07498e-06
0.000181336 3.6279e-05 -2.68718e-06
-2.07498e-06 -2.68718e-06 -7.15606e-05
0.00176589 0.000270729 8.48115e-07
0.000270729 0.000231024 -1.84593e-06
8.48115e-07 -1.84593e-06 5.95654e-05
0.00151232 0.000238015 1.94392e-06
0.000238015 2.61565e-05 -1.33074e-07
1.94392e-06 -1.33074e-07 -0.000114973
0.00179275 0.000246347 1.95648e-06
0.000246347 0.000554557 5.93647e-06
1.95648e-06 5.93647e-06 0.000324465
0.0011956 0.000240999 -1.13419e-06
0.000240999 -3.61166e-06 -8.52996e-07
-1.13419e-06 -8.52996e-07 -0.000195391
0.00069953 -3.09866e-05 -1.67007e-06
-3.09866e-05 1.0019e-05 -1.80407e-06
-1.67007e-06 -1.80407e-06 -3.13705e-05
0.000682986 2.52342e-06 4.15016e-07
2.52342e-06 1.18369e-05 4.10774e-07
4.15016e-07 4.10774e-07 -5.06344e-05
0.000650079 -2.42875e-05 -2.73728e-07
-2.42875e-05 2.03932e-06 4.41915e-07
-2.73728e-07 4.41915e-07 -6.96833e-05
0.000571277 -4.36555e-05 -8.31848e-07
-4.36555e-05 -4.98025e-05 -7.8097e-07
-8.31848e-07 -7.8097e-07 -0.000112431
0.000737389 8.84111e-06 -8.24237e-09
8.84111e-06 4.54055e-05 1.46059e-08
-8.24237e-09 1.46059e-08 -1.73468e-05
0.000759901 7.13601e-06 3.38691e-09
7.13601e-06 6.42888e-05 -3.57598e-07
3.38691e-09 -3.57598e-07 -8.16535e-06
0.000851253 3.43191e-05 -2.09295e-07
3.43191e-05 0.0001223 -7.96598e-07
-2.09295e-07 -7.96598e-07 4.21665e-05
0.000657524 -2.87537e-05 7.04371e-07
-2.87537e-05 1.28765e-05 1.10933e-07
7.04371e-07 1.10933e-07 -6.52744e-05
0.000761899 2.29101e-05 5.24529e-07
2.29101e-05 5.53409e-05 7.4873e-07
5.24529e-07 7.4873e-07 -5.19094e-06
0.00070998 6.42969e-06 1.17559e-06
6.42969e-06 1.14721e-05 1.7727e-06
1.17559e-06 1.7727e-06 -2.88018e-05
0.0007163 -8.11958e-06 -3.77077e-07
-8.11958e-06 1.32015e-05 1.2242e-08
-3.77077e-07 1.2242e-08 -2.64141e-05
0.00127026 -2.73802e-05 8.66333e-07
-2.73802e-05 0.00032028 2.26846e-06
8.66333e-07 2.26846e-06 0.000314684
0.000707752 -2.55822e-05 -8.50296e-07
-2.55822e-05 9.49988e-06 -1.93071e-06
-8.50296e-07 -1.93071e-06 -3.04196e-05
0.00129084 -3.47459e-05 -4.12357e-06
-3.47459e-05 0.000336172 -1.33559e-06
-4.12357e-06 -1.33559e-06 0.000329878
0.000918854 -2.80286e-05 1.79175e-05
-2.80286e-05 0.000129332 7.14917e-06
1.79175e-05 7.14917e-06 0.00013934
0.00130926 -4.19646e-05 -8.40679e-06
-4.19646e-05 0.00035201 -4.97037e-06
-8.40679e-06 -4.97037e-06 0.000344441
0.000854711 -3.49706e-05 6.98357e-06
-3.49706e-05 9.91049e-05 2.66303e-06
6.98357e-06 2.66303e-06 0.000107464
0.00209967 -6.91672e-05 -5.94082e-06
-6.91672e-05 0.000820858 -1.6724e-06
-5.94082e-06 -1.6724e-06 0.000832683
0.000609755 3.77236e-05 7.17968e-07
3.77236e-05 -3.77362e-05 -4.24393e-06
7.17968e-07 -4.24393e-06 -5.61398e-05
0.000600348 4.63733e-05 -1.28424e-07
4.63733e-05 -3.45385e-05 3.92784e-08
-1.28424e-07 3.92784e-08 -5.78173e-05
0.00248756 7.8652e-05 3.08448e-05
7.8652e-05 0.00104957 -3.83723e-06
3.08448e-05 -3.83723e-06 0.00105721
0.000611681 4.84428e-05 -1.22139e-06
4.84428e-05 -2.03581e-05 5.22897e-06
-1.22139e-06 5.22897e-06 -4.77318e-05
0.0026614 8.99657e-05 -3.22624e-06
8.99657e-05 0.00115513 -2.22988e-07
-3.22624e-06 -2.22988e-07 0.00116009
0.00286403 9.6114e-05 -5.73998e-05
9.6114e-05 0.00127422 3.0863e-06
-5.73998e-05 3.0863e-06 0.00127788
0.00153073 0.000119532 -1.39688e-06
0.000119532 8.98086e-05 3.22585e-07
-1.39688e-06 3.22585e-07 -4.63515e-05
0.00161054 7.69977e-05 4.74706e-07
7.69977e-05 0.00010767 5.57204e-07
4.74706e-07 5.57204e-07 -1.44964e-05
0.00168242 0.000112949 3.02877e-06
0.000112949 8.97221e-05 1.79897e-06
3.02877e-06 1.79897e-06 -1.39672e-05
0.00183272 7.05387e-05 3.0361e-06
7.05387e-05 0.000144428 3.87944e-07
3.0361e-06 3.87944e-07 4.66803e-05
0.00167585 1.75464e-05 -9.03704e-07
1.75464e-05 0.000110689 -4.87352e-08
-9.03704e-07 -4.87352e-08 -2.75544e-06
0.00140401 1.29312e-05 -3.94585e-06
1.29312e-05 5.7877e-05 -1.19098e-07
-3.94585e-06 -1.19098e-07 -6.47887e-05
0.00163833 1.81587e-06 -5.82002e-07
1.81587e-06 9.63123e-05 -3.50956e-08
-5.82002e-07 -3.50956e-08 -1.87914e-05
0.00172296 3.65495e-05 8.01337e-07
3.65495e-05 7.85461e-05 -7.44646e-08
8.01337e-07 -7.44646e-08 -2.4658e-05
0.00173476 9.46672e-05 -1.11299e-06
9.46672e-05 0.000102599 -3.02739e-07
-1.11299e-06 -3.02739e-07 1.62038e-06
0.00177165 7.51515e-05 1.98626e-06
7.51515e-05 9.50063e-05 -8.3003e-08
1.98626e-06 -8.3003e-08 9.39673e-06
0.00159489 0.000118858 -7.63339e-07
0.000118858 7.0708e-05 -3.95289e-08
-7.63339e-07 -3.95289e-08 -4.64757e-05
0.00180472 0.000130617 3.26454e-06
0.000130617 0.000117693 8.82474e-07
3.26454e-06 8.82474e-07 2.98627e-05
0.00174175 -1.38337e-06 -4.44914e-07
-1.38337e-06 0.000101373 1.9731e-07
-4.44914e-07 1.9731e-07 -2.06565e-06
0.00166976 4.51896e-05 8.16948e-08
4.51896e-05 3.76854e-05 9.89934e-07
8.16948e-08 9.89934e-07 -4.96123e-05
0.00179842 9.64143e-05 -7.89561e-07
9.64143e-05 9.69217e-05 -8.03475e-08
-7.89561e-07 -8.03475e-08 1.81355e-05
0.00191269 0.000153267 -9.83581e-07
0.000153267 0.000179357 -1.20194e-06
-9.83581e-07 -1.20194e-06 9.05116e-05
0.00160788 -1.92066e-05 -4.05892e-07
-1.92066e-05 8.88901e-05 4.13824e-08
-4.05892e-07 4.13824e-08 -2.73867e-05
0.00166879 -6.33783e-05 -7.35546e-07
-6.33783e-05 0.000137686 -5.75715e-07
-7.35546e-07 -5.75715e-07 1.68127e-05
0.00174309 -4.83512e-05 1.66774e-06
-4.83512e-05 0.000104556 -3.68009e-07
1.66774e-06 -3.68009e-07 5.15983e-07
0.00162122 -0.000115996 1.62738e-06
-0.000115996 7.47768e-05 -2.46392e-07
1.62738e-06 -2.46392e-07 -3.24403e-05
0.00109666 -0.000145616 -1.81475e-06
-0.000145616 0.000229632 1.2772e-06
-1.81475e-06 1.2772e-06 0.000100794
0.000941433 -0.000171983 8.34573e-07
-0.000171983 0.000111757 1.81903e-06
8.34573e-07 1.81903e-06 -5.45638e-05
0.000993356 -0.000210533 -2.68454e-06
-0.000210533 -4.93949e-05 2.6267e-06
-2.68454e-06 2.6267e-06 -0.000255867
0.00156178 -0.000156742 2.3073e-07
-0.000156742 8.9748e-05 -5.12356e-07
2.3073e-07 -5.12356e-07 -3.83026e-05
0.00163643 -0.000140582 4.38851e-06
-0.000140582 5.27896e-05 -2.29312e-06
4.38851e-06 -2.29312e-06 -3.95659e-05
0.00166865 -0.000204238 3.83153e-06
-0.000204238 0.000124982 -1.35397e-06
3.83153e-06 -1.35397e-06 1.81379e-06
0.00172238 -0.000246501 -2.78836e-06
-0.000246501 0.000218079 -2.1406e-06
-2.78836e-06 -2.1406e-06 4.01525e-05
0.00165575 -0.000226984 2.63232e-06
-0.000226984 0.00010726 -8.94692e-06
2.63232e-06 -8.94692e-06 -2.82283e-05
0.00110507 -0.000170889 3.47936e-07
-0.000170889 0.000244563 -8.87144e-07
3.47936e-07 -8.87144e-07 0.000107469
0.00109123 -0.000164326 -8.0803e-08
-0.000164326 0.000232832 -3.41918e-06
-8.0803e-08 -3.41918e-06 9.76761e-05
0.000838383 -5.66232e-05 -2.33301e-07
-5.66232e-05 0.000112162 2.03135e-07
-2.33301e-07 2.03135e-07 -9.05166e-06
0.000420718 1.60727e-05 -1.91301e-06
1.60727e-05 -0.000134493 2.5804e-06
-1.91301e-06 2.5804e-06 -0.00019695
0.000541617 3.48905e-05 1.3984e-07
3.48905e-05 -4.8395e-05 5.54536e-07
1.3984e-07 5.54536e-07 -0.000144046
0.00182003 -3.4418e-05 2.42457e-07
-3.4418e-05 0.000137275 -4.74648e-08
2.42457e-07 -4.74648e-08 3.48412e-05
0.00178332 -7.36182e-05 4.45388e-07
-7.36182e-05 0.000120695 -3.72367e-07
4.45388e-07 -3.72367e-07 2.08334e-05
0.00174807 -0.000135785 -1.33861e-06
-0.000135785 9.74216e-05 3.82148e-08
-1.33861e-06 3.82148e-08 1.09832e-05
0.00102968 -0.000168756 -1.71491e-07
-0.000168756 0.00019248 1.0176e-06
-1.71491e-07 1.0176e-06 4.58131e-05
0.000763361 -0.000172857 1.48602e-06
-0.000172857 -1.45468e-05 -2.39268e-06
1.48602e-06 -2.39268e-06 -0.000198444
0.00169008 -0.000274916 -1.70869e-06
-0.000274916 0.000273088 1.09913e-06
-1.70869e-06 1.09913e-06 5.59721e-05
0.00159989 -0.000163243 5.16205e-07
-0.000163243 4.65959e-05 -1.57128e-07
5.16205e-07 -1.57128e-07 -5.51666e-05
0.00161658 -0.000246736 8.27129e-07
-0.000246736 0.000114117 -1.8983e-06
8.27129e-07 -1.8983e-06 -5.33535e-05
0.00177385 -0.000227182 -4.63944e-07
-0.000227182 0.0001385 -1.05902e-06
-4.63944e-07 -1.05902e-06 2.00331e-05
0.000400274 2.04496e-05 1.19973e-07
2.04496e-05 -0.000148259 -7.62194e-07
1.19973e-07 -7.62194e-07 -0.000204086
0.00105686 -0.000170171 -2.87424e-08
-0.000170171 0.000204984 6.10669e-07
-2.87424e-08 6.10669e-07 6.7984e-05
0.000787268 -0.000152403 -8.93367e-07
-0.000152403 5.09653e-05 -4.42442e-08
-8.93367e-07 -4.42442e-08 -8.11513e-05
0.000999989 -0.000117905 -5.2033e-07
-0.000117905 0.000203297 1.06162e-06
-5.2033e-07 1.06162e-06 6.34444e-05
0.00095017 -5.22507e-05 -8.21891e-08
-5.22507e-05 0.000187249 -4.7199e-08
-8.21891e-08 -4.7199e-08 7.43951e-05
0.000699347 7.38275e-06 -2.93276e-07
7.38275e-06 4.35629e-05 3.73478e-07
-2.93276e-07 3.73478e-07 -4.73076e-05
0.0016135 -3.94506e-05 -5.337e-07
-3.94506e-05 1.10199e-05 -2.78256e-08
-5.337e-07 -2.78256e-08 -8.28947e-05
0.00186699 -0.000103687 -1.09503e-06
-0.000103687 0.000126875 -6.51418e-08
-1.09503e-06 -6.51418e-08 4.9022e-05
0.0015622 -0.000150435 -1.88428e-07
-0.000150435 -1.72532e-05 2.55342e-07
-1.88428e-07 2.55342e-07 -9.78134e-05
0.00192449 -0.000204314 -1.16404e-06
-0.000204314 0.000172848 -2.89401e-07
-1.16404e-06 -2.89401e-07 7.9703e-05
0.00102559 -0.00017598 -1.92649e-06
-0.00017598 0.000180582 6.50416e-08
-1.92649e-06 6.50416e-08 2.52082e-05
0.00181324 -0.00025675 1.70135e-06
-0.00025675 0.00018159 3.68031e-06
1.70135e-06 3.68031e-06 4.13878e-05
0.000611725 -0.000186573 -1.5305e-06
-0.000186573 -0.000152415 -2.36305e-06
-1.5305e-06 -2.36305e-06 -0.000366848
0.00220047 -0.000322975 3.57052e-07
-0.000322975 0.000521782 2.2259e-06
3.57052e-07 2.2259e-06 0.000301429
0.000381574 3.5676e-05 -3.79917e-07
3.5676e-05 -0.000162122 -3.05652e-06
-3.79917e-07 -3.05652e-06 -0.00021216
0.00082891 -1.27823e-05 1.35608e-06
-1.27823e-05 0.000116651 -1.3311e-06
1.35608e-06 -1.3311e-06 3.21555e-05
0.000991324 -7.10392e-05 4.17285e-08
-7.10392e-05 0.000213436 6.38749e-07
4.17285e-08 6.38749e-07 0.000106819
0.000809067 -2.07842e-05 -1.34899e-07
-2.07842e-05 0.000106393 -6.64712e-07
-1.34899e-07 -6.64712e-07 -1.70845e-05
0.000872262 -0.000164575 -7.50132e-07
-0.000164575 8.70585e-05 1.09532e-06
-7.50132e-07 1.09532e-06 -5.0949e-05
0.000967361 -0.000165749 -3.44063e-06
-0.000165749 0.000150045 3.28625e-06
-3.44063e-06 3.28625e-06 2.47224e-06
0.000685317 -3.65478e-05 -2.00579e-06
-3.65478e-05 7.19226e-06 -1.70336e-06
-2.00579e-06 -1.70336e-06 -3.61234e-05
0.000670093 -6.3374e-05 6.90654e-08
-6.3374e-05 1.77031e-05 -9.58455e-07
6.90654e-08 -9.58455e-07 -5.51901e-05
0.00164248 0.000169682 -4.18491e-07
0.000169682 0.000120707 3.30609e-07
-4.18491e-07 3.30609e-07 -1.7449e-05
0.000729078 -4.13388e-05 9.21736e-07
-4.13388e-05 6.38559e-05 -7.08848e-07
9.21736e-07 -7.08848e-07 -3.59819e-05
0.000912536 0.000151531 3.44756e-07
0.000151531 0.00016098 -9.10518e-07
3.44756e-07 -9.10518e-07 9.51329e-06
0.000516545 4.86933e-05 1.56273e-06
4.86933e-05 -5.86085e-05 -1.49511e-07
1.56273e-06 -1.49511e-07 -0.000187981
0.00162451 0.000233648 -8.32059e-07
0.000233648 0.000178435 -1.40183e-07
-8.32059e-07 -1.40183e-07 9.58582e-06
0.00168116 0.000236551 7.29761e-07
0.000236551 0.000137257 1.64568e-06
7.29761e-07 1.64568e-06 -6.01728e-06
0.000556236 0.000150766 2.12994e-07
0.000150766 -7.92579e-05 6.42457e-07
2.12994e-07 6.42457e-07 -0.000283858
0.00196867 0.000283918 -6.22886e-07
0.000283918 0.000467033 2.40071e-07
-6.22886e-07 2.40071e-07 0.000268561
0.000736925 -1.11334e-05 -6.93504e-07
-1.11334e-05 4.57406e-05 1.37657e-07
-6.93504e-07 1.37657e-07 -1.90001e-05
0.000697338 -1.14521e-05 8.86378e-09
-1.14521e-05 4.06144e-05 9.51474e-07
8.86378e-09 9.51474e-07 -4.82583e-05
0.00106078 0.000169772 -4.32723e-07
0.000169772 0.000239938 -2.1646e-06
-4.32723e-07 -2.1646e-06 6.75214e-05
0.000616898 -5.13111e-06 -3.31313e-07
-5.13111e-06 4.76601e-06 1.13293e-07
-3.31313e-07 1.13293e-07 -0.000112727
0.000800927 0.000119764 -1.62103e-06
0.000119764 9.27075e-05 -6.36651e-07
-1.62103e-06 -6.36651e-07 -4.3169e-05
0.00185414 0.000188869 -2.31514e-06
0.000188869 0.000166899 -1.09271e-06
-2.31514e-06 -1.09271e-06 6.12048e-05
0.00182439 0.000271453 1.22092e-06
0.000271453 0.000263139 -3.57891e-07
1.22092e-06 -3.57891e-07 9.26458e-05
0.00158866 0.000246863 4.49847e-07
0.000246863 6.88913e-05 1.70153e-06
4.49847e-07 1.70153e-06 -7.37719e-05
0.00144812 0.000223948 2.37686e-06
0.000223948 0.000374094 4.02367e-06
2.37686e-06 4.02367e-06 0.000140831
0.001265 0.000248796 -2.03796e-06
0.000248796 3.20694e-05 4.6313e-07
-2.03796e-06 4.6313e-07 -0.000161646
0.000548677 -3.19249e-05 -2.95328e-07
-3.19249e-05 -4.8885e-05 1.25776e-06
-2.95328e-07 1.25776e-06 -0.000125596
0.000335952 4.36373e-05 -5.88271e-07
4.36373e-05 -0.00014235 5.91301e-07
-5.88271e-07 5.91301e-07 -0.000254725
0.00106635 0.000173886 1.06699e-06
0.000173886 0.00022731 1.88051e-06
1.06699e-06 1.88051e-06 3.52697e-05
-0.000115037 4.92792e-05 1.58471e-06
4.92792e-05 -0.000405518 2.21818e-07
1.58471e-06 2.21818e-07 -0.000546051
0.00191941 0.000188923 -2.09793e-06
0.000188923 9.62374e-05 -7.4155e-07
-2.09793e-06 -7.4155e-07 1.8709e-05
0.00205044 0.000236831 1.84322e-06
0.000236831 0.000252572 -6.75205e-07
1.84322e-06 -6.75205e-07 0.000142097
0.00177131 0.00029997 -1.16612e-06
0.00029997 0.000203567 -2.33732e-06
-1.16612e-06 -2.33732e-06 2.45545e-05
-0.000195325 0.000122804 -1.12507e-06
0.000122804 -0.000621632 1.93348e-06
-1.12507e-06 1.93348e-06 -0.000856025
0.000735229 1.96847e-05 -7.67421e-07
1.96847e-05 4.61113e-05 -2.72286e-07
-7.67421e-07 -2.72286e-07 -1.90902e-05
0.000719252 5.70224e-07 -3.46686e-07
5.70224e-07 4.61765e-05 3.77987e-07
-3.46686e-07 3.77987e-07 -2.86833e-05
0.000834035 -1.77516e-05 -5.60968e-07
-1.77516e-05 0.000114052 9.82289e-08
-5.60968e-07 9.82289e-08 3.67498e-05
0.000721726 -2.45643e-05 -1.09037e-06
-2.45643e-05 3.30499e-05 -7.89669e-07
-1.09037e-06 -7.89669e-07 -2.70223e-05
0.000599925 -3.14955e-05 -2.36365e-07
-3.14955e-05 -2.39816e-05 -4.18736e-07
-2.36365e-07 -4.18736e-07 -9.72174e-05
0.000744576 1.57065e-06 5.79724e-09
1.57065e-06 4.69031e-05 -5.48921e-09
5.79724e-09 -5.48921e-09 -1.45058e-05
0.000751498 3.51923e-05 -4.46288e-07
3.51923e-05 7.35512e-05 -2.44213e-07
-4.46288e-07 -2.44213e-07 -1.1245e-05
0.00070161 -1.07993e-06 4.634e-07
-1.07993e-06 3.98024e-05 2.89584e-07
4.634e-07 2.89584e-07 -3.94137e-05
0.000813036 4.55422e-06 5.06955e-07
4.55422e-06 0.000100709 -6.01316e-08
5.06955e-07 -6.01316e-08 1.8294e-05
0.000762193 -3.48248e-05 7.59947e-07
-3.48248e-05 7.39414e-05 -4.5563e-07
7.59947e-07 -4.5563e-07 -1.06429e-05
0.000628891 2.14545e-05 4.65726e-07
2.14545e-05 -4.70722e-06 5.31304e-07
4.65726e-07 5.31304e-07 -8.42978e-05
0.000739521 3.68116e-05 8.17227e-07
3.68116e-05 4.51206e-05 8.82654e-07
8.17227e-07 8.82654e-07 -1.80954e-05
0.000691133 1.71175e-05 7.62197e-07
1.71175e-05 4.61726e-06 1.67866e-06
7.62197e-07 1.67866e-06 -3.6967e-05
0.000700951 -5.54853e-06 -2.94806e-07
-5.54853e-06 6.83811e-06 2.01587e-08
-2.94806e-07 2.01587e-08 -3.36943e-05
0.00127838 -1.78138e-05 6.95778e-07
-1.78138e-05 0.000322185 2.18412e-06
6.95778e-07 2.18412e-06 0.000316901
0.000707376 -2.05413e-05 -5.70962e-07
-2.05413e-05 8.75754e-06 -1.88188e-06
-5.70962e-07 -1.88188e-06 -3.11331e-05
0.00130161 -2.50248e-05 -3.41447e-06
-2.50248e-05 0.000338274 -1.40906e-06
-3.41447e-06 -1.40906e-06 0.000332666
0.00092784 -2.14664e-05 1.49095e-05
-2.14664e-05 0.000129688 7.42985e-06
1.49095e-05 7.42985e-06 0.000140384
0.00131937 -3.27748e-05 -6.8793e-06
-3.27748e-05 0.000352221 -5.01411e-06
-6.8793e-06 -5.01411e-06 0.000345947
0.000865634 -2.85894e-05 5.63638e-06
-2.85894e-05 9.87685e-05 2.76141e-06
5.63638e-06 2.76141e-06 0.000108625
0.000798858 -3.45972e-05 -1.90899e-06
-3.45972e-05 6.71632e-05 -1.86568e-06
-1.90899e-06 -1.86568e-06 7.55197e-05
0.000618528 3.22522e-05 5.75961e-07
3.22522e-05 -4.04348e-05 -3.88719e-06
5.75961e-07 -3.88719e-06 -5.46212e-05
0.00061958 3.89454e-05 -1.87332e-07
3.89454e-05 -3.19631e-05 6.09744e-08
-1.87332e-07 6.09744e-08 -5.06472e-05
0.00235374 6.67535e-05 2.50229e-05
6.67535e-05 0.000965872 -4.03268e-06
2.50229e-05 -4.03268e-06 0.000976589
0.000616334 4.59163e-05 -7.54106e-07
4.59163e-05 -2.51689e-05 4.8035e-06
-7.54106e-07 4.8035e-06 -4.86121e-05
0.00254541 7.96311e-05 -3.10453e-06
7.96311e-05 0.00108291 -2.0706e-07
-3.10453e-06 -2.0706e-07 0.00109029
0.00271783 8.92539e-05 -4.54073e-05
8.92539e-05 0.00118687 3.3451e-06
-4.54073e-05 3.3451e-06 0.0011921
0.00161687 0.000117835 1.6369e-06
0.000117835 8.88663e-05 2.28938e-06
1.6369e-06 2.28938e-06 -2.8268e-05
0.00169025 9.24284e-05 1.24749e-06
9.24284e-05 7.61252e-05 3.23266e-07
1.24749e-06 3.23266e-07 -2.62802e-05
0.00169772 0.000131944 5.01729e-06
0.000131944 5.39585e-05 1.36334e-06
5.01729e-06 1.36334e-06 -3.14141e-05
0.00173402 7.53784e-05 3.16874e-06
7.53784e-05 6.89494e-05 -8.29672e-07
3.16874e-06 -8.29672e-07 -1.4604e-05
0.00174821 3.10499e-05 1.85485e-06
3.10499e-05 9.45233e-05 -3.10606e-07
1.85485e-06 -3.10606e-07 -9.59426e-06
0.00162391 9.72306e-07 -1.02325e-06
9.72306e-07 8.78348e-05 -1.73335e-07
-1.02325e-06 -1.73335e-07 -2.83685e-05
0.00175508 1.04847e-06 -6.29007e-08
1.04847e-06 0.000108945 -1.42994e-08
-6.29007e-08 -1.42994e-08 5.63767e-06
0.00168189 4.21464e-05 1.06633e-06
4.21464e-05 4.97278e-05 -2.27253e-07
1.06633e-06 -2.27253e-07 -3.8181e-05
0.00176598 9.88368e-05 9.36592e-07
9.88368e-05 8.03346e-05 -2.01919e-07
9.36592e-07 -2.01919e-07 5.05488e-07
0.00191764 0.000149529 4.01832e-07
0.000149529 0.000173268 2.69902e-07
4.01832e-07 2.69902e-07 8.56413e-05
0.00165655 -2.74183e-07 -1.48391e-06
-2.74183e-07 4.35375e-05 2.58463e-07
-1.48391e-06 2.58463e-07 -4.75532e-05
0.00199006 7.32396e-05 8.93844e-07
7.32396e-05 0.00016979 3.87626e-07
8.93844e-07 3.87626e-07 0.000102301
0.00165974 0.000138898 7.35637e-07
0.000138898 -2.81176e-05 -3.42969e-07
7.35637e-07 -3.42969e-07 -0.000100848
0.00181782 -3.64531e-05 5.90343e-07
-3.64531e-05 0.000138842 4.86906e-08
5.90343e-07 4.86906e-08 3.6292e-05
0.00180879 -7.63461e-05 1.0193e-06
-7.63461e-05 0.000136691 -4.42118e-07
1.0193e-06 -4.42118e-07 3.64934e-05
0.00168513 -0.000133175 9.50869e-07
-0.000133175 6.60574e-05 -1.51744e-07
9.50869e-07 -1.51744e-07 -2.26823e-05
0.00118923 -0.000180265 -1.499e-07
-0.000180265 0.000279103 2.18319e-06
-1.499e-07 2.18319e-06 0.00013078
0.00162384 -0.000234023 -3.10287e-07
-0.000234023 0.00046301 1.86335e-06
-3.10287e-07 1.86335e-06 0.000274843
0.000906884 -0.000221869 -1.97013e-06
-0.000221869 -0.000158213 1.59258e-06
-1.97013e-06 1.59258e-06 -0.000371525
0.00163589 -0.000164097 1.39039e-06
-0.000164097 6.61146e-05 -1.06775e-06
1.39039e-06 -1.06775e-06 -3.61333e-05
0.0015173 -0.000218667 1.77479e-07
-0.000218667 -1.4996e-06 -3.21737e-06
1.77479e-07 -3.21737e-06 -0.000121378
0.00163608 -0.000245409 -1.53339e-06
-0.000245409 0.000124683 -6.87611e-06
-1.53339e-06 -6.87611e-06 -3.8498e-05
0.00110944 -0.000173719 8.51633e-07
-0.000173719 0.000231382 -9.61338e-07
8.51633e-07 -9.61338e-07 9.41083e-05
0.000775691 -0.000149726 -5.12142e-06
-0.000149726 4.98495e-05 -2.58641e-06
-5.12142e-06 -2.58641e-06 -7.84801e-05
0.00113636 -0.000132797 2.46694e-07
-0.000132797 0.000290578 3.03203e-07
2.46694e-07 3.03203e-07 0.000142065
0.000413499 1.92904e-05 -7.09322e-07
1.92904e-05 -0.000141478 1.57736e-06
-7.09322e-07 1.57736e-06 -0.000196425
0.000971997 -4.53971e-05 2.36175e-07
-4.53971e-05 0.000196199 2.83302e-07
2.36175e-07 2.83302e-07 8.56964e-05
0.00057333 2.97296e-05 5.33324e-07
2.97296e-05 -3.26501e-05 1.6224e-06
5.33324e-07 1.6224e-06 -0.000121158
0.00171075 -3.87394e-05 -5.6754e-07
-3.87394e-05 6.34632e-05 6.37848e-08
-5.6754e-07 6.37848e-08 -3.0157e-05
0.00187895 -0.000104809 2.69642e-07
-0.000104809 0.000133539 7.55391e-09
2.69642e-07 7.55391e-09 5.65822e-05
0.00160959 -0.000150829 -3.08764e-07
-0.000150829 1.09285e-05 2.52419e-07
-3.08764e-07 2.52419e-07 -6.9078e-05
0.00108222 -0.000178802 1.53471e-07
-0.000178802 0.000209092 1.78429e-06
1.53471e-07 1.78429e-06 5.34331e-05
0.000844922 -0.000200101 -4.57038e-07
-0.000200101 -1.26491e-05 -9.49066e-08
-4.57038e-07 -9.49066e-08 -0.000223438
0.00189075 -0.000299447 -2.80798e-06
-0.000299447 0.000346247 1.13338e-06
-2.80798e-06 1.13338e-06 0.000131792
0.00189019 -0.000205347 1.01272e-06
-0.000205347 0.000154167 -5.82743e-07
1.01272e-06 -5.82743e-07 5.95897e-05
0.00173469 -0.000254105 1.45619e-06
-0.000254105 0.000133404 -1.14274e-06
1.45619e-06 -1.14274e-06 -6.85415e-06
0.000535538 2.29126e-05 3.64675e-07
2.29126e-05 -7.61835e-05 -7.4972e-07
3.64675e-07 -7.4972e-07 -0.000123737
0.000830858 -3.43417e-06 -3.76722e-07
-3.43417e-06 0.000116035 2.74623e-07
-3.76722e-07 2.74623e-07 3.24046e-05
0.000489016 -0.00013478 -1.9347e-06
-0.00013478 -0.000128057 1.65987e-06
-1.9347e-06 1.65987e-06 -0.00026051
0.00125397 -0.000176901 1.34282e-07
-0.000176901 0.000317127 4.71261e-08
1.34282e-07 4.71261e-08 0.000173322
0.000887915 -4.21678e-05 -1.96322e-08
-4.21678e-05 0.000152608 -3.38798e-07
-1.96322e-08 -3.38798e-07 2.65051e-05
0.000896585 -5.3174e-05 -5.91643e-07
-5.3174e-05 0.000160488 1.05223e-06
-5.91643e-07 1.05223e-06 5.3598e-05
0.00188926 -6.16204e-05 -3.19699e-08
-6.16204e-05 0.000113357 1.33231e-07
-3.19699e-08 1.33231e-07 4.43543e-05
0.00177651 -0.000146604 -1.69965e-06
-0.000146604 4.25681e-05 -6.22805e-07
-1.69965e-06 -6.22805e-07 -1.5966e-05
0.00179078 -0.000169481 2.01232e-06
-0.000169481 7.00316e-05 -2.3216e-07
2.01232e-06 -2.3216e-07 -2.02476e-06
0.00230117 -0.000289805 6.11593e-06
-0.000289805 0.000354803 -8.17059e-07
6.11593e-06 -8.17059e-07 0.00024501
0.000288073 -0.000132803 -2.46888e-06
-0.000132803 -0.000241017 -8.94402e-07
-2.46888e-06 -8.94402e-07 -0.000409687
0.00179578 -0.000302393 -1.87223e-06
-0.000302393 0.000248736 7.10438e-06
-1.87223e-06 7.10438e-06 4.86694e-05
0.00230366 -0.000330072 3.10796e-06
-0.000330072 0.000729801 -3.94567e-06
3.10796e-06 -3.94567e-06 0.000488903
0.000701833 2.17957e-05 6.76787e-07
2.17957e-05 1.26976e-05 -2.07299e-06
6.76787e-07 -2.07299e-06 -2.85004e-05
0.000734422 -8.07042e-05 1.57115e-06
-8.07042e-05 6.37385e-05 -1.99383e-06
1.57115e-06 -1.99383e-06 -1.05769e-05
0.000521582 1.47209e-05 1.65694e-07
1.47209e-05 -5.66617e-05 -2.3371e-06
1.65694e-07 -2.3371e-06 -0.000138013
0.000821718 -3.96572e-05 1.27319e-06
-3.96572e-05 0.00012561 3.15087e-07
1.27319e-06 3.15087e-07 2.12266e-05
0.000804673 -3.87882e-06 1.122e-06
-3.87882e-06 9.95374e-05 -1.30775e-06
1.122e-06 -1.30775e-06 -9.51067e-06
0.000390413 -0.000105621 5.525e-08
-0.000105621 -0.000111689 2.57783e-06
5.525e-08 2.57783e-06 -0.000248605
0.000466857 -0.000139055 -1.95925e-06
-0.000139055 -0.000189741 7.40507e-07
-1.95925e-06 7.40507e-07 -0.000312932
0.00186519 -0.000224198 -6.39625e-06
-0.000224198 0.000697729 3.62972e-06
-6.39625e-06 3.62972e-06 0.000520689
0.000715818 -3.48465e-05 -7.1219e-07
-3.48465e-05 3.15681e-05 -6.79042e-07
-7.1219e-07 -6.79042e-07 -3.10086e-05
0.000822266 -5.09234e-06 9.27457e-09
-5.09234e-06 0.000111994 9.67379e-08
9.27457e-09 9.67379e-08 2.15642e-05
0.00209072 0.000195369 -8.17475e-08
0.000195369 0.000299376 4.85677e-07
-8.17475e-08 4.85677e-07 0.000195981
0.000829942 2.05664e-05 -5.17565e-08
2.05664e-05 0.000130049 -5.27705e-07
-5.17565e-08 -5.27705e-07 7.52076e-06
0.00117766 0.000178618 1.17484e-06
0.000178618 0.000313938 -2.07948e-06
1.17484e-06 -2.07948e-06 0.000137056
0.000596699 9.07515e-05 2.93104e-08
9.07515e-05 -2.1432e-05 2.00125e-06
2.93104e-08 2.00125e-06 -0.000146882
0.0018837 0.000271835 2.98985e-07
0.000271835 0.000295558 8.59855e-07
2.98985e-07 8.59855e-07 0.000126178
0.00167589 0.000256113 1.71426e-06
0.000256113 0.000117842 4.30143e-06
1.71426e-06 4.30143e-06 -2.62345e-05
0.00102633 0.000196283 1.12333e-06
0.000196283 0.000150483 6.07632e-08
1.12333e-06 6.07632e-08 -8.58622e-05
0.00139144 0.000260605 -1.63504e-06
0.000260605 9.65763e-05 1.43533e-06
-1.63504e-06 1.43533e-06 -9.87817e-05
0.000584179 -1.12371e-05 1.06247e-07
-1.12371e-05 -2.39073e-05 6.90345e-07
1.06247e-07 6.90345e-07 -0.000105319
0.000571133 5.76896e-05 -4.49314e-07
5.76896e-05 -1.0621e-05 -1.49065e-06
-4.49314e-07 -1.49065e-06 -0.000124724
0.00105092 0.000173801 1.55216e-06
0.000173801 0.000228898 -1.73328e-06
1.55216e-06 -1.73328e-06 3.24547e-05
0.000680682 0.000101881 -9.04487e-07
0.000101881 3.62753e-05 -2.10656e-06
-9.04487e-07 -2.10656e-06 -0.00010882
0.00198301 0.000186444 2.22116e-07
0.000186444 0.000134625 -6.15425e-07
2.22116e-07 -6.15425e-07 5.97162e-05
0.0018787 0.000235854 2.01974e-06
0.000235854 0.000166647 7.03047e-07
2.01974e-06 7.03047e-07 5.16228e-05
0.00174714 0.000292732 -1.83788e-06
0.000292732 0.000188241 -3.12993e-07
-1.83788e-06 -3.12993e-07 1.11126e-05
0.000790282 0.000198547 5.83954e-07
0.000198547 -9.71656e-05 7.06359e-07
5.83954e-07 7.06359e-07 -0.000332004
0.000749787 8.06823e-08 -2.04836e-07
8.06823e-08 6.92336e-05 1.0437e-06
-2.04836e-07 1.0437e-06 -1.51843e-05
0.00185444 0.000146518 -4.90632e-07
0.000146518 2.56189e-05 1.18543e-06
-4.90632e-07 1.18543e-06 -2.18102e-05
0.00126706 0.000170454 -3.70236e-07
0.000170454 0.000395115 2.73595e-06
-3.70236e-07 2.73595e-06 0.00024381
0.00108437 0.000185131 9.98263e-07
0.000185131 0.00022389 3.58921e-06
9.98263e-07 3.58921e-06 1.96203e-05
0.00249989 0.000238841 -7.17869e-06
0.000238841 0.000411843 -9.00275e-07
-7.17869e-06 -9.00275e-07 0.000331525
0.00142304 0.000291277 -2.62715e-06
0.000291277 -6.62709e-05 -3.92369e-06
-2.62715e-06 -3.92369e-06 -0.000228699
0.00198247 0.000310651 -3.12092e-06
0.000310651 0.000451617 6.62392e-07
-3.12092e-06 6.62392e-07 0.00021954
0.000783696 8.28882e-06 -1.41016e-06
8.28882e-06 8.33179e-05 4.05105e-08
-1.41016e-06 4.05105e-08 8.46071e-06
0.000774726 -3.6318e-06 -2.89328e-07
-3.6318e-06 8.24606e-05 8.10342e-08
-2.89328e-07 8.10342e-08 4.02513e-06
0.000845801 -1.71295e-05 -4.7081e-07
-1.71295e-05 0.000130879 5.46565e-07
-4.7081e-07 5.46565e-07 4.6654e-05
0.00072115 -2.16812e-05 -4.01587e-07
-2.16812e-05 3.52617e-05 -9.57316e-07
-4.01587e-07 -9.57316e-07 -2.72937e-05
0.000742371 1.53253e-05 3.77018e-07
1.53253e-05 6.41401e-05 2.53648e-07
3.77018e-07 2.53648e-07 -1.55179e-05
0.000613321 -9.20569e-06 -7.85698e-07
-9.20569e-06 1.44671e-06 2.35602e-07
-7.85698e-07 2.35602e-07 -8.59464e-05
0.0007286 -9.85054e-06 -1.73862e-07
-9.85054e-06 4.34207e-05 -3.89054e-08
-1.73862e-07 -3.89054e-08 -2.29981e-05
0.00063408 -2.4811e-05 -5.59335e-07
-2.4811e-05 3.03403e-06 3.4158e-07
-5.59335e-07 3.4158e-07 -7.91042e-05
0.000717314 -3.45965e-05 5.63318e-07
-3.45965e-05 4.7236e-05 -3.11882e-07
5.63318e-07 -3.11882e-07 -3.48542e-05
0.000816189 1.6433e-05 3.116e-07
1.6433e-05 0.000111803 1.83124e-07
3.116e-07 1.83124e-07 2.22094e-05
0.000845594 -1.02578e-05 7.11752e-07
-1.02578e-05 0.000106084 -7.09113e-07
7.11752e-07 -7.09113e-07 2.50447e-05
0.000760441 -5.36954e-05 6.12683e-07
-5.36954e-05 6.83851e-05 -1.49787e-07
6.12683e-07 -1.49787e-07 -1.66841e-05
0.00082611 1.83306e-05 5.37252e-07
1.83306e-05 0.000113856 -3.99662e-08
5.37252e-07 -3.99662e-08 2.26054e-05
0.000731759 2.1777e-05 1.74634e-06
2.1777e-05 5.77431e-05 4.12503e-07
1.74634e-06 4.12503e-07 -3.0558e-05
0.000747455 1.08351e-05 9.36421e-07
1.08351e-05 4.91302e-05 9.87805e-07
9.36421e-07 9.87805e-07 -1.59388e-05
0.000682419 -1.97991e-06 1.96043e-07
-1.97991e-06 1.01288e-06 1.61958e-06
1.96043e-07 1.61958e-06 -4.06176e-05
0.000695438 -5.80947e-06 -2.10514e-07
-5.80947e-06 6.53614e-06 3.96466e-08
-2.10514e-07 3.96466e-08 -3.46476e-05
0.00128617 -8.43516e-06 5.23017e-07
-8.43516e-06 0.000325513 2.10456e-06
5.23017e-07 2.10456e-06 0.000319918
0.000713353 -1.37363e-05 4.24571e-08
-1.37363e-05 1.39614e-05 -1.89506e-06
4.24571e-08 -1.89506e-06 -2.65812e-05
0.00131175 -1.57093e-05 -2.56345e-06
-1.57093e-05 0.000341733 -1.45785e-06
-2.56345e-06 -1.45785e-06 0.000336287
0.00092782 -1.46909e-05 1.12443e-05
-1.46909e-05 0.000126112 7.61458e-06
1.12443e-05 7.61458e-06 0.00013725
0.00133563 -2.337e-05 -5.07548e-06
-2.337e-05 0.000357795 -5.08359e-06
-5.07548e-06 -5.08359e-06 0.000352033
0.000878561 -2.18724e-05 3.96599e-06
-2.18724e-05 0.00010098 2.87157e-06
3.96599e-06 2.87157e-06 0.000111681
0.000812704 -2.79597e-05 -1.34571e-06
-2.79597e-05 6.8265e-05 -1.8716e-06
-1.34571e-06 -1.8716e-06 7.82636e-05
0.000717966 2.17511e-06 5.96581e-07
2.17511e-06 2.04433e-05 -2.10137e-06
5.96581e-07 -2.10137e-06 -1.77615e-05
0.000635519 2.5878e-05 4.88703e-07
2.5878e-05 -3.72985e-05 -3.80133e-06
4.88703e-07 -3.80133e-06 -4.80618e-05
0.000636636 3.29734e-05 -8.84073e-08
3.29734e-05 -3.02842e-05 6.57945e-08
-8.84073e-08 6.57945e-08 -4.4655e-05
0.00224778 5.48145e-05 2.05549e-05
5.48145e-05 0.000897882 -4.2132e-06
2.05549e-05 -4.2132e-06 0.000911546
0.000634919 4.11183e-05 -5.59571e-07
4.11183e-05 -2.27855e-05 4.42067e-06
-5.59571e-07 4.42067e-06 -4.19043e-05
0.00241143 6.81855e-05 -2.81391e-06
6.81855e-05 0.000999469 -1.7539e-07
-2.81391e-06 -1.7539e-07 0.00100971
0.0026008 8.02274e-05 -3.5998e-05
8.02274e-05 0.00111469 3.69803e-06
-3.5998e-05 3.69803e-06 0.00112191
0.00191858 0.000145611 1.45789e-06
0.000145611 0.000164953 2.03727e-06
1.45789e-06 2.03727e-06 7.85597e-05
0.00173343 0.000101126 1.57314e-06
0.000101126 6.37213e-05 -1.75037e-07
1.57314e-06 -1.75037e-07 -1.7139e-05
0.00169264 4.20931e-05 1.81491e-06
4.20931e-05 6.11227e-05 -7.3218e-07
1.81491e-06 -7.3218e-07 -2.74006e-05
0.00176693 3.62349e-06 6.55845e-07
3.62349e-06 0.000115698 -2.90299e-07
6.55845e-07 -2.90299e-07 1.25356e-05
0.00170928 1.76187e-06 -8.42619e-07
1.76187e-06 7.40535e-05 9.28008e-08
-8.42619e-07 9.28008e-08 -1.55813e-05
0.00193395 7.0396e-05 3.34691e-07
7.0396e-05 0.000138886 -2.09182e-08
3.34691e-07 -2.09182e-08 7.13962e-05
0.00171169 0.000141 -7.11104e-07
0.000141 -2.0108e-06 -2.51384e-07
-7.11104e-07 -2.51384e-07 -7.51193e-05
0.00181814 6.59783e-06 -1.22571e-07
6.59783e-06 6.74425e-05 4.07994e-07
-1.22571e-07 4.07994e-07 1.61139e-06
0.0019683 9.91736e-05 2.04261e-06
9.91736e-05 0.000101462 1.67811e-07
2.04261e-06 1.67811e-07 4.80809e-05
0.00200303 6.07508e-05 -2.08616e-06
6.07508e-05 0.000123194 -4.30628e-07
-2.08616e-06 -4.30628e-07 0.000123207
0.00180824 -3.81581e-05 -3.79795e-07
-3.81581e-05 0.000116055 -1.9395e-08
-3.79795e-07 -1.9395e-08 2.27184e-05
0.00189598 -0.000107152 1.00589e-06
-0.000107152 0.000142008 1.18796e-07
1.00589e-06 1.18796e-07 6.59171e-05
0.00164167 -0.000151991 -9.84943e-07
-0.000151991 2.89065e-05 1.84677e-07
-9.84943e-07 1.84677e-07 -5.06098e-05
0.00112294 -0.000180824 3.40484e-07
-0.000180824 0.000228781 3.57897e-06
3.40484e-07 3.57897e-06 7.25474e-05
0.00111099 -0.000215963 6.83676e-07
-0.000215963 0.000145311 4.37928e-06
6.83676e-07 4.37928e-06 -6.29746e-05
0.00154742 -0.00027301 -2.29881e-06
-0.00027301 0.000154187 -1.05876e-06
-2.29881e-06 -1.05876e-06 -5.35943e-05
0.00186169 -0.000204529 2.89402e-06
-0.000204529 0.0001385 -1.04153e-06
2.89402e-06 -1.04153e-06 4.27957e-05
0.00159871 -0.000245082 -1.23704e-06
-0.000245082 5.85291e-05 -4.33918e-06
-1.23704e-06 -4.33918e-06 -8.08313e-05
0.000173959 -0.000110129 -3.33079e-06
-0.000110129 -0.000304337 2.28669e-06
-3.33079e-06 2.28669e-06 -0.000432072
0.00159214 -0.00019595 8.30926e-06
-0.00019595 0.000513974 -4.18394e-06
8.30926e-06 -4.18394e-06 0.000372169
0.000833923 -1.14316e-05 -2.0864e-07
-1.14316e-05 0.000111031 -2.48439e-07
-2.0864e-07 -2.48439e-07 -6.33885e-06
0.000698118 1.019e-05 -5.59859e-07
1.019e-05 1.45321e-05 1.35978e-06
-5.59859e-07 1.35978e-06 -3.06765e-05
0.000846558 1.53731e-05 -8.40679e-07
1.53731e-05 0.000123442 1.72378e-06
-8.40679e-07 1.72378e-06 4.01668e-05
0.000815484 -2.51079e-05 -5.93937e-07
-2.51079e-05 0.000115034 1.52017e-06
-5.93937e-07 1.52017e-06 7.97357e-06
0.00186947 -6.2556e-05 6.54793e-08
-6.2556e-05 0.000101617 -1.02408e-07
6.54793e-08 -1.02408e-07 3.29539e-05
0.000700104 7.44596e-06 7.83845e-07
7.44596e-06 1.24548e-05 6.41289e-08
7.83845e-07 6.41289e-08 -2.90893e-05
0.000634145 -2.21423e-05 -1.01822e-06
-2.21423e-05 -5.48551e-06 -2.6009e-08
-1.01822e-06 -2.6009e-08 -7.2169e-05
0.00184411 -0.000144252 -1.16618e-07
-0.000144252 8.91306e-05 2.02782e-07
-1.16618e-07 2.02782e-07 2.76138e-05
0.00165849 -0.00016561 -1.96613e-06
-0.00016561 -7.79837e-06 6.97177e-07
-1.96613e-06 6.97177e-07 -8.17956e-05
0.000484683 -0.000145162 4.81856e-07
-0.000145162 -0.000120974 2.81739e-06
4.81856e-07 2.81739e-06 -0.000286582
0.00176676 -0.000287394 -2.07208e-06
-0.000287394 0.000442258 8.3541e-07
-2.07208e-06 8.3541e-07 0.000196317
0.00148727 -0.000279249 1.37302e-06
-0.000279249 7.81026e-05 -8.77872e-07
1.37302e-06 -8.77872e-07 -0.000114448
0.00197625 -0.000276675 2.55918e-06
-0.000276675 0.000187091 -1.02203e-06
2.55918e-06 -1.02203e-06 7.67008e-05
0.000785285 -2.39146e-05 1.0968e-06
-2.39146e-05 9.15591e-05 -8.15222e-07
1.0968e-06 -8.15222e-07 1.26358e-05
0.00080247 -2.83907e-05 -1.04783e-07
-2.83907e-05 0.000115041 8.13714e-07
-1.04783e-07 8.13714e-07 9.53003e-06
0.000953235 -0.000160029 -1.25063e-06
-0.000160029 8.08352e-05 -1.86865e-07
-1.25063e-06 -1.86865e-07 -4.74164e-05
0.00121114 -0.000179844 8.3303e-06
-0.000179844 0.000327681 -2.18409e-06
8.3303e-06 -2.18409e-06 0.000177689
0.000594408 -8.47086e-05 -1.10902e-06
-8.47086e-05 -6.7344e-06 2.57966e-07
-1.10902e-06 2.57966e-07 -0.000138575
0.000814736 -8.43826e-06 3.26538e-07
-8.43826e-06 0.000108858 -5.40275e-07
3.26538e-07 -5.40275e-07 -1.52442e-06
0.00201334 -7.81398e-05 -1.87286e-06
-7.81398e-05 0.000120007 1.4323e-07
-1.87286e-06 1.4323e-07 6.8424e-05
0.00172869 -0.000138142 2.40798e-06
-0.000138142 -3.428e-06 -1.78247e-07
2.40798e-06 -1.78247e-07 -5.09583e-05
0.00193053 -0.000266334 1.49889e-06
-0.000266334 6.08915e-05 -1.85573e-06
1.49889e-06 -1.85573e-06 -7.08498e-06
0.00156103 -0.00030302 2.4911e-06
-0.00030302 2.09295e-06 1.41125e-06
2.4911e-06 1.41125e-06 -0.000130024
0.000793737 -0.000131372 -4.99858e-06
-0.000131372 3.07961e-05 -4.07741e-06
-4.99858e-06 -4.07741e-06 -0.000136866
0.00268635 -0.000385559 -3.23863e-06
-0.000385559 0.000866037 3.13233e-06
-3.23863e-06 3.13233e-06 0.000601822
0.000506831 5.23287e-05 -1.31894e-06
5.23287e-05 -7.30344e-05 -2.63344e-06
-1.31894e-06 -2.63344e-06 -0.000141205
0.00074048 -4.65742e-05 1.77122e-06
-4.65742e-05 5.68022e-05 -1.67023e-06
1.77122e-06 -1.67023e-06 -1.29943e-05
0.000959939 -6.07709e-05 1.27996e-06
-6.07709e-05 0.000198564 -3.6308e-07
1.27996e-06 -3.6308e-07 0.000108355
0.000515265 1.3391e-05 5.16823e-08
1.3391e-05 -4.33074e-05 -3.17898e-07
5.16823e-08 -3.17898e-07 -0.000149999
0.00103068 -4.19309e-05 7.60492e-07
-4.19309e-05 0.000233888 -2.05867e-07
7.60492e-07 -2.05867e-07 0.000128782
0.000677388 -4.19164e-05 1.73543e-06
-4.19164e-05 2.13229e-05 -1.38028e-07
1.73543e-06 -1.38028e-07 -0.00010027
0.000247274 -7.70333e-05 4.46064e-06
-7.70333e-05 -0.000119411 1.42362e-06
4.46064e-06 1.42362e-06 -0.000311623
0.000582902 -0.000171836 -1.36814e-05
-0.000171836 -0.000102536 4.64844e-06
-1.36814e-05 4.64844e-06 -0.000224584
0.000603367 9.47957e-06 -1.17283e-07
9.47957e-06 -9.32232e-06 -8.63185e-08
-1.17283e-07 -8.63185e-08 -9.48805e-05
0.000772206 7.64249e-05 -2.788e-06
7.64249e-05 0.000102256 -2.91139e-06
-2.788e-06 -2.91139e-06 -1.39053e-05
0.0020362 0.000184645 -1.12898e-06
0.000184645 0.000166133 -5.19698e-07
-1.12898e-06 -5.19698e-07 9.38087e-05
0.00171263 0.000235541 -1.11758e-07
0.000235541 8.20476e-05 2.35481e-06
-1.11758e-07 2.35481e-06 -3.76162e-05
0.00144016 0.000132425 -4.12715e-06
0.000132425 0.000452365 -1.78606e-06
-4.12715e-06 -1.78606e-06 0.000306918
0.00103724 0.000173418 -1.54431e-06
0.000173418 0.000229161 -6.01539e-06
-1.54431e-06 -6.01539e-06 2.98499e-05
0.00166992 0.000281528 1.37915e-06
0.000281528 0.000144319 1.51946e-06
1.37915e-06 1.51946e-06 -3.08431e-05
0.00184464 0.000278479 1.39661e-07
0.000278479 0.000467494 -3.24184e-07
1.39661e-07 -3.24184e-07 0.000230503
0.000734465 2.21949e-05 6.56894e-07
2.21949e-05 6.88793e-05 -6.67439e-07
6.56894e-07 -6.67439e-07 -2.17636e-05
0.00189477 0.000142208 -5.76949e-07
0.000142208 4.2815e-05 -9.15965e-08
-5.76949e-07 -9.15965e-08 6.65567e-07
0.000933617 0.000120569 6.79892e-07
0.000120569 0.000204394 1.75222e-06
6.79892e-07 1.75222e-06 6.34831e-05
0.000781659 0.000162668 6.7625e-07
0.000162668 5.56076e-05 -8.0519e-09
6.7625e-07 -8.0519e-09 -0.000147867
0.00207916 0.000224328 2.61691e-06
0.000224328 0.000181302 -2.79037e-08
2.61691e-06 -2.79037e-08 0.000100872
0.00160511 0.000299789 -4.09656e-07
0.000299789 3.07401e-05 -1.3463e-06
-4.09656e-07 -1.3463e-06 -0.000129672
0.00208197 0.000319231 7.4003e-07
0.000319231 0.000519527 6.19941e-07
7.4003e-07 6.19941e-07 0.000285679
0.00122456 6.27606e-05 -2.38435e-06
6.27606e-05 0.000358661 1.88927e-06
-2.38435e-06 1.88927e-06 0.000242751
0.00234359 0.000159892 -2.17457e-05
0.000159892 0.00031691 -3.2419e-06
-2.17457e-05 -3.2419e-06 0.000297582
0.00221982 0.000251121 -3.73851e-06
0.000251121 0.000894246 -1.6893e-07
-3.73851e-06 -1.6893e-07 0.000723236
0.0025226 0.000315678 -6.30816e-06
0.000315678 0.000941238 1.63327e-06
-6.30816e-06 1.63327e-06 0.00071865
0.00178539 0.000310682 -7.30325e-06
0.000310682 3.131e-05 -6.56498e-06
-7.30325e-06 -6.56498e-06 -7.24838e-05
0.00141191 0.000296637 -7.41949e-06
0.000296637 8.43454e-05 -5.49259e-07
-7.41949e-06 -5.49259e-07 -0.000125078
0.000415313 0.000167771 1.3591e-05
0.000167771 -0.000509078 -3.83982e-06
1.3591e-05 -3.83982e-06 -0.00070375
0.000732753 7.70517e-06 2.63456e-07
7.70517e-06 6.23704e-05 -2.17524e-07
2.63456e-07 -2.17524e-07 -1.8278e-05
0.000797188 -9.84188e-06 -2.77839e-07
-9.84188e-06 0.000105762 2.84528e-07
-2.77839e-07 2.84528e-07 2.08613e-05
0.00106407 5.78168e-06 4.19335e-07
5.78168e-06 0.000240814 -8.25168e-07
4.19335e-07 -8.25168e-07 0.000152077
0.000717448 -5.22341e-05 -2.56789e-07
-5.22341e-05 4.10451e-05 -1.20357e-06
-2.56789e-07 -1.20357e-06 -2.80466e-05
0.000674746 -4.73663e-05 -1.19028e-06
-4.73663e-05 2.40247e-05 3.35151e-07
-1.19028e-06 3.35151e-07 -5.63805e-05
0.000877039 8.36315e-05 -5.22744e-07
8.36315e-05 0.00014821 6.57652e-07
-5.22744e-07 6.57652e-07 5.70181e-05
0.000604714 -4.30139e-05 -4.84983e-07
-4.30139e-05 -1.22999e-05 3.42089e-07
-4.84983e-07 3.42089e-07 -9.67197e-05
0.000725609 -2.5177e-05 5.78018e-09
-2.5177e-05 4.50289e-05 -1.32656e-08
5.78018e-09 -1.32656e-08 -2.54098e-05
0.000698891 1.86937e-05 -4.04638e-08
1.86937e-05 3.01414e-05 -2.07212e-07
-4.04638e-08 -2.07212e-07 -5.15531e-05
0.000800229 -1.49847e-05 -1.50679e-07
-1.49847e-05 8.0946e-05 -5.68711e-07
-1.50679e-07 -5.68711e-07 -1.66042e-06
0.000819852 -3.58097e-06 2.27302e-07
-3.58097e-06 0.000103497 3.11804e-09
2.27302e-07 3.11804e-09 1.71138e-05
0.000830859 -3.2142e-05 -5.75832e-08
-3.2142e-05 0.000106303 -3.15237e-08
-5.75832e-08 -3.15237e-08 2.15187e-05
0.000845993 -1.76517e-05 -2.69406e-08
-1.76517e-05 9.89935e-05 -6.96188e-07
-2.69406e-08 -6.96188e-07 1.73529e-05
0.000850875 8.22412e-06 -1.0921e-07
8.22412e-06 0.00011025 -1.20983e-06
-1.0921e-07 -1.20983e-06 2.19593e-05
0.000841092 3.63791e-05 3.89875e-07
3.63791e-05 0.000107451 -1.12626e-07
3.89875e-07 -1.12626e-07 2.30941e-05
0.000739096 2.97218e-05 2.83949e-07
2.97218e-05 5.98158e-05 3.27123e-07
2.83949e-07 3.27123e-07 -3.27336e-05
0.000611836 -1.44471e-05 -9.38423e-08
-1.44471e-05 -2.99547e-05 1.37478e-06
-9.38423e-08 1.37478e-06 -9.72409e-05
0.00088952 -1.00521e-05 3.20431e-07
-1.00521e-05 0.000158212 -8.24796e-07
3.20431e-07 -8.24796e-07 6.48818e-05
0.000587338 -4.26088e-07 -6.5675e-07
-4.26088e-07 -3.90864e-05 1.38102e-06
-6.5675e-07 1.38102e-06 -0.000109076
0.000676682 9.81203e-06 -3.38426e-07
9.81203e-06 -8.80867e-07 1.63297e-06
-3.38426e-07 1.63297e-06 -4.35378e-05
0.000679446 8.58688e-06 2.99436e-07
8.58688e-06 -3.12017e-08 1.13999e-08
2.99436e-07 1.13999e-08 -4.20018e-05
0.000645044 1.32094e-06 1.29827e-07
1.32094e-06 -4.10961e-05 3.50832e-06
1.29827e-07 3.50832e-06 -5.0983e-05
0.000689754 -4.27987e-06 -4.36879e-07
-4.27987e-06 3.75227e-06 -1.7339e-06
-4.36879e-07 -1.7339e-06 -3.76318e-05
0.000986902 -5.96721e-06 -1.65936e-06
-5.96721e-06 0.000154676 -1.53634e-06
-1.65936e-06 -1.53634e-06 0.00014705
0.0022358 -1.07965e-05 7.03152e-06
-1.07965e-05 0.000872568 4.80726e-06
7.03152e-06 4.80726e-06 0.000891112
0.0013466 -1.43023e-05 -2.96264e-06
-1.43023e-05 0.000362093 -5.04068e-06
-2.96264e-06 -5.04068e-06 0.000356388
0.000879107 -1.4807e-05 2.08666e-06
-1.4807e-05 9.74379e-05 2.95084e-06
2.08666e-06 2.95084e-06 0.000108744
0.000826271 -2.09005e-05 -7.96229e-07
-2.09005e-05 7.05579e-05 -1.88556e-06
-7.96229e-07 -1.88556e-06 8.15272e-05
0.000685639 1.18777e-05 -3.16842e-07
1.18777e-05 2.91204e-06 -2.03221e-06
-3.16842e-07 -2.03221e-06 -3.3431e-05
0.000706386 4.99912e-07 2.69931e-07
4.99912e-07 1.39672e-05 -1.86184e-08
2.69931e-07 -1.86184e-08 -2.43926e-05
0.000655081 1.95922e-05 3.06067e-07
1.95922e-05 -3.03628e-05 -3.63832e-06
3.06067e-07 -3.63832e-06 -3.8612e-05
0.000972147 3.04199e-05 -4.80845e-07
3.04199e-05 0.00015548 3.73401e-08
-4.80845e-07 3.73401e-08 0.000146258
0.00218444 4.34108e-05 1.65866e-05
4.34108e-05 0.000855164 -4.33721e-06
1.65866e-05 -4.33721e-06 0.000871246
0.000647524 3.37995e-05 -5.05902e-07
3.37995e-05 -2.4157e-05 4.06731e-06
-5.05902e-07 4.06731e-06 -3.87263e-05
0.00229987 5.6417e-05 -2.53772e-06
5.6417e-05 0.000928455 -1.3565e-07
-2.53772e-06 -1.3565e-07 0.000941597
0.00247636 6.9508e-05 -2.85261e-05
6.9508e-05 0.00103715 4.04402e-06
-2.85261e-05 4.04402e-06 0.00104692
0.00177213 0.000143502 -2.13337e-06
0.000143502 2.89596e-05 -4.70594e-07
-2.13337e-06 -4.70594e-07 -4.45584e-05
0.00186675 6.81231e-05 6.28661e-07
6.81231e-05 0.000101607 -4.09953e-07
6.28661e-07 -4.09953e-07 3.40364e-05
0.00176165 9.75136e-07 -1.78703e-07
9.75136e-07 0.000103978 -2.65586e-07
-1.78703e-07 -2.65586e-07 1.58109e-05
0.00176295 9.14896e-06 2.45241e-07
9.14896e-06 3.74069e-05 2.97362e-08
2.45241e-07 2.97362e-08 -2.87621e-05
0.00186009 9.66434e-05 -7.01974e-07
9.66434e-05 4.7427e-05 -2.08805e-07
-7.01974e-07 -2.08805e-07 -6.69212e-06
0.00183835 5.84771e-05 2.07884e-06
5.84771e-05 2.87985e-05 1.34741e-06
2.07884e-06 1.34741e-06 2.11216e-05
0.00183216 1.60116e-05 8.237e-07
1.60116e-05 1.2142e-05 -1.12502e-07
8.237e-07 -1.12502e-07 -1.57476e-05
0.00285658 0.000143712 1.88528e-05
0.000143712 0.00021277 -4.46128e-07
1.88528e-05 -4.46128e-07 0.000181663
0.00186533 3.67293e-05 -1.95135e-05
3.67293e-05 0.000144461 -2.04591e-06
-1.95135e-05 -2.04591e-06 0.000156807
0.000724877 5.57335e-05 -6.70799e-07
5.57335e-05 4.82314e-05 -1.37864e-06
-6.70799e-07 -1.37864e-06 -1.36037e-05
0.00183792 -6.32366e-05 7.9221e-08
-6.32366e-05 8.32908e-05 -1.82386e-08
7.9221e-08 -1.82386e-08 1.49242e-05
0.00191837 -0.00013979 5.4018e-07
-0.00013979 0.000141507 2.73219e-07
5.4018e-07 2.73219e-07 7.73003e-05
0.00153257 -0.000161916 2.96084e-07
-0.000161916 -8.06827e-05 7.56912e-07
2.96084e-07 7.56912e-07 -0.000156037
0.000633596 -0.000153413 2.02382e-06
-0.000153413 -2.80132e-05 5.58767e-06
2.02382e-06 5.58767e-06 -0.000189957
0.00129222 -0.000249125 1.86154e-06
-0.000249125 0.000189622 6.25049e-06
1.86154e-06 6.25049e-06 -6.28963e-05
0.00127039 -0.000264539 -1.51901e-06
-0.000264539 -4.48604e-05 -5.05779e-06
-1.51901e-06 -5.05779e-06 -0.000232226
0.00166602 -0.000266382 -6.27299e-06
-0.000266382 2.56668e-05 -2.69716e-06
-6.27299e-06 -2.69716e-06 -8.58325e-05
0.00141574 -0.000184412 9.33016e-06
-0.000184412 0.000335741 -3.20755e-06
9.33016e-06 -3.20755e-06 0.000202158
0.000516542 -0.000133555 6.2929e-06
-0.000133555 -6.27221e-05 -8.5209e-06
6.2929e-06 -8.5209e-06 -0.000186291
0.000841172 -9.44663e-05 2.49919e-08
-9.44663e-05 0.000128502 -1.84444e-06
2.49919e-08 -1.84444e-06 -3.81763e-06
0.000696335 -5.14762e-06 -1.38643e-06
-5.14762e-06 1.05772e-05 2.21372e-06
-1.38643e-06 2.21372e-06 -3.0834e-05
0.000837287 -1.51774e-05 -8.76472e-08
-1.51774e-05 0.000127146 6.21977e-08
-8.76472e-08 6.21977e-08 1.38669e-05
0.00103222 -5.43261e-05 1.23344e-07
-5.43261e-05 0.000235627 7.14534e-07
1.23344e-07 7.14534e-07 0.00015563
0.00077353 -2.06149e-05 -1.245e-06
-2.06149e-05 9.72123e-05 8.57225e-07
-1.245e-06 8.57225e-07 -7.845e-06
0.000520626 -1.53736e-05 -9.22668e-07
-1.53736e-05 -7.40904e-05 1.70729e-06
-9.22668e-07 1.70729e-06 -0.000138508
0.00195971 -8.57341e-05 -3.80031e-07
-8.57341e-05 7.70174e-05 -8.98261e-08
-3.80031e-07 -8.98261e-08 3.18669e-05
0.000610953 2.94567e-05 6.04972e-08
2.94567e-05 -1.15576e-05 -9.14535e-07
6.04972e-08 -9.14535e-07 -7.98782e-05
0.000743076 -5.29765e-05 7.18712e-09
-5.29765e-05 6.47338e-05 1.99752e-07
7.18712e-09 1.99752e-07 -9.31982e-06
0.000822278 -3.30794e-05 -5.36352e-07
-3.30794e-05 0.000121766 7.47139e-07
-5.36352e-07 7.47139e-07 2.87382e-05
0.00177728 -0.000145992 8.26278e-07
-0.000145992 1.59953e-05 -3.81841e-07
8.26278e-07 -3.81841e-07 -3.0941e-05
0.00188192 -0.000262501 -1.41514e-06
-0.000262501 4.81786e-05 -3.89811e-07
-1.41514e-06 -3.89811e-07 -2.55097e-05
0.000922137 -0.000157552 2.64598e-06
-0.000157552 9.00471e-05 -1.77849e-10
2.64598e-06 -1.77849e-10 -7.18273e-05
0.00150293 -0.000297197 2.80006e-06
-0.000297197 0.000251498 -2.16521e-07
2.80006e-06 -2.16521e-07 -1.02162e-05
0.00173625 -0.000319413 3.61379e-07
-0.000319413 0.000101683 7.56003e-07
3.61379e-07 7.56003e-07 -3.57614e-05
0.000642087 -9.46238e-06 -2.64826e-07
-9.46238e-06 2.84454e-05 -3.05503e-08
-2.64826e-07 -3.05503e-08 -7.72849e-05
0.000874528 -5.52018e-05 -5.64999e-07
-5.52018e-05 0.000150666 2.17709e-07
-5.64999e-07 2.17709e-07 4.04292e-05
0.000585027 -0.000171735 -5.23712e-06
-0.000171735 -8.39175e-05 1.09096e-06
-5.23712e-06 1.09096e-06 -0.000223163
0.000723311 -8.45032e-05 3.92104e-07
-8.45032e-05 0.000123591 -2.64263e-07
3.92104e-07 -2.64263e-07 -5.27026e-05
0.000753288 -6.61865e-05 -2.93751e-07
-6.61865e-05 6.42316e-05 8.19831e-08
-2.93751e-07 8.19831e-08 -5.84396e-05
0.00209286 -0.000162224 -6.41212e-06
-0.000162224 0.000120367 1.28528e-07
-6.41212e-06 1.28528e-07 9.37029e-05
0.00183969 -0.000168367 -1.88715e-06
-0.000168367 1.57549e-05 1.25997e-06
-1.88715e-06 1.25997e-06 -1.86897e-05
0.00220775 -0.000358731 -1.47624e-06
-0.000358731 0.000227261 -7.00337e-07
-1.47624e-06 -7.00337e-07 0.000124542
0.00258625 -0.000397752 -1.55084e-05
-0.000397752 0.000699779 2.34059e-06
-1.55084e-05 2.34059e-06 0.000507142
0.00091042 -0.00016422 -7.02988e-06
-0.00016422 0.000122253 -2.62568e-06
-7.02988e-06 -2.62568e-06 -7.45842e-05
0.000511815 2.04116e-05 7.94807e-07
2.04116e-05 -5.7647e-05 -2.12077e-06
7.94807e-07 -2.12077e-06 -0.000146502
0.000508819 4.75139e-05 5.64127e-07
4.75139e-05 -5.92348e-05 -1.20618e-06
5.64127e-07 -1.20618e-06 -0.000155771
0.000764039 1.07063e-05 9.23149e-07
1.07063e-05 9.75694e-05 -9.42413e-07
9.23149e-07 -9.42413e-07 -7.33746e-06
0.00102575 -0.000103021 1.62096e-06
-0.000103021 0.000250929 2.42566e-07
1.62096e-06 2.42566e-07 0.00013287
0.000696044 -3.7204e-05 1.09759e-06
-3.7204e-05 3.60269e-05 9.2439e-07
1.09759e-06 9.2439e-07 -7.12258e-05
0.000434915 -4.15974e-05 2.68641e-06
-4.15974e-05 -5.37984e-05 2.4134e-07
2.68641e-06 2.4134e-07 -0.000217048
0.000762974 -0.000168258 7.03553e-06
-0.000168258 0.000159295 1.31119e-06
7.03553e-06 1.31119e-06 -6.61234e-05
0.000739672 5.6669e-05 7.72535e-07
5.6669e-05 8.05133e-05 -2.6474e-06
7.72535e-07 -2.6474e-06 -1.71426e-05
0.000614895 6.46123e-05 1.06332e-06
6.46123e-05 2.03331e-05 -3.88364e-07
1.06332e-06 -3.88364e-07 -0.000108666
0.00193611 0.00013776 2.81952e-06
0.00013776 6.17833e-05 -6.55862e-07
2.81952e-06 -6.55862e-07 2.40133e-05
0.00164601 0.000209469 5.48079e-06
0.000209469 -5.51669e-05 3.798e-07
5.48079e-06 3.798e-07 -0.000135326
0.00186864 0.000311808 5.29974e-06
0.000311808 0.000171998 1.48196e-06
5.29974e-06 1.48196e-06 1.36482e-05
0.000423514 0.000136745 1.6996e-06
0.000136745 -0.000145073 -1.35296e-06
1.6996e-06 -1.35296e-06 -0.000346919
0.00226283 0.00033465 3.97784e-06
0.00033465 0.000629068 1.44754e-06
3.97784e-06 1.44754e-06 0.000394736
0.00112364 5.08482e-05 -2.82328e-07
5.08482e-05 0.00029612 6.00142e-07
-2.82328e-07 6.00142e-07 0.000188072
0.00197175 0.000139689 -1.89028e-06
0.000139689 0.000118656 -1.1145e-07
-1.89028e-06 -1.1145e-07 0.000105444
0.00136068 0.000180938 -1.21654e-06
0.000180938 0.000418201 -4.84105e-07
-1.21654e-06 -4.84105e-07 0.000259767
0.00172331 0.000255009 -8.12343e-07
0.000255009 0.000525663 1.4755e-06
-8.12343e-07 1.4755e-06 0.000300073
0.00192601 0.000308218 2.45188e-07
0.000308218 0.000108942 -1.92624e-06
2.45188e-07 -1.92624e-06 7.51019e-06
0.00149849 0.000307806 -1.06491e-06
0.000307806 0.000128619 2.35116e-06
-1.06491e-06 2.35116e-06 -8.64157e-05
0.00143383 0.000210424 2.10487e-05
0.000210424 -0.000207837 9.84718e-07
2.10487e-05 9.84718e-07 -0.000458856
0.00113948 9.60527e-05 -2.75829e-06
9.60527e-05 0.000308197 -1.34592e-06
-2.75829e-06 -1.34592e-06 0.000184475
0.00240923 0.000226666 -2.97139e-05
0.000226666 0.000376753 -1.39362e-05
-2.97139e-05 -1.39362e-05 0.000377274
0.00133624 0.000204993 -5.71761e-06
0.000204993 0.000392564 -1.39256e-06
-5.71761e-06 -1.39256e-06 0.000222394
0.00115473 0.000241943 -5.02379e-06
0.000241943 0.000132594 -9.03304e-07
-5.02379e-06 -9.03304e-07 -0.00010216
0.000579951 0.000325424 -9.27028e-06
0.000325424 -0.000495888 -5.3404e-06
-9.27028e-06 -5.3404e-06 -0.000674292
0.00864618 0.000163496 -0.000114505
0.000163496 0.00247488 -4.2966e-05
-0.000114505 -4.2966e-05 0.00153683
0.0044425 0.000434645 0.000107771
0.000434645 0.000727724 -5.50614e-06
0.000107771 -5.50614e-06 8.35629e-05
0.000734039 0.000307502 1.33419e-05
0.000307502 -0.000305392 1.74376e-05
1.33419e-05 1.74376e-05 -0.00044157
-0.0043271 -0.000410416 0.00014113
-0.000410416 -0.00159094 -1.00262e-05
0.00014113 -1.00262e-05 -0.00211809
0.0046154 -0.00111805 -1.85992e-05
-0.00111805 0.000666663 -2.05982e-06
-1.85992e-05 -2.05982e-06 0.00223581
0.000753783 -4.13669e-06 7.97752e-07
-4.13669e-06 8.26024e-05 -4.37812e-07
7.97752e-07 -4.37812e-07 -2.89662e-06
0.000912303 -1.12779e-05 8.84893e-07
-1.12779e-05 0.000163694 -3.87388e-07
8.84893e-07 -3.87388e-07 7.51904e-05
0.000916567 4.22744e-05 -9.25737e-07
4.22744e-05 0.000157609 -1.92773e-06
-9.25737e-07 -1.92773e-06 6.81577e-05
0.000710746 -5.60396e-05 1.21603e-07
-5.60396e-05 4.22868e-05 -1.0745e-06
1.21603e-07 -1.0745e-06 -3.18171e-05
0.000669316 5.01809e-05 -1.02769e-06
5.01809e-05 1.56359e-05 -3.57141e-07
-1.02769e-06 -3.57141e-07 -6.81575e-05
0.00081853 -3.71844e-05 -5.70975e-08
-3.71844e-05 0.000103563 1.50225e-08
-5.70975e-08 1.50225e-08 1.69011e-05
0.000887478 -6.76395e-06 -1.23507e-06
-6.76395e-06 0.000135485 8.07262e-07
-1.23507e-06 8.07262e-07 5.17853e-05
0.00080838 -2.57092e-05 -5.57121e-07
-2.57092e-05 8.55288e-05 -4.61828e-07
-5.57121e-07 -4.61828e-07 1.20766e-06
0.000781234 5.29525e-05 -9.124e-07
5.29525e-05 8.18633e-05 -3.05351e-07
-9.124e-07 -3.05351e-07 -9.0515e-06
0.000657622 -6.43246e-06 -7.31499e-08
-6.43246e-06 9.11882e-07 6.07423e-07
-7.31499e-08 6.07423e-07 -6.84295e-05
0.000749874 2.12418e-05 -1.14529e-07
2.12418e-05 6.40274e-05 -1.10132e-08
-1.14529e-07 -1.10132e-08 -2.68905e-05
0.000830892 -1.50155e-05 2.63761e-07
-1.50155e-05 8.99196e-05 6.07418e-07
2.63761e-07 6.07418e-07 8.41433e-06
0.000851722 9.34463e-06 -4.27406e-07
9.34463e-06 0.000109829 -2.51255e-07
-4.27406e-07 -2.51255e-07 2.32718e-05
0.000899198 4.51918e-05 -4.10236e-07
4.51918e-05 0.00013501 -9.06656e-07
-4.10236e-07 -9.06656e-07 4.79791e-05
0.000654198 1.15529e-05 5.22e-07
1.15529e-05 -6.0657e-06 -1.67443e-06
5.22e-07 -1.67443e-06 -8.74719e-05
0.000862787 4.69461e-05 1.33613e-06
4.69461e-05 0.000115305 8.36131e-08
1.33613e-06 8.36131e-08 2.66292e-05
0.000679546 -6.97395e-06 1.02679e-06
-6.97395e-06 1.23665e-05 -2.35802e-07
1.02679e-06 -2.35802e-07 -7.46198e-05
0.000602238 -4.82426e-05 -1.23389e-06
-4.82426e-05 -2.95074e-05 1.37377e-06
-1.23389e-06 1.37377e-06 -0.000101404
0.000839926 1.19031e-05 -5.37587e-07
1.19031e-05 0.000113615 -2.23122e-07
-5.37587e-07 -2.23122e-07 2.51621e-05
0.000859615 5.37602e-05 2.22576e-07
5.37602e-05 0.000123951 -1.49064e-06
2.22576e-07 -1.49064e-06 3.49792e-05
0.000720453 5.29499e-07 -7.06487e-07
5.29499e-07 5.61343e-05 -3.52662e-07
-7.06487e-07 -3.52662e-07 -2.96219e-05
0.000832562 2.17574e-06 8.47635e-07
2.17574e-06 0.000115486 -4.44876e-07
8.47635e-07 -4.44876e-07 2.79473e-05
0.000732009 -5.07023e-05 -1.63935e-06
-5.07023e-05 4.42685e-05 6.67628e-07
-1.63935e-06 6.67628e-07 -2.3788e-05
0.00059769 9.55035e-07 1.04018e-07
9.55035e-07 -3.04482e-05 6.31617e-07
1.04018e-07 6.31617e-07 -0.000102528
0.000687936 9.05801e-06 -6.06166e-07
9.05801e-06 3.63361e-06 1.73404e-06
-6.06166e-07 1.73404e-06 -3.90968e-05
0.000677725 -2.56637e-06 2.33111e-07
-2.56637e-06 -7.98927e-07 -1.65842e-08
2.33111e-07 -1.65842e-08 -4.31504e-05
0.00066736 7.24432e-06 -3.80881e-07
7.24432e-06 -2.69141e-05 5.06941e-06
-3.80881e-07 5.06941e-06 -3.74549e-05
0.000677211 4.53444e-07 -2.08021e-08
4.53444e-07 -1.43272e-06 -1.6426e-06
-2.08021e-08 -1.6426e-06 -4.32543e-05
0.000651801 1.51416e-06 2.62549e-07
1.51416e-06 -3.72053e-05 -7.81594e-09
2.62549e-07 -7.81594e-09 -4.71324e-05
0.00224786 -1.15197e-06 4.29051e-08
-1.15197e-06 0.00087886 4.88869e-06
4.29051e-08 4.88869e-06 0.000897331
0.000678533 -4.34379e-06 -4.83987e-07
-4.34379e-06 -2.16342e-05 -5.08689e-06
-4.83987e-07 -5.08689e-06 -3.13423e-05
0.00155708 -8.38886e-06 -2.86554e-07
-8.38886e-06 0.000483502 4.90303e-08
-2.86554e-07 4.90303e-08 0.000498399
0.000826612 -1.35014e-05 -2.74136e-07
-1.35014e-05 6.66812e-05 -1.86684e-06
-2.74136e-07 -1.86684e-06 7.83419e-05
0.000687947 1.17639e-05 -1.65821e-07
1.17639e-05 4.61157e-06 -1.91562e-06
-1.65821e-07 -1.91562e-06 -3.03307e-05
0.000695768 -2.87464e-08 2.16007e-07
-2.87464e-08 8.50292e-06 3.47482e-08
2.16007e-07 3.47482e-08 -2.79301e-05
0.00066434 1.32843e-05 1.16944e-07
1.32843e-05 -2.85111e-05 -3.51974e-06
1.16944e-07 -3.51974e-06 -3.49356e-05
0.000696373 -8.37506e-06 -1.37094e-06
-8.37506e-06 8.26445e-06 2.09973e-06
-1.37094e-06 2.09973e-06 -3.01973e-05
0.000957916 2.25007e-05 -1.74801e-07
2.25007e-05 0.000142626 -7.39789e-07
-1.74801e-07 -7.39789e-07 0.000136237
0.00211504 3.19325e-05 1.262e-05
3.19325e-05 0.000810386 -4.45775e-06
1.262e-05 -4.45775e-06 0.00082848
0.000650021 2.71639e-05 -4.59171e-07
2.71639e-05 -2.83966e-05 3.85291e-06
-4.59171e-07 3.85291e-06 -3.97687e-05
0.00225036 4.4131e-05 -7.61986e-06
4.4131e-05 0.000894481 1.19903e-06
-7.61986e-06 1.19903e-06 0.000909991
0.00233437 5.75585e-05 -2.22085e-05
5.75585e-05 0.000948934 4.23373e-06
-2.22085e-05 4.23373e-06 0.000961681
0.00174721 9.37713e-05 -1.95577e-06
9.37713e-05 -9.48197e-06 -3.49299e-07
-1.95577e-06 -3.49299e-07 -6.45217e-05
0.00172895 1.11831e-05 1.71249e-07
1.11831e-05 1.98593e-05 -3.78088e-07
1.71249e-07 -3.78088e-07 -4.65279e-05
0.00166756 5.71458e-05 7.55766e-06
5.71458e-05 -6.92511e-05 -1.05727e-06
7.55766e-06 -1.05727e-06 -8.40065e-05
0.0021102 0.000102383 2.09154e-05
0.000102383 -0.00010465 4.1161e-06
2.09154e-05 4.1161e-06 -0.000153575
0.00183518 1.03806e-05 -2.2007e-06
1.03806e-05 1.26261e-05 -2.36724e-07
-2.2007e-06 -2.36724e-07 -1.54935e-05
0.00183829 4.34563e-05 3.58166e-06
4.34563e-05 0.000136314 9.18601e-07
3.58166e-06 9.18601e-07 0.000143759
0.00266264 -3.32119e-06 -1.73703e-05
-3.32119e-06 0.000579796 8.77308e-08
-1.73703e-05 8.77308e-08 0.000549076
0.00278023 1.35207e-05 0.000137996
1.35207e-05 -6.57916e-05 -1.25027e-05
0.000137996 -1.25027e-05 -0.000314202
0.00224434 5.5035e-06 -1.057e-05
5.5035e-06 0.000124381 -2.48381e-06
-1.057e-05 -2.48381e-06 8.05197e-05
0.000732209 5.45893e-05 -5.28414e-07
5.45893e-05 5.4627e-05 -1.29247e-06
-5.28414e-07 -1.29247e-06 -8.30207e-06
0.000737716 -9.56666e-06 6.95478e-07
-9.56666e-06 6.00679e-05 -6.38524e-08
6.95478e-07 -6.38524e-08 -5.39897e-06
0.000697486 -6.44519e-05 4.47358e-08
-6.44519e-05 4.34689e-05 -8.52211e-07
4.47358e-08 -8.52211e-07 -3.58296e-05
0.000729605 -2.52058e-05 -1.09333e-06
-2.52058e-05 7.20501e-05 -2.96334e-07
-1.09333e-06 -2.96334e-07 -1.47137e-05
0.0019021 -9.43405e-05 -2.92842e-07
-9.43405e-05 3.13516e-05 2.79207e-07
-2.92842e-07 2.79207e-07 -8.10569e-06
0.00178665 -0.000154215 -2.78971e-06
-0.000154215 1.42182e-05 5.3835e-07
-2.78971e-06 5.3835e-07 -3.36772e-05
0.00182678 -0.000257437 -6.8386e-06
-0.000257437 3.27338e-05 7.47109e-07
-6.8386e-06 7.47109e-07 -4.75606e-05
0.00127798 -0.000213591 2.86141e-06
-0.000213591 0.000276979 3.526e-06
2.86141e-06 3.526e-06 0.000115866
9.88429e-05 -0.000192973 5.44316e-06
-0.000192973 -0.000486943 -1.71342e-06
5.44316e-06 -1.71342e-06 -0.000742959
0.00197952 -0.000340447 1.23157e-06
-0.000340447 0.000239393 -3.13776e-06
1.23157e-06 -3.13776e-06 9.65127e-05
0.000599924 -0.000161008 -6.26081e-06
-0.000161008 -6.12191e-05 2.3988e-07
-6.26081e-06 2.3988e-07 -0.000214952
0.00128063 -9.30102e-05 -9.76924e-07
-9.30102e-05 0.000409748 -2.07196e-06
-9.76924e-07 -2.07196e-06 0.000250345
0.000744204 -8.90993e-05 -2.04868e-06
-8.90993e-05 5.89526e-05 1.08684e-06
-2.04868e-06 1.08684e-06 -6.35596e-05
0.000754883 -2.60063e-05 -9.36858e-07
-2.60063e-05 6.72533e-05 1.89448e-06
-9.36858e-07 1.89448e-06 -3.81841e-06
0.000689007 -6.65806e-05 -1.19498e-06
-6.65806e-05 5.22667e-05 5.93124e-08
-1.19498e-06 5.93124e-08 -6.39211e-05
0.00080568 -1.22718e-05 -1.23899e-06
-1.22718e-05 0.000118573 9.82817e-07
-1.23899e-06 9.82817e-07 1.50739e-05
0.000735092 2.32298e-06 1.55164e-07
2.32298e-06 6.24769e-05 9.61794e-07
1.55164e-07 9.61794e-07 -6.93038e-06
0.000655432 1.64094e-05 -1.05587e-06
1.64094e-05 2.97433e-05 2.70703e-06
-1.05587e-06 2.70703e-06 -6.62077e-05
0.00204382 -0.000144982 9.14846e-07
-0.000144982 0.000117975 4.26406e-07
9.14846e-07 4.26406e-07 8.90414e-05
0.000725145 3.95653e-06 7.62418e-07
3.95653e-06 6.81142e-05 -5.12011e-07
7.62418e-07 -5.12011e-07 -2.16591e-05
0.00068214 1.04653e-05 8.93767e-07
1.04653e-05 4.33837e-05 -1.73397e-07
8.93767e-07 -1.73397e-07 -5.47318e-05
0.000668969 6.19831e-05 -1.3124e-07
6.19831e-05 4.70635e-05 1.42375e-06
-1.3124e-07 1.42375e-06 -5.62282e-05
0.00190546 -0.000173026 -2.24462e-06
-0.000173026 3.30012e-05 -8.03635e-08
-2.24462e-06 -8.03635e-08 -5.41206e-06
0.00194821 -0.00033946 1.31051e-06
-0.00033946 9.4249e-05 -3.58066e-07
1.31051e-06 -3.58066e-07 -2.68474e-06
0.0011121 -0.000215792 -6.6532e-07
-0.000215792 0.000215218 -5.34373e-07
-6.6532e-07 -5.34373e-07 1.50747e-05
0.00238785 -0.000386828 -2.75088e-06
-0.000386828 0.000591062 1.18799e-06
-2.75088e-06 1.18799e-06 0.000395831
0.00100752 -4.56617e-05 -5.22831e-07
-4.56617e-05 0.000233161 2.30592e-07
-5.22831e-07 2.30592e-07 0.000119187
0.000688404 -5.65707e-05 -5.34114e-07
-5.65707e-05 3.46241e-05 8.90348e-07
-5.34114e-07 8.90348e-07 -7.88845e-05
0.000923169 -0.000182747 3.0257e-06
-0.000182747 0.00024405 -7.53828e-07
3.0257e-06 -7.53828e-07 2.06739e-05
0.000999309 -0.000103227 7.31542e-07
-0.000103227 0.000257816 -4.04729e-07
7.31542e-07 -4.04729e-07 8.48863e-05
0.00205651 -0.000125874 -1.35328e-05
-0.000125874 9.94622e-05 3.31217e-06
-1.35328e-05 3.31217e-06 7.10457e-05
0.00213669 -0.000285018 -1.00955e-05
-0.000285018 9.44153e-05 1.18023e-06
-1.00955e-05 1.18023e-06 0.000108208
0.00243495 -0.000404881 -8.94573e-06
-0.000404881 0.000483662 -4.34997e-06
-8.94573e-06 -4.34997e-06 0.000328662
0.00156368 -0.000313548 -2.09687e-06
-0.000313548 0.000402087 2.09871e-06
-2.09687e-06 2.09871e-06 0.000205237
0.000665053 2.13464e-05 -6.67777e-07
2.13464e-05 4.72977e-05 -2.29327e-06
-6.67777e-07 -2.29327e-06 -6.56225e-05
0.000674582 -6.3012e-05 1.15994e-06
-6.3012e-05 5.33017e-05 -3.09879e-06
1.15994e-06 -3.09879e-06 -6.52487e-05
0.000680422 -5.83986e-05 1.01284e-06
-5.83986e-05 6.60301e-05 5.81193e-07
1.01284e-06 5.81193e-07 -5.73225e-05
0.000574506 -3.93104e-05 1.18707e-06
-3.93104e-05 0.000103567 -3.56891e-07
1.18707e-06 -3.56891e-07 -0.000155212
0.00050133 -0.000176539 2.54312e-05
-0.000176539 -0.00201658 -8.75258e-07
2.54312e-05 -8.75258e-07 -0.00249848
0.00100305 3.41336e-05 1.12701e-06
3.41336e-05 0.000225157 -2.27944e-06
1.12701e-06 -2.27944e-06 0.000123894
0.000460748 0.000110315 2.98099e-06
0.000110315 -7.72084e-05 1.0338e-06
2.98099e-06 1.0338e-06 -0.0002237
0.00166723 0.000124334 2.2901e-05
0.000124334 -4.25205e-05 2.72632e-06
2.2901e-05 2.72632e-06 -4.85949e-05
0.00206295 0.000305787 7.28222e-06
0.000305787 0.000184072 1.77974e-06
7.28222e-06 1.77974e-06 8.42464e-05
0.00153618 0.000316711 5.13147e-06
0.000316711 0.000146909 3.49094e-06
5.13147e-06 3.49094e-06 -7.51049e-05
0.000707785 0.000177305 4.64636e-06
0.000177305 -7.47426e-06 1.50178e-06
4.64636e-06 1.50178e-06 -0.000235625
0.00250335 0.000266281 3.00573e-05
0.000266281 0.00013646 6.44502e-06
3.00573e-05 6.44502e-06 -0.000183497
0.00102047 8.04833e-05 1.12855e-06
8.04833e-05 0.000248401 -4.2839e-07
1.12855e-06 -4.2839e-07 0.000126088
0.00233199 0.000227171 -7.98872e-06
0.000227171 0.000331487 -1.76809e-06
-7.98872e-06 -1.76809e-06 0.000340062
0.00105967 0.000183601 7.48235e-07
0.000183601 0.000247948 -2.86402e-07
7.48235e-07 -2.86402e-07 8.13523e-05
0.00119292 0.000253692 -2.2695e-07
0.000253692 0.000159266 -8.6681e-08
-2.2695e-07 -8.6681e-08 -7.82742e-05
0.00142611 0.000379374 -3.10038e-06
0.000379374 -7.6388e-05 -1.54838e-06
-3.10038e-06 -1.54838e-06 -0.000247899
0.00292379 -0.000145524 -7.22483e-05
-0.000145524 -0.000484103 -2.27877e-05
-7.22483e-05 -2.27877e-05 -0.00139189
0.00442512 0.000342222 6.89407e-09
0.000342222 0.000493793 -1.85806e-05
6.89407e-09 -1.85806e-05 -0.000245246
0.000176911 0.000234076 2.98526e-06
0.000234076 -0.000538632 7.0286e-06
2.98526e-06 7.0286e-06 -0.00069375
-0.000753135 -0.000327351 7.91103e-05
-0.000327351 0.000468214 2.79983e-05
7.91103e-05 2.79983e-05 -0.000283573
-0.000665785 -0.00110024 -2.97943e-05
-0.00110024 -0.00145975 -4.73432e-05
-2.97943e-05 -4.73432e-05 0.000270951
0.00119527 0.000136424 -3.36046e-06
0.000136424 0.000348078 -3.76316e-06
-3.36046e-06 -3.76316e-06 0.000228405
0.000447323 0.000225037 2.20584e-05
0.000225037 0.0009482 -3.08068e-05
2.20584e-05 -3.08068e-05 0.00024748
0.00123313 -0.000414825 -6.99383e-05
-0.000414825 0.001276 -8.77019e-05
-6.99383e-05 -8.77019e-05 0.000842577
0.00273666 0.000341022 -2.4616e-05
0.000341022 0.000610455 -8.22197e-06
-2.4616e-05 -8.22197e-06 0.000622956
0.00114764 0.000125344 -1.15012e-05
0.000125344 0.000291861 -2.46899e-06
-1.15012e-05 -2.46899e-06 0.000115465
0.000964585 0.000366647 -1.76787e-05
0.000366647 -2.17437e-05 -1.05444e-05
-1.76787e-05 -1.05444e-05 -0.000277347
-0.00018458 0.000280716 1.93e-05
0.000280716 -0.000737308 5.13414e-05
1.93e-05 5.13414e-05 -0.000792962
0.00862756 0.00021267 -3.99333e-05
0.00021267 0.0028933 -2.34423e-05
-3.99333e-05 -2.34423e-05 0.00144468
0.00373264 0.000634674 -5.57714e-06
0.000634674 0.000833425 1.17491e-05
-5.57714e-06 1.17491e-05 -0.000393495
0.000842488 -0.000916857 7.9796e-05
-0.000916857 -0.00045362 6.88608e-05
7.9796e-05 6.88608e-05 3.19709e-05
0.00206561 -0.000581945 -9.11052e-06
-0.000581945 -0.00165002 9.86333e-05
-9.11052e-06 9.86333e-05 -0.000259437
0.000780912 -1.83032e-05 1.13504e-06
-1.83032e-05 9.74239e-05 -9.40394e-07
1.13504e-06 -9.40394e-07 9.25512e-06
0.000901877 4.05234e-05 5.61437e-07
4.05234e-05 0.000153463 5.99345e-07
5.61437e-07 5.99345e-07 6.34809e-05
0.00122115 8.93102e-05 -1.98808e-06
8.93102e-05 0.000336189 -2.81819e-06
-1.98808e-06 -2.81819e-06 0.000262282
0.000716205 3.51895e-06 1.64393e-07
3.51895e-06 4.67016e-05 -1.55383e-07
1.64393e-07 -1.55383e-07 -3.00063e-05
0.000787837 2.33408e-05 -2.96602e-07
2.33408e-05 8.39869e-05 -5.012e-07
-2.96602e-07 -5.012e-07 -5.58194e-06
0.000649813 -2.38339e-05 -6.89371e-07
-2.38339e-05 -3.18798e-08 4.97933e-08
-6.89371e-07 4.97933e-08 -8.46921e-05
0.000858393 1.20463e-05 -4.73313e-07
1.20463e-05 0.000112652 3.67864e-07
-4.73313e-07 3.67864e-07 2.75379e-05
0.000823685 -1.32904e-05 -4.55975e-07
-1.32904e-05 8.53079e-05 7.49627e-07
-4.55975e-07 7.49627e-07 3.80899e-06
0.000593995 -1.95307e-06 4.61053e-07
-1.95307e-06 -3.17397e-05 6.1186e-07
4.61053e-07 6.1186e-07 -0.000105243
0.000848761 1.03254e-05 -4.07474e-08
1.03254e-05 0.000106427 -1.17139e-07
-4.07474e-08 -1.17139e-07 1.9734e-05
0.000862816 9.02468e-06 4.25668e-08
9.02468e-06 0.000116988 3.04448e-07
4.25668e-08 3.04448e-07 2.80596e-05
0.000762186 1.81072e-05 6.17915e-07
1.81072e-05 7.01946e-05 -3.15429e-07
6.17915e-07 -3.15429e-07 -2.30189e-05
0.000691349 1.44724e-05 -4.66113e-08
1.44724e-05 1.35107e-05 5.55603e-08
-4.66113e-08 5.55603e-08 -6.70946e-05
0.000960084 9.90938e-06 5.69806e-08
9.90938e-06 0.000165008 -1.10379e-06
5.69806e-08 -1.10379e-06 8.04136e-05
0.000590337 3.82676e-05 -1.37115e-06
3.82676e-05 -4.03783e-05 -5.35286e-06
-1.37115e-06 -5.35286e-06 -0.000122688
0.000828735 -6.497e-05 -5.79046e-08
-6.497e-05 9.42049e-05 -5.74036e-07
-5.79046e-08 -5.74036e-07 4.3523e-07
0.000851832 -5.30066e-05 -6.38417e-07
-5.30066e-05 0.00012425 -6.40185e-07
-6.38417e-07 -6.40185e-07 2.90878e-05
0.000845256 -1.65247e-05 -5.04303e-07
-1.65247e-05 0.000119843 -2.77988e-07
-5.04303e-07 -2.77988e-07 2.85685e-05
0.000867884 3.52707e-05 -5.1455e-07
3.52707e-05 0.00012272 -2.81388e-07
-5.1455e-07 -2.81388e-07 3.72811e-05
0.000820257 1.69635e-05 -8.116e-07
1.69635e-05 0.000106957 -1.29724e-06
-8.116e-07 -1.29724e-06 7.49835e-06
0.000781876 4.26619e-05 6.93922e-07
4.26619e-05 8.31141e-05 -9.00432e-07
6.93922e-07 -9.00432e-07 -3.54231e-06
0.000642497 1.78338e-05 6.03155e-07
1.78338e-05 -1.41155e-05 -1.54105e-06
6.03155e-07 -1.54105e-06 -9.16726e-05
0.00068037 4.4983e-05 1.61331e-06
4.4983e-05 3.43072e-05 7.26893e-07
1.61331e-06 7.26893e-07 -5.41001e-05
0.000726166 -5.79388e-06 3.16344e-08
-5.79388e-06 4.726e-05 -1.64464e-07
3.16344e-08 -1.64464e-07 -2.78481e-05
0.000750794 -1.20356e-05 -1.80651e-07
-1.20356e-05 6.94687e-05 -1.98036e-09
-1.80651e-07 -1.98036e-09 -1.39802e-05
0.000724814 -1.46598e-05 -1.2586e-06
-1.46598e-05 3.43013e-05 4.44809e-07
-1.2586e-06 4.44809e-07 -2.81653e-05
0.000766277 -2.98975e-06 9.11491e-07
-2.98975e-06 6.53617e-05 -1.69972e-07
9.11491e-07 -1.69972e-07 -1.48848e-05
0.000696156 -4.57357e-05 -2.28827e-08
-4.57357e-05 2.29065e-05 8.27379e-08
-2.28827e-08 8.27379e-08 -4.53895e-05
0.00070593 1.0681e-05 -1.04745e-06
1.0681e-05 1.15893e-05 1.70029e-06
-1.04745e-06 1.70029e-06 -3.1025e-05
0.000602013 7.02688e-07 7.42613e-07
7.02688e-07 -2.29791e-05 -2.4292e-07
7.42613e-07 -2.4292e-07 -9.84684e-05
0.000691675 7.72151e-06 3.42062e-07
7.72151e-06 5.73127e-06 -2.45471e-08
3.42062e-07 -2.45471e-08 -3.7037e-05
0.00136265 1.66716e-05 -2.85301e-06
1.66716e-05 0.000373045 4.99051e-06
-2.85301e-06 4.99051e-06 0.000365778
0.000679467 1.00497e-05 1.75614e-07
1.00497e-05 4.9801e-08 -1.61901e-06
1.75614e-07 -1.61901e-06 -4.22506e-05
0.00100885 8.84327e-06 -1.52623e-06
8.84327e-06 0.000168513 7.5733e-07
-1.52623e-06 7.5733e-07 0.0001599
0.000885393 3.88582e-06 -3.43466e-06
3.88582e-06 9.9457e-05 4.75784e-06
-3.43466e-06 4.75784e-06 0.000110323
0.000658168 1.68503e-06 5.32019e-08
1.68503e-06 -3.35207e-05 -3.4869e-06
5.32019e-08 -3.4869e-06 -4.34943e-05
0.00225444 5.32705e-08 3.43478e-06
5.32705e-08 0.000882668 -1.52389e-09
3.43478e-06 -1.52389e-09 0.000901084
0.000899195 -3.74008e-06 -3.29283e-06
-3.74008e-06 0.000106945 -4.76516e-06
-3.29283e-06 -4.76516e-06 0.000118296
0.000744427 6.43866e-05 1.0628e-06
6.43866e-05 6.74752e-05 -5.14409e-07
1.0628e-06 -5.14409e-07 -1.0938e-06
0.000700219 1.23462e-05 -4.81718e-07
1.23462e-05 1.138e-05 -1.92526e-06
-4.81718e-07 -1.92526e-06 -2.33611e-05
0.000689888 2.37952e-06 4.3187e-07
2.37952e-06 5.72374e-06 1.54559e-08
4.3187e-07 1.54559e-08 -2.93544e-05
0.000662786 6.97265e-06 -6.71477e-08
6.97265e-06 -3.1192e-05 -3.50029e-06
-6.71477e-08 -3.50029e-06 -3.67227e-05
0.00070646 -1.00446e-05 -8.31705e-07
-1.00446e-05 1.44561e-05 2.04667e-06
-8.31705e-07 2.04667e-06 -2.21117e-05
0.000652244 1.32925e-05 -1.72191e-10
1.32925e-05 -3.58896e-05 -7.49223e-07
-1.72191e-10 -7.49223e-07 -4.21696e-05
0.0020858 2.0976e-05 8.40789e-06
2.0976e-05 0.00078973 -4.5966e-06
8.40789e-06 -4.5966e-06 0.000809133
0.00127423 2.75567e-05 -8.96927e-07
2.75567e-05 0.000323866 2.17375e-06
-8.96927e-07 2.17375e-06 0.000318813
0.00153059 2.73144e-05 3.49234e-07
2.73144e-05 0.000476755 1.46254e-06
3.49234e-07 1.46254e-06 0.00049089
0.000957176 3.01896e-05 -1.66023e-05
3.01896e-05 0.000154354 7.43859e-06
-1.66023e-05 7.43859e-06 0.000162792
0.00120007 5.8628e-05 4.04521e-05
5.8628e-05 -0.000510431 1.30577e-05
4.04521e-05 1.30577e-05 -0.000586035
0.00184863 4.54271e-06 2.05845e-06
4.54271e-06 1.68151e-05 1.0697e-07
2.05845e-06 1.0697e-07 -1.03575e-05
0.00183079 4.69913e-05 2.3106e-05
4.69913e-05 0.00014075 -1.22619e-06
2.3106e-05 -1.22619e-06 0.000140838
0.000808376 4.27679e-05 9.02773e-06
4.27679e-05 -0.000806494 -5.1357e-06
9.02773e-06 -5.1357e-06 -0.00107488
0.00174689 1.55533e-05 8.11956e-06
1.55533e-05 -0.000110879 1.10152e-06
8.11956e-06 1.10152e-06 -0.000127436
0.00212775 -1.2273e-05 -1.41205e-06
-1.2273e-05 0.000221226 -5.38227e-07
-1.41205e-06 -5.38227e-07 0.000194273
0.00297888 -2.90908e-05 -5.11052e-05
-2.90908e-05 0.000586075 5.48554e-06
-5.11052e-05 5.48554e-06 0.000573794
0.00277113 -9.88061e-05 0.000140303
-9.88061e-05 0.000250942 -1.1495e-05
0.000140303 -1.1495e-05 6.77473e-06
0.007693 -0.000233901 -1.29458e-05
-0.000233901 0.00196115 1.68022e-05
-1.29458e-05 1.68022e-05 0.000838999
0.00635257 0.000971873 0.000131049
0.000971873 0.00313589 -5.62462e-05
0.000131049 -5.62462e-05 0.00330531
0.00255193 0.000953882 -2.70168e-06
0.000953882 0.00141181 1.57639e-05
-2.70168e-06 1.57639e-05 0.00242598
0.000462033 -6.46907e-05 1.75492e-06
-6.46907e-05 -8.60309e-05 -1.46668e-06
1.75492e-06 -1.46668e-06 -0.000167556
0.000733266 -8.61082e-06 9.35262e-07
-8.61082e-06 5.72359e-05 -6.7041e-08
9.35262e-07 -6.7041e-08 -7.03589e-06
0.000740206 -6.71795e-05 -1.23128e-06
-6.71795e-05 6.63581e-05 1.76678e-06
-1.23128e-06 1.76678e-06 -2.8224e-06
0.000692176 -2.40979e-05 -3.71036e-07
-2.40979e-05 4.35681e-05 1.28702e-07
-3.71036e-07 1.28702e-07 -3.90736e-05
0.000811411 6.21133e-05 9.76971e-08
6.21133e-05 0.000125494 2.00689e-07
9.76971e-08 2.00689e-07 2.40762e-05
0.000895778 0.000107459 9.00417e-07
0.000107459 0.00015811 6.58243e-07
9.00417e-07 6.58243e-07 6.20581e-05
0.000803662 -1.14413e-05 1.11103e-06
-1.14413e-05 0.000106212 -1.95169e-06
1.11103e-06 -1.95169e-06 2.09843e-05
0.000674137 -2.89535e-05 -6.34156e-07
-2.89535e-05 3.42085e-05 6.56056e-07
-6.34156e-07 6.56056e-07 -4.83199e-05
0.00200853 -0.000127389 7.26421e-06
-0.000127389 0.000122085 -1.06171e-07
7.26421e-06 -1.06171e-07 9.28156e-05
0.00203538 -0.000182028 1.64771e-06
-0.000182028 7.71425e-05 -1.23225e-06
1.64771e-06 -1.23225e-06 3.75194e-05
0.00160802 -0.00031698 -8.84668e-08
-0.00031698 -8.34798e-05 1.47483e-06
-8.84668e-08 1.47483e-06 -0.000174102
0.00110753 -0.000238792 3.36759e-06
-0.000238792 0.000194502 3.01052e-06
3.36759e-06 3.01052e-06 -5.09368e-06
0.00229893 -0.000382764 3.19108e-06
-0.000382764 0.000541146 5.46501e-07
3.19108e-06 5.46501e-07 0.000342139
0.000960909 -0.000188319 -1.00401e-06
-0.000188319 0.000262306 -1.43011e-06
-1.00401e-06 -1.43011e-06 4.07415e-05
0.00154423 -0.000164617 -1.22779e-06
-0.000164617 0.000561976 -3.89117e-07
-1.22779e-06 -3.89117e-07 0.000376792
0.000783763 -8.74342e-05 -1.86511e-06
-8.74342e-05 9.12647e-05 1.41334e-06
-1.86511e-06 1.41334e-06 -2.9525e-05
0.000788218 -1.97397e-05 -2.84228e-07
-1.97397e-05 0.000106917 2.2049e-06
-2.84228e-07 2.2049e-06 8.54556e-06
0.00098523 -6.08324e-06 -2.03462e-06
-6.08324e-06 0.000213714 -1.07937e-06
-2.03462e-06 -1.07937e-06 0.000104015
0.00100086 -9.04208e-06 9.52296e-07
-9.04208e-06 0.000225541 1.03355e-06
9.52296e-07 1.03355e-06 0.000136469
0.000711384 0.00011021 2.02163e-06
0.00011021 7.31927e-05 3.33526e-06
2.02163e-06 3.33526e-06 -3.01455e-05
0.00169021 -0.000125431 -2.82781e-07
-0.000125431 -8.76617e-05 -1.04266e-06
-2.82781e-07 -1.04266e-06 -0.000111071
0.000737973 3.09483e-05 -8.85422e-07
3.09483e-05 8.76801e-05 2.11402e-07
-8.85422e-07 2.11402e-07 -2.35411e-05
0.000814814 -5.33865e-05 -7.29522e-07
-5.33865e-05 0.000127571 4.88791e-08
-7.29522e-07 4.88791e-08 1.40573e-05
0.00191666 -0.000285422 1.6167e-07
-0.000285422 -8.88288e-07 -1.63081e-06
1.6167e-07 -1.63081e-06 -4.727e-06
0.00140147 -0.000339034 -5.08877e-07
-0.000339034 -5.14264e-05 2.42547e-06
-5.08877e-07 2.42547e-06 -0.000187136
0.00158507 -0.000315674 1.81691e-06
-0.000315674 0.000408298 -1.49896e-06
1.81691e-06 -1.49896e-06 0.000197422
0.000886827 -6.67315e-05 5.40419e-07
-6.67315e-05 0.000183177 -1.22472e-06
5.40419e-07 -1.22472e-06 4.96186e-05
0.000937906 -7.63131e-05 -2.69932e-07
-7.63131e-05 0.000287609 2.25289e-07
-2.69932e-07 2.25289e-07 4.01651e-05
0.00288932 -0.000190548 -1.50455e-05
-0.000190548 0.000702853 6.93355e-06
-1.50455e-05 6.93355e-06 0.000615629
0.00282732 -0.000384888 -1.99262e-05
-0.000384888 0.000553461 2.26928e-06
-1.99262e-05 2.26928e-06 0.000576445
0.000348576 -0.000298882 -5.74602e-06
-0.000298882 -0.000438934 -4.69546e-07
-5.74602e-06 -4.69546e-07 -0.000586408
0.000790022 -0.000195405 -3.31049e-06
-0.000195405 7.3262e-05 1.01712e-05
-3.31049e-06 1.01712e-05 -0.000148744
0.000662622 -9.80527e-05 6.10246e-07
-9.80527e-05 4.1087e-05 -1.25562e-06
6.10246e-07 -1.25562e-06 -7.61978e-05
0.000701451 -5.83899e-05 1.79529e-06
-5.83899e-05 7.50524e-05 -2.75558e-06
1.79529e-06 -2.75558e-06 -4.98202e-05
0.000808041 -2.47007e-05 5.94466e-08
-2.47007e-05 0.000186446 -7.51846e-07
5.94466e-08 -7.51846e-07 -3.00084e-06
-0.00402483 -2.13631e-05 0.000174058
-2.13631e-05 -0.00215422 2.41455e-07
0.000174058 2.41455e-07 -0.00174465
0.00924289 -0.000103803 -1.85289e-05
-0.000103803 0.00293867 2.9296e-06
-1.85289e-05 2.9296e-06 0.00233107
0.000950333 6.70697e-05 2.62923e-06
6.70697e-05 0.000212435 -8.70363e-08
2.62923e-06 -8.70363e-08 9.30017e-05
0.000721647 0.000157425 4.13462e-06
0.000157425 6.6406e-05 -7.29161e-07
4.13462e-06 -7.29161e-07 -9.5775e-05
0.00205569 0.000213266 1.70995e-05
0.000213266 0.00018015 1.17074e-05
1.70995e-05 1.17074e-05 0.000199631
0.00227227 0.00043192 6.12001e-06
0.00043192 0.000345874 4.66349e-06
6.12001e-06 4.66349e-06 0.000182232
0.00133526 0.000273179 6.65092e-06
0.000273179 0.000245039 1.67679e-06
6.65092e-06 1.67679e-06 4.99074e-06
0.00707734 0.000342006 6.85277e-05
0.000342006 0.00166385 1.09594e-05
6.85277e-05 1.09594e-05 0.00061135
0.00625328 0.000497554 -0.000108845
0.000497554 0.00116615 -2.87291e-05
-0.000108845 -2.87291e-05 0.000538751
-0.000736872 0.000143645 2.57174e-06
0.000143645 -0.00095568 -1.94688e-05
2.57174e-06 -1.94688e-05 -0.00112424
0.00432553 -0.000767785 -1.17428e-05
-0.000767785 0.00220704 2.75447e-05
-1.17428e-05 2.75447e-05 0.00193404
-0.00603509 -0.00111647 -0.000190446
-0.00111647 -0.00351068 -0.000168672
-0.000190446 -0.000168672 -0.00162568
0.000954432 0.000132172 5.35935e-08
0.000132172 0.000223493 -1.37077e-06
5.35935e-08 -1.37077e-06 0.00010304
-0.00246985 -0.000306957 5.60278e-05
-0.000306957 -0.00155496 5.53001e-06
5.60278e-05 5.53001e-06 -0.001626
-0.00125111 -0.000349322 -6.17078e-05
-0.000349322 0.000340028 -2.77571e-05
-6.17078e-05 -2.77571e-05 -0.000341128
0.00253494 0.000312892 -4.88682e-06
0.000312892 0.000473053 -1.61898e-06
-4.88682e-06 -1.61898e-06 0.000508831
0.000897187 0.00014377 -1.62865e-06
0.00014377 0.000180544 -1.38945e-07
-1.62865e-06 -1.38945e-07 -3.49931e-06
0.000694012 0.000306809 4.06145e-06
0.000306809 -0.000131477 1.79694e-06
4.06145e-06 1.79694e-06 -0.000382419
0.000664472 0.000225442 1.10268e-05
0.000225442 -0.000218362 9.92195e-06
1.10268e-05 9.92195e-06 -0.000206004
0.00768978 0.000138521 -2.24458e-05
0.000138521 0.00208902 -1.67866e-05
-2.24458e-05 -1.67866e-05 0.000538339
0.00637189 0.000810377 -4.27275e-05
0.000810377 0.00167142 -1.73531e-05
-4.27275e-05 -1.73531e-05 0.000845496
0.00720264 -0.00104321 4.96108e-05
-0.00104321 0.0033849 -2.62799e-05
4.96108e-05 -2.62799e-05 0.0035432
0.00176402 -0.000694723 6.70101e-05
-0.000694723 -0.00195926 0.000141005
6.70101e-05 0.000141005 -0.000483097
0.00133845 0.000105126 -1.14978e-05
0.000105126 0.000457308 -6.88912e-06
-1.14978e-05 -6.88912e-06 0.000355731
-0.00328104 2.15115e-06 -8.73294e-05
2.15115e-06 4.30185e-05 -3.20732e-05
-8.73294e-05 -3.20732e-05 -0.00120743
0.00219366 7.87661e-05 -9.69857e-05
7.87661e-05 0.00062972 -0.000124289
-9.69857e-05 -0.000124289 -0.000629042
-2.52223e-05 0.000251726 -1.87339e-05
0.000251726 -0.000541584 3.43104e-07
-1.87339e-05 3.43104e-07 -0.000548056
0.00161963 0.000331158 -3.77992e-05
0.000331158 0.000635731 -1.05058e-05
-3.77992e-05 -1.05058e-05 0.00043204
0.00283699 0.000243063 -6.97638e-05
0.000243063 0.00121659 -5.0913e-06
-6.97638e-05 -5.0913e-06 0.000987361
0.00379994 0.000745545 -6.54239e-05
0.000745545 0.000527447 -1.09894e-05
-6.54239e-05 -1.09894e-05 0.000120545
-0.000972566 0.000260604 9.27066e-05
0.000260604 -0.00094601 7.03381e-05
9.27066e-05 7.03381e-05 -0.00319777
0.00760096 -0.00100525 -7.92376e-06
-0.00100525 0.00214485 0.00010638
-7.92376e-06 0.00010638 0.00209705
0.00250297 -0.000413102 -1.24834e-05
-0.000413102 -0.00204666 -2.85919e-05
-1.24834e-05 -2.85919e-05 -0.00068169
0.000948895 5.76322e-05 1.96107e-06
5.76322e-05 0.000188252 3.13081e-06
1.96107e-06 3.13081e-06 9.30881e-05
0.00113284 8.53187e-05 3.50657e-06
8.53187e-05 0.000284638 2.40571e-06
3.50657e-06 2.40571e-06 0.00020969
0.000445456 6.14525e-05 -5.64946e-07
6.14525e-05 -9.71337e-05 -7.34334e-06
-5.64946e-07 -7.34334e-06 -0.000153659
0.000581555 4.29087e-05 7.81089e-07
4.29087e-05 -3.94162e-05 -1.27528e-07
7.81089e-07 -1.27528e-07 -0.000112491
0.000818673 3.76597e-05 -7.49542e-07
3.76597e-05 0.00010835 -6.38142e-07
-7.49542e-07 -6.38142e-07 1.25148e-05
0.000839951 -1.32323e-05 -3.58555e-07
-1.32323e-05 0.000104341 8.10183e-07
-3.58555e-07 8.10183e-07 1.59922e-05
0.000840451 -1.02889e-05 4.21465e-07
-1.02889e-05 0.00010418 -1.28593e-07
4.21465e-07 -1.28593e-07 1.56217e-05
0.000706753 9.27896e-06 -2.92062e-07
9.27896e-06 2.15171e-05 2.56963e-06
-2.92062e-07 2.56963e-06 -5.80263e-05
0.000844852 3.43007e-05 1.63857e-07
3.43007e-05 0.000120985 -6.23897e-07
1.63857e-07 -6.23897e-07 2.55459e-05
0.000900948 9.63397e-06 -5.29746e-08
9.63397e-06 0.00013111 3.18817e-07
-5.29746e-08 3.18817e-07 4.64587e-05
0.000856988 -3.24641e-05 -4.63341e-08
-3.24641e-05 0.000113415 4.29279e-07
-4.63341e-08 4.29279e-07 1.76022e-05
0.000426774 2.28636e-05 5.37152e-07
2.28636e-05 -0.000126049 -5.23811e-07
5.37152e-07 -5.23811e-07 -0.000205571
0.000339502 5.90222e-06 1.59032e-06
5.90222e-06 -0.00012956 -4.61426e-06
1.59032e-06 -4.61426e-06 -0.000202575
0.00095282 -1.37979e-05 -1.48019e-06
-1.37979e-05 0.000165544 -3.21866e-06
-1.48019e-06 -3.21866e-06 7.39516e-05
0.000976202 -1.73293e-06 2.06463e-07
-1.73293e-06 0.000193821 -1.20562e-06
2.06463e-07 -1.20562e-06 8.76912e-05
0.00085203 -4.45524e-05 -9.89708e-09
-4.45524e-05 0.000126769 -3.91298e-07
-9.89708e-09 -3.91298e-07 3.27742e-05
0.000883349 4.2733e-06 -6.96534e-07
4.2733e-06 0.000127184 8.21919e-07
-6.96534e-07 8.21919e-07 4.38642e-05
0.000840416 -2.50326e-05 4.984e-07
-2.50326e-05 0.000111318 -2.95467e-07
4.984e-07 -2.95467e-07 1.60934e-05
0.000790278 3.85683e-05 -1.74703e-07
3.85683e-05 8.56823e-05 -6.73874e-08
-1.74703e-07 -6.73874e-08 -1.84182e-08
0.000728462 -9.29039e-06 -1.91975e-07
-9.29039e-06 3.45808e-05 5.23338e-07
-1.91975e-07 5.23338e-07 -4.29914e-05
0.000712511 4.86157e-05 1.09956e-06
4.86157e-05 4.61223e-05 -7.1159e-08
1.09956e-06 -7.1159e-08 -3.87823e-05
0.000603073 1.21987e-05 -2.41376e-09
1.21987e-05 -2.49151e-05 -2.46539e-06
-2.41376e-09 -2.46539e-06 -0.000113965
0.000690241 3.20561e-06 1.43975e-06
3.20561e-06 2.31332e-05 -1.30851e-06
1.43975e-06 -1.30851e-06 -5.26121e-05
0.000841153 1.79933e-05 2.86798e-06
1.79933e-05 0.000105796 -2.32675e-06
2.86798e-06 -2.32675e-06 1.48285e-05
0.000291834 -3.36915e-05 7.24016e-07
-3.36915e-05 -0.000157665 1.7422e-07
7.24016e-07 1.7422e-07 -0.000289691
0.000399669 3.72063e-05 1.12175e-07
3.72063e-05 -0.000109596 -1.7354e-07
1.12175e-07 -1.7354e-07 -0.000206387
0.000755586 3.6944e-05 4.36627e-07
3.6944e-05 7.56447e-05 4.71467e-07
4.36627e-07 4.71467e-07 -1.28967e-05
0.000708534 2.83481e-05 1.54221e-07
2.83481e-05 4.08704e-05 3.2214e-07
1.54221e-07 3.2214e-07 -3.56024e-05
0.00075643 2.12805e-06 -4.84034e-08
2.12805e-06 7.16824e-05 2.73876e-09
-4.84034e-08 2.73876e-09 -8.6804e-06
0.000695582 1.85919e-05 -6.10953e-07
1.85919e-05 2.2374e-05 4.29333e-07
-6.10953e-07 4.29333e-07 -4.13998e-05
0.000784232 3.2212e-06 2.47163e-07
3.2212e-06 8.67665e-05 3.31798e-07
2.47163e-07 3.31798e-07 4.36272e-06
0.000738855 -1.79355e-05 -2.07829e-07
-1.79355e-05 4.67039e-05 7.9058e-09
-2.07829e-07 7.9058e-09 -1.88423e-05
0.000683543 3.14464e-05 -8.36382e-07
3.14464e-05 -6.39636e-07 1.69608e-06
-8.36382e-07 1.69608e-06 -4.38495e-05
0.00065035 -3.75094e-05 9.30147e-07
-3.75094e-05 -6.32942e-06 -4.20861e-07
9.30147e-07 -4.20861e-07 -7.34314e-05
0.000693017 1.38361e-05 -1.81925e-07
1.38361e-05 4.33061e-06 -1.93677e-08
-1.81925e-07 -1.93677e-08 -3.83484e-05
0.00136114 2.51485e-05 -4.91094e-06
2.51485e-05 0.000374318 4.94862e-06
-4.91094e-06 4.94862e-06 0.000366578
0.00068462 -4.60471e-06 7.73741e-07
-4.60471e-06 1.48897e-06 -1.62796e-06
7.73741e-07 -1.62796e-06 -4.11185e-05
0.00100544 1.62012e-05 -2.41292e-06
1.62012e-05 0.000168198 7.28236e-07
-2.41292e-06 7.28236e-07 0.000159195
0.000833667 1.35144e-05 -4.88595e-07
1.35144e-05 7.13976e-05 1.85139e-06
-4.88595e-07 1.85139e-06 8.19512e-05
0.000645357 7.71354e-06 2.91112e-07
7.71354e-06 -4.01433e-05 -3.53232e-06
2.91112e-07 -3.53232e-06 -5.04734e-05
0.00226204 1.10455e-05 3.06848e-06
1.10455e-05 0.000887779 3.24903e-08
3.06848e-06 3.24903e-08 0.000905913
0.0022579 1.27113e-06 1.7845e-07
1.27113e-06 0.000884676 -4.90391e-06
1.7845e-07 -4.90391e-06 0.000903025
0.0010394 6.21435e-05 -1.32466e-06
6.21435e-05 0.00022854 -1.17677e-06
-1.32466e-06 -1.17677e-06 0.0001629
0.000712782 1.15939e-05 -6.82642e-07
1.15939e-05 1.7854e-05 -2.03368e-06
-6.82642e-07 -2.03368e-06 -1.78327e-05
0.00072023 1.09202e-06 6.32447e-07
1.09202e-06 5.24387e-05 7.17632e-07
6.32447e-07 7.17632e-07 -1.49042e-05
0.000661936 7.21705e-07 -1.88616e-07
7.21705e-07 -3.25961e-05 -3.55846e-06
-1.88616e-07 -3.55846e-06 -3.78152e-05
0.000697582 -5.5252e-07 2.75997e-07
-5.5252e-07 9.5847e-06 -3.03247e-08
2.75997e-07 -3.03247e-08 -2.49808e-05
0.000697704 -9.00882e-06 -6.91639e-07
-9.00882e-06 9.9098e-06 1.93758e-06
-6.91639e-07 1.93758e-06 -2.51255e-05
0.000661915 7.11414e-06 -1.51228e-07
7.11414e-06 -3.17838e-05 -1.01165e-08
-1.51228e-07 -1.01165e-08 -3.73125e-05
0.00208245 1.01216e-05 4.03733e-06
1.01216e-05 0.000785441 -4.70828e-06
4.03733e-06 -4.70828e-06 0.000805522
0.00126193 1.85141e-05 -6.09486e-07
1.85141e-05 0.000313392 2.14035e-06
-6.09486e-07 2.14035e-06 0.000310284
0.00147037 1.82538e-05 1.95422e-06
1.82538e-05 0.000437216 7.47234e-08
1.95422e-06 7.47234e-08 0.000453136
0.000912269 2.16617e-05 -1.46081e-05
2.16617e-05 0.000122082 7.27629e-06
-1.46081e-05 7.27629e-06 0.000133398
-0.00663348 0.000164684 0.000111019
0.000164684 -0.00315514 -1.30625e-06
0.000111019 -1.30625e-06 -0.00354872
-0.00186583 0.000178307 8.86601e-05
0.000178307 0.000286458 2.19631e-05
8.86601e-05 2.19631e-05 -0.000330388
0.00390533 8.21068e-05 -0.000164696
8.21068e-05 0.000710575 2.24367e-06
-0.000164696 2.24367e-06 0.000450045
0.0011864 2.27914e-05 3.40414e-05
2.27914e-05 -0.000358617 2.08351e-06
3.40414e-05 2.08351e-06 -0.000377269
0.00150202 -2.02776e-05 1.36507e-05
-2.02776e-05 -0.000189422 1.91801e-07
1.36507e-05 1.91801e-07 -0.00021383
0.000897987 2.68197e-05 1.51384e-05
2.68197e-05 -0.00056966 -2.44928e-06
1.51384e-05 -2.44928e-06 -0.000687106
0.00226228 -5.30703e-05 2.13537e-06
-5.30703e-05 0.000195408 1.97696e-06
2.13537e-06 1.97696e-06 0.00015654
0.00728744 0.000147356 1.1606e-05
0.000147356 0.00171308 -2.256e-05
1.1606e-05 -2.256e-05 0.000797478
-0.00351748 0.000473077 -2.97378e-05
0.000473077 -0.00126702 -3.04917e-06
-2.97378e-05 -3.04917e-06 -0.00174391
-0.00175241 0.0010106 -4.33465e-05
0.0010106 -0.00107445 1.72229e-05
-4.33465e-05 1.72229e-05 0.000439893
0.00149097 -0.000143814 4.74671e-05
-0.000143814 -0.000330291 1.22922e-05
4.74671e-05 1.22922e-05 -0.000623523
0.00823292 8.23838e-05 3.54808e-05
8.23838e-05 0.00250693 -1.4171e-05
3.54808e-05 -1.4171e-05 0.00119545
0.000502355 0.000883866 5.32972e-05
0.000883866 -0.000523838 -0.000106908
5.32972e-05 -0.000106908 0.000116737
0.00434234 0.000741151 -9.06583e-05
0.000741151 -6.73489e-05 7.1608e-05
-9.06583e-05 7.1608e-05 0.000814666
0.000741459 6.44501e-05 -1.14393e-06
6.44501e-05 8.37779e-05 -7.64338e-07
-1.14393e-06 -7.64338e-07 -2.37223e-05
0.000623429 1.05353e-05 -2.33154e-07
1.05353e-05 1.44933e-06 -6.0478e-07
-2.33154e-07 -6.0478e-07 -7.77453e-05
0.000732002 -7.01843e-05 -9.09919e-07
-7.01843e-05 6.05677e-05 1.38073e-06
-9.09919e-07 1.38073e-06 -6.67755e-06
0.000629735 1.67256e-06 1.71584e-07
1.67256e-06 1.24005e-05 1.14429e-06
1.71584e-07 1.14429e-06 -7.39174e-05
0.000769929 6.51971e-05 9.79262e-07
6.51971e-05 0.000103202 1.36493e-06
9.79262e-07 1.36493e-06 2.42245e-06
0.000895309 6.51219e-05 -5.54926e-07
6.51219e-05 0.000161637 -3.15672e-07
-5.54926e-07 -3.15672e-07 5.77551e-05
0.000828949 7.6789e-05 1.60298e-06
7.6789e-05 0.000124285 1.51244e-06
1.60298e-06 1.51244e-06 2.58317e-05
0.00072338 -2.7345e-06 9.49624e-07
-2.7345e-06 5.43975e-05 -5.99301e-07
9.49624e-07 -5.99301e-07 -3.43427e-05
0.000707212 -1.79817e-05 4.46996e-07
-1.79817e-05 5.50011e-05 -8.74779e-07
4.46996e-07 -8.74779e-07 -3.36624e-05
0.000610346 -1.27414e-05 -2.31704e-07
-1.27414e-05 -7.37635e-06 1.3628e-06
-2.31704e-07 1.3628e-06 -8.67576e-05
0.0011159 -0.000119254 1.07282e-05
-0.000119254 -0.000394486 -3.1267e-06
1.07282e-05 -3.1267e-06 -0.000413666
0.00186413 -0.000288035 1.0715e-05
-0.000288035 2.94146e-07 -8.22147e-07
1.0715e-05 -8.22147e-07 -2.50824e-05
0.000323551 -0.000268315 9.40812e-06
-0.000268315 -0.0006101 3.54479e-06
9.40812e-06 3.54479e-06 -0.000724867
0.00151274 -0.000312423 2.33616e-06
-0.000312423 0.00036909 -3.8089e-07
2.33616e-06 -3.8089e-07 0.000146972
0.0014035 -0.000116948 5.65096e-09
-0.000116948 0.000523467 5.72989e-07
5.65096e-09 5.72989e-07 0.000291863
0.00108291 -9.16719e-05 -1.1038e-06
-9.16719e-05 0.00029604 2.61794e-07
-1.1038e-06 2.61794e-07 0.000151636
0.00091436 -4.33136e-05 -1.05353e-06
-4.33136e-05 0.000176982 1.05439e-06
-1.05353e-06 1.05439e-06 7.02518e-05
0.000734272 3.82419e-05 -1.1396e-06
3.82419e-05 8.48041e-05 2.09566e-06
-1.1396e-06 2.09566e-06 -2.36726e-05
0.00157584 -0.000155693 -2.42107e-06
-0.000155693 -6.20805e-06 4.00436e-07
-2.42107e-06 4.00436e-07 -6.62658e-05
0.00063652 -3.82121e-05 -1.52393e-07
-3.82121e-05 2.84421e-05 3.81967e-08
-1.52393e-07 3.81967e-08 -9.00547e-05
0.000675103 -5.27557e-05 7.36694e-07
-5.27557e-05 6.18185e-05 -9.55439e-07
7.36694e-07 -9.55439e-07 -6.5788e-05
0.00184653 -0.000337005 4.99003e-06
-0.000337005 5.55113e-05 -1.77499e-06
4.99003e-06 -1.77499e-06 7.275e-05
0.000461665 -0.000302717 1.58081e-06
-0.000302717 -0.00035913 1.658e-06
1.58081e-06 1.658e-06 -0.00050019
0.000999982 -0.000214858 4.63014e-06
-0.000214858 0.00018014 -2.01117e-06
4.63014e-06 -2.01117e-06 -4.66469e-05
0.00116227 -6.75619e-05 -4.32939e-07
-6.75619e-05 0.000374191 -1.26817e-06
-4.32939e-07 -1.26817e-06 0.000183506
0.000563529 -0.000208576 -4.00146e-06
-0.000208576 -0.000230207 -1.58311e-06
-4.00146e-06 -1.58311e-06 -0.000467787
0.00153004 -0.000286222 -2.12815e-05
-0.000286222 0.000229309 5.3431e-06
-2.12815e-05 5.3431e-06 0.000178338
0.000203662 -7.94259e-05 -1.40822e-05
-7.94259e-05 -0.000132286 2.3388e-05
-1.40822e-05 2.3388e-05 -0.000352051
0.000616025 3.32351e-05 1.21873e-07
3.32351e-05 1.21278e-05 4.95872e-07
1.21873e-07 4.95872e-07 -0.00010251
0.000606907 -9.21201e-05 1.42984e-06
-9.21201e-05 1.97109e-05 -1.73822e-06
1.42984e-06 -1.73822e-06 -0.000108812
0.000782202 -4.43639e-05 1.16681e-06
-4.43639e-05 0.000124083 -1.95601e-06
1.16681e-06 -1.95601e-06 -1.84751e-05
0.000880822 6.15352e-05 -0.000116277
6.15352e-05 0.00220205 1.5184e-07
-0.000116277 1.5184e-07 0.00143983
0.0020841 -0.000175628 1.45291e-05
-0.000175628 0.00139973 1.07345e-05
1.45291e-05 1.07345e-05 0.00126964
0.000182064 0.000392754 -6.02259e-05
0.000392754 -0.00228233 2.60278e-05
-6.02259e-05 2.60278e-05 -0.00284859
0.000808678 0.000121368 4.22487e-06
0.000121368 0.000149916 1.85632e-06
4.22487e-06 1.85632e-06 3.17402e-05
0.000658023 0.000160541 7.13984e-06
0.000160541 7.04843e-05 4.28688e-06
7.13984e-06 4.28688e-06 -0.000118454
0.00236994 0.00028297 1.3943e-05
0.00028297 0.000367336 7.38286e-06
1.3943e-05 7.38286e-06 0.000413815
0.000834193 0.000255736 1.29093e-05
0.000255736 -3.19365e-05 7.90133e-06
1.29093e-05 7.90133e-06 -0.000279076
0.00499888 -0.000412423 4.45473e-05
-0.000412423 0.00208008 2.60818e-05
4.45473e-05 2.60818e-05 0.00217349
-0.000629169 -7.77201e-05 -6.84879e-05
-7.77201e-05 -0.00192941 -1.42639e-06
-6.84879e-05 -1.42639e-06 -0.00332868
0.00341318 0.000730993 -8.82209e-05
0.000730993 -9.5873e-05 -3.17744e-05
-8.82209e-05 -3.17744e-05 -0.000937561
0.000573739 0.000140939 2.66755e-05
0.000140939 -0.000176727 -1.60787e-05
2.66755e-05 -1.60787e-05 -0.000147329
-0.00428418 -0.000471681 -2.0536e-05
-0.000471681 -0.00165479 -4.13546e-05
-2.0536e-05 -4.13546e-05 -0.00175507
0.000291357 -0.000442099 4.76781e-06
-0.000442099 0.000577787 2.02256e-05
4.76781e-06 2.02256e-05 -0.000108846
0.00600082 -0.000910412 0.000108305
-0.000910412 0.000269102 9.02951e-05
0.000108305 9.02951e-05 0.00182016
0.000767632 8.94139e-05 3.64108e-06
8.94139e-05 0.000153519 -2.15653e-06
3.64108e-06 -2.15653e-06 4.59238e-05
-0.000797317 -8.16312e-05 -4.43994e-05
-8.16312e-05 0.000970592 -1.49996e-05
-4.43994e-05 -1.49996e-05 -9.8084e-06
0.00246894 8.98093e-05 -5.07201e-06
8.98093e-05 0.00077671 -3.05935e-05
-5.07201e-06 -3.05935e-05 -0.000522289
0.000760662 0.000236198 -8.54579e-06
0.000236198 -8.0998e-05 3.54619e-06
-8.54579e-06 3.54619e-06 -0.000138599
0.000714737 0.00018568 3.42592e-07
0.00018568 0.00017925 1.44039e-06
3.42592e-07 1.44039e-06 -2.75738e-05
0.000309688 0.000184825 3.57405e-05
0.000184825 -0.00012558 -2.45068e-05
3.57405e-05 -2.45068e-05 -0.000289928
0.00533135 0.000942164 -1.3413e-05
0.000942164 0.00147226 7.72137e-07
-1.3413e-05 7.72137e-07 0.000686749
0.00967874 3.95614e-05 4.21054e-05
3.95614e-05 0.00365004 1.32603e-05
4.21054e-05 1.32603e-05 0.00197606
0.00171018 -0.000625614 7.17425e-06
-0.000625614 -0.00116014 -1.38466e-05
7.17425e-06 -1.38466e-05 -0.000998816
0.00679426 -0.000573817 6.72823e-06
-0.000573817 0.000741584 -1.59336e-05
6.72823e-06 -1.59336e-05 0.00203593
0.000561638 0.000115521 -1.13019e-05
0.000115521 8.45076e-05 -8.03527e-06
-1.13019e-05 -8.03527e-06 2.11446e-07
0.00189966 -2.41698e-05 -8.32596e-05
-2.41698e-05 0.000413731 -3.60307e-05
-8.32596e-05 -3.60307e-05 -0.000463501
0.000874628 5.2231e-05 -1.55152e-05
5.2231e-05 0.000243692 -7.00782e-05
-1.55152e-05 -7.00782e-05 -0.000812956
-0.000955809 1.58091e-05 -2.31898e-05
1.58091e-05 -0.000505102 -1.67574e-05
-2.31898e-05 -1.67574e-05 -0.000634934
0.00253525 0.00036347 2.88049e-06
0.00036347 0.000678797 5.21832e-05
2.88049e-06 5.21832e-05 0.000102631
0.00902753 0.000303199 2.96672e-05
0.000303199 0.00364583 2.57882e-07
2.96672e-05 2.57882e-07 0.00139601
-0.0067437 -0.000787666 -4.26208e-05
-0.000787666 -0.00420247 3.86004e-05
-4.26208e-05 3.86004e-05 -0.00535575
0.0052051 0.000214745 -3.17399e-07
0.000214745 -0.000717405 -9.98363e-05
-3.17399e-07 -9.98363e-05 0.000772579
0.000986139 7.4e-05 2.087e-06
7.4e-05 0.000198009 5.5961e-06
2.087e-06 5.5961e-06 0.000124452
0.000921264 9.24684e-05 -4.30391e-06
9.24684e-05 0.000176567 -8.32494e-07
-4.30391e-06 -8.32494e-07 0.000117032
0.0014682 8.30358e-05 -5.6126e-06
8.30358e-05 0.00053411 -4.60529e-06
-5.6126e-06 -4.60529e-06 0.000481241
0.000838311 7.09306e-05 -1.56847e-06
7.09306e-05 0.000109609 -6.74014e-07
-1.56847e-06 -6.74014e-07 1.93475e-05
0.00090709 -3.47353e-05 -2.69589e-07
-3.47353e-05 0.000149334 1.43404e-06
-2.69589e-07 1.43404e-06 4.84838e-05
0.000837034 1.74438e-05 9.2157e-08
1.74438e-05 9.49294e-05 1.33424e-06
9.2157e-08 1.33424e-06 9.63761e-06
0.000345204 1.27483e-05 7.2299e-08
1.27483e-05 -0.000164717 3.55345e-06
7.2299e-08 3.55345e-06 -0.000242697
0.000887249 9.443e-07 6.6937e-07
9.443e-07 0.000132052 5.91022e-08
6.6937e-07 5.91022e-08 3.49046e-05
0.000877396 1.04607e-06 -1.36517e-07
1.04607e-06 0.000124845 -1.81184e-07
-1.36517e-07 -1.81184e-07 3.28559e-05
0.000443169 9.52584e-07 2.6711e-07
9.52584e-07 -6.89258e-05 6.49455e-07
2.6711e-07 6.49455e-07 -0.00014308
2.17322e-06 5.38058e-06 -2.59461e-06
5.38058e-06 -0.000221455 -4.48396e-06
-2.59461e-06 -4.48396e-06 -0.00028069
0.00094571 -2.41018e-05 2.0954e-06
-2.41018e-05 0.000203501 -5.58406e-06
2.0954e-06 -5.58406e-06 0.000124309
0.00091366 3.34426e-05 8.28902e-08
3.34426e-05 0.000150197 -2.90779e-06
8.28902e-08 -2.90779e-06 5.31339e-05
0.000869671 -6.55062e-05 8.2128e-07
-6.55062e-05 0.000119395 6.88742e-07
8.2128e-07 6.88742e-07 2.91201e-05
0.000778935 4.15659e-05 -7.24494e-07
4.15659e-05 7.75382e-05 4.31355e-07
-7.24494e-07 4.31355e-07 -7.25797e-06
0.000818294 -1.61925e-05 -1.30016e-06
-1.61925e-05 8.55658e-05 1.88658e-06
-1.30016e-06 1.88658e-06 8.15505e-06
0.00067131 2.86532e-06 5.18973e-07
2.86532e-06 7.16724e-06 4.44462e-07
5.18973e-07 4.44462e-07 -7.75531e-05
0.000757455 4.45593e-05 3.21368e-07
4.45593e-05 7.18331e-05 2.22971e-07
3.21368e-07 2.22971e-07 -1.3847e-05
0.00080568 1.96271e-05 -5.24534e-07
1.96271e-05 8.71139e-05 2.5849e-07
-5.24534e-07 2.5849e-07 1.07735e-05
0.000930318 3.15662e-05 1.63954e-06
3.15662e-05 0.000158018 -1.75752e-06
1.63954e-06 -1.75752e-06 7.68544e-05
0.000554782 -1.86496e-06 2.47929e-06
-1.86496e-06 -3.46543e-05 -3.03695e-06
2.47929e-06 -3.03695e-06 -0.000102047
0.000635979 -7.51404e-05 1.55604e-06
-7.51404e-05 -2.51313e-05 -6.85741e-07
1.55604e-06 -6.85741e-07 -0.000116396
0.000907423 -2.51542e-06 -1.16669e-06
-2.51542e-06 0.000146847 -2.55637e-07
-1.16669e-06 -2.55637e-07 5.36754e-05
0.00052959 -5.00254e-05 2.37297e-06
-5.00254e-05 -2.91882e-05 1.58602e-06
2.37297e-06 1.58602e-06 -0.000151771
0.000998599 -0.000168165 -3.15873e-07
-0.000168165 0.000207508 4.06457e-06
-3.15873e-07 4.06457e-06 3.18102e-05
0.00117551 -5.79631e-05 1.37277e-06
-5.79631e-05 0.000326246 -1.05038e-06
1.37277e-06 -1.05038e-06 0.000214435
0.000475591 -5.17505e-05 -8.78434e-07
-5.17505e-05 -4.43732e-05 -2.874e-06
-8.78434e-07 -2.874e-06 -0.000174926
0.000698436 3.01342e-05 -5.40986e-07
3.01342e-05 5.26867e-05 -6.11781e-07
-5.40986e-07 -6.11781e-07 -4.17376e-05
0.000470858 2.74435e-05 8.46319e-07
2.74435e-05 -8.51118e-05 6.26223e-07
8.46319e-07 6.26223e-07 -0.000168632
0.000834729 2.37581e-05 -4.10746e-07
2.37581e-05 0.00011868 3.5271e-07
-4.10746e-07 3.5271e-07 3.01607e-05
0.000772547 -1.88757e-06 -5.25605e-07
-1.88757e-06 8.12479e-05 4.15964e-07
-5.25605e-07 4.15964e-07 7.12116e-07
0.000702259 1.79198e-05 -7.62105e-07
1.79198e-05 2.56529e-05 5.30708e-07
-7.62105e-07 5.30708e-07 -3.72163e-05
0.000811745 -2.46915e-05 4.33825e-07
-2.46915e-05 0.000110315 1.24036e-07
4.33825e-07 1.24036e-07 2.40227e-05
0.000739427 -1.97642e-05 -3.93875e-07
-1.97642e-05 4.84464e-05 4.61833e-08
-3.93875e-07 4.61833e-08 -1.68202e-05
0.00068575 3.6191e-05 -1.23542e-06
3.6191e-05 2.49109e-06 1.65976e-06
-1.23542e-06 1.65976e-06 -4.12326e-05
0.000774852 -4.70038e-05 1.25881e-06
-4.70038e-05 6.9516e-05 -4.60769e-07
1.25881e-06 -4.60769e-07 2.05467e-06
0.000707414 1.61282e-05 -2.86338e-07
1.61282e-05 1.14994e-05 -4.50392e-09
-2.86338e-07 -4.50392e-09 -3.1017e-05
0.00135214 3.39209e-05 -6.92112e-06
3.39209e-05 0.000372283 4.87965e-06
-6.92112e-06 4.87965e-06 0.000364021
0.000702303 -2.65812e-06 1.33918e-06
-2.65812e-06 8.99912e-06 -1.58112e-06
1.33918e-06 -1.58112e-06 -3.33901e-05
0.00100357 2.38955e-05 -3.27501e-06
2.38955e-05 0.000169532 6.87286e-07
-3.27501e-06 6.87286e-07 0.000160085
0.000832089 2.08915e-05 -9.40782e-07
2.08915e-05 7.47638e-05 1.81668e-06
-9.40782e-07 1.81668e-06 8.44664e-05
0.000634018 1.41553e-05 4.25661e-07
1.41553e-05 -4.48949e-05 -3.567e-06
4.25661e-07 -3.567e-06 -5.55924e-05
0.00155112 1.93283e-05 5.15403e-06
1.93283e-05 0.000482423 -1.42118e-06
5.15403e-06 -1.42118e-06 0.000496479
0.00227217 1.29389e-05 4.59326e-06
1.29389e-05 0.000893945 -4.83274e-06
4.59326e-06 -4.83274e-06 0.000911935
0.000789836 -9.97382e-06 5.90589e-07
-9.97382e-06 8.05826e-05 -1.20253e-06
5.90589e-07 -1.20253e-06 1.41294e-05
0.000725102 5.57791e-06 -3.74257e-07
5.57791e-06 2.37331e-05 -2.05729e-06
-3.74257e-07 -2.05729e-06 -1.32354e-05
0.000784534 -1.92388e-06 5.77028e-07
-1.92388e-06 8.32473e-05 1.40496e-07
5.77028e-07 1.40496e-07 1.7606e-05
0.000662017 -5.64084e-06 -2.78854e-07
-5.64084e-06 -3.25548e-05 -3.59015e-06
-2.78854e-07 -3.59015e-06 -3.80874e-05
0.000700655 5.79617e-06 2.45077e-08
5.79617e-06 1.08639e-05 -2.56159e-08
2.45077e-08 -2.56159e-08 -2.46089e-05
0.000708689 -5.9796e-05 -2.36481e-06
-5.9796e-05 4.14032e-05 1.91392e-06
-2.36481e-06 1.91392e-06 -2.22633e-05
0.00208206 -7.06209e-07 -4.65329e-07
-7.06209e-07 0.000784325 -4.72381e-06
-4.65329e-07 -4.72381e-06 0.000804651
0.000663086 8.61821e-07 -1.34004e-07
8.61821e-07 -3.19438e-05 -1.60951e-09
-1.34004e-07 -1.60951e-09 -3.71516e-05
0.000684846 -8.82165e-06 -4.60968e-07
-8.82165e-06 2.22643e-06 1.92253e-06
-4.60968e-07 1.92253e-06 -3.22902e-05
0.000661856 7.27238e-06 -4.94267e-08
7.27238e-06 -3.19021e-05 3.53308e-06
-4.94267e-08 3.53308e-06 -3.74372e-05
0.00208818 1.11965e-05 -3.07289e-06
1.11965e-05 0.000788911 -3.12316e-08
-3.07289e-06 -3.12316e-08 0.000808928
0.00209688 2.14001e-05 -1.10213e-05
2.14001e-05 0.000796285 4.50119e-06
-1.10213e-05 4.50119e-06 0.000815674
-0.0024578 -4.73983e-05 -4.95986e-05
-4.73983e-05 0.000331567 1.07292e-05
-4.95986e-05 1.07292e-05 -0.000723176
-0.00114276 0.000308067 -2.46957e-05
0.000308067 -0.000489511 6.49902e-06
-2.46957e-05 6.49902e-06 -0.000760075
0.00258644 -8.46374e-05 -0.000122573
-8.46374e-05 0.000541482 0.000101815
-0.000122573 0.000101815 -0.000645174
-0.00240429 0.000214019 0.000144773
0.000214019 0.000334703 -6.29669e-05
0.000144773 -6.29669e-05 -0.000155597
0.00231371 0.000134684 -9.79658e-05
0.000134684 2.54929e-05 1.61243e-05
-9.79658e-05 1.61243e-05 -0.000221486
0.00190975 -8.33916e-05 7.35694e-05
-8.33916e-05 -9.446e-06 -1.08265e-05
7.35694e-05 -1.08265e-05 -5.22299e-05
0.00192185 -0.000388552 -9.19019e-05
-0.000388552 -0.000967037 -4.56256e-05
-9.19019e-05 -4.56256e-05 -0.00185091
0.00749634 0.000574779 -4.13461e-06
0.000574779 0.00368575 -1.58092e-05
-4.13461e-06 -1.58092e-05 0.00351089
-0.00608618 0.00109468 -0.000186519
0.00109468 -0.00365393 0.000168014
-0.000186519 0.000168014 -0.0016175
0.00208453 -3.23044e-05 -5.63373e-06
-3.23044e-05 -0.000157052 -6.46629e-06
-5.63373e-06 -6.46629e-06 -0.000412898
0.00379555 -5.1015e-05 2.32006e-05
-5.1015e-05 0.000382685 -3.20903e-05
2.32006e-05 -3.20903e-05 -0.00146337
0.00723524 0.00110419 -3.22391e-05
0.00110419 0.00235346 -3.8087e-05
-3.22391e-05 -3.8087e-05 0.00301784
0.00179729 0.00069782 -3.28074e-05
0.00069782 -0.00153881 7.03006e-05
-3.28074e-05 7.03006e-05 -0.00058862
0.00288996 -0.000423018 -5.15822e-05
-0.000423018 5.04139e-05 1.49423e-05
-5.15822e-05 1.49423e-05 -0.000426529
0.00326697 -0.00028229 0.000130213
-0.00028229 0.000888697 -8.5735e-05
0.000130213 -8.5735e-05 -0.00155616
-0.00531834 0.000393488 -5.32907e-05
0.000393488 -0.00448569 -0.000134751
-5.32907e-05 -0.000134751 -0.00420856
0.00152532 0.000431278 -2.96966e-05
0.000431278 -0.0028784 1.25336e-05
-2.96966e-05 1.25336e-05 -0.00155963
0.000818012 -1.34531e-05 6.16571e-07
-1.34531e-05 0.000125881 -1.82223e-07
6.16571e-07 -1.82223e-07 1.29472e-05
0.000794358 5.49203e-05 -1.72137e-06
5.49203e-05 0.000112133 -6.65671e-07
-1.72137e-06 -6.65671e-07 7.89932e-06
0.000758192 3.98451e-05 3.715e-07
3.98451e-05 7.7097e-05 3.00312e-08
3.715e-07 3.00312e-08 -2.68458e-07
0.000746748 7.07745e-05 2.41027e-06
7.07745e-05 9.06014e-05 2.47541e-06
2.41027e-06 2.47541e-06 -9.09594e-06
0.000738961 3.04798e-05 -5.29587e-07
3.04798e-05 7.24813e-05 -8.67923e-08
-5.29587e-07 -8.67923e-08 -4.02859e-05
0.000901836 6.66582e-05 2.66076e-07
6.66582e-05 0.000166981 8.1567e-07
2.66076e-07 8.1567e-07 6.30257e-05
0.000739792 1.61382e-05 -2.08385e-07
1.61382e-05 7.03316e-05 2.41267e-06
-2.08385e-07 2.41267e-06 -2.48828e-05
0.000897351 9.47741e-05 -4.34511e-07
9.47741e-05 0.00016788 -8.39538e-08
-4.34511e-07 -8.39538e-08 6.45549e-05
0.000862962 5.15641e-05 -1.52131e-07
5.15641e-05 0.000147204 4.39216e-07
-1.52131e-07 4.39216e-07 4.93012e-05
0.000643691 -8.05629e-06 -1.28351e-06
-8.05629e-06 2.15306e-05 3.89691e-07
-1.28351e-06 3.89691e-07 -7.02095e-05
0.000729602 -0.00014103 2.20046e-05
-0.00014103 -0.000463963 -1.32934e-05
2.20046e-05 -1.32934e-05 -0.000491058
0.000887195 -0.000297894 1.78825e-05
-0.000297894 -0.000429318 -1.48445e-06
1.78825e-05 -1.48445e-06 -0.000425162
0.000905304 -0.000329939 1.16733e-05
-0.000329939 -0.000107714 -1.34176e-08
1.16733e-05 -1.34176e-08 -0.000245477
0.00118174 -0.000231012 7.54455e-06
-0.000231012 0.0002692 -9.31672e-06
7.54455e-06 -9.31672e-06 3.25739e-05
0.00131555 -7.77221e-05 -3.49174e-07
-7.77221e-05 0.000452538 2.31199e-06
-3.49174e-07 2.31199e-06 0.000260172
0.000701971 -6.78504e-05 -1.11157e-06
-6.78504e-05 8.37046e-05 2.57585e-06
-1.11157e-06 2.57585e-06 -5.09059e-05
0.000655255 6.11586e-05 1.51087e-07
6.11586e-05 4.07266e-05 4.17973e-07
1.51087e-07 4.17973e-07 -8.06272e-05
0.000729552 -4.25144e-05 -2.02143e-07
-4.25144e-05 8.05416e-05 1.00064e-06
-2.02143e-07 1.00064e-06 -3.83226e-05
0.00115972 -0.000200257 -9.24107e-07
-0.000200257 4.93221e-05 -3.5969e-07
-9.24107e-07 -3.5969e-07 -0.000108588
0.000856972 -4.51663e-06 -2.55872e-07
-4.51663e-06 0.000162149 -2.55422e-07
-2.55872e-07 -2.55422e-07 3.05466e-05
0.0010865 -7.13273e-05 -1.34823e-07
-7.13273e-05 0.000302643 1.09338e-07
-1.34823e-07 1.09338e-07 0.000151069
0.00113807 -0.000264643 -1.72421e-06
-0.000264643 -1.74142e-06 -7.93215e-07
-1.72421e-06 -7.93215e-07 -3.10519e-05
0.000988123 -0.000111574 -7.79399e-06
-0.000111574 0.000259627 3.40379e-06
-7.79399e-06 3.40379e-06 5.30845e-05
-0.000938791 -0.000227088 -6.66503e-06
-0.000227088 -0.00110411 -1.23239e-05
-6.66503e-06 -1.23239e-05 -0.00110199
0.000860419 -0.000121034 -1.57401e-05
-0.000121034 0.000227147 1.75645e-05
-1.57401e-05 1.75645e-05 0.000125596
0.000471204 -1.07204e-05 -3.2546e-06
-1.07204e-05 -4.58201e-05 1.92778e-05
-3.2546e-06 1.92778e-05 -0.000179879
0.000766102 -3.86202e-06 -1.9667e-07
-3.86202e-06 8.97395e-05 -6.55798e-07
-1.9667e-07 -6.55798e-07 -2.80537e-05
0.000675047 2.20002e-05 1.00368e-06
2.20002e-05 7.03232e-05 -1.65889e-06
1.00368e-06 -1.65889e-06 -7.98477e-05
0.00140667 -1.78329e-05 -3.94664e-05
-1.78329e-05 0.000332251 -3.64632e-06
-3.94664e-05 -3.64632e-06 -0.000384755
-0.000995067 1.54519e-05 -6.59271e-05
1.54519e-05 0.00134657 -2.45883e-06
-6.59271e-05 -2.45883e-06 0.000366278
-0.0074749 -0.000210432 -0.000187276
-0.000210432 -0.00380818 4.44267e-06
-0.000187276 4.44267e-06 -0.00377601
0.00018344 8.03505e-05 7.32605e-06
8.03505e-05 -0.000152777 9.93501e-09
7.32605e-06 9.93501e-09 -0.000270628
-0.000291233 6.0073e-05 6.83539e-06
6.0073e-05 -0.000338378 2.63039e-06
6.83539e-06 2.63039e-06 -0.000550235
0.00138471 0.000207246 1.59927e-05
0.000207246 0.000263907 2.43028e-06
1.59927e-05 2.43028e-06 0.000193489
-0.00242296 7.09296e-05 7.19485e-06
7.09296e-05 0.000239134 8.79552e-06
7.19485e-06 8.79552e-06 -0.000890107
0.00220344 0.000130232 -4.35885e-05
0.000130232 0.000455684 -4.31565e-05
-4.35885e-05 -4.31565e-05 -0.00204658
0.00385461 0.000800623 6.79203e-05
0.000800623 0.000520907 3.73749e-06
6.79203e-05 3.73749e-06 -5.96826e-05
0.000607298 0.00021301 6.27907e-06
0.00021301 1.19249e-05 -7.82248e-06
6.27907e-06 -7.82248e-06 -1.74286e-05
0.00927865 -0.00084163 2.0795e-05
-0.00084163 0.00284823 -3.05494e-05
2.0795e-05 -3.05494e-05 0.00294123
0.00280093 9.32809e-05 8.45477e-05
9.32809e-05 0.00102674 6.25407e-05
8.45477e-05 6.25407e-05 -0.000310394
0.00655063 -0.000503289 2.89988e-05
-0.000503289 0.000912095 1.5366e-05
2.89988e-05 1.5366e-05 0.00224811
0.000895433 0.000137642 -1.12977e-06
0.000137642 0.000293305 -2.56095e-06
-1.12977e-06 -2.56095e-06 0.000202202
0.00205977 -1.96728e-05 4.88004e-06
-1.96728e-05 0.000629027 -8.68227e-06
4.88004e-06 -8.68227e-06 -0.000160746
0.00124772 6.81408e-05 6.22372e-06
6.81408e-05 0.000267305 1.25725e-05
6.22372e-06 1.25725e-05 -0.00081077
3.59334e-06 0.000128974 -5.61844e-06
0.000128974 -2.86655e-05 -5.51402e-07
-5.61844e-06 -5.51402e-07 -0.000182475
0.00273699 0.000467223 -4.80825e-05
0.000467223 0.000614542 -3.4283e-05
-4.80825e-05 -3.4283e-05 8.65417e-05
0.00264051 0.000742792 4.71075e-05
0.000742792 0.00050882 3.32408e-05
4.71075e-05 3.32408e-05 -0.00202618
0.00416644 6.73129e-05 -4.83464e-06
6.73129e-05 -0.00183952 -5.97016e-05
-4.83464e-06 -5.97016e-05 2.78419e-05
0.000741036 -0.000434321 -1.67952e-05
-0.000434321 -0.000410608 -4.92233e-06
-1.67952e-05 -4.92233e-06 -0.00107287
0.00107215 7.86416e-05 -3.3613e-06
7.86416e-05 0.000504505 -8.08999e-06
-3.3613e-06 -8.08999e-06 0.000421049
0.000991256 -3.99579e-05 -9.80734e-06
-3.99579e-05 0.000140018 -2.75703e-05
-9.80734e-06 -2.75703e-05 -0.000199874
0.00208276 3.44902e-06 1.22019e-05
3.44902e-06 0.000222067 -6.25345e-05
1.22019e-05 -6.25345e-05 -0.000661336
0.00165573 0.000448753 2.8261e-05
0.000448753 -0.00282205 -1.57233e-05
2.8261e-05 -1.57233e-05 -0.00157221
-0.00097252 4.60747e-05 2.70276e-07
4.60747e-05 -0.000324328 -1.15853e-05
2.70276e-07 -1.15853e-05 -0.000683175
0.0101478 0.000511808 0.000100731
0.000511808 0.00434711 4.18546e-05
0.000100731 4.18546e-05 0.00179035
-0.00759742 -0.000221616 4.40931e-05
-0.000221616 -0.00116167 6.34111e-05
4.40931e-05 6.34111e-05 -0.00228319
0.00160649 0.00014699 1.41121e-05
0.00014699 0.00056709 7.35594e-06
1.41121e-05 7.35594e-06 0.000501679
0.00129515 0.000103661 -3.24537e-06
0.000103661 0.000435542 1.01991e-06
-3.24537e-06 1.01991e-06 0.000376588
0.000569769 8.12852e-05 -1.39013e-05
8.12852e-05 0.000171059 -6.95795e-06
-1.39013e-05 -6.95795e-06 0.000111276
0.000799049 0.000107496 6.58296e-07
0.000107496 9.07398e-05 1.2539e-06
6.58296e-07 1.2539e-06 -1.03583e-05
0.000784554 3.04711e-05 2.61335e-07
3.04711e-05 6.93851e-05 2.22063e-06
2.61335e-07 2.22063e-06 -1.96017e-05
0.000512958 -9.70075e-06 -8.35908e-07
-9.70075e-06 -2.57034e-05 9.66008e-06
-8.35908e-07 9.66008e-06 -0.000100054
0.000777228 3.5145e-05 -1.87446e-07
3.5145e-05 7.09949e-05 -4.62051e-07
-1.87446e-07 -4.62051e-07 -2.15274e-05
0.000885316 -3.58741e-05 2.19234e-07
-3.58741e-05 0.000173197 -1.16901e-06
2.19234e-07 -1.16901e-06 9.1661e-05
0.000190986 -1.0764e-05 4.52192e-06
-1.0764e-05 -0.000128813 3.4303e-06
4.52192e-06 3.4303e-06 -0.000195423
0.000674263 -1.2522e-05 -2.85066e-06
-1.2522e-05 0.000166613 -8.19557e-06
-2.85066e-06 -8.19557e-06 0.000111621
0.000788575 -1.82882e-05 -1.43792e-06
-1.82882e-05 0.0001158 -4.96594e-06
-1.43792e-06 -4.96594e-06 4.30641e-05
0.000742049 -3.70877e-06 -5.28933e-07
-3.70877e-06 3.95691e-05 2.48932e-06
-5.28933e-07 2.48932e-06 -4.01147e-05
0.000798719 4.49179e-05 -4.18312e-07
4.49179e-05 9.59608e-05 4.654e-07
-4.18312e-07 4.654e-07 9.38178e-06
0.000925305 2.95214e-05 -3.0142e-06
2.95214e-05 0.0001531 2.72473e-06
-3.0142e-06 2.72473e-06 7.62124e-05
0.000758666 -6.79539e-07 8.49996e-07
-6.79539e-07 7.42193e-05 3.44496e-08
8.49996e-07 3.44496e-08 6.30105e-06
0.00082461 3.32205e-05 3.66638e-07
3.32205e-05 9.97544e-05 1.32801e-07
3.66638e-07 1.32801e-07 1.84802e-05
0.000679626 -4.50029e-05 2.52001e-06
-4.50029e-05 5.49173e-05 -1.42849e-07
2.52001e-06 -1.42849e-07 -2.74232e-05
0.000620259 -5.19776e-05 -1.08689e-06
-5.19776e-05 -1.65436e-05 -8.53081e-07
-1.08689e-06 -8.53081e-07 -9.96321e-05
0.000452172 -0.000101286 4.42955e-06
-0.000101286 -8.44011e-05 6.37788e-07
4.42955e-06 6.37788e-07 -0.000232927
0.00099578 -2.36273e-05 -1.43746e-06
-2.36273e-05 0.00019923 5.87695e-07
-1.43746e-06 5.87695e-07 0.000104191
0.00102056 -9.03661e-05 -9.07291e-07
-9.03661e-05 0.000235004 1.4727e-06
-9.07291e-07 1.4727e-06 0.000106815
0.000307615 -0.000128318 4.11353e-07
-0.000128318 -0.000197383 2.20802e-06
4.11353e-07 2.20802e-06 -0.000369719
0.000633935 -0.000142243 -4.56926e-06
-0.000142243 -1.42373e-05 -5.52583e-07
-4.56926e-06 -5.52583e-07 -0.000189766
0.000979028 -0.000129353 -1.18869e-06
-0.000129353 0.000230496 2.27409e-06
-1.18869e-06 2.27409e-06 9.31575e-05
0.000706915 -0.000142581 4.22306e-07
-0.000142581 4.63451e-05 4.78718e-07
4.22306e-07 4.78718e-07 -0.00012328
0.000857803 -2.25264e-05 5.64202e-07
-2.25264e-05 0.000136634 7.34168e-07
5.64202e-07 7.34168e-07 4.18439e-05
0.000991901 -4.95509e-05 -8.77714e-07
-4.95509e-05 0.000228302 -7.20254e-07
-8.77714e-07 -7.20254e-07 0.000113196
0.000604871 -6.36663e-05 5.95181e-07
-6.36663e-05 3.73286e-05 -5.34655e-06
5.95181e-07 -5.34655e-06 -9.08046e-05
0.000999857 2.33158e-05 -1.58754e-06
2.33158e-05 0.000216381 -1.00283e-06
-1.58754e-06 -1.00283e-06 0.000124404
0.000615986 1.89244e-05 1.66355e-07
1.89244e-05 -2.5858e-06 -2.55453e-08
1.66355e-07 -2.55453e-08 -8.64128e-05
0.000698969 3.20819e-05 -2.18623e-07
3.20819e-05 2.83729e-05 6.40022e-07
-2.18623e-07 6.40022e-07 -3.83146e-05
0.000818459 -2.09256e-05 -1.42347e-07
-2.09256e-05 0.000112265 2.52592e-07
-1.42347e-07 2.52592e-07 2.73678e-05
0.000738076 -5.46368e-06 -5.28671e-07
-5.46368e-06 4.88727e-05 -2.76601e-08
-5.28671e-07 -2.76601e-08 -1.67079e-05
0.000692122 3.44247e-05 -1.28865e-06
3.44247e-05 9.29699e-06 1.64999e-06
-1.28865e-06 1.64999e-06 -3.51444e-05
0.000771442 -3.95169e-05 1.10786e-06
-3.95169e-05 6.94674e-05 -5.235e-07
1.10786e-06 -5.235e-07 1.67728e-06
0.000702399 2.61718e-05 -3.67505e-07
2.61718e-05 1.05389e-05 -8.45203e-09
-3.67505e-07 -8.45203e-09 -3.26061e-05
0.00132135 4.30715e-05 -7.92173e-06
4.30715e-05 0.000359912 3.35207e-06
-7.92173e-06 3.35207e-06 0.000350777
0.000713558 4.08012e-06 1.63363e-06
4.08012e-06 1.40517e-05 -1.62077e-06
1.63363e-06 -1.62077e-06 -2.80743e-05
0.000993411 3.18232e-05 -4.07344e-06
3.18232e-05 0.000167143 6.33679e-07
-4.07344e-06 6.33679e-07 0.000157175
0.000828025 2.79732e-05 -1.4638e-06
2.79732e-05 7.77959e-05 1.8285e-06
-1.4638e-06 1.8285e-06 8.65057e-05
0.000625158 2.09075e-05 6.26108e-07
2.09075e-05 -4.75887e-05 -3.59351e-06
6.26108e-07 -3.59351e-06 -5.86618e-05
0.00154856 2.86923e-05 6.87529e-06
2.86923e-05 0.000485028 -1.33036e-06
6.87529e-06 -1.33036e-06 0.000498199
0.00228264 2.45641e-05 8.76801e-06
2.45641e-05 0.00090273 -4.68219e-06
8.76801e-06 -4.68219e-06 0.000920028
0.000533579 3.14494e-06 -2.17861e-07
3.14494e-06 -5.73404e-05 -1.77105e-06
-2.17861e-07 -1.77105e-06 -0.000136347
0.000440197 -6.37175e-06 -3.75672e-07
-6.37175e-06 -0.000137629 -2.87787e-06
-3.75672e-07 -2.87787e-06 -0.000179842
0.000819346 2.31626e-06 4.66295e-08
2.31626e-06 0.000101339 7.80344e-08
4.66295e-08 7.80344e-08 3.20732e-05
0.000660574 -1.2196e-05 -2.22176e-07
-1.2196e-05 -3.23596e-05 -3.67558e-06
-2.22176e-07 -3.67558e-06 -3.91559e-05
0.000561456 -1.87188e-07 4.93522e-07
-1.87188e-07 -6.8526e-05 -3.69612e-08
4.93522e-07 -3.69612e-08 -0.000106879
0.000520393 -5.71632e-05 -1.97135e-09
-5.71632e-05 -6.37027e-05 1.48198e-06
-1.97135e-09 1.48198e-06 -0.000132048
0.00209984 -1.16033e-05 -4.97451e-06
-1.16033e-05 0.000795105 -4.70363e-06
-4.97451e-06 -4.70363e-06 0.000815107
0.000664603 -5.44899e-06 -1.57265e-07
-5.44899e-06 -3.10666e-05 -8.16214e-09
-1.57265e-07 -8.16214e-09 -3.65763e-05
0.000684146 -5.42583e-06 -4.64205e-07
-5.42583e-06 1.4604e-06 1.93741e-06
-4.64205e-07 1.93741e-06 -3.3816e-05
0.00208748 3.15479e-07 -3.14048e-06
3.15479e-07 0.000787432 1.36593e-09
-3.14048e-06 1.36593e-09 0.000807739
0.000662663 1.00961e-06 1.26429e-07
1.00961e-06 -3.21872e-05 3.52013e-06
1.26429e-07 3.52013e-06 -3.73793e-05
0.0020946 1.22629e-05 -4.45067e-06
1.22629e-05 0.000792781 4.648e-06
-4.45067e-06 4.648e-06 0.000812704
0.00100811 -3.6783e-05 -7.13426e-05
-3.6783e-05 -5.41722e-05 2.81397e-05
-7.13426e-05 2.81397e-05 -0.00083771
0.00142065 0.000154196 -8.61149e-06
0.000154196 0.00200271 -7.96252e-06
-8.61149e-06 -7.96252e-06 0.00140425
0.00125138 -0.000219485 -9.4592e-05
-0.000219485 0.00129413 -1.36625e-05
-9.4592e-05 -1.36625e-05 0.000767515
0.000775056 4.85297e-05 -1.21799e-07
4.85297e-05 8.43254e-05 1.61432e-07
-1.21799e-07 1.61432e-07 -1.48394e-05
0.00282591 -7.70767e-05 -2.53851e-05
-7.70767e-05 0.00139646 7.01023e-05
-2.53851e-05 7.01023e-05 0.000587876
0.00278729 -0.00010781 -3.59109e-05
-0.00010781 0.000740379 3.57311e-06
-3.59109e-05 3.57311e-06 -0.000533995
0.00138529 0.000418724 9.99869e-05
0.000418724 0.00183107 -8.98518e-05
9.99869e-05 -8.98518e-05 0.00172593
0.00303682 -0.000137295 -2.0015e-06
-0.000137295 8.80371e-05 -2.43468e-05
-2.0015e-06 -2.43468e-05 -0.000191395
0.00942429 0.000142818 5.47254e-05
0.000142818 0.00317527 -3.47686e-05
5.47254e-05 -3.47686e-05 0.00151219
-0.00337195 0.000687197 -4.26004e-05
0.000687197 -0.00331595 5.64726e-05
-4.26004e-05 5.64726e-05 -0.00247496
0.00364312 0.000764893 2.15744e-05
0.000764893 -0.00045676 7.6155e-06
2.15744e-05 7.6155e-06 0.000461594
0.00441068 -0.000524355 -6.94182e-05
-0.000524355 0.000494542 2.94667e-07
-6.94182e-05 2.94667e-07 -0.000236638
0.00808288 -0.000116433 4.05903e-05
-0.000116433 0.00325297 -1.40602e-05
4.05903e-05 -1.40602e-05 0.00134927
0.00508664 0.000595211 2.45e-05
0.000595211 0.000292464 -4.87717e-05
2.45e-05 -4.87717e-05 0.000402559
0.00370394 0.000442763 -1.24416e-05
0.000442763 -0.00161931 2.48788e-06
-1.24416e-05 2.48788e-06 -0.000383537
0.0049001 -0.000908844 -2.68932e-06
-0.000908844 0.000866939 -9.99148e-06
-2.68932e-06 -9.99148e-06 -0.000169795
0.00985153 -0.000509404 5.26553e-05
-0.000509404 0.00487108 -1.45016e-05
5.26553e-05 -1.45016e-05 0.00182286
0.00169712 -4.87032e-05 3.56864e-05
-4.87032e-05 -0.000475327 -6.49616e-05
3.56864e-05 -6.49616e-05 -0.000626788
0.00525556 4.99489e-05 -1.39474e-05
4.99489e-05 -0.000675647 4.95616e-05
-1.39474e-05 4.95616e-05 0.000867645
0.000800349 -2.53146e-05 -7.2363e-08
-2.53146e-05 0.000109417 -6.94548e-07
-7.2363e-08 -6.94548e-07 -8.94441e-06
0.000798975 -3.5876e-05 4.59768e-07
-3.5876e-05 0.000118404 -2.77935e-08
4.59768e-07 -2.77935e-08 2.25603e-06
0.000923507 7.98152e-05 -8.99662e-07
7.98152e-05 0.0001886 3.64104e-07
-8.99662e-07 3.64104e-07 8.27858e-05
0.000753168 1.17355e-05 -7.66411e-07
1.17355e-05 6.12478e-05 -4.36521e-07
-7.66411e-07 -4.36521e-07 -3.80071e-05
0.000862912 6.86275e-05 -6.3981e-07
6.86275e-05 0.000143235 5.59812e-07
-6.3981e-07 5.59812e-07 3.10121e-05
0.000895215 5.03532e-05 8.05713e-07
5.03532e-05 0.000162797 2.00517e-06
8.05713e-07 2.00517e-06 6.04791e-05
0.00096221 8.88584e-05 -6.93698e-07
8.88584e-05 0.000201935 1.9036e-08
-6.93698e-07 1.9036e-08 9.99396e-05
0.000999632 9.66675e-05 1.00317e-06
9.66675e-05 0.000230465 2.07685e-06
1.00317e-06 2.07685e-06 0.000128782
0.00182274 -0.000200299 3.69969e-05
-0.000200299 0.000358022 -1.65668e-05
3.69969e-05 -1.65668e-05 0.000280664
0.000679788 -0.000238724 8.67605e-06
-0.000238724 -0.000270423 -1.01711e-05
8.67605e-06 -1.01711e-05 -0.000271179
0.000793623 -0.000132828 -5.99316e-07
-0.000132828 0.000127176 1.03654e-06
-5.99316e-07 1.03654e-06 1.04494e-06
0.00189435 -0.00014135 4.95849e-06
-0.00014135 0.000721265 -1.36301e-05
4.95849e-06 -1.36301e-05 0.000528099
0.0015034 -9.80437e-05 -1.64315e-06
-9.80437e-05 0.000537447 2.08837e-06
-1.64315e-06 2.08837e-06 0.000379476
0.000914018 -3.9018e-05 -1.3676e-06
-3.9018e-05 0.000190099 5.41272e-07
-1.3676e-06 5.41272e-07 6.32374e-05
0.000840434 1.42225e-05 1.45244e-07
1.42225e-05 0.000138806 -6.05453e-09
1.45244e-07 -6.05453e-09 1.56605e-05
0.000643496 -0.000327307 -8.82959e-06
-0.000327307 -0.000325079 5.36861e-07
-8.82959e-06 5.36861e-07 -0.000353694
0.000906725 2.48283e-05 -5.35238e-07
2.48283e-05 0.000207304 6.38382e-07
-5.35238e-07 6.38382e-07 5.18419e-05
0.000927461 -6.89484e-05 -1.37904e-07
-6.89484e-05 0.00018763 9.86921e-07
-1.37904e-07 9.86921e-07 4.69369e-05
0.000337947 -0.000102199 1.91511e-07
-0.000102199 -8.66602e-05 3.78948e-06
1.91511e-07 3.78948e-06 -0.000144951
0.000658903 1.5503e-05 5.28392e-07
1.5503e-05 1.34085e-05 1.95337e-07
5.28392e-07 1.95337e-07 -9.03341e-05
0.000799078 -0.000279855 3.93702e-05
-0.000279855 -0.000162819 -2.93523e-05
3.93702e-05 -2.93523e-05 -6.3275e-05
0.0007369 -8.01576e-05 -1.05873e-05
-8.01576e-05 0.000348392 2.34766e-05
-1.05873e-05 2.34766e-05 0.000238113
0.000795699 -4.76385e-06 -8.64166e-07
-4.76385e-06 0.000135519 9.5921e-06
-8.64166e-07 9.5921e-06 1.90561e-06
0.00116145 0.000140882 1.32526e-06
0.000140882 0.000335176 -4.02299e-07
1.32526e-06 -4.02299e-07 0.00019696
0.00129039 -2.29517e-05 -2.05096e-05
-2.29517e-05 0.000325583 -1.14387e-06
-2.05096e-05 -1.14387e-06 7.4482e-05
0.00130551 -3.49591e-05 4.64503e-05
-3.49591e-05 0.00030604 -3.74744e-06
4.64503e-05 -3.74744e-06 -0.000408294
-0.0029922 -4.21559e-05 -3.11764e-05
-4.21559e-05 0.000455739 2.59271e-06
-3.11764e-05 2.59271e-06 -0.000794076
0.00102742 0.000135689 1.59919e-05
0.000135689 0.000393531 3.04691e-06
1.59919e-05 3.04691e-06 0.000299758
-0.000280266 0.000180807 1.71655e-05
0.000180807 -0.000191932 1.12252e-05
1.71655e-05 1.12252e-05 -0.000383358
0.00228807 -2.2091e-05 7.5418e-05
-2.2091e-05 0.000858519 1.17336e-05
7.5418e-05 1.17336e-05 0.000171964
0.00797964 5.26662e-05 9.6759e-05
5.26662e-05 0.00353604 5.00176e-05
9.6759e-05 5.00176e-05 0.000903019
0.00246685 0.000480943 -8.39543e-05
0.000480943 0.00068172 -8.42568e-05
-8.39543e-05 -8.42568e-05 -0.00024137
0.00315067 -0.000289971 1.37275e-05
-0.000289971 0.000428141 -5.43772e-05
1.37275e-05 -5.43772e-05 -0.000327799
0.0015677 7.83814e-05 2.79354e-05
7.83814e-05 0.000285535 9.44908e-05
2.79354e-05 9.44908e-05 -0.000820337
0.00317818 -1.37706e-05 3.96377e-06
-1.37706e-05 -0.00304459 -4.52979e-05
3.96377e-06 -4.52979e-05 -0.000797676
0.000655135 0.00010458 6.90803e-07
0.00010458 0.000281538 -1.19844e-06
6.90803e-07 -1.19844e-06 0.000184572
0.0010809 -3.61631e-05 -1.63902e-07
-3.61631e-05 0.000192726 -9.38816e-06
-1.63902e-07 -9.38816e-06 -0.000124521
0.00230885 1.16722e-05 2.20171e-05
1.16722e-05 0.000514064 6.43642e-06
2.20171e-05 6.43642e-06 -0.000248975
-0.000935549 7.93622e-05 -1.29653e-05
7.93622e-05 -0.000393864 -4.84161e-06
-1.29653e-05 -4.84161e-06 -0.000681876
0.00389756 0.00049434 1.01311e-05
0.00049434 -0.00160074 -2.18384e-06
1.01311e-05 -2.18384e-06 -0.000363795
0.00563974 0.000709395 6.42296e-05
0.000709395 0.00232719 2.45643e-05
6.42296e-05 2.45643e-05 -0.000304825
0.00311168 0.000185874 -4.24091e-05
0.000185874 0.0017948 2.19609e-06
-4.24091e-05 2.19609e-06 0.00118546
0.000122681 0.000127387 -2.41581e-05
0.000127387 6.51508e-05 -1.11937e-05
-2.41581e-05 -1.11937e-05 -9.14215e-05
0.00168325 1.12221e-05 -1.36826e-06
1.12221e-05 0.000250475 -2.8146e-05
-1.36826e-06 -2.8146e-05 3.82338e-06
0.00294074 -5.90705e-05 2.7724e-05
-5.90705e-05 0.00135545 -7.16694e-05
2.7724e-05 -7.16694e-05 0.000591851
0.00460964 0.00078425 8.66457e-05
0.00078425 -0.000183246 -7.19418e-05
8.66457e-05 -7.19418e-05 0.000819694
0.0037764 6.2872e-05 -5.01012e-05
6.2872e-05 0.00017169 5.92408e-05
-5.01012e-05 5.92408e-05 0.000250801
0.00185823 0.000227258 7.76929e-06
0.000227258 0.000253592 -2.99197e-05
7.76929e-06 -2.99197e-05 0.000282527
0.000607128 0.000326914 8.31269e-05
0.000326914 0.00167252 3.13367e-05
8.31269e-05 3.13367e-05 -0.00220405
0.000620515 0.000104652 4.01164e-06
0.000104652 5.80676e-05 6.18147e-06
4.01164e-06 6.18147e-06 -4.49754e-06
0.000699536 6.29019e-05 7.94276e-06
6.29019e-05 0.00023693 1.16683e-06
7.94276e-06 1.16683e-06 0.000176101
0.000642717 1.3968e-05 -6.05156e-06
1.3968e-05 0.000399278 -1.65583e-05
-6.05156e-06 -1.65583e-05 0.000308236
0.000622405 -6.24451e-07 4.33457e-07
-6.24451e-07 -2.42323e-05 2.61508e-06
4.33457e-07 2.61508e-06 -0.000109017
0.000701709 -3.48834e-05 1.01679e-06
-3.48834e-05 7.04259e-05 4.42977e-06
1.01679e-06 4.42977e-06 -1.07404e-05
0.000363471 -2.10692e-05 -1.71739e-06
-2.10692e-05 -5.46719e-05 1.0763e-05
-1.71739e-06 1.0763e-05 -0.000125792
0.000709224 -2.96918e-05 3.47118e-08
-2.96918e-05 7.00576e-05 -3.91869e-07
3.47118e-08 -3.91869e-07 -3.56824e-06
0.000437411 -1.24086e-05 1.40871e-06
-1.24086e-05 2.98107e-05 2.65872e-06
1.40871e-06 2.65872e-06 -2.53753e-05
0.000653937 -0.00012908 4.65938e-06
-0.00012908 0.000234659 -5.77803e-06
4.65938e-06 -5.77803e-06 8.98724e-05
0.00096651 -6.68066e-06 -1.24462e-06
-6.68066e-06 0.000186008 3.01401e-06
-1.24462e-06 3.01401e-06 0.000117066
0.000681296 4.45473e-05 -1.32114e-06
4.45473e-05 2.15918e-05 1.96525e-06
-1.32114e-06 1.96525e-06 -5.98162e-05
0.00122429 -7.79204e-05 1.02924e-06
-7.79204e-05 0.000349243 1.26812e-06
1.02924e-06 1.26812e-06 0.000259292
0.000124846 -8.27522e-05 4.14689e-06
-8.27522e-05 -0.000161247 1.78393e-06
4.14689e-06 1.78393e-06 -0.000351996
0.00054353 -2.58128e-05 -4.67508e-06
-2.58128e-05 -4.11396e-05 8.6993e-07
-4.67508e-06 8.6993e-07 -0.000116199
0.000273467 -9.17135e-05 1.45152e-06
-9.17135e-05 -0.000181534 -6.77447e-07
1.45152e-06 -6.77447e-07 -0.000319193
0.00104041 -0.000192726 5.66365e-06
-0.000192726 0.000215335 -1.44473e-06
5.66365e-06 -1.44473e-06 8.9767e-06
0.00116837 -0.000214037 -1.19551e-06
-0.000214037 0.000173154 4.71291e-06
-1.19551e-06 4.71291e-06 -3.70383e-05
0.00152135 -0.000131835 -2.28306e-06
-0.000131835 0.000505231 -2.46953e-07
-2.28306e-06 -2.46953e-07 0.000371108
0.000622514 -0.00015357 -2.98748e-07
-0.00015357 -2.88886e-05 -8.82754e-08
-2.98748e-07 -8.82754e-08 -0.000208362
0.00168141 -0.000231126 1.40743e-06
-0.000231126 0.000540109 -1.52208e-06
1.40743e-06 -1.52208e-06 0.000366716
0.000313106 -9.50043e-05 -1.96513e-06
-9.50043e-05 -0.000143657 -4.7209e-07
-1.96513e-06 -4.7209e-07 -0.000298375
0.00090908 -0.000162022 -2.23161e-07
-0.000162022 0.000140788 9.37646e-07
-2.23161e-07 9.37646e-07 -3.28734e-05
0.000762784 -2.03305e-05 7.83738e-08
-2.03305e-05 9.29771e-05 6.94092e-07
7.83738e-08 6.94092e-07 -1.4465e-05
0.00102889 -0.000132517 -2.4702e-06
-0.000132517 0.000257675 1.90155e-06
-2.4702e-06 1.90155e-06 0.000118747
0.00045856 -0.00012064 -1.43014e-06
-0.00012064 -8.92397e-05 -9.79457e-07
-1.43014e-06 -9.79457e-07 -0.000253983
0.000699374 4.301e-05 2.90292e-07
4.301e-05 3.67137e-05 9.08683e-07
2.90292e-07 9.08683e-07 -3.89654e-05
0.00071393 -1.08782e-05 7.4773e-07
-1.08782e-05 5.90555e-05 -9.711e-08
7.4773e-07 -9.711e-08 -3.73052e-05
0.000836764 -4.47045e-05 1.60405e-06
-4.47045e-05 0.00014663 -2.76267e-06
1.60405e-06 -2.76267e-06 2.78386e-05
0.00076866 7.75108e-06 1.07528e-07
7.75108e-06 8.37829e-05 -5.5756e-07
1.07528e-07 -5.5756e-07 -1.57618e-07
0.000745277 8.11023e-06 -5.32752e-07
8.11023e-06 5.5759e-05 -1.34357e-07
-5.32752e-07 -1.34357e-07 -1.27398e-05
0.000684367 3.9139e-05 -1.51803e-06
3.9139e-05 1.00392e-05 1.60782e-06
-1.51803e-06 1.60782e-06 -3.63152e-05
0.000776542 -2.58065e-05 8.19569e-07
-2.58065e-05 7.28844e-05 -6.60904e-07
8.19569e-07 -6.60904e-07 5.08252e-06
0.000698451 3.14906e-05 -2.06352e-07
3.14906e-05 1.19329e-05 -7.37721e-09
-2.06352e-07 -7.37721e-09 -3.21616e-05
0.000630681 4.1476e-05 -1.07266e-06
4.1476e-05 -2.89231e-05 3.67558e-06
-1.07266e-06 3.67558e-06 -4.31465e-05
0.000719861 1.44661e-05 1.63956e-06
1.44661e-05 1.8778e-05 -1.6499e-06
1.63956e-06 -1.6499e-06 -2.35971e-05
0.000637678 3.50488e-05 1.2053e-07
3.50488e-05 -3.16961e-05 3.07048e-08
1.2053e-07 3.07048e-08 -4.43084e-05
0.00215356 5.94806e-05 -4.59853e-06
5.94806e-05 0.000843624 1.72291e-06
-4.59853e-06 1.72291e-06 0.000857179
0.0006247 2.81099e-05 7.86348e-07
2.81099e-05 -4.43105e-05 -3.63076e-06
7.86348e-07 -3.63076e-06 -5.59472e-05
0.00153418 3.76445e-05 8.34683e-06
3.76445e-05 0.000482024 -1.18548e-06
8.34683e-06 -1.18548e-06 0.000494139
0.00227096 3.57503e-05 1.28067e-05
3.57503e-05 0.000900156 -4.45527e-06
1.28067e-05 -4.45527e-06 0.000916572
0.000545653 -1.08451e-05 -2.58672e-07
-1.08451e-05 -5.98277e-05 -1.48211e-06
-2.58672e-07 -1.48211e-06 -0.00013614
0.00041956 -8.81219e-06 -3.5895e-07
-8.81219e-06 -0.000149794 -2.81293e-06
-3.5895e-07 -2.81293e-06 -0.00019593
0.000690186 9.00255e-06 -3.99411e-07
9.00255e-06 3.01279e-05 -6.85177e-07
-3.99411e-07 -6.85177e-07 -4.71851e-05
0.000655216 -1.8853e-05 -2.48919e-07
-1.8853e-05 -3.30691e-05 -3.79413e-06
-2.48919e-07 -3.79413e-06 -4.20032e-05
0.000419917 -7.17754e-06 -1.74524e-07
-7.17754e-06 -0.000149018 -8.44498e-07
-1.74524e-07 -8.44498e-07 -0.000191755
0.000842571 1.2937e-05 -2.57866e-08
1.2937e-05 0.000120746 1.46749e-06
-2.57866e-08 1.46749e-06 4.73199e-05
0.00214468 -2.27291e-05 -9.09917e-06
-2.27291e-05 0.000822764 -4.66826e-06
-9.09917e-06 -4.66826e-06 0.000841756
0.000660836 -1.19957e-05 -1.30091e-07
-1.19957e-05 -3.21034e-05 -2.65807e-08
-1.30091e-07 -2.65807e-08 -3.88547e-05
0.000403166 -6.10611e-06 3.01024e-07
-6.10611e-06 -0.000157795 2.01979e-06
3.01024e-07 2.01979e-06 -0.000197476
0.00209591 -1.05819e-05 -3.1641e-06
-1.05819e-05 0.000792633 3.26611e-08
-3.1641e-06 3.26611e-08 0.000812736
0.000666086 -5.26731e-06 2.2171e-07
-5.26731e-06 -3.01997e-05 3.53455e-06
2.2171e-07 3.53455e-06 -3.56828e-05
0.00209223 1.3411e-06 -6.59456e-09
1.3411e-06 0.000790158 4.71675e-06
-6.59456e-09 4.71675e-06 0.000810422
0.00147136 1.66756e-05 -1.26075e-05
1.66756e-05 0.000516618 2.21125e-05
-1.26075e-05 2.21125e-05 0.000214112
0.00152228 -2.51734e-05 1.08564e-05
-2.51734e-05 0.000300997 -3.17119e-06
1.08564e-05 -3.17119e-06 -0.000478696
0.00174358 0.000110371 4.26262e-05
0.000110371 0.0021846 -2.83621e-05
4.26262e-05 -2.83621e-05 0.00167181
0.000830564 5.25616e-05 -3.78812e-08
5.25616e-05 0.000110558 2.35807e-07
-3.78812e-08 2.35807e-07 1.62128e-05
0.000714802 2.23385e-05 -5.65281e-08
2.23385e-05 3.37044e-05 3.23097e-07
-5.65281e-08 3.23097e-07 -5.33272e-05
0.000901972 7.4628e-05 -3.56445e-07
7.4628e-05 0.000147185 8.6647e-07
-3.56445e-07 8.6647e-07 4.79774e-05
0.00186989 -1.61095e-05 7.5067e-06
-1.61095e-05 0.00015035 0.000110556
7.5067e-06 0.000110556 -0.000747193
0.00273004 -5.99727e-05 -7.18483e-06
-5.99727e-05 0.00132119 7.21755e-07
-7.18483e-06 7.21755e-07 0.000483486
0.00311123 -0.000124122 5.27374e-05
-0.000124122 0.000991875 -8.19125e-05
5.27374e-05 -8.19125e-05 -0.000338848
0.0045372 -0.000547215 -4.4253e-05
-0.000547215 0.000806575 -1.40709e-06
-4.4253e-05 -1.40709e-06 2.93822e-05
0.00174308 -0.000292802 -7.57079e-05
-0.000292802 0.000274577 4.88214e-05
-7.57079e-05 4.88214e-05 -0.00194775
0.00680174 0.000776843 6.10716e-05
0.000776843 0.00197383 1.16358e-05
6.10716e-05 1.16358e-05 0.00184655
0.00141964 0.000216776 1.92967e-05
0.000216776 -0.00297565 -5.23139e-05
1.92967e-05 -5.23139e-05 -0.00170737
0.00522447 -0.000899656 -9.46795e-06
-0.000899656 0.0013962 5.09686e-06
-9.46795e-06 5.09686e-06 0.000647996
0.00595012 -0.000459237 7.35532e-06
-0.000459237 0.00263661 3.50492e-06
7.35532e-06 3.50492e-06 8.66916e-05
-0.00171308 0.000248567 -9.61112e-06
0.000248567 -0.000732287 -4.74343e-05
-9.61112e-06 -4.74343e-05 -0.0015347
0.00411192 -2.91992e-05 -1.0791e-05
-2.91992e-05 -0.0018686 2.00528e-05
-1.0791e-05 2.00528e-05 -8.05213e-06
0.00282244 -0.000671754 -2.791e-05
-0.000671754 0.000261431 -2.11653e-05
-2.791e-05 -2.11653e-05 -0.000389606
0.01048 -0.000744867 1.95409e-05
-0.000744867 0.0048893 2.8845e-05
1.95409e-05 2.8845e-05 0.00182536
-0.00763741 -3.42326e-05 5.26187e-05
-3.42326e-05 -0.00104161 -8.94391e-05
5.26187e-05 -8.94391e-05 -0.0023277
0.00241854 -0.000419816 2.10346e-07
-0.000419816 -0.001998 -3.75814e-06
2.10346e-07 -3.75814e-06 -0.000653123
0.000802713 3.12538e-05 -6.56371e-07
3.12538e-05 9.18118e-05 4.6325e-07
-6.56371e-07 4.6325e-07 -1.68314e-05
0.000777054 -1.31567e-06 5.9021e-08
-1.31567e-06 9.61046e-05 -3.92931e-07
5.9021e-08 -3.92931e-07 -2.24808e-05
0.000791713 -5.13943e-05 6.5682e-07
-5.13943e-05 0.000115579 3.24855e-07
6.5682e-07 3.24855e-07 -2.85197e-06
0.000798873 3.48486e-05 -4.58002e-07
3.48486e-05 8.86936e-05 -4.13182e-07
-4.58002e-07 -4.13182e-07 -1.26101e-05
0.000962101 0.000108021 1.51495e-06
0.000108021 0.000199035 1.08323e-06
1.51495e-06 1.08323e-06 8.84186e-05
0.00104693 0.000100421 -4.16591e-07
0.000100421 0.000250884 7.52931e-07
-4.16591e-07 7.52931e-07 0.000147394
0.00150732 -0.000376459 7.20666e-06
-0.000376459 0.000112791 4.52726e-06
7.20666e-06 4.52726e-06 3.78033e-05
-0.000673418 -6.16564e-05 1.01842e-05
-6.16564e-05 -0.000645376 -1.47697e-05
1.01842e-05 -1.47697e-05 -0.000663805
0.000927309 5.53506e-05 8.68698e-08
5.53506e-05 0.000192665 6.90534e-07
8.68698e-08 6.90534e-07 6.50934e-05
0.00123739 -0.000114218 1.19944e-05
-0.000114218 0.000333605 -2.15895e-05
1.19944e-05 -2.15895e-05 0.000192374
0.00101789 3.66594e-06 -1.00645e-06
3.66594e-06 0.000267607 -9.76404e-07
-1.00645e-06 -9.76404e-07 0.000113337
0.000728241 1.44804e-05 4.66398e-07
1.44804e-05 5.34827e-05 3.21801e-08
4.66398e-07 3.21801e-08 -5.5003e-05
0.000805215 7.38673e-05 2.58247e-07
7.38673e-05 0.000128691 -3.66676e-07
2.58247e-07 -3.66676e-07 -1.0684e-06
0.000364103 -0.000277582 -3.02414e-06
-0.000277582 -0.000389903 -2.608e-06
-3.02414e-06 -2.608e-06 -0.000388023
0.000947858 -3.5674e-05 2.13032e-06
-3.5674e-05 0.000224444 -2.8478e-06
2.13032e-06 -2.8478e-06 9.73521e-05
0.000456228 -3.88979e-05 1.8546e-05
-3.88979e-05 0.000203035 -2.65441e-07
1.8546e-05 -2.65441e-07 9.70723e-05
0.000981227 4.78407e-05 1.14524e-06
4.78407e-05 0.000204204 6.67429e-08
1.14524e-06 6.67429e-08 9.92857e-05
-0.00233257 8.63727e-05 -2.66925e-05
8.63727e-05 -0.00110183 -2.39509e-05
-2.66925e-05 -2.39509e-05 -0.00143806
0.000748328 -9.73326e-06 3.27386e-06
-9.73326e-06 0.00031655 2.51888e-05
3.27386e-06 2.51888e-05 0.000254443
0.00103669 1.26081e-05 9.07934e-07
1.26081e-05 0.000303383 2.5881e-06
9.07934e-07 2.5881e-06 0.000190096
0.00167936 -1.56675e-05 -1.457e-06
-1.56675e-05 0.000207359 6.03168e-07
-1.457e-06 6.03168e-07 4.45887e-05
0.00113712 -1.86922e-05 -1.02743e-05
-1.86922e-05 0.000223506 -2.7789e-06
-1.02743e-05 -2.7789e-06 1.83241e-06
0.00115939 -3.44162e-05 0.000130549
-3.44162e-05 0.000253334 -1.37224e-06
0.000130549 -1.37224e-06 -0.000468014
0.000983901 0.000157434 1.99202e-05
0.000157434 0.000457146 1.2652e-05
1.99202e-05 1.2652e-05 0.000350226
0.00267111 0.000374398 4.48667e-06
0.000374398 0.00103261 -1.61198e-05
4.48667e-06 -1.61198e-05 0.000850641
0.00122357 -3.34887e-05 6.40885e-06
-3.34887e-05 0.000269879 8.25079e-06
6.40885e-06 8.25079e-06 -2.24829e-05
-0.000525973 0.000368466 5.34058e-06
0.000368466 -7.46043e-05 1.76697e-05
5.34058e-06 1.76697e-05 -0.00271812
-0.00963614 4.34027e-05 -4.14728e-05
4.34027e-05 -0.00368179 -8.46342e-05
-4.14728e-05 -8.46342e-05 -0.00496111
0.00258602 2.04865e-05 2.58149e-05
2.04865e-05 0.000843486 5.77068e-05
2.58149e-05 5.77068e-05 0.000213446
0.00163302 0.000314179 -1.94347e-05
0.000314179 -0.0029266 5.41318e-05
-1.94347e-05 5.41318e-05 -0.00165307
0.000481782 0.000111624 3.72844e-06
0.000111624 0.000283976 -1.01451e-06
3.72844e-06 -1.01451e-06 0.000145356
0.00148564 -2.73176e-06 6.06667e-06
-2.73176e-06 0.000133436 -1.21989e-05
6.06667e-06 -1.21989e-05 -5.77476e-05
0.00280617 -4.54901e-05 5.78993e-06
-4.54901e-05 0.00127357 -1.11933e-06
5.78993e-06 -1.11933e-06 0.000465392
0.00125947 0.000200978 1.75523e-05
0.000200978 -5.24174e-05 -3.06491e-06
1.75523e-05 -3.06491e-06 -0.000337097
0.00202899 0.000724238 3.09935e-05
0.000724238 -0.00162232 -6.90018e-05
3.09935e-05 -6.90018e-05 -0.000568387
-0.00166562 0.000248912 8.14464e-06
0.000248912 -0.00138265 4.45041e-05
8.14464e-06 4.45041e-05 -0.0017074
0.00673408 4.13014e-05 5.81517e-05
4.13014e-05 0.00421328 -1.89056e-05
5.81517e-05 -1.89056e-05 0.000344309
0.000726846 -8.04013e-07 2.08733e-05
-8.04013e-07 0.00066453 -1.08371e-05
2.08733e-05 -1.08371e-05 0.000383331
0.00143285 2.3258e-05 1.1803e-05
2.3258e-05 0.000457753 -2.19162e-05
1.1803e-05 -2.19162e-05 0.00016143
0.00268179 -6.7757e-05 0.000124254
-6.7757e-05 0.000505096 -0.000103597
0.000124254 -0.000103597 -0.000640083
0.00282859 0.00100116 -5.09608e-06
0.00100116 0.00147666 -1.20021e-05
-5.09608e-06 -1.20021e-05 0.00255199
-0.00585619 0.000341881 3.74696e-05
0.000341881 -0.00476729 0.000133988
3.74696e-05 0.000133988 -0.00448959
0.0110799 -0.000507222 5.38564e-05
-0.000507222 0.00471125 -6.98288e-05
5.38564e-05 -6.98288e-05 0.00175706
0.00465777 -0.000345677 -8.8987e-05
-0.000345677 0.00132883 0.000111535
-8.8987e-05 0.000111535 0.00130956
0.00123666 6.68848e-05 4.48029e-06
6.68848e-05 0.000536836 6.13764e-06
4.48029e-06 6.13764e-06 0.000470159
7.42284e-05 -1.31308e-05 -5.7611e-06
-1.31308e-05 6.70801e-05 -7.57929e-07
-5.7611e-06 -7.57929e-07 -3.65218e-05
4.42417e-05 -0.000153379 4.59474e-06
-0.000153379 0.000124566 -1.34228e-05
4.59474e-06 -1.34228e-05 -9.85482e-05
0.000730009 -4.20228e-05 1.1392e-06
-4.20228e-05 8.23254e-05 1.64338e-06
1.1392e-06 1.64338e-06 6.26467e-06
0.000162622 -1.29087e-05 9.24726e-06
-1.29087e-05 -0.000122891 1.313e-05
9.24726e-06 1.313e-05 -0.000178614
0.000341106 -8.21962e-05 -1.35657e-06
-8.21962e-05 6.61665e-05 2.95735e-07
-1.35657e-06 2.95735e-07 -6.33335e-05
0.00107541 -0.000186139 2.03242e-05
-0.000186139 0.000448859 -1.32247e-05
2.03242e-05 -1.32247e-05 0.000200684
0.00179547 -0.000111074 -3.26778e-06
-0.000111074 0.000658331 2.68055e-06
-3.26778e-06 2.68055e-06 0.000560889
0.00138673 -0.000199067 1.38151e-06
-0.000199067 0.00048528 3.7963e-07
1.38151e-06 3.7963e-07 0.000288318
0.00103288 -0.000210317 8.32041e-06
-0.000210317 0.000296315 2.42319e-06
8.32041e-06 2.42319e-06 -2.02053e-05
7.17526e-05 -7.64541e-05 -2.10846e-06
-7.64541e-05 -0.000292422 -1.55448e-06
-2.10846e-06 -1.55448e-06 -0.000417768
0.00107771 -0.000193312 -4.31107e-07
-0.000193312 0.00022439 1.17129e-06
-4.31107e-07 1.17129e-06 1.16098e-05
0.00238334 -0.000331597 2.38957e-06
-0.000331597 0.000831159 1.60869e-06
2.38957e-06 1.60869e-06 0.000565462
0.00165367 -0.000281054 -2.998e-06
-0.000281054 0.000301985 1.82602e-06
-2.998e-06 1.82602e-06 6.57215e-05
0.000537144 -0.000158262 5.59588e-08
-0.000158262 -0.000151497 6.18324e-06
5.59588e-08 6.18324e-06 -0.000337186
0.00134337 -0.000227805 -2.46574e-06
-0.000227805 0.000270912 1.54189e-06
-2.46574e-06 1.54189e-06 5.70835e-05
0.000913413 -0.000177108 -3.87059e-06
-0.000177108 0.000125632 9.88453e-07
-3.87059e-06 9.88453e-07 -6.07149e-05
0.00149861 -0.000209289 3.57496e-06
-0.000209289 0.0004656 -2.99298e-06
3.57496e-06 -2.99298e-06 0.000300571
0.001194 -0.000190697 2.69913e-06
-0.000190697 0.000274263 -2.25719e-06
2.69913e-06 -2.25719e-06 0.000113073
0.000401361 -4.11126e-05 1.41121e-06
-4.11126e-05 -0.000101038 1.05087e-06
1.41121e-06 1.05087e-06 -0.000234281
0.000733372 -0.000126471 1.11124e-06
-0.000126471 9.25426e-05 -3.65679e-07
1.11124e-06 -3.65679e-07 -6.44267e-05
0.00116758 -0.00018032 5.1413e-06
-0.00018032 0.000285884 -3.05193e-06
5.1413e-06 -3.05193e-06 0.000114803
0.000706214 5.28276e-05 1.02279e-06
5.28276e-05 5.06176e-05 1.33383e-06
1.02279e-06 1.33383e-06 -3.92034e-05
0.000878249 -4.60083e-05 -2.92054e-07
-4.60083e-05 0.000159707 -1.07481e-07
-2.92054e-07 -1.07481e-07 4.79475e-05
0.00101585 -0.000130352 -6.46551e-07
-0.000130352 0.000248781 -3.43706e-07
-6.46551e-07 -3.43706e-07 0.000109349
0.000663158 4.67362e-05 -1.03209e-06
4.67362e-05 5.94553e-06 1.69706e-06
-1.03209e-06 1.69706e-06 -4.49959e-05
0.000748551 1.64054e-05 -6.98636e-07
1.64054e-05 6.26429e-05 -2.81611e-07
-6.98636e-07 -2.81611e-07 -1.31018e-05
0.000577409 -1.51429e-06 -2.86508e-08
-1.51429e-06 -1.4532e-05 -8.58189e-07
-2.86508e-08 -8.58189e-07 -0.000112408
0.000784727 -1.438e-05 7.25367e-07
-1.438e-05 7.82632e-05 -9.80375e-07
7.25367e-07 -9.80375e-07 8.71064e-06
0.000696598 3.34478e-05 -2.74811e-07
3.34478e-05 1.60201e-05 -5.10354e-08
-2.74811e-07 -5.10354e-08 -2.99288e-05
0.000613822 4.81809e-05 -1.15128e-06
4.81809e-05 -2.99944e-05 3.75036e-06
-1.15128e-06 3.75036e-06 -4.66388e-05
0.000710263 2.40502e-05 1.69463e-06
2.40502e-05 1.72286e-05 -1.66379e-06
1.69463e-06 -1.66379e-06 -2.62301e-05
0.000631976 4.23747e-05 6.03325e-08
4.23747e-05 -2.81318e-05 9.56682e-09
6.03325e-08 9.56682e-09 -4.24211e-05
0.00219064 6.47438e-05 -2.29388e-05
6.47438e-05 0.000871826 3.70301e-06
-2.29388e-05 3.70301e-06 0.000884226
0.000629893 3.56802e-05 8.68085e-07
3.56802e-05 -3.62552e-05 -3.65008e-06
8.68085e-07 -3.65008e-06 -4.88721e-05
0.00151542 4.67838e-05 9.78563e-06
4.67838e-05 0.000478208 -1.03573e-06
9.78563e-06 -1.03573e-06 0.000488865
0.00225028 4.65417e-05 1.65344e-05
4.65417e-05 0.000893659 -4.16869e-06
1.65344e-05 -4.16869e-06 0.00090894
0.000744442 4.13143e-05 -6.6207e-07
4.13143e-05 5.13051e-05 -6.558e-07
-6.6207e-07 -6.558e-07 -2.59759e-05
0.000692257 -6.42882e-07 -7.43093e-07
-6.42882e-07 3.35449e-06 -2.08424e-06
-7.43093e-07 -2.08424e-06 -4.35788e-05
0.000641655 2.65679e-05 -8.72985e-07
2.65679e-05 8.28252e-07 -6.32209e-07
-8.72985e-07 -6.32209e-07 -7.94323e-05
0.000643542 -2.57784e-05 -1.03799e-07
-2.57784e-05 -3.61037e-05 -3.95489e-06
-1.03799e-07 -3.95489e-06 -4.77366e-05
0.000547564 -2.48043e-06 -7.02705e-07
-2.48043e-06 -7.75222e-05 -8.37254e-07
-7.02705e-07 -8.37254e-07 -0.000122593
0.000851039 1.91246e-05 3.17926e-07
1.91246e-05 0.000121419 4.22594e-07
3.17926e-07 4.22594e-07 4.47669e-05
0.00221213 -3.40249e-05 -1.34299e-05
-3.40249e-05 0.000864628 -4.57562e-06
-1.34299e-05 -4.57562e-06 0.000882067
0.000653675 -1.8506e-05 -2.10984e-07
-1.8506e-05 -3.39585e-05 -2.43232e-08
-2.10984e-07 -2.43232e-08 -4.27997e-05
0.000392734 -7.53967e-06 -1.91377e-07
-7.53967e-06 -0.000164365 1.31013e-06
-1.91377e-07 1.31013e-06 -0.000207556
0.00213662 -2.17069e-05 -3.04853e-06
-2.17069e-05 0.000817741 6.69109e-08
-3.04853e-06 6.69109e-08 0.000836943
0.000661916 -1.1816e-05 2.68506e-07
-1.1816e-05 -3.13677e-05 3.62216e-06
2.68506e-07 3.62216e-06 -3.80858e-05
0.00209659 -9.55184e-06 4.48403e-06
-9.55184e-06 0.000792807 4.71079e-06
4.48403e-06 4.71079e-06 0.000812962
0.00157191 -1.30221e-05 -5.48197e-07
-1.30221e-05 0.000209243 3.00082e-05
-5.48197e-07 3.00082e-05 -5.86767e-05
0.0013919 1.08983e-05 -5.71006e-06
1.08983e-05 0.000421828 3.79387e-09
-5.71006e-06 3.79387e-09 0.00010582
0.00170693 -1.76563e-05 9.31499e-05
-1.76563e-05 0.000482657 -2.56342e-05
9.31499e-05 -2.56342e-05 -0.000315273
0.000685253 -1.67733e-05 -1.55002e-07
-1.67733e-05 1.10236e-05 -2.854e-07
-1.55002e-07 -2.854e-07 -6.99198e-05
0.000877185 1.05293e-05 -9.43392e-07
1.05293e-05 0.000128135 -4.48563e-07
-9.43392e-07 -4.48563e-07 3.88483e-05
0.000847889 4.99738e-05 1.40087e-06
4.99738e-05 0.000118743 3.08946e-07
1.40087e-06 3.08946e-07 2.74088e-05
0.000718575 7.26861e-06 1.64892e-07
7.26861e-06 3.09172e-05 1.22357e-07
1.64892e-07 1.22357e-07 -5.23076e-05
0.000806314 3.15971e-05 -2.16074e-08
3.15971e-05 9.23776e-05 2.19215e-07
-2.16074e-08 2.19215e-07 -5.37823e-06
0.000820614 1.34197e-05 -1.11728e-06
1.34197e-05 9.58008e-05 3.77682e-07
-1.11728e-06 3.77682e-07 5.71733e-06
0.000927143 0.00014382 6.5082e-07
0.00014382 0.000174014 7.05835e-07
6.5082e-07 7.05835e-07 6.07894e-05
0.000787786 2.44103e-05 2.8382e-05
2.44103e-05 0.000200684 0.000110524
2.8382e-05 0.000110524 -0.000845385
0.00220031 -6.18406e-06 -3.9191e-06
-6.18406e-06 0.000531561 3.36841e-05
-3.9191e-06 3.36841e-05 -0.00022189
0.00257138 -4.12776e-05 9.52549e-06
-4.12776e-05 0.00120985 -6.13946e-05
9.52549e-06 -6.13946e-05 0.000338256
0.0029447 -8.50579e-05 -1.5491e-05
-8.50579e-05 -0.00310873 1.22791e-05
-1.5491e-05 1.22791e-05 -0.000923612
0.00362882 -0.000777122 -3.67375e-05
-0.000777122 0.000990325 5.51492e-05
-3.67375e-05 5.51492e-05 6.28328e-05
-0.00133564 -0.000658852 3.18514e-05
-0.000658852 -0.000722499 2.40326e-05
3.18514e-05 2.40326e-05 -0.0035049
0.00577343 0.000834096 4.16336e-05
0.000834096 0.00331733 -2.5442e-05
4.16336e-05 -2.5442e-05 0.00198883
0.0043077 -0.000801198 -1.60828e-05
-0.000801198 0.000983533 3.08828e-06
-1.60828e-05 3.08828e-06 0.000186279
0.000591535 -0.000372545 4.21568e-05
-0.000372545 0.000649932 -2.61875e-06
4.21568e-05 -2.61875e-06 -0.00237371
0.00386385 -9.21921e-05 -2.69491e-05
-9.21921e-05 0.00201185 2.85155e-07
-2.69491e-05 2.85155e-07 0.00135714
0.00677314 -0.000585128 -1.94527e-05
-0.000585128 0.000761466 -2.78525e-05
-1.94527e-05 -2.78525e-05 0.00205594
0.00214076 -5.18426e-05 -5.1154e-05
-5.18426e-05 -0.000191129 3.43147e-05
-5.1154e-05 3.43147e-05 -0.000114991
0.000557284 0.000362263 2.24472e-05
0.000362263 0.000377203 -7.6741e-05
2.24472e-05 -7.6741e-05 -0.00238065
-0.0065759 -0.000797853 4.35208e-05
-0.000797853 -0.00423946 -4.47617e-05
4.35208e-05 -4.47617e-05 -0.00540625
0.00195536 -0.000570882 1.83203e-05
-0.000570882 -0.00168878 -9.51724e-05
1.83203e-05 -9.51724e-05 -0.000235152
0.000812414 -1.14871e-05 -1.41681e-06
-1.14871e-05 9.61108e-05 1.12712e-06
-1.41681e-06 1.12712e-06 6.27666e-06
0.000774801 3.09073e-05 1.61544e-07
3.09073e-05 7.7722e-05 1.22686e-07
1.61544e-07 1.22686e-07 -3.11452e-05
0.000770003 1.28731e-05 -6.91904e-08
1.28731e-05 9.7435e-05 -4.30479e-07
-6.91904e-08 -4.30479e-07 -2.4798e-05
0.000832664 3.46619e-05 2.54124e-07
3.46619e-05 0.000115442 -1.01002e-06
2.54124e-07 -1.01002e-06 8.13175e-06
0.000984869 -0.000321556 -6.76299e-07
-0.000321556 -0.000127416 1.74863e-05
-6.76299e-07 1.74863e-05 -0.000186398
0.000718452 -2.47023e-05 -7.11368e-06
-2.47023e-05 0.000347407 -1.91557e-05
-7.11368e-06 -1.91557e-05 0.00025569
0.000668444 1.86118e-06 1.14338e-07
1.86118e-06 1.36219e-05 -1.14896e-06
1.14338e-07 -1.14896e-06 -9.20036e-05
0.00083691 8.5585e-05 -9.87126e-07
8.5585e-05 0.000150079 5.20933e-07
-9.87126e-07 5.20933e-07 1.59931e-05
0.00155802 -5.30516e-05 7.74762e-06
-5.30516e-05 0.000578787 -2.00528e-05
7.74762e-06 -2.00528e-05 0.000446343
0.000756883 2.72382e-05 -4.91444e-07
2.72382e-05 7.85642e-05 -7.41017e-08
-4.91444e-07 -7.41017e-08 -2.4481e-05
0.000862991 3.26524e-05 -1.0166e-06
3.26524e-05 0.000208878 -1.75152e-06
-1.0166e-06 -1.75152e-06 9.54286e-05
-0.000398244 1.65157e-05 4.29395e-07
1.65157e-05 -0.000186073 -1.10921e-05
4.29395e-07 -1.10921e-05 -0.000576548
0.00111181 -3.35178e-05 2.07361e-05
-3.35178e-05 0.000535659 -7.59917e-07
2.07361e-05 -7.59917e-07 0.000487439
0.000573792 3.18177e-05 -1.18244e-07
3.18177e-05 3.72213e-05 1.91622e-07
-1.18244e-07 1.91622e-07 -5.58743e-05
0.000336461 -6.46131e-06 -2.64481e-05
-6.46131e-06 0.000737593 -4.98025e-05
-2.64481e-05 -4.98025e-05 -0.000325996
0.00260162 4.66856e-05 7.20382e-06
4.66856e-05 0.00130244 1.69727e-05
7.20382e-06 1.69727e-05 0.00119549
0.00136007 -1.51844e-05 1.76467e-05
-1.51844e-05 0.000371582 3.1635e-06
1.76467e-05 3.1635e-06 0.000120054
0.00131738 -1.65871e-05 -6.28149e-07
-1.65871e-05 7.97342e-05 4.54749e-08
-6.28149e-07 4.54749e-08 -5.76795e-05
0.00093174 -1.60961e-05 -1.87846e-07
-1.60961e-05 0.000104782 -3.62266e-06
-1.87846e-07 -3.62266e-06 -9.20884e-05
0.000432101 8.44185e-05 1.2593e-05
8.44185e-05 0.000274545 6.29889e-06
1.2593e-05 6.29889e-06 0.000155484
0.000535478 0.000173129 -2.55318e-05
0.000173129 -0.000328154 2.47605e-05
-2.55318e-05 2.47605e-05 -0.000406443
0.00127452 -1.2248e-05 9.49065e-06
-1.2248e-05 1.11106e-05 6.67234e-06
9.49065e-06 6.67234e-06 -0.00012549
0.00312217 -0.000556464 0.000144918
-0.000556464 0.00253034 -0.000117159
0.000144918 -0.000117159 -0.00104379
0.00671497 0.000888097 -4.00492e-05
0.000888097 0.00317167 2.74568e-05
-4.00492e-05 2.74568e-05 0.00217826
0.00265883 -3.38265e-05 -1.6221e-05
-3.38265e-05 0.00117549 6.34856e-05
-1.6221e-05 6.34856e-05 0.000326293
0.00374251 0.000774492 -1.6054e-05
0.000774492 -0.000497051 -4.38745e-06
-1.6054e-05 -4.38745e-06 0.000441459
-0.000547252 2.47275e-05 1.48563e-05
2.47275e-05 3.91503e-05 2.61601e-06
1.48563e-05 2.61601e-06 -0.000315702
0.00142185 1.70008e-05 5.8346e-06
1.70008e-05 0.000413455 5.01475e-08
5.8346e-06 5.01475e-08 0.000112443
0.00286803 -9.57099e-05 3.65253e-05
-9.57099e-05 0.000688582 -3.22739e-06
3.65253e-05 -3.22739e-06 -0.000543846
0.0010787 -0.000106641 -5.03782e-06
-0.000106641 -0.000550319 2.4506e-05
-5.03782e-06 2.4506e-05 -0.000347467
-0.00154461 0.00105563 4.50106e-05
0.00105563 -0.00102637 -1.6973e-05
4.50106e-05 -1.6973e-05 0.000491441
0.00502859 0.000607702 -1.94775e-05
0.000607702 0.0001537 4.66428e-05
-1.94775e-05 4.66428e-05 0.000400966
-0.0019293 -0.000585475 5.1907e-05
-0.000585475 -0.000341449 -4.06578e-05
5.1907e-05 -4.06578e-05 -0.00405255
0.00060516 -1.82222e-05 4.05161e-05
-1.82222e-05 0.000224023 -8.54897e-06
4.05161e-05 -8.54897e-06 0.000118077
0.000979589 -3.41361e-05 6.5596e-05
-3.41361e-05 -0.000113278 -2.74095e-05
6.5596e-05 -2.74095e-05 -0.000895741
-0.00170335 0.000204503 -8.59469e-05
0.000204503 0.000304114 -2.14953e-05
-8.59469e-05 -2.14953e-05 -0.000303773
0.000397603 0.000890973 -8.55581e-05
0.000890973 -0.000500047 0.00011655
-8.55581e-05 0.00011655 2.46799e-05
0.00828476 -0.000177587 1.28313e-05
-0.000177587 0.00377014 -2.88391e-05
1.28313e-05 -2.88391e-05 0.000987695
0.00304938 -0.000315385 -7.96321e-05
-0.000315385 0.000492086 6.90944e-05
-7.96321e-05 6.90944e-05 0.000154494
-0.000686633 -1.41082e-05 -7.14677e-06
-1.41082e-05 -0.000352196 1.15139e-05
-7.14677e-06 1.15139e-05 -0.000483004
7.11447e-05 -0.000107269 8.38095e-07
-0.000107269 0.000143703 -4.28555e-07
8.38095e-07 -4.28555e-07 -6.42591e-05
0.000802451 -0.000196022 1.81832e-05
-0.000196022 0.000276611 -8.2251e-06
1.81832e-05 -8.2251e-06 0.000138675
-5.29241e-05 -3.80331e-05 -3.34234e-06
-3.80331e-05 -0.000148238 4.32789e-06
-3.34234e-06 4.32789e-06 -0.000263326
-0.000312567 -9.62537e-05 3.43246e-07
-9.62537e-05 -0.000259141 -3.2797e-06
3.43246e-07 -3.2797e-06 -0.000512241
0.00205138 -0.000333608 2.24947e-05
-0.000333608 0.000638657 -5.28242e-06
2.24947e-05 -5.28242e-06 0.000399371
0.00265493 -0.000319385 -5.44724e-06
-0.000319385 0.00113561 1.08024e-06
-5.44724e-06 1.08024e-06 0.000930256
0.0016319 -0.000250895 2.39304e-06
-0.000250895 0.000584605 9.41693e-07
2.39304e-06 9.41693e-07 0.000281243
0.00075058 -0.000239856 5.07804e-06
-0.000239856 -9.06542e-05 -4.44083e-06
5.07804e-06 -4.44083e-06 -0.000375064
0.00118484 -0.000199993 -4.71093e-06
-0.000199993 0.00027092 4.71995e-07
-4.71093e-06 4.71995e-07 5.2082e-05
0.00205657 -0.000306796 1.66421e-06
-0.000306796 0.000646665 -2.4405e-08
1.66421e-06 -2.4405e-08 0.000380966
0.00175281 -0.0003033 3.19794e-06
-0.0003033 0.000331089 -4.37658e-06
3.19794e-06 -4.37658e-06 8.04942e-05
0.00155639 -0.000267015 7.48263e-07
-0.000267015 0.000139756 -3.59278e-06
7.48263e-07 -3.59278e-06 -6.09155e-05
0.00260021 -0.000338923 -5.86912e-06
-0.000338923 0.000840748 6.74196e-06
-5.86912e-06 6.74196e-06 0.000613214
0.0017784 -0.000291556 -1.21318e-06
-0.000291556 0.000360253 -3.94285e-08
-1.21318e-06 -3.94285e-08 0.000118079
0.000372384 -0.00013929 3.62081e-06
-0.00013929 -0.000225432 -3.12246e-07
3.62081e-06 -3.12246e-07 -0.000388348
0.000950043 -0.000187031 2.09157e-06
-0.000187031 7.95417e-05 -3.44778e-07
2.09157e-06 -3.44778e-07 -0.00010233
0.00159055 -0.000247074 -1.52391e-06
-0.000247074 0.000408683 -1.4504e-06
-1.52391e-06 -1.4504e-06 0.00019103
0.00111934 -0.000170699 1.39365e-06
-0.000170699 0.000273408 -3.65934e-07
1.39365e-06 -3.65934e-07 0.000111202
0.00118601 -0.000183506 -1.42333e-06
-0.000183506 0.0002905 -1.12851e-06
-1.42333e-06 -1.12851e-06 0.000127964
0.000735584 -0.000152611 3.7023e-06
-0.000152611 2.54169e-05 -2.40591e-06
3.7023e-06 -2.40591e-06 -0.00012409
0.000693197 -5.64158e-06 1.63349e-06
-5.64158e-06 5.29915e-05 1.41396e-06
1.63349e-06 1.41396e-06 -5.97918e-05
0.000647656 -6.17303e-05 1.12426e-07
-6.17303e-05 3.93373e-05 8.00125e-07
1.12426e-07 8.00125e-07 -9.49811e-05
0.00119887 -0.000161551 1.77605e-06
-0.000161551 0.000354505 -1.5104e-06
1.77605e-06 -1.5104e-06 0.000194449
0.000620653 6.25516e-05 5.33007e-08
6.25516e-05 -5.12304e-06 2.21805e-06
5.33007e-08 2.21805e-06 -6.77606e-05
0.000750606 1.09601e-05 -3.89345e-07
1.09601e-05 7.65585e-05 -2.59641e-07
-3.89345e-07 -2.59641e-07 -1.62356e-05
0.000962072 -6.45216e-05 -4.91851e-07
-6.45216e-05 0.000208725 -8.65612e-07
-4.91851e-07 -8.65612e-07 9.29444e-05
0.000595081 5.45022e-05 -1.97004e-06
5.45022e-05 -3.11275e-05 5.19997e-06
-1.97004e-06 5.19997e-06 -5.0719e-05
0.000680412 4.38965e-05 -2.84492e-07
4.38965e-05 1.50201e-05 -1.82563e-07
-2.84492e-07 -1.82563e-07 -3.57916e-05
0.000796258 -7.02459e-06 7.27246e-08
-7.02459e-06 8.91887e-05 -1.29688e-06
7.27246e-08 -1.29688e-06 1.24558e-05
0.000702047 3.18887e-05 1.28633e-06
3.18887e-05 1.85371e-05 -1.76561e-06
1.28633e-06 -1.76561e-06 -2.72426e-05
0.000623684 4.95056e-05 2.05082e-08
4.95056e-05 -2.40762e-05 -4.29514e-09
2.05082e-08 -4.29514e-09 -4.09234e-05
0.0022016 7.50003e-05 -2.59794e-05
7.50003e-05 0.000886372 3.35835e-06
-2.59794e-05 3.35835e-06 0.000896459
0.000634249 4.33808e-05 9.10881e-07
4.33808e-05 -2.67676e-05 -3.67271e-06
9.10881e-07 -3.67271e-06 -4.11435e-05
0.00220931 6.61082e-05 1.99865e-06
6.61082e-05 0.000883408 1.44004e-07
1.99865e-06 1.44004e-07 0.000895515
0.0022243 5.69345e-05 1.98237e-05
5.69345e-05 0.000885319 -3.84726e-06
1.98237e-05 -3.84726e-06 0.000899144
0.000780083 2.14362e-05 -2.83656e-07
2.14362e-05 8.08861e-05 -5.66448e-07
-2.83656e-07 -5.66448e-07 -1.11043e-05
0.000787168 5.46809e-05 -8.74151e-07
5.46809e-05 8.29979e-05 -1.07126e-06
-8.74151e-07 -1.07126e-06 -1.89742e-06
0.00069413 -9.06151e-06 -9.16847e-07
-9.06151e-06 4.09737e-06 -2.13005e-06
-9.16847e-07 -2.13005e-06 -4.57148e-05
0.000762736 4.7804e-05 -1.0123e-07
4.7804e-05 6.18165e-05 6.30907e-09
-1.0123e-07 6.30907e-09 -1.57279e-05
0.000629305 -3.27731e-05 -1.93282e-07
-3.27731e-05 -3.90667e-05 -4.13751e-06
-1.93282e-07 -4.13751e-06 -5.38668e-05
0.000697693 -1.60924e-06 -1.14904e-07
-1.60924e-06 6.8646e-06 -3.48106e-08
-1.14904e-07 -3.48106e-08 -4.01325e-05
0.000729129 2.96706e-05 -3.75599e-07
2.96706e-05 4.10332e-05 4.27446e-07
-3.75599e-07 4.27446e-07 -3.22884e-05
0.00228765 -4.54565e-05 -1.76781e-05
-4.54565e-05 0.000912267 -4.46027e-06
-1.76781e-05 -4.46027e-06 0.000927748
0.000645356 -2.52479e-05 -1.77914e-07
-2.52479e-05 -3.5084e-05 -3.22116e-08
-1.77914e-07 -3.22116e-08 -4.66192e-05
0.000681384 2.01944e-06 -2.83115e-07
2.01944e-06 -2.02879e-06 1.34429e-06
-2.83115e-07 1.34429e-06 -4.60495e-05
0.00219424 -3.30008e-05 -3.1389e-06
-3.30008e-05 0.000853829 1.015e-07
-3.1389e-06 1.015e-07 0.000871567
0.000654521 -1.82092e-05 1.95285e-07
-1.82092e-05 -3.34668e-05 3.72861e-06
1.95285e-07 3.72861e-06 -4.22282e-05
0.00212173 -2.0613e-05 8.82747e-06
-2.0613e-05 0.000808819 4.63059e-06
8.82747e-06 4.63059e-06 0.000828248
0.00090101 -5.20025e-05 8.369e-06
-5.20025e-05 0.000123338 3.17328e-05
8.369e-06 3.17328e-05 -0.000238503
0.00143763 -1.90595e-05 -7.82524e-06
-1.90595e-05 0.000125865 1.28151e-05
-7.82524e-06 1.28151e-05 -7.82629e-05
0.00137369 3.94216e-07 5.53857e-06
3.94216e-07 0.000346008 -1.80576e-05
5.53857e-06 -1.80576e-05 3.28532e-05
0.000767699 2.0508e-05 -1.77281e-07
2.0508e-05 6.73465e-05 -6.35698e-08
-1.77281e-07 -6.35698e-08 -2.10124e-05
0.000766901 -4.21727e-06 -6.82425e-08
-4.21727e-06 6.66237e-05 2.08585e-07
-6.82425e-08 2.08585e-07 -2.2292e-05
0.000719986 -2.60172e-06 -1.29077e-06
-2.60172e-06 4.22275e-05 -1.71043e-06
-1.29077e-06 -1.71043e-06 -4.9339e-05
0.000641408 -2.01399e-05 -6.02591e-07
-2.01399e-05 -5.45761e-06 -7.02606e-07
-6.02591e-07 -7.02606e-07 -9.28654e-05
0.000968177 7.43041e-05 -1.25527e-06
7.43041e-05 0.000192828 -3.00882e-07
-1.25527e-06 -3.00882e-07 8.95509e-05
0.000731962 -1.19128e-05 5.76815e-08
-1.19128e-05 3.57694e-05 -8.69166e-08
5.76815e-08 -8.69166e-08 -4.52454e-05
0.000736771 1.0062e-05 9.37034e-07
1.0062e-05 4.69209e-05 -6.32698e-07
9.37034e-07 -6.32698e-07 -4.62072e-05
0.000797343 2.52683e-05 -9.68273e-08
2.52683e-05 8.61782e-05 -4.00661e-08
-9.68273e-08 -4.00661e-08 -6.17604e-06
0.000886791 5.81562e-05 1.8193e-07
5.81562e-05 0.000134452 1.94911e-07
1.8193e-07 1.94911e-07 3.36251e-05
0.000934007 2.7501e-05 -6.19396e-07
2.7501e-05 0.000175119 3.09298e-07
-6.19396e-07 3.09298e-07 7.75632e-05
0.00204028 3.25468e-05 9.55452e-05
3.25468e-05 0.000613757 0.000126342
9.55452e-05 0.000126342 -0.00064276
0.00117085 4.55974e-05 7.61047e-06
4.55974e-05 0.000263034 3.02496e-05
7.61047e-06 3.02496e-05 -0.000809329
0.0025646 4.49886e-06 -1.23937e-05
4.49886e-06 0.000939835 -2.37422e-05
-1.23937e-05 -2.37422e-05 0.000336778
0.00656801 -0.000524176 -4.00473e-05
-0.000524176 0.000842027 -7.19342e-05
-4.00473e-05 -7.19342e-05 0.00217503
-0.00966108 0.000319623 -5.09009e-05
0.000319623 -0.00346511 0.000109797
-5.09009e-05 0.000109797 -0.0048592
0.00474834 -0.000782363 -8.59258e-05
-0.000782363 0.00148691 5.04865e-05
-8.59258e-05 5.04865e-05 0.000682135
0.00847697 -0.000364117 -1.83487e-05
-0.000364117 0.0031801 -3.68072e-05
-1.83487e-05 -3.68072e-05 0.000725356
0.00310348 -0.000191055 -3.78122e-05
-0.000191055 0.00035465 4.68524e-05
-3.78122e-05 4.68524e-05 2.81938e-05
0.0103111 -0.00018683 4.60549e-05
-0.00018683 0.00465205 -1.61094e-05
4.60549e-05 -1.61094e-05 0.00162751
0.00139275 -0.000463412 2.98062e-05
-0.000463412 -0.000250686 2.06927e-05
2.98062e-05 2.06927e-05 -0.000815645
0.00163444 -0.000678471 -6.27634e-05
-0.000678471 -0.00199196 -0.000137219
-6.27634e-05 -0.000137219 -0.000503854
0.00427181 0.000118596 -9.37658e-05
0.000118596 0.000819969 -6.48756e-06
-9.37658e-05 -6.48756e-06 0.000460931
0.00817699 0.00020293 -8.54571e-06
0.00020293 0.00327788 3.58469e-05
-8.54571e-06 3.58469e-05 0.0010272
0.0080888 -0.0011406 -1.51946e-05
-0.0011406 0.00229925 -8.46365e-05
-1.51946e-05 -8.46365e-05 0.00241213
0.00422882 -0.00105403 3.29876e-05
-0.00105403 0.000515401 5.12919e-06
3.29876e-05 5.12919e-06 0.00211976
0.000528583 3.73357e-05 1.02328e-06
3.73357e-05 -7.47356e-06 1.00174e-06
1.02328e-06 1.00174e-06 -8.21484e-05
0.000918391 -1.18032e-05 -6.11023e-08
-1.18032e-05 0.000162577 6.41299e-07
-6.11023e-08 6.41299e-07 6.99148e-05
0.000781618 2.73307e-05 2.382e-07
2.73307e-05 7.98133e-05 -4.77391e-07
2.382e-07 -4.77391e-07 -2.73529e-05
0.000477243 3.42912e-05 -3.47601e-05
3.42912e-05 0.000220549 1.75797e-05
-3.47601e-05 1.75797e-05 -0.000237936
0.00103641 -7.2088e-05 -5.12929e-05
-7.2088e-05 0.000517931 -1.43321e-05
-5.12929e-05 -1.43321e-05 0.000486292
0.000684562 -4.12705e-06 2.73445e-07
-4.12705e-06 4.08152e-05 4.88825e-07
2.73445e-07 4.88825e-07 -6.3116e-05
0.000184951 8.09351e-06 5.95347e-07
8.09351e-06 -0.000168605 -5.6924e-06
5.95347e-07 -5.6924e-06 -0.000274145
0.000690141 3.09109e-05 -1.38135e-07
3.09109e-05 0.000106506 -2.11597e-06
-1.38135e-07 -2.11597e-06 1.0011e-05
0.000378155 2.94688e-05 -3.2651e-06
2.94688e-05 0.000116011 4.78832e-06
-3.2651e-06 4.78832e-06 3.20275e-06
3.64715e-05 -1.19821e-05 6.61133e-05
-1.19821e-05 0.000630958 -3.55856e-05
6.61133e-05 -3.55856e-05 -0.000397474
-0.00124039 -7.94622e-06 -1.59332e-05
-7.94622e-06 -0.00077641 1.01465e-05
-1.59332e-05 1.01465e-05 -0.000874194
0.00138786 0.000158463 -1.01433e-05
0.000158463 0.000703549 -3.29133e-05
-1.01433e-05 -3.29133e-05 8.64603e-05
0.00158323 -1.55189e-06 7.40399e-05
-1.55189e-06 0.000385208 7.72112e-06
7.40399e-05 7.72112e-06 -0.000343344
0.00114679 -1.70498e-05 1.14031e-05
-1.70498e-05 0.000234356 3.19763e-06
1.14031e-05 3.19763e-06 1.31989e-05
0.00103105 -1.6215e-05 6.24626e-08
-1.6215e-05 -1.7188e-05 -1.15102e-06
6.24626e-08 -1.15102e-06 -0.00012734
-0.00176995 2.39123e-06 -1.47839e-05
2.39123e-06 -0.000537154 1.07701e-05
-1.47839e-05 1.07701e-05 -0.000981593
0.00271102 9.80029e-06 -3.95967e-07
9.80029e-06 0.000167691 -3.03824e-05
-3.95967e-07 -3.03824e-05 -0.00010115
0.00145678 6.73479e-06 -4.36261e-06
6.73479e-06 0.000380637 1.72459e-05
-4.36261e-06 1.72459e-05 8.94452e-05
0.0146396 -0.00062157 0.000108753
-0.00062157 0.0064757 -1.10286e-05
0.000108753 -1.10286e-05 0.00354089
0.0066137 0.000810959 -4.44477e-05
0.000810959 0.00191399 -1.27936e-05
-4.44477e-05 -1.27936e-05 0.00175756
0.00318496 -0.000113284 -5.45734e-05
-0.000113284 0.000926407 8.29495e-05
-5.45734e-05 8.29495e-05 -0.000358325
-0.00588848 0.0011367 0.000205123
0.0011367 -0.00360845 -0.00017533
0.000205123 -0.00017533 -0.0016321
0.000510512 -4.75567e-05 -4.28119e-06
-4.75567e-05 0.00026352 -2.12425e-07
-4.28119e-06 -2.12425e-07 0.000116715
0.00156739 -3.01776e-05 -1.06388e-05
-3.01776e-05 0.000256725 3.43086e-06
-1.06388e-05 3.43086e-06 -0.000518186
-0.00222417 0.000248044 -0.000147259
0.000248044 0.000347969 6.43734e-05
-0.000147259 6.43734e-05 -0.000129031
0.00180211 -0.000286771 -2.05172e-05
-0.000286771 -9.73374e-05 2.96758e-05
-2.05172e-05 2.96758e-05 -0.000361058
0.00788004 0.00121131 3.52018e-05
0.00121131 0.00266999 3.35167e-05
3.52018e-05 3.35167e-05 0.00326099
0.00725475 -0.000585685 6.0022e-05
-0.000585685 0.00300006 -3.32043e-05
6.0022e-05 -3.32043e-05 0.000513925
0.00133335 -0.000215608 9.03129e-06
-0.000215608 0.000216586 2.05171e-05
9.03129e-06 2.05171e-05 0.000366876
-0.0023128 -4.04667e-05 4.61585e-05
-4.04667e-05 0.000369639 -9.72455e-06
4.61585e-05 -9.72455e-06 -0.000671633
0.00550532 0.000974154 -0.000131444
0.000974154 0.00276837 6.66289e-05
-0.000131444 6.66289e-05 0.00285362
0.00269819 -0.000205329 -0.000117926
-0.000205329 0.000489291 8.68217e-05
-0.000117926 8.68217e-05 -0.0020539
0.00274689 -0.000713879 4.11967e-05
-0.000713879 0.000312016 -1.06683e-05
4.11967e-05 -1.06683e-05 -0.000243284
4.5626e-05 -6.87136e-05 3.47934e-06
-6.87136e-05 0.000138712 1.12222e-05
3.47934e-06 1.12222e-05 -5.29056e-05
0.000423557 -0.000181597 -2.72918e-06
-0.000181597 9.61936e-05 1.9296e-06
-2.72918e-06 1.9296e-06 -7.73403e-05
0.00350509 -0.000410032 2.80039e-05
-0.000410032 0.00125837 1.27014e-06
2.80039e-05 1.27014e-06 0.00120681
-0.00180357 -1.33035e-05 -6.11241e-06
-1.33035e-05 -0.00102815 7.51109e-06
-6.11241e-06 7.51109e-06 -0.00128508
0.000711968 -0.000226075 3.9877e-06
-0.000226075 -1.53333e-05 -2.53922e-07
3.9877e-06 -2.53922e-07 -0.000261969
0.00106422 -0.000316889 5.60222e-06
-0.000316889 -0.000140234 -4.39158e-07
5.60222e-06 -4.39158e-07 -0.000326461
0.00220786 -0.000288535 -7.47408e-06
-0.000288535 0.00085664 1.67058e-06
-7.47408e-06 1.67058e-06 0.000569311
0.00120678 -0.000268715 -3.32069e-06
-0.000268715 0.000137815 -2.48999e-06
-3.32069e-06 -2.48999e-06 -0.000132565
0.00173755 -0.000346271 4.76842e-06
-0.000346271 0.000202179 -1.61993e-06
4.76842e-06 -1.61993e-06 8.22292e-06
0.0017205 -0.00028082 -3.04566e-06
-0.00028082 0.000455013 -8.02643e-07
-3.04566e-06 -8.02643e-07 0.000190256
0.00150516 -0.000284942 2.43472e-08
-0.000284942 0.000185913 -2.63296e-06
2.43472e-08 -2.63296e-06 -5.60282e-05
0.00175874 -0.000299308 1.07222e-06
-0.000299308 0.000181028 -4.45172e-06
1.07222e-06 -4.45172e-06 -5.18128e-07
0.00161327 -0.000239299 1.55277e-07
-0.000239299 0.000123623 -3.00647e-06
1.55277e-07 -3.00647e-06 -4.08878e-05
0.00168629 -0.000268262 1.69881e-07
-0.000268262 0.000242962 -5.24e-07
1.69881e-07 -5.24e-07 3.39607e-05
0.00157886 -0.000268428 1.02167e-06
-0.000268428 0.000151245 -7.13875e-07
1.02167e-06 -7.13875e-07 -4.84768e-05
0.00167093 -0.00025493 -1.00916e-06
-0.00025493 0.000382416 5.4951e-06
-1.00916e-06 5.4951e-06 0.000181116
0.00157731 -0.00026676 4.54653e-07
-0.00026676 0.00028532 3.64969e-07
4.54653e-07 3.64969e-07 5.86265e-05
0.00185097 -0.0002981 -1.1918e-06
-0.0002981 0.000390727 -2.79702e-06
-1.1918e-06 -2.79702e-06 0.000142523
0.00100284 -0.000175184 2.17556e-06
-0.000175184 0.000156079 -1.06308e-06
2.17556e-06 -1.06308e-06 -6.49018e-06
0.000584056 -0.000152627 -9.16472e-07
-0.000152627 -0.000101207 -1.92428e-06
-9.16472e-07 -1.92428e-06 -0.000260468
0.00138916 -0.000217937 4.60446e-06
-0.000217937 0.000324891 -5.16814e-06
4.60446e-06 -5.16814e-06 0.000147156
0.000786421 -9.87171e-05 4.50471e-07
-9.87171e-05 8.59976e-05 1.19781e-06
4.50471e-07 1.19781e-06 -4.84203e-05
0.000891835 -0.000144408 1.11121e-07
-0.000144408 0.000146896 4.67981e-07
1.11121e-07 4.67981e-07 -1.07542e-05
0.000846045 -0.000155441 -4.5086e-07
-0.000155441 9.97487e-05 1.28511e-06
-4.5086e-07 1.28511e-06 -5.99288e-05
0.000598413 6.69366e-05 1.43342e-06
6.69366e-05 -1.02696e-05 3.40568e-06
1.43342e-06 3.40568e-06 -8.94044e-05
0.000797504 -2.89081e-05 2.47553e-07
-2.89081e-05 0.000115967 -9.08913e-08
2.47553e-07 -9.08913e-08 -2.16391e-06
0.000901632 -8.95349e-05 -1.14101e-06
-8.95349e-05 0.000184664 2.65407e-07
-1.14101e-06 2.65407e-07 4.87729e-05
0.0013229 8.05343e-05 -1.39301e-05
8.05343e-05 0.000397115 3.32741e-06
-1.39301e-05 3.32741e-06 0.000375402
0.000660231 4.01366e-05 -5.4501e-07
4.01366e-05 1.21252e-05 -5.02743e-07
-5.4501e-07 -5.02743e-07 -4.83047e-05
0.000796807 -2.37287e-05 -1.86139e-07
-2.37287e-05 0.00010432 -1.74391e-06
-1.86139e-07 -1.74391e-06 8.11301e-06
0.000778354 4.33629e-05 -2.51828e-05
4.33629e-05 8.1308e-05 3.32399e-06
-2.51828e-05 3.32399e-06 8.38618e-05
0.000996942 6.57927e-05 -7.08717e-06
6.57927e-05 0.000199502 2.13649e-07
-7.08717e-06 2.13649e-07 0.000180756
0.000692209 3.97869e-05 5.68847e-07
3.97869e-05 2.07215e-05 -2.08793e-06
5.68847e-07 -2.08793e-06 -2.97895e-05
0.000635471 5.11827e-05 8.02479e-07
5.11827e-05 -1.69384e-05 -3.76927e-06
8.02479e-07 -3.76927e-06 -3.40557e-05
0.00223034 7.64149e-05 1.79965e-06
7.64149e-05 0.000903701 1.56353e-07
1.79965e-06 1.56353e-07 0.000913435
0.00222442 6.72399e-05 2.33378e-05
6.72399e-05 0.000892976 -3.53486e-06
2.33378e-05 -3.53486e-06 0.00090483
0.000720212 6.56952e-06 -1.43564e-07
6.56952e-06 4.06138e-05 -8.98896e-07
-1.43564e-07 -8.98896e-07 -4.96835e-05
0.000792957 3.58302e-05 -4.39732e-07
3.58302e-05 8.53317e-05 -1.47648e-06
-4.39732e-07 -1.47648e-06 -7.8978e-07
0.000752186 2.42898e-06 1.0276e-07
2.42898e-06 5.86185e-05 -2.94717e-08
1.0276e-07 -2.94717e-08 -2.87845e-05
0.000696816 -2.05057e-05 -1.09868e-06
-2.05057e-05 7.94054e-06 -2.29819e-06
-1.09868e-06 -2.29819e-06 -4.45732e-05
0.000767145 2.71026e-05 6.75066e-07
2.71026e-05 6.41533e-05 -1.48412e-08
6.75066e-07 -1.48412e-08 -1.4976e-05
0.000615935 -3.97288e-05 -2.64436e-07
-3.97288e-05 -4.058e-05 -4.31758e-06
-2.64436e-07 -4.31758e-06 -5.85672e-05
0.000692934 -5.6982e-06 -1.53307e-07
-5.6982e-06 4.37921e-06 -2.08146e-08
-1.53307e-07 -2.08146e-08 -4.56803e-05
0.000781214 5.13051e-05 8.38311e-07
5.13051e-05 8.30831e-05 1.11342e-06
8.38311e-07 1.11342e-06 -1.92723e-06
0.00237919 -5.68006e-05 -2.27924e-05
-5.68006e-05 0.000970068 -4.27096e-06
-2.27924e-05 -4.27096e-06 0.000983283
0.000631809 -3.19332e-05 -3.28887e-07
-3.19332e-05 -3.78423e-05 -1.69173e-08
-3.28887e-07 -1.69173e-08 -5.24918e-05
0.000698127 -1.51842e-06 5.10272e-07
-1.51842e-06 7.56976e-06 2.21055e-06
5.10272e-07 2.21055e-06 -3.94942e-05
0.00227075 -4.45455e-05 -2.98867e-06
-4.45455e-05 0.000901944 1.30751e-07
-2.98867e-06 1.30751e-07 0.000917731
0.000645538 -2.47925e-05 2.32412e-07
-2.47925e-05 -3.49552e-05 3.87995e-06
2.32412e-07 3.87995e-06 -4.64041e-05
0.00218253 -3.19783e-05 1.28154e-05
-3.19783e-05 0.000846556 4.55833e-06
1.28154e-05 4.55833e-06 0.000864548
0.00235115 -3.17927e-05 7.09038e-05
-3.17927e-05 0.000703728 3.72168e-05
7.09038e-05 3.72168e-05 3.88631e-05
0.00101851 -4.71252e-05 6.39462e-07
-4.71252e-05 0.000184913 9.98381e-06
6.39462e-07 9.98381e-06 -0.000144909
0.00127909 -2.49309e-05 -9.64042e-06
-2.49309e-05 3.28883e-05 -8.56096e-06
-9.64042e-06 -8.56096e-06 -0.000112823
0.000831955 7.22731e-05 -2.35425e-06
7.22731e-05 0.000116675 -6.15383e-07
-2.35425e-06 -6.15383e-07 1.39421e-05
0.000832688 2.04239e-05 4.01173e-07
2.04239e-05 0.000102052 2.45341e-07
4.01173e-07 2.45341e-07 1.51608e-05
0.000704549 -1.14824e-05 5.33792e-07
-1.14824e-05 3.13274e-05 5.22953e-07
5.33792e-07 5.22953e-07 -5.71474e-05
0.000827113 -4.5484e-06 6.22486e-08
-4.5484e-06 9.53255e-05 -1.17308e-07
6.22486e-08 -1.17308e-07 9.35803e-06
0.000874809 2.94496e-05 -1.88224e-08
2.94496e-05 0.000131347 -2.48403e-07
-1.88224e-08 -2.48403e-07 3.688e-05
0.000828433 5.45901e-05 3.87572e-07
5.45901e-05 0.000112477 7.37137e-07
3.87572e-07 7.37137e-07 1.19816e-05
0.000831225 4.14338e-05 -1.15878e-06
4.14338e-05 0.000114968 -1.92476e-06
-1.15878e-06 -1.92476e-06 9.33721e-06
0.00052633 -1.22678e-05 -3.39692e-07
-1.22678e-05 -6.21789e-05 -4.07391e-07
-3.39692e-07 -4.07391e-07 -0.000156319
0.000827844 7.86717e-05 4.34444e-07
7.86717e-05 0.000107254 -3.77436e-07
4.34444e-07 -3.77436e-07 1.13242e-05
0.000795068 -2.176e-05 1.35887e-06
-2.176e-05 6.57035e-05 -3.19829e-07
1.35887e-06 -3.19829e-07 -2.21665e-05
0.000832124 2.50676e-05 -2.48417e-07
2.50676e-05 0.000113041 1.14333e-07
-2.48417e-07 1.14333e-07 1.91948e-05
0.00131772 5.75067e-05 4.45056e-06
5.75067e-05 0.000419401 3.24295e-06
4.45056e-06 3.24295e-06 0.000329268
0.00112414 -0.000432857 7.03127e-05
-0.000432857 0.00135411 9.37069e-05
7.03127e-05 9.37069e-05 0.00088213
0.00240629 5.79195e-05 6.31301e-06
5.79195e-05 0.000810159 3.01703e-05
6.31301e-06 3.01703e-05 -0.000486222
0.00149378 5.96249e-05 -1.10533e-05
5.96249e-05 0.000347971 -4.85167e-05
-1.10533e-05 -4.85167e-05 -0.000746911
0.0058982 -0.000893279 -0.000113745
-0.000893279 0.000280119 -9.92334e-05
-0.000113745 -9.92334e-05 0.00183079
0.00380932 -0.000267605 5.0156e-07
-0.000267605 0.000337616 7.33055e-05
5.0156e-07 7.33055e-05 -0.000259329
0.000645879 -0.000465372 -9.19645e-05
-0.000465372 0.000370022 7.46234e-05
-9.19645e-05 7.46234e-05 -0.00242186
0.00282088 -0.000183251 -5.53603e-05
-0.000183251 0.00043551 8.72696e-05
-5.53603e-05 8.72696e-05 -6.84304e-05
0.00391476 -0.000105258 1.46281e-05
-0.000105258 0.000666078 3.82181e-05
1.46281e-05 3.82181e-05 0.000477433
-0.000795668 -0.00104337 2.82905e-05
-0.00104337 -0.00150585 4.2485e-05
2.82905e-05 4.2485e-05 0.000249927
0.00565082 0.000339828 4.96507e-06
0.000339828 0.00282171 8.93665e-06
4.96507e-06 8.93665e-06 -0.000163469
0.00143177 -0.000591126 -1.35352e-05
-0.000591126 -0.00127493 1.97012e-05
-1.35352e-05 1.97012e-05 -0.00104291
0.00186444 0.000268297 -2.4019e-05
0.000268297 -0.000130984 5.66835e-06
-2.4019e-05 5.66835e-06 -0.00034423
0.00836233 2.15876e-05 -4.1274e-05
2.15876e-05 0.00402502 3.17376e-05
-4.1274e-05 3.17376e-05 0.00165418
8.26334e-05 -0.000842322 -7.29825e-05
-0.000842322 -0.000767615 -7.18211e-05
-7.29825e-05 -7.18211e-05 -0.000216826
0.000478925 0.000179432 3.68508e-07
0.000179432 -6.20167e-05 -4.08821e-06
3.68508e-07 -4.08821e-06 -0.000142453
0.000865819 5.06795e-05 5.83731e-06
5.06795e-05 0.000173277 2.39802e-08
5.83731e-06 2.39802e-08 9.92848e-05
0.000991493 1.19837e-05 -4.54389e-07
1.19837e-05 0.000208257 6.03616e-07
-4.54389e-07 6.03616e-07 0.000114729
-0.000152182 -2.60924e-06 -0.000110756
-2.60924e-06 0.000424868 -2.15734e-05
-0.000110756 -2.15734e-05 -0.000555968
-0.00101095 6.87776e-05 8.00291e-06
6.87776e-05 -0.000640591 -8.21465e-06
8.00291e-06 -8.21465e-06 -0.000758318
0.00080965 6.92847e-05 2.83394e-06
6.92847e-05 0.000173693 -3.24623e-06
2.83394e-06 -3.24623e-06 7.27664e-05
0.000710815 0.000137374 4.91582e-06
0.000137374 0.000215807 2.66216e-06
4.91582e-06 2.66216e-06 0.000106527
0.000788995 0.000192325 -3.19316e-06
0.000192325 0.000360344 -2.58615e-05
-3.19316e-06 -2.58615e-05 -0.000142472
0.000474963 0.000311145 1.65005e-05
0.000311145 -0.000132771 4.49572e-06
1.65005e-05 4.49572e-06 -0.000344034
0.00039108 4.03485e-05 0.000117599
4.03485e-05 0.00191368 4.18525e-06
0.000117599 4.18525e-06 0.000916345
0.00153199 -2.14685e-05 -6.68072e-06
-2.14685e-05 0.000411209 8.93611e-06
-6.68072e-06 8.93611e-06 -0.000203239
0.000859335 -1.56065e-05 1.64988e-06
-1.56065e-05 7.09095e-05 1.78613e-06
1.64988e-06 1.78613e-06 -0.000129407
0.00138317 -8.11063e-05 -3.53438e-05
-8.11063e-05 0.000788971 7.13036e-06
-3.53438e-05 7.13036e-06 0.000647467
0.000973641 -0.000171699 -1.09939e-05
-0.000171699 -0.000855896 -1.39196e-05
-1.09939e-05 -1.39196e-05 -0.000819773
0.00180174 -2.70837e-05 -8.642e-05
-2.70837e-05 0.000436399 2.54941e-05
-8.642e-05 2.54941e-05 -0.000348184
-0.00108394 -0.000665906 5.09272e-05
-0.000665906 -0.000623765 -4.75007e-05
5.09272e-05 -4.75007e-05 -0.00338422
-0.00360491 0.000702553 5.84867e-05
0.000702553 -0.00343349 -7.19171e-05
5.84867e-05 -7.19171e-05 -0.00268325
0.00144307 0.000456286 -9.88183e-05
0.000456286 0.00180519 8.68112e-05
-9.88183e-05 8.68112e-05 0.00173385
0.00192734 -0.000102519 -1.161e-06
-0.000102519 0.000331779 2.0165e-06
-1.161e-06 2.0165e-06 0.000618952
0.00147979 0.000153887 7.67425e-06
0.000153887 0.00200526 7.47602e-06
7.67425e-06 7.47602e-06 0.00142305
-0.00365996 0.000517031 3.20976e-05
0.000517031 -0.00121395 3.48653e-06
3.20976e-05 3.48653e-06 -0.00182224
0.00389898 -0.000769386 5.55007e-06
-0.000769386 0.00119785 -9.76222e-07
5.55007e-06 -9.76222e-07 0.000229394
0.00956933 3.6435e-06 5.96181e-06
3.6435e-06 0.00370545 -5.49144e-06
5.96181e-06 -5.49144e-06 0.00193102
0.00111616 -0.000290254 3.69126e-06
-0.000290254 -2.49951e-05 1.71589e-05
3.69126e-06 1.71589e-05 7.27819e-05
-0.00666425 0.000206765 -0.000103093
0.000206765 -0.00328736 1.06361e-07
-0.000103093 1.06361e-07 -0.00363499
0.00802839 3.3634e-05 -2.96671e-05
3.3634e-05 0.00259078 1.56477e-05
-2.96671e-05 1.56477e-05 0.0011335
0.00516155 -0.000844712 2.56848e-06
-0.000844712 0.000669318 5.98266e-06
2.56848e-06 5.98266e-06 -0.000189355
0.000273544 -0.000154446 -1.90992e-05
-0.000154446 4.9421e-05 1.46033e-05
-1.90992e-05 1.46033e-05 -0.000168928
0.00150714 -0.000288187 -2.23377e-06
-0.000288187 0.000181325 7.8466e-07
-2.23377e-06 7.8466e-07 0.000193054
0.00227737 -0.000323587 1.76524e-05
-0.000323587 0.000362993 -2.73326e-06
1.76524e-05 -2.73326e-06 0.000390396
-0.000478143 -0.000127561 -5.81948e-06
-0.000127561 -0.000594026 1.15549e-06
-5.81948e-06 1.15549e-06 -0.00085178
0.00132344 -0.000331519 -3.54931e-06
-0.000331519 7.90748e-06 -9.88888e-07
-3.54931e-06 -9.88888e-07 -0.000186534
0.00207287 -0.000388453 2.13758e-06
-0.000388453 0.000239642 5.93098e-07
2.13758e-06 5.93098e-07 9.20175e-05
0.0016263 -0.000294998 -7.73233e-06
-0.000294998 0.000351185 -2.42893e-06
-7.73233e-06 -2.42893e-06 9.18932e-05
0.00151664 -0.000327863 1.59407e-06
-0.000327863 0.000100132 8.31453e-07
1.59407e-06 8.31453e-07 -9.60912e-05
0.00199962 -0.000320328 -1.19233e-06
-0.000320328 0.000232003 -3.63335e-06
-1.19233e-06 -3.63335e-06 8.60877e-05
0.0012457 -0.000265949 -5.51932e-06
-0.000265949 3.69621e-05 6.72684e-08
-5.51932e-06 6.72684e-08 -0.000197184
0.00164654 -0.00028945 -4.68382e-07
-0.00028945 0.000118795 3.63511e-07
-4.68382e-07 3.63511e-07 -6.11434e-05
0.00176309 -0.000253831 -2.02823e-07
-0.000253831 0.000123636 -4.73003e-06
-2.02823e-07 -4.73003e-06 -9.1164e-06
0.00159451 -0.000202715 -1.07393e-06
-0.000202715 6.39174e-05 -3.20926e-06
-1.07393e-06 -3.20926e-06 -6.80468e-05
0.00161054 -0.000229098 -4.16699e-07
-0.000229098 0.000153799 -2.34059e-06
-4.16699e-07 -2.34059e-06 -2.33214e-05
0.00151577 -0.000230171 2.24182e-07
-0.000230171 6.93263e-05 1.40034e-06
2.24182e-07 1.40034e-06 -9.31676e-05
0.00127502 -0.000226369 -2.12025e-06
-0.000226369 5.32283e-05 1.231e-06
-2.12025e-06 1.231e-06 -0.000142959
0.00146839 -0.000250187 2.57722e-06
-0.000250187 0.000126462 -1.19394e-06
2.57722e-06 -1.19394e-06 -7.77298e-05
0.00159227 -0.00026908 1.50109e-06
-0.00026908 0.00015767 1.88069e-06
1.50109e-06 1.88069e-06 -4.09097e-05
0.00112295 -0.000196895 1.292e-06
-0.000196895 0.000147626 3.29671e-06
1.292e-06 3.29671e-06 -3.29746e-05
0.00110011 -0.000212218 1.89156e-06
-0.000212218 7.52773e-05 -8.67194e-07
1.89156e-06 -8.67194e-07 -0.000120681
0.000554686 -0.000193978 -7.81689e-07
-0.000193978 -0.000270952 -4.27746e-06
-7.81689e-07 -4.27746e-06 -0.000497079
0.000905127 -0.000148073 -1.35747e-06
-0.000148073 0.000106549 2.46201e-07
-1.35747e-06 2.46201e-07 -3.76861e-05
0.00108454 -0.000180384 -1.74266e-07
-0.000180384 0.000196637 -1.32552e-06
-1.74266e-07 -1.32552e-06 3.38077e-05
0.000791367 -0.000165589 -1.85753e-06
-0.000165589 2.06444e-05 -5.09534e-06
-1.85753e-06 -5.09534e-06 -0.000135588
0.000722359 -2.52045e-05 -1.71207e-08
-2.52045e-05 4.70281e-05 3.68911e-06
-1.71207e-08 3.68911e-06 -4.88174e-05
0.000917085 -0.000105327 1.00491e-06
-0.000105327 0.000157989 4.80491e-07
1.00491e-06 4.80491e-07 2.28381e-05
0.00066864 -0.000114801 -1.47101e-06
-0.000114801 2.21066e-05 1.59927e-06
-1.47101e-06 1.59927e-06 -0.000130724
0.000499047 7.60783e-05 1.51488e-06
7.60783e-05 -6.006e-05 5.541e-06
1.51488e-06 5.541e-06 -9.55007e-05
0.000684346 5.54285e-06 -5.84197e-07
5.54285e-06 3.23182e-05 -4.53644e-07
-5.84197e-07 -4.53644e-07 -4.65351e-05
0.000916487 -5.92936e-05 -2.0085e-07
-5.92936e-05 0.000185181 -1.76132e-06
-2.0085e-07 -1.76132e-06 6.2718e-05
0.00232773 0.000105468 -9.21676e-06
0.000105468 0.000976778 1.31019e-06
-9.21676e-06 1.31019e-06 0.000978637
0.000602497 6.81983e-05 -9.62448e-08
6.81983e-05 -1.2717e-05 -1.17585e-07
-9.62448e-08 -1.17585e-07 -3.94702e-05
0.000697203 1.96944e-05 1.32279e-06
1.96944e-05 3.0115e-05 -2.69997e-06
1.32279e-06 -2.69997e-06 -2.96037e-05
0.00226555 8.56881e-05 1.87564e-06
8.56881e-05 0.000931764 1.56904e-07
1.87564e-06 1.56904e-07 0.000939133
0.000636118 6.03167e-05 1.06647e-07
6.03167e-05 -5.29013e-06 -4.0656e-06
1.06647e-07 -4.0656e-06 -2.6464e-05
0.00226605 7.77382e-05 2.72162e-05
7.77382e-05 0.000924977 -3.18049e-06
2.72162e-05 -3.18049e-06 0.000934373
0.000872096 6.68466e-05 -6.05314e-07
6.68466e-05 0.0001309 1.14989e-08
-6.05314e-07 1.14989e-08 3.12769e-05
0.000776689 1.93728e-05 -9.20127e-08
1.93728e-05 7.33796e-05 -2.87588e-07
-9.20127e-08 -2.87588e-07 -1.8535e-05
0.000783915 1.64263e-05 -2.52728e-07
1.64263e-05 8.65561e-05 -1.88624e-06
-2.52728e-07 -1.88624e-06 -6.93601e-06
0.000691666 -2.53659e-05 -1.1624e-06
-2.53659e-05 9.47718e-06 -2.64702e-06
-1.1624e-06 -2.64702e-06 -4.59734e-05
0.000748042 8.20655e-06 6.80897e-07
8.20655e-06 5.8123e-05 1.16436e-08
6.80897e-07 1.16436e-08 -2.56645e-05
0.000716778 1.24114e-05 8.72118e-07
1.24114e-05 4.30451e-05 7.0375e-07
8.72118e-07 7.0375e-07 -4.76759e-05
0.00061066 -4.70576e-05 -4.54699e-07
-4.70576e-05 -3.64631e-05 -4.53264e-06
-4.54699e-07 -4.53264e-06 -5.73953e-05
0.000687613 -1.36137e-05 -1.39764e-07
-1.36137e-05 3.20889e-06 -2.66678e-08
-1.39764e-07 -2.66678e-08 -4.93405e-05
0.000753042 2.2199e-05 1.37317e-06
2.2199e-05 5.4047e-05 1.05153e-06
1.37317e-06 1.05153e-06 -2.31758e-05
0.0024514 -6.76126e-05 -2.80574e-05
-6.76126e-05 0.00101754 -3.98603e-06
-2.80574e-05 -3.98603e-06 0.00102851
0.000616741 -3.83015e-05 -3.05356e-07
-3.83015e-05 -4.04864e-05 4.73926e-09
-3.05356e-07 4.73926e-09 -5.82447e-05
0.000694565 -3.74578e-06 9.487e-07
-3.74578e-06 5.8658e-06 2.23736e-06
9.487e-07 2.23736e-06 -4.4279e-05
0.00235127 -5.59365e-05 -3.24165e-06
-5.59365e-05 0.000953418 1.67904e-07
-3.24165e-06 1.67904e-07 0.000966958
0.000632275 -3.12002e-05 1.679e-07
-3.12002e-05 -3.76833e-05 4.0863e-06
1.679e-07 4.0863e-06 -5.2202e-05
0.00224643 -4.34106e-05 1.68917e-05
-4.34106e-05 0.000887358 4.44762e-06
1.68917e-05 4.44762e-06 0.000903498
-0.00313977 -5.79983e-05 2.95779e-05
-5.79983e-05 7.7705e-05 3.5145e-05
2.95779e-05 3.5145e-05 -0.00112143
0.00232964 -5.73102e-05 1.84832e-06
-5.73102e-05 0.000768101 1.16405e-05
1.84832e-06 1.16405e-05 0.000105261
0.00115569 -4.36589e-05 -5.0431e-06
-4.36589e-05 0.000247407 -1.10682e-05
-5.0431e-06 -1.10682e-05 -4.9681e-05
0.000721096 3.59821e-05 -6.92506e-07
3.59821e-05 5.09784e-05 5.22478e-07
-6.92506e-07 5.22478e-07 -4.69993e-05
0.00125228 0.000166427 -4.52956e-07
0.000166427 0.000364132 6.14003e-07
-4.52956e-07 6.14003e-07 0.000237268
0.000773007 3.6353e-05 -1.61026e-06
3.6353e-05 8.83113e-05 -1.59488e-07
-1.61026e-06 -1.59488e-07 -1.86842e-05
0.000944593 -1.00726e-05 5.66941e-07
-1.00726e-05 0.000159618 -1.45395e-07
5.66941e-07 -1.45395e-07 7.46043e-05
0.001001 6.18781e-05 1.39492e-06
6.18781e-05 0.000201377 4.58429e-07
1.39492e-06 4.58429e-07 0.000106158
0.000632752 7.53617e-06 1.91684e-07
7.53617e-06 -4.91373e-06 1.80895e-06
1.91684e-07 1.80895e-06 -9.75265e-05
0.000687442 2.05071e-05 -9.86028e-07
2.05071e-05 3.46795e-05 4.84682e-08
-9.86028e-07 4.84682e-08 -6.66607e-05
0.000778279 2.67696e-05 -2.15004e-08
2.67696e-05 8.3514e-05 -3.16455e-07
-2.15004e-08 -3.16455e-07 -2.00082e-05
0.000930921 6.78918e-05 6.74982e-07
6.78918e-05 0.000191797 -1.68991e-06
6.74982e-07 -1.68991e-06 6.80076e-05
0.000667407 0.000113495 3.82007e-06
0.000113495 -9.68261e-06 -5.74227e-06
3.82007e-06 -5.74227e-06 -0.00010439
0.000799299 4.80523e-05 3.11954e-07
4.80523e-05 9.76427e-05 -6.17492e-07
3.11954e-07 -6.17492e-07 -7.05765e-07
0.000887092 6.44442e-05 7.42801e-07
6.44442e-05 0.000179046 1.4676e-06
7.42801e-07 1.4676e-06 8.5914e-05
-0.00490626 -0.000489225 -0.00014603
-0.000489225 -0.00177796 2.14892e-05
-0.00014603 2.14892e-05 -0.0022497
-0.00154843 -0.000376478 7.05573e-05
-0.000376478 0.000323729 3.00023e-05
7.05573e-05 3.00023e-05 -0.000330583
0.00272459 6.14735e-05 -8.06937e-05
6.14735e-05 0.000973109 -6.59606e-05
-8.06937e-05 -6.59606e-05 -0.000364146
-0.00609743 -0.00106182 0.000141856
-0.00106182 -0.00354442 0.000149683
0.000141856 0.000149683 -0.00164489
0.00778816 -0.000814532 -2.13135e-05
-0.000814532 0.00229391 3.04934e-05
-2.13135e-05 3.04934e-05 0.00241583
0.000569149 0.000623555 3.19946e-05
0.000623555 -3.07098e-05 -2.5251e-05
3.19946e-05 -2.5251e-05 -0.00286014
0.0035837 -0.000112527 -0.000142242
-0.000112527 0.000743032 6.68934e-05
-0.000142242 6.68934e-05 5.61259e-05
0.00289405 0.000210222 -2.42309e-05
0.000210222 0.000463822 1.08173e-05
-2.42309e-05 1.08173e-05 0.000143113
0.00653662 -0.00101132 -5.17126e-05
-0.00101132 0.00311313 3.47671e-05
-5.17126e-05 3.47671e-05 0.00337753
0.00139554 0.000330369 9.07422e-06
0.000330369 0.000710027 -9.35823e-09
9.07422e-06 -9.35823e-09 -0.00167871
0.00252554 0.000515952 -0.000105924
0.000515952 0.000755679 -6.94071e-05
-0.000105924 -6.94071e-05 9.32875e-05
0.00353841 0.000744583 -0.00018063
0.000744583 0.000751976 -7.3317e-05
-0.00018063 -7.3317e-05 -0.00133534
0.00202112 0.000425275 1.10311e-05
0.000425275 0.000490255 -1.44656e-05
1.10311e-05 -1.44656e-05 0.000319342
0.000755098 0.000183451 -4.43482e-06
0.000183451 8.31306e-05 1.35871e-06
-4.43482e-06 1.35871e-06 3.40059e-06
0.00105985 5.17472e-05 3.28986e-09
5.17472e-05 0.000274493 -2.26063e-06
3.28986e-09 -2.26063e-06 0.000201456
-0.000410508 0.000150642 -3.11497e-05
0.000150642 -0.000179097 -2.71719e-05
-3.11497e-05 -2.71719e-05 -0.00058328
0.00204296 0.000217213 -8.17566e-06
0.000217213 0.00088442 -8.36277e-06
-8.17566e-06 -8.36277e-06 0.000765285
0.00116856 0.000372102 8.00768e-06
0.000372102 0.000125972 -2.38216e-06
8.00768e-06 -2.38216e-06 -7.72788e-05
0.00269181 0.000573591 7.67277e-05
0.000573591 0.000297771 3.38028e-05
7.67277e-05 3.38028e-05 0.00026177
-0.00393028 -3.61077e-05 -0.000187635
-3.61077e-05 -0.00225596 -1.01856e-05
-0.000187635 -1.01856e-05 -0.00177751
-0.00110744 2.59501e-05 6.1705e-05
2.59501e-05 0.00124531 1.2127e-06
6.1705e-05 1.2127e-06 0.000132454
0.00166687 -4.56548e-05 -6.53274e-05
-4.56548e-05 0.000514906 9.19793e-06
-6.53274e-05 9.19793e-06 2.45302e-05
0.00250732 -0.000196167 -4.71595e-05
-0.000196167 0.000564014 -2.58919e-05
-4.71595e-05 -2.58919e-05 0.000839324
0.00300525 -0.000749835 -3.91501e-05
-0.000749835 0.000506004 4.1547e-06
-3.91501e-05 4.1547e-06 -0.000249814
0.00181761 0.000112286 -4.3001e-05
0.000112286 0.0022013 2.78606e-05
-4.3001e-05 2.78606e-05 0.00166411
-0.00025644 -0.000338934 9.80643e-05
-0.000338934 -0.000676943 -8.66789e-05
9.80643e-05 -8.66789e-05 -0.0029813
0.00867471 0.000603496 -8.79496e-06
0.000603496 0.00425054 5.19343e-06
-8.79496e-06 5.19343e-06 0.00400562
0.00213194 -0.000432801 -1.02144e-05
-0.000432801 0.000394886 3.67223e-06
-1.02144e-05 3.67223e-06 0.000375001
-0.00110384 0.000341741 1.39178e-05
0.000341741 -0.000482425 -5.57229e-06
1.39178e-05 -5.57229e-06 -0.000775751
0.00373162 1.22178e-05 -2.26645e-05
1.22178e-05 0.000401801 3.25356e-05
-2.26645e-05 3.25356e-05 -0.00151737
0.00578784 -0.000826296 -3.34148e-05
-0.000826296 0.00144728 1.0974e-05
-3.34148e-05 1.0974e-05 0.000596306
-0.000706194 -0.0001825 2.68224e-05
-0.0001825 -0.000869165 -7.5061e-06
2.68224e-05 -7.5061e-06 -0.00109894
0.00824134 -0.000251498 4.27207e-05
-0.000251498 0.00221212 -1.76561e-05
4.27207e-05 -1.76561e-05 0.00111599
0.00369929 -0.000345874 3.88338e-05
-0.000345874 0.000391715 -2.30755e-05
3.88338e-05 -2.30755e-05 -0.000127418
-0.000484593 -0.000171088 -2.15436e-05
-0.000171088 -0.000895369 7.27134e-06
-2.15436e-05 7.27134e-06 -0.000820015
0.00100142 -0.000263926 -3.09776e-06
-0.000263926 -0.000314404 -9.3472e-07
-3.09776e-06 -9.3472e-07 -0.00026728
0.00243395 -0.000353297 1.73956e-05
-0.000353297 0.000284192 -1.40218e-05
1.73956e-05 -1.40218e-05 0.000316546
0.00127616 -0.000324807 -1.12118e-05
-0.000324807 1.80491e-06 -2.39669e-06
-1.12118e-05 -2.39669e-06 -0.000195909
0.00165447 -0.000360724 -7.46292e-07
-0.000360724 2.17382e-05 1.63952e-07
-7.46292e-07 1.63952e-07 -0.000116877
0.00208753 -0.000333198 -3.85874e-06
-0.000333198 0.000161741 -1.41438e-07
-3.85874e-06 -1.41438e-07 6.955e-05
0.00136468 -0.00031438 1.35244e-07
-0.00031438 3.29937e-05 1.6964e-06
1.35244e-07 1.6964e-06 -0.000165076
0.00178796 -0.000308587 -2.31317e-06
-0.000308587 0.000120107 -6.17002e-07
-2.31317e-06 -6.17002e-07 -2.55555e-05
0.00185772 -0.000253183 -2.93772e-06
-0.000253183 7.93536e-05 -1.39785e-06
-2.93772e-06 -1.39785e-06 -2.02283e-05
0.00152991 -0.000279296 6.18064e-07
-0.000279296 5.4687e-05 3.70578e-06
6.18064e-07 3.70578e-06 -0.00012367
0.0016999 -0.000246388 -1.25613e-07
-0.000246388 9.42096e-05 2.78661e-07
-1.25613e-07 2.78661e-07 -3.70055e-05
0.00176294 -0.000207787 -2.71136e-07
-0.000207787 9.95553e-05 -2.00817e-06
-2.71136e-07 -2.00817e-06 -2.76883e-07
0.00178329 -0.000187349 -1.75212e-07
-0.000187349 0.000160028 -1.11019e-06
-1.75212e-07 -1.11019e-06 4.88924e-05
0.00159207 -0.000199761 -2.28248e-06
-0.000199761 6.28749e-05 2.45952e-06
-2.28248e-06 2.45952e-06 -6.55447e-05
0.00171228 -0.000201443 7.18457e-07
-0.000201443 0.000171444 -5.08432e-06
7.18457e-07 -5.08432e-06 2.64683e-05
0.00168138 -0.000224366 -3.42693e-06
-0.000224366 0.000219209 -1.38232e-06
-3.42693e-06 -1.38232e-06 4.39506e-05
0.00163747 -0.000230459 1.46045e-06
-0.000230459 0.000167529 2.46448e-07
1.46045e-06 2.46448e-07 -9.98077e-06
0.00143315 -0.000221731 -2.17513e-07
-0.000221731 2.31371e-05 5.79537e-06
-2.17513e-07 5.79537e-06 -0.000137395
0.00109905 -0.00019992 -4.70577e-06
-0.00019992 1.64264e-05 3.26003e-06
-4.70577e-06 3.26003e-06 -0.00016784
0.00130786 -0.000226558 9.18967e-07
-0.000226558 7.30875e-05 -2.46463e-07
9.18967e-07 -2.46463e-07 -0.000121621
0.00119172 -0.000228247 2.26185e-06
-0.000228247 -2.28922e-05 -8.75315e-07
2.26185e-06 -8.75315e-07 -0.000221985
0.00102306 -0.000168891 -1.46585e-06
-0.000168891 0.000126658 2.23064e-06
-1.46585e-06 2.23064e-06 -3.22512e-05
0.00120224 -0.000201036 6.71676e-07
-0.000201036 0.000186257 1.68854e-07
6.71676e-07 1.68854e-07 5.73203e-06
0.000625636 -0.000176354 -2.38043e-07
-0.000176354 -0.000178902 -5.38505e-06
-2.38043e-07 -5.38505e-06 -0.000369426
0.0007528 -8.60465e-05 -3.80481e-06
-8.60465e-05 4.26492e-05 3.07899e-06
-3.80481e-06 3.07899e-06 -6.66798e-05
0.00103616 -0.000159325 3.32347e-08
-0.000159325 0.000177187 -4.66743e-07
3.32347e-08 -4.66743e-07 3.1406e-05
0.00115181 -0.000184527 -1.03017e-06
-0.000184527 0.000229644 -2.04164e-06
-1.03017e-06 -2.04164e-06 6.66157e-05
0.00049112 5.11438e-05 1.28884e-06
5.11438e-05 -6.99527e-05 7.29421e-06
1.28884e-06 7.29421e-06 -0.000111736
0.000748151 -4.3463e-05 3.89129e-07
-4.3463e-05 6.382e-05 3.04465e-07
3.89129e-07 3.04465e-07 -3.61655e-05
0.00107392 -0.000117379 1.02654e-06
-0.000117379 0.000246491 -8.16246e-08
1.02654e-06 -8.16246e-08 0.000108466
0.00255511 0.00010993 -3.93155e-05
0.00010993 0.00110997 2.35264e-06
-3.93155e-05 2.35264e-06 0.00111072
0.000573835 6.74479e-05 -5.34388e-10
6.74479e-05 -2.1085e-05 -3.29651e-07
-5.34388e-10 -3.29651e-07 -5.51258e-05
0.00075875 -3.54008e-05 2.40539e-06
-3.54008e-05 7.16578e-05 -3.78555e-06
2.40539e-06 -3.78555e-06 -8.48202e-06
0.00163465 7.96824e-05 1.65632e-05
7.96824e-05 0.000578851 -2.93451e-07
1.65632e-05 -2.93451e-07 0.000579532
0.000636102 7.11259e-05 -1.74991e-06
7.11259e-05 7.59749e-06 -5.04769e-06
-1.74991e-06 -5.04769e-06 -2.00221e-05
0.00234913 8.81179e-05 3.26346e-05
8.81179e-05 0.000980182 -2.77028e-06
3.26346e-05 -2.77028e-06 0.000986976
0.000894311 8.24818e-05 8.57135e-07
8.24818e-05 0.000139059 4.3208e-07
8.57135e-07 4.3208e-07 3.33837e-05
0.000747138 2.80676e-05 -2.27932e-07
2.80676e-05 5.54159e-05 4.86428e-07
-2.27932e-07 4.86428e-07 -3.78039e-05
0.000741205 -1.22903e-05 8.50213e-08
-1.22903e-05 6.01791e-05 -1.73271e-06
8.50213e-08 -1.73271e-06 -3.40704e-05
0.000866459 4.08921e-05 5.87603e-07
4.08921e-05 0.000125265 6.25425e-07
5.87603e-07 6.25425e-07 3.11118e-05
0.000745604 -1.00717e-05 3.34252e-07
-1.00717e-05 5.64365e-05 -2.1517e-08
3.34252e-07 -2.1517e-08 -3.00796e-05
0.000678339 -2.60181e-05 -1.15387e-06
-2.60181e-05 7.07288e-06 -3.05845e-06
-1.15387e-06 -3.05845e-06 -5.27706e-05
0.000608748 -5.56748e-05 -1.81224e-07
-5.56748e-05 -2.85128e-05 -4.88774e-06
-1.81224e-07 -4.88774e-06 -5.25718e-05
0.000680793 -2.19367e-05 1.54255e-07
-2.19367e-05 3.82852e-06 -7.08764e-08
1.54255e-07 -7.08764e-08 -5.16248e-05
0.000711238 -2.49794e-05 1.07092e-07
-2.49794e-05 2.81799e-05 1.26859e-06
1.07092e-07 1.26859e-06 -4.82095e-05
0.00249619 -7.78166e-05 -3.32177e-05
-7.78166e-05 0.00104991 -3.60308e-06
-3.32177e-05 -3.60308e-06 0.0010588
0.000605558 -4.48392e-05 -2.98989e-07
-4.48392e-05 -3.9839e-05 3.79871e-08
-2.98989e-07 3.79871e-08 -6.04217e-05
0.000686222 -5.94216e-06 1.74217e-06
-5.94216e-06 3.03414e-06 2.35331e-06
1.74217e-06 2.35331e-06 -4.96822e-05
0.00243266 -6.6997e-05 -3.09911e-06
-6.6997e-05 0.00100618 1.93647e-07
-3.09911e-06 1.93647e-07 0.00101735
0.000618948 -3.72459e-05 4.06305e-07
-3.72459e-05 -3.93937e-05 4.29221e-06
4.06305e-07 4.29221e-06 -5.70084e-05
0.00232861 -5.50717e-05 2.08538e-05
-5.50717e-05 0.000939711 4.29672e-06
2.08538e-05 4.29672e-06 0.000953557
0.000731933 0.000216338 -2.31705e-05
0.000216338 0.00109118 4.58978e-05
-2.31705e-05 4.58978e-05 0.000360621
-0.00106439 -0.000127242 2.64605e-06
-0.000127242 0.000848093 1.01569e-05
2.64605e-06 1.01569e-05 -0.000272228
0.00225364 -7.70251e-05 -6.55816e-05
-7.70251e-05 0.000828725 -1.33883e-05
-6.55816e-05 -1.33883e-05 0.000167926
0.000653292 6.10152e-06 1.15508e-06
6.10152e-06 1.0836e-05 1.40142e-07
1.15508e-06 1.40142e-07 -8.3513e-05
0.000743078 1.47511e-05 4.89531e-07
1.47511e-05 6.96098e-05 6.41853e-07
4.89531e-07 6.41853e-07 -3.62107e-05
0.00102144 0.000143652 -6.42747e-07
0.000143652 0.000240426 4.00087e-07
-6.42747e-07 4.00087e-07 0.000117916
0.0012443 0.000189362 1.21829e-06
0.000189362 0.000326992 -4.39719e-07
1.21829e-06 -4.39719e-07 0.000180633
0.000929529 0.000105532 -3.01095e-06
0.000105532 0.000202055 -1.261e-06
-3.01095e-06 -1.261e-06 7.16741e-05
0.000846329 6.53274e-05 1.3804e-06
6.53274e-05 0.000123464 1.353e-06
1.3804e-06 1.353e-06 2.03628e-05
0.000755394 3.36242e-05 1.4554e-06
3.36242e-05 7.09179e-05 1.40167e-06
1.4554e-06 1.40167e-06 -3.24777e-05
0.000700966 8.07814e-05 -1.7108e-06
8.07814e-05 6.23307e-05 -1.65817e-06
-1.7108e-06 -1.65817e-06 -5.6111e-05
-0.000290394 7.0834e-05 -6.86391e-07
7.0834e-05 -0.000504489 4.92069e-08
-6.86391e-07 4.92069e-08 -0.00063484
0.00107701 0.000170704 2.36167e-07
0.000170704 0.00018984 -4.29871e-06
2.36167e-07 -4.29871e-06 7.88629e-05
0.00219379 0.000373259 3.88487e-06
0.000373259 0.000513271 -1.16916e-05
3.88487e-06 -1.16916e-05 0.000337606
0.000686629 0.000114016 -3.04624e-06
0.000114016 2.61429e-05 -5.76478e-07
-3.04624e-06 -5.76478e-07 -6.75219e-05
0.000679011 2.19777e-05 5.008e-07
2.19777e-05 4.30308e-05 -1.11131e-06
5.008e-07 -1.11131e-06 -4.31126e-05
0.0117239 0.000196272 -6.73003e-05
0.000196272 0.00376677 8.36955e-06
-6.73003e-05 8.36955e-06 0.00245196
-0.00153051 -0.000411769 -8.9226e-05
-0.000411769 0.000159747 -2.1377e-05
-8.9226e-05 -2.1377e-05 -0.000510338
0.00014268 -0.000483955 -2.76582e-06
-0.000483955 0.000708729 -3.35457e-05
-2.76582e-06 -3.35457e-05 1.26991e-05
-0.003964 -0.000447345 1.24404e-05
-0.000447345 -0.0017479 5.66491e-05
1.24404e-05 5.66491e-05 -0.00153325
0.00927614 0.000129762 6.54275e-05
0.000129762 0.00454165 -1.38705e-05
6.54275e-05 -1.38705e-05 0.00162868
0.00214547 0.000269035 -2.82673e-05
0.000269035 0.000277264 -2.4378e-06
-2.82673e-05 -2.4378e-06 4.88796e-05
0.00165425 0.000482582 -3.86936e-05
0.000482582 0.000197066 -1.49433e-05
-3.86936e-05 -1.49433e-05 -0.000344056
0.0083233 5.66175e-05 4.13115e-05
5.66175e-05 0.00294019 1.3908e-05
4.13115e-05 1.3908e-05 0.00127002
0.00440209 0.000733683 6.2362e-06
0.000733683 0.000693257 -2.84123e-05
6.2362e-06 -2.84123e-05 6.46661e-05
0.00203997 0.000480649 2.15824e-06
0.000480649 0.000300405 9.48154e-06
2.15824e-06 9.48154e-06 0.000139695
0.000913052 0.00031277 4.04855e-06
0.00031277 9.99005e-06 -3.89409e-06
4.04855e-06 -3.89409e-06 -0.000160653
0.00105229 0.000181985 -1.36867e-05
0.000181985 0.000248123 8.92012e-06
-1.36867e-05 8.92012e-06 0.000171049
0.00175376 0.00043292 -2.55878e-05
0.00043292 0.00031297 -1.51859e-05
-2.55878e-05 -1.51859e-05 0.000127928
0.00190125 0.00052388 -1.52374e-05
0.00052388 -6.85706e-05 1.44057e-05
-1.52374e-05 1.44057e-05 -0.000130112
0.000580175 -0.000175974 -2.70047e-05
-0.000175974 -0.00215585 -4.70865e-06
-2.70047e-05 -4.70865e-06 -0.00257363
0.00229068 -0.00018042 3.57527e-06
-0.00018042 0.00133942 -9.07187e-06
3.57527e-06 -9.07187e-06 0.0012878
-0.0029086 1.19989e-06 3.95822e-05
1.19989e-06 0.000477435 -4.24227e-06
3.95822e-05 -4.24227e-06 -0.000802633
0.00266284 -0.000522211 -4.92029e-05
-0.000522211 0.000587703 6.47762e-06
-4.92029e-05 6.47762e-06 0.000502514
0.00375776 -0.000758162 2.80769e-06
-0.000758162 0.000873038 -1.3221e-05
2.80769e-06 -1.3221e-05 -0.00032631
0.00104445 -0.000185325 6.63859e-05
-0.000185325 0.00105267 1.72352e-05
6.63859e-05 1.72352e-05 0.000590727
0.00986278 6.95442e-05 -7.38402e-05
6.95442e-05 0.00359943 3.66198e-05
-7.38402e-05 3.66198e-05 0.00185908
0.000690056 -0.000253813 -1.36206e-05
-0.000253813 -0.00027654 -1.33696e-06
-1.36206e-05 -1.33696e-06 -0.000404573
0.00707545 7.26209e-05 -8.54018e-06
7.26209e-05 0.0015835 2.34779e-05
-8.54018e-06 2.34779e-05 0.00067778
0.00436798 -0.000438487 5.55871e-05
-0.000438487 0.000435686 -3.1388e-07
5.55871e-05 -3.1388e-07 -0.000321333
0.00182566 -0.00025938 2.05646e-05
-0.00025938 0.000329391 -4.5838e-06
2.05646e-05 -4.5838e-06 5.74417e-05
0.00317216 -0.000118643 -7.19493e-05
-0.000118643 0.000456814 -1.2087e-05
-7.19493e-05 -1.2087e-05 0.000161076
-0.000405178 -0.000195588 -1.97309e-05
-0.000195588 -0.00107178 5.74658e-06
-1.97309e-05 5.74658e-06 -0.000995475
0.00150954 -0.00031795 4.13218e-07
-0.00031795 -0.000185475 -6.51616e-07
4.13218e-07 -6.51616e-07 -0.000162556
0.00191263 -0.000237767 7.41346e-06
-0.000237767 -4.50066e-05 -4.57732e-06
7.41346e-06 -4.57732e-06 -1.73992e-05
0.00140941 -0.000345283 -1.04299e-06
-0.000345283 -0.000104208 7.19365e-07
-1.04299e-06 7.19365e-07 -0.000237469
0.00179191 -0.000307022 -1.13121e-06
-0.000307022 2.76492e-05 -1.11651e-07
-1.13121e-06 -1.11651e-07 -6.18288e-05
0.00191435 -0.000222908 -1.74994e-06
-0.000222908 2.59732e-05 1.22158e-06
-1.74994e-06 1.22158e-06 -1.92374e-05
0.00148838 -0.000291034 -2.55925e-06
-0.000291034 -3.80425e-05 2.7637e-06
-2.55925e-06 2.7637e-06 -0.000182856
0.00180587 -0.000250349 3.75678e-07
-0.000250349 5.06958e-05 1.26198e-06
3.75678e-07 1.26198e-06 -4.85461e-05
0.00178076 -0.000208258 -3.49707e-07
-0.000208258 4.80858e-05 7.62985e-07
-3.49707e-07 7.62985e-07 -3.03728e-05
0.00163982 -0.000239526 1.52256e-06
-0.000239526 6.57246e-05 4.58025e-06
1.52256e-06 4.58025e-06 -6.40106e-05
0.0017209 -0.000207791 6.04922e-08
-0.000207791 7.68354e-05 1.14135e-06
6.04922e-08 1.14135e-06 -2.39464e-05
0.00193299 -0.000197866 1.75241e-06
-0.000197866 0.000214729 -3.94072e-07
1.75241e-06 -3.94072e-07 0.000120503
0.00170636 -0.000187137 -3.63459e-06
-0.000187137 0.000112105 3.0342e-06
-3.63459e-06 3.0342e-06 3.38903e-06
0.00173996 -0.000186405 2.8755e-06
-0.000186405 0.000166861 -3.03576e-06
2.8755e-06 -3.03576e-06 4.20446e-05
0.00158824 -0.000197244 -4.05427e-07
-0.000197244 6.06912e-05 6.94443e-06
-4.05427e-07 6.94443e-06 -6.42934e-05
0.001699 -0.000201621 8.24118e-07
-0.000201621 0.000164049 -8.16942e-07
8.24118e-07 -8.16942e-07 1.87987e-05
0.00162109 -0.00019141 -1.52855e-06
-0.00019141 0.000162439 -2.39383e-06
-1.52855e-06 -2.39383e-06 9.23028e-06
0.00135268 -0.000197508 -6.83831e-06
-0.000197508 8.28945e-05 1.05107e-07
-6.83831e-06 1.05107e-07 -8.49154e-05
0.00167021 -0.000223657 6.2574e-07
-0.000223657 0.000214128 -3.87225e-07
6.2574e-07 -3.87225e-07 3.85154e-05
0.00164515 -0.000231064 1.61277e-06
-0.000231064 0.000171612 2.97319e-06
1.61277e-06 2.97319e-06 -6.2488e-06
0.00126217 -0.000193192 -4.38699e-06
-0.000193192 0.000180828 3.6304e-06
-4.38699e-06 3.6304e-06 1.31922e-05
0.0011862 -0.00020562 -1.09711e-06
-0.00020562 6.53324e-05 1.24606e-06
-1.09711e-06 1.24606e-06 -0.000119536
0.0012825 -0.000223078 3.56426e-06
-0.000223078 6.14057e-05 -1.33247e-06
3.56426e-06 -1.33247e-06 -0.000131515
0.000734403 -0.00010578 -4.31977e-06
-0.00010578 1.6942e-06 3.66149e-06
-4.31977e-06 3.66149e-06 -0.000116881
0.00109093 -0.000174477 4.24935e-07
-0.000174477 0.000161354 -3.58612e-07
4.24935e-07 -3.58612e-07 1.72524e-06
0.00133869 -0.000209464 1.22954e-06
-0.000209464 0.000256783 -3.13509e-06
1.22954e-06 -3.13509e-06 7.57626e-05
0.000489822 -5.32298e-06 -5.53717e-06
-5.32298e-06 -8.96469e-05 8.25527e-06
-5.53717e-06 8.25527e-06 -0.000136071
0.000813995 -9.57669e-05 -4.99052e-08
-9.57669e-05 7.64638e-05 1.90556e-07
-4.99052e-08 1.90556e-07 -3.42105e-05
0.00112267 -0.000162265 1.42935e-06
-0.000162265 0.000222339 -1.24768e-06
1.42935e-06 -1.24768e-06 7.65935e-05
0.00294358 0.000127385 -4.97682e-05
0.000127385 0.00133311 2.26424e-06
-4.97682e-05 2.26424e-06 0.00132924
0.000569706 3.1519e-05 3.70788e-07
3.1519e-05 -3.08949e-05 -3.91854e-07
3.70788e-07 -3.91854e-07 -7.1183e-05
0.000803682 -8.24125e-05 3.45607e-06
-8.24125e-05 9.2503e-05 -3.1328e-06
3.45607e-06 -3.1328e-06 -8.98534e-06
0.0026632 0.000110392 3.03345e-06
0.000110392 0.00116993 2.42874e-07
3.03345e-06 2.42874e-07 0.00117066
0.000642312 5.53421e-05 1.22543e-06
5.53421e-05 1.45102e-05 -5.97544e-06
1.22543e-06 -5.97544e-06 -1.83907e-05
0.0024938 9.81768e-05 4.07657e-05
9.81768e-05 0.00106855 -2.43515e-06
4.07657e-05 -2.43515e-06 0.00107277
0.000948826 0.000155898 8.95333e-07
0.000155898 0.000151541 -1.2896e-06
8.95333e-07 -1.2896e-06 1.55419e-05
0.000826995 0.000111203 6.40121e-07
0.000111203 0.000107983 -6.05933e-08
6.40121e-07 -6.05933e-08 -3.10669e-06
0.000641713 1.48277e-06 -7.08141e-07
1.48277e-06 1.58356e-06 -9.83201e-07
-7.08141e-07 -9.83201e-07 -0.000100161
0.000613451 -3.26656e-06 2.72091e-07
-3.26656e-06 -2.08798e-05 8.27528e-07
2.72091e-07 8.27528e-07 -0.000110863
0.000681477 -2.56641e-05 -5.38282e-09
-2.56641e-05 2.2726e-05 2.10382e-07
-5.38282e-09 2.10382e-07 -6.90354e-05
0.000661774 -2.49518e-05 -1.20271e-06
-2.49518e-05 2.38534e-06 -3.30851e-06
-1.20271e-06 -3.30851e-06 -6.50875e-05
0.000697175 -2.76697e-05 8.38473e-08
-2.76697e-05 2.46767e-05 1.6284e-06
8.38473e-08 1.6284e-06 -5.77644e-05
0.0006612 -3.02739e-05 3.43015e-07
-3.02739e-05 -1.36658e-06 -1.91152e-07
3.43015e-07 -1.91152e-07 -6.14163e-05
0.00060387 -6.59254e-05 6.57384e-07
-6.59254e-05 -2.01569e-05 -5.42874e-06
6.57384e-07 -5.42874e-06 -4.8275e-05
0.0025297 -8.78299e-05 -3.78378e-05
-8.78299e-05 0.00107617 -3.14365e-06
-3.78378e-05 -3.14365e-06 0.00108297
0.000597543 -5.29684e-05 -5.30224e-09
-5.29684e-05 -3.57284e-05 3.06653e-08
-5.30224e-09 3.06653e-08 -5.92327e-05
0.000661554 -1.95087e-05 1.95974e-06
-1.95087e-05 -6.49075e-06 2.57085e-06
1.95974e-06 2.57085e-06 -6.19039e-05
0.00248892 -7.73614e-05 -2.80775e-06
-7.73614e-05 0.00104515 2.13936e-07
-2.80775e-06 2.13936e-07 0.0010541
0.00060403 -4.30529e-05 6.65328e-07
-4.30529e-05 -4.10627e-05 4.51113e-06
6.65328e-07 4.51113e-06 -6.13953e-05
0.00240653 -6.61836e-05 2.57659e-05
-6.61836e-05 0.00099054 4.09483e-06
2.57659e-05 4.09483e-06 0.00100197
0.00981081 0.000311881 0.000127562
0.000311881 0.00282728 4.83798e-05
0.000127562 4.83798e-05 0.00190117
-0.00229753 -0.000348806 -5.76755e-05
-0.000348806 -0.00138373 -4.98606e-06
-5.76755e-05 -4.98606e-06 -0.00150288
-0.00288274 2.54768e-05 -5.47355e-05
2.54768e-05 -5.12182e-05 -1.99433e-05
-5.47355e-05 -1.99433e-05 -0.00141472
0.000701771 -1.31432e-05 2.59682e-06
-1.31432e-05 4.27712e-05 1.98993e-06
2.59682e-06 1.98993e-06 -6.06815e-05
0.000795656 0.00013258 -7.71037e-07
0.00013258 0.00011868 1.33529e-06
-7.71037e-07 1.33529e-06 1.76718e-07
0.00108819 0.000120581 5.2383e-07
0.000120581 0.000288588 2.17389e-09
5.2383e-07 2.17389e-09 0.000158345
0.00106003 0.000174297 -1.78011e-06
0.000174297 0.000227312 1.94031e-07
-1.78011e-06 1.94031e-07 8.41173e-05
0.00124873 0.000198905 1.39698e-05
0.000198905 0.000287058 4.1239e-07
1.39698e-05 4.1239e-07 0.000119401
0.000390896 0.000123161 -1.43249e-06
0.000123161 -0.000120613 -1.10069e-06
-1.43249e-06 -1.10069e-06 -0.000258055
0.000500231 8.46963e-05 -1.14259e-06
8.46963e-05 -4.48107e-05 -1.12138e-06
-1.14259e-06 -1.12138e-06 -0.000161834
0.000331159 0.000122259 4.36857e-07
0.000122259 -0.000168575 9.058e-07
4.36857e-07 9.058e-07 -0.000310374
0.00100118 0.000160339 -1.3781e-06
0.000160339 0.000153871 1.23351e-07
-1.3781e-06 1.23351e-07 3.87775e-05
0.000211112 0.000157893 1.71622e-06
0.000157893 -0.000366569 -1.20648e-06
1.71622e-06 -1.20648e-06 -0.000505981
0.00296126 0.000394839 -3.28282e-06
0.000394839 0.000934737 -3.8485e-06
-3.28282e-06 -3.8485e-06 0.000774012
0.00170943 0.000377883 -2.45907e-06
0.000377883 0.000135282 2.12505e-06
-2.45907e-06 2.12505e-06 -2.74873e-05
0.00154513 0.000328533 4.56564e-06
0.000328533 0.000192584 -2.7847e-06
4.56564e-06 -2.7847e-06 2.95776e-05
0.000648023 0.000121498 -4.32126e-06
0.000121498 2.52245e-05 5.32607e-06
-4.32126e-06 5.32607e-06 -6.83391e-05
0.00314197 0.000268242 5.77761e-06
0.000268242 -0.000238848 1.08445e-05
5.77761e-06 1.08445e-05 -0.000470694
0.00650518 0.000151729 2.45262e-05
0.000151729 0.00131643 2.33818e-05
2.45262e-05 2.33818e-05 -1.82817e-05
0.00608196 -0.000862108 -3.5593e-06
-0.000862108 0.00320248 -4.52672e-05
-3.5593e-06 -4.52672e-05 0.00300038
0.00547491 0.000497591 0.000310674
0.000497591 0.0015782 9.08034e-05
0.000310674 9.08034e-05 -0.000896174
0.00103039 0.000427624 2.85442e-05
0.000427624 -0.000371364 2.53514e-05
2.85442e-05 2.53514e-05 -0.000498141
0.00296481 0.000583898 -7.12667e-05
0.000583898 0.000116236 -2.36085e-05
-7.12667e-05 -2.36085e-05 -0.000292833
0.00315479 0.000528047 5.47466e-05
0.000528047 0.000566473 2.42779e-05
5.47466e-05 2.42779e-05 0.000580452
0.00240715 0.000502914 2.03745e-06
0.000502914 0.00044305 6.0675e-06
2.03745e-06 6.0675e-06 0.00030629
0.000645636 0.000274817 -2.15318e-06
0.000274817 -9.70107e-05 9.51379e-06
-2.15318e-06 9.51379e-06 -0.000258722
0.00259106 0.000589285 -8.33433e-05
0.000589285 0.000261506 -4.55861e-05
-8.33433e-05 -4.55861e-05 0.000166529
0.00313851 -0.000158147 -0.000127923
-0.000158147 0.000500728 5.86576e-06
-0.000127923 5.86576e-06 0.000127522
0.00922946 -0.000163125 4.49557e-06
-0.000163125 0.00287649 -3.62926e-06
4.49557e-06 -3.62926e-06 0.00223548
-0.00734893 -0.000241797 0.00019659
-0.000241797 -0.00392998 8.37555e-07
0.00019659 8.37555e-07 -0.00377933
0.00149738 -0.000305981 -2.86509e-05
-0.000305981 5.11152e-05 9.3478e-06
-2.86509e-05 9.3478e-06 -2.93275e-05
0.00551309 -0.000492974 7.92999e-05
-0.000492974 0.00118087 1.15833e-05
7.92999e-05 1.15833e-05 0.000403564
0.00148488 -0.00037609 7.37045e-05
-0.00037609 -0.00127063 4.96341e-05
7.37045e-05 4.96341e-05 -0.00216511
0.00120187 -0.000198233 1.32787e-05
-0.000198233 -6.43338e-06 -8.82004e-07
1.32787e-05 -8.82004e-07 -0.000189266
0.00202836 -2.97208e-05 -5.99029e-06
-2.97208e-05 -0.000281483 6.07167e-06
-5.99029e-06 6.07167e-06 -0.000554639
0.00389995 -0.000214787 1.45184e-05
-0.000214787 0.00114499 -4.02633e-06
1.45184e-05 -4.02633e-06 0.00108577
0.00311008 -2.05485e-05 5.90372e-05
-2.05485e-05 0.000651328 -4.41284e-06
5.90372e-05 -4.41284e-06 0.000633859
0.000558408 -0.000283942 -1.06868e-05
-0.000283942 -0.000664135 4.89721e-06
-1.06868e-05 4.89721e-06 -0.000652097
0.00178511 -0.000244242 -4.95687e-07
-0.000244242 -0.000105304 1.30464e-06
-4.95687e-07 1.30464e-06 -9.13531e-05
0.00178562 -0.00013561 7.45542e-06
-0.00013561 -6.42723e-05 -5.11349e-07
7.45542e-06 -5.11349e-07 -5.14759e-05
0.00156142 -0.000285532 3.34463e-06
-0.000285532 -7.73052e-05 -4.05816e-07
3.34463e-06 -4.05816e-07 -0.000163458
0.00189282 -0.000223343 1.86518e-06
-0.000223343 2.56769e-05 7.67807e-07
1.86518e-06 7.67807e-07 -2.48199e-05
0.00181547 -0.000157844 3.74929e-07
-0.000157844 4.79453e-05 1.20991e-06
3.74929e-07 1.20991e-06 7.5597e-07
0.00177995 -0.000248765 6.48323e-06
-0.000248765 3.54111e-05 3.10828e-06
6.48323e-06 3.10828e-06 -6.36891e-05
0.00184102 -0.000207292 1.16542e-06
-0.000207292 8.92538e-05 3.77997e-07
1.16542e-06 3.77997e-07 1.07998e-05
0.00197631 -0.000173414 7.27233e-08
-0.000173414 0.000215736 8.11017e-07
7.27233e-08 8.11017e-07 0.00013537
0.00168036 -0.000207021 9.94025e-07
-0.000207021 5.5634e-05 3.73115e-06
9.94025e-07 3.73115e-06 -4.5975e-05
0.00177892 -0.000193803 -1.51565e-07
-0.000193803 0.000133682 4.95057e-07
-1.51565e-07 4.95057e-07 3.82365e-05
0.00164007 -0.000178114 4.47236e-06
-0.000178114 8.8619e-05 -1.61411e-06
4.47236e-06 -1.61411e-06 -2.31786e-05
0.00163676 -0.000187252 -4.13375e-06
-0.000187252 6.86934e-05 6.65135e-06
-4.13375e-06 6.65135e-06 -3.76557e-05
0.00177615 -0.000186569 -1.57188e-06
-0.000186569 0.000186969 -6.58701e-08
-1.57188e-06 -6.58701e-08 6.49232e-05
0.00170745 -0.000174136 6.53601e-07
-0.000174136 0.00019912 -1.45612e-06
6.53601e-07 -1.45612e-06 5.98156e-05
0.00169216 -0.000201887 9.40468e-07
-0.000201887 0.000160039 3.0398e-06
9.40468e-07 3.0398e-06 1.45321e-05
0.00166971 -0.000193866 8.35059e-07
-0.000193866 0.000191086 -7.34576e-07
8.35059e-07 -7.34576e-07 3.69879e-05
0.00157404 -0.00018202 -3.46997e-06
-0.00018202 0.000186473 -1.86768e-07
-3.46997e-06 -1.86768e-07 3.51029e-05
0.00109295 -0.000174292 -8.73184e-06
-0.000174292 7.46877e-07 1.96821e-06
-8.73184e-06 1.96821e-06 -0.000155616
0.00146321 -0.000204145 -1.37554e-06
-0.000204145 0.000145981 8.0835e-09
-1.37554e-06 8.0835e-09 -2.26674e-05
0.00168737 -0.000224059 4.11653e-06
-0.000224059 0.000224822 7.14731e-08
4.11653e-06 7.14731e-08 4.87254e-05
0.000903483 -0.000134268 -6.22322e-06
-0.000134268 4.43839e-05 5.39814e-06
-6.22322e-06 5.39814e-06 -8.49044e-05
0.00115505 -0.000184686 8.05089e-07
-0.000184686 0.000119647 1.0029e-06
8.05089e-07 1.0029e-06 -4.62829e-05
0.00126962 -0.000210629 2.41772e-06
-0.000210629 0.000111885 -3.57498e-07
2.41772e-06 -3.57498e-07 -7.34307e-05
0.000485376 -3.44763e-05 -8.79959e-06
-3.44763e-05 -0.00010224 9.26928e-06
-8.79959e-06 9.26928e-06 -0.00015814
0.00087196 -0.000118927 -8.27518e-09
-0.000118927 7.88655e-05 -2.98883e-07
-8.27518e-09 -2.98883e-07 -4.17876e-05
0.00114197 -0.000178867 2.78701e-06
-0.000178867 0.000186647 -3.13332e-06
2.78701e-06 -3.13332e-06 2.64549e-05
0.00347209 0.00014033 -7.30293e-05
0.00014033 0.00163296 2.40035e-06
-7.30293e-05 2.40035e-06 0.00162542
0.000602593 -1.24215e-05 4.04528e-07
-1.24215e-05 -2.81501e-05 -1.98991e-07
4.04528e-07 -1.98991e-07 -7.57988e-05
0.000895653 -0.000104961 4.78775e-06
-0.000104961 0.000121015 -3.14859e-06
4.78775e-06 -3.14859e-06 9.11039e-06
0.00310562 0.000120294 4.71586e-06
0.000120294 0.0014219 2.50551e-07
4.71586e-06 2.50551e-07 0.00141972
0.000659562 2.18348e-05 4.69055e-06
2.18348e-05 1.65953e-05 -6.96014e-06
4.69055e-06 -6.96014e-06 -2.31843e-05
0.00279222 0.000104318 5.9418e-05
0.000104318 0.0012406 -2.4287e-06
5.9418e-05 -2.4287e-06 0.00124296
0.00110455 0.000178909 -4.39008e-07
0.000178909 0.000206708 -4.73313e-06
-4.39008e-07 -4.73313e-06 4.8023e-05
0.0011484 0.000171111 5.26678e-07
0.000171111 0.00026464 2.56278e-07
5.26678e-07 2.56278e-07 0.000126945
0.000819995 9.60396e-05 -1.51848e-06
9.60396e-05 8.46943e-05 -1.96832e-06
-1.51848e-06 -1.96832e-06 -3.47028e-05
0.000739934 0.000128614 -9.13439e-08
0.000128614 6.63362e-05 4.81425e-07
-9.13439e-08 4.81425e-07 -4.94368e-05
0.000646178 2.25324e-05 -5.5224e-07
2.25324e-05 3.56677e-06 -2.0871e-07
-5.5224e-07 -2.0871e-07 -0.000100596
0.000719704 3.00519e-05 -2.25166e-06
3.00519e-05 4.2981e-05 -2.97209e-06
-2.25166e-06 -2.97209e-06 -4.1345e-05
0.000627866 -4.05817e-05 1.58586e-07
-4.05817e-05 -8.66827e-06 1.57582e-06
1.58586e-07 1.57582e-06 -9.97097e-05
0.000657591 -2.71369e-05 3.43565e-07
-2.71369e-05 2.17745e-06 -3.2701e-07
3.43565e-07 -3.2701e-07 -6.61492e-05
0.000596263 -6.91014e-05 6.42893e-07
-6.91014e-05 -1.56338e-05 -5.99021e-06
6.42893e-07 -5.99021e-06 -4.79519e-05
0.000646219 -3.33945e-05 1.3563e-06
-3.33945e-05 -8.84699e-06 2.92591e-06
1.3563e-06 2.92591e-06 -6.89889e-05
0.000583828 -6.39668e-05 1.87642e-07
-6.39668e-05 -3.27379e-05 -1.85266e-08
1.87642e-07 -1.85266e-08 -6.02188e-05
0.00257515 -9.74588e-05 -4.30316e-05
-9.74588e-05 0.00110869 -2.63552e-06
-4.30316e-05 -2.63552e-06 0.00111343
0.00252376 -8.74127e-05 -1.94673e-06
-8.74127e-05 0.00107221 2.05687e-07
-1.94673e-06 2.05687e-07 0.00107901
0.00058947 -4.99499e-05 1.0366e-06
-4.99499e-05 -4.12598e-05 4.76156e-06
1.0366e-06 4.76156e-06 -6.42049e-05
0.0024713 -7.67344e-05 3.09052e-05
-7.67344e-05 0.00103452 3.79913e-06
3.09052e-05 3.79913e-06 0.00104357
0.00274015 -2.08457e-06 -3.64137e-05
-2.08457e-06 -5.57606e-05 2.1918e-05
-3.64137e-05 2.1918e-05 -0.000130184
0.00153737 -0.000341528 2.91463e-05
-0.000341528 -0.00137814 1.16626e-05
2.91463e-05 1.16626e-05 -0.00230458
0.00444898 -0.000464705 -3.73957e-05
-0.000464705 0.00185216 -3.51657e-05
-3.73957e-05 -3.51657e-05 0.00195949
0.00171772 0.000244599 1.12738e-05
0.000244599 0.00042483 5.04498e-06
1.12738e-05 5.04498e-06 0.000243417
0.00126403 0.000140273 1.57559e-06
0.000140273 0.000385519 9.84695e-07
1.57559e-06 9.84695e-07 0.000254464
0.000906813 0.000161777 -1.45351e-06
0.000161777 0.000145457 2.07779e-06
-1.45351e-06 2.07779e-06 4.96471e-06
0.00072466 0.000150951 7.10779e-07
0.000150951 6.24958e-05 8.89461e-07
7.10779e-07 8.89461e-07 -8.065e-05
0.00107038 0.000186932 -1.00427e-07
0.000186932 0.000193109 -2.58158e-06
-1.00427e-07 -2.58158e-06 2.46513e-05
0.00079825 0.000184408 2.12352e-08
0.000184408 -2.4499e-05 4.051e-07
2.12352e-08 4.051e-07 -0.000166152
0.00088194 0.000169143 -1.1702e-06
0.000169143 0.000128108 -3.68854e-07
-1.1702e-06 -3.68854e-07 -2.45825e-05
0.00100136 0.000155107 -1.1961e-06
0.000155107 0.00015654 5.57146e-06
-1.1961e-06 5.57146e-06 3.7447e-05
0.00103973 0.00021699 6.87712e-07
0.00021699 8.19571e-05 -2.07282e-07
6.87712e-07 -2.07282e-07 -6.21724e-05
0.00226561 0.000346005 1.6806e-06
0.000346005 0.000564681 6.28806e-06
1.6806e-06 6.28806e-06 0.000407075
0.0017194 0.000344051 -1.93968e-06
0.000344051 0.000149643 -4.62769e-07
-1.93968e-06 -4.62769e-07 -1.69155e-05
0.0013756 0.000293208 1.16196e-05
0.000293208 -4.60963e-05 8.77293e-06
1.16196e-05 8.77293e-06 -0.000159214
0.00126216 0.000349737 -1.8716e-06
0.000349737 -0.000105679 -2.73237e-06
-1.8716e-06 -2.73237e-06 -0.000270429
0.000701034 0.000265653 1.91481e-06
0.000265653 -0.000234151 3.86313e-06
1.91481e-06 3.86313e-06 -0.000381366
0.000699917 0.000198302 1.48696e-05
0.000198302 -0.000292177 1.21119e-05
1.48696e-05 1.21119e-05 -0.00028928
0.00525392 0.00042268 -2.81216e-05
0.00042268 0.000649152 9.05537e-08
-2.81216e-05 9.05537e-08 0.000306108
0.00176804 -1.59761e-05 9.895e-05
-1.59761e-05 -0.000989964 2.63632e-05
9.895e-05 2.63632e-05 -0.0023233
0.00179006 0.000527584 5.01655e-05
0.000527584 -0.000471197 9.00865e-07
5.01655e-05 9.00865e-07 -0.000992633
0.00181052 0.000400181 -2.17006e-05
0.000400181 0.000122002 -2.74132e-06
-2.17006e-05 -2.74132e-06 0.000107346
0.00129196 0.000404777 -3.54575e-05
0.000404777 -7.28392e-05 -2.39356e-05
-3.54575e-05 -2.39356e-05 -0.000209121
0.00231866 -0.000126949 1.5573e-05
-0.000126949 0.000210866 -1.69405e-07
1.5573e-05 -1.69405e-07 0.00014842
0.00113431 6.48797e-06 -9.62321e-06
6.48797e-06 -0.000491877 3.16937e-06
-9.62321e-06 3.16937e-06 -0.000679606
0.000721787 0.000434283 7.2436e-05
0.000434283 -0.00198359 -2.33127e-05
7.2436e-05 -2.33127e-05 -0.00264253
0.000686235 -0.000134152 -6.2774e-06
-0.000134152 -0.000307264 1.8714e-05
-6.2774e-06 1.8714e-05 -0.00037406
0.00280641 -5.96114e-05 -3.11819e-06
-5.96114e-05 -3.59071e-05 2.69733e-05
-3.11819e-06 2.69733e-05 -0.000385093
0.001655 -0.000140497 -4.81315e-06
-0.000140497 -4.00999e-05 1.08774e-06
-4.81315e-06 1.08774e-06 -6.00807e-05
0.00234952 -5.32422e-05 -5.20685e-06
-5.32422e-05 0.000241992 -1.94248e-06
-5.20685e-06 -1.94248e-06 0.000198706
0.00154503 -7.71498e-05 2.11082e-05
-7.71498e-05 -0.000173076 -1.44914e-06
2.11082e-05 -1.44914e-06 -0.000175028
0.00285808 -4.07738e-05 1.88993e-05
-4.07738e-05 0.000699447 -1.80662e-07
1.88993e-05 -1.80662e-07 0.000658051
0.00173017 -0.000253505 -8.36087e-06
-0.000253505 -0.000125639 3.34546e-06
-8.36087e-06 3.34546e-06 -0.000128769
0.00180818 -0.000143263 2.36519e-06
-0.000143263 -6.43757e-05 9.92056e-07
2.36519e-06 9.92056e-07 -5.74634e-05
0.00185546 -0.000152812 3.84207e-07
-0.000152812 4.04015e-05 2.43308e-08
3.84207e-07 2.43308e-08 2.07528e-05
0.00183753 -0.000221637 3.45512e-06
-0.000221637 9.39299e-06 1.07327e-06
3.45512e-06 1.07327e-06 -4.65316e-05
0.00183067 -0.000170895 5.21544e-07
-0.000170895 4.79064e-05 6.77589e-08
5.21544e-07 6.77589e-08 -3.86994e-06
0.00184922 -0.000157744 1.25908e-06
-0.000157744 0.000123166 7.70454e-07
1.25908e-06 7.70454e-07 5.5119e-05
0.00189803 -0.000207045 9.03814e-07
-0.000207045 0.000128312 1.17227e-06
9.03814e-07 1.17227e-06 4.97643e-05
0.00186599 -0.000176496 -1.06339e-06
-0.000176496 0.00015455 4.92905e-08
-1.06339e-06 4.92905e-08 7.27156e-05
0.00165887 -0.000157134 2.58384e-06
-0.000157134 7.73068e-05 -2.02919e-07
2.58384e-06 -2.02919e-07 -2.43369e-05
0.00162162 -0.000189964 -3.186e-06
-0.000189964 5.05227e-05 1.68497e-06
-3.186e-06 1.68497e-06 -4.61783e-05
0.00165172 -0.000178261 4.23527e-07
-0.000178261 9.87046e-05 -4.69207e-07
4.23527e-07 -4.69207e-07 -1.31219e-05
0.0015982 -0.000160597 1.55114e-06
-0.000160597 0.000112443 -1.08714e-06
1.55114e-06 -1.08714e-06 -1.81412e-05
0.00181338 -0.000186605 -5.06125e-06
-0.000186605 0.000207506 4.05143e-06
-5.06125e-06 4.05143e-06 8.8261e-05
0.00170867 -0.000172692 -3.77727e-07
-0.000172692 0.000196873 -1.92611e-07
-3.77727e-07 -1.92611e-07 5.948e-05
0.0014523 -0.000153707 -2.53444e-06
-0.000153707 0.000106143 1.5422e-07
-2.53444e-06 1.5422e-07 -3.75173e-05
0.00171156 -0.000196173 2.97084e-06
-0.000196173 0.000215948 7.67828e-07
2.97084e-06 7.67828e-07 6.09757e-05
0.00149998 -0.000178694 7.06562e-07
-0.000178694 0.000143925 -4.45224e-07
7.06562e-07 -4.45224e-07 -8.39959e-06
0.00128569 -0.000160303 -6.82814e-06
-0.000160303 7.96238e-05 1.85679e-06
-6.82814e-06 1.85679e-06 -6.28563e-05
0.00102061 -0.000143559 -9.24668e-06
-0.000143559 4.68779e-05 4.92283e-06
-9.24668e-06 4.92283e-06 -8.0834e-05
0.00112111 -0.00017462 -1.96129e-06
-0.00017462 2.0745e-05 4.71877e-07
-1.96129e-06 4.71877e-07 -0.000134995
0.00153504 -0.00020843 3.88454e-06
-0.00020843 0.00018736 -4.0212e-07
3.88454e-06 -4.0212e-07 1.81696e-05
0.000532162 -0.000109612 -1.39869e-05
-0.000109612 -8.98644e-05 1.10141e-05
-1.39869e-05 1.10141e-05 -0.00015882
0.000916359 -0.000137885 6.93696e-07
-0.000137885 5.25327e-05 4.09667e-07
6.93696e-07 4.09667e-07 -7.7424e-05
0.00105954 -0.000177279 5.40699e-06
-0.000177279 6.5237e-05 -1.49954e-06
5.40699e-06 -1.49954e-06 -9.9208e-05
0.0039018 0.000152265 -9.12927e-05
0.000152265 0.00188214 3.43101e-06
-9.12927e-05 3.43101e-06 0.00186976
0.000628077 -7.01706e-05 1.96572e-07
-7.01706e-05 -2.47806e-05 -2.04434e-07
1.96572e-07 -2.04434e-07 -8.42147e-05
0.000968702 -0.000130341 5.6557e-06
-0.000130341 0.000133312 -4.65984e-06
5.6557e-06 -4.65984e-06 1.07226e-05
0.00358266 0.00012519 3.55783e-06
0.00012519 0.0016927 3.97578e-07
3.55783e-06 3.97578e-07 0.00168776
0.000704062 -2.97124e-05 9.0313e-06
-2.97124e-05 2.69157e-05 -8.1187e-06
9.0313e-06 -8.1187e-06 -2.21522e-05
0.00323757 0.000102855 8.48102e-05
0.000102855 0.00149239 -3.44149e-06
8.48102e-05 -3.44149e-06 0.00149341
0.00104787 0.000188281 -2.75932e-06
0.000188281 8.97388e-05 -1.18407e-06
-2.75932e-06 -1.18407e-06 -8.57019e-05
0.00104632 0.000174229 -6.17459e-08
0.000174229 0.000176167 -1.7306e-06
-6.17459e-08 -1.7306e-06 1.82666e-05
0.00112723 0.000162779 -1.23834e-06
0.000162779 0.000229708 -2.55507e-06
-1.23834e-06 -2.55507e-06 8.91112e-05
0.00133822 0.000185544 -4.34958e-07
0.000185544 0.000372084 6.23057e-07
-4.34958e-07 6.23057e-07 0.000232836
0.000876008 0.000103795 -1.15709e-06
0.000103795 0.000114907 -8.91362e-07
-1.15709e-06 -8.91362e-07 -4.2521e-06
0.000804658 6.09323e-05 -2.91072e-06
6.09323e-05 8.882e-05 -2.44505e-06
-2.91072e-06 -2.44505e-06 -8.76216e-06
0.00065893 4.48335e-05 2.72609e-08
4.48335e-05 8.91203e-06 3.97872e-07
2.72609e-08 3.97872e-07 -9.69491e-05
0.000675104 -9.68866e-06 -3.81833e-07
-9.68866e-06 1.61568e-05 -7.662e-08
-3.81833e-07 -7.662e-08 -6.44248e-05
0.000589202 -5.70437e-05 -1.31592e-06
-5.70437e-05 -1.76639e-05 -6.2894e-06
-1.31592e-06 -6.2894e-06 -5.43544e-05
0.000625752 -4.21344e-05 9.28628e-07
-4.21344e-05 -1.34678e-05 3.28849e-06
9.28628e-07 3.28849e-06 -8.21123e-05
0.000564436 -7.16512e-05 2.92516e-07
-7.16512e-05 -3.33632e-05 -1.4958e-07
2.92516e-07 -1.4958e-07 -6.59079e-05
0.00267514 -0.000106459 -5.08571e-05
-0.000106459 0.00117074 -2.20481e-06
-5.08571e-05 -2.20481e-06 0.00117336
0.000568139 -6.04959e-05 7.26098e-07
-6.04959e-05 -4.33441e-05 5.09736e-06
7.26098e-07 5.09736e-06 -6.9878e-05
0.00256006 -9.74142e-05 -1.41617e-06
-9.74142e-05 0.00109981 1.8977e-07
-1.41617e-06 1.8977e-07 0.00110443
0.00251485 -8.66956e-05 3.61075e-05
-8.66956e-05 0.00106666 3.40631e-06
3.61075e-05 3.40631e-06 0.00107352
0.000622319 2.68494e-05 1.22022e-05
2.68494e-05 -0.000476521 6.50718e-06
1.22022e-05 6.50718e-06 -0.00048352
0.00420174 6.14652e-05 2.60919e-05
6.14652e-05 0.000493742 9.57114e-06
2.60919e-05 9.57114e-06 0.00022175
0.00800141 0.000385089 -9.13397e-05
0.000385089 0.00234635 -3.68084e-05
-9.13397e-05 -3.68084e-05 0.00129832
0.000807182 0.000184903 2.68598e-06
0.000184903 -0.000133968 1.71452e-06
2.68598e-06 1.71452e-06 -0.000283724
0.00151994 0.000239403 2.86308e-06
0.000239403 0.000137675 -6.46499e-07
2.86308e-06 -6.46499e-07 -1.91735e-05
0.00113111 0.000208957 -9.73583e-07
0.000208957 0.000104173 -1.21939e-06
-9.73583e-07 -1.21939e-06 -7.1009e-05
0.00104256 0.000177228 -1.15055e-06
0.000177228 0.000237088 2.93599e-07
-1.15055e-06 2.93599e-07 8.84472e-05
0.000863691 0.000172476 -1.47487e-06
0.000172476 8.18419e-05 -3.02845e-07
-1.47487e-06 -3.02845e-07 -8.71811e-05
0.00126135 0.00022165 6.13306e-06
0.00022165 0.000214027 2.30097e-06
6.13306e-06 2.30097e-06 6.60278e-05
0.00240402 0.000355698 -9.07913e-06
0.000355698 0.000550735 -4.67347e-06
-9.07913e-06 -4.67347e-06 0.000388722
0.00180042 0.000271818 -4.94556e-07
0.000271818 0.000495819 2.05141e-06
-4.94556e-07 2.05141e-06 0.000347211
0.00129333 0.000280179 8.52722e-06
0.000280179 4.90883e-05 1.40646e-05
8.52722e-06 1.40646e-05 -0.000104083
0.00187167 0.000348622 -1.40047e-06
0.000348622 0.000239313 1.02332e-06
-1.40047e-06 1.02332e-06 7.52997e-05
0.00216785 0.000335352 -8.47314e-06
0.000335352 0.000301875 2.65501e-06
-8.47314e-06 2.65501e-06 0.000157617
0.000736587 0.000136254 1.58099e-05
0.000136254 -0.000449185 5.08699e-06
1.58099e-05 5.08699e-06 -0.000513153
0.00132672 0.000285336 8.74998e-06
0.000285336 -7.05225e-05 1.59329e-06
8.74998e-06 1.59329e-06 -0.000186166
0.0010988 0.000335196 -6.49837e-06
0.000335196 -0.000203427 -7.50097e-06
-6.49837e-06 -7.50097e-06 -0.000369291
0.00114414 0.000190651 -5.24489e-06
0.000190651 -7.75311e-05 2.93516e-06
-5.24489e-06 2.93516e-06 -8.41675e-05
0.00496238 0.000215126 4.00449e-05
0.000215126 0.00042664 -1.05899e-06
4.00449e-05 -1.05899e-06 2.51924e-05
0.00138584 0.00032883 4.25394e-06
0.00032883 0.000104275 -1.57379e-05
4.25394e-06 -1.57379e-05 8.31858e-05
0.00133094 -3.33881e-05 2.02803e-05
-3.33881e-05 -8.26214e-05 2.54066e-06
2.02803e-05 2.54066e-06 -0.000115052
0.00199131 -5.99969e-05 -1.26975e-05
-5.99969e-05 8.42907e-05 -6.88226e-07
-1.26975e-05 -6.88226e-07 2.18931e-05
0.00164177 0.000129969 5.22802e-05
0.000129969 -0.0004699 -8.68347e-06
5.22802e-05 -8.68347e-06 -0.000727425
0.000205996 -0.000105506 -2.08228e-05
-0.000105506 -0.00080073 1.37002e-05
-2.08228e-05 1.37002e-05 -0.000788388
0.00232781 -9.75017e-05 -6.66356e-05
-9.75017e-05 0.000218393 5.40757e-06
-6.66356e-05 5.40757e-06 0.000170614
0.00162482 -0.000104657 7.67489e-07
-0.000104657 -0.000138935 1.57823e-07
7.67489e-07 1.57823e-07 -0.000128743
0.00226605 -5.09583e-05 -3.77972e-06
-5.09583e-05 0.000327424 5.39613e-07
-3.77972e-06 5.39613e-07 0.000282764
0.00195421 -0.000137284 6.45579e-06
-0.000137284 4.29439e-05 -1.76728e-08
6.45579e-06 -1.76728e-08 2.38904e-05
0.00194636 -2.7104e-05 4.86373e-06
-2.7104e-05 7.14594e-05 -2.41671e-07
4.86373e-06 -2.41671e-07 2.32152e-05
0.00185553 -0.000152027 -1.61332e-06
-0.000152027 -5.4712e-05 1.30539e-06
-1.61332e-06 1.30539e-06 -5.05154e-05
0.00179129 -0.000149061 -1.69904e-06
-0.000149061 7.39681e-06 -1.49942e-07
-1.69904e-06 -1.49942e-07 -1.27227e-05
0.00184488 -0.000138297 1.57972e-06
-0.000138297 5.43917e-05 5.44016e-07
1.57972e-06 5.44016e-07 3.11222e-06
0.001841 -0.000182601 -6.58618e-07
-0.000182601 4.59301e-05 -8.37254e-07
-6.58618e-07 -8.37254e-07 -1.02573e-05
0.00177021 -0.000155653 2.98917e-07
-0.000155653 8.07131e-05 -9.82311e-08
2.98917e-07 -9.82311e-08 1.00682e-05
0.00166961 -0.000139043 1.52091e-06
-0.000139043 4.46904e-05 3.42032e-07
1.52091e-06 3.42032e-07 -4.53989e-05
0.00175685 -0.000178811 -4.51332e-06
-0.000178811 9.43556e-05 -3.88051e-08
-4.51332e-06 -3.88051e-08 1.11719e-05
0.00168426 -0.000157301 1.9243e-07
-0.000157301 9.35561e-05 -2.17433e-07
1.9243e-07 -2.17433e-07 -8.00605e-06
0.00164945 -0.000145277 1.74583e-06
-0.000145277 0.000107323 -4.29639e-07
1.74583e-06 -4.29639e-07 -1.56469e-05
0.00166459 -0.000178418 -3.04031e-06
-0.000178418 0.00010945 6.16813e-07
-3.04031e-06 6.16813e-07 -2.3997e-06
0.00160472 -0.000160148 -6.14583e-08
-0.000160148 0.000115614 -2.11195e-07
-6.14583e-08 -2.11195e-07 -1.47118e-05
0.00146742 -0.000140092 -1.65485e-06
-0.000140092 9.98943e-05 2.56398e-07
-1.65485e-06 2.56398e-07 -3.96527e-05
0.00170399 -0.000171096 -6.95167e-07
-0.000171096 0.000191352 1.88953e-06
-6.95167e-07 1.88953e-06 5.58751e-05
0.00144958 -0.00015395 -4.46029e-07
-0.00015395 0.000102675 -1.20408e-07
-4.46029e-07 -1.20408e-07 -4.07495e-05
0.00133001 -0.000143835 -6.40091e-06
-0.000143835 9.09885e-05 2.08659e-06
-6.40091e-06 2.08659e-06 -4.74165e-05
0.00143329 -0.000175838 4.91371e-06
-0.000175838 0.000105737 -7.39217e-07
4.91371e-06 -7.39217e-07 -4.76358e-05
0.00117531 -0.000154609 3.16064e-08
-0.000154609 1.74609e-05 -1.42833e-07
3.16064e-08 -1.42833e-07 -0.00012557
0.0010456 -0.000132195 -1.062e-05
-0.000132195 2.62488e-05 4.42235e-06
-1.062e-05 4.42235e-06 -9.33037e-05
0.000488327 -0.000136069 -1.79123e-05
-0.000136069 -0.000138433 1.11381e-05
-1.79123e-05 1.11381e-05 -0.000211256
0.000982755 -0.000141607 4.09051e-07
-0.000141607 2.71068e-05 3.2571e-07
4.09051e-07 3.2571e-07 -0.000100462
0.00116338 -0.000175846 4.49964e-06
-0.000175846 4.84717e-05 -8.96223e-07
4.49964e-06 -8.96223e-07 -0.000106722
0.0043616 0.000175095 -9.80772e-05
0.000175095 0.00215458 5.41019e-06
-9.80772e-05 5.41019e-06 0.00213365
0.000632002 -0.000103775 -2.07985e-07
-0.000103775 -3.72915e-05 2.93696e-07
-2.07985e-07 2.93696e-07 -0.000107132
0.000943648 -0.000142651 7.25016e-06
-0.000142651 6.96365e-05 -4.34836e-06
7.25016e-06 -4.34836e-06 -6.11481e-05
0.0040575 0.000140935 6.71616e-06
0.000140935 0.00196857 6.53307e-07
6.71616e-06 6.53307e-07 0.00195738
0.000778765 -7.28322e-05 1.21936e-05
-7.28322e-05 5.45145e-05 -9.9657e-06
1.21936e-05 -9.9657e-06 -5.87555e-06
0.00370577 0.000111268 0.000101082
0.000111268 0.00175917 -4.2624e-06
0.000101082 -4.2624e-06 0.00175616
0.000903911 0.000183328 -3.58734e-06
0.000183328 -0.00011625 1.77154e-06
-3.58734e-06 1.77154e-06 -0.000282222
0.000815715 0.000173195 -1.1446e-06
0.000173195 -4.32897e-05 1.66879e-06
-1.1446e-06 1.66879e-06 -0.000217384
0.00109322 0.000171645 -3.54433e-06
0.000171645 0.000148987 -2.02457e-06
-3.54433e-06 -2.02457e-06 -8.03893e-06
0.000980568 0.00016912 -3.5948e-07
0.00016912 0.00014117 9.27014e-07
-3.5948e-07 9.27014e-07 -1.58474e-05
0.00098773 0.000151343 -3.25888e-07
0.000151343 0.000153761 -7.6485e-07
-3.25888e-07 -7.6485e-07 1.50402e-05
0.000942232 0.000102322 -4.4143e-06
0.000102322 0.000151836 -3.18157e-06
-4.4143e-06 -3.18157e-06 4.06451e-05
0.000912064 0.000109834 1.10516e-07
0.000109834 0.000134058 -3.84024e-07
1.10516e-07 -3.84024e-07 1.52819e-05
0.000738688 4.28731e-05 -3.0404e-07
4.28731e-05 5.4061e-05 1.06652e-07
-3.0404e-07 1.06652e-07 -4.26014e-05
0.00063608 -2.02273e-05 -5.40784e-06
-2.02273e-05 1.90173e-06 -6.78349e-06
-5.40784e-06 -6.78349e-06 -4.1024e-05
0.000648295 -3.67714e-05 6.87467e-07
-3.67714e-05 2.46753e-06 3.28319e-06
6.87467e-07 3.28319e-06 -7.70386e-05
0.000547092 -6.56745e-05 6.72949e-08
-6.56745e-05 -3.94056e-05 -2.61542e-07
6.72949e-08 -2.61542e-07 -7.70461e-05
0.00289169 -0.000114709 -6.36937e-05
-0.000114709 0.0012975 -2.01609e-06
-6.36937e-05 -2.01609e-06 0.00129766
0.000537776 -7.29059e-05 -3.48815e-07
-7.29059e-05 -4.88547e-05 5.63957e-06
-3.48815e-07 5.63957e-06 -8.12554e-05
0.0026377 -0.000107629 -1.43541e-06
-0.000107629 0.00114986 1.82869e-07
-1.43541e-06 1.82869e-07 0.00115208
0.00255104 -9.68962e-05 4.02603e-05
-9.68962e-05 0.00109439 2.93418e-06
4.02603e-05 2.93418e-06 0.00109901
0.00104232 5.05248e-05 1.20416e-05
5.05248e-05 -0.000295876 1.67147e-06
1.20416e-05 1.67147e-06 -0.00032797
0.0016878 -4.6683e-06 -4.02006e-06
-4.6683e-06 -4.90623e-05 2.67777e-06
-4.02006e-06 2.67777e-06 -7.31546e-05
0.00301598 -6.57489e-06 7.62779e-05
-6.57489e-06 -0.000188576 -5.12017e-06
7.62779e-05 -5.12017e-06 -0.000294355
0.00182154 0.000276119 -1.67109e-06
0.000276119 0.000238341 -3.9516e-06
-1.67109e-06 -3.9516e-06 8.92446e-05
0.000746975 0.000190636 -8.23855e-07
0.000190636 -0.000153805 -5.96819e-07
-8.23855e-07 -5.96819e-07 -0.000294191
0.00179502 0.00023927 -1.81162e-06
0.00023927 0.000204378 1.25e-06
-1.81162e-06 1.25e-06 5.63514e-05
0.0016932 0.000249446 9.98281e-07
0.000249446 0.000239578 4.68112e-07
9.98281e-07 4.68112e-07 7.99593e-05
0.000515792 0.000172045 -3.9763e-06
0.000172045 -0.00023134 1.4571e-06
-3.9763e-06 1.4571e-06 -0.000400101
0.00182002 0.000272975 -4.6361e-06
0.000272975 0.000123504 1.74936e-06
-4.6361e-06 1.74936e-06 -1.9556e-05
0.0016411 0.000253246 -4.30124e-07
0.000253246 0.000407812 3.4684e-07
-4.30124e-07 3.4684e-07 0.000254219
0.00217499 0.000340256 -2.77595e-07
0.000340256 0.000422981 -2.07578e-06
-2.77595e-07 -2.07578e-06 0.000259536
0.00182154 0.000185266 -5.18103e-06
0.000185266 6.06786e-05 1.83284e-06
-5.18103e-06 1.83284e-06 -4.0883e-05
0.00218516 0.000364415 4.66388e-06
0.000364415 0.000414654 3.29358e-06
4.66388e-06 3.29358e-06 0.000251804
0.00205946 0.000330778 -1.00787e-06
0.000330778 0.000242776 4.66924e-07
-1.00787e-06 4.66924e-07 9.79135e-05
0.00112922 0.000157677 7.3672e-07
0.000157677 -0.000216403 1.34041e-06
7.3672e-07 1.34041e-06 -0.000282346
0.000954817 0.000258567 -4.04298e-06
0.000258567 -0.000247283 -3.45606e-06
-4.04298e-06 -3.45606e-06 -0.000365708
0.000962245 0.000180866 -2.75198e-05
0.000180866 -0.000177914 -8.36945e-06
-2.75198e-05 -8.36945e-06 -0.000192467
0.00169223 2.31337e-05 5.26087e-06
2.31337e-05 -6.54413e-05 4.73045e-07
5.26087e-06 4.73045e-07 -0.000124419
0.00198793 -1.27872e-05 -1.73513e-06
-1.27872e-05 0.000295456 4.84871e-07
-1.73513e-06 4.84871e-07 0.000264655
0.0013223 1.88453e-06 -4.72452e-05
1.88453e-06 -0.000229647 -3.57372e-06
-4.72452e-05 -3.57372e-06 -0.000310855
0.00159962 -0.0001301 -1.69741e-05
-0.0001301 -0.000171281 1.22476e-06
-1.69741e-05 1.22476e-06 -0.000149874
0.00145975 -6.06043e-05 -9.77179e-06
-6.06043e-05 -0.000162726 9.52006e-07
-9.77179e-06 9.52006e-07 -0.000209653
0.00194638 -0.000131076 -3.79111e-07
-0.000131076 4.31566e-05 -2.31656e-07
-3.79111e-07 -2.31656e-07 2.35798e-05
0.00192181 -2.79783e-05 -4.88127e-07
-2.79783e-05 4.67212e-05 2.7413e-07
-4.88127e-07 2.7413e-07 1.27085e-06
0.00191134 -5.3492e-05 -1.37004e-06
-5.3492e-05 6.38105e-05 -9.41164e-07
-1.37004e-06 -9.41164e-07 1.12116e-05
0.00174317 -0.000144963 -2.06032e-06
-0.000144963 -1.53888e-05 -5.19426e-07
-2.06032e-06 -5.19426e-07 -3.66953e-05
0.00188195 -0.000133853 8.32366e-07
-0.000133853 8.48795e-05 -1.20394e-07
8.32366e-07 -1.20394e-07 2.99823e-05
0.00185642 -0.000107853 4.79972e-07
-0.000107853 9.78063e-05 -2.1273e-07
4.79972e-07 -2.1273e-07 1.74773e-05
0.00169629 -0.000154565 -1.838e-06
-0.000154565 4.04462e-05 -7.03632e-07
-1.838e-06 -7.03632e-07 -3.27311e-05
0.00167219 -0.000138961 1.95784e-07
-0.000138961 5.16287e-05 -1.95923e-08
1.95784e-07 -1.95923e-08 -4.03388e-05
0.00170724 -0.000120036 1.48121e-06
-0.000120036 0.000102077 -2.31299e-07
1.48121e-06 -2.31299e-07 -1.32809e-05
0.00170955 -0.000157397 -2.31588e-06
-0.000157397 0.000109732 -2.12272e-07
-2.31588e-06 -2.12272e-07 8.25781e-06
0.00165743 -0.000144094 -7.43099e-08
-0.000144094 0.000113433 -7.35239e-08
-7.43099e-08 -7.35239e-08 -9.29429e-06
0.00153105 -0.000123569 -9.88883e-07
-0.000123569 0.000112728 3.69665e-07
-9.88883e-07 3.69665e-07 -2.30362e-05
0.00161093 -0.000159721 -1.30733e-06
-0.000159721 0.000118623 5.81408e-07
-1.30733e-06 5.81408e-07 -1.14426e-05
0.00148655 -0.000140759 -1.15702e-07
-0.000140759 0.000108112 -8.89587e-08
-1.15702e-07 -8.89587e-08 -3.12504e-05
0.00135424 -0.000127769 -5.60782e-06
-0.000127769 9.18656e-05 1.8404e-06
-5.60782e-06 1.8404e-06 -4.45494e-05
0.00144775 -0.000154201 2.35449e-06
-0.000154201 9.96072e-05 -1.67558e-07
2.35449e-06 -1.67558e-07 -4.35791e-05
0.00132198 -0.000142711 -8.06829e-08
-0.000142711 8.71883e-05 3.31015e-08
-8.06829e-08 3.31015e-08 -5.09911e-05
0.00106743 -0.000117197 -1.12527e-05
-0.000117197 2.42092e-05 4.56761e-06
-1.12527e-05 4.56761e-06 -9.1044e-05
0.00106088 -0.00014863 6.1369e-06
-0.00014863 -4.70731e-05 -1.82625e-06
6.1369e-06 -1.82625e-06 -0.000190608
0.00102955 -0.00013031 1.59965e-07
-0.00013031 1.7114e-05 -4.78636e-08
1.59965e-07 -4.78636e-08 -0.000102263
0.00225089 -5.80454e-05 -1.56715e-05
-5.80454e-05 0.000859046 7.08362e-06
-1.56715e-05 7.08362e-06 0.000791715
0.00135108 -1.76239e-05 -0.000128631
-1.76239e-05 0.000407584 1.27854e-05
-0.000128631 1.27854e-05 0.000387945
0.00148353 -9.47253e-05 -3.48396e-07
-9.47253e-05 0.000429864 -1.16652e-08
-3.48396e-07 -1.16652e-08 0.00035664
0.000947523 -0.000140016 9.23036e-06
-0.000140016 8.97848e-06 -4.02979e-06
9.23036e-06 -4.02979e-06 -0.000118547
0.00456831 0.000146884 1.07189e-05
0.000146884 0.00226635 1.0606e-06
1.07189e-05 1.0606e-06 0.0022487
0.000760363 -0.000126218 1.70425e-05
-0.000126218 2.96415e-05 -1.09362e-05
1.70425e-05 -1.09362e-05 -4.16889e-05
0.00418085 0.000108928 0.000120997
0.000108928 0.00203317 -6.27445e-06
0.000120997 -6.27445e-06 0.00202596
0.00187939 0.000197708 -5.07539e-08
0.000197708 0.00023689 4.53978e-07
-5.07539e-08 4.53978e-07 0.000100132
0.00143257 0.000203926 -7.86125e-07
0.000203926 9.85159e-05 1.51023e-06
-7.86125e-07 1.51023e-06 -5.36272e-05
0.00115265 0.000199528 -2.69175e-07
0.000199528 2.28955e-05 -2.68891e-08
-2.69175e-07 -2.68891e-08 -0.000144578
0.0010808 0.000174487 -5.32708e-06
0.000174487 5.65619e-05 -9.23521e-07
-5.32708e-06 -9.23521e-07 -0.000102477
0.000580413 0.000158055 1.04916e-06
0.000158055 -0.000177809 3.5766e-06
1.04916e-06 3.5766e-06 -0.000350608
0.00106503 0.000168561 -9.28354e-07
0.000168561 0.000136319 3.43014e-07
-9.28354e-07 3.43014e-07 -2.04493e-05
0.000978271 0.000130376 -5.92003e-06
0.000130376 0.000132016 -3.8325e-06
-5.92003e-06 -3.8325e-06 9.63581e-06
0.000857958 0.000140549 1.38514e-06
0.000140549 8.33534e-05 1.46107e-06
1.38514e-06 1.46107e-06 -5.35897e-05
0.000801373 9.09209e-05 -1.40725e-07
9.09209e-05 7.36639e-05 -1.75005e-07
-1.40725e-07 -1.75005e-07 -3.51929e-05
0.000740828 3.83791e-05 -9.25353e-06
3.83791e-05 4.97645e-05 -8.17197e-06
-9.25353e-06 -8.17197e-06 -3.30819e-06
0.000687847 2.57076e-05 1.30382e-06
2.57076e-05 2.44268e-05 2.35804e-06
1.30382e-06 2.35804e-06 -6.92039e-05
0.000553818 -3.20835e-05 -4.91395e-07
-3.20835e-05 -4.21903e-05 -2.92647e-07
-4.91395e-07 -2.92647e-07 -8.47601e-05
0.00321191 -0.000117814 -8.26883e-05
-0.000117814 0.00148338 -2.38975e-06
-8.26883e-05 -2.38975e-06 0.00148107
0.000498537 -7.49383e-05 -1.20844e-06
-7.49383e-05 -6.34025e-05 6.46109e-06
-1.20844e-06 6.46109e-06 -0.000102707
0.00281726 -0.000119392 -1.87586e-06
-0.000119392 0.00125664 2.18637e-07
-1.87586e-06 2.18637e-07 0.0012557
0.00261532 -0.000107668 4.44739e-05
-0.000107668 0.0011372 2.41502e-06
4.44739e-05 2.41502e-06 0.00113937
0.00183196 0.000102132 1.801e-06
0.000102132 1.34879e-05 1.74651e-06
1.801e-06 1.74651e-06 -5.92953e-05
0.00191131 4.4749e-05 6.25728e-06
4.4749e-05 0.000161993 -2.81973e-07
6.25728e-06 -2.81973e-07 0.000129405
0.00337039 -3.17346e-05 -4.93219e-05
-3.17346e-05 0.000694105 -1.1149e-05
-4.93219e-05 -1.1149e-05 0.000640876
0.00172531 0.000232596 -3.20643e-06
0.000232596 8.83553e-05 7.12762e-07
-3.20643e-06 7.12762e-07 -4.99409e-05
0.00163242 0.000262202 -2.81555e-06
0.000262202 0.000157068 -7.05025e-08
-2.81555e-06 -7.05025e-08 1.04674e-05
0.000865533 0.000208248 -1.36902e-05
0.000208248 -7.63688e-05 -1.24778e-06
-1.36902e-05 -1.24778e-06 -0.000208688
0.00183586 0.000233855 1.79e-06
0.000233855 0.000225761 3.90888e-07
1.79e-06 3.90888e-07 7.91179e-05
0.00188381 0.000260515 -6.4687e-07
0.000260515 0.000351163 -1.56575e-06
-6.4687e-07 -1.56575e-06 0.000188788
0.00212382 0.000184028 -2.82479e-06
0.000184028 0.000233962 1.61851e-06
-2.82479e-06 1.61851e-06 0.000135085
0.00171562 0.000271039 -1.32425e-06
0.000271039 6.78613e-05 7.15066e-07
-1.32425e-06 7.15066e-07 -7.67341e-05
0.00200803 0.000328795 3.0744e-06
0.000328795 0.00032695 1.93566e-07
3.0744e-06 1.93566e-07 0.000161615
0.00181028 0.000184684 -6.88757e-07
0.000184684 5.37076e-05 1.39801e-07
-6.88757e-07 1.39801e-07 -4.78772e-05
0.00205771 0.000331836 9.61778e-06
0.000331836 0.000230715 -2.28914e-07
9.61778e-06 -2.28914e-07 8.52429e-05
0.00166016 0.000176906 -2.08552e-05
0.000176906 7.07585e-05 -4.3295e-06
-2.08552e-05 -4.3295e-06 3.83423e-06
0.00196083 2.64539e-05 -4.8032e-07
2.64539e-05 0.000104554 1.88087e-07
-4.8032e-07 1.88087e-07 4.83746e-05
0.00190268 2.9795e-05 -1.46502e-06
2.9795e-05 5.366e-05 -1.89907e-07
-1.46502e-06 -1.89907e-07 -3.92053e-06
0.00268778 8.2155e-06 -3.03168e-05
8.2155e-06 0.000697824 -3.92303e-06
-3.03168e-05 -3.92303e-06 0.000665744
0.00194165 -0.000125656 -1.11252e-05
-0.000125656 4.30227e-05 -4.60928e-07
-1.11252e-05 -4.60928e-07 2.29696e-05
0.00194167 -2.92901e-05 -3.67093e-07
-2.92901e-05 4.68956e-05 5.06263e-07
-3.67093e-07 5.06263e-07 2.93517e-06
0.00187378 -5.55456e-05 8.33528e-07
-5.55456e-05 3.09953e-05 -1.01515e-08
8.33528e-07 -1.01515e-08 -1.60936e-05
0.00188631 -3.88857e-05 -1.91193e-07
-3.88857e-05 0.000105376 -4.83634e-08
-1.91193e-07 -4.83634e-08 2.68179e-05
0.00190998 -0.000129674 9.04889e-07
-0.000129674 0.000110269 -3.82651e-07
9.04889e-07 -3.82651e-07 5.14101e-05
0.0018594 -0.000107663 -4.58255e-07
-0.000107663 0.000105343 -2.14921e-07
-4.58255e-07 -2.14921e-07 2.37038e-05
0.00178871 -8.74449e-05 2.31011e-06
-8.74449e-05 0.000113969 -1.2148e-06
2.31011e-06 -1.2148e-06 5.9075e-06
0.00167033 -0.000138803 -1.7802e-06
-0.000138803 5.61157e-05 -2.89091e-07
-1.7802e-06 -2.89091e-07 -3.77277e-05
0.0017246 -0.000120302 -9.22035e-08
-0.000120302 0.000112023 6.56334e-08
-9.22035e-08 6.56334e-08 -3.31233e-06
0.00159129 -0.000100151 -6.9545e-07
-0.000100151 0.000115498 2.26531e-08
-6.9545e-07 2.26531e-08 -1.5794e-05
0.00166554 -0.000142843 -1.32871e-06
-0.000142843 0.00011955 2.21024e-07
-1.32871e-06 2.21024e-07 -2.92255e-06
0.00152261 -0.000123047 -1.16561e-07
-0.000123047 0.000105655 1.24634e-07
-1.16561e-07 1.24634e-07 -2.99526e-05
0.00136326 -0.000107772 -5.10453e-06
-0.000107772 8.39397e-05 1.61599e-06
-5.10453e-06 1.61599e-06 -5.10667e-05
0.00150593 -0.000141478 1.34255e-06
-0.000141478 0.000116509 -4.08515e-07
1.34255e-06 -4.08515e-07 -2.26794e-05
0.0013442 -0.000126523 -6.87009e-08
-0.000126523 8.64299e-05 2.97378e-08
-6.87009e-08 2.97378e-08 -4.97314e-05
0.00108304 -0.000103526 -1.13834e-05
-0.000103526 2.16683e-05 4.18732e-06
-1.13834e-05 4.18732e-06 -9.28539e-05
0.00131441 -0.00014162 5.86996e-06
-0.00014162 8.36276e-05 -1.88618e-06
5.86996e-06 -1.88618e-06 -5.43282e-05
0.00106181 -0.000115392 2.03381e-07
-0.000115392 2.019e-05 1.29152e-08
2.03381e-07 1.29152e-08 -9.47481e-05
0.00229078 -7.17015e-05 -2.23912e-05
-7.17015e-05 0.000866632 5.93879e-06
-2.23912e-05 5.93879e-06 0.000807679
0.00100989 -0.000128528 1.05318e-05
-0.000128528 6.0167e-06 -4.51869e-06
1.05318e-05 -4.51869e-06 -0.000113223
0.0024157 -0.000108528 3.1475e-05
-0.000108528 0.000941449 -3.04954e-06
3.1475e-05 -3.04954e-06 0.000881559
0.00162647 -5.88053e-05 -0.000142856
-5.88053e-05 0.000566756 1.62398e-05
-0.000142856 1.62398e-05 0.000546984
0.00314509 2.38802e-05 -0.000135615
2.38802e-05 0.00144432 5.02645e-06
-0.000135615 5.02645e-06 0.00142695
0.00252279 -0.000144325 8.44501e-05
-0.000144325 0.00101145 -1.07077e-05
8.44501e-05 -1.07077e-05 0.000952615
0.00476527 0.000106927 0.000135713
0.000106927 0.00237399 -1.0105e-05
0.000135713 -1.0105e-05 0.0023589
0.00185568 0.000190667 -2.14799e-06
0.000190667 0.000187715 -1.55689e-07
-2.14799e-06 -1.55689e-07 5.57329e-05
0.00176844 0.000189987 1.41213e-06
0.000189987 0.000257494 2.56192e-07
1.41213e-06 2.56192e-07 0.000117705
0.00175493 0.000195811 7.4842e-07
0.000195811 0.000169321 1.16427e-07
7.4842e-07 1.16427e-07 3.38936e-05
0.00120132 0.000174315 -5.94739e-06
0.000174315 4.76682e-05 -2.97892e-07
-5.94739e-06 -2.97892e-07 -0.000101461
0.00146234 0.000204021 9.55434e-08
0.000204021 0.000111608 3.7103e-07
9.55434e-08 3.7103e-07 -4.00871e-05
0.00135394 0.000212815 2.06979e-06
0.000212815 0.000136642 -2.34835e-07
2.06979e-06 -2.34835e-07 -3.21231e-05
0.00116031 0.000180808 -5.08448e-07
0.000180808 0.000100958 4.72387e-07
-5.08448e-07 4.72387e-07 -5.94465e-05
0.000941053 0.00013901 -8.05707e-06
0.00013901 4.92932e-05 -3.93593e-06
-8.05707e-06 -3.93593e-06 -7.92784e-05
0.00103553 0.00016529 2.16793e-06
0.00016529 0.000122853 2.99321e-06
2.16793e-06 2.99321e-06 -3.36131e-05
0.000860612 0.000120647 -4.16434e-07
0.000120647 6.64289e-05 -3.23377e-08
-4.16434e-07 -3.23377e-08 -5.43044e-05
0.000789724 9.06948e-05 -1.33205e-05
9.06948e-05 6.5156e-05 -9.71015e-06
-1.33205e-05 -9.71015e-06 3.91653e-08
0.000654844 7.82324e-05 2.43171e-06
7.82324e-05 -7.23793e-06 2.20078e-06
2.43171e-06 2.20078e-06 -0.000113885
0.000590164 1.52867e-05 1.43681e-07
1.52867e-05 -2.98933e-05 -2.62855e-07
1.43681e-07 -2.62855e-07 -8.1762e-05
0.00364973 -0.000109229 -0.000105865
-0.000109229 0.00173908 -4.46331e-06
-0.000105865 -4.46331e-06 0.00173367
0.000468128 -5.62021e-05 2.80644e-07
-5.62021e-05 -8.347e-05 7.16282e-06
2.80644e-07 7.16282e-06 -0.000128444
0.00313231 -0.000132791 -3.26926e-06
-0.000132791 0.00144062 3.3784e-07
-3.26926e-06 3.3784e-07 0.0014355
0.00276405 -0.000120346 4.98927e-05
-0.000120346 0.00122685 1.97744e-06
4.98927e-05 1.97744e-06 0.0012258
0.001849 0.000102238 -1.23443e-06
0.000102238 4.73146e-05 1.39738e-06
-1.23443e-06 1.39738e-06 -2.79675e-05
0.00181598 0.000101153 6.58323e-07
0.000101153 1.37101e-05 -3.25437e-07
6.58323e-07 -3.25437e-07 -5.91089e-05
0.00246721 3.83428e-05 -4.14108e-05
3.83428e-05 0.000471052 -6.97503e-06
-4.14108e-05 -6.97503e-06 0.00044043
0.00192613 0.00016446 2.56157e-07
0.00016446 0.000151613 1.37439e-06
2.56157e-07 1.37439e-06 4.10082e-05
0.00170476 0.000226127 -6.0911e-07
0.000226127 8.49263e-05 -2.70588e-07
-6.0911e-07 -2.70588e-07 -5.2035e-05
0.0014219 0.000246817 4.52699e-08
0.000246817 6.41837e-05 -8.32939e-07
4.52699e-08 -8.32939e-07 -7.98174e-05
0.00189265 0.000229153 7.18425e-07
0.000229153 0.000256154 -1.00267e-06
7.18425e-07 -1.00267e-06 0.000110791
0.00193361 0.000175406 -2.02675e-07
0.000175406 0.000129138 -1.00892e-07
-2.02675e-07 -1.00892e-07 2.91689e-05
0.00160262 0.00026845 5.84837e-07
0.00026845 9.26029e-06 -8.85876e-07
5.84837e-07 -8.85876e-07 -0.000136803
0.00177053 0.000181768 6.33421e-06
0.000181768 4.79095e-05 -1.3817e-06
6.33421e-06 -1.3817e-06 -5.35155e-05
0.00191287 2.38828e-05 9.40106e-07
2.38828e-05 0.000114194 7.22596e-07
9.40106e-07 7.22596e-07 3.96013e-05
0.00187367 2.61894e-05 -3.64015e-07
2.61894e-05 5.82108e-05 -4.07057e-08
-3.64015e-07 -4.07057e-08 -4.15057e-07
0.00209777 3.67209e-05 -7.93617e-06
3.67209e-05 0.000164642 -1.41955e-06
-7.93617e-06 -1.41955e-06 0.000109232
0.00160663 -9.9543e-06 -1.07163e-06
-9.9543e-06 -2.6072e-05 2.64173e-07
-1.07163e-06 2.64173e-07 -0.000114279
0.00183632 -5.78038e-05 5.74882e-07
-5.78038e-05 -1.59001e-06 4.91994e-07
5.74882e-07 4.91994e-07 -4.27147e-05
0.00184172 -4.05959e-05 -7.00559e-07
-4.05959e-05 7.85512e-05 5.46856e-07
-7.00559e-07 5.46856e-07 -3.15876e-07
0.00194398 -4.53823e-05 6.08162e-07
-4.53823e-05 0.000190194 -6.61609e-07
6.08162e-07 -6.61609e-07 9.04963e-05
0.00186943 -0.000107792 -1.67706e-06
-0.000107792 0.000116309 1.81025e-07
-1.67706e-06 1.81025e-07 3.3489e-05
0.00179243 -8.76732e-05 1.03375e-06
-8.76732e-05 0.000114908 -5.30137e-07
1.03375e-06 -5.30137e-07 6.89747e-06
0.00163708 -7.00039e-05 -4.64229e-07
-7.00039e-05 0.000108345 -5.99314e-07
-4.64229e-07 -5.99314e-07 -1.77419e-05
0.00175004 -0.000120102 -9.14175e-07
-0.000120102 0.000126514 3.24664e-07
-9.14175e-07 3.24664e-07 1.12737e-05
0.00157495 -9.85277e-05 -1.2987e-07
-9.85277e-05 0.000105312 6.1587e-08
-1.2987e-07 6.1587e-08 -2.57852e-05
0.00138367 -8.40968e-05 -4.89473e-06
-8.40968e-05 7.96567e-05 1.2334e-06
-4.89473e-06 1.2334e-06 -5.36181e-05
0.00151343 -0.000122426 9.33537e-07
-0.000122426 9.82541e-05 -1.389e-07
9.33537e-07 -1.389e-07 -3.7184e-05
0.00136159 -0.000106924 -7.09786e-08
-0.000106924 8.19773e-05 1.17922e-07
-7.09786e-08 1.17922e-07 -5.27959e-05
0.00109884 -8.79587e-05 -1.12618e-05
-8.79587e-05 1.92826e-05 3.50092e-06
-1.12618e-05 3.50092e-06 -9.5305e-05
0.00133483 -0.000125237 5.41852e-06
-0.000125237 8.13426e-05 -1.76275e-06
5.41852e-06 -1.76275e-06 -5.45501e-05
0.00108649 -0.000101414 1.32248e-07
-0.000101414 2.24088e-05 1.29436e-07
1.32248e-07 1.29436e-07 -9.16068e-05
0.00234867 -8.89921e-05 -2.95385e-05
-8.89921e-05 0.000888725 5.2849e-06
-2.95385e-05 5.2849e-06 0.000833439
0.00105028 -0.000113412 1.11875e-05
-0.000113412 1.28224e-05 -4.57385e-06
1.11875e-05 -4.57385e-06 -0.000101772
0.00240604 -0.000109461 2.80057e-05
-0.000109461 0.000926465 -2.86203e-06
2.80057e-05 -2.86203e-06 0.000871767
0.00166437 -5.17133e-05 -0.000138391
-5.17133e-05 0.000587023 1.47543e-05
-0.000138391 1.47543e-05 0.000567589
0.00254939 -0.000134455 8.75298e-05
-0.000134455 0.00101173 -1.26531e-05
8.75298e-05 -1.26531e-05 0.000955735
0.00146853 1.20995e-05 -6.9735e-05
1.20995e-05 0.000490963 5.58135e-06
-6.9735e-05 5.58135e-06 0.000460685
0.00480091 0.000295154 -8.87864e-06
0.000295154 0.00243541 -5.23604e-06
-8.87864e-06 -5.23604e-06 0.00238443
0.00174472 0.00015308 4.24034e-07
0.00015308 0.000109152 7.68853e-07
4.24034e-07 7.68853e-07 -1.73784e-05
0.00169521 0.000165019 -1.1241e-06
0.000165019 0.000178957 -4.87708e-07
-1.1241e-06 -4.87708e-07 4.25098e-05
0.00177837 0.000188886 -2.41842e-06
0.000188886 0.000143907 1.14761e-08
-2.41842e-06 1.14761e-08 1.08586e-05
0.00178415 0.000181706 -3.79361e-06
0.000181706 0.000339309 -5.73566e-07
-3.79361e-06 -5.73566e-07 0.000201748
0.00153312 0.000182773 6.1637e-07
0.000182773 0.000124295 -3.52906e-07
6.1637e-07 -3.52906e-07 -1.47899e-05
0.00162804 0.000193912 2.3239e-06
0.000193912 0.00010042 -8.02456e-07
2.3239e-06 -8.02456e-07 -3.35971e-05
0.000968376 0.000139251 -1.03636e-05
0.000139251 2.20813e-07 -3.53251e-06
-1.03636e-05 -3.53251e-06 -0.000125256
0.00124684 0.000178504 -6.05092e-08
0.000178504 7.21697e-05 3.06882e-07
-6.05092e-08 3.06882e-07 -7.78511e-05
0.001506 0.000205132 3.65025e-06
0.000205132 0.000131948 -9.3874e-07
3.65025e-06 -9.3874e-07 -1.93966e-05
0.00125092 0.000188074 5.16479e-06
0.000188074 0.00015157 2.18262e-06
5.16479e-06 2.18262e-06 -1.03518e-05
0.000931339 0.00013713 -7.51471e-07
0.00013713 4.28155e-05 1.82163e-07
-7.51471e-07 1.82163e-07 -8.53029e-05
0.000732572 0.000144613 -1.90073e-05
0.000144613 1.86003e-05 -1.03622e-05
-1.90073e-05 -1.03622e-05 -5.6047e-05
0.000746047 0.00011083 4.3697e-06
0.00011083 2.73859e-06 3.63858e-06
4.3697e-06 3.63858e-06 -0.000116336
0.000631261 8.42548e-05 -3.14253e-07
8.42548e-05 -1.65293e-05 5.00338e-08
-3.14253e-07 5.00338e-08 -8.11262e-05
0.00426262 -9.76751e-05 -0.000125551
-9.76751e-05 0.00209804 -8.56254e-06
-0.000125551 -8.56254e-06 0.0020852
0.000477205 4.12845e-06 5.31297e-06
4.12845e-06 -9.1079e-05 7.86094e-06
5.31297e-06 7.86094e-06 -0.000140722
0.00354646 -0.000143948 -6.03351e-06
-0.000143948 0.00168441 4.97973e-07
-6.03351e-06 4.97973e-07 0.00167425
0.00304046 -0.000136989 5.7958e-05
-0.000136989 0.0013891 1.72786e-06
5.7958e-05 1.72786e-06 0.00138326
0.0017557 8.87908e-05 -1.65947e-08
8.87908e-05 3.01348e-05 1.42369e-06
-1.65947e-08 1.42369e-06 -6.00848e-05
0.00178132 0.000103472 -2.75565e-07
0.000103472 5.80577e-06 3.92685e-07
-2.75565e-07 3.92685e-07 -6.89043e-05
0.00185074 0.000103072 -1.41005e-06
0.000103072 3.01039e-05 -1.76932e-06
-1.41005e-06 -1.76932e-06 -4.3164e-05
0.00189968 0.000162078 7.2553e-07
0.000162078 0.000138272 -1.61628e-07
7.2553e-07 -1.61628e-07 2.89489e-05
0.00167382 0.000219102 -1.69631e-07
0.000219102 7.55386e-05 -1.32104e-06
-1.69631e-07 -1.32104e-06 -6.00167e-05
0.00174973 0.000166926 1.9853e-06
0.000166926 2.50655e-05 -1.74784e-06
1.9853e-06 -1.74784e-06 -7.59799e-05
0.00186463 2.60682e-05 -5.06725e-07
2.60682e-05 0.000120733 5.2176e-07
-5.06725e-07 5.2176e-07 3.23878e-05
0.00188831 2.5381e-05 9.33636e-08
2.5381e-05 0.000102317 -3.25783e-07
9.33636e-08 -3.25783e-07 2.62258e-05
0.00176494 2.65751e-05 1.27636e-06
2.65751e-05 1.1321e-06 -1.39131e-07
1.27636e-06 -1.39131e-07 -5.99959e-05
0.00172901 -1.59447e-05 -1.54026e-06
-1.59447e-05 4.30783e-05 5.44992e-09
-1.54026e-06 5.44992e-09 -4.39191e-05
0.00171019 -2.27932e-05 8.31245e-07
-2.27932e-05 7.03265e-05 -3.94759e-07
8.31245e-07 -3.94759e-07 -3.16731e-05
0.00179726 -4.21746e-05 -2.21254e-07
-4.21746e-05 5.25542e-05 5.59089e-07
-2.21254e-07 5.59089e-07 -2.67072e-05
0.00181584 -4.55556e-05 -5.92411e-07
-4.55556e-05 0.000118811 3.6464e-07
-5.92411e-07 3.6464e-07 1.62303e-05
0.00171153 -3.85633e-05 1.55354e-07
-3.85633e-05 0.000131959 -4.38648e-07
1.55354e-07 -4.38648e-07 1.32917e-05
0.00178524 -8.83315e-05 3.93644e-07
-8.83315e-05 0.000110018 1.06397e-07
3.93644e-07 1.06397e-07 1.97776e-06
0.00161424 -7.12466e-05 1.47996e-07
-7.12466e-05 9.71687e-05 -2.97157e-07
1.47996e-07 -2.97157e-07 -2.895e-05
0.00140615 -5.33759e-05 -5.34369e-06
-5.33759e-05 7.29341e-05 8.42051e-07
-5.34369e-06 8.42051e-07 -5.79301e-05
0.00155142 -9.84403e-05 4.79216e-07
-9.84403e-05 9.09605e-05 5.80063e-08
4.79216e-07 5.80063e-08 -4.00862e-05
0.0013775 -8.31044e-05 1.65292e-08
-8.31044e-05 7.39381e-05 9.5969e-08
1.65292e-08 9.5969e-08 -5.91632e-05
0.00110502 -6.82588e-05 -1.12463e-05
-6.82588e-05 1.07015e-05 2.87116e-06
-1.12463e-05 2.87116e-06 -0.000103509
0.00135856 -0.000105973 4.92064e-06
-0.000105973 7.92466e-05 -1.37146e-06
4.92064e-06 -1.37146e-06 -5.52877e-05
0.00109916 -8.54368e-05 -3.87165e-09
-8.54368e-05 1.84527e-05 1.60215e-07
-3.87165e-09 1.60215e-07 -9.56123e-05
0.00235387 -0.000100456 -3.26575e-05
-0.000100456 0.000886234 4.67126e-06
-3.26575e-05 4.67126e-06 0.000829596
0.00108541 -9.92421e-05 1.14311e-05
-9.92421e-05 2.05205e-05 -4.01332e-06
1.14311e-05 -4.01332e-06 -9.29669e-05
0.00241364 -0.000103468 2.6859e-05
-0.000103468 0.000922467 -2.29111e-06
2.6859e-05 -2.29111e-06 0.000869589
0.00170301 -4.53987e-05 -0.000138183
-4.53987e-05 0.000603334 1.28014e-05
-0.000138183 1.28014e-05 0.000584156
0.00251372 -0.00011817 8.63239e-05
-0.00011817 0.000983528 -1.12269e-05
8.63239e-05 -1.12269e-05 0.000931839
0.00146503 -5.45642e-06 -6.25998e-05
-5.45642e-06 0.000481261 5.50809e-06
-6.25998e-05 5.50809e-06 0.000455745
0.00137876 3.50903e-05 1.54326e-05
3.50903e-05 0.000442324 -4.15542e-06
1.54326e-05 -4.15542e-06 0.00040897
0.0018684 9.14277e-05 -4.63496e-08
9.14277e-05 0.000149308 1.77629e-06
-4.63496e-08 1.77629e-06 4.28264e-05
0.00160165 0.000132213 -1.88832e-06
0.000132213 0.000101437 2.29962e-07
-1.88832e-06 2.29962e-07 -3.24324e-05
0.00176966 0.000154438 -1.00261e-06
0.000154438 0.000117783 -1.24565e-07
-1.00261e-06 -1.24565e-07 -6.65933e-06
0.00163912 0.0001489 -4.48098e-06
0.0001489 0.000230228 -1.36872e-06
-4.48098e-06 -1.36872e-06 9.73137e-05
0.00169413 0.000163545 1.08502e-06
0.000163545 0.000181961 2.76683e-07
1.08502e-06 2.76683e-07 4.49438e-05
0.00170068 0.000187093 1.80166e-06
0.000187093 0.000100574 3.39649e-07
1.80166e-06 3.39649e-07 -3.35946e-05
0.00104645 0.000130729 -1.12584e-05
0.000130729 8.78728e-06 -3.78958e-06
-1.12584e-05 -3.78958e-06 -0.000110136
0.00143178 0.000167559 3.16056e-06
0.000167559 0.000140982 4.49334e-07
3.16056e-06 4.49334e-07 2.75501e-06
0.00129931 0.000175621 2.52651e-06
0.000175621 -8.16485e-06 -3.89562e-07
2.52651e-06 -3.89562e-07 -0.000146589
0.000637355 0.000150189 -2.03843e-05
0.000150189 -5.58406e-05 -9.4096e-06
-2.03843e-05 -9.4096e-06 -0.000130512
0.00100705 0.000141235 -7.18606e-07
0.000141235 2.17553e-05 3.05504e-07
-7.18606e-07 3.05504e-07 -0.000103906
0.00130376 0.00018317 6.59183e-06
0.00018317 0.000102947 1.12507e-06
6.59183e-06 1.12507e-06 -4.79771e-05
0.00092929 0.000135899 7.46441e-06
0.000135899 4.10517e-05 4.65118e-06
7.46441e-06 4.65118e-06 -8.67682e-05
0.000633159 0.000131033 7.39491e-07
0.000131033 -3.33783e-05 2.45119e-07
7.39491e-07 2.45119e-07 -0.000107165
0.00490712 -9.5189e-05 -0.000132728
-9.5189e-05 0.00247679 -1.34907e-05
-0.000132728 -1.34907e-05 0.00245154
0.000487654 7.18796e-05 9.68104e-06
7.18796e-05 -9.32101e-05 9.28849e-06
9.68104e-06 9.28849e-06 -0.000155578
0.00406964 -0.000145941 -9.74073e-06
-0.000145941 0.00199358 7.85564e-07
-9.74073e-06 7.85564e-07 0.00197702
0.00341733 -0.000156802 7.04058e-05
-0.000156802 0.00161197 1.78451e-06
7.04058e-05 1.78451e-06 0.00159971
0.00176213 6.6275e-05 -5.33762e-07
6.6275e-05 6.62051e-05 3.26736e-07
-5.33762e-07 3.26736e-07 -2.71289e-05
0.00176264 8.82334e-05 5.00267e-07
8.82334e-05 3.65176e-05 4.88845e-07
5.00267e-07 4.88845e-07 -5.30196e-05
0.00171616 0.000103935 2.85797e-06
0.000103935 -3.20443e-05 -8.33883e-07
2.85797e-06 -8.33883e-07 -0.000106109
0.00187936 0.000159743 6.0056e-07
0.000159743 0.000128284 -1.25321e-06
6.0056e-07 -1.25321e-06 2.02804e-05
0.00174034 -5.37362e-06 1.17471e-06
-5.37362e-06 8.45348e-05 8.10711e-08
1.17471e-06 8.10711e-08 -1.9008e-05
0.0018797 2.21146e-05 -3.30265e-08
2.21146e-05 0.00012669 -1.57129e-07
-3.30265e-08 -1.57129e-07 3.86654e-05
0.00185795 2.63359e-05 -2.14543e-07
2.63359e-05 8.69829e-05 -2.10163e-07
-2.14543e-07 -2.10163e-07 9.40267e-06
0.00185924 -1.92627e-05 -2.74573e-06
-1.92627e-05 0.00011651 -7.60974e-07
-2.74573e-06 -7.60974e-07 3.07491e-05
0.00170152 -1.57377e-05 -1.1714e-06
-1.57377e-05 6.50951e-05 -1.37395e-07
-1.1714e-06 -1.37395e-07 -3.58185e-05
0.00176064 -1.17131e-05 1.08681e-06
-1.17131e-05 0.000163645 -3.914e-07
1.08681e-06 -3.914e-07 4.82641e-05
0.00169096 -4.57736e-05 -1.52604e-06
-4.57736e-05 4.88802e-05 1.21896e-06
-1.52604e-06 1.21896e-06 -5.65741e-05
0.00167723 -3.83851e-05 3.95184e-07
-3.83851e-05 0.000115801 1.72308e-07
3.95184e-07 1.72308e-07 -4.89631e-06
0.00137824 -2.45041e-05 -4.3803e-06
-2.45041e-05 3.83342e-05 2.97317e-07
-4.3803e-06 2.97317e-07 -8.88504e-05
0.00160114 -7.10124e-05 7.22396e-07
-7.10124e-05 9.1492e-05 -1.8333e-08
7.22396e-07 -1.8333e-08 -3.45132e-05
0.00139237 -5.11688e-05 -3.41938e-07
-5.11688e-05 6.25908e-05 6.62287e-08
-3.41938e-07 6.62287e-08 -6.80234e-05
0.00110923 -4.41579e-05 -1.1435e-05
-4.41579e-05 1.77429e-06 2.31758e-06
-1.1435e-05 2.31758e-06 -0.000112169
0.00136533 -8.0017e-05 4.57043e-06
-8.0017e-05 6.49466e-05 -1.00538e-06
4.57043e-06 -1.00538e-06 -6.78149e-05
0.00110496 -6.72723e-05 4.68824e-09
-6.72723e-05 1.02896e-05 1.54547e-07
4.68824e-09 1.54547e-07 -0.000103707
0.000659956 -5.67082e-05 -1.69524e-05
-5.67082e-05 -8.81557e-05 4.16997e-06
-1.69524e-05 4.16997e-06 -0.000152928
0.00110807 -8.32315e-05 1.12878e-05
-8.32315e-05 2.21685e-05 -3.25006e-06
1.12878e-05 -3.25006e-06 -9.13549e-05
0.00154493 -6.8582e-05 3.51455e-05
-6.8582e-05 0.000420557 -2.02355e-06
3.51455e-05 -2.02355e-06 0.000363637
0.00506958 -0.000114055 -0.000170164
-0.000114055 0.00251841 9.73032e-06
-0.000170164 9.73032e-06 0.00251576
0.00249851 -9.72161e-05 8.62242e-05
-9.72161e-05 0.000965144 -9.28302e-06
8.62242e-05 -9.28302e-06 0.000915816
0.00148115 -2.45871e-05 -5.62182e-05
-2.45871e-05 0.000483085 4.41946e-06
-5.62182e-05 4.41946e-06 0.000459414
0.00129126 -1.68654e-05 2.61414e-05
-1.68654e-05 0.00038671 -3.9308e-06
2.61414e-05 -3.9308e-06 0.000357676
0.00188784 6.63989e-05 7.11156e-07
6.63989e-05 0.000168353 1.05076e-06
7.11156e-07 1.05076e-06 6.6998e-05
0.00169498 8.69541e-05 -5.38546e-07
8.69541e-05 0.00013679 1.22377e-06
-5.38546e-07 1.22377e-06 1.36267e-05
0.00188684 8.90583e-05 2.81281e-07
8.90583e-05 0.000164465 2.24558e-10
2.81281e-07 2.24558e-10 5.7173e-05
0.00126545 0.000109694 -5.55175e-06
0.000109694 -6.75514e-06 -9.43743e-07
-5.55175e-06 -9.43743e-07 -0.000139044
0.00168218 0.000133145 1.05529e-07
0.000133145 0.000146871 -1.76833e-08
1.05529e-07 -1.76833e-08 1.42528e-05
0.00179619 0.000156133 -6.48086e-07
0.000156133 0.000126856 -9.05787e-07
-6.48086e-07 -9.05787e-07 4.44204e-06
0.000652854 9.46436e-05 -1.33074e-05
9.46436e-05 -0.000234642 -4.02983e-06
-1.33074e-05 -4.02983e-06 -0.000350972
0.0016704 0.000152085 1.51387e-06
0.000152085 0.000248171 3.96987e-07
1.51387e-06 3.96987e-07 0.000114765
0.00168841 0.000162155 2.8424e-06
0.000162155 0.000182356 5.60446e-07
2.8424e-06 5.60446e-07 4.47295e-05
0.000589552 0.000119376 -1.81321e-05
0.000119376 -9.86116e-05 -7.88403e-06
-1.81321e-05 -7.88403e-06 -0.000169275
0.000822165 0.000121 5.11823e-07
0.000121 -0.000118579 1.30498e-08
5.11823e-07 1.30498e-08 -0.000238307
0.00105974 0.00015217 8.13691e-06
0.00015217 -6.83925e-05 1.43574e-06
8.13691e-06 1.43574e-06 -0.000207135
0.00519178 -4.8687e-05 -0.000140021
-4.8687e-05 0.00262051 -1.3359e-05
-0.000140021 -1.3359e-05 0.00260196
0.000598666 0.000138277 1.47062e-06
0.000138277 -7.55858e-05 5.24909e-07
1.47062e-06 5.24909e-07 -0.000150603
0.00103027 0.00014247 1.02803e-05
0.00014247 3.48311e-05 4.38669e-06
1.02803e-05 4.38669e-06 -9.0987e-05
0.000495704 0.000123355 1.54679e-05
0.000123355 -0.000107886 1.02356e-05
1.54679e-05 1.02356e-05 -0.000180042
0.00463718 -0.000104638 -3.62928e-06
-0.000104638 0.0023132 -1.70991e-07
-3.62928e-06 -1.70991e-07 0.00229645
0.00385167 -0.000174988 8.46104e-05
-0.000174988 0.00187325 3.09273e-06
8.46104e-05 3.09273e-06 0.00185338
0.00180154 4.1303e-05 -9.33842e-07
4.1303e-05 0.00011158 -3.44099e-07
-9.33842e-07 -3.44099e-07 8.55325e-06
0.00178468 6.55311e-05 -1.65892e-07
6.55311e-05 7.52104e-05 3.90133e-07
-1.65892e-07 3.90133e-07 -1.80594e-05
0.00176762 8.80571e-05 8.87377e-07
8.80571e-05 4.16867e-05 -6.12798e-07
8.87377e-07 -6.12798e-07 -4.71968e-05
0.00167852 4.65047e-06 1.25041e-06
4.65047e-06 0.000110412 -2.33345e-07
1.25041e-06 -2.33345e-07 -5.99626e-06
0.00172778 -2.67373e-06 4.03554e-08
-2.67373e-06 8.13027e-05 7.44928e-08
4.03554e-08 7.44928e-08 -2.1209e-05
0.00189372 1.62296e-05 -6.46641e-07
1.62296e-05 0.000132192 -1.06448e-07
-6.46641e-07 -1.06448e-07 4.44724e-05
0.00168329 -9.9635e-06 -1.95628e-06
-9.9635e-06 5.44557e-05 4.40271e-07
-1.95628e-06 4.40271e-07 -4.53786e-05
0.00174626 -8.54654e-06 1.10955e-06
-8.54654e-06 0.000154787 -1.56765e-07
1.10955e-06 -1.56765e-07 3.9537e-05
0.00172198 -6.64611e-06 -2.41026e-06
-6.64611e-06 0.000225426 -8.53544e-08
-2.41026e-06 -8.53544e-08 0.000104013
0.00164234 -3.8172e-05 7.19433e-07
-3.8172e-05 9.93814e-05 6.55456e-07
7.19433e-07 6.55456e-07 -2.33513e-05
0.00156097 -2.39052e-05 -1.31807e-08
-2.39052e-05 0.000140784 6.76553e-08
-1.31807e-08 6.76553e-08 1.44406e-05
0.000784339 -1.85268e-05 -1.3234e-05
-1.85268e-05 -0.000190451 1.72797e-06
-1.3234e-05 1.72797e-06 -0.000306873
0.00138632 -5.12041e-05 4.24463e-06
-5.12041e-05 5.64205e-05 -6.91707e-07
4.24463e-06 -6.91707e-07 -7.41107e-05
0.00110551 -4.12492e-05 1.3652e-08
-4.12492e-05 -6.81883e-07 1.14407e-07
1.3652e-08 1.14407e-07 -0.000114338
0.000658129 -2.02705e-05 -1.66154e-05
-2.02705e-05 -9.63279e-05 2.83913e-06
-1.66154e-05 2.83913e-06 -0.000161758
0.0011079 -6.52623e-05 1.13871e-05
-6.52623e-05 1.14602e-05 -2.58891e-06
1.13871e-05 -2.58891e-06 -0.000102212
0.000667479 -4.24156e-05 -2.03106e-07
-4.24156e-05 -8.36201e-05 2.56834e-07
-2.03106e-07 2.56834e-07 -0.000148887
0.00512959 -8.7756e-06 -0.000158735
-8.7756e-06 0.00254477 5.97348e-06
-0.000158735 5.97348e-06 0.00254595
0.000697029 -5.62746e-05 1.6011e-05
-5.62746e-05 -6.3486e-05 -5.95962e-06
1.6011e-05 -5.95962e-06 -0.000128552
0.00324649 -5.75968e-05 7.65409e-05
-5.75968e-05 0.00148211 -1.45636e-06
7.65409e-05 -1.45636e-06 0.00146628
0.00122842 -4.49626e-05 3.16372e-05
-4.49626e-05 0.000350055 -4.10107e-06
3.16372e-05 -4.10107e-06 0.000319582
0.00180764 5.89618e-05 5.5388e-08
5.89618e-05 0.000140914 2.00889e-07
5.5388e-08 2.00889e-07 3.4905e-05
0.00158768 4.85434e-05 5.80985e-07
4.85434e-05 7.38995e-05 1.31685e-06
5.80985e-07 1.31685e-06 -4.49534e-05
0.00186584 6.3793e-05 -1.99166e-07
6.3793e-05 0.000156255 -1.90977e-07
-1.99166e-07 -1.90977e-07 5.51752e-05
0.0014146 7.77141e-05 -4.27446e-06
7.77141e-05 6.60482e-05 -3.23505e-07
-4.27446e-06 -3.23505e-07 -6.16816e-05
0.00165024 8.52336e-05 4.68587e-07
8.52336e-05 0.000109691 1.20549e-07
4.68587e-07 1.20549e-07 -1.45444e-05
0.00190418 8.63776e-05 -5.24814e-07
8.63776e-05 0.000179053 -1.60004e-06
-5.24814e-07 -1.60004e-06 7.09757e-05
0.000671894 7.55162e-05 -1.32153e-05
7.55162e-05 -0.000240236 -3.18919e-06
-1.32153e-05 -3.18919e-06 -0.000354877
0.00152115 0.000117774 -1.16218e-06
0.000117774 0.000139084 -1.76677e-07
-1.16218e-06 -1.76677e-07 7.99312e-06
0.00176364 0.000133957 2.10015e-06
0.000133957 0.000192999 -3.68204e-07
2.10015e-06 -3.68204e-07 6.16505e-05
0.000597017 8.53073e-05 -1.66644e-05
8.53073e-05 -0.000109555 -6.17225e-06
-1.66644e-05 -6.17225e-06 -0.000176042
0.000651185 9.53761e-05 -2.75596e-06
9.53761e-05 -0.000235689 -6.05775e-07
-2.75596e-06 -6.05775e-07 -0.000352587
0.00170514 0.000155466 7.82123e-06
0.000155466 0.000268071 1.83604e-06
7.82123e-06 1.83604e-06 0.000134153
0.00521917 3.71658e-05 -0.000157754
3.71658e-05 0.00260847 -1.15673e-05
-0.000157754 -1.15673e-05 0.00260407
0.000579737 0.000111122 8.15374e-07
0.000111122 -0.000103446 2.88256e-07
8.15374e-07 2.88256e-07 -0.000174824
0.000600452 0.000111626 1.13227e-05
0.000111626 -0.00024465 3.4928e-06
1.13227e-05 3.4928e-06 -0.000365218
0.00503685 -3.4051e-05 1.05046e-05
-3.4051e-05 0.00252935 -5.40446e-07
1.05046e-05 -5.40446e-07 0.00251462
0.000531934 0.000124168 1.6956e-05
0.000124168 -0.000109689 9.70728e-06
1.6956e-05 9.70728e-06 -0.000185744
0.00438671 -0.000167054 0.000100891
-0.000167054 0.00218359 6.50395e-06
0.000100891 6.50395e-06 0.00215989
0.00176878 3.0114e-05 -5.9297e-08
3.0114e-05 0.00015402 -2.83124e-07
-5.9297e-08 -2.83124e-07 3.98413e-05
0.00174812 3.95114e-05 -4.9751e-07
3.95114e-05 8.64683e-05 1.72419e-07
-4.9751e-07 1.72419e-07 -1.73963e-05
0.00180563 6.45929e-05 4.43881e-07
6.45929e-05 8.31637e-05 -2.68458e-08
4.43881e-07 -2.68458e-08 -1.00494e-05
0.00169969 -2.60305e-06 -2.29085e-06
-2.60305e-06 0.000216198 -1.6573e-07
-2.29085e-06 -1.6573e-07 9.68222e-05
0.00170896 3.56561e-06 5.94244e-07
3.56561e-06 0.000126976 2.67695e-08
5.94244e-07 2.67695e-08 1.17319e-05
0.00172697 1.93607e-06 7.94058e-07
1.93607e-06 8.42533e-05 -7.1784e-08
7.94058e-07 -7.1784e-08 -1.72266e-05
0.00173382 -6.0664e-06 7.31757e-07
-6.0664e-06 0.000147027 3.45182e-07
7.31757e-07 3.45182e-07 3.18897e-05
0.0017263 -6.29337e-06 1.95518e-06
-6.29337e-06 0.000227575 -2.15728e-07
1.95518e-06 -2.15728e-07 0.000106133
0.000793109 -6.61822e-06 -1.24628e-05
-6.61822e-06 -0.000188909 7.07635e-07
-1.24628e-05 7.07635e-07 -0.000304069
0.00174573 -2.34666e-05 5.30922e-06
-2.34666e-05 0.000244465 -3.81488e-07
5.30922e-06 -3.81488e-07 0.00011896
0.00094993 -1.73507e-05 -2.56795e-06
-1.73507e-05 -9.70561e-05 3.63534e-07
-2.56795e-06 3.63534e-07 -0.000212032
0.000674539 -6.50214e-06 -1.70099e-05
-6.50214e-06 -9.42073e-05 1.87919e-06
-1.70099e-05 1.87919e-06 -0.000160124
0.00110545 -3.9642e-05 1.12167e-05
-3.9642e-05 -1.0699e-06 -2.0947e-06
1.12167e-05 -2.0947e-06 -0.000114534
0.000658214 -2.15252e-05 4.61422e-07
-2.15252e-05 -9.7374e-05 2.68114e-09
4.61422e-07 2.68114e-09 -0.00016227
0.0051817 -8.02032e-05 -0.000166045
-8.02032e-05 0.00257723 5.02123e-06
-0.000166045 5.02123e-06 0.00257624
0.000658862 -2.79292e-05 1.56634e-05
-2.79292e-05 -8.97925e-05 -3.35361e-06
1.56634e-05 -3.35361e-06 -0.000154347
0.00513477 -2.81807e-05 1.12551e-05
-2.81807e-05 0.00255178 -1.59628e-07
1.12551e-05 -1.59628e-07 0.00255056
0.001499 -1.48825e-05 0.000143798
-1.48825e-05 0.000487089 -6.89141e-06
0.000143798 -6.89141e-06 0.000470327
0.00167914 3.88735e-05 7.53082e-07
3.88735e-05 0.000125811 2.86247e-07
7.53082e-07 2.86247e-07 9.20145e-06
0.00177159 6.25082e-05 -1.53697e-06
6.25082e-05 0.000115617 -1.9526e-07
-1.53697e-06 -1.9526e-07 1.09229e-05
0.00143364 4.24495e-05 -3.8223e-06
4.24495e-05 7.60129e-05 -5.34467e-08
-3.8223e-06 -5.34467e-08 -4.7637e-05
0.00158848 4.77442e-05 3.99897e-07
4.77442e-05 7.53438e-05 4.62071e-10
3.99897e-07 4.62071e-10 -4.35612e-05
0.00184188 6.13483e-05 -7.239e-07
6.13483e-05 0.000142949 -1.73278e-06
-7.239e-07 -1.73278e-06 4.21468e-05
0.00111683 6.25744e-05 -1.12822e-05
6.25744e-05 2.17087e-06 -2.0529e-06
-1.12822e-05 -2.0529e-06 -0.000107948
0.00139772 7.73482e-05 4.05852e-08
7.73482e-05 5.7169e-05 1.49902e-07
4.05852e-08 1.49902e-07 -7.06792e-05
0.00160449 8.35623e-05 7.2932e-07
8.35623e-05 8.21032e-05 -7.29909e-07
7.2932e-07 -7.29909e-07 -4.32118e-05
0.000618837 5.92392e-05 -1.62475e-05
5.92392e-05 -0.000111597 -4.55816e-06
-1.62475e-05 -4.55816e-06 -0.000175965
0.000867491 8.30668e-05 -3.23326e-06
8.30668e-05 -0.000129411 -4.7303e-07
-3.23326e-06 -4.7303e-07 -0.000243346
0.00178279 0.000125984 5.28033e-06
0.000125984 0.000288251 9.90096e-07
5.28033e-06 9.90096e-07 0.000158361
0.00521334 9.85154e-05 -0.000176097
9.85154e-05 0.00259537 -1.09346e-05
-0.000176097 -1.09346e-05 0.00259463
0.000599311 8.23448e-05 8.18549e-08
8.23448e-05 -0.000108284 1.19688e-07
8.18549e-08 1.19688e-07 -0.000174942
0.000645762 9.61221e-05 7.9569e-06
9.61221e-05 -0.000238963 2.72373e-06
7.9569e-06 2.72373e-06 -0.000356416
0.0051389 5.51715e-05 1.00865e-05
5.51715e-05 0.00256807 1.19295e-06
1.00865e-05 1.19295e-06 0.00256185
0.0005726 0.000101922 1.65672e-05
0.000101922 -0.000107287 7.75039e-06
1.65672e-05 7.75039e-06 -0.000178979
0.00488799 -4.365e-05 0.000138187
-4.365e-05 0.00243509 8.63816e-06
0.000138187 8.63816e-06 0.00242801
0.00171249 2.14248e-05 -2.26269e-06
2.14248e-05 0.000226176 -1.88078e-07
-2.26269e-06 -1.88078e-07 0.000107993
0.00173963 2.55986e-05 -1.72533e-07
2.55986e-05 0.000140164 9.4221e-08
-1.72533e-07 9.4221e-08 2.52402e-05
0.0016971 3.75223e-05 -5.80854e-07
3.75223e-05 6.33098e-05 2.21715e-07
-5.80854e-07 2.21715e-07 -4.1361e-05
0.00078058 -1.02628e-05 -1.29363e-05
-1.02628e-05 -0.000193142 -1.85895e-07
-1.29363e-05 -1.85895e-07 -0.000306465
0.00172114 3.76049e-06 2.09131e-06
3.76049e-06 0.000228303 -5.8744e-08
2.09131e-06 -5.8744e-08 0.000108929
0.00173267 2.40549e-06 8.85681e-07
2.40549e-06 0.000140025 1.33971e-07
8.85681e-07 1.33971e-07 2.59517e-05
0.00173085 -6.25337e-06 6.19432e-06
-6.25337e-06 0.000229888 -7.6047e-08
6.19432e-06 -7.6047e-08 0.000108416
0.000780825 -6.5408e-06 -1.92798e-06
-6.5408e-06 -0.000196319 1.51285e-07
-1.92798e-06 1.51285e-07 -0.000311652
0.000686484 -1.58292e-05 -1.71367e-05
-1.58292e-05 -9.11602e-05 6.92387e-07
-1.71367e-05 6.92387e-07 -0.000156945
0.00110574 -1.53808e-05 8.9875e-06
-1.53808e-05 -9.15307e-06 -1.24528e-06
8.9875e-06 -1.24528e-06 -0.000122669
0.000660565 2.87255e-06 1.75063e-07
2.87255e-06 -0.000102487 9.07152e-08
1.75063e-07 9.07152e-08 -0.00016818
0.00527085 -6.62014e-05 -0.000175378
-6.62014e-05 0.00262539 3.25332e-06
-0.000175378 3.25332e-06 0.00262511
0.000660975 -1.50435e-05 1.642e-05
-1.50435e-05 -9.57581e-05 -2.29094e-06
1.642e-05 -2.29094e-06 -0.00016093
0.00521828 1.40668e-05 -4.29835e-07
1.40668e-05 0.00259248 7.36624e-07
-4.29835e-07 7.36624e-07 0.00259454
0.00515904 -5.07873e-05 0.000171114
-5.07873e-05 0.00256044 -4.97033e-06
0.000171114 -4.97033e-06 0.0025623
0.00144671 2.7056e-05 -3.86702e-06
2.7056e-05 8.49889e-05 -2.96392e-07
-3.86702e-06 -2.96392e-07 -3.68979e-05
0.00166313 4.15789e-05 7.17129e-09
4.15789e-05 0.000115859 -5.12828e-07
7.17129e-09 -5.12828e-07 8.58828e-07
0.00173619 6.62046e-05 -2.61388e-06
6.62046e-05 9.07396e-05 -2.02254e-07
-2.61388e-06 -2.02254e-07 -1.26477e-05
0.00111406 3.27313e-05 -1.11373e-05
3.27313e-05 -2.28814e-06 -1.53574e-06
-1.11373e-05 -1.53574e-06 -0.000110771
0.00140487 4.25312e-05 2.15591e-07
4.25312e-05 5.89387e-05 7.87977e-08
2.15591e-07 7.87977e-08 -6.49705e-05
0.00158891 4.69089e-05 -3.94094e-08
4.69089e-05 7.67566e-05 -1.26124e-06
-3.94094e-08 -1.26124e-06 -4.2199e-05
0.000648044 3.53392e-05 -1.58407e-05
3.53392e-05 -0.000103291 -3.49204e-06
-1.58407e-05 -3.49204e-06 -0.000167126
0.00110789 6.41688e-05 9.69011e-08
6.41688e-05 -2.43842e-06 1.84845e-07
9.69011e-08 1.84845e-07 -0.000112915
0.00138062 7.69739e-05 4.6514e-06
7.69739e-05 4.80176e-05 6.92961e-07
4.6514e-06 6.92961e-07 -7.99557e-05
0.00519847 0.0001138 -0.000187585
0.0001138 0.00258617 -9.62073e-06
-0.000187585 -9.62073e-06 0.00258501
0.000637174 6.0123e-05 1.79468e-07
6.0123e-05 -0.000100972 1.59596e-07
1.79468e-07 1.59596e-07 -0.000165544
0.00105783 9.05475e-05 8.20621e-06
9.05475e-05 -2.15879e-05 2.32947e-06
8.20621e-06 2.32947e-06 -0.000134782
0.00516064 0.000111064 5.10659e-06
0.000111064 0.00257191 1.60729e-06
5.10659e-06 1.60729e-06 0.00256875
0.000606001 7.97463e-05 1.57939e-05
7.97463e-05 -0.000104438 6.23461e-06
1.57939e-05 6.23461e-06 -0.000171097
0.00509238 7.36464e-05 0.000163961
7.36464e-05 0.00253746 1.15349e-05
0.000163961 1.15349e-05 0.00253478
0.00114568 9.54657e-06 -1.17661e-05
9.54657e-06 1.36697e-05 -6.88688e-07
-1.17661e-05 -6.88688e-07 -9.5603e-05
0.00153744 1.6163e-05 2.3507e-06
1.6163e-05 0.000127718 8.78003e-08
2.3507e-06 8.78003e-08 8.1376e-06
0.00170916 2.01035e-05 -4.06837e-08
2.01035e-05 0.000125169 1.88961e-07
-4.06837e-08 1.88961e-07 9.49267e-06
0.000691363 2.32868e-05 -1.75065e-05
2.32868e-05 -9.3485e-05 -4.04859e-07
-1.75065e-05 -4.04859e-07 -0.000154187
0.000770516 -4.50815e-06 -2.11335e-06
-4.50815e-06 -0.000199732 2.89498e-08
-2.11335e-06 2.89498e-08 -0.000313226
0.00174334 1.01129e-05 6.51421e-06
1.01129e-05 0.000240785 7.68225e-08
6.51421e-06 7.68225e-08 0.000121406
0.000767084 -6.05099e-06 8.53235e-06
-6.05099e-06 -0.000204604 -3.54875e-07
8.53235e-06 -3.54875e-07 -0.000320098
0.000668071 -6.48602e-07 1.45826e-07
-6.48602e-07 -0.000101668 2.95813e-07
1.45826e-07 2.95813e-07 -0.000167206
0.00531934 5.50121e-05 -0.000183938
5.50121e-05 0.0026496 -8.96334e-07
-0.000183938 -8.96334e-07 0.00265085
0.000643074 1.18746e-05 1.62487e-05
1.18746e-05 -0.00011277 -1.17794e-06
1.62487e-05 -1.17794e-06 -0.000178175
0.00528699 -6.36377e-05 -7.67279e-06
-6.36377e-05 0.0026337 1.22061e-06
-7.67279e-06 1.22061e-06 0.00263345
0.00523384 5.5501e-05 0.000161661
5.5501e-05 0.0026039 -2.16535e-06
0.000161661 -2.16535e-06 0.00260365
0.00112754 1.66895e-05 -1.16562e-05
1.66895e-05 4.012e-06 -1.32678e-06
-1.16562e-05 -1.32678e-06 -0.000104313
0.00137307 2.62756e-05 6.69103e-08
2.62756e-05 4.2452e-05 -4.95579e-08
6.69103e-08 -4.95579e-08 -7.90602e-05
0.00164972 4.41584e-05 -8.09388e-07
4.41584e-05 0.000107238 -9.75316e-07
-8.09388e-07 -9.75316e-07 -6.15542e-06
0.00255162 2.96638e-05 -9.29513e-05
2.96638e-05 0.000971389 -2.75923e-06
-9.29513e-05 -2.75923e-06 0.000925267
0.00112229 3.49411e-05 1.48923e-07
3.49411e-05 1.83464e-06 1.80312e-07
1.48923e-07 1.80312e-07 -0.000106825
0.0013744 4.24529e-05 4.31639e-06
4.24529e-05 4.09454e-05 2.58632e-07
4.31639e-06 2.58632e-07 -8.3228e-05
0.00518182 0.000111291 -0.000190653
0.000111291 0.0025797 -7.60466e-06
-0.000190653 -7.60466e-06 0.00257703
0.000677789 4.31358e-05 4.37391e-07
4.31358e-05 -8.54875e-05 2.16017e-07
4.37391e-07 2.16017e-07 -0.00014996
0.00111055 6.60335e-05 1.12778e-05
6.60335e-05 -7.73668e-07 2.41564e-06
1.12778e-05 2.41564e-06 -0.000111586
0.00519903 0.000129618 3.58898e-07
0.000129618 0.00259102 1.44433e-06
3.58898e-07 1.44433e-06 0.00258788
0.000663244 5.99583e-05 1.62024e-05
5.99583e-05 -8.59074e-05 5.07258e-06
1.62024e-05 5.07258e-06 -0.000150602
0.00511675 0.000129689 0.000174412
0.000129689 0.00255063 1.26664e-05
0.000174412 1.26664e-05 0.00254624
0.000724858 7.77646e-06 -1.60987e-05
7.77646e-06 -6.72506e-05 -1.69566e-06
-1.60987e-05 -1.69566e-06 -0.00013221
0.000955795 7.20412e-06 6.10401e-07
7.20412e-06 -9.30882e-05 2.6661e-07
6.10401e-07 2.6661e-07 -0.000203771
0.00135642 1.06837e-05 6.03309e-06
1.06837e-05 2.59043e-05 2.76307e-07
6.03309e-06 2.76307e-07 -9.50446e-05
0.00526068 -9.0181e-05 -0.000168856
-9.0181e-05 0.00263063 -1.10749e-06
-0.000168856 -1.10749e-06 0.00262322
0.000671154 8.1803e-06 -2.88083e-07
8.1803e-06 -0.00010081 2.24328e-07
-2.88083e-07 2.24328e-07 -0.000163756
0.000766609 9.36925e-07 8.6074e-06
9.36925e-07 -0.000202924 1.46645e-07
8.6074e-06 1.46645e-07 -0.000316577
0.000645863 1.75566e-05 1.66192e-05
1.75566e-05 -0.000114019 1.36871e-07
1.66192e-05 1.36871e-07 -0.000179433
0.00530902 2.20382e-05 3.04645e-06
2.20382e-05 0.0026467 -5.85223e-09
3.04645e-06 -5.85223e-09 0.00264553
0.00532029 3.14373e-05 0.000172865
3.14373e-05 0.00264636 -4.27162e-07
0.000172865 -4.27162e-07 0.00264872
0.00259762 -3.94863e-07 -9.23143e-05
-3.94863e-07 0.000992501 -1.94767e-06
-9.23143e-05 -1.94767e-06 0.000946496
0.00114121 1.92643e-05 -1.05054e-08
1.92643e-05 1.12156e-05 5.57315e-08
-1.05054e-08 5.57315e-08 -9.71768e-05
0.0012984 2.56997e-05 4.05281e-06
2.56997e-05 -6.20561e-07 8.90596e-08
4.05281e-06 8.90596e-08 -0.000121759
0.00491141 -6.51459e-05 -3.2624e-05
-6.51459e-05 0.00243605 -4.33606e-07
-3.2624e-05 -4.33606e-07 0.00242139
0.000691221 3.26295e-05 -3.85949e-08
3.26295e-05 -8.07681e-05 2.26674e-07
-3.85949e-08 2.26674e-07 -0.000145333
0.00114259 3.77102e-05 1.12807e-05
3.77102e-05 1.24533e-05 1.94579e-06
1.12807e-05 1.94579e-06 -9.63518e-05
0.00521694 7.38147e-05 -1.17755e-05
7.38147e-05 0.00259472 -3.01052e-07
-1.17755e-05 -3.01052e-07 0.00259484
0.000708746 5.89449e-05 1.7312e-05
5.89449e-05 -6.65566e-05 4.26735e-06
1.7312e-05 4.26735e-06 -0.000131909
0.00518561 0.000148116 0.00018324
0.000148116 0.00258836 1.23995e-05
0.00018324 1.23995e-05 0.002583
0.00166155 -3.47098e-05 -0.000156571
-3.47098e-05 0.000569741 3.89766e-07
-0.000156571 3.89766e-07 0.000552847
0.00164605 1.81721e-05 -3.78037e-05
1.81721e-05 0.000451226 2.67417e-07
-3.78037e-05 2.67417e-07 0.000398286
0.000772669 7.4278e-06 1.14526e-05
7.4278e-06 -0.000196067 1.00218e-06
1.14526e-05 1.00218e-06 -0.000308179
0.00526799 -3.66654e-05 8.60773e-06
-3.66654e-05 0.00263062 -1.20524e-07
8.60773e-06 -1.20524e-07 0.00262654
0.000667475 -5.94821e-06 1.71656e-05
-5.94821e-06 -9.9927e-05 9.26008e-07
1.71656e-05 9.26008e-07 -0.000164456
0.00531938 -4.94402e-05 0.000189214
-4.94402e-05 0.00265185 -3.83943e-07
0.000189214 -3.83943e-07 0.00265182
0.00132942 -1.99378e-05 -1.51357e-05
-1.99378e-05 0.000400849 -8.78452e-07
-1.51357e-05 -8.78452e-07 0.000367221
0.00163962 1.02595e-05 -3.78767e-05
1.02595e-05 0.00045186 -2.09752e-07
-3.78767e-05 -2.09752e-07 0.000397131
0.00114187 2.02254e-05 1.14175e-05
2.02254e-05 1.1438e-05 1.46344e-06
1.14175e-05 1.46344e-06 -9.70466e-05
0.00326191 3.44911e-05 6.92074e-05
3.44911e-05 0.00148849 1.23788e-06
6.92074e-05 1.23788e-06 0.0014733
0.000699243 4.11104e-05 1.74524e-05
4.11104e-05 -7.6128e-05 3.53094e-06
1.74524e-05 3.53094e-06 -0.000140944
0.00522552 8.25523e-05 0.000173558
8.25523e-05 0.00259893 8.3221e-06
0.000173558 8.3221e-06 0.0025997
0.00520941 -2.63981e-05 -8.93423e-06
-2.63981e-05 0.0025997 -5.22083e-07
-8.93423e-06 -5.22083e-07 0.00259517
0.000683715 3.05744e-05 1.7927e-05
3.05744e-05 -9.35903e-05 1.72037e-06
1.7927e-05 1.72037e-06 -0.000154115
0.00522125 5.86349e-05 0.000173791
5.86349e-05 0.00260195 -7.93226e-07
0.000173791 -7.93226e-07 0.00259994
0.00326576 2.95392e-05 8.46629e-05
2.95392e-05 0.00149408 1.68188e-06
8.46629e-05 1.68188e-06 0.00147759
0.00070276 6.96137e-06 1.70676e-05
6.96137e-06 -7.67385e-05 2.50513e-06
1.70676e-05 2.50513e-06 -0.000140573
0.00521659 -4.02675e-05 0.00016643
-4.02675e-05 0.002595 4.33023e-06
0.00016643 4.33023e-06 0.00259463
0.00520635 -0.000135285 0.000167693
-0.000135285 0.00260512 -1.10645e-06
0.000167693 -1.10645e-06 0.00259548
0.00519626 -2.93903e-05 0.000165155
-2.93903e-05 0.00258032 2.01946e-06
0.000165155 2.01946e-06 0.00258256
