# vtk DataFile Version 2.0
Wound Healing Simulation
ASCII
DATASET UNSTRUCTURED_GRID
POINTS 3012 float
69.9759 18.75 4
67.2507 60.3285 4
69.976 18.75 2
73.0099 25.446 4
71.1327 20.9142 4
68.6801 16.6661 4
67.8245 19.9262 3.98034
67.2507 60.3286 2
71.1327 54.0858 4
68.6801 58.3339 4
65.6939 62.2254 4
65.3111 59.0006 3.97936
74.6784 42.3946 4
73.7221 47.2057 4
69.9759 18.75 0
73.0099 25.446 2
68.6801 16.6661 2
71.1327 20.9142 2
67.8251 19.9296 2
74.6792 32.6053 4
73.7222 27.7943 4
72.1454 23.1494 4
70.6133 26.2209 3.97988
68.8848 21.958 3.98073
67.2507 14.6715 4
66.6359 17.9725 3.97932
65.7938 21.0271 3.96961
67.2507 60.3285 0
71.1327 54.0858 2
68.6801 58.3339 2
65.694 62.2255 2
65.3124 58.9966 2
72.1454 51.8506 4
69.9759 56.25 4
68.8355 53.113 3.97992
64.0165 64.0165 4
66.6097 57.1334 3.9799
63.8842 60.7649 3.97952
63.4971 57.7681 3.97078
60.3285 67.2507 4
74.6792 42.3947 2
73.7222 47.2057 2
74.9194 39.9526 4
74.2788 44.8158 4
72.1677 42.0855 3.97964
73.0099 49.554 4
71.2486 46.5979 3.97919
73.0099 25.446 0
71.1327 20.9142 0
68.6801 16.6661 0
67.8245 19.9262 0.0196567
74.6792 32.6053 2
73.7222 27.7943 2
67.2508 14.6715 2
72.1455 23.1494 2
70.6133 26.2215 2
66.6369 17.9768 2
68.8851 21.9602 2
65.7932 21.0281 2
74.9197 35.0474 4
74.2794 30.1841 4
72.1843 32.9434 3.97989
71.2775 28.4314 3.97947
69.8147 24.0595 3.98049
68.3441 26.9523 3.96887
66.7594 22.9345 3.96923
65.694 12.7746 4
65.3222 16.1045 3.97886
64.71 19.198 3.96993
63.8757 22.0413 3.96613
71.1327 54.0858 0
65.6939 62.2254 0
68.6801 58.3339 0
65.3111 59.0006 0.0206391
72.1455 51.8506 2
69.9759 56.25 2
68.8356 53.111 2
64.0165 64.0165 2
66.6106 57.1296 2
63.8859 60.7613 2
63.4966 57.7677 2
62.2254 65.694 4
58.8938 65.4138 3.98914
69.768 50.9888 3.97964
67.7827 55.1671 3.97983
66.6464 52.2078 3.96852
62.3348 62.4267 3.98334
64.6575 56.0292 3.96985
62.1987 59.3975 3.96923
61.816 56.6734 3.966
58.3339 68.6801 4
60.3285 67.2508 2
73.7221 47.2057 0
74.6784 42.3946 0
74.9197 39.9526 2
74.2794 44.8159 2
72.1671 42.0854 2
73.0099 49.554 2
71.2484 46.5977 2
75 37.5 4
72.405 39.8022 3.98029
71.7819 44.3528 3.9796
69.8018 41.7895 3.96912
70.5743 48.8134 3.97928
68.9095 46.0141 3.96867
74.6792 32.6053 0
73.7222 27.7943 0
67.2507 14.6715 0
72.1454 23.1494 0
70.6133 26.2209 0.0201192
68.8848 21.958 0.0192702
66.6359 17.9725 0.0206808
65.7938 21.0271 0.0303933
74.9197 35.0474 2
74.2794 30.1841 2
72.1837 32.9438 2
71.2773 28.4319 2
65.694 12.7745 2
65.3238 16.1091 2
69.8147 24.0607 2
68.3439 26.953 2
64.7094 19.1989 2
66.759 22.9355 2
63.8753 22.0418 2
72.4128 35.2242 3.98034
71.8033 30.6763 3.97991
69.8378 33.2689 3.96926
68.9635 29.0389 3.96891
67.6084 24.913 3.96896
66.1745 27.6397 3.96698
64.0165 10.9835 4
64.7412 23.8356 3.9665
63.8885 14.3287 3.9802
63.5092 17.4525 3.97061
62.8981 20.3276 3.96558
62.0441 22.9613 3.96692
60.6828 11.099 3.98486
57.611 11.4538 3.9765
72.1454 51.8506 0
69.9759 56.25 0
68.8355 53.113 0.0200755
64.0165 64.0165 0
63.8842 60.7649 0.0204831
66.6097 57.1334 0.0201004
63.4971 57.7681 0.0292158
62.2255 65.694 2
58.8953 65.4129 2
69.768 50.9878 2
67.7832 55.164 2
66.6459 52.207 2
62.3368 62.424 2
64.6569 56.0285 2
62.1981 59.3978 2
61.8154 56.6733 2
60.6675 63.9762 3.98607
57.0249 66.7346 3.99059
57.5563 63.6876 3.97874
67.5045 50.1755 3.96826
65.6986 54.1716 3.96896
64.5188 51.3786 3.96577
60.7701 60.9315 3.97268
62.8129 55.0616 3.96581
60.6489 58.1472 3.96422
60.3162 55.7716 3.96476
56.25 69.9759 4
58.3339 68.6801 2
60.3285 67.2507 0
58.9204 9.65697 3.98698
62.2254 9.30607 4
73.0099 49.554 0
74.2788 44.8158 0
71.2486 46.5979 0.020811
72.1677 42.0855 0.0203609
74.9194 39.9526 0
75 37.5 2
72.4049 39.8024 2
71.7818 44.3524 2
69.8013 41.7892 2
70.5741 48.8131 2
68.9095 46.0135 2
72.4883 37.5121 3.97988
70.0392 39.6574 3.96925
69.4279 43.9071 3.96895
67.5778 41.4952 3.96841
68.263 48.1061 3.96834
66.6831 45.4346 3.96758
74.9197 35.0474 0
74.2794 30.1841 0
72.1843 32.9434 0.0201144
71.2775 28.4314 0.0205283
65.694 12.7746 0
65.3222 16.1045 0.0211441
69.8147 24.0595 0.019507
68.3441 26.9523 0.0311293
66.7594 22.9345 0.0307713
64.71 19.198 0.030069
63.8757 22.0413 0.0338681
72.4128 35.2244 2
71.8033 30.6769 2
69.8372 33.2693 2
68.9634 29.0395 2
64.0165 10.9835 2
63.8906 14.3328 2
63.5086 17.4533 2
67.6081 24.9138 2
66.1746 27.6401 2
62.8975 20.328 2
64.7408 23.8361 2
62.0435 22.9618 2
60.6854 11.1017 2
57.6121 11.4522 2
70.0559 35.3923 3.96939
69.4647 31.1501 3.96903
67.6392 33.5933 3.9681
66.7516 29.6272 3.96734
65.5049 25.7047 3.96666
64.0688 28.2715 3.97019
62.3404 12.6562 3.98309
62.7979 24.655 3.96816
62.1949 15.7935 3.97073
61.8045 18.6952 3.96607
61.1766 21.3608 3.96521
60.3298 23.7588 3.96928
59.244 12.7871 3.97356
55.8734 10.2391 3.97879
56.4025 13.1326 3.97314
69.768 50.9888 0.0203584
62.2254 65.694 0
58.8938 65.4138 0.0108566
67.7827 55.1671 0.0201709
66.6464 52.2078 0.031484
62.3348 62.4267 0.0166589
62.1987 59.3975 0.0307714
64.6575 56.0292 0.030155
61.816 56.6734 0.0340024
60.6694 63.9745 2
57.026 66.7341 2
57.5564 63.6894 2
67.5041 50.1747 2
65.6979 54.1707 2
64.5187 51.3782 2
60.7698 60.9321 2
62.8123 55.0613 2
60.6486 58.1473 2
60.3159 55.7713 2
55.0709 67.9315 3.99162
59.2166 62.3598 3.97388
55.8038 64.907 3.98287
56.3236 62.0772 3.97476
65.3067 49.4014 3.96621
63.6949 53.2863 3.96553
62.3735 50.6322 3.96726
59.3265 59.5445 3.96757
61.0534 54.2941 3.96589
59.2707 56.9933 3.96355
59.2197 55.1638 3.96532
48.1015 68.5771 3.98703
50.9487 69.9312 3.99174
54.0858 71.1327 4
56.25 69.976 2
58.3339 68.6801 0
57.0579 8.33676 3.98813
60.3285 7.74928 4
58.9228 9.6586 2
62.2255 9.30602 2
70.5743 48.8134 0.0207209
71.7819 44.3528 0.020397
68.9095 46.0141 0.0313345
69.8018 41.7895 0.0308824
72.405 39.8022 0.0197076
75 37.5 0
72.4878 37.5122 2
70.0391 39.6573 2
69.4278 43.9067 2
67.5777 41.495 2
68.2629 48.1054 2
66.6826 45.4343 2
70.1272 37.5217 3.96927
67.8181 39.5113 3.9685
67.1993 43.4661 3.96796
65.4706 41.2019 3.97274
66.0407 47.4116 3.96694
64.5585 44.8331 3.97084
72.4128 35.2242 0.0196604
71.8033 30.6763 0.0200942
69.8378 33.2689 0.0307387
68.9635 29.0389 0.0310907
64.0165 10.9835 0
63.8885 14.3287 0.019799
63.5092 17.4525 0.0293937
67.6084 24.913 0.0310356
66.1745 27.6397 0.0330167
64.7412 23.8356 0.0335032
62.8981 20.3276 0.0344169
62.0441 22.9613 0.033082
60.6828 11.099 0.0151445
57.611 11.4538 0.0235039
70.0559 35.3925 2
69.4647 31.1505 2
67.6393 33.5935 2
66.7517 29.6276 2
62.3428 12.6601 2
62.1944 15.7936 2
61.8038 18.6955 2
65.5047 25.7052 2
64.0675 28.272 2
61.1756 21.3613 2
62.7972 24.6555 2
60.3295 23.7596 2
59.2452 12.7867 2
56.4032 13.1307 2
55.8742 10.2379 2
67.857 35.5488 3.96847
67.2466 31.6259 3.96777
65.6237 33.9338 3.97267
64.5833 30.2056 3.97113
63.4706 26.4312 3.96925
62.122 28.8037 3.97437
60.7725 14.2314 3.97288
60.9361 25.3681 3.97137
60.6022 17.1427 3.96562
60.1892 19.8373 3.96346
59.5712 22.2917 3.96609
58.8447 24.3624 3.9719
54.0368 9.14009 3.98082
57.906 14.349 3.97334
54.7844 12.0233 3.97422
55.3064 14.6725 3.97141
67.5045 50.1755 0.0317447
57.0249 66.7346 0.00940658
60.6675 63.9762 0.0139348
57.5563 63.6876 0.0212595
65.6986 54.1716 0.0310413
64.5188 51.3786 0.0342302
60.7701 60.9315 0.0273238
60.6489 58.1472 0.0357762
62.8129 55.0616 0.0341894
60.3162 55.7716 0.035245
55.0716 67.9314 2
59.2169 62.3611 2
55.8036 64.908 2
56.323 62.0795 2
65.3065 49.401 2
63.6948 53.2861 2
62.3733 50.6318 2
59.3257 59.5457 2
61.0539 54.294 2
59.2712 56.993 2
59.2206 55.1634 2
53.0429 68.9992 3.99164
53.9662 66.0112 3.98473
57.8759 60.8567 3.97344
54.6821 63.2013 3.97736
55.2054 60.5961 3.97344
63.1129 48.6414 3.96851
61.6934 52.5571 3.96651
60.1489 49.9861 3.96917
58.0032 58.244 3.96491
59.2782 53.9231 3.96698
58.0804 55.7866 3.961
50.1082 67.8555 3.98669
47.4623 66.5772 3.98334
46.0552 69.1561 3.98724
48.1014 68.5778 2
48.8027 70.7224 3.99185
50.9491 69.9311 2
51.8506 72.1454 4
54.0858 71.1327 2
56.25 69.9759 0
55.1027 7.14111 3.98998
58.3339 6.31992 4
57.0597 8.33768 2
60.3286 7.74926 2
58.9204 9.65697 0.0130216
62.2254 9.30607 0
68.263 48.1061 0.0316558
69.4279 43.9071 0.0310525
66.6831 45.4346 0.0324225
67.5778 41.4952 0.0315882
70.0392 39.6574 0.0307507
72.4883 37.5121 0.020116
70.1267 37.5218 2
67.8179 39.5112 2
67.2 43.4658 2
65.4693 41.2017 2
66.0409 47.4112 2
64.5571 44.8327 2
67.9171 37.5222 3.96851
65.7077 39.3661 3.97295
65.0891 43.0138 3.97221
63.6081 40.9165 3.97728
63.8725 46.6985 3.96954
62.6511 44.1924 3.97502
70.0559 35.3923 0.030615
69.4647 31.1501 0.0309718
67.6392 33.5933 0.0318964
66.7516 29.6272 0.0326644
62.3404 12.6562 0.0169067
62.1949 15.7935 0.0292743
61.8045 18.6952 0.0339293
65.5049 25.7047 0.0333364
64.0688 28.2715 0.0298085
62.7979 24.655 0.0318392
61.1766 21.3608 0.0347885
60.3298 23.7588 0.0307202
59.244 12.7871 0.0264391
56.4025 13.1326 0.0268637
55.8734 10.2391 0.0212124
67.8566 35.549 2
67.2471 31.6262 2
65.6225 33.9341 2
64.5822 30.206 2
60.7726 14.2323 2
60.6018 17.1428 2
60.1904 19.8374 2
63.4697 26.4318 2
62.1197 28.8044 2
59.5725 22.2923 2
60.9354 25.3688 2
58.8438 24.3636 2
57.9062 14.3478 2
55.3068 14.6717 2
54.0375 9.13851 2
54.7851 12.021 2
65.7998 35.67 3.97291
65.1031 32.1648 3.97164
64.1623 34.259 3.97716
62.439 30.6588 3.97547
61.5275 27.101 3.97263
60.674 29.1742 3.9773
59.3038 15.6841 3.9693
59.1712 25.8392 3.97474
59.1034 18.3777 3.96418
58.6697 20.8877 3.963
58.154 23.1375 3.96682
57.8128 24.7148 3.97387
52.1118 8.15628 3.98362
53.0565 11.0268 3.97616
56.6676 15.7659 3.9718
53.805 13.7033 3.97398
54.3644 16.0289 3.97291
55.0709 67.9315 0.0083799
65.3067 49.4014 0.0337936
55.8038 64.907 0.0171325
59.2166 62.3598 0.0261183
56.3236 62.0772 0.0252425
63.6949 53.2863 0.0344696
62.3735 50.6322 0.0327398
59.3265 59.5445 0.0324326
59.2707 56.9933 0.0364549
61.0534 54.2941 0.0341071
59.2197 55.1638 0.0346776
53.0434 68.9993 2
53.9661 66.0121 2
57.8751 60.8582 2
54.6815 63.2021 2
55.205 60.598 2
63.1121 48.6409 2
61.6942 52.5569 2
60.1487 49.9854 2
58.0025 58.2452 2
59.2804 53.9228 2
58.0784 55.7854 2
52.0695 66.9983 3.98633
52.9525 64.2139 3.98139
56.6387 59.4717 3.97244
53.6769 61.6108 3.97622
54.2486 59.2978 3.97424
60.8371 47.8469 3.97015
59.6118 52.0741 3.96788
57.8561 49.5727 3.97092
56.7491 56.9629 3.96689
57.0462 54.0892 3.96483
50.1081 67.8559 2
49.3364 65.918 3.98334
47.4624 66.5778 2
46.8916 64.7302 3.98169
45.5574 67.094 3.98338
43.9724 69.5881 3.98748
46.0552 69.1567 2
46.6092 71.3669 3.9919
48.1015 68.5771 0.0129688
48.8032 70.7226 2
49.554 73.0099 4
50.9487 69.9312 0.00826313
51.8506 72.1455 2
54.0858 71.1327 0
53.0644 6.07218 3.99127
55.1042 7.14123 2
56.25 5.02411 4
58.3339 6.3199 2
57.0579 8.33676 0.011869
60.3285 7.74928 0
66.0407 47.4116 0.0330603
67.1993 43.4661 0.0320441
64.5585 44.8331 0.0291647
65.4706 41.2019 0.0272632
67.8181 39.5113 0.0315041
70.1272 37.5217 0.0307283
67.9171 37.5222 2
65.7062 39.366 2
65.0875 43.0134 2
63.6054 40.916 2
63.8712 46.6979 2
62.6486 44.1916 2
65.8138 37.5014 3.97293
63.758 39.2596 3.97738
63.1711 42.5311 3.9764
62.2349 40.6789 3.97708
61.8099 45.89 3.97254
61.2439 43.6522 3.97717
67.857 35.5488 0.0315265
67.2466 31.6259 0.0322328
65.6237 33.9338 0.0273292
64.5833 30.2056 0.0288697
60.7725 14.2314 0.027124
60.6022 17.1427 0.0343839
60.1892 19.8373 0.0365448
63.4706 26.4312 0.0307546
62.122 28.8037 0.0256258
60.9361 25.3681 0.0286285
59.5712 22.2917 0.0339057
58.8447 24.3624 0.0280972
57.906 14.349 0.0266599
55.3064 14.6725 0.0285938
54.0368 9.14009 0.0191785
54.7844 12.0233 0.0257835
65.7984 35.6702 2
65.1017 32.1652 2
64.1607 34.2593 2
62.4374 30.6593 2
59.303 15.6847 2
59.1036 18.3777 2
58.6746 20.8878 2
61.5259 27.1018 2
60.6727 29.175 2
58.1522 23.1389 2
59.1704 25.8402 2
57.8126 24.7164 2
56.6676 15.7643 2
54.365 16.0299 2
53.805 13.6977 2
52.1122 8.15516 2
53.057 11.0251 2
63.9598 35.6374 3.97671
62.7702 33.0631 3.97625
60.4072 30.6465 3.97652
59.3872 27.952 3.97577
57.9253 17.0068 3.96581
57.5611 25.7793 3.97639
57.6737 19.507 3.96073
57.2553 21.8879 3.96314
57.0144 24.0041 3.96794
50.1123 7.28689 3.98644
51.232 10.1313 3.97899
52.1684 12.8116 3.97658
55.521 17.001 3.97039
52.97 15.2963 3.9711
53.7413 17.0153 3.978
53.0429 68.9992 0.00836323
53.9662 66.0112 0.0152651
63.1129 48.6414 0.03149
54.6821 63.2013 0.0226373
57.8759 60.8567 0.0265602
55.2054 60.5961 0.026564
61.6934 52.5571 0.0334933
60.1489 49.9861 0.0308316
58.0032 58.244 0.0350913
58.0804 55.7866 0.0389992
59.2782 53.9231 0.033023
52.0694 66.9991 2
52.9522 64.2147 2
56.6381 59.4729 2
53.6762 61.6109 2
54.2483 59.2999 2
60.8357 47.846 2
59.612 52.0735 2
57.8536 49.5714 2
56.7476 56.9671 2
57.0441 54.088 2
51.1675 65.1247 3.98318
52.0438 62.5313 3.97791
55.463 58.2296 3.97449
52.8254 60.1124 3.97734
53.6222 58.448 3.97884
58.0783 46.8004 3.97429
57.4357 51.7465 3.96745
56.0403 49.502 3.97065
55.4264 55.7617 3.96303
55.2557 53.3432 3.96289
50.1082 67.8555 0.0133064
49.3362 65.9182 2
48.6174 64.1177 3.98219
47.4623 66.5772 0.0166567
45.5574 67.0945 2
46.8916 64.7307 2
46.381 63.0453 3.98211
45.1318 65.1904 3.98134
43.6306 67.4645 3.98363
41.86 69.8752 3.9872
43.9723 69.5886 2
44.3764 71.8617 3.99189
46.0552 69.1561 0.0127634
46.6096 71.3671 2
47.2057 73.7222 4
48.8027 70.7224 0.00815116
49.554 73.0099 2
51.8506 72.1454 0
50.9546 5.13264 3.99192
53.0654 6.07222 2
54.0858 3.86728 4
55.1027 7.14111 0.0100197
56.25 5.02406 2
58.3339 6.31992 0
63.8725 46.6985 0.0304597
65.0891 43.0138 0.0277863
62.6511 44.1924 0.0249833
63.6081 40.9165 0.022718
65.7077 39.3661 0.0270508
67.9171 37.5222 0.0314885
65.8124 37.5014 2
63.7553 39.2594 2
63.169 42.5305 2
62.2325 40.6783 2
61.8077 45.8891 2
61.2418 43.6513 2
63.8205 37.4562 3.97702
61.9528 39.3425 3.97713
60.9915 41.9302 3.97698
60.0342 44.7324 3.97677
65.7998 35.67 0.0270947
65.1031 32.1648 0.0283601
64.1623 34.259 0.0228365
62.439 30.6588 0.0245285
59.3038 15.6841 0.030701
59.1034 18.3777 0.0358233
58.6697 20.8877 0.0369997
61.5275 27.101 0.027373
60.674 29.1742 0.0226987
59.1712 25.8392 0.0252597
58.154 23.1375 0.0331827
57.8128 24.7148 0.0261296
56.6676 15.7659 0.0281959
54.3644 16.0289 0.0270902
53.805 13.7033 0.0260196
52.1118 8.15628 0.0163781
53.0565 11.0268 0.0238433
63.9576 35.6376 2
62.7684 33.0637 2
60.4056 30.6474 2
57.9242 17.0073 2
57.6772 19.506 2
57.2583 21.8887 2
59.386 27.9529 2
57.014 24.006 2
57.5604 25.781 2
50.1126 7.2852 2
55.5217 17.0004 2
53.7413 17.0146 2
52.9703 15.2944 2
52.1692 12.812 2
51.2325 10.13 2
61.9899 35.3729 3.97716
60.0432 32.7775 3.977
58.3756 30.1256 3.97692
57.0641 27.4412 3.97698
56.6113 18.1855 3.96669
56.0946 25.1686 3.97394
56.2872 20.5646 3.95999
55.9538 22.9301 3.9623
48.0567 6.52833 3.9885
49.3246 9.33607 3.98136
50.4312 12.0053 3.97606
51.3708 14.5196 3.97192
54.3896 17.9542 3.97226
52.3453 17.079 3.96797
52.0695 66.9983 0.0136691
52.9525 64.2139 0.0186053
60.8371 47.8469 0.0298535
53.6769 61.6108 0.0237767
56.6387 59.4717 0.0275573
54.2486 59.2978 0.0257564
59.6118 52.0741 0.0321169
57.8561 49.5727 0.0290836
56.7491 56.9629 0.0331094
57.0462 54.0892 0.0351701
51.1673 65.1253 2
52.0433 62.5321 2
55.4625 58.2309 2
52.825 60.1159 2
53.6217 58.4494 2
58.077 46.7993 2
57.4344 51.7454 2
56.0375 49.5009 2
55.4257 55.7622 2
55.2581 53.3435 2
50.3453 63.3759 3.98191
51.2385 60.9229 3.97652
54.191 57.2455 3.97506
52.2961 58.6062 3.97561
56.3848 44.1201 3.97745
55.2351 47.8355 3.97405
54.9101 51.341 3.96568
53.9331 54.5075 3.96425
49.3364 65.918 0.0166562
48.6173 64.1177 2
47.9607 62.4679 3.98166
45.5574 67.094 0.0166212
46.8916 64.7302 0.0183135
43.6307 67.465 2
46.3811 63.0457 2
45.1319 65.191 2
45.9861 61.5764 3.98422
44.7664 63.444 3.98005
43.3561 65.4996 3.9811
41.663 67.6828 3.98339
39.7021 70.0218 3.98728
41.8598 69.8758 2
42.1108 72.2064 3.99199
43.9724 69.5881 0.0125161
44.3768 71.8619 2
44.8159 74.2794 4
46.6092 71.3669 0.00810467
47.2057 73.7222 2
49.554 73.0099 0
48.7853 4.3231 3.99258
50.9552 5.13207 2
51.8506 2.85458 4
53.0644 6.07218 0.00872993
54.0858 3.86728 2
56.25 5.02411 0
61.8099 45.89 0.0274585
63.1711 42.5311 0.0236038
61.2439 43.6522 0.0228325
62.2349 40.6789 0.0229169
63.758 39.2596 0.0226195
65.8138 37.5014 0.0270729
63.8177 37.4561 2
61.9508 39.3425 2
60.9897 41.9295 2
60.0334 44.7315 2
61.7886 37.4431 3.97733
59.9768 39.8254 3.97716
58.697 42.8727 3.97687
63.9598 35.6374 0.0232882
62.7702 33.0631 0.023751
60.4072 30.6465 0.0234824
57.9253 17.0068 0.0341881
57.6737 19.507 0.0392671
57.2553 21.8879 0.036858
59.3872 27.952 0.0242328
57.5611 25.7793 0.0236089
57.0144 24.0041 0.0320622
55.521 17.001 0.029614
53.7413 17.0153 0.0220023
52.97 15.2963 0.0288955
50.1123 7.28689 0.01356
52.1684 12.8116 0.0234246
51.232 10.1313 0.0210143
61.988 35.3733 2
60.0414 32.7777 2
58.3749 30.1263 2
56.6102 18.1863 2
56.2909 20.5622 2
55.9568 22.9319 2
57.0643 27.4428 2
56.095 25.1706 2
48.0568 6.52706 2
49.325 9.33407 2
54.3902 17.9539 2
52.3453 17.0782 2
51.3704 14.5145 2
50.4321 12.0036 2
59.6181 35.1363 3.97709
57.6767 32.3164 3.97643
56.2718 29.407 3.97753
55.1799 26.6824 3.97725
55.3009 19.2242 3.96056
54.7397 24.1345 3.96389
54.8968 21.6191 3.95967
45.9628 5.8831 3.98894
43.3743 7.47452 3.98587
47.3556 8.62624 3.98416
48.5991 11.302 3.97807
49.7078 13.7578 3.9759
50.621 16.1645 3.97518
53.0923 18.7036 3.9666
51.2782 18.1033 3.97743
51.1675 65.1247 0.0168245
52.0438 62.5313 0.0220944
58.0783 46.8004 0.0257056
52.8254 60.1124 0.022656
55.463 58.2296 0.0255062
53.6222 58.448 0.0211646
57.4357 51.7465 0.0325475
56.0403 49.502 0.0293484
55.4264 55.7617 0.0369708
55.2557 53.3432 0.0371111
50.345 63.3761 2
51.2378 60.923 2
54.1908 57.2472 2
52.2955 58.6073 2
56.3841 44.1192 2
55.2345 47.8347 2
54.9121 51.3409 2
53.9337 54.5091 2
49.5896 61.7383 3.98015
55.2057 41.6664 3.97564
50.5543 59.3097 3.97322
52.1481 56.4636 3.97068
53.8274 45.4885 3.97483
53.1004 49.2664 3.9695
52.5486 52.808 3.96165
48.6174 64.1177 0.0178099
47.9605 62.4674 2
47.3259 61.0007 3.98545
43.6306 67.4645 0.0163679
45.1318 65.1904 0.0186611
46.381 63.0453 0.0178871
41.6632 67.6829 2
43.3561 65.5004 2
45.9862 61.5768 2
44.7665 63.4447 2
45.762 60.6206 3.98364
44.4826 61.8224 3.98078
43.1459 63.7156 3.97929
41.5458 65.6366 3.97993
39.6324 67.7617 3.983
37.5261 70.0465 3.98662
39.7019 70.0223 2
39.8176 72.4032 3.99177
41.86 69.8752 0.0127955
42.1111 72.2067 2
42.3947 74.6792 4
44.3764 71.8617 0.00811497
44.8159 74.2794 2
47.2057 73.7222 0
43.852 5.36007 3.98889
46.5713 3.64753 3.9927
48.7856 4.32259 2
49.554 1.99015 4
50.9546 5.13264 0.00808272
51.8506 2.85453 2
54.0858 3.86728 0
60.0342 44.7324 0.0232296
60.9915 41.9302 0.0230231
61.9528 39.3425 0.0228666
63.8205 37.4562 0.0229806
61.7869 37.4431 2
59.9761 39.8254 2
58.6963 42.8716 2
59.4776 37.5653 3.97748
57.6507 40.6241 3.97735
54.6246 39.6833 3.97519
61.9899 35.3729 0.0228436
60.0432 32.7775 0.0230037
58.3756 30.1256 0.0230812
56.6113 18.1855 0.0333119
56.2872 20.5646 0.0400118
55.9538 22.9301 0.0376978
57.0641 27.4412 0.0230242
56.0946 25.1686 0.0260573
54.3896 17.9542 0.02774
52.3453 17.079 0.0320324
51.3708 14.5196 0.0280841
48.0567 6.52833 0.0115032
49.3246 9.33607 0.0186358
50.4312 12.0053 0.0239447
59.6179 35.1361 2
45.9626 5.88241 2
43.3741 7.47366 2
57.6766 32.3169 2
56.2706 29.408 2
55.2998 19.2252 2
54.9046 21.6195 2
54.7391 24.1366 2
55.1773 26.6847 2
47.3558 8.624 2
48.5998 11.2996 2
53.0935 18.7026 2
51.2792 18.104 2
50.6218 16.1646 2
49.708 13.7562 2
57.0349 34.7811 3.97737
55.3882 31.5756 3.9768
54.1905 28.4957 3.97755
53.5448 25.5947 3.97601
53.9094 20.1849 3.95929
53.4434 22.7887 3.95483
41.3994 7.08041 3.98597
45.3605 7.99575 3.98659
42.8663 9.41788 3.98257
46.6669 10.6578 3.98131
47.7411 13.1133 3.97795
48.9214 15.4215 3.97268
49.9842 17.7286 3.97415
51.6098 19.3817 3.9751
50.3453 63.3759 0.0180891
51.2385 60.9229 0.0234793
56.3848 44.1201 0.0225481
55.2351 47.8355 0.0259481
52.2961 58.6062 0.0243927
54.191 57.2455 0.0249391
54.9101 51.341 0.0343242
53.9331 54.5075 0.0357483
49.5889 61.7381 2
55.2025 41.6648 2
50.5537 59.3109 2
52.1478 56.4651 2
53.8288 45.4882 2
53.1088 49.2667 2
52.5489 52.8074 2
48.8412 60.1938 3.97815
52.0407 42.5563 3.98132
49.7637 57.6029 3.96906
50.5138 54.3986 3.96166
51.4974 47.1964 3.97565
51.0368 50.8939 3.95609
47.7063 43.6923 3.98771
47.9607 62.4679 0.0183411
47.3258 61.0002 2
46.6115 59.7881 3.98623
41.663 67.6828 0.016607
43.3561 65.4996 0.0188966
44.7664 63.444 0.0199518
45.9861 61.5764 0.0157764
39.6328 67.7623 2
41.5456 65.6364 2
45.762 60.6212 2
43.146 63.7165 2
44.4827 61.8231 2
44.6188 60.2798 3.98479
42.9497 62.0687 3.97671
41.5997 63.808 3.97917
39.6473 65.6031 3.97877
37.5634 67.7429 3.982
31.6974 65.1225 3.98015
33.3926 67.4812 3.98182
35.3339 69.9567 3.98689
37.5259 70.0474 2
37.5095 72.4578 3.9919
39.7021 70.0218 0.012724
39.8178 72.4036 2
39.9526 74.9197 4
42.1108 72.2064 0.00801403
42.3947 74.6792 2
44.8159 74.2794 0
41.7365 4.9692 3.98907
43.852 5.35917 2
44.3265 3.11071 3.99303
46.5714 3.64718 2
47.2057 1.27793 4
48.7853 4.3231 0.00742496
49.554 1.99013 2
51.8506 2.85458 0
58.697 42.8727 0.0231345
59.9768 39.8254 0.0228366
61.7886 37.4431 0.0226681
59.4778 37.5659 2
57.6502 40.6244 2
54.6225 39.6855 2
56.4221 37.8848 3.97714
49.0713 41.2629 3.98514
52.6353 39.307 3.98367
39.443 6.80427 3.98596
59.6181 35.1363 0.0229135
57.6767 32.3164 0.023571
56.2718 29.407 0.0224708
55.3009 19.2242 0.0394373
54.8968 21.6191 0.0403329
54.7397 24.1345 0.0361051
55.1799 26.6824 0.0227464
53.0923 18.7036 0.0333976
51.2782 18.1033 0.0225678
50.621 16.1645 0.0248228
45.9628 5.8831 0.0110597
49.7078 13.7578 0.0240975
47.3556 8.62624 0.0158391
48.5991 11.302 0.0219345
43.3743 7.47452 0.0141332
57.0347 34.7806 2
41.3994 7.07914 2
45.3602 7.99512 2
42.8661 9.41719 2
55.3909 31.5736 2
54.1909 28.4965 2
53.9108 20.1871 2
53.4426 22.7868 2
53.5434 25.5963 2
46.6672 10.6541 2
47.7416 13.1098 2
51.6118 19.3826 2
49.9842 17.7265 2
48.9211 15.4224 2
54.4295 33.9788 3.97581
53.1284 30.5845 3.97752
52.2829 27.3141 3.97563
51.9711 24.203 3.97743
52.3094 21.1214 3.97262
41.0138 9.05205 3.9822
44.7257 9.99579 3.98474
42.468 10.9042 3.98693
46.0025 12.7363 3.977
47.6722 14.5984 3.97261
48.0913 17.0051 3.97213
49.7923 19.7306 3.97155
49.5896 61.7383 0.0198458
50.5543 59.3097 0.0267813
55.2057 41.6664 0.0243558
53.8274 45.4885 0.0251718
53.1004 49.2664 0.0305045
52.1481 56.4636 0.0293151
52.5486 52.808 0.0383533
48.8406 60.1923 2
52.0558 42.561 2
49.7629 57.6036 2
50.5137 54.4002 2
51.5011 47.1961 2
51.0376 50.8926 2
47.7164 43.7162 2
47.9704 58.7266 3.97867
49.6636 45.201 3.97882
48.5486 55.8961 3.97497
49.0136 52.5585 3.97748
49.4405 48.9839 3.97359
45.471 39.8337 3.87968
45.9392 42.56 3.90937
46.1187 45.7226 3.98318
43.2805 41.0825 3.76166
41.7903 41.9635 3.59323
47.3259 61.0007 0.0145497
46.6109 59.7875 2
45.4569 58.7832 3.98373
39.6324 67.7617 0.0170036
41.5458 65.6366 0.0200726
43.1459 63.7156 0.0207114
44.4826 61.8224 0.0192187
45.762 60.6206 0.0163553
41.5997 63.8081 2
37.5636 67.7439 2
39.6471 65.6037 2
44.6189 60.2804 2
42.9498 62.0694 2
41.7527 62.4792 3.97806
42.4772 59.9631 3.98002
39.8938 63.5399 3.97674
37.6421 65.5009 3.97966
35.4637 67.6526 3.98208
33.5756 65.3345 3.97908
31.9593 63.2904 3.97966
29.8838 64.7143 3.98142
31.6973 65.1231 2
31.3773 67.1915 3.98247
33.3927 67.482 2
33.1572 69.7506 3.98682
35.3337 69.9575 2
35.1952 72.3721 3.99176
37.5261 70.0465 0.0133759
37.5095 72.4583 2
37.5 75 4
39.8176 72.4032 0.00823228
39.9526 74.9197 2
42.3947 74.6792 0
39.6242 4.71681 3.98945
41.7366 4.96826 2
42.0629 2.71815 3.99329
43.852 5.36007 0.0111126
44.3266 3.11014 2
44.8158 0.721173 4
46.5713 3.64753 0.00729857
47.2057 1.27779 2
49.554 1.99015 0
57.6507 40.6241 0.0226516
59.4776 37.5653 0.0225159
54.6246 39.6833 0.0248127
49.0949 41.278 2
56.4229 37.8846 2
52.6344 39.2898 2
53.4817 36.6306 3.97739
46.9957 40.3581 3.91487
50.0128 38.5228 3.9899
37.5169 6.67548 3.98586
39.443 6.80281 2
39.2112 8.69501 3.9833
35.9427 8.49512 3.98401
57.0349 34.7811 0.0226258
55.3882 31.5756 0.0231973
54.1905 28.4957 0.0224499
53.9094 20.1849 0.0407108
53.4434 22.7887 0.0451666
53.5448 25.5947 0.0239924
51.6098 19.3817 0.0249027
49.9842 17.7286 0.0258481
48.9214 15.4215 0.0273193
45.3605 7.99575 0.0134103
47.7411 13.1133 0.0220537
46.6669 10.6578 0.0186896
41.3994 7.08041 0.0140283
42.8663 9.41788 0.0174298
54.4266 33.9812 2
41.0139 9.05086 2
44.7248 9.99542 2
42.4677 10.9043 2
53.1254 30.5845 2
52.2916 27.3146 2
52.3134 21.1226 2
51.9723 24.207 2
46.0025 12.7305 2
47.6722 14.5947 2
49.7947 19.7308 2
48.0902 17.0032 2
51.9674 32.8906 3.98059
50.9241 29.2743 3.97581
50.5424 25.8341 3.97307
49.8627 22.3226 3.98359
40.5687 11.6119 3.98087
43.8571 11.9156 3.98008
45.7913 15.4366 3.98229
47.4842 19.3421 3.97727
45.8704 37.4834 3.87476
48.8412 60.1938 0.0218531
49.7637 57.6029 0.030939
52.0407 42.5563 0.0186761
51.4974 47.1964 0.0243517
51.0368 50.8939 0.0439093
50.5138 54.3986 0.0383405
47.7063 43.6923 0.0122869
47.9695 58.7284 2
49.6761 45.2111 2
48.5466 55.8988 2
49.0126 52.5628 2
49.4444 48.9808 2
45.5196 39.8473 2
45.9646 42.5911 2
46.1259 45.7312 2
43.3064 41.1119 2
41.8116 41.9819 2
46.8122 57.3286 3.98015
44.0312 39.3732 3.76008
42.1425 40.8405 3.64294
47.7563 47.202 3.97951
47.0958 54.2105 3.97022
47.4311 50.7107 3.97032
44.5332 47.3274 3.97671
44.5882 41.9016 3.85723
44.5961 44.4586 3.92511
42.201 42.5714 3.77673
40.7328 42.2809 3.62897
46.6115 59.7881 0.0137715
45.457 58.7832 2
43.8615 57.6961 3.98092
37.5634 67.7429 0.0180027
39.6473 65.6031 0.021232
41.5997 63.808 0.0208291
42.9497 62.0687 0.0232919
44.6188 60.2798 0.0152098
35.4639 67.6535 2
41.7529 62.4797 2
39.8936 63.5404 2
37.642 65.5018 2
42.4775 59.9636 2
40.623 61.6328 3.97991
40.4391 58.1818 3.97952
37.8369 63.2007 3.97763
35.573 65.4235 3.97944
33.5756 65.3351 2
31.9591 63.291 2
33.6286 63.3283 3.978
30.3788 62.8501 3.98072
32.124 61.9942 3.98392
26.8716 61.491 3.97812
28.0628 64.1429 3.98097
29.8835 64.7149 2
29.4068 66.7558 3.98319
31.6974 65.1225 0.0198462
31.3774 67.1922 2
31.0149 69.4157 3.98672
33.3926 67.4812 0.0181791
33.1571 69.7513 2
32.8924 72.1466 3.99184
35.3339 69.9567 0.0131087
35.195 72.3726 2
35.0474 74.9194 4
37.5095 72.4578 0.00810383
37.5 75 2
39.9526 74.9197 0
35.6216 6.72659 3.98549
37.5237 4.61625 3.98957
39.6242 4.71555 2
39.7894 2.47473 3.99325
41.7365 4.9692 0.010928
42.0629 2.7176 2
42.3946 0.32156 4
44.3265 3.11071 0.00696575
44.8159 0.72056 2
47.2057 1.27793 0
49.0713 41.2629 0.0148645
56.4221 37.8848 0.0228641
52.6353 39.307 0.016335
47.0181 40.3564 2
50.0189 38.5114 2
53.4871 36.6382 2
50.8017 35.5792 3.97581
47.6649 37.7571 3.93102
45.4747 35.1512 3.87617
43.2872 33.9026 3.7561
41.7908 33.0319 3.58912
37.4584 8.53673 3.98422
37.5168 6.67426 2
39.443 6.80427 0.0140351
39.2115 8.69331 2
38.9763 10.1298 3.98361
35.899 9.77698 3.9812
34.1519 8.82601 3.98267
35.9424 8.49356 2
54.4295 33.9788 0.024194
53.1284 30.5845 0.0224803
52.2829 27.3141 0.0243676
52.3094 21.1214 0.0273765
51.9711 24.203 0.0225652
49.7923 19.7306 0.0284474
48.0913 17.0051 0.0278666
47.6722 14.5984 0.0273893
44.7257 9.99579 0.0152631
46.0025 12.7363 0.0230018
41.0138 9.05205 0.0178048
42.468 10.9042 0.0130652
51.9742 32.8904 2
40.5696 11.6119 2
43.8559 11.9164 2
50.9432 29.274 2
50.5472 25.8362 2
49.8644 22.3201 2
45.7896 15.4226 2
47.4861 19.3467 2
49.5159 31.4934 3.98714
48.9623 27.6039 3.97535
49.2285 24.5087 3.97718
47.1434 22.0879 3.98417
38.3022 12.742 3.97778
42.0989 14.3067 3.97919
44.787 18.5258 3.97746
44.3903 37.4907 3.76951
45.9439 37.4901 2
47.9704 58.7266 0.0213346
48.5486 55.8961 0.025027
49.6636 45.201 0.0211763
49.4405 48.9839 0.0264149
49.0136 52.5585 0.0225194
45.471 39.8337 0.120315
45.9392 42.56 0.0906325
46.1187 45.7226 0.0168191
43.2805 41.0825 0.238341
41.7903 41.9635 0.406768
46.8104 57.3302 2
44.0685 39.3948 2
42.1367 40.8515 2
47.7615 47.2039 2
47.0937 54.2148 2
47.434 50.7149 2
44.5464 47.3058 2
44.6148 41.927 2
44.623 44.4776 2
42.2494 42.6047 2
40.7489 42.2814 2
45.3584 55.916 3.98948
42.4684 39.2613 3.65444
40.6141 40.7256 3.75132
45.8773 48.8647 3.99166
45.4293 52.4962 3.9832
43.2432 48.3311 3.9976
43.1728 45.9898 3.90701
43.3353 43.6799 3.85443
40.8679 43.6747 3.75665
39.2411 42.5643 3.642
45.4569 58.7832 0.0162726
43.861 57.6973 2
42.0891 56.3003 3.98363
35.4637 67.6526 0.0179242
37.6421 65.5009 0.0203435
39.8938 63.5399 0.0232637
41.7527 62.4792 0.0219445
42.4772 59.9631 0.0199752
35.573 65.4245 2
40.6232 61.6335 2
37.8365 63.2015 2
40.4391 58.1833 2
38.9171 56.4753 3.99093
38.2508 60.3149 3.97886
35.6067 63.1943 3.97654
33.5756 65.3345 0.0209168
31.9593 63.2904 0.0203381
33.6285 63.3291 2
30.3786 62.8506 2
32.1244 61.995 2
28.6823 62.1957 3.98054
33.3456 61.5035 3.97941
31.0696 61.2116 3.97992
27.5766 59.5843 3.98087
23.8028 59.0716 3.97889
25.0382 60.8641 3.97881
26.8719 61.4914 2
26.2301 63.4732 3.97992
28.0627 64.1429 2
27.4636 66.18 3.98338
29.8838 64.7143 0.0185843
29.4069 66.7562 2
28.9073 68.9418 3.9865
31.3773 67.1915 0.017529
31.0147 69.4163 2
30.6148 71.7776 3.99157
33.1572 69.7506 0.013182
32.892 72.147 2
32.6054 74.6784 4
35.1952 72.3721 0.00824015
35.0474 74.9197 2
37.5 75 0
33.7244 6.98206 3.9847
35.4357 4.68653 3.98943
35.6214 6.72558 2
37.5149 2.38721 3.99328
37.5237 4.61538 2
39.6242 4.71681 0.0105473
39.7892 2.47404 2
39.9526 0.0806499 4
42.0629 2.71815 0.00671421
42.3947 0.320817 2
44.8158 0.721173 0
44.0421 35.6058 3.75836
42.1451 34.1477 3.63724
46.9957 40.3581 0.085132
50.0128 38.5228 0.010101
53.4817 36.6306 0.0226142
47.6636 37.7538 2
50.8144 35.5738 2
45.514 35.126 2
43.3188 33.871 2
41.8128 33.0121 2
47.8342 34.306 3.95844
44.5907 33.068 3.85116
42.205 32.4228 3.76892
40.735 32.7184 3.62582
37.3108 10.6342 3.98101
37.4585 8.53503 2
37.5169 6.67548 0.0141403
39.2112 8.69501 0.0166986
38.9775 10.1284 2
34.7549 10.3851 3.98135
35.8995 9.77418 2
32.3789 9.37366 3.98017
34.1509 8.82377 2
35.9427 8.49512 0.0159867
51.9674 32.8906 0.0194054
50.9241 29.2743 0.0241928
50.5424 25.8341 0.0269334
49.8627 22.3226 0.0164107
47.4842 19.3421 0.0227255
45.7913 15.4366 0.0177083
43.8571 11.9156 0.0199181
40.5687 11.6119 0.0191259
49.5312 31.4901 2
38.3023 12.7404 2
42.0997 14.3105 2
48.9707 27.6061 2
49.2328 24.5075 2
47.1398 22.0809 2
44.7876 18.5467 2
47.3586 29.6021 3.98402
46.9164 25.2536 3.97859
44.2612 21.4614 3.97858
36.5833 12.9419 3.9758
38.683 14.8245 3.97576
41.7449 17.8851 3.97854
42.5909 37.4834 3.67321
44.427 37.4899 2
45.8704 37.4834 0.125236
46.8122 57.3286 0.0198528
47.0958 54.2105 0.0297758
47.7563 47.202 0.0204897
47.4311 50.7107 0.0296803
44.0312 39.3732 0.239921
44.5882 41.9016 0.142771
44.5961 44.4586 0.0748911
44.5332 47.3274 0.0232895
42.201 42.5714 0.22327
42.1425 40.8405 0.357056
40.7328 42.2809 0.371027
45.3567 55.9155 2
42.4598 39.2619 2
40.6162 40.7098 2
45.8797 48.873 2
45.4282 52.5029 2
43.2492 48.3484 2
43.2144 46.0212 2
43.3736 43.7065 2
40.9015 43.7198 2
39.2381 42.5653 2
43.6884 54.4075 3.99818
40.7136 39.1331 3.76553
39.1094 40.7938 3.74241
43.5488 50.3963 4.00451
41.8494 47.5309 3.94377
41.7537 45.0869 3.87001
39.3354 44.3467 3.75586
37.5064 42.6598 3.66776
43.8615 57.6961 0.0190815
42.0888 56.3017 2
40.4008 54.8811 3.98171
35.573 65.4235 0.0205619
37.8369 63.2007 0.0223669
40.623 61.6328 0.020089
40.4391 58.1818 0.0204753
35.6064 63.1948 2
38.2511 60.3157 2
38.917 56.4752 2
37.9928 55.201 3.99174
36.9335 57.6123 3.9851
35.3637 60.8999 3.97651
33.6286 63.3283 0.0220034
30.3788 62.8501 0.019279
32.124 61.9942 0.01608
33.3463 61.5043 2
28.6825 62.1956 2
31.0702 61.2124 2
29.4081 60.2812 3.97824
32.3617 59.7325 3.98846
28.0387 58.3659 3.99163
27.5778 59.5847 2
25.3918 58.586 3.97745
22.773 58.2253 3.96866
23.4062 60.3405 3.97938
23.8038 59.0725 2
25.0388 60.8647 2
24.4336 62.7646 3.97996
26.8716 61.491 0.0218789
26.2302 63.4739 2
25.5479 65.4892 3.98222
28.0628 64.1429 0.0190331
27.4636 66.1804 2
26.8368 68.3302 3.98651
29.4068 66.7558 0.0168127
28.9071 68.9419 2
28.3698 71.2629 3.99152
31.0149 69.4157 0.0132825
30.6143 71.7779 2
30.1842 74.2788 4
32.8924 72.1466 0.00816056
32.6053 74.6792 2
35.0474 74.9194 0
31.7889 7.42219 3.9834
33.3481 4.92611 3.98883
33.7241 6.98042 2
35.2452 2.46324 3.99316
35.4355 4.68592 2
35.6216 6.72659 0.0145112
37.5 0 4
37.5146 2.38674 2
37.5237 4.61625 0.0104297
39.7894 2.47473 0.00674825
39.9526 0.0802889 2
42.3946 0.32156 0
42.4557 35.7106 3.65222
44.0815 35.5832 2
40.6197 34.2693 3.74991
42.136 34.1365 2
47.6649 37.7571 0.0689778
50.8017 35.5792 0.0241929
45.4747 35.1512 0.123826
43.2872 33.9026 0.243896
41.7908 33.0319 0.410875
47.8517 34.3059 2
44.6194 33.0492 2
42.2584 32.3859 2
40.752 32.7172 2
45.8691 31.6526 3.92962
43.3331 31.3174 3.85494
40.8692 31.3251 3.75837
39.2411 32.4459 3.64048
35.6936 11.7822 3.9794
37.3125 10.6318 2
37.4584 8.53673 0.0157798
38.9763 10.1298 0.0163933
33.0998 11.2242 3.97661
34.7543 10.3812 2
35.899 9.77698 0.0188
30.484 10.0236 3.97984
32.3779 9.3727 2
34.1519 8.82601 0.0173304
49.5159 31.4934 0.0128605
48.9623 27.6039 0.0246504
49.2285 24.5087 0.0228241
47.1434 22.0879 0.0158296
44.787 18.5258 0.0225432
42.0989 14.3067 0.0208109
38.3022 12.742 0.0222152
36.5822 12.9348 2
47.3738 29.575 2
38.6815 14.8147 2
41.7421 17.8804 2
46.9238 25.2531 2
44.2566 21.4476 2
45.2494 27.7303 4.00304
43.6901 24.1758 4.01056
41.3217 20.8519 3.98007
35.7738 14.7771 3.97734
38.6818 17.6273 3.9786
40.7645 37.4766 3.77719
42.5895 37.486 2
44.3903 37.4907 0.23049
45.3584 55.916 0.0105204
45.4293 52.4962 0.0168023
45.8773 48.8647 0.00833716
42.4684 39.2613 0.34556
43.3353 43.6799 0.145571
43.1728 45.9898 0.0929886
43.2432 48.3311 0.0024035
40.8679 43.6747 0.243347
40.6141 40.7256 0.248684
39.2411 42.5643 0.357999
43.6855 54.4071 2
40.7002 39.1285 2
39.111 40.7767 2
43.5484 50.4131 2
41.8401 47.5539 2
41.7769 45.1217 2
37.5036 42.6647 2
39.3513 44.389 2
41.84 52.9394 3.99514
39.126 39.146 3.76298
37.5068 40.8435 3.75822
35.7741 42.5722 3.64333
40.8535 49.5856 3.99675
39.7913 45.913 3.8465
37.5044 44.5785 3.75777
42.0891 56.3003 0.0163732
40.3969 54.8931 2
38.7199 53.758 3.99636
35.6067 63.1943 0.0234583
38.2508 60.3149 0.0211359
38.9171 56.4753 0.00907214
35.3641 60.8994 2
36.9342 57.613 2
37.9917 55.1907 2
36.3234 55.2776 3.99828
34.49 58.5053 3.98632
33.3456 61.5035 0.0205933
28.6823 62.1957 0.0194596
31.0696 61.2116 0.0200833
32.3624 59.7339 2
29.4092 60.2809 2
30.3159 57.8091 3.98443
28.04 58.3661 2
26.9756 56.8195 3.97528
27.5766 59.5843 0.01913
25.3932 58.5868 2
23.8703 56.7861 3.9618
21.3566 57.3767 3.96705
22.0026 59.6097 3.97687
22.7738 58.227 2
22.7386 62.0148 3.97792
23.4068 60.3411 2
23.8028 59.0716 0.0211052
25.0382 60.8641 0.0211912
24.4338 62.7654 2
23.6823 64.7065 3.98151
26.2301 63.4732 0.0200779
25.5479 65.4901 2
24.8091 67.5913 3.98608
27.4636 66.18 0.0166216
26.8367 68.3308 2
26.1649 70.6037 3.99155
28.9073 68.9418 0.0134965
28.3693 71.263 2
27.7943 73.7221 4
30.6148 71.7776 0.00843345
30.1841 74.2794 2
32.6054 74.6784 0
29.8117 7.99697 3.9823
31.2535 5.33312 3.98789
31.7885 7.42101 2
32.981 2.70153 3.99286
33.3477 4.92497 2
33.7244 6.98206 0.0152957
35.0474 0.080333 4
35.2448 2.46296 2
35.4357 4.68653 0.0105651
37.5 0 2
37.5149 2.38721 0.00672404
39.9526 0.0806499 0
40.7204 35.8351 3.76296
42.449 35.7136 2
44.0421 35.6058 0.241645
28.5445 10.6989 3.97872
39.1042 34.2149 3.74188
40.6147 34.2849 2
42.1451 34.1477 0.362765
47.8342 34.306 0.0415562
44.5907 33.068 0.148842
42.205 32.4228 0.231083
40.735 32.7184 0.374178
45.899 31.633 2
43.3693 31.2854 2
40.9066 31.278 2
39.2436 32.4457 2
44.1492 29.8493 3.92406
41.7485 29.9105 3.86919
39.3401 30.6577 3.75489
37.5098 32.3593 3.66758
34.0948 12.9459 3.9755
35.693 11.7755 2
37.3108 10.6342 0.0189924
31.1882 11.9944 3.97785
33.0996 11.223 2
34.7549 10.3851 0.0186462
30.4824 10.0208 2
32.3789 9.37366 0.0198297
47.3586 29.6021 0.0159849
46.9164 25.2536 0.0214094
36.5833 12.9419 0.024195
44.2612 21.4614 0.0214193
41.7449 17.8851 0.0214582
38.683 14.8245 0.0242418
35.7747 14.783 2
45.2546 27.729 2
38.679 17.6291 2
41.3166 20.8458 2
43.6934 24.1678 2
33.6114 15.8949 3.97721
42.871 26.5824 3.99177
40.8537 23.4235 4.00496
38.4112 20.405 3.98541
35.8524 17.5308 3.9798
39.1312 37.4894 3.78626
40.7521 37.4775 2
42.5909 37.4834 0.326795
43.6884 54.4075 0.00181628
43.5488 50.3963 -0.00450503
40.7136 39.1331 0.234471
41.7537 45.0869 0.129995
41.8494 47.5309 0.0562266
39.3354 44.3467 0.244142
39.1094 40.7938 0.257585
37.5064 42.6598 0.332241
41.8364 52.9371 2
39.1174 39.1331 2
37.5057 40.8225 2
40.8541 49.6018 2
35.7709 42.5727 2
39.8104 45.9552 2
37.497 44.6151 2
39.7802 51.7967 4.001
37.503 39.1557 3.79153
35.9071 40.8067 3.74322
34.2785 42.2941 3.62694
35.674 44.3583 3.75218
38.6674 48.5579 3.95804
37.5173 46.2034 3.86507
40.4008 54.8811 0.0182916
38.7197 53.7499 2
36.7464 53.0922 3.99829
35.3637 60.8999 0.0234904
36.9335 57.6123 0.0148965
37.9928 55.201 0.00826019
34.4904 58.5044 2
36.3233 55.2796 2
33.2484 55.4659 3.99322
32.3617 59.7325 0.0115369
29.4081 60.2812 0.0217566
30.3174 57.8087 2
28.7386 55.3062 3.97973
28.0387 58.3659 0.0083687
26.9767 56.8199 2
25.3647 55.1242 3.96696
21.8521 55.3252 3.96374
25.3918 58.586 0.022551
23.8707 56.7888 2
20.2432 57.0058 3.96984
20.6579 58.7605 3.97096
21.3568 57.3782 2
21.1712 61.1601 3.97683
22.0033 59.6106 2
22.773 58.2253 0.0313388
21.8962 63.8333 3.98017
22.739 62.0155 2
23.4062 60.3405 0.020625
24.4336 62.7646 0.0200423
23.6823 64.7072 2
22.8375 66.7344 3.98504
25.5479 65.4892 0.0177767
24.809 67.5922 2
24.0091 69.8048 3.99161
26.8368 68.3302 0.0134889
26.1643 70.6039 2
25.446 73.0099 4
28.3698 71.2629 0.00847681
27.7943 73.7222 2
30.1842 74.2788 0
27.8215 8.65655 3.98199
29.1558 5.87947 3.98666
29.8108 7.99473 2
30.7263 3.09855 3.99258
31.2531 5.33209 2
31.7889 7.42219 0.0165965
32.6053 0.320823 4
32.9805 2.70099 2
33.3481 4.92611 0.0111726
35.0474 0.0802903 2
35.2452 2.46324 0.00683595
37.5 0 0
39.1233 35.845 3.7644
40.7034 35.8399 2
42.4557 35.7106 0.34778
28.5432 10.6978 2
26.6229 11.3951 3.97865
29.2273 12.6501 3.97894
37.5024 34.1776 3.75687
39.1067 34.2336 2
40.6197 34.2693 0.250088
45.8691 31.6526 0.0703764
43.3331 31.3174 0.145061
40.8692 31.3251 0.241632
39.2411 32.4459 0.359516
44.156 29.8372 2
41.7687 29.8803 2
39.3504 30.615 2
37.5116 32.3538 2
42.1988 28.5184 3.89409
39.79 29.0822 3.86709
37.5112 30.4357 3.7566
35.7792 32.4472 3.6419
31.9183 14.4944 3.97763
34.0954 12.9465 2
35.6936 11.7822 0.0205962
31.1872 11.9903 2
33.0998 11.2242 0.02339
30.484 10.0236 0.0201561
45.2494 27.7303 -0.00303649
43.6901 24.1758 -0.0105554
35.7738 14.7771 0.0226621
41.3217 20.8519 0.0199305
38.6818 17.6273 0.0214021
33.6097 15.8899 2
35.8488 17.5337 2
42.8794 26.5835 2
38.4077 20.4057 2
40.8443 23.4079 2
33.5559 17.4049 3.97886
40.3087 25.7955 3.97784
38.0648 23.0921 3.99933
35.5832 20.1175 3.98353
37.5015 37.4995 3.80973
39.1229 37.4878 2
40.7645 37.4766 0.222811
41.84 52.9394 0.00486332
40.8535 49.5856 0.00325421
39.126 39.146 0.237015
39.7913 45.913 0.153499
37.5044 44.5785 0.242226
37.5068 40.8435 0.241781
35.7741 42.5722 0.356675
39.7793 51.8003 2
37.5038 39.143 2
35.9042 40.7911 2
38.6792 48.6016 2
34.2633 42.2952 2
35.6555 44.402 2
37.5183 46.2465 2
37.6611 50.8522 4.00065
35.8857 39.1634 3.76418
34.3996 40.7478 3.75059
33.2187 41.977 3.59194
34.132 43.6775 3.75697
35.1953 45.9124 3.8601
36.9188 48.1774 3.92618
38.7199 53.758 0.00364141
36.7437 53.0946 2
34.4057 52.4046 3.99679
34.49 58.5053 0.013677
36.3234 55.2776 0.00172489
33.2493 55.4702 2
30.5722 53.3316 3.98688
30.3159 57.8091 0.0155698
28.7395 55.3071 2
26.9636 53.419 3.97178
26.9756 56.8195 0.0247173
25.3651 55.1283 2
23.664 53.4531 3.9585
20.5763 53.1865 3.96138
19.9683 55.8075 3.96478
21.8507 55.3268 2
23.8703 56.7861 0.0382
19.455 57.8673 3.96985
20.2429 57.0073 2
19.713 60.1863 3.97489
20.6582 58.7609 2
21.3566 57.3767 0.0329479
20.2095 62.853 3.97709
21.1719 61.162 2
22.0026 59.6097 0.0231323
20.9388 65.7629 3.98377
21.8963 63.8342 2
22.7386 62.0148 0.0220832
23.6823 64.7065 0.0184891
22.8374 66.7349 2
21.9117 68.8719 3.99127
24.8091 67.5913 0.0139244
24.0084 69.805 2
23.1494 72.1454 4
26.1649 70.6037 0.00845298
25.446 73.0099 2
27.7943 73.7221 0
25.8606 9.38551 3.98096
27.0705 6.54351 3.98557
27.8204 8.65554 2
28.4886 3.64458 3.99199
29.1551 5.87803 2
29.8117 7.99697 0.0177012
30.1841 0.720592 4
30.7256 3.09814 2
31.2535 5.33312 0.0121122
32.6053 0.320817 2
32.981 2.70153 0.0071376
35.0474 0.080333 0
37.5022 35.8498 3.7904
39.1112 35.8542 2
40.7204 35.8351 0.237039
24.778 12.0811 3.97827
23.7543 14.3713 3.97621
28.5445 10.6989 0.0212766
26.6219 11.3949 2
29.2263 12.6489 2
27.2937 13.3835 3.97821
29.7845 14.2121 3.97863
35.9013 34.2151 3.74146
37.5046 34.1981 2
39.1042 34.2149 0.258122
37.5098 32.3593 0.332418
44.1492 29.8493 0.0759384
41.7485 29.9105 0.130808
39.3401 30.6577 0.245107
42.2204 28.4855 2
39.803 29.0421 2
37.5147 30.3965 2
35.7785 32.4461 2
39.9684 27.7222 3.9014
37.4977 28.8029 3.86431
35.6797 30.6703 3.75839
34.2882 32.7253 3.62646
30.932 16.8556 3.97851
31.9172 14.4875 2
34.0948 12.9459 0.0245022
31.1882 11.9944 0.0221482
42.871 26.5824 0.00823324
40.8537 23.4235 -0.00495552
33.6114 15.8949 0.0227858
35.8524 17.5308 0.0202049
38.4112 20.405 0.0145863
33.5511 17.4166 2
35.5832 20.1207 2
40.3243 25.7814 2
38.0516 23.0808 2
32.8709 19.8085 3.9913
37.7613 25.3993 3.99048
35.195 22.8021 3.99506
35.872 37.5036 3.78748
37.5011 37.4997 2
39.1312 37.4894 0.21374
39.7802 51.7967 -0.000997933
38.6674 48.5579 0.041957
37.503 39.1557 0.20847
37.5173 46.2034 0.134935
35.674 44.3583 0.247821
35.9071 40.8067 0.256776
34.2785 42.2941 0.373056
37.6488 50.8742 2
35.8976 39.1516 2
34.3988 40.7337 2
36.8956 48.222 2
33.1963 41.9947 2
34.1043 43.7218 2
35.1796 45.948 2
35.518 50.0222 3.99028
34.2998 39.1644 3.76507
32.8627 40.8595 3.6397
32.804 42.5876 3.77146
33.2619 45.0919 3.86586
34.3617 47.2851 3.9009
36.7464 53.0922 0.00170977
34.3991 52.4112 2
32.0959 51.1463 4.01349
33.2484 55.4659 0.00678167
30.5726 53.3349 2
28.5299 51.5536 3.98564
28.7386 55.3062 0.0202678
26.9634 53.4225 2
25.2047 51.7044 3.95513
25.3647 55.1242 0.0330391
23.6632 53.456 2
22.1129 51.7593 3.95394
19.3659 51.5902 3.96203
18.9885 54.2782 3.96269
20.5757 53.1858 2
18.4716 56.7009 3.96726
19.9671 55.809 2
21.8521 55.3252 0.0362553
18.3789 59.0898 3.9688
19.4547 57.8682 2
20.2432 57.0058 0.0301597
18.6225 61.7534 3.97416
19.7139 60.1874 2
20.6579 58.7605 0.0290404
19.1279 64.672 3.98222
20.2097 62.8541 2
21.1712 61.1601 0.0231651
19.8859 67.8085 3.99109
20.9386 65.7636 2
21.8962 63.8333 0.0198289
22.8375 66.7344 0.0149646
21.9109 68.8716 2
20.9142 71.1327 4
24.0091 69.8048 0.0083893
23.1494 72.1455 2
25.446 73.0099 0
23.0976 12.797 3.97757
23.9732 10.1742 3.97982
25.0241 7.31427 3.98449
25.8597 9.38493 2
26.2804 4.32867 3.99145
27.0697 6.54275 2
27.8215 8.65655 0.0180112
27.7943 1.27781 4
28.4876 3.64417 2
29.1558 5.87947 0.0133446
30.1841 0.720551 2
30.7263 3.09855 0.00742259
32.6053 0.320823 0
35.8754 35.8473 3.76097
37.5035 35.8631 2
39.1233 35.845 0.235601
24.777 12.0796 2
23.7547 14.372 2
22.484 15.0494 3.97861
25.3602 13.9197 3.97622
24.0325 15.6348 3.97991
26.6229 11.3951 0.0213479
29.2273 12.6501 0.021063
27.2937 13.3836 2
29.7824 14.2104 2
28.3634 15.9872 3.97825
34.4003 34.2784 3.7495
35.8983 34.2323 2
37.5024 34.1776 0.243128
35.7792 32.4472 0.358102
37.5112 30.4357 0.243398
42.1988 28.5184 0.105911
39.79 29.0822 0.132912
39.9854 27.6906 2
37.4989 28.7617 2
35.6637 30.6228 2
34.2694 32.7269 2
37.5738 27.4399 3.91139
35.2063 29.099 3.866
34.1403 31.3399 3.75699
33.2322 33.0434 3.59098
30.2183 19.3767 3.98092
30.9296 16.8483 2
31.9183 14.4944 0.0223742
40.3087 25.7955 0.0221618
38.0648 23.0921 0.000671927
33.5559 17.4049 0.0211359
35.5832 20.1175 0.016471
32.868 19.8206 2
35.1873 22.7899 2
37.7713 25.3858 2
32.325 22.5147 3.9962
35.0256 25.3534 4.00057
34.2425 37.5128 3.77818
35.8804 37.5047 2
37.5015 37.4995 0.19027
37.6611 50.8522 -0.000653164
36.9188 48.1774 0.0738156
35.8857 39.1634 0.235822
35.1953 45.9124 0.139899
34.132 43.6775 0.243034
34.3996 40.7478 0.249406
33.2187 41.977 0.408059
35.5049 50.0279 2
34.3159 39.1591 2
32.8672 40.8679 2
34.3558 47.3266 2
32.7651 42.6207 2
33.2442 45.1237 2
33.3411 49.0381 3.98084
32.5422 39.29 3.65481
31.716 41.1006 3.759
31.6677 43.6895 3.85656
32.4401 46.2344 3.9004
34.4057 52.4046 0.00320516
32.0976 51.1564 2
30.0158 49.6903 3.99477
30.5722 53.3316 0.0131161
28.5286 51.551 2
26.6738 49.9306 3.97014
26.9636 53.419 0.0282183
25.2033 51.7029 2
23.5265 50.1295 3.96362
23.664 53.4531 0.0414998
22.112 51.7575 2
20.6619 50.2597 3.96468
18.1748 50.2843 3.96794
17.9618 52.7544 3.96397
19.3643 51.5895 2
17.4822 55.3155 3.96251
18.9848 54.2785 2
20.5763 53.1865 0.038618
17.1498 57.853 3.96579
18.4709 56.7012 2
19.9683 55.8075 0.0352196
17.1412 60.5303 3.97158
18.379 59.0909 2
19.455 57.8673 0.0301548
17.4092 63.4629 3.9777
18.6229 61.754 2
19.713 60.1863 0.0251099
17.9425 66.617 3.98999
19.1276 64.6728 2
20.2095 62.853 0.0229052
18.75 69.9759 4
19.8849 67.8082 2
20.9388 65.7629 0.016231
21.9117 68.8719 0.00873454
20.9142 71.1327 2
23.1494 72.1454 0
21.5893 13.6195 3.97721
22.1912 11.0346 3.97866
23.0974 12.7978 2
23.0418 8.1808 3.98346
23.9722 10.1728 2
24.118 5.14348 3.99088
25.0232 7.31355 2
25.8606 9.38551 0.0190423
25.446 1.99014 4
26.2792 4.3287 2
27.0705 6.54351 0.0144294
27.7943 1.27778 2
28.4886 3.64458 0.0080085
30.1841 0.720592 0
34.2964 35.86 3.76537
35.8851 35.8598 2
37.5022 35.8498 0.209599
21.3125 15.8472 3.98137
24.778 12.0811 0.0217308
23.7543 14.3713 0.023785
25.3601 13.9173 2
22.4848 15.0495 2
24.0329 15.6369 2
23.2746 16.2653 3.97517
25.3886 16.1056 3.97932
27.2937 13.3835 0.0217936
29.7845 14.2121 0.0213698
28.3607 15.991 2
27.4501 18.829 3.9792
32.8671 34.1631 3.64113
34.4021 34.2948 2
35.9013 34.2151 0.258543
34.2882 32.7253 0.373537
35.6797 30.6703 0.241607
37.4977 28.8029 0.135687
39.9684 27.7222 0.0985977
37.5751 27.4031 2
33.2093 33.0262 2
35.1991 29.0517 2
34.1031 31.2894 2
35.1031 27.5509 3.91028
33.2558 29.9232 3.86446
32.8178 32.4263 3.75759
29.6174 21.9774 3.99596
30.2166 19.3881 2
30.932 16.8556 0.0214878
37.7613 25.3993 0.00952139
35.195 22.8021 0.00494396
32.8709 19.8085 0.00869617
32.3243 22.5054 2
35.0502 25.3414 2
31.8238 25.7452 4.00735
32.4019 37.5138 3.67585
34.2601 37.5118 2
35.872 37.5036 0.212519
35.518 50.0222 0.00971527
34.3617 47.2851 0.0990996
34.2998 39.1644 0.234926
33.2619 45.0919 0.134138
32.804 42.5876 0.22854
32.8627 40.8595 0.360295
33.3299 49.038 2
32.5563 39.2893 2
31.6811 41.1282 2
32.4075 46.268 2
31.6343 43.7181 2
31.342 47.879 3.98392
30.966 39.3975 3.75987
30.4117 41.9366 3.8539
30.7001 44.8423 3.92112
32.0959 51.1463 -0.013495
30.0157 49.7045 2
28.1068 48.1163 3.95897
28.5299 51.5536 0.0143638
26.6726 49.9289 2
24.8876 48.3965 3.97219
25.2047 51.7044 0.0448738
23.526 50.1276 2
21.9122 48.7197 3.96997
22.1129 51.7593 0.0460602
20.6597 50.2586 2
19.2526 49.0388 3.97202
17.0671 49.2905 3.97331
16.9137 51.3701 3.96702
18.1771 50.283 2
16.4629 53.843 3.96454
17.9598 52.7542 2
19.3659 51.5902 0.0379731
15.9956 56.4578 3.96454
17.4789 55.3162 2
18.9885 54.2782 0.0373149
15.7579 59.1935 3.96811
17.15 57.8536 2
18.4716 56.7009 0.0327399
15.7909 62.1279 3.97278
17.1416 60.532 2
18.3789 59.0898 0.0311994
16.0896 65.2993 3.98885
17.4087 63.4643 2
18.6225 61.7534 0.0258371
16.6661 68.6801 4
17.9412 66.6163 2
19.1279 64.672 0.0177757
18.75 69.9759 2
19.8859 67.8085 0.00890538
20.9142 71.1327 0
20.2231 14.6116 3.97597
21.5894 13.6196 2
20.5309 12.0065 3.97782
21.1446 9.15128 3.98256
22.1907 11.0348 2
23.0976 12.797 0.0224275
22.0171 6.08267 3.99028
23.0408 8.17974 2
23.9732 10.1742 0.0201755
23.1494 2.85457 4
24.1166 5.14365 2
25.0241 7.31427 0.0155074
25.446 1.99012 2
26.2804 4.32867 0.00855042
27.7943 1.27781 0
32.5314 35.7358 3.65347
34.3128 35.8653 2
35.8754 35.8473 0.239032
21.3133 15.8465 2
20.3148 16.9796 3.97952
22.1068 16.6525 3.97181
25.3602 13.9197 0.0237844
22.484 15.0494 0.0213921
24.0325 15.6348 0.0200868
25.3881 16.104 2
23.2751 16.2658 2
24.2165 18.4884 3.97324
27.0586 21.5003 3.9927
28.3634 15.9872 0.0217476
27.4501 18.8276 2
31.7309 33.9312 3.75549
32.8748 34.1514 2
34.4003 34.2784 0.250505
33.2322 33.0434 0.409025
34.1403 31.3399 0.243015
35.2063 29.099 0.134
37.5738 27.4399 0.0886104
35.1058 27.509 2
32.7482 32.3935 2
33.2406 29.9027 2
32.6936 28.2532 3.92091
31.6669 31.3386 3.85629
28.9344 24.4623 3.98306
29.6116 21.9879 2
30.2183 19.3767 0.0190849
35.0256 25.3534 -0.000574593
32.325 22.5147 0.00380443
31.8237 25.7226 2
29.8447 27.3958 3.9765
30.5996 37.5122 3.76797
32.4139 37.5125 2
34.2425 37.5128 0.221821
33.3411 49.0381 0.0191641
32.4401 46.2344 0.0995996
32.5422 39.29 0.345188
31.6677 43.6895 0.143437
31.716 41.1006 0.241004
31.3387 47.8838 2
30.9198 39.4205 2
30.3836 41.9529 2
30.6748 44.8672 2
29.4819 46.4877 3.99939
29.519 39.854 3.87815
29.1148 43.0781 3.92173
30.0158 49.6903 0.00523455
28.1034 48.1112 2
26.2512 46.5755 3.97647
26.6738 49.9306 0.0298556
24.8871 48.3942 2
23.121 46.9949 3.97494
23.5265 50.1295 0.0363751
21.9102 48.7188 2
20.2298 47.5571 3.9771
20.6619 50.2597 0.0353177
19.2543 49.0373 2
17.8727 48.1322 3.97651
16.3047 48.6462 3.97619
17.0686 49.2896 2
15.9937 50.1351 3.97074
15.4726 52.3873 3.96652
16.9148 51.3693 2
18.1748 50.2843 0.0320628
14.9052 54.9587 3.96409
16.4634 53.8427 2
17.9618 52.7544 0.0360263
14.4703 57.7252 3.96634
15.9962 56.458 2
17.4822 55.3155 0.0374873
14.2703 60.6821 3.9717
15.7584 59.1945 2
17.1498 57.853 0.0342082
14.3349 63.8577 3.98482
15.7908 62.1295 2
17.1412 60.5303 0.0284226
14.6715 67.2507 4
16.0878 65.2983 2
17.4092 63.4629 0.022301
16.6661 68.6801 2
17.9425 66.617 0.010009
18.75 69.9759 0
18.9392 15.7983 3.97715
20.2236 14.6113 2
18.9816 13.1193 3.97593
21.5893 13.6195 0.0227924
20.5307 12.0065 2
19.3439 10.2403 3.98153
19.9916 7.14738 3.98966
21.1439 9.15119 2
22.1912 11.0346 0.0213428
20.9142 3.86727 4
22.0153 6.08303 2
23.0418 8.1808 0.0165428
23.1494 2.85451 2
24.118 5.14348 0.00911778
25.446 1.99014 0
30.9852 35.6344 3.75937
32.5426 35.7372 2
34.2964 35.86 0.234633
21.3125 15.8472 0.0186318
22.1074 16.6528 2
20.3153 16.978 2
19.2676 18.4296 3.97098
21.7946 17.8758 3.98043
25.3886 16.1056 0.0206758
23.2746 16.2653 0.0248281
24.2156 18.4904 2
22.3174 19.9289 3.96751
24.6405 21.38 3.98777
26.5432 23.7687 3.973
27.0574 21.4947 2
27.4501 18.829 0.0207977
30.4451 33.1011 3.86682
31.7039 33.8919 2
32.8671 34.1631 0.358867
32.8178 32.4263 0.242409
33.2558 29.9232 0.135542
35.1031 27.5509 0.0897217
32.6509 28.2239 2
31.6268 31.3023 2
30.3845 29.6613 3.94224
28.0948 26.607 3.99014
28.9276 24.4775 2
29.6174 21.9774 0.00403671
31.8238 25.7452 -0.00735222
29.8378 27.3685 2
29.1163 37.5189 3.87556
30.5689 37.5126 2
32.4019 37.5138 0.324147
31.342 47.879 0.0160849
30.7001 44.8423 0.0788759
30.966 39.3975 0.240127
30.4117 41.9366 0.146101
29.4812 46.5008 2
29.4817 39.8733 2
29.0852 43.1088 2
27.6859 44.7955 3.97173
27.2896 40.5934 3.94802
28.1068 48.1163 0.0410336
26.2466 46.5765 2
24.3868 45.1156 3.97613
24.8876 48.3965 0.0278144
23.1198 46.9949 2
21.2172 45.8237 3.97806
21.9122 48.7197 0.0300325
20.2285 47.5558 2
18.5628 46.6836 3.97789
19.2526 49.0388 0.0279847
17.8738 48.1311 2
16.5171 47.6744 3.97711
16.3061 48.6454 2
15.3384 48.983 3.97424
17.0671 49.2905 0.0266948
15.9956 50.1343 2
14.5925 50.9577 3.96888
13.8791 53.416 3.96556
15.4736 52.3868 2
16.9137 51.3701 0.0329789
13.266 56.1572 3.96594
14.9046 54.9587 2
16.4629 53.843 0.0354644
12.8542 59.1167 3.97025
14.4713 57.7253 2
15.9956 56.4578 0.0354605
12.6807 62.2998 3.98177
14.2706 60.6826 2
15.7579 59.1935 0.0318949
12.7746 65.6939 4
14.3329 63.8555 2
15.7909 62.1279 0.0272237
14.6714 67.2507 2
16.0896 65.2993 0.0111494
16.6661 68.6801 0
17.6812 17.176 3.97028
18.9396 15.7974 2
17.5145 14.385 3.97533
20.2231 14.6116 0.0240281
18.9817 13.1192 2
17.6397 11.4604 3.97985
20.5309 12.0065 0.0221808
19.3434 10.2402 2
18.0517 8.3405 3.9891
18.75 5.0241 4
19.9898 7.14851 2
21.1446 9.15128 0.0174363
20.9142 3.86727 2
22.0171 6.08267 0.00971874
23.1494 2.85457 0
29.5371 35.1761 3.87999
30.9324 35.6108 2
32.5314 35.7358 0.34653
22.1068 16.6525 0.0281864
20.3148 16.9796 0.02048
21.7952 17.8739 2
19.2677 18.4281 2
18.0303 19.9691 3.95951
20.9109 19.4064 3.97131
24.2165 18.4884 0.0267647
22.3164 19.9287 2
24.6395 21.3816 2
22.4277 21.7621 3.978
24.8112 23.21 3.97394
25.6846 26.0013 3.978
26.5445 23.7651 2
27.0586 21.5003 0.00729966
28.8237 32.433 3.92543
30.4062 33.0774 2
31.7309 33.9312 0.244512
31.6669 31.3386 0.143713
32.6936 28.2532 0.0790911
30.3754 29.6624 2
27.3416 29.1959 4.0072
28.084 26.6184 2
28.9344 24.4623 0.0169389
29.8447 27.3958 0.0235039
27.3996 37.3682 3.92802
29.0554 37.5078 2
30.5996 37.5122 0.232029
29.4819 46.4877 0.000614736
29.1148 43.0781 0.0782747
29.519 39.854 0.121853
27.6755 44.8228 2
27.2692 40.5957 2
25.7173 43.1023 3.98827
24.5462 39.4536 3.97488
26.2512 46.5755 0.0235256
24.3777 45.1163 2
22.2734 43.8727 3.97765
23.121 46.9949 0.0250636
21.2144 45.8233 2
19.2752 44.9168 3.97745
20.2298 47.5571 0.0228966
18.5631 46.6825 2
16.8445 46.1705 3.97706
17.8727 48.1322 0.0234894
16.5185 47.6735 2
15.0882 47.638 3.97564
16.3047 48.6462 0.0238084
15.3403 48.9822 2
13.8962 49.5206 3.97112
15.9937 50.1351 0.0292641
14.5935 50.9572 2
12.9521 51.8568 3.96697
12.156 54.5189 3.96567
13.8791 53.4159 2
15.4726 52.3873 0.0334771
11.5398 57.4515 3.96984
13.2666 56.1572 2
14.9052 54.9587 0.0359062
11.1356 60.6254 3.97962
12.855 59.1162 2
14.4703 57.7252 0.0336553
10.9835 64.0165 4
12.6788 62.2966 2
14.2703 60.6821 0.0283008
12.7745 65.694 2
14.3349 63.8577 0.015177
14.6715 67.2507 0
16.4256 18.6723 3.96417
17.6813 17.175 2
16.1083 15.7959 3.97221
18.9392 15.7983 0.0228517
17.5145 14.3842 2
16.0219 12.8151 3.97743
18.9816 13.1193 0.0240669
17.6393 11.4603 2
16.2028 9.66375 3.98845
19.3439 10.2403 0.0184719
18.0498 8.34201 2
16.6661 6.31991 4
18.75 5.02404 2
19.9916 7.14738 0.0103368
20.9142 3.86727 0
27.9331 34.8136 3.91829
29.4965 35.1565 2
30.9852 35.6344 0.24063
16.7422 21.4046 3.96531
21.7946 17.8758 0.0195654
19.2676 18.4296 0.0290209
20.9106 19.4045 2
18.0304 19.9683 2
19.8009 21.6098 3.96841
22.3174 19.9289 0.032491
24.6405 21.38 0.0122338
22.4271 21.7623 2
24.8107 23.2091 2
23.024 24.6519 3.97336
24.8835 28.5855 3.97888
25.6798 25.9982 2
26.5432 23.7687 0.0270021
26.673 31.7827 3.98085
28.7953 32.4103 2
30.4451 33.1011 0.133184
30.3845 29.6613 0.0577572
27.3618 29.177 2
28.0948 26.607 0.00985566
25.2299 36.8594 3.9798
27.3878 37.361 2
29.1163 37.5189 0.124436
27.6859 44.7955 0.0282741
27.2896 40.5934 0.0519845
25.6994 43.1166 2
24.5285 39.4542 2
23.4399 41.8142 3.98029
22.2629 38.5224 3.97774
24.3868 45.1156 0.0238692
22.2724 43.873 2
20.1109 42.8526 3.97661
21.2172 45.8237 0.0219369
19.2756 44.9169 2
17.2227 44.3381 3.97675
18.5628 46.6836 0.0221086
16.8462 46.1697 2
15.0325 46.0587 3.976
16.5171 47.6744 0.0228907
15.0897 47.6374 2
13.417 47.9843 3.97291
15.3384 48.983 0.0257589
13.8974 49.5201 2
12.1771 50.2367 3.9682
14.5925 50.9577 0.0311232
12.9524 51.8566 2
11.1543 52.8299 3.96607
10.3304 55.7066 3.9696
12.1565 54.5188 2
13.8791 53.416 0.0344444
9.70215 58.8478 3.97867
11.5403 57.4511 2
13.266 56.1572 0.0340562
9.30605 62.2254 4
11.134 60.6218 2
12.8542 59.1167 0.0297474
10.9835 64.0165 2
12.6807 62.2998 0.0182338
12.7746 65.6939 0
15.1767 20.2052 3.96388
16.4259 18.6722 2
14.7604 17.3216 3.96579
17.6812 17.176 0.0297175
16.1085 15.7947 2
14.4857 14.2992 3.97445
17.5145 14.385 0.0246702
16.0215 12.8149 2
14.4456 11.1153 3.98735
17.6397 11.4604 0.0201487
16.2009 9.66574 2
14.6715 7.74927 4
18.0517 8.3405 0.0108974
16.6661 6.31988 2
18.75 5.0241 0
25.8931 34.3062 3.98746
27.9104 34.8222 2
29.5371 35.1761 0.120014
17.9544 22.3569 3.97107
15.6165 22.9479 3.96806
16.7425 21.4047 2
20.9109 19.4064 0.0286871
18.0303 19.9691 0.0404927
19.8011 21.6094 2
19.8579 24.4323 3.97084
22.4277 21.7621 0.0219951
24.8112 23.21 0.026056
23.0215 24.6517 2
22.2503 27.8888 3.97334
24.2302 31.2607 3.97672
24.8959 28.5861 2
25.6846 26.0013 0.0220016
26.655 31.7498 2
28.8237 32.433 0.0745667
27.3416 29.1959 -0.00719693
22.9834 36.2888 3.98253
25.2155 36.8636 2
27.3996 37.3682 0.0719799
25.7173 43.1023 0.0117286
24.5462 39.4536 0.0251168
23.428 41.8136 2
22.2543 38.5203 2
21.1548 40.6345 3.97545
20.5428 37.8036 3.97696
22.2734 43.8727 0.0223464
20.1094 42.8539 2
17.6855 42.0655 3.97635
19.2752 44.9168 0.0225515
17.2242 44.3382 2
15.0694 44.169 3.97622
16.8445 46.1705 0.0229389
15.0338 46.0582 2
13.1084 46.2728 3.97411
15.0882 47.638 0.0243602
13.4182 47.9838 2
11.5575 48.5347 3.96926
13.8962 49.5206 0.0288769
12.1778 50.2364 2
10.2824 51.0747 3.96636
12.9521 51.8568 0.0330305
11.1548 52.8296 2
9.2391 53.8869 3.96949
8.38556 56.9812 3.97931
10.331 55.706 2
12.156 54.5189 0.0343303
7.74927 60.3285 4
9.7009 58.844 2
11.5398 57.4515 0.0301559
9.306 62.2255 2
11.1356 60.6254 0.0203755
10.9835 64.0165 0
14.0049 21.7715 3.9649
15.1769 20.2052 2
13.4622 18.9159 3.96613
16.4256 18.6723 0.0358292
14.761 17.3213 2
13.0332 15.8964 3.97145
16.1083 15.7959 0.0277883
14.485 14.2986 2
12.7834 12.6893 3.98508
16.0219 12.8151 0.0225657
14.4437 11.1177 2
12.7746 9.30605 4
16.2028 9.66375 0.0115485
14.6715 7.74924 2
16.6661 6.31991 0
23.5705 33.8454 3.9838
25.8683 34.2984 2
27.9331 34.8136 0.0817104
17.7947 24.084 3.96983
17.956 22.3572 2
14.4508 24.482 3.96979
15.6176 22.9482 2
16.7422 21.4046 0.034693
19.3184 27.2606 3.97213
19.8009 21.6098 0.0315905
19.8542 24.4323 2
21.5928 30.7321 3.97555
23.024 24.6519 0.0266415
22.2579 27.8906 2
24.2088 31.2607 2
24.8835 28.5855 0.0211173
26.673 31.7827 0.0191493
20.6644 35.9552 3.97666
22.9838 36.2881 2
25.2299 36.8594 0.0201953
23.4399 41.8142 0.0197084
22.2629 38.5224 0.0222555
21.1609 40.6345 2
20.5416 37.802 2
18.4308 39.0036 3.9772
20.1109 42.8526 0.0233857
17.6859 42.0656 2
15.0535 41.8913 3.97677
17.2227 44.3381 0.0232497
15.0707 44.1685 2
12.8709 44.3718 3.97501
15.0325 46.0587 0.024
13.11 46.2723 2
11.0692 46.7197 3.97011
13.417 47.9843 0.0270861
11.5584 48.5343 2
9.5483 49.2351 3.96649
12.1771 50.2367 0.0317996
10.2828 51.0743 2
8.27192 52.0009 3.96924
11.1543 52.8299 0.0339285
9.23966 53.8861 2
7.19451 55.0322 3.98022
6.31991 58.3339 4
8.38466 56.9775 2
10.3304 55.7066 0.0304012
7.74924 60.3285 2
9.70215 58.8478 0.0213271
9.30605 62.2254 0
13.3397 25.3879 3.97281
12.8969 23.3012 3.96716
14.0039 21.7714 2
12.2487 20.5609 3.9661
15.1767 20.2052 0.0361177
13.4635 18.9158 2
11.6643 17.5748 3.97063
14.7604 17.3216 0.0342095
13.0339 15.8954 2
11.2218 14.3754 3.98039
14.4857 14.2992 0.0255493
12.7812 12.692 2
10.9835 10.9835 4
14.4456 11.1153 0.0126496
12.7745 9.306 2
14.6715 7.74927 0
21.0278 33.4526 3.97584
23.5704 33.8431 2
25.8931 34.3062 0.0125423
16.117 26.4427 3.9722
17.7949 24.0842 2
17.9544 22.3569 0.02893
14.451 24.4825 2
15.6165 22.9479 0.0319417
18.7042 30.2297 3.97479
19.3159 27.261 2
19.8579 24.4323 0.0291648
21.5975 30.7327 2
22.2503 27.8888 0.026662
24.2302 31.2607 0.0232838
18.0429 35.9865 3.97795
20.6657 35.956 2
22.9834 36.2888 0.0174735
21.1548 40.6345 0.0245521
20.5428 37.8036 0.0230394
18.4288 39.0034 2
14.5601 39.1694 3.97746
17.6855 42.0655 0.0236494
15.0545 41.8911 2
12.5651 42.2621 3.97614
15.0694 44.169 0.0237767
12.8722 44.3713 2
10.656 44.7904 3.97112
13.1084 46.2728 0.0258941
11.0702 46.7193 2
8.93318 47.3146 3.96665
11.5575 48.5347 0.0307351
9.54845 49.2347 2
7.43876 50.0346 3.96885
10.2824 51.0747 0.0336398
8.27231 52.0001 2
6.13515 53.0074 3.98058
9.2391 53.8869 0.0305072
7.19397 55.0292 2
5.0241 56.25 4
6.31988 58.3339 2
8.38556 56.9812 0.0206947
7.74927 60.3285 0
13.6066 26.8421 3.97226
12.0072 24.8058 3.96905
13.339 25.3882 2
11.1603 22.2438 3.96596
12.8973 23.3015 2
14.0049 21.7715 0.035101
12.2497 20.561 2
10.3954 19.3262 3.96981
13.4622 18.9159 0.0338665
11.6655 17.575 2
9.76273 16.1593 3.97874
13.0332 15.8964 0.0285491
11.2197 14.3794 2
9.30607 12.7746 4
12.7834 12.6893 0.0149174
10.9835 10.9835 2
12.7746 9.30605 0
18.2153 33.16 3.977
21.0285 33.4545 2
23.5705 33.8454 0.0162042
15.7409 29.6766 3.97494
16.1167 26.4433 2
17.7947 24.084 0.0301728
14.4508 24.482 0.0302112
18.7033 30.2303 2
19.3184 27.2606 0.0278688
21.5928 30.7321 0.0244492
15.18 36.0358 3.97765
18.0431 35.9863 2
20.6644 35.9552 0.0233351
12.7944 37.831 3.97773
18.4308 39.0036 0.0228016
14.5608 39.1692 2
12.0682 40.1334 3.97698
15.0535 41.8913 0.0232285
12.5663 42.2617 2
10.262 42.7687 3.97126
12.8709 44.3718 0.0249902
10.6569 44.7901 2
8.41216 45.317 3.96703
11.0692 46.7197 0.0298924
8.93291 47.3143 2
6.7299 47.9999 3.96858
9.5483 49.2351 0.033512
7.43901 50.0339 2
5.21195 50.9108 3.98029
8.27192 52.0009 0.0307593
6.13488 53.0055 2
3.86727 54.0858 4
7.19451 55.0322 0.0197839
5.02404 56.25 2
6.31991 58.3339 0
13.0837 29.0592 3.972
11.4515 26.5052 3.96951
13.6061 26.8424 2
10.2213 23.9753 3.9667
12.0084 24.8062 2
13.3397 25.3879 0.027187
9.24768 21.1423 3.96932
11.1607 22.244 2
12.8969 23.3012 0.0328425
12.2487 20.5609 0.0338964
10.3966 19.3267 2
8.41839 18.0302 3.97888
11.6643 17.5748 0.0293686
9.76126 16.1639 2
7.74928 14.6715 4
11.2218 14.3754 0.0196079
9.30602 12.7745 2
10.9835 10.9835 0
14.7339 32.8936 3.97694
18.2135 33.1597 2
21.0278 33.4526 0.0241624
15.7424 29.6773 2
16.117 26.4427 0.0277985
18.7042 30.2297 0.0252069
13.087 36.2196 3.97727
15.18 36.0357 2
18.0429 35.9865 0.0220483
12.7964 37.8306 2
11.412 38.309 3.97705
14.5601 39.1694 0.0225372
12.0707 40.1331 2
9.84628 40.7486 3.97169
12.5651 42.2621 0.0238631
10.2637 42.7683 2
7.96223 43.2667 3.96744
10.656 44.7904 0.0288785
8.4125 45.3167 2
6.13594 45.9051 3.96846
8.93318 47.3146 0.0333457
6.73011 47.9993 2
4.42343 48.7515 3.97969
7.43876 50.0346 0.031146
5.21186 50.9097 2
2.85457 51.8506 4
6.13515 53.0074 0.0194153
3.86727 54.0858 2
5.0241 56.25 0
12.2273 31.278 3.97312
10.8735 28.4317 3.96979
13.085 29.0597 2
9.43913 25.8047 3.96706
11.4523 26.5055 2
13.6066 26.8421 0.0277412
8.23442 23.0256 3.96925
10.2218 23.9756 2
12.0072 24.8058 0.0309469
7.20045 19.9796 3.97968
9.24877 21.143 2
11.1603 22.2438 0.0340437
10.3954 19.3262 0.0301945
8.41754 18.0345 2
6.31992 16.6661 4
9.76273 16.1593 0.0212636
7.74926 14.6714 2
9.30607 12.7746 0
12.2536 34.3109 3.97716
14.7351 32.8944 2
18.2153 33.16 0.0230033
15.7409 29.6766 0.0250568
10.9615 36.6156 3.97665
13.0884 36.2195 2
15.18 36.0358 0.0223483
12.7944 37.831 0.0222657
11.4146 38.3089 2
9.43286 38.8215 3.97225
12.0682 40.1334 0.0230187
9.84752 40.7484 2
7.57306 41.2093 3.96794
10.262 42.7687 0.0287398
7.96157 43.2664 2
5.64768 43.7681 3.96855
8.41216 45.317 0.0329709
6.1361 45.9046 2
3.76897 46.5371 3.97929
6.7299 47.9999 0.0314167
4.42354 48.7509 2
1.99014 49.554 4
5.21195 50.9108 0.0197093
2.85451 51.8506 2
3.86727 54.0858 0
11.051 32.9336 3.97501
10.1893 30.3962 3.97034
12.229 31.2785 2
8.75104 27.738 3.96717
10.8744 28.432 2
13.0837 29.0592 0.0279957
7.3598 24.9839 3.96901
9.4392 25.805 2
11.4515 26.5052 0.0304869
6.11739 22.0026 3.98045
8.2351 23.0262 2
10.2213 23.9753 0.0332976
5.02411 18.75 4
7.20009 19.983 2
9.24768 21.1423 0.0306791
8.41839 18.0302 0.0211169
6.3199 16.6661 2
7.74928 14.6715 0
10.5612 35.008 3.97596
12.2559 34.3114 2
14.7339 32.8936 0.0230597
9.09513 36.9863 3.97288
10.9637 36.6156 2
13.087 36.2196 0.0227318
11.412 38.309 0.0229526
9.43428 38.8214 2
7.25013 39.1815 3.96832
9.84628 40.7486 0.0283051
7.57318 41.2091 2
5.26263 41.6139 3.96862
7.96223 43.2667 0.0325556
5.64779 43.7677 2
3.24664 44.2818 3.97939
6.13594 45.9051 0.0315405
3.76917 46.5367 2
1.27781 47.2057 4
4.42343 48.7515 0.0203145
1.99012 49.554 2
2.85457 51.8506 0
10.1985 33.8913 3.97594
9.47079 32.1648 3.97124
11.053 32.934 2
8.098 29.7006 3.96754
10.1906 30.3966 2
12.2273 31.278 0.0268764
6.6033 27.0095 3.96886
8.75063 27.7382 2
10.8735 28.4317 0.0302123
5.17277 24.0952 3.98038
7.36015 24.9844 2
9.43913 25.8047 0.0329407
3.86728 20.9142 4
6.11727 22.0047 2
8.23442 23.0256 0.0307539
5.02406 18.75 2
7.20045 19.9796 0.0203197
6.31992 16.6661 0
8.91596 35.2838 3.97304
10.5629 35.0082 2
12.2536 34.3109 0.0228411
7.02926 37.2065 3.96829
9.09638 36.9863 2
10.9615 36.6156 0.0233517
9.43286 38.8215 0.0277521
7.25061 39.1814 2
4.99021 39.4674 3.96878
7.57306 41.2093 0.0320626
5.2631 41.6136 2
2.85701 42.0021 3.97951
5.64768 43.7681 0.0314524
3.24672 44.2815 2
0.720592 44.8159 4
3.76897 46.5371 0.0207091
1.27778 47.2057 2
1.99014 49.554 0
8.95705 33.7047 3.97253
10.2001 33.8916 2
7.53227 31.6129 3.96792
9.47228 32.1651 2
11.051 32.9336 0.0249894
5.9482 29.0703 3.96895
8.09745 29.7008 2
10.1893 30.3962 0.0296584
4.3604 26.2476 3.97991
6.60346 27.0099 2
8.75104 27.738 0.0328325
2.85458 23.1494 4
5.17278 24.0961 2
7.3598 24.9839 0.030992
3.86728 20.9142 2
6.11739 22.0026 0.0195493
5.02411 18.75 0
6.97748 35.3076 3.96823
8.91724 35.2838 2
10.5612 35.008 0.0240352
4.84034 37.3399 3.96914
7.02986 37.2065 2
9.09513 36.9863 0.027117
7.25013 39.1815 0.031679
4.99067 39.4672 2
2.60504 39.7137 3.9795
5.26263 41.6139 0.0313844
2.85737 42.002 2
0.320823 42.3947 4
3.24664 44.2818 0.0206057
0.720551 44.8159 2
1.27781 47.2057 0
7.14134 33.4635 3.96814
8.95805 33.7049 2
10.1985 33.8913 0.0240553
5.41876 31.134 3.96925
7.53214 31.6131 2
9.47079 32.1648 0.0287649
3.68201 28.4435 3.97959
5.94835 29.0707 2
8.098 29.7006 0.0324566
1.99015 25.446 4
4.3605 26.2479 2
6.6033 27.0095 0.0311443
2.85453 23.1494 2
5.17277 24.0952 0.0196196
3.86728 20.9142 0
4.85467 35.2518 3.96919
6.97751 35.3077 2
8.91596 35.2838 0.0269597
2.49647 37.4284 3.98018
4.84037 37.34 2
7.02926 37.2065 0.0317148
4.99021 39.4674 0.0312249
2.60549 39.7141 2
0.080333 39.9526 4
2.85701 42.0021 0.0204888
0.320817 42.3947 2
0.720592 44.8159 0
5.04804 33.1905 3.96928
7.14131 33.4636 2
8.95705 33.7047 0.0274673
3.1462 30.6662 3.97967
5.41891 31.1344 2
7.53227 31.6129 0.0320826
1.27793 27.7943 4
3.68223 28.4437 2
5.9482 29.0703 0.0310453
1.99013 25.446 2
4.3604 26.2476 0.0200892
2.85458 23.1494 0
2.54858 35.159 3.97995
4.85523 35.252 2
6.97748 35.3076 0.0317663
0 37.5 4
2.49651 37.4288 2
4.84034 37.3399 0.030864
2.60504 39.7137 0.020502
0.0802903 39.9526 2
0.320823 42.3947 0
2.7662 32.9057 3.98012
5.04821 33.1908 2
7.14134 33.4635 0.0318622
0.721173 30.1842 4
3.14644 30.6666 2
5.41876 31.134 0.0307491
1.27779 27.7943 2
3.68201 28.4435 0.0204125
1.99015 25.446 0
0.0806499 35.0474 4
2.54912 35.1594 2
4.85467 35.2518 0.0308074
0 37.5 2
2.49647 37.4284 0.0198181
0.080333 39.9526 0
0.32156 32.6054 4
2.76631 32.9063 2
5.04804 33.1905 0.0307175
0.72056 30.1841 2
3.1462 30.6662 0.0203329
1.27793 27.7943 0
0.0802889 35.0474 2
2.54858 35.159 0.0200475
0 37.5 0
0.320817 32.6053 2
2.7662 32.9057 0.019875
0.721173 30.1842 0
0.0806499 35.0474 0
0.32156 32.6054 0
CELLS 1910 17190
8 18 6 25 56 2 0 5 16
8 57 23 6 18 17 4 0 2
8 78 36 9 29 31 11 1 7
8 31 11 1 7 79 37 10 30
8 110 57 18 50 48 17 2 14
8 50 18 56 111 14 2 16 49
8 116 62 22 55 52 20 3 15
8 56 25 67 118 16 5 24 53
8 119 63 23 57 54 21 4 17
8 55 22 63 119 15 3 21 54
8 58 26 68 121 18 6 25 56
8 122 65 26 58 57 23 6 18
8 73 31 7 27 142 79 30 71
8 143 78 29 72 73 31 7 27
8 83 147 76 34 32 74 28 8
8 84 148 78 36 33 75 29 9
8 76 34 8 28 148 84 33 75
8 37 79 150 86 10 30 77 35
8 151 87 36 78 80 38 11 31
8 80 38 11 31 152 88 37 79
8 175 100 42 94 96 44 12 40
8 44 96 176 101 12 40 95 43
8 101 176 98 46 43 95 41 13
8 46 98 178 103 13 41 97 45
8 178 103 45 97 147 83 32 74
8 189 116 55 109 106 52 15 47
8 111 56 118 191 49 16 53 107
8 192 119 57 110 108 54 17 48
8 109 55 119 192 47 15 54 108
8 194 122 58 112 110 57 18 50
8 112 58 121 195 50 18 56 111
8 115 61 19 51 197 124 59 113
8 115 61 125 198 51 19 60 114
8 198 125 62 116 114 60 20 52
8 200 127 64 120 116 62 22 55
8 118 67 132 202 53 24 66 117
8 121 68 133 203 56 25 67 118
8 120 64 128 204 55 22 63 119
8 204 128 65 122 119 63 23 57
8 206 134 68 121 123 69 26 58
8 123 69 26 58 207 131 65 122
8 226 147 74 138 140 76 28 70
8 229 148 75 139 143 78 29 72
8 140 76 28 70 229 148 75 139
8 142 79 30 71 231 150 77 141
8 144 80 31 73 232 152 79 142
8 233 151 78 143 144 80 31 73
8 150 86 35 77 235 154 81 145
8 235 154 81 145 146 82 39 91
8 146 82 39 91 236 155 90 165
8 238 157 83 147 149 85 34 76
8 239 158 84 148 151 87 36 78
8 149 85 34 76 239 158 84 148
8 152 88 37 79 241 160 86 150
8 242 161 87 151 153 89 38 80
8 153 89 38 80 243 162 88 152
8 171 98 41 92 265 178 97 169
8 265 178 97 169 226 147 74 138
8 172 96 40 93 266 176 95 170
8 266 176 95 170 171 98 41 92
8 269 175 94 173 172 96 40 93
8 271 180 99 174 175 100 42 94
8 197 124 59 113 271 180 99 174
8 272 181 100 175 177 102 44 96
8 273 182 101 176 179 104 46 98
8 177 102 44 96 273 182 101 176
8 179 104 46 98 275 184 103 178
8 275 184 103 178 238 157 83 147
8 188 115 51 105 283 197 113 186
8 188 115 198 284 105 51 114 187
8 284 198 116 189 187 114 52 106
8 286 200 120 193 189 116 55 109
8 191 118 202 288 107 53 117 190
8 195 121 203 289 111 56 118 191
8 193 120 204 290 109 55 119 192
8 290 204 122 194 192 119 57 110
8 196 123 58 112 292 207 122 194
8 293 206 121 195 196 123 58 112
8 199 126 61 115 297 211 124 197
8 298 212 127 200 198 125 62 116
8 199 126 212 298 115 61 125 198
8 205 129 64 120 300 214 127 200
8 301 217 130 201 202 132 66 117
8 209 136 168 264 301 217 130 201
8 302 219 132 202 203 133 67 118
8 303 220 133 203 206 134 68 121
8 205 129 215 304 120 64 128 204
8 304 215 131 207 204 128 65 122
8 306 221 134 206 208 135 69 123
8 208 135 69 123 307 218 131 207
8 210 137 167 263 309 223 136 209
8 328 238 147 226 230 149 76 140
8 228 146 91 166 329 236 165 260
8 231 150 77 141 330 235 145 227
8 330 235 145 227 228 146 91 166
8 332 239 148 229 233 151 78 143
8 230 149 76 140 332 239 148 229
8 232 152 79 142 334 241 150 231
8 234 153 80 144 335 243 152 232
8 336 242 151 233 234 153 80 144
8 236 155 90 165 338 245 164 259
8 241 160 86 150 339 246 154 235
8 339 246 154 235 237 156 82 146
8 237 156 82 146 340 247 155 236
8 342 249 157 238 240 159 85 149
8 343 250 158 239 242 161 87 151
8 240 159 85 149 343 250 158 239
8 243 162 88 152 345 252 160 241
8 244 163 253 346 153 89 161 242
8 244 163 89 153 347 254 162 243
8 311 224 261 371 210 137 167 263
8 263 167 262 372 209 136 168 264
8 267 179 98 171 375 275 178 265
8 375 275 178 265 328 238 147 226
8 376 273 176 266 267 179 98 171
8 268 177 96 172 376 273 176 266
8 379 272 175 269 268 177 96 172
8 380 271 174 270 269 175 94 173
8 283 197 113 186 380 271 174 270
8 381 277 180 271 272 181 100 175
8 297 211 124 197 381 277 180 271
8 382 278 181 272 274 183 102 177
8 274 183 102 177 383 279 182 273
8 383 279 182 273 276 185 104 179
8 385 281 184 275 342 249 157 238
8 276 185 104 179 385 281 184 275
8 285 199 115 188 393 297 197 283
8 394 298 200 286 284 198 116 189
8 285 199 298 394 188 115 198 284
8 291 205 120 193 396 300 200 286
8 397 301 201 287 288 202 117 190
8 295 209 264 374 397 301 201 287
8 398 302 202 288 289 203 118 191
8 399 303 203 289 293 206 121 195
8 291 205 304 400 193 120 204 290
8 400 304 207 292 290 204 122 194
8 294 208 123 196 402 307 207 292
8 403 306 206 293 294 208 123 196
8 296 210 263 373 405 309 209 295
8 408 312 213 299 297 211 126 199
8 299 213 313 409 199 126 212 298
8 409 313 214 300 298 212 127 200
8 305 216 129 205 411 315 214 300
8 412 318 217 301 302 219 132 202
8 309 223 136 209 412 318 217 301
8 413 320 219 302 303 220 133 203
8 306 221 321 414 206 134 220 303
8 307 218 131 207 415 316 215 304
8 305 216 316 415 205 129 215 304
8 417 322 221 306 308 222 135 208
8 308 222 135 208 418 319 218 307
8 310 225 137 210 420 325 223 309
8 423 326 224 311 310 225 137 210
8 329 236 165 260 441 338 259 368
8 442 342 238 328 333 240 149 230
8 331 237 146 228 443 340 236 329
8 334 241 150 231 444 339 235 330
8 444 339 235 330 331 237 146 228
8 446 343 239 332 336 242 151 233
8 333 240 149 230 446 343 239 332
8 335 243 152 232 448 345 241 334
8 337 244 153 234 449 347 243 335
8 337 244 346 450 234 153 242 336
8 338 245 164 259 452 349 258 367
8 340 247 155 236 453 350 245 338
8 345 252 160 241 454 351 246 339
8 454 351 246 339 341 248 156 237
8 341 248 156 237 455 352 247 340
8 240 159 251 344 342 249 354 457
8 242 161 253 346 343 250 355 458
8 343 250 355 458 240 159 251 344
8 347 254 162 243 460 357 252 345
8 348 255 358 461 244 163 253 346
8 348 255 163 244 462 359 254 347
8 473 360 257 365 363 256 364 482
8 452 349 258 367 365 257 366 485
8 422 324 369 488 311 224 261 371
8 371 261 370 490 263 167 262 372
8 407 311 371 491 296 210 263 373
8 373 263 372 492 295 209 264 374
8 493 385 275 375 442 342 238 328
8 377 276 179 267 493 385 275 375
8 378 274 177 268 494 383 273 376
8 494 383 273 376 377 276 179 267
8 497 382 272 379 378 274 177 268
8 498 381 271 380 379 272 175 269
8 393 297 197 283 498 381 271 380
8 499 387 277 381 382 278 181 272
8 408 312 211 297 499 387 277 381
8 500 388 278 382 384 280 183 274
8 501 389 279 383 386 282 185 276
8 384 280 183 274 501 389 279 383
8 386 282 185 276 503 391 281 385
8 503 391 281 385 457 354 249 342
8 511 408 299 395 393 297 199 285
8 395 299 409 512 285 199 298 394
8 512 409 300 396 394 298 200 286
8 401 305 205 291 514 411 300 396
8 515 412 301 397 398 302 202 288
8 405 309 209 295 515 412 301 397
8 516 413 302 398 399 303 203 289
8 403 306 414 517 293 206 303 399
8 402 307 207 292 518 415 304 400
8 401 305 415 518 291 205 304 400
8 404 308 208 294 520 418 307 402
8 521 417 306 403 404 308 208 294
8 406 310 210 296 523 420 309 405
8 526 423 311 407 406 310 210 296
8 410 314 213 299 527 424 312 408
8 528 425 315 411 409 313 214 300
8 410 314 425 528 299 213 313 409
8 416 317 216 305 530 427 315 411
8 531 430 318 412 413 320 219 302
8 420 325 223 309 531 430 318 412
8 532 432 320 413 414 321 220 303
8 417 322 433 533 306 221 321 414
8 418 319 218 307 534 428 316 415
8 416 317 428 534 305 216 316 415
8 419 323 434 536 308 222 322 417
8 419 323 222 308 537 431 319 418
8 421 327 225 310 539 438 325 420
8 421 327 439 541 310 225 326 423
8 543 437 324 422 423 326 224 311
8 441 338 259 368 559 452 367 486
8 443 340 236 329 560 453 338 441
8 333 240 344 447 442 342 457 561
8 445 341 237 331 562 455 340 443
8 448 345 241 334 563 454 339 444
8 563 454 339 444 445 341 237 331
8 336 242 346 450 446 343 458 565
8 446 343 458 565 333 240 344 447
8 449 347 243 335 567 460 345 448
8 451 348 244 337 568 462 347 449
8 451 348 461 569 337 244 346 450
8 570 463 349 452 473 360 257 365
8 453 350 245 338 570 463 349 452
8 455 352 247 340 571 464 350 453
8 460 357 252 345 572 465 351 454
8 572 465 351 454 456 353 248 341
8 456 353 248 341 573 466 352 455
8 344 251 356 459 457 354 468 575
8 458 355 469 576 344 251 356 459
8 346 253 358 461 458 355 469 576
8 462 359 254 347 578 471 357 460
8 348 255 359 462 461 358 472 579
8 591 474 360 473 475 361 256 363
8 475 361 256 363 594 477 362 479
8 363 256 364 482 479 362 480 603
8 590 473 365 484 481 363 482 605
8 482 364 257 365 606 483 366 485
8 559 452 367 486 484 365 485 607
8 542 436 487 609 422 324 369 488
8 525 422 488 611 407 311 371 491
8 488 369 489 612 371 261 370 490
8 491 371 490 613 373 263 372 492
8 495 386 276 377 614 503 385 493
8 614 503 385 493 561 457 342 442
8 615 501 383 494 495 386 276 377
8 496 384 274 378 615 501 383 494
8 618 500 382 497 496 384 274 378
8 619 499 381 498 497 382 272 379
8 511 408 297 393 619 499 381 498
8 620 505 387 499 500 388 278 382
8 527 424 312 408 620 505 387 499
8 502 390 506 621 384 280 388 500
8 622 507 389 501 504 392 282 386
8 502 390 280 384 622 507 389 501
8 504 392 282 386 624 509 391 503
8 624 509 391 503 575 468 354 457
8 513 410 299 395 630 527 408 511
8 631 528 411 514 512 409 300 396
8 513 410 528 631 395 299 409 512
8 519 416 305 401 633 530 411 514
8 634 531 412 515 516 413 302 398
8 523 420 309 405 634 531 412 515
8 635 532 413 516 517 414 303 399
8 521 417 533 636 403 306 414 517
8 520 418 307 402 637 534 415 518
8 519 416 534 637 401 305 415 518
8 522 419 308 404 639 537 418 520
8 522 419 536 640 404 308 417 521
8 524 421 310 406 642 539 420 523
8 524 421 541 644 406 310 423 526
8 646 543 422 525 526 423 311 407
8 529 426 314 410 647 544 424 527
8 528 425 545 648 411 315 427 530
8 529 426 545 648 410 314 425 528
8 535 429 317 416 649 546 427 530
8 650 548 430 531 532 432 320 413
8 539 438 325 420 650 548 430 531
8 533 433 550 651 414 321 432 532
8 536 434 551 652 417 322 433 533
8 537 431 319 418 653 547 428 534
8 535 429 547 653 416 317 428 534
8 538 435 552 654 419 323 434 536
8 538 435 323 419 655 549 431 537
8 540 440 327 421 657 556 438 539
8 540 440 557 659 421 327 439 541
8 541 439 555 660 423 326 437 543
8 661 554 436 542 543 437 324 422
8 676 570 452 559 590 473 365 484
8 560 453 338 441 676 570 452 559
8 562 455 340 443 677 571 453 560
8 447 344 459 566 561 457 575 678
8 564 456 341 445 679 573 455 562
8 567 460 345 448 680 572 454 563
8 680 572 454 563 564 456 341 445
8 565 458 576 682 447 344 459 566
8 450 346 461 569 565 458 576 682
8 568 462 347 449 684 578 460 567
8 451 348 462 568 569 461 579 685
8 686 580 463 570 591 474 360 473
8 571 464 350 453 686 580 463 570
8 573 466 352 455 687 581 464 571
8 572 465 582 688 460 357 471 578
8 574 467 582 688 456 353 465 572
8 574 467 353 456 689 583 466 573
8 459 356 470 577 575 468 585 691
8 576 469 586 692 459 356 470 577
8 461 358 472 579 576 469 586 692
8 462 359 471 578 579 472 588 694
8 704 591 473 590 593 475 363 481
8 595 476 592 705 475 361 474 591
8 593 475 363 481 707 594 479 602
8 594 477 362 479 709 598 478 600
8 595 476 361 475 711 597 477 594
8 479 362 480 603 600 478 601 720
8 481 363 482 605 602 479 603 722
8 603 480 364 482 723 604 483 606
8 605 482 365 484 724 606 485 607
8 656 553 608 726 542 436 487 609
8 645 542 609 728 525 422 488 611
8 609 487 610 729 488 369 489 612
8 611 488 612 730 491 371 490 613
8 616 504 386 495 731 624 503 614
8 731 624 503 614 678 575 457 561
8 732 622 501 615 616 504 386 495
8 617 502 384 496 732 622 501 615
8 617 502 621 735 496 384 500 618
8 736 620 499 619 618 500 382 497
8 630 527 408 511 736 620 499 619
8 621 506 626 737 500 388 505 620
8 647 544 424 527 737 626 505 620
8 623 508 627 738 502 390 506 621
8 623 508 390 502 739 628 507 622
8 625 510 628 739 504 392 507 622
8 740 629 509 624 691 585 468 575
8 625 510 392 504 740 629 509 624
8 632 529 410 513 744 647 527 630
8 631 528 648 745 514 411 530 633
8 632 529 648 745 513 410 528 631
8 638 535 416 519 746 649 530 633
8 747 650 531 634 635 532 413 516
8 642 539 420 523 747 650 531 634
8 636 533 651 748 517 414 532 635
8 640 536 652 749 521 417 533 636
8 639 537 418 520 750 653 534 637
8 638 535 653 750 519 416 534 637
8 641 538 419 522 751 655 537 639
8 641 538 654 752 522 419 536 640
8 643 540 421 524 753 657 539 642
8 643 540 659 755 524 421 541 644
8 644 541 660 757 526 423 543 646
8 758 661 542 645 646 543 422 525
8 529 426 544 647 648 545 662 759
8 530 427 545 648 649 546 663 760
8 535 429 546 649 653 547 664 761
8 762 666 548 650 651 550 432 532
8 657 556 438 539 762 666 548 650
8 652 551 668 763 533 433 550 651
8 654 552 669 764 536 434 551 652
8 655 549 431 537 765 665 547 653
8 538 435 549 655 654 552 667 766
8 661 554 671 768 542 436 553 656
8 658 558 440 540 769 674 556 657
8 658 558 675 770 540 440 557 659
8 659 557 673 771 541 439 555 660
8 660 555 672 772 543 437 554 661
8 788 686 570 676 704 591 473 590
8 677 571 453 560 788 686 570 676
8 679 573 455 562 789 687 571 677
8 566 459 577 683 678 575 691 790
8 681 574 456 564 791 689 573 679
8 680 572 688 792 567 460 578 684
8 681 574 688 792 564 456 572 680
8 682 576 692 794 566 459 577 683
8 569 461 579 685 682 576 692 794
8 568 462 578 684 685 579 694 796
8 687 581 464 571 798 696 580 686
8 798 696 580 686 705 592 474 591
8 689 583 466 573 799 697 581 687
8 688 582 698 800 578 471 588 694
8 690 584 698 800 574 467 582 688
8 690 584 467 574 801 699 583 689
8 693 587 701 803 577 470 585 691
8 693 587 470 577 804 702 586 692
8 695 589 702 804 579 472 586 692
8 695 589 472 579 805 703 588 694
8 708 595 705 813 593 475 591 704
8 710 596 706 814 595 476 592 705
8 707 594 479 602 816 709 600 719
8 708 595 475 593 817 711 594 707
8 709 598 478 600 819 715 599 717
8 711 597 477 594 820 714 598 709
8 710 596 476 595 822 713 597 711
8 600 478 601 720 717 599 718 832
8 602 479 603 722 719 600 720 834
8 720 601 480 603 835 721 604 723
8 722 603 482 605 836 723 606 724
8 767 670 725 839 656 553 608 726
8 756 656 726 841 645 542 609 728
8 726 608 727 842 609 487 610 729
8 728 609 729 843 611 488 612 730
8 844 740 624 731 790 691 575 678
8 733 625 504 616 844 740 624 731
8 734 623 502 617 845 739 622 732
8 733 625 739 845 616 504 622 732
8 734 623 738 846 617 502 621 735
8 735 621 737 847 618 500 620 736
8 744 647 527 630 847 737 620 736
8 621 506 627 738 737 626 741 848
8 647 544 626 737 759 662 741 848
8 623 508 628 739 738 627 742 849
8 740 629 585 691 850 743 700 802
8 625 510 629 740 739 628 743 850
8 632 529 647 744 745 648 759 854
8 633 530 648 745 746 649 760 855
8 638 535 649 746 750 653 761 856
8 857 762 650 747 748 651 532 635
8 753 657 539 642 857 762 650 747
8 749 652 763 858 636 533 651 748
8 752 654 764 859 640 536 652 749
8 751 655 537 639 860 765 653 750
8 641 538 655 751 752 654 766 861
8 754 658 540 643 862 769 657 753
8 754 658 770 863 643 540 659 755
8 755 659 771 864 644 541 660 757
8 758 661 768 866 645 542 656 756
8 757 660 772 867 646 543 661 758
8 759 662 773 868 648 545 663 760
8 649 546 663 760 761 664 774 871
8 765 665 547 653 872 775 664 761
8 873 777 666 762 763 668 550 651
8 769 674 556 657 873 777 666 762
8 764 669 779 874 652 551 668 763
8 654 552 667 766 764 669 778 875
8 655 549 665 765 766 667 776 876
8 768 671 782 877 656 553 670 767
8 772 672 783 878 661 554 671 768
8 658 558 674 769 770 675 786 879
8 659 557 675 770 771 673 785 881
8 882 784 672 772 771 673 555 660
8 789 687 571 677 897 798 686 788
8 897 798 686 788 813 705 591 704
8 791 689 573 679 898 799 687 789
8 795 693 803 900 683 577 691 790
8 793 690 574 681 901 801 689 791
8 792 688 800 902 684 578 694 796
8 793 690 800 902 681 574 688 792
8 795 693 577 683 903 804 692 794
8 797 695 804 903 685 579 692 794
8 797 695 579 685 904 805 694 796
8 905 806 697 799 798 696 581 687
8 814 706 806 905 705 592 696 798
8 689 583 697 799 801 699 808 907
8 800 698 809 908 694 588 703 805
8 690 584 699 801 800 698 809 908
8 803 701 810 909 691 585 700 802
8 693 587 702 804 803 701 811 910
8 695 589 703 805 804 702 812 911
8 818 710 814 919 708 595 705 813
8 821 712 815 920 710 596 706 814
8 816 709 600 719 922 819 717 831
8 817 711 594 707 923 820 709 816
8 818 710 595 708 924 822 711 817
8 819 715 599 717 926 827 716 829
8 820 714 598 709 927 826 715 819
8 929 825 713 822 820 714 597 711
8 821 712 596 710 930 824 713 822
8 717 599 718 832 829 716 830 942
8 719 600 720 834 831 717 832 944
8 832 718 601 720 945 833 721 835
8 834 720 603 722 946 835 723 836
8 869 780 838 950 767 670 725 839
8 865 767 839 952 756 656 726 841
8 839 725 840 953 726 608 727 842
8 841 726 842 954 728 609 729 843
8 844 740 691 790 955 850 802 899
8 733 625 740 844 845 739 850 955
8 734 623 739 845 846 738 849 956
8 735 621 738 846 847 737 848 957
8 744 647 737 847 854 759 848 957
8 738 627 742 849 848 741 851 958
8 848 741 851 958 759 662 773 868
8 850 743 700 802 959 852 807 906
8 849 742 628 739 959 852 743 850
8 854 759 868 965 745 648 760 855
8 746 649 760 855 856 761 871 966
8 860 765 653 750 967 872 761 856
8 968 873 762 857 858 763 651 748
8 862 769 657 753 968 873 762 857
8 859 764 874 969 749 652 763 858
8 752 654 766 861 859 764 875 970
8 751 655 765 860 861 766 876 971
8 754 658 769 862 863 770 879 972
8 755 659 770 863 864 771 881 974
8 976 882 772 867 864 771 660 757
8 866 768 877 977 756 656 767 865
8 867 772 878 978 758 661 768 866
8 760 663 773 868 871 774 883 980
8 870 781 837 948 982 890 780 869
8 982 890 780 869 877 782 670 767
8 761 664 774 871 872 775 884 984
8 876 776 665 765 985 885 775 872
8 873 777 668 763 986 887 779 874
8 769 674 777 873 879 786 887 986
8 764 669 778 875 874 779 888 987
8 766 667 776 876 875 778 886 988
8 878 783 892 989 768 671 782 877
8 878 783 672 772 990 893 784 882
8 880 787 675 770 991 896 786 879
8 880 787 895 992 770 675 785 881
8 881 785 894 993 771 673 784 882
8 1006 905 799 898 897 798 687 789
8 919 814 905 1006 813 705 798 897
8 791 689 799 898 901 801 907 1007
8 900 803 909 1009 790 691 802 899
8 795 693 804 903 900 803 910 1010
8 902 800 908 1011 796 694 805 904
8 793 690 801 901 902 800 908 1011
8 797 695 805 904 903 804 911 1012
8 799 697 806 905 907 808 912 1013
8 920 815 912 1013 814 706 806 905
8 802 700 810 909 906 807 913 1014
8 801 699 808 907 908 809 914 1015
8 805 703 809 908 911 812 915 1016
8 803 701 811 910 909 810 916 1017
8 911 812 917 1018 804 702 811 910
8 925 821 920 1030 818 710 814 919
8 928 823 921 1031 821 712 815 920
8 922 819 717 831 1033 926 829 941
8 923 820 709 816 1034 927 819 922
8 1035 929 822 924 923 820 711 817
8 925 821 710 818 1036 930 822 924
8 1038 933 825 929 927 826 714 820
8 926 827 716 829 1039 935 828 939
8 927 826 715 819 1040 934 827 926
8 928 823 712 821 1041 931 824 930
8 1042 932 824 930 929 825 713 822
8 829 716 830 942 939 828 940 1058
8 831 717 832 944 941 829 942 1060
8 942 830 718 832 1061 943 833 945
8 944 832 720 834 1062 945 835 946
8 981 889 947 1064 870 781 837 948
8 948 837 949 1067 869 780 838 950
8 975 869 950 1069 865 767 839 952
8 950 838 951 1070 839 725 840 953
8 952 839 953 1071 841 726 842 954
8 955 850 802 899 1072 959 906 1008
8 956 849 739 845 1072 959 850 955
8 846 738 849 956 957 848 958 1073
8 957 848 958 1073 854 759 868 965
8 849 742 852 959 958 851 961 1076
8 960 853 961 1076 906 807 852 959
8 958 851 961 1076 868 773 883 980
8 960 853 807 906 1077 963 913 1014
8 855 760 868 965 966 871 980 1085
8 856 761 871 966 967 872 984 1086
8 971 876 765 860 1087 985 872 967
8 968 873 763 858 1088 986 874 969
8 862 769 873 968 972 879 986 1088
8 859 764 875 970 969 874 987 1089
8 861 766 876 971 970 875 988 1090
8 973 880 770 863 1091 991 879 972
8 973 880 992 1092 863 770 881 974
8 974 881 993 1093 864 771 882 976
8 979 870 948 1066 1094 982 869 975
8 1094 982 869 975 977 877 767 865
8 978 878 772 867 1095 990 882 976
8 978 878 989 1096 866 768 877 977
8 871 774 883 980 984 884 994 1099
8 983 891 999 1100 870 781 889 981
8 1101 1000 890 982 989 892 782 877
8 983 891 781 870 1101 1000 890 982
8 872 775 884 984 985 885 995 1103
8 876 776 885 985 988 886 996 1104
8 986 887 779 874 1105 998 888 987
8 879 786 887 986 991 896 998 1105
8 875 778 886 988 987 888 997 1106
8 990 893 1002 1107 878 783 892 989
8 1108 1003 893 990 993 894 784 882
8 880 787 896 991 992 895 1005 1109
8 993 894 785 881 1110 1004 895 992
8 898 799 905 1006 1007 907 1013 1120
8 1030 920 1013 1120 919 814 905 1006
8 901 801 907 1007 1011 908 1015 1121
8 899 802 909 1009 1008 906 1014 1122
8 900 803 910 1010 1009 909 1017 1123
8 1012 911 1018 1124 903 804 910 1010
8 904 805 908 1011 1012 911 1016 1125
8 1013 912 1020 1127 907 808 914 1015
8 1031 921 1020 1127 920 815 912 1013
8 1019 918 962 1075 1128 1021 913 1014
8 1128 1021 913 1014 1017 916 810 909
8 1015 914 1022 1129 908 809 915 1016
8 1016 915 1023 1130 911 812 917 1018
8 1018 917 1024 1131 910 811 916 1017
8 1037 928 1031 1148 925 821 920 1030
8 928 823 931 1041 1031 921 1032 1149
8 1033 926 829 941 1151 1039 939 1057
8 1034 927 819 922 1152 1040 926 1033
8 1153 1038 929 1035 1034 927 820 923
8 1154 1042 930 1036 1035 929 822 924
8 1037 928 821 925 1155 1041 930 1036
8 1039 935 828 939 1156 1047 938 1055
8 1157 1043 932 1042 1038 933 825 929
8 1038 933 826 927 1158 1045 934 1040
8 1040 934 827 926 1159 1046 935 1039
8 930 824 932 1042 1041 931 1044 1160
8 1051 936 1048 1165 1175 1052 937 1053
8 1156 1047 938 1055 1053 937 1054 1178
8 939 828 940 1058 1055 938 1056 1181
8 941 829 942 1060 1057 939 1058 1183
8 942 830 943 1061 1058 940 1059 1184
8 1060 942 832 944 1185 1061 945 1062
8 1082 964 1063 1188 981 889 947 1064
8 1097 981 1064 1190 979 870 948 1066
8 1064 947 1065 1191 948 837 949 1067
8 1066 948 1067 1193 975 869 950 1069
8 1067 949 1068 1194 950 838 951 1070
8 1069 950 1070 1195 952 839 953 1071
8 956 849 959 1072 1073 958 1076 1197
8 1074 960 1076 1197 1008 906 959 1072
8 1073 958 1076 1197 965 868 980 1085
8 1074 960 906 1008 1198 1077 1014 1122
8 1133 1026 1079 1199 1019 918 962 1075
8 1077 963 913 1014 1200 1080 962 1075
8 960 853 963 1077 1076 961 1078 1201
8 980 883 961 1076 1099 994 1078 1201
8 1210 1083 964 1082 1100 999 889 981
8 966 871 980 1085 1086 984 1099 1215
8 967 872 984 1086 1087 985 1103 1216
8 971 876 985 1087 1090 988 1104 1217
8 1088 986 874 969 1218 1105 987 1089
8 972 879 986 1088 1091 991 1105 1218
8 970 875 988 1090 1089 987 1106 1219
8 973 880 991 1091 1092 992 1109 1220
8 1093 993 881 974 1221 1110 992 1092
8 1222 1108 990 1095 1093 993 882 976
8 1223 1101 982 1094 1096 989 877 977
8 1098 983 870 979 1223 1101 982 1094
8 1095 990 1107 1224 978 878 989 1096
8 1098 983 1100 1225 979 870 981 1097
8 984 884 994 1099 1103 995 1111 1227
8 1102 1001 1115 1228 983 891 999 1100
8 1101 1000 892 989 1229 1116 1002 1107
8 1102 1001 891 983 1229 1116 1000 1101
8 985 885 995 1103 1104 996 1112 1230
8 988 886 996 1104 1106 997 1113 1231
8 1105 998 888 987 1232 1114 997 1106
8 991 896 998 1105 1109 1005 1114 1232
8 1108 1003 1117 1233 990 893 1002 1107
8 1108 1003 894 993 1233 1117 1004 1110
8 992 895 1005 1109 1110 1004 1118 1234
8 1120 1013 1127 1244 1007 907 1015 1121
8 1148 1031 1127 1244 1030 920 1013 1120
8 1121 1015 1129 1245 1011 908 1016 1125
8 1126 1019 1075 1196 1246 1128 1014 1122
8 1246 1128 1014 1122 1123 1017 909 1009
8 1124 1018 1131 1247 1010 910 1017 1123
8 1125 1016 1130 1248 1012 911 1018 1124
8 1127 1020 1137 1254 1015 914 1022 1129
8 1031 921 1032 1149 1127 1020 1137 1254
8 1134 1027 918 1019 1257 1140 1021 1128
8 1257 1140 1021 1128 1131 1024 916 1017
8 1129 1022 1141 1258 1016 915 1023 1130
8 1130 1023 1142 1259 1018 917 1024 1131
8 1261 1144 1025 1132 1133 1026 1079 1199
8 1255 1138 1025 1132 1135 1028 1144 1261
8 1133 1026 918 1019 1262 1145 1027 1134
8 1136 1029 1139 1256 1263 1146 1028 1135
8 1037 928 1041 1155 1148 1031 1149 1275
8 1041 931 1044 1160 1149 1032 1150 1276
8 1151 1039 939 1057 1278 1156 1055 1180
8 1152 1040 926 1033 1279 1159 1039 1151
8 1153 1038 927 1034 1280 1158 1040 1152
8 1281 1157 1042 1154 1153 1038 929 1035
8 1036 930 1042 1154 1155 1041 1160 1282
8 1283 1164 1046 1159 1156 1047 935 1039
8 1165 1048 1164 1283 1053 937 1047 1156
8 1157 1043 933 1038 1284 1161 1045 1158
8 1157 1043 1161 1284 1042 932 1044 1160
8 1040 934 1046 1159 1158 1045 1163 1285
8 1166 1049 1167 1292 1051 936 1048 1165
8 1166 1049 936 1051 1293 1168 1050 1172
8 1051 936 1052 1175 1172 1050 1173 1306
8 1174 1051 1165 1290 1308 1175 1053 1177
8 1053 937 1054 1178 1175 1052 1176 1309
8 1278 1156 1055 1180 1177 1053 1178 1311
8 1055 938 1056 1181 1178 1054 1179 1312
8 1057 939 1058 1183 1180 1055 1181 1314
8 1058 940 1059 1184 1181 1056 1182 1315
8 1060 942 1061 1185 1183 1058 1184 1316
8 1208 1081 1187 1321 1082 964 1063 1188
8 1209 1082 1188 1322 1097 981 1064 1190
8 1188 1063 1189 1323 1064 947 1065 1191
8 1190 1064 1191 1325 1066 948 1067 1193
8 1191 1065 1192 1326 1067 949 1068 1194
8 1067 1193 1069 950 1194 1327 1195 1070
8 1250 1133 1199 1330 1126 1019 1075 1196
8 1198 1077 1014 1122 1331 1200 1075 1196
8 1074 960 1077 1198 1197 1076 1201 1332
8 1085 980 1076 1197 1215 1099 1201 1332
8 1199 1079 1203 1333 1075 962 1080 1200
8 1132 1025 1119 1243 1199 1079 1203 1333
8 1201 1078 963 1077 1334 1202 1080 1200
8 1099 994 1078 1201 1227 1111 1202 1334
8 1343 1207 1081 1208 1210 1083 964 1082
8 1214 1084 1186 1319 1343 1207 1081 1208
8 1345 1210 1082 1209 1225 1100 981 1097
8 1346 1211 1083 1210 1228 1115 999 1100
8 1086 984 1099 1215 1216 1103 1227 1352
8 1087 985 1103 1216 1217 1104 1230 1353
8 1090 988 1104 1217 1219 1106 1231 1354
8 1218 1105 987 1089 1355 1232 1106 1219
8 1091 991 1105 1218 1220 1109 1232 1355
8 1092 992 1109 1220 1221 1110 1234 1356
8 1222 1108 1233 1357 1095 990 1107 1224
8 1222 1108 993 1093 1357 1233 1110 1221
8 1223 1101 989 1096 1358 1229 1107 1224
8 1226 1102 983 1098 1358 1229 1101 1223
8 1226 1102 1228 1359 1098 983 1100 1225
8 1103 995 1111 1227 1230 1112 1235 1360
8 1107 1002 1117 1233 1229 1116 1240 1362
8 1102 1001 1116 1229 1228 1115 1240 1362
8 1104 996 1112 1230 1231 1113 1236 1363
8 1364 1237 1114 1232 1231 1113 997 1106
8 1109 1005 1114 1232 1234 1118 1238 1365
8 1110 1004 1118 1234 1233 1117 1241 1366
8 1242 1374 1255 1138 1119 1243 1132 1025
8 1244 1127 1254 1376 1121 1015 1129 1245
8 1148 1031 1149 1275 1244 1127 1254 1376
8 1245 1129 1258 1377 1125 1016 1130 1248
8 1251 1134 1019 1126 1378 1257 1128 1246
8 1378 1257 1128 1246 1247 1131 1017 1123
8 1248 1130 1259 1379 1124 1018 1131 1247
8 1261 1381 1250 1133 1132 1249 1330 1199
8 1255 1380 1252 1135 1132 1249 1381 1261
8 1250 1133 1019 1126 1382 1262 1134 1251
8 1253 1136 1256 1385 1384 1263 1135 1252
8 1254 1137 1265 1387 1129 1022 1141 1258
8 1149 1032 1150 1276 1254 1137 1265 1387
8 1028 1135 1255 1138 1139 1256 1388 1266
8 1136 1029 1147 1264 1256 1139 1267 1389
8 1390 1268 1140 1257 1259 1142 1024 1131
8 1260 1143 1027 1134 1390 1268 1140 1257
8 1258 1141 1269 1391 1130 1023 1142 1259
8 1262 1145 1027 1134 1393 1271 1143 1260
8 1261 1144 1026 1133 1394 1272 1145 1262
8 1135 1028 1144 1261 1263 1146 1272 1394
8 1136 1029 1146 1263 1264 1147 1273 1395
8 1155 1041 1160 1282 1275 1149 1276 1405
8 1276 1150 1044 1160 1406 1277 1162 1286
8 1408 1283 1159 1279 1278 1156 1039 1151
8 1290 1165 1283 1408 1177 1053 1156 1278
8 1152 1040 1159 1279 1280 1158 1285 1409
8 1281 1157 1038 1153 1410 1284 1158 1280
8 1281 1157 1284 1410 1154 1042 1160 1282
8 1159 1046 1164 1283 1285 1163 1289 1412
8 1292 1167 1289 1412 1165 1048 1164 1283
8 1158 1045 1163 1285 1284 1161 1288 1413
8 1284 1161 1288 1413 1160 1044 1162 1286
8 1291 1166 1292 1418 1174 1051 1165 1290
8 1291 1166 1051 1174 1419 1293 1172 1305
8 1294 1169 1296 1421 1166 1049 1167 1292
8 1293 1168 1050 1172 1422 1295 1171 1303
8 1294 1169 1049 1166 1423 1297 1168 1293
8 1422 1295 1171 1303 1301 1170 1302 1435
8 1172 1050 1173 1306 1303 1171 1304 1438
8 1174 1051 1175 1308 1305 1172 1306 1440
8 1175 1052 1176 1309 1306 1173 1307 1441
8 1177 1053 1178 1311 1308 1175 1309 1443
8 1178 1054 1179 1312 1309 1176 1310 1444
8 1180 1055 1181 1314 1311 1178 1312 1446
8 1056 1181 1312 1179 1182 1315 1447 1313
8 1183 1058 1184 1316 1314 1181 1315 1448
8 1319 1186 1084 1214 1451 1317 1213 1350
8 1319 1186 1318 1453 1208 1081 1187 1321
8 1321 1187 1320 1456 1188 1063 1189 1323
8 1344 1208 1321 1457 1209 1082 1188 1322
8 1322 1188 1323 1458 1190 1064 1191 1325
8 1323 1189 1324 1459 1191 1065 1192 1326
8 1191 1325 1193 1067 1326 1460 1327 1194
8 1242 1374 1243 1119 1328 1462 1335 1204
8 1330 1199 1333 1465 1196 1075 1200 1331
8 1132 1249 1330 1199 1243 1375 1465 1333
8 1332 1201 1077 1198 1466 1334 1200 1331
8 1215 1099 1201 1332 1352 1227 1334 1466
8 1119 1243 1333 1203 1204 1335 1470 1338
8 1333 1203 1338 1470 1200 1080 1202 1334
8 1227 1111 1202 1334 1360 1235 1338 1470
8 1328 1462 1335 1204 1205 1336 1471 1339
8 1337 1206 1340 1472 1464 1329 1205 1336
8 1346 1211 1342 1479 1210 1083 1207 1343
8 1346 1211 1115 1228 1479 1342 1239 1361
8 1348 1212 1084 1214 1479 1342 1207 1343
8 1480 1343 1208 1344 1345 1210 1082 1209
8 1351 1214 1319 1454 1480 1343 1208 1344
8 1481 1346 1210 1345 1359 1228 1100 1225
8 1348 1212 1347 1483 1214 1084 1213 1350
8 1216 1103 1227 1352 1353 1230 1360 1488
8 1217 1104 1230 1353 1354 1231 1363 1489
8 1490 1364 1232 1355 1354 1231 1106 1219
8 1220 1109 1232 1355 1356 1234 1365 1491
8 1221 1110 1234 1356 1357 1233 1366 1492
8 1224 1107 1233 1357 1358 1229 1362 1493
8 1226 1102 1229 1358 1359 1228 1362 1493
8 1230 1112 1235 1360 1363 1236 1367 1496
8 1361 1239 1115 1228 1497 1371 1240 1362
8 1366 1241 1372 1498 1233 1117 1240 1362
8 1364 1237 1113 1231 1499 1368 1236 1363
8 1364 1237 1368 1499 1232 1114 1238 1365
8 1234 1118 1238 1365 1366 1241 1369 1500
8 1507 1373 1242 1374 1388 1266 1138 1255
8 1508 1374 1243 1375 1380 1255 1132 1249
8 1376 1254 1387 1509 1245 1129 1258 1377
8 1275 1149 1276 1405 1376 1254 1387 1509
8 1377 1258 1391 1510 1248 1130 1259 1379
8 1511 1390 1257 1378 1379 1259 1131 1247
8 1383 1260 1134 1251 1511 1390 1257 1378
8 1252 1135 1256 1385 1380 1255 1388 1512
8 1261 1381 1513 1394 1133 1250 1382 1262
8 1135 1252 1384 1263 1261 1381 1513 1394
8 1382 1262 1134 1251 1514 1393 1260 1383
8 1253 1136 1263 1384 1386 1264 1395 1516
8 1253 1136 1264 1386 1385 1256 1389 1517
8 1387 1265 1397 1519 1258 1141 1269 1391
8 1276 1150 1277 1406 1387 1265 1397 1519
8 1256 1139 1267 1389 1388 1266 1398 1520
8 1264 1147 1274 1396 1389 1267 1399 1521
8 1392 1270 1143 1260 1522 1400 1268 1390
8 1390 1268 1142 1259 1522 1400 1269 1391
8 1392 1270 1401 1523 1260 1143 1271 1393
8 1272 1394 1524 1402 1145 1262 1393 1271
8 1395 1273 1146 1263 1524 1402 1272 1394
8 1273 1395 1264 1147 1403 1526 1396 1274
8 1405 1276 1160 1282 1534 1406 1286 1411
8 1414 1287 1407 1535 1286 1162 1277 1406
8 1279 1159 1283 1408 1409 1285 1412 1537
8 1418 1292 1412 1537 1290 1165 1283 1408
8 1280 1158 1285 1409 1410 1284 1413 1538
8 1410 1284 1413 1538 1282 1160 1286 1411
8 1285 1163 1289 1412 1413 1288 1417 1540
8 1421 1296 1417 1540 1292 1167 1289 1412
8 1414 1287 1162 1286 1541 1416 1288 1413
8 1420 1294 1421 1545 1291 1166 1292 1418
8 1419 1293 1172 1305 1546 1422 1303 1437
8 1420 1294 1166 1291 1547 1423 1293 1419
8 1294 1169 1297 1423 1421 1296 1425 1548
8 1423 1297 1168 1293 1549 1424 1295 1422
8 1301 1170 1298 1427 1422 1295 1424 1549
8 1432 1300 1428 1554 1301 1170 1298 1427
8 1431 1299 1428 1554 1560 1430 1300 1432
8 1563 1433 1300 1432 1435 1302 1170 1301
8 1546 1422 1303 1437 1434 1301 1435 1565
8 1303 1171 1304 1438 1435 1302 1436 1566
8 1305 1172 1306 1440 1437 1303 1438 1568
8 1306 1173 1307 1441 1438 1304 1439 1569
8 1308 1175 1309 1443 1440 1306 1441 1571
8 1309 1176 1310 1444 1441 1307 1442 1572
8 1311 1178 1312 1446 1443 1309 1444 1574
8 1179 1312 1444 1310 1313 1447 1575 1445
8 1314 1181 1315 1448 1446 1312 1447 1576
8 1350 1213 1349 1486 1451 1317 1449 1579
8 1451 1317 1450 1581 1319 1186 1318 1453
8 1454 1319 1214 1351 1582 1451 1350 1487
8 1453 1318 1452 1584 1321 1187 1320 1456
8 1454 1319 1453 1585 1344 1208 1321 1457
8 1456 1320 1455 1586 1323 1189 1324 1459
8 1457 1321 1456 1587 1322 1188 1323 1458
8 1458 1323 1459 1588 1325 1191 1326 1460
8 1205 1336 1464 1329 1328 1462 1590 1461
8 1507 1373 1461 1590 1374 1242 1328 1462
8 1508 1374 1462 1591 1375 1243 1335 1467
8 1337 1206 1329 1464 1473 1341 1463 1594
8 1375 1243 1335 1467 1465 1333 1470 1596
8 1465 1333 1470 1596 1331 1200 1334 1466
8 1352 1227 1334 1466 1488 1360 1470 1596
8 1591 1462 1336 1468 1467 1335 1471 1597
8 1469 1337 1472 1598 1595 1464 1336 1468
8 1471 1339 1474 1600 1335 1204 1338 1470
8 1600 1474 1367 1496 1470 1338 1235 1360
8 1336 1205 1340 1472 1471 1339 1475 1601
8 1337 1206 1341 1473 1472 1340 1476 1602
8 1495 1370 1478 1609 1361 1239 1342 1479
8 1348 1212 1342 1479 1483 1347 1478 1609
8 1481 1346 1479 1610 1345 1210 1343 1480
8 1481 1346 1228 1359 1610 1479 1361 1494
8 1484 1348 1214 1351 1610 1479 1343 1480
8 1483 1347 1482 1612 1350 1213 1349 1486
8 1484 1348 1483 1613 1351 1214 1350 1487
8 1353 1230 1360 1488 1489 1363 1496 1616
8 1490 1364 1231 1354 1617 1499 1363 1489
8 1490 1364 1499 1617 1355 1232 1365 1491
8 1356 1234 1365 1491 1492 1366 1500 1619
8 1492 1366 1498 1620 1357 1233 1362 1493
8 1494 1361 1228 1359 1621 1497 1362 1493
8 1495 1370 1239 1361 1622 1504 1371 1497
8 1363 1236 1367 1496 1499 1368 1501 1623
8 1497 1371 1240 1362 1624 1505 1372 1498
8 1625 1503 1372 1498 1500 1369 1241 1366
8 1365 1238 1368 1499 1500 1369 1502 1626
8 1520 1398 1506 1633 1388 1266 1373 1507
8 1634 1507 1374 1508 1512 1388 1255 1380
8 1509 1387 1519 1635 1377 1258 1391 1510
8 1405 1276 1406 1534 1509 1387 1519 1635
8 1515 1392 1260 1383 1636 1522 1390 1511
8 1511 1390 1259 1379 1636 1522 1391 1510
8 1385 1256 1389 1517 1512 1388 1520 1637
8 1513 1394 1262 1382 1638 1524 1393 1514
8 1395 1516 1638 1524 1263 1384 1513 1394
8 1515 1392 1523 1639 1383 1260 1393 1514
8 1516 1395 1526 1640 1386 1264 1396 1518
8 1386 1264 1396 1518 1517 1389 1521 1641
8 1519 1397 1527 1643 1391 1269 1400 1522
8 1535 1407 1527 1643 1406 1277 1397 1519
8 1389 1267 1399 1521 1520 1398 1528 1644
8 1645 1529 1399 1521 1525 1404 1274 1396
8 1392 1270 1400 1522 1523 1401 1531 1646
8 1524 1402 1271 1393 1648 1532 1401 1523
8 1403 1526 1648 1532 1273 1395 1524 1402
8 1525 1404 1274 1396 1649 1533 1403 1526
8 1539 1414 1535 1657 1411 1286 1406 1534
8 1542 1415 1536 1658 1414 1287 1407 1535
8 1409 1285 1412 1537 1538 1413 1540 1660
8 1545 1421 1540 1660 1418 1292 1412 1537
8 1539 1414 1286 1411 1661 1541 1413 1538
8 1540 1417 1544 1663 1413 1288 1416 1541
8 1421 1296 1425 1548 1540 1417 1544 1663
8 1542 1415 1287 1414 1664 1543 1416 1541
8 1420 1294 1423 1547 1545 1421 1548 1666
8 1547 1423 1293 1419 1667 1549 1422 1546
8 1434 1301 1427 1553 1546 1422 1549 1667
8 1423 1297 1424 1549 1548 1425 1550 1668
8 1551 1426 1550 1668 1427 1298 1424 1549
8 1551 1426 1298 1427 1671 1552 1428 1554
8 1562 1432 1554 1674 1434 1301 1427 1553
8 1431 1299 1429 1558 1554 1428 1555 1675
8 1431 1299 1430 1560 1558 1429 1557 1680
8 1560 1430 1300 1432 1683 1559 1433 1563
8 1561 1431 1554 1674 1684 1560 1432 1562
8 1685 1563 1432 1562 1565 1435 1301 1434
8 1435 1302 1436 1566 1563 1433 1564 1686
8 1437 1303 1438 1568 1565 1435 1566 1688
8 1438 1304 1439 1569 1566 1436 1567 1689
8 1440 1306 1441 1571 1568 1438 1569 1691
8 1441 1307 1442 1572 1569 1439 1570 1692
8 1443 1309 1444 1574 1571 1441 1572 1694
8 1310 1444 1572 1442 1445 1575 1695 1573
8 1446 1312 1447 1576 1574 1444 1575 1696
8 1486 1349 1485 1614 1579 1449 1577 1699
8 1451 1317 1449 1579 1581 1450 1578 1701
8 1487 1350 1486 1615 1582 1451 1579 1702
8 1581 1450 1580 1704 1453 1318 1452 1584
8 1582 1451 1581 1705 1454 1319 1453 1585
8 1584 1452 1583 1706 1456 1320 1455 1586
8 1585 1453 1584 1707 1457 1321 1456 1587
8 1587 1456 1586 1708 1458 1323 1459 1588
8 1633 1506 1589 1710 1507 1373 1461 1590
8 1464 1329 1461 1590 1594 1463 1589 1710
8 1468 1336 1462 1591 1595 1464 1590 1711
8 1634 1507 1590 1711 1508 1374 1462 1591
8 1473 1341 1463 1594 1603 1477 1593 1716
8 1469 1337 1464 1595 1599 1473 1594 1717
8 1471 1597 1467 1335 1600 1718 1596 1470
8 1718 1600 1496 1616 1596 1470 1360 1488
8 1336 1468 1597 1471 1472 1598 1719 1601
8 1469 1337 1473 1599 1598 1472 1602 1720
8 1722 1604 1501 1623 1600 1474 1367 1496
8 1475 1601 1471 1339 1604 1722 1600 1474
8 1602 1476 1605 1723 1472 1340 1475 1601
8 1476 1602 1724 1606 1341 1473 1603 1477
8 1483 1347 1478 1609 1612 1482 1608 1731
8 1495 1370 1504 1622 1609 1478 1608 1731
8 1618 1495 1609 1732 1494 1361 1479 1610
8 1484 1348 1479 1610 1613 1483 1609 1732
8 1486 1349 1482 1612 1614 1485 1611 1733
8 1613 1483 1612 1734 1487 1350 1486 1615
8 1489 1363 1496 1616 1617 1499 1623 1736
8 1491 1365 1499 1617 1619 1500 1626 1737
8 1618 1495 1361 1494 1738 1622 1497 1621
8 1739 1625 1498 1620 1619 1500 1366 1492
8 1621 1497 1362 1493 1740 1624 1498 1620
8 1742 1631 1504 1622 1624 1505 1371 1497
8 1743 1628 1502 1626 1623 1501 1368 1499
8 1744 1630 1505 1624 1625 1503 1372 1498
8 1745 1629 1503 1625 1626 1502 1369 1500
8 1520 1398 1528 1644 1633 1506 1632 1751
8 1637 1520 1633 1752 1512 1388 1507 1634
8 1635 1519 1643 1753 1510 1391 1522 1636
8 1657 1535 1643 1753 1534 1406 1519 1635
8 1515 1392 1522 1636 1639 1523 1646 1754
8 1517 1389 1521 1641 1637 1520 1644 1755
8 1524 1638 1756 1648 1393 1514 1639 1523
8 1640 1526 1395 1516 1756 1648 1524 1638
8 1642 1525 1396 1518 1757 1649 1526 1640
8 1758 1645 1521 1641 1642 1525 1396 1518
8 1646 1531 1400 1522 1760 1650 1527 1643
8 1535 1407 1536 1658 1643 1527 1650 1760
8 1521 1399 1529 1645 1644 1528 1651 1761
8 1647 1530 1652 1762 1525 1404 1529 1645
8 1401 1523 1648 1532 1531 1646 1763 1655
8 1525 1404 1533 1649 1647 1530 1654 1765
8 1533 1649 1766 1656 1403 1526 1648 1532
8 1662 1542 1658 1774 1539 1414 1535 1657
8 1542 1415 1543 1664 1658 1536 1659 1775
8 1660 1540 1663 1777 1538 1413 1541 1661
8 1545 1421 1548 1666 1660 1540 1663 1777
8 1662 1542 1414 1539 1778 1664 1541 1661
8 1664 1543 1416 1541 1779 1665 1544 1663
8 1548 1425 1550 1668 1663 1544 1665 1779
8 1547 1423 1549 1667 1666 1548 1668 1781
8 1670 1551 1668 1781 1553 1427 1549 1667
8 1551 1426 1552 1671 1668 1550 1669 1782
8 1670 1551 1427 1553 1784 1671 1554 1674
8 1675 1555 1672 1785 1554 1428 1552 1671
8 1678 1556 1673 1789 1558 1429 1555 1675
8 1561 1431 1558 1681 1674 1554 1675 1790
8 1794 1677 1556 1678 1680 1557 1429 1558
8 1560 1430 1559 1683 1680 1557 1679 1797
8 1561 1431 1560 1684 1681 1558 1680 1798
8 1563 1433 1564 1686 1683 1559 1682 1800
8 1684 1560 1432 1562 1801 1683 1563 1685
8 1565 1435 1566 1688 1685 1563 1686 1802
8 1566 1436 1567 1689 1686 1564 1687 1803
8 1568 1438 1569 1691 1688 1566 1689 1805
8 1569 1439 1570 1692 1689 1567 1690 1806
8 1571 1441 1572 1694 1691 1569 1692 1808
8 1442 1572 1692 1570 1573 1695 1809 1693
8 1574 1444 1575 1696 1694 1572 1695 1810
8 1614 1485 1592 1712 1699 1577 1697 1813
8 1579 1449 1577 1699 1701 1578 1698 1815
8 1615 1486 1614 1735 1702 1579 1699 1816
8 1701 1578 1700 1818 1581 1450 1580 1704
8 1582 1451 1579 1702 1705 1581 1701 1819
8 1704 1580 1703 1820 1584 1452 1583 1706
8 1705 1581 1704 1821 1585 1453 1584 1707
8 1707 1584 1706 1822 1587 1456 1586 1708
8 1710 1589 1506 1633 1824 1709 1632 1751
8 1594 1463 1589 1710 1716 1593 1709 1824
8 1752 1633 1710 1825 1634 1507 1590 1711
8 1595 1464 1590 1711 1717 1594 1710 1825
8 1830 1714 1592 1712 1733 1611 1485 1614
8 1603 1477 1593 1716 1725 1607 1715 1834
8 1599 1473 1594 1717 1721 1603 1716 1835
8 1837 1722 1623 1736 1718 1600 1496 1616
8 1719 1601 1722 1837 1597 1471 1600 1718
8 1602 1720 1598 1472 1723 1838 1719 1601
8 1720 1602 1473 1599 1839 1724 1603 1721
8 1723 1605 1726 1840 1601 1475 1604 1722
8 1840 1726 1628 1743 1722 1604 1501 1623
8 1724 1606 1727 1841 1602 1476 1605 1723
8 1725 1607 1728 1842 1603 1477 1606 1724
8 1612 1482 1608 1731 1733 1611 1730 1849
8 1741 1627 1730 1849 1622 1504 1608 1731
8 1613 1483 1609 1732 1734 1612 1731 1850
8 1618 1495 1622 1738 1732 1609 1731 1850
8 1615 1486 1612 1734 1735 1614 1733 1851
8 1852 1743 1626 1737 1736 1623 1499 1617
8 1853 1745 1625 1739 1737 1626 1500 1619
8 1855 1742 1622 1738 1740 1624 1497 1621
8 1856 1744 1624 1740 1739 1625 1498 1620
8 1741 1627 1504 1622 1857 1746 1631 1742
8 1742 1631 1505 1624 1858 1749 1630 1744
8 1859 1747 1629 1745 1743 1628 1502 1626
8 1860 1748 1630 1744 1745 1629 1503 1625
8 1644 1528 1651 1761 1751 1632 1750 1865
8 1637 1520 1644 1755 1752 1633 1751 1866
8 1754 1646 1522 1636 1867 1760 1643 1753
8 1657 1535 1658 1774 1753 1643 1760 1867
8 1639 1523 1646 1754 1756 1648 1763 1868
8 1641 1521 1645 1758 1755 1644 1761 1869
8 1757 1649 1526 1640 1870 1766 1648 1756
8 1642 1525 1649 1757 1759 1647 1765 1871
8 1759 1647 1762 1872 1642 1525 1645 1758
8 1760 1650 1767 1874 1646 1531 1655 1763
8 1658 1536 1659 1775 1760 1650 1767 1874
8 1762 1652 1768 1875 1645 1529 1651 1761
8 1764 1653 1769 1876 1647 1530 1652 1762
8 1656 1766 1877 1773 1532 1648 1763 1655
8 1771 1879 1765 1654 1653 1764 1647 1530
8 1533 1649 1765 1654 1656 1766 1880 1772
8 1662 1542 1664 1778 1774 1658 1775 1887
8 1664 1543 1665 1779 1775 1659 1776 1888
8 1778 1664 1541 1661 1890 1779 1663 1777
8 1666 1548 1668 1781 1777 1663 1779 1890
8 1782 1669 1780 1891 1668 1550 1665 1779
8 1670 1551 1671 1784 1781 1668 1782 1893
8 1671 1552 1672 1785 1782 1669 1783 1894
8 1790 1675 1785 1896 1674 1554 1671 1784
8 1675 1555 1673 1789 1785 1672 1786 1897
8 1792 1676 1788 1903 1678 1556 1673 1789
8 1795 1678 1789 1904 1681 1558 1675 1790
8 1792 1676 1556 1678 1906 1791 1677 1794
8 1680 1557 1679 1797 1794 1677 1793 1909
8 1910 1794 1678 1795 1798 1680 1558 1681
8 1683 1559 1682 1800 1797 1679 1796 1912
8 1684 1560 1683 1801 1798 1680 1797 1913
8 1686 1564 1687 1803 1800 1682 1799 1915
8 1685 1563 1686 1802 1801 1683 1800 1916
8 1688 1566 1689 1805 1802 1686 1803 1917
8 1689 1567 1690 1806 1803 1687 1804 1918
8 1691 1569 1692 1808 1805 1689 1806 1920
8 1692 1570 1693 1809 1806 1690 1807 1921
8 1694 1572 1695 1810 1808 1692 1809 1922
8 1829 1713 1811 1926 1712 1592 1697 1813
8 1813 1697 1812 1928 1699 1577 1698 1815
8 1735 1614 1712 1828 1816 1699 1813 1929
8 1815 1698 1814 1931 1701 1578 1700 1818
8 1702 1579 1699 1816 1819 1701 1815 1932
8 1818 1700 1817 1933 1704 1580 1703 1820
8 1819 1701 1818 1934 1705 1581 1704 1821
8 1821 1704 1820 1935 1707 1584 1706 1822
8 1824 1709 1632 1751 1937 1823 1750 1865
8 1716 1593 1709 1824 1834 1715 1823 1937
8 1825 1710 1633 1752 1938 1824 1751 1866
8 1717 1594 1710 1825 1835 1716 1824 1938
8 1945 1830 1712 1828 1851 1733 1614 1735
8 1830 1714 1831 1946 1712 1592 1713 1829
8 1947 1832 1714 1830 1849 1730 1611 1733
8 1843 1729 1607 1725 1950 1833 1715 1834
8 1721 1603 1716 1835 1836 1725 1834 1951
8 1836 1725 1842 1953 1721 1603 1724 1839
8 1723 1838 1719 1601 1840 1954 1837 1722
8 1954 1840 1743 1852 1837 1722 1623 1736
8 1724 1839 1720 1602 1841 1955 1838 1723
8 1841 1727 1844 1956 1723 1605 1726 1840
8 1956 1844 1747 1859 1840 1726 1628 1743
8 1728 1842 1724 1606 1845 1957 1841 1727
8 1725 1607 1729 1843 1842 1728 1846 1958
8 1741 1627 1746 1857 1849 1730 1848 1965
8 1734 1612 1731 1850 1851 1733 1849 1966
8 1854 1741 1849 1966 1738 1622 1731 1850
8 1967 1859 1745 1853 1852 1743 1626 1737
8 1968 1860 1744 1856 1853 1745 1625 1739
8 1854 1741 1622 1738 1969 1857 1742 1855
8 1855 1742 1624 1740 1970 1858 1744 1856
8 1857 1746 1631 1742 1971 1861 1749 1858
8 1858 1749 1630 1744 1972 1863 1748 1860
8 1859 1747 1862 1973 1745 1629 1748 1860
8 1875 1768 1864 1977 1761 1651 1750 1865
8 1755 1644 1761 1869 1866 1751 1865 1978
8 1867 1760 1874 1979 1754 1646 1763 1868
8 1774 1658 1775 1887 1867 1760 1874 1979
8 1870 1766 1648 1756 1980 1877 1763 1868
8 1872 1762 1875 1981 1758 1645 1761 1869
8 1757 1649 1766 1870 1871 1765 1880 1982
8 1983 1879 1764 1873 1871 1765 1647 1759
8 1873 1764 1876 1984 1759 1647 1762 1872
8 1877 1773 1655 1763 1986 1881 1767 1874
8 1775 1659 1776 1888 1874 1767 1881 1986
8 1876 1769 1882 1987 1762 1652 1768 1875
8 1878 1770 1883 1988 1764 1653 1769 1876
8 1880 1772 1656 1766 1989 1886 1773 1877
8 1878 1770 1653 1764 1990 1884 1771 1879
8 1765 1654 1772 1880 1879 1771 1885 1991
8 1778 1664 1779 1890 1887 1775 1888 1997
8 1998 1889 1776 1888 1891 1780 1665 1779
8 1893 1782 1891 2000 1781 1668 1779 1890
8 1894 1783 1892 2001 1782 1669 1780 1891
8 1784 1671 1785 1896 1893 1782 1894 2003
8 1897 1786 1895 2004 1785 1672 1783 1894
8 1790 1675 1789 1904 1896 1785 1897 2006
8 1901 1787 1898 2007 1789 1673 1786 1897
8 1903 1788 1900 2013 1789 1673 1787 1901
8 1792 1676 1791 1906 1903 1788 1902 2016
8 1907 1792 1903 2017 1795 1678 1789 1904
8 1906 1791 1677 1794 2019 1905 1793 1909
8 1907 1792 1678 1795 2020 1906 1794 1910
8 1797 1679 1796 1912 1909 1793 1908 2022
8 1798 1680 1797 1913 1910 1794 1909 2023
8 1800 1682 1799 1915 1912 1796 1911 2025
8 1801 1683 1800 1916 1913 1797 1912 2026
8 1803 1687 1804 1918 1915 1799 1914 2028
8 1802 1686 1803 1917 1916 1800 1915 2029
8 1805 1689 1806 1920 1917 1803 1918 2030
8 1806 1690 1807 1921 1918 1804 1919 2031
8 1808 1692 1809 1922 1920 1806 1921 2032
8 1939 1826 1924 2037 1829 1713 1811 1926
8 1926 1811 1925 2039 1813 1697 1812 1928
8 1944 1829 1926 2040 1828 1712 1813 1929
8 1928 1812 1927 2042 1815 1698 1814 1931
8 1929 1813 1928 2043 1816 1699 1815 1932
8 1931 1814 1930 2044 1818 1700 1817 1933
8 1932 1815 1931 2045 1819 1701 1818 1934
8 1934 1818 1933 2046 1821 1704 1820 1935
8 2048 1936 1823 1937 1977 1864 1750 1865
8 1950 1833 1715 1834 2048 1936 1823 1937
8 1938 1824 1751 1866 2049 1937 1865 1978
8 1835 1716 1824 1938 1951 1834 1937 2049
8 1939 1826 1713 1829 2053 1942 1831 1946
8 1940 1827 1923 2035 2053 1942 1826 1939
8 1945 1830 1946 2058 1828 1712 1829 1944
8 2059 1947 1830 1945 1966 1849 1733 1851
8 1947 1832 1730 1849 2060 1948 1848 1965
8 1947 1832 1948 2060 1830 1714 1831 1946
8 1959 1847 1729 1843 2063 1949 1833 1950
8 1952 1843 1725 1836 2064 1950 1834 1951
8 1836 1725 1843 1952 1953 1842 1958 2066
8 1953 1842 1957 2067 1839 1724 1841 1955
8 1841 1955 1838 1723 1956 2068 1954 1840
8 2068 1956 1859 1967 1954 1840 1743 1852
8 1956 1844 1960 2069 1859 1747 1862 1973
8 1845 1957 1841 1727 1960 2069 1956 1844
8 1728 1842 1957 1845 1846 1958 2071 1961
8 1962 2072 1959 1847 1846 1958 1843 1729
8 1971 1861 1964 2077 1857 1746 1848 1965
8 1854 1741 1857 1969 1966 1849 1965 2078
8 1967 1859 1973 2079 1853 1745 1860 1968
8 1970 1858 1744 1856 2080 1972 1860 1968
8 1969 1857 1742 1855 2081 1971 1858 1970
8 1971 1861 1749 1858 2082 1974 1863 1972
8 1973 1862 1975 2083 1860 1748 1863 1972
8 1987 1882 1976 2086 1875 1768 1864 1977
8 1981 1875 1977 2087 1869 1761 1865 1978
8 1980 1877 1763 1868 2088 1986 1874 1979
8 1887 1775 1888 1997 1979 1874 1986 2088
8 1880 1982 2089 1989 1766 1870 1980 1877
8 1984 1876 1987 2090 1872 1762 1875 1981
8 1765 1871 1983 1879 1880 1982 2091 1991
8 1985 1878 1764 1873 2092 1990 1879 1983
8 1985 1878 1988 2093 1873 1764 1876 1984
8 2094 1992 1881 1986 1998 1889 1776 1888
8 1986 1881 1992 2094 1877 1773 1886 1989
8 1988 1883 1993 2095 1876 1769 1882 1987
8 1878 1770 1884 1990 1988 1883 1994 2096
8 1991 1885 1772 1880 2097 1996 1886 1989
8 1879 1771 1885 1991 1990 1884 1995 2098
8 2103 1998 1888 1997 2000 1891 1779 1890
8 2104 1999 1889 1998 2001 1892 1780 1891
8 2003 1894 2001 2106 1893 1782 1891 2000
8 2004 1895 2002 2107 1894 1783 1892 2001
8 2006 1897 2004 2109 1896 1785 1894 2003
8 2007 1898 2005 2110 1897 1786 1895 2004
8 2014 1901 2007 2112 1904 1789 1897 2006
8 2011 1899 2008 2113 1901 1787 1898 2007
8 2119 2010 1899 2011 2013 1900 1787 1901
8 2016 1902 2012 2122 1903 1788 1900 2013
8 2017 1903 2013 2123 1904 1789 1901 2014
8 1906 1791 1905 2019 2016 1902 2015 2125
8 1907 1792 1906 2020 2017 1903 2016 2126
8 1909 1793 1908 2022 2019 1905 2018 2128
8 2020 1906 1794 1910 2129 2019 1909 2023
8 1912 1796 1911 2025 2022 1908 2021 2131
8 1913 1797 1912 2026 2023 1909 2022 2132
8 1915 1799 1914 2028 2025 1911 2024 2134
8 1916 1800 1915 2029 2026 1912 2025 2135
8 1918 1804 1919 2031 2028 1914 2027 2136
8 1917 1803 1918 2030 2029 1915 2028 2137
8 1920 1806 1921 2032 2030 1918 2031 2138
8 1940 1827 1941 2054 2035 1923 2033 2140
8 2035 1923 2034 2143 1939 1826 1924 2037
8 2037 1924 2036 2146 1926 1811 1925 2039
8 2051 1939 2037 2147 1944 1829 1926 2040
8 2039 1925 2038 2149 1928 1812 1927 2042
8 2040 1926 2039 2150 1929 1813 1928 2043
8 2042 1927 2041 2151 1931 1814 1930 2044
8 2043 1928 2042 2152 1932 1815 1931 2045
8 2045 1931 2044 2153 1934 1818 1933 2046
8 2155 2047 1936 2048 2086 1976 1864 1977
8 2063 1949 1833 1950 2155 2047 1936 2048
8 2156 2048 1937 2049 2087 1977 1865 1978
8 2064 1950 1834 1951 2156 2048 1937 2049
8 2051 1939 1829 1944 2160 2053 1946 2058
8 2052 1940 2035 2144 2160 2053 1939 2051
8 2053 1942 1831 1946 2163 2057 1948 2060
8 2055 1943 1827 1940 2163 2057 1942 2053
8 2055 1943 2056 2164 1940 1827 1941 2054
8 2059 1947 1849 1966 2167 2060 1965 2078
8 2059 1947 2060 2167 1945 1830 1946 2058
8 2077 1964 2061 2168 1965 1848 1948 2060
8 2070 1963 1847 1959 2170 2062 1949 2063
8 2065 1959 1843 1952 2171 2063 1950 2064
8 2173 2072 1958 2066 2065 1959 1843 1952
8 1953 1842 1958 2066 2067 1957 2071 2174
8 2068 1956 2069 2175 1967 1859 1973 2079
8 2067 1957 2069 2175 1955 1841 1956 2068
8 1845 1957 2069 1960 1961 2071 2176 2073
8 2069 1960 2073 2176 1973 1862 1975 2083
8 2070 1963 2075 2177 1959 1847 1962 2072
8 1846 1958 2071 1961 1962 2072 2178 2074
8 2077 1964 1861 1971 2182 2076 1974 2082
8 2081 1971 2077 2183 1969 1857 1965 2078
8 2079 1973 2083 2184 1968 1860 1972 2080
8 2081 1971 1858 1970 2185 2082 1972 2080
8 2083 1975 2084 2186 1972 1863 1974 2082
8 2086 1976 1882 1987 2189 2085 1993 2095
8 2090 1987 2086 2190 1981 1875 1977 2087
8 2191 2094 1986 2088 2103 1998 1888 1997
8 2088 1986 2094 2191 1980 1877 1989 2089
8 1991 2091 2192 2097 1880 1982 2089 1989
8 2093 1988 2095 2193 1984 1876 1987 2090
8 1879 1983 2092 1990 1991 2091 2194 2098
8 1985 1878 1990 2092 2093 1988 2096 2195
8 2097 1996 1886 1989 2196 2099 1992 2094
8 2196 2099 1992 2094 2104 1999 1889 1998
8 1994 2096 1988 1883 2100 2197 2095 1993
8 2096 1994 1884 1990 2198 2101 1995 2098
8 1995 2098 2199 2102 1885 1991 2097 1996
8 2203 2104 1998 2103 2106 2001 1891 2000
8 2107 2002 2105 2204 2001 1892 1999 2104
8 2109 2004 2107 2206 2003 1894 2001 2106
8 2110 2005 2108 2207 2004 1895 2002 2107
8 2112 2007 2110 2209 2006 1897 2004 2109
8 2113 2008 2111 2210 2007 1898 2005 2110
8 2120 2011 2113 2212 2014 1901 2007 2112
8 2117 2009 2114 2213 2011 1899 2008 2113
8 2219 2116 2009 2117 2119 2010 1899 2011
8 2222 2118 2010 2119 2122 2012 1900 2013
8 2223 2119 2011 2120 2123 2013 1901 2014
8 2016 1902 2015 2125 2122 2012 2121 2225
8 2126 2016 2122 2226 2017 1903 2013 2123
8 2019 1905 2018 2128 2125 2015 2124 2228
8 2020 1906 2019 2129 2126 2016 2125 2229
8 2022 1908 2021 2131 2128 2018 2127 2231
8 2023 1909 2022 2132 2129 2019 2128 2232
8 2025 1911 2024 2134 2131 2021 2130 2234
8 2026 1912 2025 2135 2132 2022 2131 2235
8 1914 2028 2134 2024 2027 2136 2236 2133
8 2029 1915 2028 2137 2135 2025 2134 2237
8 2030 1918 2031 2138 2137 2028 2136 2238
8 2157 2050 2139 2240 2054 1941 2033 2140
8 2052 1940 2054 2161 2144 2035 2140 2242
8 2140 2033 2141 2243 2035 1923 2034 2143
8 2143 2034 2142 2246 2037 1924 2036 2146
8 2144 2035 2143 2247 2051 1939 2037 2147
8 2146 2036 2145 2249 2039 1925 2038 2149
8 2147 2037 2146 2250 2040 1926 2039 2150
8 2149 2038 2148 2251 2042 1927 2041 2151
8 2150 2039 2149 2252 2043 1928 2042 2152
8 2152 2042 2151 2253 2045 1931 2044 2153
8 2255 2154 2047 2155 2189 2085 1976 2086
8 2170 2062 1949 2063 2255 2154 2047 2155
8 2256 2155 2048 2156 2190 2086 1977 2087
8 2171 2063 1950 2064 2256 2155 2048 2156
8 2258 2159 2050 2157 2164 2056 1941 2054
8 2160 2053 1946 2058 2262 2163 2060 2167
8 2162 2055 1940 2052 2262 2163 2053 2160
8 2162 2055 2164 2263 2052 1940 2054 2161
8 2163 2057 1948 2060 2264 2165 2061 2168
8 2055 1943 2057 2163 2164 2056 2165 2264
8 2182 2076 2166 2268 2077 1964 2061 2168
8 2183 2077 2168 2269 2078 1965 2060 2167
8 2070 1963 2062 2170 2177 2075 2169 2271
8 2172 2070 1959 2065 2272 2170 2063 2171
8 2172 2070 2177 2273 2065 1959 2072 2173
8 2066 1958 2072 2173 2174 2071 2178 2274
8 2067 1957 2071 2174 2175 2069 2176 2275
8 2175 2069 2176 2275 2079 1973 2083 2184
8 2071 1961 2074 2178 2176 2073 2179 2276
8 2176 2073 2179 2276 2083 1975 2084 2186
8 2072 1962 2075 2177 2178 2074 2180 2277
8 2182 2076 1974 2082 2280 2181 2084 2186
8 2183 2077 1971 2081 2281 2182 2082 2185
8 2184 2083 2186 2282 2080 1972 2082 2185
8 2189 2085 1993 2095 2285 2188 2100 2197
8 2190 2086 1987 2090 2286 2189 2095 2193
8 2192 2097 1989 2089 2287 2196 2094 2191
8 2287 2196 2094 2191 2203 2104 1998 2103
8 2194 2098 1991 2091 2288 2199 2097 2192
8 2195 2096 2197 2289 2093 1988 2095 2193
8 2096 2195 2290 2198 1990 2092 2194 2098
8 2097 1996 2099 2196 2199 2102 2200 2291
8 2196 2099 1999 2104 2291 2200 2105 2204
8 2100 2197 2292 2201 1994 2096 2198 2101
8 1995 2098 2198 2101 2102 2199 2293 2202
8 2206 2107 2204 2296 2106 2001 2104 2203
8 2207 2108 2205 2297 2107 2002 2105 2204
8 2209 2110 2207 2299 2109 2004 2107 2206
8 2210 2111 2208 2300 2110 2005 2108 2207
8 2212 2113 2210 2302 2112 2007 2110 2209
8 2213 2114 2211 2303 2113 2008 2111 2210
8 2220 2117 2213 2305 2120 2011 2113 2212
8 2216 2115 2214 2306 2117 2009 2114 2213
8 2216 2115 2009 2117 2311 2217 2116 2219
8 2219 2116 2010 2119 2314 2218 2118 2222
8 2315 2219 2117 2220 2223 2119 2011 2120
8 2122 2012 2121 2225 2222 2118 2221 2317
8 2318 2222 2119 2223 2226 2122 2013 2123
8 2125 2015 2124 2228 2225 2121 2224 2320
8 2126 2016 2125 2229 2226 2122 2225 2321
8 2128 2018 2127 2231 2228 2124 2227 2323
8 2129 2019 2128 2232 2229 2125 2228 2324
8 2131 2021 2130 2234 2231 2127 2230 2326
8 2132 2022 2131 2235 2232 2128 2231 2327
8 2134 2024 2133 2236 2234 2130 2233 2328
8 2135 2025 2134 2237 2235 2131 2234 2329
8 2137 2028 2136 2238 2237 2134 2236 2330
8 2157 2050 2158 2259 2240 2139 2239 2332
8 2257 2157 2240 2334 2161 2054 2140 2242
8 2240 2139 2241 2335 2140 2033 2141 2243
8 2242 2140 2243 2337 2144 2035 2143 2247
8 2243 2141 2244 2338 2143 2034 2142 2246
8 2246 2142 2245 2341 2146 2036 2145 2249
8 2247 2143 2246 2342 2147 2037 2146 2250
8 2249 2145 2248 2343 2149 2038 2148 2251
8 2250 2146 2249 2344 2150 2039 2149 2252
8 2252 2149 2251 2345 2152 2042 2151 2253
8 2169 2271 2347 2254 2062 2170 2255 2154
8 2189 2085 2188 2285 2255 2154 2254 2347
8 2348 2255 2155 2256 2286 2189 2086 2190
8 2272 2170 2063 2171 2348 2255 2155 2256
8 2349 2258 2157 2257 2263 2164 2054 2161
8 2258 2159 2261 2351 2157 2050 2158 2259
8 2258 2159 2056 2164 2351 2261 2165 2264
8 2262 2163 2060 2167 2355 2264 2168 2269
8 2162 2055 2163 2262 2263 2164 2264 2355
8 2357 2266 2165 2264 2268 2166 2061 2168
8 2268 2166 2076 2182 2361 2267 2181 2280
8 2281 2182 2268 2362 2183 2077 2168 2269
8 2271 2169 2270 2364 2177 2075 2180 2277
8 2172 2070 2170 2272 2273 2177 2271 2365
8 2072 2173 2274 2178 2177 2273 2366 2277
8 2071 2174 2275 2176 2178 2274 2367 2276
8 2275 2176 2276 2367 2184 2083 2186 2282
8 2283 2187 2084 2186 2368 2278 2179 2276
8 2178 2074 2180 2277 2276 2179 2278 2368
8 2283 2187 2279 2370 2186 2084 2181 2280
8 2281 2182 2082 2185 2371 2280 2186 2282
8 2188 2285 2374 2284 2100 2197 2292 2201
8 2286 2189 2095 2193 2375 2285 2197 2289
8 2192 2097 2196 2287 2288 2199 2291 2376
8 2287 2196 2104 2203 2376 2291 2204 2296
8 2194 2098 2199 2288 2290 2198 2293 2377
8 2289 2197 2096 2195 2378 2292 2198 2290
8 2291 2200 2105 2204 2379 2294 2205 2297
8 2199 2102 2200 2291 2293 2202 2294 2379
8 2198 2101 2202 2293 2292 2201 2295 2380
8 2299 2207 2297 2383 2206 2107 2204 2296
8 2300 2208 2298 2384 2207 2108 2205 2297
8 2302 2210 2300 2386 2209 2110 2207 2299
8 2303 2211 2301 2387 2210 2111 2208 2300
8 2305 2213 2303 2389 2212 2113 2210 2302
8 2306 2214 2304 2390 2213 2114 2211 2303
8 2310 2216 2306 2392 2220 2117 2213 2305
8 2308 2215 2307 2393 2216 2115 2214 2306
8 2308 2215 2115 2216 2396 2309 2217 2311
8 2310 2216 2117 2220 2398 2311 2219 2315
8 2311 2217 2116 2219 2399 2312 2218 2314
8 2314 2218 2118 2222 2402 2313 2221 2317
8 2315 2219 2119 2223 2403 2314 2222 2318
8 2225 2121 2224 2320 2317 2221 2316 2405
8 2226 2122 2225 2321 2318 2222 2317 2406
8 2228 2124 2227 2323 2320 2224 2319 2408
8 2229 2125 2228 2324 2321 2225 2320 2409
8 2231 2127 2230 2326 2323 2227 2322 2411
8 2232 2128 2231 2327 2324 2228 2323 2412
8 2234 2130 2233 2328 2326 2230 2325 2413
8 2235 2131 2234 2329 2327 2231 2326 2414
8 2237 2134 2236 2330 2329 2234 2328 2415
8 2259 2158 2260 2352 2332 2239 2331 2417
8 2257 2157 2259 2350 2334 2240 2332 2419
8 2240 2139 2239 2332 2335 2241 2333 2420
8 2334 2240 2335 2422 2242 2140 2243 2337
8 2335 2241 2336 2423 2243 2141 2244 2338
8 2337 2243 2338 2425 2247 2143 2246 2342
8 2338 2244 2339 2426 2246 2142 2245 2341
8 2341 2245 2340 2428 2249 2145 2248 2343
8 2342 2246 2341 2429 2250 2146 2249 2344
8 2344 2249 2343 2430 2252 2149 2251 2345
8 2188 2285 2347 2254 2284 2374 2432 2346
8 2347 2254 2346 2432 2271 2169 2270 2364
8 2365 2271 2170 2272 2433 2347 2255 2348
8 2286 2189 2285 2375 2348 2255 2347 2433
8 2349 2258 2351 2435 2257 2157 2259 2350
8 2349 2258 2164 2263 2435 2351 2264 2355
8 2259 2158 2261 2351 2352 2260 2354 2437
8 2356 2265 2354 2437 2264 2165 2261 2351
8 2441 2357 2264 2355 2362 2268 2168 2269
8 2356 2265 2165 2264 2442 2358 2266 2357
8 2443 2359 2266 2357 2361 2267 2166 2268
8 2370 2279 2360 2446 2280 2181 2267 2361
8 2362 2268 2182 2281 2447 2361 2280 2371
8 2180 2277 2368 2278 2270 2364 2449 2363
8 2271 2365 2273 2177 2364 2450 2366 2277
8 2372 2283 2186 2282 2451 2368 2276 2367
8 2178 2274 2367 2276 2277 2366 2451 2368
8 2283 2187 2278 2368 2370 2279 2369 2452
8 2372 2283 2370 2453 2282 2186 2280 2371
8 2284 2374 2455 2373 2201 2292 2380 2295
8 2375 2285 2197 2289 2456 2374 2292 2378
8 2376 2291 2204 2296 2457 2379 2297 2383
8 2288 2199 2291 2376 2377 2293 2379 2457
8 2198 2290 2378 2292 2293 2377 2458 2380
8 2293 2202 2294 2379 2380 2295 2381 2459
8 2384 2298 2381 2459 2297 2205 2294 2379
8 2386 2300 2384 2463 2299 2207 2297 2383
8 2387 2301 2385 2464 2300 2208 2298 2384
8 2389 2303 2387 2466 2302 2210 2300 2386
8 2390 2304 2388 2467 2303 2211 2301 2387
8 2392 2306 2390 2469 2305 2213 2303 2389
8 2393 2307 2391 2470 2306 2214 2304 2390
8 2395 2308 2393 2472 2310 2216 2306 2392
8 2308 2215 2309 2396 2393 2307 2394 2473
8 2395 2308 2216 2310 2475 2396 2311 2398
8 2396 2309 2217 2311 2476 2397 2312 2399
8 2398 2311 2219 2315 2478 2399 2314 2403
8 2399 2312 2218 2314 2479 2400 2313 2402
8 2317 2221 2316 2405 2402 2313 2401 2482
8 2403 2314 2222 2318 2483 2402 2317 2406
8 2320 2224 2319 2408 2405 2316 2404 2485
8 2321 2225 2320 2409 2406 2317 2405 2486
8 2323 2227 2322 2411 2408 2319 2407 2488
8 2324 2228 2323 2412 2409 2320 2408 2489
8 2326 2230 2325 2413 2411 2322 2410 2490
8 2327 2231 2326 2414 2412 2323 2411 2491
8 2329 2234 2328 2415 2414 2326 2413 2492
8 2417 2331 2260 2352 2494 2416 2353 2438
8 2350 2259 2352 2436 2419 2332 2417 2496
8 2332 2239 2331 2417 2420 2333 2418 2497
8 2334 2240 2332 2419 2422 2335 2420 2499
8 2420 2333 2421 2500 2335 2241 2336 2423
8 2422 2335 2423 2502 2337 2243 2338 2425
8 2423 2336 2424 2503 2338 2244 2339 2426
8 2425 2338 2426 2505 2342 2246 2341 2429
8 2426 2339 2427 2506 2341 2245 2340 2428
8 2429 2341 2428 2507 2344 2249 2343 2430
8 2432 2346 2284 2374 2509 2431 2373 2455
8 2432 2346 2431 2509 2364 2270 2363 2449
8 2375 2285 2374 2456 2433 2347 2432 2510
8 2347 2433 2365 2271 2432 2510 2450 2364
8 2350 2259 2351 2435 2436 2352 2437 2514
8 2440 2356 2437 2514 2355 2264 2351 2435
8 2352 2260 2354 2437 2438 2353 2439 2516
8 2356 2265 2358 2442 2437 2354 2439 2516
8 2440 2356 2264 2355 2518 2442 2357 2441
8 2519 2443 2357 2441 2447 2361 2268 2362
8 2443 2359 2444 2520 2357 2266 2358 2442
8 2443 2359 2267 2361 2520 2444 2360 2446
8 2446 2360 2279 2370 2523 2445 2369 2452
8 2453 2370 2446 2524 2371 2280 2361 2447
8 2449 2363 2448 2525 2368 2278 2369 2452
8 2366 2277 2364 2450 2451 2368 2449 2526
8 2372 2283 2368 2451 2453 2370 2452 2527
8 2455 2373 2295 2380 2529 2454 2382 2460
8 2456 2374 2292 2378 2530 2455 2380 2458
8 2377 2293 2379 2457 2458 2380 2459 2531
8 2463 2384 2459 2531 2383 2297 2379 2457
8 2533 2461 2382 2460 2459 2381 2295 2380
8 2464 2385 2461 2533 2384 2298 2381 2459
8 2466 2387 2464 2537 2386 2300 2384 2463
8 2467 2388 2465 2538 2387 2301 2385 2464
8 2469 2390 2467 2540 2389 2303 2387 2466
8 2470 2391 2468 2541 2390 2304 2388 2467
8 2472 2393 2470 2543 2392 2306 2390 2469
8 2393 2307 2394 2473 2470 2391 2471 2544
8 2395 2308 2396 2475 2472 2393 2473 2546
8 2396 2309 2397 2476 2473 2394 2474 2547
8 2475 2396 2311 2398 2549 2476 2399 2478
8 2476 2397 2312 2399 2550 2477 2400 2479
8 2478 2399 2314 2403 2552 2479 2402 2483
8 2479 2400 2313 2402 2553 2480 2401 2482
8 2405 2316 2404 2485 2482 2401 2481 2556
8 2406 2317 2405 2486 2483 2402 2482 2557
8 2408 2319 2407 2488 2485 2404 2484 2559
8 2409 2320 2408 2489 2486 2405 2485 2560
8 2411 2322 2410 2490 2488 2407 2487 2561
8 2412 2323 2411 2491 2489 2408 2488 2562
8 2414 2326 2413 2492 2491 2411 2490 2563
8 2513 2434 2493 2565 2438 2353 2416 2494
8 2496 2417 2352 2436 2567 2494 2438 2515
8 2494 2416 2495 2568 2417 2331 2418 2497
8 2419 2332 2417 2496 2499 2420 2497 2570
8 2497 2418 2498 2571 2420 2333 2421 2500
8 2499 2420 2500 2573 2422 2335 2423 2502
8 2500 2421 2501 2574 2423 2336 2424 2503
8 2502 2423 2503 2576 2425 2338 2426 2505
8 2503 2424 2504 2577 2426 2339 2427 2506
8 2505 2426 2506 2578 2429 2341 2428 2507
8 2509 2431 2373 2455 2580 2508 2454 2529
8 2509 2431 2508 2580 2449 2363 2448 2525
8 2432 2510 2581 2509 2374 2456 2530 2455
8 2432 2510 2450 2364 2509 2581 2526 2449
8 2583 2511 2434 2513 2516 2439 2353 2438
8 2436 2352 2437 2514 2515 2438 2516 2588
8 2440 2356 2442 2518 2514 2437 2516 2588
8 2442 2358 2444 2520 2516 2439 2517 2589
8 2519 2443 2520 2591 2441 2357 2442 2518
8 2519 2443 2361 2447 2591 2520 2446 2524
8 2446 2360 2445 2523 2520 2444 2521 2592
8 2525 2448 2522 2593 2452 2369 2445 2523
8 2524 2446 2370 2453 2594 2523 2452 2527
8 2526 2449 2525 2595 2451 2368 2452 2527
8 2534 2462 2528 2597 2460 2382 2454 2529
8 2530 2455 2380 2458 2598 2529 2460 2532
8 2599 2533 2460 2532 2531 2459 2380 2458
8 2537 2464 2533 2599 2463 2384 2459 2531
8 2534 2462 2382 2460 2601 2535 2461 2533
8 2538 2465 2535 2601 2464 2385 2461 2533
8 2540 2467 2538 2604 2466 2387 2464 2537
8 2541 2468 2539 2605 2467 2388 2465 2538
8 2543 2470 2541 2607 2469 2390 2467 2540
8 2470 2391 2471 2544 2541 2468 2542 2608
8 2472 2393 2473 2546 2543 2470 2544 2610
8 2473 2394 2474 2547 2544 2471 2545 2611
8 2475 2396 2476 2549 2546 2473 2547 2613
8 2476 2397 2477 2550 2547 2474 2548 2614
8 2549 2476 2399 2478 2616 2550 2479 2552
8 2479 2400 2480 2553 2550 2477 2551 2617
8 2552 2479 2402 2483 2619 2553 2482 2557
8 2482 2401 2481 2556 2553 2480 2554 2620
8 2485 2404 2484 2559 2556 2481 2555 2623
8 2486 2405 2485 2560 2557 2482 2556 2624
8 2488 2407 2487 2561 2559 2484 2558 2625
8 2489 2408 2488 2562 2560 2485 2559 2626
8 2491 2411 2490 2563 2562 2488 2561 2627
8 2513 2434 2512 2585 2565 2493 2564 2630
8 2586 2513 2565 2632 2515 2438 2494 2567
8 2565 2493 2566 2633 2494 2416 2495 2568
8 2567 2494 2568 2635 2496 2417 2497 2570
8 2568 2495 2569 2636 2497 2418 2498 2571
8 2570 2497 2571 2638 2499 2420 2500 2573
8 2571 2498 2572 2639 2500 2421 2501 2574
8 2573 2500 2574 2641 2502 2423 2503 2576
8 2574 2501 2575 2642 2503 2424 2504 2577
8 2576 2503 2577 2643 2505 2426 2506 2578
8 2597 2528 2579 2645 2529 2454 2508 2580
8 2580 2508 2579 2645 2525 2448 2522 2593
8 2581 2509 2455 2530 2646 2580 2529 2598
8 2581 2509 2580 2646 2526 2449 2525 2595
8 2583 2511 2582 2648 2513 2434 2512 2585
8 2583 2511 2439 2516 2648 2582 2517 2589
8 2649 2583 2513 2586 2588 2516 2438 2515
8 2589 2517 2444 2520 2653 2587 2521 2592
8 2518 2442 2520 2591 2588 2516 2589 2654
8 2593 2522 2590 2655 2523 2445 2521 2592
8 2524 2446 2523 2594 2591 2520 2592 2656
8 2595 2525 2593 2657 2527 2452 2523 2594
8 2602 2536 2596 2659 2534 2462 2528 2597
8 2600 2534 2597 2660 2532 2460 2529 2598
8 2600 2534 2460 2532 2661 2601 2533 2599
8 2604 2538 2601 2661 2537 2464 2533 2599
8 2602 2536 2462 2534 2663 2603 2535 2601
8 2601 2535 2465 2538 2663 2603 2539 2605
8 2607 2541 2605 2665 2540 2467 2538 2604
8 2608 2542 2606 2666 2541 2468 2539 2605
8 2543 2470 2544 2610 2607 2541 2608 2668
8 2544 2471 2545 2611 2608 2542 2609 2669
8 2546 2473 2547 2613 2610 2544 2611 2671
8 2547 2474 2548 2614 2611 2545 2612 2672
8 2549 2476 2550 2616 2613 2547 2614 2674
8 2550 2477 2551 2617 2614 2548 2615 2675
8 2552 2479 2553 2619 2616 2550 2617 2677
8 2553 2480 2554 2620 2617 2551 2618 2678
8 2557 2482 2556 2624 2619 2553 2620 2680
8 2556 2481 2555 2623 2620 2554 2621 2681
8 2559 2484 2558 2625 2623 2555 2622 2683
8 2560 2485 2559 2626 2624 2556 2623 2684
8 2562 2488 2561 2627 2626 2559 2625 2685
8 2690 2629 2564 2630 2650 2584 2512 2585
8 2586 2513 2585 2651 2632 2565 2630 2691
8 2630 2564 2631 2692 2565 2493 2566 2633
8 2632 2565 2633 2694 2567 2494 2568 2635
8 2633 2566 2634 2695 2568 2495 2569 2636
8 2635 2568 2636 2697 2570 2497 2571 2638
8 2636 2569 2637 2698 2571 2498 2572 2639
8 2638 2571 2639 2700 2573 2500 2574 2641
8 2639 2572 2640 2701 2574 2501 2575 2642
8 2641 2574 2642 2702 2576 2503 2577 2643
8 2597 2528 2596 2659 2645 2579 2644 2704
8 2645 2579 2644 2704 2593 2522 2590 2655
8 2660 2597 2645 2705 2598 2529 2580 2646
8 2646 2580 2645 2705 2595 2525 2593 2657
8 2650 2584 2512 2585 2707 2647 2582 2648
8 2648 2582 2517 2589 2707 2647 2587 2653
8 2649 2583 2648 2708 2586 2513 2585 2651
8 2649 2583 2516 2588 2708 2648 2589 2654
8 2655 2590 2652 2710 2592 2521 2587 2653
8 2654 2589 2520 2591 2711 2653 2592 2656
8 2657 2593 2655 2712 2594 2523 2592 2656
8 2602 2536 2603 2663 2659 2596 2658 2714
8 2662 2602 2659 2715 2600 2534 2597 2660
8 2662 2602 2534 2600 2717 2663 2601 2661
8 2661 2601 2538 2604 2717 2663 2605 2665
8 2666 2606 2664 2718 2605 2539 2603 2663
8 2668 2608 2666 2720 2607 2541 2605 2665
8 2608 2542 2609 2669 2666 2606 2667 2721
8 2610 2544 2611 2671 2668 2608 2669 2723
8 2611 2545 2612 2672 2669 2609 2670 2724
8 2613 2547 2614 2674 2671 2611 2672 2726
8 2614 2548 2615 2675 2672 2612 2673 2727
8 2616 2550 2617 2677 2674 2614 2675 2729
8 2617 2551 2618 2678 2675 2615 2676 2730
8 2619 2553 2620 2680 2677 2617 2678 2732
8 2620 2554 2621 2681 2678 2618 2679 2733
8 2624 2556 2623 2684 2680 2620 2681 2735
8 2681 2621 2555 2623 2736 2682 2622 2683
8 2626 2559 2625 2685 2684 2623 2683 2737
8 2688 2628 2584 2650 2740 2686 2647 2707
8 2688 2628 2687 2742 2650 2584 2629 2690
8 2690 2629 2689 2745 2630 2564 2631 2692
8 2746 2690 2630 2691 2709 2650 2585 2651
8 2691 2630 2692 2747 2632 2565 2633 2694
8 2692 2631 2693 2748 2633 2566 2634 2695
8 2694 2633 2695 2750 2635 2568 2636 2697
8 2695 2634 2696 2751 2636 2569 2637 2698
8 2697 2636 2698 2753 2638 2571 2639 2700
8 2698 2637 2699 2754 2639 2572 2640 2701
8 2700 2639 2701 2755 2641 2574 2642 2702
8 2659 2596 2658 2714 2704 2644 2703 2757
8 2704 2644 2703 2757 2655 2590 2652 2710
8 2660 2597 2659 2715 2705 2645 2704 2758
8 2705 2645 2704 2758 2657 2593 2655 2712
8 2759 2706 2647 2707 2710 2652 2587 2653
8 2709 2650 2585 2651 2760 2707 2648 2708
8 2708 2648 2589 2654 2760 2707 2653 2711
8 2712 2655 2710 2761 2656 2592 2653 2711
8 2763 2713 2658 2714 2718 2664 2603 2663
8 2662 2602 2663 2717 2715 2659 2714 2764
8 2720 2666 2718 2767 2665 2605 2663 2717
8 2768 2719 2664 2718 2721 2667 2606 2666
8 2668 2608 2669 2723 2720 2666 2721 2770
8 2669 2609 2670 2724 2721 2667 2722 2771
8 2671 2611 2672 2726 2723 2669 2724 2773
8 2672 2612 2673 2727 2724 2670 2725 2774
8 2674 2614 2675 2729 2726 2672 2727 2776
8 2675 2615 2676 2730 2727 2673 2728 2777
8 2677 2617 2678 2732 2729 2675 2730 2779
8 2678 2618 2679 2733 2730 2676 2731 2780
8 2680 2620 2681 2735 2732 2678 2733 2782
8 2733 2679 2621 2681 2783 2734 2682 2736
8 2735 2681 2623 2684 2784 2736 2683 2737
8 2740 2686 2647 2707 2787 2738 2706 2759
8 2688 2628 2686 2740 2742 2687 2739 2789
8 2743 2688 2650 2709 2790 2740 2707 2760
8 2742 2687 2741 2792 2690 2629 2689 2745
8 2743 2688 2742 2793 2709 2650 2690 2746
8 2745 2689 2744 2795 2692 2631 2693 2748
8 2746 2690 2745 2796 2691 2630 2692 2747
8 2747 2692 2748 2797 2694 2633 2695 2750
8 2748 2693 2749 2798 2695 2634 2696 2751
8 2750 2695 2751 2800 2697 2636 2698 2753
8 2751 2696 2752 2801 2698 2637 2699 2754
8 2753 2698 2754 2802 2700 2639 2701 2755
8 2763 2713 2756 2804 2714 2658 2703 2757
8 2759 2706 2652 2710 2804 2756 2703 2757
8 2715 2659 2714 2764 2758 2704 2757 2805
8 2758 2704 2757 2805 2712 2655 2710 2761
8 2806 2759 2707 2760 2761 2710 2653 2711
8 2765 2716 2762 2808 2718 2664 2713 2763
8 2809 2763 2714 2764 2767 2718 2663 2717
8 2765 2716 2664 2718 2811 2766 2719 2768
8 2813 2768 2718 2767 2770 2721 2666 2720
8 2814 2769 2719 2768 2771 2722 2667 2721
8 2723 2669 2724 2773 2770 2721 2771 2816
8 2724 2670 2725 2774 2771 2722 2772 2817
8 2726 2672 2727 2776 2773 2724 2774 2819
8 2727 2673 2728 2777 2774 2725 2775 2820
8 2729 2675 2730 2779 2776 2727 2777 2822
8 2730 2676 2731 2780 2777 2728 2778 2823
8 2732 2678 2733 2782 2779 2730 2780 2825
8 2780 2731 2679 2733 2826 2781 2734 2783
8 2782 2733 2681 2735 2827 2783 2736 2784
8 2830 2785 2738 2787 2804 2756 2706 2759
8 2789 2739 2686 2740 2832 2786 2738 2787
8 2790 2740 2707 2760 2833 2787 2759 2806
8 2742 2687 2739 2789 2792 2741 2788 2835
8 2743 2688 2740 2790 2793 2742 2789 2836
8 2792 2741 2791 2838 2745 2689 2744 2795
8 2793 2742 2792 2839 2746 2690 2745 2796
8 2795 2744 2794 2841 2748 2693 2749 2798
8 2796 2745 2795 2842 2747 2692 2748 2797
8 2797 2748 2798 2843 2750 2695 2751 2800
8 2798 2749 2799 2844 2751 2696 2752 2801
8 2800 2751 2801 2845 2753 2698 2754 2802
8 2808 2762 2803 2847 2763 2713 2756 2804
8 2809 2763 2804 2848 2764 2714 2757 2805
8 2806 2759 2710 2761 2848 2804 2757 2805
8 2765 2716 2766 2811 2808 2762 2807 2850
8 2810 2765 2808 2851 2767 2718 2763 2809
8 2810 2765 2718 2767 2852 2811 2768 2813
8 2811 2766 2719 2768 2853 2812 2769 2814
8 2855 2814 2768 2813 2816 2771 2721 2770
8 2856 2815 2769 2814 2817 2772 2722 2771
8 2773 2724 2774 2819 2816 2771 2817 2858
8 2774 2725 2775 2820 2817 2772 2818 2859
8 2776 2727 2777 2822 2819 2774 2820 2861
8 2777 2728 2778 2823 2820 2775 2821 2862
8 2779 2730 2780 2825 2822 2777 2823 2864
8 2823 2778 2731 2780 2865 2824 2781 2826
8 2825 2780 2733 2782 2866 2826 2783 2827
8 2869 2828 2785 2830 2847 2803 2756 2804
8 2871 2829 2786 2832 2830 2785 2738 2787
8 2872 2830 2787 2833 2848 2804 2759 2806
8 2789 2739 2786 2832 2835 2788 2831 2874
8 2836 2789 2740 2790 2875 2832 2787 2833
8 2792 2741 2788 2835 2838 2791 2834 2877
8 2793 2742 2789 2836 2839 2792 2835 2878
8 2838 2791 2837 2880 2795 2744 2794 2841
8 2839 2792 2838 2881 2796 2745 2795 2842
8 2841 2794 2840 2882 2798 2749 2799 2844
8 2842 2795 2841 2883 2797 2748 2798 2843
8 2843 2798 2844 2884 2800 2751 2801 2845
8 2886 2846 2803 2847 2850 2807 2762 2808
8 2851 2808 2847 2887 2809 2763 2804 2848
8 2850 2807 2766 2811 2889 2849 2812 2853
8 2810 2765 2811 2852 2851 2808 2850 2890
8 2852 2811 2768 2813 2891 2853 2814 2855
8 2853 2812 2769 2814 2892 2854 2815 2856
8 2894 2856 2814 2855 2858 2817 2771 2816
8 2817 2772 2818 2859 2856 2815 2857 2895
8 2819 2774 2820 2861 2858 2817 2859 2897
8 2820 2775 2821 2862 2859 2818 2860 2898
8 2822 2777 2823 2864 2861 2820 2862 2900
8 2823 2778 2824 2865 2862 2821 2863 2901
8 2864 2823 2780 2825 2902 2865 2826 2866
8 2904 2867 2828 2869 2886 2846 2803 2847
8 2869 2828 2868 2906 2830 2785 2829 2871
8 2907 2869 2830 2872 2887 2847 2804 2848
8 2871 2829 2870 2909 2832 2786 2831 2874
8 2910 2871 2832 2875 2872 2830 2787 2833
8 2835 2788 2831 2874 2877 2834 2873 2912
8 2836 2789 2832 2875 2878 2835 2874 2913
8 2877 2834 2876 2915 2838 2791 2837 2880
8 2839 2792 2835 2878 2881 2838 2877 2916
8 2880 2837 2879 2917 2841 2794 2840 2882
8 2881 2838 2880 2918 2842 2795 2841 2883
8 2883 2841 2882 2919 2843 2798 2844 2884
8 2921 2885 2846 2886 2889 2849 2807 2850
8 2922 2886 2847 2887 2890 2850 2808 2851
8 2889 2849 2812 2853 2924 2888 2854 2892
8 2890 2850 2811 2852 2925 2889 2853 2891
8 2891 2853 2814 2855 2926 2892 2856 2894
8 2892 2854 2815 2856 2927 2893 2857 2895
8 2858 2817 2859 2897 2894 2856 2895 2929
8 2859 2818 2860 2898 2895 2857 2896 2930
8 2861 2820 2862 2900 2897 2859 2898 2932
8 2862 2821 2863 2901 2898 2860 2899 2933
8 2864 2823 2865 2902 2900 2862 2901 2934
8 2904 2867 2846 2886 2936 2903 2885 2921
8 2904 2867 2903 2936 2869 2828 2868 2906
8 2937 2904 2869 2907 2922 2886 2847 2887
8 2906 2868 2905 2939 2871 2829 2870 2909
8 2907 2869 2906 2940 2872 2830 2871 2910
8 2909 2870 2908 2942 2874 2831 2873 2912
8 2910 2871 2909 2943 2875 2832 2874 2913
8 2912 2873 2911 2945 2877 2834 2876 2915
8 2878 2835 2874 2913 2916 2877 2912 2946
8 2915 2876 2914 2947 2880 2837 2879 2917
8 2916 2877 2915 2948 2881 2838 2880 2918
8 2918 2880 2917 2949 2883 2841 2882 2919
8 2921 2885 2849 2889 2951 2920 2888 2924
8 2952 2921 2886 2922 2925 2889 2850 2890
8 2924 2888 2854 2892 2954 2923 2893 2927
8 2925 2889 2853 2891 2955 2924 2892 2926
8 2926 2892 2856 2894 2956 2927 2895 2929
8 2895 2857 2896 2930 2927 2893 2928 2957
8 2897 2859 2898 2932 2929 2895 2930 2959
8 2898 2860 2899 2933 2930 2896 2931 2960
8 2900 2862 2901 2934 2932 2898 2933 2961
8 2936 2903 2885 2921 2963 2935 2920 2951
8 2936 2903 2935 2963 2906 2868 2905 2939
8 2937 2904 2886 2922 2964 2936 2921 2952
8 2937 2904 2936 2964 2907 2869 2906 2940
8 2939 2905 2938 2966 2909 2870 2908 2942
8 2940 2906 2939 2967 2910 2871 2909 2943
8 2942 2908 2941 2969 2912 2873 2911 2945
8 2943 2909 2942 2970 2913 2874 2912 2946
8 2945 2911 2944 2971 2915 2876 2914 2947
8 2946 2912 2945 2972 2916 2877 2915 2948
8 2948 2915 2947 2973 2918 2880 2917 2949
8 2951 2920 2888 2924 2975 2950 2923 2954
8 2952 2921 2889 2925 2976 2951 2924 2955
8 2927 2893 2928 2957 2954 2923 2953 2978
8 2955 2924 2892 2926 2979 2954 2927 2956
8 2929 2895 2930 2959 2956 2927 2957 2980
8 2930 2896 2931 2960 2957 2928 2958 2981
8 2932 2898 2933 2961 2959 2930 2960 2982
8 2951 2920 2950 2975 2963 2935 2962 2984
8 2963 2935 2962 2984 2939 2905 2938 2966
8 2964 2936 2921 2952 2985 2963 2951 2976
8 2964 2936 2963 2985 2940 2906 2939 2967
8 2966 2938 2965 2987 2942 2908 2941 2969
8 2967 2939 2966 2988 2943 2909 2942 2970
8 2969 2941 2968 2989 2945 2911 2944 2971
8 2970 2942 2969 2990 2946 2912 2945 2972
8 2972 2945 2971 2991 2948 2915 2947 2973
8 2954 2923 2953 2978 2975 2950 2974 2993
8 2976 2951 2924 2955 2994 2975 2954 2979
8 2957 2928 2958 2981 2978 2953 2977 2995
8 2956 2927 2957 2980 2979 2954 2978 2996
8 2959 2930 2960 2982 2980 2957 2981 2997
8 2984 2962 2983 2999 2966 2938 2965 2987
8 2975 2950 2974 2993 2984 2962 2983 2999
8 2976 2951 2975 2994 2985 2963 2984 3000
8 2985 2963 2984 3000 2967 2939 2966 2988
8 2987 2965 2986 3001 2969 2941 2968 2989
8 2988 2966 2987 3002 2970 2942 2969 2990
8 2990 2969 2989 3003 2972 2945 2971 2991
8 2978 2953 2977 2995 2993 2974 2992 3004
8 2979 2954 2978 2996 2994 2975 2993 3005
8 2980 2957 2981 2997 2996 2978 2995 3006
8 2974 2993 2999 2983 2992 3004 3007 2998
8 2983 2999 2987 2965 2998 3007 3001 2986
8 3000 2984 2999 3008 2988 2966 2987 3002
8 2994 2975 2993 3005 3000 2984 2999 3008
8 3002 2987 3001 3009 2990 2969 2989 3003
8 2996 2978 2995 3006 3005 2993 3004 3010
8 3005 2993 3004 3010 3008 2999 3007 3011
8 3008 2999 3007 3011 3002 2987 3001 3009

CELL_TYPES 1910
12
12
12
12
12
12
12
12
12
12
12
12
12
12
12
12
12
12
12
12
12
12
12
12
12
12
12
12
12
12
12
12
12
12
12
12
12
12
12
12
12
12
12
12
12
12
12
12
12
12
12
12
12
12
12
12
12
12
12
12
12
12
12
12
12
12
12
12
12
12
12
12
12
12
12
12
12
12
12
12
12
12
12
12
12
12
12
12
12
12
12
12
12
12
12
12
12
12
12
12
12
12
12
12
12
12
12
12
12
12
12
12
12
12
12
12
12
12
12
12
12
12
12
12
12
12
12
12
12
12
12
12
12
12
12
12
12
12
12
12
12
12
12
12
12
12
12
12
12
12
12
12
12
12
12
12
12
12
12
12
12
12
12
12
12
12
12
12
12
12
12
12
12
12
12
12
12
12
12
12
12
12
12
12
12
12
12
12
12
12
12
12
12
12
12
12
12
12
12
12
12
12
12
12
12
12
12
12
12
12
12
12
12
12
12
12
12
12
12
12
12
12
12
12
12
12
12
12
12
12
12
12
12
12
12
12
12
12
12
12
12
12
12
12
12
12
12
12
12
12
12
12
12
12
12
12
12
12
12
12
12
12
12
12
12
12
12
12
12
12
12
12
12
12
12
12
12
12
12
12
12
12
12
12
12
12
12
12
12
12
12
12
12
12
12
12
12
12
12
12
12
12
12
12
12
12
12
12
12
12
12
12
12
12
12
12
12
12
12
12
12
12
12
12
12
12
12
12
12
12
12
12
12
12
12
12
12
12
12
12
12
12
12
12
12
12
12
12
12
12
12
12
12
12
12
12
12
12
12
12
12
12
12
12
12
12
12
12
12
12
12
12
12
12
12
12
12
12
12
12
12
12
12
12
12
12
12
12
12
12
12
12
12
12
12
12
12
12
12
12
12
12
12
12
12
12
12
12
12
12
12
12
12
12
12
12
12
12
12
12
12
12
12
12
12
12
12
12
12
12
12
12
12
12
12
12
12
12
12
12
12
12
12
12
12
12
12
12
12
12
12
12
12
12
12
12
12
12
12
12
12
12
12
12
12
12
12
12
12
12
12
12
12
12
12
12
12
12
12
12
12
12
12
12
12
12
12
12
12
12
12
12
12
12
12
12
12
12
12
12
12
12
12
12
12
12
12
12
12
12
12
12
12
12
12
12
12
12
12
12
12
12
12
12
12
12
12
12
12
12
12
12
12
12
12
12
12
12
12
12
12
12
12
12
12
12
12
12
12
12
12
12
12
12
12
12
12
12
12
12
12
12
12
12
12
12
12
12
12
12
12
12
12
12
12
12
12
12
12
12
12
12
12
12
12
12
12
12
12
12
12
12
12
12
12
12
12
12
12
12
12
12
12
12
12
12
12
12
12
12
12
12
12
12
12
12
12
12
12
12
12
12
12
12
12
12
12
12
12
12
12
12
12
12
12
12
12
12
12
12
12
12
12
12
12
12
12
12
12
12
12
12
12
12
12
12
12
12
12
12
12
12
12
12
12
12
12
12
12
12
12
12
12
12
12
12
12
12
12
12
12
12
12
12
12
12
12
12
12
12
12
12
12
12
12
12
12
12
12
12
12
12
12
12
12
12
12
12
12
12
12
12
12
12
12
12
12
12
12
12
12
12
12
12
12
12
12
12
12
12
12
12
12
12
12
12
12
12
12
12
12
12
12
12
12
12
12
12
12
12
12
12
12
12
12
12
12
12
12
12
12
12
12
12
12
12
12
12
12
12
12
12
12
12
12
12
12
12
12
12
12
12
12
12
12
12
12
12
12
12
12
12
12
12
12
12
12
12
12
12
12
12
12
12
12
12
12
12
12
12
12
12
12
12
12
12
12
12
12
12
12
12
12
12
12
12
12
12
12
12
12
12
12
12
12
12
12
12
12
12
12
12
12
12
12
12
12
12
12
12
12
12
12
12
12
12
12
12
12
12
12
12
12
12
12
12
12
12
12
12
12
12
12
12
12
12
12
12
12
12
12
12
12
12
12
12
12
12
12
12
12
12
12
12
12
12
12
12
12
12
12
12
12
12
12
12
12
12
12
12
12
12
12
12
12
12
12
12
12
12
12
12
12
12
12
12
12
12
12
12
12
12
12
12
12
12
12
12
12
12
12
12
12
12
12
12
12
12
12
12
12
12
12
12
12
12
12
12
12
12
12
12
12
12
12
12
12
12
12
12
12
12
12
12
12
12
12
12
12
12
12
12
12
12
12
12
12
12
12
12
12
12
12
12
12
12
12
12
12
12
12
12
12
12
12
12
12
12
12
12
12
12
12
12
12
12
12
12
12
12
12
12
12
12
12
12
12
12
12
12
12
12
12
12
12
12
12
12
12
12
12
12
12
12
12
12
12
12
12
12
12
12
12
12
12
12
12
12
12
12
12
12
12
12
12
12
12
12
12
12
12
12
12
12
12
12
12
12
12
12
12
12
12
12
12
12
12
12
12
12
12
12
12
12
12
12
12
12
12
12
12
12
12
12
12
12
12
12
12
12
12
12
12
12
12
12
12
12
12
12
12
12
12
12
12
12
12
12
12
12
12
12
12
12
12
12
12
12
12
12
12
12
12
12
12
12
12
12
12
12
12
12
12
12
12
12
12
12
12
12
12
12
12
12
12
12
12
12
12
12
12
12
12
12
12
12
12
12
12
12
12
12
12
12
12
12
12
12
12
12
12
12
12
12
12
12
12
12
12
12
12
12
12
12
12
12
12
12
12
12
12
12
12
12
12
12
12
12
12
12
12
12
12
12
12
12
12
12
12
12
12
12
12
12
12
12
12
12
12
12
12
12
12
12
12
12
12
12
12
12
12
12
12
12
12
12
12
12
12
12
12
12
12
12
12
12
12
12
12
12
12
12
12
12
12
12
12
12
12
12
12
12
12
12
12
12
12
12
12
12
12
12
12
12
12
12
12
12
12
12
12
12
12
12
12
12
12
12
12
12
12
12
12
12
12
12
12
12
12
12
12
12
12
12
12
12
12
12
12
12
12
12
12
12
12
12
12
12
12
12
12
12
12
12
12
12
12
12
12
12
12
12
12
12
12
12
12
12
12
12
12
12
12
12
12
12
12
12
12
12
12
12
12
12
12
12
12
12
12
12
12
12
12
12
12
12
12
12
12
12
12
12
12
12
12
12
12
12
12
12
12
12
12
12
12
12
12
12
12
12
12
12
12
12
12
12
12
12
12
12
12
12
12
12
12
12
12
12
12
12
12
12
12
12
12
12
12
12
12
12
12
12
12
12
12
12
12
12
12
12
12
12
12
12
12
12
12
12
12
12
12
12
12
12
12
12
12
12
12
12
12
12
12
12
12
12
12
12
12
12
12
12
12
12
12
12
12
12
12
12
12
12
12
12
12
12
12
12
12
12
12
12
12
12
12
12
12
12
12
12
12
12
12
12
12
12
12
12
12
12
12
12
12
12
12
12
12
12
12
12
12
12
12
12
12
12
12
12
12
12
12
12
12
12
12
12
12
12
12
12
12
12
12
12
12
12
12
12
12
12
12
12
12
12
12
12
12
12
12
12
12
12
12
12
12
12
12
12
12
12
12
12
12
12
12
12
12
12
12
12
12
12
12
12
12
12
12
12
12
12
12
12
12
12
12
12
12
12
12
12
12
12
12
12
12
12
12
12
12
12
12
12
12
12
12
12
12
12
12
12
12
12
12
12
12
12
12
12
12
12
12
12
12
12
12
12
12
12
12
12
12
12
12
12
12
12
12
12
12
12
12
12
12
12
12
12
12
12
12
12
12
12
12
12
12
12
12
12
12
12
12
12
12
12
12
12
12
12
12
12
12
12
12
12
12
12
12
12
12
12
12
12
12
12
12
12
12
12
12
12
12
12
12
12
12
12
12
12
12
12
12
12
12
12
12
12
12
12
12
12
12
12
12
12
12
12
12
12
12
12
12
12
12
12
12
12
12
12
12
12
12
12
12
12
12
12
12
12
12
12
12
12
12
12
12
12
12
12
12
12
12
12
12
12
12
12
12
12
12
12
12
12
12
12
12
12
12
12
12
12
12
12
12
12
12
12
12
12
12
12
12
12
12
12
12
12
12
12
12
12
12
12
12
12
12
12
12
12
12
12
12
12
12
12
12
12
12
12
12
12
12
12
12
12
12
12
12
12
12
12
12
12
12
12
12
12
12
12
12
12
12
12
12
12
12
12
12
12
12
12
12
12
12
12
12
12
12
12
12
12
12
12
12
12
12
12
12
12
12
12
12
12
12
12
12
12
12
12
12
12
12
12
12
12
12
12
12
12
12
12
12
12
12
12
12
12
12
12
12
12

POINT_DATA 3012
SCALARS Jp_lamdaP float 4
LOOKUP_TABLE default
0.999844 1 1 0.999844
1 1 1 1
0.999849 1 1 0.999849
0.9998 1 1 0.9998
0.999844 1 1 0.999844
0.999838 1 1 0.999838
0.999292 1 1 0.999292
1 1 1 1
1 1 1 1
1 1 1 1
0.999917 1 1 0.999917
0.999449 1 1 0.999449
0.999765 1 1 0.999765
0.999793 1 1 0.999793
0.999849 1 1 0.999849
0.999817 1 1 0.999817
0.999843 1 1 0.999843
0.999853 1 1 0.999853
0.999295 1 1 0.999295
1 1 1 1
0.99978 1 1 0.99978
0.999826 1 1 0.999826
0.999163 1 1 0.999163
0.999262 1 1 0.999262
0.999857 1 1 0.999857
0.999324 1 1 0.999324
0.999186 1.00077 1 0.998422
1 1 1 1
0.999911 1 1 0.999911
0.999925 1 1 0.999925
1 1 1 1
0.999457 1 1 0.999457
0.999817 1 1 0.999817
0.99984 1 1 0.99984
0.999382 1 1 0.999382
1 1 1 1
0.999471 1 1 0.999471
0.999547 1 1 0.999547
0.998459 1 1 0.998459
1 1 1 1
1 1 1 1
0.999894 1 1 0.999894
1 1 1 1
0.999785 1 1 0.999785
0.999091 1 1 0.999091
1 1 1 1
0.999287 1 1 0.999287
0.99983 1 1 0.99983
0.999858 1 1 0.999858
0.999844 1 1 0.999844
0.9993 1 1 0.9993
0.999879 1 1 0.999879
0.999796 1 1 0.999796
0.999867 1 1 0.999867
0.99984 1 1 0.99984
0.999163 1 1 0.999163
0.999328 1 1 0.999328
0.999265 1 1 0.999265
0.999431 1.00103 1 0.998407
1 1 1 1
0.999769 1 1 0.999769
0.999265 1 1 0.999265
0.999127 1 1 0.999127
0.999213 1 1 0.999213
1.00133 1.00321 1 0.998124
0.999898 1.00164 1 0.998257
0.999914 1 1 0.999914
0.999439 1 1 0.999439
0.998692 1.00017 1 0.998526
1.00646 1.00881 1 0.997665
1 1 1 1
1 1 1 1
1 1 1 1
0.999465 1 1 0.999465
1 1 1 1
1 1 1 1
0.999295 1 1 0.999295
0.99998 1 1 0.99998
0.999403 1 1 0.999403
0.999605 1 1 0.999605
0.998456 1 1 0.998456
1 1 1 1
0.999941 1 1 0.999941
0.999234 1 1 0.999234
0.999331 1 1 0.999331
1.00109 1.00305 1 0.998037
0.999756 1 1 0.999756
0.998711 1.00035 1 0.998358
0.998595 1 1 0.998595
0.998508 1.00062 1 0.997892
1 1 1 1
1 1 1 1
1 1 1 1
1 1 1 1
1 1 1 1
0.999889 1 1 0.999889
0.999173 1 1 0.999173
0.999899 1 1 0.999899
0.999238 1 1 0.999238
1 1 1 1
0.999079 1 1 0.999079
0.99926 1 1 0.99926
1.00102 1.00328 1 0.997749
0.999322 1 1 0.999322
1.00246 1.00464 1 0.997832
0.999783 1 1 0.999783
0.99981 1 1 0.99981
0.999876 1 1 0.999876
0.999851 1 1 0.999851
0.999164 1 1 0.999164
0.999269 1 1 0.999269
0.999334 1 1 0.999334
0.999664 1.00127 1 0.998392
1 1 1 1
0.999785 1 1 0.999785
0.999105 1 1 0.999105
0.999125 1 1 0.999125
0.999957 1 1 0.999957
0.999494 1 1 0.999494
0.999215 1 1 0.999215
1.00131 1.00323 1 0.998084
0.998813 1.00031 1 0.998507
1.0001 1.00182 1 0.998286
1.0066 1.00895 1 0.99767
0.999102 1 1 0.999102
0.999105 1 1 0.999105
1.00065 1.00274 1 0.997919
1.00136 1.00336 1 0.998008
1.00101 1.00288 1 0.99814
1.01356 1.01613 1 0.997468
1 1 1 1
1.00863 1.01106 1 0.997597
0.999665 1 1 0.999665
0.998557 1 1 0.998557
1.0046 1.00689 1 0.997733
1.01704 1.01966 1 0.997427
0.999849 1 1 0.999849
0.999768 1 1.00064 0.999124
1 1 1 1
1 1 1 1
0.999302 1 1 0.999302
1 1 1 1
0.999601 1 1 0.999601
0.999408 1 1 0.999408
0.998453 1 1 0.998453
1 1 1 1
0.999957 1 1 0.999957
0.999295 1 1 0.999295
0.999389 1 1 0.999389
1.00064 1.00261 1 0.998039
0.999766 1 1 0.999766
0.998559 1.0002 1 0.998361
0.998594 1 1 0.998594
0.998444 1.00057 1 0.997876
0.999865 1 1 0.999865
0.999986 1 1 0.999986
0.999553 1 1.00023 0.99932
1.00215 1.00424 1 0.997926
0.999692 1.0015 1 0.9982
1.00988 1.01245 1 0.99746
0.99882 1 1 0.99882
1.00203 1.00425 1 0.997786
0.998899 1.00035 1.00057 0.997983
1.00216 1.00446 1 0.997711
1 1 1 1
1 1 1 1
1 1 1 1
0.999909 1 1 0.999909
1 1 1 1
1 1 1 1
1 1 1 1
0.999187 1 1 0.999187
0.999117 1 1 0.999117
1 1 1 1
1 1 1 1
0.999081 1 1 0.999081
0.999211 1 1 0.999211
1.00127 1.00353 1 0.997749
0.999215 1 1 0.999215
1.00252 1.0047 1 0.997832
0.999072 1 1 0.999072
1.00037 1.00268 1 0.9977
1.00181 1.00402 1 0.9978
1.01672 1.0195 1 0.997274
1.00257 1.00472 1 0.997864
1.0172 1.01991 1 0.99734
1 1 1 1
0.9998 1 1 0.9998
0.998931 1 1 0.998931
0.999124 1 1 0.999124
1 1 1 1
0.99955 1 1 0.99955
0.999219 1 1 0.999219
1.00128 1.00324 1 0.998043
1.00031 1.002 1 0.998315
0.998929 1.00044 1 0.998489
1.00675 1.0091 1 0.997674
0.999099 1 1 0.999099
0.999103 1 1 0.999103
1.00051 1.00269 1 0.997824
1.00139 1.00336 1 0.998036
1 1 1 1
0.999664 1 1 0.999664
0.99863 1.00002 1 0.998611
1.00097 1.00284 1 0.998139
1.01345 1.01606 1 0.997431
1.00451 1.00681 1 0.997721
1.00889 1.01128 1 0.997628
1.01659 1.0192 1 0.997434
0.99984 1 1 0.99984
0.999823 1 1.0007 0.999126
1.00004 1.00232 1 0.997722
1.0011 1.00314 1 0.997968
1.01467 1.01734 1 0.997371
1.01396 1.01665 1 0.997357
1.01091 1.01338 1 0.997561
1.02491 1.02763 1 0.997359
0.999769 1 1 0.999769
1.01891 1.02154 1 0.997421
0.998821 1 1.0001 0.998723
1.00047 1.00261 1 0.997858
1.01477 1.01735 1 0.997464
1.01994 1.02255 1 0.997452
0.999459 1 1.00049 0.998972
0.999412 1 1.00009 0.999319
1.00057 1 1.00201 0.998568
0.999254 1 1 0.999254
1 1 1 1
0.999972 1 1 0.999972
0.99936 1 1 0.99936
1.00019 1.00216 1 0.998041
0.999775 1 1 0.999775
0.998634 1 1.00004 0.998593
0.99843 1.00007 1 0.998364
0.998418 1.00056 1 0.99786
0.999884 1 1 0.999884
0.999991 1 1 0.999991
0.999656 1 1.00033 0.999322
1.00187 1.00395 1 0.997926
0.999311 1.00111 1 0.998204
1.00976 1.01233 1 0.997458
0.998843 1 1.00002 0.998823
1.00159 1.0038 1 0.997797
0.998897 1.00045 1.00047 0.997979
1.00231 1.00463 1 0.997696
0.999999 1 1 0.999999
0.999237 1 1.00018 0.999059
0.999783 1 1.00021 0.999571
0.999761 1 1.001 0.99876
1.01329 1.01596 1 0.997377
1.0063 1.00869 1 0.997628
1.01934 1.02212 1 0.997276
0.99874 1.00005 1.00044 0.998244
1.00753 1.00995 1 0.997607
1.0039 1.00467 1.00158 0.997665
1.01051 1.01298 1 0.997564
0.999849 1 1 0.999849
1 1 1 1
1 1 1 1
1 1 1 1
1 1 1 1
0.999953 1 1 0.999953
1 1 1 1
0.999897 1 1 0.999897
1 1 1 1
0.999216 1 1 0.999216
0.999156 1 1 0.999156
1.00265 1.00482 1 0.997831
1.0015 1.00376 1 0.997749
0.999083 1 1 0.999083
1 1 1 1
0.999071 1 1 0.999071
1.00053 1.00284 1 0.9977
1.00204 1.00425 1 0.9978
1.01647 1.01925 1 0.997273
1.00253 1.00467 1 0.997863
1.01717 1.01989 1 0.997338
0.999978 1.00229 1 0.997693
1.01578 1.0186 1 0.99723
1.0173 1.02004 1 0.997315
1.03035 1.03312 1 0.997317
1.01624 1.01894 1 0.997352
1.02911 1.03187 1 0.997326
0.999096 1 1 0.999096
0.999101 1 1 0.999101
1.00038 1.00266 1 0.99773
1.00142 1.00336 1 0.998065
1 1 1 1
0.999663 1 1 0.999663
0.998712 1.00005 1 0.998664
1.00093 1.0028 1 0.998137
1.01334 1.01599 1 0.997394
1.00912 1.01149 1 0.997659
1.00439 1.0067 1 0.99771
1.01624 1.01885 1 0.99744
0.999829 1 1 0.999829
0.999847 1 1.00072 0.999127
0.999997 1.00231 1 0.997696
1.00107 1.00311 1 0.997965
1.01488 1.01756 1 0.997369
1.01411 1.01676 1 0.997392
0.999759 1 1 0.999759
0.998742 1 1.00002 0.99872
1.00109 1.0032 1 0.997893
1.01115 1.01362 1 0.997558
1.0252 1.02791 1 0.997372
1.0141 1.01671 1 0.99743
1.01878 1.02141 1 0.997425
1.02031 1.02292 1 0.997451
0.999326 1 1.00035 0.998974
1.00052 1 1.00195 0.99857
0.999659 1 1.00034 0.999317
1.0148 1.01753 1 0.997317
1.01506 1.01771 1 0.997397
1.02877 1.03155 1 0.997303
1.02689 1.02965 1 0.99732
1.02092 1.02357 1 0.997412
1.02634 1.02889 1 0.99753
0.998893 1 1.00003 0.998868
1.02197 1.02453 1 0.997495
0.998665 1.00049 1 0.998173
1.00632 1.00888 1 0.997456
1.01756 1.02031 1 0.997308
1.01875 1.02119 1 0.99761
0.999489 1 1 0.999489
0.998726 1 1.00019 0.998535
1.00109 1 1.00243 0.998662
0.999626 1 1.00124 0.998392
1.00159 1.00367 1 0.997925
0.999996 1 1 0.999996
0.999903 1 1 0.999903
0.999645 1 1.00032 0.999325
0.998901 1.00069 1 0.998209
1.00962 1.0122 1 0.997455
0.998829 1 1 0.998826
0.998804 1.0005 1.00033 0.997974
1.00112 1.00332 1 0.997807
1.00228 1.00461 1 0.997681
0.999999 1 1 0.999999
0.99925 1 1.00019 0.99906
0.999667 1 1.00009 0.999579
1.00002 1 1.00127 0.998755
1.01314 1.01581 1 0.997374
1.00556 1.00795 1 0.997628
1.0193 1.02208 1 0.997273
0.998712 1.00001 1.00045 0.998249
1.00765 1.01005 1 0.99762
1.00371 1.00433 1.00173 0.997654
1.01061 1.01301 1 0.997631
1 1 1 1
0.999726 1 1 0.999726
0.998925 1 1.0004 0.99853
0.999733 1 1.00073 0.999004
0.999793 1 1.00132 0.998477
1.02266 1.02547 1 0.997256
1.01365 1.01627 1 0.997422
1.0186 1.02136 1 0.997301
1.00145 1.00158 1.00199 0.997878
1.01061 1.0131 1 0.997541
1.00734 1.00912 1.00086 0.997382
0.99983 1 1 0.99983
0.999447 1 1 0.999447
0.999861 1 1 0.999861
0.999851 1 1 0.999851
1 1 1 1
1 1 1 1
1 1 1 1
1 1 1 1
1 1 1 1
0.999983 1 1 0.999983
1 1 1 1
0.999942 1 1 0.999942
1 1 1 1
0.999886 1 1 0.999886
1 1 1 1
1.00244 1.00459 1 0.997862
1.00221 1.00442 1 0.997799
1.01699 1.0197 1 0.997337
1.01619 1.01897 1 0.997271
1.00074 1.00305 1 0.997701
0.999071 1 1 0.999071
1.00009 1.00241 1 0.997693
1.01572 1.01854 1 0.99723
1.01695 1.01969 1 0.997314
1.0306 1.03336 1 0.997331
1.01582 1.01852 1 0.997349
1.02862 1.03138 1 0.997325
1.01527 1.0181 1 0.99722
1.02965 1.03242 1 0.997314
1.03054 1.0333 1 0.997328
1.03374 1.0366 0.999754 0.997492
1.02527 1.02805 1 0.997297
1.02964 1.03216 1 0.997565
0.999982 1.00232 1 0.997671
1.00103 1.00308 1 0.997963
1.0151 1.01778 1 0.997368
1.01424 1.01686 1 0.997428
0.999748 1 1 0.999748
0.998718 1 1 0.998718
1.00169 1.00377 1 0.997927
1.0114 1.01388 1 0.997554
1.02552 1.02821 1 0.997385
1.01865 1.02128 1 0.997428
1.01333 1.01597 1 0.997397
1.02066 1.02326 1 0.997451
0.999231 1 1.00025 0.998977
1.00046 1 1.00189 0.998572
0.999874 1 1.00056 0.999314
1.01494 1.0177 1 0.997282
1.01517 1.01782 1 0.997395
1.02837 1.03113 1 0.99732
1.02714 1.0299 1 0.99732
0.998915 1 1.00005 0.998866
0.999197 1.00103 1 0.998166
1.0057 1.00818 1.00003 0.997506
1.02109 1.02374 1 0.997408
1.0259 1.02841 1 0.997567
1.01761 1.02039 1 0.997275
1.02199 1.02455 1 0.997498
1.01841 1.02082 1 0.997636
0.998838 1 1.0003 0.998537
0.999611 1 1.00124 0.998374
0.999484 1 1 0.999484
1.00102 1 1.00233 0.998689
1.0287 1.03151 1 0.997275
1.02909 1.03184 1 0.997334
1.03067 1.03344 0.999909 0.997414
1.0283 1.03109 0.999743 0.997557
1.02364 1.02615 1 0.997554
1.02483 1.02717 1 0.997722
0.998419 1 1 0.998419
1.01901 1.0213 1 0.997757
0.999316 1.00153 1 0.997794
1.01001 1.01265 1.00018 0.997219
1.01895 1.02176 1 0.997245
1.01768 1.02006 1 0.997673
0.999605 1 1 0.999605
0.999397 1 1.00054 0.998853
0.998349 1 1 0.998349
1.00122 1 1.00278 0.998439
0.99904 1 1.00069 0.998348
1 1 1 1
1.01292 1.01559 1 0.99737
0.999586 1 1 0.999586
0.999338 1 1.00028 0.99906
1.00034 1 1.00159 0.99875
1.00487 1.00726 1 0.997629
1.01932 1.02211 1 0.997271
0.99876 1 1.00051 0.998254
1.00385 1.00428 1.00193 0.997643
1.00787 1.01026 1 0.997634
1.01092 1.01326 1 0.997697
1 1 1 1
0.999733 1 1 0.999733
0.998932 1 1.0004 0.998532
0.999904 1 1.0009 0.999004
1.00016 1 1.00171 0.998456
1.02291 1.02573 1 0.997251
1.01397 1.0166 1 0.997421
1.01852 1.02129 1 0.997291
1.00108 1.00107 1.00213 0.997883
1.0131 1.01559 1 0.99755
1.00663 1.00828 1.00096 0.997401
0.999797 1 1 0.999797
0.999224 1 1 0.999224
0.998695 1 1.00048 0.998219
1.00096 1 1.00229 0.998665
0.999714 1 1.00137 0.998345
1.02252 1.02524 1 0.997346
1.01426 1.01691 1 0.997396
1.01652 1.0191 1 0.997471
1.00162 1.00018 1.00379 0.997653
1.00671 1.00947 1 0.997267
0.999833 1 1 0.999833
0.99938 1 1 0.99938
0.999425 1 1 0.999425
0.999211 1 1 0.999211
0.999456 1 1 0.999456
0.999865 1 1 0.999865
0.999862 1 1 0.999862
1 1 1 1
0.999853 1 1 0.999853
1 1 1 1
1 1 1 1
1 1 1 1
1 1 1 1
1 1 1 1
0.999998 1 1 0.999998
0.999975 1 1 0.999975
1 1 1 1
1 1 1 1
0.999931 1 1 0.999931
1 1 1 1
1.0155 1.0182 1 0.997347
1.01676 1.0195 1 0.997313
1.02824 1.031 1 0.997323
1.03093 1.03368 1 0.997344
1.01559 1.01841 1 0.99723
1.00015 1.00247 1 0.997692
1.01511 1.01794 1 0.997221
1.02964 1.03242 0.999998 0.997307
1.03053 1.03329 1 0.997328
1.03297 1.03602 0.999529 0.99752
1.0258 1.02859 1 0.997292
1.0297 1.03231 0.999894 0.997584
1.02877 1.03157 1 0.997281
1.03183 1.03534 0.999148 0.997457
1.03215 1.03485 0.999811 0.997581
1.03163 1.03572 0.998405 0.997644
1.02662 1.02922 1 0.997477
1.02965 1.03239 0.999576 0.997767
1.01501 1.01782 1 0.997247
1.01526 1.01791 1 0.997393
1.02793 1.03067 1 0.997337
1.02737 1.03013 1 0.997321
0.998909 1 1.00004 0.998865
0.999781 1.00162 1 0.99816
1.00527 1.00755 1.00018 0.997557
1.02126 1.02391 1 0.997404
1.02539 1.02785 1 0.997604
1.02202 1.02457 1 0.997502
1.0177 1.02051 1 0.997243
1.01796 1.02035 1 0.997661
0.998963 1 1.00042 0.998539
0.999568 1 1.00121 0.998355
0.999479 1 1 0.999479
1.00072 1 1.002 0.998716
1.02854 1.03135 1 0.997276
1.02859 1.03136 1 0.997317
1.03054 1.0333 0.999892 0.997438
1.02823 1.03088 0.99989 0.997541
0.998413 1 1 0.998413
0.999572 1.00171 1.00003 0.99784
1.01019 1.01263 1.00039 0.99721
1.02331 1.02585 1 0.997521
1.0246 1.02691 0.999974 0.997775
1.0181 1.02092 1 0.997233
1.0194 1.02169 1 0.997759
1.0189 1.02123 1 0.997718
0.998347 1 1 0.998347
0.998704 1 1.00035 0.998352
1.00187 1 1.00344 0.998432
0.999571 1 1 0.999571
0.999374 1 1.0005 0.998879
1.0308 1.03461 0.998875 0.99744
1.03137 1.03436 0.999626 0.997489
1.02579 1.02942 0.99872 0.997758
1.02188 1.02426 0.999882 0.997796
0.998253 1.00007 1 0.998182
1.02246 1.02459 1 0.997919
0.999508 1.00167 1.00029 0.997558
1.01002 1.01256 1.00051 0.996988
1.01698 1.01982 1 0.997218
0.999649 1 1 0.999649
0.999139 1 1.00004 0.999095
1.00012 1 1.00149 0.998629
0.998305 1 1 0.998305
1.00214 1 1.00389 0.998254
0.998284 1 1 0.998284
1 1 1 1
0.99974 1 1 0.99974
1.02318 1.02601 1 0.997246
1.0001 1 1.00109 0.999004
0.998863 1 1.00033 0.998534
1.00067 1 1.00224 0.998434
1.01413 1.01675 1 0.99742
1.01828 1.02105 1 0.997281
1.00063 1.00046 1.00229 0.997887
1.0054 1.00722 1.00077 0.99742
1.01538 1.01786 1 0.99756
0.999801 1 1 0.999801
0.999235 1 1.00001 0.999227
0.998636 1 1.00041 0.998223
1.00143 1 1.00277 0.998662
0.999818 1 1.00148 0.998339
1.02244 1.02517 1 0.99734
1.01473 1.01739 1 0.997386
1.01633 1.01888 1 0.997496
1.00135 1.00049 1.00324 0.997621
1.00561 1.00834 1.00006 0.997238
0.999355 1 1 0.999355
1.00021 1 1.00137 0.998837
1.00022 1.00016 1.002 0.998064
1.00155 1 1.00316 0.9984
0.999226 1 1.001 0.998233
1.02298 1.02529 1 0.997753
1.01248 1.01522 1 0.997306
1.0132 1.01572 1 0.997521
1.00355 1.00177 1.00433 0.997455
1.00094 1.00391 1 0.997043
0.999836 1 1 0.999836
0.999397 1 1 0.999397
0.999124 1 1 0.999124
0.999404 1 1 0.999404
0.999455 1 1 0.999455
0.999181 1 1 0.999181
0.999037 1 1 0.999037
0.999151 1 1 0.999151
0.99946 1 1 0.99946
0.999862 1 1 0.999862
0.999865 1 1 0.999865
1 1 1 1
0.999864 1 1 0.999864
1 1 1 1
1 1 1 1
1 1 1 1
1 1 1 1
1 1 1 1
1 1 1 1
0.999995 1 1 0.999995
1 1 1 1
0.999967 1 1 0.999967
1 1 1 1
1 1 1 1
1.02628 1.02907 1 0.997286
1.03036 1.03313 1 0.997327
1.02975 1.03245 0.999773 0.997603
1.03211 1.0354 0.99927 0.997549
1.02964 1.03242 1 0.997301
1.01504 1.01787 1 0.997221
1.02905 1.03187 1 0.997264
1.03204 1.03537 0.999327 0.997449
1.03194 1.03457 0.999895 0.997561
1.03108 1.03546 0.998105 0.997659
1.02598 1.02857 1 0.997477
1.0288 1.03163 0.999449 0.997807
1.03139 1.03461 0.999467 0.997424
1.03158 1.03725 0.996881 0.997636
1.03063 1.03508 0.99793 0.997761
1.02685 1.02954 0.999524 0.997859
1.02841 1.03122 1 0.997276
1.02812 1.0309 1 0.997301
1.03042 1.03317 0.999879 0.997462
1.02821 1.03076 1 0.997524
0.998406 1 1 0.998406
0.999532 1.00165 1 0.997886
1.01031 1.01255 1.00058 0.997202
1.02291 1.02549 1 0.997489
1.02443 1.0267 0.999957 0.997828
1.01988 1.02217 1 0.997762
1.01736 1.02019 1 0.99722
1.02012 1.02241 1 0.997762
0.998345 1 1 0.998345
0.998357 1 1 0.998357
1.00312 1 1.0047 0.998426
0.999537 1 1 0.999537
0.999448 1 1.00054 0.998904
1.03131 1.03474 0.999238 0.997443
1.03152 1.03451 0.999622 0.997491
1.02571 1.02904 0.999017 0.997747
0.998559 1.00038 1 0.998175
1.00071 1.00285 1.00026 0.997602
1.00974 1.01203 1.00076 0.996977
1.02255 1.02493 0.999889 0.997785
1.01684 1.0196 1 0.997294
1.02081 1.02305 0.999917 0.997896
0.999663 1 1 0.999663
0.998398 1.0001 1 0.998297
0.998361 1 1 0.998361
1.00202 1 1.00379 0.998239
1.00007 1 1.00143 0.99864
0.999104 1 1.00004 0.999068
1.0312 1.03652 0.997332 0.997525
1.02914 1.03569 0.995989 0.997671
1.02224 1.02767 0.996856 0.997845
1.02653 1.02982 0.998821 0.997989
0.998868 1.00084 1 0.998026
1.01763 1.02009 1 0.997588
1.00237 1.00359 1.00165 0.997136
1.00612 1.00826 1.00104 0.99684
0.999769 1 1 0.999769
0.999251 1 1 0.999251
0.998875 1 1.00007 0.998803
1.00231 1 1.00398 0.998336
0.998201 1 1 0.998201
1.00059 1 1.00247 0.998128
0.999806 1 1 0.999806
0.999231 1 1 0.999231
1.02254 1.02527 1 0.997334
1.00152 1 1.00287 0.998659
0.998497 1 1.00027 0.998228
0.999812 1 1.00148 0.998333
1.01548 1.01815 1 0.997376
1.01637 1.01889 1 0.997521
1.00123 1.00092 1.00273 0.997589
1.00458 1.00712 1.00027 0.997209
0.999358 1 1 0.999358
0.999898 1 1.00106 0.998844
1.00015 1.00009 1.00198 0.998079
1.00176 1 1.00336 0.998405
0.998778 1 1.00048 0.998303
1.02338 1.02568 0.999973 0.997787
1.01184 1.01457 1 0.997312
1.01463 1.01708 1 0.997595
1.00298 1.00098 1.00458 0.99742
1.00161 1.0046 1.00003 0.996995
0.99905 1 1 0.99905
1.00093 1 1.00242 0.998509
1.00204 1.00035 1.00378 0.997913
0.999665 1 1.00155 0.998114
1.02601 1.03419 0.994082 0.998003
1.01801 1.02032 0.999872 0.997862
1.00697 1.00989 1 0.997107
1.00338 1.00207 1.00426 0.99706
0.999414 1 1 0.999414
0.999137 1 1 0.999137
0.998997 1 1 0.998997
0.999455 1 1 0.999455
0.99915 1 1 0.99915
0.999459 1 1 0.999459
0.99902 1 1 0.99902
0.999164 1 1 0.999164
0.99893 1 1 0.99893
0.998983 1 1 0.998983
0.999134 1 1 0.999134
0.999446 1 1 0.999446
0.999855 1 1 0.999855
0.999861 1 1 0.999861
1 1 1 1
0.999865 1 1 0.999865
1 1 1 1
1 1 1 1
1 1 1 1
1 1 1 1
1 1 1 1
1 1 1 1
1 1 1 1
1 1 1 1
0.999991 1 1 0.999991
1 1 1 1
1 1 1 1
1.02524 1.02784 1 0.997476
1.03182 1.03437 1 0.99754
1.02798 1.03088 0.999337 0.997848
1.03055 1.0352 0.997831 0.997673
1.03226 1.0354 0.999522 0.99744
1.02932 1.03216 1 0.997247
1.03101 1.03455 0.99915 0.997427
1.031 1.0365 0.997067 0.997627
1.03021 1.03475 0.99785 0.997761
1.02844 1.03106 0.999597 0.997863
1.03117 1.03692 0.99687 0.997577
1.03121 1.03953 0.994182 0.997804
1.03149 1.03711 0.996682 0.997899
1.03181 1.03487 0.999594 0.997446
1.03167 1.03463 0.999646 0.997492
1.02561 1.02859 0.999365 0.997736
0.999007 1.00084 1 0.998168
1.00193 1.00411 1.00018 0.997645
1.00917 1.01138 1.00085 0.996966
1.02315 1.02555 0.999886 0.997774
1.01923 1.02155 0.999855 0.997874
1.01693 1.01961 1 0.99737
0.998558 1.00027 1 0.998289
0.998438 1 1 0.998438
1.00178 1 1.00356 0.998224
0.999677 1 1 0.999677
0.999544 1 1.00089 0.998652
0.999049 1 1.00001 0.999041
1.03197 1.03684 0.997771 0.997533
1.02946 1.0359 0.996098 0.997679
1.02253 1.02743 0.997384 0.997838
0.999274 1.00126 1 0.998015
1.00192 1.0033 1.0014 0.997222
1.00549 1.00773 1.0009 0.996883
1.02647 1.02948 0.999079 0.997998
1.01811 1.02066 0.999927 0.997575
0.999809 1 1 0.999809
0.999251 1 1 0.999251
0.998235 1 1 0.998233
1.00158 1 1.00338 0.998208
1.00223 1 1.00388 0.998357
0.998824 1 1.00004 0.99878
1.03049 1.03839 0.99466 0.997722
1.02186 1.03281 0.991566 0.99781
1.0226 1.02896 0.995776 0.998035
1.0201 1.02398 0.998182 0.998023
0.999869 1.00122 1.00088 0.997766
1.00526 1.00689 1.0014 0.99699
1.0031 1.00353 1.00264 0.996939
0.999902 1 1 0.999902
0.999534 1 1 0.999534
0.999336 1 1 0.999336
0.998902 1 1 0.998902
0.999699 1 1.00117 0.998526
1.00224 1 1.00401 0.99823
0.998264 1 1 0.998264
1.01482 1 1.01649 0.998362
0.99936 1 1 0.99936
0.999809 1 1.00096 0.998852
1.02368 1.02597 0.999946 0.997822
1.0023 1 1.00389 0.99841
1.00025 1 1.00215 0.998095
0.998407 1 1.00004 0.998372
1.01093 1.01365 1 0.997317
1.01586 1.01824 1 0.997669
1.00261 1.00042 1.00482 0.997386
1.00242 1.00549 1 0.996947
0.999031 1 1 0.999031
1.00114 1 1.00262 0.998523
1.0023 1.00022 1.00415 0.997939
0.999502 1 1.00136 0.998144
1.02741 1.03511 0.994529 0.998017
1.01782 1.02009 0.999949 0.997825
1.00801 1.01089 1 0.997146
1.00349 1.00271 1.00377 0.997017
0.999156 1 1.00031 0.998842
1.02466 1.03685 0.990203 0.998015
1.00107 1 1.00281 0.998262
1.00116 1.00082 1.00268 0.99767
1.02489 1.02862 0.998262 0.998105
1.00823 1.01103 1 0.997237
1.00476 1.00466 1.00323 0.996874
0.99915 1 1 0.99915
0.998993 1 1 0.998993
0.998899 1 1 0.998899
0.999458 1 1 0.999458
0.999177 1 1 0.999177
0.999004 1 1 0.999004
0.999444 1 1 0.999444
0.999137 1 1 0.999137
0.998916 1 1 0.998916
0.999004 1 1 0.999004
0.998858 1 1 0.998858
0.998882 1 1 0.998882
0.998966 1 1 0.998966
0.999117 1 1 0.999117
0.999416 1 1 0.999416
0.999844 1 1 0.999844
0.999853 1 1 0.999853
1 1 1 1
0.99986 1 1 0.99986
1 1 1 1
1 1 1 1
1 1 1 1
1 1 1 1
1 1 1 1
0.99993 1 1 0.99993
1 1 1 1
1 1 1 1
1 1 1 1
1 1 1 1
1 1 1 1
1 1 1 1
1.03009 1.03262 0.999683 0.997867
1.02977 1.03437 0.99778 0.99776
1.03042 1.03574 0.997237 0.997618
1.03064 1.03449 0.998839 0.997431
1.03073 1.03683 0.996512 0.997597
1.03141 1.03945 0.994459 0.997793
1.03095 1.03683 0.996407 0.997911
1.03115 1.0401 0.993597 0.997778
1.03491 1.04424 0.993129 0.997917
1.01982 1.03517 0.987015 0.998137
1.03279 1.03719 0.99821 0.99754
1.02979 1.03618 0.996135 0.997688
1.02273 1.0272 0.997817 0.99783
0.999656 1.0016 1.00006 0.998004
1.00142 1.00285 1.00126 0.997308
1.00502 1.00734 1.00078 0.996925
1.02658 1.0293 0.999343 0.998007
1.01814 1.0208 0.999834 0.997562
0.998264 1 1 0.998264
1.00254 1 1.00425 0.998287
1.0027 1 1.00433 0.998378
0.999849 1 1 0.999849
0.999251 1 1 0.999251
0.99898 1 1.00022 0.998757
1.03038 1.03865 0.994287 0.997735
0.999898 1 1 0.999898
0.999512 1 1 0.999512
1.02148 1.03198 0.99199 0.99781
1.023 1.02959 0.995588 0.998003
0.999383 1.00069 1.00084 0.997852
1.00338 1.00317 1.0033 0.996917
1.00581 1.00799 1.00084 0.996991
1.01898 1.02296 0.998104 0.998006
0.999397 1 1 0.999397
0.998898 1 1 0.998898
0.998195 1 1 0.998192
1.01088 1 1.01242 0.998474
1.00198 1 1.00376 0.998225
1.00009 1 1.00155 0.99854
1.03438 1.04359 0.993282 0.997877
1.01128 1.03039 0.983466 0.997948
1.01906 1.02718 0.993875 0.998212
1.00511 1.00974 0.997681 0.997728
1.00057 1.00037 1.00234 0.997861
1.00409 1.00183 1.00547 0.996803
0.999522 1 1 0.999522
0.999481 1 1 0.999481
0.999249 1 1 0.999249
0.998943 1 1 0.998943
0.998868 1 1.00017 0.998698
1.00007 1 1.00179 0.998286
1.0216 1 1.02344 0.998198
1.00078 1 1.00227 0.998505
0.999011 1 1 0.999011
1.00102 1 1.00249 0.998537
1.02848 1.03563 0.995058 0.998031
1.01782 1.02007 1 0.997787
0.999274 1 1.0011 0.998174
1.00237 1 1.00441 0.997964
1.00932 1.01213 1.00004 0.997186
1.00343 1.00311 1.00335 0.996974
0.999202 1 1.00037 0.998834
1.02586 1.0388 0.989478 0.998048
1.0009 1 1.00263 0.998279
1.00077 1.00045 1.00269 0.997637
1.02363 1.02778 0.997877 0.998078
1.00848 1.01122 1 0.997291
1.00471 1.00435 1.00348 0.996888
1.00027 1 1.00171 0.998556
1.01749 1.03048 0.988965 0.998406
1.00049 1.00064 1.00181 0.99805
1.00243 1.0013 1.00379 0.997355
1.01179 1.01729 0.996843 0.997744
1.00237 1.00314 1.00221 0.99702
1.00218 1.00708 0.996726 0.9984
0.998989 1 1 0.998989
0.998987 1 1.00009 0.998897
0.998882 1 1.0001 0.99878
0.999443 1 1 0.999443
0.99914 1 1 0.99914
0.999026 1 1 0.999026
0.998903 1 1 0.998903
0.999416 1 1 0.999416
0.999107 1 1 0.999107
0.998838 1 1 0.998838
0.998965 1 1 0.998965
0.998894 1 1 0.998894
0.998821 1 1 0.998821
0.998836 1 1 0.998836
0.998954 1 1 0.998954
0.999043 1 1 0.999043
0.999342 1 1 0.999342
0.999169 1 1 0.999169
0.999334 1 1 0.999334
0.999836 1 1 0.999836
0.999843 1 1 0.999843
1 1 1 1
0.999852 1 1 0.999852
1 1 1 1
1 1 1 1
1 1 1 1
1 1 1 1
1 1 1 1
0.999947 1 1 0.999947
0.999927 1 1 0.999927
1 1 1 1
1 1 1 1
1 1 1 1
1 1 1 1
1 1 1 1
1 1 1 1
1.03047 1.03669 0.996072 0.997922
1.03158 1.03938 0.994705 0.997782
1.03028 1.03673 0.996152 0.997616
1.03102 1.03995 0.993624 0.997776
1.03327 1.04253 0.993194 0.997914
1.02049 1.03482 0.988032 0.998102
1.03367 1.04533 0.990845 0.99798
0.992401 1.01596 0.97929 0.997471
1.00902 1.02802 0.982842 0.998653
0.999604 1 1 0.999604
1.03021 1.03883 0.993938 0.997747
1.02147 1.03124 0.992699 0.99781
1.02352 1.0302 0.995539 0.997971
0.999021 1.00027 1.00082 0.997937
1.00364 1.00274 1.00402 0.996894
1.00656 1.00914 1.00045 0.996992
1.01776 1.02179 0.998065 0.997988
0.998122 1 1 0.998122
1.00683 1 1.00826 0.998588
1.00151 1 1.0033 0.998221
0.999894 1 1 0.999894
1.00025 1 1.0017 0.998554
0.999459 1 1 0.999459
0.998894 1 1 0.998894
0.99949 1 1 0.99949
1.03301 1.04401 0.991562 0.997885
0.999553 1 1 0.999553
0.99948 1 1 0.99948
0.99921 1 1 0.99921
1.01269 1.02992 0.985292 0.99795
1.019 1.02721 0.993836 0.998166
0.999934 1.00027 1.00179 0.997881
1.00411 1.00171 1.00556 0.996857
1.00423 1.0083 0.998245 0.997723
0.998978 1 1 0.998978
0.998968 1 1.0003 0.998668
1.00394 1 1.00551 0.998431
1.01756 1 1.01936 0.998236
0.99984 1 1.00153 0.998314
1.02293 1.03675 0.988688 0.997967
1.01085 1.03265 0.980787 0.998067
1.01161 1.01752 0.996262 0.99792
1.00083 1.00397 0.999335 0.997535
1.00318 1 1.00514 0.998049
0.999178 1 1 0.999178
0.999077 1 1 0.999077
0.99896 1 1 0.99896
0.998975 1 1.00024 0.998734
0.999664 1 1.00117 0.9985
1.0156 1 1.0174 0.998234
1.01706 1 1.01891 0.998181
0.999243 1 1.00042 0.998825
1.00074 1 1.00245 0.998296
1.02671 1.04109 0.988085 0.998079
1.02225 1.02701 0.997308 0.998051
1.00821 1.0109 1 0.997345
1.0004 1.00012 1.00268 0.997604
1.00442 1.00393 1.0036 0.996902
1.00021 1 1.00162 0.998595
1.0153 1.03003 0.987259 0.998421
0.999718 1.00031 1.00134 0.998077
1.00214 1.00071 1.00408 0.997364
1.0127 1.01783 0.99712 0.99783
1.00225 1.00256 1.00269 0.997006
1.00103 1.00715 0.996082 0.997836
1.00024 1 1.00182 0.998424
1.00634 1.01848 0.989658 0.998403
1.00008 1.00008 1.00194 0.998061
1.00418 1.00044 1.00636 0.997394
0.999431 1.00579 0.996164 0.997503
0.950182 0.981592 0.982851 0.984891
0.966823 0.984816 0.989051 0.992598
0.984029 0.997172 0.988362 0.998439
0.838975 0.892332 0.960473 0.978898
0.79123 0.885417 0.916901 0.974614
0.998965 1 1.00007 0.998894
0.999116 1 1.00032 0.998799
0.998801 1 1 0.998801
0.999415 1 1 0.999415
0.999096 1 1 0.999096
0.998965 1 1 0.998965
0.998905 1 1 0.998905
0.998818 1 1 0.998818
0.998933 1 1 0.998933
0.999367 1 1 0.999367
0.999058 1 1 0.999058
0.998819 1 1 0.998819
0.998844 1 1 0.998844
0.998851 1 1 0.998851
0.998934 1 1.0001 0.998834
0.998872 1 1 0.998872
0.999014 1 1 0.999014
0.999326 1 1 0.999326
0.999082 1 1 0.999082
0.999003 1 1 0.999003
0.999154 1 1 0.999154
0.999138 1 1 0.999138
0.999406 1 1 0.999406
0.999332 1 1 0.999332
0.999831 1 1 0.999831
0.999835 1 1 0.999835
1 1 1 1
0.999842 1 1 0.999842
1 1 1 1
1 1 1 1
1 1 1 1
1 1 1 1
1 1 1 1
0.999956 1 1 0.999956
0.999944 1 1 0.999944
1 1 1 1
0.999925 1 1 0.999925
1 1 1 1
1 1 1 1
1 1 1 1
1 1 1 1
1 1 1 1
1.03155 1.04073 0.993255 0.997911
1.03091 1.0398 0.993657 0.997775
1.02137 1.03442 0.989298 0.998068
0.995757 1.01577 0.982736 0.99752
1.03156 1.04332 0.990731 0.997978
1.01507 1.03031 0.986629 0.998562
1.02843 1.03565 0.99497 0.998047
0.956217 0.984326 0.979503 0.991772
1.00308 1.01935 0.986039 0.997971
0.999611 1 1 0.999611
0.999603 1 1 0.999603
0.99927 1 1 0.99927
0.999301 1 1 0.999301
1.03146 1.0443 0.98979 0.997893
1.01319 1.02896 0.9867 0.997952
1.01877 1.02711 0.993747 0.998119
0.998814 1.00014 1.00077 0.997902
1.00393 1.00167 1.00536 0.996911
1.00344 1.00721 0.998535 0.997717
1.00698 1 1.00864 0.998355
1.01357 1 1.01532 0.998274
0.99957 1 1.00123 0.998341
0.999479 1 1 0.999479
0.998949 1 1.00031 0.998638
0.999013 1 1 0.999013
0.999583 1 1 0.999583
0.99917 1 1 0.99917
1.0209 1.03614 0.987288 0.997981
0.999222 1 1 0.999222
0.999113 1 1 0.999113
0.999002 1 1 0.999002
1.01342 1.03475 0.981281 0.99807
1.01019 1.01662 0.995748 0.997918
1.00272 1 1.0047 0.998036
1.00145 1.00434 0.999561 0.997559
0.999025 1 1.0003 0.998726
0.999273 1 1.00081 0.998467
1.01843 1 1.02029 0.998176
1.01641 1 1.01823 0.998205
1.00748 1.03223 0.977907 0.99807
1.00393 1.02571 0.980697 0.998029
1.00478 1.00788 0.999289 0.997624
0.996845 1.00034 0.998309 0.998198
0.998858 1 1 0.998858
0.999175 1 1.00037 0.998809
1.00513 1 1.00659 0.998541
1.0297 1 1.03171 0.998051
0.929484 0.972248 0.971683 0.983876
1.00041 1 1.00178 0.998633
0.999196 1 1.00109 0.998103
1.0135 1.02938 0.986115 0.998436
1.01395 1.01868 0.997436 0.997916
1.00262 1.00234 1.0033 0.996991
1.00192 1.00009 1.00447 0.997374
1.00024 1.00704 0.995968 0.99726
1.00024 1 1.00179 0.998457
1.00672 1.0191 0.98945 0.998391
0.999565 1.00006 1.00144 0.998073
1.00382 1.00033 1.00611 0.997393
1.00109 1.00675 0.996846 0.997527
0.948987 0.984876 0.979185 0.984044
0.962129 0.982281 0.988705 0.990674
0.984546 0.995104 0.990914 0.998462
0.841229 0.89105 0.964375 0.978964
0.775441 0.874102 0.912263 0.972449
0.999575 1 1.00095 0.998628
0.865014 0.913066 0.967023 0.97968
0.834412 0.890832 0.959711 0.975987
0.985433 1.00713 0.980146 0.998279
1.00508 1.0003 1.00657 0.998218
1.01125 1.00337 1.01019 0.997687
0.977379 0.990488 0.988151 0.998597
0.945677 0.971554 0.989345 0.983849
0.947282 0.962794 0.993991 0.989837
0.817199 0.89239 0.934948 0.979458
0.847971 0.927345 0.936543 0.976365
0.999491 1 1.00067 0.998819
0.999133 1 1.00034 0.99879
0.999706 1 1.00068 0.999024
0.999391 1 1 0.999391
0.999072 1 1 0.999072
0.998912 1 1 0.998912
0.998851 1 1 0.998851
0.998817 1 1 0.998817
0.999327 1 1 0.999327
0.998845 1 1 0.998845
0.99889 1 1 0.99889
0.999039 1 1 0.999039
0.999009 1 1.00017 0.998835
0.99892 1 1.0001 0.998825
0.999545 1 1.00068 0.998863
0.998852 1 1 0.998852
0.999043 1 1 0.999043
0.999079 1 1 0.999079
0.998992 1 1 0.998992
0.99892 1 1 0.99892
0.99899 1 1 0.99899
0.99894 1 1 0.99894
0.99884 1 1 0.99884
0.999132 1 1 0.999132
0.999154 1 1 0.999154
0.999423 1 1 0.999423
0.999108 1 1 0.999108
0.999385 1 1 0.999385
0.999828 1 1 0.999828
0.99933 1 1 0.99933
0.999831 1 1 0.999831
1 1 1 1
0.999835 1 1 0.999835
1 1 1 1
1 1 1 1
1 1 1 1
1 1 1 1
1 1 1 1
0.999586 1 1 0.999586
0.999956 1 1 0.999956
0.999954 1 1 0.999954
1 1 1 1
0.999941 1 1 0.999941
1 1 1 1
1 1 1 1
1 1 1 1
1 1 1 1
1 1 1 1
0.998116 1.01579 0.98499 0.997573
1.03 1.04138 0.991079 0.997976
1.01989 1.03273 0.989084 0.99847
0.951448 0.979177 0.978828 0.992699
1.00325 1.01907 0.986381 0.998073
1.03027 1.03865 0.993912 0.998008
1.01601 1.0244 0.993935 0.997862
0.963142 0.981553 0.987698 0.993465
0.95067 0.979658 0.986865 0.983326
0.82155 0.885585 0.947944 0.978636
0.772205 0.857937 0.923982 0.974123
0.999258 1 1 0.999258
0.99961 1 1 0.99961
0.999602 1 1 0.999602
0.999258 1 1 0.999258
0.999047 1 1 0.999047
0.999081 1 1 0.999081
0.999244 1 1 0.999244
0.999277 1 1 0.999277
1.01922 1.03595 0.985828 0.997995
1.01694 1.03779 0.981799 0.998073
1.00905 1.01581 0.995418 0.997916
1.00303 1.00008 1.00493 0.998023
1.00211 1.00442 1.00011 0.997584
1.01963 1 1.02149 0.998172
1.01776 1 1.01962 0.998177
0.999045 1 1.00061 0.998434
0.99915 1 1 0.99915
0.999012 1 1.0003 0.998717
0.999267 1 1 0.999267
0.999043 1 1 0.999043
1.00861 1.03248 0.978785 0.998057
0.998884 1 1 0.998884
0.999022 1 1.00019 0.998829
1.00479 1.02516 0.982082 0.998007
1.00296 1.00745 0.997806 0.997734
0.998841 1.00065 1.00007 0.998124
1.00735 1 1.00888 0.998482
1.02658 1 1.02857 0.998063
1.00526 1.02644 0.981275 0.998051
0.986338 1.00786 0.980542 0.998065
0.993378 1.00057 0.994724 0.998077
1.00415 1.00025 1.00567 0.998251
0.999053 1 1.00039 0.998665
1.00299 1 1.00441 0.998593
1.02526 1 1.02703 0.99828
0.853405 0.918416 0.947885 0.980302
0.94357 0.976728 0.980139 0.985628
0.999883 1 1.0014 0.99849
0.999186 1.00004 1.00107 0.998085
1.00758 1.02003 0.989396 0.998381
1.00251 1.00759 0.997403 0.997551
1.00333 1.00024 1.00571 0.997393
0.945343 0.977522 0.983334 0.983471
0.965816 0.987406 0.986691 0.991328
0.985922 0.99374 0.993643 0.99848
0.835876 0.892214 0.956405 0.979561
0.762044 0.862578 0.91054 0.970247
0.999307 1 1.00068 0.998629
0.857915 0.91597 0.955655 0.980082
0.828083 0.884299 0.960438 0.975003
0.987221 1.00794 0.981136 0.998272
1.00471 1.00032 1.00617 0.998241
1.00997 1.00181 1.01035 0.997823
0.969058 0.985166 0.984934 0.998696
0.951589 0.980054 0.988242 0.982508
0.949371 0.96679 0.990201 0.9917
0.820667 0.886892 0.946041 0.978106
0.846182 0.92945 0.933138 0.975646
1.00105 1 1.00216 0.99889
0.862303 0.900521 0.979436 0.977665
0.929636 0.957593 0.987892 0.982704
0.989341 0.999889 0.990662 0.998777
1.01263 1.00191 1.01196 0.998757
0.9826 0.976221 1.00772 0.998826
0.931557 0.951449 0.986244 0.992749
0.934751 0.954707 0.99687 0.982172
0.83544 0.900462 0.948121 0.978556
0.876361 0.951692 0.940665 0.97893
0.999331 1 1.00055 0.998779
0.999384 1 1.00038 0.999001
1.00252 1 1.00332 0.999202
0.999328 1 1 0.999328
0.999065 1 1 0.999065
0.998907 1 1 0.998907
0.998839 1 1 0.998839
0.999135 1 1.0003 0.998836
0.999042 1 1 0.999042
0.99889 1 1.00006 0.998828
0.998853 1 1 0.998853
1.00052 1 1.00163 0.99889
1.01095 0.999976 1.01182 0.999161
0.999021 1 1.00023 0.998796
0.998827 1 1 0.998827
0.999076 1 1 0.999076
0.998981 1 1 0.998981
0.998917 1 1 0.998917
0.998986 1 1 0.998986
0.998955 1 1 0.998955
0.998936 1 1 0.998936
0.998884 1 1 0.998884
0.998941 1 1 0.998941
0.998726 1 1.00001 0.998712
0.999246 1 1.00093 0.998319
0.998801 1 1.00008 0.998717
0.998837 1 1 0.998837
0.999072 1 1 0.999072
0.99913 1 1 0.99913
0.999418 1 1 0.999418
0.999153 1 1 0.999153
0.999423 1 1 0.999423
0.999829 1 1 0.999829
0.999363 1 1 0.999363
0.999829 1 1 0.999829
1 1 1 1
0.999831 1 1 0.999831
1 1 1 1
1 1 1 1
1 1 1 1
1 1 1 1
1 1 1 1
0.999605 1 1 0.999605
0.999945 1 1 0.999945
0.999586 1 1 0.999586
1 1 1 1
0.999956 1 1 0.999956
0.999952 1 1 0.999952
1 1 1 1
1 1 1 1
1 1 1 1
1 1 1 1
1 1 1 1
0.85446 0.906464 0.962526 0.97933
0.837198 0.892288 0.960835 0.976505
0.953999 0.982711 0.977428 0.993201
1.00543 1.01871 0.988769 0.998177
1.03284 1.04146 0.99374 0.997969
0.954235 0.972467 0.986413 0.994768
1.01553 1.02396 0.993829 0.997927
0.955442 0.98567 0.98446 0.984634
0.835049 0.891865 0.956594 0.97878
0.764118 0.858259 0.916042 0.971912
0.981886 0.998043 0.987615 0.996148
0.948129 0.973634 0.989319 0.984318
0.810324 0.887207 0.932934 0.979
0.838015 0.918448 0.935801 0.975019
0.998953 1 1 0.998953
0.999279 1 1 0.999279
0.999609 1 1 0.999609
0.999245 1 1 0.999245
0.999081 1 1 0.999081
0.999191 1 1.00022 0.998969
0.999079 1 1 0.999079
0.999085 1 1 0.999085
0.999216 1 1 0.999216
0.999254 1 1 0.999254
1.00967 1.03222 0.980065 0.998046
1.00409 1.02343 0.983086 0.997988
1.00125 1.00725 0.996189 0.997845
1.00056 1.00097 1.00155 0.998049
1.02245 1 1.02442 0.998075
1.00972 1 1.01131 0.998423
0.998849 1 1 0.998849
0.99891 1 1 0.99891
1.0046 1.02676 0.980311 0.998069
0.999396 1 1.00075 0.998648
1.00294 1 1.00438 0.998561
0.986448 1.00643 0.98212 0.997985
0.992653 1.00042 0.994028 0.998194
1.00511 1.00079 1.00617 0.998151
1.02232 1 1.02411 0.998253
0.997326 1.00461 0.99438 0.998365
0.986153 1 0.987375 0.998762
1.01341 1.00043 1.01467 0.998331
1.00199 1 1.00337 0.998625
1.00148 1 1.003 0.998484
1.01518 1 1.01683 0.99837
0.871549 0.908392 0.978323 0.980701
0.862301 0.917423 0.959045 0.980054
0.935698 0.976327 0.974064 0.983904
0.999034 1 1.0004 0.99863
1.00433 1.00027 1.00581 0.998264
0.989841 1.0086 0.983102 0.998266
1.00882 1.00025 1.01063 0.997957
0.851071 0.910531 0.953815 0.979957
0.951981 0.978324 0.988583 0.984311
0.942323 0.965205 0.986238 0.989916
0.965025 0.980723 0.98518 0.998795
0.82101 0.887322 0.946156 0.977922
0.830389 0.889062 0.957967 0.974987
0.835758 0.922225 0.928571 0.975952
1.00172 1 1.00283 0.998895
0.863232 0.903957 0.975879 0.978551
0.935772 0.962646 0.989291 0.982606
0.991565 1.00009 0.992613 0.998858
1.01221 1.00058 1.0129 0.998734
0.980048 0.975186 1.00618 0.998814
0.932365 0.95384 0.986505 0.990857
0.93712 0.958994 0.993789 0.983299
0.848159 0.913557 0.948571 0.97875
0.864965 0.941663 0.938041 0.979223
1.00358 0.999757 1.00437 0.999458
0.933952 0.96264 0.984027 0.985947
0.916106 0.951307 0.976319 0.986356
1.00253 0.988862 1.01411 0.999715
0.951689 0.954526 1.00163 0.995402
0.942383 0.953971 1.00543 0.982518
0.884797 0.932308 0.969784 0.978609
0.883685 0.964938 0.935962 0.978453
0.999169 1 1.00019 0.998979
1.00154 1 1.00233 0.999205
1.01395 1 1.01457 0.999391
0.99904 1 1 0.99904
0.998854 1 1 0.998854
0.998831 1 1 0.998831
1.00103 1 1.00211 0.998918
0.998825 1 1 0.998825
0.999115 1 1.00032 0.998791
1.01317 1 1.01397 0.99921
1.02221 0.997874 1.02496 0.999446
1.01072 1 1.01164 0.99909
0.998783 1 1 0.998783
0.998914 1 1 0.998914
0.998982 1 1 0.998982
0.99897 1 1 0.99897
0.998895 1 1 0.998895
0.998935 1 1 0.998935
0.998948 1 1 0.998948
0.998879 1 1.00002 0.998859
0.999622 1 1.00054 0.99908
0.998749 1 1 0.998749
0.998749 1 1.00001 0.998739
0.999147 1 1.00069 0.998454
0.999403 1 1.00153 0.99788
0.999202 1 1.00058 0.998624
0.999206 1 1.00079 0.998415
0.998784 1 1.00004 0.998748
0.999014 1 1.00007 0.998941
0.998834 1 1 0.998834
0.999071 1 1 0.999071
0.999377 1 1 0.999377
0.999128 1 1 0.999128
0.999417 1 1 0.999417
0.999826 1 1 0.999826
0.999424 1 1 0.999424
0.999829 1 1 0.999829
1 1 1 1
0.999829 1 1 0.999829
1 1 1 1
1 1 1 1
1 1 1 1
1 1 1 1
1 1 1 1
0.999467 1 1 0.999467
0.999928 1 1 0.999928
0.999552 1 1 0.999552
1 1 1 1
0.999948 1 1 0.999948
0.999586 1 1 0.999586
1 1 1 1
1 1 1 1
0.999957 1 1 0.999957
1 1 1 1
1 1 1 1
1 1 1 1
0.864431 0.903215 0.977154 0.979437
0.858474 0.912883 0.960275 0.979302
0.933563 0.963762 0.985963 0.982456
0.82888 0.885497 0.959405 0.975669
0.951417 0.976419 0.981443 0.992818
1.01315 1.02362 0.991758 0.997995
0.96014 0.985553 0.98818 0.985868
0.837148 0.89503 0.9555 0.97889
0.759778 0.86159 0.909406 0.969679
0.978352 0.995357 0.987425 0.995433
0.946632 0.97385 0.989549 0.982318
0.822342 0.894655 0.940103 0.977736
0.837646 0.920911 0.933825 0.974041
0.96035 0.983353 0.982169 0.994337
0.946368 0.960124 1.00388 0.981867
0.847248 0.916662 0.945024 0.978044
0.871434 0.952195 0.936493 0.977246
0.999408 1 1.00063 0.998778
0.998985 1 1 0.998985
0.999301 1 1 0.999301
0.999115 1 1 0.999115
0.99878 1 1.00001 0.998774
0.998996 1 1 0.998993
0.999076 1 1 0.999076
0.999052 1 1 0.999052
0.999113 1 1 0.999113
0.999188 1 1 0.999188
1.00534 1.02792 0.979918 0.998085
0.988526 1.00593 0.984764 0.997907
0.9918 1.00022 0.993263 0.99831
1.0068 1.00134 1.00741 0.998054
1.01929 1 1.0211 0.998227
1.00254 1 1.00401 0.998529
0.99972 1 1.00109 0.998632
1.00127 1 1.00266 0.998616
0.993697 1.00545 0.989914 0.998377
1.00116 1 1.00268 0.99849
1.01485 1 1.01652 0.998364
0.984966 1.00026 0.986006 0.998685
1.01356 1.00096 1.01431 0.998305
0.966295 0.990138 0.977031 0.998862
1.00189 0.997431 1.00521 0.999258
1.02178 1 1.02327 0.998548
1.00045 1 1.00195 0.9985
1.00823 1 1.00987 0.998374
0.936055 0.959563 0.987728 0.987621
0.875632 0.908277 0.983024 0.980707
0.854229 0.912901 0.954793 0.980035
1.00238 1 1.00348 0.9989
1.01192 0.99938 1.01386 0.998709
0.991291 1 0.992348 0.998934
0.872314 0.909556 0.979292 0.979336
0.946026 0.958261 1.0054 0.981931
0.934108 0.954133 0.986758 0.992151
0.969865 0.971148 0.999904 0.998775
0.848951 0.913013 0.950146 0.978622
0.940813 0.966484 0.990762 0.982515
0.865712 0.942566 0.937864 0.979314
1.00318 0.999393 1.00435 0.999432
0.931125 0.96056 0.982318 0.986806
0.918135 0.953079 0.976653 0.986365
1.00401 0.991079 1.01349 0.999568
0.957155 0.958648 1.00345 0.99501
0.930724 0.951127 0.997262 0.981235
0.886753 0.9667 0.936685 0.979304
0.884794 0.932362 0.969731 0.978602
1.00435 0.992904 1.01182 0.999711
0.913828 0.947445 0.972559 0.991732
0.927686 0.964541 0.974327 0.987132
0.873229 0.953038 0.937524 0.977318
0.987765 0.974486 1.01487 0.998771
0.960389 0.96389 1.01332 0.983267
0.895686 0.932985 0.980627 0.978987
1.0012 1 1.002 0.999207
1.01304 1 1.01373 0.999325
1.01635 0.995928 1.02095 0.999566
0.998824 1 1 0.998824
0.999249 1 1.00046 0.998786
1.01686 1 1.01761 0.99926
0.998794 1 1 0.998794
1.01021 1 1.01112 0.999098
1.02409 0.997834 1.02691 0.999421
1.01086 0.99712 1.01429 0.999489
1.00672 1 1.00764 0.999091
0.998906 1 1 0.998906
0.998934 1 1 0.998934
0.998956 1 1 0.998956
0.999399 1 1.00034 0.999062
0.998874 1 1.00001 0.998867
0.999478 1 1.00048 0.999004
0.998891 1 1 0.998891
1.0008 1 1.00259 0.998216
0.998766 1 1 0.998766
0.998979 1 1.00057 0.998414
0.998716 1 1.00101 0.997706
0.999084 1 1.00129 0.997798
0.999956 1 1.00154 0.998419
0.999282 1 1.00138 0.997903
0.999466 1 1.00066 0.998809
0.999344 1 1.00075 0.998595
0.999155 1 1.00065 0.998511
0.99878 1 1 0.99878
0.999015 1 1.00004 0.998973
0.999306 1 1 0.999306
0.999069 1 1 0.999069
0.999377 1 1 0.999377
0.999809 1 1 0.999809
0.999416 1 1 0.999416
0.999824 1 1 0.999824
1 1 1 1
0.999829 1 1 0.999829
1 1 1 1
1 1 1 1
1 1 1 1
1 1 1 1
1 1 1 1
0.999305 1 1 0.999305
0.999815 1 1 0.999815
0.999465 1 1 0.999465
1 1 1 1
0.999895 1 1 0.999895
0.999499 1 1 0.999499
1 1 1 1
1 1 1 1
0.999951 1 1 0.999951
1 1 1 1
1 1 1 1
1 1 1 1
0.927202 0.958267 0.980611 0.986713
0.854061 0.901204 0.967514 0.979509
0.858201 0.909535 0.96367 0.979131
0.998953 1 1 0.998953
0.91844 0.948693 0.980482 0.987383
0.934527 0.964016 0.986794 0.982384
0.825879 0.888012 0.953055 0.975842
0.981713 0.9967 0.99035 0.994561
0.947875 0.972503 0.990509 0.984016
0.828601 0.906039 0.935552 0.977531
0.831608 0.913657 0.934342 0.974158
0.961758 0.983423 0.985781 0.992075
0.933328 0.954375 0.994576 0.98328
0.857773 0.920321 0.95296 0.978044
0.869734 0.947971 0.938997 0.977073
0.940342 0.961194 0.987978 0.99021
0.941289 0.949004 1.01076 0.981314
0.890924 0.939115 0.969627 0.978402
0.883645 0.963447 0.937381 0.978439
0.999446 1 1.00084 0.998604
0.999742 1 1.00099 0.998753
0.999018 1 1 0.999018
0.998774 1 1 0.998774
0.998925 1 1.00011 0.998814
0.999018 1 1 0.999018
0.99906 1 1 0.99906
0.999142 1 1 0.999142
0.98759 1.00552 0.983751 0.998387
0.98275 1.00015 0.983976 0.998609
1.00052 1 1.00192 0.998606
1.01405 1.00153 1.01425 0.998277
1.01566 1 1.01733 0.998357
1.00117 1 1.00268 0.998497
1.00072 1 1.00222 0.998509
0.970991 0.991883 0.980017 0.998898
1.00917 1 1.01078 0.998403
1.01841 1.00018 1.0197 0.998554
0.996934 0.997988 0.999651 0.999293
1.00028 1 1.00174 0.998546
0.961309 0.981244 0.980523 0.999144
1.00777 0.994811 1.01358 0.999454
1.03179 1 1.0332 0.998632
1.00205 1 1.00353 0.998526
0.926569 0.950126 0.982332 0.992747
0.935402 0.958772 0.987736 0.987739
0.880837 0.908326 0.988804 0.980715
1.0021 0.998941 1.00375 0.99941
1.00707 0.993604 1.01414 0.999425
0.9293 0.959369 0.980763 0.987657
0.950104 0.953052 1.01411 0.983038
0.951438 0.957042 1.00161 0.992543
0.889273 0.936316 0.971414 0.977706
0.919079 0.953823 0.976887 0.986372
0.890927 0.969605 0.937461 0.980153
1.00586 0.995156 1.01109 0.999671
0.91439 0.947618 0.972978 0.991734
0.925449 0.962644 0.972705 0.988338
0.996682 0.981142 1.01607 0.999776
0.870722 0.948804 0.939206 0.977108
0.948036 0.955111 1.01032 0.982449
0.906274 0.946219 0.979031 0.978299
1.00634 0.990957 1.01576 0.999771
0.928313 0.961806 0.972218 0.992758
0.919342 0.94981 0.980227 0.987447
0.837204 0.91916 0.934087 0.975109
0.890595 0.940613 0.968049 0.978073
0.970116 0.967267 1.00517 0.997789
0.963137 0.957704 1.02581 0.980367
1.01057 1 1.01132 0.999259
1.01566 0.995335 1.02089 0.999539
1.00387 0.984517 1.02008 0.999582
0.998806 1 1 0.998806
1.00916 1 1.01006 0.999106
1.02483 0.998522 1.02697 0.999396
1.00393 1 1.00485 0.999077
1.01111 0.997826 1.01383 0.999488
1.00761 0.996941 1.01146 0.999247
0.999044 1 1 0.999044
0.998875 1 1 0.998875
1.00031 1 1.00134 0.998976
1.00632 1 1.00787 0.99846
0.999031 1 1 0.999031
1.0003 1 1.00198 0.998325
1.00172 1 1.00413 0.997605
1.00081 1.0017 1.00188 0.997232
0.998777 1 1.0004 0.998373
0.998946 1.00025 1.00109 0.997602
0.998542 1.00013 1.00053 0.997889
1.0005 1 1.00232 0.998183
0.999108 1 1.00125 0.997857
1.00089 1 1.00223 0.99866
1.00003 1 1.00162 0.998411
0.999202 1 1.00128 0.997926
0.999182 1 1 0.999182
0.999514 1 1.00071 0.998806
0.999573 1 1.00101 0.998567
0.999004 1 1 0.999004
0.999304 1 1 0.999304
0.999773 1 1 0.999773
0.999376 1 1 0.999376
0.999807 1 1 0.999807
1 1 1 1
0.999823 1 1 0.999823
1 1 1 1
1 1 1 1
1 1 1 1
1 1 1 1
1 1 1 1
0.999237 1 1 0.999237
0.999735 1 1 0.999735
0.999335 1 1 0.999335
1 1 1 1
0.999808 1 1 0.999808
0.999463 1 1 0.999463
1 1 1 1
1 1 1 1
0.999862 1 1 0.999862
1 1 1 1
1 1 1 1
1 1 1 1
0.916218 0.948074 0.974372 0.991817
0.929024 0.958586 0.982222 0.986702
0.85406 0.902422 0.9661 0.979618
0.998971 1 1 0.998971
0.998919 1 1 0.998919
0.998815 1 1 0.998815
0.924628 0.963672 0.97206 0.987064
0.916112 0.948056 0.978635 0.987402
0.936499 0.964375 0.988579 0.982313
0.967961 0.985875 0.988026 0.993728
0.931072 0.954153 0.993848 0.98185
0.847814 0.908086 0.954033 0.978611
0.879968 0.954427 0.943979 0.9767
0.94306 0.962214 0.987806 0.992192
0.937871 0.948575 1.00668 0.982156
0.878299 0.92307 0.971358 0.979555
0.885489 0.965599 0.936448 0.97927
0.930884 0.951833 0.987031 0.99084
0.955688 0.959025 1.01412 0.982645
0.896887 0.931476 0.983344 0.979176
0.877186 0.95129 0.942038 0.978837
0.998592 1 1 0.998592
0.999726 1 1.00113 0.998595
0.999823 1 1.0011 0.998728
0.998769 1 1 0.998769
0.998854 1 1 0.998854
0.999068 1 1 0.999068
0.977877 0.994349 0.984493 0.998925
0.992595 0.998476 0.994783 0.999323
1.00092 1 1.00241 0.998517
1.01426 1.00034 1.01538 0.998559
1.0099 1 1.01149 0.998432
1.00009 1 1.00157 0.998521
1.00171 1 1.00317 0.998543
0.972338 0.983921 0.989031 0.999188
1.02747 1 1.02877 0.998739
1.00644 0.990258 1.01687 0.999479
1.00001 1 1.00135 0.998662
0.986545 0.973067 1.01454 0.999321
1.00148 0.987589 1.01455 0.999522
1.0226 1 1.02376 0.998861
0.943017 0.965761 0.982349 0.993995
0.926269 0.950328 0.981459 0.993096
0.935094 0.957875 0.98822 0.987854
1.00855 0.997723 1.01123 0.999632
0.990898 0.982405 1.00946 0.999192
0.915347 0.948138 0.973461 0.991735
0.947135 0.948377 1.01284 0.986029
0.904505 0.943227 0.979607 0.978909
0.924308 0.961069 0.971913 0.989544
0.880961 0.954944 0.944464 0.976772
1.00409 0.990116 1.01433 0.999788
0.929167 0.962095 0.972454 0.993132
0.917571 0.949357 0.978785 0.987467
0.969373 0.964313 1.01036 0.994941
0.836395 0.920904 0.93231 0.974175
0.875691 0.925405 0.966365 0.979215
0.971237 0.962156 1.02743 0.982488
1.00092 0.972074 1.03014 0.999545
0.916957 0.948592 0.97455 0.991894
0.935138 0.965394 0.985817 0.982595
0.770305 0.856084 0.923456 0.974384
0.848051 0.917685 0.944845 0.978065
0.954786 0.957883 1.01477 0.982264
0.948112 0.959605 0.99473 0.993258
1.01533 0.994559 1.02138 0.999511
1.00724 0.989015 1.01885 0.999586
1.01664 0.994441 1.02281 0.999529
1.00117 1 1.00211 0.999063
1.01179 0.997886 1.01446 0.999487
1.00918 0.996745 1.01316 0.999325
1.01463 1 1.01583 0.998817
1.00126 1 1.00232 0.998948
1.0066 1 1.00827 0.998352
1.01491 1 1.01743 0.997523
0.999879 1 1.00145 0.998435
1.00311 1.00048 1.00509 0.997562
1.00482 1.00199 1.00596 0.996885
1.00328 1.00457 1.00191 0.996814
0.999089 1.00047 1.00108 0.997548
1.00073 1.00166 1.00189 0.997191
0.999198 1.00046 1.00124 0.997498
0.99918 1 1.0011 0.998085
0.998545 1.00009 1.00048 0.997981
1.00111 1 1.00272 0.998389
1.00058 1 1.00237 0.998223
0.999084 1 1.00117 0.997916
1.0002 1 1.00123 0.998972
1.00047 1 1.00181 0.998663
0.999986 1 1.00159 0.998402
0.999707 1 1 0.999707
0.999192 1 1.00001 0.99918
0.999469 1 1.00067 0.998802
0.999302 1 1 0.999302
0.999769 1 1 0.999769
1 1 1 1
0.999804 1 1 0.999804
1 1 1 1
1 1 1 1
1 1 1 1
1 1 1 1
1 1 1 1
0.999225 1 1 0.999225
0.999739 1 1 0.999739
0.999256 1 1 0.999256
1 1 1 1
0.999768 1 1 0.999768
0.999365 1 1 0.999365
1 1 1 1
1 1 1 1
0.9998 1 1 0.9998
1 1 1 1
1 1 1 1
1 1 1 1
0.927867 0.961192 0.972419 0.992709
0.916496 0.948504 0.974222 0.991822
0.928974 0.958789 0.981959 0.986705
0.99889 1 1 0.99889
0.998768 1 1 0.998768
0.998989 1 1 0.998989
0.998916 1 1 0.998916
0.998796 1 1 0.998796
0.998801 1 1 0.998801
0.998701 1 1 0.998701
0.913494 0.950881 0.974083 0.986242
0.924328 0.961558 0.972683 0.988278
0.913439 0.947209 0.976632 0.987423
0.887867 0.968173 0.935672 0.980103
0.931982 0.952622 0.987786 0.990431
0.940112 0.948857 1.00778 0.983135
0.883026 0.925674 0.974615 0.978773
0.92588 0.951312 0.982994 0.990104
0.946706 0.950858 1.0145 0.981399
0.90857 0.94742 0.979772 0.978794
0.864436 0.941248 0.937961 0.979138
0.931845 0.953126 0.985491 0.992065
0.954473 0.95733 1.01632 0.981003
0.887406 0.934534 0.970131 0.978807
0.845594 0.92593 0.935592 0.976106
1.00062 1 1.00192 0.998698
0.998709 1 1.00012 0.998594
1.00018 1 1.00159 0.998587
0.998764 1 1 0.998764
0.980129 0.985419 0.995389 0.999239
1.00417 0.98659 1.01833 0.999503
0.998551 1 1.00005 0.998496
1.00145 1 1.00289 0.998559
1.02283 1 1.02401 0.998846
0.999471 1 1.00082 0.998654
1.02312 0.99959 1.02472 0.998847
0.982743 0.971583 1.01291 0.998592
1.00434 0.986486 1.01848 0.999633
1.01063 0.99867 1.01303 0.998963
0.987308 0.969641 1.01982 0.998428
1.02063 0.992482 1.02908 0.999296
0.92716 0.95025 0.982788 0.992788
0.938837 0.963976 0.979391 0.994416
0.925706 0.950529 0.980312 0.993444
1.00069 0.98817 1.01287 0.999805
0.973015 0.966523 1.00878 0.99795
0.929095 0.961751 0.972357 0.993509
0.966069 0.961719 1.02425 0.98074
0.878791 0.925773 0.970221 0.978387
0.915124 0.948881 0.976644 0.987488
0.831329 0.913623 0.933932 0.974294
1.00581 0.975782 1.03114 0.999637
0.916767 0.94902 0.973902 0.9919
0.935815 0.965327 0.986674 0.982521
0.95031 0.959231 0.995211 0.995466
0.763939 0.857358 0.916515 0.972203
0.854879 0.918807 0.95141 0.977941
0.952378 0.952866 1.01802 0.981795
1.00005 0.978256 1.02351 0.998793
0.92872 0.959391 0.980901 0.986879
0.837697 0.892343 0.961078 0.97678
0.813378 0.888422 0.934908 0.979275
0.938643 0.945797 1.00997 0.982638
0.928636 0.950899 0.985448 0.991009
1.01052 0.993076 1.01799 0.99959
1.01729 0.992908 1.02505 0.999522
1.00771 0.997026 1.01136 0.999357
1.01099 0.99679 1.01485 0.999402
1.01369 0.998089 1.01676 0.998894
1.00741 1.0008 1.00862 0.998
1.00709 1 1.00886 0.998243
1.01399 1 1.01656 0.997471
1.00896 1.00017 1.01194 0.996881
1.00458 1.00103 1.00604 0.99752
1.00501 1.00168 1.00653 0.99681
1.00304 1.00209 1.00437 0.996587
1.00607 1.00924 1 0.996862
1.00552 1.00776 1.00077 0.997017
1.00382 1.00489 1.00218 0.996762
0.998905 1.00099 1.00013 0.997788
0.998823 1.00048 1.00074 0.997605
1.00069 1.00165 1.0019 0.997151
0.999221 1 1.00112 0.998107
0.999263 1.00011 1.00108 0.998077
0.998498 1 1.00043 0.998073
1.00123 1 1.00254 0.998692
1.00104 1 1.00261 0.998433
1.00069 1 1.00243 0.998264
0.999557 1 1 0.999557
0.99994 1 1.00097 0.998974
1.0002 1 1.00154 0.998665
0.999999 1 1 0.999999
0.9997 1 1 0.9997
0.99926 1 1.00008 0.999178
0.999765 1 1 0.999765
1 1 1 1
1 1 1 1
1 1 1 1
1 1 1 1
1 1 1 1
0.998882 1 1 0.998882
0.999163 1 1 0.999163
0.99968 1 1 0.99968
0.999223 1 1 0.999223
0.999999 1 1 0.999999
0.999742 1 1 0.999742
0.999276 1 1 0.999276
1 1 1 1
1 1 1 1
0.999801 1 1 0.999801
1 1 1 1
1 1 1 1
1 1 1 1
0.913128 0.947487 0.971808 0.991694
0.92833 0.96156 0.97216 0.993089
0.916991 0.949058 0.974176 0.991825
0.9989 1 1 0.9989
0.998755 1 1 0.998755
0.998702 1 1 0.998702
0.998756 1 1 0.998756
0.99959 1 1.00092 0.998667
0.998912 1 1 0.998912
0.998778 1 1 0.998778
0.998801 1 1 0.998801
0.998703 1 1 0.998703
1.00016 1 1.00142 0.998749
0.927976 0.956245 0.987738 0.982485
0.916956 0.952766 0.97582 0.986263
0.925064 0.96034 0.973498 0.98949
0.863712 0.942076 0.936251 0.979244
0.905533 0.941776 0.982016 0.979124
0.918201 0.947135 0.98013 0.989105
0.955007 0.958521 1.01417 0.982412
0.932583 0.955475 0.986025 0.989876
0.965657 0.966338 1.01727 0.982334
0.887402 0.933512 0.970928 0.97907
0.845548 0.928818 0.933376 0.975329
0.952355 0.961611 0.998953 0.991412
0.955955 0.958598 1.01467 0.982825
0.83415 0.900518 0.946823 0.978324
0.794007 0.886766 0.919292 0.974006
1.0028 1 1.00367 0.999129
1.00215 1 1.00346 0.998697
0.999506 1 1.00091 0.998596
0.981757 0.971027 1.01323 0.997848
1.00722 0.984732 1.0231 0.999748
0.999803 1 1.00116 0.998647
1.02437 0.99935 1.02624 0.998833
1.01195 0.99944 1.01356 0.99897
1.02183 0.994616 1.0281 0.999285
0.984 0.966868 1.01929 0.99846
1.01714 0.998379 1.01946 0.999345
0.990529 0.97721 1.01535 0.998304
0.93792 0.961455 0.987873 0.987496
0.92687 0.950419 0.981967 0.993131
0.934621 0.962255 0.976324 0.994837
1.01127 0.98022 1.03197 0.999719
0.949914 0.960881 0.99636 0.992198
0.917449 0.949412 0.974221 0.991904
0.954772 0.959967 1.01461 0.980262
0.846525 0.906693 0.954118 0.978537
0.936965 0.965273 0.988013 0.982451
0.761285 0.861809 0.910677 0.970001
0.999271 0.976888 1.02402 0.998918
0.930386 0.9598 0.982252 0.986869
0.829813 0.88641 0.959222 0.975948
0.931218 0.954325 0.983518 0.992139
0.824533 0.895239 0.94175 0.977988
0.926466 0.943788 1.00032 0.981332
0.973179 0.975371 0.99985 0.997903
0.864886 0.904157 0.976377 0.97971
0.823667 0.886226 0.949405 0.978939
0.945493 0.960512 1.00247 0.981941
0.92379 0.949441 0.980239 0.992598
1.01705 0.991476 1.02629 0.999515
1.00946 0.995517 1.01469 0.999329
0.997138 1.001 0.997483 0.998651
1.01236 0.995818 1.01766 0.998971
1.0073 1.00093 1.00828 0.998096
1.00101 1.00198 1.00152 0.99751
1.01277 1 1.01539 0.997418
1.00734 1.00032 1.01016 0.996896
0.999546 1.00147 1.00108 0.996995
1.00487 1.00134 1.00682 0.996735
1.00323 1.00301 1.00362 0.99661
1.0066 1.0096 1 0.997026
1.01739 1.02022 1 0.997225
1.01094 1.01406 1.00002 0.996904
1.0056 1.00875 1 0.996881
1.00308 1.0058 1 0.997296
1.00379 1.00576 1.00107 0.99697
1.00439 1.00526 1.00244 0.996709
0.998367 1.00043 1 0.997943
0.998594 1.00072 1.00002 0.997855
0.998498 1.00052 1.00032 0.997662
0.999829 1 1.00141 0.998424
0.999419 1 1.00129 0.998135
0.999416 1.00026 1.0011 0.998068
0.999975 1 1.00069 0.999281
1.00096 1 1.00227 0.998694
1.00092 1 1.00245 0.998476
0.999992 1 1 0.999992
0.999637 1 1.00009 0.99955
0.999657 1 1.00068 0.998975
1 1 1 1
0.999998 1 1 0.999998
0.999694 1 1 0.999694
1 1 1 1
1 1 1 1
1 1 1 1
0.998828 1 1.00003 0.998796
0.999093 1 1 0.999093
0.998869 1 1 0.998869
0.99963 1 1 0.99963
0.999162 1 1 0.999162
0.999994 1 1 0.999994
0.999682 1 1 0.999682
0.999221 1 1 0.999221
1 1 1 1
1 1 1 1
0.999746 1 1 0.999746
1 1 1 1
1 1 1 1
1 1 1 1
0.932317 0.963061 0.980052 0.987781
0.913574 0.947518 0.972245 0.9917
0.928324 0.961205 0.97214 0.993471
0.998709 1 1 0.998709
0.998911 1 1 0.998911
0.998741 1 1 0.998741
0.99877 1 1 0.99877
0.99872 1 1 0.99872
0.999253 1 1.00058 0.998677
1.00107 1 1.00252 0.998552
1.00124 1 1.0026 0.998645
0.998802 1 1 0.998802
0.998704 1 1 0.998704
1.00028 1 1.00154 0.998739
1.00163 1 1.00273 0.998904
0.835035 0.89206 0.95946 0.975627
0.934472 0.961932 0.98887 0.982387
0.918588 0.952802 0.9775 0.986282
0.837647 0.92326 0.929924 0.97564
0.893983 0.940635 0.971312 0.978474
0.955884 0.95806 1.01699 0.981058
0.937653 0.955885 0.9902 0.990635
0.951235 0.958524 0.99921 0.99318
0.777913 0.875319 0.914406 0.97191
0.950717 0.953783 1.0159 0.981185
0.845581 0.912853 0.946733 0.978424
0.942635 0.95735 0.99093 0.993642
0.943474 0.951015 1.00869 0.983522
0.817437 0.893009 0.935503 0.978482
1.00055 1 1.00096 0.999581
1.00253 1 1.0034 0.999133
1.00329 1 1.0046 0.998695
0.980504 0.963989 1.01867 0.998495
1.02398 0.997848 1.02693 0.999274
1.01308 0.99999 1.01413 0.998977
1.01681 0.99933 1.01816 0.999344
0.990744 0.97911 1.01355 0.998356
0.999292 0.991266 1.00928 0.998824
0.873722 0.909338 0.981535 0.978909
0.935903 0.960118 0.985948 0.988672
0.92608 0.950483 0.980726 0.993474
0.99948 0.975286 1.02581 0.999027
0.926012 0.953298 0.978312 0.992912
0.930101 0.960106 0.981639 0.986868
0.934968 0.943608 1.00801 0.982965
0.83237 0.907658 0.937851 0.977824
0.826002 0.888176 0.952739 0.97613
0.975128 0.975877 1.00127 0.997964
0.85466 0.901881 0.967204 0.979775
0.8378 0.892904 0.958299 0.979117
0.926514 0.950165 0.984657 0.990302
0.934151 0.957484 0.992211 0.98329
0.964546 0.985466 0.979844 0.998906
0.85409 0.906581 0.961745 0.979575
0.950327 0.976173 0.989274 0.984079
0.938645 0.962748 0.984717 0.990097
1.01211 0.994657 1.01826 0.999301
0.990806 1.00013 0.991908 0.998756
0.986982 1.00268 0.98618 0.998136
1.00769 1.00108 1.00843 0.998191
1.0028 1.00241 1.0029 0.9975
1.00042 1.00336 0.999428 0.997648
1.00607 1.0005 1.00868 0.996911
0.999586 1.00113 1.00145 0.997008
1.01244 1.0149 1 0.997582
1.00362 1.00395 1.00305 0.996632
1.0061 1.00909 1 0.997034
1.01692 1.01931 1 0.997649
1.02257 1.02498 1 0.997649
1.01965 1.02256 1 0.997156
1.01679 1.01958 1 0.997255
1.01027 1.01319 1 0.997117
1.01008 1.01317 1 0.996947
1.00497 1.0081 1 0.996899
1.00116 1.0035 1 0.997667
1.00299 1.00555 1.00014 0.99732
1.00216 1.00377 1.00148 0.996923
0.998205 1 1 0.998205
0.999 1.00107 1 0.997937
0.998158 1.00024 1 0.997921
0.999759 1 1.00079 0.99897
0.999704 1 1.00128 0.998426
0.999621 1.00002 1.00145 0.998162
0.99996 1 1 0.99996
0.999978 1 1.0007 0.999278
1.00056 1 1.00187 0.998696
1 1 1 1
0.999986 1 1 0.999986
0.999693 1 1.00015 0.999543
1 1 1 1
0.999996 1 1 0.999996
1 1 1 1
0.998765 1 1.00001 0.998756
0.998868 1 1.00007 0.998795
0.999001 1 1 0.999001
0.999581 1 1 0.999581
0.999093 1 1 0.999093
0.998855 1 1 0.998855
0.999985 1 1 0.999985
0.999632 1 1 0.999632
0.999161 1 1 0.999161
1 1 1 1
0.999996 1 1 0.999996
0.999685 1 1 0.999685
1 1 1 1
1 1 1 1
1 1 1 1
0.86078 0.899418 0.978778 0.977791
0.930281 0.960821 0.980187 0.987786
0.914693 0.948193 0.972739 0.991705
0.998878 1 1.00019 0.998693
0.998938 1 1.00032 0.998623
1.00016 1 1.00156 0.998601
0.998783 1 1 0.998783
0.998737 1 1 0.998737
0.999418 1 1.00073 0.998688
1.00117 1 1.00254 0.998639
1.00093 1 1.00238 0.998558
1.0017 1 1.00324 0.998467
0.998151 1 0.999112 0.999037
0.999947 1 1.00122 0.99873
1.00095 1 1.00207 0.998881
0.833694 0.88927 0.958229 0.978372
0.827512 0.884114 0.960357 0.974615
0.940507 0.966861 0.99027 0.982301
0.763001 0.862081 0.912645 0.969785
0.846573 0.910772 0.950102 0.978329
0.949693 0.955253 1.01085 0.983508
0.95323 0.957315 1.00466 0.991119
0.941163 0.956905 0.991627 0.991854
0.819327 0.885849 0.946167 0.977529
0.932755 0.946232 1.00301 0.982803
0.935375 0.958939 0.982757 0.992542
0.931755 0.958932 0.989141 0.982327
1.00701 1 1.00799 0.999034
1.00018 1 1.00067 0.999518
1.00192 1 1.00278 0.999136
0.989943 0.979701 1.01207 0.998401
1.01614 1 1.01681 0.999344
0.999641 0.992088 1.0089 0.998726
0.990593 0.995442 0.997176 0.997947
0.853733 0.919758 0.946816 0.980354
0.877333 0.909457 0.984613 0.979753
0.934769 0.958955 0.984786 0.989838
0.975654 0.978765 0.998754 0.998066
0.925919 0.949855 0.983618 0.991035
0.854726 0.903104 0.965869 0.979875
0.930628 0.954188 0.993203 0.981984
0.842477 0.899103 0.956923 0.979199
0.968374 0.985773 0.984 0.998323
0.859409 0.913714 0.960217 0.979536
0.949838 0.977099 0.9896 0.982316
0.94584 0.965224 0.987794 0.992027
0.977076 0.993259 0.984938 0.998751
0.953253 0.982113 0.987149 0.98325
0.958604 0.983483 0.981221 0.993357
0.98469 0.999051 0.986753 0.998857
0.986933 1.00357 0.985279 0.998113
0.98383 1.00692 0.979014 0.998017
1.00383 1.00278 1.00356 0.997491
0.999754 1.00347 0.998648 0.997643
1.01645 1.02158 0.996851 0.99812
0.999444 1.00071 1.00172 0.997021
1.01237 1.01486 0.999971 0.99757
1.02201 1.02448 0.999493 0.998096
1.00545 1.00843 1 0.997042
1.0163 1.0187 1 0.997648
1.023 1.02502 1 0.998028
1.02044 1.02257 1 0.99791
1.02311 1.02547 1 0.997698
1.02245 1.02498 1 0.997532
1.01895 1.02178 1 0.997234
1.02018 1.02308 1 0.997163
1.01628 1.01905 1 0.997284
1.00708 1.00972 1 0.997389
1.01097 1.01386 1 0.997152
1.00923 1.01228 1 0.996991
0.998588 1.00061 1 0.99798
1.00181 1.00416 1 0.99766
1.00307 1.00557 1.00017 0.997344
0.998782 1 1.00004 0.998745
0.998244 1.00004 1 0.998204
0.99971 1.00178 1 0.997932
0.999864 1 1 0.999864
0.999578 1 1.00061 0.99897
0.999667 1 1.00124 0.998427
1 1 1 1
0.999942 1 1 0.999942
0.999933 1 1.00066 0.999274
1 1 1 1
0.99998 1 1 0.99998
1 1 1 1
0.998691 1 1 0.998691
0.998811 1 1.00006 0.99875
0.998908 1 1.00001 0.998902
0.998885 1 1.00009 0.998794
0.999001 1 1 0.999001
0.999507 1 1 0.999507
0.999977 1 1 0.999977
0.999583 1 1 0.999583
0.999093 1 1 0.999093
1 1 1 1
0.999988 1 1 0.999988
0.999635 1 1 0.999635
1 1 1 1
0.999998 1 1 0.999998
1 1 1 1
0.861522 0.910325 0.966068 0.979629
0.863761 0.904034 0.977351 0.977593
0.928636 0.959132 0.980175 0.987788
0.998875 1 1.0002 0.998677
1.00035 1 1.0018 0.998549
0.998731 1 1.00006 0.998667
0.998292 1 1 0.998292
1.00002 1 1.0015 0.998522
1.00116 1 1.00253 0.998633
1.00045 1 1.00189 0.998565
1.00157 1 1.00307 0.998503
0.998335 1 1 0.998335
0.996659 1.00053 0.997298 0.998828
0.998573 1.00034 1.00026 0.997975
0.999276 1 1.00019 0.99909
1.00056 1 1.0017 0.998857
0.944827 0.975201 0.985963 0.982646
0.83637 0.887655 0.96283 0.978598
0.828246 0.886966 0.958128 0.974606
0.81716 0.886792 0.942954 0.977226
0.938767 0.95039 1.00655 0.981343
0.944212 0.954921 0.994978 0.993777
0.93668 0.957692 0.984178 0.993784
0.938669 0.960558 0.993121 0.98398
0.960712 0.983815 0.983597 0.992802
1.00023 1.00132 1.00068 0.998231
1.00566 1 1.00666 0.999011
0.99971 1 1.00026 0.999454
1.00058 0.993939 1.00804 0.998648
0.996296 0.999505 0.998903 0.997884
0.931483 0.973098 0.972916 0.983882
0.86311 0.91888 0.958297 0.980184
0.882071 0.909812 0.988678 0.980611
0.972037 0.987124 0.986972 0.997714
0.941549 0.961284 0.989148 0.990215
0.860356 0.911254 0.964067 0.979335
0.948551 0.973246 0.990637 0.983838
0.978222 0.993215 0.986106 0.998782
0.956678 0.986575 0.98503 0.984434
0.959228 0.983148 0.984101 0.991433
0.996399 1.00469 0.993536 0.998202
0.976556 0.995664 0.985335 0.995407
0.987326 1.00462 0.984659 0.998097
0.985254 1.00635 0.981035 0.997968
1.00524 1.02793 0.979723 0.998169
0.999332 1.00358 0.998123 0.997638
1.01602 1.02127 0.996744 0.998105
1.02371 1.03227 0.993371 0.998324
1.01234 1.01491 0.99991 0.997559
1.0217 1.02462 0.999065 0.998079
1.02059 1.02438 0.998056 0.998236
1.01584 1.01824 1 0.997647
1.02327 1.02539 0.999924 0.998011
1.02203 1.02401 1 0.998065
1.02106 1.02315 1 0.997956
1.02025 1.02256 1 0.997743
1.02361 1.02592 1 0.997748
1.02236 1.0249 1 0.997525
1.02183 1.02448 1 0.997413
1.0142 1.0169 1 0.997342
1.01881 1.02165 1 0.997224
1.02066 1.02356 1 0.997169
1.00105 1.00329 1 0.997773
1.00672 1.00934 1 0.99741
1.01162 1.01448 1 0.997187
0.998568 1 1 0.998568
0.999242 1.00127 1 0.997975
1.00214 1.00449 1 0.997653
0.999717 1 1 0.999717
0.998749 1 1 0.998746
0.998325 1.00012 1 0.998202
1 1 1 1
0.999841 1 1 0.999841
0.999441 1 1.00047 0.998971
1 1 1 1
0.999923 1 1 0.999923
1 1 1 1
0.999051 1.00075 1 0.998306
0.998689 1 1 0.998689
0.998793 1 1.00003 0.998763
0.998881 1 1.00014 0.998744
0.998894 1 1.00001 0.998881
0.999374 1 1 0.999374
0.999001 1 1 0.999001
0.999509 1 1 0.999509
0.999968 1 1 0.999968
1 1 1 1
0.99998 1 1 0.99998
0.999585 1 1 0.999585
1 1 1 1
0.99999 1 1 0.99999
1 1 1 1
0.952365 0.982814 0.983924 0.984851
0.854605 0.912878 0.955159 0.980115
0.874324 0.910094 0.983027 0.977284
1.00073 1 1.00224 0.998497
0.998712 1 1 0.998712
0.999925 1 1.0014 0.998528
0.998427 1.00012 1 0.998312
1.00226 1.00435 1.00002 0.997898
0.998379 1 1 0.998379
1.00158 1 1.00305 0.998539
0.998219 1 1 0.998219
0.997908 1.00026 0.998853 0.998796
0.998588 1.00041 1 0.998174
0.998705 1.00285 0.997709 0.998153
0.998005 1.00129 0.999135 0.997584
0.998207 1.00082 0.999288 0.998104
1.00059 1 1.00145 0.999142
0.959315 0.985544 0.980282 0.992966
0.947695 0.976614 0.986797 0.983372
0.831777 0.888545 0.956065 0.979129
0.951324 0.967131 1.00169 0.981991
0.936766 0.956522 0.984606 0.994658
0.964638 0.984428 0.984704 0.995119
0.993027 1.00377 0.991156 0.998128
0.998078 1.00067 0.999139 0.998271
1.00461 1 1.00563 0.998989
0.996409 1.00112 0.997485 0.997803
0.962187 0.980408 0.988331 0.993002
0.944307 0.977253 0.980408 0.985596
0.853615 0.913501 0.953391 0.980126
0.980409 0.99391 0.987593 0.99881
0.963487 0.985492 0.984727 0.992834
0.960686 0.986423 0.988117 0.985621
0.990079 1.00376 0.988136 0.998217
0.974008 0.993197 0.985854 0.994751
0.995754 1.02387 0.97449 0.997996
1.00539 1.0154 0.992552 0.997566
0.986283 1.00565 0.982786 0.997915
1.0047 1.02711 0.979982 0.998161
1.00885 1.03642 0.975146 0.998208
1.0158 1.02132 0.996493 0.998091
1.02343 1.03214 0.993241 0.998309
1.01612 1.02596 0.99221 0.998182
1.02135 1.02471 0.998657 0.998061
1.01992 1.02389 0.997902 0.99822
1.02243 1.02632 0.998173 0.998032
1.02349 1.02572 0.999836 0.997994
1.02124 1.02332 0.999909 0.99806
1.02055 1.0228 1 0.997798
1.0217 1.02374 1 0.998001
1.02025 1.02252 1 0.997781
1.02193 1.02447 1 0.997517
1.02233 1.02488 1 0.997518
1.02175 1.02441 1 0.997404
1.01772 1.02033 1 0.997437
1.00457 1.00696 1 0.997624
1.01383 1.01651 1 0.99736
1.01864 1.02148 1 0.997215
0.998439 1.00005 1 0.998392
1.002 1.00423 1 0.997774
1.00662 1.00921 1 0.99743
0.999563 1 1 0.999563
0.998567 1 1 0.998567
0.999882 1.00192 1 0.997971
1 1 1 1
0.999701 1 1 0.999701
0.998746 1 1 0.998746
1 1 1 1
0.999818 1 1 0.999818
1 1 1 1
1.00143 1.00348 1 0.997957
0.998704 1.00039 1 0.998319
0.998503 1 1 0.998503
0.998688 1 1 0.998688
0.998743 1 1 0.99874
0.999188 1 1 0.999188
0.99886 1 1 0.99886
0.999376 1 1 0.999376
0.999948 1 1 0.999948
0.999512 1 1 0.999512
0.999971 1 1 0.999971
1 1 1 1
1 1 1 1
0.999982 1 1 0.999982
1 1 1 1
0.960398 0.984026 0.982492 0.99338
0.948162 0.983409 0.98028 0.983553
0.848074 0.908126 0.953001 0.979929
1.00849 1.01088 1.00007 0.997575
0.999662 1 1.00113 0.998533
0.998586 1.00025 1 0.998332
0.998345 1 1 0.998345
1.00191 1.00391 1.00012 0.997887
1.0004 1.00217 1 0.998228
0.998103 1 1 0.998103
0.999027 1.00003 1.00023 0.998763
0.998682 1.00064 0.999828 0.998212
0.997061 1.00189 0.997059 0.998119
1.00135 1.00384 1 0.997519
1.00279 1.00586 0.999391 0.997557
0.999039 1.00195 0.999552 0.997537
0.997963 1.00134 0.998396 0.998232
0.993975 1.00618 0.989222 0.998631
0.958092 0.985835 0.979664 0.992032
0.951368 0.978111 0.988054 0.984419
0.958143 0.98039 0.983742 0.99346
0.996884 1.00582 0.992585 0.998524
0.99895 1.0002 1.00044 0.998308
0.996199 1.00668 0.991965 0.997602
0.95674 0.972711 0.989228 0.994291
0.935877 0.976273 0.974227 0.983982
0.983338 1.0021 0.983017 0.998228
0.978168 0.994565 0.989526 0.993924
0.997471 1.02491 0.975134 0.99804
1.00432 1.0141 0.992625 0.997715
1.00471 1.03215 0.975358 0.998012
1.02506 1.03107 0.996259 0.997911
1.00399 1.02593 0.98042 0.998154
1.01149 1.03763 0.976564 0.998204
1.00913 1.03112 0.980591 0.998044
1.02279 1.03161 0.993137 0.998294
1.01636 1.026 0.992406 0.998179
1.0214 1.02849 0.995178 0.997921
1.01928 1.02339 0.997776 0.998204
1.02223 1.02587 0.998403 0.998045
1.02305 1.0255 0.999877 0.997729
1.02045 1.0226 0.999842 0.998055
1.02074 1.02299 1 0.997798
1.02363 1.02616 1 0.997533
1.0202 1.02244 1 0.997818
1.02199 1.02451 1 0.997542
1.01955 1.02219 1 0.997421
1.02164 1.0243 1 0.997396
1.01753 1.02017 1 0.997416
1.00761 1.01002 1 0.997611
0.998728 1.00046 1 0.998268
1.0048 1.00716 1 0.997649
1.01342 1.01609 1 0.997379
0.99943 1 1 0.99943
0.998532 1.00014 1 0.998392
1.00288 1.00511 1 0.997774
1 1 1 1
0.999551 1 1 0.999551
0.998565 1 1 0.998565
1 1 1 1
0.999686 1 1 0.999686
1 1 1 1
1.00355 1.00592 1 0.99764
1.0009 1.00294 1 0.997962
0.999107 1.00089 1 0.998217
0.998338 1 1.00001 0.998331
0.998524 1 1.00001 0.998509
0.999152 1 1.00018 0.998975
0.998744 1 1.00003 0.998717
0.999188 1 1 0.999188
0.999904 1 1 0.999904
0.999378 1 1 0.999378
0.999954 1 1 0.999954
1 1 1 1
0.999973 1 1 0.999973
1 1 1 1
1 1 1 1
0.996753 1.01055 0.987745 0.99858
0.954592 0.981864 0.980491 0.991569
0.945951 0.9755 0.984317 0.98516
1.0071 1.0093 1.00001 0.997806
1.01421 1.01682 1 0.997425
1.00716 1.00943 1.00013 0.997618
0.998311 1 1 0.998311
1.00151 1.00339 1.00024 0.997874
1.00122 1.00304 1 0.998173
1.00924 1.01169 1 0.997577
0.998695 1.00083 0.999615 0.99825
0.995293 1.00077 0.996435 0.998085
1.00216 1.00477 0.999824 0.997583
1.01148 1.01433 0.999917 0.997273
1.01016 1.01834 0.994086 0.997867
1.00313 1.00637 0.999244 0.99753
0.999758 1.00262 0.99965 0.99749
0.998235 1.00844 0.991108 0.998763
0.961084 0.986442 0.983189 0.990953
0.997197 1.00699 0.991335 0.99893
1.01479 1.0242 0.992316 0.998487
0.995243 1.00539 0.992198 0.997691
0.957127 0.978081 0.985953 0.992518
0.999772 1.02622 0.976102 0.998082
1.00253 1.01309 0.991683 0.99787
1.00411 1.03231 0.974547 0.998083
1.02661 1.03311 0.995784 0.99792
1.02216 1.03676 0.987975 0.997917
1.03921 1.04651 0.994983 0.99803
1.01435 1.03947 0.977585 0.998201
1.01093 1.0309 0.982545 0.998047
1.02445 1.0353 0.991681 0.997827
1.01676 1.02616 0.992647 0.998176
1.02161 1.02802 0.995838 0.997918
1.02675 1.03036 0.998812 0.997689
1.022 1.0254 0.998615 0.998057
1.02341 1.02581 0.999934 0.997727
1.02623 1.02882 1 0.997484
1.02093 1.02318 1 0.997798
1.02346 1.02599 1 0.997534
1.02193 1.02461 1 0.997382
1.02208 1.02457 1 0.997567
1.01934 1.02197 1 0.997428
1.00921 1.01168 1 0.997558
1.01737 1.02003 1 0.997395
1.00746 1.00988 1 0.9976
0.999402 1.00121 1 0.998194
0.999353 1 1 0.999353
0.998925 1.00066 1 0.998267
1.00507 1.00741 1 0.997675
1 1 1 1
0.999418 1 1 0.999418
0.998628 1.00024 1 0.998391
1 1 1 1
0.999538 1 1 0.999538
1 1 1 1
1.00728 1.00988 1 0.997423
1.0037 1.0061 1 0.997614
1.00115 1.00323 1 0.997922
1.00036 1.0024 1 0.997967
0.998877 1.00066 1 0.998222
0.998773 1 1.00003 0.998741
0.998515 1 1 0.998515
0.999167 1 1.00019 0.998976
0.999809 1 1 0.999809
0.999188 1 1 0.999188
0.999917 1 1 0.999917
1 1 1 1
0.999961 1 1 0.999961
1 1 1 1
1 1 1 1
1.00931 1.02395 0.987352 0.998326
0.994025 1.00952 0.986457 0.99817
0.952708 0.982785 0.976853 0.992367
1.01615 1.01869 1 0.997507
1.00741 1.00946 1 0.997971
1.02571 1.02843 1 0.997359
1.0146 1.01723 1 0.99741
1.00598 1.00815 1.00018 0.997663
1.02294 1.02575 1 0.997264
1.00208 1.00396 1 0.998119
1.00816 1.01067 1 0.997518
1.02787 1.03247 0.998087 0.997457
1.00287 1.00556 0.999679 0.997648
1.01265 1.0155 0.99996 0.997239
1.00994 1.01802 0.99417 0.997884
1.00294 1.00605 0.999412 0.9975
1.00235 1.01031 0.993216 0.998896
1.0308 1.04151 0.991593 0.998101
1.01474 1.0242 0.992259 0.998492
0.995448 1.00409 0.993605 0.997774
1.00369 1.03199 0.974376 0.998155
1.02709 1.03435 0.995045 0.997929
1.02057 1.03691 0.986285 0.997933
1.03928 1.04747 0.994138 0.998031
1.0352 1.04533 0.992368 0.997928
1.01245 1.03043 0.984469 0.99805
1.02429 1.03484 0.991953 0.997835
1.02984 1.03663 0.995746 0.997701
1.02178 1.02757 0.996438 0.997915
1.02637 1.02971 0.999084 0.99767
1.02849 1.03114 1 0.997434
1.02386 1.0262 0.999986 0.997725
1.026 1.02859 1 0.997483
1.02503 1.02779 1 0.99732
1.02331 1.02584 1 0.997535
1.02188 1.02456 1 0.997384
1.01116 1.01372 1 0.997475
1.01913 1.02175 1 0.997435
1.00935 1.01182 1 0.997561
1.00004 1.00192 1 0.998117
1.00729 1.00972 1 0.997589
0.999585 1.0014 1 0.998191
0.99943 1 1 0.99943
0.99982 1 1 0.99982
0.999391 1 1 0.999391
0.999116 1.00085 1 0.998266
1 1 1 1
0.999407 1 1 0.999407
1 1 1 1
1.03222 1.0349 1 0.997409
1.01784 1.02049 1 0.997401
1.00827 1.01088 1 0.997411
1.00437 1.00664 1 0.997737
1.0038 1.00623 1 0.997588
1.00042 1.0025 1 0.997926
0.998542 1.00002 1 0.998522
0.99867 1.00044 1 0.998228
0.998917 1 1.00017 0.998745
0.999653 1 1 0.999653
0.999145 1 1.00017 0.998977
0.999828 1 1 0.999828
1 1 1 1
0.99993 1 1 0.99993
1 1 1 1
1 1 1 1
1.03055 1.04006 0.992984 0.997853
1.01291 1.02746 0.987414 0.998408
0.991671 1.00962 0.984429 0.997761
1.02618 1.02896 1 0.997305
1.01563 1.01811 1 0.997573
1.00754 1.00943 1 0.998132
1.02516 1.02785 1 0.997378
1.01497 1.01762 1 0.997396
1.03412 1.03759 0.999217 0.997437
1.02043 1.02327 1 0.997224
1.0072 1.00976 1 0.997459
1.02729 1.03178 0.998194 0.997451
1.01487 1.01772 0.999989 0.997205
1.01188 1.02022 0.993911 0.997907
1.03671 1.04597 0.993118 0.99802
1.03268 1.04274 0.992216 0.998116
1.01517 1.02426 0.992614 0.998498
1.01984 1.03787 0.984646 0.997949
1.04017 1.04905 0.993487 0.998031
1.03539 1.04617 0.991739 0.99794
1.0328 1.03994 0.99535 0.99777
1.024 1.03425 0.992232 0.997843
1.0294 1.03588 0.996049 0.997691
1.03086 1.03372 0.999795 0.997444
1.02597 1.02903 0.999377 0.997652
1.0292 1.03185 1 0.997434
1.02809 1.03091 1 0.997267
1.02572 1.02831 1 0.997481
1.02514 1.0279 1 0.997321
1.0132 1.01585 1 0.997383
1.02184 1.02451 1 0.997386
1.0114 1.01396 1 0.997476
1.00058 1.00257 1 0.998018
1.00948 1.01194 1 0.997564
1.0002 1.00209 1 0.998115
0.99943 1 1 0.99943
0.999766 1.00158 1 0.998189
0.999425 1 1 0.999425
0.999831 1 1 0.999831
0.999913 1 1 0.999913
0.999432 1 1 0.999432
1 1 1 1
1.03049 1.03327 1 0.997308
1.02356 1.0262 1 0.99743
1.03189 1.03446 1 0.997512
1.00839 1.0108 1 0.997615
1.01941 1.02208 1 0.997391
1.00936 1.01199 1 0.997398
1.00348 1.00576 1 0.997735
0.999164 1.00082 1 0.998342
0.999696 1.00177 1 0.997929
0.998528 1 1 0.998523
0.999488 1 1 0.999488
0.999098 1 1.00035 0.998748
0.999671 1 1 0.999671
1 1 1 1
0.999847 1 1 0.999847
1 1 1 1
1 1 1 1
1.03541 1.04184 0.996087 0.997736
1.03022 1.03966 0.993049 0.99785
1.01487 1.02938 0.987402 0.998484
1.03369 1.03646 0.999967 0.997358
1.02498 1.02774 1 0.997308
1.01527 1.01767 1 0.997641
1.02447 1.02714 1 0.997397
1.03358 1.03709 0.999204 0.997415
1.0179 1.02077 1 0.997185
1.02502 1.02936 0.998336 0.997445
1.03465 1.04169 0.995407 0.997832
1.03608 1.04498 0.99349 0.997982
1.03448 1.04392 0.992806 0.998131
1.03314 1.03846 0.997214 0.997657
1.03537 1.04679 0.991125 0.997952
1.03255 1.03976 0.9953 0.997757
1.03238 1.03558 0.99937 0.997533
1.02902 1.03519 0.996351 0.997681
1.03193 1.03486 0.99973 0.997446
1.02922 1.03206 1 0.997243
1.02991 1.03256 1 0.997434
1.0278 1.03061 1 0.997268
1.01497 1.0177 1 0.99731
1.02521 1.02797 1 0.997322
1.01345 1.01611 1 0.997384
1.00106 1.00315 1 0.997917
1.01163 1.01418 1 0.997478
1.00074 1.00273 1 0.998017
0.999408 1 1 0.999408
1.00037 1.00226 1 0.998113
0.999423 1 1 0.999423
0.999835 1 1 0.999835
0.999423 1 1 0.999423
0.999835 1 1 0.999835
1 1 1 1
1.03094 1.03382 1 0.99721
1.02495 1.02774 1 0.997292
1.03125 1.03401 1 0.997323
1.01121 1.01365 1 0.997599
1.02393 1.02656 1 0.997439
1.03165 1.03411 1 0.997615
1.00039 1.00221 1 0.998188
1.00812 1.01053 1 0.997609
1.02108 1.02376 1 0.997382
1.00246 1.00474 1 0.997733
0.998856 1.00051 1 0.998344
0.999375 1 1 0.999375
0.998525 1 1 0.998525
0.999501 1 1 0.999501
1 1 1 1
0.99969 1 1 0.99969
1 1 1 1
1 1 1 1
1.03527 1.03918 0.998641 0.99759
1.03537 1.04223 0.995687 0.997721
1.03065 1.0401 0.993061 0.997846
1.03312 1.03585 0.999991 0.997368
1.0237 1.02646 1 0.99731
1.03301 1.03655 0.999187 0.997394
1.03354 1.03845 0.997607 0.997661
1.03493 1.04172 0.995647 0.997824
1.03548 1.04405 0.993833 0.997943
1.03371 1.03899 0.99723 0.997677
1.03325 1.03638 0.999509 0.997476
1.0323 1.03959 0.995241 0.997745
1.0327 1.03587 0.999444 0.997496
1.02899 1.03177 1 0.997297
1.03292 1.03591 0.999666 0.997449
1.02883 1.03167 1 0.997246
1.01627 1.01907 1 0.997254
1.02764 1.03045 1 0.997269
1.01533 1.01807 1 0.997311
1.00143 1.0036 1 0.99784
1.01379 1.01645 1 0.997385
1.0012 1.00329 1 0.997917
0.99936 1 1 0.99936
1.00091 1.0029 1 0.998015
0.999396 1 1 0.999396
0.99982 1 1 0.99982
0.999417 1 1 0.999417
0.999844 1 1 0.999844
0.999835 1 1 0.999835
1.03275 1.03543 1 0.99741
1.02711 1.03003 1 0.997165
1.03144 1.0343 1 0.997228
1.01379 1.01638 1 0.997455
1.02457 1.02735 1 0.997293
1.03196 1.03471 1 0.997339
1.00111 1.00304 1 0.998074
1.01127 1.01375 1 0.997554
1.02416 1.02678 1 0.997448
0.99932 1 1 0.99932
1.00002 1.00183 1 0.998191
1.00793 1.01036 1 0.997603
0.998557 1.00021 1 0.998345
0.999385 1 1 0.999385
1 1 1 1
0.999515 1 1 0.999515
1 1 1 1
1 1 1 1
1.03247 1.03605 0.998982 0.99756
1.03435 1.03859 0.998325 0.997586
1.0353 1.04257 0.99531 0.997706
1.03251 1.03522 1 0.997377
1.03277 1.03565 0.999784 0.997439
1.03432 1.0393 0.997531 0.997671
1.03517 1.04169 0.995918 0.997817
1.03429 1.03956 0.99723 0.997697
1.03257 1.03589 0.999306 0.997487
1.02903 1.03181 1 0.997307
1.03313 1.03628 0.999505 0.99746
1.02876 1.03157 1 0.997274
1.01706 1.01987 1 0.997239
1.02844 1.03128 1 0.997249
1.01648 1.01928 1 0.997257
1.00156 1.0038 1 0.997773
1.01554 1.01828 1 0.997311
1.00147 1.00364 1 0.99784
0.999211 1 1 0.999211
1.00129 1.00338 1 0.997916
0.999304 1 1 0.999304
1 1 1 1
0.999385 1 1 0.999385
0.999833 1 1 0.999833
0.999848 1 1 0.999848
1.03147 1.03408 1 0.997477
1.0282 1.03104 1 0.997243
1.03232 1.035 1 0.997406
1.01623 1.019 1 0.997276
1.02705 1.02995 1 0.997186
1.03202 1.03487 1 0.997246
1.00169 1.00381 1 0.997884
1.01391 1.0165 1 0.997455
1.02425 1.02703 1 0.997294
0.9993 1 1 0.9993
1.00092 1.00289 1 0.998031
1.01133 1.01386 1 0.997509
1 1 1 1
0.999331 1 1 0.999331
0.999605 1.00141 1 0.998194
0.999396 1 1 0.999396
1 1 1 1
1 1 1 1
1.0312 1.03389 0.999947 0.997452
1.03303 1.03658 0.99901 0.997568
1.03342 1.038 0.998008 0.997583
1.02925 1.03208 1 0.997251
1.03182 1.03477 0.999707 0.997448
1.03503 1.04009 0.997454 0.997681
1.03189 1.03539 0.999126 0.997498
1.02904 1.03182 1 0.997307
1.01641 1.01917 1 0.997296
1.02843 1.03127 1 0.99725
1.017 1.01979 1 0.997265
1.0016 1.00396 1 0.997645
1.01677 1.01956 1 0.997259
1.00163 1.00387 1 0.997774
0.99916 1 1 0.99916
1.00156 1.00373 1 0.997839
0.999209 1 1 0.999209
1 1 1 1
0.99924 1 1 0.99924
0.999904 1 1 0.999904
0.999844 1 1 0.999844
1.02909 1.03174 0.999995 0.997435
1.02836 1.03115 1 0.997293
1.03132 1.03392 1 0.997481
1.01717 1.01994 1 0.997278
1.02876 1.03162 1 0.997233
1.0319 1.03459 1 0.997401
1.00231 1.00454 1 0.997779
1.01616 1.0189 1 0.997318
1.02694 1.02982 1 0.997208
0.999273 1 1 0.999273
1.00165 1.00379 1 0.99787
1.01402 1.01661 1 0.997454
1 1 1 1
0.999309 1 1 0.999309
1.00075 1.00277 1 0.997988
1 1 1 1
0.999341 1 1 0.999341
1 1 1 1
1.02976 1.03255 1 0.997297
1.03054 1.03327 0.999917 0.99744
1.03366 1.03718 0.999032 0.997575
1.01542 1.01818 1 0.997286
1.02931 1.03213 1 0.99727
1.03096 1.03398 0.999619 0.997457
1.02904 1.03182 1 0.997308
1.01647 1.01922 1 0.997296
1.0011 1.0035 1 0.997611
1.01696 1.01972 1 0.997292
1.0016 1.00393 1 0.99768
0.999097 1 1 0.999097
1.00165 1.00389 1 0.997774
0.999157 1 1 0.999157
1 1 1 1
0.999206 1 1 0.999206
1 1 1 1
0.999826 1 1 0.999826
1.02871 1.03148 1 0.997315
1.02892 1.03155 1 0.997451
1.01673 1.01949 1 0.997293
1.02853 1.03132 1 0.997292
1.03116 1.03376 1 0.997486
1.00215 1.00436 1 0.997803
1.01693 1.01971 1 0.997275
1.0293 1.03217 1 0.997223
0.999226 1 1 0.999226
1.00239 1.00459 1 0.997808
1.01608 1.01877 1 0.99736
1 1 1 1
0.999279 1 1 0.999279
1.00162 1.00377 1 0.997856
1 1 1 1
0.999317 1 1 0.999317
1 1 1 1
1.0154 1.01812 1 0.997321
1.02963 1.03243 1 0.997289
1.02979 1.03255 0.999896 0.997429
1.00025 1.00264 1 0.997615
1.01546 1.01823 1 0.997286
1.02935 1.03215 1 0.997288
1.01652 1.01928 1 0.997295
1.0011 1.0035 1 0.997613
0.999051 1 1 0.999051
1.00161 1.00391 1 0.997715
0.999093 1 1 0.999093
1 1 1 1
0.999154 1 1 0.999154
1 1 1 1
1 1 1 1
1.01606 1.01882 1 0.997293
1.02843 1.03118 1 0.997334
1.02874 1.03135 1 0.997467
1.0015 1.00372 1 0.997783
1.01664 1.01941 1 0.99729
1.02868 1.03147 1 0.99729
0.999176 1 1 0.999176
1.00229 1.0045 1 0.997801
1.01674 1.01952 1 0.997272
1 1 1 1
0.99923 1 1 0.99923
1.00247 1.00464 1 0.997838
1 1 1 1
0.999285 1 1 0.999285
1 1 1 1
0.999953 1.00225 1 0.997705
1.01531 1.01807 1 0.997285
1.02953 1.03234 1 0.99728
0.999052 1 1 0.999052
1.00028 1.00267 1 0.997613
1.01551 1.01828 1 0.997286
1.0011 1.00349 1 0.997615
0.999051 1 1 0.999051
1 1 1 1
0.99909 1 1 0.99909
1 1 1 1
1 1 1 1
1.00056 1.00281 1 0.997749
1.01578 1.01854 1 0.997294
1.02818 1.03091 1 0.997352
0.999265 1 1 0.999265
1.00172 1.00395 1 0.997781
1.01657 1.01934 1 0.997287
1 1 1 1
0.999178 1 1 0.999178
1.00241 1.00462 1 0.997799
1 1 1 1
0.999234 1 1 0.999234
1 1 1 1
0.999051 1 1 0.999051
1.00007 1.00241 1 0.997674
1.01523 1.01803 1 0.997249
1 1 1 1
0.999051 1 1 0.999051
1.00031 1.00271 1 0.997611
0.999049 1 1 0.999049
1 1 1 1
1 1 1 1
0.999218 1 1 0.999218
1.00084 1.0031 1 0.997749
1.01547 1.01823 1 0.997294
1 1 1 1
0.999138 1 1 0.999138
1.00196 1.00419 1 0.997779
1 1 1 1
0.999179 1 1 0.999179
1 1 1 1
0.999746 1 1 0.999746
0.999136 1 1 0.999136
1.00019 1.00255 1 0.997643
1 1 1 1
0.999052 1 1 0.999052
1 1 1 1
0.999763 1 1 0.999763
0.999163 1 1 0.999163
1.00115 1.0034 1 0.997749
0.999884 1 1 0.999884
0.999137 1 1 0.999137
1 1 1 1
1 1 1 1
0.999074 1 1 0.999074
1 1 1 1
0.999879 1 1 0.999879
0.999103 1 1 0.999103
1 1 1 1
1 1 1 1
1 1 1 1

VECTORS lamdaE float
1.00043 1.00013 0.994795
1.00021 1.00048 0.997498
1.00009 1.00034 0.995
1.00069 0.99995 0.994607
1.00054 0.999948 0.994842
1.0004 1.00033 0.994622
1.00172 1.00047 0.991919
1.00024 1.00039 0.9975
1.00013 1.00021 0.997825
0.999708 1.00077 0.997855
1.00023 1.00041 0.994788
1.00152 1.00124 0.990865
1.00047 1 0.994752
1.0002 0.999996 0.99498
0.999776 1.00057 0.995178
1.00043 0.999928 0.99486
1.00002 1.00066 0.994804
1.00025 1.00002 0.995063
1.0019 1.0003 0.991829
1.00049 1.00001 0.99744
1.00069 1.00001 0.994526
1.00063 0.999892 0.99476
1.00203 1.00002 0.991851
1.00189 1.00012 0.991989
1.00039 1.00035 0.994558
1.00151 1.00101 0.991722
1.00444 1.00028 0.987495
1.00024 1.00034 0.997517
1.00029 1.0001 0.996296
0.999966 1.00058 0.996301
1.00022 1.00021 0.997587
1.00142 1.00138 0.990867
1.00058 0.999844 0.994697
1.0003 1.00035 0.994764
1.00216 1.00015 0.992236
0.999694 0.999763 0.99823
1.00183 1.00084 0.992188
1.0012 1.0017 0.990934
1.00362 1.00162 0.986845
0.999778 0.998599 0.99861
1.00049 1 0.997426
1.00038 1.00001 0.996196
1.00044 0.999991 0.997451
1.00012 1.00004 0.995069
1.00211 1.00001 0.991088
1.0003 0.999965 0.997739
1.00231 1.00009 0.992076
1.00018 0.999867 0.995112
0.999977 1.00008 0.995271
0.999648 1.00104 0.99497
1.00207 1.00012 0.991753
1.00034 1.00003 0.996228
1.00042 1.00001 0.994784
0.999999 1.00074 0.994725
1.00038 0.999876 0.994997
1.00214 0.99998 0.991743
1.00173 1.00078 0.991637
1.00203 1.00002 0.991897
1.00442 1.00031 0.987497
1.00042 1 0.997463
1.00061 1.00003 0.99461
1.00193 1 0.992631
1.00203 1.00005 0.991815
1.00199 0.999988 0.991948
1.00451 0.999994 0.987574
1.0045 1 0.987434
1.0002 0.999971 0.994991
1.00103 1.00178 0.991692
1.00426 1.00068 0.98741
1.0052 1.00017 0.985536
1.0005 1.00012 0.997483
1.00011 1.00001 0.99777
1.00022 1.00042 0.9975
1.00135 1.00148 0.990861
1.00061 0.999974 0.997438
1.00038 1.00032 0.997498
1.00205 1.0001 0.991001
0.999839 0.999789 0.996876
1.00161 1.00091 0.990969
1.0011 1.00178 0.991751
1.00369 1.00151 0.986837
0.99996 0.999108 0.998255
0.999824 1.00072 0.994414
1.00224 0.999982 0.990854
1.00199 1.00036 0.990958
1.00454 1.00021 0.986653
1.00066 1.0018 0.993197
1.00403 1.00093 0.986831
1.00272 1.00316 0.986892
1.00482 1.00134 0.985038
0.999669 0.998114 0.998891
0.999678 0.998502 0.998729
1.00059 0.999993 0.997394
1.00052 1 0.99742
1.00047 0.999994 0.997451
1.00033 1.00001 0.996249
1.00215 0.999992 0.991733
1.00044 0.999974 0.996193
1.00225 1.0001 0.991468
1.00046 0.999992 0.997461
1.00201 0.999929 0.99129
1.00226 1.00008 0.992191
1.00453 0.999647 0.987278
1.00229 1.00001 0.992134
1.0046 0.999863 0.986957
1.00045 1.00001 0.994791
1.00015 1.00001 0.995046
0.999612 1.00116 0.994897
1.00013 0.999837 0.99523
1.00225 0.999981 0.991634
1.00216 0.999933 0.991812
1.00194 1.0005 0.991561
1.0044 1.00034 0.9875
1.00046 0.999995 0.997461
1.00034 1.00003 0.994869
1.00206 0.999977 0.99154
1.00214 1.00003 0.991696
1.00005 1.00031 0.996302
1.00132 1.0016 0.991835
1.0021 0.999934 0.99185
1.00453 0.999966 0.987521
1.00424 1.00072 0.987407
1.00449 1.00008 0.987482
1.00519 1.00018 0.98556
1.002 0.999962 0.991304
1.00196 1.00002 0.99193
1.00446 0.999616 0.987884
1.00451 0.999861 0.987553
1.00452 0.99991 0.987477
1.00523 0.999523 0.986424
0.999848 0.999771 0.998087
1.00522 0.999893 0.985799
1.00055 1.00235 0.991252
1.00369 1.00144 0.986892
1.00517 1.00053 0.985302
1.00522 0.999677 0.985983
0.999936 1.00184 0.992874
1.00036 1.00472 0.989414
1.00059 1 0.997457
1.00034 1.00031 0.9975
1.00206 1.00008 0.990994
0.999935 0.99948 0.998149
1.00081 1.00208 0.991139
1.00157 1.00094 0.990982
1.00375 1.00141 0.98683
0.999844 0.99903 0.99839
0.999789 1.00064 0.994469
1.00225 1.00002 0.991526
1.00198 1.00039 0.991602
1.00454 1.00022 0.986644
1.00039 1.00189 0.99219
1.00405 1.0009 0.986836
1.00276 1.0031 0.986879
1.00484 1.00125 0.985009
1.00007 1.00142 0.993293
0.999794 0.999884 0.995282
1.00041 1.00393 0.990316
1.0046 1.00008 0.986698
1.00437 1.00047 0.98668
1.0052 1.00007 0.98566
1.0017 1.0043 0.987569
1.00495 1.00075 0.985299
1.00433 1.00245 0.98494
1.00511 1.00122 0.984672
0.999669 0.997765 0.999042
0.99963 0.998038 0.998955
0.999611 0.998378 0.99883
0.999854 1.00124 0.993649
0.999735 0.999343 0.998345
1.00063 0.999975 0.997412
1.00054 1 0.997399
1.00214 1.00012 0.990875
1.00205 0.999993 0.991151
1.00044 0.999997 0.99745
1.00043 0.999994 0.997458
1.002 0.999937 0.991285
1.00218 1.00007 0.99158
1.00452 0.999646 0.987279
1.00219 1.00004 0.990853
1.00459 0.999861 0.986952
1.00198 0.999931 0.991328
1.00449 0.999586 0.987392
1.00457 0.999739 0.987124
1.00523 0.998678 0.987124
1.00462 0.999974 0.986803
1.00524 0.999147 0.986634
1.00044 0.999993 0.997456
1.00007 1.00005 0.995128
1.00208 0.999972 0.990559
1.00225 1.00003 0.991575
0.999583 1.00068 0.997931
1.00168 1.00129 0.991977
1.00222 0.999905 0.991753
1.00454 0.999921 0.987468
1.00448 1.00015 0.98753
1.00422 1.00078 0.987405
1.00518 1.00018 0.985584
1.00198 0.999949 0.991306
1.00208 1.00002 0.991806
1.00449 0.999598 0.987565
1.00453 0.999913 0.987565
0.999917 0.999853 0.997984
1.00079 1.0021 0.991919
1.00359 1.00169 0.987137
1.00452 0.999947 0.98745
1.00523 0.999362 0.986506
1.00512 1.00054 0.985318
1.00521 0.999935 0.985889
1.00522 0.999673 0.98601
1.00001 1.00184 0.992855
1.00046 1.00452 0.989432
1.00446 0.999614 0.987422
1.00448 0.999763 0.987717
1.00524 0.99891 0.987031
1.00522 0.999019 0.986801
1.00523 0.999549 0.986345
1.00523 0.99819 0.987588
1.0002 1.00223 0.99202
1.00521 0.999036 0.986656
1.0025 1.00325 0.987116
1.00498 1.00097 0.985004
1.00522 1.00047 0.985342
1.00517 0.998594 0.987247
1.00081 1.00484 0.988553
1.00027 1.00398 0.990317
1.00126 1.00472 0.988103
1.00216 0.999999 0.990927
0.999725 0.998924 0.99853
0.999767 1.00052 0.994523
1.00185 1.00043 0.99101
1.00453 1.00022 0.986634
1.00028 1.002 0.992108
1.00277 1.00304 0.986865
1.00406 1.00087 0.986841
1.00486 1.00115 0.98498
1.00001 1.00139 0.993322
0.999802 0.999751 0.995324
1.00023 1.00403 0.990307
1.00459 1.00009 0.986684
1.00438 1.00046 0.986676
1.00521 1.00007 0.985642
1.00165 1.00436 0.987588
1.005 1.00077 0.985272
1.00429 1.0024 0.984933
1.00514 1.0011 0.984657
0.999889 0.999193 0.995761
1.00102 1.00428 0.988783
1.00015 1.00283 0.991736
1.00074 1.00479 0.988927
1.00523 0.999754 0.985968
1.00514 1.00039 0.985413
1.0052 0.999322 0.9864
1.00303 1.00384 0.985912
1.00519 1.00037 0.985451
1.00483 1.00191 0.98443
1.00527 1.00087 0.984654
1.00028 1.0006 0.993713
1.00013 0.998484 0.996027
0.999729 0.997514 0.999095
0.999656 0.997721 0.999062
0.999602 0.997966 0.999003
0.999865 1.00057 0.994343
0.999685 0.998892 0.998554
0.999891 1.00129 0.99362
0.999819 0.999406 0.998254
1.00218 1.00008 0.990849
1.00212 1.00005 0.990991
1.00458 0.999861 0.986947
1.00451 0.999647 0.98728
1.00202 0.999948 0.991285
1.00047 0.999991 0.997454
1.00199 0.999933 0.991329
1.00448 0.999594 0.987393
1.00456 0.999745 0.987122
1.00523 0.998687 0.987122
1.0046 0.999984 0.986789
1.00524 0.99915 0.986619
1.00446 0.999592 0.987433
1.00523 0.998561 0.987246
1.00523 0.998886 0.986911
1.00522 0.996883 0.988976
1.00524 0.999435 0.986304
1.00521 0.997709 0.988121
1.002 0.999938 0.99131
1.0022 0.999999 0.991682
1.00451 0.999566 0.987248
1.00455 0.999956 0.987577
1.00001 0.999965 0.997868
1.00105 1.00195 0.992444
1.00359 1.00187 0.987379
1.00453 0.999972 0.987423
1.00522 0.999196 0.986589
1.00521 0.99998 0.98598
1.00507 1.00054 0.985334
1.00522 0.999668 0.986037
1.00009 1.00181 0.992835
1.00055 1.00441 0.989448
1.00447 0.999542 0.987409
1.00451 0.999746 0.987699
1.00524 0.998767 0.987201
1.00522 0.999187 0.98669
1.00029 1.00219 0.992007
1.00257 1.0032 0.987123
1.00494 1.00103 0.985063
1.00523 0.999652 0.986255
1.00522 0.997971 0.987838
1.00522 1.00043 0.985386
1.00521 0.99903 0.986674
1.00518 0.99854 0.987236
1.00091 1.00468 0.98855
1.0011 1.00464 0.988124
1.00032 1.00392 0.990319
1.00523 0.998756 0.987197
1.00523 0.998874 0.98711
1.00525 0.997119 0.988656
1.0052 0.997654 0.988153
1.00522 0.998276 0.987394
1.00517 0.996435 0.989312
1.00152 1.00437 0.987775
1.00518 0.997577 0.988048
1.00414 1.00234 0.985247
1.00519 1.00122 0.984438
1.00518 0.999854 0.98595
1.00513 0.997629 0.988194
1.00019 1.0032 0.991248
1.00177 1.00411 0.98759
1.00059 1.00507 0.98856
1.00213 1.00379 0.987696
1.00459 1.0001 0.986669
0.999812 0.999644 0.995365
0.999926 1.00139 0.993352
1.00009 1.0042 0.9903
1.00439 1.00044 0.986671
1.00522 1.00008 0.985623
1.00158 1.00442 0.987608
1.00429 1.00239 0.984925
1.00506 1.0008 0.985244
1.00515 1.001 0.984641
0.999909 0.999105 0.995787
1.00089 1.00448 0.988798
1.0001 1.00285 0.991761
1.0006 1.0049 0.988893
1.00523 0.999764 0.985953
1.00517 1.00038 0.985392
1.0052 0.999321 0.98639
1.00299 1.00374 0.98594
1.00521 1.00043 0.985401
1.00491 1.00173 0.98444
1.00528 1.00087 0.984695
1.00005 0.998705 0.995957
1.00026 1.00166 0.992721
1.00168 1.00441 0.987638
1.00032 1.00458 0.990008
1.00136 1.00405 0.988636
1.0052 0.998802 0.986946
1.0052 0.999826 0.98586
1.00515 0.998425 0.987253
1.0039 1.00261 0.985426
1.00519 0.999985 0.985793
1.00465 1.00183 0.984371
1.0003 1.00067 0.9936
1.0003 1.00199 0.992335
1.00021 1.00065 0.993803
1.00026 1.00062 0.99371
1.00015 0.998308 0.996675
1.00012 0.998465 0.996333
0.999888 0.997321 0.997918
0.999735 0.997477 0.999098
0.99965 0.99767 0.999078
0.999831 0.999938 0.995044
0.999676 0.99846 0.998759
0.999872 1.00063 0.994321
0.999746 0.998978 0.998484
0.999942 1.00131 0.993592
0.999889 0.99947 0.998161
1.0046 0.999989 0.986776
1.00455 0.999748 0.98712
1.00523 0.999168 0.986604
1.00522 0.998696 0.98712
1.00448 0.999601 0.987393
1.00198 0.999932 0.991327
1.00446 0.999592 0.987434
1.00523 0.998564 0.987246
1.00523 0.998901 0.986901
1.00522 0.996713 0.989131
1.00524 0.999445 0.986292
1.00521 0.997723 0.9881
1.00523 0.998544 0.987268
1.00525 0.996415 0.989426
1.0052 0.997196 0.988666
1.00514 0.995441 0.990455
1.00521 0.998277 0.987513
1.0052 0.995989 0.989602
1.00447 0.999474 0.987396
1.00453 0.999743 0.987682
1.00523 0.998639 0.987372
1.00522 0.999357 0.986578
1.0004 1.00215 0.991997
1.00252 1.00321 0.987131
1.00489 1.0011 0.985122
1.00523 0.999756 0.986165
1.00522 0.99775 0.988088
1.00522 0.999025 0.986692
1.00522 1.00039 0.985429
1.00518 0.998486 0.987224
1.00101 1.00448 0.988546
1.00106 1.0046 0.988144
1.00037 1.0038 0.990323
1.00523 0.998689 0.98721
1.00523 0.998873 0.987103
1.00525 0.996858 0.988957
1.0052 0.997766 0.988041
1.00155 1.00436 0.98775
1.00418 1.00232 0.985252
1.00517 1.0013 0.984449
1.00522 0.998497 0.987179
1.00518 0.996223 0.989514
1.00518 0.999844 0.98588
1.00517 0.997596 0.988057
1.00514 0.997501 0.988316
1.00191 1.00405 0.987572
1.00204 1.00383 0.987664
1.00024 1.00312 0.991241
1.00049 1.00501 0.988668
1.00526 0.996719 0.989103
1.00521 0.997359 0.988528
1.00518 0.995564 0.99022
1.00518 0.995618 0.990044
1.00517 0.996765 0.988878
1.00517 0.995609 0.990132
1.00301 1.00329 0.986324
1.00515 0.996182 0.989284
1.0049 1.00213 0.984208
1.00516 1.00128 0.984422
1.00516 0.99932 0.98626
1.00516 0.9973 0.988468
1.00014 1.00231 0.992178
1.00023 1.00487 0.989385
1.00271 1.00327 0.986853
1.00087 1.00504 0.988281
1.00249 1.00306 0.987844
0.999921 0.999029 0.995812
1.00523 0.999773 0.985937
1.00005 1.00283 0.991785
1.00074 1.00469 0.98881
1.00046 1.00496 0.988858
1.00519 1.00038 0.98537
1.00519 0.999321 0.986379
1.00308 1.00348 0.985969
1.00504 1.00155 0.984453
1.00522 1.00048 0.985351
1.00528 1.00089 0.984737
1.00005 0.998679 0.995971
1.00021 1.00169 0.992751
1.00169 1.00434 0.987654
1.00014 1.00455 0.989995
1.00116 1.004 0.988661
1.0052 0.998795 0.986934
1.0052 0.99982 0.985845
1.00515 0.998397 0.987226
1.00394 1.00256 0.985454
1.0052 1.00001 0.985656
1.00493 1.00178 0.98435
1.00032 1.00097 0.993325
1.00022 1.00339 0.991247
1.00259 1.00298 0.987463
1.00046 1.00498 0.989444
1.00172 1.00282 0.989207
1.00516 0.997715 0.98798
1.00515 0.999115 0.986503
1.00514 0.997679 0.987621
1.00366 1.00185 0.986189
1.00496 1.00094 0.984843
1.00031 1.00067 0.993597
1.0003 1.00194 0.992293
1.00021 1.00208 0.992293
1.00034 1.00259 0.991821
1.00022 1.0021 0.992357
1.00013 1.00072 0.993848
1.0002 1.00064 0.993803
1.00016 0.998266 0.996707
1.00026 1.00064 0.993707
1.00016 0.998337 0.99668
0.99998 0.997101 0.997949
1.00012 0.998465 0.996634
0.999848 0.997283 0.998516
0.999744 0.997421 0.999101
0.999875 0.999239 0.995674
0.999833 1 0.995015
0.999657 0.998012 0.998952
0.999716 0.998541 0.998682
0.999876 1.00071 0.994299
0.999815 0.99903 0.998405
1.00524 0.999453 0.98628
1.00523 0.998903 0.986891
1.00522 0.997731 0.98808
1.00522 0.996538 0.989284
1.00522 0.998568 0.987246
1.00446 0.999592 0.987435
1.00523 0.998546 0.987269
1.00525 0.9964 0.989436
1.0052 0.997202 0.988655
1.00515 0.995271 0.990586
1.00522 0.99827 0.987492
1.00519 0.995926 0.989706
1.00525 0.996406 0.989432
1.00516 0.995288 0.990593
1.00517 0.995341 0.990399
1.00515 0.994954 0.990882
1.00518 0.996882 0.98882
1.00518 0.99522 0.990333
1.00522 0.998617 0.987222
1.00523 0.998881 0.987095
1.00524 0.996586 0.989258
1.0052 0.997873 0.987928
1.0016 1.00433 0.987727
1.00423 1.0023 0.985256
1.00512 1.00131 0.984459
1.00522 0.99872 0.986965
1.00519 0.996015 0.989717
1.00517 0.997615 0.988066
1.00518 0.999844 0.985812
1.00514 0.997372 0.988438
1.00188 1.00409 0.987556
1.00179 1.00388 0.987631
1.0003 1.00308 0.991233
1.0004 1.00497 0.988777
1.00526 0.996727 0.989099
1.00521 0.997462 0.988393
1.00518 0.995358 0.990458
1.00519 0.995658 0.989986
1.00285 1.00363 0.986292
1.00476 1.0021 0.984263
1.00516 1.00125 0.984385
1.00516 0.996977 0.98867
1.00516 0.995394 0.990295
1.00514 0.999371 0.986231
1.00516 0.996203 0.98928
1.00515 0.997017 0.988636
1.00286 1.00313 0.986838
1.00241 1.00299 0.987935
1.00086 1.00505 0.988258
1.00015 1.00231 0.992113
1.00014 1.00478 0.989511
1.00518 0.995119 0.990788
1.00516 0.99537 0.990485
1.0052 0.995032 0.990501
1.00516 0.995527 0.98999
1.00386 1.00296 0.985347
1.00518 0.995759 0.989847
1.00509 1.00222 0.983589
1.00508 1.00119 0.984502
1.00512 0.999048 0.986425
1.00003 1.00144 0.993031
1.00007 1.00426 0.990453
1.00054 1.00504 0.989012
1.00323 1.00259 0.986844
1.00113 1.00481 0.98776
1.00278 1.00212 0.987655
1.00006 0.998663 0.995986
1.00017 1.0017 0.99278
1.0052 0.998787 0.986922
0.99995 1.00453 0.989982
1.00155 1.00444 0.987671
1.00098 1.00395 0.988686
1.00521 0.999815 0.985828
1.00514 0.99837 0.987198
1.00393 1.0025 0.98548
1.00516 1.00176 0.984327
1.00522 1.00003 0.98552
1.00029 1.00095 0.993335
1.00008 1.00343 0.99126
1.00262 1.00302 0.987369
1.00026 1.005 0.989413
1.00163 1.00259 0.98934
1.00516 0.99771 0.987959
1.00515 0.999123 0.986476
1.00514 0.99772 0.987662
1.00382 1.00181 0.985993
1.00498 1.00102 0.984884
1.00026 1.00236 0.992085
0.999766 1.00457 0.990392
1.0032 1.00115 0.988158
1.00045 1.00438 0.989638
1.00233 1.00114 0.989489
1.00514 0.996333 0.989086
1.00513 0.999194 0.986342
1.00513 0.997603 0.987609
1.00413 1.00133 0.985959
1.0048 1.00082 0.98513
1.00031 1.00065 0.993594
1.0003 1.00196 0.992317
1.00011 1.00258 0.991934
1.00014 1.00215 0.992252
1.00017 1.00218 0.992349
1.00019 1.0027 0.991787
1.00012 1.00283 0.991846
1.0001 1.00299 0.991505
1.00012 1.00227 0.992365
1.00007 1.00086 0.993822
1.00013 1.00072 0.993847
1.00014 0.998286 0.996723
1.00019 1.00063 0.993804
1.00016 0.998291 0.996709
1.00004 0.996983 0.997963
1.00016 0.998351 0.996686
0.999968 0.997073 0.997956
0.999805 0.997241 0.999126
0.999927 0.998715 0.996124
0.999861 0.999331 0.995634
0.999676 0.997669 0.999076
0.999834 1.00008 0.994986
0.99969 0.998124 0.998891
0.999764 0.998617 0.998614
1.00522 0.998263 0.987471
1.0052 0.997213 0.988645
1.00518 0.995872 0.98981
1.00516 0.995117 0.990716
1.00526 0.996383 0.989445
1.00523 0.998548 0.987269
1.00526 0.996532 0.9893
1.00516 0.995314 0.990615
1.00518 0.995331 0.990439
1.00515 0.994951 0.990868
1.00518 0.996899 0.988816
1.00518 0.995119 0.990427
1.00517 0.99507 0.990863
1.00512 0.99498 0.990943
1.0052 0.99494 0.990693
1.00518 0.995454 0.99008
1.00526 0.996736 0.989094
1.00521 0.997562 0.988258
1.00518 0.995159 0.990696
1.0052 0.99571 0.989928
1.00283 1.00384 0.986262
1.00469 1.00207 0.984319
1.00516 1.00127 0.984349
1.00516 0.997184 0.988461
1.00514 0.995155 0.990457
1.00517 0.996223 0.989276
1.00513 0.999411 0.986202
1.00515 0.996737 0.988803
1.00297 1.00303 0.986822
1.00241 1.00268 0.988024
1.00081 1.00507 0.988233
1.00017 1.00227 0.992051
1.00012 1.00466 0.989638
1.00519 0.995094 0.990778
1.00515 0.995437 0.990393
1.00519 0.995067 0.990483
1.00371 1.0031 0.985339
1.00489 1.00224 0.983678
1.00506 1.00112 0.984492
1.00516 0.995552 0.989969
1.00514 0.998789 0.986754
1.00516 0.995752 0.989703
1.00006 1.00129 0.993167
1.00339 1.00233 0.986766
1.0025 1.00181 0.988414
1.00131 1.00495 0.9877
1.00054 1.00504 0.989119
1.00007 1.00423 0.990382
1.00515 0.994936 0.990914
1.00517 0.995016 0.990661
1.00518 0.994932 0.990503
1.00514 0.995087 0.990462
1.00444 1.00245 0.984935
1.0051 0.996934 0.988529
1.00497 1.00278 0.98302
1.00498 1.00141 0.984289
1.00013 1.00035 0.994003
1.00005 1.00309 0.991662
1.00028 1.00482 0.989668
1.00103 1.00504 0.988081
1.00353 1.00222 0.98615
1.00247 1.00368 0.986875
1.00027 1.00094 0.993344
0.999968 1.00344 0.991274
1.00517 0.997703 0.987938
1.00004 1.00505 0.989383
1.00267 1.00304 0.987274
1.0013 1.00249 0.989478
1.00515 0.999131 0.986449
1.00514 0.997764 0.987702
1.00396 1.00181 0.985795
1.00505 1.00109 0.984925
1.0002 1.00239 0.992101
0.999866 1.00466 0.990272
1.00335 1.00115 0.988063
1.00022 1.0046 0.989677
1.0022 1.00086 0.989881
1.00515 0.99628 0.989264
1.00513 0.999154 0.986454
1.00512 0.997741 0.98758
1.00416 1.00151 0.985856
1.00487 1.00089 0.984972
0.999851 1.00315 0.991605
0.999752 1.00505 0.989656
1.00361 1.00017 0.988149
1.00127 1.0025 0.989187
1.0052 0.995203 0.990023
1.0051 0.996734 0.989006
1.005 0.99974 0.985823
1.00444 1.00084 0.985396
1.00032 1.00193 0.992342
1.00015 1.00258 0.991941
0.999815 1.00303 0.992261
1.00011 1.00227 0.992342
1.00005 1.00281 0.991754
1.00009 1.00231 0.992355
1.00003 1.00281 0.991936
1.00014 1.00299 0.991531
0.999991 1.00233 0.992541
1.00006 1.00334 0.991365
1.00011 1.00328 0.991224
1.00009 1.0024 0.992269
1.00001 1.00101 0.993729
1.00006 1.00084 0.99382
1.0001 0.998335 0.996731
1.00012 1.00071 0.993847
1.00014 0.998317 0.996723
1.00006 0.996933 0.997969
1.00017 0.998318 0.996713
1.00003 0.996954 0.99797
0.999952 0.997052 0.997958
1.00003 0.998276 0.99641
0.999934 0.99876 0.996087
0.99973 0.997327 0.999156
0.999847 0.999424 0.995594
0.999692 0.99772 0.999043
0.999729 0.998207 0.998808
1.00518 0.996915 0.988812
1.00519 0.995306 0.990479
1.00518 0.995006 0.990522
1.00515 0.994947 0.990854
1.00515 0.995341 0.990637
1.00526 0.996664 0.989168
1.00517 0.995202 0.990721
1.00513 0.994979 0.990953
1.00519 0.994957 0.990682
1.00519 0.995366 0.99017
1.00513 0.994974 0.990993
1.00519 0.994941 0.99078
1.00521 0.994935 0.990542
1.00519 0.995069 0.990769
1.00515 0.995495 0.990301
1.00519 0.995104 0.990465
1.00354 1.00325 0.98533
1.0048 1.00227 0.983761
1.00509 1.00105 0.984481
1.00516 0.995591 0.989949
1.00513 0.995718 0.989559
1.00514 0.99852 0.987084
1.00352 1.00214 0.986684
1.0022 1.00169 0.989169
1.00157 1.00505 0.98764
1.00008 1.00117 0.993305
1.00037 1.00503 0.989226
1.00006 1.00421 0.99031
1.00515 0.994939 0.990932
1.00517 0.994966 0.990673
1.00517 0.994968 0.99052
1.00418 1.00269 0.984911
1.00488 1.00277 0.983011
1.00499 1.0012 0.984619
1.00514 0.995046 0.990412
1.00509 0.996897 0.98846
1.00012 1.00031 0.994172
1.00006 1.00308 0.991664
1.00324 1.00205 0.986593
1.0023 1.00373 0.987436
1.00092 1.00505 0.988315
1.00024 1.00485 0.989643
1.00516 0.994932 0.990846
1.00519 0.994921 0.990513
1.00514 0.994911 0.990592
1.00507 0.995056 0.990255
1.00469 1.00306 0.983026
1.0048 1.00028 0.985706
1.00486 1.00324 0.982911
1.00022 0.999856 0.994564
1.00024 1.00097 0.993469
1.00008 1.00177 0.992772
1.00004 1.00416 0.990549
1.00043 1.00494 0.988968
1.00075 1.00461 0.988258
1.00311 1.00192 0.986722
1.00237 1.00387 0.988124
1.00013 1.00246 0.992116
0.999968 1.00475 0.990152
1.00516 0.99622 0.989442
1.00027 1.00463 0.989712
1.00352 1.00119 0.987971
1.00204 1.00064 0.990268
1.00512 0.999095 0.986568
1.00512 0.99786 0.987554
1.00416 1.00166 0.985758
1.00491 1.00092 0.984816
0.999899 1.00325 0.99148
0.999889 1.00504 0.989707
1.00375 1.00021 0.988213
1.00157 1.00264 0.9893
1.0052 0.995149 0.99013
1.00511 0.996737 0.98883
1.00501 0.999684 0.985858
1.00471 1.00087 0.985228
0.999698 1.00387 0.991181
1.00525 0.994895 0.990301
1.00102 1.0047 0.98889
1.00369 1.00063 0.987641
1.00516 0.99566 0.990076
1.00508 0.998386 0.986119
1.0049 1.00145 0.984676
1.00015 1.00262 0.991947
0.999774 1.00298 0.992217
0.999461 1.00283 0.993092
1.00009 1.00229 0.992345
1.00015 1.00299 0.991558
0.99976 1.00296 0.992025
1.00007 1.00242 0.992255
1.00005 1.00332 0.991258
0.999725 1.00248 0.992658
1.00015 1.00323 0.991368
0.999966 1.00179 0.993408
0.999866 1.00295 0.992079
1.00011 1.00397 0.990639
1.00029 1.0034 0.990896
1.00008 1.00264 0.992035
0.999969 1.0012 0.99361
0.999993 1.00106 0.99372
1.00007 0.998454 0.996701
1.00005 1.00087 0.993817
1.0001 0.998382 0.996726
1.00005 0.996918 0.997983
1.00015 0.998351 0.996725
1.00006 0.996905 0.997973
1.00003 0.996927 0.997972
1.0002 0.999882 0.994597
1.00009 0.998028 0.996554
1.00002 0.998312 0.996391
0.99982 0.997036 0.999206
0.999937 0.998815 0.99605
0.999739 0.997413 0.999135
0.999715 0.997804 0.999012
1.00519 0.995281 0.990259
1.00517 0.99498 0.990671
1.00514 0.994979 0.990964
1.00517 0.995329 0.990579
1.00513 0.994969 0.990988
1.00518 0.994946 0.990795
1.00521 0.994934 0.990503
1.00517 0.994956 0.990847
1.00523 0.994936 0.990598
1.00528 0.994928 0.990942
1.00515 0.994941 0.99095
1.00517 0.994922 0.990686
1.00517 0.994992 0.990537
1.00385 1.00291 0.984891
1.00497 1.00279 0.98301
1.00495 1.00101 0.984948
1.00515 0.995004 0.990361
1.00509 0.996902 0.988393
1.00299 1.00194 0.987042
1.00222 1.00379 0.987995
1.00067 1.00506 0.988549
1.0001 1.00023 0.99434
1.00012 1.00303 0.991666
1.00022 1.00491 0.989615
1.00516 0.994933 0.990825
1.0002 0.99988 0.994558
1.00019 1.00102 0.993389
1.00519 0.994914 0.990531
1.00513 0.994908 0.990591
1.0045 1.00322 0.983327
1.00485 1.00306 0.983042
1.00483 1.00009 0.985635
1.00507 0.995209 0.990187
1.00007 1.00178 0.992959
1.00011 1.00412 0.990521
1.0034 1.00251 0.986327
1.0017 1.00378 0.988596
1.00083 1.00464 0.988465
1.00038 1.005 0.989066
1.00523 0.994932 0.990558
1.00519 0.994827 0.990549
1.0051 0.994906 0.990291
1.0047 0.995747 0.989974
1.00402 1.00372 0.983663
1.00428 1.00356 0.983789
1.0001 1.0013 0.993173
1.00021 1.00102 0.99345
1.00047 1.00138 0.992822
1.0002 1.0029 0.991407
1.00008 1.00479 0.989997
1.00138 1.00433 0.988286
1.00001 1.00498 0.988861
1.00243 1.00127 0.988334
0.999944 1.00335 0.991358
1.0001 1.00503 0.989761
1.00518 0.995102 0.990238
1.00511 0.996768 0.988654
1.00186 1.00278 0.989414
1.0039 1.00019 0.988275
1.00502 0.999654 0.985891
1.00502 1.00093 0.98506
0.999832 1.00386 0.991129
1.00525 0.9949 0.990432
1.00081 1.00464 0.988933
1.00389 1.00068 0.987282
1.00517 0.995519 0.990073
1.00508 0.998524 0.986397
1.00485 1.00141 0.984698
0.999931 1.00471 0.990492
1.00455 0.995001 0.991521
1.00241 1.003 0.988271
1.00427 1.00149 0.986054
1.00485 0.996632 0.989321
1.00372 1.00141 0.985666
0.99851 0.997597 0.989954
0.999685 1.00301 0.992174
0.999256 1.00299 0.993069
0.999647 1.00281 0.993131
1.00003 1.00247 0.992241
1.00003 1.00335 0.99129
1.00031 1.00307 0.991372
0.999569 1.0025 0.992775
1.00007 1.00264 0.992039
1.00023 1.00348 0.990891
0.999917 1.00179 0.993318
1.0001 1.00399 0.99065
1.00001 1.00287 0.991952
0.999862 1.00224 0.993002
1.00031 1.00417 0.990209
1.00017 1.00418 0.990424
1.00039 1.00361 0.99054
1.00012 1.00279 0.991694
1.00024 1.00332 0.991258
1.00012 1.00283 0.99158
0.999969 1.00122 0.993577
0.999973 1.0012 0.993603
1.00004 0.998563 0.996087
1 1.00104 0.993711
1.00007 0.998506 0.996395
1.00002 0.996953 0.999133
1.00011 0.998425 0.996722
1.00006 0.996881 0.997988
1.00006 0.996877 0.997973
1.00014 0.999878 0.994661
1.00021 0.999824 0.994609
1.0001 0.997917 0.996662
1.00008 0.998035 0.996812
0.999892 0.996857 0.999237
1.00002 0.998349 0.996372
0.999811 0.99711 0.999194
0.999748 0.997456 0.999114
1.00521 0.994933 0.990464
1.00517 0.99495 0.990811
1.00513 0.994965 0.990984
1.00517 0.994956 0.990849
1.00523 0.994938 0.990602
1.00528 0.99493 0.990561
1.00528 0.994939 0.990561
1.0011 0.994862 0.98579
1.00447 0.994876 0.992995
1.00003 1.00132 0.993415
1.00517 0.994934 0.990804
1.00518 0.99491 0.990548
1.00513 0.994903 0.990589
1.00417 1.00331 0.98362
1.0049 1.00298 0.983173
1.00488 0.999956 0.985569
1.00507 0.995368 0.990116
1.00389 1.00265 0.985933
1.00098 1.00368 0.989071
1.00096 1.00468 0.988674
1.00017 0.999933 0.994553
1.00039 1.00504 0.989165
1.00005 1.00176 0.993142
1.00022 1.00405 0.990493
1.00019 1.001 0.993308
1.00522 0.994922 0.990559
1.00011 1.00125 0.993273
1.00017 1.00109 0.993446
1.00041 1.0014 0.992797
1.00518 0.994851 0.990527
1.00511 0.994899 0.990322
1.00416 1.00367 0.983701
1.00429 1.00281 0.984399
1.00464 0.996266 0.989861
1.00005 1.003 0.99156
1.00021 1.00469 0.989826
1.00238 1.00225 0.988062
1.00054 1.00479 0.988882
1.00123 1.0042 0.988422
1.00523 0.99499 0.990641
1.00513 0.994794 0.990686
1.00507 0.995392 0.989878
1.00444 0.998164 0.98911
1.00207 1.0037 0.987496
1.00008 1.00226 0.992253
1.00047 1.00154 0.992327
1.00012 1.00217 0.992171
0.99994 1.00439 0.991023
1.00015 1.00471 0.98967
1.00034 1.00457 0.98907
1.00094 1.00306 0.98927
1.00004 1.00378 0.991072
1.00051 1.00459 0.988975
1.00526 0.994892 0.990555
1.00518 0.995411 0.990068
1.00507 0.998696 0.986675
1.00409 1.00068 0.986922
1.00481 1.0013 0.984722
1.00008 1.00455 0.990593
1.00452 0.995095 0.991636
1.0023 1.00295 0.988149
1.00415 1.00156 0.985893
1.00499 0.996053 0.989587
1.00394 1.00156 0.985681
0.998514 0.997759 0.987739
1.00024 1.00434 0.990236
1.00253 0.998435 0.991559
1.0023 1.00215 0.988503
1.00251 1.00164 0.987694
1.00356 0.997606 0.989648
1.00004 0.994929 0.951762
0.996994 0.99487 0.970473
0.996293 1.00146 0.989213
0.999792 0.995993 0.889978
0.994707 0.995436 0.862057
0.999077 1.00316 0.993048
0.999159 1.00312 0.993297
0.999556 1.00308 0.992868
1.00005 1.00265 0.992042
1.0003 1.00335 0.990886
1.00008 1.00403 0.990661
1.00015 1.00279 0.991824
0.999826 1.00178 0.993229
1.00021 1.00414 0.99038
1.00011 1.00277 0.991764
1.00037 1.00359 0.990566
0.999915 1.00207 0.99287
1.00019 1.00416 0.990379
1.00023 1.00442 0.990398
0.999649 1.00413 0.99106
1.00023 1.00425 0.990203
1.00035 1.00351 0.990612
1.00017 1.00276 0.991597
1.00032 1.00359 0.99073
1.00014 1.00356 0.991124
1.00007 1.00327 0.991412
1.00021 1.00336 0.991182
1.0002 1.00251 0.991966
1.00015 1.00283 0.991569
1.00002 1.00114 0.993578
0.99998 1.00122 0.993577
1.00004 0.998624 0.996069
0.999961 1.00123 0.993598
1.00004 0.99858 0.996084
1.00001 0.996946 0.999137
1.00007 0.998564 0.996089
1.00003 0.996947 0.998545
1.00007 0.996845 0.99799
1.00006 0.999908 0.994759
1.00015 0.999869 0.994665
1.00011 0.997824 0.996754
1.00022 0.999777 0.99462
1.0001 0.99787 0.99692
0.999941 0.996689 0.999269
1.00008 0.998075 0.996529
0.999882 0.996931 0.999223
0.999808 0.997177 0.999182
1.00523 0.994938 0.990607
1.00517 0.994958 0.990851
1.00529 0.994932 0.990183
1.00083 0.994951 0.985918
1.00527 0.994937 0.99056
1.00434 0.995221 0.992589
1.00507 0.996216 0.991146
0.996515 0.994904 0.969589
1.00047 0.996839 0.987864
1.00005 1.00133 0.993387
1.00009 1.00127 0.993405
1.00001 1.00233 0.992431
0.999973 1.00222 0.992598
1.00522 0.994918 0.99056
1.00518 0.994874 0.990505
1.00512 0.994894 0.990353
1.00476 1.00348 0.983735
1.00417 1.00168 0.985001
1.00456 0.996791 0.989744
1.00204 1.00351 0.987792
1.0012 1.00459 0.988902
1.00106 1.00398 0.988558
1.00012 1.0012 0.993442
1.00026 1.00467 0.989654
1.00006 1.00305 0.991714
1.00012 1.00125 0.993375
1.0003 1.00146 0.992768
1.00523 0.994968 0.990646
1.00013 1.00226 0.992322
1.00046 1.00154 0.992512
0.999815 1.00212 0.992761
1.00514 0.994805 0.990585
1.00495 0.99542 0.989898
1.00271 1.00293 0.987409
1.00408 0.997857 0.989564
1.00006 1.00414 0.990825
1.0003 1.00485 0.989204
1.00109 1.00378 0.989147
1.00105 1.00431 0.988902
1.00452 0.994963 0.991571
1.00507 0.995446 0.990472
1.00501 0.996038 0.98969
1.00205 0.999491 0.991698
0.999799 1.0033 0.991739
1.00026 1.00264 0.991574
0.999171 1.00469 0.991382
0.999483 1.00484 0.990095
0.999994 0.99492 0.942606
1.00015 1.00443 0.990694
1.00205 1.00306 0.988025
1.00449 0.994996 0.991756
1.00508 0.995603 0.989849
1.00408 1.00162 0.985684
1.00399 1.00175 0.985725
0.998608 0.99766 0.985457
1.00012 1.00451 0.990428
1.00259 0.997935 0.991592
1.00227 1.00224 0.988521
1.00309 1.00119 0.987659
1.00384 0.99763 0.98958
1.001 0.995046 0.94124
0.996908 0.994894 0.96611
0.996376 1.00206 0.989063
0.999779 0.995322 0.893722
0.994736 0.995462 0.850877
0.999936 1.00387 0.991342
0.999813 0.994854 0.900697
0.994695 0.99531 0.860949
1.00139 1.00003 0.991364
1.00116 1.00205 0.990269
1.00183 1.00065 0.990062
0.996176 1.00236 0.989575
1.00073 0.996361 0.947678
0.99491 0.995615 0.963708
0.997385 0.998388 0.900644
0.994802 0.99546 0.855595
0.998812 1.00337 0.993462
0.999376 1.00316 0.992766
0.999445 1.00337 0.992907
1.00014 1.00271 0.991834
1.00038 1.00361 0.990592
0.999969 1.00437 0.990338
1.00007 1.00415 0.990549
1.00002 1.00189 0.992737
1.00017 1.00276 0.991603
1.00003 1.00456 0.990339
1.00024 1.00426 0.990183
1.00042 1.00344 0.990662
0.999637 1.00411 0.991166
0.999789 1.0047 0.990852
0.998826 1.00495 0.991522
1.00043 1.00388 0.990245
1.00038 1.00355 0.990664
1.00035 1.00358 0.990713
1.00008 1.00355 0.991204
1.00039 1.00371 0.990478
0.999976 1.00359 0.99129
0.999606 1.00357 0.991465
0.999709 1.00452 0.990689
0.999924 1.00356 0.991355
1.00012 1.00322 0.991412
1.00013 1.00242 0.992168
1.00018 1.00337 0.991106
1.00021 1.00251 0.991894
1.0001 1.00107 0.993541
1.00018 1.00283 0.991559
1.00001 1.00116 0.993583
1.00008 0.998557 0.996657
0.999964 1.00124 0.993577
1.00004 0.998584 0.996371
1.00004 0.99696 0.997949
1.00004 0.998592 0.996081
1.00001 0.996959 0.999137
1.00005 0.996954 0.997956
1.00009 1.0014 0.993218
1 0.99996 0.994796
1.00007 0.999894 0.994762
1.0001 0.997799 0.996788
1.00016 0.999839 0.994669
1.00012 0.997783 0.996757
0.99998 0.99659 0.999286
1.00009 0.997868 0.997154
0.999958 0.996781 0.998749
0.999926 0.996986 0.998178
1.00048 0.995226 0.986065
1.00526 0.994944 0.99056
1.00411 0.995961 0.992176
0.996665 0.994876 0.970701
1.00042 0.996531 0.988176
1.00509 0.99579 0.991012
1.00306 0.997331 0.988141
0.996499 0.996808 0.973562
1.00003 0.995265 0.948799
0.999494 0.997441 0.904064
0.994669 0.995659 0.860092
0.999922 1.00229 0.992493
1.00008 1.0013 0.993382
1.00016 1.0012 0.993394
1.00002 1.00232 0.992432
0.999732 1.00329 0.991939
1.00026 1.00241 0.991896
1.00003 1.00274 0.992182
0.999994 1.00228 0.992482
1.00524 0.994885 0.990646
1.00515 0.994815 0.990483
1.00483 0.995308 0.98992
1.00288 1.0025 0.98733
1.00377 0.997757 0.990025
1.00128 1.00449 0.989018
1.0017 1.00416 0.988735
1.0006 1.00502 0.988743
1.00033 1.00154 0.992699
1.00005 1.00419 0.990625
1.00018 1.00228 0.992394
0.999674 1.00205 0.993348
1.00456 0.994861 0.991722
0.999798 1.00334 0.991794
1.00022 1.00279 0.99176
1.00497 0.995234 0.990435
1.00481 0.995596 0.989834
1.00201 0.99946 0.991313
0.999644 1.00497 0.990736
1.00021 1.00453 0.990181
1.00328 0.995281 0.991958
1.00446 0.996692 0.990598
1.00469 0.995075 0.991058
1.00136 0.999295 0.992675
0.999936 1.00445 0.990434
0.999511 1.00419 0.991287
0.999432 1.00515 0.990959
0.999838 0.994847 0.902211
1.00042 0.994924 0.953082
1.00006 1.00459 0.990621
1.0023 1.00213 0.988544
1.00254 0.997527 0.991633
1.00421 0.997763 0.989516
1.00379 1.00073 0.98764
1.00007 0.994946 0.950315
0.997203 0.994917 0.965357
0.996458 1.00255 0.988864
0.999671 0.996284 0.905301
0.994764 0.995654 0.83927
0.999978 1.00369 0.991295
0.999844 0.99537 0.899623
0.994678 0.995389 0.855145
1.00142 1.00004 0.991421
1.00131 1.00189 0.990322
1.00197 1.00042 0.990664
0.996313 1.00268 0.99021
1.00175 0.996358 0.940719
0.994917 0.99512 0.967476
0.998353 0.99878 0.900294
0.994797 0.995313 0.854069
0.999567 1.00349 0.992724
0.994687 0.995488 0.857816
0.994802 0.995192 0.872323
0.999076 1.00169 0.994061
0.999604 1.00255 0.993522
0.995557 1.0025 0.989804
0.994871 0.997504 0.966963
0.997632 0.998733 0.937842
0.994721 0.999779 0.905705
0.994841 0.994802 0.858103
0.999326 1.00319 0.992668
0.999611 1.00312 0.992738
0.998315 1.00419 0.993049
1.00017 1.00276 0.991608
1.00044 1.0034 0.990713
1.00026 1.00423 0.990162
0.999907 1.00468 0.99028
0.999514 1.00414 0.991272
1.00038 1.00356 0.990661
0.999833 1.00448 0.990699
1.00043 1.00384 0.990275
0.998562 1.00497 0.991767
0.996881 1.0052 0.994227
0.999913 1.00429 0.990845
1.00059 1.00402 0.989933
1.00037 1.00356 0.990695
1.00011 1.00346 0.991285
1.00039 1.0038 0.99043
1.00003 1.00355 0.991246
0.999548 1.0035 0.991855
0.999729 1.00417 0.991035
0.999732 1.00407 0.99095
0.999405 1.00347 0.992001
1.00031 1.00269 0.991587
1.00051 1.00396 0.989332
0.999578 1.00465 0.990604
0.999806 1.00445 0.990693
0.999772 1.00409 0.991059
0.999957 1.00357 0.991344
1.00001 1.00256 0.992166
1.00012 1.00327 0.991412
1.00014 1.00241 0.992175
1.00017 1.00092 0.99352
1.00022 1.00253 0.991822
1.0001 1.00105 0.993553
1.00012 0.998532 0.996602
1.00001 1.00116 0.993587
1.00009 0.998529 0.996349
1.00006 0.996893 0.997948
1.00006 0.998556 0.996076
1.00001 0.996961 0.999133
1.00001 0.996955 0.999137
1.00012 1.00166 0.993184
0.999988 1.0001 0.994701
1.00009 1.00144 0.993224
1.00011 0.997806 0.996781
1 0.999963 0.994798
1.00007 0.999901 0.994765
1.00011 0.997788 0.996784
1.00001 0.99653 0.999288
1.0001 0.997756 0.997234
0.999997 0.9966 0.998795
0.999978 0.996791 0.998262
0.999837 0.995351 0.891331
0.994677 0.995454 0.85768
0.998039 0.994875 0.97053
1.00048 0.995462 0.98851
1.00515 0.995032 0.990879
0.996158 0.995849 0.974444
1.00336 0.99625 0.988522
1.00118 0.995606 0.947272
0.999815 0.996189 0.892472
0.994716 0.995586 0.848944
0.998607 0.994884 0.978272
1.00001 0.997017 0.94826
0.998016 0.998643 0.898429
0.994801 0.995239 0.856024
1.00005 1.00328 0.991487
0.999914 1.00226 0.992583
1.00012 1.00126 0.993378
1 1.00232 0.992433
0.999732 1.00311 0.992128
1.00003 1.00357 0.991242
1.00019 1.00275 0.991794
1.00027 1.00319 0.991097
1.00006 1.00267 0.992076
0.999977 1.00239 0.992367
1.00462 0.994826 0.991871
1.00494 0.995023 0.990412
1.00445 0.995313 0.989975
1.0018 0.999557 0.990927
1.00073 1.00453 0.99027
0.999791 1.00513 0.99009
1.00022 1.00274 0.991951
0.999761 1.00341 0.991846
1.00318 0.995352 0.992245
0.999907 1.00463 0.990298
0.999414 1.00431 0.991202
1.0046 0.996105 0.990507
1.00456 0.995198 0.990782
1.00118 0.999312 0.992793
0.999604 1.00508 0.990921
1.00062 0.99676 0.992438
1.00282 0.996357 0.993749
1.00027 1.00128 0.992976
0.999323 1.00473 0.99019
0.999562 1.00499 0.990213
0.999256 1.00509 0.991056
0.994749 0.995824 0.87531
0.999836 0.994872 0.905809
0.999982 0.9949 0.942975
0.999831 1.00368 0.991243
1.00142 1.00182 0.990369
1.00146 1.00004 0.991477
1.00213 1.00016 0.99126
0.999832 0.994851 0.908082
1 0.996216 0.940435
0.994889 0.994858 0.963911
0.996423 1.00218 0.99082
0.997496 0.998477 0.888838
0.994697 0.995353 0.857924
0.994777 0.995082 0.861504
0.999292 1.00335 0.992646
0.994693 0.995191 0.865052
0.994837 0.99528 0.871957
0.998971 1.00145 0.994221
0.999367 1.0023 0.993527
0.995527 0.999544 0.992576
0.994882 0.997249 0.965971
0.997423 0.999602 0.948058
0.996808 0.999912 0.893148
0.994812 0.994794 0.866078
0.997519 1.00347 0.995769
0.99482 0.995541 0.880893
0.994787 0.994774 0.874171
0.99555 1.00208 0.999703
0.994816 0.999356 0.97353
0.994898 0.999955 0.948869
0.994891 0.999088 0.888636
0.994879 0.994818 0.865058
0.999781 1.00277 0.992563
0.998602 1.00415 0.993345
0.996967 1.00494 0.995173
1.00033 1.00362 0.990658
1.00047 1.00379 0.990305
0.999919 1.00421 0.990546
0.998289 1.0051 0.992019
1.00049 1.0041 0.989926
0.999859 1.00434 0.990792
0.997015 1.00512 0.99468
0.99513 1.00529 0.99729
0.99754 1.00493 0.994309
1.00035 1.004 0.990321
1.0004 1.00387 0.99038
1.00006 1.00353 0.9912
0.999408 1.00351 0.992238
0.999771 1.00396 0.991067
0.999777 1.00413 0.991054
0.999421 1.00366 0.992062
0.999971 1.00352 0.991565
0.99805 1.00411 0.993619
1.00163 0.999509 0.992148
1.00032 1.00252 0.991726
1.00072 1.00307 0.990208
1.00246 1.00386 0.986753
1.00005 1.00462 0.990536
1.00032 1.00411 0.989749
0.999761 1.00456 0.99061
0.999619 1.00444 0.990766
0.999901 1.00437 0.990698
0.999891 1.00396 0.991062
0.999971 1.00296 0.991857
1.00008 1.00347 0.991334
1.00009 1.00251 0.992159
1.00021 1.00093 0.993475
1.00019 1.00235 0.992183
1.00019 1.00094 0.993527
1.00016 0.998512 0.996562
1.00011 1.00103 0.993565
1.00013 0.998515 0.996289
1.00005 0.996974 0.997893
1.0001 0.998509 0.996049
1.00003 0.996921 0.998541
1.00001 0.996944 0.999134
1.00016 1.00214 0.992421
1.00005 1.00023 0.994503
1.00009 1.00168 0.993005
1.0001 0.997872 0.996716
0.999995 1.00008 0.994703
1.00006 1.00148 0.993229
1.00003 0.996511 0.999285
1.0001 0.997806 0.996781
1.00001 0.999959 0.9948
1.00011 0.997776 0.99678
1.00001 0.996551 0.999288
0.99998 0.996586 0.999286
0.994677 0.994819 0.863249
0.99986 0.995303 0.898892
0.994843 0.995544 0.870569
0.994699 0.995485 0.855366
0.995888 0.995632 0.971898
1.00343 0.996011 0.988939
1.00006 0.995942 0.94523
0.99982 0.996654 0.904675
0.994775 0.996113 0.837508
0.998234 0.995612 0.977507
1.00148 0.996909 0.936776
0.998233 0.999095 0.899028
0.994804 0.995628 0.850463
0.995507 0.995627 0.972019
0.997617 0.998643 0.938166
0.995383 0.999782 0.887885
0.994811 0.994806 0.85343
1.00012 1.00411 0.990814
1.00002 1.00313 0.99162
0.999903 1.00228 0.99267
0.999734 1.00295 0.992317
1.00042 1.00399 0.990048
0.999979 1.00348 0.991387
1.00002 1.00302 0.991693
1.00052 1.00306 0.991
1.00031 1.00322 0.99118
1.00009 1.00258 0.991969
1.00317 0.994848 0.992519
1.00468 0.995447 0.99043
1.00464 0.995343 0.990504
1.00115 0.999043 0.992923
1.00004 1.00477 0.990884
0.999521 1.00445 0.99112
0.999824 1.00477 0.990163
0.999954 1.00489 0.989953
1.00048 0.996331 0.992738
0.999863 1.00492 0.990102
0.999563 1.00508 0.99104
1.00295 0.995965 0.993801
1.00094 1.00032 0.992818
0.998172 0.997021 0.993398
0.998149 0.99931 0.999517
0.998619 1.00352 0.993008
1.00001 1.00469 0.990093
0.999258 1.00498 0.991158
0.994838 0.995806 0.885323
0.994742 0.995705 0.87245
0.99982 0.994857 0.894311
0.999072 1.00317 0.992576
0.999143 1.0019 0.993519
0.998993 1.00137 0.994391
0.994674 0.994831 0.86509
0.997373 0.998565 0.939082
0.994852 0.997011 0.966204
0.995807 0.997785 0.995574
0.994933 0.999834 0.906355
0.994806 0.995474 0.871719
0.994807 0.994806 0.866365
0.997519 1.00327 0.996122
0.994795 0.995151 0.88366
0.99477 0.994775 0.874302
0.995663 1.00223 0.998681
0.994852 0.999033 0.97514
0.995929 0.999726 0.938846
0.99487 0.994815 0.864166
0.994874 0.99991 0.896193
0.995554 1.0049 0.998436
0.994727 0.994802 0.890752
0.994828 0.994781 0.877522
0.994813 0.994797 0.854126
0.995077 1.00002 0.992163
0.99495 0.999461 0.952284
0.995004 0.999515 0.898094
0.999008 1.00414 0.993638
0.997553 1.00505 0.994293
0.995165 1.0051 0.998389
1.00046 1.00411 0.98992
0.999762 1.00438 0.990736
0.996981 1.00492 0.995119
1.00018 1.00411 0.990348
0.997614 1.00475 0.994333
0.995363 1.0053 0.997124
0.995136 1.00524 0.998267
0.997597 1.0046 0.994141
0.999781 1.00393 0.991188
0.999829 1.0041 0.991074
0.999474 1.00385 0.992131
0.998362 1.0042 0.993476
0.999824 1.00349 0.991528
0.999539 1.00264 0.993061
1.00068 0.999999 0.993362
1.00154 1.0016 0.989616
1.00034 1.00237 0.991868
1.00123 1.00304 0.98985
1.00322 1.00272 0.986311
1.00333 1.00288 0.985993
1.00059 1.00455 0.989396
1.0021 1.00375 0.986893
0.9999 1.00485 0.990238
0.999909 1.00467 0.990503
1.00008 1.00423 0.990166
0.999936 1.00447 0.990616
0.99969 1.00433 0.990836
0.999992 1.00333 0.991453
0.999995 1.00383 0.991065
1.00004 1.00289 0.991862
1.00019 1.00117 0.993269
1.00014 1.00249 0.992153
1.00022 1.00093 0.993469
1.00014 0.998513 0.996562
1.0002 1.00092 0.993534
1.00016 0.998492 0.996255
1.00002 0.997046 0.997882
1.00015 0.99847 0.995991
1.00003 0.996977 0.998508
1.00001 0.99695 0.999124
1.00033 1.00231 0.99178
1.0001 1.00054 0.993865
1.00019 1.00212 0.992419
1.00012 0.997965 0.996581
1.00004 1.00023 0.994359
1.0001 1.00167 0.99283
1.00003 0.996567 0.999266
1.0001 0.997858 0.996721
0.999999 1.00005 0.994705
1.00002 0.996525 0.999286
1.00009 0.997808 0.996781
1 0.996546 0.999289
0.994831 0.994811 0.879419
0.994688 0.995212 0.870755
0.999846 0.995342 0.899377
1.00065 1.00312 0.990613
0.994744 0.99481 0.880537
0.994806 0.995361 0.87044
0.994734 0.99523 0.862026
0.998472 0.995935 0.976308
0.999667 0.997402 0.947201
0.997902 0.998447 0.886876
0.994771 0.995596 0.854275
0.996582 0.995163 0.968462
0.997425 0.99908 0.947402
0.996554 0.999905 0.891984
0.994809 0.994816 0.857123
0.99488 0.995428 0.96413
0.99521 0.999828 0.946948
0.994861 0.999983 0.89734
0.994883 0.994827 0.864753
1.00012 1.00462 0.990027
1.0001 1.00414 0.990618
1.00008 1.003 0.991754
1.00046 1.0038 0.990229
1.00031 1.00406 0.990265
0.999996 1.00344 0.991529
1.00056 1.00307 0.991014
1.00031 1.00325 0.991259
0.999973 0.99704 0.99295
1.00316 0.995612 0.993808
1.00013 1.00502 0.989716
1.00145 0.999831 0.992653
0.999838 1.00508 0.99102
1.00002 1.00501 0.98999
0.999899 1.00473 0.990076
0.997377 0.997382 0.994059
0.999504 1.00477 0.991279
0.999211 1.00329 0.993087
0.998041 0.998939 0.999569
0.999993 1.00473 0.990357
0.996006 0.99965 0.991929
0.995052 1.00294 1.00083
0.997586 1.00508 0.993418
0.999563 1.00451 0.991444
0.99475 0.994773 0.896129
0.994847 0.995701 0.884794
0.994733 0.995647 0.86957
0.997474 1.00327 0.996498
0.99547 1.00194 0.99765
0.994815 0.99481 0.886322
0.994891 0.999971 0.948962
0.994865 0.99865 0.972381
0.994827 0.999956 0.895656
0.994801 0.994776 0.874378
0.994854 0.994818 0.863281
0.995849 1.00472 0.998072
0.994763 0.994806 0.890546
0.99482 0.994778 0.880943
0.994896 1.00077 0.995589
0.99481 0.994807 0.8576
0.994922 0.998702 0.946314
0.994983 0.999642 0.902273
0.994983 1.00409 0.998397
0.994773 0.99481 0.894701
0.994743 0.994803 0.881066
0.994778 0.995536 0.856408
0.995517 0.999984 0.897038
0.994899 1.00004 0.98095
0.994991 0.999793 0.938994
0.998272 1.005 0.993418
0.995519 1.00511 0.997931
0.994913 1.00511 0.999414
1.00001 1.00415 0.990374
0.997646 1.00468 0.99436
0.995833 1.00528 0.996966
0.997791 1.00453 0.994039
0.995223 1.00474 0.99826
0.99758 1.00312 0.996663
0.998679 1.00422 0.993325
0.999582 1.00353 0.991492
0.999568 1.00279 0.993257
0.999181 1.00342 0.991691
0.99973 1.00046 0.994552
1.00146 1.00137 0.990252
1.00345 1.00265 0.985866
1.00471 1.00181 0.984522
1.00174 1.00301 0.989486
1.00358 1.00283 0.985544
1.00456 1.00176 0.98592
1.00166 1.0038 0.987615
1.00326 1.00287 0.986192
0.999967 1.00505 0.989649
1.00062 1.00456 0.989338
1.00174 1.00366 0.987035
0.999984 1.00389 0.990807
0.999752 1.00484 0.990347
0.999793 1.00469 0.990468
0.999772 1.00423 0.990904
1.00005 1.00328 0.991457
1.0002 1.00153 0.992869
1.0001 1.00285 0.991866
1.0002 1.00117 0.993259
1.0001 0.998653 0.995918
1.00024 1.00096 0.993463
1.00016 0.998512 0.995952
0.999909 0.9971 0.999107
1.00017 0.998481 0.995952
1 0.99705 0.99849
1 0.997002 0.999106
1.00035 1.00251 0.991496
1.00021 1.00088 0.99335
1.00029 1.00236 0.991891
1.00015 0.998124 0.996383
1.00013 1.00055 0.993802
1.00019 1.00213 0.992416
1.00004 0.99662 0.999235
1.00012 0.997949 0.996592
1.00005 1.00024 0.994216
1.00004 0.996539 0.999272
1.0001 0.997842 0.996727
1.00002 0.996542 0.999288
0.994767 0.994805 0.892588
0.994825 0.99527 0.879338
0.994685 0.99569 0.870943
1.00056 1.00316 0.990722
1.00051 1.00335 0.990472
1.00062 1.00342 0.990487
0.994847 0.994775 0.876958
0.994771 0.994785 0.880615
0.994768 0.99547 0.870311
0.996498 0.994869 0.970613
0.998117 0.998872 0.936851
0.99509 0.999927 0.905377
0.994836 0.994835 0.852998
0.9949 0.99601 0.967648
0.995812 0.999948 0.943408
0.994818 0.999756 0.896392
0.994875 0.994821 0.863744
0.994905 0.996227 0.963527
0.994879 0.99946 0.948826
0.9951 0.999812 0.897854
0.994845 0.99481 0.858059
1.00034 1.00406 0.990091
1.00023 1.00454 0.989874
1.00026 1.00403 0.990421
1.00055 1.00367 0.990198
1.00014 1.00414 0.990485
1.00057 1.0031 0.991029
0.996774 0.997587 0.994716
0.997607 0.998578 0.999662
1.00001 1.00448 0.990058
0.999794 1.00258 0.993162
0.999552 1.0047 0.9914
0.99988 1.00462 0.990295
0.999193 1.00456 0.9916
0.995682 0.999635 0.992116
0.997674 1.00514 0.994053
0.995321 1.00254 0.999945
0.999429 1.0039 0.992032
0.995442 0.999817 0.990631
0.995927 1.00307 0.997252
0.997837 1.00511 0.994182
0.994755 0.994766 0.899424
0.99474 0.994774 0.896896
0.994849 0.995545 0.884257
0.995995 1.0046 0.997684
0.994859 1.00086 0.992301
0.994756 0.99481 0.890346
0.994851 0.999237 0.94755
0.994986 0.999508 0.890393
0.994809 0.99477 0.884349
0.994852 0.994843 0.853646
0.995116 1.00391 0.998893
0.994763 0.994811 0.896102
0.994777 0.994905 0.881151
0.994919 0.999654 0.977794
0.994788 0.9958 0.850972
0.99486 0.999979 0.895744
0.994925 0.999698 0.949971
0.995104 1.00488 0.994066
0.994766 0.994802 0.892892
0.994849 0.995915 0.871122
0.994647 0.996098 0.860826
0.995735 0.999014 0.887728
0.995595 0.999952 0.947319
0.99493 1.0005 0.971743
0.995986 1.00517 0.997482
0.99523 1.0043 0.999331
0.99697 1.00297 0.997935
0.997942 1.00456 0.99394
0.995464 1.00426 0.998263
0.996496 1.00421 0.996901
0.999502 0.999568 0.996992
0.999625 1.00294 0.993451
1.00079 1.00275 0.991289
1.00213 1.00367 0.987415
1.00135 1.00116 0.990915
1.00346 1.00269 0.98596
1.00417 1.00394 0.983349
1.00484 1.0019 0.984084
1.0047 1.00149 0.984923
1.00469 1.002 0.984347
1.00399 1.00289 0.984777
1.00397 1.00208 0.986475
1.00422 1.00162 0.986123
1.00089 1.00443 0.988254
1.00178 1.00385 0.987792
1.00321 1.00288 0.986391
0.999989 1.0047 0.989762
1.00016 1.00503 0.989628
1.00061 1.00462 0.989279
1.0002 1.00213 0.992334
1.00011 1.00386 0.990807
0.999619 1.00483 0.990456
1.00011 1.00321 0.991462
1.00023 1.00154 0.992862
1.00003 0.9989 0.995797
1.00022 1.00117 0.99325
1.00011 0.998659 0.995907
0.999863 0.997245 0.999093
1.00016 0.998512 0.995948
0.999947 0.997127 0.998491
0.999967 0.997079 0.999098
1.00038 1.00288 0.991312
1.0003 1.00111 0.993155
1.0004 1.00249 0.991563
1.00018 0.998319 0.996125
1.0002 1.00088 0.993434
1.0003 1.00237 0.992003
1.00004 0.996734 0.99919
1.00015 0.998095 0.996399
1.00015 1.00054 0.993739
1.00004 0.996616 0.999244
1.00012 0.997935 0.996604
1.00004 0.996542 0.999279
0.994776 0.994816 0.894339
0.994765 0.994814 0.892388
0.994816 0.995626 0.879366
1.00038 1.00392 0.990082
1.00073 1.004 0.989732
1.00048 1.00322 0.990834
1.00046 1.0035 0.990429
1.00044 1.00354 0.990484
1.00033 1.00386 0.990326
1.00042 1.00361 0.990445
0.994808 0.99476 0.873639
0.994835 0.994781 0.880439
0.994797 0.994771 0.880705
0.994867 0.994821 0.862778
0.994899 0.995996 0.964575
0.995081 0.999955 0.939997
0.994876 0.999367 0.90512
0.995001 0.996676 0.962557
0.994884 0.999774 0.939113
0.994964 0.99957 0.902485
0.994821 0.994795 0.866082
0.995591 0.996355 0.966396
0.994919 0.999892 0.9394
0.994938 0.999543 0.889185
0.994814 0.995736 0.854933
0.999456 1.00492 0.990981
1.0002 1.00428 0.990136
1.00028 1.00466 0.98972
1.00065 1.0036 0.990169
0.995413 1.00001 0.992467
0.995349 1.0033 0.999025
0.999798 1.00493 0.990234
0.999151 1.00451 0.991755
0.998031 1.00512 0.994678
0.999415 1.00401 0.991955
0.997618 1.0051 0.994174
0.995331 1.00133 0.987737
0.995223 1.00427 0.997778
0.997292 1.00456 0.995245
0.994807 0.999849 0.987668
0.99687 1.00407 0.997626
0.994743 0.994779 0.896254
0.994766 0.994764 0.902225
0.994739 0.994764 0.897658
0.994978 1.00373 0.999332
0.994935 0.998455 0.981687
0.994761 0.99481 0.897546
0.99574 0.999256 0.939684
0.994879 0.999644 0.904528
0.994808 0.994761 0.881244
0.994739 0.995763 0.854782
0.994905 1.00402 0.994771
0.994766 0.994803 0.89271
0.9948 0.995587 0.871006
0.994945 1.0006 0.972381
0.994686 0.995911 0.849826
0.996599 0.999911 0.891524
0.994877 0.999875 0.938548
0.995526 1.00478 0.988573
0.994827 0.994808 0.880102
0.994658 0.995624 0.858531
0.998422 0.99748 0.899136
0.994991 0.999933 0.946994
0.994998 1.00001 0.965182
0.995236 1.00367 0.999495
0.996143 1.00375 0.997969
0.997046 1.00053 0.999314
0.995466 1.00515 0.997128
0.998205 1.00013 0.997264
1.00245 0.998913 0.992651
1.00242 1.00199 0.990886
1.00259 1.00344 0.98735
1.00312 1.00425 0.984366
1.00341 1.00275 0.986057
1.00446 1.00391 0.983027
1.00427 1.00445 0.982622
1.00496 1.00116 0.98474
1.00503 1.00129 0.984537
1.00478 1.00206 0.984059
1.00457 1.00131 0.985332
1.00467 1.0014 0.985088
1.00464 1.00225 0.984172
1.00302 1.0034 0.986362
1.00374 1.00202 0.986438
1.00386 1.00147 0.986323
1.00058 1.00497 0.988562
1.00091 1.00452 0.988486
1.00192 1.00386 0.987972
1.0001 1.00307 0.991428
1.0002 1.00466 0.989784
1.00032 1.005 0.989607
0.999943 0.99921 0.995619
1.00023 1.00208 0.992317
1.00022 1.00382 0.990806
1.00025 1.00154 0.992855
1.00002 0.998931 0.995779
0.999787 0.997442 0.999073
1.00012 0.998661 0.995896
0.999857 0.997278 0.999089
0.999917 0.997151 0.999098
1.00034 1.00426 0.989965
1.00051 1.00316 0.990853
1.00034 1.0015 0.99271
1.0004 1.00284 0.991302
1.00018 0.998586 0.995848
1.00029 1.00113 0.993154
1.00035 1.00256 0.991629
1.00003 0.996881 0.999129
1.00017 0.998315 0.996143
1.0002 1.00088 0.993518
1.00004 0.996708 0.999204
1.00015 0.998077 0.996416
1.00004 0.996585 0.999254
0.994733 0.994797 0.890339
0.994763 0.994812 0.895782
0.994767 0.994826 0.892167
1.00045 1.00395 0.990104
1.00055 1.00403 0.989787
1.00027 1.00348 0.990314
1.00019 1.00434 0.989877
1.00064 1.00429 0.989949
1.00047 1.00358 0.990385
1.00037 1.00365 0.990481
1.0004 1.00381 0.990334
1.00046 1.00372 0.990488
0.999993 1.00456 0.990467
0.994807 0.995533 0.871722
0.994781 0.99477 0.873841
0.994816 0.994777 0.883888
0.994819 0.994799 0.866373
0.995081 0.999806 0.890331
0.995045 0.997808 0.960988
0.994897 0.999842 0.94862
0.995285 0.996341 0.963206
0.994917 0.998991 0.949372
0.994851 0.999942 0.897425
0.99481 0.995562 0.853151
0.994838 0.995545 0.967938
0.994898 0.999979 0.949198
0.995161 0.999837 0.90445
0.994724 0.995784 0.85959
0.998524 1.00397 0.993122
0.999558 1.00477 0.99091
1.0002 1.00427 0.990183
0.995215 1.00174 0.984646
0.995141 1.00449 0.998304
0.999333 1.00396 0.991879
0.99696 1.00518 0.994174
0.997334 1.00417 0.995251
0.996124 1.00367 0.997734
0.994945 0.999855 0.987488
0.995897 1.00204 0.99898
0.995932 0.999731 0.989853
0.994837 0.995492 0.884851
0.994741 0.994776 0.896992
0.994772 0.994771 0.905029
0.994941 1.00283 0.995092
0.99495 1.00067 0.969169
0.994767 0.994818 0.892498
0.995614 0.999963 0.946601
0.994884 0.999921 0.904735
0.994752 0.995786 0.870911
0.994753 0.996138 0.838521
0.9955 1.00471 0.989177
0.994819 0.995043 0.880024
0.994689 0.995709 0.85622
0.994949 0.999989 0.966162
0.998303 0.99883 0.899636
0.995833 0.999924 0.942287
0.994987 1.00476 0.986563
0.994677 0.994822 0.864202
0.999783 0.996878 0.905002
0.997469 0.998413 0.938242
0.994836 0.997387 0.968273
0.995524 1.00456 0.997993
0.996795 1.00083 0.999251
1.00026 1.00259 0.993737
0.996916 1.00081 0.997483
1.0013 0.99938 0.992979
1.0036 0.999367 0.988991
1.00299 1.00315 0.98728
1.00318 1.00417 0.984349
1.00426 1.00182 0.98472
1.00475 1.00393 0.982707
1.00431 1.00405 0.982725
1.00476 1.00106 0.985101
1.00515 0.998978 0.986391
1.0051 1.00052 0.984983
1.00491 1.00105 0.984826
1.00509 1.00145 0.984453
1.00503 1.00132 0.984511
1.00474 1.00218 0.984034
1.00438 1.00199 0.985304
1.00443 1.00133 0.985468
1.00464 1.00132 0.985254
1.0019 1.0041 0.987289
1.0028 1.00336 0.986532
1.00348 1.00199 0.9864
1.00012 1.00441 0.989894
1.00073 1.00497 0.988572
1.00096 1.00462 0.988717
0.999879 0.999803 0.995813
1.0002 1.00305 0.991406
1.00041 1.00465 0.989806
0.999723 0.997703 0.997711
0.999939 0.99932 0.995859
1.00027 1.00204 0.9923
1.00002 0.998965 0.995761
0.999784 0.997475 0.999062
0.99985 0.997293 0.999084
1.00022 1.00455 0.989926
1.00042 1.00374 0.990419
1.00028 1.00431 0.989925
1.00037 1.0019 0.99227
1.00039 1.00333 0.990847
1.00015 0.998906 0.995572
1.00034 1.00148 0.992715
1.00048 1.00276 0.99129
1.00001 0.997086 0.999065
1.00018 0.998565 0.995864
1.00028 1.00115 0.993152
1.00003 0.99687 0.999148
1.00016 0.9983 0.99616
1.00004 0.996691 0.999218
0.994814 0.994828 0.887154
0.994766 0.9948 0.890141
0.99476 0.994809 0.897256
1.00053 1.00308 0.990573
1.00036 1.00414 0.990127
1.00046 1.004 0.989842
1.00038 1.00439 0.989827
1.00062 1.00334 0.990356
1.00046 1.00406 0.990311
1.00113 1.00368 0.989235
0.999585 1.0048 0.990222
1.00046 1.00373 0.990342
1.00016 1.00379 0.99053
0.999855 1.00447 0.990448
0.999118 1.00509 0.991786
0.994708 0.995807 0.859939
0.994842 0.995554 0.871383
0.994799 0.994777 0.873994
0.994788 0.995357 0.860675
0.994831 0.999948 0.897209
0.995056 0.999601 0.939428
0.995089 0.996036 0.962385
0.994873 0.995625 0.969318
0.99475 0.996026 0.8488
0.994885 0.999444 0.943585
0.996694 0.999931 0.892062
0.994874 0.996123 0.970549
0.99496 0.999946 0.949567
0.998867 0.9985 0.895384
0.999073 1.0015 0.995312
0.998651 1.00406 0.993088
0.99946 1.00468 0.990837
0.994936 1.00016 0.987644
0.995486 1.00333 0.997835
0.99732 1.0038 0.995259
0.996985 1.0019 0.998854
0.995391 0.999502 0.989967
0.996937 0.998517 0.993225
0.994752 0.996088 0.869789
0.994833 0.995178 0.88789
0.994744 0.994765 0.897723
0.995368 1.00463 0.989493
0.994854 0.999979 0.966226
0.994809 0.995292 0.880059
0.994884 0.999954 0.939328
0.998281 0.997454 0.887692
0.994725 0.995523 0.862841
0.994925 1.00465 0.986588
0.994691 0.995049 0.871621
0.999814 0.995812 0.893462
0.994902 0.99694 0.964323
0.997431 0.99884 0.947456
0.995753 1.00317 0.990995
0.999823 0.995265 0.891938
1 0.996791 0.948541
0.994874 0.995153 0.963657
0.996472 1.00088 0.999288
0.999631 1.00163 0.993744
1.00267 1.00246 0.988912
1.00022 0.999875 0.993312
1.003 1.00002 0.988917
1.00445 0.998584 0.987979
1.00323 1.0041 0.984331
1.00418 1.00189 0.984695
1.00498 0.997624 0.987487
1.00433 1.00362 0.982828
1.00467 1.00086 0.985145
1.00513 0.997242 0.98804
1.00514 0.997171 0.98835
1.00517 0.999223 0.986172
1.00515 0.998852 0.986536
1.00514 1.0006 0.984914
1.0051 1.00052 0.985074
1.00487 1.00096 0.984912
1.00511 1.00124 0.984746
1.00499 1.0014 0.984573
1.00503 1.00133 0.984484
1.00351 1.00261 0.98609
1.00432 1.00201 0.985294
1.00434 1.00132 0.985603
1.00084 1.00489 0.988355
1.00202 1.00414 0.987263
1.00257 1.0033 0.986704
0.999797 1.00074 0.994246
1.0004 1.00419 0.989896
1.00093 1.00498 0.988581
0.999636 0.998049 0.998941
0.999869 0.99991 0.995053
1.00031 1.003 0.991384
0.99973 0.99769 0.999024
0.999913 0.999403 0.995517
0.999785 0.997526 0.999052
1.00081 1.00387 0.989651
1.00028 1.00451 0.989846
1.00044 1.0042 0.989948
1.00029 1.00245 0.991852
1.00038 1.00376 0.990412
1.00033 1.00424 0.989885
1.00013 0.999225 0.995293
1.00034 1.00193 0.992276
1.0003 1.00346 0.990842
0.999975 0.997309 0.998996
1.00016 0.998861 0.995586
1.00034 1.00148 0.99272
1.00001 0.997046 0.999084
1.00018 0.998547 0.99588
1.00003 0.99683 0.999167
0.994815 0.995368 0.859003
0.994816 0.994812 0.887123
0.994763 0.994806 0.889949
1.00038 1.00336 0.990513
1.00183 1.00308 0.98976
1.00061 1.00356 0.990127
1.00041 1.00451 0.989777
1.00096 1.00318 0.990397
1.00008 1.00369 0.990671
0.999865 1.00478 0.990111
1.00083 1.00388 0.989413
1.00057 1.00458 0.98935
0.999885 1.00074 0.993935
1.00011 1.00441 0.99043
0.999242 1.0049 0.991458
0.999806 0.997161 0.887734
0.994754 0.995808 0.854125
0.994828 0.995631 0.871195
0.994773 0.996421 0.837643
0.996361 0.999165 0.904749
0.994857 0.999881 0.940781
0.995055 0.995559 0.966967
0.994888 0.996049 0.969214
0.9983 0.999284 0.897921
0.995909 0.999849 0.939741
0.994889 0.997414 0.970817
0.998276 0.998628 0.938045
1.0017 0.997645 0.99498
0.998979 1.00172 0.995209
0.998758 1.00418 0.993066
0.994904 0.999302 0.990043
0.997839 1.00179 0.99871
0.997494 0.998674 0.992845
0.998641 0.997802 0.990837
0.999849 0.994859 0.901779
0.994738 0.995661 0.869303
0.99484 0.994828 0.890831
0.994898 1.00478 0.986803
0.994863 0.996608 0.962357
0.994689 0.995239 0.871763
0.99852 0.998058 0.937331
0.999825 0.995979 0.905721
0.995491 1.0023 0.988511
0.999845 0.995182 0.899622
1.0014 0.996615 0.937468
0.994893 0.99523 0.967005
0.99812 0.99784 0.990253
1.00002 0.995351 0.949368
0.996113 0.99549 0.969627
0.999004 1.0007 0.993678
1.00244 1.0007 0.988905
1.00486 0.998461 0.988632
1.00235 1.00062 0.988851
1.00414 0.99876 0.988002
1.00493 0.996245 0.989297
1.0042 1.00192 0.984673
1.00493 0.997963 0.987403
1.00514 0.995551 0.989576
1.00462 1.00067 0.985188
1.00514 0.997261 0.988015
1.00514 0.995666 0.989736
1.00513 0.996247 0.98957
1.00515 0.996993 0.988567
1.00514 0.997821 0.987884
1.00518 0.999638 0.985977
1.00516 0.999292 0.986233
1.00515 0.998723 0.986682
1.00518 1.00084 0.984931
1.00515 1.00062 0.984885
1.0051 1.00051 0.985166
1.00459 1.00141 0.985429
1.005 1.00128 0.984748
1.00486 1.00139 0.984695
1.0019 1.00407 0.987426
1.00353 1.00268 0.986077
1.00427 1.00203 0.985284
0.99999 1.00168 0.992906
1.00098 1.00473 0.98836
1.0022 1.00406 0.987239
0.99969 0.998379 0.998774
0.999833 1.00082 0.994193
1.00063 1.00413 0.9899
0.999682 0.998061 0.99821
0.999862 0.999995 0.995043
0.999747 0.997773 0.99898
1.00133 1.00294 0.989654
1.00047 1.00403 0.989808
1.00036 1.00465 0.989458
1.00038 1.00448 0.989765
1.00032 1.00431 0.989939
1.00028 1.00296 0.991369
1.00006 0.999637 0.995013
1.00029 1.00242 0.991856
1.0003 1.00385 0.990405
0.999927 0.997539 0.998921
1.00012 0.999216 0.995305
1.0003 1.00196 0.992282
0.999976 0.997266 0.999018
1.00017 0.998831 0.995601
1.00001 0.997027 0.999103
0.999816 0.994872 0.900182
0.994707 0.995304 0.862329
0.994834 0.994794 0.887052
1.00022 1.00376 0.990453
1.00062 1.00425 0.989413
1.00138 1.00309 0.990039
1.00302 1.00338 0.986375
1.00056 1.00416 0.989846
1.00004 1.00485 0.990004
1.00066 1.00414 0.989592
1.0003 1.00456 0.989604
1.00129 1.0031 0.988571
1.00152 0.999719 0.992715
1.00421 0.996476 0.990696
1.00025 1.00025 0.993991
0.999774 1.0041 0.991127
0.998664 0.997099 0.947972
0.999792 0.997299 0.892749
0.994704 0.995704 0.85672
0.99882 0.999555 0.885418
0.995334 0.999952 0.946997
0.994848 0.995921 0.970179
0.994877 0.997345 0.972474
0.997418 0.998849 0.949068
0.99586 0.996984 0.971983
1.00183 0.995989 0.995391
1.00102 0.998359 0.995036
0.998907 1.00204 0.9951
0.998235 0.998232 0.992565
0.999032 0.997642 0.99087
0.999979 0.994985 0.942667
0.999841 0.994887 0.905757
0.994712 0.995279 0.868928
0.994978 1.00189 0.985956
0.994996 0.99492 0.963947
0.999835 0.995311 0.900144
1.00031 0.996834 0.94732
0.997157 0.998902 0.990702
1.00104 0.995576 0.947361
0.996644 0.99502 0.966743
1.00138 0.996251 0.989525
0.999009 0.995304 0.97597
1.00231 0.998773 0.988989
1.00478 0.997169 0.988595
1.00499 0.995937 0.990289
1.00382 0.998953 0.988023
1.00473 0.996431 0.989217
1.00518 0.994951 0.99019
1.00481 0.998359 0.98732
1.00514 0.995643 0.989522
1.00511 0.994965 0.990434
1.00514 0.997272 0.987989
1.00514 0.995715 0.98969
1.00516 0.995288 0.990287
1.00513 0.996016 0.989693
1.00512 0.996716 0.989092
1.00516 0.996816 0.988786
1.00514 0.997831 0.987863
1.00518 0.998649 0.987012
1.00521 1.00017 0.985542
1.00518 0.999684 0.985957
1.00516 0.999359 0.986294
1.00502 1.00072 0.985297
1.00514 1.00087 0.984871
1.00516 1.00064 0.984856
1.00305 1.00251 0.986949
1.00451 1.00153 0.985434
1.00488 1.00134 0.984751
1.00049 1.00206 0.991703
1.00193 1.00402 0.987423
1.00341 1.00287 0.986065
0.999821 0.999005 0.998446
1.00008 1.00171 0.992881
1.00117 1.00451 0.988364
0.999762 0.998524 0.998673
0.999884 1.00093 0.994138
0.999754 0.998106 0.998845
1.00299 1.00301 0.986502
1.00144 1.00278 0.989606
1.00058 1.00438 0.989119
1.00018 1.00411 0.989966
1.0003 1.00467 0.989455
1.00032 1.00352 0.990729
1.00023 1.00439 0.989931
1.00024 1.00297 0.991378
1 1.00005 0.99472
0.999858 0.99785 0.998843
1.00006 0.999597 0.995026
1.00029 1.0024 0.99186
0.999929 0.997523 0.998945
1.00011 0.999201 0.995317
0.999981 0.997221 0.999039
1.00004 0.995144 0.951942
0.99986 0.994878 0.899134
0.994697 0.995223 0.858504
1.00064 1.0048 0.988701
1.00104 1.00286 0.990321
1.00092 1.00392 0.989636
1.00292 1.00342 0.986605
1.00422 1.00253 0.984432
1.00151 1.00349 0.988024
1.00004 1.00454 0.989854
1.00207 1.00292 0.987769
1.00134 0.999653 0.992761
1.00315 0.999583 0.988983
1.00479 0.995743 0.990915
1.00399 0.996227 0.991365
1.00374 0.996511 0.99116
1.00001 1.00028 0.994049
0.995991 0.995745 0.971124
0.999943 0.996988 0.944763
0.998145 0.997039 0.904508
0.997479 0.999338 0.938055
0.99486 0.997709 0.972966
0.995666 0.997285 0.976995
0.999558 0.997513 0.992205
1.00222 0.995686 0.99523
1.00056 0.99898 0.995093
1.00021 0.99828 0.990902
0.996499 0.997321 0.971998
1.00014 0.995017 0.953004
0.999825 0.994878 0.894144
0.996316 0.99952 0.990969
0.996815 0.994879 0.96855
1.00004 0.9963 0.945165
1.0008 0.996268 0.989624
0.998431 0.995672 0.975381
1.00361 0.995463 0.990557
1.00273 0.998185 0.986803
1.00465 0.99604 0.988524
1.00485 0.995714 0.990322
1.00518 0.994875 0.990608
1.0046 0.996608 0.989138
1.00518 0.994951 0.990148
1.00514 0.994944 0.990495
1.00514 0.995706 0.989468
1.0051 0.995043 0.9904
1.00518 0.995016 0.99049
1.00514 0.995771 0.989644
1.00515 0.995297 0.990225
1.00514 0.995752 0.989825
1.00512 0.995792 0.989813
1.00513 0.996571 0.989226
1.00516 0.997901 0.987916
1.00515 0.99784 0.987842
1.00519 0.998706 0.986986
1.00521 0.999568 0.986235
1.00517 1.00032 0.985424
1.00521 1.00024 0.985469
1.00518 0.999731 0.985936
1.00393 1.00114 0.986797
1.00499 1.00077 0.985309
1.00511 1.00089 0.984809
1.00096 1.00199 0.990964
1.003 1.00259 0.986955
1.00446 1.00163 0.985439
1.00007 0.99958 0.998019
1.0006 1.00198 0.991691
1.00196 1.00393 0.98742
0.999949 0.999122 0.998282
1.00015 1.00172 0.992857
0.999865 0.998605 0.998545
1.0043 1.00242 0.98483
1.00324 1.00297 0.986531
1.00203 1.00401 0.987151
1.00143 1.00274 0.989558
1.00073 1.0043 0.98898
1.00068 1.00383 0.989829
1.00023 1.00469 0.989452
1.0003 1.00352 0.990731
0.999937 1.00054 0.994346
1.00022 1.00297 0.991387
0.999987 1.00001 0.994738
0.999786 0.998169 0.99876
0.999864 0.997792 0.998869
1.00006 0.999564 0.995039
0.999927 0.997469 0.998969
0.996839 0.994859 0.972656
1.00002 0.995488 0.941796
0.999842 0.9951 0.907556
1.00513 1.0008 0.984672
1.00128 1.0038 0.989426
1.00283 1.00349 0.986837
1.00197 1.00335 0.987828
1.00432 1.00273 0.984402
1.00388 1.00071 0.986926
1.0028 1.00288 0.986969
1.00112 0.999576 0.992813
1.00353 0.99947 0.988829
1.00483 0.995756 0.990337
1.00481 0.996202 0.98944
1.00413 0.995512 0.992126
1.00389 0.995846 0.991368
1.00327 0.996489 0.991623
0.99984 0.996924 0.991787
0.995793 0.995527 0.969401
0.999335 0.996233 0.94209
0.995198 0.997056 0.975681
0.99972 0.996677 0.994315
1.00205 0.995182 0.995055
1.00058 0.997537 0.985964
0.99641 0.996068 0.973285
0.99998 0.994896 0.942763
0.999925 0.996786 0.989795
0.998463 0.995986 0.974337
1.00308 0.995485 0.990907
1.00283 0.997573 0.987322
1.00439 0.994857 0.991124
1.00462 0.997486 0.990635
1.00472 0.995481 0.990352
1.00518 0.994879 0.990498
1.00522 0.994865 0.990403
1.00518 0.994951 0.990107
1.00514 0.994935 0.990488
1.0052 0.99493 0.990483
1.00509 0.995121 0.990366
1.00517 0.994985 0.990473
1.00517 0.995376 0.990203
1.00513 0.995288 0.990163
1.00515 0.995765 0.98981
1.00516 0.996959 0.988772
1.00514 0.996425 0.989361
1.00516 0.997754 0.988095
1.00521 0.999057 0.986754
1.00519 0.998762 0.98696
1.0052 0.999565 0.986228
1.00519 1.00014 0.985622
1.0043 1.00044 0.986834
1.00514 1.0004 0.985398
1.00521 1.00031 0.985397
1.00148 1.00139 0.990708
1.00387 1.00121 0.986794
1.00497 1.00082 0.985322
1.00023 1.00001 0.997699
1.00115 1.00175 0.990958
1.00296 1.00262 0.986962
1.00016 0.99967 0.997888
1.00075 1.00184 0.991685
1.00007 0.999242 0.998119
1.0051 1.00127 0.984505
1.00441 1.00233 0.984822
1.00378 1.00273 0.985614
1.00352 1.00292 0.986559
1.00214 1.00403 0.987096
1.0012 1.00429 0.988584
1.00091 1.00418 0.988839
1.0005 1.00408 0.989832
0.999936 1.00114 0.99375
1.00022 1.00358 0.990735
0.999918 1.00049 0.994372
0.999731 0.99854 0.998646
0.999975 0.999972 0.994756
0.999788 0.998112 0.998791
0.999869 0.997759 0.998894
1.00102 0.994872 0.989912
0.99667 0.994874 0.96933
0.999997 0.994913 0.952335
1.00503 0.999582 0.986214
1.00518 0.999177 0.986449
1.00511 1.0007 0.984847
1.00241 1.00312 0.987627
1.00443 1.00292 0.984369
1.00402 1.00054 0.987027
1.00501 0.997199 0.988137
1.00394 0.999327 0.988675
1.00482 0.995874 0.98975
1.00483 0.996382 0.98958
1.00502 0.995329 0.99014
1.00414 0.995431 0.991723
1.00379 0.995679 0.992053
1.00403 0.995535 0.991366
1.00016 0.996734 0.991915
0.995852 0.995424 0.967722
1.00004 0.996431 0.99651
1.00426 0.995485 0.991748
1.00051 0.997561 0.986157
0.996305 0.995754 0.971083
1.00291 0.994891 0.991231
1.00289 0.99735 0.987875
1.00445 0.994972 0.991531
1.00464 0.996719 0.990627
1.00526 0.994934 0.990451
1.00531 0.99497 0.990648
1.00519 0.994877 0.99039
1.00523 0.994889 0.990385
1.00521 0.994919 0.990419
1.00513 0.994931 0.99048
1.0052 0.99493 0.990485
1.0052 0.995088 0.990443
1.00516 0.994962 0.990456
1.00517 0.995359 0.990186
1.00516 0.996304 0.989412
1.00516 0.995779 0.989794
1.00516 0.996981 0.988771
1.00522 0.998534 0.987214
1.00517 0.997605 0.988274
1.0052 0.998999 0.986821
1.00521 0.999947 0.985792
1.0052 0.999565 0.986221
1.00519 1.00011 0.985658
1.00443 1.00019 0.986876
1.00175 1.00076 0.990817
1.00428 1.00048 0.986824
1.0051 1.00048 0.985372
1.00031 1.00029 0.997506
1.00153 1.00132 0.990708
1.00379 1.00132 0.986791
1.00028 1.0001 0.997611
1.00125 1.00163 0.990954
1.00024 0.999788 0.997766
1.0052 1.00017 0.985409
1.00511 1.00118 0.984582
1.00481 1.00116 0.985227
1.00449 1.00224 0.984815
1.00374 1.00272 0.985632
1.00214 1.00367 0.987479
1.0022 1.00409 0.987043
1.00096 1.00452 0.988605
1.00016 1.00193 0.992673
1.00034 1.00427 0.989835
0.999901 1.0011 0.993779
0.999739 0.999012 0.998444
0.999906 1.00044 0.994396
0.99972 0.99846 0.998692
0.999791 0.998051 0.998818
1.00412 0.994848 0.992472
1.001 0.99489 0.988106
0.996555 0.994879 0.96858
1.00512 0.998349 0.987493
1.00509 0.999157 0.986468
1.00523 0.997831 0.987695
1.00519 0.999144 0.986447
1.00508 1.00058 0.985025
1.00514 0.996251 0.988995
1.0042 1.00039 0.987129
1.00499 0.997448 0.98813
1.00519 0.994981 0.990238
1.00488 0.996528 0.989723
1.00498 0.995429 0.990025
1.00415 0.995516 0.991864
1.00327 0.995811 0.991975
1.00045 0.996404 0.991943
1.00528 0.994913 0.990479
1.0042 0.996237 0.991836
1.00057 0.997227 0.986342
1.00449 0.995148 0.991927
1.00464 0.996019 0.990623
1.00525 0.994923 0.990492
1.00531 0.995004 0.990578
1.00524 0.994949 0.990643
1.00523 0.99491 0.990368
1.00521 0.994922 0.990436
1.00518 0.994936 0.990644
1.00519 0.994927 0.990488
1.0052 0.995066 0.990416
1.00516 0.995781 0.989922
1.00518 0.995344 0.990169
1.00516 0.99633 0.989404
1.00523 0.99802 0.987733
1.00515 0.997002 0.988769
1.00521 0.998542 0.987232
1.00523 0.999755 0.985987
1.0052 0.998941 0.986887
1.00521 0.999942 0.985811
1.00448 1.00011 0.986876
1.00519 1.00007 0.985694
1.00443 1.00019 0.986873
1.00182 1.00038 0.992493
1.00054 1.00009 0.994613
1.0018 1.00073 0.991532
1.00427 1.00053 0.986813
1.00034 1.00034 0.997471
1.00166 1.00113 0.990703
1.00032 1.0002 0.99753
1.00525 0.997736 0.987886
1.00524 0.999194 0.986441
1.00522 1.00018 0.985523
1.005 1.00055 0.985455
1.00513 1.00111 0.984658
1.00487 1.00111 0.985205
1.00334 1.00197 0.986985
1.00371 1.00267 0.985648
1.00213 1.0036 0.987477
1.0007 1.0022 0.991405
1.00077 1.00473 0.988624
1.00004 1.00195 0.992701
0.999872 0.999663 0.998043
0.999869 1.00105 0.993807
0.999688 0.998897 0.998529
0.999716 0.998387 0.998732
1.00526 0.994848 0.990471
1.00446 0.994846 0.992351
1.00116 0.994895 0.986349
1.00517 0.996809 0.988582
1.00512 0.998275 0.987338
1.00512 0.998753 0.98672
1.00522 0.997975 0.987659
1.0052 0.999108 0.986445
1.00524 0.995385 0.990079
1.00511 0.996259 0.988956
1.00497 0.997721 0.98812
1.0052 0.994948 0.990244
1.00498 0.995516 0.98991
1.00416 0.99563 0.992024
1.00523 0.994911 0.990737
1.00527 0.994914 0.990654
1.00413 0.996986 0.991929
1.00524 0.994915 0.990525
1.00532 0.994962 0.99051
1.00525 0.994947 0.99059
1.00514 0.99496 0.990897
1.00521 0.994928 0.990452
1.00518 0.994933 0.990609
1.00518 0.995393 0.990349
1.00519 0.995044 0.990389
1.00517 0.995798 0.989919
1.00522 0.997618 0.988159
1.00517 0.996357 0.989396
1.00523 0.998028 0.987745
1.00524 0.999552 0.986199
1.00521 0.998549 0.98725
1.00523 0.999745 0.986005
1.00451 1.0001 0.986838
1.00521 0.999937 0.985831
1.00449 1.0001 0.986881
1.00192 1.0001 0.992608
1.00443 1.0002 0.986871
1.00198 1.00028 0.992411
1.00053 0.999985 0.994782
1.00032 1.00034 0.996071
1.00197 1.00066 0.992112
1.00033 1.00042 0.997449
1.00518 0.997065 0.988684
1.00525 0.998806 0.986764
1.00524 0.997542 0.988084
1.00514 1.00008 0.985693
1.00524 0.999273 0.986397
1.00523 1.0002 0.985636
1.00506 1.00052 0.985421
1.00407 1.00084 0.986838
1.00492 1.00106 0.985184
1.00343 1.00182 0.98697
1.00126 1.0018 0.99072
1.00208 1.00358 0.987476
1.00051 1.00239 0.991415
1.00002 1.0004 0.997626
0.999882 1.00203 0.992727
0.999747 0.99955 0.998211
0.999665 0.998784 0.998601
1.00524 0.994893 0.990524
1.00525 0.994849 0.990455
1.00473 0.994857 0.992199
1.00519 0.995926 0.989657
1.00515 0.996897 0.988562
1.00512 0.998202 0.987187
1.0052 0.998119 0.987624
1.00523 0.995385 0.990025
1.00508 0.996277 0.988916
1.00518 0.994934 0.990252
1.00517 0.994924 0.990904
1.00523 0.994914 0.990729
1.00526 0.99492 0.990829
1.00513 0.994955 0.990978
1.00525 0.994944 0.990537
1.00515 0.994956 0.990878
1.00518 0.995235 0.990627
1.00518 0.994929 0.990574
1.00517 0.995416 0.990352
1.00521 0.997392 0.98843
1.00518 0.995819 0.989916
1.00522 0.997626 0.988167
1.00524 0.999331 0.986446
1.00523 0.998036 0.987756
1.00524 0.99954 0.986215
1.00454 1.00007 0.986819
1.00523 0.999736 0.986023
1.00452 1.00008 0.98685
1.002 1.00005 0.992553
1.0045 1.00009 0.986886
1.00206 1.00004 0.992498
1.00058 0.999885 0.994816
1.00214 1.00018 0.992339
1.00022 1.00014 0.994981
0.999871 1.00064 0.997798
1.00516 0.996993 0.988696
1.00522 0.998228 0.987485
1.00519 0.997127 0.98854
1.00525 0.999731 0.986085
1.00526 0.998595 0.986952
1.00523 0.997354 0.988281
1.0044 1.00025 0.986842
1.00518 1.00007 0.985662
1.00525 0.99935 0.986353
1.00514 1.00048 0.985388
1.00409 1.00078 0.986846
1.00158 1.00123 0.990718
1.0035 1.00165 0.986956
1.00114 1.00196 0.990729
1.00007 1.00085 0.99745
1.00037 1.0025 0.99143
0.999925 1.00024 0.997778
0.99966 0.999363 0.998354
1.00516 0.995281 0.990467
1.00524 0.994892 0.990522
1.00525 0.994848 0.99044
1.00518 0.995829 0.989768
1.00513 0.996978 0.988542
1.00522 0.995377 0.989971
1.00518 0.994921 0.99095
1.00517 0.994933 0.990912
1.00523 0.994915 0.99072
1.00512 0.994955 0.991018
1.00519 0.995442 0.99043
1.00515 0.994952 0.990859
1.00517 0.995404 0.990458
1.00523 0.996944 0.988938
1.00516 0.995435 0.990354
1.00522 0.997367 0.988435
1.00524 0.999092 0.9867
1.00522 0.997624 0.988176
1.00524 0.999317 0.986454
1.00456 1 0.986858
1.00524 0.999528 0.986231
1.00454 1.00007 0.986831
1.00203 1.00012 0.992403
1.00453 1.00007 0.98686
1.00212 1 0.992424
1.00065 0.999888 0.994724
1.00219 0.999995 0.992397
1.00031 0.999937 0.995039
0.999923 1.00033 0.995164
1.00518 0.996357 0.989466
1.00522 0.998026 0.987694
1.00518 0.996808 0.988857
1.00525 0.999267 0.986575
1.00522 0.998326 0.987373
1.0052 0.997187 0.988396
1.00454 0.999927 0.986937
1.00526 0.99959 0.986111
1.00526 0.998386 0.98714
1.00176 1.00062 0.990968
1.00441 1.00023 0.986847
1.00521 1.00007 0.985631
1.00411 1.00072 0.986854
1.00152 1.00131 0.990726
1.00009 1.00092 0.997452
1.00103 1.00211 0.990738
1.00005 1.00071 0.997499
0.99979 1.0001 0.997946
1.00517 0.995078 0.990701
1.00516 0.995317 0.990408
1.00524 0.994891 0.990521
1.00518 0.99575 0.989879
1.00517 0.995481 0.990389
1.00516 0.994929 0.990964
1.00517 0.994942 0.990921
1.00511 0.994955 0.991058
1.0052 0.995434 0.990439
1.00526 0.996968 0.988881
1.00516 0.995571 0.990289
1.00524 0.997193 0.988639
1.00523 0.998673 0.987164
1.00522 0.997353 0.98844
1.00524 0.999087 0.9867
1.00456 0.999896 0.986962
1.00524 0.999312 0.986463
1.00456 0.999997 0.986867
1.0021 1.00018 0.99089
1.00455 1.00006 0.986844
1.00215 1.00008 0.991589
1.00055 0.999945 0.997458
1.00225 0.999973 0.992297
1.0004 0.999877 0.994958
1.00005 0.99998 0.995244
1.00519 0.995896 0.989931
1.00523 0.997657 0.988148
1.00517 0.996419 0.989428
1.00525 0.998993 0.98673
1.00521 0.998035 0.987677
1.00519 0.996619 0.989017
1.00458 0.999695 0.986931
1.00525 0.999267 0.986583
1.00521 0.998421 0.987262
1.00193 1.00011 0.991176
1.00453 0.99988 0.986886
1.00526 0.999443 0.986138
1.00019 1.00068 0.997519
1.00176 1.00061 0.990973
1.00441 1.0002 0.986852
1.00146 1.00136 0.990736
1.0001 1.00083 0.997442
0.999991 1.00063 0.997569
1.00516 0.99539 0.990468
1.00518 0.995124 0.99067
1.00516 0.995343 0.990348
1.0052 0.997102 0.988772
1.00518 0.995358 0.990506
1.00515 0.994937 0.990978
1.0052 0.995424 0.990447
1.00526 0.996944 0.988886
1.00522 0.998636 0.987375
1.00524 0.997445 0.98834
1.00523 0.998856 0.987027
1.00453 0.99966 0.987107
1.00524 0.999073 0.986702
1.00456 0.999894 0.986966
1.0021 1.00014 0.990931
1.00456 0.999996 0.986876
1.00211 1.00016 0.990892
1.00055 0.999989 0.997426
1.00218 1.00007 0.99088
1.00045 0.999942 0.996189
1.00015 0.999843 0.995189
1.00519 0.995924 0.989853
1.00522 0.997483 0.988359
1.0052 0.995852 0.989995
1.00524 0.999038 0.986694
1.00523 0.997714 0.988068
1.00517 0.996483 0.989391
1.0046 0.999615 0.987008
1.00525 0.999135 0.986654
1.00521 0.998045 0.987659
1.00206 0.999872 0.991194
1.00457 0.99969 0.986938
1.00526 0.999268 0.986591
1.00036 1.00031 0.997546
1.00195 1.00008 0.991178
1.00452 0.999831 0.986833
1.0002 1.00064 0.99749
1.00176 1.0006 0.990977
1.00008 1.00079 0.997448
1.0052 0.996985 0.988946
1.00516 0.995518 0.990351
1.00518 0.995168 0.990638
1.00521 0.998527 0.987496
1.00521 0.996965 0.988891
1.00519 0.995241 0.990624
1.00526 0.99692 0.988891
1.00522 0.998636 0.987371
1.0045 0.999561 0.987271
1.00523 0.999041 0.986889
1.00454 0.999727 0.987094
1.0021 1.00005 0.991026
1.00456 0.999889 0.986971
1.00209 1.00014 0.990935
1.00052 1.00001 0.997397
1.0021 1.00015 0.990891
1.00054 1 0.99741
1.00053 0.999901 0.994707
1.00521 0.997378 0.988428
1.00518 0.995753 0.990023
1.00523 0.998905 0.986876
1.00522 0.997489 0.988344
1.0052 0.99581 0.99006
1.00458 0.999685 0.987145
1.00524 0.999048 0.986689
1.00523 0.99777 0.987989
1.00213 0.999858 0.991095
1.00459 0.999669 0.987029
1.00524 0.999281 0.986578
1.00052 1.00005 0.997502
1.00207 0.999865 0.991195
1.00456 0.999678 0.986945
1.00034 1.00033 0.997538
1.00196 1.00007 0.991179
1.0002 1.00062 0.997465
1.00522 0.998517 0.987465
1.0052 0.997067 0.988845
1.00517 0.995644 0.990233
1.00448 0.999515 0.98736
1.00521 0.998532 0.987493
1.00521 0.996823 0.989009
1.00522 0.99864 0.987366
1.00452 0.999552 0.98725
1.00205 1 0.991152
1.00454 0.999794 0.98708
1.00208 1.00006 0.99103
1.00053 1.00001 0.997399
1.00209 1.00014 0.99094
1.00052 1.00003 0.997401
1.00054 1.00001 0.9974
1.00523 0.998783 0.987009
1.00522 0.997136 0.988686
1.00516 0.995585 0.990192
1.00454 0.999667 0.987252
1.00523 0.998913 0.986865
1.00523 0.997494 0.988329
1.00213 0.999943 0.991043
1.00456 0.999691 0.987139
1.00523 0.999057 0.986685
1.00058 0.999952 0.997433
1.00214 0.999875 0.991095
1.00458 0.999716 0.98705
1.00048 1.00009 0.997521
1.00208 0.999877 0.991196
1.00035 1.00032 0.997521
1.00448 0.999634 0.987369
1.00522 0.998447 0.98747
1.00519 0.997149 0.988744
1.00202 0.999942 0.991281
1.00449 0.999496 0.98735
1.00522 0.998535 0.98749
1.00453 0.999538 0.98723
1.00205 0.999985 0.991158
1.00051 1.00001 0.997398
1.00206 1.00007 0.991034
1.00052 1.00002 0.997393
1.0005 1.00004 0.997403
1.0045 0.999646 0.987333
1.00523 0.998636 0.987163
1.00522 0.996897 0.988944
1.00218 0.999995 0.992346
1.00452 0.999668 0.987253
1.00522 0.998923 0.986854
1.00057 0.999959 0.997397
1.00213 0.999964 0.991043
1.00455 0.999698 0.987134
1.00057 0.999981 0.99746
1.00214 0.9999 0.991095
1.00046 1.0001 0.997535
1.00208 0.999942 0.991213
1.00448 0.999563 0.987365
1.00523 0.998376 0.987476
1.00046 0.999992 0.997435
1.00201 0.999941 0.991278
1.0045 0.99948 0.987341
1.00204 0.999967 0.99116
1.00049 1.00001 0.997408
1.00051 1.00003 0.997394
1.0022 0.999973 0.992381
1.00449 0.999646 0.987333
1.00523 0.998485 0.987317
1.00015 0.999996 0.9978
1.00208 1 0.991107
1.00451 0.999666 0.987255
1.00057 0.99997 0.997415
1.00213 0.999985 0.991042
1.00055 1 0.997484
1.00045 0.999973 0.994834
1.0021 0.999942 0.991858
1.00448 0.999493 0.987359
1.00048 0.999993 0.997438
1.00201 0.999943 0.991282
1.00051 1 0.997414
1.00005 0.999997 0.995216
1.00212 0.999965 0.991801
1.00449 0.999649 0.987333
1.00032 0.999991 0.996278
1.00208 1 0.991118
1.00058 0.999981 0.997434
1.00047 0.999984 0.997436
1.002 0.999937 0.9913
1.00045 0.999993 0.997437
1.00027 0.999981 0.996331
1.00204 0.999961 0.991238
1.00053 0.999984 0.997417
1.00048 0.999982 0.997448
1.00047 0.999983 0.997436

TENSORS stress float
0.00182494 -0.000108068 0.000196852
-0.000108068 0.000757781 -2.86747e-05
0.000196852 -2.86747e-05 0.000735695
0.00569488 -6.94054e-05 0.000199424
-6.94054e-05 0.00310637 2.08336e-05
0.000199424 2.08336e-05 0.00309288
0.00157297 -3.93525e-05 8.88577e-05
-3.93525e-05 0.000611436 -1.13298e-05
8.88577e-05 -1.13298e-05 0.00058001
0.00192305 -6.34331e-05 0.000195493
-6.34331e-05 0.000791926 -1.75853e-05
0.000195493 -1.75853e-05 0.000774762
0.00188069 -9.65128e-05 0.000192938
-9.65128e-05 0.000782103 -2.56643e-05
0.000192938 -2.56643e-05 0.000762007
0.00175991 -0.000106258 0.000202589
-0.000106258 0.000718384 -2.88381e-05
0.000202589 -2.88381e-05 0.00069748
0.0015441 -8.61884e-05 3.30972e-05
-8.61884e-05 0.000512293 -1.05116e-05
3.30972e-05 -1.05116e-05 0.000423576
0.00563368 -7.63319e-05 -7.06759e-06
-7.63319e-05 0.00305912 4.19689e-08
-7.06759e-06 4.19689e-08 0.00305092
0.00560068 0.000101647 9.50007e-05
0.000101647 0.00301047 6.59728e-06
9.50007e-05 6.59728e-06 0.00299462
0.00540375 -0.000166343 3.10393e-05
-0.000166343 0.00292198 2.54152e-06
3.10393e-05 2.54152e-06 0.00289287
0.00171149 0.000116929 0.000200721
0.000116929 0.000683389 2.01956e-05
0.000200721 2.01956e-05 0.000675666
0.000612388 0.000205765 2.42593e-05
0.000205765 -2.9505e-05 1.53808e-05
2.42593e-05 1.53808e-05 -0.000129752
0.00166708 -3.39012e-05 0.000202321
-3.39012e-05 0.000634286 2.82597e-06
0.000202321 2.82597e-06 0.000628289
0.00130504 -7.45993e-06 4.14385e-05
-7.45993e-06 0.00043959 1.17677e-06
4.14385e-05 1.17677e-06 0.000400858
0.00138294 -3.35965e-05 -3.57149e-05
-3.35965e-05 0.000500788 6.34167e-06
-3.57149e-05 6.34167e-06 0.000461829
0.00161352 -6.68515e-05 6.73905e-05
-6.68515e-05 0.000620344 -3.88258e-06
6.73905e-05 -3.88258e-06 0.000591521
0.0015702 -2.3091e-05 9.61419e-05
-2.3091e-05 0.000617404 -1.12333e-05
9.61419e-05 -1.12333e-05 0.000581853
0.00158925 -5.36175e-05 7.91413e-05
-5.36175e-05 0.000610263 -9.54173e-06
7.91413e-05 -9.54173e-06 0.000582755
0.0016119 -0.000126454 -3.30866e-05
-0.000126454 0.000545621 3.71178e-06
-3.30866e-05 3.71178e-06 0.000465422
0.00560606 -0.00011594 0.00024846
-0.00011594 0.00302157 -8.12108e-06
0.00024846 -8.12108e-06 0.00302876
0.00188976 -4.45855e-05 0.000197124
-4.45855e-05 0.000769856 -1.31081e-05
0.000197124 -1.31081e-05 0.000753874
0.00192766 -8.17629e-05 0.000193643
-8.17629e-05 0.000800722 -2.18768e-05
0.000193643 -2.18768e-05 0.000782606
0.00156757 -0.000111219 5.44398e-05
-0.000111219 0.000501787 -8.29972e-06
5.44398e-05 -8.29972e-06 0.000422124
0.0015624 -9.97918e-05 4.2357e-05
-9.97918e-05 0.000506752 -9.73943e-06
4.2357e-05 -9.73943e-06 0.000425328
0.00169077 -7.89008e-05 0.000196755
-7.89008e-05 0.000669278 -2.51556e-05
0.000196755 -2.51556e-05 0.00065184
0.00152839 -7.58493e-05 2.5802e-05
-7.58493e-05 0.000522315 -1.14064e-05
2.5802e-05 -1.14064e-05 0.000424026
0.00199887 -0.000231485 1.4669e-05
-0.000231485 0.000636755 -6.57894e-06
1.4669e-05 -6.57894e-06 0.000483228
0.00558861 -9.04572e-05 -0.000197063
-9.04572e-05 0.0030232 -1.24727e-05
-0.000197063 -1.24727e-05 0.00301946
0.00361437 8.97269e-05 -0.000113435
8.97269e-05 0.00182402 -1.0236e-05
-0.000113435 -1.0236e-05 0.00180514
0.00349687 -1.63553e-05 -0.000107765
-1.63553e-05 0.00177414 -6.53874e-06
-0.000107765 -6.53874e-06 0.0017509
0.0054473 -0.000143009 -1.43875e-06
-0.000143009 0.00296245 6.80792e-07
-1.43875e-06 6.80792e-07 0.00294584
0.000566193 0.00019183 -2.17976e-06
0.00019183 -5.596e-05 -7.19532e-07
-2.17976e-06 -7.19532e-07 -0.000154402
0.00162775 5.62551e-05 0.000199244
5.62551e-05 0.00062029 1.60241e-05
0.000199244 1.60241e-05 0.00060483
0.00177197 0.000133344 0.000202127
0.000133344 0.000731887 2.4196e-05
0.000202127 2.4196e-05 0.000709552
0.00265113 0.000181532 0.000123016
0.000181532 0.00115373 1.61424e-05
0.000123016 1.61424e-05 0.00108505
0.00438131 -0.000301139 -7.20664e-06
-0.000301139 0.00236573 5.95389e-06
-7.20664e-06 5.95389e-06 0.0023119
0.00274752 0.000233544 0.000123888
0.000233544 0.00124102 1.88516e-05
0.000123888 1.88516e-05 0.00116518
0.000565373 0.00016838 2.75935e-05
0.00016838 -5.23341e-05 1.95141e-05
2.75935e-05 1.95141e-05 -0.000147028
0.000874102 0.000187663 1.06511e-05
0.000187663 3.24629e-05 5.91714e-06
1.06511e-05 5.91714e-06 -0.0001375
0.00344235 -0.000104888 0.000116961
-0.000104888 0.0017542 5.62824e-06
0.000116961 5.62824e-06 0.00175784
0.00560429 7.09141e-05 3.60249e-06
7.09141e-05 0.00301132 -1.45046e-06
3.60249e-06 -1.45046e-06 0.0030237
0.00354589 6.71161e-05 -9.41011e-05
6.71161e-05 0.00177747 -3.58508e-06
-9.41011e-05 -3.58508e-06 0.00176404
0.00549771 6.02286e-05 0.000242937
6.02286e-05 0.00295016 3.01669e-06
0.000242937 3.01669e-06 0.00296259
0.0013025 7.6043e-05 4.46977e-05
7.6043e-05 0.000436212 2.55416e-06
4.46977e-05 2.55416e-06 0.000402133
0.000646255 9.47902e-06 1.61589e-05
9.47902e-06 -7.7902e-05 1.69053e-06
1.61589e-05 1.69053e-06 -0.000152735
0.00550674 0.000197288 0.000128367
0.000197288 0.00297805 1.14199e-05
0.000128367 1.14199e-05 0.0029552
0.00271197 6.11547e-05 0.000119437
6.11547e-05 0.00115673 7.12265e-06
0.000119437 7.12265e-06 0.00110386
0.00124385 -7.44285e-05 -5.53105e-05
-7.44285e-05 0.000414591 6.85563e-06
-5.53105e-05 6.85563e-06 0.000372776
0.00129404 -7.3561e-05 -4.7852e-05
-7.3561e-05 0.000447465 7.53957e-06
-4.7852e-05 7.53957e-06 0.000407241
0.00145308 1.6593e-05 -2.4044e-05
1.6593e-05 0.00054883 6.15882e-06
-2.4044e-05 6.15882e-06 0.000506059
0.0016444 -0.000134863 -0.00010656
-0.000134863 0.000558085 1.76292e-05
-0.00010656 1.76292e-05 0.000485459
0.00351382 5.46082e-06 -9.91639e-05
5.46082e-06 0.00176504 -1.94794e-06
-9.91639e-05 -1.94794e-06 0.00174953
0.00160343 -5.05125e-05 7.37883e-05
-5.05125e-05 0.00060915 -3.25994e-06
7.37883e-05 -3.25994e-06 0.000582789
0.0015211 1.13816e-06 9.8977e-05
1.13816e-06 0.000590816 -9.14033e-06
9.8977e-05 -9.14033e-06 0.00055426
0.0016082 -6.16321e-05 7.19561e-05
-6.16321e-05 0.00061648 -6.61336e-06
7.19561e-05 -6.61336e-06 0.000589525
0.00162477 -9.17837e-05 -2.65905e-05
-9.17837e-05 0.000528207 1.32233e-06
-2.65905e-05 1.32233e-06 0.000456485
0.00159698 -0.000120583 -3.84841e-05
-0.000120583 0.000549821 3.83654e-06
-3.84841e-05 3.83654e-06 0.000463774
0.00162012 -0.000122499 -2.81974e-05
-0.000122499 0.000539364 2.66556e-06
-2.81974e-05 2.66556e-06 0.000463472
0.00200586 -0.000231077 -7.56308e-06
-0.000231077 0.000638091 2.03319e-06
-7.56308e-06 2.03319e-06 0.000484719
0.00547326 3.46162e-05 0.000237593
3.46162e-05 0.00293466 -3.5706e-07
0.000237593 -3.5706e-07 0.00294799
0.00185441 -2.46384e-05 0.00019631
-2.46384e-05 0.000751208 -8.99481e-06
0.00019631 -8.99481e-06 0.000737152
0.00242419 1.32713e-05 3.88215e-05
1.32713e-05 0.00100248 -9.41545e-07
3.88215e-05 -9.41545e-07 0.00094074
0.00156572 -9.00463e-05 4.78878e-05
-9.00463e-05 0.000492217 -5.59927e-06
4.78878e-05 -5.59927e-06 0.000417351
0.00156559 -0.000107196 4.98021e-05
-0.000107196 0.000501774 -9.17691e-06
4.98021e-05 -9.17691e-06 0.000422403
0.0018981 -0.000145275 1.16058e-05
-0.000145275 0.000519219 -3.06273e-06
1.16058e-05 -3.06273e-06 0.000387935
0.00169347 -0.000191957 1.61032e-05
-0.000191957 0.000427896 -5.77694e-06
1.61032e-05 -5.77694e-06 0.000282408
0.00127394 -3.75613e-05 0.000161531
-3.75613e-05 0.000420711 -1.81883e-05
0.000161531 -1.81883e-05 0.000407164
0.00137907 -3.22198e-05 1.67727e-05
-3.22198e-05 0.000456052 -1.14165e-05
1.67727e-05 -1.14165e-05 0.000358117
0.0019922 -0.000251008 1.37786e-05
-0.000251008 0.000661191 -7.28122e-06
1.37786e-05 -7.28122e-06 0.000497889
0.00131149 -0.000247707 7.57473e-06
-0.000247707 9.64236e-05 -2.22949e-06
7.57473e-06 -2.22949e-06 -9.49069e-05
0.00588196 0.000168233 -0.00025374
0.000168233 0.00317976 -2.26072e-05
-0.00025374 -2.26072e-05 0.00318294
0.00514097 -0.000166816 -0.000155266
-0.000166816 0.00278117 -1.02883e-05
-0.000155266 -1.02883e-05 0.00276457
0.005652 -1.39814e-05 -0.000214643
-1.39814e-05 0.0030493 -1.51859e-05
-0.000214643 -1.51859e-05 0.00305311
0.000521786 0.000185519 -2.43639e-05
0.000185519 -7.79652e-05 -1.5548e-05
-2.43639e-05 -1.5548e-05 -0.000177704
0.00588589 0.00017837 -2.85991e-06
0.00017837 0.00318094 -1.96403e-06
-2.85991e-06 -1.96403e-06 0.00318441
0.00590041 0.000102717 -8.80387e-06
0.000102717 0.00319132 -1.58479e-06
-8.80387e-06 -1.58479e-06 0.00319475
0.000502854 0.000123336 -8.22509e-08
0.000123336 -0.000133506 -2.2791e-07
-8.22509e-08 -2.2791e-07 -0.000224907
0.00283282 -0.000134957 -6.4012e-05
-0.000134957 0.00140452 -2.90785e-06
-6.4012e-05 -2.90785e-06 0.00137286
0.000505108 0.000185731 -4.09618e-07
0.000185731 -9.53387e-05 -3.97992e-07
-4.09618e-07 -3.97992e-07 -0.000195767
0.00160016 0.000152746 4.12342e-05
0.000152746 0.000574321 1.34013e-06
4.12342e-05 1.34013e-06 0.000494635
0.000868815 0.00018505 -3.7197e-08
0.00018505 2.55848e-05 3.05151e-07
-3.7197e-08 3.05151e-07 -0.0001435
0.00413123 -0.000112413 0.000145877
-0.000112413 0.0021669 8.92633e-06
0.000145877 8.92633e-06 0.00216659
0.000659669 -1.70822e-05 5.7659e-06
-1.70822e-05 6.52285e-05 9.28483e-06
5.7659e-06 9.28483e-06 2.02154e-05
0.000614861 9.32454e-05 1.68169e-05
9.32454e-05 -8.69942e-05 8.92627e-06
1.68169e-05 8.92627e-06 -0.000173556
0.000656304 0.000149227 2.17605e-05
0.000149227 -2.89233e-05 1.54712e-05
2.17605e-05 1.54712e-05 -0.000126299
0.00099259 0.000159272 1.38694e-05
0.000159272 -6.23406e-06 5.48532e-06
1.38694e-05 5.48532e-06 -0.000160099
0.00260061 8.84409e-05 9.47172e-05
8.84409e-05 0.00119558 1.26464e-05
9.47172e-05 1.26464e-05 0.0011375
0.000925887 0.000182437 1.20889e-05
0.000182437 2.66467e-05 6.65664e-06
1.20889e-05 6.65664e-06 -0.000136961
0.000845249 0.000196133 1.04466e-05
0.000196133 7.981e-05 5.25406e-06
1.04466e-05 5.25406e-06 -0.000100574
0.00110734 0.000241389 5.33964e-06
0.000241389 0.000102855 1.87591e-06
5.33964e-06 1.87591e-06 -0.000105317
0.00287025 -0.000120789 6.76713e-05
-0.000120789 0.00140998 2.47833e-06
6.76713e-05 2.47833e-06 0.00140997
0.0032237 -0.000139486 1.24897e-05
-0.000139486 0.0016292 -2.77243e-07
1.24897e-05 -2.77243e-07 0.00162403
0.00580759 3.06692e-05 -0.000246269
3.06692e-05 0.00312497 -1.06153e-05
-0.000246269 -1.06153e-05 0.00313608
0.00566712 6.11778e-05 -0.000248865
6.11778e-05 0.00304601 -6.46558e-06
-0.000248865 -6.46558e-06 0.00305927
0.0055743 8.42152e-05 -1.34574e-07
8.42152e-05 0.00300179 -2.87036e-06
-1.34574e-07 -2.87036e-06 0.00301027
0.00349341 1.69499e-05 -0.000107643
1.69499e-05 0.0017444 -4.56929e-06
-0.000107643 -4.56929e-06 0.00173464
0.00164707 3.39154e-05 5.12233e-05
3.39154e-05 0.000522635 1.08155e-06
5.12233e-05 1.08155e-06 0.000460674
0.00363672 0.000115971 -9.59836e-05
0.000115971 0.00183599 -4.95712e-06
-9.59836e-05 -4.95712e-06 0.00181754
0.00168566 7.99109e-05 5.07189e-05
7.99109e-05 0.000546321 2.07741e-06
5.07189e-05 2.07741e-06 0.000478517
0.0055449 0.000137439 0.000245793
0.000137439 0.0029942 6.16376e-06
0.000245793 6.16376e-06 0.00299666
0.000570387 1.05446e-05 1.86496e-05
1.05446e-05 -0.000119464 5.8231e-07
1.86496e-05 5.8231e-07 -0.000192353
0.00272754 2.79814e-05 0.000119294
2.79814e-05 0.00116541 4.76468e-06
0.000119294 4.76468e-06 0.00111588
0.00102523 3.8738e-05 1.24617e-05
3.8738e-05 -1.99172e-05 1.19967e-06
1.24617e-05 1.19967e-06 -0.000143915
0.002634 0.000103486 0.000121984
0.000103486 0.00111771 9.14851e-06
0.000121984 9.14851e-06 0.00106053
0.00105212 9.16811e-05 1.21866e-05
9.16811e-05 -7.58341e-06 2.52177e-06
1.21866e-05 2.52177e-06 -0.000141746
0.0016802 4.25856e-05 -0.000200983
4.25856e-05 0.000643016 1.86675e-06
-0.000200983 1.86675e-06 0.000637448
0.00128291 -2.12208e-06 -4.23005e-05
-2.12208e-06 0.000429189 1.84987e-06
-4.23005e-05 1.84987e-06 0.000391174
0.00143106 5.79686e-05 -1.51608e-05
5.79686e-05 0.000544687 6.5117e-06
-1.51608e-05 6.5117e-06 0.000497554
0.00124871 -8.12521e-05 -5.59715e-05
-8.12521e-05 0.000419522 7.93704e-06
-5.59715e-05 7.93704e-06 0.000378349
0.00174167 -7.17175e-05 -0.000104708
-7.17175e-05 0.000589856 9.16227e-06
-0.000104708 9.16227e-06 0.000526461
0.00169427 -0.000114626 -0.000104607
-0.000114626 0.000576156 1.518e-05
-0.000104607 1.518e-05 0.000508189
0.00160333 -0.000142119 -0.000108458
-0.000142119 0.000544677 1.85304e-05
-0.000108458 1.85304e-05 0.000467404
0.00201528 -0.000230881 -2.82732e-05
-0.000230881 0.000641427 9.96432e-06
-2.82732e-05 9.96432e-06 0.000488288
0.0055636 -8.77263e-05 2.04685e-06
-8.77263e-05 0.00299632 -1.53705e-06
2.04685e-06 -1.53705e-06 0.00300422
0.00153656 4.27445e-05 8.20134e-05
4.27445e-05 0.000567431 -3.22228e-06
8.20134e-05 -3.22228e-06 0.000544919
0.00113353 -2.88636e-06 -5.43556e-05
-2.88636e-06 0.00021979 1.08698e-06
-5.43556e-05 1.08698e-06 0.00015627
0.00162535 -5.57353e-05 -3.0405e-05
-5.57353e-05 0.000522952 1.85671e-06
-3.0405e-05 1.85671e-06 0.000454314
0.00330252 3.48072e-05 0.000173236
3.48072e-05 0.00166311 -5.06053e-06
0.000173236 -5.06053e-06 0.00165059
0.00204204 -0.000104245 -3.41087e-05
-0.000104245 0.000834559 1.20413e-06
-3.41087e-05 1.20413e-06 0.000749158
0.00162746 -0.000109589 -2.59444e-05
-0.000109589 0.000535433 1.79811e-06
-2.59444e-05 1.79811e-06 0.000462145
0.00183632 -0.000140295 -9.0485e-06
-0.000140295 0.000479705 1.60884e-06
-9.0485e-06 1.60884e-06 0.000348365
0.00200024 -0.000252615 -6.39987e-06
-0.000252615 0.000664444 1.83958e-06
-6.39987e-06 1.83958e-06 0.000500575
0.00185993 -0.000198992 -5.007e-06
-0.000198992 0.000526763 1.26548e-06
-5.007e-06 1.26548e-06 0.000381706
0.00131801 -0.000247905 3.16345e-07
-0.000247905 9.99639e-05 -1.21976e-07
3.16345e-07 -1.21976e-07 -9.09886e-05
0.000608269 1.27631e-05 1.9238e-05
1.27631e-05 -9.9687e-05 -1.10451e-06
1.9238e-05 -1.10451e-06 -0.000169431
0.00150001 1.29934e-05 3.8975e-05
1.29934e-05 0.0004479 -2.59909e-06
3.8975e-05 -2.59909e-06 0.000379312
0.00166383 -3.66303e-05 1.26318e-05
-3.66303e-05 0.000366105 -9.97474e-07
1.26318e-05 -9.97474e-07 0.000251449
0.00167327 -0.000109764 1.24714e-05
-0.000109764 0.000376086 -2.36339e-06
1.24714e-05 -2.36339e-06 0.000249265
0.00167247 -0.000164302 1.46181e-05
-0.000164302 0.000392848 -4.31905e-06
1.46181e-05 -4.31905e-06 0.000254761
0.00173264 -0.000183792 1.39762e-06
-0.000183792 0.000247569 -6.34e-07
1.39762e-06 -6.34e-07 9.31237e-05
0.0045741 0.000176163 0.000129486
0.000176163 0.00245539 -8.48364e-06
0.000129486 -8.48364e-06 0.00243632
0.00134991 -0.00023007 6.20162e-06
-0.00023007 8.41405e-05 -1.83399e-06
6.20162e-06 -1.83399e-06 -9.56432e-05
0.000337922 -0.000110022 1.79264e-05
-0.000110022 -0.000175047 -1.52669e-05
1.79264e-05 -1.52669e-05 -0.000252382
0.000854141 -0.000189132 1.0755e-05
-0.000189132 1.78864e-05 -6.92567e-06
1.0755e-05 -6.92567e-06 -0.000151367
0.00136287 -0.00027055 8.50212e-06
-0.00027055 0.000166153 -3.43237e-06
8.50212e-06 -3.43237e-06 -3.8526e-05
0.00160464 -0.000320661 3.356e-06
-0.000320661 0.000153103 6.8015e-07
3.356e-06 6.8015e-07 -4.95448e-05
0.000348689 -4.39102e-05 1.0081e-05
-4.39102e-05 -0.00012857 -1.2282e-05
1.0081e-05 -1.2282e-05 -0.000189068
0.000666434 -4.92675e-05 8.6048e-07
-4.92675e-05 7.02267e-05 -4.33619e-06
8.6048e-07 -4.33619e-06 -5.88824e-05
0.00590275 0.000195731 -0.000264806
0.000195731 0.00319576 -2.29227e-05
-0.000264806 -2.29227e-05 0.00319683
0.0057785 8.4771e-05 -0.000234371
8.4771e-05 0.00311703 -1.91801e-05
-0.000234371 -1.91801e-05 0.00312363
0.000499591 0.000117337 -1.84576e-05
0.000117337 -0.000137307 -1.06953e-05
-1.84576e-05 -1.06953e-05 -0.000228601
0.00445337 -0.000181724 -0.000125563
-0.000181724 0.00237935 -7.52709e-06
-0.000125563 -7.52709e-06 0.00236195
0.000438075 0.000137243 -2.10006e-05
0.000137243 -0.000124177 -1.51575e-05
-2.10006e-05 -1.51575e-05 -0.000206003
0.000463955 0.000170009 -2.04244e-05
0.000170009 -0.000116097 -1.48497e-05
-2.04244e-05 -1.48497e-05 -0.000217951
0.000880587 0.000185121 -1.21924e-05
0.000185121 2.90784e-05 -5.54887e-06
-1.21924e-05 -5.54887e-06 -0.000139574
0.00392087 -0.000137058 9.58674e-06
-0.000137058 0.00204849 -6.25327e-07
9.58674e-06 -6.25327e-07 0.00204344
0.000529499 -2.85851e-05 4.15202e-07
-2.85851e-05 -7.76816e-06 5.61568e-07
4.15202e-07 5.61568e-07 -5.28731e-05
0.00165997 0.000123495 5.12548e-05
0.000123495 0.00054249 3.58088e-06
5.12548e-05 3.58088e-06 0.000466857
0.00161635 0.000175821 5.00835e-05
0.000175821 0.000550236 3.42946e-06
5.00835e-05 3.42946e-06 0.000464057
0.000971853 0.000159118 7.87536e-08
0.000159118 -1.40402e-05 -2.12676e-07
7.87536e-08 -2.12676e-07 -0.000168398
0.000592896 8.41598e-05 -3.6324e-07
8.41598e-05 -7.88246e-06 2.50873e-08
-3.6324e-07 2.50873e-08 -7.71711e-05
0.000923921 0.000182618 6.9548e-07
0.000182618 2.66535e-05 4.42908e-08
6.9548e-07 4.42908e-08 -0.000136952
0.00084708 0.000186228 5.3193e-07
0.000186228 7.70325e-05 -1.37317e-06
5.3193e-07 -1.37317e-06 -0.000101346
0.00101211 0.000236139 -5.79108e-07
0.000236139 4.35439e-05 1.19936e-07
-5.79108e-07 1.19936e-07 -0.0001643
0.000684455 3.79305e-05 1.29162e-05
3.79305e-05 6.61353e-05 1.13704e-05
1.29162e-05 1.13704e-05 8.38236e-06
0.000618288 -5.24983e-05 1.36717e-06
-5.24983e-05 4.66585e-05 7.22399e-06
1.36717e-06 7.22399e-06 9.43089e-06
0.000923175 9.08046e-05 3.22871e-06
9.08046e-05 0.000239211 4.80439e-06
3.22871e-06 4.80439e-06 0.000112408
0.00102171 0.000138862 1.32613e-05
0.000138862 -1.02262e-05 4.36112e-06
1.32613e-05 4.36112e-06 -0.000157706
0.000937675 0.00017393 1.36433e-05
0.00017393 -5.95512e-06 6.2717e-06
1.36433e-05 6.2717e-06 -0.000165564
0.00140709 0.00024559 5.56959e-06
0.00024559 0.000109596 1.388e-06
5.56959e-06 1.388e-06 -7.80901e-05
0.000830986 0.000192722 7.77801e-06
0.000192722 0.000138586 7.23811e-06
7.77801e-06 7.23811e-06 -3.88436e-05
0.00106897 0.00024389 5.33679e-06
0.00024389 2.38084e-05 1.8087e-06
5.33679e-06 1.8087e-06 -0.000177827
0.00128953 0.000267133 6.23708e-06
0.000267133 0.000264868 1.21404e-06
6.23708e-06 1.21404e-06 3.64782e-05
0.0013796 0.000292933 -9.24496e-07
0.000292933 0.000206441 -7.57691e-07
-9.24496e-07 -7.57691e-07 -1.95994e-05
0.00257999 -0.000122869 3.49995e-05
-0.000122869 0.00123223 2.97549e-06
3.49995e-05 2.97549e-06 0.00123123
0.00275397 -0.000137933 8.79091e-06
-0.000137933 0.0013441 -7.15813e-07
8.79091e-06 -7.15813e-07 0.00133899
0.00301959 -0.000158012 -5.03575e-05
-0.000158012 0.00151146 -2.50724e-06
-5.03575e-05 -2.50724e-06 0.00150064
0.000383444 -2.20457e-05 7.46664e-06
-2.20457e-05 -0.000101066 -9.93602e-06
7.46664e-06 -9.93602e-06 -0.000152983
0.00403955 0.000151255 0.000111624
0.000151255 0.00212832 -6.60799e-06
0.000111624 -6.60799e-06 0.00211663
0.00589509 0.000179707 -0.000267408
0.000179707 0.00318951 -1.99746e-05
-0.000267408 -1.99746e-05 0.00319281
0.00568342 6.95479e-05 -0.000246604
6.95479e-05 0.00305371 -8.98015e-06
-0.000246604 -8.98015e-06 0.00306618
0.000585543 9.06514e-05 -1.9707e-05
9.06514e-05 -0.00011134 -4.86985e-06
-1.9707e-05 -4.86985e-06 -0.000190763
0.00056982 4.07065e-05 -1.92951e-05
4.07065e-05 -0.000118571 -2.36913e-06
-1.92951e-05 -2.36913e-06 -0.000194259
0.00551203 -1.25994e-05 -0.000238432
-1.25994e-05 0.00295523 -1.58562e-06
-0.000238432 -1.58562e-06 0.00296943
0.00548249 1.68046e-05 -5.89248e-07
1.68046e-05 0.00293885 -5.25514e-07
-5.89248e-07 -5.25514e-07 0.00295276
0.000552183 8.47746e-07 -1.41597e-07
8.47746e-07 -0.000132705 -9.98207e-09
-1.41597e-07 -9.98207e-09 -0.00020388
0.00163268 3.27916e-05 5.12184e-05
3.27916e-05 0.000511645 1.86753e-06
5.12184e-05 1.86753e-06 0.00044898
0.00100016 4.24053e-05 -1.78303e-08
4.24053e-05 -3.55428e-05 -1.30739e-07
-1.78303e-08 -1.30739e-07 -0.000159998
0.00055344 7.59639e-05 -4.08974e-07
7.59639e-05 -0.000126317 -3.07706e-07
-4.08974e-07 -3.07706e-07 -0.000209782
0.00101032 9.30381e-05 -1.28114e-07
9.30381e-05 -3.17132e-05 -1.33203e-07
-1.28114e-07 -1.33203e-07 -0.000166515
0.00054562 -2.82109e-05 1.91563e-05
-2.82109e-05 -0.000138596 -8.57351e-07
1.91563e-05 -8.57351e-07 -0.000207412
0.0010014 1.6558e-05 1.22598e-05
1.6558e-05 -2.96336e-05 5.54642e-07
1.22598e-05 5.54642e-07 -0.000151446
0.00102159 6.51188e-05 1.21719e-05
6.51188e-05 -2.47235e-05 1.90183e-06
1.21719e-05 1.90183e-06 -0.000153072
0.00150824 6.64377e-05 1.06563e-06
6.64377e-05 6.15759e-05 1.05642e-07
1.06563e-06 1.05642e-07 -6.46554e-05
0.00105 0.000115586 1.25962e-05
0.000115586 -4.88588e-06 3.29548e-06
1.25962e-05 3.29548e-06 -0.000145531
0.00153934 0.000145943 2.15291e-06
0.000145943 8.82944e-05 1.37384e-07
2.15291e-06 1.37384e-07 -5.64707e-05
0.0054885 -4.78508e-05 -0.000244654
-4.78508e-05 0.00294588 8.91826e-07
-0.000244654 8.91826e-07 0.00295776
0.00125847 -0.000138707 -4.45537e-05
-0.000138707 0.000420333 4.70162e-06
-4.45537e-05 4.70162e-06 0.000381997
-0.000271696 -2.26114e-06 -1.28182e-05
-2.26114e-06 -0.000618751 2.11254e-06
-1.28182e-05 2.11254e-06 -0.000702475
0.0017187 -4.96121e-05 -0.000104725
-4.96121e-05 0.000573475 6.56918e-06
-0.000104725 6.56918e-06 0.000511547
0.00500624 0.00036096 1.5067e-05
0.00036096 0.00276666 7.90195e-06
1.5067e-05 7.90195e-06 0.00269291
0.00270809 -0.000191192 -0.000109469
-0.000191192 0.00122267 1.84901e-05
-0.000109469 1.84901e-05 0.00114414
0.0017304 -9.34892e-05 -0.000104423
-9.34892e-05 0.000588362 1.21409e-05
-0.000104423 1.21409e-05 0.000523518
0.00174778 -0.0001342 -2.78695e-05
-0.0001342 0.000423925 5.47303e-06
-2.78695e-05 5.47303e-06 0.000292762
0.00200866 -0.00020491 -2.67022e-05
-0.00020491 0.000614903 8.33104e-06
-2.67022e-05 8.33104e-06 0.00047058
0.00203957 -0.000256117 -2.57074e-05
-0.000256117 0.000687332 1.05545e-05
-2.57074e-05 1.05545e-05 0.000522572
0.00132527 -0.000248173 -6.24737e-06
-0.000248173 0.000103975 1.84488e-06
-6.24737e-06 1.84488e-06 -8.66256e-05
0.000548195 7.02578e-06 -5.94228e-08
7.02578e-06 -0.00013362 1.3656e-07
-5.94228e-08 1.3656e-07 -0.000204313
0.00162498 -6.93336e-05 -2.96318e-05
-6.93336e-05 0.000523005 3.2846e-07
-2.96318e-05 3.2846e-07 0.000457307
0.00124539 -3.20419e-05 -7.63827e-06
-3.20419e-05 0.000116475 4.12768e-07
-7.63827e-06 4.12768e-07 -2.64431e-06
0.00182574 -0.000111158 -5.87396e-06
-0.000111158 0.00046583 8.95109e-07
-5.87396e-06 8.95109e-07 0.000340091
0.00471927 0.000162354 -7.96599e-06
0.000162354 0.00253824 -1.18241e-06
-7.96599e-06 -1.18241e-06 0.00252158
0.0015477 -9.87523e-05 -1.71729e-06
-9.87523e-05 0.000562596 7.57612e-09
-1.71729e-06 7.57612e-09 0.000472408
0.00132841 -0.000217259 1.4822e-06
-0.000217259 0.000309398 -7.87094e-07
1.4822e-06 -7.87094e-07 0.000139332
0.00170614 -0.000164955 -6.14071e-06
-0.000164955 0.000412871 1.39776e-06
-6.14071e-06 1.39776e-06 0.000274613
0.00162971 -0.000181849 -2.20881e-06
-0.000181849 0.000183834 4.12094e-07
-2.20881e-06 4.12094e-07 3.06027e-05
0.00126907 -0.000265229 1.58327e-07
-0.000265229 0.000112849 -1.59892e-07
1.58327e-07 -1.59892e-07 -9.16086e-05
0.00153031 -0.000237925 3.94718e-07
-0.000237925 0.000190943 -1.32619e-07
3.94718e-07 -1.32619e-07 1.21266e-05
0.00163748 -0.000321173 6.59899e-07
-0.000321173 0.000177299 4.23143e-09
6.59899e-07 4.23143e-09 -2.47148e-05
0.000517116 -5.13068e-05 -1.11346e-06
-5.13068e-05 -3.25526e-05 1.82925e-07
-1.11346e-06 1.82925e-07 -9.39298e-05
0.000645259 -7.30885e-05 -5.23457e-08
-7.30885e-05 5.7287e-05 2.58024e-07
-5.23457e-08 2.58024e-07 -7.4772e-05
0.000985797 -1.54147e-05 1.22263e-05
-1.54147e-05 -3.36614e-05 -7.94658e-07
1.22263e-05 -7.94658e-07 -0.00015497
0.00170182 -6.83694e-05 1.18426e-05
-6.83694e-05 0.000388516 -1.61419e-06
1.18426e-05 -1.61419e-06 0.000269329
0.00168683 -5.97598e-05 3.35963e-07
-5.97598e-05 0.000187898 1.02844e-07
3.35963e-07 1.02844e-07 6.18061e-05
0.0015357 -0.000144816 2.34335e-06
-0.000144816 0.000112186 -1.23418e-07
2.34335e-06 -1.23418e-07 -2.93117e-05
0.00168914 -0.000222026 3.19109e-06
-0.000222026 0.000251855 -7.51986e-07
3.19109e-06 -7.51986e-07 8.70934e-05
0.00179924 -0.000223047 -3.89262e-07
-0.000223047 0.0001555 4.90696e-07
-3.89262e-07 4.90696e-07 1.34281e-05
0.000351088 -8.37191e-05 1.54698e-05
-8.37191e-05 -0.000145358 -1.40589e-05
1.54698e-05 -1.40589e-05 -0.000214109
0.0016698 -0.000294991 1.46113e-06
-0.000294991 0.000154182 7.14133e-07
1.46113e-06 7.14133e-07 -2.57485e-05
0.000712032 -0.000172511 6.51382e-06
-0.000172511 1.3283e-05 -7.50216e-06
6.51382e-06 -7.50216e-06 -0.000161454
0.000996858 -0.000253286 9.85149e-06
-0.000253286 1.22157e-05 -3.46063e-06
9.85149e-06 -3.46063e-06 -0.000201005
0.00178413 -0.000361736 3.08827e-06
-0.000361736 0.000312807 -1.06588e-08
3.08827e-06 -1.06588e-08 8.33866e-05
0.00195604 -0.000356387 -1.64114e-06
-0.000356387 0.00030999 3.25854e-06
-1.64114e-06 3.25854e-06 0.000123713
0.000738399 -0.000122555 1.67436e-06
-0.000122555 0.00011601 -5.52285e-06
1.67436e-06 -5.52285e-06 -4.03431e-05
0.00064694 -3.63724e-05 5.29939e-07
-3.63724e-05 6.06291e-05 -3.93598e-06
5.29939e-07 -3.93598e-06 -5.08145e-05
0.00105664 -0.000178509 -5.26417e-07
-0.000178509 0.000321888 7.27647e-07
-5.26417e-07 7.27647e-07 0.000123757
0.000529873 9.64879e-05 -1.78043e-05
9.64879e-05 -0.000132696 -8.24987e-06
-1.78043e-05 -8.24987e-06 -0.000219885
0.00366835 -0.000164844 -8.90978e-05
-0.000164844 0.00190322 -3.60586e-06
-8.90978e-05 -3.60586e-06 0.00189116
0.000374914 -4.07035e-05 -4.81185e-07
-4.07035e-05 -9.41161e-05 -8.5394e-06
-4.81185e-07 -8.5394e-06 -0.000140367
0.000479903 0.000145676 -1.95588e-05
0.000145676 -0.000127514 -1.34478e-05
-1.95588e-05 -1.34478e-05 -0.000224841
0.000951815 0.000159184 -1.44374e-05
0.000159184 -2.14991e-05 -5.87561e-06
-1.44374e-05 -5.87561e-06 -0.000176364
0.000366202 7.7312e-05 -1.68852e-05
7.7312e-05 -0.000142584 -1.32113e-05
-1.68852e-05 -1.32113e-05 -0.000208589
0.000765023 0.000173569 -8.35904e-06
0.000173569 2.5775e-05 -7.39057e-06
-8.35904e-06 -7.39057e-06 -0.00015063
0.000927602 0.000183077 -1.1932e-05
0.000183077 2.99135e-05 -7.00004e-06
-1.1932e-05 -7.00004e-06 -0.000133731
0.000873833 0.00022715 -7.00555e-06
0.00022715 -4.14064e-05 -1.37897e-06
-7.00555e-06 -1.37897e-06 -0.000248321
0.000534188 2.73733e-05 2.32836e-06
2.73733e-05 -2.15518e-05 4.27688e-07
2.32836e-06 4.27688e-07 -7.70725e-05
0.000498614 -6.23522e-05 3.4694e-07
-6.23522e-05 -2.09888e-05 2.56172e-07
3.4694e-07 2.56172e-07 -5.97515e-05
0.000609075 3.59653e-05 4.57671e-07
3.59653e-05 4.0412e-05 6.30153e-07
4.57671e-07 6.30153e-07 -7.34877e-05
0.000999564 0.00013945 5.12283e-09
0.00013945 -2.01161e-05 -2.67848e-07
5.12283e-09 -2.67848e-07 -0.000168303
0.00094949 0.000175199 3.98637e-07
0.000175199 4.40956e-06 -2.20793e-07
3.98637e-07 -2.20793e-07 -0.000155609
0.00141184 0.000245946 1.53863e-07
0.000245946 0.000112665 -1.82673e-08
1.53863e-07 -1.82673e-08 -7.53879e-05
0.00079806 0.000175489 -5.05658e-07
0.000175489 0.000119925 2.95553e-08
-5.05658e-07 2.95553e-08 -5.52081e-05
0.00118869 0.000249737 3.41656e-07
0.000249737 9.75276e-05 2.59423e-09
3.41656e-07 2.59423e-09 -0.000104559
0.00111334 0.000252026 4.78167e-07
0.000252026 0.00016019 -1.37446e-06
4.78167e-07 -1.37446e-06 -6.56825e-05
0.00129077 0.000294577 -6.73921e-07
0.000294577 0.000148029 5.82287e-08
-6.73921e-07 5.82287e-08 -7.95823e-05
0.000544481 -6.73911e-05 -1.90598e-06
-6.73911e-05 -1.31169e-06 6.19351e-06
-1.90598e-06 6.19351e-06 -3.36637e-05
0.000780925 0.000131208 5.37449e-06
0.000131208 0.000132605 5.14023e-06
5.37449e-06 5.14023e-06 -1.92441e-05
0.000692218 1.11929e-05 1.9067e-06
1.11929e-05 8.50402e-05 4.15601e-06
1.9067e-06 4.15601e-06 -2.37667e-06
0.00102414 0.000119725 1.53904e-06
0.000119725 0.000325555 -1.53158e-07
1.53904e-06 -1.53158e-07 0.000144009
0.0014841 0.000219171 4.18046e-06
0.000219171 0.00010761 3.70412e-07
4.18046e-06 3.70412e-07 -6.55029e-05
0.00129104 0.000257005 6.16417e-06
0.000257005 9.39628e-05 1.93693e-06
6.16417e-06 1.93693e-06 -0.000104266
0.00176887 0.000322824 1.28611e-06
0.000322824 0.000209716 -1.1095e-07
1.28611e-06 -1.1095e-07 1.60395e-05
0.00127189 0.000242256 4.07806e-06
0.000242256 0.000339223 3.58159e-06
4.07806e-06 3.58159e-06 0.000121455
0.00171785 0.000359608 -1.11408e-06
0.000359608 0.000326611 -6.62788e-07
-1.11408e-06 -6.62788e-07 9.99096e-05
0.00127587 0.000293544 1.1543e-06
0.000293544 0.00019194 -7.06758e-07
1.1543e-06 -7.06758e-07 -6.20709e-05
0.00147558 0.000329535 8.43014e-07
0.000329535 0.000162672 4.3917e-08
8.43014e-07 4.3917e-08 -7.1567e-05
0.000610636 1.1869e-05 2.51446e-06
1.1869e-05 1.88568e-05 2.46189e-06
2.51446e-06 2.46189e-06 -3.35923e-05
0.000526048 -4.31957e-05 7.63714e-07
-4.31957e-05 -3.91588e-05 4.80602e-06
7.63714e-07 4.80602e-06 -5.99008e-05
0.00244352 -0.000106649 2.86827e-05
-0.000106649 0.00114171 3.31271e-06
2.86827e-05 3.31271e-06 0.0011448
0.00251203 -0.000120774 3.70425e-06
-0.000120774 0.00119123 -3.97174e-07
3.70425e-06 -3.97174e-07 0.00119057
0.00264855 -0.000137894 -3.59574e-05
-0.000137894 0.00128158 -2.77887e-06
-3.59574e-05 -2.77887e-06 0.00127613
0.000434223 -1.10702e-05 5.75686e-06
-1.10702e-05 -7.17071e-05 -8.43706e-06
5.75686e-06 -8.43706e-06 -0.000114857
0.00355995 0.000132964 9.46875e-05
0.000132964 0.00183353 -5.08994e-06
9.46875e-05 -5.08994e-06 0.00182732
0.0005152 -2.45994e-05 -2.81325e-07
-2.45994e-05 -2.53626e-05 3.42353e-07
-2.81325e-07 3.42353e-07 -7.78728e-05
0.00421236 0.000138253 -6.5943e-06
0.000138253 0.00222699 -9.28167e-07
-6.5943e-06 -9.28167e-07 0.00221839
0.000579547 0.000100339 -1.92664e-05
0.000100339 -0.000108951 -6.50419e-06
-1.92664e-05 -6.50419e-06 -0.000193926
0.000588902 3.31901e-05 -1.84678e-05
3.31901e-05 -0.000111486 -3.29195e-06
-1.84678e-05 -3.29195e-06 -0.000187496
0.000986848 9.42715e-05 -1.20729e-05
9.42715e-05 -4.60119e-05 -2.77958e-06
-1.20729e-05 -2.77958e-06 -0.000181329
0.00097448 4.43961e-05 -1.23326e-05
4.43961e-05 -5.15562e-05 -1.42993e-06
-1.23326e-05 -1.42993e-06 -0.000176326
0.000604012 -6.79012e-06 -1.93588e-05
-6.79012e-06 -0.000105425 -7.48691e-07
-1.93588e-05 -7.48691e-07 -0.000174593
0.00556131 -9.46469e-05 -0.000251493
-9.46469e-05 0.00299477 3.87936e-06
-0.000251493 3.87936e-06 0.00300375
0.000590673 -6.79018e-07 1.29501e-07
-6.79018e-07 -0.000112347 -5.29278e-07
1.29501e-07 -5.29278e-07 -0.000181246
0.000990532 2.14206e-05 -4.73839e-08
2.14206e-05 -3.65309e-05 -6.03477e-08
-4.73839e-08 -6.03477e-08 -0.000158571
0.00101065 6.68836e-05 -9.49981e-08
6.68836e-05 -3.22719e-05 -1.05108e-07
-9.49981e-08 -1.05108e-07 -0.00016104
0.00150075 6.53153e-05 -6.10687e-08
6.53153e-05 5.92307e-05 1.07727e-07
-6.10687e-08 1.07727e-07 -6.70996e-05
0.00101508 0.000117081 -1.53984e-07
0.000117081 -2.40171e-05 -2.25493e-07
-1.53984e-07 -2.25493e-07 -0.000165547
0.00152163 0.000146192 -7.02252e-08
0.000146192 7.79291e-05 1.89636e-08
-7.02252e-08 1.89636e-08 -6.73808e-05
0.000985137 -9.5453e-07 1.22261e-05
-9.5453e-07 -3.47313e-05 -3.21519e-07
1.22261e-05 -3.21519e-07 -0.00015596
0.00149248 3.42353e-05 1.26827e-06
3.42353e-05 5.74024e-05 1.27977e-07
1.26827e-06 1.27977e-07 -6.48755e-05
0.00151709 0.000105156 1.21442e-06
0.000105156 6.78223e-05 -1.64299e-09
1.21442e-06 -1.64299e-09 -6.61226e-05
0.00182627 9.37596e-05 -1.99361e-06
9.37596e-05 0.00010379 -2.93828e-07
-1.99361e-06 -2.93828e-07 6.61753e-06
0.00153343 0.000186177 3.14839e-06
0.000186177 0.000100487 2.96865e-07
3.14839e-06 2.96865e-07 -5.79116e-05
0.00182322 0.000189609 -2.79932e-07
0.000189609 0.00012553 -1.45547e-06
-2.79932e-07 -1.45547e-06 -4.2449e-07
0.000572344 4.5189e-07 -1.85296e-05
4.5189e-07 -0.000117025 1.11452e-06
-1.85296e-05 1.11452e-06 -0.000189513
0.00170729 -2.70789e-05 -0.000104116
-2.70789e-05 0.000566287 4.32556e-06
-0.000104116 4.32556e-06 0.000507113
0.000797557 -2.62189e-05 -1.49535e-05
-2.62189e-05 -0.000150129 1.71798e-06
-1.49535e-05 1.71798e-06 -0.000273949
0.00196064 -0.000111306 -2.48469e-05
-0.000111306 0.000544726 3.95303e-06
-2.48469e-05 3.95303e-06 0.00042025
0.00495315 0.000135288 -0.000164907
0.000135288 0.00267045 1.22499e-05
-0.000164907 1.22499e-05 0.00265866
0.00274806 -0.000148148 -0.000106428
-0.000148148 0.00126961 1.46085e-05
-0.000106428 1.46085e-05 0.00119921
0.00194836 -0.000261708 -2.07229e-05
-0.000261708 0.000684415 9.08223e-06
-2.07229e-05 9.08223e-06 0.000510845
0.00171995 -0.000164302 -2.64017e-05
-0.000164302 0.000420699 6.78248e-06
-2.64017e-05 6.78248e-06 0.000282583
0.00152295 -0.00017976 -5.35151e-06
-0.00017976 0.000117549 9.39613e-07
-5.35151e-06 9.39613e-07 -3.44556e-05
0.00171136 -0.000245893 -6.49664e-06
-0.000245893 0.000298409 1.96297e-06
-6.49664e-06 1.96297e-06 0.000120533
0.00118321 -0.000260913 -7.30311e-06
-0.000260913 6.41027e-05 2.22935e-06
-7.30311e-06 2.22935e-06 -0.000140336
0.00167072 -0.000322024 -1.74986e-06
-0.000322024 0.000200742 -7.74088e-07
-1.74986e-06 -7.74088e-07 -7.22095e-07
0.000647905 -6.1343e-05 -1.31156e-05
-6.1343e-05 4.33566e-05 1.25426e-05
-1.31156e-05 1.25426e-05 -2.01303e-05
0.0007415 -9.9355e-05 -1.25825e-06
-9.9355e-05 0.000117363 3.79548e-06
-1.25825e-06 3.79548e-06 -1.94091e-05
0.000883931 -1.05282e-05 -1.97219e-07
-1.05282e-05 -9.51709e-05 -6.9688e-09
-1.97219e-07 -6.9688e-09 -0.000216683
0.00171068 -6.95367e-05 -6.33495e-06
-6.95367e-05 0.000392542 6.77145e-07
-6.33495e-06 6.77145e-07 0.000273448
0.00172706 -5.61427e-05 -1.68874e-06
-5.61427e-05 0.000208524 2.44474e-07
-1.68874e-06 2.44474e-07 8.5634e-05
0.00160224 -0.000145396 -7.64905e-07
-0.000145396 0.000153621 2.85538e-07
-7.64905e-07 2.85538e-07 1.05182e-05
0.000509791 -9.40165e-05 2.21764e-07
-9.40165e-05 -5.16653e-05 3.82757e-07
2.21764e-07 3.82757e-07 -0.000123959
0.000847396 -0.0001882 -7.57945e-07
-0.0001882 9.13624e-05 -6.00591e-07
-7.57945e-07 -6.00591e-07 -8.48866e-05
0.00105449 -0.000258273 2.65677e-06
-0.000258273 4.67172e-05 -8.38838e-07
2.65677e-06 -8.38838e-07 -0.000166692
0.00170372 -0.000220629 -2.94576e-06
-0.000220629 0.000260215 7.66248e-07
-2.94576e-06 7.66248e-07 9.43165e-05
0.00185299 -0.000227445 9.94637e-07
-0.000227445 0.000181227 -2.63018e-07
9.94637e-07 -2.63018e-07 4.30159e-05
0.00181374 -0.000368861 -1.51554e-06
-0.000368861 0.000332614 2.23172e-07
-1.51554e-06 2.23172e-07 0.000101607
0.00169062 -0.000295703 5.13094e-07
-0.000295703 0.000167867 -1.66237e-08
5.13094e-07 -1.66237e-08 -1.17614e-05
0.00189046 -0.000354214 7.70248e-07
-0.000354214 0.000264036 6.45846e-07
7.70248e-07 6.45846e-07 7.77018e-05
0.000732919 -0.00013352 -3.13016e-07
-0.00013352 0.000111161 -2.49172e-07
-3.13016e-07 -2.49172e-07 -4.64959e-05
0.000564756 -0.000113877 -4.73805e-07
-0.000113877 1.313e-05 -5.64083e-07
-4.73805e-07 -5.64083e-07 -0.000168516
0.00067833 -5.05344e-05 -3.15174e-08
-5.05344e-05 7.85416e-05 8.3903e-08
-3.15174e-08 8.3903e-08 -3.51985e-05
0.00166838 -2.41225e-05 1.13334e-07
-2.41225e-05 0.000172569 6.36673e-08
1.13334e-07 6.36673e-08 5.05062e-05
0.00175654 -9.78742e-05 -1.32301e-07
-9.78742e-05 0.000228967 5.04811e-07
-1.32301e-07 5.04811e-07 0.000100577
0.00172614 -7.91959e-05 -1.75653e-06
-7.91959e-05 5.82966e-05 1.15244e-06
-1.75653e-06 1.15244e-06 -4.24128e-05
0.00178501 -0.000183191 -2.49658e-06
-0.000183191 0.000115988 1.29433e-06
-2.49658e-06 1.29433e-06 -8.05478e-06
0.00166382 -0.000266359 -1.5445e-07
-0.000266359 0.000113361 1.57644e-06
-1.5445e-07 1.57644e-06 -4.37482e-05
0.00188185 -0.000250372 -2.71855e-07
-0.000250372 0.000146349 8.02946e-07
-2.71855e-07 8.02946e-07 3.22091e-05
0.000754051 -0.000161282 3.98736e-06
-0.000161282 9.9555e-05 -6.23809e-06
3.98736e-06 -6.23809e-06 -7.12985e-05
0.00175304 -0.000322365 -1.6907e-06
-0.000322365 0.000136672 1.81266e-06
-1.6907e-06 1.81266e-06 -2.33819e-05
0.00102711 -0.000248189 4.63947e-06
-0.000248189 0.00012263 -5.47678e-06
4.63947e-06 -5.47678e-06 -9.5177e-05
0.00141355 -0.000362543 3.99974e-06
-0.000362543 0.000189174 -1.37836e-06
3.99974e-06 -1.37836e-06 -6.77412e-05
0.00192265 -0.000404628 1.44669e-06
-0.000404628 0.000337459 3.25489e-06
1.44669e-06 3.25489e-06 0.000106287
0.00203493 -0.000376735 -3.01019e-06
-0.000376735 0.000330335 3.53471e-06
-3.01019e-06 3.53471e-06 0.000158357
0.000632415 -3.43897e-05 4.97993e-07
-3.43897e-05 5.76183e-05 -3.87264e-06
4.97993e-07 -3.87264e-06 -4.07664e-05
0.000749172 -0.000171582 3.00196e-08
-0.000171582 9.10932e-05 -1.35851e-07
3.00196e-08 -1.35851e-07 -9.17724e-05
0.000511104 -9.84516e-05 -9.27274e-07
-9.84516e-05 1.46234e-05 1.44606e-06
-9.27274e-07 1.44606e-06 -0.000167513
0.00137618 -0.000242574 -3.3584e-06
-0.000242574 0.00047231 2.58101e-06
-3.3584e-06 2.58101e-06 0.000265681
0.000973575 0.000140185 -1.38703e-05
0.000140185 -3.24281e-05 -4.83407e-06
-1.38703e-05 -4.83407e-06 -0.000181343
0.000422204 -6.54374e-05 1.88732e-06
-6.54374e-05 -6.53554e-05 -7.03269e-06
1.88732e-06 -7.03269e-06 -0.000104302
0.000359031 8.05357e-06 -6.67637e-06
8.05357e-06 -0.000120584 -1.09755e-05
-6.67637e-06 -1.09755e-05 -0.000175197
0.000491665 -9.68442e-07 -2.40077e-07
-9.68442e-07 -2.74866e-05 -4.93235e-06
-2.40077e-07 -4.93235e-06 -0.000138215
0.000948922 0.000175949 -1.37124e-05
0.000175949 7.77407e-06 -6.81032e-06
-1.37124e-05 -6.81032e-06 -0.000152639
0.00141781 0.000246276 -5.39693e-06
0.000246276 0.000116581 -1.37863e-06
-5.39693e-06 -1.37863e-06 -7.18154e-05
0.000731113 0.000153655 -5.08245e-06
0.000153655 7.94319e-05 -5.30722e-06
-5.08245e-06 -5.30722e-06 -9.18199e-05
0.00106368 0.000248081 -6.27816e-06
0.000248081 0.000131051 -4.31783e-06
-6.27816e-06 -4.31783e-06 -9.3727e-05
0.00133147 0.00025743 -5.64147e-06
0.00025743 0.000185215 -2.34466e-06
-5.64147e-06 -2.34466e-06 -1.76162e-05
0.0011676 0.000292389 -3.44908e-06
0.000292389 7.10569e-05 -1.41565e-07
-3.44908e-06 -1.41565e-07 -0.00015745
0.000500721 -6.61548e-05 -4.26222e-07
-6.61548e-05 -2.89197e-05 2.60865e-07
-4.26222e-07 2.60865e-07 -6.04943e-05
0.000759322 0.000126507 3.44585e-07
0.000126507 0.000129511 -4.95013e-07
3.44585e-07 -4.95013e-07 -2.44042e-05
0.000620297 -9.05727e-06 -1.98735e-07
-9.05727e-06 4.48054e-05 6.00886e-07
-1.98735e-07 6.00886e-07 -4.14749e-05
0.000772292 9.82321e-05 1.24006e-06
9.82321e-05 0.000172332 -7.85099e-07
1.24006e-06 -7.85099e-07 -4.12536e-06
0.00147743 0.000218651 -1.24442e-07
0.000218651 0.000104497 -4.59687e-07
-1.24442e-07 -4.59687e-07 -6.89027e-05
0.00131586 0.000257666 2.50326e-07
0.000257666 0.000113574 -1.81979e-08
2.50326e-07 -1.81979e-08 -8.4829e-05
0.00174062 0.000320848 2.60103e-07
0.000320848 0.00019314 1.59787e-07
2.60103e-07 1.59787e-07 -4.88956e-07
0.00105897 0.000228177 1.5197e-06
0.000228177 0.000214857 1.60182e-07
1.5197e-06 1.60182e-07 -6.35927e-07
0.00173978 0.000355892 -9.92044e-07
0.000355892 0.000340783 -1.12906e-07
-9.92044e-07 -1.12906e-07 0.000114871
0.00124936 0.000293734 -1.67482e-08
0.000293734 0.000172337 -1.41321e-06
-1.67482e-08 -1.41321e-06 -8.26089e-05
0.0015572 0.000334738 -3.6806e-06
0.000334738 0.00021161 8.29265e-07
-3.6806e-06 8.29265e-07 -2.18124e-05
0.000518806 -5.7696e-05 -6.12505e-07
-5.7696e-05 -3.19631e-05 5.30556e-06
-6.12505e-07 5.30556e-06 -5.75532e-05
0.000671453 -4.69276e-06 1.6467e-06
-4.69276e-06 6.40933e-05 3.65337e-06
1.6467e-06 3.65337e-06 -5.52271e-06
0.00105635 0.000199225 1.063e-06
0.000199225 0.000286279 2.00827e-06
1.063e-06 2.00827e-06 9.49905e-05
0.00117574 7.39014e-05 -8.18235e-07
7.39014e-05 0.000424095 2.4043e-06
-8.18235e-07 2.4043e-06 0.00026864
0.00114767 0.000187732 -6.7776e-07
0.000187732 0.000371906 -2.24577e-06
-6.7776e-07 -2.24577e-06 0.000176104
0.00181254 0.00028407 9.19022e-07
0.00028407 0.000186876 -1.55452e-06
9.19022e-07 -1.55452e-06 1.69635e-05
0.00167613 0.0003508 7.25363e-07
0.0003508 0.000223429 6.45904e-08
7.25363e-07 6.45904e-08 8.32556e-06
0.00185162 0.000357491 1.39623e-07
0.000357491 0.00022271 -1.82874e-07
1.39623e-07 -1.82874e-07 3.60204e-05
0.00120169 0.000288082 3.30364e-06
0.000288082 0.000241519 4.1156e-06
3.30364e-06 4.1156e-06 -9.97993e-06
0.00198372 0.000424797 7.44282e-07
0.000424797 0.000417253 -6.27615e-07
7.44282e-07 -6.27615e-07 0.000180034
0.000839101 0.000279636 4.85959e-06
0.000279636 -0.000133516 -1.4451e-06
4.85959e-06 -1.4451e-06 -0.000387406
0.00060967 6.58126e-06 2.80092e-06
6.58126e-06 1.83586e-05 2.50838e-06
2.80092e-06 2.50838e-06 -3.59633e-05
0.000677778 5.19245e-05 1.79455e-07
5.19245e-05 8.89467e-05 1.262e-06
1.79455e-07 1.262e-06 -1.24428e-06
0.000628853 2.21396e-05 2.31609e-06
2.21396e-05 3.40541e-05 2.48273e-06
2.31609e-06 2.48273e-06 -1.83213e-05
0.000595005 -1.3146e-05 -5.55903e-07
-1.3146e-05 1.17213e-05 -3.27297e-09
-5.55903e-07 -3.27297e-09 -4.1712e-05
0.00124355 -5.07787e-05 1.10077e-06
-5.07787e-05 0.000388599 2.76344e-06
1.10077e-06 2.76344e-06 0.000373864
0.000908935 -5.097e-05 4.97923e-07
-5.097e-05 0.000191504 -1.00228e-07
4.97923e-07 -1.00228e-07 0.000172688
0.000892582 -5.26883e-05 2.37809e-05
-5.26883e-05 0.000193502 7.61865e-06
2.37809e-05 7.61865e-06 0.000194273
0.00240927 -0.00010413 4.06687e-06
-0.00010413 0.00112006 -3.65686e-07
4.06687e-06 -3.65686e-07 0.00112368
0.00244643 -0.000116964 -3.33264e-05
-0.000116964 0.00115114 -3.02793e-06
-3.33264e-05 -3.02793e-06 0.00115134
0.000444627 1.2389e-05 1.76681e-06
1.2389e-05 -6.37692e-05 -6.77351e-06
1.76681e-06 -6.77351e-06 -9.91592e-05
0.00320677 0.00013503 6.31477e-05
0.00013503 0.00161518 -3.41003e-06
6.31477e-05 -3.41003e-06 0.00160922
0.000521421 -1.18335e-05 -5.06381e-07
-1.18335e-05 -2.0257e-05 1.99548e-07
-5.06381e-07 1.99548e-07 -6.41443e-05
0.00373735 0.000123021 -6.31651e-06
0.000123021 0.00193682 -5.99315e-07
-6.31651e-06 -5.99315e-07 0.00193295
0.000644214 -2.73106e-05 -8.24954e-06
-2.73106e-05 4.83253e-05 1.04939e-05
-8.24954e-06 1.04939e-05 -5.01606e-06
0.00434862 0.000122791 -0.00014273
0.000122791 0.00230338 9.3633e-06
-0.00014273 9.3633e-06 0.00229813
0.000984916 0.000118579 -1.2821e-05
0.000118579 -4.03873e-05 -3.69567e-06
-1.2821e-05 -3.69567e-06 -0.000182713
0.000985312 7.04987e-05 -1.2098e-05
7.04987e-05 -4.73787e-05 -2.09656e-06
-1.2098e-05 -2.09656e-06 -0.00017681
0.00152175 0.000143321 -3.00967e-06
0.000143321 7.88682e-05 -1.77861e-07
-3.00967e-06 -1.77861e-07 -6.64703e-05
0.00149322 6.43859e-05 -1.41059e-06
6.43859e-05 5.70562e-05 1.50705e-07
-1.41059e-06 1.50705e-07 -6.93837e-05
0.000984698 2.53233e-05 -1.2317e-05
2.53233e-05 -4.08992e-05 -7.18754e-07
-1.2317e-05 -7.18754e-07 -0.000163174
0.000555355 2.78871e-05 -1.91482e-05
2.78871e-05 -0.000133538 -1.98872e-07
-1.91482e-05 -1.98872e-07 -0.000202008
0.000984472 1.69789e-06 -4.06752e-09
1.69789e-06 -3.59792e-05 -1.51019e-07
-4.06752e-09 -1.51019e-07 -0.000157248
0.00148917 3.5586e-05 -6.91459e-08
3.5586e-05 5.62629e-05 5.55983e-08
-6.91459e-08 5.55983e-08 -6.61459e-05
0.0015172 0.000102605 -2.47075e-09
0.000102605 6.98984e-05 5.35321e-09
-2.47075e-09 5.35321e-09 -6.40321e-05
0.00181025 9.21948e-05 1.37424e-07
9.21948e-05 8.85538e-05 2.85102e-07
1.37424e-07 2.85102e-07 -5.73201e-06
0.00151874 0.000185041 -2.49208e-07
0.000185041 9.458e-05 -7.64241e-08
-2.49208e-07 -7.64241e-08 -6.4e-05
0.00182052 0.000187346 -3.64798e-07
0.000187346 0.000127961 2.02368e-09
-3.64798e-07 2.02368e-09 2.06547e-06
0.00148158 4.4468e-06 1.48599e-06
4.4468e-06 5.47192e-05 1.89e-08
1.48599e-06 1.89e-08 -6.65374e-05
0.00181828 4.71999e-05 -3.41613e-06
4.71999e-05 0.000100701 -8.09419e-08
-3.41613e-06 -8.09419e-08 1.52288e-05
0.00183094 0.000144879 -1.40344e-06
0.000144879 0.000109962 -9.07638e-07
-1.40344e-06 -9.07638e-07 8.99371e-07
0.00181831 9.34103e-05 4.22058e-06
9.34103e-05 4.13795e-05 5.34395e-07
4.22058e-06 5.34395e-07 -2.69983e-05
0.00183836 0.000237099 1.75822e-07
0.000237099 0.000170122 -1.2932e-06
1.75822e-07 -1.2932e-06 2.37207e-05
0.00177694 0.000208579 4.83431e-07
0.000208579 3.79212e-05 -1.20271e-06
4.83431e-07 -1.20271e-06 -6.12196e-05
0.000785921 -7.15417e-06 -1.21709e-05
-7.15417e-06 -0.00015442 7.07624e-07
-1.21709e-05 7.07624e-07 -0.000276195
0.00174277 -7.19969e-05 -2.43954e-05
-7.19969e-05 0.000410447 2.93184e-06
-2.43954e-05 2.93184e-06 0.000291395
0.00179321 -5.04412e-05 -4.78311e-06
-5.04412e-05 0.000244289 -7.51226e-09
-4.78311e-06 -7.51226e-09 0.000124859
0.0016719 -0.000146047 -3.87902e-06
-0.000146047 0.000197006 9.57462e-07
-3.87902e-06 9.57462e-07 5.23001e-05
0.00074017 -0.000112606 -1.84506e-05
-0.000112606 8.36955e-05 1.47857e-05
-1.84506e-05 1.47857e-05 7.62469e-06
0.000742044 -0.000190011 -8.98584e-06
-0.000190011 3.12115e-05 6.95598e-06
-8.98584e-06 6.95598e-06 -0.000145256
0.00110675 -0.000262319 -5.1811e-06
-0.000262319 7.85575e-05 2.7472e-06
-5.1811e-06 2.7472e-06 -0.000134857
0.00171898 -0.000219121 -7.76683e-06
-0.000219121 0.000268876 2.22976e-06
-7.76683e-06 2.22976e-06 0.000101873
0.0019074 -0.000231771 5.67449e-07
-0.000231771 0.000207085 -1.26279e-06
5.67449e-07 -1.26279e-06 7.27748e-05
0.00170991 -0.000296325 -8.95243e-07
-0.000296325 0.000180625 -6.33745e-07
-8.95243e-07 -6.33745e-07 1.30654e-06
0.00183457 -0.000374793 -4.37485e-06
-0.000374793 0.000347885 -7.60576e-07
-4.37485e-06 -7.60576e-07 0.000115586
0.00182254 -0.000350907 3.06924e-06
-0.000350907 0.000217116 -2.55071e-06
3.06924e-06 -2.55071e-06 3.10513e-05
0.000720518 -0.000135622 -3.42815e-06
-0.000135622 9.64037e-05 5.42723e-06
-3.42815e-06 5.42723e-06 -5.93422e-05
0.000441772 -9.80979e-05 -1.20851e-07
-9.80979e-05 -5.98747e-05 -1.27849e-06
-1.20851e-07 -1.27849e-06 -0.000239732
0.000628586 -6.00813e-05 -1.517e-06
-6.00813e-05 4.87435e-05 3.47676e-06
-1.517e-06 3.47676e-06 -6.73287e-05
0.00159506 -2.16894e-05 -1.89291e-06
-2.16894e-05 0.00012723 1.50248e-07
-1.89291e-06 1.50248e-07 5.21448e-06
0.00175635 -0.000105817 -2.88902e-06
-0.000105817 0.000227802 4.41307e-07
-2.88902e-06 4.41307e-07 9.84263e-05
0.00178415 -7.64854e-05 1.9177e-06
-7.64854e-05 9.34596e-05 5.25944e-07
1.9177e-06 5.25944e-07 -1.55017e-06
0.00177327 -0.000178996 -1.81851e-06
-0.000178996 0.000108177 5.92323e-07
-1.81851e-06 5.92323e-07 -1.71923e-05
0.000764684 -0.000174346 3.1115e-07
-0.000174346 0.000108029 -2.68952e-08
3.1115e-07 -2.68952e-08 -6.5712e-05
0.00112069 -0.000258175 -1.49642e-06
-0.000258175 0.000172185 -6.31519e-07
-1.49642e-06 -6.31519e-07 -4.70777e-05
0.00146783 -0.000362418 2.32722e-06
-0.000362418 0.000231125 -1.50134e-07
2.32722e-06 -1.50134e-07 -2.52868e-05
0.00166239 -0.000264793 -1.0771e-06
-0.000264793 0.000115118 6.6507e-07
-1.0771e-06 6.6507e-07 -4.56045e-05
0.00190605 -0.000252035 1.76423e-06
-0.000252035 0.000159188 -1.45744e-07
1.76423e-06 -1.45744e-07 4.90406e-05
0.00184043 -0.000405642 -6.21764e-07
-0.000405642 0.00028437 4.43033e-07
-6.21764e-07 4.43033e-07 5.04126e-05
0.00178167 -0.000323052 8.99423e-08
-0.000323052 0.000153673 3.71639e-07
8.99423e-08 3.71639e-07 -6.26413e-06
0.00205657 -0.000372627 1.94968e-06
-0.000372627 0.000340622 -2.54524e-07
1.94968e-06 -2.54524e-07 0.00017259
0.000998138 -0.000200837 4.56026e-07
-0.000200837 0.00024209 8.62089e-07
4.56026e-07 8.62089e-07 5.15197e-05
0.00115854 -0.000231514 -3.03942e-07
-0.000231514 0.000348882 3.29323e-07
-3.03942e-07 3.29323e-07 0.000140664
0.00062443 -4.07097e-05 -1.08199e-07
-4.07097e-05 5.08461e-05 1.4441e-07
-1.08199e-07 1.4441e-07 -4.80741e-05
0.000337009 -5.07008e-05 -1.61627e-07
-5.07008e-05 -0.000101832 -7.11768e-07
-1.61627e-07 -7.11768e-07 -0.000270327
0.00179616 -4.17675e-05 -2.35932e-06
-4.17675e-05 9.7882e-05 2.42906e-07
-2.35932e-06 2.42906e-07 6.6262e-06
0.00184513 -0.000126206 -3.79261e-07
-0.000126206 0.000132153 1.35613e-06
-3.79261e-07 1.35613e-06 2.35842e-05
0.00171906 -8.50694e-05 2.95992e-06
-8.50694e-05 9.88826e-06 -2.72731e-07
2.95992e-06 -2.72731e-07 -6.28172e-05
0.00183592 -0.000205308 -2.60093e-06
-0.000205308 7.41852e-05 6.29256e-07
-2.60093e-06 6.29256e-07 -1.47523e-05
0.00173821 -0.000286671 -2.96156e-06
-0.000286671 9.50169e-05 2.35425e-06
-2.96156e-06 2.35425e-06 -3.79437e-05
0.00197724 -0.000261099 3.50934e-06
-0.000261099 0.000187791 -1.25791e-06
3.50934e-06 -1.25791e-06 8.96501e-05
0.000945672 -0.000226513 9.03863e-07
-0.000226513 0.000154509 -4.76698e-06
9.03863e-07 -4.76698e-06 -5.20505e-05
0.00167579 -0.000333168 -4.29782e-06
-0.000333168 7.20186e-05 2.02026e-06
-4.29782e-06 2.02026e-06 -6.54832e-05
0.00144823 -0.000345111 3.2231e-06
-0.000345111 0.000322609 -3.25434e-06
3.2231e-06 -3.25434e-06 6.1966e-05
0.00171008 -0.00044041 -1.6866e-06
-0.00044041 0.000306618 1.76043e-06
-1.6866e-06 1.76043e-06 2.40007e-05
0.00177841 -0.000411981 2.03857e-06
-0.000411981 0.00020246 4.93037e-06
2.03857e-06 4.93037e-06 -2.60117e-05
0.00211196 -0.000365499 2.37334e-07
-0.000365499 0.000359988 4.42286e-07
2.37334e-07 4.42286e-07 0.000198251
0.000517139 -4.09908e-05 7.50053e-07
-4.09908e-05 -1.147e-05 -3.54734e-06
7.50053e-07 -3.54734e-06 -9.58803e-05
0.000474182 -5.09457e-05 -2.43867e-06
-5.09457e-05 -6.55771e-06 -8.70739e-07
-2.43867e-06 -8.70739e-07 -0.00015781
0.000924366 -0.000231353 -1.83352e-06
-0.000231353 0.000162575 4.39117e-07
-1.83352e-06 4.39117e-07 -4.35835e-05
0.000820784 -0.000162868 -3.75311e-07
-0.000162868 0.000205515 3.55165e-06
-3.75311e-07 3.55165e-06 8.44412e-07
0.00148355 -0.000285341 -5.61876e-06
-0.000285341 0.000524397 4.26932e-06
-5.61876e-06 4.26932e-06 0.000312823
0.00045649 -6.25586e-05 -3.05361e-07
-6.25586e-05 -5.75057e-05 -5.32091e-06
-3.05361e-07 -5.32091e-06 -8.77069e-05
0.00146905 0.000217877 -4.45053e-06
0.000217877 0.000100901 -1.2355e-06
-4.45053e-06 -1.2355e-06 -7.2748e-05
0.000509028 -2.69309e-05 -3.80145e-07
-2.69309e-05 -1.80992e-05 -3.72072e-06
-3.80145e-07 -3.72072e-06 -0.000104028
0.000697522 9.95187e-05 -1.64547e-06
9.95187e-05 8.91978e-05 -5.16075e-06
-1.64547e-06 -5.16075e-06 -5.77725e-05
0.000463954 7.61966e-05 1.18659e-06
7.61966e-05 -1.58182e-05 -1.08267e-07
1.18659e-06 -1.08267e-07 -0.000186634
0.00133211 0.00025792 -6.02378e-06
0.00025792 0.000127636 -2.00265e-06
-6.02378e-06 -2.00265e-06 -7.09435e-05
0.00171264 0.000319037 -2.42502e-08
0.000319037 0.00017618 6.04683e-07
-2.42502e-08 6.04683e-07 -1.74495e-05
0.000928944 0.000223532 -1.86868e-06
0.000223532 0.00013917 -4.16401e-06
-1.86868e-06 -4.16401e-06 -7.71994e-05
0.00138371 0.000310874 -2.88442e-06
0.000310874 0.000245811 -1.60437e-06
-2.88442e-06 -1.60437e-06 -1.34457e-05
0.00175219 0.000351562 -1.57539e-06
0.000351562 0.000348361 -3.80011e-08
-1.57539e-06 -3.80011e-08 0.000123337
0.0016591 0.000343427 -4.26167e-06
0.000343427 0.00027249 4.91569e-06
-4.26167e-06 4.91569e-06 3.89527e-05
0.000525826 -5.11619e-05 2.48838e-09
-5.11619e-05 -3.0965e-05 4.44562e-09
2.48838e-09 4.44562e-09 -5.48184e-05
0.000627714 -1.41858e-05 -6.65338e-07
-1.41858e-05 4.13431e-05 3.64782e-07
-6.65338e-07 3.64782e-07 -2.84032e-05
0.000982156 0.000195211 -1.58811e-07
0.000195211 0.000242472 1.02491e-06
-1.58811e-07 1.02491e-06 5.19005e-05
0.000671975 3.03907e-05 -4.21996e-07
3.03907e-05 0.000113373 -7.04e-08
-4.21996e-07 -7.04e-08 -3.03808e-05
0.000625014 0.00012891 7.08226e-07
0.00012891 4.95214e-05 -4.91352e-07
7.08226e-07 -4.91352e-07 -0.000132793
0.00179014 0.000284284 -4.22123e-07
0.000284284 0.000170799 -9.74577e-07
-4.22123e-07 -9.74577e-07 4.669e-07
0.00165424 0.000350117 5.33836e-07
0.000350117 0.000207608 1.63483e-07
5.33836e-07 1.63483e-07 -7.7685e-06
0.0017726 0.000353765 1.7504e-06
0.000353765 0.00017791 2.38141e-07
1.7504e-06 2.38141e-07 -9.06642e-06
0.0012603 0.000292433 1.48416e-06
0.000292433 0.000285388 5.84063e-07
1.48416e-06 5.84063e-07 3.14763e-05
0.00185509 0.000412799 1.15487e-06
0.000412799 0.000323036 1.46648e-07
1.15487e-06 1.46648e-07 8.63162e-05
0.00145329 0.000333625 -1.54705e-06
0.000333625 0.000231181 2.94688e-07
-1.54705e-06 2.94688e-07 -3.00928e-05
0.000681549 -9.88594e-08 2.13454e-06
-9.88594e-08 6.32051e-05 2.73069e-06
2.13454e-06 2.73069e-06 4.08879e-06
0.000967424 7.26555e-05 6.69344e-07
7.26555e-05 0.00027899 2.75992e-06
6.69344e-07 2.75992e-06 0.000161709
0.00116061 0.000257179 -3.37213e-06
0.000257179 0.000300699 -1.01221e-06
-3.37213e-06 -1.01221e-06 9.26409e-05
0.00135697 0.000100057 -1.86645e-07
0.000100057 0.00052839 2.4838e-07
-1.86645e-07 2.4838e-07 0.000349567
0.00115352 0.000156368 -5.92581e-06
0.000156368 0.000315507 -6.67271e-06
-5.92581e-06 -6.67271e-06 0.000148339
0.00181063 0.000294811 -2.63686e-06
0.000294811 0.000151832 -2.5987e-06
-2.63686e-06 -2.5987e-06 -1.09706e-06
0.00183865 0.000406117 1.16227e-06
0.000406117 0.000261855 2.74098e-07
1.16227e-06 2.74098e-07 4.36125e-05
0.00157647 0.000376674 3.59262e-06
0.000376674 3.59224e-05 -5.78203e-07
3.59262e-06 -5.78203e-07 -0.000149244
0.000735315 0.000261706 -1.43258e-06
0.000261706 -2.28069e-05 2.61111e-06
-1.43258e-06 2.61111e-06 -0.000280952
0.0014025 0.000375681 6.68494e-06
0.000375681 0.000124488 -1.2738e-06
6.68494e-06 -1.2738e-06 -0.000129179
0.000614683 -8.28729e-07 -1.88386e-07
-8.28729e-07 2.03504e-05 3.04211e-08
-1.88386e-07 3.04211e-08 -3.34877e-05
0.000542383 2.85428e-05 1.52246e-06
2.85428e-05 -3.32909e-06 1.8072e-06
1.52246e-06 1.8072e-06 -8.76713e-05
0.000531624 2.0246e-05 -5.99468e-07
2.0246e-05 -6.44258e-06 -1.22952e-07
-5.99468e-07 -1.22952e-07 -8.99315e-05
0.000936332 0.000101382 3.29747e-07
0.000101382 0.000248242 -5.84744e-07
3.29747e-07 -5.84744e-07 0.000142815
0.000674301 7.78556e-05 2.02046e-06
7.78556e-05 8.8793e-05 1.65032e-06
2.02046e-06 1.65032e-06 -3.57795e-07
0.000601531 3.42464e-05 2.41619e-06
3.42464e-05 2.38309e-05 2.5634e-06
2.41619e-06 2.5634e-06 -2.97863e-05
0.000599072 -5.15111e-06 -6.22331e-07
-5.15111e-06 1.73464e-05 -1.55376e-08
-6.22331e-07 -1.55376e-08 -3.53701e-05
0.00124389 -3.76744e-05 9.44058e-07
-3.76744e-05 0.000385824 2.62419e-06
9.44058e-07 2.62419e-06 0.000372968
0.000605392 -1.06501e-05 -1.51549e-06
-1.06501e-05 1.59155e-05 -2.51885e-06
-1.51549e-06 -2.51885e-06 -3.6026e-05
0.00129787 -4.75287e-05 -5.57665e-06
-4.75287e-05 0.000421034 -1.42147e-06
-5.57665e-06 -1.42147e-06 0.000406807
0.000851714 -4.09444e-05 2.39136e-05
-4.09444e-05 0.000160454 7.73397e-06
2.39136e-05 7.73397e-06 0.000164566
0.00131722 -5.67171e-05 -9.76364e-06
-5.67171e-05 0.000438236 -3.96803e-06
-9.76364e-06 -3.96803e-06 0.000421734
0.00159184 -6.9965e-05 2.14102e-05
-6.9965e-05 0.000616825 1.88677e-06
2.14102e-05 1.88677e-06 0.000620877
0.00235566 -0.000100865 -2.93678e-05
-0.000100865 0.00108651 -3.59791e-06
-2.93678e-05 -3.59791e-06 0.00109083
0.000443511 6.77194e-05 -2.90157e-06
6.77194e-05 -5.85004e-05 -5.51711e-06
-2.90157e-06 -5.51711e-06 -9.22508e-05
0.000498291 1.39714e-05 4.25767e-07
1.39714e-05 -3.01196e-05 3.86502e-07
4.25767e-07 3.86502e-07 -6.73736e-05
0.00278331 0.000127562 3.22658e-05
0.000127562 0.00135595 -3.6102e-06
3.22658e-05 -3.6102e-06 0.00135198
0.00331136 0.00011119 -7.52334e-06
0.00011119 0.00167509 -4.92708e-07
-7.52334e-06 -4.92708e-07 0.00167488
0.000622284 -1.36888e-05 -6.59549e-06
-1.36888e-05 3.9176e-05 8.49954e-06
-6.59549e-06 8.49954e-06 -5.46069e-06
0.00387603 0.000106569 -0.000125669
0.000106569 0.00201517 7.6888e-06
-0.000125669 7.6888e-06 0.00201507
0.00150507 0.000184272 -3.78811e-06
0.000184272 8.85683e-05 -4.33305e-07
-3.78811e-06 -4.33305e-07 -7.02613e-05
0.00150033 0.000102857 -1.89445e-06
0.000102857 6.12032e-05 -8.99766e-09
-1.89445e-06 -8.99766e-09 -7.31793e-05
0.00181292 0.000186254 -5.03394e-07
0.000186254 0.000126847 1.42185e-06
-5.03394e-07 1.42185e-06 8.13196e-07
0.00179063 9.06455e-05 1.03802e-06
9.06455e-05 7.03466e-05 7.04996e-07
1.03802e-06 7.04996e-07 -2.10126e-05
0.00148208 3.83072e-05 -1.37479e-06
3.83072e-05 5.35029e-05 9.18012e-09
-1.37479e-06 9.18012e-09 -6.90882e-05
0.000989858 6.31984e-06 -1.20974e-05
6.31984e-06 -3.34388e-05 -8.83361e-08
-1.20974e-05 -8.83361e-08 -0.000154674
0.00147848 8.0547e-06 6.97403e-08
8.0547e-06 5.47483e-05 3.23303e-08
6.97403e-08 3.23303e-08 -6.65992e-05
0.00181491 3.86605e-05 -2.08507e-06
3.86605e-05 9.86668e-05 -7.28277e-08
-2.08507e-06 -7.28277e-08 1.36506e-05
0.00182858 0.000143482 -3.33847e-07
0.000143482 0.000108104 2.65779e-07
-3.33847e-07 2.65779e-07 -8.45259e-07
0.00181394 9.14339e-05 2.40797e-06
9.14339e-05 3.65793e-05 6.09618e-07
2.40797e-06 6.09618e-07 -2.66492e-05
0.00180916 0.000237594 -2.84764e-07
0.000237594 0.000147912 -1.30401e-07
-2.84764e-07 -1.30401e-07 8.62432e-07
0.00180296 0.000205152 -4.00114e-07
0.000205152 5.24343e-05 7.58718e-07
-4.00114e-07 7.58718e-07 -4.32466e-05
0.00178681 1.05278e-06 -2.48286e-06
1.05278e-06 9.10824e-05 1.35903e-07
-2.48286e-06 1.35903e-07 6.65463e-06
0.00178226 4.2197e-05 4.63674e-06
4.2197e-05 2.77074e-05 2.63901e-07
4.63674e-06 2.63901e-07 -2.92281e-05
0.00183465 0.000149823 9.2467e-07
0.000149823 4.91395e-05 -3.24005e-07
9.2467e-07 -3.24005e-07 -2.58583e-05
0.00190221 9.72537e-05 6.30573e-06
9.72537e-05 6.5687e-05 8.19705e-07
6.30573e-06 8.19705e-07 1.85681e-05
0.00179776 0.000236756 2.09277e-07
0.000236756 9.7576e-05 -2.18124e-06
2.09277e-07 -2.18124e-06 -2.29107e-05
0.00186232 0.000212424 4.17064e-06
0.000212424 5.065e-05 1.03478e-06
4.17064e-06 1.03478e-06 -2.94928e-05
0.00150929 -1.94304e-05 -3.32055e-06
-1.94304e-05 7.49443e-05 1.93288e-08
-3.32055e-06 1.93288e-08 -4.70407e-05
0.00176789 -0.000111191 -5.7482e-06
-0.000111191 0.000233442 6.47817e-07
-5.7482e-06 6.47817e-07 0.000103365
0.00182126 -7.4851e-05 3.24827e-06
-7.4851e-05 0.00011645 -1.36492e-06
3.24827e-06 -1.36492e-06 2.69925e-05
0.00175102 -0.000175083 -3.50709e-07
-0.000175083 9.45271e-05 -9.01245e-08
-3.50709e-07 -9.01245e-08 -3.22537e-05
0.000830763 -0.00019832 -5.87019e-06
-0.00019832 0.000149828 7.82495e-06
-5.87019e-06 7.82495e-06 -2.80283e-05
0.00122197 -0.000268973 -6.91518e-06
-0.000268973 0.000225773 3.82559e-06
-6.91518e-06 3.82559e-06 4.91059e-06
0.00134257 -0.000346099 -1.5014e-07
-0.000346099 0.000166178 9.6443e-07
-1.5014e-07 9.6443e-07 -8.77116e-05
0.00166557 -0.000263461 -1.12072e-06
-0.000263461 0.000119593 1.51664e-07
-1.12072e-06 1.51664e-07 -4.47759e-05
0.00193453 -0.000253406 2.14858e-06
-0.000253406 0.000175462 -1.62307e-06
2.14858e-06 -1.62307e-06 6.9344e-05
0.0018139 -0.000323989 2.10333e-06
-0.000323989 0.000172729 -1.04903e-06
2.10333e-06 -1.04903e-06 1.28802e-05
0.00177493 -0.000409099 -6.71821e-07
-0.000409099 0.000240584 -1.97973e-06
-6.71821e-07 -1.97973e-06 3.2573e-06
0.0020658 -0.000368026 5.72785e-06
-0.000368026 0.000344785 -6.08797e-06
5.72785e-06 -6.08797e-06 0.000180689
0.000965537 -0.000202011 6.85339e-07
-0.000202011 0.000224326 1.98891e-06
6.85339e-07 1.98891e-06 3.23175e-05
0.000544832 -0.000160517 1.27064e-06
-0.000160517 -2.72235e-05 -6.29464e-07
1.27064e-06 -6.29464e-07 -0.000220456
0.000705863 -4.72725e-05 -1.17275e-06
-4.72725e-05 9.64224e-05 3.64643e-06
-1.17275e-06 3.64643e-06 -2.72171e-06
0.000195551 -2.06038e-05 1.32547e-06
-2.06038e-05 -0.000192986 -2.67444e-06
1.32547e-06 -2.67444e-06 -0.000350999
0.00179907 -4.18309e-05 1.82413e-08
-4.18309e-05 0.000101189 1.58259e-07
1.82413e-08 1.58259e-07 9.84299e-06
0.00179679 -0.000125691 8.29931e-07
-0.000125691 0.000106699 -3.64476e-07
8.29931e-07 -3.64476e-07 -4.13255e-06
0.00175353 -8.35962e-05 2.39137e-06
-8.35962e-05 3.01088e-05 -5.78641e-07
2.39137e-06 -5.78641e-07 -3.80496e-05
0.00180799 -0.000202079 -1.94569e-06
-0.000202079 6.29163e-05 6.59438e-07
-1.94569e-06 6.59438e-07 -2.81174e-05
0.00100309 -0.000224608 -1.36473e-06
-0.000224608 0.000192678 4.86211e-07
-1.36473e-06 4.86211e-07 -1.34837e-05
0.00109993 -0.000305998 2.11193e-06
-0.000305998 0.000116062 -1.69975e-06
2.11193e-06 -1.69975e-06 -0.000135123
0.0016322 -0.000439519 -6.81167e-08
-0.000439519 0.000259046 8.82419e-07
-6.81167e-08 8.82419e-07 -2.70704e-05
0.00171698 -0.000283932 -1.54581e-06
-0.000283932 8.90682e-05 7.86575e-07
-1.54581e-06 7.86575e-07 -4.7574e-05
0.00187583 -0.00025825 1.84733e-06
-0.00025825 0.000126931 -9.33313e-07
1.84733e-06 -9.33313e-07 3.2613e-05
0.0017702 -0.000414722 -4.85584e-07
-0.000414722 0.000204759 6.12601e-07
-4.85584e-07 6.12601e-07 -2.5534e-05
0.00173274 -0.000336957 -6.97521e-07
-0.000336957 9.99656e-05 1.05095e-06
-6.97521e-07 1.05095e-06 -3.81601e-05
0.00193493 -0.000353475 3.77789e-06
-0.000353475 0.000244362 -5.66438e-06
3.77789e-06 -5.66438e-06 8.86411e-05
0.00106666 -0.000245881 5.47013e-07
-0.000245881 0.000241188 1.60525e-06
5.47013e-07 1.60525e-06 3.30845e-05
0.00131958 -0.000263566 4.27078e-06
-0.000263566 0.000418219 1.59328e-06
4.27078e-06 1.59328e-06 0.000216218
0.000785352 -0.00013007 -1.25605e-07
-0.00013007 0.000181927 -3.02857e-07
-1.25605e-07 -3.02857e-07 -2.4267e-05
0.000453816 -1.36393e-05 -1.5283e-06
-1.36393e-05 -4.95201e-05 5.32391e-07
-1.5283e-06 5.32391e-07 -0.000135375
0.00030477 -1.41424e-05 -3.05683e-07
-1.41424e-05 -0.000112511 -4.46231e-07
-3.05683e-07 -4.46231e-07 -0.000256027
0.00187926 -5.32306e-05 2.80302e-06
-5.32306e-05 8.67695e-05 -7.6076e-07
2.80302e-06 -7.6076e-07 3.50507e-05
0.00188169 -0.000123467 3.83087e-06
-0.000123467 8.6044e-05 -1.71193e-07
3.83087e-06 -1.71193e-07 1.73026e-05
0.00188143 -0.000246112 2.006e-06
-0.000246112 7.26921e-05 -1.83215e-06
2.006e-06 -1.83215e-06 -1.85161e-06
0.00171387 -0.000284972 1.05599e-07
-0.000284972 5.10657e-05 -5.10122e-07
1.05599e-07 -5.10122e-07 -5.57217e-05
0.00136925 -0.000295338 -1.91082e-06
-0.000295338 0.000365449 -4.88989e-06
-1.91082e-06 -4.88989e-06 0.000129988
0.00221777 -0.000404769 -2.45203e-06
-0.000404769 0.0003187 -2.97076e-07
-2.45203e-06 -2.97076e-07 0.000180116
0.00143031 -0.000394539 2.72691e-06
-0.000394539 0.00028371 -4.96727e-06
2.72691e-06 -4.96727e-06 -8.47686e-06
0.00178963 -0.000493129 -6.48741e-07
-0.000493129 0.0003137 1.92134e-06
-6.48741e-07 1.92134e-06 1.20931e-05
0.00169161 -0.000400407 1.69225e-06
-0.000400407 0.00013555 3.70615e-06
1.69225e-06 3.70615e-06 -8.57133e-05
0.000208886 8.84421e-06 -1.20035e-07
8.84421e-06 -0.000195406 -3.58632e-06
-1.20035e-07 -3.58632e-06 -0.000267221
0.00070178 -5.0601e-05 3.28662e-07
-5.0601e-05 0.000138389 -7.62262e-07
3.28662e-07 -7.62262e-07 4.08057e-06
0.00101182 -8.18465e-05 -1.51263e-06
-8.18465e-05 0.000313605 1.08066e-06
-1.51263e-06 1.08066e-06 0.000139496
0.00131031 -0.000281504 -8.51988e-06
-0.000281504 0.000364463 -1.90411e-08
-8.51988e-06 -1.90411e-08 0.000150678
0.000430909 -0.000133346 2.77704e-06
-0.000133346 -4.48827e-05 5.7763e-06
2.77704e-06 5.7763e-06 -0.00026176
0.000651128 -0.000223556 -2.50811e-06
-0.000223556 -1.81529e-05 4.03778e-07
-2.50811e-06 4.03778e-07 -0.000211955
0.000532824 -4.92098e-05 -1.13098e-06
-4.92098e-05 -2.81024e-05 -4.77936e-06
-1.13098e-06 -4.77936e-06 -5.13715e-05
0.000575257 -1.83358e-05 -1.76008e-06
-1.83358e-05 1.26706e-05 -3.02114e-06
-1.76008e-06 -3.02114e-06 -5.70006e-05
0.00176633 0.000284471 -1.73311e-06
0.000284471 0.000153728 -4.02353e-07
-1.73311e-06 -4.02353e-07 -1.70341e-05
0.000145046 -4.56535e-05 1.1954e-06
-4.56535e-05 -0.00020479 -2.7011e-06
1.1954e-06 -2.7011e-06 -0.000340463
0.000782112 0.000178899 -9.62155e-07
0.000178899 0.000126333 1.04697e-07
-9.62155e-07 1.04697e-07 -6.0463e-05
0.000128303 7.25877e-05 1.78884e-06
7.25877e-05 -0.000256397 1.70787e-06
1.78884e-06 1.70787e-06 -0.000426761
0.00163626 0.000349336 3.58341e-07
0.000349336 0.000195342 3.02178e-07
3.58341e-07 3.02178e-07 -2.02258e-05
0.0016926 0.000349533 3.9107e-07
0.000349533 0.00013393 1.30694e-07
3.9107e-07 1.30694e-07 -5.32014e-05
0.00118503 0.000283208 1.44945e-06
0.000283208 0.000250094 -1.59297e-06
1.44945e-06 -1.59297e-06 -3.96023e-06
0.00201419 0.00038093 -1.55949e-06
0.00038093 0.00056367 -1.10345e-06
-1.55949e-06 -1.10345e-06 0.000298064
0.0017234 0.000400509 -2.2753e-06
0.000400509 0.000228406 6.51796e-07
-2.2753e-06 6.51796e-07 -7.77282e-06
0.000608855 -2.02782e-08 -4.00949e-07
-2.02782e-08 2.09485e-05 3.30992e-07
-4.00949e-07 3.30992e-07 -3.794e-05
0.000708676 1.06623e-05 -8.00589e-07
1.06623e-05 0.000120945 4.98476e-07
-8.00589e-07 4.98476e-07 1.05664e-05
0.00113218 0.000254762 -8.57736e-07
0.000254762 0.000285965 9.40672e-08
-8.57736e-07 9.40672e-08 7.69773e-05
0.000828037 5.15682e-05 3.34271e-07
5.15682e-05 0.000206552 5.61075e-08
3.34271e-07 5.61075e-08 3.75389e-05
0.000764833 0.00016461 2.12678e-06
0.00016461 0.000102227 1.31988e-06
2.12678e-06 1.31988e-06 -7.133e-05
0.00178209 0.000295844 -2.03726e-06
0.000295844 0.000137119 -1.57166e-06
-2.03726e-06 -1.57166e-06 -1.69069e-05
0.00179668 0.000402327 1.64472e-06
0.000402327 0.000235743 3.94863e-07
1.64472e-06 3.94863e-07 1.77667e-05
0.00169556 0.000379537 4.1888e-07
0.000379537 0.000106892 -1.50192e-07
4.1888e-07 -1.50192e-07 -7.7045e-05
0.000843866 0.00028054 1.02459e-06
0.00028054 3.24839e-05 3.39384e-06
1.02459e-06 3.39384e-06 -0.000228709
0.00163243 0.000395624 -2.40282e-06
0.000395624 0.000272503 -1.30989e-06
-2.40282e-06 -1.30989e-06 1.4552e-05
0.000774443 3.92503e-05 6.48833e-07
3.92503e-05 0.000149172 2.25791e-06
6.48833e-07 2.25791e-06 5.33729e-05
0.000339694 -8.54563e-06 -1.48375e-06
-8.54563e-06 -8.40456e-05 2.04334e-06
-1.48375e-06 2.04334e-06 -0.000217353
0.00115111 0.000273599 -3.87497e-06
0.000273599 0.000251403 -2.28689e-06
-3.87497e-06 -2.28689e-06 4.25293e-05
0.000752534 0.00013814 -5.52722e-06
0.00013814 0.000176374 -5.03861e-06
-5.52722e-06 -5.03861e-06 -1.45216e-05
0.000718073 0.000221351 -1.28755e-06
0.000221351 3.52728e-05 -3.49081e-06
-1.28755e-06 -3.49081e-06 -0.000138945
0.00169013 0.000316802 -4.77948e-07
0.000316802 1.86882e-05 -2.07562e-06
-4.77948e-07 -2.07562e-06 -0.000112787
0.0019431 0.0004407 3.54202e-06
0.0004407 0.000306799 -1.80631e-06
3.54202e-06 -1.80631e-06 7.53282e-05
0.00158462 0.000393904 2.21353e-06
0.000393904 3.26132e-05 7.99567e-08
2.21353e-06 7.99567e-08 -0.000155383
0.00104417 0.000307966 1.31612e-06
0.000307966 0.000106175 8.00791e-06
1.31612e-06 8.00791e-06 -0.000169604
0.00141453 0.000404992 -9.64734e-07
0.000404992 0.000158853 -7.92455e-07
-9.64734e-07 -7.92455e-07 -0.000103992
0.000594613 -1.08208e-05 -1.82434e-06
-1.08208e-05 8.82357e-06 -2.61157e-06
-1.82434e-06 -2.61157e-06 -4.52805e-05
0.00059997 3.32291e-05 1.08138e-06
3.32291e-05 3.30066e-05 3.67097e-07
1.08138e-06 3.67097e-07 -5.19949e-05
0.000505838 1.46584e-05 8.90553e-09
1.46584e-05 -2.48313e-05 1.16799e-06
8.90553e-09 1.16799e-06 -0.000113691
0.000410768 -2.57876e-05 -7.88794e-07
-2.57876e-05 -7.77746e-05 -1.65086e-06
-7.88794e-07 -1.65086e-06 -0.000160814
0.00064861 4.10918e-05 -2.89978e-07
4.10918e-05 7.27996e-05 8.27356e-09
-2.89978e-07 8.27356e-09 -1.47849e-05
0.000681475 5.59796e-05 -4.4474e-07
5.59796e-05 8.45445e-05 -3.27537e-07
-4.4474e-07 -3.27537e-07 -1.00992e-05
0.000802605 8.85872e-05 -1.36055e-06
8.85872e-05 0.000166914 -2.1908e-06
-1.36055e-06 -2.1908e-06 6.37539e-05
0.000466684 -6.73649e-06 9.33677e-07
-6.73649e-06 -2.65958e-05 1.97256e-07
9.33677e-07 1.97256e-07 -0.000132986
0.000683512 6.67041e-05 1.04115e-06
6.67041e-05 9.08404e-05 1.81652e-06
1.04115e-06 1.81652e-06 6.51686e-06
0.000616414 4.14732e-05 2.63686e-06
4.14732e-05 3.7633e-05 2.58299e-06
2.63686e-06 2.58299e-06 -1.77891e-05
0.000599892 4.36653e-06 -1.40994e-06
4.36653e-06 2.25258e-05 -5.3155e-09
-1.40994e-06 -5.3155e-09 -3.0813e-05
0.00125041 -2.51083e-05 1.06163e-06
-2.51083e-05 0.000389285 2.56799e-06
1.06163e-06 2.56799e-06 0.000377341
0.000555905 -4.93303e-05 5.12889e-08
-4.93303e-05 -3.81426e-06 -2.54565e-06
5.12889e-08 -2.54565e-06 -5.90377e-05
0.00129766 -3.44107e-05 -4.83323e-06
-3.44107e-05 0.000417869 -1.47749e-06
-4.83323e-06 -1.47749e-06 0.000405353
0.000841172 -3.27774e-05 2.0278e-05
-3.27774e-05 0.00014917 8.11408e-06
2.0278e-05 8.11408e-06 0.000154872
0.00134084 -4.52408e-05 -8.72719e-06
-4.52408e-05 0.00044659 -5.63253e-06
-8.72719e-06 -5.63253e-06 0.000432588
0.000799029 -4.20651e-05 7.33441e-06
-4.20651e-05 0.000128074 3.03584e-06
7.33441e-06 3.03584e-06 0.000131543
0.00228908 -9.44273e-05 -4.30939e-06
-9.44273e-05 0.00103803 -2.04314e-06
-4.30939e-06 -2.04314e-06 0.00104377
0.000475953 4.72615e-05 -1.09617e-06
4.72615e-05 -5.45628e-05 -3.95071e-06
-1.09617e-06 -3.95071e-06 -7.69649e-05
0.000494036 3.9874e-05 -1.5833e-06
3.9874e-05 -3.46729e-05 -3.11195e-08
-1.5833e-06 -3.11195e-08 -6.50421e-05
0.00251125 0.000107895 2.41276e-05
0.000107895 0.00118538 -3.71459e-06
2.41276e-05 -3.71459e-06 0.00118673
0.000579513 -3.47062e-06 -5.06584e-06
-3.47062e-06 1.44105e-05 7.12243e-06
-5.06584e-06 7.12243e-06 -2.13335e-05
0.00294182 0.000123353 -1.86648e-05
0.000123353 0.00145001 -8.10156e-07
-1.86648e-05 -8.10156e-07 0.00144732
0.00344624 9.76956e-05 -0.000104786
9.76956e-05 0.00175315 5.96557e-06
-0.000104786 5.96557e-06 0.00175605
0.00178037 0.000237955 -1.93768e-06
0.000237955 0.000126365 7.51253e-07
-1.93768e-06 7.51253e-07 -2.1302e-05
0.00182389 0.000140902 1.11403e-06
0.000140902 0.000105817 1.50119e-06
1.11403e-06 1.50119e-06 -2.85793e-06
0.00184129 0.000202221 1.77379e-07
0.000202221 7.41043e-05 2.15734e-06
1.77379e-07 2.15734e-06 -1.80538e-05
0.00182495 8.95582e-05 1.00478e-07
8.95582e-05 4.14682e-05 5.98169e-07
1.00478e-07 5.98169e-07 -1.63732e-05
0.00180885 3.23683e-05 -8.86881e-07
3.23683e-05 9.50332e-05 6.99603e-08
-8.86881e-07 6.99603e-08 1.03854e-05
0.00148049 1.09553e-05 -1.25331e-06
1.09553e-05 5.69698e-05 6.63316e-08
-1.25331e-06 6.63316e-08 -6.4394e-05
0.00177937 2.14704e-06 -2.0328e-06
2.14704e-06 8.58495e-05 -8.20164e-09
-2.0328e-06 -8.20164e-09 -1.04533e-06
0.00182031 4.09917e-05 2.36451e-06
4.09917e-05 5.49375e-05 1.20392e-07
2.36451e-06 1.20392e-07 -3.5214e-06
0.00188846 0.000149858 -1.15707e-06
0.000149858 8.40615e-05 -4.24421e-07
-1.15707e-06 -4.24421e-07 8.9819e-06
0.00188298 9.85555e-05 1.31053e-06
9.85555e-05 5.11072e-05 3.41348e-07
1.31053e-06 3.41348e-07 6.63173e-06
0.00179967 0.000234794 -8.63875e-07
0.000234794 0.000106601 -2.88807e-07
-8.63875e-07 -2.88807e-07 -1.3591e-05
0.00186906 0.000215722 3.39113e-06
0.000215722 5.55422e-05 1.42657e-06
3.39113e-06 1.42657e-06 -2.18283e-05
0.00180908 -6.92454e-06 3.09002e-06
-6.92454e-06 5.72382e-05 2.25623e-07
3.09002e-06 2.25623e-07 2.42606e-06
0.00185047 4.46914e-05 5.76872e-06
4.46914e-05 2.04509e-05 7.4165e-08
5.76872e-06 7.4165e-08 -9.24722e-06
0.00192163 0.000152685 4.6286e-06
0.000152685 5.59644e-05 1.25617e-06
4.6286e-06 1.25617e-06 6.09578e-06
0.00194236 0.000273356 4.25754e-07
0.000273356 0.000111488 -9.43143e-09
4.25754e-07 -9.43143e-09 1.74618e-05
0.0018056 -4.19555e-05 1.51269e-06
-4.19555e-05 0.00010638 9.29842e-08
1.51269e-06 9.29842e-08 1.49557e-05
0.00174575 -0.000126492 2.38807e-06
-0.000126492 7.96574e-05 -1.19247e-06
2.38807e-06 -1.19247e-06 -3.35855e-05
0.00179769 -8.21253e-05 2.73476e-06
-8.21253e-05 5.63499e-05 -1.68705e-06
2.73476e-06 -1.68705e-06 -7.32881e-06
0.00180425 -0.000199158 -2.18371e-06
-0.000199158 6.47876e-05 5.42957e-07
-2.18371e-06 5.42957e-07 -2.80131e-05
0.00119884 -0.000241436 -2.15602e-06
-0.000241436 0.000313801 4.83996e-06
-2.15602e-06 4.83996e-06 0.000103404
0.00091148 -0.000281702 -1.11887e-06
-0.000281702 4.59865e-06 1.93226e-06
-1.11887e-06 1.93226e-06 -0.000239046
0.00161935 -0.000444768 1.66906e-06
-0.000444768 0.000251151 -8.34032e-07
1.66906e-06 -8.34032e-07 -3.97058e-05
0.00168508 -0.000280907 -4.73512e-07
-0.000280907 7.71364e-05 -1.77529e-07
-4.73512e-07 -1.77529e-07 -6.31598e-05
0.00173993 -0.000254476 1.47194e-06
-0.000254476 4.50807e-05 -4.38596e-07
1.47194e-06 -4.38596e-07 -4.53836e-05
0.00180012 -0.000341485 2.93863e-06
-0.000341485 0.000133001 1.00054e-07
2.93863e-06 1.00054e-07 -5.82543e-06
0.00175812 -0.000415965 -2.54439e-06
-0.000415965 0.000203575 -2.42307e-06
-2.54439e-06 -2.42307e-06 -2.80329e-05
0.00177994 -0.000342377 2.17025e-06
-0.000342377 0.000141941 -1.11332e-05
2.17025e-06 -1.11332e-05 -7.85374e-06
0.00120232 -0.000259619 3.73765e-06
-0.000259619 0.000317246 2.2268e-06
3.73765e-06 2.2268e-06 0.000107062
0.000990873 -0.00022948 6.07645e-06
-0.00022948 0.000205703 -2.22181e-06
6.07645e-06 -2.22181e-06 1.75356e-05
0.000648542 -0.000105081 2.49783e-06
-0.000105081 0.000100237 -4.94339e-06
2.49783e-06 -4.94339e-06 -0.000109214
0.000364296 5.28868e-06 -7.3063e-07
5.28868e-06 -0.000102686 3.27537e-06
-7.3063e-07 3.27537e-06 -0.000190744
0.000276838 1.56847e-05 1.89663e-06
1.56847e-05 -0.00013195 -3.03657e-08
1.89663e-06 -3.03657e-08 -0.000271661
0.00184614 -5.86459e-05 -3.11307e-07
-5.86459e-05 6.75975e-05 -1.51157e-07
-3.11307e-07 -1.51157e-07 1.22607e-05
0.00184683 -0.0001246 1.43438e-06
-0.0001246 6.35687e-05 -6.70548e-07
1.43438e-06 -6.70548e-07 -7.11722e-06
0.00186065 -0.00023907 -1.85102e-06
-0.00023907 7.07034e-05 3.04411e-07
-1.85102e-06 3.04411e-07 -6.33149e-06
0.00118379 -0.000276124 -1.77136e-06
-0.000276124 0.000255017 -4.51491e-07
-1.77136e-06 -4.51491e-07 2.26486e-05
0.00103791 -0.000347298 9.38005e-07
-0.000347298 4.57668e-05 -1.72511e-06
9.38005e-07 -1.72511e-06 -0.000233797
0.00165026 -0.00048467 -3.72044e-07
-0.00048467 0.000235444 -3.63469e-08
-3.72044e-07 -3.63469e-08 -6.8276e-05
0.00171971 -0.000285188 5.88428e-07
-0.000285188 4.93474e-05 -2.66712e-07
5.88428e-07 -2.66712e-07 -5.79989e-05
0.00180986 -0.000406554 9.22359e-07
-0.000406554 0.00020521 -2.67043e-06
9.22359e-07 -2.67043e-06 -9.64355e-06
0.00192359 -0.000382589 -4.53939e-07
-0.000382589 0.000165113 -1.07423e-06
-4.53939e-07 -1.07423e-06 2.8127e-05
0.000268237 3.83196e-05 -5.92978e-07
3.83196e-05 -0.000166135 -8.9636e-07
-5.92978e-07 -8.9636e-07 -0.000233346
0.00123592 -0.000272905 -4.10517e-07
-0.000272905 0.000304631 8.64462e-07
-4.10517e-07 8.64462e-07 9.43981e-05
0.000564941 -0.000212057 8.29575e-07
-0.000212057 -6.3151e-05 1.15954e-06
8.29575e-07 1.15954e-06 -0.000244082
0.000996288 -0.000184105 -6.16277e-07
-0.000184105 0.000296486 5.59639e-07
-6.16277e-07 5.59639e-07 6.88595e-05
0.00115397 -8.69775e-05 5.96642e-07
-8.69775e-05 0.00039858 -1.71444e-06
5.96642e-07 -1.71444e-06 0.000225606
0.000579535 -4.99542e-06 -6.02124e-07
-4.99542e-06 5.71972e-05 5.96853e-07
-6.02124e-07 5.96853e-07 -7.33069e-05
0.00183734 -6.82459e-05 4.22979e-06
-6.82459e-05 2.0105e-05 -5.88175e-07
4.22979e-06 -5.88175e-07 -1.59448e-05
0.0019951 -0.000166169 2.64018e-06
-0.000166169 7.04009e-05 -1.81326e-07
2.64018e-06 -1.81326e-07 3.47447e-05
0.0018057 -0.000279783 2.33461e-06
-0.000279783 1.38434e-05 -1.9584e-06
2.33461e-06 -1.9584e-06 -5.03506e-05
0.00208291 -0.000356304 5.66593e-07
-0.000356304 0.000171556 -2.79964e-06
5.66593e-07 -2.79964e-06 7.04304e-05
0.00167024 -0.000349599 -4.71044e-06
-0.000349599 0.000498083 -4.8608e-06
-4.71044e-06 -4.8608e-06 0.000245987
0.00188798 -0.000429912 1.7609e-06
-0.000429912 0.000177851 3.47833e-06
1.7609e-06 3.47833e-06 -1.40517e-06
0.00147349 -0.000456221 -3.79977e-06
-0.000456221 0.000266341 1.44131e-06
-3.79977e-06 1.44131e-06 -7.20388e-05
0.00176042 -0.000511457 -4.66339e-06
-0.000511457 0.000299594 2.30484e-06
-4.66339e-06 2.30484e-06 -1.78848e-05
0.000278827 5.55658e-05 -2.26811e-06
5.55658e-05 -0.000164222 -2.13084e-06
-2.26811e-06 -2.13084e-06 -0.000219974
0.000694729 2.15507e-06 -6.37757e-07
2.15507e-06 0.000121134 -4.4165e-07
-6.37757e-07 -4.4165e-07 1.18133e-05
0.00096983 -0.000112596 -2.35263e-06
-0.000112596 0.000293492 2.41183e-06
-2.35263e-06 2.41183e-06 0.000140044
0.000954675 -2.96972e-05 -2.38633e-06
-2.96972e-05 0.000269285 4.91416e-06
-2.38633e-06 4.91416e-06 6.08792e-05
0.000687084 -0.000251622 -5.03527e-06
-0.000251622 -4.34489e-05 -5.06266e-06
-5.03527e-06 -5.06266e-06 -0.000262848
0.00100626 -0.000250417 -8.42491e-06
-0.000250417 0.000238094 2.39778e-06
-8.42491e-06 2.39778e-06 3.90793e-06
0.000541872 -7.41584e-06 -2.3839e-06
-7.41584e-06 -1.8587e-05 -2.50974e-06
-2.3839e-06 -2.50974e-06 -7.68592e-05
0.000450842 -2.77834e-05 7.47257e-07
-2.77834e-05 -4.20057e-05 -2.05882e-06
7.47257e-07 -2.05882e-06 -0.000142512
0.00175777 0.000297549 -2.62521e-06
0.000297549 0.000123362 -7.28994e-07
-2.62521e-06 -7.28994e-07 -3.18755e-05
0.000307369 1.83317e-06 5.41745e-07
1.83317e-06 -0.000110811 -1.47226e-07
5.41745e-07 -1.47226e-07 -0.000267941
0.00112715 0.000254349 1.98735e-06
0.000254349 0.000285492 -1.73056e-07
1.98735e-06 -1.73056e-07 7.57287e-05
1.39061e-06 7.75383e-05 3.52303e-06
7.75383e-05 -0.00036537 3.71212e-06
3.52303e-06 3.71212e-06 -0.000515881
0.00176013 0.000399408 -6.34356e-08
0.000399408 0.000210536 1.17947e-07
-6.34356e-08 1.17947e-07 -7.35649e-06
0.0018252 0.00038355 -2.47865e-06
0.00038355 0.000181413 9.36862e-07
-2.47865e-06 9.36862e-07 -1.53939e-06
0.000916702 0.000294593 -1.13946e-06
0.000294593 7.00987e-05 4.85073e-07
-1.13946e-06 4.85073e-07 -0.000193811
0.0019664 0.000424502 -2.67993e-06
0.000424502 0.000481451 6.99519e-07
-2.67993e-06 6.99519e-07 0.000216924
0.000687951 1.57086e-05 -9.69956e-07
1.57086e-05 9.3727e-05 2.1288e-07
-9.69956e-07 2.1288e-07 2.47448e-06
0.000558334 2.7363e-05 8.74534e-07
2.7363e-05 4.63983e-05 7.70019e-07
8.74534e-07 7.70019e-07 -9.03937e-05
0.00138184 0.000295629 -6.62772e-07
0.000295629 0.000398744 -2.5643e-06
-6.62772e-07 -2.5643e-06 0.000182158
0.000561882 4.87566e-05 -1.17535e-06
4.87566e-05 3.13164e-05 -3.32936e-07
-1.17535e-06 -3.32936e-07 -0.000130931
0.000552335 0.000188199 -1.42855e-06
0.000188199 -7.57202e-05 -5.40193e-07
-1.42855e-06 -5.40193e-07 -0.000229953
0.00189956 0.000328308 -2.94011e-06
0.000328308 0.000136732 -1.25489e-06
-2.94011e-06 -1.25489e-06 7.25548e-06
0.00202895 0.000441632 2.03381e-06
0.000441632 0.000361501 -3.38345e-07
2.03381e-06 -3.38345e-07 0.000132933
0.00175584 0.000412757 1.68114e-06
0.000412757 0.000121117 2.58628e-06
1.68114e-06 2.58628e-06 -7.07286e-05
0.00123453 0.000330171 4.07759e-06
0.000330171 0.000230104 4.5207e-06
4.07759e-06 4.5207e-06 -5.30937e-05
0.00149314 0.000420673 -3.39902e-06
0.000420673 0.00019873 4.92926e-07
-3.39902e-06 4.92926e-07 -7.13622e-05
0.000215252 -1.63222e-05 -1.33254e-06
-1.63222e-05 -0.000177644 3.1155e-06
-1.33254e-06 3.1155e-06 -0.000277613
-4.56396e-05 8.01712e-05 7.2006e-07
8.01712e-05 -0.000276413 2.0606e-07
7.2006e-07 2.0606e-07 -0.000451423
0.000826265 0.000250353 1.98069e-06
0.000250353 4.20138e-05 2.30819e-06
1.98069e-06 2.30819e-06 -0.00018045
-0.000434861 9.18351e-05 4.22984e-06
9.18351e-05 -0.000614192 -1.41602e-06
4.22984e-06 -1.41602e-06 -0.000779597
0.00200107 0.000335646 -5.31723e-07
0.000335646 8.67442e-06 1.3147e-07
-5.31723e-07 1.3147e-07 -4.66885e-05
0.00241052 0.000419767 1.02572e-06
0.000419767 0.000430995 -1.04433e-06
1.02572e-06 -1.04433e-06 0.000278092
0.00184989 0.000475078 -3.37687e-06
0.000475078 0.000271653 -3.97084e-06
-3.37687e-06 -3.97084e-06 1.60157e-05
0.000649566 0.000319522 -6.77573e-07
0.000319522 -0.000178763 1.91973e-06
-6.77573e-07 1.91973e-06 -0.000472843
0.000654332 6.55202e-05 -1.09042e-06
6.55202e-05 7.02826e-05 -1.02001e-06
-1.09042e-06 -1.02001e-06 -1.77708e-05
0.000613692 4.37733e-05 -2.23145e-07
4.37733e-05 4.87837e-05 1.97584e-07
-2.23145e-07 1.97584e-07 -4.66543e-05
0.000932449 3.8785e-05 -2.67117e-06
3.8785e-05 0.000237679 -1.4776e-06
-2.67117e-06 -1.4776e-06 0.000149575
0.000637617 1.52581e-05 -1.54237e-06
1.52581e-05 5.40028e-05 -1.68659e-06
-1.54237e-06 -1.68659e-06 -2.45688e-05
0.000424102 3.92839e-06 -5.41868e-07
3.92839e-06 -6.63795e-05 -6.92978e-07
-5.41868e-07 -6.92978e-07 -0.000159351
0.000652411 3.1704e-05 -8.54315e-08
3.1704e-05 7.47863e-05 2.15016e-08
-8.54315e-08 2.15016e-08 -1.05655e-05
0.000661891 8.74439e-05 -8.31491e-07
8.74439e-05 9.4065e-05 -1.23397e-07
-8.31491e-07 -1.23397e-07 -1.25747e-05
0.000578923 2.74262e-05 8.8304e-07
2.74262e-05 4.35837e-05 3.35351e-07
8.8304e-07 3.35351e-07 -6.54039e-05
0.000768714 6.07148e-05 1.09377e-06
6.07148e-05 0.000135387 -1.4457e-06
1.09377e-06 -1.4457e-06 4.67169e-05
0.000670377 -1.15753e-05 2.46903e-06
-1.15753e-05 9.58283e-05 -2.125e-06
2.46903e-06 -2.125e-06 -1.56689e-05
0.000492999 5.25037e-05 9.31803e-07
5.25037e-05 -6.95729e-06 1.55959e-06
9.31803e-07 1.55959e-06 -0.000119378
0.000661579 7.8691e-05 1.56844e-06
7.8691e-05 8.43777e-05 2.27406e-06
1.56844e-06 2.27406e-06 -4.62496e-06
0.000556238 5.04934e-05 2.22851e-06
5.04934e-05 8.25631e-06 2.41368e-06
2.22851e-06 2.41368e-06 -5.07112e-05
0.000567215 -1.00441e-06 -1.2837e-06
-1.00441e-06 9.744e-06 -3.78254e-08
-1.2837e-06 -3.78254e-08 -4.64263e-05
0.00124804 -1.26506e-05 9.08083e-07
-1.26506e-05 0.00038926 2.44585e-06
9.08083e-07 2.44585e-06 0.000377593
0.000560994 -4.61929e-05 7.60184e-08
-4.61929e-05 2.42064e-06 -2.52126e-06
7.60184e-08 -2.52126e-06 -5.26831e-05
0.00130284 -2.19498e-05 -4.11906e-06
-2.19498e-05 0.000420949 -1.56241e-06
-4.11906e-06 -1.56241e-06 0.000409136
0.000835008 -2.43063e-05 1.72311e-05
-2.43063e-05 0.000143033 8.40513e-06
1.72311e-05 8.40513e-06 0.00014966
0.00134675 -3.21736e-05 -7.42884e-06
-3.21736e-05 0.000447516 -5.66216e-06
-7.42884e-06 -5.66216e-06 0.000435031
0.000794744 -3.34589e-05 6.00077e-06
-3.34589e-05 0.000120313 3.13935e-06
6.00077e-06 3.13935e-06 0.000125643
0.000737809 -4.0758e-05 -1.11125e-06
-4.0758e-05 9.06606e-05 -2.24486e-06
-1.11125e-06 -2.24486e-06 9.41704e-05
0.000509729 3.75603e-05 1.75126e-07
3.75603e-05 -4.69524e-05 -3.3037e-06
1.75126e-07 -3.3037e-06 -6.26502e-05
0.000505071 5.66184e-05 2.06076e-08
5.66184e-05 -3.40604e-05 1.56391e-07
2.06076e-08 1.56391e-07 -5.87274e-05
0.00226761 8.87953e-05 1.91953e-05
8.87953e-05 0.00103059 -3.78102e-06
1.91953e-05 -3.78102e-06 0.00103705
0.000535191 3.38374e-05 -2.95562e-06
3.38374e-05 -9.72096e-06 5.96771e-06
-2.95562e-06 5.96771e-06 -4.05063e-05
0.00257911 0.000110148 -6.57662e-06
0.000110148 0.00122624 -5.31491e-07
-6.57662e-06 -5.31491e-07 0.00122707
0.00304042 9.0205e-05 -8.30669e-05
9.0205e-05 0.00150512 4.68489e-06
-8.30669e-05 4.68489e-06 0.00151024
0.00179363 0.00023234 -7.38873e-07
0.00023234 0.000111869 1.99144e-06
-7.38873e-07 1.99144e-06 -7.98284e-06
0.00192975 0.000149597 -2.68063e-06
0.000149597 0.000110816 4.3147e-07
-2.68063e-06 4.3147e-07 3.55639e-05
0.00185745 0.000218145 8.31878e-07
0.000218145 4.94151e-05 2.81031e-07
8.31878e-07 2.81031e-07 -2.51972e-05
0.00186798 0.00010021 -4.97586e-06
0.00010021 3.92276e-05 -7.54991e-07
-4.97586e-06 -7.54991e-07 -2.90254e-06
0.00186215 4.03581e-05 -3.02359e-07
4.03581e-05 8.46952e-05 -2.79678e-07
-3.02359e-07 -2.79678e-07 2.45273e-05
0.001778 2.37598e-07 -5.53807e-07
2.37598e-07 8.4253e-05 1.03036e-07
-5.53807e-07 1.03036e-07 -5.06486e-06
0.00178924 -3.69693e-06 -4.20648e-07
-3.69693e-06 4.43764e-05 -7.48098e-08
-4.20648e-07 -7.48098e-08 -1.00472e-05
0.00188008 4.51638e-05 8.98584e-07
4.51638e-05 4.6708e-05 1.92161e-07
8.98584e-07 1.92161e-07 1.52343e-05
0.00192045 0.000157558 5.10579e-07
0.000157558 5.5702e-05 -6.63732e-08
5.10579e-07 -6.63732e-08 5.54152e-06
0.00196237 0.000269893 3.3511e-07
0.000269893 0.000109719 1.71622e-07
3.3511e-07 1.71622e-07 1.77366e-05
0.00184068 -8.59719e-06 3.89894e-06
-8.59719e-06 2.72305e-05 -1.78934e-07
3.89894e-06 -1.78934e-07 -1.06798e-06
0.00195485 9.11248e-05 3.00907e-06
9.11248e-05 1.5745e-05 -6.73598e-08
3.00907e-06 -6.73598e-08 6.96088e-06
0.00206175 0.000234983 3.26149e-06
0.000234983 7.71847e-05 1.17735e-06
3.26149e-06 1.17735e-06 2.49843e-05
0.00181472 -6.40137e-05 -1.49248e-06
-6.40137e-05 4.93598e-05 3.07138e-07
-1.49248e-06 3.07138e-07 -9.48576e-06
0.00179691 -0.000125569 -9.4008e-07
-0.000125569 3.23922e-05 -6.51209e-07
-9.4008e-07 -6.51209e-07 -4.0437e-05
0.00183907 -0.000231989 -2.9505e-06
-0.000231989 6.94652e-05 1.27844e-06
-2.9505e-06 1.27844e-06 -1.05044e-05
0.000958344 -0.000253387 -1.58233e-06
-0.000253387 0.000119755 4.13819e-06
-1.58233e-06 4.13819e-06 -0.000108882
0.000930784 -0.000328383 2.12675e-06
-0.000328383 -2.42792e-05 1.16438e-06
2.12675e-06 1.16438e-06 -0.000296226
0.00160908 -0.000487035 1.75107e-06
-0.000487035 0.000211649 -1.23105e-06
1.75107e-06 -1.23105e-06 -9.4713e-05
0.00174479 -0.000286066 -6.88047e-07
-0.000286066 5.92149e-05 5.30411e-07
-6.88047e-07 5.30411e-07 -4.8672e-05
0.00158253 -0.000359646 1.08757e-07
-0.000359646 -1.80291e-05 -1.92329e-06
1.08757e-07 -1.92329e-06 -0.000153637
0.00189431 -0.000411944 -2.46734e-06
-0.000411944 0.000253513 -7.78298e-06
-2.46734e-06 -7.78298e-06 4.48307e-05
0.00119066 -0.000268347 3.20058e-06
-0.000268347 0.000266122 5.20922e-06
3.20058e-06 5.20922e-06 5.76067e-05
0.000701847 -0.000220605 -7.76346e-06
-0.000220605 3.14266e-05 2.03211e-06
-7.76346e-06 2.03211e-06 -0.000141736
0.00173043 -0.000242107 1.56032e-06
-0.000242107 0.000746757 -1.62872e-06
1.56032e-06 -1.62872e-06 0.0005002
0.000345067 3.03487e-05 8.79199e-07
3.03487e-05 -0.000121685 6.21662e-07
8.79199e-07 6.21662e-07 -0.000186934
0.000882956 -9.18886e-05 2.24995e-06
-9.18886e-05 0.000230954 -9.25015e-07
2.24995e-06 -9.25015e-07 7.05622e-05
0.000422905 3.21301e-05 3.19768e-06
3.21301e-05 -4.40053e-05 1.6318e-06
3.19768e-06 1.6318e-06 -0.000170309
0.00185103 -6.82705e-05 -4.21497e-07
-6.82705e-05 3.04658e-05 1.77346e-07
-4.21497e-07 1.77346e-07 -9.22961e-06
0.00194478 -0.000172341 1.78421e-07
-0.000172341 3.80938e-05 -1.9273e-07
1.78421e-07 -1.9273e-07 1.0221e-06
0.00186904 -0.000280348 -3.17098e-07
-0.000280348 5.76089e-05 4.72476e-07
-3.17098e-07 4.72476e-07 -1.07687e-05
0.00132557 -0.000315972 -2.17581e-06
-0.000315972 0.000296127 6.97123e-07
-2.17581e-06 6.97123e-07 4.86217e-05
0.00118177 -0.000423624 3.24061e-07
-0.000423624 9.70055e-05 -1.22003e-06
3.24061e-07 -1.22003e-06 -0.000232196
0.00191992 -0.000518245 -3.94486e-06
-0.000518245 0.000391512 4.95358e-07
-3.94486e-06 4.95358e-07 8.17329e-05
0.00195702 -0.000355564 6.75636e-07
-0.000355564 0.000101768 -3.21685e-07
6.75636e-07 -3.21685e-07 -2.96838e-06
0.00170652 -0.000419661 1.24772e-06
-0.000419661 6.56714e-05 -3.0624e-06
1.24772e-06 -3.0624e-06 -0.000112565
0.000438928 4.8953e-05 -4.70117e-07
4.8953e-05 -7.13368e-05 -1.02086e-06
-4.70117e-07 -1.02086e-06 -0.000122905
0.000709652 -9.55052e-06 -6.41412e-07
-9.55052e-06 0.000127906 3.07857e-07
-6.41412e-07 3.07857e-07 1.95678e-05
0.000317853 -0.000214086 -4.30815e-06
-0.000214086 -0.000258872 6.43931e-06
-4.30815e-06 6.43931e-06 -0.000464724
0.00146475 -0.000274309 9.74955e-07
-0.000274309 0.000525545 -9.25342e-07
9.74955e-07 -9.25342e-07 0.000287902
0.00101587 -7.98734e-05 -1.47891e-07
-7.98734e-05 0.000317432 -1.57666e-06
-1.47891e-07 -1.57666e-06 0.000108215
0.000863941 -8.73448e-05 -7.34879e-07
-8.73448e-05 0.000231778 1.20009e-06
-7.34879e-07 1.20009e-06 7.83513e-05
0.00191555 -8.44245e-05 1.53382e-06
-8.44245e-05 1.01828e-05 2.3851e-07
1.53382e-06 2.3851e-07 -1.79514e-06
0.00201799 -0.000246724 5.01657e-07
-0.000246724 2.56546e-05 2.57845e-07
5.01657e-07 2.57845e-07 1.78573e-05
0.00197399 -0.000304293 1.49908e-06
-0.000304293 8.10373e-05 -2.18066e-06
1.49908e-06 -2.18066e-06 2.43635e-05
0.00195088 -0.000467816 4.39878e-06
-0.000467816 7.30481e-05 -2.63066e-06
4.39878e-06 -2.63066e-06 -5.60133e-05
0.000776104 -0.000317257 -4.68087e-06
-0.000317257 -6.12403e-05 -8.04912e-06
-4.68087e-06 -8.04912e-06 -0.000355879
0.00189212 -0.000523471 -2.47474e-06
-0.000523471 0.000332096 1.24753e-05
-2.47474e-06 1.24753e-05 4.03468e-05
0.00196831 -0.000540314 -4.35371e-06
-0.000540314 0.00052291 -5.79897e-07
-4.35371e-06 -5.79897e-07 0.000151968
0.000604644 4.97036e-05 1.25264e-07
4.97036e-05 1.89196e-05 -1.15295e-06
1.25264e-07 -1.15295e-06 -2.46196e-05
0.000674498 -0.00011182 3.05534e-06
-0.00011182 0.000100907 -1.57691e-06
3.05534e-06 -1.57691e-06 1.67347e-05
0.000445325 5.54785e-05 -2.73812e-06
5.54785e-05 -3.99377e-05 -8.16987e-07
-2.73812e-06 -8.16987e-07 -0.000128639
0.000636516 -4.82041e-05 -1.6587e-06
-4.82041e-05 0.000102503 3.25354e-06
-1.6587e-06 3.25354e-06 -3.62049e-05
0.000538032 -3.82839e-05 8.13319e-07
-3.82839e-05 1.00501e-05 1.55398e-07
8.13319e-07 1.55398e-07 -0.000148958
-0.000138009 -7.33416e-05 -1.14933e-06
-7.33416e-05 -0.000368437 1.99191e-06
-1.14933e-06 1.99191e-06 -0.000574072
1.78513e-05 -0.000213419 -5.37626e-06
-0.000213419 -0.00043068 -7.81758e-06
-5.37626e-06 -7.81758e-06 -0.000634817
0.00289989 -0.000411133 -1.38598e-05
-0.000411133 0.00145041 3.14773e-06
-1.38598e-05 3.14773e-06 0.00109947
0.000637063 -3.71052e-06 -1.15935e-06
-3.71052e-06 5.74061e-05 -1.07651e-06
-1.15935e-06 -1.07651e-06 -2.77366e-05
0.000772008 5.43933e-05 4.57117e-07
5.43933e-05 0.000176993 -1.33629e-06
4.57117e-07 -1.33629e-06 3.38924e-05
0.00209479 0.000338614 -1.62358e-06
0.000338614 0.000247731 -6.6026e-07
-1.62358e-06 -6.6026e-07 0.000120501
0.000782939 8.72978e-05 -1.51452e-06
8.72978e-05 0.00017645 3.66999e-06
-1.51452e-06 3.66999e-06 1.66805e-06
0.00170612 0.000328293 2.69417e-06
0.000328293 0.000601696 -6.58134e-07
2.69417e-06 -6.58134e-07 0.000373926
0.000389237 0.000155442 -7.77393e-07
0.000155442 -0.000181198 2.44402e-06
-7.77393e-07 2.44402e-06 -0.000317091
0.00208046 0.000438481 -3.01541e-06
0.000438481 0.000399355 -1.81914e-07
-3.01541e-06 -1.81914e-07 0.000174593
0.00189883 0.000429615 -1.42762e-06
0.000429615 0.000194846 5.85388e-06
-1.42762e-06 5.85388e-06 -3.77558e-07
0.00133886 0.000347074 -9.96424e-07
0.000347074 0.000301503 -4.47037e-07
-9.96424e-07 -4.47037e-07 1.11699e-05
0.00145349 0.000426594 -2.3891e-07
0.000426594 0.000167881 1.39506e-06
-2.3891e-07 1.39506e-06 -0.000107358
0.000307961 1.52078e-05 -1.36658e-07
1.52078e-05 -0.000115748 1.24338e-06
-1.36658e-07 1.24338e-06 -0.000222808
0.000364024 0.000114858 -6.19425e-07
0.000114858 -2.91356e-05 -2.28152e-06
-6.19425e-07 -2.28152e-06 -0.000210829
0.00134371 0.00030537 3.95466e-06
0.00030537 0.000352712 -1.84248e-06
3.95466e-06 -1.84248e-06 0.000118682
0.000708992 0.000182076 -2.49993e-06
0.000182076 6.26462e-05 -2.82068e-06
-2.49993e-06 -2.82068e-06 -0.000113627
0.00204984 0.000326481 9.4091e-07
0.000326481 3.53435e-05 -8.52713e-07
9.4091e-07 -8.52713e-07 -1.93586e-05
0.00215601 0.00041241 3.02466e-06
0.00041241 0.000291266 6.36157e-07
3.02466e-06 6.36157e-07 0.000134205
0.00183539 0.000466922 -7.63396e-07
0.000466922 0.000256759 3.47208e-07
-7.63396e-07 3.47208e-07 4.68342e-06
0.00121024 0.00037621 -1.43861e-07
0.00037621 0.00012318 7.22747e-07
-1.43861e-07 7.22747e-07 -0.000174427
0.000301517 3.87517e-05 -1.34833e-06
3.87517e-05 -0.000124401 3.00797e-06
-1.34833e-06 3.00797e-06 -0.000232711
0.0020213 0.000267784 1.10509e-06
0.000267784 -3.66908e-05 2.34942e-06
1.10509e-06 2.34942e-06 -3.61328e-05
0.00163433 0.0002936 2.24359e-06
0.0002936 0.000706832 4.24799e-06
2.24359e-06 4.24799e-06 0.000476165
0.00116951 0.000302373 6.33102e-06
0.000302373 0.000216223 3.34136e-06
6.33102e-06 3.34136e-06 -1.82868e-05
0.00248469 0.000409194 -1.72544e-05
0.000409194 0.000365146 -5.35024e-06
-1.72544e-05 -5.35024e-06 0.000256957
0.00101704 0.00043494 -6.48306e-06
0.00043494 -0.000304313 -8.14538e-06
-6.48306e-06 -8.14538e-06 -0.000538755
0.00207375 0.000487687 -7.488e-07
0.000487687 0.000546404 2.41061e-06
-7.488e-07 2.41061e-06 0.000228238
0.000689442 5.95374e-05 -1.44164e-06
5.95374e-05 9.36586e-05 -8.37896e-07
-1.44164e-06 -8.37896e-07 -1.26374e-06
0.000682742 5.39007e-05 -1.69557e-06
5.39007e-05 9.71322e-05 -5.97792e-07
-1.69557e-06 -5.97792e-07 5.27123e-06
0.000950518 4.34629e-05 -1.9787e-06
4.34629e-05 0.000261228 5.67688e-07
-1.9787e-06 5.67688e-07 0.000179364
0.0006022 -2.95514e-06 -1.23925e-09
-2.95514e-06 4.77748e-05 -2.38116e-06
-1.23925e-09 -2.38116e-06 -3.9373e-05
0.000660769 5.41535e-05 8.05055e-07
5.41535e-05 9.42587e-05 -5.37384e-08
8.05055e-07 -5.37384e-08 -1.60014e-05
0.000318509 2.9525e-05 -1.29855e-06
2.9525e-05 -9.77198e-05 1.80551e-06
-1.29855e-06 1.80551e-06 -0.000203533
0.000615389 6.09642e-06 -7.24793e-07
6.09642e-06 6.45046e-05 -5.35831e-10
-7.24793e-07 -5.35831e-10 -2.8982e-05
0.00043379 -1.73087e-05 -6.1685e-07
-1.73087e-05 -3.30214e-05 3.60625e-07
-6.1685e-07 3.60625e-07 -0.00014905
0.000479601 1.3481e-05 2.84787e-07
1.3481e-05 -2.94393e-05 4.26185e-07
2.84787e-07 4.26185e-07 -0.000113408
0.000755253 5.08601e-05 6.57547e-07
5.08601e-05 0.000158382 -4.58184e-07
6.57547e-07 -4.58184e-07 3.69074e-05
0.00118766 5.79312e-05 6.21446e-07
5.79312e-05 0.000371093 -1.02203e-06
6.21446e-07 -1.02203e-06 0.00029818
0.000676614 -1.07635e-05 3.17504e-06
-1.07635e-05 8.73139e-05 -2.79452e-06
3.17504e-06 -2.79452e-06 -6.86534e-06
0.000675032 5.312e-05 3.21613e-07
5.312e-05 0.000115281 7.44409e-07
3.21613e-07 7.44409e-07 -1.63423e-05
0.000639805 3.98841e-05 2.5807e-06
3.98841e-05 9.25016e-05 1.92673e-06
2.5807e-06 1.92673e-06 -3.59304e-05
0.000653135 2.31833e-05 1.77899e-06
2.31833e-05 8.0731e-05 2.32784e-06
1.77899e-06 2.32784e-06 -1.19102e-05
0.000562777 -3.38071e-05 -1.08537e-07
-3.38071e-05 1.11528e-05 2.27501e-06
-1.08537e-07 2.27501e-06 -4.74584e-05
0.000574797 -5.86e-06 -3.55056e-07
-5.86e-06 1.62079e-05 -2.28574e-08
-3.55056e-07 -2.28574e-08 -4.05487e-05
0.00128329 -1.46961e-06 1.03798e-06
-1.46961e-06 0.000413037 2.36133e-06
1.03798e-06 2.36133e-06 0.000400574
0.000581301 -2.45707e-05 6.20604e-07
-2.45707e-05 1.57416e-05 -2.65204e-06
6.20604e-07 -2.65204e-06 -3.86771e-05
0.00130974 -9.59358e-06 -3.17174e-06
-9.59358e-06 0.000426876 -1.60006e-06
-3.17174e-06 -1.60006e-06 0.000415046
0.000824073 -1.62472e-05 1.29305e-05
-1.62472e-05 0.000135846 8.45107e-06
1.29305e-05 8.45107e-06 0.000142947
0.00136066 -1.98577e-05 -5.39596e-06
-1.98577e-05 0.000455963 -5.79816e-06
-5.39596e-06 -5.79816e-06 0.000444012
0.000808008 -2.52147e-05 3.99357e-06
-2.52147e-05 0.000125214 3.24978e-06
3.99357e-06 3.24978e-06 0.000131582
0.000762096 -3.24758e-05 -7.41489e-07
-3.24758e-05 9.90913e-05 -2.23529e-06
-7.41489e-07 -2.23529e-06 0.000104578
0.000651687 1.02903e-05 1.29485e-06
1.02903e-05 4.27218e-05 -1.36222e-06
1.29485e-06 -1.36222e-06 2.70083e-06
0.00052547 2.86382e-05 3.9871e-07
2.86382e-05 -4.52463e-05 -3.39564e-06
3.9871e-07 -3.39564e-06 -5.70483e-05
0.000532357 3.87993e-05 2.13201e-07
3.87993e-05 -3.24756e-05 1.4242e-07
2.13201e-07 1.4242e-07 -4.86721e-05
0.00214105 7.1482e-05 1.76564e-05
7.1482e-05 0.000945376 -3.94762e-06
1.76564e-05 -3.94762e-06 0.000956247
0.000539346 6.05256e-05 3.60439e-06
6.05256e-05 -1.1966e-05 5.08806e-06
3.60439e-06 5.08806e-06 -3.82045e-05
0.00238294 9.30695e-05 -4.6011e-06
9.30695e-05 0.00110072 -3.75259e-07
-4.6011e-06 -3.75259e-07 0.00110614
0.00271553 0.000114774 -2.68838e-05
0.000114774 0.00130847 4.03932e-06
-2.68838e-05 4.03932e-06 0.00130817
0.0019847 0.000266814 -6.85159e-07
0.000266814 0.000109186 7.41963e-07
-6.85159e-07 7.41963e-07 1.90811e-05
0.00192349 0.000162424 -3.75857e-06
0.000162424 5.85331e-05 -6.48117e-07
-3.75857e-06 -6.48117e-07 7.98215e-06
0.00190767 4.75145e-05 -4.82236e-06
4.75145e-05 7.17332e-05 -2.36335e-07
-4.82236e-06 -2.36335e-07 3.866e-05
0.00176008 -5.13079e-07 -2.02415e-06
-5.13079e-07 2.59144e-05 -5.33302e-08
-2.02415e-06 -5.33302e-08 -2.8177e-05
0.00184103 -4.99782e-06 -8.35977e-07
-4.99782e-06 2.42114e-05 -4.03293e-08
-8.35977e-07 -4.03293e-08 -6.58345e-07
0.00193846 8.6106e-05 8.48646e-08
8.6106e-05 1.14486e-05 -1.04979e-08
8.48646e-08 -1.04979e-08 7.95518e-07
0.00200377 0.000237281 -6.59745e-07
0.000237281 4.20109e-05 -5.63288e-08
-6.59745e-07 -5.63288e-08 -8.53193e-06
0.00193391 -1.99126e-06 1.55168e-06
-1.99126e-06 3.82263e-06 -5.13928e-07
1.55168e-06 -5.13928e-07 4.21782e-06
0.00206586 0.000133263 3.02185e-06
0.000133263 1.02185e-05 -4.52134e-07
3.02185e-06 -4.52134e-07 6.08101e-06
0.00227982 8.64959e-05 -2.89442e-06
8.64959e-05 0.000183842 5.84337e-06
-2.89442e-06 5.84337e-06 0.000227183
0.00186621 -6.85308e-05 -4.78215e-06
-6.85308e-05 4.13674e-05 2.39435e-07
-4.78215e-06 2.39435e-07 -2.00295e-06
0.001909 -0.000179734 -3.67692e-06
-0.000179734 1.27714e-05 6.2634e-07
-3.67692e-06 6.2634e-07 -2.5288e-05
0.00191714 -0.000280165 -3.24844e-06
-0.000280165 9.14673e-05 1.89592e-06
-3.24844e-06 1.89592e-06 1.97286e-05
0.000774134 -0.00026069 1.33399e-06
-0.00026069 -2.69684e-05 6.01404e-06
1.33399e-06 6.01404e-06 -0.000265856
0.00143102 -0.000444104 1.51251e-06
-0.000444104 0.000242094 -5.10748e-07
1.51251e-06 -5.10748e-07 -8.76113e-05
0.00196995 -0.000511717 -1.96933e-06
-0.000511717 0.000425342 -1.54916e-06
-1.96933e-06 -1.54916e-06 0.000125281
0.00181868 -0.00035231 1.50356e-06
-0.00035231 2.54122e-05 1.4917e-06
1.50356e-06 1.4917e-06 -8.24298e-05
0.00159827 -0.000410123 -4.1429e-06
-0.000410123 1.75749e-06 -5.86649e-06
-4.1429e-06 -5.86649e-06 -0.000174898
0.000157758 -0.000195645 -7.79915e-07
-0.000195645 -0.000350241 1.27422e-05
-7.79915e-07 1.27422e-05 -0.000546116
0.00213497 -0.00032144 1.58765e-05
-0.00032144 0.000941514 -3.896e-06
1.58765e-05 -3.896e-06 0.000696022
0.000736257 -3.24158e-05 8.16822e-07
-3.24158e-05 0.000139563 -1.12708e-06
8.16822e-07 -1.12708e-06 -5.20824e-05
0.000525416 1.54979e-05 1.71762e-07
1.54979e-05 -2.12001e-05 3.88636e-07
1.71762e-07 3.88636e-07 -6.91876e-05
0.000794612 2.85587e-05 2.1275e-06
2.85587e-05 0.000174697 6.84852e-07
2.1275e-06 6.84852e-07 6.70904e-05
0.000863497 -5.7804e-05 7.9561e-07
-5.7804e-05 0.000233322 1.60929e-06
7.9561e-07 1.60929e-06 7.77186e-05
0.00193312 -8.72721e-05 2.82404e-07
-8.72721e-05 1.24974e-05 -4.52493e-08
2.82404e-07 -4.52493e-08 3.23273e-06
0.000576674 1.85542e-05 1.02055e-06
1.85542e-05 1.28001e-06 1.29555e-07
1.02055e-06 1.29555e-07 -4.12698e-05
0.000520483 -4.39812e-05 -1.76018e-06
-4.39812e-05 -1.08021e-05 -4.53105e-08
-1.76018e-06 -4.53105e-08 -8.24318e-05
0.00199586 -0.000236591 -1.39061e-07
-0.000236591 2.82745e-05 2.47875e-07
-1.39061e-07 2.47875e-07 1.78421e-05
0.00191845 -0.000301484 -1.36202e-06
-0.000301484 4.54698e-05 1.68816e-07
-1.36202e-06 1.68816e-07 -9.25139e-06
0.000913715 -0.000328891 -1.97072e-06
-0.000328891 2.63826e-05 1.49381e-06
-1.97072e-06 1.49381e-06 -0.000265025
0.0018531 -0.000530088 4.62388e-07
-0.000530088 0.000462267 6.31978e-07
4.62388e-07 6.31978e-07 8.83051e-05
0.00160061 -0.000500138 3.44977e-06
-0.000500138 0.000151258 -1.71213e-06
3.44977e-06 -1.71213e-06 -0.000132384
0.00207305 -0.000472262 2.36169e-06
-0.000472262 0.000153086 -9.11671e-07
2.36169e-06 -9.11671e-07 2.20351e-05
0.000705954 -7.31478e-06 7.72077e-07
-7.31478e-06 0.000122656 -1.17866e-06
7.72077e-07 -1.17866e-06 3.25608e-05
0.000719019 -3.06966e-05 2.53712e-07
-3.06966e-05 0.000152585 1.37713e-06
2.53712e-07 1.37713e-06 1.09289e-05
0.00104297 -0.000284067 -3.69448e-06
-0.000284067 0.000167649 -1.89906e-06
-3.69448e-06 -1.89906e-06 -5.15769e-05
0.00171558 -0.000300345 1.53201e-05
-0.000300345 0.000744528 -3.2402e-06
1.53201e-05 -3.2402e-06 0.000449121
0.000420325 -8.10542e-05 -2.84903e-06
-8.10542e-05 -4.48877e-05 -4.8683e-07
-2.84903e-06 -4.8683e-07 -0.000246298
0.000649667 -3.33798e-05 6.29845e-07
-3.33798e-05 9.09781e-05 -7.00888e-07
6.29845e-07 -7.00888e-07 -7.59687e-05
0.00195307 -0.000102165 1.39443e-06
-0.000102165 -5.33613e-05 -1.1334e-06
1.39443e-06 -1.1334e-06 -5.61949e-05
0.00192721 -0.000282495 -2.65411e-07
-0.000282495 -8.38987e-05 5.55332e-07
-2.65411e-07 5.55332e-07 -1.94035e-05
0.00204082 -0.000415795 -4.57978e-06
-0.000415795 3.87708e-05 -1.57943e-06
-4.57978e-06 -1.57943e-06 -3.11961e-05
0.00154912 -0.00053524 5.57814e-07
-0.00053524 -2.65117e-05 -8.91074e-07
5.57814e-07 -8.91074e-07 -0.000193505
0.000859089 -0.000306253 -9.18812e-06
-0.000306253 2.47549e-05 -8.52827e-06
-9.18812e-06 -8.52827e-06 -0.000270836
0.00243325 -0.000627698 -9.67788e-06
-0.000627698 0.000757427 9.32863e-06
-9.67788e-06 9.32863e-06 0.000358282
0.000366352 5.19051e-05 -1.16529e-06
5.19051e-05 -9.27209e-05 -2.05665e-06
-1.16529e-06 -2.05665e-06 -0.000170396
0.000645665 -5.73575e-05 3.47418e-06
-5.73575e-05 6.45402e-05 -6.7988e-07
3.47418e-06 -6.7988e-07 -7.62953e-06
0.000936802 -9.67833e-05 1.3929e-06
-9.67833e-05 0.000249589 2.33618e-06
1.3929e-06 2.33618e-06 0.000150943
0.000456598 1.9176e-05 -2.12249e-06
1.9176e-05 -1.345e-05 3.40932e-06
-2.12249e-06 3.40932e-06 -0.000140635
0.000896177 -7.40154e-05 -2.61742e-06
-7.40154e-05 0.000238864 3.79612e-06
-2.61742e-06 3.79612e-06 9.75012e-05
0.00112775 -5.30638e-05 1.74755e-06
-5.30638e-05 0.000326844 -9.55731e-09
1.74755e-06 -9.55731e-09 0.000146178
-0.000628544 -0.000110863 5.35516e-06
-0.000110863 -0.000472027 4.07663e-07
5.35516e-06 4.07663e-07 -0.000861586
-0.00019424 -0.000264859 -2.33622e-05
-0.000264859 -0.000541439 1.93865e-06
-2.33622e-05 1.93865e-06 -0.000759976
0.00038012 4.99049e-05 -2.17518e-07
4.99049e-05 -6.58173e-05 -9.65284e-07
-2.17518e-07 -9.65284e-07 -0.000180161
0.000974763 0.000161509 -5.84823e-06
0.000161509 0.000332687 -2.99918e-06
-5.84823e-06 -2.99918e-06 0.000145699
0.00209113 0.000317889 -4.22809e-06
0.000317889 6.08053e-05 -1.83678e-06
-4.22809e-06 -1.83678e-06 5.90889e-06
0.0019399 0.000406834 -5.32883e-07
0.000406834 0.000172665 1.6555e-06
-5.32883e-07 1.6555e-06 1.12398e-05
0.00182642 0.0002459 -7.85356e-06
0.0002459 0.000709306 -8.31815e-07
-7.85356e-06 -8.31815e-07 0.00053189
0.00182092 0.000354874 -4.60436e-06
0.000354874 0.000637982 -8.20209e-06
-4.60436e-06 -8.20209e-06 0.000395298
0.00185577 0.000462256 1.92729e-06
0.000462256 0.000259964 2.11882e-06
1.92729e-06 2.11882e-06 1.03884e-05
0.00189235 0.000442393 -3.47896e-07
0.000442393 0.000498548 -1.45551e-06
-3.47896e-07 -1.45551e-06 0.000195418
0.000537509 7.03353e-05 7.69969e-07
7.03353e-05 2.88423e-05 -1.01061e-06
7.69969e-07 -1.01061e-06 -9.23338e-05
0.00208783 0.00025331 -1.11072e-06
0.00025331 -2.69955e-06 -8.16856e-07
-1.11072e-06 -8.16856e-07 3.63824e-06
0.00109671 0.000213163 1.18491e-06
0.000213163 0.000374449 1.61012e-06
1.18491e-06 1.61012e-06 0.000163915
0.00120781 0.000308197 1.22129e-06
0.000308197 0.000242352 -1.01917e-06
1.22129e-06 -1.01917e-06 5.11914e-07
0.0022876 0.000401533 2.47408e-06
0.000401533 0.000256748 5.76982e-07
2.47408e-06 5.76982e-07 0.000151556
0.00162363 0.000476225 -1.34202e-06
0.000476225 3.36525e-05 -3.93893e-06
-1.34202e-06 -3.93893e-06 -0.000202014
0.0019209 0.000472412 -1.4859e-07
0.000472412 0.0004691 2.16193e-07
-1.4859e-07 2.16193e-07 0.00015141
0.00115629 0.000166963 -3.86826e-06
0.000166963 0.000420768 3.56995e-06
-3.86826e-06 3.56995e-06 0.000254429
0.00238711 0.000293301 -4.87892e-05
0.000293301 0.000229126 -1.31526e-05
-4.87892e-05 -1.31526e-05 0.000255736
0.00200317 0.000383686 -5.64988e-06
0.000383686 0.000826152 7.35149e-07
-5.64988e-06 7.35149e-07 0.000586482
0.00203362 0.000434511 -8.28897e-06
0.000434511 0.000628149 -4.01535e-07
-8.28897e-06 -4.01535e-07 0.000343697
0.00211068 0.000530111 -2.51596e-05
0.000530111 0.000198854 -1.308e-05
-2.51596e-05 -1.308e-05 3.20069e-05
0.000797139 0.000399394 -1.8991e-05
0.000399394 -0.000214264 -2.04848e-06
-1.8991e-05 -2.04848e-06 -0.000503781
0.00106682 0.000406971 3.58969e-05
0.000406971 -0.000452033 -2.20973e-05
3.58969e-05 -2.20973e-05 -0.000699521
0.000419088 6.81442e-05 1.07195e-06
6.81442e-05 -4.75207e-05 -7.37985e-07
1.07195e-06 -7.37985e-07 -0.00014413
0.000618689 5.13561e-05 -1.33505e-07
5.13561e-05 8.08772e-05 1.05754e-06
-1.33505e-07 1.05754e-06 -4.89511e-06
0.001466 8.67277e-05 7.50992e-07
8.67277e-05 0.000561481 1.90702e-07
7.50992e-07 1.90702e-07 0.000473604
0.000566883 -6.22149e-05 2.31832e-07
-6.22149e-05 4.32923e-05 -2.91013e-06
2.31832e-07 -2.91013e-06 -5.42463e-05
0.000505989 -3.92476e-05 -1.39465e-06
-3.92476e-05 4.92797e-06 -1.93526e-07
-1.39465e-06 -1.93526e-07 -0.000107066
0.000925659 0.000137319 -3.12632e-07
0.000137319 0.000260911 8.84062e-07
-3.12632e-07 8.84062e-07 0.000134625
0.000270514 -1.40604e-06 -2.00104e-06
-1.40604e-06 -0.000143065 4.59827e-06
-2.00104e-06 4.59827e-06 -0.000227868
0.00061284 -2.26516e-05 -1.5147e-07
-2.26516e-05 6.93156e-05 -3.46413e-08
-1.5147e-07 -3.46413e-08 -3.086e-05
0.00060855 4.66735e-05 -3.14275e-08
4.66735e-05 5.80581e-05 -4.91303e-07
-3.14275e-08 -4.91303e-07 -5.87977e-05
0.000928055 5.02158e-05 -1.3461e-06
5.02158e-05 0.000218964 7.30286e-07
-1.3461e-06 7.30286e-07 0.00014527
0.000703229 3.22439e-05 8.2425e-07
3.22439e-05 0.000118043 1.17366e-07
8.2425e-07 1.17366e-07 -4.24031e-06
0.000737476 1.30885e-05 -5.85772e-07
1.30885e-05 0.000120116 -5.27481e-07
-5.85772e-07 -5.27481e-07 2.2972e-05
0.000984688 5.10085e-05 8.87001e-07
5.10085e-05 0.000256621 -3.82463e-06
8.87001e-07 -3.82463e-06 0.000177794
0.000865043 6.00432e-05 -1.90537e-06
6.00432e-05 0.000198246 -2.17344e-06
-1.90537e-06 -2.17344e-06 7.22695e-05
0.000825041 8.35437e-05 9.14049e-07
8.35437e-05 0.000182349 5.76585e-07
9.14049e-07 5.76585e-07 6.09192e-05
0.000681199 4.47885e-05 5.32598e-07
4.47885e-05 0.000117241 1.55337e-06
5.32598e-07 1.55337e-06 -1.8089e-05
0.000465483 -2.39666e-05 -2.54768e-07
-2.39666e-05 -3.48388e-05 2.49312e-06
-2.54768e-07 2.49312e-06 -0.000130603
0.000907555 -3.36604e-05 2.96491e-07
-3.36604e-05 0.000274622 -7.34236e-07
2.96491e-07 -7.34236e-07 0.000138401
0.000369157 -1.94927e-05 -9.69241e-07
-1.94927e-05 -8.94706e-05 2.51142e-06
-9.69241e-07 2.51142e-06 -0.000188711
0.000531859 4.45953e-06 -1.42997e-06
4.45953e-06 -4.33715e-06 2.33999e-06
-1.42997e-06 2.33999e-06 -6.52307e-05
0.000551648 2.46651e-05 1.57056e-06
2.46651e-05 6.49622e-06 -2.31169e-08
1.57056e-06 -2.31169e-08 -5.35388e-05
0.000509767 9.3801e-06 7.71498e-07
9.3801e-06 -4.92675e-05 3.88737e-06
7.71498e-07 3.88737e-06 -6.67106e-05
0.000554723 8.64468e-07 -2.12995e-06
8.64468e-07 6.59788e-06 -2.49775e-06
-2.12995e-06 -2.49775e-06 -5.19734e-05
0.000928618 2.7891e-06 -2.18465e-06
2.7891e-06 0.000200729 -1.66099e-06
-2.18465e-06 -1.66099e-06 0.000185876
0.00242761 -1.31947e-05 8.82784e-06
-1.31947e-05 0.00110046 5.27612e-06
8.82784e-06 5.27612e-06 0.0011153
0.00136839 -7.52271e-06 -3.6371e-06
-7.52271e-06 0.000462699 -5.69202e-06
-3.6371e-06 -5.69202e-06 0.00045056
0.000801827 -1.64646e-05 2.31631e-06
-1.64646e-05 0.000120447 3.27867e-06
2.31631e-06 3.27867e-06 0.000127588
0.000778181 -2.37493e-05 -1.61534e-07
-2.37493e-05 0.00010546 -2.26036e-06
-1.61534e-07 -2.26036e-06 0.000112073
0.000584844 1.25342e-05 -7.26337e-07
1.25342e-05 5.57336e-06 -1.33173e-06
-7.26337e-07 -1.33173e-06 -3.38091e-05
0.000606914 -4.1072e-06 1.10237e-06
-4.1072e-06 1.72804e-05 -1.37901e-07
1.10237e-06 -1.37901e-07 -2.36941e-05
0.000557454 2.19095e-05 3.48709e-07
2.19095e-05 -2.9228e-05 -3.3145e-06
3.48709e-07 -3.3145e-06 -3.88334e-05
0.000861029 3.52052e-05 -3.48908e-07
3.52052e-05 0.000158144 5.0827e-08
-3.48908e-07 5.0827e-08 0.000147722
0.00210896 5.72406e-05 1.37918e-05
5.72406e-05 0.00091916 -4.1691e-06
1.37918e-05 -4.1691e-06 0.000932876
0.000544016 4.25691e-05 1.14975e-06
4.25691e-05 -2.36309e-05 3.76597e-06
1.14975e-06 3.76597e-06 -4.07869e-05
0.00220853 7.50782e-05 -2.88063e-06
7.50782e-05 0.000987259 -1.98683e-07
-2.88063e-06 -1.98683e-07 0.000997189
0.00243738 9.57945e-05 -1.91649e-05
9.57945e-05 0.00113391 4.06424e-06
-1.91649e-05 4.06424e-06 0.00113862
0.0019551 0.000240125 -4.05486e-06
0.000240125 1.07996e-05 -1.94575e-06
-4.05486e-06 -1.94575e-06 -3.76269e-05
0.00192165 8.19119e-05 -1.94614e-06
8.19119e-05 6.58049e-06 4.28112e-07
-1.94614e-06 4.28112e-07 -5.69639e-06
0.00184065 -2.94722e-06 -4.9153e-06
-2.94722e-06 2.06815e-05 7.12749e-08
-4.9153e-06 7.12749e-08 -6.92948e-07
0.0019274 -4.09047e-07 1.46802e-07
-4.09047e-07 2.38617e-06 -1.87138e-07
1.46802e-07 -1.87138e-07 2.69322e-06
0.0020503 0.000134233 -5.6071e-10
0.000134233 1.61074e-05 2.04658e-07
-5.6071e-10 2.04658e-07 1.07863e-05
0.00197313 7.25287e-05 5.77009e-06
7.25287e-05 -1.12354e-05 -1.92706e-06
5.77009e-06 -1.92706e-06 2.63445e-05
0.002057 3.91759e-06 -1.36157e-06
3.91759e-06 -1.84136e-05 -1.34915e-06
-1.36157e-06 -1.34915e-06 5.4424e-06
0.00314402 0.000377541 3.58135e-05
0.000377541 -0.000389331 5.44636e-06
3.58135e-05 5.44636e-06 -9.45119e-05
0.00231013 4.66471e-05 -3.0249e-05
4.66471e-05 0.000347142 1.81272e-05
-3.0249e-05 1.81272e-05 0.000442318
0.000570866 8.61283e-05 -8.838e-07
8.61283e-05 3.37685e-05 -1.26963e-07
-8.838e-07 -1.26963e-07 -4.13184e-05
0.00194819 -8.94092e-05 -1.61293e-06
-8.94092e-05 1.45013e-05 -2.39735e-07
-1.61293e-06 -2.39735e-07 7.78736e-06
0.00196687 -0.000226603 -4.01653e-07
-0.000226603 2.85881e-05 1.78181e-08
-4.01653e-07 1.78181e-08 1.32255e-05
0.00187339 -0.000301456 -9.11134e-07
-0.000301456 1.62662e-05 2.22552e-06
-9.11134e-07 2.22552e-06 -3.81054e-05
0.000577516 -0.000293189 -2.4146e-06
-0.000293189 -0.000164889 9.62877e-06
-2.4146e-06 9.62877e-06 -0.000444639
0.00203126 -0.000546166 4.29602e-06
-0.000546166 0.000568365 4.49623e-06
4.29602e-06 4.49623e-06 0.00019
0.00147188 -0.000494509 1.25759e-06
-0.000494509 5.73392e-05 -8.6804e-06
1.25759e-06 -8.6804e-06 -0.000222335
0.0022132 -0.000479033 -2.40832e-06
-0.000479033 0.000243829 -1.28212e-06
-2.40832e-06 -1.28212e-06 0.000109815
0.00193081 -0.000345879 1.8018e-05
-0.000345879 0.00067255 -8.35008e-09
1.8018e-05 -8.35008e-09 0.000440714
0.000386595 -0.00017795 1.35407e-05
-0.00017795 -4.23993e-05 -4.77672e-06
1.35407e-05 -4.77672e-06 -0.000283496
0.00112878 -0.00011484 2.16141e-06
-0.00011484 0.000368182 -2.53921e-06
2.16141e-06 -2.53921e-06 0.000169326
0.000577464 5.41212e-06 -5.32899e-07
5.41212e-06 1.11003e-06 1.38226e-06
-5.32899e-07 1.38226e-06 -4.04074e-05
0.00086871 -2.03984e-05 2.24745e-06
-2.03984e-05 0.000233588 -1.80408e-06
2.24745e-06 -1.80408e-06 5.90934e-05
0.000883938 -3.53428e-05 2.47424e-06
-3.53428e-05 0.000237609 -7.57756e-07
2.47424e-06 -7.57756e-07 0.000145633
0.000856109 -2.89178e-05 1.62145e-06
-2.89178e-05 0.00023104 -1.39298e-06
1.62145e-06 -1.39298e-06 8.75178e-05
0.000357167 -2.98207e-05 -2.32616e-06
-2.98207e-05 -0.000115113 6.38136e-07
-2.32616e-06 6.38136e-07 -0.000183497
0.00198106 -0.000116458 -3.23654e-07
-0.000116458 -5.90972e-05 1.87418e-07
-3.23654e-07 1.87418e-07 -4.76612e-05
0.000470583 3.62242e-05 -5.41619e-08
3.62242e-05 -2.39921e-05 -1.43244e-06
-5.41619e-08 -1.43244e-06 -0.00010464
0.000630107 -5.40606e-05 1.05123e-06
-5.40606e-05 6.51052e-05 5.0172e-07
1.05123e-06 5.0172e-07 -1.24293e-05
0.000786224 -6.67809e-05 1.74586e-07
-6.67809e-05 0.000157427 7.45285e-07
1.74586e-07 7.45285e-07 6.10767e-05
0.00196016 -0.000285423 1.30324e-06
-0.000285423 -4.96608e-05 -1.86977e-07
1.30324e-06 -1.86977e-07 -2.96938e-06
0.00207857 -0.000418229 4.92852e-08
-0.000418229 6.67843e-05 -5.46289e-07
4.92852e-08 -5.46289e-07 -3.73152e-06
0.00121532 -0.000346349 7.8787e-06
-0.000346349 0.000220569 -5.17687e-07
7.8787e-06 -5.17687e-07 -7.58671e-05
0.00218525 -0.000604805 6.81001e-06
-0.000604805 0.000626342 -8.29595e-08
6.81001e-06 -8.29595e-08 0.000239091
0.00196264 -0.000562031 -1.10965e-06
-0.000562031 0.00022276 1.56965e-06
-1.10965e-06 1.56965e-06 4.24918e-05
0.00043325 -1.42567e-05 -5.51547e-07
-1.42567e-05 -2.36176e-05 -2.61114e-07
-5.51547e-07 -2.61114e-07 -0.000146851
0.000850232 -8.50137e-05 -1.83677e-06
-8.50137e-05 0.00021951 6.09777e-07
-1.83677e-06 6.09777e-07 6.66842e-05
0.000690564 -0.000343353 -6.85691e-06
-0.000343353 -2.21818e-05 -5.88012e-07
-6.85691e-06 -5.88012e-07 -0.000285878
0.000528646 -0.000120393 -8.06604e-08
-0.000120393 0.000117739 -1.68259e-06
-8.06604e-08 -1.68259e-06 -0.000206039
0.000731737 -7.03134e-05 -5.20172e-08
-7.03134e-05 9.18671e-05 3.83707e-07
-5.20172e-08 3.83707e-07 -8.09221e-05
0.00238148 -0.000234731 -3.88376e-06
-0.000234731 0.00015826 -1.63963e-06
-3.88376e-06 -1.63963e-06 0.000175087
0.00179031 -0.000302038 -1.26719e-05
-0.000302038 -0.00017658 2.24639e-06
-1.26719e-05 2.24639e-06 -9.52378e-05
0.00240401 -0.000578188 -1.10903e-05
-0.000578188 0.000287364 -1.43121e-06
-1.10903e-05 -1.43121e-06 0.000141843
0.0029304 -0.000685888 -2.33842e-05
-0.000685888 0.000873997 8.6816e-07
-2.33842e-05 8.6816e-07 0.000626614
0.00117193 -0.000385969 -2.33354e-05
-0.000385969 0.000241583 -2.84471e-06
-2.33354e-05 -2.84471e-06 -6.31887e-05
0.000405634 -2.4838e-06 1.30381e-06
-2.4838e-06 -6.22785e-05 9.72154e-08
1.30381e-06 9.72154e-08 -0.000159949
0.000462074 3.66079e-05 5.76831e-07
3.66079e-05 -4.49045e-05 1.59749e-06
5.76831e-07 1.59749e-06 -0.000143959
0.000287342 -7.32012e-06 -1.9607e-07
-7.32012e-06 -0.00013206 -9.04784e-07
-1.9607e-07 -9.04784e-07 -0.00023775
0.00144666 -0.000175068 -4.14222e-06
-0.000175068 0.000594818 7.18177e-06
-4.14222e-06 7.18177e-06 0.000447213
0.000505346 -6.23792e-05 -2.1691e-06
-6.23792e-05 -1.08584e-05 8.13062e-06
-2.1691e-06 8.13062e-06 -0.000154287
-0.000215831 -8.9581e-05 8.47526e-07
-8.9581e-05 -0.000223682 4.60394e-06
8.47526e-07 4.60394e-06 -0.000587626
-0.000154191 -0.000396193 7.16459e-07
-0.000396193 -0.000268735 2.20609e-07
7.16459e-07 2.20609e-07 -0.000691774
0.000856394 0.000115651 5.52312e-07
0.000115651 0.000232489 -4.64751e-06
5.52312e-07 -4.64751e-06 9.50979e-05
0.000290177 0.000103079 -2.4009e-06
0.000103079 -0.000119249 -1.60424e-06
-2.4009e-06 -1.60424e-06 -0.000303391
0.00214425 0.000235156 7.37092e-06
0.000235156 1.95576e-05 4.2442e-07
7.37092e-06 4.2442e-07 3.6929e-05
0.00214302 0.000395857 1.42479e-05
0.000395857 0.000179464 4.01111e-06
1.42479e-05 4.01111e-06 7.861e-05
0.00228503 0.000520409 1.38571e-05
0.000520409 0.000405627 4.03509e-06
1.38571e-05 4.03509e-06 0.000168463
0.0012122 0.000311151 -8.15643e-07
0.000311151 0.000246066 -1.38422e-06
-8.15643e-07 -1.38422e-06 -2.12726e-06
0.00169265 0.000450264 1.25687e-06
0.000450264 0.000347787 1.62779e-06
1.25687e-06 1.62779e-06 3.27798e-05
0.0014459 0.000150191 2.06658e-08
0.000150191 0.000569633 1.26024e-07
2.06658e-08 1.26024e-07 0.000416779
0.00238142 0.00026056 -2.69505e-06
0.00026056 0.000257432 8.26398e-07
-2.69505e-06 8.26398e-07 0.000290468
0.00145115 0.000304147 -2.10106e-06
0.000304147 0.00048929 8.9493e-07
-2.10106e-06 8.9493e-07 0.000268226
0.00153013 0.000386818 6.9159e-07
0.000386818 0.000368541 2.49736e-06
6.9159e-07 2.49736e-06 7.80835e-05
0.00203973 0.000518277 -1.49329e-06
0.000518277 0.000150626 -2.70825e-06
-1.49329e-06 -2.70825e-06 -1.65103e-06
0.00165561 0.000481662 -3.61493e-06
0.000481662 0.000266493 5.31133e-06
-3.61493e-06 5.31133e-06 -3.85862e-05
0.00238769 0.000538475 4.86611e-05
0.000538475 -8.19243e-05 4.42365e-06
4.86611e-05 4.42365e-06 -0.000393337
0.00106014 0.00020866 -5.6693e-06
0.00020866 0.000362115 -9.58704e-08
-5.6693e-06 -9.58704e-08 0.000182883
0.00311378 0.000456149 -6.31047e-05
0.000456149 0.000787663 -2.78857e-05
-6.31047e-05 -2.78857e-05 0.00074598
0.00111083 0.000300727 -3.8971e-06
0.000300727 0.000204777 -1.92506e-06
-3.8971e-06 -1.92506e-06 -1.0009e-05
0.000324777 0.000294522 -9.69852e-07
0.000294522 -0.000319338 -5.98515e-06
-9.69852e-07 -5.98515e-06 -0.000599266
0.000502311 0.000477767 -2.16705e-05
0.000477767 -0.000523194 -4.66875e-06
-2.16705e-05 -4.66875e-06 -0.000713044
0.011312 0.000414359 -0.000238949
0.000414359 0.00235289 -5.37958e-05
-0.000238949 -5.37958e-05 0.00146234
0.00607666 0.000960323 0.000117959
0.000960323 0.000700305 -4.01263e-05
0.000117959 -4.01263e-05 0.000564033
-6.71607e-05 0.000639241 1.02236e-05
0.000639241 -0.000855207 5.01344e-06
1.02236e-05 5.01344e-06 -0.0011527
-0.0038769 -0.000951387 0.00053717
-0.000951387 -0.000462179 8.39594e-05
0.00053717 8.39594e-05 -0.00215383
0.0105823 -0.00337488 -2.54122e-05
-0.00337488 0.00270353 2.4819e-05
-2.54122e-05 2.4819e-05 0.00366233
0.000369342 5.94763e-05 4.23426e-06
5.94763e-05 -5.36559e-05 6.07328e-07
4.23426e-06 6.07328e-07 -0.000141919
0.000897225 5.78232e-05 1.3518e-06
5.78232e-05 0.000249169 -9.34052e-07
1.3518e-06 -9.34052e-07 0.00016257
0.001221 0.000131156 -1.49117e-06
0.000131156 0.000445142 -3.59019e-07
-1.49117e-06 -3.59019e-07 0.000337998
0.000582269 -6.17689e-05 -2.07522e-07
-6.17689e-05 5.95964e-05 -2.10728e-06
-2.07522e-07 -2.10728e-06 -4.54528e-05
0.00058517 5.98719e-05 -1.50945e-06
5.98719e-05 4.72543e-05 -1.91498e-06
-1.50945e-06 -1.91498e-06 -7.35846e-05
0.00071696 -2.37172e-05 -8.96213e-08
-2.37172e-05 0.000128486 -4.97619e-07
-8.96213e-08 -4.97619e-07 5.46937e-06
0.000794748 3.64734e-05 -2.44977e-06
3.64734e-05 0.000150239 3.67193e-06
-2.44977e-06 3.67193e-06 5.03421e-05
0.000538207 3.68963e-05 -1.59895e-06
3.68963e-05 -8.88585e-06 2.9022e-06
-1.59895e-06 2.9022e-06 -8.28761e-05
0.000793995 8.92519e-05 -1.82959e-06
8.92519e-05 0.00018028 -5.61932e-07
-1.82959e-06 -5.61932e-07 4.67362e-05
0.000524993 -1.02044e-05 3.00982e-08
-1.02044e-05 7.47095e-06 7.24135e-07
3.00982e-08 7.24135e-07 -9.1438e-05
0.000651751 1.99646e-05 2.8955e-07
1.99646e-05 9.53249e-05 2.08113e-07
2.8955e-07 2.08113e-07 -3.65058e-05
0.000679155 4.78451e-05 6.678e-07
4.78451e-05 7.28743e-05 -6.6126e-07
6.678e-07 -6.6126e-07 -6.72102e-06
0.000810623 6.25989e-05 -1.02467e-06
6.25989e-05 0.000166329 -2.9508e-07
-1.02467e-06 -2.9508e-07 4.52384e-05
0.0013094 0.000117878 -1.66952e-06
0.000117878 0.000471969 -1.41189e-06
-1.66952e-06 -1.41189e-06 0.000344826
0.000378865 5.81336e-05 2.89916e-07
5.81336e-05 -7.12481e-05 -2.94326e-06
2.89916e-07 -2.94326e-06 -0.000183056
0.000760728 8.61808e-05 1.88364e-06
8.61808e-05 0.000144948 6.04296e-07
1.88364e-06 6.04296e-07 1.86248e-05
0.000547603 -2.43278e-05 1.28655e-06
-2.43278e-05 1.89876e-05 8.30565e-08
1.28655e-06 8.30565e-08 -0.000102899
0.000412529 -5.58746e-05 -1.18438e-06
-5.58746e-05 -6.21062e-05 2.25291e-06
-1.18438e-06 2.25291e-06 -0.000163425
0.000769003 -8.89833e-06 -5.55289e-07
-8.89833e-06 0.00016277 1.22677e-07
-5.55289e-07 1.22677e-07 3.6091e-05
0.000856748 3.07365e-05 7.06278e-08
3.07365e-05 0.000219079 -3.6371e-06
7.06278e-08 -3.6371e-06 9.60652e-05
0.000648189 -2.93273e-05 -6.30727e-07
-2.93273e-05 0.000102021 2.0283e-07
-6.30727e-07 2.0283e-07 -1.77412e-05
0.000789958 -2.85274e-05 1.25426e-06
-2.85274e-05 0.000183824 -6.32783e-07
1.25426e-06 -6.32783e-07 6.01929e-05
0.000664327 -9.23683e-05 -2.46144e-06
-9.23683e-05 8.93611e-05 1.68873e-06
-2.46144e-06 1.68873e-06 -8.52086e-06
0.000419311 -1.42911e-05 1.63823e-07
-1.42911e-05 -5.73556e-05 9.03021e-07
1.63823e-07 9.03021e-07 -0.000158759
0.000569245 -2.65387e-05 -1.64677e-06
-2.65387e-05 1.01916e-05 2.63701e-06
-1.64677e-06 2.63701e-06 -4.7406e-05
0.000564272 -2.26812e-05 1.19864e-06
-2.26812e-05 1.32634e-05 2.2598e-08
1.19864e-06 2.2598e-08 -4.68739e-05
0.000557231 5.8067e-06 2.81722e-07
5.8067e-06 -2.01172e-05 5.70075e-06
2.81722e-07 5.70075e-06 -3.80602e-05
0.00056368 2.44333e-05 -1.12845e-06
2.44333e-05 1.06304e-05 -2.40092e-06
-1.12845e-06 -2.40092e-06 -4.73445e-05
0.000523227 6.61298e-06 4.49094e-07
6.61298e-06 -4.09343e-05 1.15803e-08
4.49094e-07 1.15803e-08 -5.84734e-05
0.00240126 -1.54027e-06 -8.22835e-07
-1.54027e-06 0.00108477 5.32846e-06
-8.22835e-07 5.32846e-06 0.00109966
0.000572744 6.59503e-06 -1.20512e-06
6.59503e-06 -1.31042e-05 -5.88793e-06
-1.20512e-06 -5.88793e-06 -3.05123e-05
0.00161901 -9.87402e-06 1.47588e-08
-9.87402e-06 0.000612694 9.26318e-08
1.47588e-08 9.26318e-08 0.000623432
0.000774665 -1.4695e-05 2.65432e-07
-1.4695e-05 0.00010202 -2.15579e-06
2.65432e-07 -2.15579e-06 0.000109506
0.000583664 -1.51562e-05 1.03263e-06
-1.51562e-05 7.65458e-06 -1.24578e-06
1.03263e-06 -1.24578e-06 -3.0559e-05
0.000611448 -2.34389e-05 3.85802e-07
-2.34389e-05 2.22697e-05 -5.23108e-08
3.85802e-07 -5.23108e-08 -1.80593e-05
0.000574498 1.40165e-05 5.3596e-07
1.40165e-05 -2.11985e-05 -3.05145e-06
5.3596e-07 -3.05145e-06 -2.8951e-05
0.000582343 -1.74065e-05 -1.40344e-06
-1.74065e-05 1.1985e-06 1.14234e-06
-1.40344e-06 1.14234e-06 -3.90854e-05
0.000842836 2.58856e-05 -5.36874e-08
2.58856e-05 0.00014293 -7.12735e-07
-5.36874e-08 -7.12735e-07 0.000135279
0.00203227 4.25273e-05 1.02903e-05
4.25273e-05 0.00086798 -4.28366e-06
1.02903e-05 -4.28366e-06 0.000884227
0.000542667 3.08008e-05 -4.04993e-07
3.08008e-05 -3.35781e-05 3.36991e-06
-4.04993e-07 3.36991e-06 -4.60598e-05
0.00216714 5.96398e-05 -7.06829e-06
5.96398e-05 0.000956438 1.11027e-06
-7.06829e-06 1.11027e-06 0.000969449
0.00228192 7.88542e-05 -1.48999e-05
7.88542e-05 0.00103264 4.10585e-06
-1.48999e-05 4.10585e-06 0.00104163
0.00202781 0.000135416 -2.66865e-06
0.000135416 1.84509e-05 -5.47984e-07
-2.66865e-06 -5.47984e-07 1.20492e-05
0.00192571 2.77709e-07 -1.39012e-06
2.77709e-07 3.71509e-06 2.49991e-07
-1.39012e-06 2.49991e-07 3.87341e-06
0.00168692 5.86979e-05 8.12936e-06
5.86979e-05 -0.000196611 1.02553e-06
8.12936e-06 1.02553e-06 -0.000164557
0.0022726 0.000272373 4.34629e-05
0.000272373 -0.00064861 9.59115e-06
4.34629e-05 9.59115e-06 -0.000456158
0.00201657 -1.15251e-05 -2.16172e-06
-1.15251e-05 -2.96812e-05 -8.60373e-07
-2.16172e-06 -8.60373e-07 -5.09281e-06
0.00193368 5.48459e-05 3.63514e-06
5.48459e-05 0.000131144 -3.95932e-06
3.63514e-06 -3.95932e-06 0.000204868
0.00292917 -1.95477e-05 -2.85936e-05
-1.95477e-05 0.000756207 4.46668e-06
-2.85936e-05 4.46668e-06 0.000737071
0.00190883 -1.18591e-05 3.99567e-05
-1.18591e-05 -0.00157642 -2.99539e-05
3.99567e-05 -2.99539e-05 -0.00127566
0.00249841 0.000102318 4.41887e-05
0.000102318 -0.00019775 2.59969e-05
4.41887e-05 2.59969e-05 5.6009e-06
0.000610582 7.20173e-05 1.45922e-07
7.20173e-05 6.08289e-05 -4.76631e-07
1.45922e-07 -4.76631e-07 -1.73453e-05
0.000633763 -8.21015e-06 5.64666e-07
-8.21015e-06 7.68722e-05 -1.97891e-07
5.64666e-07 -1.97891e-07 -3.4423e-06
0.000605186 -9.78593e-05 -1.10619e-06
-9.78593e-05 5.96821e-05 1.2578e-06
-1.10619e-06 1.2578e-06 -3.55242e-05
0.000578858 -4.36027e-05 -1.33711e-06
-4.36027e-05 6.63403e-05 1.05467e-06
-1.33711e-06 1.05467e-06 -3.90717e-05
0.00202233 -0.000129449 -3.27846e-06
-0.000129449 -5.6149e-05 4.39815e-07
-3.27846e-06 4.39815e-07 -3.00485e-05
0.00198565 -0.00028318 7.62527e-07
-0.00028318 -1.6691e-05 -5.44844e-07
7.62527e-07 -5.44844e-07 1.63167e-05
0.00210587 -0.000417065 -1.97753e-06
-0.000417065 8.95916e-05 1.9371e-06
-1.97753e-06 1.9371e-06 1.97745e-05
0.00263154 -0.000499163 1.19345e-05
-0.000499163 0.00101475 2.61473e-06
1.19345e-05 2.61473e-06 0.000703445
0.00100402 -0.000497808 1.19299e-05
-0.000497808 -2.17391e-05 -3.80805e-06
1.19299e-05 -3.80805e-06 -0.000389866
0.00234484 -0.000586661 7.65725e-06
-0.000586661 0.000451595 -3.32673e-06
7.65725e-06 -3.32673e-06 0.000260397
0.00126981 -0.000384702 -3.67195e-06
-0.000384702 0.000323481 3.27571e-06
-3.67195e-06 3.27571e-06 2.66657e-05
0.00204625 -0.00015909 1.86633e-06
-0.00015909 0.000915747 -4.75242e-07
1.86633e-06 -4.75242e-07 0.000656054
0.000183361 -7.03322e-05 3.32046e-07
-7.03322e-05 -0.000238658 -1.24104e-06
3.32046e-07 -1.24104e-06 -0.000399167
0.000672442 -4.21583e-05 -9.3726e-08
-4.21583e-05 8.9908e-05 9.74428e-07
-9.3726e-08 9.74428e-07 1.35291e-05
0.000683621 -9.24456e-05 9.4701e-07
-9.24456e-05 0.000131529 -3.54188e-06
9.4701e-07 -3.54188e-06 -3.16169e-05
0.000745539 -6.86634e-06 1.11984e-06
-6.86634e-06 0.000165172 -1.33862e-06
1.11984e-06 -1.33862e-06 4.17146e-05
0.000634783 6.6948e-06 1.02309e-07
6.6948e-06 8.07597e-05 -2.94236e-07
1.02309e-07 -2.94236e-07 -2.89887e-06
0.000539675 -6.00713e-06 -3.74592e-06
-6.00713e-06 9.11175e-06 2.23239e-06
-3.74592e-06 2.23239e-06 -8.39197e-05
0.00234796 -0.000218324 1.36842e-06
-0.000218324 0.000146513 6.89147e-07
1.36842e-06 6.89147e-07 0.000177257
0.000634133 -1.55169e-05 1.07919e-06
-1.55169e-05 8.64043e-05 -1.66033e-07
1.07919e-06 -1.66033e-07 -1.93664e-05
0.000700271 -5.58462e-08 2.83439e-06
-5.58462e-08 0.000107888 -2.31744e-07
2.83439e-06 -2.31744e-07 4.07585e-06
0.000301982 2.47776e-05 2.60893e-07
2.47776e-05 -0.000122577 1.2356e-06
2.60893e-07 1.2356e-06 -0.000213457
0.0017866 -0.000306123 -7.38945e-07
-0.000306123 -0.000205094 -1.55154e-06
-7.38945e-07 -1.55154e-06 -0.000128061
0.00209621 -0.000547926 1.66503e-06
-0.000547926 0.000134391 -4.6639e-07
1.66503e-06 -4.6639e-07 -1.15238e-06
0.00170975 -0.000472111 -1.47019e-06
-0.000472111 0.000535036 5.38149e-07
-1.47019e-06 5.38149e-07 0.000218585
0.00214387 -0.000624396 -5.92085e-06
-0.000624396 0.000450576 1.95207e-06
-5.92085e-06 1.95207e-06 0.000208306
0.00110248 -8.44164e-05 -9.76726e-07
-8.44164e-05 0.000369135 5.01746e-07
-9.76726e-07 5.01746e-07 0.000231275
0.000432863 -7.01376e-05 5.79553e-07
-7.01376e-05 -5.71315e-05 9.49739e-07
5.79553e-07 9.49739e-07 -0.000206739
0.00114245 -0.000483659 4.1553e-06
-0.000483659 0.000464844 -1.69449e-06
4.1553e-06 -1.69449e-06 2.50924e-05
0.00116993 -0.000210576 -4.38234e-08
-0.000210576 0.0004764 -4.72737e-07
-4.38234e-08 -4.72737e-07 0.000156188
0.00250009 -0.000269065 -2.52439e-05
-0.000269065 0.000141211 -1.6572e-06
-2.52439e-05 -1.6572e-06 0.000274496
0.00234468 -0.000444826 -3.11344e-05
-0.000444826 0.000163396 6.78916e-06
-3.11344e-05 6.78916e-06 0.000184075
0.0028101 -0.000706918 -1.28882e-05
-0.000706918 0.000621117 -5.1601e-06
-1.28882e-05 -5.1601e-06 0.000395868
0.00166989 -0.000536846 -1.09197e-05
-0.000536846 0.000383519 2.41859e-06
-1.09197e-05 2.41859e-06 0.000155432
0.000509065 -1.64029e-05 -1.37504e-06
-1.64029e-05 2.85765e-05 -1.90131e-06
-1.37504e-06 -1.90131e-06 -9.35792e-05
0.000493998 -8.22243e-05 -1.08952e-06
-8.22243e-05 7.20573e-06 -4.7805e-06
-1.08952e-06 -4.7805e-06 -0.000126022
0.000400368 -0.000126257 -3.91269e-06
-0.000126257 6.17441e-05 1.33736e-05
-3.91269e-06 1.33736e-05 -0.000141802
-0.000470084 -0.000247895 -4.27049e-06
-0.000247895 -0.000201462 -6.91858e-06
-4.27049e-06 -6.91858e-06 -0.000735595
0.00115634 -0.000439206 2.77387e-05
-0.000439206 -0.00345345 -4.99847e-06
2.77387e-05 -4.99847e-06 -0.00364668
0.00159381 0.000139958 5.732e-07
0.000139958 0.000644257 -4.14356e-06
5.732e-07 -4.14356e-06 0.000499969
0.000773941 0.000222088 2.38173e-06
0.000222088 9.22291e-05 1.97206e-06
2.38173e-06 1.97206e-06 -0.000115147
0.00209883 0.000229504 5.64414e-05
0.000229504 0.000115679 1.1772e-05
5.64414e-05 1.1772e-05 0.000153773
0.00201279 0.000506492 1.91695e-05
0.000506492 0.000128199 6.40686e-06
1.91695e-05 6.40686e-06 -1.18308e-05
0.00208885 0.000525334 8.39128e-06
0.000525334 0.000519838 8.66741e-06
8.39128e-06 8.66741e-06 0.000201951
0.00109966 0.000346032 6.20917e-06
0.000346032 0.000149222 4.52785e-06
6.20917e-06 4.52785e-06 -0.000148506
0.00349191 0.000653935 8.13312e-05
0.000653935 0.000203747 3.27908e-05
8.13312e-05 3.27908e-05 -0.000210557
0.00127005 0.000197781 4.06966e-06
0.000197781 0.000487911 7.5335e-07
4.06966e-06 7.5335e-07 0.000312059
0.00245783 0.000417075 -1.03886e-05
0.000417075 0.000403105 -7.55325e-07
-1.03886e-05 -7.55325e-07 0.000387446
0.00114529 0.000304978 1.85261e-06
0.000304978 0.000246994 6.92086e-07
1.85261e-06 6.92086e-07 2.942e-05
0.00117415 0.000393942 2.072e-06
0.000393942 0.000157824 -2.96302e-06
2.072e-06 -2.96302e-06 -0.000137627
0.00129355 0.000539068 -5.5875e-06
0.000539068 -0.000113577 -1.27862e-06
-5.5875e-06 -1.27862e-06 -0.000311997
0.0027001 -0.00035631 -0.000134649
-0.00035631 -0.00294477 -4.04884e-05
-0.000134649 -4.04884e-05 -0.00395367
0.00627954 0.000823176 -2.95765e-05
0.000823176 0.000651053 -5.08209e-05
-2.95765e-05 -5.08209e-05 0.000281672
0.000646851 0.000577817 -8.30651e-06
0.000577817 -0.000365372 7.1912e-06
-8.30651e-06 7.1912e-06 -0.000707744
-0.00230284 -0.00074068 0.000229937
-0.00074068 0.00112874 9.86476e-05
0.000229937 9.86476e-05 -0.000747284
0.00251136 -0.00336008 -0.000171079
-0.00336008 0.000106223 -0.000179751
-0.000171079 -0.000179751 0.0012174
0.00126178 0.000226547 -7.24931e-06
0.000226547 0.000460315 -2.59506e-06
-7.24931e-06 -2.59506e-06 0.000298953
0.00070132 0.00047902 0.000276441
0.00047902 0.00230249 7.87488e-07
0.000276441 7.87488e-07 0.000991425
0.001054 -0.00101014 -0.000130058
-0.00101014 0.00295394 -0.000195374
-0.000130058 -0.000195374 0.000465445
0.00266071 0.000648501 -3.40299e-05
0.000648501 0.000490862 -9.78575e-06
-3.40299e-05 -9.78575e-06 0.000498902
0.000691035 0.00018201 -1.48467e-05
0.00018201 -5.1421e-06 -4.50803e-06
-1.48467e-05 -4.50803e-06 -0.000204582
0.000468792 0.00043623 -2.68221e-05
0.00043623 -0.000217896 -1.81957e-05
-2.68221e-05 -1.81957e-05 -0.00050939
0.000156411 0.000607989 3.53239e-05
0.000607989 -0.00068677 7.43328e-05
3.53239e-05 7.43328e-05 -0.000866577
0.0135758 0.00105218 -1.01067e-05
0.00105218 0.00378803 -4.94077e-05
-1.01067e-05 -4.94077e-05 0.00232022
0.00263056 0.00115496 1.1308e-05
0.00115496 0.000356148 1.17393e-06
1.1308e-05 1.17393e-06 -0.000692844
0.00452322 -0.00298074 0.000442048
-0.00298074 0.000331474 0.000293839
0.000442048 0.000293839 0.000193204
0.00709532 -0.00153458 -4.47955e-05
-0.00153458 0.000148764 0.000303229
-4.47955e-05 0.000303229 0.000605922
0.00060502 4.22278e-05 2.60537e-06
4.22278e-05 9.58455e-05 -2.82323e-06
2.60537e-06 -2.82323e-06 8.09419e-06
0.000729819 0.000102755 4.03874e-06
0.000102755 0.000159891 8.88607e-07
4.03874e-06 8.88607e-07 5.35385e-05
0.00142883 0.000179936 -1.30027e-06
0.000179936 0.000584464 -2.74557e-06
-1.30027e-06 -2.74557e-06 0.000461835
0.000610641 5.46797e-06 8.34465e-07
5.46797e-06 7.68677e-05 -5.3535e-07
8.34465e-07 -5.3535e-07 -3.32815e-05
0.000722554 3.62201e-05 2.1215e-08
3.62201e-05 0.000135163 -1.89612e-06
2.1215e-08 -1.89612e-06 5.1247e-06
0.000481846 1.6256e-06 -1.85453e-06
1.6256e-06 -1.8157e-05 2.67801e-07
-1.85453e-06 2.67801e-07 -0.000137696
0.000740725 6.55783e-05 -2.56823e-06
6.55783e-05 0.000126219 1.21183e-06
-2.56823e-06 1.21183e-06 9.45406e-06
0.000482356 4.58338e-05 -2.2132e-06
4.58338e-05 -4.94354e-05 -2.54638e-07
-2.2132e-06 -2.54638e-07 -0.000129515
0.00042417 -5.43128e-06 2.2807e-07
-5.43128e-06 -5.01948e-05 7.88558e-07
2.2807e-07 7.88558e-07 -0.000154489
0.000929713 5.19783e-05 6.45851e-07
5.19783e-05 0.000248624 6.68565e-07
6.45851e-07 6.68565e-07 0.000124814
0.000768053 3.43911e-05 3.81879e-07
3.43911e-05 0.000150262 4.00308e-07
3.81879e-07 4.00308e-07 2.30603e-05
0.000681374 1.86479e-05 7.20846e-07
1.86479e-05 0.000114715 -3.08264e-07
7.20846e-07 -3.08264e-07 -1.81292e-05
0.000463625 6.20526e-05 -2.92712e-07
6.20526e-05 -1.88941e-05 -9.57537e-07
-2.92712e-07 -9.57537e-07 -0.000131208
0.00126679 7.77529e-05 -1.14768e-06
7.77529e-05 0.00045412 -3.0364e-06
-1.14768e-06 -3.0364e-06 0.000338647
0.000140548 4.97367e-05 -3.34418e-06
4.97367e-05 -0.000158418 -5.05466e-06
-3.34418e-06 -5.05466e-06 -0.000278053
0.000765229 -8.44293e-05 -1.96396e-07
-8.44293e-05 0.000147769 -1.05915e-07
-1.96396e-07 -1.05915e-07 1.70099e-05
0.000759115 -5.83125e-05 -5.10495e-07
-5.83125e-05 0.000168673 -2.17433e-07
-5.10495e-07 -2.17433e-07 3.18569e-05
0.000784187 -2.89137e-05 -3.77237e-07
-2.89137e-05 0.000183018 -3.54629e-07
-3.77237e-07 -3.54629e-07 4.85038e-05
0.00081524 -1.44426e-06 -1.53549e-06
-1.44426e-06 0.000185373 -2.05062e-07
-1.53549e-06 -2.05062e-07 7.02811e-05
0.00075665 2.5202e-05 -3.33983e-06
2.5202e-05 0.000172104 -2.2455e-06
-3.33983e-06 -2.2455e-06 2.70412e-05
0.000729011 1.66686e-06 1.49816e-06
1.66686e-06 0.00013633 -2.1092e-06
1.49816e-06 -2.1092e-06 2.27121e-05
1.54628e-05 -2.28027e-05 -3.665e-07
-2.28027e-05 -0.000291571 -2.48952e-06
-3.665e-07 -2.48952e-06 -0.000391255
0.000580192 -8.94523e-06 8.4581e-07
-8.94523e-06 3.42809e-05 2.5847e-08
8.4581e-07 2.5847e-08 -7.56264e-05
0.000638984 -5.59179e-05 3.35801e-07
-5.59179e-05 7.2713e-05 6.53254e-07
3.35801e-07 6.53254e-07 -2.99518e-05
0.000713903 -5.38869e-05 -2.37887e-07
-5.38869e-05 0.00013438 -3.25026e-08
-2.37887e-07 -3.25026e-08 1.72876e-05
0.000649334 -5.88681e-05 -2.07335e-06
-5.88681e-05 6.77302e-05 1.36897e-06
-2.07335e-06 1.36897e-06 -1.79597e-05
0.000653965 -4.24394e-05 1.43214e-06
-4.24394e-05 8.14589e-05 -6.29895e-07
1.43214e-06 -6.29895e-07 -2.93886e-05
0.00058567 -8.49093e-05 4.81175e-08
-8.49093e-05 3.98157e-05 2.31386e-07
4.81175e-08 2.31386e-07 -5.76824e-05
0.000613396 -2.5287e-05 -2.11131e-06
-2.5287e-05 3.23892e-05 2.87242e-06
-2.11131e-06 2.87242e-06 -2.51009e-05
0.000474281 -5.89497e-06 1.24278e-06
-5.89497e-06 -1.38556e-05 -8.5449e-07
1.24278e-06 -8.5449e-07 -0.000122938
0.000567414 2.30679e-06 1.42166e-06
2.30679e-06 1.39796e-05 -7.41301e-10
1.42166e-06 -7.41301e-10 -4.62795e-05
0.00139515 7.00726e-06 -3.49852e-06
7.00726e-06 0.000481661 5.61924e-06
-3.49852e-06 5.61924e-06 0.000468153
0.000560012 3.99248e-05 -8.12144e-07
3.99248e-05 1.10955e-05 -2.44299e-06
-8.12144e-07 -2.44299e-06 -4.88916e-05
0.000942014 1.29341e-06 -1.99584e-06
1.29341e-06 0.00021111 8.05137e-07
-1.99584e-06 8.05137e-07 0.000195561
0.000825725 2.98462e-06 -4.23942e-06
2.98462e-06 0.000136648 5.08451e-06
-4.23942e-06 5.08451e-06 0.000143318
0.000528135 -8.03828e-07 6.70044e-07
-8.03828e-07 -3.77793e-05 -3.93338e-06
6.70044e-07 -3.93338e-06 -5.5375e-05
0.00241812 1.93907e-07 4.79887e-06
1.93907e-07 0.00109501 -7.60243e-09
4.79887e-06 -7.60243e-09 0.00110983
0.000851369 -2.56226e-06 -4.37806e-06
-2.56226e-06 0.000151387 -5.20848e-06
-4.37806e-06 -5.20848e-06 0.000158158
0.000574938 6.3575e-05 2.07525e-06
6.3575e-05 4.55566e-05 2.44713e-07
2.07525e-06 2.44713e-07 -3.97341e-05
0.00055871 3.1505e-05 -1.45543e-06
3.1505e-05 -1.49627e-06 -1.7347e-06
-1.45543e-06 -1.7347e-06 -4.1457e-05
0.000572552 -6.25761e-06 1.07659e-06
-6.25761e-06 3.73791e-06 1.84057e-08
1.07659e-06 1.84057e-08 -3.62753e-05
0.000573947 8.26362e-06 4.67253e-07
8.26362e-06 -2.19399e-05 -3.00465e-06
4.67253e-07 -3.00465e-06 -2.90122e-05
0.000603118 -3.77526e-05 -1.77028e-06
-3.77526e-05 1.93423e-05 1.28999e-06
-1.77028e-06 1.28999e-06 -2.2676e-05
0.000542841 1.40392e-05 2.22187e-08
1.40392e-05 -4.08443e-05 -7.55209e-07
2.22187e-08 -7.55209e-07 -4.82764e-05
0.00200994 2.86764e-05 6.93003e-06
2.86764e-05 0.000850893 -4.43793e-06
6.93003e-06 -4.43793e-06 0.000868744
0.00113884 3.25743e-05 -6.1218e-07
3.25743e-05 0.000322356 1.77692e-06
-6.1218e-07 1.77692e-06 0.000315954
0.0014741 3.66974e-05 4.86712e-08
3.66974e-05 0.000531377 1.39278e-06
4.86712e-08 1.39278e-06 0.000543503
0.000882791 3.99215e-05 -1.26847e-05
3.99215e-05 0.000179715 7.16683e-06
-1.26847e-05 7.16683e-06 0.000185944
0.00152861 0.000185017 7.8635e-05
0.000185017 -0.000911211 1.64284e-05
7.8635e-05 1.64284e-05 -0.000745462
0.00197948 -2.49367e-05 2.07469e-06
-2.49367e-05 -3.45258e-05 1.79001e-06
2.07469e-06 1.79001e-06 -1.3859e-05
0.00188085 6.69176e-05 3.55604e-05
6.69176e-05 0.000115091 -1.28606e-05
3.55604e-05 -1.28606e-05 0.000180427
0.00163071 0.000158161 -2.28162e-05
0.000158161 -0.00129234 -1.47123e-05
-2.28162e-05 -1.47123e-05 -0.000783698
0.00190017 7.02697e-05 2.17324e-05
7.02697e-05 -0.000416117 -2.08605e-07
2.17324e-05 -2.08605e-07 -0.000234412
0.00238067 -2.30253e-05 1.14228e-06
-2.30253e-05 0.000374645 -3.61286e-06
1.14228e-06 -3.61286e-06 0.000362651
0.00366343 -0.00011103 -6.00365e-05
-0.00011103 0.000882119 6.32325e-07
-6.00365e-05 6.32325e-07 0.000853485
0.00307441 -7.74941e-05 7.11321e-05
-7.74941e-05 0.000320107 6.75766e-06
7.11321e-05 6.75766e-06 0.000312248
0.0106933 -0.000537399 1.54503e-05
-0.000537399 0.00239423 4.30943e-05
1.54503e-05 4.30943e-05 0.000819836
0.0109242 0.00237131 0.000545877
0.00237131 0.0048088 -0.000234696
0.000545877 -0.000234696 0.00437984
0.00683563 0.00260619 -3.05747e-05
0.00260619 0.00518362 1.87437e-05
-3.05747e-05 1.87437e-05 0.00512608
0.000411047 -9.24866e-05 1.68213e-06
-9.24866e-05 -4.6941e-05 -2.03992e-07
1.68213e-06 -2.03992e-07 -0.000144582
0.000629063 -1.18095e-05 1.34335e-06
-1.18095e-05 7.366e-05 -1.68729e-07
1.34335e-06 -1.68729e-07 -6.38227e-06
0.000681829 -8.15718e-05 -1.65353e-06
-8.15718e-05 0.000112082 1.02297e-06
-1.65353e-06 1.02297e-06 2.57878e-05
0.000617098 -4.50453e-05 -1.42517e-07
-4.50453e-05 6.85763e-05 2.65687e-07
-1.42517e-07 2.65687e-07 -2.80431e-05
0.000607295 5.82293e-05 -1.64054e-06
5.82293e-05 8.59206e-05 2.00367e-06
-1.64054e-06 2.00367e-06 -2.80045e-05
0.000571865 0.000117976 1.42048e-06
0.000117976 3.97537e-05 4.38882e-06
1.42048e-06 4.38882e-06 -7.08929e-05
0.000881353 -1.57981e-05 3.01496e-06
-1.57981e-05 0.000246641 6.43944e-07
3.01496e-06 6.43944e-07 0.000134081
0.000553754 -2.84593e-05 -1.18494e-06
-2.84593e-05 3.88628e-05 1.03223e-06
-1.18494e-06 1.03223e-06 -6.10422e-05
0.00222186 -0.000203928 6.19064e-06
-0.000203928 7.48789e-05 2.2603e-06
6.19064e-06 2.2603e-06 0.000121045
0.00181906 -0.000319819 1.03951e-05
-0.000319819 -0.000223509 -2.57123e-06
1.03951e-05 -2.57123e-06 -0.000152966
0.00160997 -0.000505793 7.66385e-06
-0.000505793 -0.000117842 2.69475e-06
7.66385e-06 2.69475e-06 -0.000243145
0.00145984 -0.00046895 1.68854e-05
-0.00046895 0.000382052 7.36586e-09
1.68854e-05 7.36586e-09 6.20983e-05
0.0018005 -0.00060217 6.79569e-06
-0.00060217 0.000270734 2.82966e-06
6.79569e-06 2.82966e-06 3.03598e-05
0.00249506 -0.000574488 1.00011e-05
-0.000574488 0.0012317 -2.64124e-06
1.00011e-05 -2.64124e-06 0.000770142
0.00248895 -0.000334137 2.06037e-06
-0.000334137 0.00116539 -2.93203e-06
2.06037e-06 -2.93203e-06 0.000869275
0.000780478 -0.000138247 5.56247e-06
-0.000138247 0.000158215 -5.5213e-06
5.56247e-06 -5.5213e-06 -1.18726e-05
0.000652102 -2.84859e-05 4.34005e-07
-2.84859e-05 7.89676e-05 2.30921e-06
4.34005e-07 2.30921e-06 -1.91332e-05
0.000860772 -5.16409e-05 2.68722e-06
-5.16409e-05 0.000207632 -8.6127e-06
2.68722e-06 -8.6127e-06 7.98039e-05
0.000914767 -2.44315e-05 1.79941e-06
-2.44315e-05 0.000257255 -2.60757e-07
1.79941e-06 -2.60757e-07 0.00014856
0.000703234 8.54644e-05 2.05812e-06
8.54644e-05 0.000120099 1.69164e-06
2.05812e-06 1.69164e-06 3.7044e-05
0.00203692 -0.000254181 -4.96446e-07
-0.000254181 -5.1692e-05 2.22991e-06
-4.96446e-07 2.22991e-06 6.42336e-05
0.000640154 6.78306e-06 -1.62172e-06
6.78306e-06 0.000107546 2.05902e-08
-1.62172e-06 2.05902e-08 -1.43928e-05
0.000863182 -9.80647e-05 -2.98248e-06
-9.80647e-05 0.000217637 2.0254e-06
-2.98248e-06 2.0254e-06 9.39957e-05
0.00172149 -0.000423181 2.35528e-06
-0.000423181 -0.000175816 -1.76053e-06
2.35528e-06 -1.76053e-06 -0.000154045
0.00163671 -0.00060256 3.20786e-07
-0.00060256 -5.88521e-06 -1.97658e-07
3.20786e-07 -1.97658e-07 -0.000194407
0.000974781 -0.000473018 -1.19004e-06
-0.000473018 4.26514e-06 -1.9481e-06
-1.19004e-06 -1.9481e-06 -0.00023356
0.00114606 -0.00017992 2.73684e-07
-0.00017992 0.000474291 -6.5134e-06
2.73684e-07 -6.5134e-06 0.000249759
0.00119073 -0.000320086 -2.03575e-06
-0.000320086 0.000678968 1.62528e-06
-2.03575e-06 1.62528e-06 0.000196141
0.00310054 -0.000386383 -3.64293e-05
-0.000386383 0.000477934 4.57785e-06
-3.64293e-05 4.57785e-06 0.000529211
0.00289276 -0.000614988 -3.90037e-05
-0.000614988 0.000602484 6.57987e-06
-3.90037e-05 6.57987e-06 0.000557657
0.0019702 -0.000684787 -1.34404e-05
-0.000684787 0.000259567 -6.0631e-07
-1.34404e-05 -6.0631e-07 6.52199e-05
0.000486451 -0.000338678 -1.64669e-05
-0.000338678 -0.000100328 1.60197e-05
-1.64669e-05 1.60197e-05 -0.000313903
0.00065945 -0.000139747 1.59869e-06
-0.000139747 0.000125328 2.35889e-06
1.59869e-06 2.35889e-06 -2.53214e-05
0.000423926 -0.000118494 3.01377e-06
-0.000118494 2.84018e-05 7.86216e-07
3.01377e-06 7.86216e-07 -0.00014528
0.00113025 -0.000129972 -1.10262e-06
-0.000129972 0.000645892 -3.8697e-06
-1.10262e-06 -3.8697e-06 0.000245892
-0.00541785 -0.000134526 0.000296011
-0.000134526 -0.00398806 1.19398e-06
0.000296011 1.19398e-06 -0.00279081
0.0103788 -0.000164425 1.96258e-05
-0.000164425 0.00256582 7.72896e-07
1.96258e-05 7.72896e-07 0.00204021
0.0015275 0.000177088 6.57673e-06
0.000177088 0.000625657 -4.37999e-06
6.57673e-06 -4.37999e-06 0.000462806
0.00102171 0.000293654 2.27986e-06
0.000293654 0.000194167 -1.45827e-06
2.27986e-06 -1.45827e-06 -2.308e-05
0.00167655 0.000355783 4.90497e-05
0.000355783 -3.72582e-05 2.50423e-05
4.90497e-05 2.50423e-05 -2.65132e-05
0.00248548 0.000635769 1.68531e-05
0.000635769 0.000507615 5.67215e-06
1.68531e-05 5.67215e-06 0.000296756
0.00234204 0.000524865 1.17423e-05
0.000524865 0.000802328 1.31948e-06
1.17423e-05 1.31948e-06 0.000489655
0.0117946 0.000658506 5.75028e-05
0.000658506 0.00296842 2.88546e-05
5.75028e-05 2.88546e-05 0.00187273
0.00777259 0.00116731 -0.000174849
0.00116731 0.000812904 -1.28383e-05
-0.000174849 -1.28383e-05 0.000545347
0.00109255 0.000524457 4.86323e-06
0.000524457 -2.09919e-05 -1.93501e-05
4.86323e-06 -1.93501e-05 -0.000429276
0.0109744 -0.00187063 -0.000156606
-0.00187063 0.0049243 9.90868e-06
-0.000156606 9.90868e-06 0.00399217
-0.0065634 -0.00341989 -0.000924813
-0.00341989 -0.0026058 -0.00069921
-0.000924813 -0.00069921 -0.00164416
0.000996712 0.000213872 -7.03905e-07
0.000213872 0.000316914 -1.11665e-06
-7.03905e-07 -1.11665e-06 0.000154058
-0.00240774 -0.00100097 0.000181898
-0.00100097 -0.00237429 2.792e-05
0.000181898 2.792e-05 -0.00280684
-0.00326394 -0.000716287 -0.000212598
-0.000716287 0.00204955 -0.000105396
-0.000212598 -0.000105396 -0.000788267
0.00289498 0.00059218 -1.30236e-05
0.00059218 0.0006264 -1.16139e-06
-1.30236e-05 -1.16139e-06 0.000637157
0.000904224 0.000255485 -4.35099e-06
0.000255485 0.000146547 1.53834e-06
-4.35099e-06 1.53834e-06 -7.82237e-05
0.00125492 0.000523495 5.43784e-06
0.000523495 0.000208363 2.30658e-06
5.43784e-06 2.30658e-06 -9.69353e-05
0.00123416 0.000545744 2.20188e-05
0.000545744 3.27033e-05 1.77571e-05
2.20188e-05 1.77571e-05 -2.53044e-05
0.0101929 0.000849192 -7.66621e-05
0.000849192 0.00142253 -3.65016e-05
-7.66621e-05 -3.65016e-05 -0.000468478
0.00587301 0.00166226 -6.7249e-05
0.00166226 0.00126543 -3.28757e-05
-6.7249e-05 -3.28757e-05 0.000560075
0.012134 -0.00225505 0.000184718
-0.00225505 0.00524659 -4.66932e-05
0.000184718 -4.66932e-05 0.00471137
0.00678676 -0.00193059 0.000174659
-0.00193059 -0.000656331 0.000391484
0.000174659 0.000391484 -0.000112111
0.00169789 0.000213938 -1.68521e-05
0.000213938 0.000730051 -9.6678e-06
-1.68521e-05 -9.6678e-06 0.000585195
-0.00725982 0.000483943 -9.46202e-05
0.000483943 0.00137032 -6.89359e-05
-9.46202e-05 -6.89359e-05 -0.00213241
0.00347728 0.000414531 -0.000213424
0.000414531 0.00219616 -0.000270607
-0.000213424 -0.000270607 -0.00118054
0.00185012 0.000511568 -2.04689e-05
0.000511568 0.000326004 7.57688e-06
-2.04689e-05 7.57688e-06 0.000327562
0.00166605 0.000469999 -5.4839e-05
0.000469999 0.000645569 -1.96028e-05
-5.4839e-05 -1.96028e-05 0.000392324
0.00227585 0.000465665 -6.10327e-05
0.000465665 0.00130263 -5.88791e-06
-6.10327e-05 -5.88791e-06 0.000844699
0.00117309 0.00108733 -4.72177e-05
0.00108733 -8.07409e-05 -1.78854e-05
-4.72177e-05 -1.78854e-05 -0.000303649
0.000211052 0.00108145 0.000185524
0.00108145 -0.000721446 0.000125008
0.000185524 0.000125008 -0.00360871
0.0111819 -0.00267729 0.00013836
-0.00267729 0.00418631 0.000351499
0.00013836 0.000351499 0.00319519
0.00564529 -0.00104057 -6.32736e-05
-0.00104057 -0.0020304 -6.71824e-05
-6.32736e-05 -6.71824e-05 -0.00083419
0.000489762 0.00011508 2.74453e-06
0.00011508 3.17342e-05 -1.36924e-08
2.74453e-06 -1.36924e-08 -8.48946e-05
0.00124037 0.000163054 6.63932e-06
0.000163054 0.000462164 3.50101e-06
6.63932e-06 3.50101e-06 0.000343564
-0.00012789 5.78327e-05 3.61459e-06
5.78327e-05 -0.00026775 -8.91094e-06
3.61459e-06 -8.91094e-06 -0.000395491
0.000437014 4.70883e-05 1.44785e-06
4.70883e-05 -4.28746e-05 -5.7053e-07
1.44785e-06 -5.7053e-07 -0.000146923
0.000743608 5.22371e-05 -4.28581e-07
5.22371e-05 0.000158338 -1.2606e-06
-4.28581e-07 -1.2606e-06 2.16395e-05
0.000755403 -7.73725e-06 -7.1892e-07
-7.73725e-06 0.000141931 1.73104e-06
-7.1892e-07 1.73104e-06 1.45389e-05
0.000704658 6.61873e-06 3.6083e-06
6.61873e-06 0.000124871 8.13785e-07
3.6083e-06 8.13785e-07 -2.38513e-06
0.000344639 4.90928e-05 -4.64606e-07
4.90928e-05 -8.44031e-05 2.17025e-06
-4.64606e-07 2.17025e-06 -0.000195788
0.000758966 4.66018e-05 1.22844e-08
4.66018e-05 0.000169098 -8.30975e-07
1.22844e-08 -8.30975e-07 3.19319e-05
0.000829823 5.33936e-05 2.48292e-07
5.33936e-05 0.000190579 7.179e-08
2.48292e-07 7.179e-08 7.50796e-05
0.000775021 -4.23904e-05 -6.90417e-07
-4.23904e-05 0.000155806 7.853e-07
-6.90417e-07 7.853e-07 2.37622e-05
-0.000172727 3.06072e-05 6.84998e-07
3.06072e-05 -0.000324655 5.91421e-07
6.84998e-07 5.91421e-07 -0.000449022
-0.000640698 2.08545e-05 -7.85273e-07
2.08545e-05 -0.000415004 -1.42767e-06
-7.85273e-07 -1.42767e-06 -0.000620983
0.000951122 -2.98563e-06 -3.77429e-06
-2.98563e-06 0.000273306 -5.48855e-06
-3.77429e-06 -5.48855e-06 0.000150041
0.00092198 6.632e-06 -2.54292e-07
6.632e-06 0.000267433 6.98244e-08
-2.54292e-07 6.98244e-08 0.00011153
0.000785923 -5.77019e-05 -4.49751e-07
-5.77019e-05 0.000189107 -9.72537e-07
-4.49751e-07 -9.72537e-07 5.06493e-05
0.000863236 -4.79537e-05 2.62219e-07
-4.79537e-05 0.000206944 1.62279e-06
2.62219e-07 1.62279e-06 9.61083e-05
0.000809616 -5.17e-05 4.1372e-07
-5.17e-05 0.000192423 -7.0732e-07
4.1372e-07 -7.0732e-07 5.39284e-05
0.000759158 -9.77236e-06 -3.40512e-07
-9.77236e-06 0.000148001 2.45958e-08
-3.40512e-07 2.45958e-08 3.60132e-05
0.000337763 -5.31381e-05 5.90902e-07
-5.31381e-05 -9.0551e-05 1.69253e-06
5.90902e-07 1.69253e-06 -0.000190485
0.000594779 -6.87726e-07 8.21626e-07
-6.87726e-07 5.12695e-05 1.02754e-06
8.21626e-07 1.02754e-06 -5.7036e-05
0.000306139 -7.6564e-06 -3.43969e-06
-7.6564e-06 -9.22396e-05 -3.60926e-06
-3.43969e-06 -3.60926e-06 -0.000218217
0.000139389 -4.36825e-05 2.42431e-06
-4.36825e-05 -0.000206326 -1.27245e-06
2.42431e-06 -1.27245e-06 -0.000302891
0.000768369 -4.53593e-05 3.45036e-06
-4.53593e-05 0.000107227 -6.37084e-06
3.45036e-06 -6.37084e-06 1.01384e-05
-4.44427e-05 -4.73909e-05 -2.77886e-07
-4.73909e-05 -0.000358571 1.7627e-06
-2.77886e-07 1.7627e-06 -0.000509325
0.000323581 -2.02013e-06 -1.4151e-06
-2.02013e-06 -0.000109515 -7.94454e-07
-1.4151e-06 -7.94454e-07 -0.000224794
0.000729592 -1.75525e-05 2.24173e-07
-1.75525e-05 0.000120564 1.54232e-07
2.24173e-07 1.54232e-07 8.44595e-06
0.000624398 -1.98285e-05 2.68392e-07
-1.98285e-05 6.23144e-05 9.0798e-07
2.68392e-07 9.0798e-07 -4.02642e-05
0.000714219 -3.79539e-05 -1.88823e-07
-3.79539e-05 0.000131252 -6.18613e-08
-1.88823e-07 -6.18613e-08 1.85569e-05
0.000552242 -2.27407e-06 -4.64322e-07
-2.27407e-06 1.77494e-05 1.2138e-06
-4.64322e-07 1.2138e-06 -7.02802e-05
0.000767324 -3.41216e-05 -1.16659e-07
-3.41216e-05 0.000163419 -2.34737e-07
-1.16659e-07 -2.34737e-07 4.81248e-05
0.000658051 -5.17692e-05 -5.42992e-07
-5.17692e-05 8.23226e-05 1.15425e-07
-5.42992e-07 1.15425e-07 -9.39151e-06
0.000541851 4.07751e-05 -6.63487e-07
4.07751e-05 -1.14817e-05 2.6969e-06
-6.63487e-07 2.6969e-06 -7.0269e-05
0.000512741 -7.48468e-05 1.84259e-06
-7.48468e-05 -9.02389e-06 -1.2964e-06
1.84259e-06 -1.2964e-06 -0.000104336
0.00058124 -8.46934e-06 -4.2224e-07
-8.46934e-06 1.24248e-05 9.8218e-09
-4.2224e-07 9.8218e-09 -4.4299e-05
0.00139135 1.8509e-05 -5.07287e-06
1.8509e-05 0.000477376 5.82616e-06
-5.07287e-06 5.82616e-06 0.000463334
0.000570679 -3.1625e-05 1.16489e-06
-3.1625e-05 1.34095e-05 -2.42036e-06
1.16489e-06 -2.42036e-06 -4.52336e-05
0.000936159 6.09064e-06 -2.93581e-06
6.09064e-06 0.000205063 7.30566e-07
-2.93581e-06 7.30566e-07 0.000189672
0.000759815 1.45938e-05 9.89773e-08
1.45938e-05 9.39893e-05 2.06072e-06
9.89773e-08 2.06072e-06 0.000100807
0.000521772 -2.93202e-06 9.54559e-07
-2.93202e-06 -4.30039e-05 -3.94329e-06
9.54559e-07 -3.94329e-06 -6.03471e-05
0.00241997 1.39037e-05 4.68664e-06
1.39037e-05 0.00109624 6.14798e-08
4.68664e-06 6.14798e-08 0.00111093
0.00241049 1.93426e-06 -5.53e-07
1.93426e-06 0.00109045 -5.27908e-06
-5.53e-07 -5.27908e-06 0.00110526
0.00098959 7.22545e-05 -9.09254e-07
7.22545e-05 0.000289449 -4.50598e-07
-9.09254e-07 -4.50598e-07 0.000205281
0.000579305 4.1071e-05 -1.2804e-06
4.1071e-05 1.46115e-05 -2.02426e-06
-1.2804e-06 -2.02426e-06 -2.8591e-05
0.000620808 -1.08231e-05 5.5505e-07
-1.08231e-05 7.2645e-05 8.67226e-07
5.5505e-07 8.67226e-07 -1.21794e-05
0.000575031 3.5718e-06 4.36244e-07
3.5718e-06 -2.14388e-05 -3.24224e-06
4.36244e-07 -3.24224e-06 -2.84826e-05
0.000571382 -1.49741e-05 1.67707e-07
-1.49741e-05 6.64753e-06 -2.14049e-08
1.67707e-07 -2.14049e-08 -3.37401e-05
0.000599691 -3.80133e-05 -1.51624e-06
-3.80133e-05 2.1293e-05 1.15826e-06
-1.51624e-06 1.15826e-06 -1.98003e-05
0.000557398 7.77718e-06 -2.59213e-07
7.77718e-06 -3.19321e-05 -1.96262e-08
-2.59213e-07 -1.96262e-08 -3.89367e-05
0.00199605 1.56319e-05 2.37502e-06
1.56319e-05 0.000840115 -4.58962e-06
2.37502e-06 -4.58962e-06 0.000858879
0.00112672 2.12358e-05 -7.06611e-07
2.12358e-05 0.000312115 1.75433e-06
-7.06611e-07 1.75433e-06 0.000307842
0.00137872 2.4285e-05 4.95885e-07
2.4285e-05 0.000468954 -5.66861e-09
4.95885e-07 -5.66861e-09 0.000483472
0.000854488 2.89336e-05 -1.21735e-05
2.89336e-05 0.000156999 6.98243e-06
-1.21735e-05 6.98243e-06 0.000166272
-0.00887289 0.000553575 0.000252263
0.000553575 -0.00379303 -2.75318e-07
0.000252263 -2.75318e-07 -0.00502125
-0.00224888 -3.27019e-05 0.000364562
-3.27019e-05 0.00279028 -3.88126e-05
0.000364562 -3.88126e-05 0.000730012
0.00445094 0.000246905 -0.000226508
0.000246905 -3.90502e-05 -1.74468e-05
-0.000226508 -1.74468e-05 0.00059921
0.000482333 4.58971e-05 2.6796e-05
4.58971e-05 -0.00110268 -1.85291e-05
2.6796e-05 -1.85291e-05 -0.000992234
0.0014651 -3.19763e-05 1.77597e-05
-3.19763e-05 -0.000234658 1.48874e-06
1.77597e-05 1.48874e-06 -0.000244409
-0.000224534 5.05243e-05 -2.76962e-05
5.05243e-05 -0.00089997 -9.76845e-06
-2.76962e-05 -9.76845e-06 -0.000712628
0.00278738 -0.000151552 -3.21629e-06
-0.000151552 0.00028513 4.61834e-06
-3.21629e-06 4.61834e-06 0.000256178
0.00973603 9.77101e-05 7.24282e-05
9.77101e-05 0.00106499 -3.5927e-05
7.24282e-05 -3.5927e-05 7.43908e-06
-0.00283854 0.00145863 -1.61483e-05
0.00145863 -0.000590067 -2.25897e-05
-1.61483e-05 -2.25897e-05 -0.00223284
0.000224978 0.00286385 -0.000186942
0.00286385 0.00144737 0.000101591
-0.000186942 0.000101591 0.00196735
0.00193314 -0.000312189 6.77343e-05
-0.000312189 -0.000854301 -9.34856e-06
6.77343e-05 -9.34856e-06 -0.000746931
0.013274 -0.000666972 0.000125384
-0.000666972 0.00315539 -3.25161e-05
0.000125384 -3.25161e-05 0.00159214
0.00513942 0.00276781 0.000183839
0.00276781 0.000788532 -0.000328123
0.000183839 -0.000328123 0.00085572
0.00871591 0.00198702 -0.000258401
0.00198702 0.00162585 0.000159802
-0.000258401 0.000159802 0.00123355
0.000745008 0.000100939 -2.43385e-06
0.000100939 0.000175152 1.75716e-06
-2.43385e-06 1.75716e-06 4.10859e-05
0.000465447 1.89431e-05 -1.15573e-07
1.89431e-05 -2.0043e-05 -7.77423e-07
-1.15573e-07 -7.77423e-07 -0.000112827
0.000654973 -9.06067e-05 -8.65286e-07
-9.06067e-05 9.47982e-05 8.39994e-07
-8.65286e-07 8.39994e-07 1.0123e-05
0.000550394 -8.16223e-06 1.28126e-06
-8.16223e-06 3.66666e-05 -6.93098e-07
1.28126e-06 -6.93098e-07 -6.42781e-05
0.00060979 5.69128e-05 1.05537e-06
5.69128e-05 9.29762e-05 1.37332e-06
1.05537e-06 1.37332e-06 -2.18691e-05
0.000740188 4.86985e-05 2.67506e-07
4.86985e-05 0.000172723 3.69085e-06
2.67506e-07 3.69085e-06 3.69669e-05
0.000745009 8.96579e-05 1.41859e-06
8.96579e-05 0.000156849 2.02482e-06
1.41859e-06 2.02482e-06 3.80771e-05
0.000590092 2.55691e-05 3.6708e-06
2.55691e-05 5.0118e-05 6.60921e-07
3.6708e-06 6.60921e-07 -6.86556e-05
0.000715605 -2.84595e-05 1.59595e-06
-2.84595e-05 0.000147719 -9.57329e-07
1.59595e-06 -9.57329e-07 3.29542e-05
0.000517289 -8.96895e-06 -5.49922e-08
-8.96895e-06 5.58732e-06 -6.50189e-07
-5.49922e-08 -6.50189e-07 -8.82613e-05
0.00171612 -0.000236936 2.23505e-05
-0.000236936 -0.000155829 2.99054e-07
2.23505e-05 2.99054e-07 -6.24287e-05
0.00130263 -0.000403933 2.9248e-05
-0.000403933 -0.000394397 -4.67594e-06
2.9248e-05 -4.67594e-06 -0.000372864
0.00022109 -0.000472395 1.67355e-05
-0.000472395 -0.000763121 3.19684e-06
1.67355e-05 3.19684e-06 -0.000905485
8.40049e-06 -0.000387811 8.41596e-06
-0.000387811 -0.000510432 -1.01954e-06
8.41596e-06 -1.01954e-06 -0.000746246
0.00275168 -0.000385125 5.40506e-06
-0.000385125 0.00150533 7.09256e-06
5.40506e-06 7.09256e-06 0.00107921
0.000844513 -0.000222258 5.0854e-06
-0.000222258 0.000301028 -2.69047e-06
5.0854e-06 -2.69047e-06 4.39664e-05
0.00108246 -0.000113512 2.19808e-07
-0.000113512 0.000334282 -6.84723e-07
2.19808e-07 -6.84723e-07 0.000222658
0.000727175 7.16435e-07 -1.82899e-06
7.16435e-07 0.000158642 1.67843e-06
-1.82899e-06 1.67843e-06 3.88672e-05
0.0021762 -0.00032444 7.29603e-06
-0.00032444 4.65934e-05 -4.14962e-06
7.29603e-06 -4.14962e-06 0.000116939
0.000646691 -6.76782e-05 -1.98391e-07
-6.76782e-05 0.00012233 -2.14092e-07
-1.98391e-07 -2.14092e-07 -3.35512e-05
0.000223182 -0.000101278 9.33831e-07
-0.000101278 -8.42991e-05 -2.13882e-06
9.33831e-07 -2.13882e-06 -0.000259955
0.00203711 -0.000556988 7.47028e-06
-0.000556988 0.000154348 -1.3494e-06
7.47028e-06 -1.3494e-06 0.000113843
0.001544 -0.000657274 4.71307e-07
-0.000657274 -7.24951e-06 3.06468e-06
4.71307e-07 3.06468e-06 -0.00017338
0.000319652 -0.000371403 9.29722e-06
-0.000371403 -0.000185108 -5.1685e-06
9.29722e-06 -5.1685e-06 -0.000421698
0.00145482 -0.000194114 -1.157e-06
-0.000194114 0.000804801 -5.43619e-06
-1.157e-06 -5.43619e-06 0.000426395
0.00240006 -0.000520817 -3.87742e-05
-0.000520817 0.000567883 6.83971e-06
-3.87742e-05 6.83971e-06 0.000275772
0.00167309 -0.000525819 -4.51972e-05
-0.000525819 0.000223411 6.49444e-06
-4.51972e-05 6.49444e-06 0.000133339
0.000680101 -0.000300548 -3.83188e-05
-0.000300548 0.000203937 3.63553e-05
-3.83188e-05 3.63553e-05 -8.08598e-05
-0.000864753 -4.81413e-05 -2.58938e-07
-4.81413e-05 -0.000757072 3.42476e-06
-2.58938e-07 3.42476e-06 -0.000916842
0.000171819 -0.000113521 3.12361e-06
-0.000113521 -0.000117499 2.98728e-06
3.12361e-06 2.98728e-06 -0.000301954
0.0007757 -9.36126e-05 4.59069e-06
-9.36126e-05 0.000323196 1.4399e-06
4.59069e-06 1.4399e-06 5.21294e-05
-0.000342891 0.000421666 -0.000196803
0.000421666 0.00457191 6.59206e-06
-0.000196803 6.59206e-06 0.00222717
0.00149208 -0.000579771 1.34002e-05
-0.000579771 0.00143967 2.63907e-05
1.34002e-05 2.63907e-05 0.00141613
0.00131589 0.0008414 -6.42787e-05
0.0008414 -0.00345313 -1.0809e-06
-6.42787e-05 -1.0809e-06 -0.00382202
0.000500602 0.00017148 5.56676e-06
0.00017148 3.55843e-05 2.68157e-06
5.56676e-06 2.68157e-06 -0.000121189
0.00113747 0.000330484 7.96404e-06
0.000330484 0.000306826 1.2393e-05
7.96404e-06 1.2393e-05 5.81393e-05
0.0031121 0.000521444 3.52119e-05
0.000521444 0.000769239 1.29429e-05
3.52119e-05 1.29429e-05 0.000771778
0.0020174 0.000580819 1.85756e-05
0.000580819 0.000625856 1.46604e-05
1.85756e-05 1.46604e-05 0.000312418
0.00798199 -0.001149 8.66418e-05
-0.001149 0.00278802 4.42965e-05
8.66418e-05 4.42965e-05 0.00296718
0.00338837 0.000246534 -0.000188867
0.000246534 -0.00219075 -6.19913e-06
-0.000188867 -6.19913e-06 -0.00404226
0.00311287 0.00151242 -5.28133e-05
0.00151242 -0.000344824 -8.54867e-06
-5.28133e-05 -8.54867e-06 -0.00090095
0.000963325 0.000383865 2.89694e-05
0.000383865 0.00011653 -2.61037e-05
2.89694e-05 -2.61037e-05 0.000110832
-0.00307125 -0.00135891 -0.000165148
-0.00135891 -0.000539132 -0.000179287
-0.000165148 -0.000179287 -0.0013739
-0.000906598 -0.00118569 -0.000167388
-0.00118569 0.00211936 -4.0799e-05
-0.000167388 -4.0799e-05 -0.000758849
0.0115646 -0.00244665 0.000292142
-0.00244665 0.00188991 0.000202112
0.000292142 0.000202112 0.00253498
0.000642128 0.000151809 8.32427e-06
0.000151809 0.00013503 -2.64259e-06
8.32427e-06 -2.64259e-06 -1.46605e-05
-0.00264346 0.000168426 -0.000106884
0.000168426 0.00271852 -2.69739e-05
-0.000106884 -2.69739e-05 -0.000218836
0.00388661 0.000474647 -2.46181e-05
0.000474647 0.00211873 -9.83379e-05
-2.46181e-05 -9.83379e-05 -0.00140811
0.00131139 0.000476359 -3.54601e-06
0.000476359 9.28825e-05 4.89127e-06
-3.54601e-06 4.89127e-06 5.73164e-05
0.000566486 0.000330703 5.48109e-06
0.000330703 9.70065e-05 2.71982e-06
5.48109e-06 2.71982e-06 -0.000161792
-0.000409265 0.000371351 7.64488e-06
0.000371351 -0.000215262 -4.26489e-05
7.64488e-06 -4.26489e-05 -0.000549151
0.00488366 0.00171821 -6.9131e-06
0.00171821 0.00169974 7.83278e-06
-6.9131e-06 7.83278e-06 0.00116495
0.0133249 0.00130944 6.92853e-05
0.00130944 0.00443282 2.43438e-05
6.92853e-05 2.43438e-05 0.00234931
0.00506726 -0.0017368 3.65625e-05
-0.0017368 0.00027485 -5.35771e-05
3.65625e-05 -5.35771e-05 -0.000878071
0.0106663 -0.00145664 1.15381e-07
-0.00145664 0.00140793 -4.31018e-05
1.15381e-07 -4.31018e-05 0.00266321
0.000538836 0.000218998 -7.88283e-06
0.000218998 0.000124512 -1.26193e-05
-7.88283e-06 -1.26193e-05 -2.0683e-05
0.00297618 0.000128294 -0.000156137
0.000128294 0.00127058 -2.85776e-05
-0.000156137 -2.85776e-05 -0.0009578
7.53998e-05 0.00015941 -3.37786e-05
0.00015941 -1.74304e-05 -0.000108371
-3.37786e-05 -0.000108371 -0.00154865
-0.000939311 0.000107779 -8.91084e-06
0.000107779 -0.000422686 -1.76724e-05
-8.91084e-06 -1.76724e-05 -0.000597358
0.00102741 0.000369371 -5.57591e-05
0.000369371 0.000982494 3.73136e-05
-5.57591e-05 3.73136e-05 0.000253393
0.0104105 0.00178882 4.74873e-05
0.00178882 0.00401139 -7.79459e-08
4.74873e-05 -7.79459e-08 0.000740059
-0.00662655 -0.00252129 -3.73481e-05
-0.00252129 -0.00321504 0.000154011
-3.73481e-05 0.000154011 -0.005801
0.00863838 0.000520142 2.83241e-05
0.000520142 -0.00114293 -0.000211954
2.83241e-05 -0.000211954 0.00110052
0.000900498 0.000127639 1.17718e-06
0.000127639 0.000242086 8.46372e-06
1.17718e-06 8.46372e-06 0.00013307
0.000994145 0.000153698 -6.20667e-06
0.000153698 0.000393417 -1.26163e-06
-6.20667e-06 -1.26163e-06 0.000258023
0.000371385 9.59429e-05 -1.419e-06
9.59429e-05 0.000195097 -6.9743e-06
-1.419e-06 -6.9743e-06 -1.88426e-05
0.000740209 8.01658e-05 -2.52888e-06
8.01658e-05 0.000146799 -1.5943e-06
-2.52888e-06 -1.5943e-06 1.78799e-05
0.000839697 -3.01589e-05 -9.04119e-07
-3.01589e-05 0.000204918 1.78143e-06
-9.04119e-07 1.78143e-06 6.55177e-05
0.000430471 3.65556e-05 1.67725e-06
3.65556e-05 -5.16405e-05 2.09358e-06
1.67725e-06 2.09358e-06 -0.000167526
-0.000321876 2.25715e-05 1.45783e-06
2.25715e-05 -0.000393075 4.32885e-06
1.45783e-06 4.32885e-06 -0.000520707
0.000792739 -8.87872e-06 1.12095e-06
-8.87872e-06 0.000170696 1.49703e-07
1.12095e-06 1.49703e-07 2.9832e-05
0.000812527 2.53874e-05 1.8273e-07
2.53874e-05 0.000196179 -1.21282e-06
1.8273e-07 -1.21282e-06 7.03229e-05
0.000238378 -5.03307e-06 1.30436e-06
-5.03307e-06 0.00010013 2.22066e-06
1.30436e-06 2.22066e-06 -0.000107133
-0.000895319 1.56663e-05 -1.51032e-06
1.56663e-05 -0.000322389 2.20183e-06
-1.51032e-06 2.20183e-06 -0.000634191
0.000821338 2.7304e-06 -2.42079e-06
2.7304e-06 0.000385342 -6.48675e-06
-2.42079e-06 -6.48675e-06 0.000205344
0.000874271 3.35505e-05 -1.74814e-06
3.35505e-05 0.000227249 -3.42997e-06
-1.74814e-06 -3.42997e-06 8.76982e-05
0.000885092 -0.000116807 1.31216e-06
-0.000116807 0.000224948 5.85776e-07
1.31216e-06 5.85776e-07 9.32715e-05
0.000727315 -1.05085e-05 -2.17675e-07
-1.05085e-05 0.000122746 -1.84016e-07
-2.17675e-07 -1.84016e-07 1.33558e-05
0.000546527 -6.25933e-05 -9.50644e-07
-6.25933e-05 4.20464e-05 4.1116e-06
-9.50644e-07 4.1116e-06 -5.52257e-05
0.000425075 -2.92161e-05 2.09478e-06
-2.92161e-05 -3.41712e-05 1.82818e-06
2.09478e-06 1.82818e-06 -0.000151942
0.000695728 -6.5468e-06 2.58923e-07
-6.5468e-06 0.000111169 -1.42967e-07
2.58923e-07 -1.42967e-07 1.0847e-06
0.000559666 -3.69183e-05 -3.38645e-07
-3.69183e-05 4.00018e-05 -3.69443e-07
-3.38645e-07 -3.69443e-07 -5.47508e-05
0.00103476 -3.81373e-05 -1.66379e-06
-3.81373e-05 0.000290174 -3.42052e-06
-1.66379e-06 -3.42052e-06 0.000191468
-4.58715e-05 -3.93588e-05 4.31963e-06
-3.93588e-05 -0.000237989 -4.94726e-06
4.31963e-06 -4.94726e-06 -0.000329032
0.000354303 -0.000114596 1.6161e-07
-0.000114596 -0.00019809 -4.67697e-08
1.6161e-07 -4.67697e-08 -0.000293763
0.00076255 -7.82846e-05 -3.3362e-06
-7.82846e-05 0.00011146 -4.4582e-07
-3.3362e-06 -4.4582e-07 8.79394e-06
0.000448883 -0.000109531 5.15238e-06
-0.000109531 -7.27186e-05 3.71491e-06
5.15238e-06 3.71491e-06 -0.000216625
0.00121661 -0.000264968 -2.07982e-06
-0.000264968 0.000330543 8.80408e-06
-2.07982e-06 8.80408e-06 9.55417e-05
0.00139507 -0.000138376 7.90091e-07
-0.000138376 0.000533809 -9.56141e-07
7.90091e-07 -9.56141e-07 0.000389434
0.000249731 -8.38152e-05 -2.57996e-06
-8.38152e-05 -0.000165168 -5.19287e-06
-2.57996e-06 -5.19287e-06 -0.000318464
0.000672761 -2.14944e-05 -1.41834e-07
-2.14944e-05 8.62032e-05 2.41865e-07
-1.41834e-07 2.41865e-07 -2.77176e-05
0.00032092 -9.97424e-06 -2.04827e-07
-9.97424e-06 -0.000106396 -2.59975e-08
-2.04827e-07 -2.59975e-08 -0.000217688
0.00086924 -3.25418e-05 -7.13251e-07
-3.25418e-05 0.000201693 7.95607e-07
-7.13251e-07 7.95607e-07 8.70371e-05
0.000724596 -4.84031e-05 -5.76955e-07
-4.84031e-05 0.000133365 6.60777e-07
-5.76955e-07 6.60777e-07 1.979e-05
0.000590973 -2.80827e-05 -4.63506e-07
-2.80827e-05 3.40046e-05 1.28077e-06
-4.63506e-07 1.28077e-06 -5.30345e-05
0.000854129 -6.92063e-05 -4.60436e-07
-6.92063e-05 0.000228354 -1.12517e-06
-4.60436e-07 -1.12517e-06 0.000103112
0.000669474 -6.01642e-05 -6.11264e-07
-6.01642e-05 8.87139e-05 -3.91115e-08
-6.11264e-07 -3.91115e-08 -2.19742e-06
0.00056787 2.77652e-05 -2.01294e-06
2.77652e-05 2.59795e-06 2.16501e-06
-2.01294e-06 2.16501e-06 -5.65819e-05
0.000702448 -9.18396e-05 1.94039e-06
-9.18396e-05 0.000111834 -1.50383e-06
1.94039e-06 -1.50383e-06 1.70117e-05
0.000630029 -1.97992e-05 -2.56686e-07
-1.97992e-05 3.6984e-05 5.53176e-08
-2.56686e-07 5.53176e-08 -1.96266e-05
0.00138461 2.91447e-05 -7.91114e-06
2.91447e-05 0.000472431 5.85843e-06
-7.91114e-06 5.85843e-06 0.000457718
0.000598689 -3.84203e-05 2.09936e-06
-3.84203e-05 2.59923e-05 -2.48657e-06
2.09936e-06 -2.48657e-06 -3.28165e-05
0.000944513 1.57342e-05 -3.94566e-06
1.57342e-05 0.000208002 7.10645e-07
-3.94566e-06 7.10645e-07 0.000192011
0.000771257 2.34875e-05 -1.16381e-07
2.34875e-05 0.000102803 2.24235e-06
-1.16381e-07 2.24235e-06 0.000108119
0.000525865 3.36301e-06 5.46236e-07
3.36301e-06 -4.32623e-05 -4.06658e-06
5.46236e-07 -4.06658e-06 -6.05596e-05
0.00157771 2.34757e-05 6.16259e-06
2.34757e-05 0.000588485 -1.49784e-06
6.16259e-06 -1.49784e-06 0.000599052
0.00239567 1.62644e-05 4.66685e-06
1.62644e-05 0.0010816 -5.19592e-06
4.66685e-06 -5.19592e-06 0.00109633
0.000673454 1.61064e-05 1.55609e-06
1.61064e-05 8.92678e-05 -1.15535e-06
1.55609e-06 -1.15535e-06 1.50523e-06
0.000632357 3.73765e-05 -7.52473e-07
3.73765e-05 4.34005e-05 -1.82694e-06
-7.52473e-07 -1.82694e-06 -1.79251e-06
0.000677972 -3.55654e-06 1.2305e-06
-3.55654e-06 9.97355e-05 3.8911e-07
1.2305e-06 3.8911e-07 1.626e-05
0.000561109 -1.65727e-06 5.97723e-07
-1.65727e-06 -2.86909e-05 -3.47305e-06
5.97723e-07 -3.47305e-06 -3.66557e-05
0.000573728 2.99502e-05 9.10313e-08
2.99502e-05 8.96584e-06 -3.50588e-08
9.10313e-08 -3.50588e-08 -3.28825e-05
0.000639103 -9.59034e-05 -3.54763e-06
-9.59034e-05 7.75064e-05 1.28476e-06
-3.54763e-06 1.28476e-06 -2.9654e-06
0.00201266 2.70888e-06 -2.44556e-06
2.70888e-06 0.0008487 -4.72192e-06
-2.44556e-06 -4.72192e-06 0.000867801
0.000555302 2.98085e-06 -1.80781e-07
2.98085e-06 -3.27642e-05 -4.05372e-10
-1.80781e-07 -4.05372e-10 -3.98121e-05
0.000576325 -1.99e-05 -1.65063e-06
-1.99e-05 7.78463e-06 1.57106e-06
-1.65063e-06 1.57106e-06 -3.15226e-05
0.000538516 7.36251e-06 -7.25925e-07
7.36251e-06 -4.33387e-05 3.08855e-06
-7.25925e-07 3.08855e-06 -5.02932e-05
0.00202293 1.71551e-05 -4.13482e-06
1.71551e-05 0.000856508 -5.50082e-08
-4.13482e-06 -5.50082e-08 0.000875106
0.0020028 2.95512e-05 -8.92572e-06
2.95512e-05 0.000846594 4.3148e-06
-8.92572e-06 4.3148e-06 0.00086456
-0.00514206 -0.000586998 -6.75148e-05
-0.000586998 0.00223722 2.58363e-05
-6.75148e-05 2.58363e-05 -0.000448333
-0.000100767 0.000625972 -0.000113959
0.000625972 -0.000244665 2.69915e-05
-0.000113959 2.69915e-05 -0.00100799
0.00326479 -0.000509853 -0.000336875
-0.000509853 0.001136 0.000187006
-0.000336875 0.000187006 -0.00209928
-0.00309207 6.40964e-05 0.000487554
6.40964e-05 0.00283717 -0.000200217
0.000487554 -0.000200217 0.000721696
0.000438241 0.000312975 -1.47269e-05
0.000312975 -0.00128552 -7.33867e-07
-1.47269e-05 -7.33867e-07 -0.00111724
0.00250337 -0.000209084 0.000101636
-0.000209084 3.57181e-05 -7.53918e-06
0.000101636 -7.53918e-06 4.03989e-05
0.00111798 -0.0003895 2.22123e-05
-0.0003895 -0.00250027 -7.45962e-05
2.22123e-05 -7.45962e-05 -0.00418411
0.0121553 0.0014256 -0.000212725
0.0014256 0.0057893 -6.23114e-06
-0.000212725 -6.23114e-06 0.00477782
-0.00662856 0.00325049 -0.000861935
0.00325049 -0.00260285 0.000668976
-0.000861935 0.000668976 -0.00158399
0.00304591 -0.000187052 -7.36982e-07
-0.000187052 -0.000270864 -3.05724e-06
-7.36982e-07 -3.05724e-06 -0.000245202
0.00577891 -0.000713233 6.97495e-05
-0.000713233 -0.00032045 -6.62959e-05
6.97495e-05 -6.62959e-05 -0.00256314
0.0129511 0.00256603 -0.000121867
0.00256603 0.00384383 -9.27e-05
-0.000121867 -9.27e-05 0.00396013
0.00561682 0.00198727 -8.00007e-05
0.00198727 -0.000528834 0.000213117
-8.00007e-05 0.000213117 -0.000904276
0.00246157 -0.0008313 -7.87488e-05
-0.0008313 -0.00121393 2.26274e-05
-7.87488e-05 2.26274e-05 -0.000963283
0.00313434 -0.00131531 0.000226069
-0.00131531 -3.78528e-05 -0.0001521
0.000226069 -0.0001521 -0.00353651
-0.00304371 0.00158398 -7.41122e-05
0.00158398 -0.00341047 -0.000403761
-7.41122e-05 -0.000403761 -0.0040977
0.00502139 0.00100164 -0.000104872
0.00100164 -0.00297571 6.72281e-06
-0.000104872 6.72281e-06 -0.00169236
0.0011667 -4.57665e-05 1.057e-06
-4.57665e-05 0.000448526 6.02253e-06
1.057e-06 6.02253e-06 0.000283912
0.000645313 8.55236e-05 -1.72546e-06
8.55236e-05 0.000105396 -1.45868e-06
-1.72546e-06 -1.45868e-06 -1.90261e-05
0.000611423 7.28016e-05 2.13644e-07
7.28016e-05 6.22901e-05 -1.55192e-06
2.13644e-07 -1.55192e-06 -2.61971e-05
0.000656736 6.14397e-05 4.08839e-06
6.14397e-05 0.000124189 6.12605e-07
4.08839e-06 6.12605e-07 1.00602e-05
0.000620642 5.64794e-05 2.04454e-06
5.64794e-05 8.87371e-05 2.23615e-06
2.04454e-06 2.23615e-06 -6.53513e-05
0.000693898 5.82512e-05 -2.5199e-07
5.82512e-05 0.000142377 1.56013e-06
-2.5199e-07 1.56013e-06 1.25041e-05
0.000570916 3.49602e-05 7.79963e-07
3.49602e-05 5.49013e-05 -5.55643e-07
7.79963e-07 -5.55643e-07 -6.16202e-05
0.000876213 0.000136115 1.78266e-06
0.000136115 0.000245641 2.55356e-06
1.78266e-06 2.55356e-06 0.000102524
0.000841684 8.81528e-05 -1.11481e-07
8.81528e-05 0.00022668 3.47194e-07
-1.11481e-07 3.47194e-07 9.08732e-05
0.000488539 -1.33357e-05 -3.55695e-06
-1.33357e-05 8.27799e-06 -2.43751e-06
-3.55695e-06 -2.43751e-06 -0.000106083
0.000669564 -0.000245414 4.76038e-05
-0.000245414 -0.000735735 -1.82848e-05
4.76038e-05 -1.82848e-05 -0.000644098
0.000949486 -0.000498154 3.79378e-05
-0.000498154 -0.000425734 -4.75796e-06
3.79378e-05 -4.75796e-06 -0.000465941
0.00174898 -0.00068196 1.69286e-05
-0.00068196 8.42919e-05 6.00616e-06
1.69286e-05 6.00616e-06 -7.62026e-05
0.000180004 -0.000412613 1.0745e-05
-0.000412613 -0.000260391 -1.44544e-05
1.0745e-05 -1.44544e-05 -0.00053534
0.0021518 -0.000237907 -2.5727e-06
-0.000237907 0.00113597 1.71884e-05
-2.5727e-06 1.71884e-05 0.000806547
0.000582548 -0.000101865 -1.36429e-06
-0.000101865 0.000132016 8.43671e-07
-1.36429e-06 8.43671e-07 -5.0292e-05
0.000449924 8.17183e-05 -5.88561e-07
8.17183e-05 1.04624e-05 -5.00092e-06
-5.88561e-07 -5.00092e-06 -0.00014858
0.00064822 -6.96806e-05 -6.85964e-07
-6.96806e-05 0.000141802 4.01506e-06
-6.85964e-07 4.01506e-06 -3.91794e-05
0.00125974 -0.000399206 8.2156e-08
-0.000399206 -0.000117578 -1.89433e-06
8.2156e-08 -1.89433e-06 -0.000272517
0.000681654 -3.10468e-05 1.23498e-07
-3.10468e-05 0.000165109 1.93566e-06
1.23498e-07 1.93566e-06 -1.65843e-05
0.00154468 -0.000166309 -1.99272e-07
-0.000166309 0.000770015 -9.26142e-07
-1.99272e-07 -9.26142e-07 0.000492309
0.00170071 -0.000535997 1.13485e-06
-0.000535997 0.000200643 3.02519e-06
1.13485e-06 3.02519e-06 0.000125686
0.00087753 -0.000373553 -1.4175e-05
-0.000373553 0.000273357 4.84341e-06
-1.4175e-05 4.84341e-06 -1.32168e-05
0.00122113 -0.000692794 -1.24634e-06
-0.000692794 -0.000174014 -2.47803e-05
-1.24634e-06 -2.47803e-05 -0.000194532
0.00141756 -0.000308056 -1.55512e-05
-0.000308056 0.00056158 1.35182e-05
-1.55512e-05 1.35182e-05 0.000435751
-0.000554192 -5.312e-05 3.83226e-07
-5.312e-05 -0.000345688 1.68947e-05
3.83226e-07 1.68947e-05 -0.00067744
0.000719798 1.25887e-05 -8.74289e-07
1.25887e-05 0.000155285 -3.68933e-06
-8.74289e-07 -3.68933e-06 -6.16557e-06
0.00077123 3.9639e-05 3.71047e-06
3.9639e-05 0.000303133 1.1581e-06
3.71047e-06 1.1581e-06 6.67535e-05
0.00176144 -4.01494e-05 -2.26262e-05
-4.01494e-05 0.00143186 -9.76831e-06
-2.26262e-05 -9.76831e-06 -0.000755337
-0.00337686 0.000157483 -0.000161491
0.000157483 0.0036975 -6.27007e-06
-0.000161491 -6.27007e-06 0.000867006
-0.0106241 -0.000862341 -0.000354021
-0.000862341 -0.00554106 -1.52629e-06
-0.000354021 -1.52629e-06 -0.00529764
-0.00031161 0.00010959 6.27983e-06
0.00010959 -0.000393702 -1.46976e-06
6.27983e-06 -1.46976e-06 -0.000556192
-0.00070079 0.000210286 4.67089e-07
0.000210286 -0.000556751 6.11885e-06
4.67089e-07 6.11885e-06 -0.000823447
0.00145961 0.000483435 2.5622e-05
0.000483435 0.000161858 8.78041e-06
2.5622e-05 8.78041e-06 0.000136458
-0.00430119 0.000706982 -1.40372e-05
0.000706982 0.00229274 2.50077e-05
-1.40372e-05 2.50077e-05 -0.000625564
0.00174081 0.0011404 -0.000110215
0.0011404 -5.44344e-05 -0.000114978
-0.000110215 -0.000114978 -0.00364556
0.00285422 0.00126973 0.000213828
0.00126973 0.000582879 5.45979e-05
0.000213828 5.45979e-05 0.00023206
2.15746e-05 0.000399255 8.49187e-06
0.000399255 -0.000141173 -3.3298e-05
8.49187e-06 -3.3298e-05 -0.000220047
0.014353 -0.00185546 -2.80208e-05
-0.00185546 0.00417765 -0.000153137
-2.80208e-05 -0.000153137 0.00349022
0.00430893 0.000531442 0.000199536
0.000531442 0.00215559 8.04121e-05
0.000199536 8.04121e-05 -0.00154211
0.0107428 -0.00128525 6.92137e-05
-0.00128525 0.00163311 2.11643e-05
6.92137e-05 2.11643e-05 0.00293251
0.000758369 0.00023327 2.37791e-06
0.00023327 0.000308947 -2.35179e-06
2.37791e-06 -2.35179e-06 0.000154623
0.00368996 0.000159532 1.10125e-05
0.000159532 0.00182145 5.41119e-06
1.10125e-05 5.41119e-06 6.40688e-05
0.000678152 0.000183033 2.33238e-05
0.000183033 4.86498e-05 1.02705e-05
2.33238e-05 1.02705e-05 -0.00153322
-0.000417783 0.000245331 -5.01859e-06
0.000245331 -0.000218107 -1.86306e-06
-5.01859e-06 -1.86306e-06 -0.000438998
0.00184111 0.00068464 -8.51441e-05
0.00068464 0.00109039 -4.0549e-05
-8.51441e-05 -4.0549e-05 0.000147665
0.00270524 0.00206419 9.83999e-05
0.00206419 0.00101671 6.51965e-05
9.83999e-05 6.51965e-05 -0.00243516
0.00661526 0.000190341 -1.19589e-05
0.000190341 -0.0027868 -0.000137806
-1.19589e-05 -0.000137806 -0.000221841
0.00269154 -0.00152524 -4.31947e-05
-0.00152524 0.000961104 -6.29946e-05
-4.31947e-05 -6.29946e-05 -0.00126605
0.000956247 0.000190235 -5.05877e-06
0.000190235 0.000628298 -1.32716e-05
-5.05877e-06 -1.32716e-05 0.000446331
-0.000206847 -3.28528e-05 -8.10771e-07
-3.28528e-05 -5.91338e-05 -3.73148e-06
-8.10771e-07 -3.73148e-06 1.01155e-05
0.00298151 2.85146e-05 4.03691e-05
2.85146e-05 0.000124682 -0.000102996
4.03691e-05 -0.000102996 -0.000956581
0.00513336 0.00104668 0.000112697
0.00104668 -0.00283635 -1.29841e-05
0.000112697 -1.29841e-05 -0.00168506
-0.000951755 0.000118389 2.74054e-06
0.000118389 -1.99061e-05 -2.06873e-05
2.74054e-06 -2.06873e-05 -0.000599652
0.0108646 0.00160941 0.000149981
0.00160941 0.00520438 5.16333e-05
0.000149981 5.16333e-05 0.00124571
-0.00806476 -0.000439443 7.71793e-05
-0.000439443 -0.000133935 0.000240901
7.71793e-05 0.000240901 -0.00238836
0.00244977 0.000278986 1.92656e-05
0.000278986 0.00126039 1.47725e-05
1.92656e-05 1.47725e-05 0.00110577
0.0007896 0.000155961 -5.34452e-06
0.000155961 0.000415928 -2.51901e-06
-5.34452e-06 -2.51901e-06 0.000188903
-0.000178122 7.1236e-05 -2.11474e-06
7.1236e-05 7.49277e-05 -2.07179e-07
-2.11474e-06 -2.07179e-07 -0.000177124
0.000714146 0.000141187 2.92499e-07
0.000141187 0.000136795 3.59371e-08
2.92499e-07 3.59371e-08 -1.11944e-05
0.000541029 6.38393e-05 1.18058e-06
6.38393e-05 3.16922e-05 2.21727e-06
1.18058e-06 2.21727e-06 -9.02746e-05
0.000490534 6.88041e-06 7.28172e-06
6.88041e-06 0.000277237 5.47462e-06
7.28172e-06 5.47462e-06 4.685e-05
0.00063256 4.47374e-05 -2.31221e-07
4.47374e-05 8.01327e-05 -4.36113e-07
-2.31221e-07 -4.36113e-07 -5.19821e-05
0.000769761 -1.51188e-05 -2.15441e-06
-1.51188e-05 0.000357326 -2.2627e-06
-2.15441e-06 -2.2627e-06 0.000174895
-0.000417222 3.68365e-05 4.11661e-06
3.68365e-05 -5.43309e-05 5.50166e-06
4.11661e-06 5.50166e-06 -0.00036991
0.000569705 -4.69253e-07 -5.98134e-06
-4.69253e-07 0.00038643 -5.55407e-06
-5.98134e-06 -5.55407e-06 0.000220907
0.000238018 -3.97535e-05 -2.54817e-06
-3.97535e-05 1.99182e-05 -7.33704e-06
-2.54817e-06 -7.33704e-06 -0.000135002
0.000590416 -5.61594e-05 2.89131e-06
-5.61594e-05 5.07428e-05 4.46977e-06
2.89131e-06 4.46977e-06 -5.76345e-05
0.000812612 -8.1494e-06 -1.0221e-06
-8.1494e-06 0.00017966 -2.41223e-07
-1.0221e-06 -2.41223e-07 6.82457e-05
0.00107194 -3.7338e-05 -8.49563e-06
-3.7338e-05 0.000340421 5.91972e-06
-8.49563e-06 5.91972e-06 0.000246671
0.000682003 -5.26803e-05 4.3237e-06
-5.26803e-05 0.000174467 -5.52384e-07
4.3237e-06 -5.52384e-07 8.45832e-05
0.00056206 -2.78321e-05 -1.29513e-06
-2.78321e-05 1.86767e-05 3.17471e-08
-1.29513e-06 3.17471e-08 -8.1055e-05
0.000801619 -0.000102964 2.26425e-06
-0.000102964 0.000192487 -1.80494e-07
2.26425e-06 -1.80494e-07 8.96978e-05
0.000372446 -9.85817e-05 -2.91741e-06
-9.85817e-05 -0.000147416 -9.17163e-07
-2.91741e-06 -9.17163e-07 -0.000226736
-0.000433033 -0.00016219 7.4579e-06
-0.00016219 -0.00059118 3.07693e-06
7.4579e-06 3.07693e-06 -0.000778267
0.000803352 -0.000110698 5.12245e-07
-0.000110698 0.000143302 8.84361e-07
5.12245e-07 8.84361e-07 3.48085e-05
0.0012165 -0.000191383 -8.01694e-07
-0.000191383 0.000369317 3.36241e-06
-8.01694e-07 3.36241e-06 0.000207635
0.00103993 -0.000285271 -4.98415e-06
-0.000285271 0.000184079 5.1695e-06
-4.98415e-06 5.1695e-06 -5.75434e-05
0.000968326 -0.000254433 -5.15445e-06
-0.000254433 0.000133631 3.27014e-07
-5.15445e-06 3.27014e-07 -0.000102597
0.00104598 -0.000203195 -2.78904e-06
-0.000203195 0.000342067 5.93672e-06
-2.78904e-06 5.93672e-06 0.000150506
0.000320277 -0.000169842 2.64923e-06
-0.000169842 -0.000196711 -8.56934e-08
2.64923e-06 -8.56934e-08 -0.000411359
0.000895885 -8.7337e-05 9.9457e-07
-8.7337e-05 0.00023818 -8.52103e-07
9.9457e-07 -8.52103e-07 0.000103253
0.00105848 -0.000128898 -1.74922e-06
-0.000128898 0.000346894 -3.98778e-07
-1.74922e-06 -3.98778e-07 0.000197452
0.000419544 -0.000109266 5.13106e-06
-0.000109266 -4.71446e-05 -1.23996e-05
5.13106e-06 -1.23996e-05 -0.000199959
0.000996585 -4.15817e-05 3.08527e-07
-4.15817e-05 0.000267171 -1.30126e-08
3.08527e-07 -1.30126e-08 0.000154701
0.000435189 -1.99859e-05 4.33638e-07
-1.99859e-05 -3.66268e-05 -1.7749e-07
4.33638e-07 -1.7749e-07 -0.0001504
0.000614466 -1.75526e-05 -2.58655e-07
-1.75526e-05 4.66339e-05 9.95486e-07
-2.58655e-07 9.95486e-07 -4.61117e-05
0.000794468 -6.77105e-05 -3.75165e-07
-6.77105e-05 0.000185806 -1.43714e-07
-3.75165e-07 -1.43714e-07 6.20432e-05
0.000667629 -4.28128e-05 -7.85941e-08
-4.28128e-05 8.86545e-05 3.99449e-08
-7.85941e-08 3.99449e-08 -5.94035e-06
0.000573019 2.7051e-05 -9.29705e-08
2.7051e-05 1.03361e-05 2.31787e-06
-9.29705e-08 2.31787e-06 -5.35797e-05
0.000732211 -7.57489e-05 4.5211e-07
-7.57489e-05 0.000134309 -1.60933e-06
4.5211e-07 -1.60933e-06 3.68951e-05
0.000593049 1.8733e-05 -1.13071e-06
1.8733e-05 1.84691e-05 -8.25681e-08
-1.13071e-06 -8.25681e-08 -4.17083e-05
0.00134645 4.34063e-05 -8.89005e-06
4.34063e-05 0.000452316 3.92843e-06
-8.89005e-06 3.92843e-06 0.000436468
0.000632608 -3.12719e-05 2.34731e-06
-3.12719e-05 4.01837e-05 -2.53599e-06
2.34731e-06 -2.53599e-06 -1.76254e-05
0.000929833 2.60359e-05 -4.93697e-06
2.60359e-05 0.000198569 6.26163e-07
-4.93697e-06 6.26163e-07 0.000181889
0.000801049 3.26161e-05 -7.76253e-07
3.26161e-05 0.000123344 2.34506e-06
-7.76253e-07 2.34506e-06 0.00012732
0.000514255 1.16545e-05 8.02805e-07
1.16545e-05 -5.28062e-05 -4.3631e-06
8.02805e-07 -4.3631e-06 -7.05461e-05
0.001594 3.54581e-05 8.44047e-06
3.54581e-05 0.000600067 -1.347e-06
8.44047e-06 -1.347e-06 0.000609399
0.00238907 3.15747e-05 8.12493e-06
3.15747e-05 0.00107863 -5.1816e-06
8.12493e-06 -5.1816e-06 0.00109277
0.000418374 7.76404e-06 1.03368e-06
7.76404e-06 -5.2612e-05 -2.92183e-07
1.03368e-06 -2.92183e-07 -0.000160512
0.000293218 6.95159e-06 1.69809e-08
6.95159e-06 -0.000160443 -3.1804e-06
1.69809e-08 -3.1804e-06 -0.000213956
0.000716128 2.54666e-05 6.20496e-09
2.54666e-05 0.000121222 1.26119e-07
6.20496e-09 1.26119e-07 2.84482e-05
0.000556567 -5.76661e-06 4.90734e-07
-5.76661e-06 -3.1368e-05 -3.60241e-06
4.90734e-07 -3.60241e-06 -4.10368e-05
0.000423388 1.24334e-06 1.25125e-06
1.24334e-06 -8.38123e-05 -5.91559e-08
1.25125e-06 -5.91559e-08 -0.000129149
0.000415916 -8.5544e-05 -1.58137e-06
-8.5544e-05 -5.67175e-05 5.96049e-07
-1.58137e-06 5.96049e-07 -0.00014284
0.00208391 -1.06899e-05 -6.91833e-06
-1.06899e-05 0.000891654 -4.76627e-06
-6.91833e-06 -4.76627e-06 0.000910189
0.000555297 -1.82527e-06 -1.01736e-07
-1.82527e-06 -3.24608e-05 -4.75559e-08
-1.01736e-07 -4.75559e-08 -4.0305e-05
0.000548744 -1.85802e-05 -1.83023e-06
-1.85802e-05 -8.01411e-06 1.86604e-06
-1.83023e-06 1.86604e-06 -4.84951e-05
0.00202856 4.11983e-06 -4.0293e-06
4.11983e-06 0.000858484 1.552e-08
-4.0293e-06 1.552e-08 0.000877488
0.000537926 2.63553e-06 -6.2089e-07
2.63553e-06 -4.2672e-05 3.22268e-06
-6.2089e-07 3.22268e-06 -4.97351e-05
0.00201335 1.85395e-05 -1.93728e-06
1.85395e-05 0.000850832 4.51319e-06
-1.93728e-06 4.51319e-06 0.000869401
0.000280526 -0.00024834 -0.000121869
-0.00024834 -0.000250209 3.25901e-05
-0.000121869 3.25901e-05 -0.0019982
0.00131576 0.000207595 -3.89757e-05
0.000207595 0.00413793 -4.6819e-06
-3.89757e-05 -4.6819e-06 0.00231147
0.00106378 -0.000341513 -0.000352399
-0.000341513 0.00231995 2.64954e-05
-0.000352399 2.64954e-05 0.00120045
0.000749834 8.95703e-05 2.37471e-06
8.95703e-05 0.000147022 1.05005e-06
2.37471e-06 1.05005e-06 1.00022e-05
0.00351373 -0.000330355 -1.9925e-05
-0.000330355 0.00247073 0.000114047
-1.9925e-05 0.000114047 0.000978434
0.00370753 -0.000589583 -0.000137417
-0.000589583 0.00136916 9.44488e-06
-0.000137417 9.44488e-06 -0.0019441
0.00331909 0.000945689 0.000238364
0.000945689 0.00406264 -0.000187674
0.000238364 -0.000187674 0.00242258
0.00460278 -0.000327413 4.23333e-05
-0.000327413 0.000440186 -3.75705e-05
4.23333e-05 -3.75705e-05 0.00019343
0.0120017 -0.000717821 0.00014425
-0.000717821 0.00266901 -7.18582e-05
0.00014425 -7.18582e-05 0.0010659
-0.000485177 0.00216566 -0.000201512
0.00216566 -0.00321293 0.000197839
-0.000201512 0.000197839 -0.00290221
0.00666427 0.00210213 3.6952e-05
0.00210213 0.000793429 6.58303e-05
3.6952e-05 6.58303e-05 3.60998e-05
0.00521046 -0.000992101 -9.8973e-05
-0.000992101 0.0002063 -2.26523e-06
-9.8973e-05 -2.26523e-06 -2.36193e-05
0.0121091 -0.00124419 5.59296e-05
-0.00124419 0.00405969 -1.66563e-05
5.59296e-05 -1.66563e-05 0.00188542
0.0075414 0.00138485 8.91255e-05
0.00138485 0.00092656 -0.000156355
8.91255e-05 -0.000156355 4.03637e-05
0.00678425 0.000930184 3.86095e-06
0.000930184 -0.00149134 1.37736e-05
3.86095e-06 1.37736e-05 -0.000585603
0.0027533 -0.00137842 1.10159e-05
-0.00137842 -0.000122618 1.01954e-05
1.10159e-05 1.01954e-05 -0.00077868
0.0116813 -0.0018618 0.000107848
-0.0018618 0.00532649 -5.88411e-05
0.000107848 -5.88411e-05 0.00152526
0.00431209 -8.22089e-05 8.78667e-05
-8.22089e-05 0.00099194 -0.00023469
8.78667e-05 -0.00023469 9.35821e-05
0.00832428 0.000496083 -5.9284e-05
0.000496083 -0.00105469 0.000132859
-5.9284e-05 0.000132859 0.000995279
0.000776526 -2.19977e-05 2.22615e-06
-2.19977e-05 0.000201567 2.95576e-06
2.22615e-06 2.95576e-06 3.54507e-05
0.000861296 -7.3926e-05 -3.9986e-07
-7.3926e-05 0.000268696 -3.38608e-08
-3.9986e-07 -3.38608e-08 0.000100268
0.000777751 0.000108633 -2.2315e-07
0.000108633 0.000189537 -3.01402e-06
-2.2315e-07 -3.01402e-06 6.22361e-05
0.000718051 5.94393e-05 1.19583e-06
5.94393e-05 0.000116931 3.67736e-06
1.19583e-06 3.67736e-06 -1.69787e-05
0.000765919 0.000105162 -3.87883e-07
0.000105162 0.000185017 7.27214e-07
-3.87883e-07 7.27214e-07 3.0138e-05
0.000892996 6.39793e-05 -2.65687e-06
6.39793e-05 0.000260526 -1.09187e-06
-2.65687e-06 -1.09187e-06 0.000132363
0.000999491 0.000129928 -1.02477e-06
0.000129928 0.000318083 -6.97678e-08
-1.02477e-06 -6.97678e-08 0.000174897
0.00099194 0.000138567 6.94922e-07
0.000138567 0.000328934 2.10238e-06
6.94922e-07 2.10238e-06 0.000186186
0.000502409 -0.000298051 6.10834e-05
-0.000298051 -0.000584859 -2.43805e-05
6.10834e-05 -2.43805e-05 -0.000580714
0.00191303 -0.000560131 1.236e-05
-0.000560131 0.000270971 -9.22138e-06
1.236e-05 -9.22138e-06 0.000216564
0.00095106 -0.000191232 -8.49138e-07
-0.000191232 0.000330783 -5.95048e-06
-8.49138e-07 -5.95048e-06 0.000138267
0.00132953 -0.000446242 1.92103e-05
-0.000446242 0.00050309 -2.03791e-05
1.92103e-05 -2.03791e-05 0.000212663
0.0022661 -0.000245707 -6.2912e-06
-0.000245707 0.00117925 2.06966e-06
-6.2912e-06 2.06966e-06 0.000898249
0.00107101 -8.73804e-05 -1.83863e-06
-8.73804e-05 0.000384618 -8.79687e-06
-1.83863e-06 -8.79687e-06 0.000202447
0.000454684 -1.77303e-05 1.00503e-06
-1.77303e-05 4.64962e-06 3.24735e-06
1.00503e-06 3.24735e-06 -0.000158689
0.000268741 -0.000620089 -3.97788e-06
-0.000620089 -0.000702902 -1.05273e-06
-3.97788e-06 -1.05273e-06 -0.000674759
0.00127697 4.43952e-05 2.43134e-07
4.43952e-05 0.000601596 6.32661e-07
2.43134e-07 6.32661e-07 0.00035483
0.000873324 -0.000187374 -9.69414e-06
-0.000187374 0.000408801 2.9259e-06
-9.69414e-06 2.9259e-06 0.000107331
0.000513468 -0.000230034 1.64675e-05
-0.000230034 3.59732e-05 2.57632e-06
1.64675e-05 2.57632e-06 -4.25307e-05
0.0011272 8.35318e-05 1.62066e-06
8.35318e-05 0.000370089 -1.99022e-06
1.62066e-06 -1.99022e-06 0.000231357
0.00117797 -0.000550638 1.47853e-05
-0.000550638 -6.04245e-06 -3.83803e-05
1.47853e-05 -3.83803e-05 0.000108398
0.000172185 -0.000145134 7.19132e-06
-0.000145134 0.000122827 1.87824e-05
7.19132e-06 1.87824e-05 -1.92175e-05
-0.00043912 4.97789e-05 5.99201e-06
4.97789e-05 -0.0001053 6.89428e-06
5.99201e-06 6.89428e-06 -0.000545297
0.00132589 0.000204244 2.56702e-06
0.000204244 0.000570546 -3.78996e-06
2.56702e-06 -3.78996e-06 0.000387314
9.29971e-05 4.87117e-06 3.82392e-06
4.87117e-06 0.000766393 -7.70809e-06
3.82392e-06 -7.70809e-06 0.000132129
0.00117188 -4.18852e-05 9.29287e-05
-4.18852e-05 0.0011142 -1.47438e-05
9.29287e-05 -1.47438e-05 -0.0010896
-0.00653379 -8.40561e-05 -0.000167172
-8.40561e-05 0.00292771 9.3452e-06
-0.000167172 9.3452e-06 -0.000461372
0.00113184 0.000251006 1.46296e-05
0.000251006 0.000595846 4.71789e-06
1.46296e-05 4.71789e-06 0.000431829
-0.00147567 0.000307509 3.73761e-06
0.000307509 -0.000815136 9.69736e-06
3.73761e-06 9.69736e-06 -0.00111096
0.00441815 0.000154549 0.000117551
0.000154549 0.00232053 9.87776e-06
0.000117551 9.87776e-06 0.00102798
0.0076527 0.00121381 0.000177332
0.00121381 0.0034274 9.33286e-05
0.000177332 9.33286e-05 -0.000312112
0.00339094 0.00105548 -0.000107522
0.00105548 0.00172091 -8.77371e-05
-0.000107522 -8.77371e-05 0.000606704
0.00489311 -0.0010449 -4.19386e-05
-0.0010449 0.00189464 -0.000259404
-4.19386e-05 -0.000259404 7.29413e-06
0.00121172 0.000203959 6.24914e-05
0.000203959 0.000140917 0.000135104
6.24914e-05 0.000135104 -0.00142334
0.00477055 -7.4342e-05 -2.07744e-05
-7.4342e-05 -0.004512 -0.000143194
-2.07744e-05 -0.000143194 -0.00151402
0.000755996 0.000215586 -4.63667e-07
0.000215586 0.000513899 -2.67364e-06
-4.63667e-07 -2.67364e-06 0.000312425
-0.000175918 -4.07138e-05 6.76438e-07
-4.07138e-05 -5.5849e-05 -8.51717e-07
6.76438e-07 -8.51717e-07 -1.99947e-05
0.00301394 6.01729e-05 4.74508e-05
6.01729e-05 0.000255757 1.94123e-05
4.74508e-05 1.94123e-05 -0.000373376
-0.00103058 0.00019271 -8.79012e-06
0.00019271 -0.00035017 -6.08098e-06
-8.79012e-06 -6.08098e-06 -0.000822607
0.00689575 0.00102451 -2.9157e-06
0.00102451 -0.00146884 -1.26203e-05
-2.9157e-06 -1.26203e-05 -0.000613424
0.00474669 0.00111673 0.000134782
0.00111673 0.00320017 7.16195e-05
0.000134782 7.16195e-05 -0.00099571
0.00391907 0.000508143 -9.00818e-05
0.000508143 0.00258005 6.41564e-06
-9.00818e-05 6.41564e-06 0.000940096
0.000228957 0.000217345 -1.25568e-05
0.000217345 0.000242647 -1.72079e-05
-1.25568e-05 -1.72079e-05 -5.03437e-05
0.00157863 8.40243e-05 1.24298e-05
8.40243e-05 -0.000299393 -1.65717e-05
1.24298e-05 -1.65717e-05 -4.32137e-05
0.00347187 -0.000278914 2.63712e-05
-0.000278914 0.00240713 -0.000118183
2.63712e-05 -0.000118183 0.000958123
0.00889838 0.00211309 0.000238649
0.00211309 0.00146845 -0.000157307
0.000238649 -0.000157307 0.00125436
0.00642786 -0.00014432 -9.79906e-05
-0.00014432 0.00173887 0.000234586
-9.79906e-05 0.000234586 0.000964795
0.000984898 0.00018696 3.59618e-06
0.00018696 0.000292676 -7.85001e-05
3.59618e-06 -7.85001e-05 9.73805e-05
-0.000426034 0.00118515 0.000140175
0.00118515 0.00298023 3.09039e-05
0.000140175 3.09039e-05 -0.00328049
0.00134354 0.000235503 3.71584e-06
0.000235503 0.000691503 1.9366e-05
3.71584e-06 1.9366e-05 0.000465555
0.000235763 0.000112266 2.61038e-06
0.000112266 0.000301468 9.71456e-07
2.61038e-06 9.71456e-07 4.69765e-05
0.000874772 -3.87585e-06 -9.4006e-06
-3.87585e-06 0.000714969 -1.07114e-05
-9.4006e-06 -1.07114e-05 0.000544135
0.000316847 -2.74723e-05 1.18159e-06
-2.74723e-05 -0.000121158 3.63884e-06
1.18159e-06 3.63884e-06 -0.000239613
0.000781643 -1.22587e-05 1.97329e-06
-1.22587e-05 0.000362926 4.41399e-06
1.97329e-06 4.41399e-06 0.000182482
0.00060606 -1.01255e-05 2.72943e-06
-1.01255e-05 0.000493244 -5.49111e-06
2.72943e-06 -5.49111e-06 0.000197828
0.000482421 -5.54235e-05 4.59943e-07
-5.54235e-05 0.000131004 -1.01667e-07
4.59943e-07 -1.01667e-07 -1.79503e-07
3.21849e-05 -1.62399e-05 7.48884e-07
-1.62399e-05 7.6426e-05 1.95823e-06
7.48884e-07 1.95823e-06 -9.73021e-05
0.00137145 -0.000235865 7.19856e-06
-0.000235865 0.000764213 -1.09622e-05
7.19856e-06 -1.09622e-05 0.000561287
0.0013082 -7.32101e-05 -2.01988e-06
-7.32101e-05 0.000528264 4.3598e-06
-2.01988e-06 4.3598e-06 0.000439378
-5.6765e-05 -1.06526e-05 -6.34351e-07
-1.06526e-05 -0.000336816 1.75723e-06
-6.34351e-07 1.75723e-06 -0.000436316
0.00144941 -0.000168724 1.81234e-06
-0.000168724 0.000561159 2.05223e-06
1.81234e-06 2.05223e-06 0.000444635
-0.00101628 -0.000120011 5.85996e-06
-0.000120011 -0.000761273 2.14044e-06
5.85996e-06 2.14044e-06 -0.000990314
0.000310403 -7.87303e-05 -3.9594e-06
-7.87303e-05 -0.000144313 6.21751e-07
-3.9594e-06 6.21751e-07 -0.000207155
-4.69925e-05 -0.000176107 3.11741e-06
-0.000176107 -0.000375343 -1.14128e-06
3.11741e-06 -1.14128e-06 -0.000547913
0.00114383 -0.000329209 9.39812e-06
-0.000329209 0.000213704 -4.71309e-06
9.39812e-06 -4.71309e-06 -6.99475e-05
0.00135389 -0.000366833 -4.28919e-06
-0.000366833 0.000226217 2.67428e-06
-4.28919e-06 2.67428e-06 -5.81832e-05
0.00197595 -0.000272852 -1.44459e-06
-0.000272852 0.000807341 1.84622e-07
-1.44459e-06 1.84622e-07 0.000627492
0.00104377 -0.000286112 1.35548e-07
-0.000286112 0.000159851 3.11765e-07
1.35548e-07 3.11765e-07 -9.21187e-05
0.00239477 -0.0004073 2.85038e-06
-0.0004073 0.000937652 -1.48186e-06
2.85038e-06 -1.48186e-06 0.000687152
0.000187595 -0.000143334 -1.94268e-06
-0.000143334 -0.000231092 3.19142e-06
-1.94268e-06 3.19142e-06 -0.000439165
0.00102423 -0.000255139 -5.18474e-07
-0.000255139 0.000174626 -3.76383e-07
-5.18474e-07 -3.76383e-07 -5.84481e-05
0.000507144 -7.86077e-05 1.572e-07
-7.86077e-05 2.00476e-05 -1.61701e-06
1.572e-07 -1.61701e-06 -0.0001395
0.00105711 -0.00021842 -4.32083e-06
-0.00021842 0.000353012 2.55217e-06
-4.32083e-06 2.55217e-06 0.000155784
-0.000561565 -7.65409e-05 -2.32373e-06
-7.65409e-05 -0.000713649 -4.4231e-06
-2.32373e-06 -4.4231e-06 -0.000909507
0.000489682 -1.41541e-06 9.04375e-07
-1.41541e-06 -1.99344e-05 1.36192e-06
9.04375e-07 1.36192e-06 -0.000127478
0.000654752 -6.94968e-05 4.41087e-07
-6.94968e-05 0.000104743 1.63746e-08
4.41087e-07 1.63746e-08 -3.07253e-05
0.000745958 -0.000121036 4.74997e-06
-0.000121036 0.00017336 -2.96413e-06
4.74997e-06 -2.96413e-06 1.79842e-05
0.000609132 -3.11786e-05 3.39559e-07
-3.11786e-05 6.83942e-05 -3.5197e-07
3.39559e-07 -3.5197e-07 -4.80375e-05
0.00068557 -2.90963e-05 -6.42125e-07
-2.90963e-05 9.99965e-05 -7.93989e-08
-6.42125e-07 -7.93989e-08 -1.63116e-06
0.000550894 3.10781e-05 2.6019e-08
3.10781e-05 -2.41008e-06 2.98617e-06
2.6019e-08 2.98617e-06 -7.15095e-05
0.000770228 -5.58416e-05 3.28954e-07
-5.58416e-05 0.000158022 -1.07716e-06
3.28954e-07 -1.07716e-06 5.63565e-05
0.000595272 2.39749e-05 -1.02165e-06
2.39749e-05 2.20603e-05 -1.81666e-07
-1.02165e-06 -1.81666e-07 -4.13411e-05
0.00052835 4.01434e-05 -9.2933e-07
4.01434e-05 -3.54744e-05 4.56747e-06
-9.2933e-07 4.56747e-06 -5.77186e-05
0.000668738 -2.31434e-05 2.14419e-06
-2.31434e-05 5.91451e-05 -2.38488e-06
2.14419e-06 -2.38488e-06 1.28055e-06
0.000536668 2.98456e-05 1.83037e-07
2.98456e-05 -3.71946e-05 -1.12099e-09
1.83037e-07 -1.12099e-09 -5.68997e-05
0.0023219 7.91128e-05 -3.78054e-06
7.91128e-05 0.00104822 2.02974e-06
-3.78054e-06 2.02974e-06 0.00105699
0.000515262 2.13847e-05 9.27325e-07
2.13847e-05 -5.19598e-05 -4.49746e-06
9.27325e-07 -4.49746e-06 -7.06883e-05
0.00160432 4.74811e-05 1.00071e-05
4.74811e-05 0.000609565 -1.14265e-06
1.00071e-05 -1.14265e-06 0.000617352
0.00240634 4.64801e-05 1.31442e-05
4.64801e-05 0.00109134 -5.03607e-06
1.31442e-05 -5.03607e-06 0.00110428
0.00036457 6.96851e-06 8.56681e-07
6.96851e-06 -9.97779e-05 -1.61943e-06
8.56681e-07 -1.61943e-06 -0.000202583
0.000313993 2.76034e-06 3.61904e-07
2.76034e-06 -0.000150517 -2.76986e-06
3.61904e-07 -2.76986e-06 -0.000211536
0.000549117 1.83563e-05 -4.51485e-07
1.83563e-05 2.48123e-05 -1.12662e-06
-4.51485e-07 -1.12662e-06 -7.99826e-05
0.000561597 -1.11291e-05 7.78514e-07
-1.11291e-05 -2.73499e-05 -3.88193e-06
7.78514e-07 -3.88193e-06 -3.97344e-05
0.00027782 5.69881e-06 -4.96483e-07
5.69881e-06 -0.000170178 -1.33666e-06
-4.96483e-07 -1.33666e-06 -0.000224736
0.000717476 3.47814e-05 -3.23397e-07
3.47814e-05 0.000131281 1.42495e-06
-3.23397e-07 1.42495e-06 3.27181e-05
0.0021288 -2.38966e-05 -1.18487e-05
-2.38966e-05 0.000919203 -4.69238e-06
-1.18487e-05 -4.69238e-06 0.000936913
0.000551702 -6.43508e-06 -2.65426e-07
-6.43508e-06 -3.44547e-05 -5.21591e-08
-2.65426e-07 -5.21591e-08 -4.39345e-05
0.000240563 5.59067e-06 7.69377e-07
5.59067e-06 -0.000191654 1.70793e-06
7.69377e-07 1.70793e-06 -0.000239806
0.00205581 -9.16496e-06 -3.72803e-06
-9.16496e-06 0.00087447 4.46264e-08
-3.72803e-06 4.46264e-08 0.000893273
0.000545868 -1.97084e-06 -6.17622e-07
-1.97084e-06 -3.83212e-05 3.42159e-06
-6.17622e-07 3.42159e-06 -4.6003e-05
0.00204903 5.60436e-06 2.74637e-06
5.60436e-06 0.000871043 4.6569e-06
2.74637e-06 4.6569e-06 0.000889874
0.000652952 -5.04231e-06 2.40477e-05
-5.04231e-06 0.000573438 5.67287e-06
2.40477e-05 5.67287e-06 0.000499222
0.000553753 -0.000169356 -6.00298e-06
-0.000169356 8.28926e-05 -1.40754e-05
-6.00298e-06 -1.40754e-05 -0.00185942
0.00126514 0.000113346 3.02372e-05
0.000113346 0.00409593 -2.64573e-05
3.02372e-05 -2.64573e-05 0.00246135
0.000740606 9.65498e-05 -1.17392e-07
9.65498e-05 0.000134104 3.65691e-07
-1.17392e-07 3.65691e-07 5.60795e-06
0.000534445 6.74718e-05 2.16327e-06
6.74718e-05 -5.01478e-06 -1.32733e-07
2.16327e-06 -1.32733e-07 -0.000125175
0.000964736 0.000137999 3.32933e-06
0.000137999 0.000268342 3.14569e-06
3.32933e-06 3.14569e-06 0.000130693
0.00307726 -5.94501e-05 1.30593e-06
-5.94501e-05 -4.00403e-05 0.000181779
1.30593e-06 0.000181779 -0.000885295
0.00349364 -0.000293927 2.32718e-05
-0.000293927 0.00241158 -6.32004e-06
2.32718e-05 -6.32004e-06 0.00114238
0.00415031 -0.000657864 7.21675e-05
-0.000657864 0.00168685 -0.000136582
7.21675e-05 -0.000136582 -0.00180415
0.00655579 -0.00122829 -8.57592e-05
-0.00122829 0.000820275 -7.77242e-06
-8.57592e-05 -7.77242e-06 0.000652756
0.0020932 -0.00120105 -0.000157847
-0.00120105 -0.000335961 9.18784e-05
-0.000157847 9.18784e-05 -0.00303099
0.0134872 0.00196069 0.000120251
0.00196069 0.00486773 5.42664e-05
0.000120251 5.42664e-05 0.00368546
0.00358912 0.000253872 0.000103032
0.000253872 -0.003165 -0.000120124
0.000103032 -0.000120124 -0.00258078
0.00536413 -0.00164383 -2.23036e-05
-0.00164383 0.00111485 6.71726e-06
-2.23036e-05 6.71726e-06 0.000598465
0.00662431 -0.00155589 -3.98245e-05
-0.00155589 0.00298772 2.35481e-05
-3.98245e-05 2.35481e-05 -0.000609505
-0.00322489 0.00159459 -4.45588e-05
0.00159459 0.00057902 -0.000160904
-4.45588e-05 -0.000160904 -0.001873
0.00651036 0.000155566 -2.3042e-05
0.000155566 -0.00282054 6.75711e-05
-2.3042e-05 6.75711e-05 -0.000249721
0.00118591 -0.000909411 -4.65715e-05
-0.000909411 0.000113409 -1.10821e-05
-4.65715e-05 -1.10821e-05 -0.000359302
0.0115206 -0.00175976 -9.73857e-05
-0.00175976 0.00512962 7.45766e-05
-9.73857e-05 7.45766e-05 0.00114778
-0.00815236 -0.00010725 3.73733e-05
-0.00010725 0.000120232 -0.000226908
3.73733e-05 -0.000226908 -0.00243617
0.00531955 -0.00105945 5.08284e-05
-0.00105945 -0.0019749 -4.62574e-06
5.08284e-05 -4.62574e-06 -0.000920601
0.000622274 6.50601e-05 1.74397e-06
6.50601e-05 6.90563e-05 9.10389e-06
1.74397e-06 9.10389e-06 -7.29405e-05
0.000707185 -8.55774e-06 1.38185e-06
-8.55774e-06 0.000157464 -1.14565e-06
1.38185e-06 -1.14565e-06 -1.31315e-05
0.000845217 -9.34831e-05 2.13225e-07
-9.34831e-05 0.000244143 -3.73914e-06
2.13225e-07 -3.73914e-06 7.64537e-05
0.000712697 7.7988e-05 -9.98703e-07
7.7988e-05 0.000114155 -3.32187e-07
-9.98703e-07 -3.32187e-07 -2.28902e-05
0.000768184 0.000119105 4.75756e-07
0.000119105 0.000189556 -1.57258e-06
4.75756e-07 -1.57258e-06 4.09118e-05
0.00109916 0.000141834 -2.63761e-06
0.000141834 0.000382039 -1.42949e-06
-2.63761e-06 -1.42949e-06 0.000235839
-0.000274293 -0.000580506 1.97826e-05
-0.000580506 -0.00101172 9.36169e-06
1.97826e-05 9.36169e-06 -0.00100279
-0.00118897 -0.000161051 1.76081e-05
-0.000161051 -0.000930171 -1.4185e-05
1.76081e-05 -1.4185e-05 -0.000962023
0.000351228 3.50781e-05 -2.27055e-06
3.50781e-05 -5.1865e-05 -3.68506e-06
-2.27055e-06 -3.68506e-06 -0.000221898
0.00157827 -0.000299642 4.05882e-05
-0.000299642 0.000757467 -2.90872e-05
4.05882e-05 -2.90872e-05 0.000472503
0.00149772 3.45679e-06 -4.76176e-06
3.45679e-06 0.000721404 -4.94639e-06
-4.76176e-06 -4.94639e-06 0.000478399
0.000564505 6.119e-05 2.3449e-07
6.119e-05 4.99299e-05 2.37856e-06
2.3449e-07 2.37856e-06 -9.36401e-05
0.000671384 0.000126441 4.62897e-07
0.000126441 0.000184046 -1.70324e-06
4.62897e-07 -1.70324e-06 1.86246e-05
0.000337551 -0.00058461 -1.01418e-06
-0.00058461 -0.000430225 -5.23663e-06
-1.01418e-06 -5.23663e-06 -0.000478039
0.000714338 -1.19698e-05 -1.32852e-06
-1.19698e-05 0.000476361 4.97348e-07
-1.32852e-06 4.97348e-07 0.000134994
3.0013e-05 -0.000127906 1.16963e-06
-0.000127906 0.000106828 -2.87304e-06
1.16963e-06 -2.87304e-06 -8.04823e-05
0.000941478 0.000106803 3.5507e-06
0.000106803 0.000293449 -9.32521e-06
3.5507e-06 -9.32521e-06 0.000166584
-0.00221394 -3.66349e-05 -5.10507e-05
-3.66349e-05 -0.000774805 -1.91601e-05
-5.10507e-05 -1.91601e-05 -0.0012831
-0.000334812 1.47198e-05 2.1212e-05
1.47198e-05 -8.09874e-05 1.95352e-05
2.1212e-05 1.95352e-05 -0.000260228
0.00119122 3.27688e-05 8.46342e-06
3.27688e-05 0.000694654 3.46602e-06
8.46342e-06 3.46602e-06 0.000427667
0.000688777 -3.22173e-06 -1.47084e-06
-3.22173e-06 -0.000286546 1.10966e-06
-1.47084e-06 1.10966e-06 -0.000746951
-0.000136488 6.51307e-06 -1.04526e-05
6.51307e-06 0.000507328 -1.38036e-05
-1.04526e-05 -1.38036e-05 -7.72304e-06
0.000444119 -4.3229e-05 0.000203398
-4.3229e-05 0.000771253 -7.06932e-06
0.000203398 -7.06932e-06 -0.00149102
0.000205634 0.000203453 5.34273e-06
0.000203453 0.0001927 1.73917e-05
5.34273e-06 1.73917e-05 -2.89448e-05
0.000917565 0.000473103 5.88679e-06
0.000473103 0.000210785 -1.13006e-05
5.88679e-06 -1.13006e-05 -0.00014364
-0.000165999 -4.51902e-05 1.16621e-05
-4.51902e-05 -8.85349e-05 9.29294e-07
1.16621e-05 9.29294e-07 -9.18287e-05
-0.00317811 0.000592187 4.40271e-05
0.000592187 0.000633675 8.7334e-05
4.40271e-05 8.7334e-05 -0.0035174
-0.00935819 0.000693717 -0.000105827
0.000693717 -0.00357501 -0.000285841
-0.000105827 -0.000285841 -0.00608092
0.00287676 7.44092e-05 4.26299e-05
7.44092e-05 0.000384139 7.44975e-05
4.26299e-05 7.44975e-05 0.000105124
0.00364762 0.000330363 -0.000106569
0.000330363 -0.0030685 0.000121145
-0.000106569 0.000121145 -0.00254669
0.000563813 0.000205734 5.80935e-06
0.000205734 0.000435438 -9.86424e-07
5.80935e-06 -9.86424e-07 0.000184265
0.00135282 1.40059e-05 1.69536e-05
1.40059e-05 -0.0004228 -2.81453e-05
1.69536e-05 -2.81453e-05 -0.000139257
0.00351234 -0.000220169 -2.26637e-05
-0.000220169 0.00239782 5.9908e-06
-2.26637e-05 5.9908e-06 0.00113652
0.000971988 0.00027806 -6.06999e-05
0.00027806 0.000677571 -4.90882e-06
-6.06999e-05 -4.90882e-06 -7.60517e-05
0.00553133 0.00205416 7.25863e-05
0.00205416 -0.000686446 -0.000208126
7.25863e-05 -0.000208126 -0.000882232
-0.00258294 0.00139237 4.31331e-05
0.00139237 0.000104343 0.000157766
4.31331e-05 0.000157766 -0.00194507
0.00723138 0.000153498 5.63863e-05
0.000153498 0.00598288 -2.60656e-05
5.63863e-05 -2.60656e-05 0.000304524
0.00146287 -5.68766e-05 5.40828e-05
-5.68766e-05 0.00137337 -2.08547e-05
5.40828e-05 -2.08547e-05 0.000817008
0.000715541 1.8569e-05 -2.46778e-05
1.8569e-05 0.000573693 -2.7806e-06
-2.46778e-05 -2.7806e-06 0.000497521
0.00325139 -0.000470561 0.00034957
-0.000470561 0.00106067 -0.000186757
0.00034957 -0.000186757 -0.00213016
0.00693964 0.00270036 3.66799e-06
0.00270036 0.00530311 -5.40945e-06
3.66799e-06 -5.40945e-06 0.00530251
-0.00270951 0.00156143 2.43687e-05
0.00156143 -0.0034354 0.000401396
2.43687e-05 0.000401396 -0.00406731
0.0130722 -0.00172944 0.000139919
-0.00172944 0.00548759 -0.000126749
0.000139919 -0.000126749 0.00139268
0.00307078 -0.000499865 -6.29588e-05
-0.000499865 0.0014906 6.61285e-05
-6.29588e-05 6.61285e-05 0.00105353
0.00107651 0.000178027 8.59201e-06
0.000178027 0.000768025 4.82945e-06
8.59201e-06 4.82945e-06 0.000513662
0.000228523 -2.58421e-06 -2.63066e-05
-2.58421e-06 0.000298703 9.39762e-07
-2.63066e-05 9.39762e-07 0.000116962
0.00144584 -0.000314487 2.32195e-05
-0.000314487 0.000936924 -8.54897e-06
2.32195e-05 -8.54897e-06 0.000607171
0.000788214 -7.90188e-05 1.24397e-06
-7.90188e-05 0.000284248 3.01548e-06
1.24397e-06 3.01548e-06 0.000173879
-2.93846e-05 -3.95426e-05 -5.47294e-07
-3.95426e-05 3.88404e-05 2.95037e-06
-5.47294e-07 2.95037e-06 -0.000144033
0.000507827 -0.000217102 -1.11078e-06
-0.000217102 0.000324935 -8.11291e-07
-1.11078e-06 -8.11291e-07 0.000125835
0.00155382 -0.000376272 2.57372e-05
-0.000376272 0.000721385 -1.90507e-05
2.57372e-05 -1.90507e-05 0.000494047
0.002152 -0.000236017 -5.43556e-06
-0.000236017 0.000961417 4.08027e-06
-5.43556e-06 4.08027e-06 0.000828887
0.00186915 -0.00039998 5.85294e-06
-0.00039998 0.000785264 -9.13778e-07
5.85294e-06 -9.13778e-07 0.000529582
0.00147326 -0.000389027 1.30607e-05
-0.000389027 0.000571628 1.82148e-06
1.30607e-05 1.82148e-06 0.00014777
0.000360802 -0.000178599 -2.60497e-06
-0.000178599 -0.000150784 -1.64154e-06
-2.60497e-06 -1.64154e-06 -0.000304192
0.00145478 -0.000357572 -2.35679e-06
-0.000357572 0.000363277 1.18266e-06
-2.35679e-06 1.18266e-06 7.2988e-05
0.00182136 -0.000467819 -1.04093e-06
-0.000467819 0.000513558 1.80184e-06
-1.04093e-06 1.80184e-06 0.000133385
0.00168408 -0.00048165 -3.96463e-06
-0.00048165 0.00032363 2.97185e-06
-3.96463e-06 2.97185e-06 -1.542e-06
0.00124047 -0.000340721 -8.70688e-07
-0.000340721 0.000189405 3.61145e-06
-8.70688e-07 3.61145e-06 -7.25232e-05
0.00135972 -0.000370053 -2.71382e-06
-0.000370053 0.000229294 1.50749e-06
-2.71382e-06 1.50749e-06 -5.97238e-05
0.00114722 -0.000297752 -6.62825e-06
-0.000297752 0.000190615 1.965e-06
-6.62825e-06 1.965e-06 -7.32809e-05
0.00205341 -0.000363244 5.33898e-06
-0.000363244 0.000774806 -1.24556e-06
5.33898e-06 -1.24556e-06 0.00053459
0.00159374 -0.000328624 3.16262e-06
-0.000328624 0.000465622 -2.88291e-06
3.16262e-06 -2.88291e-06 0.000233399
-2.8826e-05 -7.26878e-05 1.28528e-06
-7.26878e-05 -0.00033823 1.17936e-06
1.28528e-06 1.17936e-06 -0.000521995
0.000818505 -0.00021089 2.20274e-06
-0.00021089 0.000153094 -1.43887e-06
2.20274e-06 -1.43887e-06 -6.53713e-05
0.00117096 -0.000264976 6.21191e-06
-0.000264976 0.000269877 -5.4436e-06
6.21191e-06 -5.4436e-06 3.85969e-05
0.000176844 -1.9037e-06 8.27988e-07
-1.9037e-06 -0.000195033 1.81481e-06
8.27988e-07 1.81481e-06 -0.000330287
0.000928248 -0.000122667 -5.55542e-07
-0.000122667 0.000276902 1.44733e-07
-5.55542e-07 1.44733e-07 0.000107204
0.00102423 -0.000227477 -1.05829e-06
-0.000227477 0.000338144 -1.58377e-06
-1.05829e-06 -1.58377e-06 0.000137244
0.00063486 1.12118e-05 -9.68057e-07
1.12118e-05 4.84206e-05 3.37859e-06
-9.68057e-07 3.37859e-06 -2.77422e-05
0.000754588 -4.06722e-05 -3.49335e-07
-4.06722e-05 0.000136933 -3.28735e-07
-3.49335e-07 -3.28735e-07 2.57868e-05
0.00044512 -5.10813e-05 3.77136e-07
-5.10813e-05 -1.05417e-05 4.89968e-07
3.77136e-07 4.89968e-07 -0.000146339
0.000749389 -4.83245e-05 3.52255e-07
-4.83245e-05 0.000141693 -1.32704e-06
3.52255e-07 -1.32704e-06 3.57886e-05
0.000627153 -4.95139e-06 -2.34435e-07
-4.95139e-06 3.79472e-05 -2.22577e-07
-2.34435e-07 -2.22577e-07 -2.88444e-05
0.000520817 4.92609e-05 2.70324e-08
4.92609e-05 -3.11379e-05 5.29439e-06
2.70324e-08 5.29439e-06 -5.74281e-05
0.000638001 -1.36802e-05 1.65255e-06
-1.36802e-05 4.23428e-05 -2.38167e-06
1.65255e-06 -2.38167e-06 -1.85018e-05
0.000540819 4.28489e-05 -4.01179e-07
4.28489e-05 -2.75206e-05 -6.55226e-08
-4.01179e-07 -6.55226e-08 -5.02496e-05
0.00238987 8.71278e-05 -2.59846e-05
8.71278e-05 0.0010966 3.98607e-06
-2.59846e-05 3.98607e-06 0.00110398
0.000534692 3.08251e-05 9.86494e-07
3.08251e-05 -3.82126e-05 -4.45981e-06
9.86494e-07 -4.45981e-06 -5.80469e-05
0.00158469 5.97748e-05 1.20211e-05
5.97748e-05 0.000603084 -9.62973e-07
1.20211e-05 -9.62973e-07 0.000609057
0.00242262 6.18798e-05 1.72254e-05
6.18798e-05 0.00110523 -4.70013e-06
1.72254e-05 -4.70013e-06 0.00111648
0.000697589 7.03034e-05 9.14104e-07
7.03034e-05 0.000106933 -8.5736e-07
9.14104e-07 -8.5736e-07 -3.90137e-06
0.00060064 2.95751e-05 9.70279e-09
2.95751e-05 1.94906e-05 -2.40174e-06
9.70279e-09 -2.40174e-06 -4.46546e-05
0.000539475 4.18439e-05 -1.18902e-06
4.18439e-05 1.75305e-05 -1.19091e-06
-1.18902e-06 -1.19091e-06 -9.3696e-05
0.000545963 -1.49139e-05 6.41956e-07
-1.49139e-05 -3.55174e-05 -4.40608e-06
6.41956e-07 -4.40608e-06 -5.13583e-05
0.000420712 2.1405e-05 -1.61655e-06
2.1405e-05 -8.59523e-05 -1.3386e-06
-1.61655e-06 -1.3386e-06 -0.000145861
0.00075038 4.80618e-05 -5.29224e-07
4.80618e-05 0.000145714 -1.04706e-06
-5.29224e-07 -1.04706e-06 4.18167e-05
0.0022274 -3.81991e-05 -1.65779e-05
-3.81991e-05 0.000980157 -4.66614e-06
-1.65779e-05 -4.66614e-06 0.000996223
0.000546123 -1.14569e-05 -1.75135e-07
-1.14569e-05 -3.69919e-05 -8.29764e-08
-1.75135e-07 -8.29764e-08 -4.91013e-05
0.000221736 4.50181e-06 -1.01441e-06
4.50181e-06 -0.000204126 6.68297e-07
-1.01441e-06 6.68297e-07 -0.000259514
0.00214039 -2.27987e-05 -4.29461e-06
-2.27987e-05 0.000925993 1.00043e-07
-4.29461e-06 1.00043e-07 0.0009438
0.000546441 -7.3565e-06 -8.2095e-07
-7.3565e-06 -3.77021e-05 3.45365e-06
-8.2095e-07 3.45365e-06 -4.70403e-05
0.00207557 -7.68438e-06 7.49885e-06
-7.68438e-06 0.000886233 4.71608e-06
7.49885e-06 4.71608e-06 0.000905019
0.00143976 -5.3789e-05 -1.68341e-05
-5.3789e-05 -0.000315656 2.00422e-05
-1.68341e-05 2.00422e-05 -8.36247e-05
0.000637419 -5.36405e-05 1.5276e-05
-5.36405e-05 0.000524649 -1.60044e-06
1.5276e-05 -1.60044e-06 0.000463152
0.00088011 -0.000158754 0.000118274
-0.000158754 0.000272478 -4.17486e-05
0.000118274 -4.17486e-05 -0.00166611
0.000501869 2.94746e-05 1.25135e-06
2.94746e-05 -3.72449e-05 -1.50394e-07
1.25135e-06 -1.50394e-07 -0.000151141
0.00101702 6.69847e-05 -4.34188e-07
6.69847e-05 0.000262435 1.29003e-06
-4.34188e-07 1.29003e-06 0.000133956
0.000785644 0.000106782 -6.78024e-07
0.000106782 0.000160366 -3.55718e-07
-6.78024e-07 -3.55718e-07 3.58276e-05
0.000555954 5.21134e-05 2.61525e-07
5.21134e-05 -1.58929e-07 3.61844e-07
2.61525e-07 3.61844e-07 -0.000114218
0.000666507 6.87413e-05 1.45986e-07
6.87413e-05 8.54671e-05 2.95675e-07
1.45986e-07 2.95675e-07 -4.37756e-05
0.000630851 6.27737e-05 1.82011e-06
6.27737e-05 5.49851e-05 -1.21034e-06
1.82011e-06 -1.21034e-06 -6.71221e-05
0.000658697 0.000155123 4.82706e-06
0.000155123 0.000108111 3.83887e-06
4.82706e-06 3.83887e-06 -4.05399e-05
0.000132006 0.000117125 6.69138e-05
0.000117125 -0.000160578 0.0001787
6.69138e-05 0.0001787 -0.00150798
0.00286255 -3.95005e-05 -1.36641e-05
-3.95005e-05 0.000256559 5.30858e-05
-1.36641e-05 5.30858e-05 -0.000406798
0.00340662 -0.000218711 4.49409e-05
-0.000218711 0.00233738 -7.19209e-05
4.49409e-05 -7.19209e-05 0.00130135
0.00468937 -0.000126103 -7.81458e-06
-0.000126103 -0.00462294 7.54073e-05
-7.81458e-06 7.54073e-05 -0.00146862
0.00303543 -0.00134619 -9.25465e-05
-0.00134619 0.000915025 6.86348e-05
-9.25465e-05 6.86348e-05 0.000193903
-0.00190457 -0.00166615 -4.29862e-05
-0.00166615 -5.33296e-05 9.11129e-05
-4.29862e-05 9.11129e-05 -0.00426041
0.00987045 0.00218234 8.22037e-05
0.00218234 0.00509723 -7.27758e-05
8.22037e-05 -7.27758e-05 0.00280013
0.00311552 -0.00120188 -2.98563e-05
-0.00120188 0.000744748 6.62044e-06
-2.98563e-05 6.62044e-06 0.000384644
-0.000798551 -0.000531149 2.27508e-05
-0.000531149 0.00182316 3.24799e-05
2.27508e-05 3.24799e-05 -0.00304992
0.00491055 0.00021956 4.04311e-05
0.00021956 0.00258087 -1.20909e-05
4.04311e-05 -1.20909e-05 0.000891953
0.0103784 -0.00146309 -3.42761e-05
-0.00146309 0.00136339 -3.7209e-05
-3.42761e-05 -3.7209e-05 0.00262334
-0.000616718 -0.000134853 -0.000115973
-0.000134853 -0.000796345 8.11101e-05
-0.000115973 8.11101e-05 -0.000556035
0.00102038 0.00154038 -7.46569e-05
0.00154038 0.00236159 -8.26649e-05
-7.46569e-05 -8.26649e-05 -0.0025854
-0.00607523 -0.00243185 5.10227e-05
-0.00243185 -0.00319162 -0.000157575
5.10227e-05 -0.000157575 -0.00570558
0.00673165 -0.00151725 6.41107e-05
-0.00151725 8.44496e-05 -0.000308156
6.41107e-05 -0.000308156 0.00064907
0.000948249 2.78109e-05 6.51364e-06
2.78109e-05 0.000284468 6.58416e-07
6.51364e-06 6.58416e-07 0.000156002
0.000635794 8.39149e-05 -3.12403e-07
8.39149e-05 8.43405e-05 -1.19698e-06
-3.12403e-07 -1.19698e-06 -5.8039e-05
0.00080352 -1.26331e-05 7.35373e-08
-1.26331e-05 0.000228427 -3.01518e-06
7.35373e-08 -3.01518e-06 4.36978e-05
0.000828724 6.90582e-05 -1.93177e-06
6.90582e-05 0.000197358 -5.25384e-06
-1.93177e-06 -5.25384e-06 4.80711e-05
0.000507319 -0.000483608 -5.87854e-06
-0.000483608 -0.000322798 3.57588e-05
-5.87854e-06 3.57588e-05 -0.00043104
0.00094307 -0.000113568 -1.88661e-05
-0.000113568 0.000699112 -1.95234e-05
-1.88661e-05 -1.95234e-05 0.000470207
0.000733836 5.00581e-05 -3.61222e-06
5.00581e-05 0.000129704 -5.51229e-06
-3.61222e-06 -5.51229e-06 6.18447e-06
0.000710796 0.00017324 -1.38506e-06
0.00017324 0.000219014 3.5016e-06
-1.38506e-06 3.5016e-06 4.86304e-05
0.00245402 -6.10876e-06 6.1348e-06
-6.10876e-06 0.00139447 -1.86063e-05
6.1348e-06 -1.86063e-05 0.00114715
0.000964373 7.86656e-05 3.68238e-06
7.86656e-05 0.000292071 3.68641e-06
3.68238e-06 3.68641e-06 0.000176224
0.000596409 0.000123639 -2.47446e-06
0.000123639 0.000382323 -1.04483e-06
-2.47446e-06 -1.04483e-06 8.71526e-05
0.000694628 -0.000117548 9.57716e-06
-0.000117548 0.000677057 -5.98674e-06
9.57716e-06 -5.98674e-06 4.60009e-05
0.000124717 1.25076e-05 2.31978e-05
1.25076e-05 0.000237227 -1.63184e-06
2.31978e-05 -1.63184e-06 4.66236e-05
0.000806668 0.000143411 5.31792e-07
0.000143411 0.000438117 -5.79417e-06
5.31792e-07 -5.79417e-06 0.0002396
-0.000325399 -3.74978e-05 -3.16698e-05
-3.74978e-05 0.00065982 -4.38176e-05
-3.16698e-05 -4.38176e-05 -0.000645911
0.00341095 0.000175188 2.22714e-05
0.000175188 0.0019535 2.24547e-05
2.22714e-05 2.24547e-05 0.00168095
8.25767e-05 1.99917e-05 -1.02884e-05
1.99917e-05 0.000794292 1.4657e-05
-1.02884e-05 1.4657e-05 0.000128986
0.00120361 -2.27524e-05 1.49127e-07
-2.27524e-05 -4.63387e-05 5.25701e-07
1.49127e-07 5.25701e-07 -0.000176665
-0.000311648 2.75197e-06 3.8514e-06
2.75197e-06 0.000245021 -2.18273e-05
3.8514e-06 -2.18273e-05 -0.000123046
5.0518e-05 0.000122897 -2.66115e-06
0.000122897 0.000214328 6.05056e-06
-2.66115e-06 6.05056e-06 9.81695e-06
-0.00123978 0.000372396 6.82448e-05
0.000372396 -0.000819568 5.77971e-05
6.82448e-05 5.77971e-05 -0.00115309
0.00118387 -1.86185e-05 2.30226e-05
-1.86185e-05 -0.00048934 -6.64668e-06
2.30226e-05 -6.64668e-06 -0.000151409
0.00270378 -0.00133997 0.000133211
-0.00133997 0.00362702 -0.000130035
0.000133211 -0.000130035 -0.00233438
0.010458 0.00214334 -8.93067e-05
0.00214334 0.00483328 6.85584e-05
-8.93067e-05 6.85584e-05 0.00283132
0.00345318 -0.000152971 -5.24361e-05
-0.000152971 0.00228682 7.77586e-05
-5.24361e-05 7.77586e-05 0.00126765
0.006455 0.00211651 -2.53815e-05
0.00211651 0.00071992 -6.37308e-05
-2.53815e-05 -6.37308e-05 1.06797e-05
9.82684e-05 0.000122054 -4.30703e-05
0.000122054 0.000598185 1.13914e-05
-4.30703e-05 1.13914e-05 -7.06201e-06
0.000750971 -9.3087e-06 -1.77533e-05
-9.3087e-06 0.000511907 1.96333e-06
-1.77533e-05 1.96333e-06 0.000490434
0.00365076 -0.000547305 0.000134842
-0.000547305 0.00129736 -1.14506e-05
0.000134842 -1.14506e-05 -0.00197815
-0.000364044 -0.000198393 1.50709e-05
-0.000198393 -0.000375795 2.60044e-05
1.50709e-05 2.60044e-05 -0.000530261
0.000158164 0.00293166 0.000194143
0.00293166 0.00155496 -9.61197e-05
0.000194143 -9.61197e-05 0.00206405
0.00760863 0.00134979 -8.26979e-05
0.00134979 0.000798649 0.000155786
-8.26979e-05 0.000155786 6.98215e-05
-0.00308711 -0.000807654 7.70803e-05
-0.000807654 0.000978801 -8.38563e-05
7.70803e-05 -8.38563e-05 -0.00450521
0.000455538 -0.000218866 4.17456e-05
-0.000218866 0.000512599 -1.04178e-05
4.17456e-05 -1.04178e-05 1.57833e-05
0.000439195 -0.000233314 0.000112055
-0.000233314 -0.000254394 -3.312e-05
0.000112055 -3.312e-05 -0.00199992
-0.00220724 3.48841e-05 -0.000355628
3.48841e-05 0.00282249 4.67026e-05
-0.000355628 4.67026e-05 0.000777502
0.00539784 0.00276724 -0.000277589
0.00276724 0.000816932 0.000342307
-0.000277589 0.000342307 0.000758049
0.00799913 -0.00120458 -3.18918e-05
-0.00120458 0.00360405 9.67615e-06
-3.18918e-05 9.67615e-06 0.000131212
0.00293804 -0.000676455 -5.76224e-05
-0.000676455 0.00126323 4.03757e-05
-5.76224e-05 4.03757e-05 0.000861439
-0.000625541 2.59253e-05 2.27146e-05
2.59253e-05 -0.000206008 8.69668e-06
2.27146e-05 8.69668e-06 -0.00040163
0.000342629 -0.000230298 -5.87327e-07
-0.000230298 0.000355531 5.32332e-07
-5.87327e-07 5.32332e-07 3.31211e-05
0.000986411 -0.00038335 1.59138e-05
-0.00038335 0.000411413 -3.18397e-06
1.59138e-05 -3.18397e-06 0.000264062
-0.00047162 -0.000189782 -6.40354e-06
-0.000189782 -0.000179211 7.14701e-06
-6.40354e-06 7.14701e-06 -0.00037425
-0.000700158 -0.000205114 -3.18674e-07
-0.000205114 -0.000463079 -3.26393e-06
-3.18674e-07 -3.26393e-06 -0.000690909
0.00313307 -0.000603064 3.44286e-05
-0.000603064 0.00126808 -3.30445e-06
3.44286e-05 -3.30445e-06 0.000997418
0.00467998 -0.00068713 -1.01483e-05
-0.00068713 0.00228442 3.76995e-06
-1.01483e-05 3.76995e-06 0.00200064
0.00239922 -0.000483852 7.5547e-06
-0.000483852 0.0010067 1.36189e-07
7.5547e-06 1.36189e-07 0.00060539
0.00125367 -0.000447481 8.68919e-06
-0.000447481 0.000228183 -7.18223e-06
8.68919e-06 -7.18223e-06 -0.000202391
0.00164789 -0.000374962 -8.55725e-06
-0.000374962 0.000444826 1.9509e-06
-8.55725e-06 1.9509e-06 0.000149955
0.00214534 -0.000509481 1.06183e-06
-0.000509481 0.000662431 4.77591e-07
1.06183e-06 4.77591e-07 0.000273331
0.00204149 -0.000528265 1.69983e-06
-0.000528265 0.000561995 -5.99432e-06
1.69983e-06 -5.99432e-06 0.000171076
0.00198592 -0.000491022 -1.73852e-06
-0.000491022 0.00040607 -3.15798e-06
-1.73852e-06 -3.15798e-06 0.000119697
0.00180589 -0.00048743 -1.12476e-06
-0.00048743 0.000373495 2.41376e-06
-1.12476e-06 2.41376e-06 6.94906e-05
0.00175613 -0.000492947 -1.09554e-06
-0.000492947 0.000364273 -9.88158e-08
-1.09554e-06 -9.88158e-08 3.24612e-05
0.0010671 -0.000303361 6.36825e-06
-0.000303361 9.68699e-05 1.04529e-06
6.36825e-06 1.04529e-06 -0.00013885
0.00123033 -0.000332062 1.9115e-06
-0.000332062 0.000181796 5.61866e-08
1.9115e-06 5.61866e-08 -7.09976e-05
0.00133876 -0.000369627 1.12205e-06
-0.000369627 0.000219377 -1.50396e-06
1.12205e-06 -1.50396e-06 -7.38442e-05
0.00131175 -0.000273272 3.27414e-06
-0.000273272 0.00037769 2.03967e-06
3.27414e-06 2.03967e-06 0.000146126
0.00133645 -0.000292538 -2.34044e-06
-0.000292538 0.000343015 -1.59839e-06
-2.34044e-06 -1.59839e-06 0.000115078
0.000706648 -0.000241331 6.64534e-06
-0.000241331 -5.67856e-05 -5.11963e-06
6.64534e-06 -5.11963e-06 -0.000269068
0.000356054 -0.00010121 1.96744e-06
-0.00010121 -7.87312e-05 7.46749e-07
1.96744e-06 7.46749e-07 -0.000262956
0.000480305 -0.000123064 -8.13164e-07
-0.000123064 -1.73893e-05 1.21909e-06
-8.13164e-07 1.21909e-06 -0.000211438
0.00144344 -0.000278595 3.547e-06
-0.000278595 0.000533384 -5.48144e-06
3.547e-06 -5.48144e-06 0.000304219
0.000465834 1.23597e-05 1.75065e-07
1.23597e-05 -4.77763e-05 4.0483e-06
1.75065e-07 4.0483e-06 -0.000137359
0.000693403 -4.33737e-05 -3.20518e-07
-4.33737e-05 0.000120544 -8.71708e-08
-3.20518e-07 -8.71708e-08 -2.54818e-05
0.0012724 -0.000168558 8.23942e-07
-0.000168558 0.000488182 -4.1511e-07
8.23942e-07 -4.1511e-07 0.000308702
0.000496162 4.9068e-05 -1.49835e-06
4.9068e-05 -3.82526e-05 7.61628e-06
-1.49835e-06 7.61628e-06 -6.80157e-05
0.000639293 6.43119e-06 -3.3118e-07
6.43119e-06 4.82034e-05 -2.62295e-07
-3.3118e-07 -2.62295e-07 -2.7639e-05
0.000971113 -6.61569e-05 -2.62669e-07
-6.61569e-05 0.000271401 -1.45817e-06
-2.62669e-07 -1.45817e-06 0.000152859
0.000664233 -5.85566e-06 1.26688e-06
-5.85566e-06 5.91271e-05 -2.9145e-06
1.26688e-06 -2.9145e-06 -7.7902e-06
0.000531955 4.96689e-05 4.16597e-07
4.96689e-05 -2.38551e-05 2.03515e-08
4.16597e-07 2.03515e-08 -5.049e-05
0.00245599 0.000104224 -2.75804e-05
0.000104224 0.00114481 3.65598e-06
-2.75804e-05 3.65598e-06 0.00114838
0.000551108 4.62673e-05 -4.62202e-07
4.62673e-05 -2.09054e-05 -4.93518e-06
-4.62202e-07 -4.93518e-06 -4.42659e-05
0.00241812 9.02913e-05 2.90481e-06
9.02913e-05 0.00111447 2.83792e-07
2.90481e-06 2.83792e-07 0.00112122
0.00239689 7.63712e-05 2.0779e-05
7.63712e-05 0.00109523 -4.23149e-06
2.0779e-05 -4.23149e-06 0.00110459
0.000697475 6.59497e-05 6.2386e-08
6.59497e-05 0.000116324 -1.11817e-06
6.2386e-08 -1.11817e-06 -2.20264e-05
0.00076843 9.11923e-05 1.14227e-06
9.11923e-05 0.000159857 -1.29878e-06
1.14227e-06 -1.29878e-06 3.25455e-05
0.000627398 2.15395e-05 1.81486e-07
2.15395e-05 3.5622e-05 -2.77263e-06
1.81486e-07 -2.77263e-06 -3.49056e-05
0.000688235 8.30986e-05 -1.3982e-08
8.30986e-05 9.96767e-05 -6.86578e-08
-1.3982e-08 -6.86578e-08 -1.07759e-05
0.000536348 -1.68592e-05 -3.05107e-07
-1.68592e-05 -3.79762e-05 -5.10809e-06
-3.05107e-07 -5.10809e-06 -5.79124e-05
0.000607674 3.06046e-05 5.61979e-08
3.06046e-05 2.42967e-05 -9.80221e-08
5.61979e-08 -9.80221e-08 -3.98835e-05
0.000617669 4.4138e-05 -2.36685e-06
4.4138e-05 5.3235e-05 1.42763e-07
-2.36685e-06 1.42763e-07 -4.89409e-05
0.0023341 -5.27846e-05 -2.17531e-05
-5.27846e-05 0.00104699 -4.63502e-06
-2.17531e-05 -4.63502e-06 0.00106087
0.000544504 -1.66113e-05 -3.80323e-07
-1.66113e-05 -3.59023e-05 -7.25557e-08
-3.80323e-07 -7.25557e-08 -5.16855e-05
0.000535293 3.40298e-05 -1.64597e-06
3.40298e-05 -1.67626e-05 7.17253e-07
-1.64597e-06 7.17253e-07 -7.55315e-05
0.00221087 -3.68785e-05 -4.20201e-06
-3.68785e-05 0.000969889 1.6715e-07
-4.20201e-06 1.6715e-07 0.000986244
0.00054509 -1.13628e-05 -8.8365e-07
-1.13628e-05 -3.78884e-05 3.65564e-06
-8.8365e-07 3.65564e-06 -4.97548e-05
0.00211513 -2.14954e-05 1.16626e-05
-2.14954e-05 0.000910428 4.66771e-06
1.16626e-05 4.66771e-06 0.000928485
-1.69723e-05 -6.46064e-05 -2.35061e-06
-6.46064e-05 -5.96844e-05 5.0434e-06
-2.35061e-06 5.0434e-06 6.10811e-05
0.00137896 -9.49902e-05 -1.7201e-05
-9.49902e-05 -0.000406227 2.75404e-05
-1.7201e-05 2.75404e-05 -0.000110892
0.000670845 -8.47753e-05 1.0022e-05
-8.47753e-05 0.000494822 -1.68499e-05
1.0022e-05 -1.68499e-05 0.000431032
0.000732371 6.74612e-05 -2.39792e-07
6.74612e-05 0.000123914 1.4897e-07
-2.39792e-07 1.4897e-07 -6.5669e-06
0.000691589 5.28072e-05 1.43108e-06
5.28072e-05 7.07666e-05 -3.86046e-07
1.43108e-06 -3.86046e-07 -5.32658e-05
-5.01305e-05 3.19885e-05 -4.20704e-06
3.19885e-05 -0.000366565 -4.66543e-06
-4.20704e-06 -4.66543e-06 -0.000479847
0.000340477 1.67551e-05 1.14754e-06
1.67551e-05 -0.000120691 2.14712e-06
1.14754e-06 2.14712e-06 -0.000243175
0.0015507 0.000183128 -6.71835e-07
0.000183128 0.000622609 -5.28183e-07
-6.71835e-07 -5.28183e-07 0.00046131
0.000651143 3.25978e-05 -2.03837e-06
3.25978e-05 4.93624e-05 2.46212e-07
-2.03837e-06 2.46212e-07 -6.11205e-05
0.000663337 5.82757e-05 -2.77931e-06
5.82757e-05 7.47496e-05 -3.40452e-06
-2.77931e-06 -3.40452e-06 -4.75218e-05
0.000759227 6.72823e-05 -8.21829e-08
6.72823e-05 0.000132524 -2.20574e-07
-8.21829e-08 -2.20574e-07 7.67459e-06
0.000991874 0.000109508 1.21544e-07
0.000109508 0.000283442 -1.73657e-07
1.21544e-07 -1.73657e-07 0.000148252
0.00102223 8.59691e-05 3.18403e-06
8.59691e-05 0.000330433 -1.95811e-06
3.18403e-06 -1.95811e-06 0.000183274
0.00329116 0.000301324 0.000200828
0.000301324 0.00227353 0.000267779
0.000200828 0.000267779 -0.00114369
0.000665034 0.000135002 9.86882e-06
0.000135002 -1.08444e-07 7.02563e-05
9.86882e-06 7.02563e-05 -0.0015244
0.00267983 -4.71246e-05 -1.26652e-05
-4.71246e-05 0.000480583 -7.26096e-06
-1.26652e-05 -7.26096e-06 2.13957e-05
0.0106318 -0.00127386 -0.000110119
-0.00127386 0.00146954 -0.000114201
-0.000110119 -0.000114201 0.00295154
-0.00939437 0.00104997 -1.20046e-05
0.00104997 -0.00324057 0.000279881
-1.20046e-05 0.000279881 -0.00600344
0.00510574 -0.00134983 -0.000122439
-0.00134983 0.00191169 3.45823e-05
-0.000122439 3.45823e-05 0.00157538
0.0110321 -0.00109589 -8.11416e-05
-0.00109589 0.00496456 -2.75952e-06
-8.11416e-05 -2.75952e-06 0.0012462
0.00208959 -0.000308112 -2.71402e-05
-0.000308112 0.000508353 7.0316e-05
-2.71402e-05 7.0316e-05 0.000342644
0.011447 -0.000142726 -2.228e-05
-0.000142726 0.00598107 -1.21486e-05
-2.228e-05 -1.21486e-05 0.00127812
0.00275412 -0.00150775 6.06465e-05
-0.00150775 0.000982262 8.29019e-05
6.06465e-05 8.29019e-05 -0.00118044
0.00626362 -0.00186393 -0.000154833
-0.00186393 -0.000730145 -0.000373847
-0.000154833 -0.000373847 -0.000207631
0.00281386 0.000125619 -0.000117252
0.000125619 0.000961245 5.7486e-05
-0.000117252 5.7486e-05 0.000389782
0.0103492 0.0012547 -6.06998e-05
0.0012547 0.00485836 1.48501e-05
-6.06998e-05 1.48501e-05 0.00107525
0.0118197 -0.00263764 -9.98594e-05
-0.00263764 0.00426005 -0.000327802
-9.98594e-05 -0.000327802 0.00357181
0.00955942 -0.00308218 8.19413e-05
-0.00308218 0.00249828 -4.42432e-06
8.19413e-05 -4.42432e-06 0.00332144
0.000190805 8.03693e-05 6.20439e-06
8.03693e-05 -7.48152e-05 -3.8806e-06
6.20439e-06 -3.8806e-06 -0.000221722
0.000871913 2.87265e-05 1.25446e-06
2.87265e-05 0.000259086 2.8383e-06
1.25446e-06 2.8383e-06 0.000109042
0.000698594 9.79017e-05 -3.33719e-06
9.79017e-05 0.000123681 -6.66006e-06
-3.33719e-06 -6.66006e-06 -2.21756e-05
0.00159762 -0.000231642 -2.58578e-05
-0.000231642 0.00101849 2.47591e-05
-2.58578e-05 2.47591e-05 0.00024755
0.000827992 -2.8639e-05 -5.61132e-05
-2.8639e-05 0.000657739 -2.22379e-05
-5.61132e-05 -2.22379e-05 0.000485188
0.000563788 6.76011e-06 -5.71345e-06
6.76011e-06 5.336e-05 3.06139e-06
-5.71345e-06 3.06139e-06 -5.94631e-05
-0.00103004 9.28672e-05 -8.96076e-06
9.28672e-05 -0.000497034 -4.26302e-06
-8.96076e-06 -4.26302e-06 -0.00083656
0.000361423 8.82244e-05 5.5479e-07
8.82244e-05 0.000166335 -2.00335e-06
5.5479e-07 -2.00335e-06 -3.69413e-05
0.000663287 0.000157185 1.66439e-06
0.000157185 0.000480957 2.7416e-06
1.66439e-06 2.7416e-06 0.000160318
-0.00060676 -7.02764e-05 0.000121842
-7.02764e-05 0.000707835 -3.84352e-05
0.000121842 -3.84352e-05 -0.000598382
-0.00205802 3.49445e-05 -1.97561e-05
3.49445e-05 -0.00107206 1.29331e-05
-1.97561e-05 1.29331e-05 -0.00131199
0.00258867 0.000368204 -6.44074e-05
0.000368204 0.00168009 -4.98306e-05
-6.44074e-05 -4.98306e-05 0.00079313
0.00194672 6.22613e-05 9.41631e-05
6.22613e-05 0.00129219 2.01861e-05
9.41631e-05 2.01861e-05 -0.000968452
-0.000146984 1.72246e-05 1.16306e-05
1.72246e-05 0.0005392 1.55064e-05
1.16306e-05 1.55064e-05 -1.29576e-05
0.00172966 -7.77621e-05 1.3423e-07
-7.77621e-05 0.000193751 -2.87463e-07
1.3423e-07 -2.87463e-07 0.000380545
-0.00172225 0.000314231 0.000107835
0.000314231 -0.000397755 6.98523e-06
0.000107835 6.98523e-06 -0.00111539
0.00281846 0.000167922 -3.449e-05
0.000167922 0.0014955 2.14327e-05
-3.449e-05 2.14327e-05 0.000681108
0.000700899 -5.37083e-05 -9.86156e-06
-5.37083e-05 0.000487391 1.27373e-05
-9.86156e-06 1.27373e-05 0.000433377
0.0160051 -0.00194896 0.000138303
-0.00194896 0.00706975 -4.34782e-05
0.000138303 -4.34782e-05 0.00274276
0.012206 0.00203091 -6.75397e-05
0.00203091 0.00448762 -5.50013e-05
-6.75397e-05 -5.50013e-05 0.00322982
0.00429685 -0.000602606 -8.93797e-05
-0.000602606 0.00170065 0.000138236
-8.93797e-05 0.000138236 -0.0016938
-0.006655 0.00331526 0.000895933
0.00331526 -0.00253196 -0.000685371
0.000895933 -0.000685371 -0.00159608
0.000691192 -0.000216357 1.2966e-05
-0.000216357 0.000739642 -4.17924e-06
1.2966e-05 -4.17924e-06 0.000157729
0.00066392 -0.000177057 4.96565e-06
-0.000177057 1.22997e-05 1.35087e-05
4.96565e-06 1.35087e-05 -0.00190347
-0.00288058 0.000154057 -0.000491399
0.000154057 0.00281809 0.000200632
-0.000491399 0.000200632 0.000763408
0.00124219 -0.000393604 -2.21063e-05
-0.000393604 0.000414954 3.5172e-05
-2.21063e-05 3.5172e-05 5.93263e-05
0.0131951 0.00265727 0.00012865
0.00265727 0.00391941 8.43781e-05
0.00012865 8.43781e-05 0.00393726
0.007873 -0.00186782 9.98153e-05
-0.00186782 0.00323054 -5.84427e-05
9.98153e-05 -5.84427e-05 5.93686e-05
0.00229438 -0.000538091 3.36588e-06
-0.000538091 0.00105931 2.36225e-05
3.36588e-06 2.36225e-05 0.000890393
-0.00485696 -0.000565364 4.79963e-05
-0.000565364 0.00221165 -2.9971e-05
4.79963e-05 -2.9971e-05 -0.000333817
0.0112963 0.00245128 -0.000555908
0.00245128 0.00498137 0.000258667
-0.000555908 0.000258667 0.00452125
0.00248657 -0.00119685 -0.000234183
-0.00119685 -0.000454153 0.000150183
-0.000234183 0.000150183 -0.00381401
0.00250665 -0.00107278 0.000111212
-0.00107278 0.000546365 -5.51942e-05
0.000111212 -5.51942e-05 0.000635924
-0.000244896 -0.000202874 -5.20736e-05
-0.000202874 2.19601e-05 1.52047e-05
-5.20736e-05 1.52047e-05 -0.000282669
0.000624282 -0.000331502 -7.35695e-06
-0.000331502 0.000284015 9.71688e-06
-7.35695e-06 9.71688e-06 6.73446e-05
0.0039663 -0.000654649 2.87454e-05
-0.000654649 0.00173758 1.571e-06
2.87454e-05 1.571e-06 0.00155026
-0.0028248 -5.85444e-05 -1.2488e-06
-5.85444e-05 -0.00156418 1.0042e-05
-1.2488e-06 1.0042e-05 -0.0017935
0.000832583 -0.000363092 4.51069e-06
-0.000363092 8.43891e-05 1.70033e-06
4.51069e-06 1.70033e-06 -0.000179652
0.0022854 -0.000596869 5.55832e-06
-0.000596869 0.000557402 8.90844e-07
5.55832e-06 8.90844e-07 0.000294427
0.00309611 -0.00055234 -1.61765e-05
-0.00055234 0.00131718 5.55658e-06
-1.61765e-05 5.55658e-06 0.000942078
0.00130944 -0.000441241 -2.40278e-06
-0.000441241 0.000230127 -4.00352e-06
-2.40278e-06 -4.00352e-06 -0.000177743
0.00173524 -0.000565631 5.19904e-06
-0.000565631 0.000237926 -7.07934e-06
5.19904e-06 -7.07934e-06 -8.45019e-05
0.00257069 -0.00055959 -3.43386e-06
-0.00055959 0.000870131 -4.95001e-07
-3.43386e-06 -4.95001e-07 0.000472966
0.00169763 -0.000499616 3.77718e-07
-0.000499616 0.00034686 -3.79616e-06
3.77718e-07 -3.79616e-06 -2.82796e-05
0.00213729 -0.000507083 9.09768e-07
-0.000507083 0.000433322 -7.02813e-06
9.09768e-07 -7.02813e-06 0.000156697
0.00167502 -0.000385631 -3.93974e-06
-0.000385631 0.000106029 -3.29646e-06
-3.93974e-06 -3.29646e-06 -0.000107779
0.00161764 -0.000469737 1.38935e-06
-0.000469737 0.000174365 -8.57624e-07
1.38935e-06 -8.57624e-07 -0.000106326
0.00181023 -0.000474527 2.00899e-06
-0.000474527 0.000308501 -2.56086e-06
2.00899e-06 -2.56086e-06 2.65339e-05
0.00172049 -0.00041527 2.4499e-07
-0.00041527 0.000383995 1.56829e-06
2.4499e-07 1.56829e-06 0.000109957
0.00182258 -0.000489804 -2.1071e-06
-0.000489804 0.000400221 1.35138e-07
-2.1071e-06 1.35138e-07 9.12916e-05
0.00179713 -0.000502711 1.42087e-06
-0.000502711 0.000386363 -3.59339e-06
1.42087e-06 -3.59339e-06 4.83338e-05
0.00136684 -0.000300607 3.05106e-06
-0.000300607 0.000309294 9.13815e-07
3.05106e-06 9.13815e-07 7.7761e-05
0.000912423 -0.000284894 5.82547e-07
-0.000284894 1.07776e-05 -1.78789e-07
5.82547e-07 -1.78789e-07 -0.000217939
0.00126304 -0.000328711 3.96719e-06
-0.000328711 0.000197921 -2.82856e-06
3.96719e-06 -2.82856e-06 -4.60423e-05
0.000682737 -0.000205138 -3.48814e-07
-0.000205138 5.73733e-05 5.76992e-07
-3.48814e-07 5.76992e-07 -0.000148033
0.000941347 -0.000233971 9.7064e-08
-0.000233971 0.000159327 -1.46704e-07
9.7064e-08 -1.46704e-07 -6.36139e-05
0.000595231 -0.000219793 -2.79517e-06
-0.000219793 -0.000102376 -1.23179e-06
-2.79517e-06 -1.23179e-06 -0.000317925
0.000276391 8.7128e-06 -1.00151e-07
8.7128e-06 -0.000153849 5.25784e-06
-1.00151e-07 5.25784e-06 -0.000273262
0.000777285 -0.000121362 1.2405e-06
-0.000121362 0.000179189 4.55399e-07
1.2405e-06 4.55399e-07 -1.41665e-05
0.00108603 -0.00017747 -2.19236e-06
-0.00017747 0.000360816 4.81179e-08
-2.19236e-06 4.81179e-08 0.000155348
0.00146683 8.44804e-05 -1.88892e-05
8.44804e-05 0.000558733 5.08916e-06
-1.88892e-05 5.08916e-06 0.00052385
0.000677279 -1.72122e-05 9.61051e-08
-1.72122e-05 7.42308e-05 -5.97307e-07
9.61051e-08 -5.97307e-07 -1.70712e-05
0.0012324 -8.10551e-05 -1.8482e-06
-8.10551e-05 0.00044985 -1.86451e-06
-1.8482e-06 -1.86451e-06 0.000292962
0.000735523 4.96137e-05 -3.01135e-05
4.96137e-05 0.00011217 3.88799e-06
-3.01135e-05 3.88799e-06 0.000109008
0.000989882 6.47376e-05 -9.36608e-06
6.47376e-05 0.000261495 -1.86019e-07
-9.36608e-06 -1.86019e-07 0.000231896
0.000656063 6.86728e-08 9.36593e-07
6.86728e-08 5.49502e-05 -3.79552e-06
9.36593e-07 -3.79552e-06 -2.04496e-05
0.000540777 5.25224e-05 -1.41034e-07
5.25224e-05 -1.72594e-05 -5.62051e-06
-1.41034e-07 -5.62051e-06 -4.4649e-05
0.00248172 0.00010608 4.49105e-06
0.00010608 0.00116104 4.0706e-07
4.49105e-06 4.0706e-07 0.00116425
0.00241545 9.22547e-05 2.2885e-05
9.22547e-05 0.00111377 -3.99642e-06
2.2885e-05 -3.99642e-06 0.00112012
0.000794024 7.27869e-05 8.20984e-07
7.27869e-05 0.000158638 1.4339e-06
8.20984e-07 1.4339e-06 2.96015e-05
0.000789575 8.30074e-05 7.28668e-07
8.30074e-05 0.000173719 -2.14052e-06
7.28668e-07 -2.14052e-06 4.11286e-05
0.000589325 5.23634e-05 -4.23256e-07
5.23634e-05 3.24124e-05 5.3882e-07
-4.23256e-07 5.3882e-07 -9.26083e-05
0.000634304 1.08458e-05 -1.34733e-08
1.08458e-05 3.98533e-05 -3.15362e-06
-1.34733e-08 -3.15362e-06 -3.67627e-05
0.000724466 6.92013e-05 5.66948e-07
6.92013e-05 0.000121546 3.17223e-08
5.66948e-07 3.17223e-08 4.93097e-06
0.000535362 -1.76573e-05 -9.57227e-07
-1.76573e-05 -3.39364e-05 -5.69155e-06
-9.57227e-07 -5.69155e-06 -5.82976e-05
0.000600397 2.40013e-05 -2.99697e-08
2.40013e-05 2.06605e-05 -1.45272e-07
-2.99697e-08 -1.45272e-07 -5.03412e-05
0.000728708 6.85651e-05 -9.44138e-07
6.85651e-05 0.000140692 1.54584e-06
-9.44138e-07 1.54584e-06 1.75434e-05
0.00248611 -6.83185e-05 -2.84475e-05
-6.83185e-05 0.00114258 -4.50187e-06
-2.84475e-05 -4.50187e-06 0.00115368
0.000526337 -1.93185e-05 -5.57165e-07
-1.93185e-05 -4.38717e-05 -5.7904e-08
-5.57165e-07 -5.7904e-08 -6.37061e-05
0.000596808 3.35749e-05 2.43816e-07
3.35749e-05 1.86083e-05 2.54655e-06
2.43816e-07 2.54655e-06 -4.55839e-05
0.00234283 -5.21666e-05 -4.58885e-06
-5.21666e-05 0.00105201 2.49691e-07
-4.58885e-06 2.49691e-07 0.00106603
0.000527153 -1.77222e-05 -1.24667e-06
-1.77222e-05 -4.60015e-05 4.22919e-06
-1.24667e-06 4.22919e-06 -6.16665e-05
0.00221196 -3.55396e-05 1.66591e-05
-3.55396e-05 0.000970217 4.57494e-06
1.66591e-05 4.57494e-06 0.000986773
0.00515478 0.000139043 0.000127606
0.000139043 0.00218003 2.41237e-05
0.000127606 2.41237e-05 0.000927962
-2.03156e-05 -6.44996e-05 -7.78408e-07
-6.44996e-05 -5.96334e-05 -1.07205e-06
-7.78408e-07 -1.07205e-06 2.67184e-05
0.00126927 -7.15725e-05 -1.93404e-05
-7.15725e-05 -0.000438453 4.00484e-06
-1.93404e-05 4.00484e-06 -9.65393e-05
0.000402648 0.000104612 -6.27325e-06
0.000104612 -8.5598e-05 -2.01644e-06
-6.27325e-06 -2.01644e-06 -0.000212781
0.000811606 6.75743e-05 -1.48155e-06
6.75743e-05 0.000167143 -1.28317e-07
-1.48155e-06 -1.28317e-07 4.21027e-05
0.000502207 4.30613e-05 3.96767e-07
4.30613e-05 -4.40361e-05 -3.23648e-07
3.96767e-07 -3.23648e-07 -0.000163694
0.000826167 4.51901e-05 1.92107e-07
4.51901e-05 0.000158708 -2.47324e-07
1.92107e-07 -2.47324e-07 3.59313e-05
0.000678282 8.30671e-05 -9.21734e-07
8.30671e-05 6.29831e-05 2.39556e-07
-9.21734e-07 2.39556e-07 -5.79355e-05
0.00125649 0.000152603 5.78422e-07
0.000152603 0.000443241 -1.08018e-06
5.78422e-07 -1.08018e-06 0.000296667
0.000868902 0.000117208 -1.0245e-06
0.000117208 0.00018535 -7.2248e-06
-1.0245e-06 -7.2248e-06 1.63799e-05
-2.93874e-05 2.82845e-05 9.41237e-07
2.82845e-05 -0.000285163 1.73115e-06
9.41237e-07 1.73115e-06 -0.000434535
0.000790793 0.000120252 -1.94012e-06
0.000120252 0.000164982 7.47357e-07
-1.94012e-06 7.47357e-07 2.98068e-05
0.000414633 2.69072e-05 -3.43792e-06
2.69072e-05 -8.4022e-05 -2.77679e-06
-3.43792e-06 -2.77679e-06 -0.000194459
0.000508507 6.05369e-05 -7.88463e-08
6.05369e-05 2.20024e-05 9.51237e-07
-7.88463e-08 9.51237e-07 -0.000119191
0.00150185 0.000176485 1.03833e-05
0.000176485 0.000667211 6.31936e-06
1.03833e-05 6.31936e-06 0.000503679
0.0010518 -0.00106864 0.00013179
-0.00106864 0.00286036 0.000213763
0.00013179 0.000213763 0.000333581
0.00384265 0.000395645 2.84468e-05
0.000395645 0.00216404 9.83975e-05
2.84468e-05 9.83975e-05 -0.00138
0.00101161 0.000126529 -2.38745e-05
0.000126529 0.000252913 -4.56842e-05
-2.38745e-05 -4.56842e-05 -0.00143838
0.0111566 -0.00233711 -0.000310028
-0.00233711 0.0018834 -0.000216053
-0.000310028 -0.000216053 0.00237468
0.00588947 -0.000848508 8.7787e-05
-0.000848508 0.00169264 0.000280195
8.7787e-05 0.000280195 7.46787e-05
0.00105749 -0.000872402 -0.000106394
-0.000872402 0.00222832 8.93083e-05
-0.000106394 8.93083e-05 -0.00280542
0.000979115 -0.000379106 1.24303e-05
-0.000379106 0.000281982 5.21225e-05
1.24303e-05 5.21225e-05 -0.000259529
0.002142 -0.000108688 2.46233e-05
-0.000108688 0.000745896 5.18938e-05
2.46233e-05 5.18938e-05 0.000387625
0.00193367 -0.00315932 0.00015461
-0.00315932 4.60644e-05 0.000164315
0.00015461 0.000164315 0.000995137
0.00441501 0.00101188 -2.0826e-05
0.00101188 0.00371455 -3.25404e-05
-2.0826e-05 -3.25404e-05 -0.00100517
0.00363472 -0.00159201 -4.97081e-05
-0.00159201 -0.000327864 6.02417e-05
-4.97081e-05 6.02417e-05 -0.00127758
0.000576281 0.000349869 -1.36571e-05
0.000349869 0.000156556 5.34411e-05
-1.36571e-05 5.34411e-05 3.19325e-05
0.00829153 0.00133031 -4.56051e-05
0.00133031 0.00377582 -2.52536e-05
-4.56051e-05 -2.52536e-05 0.000466832
0.00505691 -0.00266703 -0.000312996
-0.00266703 0.000451066 -0.000256542
-0.000312996 -0.000256542 0.000289008
0.000865609 0.000350971 6.78665e-06
0.000350971 0.00020217 -1.19252e-05
6.78665e-06 -1.19252e-05 4.67384e-05
0.000624085 9.61572e-05 2.79766e-06
9.61572e-05 0.000168667 -2.52316e-07
2.79766e-06 -2.52316e-07 2.78748e-05
0.000373152 4.36906e-05 -4.39135e-06
4.36906e-05 -2.67415e-05 -2.38479e-06
-4.39135e-06 -2.38479e-06 -0.000185921
-0.000319624 -0.00010912 -0.000151971
-0.00010912 0.00102122 -4.32773e-05
-0.000151971 -4.32773e-05 -0.000237081
-0.00171949 0.000154912 1.66918e-06
0.000154912 -0.000847916 -1.66072e-05
1.66918e-06 -1.66072e-05 -0.0011887
-0.000205642 9.38747e-05 -6.53535e-06
9.38747e-05 -0.000146656 3.9101e-06
-6.53535e-06 3.9101e-06 -0.000376953
0.000547623 0.000341264 1.29609e-05
0.000341264 0.00027909 3.14015e-06
1.29609e-05 3.14015e-06 1.06348e-05
0.000629178 0.000287429 4.60108e-06
0.000287429 0.0005862 -3.4385e-05
4.60108e-06 -3.4385e-05 -0.000182011
-7.31772e-06 0.000585426 3.38812e-05
0.000585426 -0.000420063 7.38368e-06
3.38812e-05 7.38368e-06 -0.000821985
-0.00200427 0.000421982 0.000178787
0.000421982 0.00369183 4.19803e-06
0.000178787 4.19803e-06 0.000472234
0.00219684 -1.40577e-05 -5.32545e-06
-1.40577e-05 0.00142822 2.8086e-05
-5.32545e-06 2.8086e-05 -0.000328952
-0.000391295 -1.74182e-05 -1.06732e-06
-1.74182e-05 0.000250945 1.87348e-05
-1.06732e-06 1.87348e-05 -0.000145594
9.10099e-05 -0.000149805 -5.83096e-05
-0.000149805 0.000530188 5.76016e-06
-5.83096e-05 5.76016e-06 -5.95774e-05
-0.000612568 -0.000122083 -6.70407e-05
-0.000122083 -0.00100238 2.66575e-05
-6.70407e-05 2.66575e-05 -0.000735277
0.00102227 -0.000139091 -0.000102979
-0.000139091 0.00016195 4.1528e-05
-0.000102979 4.1528e-05 -0.00173169
-0.00246241 -0.00164898 9.10004e-05
-0.00164898 0.00014651 -0.000110193
9.10004e-05 -0.000110193 -0.00418026
3.36332e-05 0.00220099 0.000252338
0.00220099 -0.00305675 -0.00021828
0.000252338 -0.00021828 -0.00289971
0.00328156 0.00101268 -0.000244635
0.00101268 0.00404958 0.000175674
-0.000244635 0.000175674 0.00246846
0.00140958 -0.000279772 -4.95006e-06
-0.000279772 0.000638353 -2.73904e-06
-4.95006e-06 -2.73904e-06 0.000537516
0.00143861 0.000217026 4.02487e-05
0.000217026 0.00406832 5.33188e-06
4.02487e-05 5.33188e-06 0.00230997
-0.00299263 0.00153881 2.42562e-05
0.00153881 -0.00061672 2.03383e-05
2.42562e-05 2.03383e-05 -0.00237466
0.0034662 -0.00126294 5.51858e-05
-0.00126294 0.00122704 -1.55731e-05
5.51858e-05 -1.55731e-05 0.000749985
0.0124322 -0.00113528 1.89486e-05
-0.00113528 0.00376216 -1.24735e-05
1.89486e-05 -1.24735e-05 0.00185074
0.00324175 -0.00079978 -1.1896e-05
-0.00079978 0.00114415 2.22818e-05
-1.1896e-05 2.22818e-05 0.00110397
-0.00862264 0.000578936 -0.000247783
0.000578936 -0.00381423 1.24408e-05
-0.000247783 1.24408e-05 -0.00495149
0.0131864 -0.000688557 -0.000118929
-0.000688557 0.00315021 3.66809e-05
-0.000118929 3.66809e-05 0.00158198
0.00325827 -0.00142028 2.76512e-05
-0.00142028 -0.000199458 -3.01958e-05
2.76512e-05 -3.01958e-05 -0.00058158
-0.000106156 -0.00023138 -1.44092e-05
-0.00023138 -4.13846e-05 1.57826e-05
-1.44092e-05 1.57826e-05 -0.000327384
0.00151674 -0.000482782 -4.0612e-06
-0.000482782 0.000314778 7.7876e-07
-4.0612e-06 7.7876e-07 0.00025477
0.00371522 -0.000617173 1.33151e-05
-0.000617173 0.00127426 -3.57652e-06
1.33151e-05 -3.57652e-06 0.00113519
-0.00122045 -0.000151907 -6.11838e-06
-0.000151907 -0.000962812 3.43666e-06
-6.11838e-06 3.43666e-06 -0.00122679
0.00136407 -0.000503246 -5.82758e-06
-0.000503246 0.000110366 -2.54858e-06
-5.82758e-06 -2.54858e-06 -0.00016429
0.0024034 -0.000640599 3.84149e-06
-0.000640599 0.000459566 -1.53116e-06
3.84149e-06 -1.53116e-06 0.00021581
0.00133481 -0.000434358 -1.66723e-05
-0.000434358 0.000221047 -5.98732e-07
-1.66723e-05 -5.98732e-07 -0.000167367
0.00155638 -0.000538109 -8.82306e-08
-0.000538109 0.000151421 4.60127e-07
-8.82306e-08 4.60127e-07 -0.000173841
0.00156656 -0.000472001 1.8197e-06
-0.000472001 -3.30156e-05 -6.02466e-06
1.8197e-06 -6.02466e-06 -0.000245058
0.00126759 -0.000464096 -4.56286e-06
-0.000464096 8.52803e-05 -2.24856e-07
-4.56286e-06 -2.24856e-07 -0.00027494
0.00166047 -0.000460378 -4.80248e-07
-0.000460378 0.00017238 6.4032e-07
-4.80248e-07 6.4032e-07 -9.56595e-05
0.0017685 -0.000379585 -1.60054e-06
-0.000379585 9.98185e-05 -5.24569e-06
-1.60054e-06 -5.24569e-06 -7.26254e-05
0.00166042 -0.000303326 -4.81451e-06
-0.000303326 5.3416e-05 -2.77045e-06
-4.81451e-06 -2.77045e-06 -9.51402e-05
0.00153973 -0.000375389 -3.90308e-06
-0.000375389 4.72112e-05 -2.17953e-06
-3.90308e-06 -2.17953e-06 -0.000171881
0.00165294 -0.000375718 1.15887e-06
-0.000375718 0.000101236 1.7485e-06
1.15887e-06 1.7485e-06 -0.000107278
0.00144248 -0.000402784 -2.62141e-06
-0.000402784 0.000120445 -1.31664e-06
-2.62141e-06 -1.31664e-06 -0.000140197
0.00173037 -0.000472994 1.72485e-06
-0.000472994 0.000249807 -2.91481e-07
1.72485e-06 -2.91481e-07 -2.84076e-05
0.00170331 -0.000463463 1.80924e-06
-0.000463463 0.000249875 2.09507e-07
1.80924e-06 2.09507e-07 -2.82871e-05
0.00150132 -0.000339747 -1.99282e-06
-0.000339747 0.000306058 1.60876e-06
-1.99282e-06 1.60876e-06 6.23118e-05
0.00154147 -0.000400529 1.0351e-06
-0.000400529 0.000282074 -5.17403e-07
1.0351e-06 -5.17403e-07 1.06737e-05
0.00178958 -0.000486692 -2.57857e-06
-0.000486692 0.00039817 -1.45987e-06
-2.57857e-06 -1.45987e-06 8.47451e-05
0.00097541 -0.000231713 -1.93196e-06
-0.000231713 0.000129629 2.46197e-06
-1.93196e-06 2.46197e-06 -7.63988e-05
0.00121475 -0.000286431 1.47161e-06
-0.000286431 0.000213013 1.13456e-07
1.47161e-06 1.13456e-07 -1.58838e-05
0.000864155 -0.000275561 -3.03087e-07
-0.000275561 -1.18628e-05 -3.60304e-06
-3.03087e-07 -3.60304e-06 -0.000235596
0.000605732 -0.000108477 -1.61143e-06
-0.000108477 2.95324e-05 4.92782e-06
-1.61143e-06 4.92782e-06 -0.000127629
0.00101188 -0.000212304 7.8826e-09
-0.000212304 0.000248342 5.58708e-08
7.8826e-09 5.58708e-08 4.12723e-05
0.000490527 -0.000188879 -3.69555e-06
-0.000188879 -0.000106989 -5.22504e-07
-3.69555e-06 -5.22504e-07 -0.000320174
0.000372409 3.01294e-05 -1.30213e-06
3.01294e-05 -9.96741e-05 8.69851e-06
-1.30213e-06 8.69851e-06 -0.000147558
0.00067212 -6.98245e-05 -5.10132e-07
-6.98245e-05 8.08946e-05 -3.8263e-07
-5.10132e-07 -3.8263e-07 -4.73115e-05
0.00131059 -0.000143734 1.04422e-06
-0.000143734 0.000501451 -2.07897e-06
1.04422e-06 -2.07897e-06 0.00029962
0.00277175 0.00015406 -5.72369e-06
0.00015406 0.00135416 2.21455e-06
-5.72369e-06 2.21455e-06 0.00134359
0.000514508 4.28855e-05 -2.71969e-07
4.28855e-05 -2.04295e-05 -1.44057e-07
-2.71969e-07 -1.44057e-07 -5.82198e-05
0.000838556 -4.25841e-05 2.6316e-06
-4.25841e-05 0.00016939 -4.8394e-06
2.6316e-06 -4.8394e-06 7.45922e-05
0.00260195 0.000120414 4.42335e-06
0.000120414 0.00124077 3.52453e-07
4.42335e-06 3.52453e-07 0.00124065
0.000562341 4.70245e-05 4.71184e-07
4.70245e-05 2.89432e-06 -6.28046e-06
4.71184e-07 -6.28046e-06 -2.83018e-05
0.00254181 0.000108293 3.0003e-05
0.000108293 0.00119788 -3.42607e-06
3.0003e-05 -3.42607e-06 0.00120068
0.000912521 0.000135765 1.61306e-06
0.000135765 0.000219576 2.57581e-06
1.61306e-06 2.57581e-06 7.46132e-05
0.000768788 8.13161e-05 1.75181e-07
8.13161e-05 0.000146596 2.37561e-07
1.75181e-07 2.37561e-07 1.31954e-05
0.000839459 7.35351e-05 5.63285e-07
7.35351e-05 0.000208134 -2.76824e-06
5.63285e-07 -2.76824e-06 6.38515e-05
0.000652056 1.0827e-05 -5.42224e-07
1.0827e-05 5.65647e-05 -4.02569e-06
-5.42224e-07 -4.02569e-06 -2.7479e-05
0.000711772 5.09143e-05 2.58761e-07
5.09143e-05 0.000117585 2.84281e-07
2.58761e-07 2.84281e-07 -7.64636e-06
0.000534893 6.91873e-05 6.31597e-07
6.91873e-05 7.46256e-06 1.4381e-06
6.31597e-07 1.4381e-06 -0.000123976
0.000543074 -1.68333e-05 -1.70916e-06
-1.68333e-05 -2.5781e-05 -6.35112e-06
-1.70916e-06 -6.35112e-06 -5.4372e-05
0.000618319 1.74262e-05 -2.59679e-08
1.74262e-05 3.3939e-05 -9.81783e-08
-2.59679e-08 -9.81783e-08 -4.39398e-05
0.000675534 6.54127e-05 -1.12479e-07
6.54127e-05 8.86002e-05 1.36787e-06
-1.12479e-07 1.36787e-06 -2.30104e-05
0.00262658 -8.33034e-05 -3.65821e-05
-8.33034e-05 0.00123246 -4.22514e-06
-3.65821e-05 -4.22514e-06 0.00124066
0.000509684 -2.00082e-05 3.93527e-07
-2.00082e-05 -4.95871e-05 -1.09701e-07
3.93527e-07 -1.09701e-07 -7.36945e-05
0.000604813 2.71041e-05 4.08517e-08
2.71041e-05 2.40944e-05 2.86374e-06
4.08517e-08 2.86374e-06 -4.72453e-05
0.00245933 -6.7406e-05 -5.02469e-06
-6.7406e-05 0.00112599 3.20643e-07
-5.02469e-06 3.20643e-07 0.00113735
0.00051755 -2.10846e-05 -1.03577e-06
-2.10846e-05 -4.89977e-05 4.93736e-06
-1.03577e-06 4.93736e-06 -6.87254e-05
0.00230981 -5.07448e-05 2.07468e-05
-5.07448e-05 0.00103181 4.4962e-06
2.07468e-05 4.4962e-06 0.0010462
-0.00663115 0.000378886 -1.52765e-05
0.000378886 0.00170522 5.0129e-05
-1.52765e-05 5.0129e-05 -0.00164083
0.00490063 5.58026e-05 -6.11473e-06
5.58026e-05 0.00232222 2.06123e-06
-6.11473e-06 2.06123e-06 0.00109563
1.47882e-05 -6.89378e-05 -8.34857e-06
-6.89378e-05 -9.4811e-05 -6.41597e-06
-8.34857e-06 -6.41597e-06 -5.02364e-05
0.000328288 7.20413e-05 -1.50414e-06
7.20413e-05 -0.000134208 1.54216e-06
-1.50414e-06 1.54216e-06 -0.000255561
0.00258272 0.000376716 9.96511e-07
0.000376716 0.00122035 4.5073e-06
9.96511e-07 4.5073e-06 0.0010163
0.00066297 7.77415e-05 -3.71246e-06
7.77415e-05 6.68675e-05 -2.08436e-07
-3.71246e-06 -2.08436e-07 -7.42444e-05
0.00102329 4.85869e-05 -1.48584e-06
4.85869e-05 0.00027085 -2.72198e-06
-1.48584e-06 -2.72198e-06 0.000149993
0.00137042 0.000143601 2.59298e-06
0.000143601 0.000469218 -1.21107e-08
2.59298e-06 -1.21107e-08 0.000341735
0.000277603 5.38786e-05 -3.4071e-06
5.38786e-05 -0.000153636 2.86255e-06
-3.4071e-06 2.86255e-06 -0.000273359
0.000502733 7.26744e-05 -1.16326e-06
7.26744e-05 3.18302e-05 1.4516e-06
-1.16326e-06 1.4516e-06 -0.000128117
0.000661218 9.17332e-05 -2.11473e-06
9.17332e-05 6.87343e-05 -2.48727e-06
-2.11473e-06 -2.48727e-06 -9.25394e-05
0.0010043 0.0001756 2.91675e-06
0.0001756 0.000314848 -5.10004e-06
2.91675e-06 -5.10004e-06 0.000107646
0.000648739 0.000265817 2.44369e-06
0.000265817 3.01078e-06 -2.34967e-06
2.44369e-06 -2.34967e-06 -0.000113202
0.00103375 8.78842e-05 -3.37411e-06
8.78842e-05 0.000339061 5.14192e-07
-3.37411e-06 5.14192e-07 0.000187504
0.00103287 0.000150758 8.15284e-07
0.000150758 0.000395074 3.28698e-06
8.15284e-07 3.28698e-06 0.000231683
-0.00453731 -0.00109911 -0.000530049
-0.00109911 -0.0006701 -4.48323e-05
-0.000530049 -4.48323e-05 -0.00232061
-0.00334531 -0.000797971 0.000215517
-0.000797971 0.0020521 0.000105484
0.000215517 0.000105484 -0.000821954
0.00440859 0.000455683 -0.000189462
0.000455683 0.00214293 -7.86377e-05
-0.000189462 -7.86377e-05 -0.00156531
-0.00699638 -0.00325195 0.000764554
-0.00325195 -0.00243353 0.000601066
0.000764554 0.000601066 -0.00166451
0.0153658 -0.00181266 -4.21305e-05
-0.00181266 0.00473836 0.000170667
-4.21305e-05 0.000170667 0.0041866
-0.00169126 0.00117052 -5.85419e-06
0.00117052 0.000569885 -9.33933e-05
-5.85419e-06 -9.33933e-05 -0.00385926
0.00219577 6.44126e-06 -0.000140871
6.44126e-06 0.00115085 2.10245e-05
-0.000140871 2.10245e-05 0.000209351
0.00203199 0.000462163 8.13218e-06
0.000462163 0.000807675 2.77574e-05
8.13218e-06 2.77574e-05 0.000568529
0.0110347 -0.00202884 -0.000225801
-0.00202884 0.0050677 5.49169e-05
-0.000225801 5.49169e-05 0.00452275
-0.000324825 0.00133289 -2.34692e-05
0.00133289 0.000579066 -3.54331e-05
-2.34692e-05 -3.54331e-05 -0.00303313
0.00204102 0.000952091 -2.77072e-05
0.000952091 0.000406211 -5.99363e-05
-2.77072e-05 -5.99363e-05 0.000510153
0.00419101 0.00196184 -0.000210762
0.00196184 -5.81896e-05 -0.000121436
-0.000210762 -0.000121436 -0.00251444
0.00230023 0.000703002 1.86402e-05
0.000703002 0.000660114 -1.91393e-05
1.86402e-05 -1.91393e-05 0.000405644
0.000832261 0.000327543 -4.76202e-06
0.000327543 0.000186647 4.96103e-07
-4.76202e-06 4.96103e-07 4.0974e-05
0.00108377 0.000105997 -7.39622e-06
0.000105997 0.000425894 3.39592e-06
-7.39622e-06 3.39592e-06 0.000295646
-0.00116682 0.000217083 -4.52889e-05
0.000217083 -0.000440214 -5.03992e-05
-4.52889e-05 -5.03992e-05 -0.00111446
0.00243943 0.000526033 -2.54219e-05
0.000526033 0.00124094 -1.67077e-05
-2.54219e-05 -1.67077e-05 0.000969123
0.00136578 0.000714352 1.42107e-05
0.000714352 0.000223879 -4.33705e-06
1.42107e-05 -4.33705e-06 -0.000173446
0.00280037 0.0010855 0.000109517
0.0010855 0.000293969 3.32688e-05
0.000109517 3.32688e-05 0.000127392
-0.00502315 -0.000124881 -0.000314748
-0.000124881 -0.00410689 8.75919e-06
-0.000314748 8.75919e-06 -0.00285078
-0.00408474 0.000233051 0.000161134
0.000233051 0.00315688 3.21805e-06
0.000161134 3.21805e-06 -0.000162766
0.0023941 -6.31986e-05 -7.89188e-05
-6.31986e-05 0.00157476 3.08537e-05
-7.89188e-05 3.08537e-05 0.000257428
0.00188165 -0.000351383 -5.36401e-05
-0.000351383 0.000671717 -4.00367e-05
-5.36401e-05 -4.00367e-05 0.000570633
0.00115593 -0.00106987 -7.9342e-06
-0.00106987 -0.000159767 1.67266e-05
-7.9342e-06 1.67266e-05 -0.000444617
0.00135556 0.000175393 -1.78812e-05
0.000175393 0.00394745 3.00962e-05
-1.78812e-05 3.00962e-05 0.00233662
0.00289547 -0.00121463 0.000212003
-0.00121463 -9.07627e-05 -0.000138688
0.000212003 -0.000138688 -0.0026172
0.011887 0.0014938 0.000209029
0.0014938 0.00545862 -1.5165e-05
0.000209029 -1.5165e-05 0.00431963
0.00272384 -0.000934732 -2.50721e-05
-0.000934732 0.000714525 7.36029e-06
-2.50721e-05 7.36029e-06 0.000490882
-0.000113216 0.00065682 0.000109193
0.00065682 -0.000369849 -2.69723e-05
0.000109193 -2.69723e-05 -0.00109575
0.0055056 -0.000632484 -7.1293e-05
-0.000632484 -0.000592267 6.57159e-05
-7.1293e-05 6.57159e-05 -0.00278995
0.00552398 -0.00156263 -3.56725e-05
-0.00156263 0.000954469 1.89092e-05
-3.56725e-05 1.89092e-05 0.000506193
0.00179921 -0.000672117 5.45749e-05
-0.000672117 0.000179205 -1.33879e-05
5.45749e-05 -1.33879e-05 -6.26372e-05
0.0110476 -0.000500758 6.98288e-07
-0.000500758 0.0025953 -2.35779e-05
6.98288e-07 -2.35779e-05 0.0010101
0.0034207 -0.000840587 8.38607e-05
-0.000840587 -0.000952297 -5.12797e-05
8.38607e-05 -5.12797e-05 -0.000661977
-0.000960194 -0.00029537 -2.29962e-05
-0.00029537 -0.001096 1.44511e-05
-2.29962e-05 1.44511e-05 -0.00104814
0.000399978 -0.000374613 -1.39577e-05
-0.000374613 -0.000531572 -4.04163e-07
-1.39577e-05 -4.04163e-07 -0.000585946
0.00382872 -0.000646753 3.55218e-05
-0.000646753 0.00106697 -1.83667e-05
3.55218e-05 -1.83667e-05 0.000989711
0.000210072 -0.000385372 -1.44784e-05
-0.000385372 -0.000462114 -7.82743e-06
-1.44784e-05 -7.82743e-06 -0.000737543
0.00175628 -0.000575185 2.30919e-07
-0.000575185 0.000133607 -1.16462e-06
2.30919e-07 -1.16462e-06 -9.53484e-05
0.00229259 -0.000532696 -3.27866e-07
-0.000532696 0.000215631 -1.71372e-06
-3.27866e-07 -1.71372e-06 6.88672e-05
0.0016511 -0.00053606 -3.22439e-06
-0.00053606 0.000205047 5.0707e-06
-3.22439e-06 5.0707e-06 -0.000124607
0.0018367 -0.000493092 -1.89679e-06
-0.000493092 0.000111243 9.19426e-07
-1.89679e-06 9.19426e-07 -0.000106007
0.00186807 -0.0003815 7.387e-07
-0.0003815 4.63283e-05 -9.40096e-07
7.387e-07 -9.40096e-07 -8.18665e-05
0.00125773 -0.000419271 3.32887e-06
-0.000419271 -4.8275e-05 4.72317e-06
3.32887e-06 4.72317e-06 -0.000308406
0.00174437 -0.00037096 -2.94959e-07
-0.00037096 9.32567e-05 1.10832e-06
-2.94959e-07 1.10832e-06 -7.72876e-05
0.00177964 -0.000315801 -3.40341e-06
-0.000315801 6.18368e-05 -9.91692e-07
-3.40341e-06 -9.91692e-07 -5.60343e-05
0.00201726 -0.000302513 -3.34843e-06
-0.000302513 0.000267668 -3.65558e-07
-3.34843e-06 -3.65558e-07 0.00014717
0.00174029 -0.000306114 -2.53576e-06
-0.000306114 9.41386e-05 3.20001e-06
-2.53576e-06 3.20001e-06 -4.9875e-05
0.00178212 -0.000322766 -1.89601e-06
-0.000322766 0.000157432 -5.4097e-06
-1.89601e-06 -5.4097e-06 -6.79058e-06
0.00170337 -0.000377808 -4.46757e-06
-0.000377808 0.000179869 -2.03311e-06
-4.46757e-06 -2.03311e-06 -4.2505e-05
0.00169641 -0.00038698 1.26215e-06
-0.00038698 0.000139982 4.94594e-07
1.26215e-06 4.94594e-07 -8.00991e-05
0.00163104 -0.000365927 4.4588e-06
-0.000365927 9.52909e-05 6.11281e-06
4.4588e-06 6.11281e-06 -0.000107916
0.00156732 -0.000363379 -6.69231e-06
-0.000363379 0.000261291 1.0287e-06
-6.69231e-06 1.0287e-06 1.65915e-05
0.00146258 -0.000406186 -6.10832e-07
-0.000406186 0.000126556 2.98712e-07
-6.10832e-07 2.98712e-07 -0.000135019
0.00182132 -0.000475141 3.0882e-06
-0.000475141 0.0003121 4.70916e-07
3.0882e-06 4.70916e-07 3.63726e-05
0.0011428 -0.000255661 -5.15738e-06
-0.000255661 0.000152042 3.03014e-06
-5.15738e-06 3.03014e-06 -5.84303e-05
0.00131662 -0.000324584 5.64244e-07
-0.000324584 0.000193196 4.01588e-07
5.64244e-07 4.01588e-07 -4.85776e-05
0.00139065 -0.000389024 2.16756e-06
-0.000389024 0.000194405 -1.57846e-06
2.16756e-06 -1.57846e-06 -7.43863e-05
0.000805992 -0.000167622 -5.85643e-06
-0.000167622 0.000104622 4.87585e-06
-5.85643e-06 4.87585e-06 -6.88683e-05
0.00110361 -0.00024365 9.06843e-07
-0.00024365 0.000206721 -3.45769e-08
9.06843e-07 -3.45769e-08 -1.83152e-06
0.00111583 -0.000278247 8.34666e-07
-0.000278247 0.000147872 -1.46387e-06
8.34666e-07 -1.46387e-06 -7.97195e-05
0.000299886 -3.00037e-05 -7.43761e-06
-3.00037e-05 -0.000161725 1.18953e-05
-7.43761e-06 1.18953e-05 -0.000220791
0.000736147 -0.000118617 7.449e-07
-0.000118617 0.000114779 7.35295e-07
7.449e-07 7.35295e-07 -5.09539e-05
0.00132909 -0.000233286 3.92991e-07
-0.000233286 0.000434093 -1.33368e-06
3.92991e-07 -1.33368e-06 0.000221819
0.00314279 0.00015874 -5.36803e-05
0.00015874 0.00158059 2.51642e-06
-5.36803e-05 2.51642e-06 0.00157004
0.000510085 1.44387e-05 -1.51047e-07
1.44387e-05 -2.35573e-05 -7.35544e-07
-1.51047e-07 -7.35544e-07 -7.0766e-05
0.00118308 -0.000109578 1.82867e-06
-0.000109578 0.000389417 -5.67595e-06
1.82867e-06 -5.67595e-06 0.00025089
0.00185932 0.00010599 2.64311e-05
0.00010599 0.000799285 5.82303e-07
2.64311e-05 5.82303e-07 0.000790949
0.000612361 3.59676e-05 2.62022e-06
3.59676e-05 3.59258e-05 -7.50575e-06
2.62022e-06 -7.50575e-06 -1.19484e-06
0.00270177 0.000121474 4.20142e-05
0.000121474 0.0013007 -2.88449e-06
4.20142e-05 -2.88449e-06 0.00130046
0.000902204 0.000149005 4.50014e-06
0.000149005 0.000182335 6.58176e-07
4.50014e-06 6.58176e-07 3.86285e-05
0.000529837 8.02721e-05 -1.10031e-07
8.02721e-05 -1.35553e-05 -1.14372e-07
-1.10031e-07 -1.14372e-07 -0.000143375
0.000625693 6.49202e-05 -1.36768e-07
6.49202e-05 5.57077e-05 -1.35196e-06
-1.36768e-07 -1.35196e-06 -7.90631e-05
0.000880365 0.0001013 2.40712e-07
0.0001013 0.000216134 3.3009e-07
2.40712e-07 3.3009e-07 7.68552e-05
0.000707379 4.69367e-05 2.12521e-07
4.69367e-05 0.000108029 7.37744e-09
2.12521e-07 7.37744e-09 -1.93028e-05
0.000673993 1.69057e-05 -1.00343e-06
1.69057e-05 7.11087e-05 -4.87993e-06
-1.00343e-06 -4.87993e-06 -2.11026e-05
0.000559198 -1.75655e-05 -2.49879e-06
-1.75655e-05 -9.72122e-06 -7.31484e-06
-2.49879e-06 -7.31484e-06 -4.32395e-05
0.000606556 1.03011e-05 2.67808e-07
1.03011e-05 3.08981e-05 -7.92962e-08
2.67808e-07 -7.92962e-08 -5.38709e-05
0.000629369 2.50812e-05 -6.78334e-07
2.50812e-05 4.60748e-05 1.96546e-06
-6.78334e-07 1.96546e-06 -6.26809e-05
0.00273226 -9.68844e-05 -4.61855e-05
-9.68844e-05 0.00130254 -3.93343e-06
-4.61855e-05 -3.93343e-06 0.00130795
0.000510673 -1.6036e-05 4.92808e-08
-1.6036e-05 -4.38843e-05 -1.03841e-07
4.92808e-08 -1.03841e-07 -7.24461e-05
0.000582446 2.0509e-05 3.24786e-07
2.0509e-05 1.6646e-05 3.23765e-06
3.24786e-07 3.23765e-06 -6.28162e-05
0.00259771 -8.30204e-05 -5.37287e-06
-8.30204e-05 0.00121465 3.71951e-07
-5.37287e-06 3.71951e-07 0.00122291
0.000499287 -2.44942e-05 -7.61894e-08
-2.44942e-05 -5.5344e-05 5.58477e-06
-7.61894e-08 5.58477e-06 -7.95701e-05
0.00246339 -6.67935e-05 2.59784e-05
-6.67935e-05 0.00112801 4.44797e-06
2.59784e-05 4.44797e-06 0.00113948
-1.03885e-05 0.000311144 -0.000294077
0.000311144 0.00200983 1.56453e-05
-0.000294077 1.56453e-05 0.000710432
-0.00339682 4.13706e-05 2.26541e-05
4.13706e-05 0.00228427 1.37512e-05
2.26541e-05 1.37512e-05 -0.00110047
0.00464821 -1.89677e-05 -8.63472e-05
-1.89677e-05 0.0024085 -1.33059e-05
-8.63472e-05 -1.33059e-05 0.00121927
0.000425481 4.68947e-05 2.33622e-06
4.68947e-05 -7.88927e-05 -2.53722e-06
2.33622e-06 -2.53722e-06 -0.000195019
0.000670167 5.93594e-05 2.98572e-06
5.93594e-05 6.77523e-05 1.15398e-06
2.98572e-06 1.15398e-06 -8.10284e-05
0.00184166 0.000298462 -1.70555e-06
0.000298462 0.000786598 1.29961e-06
-1.70555e-06 1.29961e-06 0.000602111
0.00137194 0.000311382 3.7388e-06
0.000311382 0.000403126 -2.45114e-06
3.7388e-06 -2.45114e-06 0.000167879
0.00105968 0.000223953 -5.46084e-06
0.000223953 0.000360647 3.28821e-07
-5.46084e-06 3.28821e-07 0.000165202
0.000886155 0.000122757 -8.58227e-08
0.000122757 0.000261878 2.71044e-06
-8.58227e-08 2.71044e-06 9.36737e-05
0.000856898 0.00011676 5.20001e-06
0.00011676 0.000197135 3.64518e-06
5.20001e-06 3.64518e-06 3.68599e-05
0.000625277 0.000178337 -4.95392e-06
0.000178337 0.000107166 -3.36079e-06
-4.95392e-06 -3.36079e-06 -9.54353e-05
-0.000340962 0.000171404 1.5487e-06
0.000171404 -0.000544966 -5.31595e-07
1.5487e-06 -5.31595e-07 -0.000738053
0.00176329 0.000385756 4.55718e-06
0.000385756 0.000556859 -2.88081e-06
4.55718e-06 -2.88081e-06 0.000419228
0.00200742 0.000592688 8.55494e-06
0.000592688 0.000410386 -6.06065e-06
8.55494e-06 -6.06065e-06 0.000194986
0.000865453 0.000292415 -5.8356e-06
0.000292415 0.000141123 -7.98928e-07
-5.8356e-06 -7.98928e-07 1.05359e-05
0.000778137 0.000112546 -2.98995e-06
0.000112546 0.000191299 -2.06773e-06
-2.98995e-06 -2.06773e-06 4.23527e-05
0.0120212 0.00107496 -0.000100537
0.00107496 0.00275816 4.299e-05
-0.000100537 4.299e-05 0.00126808
-0.000107898 -0.000872312 -0.000244834
-0.000872312 0.00238518 -8.50426e-05
-0.000244834 -8.50426e-05 0.00066355
-0.00137075 -0.00129366 0.0001629
-0.00129366 0.00213605 1.48064e-05
0.0001629 1.48064e-05 -0.000776277
-0.000389306 -0.00114564 5.95607e-05
-0.00114564 0.000190293 0.000193774
5.95607e-05 0.000193774 -0.000401772
0.0114176 0.00159204 -9.20308e-06
0.00159204 0.00489664 1.9176e-06
-9.20308e-06 1.9176e-06 0.00150093
-0.000594395 0.000279487 -1.83563e-05
0.000279487 -0.000410955 -2.70715e-05
-1.83563e-05 -2.70715e-05 -0.000608764
0.00166311 0.000860118 -2.54744e-05
0.000860118 0.000348664 -1.20298e-05
-2.54744e-05 -1.20298e-05 0.000418316
0.0116367 0.00141092 2.42396e-05
0.00141092 0.00358571 2.45904e-05
2.42396e-05 2.45904e-05 0.0015319
0.00605869 0.00177873 -4.32899e-05
0.00177873 0.000912135 -6.00608e-05
-4.32899e-05 -6.00608e-05 0.000536872
0.00155734 0.000704353 6.12986e-06
0.000704353 0.00012281 -6.08914e-06
6.12986e-06 -6.08914e-06 -5.56507e-05
0.00116155 0.000544041 5.79247e-06
0.000544041 0.000181638 -3.7654e-07
5.79247e-06 -3.7654e-07 -5.42809e-05
0.00094601 0.000304445 -1.83853e-05
0.000304445 0.00027146 1.59744e-05
-1.83853e-05 1.59744e-05 0.000136357
0.00265226 0.000877133 -4.96406e-05
0.000877133 0.000773656 -1.94167e-05
-4.96406e-05 -1.94167e-05 0.000389842
0.00185046 0.000995127 3.62082e-06
0.000995127 -0.000316043 1.93466e-05
3.62082e-06 1.93466e-05 -0.000478336
0.00114606 -0.000381532 -4.58317e-05
-0.000381532 -0.00338112 2.74023e-05
-4.58317e-05 2.74023e-05 -0.00361577
0.00190984 -0.00062865 1.83824e-07
-0.00062865 0.00127925 -2.424e-05
1.83824e-07 -2.424e-05 0.00132776
-0.00640521 1.01781e-05 0.000183357
1.01781e-05 0.00270771 -5.57347e-06
0.000183357 -5.57347e-06 -0.000752301
0.00157413 -0.000941805 -2.66505e-05
-0.000941805 3.09512e-05 6.32374e-06
-2.66505e-05 6.32374e-06 -0.000307465
0.00321961 -0.001405 3.91034e-05
-0.001405 0.000392692 -4.73534e-07
3.91034e-05 -4.73534e-07 -0.000358898
0.0012792 -0.000304058 0.000336648
-0.000304058 0.00232572 -3.82158e-05
0.000336648 -3.82158e-05 0.0012331
0.0128672 -0.00078213 -0.000159807
-0.00078213 0.00321757 7.29112e-05
-0.000159807 7.29112e-05 0.0016328
0.00120855 -0.000652636 -3.21656e-05
-0.000652636 -0.000159813 -1.95438e-06
-3.21656e-05 -1.95438e-06 -0.000347344
0.00898792 4.97986e-05 -8.3898e-05
4.97986e-05 0.000766362 3.35673e-05
-8.3898e-05 3.35673e-05 -0.000320379
0.00500431 -0.000927655 8.38337e-05
-0.000927655 -0.000125412 6.9812e-06
8.38337e-05 6.9812e-06 -0.000248083
0.00372016 -0.00064825 5.96509e-05
-0.00064825 0.00102098 -1.71196e-05
5.96509e-05 -1.71196e-05 0.000680398
0.00308934 -0.000341061 -8.2621e-05
-0.000341061 -0.000361022 6.8847e-06
-8.2621e-05 6.8847e-06 -0.000218514
-0.00268618 -0.000161741 -1.40716e-05
-0.000161741 -0.00224359 4.98627e-06
-1.40716e-05 4.98627e-06 -0.00220773
0.00152229 -0.000499919 -1.58701e-06
-0.000499919 -0.000175044 -3.37099e-07
-1.58701e-06 -3.37099e-07 -0.000209239
0.00255703 -0.00045093 1.96599e-05
-0.00045093 0.000233927 -9.59765e-06
1.96599e-05 -9.59765e-06 0.000266156
0.00110017 -0.000513265 -3.19154e-06
-0.000513265 -0.000194755 4.04681e-06
-3.19154e-06 4.04681e-06 -0.000411487
0.00182135 -0.000487962 -2.14879e-06
-0.000487962 -1.30698e-05 5.95448e-07
-2.14879e-06 5.95448e-07 -0.000155752
0.00207413 -0.000390024 2.41186e-06
-0.000390024 1.76501e-05 4.99376e-07
2.41186e-06 4.99376e-07 -3.4534e-05
0.00197013 -0.000499764 -5.37422e-06
-0.000499764 0.000187487 7.09033e-06
-5.37422e-06 7.09033e-06 -3.29865e-05
0.00190144 -0.000382269 3.13628e-07
-0.000382269 6.56957e-05 1.74026e-06
3.13628e-07 1.74026e-06 -6.02993e-05
0.00189712 -0.000345202 -2.81661e-07
-0.000345202 7.1831e-05 2.01254e-06
-2.81661e-07 2.01254e-06 -1.66278e-05
0.00171163 -0.00036274 3.6214e-06
-0.00036274 8.06384e-05 5.78134e-06
3.6214e-06 5.78134e-06 -8.81369e-05
0.00178207 -0.000318973 -3.74405e-07
-0.000318973 6.15526e-05 1.48681e-06
-3.74405e-07 1.48681e-06 -5.75325e-05
0.00198579 -0.000326261 -1.39287e-06
-0.000326261 0.000189081 6.13767e-07
-1.39287e-06 6.13767e-07 8.08883e-05
0.00187152 -0.000297021 -4.08006e-06
-0.000297021 0.000173743 3.49433e-06
-4.08006e-06 3.49433e-06 5.66783e-05
0.00190733 -0.000306439 8.66487e-07
-0.000306439 0.00022474 -3.00042e-06
8.66487e-07 -3.00042e-06 9.16403e-05
0.00182346 -0.000309702 3.42287e-06
-0.000309702 0.000137081 7.91733e-06
3.42287e-06 7.91733e-06 -2.59557e-06
0.00178545 -0.000323535 3.34466e-07
-0.000323535 0.00015792 -8.37221e-07
3.34466e-07 -8.37221e-07 -6.73505e-06
0.00170758 -0.000324942 -1.81098e-06
-0.000324942 0.000141188 -3.4448e-06
-1.81098e-06 -3.4448e-06 -4.12435e-05
0.00164414 -0.000344197 -5.18293e-06
-0.000344197 0.000216672 -1.31026e-06
-5.18293e-06 -1.31026e-06 -4.36673e-06
0.00174787 -0.00038223 2.32219e-07
-0.00038223 0.000207406 -2.42812e-07
2.32219e-07 -2.42812e-07 -1.64558e-05
0.0018515 -0.00039834 5.15643e-06
-0.00039834 0.000232596 2.95062e-06
5.15643e-06 2.95062e-06 1.15624e-05
0.00118033 -0.000258409 -7.4366e-06
-0.000258409 0.000107901 2.88653e-06
-7.4366e-06 2.88653e-06 -9.88073e-05
0.00141746 -0.000347857 -1.03353e-06
-0.000347857 0.000177006 2.14815e-07
-1.03353e-06 2.14815e-07 -6.57092e-05
0.00148416 -0.000408906 2.9712e-06
-0.000408906 0.000134 9.90244e-07
2.9712e-06 9.90244e-07 -0.000128318
0.000814911 -0.000176014 -8.07861e-06
-0.000176014 3.63605e-05 6.34231e-06
-8.07861e-06 6.34231e-06 -0.000135205
0.00112704 -0.000255334 6.40955e-07
-0.000255334 0.000141217 2.39145e-07
6.40955e-07 2.39145e-07 -6.99431e-05
0.00109929 -0.000304754 3.52568e-06
-0.000304754 6.39335e-05 -1.09785e-06
3.52568e-06 -1.09785e-06 -0.000174817
0.000392045 -0.000104311 -1.79044e-05
-0.000104311 -0.000136264 1.36915e-05
-1.79044e-05 1.36915e-05 -0.000208385
0.000800887 -0.000178773 -4.15544e-07
-0.000178773 0.000101568 3.92395e-07
-4.15544e-07 3.92395e-07 -7.31147e-05
0.0010722 -0.000235525 2.80599e-06
-0.000235525 0.000188956 -1.64506e-06
2.80599e-06 -1.64506e-06 -1.76722e-05
0.00391151 0.000179397 -8.51422e-05
0.000179397 0.00204551 3.35681e-06
-8.51422e-05 3.35681e-06 0.00202995
0.000551558 -5.02191e-05 1.30581e-06
-5.02191e-05 -1.54104e-05 -3.68078e-07
1.30581e-06 -3.68078e-07 -7.67445e-05
0.000904146 -0.000169397 4.94295e-06
-0.000169397 0.000215099 -4.52254e-06
4.94295e-06 -4.52254e-06 4.34789e-05
0.00338873 0.00014815 1.0222e-05
0.00014815 0.00172426 3.18779e-07
1.0222e-05 3.18779e-07 0.00171725
0.000724752 -3.72557e-06 7.82951e-06
-3.72557e-06 9.93092e-05 -9.81572e-06
7.82951e-06 -9.81572e-06 5.17647e-05
0.00300907 0.000127106 6.76369e-05
0.000127106 0.00148929 -2.2557e-06
6.76369e-05 -2.2557e-06 0.00148828
0.000814529 0.000228006 4.43351e-06
0.000228006 6.55186e-05 -4.25132e-06
4.43351e-06 -4.25132e-06 -0.000142271
0.000861125 0.000172604 1.38816e-06
0.000172604 0.000166956 -3.0654e-07
1.38816e-06 -3.0654e-07 1.45467e-05
0.000301283 6.71469e-05 1.24976e-06
6.71469e-05 -0.000149479 -6.26394e-07
1.24976e-06 -6.26394e-07 -0.000289593
0.000122933 3.59121e-05 -8.02186e-07
3.59121e-05 -0.000253533 -1.57071e-06
-8.02186e-07 -1.57071e-06 -0.000374162
0.0004906 3.35274e-05 -2.93017e-07
3.35274e-05 -2.90283e-05 8.09464e-07
-2.93017e-07 8.09464e-07 -0.000159431
0.000686387 2.85008e-05 -1.43377e-06
2.85008e-05 7.58379e-05 -4.99433e-06
-1.43377e-06 -4.99433e-06 -2.6524e-05
0.000588504 2.27422e-05 -1.48347e-07
2.27422e-05 2.68167e-05 2.33968e-06
-1.48347e-07 2.33968e-06 -9.10695e-05
0.000603313 9.44463e-06 3.21885e-07
9.44463e-06 3.1317e-05 -2.44252e-07
3.21885e-07 -2.44252e-07 -6.09627e-05
0.000572237 -1.96149e-05 -3.18518e-06
-1.96149e-05 3.70627e-06 -8.29415e-06
-3.18518e-06 -8.29415e-06 -3.4832e-05
0.00289857 -0.00011192 -5.66469e-05
-0.00011192 0.00141114 -3.52128e-06
-5.66469e-05 -3.52128e-06 0.00141313
0.000502794 -1.84246e-05 3.17105e-07
-1.84246e-05 -4.28429e-05 -6.64862e-08
3.17105e-07 -6.64862e-08 -7.61485e-05
0.000567753 1.16953e-05 7.75929e-07
1.16953e-05 8.89631e-06 4.10351e-06
7.75929e-07 4.10351e-06 -7.62648e-05
0.00275056 -9.86579e-05 -5.87683e-06
-9.86579e-05 0.0013134 4.57482e-07
-5.87683e-06 4.57482e-07 0.00131829
0.000465522 -2.58166e-05 1.66018e-07
-2.58166e-05 -6.90807e-05 6.27779e-06
1.66018e-07 6.27779e-06 -9.8073e-05
0.00257619 -8.24081e-05 3.21502e-05
-8.24081e-05 0.00120097 4.29703e-06
3.21502e-05 4.29703e-06 0.00120941
0.0121034 0.000549905 0.000241279
0.000549905 0.00263503 6.87434e-05
0.000241279 6.87434e-05 0.00175683
-0.00325339 -0.00117215 -0.000176378
-0.00117215 -0.00265702 -2.72902e-05
-0.000176378 -2.72902e-05 -0.00311545
-0.00623485 0.000562096 -8.52423e-05
0.000562096 0.00126984 -5.06261e-05
-8.52423e-05 -5.06261e-05 -0.00269971
0.000491005 2.9253e-05 1.12773e-05
2.9253e-05 -4.5348e-05 1.69172e-06
1.12773e-05 1.69172e-06 -0.000200866
0.00101137 0.000215343 -5.58247e-06
0.000215343 0.000292016 1.27019e-06
-5.58247e-06 1.27019e-06 0.000129648
0.00133713 0.00024506 -1.25033e-06
0.00024506 0.000502431 -1.42777e-06
-1.25033e-06 -1.42777e-06 0.000304569
0.00148453 0.000318735 -4.09338e-06
0.000318735 0.000481402 1.17567e-06
-4.09338e-06 1.17567e-06 0.000247202
0.000713633 0.000288017 1.29656e-05
0.000288017 -0.000126098 2.96749e-06
1.29656e-05 2.96749e-06 -0.000378771
5.44717e-05 0.000195107 2.90265e-06
0.000195107 -0.000322413 -1.76651e-06
2.90265e-06 -1.76651e-06 -0.000523863
0.000246724 0.00015812 -4.42247e-06
0.00015812 -9.75446e-05 -2.7229e-06
-4.42247e-06 -2.7229e-06 -0.000296349
0.00033245 0.00024655 1.63969e-06
0.00024655 -0.00018407 1.79697e-06
1.63969e-06 1.79697e-06 -0.000400368
0.00128654 0.000359109 -6.69259e-07
0.000359109 0.000299421 1.17028e-06
-6.69259e-07 1.17028e-06 0.000152853
0.000621647 0.000354559 5.94418e-06
0.000354559 -0.000181363 2.35134e-06
5.94418e-06 2.35134e-06 -0.000383709
0.00286729 0.000630961 -6.40064e-07
0.000630961 0.000852994 -2.18522e-06
-6.40064e-07 -2.18522e-06 0.000660554
0.00204379 0.00062295 -2.9481e-07
0.00062295 0.000356528 6.50706e-06
-2.9481e-07 6.50706e-06 0.0001545
0.00136236 0.000532907 4.14627e-06
0.000532907 7.39672e-05 -4.08398e-06
4.14627e-06 -4.08398e-06 -0.000118152
0.000321646 0.000265153 -3.69127e-06
0.000265153 -0.000152076 7.64599e-07
-3.69127e-06 7.64599e-07 -0.000289186
0.00589311 0.000809321 -8.88222e-06
0.000809321 0.00022439 1.16564e-05
-8.88222e-06 1.16564e-05 0.00061956
0.0102734 0.000982948 0.000125985
0.000982948 0.00178763 6.1259e-05
0.000125985 6.1259e-05 0.000106414
0.00644203 -0.0017974 0.000143737
-0.0017974 0.00348326 -5.33232e-05
0.000143737 -5.33232e-05 0.00242064
0.00369071 0.00183411 0.000368989
0.00183411 -0.000230414 0.000190775
0.000368989 0.000190775 -0.00390078
0.000675398 0.000643995 -5.82188e-05
0.000643995 4.30298e-05 -7.20177e-06
-5.82188e-05 -7.20177e-06 0.000253678
0.00341697 0.00134165 -9.36581e-05
0.00134165 -0.000127045 -2.84636e-05
-9.36581e-05 -2.84636e-05 -0.000222823
0.00436401 0.00112042 4.72761e-05
0.00112042 0.000823887 1.91033e-05
4.72761e-05 1.91033e-05 0.000740654
0.00324572 0.000873368 1.1085e-05
0.000873368 0.00087885 4.61167e-06
1.1085e-05 4.61167e-06 0.000688644
0.000675577 0.000468982 -1.28421e-05
0.000468982 -2.27874e-05 1.7073e-05
-1.28421e-05 1.7073e-05 -0.000240806
0.00469614 0.00125092 -0.000137992
0.00125092 0.00103162 -2.25229e-05
-0.000137992 -2.25229e-05 0.000807412
0.00301904 -0.000252566 -4.90117e-05
-0.000252566 0.000374217 6.13506e-06
-4.90117e-05 6.13506e-06 0.000279851
0.0102102 -0.000325972 -1.45008e-05
-0.000325972 0.00237446 5.55787e-06
-1.45008e-05 5.55787e-06 0.00183123
-0.0100833 -0.000912408 0.000363298
-0.000912408 -0.00554862 -6.55865e-06
0.000363298 -6.55865e-06 -0.00522031
8.25386e-05 -0.000581498 -4.84658e-05
-0.000581498 -0.000825735 1.37356e-05
-4.84658e-05 1.37356e-05 -0.000946089
0.00736877 -0.0012219 9.8777e-05
-0.0012219 0.000901245 4.26445e-05
9.8777e-05 4.26445e-05 0.0009149
0.00164875 -0.000343351 -4.46037e-05
-0.000343351 -0.00228355 5.99269e-05
-4.46037e-05 5.99269e-05 -0.00395902
0.00166618 -0.000473983 1.53827e-05
-0.000473983 -0.00014426 1.70191e-06
1.53827e-05 1.70191e-06 -0.000284527
0.00323625 -0.000218238 -1.11246e-05
-0.000218238 -0.000315782 4.08704e-06
-1.11246e-05 4.08704e-06 -0.000261277
0.00440924 -0.000467953 2.74944e-05
-0.000467953 0.000997768 -1.2921e-05
2.74944e-05 -1.2921e-05 0.00110942
0.00375416 -0.00012341 7.19345e-05
-0.00012341 0.000863363 2.22053e-06
7.19345e-05 2.22053e-06 0.000816946
-0.000749181 -0.000362567 -7.10111e-06
-0.000362567 -0.00140035 6.80634e-06
-7.10111e-06 6.80634e-06 -0.00138612
0.001812 -0.000411698 -5.62555e-07
-0.000411698 -0.000169832 4.42188e-07
-5.62555e-07 4.42188e-07 -0.000119258
0.00188295 -0.000294207 1.54619e-05
-0.000294207 -0.000213995 -3.5447e-06
1.54619e-05 -3.5447e-06 -7.86758e-05
0.00153593 -0.000459031 -6.22091e-07
-0.000459031 -0.000152911 3.23752e-06
-6.22091e-07 3.23752e-06 -0.000292768
0.00201369 -0.0003889 1.69135e-06
-0.0003889 -1.28189e-05 6.99137e-07
1.69135e-06 6.99137e-07 -6.56201e-05
0.00195747 -0.000324102 9.06072e-07
-0.000324102 2.99831e-05 7.71275e-07
9.06072e-07 7.71275e-07 7.06199e-06
0.00189735 -0.000380551 2.54557e-06
-0.000380551 6.28461e-05 3.86891e-06
2.54557e-06 3.86891e-06 -6.06277e-05
0.00189951 -0.000340851 6.88837e-07
-0.000340851 8.21527e-05 3.64648e-07
6.88837e-07 3.64648e-07 -5.08393e-06
0.00196392 -0.000308545 -2.79707e-06
-0.000308545 0.000124606 1.64241e-06
-2.79707e-06 1.64241e-06 4.37459e-05
0.00179034 -0.00032192 4.46757e-06
-0.00032192 6.47805e-05 3.36749e-06
4.46757e-06 3.36749e-06 -5.53274e-05
0.00185092 -0.000319854 2.00381e-07
-0.000319854 0.000119874 4.10742e-07
2.00381e-07 4.10742e-07 1.17393e-05
0.00172999 -0.000295598 2.33736e-06
-0.000295598 8.52557e-05 -1.27559e-06
2.33736e-06 -1.27559e-06 -2.99055e-05
0.00172813 -0.000291617 -1.35777e-06
-0.000291617 8.15282e-05 6.48953e-06
-1.35777e-06 6.48953e-06 -3.21538e-05
0.00191294 -0.000303026 -2.22996e-06
-0.000303026 0.000224113 2.41357e-07
-2.22996e-06 2.41357e-07 9.47832e-05
0.00185405 -0.000302156 4.10946e-07
-0.000302156 0.000212712 -2.01951e-06
4.10946e-07 -2.01951e-06 5.66307e-05
0.00178714 -0.000323563 3.10644e-06
-0.000323563 0.000157365 3.74323e-06
3.10644e-06 3.74323e-06 -7.52004e-06
0.00175618 -0.000329036 4.74186e-07
-0.000329036 0.000171318 -5.68353e-07
4.74186e-07 -5.68353e-07 -1.24081e-05
0.00175224 -0.000309447 -1.98004e-06
-0.000309447 0.000232926 -1.73499e-06
-1.98004e-06 -1.73499e-06 4.04635e-05
0.00125193 -0.000256861 -9.08866e-06
-0.000256861 9.0355e-05 2.32122e-06
-9.08866e-06 2.32122e-06 -0.000108996
0.00164192 -0.000345059 -1.0146e-06
-0.000345059 0.000219151 -3.29759e-07
-1.0146e-06 -3.29759e-07 -3.53082e-06
0.00178727 -0.000386338 4.2072e-06
-0.000386338 0.000232534 1.19535e-06
4.2072e-06 1.19535e-06 7.20963e-06
0.00091006 -0.000187509 -1.10031e-05
-0.000187509 3.20824e-05 6.36637e-06
-1.10031e-05 6.36637e-06 -0.000135626
0.00118927 -0.000261471 -5.13065e-09
-0.000261471 0.000107784 1.70002e-07
-5.13065e-09 1.70002e-07 -9.98363e-05
0.0012569 -0.00033213 2.51791e-06
-0.00033213 8.44799e-05 -9.82526e-08
2.51791e-06 -9.82526e-08 -0.000156301
0.000435661 -0.000131733 -1.95942e-05
-0.000131733 -0.000133625 1.47599e-05
-1.95942e-05 1.47599e-05 -0.000216575
0.000834383 -0.000180417 5.22602e-07
-0.000180417 5.06773e-05 3.66701e-07
5.22602e-07 3.66701e-07 -0.00012202
0.00116624 -0.000260298 6.75678e-06
-0.000260298 0.000162431 -2.48855e-06
6.75678e-06 -2.48855e-06 -5.0259e-05
0.00475578 0.000193262 -0.000126888
0.000193262 0.0025547 7.08545e-06
-0.000126888 7.08545e-06 0.00253411
0.000551072 -0.000108199 -5.87987e-07
-0.000108199 -4.13556e-05 -3.04272e-07
-5.87987e-07 -3.04272e-07 -0.000118038
0.000747234 -0.00019001 7.19114e-06
-0.00019001 6.82158e-05 -5.44942e-06
7.19114e-06 -5.44942e-06 -0.00010708
0.00416707 0.000148441 1.09893e-05
0.000148441 0.00219142 6.10131e-07
1.09893e-05 6.10131e-07 0.00218307
0.000725052 -6.02229e-05 1.3794e-05
-6.02229e-05 8.45927e-05 -1.19549e-05
1.3794e-05 -1.19549e-05 2.15402e-05
0.00358018 0.000111522 0.000113976
0.000111522 0.00183138 -5.25746e-06
0.000113976 -5.25746e-06 0.00183317
0.00109642 0.000281469 -3.80904e-06
0.000281469 0.00012902 -3.93272e-06
-3.80904e-06 -3.93272e-06 -0.000107133
0.00143137 0.00028529 1.21469e-06
0.00028529 0.000438874 6.81986e-07
1.21469e-06 6.81986e-07 0.000220914
0.000681524 0.000169898 3.71922e-07
0.000169898 2.88963e-05 -5.94027e-06
3.71922e-07 -5.94027e-06 -0.000156626
0.00069892 0.000181498 -3.04971e-06
0.000181498 8.3037e-05 -4.90938e-07
-3.04971e-06 -4.90938e-07 -7.66727e-05
0.000362556 7.74847e-05 6.39229e-07
7.74847e-05 -0.000114907 -5.46646e-07
6.39229e-07 -5.46646e-07 -0.000259981
0.000772055 0.00011076 -2.49587e-06
0.00011076 0.000134873 -5.49139e-06
-2.49587e-06 -5.49139e-06 3.35259e-06
0.000349114 1.06978e-05 -1.12482e-07
1.06978e-05 -0.000119242 1.68672e-06
-1.12482e-07 1.68672e-06 -0.000243917
0.000627329 2.65369e-05 -3.86982e-08
2.65369e-05 4.28512e-05 -2.41148e-07
-3.86982e-08 -2.41148e-07 -5.97223e-05
0.000585029 -1.36388e-05 -4.33895e-06
-1.36388e-05 1.50036e-05 -9.33092e-06
-4.33895e-06 -9.33092e-06 -2.89239e-05
0.000542354 5.88823e-06 7.65085e-07
5.88823e-06 -4.43611e-06 4.81452e-06
7.65085e-07 4.81452e-06 -9.5892e-05
0.000503869 -1.70463e-05 2.88887e-07
-1.70463e-05 -3.64221e-05 -9.71835e-08
2.88887e-07 -9.71835e-08 -7.44717e-05
0.00305852 -0.000124139 -6.912e-05
-0.000124139 0.00151617 -3.05921e-06
-6.912e-05 -3.05921e-06 0.00151525
0.00286565 -0.000113277 -4.86711e-06
-0.000113277 0.00139088 4.7128e-07
-4.86711e-06 4.7128e-07 0.00139233
0.000465778 -8.87443e-06 3.27888e-06
-8.87443e-06 -6.54076e-05 7.26873e-06
3.27888e-06 7.26873e-06 -9.78862e-05
0.00270186 -9.80537e-05 3.94852e-05
-9.80537e-05 0.00128374 4.02551e-06
3.94852e-05 4.02551e-06 0.00128865
0.00374695 6.06076e-05 4.23588e-05
6.06076e-05 -0.000340797 1.40603e-05
4.23588e-05 1.40603e-05 2.0781e-05
0.00328053 -0.00061873 7.81834e-05
-0.00061873 -0.00253451 3.70798e-05
7.81834e-05 3.70798e-05 -0.00363352
0.00837393 -0.00122311 -0.000108224
-0.00122311 0.00312644 -6.38773e-05
-0.000108224 -6.38773e-05 0.00336567
0.00113295 0.000361537 6.75811e-06
0.000361537 -8.30253e-06 4.94175e-06
6.75811e-06 4.94175e-06 -0.000263577
0.00181095 0.000290251 -6.09537e-09
0.000290251 0.000766523 2.04664e-06
-6.09537e-09 2.04664e-06 0.000561272
0.0016711 0.000334289 -5.75677e-06
0.000334289 0.000604497 7.24766e-06
-5.75677e-06 7.24766e-06 0.000369333
0.000788398 0.000273903 1.78029e-06
0.000273903 9.74487e-05 2.45536e-06
1.78029e-06 2.45536e-06 -0.000121849
0.00121881 0.000336745 -1.50104e-06
0.000336745 0.000186699 -1.08708e-06
-1.50104e-06 -1.08708e-06 -7.83505e-05
0.00118761 0.000408068 9.50502e-06
0.000408068 0.000121814 7.16947e-06
9.50502e-06 7.16947e-06 -0.000119581
0.00107696 0.00032791 -9.65314e-06
0.00032791 0.000223965 -4.47012e-06
-9.65314e-06 -4.47012e-06 -1.74254e-05
0.00066823 0.000323677 3.17242e-06
0.000323677 -3.86088e-05 3.48698e-06
3.17242e-06 3.48698e-06 -0.000189449
0.00125886 0.000420404 2.13284e-06
0.000420404 0.000166273 -1.19117e-06
2.13284e-06 -1.19117e-06 -4.66361e-05
0.00208812 0.000561618 2.59386e-06
0.000561618 0.000416073 6.05916e-06
2.59386e-06 6.05916e-06 0.000241698
0.00172091 0.000562454 5.0741e-06
0.000562454 0.000144482 1.03987e-06
5.0741e-06 1.03987e-06 -6.83124e-05
0.00175095 0.000525819 8.7654e-06
0.000525819 0.000177727 6.98635e-06
8.7654e-06 6.98635e-06 3.16339e-05
0.00120953 0.000551889 -3.28052e-06
0.000551889 -8.83548e-05 -2.66757e-06
-3.28052e-06 -2.66757e-06 -0.000277886
0.000604263 0.000458237 -3.58241e-06
0.000458237 -0.000319982 -1.59746e-06
-3.58241e-06 -1.59746e-06 -0.000484985
0.00161982 0.000450599 3.44114e-05
0.000450599 -0.000293823 3.5448e-05
3.44114e-05 3.5448e-05 -0.000211229
0.00536648 0.000905064 -5.88774e-05
0.000905064 -0.000320571 -1.65634e-05
-5.88774e-05 -1.65634e-05 6.69173e-05
0.00246544 0.000618862 0.000325794
0.000618862 -0.00241023 4.64594e-05
0.000325794 4.64594e-05 -0.00427651
0.000236632 0.000970814 -3.55229e-05
0.000970814 -0.00141971 -2.63319e-05
-3.55229e-05 -2.63319e-05 -0.00141253
0.00300908 0.000901691 -2.7702e-05
0.000901691 0.000429674 -4.07926e-06
-2.7702e-05 -4.07926e-06 0.000342064
0.0027947 0.000825567 -7.49869e-05
0.000825567 0.000641183 -2.50001e-05
-7.49869e-05 -2.50001e-05 0.000447867
0.00239696 -0.00020962 -2.26757e-05
-0.00020962 -4.04949e-05 -1.09326e-05
-2.26757e-05 -1.09326e-05 6.19221e-06
0.000703458 -0.00010025 2.27082e-05
-0.00010025 -0.000279975 7.23022e-06
2.27082e-05 7.23022e-06 -0.000329447
0.00131099 0.000781593 0.000106385
0.000781593 -0.00351769 -1.93859e-05
0.000106385 -1.93859e-05 -0.0038774
-0.000408103 -0.00030735 -2.22164e-05
-0.00030735 -0.00129257 3.46353e-05
-2.22164e-05 3.46353e-05 -0.00122723
0.00417992 -0.000193056 -5.51105e-05
-0.000193056 0.000167879 3.95041e-05
-5.51105e-05 3.95041e-05 -8.27976e-05
0.00228118 -0.000341224 -1.81958e-05
-0.000341224 -9.93981e-05 6.78491e-06
-1.81958e-05 6.78491e-06 4.89081e-05
0.00332101 -0.000171374 -1.65896e-07
-0.000171374 0.000570433 -3.76668e-06
-1.65896e-07 -3.76668e-06 0.0005279
0.00163769 -0.00019427 3.49061e-05
-0.00019427 -0.000400767 -2.62542e-06
3.49061e-05 -2.62542e-06 -0.000218409
0.00331559 -4.99647e-05 2.80144e-05
-4.99647e-05 0.000995521 3.88037e-07
2.80144e-05 3.88037e-07 0.000956053
0.00108419 -0.000368328 -1.89474e-05
-0.000368328 -0.000550792 8.59257e-06
-1.89474e-05 8.59257e-06 -0.000487038
0.00184603 -0.0003048 1.82741e-07
-0.0003048 -0.000252034 2.13959e-06
1.82741e-07 2.13959e-06 -0.000128753
0.00204483 -0.000291321 2.43867e-06
-0.000291321 -7.61063e-05 -1.06162e-06
2.43867e-06 -1.06162e-06 1.06829e-05
0.00193361 -0.000384166 -7.13607e-07
-0.000384166 -4.95847e-05 2.31959e-06
-7.13607e-07 2.31959e-06 -0.000102778
0.00195935 -0.000328328 3.90807e-07
-0.000328328 3.14116e-05 6.46368e-09
3.90807e-07 6.46368e-09 4.68485e-06
0.00198098 -0.00028641 -1.90669e-06
-0.00028641 7.15724e-05 3.47247e-07
-1.90669e-06 3.47247e-07 2.44372e-05
0.00190205 -0.000336785 3.38985e-07
-0.000336785 9.315e-05 2.01105e-07
3.38985e-07 2.01105e-07 6.75406e-06
0.00188651 -0.000311418 -6.17351e-07
-0.000311418 8.52912e-05 4.44214e-08
-6.17351e-07 4.44214e-08 9.92243e-07
0.0018368 -0.000274998 -4.54006e-07
-0.000274998 0.000108812 6.11913e-07
-4.54006e-07 6.11913e-07 9.08667e-06
0.00169322 -0.000312259 5.59676e-07
-0.000312259 3.76481e-05 5.56682e-07
5.59676e-07 5.56682e-07 -7.04291e-05
0.00175805 -0.000297419 8.8052e-07
-0.000297419 9.86105e-05 -7.17014e-07
8.8052e-07 -7.17014e-07 -1.70126e-05
0.0017831 -0.000284602 1.60557e-06
-0.000284602 0.000133781 -2.04925e-06
1.60557e-06 -2.04925e-06 -1.22387e-06
0.00191814 -0.000299426 -4.16162e-06
-0.000299426 0.000223734 4.7288e-06
-4.16162e-06 4.7288e-06 9.82063e-05
0.00191226 -0.000303173 -1.4967e-06
-0.000303173 0.0002437 4.16691e-07
-1.4967e-06 4.16691e-07 9.12441e-05
0.00175817 -0.000282069 -1.25099e-06
-0.000282069 0.000205828 -1.35791e-06
-1.25099e-06 -1.35791e-06 3.22843e-05
0.00180642 -0.000333595 2.69318e-06
-0.000333595 0.000202287 2.0524e-06
2.69318e-06 2.0524e-06 1.71597e-05
0.00174355 -0.000311139 8.26203e-07
-0.000311139 0.000228471 -5.99866e-07
8.26203e-07 -5.99866e-07 3.50904e-05
0.00135846 -0.000239492 -7.1806e-06
-0.000239492 0.000111333 1.70211e-06
-7.1806e-06 1.70211e-06 -7.55125e-05
0.000916221 -0.000178375 -1.23254e-05
-0.000178375 -7.64486e-07 6.31261e-06
-1.23254e-05 6.31261e-06 -0.000160543
0.00123076 -0.000255089 -1.29006e-06
-0.000255089 7.951e-05 2.76675e-07
-1.29006e-06 2.76675e-07 -0.000120216
0.00164338 -0.000346321 3.1592e-06
-0.000346321 0.000223738 7.50877e-09
3.1592e-06 7.50877e-09 -6.70635e-07
0.000511175 -0.00018443 -2.20208e-05
-0.00018443 -9.27413e-05 1.53847e-05
-2.20208e-05 1.53847e-05 -0.000193228
0.000866033 -0.000185268 5.14078e-07
-0.000185268 7.50402e-06 1.03249e-07
5.14078e-07 1.03249e-07 -0.0001602
0.00122865 -0.000266908 6.83477e-06
-0.000266908 0.000126184 -2.26297e-06
6.83477e-06 -2.26297e-06 -8.26871e-05
0.00533083 0.000170133 -0.000159461
0.000170133 0.00288752 9.47597e-06
-0.000159461 9.47597e-06 0.00287041
0.000550208 -0.000170292 -1.24554e-06
-0.000170292 -6.02429e-05 1.83065e-07
-1.24554e-06 1.83065e-07 -0.000152125
0.000792263 -0.000183251 9.48359e-06
-0.000183251 2.85783e-05 -6.07714e-06
9.48359e-06 -6.07714e-06 -0.000145277
0.00493987 0.000154031 8.17668e-06
0.000154031 0.00265361 1.02447e-06
8.17668e-06 1.02447e-06 0.00264068
0.000713394 -0.000128675 1.92489e-05
-0.000128675 5.42896e-05 -1.44515e-05
1.92489e-05 -1.44515e-05 -2.70302e-05
0.00441635 0.000113644 0.000150169
0.000113644 0.00233195 -9.51001e-06
0.000150169 -9.51001e-06 0.00232964
0.00121738 0.000313303 -3.36893e-06
0.000313303 0.000109573 4.50178e-07
-3.36893e-06 4.50178e-07 -0.000131388
0.00122503 0.000293221 -2.29477e-06
0.000293221 0.000207547 -7.91787e-07
-2.29477e-06 -7.91787e-07 -3.05365e-05
0.00117854 0.000248277 -5.04731e-06
0.000248277 0.000230198 -2.32019e-06
-5.04731e-06 -2.32019e-06 1.75127e-05
0.00209703 0.000346883 -2.31284e-06
0.000346883 0.000841346 3.33601e-06
-2.31284e-06 3.33601e-06 0.00061253
0.000896421 0.000189054 -1.43929e-06
0.000189054 0.000158136 -2.14999e-06
-1.43929e-06 -2.14999e-06 -3.13888e-05
0.000971164 0.000170782 -4.38148e-06
0.000170782 0.000246799 -6.29534e-06
-4.38148e-06 -6.29534e-06 8.49038e-05
0.000454522 9.26113e-05 -7.96317e-07
9.26113e-05 -6.39106e-05 9.90415e-09
-7.96317e-07 9.90415e-09 -0.000214105
0.000673028 5.80632e-05 -5.74819e-07
5.80632e-05 6.74386e-05 -3.35007e-07
-5.74819e-07 -3.35007e-07 -5.31855e-05
0.000607355 6.6386e-06 -7.19977e-06
6.6386e-06 2.66209e-05 -1.05843e-05
-7.19977e-06 -1.05843e-05 -2.48053e-05
0.00052863 5.56678e-06 8.38067e-07
5.56678e-06 -1.40751e-05 5.29396e-06
8.38067e-07 5.29396e-06 -0.00011537
0.000497498 -1.71834e-05 3.85458e-07
-1.71834e-05 -3.51238e-05 -1.72917e-07
3.85458e-07 -1.72917e-07 -7.89295e-05
0.00329661 -0.000132226 -8.68085e-05
-0.000132226 0.00166723 -2.94832e-06
-8.68085e-05 -2.94832e-06 0.00166418
0.000440885 -1.48034e-05 3.51625e-06
-1.48034e-05 -7.34313e-05 8.1375e-06
3.51625e-06 8.1375e-06 -0.000111003
0.00302702 -0.000128609 -4.06494e-06
-0.000128609 0.00149735 4.40238e-07
-4.06494e-06 4.40238e-07 0.00149501
0.00286746 -0.000114162 4.88518e-05
-0.000114162 0.00139154 3.71157e-06
4.88518e-05 3.71157e-06 0.00139265
0.000406836 6.39641e-05 1.603e-05
6.39641e-05 -0.00106977 1.10714e-05
1.603e-05 1.10714e-05 -0.00091525
0.00486398 4.31924e-05 5.47188e-05
4.31924e-05 0.000194552 1.34974e-06
5.47188e-05 1.34974e-06 0.000471986
0.0113767 0.000696674 -7.12338e-05
0.000696674 0.00300517 -1.74702e-05
-7.12338e-05 -1.74702e-05 0.00206714
0.0015852 0.000454615 3.67927e-06
0.000454615 0.000215884 2.86204e-06
3.67927e-06 2.86204e-06 -3.2949e-05
0.00180257 0.000456774 2.85735e-06
0.000456774 0.000258637 2.25949e-06
2.85735e-06 2.25949e-06 2.21692e-05
0.00121374 0.000375584 9.08223e-07
0.000375584 4.84154e-05 -2.18002e-06
9.08223e-07 -2.18002e-06 -0.00020818
0.00133036 0.000333863 -2.90608e-06
0.000333863 0.000402646 2.73964e-06
-2.90608e-06 2.73964e-06 0.000169647
0.00172818 0.000384643 -1.81917e-06
0.000384643 0.000501919 -1.43973e-06
-1.81917e-06 -1.43973e-06 0.000224839
0.00148716 0.000437007 7.13611e-06
0.000437007 0.000274925 1.1696e-06
7.13611e-06 1.1696e-06 3.15243e-05
0.00168717 0.000522857 -1.35913e-06
0.000522857 0.000101776 -1.49777e-06
-1.35913e-06 -1.49777e-06 -0.000120123
0.001931 0.00048974 -7.97995e-06
0.00048974 0.000530528 3.45405e-07
-7.97995e-06 3.45405e-07 0.000306748
0.00133703 0.000496182 8.48669e-06
0.000496182 -4.41208e-06 1.51192e-05
8.48669e-06 1.51192e-05 -0.000163052
0.0022127 0.000602028 -2.5236e-06
0.000602028 0.000415808 1.06132e-06
-2.5236e-06 1.06132e-06 0.000199507
0.00196496 0.000524334 -9.11705e-06
0.000524334 0.000164429 8.87726e-08
-9.11705e-06 8.87726e-08 -1.0354e-05
0.000700627 0.000268625 1.72311e-05
0.000268625 -0.000504882 9.25988e-06
1.72311e-05 9.25988e-06 -0.000532391
0.000946856 0.000462849 1.06706e-05
0.000462849 -0.000232705 -9.70172e-08
1.06706e-05 -9.70172e-08 -0.000372865
0.0011651 0.000539936 -1.46261e-05
0.000539936 -0.000117624 -1.01783e-05
-1.46261e-05 -1.01783e-05 -0.00030335
0.00209837 0.00046816 4.09437e-06
0.00046816 -4.5923e-05 7.62742e-06
4.09437e-06 7.62742e-06 -1.92125e-05
0.00552609 0.000600521 2.24512e-05
0.000600521 -0.000151127 -2.28645e-05
2.24512e-05 -2.28645e-05 -0.000129487
0.00306528 0.00078571 2.68713e-06
0.00078571 0.00073735 -3.34345e-05
2.68713e-06 -3.34345e-05 0.000670152
0.00150903 -4.70013e-05 2.52552e-05
-4.70013e-05 -4.54281e-05 -2.1071e-06
2.52552e-05 -2.1071e-06 -3.24887e-05
0.00219624 -0.000138771 -2.97301e-05
-0.000138771 -8.86232e-05 4.40823e-07
-2.97301e-05 4.40823e-07 -5.83453e-05
0.00164861 0.000215517 2.41652e-05
0.000215517 -0.000551044 -7.91876e-06
2.41652e-05 -7.91876e-06 -0.0006616
0.000208227 -0.000237479 -3.43926e-05
-0.000237479 -0.00117915 2.6974e-05
-3.43926e-05 2.6974e-05 -0.00101458
0.00337639 -0.000247642 -9.76066e-05
-0.000247642 0.000514374 -1.43215e-06
-9.76066e-05 -1.43215e-06 0.000518899
0.00195394 -0.000223541 4.6581e-06
-0.000223541 -0.000162643 -3.13584e-06
4.6581e-06 -3.13584e-06 4.84739e-07
0.00237322 -6.04908e-05 -8.36334e-06
-6.04908e-05 0.000397476 4.15334e-07
-8.36334e-06 4.15334e-07 0.000364611
0.00211373 -0.000195028 5.32274e-06
-0.000195028 5.97962e-06 8.24335e-07
5.32274e-06 8.24335e-07 3.72098e-05
0.00205292 -2.17659e-05 6.79088e-06
-2.17659e-05 1.96431e-05 8.78041e-07
6.79088e-06 8.78041e-07 8.84042e-06
0.00183089 -0.00032028 -9.01419e-06
-0.00032028 -0.000288325 3.3926e-06
-9.01419e-06 3.3926e-06 -0.000174259
0.00206936 -0.000291336 -1.91522e-06
-0.000291336 -4.97998e-05 1.51754e-07
-1.91522e-06 1.51754e-07 2.04744e-05
0.00203541 -0.000220018 -1.32908e-06
-0.000220018 4.70822e-06 -6.11023e-07
-1.32908e-06 -6.11023e-07 2.62668e-07
0.00196841 -0.000333026 -1.92605e-06
-0.000333026 3.60082e-05 -3.6166e-07
-1.92605e-06 -3.6166e-07 5.25224e-06
0.00196118 -0.000281903 7.26872e-08
-0.000281903 7.08085e-05 2.71622e-08
7.26872e-08 2.71622e-08 1.84139e-05
0.00195375 -0.000249646 -1.68387e-06
-0.000249646 0.000100414 4.86066e-07
-1.68387e-06 4.86066e-07 2.30899e-05
0.00181996 -0.000314679 -6.8844e-07
-0.000314679 5.22584e-05 -1.40219e-06
-6.8844e-07 -1.40219e-06 -3.53482e-05
0.00179737 -0.000272908 5.11734e-07
-0.000272908 8.1943e-05 -1.78883e-07
5.11734e-07 -1.78883e-07 -1.81515e-05
0.00178763 -0.000255228 8.28156e-07
-0.000255228 9.62311e-05 -8.29293e-07
8.28156e-07 -8.29293e-07 -1.90518e-05
0.00178693 -0.000299328 -4.276e-07
-0.000299328 0.000112379 -1.43672e-07
-4.276e-07 -1.43672e-07 -3.70899e-06
0.00180399 -0.000284998 -7.49392e-09
-0.000284998 0.000147126 -3.7673e-07
-7.49392e-09 -3.7673e-07 1.2055e-05
0.00170232 -0.000258548 -2.23787e-07
-0.000258548 0.000139409 -1.18708e-06
-2.23787e-07 -1.18708e-06 -1.94053e-05
0.00196976 -0.000304224 -1.76422e-06
-0.000304224 0.000273957 3.64636e-06
-1.76422e-06 3.64636e-06 0.000125126
0.00176837 -0.000283101 -6.24148e-07
-0.000283101 0.000212722 -1.17882e-07
-6.24148e-07 -1.17882e-07 4.01453e-05
0.00136516 -0.000217223 -6.23972e-06
-0.000217223 8.84168e-05 1.48508e-06
-6.23972e-06 1.48508e-06 -8.80433e-05
0.00173575 -0.000312816 3.92025e-06
-0.000312816 0.000224471 6.81953e-07
3.92025e-06 6.81953e-07 3.0181e-05
0.00136035 -0.000240671 -2.50096e-07
-0.000240671 0.000112931 -3.72002e-08
-2.50096e-07 -3.72002e-08 -7.37134e-05
0.000937157 -0.000162603 -1.34841e-05
-0.000162603 -1.16249e-05 6.11456e-06
-1.34841e-05 6.11456e-06 -0.000163927
0.000438916 -0.000171664 -2.02052e-05
-0.000171664 -0.000145888 1.44584e-05
-2.02052e-05 1.44584e-05 -0.000246664
0.000928541 -0.000178974 2.27143e-07
-0.000178974 5.67676e-06 9.4888e-08
2.27143e-07 9.4888e-08 -0.000154376
0.00119908 -0.000252475 5.73459e-06
-0.000252475 6.23639e-05 -1.68794e-06
5.73459e-06 -1.68794e-06 -0.000137631
0.00569177 9.86452e-05 -0.000192076
9.86452e-05 0.00307918 1.05797e-05
-0.000192076 1.05797e-05 0.00307468
0.000534197 -0.00018103 -1.64309e-06
-0.00018103 -8.63352e-05 8.17847e-07
-1.64309e-06 8.17847e-07 -0.000183359
0.000831028 -0.000184081 1.10763e-05
-0.000184081 -1.06589e-05 -6.04703e-06
1.10763e-05 -6.04703e-06 -0.000178551
0.00547162 0.000141939 5.65618e-07
0.000141939 0.00296722 -1.2576e-07
5.65618e-07 -1.2576e-07 0.00295311
0.000643167 -0.000173217 2.245e-05
-0.000173217 -7.86254e-06 -1.53344e-05
2.245e-05 -1.53344e-05 -0.000101439
0.00513438 0.000133329 0.000170235
0.000133329 0.00276626 -1.25793e-05
0.000170235 -1.25793e-05 0.00275518
0.00140921 0.000362673 -2.27447e-06
0.000362673 0.000146737 1.99369e-06
-2.27447e-06 1.99369e-06 -8.84853e-05
0.00123134 0.000317018 7.99113e-08
0.000317018 0.000115422 4.82732e-07
7.99113e-08 4.82732e-07 -0.000125398
0.00109101 0.000250418 -7.13075e-06
0.000250418 7.90552e-05 -1.99873e-06
-7.13075e-06 -1.99873e-06 -0.00012954
0.00129119 0.000299134 -5.0965e-07
0.000299134 0.000248811 2.49392e-06
-5.0965e-07 2.49392e-06 9.94481e-06
0.00106245 0.000236225 -1.99645e-06
0.000236225 0.000163549 1.00962e-06
-1.99645e-06 1.00962e-06 -4.67319e-05
0.000926996 0.000191357 -7.39375e-06
0.000191357 0.000165914 -4.9968e-06
-7.39375e-06 -4.9968e-06 -8.57679e-06
0.00106617 0.000202386 -1.08888e-06
0.000202386 0.000261304 1.11836e-06
-1.08888e-06 1.11836e-06 6.8848e-05
0.00071133 0.000136562 -8.90484e-08
0.000136562 9.68225e-05 -8.2496e-08
-8.90484e-08 -8.2496e-08 -6.03641e-05
0.000771388 6.85885e-05 -1.38713e-05
6.85885e-05 0.000115296 -1.30927e-05
-1.38713e-05 -1.30927e-05 4.7556e-05
0.000554637 2.21866e-05 1.13023e-06
2.21866e-05 -4.43135e-06 5.33483e-06
1.13023e-06 5.33483e-06 -0.000119336
0.000494295 -2.40625e-06 -2.75103e-07
-2.40625e-06 -3.77044e-05 -3.32501e-07
-2.75103e-07 -3.32501e-07 -8.86635e-05
0.0037126 -0.000133912 -0.000113537
-0.000133912 0.00192259 -4.17187e-06
-0.000113537 -4.17187e-06 0.00191812
0.000422919 -1.77234e-05 3.75711e-06
-1.77234e-05 -7.84268e-05 9.00086e-06
3.75711e-06 9.00086e-06 -0.000121816
0.00321745 -0.00014213 -4.0242e-06
-0.00014213 0.00162109 4.22668e-07
-4.0242e-06 4.22668e-07 0.00161518
0.00298437 -0.000129509 5.7293e-05
-0.000129509 0.00147138 3.32194e-06
5.7293e-05 3.32194e-06 0.00146854
0.000570303 7.46575e-05 2.14834e-05
7.46575e-05 -0.000605208 5.80808e-06
2.14834e-05 5.80808e-06 -0.000531847
0.00209468 4.95409e-05 -8.90546e-06
4.95409e-05 -0.000375266 -1.80051e-06
-8.90546e-06 -1.80051e-06 -0.000197908
0.00421926 6.29254e-05 0.000151096
6.29254e-05 -0.000574236 4.11244e-05
0.000151096 4.11244e-05 0.000112739
0.00231068 0.000522874 -1.83935e-06
0.000522874 0.00046967 5.39022e-08
-1.83935e-06 5.39022e-08 0.000242568
0.00158702 0.000473432 -2.42062e-06
0.000473432 0.000202169 -3.47133e-06
-2.42062e-06 -3.47133e-06 -4.5466e-05
0.0019711 0.000404426 -1.85145e-07
0.000404426 0.000218441 3.28777e-06
-1.85145e-07 3.28777e-06 2.69056e-05
0.00179309 0.000451274 8.25583e-07
0.000451274 0.000250427 2.70955e-07
8.25583e-07 2.70955e-07 1.55451e-05
0.0012776 0.000388704 1.50886e-06
0.000388704 9.28102e-05 -6.98965e-06
1.50886e-06 -6.98965e-06 -0.000164974
0.00184731 0.000425545 -2.69969e-07
0.000425545 7.12585e-05 8.88073e-07
-2.69969e-07 8.88073e-07 -9.91679e-05
0.00189892 0.000477795 -4.17224e-06
0.000477795 0.000494589 -2.12153e-06
-4.17224e-06 -2.12153e-06 0.000246679
0.00194567 0.000534986 8.60508e-08
0.000534986 0.000264866 -1.2689e-07
8.60508e-08 -1.2689e-07 4.07282e-05
0.00182608 0.000311508 -5.07833e-06
0.000311508 -3.49907e-05 -7.32124e-07
-5.07833e-06 -7.32124e-07 -0.000127813
0.00270623 0.000642343 1.58984e-06
0.000642343 0.000685436 1.85157e-06
1.58984e-06 1.85157e-06 0.00046566
0.00194567 0.000527039 -1.78957e-06
0.000527039 0.000143582 4.15325e-08
-1.78957e-06 4.15325e-08 -3.47102e-05
0.000901743 0.000282883 5.286e-06
0.000282883 -0.000358505 3.25203e-06
5.286e-06 3.25203e-06 -0.000395382
-0.000455528 0.000358274 -6.67255e-06
0.000358274 -0.000951321 -3.34144e-06
-6.67255e-06 -3.34144e-06 -0.00108073
0.00218725 0.000485776 -6.18958e-05
0.000485776 -1.21294e-05 -2.95844e-05
-6.18958e-05 -2.95844e-05 -3.49165e-05
0.00189823 4.68468e-05 5.12751e-07
4.68468e-05 -8.84234e-05 -9.57061e-07
5.12751e-07 -9.57061e-07 -7.20231e-05
0.00222273 -4.18449e-05 1.45569e-06
-4.18449e-05 0.000402604 1.22667e-06
1.45569e-06 1.22667e-06 0.000415135
0.00175227 -8.50606e-05 -5.76417e-05
-8.50606e-05 -0.000220457 9.97453e-07
-5.76417e-05 9.97453e-07 -0.000292707
0.002301 -0.000252719 -3.89271e-05
-0.000252719 9.13361e-05 3.37862e-06
-3.89271e-05 3.37862e-06 0.00022905
0.00146613 -7.93508e-05 -1.03981e-05
-7.93508e-05 -0.000174948 7.8122e-07
-1.03981e-05 7.8122e-07 -0.000200027
0.00203693 -0.000188908 -4.11858e-09
-0.000188908 -4.22176e-05 -8.22212e-07
-4.11858e-09 -8.22212e-07 1.86089e-06
0.00212113 -2.29367e-05 -1.56312e-06
-2.29367e-05 3.85378e-05 1.51e-06
-1.56312e-06 1.51e-06 3.40391e-05
0.00211314 -6.95921e-05 -1.5436e-06
-6.95921e-05 2.56538e-05 -2.548e-07
-1.5436e-06 -2.548e-07 3.35611e-05
0.00208157 -0.000289028 -4.3163e-06
-0.000289028 -2.68507e-05 7.55349e-07
-4.3163e-06 7.55349e-07 2.7322e-05
0.00201136 -0.000211664 4.1124e-07
-0.000211664 1.96995e-06 -2.04874e-07
4.1124e-07 -2.04874e-07 -3.84113e-06
0.00200578 -0.000173043 -1.75462e-06
-0.000173043 4.78897e-05 -1.70917e-07
-1.75462e-06 -1.70917e-07 1.43733e-05
0.0019403 -0.00027781 1.17072e-06
-0.00027781 6.87986e-05 -9.37799e-07
1.17072e-06 -9.37799e-07 1.15266e-05
0.001868 -0.000244014 2.26563e-07
-0.000244014 5.74741e-05 3.69371e-08
2.26563e-07 3.69371e-08 -2.20516e-05
0.00180358 -0.000201682 2.45878e-09
-0.000201682 6.59755e-05 -3.85324e-07
2.45878e-09 -3.85324e-07 -2.85329e-05
0.00176151 -0.000271085 1.23121e-06
-0.000271085 5.63309e-05 -7.98049e-07
1.23121e-06 -7.98049e-07 -4.41196e-05
0.00182203 -0.000255974 8.89815e-08
-0.000255974 0.000117424 -1.7576e-07
8.89815e-08 -1.7576e-07 2.03215e-06
0.00175281 -0.000229225 5.62362e-07
-0.000229225 0.000128128 -9.70737e-07
5.62362e-07 -9.70737e-07 -1.36053e-05
0.00182054 -0.000285224 -8.77416e-07
-0.000285224 0.000157826 1.11375e-06
-8.77416e-07 1.11375e-06 2.26902e-05
0.00173285 -0.000259534 -3.10383e-07
-0.000259534 0.000158463 -9.17035e-08
-3.10383e-07 -9.17035e-08 -1.06735e-07
0.0014136 -0.000198115 -4.57956e-06
-0.000198115 9.01891e-05 1.14314e-06
-4.57956e-06 1.14314e-06 -7.73723e-05
0.00177756 -0.000284007 7.64977e-07
-0.000284007 0.000218859 1.27516e-06
7.64977e-07 1.27516e-06 4.72855e-05
0.00138775 -0.00021833 -2.57415e-07
-0.00021833 0.000100941 6.2704e-08
-2.57415e-07 6.2704e-08 -7.51984e-05
0.000958766 -0.000145936 -1.38723e-05
-0.000145936 -1.46905e-05 5.65112e-06
-1.38723e-05 5.65112e-06 -0.000161688
0.00136253 -0.000241905 6.32122e-06
-0.000241905 0.000114685 -1.32938e-06
6.32122e-06 -1.32938e-06 -7.17706e-05
0.000958308 -0.000162862 1.51464e-07
-0.000162862 -1.03066e-06 6.22913e-08
1.51464e-07 6.22913e-08 -0.000153156
0.00248002 -0.000125394 -3.30957e-05
-0.000125394 0.00106557 9.04862e-06
-3.30957e-05 9.04862e-06 0.000984066
0.00176124 -5.64442e-05 -0.000192644
-5.64442e-05 0.000703664 2.20042e-05
-0.000192644 2.20042e-05 0.000685831
0.00154682 -0.000159121 -6.72917e-06
-0.000159121 0.000513128 -3.52726e-07
-6.72917e-06 -3.52726e-07 0.00041932
0.000941826 -0.000179664 1.24751e-05
-0.000179664 1.2885e-05 -5.96197e-06
1.24751e-05 -5.96197e-06 -0.000147489
0.00577487 8.21657e-05 -6.38235e-06
8.21657e-05 0.00313534 -3.62512e-07
-6.38235e-06 -3.62512e-07 0.00312756
0.000594094 -0.000203998 2.3834e-05
-0.000203998 -5.12708e-05 -1.50123e-05
2.3834e-05 -1.50123e-05 -0.000151298
0.00560235 0.00012597 0.000185752
0.00012597 0.00305159 -1.66605e-05
0.000185752 -1.66605e-05 0.00303419
0.00196394 0.000317572 6.07683e-07
0.000317572 0.000183441 3.01377e-07
6.07683e-07 3.01377e-07 2.34917e-05
0.0017295 0.000373152 1.62307e-06
0.000373152 0.000209612 3.15672e-06
1.62307e-06 3.15672e-06 -1.81464e-06
0.00165689 0.000387476 9.14651e-08
0.000387476 0.000282921 1.24489e-07
9.14651e-08 1.24489e-07 4.47895e-05
0.00115764 0.000264531 -6.51854e-06
0.000264531 5.95269e-05 -1.64138e-06
-6.51854e-06 -1.64138e-06 -0.000145557
0.00128345 0.000324576 5.01632e-06
0.000324576 0.000144671 1.18183e-06
5.01632e-06 1.18183e-06 -9.68387e-05
0.00112374 0.000249875 -1.18133e-07
0.000249875 0.000100886 8.8305e-08
-1.18133e-07 8.8305e-08 -0.000106851
0.000844869 0.000184717 -9.96497e-06
0.000184717 3.26657e-05 -5.29557e-06
-9.96497e-06 -5.29557e-06 -0.00013678
0.000931104 0.0002231 2.50116e-06
0.0002231 8.63527e-05 4.85886e-06
2.50116e-06 4.85886e-06 -0.000121165
0.000787869 0.000177756 -7.34194e-08
0.000177756 8.2737e-05 8.02914e-07
-7.34194e-08 8.02914e-07 -9.07794e-05
0.000730913 0.000152412 -2.11663e-05
0.000152412 7.04387e-05 -1.46833e-05
-2.11663e-05 -1.46833e-05 -1.73557e-05
0.000593103 0.00010181 1.49756e-06
0.00010181 2.30258e-05 5.03597e-06
1.49756e-06 5.03597e-06 -0.00012613
0.00052802 5.37029e-05 -1.63972e-06
5.37029e-05 -2.74275e-05 -6.92857e-07
-1.63972e-06 -6.92857e-07 -9.11444e-05
0.00441691 -0.000128195 -0.000151562
-0.000128195 0.00234751 -8.47761e-06
-0.000151562 -8.47761e-06 0.00233976
0.000374719 -1.03058e-05 4.39939e-06
-1.03058e-05 -0.000105213 1.01521e-05
4.39939e-06 1.01521e-05 -0.00015611
0.00353796 -0.000154503 -5.40502e-06
-0.000154503 0.00182204 4.25694e-07
-5.40502e-06 4.25694e-07 0.00181239
0.00315797 -0.000145952 6.67501e-05
-0.000145952 0.00158575 2.78227e-06
6.67501e-05 2.78227e-06 0.00157854
0.00197595 0.000163237 3.17168e-07
0.000163237 -3.86326e-05 -9.24775e-07
3.17168e-07 -9.24775e-07 -4.62193e-05
0.00192395 5.48078e-05 1.83274e-05
5.48078e-05 0.000104576 -1.11011e-06
1.83274e-05 -1.11011e-06 0.000165658
0.00436078 6.21291e-05 -0.00010191
6.21291e-05 0.000587922 -1.48898e-05
-0.00010191 -1.48898e-05 0.000815006
0.00181134 0.000365191 -2.73744e-06
0.000365191 6.56428e-05 1.17557e-06
-2.73744e-06 1.17557e-06 -9.56542e-05
0.00193557 0.000488508 -2.76626e-06
0.000488508 0.000267957 -7.8081e-08
-2.76626e-06 -7.8081e-08 4.4568e-05
0.00149637 0.00048251 -1.01977e-05
0.00048251 0.000137621 -7.5621e-06
-1.01977e-05 -7.5621e-06 -0.000106627
0.00204533 0.000397062 2.81024e-06
0.000397062 0.000275255 1.11149e-06
2.81024e-06 1.11149e-06 8.59522e-05
0.00177433 0.000445369 -1.78673e-06
0.000445369 0.000237853 -2.79361e-06
-1.78673e-06 -2.79361e-06 4.48465e-06
0.00222163 0.000307868 1.64138e-07
0.000307868 0.00019421 3.64025e-07
1.64138e-07 3.64025e-07 9.21475e-05
0.0017304 0.000418942 -3.48697e-07
0.000418942 2.52279e-05 7.42865e-07
-3.48697e-07 7.42865e-07 -0.000145701
0.00224033 0.000550535 -3.80044e-06
0.000550535 0.000447577 -4.98905e-07
-3.80044e-06 -4.98905e-07 0.000220427
0.00183641 0.000314932 -1.02085e-06
0.000314932 -2.41067e-05 -3.4293e-07
-1.02085e-06 -3.4293e-07 -0.00011805
0.00204289 0.000538002 1.68321e-05
0.000538002 0.000175918 2.79933e-06
1.68321e-05 2.79933e-06 -6.28406e-06
0.00113536 0.000284217 -2.95869e-05
0.000284217 -0.00020658 -7.22186e-06
-2.95869e-05 -7.22186e-06 -0.000250268
0.00206495 5.47986e-05 -1.43468e-06
5.47986e-05 1.11386e-05 4.78206e-07
-1.43468e-06 4.78206e-07 1.59154e-05
0.00200602 5.64258e-05 -1.93218e-06
5.64258e-05 -1.45881e-05 2.0024e-07
-1.93218e-06 2.0024e-07 -2.18583e-06
0.0029195 -3.23273e-05 -3.93266e-05
-3.23273e-05 0.000846039 3.31863e-06
-3.93266e-05 3.31863e-06 0.00085373
0.00195099 -0.000181439 -1.00959e-05
-0.000181439 -0.00010006 -4.42746e-07
-1.00959e-05 -4.42746e-07 -4.3529e-05
0.00209513 -2.18921e-05 -3.32196e-06
-2.18921e-05 -4.30523e-06 -2.297e-06
-3.32196e-06 -2.297e-06 -3.26629e-06
0.00207571 -7.36811e-05 -3.17321e-07
-7.36811e-05 -1.26719e-05 9.61167e-08
-3.17321e-07 9.61167e-08 3.15513e-07
0.00192537 -5.82018e-05 -2.30708e-06
-5.82018e-05 1.79481e-05 2.17908e-07
-2.30708e-06 2.17908e-07 1.98506e-06
0.00198845 -0.000202223 1.5916e-06
-0.000202223 1.52587e-06 2.23651e-07
1.5916e-06 2.23651e-07 -5.63916e-06
0.00193217 -0.000173659 1.31747e-07
-0.000173659 1.4984e-05 -1.18366e-09
1.31747e-07 -1.18366e-09 -2.20287e-05
0.00184661 -0.000135046 1.97652e-06
-0.000135046 6.2741e-05 -1.34517e-06
1.97652e-06 -1.34517e-06 -1.15785e-05
0.00177883 -0.000238012 1.93217e-06
-0.000238012 1.32528e-05 -4.78771e-07
1.93217e-06 -4.78771e-07 -6.86308e-05
0.00185191 -0.000204203 -8.46807e-08
-0.000204203 8.82203e-05 6.25394e-09
-8.46807e-08 6.25394e-09 -6.5579e-06
0.00180959 -0.000188476 7.07012e-07
-0.000188476 0.000118895 -8.4453e-07
7.07012e-07 -8.4453e-07 -6.29642e-06
0.00185931 -0.000256713 5.33701e-08
-0.000256713 0.000140703 3.92741e-07
5.33701e-08 3.92741e-07 2.52271e-05
0.00178049 -0.000230213 -2.3882e-07
-0.000230213 0.000144125 2.09851e-08
-2.3882e-07 2.09851e-08 2.50167e-06
0.00146458 -0.000173722 -3.44478e-06
-0.000173722 9.21107e-05 7.31337e-07
-3.44478e-06 7.31337e-07 -6.59738e-05
0.00176312 -0.000260536 -2.41709e-07
-0.000260536 0.00017744 9.46409e-07
-2.41709e-07 9.46409e-07 1.91084e-05
0.00143229 -0.00019889 -1.97646e-07
-0.00019889 9.94263e-05 7.66365e-08
-1.97646e-07 7.66365e-08 -6.77665e-05
0.000967926 -0.000129518 -1.3505e-05
-0.000129518 -2.15792e-05 4.85526e-06
-1.3505e-05 4.85526e-06 -0.00016527
0.00140884 -0.000219369 5.36858e-06
-0.000219369 0.000112622 -1.27472e-06
5.36858e-06 -1.27472e-06 -6.31947e-05
0.000977351 -0.000145327 1.17145e-07
-0.000145327 -5.96909e-06 1.21613e-07
1.17145e-07 1.21613e-07 -0.000152434
0.00251214 -0.000130047 -4.08286e-05
-0.000130047 0.00107275 8.36198e-06
-4.08286e-05 8.36198e-06 0.000998607
0.000974247 -0.000163067 1.35024e-05
-0.000163067 6.61118e-06 -5.92169e-06
1.35024e-05 -5.92169e-06 -0.000145367
0.00263207 -0.000169052 3.92001e-05
-0.000169052 0.00115296 -5.22135e-06
3.92001e-05 -5.22135e-06 0.0010778
0.0018313 -9.58049e-05 -0.000195888
-9.58049e-05 0.000752488 2.63847e-05
-0.000195888 2.63847e-05 0.000733051
0.00371021 -3.62585e-05 -0.000192708
-3.62585e-05 0.0018914 1.37988e-05
-0.000192708 1.37988e-05 0.00187987
0.00271717 -0.000222995 0.000122977
-0.000222995 0.00121121 -1.74793e-05
0.000122977 -1.74793e-05 0.00113743
0.00583905 6.73563e-05 0.000202835
6.73563e-05 0.00318312 -1.95843e-05
0.000202835 -1.95843e-05 0.00317097
0.00209065 0.000310935 -2.05473e-06
0.000310935 0.000242153 -9.62884e-07
-2.05473e-06 -9.62884e-07 9.96618e-05
0.00162106 0.000297129 2.85462e-06
0.000297129 8.67493e-05 1.04576e-06
2.85462e-06 1.04576e-06 -9.22739e-05
0.00195963 0.000314406 3.72943e-07
0.000314406 0.000180215 -1.29862e-06
3.72943e-07 -1.29862e-06 2.55325e-05
0.0012842 0.00026569 -5.87841e-06
0.00026569 7.19933e-05 -7.60541e-07
-5.87841e-06 -7.60541e-07 -0.000124641
0.00179764 0.000376197 6.3024e-07
0.000376197 0.000239897 4.27662e-07
6.3024e-07 4.27662e-07 2.77819e-05
0.0019102 0.000413117 1.92583e-06
0.000413117 0.000421628 -1.4251e-06
1.92583e-06 -1.4251e-06 0.000180443
0.00120884 0.000265862 -2.52366e-07
0.000265862 9.39912e-05 9.24357e-08
-2.52366e-07 9.24357e-08 -0.00011099
0.00094065 0.000188261 -1.20788e-05
0.000188261 2.92104e-05 -5.90288e-06
-1.20788e-05 -5.90288e-06 -0.000135576
0.00115681 0.000249482 7.68624e-06
0.000249482 0.000123352 2.25626e-06
7.68624e-06 2.25626e-06 -8.36749e-05
0.000837975 0.000180652 -2.67971e-07
0.000180652 2.36018e-05 7.42082e-08
-2.67971e-07 7.42082e-08 -0.000144533
0.000590732 0.00019783 -2.37102e-05
0.00019783 -3.52183e-05 -1.55588e-05
-2.37102e-05 -1.55588e-05 -0.000134484
0.000618635 0.000165214 4.36888e-06
0.000165214 -1.45669e-05 5.53172e-06
4.36888e-06 5.53172e-06 -0.000188287
0.000540952 0.00012459 2.59303e-07
0.00012459 -4.0418e-05 2.28758e-07
2.59303e-07 2.28758e-07 -0.000122948
0.00527842 -0.000131983 -0.000178387
-0.000131983 0.00287573 -1.53947e-05
-0.000178387 -1.53947e-05 0.00285571
0.000278456 2.46952e-05 7.60026e-06
2.46952e-05 -0.00016836 1.20016e-05
7.60026e-06 1.20016e-05 -0.000230496
0.004178 -0.000172534 -1.00727e-05
-0.000172534 0.00221568 7.03903e-07
-1.00727e-05 7.03903e-07 0.0021992
0.00341869 -0.000163691 7.81979e-05
-0.000163691 0.00175205 2.5116e-06
7.81979e-05 2.5116e-06 0.00173989
0.00202692 0.000180909 -1.09166e-06
0.000180909 1.23483e-05 4.5796e-07
-1.09166e-06 4.5796e-07 -2.64489e-05
0.00190865 0.000164324 9.22501e-07
0.000164324 -7.42024e-05 -1.73734e-07
9.22501e-07 -1.73734e-07 -8.2438e-05
0.00306275 4.05876e-05 -7.33682e-05
4.05876e-05 0.000708166 -7.95262e-06
-7.33682e-05 -7.95262e-06 0.000762891
0.00200054 0.000269041 7.33008e-07
0.000269041 0.000116228 4.97793e-07
7.33008e-07 4.97793e-07 3.81491e-06
0.00183151 0.000362765 -3.0321e-07
0.000362765 9.6884e-05 3.48261e-07
-3.0321e-07 3.48261e-07 -6.44271e-05
0.00157444 0.000454915 -3.33889e-07
0.000454915 7.26698e-05 -1.96002e-06
-3.33889e-07 -1.96002e-06 -0.000147055
0.00211989 0.000389308 -6.44251e-07
0.000389308 0.00033279 -2.28178e-06
-6.44251e-07 -2.28178e-06 0.000145868
0.00208965 0.000297124 -7.41598e-07
0.000297124 0.000121564 -6.10192e-08
-7.41598e-07 -6.10192e-08 2.01043e-05
0.00161397 0.000412389 -3.40415e-06
0.000412389 -2.10094e-05 3.40308e-07
-3.40415e-06 3.40308e-07 -0.000192466
0.00178673 0.000314782 7.64334e-06
0.000314782 -3.13997e-05 8.55902e-07
7.64334e-06 8.55902e-07 -0.000126512
0.0019369 5.05562e-05 -7.16548e-07
5.05562e-05 1.1934e-05 5.60008e-07
-7.16548e-07 5.60008e-07 -3.3181e-06
0.00202571 5.43491e-05 1.14753e-07
5.43491e-05 -4.06387e-07 -1.4721e-07
1.14753e-07 -1.4721e-07 6.57782e-07
0.00207827 6.6812e-05 -8.38198e-06
6.6812e-05 3.94958e-05 3.26156e-08
-8.38198e-06 3.26156e-08 4.86478e-05
0.00181652 -1.25087e-05 -4.3711e-06
-1.25087e-05 -8.72478e-07 4.04673e-07
-4.3711e-06 4.04673e-07 -3.17044e-05
0.00203681 -8.21031e-05 1.66596e-06
-8.21031e-05 -5.10618e-05 -5.6115e-07
1.66596e-06 -5.6115e-07 -3.34295e-05
0.00192771 -6.10574e-05 -6.8633e-07
-6.10574e-05 1.7496e-05 2.77655e-07
-6.8633e-07 2.77655e-07 1.12531e-06
0.00187529 -7.91029e-05 -2.52728e-06
-7.91029e-05 7.37223e-05 -3.6455e-08
-2.52728e-06 -3.6455e-08 1.42597e-05
0.00186034 -0.000174294 2.59279e-06
-0.000174294 -1.75363e-05 -2.0633e-07
2.59279e-06 -2.0633e-07 -5.80141e-05
0.00186479 -0.000135817 2.09161e-06
-0.000135817 6.4855e-05 -7.84522e-07
2.09161e-06 -7.84522e-07 -9.09997e-06
0.00183886 -0.000133347 3.0377e-06
-0.000133347 0.000117522 -1.10069e-06
3.0377e-06 -1.10069e-06 6.06383e-06
0.0019096 -0.00020651 5.2168e-07
-0.00020651 0.000115959 3.59143e-07
5.2168e-07 3.59143e-07 2.09955e-05
0.00182274 -0.000187223 -1.40217e-07
-0.000187223 0.000129439 -2.08909e-07
-1.40217e-07 -2.08909e-07 4.60252e-06
0.0015045 -0.000141141 -2.61159e-06
-0.000141141 8.9628e-05 3.28405e-07
-2.61159e-06 3.28405e-07 -5.78988e-05
0.00180868 -0.000231089 -5.72601e-07
-0.000231089 0.000160733 9.0578e-07
-5.72601e-07 9.0578e-07 1.92508e-05
0.00146835 -0.00017332 -1.95575e-07
-0.00017332 9.24901e-05 1.16956e-07
-1.95575e-07 1.16956e-07 -6.51385e-05
0.000980215 -0.000111184 -1.29627e-05
-0.000111184 -2.6037e-05 3.9042e-06
-1.29627e-05 3.9042e-06 -0.000166409
0.00144961 -0.000199506 4.0145e-06
-0.000199506 0.000107962 -9.72565e-07
4.0145e-06 -9.72565e-07 -5.88345e-05
0.000990771 -0.00012837 1.76354e-09
-0.00012837 -1.04872e-05 2.06425e-07
1.76354e-09 2.06425e-07 -0.000153444
0.00253443 -0.000135899 -4.86329e-05
-0.000135899 0.00108069 8.13471e-06
-4.86329e-05 8.13471e-06 0.00100893
0.000996602 -0.000144828 1.37564e-05
-0.000144828 2.91611e-06 -5.44222e-06
1.37564e-05 -5.44222e-06 -0.000142989
0.00261211 -0.000158973 3.57134e-05
-0.000158973 0.00113134 -4.27786e-06
3.57134e-05 -4.27786e-06 0.00106183
0.00187263 -8.30287e-05 -0.000191639
-8.30287e-05 0.000771738 2.34999e-05
-0.000191639 2.34999e-05 0.000753541
0.00276363 -0.000183697 0.000121074
-0.000183697 0.00122773 -1.92212e-05
0.000121074 -1.92212e-05 0.00115849
0.00158169 -3.39349e-05 -8.56456e-05
-3.39349e-05 0.00060833 1.03041e-05
-8.56456e-05 1.03041e-05 0.000578996
0.00553816 0.00014368 4.09305e-05
0.00014368 0.00299133 -2.19157e-06
4.09305e-05 -2.19157e-06 0.00296591
0.00189107 0.000256598 5.66321e-07
0.000256598 0.000110786 2.29403e-07
5.66321e-07 2.29403e-07 -1.93433e-05
0.00188012 0.000284385 -5.63883e-08
0.000284385 0.000196574 -8.11351e-07
-5.63883e-08 -8.11351e-07 3.69783e-05
0.00198736 0.000307288 -3.54281e-06
0.000307288 0.000177058 1.7089e-08
-3.54281e-06 1.7089e-08 3.24573e-05
0.00166332 0.000258048 -3.16165e-06
0.000258048 0.00024936 -5.63151e-07
-3.16165e-06 -5.63151e-07 6.89194e-05
0.00165659 0.000304156 2.03188e-07
0.000304156 9.7753e-05 -1.57748e-06
2.03188e-07 -1.57748e-06 -7.92443e-05
0.00196271 0.00031181 -3.13157e-06
0.00031181 0.000181391 -3.46321e-06
-3.13157e-06 -3.46321e-06 3.19125e-05
0.000965215 0.000181328 -1.35643e-05
0.000181328 2.28805e-06 -5.60392e-06
-1.35643e-05 -5.60392e-06 -0.000156447
0.00131792 0.000268278 -1.55978e-08
0.000268278 9.19341e-05 3.11779e-07
-1.55978e-08 3.11779e-07 -0.000105386
0.00186062 0.000378764 2.68458e-06
0.000378764 0.000266393 -2.07381e-06
2.68458e-06 -2.07381e-06 5.36403e-05
0.00129091 0.000269242 7.78956e-06
0.000269242 0.000147522 2.43738e-06
7.78956e-06 2.43738e-06 -5.75558e-05
0.000878881 0.000183035 -5.96772e-07
0.000183035 -5.89828e-06 1.33745e-08
-5.96772e-07 1.33745e-08 -0.000169568
0.000534699 0.000216502 -2.51272e-05
0.000216502 -7.73995e-05 -1.51847e-05
-2.51272e-05 -1.51847e-05 -0.000180511
0.000745516 0.000172504 9.54647e-06
0.000172504 -3.60309e-05 5.63678e-06
9.54647e-06 5.63678e-06 -0.0002023
0.000521572 0.000188366 2.18297e-06
0.000188366 -7.27709e-05 4.71527e-07
2.18297e-06 4.71527e-07 -0.000170763
0.00578645 -9.39714e-05 -0.000193389
-9.39714e-05 0.00318145 -2.11792e-05
-0.000193389 -2.11792e-05 0.00315647
0.000366292 0.000110622 1.68285e-05
0.000110622 -0.000146926 1.45015e-05
1.68285e-05 1.45015e-05 -0.000222777
0.00501157 -0.0001649 -9.04746e-06
-0.0001649 0.00271314 5.12448e-07
-9.04746e-06 5.12448e-07 0.00269414
0.00389219 -0.000188096 9.39987e-05
-0.000188096 0.00204792 3.31215e-06
9.39987e-05 3.31215e-06 0.00202802
0.00194571 0.000145319 -1.40137e-06
0.000145319 5.33239e-05 1.01903e-06
-1.40137e-06 1.01903e-06 -8.60569e-06
0.00204445 0.000184482 5.63979e-07
0.000184482 1.51471e-05 4.05307e-07
5.63979e-07 4.05307e-07 -2.05611e-05
0.00190934 0.000168613 2.18888e-07
0.000168613 -8.00028e-05 8.57416e-07
2.18888e-07 8.57416e-07 -8.89215e-05
0.00199552 0.000263815 3.4947e-07
0.000263815 0.000118515 2.20172e-08
3.4947e-07 2.20172e-08 9.13162e-06
0.00183962 0.000359385 -1.27418e-06
0.000359385 0.000122054 -7.30835e-07
-1.27418e-06 -7.30835e-07 -3.91545e-05
0.00197718 0.00028671 2.92166e-08
0.00028671 6.03612e-05 -6.00712e-07
2.92166e-08 -6.00712e-07 -4.03227e-05
0.00192931 5.62695e-05 -2.44103e-06
5.62695e-05 6.13887e-05 1.36091e-07
-2.44103e-06 1.36091e-07 2.55633e-05
0.00194747 4.80835e-05 3.47308e-07
4.80835e-05 2.25721e-05 -1.37956e-07
3.47308e-07 -1.37956e-07 5.22493e-06
0.00200496 5.43508e-05 1.3625e-06
5.43508e-05 -1.66959e-06 -1.29377e-07
1.3625e-06 -1.29377e-07 -4.14253e-06
0.00186219 -1.66588e-05 -1.75659e-06
-1.66588e-05 2.33547e-05 9.91953e-08
-1.75659e-06 9.91953e-08 -6.95319e-06
0.00181041 -3.58479e-05 -3.04975e-06
-3.58479e-05 4.29373e-05 -4.12298e-08
-3.04975e-06 -4.12298e-08 -1.92359e-05
0.00193007 -6.39005e-05 1.75063e-06
-6.39005e-05 1.69329e-05 4.2732e-08
1.75063e-06 4.2732e-08 2.10138e-07
0.00183996 -7.77241e-05 -1.97614e-06
-7.77241e-05 5.38135e-05 6.3054e-07
-1.97614e-06 6.3054e-07 -9.60633e-06
0.00187421 -7.94483e-05 -4.18494e-08
-7.94483e-05 0.000141287 -4.65683e-07
-4.18494e-08 -4.65683e-07 4.48415e-05
0.00187013 -0.000136614 3.02416e-06
-0.000136614 6.02055e-05 -3.08805e-07
3.02416e-06 -3.08805e-07 -1.34729e-05
0.0018148 -0.000133936 2.53007e-06
-0.000133936 0.000106514 -6.93931e-07
2.53007e-06 -6.93931e-07 -5.00658e-06
0.00152023 -0.000101018 -1.25409e-06
-0.000101018 7.69067e-05 -1.90888e-07
-1.25409e-06 -1.90888e-07 -6.05907e-05
0.00182068 -0.000187234 -1.06687e-06
-0.000187234 0.000130155 4.1784e-07
-1.06687e-06 4.1784e-07 5.39343e-06
0.00149845 -0.000140894 -1.17997e-07
-0.000140894 8.30446e-05 3.27024e-08
-1.17997e-07 3.27024e-08 -6.42391e-05
0.000984495 -8.82008e-05 -1.25198e-05
-8.82008e-05 -3.46677e-05 2.9835e-06
-1.25198e-05 2.9835e-06 -0.000170559
0.00147616 -0.000173157 2.90725e-06
-0.000173157 9.44913e-05 -5.13234e-07
2.90725e-06 -5.13234e-07 -6.26995e-05
0.000999941 -0.00010947 -1.31056e-07
-0.00010947 -1.62435e-05 2.22733e-07
-1.31056e-07 2.22733e-07 -0.000155891
0.00250895 -0.000146731 -5.2124e-05
-0.000146731 0.00106232 7.29529e-06
-5.2124e-05 7.29529e-06 0.000990541
0.00101364 -0.000127289 1.3415e-05
-0.000127289 4.25923e-07 -4.52671e-06
1.3415e-05 -4.52671e-06 -0.000141777
0.00260116 -0.000141838 3.43468e-05
-0.000141838 0.00111689 -3.24443e-06
3.43468e-05 -3.24443e-06 0.00105027
0.00190724 -7.06275e-05 -0.000191516
-7.06275e-05 0.000785925 2.00984e-05
-0.000191516 2.00984e-05 0.00076839
0.00271106 -0.00015725 0.000119275
-0.00015725 0.00118503 -1.66361e-05
0.000119275 -1.66361e-05 0.00112208
0.00158446 -4.45978e-05 -7.77381e-05
-4.45978e-05 0.000603644 8.80124e-06
-7.77381e-05 8.80124e-06 0.000577152
0.00137941 -2.81091e-05 3.83316e-05
-2.81091e-05 0.000492288 -5.85878e-06
3.83316e-05 -5.85878e-06 0.000454455
0.00196227 0.000155768 -1.27182e-06
0.000155768 0.000132274 1.36106e-06
-1.27182e-06 1.36106e-06 3.71195e-05
0.00185635 0.000239028 -1.1012e-06
0.000239028 0.000152162 2.07957e-07
-1.1012e-06 2.07957e-07 7.48268e-06
0.00190714 0.0002578 -6.5314e-07
0.0002578 0.000111747 -6.30903e-08
-6.5314e-07 -6.30903e-08 -1.54572e-05
0.00177335 0.000239748 -2.4649e-06
0.000239748 0.000267586 -3.87373e-07
-2.4649e-06 -3.87373e-07 0.000102302
0.00182627 0.00027983 1.43741e-07
0.00027983 0.000170825 -8.96544e-08
1.43741e-07 -8.96544e-08 1.00293e-05
0.00187985 0.000303631 5.9115e-07
0.000303631 0.000109739 2.20875e-07
5.9115e-07 2.20875e-07 -3.70322e-05
0.000997604 0.000166192 -1.4157e-05
0.000166192 -4.16899e-06 -5.18193e-06
-1.4157e-05 -5.18193e-06 -0.000155061
0.0015327 0.000255596 3.16696e-06
0.000255596 0.000165937 5.51528e-07
3.16696e-06 5.51528e-07 -1.4554e-05
0.00169755 0.000311522 -5.3037e-09
0.000311522 0.000112446 -2.32054e-06
-5.3037e-09 -2.32054e-06 -6.25353e-05
0.000480182 0.00017965 -2.26962e-05
0.00017965 -0.000120582 -1.32572e-05
-2.26962e-05 -1.32572e-05 -0.000219733
0.000945479 0.000179214 -5.5814e-07
0.000179214 -6.77123e-06 1.4497e-07
-5.5814e-07 1.4497e-07 -0.000165039
0.00134751 0.000270768 7.42845e-06
0.000270768 0.000108929 1.9556e-06
7.42845e-06 1.9556e-06 -8.91279e-05
0.000848669 0.000180105 1.17961e-05
0.000180105 -2.24206e-05 6.23987e-06
1.17961e-05 6.23987e-06 -0.00018533
0.000515346 0.00019842 1.40143e-06
0.00019842 -8.49511e-05 6.69461e-07
1.40143e-06 6.69461e-07 -0.000189498
0.00598548 6.01501e-07 -0.000208602
6.01501e-07 0.00327889 -2.38903e-05
-0.000208602 -2.38903e-05 0.00326295
0.000461721 0.000173901 2.13646e-05
0.000173901 -0.000106936 1.51111e-05
2.13646e-05 1.51111e-05 -0.000202536
0.00562482 -0.000116821 4.77485e-06
-0.000116821 0.00307253 -1.02848e-06
4.77485e-06 -1.02848e-06 0.00305481
0.00470496 -0.000220543 0.000117611
-0.000220543 0.00254802 6.6778e-06
0.000117611 6.6778e-06 0.00251647
0.00185368 0.000100906 -3.89954e-06
0.000100906 3.97568e-05 9.23435e-07
-3.89954e-06 9.23435e-07 -1.62464e-05
0.00191446 0.000145282 1.26389e-06
0.000145282 3.67068e-05 7.72066e-07
1.26389e-06 7.72066e-07 -2.33459e-05
0.00204029 0.000187885 -2.39256e-07
0.000187885 5.98517e-06 -4.03483e-07
-2.39256e-07 -4.03483e-07 -2.68329e-05
0.0020119 0.000258895 2.48176e-06
0.000258895 0.00013385 -1.17089e-07
2.48176e-06 -1.17089e-07 2.75975e-05
0.00171259 4.10588e-06 -5.30186e-07
4.10588e-06 -4.50194e-06 1.13314e-07
-5.30186e-07 1.13314e-07 -7.02642e-05
0.00191559 4.86196e-05 2.94245e-07
4.86196e-05 4.78519e-05 6.52424e-08
2.94245e-07 6.52424e-08 1.31039e-05
0.00195985 4.57286e-05 1.62201e-06
4.57286e-05 3.51412e-05 -2.14574e-07
1.62201e-06 -2.14574e-07 1.54025e-05
0.00190709 -1.86937e-05 1.3523e-06
-1.86937e-05 4.69191e-05 -6.22297e-07
1.3523e-06 -6.22297e-07 1.71881e-05
0.00182094 -2.93899e-05 -2.16601e-06
-2.93899e-05 5.1175e-05 1.50918e-07
-2.16601e-06 1.50918e-07 -8.79221e-06
0.00182915 -3.14107e-05 2.31649e-06
-3.14107e-05 0.000119194 -9.49349e-07
2.31649e-06 -9.49349e-07 2.50239e-05
0.00180258 -7.64304e-05 -7.63725e-07
-7.64304e-05 3.15451e-05 1.04845e-06
-7.63725e-07 1.04845e-06 -3.57137e-05
0.00181161 -7.91834e-05 -3.47605e-07
-7.91834e-05 0.000107488 3.12456e-07
-3.47605e-07 3.12456e-07 5.82814e-06
0.00157692 -5.90801e-05 -2.30918e-06
-5.90801e-05 9.60665e-05 -1.78662e-07
-2.30918e-06 -1.78662e-07 -2.91322e-05
0.00180975 -0.000133497 1.7388e-06
-0.000133497 0.000106532 -2.1879e-07
1.7388e-06 -2.1879e-07 -4.78987e-06
0.00152236 -9.90673e-05 7.64222e-07
-9.90673e-05 7.61387e-05 -2.50789e-07
7.64222e-07 -2.50789e-07 -6.09095e-05
0.00098347 -6.17404e-05 -1.23042e-05
-6.17404e-05 -4.34965e-05 2.13628e-06
-1.23042e-05 2.13628e-06 -0.000174666
0.00149964 -0.00013862 2.34989e-06
-0.00013862 8.16949e-05 -3.13213e-07
2.34989e-06 -3.13213e-07 -6.50148e-05
0.00099383 -8.74784e-05 -6.41798e-08
-8.74784e-05 -2.97304e-05 1.89768e-07
-6.41798e-08 1.89768e-07 -0.000165269
0.000564601 -8.29212e-05 -1.98272e-05
-8.29212e-05 -0.000121432 5.04071e-06
-1.98272e-05 5.04071e-06 -0.000199594
0.00101904 -0.000107708 1.28166e-05
-0.000107708 -6.64927e-06 -3.50972e-06
1.28166e-05 -3.50972e-06 -0.000145543
0.00158211 -9.44353e-05 4.88768e-05
-9.44353e-05 0.00049592 -3.29643e-06
4.88768e-05 -3.29643e-06 0.000426043
0.00572574 -0.000125765 -0.00024813
-0.000125765 0.00308215 1.60181e-05
-0.00024813 1.60181e-05 0.00309025
0.00268604 -0.000128115 0.000118199
-0.000128115 0.00115923 -1.34066e-05
0.000118199 -1.34066e-05 0.00110012
0.00159941 -5.3203e-05 -7.00994e-05
-5.3203e-05 0.000609495 5.9766e-06
-7.00994e-05 5.9766e-06 0.0005829
0.00129834 -6.66485e-05 4.95851e-05
-6.66485e-05 0.000445407 -7.00811e-06
4.95851e-05 -7.00811e-06 0.00040677
0.00189501 0.000109506 -1.74435e-06
0.000109506 0.000106212 1.66551e-06
-1.74435e-06 1.66551e-06 2.625e-05
0.00190308 0.00016961 4.84623e-08
0.00016961 0.000164054 1.37556e-06
4.84623e-08 1.37556e-06 4.21661e-05
0.00197213 0.000152523 4.48364e-07
0.000152523 0.000144987 8.77206e-08
4.48364e-07 8.77206e-08 4.92238e-05
0.00159603 0.000193074 -2.78241e-06
0.000193074 0.000124628 -1.99788e-07
-2.78241e-06 -1.99788e-07 -2.82359e-05
0.00182733 0.000235491 3.88651e-07
0.000235491 0.000135563 4.95948e-09
3.88651e-07 4.95948e-09 -8.59426e-06
0.00191698 0.000259217 3.95572e-07
0.000259217 0.0001083 3.56965e-08
3.95572e-07 3.56965e-08 -1.60668e-05
0.000782564 0.000135422 -1.56507e-05
0.000135422 -0.000154587 -4.54327e-06
-1.56507e-05 -4.54327e-06 -0.000299251
0.00178628 0.000240427 2.55147e-06
0.000240427 0.000274923 6.61399e-07
2.55147e-06 6.61399e-07 0.000109771
0.00176491 0.000274745 8.18269e-08
0.000274745 0.000140642 -4.07307e-07
8.18269e-08 -4.07307e-07 -2.13214e-05
0.000470438 0.000131052 -1.95901e-05
0.000131052 -0.000146169 -1.02446e-05
-1.95901e-05 -1.02446e-05 -0.000236463
0.000834071 0.000158047 4.11753e-07
0.000158047 -0.000101398 2.97458e-07
4.11753e-07 2.97458e-07 -0.000252676
0.00139142 0.000252387 8.76255e-06
0.000252387 7.59631e-05 1.32351e-06
8.76255e-06 1.32351e-06 -0.000104453
0.00599089 8.54725e-05 -0.000221023
8.54725e-05 0.00325851 -2.34349e-05
-0.000221023 -2.34349e-05 0.00325325
0.000481392 0.000167683 9.90252e-07
0.000167683 -0.000119853 6.73418e-07
9.90252e-07 6.73418e-07 -0.000219862
0.000910459 0.000176179 1.35613e-05
0.000176179 -2.44308e-05 6.03598e-06
1.35613e-05 6.03598e-06 -0.000182146
0.000451135 0.000181721 2.09657e-05
0.000181721 -0.000119032 1.50312e-05
2.09657e-05 1.50312e-05 -0.000224704
0.00586715 -9.57534e-06 9.2592e-06
-9.57534e-06 0.00319859 -4.00725e-07
9.2592e-06 -4.00725e-07 0.00318986
0.00546041 -0.000151783 0.000168828
-0.000151783 0.00296964 8.68689e-06
0.000168828 8.68689e-06 0.0029535
0.00181161 6.31707e-05 -3.30872e-06
6.31707e-05 5.72054e-05 -2.89674e-07
-3.30872e-06 -2.89674e-07 -1.04306e-05
0.00189129 0.000100741 5.24087e-07
0.000100741 5.8597e-05 6.70062e-07
5.24087e-07 6.70062e-07 1.92573e-06
0.00187124 0.000144997 2.20651e-06
0.000144997 1.29004e-05 2.92527e-07
2.20651e-06 2.92527e-07 -4.52121e-05
0.00169883 5.2237e-06 2.56893e-06
5.2237e-06 4.34394e-05 -7.57825e-07
2.56893e-06 -7.57825e-07 -5.32723e-05
0.00174869 7.52381e-06 3.6543e-07
7.52381e-06 2.08046e-05 2.21554e-07
3.6543e-07 2.21554e-07 -4.19026e-05
0.00190131 3.9549e-05 2.33329e-06
3.9549e-05 3.4318e-05 -2.67321e-07
2.33329e-06 -2.67321e-07 6.97242e-07
0.0018298 -2.40444e-05 -1.17882e-06
-2.40444e-05 5.85182e-05 8.19929e-07
-1.17882e-06 8.19929e-07 5.95496e-07
0.00179394 -2.82617e-05 1.01662e-06
-2.82617e-05 9.74902e-05 -1.36914e-07
1.01662e-06 -1.36914e-07 3.53423e-06
0.00176475 -2.23482e-05 -1.24877e-07
-2.23482e-05 0.000215509 -5.87524e-07
-1.24877e-07 -5.87524e-07 9.62942e-05
0.00174885 -7.87574e-05 -2.24444e-06
-7.87574e-05 7.44862e-05 1.04659e-06
-2.24444e-06 1.04659e-06 -3.23944e-05
0.00163636 -5.97138e-05 8.40847e-08
-5.97138e-05 0.000133996 5.57664e-08
8.40847e-08 5.57664e-08 6.70728e-06
0.000811579 -3.11111e-05 -1.37049e-05
-3.11111e-05 -0.000153475 1.29763e-06
-1.37049e-05 1.29763e-06 -0.000280817
0.00151285 -9.90842e-05 2.75542e-06
-9.90842e-05 6.82802e-05 -3.82371e-07
2.75542e-06 -3.82371e-07 -6.86488e-05
0.000992213 -5.87408e-05 -5.39785e-08
-5.87408e-05 -3.95314e-05 1.36533e-07
-5.39785e-08 1.36533e-07 -0.000170211
0.00057027 -2.10445e-05 -1.85375e-05
-2.10445e-05 -0.000121669 3.19322e-06
-1.85375e-05 3.19322e-06 -0.000197932
0.00101854 -8.62115e-05 1.24184e-05
-8.62115e-05 -1.65501e-05 -2.59975e-06
1.24184e-05 -2.59975e-06 -0.000151575
0.000570007 -6.62813e-05 -2.12585e-07
-6.62813e-05 -0.000116143 3.74866e-07
-2.12585e-07 3.74866e-07 -0.000195744
0.00572816 -2.05497e-05 -0.000239375
-2.05497e-05 0.00307978 9.71116e-06
-0.000239375 9.71116e-06 0.00309048
0.000603292 -6.88619e-05 1.58523e-05
-6.88619e-05 -9.46655e-05 -6.94022e-06
1.58523e-05 -6.94022e-06 -0.000176834
0.00360825 -8.25808e-05 0.000110051
-8.25808e-05 0.00181526 -4.39491e-06
0.000110051 -4.39491e-06 0.00179933
0.00125818 -7.51981e-05 5.58334e-05
-7.51981e-05 0.000422753 -7.44451e-06
5.58334e-05 -7.44451e-06 0.000382215
0.00177397 9.48409e-05 -2.21141e-06
9.48409e-05 5.42136e-05 1.5243e-07
-2.21141e-06 1.5243e-07 -2.60695e-05
0.00179746 0.000106512 2.09388e-06
0.000106512 0.000105672 2.37916e-06
2.09388e-06 2.37916e-06 -3.20476e-06
0.00192926 0.00010591 8.30957e-08
0.00010591 0.000127646 -3.14813e-07
8.30957e-08 -3.14813e-07 4.91689e-05
0.00153802 0.000138712 -1.6595e-06
0.000138712 7.60862e-05 3.60463e-08
-1.6595e-06 3.60463e-08 -6.66753e-05
0.0018797 0.00016871 5.23232e-07
0.00016871 0.000145517 2.133e-07
5.23232e-07 2.133e-07 2.2409e-05
0.00198783 0.000149131 9.41049e-07
0.000149131 0.000161072 -1.37179e-06
9.41049e-07 -1.37179e-06 6.47438e-05
0.000827885 0.000112473 -1.46744e-05
0.000112473 -0.000143508 -3.44881e-06
-1.46744e-05 -3.44881e-06 -0.000281831
0.00167145 0.000193804 1.73975e-07
0.000193804 0.000173595 3.00241e-07
1.73975e-07 3.00241e-07 1.98552e-05
0.00180354 0.000232095 6.86008e-07
0.000232095 0.000122366 -3.79389e-07
6.86008e-07 -3.79389e-07 -2.12496e-05
0.000484506 9.31052e-05 -1.80342e-05
9.31052e-05 -0.000156386 -7.46546e-06
-1.80342e-05 -7.46546e-06 -0.00023955
0.000755603 0.00013421 -2.64538e-06
0.00013421 -0.00016971 -3.06892e-07
-2.64538e-06 -3.06892e-07 -0.000314421
0.00180235 0.000241494 7.70978e-06
0.000241494 0.000284115 1.82242e-06
7.70978e-06 1.82242e-06 0.000119026
0.00591809 0.000159779 -0.000239121
0.000159779 0.0032026 -2.25141e-05
-0.000239121 -2.25141e-05 0.00320353
0.000482414 0.000126221 3.14266e-07
0.000126221 -0.000140003 3.9647e-07
3.14266e-07 3.9647e-07 -0.000230731
0.000679706 0.00015081 1.3916e-05
0.00015081 -0.000193497 5.13877e-06
1.3916e-05 5.13877e-06 -0.000345265
0.00590433 9.97357e-05 1.28999e-05
9.97357e-05 0.00320922 1.60952e-06
1.28999e-05 1.60952e-06 0.00320432
0.000468216 0.00015541 1.9653e-05
0.00015541 -0.000127629 1.31262e-05
1.9653e-05 1.31262e-05 -0.000228349
0.00575746 -4.22494e-05 0.000203548
-4.22494e-05 0.00312264 1.32872e-05
0.000203548 1.32872e-05 0.0031205
0.00184021 4.5481e-05 7.73175e-07
4.5481e-05 0.000117429 -4.06922e-07
7.73175e-07 -4.06922e-07 2.27591e-05
0.00180956 6.15724e-05 -1.80411e-06
6.15724e-05 6.42675e-05 2.76016e-07
-1.80411e-06 2.76016e-07 -5.15749e-06
0.0019233 0.000100218 3.5493e-06
0.000100218 7.36344e-05 2.16946e-07
3.5493e-06 2.16946e-07 1.63664e-05
0.00175806 -1.85364e-06 9.16046e-07
-1.85364e-06 0.000218553 -4.40435e-07
9.16046e-07 -4.40435e-07 0.000101661
0.00168287 4.48024e-06 3.43492e-09
4.48024e-06 3.11437e-05 -3.30995e-08
3.43492e-09 -3.30995e-08 -6.33201e-05
0.00179603 1.23312e-05 2.63608e-06
1.23312e-05 5.22384e-05 3.9217e-07
2.63608e-06 3.9217e-07 -7.36244e-06
0.0017576 -2.55512e-05 -4.01178e-07
-2.55512e-05 7.53231e-05 7.26753e-07
-4.01178e-07 7.26753e-07 -1.84411e-05
0.00175815 -2.21705e-05 2.79124e-06
-2.21705e-05 0.000210731 -2.71544e-07
2.79124e-06 -2.71544e-07 9.14585e-05
0.000824314 -1.04749e-05 -1.32063e-05
-1.04749e-05 -0.000142954 5.71269e-07
-1.32063e-05 5.71269e-07 -0.000267217
0.00170022 -6.05641e-05 2.51289e-06
-6.05641e-05 0.00017445 6.66577e-08
2.51289e-06 6.66577e-08 4.50654e-05
0.000905811 -3.09473e-05 -2.07849e-06
-3.09473e-05 -9.6709e-05 1.69886e-07
-2.07849e-06 1.69886e-07 -0.000223812
0.000571771 -6.72491e-06 -1.87788e-05
-6.72491e-06 -0.000123552 2.04784e-06
-1.87788e-05 2.04784e-06 -0.00019809
0.00100487 -5.6908e-05 1.19425e-05
-5.6908e-05 -3.28044e-05 -1.84265e-06
1.19425e-05 -1.84265e-06 -0.000163107
0.000550311 -3.21879e-05 8.70141e-07
-3.21879e-05 -0.000134956 -7.40533e-08
8.70141e-07 -7.40533e-08 -0.000209953
0.00566208 -0.000118269 -0.0002474
-0.000118269 0.00304962 1.0361e-05
-0.0002474 1.0361e-05 0.00305675
0.000544156 -4.95472e-05 1.79004e-05
-4.95472e-05 -0.00013159 -3.90995e-06
1.79004e-05 -3.90995e-06 -0.000210966
0.0057035 -5.68004e-05 7.69201e-06
-5.68004e-05 0.00306613 -5.76106e-08
7.69201e-06 -5.76106e-08 0.00307698
0.00160042 -2.25527e-05 0.000197232
-2.25527e-05 0.000601714 -1.11973e-05
0.000197232 -1.11973e-05 0.000589191
0.00169595 7.50246e-05 2.18957e-06
7.50246e-05 4.1817e-05 5.14139e-07
2.18957e-06 5.14139e-07 -6.28426e-05
0.00177415 9.85072e-05 -3.19347e-06
9.85072e-05 5.11812e-05 -1.02722e-06
-3.19347e-06 -1.02722e-06 -2.64047e-05
0.00153396 8.72558e-05 -7.13157e-07
8.72558e-05 7.35154e-05 2.68492e-07
-7.13157e-07 2.68492e-07 -5.85713e-05
0.00179923 0.000105561 6.77914e-07
0.000105561 0.000104891 1.95258e-07
6.77914e-07 1.95258e-07 -4.09613e-06
0.00196894 0.000102598 7.71497e-07
0.000102598 0.000152278 -2.93913e-06
7.71497e-07 -2.93913e-06 7.52638e-05
0.00104936 8.63351e-05 -1.25563e-05
8.63351e-05 -1.33021e-05 -2.33128e-06
-1.25563e-05 -2.33128e-06 -0.000143963
0.00153473 0.000138196 1.15878e-07
0.000138196 7.61877e-05 7.83877e-08
1.15878e-07 7.83877e-08 -6.67165e-05
0.00185182 0.000167637 5.75608e-07
0.000167637 0.000124542 -8.201e-07
5.75608e-07 -8.201e-07 2.11909e-07
0.000513237 6.63918e-05 -1.75976e-05
6.63918e-05 -0.000151849 -5.36423e-06
-1.75976e-05 -5.36423e-06 -0.000231062
0.00089925 0.000115325 -2.82103e-06
0.000115325 -9.89197e-05 -2.25699e-07
-2.82103e-06 -2.25699e-07 -0.000237112
0.0017491 0.000194378 3.86821e-06
0.000194378 0.000224155 1.05247e-06
3.86821e-06 1.05247e-06 6.95785e-05
0.00585578 0.0001999 -0.00025758
0.0001999 0.0031682 -2.16026e-05
-0.00025758 -2.16026e-05 0.00316826
0.000510119 9.29656e-05 3.54486e-09
9.29656e-05 -0.000142202 1.69638e-07
3.54486e-09 1.69638e-07 -0.000225576
0.000729164 0.000133073 9.85893e-06
0.000133073 -0.000184783 3.71244e-06
9.85893e-06 3.71244e-06 -0.000329487
0.00587432 0.000180347 1.08419e-05
0.000180347 0.0031864 3.19851e-06
1.08419e-05 3.19851e-06 0.00318279
0.000497134 0.000119704 1.84688e-05
0.000119704 -0.000132748 1.02882e-05
1.84688e-05 1.02882e-05 -0.000223458
0.00585833 9.55654e-05 0.000229153
9.55654e-05 0.0031709 1.96693e-05
0.000229153 1.96693e-05 0.00317347
0.00174042 3.17016e-05 1.89789e-06
3.17016e-05 0.000206535 -2.68866e-08
1.89789e-06 -2.68866e-08 8.90205e-05
0.001784 4.10813e-05 -1.72889e-06
4.10813e-05 8.72877e-05 1.04784e-07
-1.72889e-06 1.04784e-07 -8.96749e-06
0.00180737 5.96826e-05 -5.35564e-07
5.96826e-05 7.18756e-05 3.59675e-08
-5.35564e-07 3.59675e-08 6.45371e-07
0.000822792 -7.34318e-06 -1.37489e-05
-7.34318e-06 -0.000136222 -1.16975e-07
-1.37489e-05 -1.16975e-07 -0.000259098
0.0017606 4.094e-06 3.26634e-06
4.094e-06 0.000219936 -2.20132e-07
3.26634e-06 -2.20132e-07 0.000102957
0.00165916 3.6071e-06 -1.38624e-06
3.6071e-06 1.41893e-05 6.72004e-07
-1.38624e-06 6.72004e-07 -7.80019e-05
0.00175721 -2.23727e-05 5.49952e-06
-2.23727e-05 0.000209381 7.06977e-08
5.49952e-06 7.06977e-08 9.00491e-05
0.000817133 -1.06881e-05 -1.50472e-06
-1.06881e-05 -0.000148087 9.41066e-08
-1.50472e-06 9.41066e-08 -0.000272543
0.000573352 -2.98944e-05 -1.91616e-05
-2.98944e-05 -0.000123474 8.72758e-07
-1.91616e-05 8.72758e-07 -0.000195765
0.00098163 -2.99348e-05 1.03965e-05
-2.99348e-05 -5.0764e-05 -1.21392e-06
1.03965e-05 -1.21392e-06 -0.000177652
0.000552156 4.26772e-06 3.27242e-07
4.26772e-06 -0.000135713 4.71211e-08
3.27242e-07 4.71211e-08 -0.000209519
0.00566704 -9.42991e-05 -0.00025285
-9.42991e-05 0.00305069 7.40614e-06
-0.00025285 7.40614e-06 0.00306015
0.000560796 -3.66263e-05 1.87308e-05
-3.66263e-05 -0.000126896 -2.63704e-06
1.87308e-05 -2.63704e-06 -0.000203014
0.00568532 -1.22624e-05 -3.04965e-06
-1.22624e-05 0.00305413 1.79895e-06
-3.04965e-06 1.79895e-06 0.00306688
0.00570484 -7.41257e-05 0.000247236
-7.41257e-05 0.00306591 -9.17012e-06
0.000247236 -9.17012e-06 0.00307779
0.00149966 5.18836e-05 -5.31949e-07
5.18836e-05 5.93194e-05 2.62159e-08
-5.31949e-07 2.62159e-08 -6.73175e-05
0.00175569 7.78134e-05 -1.78909e-06
7.78134e-05 7.49374e-05 -1.24288e-06
-1.78909e-06 -1.24288e-06 -2.51422e-05
0.00177285 0.000102534 -3.4793e-06
0.000102534 4.74017e-05 -2.21222e-06
-3.4793e-06 -2.21222e-06 -2.75045e-05
0.00104873 5.09291e-05 -1.22702e-05
5.09291e-05 -1.0723e-05 -1.80747e-06
-1.22702e-05 -1.80747e-06 -0.000135826
0.00152001 8.67798e-05 2.02892e-07
8.67798e-05 6.61424e-05 -9.00525e-09
2.02892e-07 -9.00525e-09 -6.63298e-05
0.00180182 0.000104545 -5.81786e-07
0.000104545 0.000104835 -1.79699e-06
-5.81786e-07 -1.79699e-06 -4.24846e-06
0.000538914 4.2071e-05 -1.72163e-05
4.2071e-05 -0.000141262 -3.83941e-06
-1.72163e-05 -3.83941e-06 -0.000217935
0.00101633 8.75179e-05 2.60339e-07
8.75179e-05 -3.28013e-05 2.43511e-07
2.60339e-07 2.43511e-07 -0.000164066
0.00153248 0.000137746 2.28401e-06
0.000137746 7.65165e-05 1.7717e-07
2.28401e-06 1.7717e-07 -6.65481e-05
0.00577362 0.000185615 -0.000269082
0.000185615 0.00312115 -1.85423e-05
-0.000269082 -1.85423e-05 0.00312297
0.00054038 6.99424e-05 3.41564e-07
6.99424e-05 -0.000135624 1.60778e-07
3.41564e-07 1.60778e-07 -0.000215457
0.00096938 0.000118186 9.87404e-06
0.000118186 -5.52745e-05 3.09994e-06
9.87404e-06 3.09994e-06 -0.0001933
0.00584573 0.000213571 6.34144e-06
0.000213571 0.00316875 2.85287e-06
6.34144e-06 2.85287e-06 0.00316615
0.000539177 9.42913e-05 1.7786e-05
9.42913e-05 -0.000125228 7.89782e-06
1.7786e-05 7.89782e-06 -0.000209053
0.00585724 0.00020431 0.00024706
0.00020431 0.00317742 2.49906e-05
0.00024706 2.49906e-05 0.00317361
0.00100125 1.53844e-05 -1.28958e-05
1.53844e-05 -2.57346e-05 -7.24868e-07
-1.28958e-05 -7.24868e-07 -0.000147936
0.00164809 2.73973e-05 3.74218e-06
2.73973e-05 0.000151667 7.93131e-08
3.74218e-06 7.93131e-08 3.41023e-05
0.00172797 3.61536e-05 -4.46452e-06
3.61536e-05 5.68834e-05 2.60998e-07
-4.46452e-06 2.60998e-07 -4.09787e-05
0.000604488 3.04086e-05 -1.97071e-05
3.04086e-05 -0.000112699 -4.98078e-07
-1.97071e-05 -4.98078e-07 -0.000178004
0.000799137 -1.65934e-06 -1.71851e-06
-1.65934e-06 -0.000151148 5.79763e-08
-1.71851e-06 5.79763e-08 -0.000274166
0.00175996 1.06919e-05 5.64405e-06
1.06919e-05 0.000219348 1.55284e-07
5.64405e-06 1.55284e-07 0.000102264
0.000807203 -1.04856e-05 1.02572e-05
-1.04856e-05 -0.000154987 -4.31452e-07
1.02572e-05 -4.31452e-07 -0.000279616
0.000568902 -4.76615e-06 2.85411e-07
-4.76615e-06 -0.000125903 3.42547e-07
2.85411e-07 3.42547e-07 -0.00019845
0.00562949 3.57415e-05 -0.00025772
3.57415e-05 0.00302363 -2.67931e-07
-0.00025772 -2.67931e-07 0.00303732
0.000529902 1.57758e-05 1.82596e-05
1.57758e-05 -0.000150106 -1.24057e-06
1.82596e-05 -1.24057e-06 -0.000222826
0.00564374 -9.29857e-05 -7.80881e-06
-9.29857e-05 0.0030377 1.60332e-06
-7.80881e-06 1.60332e-06 0.00304676
0.00564212 7.14037e-06 0.000237634
7.14037e-06 0.00302875 -4.1947e-06
0.000237634 -4.1947e-06 0.00304124
0.00102154 2.74768e-05 -1.26681e-05
2.74768e-05 -1.89844e-05 -1.43805e-06
-1.26681e-05 -1.43805e-06 -0.000141531
0.00151114 5.09415e-05 -1.73341e-07
5.09415e-05 6.63194e-05 -1.00467e-07
-1.73341e-07 -1.00467e-07 -5.76885e-05
0.00181868 8.03371e-05 -4.49743e-06
8.03371e-05 0.000109899 -2.19459e-06
-4.49743e-06 -2.19459e-06 1.44067e-05
0.00262653 5.25341e-05 -0.000122898
5.25341e-05 0.0011082 -4.01485e-06
-0.000122898 -4.01485e-06 0.00105945
0.00101294 5.2817e-05 2.88875e-07
5.2817e-05 -3.26313e-05 1.04452e-07
2.88875e-07 1.04452e-07 -0.000158187
0.0015061 8.62247e-05 2.01932e-06
8.62247e-05 5.87469e-05 -1.37303e-07
2.01932e-06 -1.37303e-07 -7.41229e-05
0.00568958 0.000143507 -0.000270386
0.000143507 0.00306809 -1.36531e-05
-0.000270386 -1.36531e-05 0.0030746
0.000574364 5.96553e-05 8.22754e-07
5.96553e-05 -0.00011815 3.63298e-07
8.22754e-07 3.63298e-07 -0.000196466
0.000986437 8.88044e-05 1.24262e-05
8.88044e-05 -5.03674e-05 2.76535e-06
1.24262e-05 2.76535e-06 -0.000182214
0.0058209 0.000197814 1.83534e-06
0.000197814 0.00315116 1.65967e-06
1.83534e-06 1.65967e-06 0.00315196
0.000578053 7.62661e-05 1.80681e-05
7.62661e-05 -0.000112009 6.20676e-06
1.80681e-05 6.20676e-06 -0.000193086
0.0058353 0.000241838 0.000258954
0.000241838 0.00317179 2.63782e-05
0.000258954 2.63782e-05 0.00316424
0.000653136 9.79676e-06 -1.63272e-05
9.79676e-06 -7.31225e-05 -1.81567e-06
-1.63272e-05 -1.81567e-06 -0.000146767
0.000894068 1.38445e-05 6.22893e-07
1.38445e-05 -9.11919e-05 2.70953e-07
6.22893e-07 2.70953e-07 -0.000213718
0.0015546 2.24228e-05 4.79567e-06
2.24228e-05 9.59386e-05 1.45519e-07
4.79567e-06 1.45519e-07 -2.16335e-05
0.00550724 -9.47494e-05 -0.000241928
-9.47494e-05 0.00296697 1.51008e-06
-0.000241928 1.51008e-06 0.00297076
0.000564675 8.0442e-06 -5.3671e-07
8.0442e-06 -0.000131805 1.05594e-07
-5.3671e-07 1.05594e-07 -0.00019973
0.000791013 3.28174e-06 1.01703e-05
3.28174e-06 -0.000157061 9.9932e-08
1.01703e-05 9.9932e-08 -0.000280173
0.000529145 2.06809e-05 1.84763e-05
2.06809e-05 -0.000150272 1.49893e-07
1.84763e-05 1.49893e-07 -0.000222145
0.00558522 -2.95965e-08 2.41552e-06
-2.95965e-08 0.00300178 -1.02975e-06
2.41552e-06 -1.02975e-06 0.00301197
0.00565178 -9.48512e-06 0.000246652
-9.48512e-06 0.00303269 -2.32367e-06
0.000246652 -2.32367e-06 0.00304668
0.00270363 9.20061e-06 -0.000119344
9.20061e-06 0.00115128 -2.4779e-06
-0.000119344 -2.4779e-06 0.00110411
0.00101435 3.05146e-05 5.30889e-08
3.05146e-05 -2.50645e-05 6.69947e-08
5.30889e-08 6.69947e-08 -0.000147926
0.00151652 5.0164e-05 1.76815e-06
5.0164e-05 6.99636e-05 -2.47817e-07
1.76815e-06 -2.47817e-07 -5.14079e-05
0.00526878 -5.26801e-05 -8.91544e-05
-5.26801e-05 0.00282746 5.2284e-07
-8.91544e-05 5.2284e-07 0.00281397
0.000590851 5.20494e-05 6.39316e-08
5.20494e-05 -0.00010947 2.06459e-07
6.39316e-08 2.06459e-07 -0.000184479
0.000994302 5.52615e-05 1.21724e-05
5.52615e-05 -4.49254e-05 2.05032e-06
1.21724e-05 2.05032e-06 -0.000170874
0.00574439 0.000114964 -1.07486e-05
0.000114964 0.00309614 -1.31362e-06
-1.07486e-05 -1.31362e-06 0.00310429
0.000606797 8.21261e-05 1.9514e-05
8.21261e-05 -9.8254e-05 5.18131e-06
1.9514e-05 5.18131e-06 -0.000177276
0.00583903 0.000221955 0.000269711
0.000221955 0.00316932 2.39283e-05
0.000269711 2.39283e-05 0.00316664
0.00168491 -5.08893e-05 -0.000201834
-5.08893e-05 0.000647501 8.15895e-07
-0.000201834 8.15895e-07 0.00064047
0.00164561 2.68153e-05 -5.00961e-05
2.68153e-05 0.000514831 2.14264e-07
-5.00961e-05 2.14264e-07 0.000459018
0.000783114 1.47901e-05 1.24721e-05
1.47901e-05 -0.000158566 9.88398e-07
1.24721e-05 9.88398e-07 -0.000281484
0.00557342 -4.14999e-05 7.61e-06
-4.14999e-05 0.00300081 1.57899e-06
7.61e-06 1.57899e-06 0.00300904
0.000581128 -1.2565e-05 1.90414e-05
-1.2565e-05 -0.000116435 7.96036e-07
1.90414e-05 7.96036e-07 -0.000187764
0.00562511 -6.69044e-05 0.000261043
-6.69044e-05 0.00302699 -2.53921e-06
0.000261043 -2.53921e-06 0.00303762
0.00127101 1.36214e-05 -4.32554e-05
1.36214e-05 0.000423949 -7.21793e-07
-4.32554e-05 -7.21793e-07 0.000389581
0.00163343 1.36598e-05 -5.04232e-05
1.36598e-05 0.00051148 -7.72748e-07
-5.04232e-05 -7.72748e-07 0.000452473
0.000996341 3.2178e-05 1.24037e-05
3.2178e-05 -3.73122e-05 1.62298e-06
1.24037e-05 1.62298e-06 -0.000160517
0.00348465 5.37071e-05 9.58887e-05
5.37071e-05 0.00174122 2.36765e-06
9.58887e-05 2.36765e-06 0.00173067
0.000599391 6.24612e-05 1.97917e-05
6.24612e-05 -0.000104334 3.97788e-06
1.97917e-05 3.97788e-06 -0.000179367
0.00580203 0.000104007 0.000258005
0.000104007 0.00312465 1.44483e-05
0.000258005 1.44483e-05 0.00313587
0.0055248 -2.12983e-05 -8.93893e-06
-2.12983e-05 0.00297437 -2.19892e-06
-8.93893e-06 -2.19892e-06 0.00298168
0.000580938 4.50609e-05 2.04597e-05
4.50609e-05 -0.000125355 2.08682e-06
2.04597e-05 2.08682e-06 -0.000190364
0.00548975 4.77876e-05 0.000248252
4.77876e-05 0.00294753 1.14801e-07
0.000248252 1.14801e-07 0.00295874
0.00341782 2.73726e-05 0.000109348
2.73726e-05 0.00170523 3.56724e-06
0.000109348 3.56724e-06 0.00169524
0.000610544 5.62757e-06 1.89631e-05
5.62757e-06 -9.90154e-05 2.67908e-06
1.89631e-05 2.67908e-06 -0.00017071
0.00566779 -2.02762e-05 0.000248492
-2.02762e-05 0.0030469 6.32497e-06
0.000248492 6.32497e-06 0.00305798
0.00555798 -0.000125418 0.000244339
-0.000125418 0.00299965 -3.24479e-06
0.000244339 -3.24479e-06 0.00300214
0.0055402 -6.41194e-06 0.000243979
-6.41194e-06 0.00296905 3.38399e-06
0.000243979 3.38399e-06 0.00298332
