# vtk DataFile Version 2.0
Wound Healing Simulation
ASCII
DATASET UNSTRUCTURED_GRID
POINTS 3012 float
69.9759 18.75 4
67.2507 60.3285 4
69.976 18.75 2
73.0099 25.446 4
71.1327 20.9142 4
68.6801 16.6661 4
67.8224 19.9264 3.97543
67.2507 60.3286 2
71.1327 54.0858 4
68.6801 58.3339 4
65.6939 62.2254 4
65.3093 58.9995 3.97446
74.6784 42.3946 4
73.7221 47.2057 4
69.9759 18.75 0
73.0099 25.446 2
68.6801 16.6661 2
71.1327 20.9142 2
67.8231 19.9301 2
74.6792 32.6053 4
73.7222 27.7943 4
72.1454 23.1494 4
70.6118 26.2216 3.97524
68.8828 21.958 3.9758
67.2507 14.6715 4
66.6337 17.9731 3.97424
65.7862 21.0295 3.96397
67.2507 60.3285 0
71.1327 54.0858 2
68.6801 58.3339 2
65.694 62.2255 2
65.3104 58.9947 2
72.1454 51.8506 4
69.9759 56.25 4
68.8333 53.1135 3.97528
64.0165 64.0165 4
66.6076 57.1327 3.97495
63.8825 60.7635 3.97405
63.4928 57.7642 3.96569
60.3285 67.2507 4
74.6792 42.3947 2
73.7222 47.2057 2
74.9194 39.9526 4
74.2788 44.8158 4
72.1665 42.0857 3.97665
73.0099 49.554 4
71.247 46.598 3.97509
73.0099 25.446 0
71.1327 20.9142 0
68.6801 16.6661 0
67.8224 19.9264 0.0245718
74.6792 32.6053 2
73.7222 27.7943 2
67.2508 14.6715 2
72.1455 23.1494 2
70.6115 26.2222 2
66.6349 17.9776 2
68.883 21.9606 2
65.7834 21.0315 2
74.9197 35.0474 4
74.2794 30.1841 4
72.1832 32.9443 3.97691
71.2762 28.4323 3.97554
69.8129 24.0598 3.97559
68.3402 26.9546 3.96438
66.7524 22.9367 3.96393
65.694 12.7746 4
65.32 16.1058 3.97275
64.7046 19.2005 3.96408
63.8007 22.0691 3.96437
71.1327 54.0858 0
65.6939 62.2254 0
68.6801 58.3339 0
65.3093 58.9995 0.0255364
72.1455 51.8506 2
69.9759 56.25 2
68.8335 53.1109 2
64.0165 64.0165 2
66.6084 57.1285 2
63.884 60.7582 2
63.4911 57.764 2
62.2254 65.694 4
58.8918 65.413 3.98353
69.7661 50.9893 3.97501
67.7805 55.1672 3.97539
66.6364 52.2063 3.9641
62.3326 62.4244 3.97727
64.6523 56.0271 3.96488
62.1957 59.3915 3.96557
61.7734 56.6535 3.96168
58.3339 68.6801 4
60.3285 67.2508 2
73.7221 47.2057 0
74.6784 42.3946 0
74.9197 39.9526 2
74.2794 44.8159 2
72.1658 42.0853 2
73.0099 49.554 2
71.2466 46.5977 2
75 37.5 4
72.4039 39.8025 3.97763
71.7807 44.3529 3.9763
69.799 41.7899 3.96699
70.5726 48.8137 3.97474
68.9057 46.0138 3.9654
74.6792 32.6053 0
73.7222 27.7943 0
67.2507 14.6715 0
72.1454 23.1494 0
70.6118 26.2216 0.0247604
68.8828 21.958 0.024202
66.6337 17.9731 0.0257617
65.7862 21.0295 0.0360338
74.9197 35.0474 2
74.2794 30.1841 2
72.1825 32.9446 2
71.2758 28.4328 2
65.694 12.7745 2
65.3214 16.111 2
69.8127 24.0612 2
68.3398 26.9558 2
64.7009 19.2024 2
66.7522 22.9383 2
63.7999 22.07 2
72.4118 35.2249 3.97768
71.8022 30.6772 3.97654
69.8351 33.2711 3.96693
68.9602 29.0413 3.96528
67.6036 24.9151 3.96408
66.0934 27.661 3.9682
64.0165 10.9835 4
64.6616 23.862 3.96578
63.886 14.3304 3.97346
63.5039 17.4569 3.96483
62.8268 20.3566 3.9624
61.9169 23.01 3.96839
60.681 11.1016 3.97847
57.6057 11.4737 3.96945
72.1454 51.8506 0
69.9759 56.25 0
68.8333 53.1135 0.0247211
64.0165 64.0165 0
63.8825 60.7635 0.0259495
66.6076 57.1327 0.0250465
63.4928 57.7642 0.0343066
62.2255 65.694 2
58.894 65.4092 2
69.7659 50.9878 2
67.7812 55.1637 2
66.6357 52.2051 2
62.3351 62.4198 2
64.6503 56.0266 2
62.1932 59.3913 2
61.7731 56.6538 2
60.666 63.9737 3.97997
57.0228 66.7338 3.9867
57.5527 63.6754 3.97144
67.4948 50.1742 3.96425
65.6922 54.1703 3.96429
64.4276 51.3532 3.96591
60.7675 60.9181 3.96852
62.7491 55.0388 3.96337
60.6247 58.1301 3.96053
60.2225 55.7336 3.9646
56.25 69.9759 4
58.3339 68.6801 2
60.3285 67.2507 0
58.9183 9.65949 3.97982
62.2254 9.30607 4
73.0099 49.554 0
74.2788 44.8158 0
71.247 46.598 0.0249128
72.1665 42.0857 0.0233542
74.9194 39.9526 0
75 37.5 2
72.4037 39.8024 2
71.7804 44.3523 2
69.7982 41.7895 2
70.572 48.813 2
68.9056 46.0134 2
72.4873 37.5126 3.97725
70.0365 39.6582 3.96736
69.4248 43.9071 3.96641
67.5001 41.489 3.97225
68.2557 48.1053 3.96471
66.5939 45.4192 3.97037
74.9197 35.0474 0
74.2794 30.1841 0
72.1832 32.9443 0.0230895
71.2762 28.4323 0.0244602
65.694 12.7746 0
65.32 16.1058 0.0272469
69.8129 24.0598 0.0244142
68.3402 26.9546 0.0356156
66.7524 22.9367 0.0360706
64.7046 19.2005 0.0359221
63.8007 22.0691 0.0356256
72.4116 35.2249 2
71.802 30.6779 2
69.8343 33.2718 2
68.96 29.0423 2
64.0165 10.9835 2
63.888 14.3357 2
63.5023 17.4579 2
67.6038 24.9164 2
66.0922 27.6619 2
62.8253 20.3575 2
64.6609 23.863 2
61.9159 23.011 2
60.6836 11.1058 2
57.6067 11.4665 2
70.0534 35.3941 3.96738
69.4618 31.1525 3.96606
67.566 33.603 3.97149
66.6697 29.6454 3.96906
65.4243 25.7289 3.96702
63.9289 28.3081 3.97492
62.3379 12.6589 3.97642
62.6633 24.7008 3.97065
62.1905 15.8009 3.9659
61.7483 18.7225 3.9608
61.0531 21.4126 3.96547
60.1642 23.8252 3.97244
59.2395 12.8097 3.96713
55.8686 10.2565 3.97288
56.3937 13.1713 3.96907
69.7661 50.9893 0.0249928
62.2254 65.694 0
58.8918 65.413 0.0164668
67.7805 55.1672 0.0246114
66.6364 52.2063 0.0359043
62.3326 62.4244 0.0227272
62.1957 59.3915 0.0344335
64.6523 56.0271 0.0351244
61.7734 56.6535 0.03832
60.6683 63.9707 2
57.0253 66.7318 2
57.5538 63.6795 2
67.4955 50.1733 2
65.6894 54.169 2
64.4275 51.3528 2
60.7663 60.9198 2
62.7492 55.039 2
60.6284 58.1319 2
60.2211 55.7335 2
55.0686 67.9311 3.98801
59.2131 62.3374 3.96912
55.801 64.9013 3.97507
56.3162 62.045 3.971
65.2114 49.3779 3.96725
63.6111 53.2607 3.96454
62.2178 50.5887 3.96968
59.317 59.5264 3.96199
60.9273 54.2516 3.96698
59.1941 56.956 3.9616
59.0869 55.1136 3.96764
48.0998 68.5744 3.98417
50.9464 69.9313 3.98983
54.0858 71.1327 4
56.25 69.976 2
58.3339 68.6801 0
57.0556 8.33874 3.98199
60.3285 7.74928 4
58.9211 9.66362 2
62.2255 9.30602 2
70.5726 48.8137 0.0252642
71.7807 44.3529 0.0237013
68.9057 46.0138 0.0345978
69.799 41.7899 0.0330105
72.4039 39.8025 0.0223742
75 37.5 0
72.4866 37.5125 2
70.0363 39.6581 2
69.4245 43.9067 2
67.4983 41.4888 2
68.2572 48.1047 2
66.5915 45.4186 2
70.1246 37.523 3.96743
67.7461 39.5094 3.9726
67.1135 43.4553 3.97106
65.3278 41.1888 3.97671
65.947 47.3917 3.96905
64.4012 44.8047 3.9757
72.4118 35.2249 0.0223179
71.8022 30.6772 0.0234607
69.8351 33.2711 0.0330727
68.9602 29.0413 0.0347192
64.0165 10.9835 0
63.886 14.3304 0.0265374
63.5039 17.4569 0.0351714
67.6036 24.9151 0.0359222
66.0934 27.661 0.0317959
64.6616 23.862 0.0342241
62.8268 20.3566 0.0375962
61.9169 23.01 0.0316067
60.681 11.1016 0.021535
57.6057 11.4737 0.0305468
70.0531 35.3945 2
69.4616 31.1532 2
67.5643 33.6034 2
66.668 29.6461 2
62.3405 12.6638 2
62.1888 15.8018 2
61.7479 18.7227 2
65.4236 25.7298 2
63.9266 28.3094 2
61.0514 21.4137 2
62.6619 24.702 2
60.1628 23.8264 2
59.2401 12.8098 2
56.3951 13.1687 2
55.8707 10.2545 2
67.7847 35.5546 3.97211
67.1715 31.6396 3.97036
65.4842 33.9506 3.9769
64.4413 30.2368 3.97608
63.3304 26.4732 3.97287
61.9327 28.8593 3.97616
60.7681 14.2465 3.96704
60.7599 25.4318 3.97489
60.5718 17.1659 3.96035
60.0687 19.8919 3.96207
59.4105 22.3623 3.96822
58.6474 24.446 3.97454
54.0339 9.14775 3.97307
57.8968 14.3778 3.96566
54.7757 12.0682 3.96833
55.2933 14.7174 3.96575
67.4948 50.1742 0.0357502
57.0228 66.7338 0.0133014
60.666 63.9737 0.0200272
57.5527 63.6754 0.0285626
65.6922 54.1703 0.0357109
64.4276 51.3532 0.0340949
60.7675 60.9181 0.0314844
60.6247 58.1301 0.0394655
62.7491 55.0388 0.0366316
60.2225 55.7336 0.0354045
55.0708 67.9295 2
59.2131 62.3397 2
55.8015 64.9 2
56.3149 62.0451 2
65.2107 49.3773 2
63.6108 53.2605 2
62.2175 50.5882 2
59.3169 59.5292 2
60.9277 54.2516 2
59.1994 56.9576 2
59.0907 55.1143 2
53.0407 68.9993 3.98951
53.9633 66.005 3.97842
57.8677 60.8332 3.96882
54.6742 63.177 3.9709
55.1937 60.5637 3.97404
62.9541 48.6016 3.97194
61.5514 52.5132 3.96835
59.9436 49.9262 3.97223
57.9668 58.2147 3.961
59.1185 53.8679 3.96918
57.9463 55.7309 3.96288
50.1064 67.8523 3.98328
47.4606 66.5709 3.97916
46.0537 69.1536 3.98506
48.1005 68.5744 2
48.8003 70.7225 3.99031
50.9481 69.9305 2
51.8506 72.1454 4
54.0858 71.1327 2
56.25 69.9759 0
55.1006 7.14307 3.9855
58.3339 6.31992 4
57.0588 8.3422 2
60.3286 7.74926 2
58.9183 9.65949 0.0201836
62.2254 9.30607 0
68.2557 48.1053 0.035289
69.4248 43.9071 0.0335888
66.5939 45.4192 0.0296311
67.5001 41.489 0.0277501
70.0365 39.6582 0.0326361
72.4873 37.5126 0.0227471
70.1239 37.5232 2
67.7439 39.5093 2
67.1126 43.455 2
65.3248 41.1882 2
65.9467 47.3911 2
64.3994 44.8038 2
67.8466 37.5242 3.97251
65.5671 39.3614 3.97667
64.9413 42.9922 3.97675
63.4256 40.9009 3.97662
63.7116 46.6638 3.97402
62.445 44.1497 3.97636
70.0534 35.3941 0.0326176
69.4618 31.1525 0.0339408
67.566 33.603 0.0285118
66.6697 29.6454 0.0309389
62.3379 12.6589 0.0235787
62.1905 15.8009 0.034105
61.7483 18.7225 0.0392029
65.4243 25.7289 0.0329816
63.9289 28.3081 0.0250819
62.6633 24.7008 0.029352
61.0531 21.4126 0.0345251
60.1642 23.8252 0.0275555
59.2395 12.8097 0.0328736
56.3937 13.1713 0.0309331
55.8686 10.2565 0.0271247
67.7824 35.5549 2
67.1705 31.6402 2
65.4805 33.9515 2
64.4386 30.2379 2
60.7677 14.2473 2
60.5701 17.1659 2
60.0672 19.8928 2
63.3285 26.4744 2
61.9303 28.8601 2
59.4118 22.363 2
60.7578 25.433 2
58.6462 24.4473 2
57.8956 14.3781 2
55.2945 14.7146 2
54.0361 9.14773 2
54.7766 12.0634 2
65.6657 35.6802 3.97675
64.9608 32.1891 3.97669
63.9913 34.2793 3.97664
62.2494 30.702 3.97629
61.3433 27.1613 3.97579
60.4533 29.2384 3.97634
59.2909 15.7083 3.96093
58.9625 25.9235 3.97621
59.0159 18.4277 3.96049
58.5135 20.9618 3.96364
57.9672 23.2241 3.9697
57.6034 24.8089 3.97522
52.1093 8.16297 3.97681
53.0488 11.0554 3.96983
56.6491 15.8066 3.96082
53.7889 13.7568 3.96474
54.3358 16.0859 3.96057
55.0686 67.9311 0.0119945
65.2114 49.3779 0.0327494
55.801 64.9013 0.0249282
59.2131 62.3374 0.0308772
56.3162 62.045 0.0289969
63.6111 53.2607 0.0354645
62.2178 50.5887 0.0303244
59.317 59.5264 0.0380144
59.1941 56.956 0.0383975
60.9273 54.2516 0.0330224
59.0869 55.1136 0.0323583
53.0426 68.9984 2
53.9644 66.0049 2
57.8662 60.8342 2
54.6738 63.1784 2
55.1908 60.5639 2
62.9527 48.6009 2
61.5515 52.513 2
59.9448 49.9259 2
57.9636 58.2157 2
59.1225 53.8682 2
57.9429 55.7295 2
52.0675 66.9944 3.98181
52.9476 64.2024 3.97531
56.6222 59.4444 3.96573
53.6625 61.5678 3.97009
54.2282 59.2681 3.97281
60.619 47.7893 3.97356
59.4304 52.0155 3.97026
57.6096 49.495 3.97371
56.6787 56.9191 3.96351
56.8589 54.0186 3.96676
50.107 67.852 2
49.3341 65.9112 3.97907
47.4609 66.5707 2
46.8885 64.7201 3.97798
45.5561 67.0882 3.97969
43.9713 69.5856 3.98603
46.0545 69.1537 2
46.6068 71.3669 3.99074
48.0998 68.5744 0.0158276
48.8018 70.7222 2
49.554 73.0099 4
50.9464 69.9313 0.0101697
51.8506 72.1455 2
54.0858 71.1327 0
53.0629 6.07328 3.98866
55.1039 7.14463 2
56.25 5.02411 4
58.3339 6.3199 2
57.0556 8.33874 0.0180098
60.3285 7.74928 0
65.947 47.3917 0.030953
67.1135 43.4553 0.0289355
64.4012 44.8047 0.0243035
65.3278 41.1888 0.0232896
67.7461 39.5094 0.0274048
70.1246 37.523 0.0325703
67.8448 37.5243 2
65.5637 39.3612 2
64.9381 42.9912 2
63.4246 40.9007 2
63.71 46.6629 2
62.4435 44.1491 2
65.676 37.5046 3.97667
63.575 39.2542 3.9767
62.9792 42.5061 3.97644
62.0228 40.6618 3.97659
61.5898 45.8389 3.97572
61.0001 43.6089 3.9762
67.7847 35.5546 0.0278925
67.1715 31.6396 0.0296367
65.4842 33.9506 0.0231035
64.4413 30.2368 0.0239245
60.7681 14.2465 0.0329603
60.5718 17.1659 0.0396457
60.0687 19.8919 0.0379255
63.3304 26.4732 0.0271252
61.9327 28.8593 0.0238406
60.7599 25.4318 0.0251071
59.4105 22.3623 0.0317763
58.6474 24.446 0.025464
57.8968 14.3778 0.0343397
55.2933 14.7174 0.034246
54.0339 9.14775 0.02693
54.7757 12.0682 0.031674
65.6622 35.6805 2
64.9574 32.1902 2
63.9896 34.2799 2
62.2475 30.7023 2
59.2896 15.7073 2
59.0246 18.4256 2
58.5132 20.9627 2
61.3415 27.1624 2
60.4526 29.239 2
57.9597 23.227 2
58.9616 25.9247 2
57.6091 24.8108 2
56.6475 15.8061 2
54.3401 16.0805 2
53.7887 13.7458 2
52.1114 8.16269 2
53.0499 11.0539 2
63.7846 35.6499 3.97655
62.5731 33.0935 3.97632
60.1683 30.7048 3.97605
59.1531 28.0318 3.9761
57.8835 17.0489 3.95957
57.3188 25.8827 3.97608
57.5368 19.5808 3.96004
57.0678 21.98 3.964
56.7952 24.1058 3.97059
50.1105 7.29216 3.98213
51.226 10.1474 3.97345
52.1545 12.8578 3.97057
55.4803 17.0584 3.95896
52.9426 15.3557 3.96334
53.6982 17.0838 3.9586
53.0407 68.9993 0.0104932
53.9633 66.005 0.0215768
62.9541 48.6016 0.0280645
54.6742 63.177 0.0291045
57.8677 60.8332 0.0311803
55.1937 60.5637 0.0259587
61.5514 52.5132 0.0316546
59.9436 49.9262 0.0277735
57.9668 58.2147 0.0389993
57.9463 55.7309 0.0371203
59.1185 53.8679 0.0308193
52.0683 66.9947 2
52.9471 64.2036 2
56.6197 59.4447 2
53.6606 61.5693 2
54.2253 59.2691 2
60.6185 47.7886 2
59.4316 52.0152 2
57.6082 49.494 2
56.6752 56.9222 2
56.8557 54.0173 2
51.1644 65.1162 3.9776
52.0329 62.5117 3.97178
55.425 58.1933 3.96149
52.7992 60.061 3.96805
53.5928 58.4099 3.96602
57.7911 46.7169 3.97583
57.2156 51.6715 3.97049
55.757 49.4104 3.97318
55.3249 55.7055 3.96477
55.0457 53.2654 3.96349
50.1064 67.8523 0.0167238
49.3342 65.9107 2
48.6128 64.1075 3.97828
47.4606 66.5709 0.0208382
45.5565 67.0886 2
46.8891 64.7195 2
46.3749 63.0326 3.98242
45.13 65.1809 3.9774
43.6298 67.46 3.98159
41.8591 69.8728 3.98574
43.9719 69.5862 2
44.3742 71.8614 3.99108
46.0537 69.1536 0.0149431
46.6081 71.3667 2
47.2057 73.7222 4
48.8003 70.7225 0.00968884
49.554 73.0099 2
51.8506 72.1454 0
50.9537 5.13395 3.99041
53.0655 6.07423 2
54.0858 3.86728 4
55.1006 7.14307 0.0145046
56.25 5.02406 2
58.3339 6.31992 0
63.7116 46.6638 0.0259797
64.9413 42.9922 0.023251
62.445 44.1497 0.0236439
63.4256 40.9009 0.0233808
65.5671 39.3614 0.023327
67.8466 37.5242 0.027486
65.6723 37.5046 2
63.5742 39.2541 2
62.9784 42.5059 2
62.0235 40.6617 2
61.5885 45.8379 2
60.9994 43.6088 2
63.6391 37.4588 3.9766
61.7312 39.3348 3.97675
60.7452 41.898 3.97657
59.7605 44.6654 3.97613
65.6657 35.6802 0.0232459
64.9608 32.1891 0.0233133
63.9913 34.2793 0.0233568
62.2494 30.702 0.0237096
59.2909 15.7083 0.0390677
59.0159 18.4277 0.0395099
58.5135 20.9618 0.0363551
61.3433 27.1613 0.0242148
60.4533 29.2384 0.0236566
58.9625 25.9235 0.0237914
57.9672 23.2241 0.0303012
57.6034 24.8089 0.0247838
56.6491 15.8066 0.0391789
54.3358 16.0859 0.0394309
53.7889 13.7568 0.0352644
52.1093 8.16297 0.0231897
53.0488 11.0554 0.0301673
63.7835 35.65 2
62.5731 33.0939 2
60.1687 30.7051 2
57.8824 17.049 2
57.5523 19.5765 2
57.0638 21.9825 2
59.1521 28.0327 2
56.8125 24.1069 2
57.3208 25.8859 2
50.1124 7.29007 2
55.4825 17.0558 2
53.7063 17.0737 2
52.9429 15.3459 2
52.1555 12.8624 2
51.2278 10.1447 2
61.7744 35.3837 3.97647
59.7892 32.8166 3.97614
58.0905 30.1971 3.97587
56.7997 27.5458 3.97649
56.5358 18.2484 3.96044
55.8448 25.2832 3.97513
56.1289 20.6543 3.96092
55.7416 23.0368 3.96404
48.0558 6.53191 3.98628
49.321 9.3458 3.97621
50.4201 12.038 3.97276
51.3464 14.5712 3.96474
54.3214 18.0293 3.95942
52.3097 17.154 3.95892
52.0675 66.9944 0.0181921
52.9476 64.2024 0.0246919
60.619 47.7893 0.0264386
53.6625 61.5678 0.0299052
56.6222 59.4444 0.0342655
54.2282 59.2681 0.0271939
59.4304 52.0155 0.0297422
57.6096 49.495 0.0262855
56.6787 56.9191 0.0364949
56.8589 54.0186 0.0332356
51.1642 65.1166 2
52.0314 62.5133 2
55.4241 58.1941 2
52.797 60.0644 2
53.5912 58.4123 2
57.7904 46.716 2
57.2122 51.6702 2
55.7511 49.4087 2
55.3225 55.7053 2
55.0464 53.2656 2
50.3384 63.3648 3.97946
51.2179 60.88 3.9755
54.1385 57.1993 3.96806
52.2424 58.5569 3.97066
56.0208 44.035 3.97651
54.9087 47.734 3.97478
54.6329 51.2483 3.96594
53.7915 54.442 3.96598
49.3341 65.9112 0.0209348
48.6129 64.1061 2
47.9508 62.4553 3.98088
45.5561 67.0882 0.0203074
46.8885 64.7201 0.0220207
43.63 67.4609 2
46.3752 63.032 2
45.1307 65.181 2
45.9766 61.562 3.9895
44.7627 63.4302 3.97681
43.3556 65.4927 3.97826
41.6623 67.6787 3.98122
39.7015 70.0185 3.98517
41.8596 69.8732 2
42.1088 72.2058 3.99151
43.9713 69.5856 0.0139724
44.3752 71.8614 2
44.8159 74.2794 4
46.6068 71.3669 0.0092562
47.2057 73.7222 2
49.554 73.0099 0
48.7851 4.3242 3.99138
50.9556 5.13362 2
51.8506 2.85458 4
53.0629 6.07328 0.0113432
54.0858 3.86728 2
56.25 5.02411 0
61.5898 45.8389 0.0242844
62.9792 42.5061 0.0235643
61.0001 43.6089 0.0238025
62.0228 40.6618 0.0234059
63.575 39.2542 0.0233021
65.676 37.5046 0.0233345
63.6382 37.4587 2
61.7322 39.3349 2
60.7465 41.8981 2
59.7605 44.6647 2
61.5605 37.4451 3.9769
59.7013 39.8089 3.9768
58.3867 42.8249 3.97607
63.7846 35.6499 0.0234548
62.5731 33.0935 0.0236776
60.1683 30.7048 0.0239501
57.8835 17.0489 0.0404323
57.5368 19.5808 0.0399596
57.0678 21.98 0.0360023
59.1531 28.0318 0.0239012
57.3188 25.8827 0.0239186
56.7952 24.1058 0.0294053
55.4803 17.0584 0.0410401
53.6982 17.0838 0.0414041
52.9426 15.3557 0.0366598
50.1105 7.29216 0.0178674
52.1545 12.8578 0.0294283
51.226 10.1474 0.0265513
61.7753 35.3838 2
59.7895 32.8165 2
58.0915 30.1964 2
56.5383 18.2471 2
56.1492 20.648 2
55.75 23.0416 2
56.7995 27.5473 2
55.851 25.2885 2
48.0569 6.53084 2
49.3227 9.34398 2
54.3369 18.0269 2
52.302 17.1449 2
51.3436 14.572 2
50.4219 12.0385 2
59.3374 35.1551 3.97659
57.3633 32.3679 3.97563
55.9543 29.4996 3.97618
54.9012 26.8127 3.97564
55.2054 19.3039 3.96231
54.5198 24.2531 3.97189
54.7192 21.7215 3.96024
45.9625 5.88589 3.9881
43.3744 7.4794 3.98403
47.3537 8.6331 3.98109
48.5912 11.3214 3.97382
49.6861 13.794 3.96929
50.5861 16.2242 3.96227
53.0141 18.7953 3.96251
51.2284 18.205 3.96241
51.1644 65.1162 0.0223995
52.0329 62.5117 0.0282151
57.7911 46.7169 0.0241695
52.7992 60.061 0.0319481
55.425 58.1933 0.0385141
53.5928 58.4099 0.0339848
57.2156 51.6715 0.0295062
55.757 49.4104 0.0268179
55.3249 55.7055 0.0352348
55.0457 53.2654 0.0365054
50.3377 63.3637 2
51.2158 60.8786 2
54.1375 57.2008 2
52.2402 58.5588 2
56.0212 44.0347 2
54.9053 47.7325 2
54.6299 51.247 2
53.791 54.4439 2
49.575 61.7263 3.97512
54.7653 41.6311 3.97406
50.514 59.2704 3.97021
52.0568 56.4089 3.96822
53.4297 45.3709 3.97413
52.7736 49.1625 3.96974
52.3305 52.7269 3.96033
48.6128 64.1075 0.0217183
47.9501 62.4523 2
47.3105 60.9864 3.99296
43.6298 67.46 0.0184119
45.13 65.1809 0.0225952
46.3749 63.0326 0.0175814
41.6628 67.6781 2
43.3565 65.4937 2
45.9752 61.5619 2
44.7632 63.4298 2
45.7448 60.6077 3.98962
44.4761 61.8047 3.97929
43.144 63.7056 3.97803
41.5454 65.6312 3.97671
39.632 67.7558 3.98048
37.5259 70.0428 3.98416
39.7018 70.0187 2
39.8162 72.4024 3.99141
41.8591 69.8728 0.0142626
42.1096 72.2061 2
42.3947 74.6792 4
44.3742 71.8614 0.00892281
44.8159 74.2794 2
47.2057 73.7222 0
43.8519 5.36247 3.98745
46.5714 3.64863 3.99189
48.7861 4.32397 2
49.554 1.99015 4
50.9537 5.13395 0.00959083
51.8506 2.85453 2
54.0858 3.86728 0
59.7605 44.6654 0.0238728
60.7452 41.898 0.0234269
61.7312 39.3348 0.0232528
63.6391 37.4588 0.0234007
61.5613 37.4449 2
59.7026 39.8086 2
58.3871 42.8249 2
59.1917 37.5656 3.97727
57.3134 40.5925 3.97721
54.165 39.6449 3.97538
61.7744 35.3837 0.0235344
59.7892 32.8166 0.0238588
58.0905 30.1971 0.024127
56.5358 18.2484 0.0395611
56.1289 20.6543 0.0390789
55.7416 23.0368 0.0359555
56.7997 27.5458 0.0235092
55.8448 25.2832 0.024868
54.3214 18.0293 0.0405803
52.3097 17.154 0.041083
51.3464 14.5712 0.0352579
48.0558 6.53191 0.0137199
49.321 9.3458 0.0237924
50.4201 12.038 0.0272425
59.3382 35.1545 2
45.9631 5.88426 2
43.3747 7.47728 2
57.3644 32.3683 2
55.954 29.499 2
55.1962 19.3091 2
54.7518 21.7233 2
54.5194 24.2583 2
54.899 26.8148 2
47.3552 8.63048 2
48.5931 11.3204 2
53.0264 18.7701 2
51.2355 18.2019 2
50.5831 16.2232 2
49.6854 13.7974 2
56.6879 34.8106 3.97715
55.0148 31.651 3.97566
53.8715 28.6094 3.97697
53.2786 25.7296 3.9747
53.7957 20.2736 3.96064
53.2595 22.9115 3.9569
41.4001 7.08379 3.98358
45.3599 7.99967 3.98661
42.8665 9.42558 3.97792
46.6634 10.6686 3.97867
47.7229 13.1342 3.97417
48.891 15.4697 3.96902
49.9337 17.7892 3.95885
51.5277 19.4904 3.97227
50.3384 63.3648 0.0205441
51.2179 60.88 0.0244951
56.0208 44.035 0.0234854
54.9087 47.734 0.0252211
52.2424 58.5569 0.0293371
54.1385 57.1993 0.0319388
54.6329 51.2483 0.0340637
53.7915 54.442 0.0340166
49.5733 61.7244 2
54.755 41.6267 2
50.5115 59.2715 2
52.0593 56.4123 2
53.425 45.3684 2
52.7711 49.1605 2
52.3326 52.727 2
48.8135 60.1769 3.9776
51.523 42.4989 3.98328
49.6992 57.5664 3.96475
50.3696 54.3367 3.96219
51.1022 47.0765 3.97536
50.7704 50.8016 3.955
47.2097 43.5577 3.97421
47.9508 62.4553 0.0191193
47.308 60.9836 2
46.587 59.779 3.99473
41.6623 67.6787 0.0187837
43.3556 65.4927 0.0217394
44.7627 63.4302 0.0231876
45.9766 61.562 0.0105036
39.6326 67.7564 2
41.5461 65.629 2
45.7443 60.6073 2
43.144 63.7044 2
44.4742 61.8063 2
44.6016 60.2625 3.99598
42.9445 62.0575 3.97482
41.5992 63.8002 3.97692
39.6467 65.5952 3.97602
37.5632 67.7363 3.97857
31.6981 65.113 3.9759
33.3929 67.4746 3.97842
35.334 69.9533 3.98439
37.5258 70.0443 2
37.509 72.4567 3.99196
39.7015 70.0185 0.0148287
39.8167 72.4025 2
39.9526 74.9197 4
42.1088 72.2058 0.00848672
42.3947 74.6792 2
44.8159 74.2794 0
41.7367 4.97058 3.98812
43.8522 5.36083 2
44.3269 3.11157 3.99247
46.5719 3.64806 2
47.2057 1.27793 4
48.7851 4.3242 0.00862484
49.554 1.99013 2
51.8506 2.85458 0
58.3867 42.8249 0.0239292
59.7013 39.8089 0.0232046
61.5605 37.4451 0.023104
59.193 37.5662 2
57.3136 40.5941 2
54.155 39.6524 2
56.0436 37.8755 3.97678
48.5493 41.2211 3.97145
52.1126 39.2827 3.98229
39.4438 6.807 3.98441
59.3374 35.1551 0.0234113
57.3633 32.3679 0.0243669
55.9543 29.4996 0.0238224
55.2054 19.3039 0.0376914
54.7192 21.7215 0.0397591
54.5198 24.2531 0.0281065
54.9012 26.8127 0.0243564
53.0141 18.7953 0.0374859
51.2284 18.205 0.0375928
50.5861 16.2242 0.0377256
45.9625 5.88589 0.0118982
49.6861 13.794 0.0307131
47.3537 8.6331 0.0189125
48.5912 11.3214 0.0261835
43.3744 7.4794 0.0159694
56.6875 34.8112 2
41.4003 7.08366 2
45.3606 7.99721 2
42.8672 9.42366 2
55.017 31.6495 2
53.8702 28.6108 2
53.8006 20.2905 2
53.2468 22.9134 2
53.275 25.7305 2
46.6652 10.6641 2
47.7235 13.1315 2
51.5497 19.4909 2
49.9325 17.7897 2
48.8844 15.4805 2
53.9861 34.0107 3.97486
52.7183 30.7056 3.97547
51.9809 27.4618 3.97475
51.7658 24.3538 3.97864
52.1902 21.2353 3.97433
41.0135 9.05782 3.97749
44.726 10.0014 3.98518
42.461 10.9097 4.00263
45.9854 12.7446 3.96974
47.6471 14.6453 3.96647
48.0422 17.0454 3.96605
49.735 19.8843 3.97766
49.575 61.7263 0.0248791
50.514 59.2704 0.0297855
54.7653 41.6311 0.0259433
53.4297 45.3709 0.0258667
52.7736 49.1625 0.030261
52.0568 56.4089 0.0317753
52.3305 52.7269 0.0396729
48.8101 60.1745 2
51.5355 42.511 2
49.6969 57.5666 2
50.3702 54.3387 2
51.1045 47.0747 2
50.7737 50.8014 2
47.2209 43.5911 2
47.9275 58.6942 3.98551
49.1977 45.0982 3.98091
48.4531 55.8525 3.95937
48.825 52.4885 3.97641
49.1288 48.8792 3.97028
44.9466 39.7802 3.85084
45.4428 42.4799 3.89062
45.7161 45.555 3.98309
42.7793 41.0012 3.66629
41.5327 41.7789 3.46677
47.3105 60.9864 0.00704258
46.585 59.7726 2
45.4243 58.7749 3.99448
39.632 67.7558 0.0195227
41.5454 65.6312 0.0232851
43.144 63.7056 0.0219706
44.4761 61.8047 0.0207101
45.7448 60.6077 0.0103817
41.5994 63.7984 2
37.5636 67.7379 2
39.6477 65.5959 2
44.602 60.2638 2
42.9424 62.0573 2
41.7478 62.464 3.97668
42.4639 59.951 3.98181
39.894 63.5317 3.97595
37.6416 65.491 3.97535
35.4637 67.6459 3.97845
33.576 65.3244 3.97455
31.9605 63.2738 3.9766
29.8862 64.703 3.97968
31.6976 65.1129 2
31.378 67.1856 3.97902
33.3926 67.4753 2
33.1577 69.747 3.98438
35.3335 69.9547 2
35.1958 72.3713 3.992
37.5259 70.0428 0.0158439
37.5092 72.4572 2
37.5 75 4
39.8162 72.4024 0.00858844
39.9526 74.9197 2
42.3947 74.6792 0
39.6248 4.71832 3.9892
41.7369 4.9702 2
42.0634 2.71859 3.99289
43.8519 5.36247 0.0125508
44.3271 3.11072 2
44.8158 0.721173 4
46.5714 3.64863 0.00810933
47.2057 1.27779 2
49.554 1.99015 0
57.3134 40.5925 0.0227906
59.1917 37.5656 0.0227283
54.165 39.6449 0.0246241
48.5722 41.2286 2
56.0444 37.8725 2
52.1068 39.2469 2
52.9717 36.6146 3.97788
46.4796 40.2984 3.89529
49.4914 38.505 3.98387
37.5178 6.67668 3.98534
39.4445 6.80527 2
39.2114 8.69927 3.98195
35.9439 8.49739 3.9836
56.6879 34.8106 0.0228533
55.0148 31.651 0.0243431
53.8715 28.6094 0.0230289
53.7957 20.2736 0.0393646
53.2595 22.9115 0.0431034
53.2786 25.7296 0.0252967
51.5277 19.4904 0.027727
49.9337 17.7892 0.0411537
48.891 15.4697 0.0309806
45.3599 7.99967 0.0133885
47.7229 13.1342 0.0258261
46.6634 10.6686 0.0213331
41.4001 7.08379 0.0164184
42.8665 9.42558 0.022081
53.9853 34.0084 2
41.0149 9.05966 2
44.7267 9.99844 2
42.4623 10.9104 2
52.7123 30.7032 2
51.9879 27.4637 2
52.1883 21.2442 2
51.7545 24.359 2
45.9862 12.7379 2
47.6397 14.6142 2
49.7543 19.8686 2
48.0378 17.0528 2
51.4866 32.9267 3.98229
50.5499 29.4227 3.97742
50.282 25.961 3.97028
49.7534 22.4803 3.98553
40.564 11.6201 3.9837
43.8413 11.9154 3.97812
45.7638 15.4883 3.98897
47.44 19.495 3.97891
45.4075 37.4831 3.84858
48.8135 60.1769 0.0224017
49.6992 57.5664 0.0352458
51.523 42.4989 0.0167197
51.1022 47.0765 0.0246386
50.7704 50.8016 0.0449953
50.3696 54.3367 0.0378052
47.2097 43.5577 0.0257938
47.9244 58.6993 2
49.2139 45.1135 2
48.4489 55.8551 2
48.8251 52.4923 2
49.1321 48.8811 2
45.04 39.8055 2
45.4711 42.5003 2
45.7232 45.5727 2
42.8317 41.0535 2
41.5705 41.804 2
46.7523 57.3002 3.97953
43.4987 39.3491 3.66541
41.909 40.715 3.478
47.3892 47.1276 3.98396
46.9683 54.1591 3.96
47.2009 50.6319 3.97808
44.2581 47.1823 3.9832
44.0919 41.8188 3.8496
44.2097 44.2891 3.8869
41.8257 42.4123 3.70925
40.564 42.0709 3.4462
46.587 59.779 0.00526815
45.4246 58.7731 2
43.8319 57.6578 3.98267
37.5632 67.7363 0.0214283
39.6467 65.5952 0.0239811
41.5992 63.8002 0.0230794
42.9445 62.0575 0.0251828
44.6016 60.2625 0.00401877
35.4637 67.6479 2
41.7463 62.4672 2
39.8933 63.5319 2
37.6422 65.4927 2
42.4662 59.948 2
40.6182 61.6058 3.98127
40.4276 58.1272 3.98365
37.837 63.1872 3.97275
35.5729 65.4135 3.97638
33.576 65.3247 2
31.9616 63.2767 2
33.6293 63.3154 3.97485
30.3805 62.8361 3.98071
32.1291 61.9768 3.98739
26.8819 61.4568 3.97969
28.0671 64.1326 3.97912
29.8851 64.7041 2
29.4081 66.7484 3.97937
31.6981 65.113 0.0240953
31.3777 67.1857 2
31.0155 69.4127 3.98439
33.3929 67.4746 0.0215781
33.157 69.7477 2
32.8939 72.1457 3.99137
35.334 69.9533 0.015611
35.1953 72.372 2
35.0474 74.9194 4
37.509 72.4567 0.00803581
37.5 75 2
39.9526 74.9197 0
35.6223 6.72822 3.98456
37.5246 4.61733 3.98951
39.6249 4.71676 2
39.7899 2.47529 3.99298
41.7367 4.97058 0.0118792
42.0633 2.71825 2
42.3946 0.32156 4
44.3269 3.11157 0.00753022
44.8159 0.72056 2
47.2057 1.27793 0
48.5493 41.2211 0.0285518
56.0436 37.8755 0.0232205
52.1126 39.2827 0.0177064
46.4995 40.3045 2
49.49 38.5044 2
52.9719 36.6412 2
50.2967 35.5622 3.97403
47.1405 37.7586 3.90269
44.9717 35.1891 3.8499
42.8258 33.9534 3.66461
41.5689 33.1806 3.46543
37.4593 8.53726 3.98471
37.5184 6.67614 2
39.4438 6.807 0.015592
39.2135 8.6969 2
38.9761 10.1357 3.98491
35.9002 9.78011 3.98
34.1538 8.82941 3.98161
35.945 8.49481 2
53.9861 34.0107 0.0251405
52.7183 30.7056 0.0245257
51.9809 27.4618 0.0252532
52.1902 21.2353 0.0256743
51.7658 24.3538 0.0213571
49.735 19.8843 0.0223421
48.0422 17.0454 0.0339508
47.6471 14.6453 0.0335275
44.726 10.0014 0.0148196
45.9854 12.7446 0.0302599
41.0135 9.05782 0.0225101
42.461 10.9097 -0.00263349
51.4986 32.9226 2
40.5664 11.6243 2
43.8408 11.9095 2
50.5678 29.4225 2
50.2771 25.9657 2
49.7404 22.4724 2
45.7527 15.4354 2
47.4425 19.5256 2
49.0734 31.551 3.98616
48.6523 27.7301 3.9765
49.0321 24.6065 3.98036
47.0696 22.2634 3.98987
38.2992 12.7511 3.97679
42.0818 14.3236 3.97933
44.7529 18.6147 3.97468
43.9225 37.4855 3.67832
45.5053 37.4875 2
47.9275 58.6942 0.0144899
48.4531 55.8525 0.040628
49.1977 45.0982 0.0190934
49.1288 48.8792 0.0297175
48.825 52.4885 0.0235889
44.9466 39.7802 0.149161
45.4428 42.4799 0.109377
45.7161 45.555 0.0169086
42.7793 41.0012 0.333711
41.5327 41.7789 0.533231
46.7491 57.3061 2
43.5693 39.3757 2
41.9164 40.7286 2
47.3967 47.1234 2
46.9633 54.163 2
47.2019 50.6394 2
44.2933 47.1785 2
44.1504 41.8515 2
44.2654 44.3188 2
41.8838 42.4685 2
40.5967 42.0858 2
45.2833 55.8805 3.99992
42.2534 39.1974 3.48844
40.4528 40.5945 3.59184
45.6106 48.7695 4.00209
45.255 52.4214 3.98509
43.0124 48.1774 3.99432
42.9028 45.8189 3.88047
42.9921 43.5823 3.83174
40.6809 43.4059 3.68641
39.1668 42.3282 3.49609
45.4243 58.7749 0.00552126
43.83 57.666 2
42.0551 56.2398 3.98774
35.4637 67.6459 0.0215496
37.6416 65.491 0.0246486
39.894 63.5317 0.0240497
41.7478 62.464 0.0233165
42.4639 59.951 0.0181916
35.5735 65.4162 2
40.6184 61.6046 2
37.8374 63.187 2
40.4279 58.1311 2
38.9054 56.3845 3.99346
38.2462 60.2876 3.98082
35.607 63.1814 3.97259
33.576 65.3244 0.0254492
31.9605 63.2738 0.0234021
33.6306 63.3164 2
30.3812 62.8383 2
32.1306 61.9789 2
28.6883 62.1746 3.98017
33.3482 61.4821 3.97892
31.079 61.2011 3.98235
27.5958 59.5501 3.98039
23.8314 59.028 3.99324
25.0521 60.8251 3.97671
26.8828 61.4574 2
26.2365 63.4619 3.97607
28.0663 64.1308 2
27.4652 66.1724 3.97919
29.8862 64.703 0.0203248
29.4074 66.7484 2
28.9082 68.9379 3.98352
31.378 67.1856 0.0209808
31.0147 69.4127 2
30.6169 71.7773 3.99085
33.1577 69.747 0.0156151
32.893 72.1461 2
32.6054 74.6784 4
35.1958 72.3713 0.00799553
35.0474 74.9197 2
37.5 75 0
33.7254 6.9844 3.98325
35.4367 4.68749 3.98911
35.6229 6.72688 2
37.5157 2.38765 3.99308
37.5247 4.61668 2
39.6248 4.71832 0.0108004
39.7897 2.47445 2
39.9526 0.0806499 4
42.0634 2.71859 0.00711253
42.3947 0.320817 2
44.8158 0.721173 0
43.517 35.6201 3.66958
41.9324 34.2398 3.46565
46.4796 40.2984 0.104712
49.4914 38.505 0.0161271
52.9717 36.6146 0.0221193
47.1355 37.7369 2
50.3076 35.5596 2
45.0512 35.169 2
42.8687 33.9054 2
41.597 33.1548 2
47.3434 34.355 3.94216
44.1473 33.1464 3.8355
41.8783 32.5498 3.70809
40.5942 32.8985 3.44518
37.312 10.6343 3.98159
37.4609 8.53711 2
37.5178 6.67668 0.0146582
39.2114 8.69927 0.0180539
38.9796 10.1335 2
34.7569 10.3897 3.98015
35.9025 9.77493 2
32.3807 9.3755 3.97799
34.1532 8.82494 2
35.9439 8.49739 0.016399
51.4866 32.9267 0.0177123
50.5499 29.4227 0.0225846
50.282 25.961 0.0297188
49.7534 22.4803 0.0144716
47.44 19.495 0.0210944
45.7638 15.4883 0.0110328
43.8413 11.9154 0.0218769
40.564 11.6201 0.0163029
49.0939 31.5373 2
38.3007 12.7464 2
42.0879 14.3362 2
48.6539 27.7322 2
49.0244 24.6098 2
47.0542 22.2631 2
44.7562 18.6806 2
46.9934 29.7224 3.98364
46.7148 25.3262 3.97194
44.2055 21.6198 3.97997
36.5861 12.9648 3.97434
38.6775 14.8678 3.97459
41.7222 17.9528 3.97887
42.4185 37.4663 3.52523
43.9831 37.4869 2
45.4075 37.4831 0.151416
46.7523 57.3002 0.0204652
46.9683 54.1591 0.0400033
47.3892 47.1276 0.0160434
47.2009 50.6319 0.0219162
43.4987 39.3491 0.334588
44.0919 41.8188 0.150396
44.2097 44.2891 0.113098
44.2581 47.1823 0.0167989
41.8257 42.4123 0.290746
41.909 40.715 0.521996
40.564 42.0709 0.553799
45.2799 55.883 2
42.2574 39.2045 2
40.4896 40.5806 2
45.6105 48.7876 2
45.25 52.4239 2
43.0491 48.1929 2
42.9612 45.8682 2
43.0467 43.6139 2
40.7275 43.4745 2
39.1642 42.3446 2
43.6063 54.3383 3.99498
40.5546 39.0432 3.61201
39.0625 40.6702 3.56073
43.3365 50.2648 4.00396
41.6531 47.3239 3.92502
41.565 44.9127 3.84302
39.3438 44.0573 3.65348
37.5003 42.4454 3.53953
43.8319 57.6578 0.0173329
42.0589 56.2324 2
40.3689 54.7989 3.99494
35.5729 65.4135 0.0236187
37.837 63.1872 0.0272499
40.6182 61.6058 0.0187261
40.4276 58.1272 0.0163493
35.6078 63.1798 2
38.2452 60.289 2
38.9078 56.3679 2
37.9802 55.0611 3.99487
36.9282 57.5719 3.9915
35.3641 60.8813 3.97919
33.6293 63.3154 0.0251466
30.3805 62.8361 0.0192856
32.1291 61.9768 0.0126134
33.3492 61.4823 2
28.689 62.1777 2
31.0803 61.2055 2
29.423 60.2569 3.97681
32.3694 59.6992 3.99536
28.0677 58.3365 4.01369
27.5977 59.5497 2
25.4199 58.548 3.98016
22.8189 58.1831 3.96755
23.4224 60.2924 3.9775
23.8335 59.0282 2
25.0534 60.8242 2
24.4425 62.7431 3.9768
26.8819 61.4568 0.0203078
26.2368 63.4616 2
25.5504 65.4808 3.97789
28.0671 64.1326 0.0208759
27.4647 66.1725 2
26.8381 68.3261 3.98344
29.4081 66.7484 0.0206336
28.9073 68.9377 2
28.3722 71.2626 3.9901
31.0155 69.4127 0.0156146
30.6157 71.7771 2
30.1842 74.2788 4
32.8939 72.1457 0.00862521
32.6053 74.6792 2
35.0474 74.9194 0
31.7899 7.42362 3.9819
33.3493 4.9273 3.98809
33.7253 6.98176 2
35.2461 2.46355 3.99313
35.4366 4.68679 2
35.6223 6.72822 0.0154351
37.5 0 4
37.5151 2.38725 2
37.5246 4.61733 0.0104906
39.7899 2.47529 0.00702044
39.9526 0.0802889 2
42.3946 0.32156 0
42.2481 35.733 3.47361
43.5975 35.5896 2
40.4951 34.3634 3.59218
41.932 34.2223 2
47.1405 37.7586 0.09731
50.2967 35.5622 0.0259735
44.9717 35.1891 0.150102
42.8258 33.9534 0.335388
41.5689 33.1806 0.53457
47.3726 34.3725 2
44.1903 33.1119 2
41.9309 32.491 2
40.6237 32.8829 2
45.4597 31.7709 3.90183
43.0413 31.3811 3.82512
40.7242 31.5603 3.68615
39.1875 32.658 3.4913
35.6962 11.7876 3.9761
37.3162 10.6331 2
37.4593 8.53726 0.0152929
38.9761 10.1357 0.0150863
33.1018 11.2277 3.97296
34.7564 10.3819 2
35.9002 9.78011 0.0200019
30.4863 10.0274 3.97728
32.3803 9.3742 2
34.1538 8.82941 0.0183862
49.0734 31.551 0.0138371
48.6523 27.7301 0.0235039
49.0321 24.6065 0.0196359
47.0696 22.2634 0.0101261
44.7529 18.6147 0.0253202
42.0818 14.3236 0.0206687
38.2992 12.7511 0.0232139
36.583 12.9437 2
47.0005 29.6686 2
38.6762 14.846 2
41.714 17.9546 2
46.7149 25.3274 2
44.1897 21.5947 2
44.9709 27.8635 3.99735
43.5644 24.2601 4.0265
41.2811 20.9667 3.98918
35.7711 14.8048 3.97843
38.6623 17.6824 3.98335
40.6113 37.449 3.62853
42.4303 37.4707 2
43.9225 37.4855 0.321682
45.2833 55.8805 7.9166e-05
45.255 52.4214 0.014909
45.6106 48.7695 -0.00208513
42.2534 39.1974 0.511558
42.9921 43.5823 0.168265
42.9028 45.8189 0.119529
43.0124 48.1774 0.00568456
40.6809 43.4059 0.31359
40.4528 40.5945 0.408157
39.1668 42.3282 0.503909
43.6036 54.3353 2
40.5654 39.0434 2
39.0622 40.6656 2
43.3284 50.2776 2
41.6576 47.3604 2
41.5842 44.9586 2
37.4954 42.4669 2
39.3589 44.1242 2
41.7571 52.8057 3.99995
39.0721 39.0818 3.56852
37.5034 40.7254 3.5947
35.8413 42.3375 3.49376
40.7939 49.4054 3.99414
39.712 45.6443 3.81084
37.4989 44.3245 3.68756
42.0551 56.2398 0.0122646
40.3677 54.8074 2
38.7214 53.6043 3.99659
35.607 63.1814 0.0274136
38.2462 60.2876 0.0191809
38.9054 56.3845 0.00654463
35.3641 60.8749 2
36.9296 57.5779 2
37.9806 55.0596 2
36.3171 55.1419 3.99745
34.4948 58.4827 3.99371
33.3482 61.4821 0.0210773
28.6883 62.1746 0.0198287
31.079 61.2011 0.0176516
32.3696 59.7017 2
29.4244 60.2557 2
30.3387 57.7788 3.98556
28.0708 58.3352 2
27.0369 56.7848 3.96886
27.5958 59.5501 0.0196087
25.4227 58.5475 2
23.947 56.7391 3.95916
21.4361 57.3249 3.95858
22.0247 59.5651 3.97931
22.8205 58.1849 2
22.7494 61.987 3.97302
23.4236 60.2921 2
23.8314 59.028 0.00675616
25.0521 60.8251 0.023292
24.4432 62.746 2
23.6863 64.6963 3.97521
26.2365 63.4619 0.0239289
25.5498 65.4822 2
24.8105 67.5872 3.98228
27.4652 66.1724 0.0208073
26.8369 68.327 2
26.1674 70.6034 3.98989
28.9082 68.9379 0.0164764
28.3708 71.2623 2
27.7943 73.7221 4
30.6169 71.7773 0.00914898
30.1841 74.2794 2
32.6054 74.6784 0
29.8127 7.99959 3.98002
31.2546 5.33391 3.98715
31.7894 7.42213 2
32.9822 2.70178 3.99271
33.3488 4.92574 2
33.7254 6.9844 0.0167516
35.0474 0.080333 4
35.2455 2.4633 2
35.4367 4.68749 0.0108886
37.5 0 2
37.5157 2.38765 0.00691601
39.9526 0.0806499 0
40.6049 35.8808 3.61638
42.2548 35.7338 2
43.517 35.6201 0.330417
28.5466 10.702 3.97731
39.0755 34.3147 3.55767
40.5058 34.3714 2
41.9324 34.2398 0.534354
47.3434 34.355 0.0578448
44.1473 33.1464 0.164495
41.8783 32.5498 0.291913
40.5942 32.8985 0.554818
45.4947 31.755 2
43.0882 31.3455 2
40.7697 31.4915 2
39.1906 32.6412 2
43.8417 29.9979 3.89427
41.5866 30.0455 3.84407
39.3739 30.9173 3.65209
37.5315 32.5491 3.5372
34.0991 12.9519 3.97462
35.6962 11.7743 2
37.312 10.6343 0.0184118
31.192 11.9996 3.97764
33.1024 11.2268 2
34.7569 10.3897 0.0198467
30.4845 10.0225 2
32.3807 9.3755 0.0220087
46.9934 29.7224 0.0163587
46.7148 25.3262 0.0280617
36.5861 12.9648 0.0256637
44.2055 21.6198 0.0200333
41.7222 17.9528 0.0211322
38.6775 14.8678 0.025411
35.7737 14.8125 2
44.9657 27.8607 2
38.6613 17.687 2
41.2631 20.9568 2
43.5514 24.2427 2
33.6155 15.9091 3.98639
42.7259 26.6977 3.98549
40.7773 23.5669 3.99451
38.3884 20.4591 3.99323
35.8442 17.5745 3.98308
39.0921 37.4875 3.58059
40.6147 37.4532 2
42.4185 37.4663 0.474773
43.6063 54.3383 0.00501806
43.3365 50.2648 -0.00395824
40.5546 39.0432 0.387991
41.565 44.9127 0.156982
41.6531 47.3239 0.0749814
39.3438 44.0573 0.34652
39.0625 40.6702 0.439274
37.5003 42.4454 0.460471
41.7488 52.8067 2
39.0649 39.069 2
37.4998 40.7157 2
40.7753 49.423 2
35.8399 42.3529 2
39.7296 45.7037 2
37.4923 44.3884 2
39.7173 51.5996 4.00286
37.5083 39.0843 3.60751
35.9522 40.685 3.56168
34.4379 42.0871 3.44764
35.6538 44.0742 3.64289
38.6582 48.2948 3.93606
37.5296 45.9365 3.84377
40.3689 54.7989 0.00506434
38.7206 53.5981 2
36.761 52.9207 3.99652
35.3641 60.8813 0.0208073
36.9282 57.5719 0.00849812
37.9802 55.0611 0.00513072
34.4935 58.4797 2
36.3206 55.1306 2
33.2713 55.3432 3.99302
32.3694 59.6992 0.0046395
29.423 60.2569 0.0231889
30.3411 57.7742 2
28.8323 55.2854 3.98868
28.0677 58.3365 -0.0136913
27.0403 56.7836 2
25.4779 55.069 3.95632
21.9907 55.255 3.95995
25.4199 58.548 0.019843
23.9493 56.7408 2
20.3086 56.957 3.96278
20.6858 58.7213 3.96549
21.4384 57.3264 2
21.1848 61.1158 3.97312
22.0258 59.5664 2
22.8189 58.1831 0.0324457
21.902 63.8166 3.97477
22.7506 61.9885 2
23.4224 60.2924 0.0224975
24.4425 62.7431 0.0231975
23.6858 64.6958 2
22.8391 66.7293 3.97937
25.5504 65.4808 0.0221127
24.8093 67.5876 2
24.0117 69.805 3.98978
26.8381 68.3261 0.0165575
26.1657 70.6034 2
25.446 73.0099 4
28.3722 71.2626 0.00990269
27.7943 73.7222 2
30.1842 74.2788 0
27.8226 8.65941 3.98026
29.1568 5.88073 3.98536
29.8115 7.99603 2
30.7277 3.09855 3.99245
31.2541 5.33249 2
31.7899 7.42362 0.0181022
32.6053 0.320823 4
32.9812 2.70121 2
33.3493 4.9273 0.011915
35.0474 0.0802903 2
35.2461 2.46355 0.00687371
37.5 0 0
39.0563 35.9018 3.57869
40.5867 35.8801 2
42.2481 35.733 0.52639
28.5449 10.6991 2
26.6253 11.399 3.97789
29.2329 12.651 3.98135
37.5257 34.2751 3.59398
39.0924 34.331 2
40.4951 34.3634 0.407822
45.4597 31.7709 0.0981735
43.0413 31.3811 0.174884
40.7242 31.5603 0.31385
39.1875 32.658 0.508698
43.8723 29.9643 2
41.6142 30.0027 2
39.3829 30.8516 2
37.5333 32.526 2
42.0112 28.6873 3.86395
39.7156 29.3195 3.83354
37.527 30.6711 3.69105
35.8618 32.6592 3.49839
31.9278 14.499 3.98048
34.0997 12.9575 2
35.6962 11.7876 0.0239022
31.1904 11.992 2
33.1018 11.2277 0.0270414
30.4863 10.0274 0.0227212
44.9709 27.8635 0.00264669
43.5644 24.2601 -0.0264981
35.7711 14.8048 0.0215703
41.2811 20.9667 0.0108175
38.6623 17.6824 0.0166486
33.6097 15.896 2
35.8398 17.5685 2
42.7634 26.6769 2
38.3705 20.5176 2
40.7712 23.5463 2
33.5513 17.4516 3.9815
40.2074 25.9934 3.9557
38.0309 23.3138 3.99806
35.5598 20.2193 3.99726
37.5149 37.4884 3.62305
39.0795 37.4794 2
40.6113 37.449 0.371466
41.7571 52.8057 4.68203e-05
40.7939 49.4054 0.00585707
39.0721 39.0818 0.431484
39.712 45.6443 0.189159
37.4989 44.3245 0.312445
37.5034 40.7254 0.405301
35.8413 42.3375 0.506237
39.6986 51.6046 2
37.51 39.0807 2
35.9497 40.674 2
38.6767 48.3545 2
34.4101 42.1023 2
35.6331 44.1375 2
37.5232 45.9961 2
37.6811 50.5985 3.99481
35.9631 39.0927 3.57804
34.5559 40.6197 3.59494
33.4634 41.7976 3.46954
34.3259 43.4187 3.68074
35.2518 45.667 3.82957
36.9223 47.9024 3.90103
38.7214 53.6043 0.00341341
36.7614 52.8944 2
34.4573 52.2468 3.99894
34.4948 58.4827 0.0062947
36.3171 55.1419 0.00255184
33.2775 55.3525 2
30.6729 53.253 3.99348
30.3387 57.7788 0.0144425
28.8345 55.2803 2
27.1166 53.3579 3.95701
27.0369 56.7848 0.0311394
25.4817 55.0707 2
23.8431 53.3688 3.95457
20.7968 53.095 3.95822
20.0864 55.7446 3.96164
21.99 55.257 2
23.947 56.7391 0.0408415
19.4967 57.8264 3.9628
20.3056 56.9593 2
19.7265 60.1458 3.97484
20.6846 58.723 2
21.4361 57.3249 0.0414172
20.217 62.8256 3.97143
21.1855 61.1174 2
22.0247 59.5651 0.020693
20.9411 65.755 3.97655
21.9019 63.8201 2
22.7494 61.987 0.0269824
23.6863 64.6963 0.0247885
22.8379 66.7291 2
21.9144 68.8721 3.98898
24.8105 67.5872 0.0177231
24.0094 69.8042 2
23.1494 72.1454 4
26.1674 70.6034 0.0101106
25.446 73.0099 2
27.7943 73.7221 0
25.8618 9.38882 3.97918
27.0715 6.54511 3.98396
27.8207 8.65725 2
28.4902 3.64449 3.9916
29.1558 5.87853 2
29.8127 7.99959 0.0199846
30.1841 0.720592 4
30.7263 3.09818 2
31.2546 5.33391 0.0128493
32.6053 0.320817 2
32.9822 2.70178 0.00729026
35.0474 0.080333 0
37.5114 35.8984 3.60265
39.0404 35.8954 2
40.6049 35.8808 0.383621
24.7829 12.0875 3.9762
23.7663 14.3923 3.97654
28.5466 10.702 0.0226888
26.6237 11.3959 2
29.2304 12.6491 2
27.3004 13.3842 3.97843
29.7949 14.2109 3.98228
35.9609 34.3157 3.5622
37.5335 34.2827 2
39.0755 34.3147 0.442328
37.5315 32.5491 0.462797
43.8417 29.9979 0.105727
41.5866 30.0455 0.155925
39.3739 30.9173 0.34791
42.0438 28.627 2
39.7406 29.2639 2
37.5293 30.607 2
35.8625 32.6446 2
39.8803 27.9544 3.8786
37.4881 29.0503 3.83478
35.6853 30.9338 3.65447
34.4589 32.9106 3.44953
30.9435 16.855 3.98987
31.9232 14.4861 2
34.0991 12.9519 0.0253773
31.192 11.9996 0.0223578
42.7259 26.6977 0.0145074
40.7773 23.5669 0.00548555
33.6155 15.9091 0.0136125
35.8442 17.5745 0.0169237
38.3884 20.4591 0.00676989
33.5445 17.4656 2
35.5673 20.2173 2
40.2797 25.9745 2
38.0164 23.2732 2
32.8893 19.849 3.99718
37.6591 25.6313 3.96655
35.2482 22.9645 4.00443
35.942 37.4853 3.58302
37.5069 37.4879 2
39.0921 37.4875 0.419406
39.7173 51.5996 -0.00286441
38.6582 48.2948 0.0639351
37.5083 39.0843 0.392492
37.5296 45.9365 0.15623
35.6538 44.0742 0.357113
35.9522 40.685 0.438318
34.4379 42.0871 0.552363
37.6625 50.6358 2
35.9822 39.0805 2
34.52 40.6139 2
36.9076 47.9644 2
33.4278 41.8246 2
34.2799 43.4846 2
35.2306 45.721 2
35.5665 49.7894 3.98557
34.4502 39.0857 3.6145
33.0965 40.7398 3.47133
33.1664 42.4275 3.71344
33.4664 44.9198 3.83324
34.485 47.0525 3.87314
36.761 52.9207 0.00348135
34.4486 52.2577 2
32.2463 51.0506 4.01005
33.2713 55.3432 0.00697896
30.6775 53.2558 2
28.7159 51.4638 3.98267
28.8323 55.2854 0.0113238
27.1189 53.3567 2
25.4202 51.6035 3.95315
25.4779 55.069 0.0436823
23.8444 53.3743 2
22.3642 51.658 3.95178
19.6527 51.4856 3.96135
19.1829 54.1985 3.96117
20.799 53.0937 2
18.5597 56.6477 3.96318
20.0843 55.7463 2
21.9907 55.255 0.0400527
18.3971 59.0578 3.96546
19.4941 57.8282 2
20.3086 56.957 0.0372236
18.6316 61.7161 3.97181
19.7267 60.1482 2
20.6858 58.7213 0.0345098
19.1305 64.6655 3.97561
20.2173 62.8293 2
21.1848 61.1158 0.0268763
19.8886 67.8083 3.9866
20.9399 65.754 2
21.902 63.8166 0.0252319
22.8391 66.7293 0.0206278
21.9117 68.8706 2
20.9142 71.1327 4
24.0117 69.805 0.010217
23.1494 72.1455 2
25.446 73.0099 0
23.1056 12.8091 3.97724
23.9749 10.178 3.9767
25.0251 7.31617 3.98255
25.8595 9.38685 2
26.2821 4.32858 3.99069
27.07 6.54381 2
27.8226 8.65941 0.0197385
27.7943 1.27781 4
28.4881 3.64423 2
29.1568 5.88073 0.0146386
30.1841 0.720551 2
30.7277 3.09855 0.00754784
32.6053 0.320823 0
35.9481 35.8881 3.56815
37.5312 35.907 2
39.0563 35.9018 0.421309
24.7795 12.0833 2
23.7665 14.397 2
22.5001 15.0826 3.97864
25.3693 13.9349 3.97179
24.0541 15.6518 3.98613
26.6253 11.399 0.0221093
29.2329 12.651 0.0186474
27.3004 13.3828 2
29.7887 14.2084 2
28.3801 15.9791 3.98464
34.5747 34.3836 3.59066
35.9588 34.3197 2
37.5257 34.2751 0.406022
35.8618 32.6592 0.50161
37.527 30.6711 0.308948
42.0112 28.6873 0.136053
39.7156 29.3195 0.166464
39.9089 27.9122 2
37.4846 28.9924 2
35.6708 30.8629 2
34.4258 32.8978 2
37.6292 27.6839 3.8726
35.3073 29.335 3.83134
34.3333 31.5767 3.68389
33.483 33.1972 3.4671
30.2352 19.4402 3.98264
30.9364 16.8423 2
31.9278 14.499 0.0195181
40.2074 25.9934 0.0443035
38.0309 23.3138 0.00193874
33.5513 17.4516 0.0185008
35.5598 20.2193 0.00274356
32.8908 19.8761 2
35.2468 22.9533 2
37.7144 25.61 2
32.4388 22.5847 3.99707
35.1297 25.5442 3.99024
34.4075 37.5063 3.6322
35.9425 37.4945 2
37.5149 37.4884 0.37695
37.6811 50.5985 0.00519331
36.9223 47.9024 0.0989725
35.9631 39.0927 0.421962
35.2518 45.667 0.170431
34.3259 43.4187 0.31926
34.5559 40.6197 0.405059
33.4634 41.7976 0.530458
35.5464 49.8027 2
34.4458 39.0835 2
33.0906 40.7532 2
34.4612 47.1069 2
33.1233 42.4857 2
33.4401 44.9654 2
33.421 48.8809 3.97376
32.7684 39.2375 3.47785
32.2021 41.0245 3.66689
31.9986 43.5963 3.83041
32.6638 46.0405 3.87489
34.4573 52.2468 0.00105636
32.2527 51.0583 2
30.2538 49.6161 4.00048
30.6729 53.253 0.00651839
28.7182 51.4586 2
26.9362 49.8289 3.97399
27.1166 53.3579 0.0429856
25.4212 51.6064 2
23.8138 50.0141 3.9647
23.8431 53.3688 0.045433
22.3657 51.656 2
20.9795 50.1451 3.96398
18.436 50.188 3.96981
18.2038 52.6643 3.96391
19.6516 51.4845 2
17.6428 55.2469 3.96231
19.1811 54.1984 2
20.7968 53.095 0.041782
17.2001 57.8147 3.96089
18.5557 56.6492 2
20.0864 55.7446 0.038359
17.1478 60.5031 3.96693
18.3965 59.059 2
19.4967 57.8264 0.0372028
17.4135 63.4438 3.96959
18.6325 61.7175 2
19.7265 60.1458 0.0251631
17.9447 66.6156 3.98486
19.1297 64.663 2
20.217 62.8256 0.028568
18.75 69.9759 4
19.8859 67.8057 2
20.9411 65.755 0.0234528
21.9144 68.8721 0.0110215
20.9142 71.1327 2
23.1494 72.1454 0
21.6011 13.6404 3.97477
22.195 11.0441 3.97354
23.1034 12.8136 2
23.0426 8.18296 3.98026
23.9721 10.1773 2
24.1197 5.14345 3.99003
25.023 7.31511 2
25.8618 9.38882 0.0208172
25.446 1.99014 4
26.2794 4.32905 2
27.0715 6.54511 0.0160374
27.7943 1.27778 2
28.4902 3.64449 0.00840223
30.1841 0.720592 0
34.4748 35.9205 3.61081
35.9593 35.9038 2
37.5114 35.8984 0.397349
21.3353 15.889 3.97967
24.7829 12.0875 0.0238032
23.7663 14.3923 0.0234578
25.3682 13.9188 2
22.5019 15.0779 2
24.0578 15.6581 2
23.3037 16.2896 3.96747
25.411 16.1218 3.98504
27.3004 13.3842 0.0215742
29.7949 14.2109 0.0177175
28.3729 15.9897 2
27.4772 18.8661 3.98358
33.1097 34.2626 3.48007
34.5378 34.397 2
35.9609 34.3157 0.437798
34.4589 32.9106 0.550473
35.6853 30.9338 0.345528
37.4881 29.0503 0.165219
39.8803 27.9544 0.121396
37.6017 27.6448 2
33.4504 33.1727 2
35.3072 29.2724 2
34.2909 31.5097 2
35.2036 27.7797 3.88811
33.464 30.0675 3.83441
33.1913 32.5664 3.71098
29.7509 22.0439 4.00606
30.2384 19.4474 2
30.9435 16.855 0.0101332
37.6591 25.6313 0.0334525
35.2482 22.9645 -0.0044298
32.8893 19.849 0.00282381
32.4427 22.5766 2
35.1598 25.5345 2
32.0141 25.854 4.00499
32.5956 37.504 3.52428
34.4182 37.5004 2
35.942 37.4853 0.416979
35.5665 49.7894 0.0144273
34.485 47.0525 0.126865
34.4502 39.0857 0.3855
33.4664 44.9198 0.166762
33.1664 42.4275 0.286556
33.0965 40.7398 0.528665
33.4048 48.8826 2
32.7766 39.2449 2
32.1613 41.0693 2
32.634 46.0909 2
31.9487 43.6297 2
31.5994 47.7283 3.98067
31.5082 39.3653 3.6699
30.8875 41.8408 3.84208
31.0679 44.6753 3.88647
32.2463 51.0506 -0.0100527
30.2623 49.6447 2
28.4127 48.0039 3.96572
28.7159 51.4638 0.0173259
26.9357 49.8306 2
25.2252 48.2711 3.96516
25.4202 51.6035 0.0468524
23.816 50.0133 2
22.2666 48.5916 3.97083
22.3642 51.658 0.0482218
20.9789 50.1443 2
19.5541 48.9305 3.97341
17.3134 49.2026 3.9749
17.149 51.285 3.96884
18.4384 50.1864 2
16.6546 53.7696 3.96523
18.2022 52.664 2
19.6527 51.4856 0.0386527
16.0977 56.4081 3.96213
17.642 55.2474 2
19.1829 54.1985 0.0388288
15.7663 59.1719 3.96349
17.1955 57.8168 2
18.5597 56.6477 0.036822
15.7935 62.1025 3.96827
17.1493 60.5052 2
18.3971 59.0578 0.0345424
16.0914 65.298 3.98295
17.4123 63.4499 2
18.6316 61.7161 0.0281908
16.6661 68.6801 4
17.942 66.6128 2
19.1305 64.6655 0.0243887
18.75 69.9759 2
19.8886 67.8083 0.0133988
20.9142 71.1327 0
20.2363 14.651 3.96792
21.5992 13.6527 2
20.5367 12.0248 3.97397
21.1461 9.15603 3.97754
22.1919 11.0416 2
23.1056 12.8091 0.0227627
22.0189 6.08217 3.98952
23.0402 8.18229 2
23.9749 10.178 0.0232975
23.1494 2.85457 4
24.1164 5.14432 2
25.0251 7.31617 0.0174506
25.446 1.99012 2
26.2821 4.32858 0.00931136
27.7943 1.27781 0
32.7594 35.7752 3.48846
34.4612 35.9205 2
35.9481 35.8881 0.43185
21.3386 15.8821 2
20.3493 17.0148 3.96756
22.1363 16.6879 3.96603
25.3693 13.9349 0.0282147
22.5001 15.0826 0.0213562
24.0541 15.6518 0.0138675
25.4135 16.1144 2
23.308 16.2875 2
24.2569 18.565 3.96901
27.1846 21.658 3.99381
28.3801 15.9791 0.0153572
27.4742 18.9113 2
32.2427 33.9742 3.6611
33.1064 34.2456 2
34.5747 34.3836 0.409336
33.483 33.1972 0.532901
34.3333 31.5767 0.316109
35.3073 29.335 0.168662
37.6292 27.6839 0.127402
35.2035 27.7303 2
33.1177 32.5086 2
33.4335 30.0266 2
32.9136 28.4256 3.89705
32.0091 31.3993 3.82137
29.1452 24.5368 4.00567
29.743 22.0604 2
30.2352 19.4402 0.0173579
35.1297 25.5442 0.0097563
32.4388 22.5847 0.00293409
32.0045 25.8258 2
30.145 27.5128 3.97638
31.0947 37.4943 3.675
32.6 37.5031 2
34.4075 37.5063 0.367796
33.421 48.8809 0.0262411
32.6638 46.0405 0.125114
32.7684 39.2375 0.522151
31.9986 43.5963 0.169593
32.2021 41.0245 0.333113
31.5528 47.7524 2
31.4317 39.3881 2
30.8451 41.8765 2
31.0236 44.7154 2
29.8393 46.337 3.99032
30.0482 39.8008 3.85281
29.5706 42.9515 3.89647
30.2538 49.6161 -0.000482155
28.4102 48.0041 2
26.639 46.4374 3.98064
26.9362 49.8289 0.0260069
25.2263 48.2693 2
23.518 46.8556 3.97334
23.8138 50.0141 0.0353016
22.2664 48.592 2
20.5614 47.4388 3.97645
20.9795 50.1451 0.036024
19.5546 48.9292 2
18.1479 48.0344 3.97692
16.5454 48.5635 3.9765
17.3141 49.2015 2
16.2146 50.0575 3.97317
15.6659 52.3173 3.96889
17.1505 51.2841 2
18.436 50.188 0.0301889
15.049 54.9022 3.96378
16.6561 53.7692 2
18.2038 52.6643 0.0360875
14.5014 57.7017 3.96181
16.0982 56.4085 2
17.6428 55.2469 0.0376895
14.2713 60.6683 3.96771
15.7688 59.1729 2
17.2001 57.8147 0.0391097
14.3362 63.8547 3.97861
15.7944 62.1046 2
17.1478 60.5031 0.033069
14.6715 67.2507 4
16.0889 65.2943 2
17.4135 63.4438 0.0304106
16.6661 68.6801 2
17.9447 66.6156 0.0151399
18.75 69.9759 0
18.9565 15.8337 3.97614
20.2377 14.6484 2
18.9904 13.1483 3.97315
21.6011 13.6404 0.0252327
20.5353 12.0262 2
19.3463 10.2469 3.97492
19.9938 7.14749 3.98771
21.1428 9.15576 2
22.195 11.0441 0.0264588
20.9142 3.86727 4
22.0149 6.08391 2
23.0426 8.18296 0.0197353
23.1494 2.85451 2
24.1197 5.14345 0.00997286
25.446 1.99014 0
31.5341 35.6357 3.66525
32.7629 35.767 2
34.4748 35.9205 0.389192
21.3353 15.889 0.0203323
22.1396 16.6811 2
20.3516 17.0115 2
19.3515 18.4839 3.95703
21.8322 17.9388 3.97744
25.411 16.1218 0.0149583
23.3037 16.2896 0.0325285
24.2481 18.5888 2
22.4347 20.0096 3.97313
24.7662 21.524 3.98751
26.7677 23.8219 3.98254
27.192 21.5786 2
27.4772 18.8661 0.0164202
30.9437 33.1637 3.84503
32.1994 33.9218 2
33.1097 34.2626 0.519926
33.1913 32.5664 0.289017
33.464 30.0675 0.165594
35.2036 27.7797 0.111895
32.8734 28.3932 2
31.9534 31.357 2
30.7609 29.8061 3.92317
28.4102 26.6979 3.99663
29.1292 24.5418 2
29.7509 22.0439 -0.00606225
32.0141 25.854 -0.00499023
30.1363 27.49 2
29.6013 37.4925 3.84974
31.0304 37.4924 2
32.5956 37.504 0.475724
31.5994 47.7283 0.0193317
31.0679 44.6753 0.113531
31.5082 39.3653 0.330098
30.8875 41.8408 0.15792
29.8432 46.3393 2
29.9735 39.8132 2
29.5382 42.983 2
28.1155 44.6622 3.96933
27.8064 40.5203 3.93149
28.4127 48.0039 0.0342826
26.6377 46.4382 2
24.8274 44.9697 3.97877
25.2252 48.2711 0.0348411
23.5166 46.8549 2
21.5881 45.7178 3.97776
22.2666 48.5916 0.0291721
20.5619 47.4379 2
18.8825 46.5859 3.97656
19.5541 48.9305 0.0265879
18.1486 48.0332 2
16.7855 47.5866 3.97635
16.5467 48.5625 2
15.5607 48.9092 3.97559
17.3134 49.2026 0.0250961
16.2164 50.0566 2
14.7793 50.8941 3.97228
14.0218 53.3634 3.96669
15.6672 52.3168 2
17.149 51.285 0.0311566
13.3346 56.127 3.96166
15.0495 54.9022 2
16.6546 53.7696 0.0347656
12.8582 59.1076 3.96597
14.5053 57.7016 2
16.0977 56.4081 0.0378675
12.6821 62.2969 3.97627
14.273 60.6684 2
15.7663 59.1719 0.03651
12.7746 65.6939 4
14.334 63.851 2
15.7935 62.1025 0.0317307
14.6714 67.2507 2
16.0914 65.298 0.017047
16.6661 68.6801 0
17.719 17.2129 3.96271
18.9566 15.8323 2
17.5265 14.419 3.96815
20.2363 14.651 0.0320801
18.9898 13.1528 2
17.6433 11.4687 3.97345
20.5367 12.0248 0.0260271
19.3426 10.2478 2
18.0541 8.34072 3.98561
18.75 5.0241 4
19.9891 7.14988 2
21.1461 9.15603 0.0224636
20.9142 3.86727 2
22.0189 6.08217 0.0104813
23.1494 2.85457 0
30.0773 35.2048 3.85148
31.4596 35.6114 2
32.7594 35.7752 0.511537
22.1363 16.6879 0.0339709
20.3493 17.0148 0.0324388
21.8315 17.9382 2
19.3446 18.4775 2
18.1871 20.0391 3.96168
21.0165 19.4803 3.96574
24.2569 18.565 0.030987
22.4251 20.0164 2
24.7728 21.507 2
22.6108 21.8554 3.9811
25.044 23.2604 3.97143
26.0149 26.0733 3.97895
26.7637 23.8158 2
27.1846 21.658 0.00618704
29.3352 32.5101 3.89677
30.8748 33.1283 2
32.2427 33.9742 0.338903
32.0091 31.3993 0.178626
32.9136 28.4256 0.102947
30.7388 29.7955 2
27.7734 29.2775 4.01437
28.3963 26.7076 2
29.1452 24.5368 -0.00567217
30.145 27.5128 0.0236199
27.9499 37.362 3.8979
29.5276 37.4849 2
31.0947 37.4943 0.324995
29.8393 46.337 0.0096802
29.5706 42.9515 0.103527
30.0482 39.8008 0.147195
28.1104 44.7186 2
27.7742 40.5195 2
26.2047 43.0286 3.98744
25.0774 39.439 3.9717
26.639 46.4374 0.0193642
24.8168 44.9716 2
22.7431 43.7568 3.97608
23.518 46.8556 0.0266599
21.5845 45.7195 2
19.6543 44.8236 3.9762
20.5614 47.4388 0.0235477
18.8822 46.5864 2
17.1444 46.085 3.97619
18.1479 48.0344 0.0230771
16.7867 47.586 2
15.3263 47.563 3.97607
16.5454 48.5635 0.0234956
15.5626 48.9083 2
14.0889 49.4609 3.97464
16.2146 50.0575 0.0268296
14.7805 50.8934 2
13.0923 51.8091 3.96906
12.2401 54.4876 3.96341
14.0227 53.363 2
15.6659 52.3173 0.0311083
11.5453 57.446 3.96493
13.3348 56.1272 2
15.049 54.9022 0.0362185
11.1373 60.6223 3.97306
12.8602 59.1069 2
14.5014 57.7017 0.0381868
10.9835 64.0165 4
12.6805 62.2923 2
14.2713 60.6683 0.0322885
12.7745 65.694 2
14.3362 63.8547 0.0213887
14.6715 67.2507 0
16.5273 18.7219 3.96208
17.7152 17.21 2
16.1215 15.8235 3.96627
18.9565 15.8337 0.023862
17.5265 14.4155 2
16.0276 12.8385 3.97076
18.9904 13.1483 0.0268496
17.6414 11.4763 2
16.2053 9.66503 3.9828
19.3463 10.2469 0.0250787
18.049 8.34521 2
16.6661 6.31991 4
18.75 5.02404 2
19.9938 7.14749 0.0122918
20.9142 3.86727 0
28.4712 34.8492 3.89796
29.9919 35.1697 2
31.5341 35.6357 0.334755
16.9275 21.4763 3.96723
21.8322 17.9388 0.0225596
19.3515 18.4839 0.0429708
21.0065 19.4762 2
18.1859 20.0367 2
20.0111 21.6967 3.97114
22.4347 20.0096 0.0268727
24.7662 21.524 0.0124933
22.6062 21.8605 2
25.0355 23.2626 2
23.3293 24.7387 3.97194
25.3235 28.674 3.98385
26.0067 26.0796 2
26.7677 23.8219 0.0174605
27.1891 31.8702 3.98202
29.2991 32.4887 2
30.9437 33.1637 0.154969
30.7609 29.8061 0.0768298
27.7851 29.2562 2
28.4102 26.6979 0.00337241
25.7739 36.8482 3.97066
27.9295 37.3642 2
29.6013 37.4925 0.150255
28.1155 44.6622 0.0306749
27.8064 40.5203 0.0685061
26.1809 43.051 2
25.052 39.4423 2
23.9589 41.775 3.98231
22.7959 38.5237 3.98008
24.8274 44.9697 0.0212299
22.7406 43.7578 2
20.5361 42.7751 3.97525
21.5881 45.7178 0.0222352
19.6546 44.8241 2
17.5538 44.2651 3.9756
18.8825 46.5859 0.0234437
17.1448 46.0852 2
15.2905 45.9881 3.97586
16.7855 47.5866 0.0236492
15.3278 47.5622 2
13.6197 47.9266 3.97564
15.5607 48.9092 0.0244107
14.0907 49.4601 2
12.3234 50.1924 3.97118
14.7793 50.8941 0.0277157
13.0931 51.8085 2
11.2375 52.8013 3.96498
10.3388 55.7027 3.96423
12.2411 54.4872 2
14.0218 53.3634 0.0333147
9.70415 58.8453 3.97282
11.5467 57.4456 2
13.3346 56.127 0.0383441
9.30605 62.2254 4
11.1361 60.6182 2
12.8582 59.1076 0.0340265
10.9835 64.0165 2
12.6821 62.2969 0.0237307
12.7746 65.6939 0
15.3173 20.2606 3.96383
16.528 18.7211 2
14.7875 17.345 3.9634
17.719 17.2129 0.0372941
16.1229 15.8217 2
14.4905 14.3224 3.96702
17.5265 14.419 0.0318536
16.0269 12.835 2
14.4475 11.1168 3.98045
17.6433 11.4687 0.0265451
16.2008 9.67079 2
14.6715 7.74927 4
18.0541 8.34072 0.0143945
16.6661 6.31988 2
18.75 5.0241 0
26.4314 34.36 3.97514
28.4538 34.8568 2
30.0773 35.2048 0.148525
18.1858 22.4428 3.97408
15.8308 23.0203 3.97125
16.9302 21.476 2
21.0165 19.4803 0.0342612
18.1871 20.0391 0.0383173
20.0094 21.6946 2
20.1296 24.5358 3.97197
22.6108 21.8554 0.0188951
25.044 23.2604 0.0285697
23.3257 24.74 2
22.6869 28.0059 3.9716
24.7546 31.3641 3.98223
25.3292 28.6631 2
26.0149 26.0733 0.0210476
27.1632 31.8313 2
29.3352 32.5101 0.103229
27.7734 29.2775 -0.0143706
23.5261 36.2955 3.98073
25.7544 36.8454 2
27.9499 37.362 0.102104
26.2047 43.0286 0.0125609
25.0774 39.439 0.0283046
23.9375 41.7735 2
22.782 38.5188 2
21.6418 40.595 3.97475
20.993 37.8006 3.97688
22.7431 43.7568 0.0239239
20.5355 42.7756 2
18.0333 42.0165 3.97569
19.6543 44.8236 0.023801
17.5538 44.2654 2
15.3396 44.1093 3.9755
17.1444 46.085 0.0238055
15.2909 45.9879 2
13.3193 46.2168 3.9759
15.3263 47.563 0.0239345
13.6213 47.9259 2
11.7142 48.4933 3.97308
14.0889 49.4609 0.0253626
12.325 50.1915 2
10.3685 51.0484 3.96624
13.0923 51.8091 0.0309356
11.2381 52.8007 2
9.25022 53.8836 3.96423
8.38774 56.9799 3.97445
10.3427 55.7012 2
12.2401 54.4876 0.0365894
7.74927 60.3285 4
9.70318 58.8414 2
11.5453 57.446 0.0350675
9.306 62.2255 2
11.1373 60.6223 0.0269408
10.9835 64.0165 0
14.1522 21.8238 3.96726
15.3156 20.2595 2
13.5166 18.942 3.96291
16.5273 18.7219 0.0379214
14.7886 17.3441 2
13.0355 15.908 3.9692
16.1215 15.8235 0.0337256
14.4922 14.3208 2
12.7853 12.6928 3.97739
16.0276 12.8385 0.0292362
14.4445 11.1239 2
12.7746 9.30605 4
16.2053 9.66503 0.0172004
14.6715 7.74924 2
16.6661 6.31991 0
24.1056 33.8811 3.98083
26.411 34.3585 2
28.4712 34.8492 0.102039
18.0594 24.1757 3.97262
18.1928 22.443 2
14.6654 24.5495 3.97328
15.8336 23.0203 2
16.9275 21.4763 0.0327665
19.6646 27.3749 3.97417
20.0111 21.6967 0.0288569
20.124 24.5346 2
22.0624 30.8298 3.97449
23.3293 24.7387 0.0280621
22.6862 28.0085 2
24.7213 31.3602 2
25.3235 28.674 0.0161467
27.1891 31.8702 0.0179764
21.1146 35.9658 3.97662
23.5253 36.2967 2
25.7739 36.8482 0.029337
23.9589 41.775 0.0176891
22.7959 38.5237 0.0199246
21.6461 40.597 2
20.9928 37.7988 2
18.7957 38.9846 3.97707
20.5361 42.7751 0.0247478
18.0329 42.0167 2
15.3247 41.86 3.97599
17.5538 44.2651 0.024404
15.3393 44.1093 2
13.0841 44.3247 3.97587
15.2905 45.9881 0.0241377
13.3205 46.2163 2
11.2292 46.6826 3.97477
13.6197 47.9266 0.0243562
11.7161 48.4924 2
9.63863 49.211 3.96749
12.3234 50.1924 0.0288204
10.3691 51.0476 2
8.28178 51.9984 3.9642
11.2375 52.8013 0.0350238
9.25209 53.882 2
7.19675 55.0318 3.97546
6.31991 58.3339 4
8.3866 56.976 2
10.3388 55.7027 0.0357688
7.74924 60.3285 2
9.70415 58.8453 0.0271797
9.30605 62.2254 0
13.5282 25.4438 3.97605
13.0551 23.3506 3.97025
14.1518 21.8233 2
12.3306 20.5903 3.96376
15.3173 20.2606 0.0361693
13.5181 18.9414 2
11.6689 17.5811 3.9675
14.7875 17.345 0.0366037
13.0386 15.9071 2
11.2236 14.3786 3.97392
14.4905 14.3224 0.0329786
12.7832 12.6986 2
10.9835 10.9835 4
14.4475 11.1168 0.0195536
12.7745 9.306 2
14.6715 7.74927 0
21.4618 33.497 3.97636
24.1091 33.8671 2
26.4314 34.36 0.0248557
16.388 26.5285 3.97418
18.0636 24.1758 2
18.1858 22.4428 0.0259213
14.665 24.5496 2
15.8308 23.0203 0.0287547
19.0669 30.3229 3.97468
19.6648 27.3753 2
20.1296 24.5358 0.0280327
22.0795 30.8314 2
22.6869 28.0059 0.0284022
24.7546 31.3641 0.0177681
18.4018 35.9998 3.97767
21.1168 35.9653 2
23.5261 36.2955 0.0192687
21.6418 40.595 0.0252538
20.993 37.8006 0.0231207
18.7939 38.9841 2
14.8205 39.1583 3.97699
18.0333 42.0165 0.0243089
15.3239 41.8597 2
12.7795 42.233 3.97618
15.3396 44.1093 0.024504
13.0849 44.3244 2
10.817 44.7586 3.97622
13.3193 46.2168 0.0241021
11.2314 46.6817 2
9.02568 47.2934 3.96859
11.7142 48.4933 0.0269237
9.63928 49.2103 2
7.44578 50.0327 3.96424
10.3685 51.0484 0.0337571
8.2818 51.997 2
6.13735 53.0075 3.97571
9.25022 53.8836 0.0357714
7.19611 55.0283 2
5.0241 56.25 4
6.31988 58.3339 2
8.38774 56.9799 0.025548
7.74927 60.3285 0
13.8088 26.9012 3.97546
12.1649 24.8494 3.97313
13.5276 25.4439 2
11.2604 22.2738 3.96581
13.0554 23.3507 2
14.1522 21.8238 0.0327383
12.3327 20.5904 2
10.4017 19.3291 3.96521
13.5166 18.942 0.0370901
11.6715 17.5808 2
9.76439 16.1618 3.97312
13.0355 15.908 0.0308024
11.2221 14.3842 2
9.30607 12.7746 4
12.7853 12.6928 0.0226108
10.9835 10.9835 2
12.7746 9.30605 0
18.5599 33.1889 3.97605
21.4608 33.5005 2
24.1056 33.8811 0.0191666
16.0115 29.7532 3.97554
16.3875 26.5284 2
18.0594 24.1757 0.0273818
14.6654 24.5495 0.0267189
19.0651 30.323 2
19.6646 27.3749 0.025827
22.0624 30.8298 0.02551
15.4558 36.0369 3.97729
18.4011 36.0002 2
21.1146 35.9658 0.0233836
13.01 37.8282 3.97698
18.7957 38.9846 0.0229278
14.8199 39.1582 2
12.2799 40.117 3.97662
15.3247 41.86 0.0240125
12.7799 42.2326 2
10.4198 42.7441 3.97643
13.0841 44.3247 0.0241298
10.8194 44.7577 2
8.50455 45.2997 3.96956
11.2292 46.6826 0.0252278
9.02607 47.2929 2
6.73515 47.9983 3.96437
9.63863 49.211 0.0325059
7.44499 50.0316 2
5.21395 50.911 3.97537
8.28178 51.9984 0.0358019
6.13711 53.005 2
3.86727 54.0858 4
7.19675 55.0318 0.0245449
5.02404 56.25 2
6.31991 58.3339 0
13.2922 29.1102 3.97511
11.6102 26.5441 3.97408
13.8083 26.9012 2
10.3145 24.0007 3.96758
12.1674 24.85 2
13.5282 25.4438 0.0239493
9.2614 21.1448 3.96496
11.2612 22.2739 2
13.0551 23.3506 0.0297538
12.3306 20.5903 0.0362424
10.4073 19.3301 2
8.42054 18.0318 3.97394
11.6689 17.5811 0.032504
9.76349 16.1669 2
7.74928 14.6715 4
11.2236 14.3786 0.0260833
9.30602 12.7745 2
10.9835 10.9835 0
14.9992 32.9221 3.97629
18.5587 33.1882 2
21.4618 33.497 0.0236363
16.0119 29.7533 2
16.388 26.5285 0.0258198
19.0669 30.3229 0.0253234
13.3117 36.221 3.97673
15.4551 36.0368 2
18.4018 35.9998 0.0223313
13.0098 37.8281 2
11.6062 38.3042 3.97694
14.8205 39.1583 0.0230069
12.2808 40.1169 2
9.9969 40.7346 3.97654
12.7795 42.233 0.0238242
10.4231 42.7432 2
8.04884 43.2542 3.97065
10.817 44.7586 0.0237771
8.50719 45.299 2
6.13956 45.9038 3.96492
9.02568 47.2934 0.0314084
6.73459 47.9974 2
4.42519 48.7514 3.97492
7.44578 50.0327 0.0357637
5.21408 50.9094 2
2.85457 51.8506 4
6.13735 53.0075 0.0242886
3.86727 54.0858 2
5.0241 56.25 0
12.4223 31.309 3.97612
11.0214 28.4635 3.97513
13.2923 29.1103 2
9.52945 25.8264 3.96872
11.6127 26.5448 2
13.8088 26.9012 0.0245416
8.24721 23.0268 3.96494
10.3158 24.0012 2
12.1649 24.8494 0.0268654
7.20268 19.9799 3.97531
9.26826 21.1466 2
11.2604 22.2738 0.0341933
10.4017 19.3291 0.0347891
8.41984 18.0359 2
6.31992 16.6661 4
9.76439 16.1618 0.0268798
7.74926 14.6714 2
9.30607 12.7746 0
12.4598 34.3247 3.97649
14.9987 32.9228 2
18.5599 33.1889 0.0239505
16.0115 29.7532 0.0244587
11.1423 36.6193 3.97669
13.3115 36.221 2
15.4558 36.0369 0.0227061
13.01 37.8282 0.0230238
11.6076 38.3038 2
9.57696 38.8165 3.97678
12.2799 40.117 0.0233787
9.99997 40.734 2
7.65285 41.2014 3.97152
10.4198 42.7441 0.0235679
8.04974 43.2537 2
5.6508 43.7668 3.96575
8.50455 45.2997 0.030444
6.13999 45.9029 2
3.77051 46.5368 3.97516
6.73515 47.9983 0.0356325
4.42564 48.7506 2
1.99014 49.554 4
5.21395 50.911 0.0246341
2.85451 51.8506 2
3.86727 54.0858 0
11.231 32.9549 3.97668
10.3266 30.4198 3.9758
12.4229 31.3097 2
8.83767 27.7559 3.96893
11.0235 28.4641 2
13.2922 29.1102 0.0248883
7.36837 24.9842 3.9648
9.53058 25.8269 2
11.6102 26.5441 0.025918
6.11964 22.0021 3.97602
8.24881 23.0282 2
10.3145 24.0007 0.0324159
5.02411 18.75 4
7.20215 19.9832 2
9.2614 21.1448 0.0350439
8.42054 18.0318 0.0260577
6.3199 16.6661 2
7.74928 14.6715 0
10.7275 35.0171 3.97661
12.4595 34.3249 2
14.9992 32.9221 0.0237103
9.23411 36.9878 3.97685
11.1439 36.6193 2
13.3117 36.221 0.0232694
11.6062 38.3042 0.0230596
9.58021 38.8161 2
7.32736 39.1776 3.9718
9.9969 40.7346 0.0234631
7.65454 41.201 2
5.26562 41.6128 3.96624
8.04884 43.2542 0.0293463
5.65112 43.7661 2
3.24788 44.2815 3.97585
6.13956 45.9038 0.035083
3.77088 46.5363 2
1.27781 47.2057 4
4.42519 48.7514 0.0250759
1.99012 49.554 2
2.85457 51.8506 0
10.362 33.9045 3.97644
9.60431 32.1811 3.97667
11.2328 32.9555 2
8.17717 29.7142 3.96944
10.3293 30.4206 2
12.4223 31.309 0.0238835
6.60859 27.0095 3.96483
8.83853 27.7564 2
11.0214 28.4635 0.0248722
5.17477 24.0944 3.9758
7.36767 24.9851 2
9.52945 25.8264 0.0312788
3.86728 20.9142 4
6.1195 22.0044 2
8.24721 23.0268 0.0350647
5.02406 18.75 2
7.20268 19.9799 0.0246909
6.31992 16.6661 0
9.04756 35.2902 3.97707
10.7294 35.0172 2
12.4598 34.3247 0.0235137
7.10414 37.2063 3.97159
9.23744 36.9877 2
11.1423 36.6193 0.0233083
9.57696 38.8165 0.0232228
7.32947 39.1774 2
4.99279 39.4667 3.96685
7.65285 41.2014 0.0284828
5.26634 41.6124 2
2.85819 42.0017 3.97622
5.6508 43.7668 0.0342457
3.24816 44.281 2
0.720592 44.8159 4
3.77051 46.5368 0.0248415
1.27778 47.2057 2
1.99014 49.554 0
9.08793 33.7155 3.97706
10.3647 33.9049 2
7.6066 31.6226 3.97016
9.60759 32.1819 2
11.231 32.9549 0.0233244
5.95162 29.0703 3.96529
8.17863 29.7146 2
10.3266 30.4198 0.0241995
4.36209 26.247 3.97543
6.60768 27.0102 2
8.83767 27.7559 0.0310749
2.85458 23.1494 4
5.175 24.0956 2
7.36837 24.9842 0.0351959
3.86728 20.9142 2
6.11964 22.0021 0.023979
5.02411 18.75 0
7.05206 35.3107 3.97123
9.05118 35.2905 2
10.7275 35.0171 0.0233913
4.8429 37.3397 3.96724
7.10658 37.2062 2
9.23411 36.9878 0.0231451
7.32736 39.1776 0.0282038
4.99353 39.4665 2
2.60605 39.7133 3.97667
5.26562 41.6128 0.0337606
2.85876 42.0015 2
0.320823 42.3947 4
3.24788 44.2815 0.0241468
0.720551 44.8159 2
1.27781 47.2057 0
7.21555 33.4697 3.97082
9.09146 33.7161 2
10.362 33.9045 0.0235623
5.42201 31.1344 3.96592
7.60844 31.6229 2
9.60431 32.1811 0.0233307
3.68345 28.4432 3.97559
5.95216 29.0711 2
8.17717 29.7142 0.0305587
1.99015 25.446 4
4.36254 26.2476 2
6.60859 27.0095 0.0351666
2.85453 23.1494 2
5.17477 24.0944 0.0241977
3.86728 20.9142 0
4.85724 35.2519 3.96705
7.0538 35.3107 2
9.04756 35.2902 0.0229284
2.49749 37.428 3.97753
4.8431 37.3398 2
7.10414 37.2063 0.0284142
4.99279 39.4667 0.03315
2.60674 39.7137 2
0.080333 39.9526 4
2.85819 42.0017 0.0237762
0.320817 42.3947 2
0.720592 44.8159 0
5.05079 33.1909 3.96671
7.21742 33.4699 2
9.08793 33.7155 0.02294
3.14745 30.6662 3.97608
5.42237 31.135 2
7.6066 31.6226 0.0298404
1.27793 27.7943 4
3.68389 28.4436 2
5.95162 29.0703 0.0347069
1.99013 25.446 2
4.36209 26.247 0.024573
2.85458 23.1494 0
2.54959 35.1587 3.97723
4.85806 35.2523 2
7.05206 35.3107 0.0287717
0 37.5 4
2.49767 37.4285 2
4.8429 37.3397 0.0327648
2.60605 39.7133 0.0233257
0.0802903 39.9526 2
0.320823 42.3947 0
2.7673 32.9057 3.9772
5.05112 33.1914 2
7.21555 33.4697 0.0291794
0.721173 30.1842 4
3.14794 30.6667 2
5.42201 31.1344 0.0340792
1.27779 27.7943 2
3.68345 28.4432 0.0244148
1.99015 25.446 0
0.0806499 35.0474 4
2.55035 35.1593 2
4.85724 35.2519 0.0329508
0 37.5 2
2.49749 37.428 0.0224701
0.080333 39.9526 0
0.32156 32.6054 4
2.76756 32.9063 2
5.05079 33.1909 0.033292
0.72056 30.1841 2
3.14745 30.6662 0.0239185
1.27793 27.7943 0
0.0802889 35.0474 2
2.54959 35.1587 0.0227748
0 37.5 0
0.320817 32.6053 2
2.7673 32.9057 0.022801
0.721173 30.1842 0
0.0806499 35.0474 0
0.32156 32.6054 0
CELLS 1910 17190
8 18 6 25 56 2 0 5 16
8 57 23 6 18 17 4 0 2
8 78 36 9 29 31 11 1 7
8 31 11 1 7 79 37 10 30
8 110 57 18 50 48 17 2 14
8 50 18 56 111 14 2 16 49
8 116 62 22 55 52 20 3 15
8 56 25 67 118 16 5 24 53
8 119 63 23 57 54 21 4 17
8 55 22 63 119 15 3 21 54
8 58 26 68 121 18 6 25 56
8 122 65 26 58 57 23 6 18
8 73 31 7 27 142 79 30 71
8 143 78 29 72 73 31 7 27
8 83 147 76 34 32 74 28 8
8 84 148 78 36 33 75 29 9
8 76 34 8 28 148 84 33 75
8 37 79 150 86 10 30 77 35
8 151 87 36 78 80 38 11 31
8 80 38 11 31 152 88 37 79
8 175 100 42 94 96 44 12 40
8 44 96 176 101 12 40 95 43
8 101 176 98 46 43 95 41 13
8 46 98 178 103 13 41 97 45
8 178 103 45 97 147 83 32 74
8 189 116 55 109 106 52 15 47
8 111 56 118 191 49 16 53 107
8 192 119 57 110 108 54 17 48
8 109 55 119 192 47 15 54 108
8 194 122 58 112 110 57 18 50
8 112 58 121 195 50 18 56 111
8 115 61 19 51 197 124 59 113
8 115 61 125 198 51 19 60 114
8 198 125 62 116 114 60 20 52
8 200 127 64 120 116 62 22 55
8 118 67 132 202 53 24 66 117
8 121 68 133 203 56 25 67 118
8 120 64 128 204 55 22 63 119
8 204 128 65 122 119 63 23 57
8 206 134 68 121 123 69 26 58
8 123 69 26 58 207 131 65 122
8 226 147 74 138 140 76 28 70
8 229 148 75 139 143 78 29 72
8 140 76 28 70 229 148 75 139
8 142 79 30 71 231 150 77 141
8 144 80 31 73 232 152 79 142
8 233 151 78 143 144 80 31 73
8 150 86 35 77 235 154 81 145
8 235 154 81 145 146 82 39 91
8 146 82 39 91 236 155 90 165
8 238 157 83 147 149 85 34 76
8 239 158 84 148 151 87 36 78
8 149 85 34 76 239 158 84 148
8 152 88 37 79 241 160 86 150
8 242 161 87 151 153 89 38 80
8 153 89 38 80 243 162 88 152
8 171 98 41 92 265 178 97 169
8 265 178 97 169 226 147 74 138
8 172 96 40 93 266 176 95 170
8 266 176 95 170 171 98 41 92
8 269 175 94 173 172 96 40 93
8 271 180 99 174 175 100 42 94
8 197 124 59 113 271 180 99 174
8 272 181 100 175 177 102 44 96
8 273 182 101 176 179 104 46 98
8 177 102 44 96 273 182 101 176
8 179 104 46 98 275 184 103 178
8 275 184 103 178 238 157 83 147
8 188 115 51 105 283 197 113 186
8 188 115 198 284 105 51 114 187
8 284 198 116 189 187 114 52 106
8 286 200 120 193 189 116 55 109
8 191 118 202 288 107 53 117 190
8 195 121 203 289 111 56 118 191
8 193 120 204 290 109 55 119 192
8 290 204 122 194 192 119 57 110
8 196 123 58 112 292 207 122 194
8 293 206 121 195 196 123 58 112
8 199 126 61 115 297 211 124 197
8 298 212 127 200 198 125 62 116
8 199 126 212 298 115 61 125 198
8 205 129 64 120 300 214 127 200
8 301 217 130 201 202 132 66 117
8 209 136 168 264 301 217 130 201
8 302 219 132 202 203 133 67 118
8 303 220 133 203 206 134 68 121
8 205 129 215 304 120 64 128 204
8 304 215 131 207 204 128 65 122
8 306 221 134 206 208 135 69 123
8 208 135 69 123 307 218 131 207
8 210 137 167 263 309 223 136 209
8 328 238 147 226 230 149 76 140
8 228 146 91 166 329 236 165 260
8 231 150 77 141 330 235 145 227
8 330 235 145 227 228 146 91 166
8 332 239 148 229 233 151 78 143
8 230 149 76 140 332 239 148 229
8 232 152 79 142 334 241 150 231
8 234 153 80 144 335 243 152 232
8 336 242 151 233 234 153 80 144
8 236 155 90 165 338 245 164 259
8 241 160 86 150 339 246 154 235
8 339 246 154 235 237 156 82 146
8 237 156 82 146 340 247 155 236
8 342 249 157 238 240 159 85 149
8 343 250 158 239 242 161 87 151
8 240 159 85 149 343 250 158 239
8 243 162 88 152 345 252 160 241
8 244 163 253 346 153 89 161 242
8 244 163 89 153 347 254 162 243
8 311 224 261 371 210 137 167 263
8 263 167 262 372 209 136 168 264
8 267 179 98 171 375 275 178 265
8 375 275 178 265 328 238 147 226
8 376 273 176 266 267 179 98 171
8 268 177 96 172 376 273 176 266
8 379 272 175 269 268 177 96 172
8 380 271 174 270 269 175 94 173
8 283 197 113 186 380 271 174 270
8 381 277 180 271 272 181 100 175
8 297 211 124 197 381 277 180 271
8 382 278 181 272 274 183 102 177
8 274 183 102 177 383 279 182 273
8 383 279 182 273 276 185 104 179
8 385 281 184 275 342 249 157 238
8 276 185 104 179 385 281 184 275
8 285 199 115 188 393 297 197 283
8 394 298 200 286 284 198 116 189
8 285 199 298 394 188 115 198 284
8 291 205 120 193 396 300 200 286
8 397 301 201 287 288 202 117 190
8 295 209 264 374 397 301 201 287
8 398 302 202 288 289 203 118 191
8 399 303 203 289 293 206 121 195
8 291 205 304 400 193 120 204 290
8 400 304 207 292 290 204 122 194
8 294 208 123 196 402 307 207 292
8 403 306 206 293 294 208 123 196
8 296 210 263 373 405 309 209 295
8 408 312 213 299 297 211 126 199
8 299 213 313 409 199 126 212 298
8 409 313 214 300 298 212 127 200
8 305 216 129 205 411 315 214 300
8 412 318 217 301 302 219 132 202
8 309 223 136 209 412 318 217 301
8 413 320 219 302 303 220 133 203
8 306 221 321 414 206 134 220 303
8 307 218 131 207 415 316 215 304
8 305 216 316 415 205 129 215 304
8 417 322 221 306 308 222 135 208
8 308 222 135 208 418 319 218 307
8 310 225 137 210 420 325 223 309
8 423 326 224 311 310 225 137 210
8 329 236 165 260 441 338 259 368
8 442 342 238 328 333 240 149 230
8 331 237 146 228 443 340 236 329
8 334 241 150 231 444 339 235 330
8 444 339 235 330 331 237 146 228
8 446 343 239 332 336 242 151 233
8 333 240 149 230 446 343 239 332
8 335 243 152 232 448 345 241 334
8 337 244 153 234 449 347 243 335
8 337 244 346 450 234 153 242 336
8 338 245 164 259 452 349 258 367
8 340 247 155 236 453 350 245 338
8 345 252 160 241 454 351 246 339
8 454 351 246 339 341 248 156 237
8 341 248 156 237 455 352 247 340
8 240 159 251 344 342 249 354 457
8 242 161 253 346 343 250 355 458
8 343 250 355 458 240 159 251 344
8 347 254 162 243 460 357 252 345
8 348 255 358 461 244 163 253 346
8 348 255 163 244 462 359 254 347
8 473 360 257 365 363 256 364 482
8 452 349 258 367 365 257 366 485
8 422 324 369 488 311 224 261 371
8 371 261 370 490 263 167 262 372
8 407 311 371 491 296 210 263 373
8 373 263 372 492 295 209 264 374
8 493 385 275 375 442 342 238 328
8 377 276 179 267 493 385 275 375
8 378 274 177 268 494 383 273 376
8 494 383 273 376 377 276 179 267
8 497 382 272 379 378 274 177 268
8 498 381 271 380 379 272 175 269
8 393 297 197 283 498 381 271 380
8 499 387 277 381 382 278 181 272
8 408 312 211 297 499 387 277 381
8 500 388 278 382 384 280 183 274
8 501 389 279 383 386 282 185 276
8 384 280 183 274 501 389 279 383
8 386 282 185 276 503 391 281 385
8 503 391 281 385 457 354 249 342
8 511 408 299 395 393 297 199 285
8 395 299 409 512 285 199 298 394
8 512 409 300 396 394 298 200 286
8 401 305 205 291 514 411 300 396
8 515 412 301 397 398 302 202 288
8 405 309 209 295 515 412 301 397
8 516 413 302 398 399 303 203 289
8 403 306 414 517 293 206 303 399
8 402 307 207 292 518 415 304 400
8 401 305 415 518 291 205 304 400
8 404 308 208 294 520 418 307 402
8 521 417 306 403 404 308 208 294
8 406 310 210 296 523 420 309 405
8 526 423 311 407 406 310 210 296
8 410 314 213 299 527 424 312 408
8 528 425 315 411 409 313 214 300
8 410 314 425 528 299 213 313 409
8 416 317 216 305 530 427 315 411
8 531 430 318 412 413 320 219 302
8 420 325 223 309 531 430 318 412
8 532 432 320 413 414 321 220 303
8 417 322 433 533 306 221 321 414
8 418 319 218 307 534 428 316 415
8 416 317 428 534 305 216 316 415
8 419 323 434 536 308 222 322 417
8 419 323 222 308 537 431 319 418
8 421 327 225 310 539 438 325 420
8 421 327 439 541 310 225 326 423
8 543 437 324 422 423 326 224 311
8 441 338 259 368 559 452 367 486
8 443 340 236 329 560 453 338 441
8 333 240 344 447 442 342 457 561
8 445 341 237 331 562 455 340 443
8 448 345 241 334 563 454 339 444
8 563 454 339 444 445 341 237 331
8 336 242 346 450 446 343 458 565
8 446 343 458 565 333 240 344 447
8 449 347 243 335 567 460 345 448
8 451 348 244 337 568 462 347 449
8 451 348 461 569 337 244 346 450
8 570 463 349 452 473 360 257 365
8 453 350 245 338 570 463 349 452
8 455 352 247 340 571 464 350 453
8 460 357 252 345 572 465 351 454
8 572 465 351 454 456 353 248 341
8 456 353 248 341 573 466 352 455
8 344 251 356 459 457 354 468 575
8 458 355 469 576 344 251 356 459
8 346 253 358 461 458 355 469 576
8 462 359 254 347 578 471 357 460
8 348 255 359 462 461 358 472 579
8 591 474 360 473 475 361 256 363
8 475 361 256 363 594 477 362 479
8 363 256 364 482 479 362 480 603
8 590 473 365 484 481 363 482 605
8 482 364 257 365 606 483 366 485
8 559 452 367 486 484 365 485 607
8 542 436 487 609 422 324 369 488
8 525 422 488 611 407 311 371 491
8 488 369 489 612 371 261 370 490
8 491 371 490 613 373 263 372 492
8 495 386 276 377 614 503 385 493
8 614 503 385 493 561 457 342 442
8 615 501 383 494 495 386 276 377
8 496 384 274 378 615 501 383 494
8 618 500 382 497 496 384 274 378
8 619 499 381 498 497 382 272 379
8 511 408 297 393 619 499 381 498
8 620 505 387 499 500 388 278 382
8 527 424 312 408 620 505 387 499
8 502 390 506 621 384 280 388 500
8 622 507 389 501 504 392 282 386
8 502 390 280 384 622 507 389 501
8 504 392 282 386 624 509 391 503
8 624 509 391 503 575 468 354 457
8 513 410 299 395 630 527 408 511
8 631 528 411 514 512 409 300 396
8 513 410 528 631 395 299 409 512
8 519 416 305 401 633 530 411 514
8 634 531 412 515 516 413 302 398
8 523 420 309 405 634 531 412 515
8 635 532 413 516 517 414 303 399
8 521 417 533 636 403 306 414 517
8 520 418 307 402 637 534 415 518
8 519 416 534 637 401 305 415 518
8 522 419 308 404 639 537 418 520
8 522 419 536 640 404 308 417 521
8 524 421 310 406 642 539 420 523
8 524 421 541 644 406 310 423 526
8 646 543 422 525 526 423 311 407
8 529 426 314 410 647 544 424 527
8 528 425 545 648 411 315 427 530
8 529 426 545 648 410 314 425 528
8 535 429 317 416 649 546 427 530
8 650 548 430 531 532 432 320 413
8 539 438 325 420 650 548 430 531
8 533 433 550 651 414 321 432 532
8 536 434 551 652 417 322 433 533
8 537 431 319 418 653 547 428 534
8 535 429 547 653 416 317 428 534
8 538 435 552 654 419 323 434 536
8 538 435 323 419 655 549 431 537
8 540 440 327 421 657 556 438 539
8 540 440 557 659 421 327 439 541
8 541 439 555 660 423 326 437 543
8 661 554 436 542 543 437 324 422
8 676 570 452 559 590 473 365 484
8 560 453 338 441 676 570 452 559
8 562 455 340 443 677 571 453 560
8 447 344 459 566 561 457 575 678
8 564 456 341 445 679 573 455 562
8 567 460 345 448 680 572 454 563
8 680 572 454 563 564 456 341 445
8 565 458 576 682 447 344 459 566
8 450 346 461 569 565 458 576 682
8 568 462 347 449 684 578 460 567
8 451 348 462 568 569 461 579 685
8 686 580 463 570 591 474 360 473
8 571 464 350 453 686 580 463 570
8 573 466 352 455 687 581 464 571
8 572 465 582 688 460 357 471 578
8 574 467 582 688 456 353 465 572
8 574 467 353 456 689 583 466 573
8 459 356 470 577 575 468 585 691
8 576 469 586 692 459 356 470 577
8 461 358 472 579 576 469 586 692
8 462 359 471 578 579 472 588 694
8 704 591 473 590 593 475 363 481
8 595 476 592 705 475 361 474 591
8 593 475 363 481 707 594 479 602
8 594 477 362 479 709 598 478 600
8 595 476 361 475 711 597 477 594
8 479 362 480 603 600 478 601 720
8 481 363 482 605 602 479 603 722
8 603 480 364 482 723 604 483 606
8 605 482 365 484 724 606 485 607
8 656 553 608 726 542 436 487 609
8 645 542 609 728 525 422 488 611
8 609 487 610 729 488 369 489 612
8 611 488 612 730 491 371 490 613
8 616 504 386 495 731 624 503 614
8 731 624 503 614 678 575 457 561
8 732 622 501 615 616 504 386 495
8 617 502 384 496 732 622 501 615
8 617 502 621 735 496 384 500 618
8 736 620 499 619 618 500 382 497
8 630 527 408 511 736 620 499 619
8 621 506 626 737 500 388 505 620
8 647 544 424 527 737 626 505 620
8 623 508 627 738 502 390 506 621
8 623 508 390 502 739 628 507 622
8 625 510 628 739 504 392 507 622
8 740 629 509 624 691 585 468 575
8 625 510 392 504 740 629 509 624
8 632 529 410 513 744 647 527 630
8 631 528 648 745 514 411 530 633
8 632 529 648 745 513 410 528 631
8 638 535 416 519 746 649 530 633
8 747 650 531 634 635 532 413 516
8 642 539 420 523 747 650 531 634
8 636 533 651 748 517 414 532 635
8 640 536 652 749 521 417 533 636
8 639 537 418 520 750 653 534 637
8 638 535 653 750 519 416 534 637
8 641 538 419 522 751 655 537 639
8 641 538 654 752 522 419 536 640
8 643 540 421 524 753 657 539 642
8 643 540 659 755 524 421 541 644
8 644 541 660 757 526 423 543 646
8 758 661 542 645 646 543 422 525
8 529 426 544 647 648 545 662 759
8 530 427 545 648 649 546 663 760
8 535 429 546 649 653 547 664 761
8 762 666 548 650 651 550 432 532
8 657 556 438 539 762 666 548 650
8 652 551 668 763 533 433 550 651
8 654 552 669 764 536 434 551 652
8 655 549 431 537 765 665 547 653
8 538 435 549 655 654 552 667 766
8 661 554 671 768 542 436 553 656
8 658 558 440 540 769 674 556 657
8 658 558 675 770 540 440 557 659
8 659 557 673 771 541 439 555 660
8 660 555 672 772 543 437 554 661
8 788 686 570 676 704 591 473 590
8 677 571 453 560 788 686 570 676
8 679 573 455 562 789 687 571 677
8 566 459 577 683 678 575 691 790
8 681 574 456 564 791 689 573 679
8 680 572 688 792 567 460 578 684
8 681 574 688 792 564 456 572 680
8 682 576 692 794 566 459 577 683
8 569 461 579 685 682 576 692 794
8 568 462 578 684 685 579 694 796
8 687 581 464 571 798 696 580 686
8 798 696 580 686 705 592 474 591
8 689 583 466 573 799 697 581 687
8 688 582 698 800 578 471 588 694
8 690 584 698 800 574 467 582 688
8 690 584 467 574 801 699 583 689
8 693 587 701 803 577 470 585 691
8 693 587 470 577 804 702 586 692
8 695 589 702 804 579 472 586 692
8 695 589 472 579 805 703 588 694
8 708 595 705 813 593 475 591 704
8 710 596 706 814 595 476 592 705
8 707 594 479 602 816 709 600 719
8 708 595 475 593 817 711 594 707
8 709 598 478 600 819 715 599 717
8 711 597 477 594 820 714 598 709
8 710 596 476 595 822 713 597 711
8 600 478 601 720 717 599 718 832
8 602 479 603 722 719 600 720 834
8 720 601 480 603 835 721 604 723
8 722 603 482 605 836 723 606 724
8 767 670 725 839 656 553 608 726
8 756 656 726 841 645 542 609 728
8 726 608 727 842 609 487 610 729
8 728 609 729 843 611 488 612 730
8 844 740 624 731 790 691 575 678
8 733 625 504 616 844 740 624 731
8 734 623 502 617 845 739 622 732
8 733 625 739 845 616 504 622 732
8 734 623 738 846 617 502 621 735
8 735 621 737 847 618 500 620 736
8 744 647 527 630 847 737 620 736
8 621 506 627 738 737 626 741 848
8 647 544 626 737 759 662 741 848
8 623 508 628 739 738 627 742 849
8 740 629 585 691 850 743 700 802
8 625 510 629 740 739 628 743 850
8 632 529 647 744 745 648 759 854
8 633 530 648 745 746 649 760 855
8 638 535 649 746 750 653 761 856
8 857 762 650 747 748 651 532 635
8 753 657 539 642 857 762 650 747
8 749 652 763 858 636 533 651 748
8 752 654 764 859 640 536 652 749
8 751 655 537 639 860 765 653 750
8 641 538 655 751 752 654 766 861
8 754 658 540 643 862 769 657 753
8 754 658 770 863 643 540 659 755
8 755 659 771 864 644 541 660 757
8 758 661 768 866 645 542 656 756
8 757 660 772 867 646 543 661 758
8 759 662 773 868 648 545 663 760
8 649 546 663 760 761 664 774 871
8 765 665 547 653 872 775 664 761
8 873 777 666 762 763 668 550 651
8 769 674 556 657 873 777 666 762
8 764 669 779 874 652 551 668 763
8 654 552 667 766 764 669 778 875
8 655 549 665 765 766 667 776 876
8 768 671 782 877 656 553 670 767
8 772 672 783 878 661 554 671 768
8 658 558 674 769 770 675 786 879
8 659 557 675 770 771 673 785 881
8 882 784 672 772 771 673 555 660
8 789 687 571 677 897 798 686 788
8 897 798 686 788 813 705 591 704
8 791 689 573 679 898 799 687 789
8 795 693 803 900 683 577 691 790
8 793 690 574 681 901 801 689 791
8 792 688 800 902 684 578 694 796
8 793 690 800 902 681 574 688 792
8 795 693 577 683 903 804 692 794
8 797 695 804 903 685 579 692 794
8 797 695 579 685 904 805 694 796
8 905 806 697 799 798 696 581 687
8 814 706 806 905 705 592 696 798
8 689 583 697 799 801 699 808 907
8 800 698 809 908 694 588 703 805
8 690 584 699 801 800 698 809 908
8 803 701 810 909 691 585 700 802
8 693 587 702 804 803 701 811 910
8 695 589 703 805 804 702 812 911
8 818 710 814 919 708 595 705 813
8 821 712 815 920 710 596 706 814
8 816 709 600 719 922 819 717 831
8 817 711 594 707 923 820 709 816
8 818 710 595 708 924 822 711 817
8 819 715 599 717 926 827 716 829
8 820 714 598 709 927 826 715 819
8 929 825 713 822 820 714 597 711
8 821 712 596 710 930 824 713 822
8 717 599 718 832 829 716 830 942
8 719 600 720 834 831 717 832 944
8 832 718 601 720 945 833 721 835
8 834 720 603 722 946 835 723 836
8 869 780 838 950 767 670 725 839
8 865 767 839 952 756 656 726 841
8 839 725 840 953 726 608 727 842
8 841 726 842 954 728 609 729 843
8 844 740 691 790 955 850 802 899
8 733 625 740 844 845 739 850 955
8 734 623 739 845 846 738 849 956
8 735 621 738 846 847 737 848 957
8 744 647 737 847 854 759 848 957
8 738 627 742 849 848 741 851 958
8 848 741 851 958 759 662 773 868
8 850 743 700 802 959 852 807 906
8 849 742 628 739 959 852 743 850
8 854 759 868 965 745 648 760 855
8 746 649 760 855 856 761 871 966
8 860 765 653 750 967 872 761 856
8 968 873 762 857 858 763 651 748
8 862 769 657 753 968 873 762 857
8 859 764 874 969 749 652 763 858
8 752 654 766 861 859 764 875 970
8 751 655 765 860 861 766 876 971
8 754 658 769 862 863 770 879 972
8 755 659 770 863 864 771 881 974
8 976 882 772 867 864 771 660 757
8 866 768 877 977 756 656 767 865
8 867 772 878 978 758 661 768 866
8 760 663 773 868 871 774 883 980
8 870 781 837 948 982 890 780 869
8 982 890 780 869 877 782 670 767
8 761 664 774 871 872 775 884 984
8 876 776 665 765 985 885 775 872
8 873 777 668 763 986 887 779 874
8 769 674 777 873 879 786 887 986
8 764 669 778 875 874 779 888 987
8 766 667 776 876 875 778 886 988
8 878 783 892 989 768 671 782 877
8 878 783 672 772 990 893 784 882
8 880 787 675 770 991 896 786 879
8 880 787 895 992 770 675 785 881
8 881 785 894 993 771 673 784 882
8 1006 905 799 898 897 798 687 789
8 919 814 905 1006 813 705 798 897
8 791 689 799 898 901 801 907 1007
8 900 803 909 1009 790 691 802 899
8 795 693 804 903 900 803 910 1010
8 902 800 908 1011 796 694 805 904
8 793 690 801 901 902 800 908 1011
8 797 695 805 904 903 804 911 1012
8 799 697 806 905 907 808 912 1013
8 920 815 912 1013 814 706 806 905
8 802 700 810 909 906 807 913 1014
8 801 699 808 907 908 809 914 1015
8 805 703 809 908 911 812 915 1016
8 803 701 811 910 909 810 916 1017
8 911 812 917 1018 804 702 811 910
8 925 821 920 1030 818 710 814 919
8 928 823 921 1031 821 712 815 920
8 922 819 717 831 1033 926 829 941
8 923 820 709 816 1034 927 819 922
8 1035 929 822 924 923 820 711 817
8 925 821 710 818 1036 930 822 924
8 1038 933 825 929 927 826 714 820
8 926 827 716 829 1039 935 828 939
8 927 826 715 819 1040 934 827 926
8 928 823 712 821 1041 931 824 930
8 1042 932 824 930 929 825 713 822
8 829 716 830 942 939 828 940 1058
8 831 717 832 944 941 829 942 1060
8 942 830 718 832 1061 943 833 945
8 944 832 720 834 1062 945 835 946
8 981 889 947 1064 870 781 837 948
8 948 837 949 1067 869 780 838 950
8 975 869 950 1069 865 767 839 952
8 950 838 951 1070 839 725 840 953
8 952 839 953 1071 841 726 842 954
8 955 850 802 899 1072 959 906 1008
8 956 849 739 845 1072 959 850 955
8 846 738 849 956 957 848 958 1073
8 957 848 958 1073 854 759 868 965
8 849 742 852 959 958 851 961 1076
8 960 853 961 1076 906 807 852 959
8 958 851 961 1076 868 773 883 980
8 960 853 807 906 1077 963 913 1014
8 855 760 868 965 966 871 980 1085
8 856 761 871 966 967 872 984 1086
8 971 876 765 860 1087 985 872 967
8 968 873 763 858 1088 986 874 969
8 862 769 873 968 972 879 986 1088
8 859 764 875 970 969 874 987 1089
8 861 766 876 971 970 875 988 1090
8 973 880 770 863 1091 991 879 972
8 973 880 992 1092 863 770 881 974
8 974 881 993 1093 864 771 882 976
8 979 870 948 1066 1094 982 869 975
8 1094 982 869 975 977 877 767 865
8 978 878 772 867 1095 990 882 976
8 978 878 989 1096 866 768 877 977
8 871 774 883 980 984 884 994 1099
8 983 891 999 1100 870 781 889 981
8 1101 1000 890 982 989 892 782 877
8 983 891 781 870 1101 1000 890 982
8 872 775 884 984 985 885 995 1103
8 876 776 885 985 988 886 996 1104
8 986 887 779 874 1105 998 888 987
8 879 786 887 986 991 896 998 1105
8 875 778 886 988 987 888 997 1106
8 990 893 1002 1107 878 783 892 989
8 1108 1003 893 990 993 894 784 882
8 880 787 896 991 992 895 1005 1109
8 993 894 785 881 1110 1004 895 992
8 898 799 905 1006 1007 907 1013 1120
8 1030 920 1013 1120 919 814 905 1006
8 901 801 907 1007 1011 908 1015 1121
8 899 802 909 1009 1008 906 1014 1122
8 900 803 910 1010 1009 909 1017 1123
8 1012 911 1018 1124 903 804 910 1010
8 904 805 908 1011 1012 911 1016 1125
8 1013 912 1020 1127 907 808 914 1015
8 1031 921 1020 1127 920 815 912 1013
8 1019 918 962 1075 1128 1021 913 1014
8 1128 1021 913 1014 1017 916 810 909
8 1015 914 1022 1129 908 809 915 1016
8 1016 915 1023 1130 911 812 917 1018
8 1018 917 1024 1131 910 811 916 1017
8 1037 928 1031 1148 925 821 920 1030
8 928 823 931 1041 1031 921 1032 1149
8 1033 926 829 941 1151 1039 939 1057
8 1034 927 819 922 1152 1040 926 1033
8 1153 1038 929 1035 1034 927 820 923
8 1154 1042 930 1036 1035 929 822 924
8 1037 928 821 925 1155 1041 930 1036
8 1039 935 828 939 1156 1047 938 1055
8 1157 1043 932 1042 1038 933 825 929
8 1038 933 826 927 1158 1045 934 1040
8 1040 934 827 926 1159 1046 935 1039
8 930 824 932 1042 1041 931 1044 1160
8 1051 936 1048 1165 1175 1052 937 1053
8 1156 1047 938 1055 1053 937 1054 1178
8 939 828 940 1058 1055 938 1056 1181
8 941 829 942 1060 1057 939 1058 1183
8 942 830 943 1061 1058 940 1059 1184
8 1060 942 832 944 1185 1061 945 1062
8 1082 964 1063 1188 981 889 947 1064
8 1097 981 1064 1190 979 870 948 1066
8 1064 947 1065 1191 948 837 949 1067
8 1066 948 1067 1193 975 869 950 1069
8 1067 949 1068 1194 950 838 951 1070
8 1069 950 1070 1195 952 839 953 1071
8 956 849 959 1072 1073 958 1076 1197
8 1074 960 1076 1197 1008 906 959 1072
8 1073 958 1076 1197 965 868 980 1085
8 1074 960 906 1008 1198 1077 1014 1122
8 1133 1026 1079 1199 1019 918 962 1075
8 1077 963 913 1014 1200 1080 962 1075
8 960 853 963 1077 1076 961 1078 1201
8 980 883 961 1076 1099 994 1078 1201
8 1210 1083 964 1082 1100 999 889 981
8 966 871 980 1085 1086 984 1099 1215
8 967 872 984 1086 1087 985 1103 1216
8 971 876 985 1087 1090 988 1104 1217
8 1088 986 874 969 1218 1105 987 1089
8 972 879 986 1088 1091 991 1105 1218
8 970 875 988 1090 1089 987 1106 1219
8 973 880 991 1091 1092 992 1109 1220
8 1093 993 881 974 1221 1110 992 1092
8 1222 1108 990 1095 1093 993 882 976
8 1223 1101 982 1094 1096 989 877 977
8 1098 983 870 979 1223 1101 982 1094
8 1095 990 1107 1224 978 878 989 1096
8 1098 983 1100 1225 979 870 981 1097
8 984 884 994 1099 1103 995 1111 1227
8 1102 1001 1115 1228 983 891 999 1100
8 1101 1000 892 989 1229 1116 1002 1107
8 1102 1001 891 983 1229 1116 1000 1101
8 985 885 995 1103 1104 996 1112 1230
8 988 886 996 1104 1106 997 1113 1231
8 1105 998 888 987 1232 1114 997 1106
8 991 896 998 1105 1109 1005 1114 1232
8 1108 1003 1117 1233 990 893 1002 1107
8 1108 1003 894 993 1233 1117 1004 1110
8 992 895 1005 1109 1110 1004 1118 1234
8 1120 1013 1127 1244 1007 907 1015 1121
8 1148 1031 1127 1244 1030 920 1013 1120
8 1121 1015 1129 1245 1011 908 1016 1125
8 1126 1019 1075 1196 1246 1128 1014 1122
8 1246 1128 1014 1122 1123 1017 909 1009
8 1124 1018 1131 1247 1010 910 1017 1123
8 1125 1016 1130 1248 1012 911 1018 1124
8 1127 1020 1137 1254 1015 914 1022 1129
8 1031 921 1032 1149 1127 1020 1137 1254
8 1134 1027 918 1019 1257 1140 1021 1128
8 1257 1140 1021 1128 1131 1024 916 1017
8 1129 1022 1141 1258 1016 915 1023 1130
8 1130 1023 1142 1259 1018 917 1024 1131
8 1261 1144 1025 1132 1133 1026 1079 1199
8 1255 1138 1025 1132 1135 1028 1144 1261
8 1133 1026 918 1019 1262 1145 1027 1134
8 1136 1029 1139 1256 1263 1146 1028 1135
8 1037 928 1041 1155 1148 1031 1149 1275
8 1041 931 1044 1160 1149 1032 1150 1276
8 1151 1039 939 1057 1278 1156 1055 1180
8 1152 1040 926 1033 1279 1159 1039 1151
8 1153 1038 927 1034 1280 1158 1040 1152
8 1281 1157 1042 1154 1153 1038 929 1035
8 1036 930 1042 1154 1155 1041 1160 1282
8 1283 1164 1046 1159 1156 1047 935 1039
8 1165 1048 1164 1283 1053 937 1047 1156
8 1157 1043 933 1038 1284 1161 1045 1158
8 1157 1043 1161 1284 1042 932 1044 1160
8 1040 934 1046 1159 1158 1045 1163 1285
8 1166 1049 1167 1292 1051 936 1048 1165
8 1166 1049 936 1051 1293 1168 1050 1172
8 1051 936 1052 1175 1172 1050 1173 1306
8 1174 1051 1165 1290 1308 1175 1053 1177
8 1053 937 1054 1178 1175 1052 1176 1309
8 1278 1156 1055 1180 1177 1053 1178 1311
8 1055 938 1056 1181 1178 1054 1179 1312
8 1057 939 1058 1183 1180 1055 1181 1314
8 1058 940 1059 1184 1181 1056 1182 1315
8 1060 942 1061 1185 1183 1058 1184 1316
8 1208 1081 1187 1321 1082 964 1063 1188
8 1209 1082 1188 1322 1097 981 1064 1190
8 1188 1063 1189 1323 1064 947 1065 1191
8 1190 1064 1191 1325 1066 948 1067 1193
8 1191 1065 1192 1326 1067 949 1068 1194
8 1067 1193 1069 950 1194 1327 1195 1070
8 1250 1133 1199 1330 1126 1019 1075 1196
8 1198 1077 1014 1122 1331 1200 1075 1196
8 1074 960 1077 1198 1197 1076 1201 1332
8 1085 980 1076 1197 1215 1099 1201 1332
8 1199 1079 1203 1333 1075 962 1080 1200
8 1132 1025 1119 1243 1199 1079 1203 1333
8 1201 1078 963 1077 1334 1202 1080 1200
8 1099 994 1078 1201 1227 1111 1202 1334
8 1343 1207 1081 1208 1210 1083 964 1082
8 1214 1084 1186 1319 1343 1207 1081 1208
8 1345 1210 1082 1209 1225 1100 981 1097
8 1346 1211 1083 1210 1228 1115 999 1100
8 1086 984 1099 1215 1216 1103 1227 1352
8 1087 985 1103 1216 1217 1104 1230 1353
8 1090 988 1104 1217 1219 1106 1231 1354
8 1218 1105 987 1089 1355 1232 1106 1219
8 1091 991 1105 1218 1220 1109 1232 1355
8 1092 992 1109 1220 1221 1110 1234 1356
8 1222 1108 1233 1357 1095 990 1107 1224
8 1222 1108 993 1093 1357 1233 1110 1221
8 1223 1101 989 1096 1358 1229 1107 1224
8 1226 1102 983 1098 1358 1229 1101 1223
8 1226 1102 1228 1359 1098 983 1100 1225
8 1103 995 1111 1227 1230 1112 1235 1360
8 1107 1002 1117 1233 1229 1116 1240 1362
8 1102 1001 1116 1229 1228 1115 1240 1362
8 1104 996 1112 1230 1231 1113 1236 1363
8 1364 1237 1114 1232 1231 1113 997 1106
8 1109 1005 1114 1232 1234 1118 1238 1365
8 1110 1004 1118 1234 1233 1117 1241 1366
8 1242 1374 1255 1138 1119 1243 1132 1025
8 1244 1127 1254 1376 1121 1015 1129 1245
8 1148 1031 1149 1275 1244 1127 1254 1376
8 1245 1129 1258 1377 1125 1016 1130 1248
8 1251 1134 1019 1126 1378 1257 1128 1246
8 1378 1257 1128 1246 1247 1131 1017 1123
8 1248 1130 1259 1379 1124 1018 1131 1247
8 1261 1381 1250 1133 1132 1249 1330 1199
8 1255 1380 1252 1135 1132 1249 1381 1261
8 1250 1133 1019 1126 1382 1262 1134 1251
8 1253 1136 1256 1385 1384 1263 1135 1252
8 1254 1137 1265 1387 1129 1022 1141 1258
8 1149 1032 1150 1276 1254 1137 1265 1387
8 1028 1135 1255 1138 1139 1256 1388 1266
8 1136 1029 1147 1264 1256 1139 1267 1389
8 1390 1268 1140 1257 1259 1142 1024 1131
8 1260 1143 1027 1134 1390 1268 1140 1257
8 1258 1141 1269 1391 1130 1023 1142 1259
8 1262 1145 1027 1134 1393 1271 1143 1260
8 1261 1144 1026 1133 1394 1272 1145 1262
8 1135 1028 1144 1261 1263 1146 1272 1394
8 1136 1029 1146 1263 1264 1147 1273 1395
8 1155 1041 1160 1282 1275 1149 1276 1405
8 1276 1150 1044 1160 1406 1277 1162 1286
8 1408 1283 1159 1279 1278 1156 1039 1151
8 1290 1165 1283 1408 1177 1053 1156 1278
8 1152 1040 1159 1279 1280 1158 1285 1409
8 1281 1157 1038 1153 1410 1284 1158 1280
8 1281 1157 1284 1410 1154 1042 1160 1282
8 1159 1046 1164 1283 1285 1163 1289 1412
8 1292 1167 1289 1412 1165 1048 1164 1283
8 1158 1045 1163 1285 1284 1161 1288 1413
8 1284 1161 1288 1413 1160 1044 1162 1286
8 1291 1166 1292 1418 1174 1051 1165 1290
8 1291 1166 1051 1174 1419 1293 1172 1305
8 1294 1169 1296 1421 1166 1049 1167 1292
8 1293 1168 1050 1172 1422 1295 1171 1303
8 1294 1169 1049 1166 1423 1297 1168 1293
8 1422 1295 1171 1303 1301 1170 1302 1435
8 1172 1050 1173 1306 1303 1171 1304 1438
8 1174 1051 1175 1308 1305 1172 1306 1440
8 1175 1052 1176 1309 1306 1173 1307 1441
8 1177 1053 1178 1311 1308 1175 1309 1443
8 1178 1054 1179 1312 1309 1176 1310 1444
8 1180 1055 1181 1314 1311 1178 1312 1446
8 1056 1181 1312 1179 1182 1315 1447 1313
8 1183 1058 1184 1316 1314 1181 1315 1448
8 1319 1186 1084 1214 1451 1317 1213 1350
8 1319 1186 1318 1453 1208 1081 1187 1321
8 1321 1187 1320 1456 1188 1063 1189 1323
8 1344 1208 1321 1457 1209 1082 1188 1322
8 1322 1188 1323 1458 1190 1064 1191 1325
8 1323 1189 1324 1459 1191 1065 1192 1326
8 1191 1325 1193 1067 1326 1460 1327 1194
8 1242 1374 1243 1119 1328 1462 1335 1204
8 1330 1199 1333 1465 1196 1075 1200 1331
8 1132 1249 1330 1199 1243 1375 1465 1333
8 1332 1201 1077 1198 1466 1334 1200 1331
8 1215 1099 1201 1332 1352 1227 1334 1466
8 1119 1243 1333 1203 1204 1335 1470 1338
8 1333 1203 1338 1470 1200 1080 1202 1334
8 1227 1111 1202 1334 1360 1235 1338 1470
8 1328 1462 1335 1204 1205 1336 1471 1339
8 1337 1206 1340 1472 1464 1329 1205 1336
8 1346 1211 1342 1479 1210 1083 1207 1343
8 1346 1211 1115 1228 1479 1342 1239 1361
8 1348 1212 1084 1214 1479 1342 1207 1343
8 1480 1343 1208 1344 1345 1210 1082 1209
8 1351 1214 1319 1454 1480 1343 1208 1344
8 1481 1346 1210 1345 1359 1228 1100 1225
8 1348 1212 1347 1483 1214 1084 1213 1350
8 1216 1103 1227 1352 1353 1230 1360 1488
8 1217 1104 1230 1353 1354 1231 1363 1489
8 1490 1364 1232 1355 1354 1231 1106 1219
8 1220 1109 1232 1355 1356 1234 1365 1491
8 1221 1110 1234 1356 1357 1233 1366 1492
8 1224 1107 1233 1357 1358 1229 1362 1493
8 1226 1102 1229 1358 1359 1228 1362 1493
8 1230 1112 1235 1360 1363 1236 1367 1496
8 1361 1239 1115 1228 1497 1371 1240 1362
8 1366 1241 1372 1498 1233 1117 1240 1362
8 1364 1237 1113 1231 1499 1368 1236 1363
8 1364 1237 1368 1499 1232 1114 1238 1365
8 1234 1118 1238 1365 1366 1241 1369 1500
8 1507 1373 1242 1374 1388 1266 1138 1255
8 1508 1374 1243 1375 1380 1255 1132 1249
8 1376 1254 1387 1509 1245 1129 1258 1377
8 1275 1149 1276 1405 1376 1254 1387 1509
8 1377 1258 1391 1510 1248 1130 1259 1379
8 1511 1390 1257 1378 1379 1259 1131 1247
8 1383 1260 1134 1251 1511 1390 1257 1378
8 1252 1135 1256 1385 1380 1255 1388 1512
8 1261 1381 1513 1394 1133 1250 1382 1262
8 1135 1252 1384 1263 1261 1381 1513 1394
8 1382 1262 1134 1251 1514 1393 1260 1383
8 1253 1136 1263 1384 1386 1264 1395 1516
8 1253 1136 1264 1386 1385 1256 1389 1517
8 1387 1265 1397 1519 1258 1141 1269 1391
8 1276 1150 1277 1406 1387 1265 1397 1519
8 1256 1139 1267 1389 1388 1266 1398 1520
8 1264 1147 1274 1396 1389 1267 1399 1521
8 1392 1270 1143 1260 1522 1400 1268 1390
8 1390 1268 1142 1259 1522 1400 1269 1391
8 1392 1270 1401 1523 1260 1143 1271 1393
8 1272 1394 1524 1402 1145 1262 1393 1271
8 1395 1273 1146 1263 1524 1402 1272 1394
8 1273 1395 1264 1147 1403 1526 1396 1274
8 1405 1276 1160 1282 1534 1406 1286 1411
8 1414 1287 1407 1535 1286 1162 1277 1406
8 1279 1159 1283 1408 1409 1285 1412 1537
8 1418 1292 1412 1537 1290 1165 1283 1408
8 1280 1158 1285 1409 1410 1284 1413 1538
8 1410 1284 1413 1538 1282 1160 1286 1411
8 1285 1163 1289 1412 1413 1288 1417 1540
8 1421 1296 1417 1540 1292 1167 1289 1412
8 1414 1287 1162 1286 1541 1416 1288 1413
8 1420 1294 1421 1545 1291 1166 1292 1418
8 1419 1293 1172 1305 1546 1422 1303 1437
8 1420 1294 1166 1291 1547 1423 1293 1419
8 1294 1169 1297 1423 1421 1296 1425 1548
8 1423 1297 1168 1293 1549 1424 1295 1422
8 1301 1170 1298 1427 1422 1295 1424 1549
8 1432 1300 1428 1554 1301 1170 1298 1427
8 1431 1299 1428 1554 1560 1430 1300 1432
8 1563 1433 1300 1432 1435 1302 1170 1301
8 1546 1422 1303 1437 1434 1301 1435 1565
8 1303 1171 1304 1438 1435 1302 1436 1566
8 1305 1172 1306 1440 1437 1303 1438 1568
8 1306 1173 1307 1441 1438 1304 1439 1569
8 1308 1175 1309 1443 1440 1306 1441 1571
8 1309 1176 1310 1444 1441 1307 1442 1572
8 1311 1178 1312 1446 1443 1309 1444 1574
8 1179 1312 1444 1310 1313 1447 1575 1445
8 1314 1181 1315 1448 1446 1312 1447 1576
8 1350 1213 1349 1486 1451 1317 1449 1579
8 1451 1317 1450 1581 1319 1186 1318 1453
8 1454 1319 1214 1351 1582 1451 1350 1487
8 1453 1318 1452 1584 1321 1187 1320 1456
8 1454 1319 1453 1585 1344 1208 1321 1457
8 1456 1320 1455 1586 1323 1189 1324 1459
8 1457 1321 1456 1587 1322 1188 1323 1458
8 1458 1323 1459 1588 1325 1191 1326 1460
8 1205 1336 1464 1329 1328 1462 1590 1461
8 1507 1373 1461 1590 1374 1242 1328 1462
8 1508 1374 1462 1591 1375 1243 1335 1467
8 1337 1206 1329 1464 1473 1341 1463 1594
8 1375 1243 1335 1467 1465 1333 1470 1596
8 1465 1333 1470 1596 1331 1200 1334 1466
8 1352 1227 1334 1466 1488 1360 1470 1596
8 1591 1462 1336 1468 1467 1335 1471 1597
8 1469 1337 1472 1598 1595 1464 1336 1468
8 1471 1339 1474 1600 1335 1204 1338 1470
8 1600 1474 1367 1496 1470 1338 1235 1360
8 1336 1205 1340 1472 1471 1339 1475 1601
8 1337 1206 1341 1473 1472 1340 1476 1602
8 1495 1370 1478 1609 1361 1239 1342 1479
8 1348 1212 1342 1479 1483 1347 1478 1609
8 1481 1346 1479 1610 1345 1210 1343 1480
8 1481 1346 1228 1359 1610 1479 1361 1494
8 1484 1348 1214 1351 1610 1479 1343 1480
8 1483 1347 1482 1612 1350 1213 1349 1486
8 1484 1348 1483 1613 1351 1214 1350 1487
8 1353 1230 1360 1488 1489 1363 1496 1616
8 1490 1364 1231 1354 1617 1499 1363 1489
8 1490 1364 1499 1617 1355 1232 1365 1491
8 1356 1234 1365 1491 1492 1366 1500 1619
8 1492 1366 1498 1620 1357 1233 1362 1493
8 1494 1361 1228 1359 1621 1497 1362 1493
8 1495 1370 1239 1361 1622 1504 1371 1497
8 1363 1236 1367 1496 1499 1368 1501 1623
8 1497 1371 1240 1362 1624 1505 1372 1498
8 1625 1503 1372 1498 1500 1369 1241 1366
8 1365 1238 1368 1499 1500 1369 1502 1626
8 1520 1398 1506 1633 1388 1266 1373 1507
8 1634 1507 1374 1508 1512 1388 1255 1380
8 1509 1387 1519 1635 1377 1258 1391 1510
8 1405 1276 1406 1534 1509 1387 1519 1635
8 1515 1392 1260 1383 1636 1522 1390 1511
8 1511 1390 1259 1379 1636 1522 1391 1510
8 1385 1256 1389 1517 1512 1388 1520 1637
8 1513 1394 1262 1382 1638 1524 1393 1514
8 1395 1516 1638 1524 1263 1384 1513 1394
8 1515 1392 1523 1639 1383 1260 1393 1514
8 1516 1395 1526 1640 1386 1264 1396 1518
8 1386 1264 1396 1518 1517 1389 1521 1641
8 1519 1397 1527 1643 1391 1269 1400 1522
8 1535 1407 1527 1643 1406 1277 1397 1519
8 1389 1267 1399 1521 1520 1398 1528 1644
8 1645 1529 1399 1521 1525 1404 1274 1396
8 1392 1270 1400 1522 1523 1401 1531 1646
8 1524 1402 1271 1393 1648 1532 1401 1523
8 1403 1526 1648 1532 1273 1395 1524 1402
8 1525 1404 1274 1396 1649 1533 1403 1526
8 1539 1414 1535 1657 1411 1286 1406 1534
8 1542 1415 1536 1658 1414 1287 1407 1535
8 1409 1285 1412 1537 1538 1413 1540 1660
8 1545 1421 1540 1660 1418 1292 1412 1537
8 1539 1414 1286 1411 1661 1541 1413 1538
8 1540 1417 1544 1663 1413 1288 1416 1541
8 1421 1296 1425 1548 1540 1417 1544 1663
8 1542 1415 1287 1414 1664 1543 1416 1541
8 1420 1294 1423 1547 1545 1421 1548 1666
8 1547 1423 1293 1419 1667 1549 1422 1546
8 1434 1301 1427 1553 1546 1422 1549 1667
8 1423 1297 1424 1549 1548 1425 1550 1668
8 1551 1426 1550 1668 1427 1298 1424 1549
8 1551 1426 1298 1427 1671 1552 1428 1554
8 1562 1432 1554 1674 1434 1301 1427 1553
8 1431 1299 1429 1558 1554 1428 1555 1675
8 1431 1299 1430 1560 1558 1429 1557 1680
8 1560 1430 1300 1432 1683 1559 1433 1563
8 1561 1431 1554 1674 1684 1560 1432 1562
8 1685 1563 1432 1562 1565 1435 1301 1434
8 1435 1302 1436 1566 1563 1433 1564 1686
8 1437 1303 1438 1568 1565 1435 1566 1688
8 1438 1304 1439 1569 1566 1436 1567 1689
8 1440 1306 1441 1571 1568 1438 1569 1691
8 1441 1307 1442 1572 1569 1439 1570 1692
8 1443 1309 1444 1574 1571 1441 1572 1694
8 1310 1444 1572 1442 1445 1575 1695 1573
8 1446 1312 1447 1576 1574 1444 1575 1696
8 1486 1349 1485 1614 1579 1449 1577 1699
8 1451 1317 1449 1579 1581 1450 1578 1701
8 1487 1350 1486 1615 1582 1451 1579 1702
8 1581 1450 1580 1704 1453 1318 1452 1584
8 1582 1451 1581 1705 1454 1319 1453 1585
8 1584 1452 1583 1706 1456 1320 1455 1586
8 1585 1453 1584 1707 1457 1321 1456 1587
8 1587 1456 1586 1708 1458 1323 1459 1588
8 1633 1506 1589 1710 1507 1373 1461 1590
8 1464 1329 1461 1590 1594 1463 1589 1710
8 1468 1336 1462 1591 1595 1464 1590 1711
8 1634 1507 1590 1711 1508 1374 1462 1591
8 1473 1341 1463 1594 1603 1477 1593 1716
8 1469 1337 1464 1595 1599 1473 1594 1717
8 1471 1597 1467 1335 1600 1718 1596 1470
8 1718 1600 1496 1616 1596 1470 1360 1488
8 1336 1468 1597 1471 1472 1598 1719 1601
8 1469 1337 1473 1599 1598 1472 1602 1720
8 1722 1604 1501 1623 1600 1474 1367 1496
8 1475 1601 1471 1339 1604 1722 1600 1474
8 1602 1476 1605 1723 1472 1340 1475 1601
8 1476 1602 1724 1606 1341 1473 1603 1477
8 1483 1347 1478 1609 1612 1482 1608 1731
8 1495 1370 1504 1622 1609 1478 1608 1731
8 1618 1495 1609 1732 1494 1361 1479 1610
8 1484 1348 1479 1610 1613 1483 1609 1732
8 1486 1349 1482 1612 1614 1485 1611 1733
8 1613 1483 1612 1734 1487 1350 1486 1615
8 1489 1363 1496 1616 1617 1499 1623 1736
8 1491 1365 1499 1617 1619 1500 1626 1737
8 1618 1495 1361 1494 1738 1622 1497 1621
8 1739 1625 1498 1620 1619 1500 1366 1492
8 1621 1497 1362 1493 1740 1624 1498 1620
8 1742 1631 1504 1622 1624 1505 1371 1497
8 1743 1628 1502 1626 1623 1501 1368 1499
8 1744 1630 1505 1624 1625 1503 1372 1498
8 1745 1629 1503 1625 1626 1502 1369 1500
8 1520 1398 1528 1644 1633 1506 1632 1751
8 1637 1520 1633 1752 1512 1388 1507 1634
8 1635 1519 1643 1753 1510 1391 1522 1636
8 1657 1535 1643 1753 1534 1406 1519 1635
8 1515 1392 1522 1636 1639 1523 1646 1754
8 1517 1389 1521 1641 1637 1520 1644 1755
8 1524 1638 1756 1648 1393 1514 1639 1523
8 1640 1526 1395 1516 1756 1648 1524 1638
8 1642 1525 1396 1518 1757 1649 1526 1640
8 1758 1645 1521 1641 1642 1525 1396 1518
8 1646 1531 1400 1522 1760 1650 1527 1643
8 1535 1407 1536 1658 1643 1527 1650 1760
8 1521 1399 1529 1645 1644 1528 1651 1761
8 1647 1530 1652 1762 1525 1404 1529 1645
8 1401 1523 1648 1532 1531 1646 1763 1655
8 1525 1404 1533 1649 1647 1530 1654 1765
8 1533 1649 1766 1656 1403 1526 1648 1532
8 1662 1542 1658 1774 1539 1414 1535 1657
8 1542 1415 1543 1664 1658 1536 1659 1775
8 1660 1540 1663 1777 1538 1413 1541 1661
8 1545 1421 1548 1666 1660 1540 1663 1777
8 1662 1542 1414 1539 1778 1664 1541 1661
8 1664 1543 1416 1541 1779 1665 1544 1663
8 1548 1425 1550 1668 1663 1544 1665 1779
8 1547 1423 1549 1667 1666 1548 1668 1781
8 1670 1551 1668 1781 1553 1427 1549 1667
8 1551 1426 1552 1671 1668 1550 1669 1782
8 1670 1551 1427 1553 1784 1671 1554 1674
8 1675 1555 1672 1785 1554 1428 1552 1671
8 1678 1556 1673 1789 1558 1429 1555 1675
8 1561 1431 1558 1681 1674 1554 1675 1790
8 1794 1677 1556 1678 1680 1557 1429 1558
8 1560 1430 1559 1683 1680 1557 1679 1797
8 1561 1431 1560 1684 1681 1558 1680 1798
8 1563 1433 1564 1686 1683 1559 1682 1800
8 1684 1560 1432 1562 1801 1683 1563 1685
8 1565 1435 1566 1688 1685 1563 1686 1802
8 1566 1436 1567 1689 1686 1564 1687 1803
8 1568 1438 1569 1691 1688 1566 1689 1805
8 1569 1439 1570 1692 1689 1567 1690 1806
8 1571 1441 1572 1694 1691 1569 1692 1808
8 1442 1572 1692 1570 1573 1695 1809 1693
8 1574 1444 1575 1696 1694 1572 1695 1810
8 1614 1485 1592 1712 1699 1577 1697 1813
8 1579 1449 1577 1699 1701 1578 1698 1815
8 1615 1486 1614 1735 1702 1579 1699 1816
8 1701 1578 1700 1818 1581 1450 1580 1704
8 1582 1451 1579 1702 1705 1581 1701 1819
8 1704 1580 1703 1820 1584 1452 1583 1706
8 1705 1581 1704 1821 1585 1453 1584 1707
8 1707 1584 1706 1822 1587 1456 1586 1708
8 1710 1589 1506 1633 1824 1709 1632 1751
8 1594 1463 1589 1710 1716 1593 1709 1824
8 1752 1633 1710 1825 1634 1507 1590 1711
8 1595 1464 1590 1711 1717 1594 1710 1825
8 1830 1714 1592 1712 1733 1611 1485 1614
8 1603 1477 1593 1716 1725 1607 1715 1834
8 1599 1473 1594 1717 1721 1603 1716 1835
8 1837 1722 1623 1736 1718 1600 1496 1616
8 1719 1601 1722 1837 1597 1471 1600 1718
8 1602 1720 1598 1472 1723 1838 1719 1601
8 1720 1602 1473 1599 1839 1724 1603 1721
8 1723 1605 1726 1840 1601 1475 1604 1722
8 1840 1726 1628 1743 1722 1604 1501 1623
8 1724 1606 1727 1841 1602 1476 1605 1723
8 1725 1607 1728 1842 1603 1477 1606 1724
8 1612 1482 1608 1731 1733 1611 1730 1849
8 1741 1627 1730 1849 1622 1504 1608 1731
8 1613 1483 1609 1732 1734 1612 1731 1850
8 1618 1495 1622 1738 1732 1609 1731 1850
8 1615 1486 1612 1734 1735 1614 1733 1851
8 1852 1743 1626 1737 1736 1623 1499 1617
8 1853 1745 1625 1739 1737 1626 1500 1619
8 1855 1742 1622 1738 1740 1624 1497 1621
8 1856 1744 1624 1740 1739 1625 1498 1620
8 1741 1627 1504 1622 1857 1746 1631 1742
8 1742 1631 1505 1624 1858 1749 1630 1744
8 1859 1747 1629 1745 1743 1628 1502 1626
8 1860 1748 1630 1744 1745 1629 1503 1625
8 1644 1528 1651 1761 1751 1632 1750 1865
8 1637 1520 1644 1755 1752 1633 1751 1866
8 1754 1646 1522 1636 1867 1760 1643 1753
8 1657 1535 1658 1774 1753 1643 1760 1867
8 1639 1523 1646 1754 1756 1648 1763 1868
8 1641 1521 1645 1758 1755 1644 1761 1869
8 1757 1649 1526 1640 1870 1766 1648 1756
8 1642 1525 1649 1757 1759 1647 1765 1871
8 1759 1647 1762 1872 1642 1525 1645 1758
8 1760 1650 1767 1874 1646 1531 1655 1763
8 1658 1536 1659 1775 1760 1650 1767 1874
8 1762 1652 1768 1875 1645 1529 1651 1761
8 1764 1653 1769 1876 1647 1530 1652 1762
8 1656 1766 1877 1773 1532 1648 1763 1655
8 1771 1879 1765 1654 1653 1764 1647 1530
8 1533 1649 1765 1654 1656 1766 1880 1772
8 1662 1542 1664 1778 1774 1658 1775 1887
8 1664 1543 1665 1779 1775 1659 1776 1888
8 1778 1664 1541 1661 1890 1779 1663 1777
8 1666 1548 1668 1781 1777 1663 1779 1890
8 1782 1669 1780 1891 1668 1550 1665 1779
8 1670 1551 1671 1784 1781 1668 1782 1893
8 1671 1552 1672 1785 1782 1669 1783 1894
8 1790 1675 1785 1896 1674 1554 1671 1784
8 1675 1555 1673 1789 1785 1672 1786 1897
8 1792 1676 1788 1903 1678 1556 1673 1789
8 1795 1678 1789 1904 1681 1558 1675 1790
8 1792 1676 1556 1678 1906 1791 1677 1794
8 1680 1557 1679 1797 1794 1677 1793 1909
8 1910 1794 1678 1795 1798 1680 1558 1681
8 1683 1559 1682 1800 1797 1679 1796 1912
8 1684 1560 1683 1801 1798 1680 1797 1913
8 1686 1564 1687 1803 1800 1682 1799 1915
8 1685 1563 1686 1802 1801 1683 1800 1916
8 1688 1566 1689 1805 1802 1686 1803 1917
8 1689 1567 1690 1806 1803 1687 1804 1918
8 1691 1569 1692 1808 1805 1689 1806 1920
8 1692 1570 1693 1809 1806 1690 1807 1921
8 1694 1572 1695 1810 1808 1692 1809 1922
8 1829 1713 1811 1926 1712 1592 1697 1813
8 1813 1697 1812 1928 1699 1577 1698 1815
8 1735 1614 1712 1828 1816 1699 1813 1929
8 1815 1698 1814 1931 1701 1578 1700 1818
8 1702 1579 1699 1816 1819 1701 1815 1932
8 1818 1700 1817 1933 1704 1580 1703 1820
8 1819 1701 1818 1934 1705 1581 1704 1821
8 1821 1704 1820 1935 1707 1584 1706 1822
8 1824 1709 1632 1751 1937 1823 1750 1865
8 1716 1593 1709 1824 1834 1715 1823 1937
8 1825 1710 1633 1752 1938 1824 1751 1866
8 1717 1594 1710 1825 1835 1716 1824 1938
8 1945 1830 1712 1828 1851 1733 1614 1735
8 1830 1714 1831 1946 1712 1592 1713 1829
8 1947 1832 1714 1830 1849 1730 1611 1733
8 1843 1729 1607 1725 1950 1833 1715 1834
8 1721 1603 1716 1835 1836 1725 1834 1951
8 1836 1725 1842 1953 1721 1603 1724 1839
8 1723 1838 1719 1601 1840 1954 1837 1722
8 1954 1840 1743 1852 1837 1722 1623 1736
8 1724 1839 1720 1602 1841 1955 1838 1723
8 1841 1727 1844 1956 1723 1605 1726 1840
8 1956 1844 1747 1859 1840 1726 1628 1743
8 1728 1842 1724 1606 1845 1957 1841 1727
8 1725 1607 1729 1843 1842 1728 1846 1958
8 1741 1627 1746 1857 1849 1730 1848 1965
8 1734 1612 1731 1850 1851 1733 1849 1966
8 1854 1741 1849 1966 1738 1622 1731 1850
8 1967 1859 1745 1853 1852 1743 1626 1737
8 1968 1860 1744 1856 1853 1745 1625 1739
8 1854 1741 1622 1738 1969 1857 1742 1855
8 1855 1742 1624 1740 1970 1858 1744 1856
8 1857 1746 1631 1742 1971 1861 1749 1858
8 1858 1749 1630 1744 1972 1863 1748 1860
8 1859 1747 1862 1973 1745 1629 1748 1860
8 1875 1768 1864 1977 1761 1651 1750 1865
8 1755 1644 1761 1869 1866 1751 1865 1978
8 1867 1760 1874 1979 1754 1646 1763 1868
8 1774 1658 1775 1887 1867 1760 1874 1979
8 1870 1766 1648 1756 1980 1877 1763 1868
8 1872 1762 1875 1981 1758 1645 1761 1869
8 1757 1649 1766 1870 1871 1765 1880 1982
8 1983 1879 1764 1873 1871 1765 1647 1759
8 1873 1764 1876 1984 1759 1647 1762 1872
8 1877 1773 1655 1763 1986 1881 1767 1874
8 1775 1659 1776 1888 1874 1767 1881 1986
8 1876 1769 1882 1987 1762 1652 1768 1875
8 1878 1770 1883 1988 1764 1653 1769 1876
8 1880 1772 1656 1766 1989 1886 1773 1877
8 1878 1770 1653 1764 1990 1884 1771 1879
8 1765 1654 1772 1880 1879 1771 1885 1991
8 1778 1664 1779 1890 1887 1775 1888 1997
8 1998 1889 1776 1888 1891 1780 1665 1779
8 1893 1782 1891 2000 1781 1668 1779 1890
8 1894 1783 1892 2001 1782 1669 1780 1891
8 1784 1671 1785 1896 1893 1782 1894 2003
8 1897 1786 1895 2004 1785 1672 1783 1894
8 1790 1675 1789 1904 1896 1785 1897 2006
8 1901 1787 1898 2007 1789 1673 1786 1897
8 1903 1788 1900 2013 1789 1673 1787 1901
8 1792 1676 1791 1906 1903 1788 1902 2016
8 1907 1792 1903 2017 1795 1678 1789 1904
8 1906 1791 1677 1794 2019 1905 1793 1909
8 1907 1792 1678 1795 2020 1906 1794 1910
8 1797 1679 1796 1912 1909 1793 1908 2022
8 1798 1680 1797 1913 1910 1794 1909 2023
8 1800 1682 1799 1915 1912 1796 1911 2025
8 1801 1683 1800 1916 1913 1797 1912 2026
8 1803 1687 1804 1918 1915 1799 1914 2028
8 1802 1686 1803 1917 1916 1800 1915 2029
8 1805 1689 1806 1920 1917 1803 1918 2030
8 1806 1690 1807 1921 1918 1804 1919 2031
8 1808 1692 1809 1922 1920 1806 1921 2032
8 1939 1826 1924 2037 1829 1713 1811 1926
8 1926 1811 1925 2039 1813 1697 1812 1928
8 1944 1829 1926 2040 1828 1712 1813 1929
8 1928 1812 1927 2042 1815 1698 1814 1931
8 1929 1813 1928 2043 1816 1699 1815 1932
8 1931 1814 1930 2044 1818 1700 1817 1933
8 1932 1815 1931 2045 1819 1701 1818 1934
8 1934 1818 1933 2046 1821 1704 1820 1935
8 2048 1936 1823 1937 1977 1864 1750 1865
8 1950 1833 1715 1834 2048 1936 1823 1937
8 1938 1824 1751 1866 2049 1937 1865 1978
8 1835 1716 1824 1938 1951 1834 1937 2049
8 1939 1826 1713 1829 2053 1942 1831 1946
8 1940 1827 1923 2035 2053 1942 1826 1939
8 1945 1830 1946 2058 1828 1712 1829 1944
8 2059 1947 1830 1945 1966 1849 1733 1851
8 1947 1832 1730 1849 2060 1948 1848 1965
8 1947 1832 1948 2060 1830 1714 1831 1946
8 1959 1847 1729 1843 2063 1949 1833 1950
8 1952 1843 1725 1836 2064 1950 1834 1951
8 1836 1725 1843 1952 1953 1842 1958 2066
8 1953 1842 1957 2067 1839 1724 1841 1955
8 1841 1955 1838 1723 1956 2068 1954 1840
8 2068 1956 1859 1967 1954 1840 1743 1852
8 1956 1844 1960 2069 1859 1747 1862 1973
8 1845 1957 1841 1727 1960 2069 1956 1844
8 1728 1842 1957 1845 1846 1958 2071 1961
8 1962 2072 1959 1847 1846 1958 1843 1729
8 1971 1861 1964 2077 1857 1746 1848 1965
8 1854 1741 1857 1969 1966 1849 1965 2078
8 1967 1859 1973 2079 1853 1745 1860 1968
8 1970 1858 1744 1856 2080 1972 1860 1968
8 1969 1857 1742 1855 2081 1971 1858 1970
8 1971 1861 1749 1858 2082 1974 1863 1972
8 1973 1862 1975 2083 1860 1748 1863 1972
8 1987 1882 1976 2086 1875 1768 1864 1977
8 1981 1875 1977 2087 1869 1761 1865 1978
8 1980 1877 1763 1868 2088 1986 1874 1979
8 1887 1775 1888 1997 1979 1874 1986 2088
8 1880 1982 2089 1989 1766 1870 1980 1877
8 1984 1876 1987 2090 1872 1762 1875 1981
8 1765 1871 1983 1879 1880 1982 2091 1991
8 1985 1878 1764 1873 2092 1990 1879 1983
8 1985 1878 1988 2093 1873 1764 1876 1984
8 2094 1992 1881 1986 1998 1889 1776 1888
8 1986 1881 1992 2094 1877 1773 1886 1989
8 1988 1883 1993 2095 1876 1769 1882 1987
8 1878 1770 1884 1990 1988 1883 1994 2096
8 1991 1885 1772 1880 2097 1996 1886 1989
8 1879 1771 1885 1991 1990 1884 1995 2098
8 2103 1998 1888 1997 2000 1891 1779 1890
8 2104 1999 1889 1998 2001 1892 1780 1891
8 2003 1894 2001 2106 1893 1782 1891 2000
8 2004 1895 2002 2107 1894 1783 1892 2001
8 2006 1897 2004 2109 1896 1785 1894 2003
8 2007 1898 2005 2110 1897 1786 1895 2004
8 2014 1901 2007 2112 1904 1789 1897 2006
8 2011 1899 2008 2113 1901 1787 1898 2007
8 2119 2010 1899 2011 2013 1900 1787 1901
8 2016 1902 2012 2122 1903 1788 1900 2013
8 2017 1903 2013 2123 1904 1789 1901 2014
8 1906 1791 1905 2019 2016 1902 2015 2125
8 1907 1792 1906 2020 2017 1903 2016 2126
8 1909 1793 1908 2022 2019 1905 2018 2128
8 2020 1906 1794 1910 2129 2019 1909 2023
8 1912 1796 1911 2025 2022 1908 2021 2131
8 1913 1797 1912 2026 2023 1909 2022 2132
8 1915 1799 1914 2028 2025 1911 2024 2134
8 1916 1800 1915 2029 2026 1912 2025 2135
8 1918 1804 1919 2031 2028 1914 2027 2136
8 1917 1803 1918 2030 2029 1915 2028 2137
8 1920 1806 1921 2032 2030 1918 2031 2138
8 1940 1827 1941 2054 2035 1923 2033 2140
8 2035 1923 2034 2143 1939 1826 1924 2037
8 2037 1924 2036 2146 1926 1811 1925 2039
8 2051 1939 2037 2147 1944 1829 1926 2040
8 2039 1925 2038 2149 1928 1812 1927 2042
8 2040 1926 2039 2150 1929 1813 1928 2043
8 2042 1927 2041 2151 1931 1814 1930 2044
8 2043 1928 2042 2152 1932 1815 1931 2045
8 2045 1931 2044 2153 1934 1818 1933 2046
8 2155 2047 1936 2048 2086 1976 1864 1977
8 2063 1949 1833 1950 2155 2047 1936 2048
8 2156 2048 1937 2049 2087 1977 1865 1978
8 2064 1950 1834 1951 2156 2048 1937 2049
8 2051 1939 1829 1944 2160 2053 1946 2058
8 2052 1940 2035 2144 2160 2053 1939 2051
8 2053 1942 1831 1946 2163 2057 1948 2060
8 2055 1943 1827 1940 2163 2057 1942 2053
8 2055 1943 2056 2164 1940 1827 1941 2054
8 2059 1947 1849 1966 2167 2060 1965 2078
8 2059 1947 2060 2167 1945 1830 1946 2058
8 2077 1964 2061 2168 1965 1848 1948 2060
8 2070 1963 1847 1959 2170 2062 1949 2063
8 2065 1959 1843 1952 2171 2063 1950 2064
8 2173 2072 1958 2066 2065 1959 1843 1952
8 1953 1842 1958 2066 2067 1957 2071 2174
8 2068 1956 2069 2175 1967 1859 1973 2079
8 2067 1957 2069 2175 1955 1841 1956 2068
8 1845 1957 2069 1960 1961 2071 2176 2073
8 2069 1960 2073 2176 1973 1862 1975 2083
8 2070 1963 2075 2177 1959 1847 1962 2072
8 1846 1958 2071 1961 1962 2072 2178 2074
8 2077 1964 1861 1971 2182 2076 1974 2082
8 2081 1971 2077 2183 1969 1857 1965 2078
8 2079 1973 2083 2184 1968 1860 1972 2080
8 2081 1971 1858 1970 2185 2082 1972 2080
8 2083 1975 2084 2186 1972 1863 1974 2082
8 2086 1976 1882 1987 2189 2085 1993 2095
8 2090 1987 2086 2190 1981 1875 1977 2087
8 2191 2094 1986 2088 2103 1998 1888 1997
8 2088 1986 2094 2191 1980 1877 1989 2089
8 1991 2091 2192 2097 1880 1982 2089 1989
8 2093 1988 2095 2193 1984 1876 1987 2090
8 1879 1983 2092 1990 1991 2091 2194 2098
8 1985 1878 1990 2092 2093 1988 2096 2195
8 2097 1996 1886 1989 2196 2099 1992 2094
8 2196 2099 1992 2094 2104 1999 1889 1998
8 1994 2096 1988 1883 2100 2197 2095 1993
8 2096 1994 1884 1990 2198 2101 1995 2098
8 1995 2098 2199 2102 1885 1991 2097 1996
8 2203 2104 1998 2103 2106 2001 1891 2000
8 2107 2002 2105 2204 2001 1892 1999 2104
8 2109 2004 2107 2206 2003 1894 2001 2106
8 2110 2005 2108 2207 2004 1895 2002 2107
8 2112 2007 2110 2209 2006 1897 2004 2109
8 2113 2008 2111 2210 2007 1898 2005 2110
8 2120 2011 2113 2212 2014 1901 2007 2112
8 2117 2009 2114 2213 2011 1899 2008 2113
8 2219 2116 2009 2117 2119 2010 1899 2011
8 2222 2118 2010 2119 2122 2012 1900 2013
8 2223 2119 2011 2120 2123 2013 1901 2014
8 2016 1902 2015 2125 2122 2012 2121 2225
8 2126 2016 2122 2226 2017 1903 2013 2123
8 2019 1905 2018 2128 2125 2015 2124 2228
8 2020 1906 2019 2129 2126 2016 2125 2229
8 2022 1908 2021 2131 2128 2018 2127 2231
8 2023 1909 2022 2132 2129 2019 2128 2232
8 2025 1911 2024 2134 2131 2021 2130 2234
8 2026 1912 2025 2135 2132 2022 2131 2235
8 1914 2028 2134 2024 2027 2136 2236 2133
8 2029 1915 2028 2137 2135 2025 2134 2237
8 2030 1918 2031 2138 2137 2028 2136 2238
8 2157 2050 2139 2240 2054 1941 2033 2140
8 2052 1940 2054 2161 2144 2035 2140 2242
8 2140 2033 2141 2243 2035 1923 2034 2143
8 2143 2034 2142 2246 2037 1924 2036 2146
8 2144 2035 2143 2247 2051 1939 2037 2147
8 2146 2036 2145 2249 2039 1925 2038 2149
8 2147 2037 2146 2250 2040 1926 2039 2150
8 2149 2038 2148 2251 2042 1927 2041 2151
8 2150 2039 2149 2252 2043 1928 2042 2152
8 2152 2042 2151 2253 2045 1931 2044 2153
8 2255 2154 2047 2155 2189 2085 1976 2086
8 2170 2062 1949 2063 2255 2154 2047 2155
8 2256 2155 2048 2156 2190 2086 1977 2087
8 2171 2063 1950 2064 2256 2155 2048 2156
8 2258 2159 2050 2157 2164 2056 1941 2054
8 2160 2053 1946 2058 2262 2163 2060 2167
8 2162 2055 1940 2052 2262 2163 2053 2160
8 2162 2055 2164 2263 2052 1940 2054 2161
8 2163 2057 1948 2060 2264 2165 2061 2168
8 2055 1943 2057 2163 2164 2056 2165 2264
8 2182 2076 2166 2268 2077 1964 2061 2168
8 2183 2077 2168 2269 2078 1965 2060 2167
8 2070 1963 2062 2170 2177 2075 2169 2271
8 2172 2070 1959 2065 2272 2170 2063 2171
8 2172 2070 2177 2273 2065 1959 2072 2173
8 2066 1958 2072 2173 2174 2071 2178 2274
8 2067 1957 2071 2174 2175 2069 2176 2275
8 2175 2069 2176 2275 2079 1973 2083 2184
8 2071 1961 2074 2178 2176 2073 2179 2276
8 2176 2073 2179 2276 2083 1975 2084 2186
8 2072 1962 2075 2177 2178 2074 2180 2277
8 2182 2076 1974 2082 2280 2181 2084 2186
8 2183 2077 1971 2081 2281 2182 2082 2185
8 2184 2083 2186 2282 2080 1972 2082 2185
8 2189 2085 1993 2095 2285 2188 2100 2197
8 2190 2086 1987 2090 2286 2189 2095 2193
8 2192 2097 1989 2089 2287 2196 2094 2191
8 2287 2196 2094 2191 2203 2104 1998 2103
8 2194 2098 1991 2091 2288 2199 2097 2192
8 2195 2096 2197 2289 2093 1988 2095 2193
8 2096 2195 2290 2198 1990 2092 2194 2098
8 2097 1996 2099 2196 2199 2102 2200 2291
8 2196 2099 1999 2104 2291 2200 2105 2204
8 2100 2197 2292 2201 1994 2096 2198 2101
8 1995 2098 2198 2101 2102 2199 2293 2202
8 2206 2107 2204 2296 2106 2001 2104 2203
8 2207 2108 2205 2297 2107 2002 2105 2204
8 2209 2110 2207 2299 2109 2004 2107 2206
8 2210 2111 2208 2300 2110 2005 2108 2207
8 2212 2113 2210 2302 2112 2007 2110 2209
8 2213 2114 2211 2303 2113 2008 2111 2210
8 2220 2117 2213 2305 2120 2011 2113 2212
8 2216 2115 2214 2306 2117 2009 2114 2213
8 2216 2115 2009 2117 2311 2217 2116 2219
8 2219 2116 2010 2119 2314 2218 2118 2222
8 2315 2219 2117 2220 2223 2119 2011 2120
8 2122 2012 2121 2225 2222 2118 2221 2317
8 2318 2222 2119 2223 2226 2122 2013 2123
8 2125 2015 2124 2228 2225 2121 2224 2320
8 2126 2016 2125 2229 2226 2122 2225 2321
8 2128 2018 2127 2231 2228 2124 2227 2323
8 2129 2019 2128 2232 2229 2125 2228 2324
8 2131 2021 2130 2234 2231 2127 2230 2326
8 2132 2022 2131 2235 2232 2128 2231 2327
8 2134 2024 2133 2236 2234 2130 2233 2328
8 2135 2025 2134 2237 2235 2131 2234 2329
8 2137 2028 2136 2238 2237 2134 2236 2330
8 2157 2050 2158 2259 2240 2139 2239 2332
8 2257 2157 2240 2334 2161 2054 2140 2242
8 2240 2139 2241 2335 2140 2033 2141 2243
8 2242 2140 2243 2337 2144 2035 2143 2247
8 2243 2141 2244 2338 2143 2034 2142 2246
8 2246 2142 2245 2341 2146 2036 2145 2249
8 2247 2143 2246 2342 2147 2037 2146 2250
8 2249 2145 2248 2343 2149 2038 2148 2251
8 2250 2146 2249 2344 2150 2039 2149 2252
8 2252 2149 2251 2345 2152 2042 2151 2253
8 2169 2271 2347 2254 2062 2170 2255 2154
8 2189 2085 2188 2285 2255 2154 2254 2347
8 2348 2255 2155 2256 2286 2189 2086 2190
8 2272 2170 2063 2171 2348 2255 2155 2256
8 2349 2258 2157 2257 2263 2164 2054 2161
8 2258 2159 2261 2351 2157 2050 2158 2259
8 2258 2159 2056 2164 2351 2261 2165 2264
8 2262 2163 2060 2167 2355 2264 2168 2269
8 2162 2055 2163 2262 2263 2164 2264 2355
8 2357 2266 2165 2264 2268 2166 2061 2168
8 2268 2166 2076 2182 2361 2267 2181 2280
8 2281 2182 2268 2362 2183 2077 2168 2269
8 2271 2169 2270 2364 2177 2075 2180 2277
8 2172 2070 2170 2272 2273 2177 2271 2365
8 2072 2173 2274 2178 2177 2273 2366 2277
8 2071 2174 2275 2176 2178 2274 2367 2276
8 2275 2176 2276 2367 2184 2083 2186 2282
8 2283 2187 2084 2186 2368 2278 2179 2276
8 2178 2074 2180 2277 2276 2179 2278 2368
8 2283 2187 2279 2370 2186 2084 2181 2280
8 2281 2182 2082 2185 2371 2280 2186 2282
8 2188 2285 2374 2284 2100 2197 2292 2201
8 2286 2189 2095 2193 2375 2285 2197 2289
8 2192 2097 2196 2287 2288 2199 2291 2376
8 2287 2196 2104 2203 2376 2291 2204 2296
8 2194 2098 2199 2288 2290 2198 2293 2377
8 2289 2197 2096 2195 2378 2292 2198 2290
8 2291 2200 2105 2204 2379 2294 2205 2297
8 2199 2102 2200 2291 2293 2202 2294 2379
8 2198 2101 2202 2293 2292 2201 2295 2380
8 2299 2207 2297 2383 2206 2107 2204 2296
8 2300 2208 2298 2384 2207 2108 2205 2297
8 2302 2210 2300 2386 2209 2110 2207 2299
8 2303 2211 2301 2387 2210 2111 2208 2300
8 2305 2213 2303 2389 2212 2113 2210 2302
8 2306 2214 2304 2390 2213 2114 2211 2303
8 2310 2216 2306 2392 2220 2117 2213 2305
8 2308 2215 2307 2393 2216 2115 2214 2306
8 2308 2215 2115 2216 2396 2309 2217 2311
8 2310 2216 2117 2220 2398 2311 2219 2315
8 2311 2217 2116 2219 2399 2312 2218 2314
8 2314 2218 2118 2222 2402 2313 2221 2317
8 2315 2219 2119 2223 2403 2314 2222 2318
8 2225 2121 2224 2320 2317 2221 2316 2405
8 2226 2122 2225 2321 2318 2222 2317 2406
8 2228 2124 2227 2323 2320 2224 2319 2408
8 2229 2125 2228 2324 2321 2225 2320 2409
8 2231 2127 2230 2326 2323 2227 2322 2411
8 2232 2128 2231 2327 2324 2228 2323 2412
8 2234 2130 2233 2328 2326 2230 2325 2413
8 2235 2131 2234 2329 2327 2231 2326 2414
8 2237 2134 2236 2330 2329 2234 2328 2415
8 2259 2158 2260 2352 2332 2239 2331 2417
8 2257 2157 2259 2350 2334 2240 2332 2419
8 2240 2139 2239 2332 2335 2241 2333 2420
8 2334 2240 2335 2422 2242 2140 2243 2337
8 2335 2241 2336 2423 2243 2141 2244 2338
8 2337 2243 2338 2425 2247 2143 2246 2342
8 2338 2244 2339 2426 2246 2142 2245 2341
8 2341 2245 2340 2428 2249 2145 2248 2343
8 2342 2246 2341 2429 2250 2146 2249 2344
8 2344 2249 2343 2430 2252 2149 2251 2345
8 2188 2285 2347 2254 2284 2374 2432 2346
8 2347 2254 2346 2432 2271 2169 2270 2364
8 2365 2271 2170 2272 2433 2347 2255 2348
8 2286 2189 2285 2375 2348 2255 2347 2433
8 2349 2258 2351 2435 2257 2157 2259 2350
8 2349 2258 2164 2263 2435 2351 2264 2355
8 2259 2158 2261 2351 2352 2260 2354 2437
8 2356 2265 2354 2437 2264 2165 2261 2351
8 2441 2357 2264 2355 2362 2268 2168 2269
8 2356 2265 2165 2264 2442 2358 2266 2357
8 2443 2359 2266 2357 2361 2267 2166 2268
8 2370 2279 2360 2446 2280 2181 2267 2361
8 2362 2268 2182 2281 2447 2361 2280 2371
8 2180 2277 2368 2278 2270 2364 2449 2363
8 2271 2365 2273 2177 2364 2450 2366 2277
8 2372 2283 2186 2282 2451 2368 2276 2367
8 2178 2274 2367 2276 2277 2366 2451 2368
8 2283 2187 2278 2368 2370 2279 2369 2452
8 2372 2283 2370 2453 2282 2186 2280 2371
8 2284 2374 2455 2373 2201 2292 2380 2295
8 2375 2285 2197 2289 2456 2374 2292 2378
8 2376 2291 2204 2296 2457 2379 2297 2383
8 2288 2199 2291 2376 2377 2293 2379 2457
8 2198 2290 2378 2292 2293 2377 2458 2380
8 2293 2202 2294 2379 2380 2295 2381 2459
8 2384 2298 2381 2459 2297 2205 2294 2379
8 2386 2300 2384 2463 2299 2207 2297 2383
8 2387 2301 2385 2464 2300 2208 2298 2384
8 2389 2303 2387 2466 2302 2210 2300 2386
8 2390 2304 2388 2467 2303 2211 2301 2387
8 2392 2306 2390 2469 2305 2213 2303 2389
8 2393 2307 2391 2470 2306 2214 2304 2390
8 2395 2308 2393 2472 2310 2216 2306 2392
8 2308 2215 2309 2396 2393 2307 2394 2473
8 2395 2308 2216 2310 2475 2396 2311 2398
8 2396 2309 2217 2311 2476 2397 2312 2399
8 2398 2311 2219 2315 2478 2399 2314 2403
8 2399 2312 2218 2314 2479 2400 2313 2402
8 2317 2221 2316 2405 2402 2313 2401 2482
8 2403 2314 2222 2318 2483 2402 2317 2406
8 2320 2224 2319 2408 2405 2316 2404 2485
8 2321 2225 2320 2409 2406 2317 2405 2486
8 2323 2227 2322 2411 2408 2319 2407 2488
8 2324 2228 2323 2412 2409 2320 2408 2489
8 2326 2230 2325 2413 2411 2322 2410 2490
8 2327 2231 2326 2414 2412 2323 2411 2491
8 2329 2234 2328 2415 2414 2326 2413 2492
8 2417 2331 2260 2352 2494 2416 2353 2438
8 2350 2259 2352 2436 2419 2332 2417 2496
8 2332 2239 2331 2417 2420 2333 2418 2497
8 2334 2240 2332 2419 2422 2335 2420 2499
8 2420 2333 2421 2500 2335 2241 2336 2423
8 2422 2335 2423 2502 2337 2243 2338 2425
8 2423 2336 2424 2503 2338 2244 2339 2426
8 2425 2338 2426 2505 2342 2246 2341 2429
8 2426 2339 2427 2506 2341 2245 2340 2428
8 2429 2341 2428 2507 2344 2249 2343 2430
8 2432 2346 2284 2374 2509 2431 2373 2455
8 2432 2346 2431 2509 2364 2270 2363 2449
8 2375 2285 2374 2456 2433 2347 2432 2510
8 2347 2433 2365 2271 2432 2510 2450 2364
8 2350 2259 2351 2435 2436 2352 2437 2514
8 2440 2356 2437 2514 2355 2264 2351 2435
8 2352 2260 2354 2437 2438 2353 2439 2516
8 2356 2265 2358 2442 2437 2354 2439 2516
8 2440 2356 2264 2355 2518 2442 2357 2441
8 2519 2443 2357 2441 2447 2361 2268 2362
8 2443 2359 2444 2520 2357 2266 2358 2442
8 2443 2359 2267 2361 2520 2444 2360 2446
8 2446 2360 2279 2370 2523 2445 2369 2452
8 2453 2370 2446 2524 2371 2280 2361 2447
8 2449 2363 2448 2525 2368 2278 2369 2452
8 2366 2277 2364 2450 2451 2368 2449 2526
8 2372 2283 2368 2451 2453 2370 2452 2527
8 2455 2373 2295 2380 2529 2454 2382 2460
8 2456 2374 2292 2378 2530 2455 2380 2458
8 2377 2293 2379 2457 2458 2380 2459 2531
8 2463 2384 2459 2531 2383 2297 2379 2457
8 2533 2461 2382 2460 2459 2381 2295 2380
8 2464 2385 2461 2533 2384 2298 2381 2459
8 2466 2387 2464 2537 2386 2300 2384 2463
8 2467 2388 2465 2538 2387 2301 2385 2464
8 2469 2390 2467 2540 2389 2303 2387 2466
8 2470 2391 2468 2541 2390 2304 2388 2467
8 2472 2393 2470 2543 2392 2306 2390 2469
8 2393 2307 2394 2473 2470 2391 2471 2544
8 2395 2308 2396 2475 2472 2393 2473 2546
8 2396 2309 2397 2476 2473 2394 2474 2547
8 2475 2396 2311 2398 2549 2476 2399 2478
8 2476 2397 2312 2399 2550 2477 2400 2479
8 2478 2399 2314 2403 2552 2479 2402 2483
8 2479 2400 2313 2402 2553 2480 2401 2482
8 2405 2316 2404 2485 2482 2401 2481 2556
8 2406 2317 2405 2486 2483 2402 2482 2557
8 2408 2319 2407 2488 2485 2404 2484 2559
8 2409 2320 2408 2489 2486 2405 2485 2560
8 2411 2322 2410 2490 2488 2407 2487 2561
8 2412 2323 2411 2491 2489 2408 2488 2562
8 2414 2326 2413 2492 2491 2411 2490 2563
8 2513 2434 2493 2565 2438 2353 2416 2494
8 2496 2417 2352 2436 2567 2494 2438 2515
8 2494 2416 2495 2568 2417 2331 2418 2497
8 2419 2332 2417 2496 2499 2420 2497 2570
8 2497 2418 2498 2571 2420 2333 2421 2500
8 2499 2420 2500 2573 2422 2335 2423 2502
8 2500 2421 2501 2574 2423 2336 2424 2503
8 2502 2423 2503 2576 2425 2338 2426 2505
8 2503 2424 2504 2577 2426 2339 2427 2506
8 2505 2426 2506 2578 2429 2341 2428 2507
8 2509 2431 2373 2455 2580 2508 2454 2529
8 2509 2431 2508 2580 2449 2363 2448 2525
8 2432 2510 2581 2509 2374 2456 2530 2455
8 2432 2510 2450 2364 2509 2581 2526 2449
8 2583 2511 2434 2513 2516 2439 2353 2438
8 2436 2352 2437 2514 2515 2438 2516 2588
8 2440 2356 2442 2518 2514 2437 2516 2588
8 2442 2358 2444 2520 2516 2439 2517 2589
8 2519 2443 2520 2591 2441 2357 2442 2518
8 2519 2443 2361 2447 2591 2520 2446 2524
8 2446 2360 2445 2523 2520 2444 2521 2592
8 2525 2448 2522 2593 2452 2369 2445 2523
8 2524 2446 2370 2453 2594 2523 2452 2527
8 2526 2449 2525 2595 2451 2368 2452 2527
8 2534 2462 2528 2597 2460 2382 2454 2529
8 2530 2455 2380 2458 2598 2529 2460 2532
8 2599 2533 2460 2532 2531 2459 2380 2458
8 2537 2464 2533 2599 2463 2384 2459 2531
8 2534 2462 2382 2460 2601 2535 2461 2533
8 2538 2465 2535 2601 2464 2385 2461 2533
8 2540 2467 2538 2604 2466 2387 2464 2537
8 2541 2468 2539 2605 2467 2388 2465 2538
8 2543 2470 2541 2607 2469 2390 2467 2540
8 2470 2391 2471 2544 2541 2468 2542 2608
8 2472 2393 2473 2546 2543 2470 2544 2610
8 2473 2394 2474 2547 2544 2471 2545 2611
8 2475 2396 2476 2549 2546 2473 2547 2613
8 2476 2397 2477 2550 2547 2474 2548 2614
8 2549 2476 2399 2478 2616 2550 2479 2552
8 2479 2400 2480 2553 2550 2477 2551 2617
8 2552 2479 2402 2483 2619 2553 2482 2557
8 2482 2401 2481 2556 2553 2480 2554 2620
8 2485 2404 2484 2559 2556 2481 2555 2623
8 2486 2405 2485 2560 2557 2482 2556 2624
8 2488 2407 2487 2561 2559 2484 2558 2625
8 2489 2408 2488 2562 2560 2485 2559 2626
8 2491 2411 2490 2563 2562 2488 2561 2627
8 2513 2434 2512 2585 2565 2493 2564 2630
8 2586 2513 2565 2632 2515 2438 2494 2567
8 2565 2493 2566 2633 2494 2416 2495 2568
8 2567 2494 2568 2635 2496 2417 2497 2570
8 2568 2495 2569 2636 2497 2418 2498 2571
8 2570 2497 2571 2638 2499 2420 2500 2573
8 2571 2498 2572 2639 2500 2421 2501 2574
8 2573 2500 2574 2641 2502 2423 2503 2576
8 2574 2501 2575 2642 2503 2424 2504 2577
8 2576 2503 2577 2643 2505 2426 2506 2578
8 2597 2528 2579 2645 2529 2454 2508 2580
8 2580 2508 2579 2645 2525 2448 2522 2593
8 2581 2509 2455 2530 2646 2580 2529 2598
8 2581 2509 2580 2646 2526 2449 2525 2595
8 2583 2511 2582 2648 2513 2434 2512 2585
8 2583 2511 2439 2516 2648 2582 2517 2589
8 2649 2583 2513 2586 2588 2516 2438 2515
8 2589 2517 2444 2520 2653 2587 2521 2592
8 2518 2442 2520 2591 2588 2516 2589 2654
8 2593 2522 2590 2655 2523 2445 2521 2592
8 2524 2446 2523 2594 2591 2520 2592 2656
8 2595 2525 2593 2657 2527 2452 2523 2594
8 2602 2536 2596 2659 2534 2462 2528 2597
8 2600 2534 2597 2660 2532 2460 2529 2598
8 2600 2534 2460 2532 2661 2601 2533 2599
8 2604 2538 2601 2661 2537 2464 2533 2599
8 2602 2536 2462 2534 2663 2603 2535 2601
8 2601 2535 2465 2538 2663 2603 2539 2605
8 2607 2541 2605 2665 2540 2467 2538 2604
8 2608 2542 2606 2666 2541 2468 2539 2605
8 2543 2470 2544 2610 2607 2541 2608 2668
8 2544 2471 2545 2611 2608 2542 2609 2669
8 2546 2473 2547 2613 2610 2544 2611 2671
8 2547 2474 2548 2614 2611 2545 2612 2672
8 2549 2476 2550 2616 2613 2547 2614 2674
8 2550 2477 2551 2617 2614 2548 2615 2675
8 2552 2479 2553 2619 2616 2550 2617 2677
8 2553 2480 2554 2620 2617 2551 2618 2678
8 2557 2482 2556 2624 2619 2553 2620 2680
8 2556 2481 2555 2623 2620 2554 2621 2681
8 2559 2484 2558 2625 2623 2555 2622 2683
8 2560 2485 2559 2626 2624 2556 2623 2684
8 2562 2488 2561 2627 2626 2559 2625 2685
8 2690 2629 2564 2630 2650 2584 2512 2585
8 2586 2513 2585 2651 2632 2565 2630 2691
8 2630 2564 2631 2692 2565 2493 2566 2633
8 2632 2565 2633 2694 2567 2494 2568 2635
8 2633 2566 2634 2695 2568 2495 2569 2636
8 2635 2568 2636 2697 2570 2497 2571 2638
8 2636 2569 2637 2698 2571 2498 2572 2639
8 2638 2571 2639 2700 2573 2500 2574 2641
8 2639 2572 2640 2701 2574 2501 2575 2642
8 2641 2574 2642 2702 2576 2503 2577 2643
8 2597 2528 2596 2659 2645 2579 2644 2704
8 2645 2579 2644 2704 2593 2522 2590 2655
8 2660 2597 2645 2705 2598 2529 2580 2646
8 2646 2580 2645 2705 2595 2525 2593 2657
8 2650 2584 2512 2585 2707 2647 2582 2648
8 2648 2582 2517 2589 2707 2647 2587 2653
8 2649 2583 2648 2708 2586 2513 2585 2651
8 2649 2583 2516 2588 2708 2648 2589 2654
8 2655 2590 2652 2710 2592 2521 2587 2653
8 2654 2589 2520 2591 2711 2653 2592 2656
8 2657 2593 2655 2712 2594 2523 2592 2656
8 2602 2536 2603 2663 2659 2596 2658 2714
8 2662 2602 2659 2715 2600 2534 2597 2660
8 2662 2602 2534 2600 2717 2663 2601 2661
8 2661 2601 2538 2604 2717 2663 2605 2665
8 2666 2606 2664 2718 2605 2539 2603 2663
8 2668 2608 2666 2720 2607 2541 2605 2665
8 2608 2542 2609 2669 2666 2606 2667 2721
8 2610 2544 2611 2671 2668 2608 2669 2723
8 2611 2545 2612 2672 2669 2609 2670 2724
8 2613 2547 2614 2674 2671 2611 2672 2726
8 2614 2548 2615 2675 2672 2612 2673 2727
8 2616 2550 2617 2677 2674 2614 2675 2729
8 2617 2551 2618 2678 2675 2615 2676 2730
8 2619 2553 2620 2680 2677 2617 2678 2732
8 2620 2554 2621 2681 2678 2618 2679 2733
8 2624 2556 2623 2684 2680 2620 2681 2735
8 2681 2621 2555 2623 2736 2682 2622 2683
8 2626 2559 2625 2685 2684 2623 2683 2737
8 2688 2628 2584 2650 2740 2686 2647 2707
8 2688 2628 2687 2742 2650 2584 2629 2690
8 2690 2629 2689 2745 2630 2564 2631 2692
8 2746 2690 2630 2691 2709 2650 2585 2651
8 2691 2630 2692 2747 2632 2565 2633 2694
8 2692 2631 2693 2748 2633 2566 2634 2695
8 2694 2633 2695 2750 2635 2568 2636 2697
8 2695 2634 2696 2751 2636 2569 2637 2698
8 2697 2636 2698 2753 2638 2571 2639 2700
8 2698 2637 2699 2754 2639 2572 2640 2701
8 2700 2639 2701 2755 2641 2574 2642 2702
8 2659 2596 2658 2714 2704 2644 2703 2757
8 2704 2644 2703 2757 2655 2590 2652 2710
8 2660 2597 2659 2715 2705 2645 2704 2758
8 2705 2645 2704 2758 2657 2593 2655 2712
8 2759 2706 2647 2707 2710 2652 2587 2653
8 2709 2650 2585 2651 2760 2707 2648 2708
8 2708 2648 2589 2654 2760 2707 2653 2711
8 2712 2655 2710 2761 2656 2592 2653 2711
8 2763 2713 2658 2714 2718 2664 2603 2663
8 2662 2602 2663 2717 2715 2659 2714 2764
8 2720 2666 2718 2767 2665 2605 2663 2717
8 2768 2719 2664 2718 2721 2667 2606 2666
8 2668 2608 2669 2723 2720 2666 2721 2770
8 2669 2609 2670 2724 2721 2667 2722 2771
8 2671 2611 2672 2726 2723 2669 2724 2773
8 2672 2612 2673 2727 2724 2670 2725 2774
8 2674 2614 2675 2729 2726 2672 2727 2776
8 2675 2615 2676 2730 2727 2673 2728 2777
8 2677 2617 2678 2732 2729 2675 2730 2779
8 2678 2618 2679 2733 2730 2676 2731 2780
8 2680 2620 2681 2735 2732 2678 2733 2782
8 2733 2679 2621 2681 2783 2734 2682 2736
8 2735 2681 2623 2684 2784 2736 2683 2737
8 2740 2686 2647 2707 2787 2738 2706 2759
8 2688 2628 2686 2740 2742 2687 2739 2789
8 2743 2688 2650 2709 2790 2740 2707 2760
8 2742 2687 2741 2792 2690 2629 2689 2745
8 2743 2688 2742 2793 2709 2650 2690 2746
8 2745 2689 2744 2795 2692 2631 2693 2748
8 2746 2690 2745 2796 2691 2630 2692 2747
8 2747 2692 2748 2797 2694 2633 2695 2750
8 2748 2693 2749 2798 2695 2634 2696 2751
8 2750 2695 2751 2800 2697 2636 2698 2753
8 2751 2696 2752 2801 2698 2637 2699 2754
8 2753 2698 2754 2802 2700 2639 2701 2755
8 2763 2713 2756 2804 2714 2658 2703 2757
8 2759 2706 2652 2710 2804 2756 2703 2757
8 2715 2659 2714 2764 2758 2704 2757 2805
8 2758 2704 2757 2805 2712 2655 2710 2761
8 2806 2759 2707 2760 2761 2710 2653 2711
8 2765 2716 2762 2808 2718 2664 2713 2763
8 2809 2763 2714 2764 2767 2718 2663 2717
8 2765 2716 2664 2718 2811 2766 2719 2768
8 2813 2768 2718 2767 2770 2721 2666 2720
8 2814 2769 2719 2768 2771 2722 2667 2721
8 2723 2669 2724 2773 2770 2721 2771 2816
8 2724 2670 2725 2774 2771 2722 2772 2817
8 2726 2672 2727 2776 2773 2724 2774 2819
8 2727 2673 2728 2777 2774 2725 2775 2820
8 2729 2675 2730 2779 2776 2727 2777 2822
8 2730 2676 2731 2780 2777 2728 2778 2823
8 2732 2678 2733 2782 2779 2730 2780 2825
8 2780 2731 2679 2733 2826 2781 2734 2783
8 2782 2733 2681 2735 2827 2783 2736 2784
8 2830 2785 2738 2787 2804 2756 2706 2759
8 2789 2739 2686 2740 2832 2786 2738 2787
8 2790 2740 2707 2760 2833 2787 2759 2806
8 2742 2687 2739 2789 2792 2741 2788 2835
8 2743 2688 2740 2790 2793 2742 2789 2836
8 2792 2741 2791 2838 2745 2689 2744 2795
8 2793 2742 2792 2839 2746 2690 2745 2796
8 2795 2744 2794 2841 2748 2693 2749 2798
8 2796 2745 2795 2842 2747 2692 2748 2797
8 2797 2748 2798 2843 2750 2695 2751 2800
8 2798 2749 2799 2844 2751 2696 2752 2801
8 2800 2751 2801 2845 2753 2698 2754 2802
8 2808 2762 2803 2847 2763 2713 2756 2804
8 2809 2763 2804 2848 2764 2714 2757 2805
8 2806 2759 2710 2761 2848 2804 2757 2805
8 2765 2716 2766 2811 2808 2762 2807 2850
8 2810 2765 2808 2851 2767 2718 2763 2809
8 2810 2765 2718 2767 2852 2811 2768 2813
8 2811 2766 2719 2768 2853 2812 2769 2814
8 2855 2814 2768 2813 2816 2771 2721 2770
8 2856 2815 2769 2814 2817 2772 2722 2771
8 2773 2724 2774 2819 2816 2771 2817 2858
8 2774 2725 2775 2820 2817 2772 2818 2859
8 2776 2727 2777 2822 2819 2774 2820 2861
8 2777 2728 2778 2823 2820 2775 2821 2862
8 2779 2730 2780 2825 2822 2777 2823 2864
8 2823 2778 2731 2780 2865 2824 2781 2826
8 2825 2780 2733 2782 2866 2826 2783 2827
8 2869 2828 2785 2830 2847 2803 2756 2804
8 2871 2829 2786 2832 2830 2785 2738 2787
8 2872 2830 2787 2833 2848 2804 2759 2806
8 2789 2739 2786 2832 2835 2788 2831 2874
8 2836 2789 2740 2790 2875 2832 2787 2833
8 2792 2741 2788 2835 2838 2791 2834 2877
8 2793 2742 2789 2836 2839 2792 2835 2878
8 2838 2791 2837 2880 2795 2744 2794 2841
8 2839 2792 2838 2881 2796 2745 2795 2842
8 2841 2794 2840 2882 2798 2749 2799 2844
8 2842 2795 2841 2883 2797 2748 2798 2843
8 2843 2798 2844 2884 2800 2751 2801 2845
8 2886 2846 2803 2847 2850 2807 2762 2808
8 2851 2808 2847 2887 2809 2763 2804 2848
8 2850 2807 2766 2811 2889 2849 2812 2853
8 2810 2765 2811 2852 2851 2808 2850 2890
8 2852 2811 2768 2813 2891 2853 2814 2855
8 2853 2812 2769 2814 2892 2854 2815 2856
8 2894 2856 2814 2855 2858 2817 2771 2816
8 2817 2772 2818 2859 2856 2815 2857 2895
8 2819 2774 2820 2861 2858 2817 2859 2897
8 2820 2775 2821 2862 2859 2818 2860 2898
8 2822 2777 2823 2864 2861 2820 2862 2900
8 2823 2778 2824 2865 2862 2821 2863 2901
8 2864 2823 2780 2825 2902 2865 2826 2866
8 2904 2867 2828 2869 2886 2846 2803 2847
8 2869 2828 2868 2906 2830 2785 2829 2871
8 2907 2869 2830 2872 2887 2847 2804 2848
8 2871 2829 2870 2909 2832 2786 2831 2874
8 2910 2871 2832 2875 2872 2830 2787 2833
8 2835 2788 2831 2874 2877 2834 2873 2912
8 2836 2789 2832 2875 2878 2835 2874 2913
8 2877 2834 2876 2915 2838 2791 2837 2880
8 2839 2792 2835 2878 2881 2838 2877 2916
8 2880 2837 2879 2917 2841 2794 2840 2882
8 2881 2838 2880 2918 2842 2795 2841 2883
8 2883 2841 2882 2919 2843 2798 2844 2884
8 2921 2885 2846 2886 2889 2849 2807 2850
8 2922 2886 2847 2887 2890 2850 2808 2851
8 2889 2849 2812 2853 2924 2888 2854 2892
8 2890 2850 2811 2852 2925 2889 2853 2891
8 2891 2853 2814 2855 2926 2892 2856 2894
8 2892 2854 2815 2856 2927 2893 2857 2895
8 2858 2817 2859 2897 2894 2856 2895 2929
8 2859 2818 2860 2898 2895 2857 2896 2930
8 2861 2820 2862 2900 2897 2859 2898 2932
8 2862 2821 2863 2901 2898 2860 2899 2933
8 2864 2823 2865 2902 2900 2862 2901 2934
8 2904 2867 2846 2886 2936 2903 2885 2921
8 2904 2867 2903 2936 2869 2828 2868 2906
8 2937 2904 2869 2907 2922 2886 2847 2887
8 2906 2868 2905 2939 2871 2829 2870 2909
8 2907 2869 2906 2940 2872 2830 2871 2910
8 2909 2870 2908 2942 2874 2831 2873 2912
8 2910 2871 2909 2943 2875 2832 2874 2913
8 2912 2873 2911 2945 2877 2834 2876 2915
8 2878 2835 2874 2913 2916 2877 2912 2946
8 2915 2876 2914 2947 2880 2837 2879 2917
8 2916 2877 2915 2948 2881 2838 2880 2918
8 2918 2880 2917 2949 2883 2841 2882 2919
8 2921 2885 2849 2889 2951 2920 2888 2924
8 2952 2921 2886 2922 2925 2889 2850 2890
8 2924 2888 2854 2892 2954 2923 2893 2927
8 2925 2889 2853 2891 2955 2924 2892 2926
8 2926 2892 2856 2894 2956 2927 2895 2929
8 2895 2857 2896 2930 2927 2893 2928 2957
8 2897 2859 2898 2932 2929 2895 2930 2959
8 2898 2860 2899 2933 2930 2896 2931 2960
8 2900 2862 2901 2934 2932 2898 2933 2961
8 2936 2903 2885 2921 2963 2935 2920 2951
8 2936 2903 2935 2963 2906 2868 2905 2939
8 2937 2904 2886 2922 2964 2936 2921 2952
8 2937 2904 2936 2964 2907 2869 2906 2940
8 2939 2905 2938 2966 2909 2870 2908 2942
8 2940 2906 2939 2967 2910 2871 2909 2943
8 2942 2908 2941 2969 2912 2873 2911 2945
8 2943 2909 2942 2970 2913 2874 2912 2946
8 2945 2911 2944 2971 2915 2876 2914 2947
8 2946 2912 2945 2972 2916 2877 2915 2948
8 2948 2915 2947 2973 2918 2880 2917 2949
8 2951 2920 2888 2924 2975 2950 2923 2954
8 2952 2921 2889 2925 2976 2951 2924 2955
8 2927 2893 2928 2957 2954 2923 2953 2978
8 2955 2924 2892 2926 2979 2954 2927 2956
8 2929 2895 2930 2959 2956 2927 2957 2980
8 2930 2896 2931 2960 2957 2928 2958 2981
8 2932 2898 2933 2961 2959 2930 2960 2982
8 2951 2920 2950 2975 2963 2935 2962 2984
8 2963 2935 2962 2984 2939 2905 2938 2966
8 2964 2936 2921 2952 2985 2963 2951 2976
8 2964 2936 2963 2985 2940 2906 2939 2967
8 2966 2938 2965 2987 2942 2908 2941 2969
8 2967 2939 2966 2988 2943 2909 2942 2970
8 2969 2941 2968 2989 2945 2911 2944 2971
8 2970 2942 2969 2990 2946 2912 2945 2972
8 2972 2945 2971 2991 2948 2915 2947 2973
8 2954 2923 2953 2978 2975 2950 2974 2993
8 2976 2951 2924 2955 2994 2975 2954 2979
8 2957 2928 2958 2981 2978 2953 2977 2995
8 2956 2927 2957 2980 2979 2954 2978 2996
8 2959 2930 2960 2982 2980 2957 2981 2997
8 2984 2962 2983 2999 2966 2938 2965 2987
8 2975 2950 2974 2993 2984 2962 2983 2999
8 2976 2951 2975 2994 2985 2963 2984 3000
8 2985 2963 2984 3000 2967 2939 2966 2988
8 2987 2965 2986 3001 2969 2941 2968 2989
8 2988 2966 2987 3002 2970 2942 2969 2990
8 2990 2969 2989 3003 2972 2945 2971 2991
8 2978 2953 2977 2995 2993 2974 2992 3004
8 2979 2954 2978 2996 2994 2975 2993 3005
8 2980 2957 2981 2997 2996 2978 2995 3006
8 2974 2993 2999 2983 2992 3004 3007 2998
8 2983 2999 2987 2965 2998 3007 3001 2986
8 3000 2984 2999 3008 2988 2966 2987 3002
8 2994 2975 2993 3005 3000 2984 2999 3008
8 3002 2987 3001 3009 2990 2969 2989 3003
8 2996 2978 2995 3006 3005 2993 3004 3010
8 3005 2993 3004 3010 3008 2999 3007 3011
8 3008 2999 3007 3011 3002 2987 3001 3009

CELL_TYPES 1910
12
12
12
12
12
12
12
12
12
12
12
12
12
12
12
12
12
12
12
12
12
12
12
12
12
12
12
12
12
12
12
12
12
12
12
12
12
12
12
12
12
12
12
12
12
12
12
12
12
12
12
12
12
12
12
12
12
12
12
12
12
12
12
12
12
12
12
12
12
12
12
12
12
12
12
12
12
12
12
12
12
12
12
12
12
12
12
12
12
12
12
12
12
12
12
12
12
12
12
12
12
12
12
12
12
12
12
12
12
12
12
12
12
12
12
12
12
12
12
12
12
12
12
12
12
12
12
12
12
12
12
12
12
12
12
12
12
12
12
12
12
12
12
12
12
12
12
12
12
12
12
12
12
12
12
12
12
12
12
12
12
12
12
12
12
12
12
12
12
12
12
12
12
12
12
12
12
12
12
12
12
12
12
12
12
12
12
12
12
12
12
12
12
12
12
12
12
12
12
12
12
12
12
12
12
12
12
12
12
12
12
12
12
12
12
12
12
12
12
12
12
12
12
12
12
12
12
12
12
12
12
12
12
12
12
12
12
12
12
12
12
12
12
12
12
12
12
12
12
12
12
12
12
12
12
12
12
12
12
12
12
12
12
12
12
12
12
12
12
12
12
12
12
12
12
12
12
12
12
12
12
12
12
12
12
12
12
12
12
12
12
12
12
12
12
12
12
12
12
12
12
12
12
12
12
12
12
12
12
12
12
12
12
12
12
12
12
12
12
12
12
12
12
12
12
12
12
12
12
12
12
12
12
12
12
12
12
12
12
12
12
12
12
12
12
12
12
12
12
12
12
12
12
12
12
12
12
12
12
12
12
12
12
12
12
12
12
12
12
12
12
12
12
12
12
12
12
12
12
12
12
12
12
12
12
12
12
12
12
12
12
12
12
12
12
12
12
12
12
12
12
12
12
12
12
12
12
12
12
12
12
12
12
12
12
12
12
12
12
12
12
12
12
12
12
12
12
12
12
12
12
12
12
12
12
12
12
12
12
12
12
12
12
12
12
12
12
12
12
12
12
12
12
12
12
12
12
12
12
12
12
12
12
12
12
12
12
12
12
12
12
12
12
12
12
12
12
12
12
12
12
12
12
12
12
12
12
12
12
12
12
12
12
12
12
12
12
12
12
12
12
12
12
12
12
12
12
12
12
12
12
12
12
12
12
12
12
12
12
12
12
12
12
12
12
12
12
12
12
12
12
12
12
12
12
12
12
12
12
12
12
12
12
12
12
12
12
12
12
12
12
12
12
12
12
12
12
12
12
12
12
12
12
12
12
12
12
12
12
12
12
12
12
12
12
12
12
12
12
12
12
12
12
12
12
12
12
12
12
12
12
12
12
12
12
12
12
12
12
12
12
12
12
12
12
12
12
12
12
12
12
12
12
12
12
12
12
12
12
12
12
12
12
12
12
12
12
12
12
12
12
12
12
12
12
12
12
12
12
12
12
12
12
12
12
12
12
12
12
12
12
12
12
12
12
12
12
12
12
12
12
12
12
12
12
12
12
12
12
12
12
12
12
12
12
12
12
12
12
12
12
12
12
12
12
12
12
12
12
12
12
12
12
12
12
12
12
12
12
12
12
12
12
12
12
12
12
12
12
12
12
12
12
12
12
12
12
12
12
12
12
12
12
12
12
12
12
12
12
12
12
12
12
12
12
12
12
12
12
12
12
12
12
12
12
12
12
12
12
12
12
12
12
12
12
12
12
12
12
12
12
12
12
12
12
12
12
12
12
12
12
12
12
12
12
12
12
12
12
12
12
12
12
12
12
12
12
12
12
12
12
12
12
12
12
12
12
12
12
12
12
12
12
12
12
12
12
12
12
12
12
12
12
12
12
12
12
12
12
12
12
12
12
12
12
12
12
12
12
12
12
12
12
12
12
12
12
12
12
12
12
12
12
12
12
12
12
12
12
12
12
12
12
12
12
12
12
12
12
12
12
12
12
12
12
12
12
12
12
12
12
12
12
12
12
12
12
12
12
12
12
12
12
12
12
12
12
12
12
12
12
12
12
12
12
12
12
12
12
12
12
12
12
12
12
12
12
12
12
12
12
12
12
12
12
12
12
12
12
12
12
12
12
12
12
12
12
12
12
12
12
12
12
12
12
12
12
12
12
12
12
12
12
12
12
12
12
12
12
12
12
12
12
12
12
12
12
12
12
12
12
12
12
12
12
12
12
12
12
12
12
12
12
12
12
12
12
12
12
12
12
12
12
12
12
12
12
12
12
12
12
12
12
12
12
12
12
12
12
12
12
12
12
12
12
12
12
12
12
12
12
12
12
12
12
12
12
12
12
12
12
12
12
12
12
12
12
12
12
12
12
12
12
12
12
12
12
12
12
12
12
12
12
12
12
12
12
12
12
12
12
12
12
12
12
12
12
12
12
12
12
12
12
12
12
12
12
12
12
12
12
12
12
12
12
12
12
12
12
12
12
12
12
12
12
12
12
12
12
12
12
12
12
12
12
12
12
12
12
12
12
12
12
12
12
12
12
12
12
12
12
12
12
12
12
12
12
12
12
12
12
12
12
12
12
12
12
12
12
12
12
12
12
12
12
12
12
12
12
12
12
12
12
12
12
12
12
12
12
12
12
12
12
12
12
12
12
12
12
12
12
12
12
12
12
12
12
12
12
12
12
12
12
12
12
12
12
12
12
12
12
12
12
12
12
12
12
12
12
12
12
12
12
12
12
12
12
12
12
12
12
12
12
12
12
12
12
12
12
12
12
12
12
12
12
12
12
12
12
12
12
12
12
12
12
12
12
12
12
12
12
12
12
12
12
12
12
12
12
12
12
12
12
12
12
12
12
12
12
12
12
12
12
12
12
12
12
12
12
12
12
12
12
12
12
12
12
12
12
12
12
12
12
12
12
12
12
12
12
12
12
12
12
12
12
12
12
12
12
12
12
12
12
12
12
12
12
12
12
12
12
12
12
12
12
12
12
12
12
12
12
12
12
12
12
12
12
12
12
12
12
12
12
12
12
12
12
12
12
12
12
12
12
12
12
12
12
12
12
12
12
12
12
12
12
12
12
12
12
12
12
12
12
12
12
12
12
12
12
12
12
12
12
12
12
12
12
12
12
12
12
12
12
12
12
12
12
12
12
12
12
12
12
12
12
12
12
12
12
12
12
12
12
12
12
12
12
12
12
12
12
12
12
12
12
12
12
12
12
12
12
12
12
12
12
12
12
12
12
12
12
12
12
12
12
12
12
12
12
12
12
12
12
12
12
12
12
12
12
12
12
12
12
12
12
12
12
12
12
12
12
12
12
12
12
12
12
12
12
12
12
12
12
12
12
12
12
12
12
12
12
12
12
12
12
12
12
12
12
12
12
12
12
12
12
12
12
12
12
12
12
12
12
12
12
12
12
12
12
12
12
12
12
12
12
12
12
12
12
12
12
12
12
12
12
12
12
12
12
12
12
12
12
12
12
12
12
12
12
12
12
12
12
12
12
12
12
12
12
12
12
12
12
12
12
12
12
12
12
12
12
12
12
12
12
12
12
12
12
12
12
12
12
12
12
12
12
12
12
12
12
12
12
12
12
12
12
12
12
12
12
12
12
12
12
12
12
12
12
12
12
12
12
12
12
12
12
12
12
12
12
12
12
12
12
12
12
12
12
12
12
12
12
12
12
12
12
12
12
12
12
12
12
12
12
12
12
12
12
12
12
12
12
12
12
12
12
12
12
12
12
12
12
12
12
12
12
12
12
12
12
12
12
12
12
12
12
12
12
12
12
12
12
12
12
12
12
12
12
12
12
12
12
12
12
12
12
12
12
12
12
12
12
12
12
12
12
12
12
12
12
12
12
12
12
12
12
12
12
12
12
12
12
12
12
12
12
12
12
12
12
12
12
12
12
12
12
12
12
12
12
12
12
12
12
12
12
12
12
12
12
12
12
12
12
12
12
12
12
12
12
12
12
12
12
12
12
12
12
12
12
12
12
12
12
12
12
12
12
12
12
12
12
12
12
12
12
12
12
12
12
12
12
12
12
12
12
12
12
12
12
12
12
12
12
12
12
12
12
12
12
12
12
12
12
12
12
12
12
12
12
12
12
12
12
12
12
12
12
12
12
12
12
12
12
12
12
12
12
12
12
12
12
12
12
12
12
12
12
12
12
12
12
12
12
12
12
12
12
12
12
12
12
12
12
12
12
12
12
12
12
12
12
12
12
12
12
12
12
12
12
12
12
12
12
12
12
12
12
12
12
12
12
12
12
12
12
12
12
12
12
12
12
12
12
12
12
12
12
12
12
12
12
12
12
12
12
12
12
12
12
12
12
12
12
12
12
12
12
12

POINT_DATA 3012
SCALARS Jp_lamdaP float 4
LOOKUP_TABLE default
0.999655 1 1 0.999655
1 1 1 1
0.999665 1 1 0.999665
0.9996 1 1 0.9996
0.999657 1 1 0.999657
0.999635 1 1 0.999635
0.999391 1.00059 1 0.998806
1 1 1 1
1 1 1 1
1 1 1 1
0.99973 1 1 0.99973
0.99891 1 1 0.99891
0.9996 1 1 0.9996
0.999606 1 1 0.999606
0.999668 1 1 0.999668
0.999628 1 1 0.999628
0.999642 1 1 0.999642
0.999675 1 1 0.999675
0.999504 1.0007 1 0.998807
1 1 1 1
0.999582 1 1 0.999582
0.999634 1 1 0.999634
0.998691 1.00001 1 0.998683
0.999295 1.00051 1 0.998784
0.99964 1 1 0.99964
0.998924 1.0001 1 0.998819
1.01471 1.01724 1 0.997514
1 1 1 1
0.999819 1 1 0.999819
0.999833 1 1 0.999833
1 1 1 1
0.99893 1.00001 1 0.99892
0.999631 1 1 0.999631
0.999659 1 1 0.999659
0.999946 1.00099 1 0.998958
1 1 1 1
0.999201 1.00016 1 0.999041
0.999011 1 1 0.999011
1.00739 1.00993 1 0.997493
1 1 1 1
1 1 1 1
0.999803 1 1 0.999803
1 1 1 1
0.999613 1 1 0.999613
0.998614 1 1 0.998614
1 1 1 1
0.998861 1 1 0.998861
0.999651 1 1 0.999651
0.999687 1 1 0.999687
0.999644 1 1 0.999644
0.999596 1.00078 1 0.998812
0.999788 1 1 0.999788
0.999607 1 1 0.999607
0.999654 1 1 0.999654
0.999658 1 1 0.999658
0.998684 1 1 0.99868
0.999112 1.00029 1 0.998822
0.999283 1.0005 1 0.998785
1.01492 1.01746 1 0.9975
1 1 1 1
0.999584 1 1 0.999584
0.998893 1 1 0.998893
0.998655 1 1 0.998655
0.998876 1.00014 1 0.998736
1.01774 1.02055 1 0.997253
1.01593 1.01862 1 0.997365
0.999704 1 1 0.999704
0.99892 1 1 0.99892
1.0119 1.01433 1 0.997603
1.03467 1.03818 1 0.996624
1 1 1 1
1 1 1 1
1 1 1 1
0.998928 1 1 0.998928
1 1 1 1
1 1 1 1
0.999666 1.00089 1 0.998773
0.9999 1 1 0.9999
0.99902 1.00014 1 0.998876
0.999165 1 1.00003 0.999131
1.00604 1.00857 1 0.99749
1 1 1 1
1.00119 1 1.00145 0.999745
0.999469 1.00078 1 0.998695
0.999505 1.0007 1 0.998806
1.01914 1.02214 1 0.997069
0.999741 1 1.00035 0.999391
1.01216 1.01481 1 0.997392
1.00282 1.00519 1 0.997644
1.01643 1.01973 1 0.996764
1 1 1 1
1 1 1 1
1 1 1 1
1 1 1 1
1 1 1 1
0.999805 1 1 0.999805
0.998746 1 1 0.998746
0.999805 1 1 0.999805
0.998848 1.00008 1 0.998764
1 1 1 1
0.99863 1 1 0.99863
0.998856 1 1 0.998856
1.01678 1.01994 1 0.996895
0.999156 1.00026 1 0.998895
1.02044 1.02359 1 0.996923
0.999622 1 1 0.999622
0.99963 1 1 0.99963
0.999664 1 1 0.999664
0.999679 1 1 0.999679
0.998678 1 1 0.998678
0.999299 1.00051 1 0.998788
0.99925 1.00042 1 0.998828
1.01507 1.01762 1 0.997486
1 1 1 1
0.999608 1 1 0.999608
0.998659 1 1 0.998659
0.998649 1 1 0.998649
0.999853 1 1 0.999853
0.998999 1 1 0.998999
0.998844 1.00011 1 0.998736
1.01774 1.02058 1 0.997217
1.01233 1.01478 1 0.997586
1.01626 1.01892 1 0.997391
1.03456 1.03806 1 0.996632
0.998653 1 1 0.998653
0.998653 1 1 0.998653
1.01583 1.01874 1 0.997143
1.01778 1.02067 1 0.997167
1.01737 1.02016 1 0.997266
1.04409 1.04768 1 0.996574
1 1 1 1
1.03793 1.04146 1 0.996605
0.999393 1 1.00027 0.999123
1.00694 1.00938 1 0.997579
1.03125 1.03472 1 0.996643
1.04052 1.04415 1 0.996515
1.00141 1 1.00195 0.999463
1.00653 1 1.00819 0.998358
1 1 1 1
1 1 1 1
0.999553 1.00078 1 0.998779
1 1 1 1
0.999256 1 1.00017 0.999082
0.998997 1.00011 1 0.998883
1.0049 1.00743 1 0.997486
1 1 1 1
1.00093 1 1.00116 0.999769
0.999665 1.00085 1 0.998812
0.999405 1.00049 1 0.998914
1.01858 1.02157 1 0.99707
1.00003 1 1.0007 0.99933
1.01089 1.01353 1 0.997395
1.00187 1.00422 1.00002 0.997643
1.01779 1.0211 1 0.996754
1.00119 1 1.00165 0.999542
1.00018 1 1.0003 0.999879
1.00367 1 1.00502 0.998656
1.02105 1.02415 1 0.996969
1.01608 1.0189 1 0.99723
1.04126 1.04495 1 0.996476
1.00052 1.00198 1.00062 0.99793
1.02676 1.03014 1 0.996719
1.01141 1.01403 1.00057 0.996852
1.02642 1.02992 1 0.996604
1 1 1 1
1 1 1 1
1 1 1 1
1.00107 1 1.00146 0.99961
1 1 1 1
1 1 1 1
1 1 1 1
0.998896 1.00023 1 0.998668
0.998648 1 1 0.998648
1 1 1 1
1 1 1 1
0.998631 1 1 0.998631
0.998759 1 1 0.998759
1.01744 1.02061 1 0.996895
0.999148 1.00047 1 0.998682
1.02061 1.02376 1 0.996922
0.998628 1 1 0.998628
1.01533 1.01852 1 0.996864
1.01881 1.02196 1 0.996921
1.04949 1.05316 1 0.996522
1.02131 1.02446 1 0.996928
1.05082 1.0545 1 0.996516
1 1 1 1
0.999632 1 1 0.999632
0.9984 1 1 0.9984
0.998644 1 1 0.998644
1 1 1 1
0.999124 1.00005 1 0.999079
0.998825 1.00009 1 0.998737
1.01771 1.02059 1 0.997181
1.01665 1.01928 1 0.997417
1.01278 1.01525 1 0.997569
1.03452 1.03801 1 0.99664
0.99865 1 1 0.99865
0.998647 1 1 0.998647
1.01575 1.01879 1 0.997015
1.01787 1.02074 1 0.997188
1 1 1 1
0.999292 1 1.00012 0.999172
1.00839 1.01076 1 0.997659
1.01742 1.02022 1 0.997261
1.04391 1.04751 1 0.996562
1.03074 1.03422 1 0.996637
1.03819 1.04169 1 0.99664
1.04009 1.04372 1 0.996524
1.00125 1 1.0018 0.999451
1.00509 1 1.00674 0.99836
1.01513 1.01831 1 0.996885
1.01647 1.01937 1 0.997162
1.04656 1.05015 1 0.996582
1.04466 1.04828 1 0.996546
1.04152 1.04503 1 0.996646
1.05073 1.05448 0.999772 0.996673
1.00048 1 1.00118 0.999294
1.04311 1.04666 1 0.996605
1.00211 1.00425 1.00011 0.997768
1.02413 1.02751 1 0.996716
1.03796 1.04166 1 0.996447
1.04056 1.04399 1 0.99672
1.00308 1.00026 1.00471 0.998123
1.00486 1 1.00622 0.998652
1.00332 1.0002 1.00546 0.997672
0.999635 1.00091 1 0.998724
1 1 1 1
1.00024 1 1.00045 0.999792
0.999234 1.00039 1 0.99884
1.01802 1.02101 1 0.99707
1.00021 1 1.00088 0.999332
1.00054 1.00287 1.00004 0.997642
1.00965 1.01229 1 0.997397
1.01909 1.02242 1 0.996743
1.00109 1 1.00153 0.999564
0.999896 1 1 0.999896
1.00441 1 1.00576 0.998657
1.02049 1.0236 1 0.996967
1.01538 1.01819 1 0.997233
1.04137 1.04506 1 0.996471
0.999624 1.0012 1.00049 0.997934
1.02797 1.03135 1 0.996723
1.01101 1.01373 1.00047 0.996846
1.02719 1.03069 1 0.9966
0.999944 1 1 0.999944
1.00168 1.00036 1.00306 0.998264
1.00276 1 1.00371 0.999059
1.00442 1.0003 1.00616 0.997971
1.04567 1.04939 1 0.996448
1.03542 1.03897 1 0.996592
1.04498 1.04872 1 0.996427
1.00543 1.00778 1.00049 0.997187
1.03279 1.03628 1 0.996631
1.02239 1.02433 1.00158 0.996534
1.03474 1.03835 1 0.996523
0.999658 1 1 0.999658
0.999988 1 1 0.999988
1 1 1 1
1 1 1 1
1 1 1 1
1.00025 1 1.00051 0.999748
1 1 1 1
1.00143 1 1.00184 0.999596
1 1 1 1
0.999265 1.00058 1 0.998683
0.998661 1 1 0.998661
1.02081 1.02396 1 0.996921
1.01808 1.02125 1 0.996896
0.998633 1 1 0.998633
1 1 1 1
0.998628 1 1 0.998628
1.01569 1.01888 1 0.996864
1.01936 1.02251 1 0.99692
1.0486 1.05227 1 0.99652
1.02108 1.02422 1 0.996925
1.05085 1.05453 1 0.996513
1.01487 1.01806 1 0.996862
1.04771 1.0514 1 0.996495
1.05048 1.05414 1 0.996532
1.0536 1.05943 0.997669 0.996816
1.04996 1.05367 1 0.996478
1.05618 1.06029 0.999406 0.996715
0.998648 1 1 0.998648
0.998641 1 1 0.998641
1.01568 1.01885 1 0.996887
1.01797 1.02082 1 0.997209
1 1 1 1
0.999222 1 1 0.999222
1.0098 1.01209 1 0.997738
1.01747 1.02027 1 0.997256
1.04377 1.04738 1 0.99655
1.03836 1.04183 1 0.996675
1.03027 1.03376 1 0.99663
1.03982 1.04343 1 0.996533
1.00128 1 1.00185 0.999439
1.00431 1 1.00596 0.998362
1.01502 1.01821 1 0.996868
1.01654 1.01944 1 0.997157
1.04636 1.05002 0.999915 0.996605
1.04473 1.04835 1 0.996553
1.00017 1 1.00088 0.999283
1.00353 1.00569 1.00009 0.997765
1.0235 1.02684 1 0.996747
1.04178 1.0453 1 0.996629
1.05077 1.05456 0.999688 0.996716
1.03766 1.04138 1 0.996428
1.0429 1.04645 1 0.99661
1.04077 1.0442 1 0.996716
1.00287 1.00038 1.00436 0.998125
1.00402 1.00042 1.00594 0.997674
1.00518 1 1.00654 0.99865
1.04603 1.04965 1 0.996552
1.04613 1.04979 0.999903 0.996617
1.05346 1.05861 0.998372 0.996753
1.05179 1.05595 0.999351 0.996713
1.04607 1.04966 0.999884 0.996693
1.04589 1.05265 0.996565 0.997007
0.999652 1.0011 1.0006 0.997958
1.04269 1.04622 0.999771 0.996856
1.0117 1.01473 1 0.997019
1.02942 1.03322 1 0.99632
1.0369 1.04063 1 0.996414
1.03517 1.03833 0.999976 0.996974
1.00285 1 1.00393 0.99893
0.999559 1.00133 1.00067 0.99756
1.00856 1 1.01075 0.997834
1.00273 1.00267 1.00266 0.997412
1.02002 1.02313 1 0.996965
0.999914 1 1 0.999914
1.00118 1 1.00159 0.999586
1.00596 1 1.00732 0.998657
1.01448 1.01729 1 0.997236
1.04147 1.04517 1 0.996466
0.998832 1.00049 1.00041 0.997939
1.01071 1.01358 1.00033 0.99684
1.02917 1.03255 1 0.996727
1.02712 1.03063 1 0.996595
0.999954 1 1 0.999954
1.00248 1.00019 1.00402 0.998265
1.00244 1 1.00338 0.999069
1.00488 1.00019 1.00674 0.997964
1.04563 1.04936 1 0.996442
1.03558 1.03913 1 0.99659
1.04452 1.04827 1 0.996424
1.00392 1.00629 1.00045 0.997194
1.03244 1.03593 1 0.99663
1.02156 1.02335 1.00173 0.996521
1.03448 1.038 1 0.996604
0.999975 1 1 0.999975
1.00051 1 1.00116 0.999352
1.00226 1.00274 1.00191 0.997616
1.00598 1 1.00766 0.998334
1.00186 1.00098 1.00322 0.99767
1.04981 1.05351 1 0.996486
1.03867 1.04232 1 0.996498
1.04005 1.04365 1 0.996557
1.00894 1.01017 1.00199 0.996802
1.03127 1.03475 1 0.996632
1.01981 1.02271 1.00086 0.996304
0.999611 1 1 0.999611
0.999087 1 1 0.999087
0.999695 1 1 0.999695
0.99966 1 1 0.99966
0.999994 1 1 0.999994
0.99999 1 1 0.99999
1 1 1 1
1 1 1 1
1 1 1 1
0.999875 1 1 0.999875
1 1 1 1
1.00068 1 1.00095 0.999732
1 1 1 1
1.0014 1 1.00182 0.999581
1 1 1 1
1.02091 1.02407 1 0.996922
1.01984 1.02299 1 0.99692
1.05058 1.05426 1 0.99651
1.0477 1.05136 1 0.996518
1.01612 1.01931 1 0.996865
0.998627 1 1 0.998627
1.01496 1.01816 1 0.996861
1.04737 1.05106 1 0.996496
1.04983 1.05348 1 0.99653
1.05389 1.06003 0.99737 0.996834
1.04927 1.05298 1 0.996474
1.05601 1.06003 0.999492 0.996713
1.04628 1.04997 1 0.996487
1.05329 1.05976 0.997044 0.996838
1.05509 1.06023 0.998361 0.996785
1.04977 1.05848 0.994698 0.997051
1.05306 1.05665 1 0.996607
1.05102 1.05969 0.994743 0.997061
1.01495 1.01815 1 0.996851
1.01662 1.01953 1 0.997152
1.04618 1.0499 0.999821 0.996627
1.04479 1.04839 1 0.996561
0.999852 1 1.00058 0.999272
1.00495 1.00714 1.00005 0.997764
1.02333 1.02663 1 0.996779
1.04204 1.04558 1 0.996611
1.05081 1.05467 0.999577 0.996758
1.04273 1.04627 1 0.996614
1.03723 1.04096 1 0.99641
1.04098 1.04441 1 0.996713
1.00237 1.00055 1.0037 0.998127
1.00466 1.00071 1.00629 0.997675
1.0053 1 1.00666 0.998649
1.04609 1.04974 1 0.996529
1.04628 1.04991 0.999932 0.996615
1.05302 1.0584 0.998119 0.996796
1.05163 1.05588 0.999279 0.996696
1.00067 1.00195 1.00076 0.997956
1.01263 1.01566 1 0.997015
1.02813 1.03185 1.00003 0.996361
1.04619 1.04977 0.999929 0.99666
1.04559 1.05274 0.996139 0.997056
1.03756 1.04134 1 0.996376
1.04281 1.04634 0.999771 0.996858
1.03605 1.03917 0.999986 0.997009
1.00106 1.00234 1.00117 0.99756
1.00298 1.00284 1.00277 0.997379
1.00329 1 1.00437 0.998927
1.00793 1 1.01008 0.997874
1.05305 1.05857 0.997986 0.996788
1.05401 1.05891 0.998625 0.996746
1.04529 1.05409 0.994668 0.996966
1.04484 1.05486 0.993397 0.997082
1.04413 1.04871 0.998638 0.99699
1.04249 1.05177 0.993921 0.997239
1.00298 1.00566 1 0.997334
1.03681 1.04195 0.997847 0.997219
1.0164 1.01989 1 0.996578
1.02715 1.03096 1.00018 0.996126
1.03839 1.04214 1 0.9964
1.03689 1.03997 1 0.997042
1.00024 1 1.00108 0.999162
1.00858 1 1.01048 0.998126
1.00176 1.0045 1 0.997269
1.00446 1.00047 1.00645 0.997552
1.00368 1.00425 1.00217 0.997277
0.999965 1 1 0.999965
1.04549 1.04923 1 0.996436
1.00152 1 1.00244 0.999078
1.00313 1.00013 1.00474 0.998266
1.00502 1.00005 1.00703 0.997958
1.03585 1.0394 1 0.996588
1.04412 1.04787 1 0.996421
1.0027 1.00501 1.00051 0.997201
1.02216 1.02377 1.00193 0.996509
1.03225 1.03574 1 0.996629
1.03488 1.03832 1 0.996685
0.999979 1 1 0.999979
1.0001 1 1.00074 0.999362
1.0009 1.00194 1.00134 0.997619
1.00701 1 1.00869 0.998333
1.002 1.00072 1.00363 0.997653
1.04967 1.05338 1 0.99648
1.03855 1.0422 1 0.996496
1.0401 1.04371 1 0.996545
1.00932 1.01041 1.00213 0.996805
1.03375 1.03725 1 0.996625
1.02017 1.02295 1.00096 0.996328
0.999523 1 1 0.999523
1.00229 1 1.00359 0.998697
1.00103 1.00329 1.00048 0.997272
1.00779 1.0008 1.00903 0.997961
1.00235 1.00271 1.00203 0.99761
1.04651 1.05 0.99999 0.996687
1.03443 1.03799 1 0.996562
1.03958 1.04296 1 0.996768
1.00367 1.00326 1.00379 0.996627
1.01844 1.02225 1 0.996267
0.999614 1 1 0.999614
0.999007 1 1 0.999007
0.999062 1 1 0.999062
0.998808 1 1 0.998808
0.999111 1 1 0.999111
0.999715 1 1 0.999715
0.999697 1 1 0.999697
0.999998 1 1 0.999998
0.999662 1 1 0.999662
0.999995 1 1 0.999995
1 1 1 1
0.999992 1 1 0.999992
1 1 1 1
1 1 1 1
0.99996 1 1 0.99996
1.00013 1 1.00028 0.999855
1 1 1 1
1 1 1 1
1.00114 1 1.00143 0.999715
1 1 1 1
1.04868 1.0524 1 0.99647
1.04943 1.05308 1 0.996527
1.0561 1.06003 0.999579 0.996711
1.05425 1.06067 0.997081 0.996851
1.04694 1.05062 1 0.996496
1.01499 1.01818 1 0.996861
1.04631 1.05 1 0.996488
1.05315 1.05957 0.997106 0.996833
1.0555 1.06058 0.998427 0.996785
1.049 1.05825 0.994158 0.997082
1.05385 1.05744 1 0.9966
1.05115 1.05958 0.994947 0.997083
1.05323 1.05925 0.997499 0.996807
1.04768 1.05704 0.994101 0.997026
1.04992 1.05965 0.993676 0.997124
1.04892 1.06094 0.991449 0.997204
1.05131 1.05607 0.998587 0.996902
1.04851 1.06091 0.990993 0.99729
1.04607 1.04974 1 0.996505
1.04641 1.04999 0.999977 0.996612
1.05257 1.05815 0.997876 0.996839
1.05135 1.05569 0.999204 0.996679
1.00167 1.0028 1.00093 0.997953
1.0127 1.01574 1 0.997011
1.02634 1.02986 1.00018 0.996403
1.04629 1.04984 1 0.996627
1.0453 1.05282 0.995742 0.997106
1.04282 1.04635 0.99977 0.996861
1.03812 1.04194 1 0.996338
1.03615 1.03922 1 0.997045
1.00246 1.00312 1.00179 0.997561
1.00299 1.00275 1.0029 0.997345
1.00366 1 1.00475 0.998923
1.00704 1 1.00914 0.997914
1.05293 1.05847 0.997974 0.996787
1.0535 1.05823 0.998805 0.996725
1.04546 1.05431 0.994587 0.996998
1.04564 1.05508 0.993963 0.997065
1.00374 1.00643 1 0.997326
1.01487 1.01828 1.00003 0.99662
1.02716 1.03077 1.00039 0.996115
1.04429 1.04856 0.998987 0.996941
1.04135 1.05101 0.9935 0.997296
1.03469 1.03845 1 0.996385
1.03768 1.04272 0.997939 0.99722
1.03766 1.04068 1 0.997102
1.00155 1.0043 1 0.997268
1.00332 1.00446 1.00159 0.997273
1.00554 1.00079 1.00721 0.997546
1.00075 1 1.00163 0.999127
1.0082 1 1.01005 0.998166
1.0462 1.05592 0.993757 0.997012
1.04631 1.05645 0.993346 0.997041
1.04208 1.05567 0.989817 0.997281
1.03797 1.0478 0.993293 0.997303
1.00635 1.00938 1 0.996997
1.04175 1.04699 0.997589 0.997396
1.00899 1.01242 1.00029 0.996329
1.02318 1.02684 1.00051 0.995926
1.03133 1.03507 1 0.996386
0.999468 1 1.00012 0.999344
1.00495 1 1.00647 0.998493
1.00622 1 1.00837 0.997872
1.00282 1.00569 1 0.997148
1.00418 1.00054 1.0064 0.99726
1.00446 1.00548 1.00186 0.997122
0.999984 1 1 0.999984
0.999698 1 1.00033 0.999372
1.04954 1.05325 1 0.996474
1.00828 1 1.00996 0.998331
0.999251 1.00089 1.00074 0.997623
1.00211 1.00058 1.0039 0.997635
1.03826 1.04191 1 0.996494
1.04009 1.0437 1 0.996533
1.00887 1.00979 1.00229 0.996809
1.01936 1.0223 1.00077 0.996351
1.0362 1.03972 1 0.996619
0.999529 1 1 0.999529
1.00237 1 1.00367 0.998701
1.00141 1.00374 1.00041 0.997268
1.00891 1.00059 1.01038 0.997955
1.00237 1.00303 1.00174 0.997611
1.04633 1.04982 0.999995 0.99668
1.03504 1.03862 1 0.99655
1.03964 1.04298 1 0.996794
1.00459 1.00477 1.00324 0.996589
1.0172 1.02099 1.00006 0.996238
0.999317 1 1.00038 0.99894
1.0087 1 1.01045 0.998261
1.00262 1.0035 1.002 0.997135
1.00795 1.00302 1.0072 0.997733
1.00862 1.01016 1.001 0.997479
1.04402 1.04988 0.997241 0.997176
1.03473 1.03841 1 0.996457
1.03721 1.04056 1 0.996783
1.00683 1.00603 1.00433 0.996472
1.00787 1.01187 1 0.996047
0.999617 1 1 0.999617
0.999025 1 1 0.999025
0.998733 1 1 0.998733
0.999037 1 1 0.999037
0.999109 1 1 0.999109
0.998808 1 1.00003 0.998779
0.998717 1 1.00003 0.998691
0.998943 1 1.00022 0.998719
0.999131 1 1 0.999131
0.999709 1 1 0.999709
0.999715 1 1 0.999715
1 1 1 1
0.999698 1 1 0.999698
0.999999 1 1 0.999999
1 1 1 1
0.999997 1 1 0.999997
1 1 1 1
1 1 1 1
0.999993 1 1 0.999993
0.999943 1 1 0.999943
1 1 1 1
1.00052 1 1.00069 0.999835
1 1 1 1
1 1 1 1
1.05457 1.05817 1 0.996594
1.05566 1.06067 0.998489 0.996785
1.05123 1.05939 0.995172 0.997105
1.04818 1.05798 0.993606 0.997112
1.05305 1.0594 0.997173 0.996827
1.04646 1.05015 1 0.996489
1.05316 1.05906 0.997639 0.996788
1.04824 1.0572 0.994489 0.997019
1.04921 1.05905 0.993583 0.997108
1.0478 1.06049 0.990798 0.997216
1.05091 1.05544 0.998805 0.996903
1.04648 1.05963 0.990234 0.99733
1.04832 1.05697 0.994807 0.997001
1.04907 1.06207 0.990533 0.997201
1.04912 1.0628 0.989797 0.997303
1.04368 1.05686 0.990154 0.997355
1.05287 1.05842 0.997963 0.996787
1.05308 1.05766 0.998969 0.996705
1.04565 1.05455 0.994521 0.997031
1.04653 1.05542 0.994511 0.997047
1.00511 1.00781 1 0.997318
1.01415 1.01754 1 0.996662
1.02722 1.03064 1.00058 0.996105
1.04447 1.04845 0.999309 0.996891
1.04014 1.05021 0.993039 0.997353
1.03888 1.04385 0.998012 0.997221
1.03195 1.03571 1 0.99637
1.04005 1.04301 1 0.997162
1.0015 1.00425 1 0.997268
1.00357 1.00563 1.00069 0.997269
1.00689 1.00097 1.0084 0.99754
1.00115 1 1.00206 0.999091
1.00795 1 1.00976 0.998206
1.04655 1.05624 0.993796 0.997014
1.04688 1.05706 0.993318 0.997036
1.04195 1.05489 0.99043 0.997273
1.00622 1.00925 1 0.996992
1.00959 1.01301 1.00026 0.996371
1.02174 1.02515 1.00076 0.995914
1.03845 1.04792 0.993649 0.997289
1.03459 1.03823 1 0.996495
1.03819 1.04368 0.997375 0.997363
0.999482 1 1.0001 0.99938
1.00317 1.00605 1 0.997139
1.0026 1.00444 1.00092 0.997247
1.00655 1.00182 1.00749 0.997252
1.00651 1 1.00863 0.997897
1.00499 1 1.00654 0.998458
1.04743 1.06007 0.990964 0.997091
1.04563 1.06249 0.986888 0.997208
1.03576 1.05338 0.985875 0.997364
1.03602 1.05045 0.988728 0.997504
1.00625 1.00949 1 0.996799
1.03373 1.03743 0.999467 0.996963
1.00442 1.00688 1.00165 0.995922
1.01256 1.01581 1.00104 0.995763
0.999625 1 1 0.999625
1.00077 1 1.00197 0.998799
1.00512 1 1.00698 0.998153
1.00647 1 1.00905 0.997441
1.00314 1.0048 1.00138 0.99697
1.00791 1.00259 1.00838 0.996948
0.999535 1 1 0.999535
1.00244 1 1.00373 0.998706
1.04635 1.04984 1 0.996674
1.00989 1.00034 1.01162 0.997948
1.00184 1.00432 1.00027 0.997265
1.00186 1.00273 1.00152 0.997611
1.03585 1.03945 1 0.996538
1.03988 1.0432 1 0.996819
1.006 1.00673 1.00273 0.996551
1.01601 1.0196 1.00027 0.996208
0.999194 1 1.00025 0.998943
1.00892 1 1.01069 0.99825
1.00327 1.00415 1.00198 0.997144
1.00687 1.00252 1.00662 0.997739
1.00918 1.01117 1.00048 0.997553
1.04529 1.05126 0.99709 0.997223
1.03429 1.03795 1 0.99648
1.03857 1.04185 1 0.996857
1.00687 1.00586 1.00458 0.996438
1.00809 1.01213 1.00003 0.995976
1.00012 1 1.00151 0.998614
1.00863 1 1.01077 0.997876
1.00855 1.00774 1.00378 0.997032
1.00773 1.00877 1.00161 0.997363
1.04191 1.06558 0.980266 0.997477
1.03892 1.04338 0.998471 0.997252
1.02214 1.02608 1 0.996157
1.01065 1.01035 1.00426 0.996056
0.999044 1 1 0.999044
0.998746 1 1 0.998746
0.998693 1 1 0.998693
0.999108 1 1 0.999108
0.998776 1 1.00003 0.99875
0.999129 1 1 0.999129
0.9987 1 1 0.998697
0.998954 1 1.00022 0.99873
0.998736 1 1 0.998736
0.999108 1 1.00054 0.998567
0.998962 1 1.00028 0.998681
0.999111 1 1 0.999111
0.99968 1 1 0.99968
0.999708 1 1 0.999708
1 1 1 1
0.999716 1 1 0.999716
1 1 1 1
1 1 1 1
0.999999 1 1 0.999999
1 1 1 1
1 1 1 1
1 1 1 1
0.999986 1 1 0.999986
1 1 1 1
0.999926 1 1 0.999926
1 1 1 1
1 1 1 1
1.05044 1.05472 0.999026 0.996904
1.0486 1.05856 0.993472 0.997093
1.04457 1.05846 0.989479 0.99737
1.04674 1.06011 0.990135 0.997227
1.04882 1.05739 0.994874 0.997012
1.05302 1.0588 0.997766 0.996769
1.04809 1.05684 0.994704 0.997001
1.04895 1.06174 0.990732 0.997192
1.0478 1.06198 0.989325 0.997302
1.04492 1.05776 0.990469 0.997365
1.05016 1.06208 0.991606 0.997146
1.05078 1.06865 0.985883 0.997354
1.04929 1.0682 0.984833 0.997421
1.04688 1.05655 0.99382 0.997016
1.04738 1.05759 0.993295 0.997031
1.04193 1.05412 0.991151 0.997264
1.00579 1.00882 1 0.996988
1.00957 1.01303 1.00018 0.996412
1.01991 1.02324 1.00085 0.995902
1.03898 1.04808 0.994027 0.997275
1.03406 1.03986 0.997082 0.997331
1.03639 1.03992 1 0.996605
1.00225 1.00486 1.00027 0.99713
0.998737 1.00137 1 0.997372
1.00793 1.00245 1.00824 0.997243
0.999516 1 1.0001 0.999416
1.00595 1 1.00805 0.997921
1.00519 1 1.00678 0.998422
1.04822 1.0606 0.991199 0.997099
1.045 1.06221 0.986544 0.997214
1.03598 1.05302 0.986433 0.997356
1.00363 1.00686 1 0.996792
1.00447 1.0071 1.0014 0.995999
1.01275 1.01607 1.0009 0.995843
1.03626 1.05017 0.989217 0.997508
1.03073 1.03516 0.998769 0.996943
0.999688 1 1 0.999688
1.00085 1 1.00205 0.998797
1.00047 1.00314 1.00032 0.997017
1.00967 1.00195 1.01063 0.997099
1.00584 1.00004 1.00833 0.997487
1.00504 1 1.00694 0.998118
1.04825 1.0662 0.985849 0.997275
1.03723 1.06319 0.978204 0.997318
1.03284 1.05321 0.98307 0.997551
1.02649 1.03857 0.990834 0.997513
1.00243 1.00464 1.00131 0.996489
1.01309 1.01563 1.0014 0.996099
1.00506 1.00674 1.00264 0.995711
0.999842 1 1 0.999842
0.999344 1 1 0.999344
0.99913 1 1.00006 0.999067
1.00149 1 1.00316 0.998331
1.0064 1 1.00864 0.997778
1.00865 1 1.01142 0.997259
0.999391 1.00192 1.00038 0.997101
1.03244 1.00098 1.03417 0.997345
0.999107 1 1.00016 0.998946
1.00951 1 1.01129 0.998239
1.04657 1.05262 0.996974 0.997269
1.00694 1.0029 1.0063 0.997745
1.00409 1.0048 1.00215 0.997153
1.00959 1.01196 1.00004 0.997626
1.03358 1.03721 1 0.996503
1.03981 1.04301 1 0.996931
1.00689 1.00568 1.00482 0.996405
1.00811 1.01226 1 0.995904
1.00062 1 1.00205 0.99858
1.00794 1 1.01008 0.997886
1.01061 1.0094 1.00415 0.997059
1.007 1.00819 1.00142 0.997399
1.04405 1.06776 0.98025 0.997496
1.03992 1.04399 0.99889 0.9972
1.02212 1.02602 1 0.996206
1.01199 1.01223 1.00377 0.996004
1.00182 1 1.00346 0.99837
1.04528 1.07202 0.977506 0.997502
1.00209 1 1.00457 0.99753
1.00988 1.01041 1.00268 0.996803
1.0364 1.05425 0.985433 0.997599
1.01939 1.02318 1 0.996299
1.00867 1.00966 1.00323 0.995801
0.998758 1 1 0.998758
0.998682 1 1 0.998682
0.998752 1 1 0.998752
0.999127 1 1 0.999127
0.998979 1 1.00024 0.998741
0.998702 1 1 0.998702
0.999108 1 1 0.999108
0.99911 1 1.00042 0.998687
0.998747 1 1 0.998747
0.998892 1 1.00031 0.998584
0.998815 1 1 0.998815
0.998744 1 1.00011 0.998633
0.999348 1 1.0009 0.998454
0.998626 1 1 0.998626
0.999045 1 1 0.999045
0.999641 1 1 0.999641
0.999677 1 1 0.999677
1 1 1 1
0.999706 1 1 0.999706
1 1 1 1
1 1 1 1
1 1 1 1
1 1 1 1
1 1 1 1
0.999868 1 1 0.999868
1 1 1 1
0.999999 1 1 0.999999
1 1 1 1
0.999979 1 1 0.999979
1 1 1 1
1 1 1 1
1.04609 1.05864 0.990741 0.997375
1.04646 1.06105 0.988916 0.997301
1.04879 1.06137 0.990941 0.997183
1.04787 1.05671 0.994616 0.997
1.04981 1.06198 0.991347 0.997165
1.05059 1.06807 0.986252 0.997345
1.04722 1.0661 0.984818 0.99743
1.05043 1.06852 0.985695 0.997334
1.0599 1.07956 0.984299 0.997446
1.05184 1.07524 0.98049 0.997709
1.04897 1.0611 0.991444 0.997106
1.04432 1.06195 0.986139 0.99722
1.03608 1.05266 0.986862 0.997348
1.003 1.00618 1.00006 0.996784
1.00514 1.00783 1.00126 0.996078
1.01519 1.01855 1.00078 0.995923
1.03643 1.04971 0.989819 0.997512
1.02804 1.03296 0.998304 0.996923
1.00096 1.00353 1.00037 0.997065
1.01318 1.00262 1.01332 0.997247
1.0067 1.00035 1.00883 0.997533
0.99975 1 1 0.99975
1.0008 1 1.00201 0.998796
1.00511 1 1.00704 0.998081
1.04813 1.06649 0.985456 0.997285
0.999837 1 1 0.999837
0.999311 1 1 0.999311
1.03782 1.06239 0.9795 0.99732
1.03133 1.0522 0.982599 0.997521
1.00302 1.00467 1.00179 0.996575
1.00532 1.00632 1.00332 0.995703
1.01392 1.01705 1.00084 0.99609
1.02532 1.03806 0.990222 0.997488
0.999272 1 1.00012 0.999149
1.00139 1 1.00307 0.998323
1.00123 1.00182 1.00242 0.996997
1.02793 1.00109 1.02938 0.997508
1.00722 1.00013 1.00984 0.997277
1.00579 1 1.00802 0.997795
1.05736 1.0788 0.982679 0.997402
1.01879 1.06064 0.962995 0.997456
1.02134 1.04487 0.979732 0.997703
1.00721 1.01966 0.990549 0.997206
1.00459 1.00237 1.00558 0.996658
1.0049 1.00374 1.0055 0.995682
0.999278 1 1 0.999278
0.999306 1 1 0.999306
0.99901 1 1 0.99901
0.998626 1 1.00011 0.998514
1.00389 1 1.00583 0.998074
1.00538 1.00016 1.0078 0.997444
1.04647 1 1.04932 0.997288
1.00176 1.00049 1.00364 0.997633
1.00105 1 1.0025 0.998546
1.00683 1 1.00895 0.997896
1.04544 1.06892 0.980475 0.997516
1.04051 1.04428 0.999241 0.997149
1.00609 1.00752 1.00115 0.997435
1.01275 1.01125 1.00441 0.997086
1.02244 1.02625 1.00004 0.996255
1.01354 1.01426 1.00335 0.995951
1.00202 1 1.00368 0.998353
1.04793 1.07531 0.976924 0.997557
1.00285 1 1.00531 0.997556
1.00836 1.00894 1.00269 0.996744
1.03511 1.05328 0.985134 0.997573
1.01859 1.02229 1 0.996379
1.00967 1.01039 1.00348 0.995817
1.00469 1 1.00666 0.99804
1.01469 1.04603 0.971998 0.997984
1.00381 1.00307 1.00349 0.997259
1.0044 1.00431 1.00379 0.996313
1.01729 1.02795 0.992461 0.997149
1.00233 1.00411 1.00221 0.996015
0.97928 1.00364 0.978249 0.997428
0.998671 1 1 0.998671
0.999197 0.999737 1.00071 0.998751
0.999278 1 1.00061 0.998668
0.999105 1 1 0.999105
0.999386 1 1.00069 0.998692
0.998707 1 1.00011 0.998601
0.998759 1 1 0.998759
0.999044 1 1 0.999044
0.998682 1 1.00006 0.998618
0.998781 1 1 0.998781
0.999109 1 1.00065 0.998455
0.998727 1 1.00011 0.998617
0.99877 1 1 0.99877
0.998767 1 1.00049 0.998274
0.999963 1 1.00153 0.99843
0.998555 1 1.00005 0.998507
0.998908 1 1 0.998908
0.999088 1 1.0004 0.998684
0.998887 1 1.00001 0.99888
0.999622 1 1 0.999622
0.999639 1 1 0.999639
1 1 1 1
0.999674 1 1 0.999674
1 1 1 1
1 1 1 1
1 1 1 1
1 1 1 1
1 1 1 1
0.999894 1 1 0.999894
0.999868 1 1 0.999868
1 1 1 1
1 1 1 1
1 1 1 1
0.999998 1 1 0.999998
1 1 1 1
1 1 1 1
1.04541 1.06438 0.984701 0.997438
1.05028 1.0675 0.986497 0.997335
1.04951 1.06194 0.991091 0.997183
1.05044 1.06847 0.98576 0.997332
1.05749 1.07734 0.984087 0.997443
1.05116 1.07353 0.981486 0.997636
1.06146 1.08495 0.980791 0.997511
0.975115 1.01605 0.963769 0.995786
1.01294 1.04401 0.971796 0.998401
0.999412 1 1 0.999412
1.04801 1.06678 0.985067 0.997296
1.03854 1.06163 0.980878 0.997321
1.0298 1.05129 0.982027 0.99749
1.00015 1.00268 1.00082 0.996659
1.00438 1.00468 1.00402 0.995694
1.01341 1.01705 1.00034 0.996082
1.02419 1.03764 0.98955 0.997462
0.998926 1.00195 1.00008 0.996896
1.02063 1.00009 1.02292 0.997674
1.00529 1 1.00802 0.997295
0.999833 1 1 0.999833
1.00659 1 1.0088 0.997812
0.99941 1 1.00018 0.999229
1.00137 1 1.00305 0.998315
0.999277 1 1 0.999277
1.05408 1.07905 0.979401 0.997409
0.999321 1 1 0.999321
0.999305 1 1 0.999305
0.998903 1 0.999928 0.998975
1.02305 1.06097 0.966724 0.997455
1.0218 1.0452 0.979909 0.997656
1.00138 1.00192 1.00279 0.996686
1.00789 1.00654 1.00556 0.9958
1.00647 1.01753 0.99192 0.99719
0.998744 1 1.00018 0.998567
1.00409 1 1.00607 0.998027
1.00737 1.00031 1.00955 0.997527
1.03681 1 1.0396 0.997316
1.00436 1.00004 1.00685 0.997491
1.03634 1.06775 0.973 0.997513
1.00266 1.05152 0.955819 0.997606
1.01411 1.02873 0.988392 0.997362
0.992285 1.00707 0.988337 0.996946
1.00355 1 1.00631 0.997253
0.998853 1 1 0.998853
0.99879 1 1 0.99879
0.9998 1 1.00109 0.998707
1.0039 1 1.00561 0.998298
1.00683 1 1.00895 0.997901
1.03474 0.999957 1.03737 0.99751
1.02931 1.00142 1.03039 0.997536
1.00197 1 1.00364 0.998335
1.00346 1 1.00589 0.997583
1.04972 1.07946 0.974785 0.99761
1.03433 1.05309 0.984597 0.997547
1.01809 1.02171 1 0.99646
1.00662 1.00727 1.00268 0.996685
1.01036 1.01095 1.0036 0.995834
1.00422 1 1.00615 0.998081
1.01381 1.0463 0.970871 0.99802
1.00137 1.00197 1.00213 0.997272
1.00364 1.00326 1.00408 0.996316
1.01662 1.02824 0.991408 0.997263
1.00271 1.00399 1.00273 0.996007
0.979057 1.00363 0.978955 0.996488
1.00481 1.00065 1.00625 0.997918
1.00393 1.02355 0.982825 0.997964
1.00057 1.00137 1.00205 0.997157
1.00438 1.00142 1.00644 0.99654
0.992522 1.00605 0.989509 0.997009
0.920919 0.978356 0.964064 0.976379
0.919747 0.970907 0.958951 0.987857
0.971337 0.9854 0.988158 0.997542
0.745787 0.845904 0.923016 0.955178
0.668491 0.812269 0.873731 0.941929
0.999243 0.999383 1.00111 0.99875
1.0002 0.99962 1.00186 0.998721
0.999591 1 1.00089 0.998706
0.999043 1 1 0.999043
0.998609 1 1 0.998609
0.998793 1 1.00034 0.998456
0.99868 1 1.00008 0.998601
0.998747 1 1 0.998747
1.00065 1 1.00224 0.998406
0.998942 1 1 0.998942
0.99854 1 1.00001 0.998527
0.998837 1 1.00011 0.99873
0.999098 1 1.00079 0.998313
1.00169 1 1.00338 0.998325
1.00245 1 1.00404 0.998417
1.00125 1 1.00292 0.998337
0.998813 1 1.00038 0.998438
0.998874 1 1 0.998874
0.998658 1 1.00013 0.998524
0.998825 1 1.00031 0.998516
0.998852 1 1.00015 0.998702
0.999096 1 1.00045 0.998644
0.998993 1 1 0.998993
0.998907 1 1.00003 0.998877
0.999617 1 1 0.999617
0.999622 1 1 0.999622
1 1 1 1
0.999636 1 1 0.999636
1 1 1 1
1 1 1 1
1 1 1 1
1 1 1 1
1 1 1 1
0.999921 1 1 0.999921
0.99989 1 1 0.99989
1 1 1 1
0.999868 1 1 0.999868
1 1 1 1
1 1 1 1
1 1 1 1
1 1 1 1
1 1 1 1
1.05472 1.0748 0.983835 0.99744
1.0505 1.06841 0.985862 0.99733
1.05104 1.07216 0.982692 0.997564
0.976413 1.01587 0.965158 0.995859
1.05839 1.08225 0.980393 0.997511
1.02509 1.04746 0.980334 0.998274
1.04286 1.05857 0.987492 0.997636
0.93194 0.980775 0.962752 0.986971
0.993291 1.01935 0.97772 0.996639
0.999431 1 1 0.999431
0.999408 1 1 0.999408
0.998965 1 1 0.998965
0.99905 1 1 0.99905
1.05177 1.07933 0.976994 0.997416
1.0269 1.06079 0.970522 0.997453
1.02221 1.04529 0.980262 0.997609
1.00038 1.00087 1.0028 0.996714
1.01166 1.01039 1.00536 0.995917
1.00562 1.01567 0.992917 0.997173
1.01668 1 1.01931 0.99742
1.02949 1.00003 1.0322 0.997344
1.00245 1 1.00492 0.997538
0.999304 1 1 0.999304
1.00243 1 1.00445 0.99798
0.998805 1 1.00018 0.998621
0.999364 1 1 0.999364
0.998939 1 1 0.998939
1.03402 1.06762 0.970921 0.997528
0.998893 1 1 0.998893
0.998849 1 1 0.998849
0.999287 1 1.00043 0.998855
1.00771 1.05417 0.958228 0.997598
1.01347 1.02864 0.987858 0.997361
1.00374 1.00047 1.00605 0.997235
0.994946 1.00724 0.990754 0.997016
1.00234 1 1.0041 0.998246
1.00591 1 1.00812 0.9978
1.03541 1.00138 1.03655 0.997516
1.03518 1.00025 1.03758 0.997438
0.996867 1.04344 0.957563 0.997709
0.995337 1.03336 0.965526 0.997591
1.00486 1.01116 0.996726 0.997032
0.985095 1.00091 0.986286 0.997888
0.99962 1 1.00106 0.99856
1.00105 1 1.00259 0.998465
1.01309 0.999994 1.01486 0.998254
1.05441 1 1.057 0.997542
0.897726 0.968499 0.9521 0.973559
1.00451 1 1.0064 0.998122
0.999263 1.00088 1.0011 0.997284
1.01435 1.04623 0.971417 0.998058
1.01604 1.02801 0.990956 0.997376
1.00307 1.00379 1.0033 0.995997
1.00328 1.0025 1.00447 0.996317
0.979629 1.00488 0.979253 0.995523
1.00354 1.0003 1.00527 0.997976
1.00374 1.02472 0.981538 0.99795
1.00029 1.00141 1.00172 0.997173
1.00454 1.00191 1.00611 0.996542
0.996084 1.00704 0.992093 0.997006
0.919541 0.984902 0.958948 0.973605
0.913322 0.968007 0.957727 0.985154
0.975136 0.986062 0.991332 0.997567
0.743399 0.841777 0.923672 0.956109
0.654286 0.801797 0.87036 0.937571
1.00159 1.00002 1.00341 0.998164
0.774417 0.863069 0.936262 0.958367
0.706812 0.818269 0.915867 0.943139
0.9884 1.0063 0.984249 0.997932
1.00751 1.00149 1.00841 0.997624
1.013 1.00487 1.01077 0.997348
0.965957 0.978532 0.989296 0.99783
0.904376 0.960275 0.966335 0.974599
0.887182 0.94176 0.957755 0.983599
0.733819 0.842515 0.90857 0.958634
0.727056 0.864558 0.893557 0.941135
1.0018 0.999451 1.00358 0.998773
1.00086 0.99978 1.0024 0.998681
1.00347 1 1.00463 0.998845
0.998976 1 1 0.998976
0.998547 1 1 0.998547
1.00116 1 1.00278 0.998382
0.999645 1 1.0013 0.998351
0.998691 1 1 0.998691
0.998876 1 1 0.998876
1.002 1 1.0037 0.998313
1.00162 1 1.00328 0.998348
0.998579 1 1.0001 0.998476
1.00255 1 1.00411 0.998441
1.00432 1 1.00595 0.998376
1.01045 1 1.01192 0.998542
1.00006 1 1.00178 0.998278
0.998808 1 1.00032 0.998489
0.998547 1 1.00003 0.99852
0.999116 1 1.0006 0.998522
0.999335 1 1.00099 0.998345
0.999174 1 1.00062 0.998552
1.00025 1 1.00172 0.998534
1.00423 1 1.0059 0.998341
0.99964 1 1.00098 0.998662
0.998848 1 1.00015 0.998703
0.99903 1 1 0.99903
0.99887 1 1.00027 0.998605
0.998965 1 1 0.998965
0.999606 1 1 0.999606
0.998882 1 1.00001 0.998873
0.999618 1 1 0.999618
1 1 1 1
0.999621 1 1 0.999621
1 1 1 1
1 1 1 1
1 1 1 1
1 1 1 1
1 1 1 1
0.999386 1 1 0.999386
0.999925 1 1 0.999925
0.999917 1 1 0.999917
1 1 1 1
0.999887 1 1 0.999887
1 1 1 1
1 1 1 1
1 1 1 1
1 1 1 1
1 1 1 1
0.97842 1.01568 0.967244 0.995938
1.05603 1.07928 0.9809 0.99751
1.03214 1.05059 0.984262 0.998144
0.925272 0.97448 0.960949 0.988089
0.99297 1.01907 0.977509 0.996808
1.04259 1.06236 0.983762 0.997591
1.00504 1.02747 0.981241 0.996867
0.939553 0.975369 0.973585 0.989416
0.919108 0.977629 0.964993 0.974246
0.74281 0.843397 0.918922 0.958444
0.63594 0.772422 0.874828 0.941107
0.998995 1 1 0.998995
0.999429 1 1 0.999429
0.999404 1 1 0.999404
0.998957 1 1 0.998957
0.998726 1 1 0.998726
0.998745 1 1 0.998745
0.998929 1 1 0.998929
0.99901 1 1 0.99901
1.0303 1.06783 0.967236 0.997542
1.01326 1.05794 0.960081 0.99759
1.01298 1.02864 0.987386 0.99736
1.00304 1.00143 1.00441 0.997218
0.997429 1.00698 0.993411 0.997087
1.03851 1.00082 1.04027 0.997496
1.03478 1.00052 1.03697 0.997367
1.00681 1 1.00913 0.9977
0.998764 1 0.999857 0.998908
1.00236 1 1.00417 0.998193
0.998935 1 1 0.998935
0.999002 1 1 0.999002
0.995889 1.04416 0.955944 0.997723
0.999685 1 1.00111 0.998579
1.00121 1 1.0027 0.998513
0.993814 1.03193 0.965418 0.997566
1.00212 1.01156 0.993477 0.997169
0.987169 1.0012 0.988195 0.997769
1.02147 1.00016 1.02329 0.998062
1.05041 1.00112 1.05178 0.997573
0.981042 1.02729 0.957202 0.997675
0.986428 1.01033 0.978705 0.997591
0.978247 1.00166 0.978954 0.997622
0.988459 1.00118 0.989235 0.998042
1.00465 1 1.00649 0.998175
1.01043 1 1.01221 0.998243
1.04917 1 1.05139 0.997883
0.775443 0.872478 0.925721 0.960096
0.915337 0.975818 0.959765 0.977344
1.00139 0.999857 1.0035 0.998034
0.999919 1.00124 1.0015 0.99719
1.00367 1.02623 0.98004 0.997937
0.99908 1.00846 0.993675 0.997005
1.00482 1.00258 1.00571 0.996548
0.916212 0.975085 0.964069 0.974643
0.917743 0.974968 0.954895 0.985769
0.976255 0.984716 0.993807 0.997587
0.747307 0.843497 0.923444 0.959411
0.641471 0.791387 0.868699 0.933081
1.00082 0.999838 1.00282 0.998164
0.773827 0.869608 0.927784 0.959122
0.693178 0.805558 0.914698 0.94074
0.988231 1.00725 0.983158 0.997929
1.0076 1.0019 1.00807 0.997645
1.0112 1.0032 1.0105 0.997499
0.958891 0.972691 0.987791 0.997997
0.914443 0.971782 0.968002 0.972102
0.883865 0.94 0.953579 0.986056
0.739587 0.840188 0.920058 0.956747
0.726063 0.870382 0.887271 0.940174
1.00309 1 1.00445 0.998642
0.73854 0.830395 0.941905 0.94424
0.810831 0.902773 0.943683 0.951757
0.988003 0.996129 0.993164 0.998669
1.01476 1.00252 1.01362 0.998603
0.967989 0.964219 1.00624 0.997684
0.892286 0.929032 0.972838 0.987263
0.872423 0.928961 0.967418 0.970768
0.743465 0.835315 0.92943 0.95762
0.773965 0.911009 0.899648 0.944335
1.00181 0.999523 1.00364 0.998657
1.00272 1 1.00391 0.998806
1.00601 0.999646 1.0073 0.999076
0.998877 1 1 0.998877
0.998514 1 1 0.998514
1.00234 1 1.00399 0.998358
1.00257 1 1.00427 0.998301
1.0024 1 1.00394 0.998466
0.998752 1 1.00027 0.998487
1.00291 1 1.00456 0.998357
1.00009 1 1.00182 0.99828
1.01034 0.999884 1.01188 0.9986
1.02928 0.998916 1.03133 0.999095
1.00558 1 1.0072 0.998387
0.999496 1 1.00126 0.998238
0.998535 1 1.00002 0.998516
0.999479 1 1.00095 0.998527
0.99968 1 1.00134 0.998338
0.999529 1 1.00099 0.998541
0.999442 1 1.00083 0.998617
1.00255 1 1.00408 0.998478
1.00093 1 1.0025 0.998432
1.0018 1 1.00317 0.998628
0.999087 1 1.0007 0.998385
0.998714 1 1.00093 0.997788
1.00355 1 1.00532 0.998239
1.00359 1 1.00525 0.998341
1.00322 1 1.00468 0.998552
1.00039 1 1.00173 0.998659
0.99901 1 1 0.99901
0.999145 1 1.00044 0.998704
0.999031 1 1 0.999031
0.999597 1 1 0.999597
0.998937 1 1 0.998937
0.999608 1 1 0.999608
0.999996 1 1 0.999996
0.999619 1 1 0.999619
0.999999 1 1 0.999999
1 1 1 1
1 1 1 1
1 1 1 1
1 1 1 1
0.999394 1 1 0.999394
0.999904 1 1 0.999904
0.999388 1 1 0.999388
1 1 1 1
0.999926 1 1 0.999926
0.999914 1 1 0.999914
1 1 1 1
1 1 1 1
1 1 1 1
1 1 1 1
1 1 1 1
0.767859 0.860491 0.933272 0.956151
0.699293 0.813964 0.911511 0.942523
0.926156 0.977876 0.958017 0.988614
0.994494 1.0189 0.978998 0.996983
1.0454 1.06636 0.982764 0.997546
0.921379 0.958955 0.969725 0.990812
1.00554 1.02678 0.982243 0.997012
0.931116 0.989604 0.964696 0.975331
0.742184 0.845496 0.918267 0.955941
0.636795 0.78157 0.869815 0.936709
0.954537 0.996237 0.964775 0.993125
0.917456 0.969973 0.970031 0.975079
0.731858 0.84164 0.907735 0.957947
0.711929 0.855129 0.885559 0.940129
0.999996 1 1.00142 0.998575
0.99903 1 1 0.99903
0.999427 1 1 0.999427
0.99895 1 1 0.99895
0.998782 1 1 0.998782
0.999622 1 1.00109 0.998537
0.998723 1 1 0.998723
0.99862 1 1 0.99862
0.998888 1 1 0.998888
0.998971 1 1 0.998971
0.995888 1.0443 0.955808 0.997737
0.990771 1.02928 0.964954 0.997543
0.99979 1.01224 0.990369 0.997306
0.989365 1.00134 0.990365 0.99765
1.04541 1.00276 1.04504 0.997604
1.03033 1.00027 1.03225 0.997872
0.999799 1 1.00124 0.998561
0.999732 1 1.00114 0.998597
0.981887 1.02762 0.957659 0.997742
1.00566 1 1.00753 0.998139
1.00999 1 1.01182 0.998197
0.983754 1.00851 0.977869 0.997527
0.976301 1.0013 0.977265 0.997717
0.989825 1.002 0.989851 0.997974
1.04289 1 1.04514 0.997839
0.97982 1.00382 0.978049 0.998003
0.970655 0.99924 0.972939 0.998411
1.01364 1.00091 1.01456 0.99819
1.00867 1 1.0106 0.998088
1.00991 1 1.01195 0.997984
1.02703 1 1.0291 0.997988
0.763611 0.845988 0.948089 0.952048
0.783121 0.871325 0.935973 0.960252
0.903839 0.972348 0.95468 0.973669
1.00045 0.999671 1.00262 0.998163
1.00726 1.00188 1.00773 0.997664
0.990787 1.00832 0.984652 0.997927
1.00962 1.00183 1.01016 0.997646
0.769522 0.864639 0.926578 0.960516
0.908989 0.968157 0.964291 0.973654
0.881014 0.936801 0.956027 0.983705
0.955852 0.968744 0.988511 0.998159
0.733966 0.840526 0.915168 0.954166
0.693154 0.806554 0.912764 0.941538
0.718202 0.862126 0.883739 0.942652
1.00326 0.999824 1.00482 0.998632
0.740386 0.832902 0.938743 0.94693
0.822352 0.913362 0.946238 0.951513
0.987783 0.993972 0.995009 0.998759
1.01474 1.00158 1.0146 0.998559
0.965362 0.962913 1.00444 0.998111
0.885441 0.932552 0.963992 0.984948
0.889782 0.937727 0.97451 0.97369
0.761894 0.856458 0.931295 0.955215
0.762219 0.899833 0.895019 0.946424
1.00737 0.998978 1.00898 0.999431
0.838007 0.918832 0.952241 0.957778
0.80888 0.909606 0.930351 0.955837
0.987022 0.972631 1.01509 0.999715
0.914438 0.928971 0.992977 0.991318
0.895547 0.926975 0.993496 0.97242
0.80825 0.889718 0.952901 0.953335
0.799225 0.937191 0.901558 0.945905
1.00262 1 1.00386 0.998767
1.00619 0.999306 1.00783 0.99907
1.02316 0.997134 1.02676 0.999354
0.998876 1 1.00039 0.998485
1.00004 1 1.00176 0.998282
1.00109 1 1.00275 0.998338
1.0103 0.999745 1.01192 0.998659
0.999823 1 1.00159 0.998238
1.00542 1 1.00705 0.998379
1.03385 0.999625 1.03509 0.999173
1.04328 0.996432 1.0476 0.999446
1.03422 0.999293 1.03592 0.999068
0.999922 1 1.0016 0.998329
0.999902 1 1.00157 0.99833
0.999496 1 1.00097 0.99853
0.9987 1 1 0.998698
1.00062 1 1.00217 0.99845
1.00177 1 1.0033 0.998479
1.00235 1 1.00371 0.998645
1.00096 1 1.00248 0.998485
1.00666 0.999351 1.00835 0.998965
0.997013 1.00024 0.99828 0.998488
0.99972 1.0005 1.00082 0.998403
0.998698 1 1.00069 0.998005
1.00119 1.0027 1.00153 0.996979
1.00241 1 1.00428 0.998134
0.998803 1 1.00079 0.998013
1.00326 1 1.00501 0.998254
1.00585 1 1.00747 0.998391
1.00268 1 1.00434 0.998342
1.00291 1 1.00437 0.998551
0.99922 1 1.00031 0.998912
1.00071 1 1.00205 0.998657
0.999008 1 1 0.999008
0.999581 1 1 0.999581
0.999033 1 1 0.999033
0.999598 1 1 0.999598
0.999989 1 1 0.999989
0.99961 1 1 0.99961
0.999994 1 1 0.999994
1 1 1 1
0.999998 1 1 0.999998
1 1 1 1
1 1 1 1
0.99916 1 1 0.99916
0.999864 1 1 0.999864
0.999322 1 1 0.999322
1 1 1 1
0.999908 1 1 0.999908
0.999389 1 1 0.999389
1 1 1 1
1 1 1 1
0.999927 1 1 0.999927
1 1 1 1
1 1 1 1
1 1 1 1
0.733439 0.829322 0.933732 0.94715
0.774216 0.86771 0.931439 0.957929
0.816534 0.912145 0.941246 0.951059
0.695205 0.810945 0.910871 0.941163
0.922386 0.968447 0.96365 0.988365
1.00353 1.02627 0.980616 0.997166
0.935992 0.987019 0.971416 0.976206
0.751785 0.848818 0.923913 0.958624
0.641381 0.79391 0.866606 0.932231
0.952972 0.99095 0.969176 0.99226
0.911349 0.96964 0.968145 0.970808
0.74555 0.849966 0.917355 0.956175
0.712658 0.858962 0.884617 0.93789
0.928653 0.976716 0.960543 0.989848
0.888608 0.933252 0.98144 0.970168
0.766753 0.868748 0.925853 0.953277
0.768171 0.908623 0.897878 0.94158
1.00173 1 1.00344 0.998297
0.999325 1 1.00071 0.99862
0.999064 1 1 0.999064
0.998837 1 1 0.998837
0.998596 1 1.0004 0.998195
0.998931 1 1.00035 0.998581
0.998701 1 1 0.998701
0.998587 1 1 0.998587
0.998666 1 1.00001 0.998658
0.998848 1 1 0.998848
0.983122 1.02876 0.957738 0.997808
0.98331 1.0075 0.97847 0.997467
0.974117 1.00129 0.974998 0.997811
0.993296 1.00326 0.992145 0.997908
1.03548 1 1.03777 0.997795
1.00949 1 1.01136 0.998152
1.00608 1 1.00799 0.998103
1.00781 1 1.00978 0.998049
0.977492 1.00404 0.975493 0.998014
1.00833 1 1.01038 0.997973
1.02749 1 1.02958 0.997972
0.969301 0.999751 0.971103 0.998393
1.01009 1.00196 1.00998 0.998148
0.952789 0.982275 0.971522 0.998415
0.984011 0.989721 0.994993 0.999234
1.03879 0.999668 1.0408 0.998401
1.00483 1 1.00685 0.997986
1.01811 1 1.02009 0.998058
0.8479 0.924799 0.95389 0.961168
0.764756 0.84531 0.950889 0.951431
0.77198 0.865694 0.930995 0.957843
1.00346 0.999845 1.005 0.998624
1.01518 1.00057 1.01611 0.998514
0.984362 0.991763 0.99368 0.99885
0.743353 0.834922 0.939432 0.947728
0.886693 0.932918 0.979387 0.970455
0.888929 0.930371 0.968588 0.986442
0.957315 0.959093 0.999615 0.99853
0.762991 0.86009 0.926017 0.95798
0.829348 0.91881 0.948791 0.951351
0.766839 0.902961 0.897157 0.946601
1.00583 0.998869 1.00759 0.999383
0.835076 0.917721 0.948579 0.959273
0.808963 0.909551 0.930439 0.955903
0.989462 0.976384 1.01385 0.999548
0.926328 0.938956 0.995424 0.991086
0.87053 0.920141 0.976166 0.969183
0.79971 0.936978 0.901707 0.946538
0.822977 0.897127 0.96099 0.954586
1.00258 0.980533 1.02278 0.999711
0.818897 0.904264 0.937858 0.965599
0.833198 0.932313 0.933306 0.957552
0.767419 0.907391 0.898002 0.941803
0.963796 0.95254 1.01413 0.997721
0.92206 0.940979 1.00641 0.973654
0.866262 0.931821 0.97217 0.956257
1.0068 0.99895 1.0088 0.999063
1.02291 0.996957 1.02678 0.99927
1.02246 0.985149 1.03833 0.999566
0.999874 1 1.00164 0.998237
1.0048 1 1.00644 0.998369
1.03856 0.999768 1.03958 0.999251
1.0003 1 1.00197 0.998335
1.03341 0.999384 1.035 0.999079
1.04488 0.996213 1.04946 0.999421
1.03337 0.992215 1.04201 0.999489
1.02138 0.998778 1.02359 0.999058
1.00041 1 1.00194 0.998469
1.00137 1 1.00289 0.998481
1.00288 1 1.00423 0.998664
1.00601 0.999677 1.00741 0.998937
1.00049 1 1.00201 0.998484
1.00192 1 1.00307 0.99885
0.997912 1.00008 0.999073 0.998759
1.00201 1.00025 1.0042 0.997575
1.00023 1.00096 1.00084 0.998426
0.999176 1.00069 1.00057 0.997917
0.998638 1.0009 1.00101 0.996726
1.0126 1.01467 1.00129 0.99668
1.00212 1.00158 1.00276 0.997786
1.00016 1.00175 1.00138 0.997031
1.00819 1 1.01001 0.998191
1.00347 1.0004 1.00495 0.998127
0.998881 1 1.00065 0.998236
1.00315 1 1.00489 0.998269
1.00519 1 1.00677 0.998426
1.0001 1 1.00132 0.998781
1.00277 1 1.00422 0.99855
0.999297 1 1.00039 0.998912
0.999523 1 1 0.999523
0.999005 1 1 0.999005
0.999578 1 1 0.999578
0.999984 1 1 0.999984
0.999598 1 1 0.999598
0.999988 1 1 0.999988
1 1 1 1
0.999992 1 1 0.999992
1 1 1 1
1 1 1 1
0.998917 1 1 0.998917
0.999677 1 1 0.999677
0.999158 1 1 0.999158
1 1 1 1
0.999815 1 1 0.999815
0.99925 1 1 0.99925
1 1 1 1
1 1 1 1
0.999913 1 1 0.999913
1 1 1 1
1 1 1 1
1 1 1 1
0.834669 0.922037 0.944592 0.958344
0.731461 0.829068 0.929485 0.949202
0.770372 0.863605 0.931647 0.957489
0.998467 1 1 0.998467
0.815142 0.907496 0.937386 0.958231
0.81529 0.911734 0.940375 0.950917
0.699308 0.818184 0.906166 0.943213
0.960674 0.993828 0.975257 0.991164
0.907917 0.961976 0.968559 0.974441
0.748934 0.862101 0.911114 0.953482
0.707603 0.847259 0.889212 0.939221
0.926255 0.972987 0.964577 0.98693
0.888868 0.934734 0.976923 0.973395
0.774856 0.868633 0.935343 0.953704
0.764258 0.903076 0.898175 0.942225
0.886766 0.934365 0.964547 0.98394
0.88354 0.918816 0.990549 0.970782
0.836594 0.909135 0.963608 0.954962
0.800374 0.936573 0.903509 0.945842
1.00114 1 1.00307 0.99807
1.00294 1 1.00469 0.998253
0.998859 1 1.00019 0.998666
0.998283 1 1.00002 0.998267
0.998826 1 1.00056 0.998263
0.998625 1 1 0.998625
0.998593 1 1 0.998593
0.998721 1 1.00003 0.998696
0.974207 1.00473 0.971545 0.998019
0.967607 1.00073 0.968467 0.99838
1.00733 1 1.00934 0.99801
1.00682 1.00297 1.00575 0.998103
1.02931 1 1.03142 0.997956
1.00777 1 1.00983 0.997962
1.00527 1 1.00729 0.997998
0.956813 0.982466 0.975336 0.998517
1.01652 1 1.01847 0.998084
1.02831 1.00032 1.02959 0.998434
0.980941 0.990827 0.990729 0.999287
1.00734 1 1.00923 0.998129
0.94975 0.968327 0.982555 0.998229
1.00176 0.986829 1.01567 0.999474
1.04958 0.997261 1.05401 0.998537
1.01292 1 1.0147 0.998247
0.829125 0.907155 0.94394 0.968265
0.847369 0.924806 0.953368 0.961083
0.767514 0.844493 0.955871 0.950804
1.00375 0.998648 1.00578 0.999338
0.992511 0.97943 1.01398 0.999385
0.834475 0.918727 0.945419 0.960734
0.895895 0.921827 0.998665 0.973168
0.915566 0.936513 0.989651 0.987856
0.821995 0.896911 0.961424 0.953246
0.809799 0.910635 0.930248 0.955948
0.801154 0.937615 0.902114 0.947174
1.00671 0.987037 1.02027 0.999669
0.820505 0.905633 0.93831 0.965568
0.832384 0.930091 0.932607 0.95962
0.972557 0.95788 1.0159 0.999427
0.762991 0.901522 0.898108 0.942354
0.900122 0.924838 1.00183 0.971494
0.872491 0.93871 0.972443 0.955796
1.00103 0.975359 1.02657 0.999751
0.843626 0.925835 0.941508 0.967815
0.812708 0.904514 0.937442 0.958462
0.709678 0.853379 0.88438 0.94033
0.835296 0.908543 0.963231 0.954475
0.951622 0.950916 1.00577 0.995001
0.929635 0.938903 1.02294 0.967926
1.0202 0.997484 1.02361 0.999188
1.0247 0.98626 1.03946 0.999534
1.0117 0.974523 1.03858 0.999582
1.00073 1 1.00239 0.998341
1.03554 0.999453 1.03705 0.999091
1.04724 0.997335 1.05067 0.999396
1.01643 0.999017 1.01841 0.999045
1.03337 0.993924 1.04022 0.999488
1.011 0.989373 1.02264 0.999235
1.005 0.999938 1.00616 0.998908
1.00016 1 1.00168 0.998483
1.00436 1 1.00554 0.99883
1.01029 0.999996 1.01216 0.998149
0.999028 1 1 0.999028
0.999991 1.00022 1.00202 0.997764
1.00196 1.0009 1.00465 0.996424
1.00533 1.00745 1.00188 0.996022
0.999727 1.0015 1.0004 0.997826
0.999091 1.00143 1.00112 0.996543
1.01372 1.01647 1.00053 0.99677
1.00769 1.0078 1.00261 0.997287
1.01169 1.0137 1.00125 0.99677
1.00725 1 1.00927 0.997992
1.0043 1.00321 1.00333 0.997762
0.998864 1.00051 1.00128 0.997083
1.00385 1 1.00526 0.998591
1.00758 1 1.00939 0.998207
1.00456 1.00073 1.00572 0.998121
1.00481 1 1.00636 0.998461
1.00061 1 1.00184 0.99878
0.999483 1 1.00007 0.999412
0.99951 1 1.0006 0.998913
0.999518 1 1 0.999518
0.999979 1 1 0.999979
0.999576 1 1 0.999576
0.999983 1 1 0.999983
1 1 1 1
0.999986 1 1 0.999986
1 1 1 1
1 1 1 1
0.99883 1 1 0.99883
0.999532 1 1 0.999532
0.998962 1 1 0.998962
1 1 1 1
0.999662 1 1 0.999662
0.999156 1 1 0.999156
1 1 1 1
1 1 1 1
0.999766 1 1 0.999766
1 1 1 1
1 1 1 1
1 1 1 1
0.825106 0.907133 0.941064 0.966539
0.837335 0.921616 0.948055 0.958331
0.731975 0.829066 0.929979 0.949367
0.998501 1 1 0.998501
0.998429 1 1 0.998429
0.998372 1 1 0.998372
0.832497 0.933785 0.931272 0.957324
0.811733 0.906951 0.933963 0.958296
0.814497 0.911131 0.940212 0.950785
0.931811 0.977822 0.963615 0.988928
0.873713 0.928978 0.969546 0.970052
0.766286 0.852823 0.938235 0.957679
0.775902 0.912122 0.904106 0.940881
0.889194 0.938769 0.96001 0.986647
0.890536 0.923643 0.992788 0.97116
0.815985 0.886524 0.962964 0.955832
0.799483 0.937207 0.901349 0.946414
0.886599 0.928346 0.970116 0.98445
0.905052 0.928924 1.00212 0.972241
0.866067 0.929946 0.973668 0.956494
0.777844 0.91388 0.901348 0.944302
0.998786 1 1.00064 0.998144
1.00179 1 1.00376 0.99804
1.00284 1 1.00464 0.998209
0.998268 1 1.00001 0.998257
0.998669 1 1.00034 0.998331
0.998599 1 1 0.998599
0.959126 0.979646 0.980425 0.998602
0.976359 0.989958 0.986931 0.999323
1.00551 1 1.00751 0.998009
1.01987 1.00052 1.0209 0.998467
1.01697 1 1.0189 0.998111
1.00938 1 1.01128 0.99812
1.01165 0.999218 1.01419 0.998273
0.956836 0.968447 0.989669 0.998323
1.04753 0.996668 1.05242 0.998679
1.00587 0.982828 1.02408 0.99938
1.00859 0.998928 1.01126 0.99843
0.977033 0.96191 1.01768 0.998076
1.00638 0.977801 1.02986 0.999387
1.03471 0.988636 1.04787 0.998792
0.85636 0.930918 0.948138 0.970228
0.830755 0.907744 0.944692 0.968767
0.846789 0.924729 0.952881 0.960996
1.012 0.993443 1.01906 0.999627
0.961451 0.954881 1.00866 0.998236
0.821974 0.906632 0.938983 0.965537
0.896001 0.91345 1.00549 0.975539
0.867264 0.936078 0.971129 0.954032
0.832556 0.92853 0.932361 0.961687
0.776638 0.9113 0.905547 0.941122
0.996796 0.972678 1.02502 0.99978
0.844613 0.925457 0.942244 0.968586
0.813411 0.907051 0.935561 0.958531
0.94764 0.94645 1.01007 0.991278
0.710935 0.857116 0.884084 0.938204
0.810844 0.88458 0.959749 0.955086
0.939226 0.94513 1.02186 0.972492
1.00197 0.96008 1.04479 0.998899
0.825927 0.906317 0.942706 0.966686
0.823998 0.917386 0.944057 0.951428
0.634881 0.769941 0.875662 0.94167
0.760234 0.862476 0.924716 0.953216
0.904657 0.925678 1.00593 0.971526
0.926118 0.941802 0.994713 0.988574
1.02719 0.987203 1.04103 0.999501
1.01608 0.981266 1.0359 0.999586
1.0118 0.985509 1.02718 0.999515
1.01107 0.999344 1.01271 0.999032
1.03115 0.995151 1.0367 0.999487
1.01463 0.987361 1.02832 0.999319
1.00851 0.999977 1.00973 0.998809
1.00686 1 1.00806 0.998808
1.00837 1.00002 1.0104 0.997969
1.02017 1.00083 1.02279 0.996608
0.997829 1.00005 0.99982 0.997957
1.00339 1.00121 1.00577 0.996419
1.00442 1.00252 1.00637 0.995549
1.00587 1.00838 1.00191 0.995609
1.00791 1.01048 1.00108 0.99638
1.00521 1.00732 1.00194 0.995972
0.999326 1.00173 1.00124 0.99636
1.00646 1.00831 1.0011 0.997074
1.01398 1.01669 1.00048 0.996855
1.0025 1.00029 1.00464 0.997589
1.00917 1.00909 1.00274 0.997355
1.01135 1.01335 1.00117 0.996861
1.00826 1 1.00999 0.998289
1.00665 1.00031 1.00837 0.99799
1.00663 1.00507 1.00382 0.997737
0.999762 1 1.00049 0.999268
1.00333 1 1.00475 0.99859
1.00659 1 1.00838 0.998223
1.00055 1 1.00177 0.998779
0.999539 1 1.00013 0.999408
0.999963 1 1 0.999963
0.999514 1 1 0.999514
0.999975 1 1 0.999975
1 1 1 1
0.999983 1 1 0.999983
1 1 1 1
1 1 1 1
0.998795 1 1 0.998795
0.999512 1 1 0.999512
0.998857 1 1 0.998857
0.999998 1 1 0.999998
0.999574 1 1 0.999574
0.999007 1 1 0.999007
1 1 1 1
1 1 1 1
0.999647 1 1 0.999647
1 1 1 1
1 1 1 1
1 1 1 1
0.842956 0.92576 0.941011 0.967636
0.827428 0.90792 0.942918 0.966515
0.838911 0.920647 0.950822 0.958349
0.999852 1 1.00153 0.998322
1.00008 1 1.0019 0.998185
0.998536 1 1 0.998536
0.998417 1 1 0.998417
0.998364 1 1 0.998364
0.998432 1 1.00008 0.998353
0.998328 1 1 0.998328
0.809976 0.912602 0.928763 0.95562
0.834457 0.931813 0.933398 0.959419
0.810227 0.905444 0.933713 0.958365
0.799336 0.937966 0.899895 0.947001
0.884039 0.935248 0.960361 0.984261
0.890134 0.919857 0.996072 0.971503
0.824371 0.897718 0.959467 0.95709
0.877735 0.929536 0.960106 0.983508
0.903236 0.921561 1.01154 0.968931
0.871221 0.937463 0.971662 0.956443
0.763836 0.901611 0.895177 0.946395
0.902157 0.933143 0.980403 0.98612
0.916541 0.931328 1.01604 0.968591
0.81247 0.893124 0.953864 0.953694
0.728144 0.866925 0.892695 0.940877
1.01436 1 1.01597 0.998412
1.00033 1 1.00217 0.998161
1.00286 1 1.00486 0.998011
0.998247 1 1 0.998247
0.964153 0.968933 0.996614 0.998448
1.00817 0.980876 1.02857 0.99928
1.0086 1 1.01051 0.998112
1.01033 0.999486 1.01257 0.9983
1.03992 0.994519 1.04689 0.998821
1.00717 0.999779 1.00898 0.998428
1.03651 0.988885 1.04944 0.99878
0.975875 0.96155 1.01816 0.996801
1.00467 0.968849 1.03745 0.999532
1.01134 0.989836 1.02285 0.998907
0.953819 0.931604 1.02752 0.996426
1.01244 0.966824 1.04792 0.999296
0.830249 0.906724 0.945576 0.96836
0.854363 0.930099 0.945652 0.971364
0.832177 0.908112 0.945438 0.969266
0.99178 0.968218 1.02454 0.999805
0.9536 0.950734 1.00772 0.995334
0.843692 0.92418 0.941759 0.969366
0.937754 0.948228 1.02104 0.968574
0.815454 0.891682 0.956191 0.956411
0.813822 0.908878 0.934089 0.958595
0.706942 0.845673 0.889774 0.93951
1.00326 0.962566 1.04325 0.999075
0.826956 0.90881 0.941311 0.966666
0.818417 0.913113 0.942186 0.951291
0.928684 0.942031 0.994701 0.991084
0.636884 0.780562 0.870481 0.937332
0.766553 0.861657 0.933129 0.953381
0.903755 0.922869 1.01035 0.969253
0.995601 0.968189 1.03097 0.997424
0.835991 0.923624 0.944184 0.958627
0.69935 0.812732 0.912391 0.943118
0.734067 0.843441 0.908025 0.95848
0.873622 0.907691 0.990066 0.972124
0.892182 0.922903 0.981519 0.984916
1.02085 0.985303 1.0365 0.99959
1.01301 0.982641 1.0314 0.999515
0.985343 0.980134 1.006 0.999316
1.0191 0.985694 1.03451 0.999402
1.00602 0.992688 1.01455 0.998896
1.00189 1.0008 1.00331 0.997791
1.00676 1.00003 1.00897 0.997789
1.01793 1.00077 1.02071 0.996502
1.01022 1.00044 1.01418 0.995661
1.00512 1.00184 1.00688 0.996415
1.00505 1.00228 1.00734 0.995459
1.0019 1.0022 1.00448 0.995243
1.02034 1.02467 1 0.995769
1.01336 1.01676 1.00077 0.995894
1.00617 1.00847 1.00218 0.995553
1.00522 1.00844 1.00013 0.996679
1.0067 1.00954 1.00074 0.996444
1.00506 1.00714 1.00203 0.995921
1.0034 1.00517 1.00112 0.997129
1.00641 1.0083 1.00108 0.997049
1.01397 1.01665 1.00043 0.99694
1.00573 1.00015 1.0077 0.997896
1.00318 1.00091 1.00462 0.997654
1.0104 1.0101 1.00288 0.997423
1.00219 1 1.00318 0.99901
1.00691 1 1.00863 0.998294
1.00609 1.00061 1.0075 0.997988
0.999934 1 1 0.999934
1.00026 1 1.001 0.999261
1.00319 1 1.00461 0.998588
0.999748 1 1.00034 0.999403
0.999956 1 1 0.999956
1 1 1 1
0.999971 1 1 0.999971
1 1 1 1
1 1 1 1
1.00226 1 1.00396 0.998311
0.998835 1 1.00018 0.998656
0.999395 1 1 0.999395
0.998792 1 1 0.998792
0.999987 1 1 0.999987
0.999515 1 1 0.999515
0.998884 1 1 0.998884
1 1 1 1
0.999999 1 1 0.999999
0.999616 1 1 0.999616
1 1 1 1
1 1 1 1
1 1 1 1
0.818505 0.904437 0.937352 0.965474
0.841211 0.923666 0.940426 0.968424
0.828293 0.910101 0.94167 0.966486
1.00002 1 1.00169 0.998333
1.00125 1 1.00307 0.998187
1.00039 1 1.00217 0.998222
1.00034 1 1.00215 0.998196
1.00608 1 1.00795 0.99815
0.998405 1 1 0.998405
0.998355 1 1 0.998355
0.998355 1 1 0.998355
0.998332 1 1 0.998332
1.00849 1 1.01012 0.99839
0.811232 0.904438 0.942698 0.951466
0.810523 0.911819 0.930097 0.955715
0.835834 0.930997 0.933728 0.961504
0.766325 0.904043 0.895499 0.946583
0.8681 0.93489 0.972961 0.954363
0.872645 0.924993 0.960561 0.982142
0.912679 0.930557 1.00917 0.971877
0.898975 0.936328 0.976606 0.983106
0.926138 0.942051 1.0115 0.971933
0.826283 0.897602 0.963483 0.955435
0.727688 0.873094 0.886821 0.939827
0.913015 0.928299 0.998117 0.985391
0.908539 0.923931 1.01109 0.972557
0.745917 0.837669 0.930229 0.957255
0.667912 0.811628 0.87442 0.941114
1.01364 1 1.01467 0.99898
1.01564 1 1.01725 0.998422
1.00317 1 1.005 0.998179
0.977615 0.9639 1.01884 0.995473
1.00708 0.962778 1.04634 0.999687
1.00701 1 1.0086 0.998426
1.03942 0.988277 1.05304 0.998767
1.01271 0.992786 1.02118 0.998914
1.01802 0.973744 1.04622 0.999285
0.959897 0.942153 1.02254 0.996379
1.0171 0.992626 1.02532 0.999345
0.97231 0.95876 1.01736 0.996832
0.846571 0.924457 0.953111 0.960801
0.832892 0.90824 0.94652 0.968854
0.852221 0.929014 0.943277 0.972503
1.00507 0.968585 1.03847 0.999228
0.924634 0.939296 0.99743 0.986927
0.830398 0.911279 0.942695 0.966638
0.90738 0.930594 1.00598 0.969255
0.756732 0.843935 0.936651 0.957316
0.812686 0.908791 0.940152 0.951176
0.641036 0.792666 0.866869 0.932908
0.994066 0.966734 1.03071 0.99764
0.837018 0.921155 0.947899 0.958605
0.695498 0.81074 0.910885 0.941783
0.900369 0.931469 0.979987 0.986353
0.746888 0.850809 0.917656 0.956629
0.868873 0.91384 0.980276 0.969924
0.954894 0.954345 1.00459 0.996
0.733829 0.83014 0.932833 0.947632
0.74289 0.843166 0.918737 0.959005
0.884938 0.9329 0.977662 0.970262
0.870388 0.920546 0.957793 0.987178
1.01198 0.979856 1.03329 0.999514
0.988626 0.978266 1.01131 0.999291
0.995589 0.993135 1.00402 0.998458
1.00296 0.9846 1.01969 0.998979
1.00156 1.00081 1.00289 0.997875
0.997975 1.00199 0.999119 0.996876
1.0154 1.00067 1.01839 0.996395
1.00881 1.00081 1.01239 0.995666
0.999167 1.00192 1.00137 0.995891
1.00532 1.00195 1.00803 0.995369
1.00207 1.00311 1.0037 0.995276
1.01828 1.02238 1 0.995988
1.0413 1.04511 1 0.996355
1.0304 1.03467 1.00002 0.995851
1.0204 1.02471 1 0.995797
1.01543 1.01933 1 0.996179
1.01192 1.01505 1.00107 0.99584
1.00668 1.00877 1.00244 0.995497
1.00747 1.01067 1 0.996838
1.00368 1.00693 1.00002 0.996754
1.00526 1.00846 1.00032 0.996508
1.00116 1.00158 1.00208 0.997501
1.00296 1.00451 1.0013 0.997165
1.00654 1.00844 1.0011 0.997025
1.00719 1 1.00863 0.998575
1.00628 1.00048 1.00792 0.997899
1.00386 1.00138 1.00477 0.997718
0.999878 1 1 0.999878
1.0029 1 1.0039 0.999002
1.00623 1 1.00794 0.998299
0.999998 1 1 0.999998
0.999922 1 1 0.999922
1.00065 1 1.0014 0.999254
0.999948 1 1 0.999948
1 1 1 1
1 1 1 1
1.00508 1 1.00687 0.998214
1.00039 1 1.00188 0.998509
1.0029 1 1.00462 0.998291
0.999315 1 1.00004 0.999274
0.999073 1 1.00042 0.998654
0.999965 1 1 0.999965
0.999399 1 1 0.999399
0.998788 1 1 0.998788
1 1 1 1
0.999991 1 1 0.999991
0.999518 1 1 0.999518
1 1 1 1
1 1 1 1
1 1 1 1
0.833957 0.919282 0.94391 0.96109
0.821821 0.906847 0.938672 0.965449
0.841418 0.921313 0.942292 0.969214
0.998987 1.00037 1.00039 0.998225
1.00046 1 1.00212 0.998344
1.00134 1 1.00316 0.998189
0.999585 1 1.0014 0.99819
1.00031 1 1.00206 0.998244
1.00377 1 1.00554 0.998241
1.01173 1 1.01389 0.997872
1.01451 1 1.01634 0.9982
0.998358 1 1 0.998358
0.998337 1 1 0.998337
1.00828 1 1.00993 0.998375
1.02164 0.999589 1.02351 0.998587
0.707126 0.817665 0.917434 0.942641
0.822159 0.914816 0.944795 0.951229
0.811429 0.911649 0.93124 0.955787
0.720516 0.86554 0.883451 0.942266
0.827052 0.900788 0.961879 0.954531
0.920345 0.935324 1.01582 0.968661
0.898937 0.928458 0.984122 0.983825
0.911517 0.928167 0.994627 0.987367
0.655017 0.802914 0.870779 0.936861
0.902722 0.922599 1.00919 0.969542
0.764196 0.857987 0.932935 0.954712
0.911927 0.937152 0.984374 0.98853
0.893597 0.923936 0.993294 0.973693
0.734265 0.843811 0.909195 0.957085
0.997893 1 0.998353 0.99954
1.01307 1 1.0141 0.998985
1.01557 1 1.01717 0.998431
0.958988 0.943635 1.01994 0.996406
1.02378 0.980667 1.04473 0.999273
1.01359 0.996139 1.01862 0.998921
1.01663 0.993209 1.02425 0.999344
0.968989 0.957487 1.01518 0.996877
0.993066 0.986406 1.00888 0.997891
0.764425 0.845591 0.952679 0.948916
0.843798 0.923654 0.948977 0.962662
0.832988 0.909008 0.945357 0.969338
0.995293 0.965885 1.03273 0.997789
0.890505 0.927012 0.973053 0.987221
0.835795 0.918804 0.948922 0.95862
0.874988 0.906295 0.994276 0.971015
0.752317 0.865071 0.911558 0.954037
0.700401 0.818527 0.906643 0.943794
0.955551 0.951808 1.00789 0.996071
0.731976 0.829618 0.929088 0.949646
0.743405 0.845658 0.919041 0.956524
0.870374 0.921591 0.959822 0.983959
0.887152 0.9371 0.972515 0.973454
0.948275 0.964224 0.985368 0.998063
0.76476 0.857504 0.932397 0.956508
0.919599 0.972419 0.969941 0.97499
0.879754 0.934368 0.957135 0.983717
0.991444 0.976415 1.01613 0.999271
0.987213 0.992885 0.995731 0.99855
0.994516 1.00118 0.995738 0.997595
1.00203 1.00093 1.00314 0.997959
1.00129 1.00247 1.00198 0.996856
1.00036 1.0041 0.999428 0.99685
1.00752 1.00114 1.01074 0.995671
0.999044 1.00149 1.00167 0.9959
1.02299 1.02734 0.998965 0.996799
1.00245 1.00398 1.00319 0.99531
1.01722 1.02131 1 0.995999
1.0419 1.04559 0.999525 0.996952
1.04454 1.04773 0.999956 0.997
1.04388 1.04779 1 0.996271
1.04161 1.04537 1 0.996399
1.03183 1.0359 1 0.996073
1.02881 1.03304 1 0.99591
1.02019 1.02446 1 0.995826
1.02048 1.02404 1 0.996523
1.01566 1.01938 1.00014 0.996205
1.01058 1.01336 1.00148 0.995787
1.00361 1.00646 1 0.997167
1.00748 1.01069 1 0.996833
1.00218 1.00537 1 0.996828
1.00338 1.00019 1.00507 0.998134
1.00264 1.00281 1.00234 0.997497
1.00224 1.0036 1.00145 0.997201
1.00067 1 1.00092 0.999746
1.00516 1 1.0066 0.998572
1.00586 1.00084 1.00713 0.997902
1 1 1 1
1.00005 1 1.00019 0.999858
1.00288 1 1.00389 0.998994
1 1 1 1
0.999912 1 1 0.999912
1 1 1 1
1.00008 1.00022 1.00176 0.998099
1.00377 1 1.00559 0.998199
1.00384 1 1.00548 0.998367
0.999947 1 1.0008 0.999144
1.00077 1 1.00227 0.998506
1.0027 1 1.00444 0.998272
0.999933 1 1 0.999933
0.999278 1 1 0.999278
0.998844 1 1.00019 0.998651
1 1 1 1
0.999972 1 1 0.999972
0.999403 1 1 0.999403
1 1 1 1
0.999995 1 1 0.999995
1 1 1 1
0.73842 0.8305 0.94111 0.944765
0.835043 0.920257 0.944123 0.961106
0.825389 0.909503 0.940017 0.965426
1.0013 1.00011 1.00298 0.998205
1.00508 1.00227 1.00492 0.997893
1.00906 1 1.01103 0.998046
1.00077 1 1.00259 0.998184
1.00006 1 1.00179 0.998266
1.00402 1 1.00569 0.998332
1.01316 1 1.01502 0.998164
1.01126 1 1.01337 0.997924
1.01352 1.0004 1.01534 0.997808
0.988058 1.0009 0.988191 0.998971
1.00673 1 1.00839 0.998359
1.01767 0.999712 1.01943 0.998562
0.743526 0.841939 0.925382 0.95432
0.692606 0.80451 0.91562 0.940242
0.829459 0.920847 0.947088 0.95108
0.642937 0.793275 0.869158 0.932494
0.76563 0.859827 0.930014 0.957456
0.891411 0.917541 1.00005 0.971478
0.918001 0.934104 0.997949 0.984782
0.901338 0.929573 0.983092 0.986302
0.736414 0.838044 0.91941 0.955753
0.87582 0.913338 0.987568 0.970994
0.890188 0.935266 0.963791 0.98756
0.87443 0.935682 0.962679 0.970768
1.00313 1 1.00411 0.999021
0.997659 1 0.998174 0.999484
1.01265 1 1.01367 0.99899
0.966102 0.956815 1.01282 0.996924
1.01584 0.993125 1.02355 0.999344
0.993831 0.987705 1.00839 0.997828
0.979767 0.991442 0.991289 0.996909
0.776562 0.874415 0.925058 0.96004
0.764288 0.84412 0.95349 0.949592
0.844934 0.925029 0.947043 0.96449
0.958738 0.958557 1.00398 0.996228
0.873068 0.92147 0.962405 0.984485
0.732944 0.830237 0.929491 0.949781
0.869828 0.92807 0.965852 0.970381
0.754461 0.851269 0.923959 0.959218
0.951685 0.966691 0.987405 0.997034
0.774411 0.867271 0.931794 0.958289
0.914805 0.97264 0.968588 0.97104
0.883755 0.936795 0.956526 0.986257
0.959329 0.984549 0.976391 0.997944
0.923702 0.9798 0.967582 0.974331
0.925329 0.976423 0.958693 0.988504
0.978202 0.991626 0.987818 0.998628
0.990897 1.00161 0.991718 0.997567
0.981828 1.00763 0.976876 0.997454
1.00317 1.00278 1.00356 0.996836
0.999714 1.00423 0.998648 0.996846
1.02312 1.03513 0.99088 0.997496
0.998841 1.00108 1.00186 0.99591
1.02205 1.02711 0.998289 0.996779
1.03765 1.04756 0.992997 0.99753
1.01625 1.02032 1 0.99601
1.04093 1.04513 0.999035 0.996945
1.04293 1.04862 0.99707 0.997494
1.04141 1.04469 0.999479 0.997372
1.04542 1.04868 0.999822 0.99707
1.0437 1.047 1 0.996851
1.04535 1.0492 1 0.996335
1.04389 1.04778 1 0.996288
1.04216 1.04587 1 0.996444
1.03307 1.03689 1 0.996318
1.03352 1.03756 1 0.996104
1.02723 1.03139 1 0.995969
1.01428 1.01746 1 0.996872
1.01967 1.02323 1 0.996519
1.01583 1.0195 1.00017 0.996232
0.999068 1.00097 1.00026 0.997837
1.0052 1.00806 1 0.997164
1.00811 1.01132 1 0.996827
1.00163 1 1.00212 0.999507
1.00311 1.00039 1.00459 0.998135
1.00467 1.00418 1.003 0.997494
1 1 1 1
1.00144 1 1.00172 0.999721
1.00433 1 1.00577 0.998569
0.999996 1 1 0.999996
1.00059 1 1.00075 0.999843
1 1 1 1
0.998771 1.00078 1 0.997995
1.00117 1.00019 1.00287 0.998116
1.0042 1 1.00598 0.998227
1.00189 1 1.00371 0.998184
1.00406 1 1.0057 0.998367
1.0016 1 1.00262 0.998985
0.999892 1 1 0.999892
0.999763 1 1.00062 0.999147
1.00178 1 1.00328 0.998504
1 1 1 1
0.999943 1 1 0.999943
0.999282 1 1 0.999282
1 1 1 1
0.999979 1 1 0.999979
1 1 1 1
0.773227 0.862646 0.935477 0.958167
0.741135 0.832736 0.941431 0.945368
0.834914 0.920508 0.943709 0.961116
1.00395 1 1.00578 0.998184
1.01133 1 1.01346 0.997894
1.00293 1.00133 1.00363 0.997967
1.00279 1.0048 1.00091 0.997095
1.01136 1.00118 1.0123 0.997894
1.01183 1 1.01372 0.998131
1.00941 1 1.01146 0.997975
1.01654 1.00058 1.0181 0.997887
0.999296 1.00212 0.999589 0.99759
0.978413 1.00169 0.978171 0.998563
0.977253 1.00035 0.979151 0.997711
0.988154 1.00081 0.988329 0.99901
1.01221 1 1.01369 0.998538
0.903861 0.963325 0.964185 0.973125
0.739927 0.837721 0.924376 0.955522
0.691512 0.804937 0.912946 0.941007
0.734244 0.841126 0.915934 0.953049
0.886649 0.924546 0.987787 0.970867
0.905388 0.926018 0.988982 0.988614
0.891129 0.934267 0.964224 0.989217
0.893012 0.940385 0.974535 0.974438
0.917232 0.969189 0.957556 0.98834
0.993943 1.00132 0.994406 0.998218
1.00278 1 1.00379 0.998999
0.997617 1 0.998187 0.999428
0.995677 0.990357 1.00758 0.997805
0.985714 0.994781 0.993748 0.997119
0.899793 0.966858 0.955892 0.973579
0.784003 0.872854 0.93532 0.96032
0.763364 0.841154 0.954982 0.9503
0.956967 0.971917 0.988626 0.995947
0.888061 0.94181 0.958368 0.983891
0.772206 0.864057 0.933033 0.957842
0.907741 0.962097 0.968286 0.974405
0.966762 0.984278 0.98415 0.998023
0.933111 0.9896 0.966902 0.975194
0.921998 0.972194 0.961818 0.986016
0.978298 1.00397 0.976952 0.997417
0.951398 0.993555 0.965261 0.992031
0.991559 1.00409 0.989938 0.997561
0.980886 1.00737 0.976244 0.997406
0.996236 1.03479 0.964915 0.997747
0.999162 1.00421 0.998123 0.996841
1.02415 1.03576 0.991305 0.997469
1.03498 1.05533 0.982865 0.997812
1.02097 1.02683 0.997517 0.99676
1.03719 1.04769 0.992447 0.997507
1.03273 1.04742 0.988212 0.997737
1.03974 1.0445 0.998505 0.996939
1.04283 1.049 0.996631 0.997473
1.04037 1.04763 0.995479 0.997571
1.04169 1.04515 0.999262 0.997427
1.03994 1.04319 0.999699 0.997183
1.04612 1.04946 0.99967 0.997141
1.04357 1.04688 1 0.996842
1.04571 1.04922 1 0.996647
1.04253 1.04632 1 0.996374
1.04517 1.04902 1 0.996323
1.04389 1.04776 1 0.996305
1.02729 1.03074 1 0.996659
1.03275 1.03656 1 0.996327
1.03528 1.03929 1 0.996134
1.00193 1.00432 1 0.997613
1.01431 1.01749 1 0.99687
1.01867 1.02223 1 0.996516
1.00028 1 1.00105 0.999234
1.00018 1.00184 1.0005 0.997837
1.0065 1.00937 1 0.99716
1 1 1 1
1.00143 1 1.00195 0.999482
1.00237 1.00059 1.00365 0.998136
1 1 1 1
1.00169 1 1.002 0.999696
1 1 1 1
1.00356 1.00635 1 0.997224
0.999147 1.00117 1 0.997982
1.00029 1.00003 1.00225 0.998016
1.00274 1 1.00461 0.998133
1.0036 1 1.00541 0.998195
1.00342 1 1.00467 0.998756
1.00455 1 1.0062 0.998367
1.00124 1 1.00226 0.998986
0.999921 1 1.00009 0.999834
1 1 1 1
0.999903 1 1 0.999903
0.999459 1 1.00031 0.999149
1 1 1 1
0.999952 1 1 0.999952
1 1 1 1
0.923388 0.980567 0.964549 0.9763
0.773465 0.869139 0.927971 0.958997
0.745933 0.835894 0.945251 0.944064
1.01274 1 1.01503 0.997742
1.00088 1.00088 1.00196 0.998042
1.00945 1.00118 1.01043 0.99785
1.00399 1.00571 1.00112 0.997178
1.01362 1.0168 1.00016 0.99671
0.999692 1.00223 1 0.99747
1.0208 1.00092 1.02195 0.997964
1.00015 1.00278 0.999993 0.997389
0.984427 1.00197 0.983919 0.998546
0.995642 1.00161 0.996413 0.997615
0.974635 1.00339 0.973491 0.997797
0.994932 1.00131 0.99632 0.997298
0.979088 1.00082 0.980406 0.997839
0.992148 1.00072 0.992375 0.99905
0.924477 0.975827 0.958539 0.988356
0.909898 0.969021 0.964774 0.973271
0.74482 0.839044 0.925945 0.958698
0.893403 0.942131 0.977333 0.970271
0.896887 0.934006 0.969761 0.990202
0.919688 0.965285 0.960715 0.991724
0.984801 1.00377 0.983629 0.997435
0.991922 1.00067 0.993058 0.998188
1.00251 1 1.00353 0.998978
0.987476 0.997007 0.99311 0.997311
0.937046 0.973677 0.973401 0.988677
0.915131 0.97381 0.961573 0.977297
0.771944 0.866874 0.92967 0.957857
0.966193 0.980272 0.987517 0.998097
0.926127 0.97731 0.959445 0.987684
0.937019 0.987574 0.972156 0.975983
0.970834 1.00217 0.971194 0.997466
0.95004 0.989539 0.968554 0.991254
0.971648 1.02447 0.95086 0.997451
0.993369 1.01697 0.980372 0.996346
0.979006 1.00713 0.974661 0.997351
0.994103 1.03313 0.964402 0.997742
1.00438 1.0563 0.952989 0.997755
1.0258 1.03697 0.991764 0.997441
1.03471 1.05511 0.982834 0.997792
1.03059 1.05174 0.982166 0.997688
1.03718 1.04807 0.992105 0.997483
1.03265 1.0468 0.98874 0.997718
1.04006 1.05311 0.990044 0.99754
1.04295 1.04951 0.996284 0.997452
1.03836 1.04553 0.995568 0.997563
1.04078 1.0466 0.997148 0.997292
1.04208 1.04567 0.999079 0.997481
1.04033 1.04353 0.999707 0.997229
1.04418 1.04747 1 0.996858
1.04352 1.04683 1 0.996834
1.04575 1.04928 1 0.996636
1.04465 1.04826 1 0.99656
1.03522 1.03879 1 0.996567
1.0426 1.04639 1 0.996375
1.04492 1.04879 1 0.996311
1.00821 1.01083 1 0.997415
1.02633 1.02976 1 0.996662
1.03236 1.03616 1 0.996337
0.999186 1 1.00017 0.999012
1.00364 1.00605 1 0.997611
1.0142 1.01739 1 0.996868
1 1 1 1
0.999999 1 1.00078 0.999217
1.0012 1.00268 1.00069 0.997838
1 1 1 1
1.00142 1 1.00196 0.999458
1 1 1 1
1.01424 1.01749 1 0.996807
1.00561 1.00838 1 0.997252
1.00471 1.00653 1.00066 0.997535
0.999055 1.00109 1 0.997969
1.00015 1 1.00218 0.997972
1.00236 1.00019 1.00373 0.998451
1.00306 1 1.00491 0.998164
1.00353 1 1.00478 0.998757
1.00108 1 1.00133 0.999748
1.00125 1 1.00226 0.998986
0.999944 1 1.0001 0.999845
1 1 1 1
1 1 1 1
0.999914 1 1 0.999914
1 1 1 1
0.927687 0.976127 0.960893 0.989055
0.914745 0.979857 0.959421 0.973034
0.7667 0.861993 0.926188 0.960334
1.02908 1.0326 1.00007 0.996528
1.0076 1.0009 1.0089 0.997808
1.00523 1.00663 1.00135 0.997261
0.99976 1.00231 1 0.997454
1.01259 1.01552 1.00042 0.996692
1.00348 1.00623 0.999867 0.997395
0.999803 1.00262 1 0.997187
0.98618 1.00158 0.986076 0.998528
0.99336 1.0019 0.993831 0.997627
0.968248 1.00233 0.968235 0.997686
1.0039 1.01101 0.995994 0.996959
0.999534 1.00692 0.995325 0.99733
0.995638 1.00196 0.996416 0.997263
0.979861 1.00134 0.980548 0.997966
0.982904 1.00613 0.978944 0.997931
0.919666 0.973528 0.95705 0.987068
0.910802 0.970542 0.963661 0.973836
0.913827 0.959066 0.96292 0.989522
0.987493 1.0053 0.984107 0.998151
0.991927 1.0002 0.993565 0.998151
0.9843 1.00668 0.981723 0.995969
0.922691 0.959147 0.971595 0.990116
0.90266 0.970659 0.955062 0.973702
0.967638 1.00004 0.970007 0.997515
0.957427 0.991536 0.975123 0.990235
0.975436 1.02565 0.953365 0.99756
0.995727 1.01665 0.982749 0.99661
0.992591 1.04034 0.956411 0.99759
1.04316 1.05739 0.989062 0.997443
0.991223 1.03091 0.963684 0.997736
1.00869 1.05764 0.955879 0.99774
1.01949 1.06311 0.961337 0.997545
1.03365 1.05437 0.982541 0.997772
1.02866 1.05049 0.981494 0.997684
1.0394 1.05936 0.98369 0.997424
1.03223 1.046 0.989113 0.997699
1.03866 1.05189 0.989849 0.997553
1.04267 1.0523 0.993585 0.997241
1.03628 1.04341 0.995601 0.997556
1.0413 1.04708 0.997184 0.99729
1.0464 1.05009 0.999517 0.996964
1.04067 1.04382 0.999712 0.997275
1.04456 1.0478 1 0.996901
1.04671 1.05026 1 0.996626
1.04578 1.04932 1 0.996625
1.04442 1.04804 1 0.996542
1.03796 1.04151 1 0.996598
1.01401 1.01676 1 0.997293
1.03451 1.03805 1 0.996583
1.04269 1.04648 1 0.996377
0.998993 1.00013 1 0.998863
1.00974 1.01236 1 0.997415
1.02556 1.02899 1 0.996666
1 1 1 1
0.999034 1 1.00004 0.998999
1.00551 1.00792 1 0.997609
1 1 1 1
0.999594 1 1.00039 0.999201
1 1 1 1
1.02838 1.03198 1 0.996512
1.01606 1.01931 1 0.996804
1.01368 1.0166 1 0.997133
1.00788 1.01063 1.00001 0.99728
1.00365 1.00558 1.00056 0.997528
1.00206 1.00191 1.00203 0.998127
0.999884 1 1.00196 0.997927
1.00314 1.00001 1.00468 0.998453
1.0015 1 1.00189 0.999612
1.00293 1 1.00418 0.998759
1.00039 1 1.00063 0.99976
1 1 1 1
0.999855 1 1 0.999855
1 1 1 1
1 1 1 1
0.979302 1.01057 0.971315 0.997681
0.922233 0.973324 0.960392 0.986586
0.912631 0.970514 0.962838 0.976652
1.02012 1.02323 1.00001 0.996953
1.03937 1.04292 1 0.9966
1.02713 1.0305 1.00013 0.996597
1.0001 1.00267 1 0.997436
1.01168 1.01432 1.00073 0.996672
1.00447 1.00814 0.998984 0.99737
1.02121 1.02609 0.998331 0.996908
0.992683 1.00296 0.992093 0.997639
0.964756 1.00188 0.965286 0.997574
1.00506 1.01275 0.995347 0.99705
1.02281 1.03186 0.994429 0.996781
1.00446 1.02504 0.982314 0.997559
1.00253 1.00879 0.996505 0.997288
0.997111 1.00262 0.997265 0.997228
0.987446 1.00792 0.981477 0.998176
0.923297 0.976034 0.959714 0.985677
0.987433 1.00566 0.982973 0.998888
1.023 1.04474 0.9811 0.998052
0.982005 1.00539 0.980568 0.996095
0.926456 0.97011 0.966685 0.987913
0.978428 1.02713 0.954814 0.997663
0.997917 1.01682 0.984472 0.996888
0.990428 1.04085 0.953726 0.997728
1.04271 1.05887 0.987245 0.99746
1.03765 1.06915 0.973022 0.997449
1.07157 1.0884 0.98692 0.997584
1.01301 1.05972 0.958099 0.997725
1.02497 1.06433 0.965389 0.997545
1.04274 1.06898 0.978065 0.997329
1.02702 1.04939 0.980959 0.99768
1.03917 1.05848 0.984286 0.997424
1.04312 1.05791 0.988785 0.997207
1.03732 1.05068 0.989692 0.997566
1.04318 1.0528 0.993605 0.997238
1.04822 1.05412 0.99742 0.99697
1.04179 1.04753 0.997222 0.997288
1.04673 1.0504 0.999541 0.996963
1.04983 1.05336 1 0.996655
1.04493 1.04813 1 0.996944
1.0462 1.04973 1 0.99664
1.04085 1.04442 1 0.996584
1.04423 1.04787 1 0.996525
1.03789 1.04144 1 0.996596
1.01628 1.01911 1 0.997226
0.999453 1.00065 1 0.998803
1.01438 1.01713 1 0.997292
1.0339 1.03743 1 0.996598
1 1 1 1
0.99909 1.00024 1 0.998851
1.01134 1.01396 1 0.997415
1 1 1 1
0.998985 1 1 0.998985
1 1 1 1
1.03693 1.04062 1 0.996455
1.02799 1.0316 1 0.996503
1.02169 1.02494 1 0.99683
1.01728 1.02055 1 0.996802
1.01249 1.01539 1 0.99714
1.00425 1.00607 1.00035 0.997839
1.00226 1.00428 1.00046 0.997522
1.00194 1.00131 1.00251 0.99813
1.00053 1 1.00114 0.999394
1.00474 1 1.00629 0.998454
1.0014 1 1.00177 0.999629
1 1 1 1
1.00014 1 1.00036 0.999771
1 1 1 1
1 1 1 1
1.00542 1.03894 0.969651 0.99802
0.976266 1.00952 0.970061 0.996906
0.922769 0.975185 0.958422 0.9873
1.03407 1.0374 1 0.996789
1.02161 1.02454 1 0.997149
1.05423 1.05775 1 0.996671
1.03996 1.04353 1 0.996584
1.02523 1.02847 1.00018 0.996668
1.04529 1.05204 0.996894 0.996673
1.00541 1.01017 0.997929 0.997346
1.02129 1.02561 0.998941 0.996846
1.04168 1.06224 0.983643 0.996951
1.00496 1.01425 0.993679 0.997141
1.02327 1.03253 0.994292 0.996722
1.00571 1.02706 0.98158 0.997594
1.00301 1.00904 0.996767 0.997244
0.992513 1.0097 0.984545 0.998406
1.05702 1.07943 0.981565 0.997628
1.0251 1.04431 0.983489 0.998076
0.980679 1.00409 0.980394 0.996217
0.988993 1.04059 0.952448 0.997866
1.04125 1.0592 0.985536 0.997478
1.03314 1.06817 0.969652 0.997471
1.0729 1.09046 0.986283 0.997578
1.06044 1.08246 0.982141 0.997465
1.03014 1.06519 0.969469 0.997546
1.04347 1.06835 0.97932 0.997338
1.04453 1.06322 0.985144 0.997232
1.03889 1.05758 0.984872 0.997423
1.04312 1.05769 0.989009 0.997188
1.04709 1.05671 0.993923 0.996956
1.04372 1.05333 0.993629 0.997235
1.04844 1.05433 0.997439 0.996966
1.05276 1.05649 0.999803 0.99667
1.04709 1.05074 0.999564 0.996962
1.04969 1.05321 1 0.996658
1.04474 1.04836 1 0.996545
1.04568 1.04919 1 0.996654
1.0409 1.04447 1 0.99659
1.01724 1.02014 1 0.997156
1.03779 1.04134 1 0.996593
1.0165 1.01933 1 0.997225
1.00009 1.00108 1 0.999008
0.999618 1 1 0.999618
0.999614 1.00072 1 0.998891
1.01444 1.01719 1 0.997292
1 1 1 1
0.999097 1.00026 1 0.998839
1 1 1 1
1.05998 1.06343 1 0.996761
1.04588 1.04947 1 0.996574
1.03787 1.04155 1 0.996461
1.02964 1.03306 1 0.996687
1.02802 1.03164 1 0.996494
1.02287 1.02612 1 0.996829
1.00908 1.01151 1 0.997598
1.01166 1.01456 1 0.997147
1.00302 1.00471 1.00047 0.997842
0.99925 1 1.00012 0.999128
1.00154 1.00059 1.00282 0.998132
1.00075 1 1.00133 0.999414
1 1 1 1
1.00087 1 1.00122 0.999645
1 1 1 1
1 1 1 1
1.05001 1.07791 0.976685 0.997375
1.00976 1.04498 0.968163 0.998073
0.973203 1.00962 0.967665 0.996143
1.05105 1.05572 0.998882 0.996698
1.0312 1.03446 1 0.996841
1.02278 1.02551 1 0.997342
1.05285 1.05635 1 0.996688
1.0406 1.04418 1 0.996567
1.05288 1.07174 0.98542 0.996931
1.04187 1.049 0.996557 0.996633
1.02115 1.0247 0.999757 0.996783
1.04008 1.06047 0.98377 0.996947
1.02666 1.03543 0.994842 0.996663
1.01089 1.03331 0.980618 0.997636
1.06064 1.07974 0.98471 0.997565
1.06023 1.08179 0.982359 0.997663
1.02641 1.04419 0.984846 0.998102
1.03014 1.0685 0.966524 0.997492
1.0752 1.09347 0.985687 0.997571
1.06046 1.0834 0.981305 0.997472
1.05091 1.06508 0.989335 0.997329
1.04418 1.06765 0.980616 0.997348
1.04487 1.06294 0.985738 0.99722
1.04823 1.05884 0.992971 0.996992
1.04315 1.0575 0.989229 0.997168
1.04777 1.05738 0.993939 0.996955
1.05487 1.05925 0.999187 0.996679
1.04864 1.05451 0.99746 0.996963
1.05302 1.05676 0.999798 0.996671
1.04755 1.05123 1 0.996499
1.04956 1.05308 1 0.996661
1.04489 1.0485 1 0.996549
1.01845 1.02145 1 0.997063
1.04095 1.0445 1 0.996595
1.01782 1.02073 1 0.997155
1.00004 1.00102 1 0.99902
1.01672 1.01955 1 0.997223
1.00013 1.00113 1 0.999002
0.999642 1 1 0.999642
0.999817 1 1 0.999817
0.99995 1.00096 1 0.998987
1 1 1 1
1.05466 1.05907 0.999072 0.99676
1.051 1.05454 1 0.996643
1.05885 1.06217 0.999994 0.996886
1.04001 1.04353 1 0.996625
1.0479 1.05151 1 0.996562
1.03875 1.04243 1 0.996466
1.03063 1.03406 1 0.99668
1.0142 1.01685 1 0.9974
1.02382 1.02708 1 0.996827
1.00735 1.00978 1 0.997599
0.998956 1.00003 1 0.998922
1.00164 1.00328 1.00052 0.997845
0.999528 1 1.00038 0.999147
1 1 1 1
1.0011 1 1.00167 0.999434
1 1 1 1
1 1 1 1
1.05149 1.07374 0.981967 0.997263
1.04719 1.0749 0.976796 0.997371
1.01242 1.04826 0.967627 0.998117
1.05285 1.06465 0.992044 0.996849
1.04825 1.05317 0.998621 0.996698
1.02871 1.03192 1 0.996893
1.05127 1.05474 1 0.996705
1.05137 1.06988 0.985744 0.996907
1.03839 1.04588 0.996233 0.996593
1.0341 1.05408 0.984055 0.996944
1.0549 1.0688 0.989576 0.997391
1.05902 1.07793 0.984898 0.997525
1.06322 1.0837 0.98336 0.997698
1.04954 1.06004 0.992844 0.997228
1.05993 1.08394 0.980316 0.99748
1.05082 1.06517 0.98918 0.997315
1.05014 1.05972 0.993852 0.997095
1.04524 1.06266 0.98636 0.997207
1.04837 1.05902 0.992934 0.996994
1.05519 1.06053 0.998265 0.996697
1.04842 1.05801 0.99396 0.996954
1.05449 1.05889 0.999165 0.99668
1.0486 1.05232 1 0.996468
1.05319 1.05693 0.999793 0.996671
1.04763 1.05131 1 0.996502
1.01938 1.02247 1 0.996973
1.04497 1.04859 1 0.996554
1.01893 1.02193 1 0.997063
0.999553 1.00056 1 0.998994
1.01848 1.02139 1 0.997154
0.999931 1.00092 1 0.999008
0.999646 1 1 0.999646
1.00016 1.00117 1 0.998999
0.99965 1 1 0.99965
1 1 1 1
1.0533 1.05993 0.997075 0.996665
1.05345 1.05707 0.999979 0.996599
1.05637 1.06081 0.99905 0.996758
1.04634 1.04986 1 0.996656
1.05236 1.05587 0.999996 0.996677
1.05789 1.06108 0.999991 0.997009
1.01868 1.02149 1 0.997242
1.03979 1.04332 1 0.996615
1.05012 1.05376 1 0.99655
1.03157 1.03501 1 0.996672
1.01307 1.01571 1 0.997401
0.999766 1.00095 1 0.99882
1.00582 1.00824 1 0.9976
0.999054 1.00012 1 0.998937
1 1 1 1
0.99977 1 1.00061 0.999165
1 1 1 1
1 1 1 1
1.04957 1.0644 0.988901 0.997135
1.05142 1.07394 0.981736 0.997245
1.04671 1.07448 0.976722 0.997367
1.05224 1.06409 0.991975 0.996865
1.0451 1.05029 0.998359 0.996698
1.0509 1.06909 0.986055 0.996883
1.05129 1.0622 0.992485 0.997228
1.05516 1.06896 0.989682 0.997384
1.05751 1.07628 0.985032 0.997485
1.04995 1.06029 0.992978 0.997249
1.04954 1.05791 0.995032 0.997044
1.05073 1.06529 0.989001 0.997301
1.05039 1.05969 0.994149 0.997055
1.05458 1.06076 0.99738 0.996785
1.04853 1.05922 0.992896 0.996996
1.05479 1.06017 0.998219 0.996699
1.04881 1.05255 1 0.996449
1.05431 1.05874 0.99913 0.996681
1.0492 1.05292 1 0.99647
1.01966 1.02281 1 0.996915
1.04787 1.05154 1 0.996505
1.01955 1.02264 1 0.996974
0.999134 1.0002 1 0.998939
1.01948 1.02249 1 0.997063
0.999432 1.00046 1 0.998977
0.999625 1 1 0.999625
0.999792 1.00079 1 0.999
0.999664 1 1 0.999664
0.999653 1 1 0.999653
1.05247 1.06173 0.994338 0.996922
1.05495 1.05894 0.999717 0.996515
1.05361 1.06123 0.996118 0.996693
1.04878 1.05237 1 0.996589
1.05262 1.05623 0.999992 0.996587
1.05805 1.06252 0.99903 0.996757
1.02112 1.02405 1 0.997136
1.0462 1.04974 1 0.996628
1.0535 1.05699 0.999991 0.996712
1.00067 1.00188 1 0.998795
1.01857 1.02138 1 0.997244
1.03987 1.04342 1 0.996605
1.01191 1.01454 1 0.997402
0.999492 1.00066 1 0.998832
1 1 1 1
0.998952 1 1 0.998952
1 1 1 1
1 1 1 1
1.04828 1.05924 0.992511 0.997122
1.04985 1.06452 0.989056 0.997127
1.05083 1.07355 0.981559 0.997228
1.05167 1.06357 0.991903 0.996882
1.05003 1.05698 0.996404 0.997002
1.05145 1.06224 0.992579 0.997238
1.05547 1.0691 0.989847 0.997378
1.0504 1.06055 0.993136 0.997269
1.04965 1.05813 0.994916 0.997054
1.05482 1.06033 0.998025 0.99677
1.05069 1.05969 0.994476 0.997014
1.05483 1.06064 0.997779 0.996734
1.04857 1.05253 0.999742 0.996502
1.05431 1.05973 0.998183 0.996702
1.04944 1.05318 1 0.996452
1.01894 1.02214 1 0.996872
1.0495 1.05322 1 0.996471
1.01947 1.02262 1 0.996916
0.99875 1.00006 1 0.998691
1.0197 1.0228 1 0.996975
0.998969 1.00014 1 0.998832
1 1 1 1
0.999274 1.00031 1 0.998962
0.999648 1 1 0.999648
0.999675 1 1 0.999675
1.05055 1.05836 0.995589 0.997015
1.05395 1.05898 0.998598 0.996646
1.05292 1.06145 0.995036 0.996912
1.04865 1.05237 1 0.996458
1.05386 1.0582 0.999365 0.996529
1.05397 1.06257 0.995172 0.996721
1.02081 1.02392 1 0.996967
1.04889 1.05247 1 0.99659
1.05183 1.05545 1 0.996574
1.00026 1.00147 1 0.998798
1.02061 1.02358 1 0.997097
1.04594 1.04951 1 0.996601
1 1 1 1
1.00038 1.00157 1 0.998806
1.01792 1.02073 1 0.997246
0.99936 1.00052 1 0.998844
1 1 1 1
1 1 1 1
1.04868 1.05549 0.996522 0.997014
1.04861 1.05939 0.992677 0.997128
1.05006 1.06462 0.989169 0.997119
1.0548 1.05952 0.998833 0.996709
1.04944 1.05673 0.996072 0.997014
1.0516 1.06229 0.992669 0.997249
1.0497 1.05834 0.994752 0.997064
1.05445 1.0601 0.997899 0.996771
1.04765 1.05142 0.999851 0.996562
1.05497 1.06045 0.998138 0.996684
1.04881 1.05264 0.999862 0.996497
1.01774 1.02102 1 0.996789
1.05022 1.05396 1 0.996454
1.01863 1.02183 1 0.996873
0.998654 1 1 0.998654
1.01933 1.02248 1 0.996916
0.998689 1 1 0.998689
1 1 1 1
0.998734 1.00003 1 0.998707
0.999803 1 1 0.999803
0.999668 1 1 0.999668
1.0493 1.05582 0.996838 0.99697
1.05462 1.05888 0.999253 0.996717
1.05042 1.05815 0.995662 0.997022
1.04847 1.05221 1 0.996452
1.05494 1.05961 0.99896 0.99663
1.05336 1.06117 0.995725 0.996903
1.01975 1.02294 1 0.996878
1.04837 1.05208 1 0.996477
1.05272 1.05742 0.999004 0.996543
0.99938 1.00061 1 0.998775
1.02057 1.02368 1 0.996954
1.04897 1.05256 1 0.99659
1 1 1 1
1.00045 1.00165 1 0.998807
1.02037 1.02338 1 0.997057
1 1 1 1
1.00033 1.00151 1 0.998817
1 1 1 1
1.0544 1.05905 0.998845 0.996755
1.0482 1.055 0.996542 0.996998
1.04889 1.05947 0.992854 0.997135
1.04708 1.0508 0.999898 0.996558
1.05425 1.05928 0.99852 0.996731
1.04886 1.05648 0.995743 0.997027
1.05412 1.05986 0.997805 0.996772
1.04754 1.05142 0.99975 0.996562
1.01671 1.02 1 0.996778
1.04908 1.05278 1 0.996492
1.01762 1.02087 1 0.996812
0.998609 1 1 0.998609
1.01825 1.02144 1 0.996874
0.998652 1 1 0.998652
1 1 1 1
0.998686 1 1 0.998686
1 1 1 1
0.999642 1 1 0.999642
1.05559 1.05995 0.999156 0.996732
1.04851 1.05556 0.996319 0.996992
1.048 1.05169 1 0.996491
1.05523 1.05944 0.999308 0.996715
1.05034 1.058 0.995718 0.997029
1.01833 1.02149 1 0.996905
1.04786 1.0516 1 0.996448
1.05595 1.06024 0.999336 0.996615
0.998799 1.00008 1 0.998723
1.01996 1.02313 1 0.9969
1.04806 1.05174 1 0.996495
1 1 1 1
0.999623 1.00084 1 0.998781
1.02041 1.02355 1 0.996941
1 1 1 1
1.00054 1.00173 1 0.998816
1 1 1 1
1.04705 1.05069 0.999953 0.996585
1.05433 1.05888 0.998957 0.996742
1.04774 1.05453 0.996571 0.996983
1.01598 1.01925 1 0.996792
1.04694 1.05074 0.99983 0.996558
1.05368 1.05902 0.998196 0.996752
1.04743 1.05141 0.999648 0.996562
1.01679 1.02008 1 0.996777
0.998584 1 1 0.998584
1.01751 1.02074 1 0.996835
0.998607 1 1 0.998607
1 1 1 1
0.99865 1 1 0.99865
1 1 1 1
1 1 1 1
1.0479 1.05156 1 0.996512
1.05532 1.05984 0.998956 0.996776
1.04769 1.05526 0.995803 0.997014
1.01744 1.0206 1 0.996906
1.0476 1.05129 1 0.996488
1.05583 1.05999 0.999362 0.996714
0.998675 1 1 0.998675
1.01881 1.02197 1 0.996902
1.04729 1.05103 1 0.996445
1 1 1 1
0.998976 1.00025 1 0.998726
1.02027 1.02342 1 0.996922
1 1 1 1
0.999789 1.001 1 0.998787
1 1 1 1
1.01614 1.01934 1 0.99686
1.04685 1.05057 0.999891 0.996559
1.05428 1.05873 0.999063 0.99673
0.998602 1 1 0.998602
1.01612 1.01939 1 0.996789
1.04683 1.05069 0.999768 0.996559
1.01688 1.02016 1 0.996776
0.998584 1 1 0.998584
1 1 1 1
0.998604 1 1 0.998604
1 1 1 1
1 1 1 1
1.01673 1.0199 1 0.996892
1.04755 1.05122 0.999974 0.996534
1.05509 1.05974 0.998791 0.99682
0.998875 1 1 0.998875
1.01771 1.02088 1 0.996904
1.04717 1.05087 1 0.996484
1 1 1 1
0.998678 1 1 0.998676
1.01917 1.02234 1 0.9969
1 1 1 1
0.999073 1.00034 1 0.998729
1 1 1 1
0.998591 1 1 0.998591
1.01629 1.01951 1 0.996838
1.04666 1.05048 0.999828 0.996533
1 1 1 1
0.998601 1 1 0.998601
1.01626 1.01953 1 0.996787
0.998583 1 1 0.998583
1 1 1 1
1 1 1 1
0.998838 1 1 0.998838
1.01696 1.02013 1 0.996892
1.04716 1.05086 0.999922 0.996556
1 1 1 1
0.998652 1 1 0.998652
1.018 1.02117 1 0.996902
1 1 1 1
0.998758 1.00008 1 0.998677
1 1 1 1
0.999593 1 1 0.999593
0.998725 1 1 0.998725
1.01641 1.01965 1 0.996816
1 1 1 1
0.998602 1 1 0.998602
1 1 1 1
0.999608 1 1 0.999608
0.998741 1 1 0.998741
1.01722 1.02039 1 0.996892
0.999802 1 1 0.999802
0.998653 1 1 0.998653
1 1 1 1
1 1 1 1
0.998624 1 1 0.998624
1 1 1 1
0.999802 1 1 0.999802
0.998641 1 1 0.998641
1 1 1 1
1 1 1 1
1 1 1 1

VECTORS lamdaE float
1.00153 1.00008 0.993494
1.00109 1.00078 0.996787
1.00105 1.00029 0.99381
1.00161 1.00005 0.993396
1.0016 0.999957 0.993529
1.00151 1.00032 0.99329
1.00288 1.00044 0.990436
1.0011 1.00072 0.99678
1.001 1.00014 0.997299
1.00053 1.0009 0.997308
1.0009 1.00097 0.993436
1.00262 1.00126 0.9891
1.0011 0.999986 0.994017
1.0009 0.999998 0.994102
1.00061 1.00051 0.994098
1.00126 1.00004 0.993745
1.00097 1.00068 0.993574
1.0012 1.00001 0.993862
1.00311 1.00027 0.990292
1.00113 1.00002 0.996955
1.0015 1.00009 0.993492
1.00163 0.999976 0.993459
1.00296 1.00016 0.990607
1.00298 1.00018 0.990549
1.0015 1.00053 0.99302
1.00276 1.00091 0.990171
1.00524 1.00088 0.985829
1.0011 1.00068 0.996787
1.00122 1.00002 0.99546
1.00086 1.00064 0.99543
1.00099 1.00077 0.996837
1.00252 1.0014 0.989114
1.00152 0.999806 0.993544
1.00129 1.00017 0.993632
1.00327 1.00007 0.990862
1.00002 1.00106 0.997588
1.00307 1.00067 0.990712
1.00226 1.00191 0.989053
1.0047 1.00141 0.985476
1.00023 0.999624 0.997898
1.00114 0.999992 0.996947
1.00113 1.00002 0.995476
1.00106 0.999972 0.997006
1.0007 1.00006 0.994358
1.0028 0.999939 0.9902
1.00111 0.999953 0.99722
1.00325 1.00007 0.99093
1.00092 0.99997 0.994095
1.00082 1.00005 0.99418
1.00046 1.00106 0.993837
1.00332 1.0001 0.990162
1.00094 1.00004 0.995651
1.00113 1.00011 0.993839
1.00093 1.00102 0.993287
1.00128 0.999948 0.993804
1.00312 1.00012 0.990434
1.00304 1.00064 0.990035
1.00317 1.00008 0.990397
1.00523 1.00086 0.985856
1.00103 1 0.997003
1.00134 1.00007 0.993717
1.00254 0.999992 0.991918
1.00281 1.00016 0.990827
1.003 1.00013 0.99057
1.00517 1.00025 0.986495
1.00522 1.00035 0.986269
1.00121 1.00052 0.993326
1.00229 1.00187 0.989932
1.00524 1.00115 0.985582
1.00528 1.00028 0.9856
1.00152 1.00004 0.996818
1.0009 1.00069 0.997005
1.0012 1.00053 0.996795
1.00244 1.0015 0.98912
1.00158 0.999928 0.996759
1.00139 1.00023 0.996836
1.00314 1.00001 0.989422
1.00028 1.00083 0.995826
1.00281 1.00072 0.989267
1.00212 1.00213 0.989976
1.00478 1.00125 0.985463
1.00051 1.00016 0.997479
1.00033 1.00217 0.992189
1.0033 0.999973 0.989266
1.00316 1.00012 0.989353
1.00524 1.00038 0.985656
1.00155 1.00259 0.99136
1.00506 1.0008 0.985464
1.00379 1.00275 0.985671
1.00532 1.0014 0.984335
1.00004 0.998765 0.998336
1.00008 0.999362 0.998082
1.00145 0.999991 0.996757
1.00119 0.999989 0.996923
1.00109 0.999978 0.997001
1.00096 1.00001 0.995647
1.00284 0.999928 0.990889
1.00129 0.999956 0.995384
1.00316 1.0001 0.99022
1.00106 0.999983 0.997021
1.00264 0.999835 0.990506
1.00304 1.00006 0.991266
1.00496 0.999319 0.987307
1.00331 1.00001 0.99084
1.00521 0.999671 0.986532
1.00108 0.999993 0.994054
1.00076 1.00013 0.99419
1.00036 1.00154 0.993552
1.00093 0.999894 0.994145
1.00326 1.00014 0.990262
1.00334 0.999995 0.990253
1.0033 1.00036 0.989909
1.00522 1.00085 0.985883
1.00108 0.999984 0.997012
1.00098 1.00007 0.994063
1.00273 0.999949 0.990766
1.00296 1.00014 0.990646
1.00097 1.00095 0.995047
1.00266 1.00168 0.989989
1.00316 1.00007 0.99041
1.00519 1.0001 0.986662
1.00521 1.00115 0.98561
1.00523 1.00051 0.986155
1.00528 1.00027 0.985633
1.00262 0.999877 0.990512
1.00265 1.00005 0.991147
1.00487 0.999145 0.988134
1.00507 0.999731 0.987146
1.0052 1.00011 0.986567
1.00534 0.998618 0.987423
1.00054 1.00076 0.997245
1.0053 0.999567 0.986278
1.00171 1.00285 0.98886
1.00488 1.00148 0.98507
1.00529 1.00105 0.984882
1.00524 0.998273 0.987519
1.0009 1.00297 0.990285
1.00199 1.00456 0.986933
1.00158 0.999946 0.996779
1.00137 1.00027 0.996816
1.00316 0.999977 0.989409
1.00049 1.00051 0.997371
1.00176 1.00244 0.989258
1.00278 1.00073 0.989292
1.00489 1.00112 0.985451
1.00033 1.00012 0.997631
1.00024 1.00221 0.992211
1.00332 1 0.990046
1.00319 1.00018 0.990073
1.00524 1.00039 0.985631
1.00114 1.00279 0.990038
1.0051 1.00079 0.985446
1.00403 1.00237 0.985657
1.00533 1.00131 0.984478
1.00072 1.00254 0.990999
1.00014 1.00139 0.993318
1.00169 1.00468 0.987801
1.00525 1.00016 0.985889
1.00521 1.00057 0.985497
1.00529 0.99938 0.986578
1.00315 1.00325 0.986222
1.00532 1.0005 0.985414
1.00512 1.00202 0.984063
1.00531 1.00043 0.9852
0.999984 0.998282 0.998622
0.999967 0.998725 0.998458
0.999983 0.999228 0.998251
1.00063 1.0028 0.990961
1.0003 1.00051 0.997502
1.00158 0.999947 0.99674
1.00129 0.999997 0.996835
1.00299 1.00015 0.989577
1.00272 0.999929 0.990267
1.00108 0.999977 0.996989
1.00104 0.999977 0.997018
1.00262 0.999847 0.990499
1.00296 1.00004 0.990565
1.00494 0.999321 0.987305
1.00317 1.00005 0.989364
1.00516 0.999707 0.986531
1.00258 0.999839 0.990574
1.00489 0.999198 0.98752
1.00505 0.999504 0.986949
1.00534 0.996728 0.989433
1.00525 0.999914 0.986179
1.00534 0.997537 0.988591
1.00105 0.999983 0.997011
1.0006 1.00013 0.994407
1.00275 0.999944 0.989759
1.00312 1.00014 0.990463
1.00026 1.0015 0.997207
1.00316 1.00129 0.990048
1.00333 1.00004 0.990252
1.00521 0.999935 0.98683
1.00523 1.00065 0.986038
1.00517 1.00115 0.98564
1.00529 1.00027 0.985667
1.0026 0.99987 0.990516
1.0028 1.00008 0.990966
1.00491 0.999123 0.987851
1.00511 0.999889 0.986992
1.00069 1.00079 0.997128
1.00196 1.00259 0.989732
1.00473 1.00181 0.985296
1.00521 1.00015 0.986524
1.00535 0.99825 0.987807
1.00529 1.00096 0.984969
1.0053 0.999704 0.986238
1.00524 0.99829 0.987535
1.00096 1.00288 0.990269
1.00205 1.00446 0.986937
1.00486 0.999263 0.987512
1.00497 0.999455 0.98768
1.00533 0.997344 0.988818
1.00536 0.997414 0.988562
1.00534 0.998802 0.987108
1.00526 0.996021 0.990032
1.00122 1.00306 0.989549
1.00526 0.997192 0.988617
1.00409 1.0025 0.985265
1.00531 1.00162 0.984117
1.00523 0.99974 0.986206
1.00521 0.99652 0.989444
1.00288 1.00371 0.986166
1.00127 1.00507 0.987705
1.00373 1.00239 0.986246
1.0032 0.999983 0.989359
1.00014 0.999939 0.997805
1.00012 1.00227 0.992231
1.00304 1.0002 0.989397
1.00525 1.0004 0.985605
1.00107 1.00298 0.989969
1.00419 1.00197 0.985641
1.00511 1.00078 0.985429
1.00534 1.0012 0.984619
1.00067 1.00266 0.991007
1.00004 1.00137 0.993355
1.00136 1.00485 0.987764
1.00525 1.00018 0.985863
1.00522 1.00056 0.985477
1.00529 0.999383 0.986554
1.00326 1.00306 0.986236
1.00531 1.0006 0.985312
1.00526 1.00196 0.984021
1.00532 1.00018 0.985392
1.00011 1.00053 0.994154
1.00254 1.00391 0.986922
1.00102 1.00456 0.988871
1.00281 1.00304 0.987331
1.00529 0.998715 0.987298
1.0053 1.00004 0.985869
1.00524 0.997449 0.988393
1.0048 1.00203 0.984623
1.00524 0.998986 0.986958
1.00533 1.00133 0.984601
1.00532 0.999306 0.986343
1.00023 1.00201 0.992491
1.00028 0.9993 0.99508
1.00001 0.997794 0.998793
0.999958 0.998164 0.998688
0.999914 0.998587 0.998554
1.00021 1.0026 0.991835
1.00015 1.00015 0.997757
1.00069 1.00273 0.990926
1.00041 1.00057 0.997413
1.00315 1.00008 0.989367
1.00287 1.00003 0.989932
1.00513 0.999747 0.986528
1.00493 0.999328 0.987304
1.00264 0.999862 0.990498
1.00109 0.999966 0.997015
1.0026 0.999834 0.990577
1.00488 0.999209 0.987522
1.00505 0.999513 0.986947
1.00533 0.996742 0.989442
1.00523 0.999933 0.986158
1.00532 0.997524 0.988586
1.00486 0.999193 0.987572
1.00531 0.996556 0.989658
1.00536 0.997082 0.989042
1.00527 0.994936 0.99125
1.0053 0.998072 0.98801
1.00522 0.995352 0.990769
1.00261 0.999869 0.990525
1.00297 1.00005 0.990786
1.00493 0.999083 0.98757
1.00513 1.00004 0.986836
1.00082 1.00084 0.996994
1.00231 1.0024 0.990396
1.00471 1.00208 0.985519
1.00523 1.00018 0.986481
1.00535 0.997884 0.98819
1.0053 0.999844 0.986199
1.0053 1.00085 0.985056
1.00524 0.998306 0.987551
1.001 1.00282 0.990254
1.0021 1.00436 0.986941
1.00487 0.999071 0.987685
1.005 0.999429 0.987654
1.00533 0.997162 0.989014
1.00537 0.997822 0.988166
1.0013 1.003 0.989548
1.00402 1.00271 0.985291
1.00531 1.00174 0.984006
1.00533 0.999021 0.986946
1.00524 0.995751 0.990278
1.00524 0.999517 0.98643
1.00526 0.997217 0.988618
1.0052 0.996477 0.989371
1.00287 1.00384 0.986125
1.00356 1.00262 0.986108
1.00132 1.00496 0.987743
1.00532 0.997106 0.989101
1.00538 0.997353 0.988764
1.00525 0.995284 0.990944
1.00526 0.995176 0.990848
1.00526 0.996187 0.989588
1.00522 0.995045 0.990883
1.00345 1.0033 0.98564
1.00521 0.995456 0.990251
1.00526 1.00247 0.983476
1.00525 1.00078 0.984898
1.0052 0.998103 0.987786
1.00517 0.995917 0.99002
1.00079 1.00498 0.988439
1.00455 1.00239 0.985033
1.00284 1.00384 0.986203
1.00496 1.00208 0.984974
1.00524 1.00019 0.985836
1 1.00133 0.99339
1.00052 1.00286 0.991024
1.00105 1.0049 0.987725
1.00524 1.00054 0.985454
1.00529 0.999387 0.986532
1.00339 1.00281 0.986254
1.00531 1.00195 0.983979
1.00532 1.00071 0.98521
1.00531 0.99992 0.985584
1.00009 1.00048 0.994195
1.00244 1.00378 0.986952
1.00082 1.00464 0.98886
1.00268 1.0031 0.987327
1.0053 0.998716 0.987276
1.0053 1.00004 0.985844
1.00523 0.997437 0.988391
1.0049 1.00201 0.984621
1.00524 0.999152 0.986748
1.0053 1.0012 0.98458
1.00532 0.999163 0.986514
1.0002 0.999793 0.994747
1.0007 1.00377 0.990143
1.00383 1.00223 0.986151
1.0019 1.00441 0.987861
1.00373 1.00054 0.988261
1.00524 0.996612 0.989285
1.00523 0.998239 0.987547
1.00522 0.996248 0.989413
1.005 1.00183 0.984471
1.00524 0.997973 0.987766
1.00507 1.00029 0.985728
1.00035 1.00226 0.99207
1.00034 1.00361 0.990748
1.0001 1.00188 0.992862
1.00019 1.00205 0.992488
1.00024 0.999042 0.996012
1.00026 0.999244 0.995474
1.00019 0.9974 0.997439
1.00001 0.997738 0.998829
0.999941 0.998072 0.998743
0.999902 1.00193 0.993025
0.999961 0.999678 0.998117
1.0003 1.0025 0.991825
1.00025 1.00022 0.997655
1.00075 1.00265 0.990894
1.00053 1.00061 0.997322
1.00522 0.99995 0.986139
1.00502 0.999514 0.986945
1.00531 0.997536 0.988581
1.00532 0.996755 0.989451
1.00486 0.99922 0.987525
1.0026 0.999822 0.990575
1.00485 0.999194 0.987577
1.00531 0.996563 0.989661
1.00534 0.997098 0.989049
1.00527 0.994934 0.991239
1.00531 0.998068 0.987994
1.00523 0.995339 0.990782
1.00531 0.996575 0.989654
1.00528 0.994959 0.991252
1.00524 0.995033 0.991132
1.00521 0.994962 0.991226
1.00523 0.995889 0.990128
1.00523 0.994891 0.990961
1.00488 0.998881 0.98786
1.00502 0.999417 0.987628
1.00533 0.997012 0.98921
1.00537 0.998235 0.987772
1.00138 1.00294 0.989552
1.00381 1.00305 0.985321
1.00531 1.00187 0.983895
1.00532 0.999232 0.986784
1.00523 0.995486 0.990524
1.00525 0.997242 0.988618
1.00524 0.999303 0.986653
1.0052 0.996417 0.989298
1.00287 1.00407 0.986083
1.00349 1.00273 0.98597
1.00133 1.00478 0.987781
1.00532 0.99692 0.989312
1.00537 0.997313 0.988774
1.00525 0.995127 0.991089
1.00524 0.995436 0.990628
1.00338 1.00348 0.985636
1.00525 1.0025 0.983519
1.00525 1.00095 0.984725
1.00526 0.996482 0.989307
1.00523 0.99498 0.990888
1.00521 0.998004 0.987757
1.00522 0.995481 0.990226
1.00518 0.995805 0.990067
1.00431 1.00269 0.985002
1.0049 1.00206 0.98474
1.00095 1.00485 0.988455
1.00262 1.00382 0.986242
1.00525 0.994962 0.991317
1.00526 0.995413 0.990671
1.00518 0.994941 0.991309
1.00519 0.994908 0.991001
1.00523 0.995007 0.99069
1.00525 0.994919 0.990797
1.00514 1.00264 0.983754
1.00521 0.994993 0.990597
1.00522 1.0021 0.983698
1.00523 0.999974 0.985602
1.00519 0.997341 0.9883
1.00518 0.995954 0.98992
1.00054 1.00441 0.989474
1.0014 1.00511 0.98696
1.00509 1.00288 0.983579
1.00461 1.00325 0.985227
1.00501 1.00349 0.983298
1.00007 1.00038 0.994235
1.0053 0.998716 0.987253
1.00059 1.00476 0.988849
1.00233 1.00375 0.986979
1.00262 1.00305 0.987321
1.0053 1.00004 0.985819
1.00523 0.997424 0.988389
1.00518 1.0018 0.984617
1.00528 1.00112 0.98456
1.00524 0.99931 0.98654
1.00533 0.999044 0.986685
1.00019 0.999729 0.99478
1.00047 1.00393 0.990164
1.00406 1.00188 0.986222
1.0015 1.00456 0.98779
1.00368 1.00057 0.987921
1.00524 0.996587 0.989288
1.00523 0.998221 0.987545
1.00522 0.996198 0.989411
1.00505 1.0019 0.984394
1.00526 0.998061 0.987595
1.00513 1.00031 0.985852
1.00041 1.00293 0.991332
1.00103 1.00498 0.98877
1.00451 1.0015 0.985699
1.00254 1.00312 0.987788
1.00485 1.00035 0.987579
1.00528 0.995499 0.990136
1.00521 0.997 0.988553
1.00523 0.995666 0.989656
1.00493 1.00121 0.984915
1.00508 0.998874 0.986764
1.00034 1.00225 0.992073
1.00042 1.00348 0.990534
1.00012 1.00379 0.990712
1.0005 1.00388 0.990473
1.00018 1.00362 0.991057
1.00002 1.00167 0.993172
1.00007 1.00186 0.992873
1.0002 0.998904 0.996196
1.00018 1.00208 0.992484
1.00025 0.999014 0.996039
1.00024 0.99715 0.997571
1.00025 0.99922 0.995858
1.00011 0.997435 0.998172
1.00001 0.997638 0.998859
0.999812 1.00076 0.994285
0.999965 1.00182 0.993016
0.999779 0.998942 0.998542
1.00009 0.999734 0.997968
1.0004 1.00237 0.991814
1.00034 1.00033 0.997561
1.00531 0.998062 0.987978
1.00532 0.997092 0.989056
1.00525 0.995316 0.990793
1.00527 0.994933 0.991228
1.00532 0.996569 0.989664
1.00485 0.999195 0.987581
1.00531 0.996578 0.989653
1.00527 0.994959 0.991258
1.00525 0.995017 0.991144
1.00522 0.994963 0.991194
1.00523 0.99585 0.990137
1.00524 0.994899 0.990958
1.00527 0.99496 0.99128
1.00522 0.994949 0.991289
1.00523 0.994946 0.991084
1.00527 0.994946 0.99109
1.00527 0.995031 0.990677
1.00531 0.994891 0.990825
1.00532 0.996727 0.989522
1.00536 0.997273 0.988785
1.00526 0.994953 0.991233
1.00522 0.995693 0.990407
1.00332 1.00358 0.985634
1.00521 1.00249 0.983558
1.00524 1.00105 0.984549
1.00526 0.996774 0.989025
1.00524 0.994908 0.990893
1.00522 0.995508 0.990201
1.00521 0.997908 0.987729
1.00518 0.995672 0.99012
1.00395 1.00317 0.984974
1.00485 1.00209 0.984506
1.00113 1.00474 0.988471
1.00249 1.00373 0.986283
1.00526 0.994961 0.991309
1.00526 0.995371 0.990734
1.00518 0.994944 0.991283
1.0052 0.994915 0.991008
1.00493 1.00284 0.983768
1.00521 1.00217 0.983604
1.00521 0.999967 0.985584
1.00524 0.995078 0.990617
1.00524 0.99492 0.990772
1.00517 0.997366 0.9883
1.00521 0.994972 0.990581
1.00519 0.995762 0.990027
1.00503 1.00291 0.983641
1.00497 1.00362 0.983098
1.00407 1.00291 0.985258
1.00054 1.00424 0.989525
1.00129 1.00512 0.987118
1.00521 0.99495 0.99125
1.00521 0.99494 0.991117
1.00526 0.994906 0.99072
1.00525 0.994899 0.990724
1.00516 1.00311 0.983049
1.00522 0.995015 0.990482
1.00509 1.00152 0.984026
1.00517 0.999391 0.986117
1.00514 0.997051 0.988492
0.99996 1.00351 0.991078
1.00095 1.00513 0.988315
1.00199 1.00502 0.986725
1.00499 1.004 0.982706
1.00493 1.00308 0.984229
1.00501 1.00322 0.982726
1.00018 0.999677 0.994812
1.00031 1.00408 0.990183
1.00524 0.996563 0.989291
1.00117 1.00472 0.987718
1.00418 1.00179 0.986297
1.00356 1.00079 0.987584
1.00522 0.998206 0.987542
1.00522 0.996151 0.989409
1.0052 1.00189 0.984316
1.00515 1.00035 0.985976
1.00527 0.998134 0.987424
1.00036 1.00295 0.99134
1.00068 1.00506 0.988786
1.00481 1.00133 0.985513
1.00236 1.00321 0.987782
1.00452 0.999583 0.987439
1.00526 0.995492 0.990156
1.00522 0.997018 0.988532
1.00524 0.995699 0.989637
1.00492 1.00125 0.984997
1.0051 0.998976 0.986755
1.00064 1.00425 0.989934
1.00036 1.00508 0.988597
1.00486 1.00167 0.985019
1.00283 1.00131 0.987753
1.0051 1.00026 0.986989
1.00525 0.995032 0.990362
1.00526 0.99704 0.988262
1.00529 0.995967 0.989107
1.00489 1.00004 0.986169
1.00512 0.999024 0.9867
1.00034 1.00222 0.992076
1.00043 1.00361 0.990517
0.99998 1.00386 0.990796
0.999957 1.00392 0.990677
1.00005 1.00377 0.991047
1.00005 1.00417 0.990561
0.999922 1.00343 0.991685
0.99999 1.00431 0.990324
1.00002 1.00346 0.991455
0.999999 1.00169 0.993196
1.00001 1.00167 0.993176
1.00011 0.998852 0.996357
1.00004 1.00183 0.992883
1.00021 0.99888 0.996222
1.00022 0.997033 0.997682
1.00027 0.998979 0.99607
1.0002 0.997181 0.99757
1.00001 0.997454 0.998927
0.999834 0.999742 0.995256
0.99985 1.0008 0.994238
0.999731 0.998315 0.998834
1.00007 1.00171 0.993008
0.999892 0.999132 0.998385
1.00019 0.999861 0.997831
1.00523 0.995817 0.990146
1.00527 0.995004 0.991157
1.00525 0.994907 0.990956
1.00522 0.994964 0.991161
1.00527 0.994959 0.991263
1.00532 0.996583 0.989652
1.00527 0.994962 0.991296
1.00523 0.994948 0.991297
1.00522 0.994941 0.991107
1.00527 0.994941 0.991073
1.00527 0.995063 0.990702
1.0053 0.994893 0.990777
1.00522 0.994949 0.991291
1.00527 0.994937 0.991165
1.00529 0.994939 0.990935
1.00531 0.994867 0.990605
1.00526 0.99496 0.991301
1.00525 0.995334 0.990796
1.00518 0.994946 0.991256
1.0052 0.994921 0.991017
1.00479 1.00291 0.983781
1.00522 1.00228 0.983515
1.0052 1.00002 0.985566
1.00525 0.995154 0.990545
1.00524 0.994919 0.990748
1.00521 0.994957 0.990564
1.00516 0.997356 0.988297
1.0052 0.995609 0.990133
1.00477 1.00298 0.983702
1.00498 1.00364 0.9829
1.00344 1.00309 0.985289
1.00055 1.00402 0.989586
1.00131 1.00512 0.987279
1.00521 0.994949 0.991247
1.00521 0.994937 0.991135
1.00526 0.994912 0.990746
1.00512 1.00311 0.983106
1.00513 1.00173 0.983933
1.00515 0.999447 0.986113
1.00524 0.994902 0.990726
1.00516 0.996899 0.988733
1.00521 0.99505 0.990437
0.999945 1.00329 0.991314
1.00485 1.00388 0.982793
1.00481 1.0043 0.982426
1.00449 1.0033 0.98431
1.00212 1.0049 0.986803
1.00077 1.00512 0.988316
1.00527 0.99494 0.991136
1.00529 0.994905 0.990867
1.00527 0.994902 0.990623
1.00524 0.994868 0.990605
1.0051 1.00297 0.983195
1.00519 0.995311 0.990184
1.00505 1.00115 0.984634
1.00508 0.999476 0.986249
0.999972 1.00157 0.992956
1.0002 1.00487 0.989856
1.0015 1.00507 0.988082
1.00272 1.00501 0.9852
1.00471 1.00432 0.983248
1.00497 1.00355 0.983059
1.0003 1.00302 0.991349
1.00023 1.00513 0.988802
1.00524 0.995485 0.990177
1.0022 1.00317 0.987773
1.00512 1.00115 0.985325
1.00398 0.999266 0.98729
1.00523 0.997036 0.988511
1.00524 0.995729 0.989617
1.00491 1.00134 0.985075
1.00513 0.9991 0.986746
1.00044 1.00433 0.989943
1.00083 1.0051 0.98832
1.00487 1.00162 0.984992
1.00341 1.00122 0.987545
1.00488 1.00052 0.986545
1.00526 0.995066 0.990396
1.00526 0.996956 0.988467
1.00528 0.996012 0.989213
1.00487 1 0.986262
1.00507 0.999231 0.986489
0.999596 1.00437 0.99018
1.00066 1.00421 0.988862
1.00483 1.00041 0.986252
1.00412 0.999804 0.987283
1.00534 0.994862 0.99035
1.00526 0.995613 0.989953
1.00524 0.998089 0.987047
1.00514 0.999255 0.986347
1.00056 1.00358 0.990499
1.00013 1.00384 0.99077
0.999324 1.00379 0.992669
0.999922 1.00393 0.991037
0.999551 1.00453 0.99065
0.999978 1.00349 0.991445
0.999614 1.00339 0.992053
1 1.00453 0.990246
0.999748 1.00121 0.994124
0.999776 1.00441 0.990884
0.999857 1.00448 0.99037
1.00012 1.00328 0.991472
0.99997 1.00191 0.992957
0.999964 1.00169 0.993186
0.999995 0.998905 0.996475
0.999988 1.00164 0.993182
1.00012 0.998864 0.996375
1.00014 0.997067 0.997775
1.00021 0.998868 0.996251
1.00021 0.997055 0.997679
1.00017 0.99722 0.997562
0.999964 0.998992 0.995843
0.999838 0.999869 0.99519
0.999729 0.99783 0.999002
0.999855 1.00088 0.994189
0.999774 0.998414 0.998756
1.00003 0.999209 0.998215
1.00528 0.995092 0.990726
1.00522 0.994937 0.991129
1.00528 0.994897 0.990729
1.00527 0.994935 0.991056
1.00523 0.994947 0.991305
1.00527 0.994965 0.991313
1.00522 0.994951 0.991301
1.00527 0.994936 0.991162
1.00529 0.99493 0.990924
1.00531 0.994864 0.990624
1.00527 0.99494 0.991193
1.00528 0.994929 0.991063
1.00532 0.994888 0.990718
1.0052 0.994949 0.991243
1.00522 0.994934 0.991154
1.00526 0.994919 0.990772
1.00513 1.0031 0.983164
1.00513 1.00186 0.983836
1.00512 0.999374 0.986108
1.00523 0.994905 0.990728
1.00522 0.995078 0.99039
1.00521 0.996676 0.988967
1.00479 1.00375 0.982879
1.00504 1.00434 0.982143
1.0043 1.00327 0.984389
0.999984 1.00311 0.991558
1.00235 1.00468 0.98688
1.00049 1.00513 0.988309
1.00527 0.994942 0.991148
1.00529 0.994901 0.990834
1.00528 0.994899 0.990616
1.00502 1.00308 0.983223
1.00494 1.00106 0.984547
1.00507 0.999174 0.986598
1.00523 0.994872 0.99057
1.00508 0.995427 0.99013
0.999979 1.00154 0.993177
1.00011 1.00487 0.989827
1.00476 1.0032 0.983125
1.00474 1.00373 0.983275
1.00321 1.00473 0.985341
1.00128 1.00506 0.987902
1.00529 0.994906 0.991065
1.00532 0.994854 0.990573
1.00528 0.994895 0.990555
1.00521 0.994891 0.990339
1.00449 1.00238 0.984059
1.00516 0.997103 0.988589
1.00495 1.00138 0.984707
1.00014 1.00066 0.993994
1.00026 1.00175 0.992813
0.999653 1.00343 0.991873
1.00059 1.00505 0.988963
1.00132 1.00507 0.98705
1.00366 1.00435 0.983798
1.00365 1.0041 0.984452
1.00386 1.00495 0.984536
1.0002 1.00448 0.989953
1.00116 1.00511 0.988042
1.00528 0.995103 0.990429
1.00395 1.00053 0.987342
1.00489 1.00152 0.98497
1.0048 1.00086 0.986116
1.00526 0.996846 0.988675
1.00527 0.996042 0.989322
1.00489 0.999927 0.986354
1.00503 0.99936 0.986279
1.00007 1.00415 0.99001
1.00085 1.00436 0.988557
1.00495 1.00042 0.986086
1.00461 1.00025 0.987177
1.00534 0.994845 0.990361
1.00528 0.995532 0.98989
1.0052 0.998049 0.987164
1.00517 0.99932 0.986315
0.999682 1.00432 0.990307
1.00537 0.994896 0.990367
1.00281 1.00345 0.988222
1.00481 0.999471 0.986949
1.00529 0.994958 0.990617
1.0052 0.997197 0.987028
1.00508 1.00047 0.985662
1.00025 1.00384 0.990744
0.999228 1.0036 0.992578
0.998456 1.00214 0.99567
0.999979 1.00342 0.991435
1.00001 1.00475 0.990167
0.998697 1.00402 0.992413
1.00012 1.0032 0.991464
0.999872 1.00453 0.990366
0.998872 1.00188 0.994515
0.999914 1.00438 0.990762
0.999256 0.999738 0.997193
0.99906 1.00284 0.99346
0.99971 1.005 0.990148
1.00034 1.00433 0.989949
1.0002 1.00347 0.991075
0.999914 1.00225 0.992711
0.999901 1.00205 0.992937
0.999872 0.999114 0.996519
0.999926 1.00177 0.993177
1.00001 0.998942 0.996474
1.00003 0.99716 0.997865
1.00013 0.998853 0.996397
1.00016 0.997063 0.99777
1.0002 0.997077 0.997671
1.00015 1.00063 0.994066
1.00004 0.998572 0.996156
0.999954 0.999081 0.995799
0.999803 0.997479 0.999094
0.999841 0.99998 0.995126
0.999761 0.997945 0.998963
0.999841 0.998569 0.998647
1.00531 0.99486 0.990644
1.00529 0.99492 0.990913
1.00527 0.994935 0.991159
1.00522 0.994951 0.991312
1.00527 0.99494 0.991196
1.00528 0.994926 0.991076
1.00531 0.994891 0.990683
1.00528 0.994919 0.991122
1.00534 0.994916 0.990899
1.00547 0.995088 0.991085
1.00526 0.994943 0.991161
1.00529 0.994895 0.990801
1.00528 0.994898 0.990608
1.00487 1.00321 0.983254
1.00496 1.00149 0.984483
1.00486 0.998998 0.986943
1.00523 0.994884 0.990536
1.00498 0.995583 0.99008
1.00443 1.00357 0.983006
1.00427 1.00439 0.983455
1.00308 1.00441 0.985483
0.999973 1.00145 0.993396
1.00009 1.00489 0.989796
1.00116 1.00503 0.987718
1.00529 0.994905 0.991046
1.00012 1.00066 0.993982
1.00016 1.00184 0.992668
1.00532 0.994865 0.990586
1.00527 0.994894 0.990568
1.00478 1.00262 0.983962
1.00472 1.00133 0.984931
1.00509 0.996853 0.988496
1.00521 0.994898 0.99029
0.999719 1.00338 0.992044
1.0006 1.00506 0.988916
1.00386 1.00395 0.984305
1.00368 1.0044 0.984112
1.00393 1.00459 0.983764
1.00149 1.00505 0.98699
1.00537 0.994863 0.990794
1.00533 0.994824 0.990479
1.00524 0.994858 0.990399
1.00518 0.994922 0.990356
1.0041 1.00225 0.985141
1.00452 1.00082 0.986372
1.00006 1.00234 0.992197
0.99996 1.00198 0.992966
1.0014 1.00052 0.992512
1.00052 1.0038 0.9901
1.00081 1.00511 0.988457
1.00243 1.00454 0.986369
1.00243 1.00517 0.98439
1.00269 1.00113 0.988175
1.00057 1.00398 0.98984
1.00123 1.00453 0.988247
1.00535 0.994829 0.990371
1.00529 0.995499 0.989829
1.00517 1.00073 0.987067
1.00502 1.00047 0.985912
1.00514 0.998026 0.987279
1.0052 0.999412 0.986286
1.00031 1.00398 0.990197
1.00538 0.994932 0.990598
1.00201 1.00355 0.988384
1.00496 0.99967 0.986713
1.00529 0.994958 0.990639
1.00518 0.997394 0.987227
1.00498 1.00031 0.98565
0.999621 1.00493 0.991009
1.00495 0.994811 0.9908
1.00249 1.00261 0.988145
1.00471 1.00122 0.985142
1.00511 0.995618 0.989885
1.00369 1.00103 0.986279
0.998773 0.995305 0.986219
0.99898 1.0036 0.992495
0.997911 1.0026 0.99569
0.99839 1.0016 0.996838
1.00002 1.00328 0.991456
0.99981 1.00466 0.990364
1.00036 1.00396 0.990645
0.998401 1.00213 0.994923
1.00011 1.00358 0.991077
1.00026 1.00435 0.990007
0.999341 0.999531 0.996929
0.999809 1.00493 0.990161
0.999469 1.0028 0.993003
0.998236 1.00121 0.997302
1.00043 1.00417 0.990127
1.00017 1.00487 0.989942
1.00071 1.00426 0.989645
1.00012 1.00395 0.990483
1.00034 1.00467 0.990026
1.0001 1.00417 0.990241
0.9999 1.00234 0.992624
0.999919 1.00226 0.992693
0.999747 0.99922 0.995966
0.999893 1.00205 0.992915
0.999859 0.999163 0.996194
0.999997 0.997323 0.999097
1.00002 0.998989 0.996475
1.00005 0.997137 0.997863
1.00017 0.99706 0.99776
1.00004 1.00054 0.994229
1.00015 1.00053 0.994097
1.00009 0.998329 0.996369
1.00003 0.998585 0.996435
0.999865 0.997203 0.999158
0.999937 0.999193 0.995753
0.999804 0.99755 0.999072
0.999793 0.99797 0.998925
1.00529 0.994893 0.990648
1.00528 0.994924 0.991089
1.00527 0.99494 0.991199
1.00528 0.99492 0.991123
1.00534 0.994915 0.990874
1.00545 0.995005 0.990834
1.00542 0.994882 0.990906
1.00134 0.994874 0.981746
1.00479 0.994999 0.992137
1.00009 1.00176 0.992932
1.00529 0.994905 0.991028
1.00532 0.994874 0.990598
1.00526 0.994888 0.99058
1.00481 1.00227 0.983843
1.00492 1.0009 0.985137
1.00496 0.99676 0.988401
1.00521 0.994889 0.990243
1.00436 1.00326 0.984203
1.00422 1.00409 0.983745
1.0038 1.00458 0.983729
1.00011 1.00068 0.993973
1.00201 1.00504 0.986929
0.999746 1.00333 0.9922
1.00059 1.00505 0.988866
1.00013 1.00184 0.992524
1.00537 0.994854 0.990796
1.00003 1.00235 0.992343
0.999957 1.00201 0.992982
1.001 1.00056 0.992892
1.00534 0.994833 0.990449
1.00523 0.994864 0.990367
1.00333 1.00315 0.985233
1.00478 0.999568 0.986874
1.00518 0.994904 0.990285
1.00033 1.00381 0.990308
1.00107 1.00509 0.988274
1.0029 1.00249 0.987577
1.003 1.00501 0.984161
1.00284 1.00399 0.986521
1.00535 0.994791 0.990962
1.00524 0.994786 0.990741
1.00517 0.994993 0.989913
1.00502 0.996902 0.990281
1.00186 1.00195 0.988902
0.999428 1.00357 0.991869
1.00126 1.00102 0.991923
1.00001 1.00017 0.993201
1.00068 1.0044 0.990346
1.00046 1.00508 0.989183
1.00092 1.00427 0.987979
1.00209 1.00018 0.990474
1.00117 1.00358 0.990085
1.00101 1.00361 0.988554
1.0054 0.994965 0.990819
1.0053 0.994917 0.990652
1.00518 0.997535 0.987426
1.00501 0.999821 0.986477
1.00489 1.00015 0.985643
1.00008 1.00469 0.990972
1.00468 0.994848 0.991007
1.00272 1.0024 0.987943
1.00479 1.00126 0.985044
1.00506 0.995513 0.990157
1.00399 1.00087 0.986358
0.998539 0.996402 0.984338
0.998879 1.00438 0.992133
1.00301 0.996008 0.991108
1.00332 1.00235 0.98609
1.00305 1.00104 0.987037
1.00338 0.997569 0.990717
0.99996 0.994872 0.943985
0.995217 0.994795 0.965136
0.99565 0.999433 0.988179
0.999268 0.994802 0.860193
0.994711 0.994842 0.822202
0.997498 1.00296 0.995703
0.99769 1.00185 0.997083
0.997682 1.00299 0.996772
1.00007 1.00362 0.99108
1.00028 1.00418 0.990064
0.999978 1.00481 0.990176
0.999708 1.00294 0.992529
0.999321 0.999021 0.996657
1.0001 1.00483 0.98998
1.00016 1.00392 0.990562
1.00062 1.00424 0.989679
0.998541 1.00037 0.996729
0.999991 1.00439 0.990489
1.00044 1.00464 0.99049
0.998752 1.00442 0.992309
1.0001 1.0047 0.990196
1.00053 1.00463 0.989145
1.00019 1.00405 0.990353
1.0003 1.00501 0.989369
1.00038 1.00415 0.990595
0.999641 1.00492 0.990642
1.00016 1.0047 0.989998
1.00026 1.00387 0.990629
1.00014 1.00418 0.990236
0.999917 1.00235 0.992625
0.999912 1.00235 0.992628
0.999717 0.99929 0.995988
0.999885 1.00235 0.992676
0.999733 0.999263 0.99596
0.999945 0.997321 0.999128
0.999837 0.999225 0.995871
0.99997 0.99732 0.99849
1.00008 0.997116 0.997859
0.999919 1.00037 0.994563
1.00003 1.00058 0.994235
1.00009 0.998165 0.996554
1.00017 1.00044 0.994127
1.00008 0.998281 0.996654
0.999921 0.996922 0.999214
1.00005 0.998633 0.996105
0.999864 0.997335 0.999132
0.999815 0.997654 0.999053
1.00533 0.994913 0.99085
1.00528 0.994921 0.991123
1.00542 0.994923 0.99059
1.00071 0.994843 0.981906
1.00542 0.994881 0.990916
1.00463 0.994967 0.991944
1.00519 0.996004 0.991197
0.996209 0.994885 0.964623
1.00145 0.995412 0.983912
1.00015 1.00148 0.993208
1.00005 1.00194 0.992893
0.999352 1.00385 0.991925
0.999866 1.00235 0.992648
1.00537 0.994851 0.990797
1.00535 0.994847 0.990419
1.00522 0.994877 0.990335
1.00421 1.00356 0.985331
1.00466 0.997669 0.987401
1.00519 0.994904 0.990215
1.00251 1.00315 0.986947
1.00448 1.00492 0.98392
1.00304 1.00253 0.986664
0.999919 1.00209 0.993001
1.00098 1.00509 0.988104
1.00021 1.00389 0.990516
0.999924 1.00255 0.992486
1.0005 1.00086 0.993239
1.00535 0.994792 0.990967
0.999773 1.00352 0.991668
1.0014 1.00056 0.99216
0.99827 1.00121 0.995615
1.00525 0.994808 0.990653
1.00518 0.995056 0.989929
1.00314 1.00079 0.988901
1.00469 0.995956 0.990569
1.00075 1.00449 0.989697
1.00083 1.00481 0.988282
1.00181 1.00173 0.990391
1.00238 1.00359 0.987399
1.0043 0.995141 0.9916
1.00512 0.99502 0.991026
1.00503 0.995939 0.989645
1.00344 0.996553 0.993068
0.997963 1.00463 0.993257
1.00096 1.00148 0.991698
0.998156 1.00473 0.993077
0.999309 1.00459 0.991051
0.999986 0.994888 0.930669
1.00034 1.00454 0.99093
1.00275 1.00263 0.987736
1.00431 0.994891 0.991245
1.00507 0.995467 0.990424
1.00417 1.00073 0.986418
1.00463 1.00139 0.98494
0.998428 0.997145 0.982318
0.999247 1.00426 0.99231
1.00294 0.996248 0.991005
1.00327 1.00264 0.986115
1.00358 1.001 0.987143
1.00378 0.997634 0.990457
0.999957 0.994865 0.93117
0.995581 0.994805 0.961684
0.995594 0.999996 0.988403
0.998182 0.994772 0.865018
0.994725 0.994839 0.812993
0.999308 1.00424 0.9916
0.999791 0.994819 0.871262
0.99472 0.994808 0.814516
1.00035 0.999603 0.992661
1.00157 1.002 0.989516
1.00145 0.999486 0.992612
0.994952 0.998473 0.990899
0.997705 0.994825 0.942897
0.994903 0.994785 0.957684
0.996403 0.994847 0.882743
0.994731 0.994814 0.804764
0.997138 1.00218 0.99734
0.997458 1.00234 0.996631
0.997638 1.00452 0.995384
1.00023 1.00386 0.99064
1.00056 1.00423 0.989713
0.999631 1.00501 0.990017
0.999702 1.00463 0.990849
0.999075 0.999603 0.996163
1.00021 1.00399 0.990359
1.00021 1.00463 0.990358
0.999966 1.00485 0.990035
1.00069 1.00458 0.989277
0.998679 1.00428 0.992598
0.999453 1.00455 0.991816
0.997509 1.00509 0.993379
1.0001 1.00506 0.989481
1.00052 1.0047 0.989444
1.00044 1.00494 0.989347
1.00017 1.00373 0.990884
1.00028 1.00501 0.989747
0.999904 1.00376 0.991405
0.999161 1.00279 0.992142
0.999163 1.00497 0.991045
0.999533 1.00475 0.990683
0.999816 1.00462 0.990668
1.0001 1.00392 0.99075
1.00002 1.00474 0.98997
1.00026 1.00387 0.990558
1 1.00232 0.992534
1.00019 1.00419 0.99023
0.999933 1.0023 0.992636
0.999908 0.999253 0.996428
0.999891 1.00236 0.992631
0.999765 0.999258 0.996247
0.999892 0.997304 0.997973
0.999721 0.999279 0.995954
0.999939 0.997338 0.999137
0.999961 0.997348 0.99788
1.00026 1.00145 0.992995
0.999922 1.00025 0.994705
0.999923 1.00041 0.994554
1.00005 0.998091 0.996663
1.00001 1.00064 0.994239
1.00009 0.998128 0.996553
0.999964 0.996808 0.999247
1.00006 0.998289 0.996897
0.999923 0.997084 0.998642
0.99989 0.997392 0.997972
1.0002 0.994824 0.982045
1.00542 0.994883 0.990924
1.00445 0.995448 0.991738
0.996432 0.994854 0.965185
1.00158 0.995155 0.984286
1.00521 0.995557 0.991179
1.00347 0.996265 0.986487
0.997309 0.994851 0.967873
0.999985 0.994864 0.942127
0.997942 0.994814 0.884227
0.994657 0.994805 0.820932
0.999691 1.00245 0.992667
1.00016 1.00143 0.993195
1.00016 1.00184 0.992853
0.999713 1.00325 0.992076
0.999096 1.00415 0.992451
1.00055 1.00201 0.991911
1.00021 1.00288 0.99192
1.00012 1.00214 0.992516
1.00536 0.994791 0.990964
1.00526 0.994826 0.990571
1.00519 0.995073 0.98994
1.00309 1.00108 0.988896
1.00452 0.995526 0.990856
1.00157 1.00244 0.990289
1.00383 1.00384 0.986828
1.00161 1.00504 0.987389
1.00142 1.00013 0.99239
1.00085 1.00459 0.989012
1.00036 1.00312 0.991481
0.997183 1.00173 0.997996
1.00427 0.994829 0.991877
0.998437 1.00427 0.993146
1.00073 1.0018 0.992248
1.00486 0.994931 0.990997
1.00469 0.995843 0.989999
1.00273 0.99671 0.992743
0.999498 1.0051 0.991346
1.00052 1.0033 0.991282
1.0033 0.994862 0.991254
1.00388 0.998577 0.990519
1.00458 0.995498 0.991177
1.00088 0.99797 0.994031
0.999423 1.00485 0.990816
0.998746 1.00449 0.99231
0.999469 1.00493 0.991913
0.999787 0.994914 0.873838
1.00026 0.994864 0.944582
0.999926 1.00377 0.992492
1.00344 1.00281 0.986151
1.00286 0.996831 0.990898
1.00409 0.997712 0.990209
1.00404 1.00106 0.987272
0.999989 0.994868 0.942302
0.995871 0.994796 0.961169
0.995594 1.0003 0.988662
0.997639 0.994827 0.882835
0.994735 0.994829 0.803251
0.999594 1.00421 0.991556
0.999813 0.99485 0.870411
0.994686 0.994794 0.807741
1.00043 0.999544 0.992619
1.00158 1.00215 0.989516
1.00136 0.999633 0.993012
0.994895 0.999563 0.991643
0.998502 0.995155 0.93668
0.994881 0.994799 0.959107
0.995902 0.995172 0.882403
0.994747 0.994811 0.803177
0.998511 1.00415 0.994327
0.994718 0.994803 0.805188
0.994745 0.994778 0.814139
0.996938 1.00204 0.996925
0.999837 1.00181 0.994687
0.99489 0.99944 0.988728
0.995026 0.994886 0.960535
0.9954 0.994783 0.931653
0.994775 0.995784 0.887112
0.994831 0.994841 0.809775
0.997493 1.00181 0.996498
0.998094 1.00382 0.995127
0.996857 1.00397 0.995684
1.00024 1.00395 0.990365
1.00081 1.00443 0.989409
1.00001 1.00494 0.989872
0.999918 1.00465 0.990228
0.998245 1.00419 0.992889
1.0005 1.00474 0.98943
0.999525 1.00426 0.991461
1.00033 1.00499 0.989497
0.997123 1.00499 0.993742
0.995961 1.00523 0.996377
0.998828 1.00493 0.991925
1.00054 1.00506 0.989374
1.00056 1.00476 0.989327
1.00006 1.00335 0.991167
1.00018 1.00497 0.98969
1.00003 1.0036 0.991313
0.998958 1.00311 0.992857
0.998975 1.00472 0.991443
0.998689 1.00509 0.991619
0.998638 1.00321 0.99349
1.00031 1.00166 0.992886
1.00255 0.99953 0.990961
0.999084 1.00481 0.991107
0.999382 1.0048 0.991088
0.999562 1.00501 0.990075
0.999578 1.00492 0.990688
1.00005 1.00404 0.990656
0.999788 1.00464 0.990692
1.00013 1.00391 0.990781
1.00002 1.00237 0.992359
1.00026 1.00393 0.990486
0.99998 1.00233 0.992549
1.00004 0.999207 0.996237
0.999923 1.0023 0.992649
0.999885 0.999221 0.996082
1 0.997247 0.997829
0.99976 0.999239 0.995956
0.99995 0.997295 0.999147
0.999936 0.997335 0.999147
1.00033 1.00185 0.992832
0.999952 1.0004 0.994536
1.00014 1.00165 0.993007
1.00005 0.998051 0.996702
0.999911 1.00026 0.994704
0.999921 1.00046 0.994547
1.00006 0.998089 0.996652
0.999992 0.99672 0.999262
1.00007 0.998145 0.997047
0.999975 0.996807 0.998721
0.999941 0.997098 0.998126
0.999811 0.994825 0.858333
0.994693 0.994773 0.805184
0.996492 0.994853 0.965612
1.00134 0.994904 0.98476
1.00525 0.994802 0.991173
0.996964 0.995139 0.967414
1.00352 0.995393 0.987011
1.00076 0.994876 0.938656
0.998398 0.994775 0.865333
0.994703 0.994821 0.811973
0.99791 0.994821 0.973536
0.998494 0.994861 0.942506
0.996582 0.994855 0.882836
0.994762 0.99482 0.811458
1.00008 1.00331 0.991728
0.999837 1.0022 0.992793
1.00011 1.00154 0.993185
0.999859 1.00296 0.992226
0.998934 1.00407 0.992761
1.00029 1.00349 0.990824
1.00028 1.00278 0.991757
1.00052 1.00344 0.990469
1.00017 1.00289 0.991803
0.999983 1.00247 0.992378
1.00409 0.994763 0.99214
1.00471 0.994853 0.990967
1.00432 0.995807 0.990356
1.00226 0.997267 0.992414
1.00101 1.00293 0.991512
0.999585 1.00515 0.989641
1.00023 1.00228 0.992878
0.998612 1.00414 0.993019
1.00244 0.994952 0.9917
0.999498 1.00498 0.990588
0.998471 1.00488 0.992095
1.0036 0.997554 0.990688
1.00429 0.995537 0.991416
1.00109 0.998101 0.994305
0.999262 1.00492 0.991612
1.00022 0.995252 0.990543
1.00127 0.998693 0.993744
0.998863 1.00153 0.995097
0.998822 1.00467 0.990203
0.998625 1.00504 0.991003
0.998743 1.00483 0.99223
0.994723 0.994839 0.82841
0.999787 0.99488 0.879036
0.999997 0.994877 0.931026
0.999425 1.00406 0.991492
1.00182 1.00237 0.98949
1.00051 0.999299 0.992571
1.00119 0.999772 0.993417
0.999818 0.994874 0.882945
0.997997 0.994832 0.931403
0.99484 0.994822 0.957766
0.994883 1.00077 0.992283
0.996761 0.994833 0.867477
0.994663 0.994791 0.813347
0.994788 0.994823 0.817544
0.998353 1.00353 0.994037
0.994706 0.994811 0.815129
0.994768 0.994781 0.813565
0.997101 1.00048 0.997552
0.999404 1.00179 0.994573
0.99491 0.998288 0.99113
0.99544 0.99485 0.959354
0.996366 0.996662 0.94278
0.994722 0.997293 0.87015
0.99495 0.994838 0.820063
0.996989 1.00384 0.996776
0.994781 0.994829 0.82242
0.994812 0.994793 0.810795
0.994994 1.00221 1.00013
0.995288 0.996999 0.968109
0.994827 0.997987 0.941644
0.995147 0.995724 0.862523
0.995238 0.994878 0.828129
0.998521 1.00273 0.994831
0.997196 1.00426 0.995845
0.995669 1.00422 0.998029
1.00038 1.00479 0.989415
1.00044 1.00504 0.989514
0.999675 1.00393 0.991105
0.996923 1.00485 0.994107
1.00025 1.00507 0.989382
0.998778 1.00496 0.9919
0.995744 1.00521 0.996721
0.994995 1.00508 0.998265
0.995849 1.00515 0.99675
0.99936 1.00509 0.991305
1.00019 1.00501 0.989629
1.00008 1.00326 0.991218
0.998615 1.0034 0.993551
0.998701 1.00509 0.99171
0.999204 1.00468 0.991455
0.998621 1.00344 0.993598
0.998766 1.00442 0.992371
0.996258 1.00497 0.996137
1.00214 0.997361 0.993887
0.999924 1.00137 0.993489
1.00116 1.00079 0.991769
1.00473 1.00039 0.986973
1.00177 1.00174 0.990893
1.00134 0.99931 0.99291
0.99962 1.00457 0.990831
0.999723 1.00512 0.989596
0.999653 1.00459 0.991132
0.999881 1.00505 0.990079
1.00012 1.00457 0.990037
0.999973 1.00476 0.990693
1.00029 1.00382 0.990642
1.00011 1.00251 0.992142
1.00034 1.0036 0.990812
1.00011 1.00235 0.992367
1.00015 0.999246 0.996018
1.00001 1.00228 0.992565
1.00002 0.999216 0.995859
1.00009 0.997272 0.997687
0.99989 0.999198 0.995787
0.999991 0.997251 0.998485
0.999963 0.997264 0.999128
1.00025 1.00245 0.991974
1.0001 1.00052 0.994236
1.00022 1.00189 0.992655
1.00004 0.998106 0.996649
0.999969 1.00035 0.994544
1.00014 1.00162 0.993018
1.00002 0.996682 0.99927
1.00004 0.998052 0.996703
0.999912 1.00029 0.994703
1.00007 0.998076 0.996641
0.999993 0.996759 0.999259
0.999961 0.996801 0.999244
0.994689 0.994775 0.808402
0.999785 0.99484 0.870335
0.994753 0.994768 0.811346
0.99471 0.994772 0.804391
0.997032 0.994883 0.96551
1.00341 0.994829 0.98754
0.999891 0.994852 0.934496
0.999088 0.994812 0.884079
0.994743 0.99483 0.802747
0.998468 0.994854 0.97264
0.999284 0.995784 0.928585
0.996088 0.996023 0.881145
0.99472 0.994813 0.804158
0.9952 0.994815 0.965341
0.996268 0.996185 0.930126
0.994835 0.997403 0.862648
0.994822 0.99487 0.808657
1.00082 1.00446 0.990332
0.99974 1.0033 0.991828
1.00001 1.00192 0.992915
0.998645 1.00374 0.993074
1.00088 1.00375 0.989529
1.00022 1.00338 0.991027
0.999848 1.00326 0.991609
1.00101 1.00295 0.990499
1.0006 1.00354 0.990568
1.00022 1.00269 0.991689
1.00208 0.994782 0.992139
1.0034 0.996779 0.990868
1.00385 0.995614 0.991657
1.00091 0.997265 0.994598
1.00031 1.0049 0.991294
0.998883 1.00513 0.991892
0.999608 1.00502 0.990356
1.00015 1.00473 0.989939
0.999875 0.995548 0.991024
0.999526 1.00505 0.990721
0.999457 1.00476 0.992083
1.00117 0.998377 0.994384
0.99974 1.00039 0.99492
0.996481 0.999481 0.990461
0.996782 0.999085 1.00057
0.996868 1.00351 0.99573
0.999355 1.00468 0.991267
0.997818 1.00501 0.993511
0.99481 0.994815 0.828474
0.994715 0.99482 0.824373
0.999797 0.99489 0.862025
0.998355 1.00314 0.993806
0.999109 1.00149 0.994453
0.997299 0.999798 0.998182
0.99468 0.994796 0.813676
0.996421 0.996101 0.931383
0.995563 0.994882 0.959027
0.994863 0.996564 0.993832
0.994798 0.9971 0.888586
0.994773 0.994784 0.813641
0.995116 0.994844 0.821246
0.99737 1.00379 0.996624
0.99479 0.994827 0.825285
0.994804 0.994794 0.811671
0.995205 1.00149 0.999213
0.995269 0.996149 0.970071
0.994843 0.995992 0.930088
0.995106 0.994865 0.824221
0.995032 0.998686 0.870817
0.994924 1.00467 1.00009
0.994795 0.994826 0.817081
0.99487 0.994829 0.819354
0.994817 0.994854 0.809152
0.994803 0.998727 0.990207
0.994868 0.99844 0.945058
0.99734 0.996564 0.879044
0.997645 1.00483 0.996033
0.9958 1.00474 0.997812
0.995205 1.0047 0.999222
1.00019 1.00507 0.98939
0.998766 1.00501 0.99187
0.995566 1.00518 0.997057
0.999017 1.0051 0.991303
0.995988 1.00515 0.996752
0.995211 1.00486 0.998219
0.994937 1.00518 0.998446
0.995662 1.00506 0.997005
0.998586 1.00501 0.991816
0.999384 1.00473 0.991466
0.998647 1.00392 0.993731
0.996474 1.00491 0.996004
0.998746 1.00461 0.992254
0.999071 1.00179 0.994615
0.999601 0.997701 0.997519
1.00232 1.00001 0.989617
0.999549 1.00109 0.994044
1.00174 1.0008 0.991281
1.00436 1.00185 0.985906
1.00496 1.00248 0.984107
1.00366 0.999278 0.989876
1.0039 1.00036 0.987386
1.00083 1.00511 0.988733
1.00101 1.00215 0.991308
1.00014 0.999173 0.994835
1.00016 1.00438 0.990557
0.999916 1.00512 0.989638
1.00025 1.00502 0.989258
1.00019 1.00506 0.990085
1.00027 1.00441 0.990049
1.00015 1.00293 0.9916
1.00039 1.00375 0.990626
1.00015 1.00243 0.992135
1.00018 0.999329 0.995879
1.00012 1.00232 0.992375
1.00013 0.999267 0.995636
1.00018 0.997306 0.997524
1.00003 0.999235 0.995536
1.00007 0.99726 0.998382
1.00003 0.997232 0.999071
1.00058 1.00266 0.9911
1.00012 1.00086 0.993541
1.00039 1.00232 0.991966
1.00011 0.998154 0.996497
1.00006 1.00054 0.994085
1.00016 1.00194 0.99248
1.00004 0.996698 0.999255
1.00006 0.998073 0.99666
0.999982 1.00028 0.994552
1.00002 0.996701 0.999268
1.00003 0.998068 0.996703
0.999993 0.996732 0.999256
0.994821 0.994821 0.818889
0.994697 0.994809 0.821171
0.999798 0.994813 0.869385
1.00113 1.00259 0.99052
0.994818 0.994796 0.817527
0.994756 0.99477 0.811309
0.994742 0.99478 0.817019
0.999048 0.994869 0.971814
0.998051 0.994833 0.941561
0.996277 0.994857 0.865036
0.994693 0.994818 0.812973
0.996385 0.994837 0.962853
0.996437 0.99781 0.941138
0.994735 0.996544 0.865929
0.994837 0.994855 0.812713
0.994818 0.994947 0.957229
0.994812 0.99586 0.939483
0.995424 0.9999 0.874212
0.995104 0.994889 0.828122
0.999624 1.00474 0.990564
1.00023 1.00429 0.990278
0.999909 1.0033 0.991929
1.00069 1.00304 0.990595
1.00066 1.00413 0.989782
1.00018 1.00367 0.991228
1.00101 1.00308 0.990455
1.00059 1.00357 0.990661
0.998724 0.997089 0.991347
1.00071 0.997973 0.994943
1.00035 1.00483 0.989671
1.00069 0.999681 0.994752
0.999657 1.00468 0.991938
1.00001 1.00507 0.990447
0.999137 1.00459 0.99131
0.995981 0.998884 0.991131
0.998197 1.00495 0.993522
0.997644 1.00303 0.996008
0.996218 1.00002 1.00072
0.998704 1.00455 0.992652
0.994811 1.00097 0.98783
0.995456 1.00264 0.998844
0.996098 1.0048 0.996823
0.997625 1.00537 0.994457
0.994781 0.994809 0.822597
0.994814 0.994817 0.82609
0.994705 0.994806 0.820233
0.997653 1.00386 0.996448
0.995429 1.00051 0.99828
0.994805 0.994827 0.827966
0.994785 0.997539 0.942322
0.995643 0.996075 0.967385
0.995041 0.998203 0.869162
0.994806 0.994794 0.812338
0.994889 0.994856 0.820326
0.995364 1.00446 0.999725
0.994797 0.994824 0.81714
0.994867 0.994838 0.820331
0.994794 0.999372 0.993943
0.994829 0.994844 0.812967
0.994852 0.996341 0.937326
0.996038 0.997448 0.881125
0.994799 1.00326 0.99853
0.994836 0.994841 0.823651
0.994802 0.994802 0.818657
0.994753 0.994816 0.811659
0.99565 0.999894 0.873067
0.994865 1.00088 0.974855
0.995498 0.997811 0.930414
0.996082 1.00505 0.997607
0.995063 1.00508 0.999198
0.994897 1.00519 0.99843
0.998591 1.00512 0.991301
0.995808 1.00519 0.99676
0.995 1.00523 0.998178
0.99571 1.00498 0.996933
0.994958 1.00517 0.998473
0.997677 1.00225 0.997701
0.996628 1.0049 0.995855
0.99868 1.00469 0.992152
0.998842 1.00202 0.995293
0.998771 1.00158 0.993158
0.997206 0.99801 1.00099
1.00204 0.99973 0.990881
1.00428 1.00441 0.982591
1.00461 1.00297 0.983763
1.00227 1.00074 0.990743
1.00427 1.00219 0.985205
1.0051 1.00231 0.983984
1.00498 0.999944 0.986555
1.00469 1.00222 0.984461
1.00181 1.00293 0.988855
1.00325 0.999913 0.989627
1.00312 1.00028 0.987822
1.00044 1.00514 0.988569
1.00036 1.00505 0.988995
1.00031 1.00242 0.991716
1.00003 1.00511 0.989679
1.00039 1.005 0.989278
1.0002 1.00394 0.99057
1.00042 1.00441 0.99006
1.0002 1.00297 0.991582
1.00015 0.999546 0.994993
1.00025 1.00243 0.99213
1.0002 0.999331 0.995145
1.00009 0.997311 0.998933
1.00013 0.999312 0.995296
1.00014 0.997298 0.99826
1.00009 0.99725 0.999001
1.00053 1.00278 0.991027
1.00029 1.00131 0.992875
1.00052 1.00271 0.991251
1.00017 0.998303 0.996254
1.00021 1.00083 0.993466
1.00043 1.00229 0.991955
1.00008 0.996688 0.999221
1.00011 0.99813 0.996512
1.00007 1.00053 0.993934
1.00004 0.996681 0.999261
1.00007 0.998038 0.996671
1.00001 0.996742 0.999266
0.994798 0.994828 0.824006
0.994817 0.99482 0.819176
0.99469 0.994826 0.821047
1.00102 1.00262 0.990687
1.00069 1.00294 0.990548
1.00114 1.00191 0.9914
0.994875 0.994833 0.818463
0.994817 0.994795 0.818251
0.994755 0.994761 0.811361
0.996746 0.994839 0.963571
0.995876 0.994784 0.929396
0.994785 0.998407 0.887205
0.994824 0.99484 0.807142
0.994981 0.995023 0.959829
0.994909 0.997549 0.935638
0.99537 0.99763 0.870655
0.995093 0.994877 0.823941
0.995819 0.995204 0.956761
0.994866 0.997249 0.940193
0.996417 0.99659 0.880055
0.994839 0.994837 0.810776
0.999759 1.003 0.992018
1.00025 1.00411 0.99038
1.00033 1.00392 0.990222
1.00087 1.0029 0.990537
1.00035 1.00435 0.990037
1.00097 1.00327 0.990413
0.995953 0.997602 0.991933
0.996062 1.00093 1.00101
0.999582 1.00383 0.99135
0.998662 1.00232 0.996195
0.998499 1.00474 0.993525
0.998167 1.00421 0.993289
0.997144 1.00515 0.994592
0.994812 1.00147 0.987681
0.995822 1.00508 0.997242
0.995715 1.00302 0.998166
0.997062 1.00512 0.994779
0.994949 1.00267 0.984849
0.995519 1.00484 0.995394
0.99524 1.00433 0.998628
0.994846 0.994833 0.821905
0.994784 0.994817 0.821898
0.994818 0.994814 0.823745
0.995765 1.0038 0.999327
0.994796 0.999681 0.989849
0.994794 0.994822 0.817212
0.994845 0.997655 0.936924
0.99669 0.996571 0.866007
0.994866 0.994839 0.821286
0.994821 0.994833 0.807769
0.99479 1.00308 0.998998
0.994827 0.994843 0.823915
0.99482 0.994803 0.819432
0.994872 0.999655 0.972293
0.994715 0.994811 0.804764
0.995827 0.9994 0.868034
0.994927 0.99556 0.943872
0.994868 1.00518 0.990603
0.99479 0.994838 0.824321
0.994775 0.994784 0.812617
0.99466 0.99481 0.822384
0.994799 0.997394 0.861783
0.994853 0.998716 0.938808
0.994873 1.00111 0.966652
0.995056 1.00504 0.999143
0.994934 1.00518 0.998366
0.996179 1.00392 0.997561
0.995938 1.00478 0.996865
0.994989 1.00507 0.998492
0.996337 1.00386 0.997732
0.999344 0.999052 0.997827
0.998568 1.00243 0.995959
1.00114 1.00123 0.992223
1.00224 1.00484 0.985759
1.00158 0.999499 0.992376
1.00421 1.00426 0.983327
1.00429 1.00486 0.982215
1.00501 1.00155 0.984102
1.00504 1.0019 0.984241
1.00459 1.00307 0.983644
1.00445 1.00246 0.984521
1.00509 1.00154 0.984789
1.00511 1.0022 0.984043
1.00389 1.00059 0.987648
1.00464 1.00008 0.986894
1.00435 1.002 0.984817
1.00082 1.00507 0.98797
1.00183 1.00323 0.988788
1.00267 1.00071 0.989369
1.00041 1.00461 0.989588
1.00076 1.00512 0.988571
1.00009 1.00501 0.989258
1.00059 1.00493 0.9893
1.00034 1.00375 0.990577
1.00006 1.00015 0.994489
1.00032 1.00286 0.991563
1.00017 0.999589 0.994967
1.00011 0.997441 0.998896
1.00022 0.999344 0.995143
1.00016 0.997334 0.998197
1.00013 0.997299 0.998941
1.00068 1.00316 0.990739
1.0004 1.00158 0.992616
1.00066 1.00264 0.991083
1.00025 0.998536 0.995891
1.00028 1.0013 0.99296
1.00052 1.00269 0.991403
1.00011 0.996751 0.999165
1.00018 0.998251 0.996273
1.00025 1.0008 0.993391
1.00008 0.996706 0.999232
1.00012 0.998104 0.996526
1.00004 0.996695 0.999267
0.994834 0.994837 0.822772
0.994801 0.994843 0.824081
0.994814 0.994829 0.819506
1.00013 1.00455 0.989751
1.00103 1.00424 0.990068
1.00084 1.00274 0.99086
1.00059 1.00328 0.990438
1.00064 1.00208 0.99159
1.00026 1.00293 0.991374
1.00011 1.00176 0.992726
0.994832 0.994804 0.811269
0.994877 0.994842 0.81955
0.994811 0.994816 0.818993
0.994893 0.994869 0.819834
0.995181 0.994998 0.957561
0.99484 0.99876 0.930483
0.995438 0.995523 0.884717
0.995338 0.995025 0.955905
0.99485 0.998521 0.927664
0.995532 0.997606 0.881565
0.994888 0.994831 0.820846
0.996128 0.996508 0.959988
0.994968 0.999222 0.929048
0.995096 0.996156 0.862891
0.994734 0.994811 0.805763
0.997753 1.00465 0.994059
0.999505 1.00349 0.992343
1.00032 1.00435 0.990196
1.00094 1.00312 0.990484
0.994798 1.00153 0.987708
0.995771 1.00353 0.997338
0.99782 1.00481 0.993929
0.997009 1.0051 0.994733
0.995594 1.00515 0.997745
0.996921 1.005 0.994919
0.995369 1.00441 0.99865
0.99564 1.00244 0.981497
0.995108 1.00518 0.995656
0.995663 1.00394 0.997722
0.99482 1.00493 0.980117
0.995143 1.00275 0.999467
0.994778 0.994816 0.823129
0.99484 0.994833 0.825057
0.99479 0.994832 0.821179
0.994796 1.00305 0.999449
0.994861 0.999767 0.975605
0.994818 0.994838 0.824227
0.995147 0.99748 0.931409
0.996191 0.99658 0.882903
0.99483 0.994825 0.820129
0.994689 0.994816 0.813349
0.994876 1.00462 0.991503
0.994808 0.994837 0.82442
0.994759 0.994782 0.812634
0.994871 0.999763 0.966613
0.994708 0.994822 0.813538
0.994718 0.997257 0.86425
0.995018 0.998771 0.926949
0.994904 1.00477 0.985429
0.994834 0.994817 0.81907
0.994684 0.994779 0.806793
0.996353 0.994854 0.884313
0.99477 0.997607 0.938768
0.994795 0.999989 0.959698
0.994965 1.00528 0.998709
0.995541 1.00432 0.997635
0.996786 1.00031 0.998744
0.995286 1.00504 0.997753
0.997631 1.00072 0.998209
1.00199 1.00009 0.992621
1.00359 1.00077 0.991298
1.00312 1.005 0.985001
1.00391 1.00357 0.983616
1.00387 1.00423 0.98406
1.00442 1.00475 0.982151
1.00441 1.00406 0.982934
1.0052 0.999799 0.985531
1.00511 1.00097 0.985006
1.00504 1.00176 0.984063
1.00509 1.00166 0.984499
1.00504 1.00176 0.98425
1.0045 1.00324 0.983524
1.00512 1.00115 0.985411
1.00502 1.00176 0.984639
1.00511 1.00209 0.984107
1.00256 1.00346 0.987426
1.00345 1.0009 0.98807
1.00435 1.00012 0.987235
1.00056 1.00492 0.988595
1.0012 1.00488 0.988033
1.00166 1.00354 0.98872
1.00016 1.00073 0.993762
1.00053 1.00442 0.989599
1.001 1.00511 0.988573
1.00041 1.00365 0.990581
1.00008 1.00021 0.994455
1.00006 0.997698 0.998819
1.00018 0.999622 0.994942
1.00011 0.997447 0.998882
1.00014 0.997297 0.998913
1.00007 1.00511 0.989912
1.00072 1.00414 0.989839
1.00053 1.00203 0.99197
1.00063 1.00314 0.990722
1.00027 0.998879 0.995497
1.0004 1.0016 0.992607
1.00068 1.00262 0.991141
1.00013 0.996901 0.999075
1.00024 0.998522 0.995912
1.00029 1.00131 0.993042
1.00011 0.996743 0.999183
1.00019 0.998222 0.996293
1.00008 0.996689 0.999243
0.9948 0.994835 0.817342
0.99482 0.994832 0.82307
0.994811 0.994832 0.82415
1.00033 1.00473 0.989735
1.00038 1.00366 0.990255
1.00026 1.00303 0.989829
0.999492 1.0045 0.99025
1.00136 1.00346 0.990563
1.00072 1.0036 0.990327
1.0005 1.00217 0.991777
1.00032 1.00309 0.991403
1.00037 1.0018 0.992742
0.998901 1.00393 0.993072
0.994752 0.994775 0.814482
0.994816 0.994804 0.812203
0.99488 0.994837 0.820569
0.995061 0.994839 0.82194
0.995751 0.996598 0.866991
0.994904 0.995047 0.954715
0.994846 0.997296 0.939693
0.995384 0.99651 0.956201
0.994894 0.996139 0.940856
0.994984 0.998886 0.871439
0.994753 0.994806 0.804228
0.994852 0.99885 0.959466
0.994835 1.00066 0.940652
0.994772 0.997288 0.886976
0.994711 0.994847 0.823593
0.998399 1.00175 0.996176
0.997368 1.00451 0.994409
0.99947 1.00332 0.992681
0.995986 1.00224 0.97788
0.994933 1.00521 0.995917
0.996752 1.00487 0.995054
0.994941 1.0046 0.998665
0.996022 1.0039 0.997682
0.995157 1.00221 0.999765
0.994849 1.00261 0.979466
0.995986 1.00119 1.00003
0.995653 1.00021 0.986141
0.994815 0.99482 0.827505
0.994791 0.994827 0.822445
0.994832 0.994832 0.828253
0.994897 1.00403 0.991802
0.994854 0.999566 0.964187
0.994824 0.994844 0.824509
0.994842 0.999147 0.938749
0.994758 0.998414 0.884961
0.994744 0.994762 0.812813
0.994738 0.994832 0.80438
0.995329 1.00471 0.986178
0.994816 0.994823 0.81925
0.994706 0.994778 0.806081
0.995042 0.999211 0.960765
0.995917 0.995476 0.88212
0.994872 0.997512 0.933495
0.995164 1.00289 0.98314
0.99469 0.994781 0.809222
0.997904 0.994823 0.885543
0.99612 0.996288 0.930323
0.99484 0.996412 0.961975
0.995552 1.00501 0.997716
0.996316 1.00153 0.998665
0.99902 1.00213 0.995407
0.995934 1.00281 0.998571
1.00088 1.00033 0.993508
1.00385 0.999099 0.989601
1.00394 1.00511 0.984228
1.00378 1.00379 0.98351
1.00435 1.00064 0.985708
1.00469 1.00466 0.982089
1.0045 1.00357 0.983023
1.00498 0.999892 0.985959
1.00528 0.997236 0.987843
1.00523 0.99932 0.985903
1.00521 0.999711 0.985608
1.00517 1.00081 0.985221
1.00512 1.001 0.984918
1.00506 1.0019 0.984021
1.00518 1.00201 0.98436
1.00503 1.00157 0.984523
1.00503 1.00164 0.984257
1.00441 1.00154 0.986233
1.0046 1.00156 0.985559
1.00496 1.00204 0.984491
1.00113 1.00492 0.987375
1.00238 1.00343 0.987422
1.00319 1.00116 0.988488
1.0001 1.00176 0.993858
1.00084 1.00489 0.988607
1.00154 1.00462 0.988097
1.0001 0.998261 0.996641
1.00015 1.00093 0.994124
1.00066 1.00431 0.989609
1.00011 1.0003 0.994419
1.00007 0.997782 0.998765
1.00011 0.997462 0.998865
1.00061 1.00496 0.989081
1.00086 1.00499 0.988991
0.99965 1.00513 0.989812
1.00051 1.00304 0.991057
1.00054 1.0043 0.989812
1.00024 0.999273 0.995157
1.00049 1.00208 0.991985
1.00071 1.00311 0.990703
1.00013 0.997162 0.998983
1.00027 0.998856 0.995513
1.00039 1.00164 0.992598
1.00013 0.996898 0.999104
1.00023 0.998491 0.995933
1.00011 0.996744 0.9992
0.994787 0.994821 0.828759
0.994807 0.994836 0.817424
0.994806 0.994847 0.823383
1.00187 1.00152 0.989351
0.999911 1.00503 0.989716
1.00015 1.00358 0.990461
1.00026 1.00496 0.989948
1.00119 1.0026 0.989923
1.00053 1.00331 0.991697
1.00306 1.00251 0.987365
0.998029 1.00502 0.992005
1.00025 1.00306 0.991428
1.00011 1.00153 0.992755
0.998515 1.00387 0.992991
0.998206 1.00455 0.993603
0.994723 0.994808 0.814836
0.994773 0.994779 0.813953
0.994812 0.994803 0.812956
0.994779 0.994824 0.818234
0.994907 0.998693 0.870155
0.995113 0.998616 0.929224
0.994875 0.995862 0.956398
0.994883 0.999333 0.958713
0.994721 0.994853 0.8142
0.994864 0.996442 0.932803
0.99476 0.997632 0.870149
0.994907 0.996541 0.964424
0.994845 0.999022 0.941928
0.995913 0.994855 0.884085
0.999797 0.995218 0.999936
0.998354 1.00161 0.996092
0.997261 1.00438 0.994738
0.994875 1.00181 0.979225
0.995183 1.00148 1.00003
0.996608 1.00399 0.997645
0.997039 1.00058 1.00024
0.99521 0.999096 0.986309
0.996419 0.998547 0.99182
0.994714 0.99484 0.823075
0.994813 0.994812 0.828817
0.9948 0.994828 0.821677
0.994955 1.00444 0.986425
0.994855 0.999973 0.960424
0.9948 0.994829 0.819619
0.99483 0.998894 0.928746
0.99613 0.994856 0.866443
0.994746 0.994791 0.818378
0.994767 1.00485 0.983079
0.994699 0.994816 0.821774
0.998026 0.994786 0.866539
0.994857 0.995817 0.957743
0.996184 0.997445 0.941586
0.994881 1.00252 0.989365
0.999806 0.994837 0.85855
0.99829 0.994872 0.943675
0.994833 0.99483 0.956826
0.995802 1.00261 0.998639
0.998334 1.0014 0.995205
1.00126 1.00282 0.991389
0.999796 1.00016 0.994397
1.00305 0.999743 0.989398
1.00441 0.999364 0.987905
1.00378 1.00397 0.983401
1.00433 1.00085 0.985618
1.00505 0.996823 0.988283
1.00453 1.00301 0.983113
1.00486 0.999771 0.985948
1.0053 0.996025 0.98905
1.00526 0.995705 0.9898
1.00527 0.997414 0.987808
1.00529 0.99718 0.987966
1.00525 0.999157 0.986108
1.00522 0.999294 0.986089
1.0052 0.999664 0.985685
1.00526 1.00119 0.984564
1.00517 1.00072 0.985174
1.00512 1.00101 0.984829
1.00516 1.00139 0.984861
1.00504 1.00195 0.9844
1.00494 1.00147 0.984547
1.00263 1.00366 0.986597
1.0041 1.00192 0.98614
1.00399 1.00196 0.985708
1.00022 1.00253 0.991805
1.00164 1.00484 0.987397
1.00226 1.00359 0.987413
0.999823 0.999164 0.998399
1.00017 1.00177 0.992752
1.0011 1.00482 0.988619
1.00008 0.998204 0.998573
1.00015 1.00098 0.993625
1.00009 0.997835 0.998703
1.00286 1.00328 0.987843
1.00068 1.0049 0.988921
1.00107 1.0051 0.988483
1.00061 1.00394 0.990004
1.0006 1.00503 0.988964
0.999855 1.00518 0.989715
1.00015 0.999892 0.994721
1.00049 1.00299 0.991078
1.00034 1.00432 0.989783
1.0001 0.997378 0.998908
1.00024 0.999222 0.995173
1.00046 1.00208 0.991999
1.00013 0.997114 0.99901
1.00027 0.998836 0.995528
1.00012 0.996855 0.999132
0.994721 0.994803 0.807542
0.994806 0.994823 0.829071
0.994815 0.994837 0.81753
1.00172 1.00237 0.989273
1.0048 1.00147 0.9868
1.00222 1.00316 0.988364
1.00019 1.00483 0.989642
1.00238 1.00227 0.990016
0.999184 1.00249 0.992798
0.998959 1.00469 0.991535
1.00208 1.00302 0.988311
1.00229 1.00229 0.989209
0.999158 0.999809 0.995988
0.999269 1.00388 0.9929
0.998503 1.0046 0.993537
0.998757 0.99481 0.859873
0.994692 0.994798 0.808368
0.994783 0.994783 0.814053
0.994734 0.994837 0.80427
0.994807 0.997372 0.888435
0.994842 0.998073 0.928315
0.994938 0.997075 0.957332
0.994865 0.996914 0.962232
0.996176 0.996877 0.882049
0.994843 0.996985 0.929968
0.994863 0.997402 0.965408
0.995962 0.994787 0.930398
1.00003 0.995592 1.00133
0.999521 0.996495 0.999929
0.998125 1.00152 0.99606
0.994954 0.998806 0.986631
0.997709 0.999822 1.00046
0.996854 0.998775 0.991495
0.996631 0.996299 0.99027
0.99979 0.994929 0.872745
0.994705 0.994825 0.820517
0.994819 0.994813 0.829961
0.994775 1.00502 0.983405
0.994854 0.994898 0.95609
0.994694 0.994831 0.821489
0.995747 0.994778 0.930775
0.998839 0.994826 0.885594
0.994888 1.00057 0.986117
0.999766 0.994854 0.870678
0.998433 0.995307 0.930183
0.994847 0.994794 0.958584
0.996748 0.998294 0.987492
0.999939 0.994882 0.942979
0.995217 0.994803 0.963774
0.997815 1.00057 0.994984
1.0003 1.00127 0.991434
1.00368 0.999754 0.990504
1.00229 1.00073 0.989212
1.00416 0.999238 0.987873
1.00517 0.996376 0.989038
1.00427 1.00108 0.985533
1.00492 0.997316 0.988232
1.00528 0.995048 0.989955
1.00478 0.999634 0.985934
1.0053 0.996065 0.988997
1.00525 0.995015 0.990415
1.00526 0.995157 0.990465
1.00527 0.995659 0.989946
1.00523 0.996093 0.989707
1.00527 0.99777 0.987792
1.00526 0.997468 0.987939
1.00531 0.997111 0.988089
1.00528 0.999934 0.985721
1.00525 0.999206 0.986065
1.00521 0.999243 0.986275
1.00529 1.00157 0.984337
1.00527 1.00121 0.984597
1.00518 1.00067 0.985127
1.00351 1.00274 0.986102
1.00508 1.00148 0.984856
1.00486 1.00192 0.984442
1.00071 1.00298 0.990614
1.00268 1.0037 0.986573
1.00393 1.00202 0.986052
1.00005 0.999392 0.99812
1.00039 1.00241 0.991775
1.00203 1.0047 0.987419
0.999993 0.99906 0.997277
1.00028 1.00167 0.99276
1.00009 0.998472 0.998458
1.00432 1.00071 0.987589
1.00207 1.00323 0.987986
1.00101 1.00502 0.988038
1.00064 1.0049 0.988751
1.00072 1.00511 0.988528
1.00084 1.00464 0.989099
1.00013 1.00067 0.994011
1.00052 1.00408 0.989992
1.00018 1.00508 0.988939
1.00007 0.997714 0.998782
1.00015 0.999806 0.994749
1.00046 1.003 0.991099
1.0001 0.997369 0.99893
1.00024 0.999188 0.995196
1.00012 0.997091 0.999037
0.99977 0.994826 0.870557
0.994707 0.994811 0.81325
0.994815 0.994822 0.829403
1.00147 1.00253 0.989198
1.00213 1.0035 0.987589
1.00432 1.00204 0.986812
1.00508 1.00342 0.983285
1.00202 1.00288 0.988315
0.999502 1.00492 0.991106
1.00153 1.0034 0.989249
1.00137 1.00247 0.989867
1.00448 0.997035 0.989029
1.00207 0.999014 0.993014
1.00257 0.996167 0.99422
1.0002 0.999066 0.995786
0.999424 1.00329 0.993476
0.997883 0.994862 0.94053
0.998875 0.994782 0.864516
0.994666 0.994796 0.813779
0.996264 0.994845 0.868148
0.994848 0.998841 0.939312
0.994852 0.995722 0.96363
0.994863 0.996927 0.967099
0.996624 0.998166 0.942481
0.995743 0.994807 0.966449
0.999394 0.996412 0.999718
0.99935 0.996015 1.00138
0.99922 0.997887 0.999873
0.997345 0.998319 0.99129
0.997496 0.997005 0.990414
0.999988 0.994895 0.930521
0.999793 0.994892 0.878434
0.99469 0.994807 0.818076
0.994903 0.999516 0.982574
0.995099 0.994789 0.957102
0.999801 0.994823 0.869859
0.99798 0.994842 0.942777
0.996488 0.998175 0.987734
1.00038 0.994887 0.938944
0.99609 0.994833 0.961586
1.00044 0.994926 0.987493
0.998168 0.994857 0.971609
0.999233 0.999564 0.991528
1.0029 0.9982 0.990548
1.00507 0.995241 0.991314
1.00395 0.998954 0.987833
1.00511 0.996235 0.988941
1.00528 0.99487 0.990323
1.00473 0.997786 0.988181
1.00528 0.99511 0.989902
1.00525 0.994875 0.990472
1.00529 0.996098 0.988944
1.00525 0.995049 0.990384
1.00527 0.994897 0.990606
1.00526 0.995108 0.990521
1.00524 0.995363 0.990461
1.00527 0.995608 0.990091
1.00523 0.996073 0.989708
1.00522 0.996634 0.989129
1.00528 0.998765 0.987016
1.00527 0.997829 0.987773
1.00526 0.997522 0.98807
1.00533 1.0012 0.98456
1.0053 1.00002 0.985581
1.00526 0.999257 0.986022
1.00424 1.002 0.985596
1.00521 1.00161 0.984384
1.00528 1.00123 0.984629
1.00121 1.00307 0.989597
1.00334 1.00299 0.986103
1.00482 1.00174 0.98485
1.00018 1.00013 0.997712
1.00082 1.00281 0.990606
1.00288 1.00378 0.98655
1.00012 0.999561 0.997977
1.00053 1.00231 0.991744
1.00012 0.998995 0.998202
1.00513 1.0026 0.984172
1.00386 1.00084 0.987483
1.00244 1.00319 0.987298
1.00147 1.00326 0.988146
1.00109 1.00498 0.987859
1.00105 1.00509 0.988258
1.00054 1.00513 0.98857
1.00058 1.0048 0.989064
1.00017 1.00154 0.993083
1.00005 0.998196 0.998559
1.00009 1.00061 0.994037
1.00037 1.00416 0.989981
1.00005 0.997652 0.998829
1.00016 0.999706 0.994765
1.0001 0.997333 0.998952
0.999971 0.994878 0.943793
0.999816 0.994856 0.870009
0.994685 0.994801 0.807441
1.00181 1.00466 0.986808
1.0035 1.0026 0.986827
1.00313 1.00279 0.987715
1.00462 1.00323 0.983772
1.00522 1.00088 0.984743
1.0036 1.00027 0.98695
1.00056 1.00286 0.990491
1.00453 0.996611 0.989145
1.00218 0.998595 0.993064
1.00412 0.995501 0.990438
1.00389 0.997073 0.992091
1.00253 0.996836 0.993388
1.00217 0.996366 0.994155
0.999681 0.999633 0.99559
0.995793 0.994836 0.9647
0.998802 0.996003 0.936102
0.997763 0.994839 0.881461
0.995953 0.996508 0.930063
0.994932 0.996958 0.967563
0.995504 0.995749 0.972236
0.999272 0.994831 0.992451
1.00014 0.995801 0.999191
0.998713 0.99614 1.00145
0.998736 0.99893 0.9906
0.99738 0.995372 0.966029
1.00008 0.994871 0.944325
0.9998 0.994903 0.861301
0.996051 0.998222 0.988071
0.996528 0.994844 0.962074
0.999827 0.994859 0.934522
0.999878 0.995603 0.987841
0.99848 0.994869 0.970768
1.00289 0.995164 0.989957
1.00342 0.996589 0.984817
1.00189 0.996915 0.990579
1.00455 0.995196 0.991329
1.00524 0.99481 0.990845
1.00503 0.996181 0.988846
1.00528 0.994868 0.990272
1.00529 0.994914 0.990465
1.00528 0.995189 0.989847
1.00526 0.994884 0.990452
1.00529 0.994917 0.990506
1.00524 0.995089 0.990352
1.00526 0.994906 0.990605
1.00527 0.994927 0.990645
1.00526 0.995067 0.990576
1.00524 0.995303 0.99048
1.00523 0.995862 0.99007
1.00523 0.996061 0.989708
1.00522 0.996663 0.989122
1.00526 0.997931 0.98796
1.00531 1.00033 0.98549
1.00528 0.998943 0.986779
1.00527 0.997892 0.987755
1.00502 1.00099 0.985318
1.00532 1.0012 0.984605
1.00531 1.0001 0.985441
1.00179 1.00273 0.988845
1.00407 1.00229 0.985608
1.00512 1.00166 0.984429
1.00056 1.00067 0.997252
1.00128 1.00295 0.989588
1.00317 1.00326 0.986103
1.00038 1.00029 0.997526
1.00087 1.00267 0.990606
1.00026 0.999755 0.997803
1.00517 1.00153 0.984614
1.00515 1.00216 0.984354
1.00439 1.00195 0.985392
1.00363 1.00149 0.987376
1.00241 1.00331 0.987109
1.00209 1.00441 0.987204
1.00107 1.00488 0.987683
1.0009 1.00511 0.988267
1.00038 1.00229 0.992065
1.0004 1.005 0.989032
1.00007 1.00163 0.993104
1.00003 0.998953 0.998261
1.00002 0.998156 0.998643
1.00004 1.00062 0.994068
1.00004 0.997607 0.998868
0.99679 0.994873 0.966534
0.999931 0.994873 0.930016
0.999816 0.994877 0.882279
1.00526 0.998788 0.986553
1.0044 1.00269 0.987132
1.0042 1.00295 0.984257
1.00435 1.00005 0.987327
1.0052 1.0011 0.984705
1.00495 0.997639 0.988269
1.00487 0.997903 0.989269
1.00197 0.997769 0.993127
1.00468 0.996336 0.990393
1.00375 0.997301 0.991034
1.00472 0.996359 0.989668
1.00328 0.994884 0.994314
1.00254 0.996498 0.993485
1.0021 0.99656 0.99408
0.998714 0.994826 0.990965
0.995791 0.994845 0.963109
0.998548 0.994832 0.930895
0.995169 0.99631 0.971482
0.998884 0.994839 0.995174
1.00029 0.995314 0.99861
1.0022 0.995055 0.981656
0.99744 0.99497 0.965976
0.999998 0.994886 0.930623
0.999025 0.995714 0.988197
0.998801 0.994876 0.97008
1.00201 0.99492 0.990461
1.00325 0.995738 0.985702
1.00391 0.995131 0.991017
1.00496 0.996578 0.990992
1.00408 0.99509 0.991334
1.00517 0.994841 0.990746
1.00535 0.994889 0.990371
1.00527 0.99487 0.990223
1.00528 0.994905 0.990467
1.00534 0.994902 0.990434
1.00526 0.994892 0.990432
1.00529 0.994911 0.990519
1.00528 0.99491 0.990666
1.00525 0.994913 0.990604
1.00527 0.994927 0.990634
1.00525 0.995094 0.990656
1.00524 0.995242 0.9905
1.00523 0.995732 0.990174
1.00526 0.997024 0.988959
1.00523 0.996687 0.989115
1.00526 0.997852 0.98804
1.0053 0.99989 0.986077
1.00525 1.00067 0.985304
1.00531 1.00048 0.985333
1.00529 0.999113 0.986543
1.00265 1.00154 0.9887
1.00493 1.00111 0.985319
1.00531 1.00119 0.984651
1.00091 1.00089 0.996899
1.00206 1.00245 0.988832
1.00391 1.0025 0.985623
1.00069 1.00073 0.997111
1.00143 1.00285 0.989583
1.00052 1.00042 0.997361
1.00526 1.00019 0.985462
1.00521 1.00154 0.984513
1.00511 1.00126 0.984976
1.00521 1.0017 0.984535
1.00457 1.00178 0.985374
1.00315 1.00353 0.986434
1.00252 1.00306 0.986919
1.00195 1.00451 0.987211
1.00067 1.00272 0.991005
1.00076 1.0051 0.988268
1.0002 1.00236 0.992089
1.00004 0.999677 0.997922
0.999955 1.00162 0.993125
0.999988 0.998806 0.998373
0.999991 0.998028 0.998719
1.00036 0.995101 0.986678
0.99663 0.994886 0.962869
0.999985 0.994867 0.943583
1.00522 0.997194 0.988322
1.00526 0.996796 0.98869
1.00527 0.998529 0.986807
1.00504 0.999361 0.987696
1.00517 1.00138 0.98467
1.00501 0.997526 0.988526
1.0052 0.995527 0.989447
1.00499 0.996124 0.990351
1.00353 0.997951 0.989982
1.0045 0.996872 0.990079
1.0051 0.994991 0.990794
1.0037 0.994919 0.993032
1.00293 0.994965 0.993994
1.00275 0.996046 0.993596
0.999413 0.994823 0.991027
0.995792 0.994841 0.961726
0.998845 0.994852 0.998026
1.0048 0.994949 0.990556
1.00211 0.995606 0.981773
0.997606 0.994851 0.96453
1.00172 0.994783 0.99092
1.00309 0.994835 0.986607
1.00393 0.995032 0.991692
1.00499 0.995668 0.991103
1.00533 0.994781 0.990994
1.00543 0.994832 0.991239
1.00516 0.99486 0.990649
1.00537 0.994887 0.990345
1.00537 0.994875 0.990498
1.00526 0.994893 0.990469
1.00534 0.994901 0.99046
1.0053 0.994903 0.990645
1.00528 0.994906 0.990532
1.00529 0.99491 0.990661
1.00524 0.994921 0.990885
1.00527 0.994926 0.990623
1.00525 0.995108 0.990632
1.00528 0.996226 0.989666
1.00523 0.995598 0.990278
1.00526 0.996959 0.988997
1.00532 0.999318 0.986613
1.00526 0.997777 0.98812
1.0053 0.999797 0.986193
1.00526 1.00056 0.985422
1.00297 1.00065 0.989031
1.0052 1.00073 0.985312
1.00532 1.00064 0.985175
1.00122 1.00086 0.996672
1.0027 1.00146 0.98869
1.00478 1.00133 0.985322
1.00102 1.00095 0.996781
1.00221 1.00225 0.988815
1.00083 1.00087 0.996964
1.00526 0.998413 0.987203
1.00525 1.00005 0.985656
1.00528 1.00086 0.98508
1.00523 1.0015 0.984411
1.00517 1.0012 0.984965
1.00364 1.00246 0.986351
1.00477 1.00168 0.985362
1.00301 1.00325 0.986425
1.001 1.00306 0.989973
1.00161 1.00455 0.987223
1.00057 1.00284 0.991039
1.00016 1.00051 0.997557
1.00009 1.00247 0.99211
0.999994 0.999548 0.998052
0.999932 0.998694 0.998475
1.00433 0.995161 0.991915
1.0005 0.995027 0.984467
0.996526 0.994909 0.962446
1.00525 0.99607 0.989532
1.0052 0.996767 0.988618
1.00526 0.995673 0.989924
1.00526 0.996846 0.988658
1.00527 0.998238 0.987056
1.00533 0.994885 0.990129
1.00512 0.997625 0.988772
1.00522 0.995813 0.989461
1.00529 0.994816 0.990552
1.0044 0.997269 0.990489
1.0051 0.995113 0.99047
1.00337 0.995014 0.993301
1.0023 0.995476 0.99368
0.999844 0.994824 0.990885
1.0054 0.994889 0.990878
1.00482 0.995601 0.990668
1.00191 0.99594 0.981963
1.00382 0.994814 0.992353
1.00497 0.994817 0.991224
1.00532 0.994774 0.991041
1.00545 0.994868 0.991136
1.00539 0.994843 0.990966
1.0054 0.99489 0.990323
1.00537 0.994876 0.990511
1.0053 0.994894 0.990808
1.00533 0.994901 0.990486
1.0053 0.994904 0.990643
1.00522 0.994911 0.99099
1.00529 0.99491 0.990657
1.00525 0.994921 0.99086
1.00528 0.99556 0.990402
1.00525 0.995124 0.990607
1.00527 0.996266 0.989655
1.00535 0.998706 0.987241
1.00526 0.996893 0.989035
1.00531 0.999326 0.986637
1.00525 1.00044 0.985575
1.0053 0.9997 0.986309
1.00525 1.00056 0.985438
1.00297 1.0003 0.991066
1.00158 1.00024 0.993304
1.003 1.00065 0.989866
1.00516 1.00078 0.985316
1.00124 1.00085 0.996668
1.00284 1.00125 0.988672
1.0011 1.00102 0.99669
1.00524 0.995603 0.990267
1.00525 0.997126 0.988675
1.00525 0.998385 0.987401
1.00528 1.00029 0.985611
1.00524 0.999912 0.985851
1.00528 1.00092 0.985011
1.00435 1.00126 0.986136
1.00523 1.00114 0.984952
1.00379 1.002 0.986341
1.00169 1.00279 0.989146
1.00307 1.00297 0.986413
1.00099 1.00315 0.989962
1.00044 1.00111 0.997127
1.00044 1.00289 0.991074
1.00005 1.00025 0.997702
0.999927 0.99941 0.998174
1.00539 0.994826 0.990822
1.00433 0.995053 0.991629
1.00096 0.994898 0.98232
1.0053 0.9951 0.990324
1.00522 0.99606 0.989406
1.00522 0.996364 0.988917
1.00525 0.99585 0.989876
1.00526 0.996897 0.988626
1.00537 0.994825 0.990547
1.00533 0.994882 0.99014
1.00523 0.996054 0.989473
1.00525 0.994813 0.990597
1.0051 0.995132 0.990145
1.00319 0.994773 0.993568
1.00534 0.994902 0.991043
1.00542 0.994874 0.991
1.00487 0.996136 0.990776
1.00532 0.99477 0.991067
1.00546 0.994901 0.991036
1.00539 0.994851 0.990927
1.00529 0.994919 0.991102
1.00537 0.99488 0.990524
1.0053 0.994899 0.990773
1.00522 0.994941 0.991083
1.0053 0.994906 0.990641
1.00523 0.99491 0.990979
1.00528 0.995106 0.990929
1.00526 0.99492 0.990836
1.00527 0.995581 0.990387
1.00537 0.998147 0.987831
1.00528 0.996305 0.989644
1.00535 0.998717 0.987263
1.00524 1.00031 0.985739
1.00531 0.999334 0.986663
1.00526 1.00042 0.985597
1.00305 1.00009 0.991163
1.00526 1.00055 0.985453
1.00319 1.0002 0.990933
1.00162 0.999928 0.99353
1.00127 1.00054 0.995103
1.00321 1.00062 0.990527
1.00124 1.00086 0.996684
1.00526 0.995031 0.990814
1.00524 0.99679 0.989057
1.00523 0.995477 0.990417
1.00531 0.999433 0.986444
1.00525 0.99719 0.988662
1.00525 0.998359 0.987598
1.00529 1.0003 0.985549
1.005 1.00053 0.985748
1.00528 1.00097 0.984942
1.00451 1.001 0.986131
1.00242 1.00183 0.988816
1.00389 1.00163 0.986336
1.0015 1.00298 0.989137
1.00074 1.0014 0.996787
1.00085 1.0033 0.989967
1.00028 1.00094 0.997299
0.999996 1.0001 0.997838
1.00532 0.994897 0.990783
1.00534 0.994826 0.990863
1.00419 0.995034 0.991343
1.0053 0.994847 0.990726
1.00529 0.995159 0.990286
1.00516 0.996058 0.989288
1.00524 0.996026 0.989828
1.00536 0.994827 0.990551
1.00533 0.99488 0.99015
1.00522 0.994812 0.990641
1.00529 0.994948 0.991115
1.00532 0.994903 0.991021
1.00544 0.994868 0.991119
1.00527 0.994939 0.991197
1.00539 0.994852 0.990888
1.00529 0.994919 0.991088
1.00523 0.994948 0.991176
1.00531 0.994902 0.990737
1.00522 0.994941 0.99109
1.00528 0.994942 0.99117
1.00524 0.99491 0.990969
1.00527 0.995113 0.990915
1.00538 0.997648 0.988376
1.00526 0.995601 0.990372
1.00537 0.99815 0.987846
1.00521 1.00017 0.985965
1.00533 0.998729 0.987285
1.00526 1.00029 0.985763
1.00307 1.0001 0.991117
1.00527 1.0004 0.985619
1.00323 1.00002 0.991002
1.00168 0.999833 0.993529
1.00338 1.00008 0.990809
1.00117 1.0001 0.993835
1.00063 1.00087 0.997245
1.00524 0.994901 0.990935
1.00525 0.995914 0.989975
1.00526 0.995077 0.990761
1.00531 0.999054 0.986896
1.00525 0.996477 0.989308
1.00523 0.995353 0.990566
1.00525 1.00019 0.985774
1.0053 0.999432 0.986406
1.00525 0.997251 0.98865
1.0053 1.00031 0.985488
1.0051 1.00044 0.985743
1.00279 1.00092 0.989027
1.0047 1.00073 0.98613
1.00224 1.00204 0.988849
1.00094 1.00135 0.996698
1.00145 1.00312 0.989117
1.00064 1.00129 0.99691
1.00012 1.00074 0.997464
1.00528 0.99492 0.990979
1.00532 0.994898 0.99074
1.00531 0.994825 0.990906
1.0053 0.99485 0.990753
1.00527 0.995217 0.990248
1.00536 0.994831 0.990554
1.00527 0.994954 0.991149
1.00529 0.994942 0.991128
1.00531 0.994904 0.990999
1.00527 0.994945 0.991187
1.0052 0.994942 0.991356
1.00529 0.99492 0.991074
1.00522 0.994948 0.991208
1.00529 0.99494 0.99119
1.00522 0.994941 0.991096
1.00528 0.994942 0.991157
1.00536 0.997229 0.988864
1.00525 0.995118 0.9909
1.00539 0.997646 0.988377
1.00516 0.999961 0.986297
1.00538 0.998152 0.987862
1.00525 1.00013 0.98598
1.003 1.0002 0.991088
1.00528 1.00026 0.985787
1.00323 1.00005 0.990943
1.0017 0.999896 0.993427
1.0034 0.999958 0.990851
1.00129 0.999882 0.99386
1.00073 1.00031 0.994124
1.00521 0.99492 0.991097
1.00524 0.995323 0.990682
1.00524 0.994894 0.99092
1.00532 0.998098 0.987874
1.00525 0.996 0.989904
1.00526 0.995118 0.990709
1.00528 1.00001 0.985966
1.00532 0.998682 0.987207
1.00525 0.996164 0.989559
1.00295 1.00027 0.98942
1.00525 1.00019 0.98576
1.00529 0.999435 0.986368
1.00517 1.00035 0.985738
1.00278 1.00098 0.989046
1.00107 1.00101 0.996777
1.00212 1.00224 0.988877
1.00091 1.00129 0.996717
1.00051 1.0012 0.997049
1.00526 0.994944 0.991122
1.00528 0.994924 0.990954
1.00532 0.994898 0.990696
1.00531 0.994851 0.990779
1.0052 0.99495 0.991359
1.00527 0.994949 0.991156
1.00529 0.994936 0.99114
1.00526 0.99495 0.991178
1.00521 0.994942 0.991344
1.00527 0.995196 0.990969
1.00522 0.994947 0.991241
1.00529 0.99509 0.991053
1.00535 0.99668 0.989496
1.00527 0.994942 0.991144
1.00538 0.997228 0.988854
1.00505 0.999766 0.986688
1.00541 0.997661 0.988377
1.00517 0.999946 0.986305
1.00296 1.00027 0.989521
1.00527 1.00009 0.985996
1.00316 1.00016 0.990109
1.00149 0.999966 0.996765
1.0034 1.00001 0.990771
1.00135 0.999871 0.993768
1.00092 0.999927 0.994174
1.00519 0.994946 0.991198
1.00523 0.995178 0.990942
1.0052 0.994927 0.991116
1.00536 0.997456 0.988565
1.00525 0.995476 0.990448
1.00524 0.994887 0.990905
1.00526 0.999582 0.986441
1.00531 0.998107 0.987892
1.00525 0.996085 0.989832
1.00306 0.999881 0.989639
1.00527 0.99984 0.986096
1.00531 0.998308 0.987519
1.00121 1.00054 0.996877
1.00297 1.00023 0.98942
1.00526 1.00019 0.985739
1.00268 1.00105 0.989069
1.00109 1.001 0.996738
1.00084 1.00126 0.996763
1.00517 0.994958 0.991287
1.00526 0.994948 0.991122
1.00529 0.994928 0.990928
1.00525 0.995229 0.991032
1.0052 0.994949 0.991331
1.00527 0.994943 0.991163
1.00521 0.994942 0.991332
1.00527 0.995239 0.990967
1.00534 0.996896 0.989281
1.00529 0.995254 0.990914
1.00535 0.997021 0.989128
1.00496 0.999179 0.987458
1.00539 0.997211 0.988845
1.00505 0.999746 0.986694
1.00285 1.00018 0.989788
1.00519 0.999932 0.986313
1.00297 1.00024 0.989532
1.00139 1.00002 0.996775
1.00321 1.00015 0.989273
1.00132 0.999976 0.995297
1.00101 0.999835 0.994107
1.00514 0.994954 0.991361
1.00524 0.995053 0.99118
1.00518 0.99495 0.991209
1.00538 0.997606 0.988374
1.00524 0.995106 0.990972
1.0052 0.994934 0.991134
1.00525 0.99944 0.986611
1.00535 0.997818 0.988181
1.00526 0.99563 0.990214
1.00313 0.999806 0.989631
1.00525 0.999548 0.986454
1.0053 0.998118 0.987911
1.00138 1.00014 0.99689
1.00309 0.999835 0.989639
1.00526 0.999671 0.986225
1.00124 1.00056 0.996839
1.00299 1.0002 0.989423
1.00105 1.00101 0.996716
1.00523 0.995281 0.990948
1.00518 0.994956 0.991313
1.00525 0.994952 0.991121
1.00534 0.996886 0.989304
1.00525 0.99527 0.991006
1.0052 0.994949 0.991302
1.00527 0.995282 0.990966
1.00534 0.996927 0.989287
1.0049 0.998998 0.987742
1.00536 0.99735 0.988761
1.00498 0.999353 0.987228
1.00278 1.00004 0.99005
1.00507 0.999723 0.9867
1.00283 1.0002 0.989801
1.00128 1.00004 0.996817
1.00296 1.00023 0.989543
1.00136 1.00004 0.996786
1.00142 0.999932 0.99354
1.00522 0.99535 0.990915
1.00514 0.994953 0.991303
1.00538 0.997365 0.988658
1.00524 0.995002 0.991189
1.00517 0.994954 0.99122
1.00517 0.999748 0.98647
1.00537 0.997619 0.988374
1.00525 0.995035 0.991003
1.00312 0.999895 0.989598
1.00524 0.999628 0.986435
1.00534 0.998183 0.987797
1.00148 0.999948 0.996831
1.00314 0.999796 0.989631
1.00524 0.999511 0.986469
1.00137 1.00018 0.99689
1.00313 0.999796 0.989637
1.00126 1.00058 0.996798
1.00535 0.996981 0.989171
1.00522 0.995319 0.990976
1.00519 0.994955 0.99134
1.00489 0.998941 0.987806
1.00534 0.996921 0.989305
1.00524 0.995311 0.990979
1.00533 0.996961 0.989294
1.00492 0.998978 0.987709
1.00267 0.999968 0.990311
1.00499 0.999526 0.986997
1.00276 1.00005 0.99006
1.00122 1.00002 0.996871
1.00282 1.00021 0.989815
1.00124 1.00006 0.996842
1.00132 1.00004 0.996803
1.00536 0.997194 0.988908
1.00522 0.995162 0.991079
1.00514 0.99495 0.991244
1.00509 0.999627 0.986775
1.00538 0.997376 0.988663
1.00525 0.994956 0.991198
1.00299 1.00002 0.989707
1.00515 0.999772 0.986469
1.00536 0.997634 0.988374
1.00147 0.999919 0.996786
1.0031 0.999922 0.989596
1.00521 0.999809 0.98626
1.00147 0.99998 0.996856
1.00315 0.999799 0.989629
1.0014 1.00019 0.99688
1.00492 0.999338 0.987335
1.00534 0.996825 0.989358
1.00522 0.995352 0.991004
1.00262 0.99988 0.990505
1.00489 0.998914 0.987802
1.00533 0.996951 0.989305
1.00495 0.998952 0.987677
1.00268 0.99994 0.99032
1.00115 1.00002 0.996911
1.00274 1.00006 0.99007
1.00119 1.00003 0.99688
1.00119 1.00008 0.99686
1.00499 0.999464 0.987109
1.00536 0.996995 0.989126
1.00523 0.994955 0.991244
1.00297 1.00003 0.991337
1.00505 0.999649 0.986778
1.00538 0.997387 0.988668
1.00136 0.99996 0.996799
1.00299 1.00004 0.989702
1.00513 0.999794 0.986467
1.00148 0.999938 0.996801
1.0031 0.999953 0.989593
1.00148 0.999994 0.996876
1.00273 0.999876 0.990391
1.00491 0.999155 0.987515
1.00534 0.996671 0.989545
1.00107 0.999979 0.996981
1.00261 0.999878 0.990499
1.00491 0.99889 0.987799
1.00268 0.999915 0.990325
1.00112 1.00001 0.996936
1.00116 1.00005 0.996896
1.00293 0.999951 0.991548
1.00497 0.999469 0.98711
1.00536 0.99681 0.989344
1.00076 1 0.997382
1.00285 1.00004 0.989951
1.00503 0.99967 0.986782
1.00139 0.999965 0.996799
1.00298 1.00006 0.989698
1.0015 0.99995 0.996818
1.00105 0.999941 0.994146
1.00276 0.99988 0.991076
1.00491 0.998973 0.987694
1.00109 0.999983 0.996989
1.00262 0.99988 0.990502
1.00113 0.999997 0.996956
1.00058 0.999988 0.994586
1.00283 0.999934 0.990894
1.00495 0.999479 0.98711
1.00099 0.999993 0.995631
1.00283 1.00004 0.989972
1.00142 0.999967 0.9968
1.00109 0.999966 0.99698
1.00263 0.999868 0.990485
1.00105 0.999985 0.996986
1.00086 0.999963 0.995786
1.00273 0.999926 0.990293
1.00129 0.999985 0.996838
1.00111 0.999965 0.996983
1.00116 0.999973 0.996919

TENSORS stress float
0.00224239 -0.000154254 0.000260362
-0.000154254 0.00107557 -4.42816e-05
0.000260362 -4.42816e-05 0.00104935
0.00698067 6.08138e-05 0.000299803
6.08138e-05 0.00406239 3.42083e-05
0.000299803 3.42083e-05 0.00406798
0.00187348 -8.45764e-05 0.00010911
-8.45764e-05 0.00084213 -1.74282e-05
0.00010911 -1.74282e-05 0.000804231
0.00224764 -8.80541e-05 0.000252565
-8.80541e-05 0.00105458 -2.54714e-05
0.000252565 -2.54714e-05 0.00103802
0.00227687 -0.000135729 0.000254495
-0.000135729 0.00108714 -3.89924e-05
0.000254495 -3.89924e-05 0.00106429
0.00225558 -0.000158306 0.000271597
-0.000158306 0.00108413 -4.59219e-05
0.000271597 -4.59219e-05 0.00105832
0.00185751 -0.000143964 5.13033e-05
-0.000143964 0.00074008 -1.41368e-05
5.13033e-05 -1.41368e-05 0.000625905
0.00691007 5.11138e-05 -7.49061e-06
5.11138e-05 0.0040092 -1.50574e-06
-7.49061e-06 -1.50574e-06 0.00401936
0.0065754 0.000215095 0.00014918
0.000215095 0.00379934 1.46612e-05
0.00014918 1.46612e-05 0.00377292
0.00661755 -2.48811e-05 8.44464e-05
-2.48811e-05 0.00380827 4.25282e-06
8.44464e-05 4.25282e-06 0.00378842
0.00195596 0.000199706 0.000275814
0.000199706 0.000902616 3.61733e-05
0.000275814 3.61733e-05 0.000892841
0.000424415 0.000257539 2.65095e-05
0.000257539 -0.000124074 2.03533e-05
2.65095e-05 2.03533e-05 -0.000262711
0.00182485 -3.27551e-05 0.000246364
-3.27551e-05 0.000789366 4.07223e-06
0.000246364 4.07223e-06 0.000790508
0.00147501 2.97256e-06 6.40812e-05
2.97256e-06 0.000590461 1.75558e-06
6.40812e-05 1.75558e-06 0.000543688
0.00158196 -8.3794e-05 -5.78702e-05
-8.3794e-05 0.000669147 1.04194e-05
-5.78702e-05 1.04194e-05 0.000614374
0.00187495 -8.72646e-05 8.27887e-05
-8.72646e-05 0.000838516 -5.13772e-06
8.27887e-05 -5.13772e-06 0.000803804
0.00191148 -7.32517e-05 0.00011917
-7.32517e-05 0.000870921 -1.88114e-05
0.00011917 -1.88114e-05 0.000829334
0.00188628 -9.20099e-05 9.73161e-05
-9.20099e-05 0.000843803 -1.34626e-05
9.73161e-05 -1.34626e-05 0.000808822
0.00193502 -0.000179929 -4.12676e-05
-0.000179929 0.00078679 6.0339e-06
-4.12676e-05 6.0339e-06 0.000681821
0.00618267 -0.000145539 0.000319923
-0.000145539 0.00356269 -1.38819e-05
0.000319923 -1.38819e-05 0.003581
0.00216874 -6.45754e-05 0.000249042
-6.45754e-05 0.00100604 -1.89116e-05
0.000249042 -1.89116e-05 0.000992658
0.00227227 -0.000112401 0.000252756
-0.000112401 0.00107537 -3.24382e-05
0.000252756 -3.24382e-05 0.00105594
0.00182524 -0.000140386 7.14282e-05
-0.000140386 0.000715435 -1.09838e-05
7.14282e-05 -1.09838e-05 0.000615791
0.00185553 -0.000148293 6.00021e-05
-0.000148293 0.00073046 -1.36432e-05
6.00021e-05 -1.36432e-05 0.000624202
0.00212793 -0.000136665 0.000272003
-0.000136665 0.000996474 -4.27797e-05
0.000272003 -4.27797e-05 0.0009732
0.00188958 -0.00014235 4.43475e-05
-0.00014235 0.000777687 -1.45357e-05
4.43475e-05 -1.45357e-05 0.000651647
0.00207343 -0.000331884 1.91223e-05
-0.000331884 0.000643889 -8.12779e-06
1.91223e-05 -8.12779e-06 0.000426148
0.00686723 3.59658e-05 -0.000297398
3.59658e-05 0.00397208 -2.44968e-05
-0.000297398 -2.44968e-05 0.00398697
0.00427392 0.000159189 -0.000147093
0.000159189 0.0023478 -1.66625e-05
-0.000147093 -1.66625e-05 0.00232517
0.00426791 7.35511e-05 -0.000146782
7.35511e-05 0.00235138 -1.4583e-05
-0.000146782 -1.4583e-05 0.00232996
0.00680802 -2.13343e-05 -3.70821e-06
-2.13343e-05 0.00395616 -5.15614e-07
-3.70821e-06 -5.15614e-07 0.00396231
0.00043688 0.000241326 -1.32206e-06
0.000241326 -0.000114431 -1.14261e-06
-1.32206e-06 -1.14261e-06 -0.000253087
0.00188481 7.00556e-05 0.000256419
7.00556e-05 0.000826467 2.39813e-05
0.000256419 2.39813e-05 0.000814071
0.00201427 0.000160018 0.000262951
0.000160018 0.000940451 3.69951e-05
0.000262951 3.69951e-05 0.00091594
0.0028364 0.000212719 0.000157175
0.000212719 0.00133778 2.29309e-05
0.000157175 2.29309e-05 0.00125415
0.00595817 -0.000293222 1.35455e-05
-0.000293222 0.00348852 4.8641e-06
1.35455e-05 4.8641e-06 0.00343313
0.00299589 0.000292908 0.00016441
0.000292908 0.00147869 2.84983e-05
0.00016441 2.84983e-05 0.00137873
0.000431902 0.00022649 2.65053e-05
0.00022649 -0.00011342 2.72381e-05
2.65053e-05 2.72381e-05 -0.00025145
0.00093867 0.000268036 1.4077e-05
0.000268036 3.71675e-05 6.21843e-06
1.4077e-05 6.21843e-06 -0.000187977
0.00478656 -0.000109732 0.000181363
-0.000109732 0.00274223 1.70447e-05
0.000181363 1.70447e-05 0.00273994
0.00616369 8.32732e-05 3.36248e-06
8.32732e-05 0.00353742 -1.875e-06
3.36248e-06 -1.875e-06 0.00356315
0.00403958 9.17969e-05 -0.000123097
9.17969e-05 0.00219822 -5.69398e-06
-0.000123097 -5.69398e-06 0.00218671
0.00601479 5.80938e-05 0.000310848
5.80938e-05 0.00344681 4.36494e-06
0.000310848 4.36494e-06 0.00347327
0.00144371 8.74318e-05 6.59044e-05
8.74318e-05 0.000576084 4.33201e-06
6.59044e-05 4.33201e-06 0.000534107
0.000506818 1.1749e-05 1.51578e-05
1.1749e-05 -0.000138984 1.84475e-06
1.51578e-05 1.84475e-06 -0.000225583
0.00642348 0.000236879 0.000180654
0.000236879 0.00372699 1.74997e-05
0.000180654 1.74997e-05 0.00370129
0.00285446 7.81881e-05 0.000147735
7.81881e-05 0.00132345 9.30577e-06
0.000147735 9.30577e-06 0.00126404
0.00144737 -8.75613e-05 -7.85156e-05
-8.75613e-05 0.000588541 1.00356e-05
-7.85156e-05 1.00356e-05 0.000535165
0.00150312 -0.000111938 -7.12191e-05
-0.000111938 0.000626586 1.25576e-05
-7.12191e-05 1.25576e-05 0.000569333
0.00164218 -4.27495e-05 -4.60872e-05
-4.27495e-05 0.000702891 8.86351e-06
-4.60872e-05 8.86351e-06 0.000647915
0.00198189 -0.000182439 -0.000140807
-0.000182439 0.000808029 2.61599e-05
-0.000140807 2.61599e-05 0.000714532
0.0038761 -2.13724e-05 -0.000124808
-2.13724e-05 0.00210643 -1.68396e-06
-0.000124808 -1.68396e-06 0.00209489
0.00182221 -6.79633e-05 8.71233e-05
-6.79633e-05 0.000803022 -4.0318e-06
8.71233e-05 -4.0318e-06 0.000772739
0.00190148 -5.07943e-05 0.00012434
-5.07943e-05 0.00086616 -1.77367e-05
0.00012434 -1.77367e-05 0.000822446
0.00189134 -9.04918e-05 8.83754e-05
-9.04918e-05 0.0008459 -8.81892e-06
8.83754e-05 -8.81892e-06 0.000811536
0.00189994 -0.000118218 -3.3507e-05
-0.000118218 0.000751159 2.35217e-06
-3.3507e-05 2.35217e-06 0.000663369
0.0019377 -0.000183587 -4.84653e-05
-0.000183587 0.00079952 6.89577e-06
-4.84653e-05 6.89577e-06 0.000686943
0.00193237 -0.000165637 -3.57028e-05
-0.000165637 0.000777879 4.29884e-06
-3.57028e-05 4.29884e-06 0.000679728
0.00208336 -0.000333522 -1.00892e-05
-0.000333522 0.000646503 2.68912e-06
-1.00892e-05 2.68912e-06 0.000429186
0.00599973 4.38612e-06 0.000306851
4.38612e-06 0.00343523 -2.42267e-06
0.000306851 -2.42267e-06 0.00346298
0.00209105 -3.97949e-05 0.000243724
-3.97949e-05 0.000961519 -1.30758e-05
0.000243724 -1.30758e-05 0.000951909
0.00244745 -9.77986e-06 5.23881e-05
-9.77986e-06 0.00109627 -1.04417e-06
5.23881e-05 -1.04417e-06 0.00102753
0.00177875 -0.000113712 6.35104e-05
-0.000113712 0.000682132 -7.23633e-06
6.35104e-05 -7.23633e-06 0.000591736
0.00184404 -0.000145896 6.73348e-05
-0.000145896 0.000724796 -1.27937e-05
6.73348e-05 -1.27937e-05 0.000622095
0.00190802 -0.000215667 1.08541e-05
-0.000215667 0.000464223 -3.06712e-06
1.08541e-05 -3.06712e-06 0.000294581
0.00192431 -0.000290945 1.64958e-05
-0.000290945 0.000509856 -5.91968e-06
1.64958e-05 -5.91968e-06 0.000312971
0.00187702 -9.16799e-05 0.000245213
-9.16799e-05 0.000841933 -3.43245e-05
0.000245213 -3.43245e-05 0.000823056
0.00182338 -0.000108607 3.41362e-05
-0.000108607 0.000751633 -1.37219e-05
3.41362e-05 -1.37219e-05 0.000622925
0.00207418 -0.000359849 1.97553e-05
-0.000359849 0.000689102 -9.14352e-06
1.97553e-05 -9.14352e-06 0.000454658
0.0017099 -0.000434708 7.33745e-06
-0.000434708 0.000187185 -8.13198e-07
7.33745e-06 -8.13198e-07 -7.76002e-05
0.00696794 0.000271525 -0.000349449
0.000271525 0.00404469 -3.94351e-05
-0.000349449 -3.94351e-05 0.00405048
0.00668637 -4.87369e-05 -0.000265865
-4.87369e-05 0.0038819 -1.95397e-05
-0.000265865 -1.95397e-05 0.00388975
0.00689628 0.0001144 -0.000314119
0.0001144 0.00398426 -2.94196e-05
-0.000314119 -2.94196e-05 0.00400105
0.000398966 0.000232084 -2.53118e-05
0.000232084 -0.000132604 -2.06114e-05
-2.53118e-05 -2.06114e-05 -0.000273575
0.00685349 0.000243902 -2.48329e-06
0.000243902 0.0039682 -2.42176e-06
-2.48329e-06 -2.42176e-06 0.00397864
0.00697729 0.000222208 -9.05118e-06
0.000222208 0.00404261 -3.04376e-06
-9.05118e-06 -3.04376e-06 0.00405153
0.000357286 0.00013322 2.83084e-07
0.00013322 -0.000222696 -2.76477e-07
2.83084e-07 -2.76477e-07 -0.000338469
0.00372119 -9.03581e-05 -0.000120379
-9.03581e-05 0.00205729 -5.03729e-06
-0.000120379 -5.03729e-06 0.00202444
0.000346891 0.000212181 4.06819e-07
0.000212181 -0.000182202 -5.50729e-07
4.06819e-07 -5.50729e-07 -0.000317149
0.0017589 0.00023473 5.88886e-05
0.00023473 0.000723721 3.43974e-06
5.88886e-05 3.43974e-06 0.000608968
0.000838034 0.000258168 3.21361e-07
0.000258168 -1.8968e-05 1.09618e-07
3.21361e-07 1.09618e-07 -0.000241426
0.00563844 -0.000135287 0.000209087
-0.000135287 0.00328864 2.41526e-05
0.000209087 2.41526e-05 0.00327396
0.00064231 6.45302e-05 1.66736e-05
6.45302e-05 7.7849e-05 1.37475e-05
1.66736e-05 1.37475e-05 1.65352e-06
0.000462791 0.000103062 1.4988e-05
0.000103062 -0.000175043 1.06185e-05
1.4988e-05 1.06185e-05 -0.000284544
0.000467439 0.0001618 1.96639e-05
0.0001618 -0.00014066 1.81875e-05
1.96639e-05 1.81875e-05 -0.000264099
0.00117671 0.000255374 1.55518e-05
0.000255374 1.30899e-05 5.67951e-06
1.55518e-05 5.67951e-06 -0.000190885
0.0030424 0.000217617 0.000146785
0.000217617 0.00154173 2.0861e-05
0.000146785 2.0861e-05 0.00146054
0.000966642 0.000276446 1.63429e-05
0.000276446 -1.40461e-05 6.49826e-06
1.63429e-05 6.49826e-06 -0.000236405
0.000843437 0.000262117 1.30146e-05
0.000262117 7.63021e-05 5.94284e-06
1.30146e-05 5.94284e-06 -0.00015376
0.00128889 0.000429872 2.97955e-06
0.000429872 0.000144576 -1.85088e-06
2.97955e-06 -1.85088e-06 -0.000161647
0.00372233 -0.000124932 0.000114495
-0.000124932 0.00205982 7.73502e-06
0.000114495 7.73502e-06 0.00205787
0.00430379 -0.000166622 2.44151e-05
-0.000166622 0.00244702 -6.32623e-07
2.44151e-05 -6.32623e-07 0.00243185
0.00664061 6.39525e-05 -0.00033036
6.39525e-05 0.00381989 -1.66732e-05
-0.00033036 -1.66732e-05 0.00384425
0.00625042 7.44843e-05 -0.000321013
7.44843e-05 0.00358776 -1.01512e-05
-0.000321013 -1.01512e-05 0.00361454
0.00610547 8.38772e-05 -8.45218e-08
8.38772e-05 0.00350855 -3.86334e-06
-8.45218e-08 -3.86334e-06 0.00353185
0.00388058 3.39498e-05 -0.000133882
3.39498e-05 0.00209945 -7.11771e-06
-0.000133882 -7.11771e-06 0.00209338
0.00158823 3.89012e-05 6.37874e-05
3.89012e-05 0.000540943 1.77767e-06
6.37874e-05 1.77767e-06 0.000471978
0.00421284 0.000151615 -0.000125871
0.000151615 0.00231099 -7.54072e-06
-0.000125871 -7.54072e-06 0.00229149
0.00166437 9.34583e-05 6.53391e-05
9.34583e-05 0.000580991 3.26273e-06
6.53391e-05 3.26273e-06 0.000500391
0.00605487 0.000120692 0.000313519
0.000120692 0.00348574 7.29211e-06
0.000313519 7.29211e-06 0.0035041
0.000404935 1.04467e-05 1.83466e-05
1.04467e-05 -0.000197758 8.86933e-07
1.83466e-05 8.86933e-07 -0.000280876
0.00280639 4.05727e-05 0.000144663
4.05727e-05 0.00129875 6.25657e-06
0.000144663 6.25657e-06 0.00124548
0.00112006 6.65305e-05 1.15618e-05
6.65305e-05 -3.96893e-05 7.28225e-07
1.15618e-05 7.28225e-07 -0.000173353
0.00279047 0.00012311 0.000153192
0.00012311 0.00128606 1.27387e-05
0.000153192 1.27387e-05 0.00121969
0.00121319 0.000150307 1.11162e-05
0.000150307 -9.81625e-06 1.46212e-06
1.11162e-05 1.46212e-06 -0.000167734
0.00183761 4.19806e-05 -0.000245377
4.19806e-05 0.000795264 3.18933e-06
-0.000245377 3.18933e-06 0.000798579
0.00143888 -1.85385e-05 -6.45788e-05
-1.85385e-05 0.000575631 2.98827e-06
-6.45788e-05 2.98827e-06 0.00052869
0.0016918 -7.71106e-06 -3.90215e-05
-7.71106e-06 0.000736549 8.48233e-06
-3.90215e-05 8.48233e-06 0.000679266
0.00146257 -0.000104281 -7.99542e-05
-0.000104281 0.000600348 1.23511e-05
-7.99542e-05 1.23511e-05 0.000545094
0.00202514 -9.70834e-05 -0.000133718
-9.70834e-05 0.000819304 1.27603e-05
-0.000133718 1.27603e-05 0.000743238
0.00202015 -0.000152008 -0.000136543
-0.000152008 0.000821157 2.20553e-05
-0.000136543 2.20553e-05 0.000735894
0.00195754 -0.000199099 -0.000145495
-0.000199099 0.000804782 2.79603e-05
-0.000145495 2.79603e-05 0.000703934
0.00208551 -0.000333989 -3.53101e-05
-0.000333989 0.000645195 1.22842e-05
-3.53101e-05 1.22842e-05 0.000428701
0.00609473 -0.000107115 2.33725e-06
-0.000107115 0.00350708 -1.89905e-06
2.33725e-06 -1.89905e-06 0.00352711
0.00172728 2.82564e-05 9.39997e-05
2.82564e-05 0.000737195 -4.66471e-06
9.39997e-05 -4.66471e-06 0.000715891
0.00115987 -1.14374e-05 -6.68153e-05
-1.14374e-05 0.000277689 2.05755e-06
-6.68153e-05 2.05755e-06 0.00020787
0.0018524 -7.77394e-05 -3.64066e-05
-7.77394e-05 0.000720335 3.00632e-06
-3.64066e-05 3.00632e-06 0.000639854
0.00441649 -4.43672e-05 0.00025263
-4.43672e-05 0.00245317 -1.74175e-05
0.00025263 -1.74175e-05 0.0024462
0.00248853 -0.000191248 -4.39731e-05
-0.000191248 0.00115772 4.04485e-06
-4.39731e-05 4.04485e-06 0.00104136
0.00192169 -0.000143092 -3.30054e-05
-0.000143092 0.000767703 3.05063e-06
-3.30054e-05 3.05063e-06 0.000675131
0.00198783 -0.000216819 -1.01289e-05
-0.000216819 0.000510672 1.83075e-06
-1.01289e-05 1.83075e-06 0.00034454
0.00207286 -0.000363287 -8.70241e-06
-0.000363287 0.000683838 2.39285e-06
-8.70241e-06 2.39285e-06 0.000448577
0.00199906 -0.000293826 -8.8307e-06
-0.000293826 0.000557136 2.31847e-06
-8.8307e-06 2.31847e-06 0.000358869
0.00175739 -0.000437598 8.75143e-07
-0.000437598 0.00021855 -1.41613e-07
8.75143e-07 -1.41613e-07 -4.59165e-05
0.000441906 9.45709e-06 1.9164e-05
9.45709e-06 -0.000178334 -6.78961e-07
1.9164e-05 -6.78961e-07 -0.000257956
0.00168811 -5.16901e-06 5.39074e-05
-5.16901e-06 0.000616077 -2.80883e-06
5.39074e-05 -2.80883e-06 0.000539077
0.00184344 -7.10577e-05 1.01959e-05
-7.10577e-05 0.00041877 -4.20774e-07
1.01959e-05 -4.20774e-07 0.000299438
0.00182544 -0.000169935 1.05757e-05
-0.000169935 0.000401132 -1.53905e-06
1.05757e-05 -1.53905e-06 0.000251526
0.00192069 -0.000253795 1.29838e-05
-0.000253795 0.000480706 -3.90997e-06
1.29838e-05 -3.90997e-06 0.000301237
0.00190808 -0.000304858 6.66996e-07
-0.000304858 0.000182686 -2.8663e-07
6.66996e-07 -2.8663e-07 5.2244e-06
0.0062778 9.82321e-05 0.000224815
9.82321e-05 0.00365006 -1.75349e-05
0.000224815 -1.75349e-05 0.00364673
0.00171392 -0.000399992 4.60204e-06
-0.000399992 0.000136714 -6.78185e-07
4.60204e-06 -6.78185e-07 -9.86272e-05
0.000230301 -0.000181908 2.0325e-05
-0.000181908 -0.00024941 -2.13372e-05
2.0325e-05 -2.13372e-05 -0.000371392
0.000921303 -0.000280688 1.4953e-05
-0.000280688 2.60179e-05 -8.87445e-06
1.4953e-05 -8.87445e-06 -0.000209402
0.00181403 -0.000485029 1.03739e-05
-0.000485029 0.000315157 -1.69583e-06
1.03739e-05 -1.69583e-06 1.29827e-05
0.0019371 -0.000506684 2.68253e-06
-0.000506684 0.000222645 2.05106e-06
2.68253e-06 2.05106e-06 -2.89622e-05
0.000456508 -0.000148857 2.24854e-05
-0.000148857 -7.06402e-05 -1.69e-05
2.24854e-05 -1.69e-05 -0.000173754
0.000668394 -0.000135707 -3.67675e-07
-0.000135707 0.00011407 -2.22782e-07
-3.67675e-07 -2.22782e-07 -0.00012866
0.00692405 0.000267743 -0.000356921
0.000267743 0.00401837 -3.72505e-05
-0.000356921 -3.72505e-05 0.00402553
0.00694115 0.000209433 -0.000334529
0.000209433 0.00401813 -3.59256e-05
-0.000334529 -3.59256e-05 0.00403067
0.000336972 0.000130431 -1.83283e-05
0.000130431 -0.000237001 -1.30743e-05
-1.83283e-05 -1.30743e-05 -0.000353006
0.00594846 -0.000123062 -0.000210176
-0.000123062 0.00345484 -1.54379e-05
-0.000210176 -1.54379e-05 0.00345001
0.000321044 0.000202872 -2.30697e-05
0.000202872 -0.000182879 -2.08509e-05
-2.30697e-05 -2.08509e-05 -0.000305429
0.000328038 0.000197429 -2.07633e-05
0.000197429 -0.000191772 -1.85782e-05
-2.07633e-05 -1.85782e-05 -0.000327651
0.000886966 0.000258313 -1.52468e-05
0.000258313 1.55991e-05 -6.7276e-06
-1.52468e-05 -6.7276e-06 -0.000205489
0.00538157 -0.000125026 -1.58306e-06
-0.000125026 0.00311384 9.45268e-07
-1.58306e-06 9.45268e-07 0.00310716
0.000501226 5.0335e-05 1.70351e-06
5.0335e-05 -6.9466e-06 4.20736e-07
1.70351e-06 4.20736e-07 -7.98088e-05
0.00167496 0.000145051 6.73169e-05
0.000145051 0.000590287 5.91423e-06
6.73169e-05 5.91423e-06 0.000496323
0.00164806 0.000207135 6.8664e-05
0.000207135 0.000608531 6.72961e-06
6.8664e-05 6.72961e-06 0.000499197
0.00114382 0.000254112 7.50652e-08
0.000254112 -2.04769e-06 -2.90328e-07
7.50652e-08 -2.90328e-07 -0.000206873
0.000444832 0.000176698 -1.03429e-07
0.000176698 -8.81839e-05 -4.54912e-07
-1.03429e-07 -4.54912e-07 -0.000195401
0.00100599 0.000275562 1.04476e-06
0.000275562 2.01103e-05 5.45739e-08
1.04476e-06 5.45739e-08 -0.0002016
0.000824898 0.00025023 3.7878e-07
0.00025023 5.7197e-05 -9.07878e-07
3.7878e-07 -9.07878e-07 -0.000167711
0.00143386 0.00045221 -4.33492e-07
0.00045221 0.000221544 -4.46032e-07
-4.33492e-07 -4.46032e-07 -8.83493e-05
0.000435949 0.000127942 1.86327e-05
0.000127942 -6.72582e-05 1.65952e-05
1.86327e-05 1.65952e-05 -0.000166052
0.000653676 1.31484e-05 9.06007e-06
1.31484e-05 9.49749e-05 1.22388e-05
9.06007e-06 1.22388e-05 3.89497e-05
0.00133703 0.000197338 5.02818e-06
0.000197338 0.00055304 3.89158e-06
5.02818e-06 3.89158e-06 0.000334147
0.00120526 0.000223314 1.20606e-05
0.000223314 -2.54946e-06 4.07395e-06
1.20606e-05 4.07395e-06 -0.000191132
0.00111296 0.000277381 1.7595e-05
0.000277381 2.11453e-05 6.52844e-06
1.7595e-05 6.52844e-06 -0.000195798
0.00190879 0.000428875 3.81448e-06
0.000428875 0.000235809 -1.70565e-07
3.81448e-06 -1.70565e-07 -3.88073e-06
0.000683933 0.000219562 9.70901e-06
0.000219562 3.77025e-05 5.91707e-06
9.70901e-06 5.91707e-06 -0.000181482
0.00181256 0.000495371 4.28468e-06
0.000495371 0.000344969 -1.2069e-06
4.28468e-06 -1.2069e-06 4.86353e-05
0.00113096 0.000400576 1.32831e-06
0.000400576 0.000139948 -2.30738e-06
1.32831e-06 -2.30738e-06 -0.000176558
0.00156091 0.000537664 -5.79875e-06
0.000537664 0.000200047 -4.91832e-06
-5.79875e-06 -4.91832e-06 -0.0001299
0.00330124 -0.0001333 7.36568e-05
-0.0001333 0.00178843 4.24818e-06
7.36568e-05 4.24818e-06 0.00178463
0.00366438 -0.000163243 1.4359e-05
-0.000163243 0.00203079 -8.93828e-07
1.4359e-05 -8.93828e-07 0.0020186
0.00412892 -0.000206944 -8.51004e-05
-0.000206944 0.00234243 -6.91947e-06
-8.51004e-05 -6.91947e-06 0.00231725
0.000508757 -0.000134288 2.16398e-05
-0.000134288 -1.98062e-05 -1.50912e-05
2.16398e-05 -1.50912e-05 -0.000109068
0.00568721 0.000145162 0.000185782
0.000145162 0.00331237 -1.78676e-05
0.000185782 -1.78676e-05 0.00329697
0.00685528 0.000224956 -0.000355896
0.000224956 0.00396904 -3.08344e-05
-0.000355896 -3.08344e-05 0.0039828
0.00636752 9.76205e-05 -0.000324992
9.76205e-05 0.00365708 -1.43088e-05
-0.000324992 -1.43088e-05 0.00368236
0.000388686 9.69708e-05 -1.90074e-05
9.69708e-05 -0.000216945 -5.52564e-06
-1.90074e-05 -5.52564e-06 -0.000314966
0.000399005 4.3566e-05 -1.89326e-05
4.3566e-05 -0.000201851 -2.76049e-06
-1.89326e-05 -2.76049e-06 -0.000289201
0.00605078 -5.39559e-06 -0.000308556
-5.39559e-06 0.0034653 -2.71826e-06
-0.000308556 -2.71826e-06 0.00349322
0.00599184 5.05588e-06 -1.25511e-07
5.05588e-06 0.00342985 -1.03961e-06
-1.25511e-07 -1.03961e-06 0.00345788
0.000383965 8.18956e-07 -6.63074e-08
8.18956e-07 -0.000213637 1.61236e-07
-6.63074e-08 1.61236e-07 -0.000294959
0.0015685 4.0366e-05 6.43363e-05
4.0366e-05 0.000523081 2.98582e-06
6.43363e-05 2.98582e-06 0.000451217
0.00108763 7.00828e-05 -4.90238e-08
7.00828e-05 -6.46534e-05 -5.68137e-08
-4.90238e-08 -5.68137e-08 -0.000199274
0.000387416 8.55667e-05 -7.14912e-07
8.55667e-05 -0.000221101 -4.0145e-07
-7.14912e-07 -4.0145e-07 -0.000325537
0.00115635 0.000150761 -1.78117e-07
0.000150761 -4.45788e-05 -1.98107e-07
-1.78117e-07 -1.98107e-07 -0.000203803
0.000379251 -3.18049e-05 1.89535e-05
-3.18049e-05 -0.000217896 -8.10845e-07
1.89535e-05 -8.10845e-07 -0.000296478
0.00107109 2.89171e-05 1.12991e-05
2.89171e-05 -5.92179e-05 3.51311e-07
1.12991e-05 3.51311e-07 -0.000187295
0.00114211 0.000108271 1.13311e-05
0.000108271 -3.9801e-05 1.10566e-06
1.13311e-05 1.10566e-06 -0.000184238
0.00185326 0.000111348 6.81713e-07
0.000111348 6.27813e-05 -4.47439e-07
6.81713e-07 -4.47439e-07 -3.98247e-05
0.00122601 0.000186511 1.04999e-05
0.000186511 -3.51263e-06 2.56695e-06
1.04999e-05 2.56695e-06 -0.000176068
0.00199581 0.000258184 7.09509e-07
0.000258184 0.000164509 -7.44259e-07
7.09509e-07 -7.44259e-07 2.08131e-05
0.00601191 -6.86441e-05 -0.00031255
-6.86441e-05 0.0034494 3.31484e-06
-0.00031255 3.31484e-06 0.00347344
0.00137742 -0.000157475 -6.54084e-05
-0.000157475 0.000554601 8.02578e-06
-6.54084e-05 8.02578e-06 0.00050302
-0.000246452 -6.82409e-06 -1.19443e-05
-6.82409e-06 -0.000600614 1.78498e-06
-1.19443e-05 1.78498e-06 -0.00069638
0.00196407 -6.91141e-05 -0.000130924
-6.91141e-05 0.000783226 8.89357e-06
-0.000130924 8.89357e-06 0.000712419
0.0066528 0.000256652 -3.3045e-05
0.000256652 0.00388465 3.69916e-06
-3.3045e-05 3.69916e-06 0.00383564
0.00315091 -0.000277572 -0.000150147
-0.000277572 0.0015703 2.90617e-05
-0.000150147 2.90617e-05 0.00145903
0.00204026 -0.000123716 -0.000134705
-0.000123716 0.000829643 1.72479e-05
-0.000134705 1.72479e-05 0.00074984
0.00204965 -0.000216686 -3.07816e-05
-0.000216686 0.000545299 5.68639e-06
-3.07816e-05 5.68639e-06 0.000383044
0.00205775 -0.000295938 -3.21778e-05
-0.000295938 0.000593526 1.0559e-05
-3.21778e-05 1.0559e-05 0.000394151
0.00204797 -0.00036394 -3.4275e-05
-0.00036394 0.000663596 1.312e-05
-3.4275e-05 1.312e-05 0.000428234
0.00181076 -0.000441152 -5.80185e-06
-0.000441152 0.000253049 7.10762e-07
-5.80185e-06 7.10762e-07 -1.12319e-05
0.000382612 4.37322e-06 -2.6389e-08
4.37322e-06 -0.000213412 3.26785e-07
-2.6389e-08 3.26785e-07 -0.000294038
0.00182297 -8.78776e-05 -3.49909e-05
-8.78776e-05 0.00070716 5.15685e-07
-3.49909e-05 5.15685e-07 0.000631669
0.00149234 -6.66579e-05 -1.08838e-05
-6.66579e-05 0.00019807 7.37671e-07
-1.08838e-05 7.37671e-07 7.44581e-05
0.00191016 -0.000170819 -9.34634e-06
-0.000170819 0.000453475 1.4854e-06
-9.34634e-06 1.4854e-06 0.000302425
0.00650293 9.71476e-05 5.21192e-06
9.71476e-05 0.00379352 5.23787e-07
5.21192e-06 5.23787e-07 0.00378807
0.00173174 -0.000187489 5.26843e-06
-0.000187489 0.000705172 6.93319e-07
5.26843e-06 6.93319e-07 0.000573811
0.00137174 -0.000314325 1.71937e-06
-0.000314325 0.000307637 -1.13032e-06
1.71937e-06 -1.13032e-06 6.90876e-05
0.00196249 -0.000256575 -9.30225e-06
-0.000256575 0.000505032 2.39062e-06
-9.30225e-06 2.39062e-06 0.000324971
0.00196424 -0.00031012 -3.11072e-07
-0.00031012 0.000214116 -4.11111e-08
-3.11072e-07 -4.11111e-08 4.24792e-05
0.00180619 -0.000483773 9.59693e-07
-0.000483773 0.000313308 -2.94312e-07
9.59693e-07 -2.94312e-07 1.2847e-05
0.00183846 -0.00040482 5.6053e-07
-0.00040482 0.000218011 -2.14387e-07
5.6053e-07 -2.14387e-07 -1.79079e-05
0.00197655 -0.000508125 8.42666e-07
-0.000508125 0.000251865 1.45663e-07
8.42666e-07 1.45663e-07 4.09613e-07
0.000461449 -0.000160872 2.04091e-06
-0.000160872 -7.29126e-05 5.35612e-07
2.04091e-06 5.35612e-07 -0.000175901
0.000686392 -0.000175841 1.16253e-06
-0.000175841 0.000114744 2.11124e-07
1.16253e-06 2.11124e-07 -0.000118851
0.00107141 -3.29419e-05 1.155e-05
-3.29419e-05 -5.45961e-05 -5.90673e-07
1.155e-05 -5.90673e-07 -0.000182955
0.00190349 -0.000117404 9.43329e-06
-0.000117404 0.000453658 -7.70779e-07
9.43329e-06 -7.70779e-07 0.000322436
0.00183601 -0.000118546 8.75906e-07
-0.000118546 8.10901e-05 1.18926e-07
8.75906e-07 1.18926e-07 -3.18691e-05
0.00182639 -0.000250367 -1.42359e-07
-0.000250367 9.81787e-05 7.60954e-07
-1.42359e-07 7.60954e-07 -4.42042e-05
0.00183451 -0.000360542 4.45497e-07
-0.000360542 0.00016446 3.30715e-07
4.45497e-07 3.30715e-07 -3.73698e-05
0.00209385 -0.000352418 2.95105e-06
-0.000352418 0.000185085 -5.75769e-07
2.95105e-06 -5.75769e-07 4.64241e-05
0.000334762 -0.000168383 2.00961e-05
-0.000168383 -0.000161772 -2.02676e-05
2.00961e-05 -2.02676e-05 -0.000278137
0.00198377 -0.000467411 9.10985e-07
-0.000467411 0.000202006 1.50777e-06
9.10985e-07 1.50777e-06 -8.33559e-06
0.000614127 -0.000243613 1.05745e-05
-0.000243613 -7.31754e-05 -8.66885e-06
1.05745e-05 -8.66885e-06 -0.000304074
0.00150692 -0.000497135 1.19271e-05
-0.000497135 0.00021747 -1.91669e-06
1.19271e-05 -1.91669e-06 -0.00011799
0.00214474 -0.000569353 3.79936e-06
-0.000569353 0.000420182 1.08736e-06
3.79936e-06 1.08736e-06 0.000113932
0.00225493 -0.000544912 -7.45214e-07
-0.000544912 0.000383895 4.04564e-06
-7.45214e-07 4.04564e-06 0.000161698
0.000556781 -0.000208042 1.40277e-06
-0.000208042 1.40664e-05 -3.74533e-06
1.40277e-06 -3.74533e-06 -0.000237965
0.000734641 -0.000123465 1.78323e-07
-0.000123465 0.0001728 -1.28631e-06
1.78323e-07 -1.28631e-06 -3.59329e-05
0.000873573 -0.000271144 -1.04278e-06
-0.000271144 0.000219117 2.81202e-06
-1.04278e-06 2.81202e-06 -7.24364e-05
0.000363667 0.000108986 -1.7561e-05
0.000108986 -0.000232447 -1.00979e-05
-1.7561e-05 -1.00979e-05 -0.000343144
0.00489089 -0.000178587 -0.000143757
-0.000178587 0.00282051 -1.16918e-05
-0.000143757 -1.16918e-05 0.00280172
0.000314849 3.95435e-05 -1.15935e-05
3.95435e-05 -0.000121121 -1.35959e-05
-1.15935e-05 -1.35959e-05 -0.000188005
0.000340347 0.00016362 -1.98548e-05
0.00016362 -0.000212042 -1.60332e-05
-1.98548e-05 -1.60332e-05 -0.000337145
0.00112398 0.000253882 -1.65559e-05
0.000253882 -9.16093e-06 -6.26131e-06
-1.65559e-05 -6.26131e-06 -0.000214923
0.000443395 0.000165563 -2.2854e-05
0.000165563 -9.01763e-05 -1.88814e-05
-2.2854e-05 -1.88814e-05 -0.000196243
0.00060813 0.000229426 -1.14779e-05
0.000229426 -7.81151e-05 -7.74298e-06
-1.14779e-05 -7.74298e-06 -0.000297229
0.000988495 0.000270888 -1.65721e-05
0.000270888 1.92557e-05 -7.19302e-06
-1.65721e-05 -7.19302e-06 -0.000201489
0.00153731 0.000470173 -4.46254e-06
0.000470173 0.000272518 8.64616e-07
-4.46254e-06 8.64616e-07 -4.00805e-05
0.000496539 0.000124809 -8.43162e-07
0.000124809 -3.61673e-05 1.29148e-06
-8.43162e-07 1.29148e-06 -0.000127623
0.000435514 -7.66744e-06 5.18033e-07
-7.66744e-06 -3.28811e-05 5.98008e-07
5.18033e-07 5.98008e-07 -8.90621e-05
0.000722017 0.000125735 2.89407e-06
0.000125735 0.000154718 -7.19122e-07
2.89407e-06 -7.19122e-07 -4.77472e-05
0.00118314 0.000223482 -1.21776e-07
0.000223482 -1.11136e-05 -3.17697e-07
-1.21776e-07 -3.17697e-07 -0.000200825
0.00108638 0.00027405 3.88971e-07
0.00027405 1.01522e-05 -2.02634e-07
3.88971e-07 -2.02634e-07 -0.000206557
0.00188592 0.00042726 -3.02412e-07
0.00042726 0.000220159 -1.32721e-07
-3.02412e-07 -1.32721e-07 -1.96782e-05
0.000668002 0.000221944 -3.12706e-07
0.000221944 3.09778e-05 6.42658e-08
-3.12706e-07 6.42658e-08 -0.000186501
0.00179409 0.000491724 -3.8966e-07
0.000491724 0.000328331 -3.71138e-07
-3.8966e-07 -3.71138e-07 3.12306e-05
0.00131535 0.00042184 4.64449e-08
0.00042184 0.000255871 -1.0425e-06
4.64449e-08 -1.0425e-06 -6.51009e-05
0.00155064 0.000547556 -6.07336e-07
0.000547556 0.000176614 1.75665e-06
-6.07336e-07 1.75665e-06 -0.000153346
0.000512645 -1.8945e-05 2.63217e-06
-1.8945e-05 1.13706e-05 1.03546e-05
2.63217e-06 1.03546e-05 -3.41861e-05
0.00103698 0.00019104 5.55272e-06
0.00019104 0.0003164 3.16574e-06
5.55272e-06 3.16574e-06 9.50841e-05
0.00102026 7.62746e-05 9.36083e-07
7.62746e-05 0.000334442 6.28249e-06
9.36083e-07 6.28249e-06 0.00017558
0.00103603 0.00021332 1.14893e-06
0.00021332 0.000365874 7.22696e-07
1.14893e-06 7.22696e-07 9.21217e-05
0.00195384 0.000379318 8.65425e-07
0.000379318 0.000202906 -1.73843e-06
8.65425e-07 -1.73843e-06 -2.38158e-06
0.00185005 0.000469398 4.76622e-06
0.000469398 0.00027531 -2.44667e-07
4.76622e-06 -2.44667e-07 2.35725e-06
0.00208569 0.000496041 8.49694e-08
0.000496041 0.000251934 -1.17229e-06
8.49694e-08 -1.17229e-06 2.5038e-05
0.000930449 0.000323179 3.67097e-06
0.000323179 7.87264e-05 5.14437e-07
3.67097e-06 5.14437e-07 -0.000201623
0.00224638 0.000617383 -4.00496e-06
0.000617383 0.00049984 -2.40092e-06
-4.00496e-06 -2.40092e-06 0.000191705
0.0018683 0.000587294 -3.95336e-06
0.000587294 0.000504129 -6.8743e-06
-3.95336e-06 -6.8743e-06 0.000119766
0.00189317 0.000594722 -1.14458e-06
0.000594722 0.000294455 -1.96836e-06
-1.14458e-06 -1.96836e-06 -2.63096e-05
0.000563299 4.97679e-05 2.18297e-06
4.97679e-05 5.75086e-05 4.79921e-06
2.18297e-06 4.79921e-06 -2.027e-05
0.000476795 -1.6083e-05 1.97226e-06
-1.6083e-05 -2.50015e-05 7.4215e-06
1.97226e-06 7.4215e-06 -5.54112e-05
0.00289716 -0.00012234 4.75475e-05
-0.00012234 0.00152505 4.25834e-06
4.75475e-05 4.25834e-06 0.00152383
0.00316079 -0.000147618 8.95778e-06
-0.000147618 0.00170269 -8.89264e-07
8.95778e-06 -8.89264e-07 0.00169458
0.00347464 -0.000177964 -5.89475e-05
-0.000177964 0.00191421 -4.36678e-06
-5.89475e-05 -4.36678e-06 0.00189712
0.000436869 -0.000115117 1.84735e-05
-0.000115117 -4.17841e-05 -1.45205e-05
1.84735e-05 -1.45205e-05 -0.000117708
0.0051568 0.000174361 0.000148327
0.000174361 0.0029958 -1.68593e-05
0.000148327 -1.68593e-05 0.00297281
0.000499622 -0.000133156 7.98911e-07
-0.000133156 -2.63914e-05 4.14734e-07
7.98911e-07 4.14734e-07 -0.000120197
0.00591013 0.000126951 5.25167e-06
0.000126951 0.00344647 8.28448e-07
5.25167e-06 8.28448e-07 0.00343364
0.00038142 0.000111018 -1.86273e-05
0.000111018 -0.000222317 -7.84793e-06
-1.86273e-05 -7.84793e-06 -0.000328932
0.000419792 3.51914e-05 -1.79563e-05
3.51914e-05 -0.000196277 -3.26361e-06
-1.79563e-05 -3.26361e-06 -0.000286435
0.00113132 0.00015119 -1.10747e-05
0.00015119 -6.06083e-05 -1.79736e-06
-1.10747e-05 -1.79736e-06 -0.000220913
0.00106531 7.27018e-05 -1.16618e-05
7.27018e-05 -8.31029e-05 -7.73963e-07
-1.16618e-05 -7.73963e-07 -0.000218474
0.00043706 -7.65881e-06 -1.90234e-05
-7.65881e-06 -0.000183535 -8.17716e-07
-1.90234e-05 -8.17716e-07 -0.000263099
0.00608428 -0.000100333 -0.000319412
-0.000100333 0.00349947 5.57857e-06
-0.000319412 5.57857e-06 0.00352145
0.000427012 -2.42258e-06 8.81707e-08
-2.42258e-06 -0.000188923 -6.795e-07
8.81707e-08 -6.795e-07 -0.000267407
0.00105371 3.42349e-05 -8.77397e-08
3.42349e-05 -7.20131e-05 4.94788e-08
-8.77397e-08 4.94788e-08 -0.000200586
0.00114665 0.000111097 -1.66574e-07
0.000111097 -4.17975e-05 -1.09661e-08
-1.66574e-07 -1.09661e-08 -0.000187123
0.00186694 0.000109887 -1.57597e-07
0.000109887 7.94371e-05 2.8025e-07
-1.57597e-07 2.8025e-07 -2.29717e-05
0.0011768 0.000187669 -3.01268e-07
0.000187669 -3.14992e-05 -2.51238e-07
-3.01268e-07 -2.51238e-07 -0.000205626
0.00193375 0.000254793 -1.56518e-07
0.000254793 0.000124278 1.61119e-07
-1.56518e-07 1.61119e-07 -1.94336e-05
0.00104716 -3.74601e-06 1.13553e-05
-3.74601e-06 -6.90679e-05 -3.0549e-07
1.13553e-05 -3.0549e-07 -0.000196042
0.00182506 5.27035e-05 1.41872e-06
5.27035e-05 5.44645e-05 -3.63849e-08
1.41872e-06 -3.63849e-08 -3.94673e-05
0.00192101 0.000182304 4.31218e-07
0.000182304 0.000109316 -9.00285e-07
4.31218e-07 -9.00285e-07 -1.04395e-05
0.00203786 0.000138645 4.08078e-06
0.000138645 6.82318e-05 8.9752e-07
4.08078e-06 8.9752e-07 1.81106e-05
0.00197512 0.000322275 7.70512e-07
0.000322275 0.000167478 -1.03729e-06
7.70512e-07 -1.03729e-06 -4.9964e-06
0.00203538 0.000283063 2.44967e-06
0.000283063 8.52256e-05 -1.40624e-08
2.44967e-06 -1.40624e-08 -1.85118e-05
0.000411978 -2.88298e-06 -1.81922e-05
-2.88298e-06 -0.000191736 8.83013e-07
-1.81922e-05 8.83013e-07 -0.000274591
0.00191959 -4.35927e-05 -0.000128409
-4.35927e-05 0.000757889 5.99814e-06
-0.000128409 5.99814e-06 0.000693123
0.00110614 -6.15288e-05 -1.83318e-05
-6.15288e-05 -4.43554e-05 1.66809e-06
-1.83318e-05 1.66809e-06 -0.000172639
0.00197259 -0.000170763 -2.84857e-05
-0.000170763 0.000491231 4.322e-06
-2.84857e-05 4.322e-06 0.000338845
0.00670289 7.53589e-05 -0.000257517
7.53589e-05 0.00391268 2.53597e-05
-0.000257517 2.53597e-05 0.0039092
0.00326288 -0.000263618 -0.00015748
-0.000263618 0.00165889 2.43812e-05
-0.00015748 2.43812e-05 0.00155734
0.00205655 -0.000372261 -2.75924e-05
-0.000372261 0.000733678 1.13067e-05
-2.75924e-05 1.13067e-05 0.000486961
0.00198972 -0.000258312 -3.09383e-05
-0.000258312 0.000520092 8.166e-06
-3.09383e-05 8.166e-06 0.000339712
0.00201988 -0.000315454 -2.6497e-06
-0.000315454 0.000244831 -2.98807e-07
-2.6497e-06 -2.98807e-07 7.89591e-05
0.00195985 -0.000409287 -3.71112e-06
-0.000409287 0.000298453 9.87104e-07
-3.71112e-06 9.87104e-07 6.19907e-05
0.00180037 -0.000482738 -8.34331e-06
-0.000482738 0.000311449 6.73655e-07
-8.34331e-06 6.73655e-07 1.27658e-05
0.00201372 -0.000509855 -9.55009e-07
-0.000509855 0.000278234 -1.80506e-06
-9.55009e-07 -1.80506e-06 2.68082e-05
0.000440631 -0.000167793 -2.09092e-05
-0.000167793 -8.03897e-05 1.82602e-05
-2.09092e-05 1.82602e-05 -0.000189602
0.000678824 -0.000199853 -3.83431e-07
-0.000199853 0.000111853 -6.53042e-08
-3.83431e-07 -6.53042e-08 -0.000122447
0.00107019 -2.78775e-05 3.81986e-07
-2.78775e-05 -5.74001e-05 5.23312e-08
3.81986e-07 5.23312e-08 -0.000182565
0.00189363 -0.000117751 -9.4278e-06
-0.000117751 0.000444998 1.16757e-06
-9.4278e-06 1.16757e-06 0.000313963
0.00186347 -0.000115492 3.47751e-07
-0.000115492 9.57833e-05 -2.35007e-07
3.47751e-07 -2.35007e-07 -1.21465e-05
0.00183434 -0.000250003 -2.6146e-06
-0.000250003 0.000109805 8.12274e-07
-2.6146e-06 8.12274e-07 -3.93805e-05
0.000428931 -0.000189819 2.63791e-07
-0.000189819 -0.000104266 1.78884e-07
2.63791e-07 1.78884e-07 -0.000221763
0.000805421 -0.000259095 -4.77399e-07
-0.000259095 3.7603e-05 -2.0088e-07
-4.77399e-07 -2.0088e-07 -0.000196799
0.00147851 -0.000492162 1.85241e-06
-0.000492162 0.000206723 -2.51058e-07
1.85241e-06 -2.51058e-07 -0.000129046
0.00188418 -0.000362042 -2.92208e-06
-0.000362042 0.000198762 8.73941e-07
-2.92208e-06 8.73941e-07 -6.25742e-06
0.00206474 -0.000353533 2.28462e-06
-0.000353533 0.000157475 -9.68891e-07
2.28462e-06 -9.68891e-07 2.41088e-05
0.00219223 -0.000578246 -6.48987e-07
-0.000578246 0.000445322 -6.49021e-07
-6.48987e-07 -6.49021e-07 0.000140267
0.00200664 -0.000468795 5.78614e-07
-0.000468795 0.00021829 6.14831e-09
5.78614e-07 6.14831e-09 7.60493e-06
0.00210444 -0.000537888 7.12201e-07
-0.000537888 0.000282899 8.45917e-07
7.12201e-07 8.45917e-07 6.01517e-05
0.000637756 -0.000203789 4.3118e-07
-0.000203789 6.54657e-05 -4.10336e-07
4.3118e-07 -4.10336e-07 -0.000184111
0.000592273 -0.000197649 1.1625e-06
-0.000197649 1.41316e-05 8.67124e-07
1.1625e-06 8.67124e-07 -0.00025494
0.000734082 -0.000145654 5.35916e-07
-0.000145654 0.000174403 1.16971e-07
5.35916e-07 1.16971e-07 -3.9327e-05
0.00181614 -5.35065e-05 9.86004e-07
-5.35065e-05 6.91461e-05 -4.14002e-08
9.86004e-07 -4.14002e-08 -3.37082e-05
0.00196433 -0.000181213 -1.72586e-06
-0.000181213 0.00016665 6.53962e-07
-1.72586e-06 6.53962e-07 4.56789e-05
0.00199691 -0.000130989 6.25961e-06
-0.000130989 5.86451e-05 -9.97481e-07
6.25961e-06 -9.97481e-07 -3.17426e-06
0.00199956 -0.000290688 1.36135e-06
-0.000290688 8.8139e-05 -1.1481e-07
1.36135e-06 -1.1481e-07 -1.41615e-05
0.00190077 -0.000416595 -7.19002e-07
-0.000416595 9.89917e-05 1.68276e-06
-7.19002e-07 1.68276e-06 -7.14012e-05
0.00216903 -0.000379213 4.0499e-06
-0.000379213 0.000163772 -1.19388e-06
4.0499e-06 -1.19388e-06 6.83719e-05
0.000645013 -0.000239371 6.63276e-06
-0.000239371 1.91278e-05 -7.40342e-06
6.63276e-06 -7.40342e-06 -0.0002139
0.00196944 -0.00049425 9.33186e-08
-0.00049425 0.00014316 1.26582e-06
9.33186e-08 1.26582e-06 -3.99496e-05
0.0013233 -0.000455055 8.5816e-06
-0.000455055 0.000258157 -3.04278e-06
8.5816e-06 -3.04278e-06 -8.25988e-05
0.00187543 -0.000640998 6.63851e-06
-0.000640998 0.000343344 2.05268e-06
6.63851e-06 2.05268e-06 -3.51634e-05
0.00225427 -0.000607131 5.05057e-06
-0.000607131 0.000440069 3.79772e-06
5.05057e-06 3.79772e-06 0.000151887
0.00230589 -0.00056859 -2.15875e-06
-0.00056859 0.000420099 2.17453e-06
-2.15875e-06 2.17453e-06 0.000204832
0.00044445 -0.000116126 -2.46876e-07
-0.000116126 7.51272e-06 -5.98975e-06
-2.46876e-07 -5.98975e-06 -0.000172441
0.00122727 -0.000307729 4.95954e-07
-0.000307729 0.00034003 -3.02684e-06
4.95954e-07 -3.02684e-06 7.80129e-05
0.000630425 -0.00021107 1.72564e-07
-0.00021107 0.000144647 5.85402e-06
1.72564e-07 5.85402e-06 -0.000181597
0.00174041 -0.000393431 -3.32169e-06
-0.000393431 0.000684808 3.52882e-06
-3.32169e-06 3.52882e-06 0.000373795
0.00114351 0.0002231 -1.31853e-05
0.0002231 -3.13012e-05 -4.65106e-06
-1.31853e-05 -4.65106e-06 -0.000222155
0.000316848 -3.39741e-05 1.67839e-06
-3.39741e-05 -9.1536e-05 -1.2914e-05
1.67839e-06 -1.2914e-05 -0.000154442
0.000426189 0.00010344 -2.08253e-05
0.00010344 -7.89532e-05 -1.43928e-05
-2.08253e-05 -1.43928e-05 -0.000164856
-4.44377e-05 0.000103113 -2.76547e-06
0.000103113 -0.000311698 -3.17901e-06
-2.76547e-06 -3.17901e-06 -0.000518882
0.00105235 0.00026971 -1.81616e-05
0.00026971 -4.58472e-06 -7.16827e-06
-1.81616e-05 -7.16827e-06 -0.00022078
0.00185327 0.000424809 -3.63738e-06
0.000424809 0.000198314 2.14117e-07
-3.63738e-06 2.14117e-07 -4.15518e-05
0.000631512 0.000220198 -6.5864e-06
0.000220198 8.13007e-06 -4.06397e-06
-6.5864e-06 -4.06397e-06 -0.000206647
0.00134181 0.000426707 -3.96983e-06
0.000426707 0.000272842 -7.6723e-07
-3.96983e-06 -7.6723e-07 -4.90077e-05
0.00179023 0.000489618 -4.41396e-06
0.000489618 0.000320831 6.94343e-07
-4.41396e-06 6.94343e-07 2.27049e-05
0.00150071 0.000551072 3.07542e-06
0.000551072 0.00013474 6.75938e-06
3.07542e-06 6.75938e-06 -0.000193533
0.000466147 -3.47327e-05 -3.68339e-06
-3.47327e-05 -9.32435e-06 8.15473e-07
-3.68339e-06 8.15473e-07 -5.84128e-05
0.000657999 0.000205951 -1.39729e-06
0.000205951 9.37015e-05 -6.64106e-07
-1.39729e-06 -6.64106e-07 -0.000136374
0.000632313 7.15921e-05 6.39426e-07
7.15921e-05 9.12508e-05 -5.42703e-08
6.39426e-07 -5.42703e-08 -5.98759e-05
0.000813076 0.000184336 -3.06592e-07
0.000184336 0.000210581 -1.81159e-07
-3.06592e-07 -1.81159e-07 -5.07612e-05
0.00193289 0.000377506 -1.3018e-06
0.000377506 0.000189463 -1.10181e-06
-1.3018e-06 -1.10181e-06 -1.59158e-05
0.0018031 0.000466601 -3.45753e-07
0.000466601 0.00024483 -2.36947e-07
-3.45753e-07 -2.36947e-07 -2.8426e-05
0.00205958 0.000492109 2.16626e-07
0.000492109 0.000239658 2.37159e-07
2.16626e-07 2.37159e-07 1.36794e-05
0.0010982 0.000334787 3.05839e-06
0.000334787 0.000199502 -6.06761e-09
3.05839e-06 -6.06761e-09 -8.12398e-05
0.00213236 0.000598723 1.28884e-07
0.000598723 0.000438421 4.77137e-07
1.28884e-07 4.77137e-07 0.000131777
0.00160614 0.000562376 -1.13246e-06
0.000562376 0.000342649 -1.78186e-06
-1.13246e-06 -1.78186e-06 -3.91535e-05
0.00190421 0.000586301 -4.46509e-06
0.000586301 0.000305978 2.05768e-06
-4.46509e-06 2.05768e-06 -6.77508e-06
0.00053713 -2.26909e-05 1.67166e-06
-2.26909e-05 1.9817e-05 8.60412e-06
1.67166e-06 8.60412e-06 -1.67706e-05
0.000888186 6.20206e-05 1.76564e-06
6.20206e-05 0.000252545 6.96279e-06
1.76564e-06 6.96279e-06 0.000133673
0.000779957 0.000239692 9.77079e-07
0.000239692 7.57876e-05 2.48731e-06
9.77079e-07 2.48731e-06 -0.000165976
0.00150919 0.000170904 1.26246e-06
0.000170904 0.000716024 1.02269e-07
1.26246e-06 1.02269e-07 0.00044409
0.00110763 0.000324798 -1.45861e-06
0.000324798 0.000339431 2.33739e-06
-1.45861e-06 2.33739e-06 8.97597e-05
0.00213271 0.000441162 -2.97481e-07
0.000441162 0.000214381 -3.1438e-06
-2.97481e-07 -3.1438e-06 2.98525e-05
0.00205898 0.000554699 -1.00017e-06
0.000554699 0.000306728 -1.61795e-06
-1.00017e-06 -1.61795e-06 3.60968e-05
0.00208418 0.000539015 -2.35154e-06
0.000539015 0.000234217 -1.24572e-06
-2.35154e-06 -1.24572e-06 1.38303e-05
0.00130274 0.000493708 5.93449e-06
0.000493708 0.000303798 -2.28575e-08
5.93449e-06 -2.28575e-08 -6.85603e-05
0.00231335 0.000662896 -2.82652e-06
0.000662896 0.000491223 -1.86038e-06
-2.82652e-06 -1.86038e-06 0.000184434
0.00161775 0.000615244 6.2607e-06
0.000615244 0.000283525 -4.0339e-06
6.2607e-06 -4.0339e-06 -9.28485e-05
0.000590335 4.67841e-05 2.07798e-06
4.67841e-05 7.20613e-05 5.13481e-06
2.07798e-06 5.13481e-06 -1.17254e-05
0.000623718 9.77142e-05 -4.07713e-07
9.77142e-05 0.000135105 2.84543e-06
-4.07713e-07 2.84543e-06 3.3827e-06
0.000589681 5.82929e-05 2.08087e-06
5.82929e-05 8.07741e-05 4.46702e-06
2.08087e-06 4.46702e-06 5.79166e-06
0.000525941 1.16494e-05 -6.9254e-07
1.16494e-05 3.53544e-05 -5.44537e-08
-6.9254e-07 -5.44537e-08 -4.24554e-05
0.00134076 -3.41258e-05 1.48738e-06
-3.41258e-05 0.000519926 4.30107e-06
1.48738e-06 4.30107e-06 0.000496402
0.00090622 -2.86227e-05 2.9498e-07
-2.86227e-05 0.000247118 -1.86324e-07
2.9498e-07 -1.86324e-07 0.000218794
0.000839699 -4.86753e-05 3.49999e-05
-4.86753e-05 0.000208898 9.56353e-06
3.49999e-05 9.56353e-06 0.000206653
0.00286173 -0.000125757 7.5127e-06
-0.000125757 0.00150299 -7.17002e-07
7.5127e-06 -7.17002e-07 0.00150083
0.00306655 -0.000150004 -4.65999e-05
-0.000150004 0.00164394 -4.14854e-06
-4.65999e-05 -4.14854e-06 0.00163502
0.000428356 -6.59835e-05 9.46158e-06
-6.59835e-05 -3.09951e-05 -1.21577e-05
9.46158e-06 -1.21577e-05 -9.14669e-05
0.00454284 0.000172524 0.000107499
0.000172524 0.00260139 -1.08452e-05
0.000107499 -1.08452e-05 0.0025809
0.000510456 -0.000110685 -1.40879e-06
-0.000110685 4.15343e-06 6.95488e-07
-1.40879e-06 6.95488e-07 -7.6429e-05
0.0053514 0.000142494 -7.82659e-06
0.000142494 0.00310789 -6.13737e-07
-7.82659e-06 -6.13737e-07 0.00309211
0.00049127 -0.000135921 -2.06637e-05
-0.000135921 -3.48023e-05 1.58676e-05
-2.06637e-05 1.58676e-05 -0.000130529
0.00611496 0.000128181 -0.000217256
0.000128181 0.00357887 2.44706e-05
-0.000217256 2.44706e-05 0.00356389
0.00114866 0.000189634 -1.11779e-05
0.000189634 -4.71052e-05 -3.00941e-06
-1.11779e-05 -3.00941e-06 -0.000222699
0.00109584 0.000114132 -1.16535e-05
0.000114132 -7.68038e-05 -1.07308e-06
-1.16535e-05 -1.07308e-06 -0.000223423
0.00191047 0.000249001 -1.83643e-06
0.000249001 0.0001101 1.0564e-06
-1.83643e-06 1.0564e-06 -3.28245e-05
0.00187425 0.000108458 -6.28339e-07
0.000108458 9.20738e-05 1.11223e-06
-6.28339e-07 1.11223e-06 -1.01752e-05
0.00103911 3.91396e-05 -1.13611e-05
3.91396e-05 -8.35954e-05 -2.78937e-07
-1.13611e-05 -2.78937e-07 -0.000212679
0.000390472 2.8946e-05 -1.89618e-05
2.8946e-05 -0.000213762 -6.42349e-07
-1.89618e-05 -6.42349e-07 -0.000290842
0.00103893 1.06222e-07 -6.10037e-08
1.06222e-07 -7.4375e-05 -5.19518e-08
-6.10037e-08 -5.19518e-08 -0.000201386
0.00184182 5.34834e-05 -9.81507e-08
5.34834e-05 6.90183e-05 1.96058e-07
-9.81507e-08 1.96058e-07 -2.49193e-05
0.00191031 0.000178808 -8.00262e-08
0.000178808 0.000106038 -4.99778e-09
-8.00262e-08 -4.99778e-09 -1.32804e-05
0.00202833 0.000136181 -9.07749e-08
0.000136181 5.24059e-05 3.68515e-08
-9.07749e-08 3.68515e-08 5.41966e-06
0.00196166 0.000320087 -4.73329e-07
0.000320087 0.000163208 -1.66402e-08
-4.73329e-07 -1.66402e-08 -9.04303e-06
0.0020543 0.000283633 -4.50478e-07
0.000283633 0.000100909 1.92126e-07
-4.50478e-07 1.92126e-07 -3.27862e-06
0.00182395 -6.63634e-07 1.59471e-06
-6.63634e-07 6.47704e-05 1.45622e-07
1.59471e-06 1.45622e-07 -2.76997e-05
0.00201006 6.54519e-05 3.43757e-06
6.54519e-05 4.21649e-05 3.26178e-07
3.43757e-06 3.26178e-07 5.48956e-06
0.0020004 0.000205079 3.46378e-06
0.000205079 4.97576e-05 8.52668e-07
3.46378e-06 8.52668e-07 -2.02925e-05
0.00202173 0.000125081 6.04079e-06
0.000125081 2.20507e-05 7.48659e-07
6.04079e-06 7.48659e-07 3.12682e-06
0.00214548 0.000374893 1.02374e-06
0.000374893 0.000184277 -8.9821e-07
1.02374e-06 -8.9821e-07 3.93989e-05
0.00206312 0.000297194 2.83075e-06
0.000297194 1.42023e-05 9.43927e-07
2.83075e-06 9.43927e-07 -4.03883e-05
0.00106667 -2.3884e-05 -1.19994e-05
-2.3884e-05 -6.142e-05 7.08887e-07
-1.19994e-05 7.08887e-07 -0.000183505
0.0019055 -0.000118803 -2.7973e-05
-0.000118803 0.000450101 3.07722e-06
-2.7973e-05 3.07722e-06 0.000319164
0.00193891 -0.00011124 -2.33652e-06
-0.00011124 0.000140943 -3.67859e-07
-2.33652e-06 -3.67859e-07 3.85119e-05
0.00185172 -0.00024953 -3.0879e-06
-0.00024953 0.000127959 7.45478e-07
-3.0879e-06 7.45478e-07 -2.79642e-05
0.00056251 -0.000219574 -2.61099e-05
-0.000219574 -2.28135e-05 2.0259e-05
-2.61099e-05 2.0259e-05 -0.000141527
0.00086382 -0.000267283 -1.23642e-05
-0.000267283 7.29066e-05 8.32408e-06
-1.23642e-05 8.32408e-06 -0.000164819
0.00148883 -0.000493102 -7.64705e-06
-0.000493102 0.000217587 1.77832e-06
-7.64705e-06 1.77832e-06 -0.000120176
0.00192363 -0.000362873 -4.71105e-06
-0.000362873 0.000226207 1.18391e-06
-4.71105e-06 1.18391e-06 1.8126e-05
0.00204654 -0.000355218 -1.41598e-07
-0.000355218 0.000136452 -9.37279e-07
-1.41598e-07 -9.37279e-07 8.55643e-06
0.00202734 -0.000470075 -7.04858e-07
-0.000470075 0.000233008 -1.15481e-06
-7.04858e-07 -1.15481e-06 2.19805e-05
0.00225076 -0.00058699 -3.37113e-06
-0.00058699 0.000479422 -3.6613e-06
-3.37113e-06 -3.6613e-06 0.000175775
0.00193195 -0.000526055 1.58973e-06
-0.000526055 0.00016842 -2.51006e-06
1.58973e-06 -2.51006e-06 -5.3358e-05
0.000905682 -0.000212485 -5.55937e-06
-0.000212485 0.000225007 4.80929e-06
-5.55937e-06 4.80929e-06 -1.75329e-05
0.000374139 -0.000164368 1.42125e-06
-0.000164368 -0.000130663 -1.79562e-06
1.42125e-06 -1.79562e-06 -0.000396111
0.000581945 -0.000172952 -6.41465e-07
-0.000172952 7.7276e-05 9.00011e-07
-6.41465e-07 9.00011e-07 -0.000137179
0.0018519 -5.04308e-05 4.98752e-07
-5.04308e-05 8.95803e-05 -2.94412e-08
4.98752e-07 -2.94412e-08 -9.62818e-06
0.0019094 -0.000187521 -2.61152e-06
-0.000187521 0.000131312 3.02e-07
-2.61152e-06 3.02e-07 8.75006e-06
0.0020164 -0.000128496 2.46949e-06
-0.000128496 6.51854e-05 -4.12263e-07
2.46949e-06 -4.12263e-07 9.54207e-06
0.00198888 -0.000282163 -1.12581e-06
-0.000282163 8.5493e-05 4.90111e-07
-1.12581e-06 4.90111e-07 -1.88262e-05
0.000751349 -0.000246388 7.84296e-07
-0.000246388 8.37164e-05 -3.4428e-07
7.84296e-07 -3.4428e-07 -0.00015309
0.00140431 -0.000466119 -8.29072e-07
-0.000466119 0.000301532 -2.96541e-07
-8.29072e-07 -2.96541e-07 -4.11718e-05
0.0018208 -0.00063286 6.03046e-07
-0.00063286 0.000324573 9.40216e-07
6.03046e-07 9.40216e-07 -5.57887e-05
0.00189155 -0.000413322 -1.26249e-06
-0.000413322 9.8938e-05 1.00867e-06
-1.26249e-06 1.00867e-06 -7.68324e-05
0.00213171 -0.000381635 7.7122e-07
-0.000381635 0.000130715 -4.14717e-07
7.7122e-07 -4.14717e-07 3.96516e-05
0.00213064 -0.000603681 -2.48522e-07
-0.000603681 0.000351283 4.60692e-07
-2.48522e-07 4.60692e-07 6.17632e-05
0.00199135 -0.000495 -2.49349e-07
-0.000495 0.000154953 7.05537e-07
-2.49349e-07 7.05537e-07 -2.84764e-05
0.00221788 -0.000551773 5.41882e-07
-0.000551773 0.000355923 -5.94898e-07
5.41882e-07 -5.94898e-07 0.000147305
0.00105603 -0.000299274 -7.9322e-07
-0.000299274 0.000242423 9.28103e-07
-7.9322e-07 9.28103e-07 -2.8201e-05
0.00121828 -0.000343748 -1.15898e-06
-0.000343748 0.000351032 2.27364e-06
-1.15898e-06 2.27364e-06 4.44969e-05
0.000672144 -0.000128424 -1.62947e-07
-0.000128424 0.000148946 -6.70832e-07
-1.62947e-07 -6.70832e-07 -3.66595e-05
9.34297e-05 -0.000117735 1.35391e-06
-0.000117735 -0.000213392 -2.52707e-06
1.35391e-06 -2.52707e-06 -0.000511482
0.00202794 -6.74692e-05 5.34561e-06
-6.74692e-05 7.39976e-05 -5.24712e-07
5.34561e-06 -5.24712e-07 2.85053e-05
0.00196229 -0.000210819 3.93804e-06
-0.000210819 3.20149e-05 -1.1476e-06
3.93804e-06 -1.1476e-06 -4.85672e-05
0.00200199 -0.000120696 6.76081e-06
-0.000120696 4.69541e-05 -1.12544e-06
6.76081e-06 -1.12544e-06 2.91046e-05
0.00206629 -0.000307883 1.5336e-06
-0.000307883 3.73118e-05 -6.93161e-07
1.5336e-06 -6.93161e-07 -6.71897e-06
0.0019589 -0.000443978 -5.39643e-07
-0.000443978 8.49559e-05 -1.6542e-07
-5.39643e-07 -1.6542e-07 -5.64114e-05
0.00210824 -0.000394929 4.19837e-06
-0.000394929 7.88058e-05 -1.51434e-06
4.19837e-06 -1.51434e-06 7.07098e-06
0.00134312 -0.000395935 6.06434e-06
-0.000395935 0.000375489 -5.52882e-06
6.06434e-06 -5.52882e-06 6.25996e-05
0.00201471 -0.00052666 -2.88251e-06
-0.00052666 0.000144699 -4.87559e-08
-2.88251e-06 -4.87559e-08 -1.84809e-05
0.00161403 -0.000635477 -4.64419e-06
-0.000635477 0.000360466 3.5447e-06
-4.64419e-06 3.5447e-06 -5.75819e-05
0.00205239 -0.000702227 4.85737e-06
-0.000702227 0.000406011 2.92702e-06
4.85737e-06 2.92702e-06 1.84222e-05
0.0020832 -0.000611966 1.56639e-07
-0.000611966 0.000278626 3.99916e-06
1.56639e-07 3.99916e-06 -1.96327e-06
0.00229343 -0.000587454 -1.14345e-05
-0.000587454 0.000372744 -2.00045e-06
-1.14345e-05 -2.00045e-06 0.000153312
0.000482467 -0.000116427 -1.42876e-06
-0.000116427 2.5054e-05 -6.85399e-06
-1.42876e-06 -6.85399e-06 -0.00011785
-3.49949e-05 -0.00014079 -4.28476e-06
-0.00014079 -0.0002027 -1.3717e-06
-4.28476e-06 -1.3717e-06 -0.000513161
0.00138033 -0.000427504 -1.13749e-06
-0.000427504 0.000426731 -3.38942e-06
-1.13749e-06 -3.38942e-06 9.03917e-05
0.00283723 -0.000459074 -4.87684e-06
-0.000459074 0.00144954 1.15352e-05
-4.87684e-06 1.15352e-05 0.00110821
0.00166784 -0.000442589 -1.26104e-05
-0.000442589 0.000635836 9.08091e-06
-1.26104e-05 9.08091e-06 0.000272873
0.00031186 -4.0449e-05 -7.31301e-07
-4.0449e-05 -0.000104298 -9.76212e-06
-7.31301e-07 -9.76212e-06 -0.000152328
0.00191571 0.00037549 -2.99712e-06
0.00037549 0.000179224 -2.37085e-07
-2.99712e-06 -2.37085e-07 -2.61394e-05
0.000217045 4.09304e-05 -1.06752e-06
4.09304e-05 -0.000161355 -6.49856e-06
-1.06752e-06 -6.49856e-06 -0.000306074
0.000399233 0.000200539 -6.68641e-06
0.000200539 -9.08979e-05 -6.80079e-07
-6.68641e-06 -6.80079e-07 -0.000306088
0.000598981 0.000169985 -1.4372e-06
0.000169985 6.05517e-05 1.55882e-06
-1.4372e-06 1.55882e-06 -0.000188987
0.00177656 0.000465735 -4.77943e-06
0.000465735 0.000226496 1.16892e-07
-4.77943e-06 1.16892e-07 -4.74123e-05
0.00203499 0.000488443 1.16092e-06
0.000488443 0.000227908 1.83256e-06
1.16092e-06 1.83256e-06 2.78153e-06
0.00141811 0.000378351 -2.8535e-06
0.000378351 0.000421581 -3.56789e-06
-2.8535e-06 -3.56789e-06 0.000128172
0.0014644 0.000557379 1.67186e-07
0.000557379 0.000247695 3.57079e-06
1.67186e-07 3.57079e-06 -0.000137583
0.00201532 0.000579164 2.16086e-06
0.000579164 0.000373658 3.60448e-06
2.16086e-06 3.60448e-06 6.88543e-05
0.00198307 0.000589155 3.99152e-06
0.000589155 0.000357505 1.00184e-05
3.99152e-06 1.00184e-05 4.92795e-05
0.000457996 -1.88619e-05 -9.18345e-07
-1.88619e-05 -2.90891e-05 2.99703e-07
-9.18345e-07 2.99703e-07 -6.49127e-05
0.000599375 4.73211e-05 1.98286e-07
4.73211e-05 7.7171e-05 3.84268e-07
1.98286e-07 3.84268e-07 -3.76699e-05
0.000936654 0.000272207 1.07236e-06
0.000272207 0.00017903 1.69561e-06
1.07236e-06 1.69561e-06 -6.49912e-05
0.000641505 0.000116922 7.41075e-07
0.000116922 0.000164028 -1.2822e-06
7.41075e-07 -1.2822e-06 -9.44553e-05
0.000560296 0.000231381 -2.19034e-06
0.000231381 -4.2127e-05 3.28461e-06
-2.19034e-06 3.28461e-06 -0.000264392
0.00210605 0.000439808 -1.72508e-06
0.000439808 0.000197915 -1.89287e-06
-1.72508e-06 -1.89287e-06 1.3589e-05
0.00202382 0.000551294 5.66674e-07
0.000551294 0.000286943 1.20473e-07
5.66674e-07 1.20473e-07 1.70006e-05
0.00201808 0.000534924 1.67641e-06
0.000534924 0.0001949 1.64203e-07
1.67641e-06 1.64203e-07 -2.52112e-05
0.00140557 0.00050304 2.12668e-06
0.00050304 0.000375237 2.68143e-08
2.12668e-06 2.68143e-08 -2.1171e-06
0.00220265 0.000649952 2.43456e-06
0.000649952 0.000409073 3.93472e-07
2.43456e-06 3.93472e-07 0.000102874
0.00198049 0.00065165 -3.3934e-06
0.00065165 0.000511835 -1.41903e-08
-3.3934e-06 -1.41903e-08 0.000130256
0.000673675 4.7359e-05 7.82196e-07
4.7359e-05 0.000124202 5.54406e-06
7.82196e-07 5.54406e-06 2.92897e-05
0.00150389 0.00018342 1.37443e-07
0.00018342 0.000706889 2.67454e-06
1.37443e-07 2.67454e-06 0.000495797
0.000997502 0.000364021 -1.41384e-06
0.000364021 0.000196277 5.68537e-06
-1.41384e-06 5.68537e-06 -9.36962e-05
0.0011877 0.000157231 6.41506e-06
0.000157231 0.000453886 -3.12433e-06
6.41506e-06 -3.12433e-06 0.000183199
0.00279541 0.000380413 -4.44881e-06
0.000380413 0.00126118 4.06202e-07
-4.44881e-06 4.06202e-07 0.00101522
0.00207975 0.000462933 -3.85394e-06
0.000462933 0.000154963 -2.27223e-06
-3.85394e-06 -2.27223e-06 -1.60992e-05
0.00206525 0.000603872 -1.88306e-06
0.000603872 0.000276317 -9.3415e-07
-1.88306e-06 -9.3415e-07 8.28024e-06
0.00194894 0.000582548 5.11669e-06
0.000582548 0.000110333 -1.32201e-07
5.11669e-06 -1.32201e-07 -0.000118458
0.00119892 0.000561675 9.2982e-06
0.000561675 0.000263429 -3.95129e-06
9.2982e-06 -3.95129e-06 -0.000155513
0.00161296 0.000641004 1.12377e-05
0.000641004 0.000176218 -1.54654e-06
1.12377e-05 -1.54654e-06 -0.000168555
0.000575092 4.02445e-05 -3.83243e-07
4.02445e-05 5.95951e-05 2.09283e-07
-3.83243e-07 2.09283e-07 -2.22089e-05
0.000324221 6.34293e-05 3.641e-07
6.34293e-05 -7.53995e-05 3.0271e-06
3.641e-07 3.0271e-06 -0.000197731
0.000337521 5.99165e-05 -5.22267e-07
5.99165e-05 -6.19191e-05 -2.75526e-07
-5.22267e-07 -2.75526e-07 -0.000178294
0.00104893 0.000162144 -1.87373e-06
0.000162144 0.000407444 -9.95455e-07
-1.87373e-06 -9.95455e-07 0.000257115
0.0007045 0.000119764 1.32032e-06
0.000119764 0.000190019 2.89872e-06
1.32032e-06 2.89872e-06 6.24296e-05
0.000543828 6.61566e-05 2.3247e-06
6.61566e-05 5.74435e-05 3.93192e-06
2.3247e-06 3.93192e-06 -1.57524e-05
0.000526465 1.72765e-05 -7.08517e-07
1.72765e-05 4.11286e-05 -5.71407e-08
-7.08517e-07 -5.71407e-08 -3.31472e-05
0.00130673 -1.90071e-05 1.38721e-06
-1.90071e-05 0.00049763 3.84949e-06
1.38721e-06 3.84949e-06 0.000477402
0.000546748 2.86933e-05 -1.34507e-06
2.86933e-05 4.282e-05 -4.87962e-06
-1.34507e-06 -4.87962e-06 -3.13894e-05
0.00136535 -2.83005e-05 -8.4943e-06
-2.83005e-05 0.000534673 -1.61829e-06
-8.4943e-06 -1.61829e-06 0.000512748
0.000787695 -3.51049e-05 3.42626e-05
-3.51049e-05 0.000168977 9.38288e-06
3.42626e-05 9.38288e-06 0.000171248
0.00139741 -3.53797e-05 -1.53722e-05
-3.53797e-05 0.000558774 -5.75407e-06
-1.53722e-05 -5.75407e-06 0.00053381
0.00175104 -7.57584e-05 3.39534e-05
-7.57584e-05 0.000788738 1.47473e-06
3.39534e-05 1.47473e-06 0.00078901
0.00276865 -0.000121689 -3.99861e-05
-0.000121689 0.00144285 -4.42731e-06
-3.99861e-05 -4.42731e-06 0.00144162
0.000307333 7.7719e-05 -6.46125e-06
7.7719e-05 -7.81241e-05 -9.80059e-06
-6.46125e-06 -9.80059e-06 -0.000137789
0.000417783 -4.63381e-05 -6.72545e-07
-4.63381e-05 -3.31443e-05 6.2796e-07
-6.72545e-07 6.2796e-07 -9.98624e-05
0.00366096 0.000187922 1.58494e-05
0.000187922 0.00203671 -7.36303e-06
1.58494e-05 -7.36303e-06 0.00201257
0.00470369 0.000134603 -1.60808e-05
0.000134603 0.00269719 -1.51638e-06
-1.60808e-05 -1.51638e-06 0.00268522
0.000541633 -0.000113156 -1.72238e-05
-0.000113156 1.99367e-05 1.38983e-05
-1.72238e-05 1.38983e-05 -6.371e-05
0.00558366 0.000135119 -0.000187404
0.000135119 0.00325576 2.28516e-05
-0.000187404 2.28516e-05 0.0032393
0.00193112 0.000317515 -1.8491e-06
0.000317515 0.00014717 1.18201e-06
-1.8491e-06 1.18201e-06 -2.49621e-05
0.00187664 0.000177916 -8.67296e-07
0.000177916 8.72769e-05 9.21932e-07
-8.67296e-07 9.21932e-07 -3.23134e-05
0.00206757 0.000285431 -2.24692e-06
0.000285431 0.000111126 6.4525e-07
-2.24692e-06 6.4525e-07 6.21462e-06
0.00202163 0.000133711 -3.75264e-06
0.000133711 3.80765e-05 -4.89795e-07
-3.75264e-06 -4.89795e-07 -5.84943e-06
0.00185737 5.54473e-05 -1.35306e-06
5.54473e-05 8.35608e-05 4.83949e-07
-1.35306e-06 4.83949e-07 -1.03994e-05
0.00104235 4.89843e-06 -1.10256e-05
4.89843e-06 -7.21902e-05 9.40815e-08
-1.10256e-05 9.40815e-08 -0.000199124
0.00183447 2.64044e-06 8.37198e-08
2.64044e-06 7.23874e-05 1.69301e-07
8.37198e-08 1.69301e-07 -2.01369e-05
0.00200435 5.66166e-05 -6.56223e-07
5.66166e-05 4.07344e-05 8.48235e-09
-6.56223e-07 8.48235e-09 3.95193e-06
0.00203664 0.000206433 -2.45727e-07
0.000206433 7.03324e-05 3.25654e-07
-2.45727e-07 3.25654e-07 1.02937e-07
0.00200796 0.00012396 2.17416e-07
0.00012396 7.26332e-06 -3.22645e-08
2.17416e-07 -3.22645e-08 -6.43795e-06
0.00210811 0.000375075 -4.22364e-07
0.000375075 0.000154037 8.16807e-08
-4.22364e-07 8.16807e-08 8.9961e-06
0.00206992 0.000291251 1.78955e-07
0.000291251 2.04608e-05 1.42545e-07
1.78955e-07 1.42545e-07 -3.39581e-05
0.00199552 -5.63708e-06 4.40487e-06
-5.63708e-06 4.25396e-05 2.68389e-08
4.40487e-06 2.68389e-08 3.68378e-06
0.00201119 5.38774e-05 5.3334e-06
5.38774e-05 2.72011e-05 1.78436e-07
5.3334e-06 1.78436e-07 2.07026e-05
0.00206448 0.000200649 2.61764e-06
0.000200649 1.73771e-05 4.55204e-07
2.61764e-06 4.55204e-07 -5.2162e-06
0.00209317 0.000127977 2.14092e-06
0.000127977 2.48615e-06 2.54877e-07
2.14092e-06 2.54877e-07 1.34048e-05
0.00199136 0.000366907 1.12395e-06
0.000366907 3.16149e-05 3.23722e-07
1.12395e-06 3.23722e-07 -8.27305e-05
0.00224869 0.000297727 2.91835e-06
0.000297727 6.19817e-05 9.05457e-07
2.91835e-06 9.05457e-07 4.34453e-05
0.00187924 -4.72782e-05 -1.93594e-06
-4.72782e-05 0.000105298 -2.62575e-07
-1.93594e-06 -2.62575e-07 9.76714e-06
0.00186461 -0.000192274 -3.40215e-06
-0.000192274 0.000100979 -2.87143e-08
-3.40215e-06 -2.87143e-08 -2.29257e-05
0.00201046 -0.000126517 -1.53905e-06
-0.000126517 5.54686e-05 3.27598e-07
-1.53905e-06 3.27598e-07 5.71235e-06
0.00197125 -0.00027398 -3.05356e-06
-0.00027398 7.9518e-05 6.66866e-07
-3.05356e-06 6.66866e-07 -2.69196e-05
0.00073989 -0.00024476 -9.63224e-06
-0.00024476 7.24697e-05 8.50885e-06
-9.63224e-06 8.50885e-06 -0.000165947
0.00135642 -0.000460397 -8.9171e-06
-0.000460397 0.000269219 2.16039e-06
-8.9171e-06 2.16039e-06 -7.1024e-05
0.00163546 -0.00061075 1.79026e-06
-0.00061075 0.000228799 -1.96686e-06
1.79026e-06 -1.96686e-06 -0.000151057
0.00187836 -0.000409708 -1.5175e-06
-0.000409708 9.6852e-05 2.0863e-07
-1.5175e-06 2.0863e-07 -8.44577e-05
0.00207814 -0.000382609 -1.58654e-06
-0.000382609 8.77324e-05 5.09577e-07
-1.58654e-06 5.09577e-07 1.01534e-06
0.00200385 -0.000494923 -4.13309e-07
-0.000494923 0.000161825 7.5272e-08
-4.13309e-07 7.5272e-08 -2.1815e-05
0.00200958 -0.000604909 -3.60147e-06
-0.000604909 0.000264375 -3.42857e-06
-3.60147e-06 -3.42857e-06 -2.82689e-05
0.00210005 -0.00053935 8.06839e-06
-0.00053935 0.000279528 -4.16457e-06
8.06839e-06 -4.16457e-06 7.55478e-05
0.000849137 -0.000277648 -6.02119e-07
-0.000277648 0.000123268 2.74264e-06
-6.02119e-07 2.74264e-06 -0.000150965
0.00083107 -0.000280105 3.0542e-06
-0.000280105 7.73132e-05 -1.05161e-06
3.0542e-06 -1.05161e-06 -0.000210938
0.000978446 -0.00013729 -4.28966e-07
-0.00013729 0.000335607 5.44748e-06
-4.28966e-07 5.44748e-06 0.000146536
-0.000296547 -7.41158e-05 1.73106e-06
-7.41158e-05 -0.000477744 -7.01031e-06
1.73106e-06 -7.01031e-06 -0.000751295
0.00202779 -6.7297e-05 -2.28759e-07
-6.7297e-05 7.44514e-05 9.61542e-08
-2.28759e-07 9.61542e-08 2.90037e-05
0.00198785 -0.000211308 2.98449e-06
-0.000211308 5.50217e-05 -8.98689e-07
2.98449e-06 -8.98689e-07 -2.65357e-05
0.00197481 -0.000119313 8.9393e-07
-0.000119313 2.48275e-05 -1.47804e-07
8.9393e-07 -1.47804e-07 8.01393e-06
0.00207482 -0.00030737 -7.99407e-07
-0.00030737 4.94759e-05 2.21361e-07
-7.99407e-07 2.21361e-07 1.97305e-07
0.00117786 -0.000366329 -2.81281e-06
-0.000366329 0.000256426 2.42302e-08
-2.81281e-06 2.42302e-08 -4.59157e-05
0.00152748 -0.000613652 1.60843e-06
-0.000613652 0.000320279 -3.90886e-07
1.60843e-06 -3.90886e-07 -9.13966e-05
0.00197335 -0.000707082 -3.78527e-07
-0.000707082 0.000355261 3.86244e-07
-3.78527e-07 3.86244e-07 -3.85639e-05
0.00195717 -0.000439366 -1.25584e-06
-0.000439366 9.1064e-05 5.55785e-07
-1.25584e-06 5.55785e-07 -5.43125e-05
0.00207629 -0.000394643 1.09466e-06
-0.000394643 5.95764e-05 -2.59322e-07
1.09466e-06 -2.59322e-07 -8.10457e-06
0.00207145 -0.00061411 -3.28875e-07
-0.00061411 0.000296976 3.75088e-07
-3.28875e-07 3.75088e-07 1.44286e-05
0.00196604 -0.000525171 -8.93536e-07
-0.000525171 0.000108298 9.8299e-07
-8.93536e-07 9.8299e-07 -5.57034e-05
0.00218696 -0.000574488 3.57143e-06
-0.000574488 0.000300735 -4.60474e-06
3.57143e-06 -4.60474e-06 8.82219e-05
0.00136418 -0.000424263 -1.14148e-06
-0.000424263 0.000417269 -8.80166e-07
-1.14148e-06 -8.80166e-07 8.28036e-05
0.00149508 -0.000421804 -1.38125e-06
-0.000421804 0.000508802 1.44337e-06
-1.38125e-06 1.44337e-06 0.000155591
0.00106608 -0.000295211 1.28339e-06
-0.000295211 0.000325487 -1.27945e-07
1.28339e-06 -1.27945e-07 1.12943e-05
0.000295463 -8.71127e-05 -2.34594e-06
-8.71127e-05 -9.36008e-05 9.95263e-07
-2.34594e-06 9.95263e-07 -0.000237408
-3.7118e-05 -9.12715e-05 -9.40563e-07
-9.12715e-05 -0.000226586 -1.02002e-06
-9.40563e-07 -1.02002e-06 -0.000515453
0.00194914 -6.61256e-05 4.70504e-06
-6.61256e-05 -9.98047e-06 -2.54023e-07
4.70504e-06 -2.54023e-07 -1.42945e-05
0.00200405 -0.000184454 3.57829e-06
-0.000184454 -9.5138e-07 -9.24913e-07
3.57829e-06 -9.24913e-07 -1.70967e-05
0.00213012 -0.000361637 7.64356e-07
-0.000361637 6.6202e-06 -4.60466e-07
7.64356e-07 -4.60466e-07 -1.71196e-05
0.00209841 -0.000462687 1.87344e-06
-0.000462687 9.56818e-05 -1.99533e-06
1.87344e-06 -1.99533e-06 6.62047e-06
0.00142623 -0.000515426 -1.39818e-06
-0.000515426 0.000395808 -3.96212e-07
-1.39818e-06 -3.96212e-07 1.08414e-05
0.00224383 -0.000632945 -6.81648e-06
-0.000632945 0.00018715 -5.31438e-06
-6.81648e-06 -5.31438e-06 -1.43234e-06
0.00127823 -0.000674758 -1.88076e-05
-0.000674758 0.000153226 7.22747e-06
-1.88076e-05 7.22747e-06 -0.000289045
0.00210127 -0.000770453 4.68127e-07
-0.000770453 0.000395388 7.68299e-07
4.68127e-07 7.68299e-07 -1.12564e-05
0.00190989 -0.000581047 -1.64622e-05
-0.000581047 0.000195061 7.72536e-07
-1.64622e-05 7.72536e-07 -7.11978e-05
5.45534e-05 -1.35319e-05 -2.90879e-06
-1.35319e-05 -0.000230486 -6.03481e-06
-2.90879e-06 -6.03481e-06 -0.000342624
0.000849803 -0.000163957 -2.76254e-06
-0.000163957 0.000342637 -1.10937e-06
-2.76254e-06 -1.10937e-06 8.70591e-05
0.00101155 -0.00022896 -2.01955e-06
-0.00022896 0.000409501 -4.60557e-06
-2.01955e-06 -4.60557e-06 0.000110312
0.00171685 -0.000521224 -1.1736e-05
-0.000521224 0.000623401 5.0695e-06
-1.1736e-05 5.0695e-06 0.000234486
0.00213926 -0.000381863 -4.05974e-06
-0.000381863 0.00094677 1.2356e-05
-4.05974e-06 1.2356e-05 0.000611945
0.000756714 -0.000388428 -1.41486e-05
-0.000388428 1.54331e-05 1.76694e-05
-1.41486e-05 1.76694e-05 -0.000346759
0.000393765 -1.66437e-05 -2.37634e-06
-1.66437e-05 -6.89684e-05 -7.89263e-06
-2.37634e-06 -7.89263e-06 -0.000104104
0.000470017 3.40654e-05 -3.0383e-07
3.40654e-05 1.88903e-06 -7.07084e-06
-3.0383e-07 -7.07084e-06 -0.000110936
0.00208051 0.00043848 -2.38734e-06
0.00043848 0.000182431 -3.78589e-07
-2.38734e-06 -3.78589e-07 -1.69673e-06
-4.29275e-05 3.23736e-05 2.37311e-07
3.23736e-05 -0.000269729 -1.79054e-06
2.37311e-07 -1.79054e-06 -0.000519694
0.00118686 0.000289875 -6.8523e-07
0.000289875 0.00033471 -9.14219e-08
-6.8523e-07 -9.14219e-08 9.6826e-05
0.000133124 0.000156095 -4.94764e-06
0.000156095 -0.00033856 1.92017e-06
-4.94764e-06 1.92017e-06 -0.000539013
0.0019833 0.000546933 1.93508e-06
0.000546933 0.000265343 1.75155e-06
1.93508e-06 1.75155e-06 -3.67449e-06
0.00196576 0.000531712 2.51218e-06
0.000531712 0.000164263 9.15613e-07
2.51218e-06 9.15613e-07 -5.56451e-05
0.00162542 0.000522035 -1.69675e-06
0.000522035 0.000524633 -9.92907e-08
-1.69675e-06 -9.92907e-08 0.000140303
0.00226523 0.000673201 -4.2094e-06
0.000673201 0.00069608 3.5094e-06
-4.2094e-06 3.5094e-06 0.000315713
0.00207732 0.000636652 1.3289e-06
0.000636652 0.000317396 2.77629e-06
1.3289e-06 2.77629e-06 1.16773e-05
0.000583235 4.15527e-05 -4.15947e-07
4.15527e-05 7.00615e-05 5.781e-07
-4.15947e-07 5.781e-07 -2.49749e-05
0.000775115 8.77424e-05 -1.27861e-06
8.77424e-05 0.0002408 8.15206e-08
-1.27861e-06 8.15206e-08 4.65334e-05
0.00122124 0.000390951 1.11951e-06
0.000390951 0.000325156 1.93413e-06
1.11951e-06 1.93413e-06 2.90606e-05
0.000853916 0.000127825 2.36252e-06
0.000127825 0.000242913 -1.67397e-06
2.36252e-06 -1.67397e-06 -2.51578e-05
0.000683333 0.00020556 3.59509e-06
0.00020556 -7.43109e-05 -1.74044e-06
3.59509e-06 -1.74044e-06 -0.000284331
0.00204143 0.000462604 -2.33728e-06
0.000462604 0.000137029 -1.56045e-06
-2.33728e-06 -1.56045e-06 -3.49202e-05
0.00209315 0.000606076 1.97026e-06
0.000606076 0.000290415 5.87249e-07
1.97026e-06 5.87249e-07 2.19124e-05
0.0020074 0.000583209 1.11396e-06
0.000583209 0.000142673 2.76712e-07
1.11396e-06 2.76712e-07 -8.50648e-05
0.00137824 0.000592832 2.2815e-06
0.000592832 0.000356508 7.04639e-07
2.2815e-06 7.04639e-07 -6.51608e-05
0.00179404 0.000663855 -2.20945e-06
0.000663855 0.000301104 -2.02865e-06
-2.20945e-06 -2.02865e-06 -5.18902e-05
0.00113513 0.000134892 1.39778e-06
0.000134892 0.000452576 3.3074e-06
1.39778e-06 3.3074e-06 0.00029992
-0.000199702 3.76951e-06 -1.97166e-06
3.76951e-06 -0.000310909 1.26061e-06
-1.97166e-06 1.26061e-06 -0.000571383
0.00142682 0.000469337 -2.12724e-06
0.000469337 0.000448666 -3.40865e-06
-2.12724e-06 -3.40865e-06 9.77156e-05
-0.000614296 0.000122936 5.89867e-06
0.000122936 -0.000792268 -8.99851e-07
5.89867e-06 -8.99851e-07 -0.00101658
0.00270046 0.000531341 -3.53184e-06
0.000531341 0.00114625 -3.9882e-06
-3.53184e-06 -3.9882e-06 0.000853393
0.002016 0.000502303 7.10999e-07
0.000502303 3.26297e-05 -1.37042e-07
7.10999e-07 -1.37042e-07 -0.000112164
0.00215394 0.000667591 9.10921e-06
0.000667591 0.000292084 -1.9265e-06
9.10921e-06 -1.9265e-06 -4.1066e-06
0.00205654 0.000617052 1.01623e-05
0.000617052 0.000138126 1.73079e-06
1.01623e-05 1.73079e-06 -0.000107223
0.00142223 0.0006241 9.88395e-06
0.0006241 0.000330409 3.87822e-07
9.88395e-06 3.87822e-07 -8.76276e-05
0.00207595 0.000760692 3.51459e-06
0.000760692 0.000480525 -3.50559e-07
3.51459e-06 -3.50559e-07 9.23454e-05
0.000527316 3.2136e-05 -1.67531e-06
3.2136e-05 2.7686e-05 -5.07494e-06
-1.67531e-06 -5.07494e-06 -5.25787e-05
0.000522827 7.93508e-05 1.31566e-06
7.93508e-05 5.39373e-05 3.54284e-07
1.31566e-06 3.54284e-07 -7.19304e-05
0.000246779 6.35231e-05 -3.67822e-07
6.35231e-05 -0.000124621 1.60044e-06
-3.67822e-07 1.60044e-06 -0.000240959
7.15042e-05 -2.05741e-05 2.50712e-07
-2.05741e-05 -0.000221865 -3.65136e-06
2.50712e-07 -3.65136e-06 -0.000339206
0.000589316 6.68437e-05 -3.23685e-07
6.68437e-05 0.000117153 5.14595e-08
-3.23685e-07 5.14595e-08 -7.11572e-06
0.000538248 9.66242e-05 -6.16441e-07
9.66242e-05 7.45751e-05 -2.96897e-08
-6.16441e-07 -2.96897e-08 -5.56403e-05
0.00077367 0.000143466 -3.21827e-06
0.000143466 0.000239108 -4.0995e-06
-3.21827e-06 -4.0995e-06 0.000107444
0.000224442 2.18445e-05 -1.27015e-06
2.18445e-05 -0.000108256 -2.16521e-07
-1.27015e-06 -2.16521e-07 -0.000249192
0.00068421 0.000101437 2.96413e-07
0.000101437 0.000167222 2.83653e-06
2.96413e-07 2.83653e-06 5.37316e-05
0.000559383 7.34731e-05 3.10591e-06
7.34731e-05 7.02842e-05 3.83532e-06
3.10591e-06 3.83532e-06 -4.48207e-06
0.00051913 2.47977e-05 -2.56639e-06
2.47977e-05 4.01749e-05 3.51981e-08
-2.56639e-06 3.51981e-08 -3.15899e-05
0.00126231 -3.39895e-06 1.89439e-06
-3.39895e-06 0.000472658 3.37812e-06
1.89439e-06 3.37812e-06 0.00045433
0.000409281 -6.65655e-05 2.90721e-06
-6.65655e-05 -2.40346e-05 -4.32577e-06
2.90721e-06 -4.32577e-06 -0.000102396
0.00132963 -1.34417e-05 -7.33099e-06
-1.34417e-05 0.000511682 -1.68653e-06
-7.33099e-06 -1.68653e-06 0.000492648
0.000736494 -2.50915e-05 2.9739e-05
-2.50915e-05 0.000134932 9.44499e-06
2.9739e-05 9.44499e-06 0.000139434
0.00138743 -2.44294e-05 -1.35289e-05
-2.44294e-05 0.000547933 -7.51038e-06
-1.35289e-05 -7.51038e-06 0.000526911
0.000762187 -4.01069e-05 1.20857e-05
-4.01069e-05 0.000152747 3.4995e-06
1.20857e-05 3.4995e-06 0.000152706
0.0026132 -0.000115664 -1.54411e-06
-0.000115664 0.00133649 -2.97188e-06
-1.54411e-06 -2.97188e-06 0.00133599
0.00029646 6.33247e-05 -4.38241e-06
6.33247e-05 -9.9776e-05 -6.18968e-06
-4.38241e-06 -6.18968e-06 -0.000140859
0.000408231 1.02717e-05 -3.55469e-06
1.02717e-05 -3.41675e-05 2.48871e-07
-3.55469e-06 2.48871e-07 -8.50727e-05
0.00305557 0.000157797 1.64118e-06
0.000157797 0.00164684 -6.74896e-06
1.64118e-06 -6.74896e-06 0.0016328
0.000515591 -7.8217e-05 -1.17505e-05
-7.8217e-05 1.97454e-05 1.21408e-05
-1.17505e-05 1.21408e-05 -4.71303e-05
0.00397933 0.000141484 -3.54777e-05
0.000141484 0.00222973 -1.78799e-07
-3.54777e-05 -1.78799e-07 0.00221786
0.00494485 0.000107087 -0.00016821
0.000107087 0.00284201 1.84468e-05
-0.00016821 1.84468e-05 0.00283591
0.00207514 0.000375305 -2.23906e-06
0.000375305 0.000127256 1.12396e-06
-2.23906e-06 1.12396e-06 -1.79525e-05
0.0020706 0.000206351 -2.92739e-06
0.000206351 9.09622e-05 -6.44832e-08
-2.92739e-06 -6.44832e-08 2.08784e-05
0.00207013 0.000284451 -1.29235e-06
0.000284451 2.31845e-05 -1.64491e-07
-1.29235e-06 -1.64491e-07 -3.10675e-05
0.00199366 0.000122992 -2.65801e-06
0.000122992 -7.69146e-06 -3.3569e-07
-2.65801e-06 -3.3569e-07 -1.61052e-05
0.00199678 4.93714e-05 -5.14531e-06
4.93714e-05 3.81194e-05 -1.16718e-07
-5.14531e-06 -1.16718e-07 1.1143e-06
0.00184353 5.28825e-06 -1.5305e-06
5.28825e-06 7.78706e-05 2.35792e-07
-1.5305e-06 2.35792e-07 -1.467e-05
0.00200658 -6.43447e-06 -1.79697e-07
-6.43447e-06 5.40116e-05 1.07082e-08
-1.79697e-07 1.07082e-08 1.38528e-05
0.00201404 5.44404e-05 1.2628e-06
5.44404e-05 3.2592e-05 3.15724e-08
1.2628e-06 3.15724e-08 2.24479e-05
0.00206874 0.000198016 -1.02869e-07
0.000198016 2.38086e-05 -4.82228e-09
-1.02869e-07 -4.82228e-09 2.72255e-06
0.00207207 0.000129157 6.33652e-07
0.000129157 -1.60461e-05 1.66172e-07
6.33652e-07 1.66172e-07 9.91997e-07
0.00205808 0.000369694 -6.09254e-07
0.000369694 8.40876e-05 3.21853e-07
-6.09254e-07 3.21853e-07 -3.22493e-05
0.00217755 0.00029791 2.78163e-06
0.00029791 1.59667e-05 3.37484e-07
2.78163e-06 3.37484e-07 4.21957e-06
0.0019654 -1.23108e-05 4.59807e-06
-1.23108e-05 7.88702e-06 1.77984e-07
4.59807e-06 1.77984e-07 -4.07574e-06
0.00207978 6.16624e-05 4.9184e-07
6.16624e-05 -1.54296e-05 -1.12618e-07
4.9184e-07 -1.12618e-07 1.04996e-05
0.00214724 0.000198091 -4.06901e-08
0.000198091 -1.1763e-05 -6.8588e-08
-4.06901e-08 -6.8588e-08 3.37676e-06
0.00218002 0.000403694 -1.53149e-07
0.000403694 2.30002e-05 7.91086e-07
-1.53149e-07 7.91086e-07 -1.69298e-05
0.00202809 -6.71886e-05 -5.62687e-06
-6.71886e-05 7.47108e-05 6.66884e-07
-5.62687e-06 6.66884e-07 2.92839e-05
0.00201 -0.000212443 -5.44935e-07
-0.000212443 7.60387e-05 -2.14997e-07
-5.44935e-07 -2.14997e-07 -6.51772e-06
0.0019461 -0.000118092 -4.97772e-06
-0.000118092 1.95083e-06 1.1249e-06
-4.97772e-06 1.1249e-06 -1.4023e-05
0.00208854 -0.000307237 -5.39285e-06
-0.000307237 6.3244e-05 1.24813e-06
-5.39285e-06 1.24813e-06 8.84235e-06
0.000968472 -0.000352363 -6.70666e-06
-0.000352363 0.000116306 2.99306e-06
-6.70666e-06 2.99306e-06 -0.000185008
0.00152025 -0.000602192 1.02369e-05
-0.000602192 0.000323258 -3.65235e-06
1.02369e-05 -3.65235e-06 -8.41031e-05
0.00198497 -0.000721353 -2.66997e-06
-0.000721353 0.000359285 -2.52899e-06
-2.66997e-06 -2.52899e-06 -4.29739e-05
0.00196721 -0.000435889 -3.1717e-06
-0.000435889 0.000103917 9.86959e-07
-3.1717e-06 9.86959e-07 -4.54347e-05
0.00204779 -0.000395074 -8.64091e-07
-0.000395074 4.25679e-05 1.17918e-06
-8.64091e-07 1.17918e-06 -2.09158e-05
0.00193269 -0.000525972 6.86764e-07
-0.000525972 7.79008e-05 1.92098e-06
6.86764e-07 1.92098e-06 -8.72104e-05
0.00201911 -0.000601007 -4.34984e-07
-0.000601007 0.000285099 -2.6368e-06
-4.34984e-07 -2.6368e-06 5.80692e-06
0.00211756 -0.000560954 1.60954e-05
-0.000560954 0.000242372 -5.99585e-06
1.60954e-05 -5.99585e-06 3.7212e-05
0.000920987 -0.00037261 -5.67029e-07
-0.00037261 0.000138909 9.28536e-07
-5.67029e-07 9.28536e-07 -0.000182583
0.00131622 -0.000409524 1.24692e-05
-0.000409524 0.000371429 -7.29351e-06
1.24692e-05 -7.29351e-06 2.63837e-05
-0.000224797 -0.000144665 2.04201e-06
-0.000144665 -0.000470497 -1.18368e-05
2.04201e-06 -1.18368e-05 -0.000772474
0.000101728 -7.38282e-05 4.27434e-07
-7.38282e-05 -0.000215239 5.55293e-06
4.27434e-07 5.55293e-06 -0.000360896
0.000242145 -5.40139e-05 4.57162e-06
-5.40139e-05 -6.57577e-05 5.78874e-07
4.57162e-06 5.78874e-07 -0.000342416
0.00193799 -7.44521e-05 5.40812e-08
-7.44521e-05 -1.96364e-05 -1.74854e-07
5.40812e-08 -1.74854e-07 -2.49787e-05
0.00204408 -0.000186137 1.32245e-06
-0.000186137 2.04803e-05 -3.34278e-08
1.32245e-06 -3.34278e-08 4.0945e-06
0.00213148 -0.000355457 -6.34445e-07
-0.000355457 2.36773e-05 7.44022e-08
-6.34445e-07 7.44022e-08 -4.56623e-06
0.00143602 -0.000518746 -1.32479e-06
-0.000518746 0.000399876 -7.23937e-07
-1.32479e-06 -7.23937e-07 1.46361e-05
0.00151389 -0.00068436 3.46832e-06
-0.00068436 0.000292779 -8.61693e-07
3.46832e-06 -8.61693e-07 -0.000148373
0.0021198 -0.000778497 -7.94219e-08
-0.000778497 0.000413308 -2.59725e-07
-7.94219e-08 -2.59725e-07 4.87348e-07
0.00207753 -0.000459137 3.1049e-07
-0.000459137 8.57309e-05 1.87557e-07
3.1049e-07 1.87557e-07 -5.74612e-06
0.00211354 -0.000620177 1.88865e-06
-0.000620177 0.000288307 -3.71225e-06
1.88865e-06 -3.71225e-06 1.80441e-05
0.00216697 -0.000612272 -1.66851e-06
-0.000612272 0.000173658 -3.23214e-07
-1.66851e-06 -3.23214e-07 -9.70969e-06
5.47763e-05 4.34633e-05 -1.96578e-06
4.34633e-05 -0.000241565 -9.10711e-07
-1.96578e-06 -9.10711e-07 -0.00034328
0.00133066 -0.000474006 -7.09678e-10
-0.000474006 0.000376029 -1.9227e-06
-7.09678e-10 -1.9227e-06 1.31264e-06
0.00139354 -0.000466224 -2.51091e-06
-0.000466224 0.000426881 1.43913e-06
-2.51091e-06 1.43913e-06 4.25443e-05
0.00145591 -0.000351793 -1.06399e-06
-0.000351793 0.000555782 2.83119e-06
-1.06399e-06 2.83119e-06 0.00020305
0.00124498 -0.000246093 1.81036e-06
-0.000246093 0.000551548 -2.79729e-06
1.81036e-06 -2.79729e-06 0.000251144
0.000400604 -8.54653e-05 -9.68398e-07
-8.54653e-05 5.01525e-05 1.43338e-06
-9.68398e-07 1.43338e-06 -0.000193338
0.00205018 -9.66093e-05 1.60032e-06
-9.66093e-05 -1.62582e-05 8.41764e-08
1.60032e-06 8.41764e-08 1.78642e-06
0.00220471 -0.000247981 2.07744e-07
-0.000247981 -1.53057e-05 2.59953e-08
2.07744e-07 2.59953e-08 1.64144e-05
0.00220733 -0.000437507 8.59549e-07
-0.000437507 2.2263e-05 -4.09199e-07
8.59549e-07 -4.09199e-07 1.3825e-05
0.00224624 -0.000548669 1.68915e-06
-0.000548669 8.69732e-05 -2.72335e-06
1.68915e-06 -2.72335e-06 1.53515e-05
0.00164985 -0.000621351 -1.19235e-05
-0.000621351 0.000487977 5.78823e-06
-1.19235e-05 5.78823e-06 6.23443e-05
0.00227545 -0.000707773 -7.58723e-06
-0.000707773 0.000286362 -6.32239e-06
-7.58723e-06 -6.32239e-06 3.70502e-05
0.00190219 -0.000804894 -3.95045e-05
-0.000804894 0.000495178 5.9658e-06
-3.95045e-05 5.9658e-06 1.06046e-05
0.00235629 -0.000842754 -2.46722e-05
-0.000842754 0.000569137 2.28267e-07
-2.46722e-05 2.28267e-07 0.000134661
-3.63788e-05 5.33435e-05 -6.11999e-06
5.33435e-05 -0.000302022 -2.82387e-06
-6.11999e-06 -2.82387e-06 -0.000379443
0.000870861 -4.65205e-06 -3.02066e-06
-4.65205e-06 0.000329929 -9.07406e-07
-3.02066e-06 -9.07406e-07 0.000150404
0.00178536 -0.000273953 -5.90675e-06
-0.000273953 0.00093469 -7.28581e-07
-5.90675e-06 -7.28581e-07 0.000647941
0.000644392 -0.000144859 -1.88921e-07
-0.000144859 0.000127309 -6.20627e-06
-1.88921e-07 -6.20627e-06 -0.000185409
0.00259325 -0.000661287 -2.04057e-05
-0.000661287 0.00112993 1.32178e-05
-2.04057e-05 1.32178e-05 0.000697338
0.00156876 -0.000467781 -2.76454e-06
-0.000467781 0.000585088 2.29538e-05
-2.76454e-06 2.29538e-05 0.000151175
0.000537094 3.01053e-05 -1.17438e-06
3.01053e-05 4.21862e-05 -5.49452e-06
-1.17438e-06 -5.49452e-06 -5.1664e-05
-0.000180932 2.16571e-05 1.23812e-06
2.16571e-05 -0.000364563 -1.28938e-06
1.23812e-06 -1.28938e-06 -0.000541018
0.00200191 0.000462761 -1.71765e-06
0.000462761 0.000116659 -8.9544e-07
-1.71765e-06 -8.9544e-07 -5.63429e-05
0.000384594 8.58708e-05 -1.55936e-06
8.58708e-05 -6.35473e-05 2.08625e-06
-1.55936e-06 2.08625e-06 -0.000321436
0.00143637 0.000417483 -3.06432e-06
0.000417483 0.000448186 -5.06712e-06
-3.06432e-06 -5.06712e-06 0.000146725
-0.00131105 3.11686e-05 -4.85933e-06
3.11686e-05 -0.00132905 6.50858e-07
-4.85933e-06 6.50858e-07 -0.00149412
0.00211714 0.000608329 2.82874e-06
0.000608329 0.000300751 1.46907e-06
2.82874e-06 1.46907e-06 3.17072e-05
0.00204213 0.000581594 -6.61965e-06
0.000581594 0.000159336 3.56253e-08
-6.61965e-06 3.56253e-08 -6.69914e-05
0.00160835 0.000629813 -3.9206e-06
0.000629813 0.000480785 3.90796e-06
-3.9206e-06 3.90796e-06 5.40728e-05
0.00205493 0.000695244 -6.789e-06
0.000695244 0.000476421 6.64204e-07
-6.789e-06 6.64204e-07 0.000112129
0.000791442 9.42765e-05 -6.10809e-07
9.42765e-05 0.000227782 1.16196e-07
-6.10809e-07 1.16196e-07 8.74026e-05
0.000567073 8.54938e-05 1.24545e-06
8.54938e-05 0.000164098 1.32401e-07
1.24545e-06 1.32401e-07 -0.000111505
0.00128903 0.000448485 -3.28477e-06
0.000448485 0.000359505 -1.40407e-06
-3.28477e-06 -1.40407e-06 1.46941e-05
0.000372259 0.000160602 8.62072e-07
0.000160602 -0.000199729 -1.42158e-06
8.62072e-07 -1.42158e-06 -0.000425283
0.00190093 0.000422192 3.54768e-06
0.000422192 0.000627201 -1.48064e-06
3.54768e-06 -1.48064e-06 0.000360703
0.00216956 0.000516725 -2.57076e-06
0.000516725 0.00011348 -8.87342e-07
-2.57076e-06 -8.87342e-07 -3.14949e-05
0.00229741 0.000668601 2.78831e-06
0.000668601 0.000383319 -5.55548e-07
2.78831e-06 -5.55548e-07 9.32704e-05
0.00224409 0.000640881 2.21129e-06
0.000640881 0.000243255 2.78184e-06
2.21129e-06 2.78184e-06 -5.93904e-06
0.00148681 0.000636017 3.90481e-06
0.000636017 0.000372177 1.35215e-06
3.90481e-06 1.35215e-06 -5.05456e-05
0.0019529 0.00077064 -4.86122e-06
0.00077064 0.00040896 2.06295e-07
-4.86122e-06 2.06295e-07 8.79695e-06
-0.000822585 6.60768e-06 -3.81361e-06
6.60768e-06 -0.000765506 6.59781e-06
-3.81361e-06 6.59781e-06 -0.000902415
-0.000370983 0.000251694 8.97811e-07
0.000251694 -0.000341026 1.63478e-06
8.97811e-07 1.63478e-06 -0.000672387
0.00145194 0.00050178 2.8758e-06
0.00050178 0.000422911 -3.14981e-06
2.8758e-06 -3.14981e-06 6.31556e-05
1.62007e-05 0.000210449 3.63984e-07
0.000210449 -0.000532821 -4.17211e-06
3.63984e-07 -4.17211e-06 -0.000746097
0.00239538 0.000521331 5.46365e-06
0.000521331 -4.4805e-05 2.48001e-06
5.46365e-06 2.48001e-06 -2.73822e-05
0.00272625 0.000646056 9.11653e-06
0.000646056 0.00046112 1.69442e-06
9.11653e-06 1.69442e-06 0.000258909
0.00219093 0.000763289 7.01425e-06
0.000763289 0.000339669 -3.18989e-06
7.01425e-06 -3.18989e-06 -1.88306e-05
0.00170054 0.000746202 1.63067e-06
0.000746202 0.000366755 -1.93702e-07
1.63067e-06 -1.93702e-07 -8.26361e-05
0.000770933 0.000123383 -6.60504e-07
0.000123383 0.000219739 -2.61e-06
-6.60504e-07 -2.61e-06 8.45878e-05
0.000529969 0.000111383 -1.20595e-06
0.000111383 6.7748e-05 -7.99821e-07
-1.20595e-06 -7.99821e-07 -6.15764e-05
0.00130173 0.000111082 -8.13168e-06
0.000111082 0.00055324 -3.85551e-06
-8.13168e-06 -3.85551e-06 0.000449092
0.000535121 4.58115e-05 -4.89919e-07
4.58115e-05 5.88488e-05 -3.27238e-06
-4.89919e-07 -3.27238e-06 -4.78167e-05
-3.003e-05 4.41954e-05 -2.49124e-08
4.41954e-05 -0.00027722 -1.20649e-06
-2.49124e-08 -1.20649e-06 -0.000396634
0.000601198 5.29533e-05 -7.05924e-07
5.29533e-05 0.000117448 2.21544e-07
-7.05924e-07 2.21544e-07 3.52524e-06
0.000482413 0.000131188 1.24226e-07
0.000131188 7.47642e-05 7.99995e-07
1.24226e-07 7.99995e-07 -5.56445e-05
0.000479588 5.89619e-05 1.10235e-06
5.89619e-05 6.26607e-05 -2.14379e-08
1.10235e-06 -2.14379e-08 -8.70641e-05
0.000678263 0.000114279 5.26772e-06
0.000114279 0.000140496 -2.89254e-06
5.26772e-06 -2.89254e-06 5.64509e-05
0.000699228 1.90788e-05 3.35338e-06
1.90788e-05 0.000196808 -4.88835e-06
3.35338e-06 -4.88835e-06 5.4363e-05
0.00022759 6.80794e-05 -3.75307e-07
6.80794e-05 -9.83857e-05 2.42593e-06
-3.75307e-07 2.42593e-06 -0.000241289
0.000673073 0.000113501 2.22054e-06
0.000113501 0.000162483 3.82319e-06
2.22054e-06 3.82319e-06 4.52737e-05
0.000463015 7.88884e-05 3.1224e-06
7.88884e-05 1.62093e-05 3.80696e-06
3.1224e-06 3.80696e-06 -6.48299e-05
0.000455172 1.62426e-05 -1.55578e-06
1.62426e-05 2.9504e-06 -3.15711e-07
-1.55578e-06 -3.15711e-07 -6.98776e-05
0.00122975 8.0551e-06 1.46618e-06
8.0551e-06 0.000458175 3.01274e-06
1.46618e-06 3.01274e-06 0.000440122
0.000443424 -4.26201e-05 4.67226e-07
-4.26201e-05 -9.30361e-06 -3.33813e-06
4.67226e-07 -3.33813e-06 -7.93032e-05
0.00131987 -5.09959e-06 -7.04543e-06
-5.09959e-06 0.000508827 -1.71461e-06
-7.04543e-06 -1.71461e-06 0.000491203
0.000739835 -1.54666e-05 2.72451e-05
-1.54666e-05 0.000139377 9.27935e-06
2.72451e-05 9.27935e-06 0.000144747
0.00136286 -1.9054e-05 -1.07953e-05
-1.9054e-05 0.000532685 -7.03138e-06
-1.07953e-05 -7.03138e-06 0.000514218
0.000748127 -2.93928e-05 1.05055e-05
-2.93928e-05 0.000140707 3.54278e-06
1.05055e-05 3.54278e-06 0.000143525
0.00073175 -4.15274e-05 3.95726e-07
-4.15274e-05 0.000133221 -3.28847e-06
3.95726e-07 -3.28847e-06 0.00013222
0.000382562 4.34167e-05 -1.84539e-06
4.34167e-05 -6.79917e-05 -4.21752e-06
-1.84539e-06 -4.21752e-06 -9.43944e-05
0.00039799 7.22047e-05 -3.39198e-07
7.22047e-05 -3.3302e-05 3.54324e-07
-3.39198e-07 3.54324e-07 -7.74434e-05
0.00258822 0.000121084 6.75183e-06
0.000121084 0.00134074 -5.35462e-06
6.75183e-06 -5.35462e-06 0.00133696
0.000474318 1.14204e-05 -5.50289e-06
1.14204e-05 9.53734e-06 1.03877e-05
-5.50289e-06 1.03877e-05 -4.435e-05
0.00319015 0.000158105 -1.65593e-05
0.000158105 0.00173039 -1.73715e-06
-1.65593e-05 -1.73715e-06 0.00171595
0.00416301 8.51907e-05 -0.000138885
8.51907e-05 0.00233995 1.36505e-05
-0.000138885 1.36505e-05 0.00234145
0.00212307 0.000372169 -9.25426e-07
0.000372169 0.000136231 5.7435e-07
-9.25426e-07 5.7435e-07 1.79353e-05
0.00207933 0.000196151 -4.4234e-06
0.000196151 3.32534e-05 -6.63961e-07
-4.4234e-06 -6.63961e-07 1.36835e-05
0.00210621 0.000298072 -1.53426e-07
0.000298072 -3.0765e-05 1.98631e-07
-1.53426e-07 1.98631e-07 -3.57285e-05
0.00205073 0.000130546 -2.87367e-07
0.000130546 -3.53514e-05 -2.4621e-08
-2.87367e-07 -2.4621e-08 -1.20839e-05
0.00201728 5.5232e-05 -4.32786e-06
5.5232e-05 3.80358e-05 -3.22028e-07
-4.32786e-06 -3.22028e-07 2.42929e-05
0.00202187 -9.28065e-06 -6.4741e-06
-9.28065e-06 6.83432e-05 1.65868e-07
-6.4741e-06 1.65868e-07 2.70405e-05
0.00197732 -1.05148e-05 3.80586e-08
-1.05148e-05 1.65278e-05 -3.86993e-08
3.80586e-08 -3.86993e-08 5.44499e-06
0.00206919 6.43906e-05 1.14194e-06
6.43906e-05 -1.74665e-05 1.36721e-07
1.14194e-06 1.36721e-07 6.37045e-06
0.00214698 0.000204843 1.11129e-06
0.000204843 -1.22498e-05 1.97699e-07
1.11129e-06 1.97699e-07 5.65657e-06
0.00219265 0.000393822 5.97546e-07
0.000393822 2.43023e-05 1.96913e-07
5.97546e-07 1.96913e-07 -1.47674e-05
0.00204005 -1.62938e-05 -8.91688e-08
-1.62938e-05 -2.4942e-05 2.83953e-09
-8.91688e-08 2.83953e-09 -7.04023e-06
0.00220152 0.000115509 -1.33597e-06
0.000115509 -5.0638e-05 -5.84745e-07
-1.33597e-06 -5.84745e-07 1.33514e-05
0.00236555 0.0003106 2.08134e-06
0.0003106 3.48914e-06 6.72779e-08
2.08134e-06 6.72779e-08 3.77587e-05
0.0019259 -8.27143e-05 -4.34358e-06
-8.27143e-05 -3.00386e-05 3.32391e-07
-4.34358e-06 3.32391e-07 -3.62634e-05
0.00208506 -0.000187344 -3.39157e-06
-0.000187344 4.32585e-05 7.26383e-07
-3.39157e-06 7.26383e-07 2.6667e-05
0.00212652 -0.000348597 -2.34412e-06
-0.000348597 3.7675e-05 6.25118e-07
-2.34412e-06 6.25118e-07 4.13251e-06
0.00153003 -0.000530432 -8.73053e-08
-0.000530432 0.000456931 -5.78438e-07
-8.73053e-08 -5.78438e-07 7.00741e-05
0.001506 -0.000660409 2.15537e-05
-0.000660409 0.000292976 -7.35288e-06
2.15537e-05 -7.35288e-06 -0.000137802
0.00193588 -0.00076533 4.06562e-07
-0.00076533 0.000319432 4.11651e-07
4.06562e-07 4.11651e-07 -9.40764e-05
0.00206069 -0.000455519 -1.71495e-06
-0.000455519 7.79737e-05 1.53755e-06
-1.71495e-06 1.53755e-06 -1.60189e-05
0.00211349 -0.000592816 8.37904e-06
-0.000592816 0.000175107 3.25142e-06
8.37904e-06 3.25142e-06 -2.50408e-06
0.00224184 -0.000655762 1.66502e-05
-0.000655762 0.000344999 -6.78451e-06
1.66502e-05 -6.78451e-06 7.09576e-05
0.00112987 -0.000442273 5.03985e-06
-0.000442273 0.000252838 -5.73135e-06
5.03985e-06 -5.73135e-06 -0.000112227
0.00162788 -0.000508658 1.29178e-05
-0.000508658 0.000584554 -1.68841e-05
1.29178e-05 -1.68841e-05 0.000192052
0.00104616 -0.000379193 -7.54372e-08
-0.000379193 0.000327466 -1.30516e-05
-7.54372e-08 -1.30516e-05 -4.18459e-05
0.00023468 3.92652e-05 3.84612e-06
3.92652e-05 -0.00013299 2.13103e-06
3.84612e-06 2.13103e-06 -0.000230209
0.00162904 -0.000268576 3.48102e-06
-0.000268576 0.00076225 4.30083e-06
3.48102e-06 4.30083e-06 0.000475541
-0.000256989 6.33821e-08 6.21282e-06
6.33821e-08 -0.000372702 8.42524e-07
6.21282e-06 8.42524e-07 -0.000602282
0.00206248 -9.44139e-05 -5.43978e-07
-9.44139e-05 -9.28306e-06 1.28917e-07
-5.43978e-07 1.28917e-07 6.9391e-06
0.00217175 -0.000255609 1.00941e-07
-0.000255609 -3.89083e-05 -9.29394e-08
1.00941e-07 -9.29394e-08 -5.68191e-06
0.00219518 -0.000429565 -6.95841e-07
-0.000429565 2.12326e-05 3.29368e-07
-6.95841e-07 3.29368e-07 9.69744e-06
0.00163667 -0.000614829 -6.31174e-07
-0.000614829 0.000500414 8.24084e-07
-6.31174e-07 8.24084e-07 7.64519e-05
0.00132696 -0.000728875 5.08644e-06
-0.000728875 0.000163731 -2.04451e-06
5.08644e-06 -2.04451e-06 -0.000301935
0.00238256 -0.000827154 -4.34815e-06
-0.000827154 0.000583031 -1.62609e-07
-4.34815e-06 -1.62609e-07 0.000164896
0.00221207 -0.00055695 2.19416e-07
-0.00055695 6.86745e-05 -6.07629e-07
2.19416e-07 -6.07629e-07 -1.0472e-05
0.00204207 -0.000675132 2.42685e-06
-0.000675132 0.000166912 -1.37537e-06
2.42685e-06 -1.37537e-06 -7.06877e-05
0.00026018 6.04635e-05 -1.6999e-06
6.04635e-05 -0.000118086 -1.31046e-06
-1.6999e-06 -1.31046e-06 -0.00019171
0.000627044 -3.30559e-05 -7.23035e-07
-3.30559e-05 0.000167822 9.2031e-07
-7.23035e-07 9.2031e-07 -3.79263e-06
0.000967136 -0.000480228 -3.23943e-06
-0.000480228 0.000124682 2.2416e-06
-3.23943e-06 2.2416e-06 -0.000257622
0.00152058 -0.000437206 -5.67292e-06
-0.000437206 0.000569144 3.93178e-07
-5.67292e-06 3.93178e-07 0.000142991
0.0016671 -0.000228966 -5.75585e-07
-0.000228966 0.000754479 -1.07265e-06
-5.75585e-07 -1.07265e-06 0.000434484
0.000995162 -0.000202955 -7.71232e-07
-0.000202955 0.000430545 1.51604e-06
-7.71232e-07 1.51604e-06 0.000154119
0.00216371 -0.000131615 -1.77092e-06
-0.000131615 -5.38092e-05 7.64002e-07
-1.77092e-06 7.64002e-07 8.91595e-06
0.00230964 -0.000366717 -2.14701e-06
-0.000366717 -7.70413e-05 1.08268e-06
-2.14701e-06 1.08268e-06 6.73573e-06
0.00228537 -0.00052258 2.70987e-06
-0.00052258 2.10875e-05 -9.48823e-07
2.70987e-06 -9.48823e-07 1.82144e-05
0.00236867 -0.000718498 7.06403e-06
-0.000718498 0.000170221 -4.27936e-06
7.06403e-06 -4.27936e-06 1.66116e-05
0.000877244 -0.000569538 -9.28548e-06
-0.000569538 2.70706e-05 -7.33303e-06
-9.28548e-06 -7.33303e-06 -0.000397154
0.00272814 -0.000911299 -5.67689e-06
-0.000911299 0.000691409 2.10514e-06
-5.67689e-06 2.10514e-06 0.000296733
0.00235876 -0.000928604 -4.31971e-05
-0.000928604 0.00069516 -3.56082e-06
-4.31971e-05 -3.56082e-06 0.000163644
0.000542176 4.5417e-05 -2.96769e-07
4.5417e-05 4.19076e-05 -1.66778e-08
-2.96769e-07 -1.66778e-08 -1.33498e-05
0.000690079 -0.000145856 3.89883e-06
-0.000145856 0.000194157 -1.14328e-06
3.89883e-06 -1.14328e-06 8.07175e-05
0.000362601 8.87456e-05 -8.27546e-06
8.87456e-05 -6.63402e-06 -3.99105e-07
-8.27546e-06 -3.99105e-07 -0.000127246
0.00081203 -7.35625e-05 -4.21697e-06
-7.35625e-05 0.000308301 1.63433e-06
-4.21697e-06 1.63433e-06 8.50832e-05
-6.7463e-05 -0.000141402 2.17675e-06
-0.000141402 -0.000279153 -8.4388e-06
2.17675e-06 -8.4388e-06 -0.00054818
-6.09876e-07 -0.00014755 6.74543e-06
-0.00014755 -0.000224857 -5.0268e-07
6.74543e-06 -5.0268e-07 -0.00062552
0.00135182 -0.000555591 -3.78494e-05
-0.000555591 0.000379339 2.57939e-05
-3.78494e-05 2.57939e-05 -7.32864e-06
0.00311188 -0.000570053 -3.07101e-05
-0.000570053 0.00172638 1.8107e-05
-3.07101e-05 1.8107e-05 0.0010733
0.000452816 4.82843e-05 -2.4174e-07
4.82843e-05 2.03362e-06 -1.88237e-06
-2.4174e-07 -1.88237e-06 -0.000122839
0.00099927 0.000231481 -7.50728e-07
0.000231481 0.000418584 5.33512e-08
-7.50728e-07 5.33512e-08 0.000135582
0.00232347 0.00053137 -3.1406e-06
0.00053137 0.00019524 -1.75047e-06
-3.1406e-06 -1.75047e-06 4.98032e-05
0.00037676 0.000210779 -4.51989e-06
0.000210779 -0.000173507 2.12852e-06
-4.51989e-06 2.12852e-06 -0.000431944
0.00114613 0.00042894 -1.19663e-06
0.00042894 0.000265399 2.00314e-07
-1.19663e-06 2.00314e-07 -7.51346e-05
0.00161665 0.000359185 -1.95752e-06
0.000359185 0.000428665 -2.6098e-06
-1.95752e-06 -2.6098e-06 0.000178013
0.00242146 0.000665521 -7.462e-06
0.000665521 0.000465184 -4.54458e-07
-7.462e-06 -4.54458e-07 0.000182694
0.00242518 0.000663829 -1.19325e-05
0.000663829 0.000345859 4.44738e-06
-1.19325e-05 4.44738e-06 9.32549e-05
0.00164064 0.00066238 -3.7599e-06
0.00066238 0.000462784 1.34915e-06
-3.7599e-06 1.34915e-06 3.34207e-05
0.00175208 0.000773156 -5.81167e-06
0.000773156 0.000289198 -5.3667e-07
-5.81167e-06 -5.3667e-07 -0.000120341
-0.000241695 6.97216e-05 1.11893e-06
6.97216e-05 -0.000396936 1.50485e-06
1.11893e-06 1.50485e-06 -0.000555524
-0.000107135 0.000265233 -4.1415e-07
0.000265233 -0.000185337 -2.47416e-06
-4.1415e-07 -2.47416e-06 -0.000512257
0.00157189 0.000527201 1.19067e-06
0.000527201 0.000476538 1.99877e-07
1.19067e-06 1.99877e-07 0.00010595
0.00169358 0.000367979 -3.63889e-06
0.000367979 0.000532761 1.36459e-06
-3.63889e-06 1.36459e-06 0.000286051
0.00238459 0.000501177 6.87728e-07
0.000501177 -7.06142e-05 -8.02366e-07
6.87728e-07 -8.02366e-07 -4.34451e-05
0.00259207 0.000645819 3.48112e-06
0.000645819 0.000381668 3.17729e-09
3.48112e-06 3.17729e-09 0.000172477
0.00212588 0.000742856 -2.23612e-06
0.000742856 0.000317401 -3.06413e-08
-2.23612e-06 -3.06413e-08 -3.29875e-05
0.00185438 0.00075816 9.84103e-07
0.00075816 0.000438008 1.7247e-07
9.84103e-07 1.7247e-07 -6.76965e-06
-0.000486681 3.57179e-05 -3.08603e-06
3.57179e-05 -0.000539262 4.94691e-06
-3.08603e-06 4.94691e-06 -0.000700623
0.0022611 0.000382643 1.29436e-05
0.000382643 -0.000190027 3.51477e-06
1.29436e-05 3.51477e-06 -0.000109439
0.00304447 0.000568678 8.00978e-06
0.000568678 0.00170108 9.54867e-06
8.00978e-06 9.54867e-06 0.00134652
0.00137113 0.000510323 2.47471e-06
0.000510323 0.000277807 -2.06301e-06
2.47471e-06 -2.06301e-06 -5.94379e-05
0.00257934 0.000625226 -1.29846e-05
0.000625226 0.000195863 -7.2392e-06
-1.29846e-05 -7.2392e-06 0.000126208
0.00121371 0.000690134 4.21345e-06
0.000690134 -0.000311258 -8.22316e-06
4.21345e-06 -8.22316e-06 -0.000641063
0.00275198 0.000881901 1.32564e-06
0.000881901 0.000896827 4.12054e-06
1.32564e-06 4.12054e-06 0.000421043
0.000789253 0.000124141 -1.19314e-06
0.000124141 0.000230751 -2.78812e-06
-1.19314e-06 -2.78812e-06 9.85217e-05
0.000626059 0.000115104 -3.79326e-06
0.000115104 0.000152266 -1.62794e-06
-3.79326e-06 -1.62794e-06 4.16253e-05
0.00111859 0.000109929 -2.52067e-06
0.000109929 0.000460897 3.04411e-06
-2.52067e-06 3.04411e-06 0.000390279
0.000487866 7.92404e-06 9.06408e-07
7.92404e-06 4.77109e-05 -3.67104e-06
9.06408e-07 -3.67104e-06 -6.66836e-05
0.000700437 8.70273e-05 2.52651e-06
8.70273e-05 0.00020738 -1.05422e-06
2.52651e-06 -1.05422e-06 5.20997e-05
-0.000299436 8.31265e-05 -2.82484e-06
8.31265e-05 -0.000384654 5.14987e-06
-2.82484e-06 5.14987e-06 -0.000504317
0.000550632 2.39987e-05 -1.49036e-06
2.39987e-05 9.08362e-05 1.62953e-08
-1.49036e-06 1.62953e-08 -2.93432e-05
0.000322343 -1.19418e-05 -1.05564e-06
-1.19418e-05 -2.38394e-05 -1.27796e-07
-1.05564e-06 -1.27796e-07 -0.00017731
8.72779e-05 5.87036e-05 -6.48485e-07
5.87036e-05 -0.0002011 1.95649e-06
-6.48485e-07 1.95649e-06 -0.000272868
0.000796707 0.000104239 1.17818e-06
0.000104239 0.000271534 -1.58444e-06
1.17818e-06 -1.58444e-06 0.000116732
0.00179977 0.000146154 -1.06424e-07
0.000146154 0.000831049 -1.04305e-06
-1.06424e-07 -1.04305e-06 0.000785375
0.000408569 2.84644e-05 1.06826e-05
2.84644e-05 -4.67266e-06 -8.05269e-06
1.06826e-05 -8.05269e-06 -9.25448e-05
0.000321235 0.000114343 5.92578e-07
0.000114343 -1.38515e-05 2.59579e-06
5.92578e-07 2.59579e-06 -0.000179536
0.00055391 4.97448e-05 1.43228e-06
4.97448e-05 0.000115914 4.12636e-06
1.43228e-06 4.12636e-06 -4.87443e-05
0.000567674 3.27217e-05 2.52098e-06
3.27217e-05 9.19446e-05 3.37752e-06
2.52098e-06 3.37752e-06 -2.93074e-05
0.000477927 -5.98994e-05 -6.87794e-07
-5.98994e-05 2.2276e-05 3.10611e-06
-6.87794e-07 3.10611e-06 -5.90905e-05
0.000485681 1.17896e-05 3.42626e-07
1.17896e-05 2.16856e-05 -3.84495e-07
3.42626e-07 -3.84495e-07 -5.30593e-05
0.00130367 2.9906e-05 3.47239e-06
2.9906e-05 0.000513165 3.24412e-06
3.47239e-06 3.24412e-06 0.000492619
0.000488775 4.58115e-06 2.94097e-07
4.58115e-06 1.40558e-05 -3.5005e-06
2.94097e-07 -3.5005e-06 -5.21713e-05
0.0013152 1.25702e-05 -6.65491e-06
1.25702e-05 0.00051223 -1.73775e-06
-6.65491e-06 -1.73775e-06 0.00049396
0.000741211 -8.01982e-06 2.22238e-05
-8.01982e-06 0.00014503 9.00501e-06
2.22238e-05 9.00501e-06 0.000150262
0.00135026 -8.70309e-06 -8.51347e-06
-8.70309e-06 0.00052781 -6.75794e-06
-8.51347e-06 -6.75794e-06 0.00051066
0.000770196 -1.97471e-05 8.23646e-06
-1.97471e-05 0.000155394 3.5585e-06
8.23646e-06 3.5585e-06 0.000159503
0.000762195 -3.13018e-05 2.86238e-07
-3.13018e-05 0.000147434 -3.02438e-06
2.86238e-07 -3.02438e-06 0.000149578
0.000631208 -1.23293e-05 1.50258e-06
-1.23293e-05 9.16079e-05 -1.40348e-06
1.50258e-06 -1.40348e-06 4.05592e-05
0.000404665 2.79766e-05 -2.6796e-07
2.79766e-05 -6.58734e-05 -3.65556e-06
-2.6796e-07 -3.65556e-06 -8.4649e-05
0.000419962 4.84055e-05 3.43978e-07
4.84055e-05 -4.13958e-05 2.58751e-07
3.43978e-07 2.58751e-07 -6.96975e-05
0.0023875 9.4754e-05 1.13882e-05
9.4754e-05 0.00120309 -4.69009e-06
1.13882e-05 -4.69009e-06 0.00120654
0.000481287 6.40415e-05 5.25041e-06
6.40415e-05 1.28071e-05 7.75429e-06
5.25041e-06 7.75429e-06 -2.92868e-05
0.00277537 0.000131249 -4.97318e-06
0.000131249 0.00146055 -5.65134e-07
-4.97318e-06 -5.65134e-07 0.00145438
0.00342198 0.000118756 -5.3319e-05
0.000118756 0.00186593 6.18514e-06
-5.3319e-05 6.18514e-06 0.00185987
0.00220768 0.000384648 1.60409e-07
0.000384648 2.68094e-05 -3.48121e-07
1.60409e-07 -3.48121e-07 -1.1216e-05
0.00214676 0.000211564 -8.87968e-07
0.000211564 -1.14375e-05 1.05159e-07
-8.87968e-07 1.05159e-07 8.60275e-06
0.0020583 6.81754e-05 -4.90135e-07
6.81754e-05 -1.88771e-05 2.33131e-08
-4.90135e-07 2.33131e-08 2.74055e-06
0.0019878 -8.62154e-06 -4.53741e-06
-8.62154e-06 2.4512e-05 -2.23489e-07
-4.53741e-06 -2.23489e-07 1.42203e-05
0.00204507 -1.11064e-05 -9.46706e-07
-1.11064e-05 -2.31685e-05 -3.22383e-08
-9.46706e-07 -3.22383e-08 -2.71436e-06
0.00218504 0.000108792 -6.81273e-08
0.000108792 -5.11019e-05 3.29259e-07
-6.81273e-08 3.29259e-07 1.02886e-05
0.00229709 0.000317602 -1.22307e-06
0.000317602 -2.59113e-05 -6.57201e-08
-1.22307e-06 -6.57201e-08 7.3274e-06
0.0021634 -1.09787e-05 -2.09559e-06
-1.09787e-05 -6.84898e-05 -1.00385e-07
-2.09559e-06 -1.00385e-07 3.6599e-06
0.00239895 0.000163717 4.61915e-06
0.000163717 -5.04364e-05 -1.39669e-06
4.61915e-06 -1.39669e-06 2.33401e-05
0.00257856 0.000119059 1.3197e-05
0.000119059 0.000136421 1.22889e-05
1.3197e-05 1.22889e-05 0.000219522
0.0020736 -9.27155e-05 -1.43052e-06
-9.27155e-05 -2.7501e-06 9.06428e-10
-1.43052e-06 9.06428e-10 1.15618e-05
0.00214327 -0.000264708 -5.36268e-07
-0.000264708 -6.07916e-05 -1.77706e-07
-5.36268e-07 -1.77706e-07 -2.58422e-05
0.00218576 -0.000421163 -3.37678e-07
-0.000421163 2.16501e-05 -1.9025e-07
-3.37678e-07 -1.9025e-07 8.15431e-06
0.00148333 -0.000603412 8.30722e-06
-0.000603412 0.000407297 -3.8027e-06
8.30722e-06 -3.8027e-06 -1.65544e-05
0.00185695 -0.000787249 2.78934e-05
-0.000787249 0.000470176 -1.47093e-06
2.78934e-05 -1.47093e-06 -8.17612e-06
0.00197567 -0.000759083 1.31625e-05
-0.000759083 0.000356968 -1.18002e-06
1.31625e-05 -1.18002e-06 -3.65431e-05
0.0021584 -0.000561663 8.64094e-07
-0.000561663 4.25209e-05 3.21133e-06
8.64094e-07 3.21133e-06 -4.42759e-05
0.00189232 -0.000649796 9.51084e-06
-0.000649796 0.000100997 3.34566e-06
9.51084e-06 3.34566e-06 -0.000128261
0.000468111 -0.000415356 1.49836e-05
-0.000415356 -0.000176356 -1.96289e-05
1.49836e-05 -1.96289e-05 -0.000547716
0.0014446 -0.000398834 1.78594e-05
-0.000398834 0.000579287 -1.99762e-05
1.78594e-05 -1.99762e-05 0.000134328
0.00108778 -0.000128334 -1.45346e-06
-0.000128334 0.000362912 2.53883e-06
-1.45346e-06 2.53883e-06 6.87554e-05
0.000436376 1.82306e-05 2.92612e-06
1.82306e-05 -9.39633e-06 8.81294e-07
2.92612e-06 8.81294e-07 -7.86142e-05
0.00057606 2.64972e-05 7.00823e-06
2.64972e-05 0.000129183 1.78174e-06
7.00823e-06 1.78174e-06 -3.80901e-05
0.000398777 -0.000140741 1.24073e-06
-0.000140741 4.13773e-05 7.45206e-06
1.24073e-06 7.45206e-06 -0.000224189
0.00217399 -0.000134471 5.7224e-07
-0.000134471 -5.62361e-05 -1.02079e-07
5.7224e-07 -1.02079e-07 8.9413e-06
0.000483951 9.00347e-06 1.77688e-06
9.00347e-06 5.50255e-06 3.37449e-07
1.77688e-06 3.37449e-07 -4.96033e-05
0.00038556 -7.40134e-05 -2.32915e-06
-7.40134e-05 -2.99447e-05 -5.65014e-07
-2.32915e-06 -5.65014e-07 -0.000122519
0.0022849 -0.000356307 -2.02295e-07
-0.000356307 -6.95426e-05 1.40195e-07
-2.02295e-07 1.40195e-07 4.31227e-06
0.00223961 -0.000510088 -1.83609e-06
-0.000510088 3.12321e-06 3.91133e-07
-1.83609e-06 3.91133e-07 7.39781e-06
0.0018253 -0.000692073 -1.54866e-06
-0.000692073 0.000582102 2.12018e-06
-1.54866e-06 2.12018e-06 0.000124697
0.0019133 -0.000869547 8.26469e-06
-0.000869547 0.000466114 7.34508e-07
8.26469e-06 7.34508e-07 -5.84355e-05
0.00204828 -0.000841066 2.75368e-06
-0.000841066 0.000293009 -5.43843e-06
2.75368e-06 -5.43843e-06 -8.36899e-05
0.00231929 -0.00071252 3.0084e-06
-0.00071252 0.000144882 -9.88998e-07
3.0084e-06 -9.88998e-07 -3.66094e-06
0.000680663 1.39933e-05 -8.16025e-07
1.39933e-05 0.000200623 -1.33183e-06
-8.16025e-07 -1.33183e-06 7.65687e-05
0.000783337 -6.31761e-05 1.04516e-06
-6.31761e-05 0.000290359 2.03167e-06
1.04516e-06 2.03167e-06 6.72195e-05
0.00146251 -0.000545665 4.44508e-06
-0.000545665 0.000467372 5.74878e-06
4.44508e-06 5.74878e-06 6.5446e-05
0.00113871 -0.000387133 1.10127e-05
-0.000387133 0.000497773 -9.77002e-06
1.10127e-05 -9.77002e-06 -5.96783e-05
0.000974276 -0.000161752 -1.62586e-07
-0.000161752 0.000307523 -3.94255e-07
-1.62586e-07 -3.94255e-07 -4.81611e-05
0.000220063 -0.00011096 5.28105e-07
-0.00011096 -9.50607e-05 -2.10881e-06
5.28105e-07 -2.10881e-06 -0.000370664
0.0021766 -0.000156472 9.38449e-07
-0.000156472 -0.000202262 -1.32152e-07
9.38449e-07 -1.32152e-07 -0.000111729
0.00228165 -0.000458086 -9.53606e-07
-0.000458086 -0.000225534 3.11878e-06
-9.53606e-07 3.11878e-06 -1.63707e-05
0.00248658 -0.000705684 -3.44531e-06
-0.000705684 8.34931e-05 -2.16782e-06
-3.44531e-06 -2.16782e-06 4.74792e-05
0.0025347 -0.000928863 1.20297e-05
-0.000928863 0.000352057 -5.57705e-06
1.20297e-05 -5.57705e-06 0.000109175
0.00121883 -0.000658064 -4.1356e-06
-0.000658064 0.000268604 -2.01111e-05
-4.1356e-06 -2.01111e-05 -0.000204096
0.00312394 -0.00109761 -1.09239e-05
-0.00109761 0.0010466 7.88372e-06
-1.09239e-05 7.88372e-06 0.000479494
0.000183762 5.39499e-05 -2.72235e-06
5.39499e-05 -0.000150819 -4.64469e-06
-2.72235e-06 -4.64469e-06 -0.000250391
0.000541129 -4.46719e-05 3.98071e-06
-4.46719e-05 7.48571e-05 1.06638e-06
3.98071e-06 1.06638e-06 -1.46602e-05
0.00125349 -0.000165653 -3.21036e-06
-0.000165653 0.000488006 1.43636e-05
-3.21036e-06 1.43636e-05 0.000370635
0.000452992 1.13417e-05 -4.44637e-06
1.13417e-05 4.68815e-05 4.29413e-06
-4.44637e-06 4.29413e-06 -0.000121639
0.000746952 -0.000103322 -4.35677e-06
-0.000103322 0.000243551 7.08383e-06
-4.35677e-06 7.08383e-06 8.87562e-06
0.000884361 -8.14007e-05 1.26159e-05
-8.14007e-05 0.000241795 -9.6881e-06
1.26159e-05 -9.6881e-06 -1.85113e-05
-0.000860997 -0.000323631 2.82508e-07
-0.000323631 -0.000378883 7.85674e-07
2.82508e-07 7.85674e-07 -0.00118858
9.20102e-05 -0.000538488 -5.9692e-05
-0.000538488 -0.000401143 2.4503e-05
-5.9692e-05 2.4503e-05 -0.000760212
0.000454146 8.14025e-05 -1.22937e-06
8.14025e-05 6.1599e-05 -1.97043e-06
-1.22937e-06 -1.97043e-06 -0.000130159
0.000627631 0.000264821 -1.08419e-05
0.000264821 0.000242293 -5.60821e-06
-1.08419e-05 -5.60821e-06 -6.90705e-05
0.00237435 0.000480745 -9.53017e-06
0.000480745 -8.77579e-05 -3.25354e-06
-9.53017e-06 -3.25354e-06 -5.35407e-05
0.00250666 0.000648829 -9.3365e-06
0.000648829 0.000334284 -1.20317e-06
-9.3365e-06 -1.20317e-06 0.00011768
0.00361798 0.000501996 -5.43693e-06
0.000501996 0.00170888 1.18274e-07
-5.43693e-06 1.18274e-07 0.00145019
0.00160434 0.000539841 -3.21173e-06
0.000539841 0.000481639 -1.95789e-06
-3.21173e-06 -1.95789e-06 0.000102836
0.00206092 0.000722715 -6.01501e-06
0.000722715 0.000295103 1.61226e-06
-6.01501e-06 1.61226e-06 -4.77907e-05
0.00205639 0.000772468 -4.23159e-06
0.000772468 0.000539056 -1.2055e-06
-4.23159e-06 -1.2055e-06 9.79415e-05
0.000383735 0.000112548 1.25942e-06
0.000112548 2.66452e-05 -1.42624e-06
1.25942e-06 -1.42624e-06 -0.000173292
0.00243872 0.000367681 -2.48454e-06
0.000367681 -7.70116e-05 -2.01733e-06
-2.48454e-06 -2.01733e-06 8.20593e-06
0.00145692 0.000354531 8.06191e-07
0.000354531 0.000694586 1.16157e-06
8.06191e-07 1.16157e-06 0.000392619
0.00161954 0.000532456 2.52029e-06
0.000532456 0.000462085 1.07298e-06
2.52029e-06 1.07298e-06 0.000113801
0.00260723 0.000620135 1.72161e-06
0.000620135 0.000229691 3.29804e-07
1.72161e-06 3.29804e-07 0.000158784
0.00170928 0.00073514 -1.80586e-06
0.00073514 -1.66761e-05 -4.62342e-06
-1.80586e-06 -4.62342e-06 -0.000351875
0.00221266 0.000808201 -6.67192e-08
0.000808201 0.00060304 5.62822e-07
-6.67192e-08 5.62822e-07 0.000141464
0.00126969 0.000291438 -3.28391e-06
0.000291438 0.000669981 1.5761e-06
-3.28391e-06 1.5761e-06 0.000401174
0.00353141 0.000534321 -7.81422e-05
0.000534321 0.00056478 -1.9934e-05
-7.81422e-05 -1.9934e-05 0.000714581
0.00125779 0.000486037 -7.20639e-06
0.000486037 0.000495144 4.83117e-06
-7.20639e-06 4.83117e-06 0.000152385
0.00158125 0.000617143 -2.90421e-06
0.000617143 0.000368813 -6.49649e-06
-2.90421e-06 -6.49649e-06 -4.66007e-05
0.0023544 0.000822087 -3.15401e-05
0.000822087 0.000194549 -1.92815e-05
-3.15401e-05 -1.92815e-05 -3.37704e-05
0.00110658 0.000696315 -2.17267e-05
0.000696315 -6.28354e-05 -2.54062e-06
-2.17267e-05 -2.54062e-06 -0.000484705
0.000401696 0.000840597 3.2824e-05
0.000840597 -0.00180616 -3.57459e-05
3.2824e-05 -3.57459e-05 -0.00143097
-0.000137094 0.000126776 4.05987e-06
0.000126776 -0.000288074 -1.47911e-06
4.05987e-06 -1.47911e-06 -0.00040843
0.000448675 0.000107295 1.72373e-06
0.000107295 9.56867e-05 2.3218e-06
1.72373e-06 2.3218e-06 1.20535e-05
0.00184097 0.000168701 2.36597e-06
0.000168701 0.000916274 2.74484e-06
2.36597e-06 2.74484e-06 0.000842018
0.000406133 -6.41176e-05 8.28302e-07
-6.41176e-05 8.64525e-06 -4.31242e-06
8.28302e-07 -4.31242e-06 -0.000114504
0.000365223 -3.51279e-05 -4.84205e-07
-3.51279e-05 -2.1825e-06 -1.44519e-06
-4.84205e-07 -1.44519e-06 -0.000151684
0.00108294 0.000193532 4.45552e-07
0.000193532 0.000452506 7.50171e-07
4.45552e-07 7.50171e-07 0.00028493
-0.000116464 3.76114e-05 -7.25122e-06
3.76114e-05 -0.000305158 1.3782e-05
-7.25122e-06 1.3782e-05 -0.000374363
0.000519552 -1.39558e-05 -3.2052e-07
-1.39558e-05 7.93143e-05 -1.43182e-07
-3.2052e-07 -1.43182e-07 -5.09642e-05
0.0004668 7.21962e-05 1.80584e-07
7.21962e-05 3.99394e-05 -7.58402e-07
1.80584e-07 -7.58402e-07 -0.000108484
0.00131609 0.000128833 2.20874e-06
0.000128833 0.000523776 4.58288e-06
2.20874e-06 4.58288e-06 0.000478992
0.000496323 7.35455e-05 1.67545e-06
7.35455e-05 7.29739e-05 7.19183e-07
1.67545e-06 7.19183e-07 -8.07101e-05
0.000702269 6.04123e-05 -1.2529e-06
6.04123e-05 0.000172109 -2.04266e-06
-1.2529e-06 -2.04266e-06 7.24762e-05
0.00157269 0.000138703 -2.52212e-06
0.000138703 0.000725791 -1.33308e-05
-2.52212e-06 -1.33308e-05 0.00067384
0.00087085 0.000145991 -2.10355e-06
0.000145991 0.000259497 -2.3054e-06
-2.10355e-06 -2.3054e-06 0.000112411
0.000972687 0.000138617 1.68095e-06
0.000138617 0.000363318 1.87067e-06
1.68095e-06 1.87067e-06 0.000197647
0.000892862 9.94224e-05 -8.14188e-08
9.94224e-05 0.000327098 2.07828e-06
-8.14188e-08 2.07828e-06 0.000149497
0.000241669 -2.30112e-05 -6.02032e-07
-2.30112e-05 -0.00011493 2.25447e-06
-6.02032e-07 2.25447e-06 -0.000240582
0.00114265 -8.96869e-05 7.31189e-07
-8.96869e-05 0.00052938 -1.54529e-06
7.31189e-07 -1.54529e-06 0.000334912
0.00016219 -4.18484e-05 -1.19298e-06
-4.18484e-05 -0.000161311 3.97324e-06
-1.19298e-06 3.97324e-06 -0.000292059
0.000448773 4.0064e-06 -1.87175e-06
4.0064e-06 1.01955e-05 3.13535e-06
-1.87175e-06 3.13535e-06 -7.60077e-05
0.000467565 3.9209e-05 2.49539e-06
3.9209e-05 1.94638e-05 -1.44338e-07
2.49539e-06 -1.44338e-07 -6.4508e-05
0.000376211 2.1514e-05 -1.32683e-07
2.1514e-05 -6.50126e-05 4.5671e-06
-1.32683e-07 4.5671e-06 -8.93837e-05
0.000422883 6.30935e-06 -2.55314e-06
6.30935e-06 -8.48881e-06 -3.86602e-06
-2.55314e-06 -3.86602e-06 -8.89959e-05
0.00088154 1.64452e-05 -3.60081e-06
1.64452e-05 0.000247018 -1.53898e-06
-3.60081e-06 -1.53898e-06 0.000225561
0.00263949 -3.71584e-06 2.04249e-05
-3.71584e-06 0.00134104 5.60175e-06
2.04249e-05 5.60175e-06 0.00135365
0.00140128 2.60948e-05 -1.08233e-05
2.60948e-05 0.000567509 -6.88969e-06
-1.08233e-05 -6.88969e-06 0.000548628
0.000766981 -1.00949e-05 7.25742e-06
-1.00949e-05 0.000157726 3.46154e-06
7.25742e-06 3.46154e-06 0.000162401
0.000796812 -2.11453e-05 6.46766e-07
-2.11453e-05 0.000168601 -2.72243e-06
6.46766e-07 -2.72243e-06 0.000172424
0.000486081 1.38018e-05 -2.12337e-06
1.38018e-05 8.19115e-06 -2.39817e-06
-2.12337e-06 -2.39817e-06 -4.31945e-05
0.000548798 -2.61966e-05 8.08264e-07
-2.61966e-05 4.34755e-05 -3.14593e-07
8.08264e-07 -3.14593e-07 -9.27169e-06
0.000487916 2.30075e-05 1.19271e-07
2.30075e-05 -1.95461e-05 -3.52813e-06
1.19271e-07 -3.52813e-06 -3.44085e-05
0.000801498 3.87517e-05 -8.87607e-08
3.87517e-05 0.000185862 1.6166e-07
-8.87607e-08 1.6166e-07 0.000168221
0.00222873 7.34176e-05 8.83122e-06
7.34176e-05 0.00109451 -4.58817e-06
8.83122e-06 -4.58817e-06 0.00110308
0.000474897 5.63512e-05 5.17755e-06
5.63512e-05 -1.89892e-06 5.72122e-06
5.17755e-06 5.72122e-06 -3.32943e-05
0.00246439 0.000100844 -2.8579e-06
0.000100844 0.0012531 -2.87972e-07
-2.8579e-06 -2.87972e-07 0.00125504
0.00283277 0.000137406 7.83662e-06
0.000137406 0.00149785 7.77787e-06
7.83662e-06 7.77787e-06 0.00149028
0.00222811 0.000324287 -2.037e-06
0.000324287 -5.90142e-05 -2.3172e-07
-2.037e-06 -2.3172e-07 -2.5669e-05
0.00216482 0.000103687 2.68394e-06
0.000103687 -5.51267e-05 4.91419e-07
2.68394e-06 4.91419e-07 4.82811e-06
0.00205256 -6.63988e-06 -1.18066e-07
-6.63988e-06 -2.03932e-05 -2.6466e-07
-1.18066e-07 -2.6466e-07 2.63131e-06
0.00214853 -7.03101e-06 1.11773e-07
-7.03101e-06 -7.67755e-05 -2.51264e-07
1.11773e-07 -2.51264e-07 -4.8063e-06
0.00236152 0.00016935 -3.20685e-07
0.00016935 -5.92031e-05 4.46004e-07
-3.20685e-07 4.46004e-07 1.38792e-05
0.00232182 9.49459e-05 8.28886e-06
9.49459e-05 -3.8138e-05 -6.09397e-06
8.28886e-06 -6.09397e-06 3.97215e-05
0.00241832 -8.1687e-07 7.85018e-07
-8.1687e-07 -9.9516e-05 -1.70454e-06
7.85018e-07 -1.70454e-06 1.60098e-05
0.00460045 0.000872599 6.52688e-05
0.000872599 -0.000500357 1.39721e-05
6.52688e-05 1.39721e-05 0.000199505
0.00289464 7.49077e-05 -2.28901e-05
7.49077e-05 0.000468827 2.92285e-05
-2.28901e-05 2.92285e-05 0.000685568
0.000482181 0.000110877 -2.89943e-06
0.000110877 4.53216e-05 -1.05079e-06
-2.89943e-06 -1.05079e-06 -5.11941e-05
0.00217962 -0.000135406 1.06997e-06
-0.000135406 -6.14109e-05 -7.54774e-07
1.06997e-06 -7.54774e-07 6.37479e-06
0.00225756 -0.0003455 2.2036e-06
-0.0003455 -6.4114e-05 -8.13959e-07
2.2036e-06 -8.13959e-07 -5.651e-07
0.00219798 -0.00050038 -3.61744e-07
-0.00050038 -1.53018e-05 5.71508e-07
-3.61744e-07 5.71508e-07 -3.59244e-06
0.00118093 -0.000624752 1.58321e-06
-0.000624752 0.000210722 1.01202e-05
1.58321e-06 1.01202e-05 -0.000227981
0.00217674 -0.000890393 2.65668e-05
-0.000890393 0.000613995 9.64002e-06
2.65668e-05 9.64002e-06 9.19172e-05
0.0014357 -0.000773413 -3.10221e-06
-0.000773413 -5.41079e-05 -3.73504e-06
-3.10221e-06 -3.73504e-06 -0.000413191
0.00225083 -0.000707179 -5.41693e-06
-0.000707179 0.000106843 2.30225e-06
-5.41693e-06 2.30225e-06 -3.64027e-05
0.0016333 -0.000535072 4.54506e-05
-0.000535072 0.000490474 -3.50923e-05
4.54506e-05 -3.50923e-05 0.000127188
0.00152508 -0.000452442 3.16034e-05
-0.000452442 0.000683126 -3.13328e-05
3.16034e-05 -3.13328e-05 0.000186857
0.000576271 -6.0888e-05 -2.83115e-07
-6.0888e-05 1.94742e-05 4.37967e-06
-2.83115e-07 4.37967e-06 -0.000297756
0.000482845 1.01132e-05 2.44175e-06
1.01132e-05 5.40967e-06 7.79124e-07
2.44175e-06 7.79124e-07 -5.03293e-05
0.00140917 -0.000124634 1.28703e-06
-0.000124634 0.000649391 8.13297e-06
1.28703e-06 8.13297e-06 0.000352581
0.000882874 -2.20299e-05 7.69235e-06
-2.20299e-05 0.000339819 -1.42829e-06
7.69235e-06 -1.42829e-06 0.000211122
0.000689716 -5.67547e-05 2.98249e-06
-5.67547e-05 0.000221229 -9.22648e-07
2.98249e-06 -9.22648e-07 3.80848e-06
0.00010681 -4.48027e-05 -3.3609e-06
-4.48027e-05 -0.000212918 -4.43567e-07
-3.3609e-06 -4.43567e-07 -0.000301285
0.00225309 -0.000174563 -4.14329e-07
-0.000174563 -0.000187198 6.56333e-08
-4.14329e-07 6.56333e-08 -6.96958e-05
0.000338441 2.7564e-05 4.67979e-07
2.7564e-05 -4.11056e-05 -2.51998e-06
4.67979e-07 -2.51998e-06 -0.000146135
0.000594517 -6.04102e-05 2.65296e-06
-6.04102e-05 0.000124708 9.78555e-07
2.65296e-06 9.78555e-07 2.49019e-05
0.000938125 -0.000134846 4.1545e-06
-0.000134846 0.000290007 1.73708e-07
4.1545e-06 1.73708e-07 0.000183964
0.00230462 -0.000471646 2.09654e-06
-0.000471646 -0.000191455 -8.44389e-07
2.09654e-06 -8.44389e-07 -2.17508e-05
0.00240091 -0.000699977 5.33131e-07
-0.000699977 3.76571e-05 -5.59053e-07
5.33131e-07 -5.59053e-07 1.67779e-06
0.000530128 -0.000510789 7.22848e-06
-0.000510789 -0.000131006 -2.58968e-07
7.22848e-06 -2.58968e-07 -0.000536175
0.00270259 -0.00105953 1.89365e-05
-0.00105953 0.000787577 2.49559e-07
1.89365e-05 2.49559e-07 0.000244111
0.00239655 -0.000919829 -7.3083e-07
-0.000919829 0.000291843 2.19292e-06
-7.3083e-07 2.19292e-06 3.87123e-05
0.000301743 -2.5735e-05 -5.60099e-07
-2.5735e-05 -4.61808e-05 3.65183e-07
-5.60099e-07 3.65183e-07 -0.000207939
0.00108716 -0.000131184 -7.31112e-07
-0.000131184 0.000478735 4.10767e-06
-7.31112e-07 4.10767e-06 0.000216585
0.00174958 -0.000747017 -6.44367e-07
-0.000747017 0.000569537 1.80494e-06
-6.44367e-07 1.80494e-06 0.000117702
0.000109505 -0.000229158 -1.69549e-06
-0.000229158 -1.44e-05 2.40539e-06
-1.69549e-06 2.40539e-06 -0.000642447
0.00127784 -0.000129872 1.5359e-06
-0.000129872 0.000490662 5.77255e-06
1.5359e-06 5.77255e-06 0.000224704
0.00270586 -0.000330675 -7.8511e-06
-0.000330675 8.09261e-05 1.93695e-06
-7.8511e-06 1.93695e-06 0.000207848
0.00207182 -0.000524643 -1.57432e-05
-0.000524643 -0.000308131 7.32105e-06
-1.57432e-05 7.32105e-06 -6.44085e-05
0.00218229 -0.000829645 -6.26706e-06
-0.000829645 4.106e-05 -2.47373e-06
-6.26706e-06 -2.47373e-06 -0.000141166
0.00455678 -0.00124552 -6.68693e-06
-0.00124552 0.00163091 -3.73519e-06
-6.68693e-06 -3.73519e-06 0.00126533
5.21053e-05 -0.00062705 -1.99626e-05
-0.00062705 -0.000436023 -7.97258e-06
-1.99626e-05 -7.97258e-06 -0.000877423
1.36554e-05 -2.88024e-05 8.27906e-07
-2.88024e-05 -0.000238121 1.23132e-06
8.27906e-07 1.23132e-06 -0.000347491
0.00080822 9.44115e-06 -4.85804e-06
9.44115e-06 0.000185195 1.33397e-05
-4.85804e-06 1.33397e-05 7.80938e-05
-0.00158886 -0.000123127 -6.79136e-06
-0.000123127 -0.00127918 1.43286e-06
-6.79136e-06 1.43286e-06 -0.0013594
0.0021274 -0.000301133 -2.5442e-05
-0.000301133 0.00111293 2.56184e-05
-2.5442e-05 2.56184e-05 0.000888635
0.000916847 -0.000106324 -5.65016e-06
-0.000106324 0.000351796 2.74819e-05
-5.65016e-06 2.74819e-05 0.000109862
-0.00143393 -0.000118133 7.56544e-06
-0.000118133 -0.000504575 1.19935e-06
7.56544e-06 1.19935e-06 -0.00127269
0.000466077 -0.000810864 -2.29248e-05
-0.000810864 0.000119389 1.10836e-05
-2.29248e-05 1.10836e-05 -0.000543635
0.00171817 0.000263456 -4.86583e-06
0.000263456 0.000862387 -6.80984e-06
-4.86583e-06 -6.80984e-06 0.000628988
-0.000683119 8.30318e-05 -5.59492e-06
8.30318e-05 -0.000652765 -2.19523e-06
-5.59492e-06 -2.19523e-06 -0.000888548
0.00258878 0.000343294 7.06919e-07
0.000343294 9.48688e-06 1.23985e-06
7.06919e-07 1.23985e-06 0.000110015
0.00258831 0.000612424 1.13167e-05
0.000612424 0.000228191 5.69416e-06
1.13167e-05 5.69416e-06 0.00016093
0.00215309 0.000775213 5.12094e-06
0.000775213 0.00024618 2.80056e-06
5.12094e-06 2.80056e-06 -9.30584e-05
0.00158412 0.000522553 -1.77404e-06
0.000522553 0.000469368 1.40165e-06
-1.77404e-06 1.40165e-06 0.000118063
0.00174037 0.000744552 1.75983e-06
0.000744552 0.000346725 3.07504e-06
1.75983e-06 3.07504e-06 -0.000101716
0.00202409 0.000326106 7.82612e-07
0.000326106 0.0010699 -7.81801e-07
7.82612e-07 -7.81801e-07 0.00083011
0.00280144 0.000433019 5.97865e-06
0.000433019 0.000181686 3.00989e-06
5.97865e-06 3.00989e-06 0.000364826
0.00120711 0.000419582 -4.02422e-06
0.000419582 0.000430422 4.0196e-06
-4.02422e-06 4.0196e-06 0.000123507
0.00167075 0.000632858 3.39627e-06
0.000632858 0.000460589 -3.50226e-07
3.39627e-06 -3.50226e-07 2.85528e-05
0.00232007 0.000800409 -3.16684e-06
0.000800409 0.000193156 -3.55119e-06
-3.16684e-06 -3.55119e-06 -1.41071e-05
0.00184261 0.000791211 -4.40506e-06
0.000791211 0.000350399 5.37567e-06
-4.40506e-06 5.37567e-06 -9.3104e-05
0.00308353 0.00115825 3.87443e-05
0.00115825 -0.000656868 7.88293e-06
3.87443e-05 7.88293e-06 -0.000459661
0.000280394 0.000269744 -1.92305e-06
0.000269744 8.88459e-05 1.23866e-06
-1.92305e-06 1.23866e-06 -0.000174025
0.00280247 0.000792552 -8.2529e-05
0.000792552 0.000303577 -3.81051e-05
-8.2529e-05 -3.81051e-05 0.00026763
0.00064238 0.000413857 -7.81204e-06
0.000413857 -9.47378e-05 2.77197e-06
-7.81204e-06 2.77197e-06 -0.000420417
-3.71813e-05 0.000479119 -7.97476e-07
0.000479119 -0.00054876 -1.57113e-05
-7.97476e-07 -1.57113e-05 -0.000951814
0.0013996 0.000858933 -3.83663e-05
0.000858933 -0.000106272 -1.29184e-05
-3.83663e-05 -1.29184e-05 -0.000387642
0.0148535 0.000419304 -0.000518101
0.000419304 0.00219999 -8.87806e-05
-0.000518101 -8.87806e-05 0.0017975
0.00352461 0.00178312 -6.17831e-05
0.00178312 -0.00210858 -6.65595e-05
-6.17831e-05 -6.65595e-05 -0.000737028
0.000409839 0.00132423 1.34256e-05
0.00132423 -0.000865474 1.34251e-06
1.34256e-05 1.34251e-06 -0.0011091
0.00292719 -0.00232867 0.00158312
-0.00232867 0.00211156 0.00031709
0.00158312 0.00031709 -0.00139345
0.0226106 -0.00890419 -4.7744e-05
-0.00890419 0.00896229 8.13419e-05
-4.7744e-05 8.13419e-05 0.00603539
-4.68224e-05 0.000105953 7.44735e-06
0.000105953 -0.000172706 1.52354e-06
7.44735e-06 1.52354e-06 -0.000265446
0.000828472 0.000114135 -1.15834e-06
0.000114135 0.000335741 -2.82067e-06
-1.15834e-06 -2.82067e-06 0.000259113
0.00195107 0.000281774 1.89903e-06
0.000281774 0.00105632 -3.29446e-07
1.89903e-06 -3.29446e-07 0.00092721
0.000491342 -5.62737e-05 -3.60223e-07
-5.62737e-05 7.15979e-05 -2.96689e-06
-3.60223e-07 -2.96689e-06 -6.38514e-05
0.000353025 6.5996e-05 -8.17754e-07
6.5996e-05 -3.073e-05 -3.55247e-06
-8.17754e-07 -3.55247e-06 -0.000178837
0.000739502 -2.61054e-05 -8.031e-08
-2.61054e-05 0.000223431 -1.67886e-06
-8.031e-08 -1.67886e-06 6.75141e-05
0.000798675 8.27869e-05 -3.79606e-06
8.27869e-05 0.000225515 1.07463e-05
-3.79606e-06 1.07463e-05 0.000119919
0.000114408 8.51101e-05 1.75648e-06
8.51101e-05 -0.000222956 8.37769e-06
1.75648e-06 8.37769e-06 -0.000262777
0.00077861 0.000152533 -1.31676e-06
0.000152533 0.000272586 -3.92234e-07
-1.31676e-06 -3.92234e-07 8.75845e-05
0.000403292 -1.16878e-05 3.73194e-07
-1.16878e-05 -4.36558e-06 1.04352e-06
3.73194e-07 1.04352e-06 -0.000135674
0.000713441 5.49661e-05 -7.51598e-07
5.49661e-05 0.000207346 4.30123e-08
-7.51598e-07 4.30123e-08 3.76421e-05
0.000254761 9.20885e-05 -1.05569e-06
9.20885e-05 -9.53462e-05 -2.17323e-06
-1.05569e-06 -2.17323e-06 -0.000145452
0.00064904 0.000119792 -1.51339e-06
0.000119792 0.000140714 -2.26415e-07
-1.51339e-06 -2.26415e-07 -3.43571e-06
0.00209671 0.00024828 -1.40192e-06
0.00024828 0.00108351 -7.63586e-07
-1.40192e-06 -7.63586e-07 0.00088688
0.000222022 0.00010439 9.5303e-08
0.00010439 -3.75016e-05 -3.52332e-06
9.5303e-08 -3.52332e-06 -0.000201626
0.00089811 0.000107469 2.87322e-06
0.000107469 0.000331082 1.79918e-07
2.87322e-06 1.79918e-07 0.000157179
0.000298763 -7.22382e-06 7.90491e-07
-7.22382e-06 -7.17596e-05 -3.23721e-08
7.90491e-07 -3.23721e-08 -0.000234864
0.000345292 -7.30231e-05 -7.42727e-07
-7.30231e-05 -4.04013e-05 1.30567e-06
-7.42727e-07 1.30567e-06 -0.000175577
0.000624698 -3.09881e-05 -7.01069e-07
-3.09881e-05 0.000150403 -6.31175e-07
-7.01069e-07 -6.31175e-07 -1.55656e-05
0.00136931 -1.6849e-05 1.24328e-06
-1.6849e-05 0.000612725 -1.06922e-05
1.24328e-06 -1.06922e-05 0.000452396
0.000729419 -5.00882e-05 -9.11515e-07
-5.00882e-05 0.000258919 -1.14624e-06
-9.11515e-07 -1.14624e-06 9.54487e-05
0.000740434 -7.63028e-05 1.89854e-06
-7.63028e-05 0.00024229 -8.07754e-07
1.89854e-06 -8.07754e-07 7.38149e-05
0.000654389 -0.000126695 -1.93036e-06
-0.000126695 0.000159148 3.52282e-06
-1.93036e-06 3.52282e-06 2.24264e-05
0.000266202 -2.49384e-05 2.32214e-07
-2.49384e-05 -9.16111e-05 1.01817e-06
2.32214e-07 1.01817e-06 -0.000226383
0.000501393 -5.86582e-05 -1.80452e-06
-5.86582e-05 3.32974e-05 4.06941e-06
-1.80452e-06 4.06941e-06 -4.7308e-05
0.000498036 -3.94465e-05 1.96388e-06
-3.94465e-05 3.85329e-05 1.10322e-07
1.96388e-06 1.10322e-07 -4.64307e-05
0.000431428 2.59527e-06 3.04994e-06
2.59527e-06 -2.69207e-05 6.46313e-06
3.04994e-06 6.46313e-06 -5.28052e-05
0.000506925 5.35644e-05 -1.78768e-06
5.35644e-05 3.80018e-05 -3.40332e-06
-1.78768e-06 -3.40332e-06 -4.18701e-05
0.000396559 3.25607e-05 3.39858e-07
3.25607e-05 -5.01176e-05 7.58995e-08
3.39858e-07 7.58995e-08 -7.55917e-05
0.00255666 5.79262e-06 6.59769e-06
5.79262e-06 0.00129101 5.42823e-06
6.59769e-06 5.42823e-06 0.00130323
0.000454678 4.2437e-05 -3.80405e-06
4.2437e-05 -1.77224e-05 -7.45753e-06
-3.80405e-06 -7.45753e-06 -4.41046e-05
0.00171489 -4.58877e-06 -4.17542e-06
-4.58877e-06 0.00075841 1.8127e-07
-4.17542e-06 1.8127e-07 0.000766134
0.000816743 -1.08841e-05 4.89459e-07
-1.08841e-05 0.000184296 -2.39004e-06
4.89459e-07 -2.39004e-06 0.000188981
0.000431396 7.28503e-06 -3.01256e-07
7.28503e-06 -3.09693e-05 -1.67417e-06
-3.01256e-07 -1.67417e-06 -7.34466e-05
0.000527792 -3.88249e-05 1.12107e-07
-3.88249e-05 3.77268e-05 2.5908e-08
1.12107e-07 2.5908e-08 -1.57655e-05
0.000516601 1.20145e-05 1.03649e-06
1.20145e-05 -4.16899e-06 -3.3042e-06
1.03649e-06 -3.3042e-06 -1.57272e-05
0.000480145 -3.96502e-05 -1.40246e-06
-3.96502e-05 1.56706e-06 2.96295e-07
-1.40246e-06 2.96295e-07 -5.17339e-05
0.000796056 2.7856e-05 -1.6675e-07
2.7856e-05 0.000175486 -7.12659e-07
-1.6675e-07 -7.12659e-07 0.000162762
0.00203416 5.38606e-05 5.60921e-06
5.38606e-05 0.000964899 -4.62717e-06
5.60921e-06 -4.62717e-06 0.000977835
0.000455837 3.49029e-05 1.24872e-06
3.49029e-05 -3.20895e-05 3.8251e-06
1.24872e-06 3.8251e-06 -5.23911e-05
0.00237948 7.99616e-05 -5.62163e-06
7.99616e-05 0.00119286 1.18907e-06
-5.62163e-06 1.18907e-06 0.00119973
0.0026132 0.000110026 9.09832e-07
0.000110026 0.00134942 6.02405e-06
9.09832e-07 6.02405e-06 0.00134927
0.00231892 0.000177329 -2.44471e-06
0.000177329 -6.92224e-05 -7.74775e-07
-2.44471e-06 -7.74775e-07 3.4863e-06
0.0021385 -5.95591e-06 2.2829e-06
-5.95591e-06 -8.15415e-05 -3.66877e-07
2.2829e-06 -3.66877e-07 -1.01439e-05
0.00208249 6.83448e-05 -8.29808e-06
6.83448e-05 -0.000211316 3.70217e-06
-8.29808e-06 3.70217e-06 -0.000135641
0.00257703 0.000654148 9.67102e-05
0.000654148 -0.00154894 2.08564e-05
9.67102e-05 2.08564e-05 -0.000749787
0.00240535 -3.00224e-05 -4.08088e-08
-3.00224e-05 -8.36471e-05 -2.81149e-06
-4.08088e-08 -2.81149e-06 3.05764e-05
0.00223533 6.71106e-05 -1.55194e-07
6.71106e-05 7.43574e-05 -9.56222e-06
-1.55194e-07 -9.56222e-06 0.000227392
0.00316294 -4.40606e-05 -2.45684e-05
-4.40606e-05 0.000748564 -1.49252e-06
-2.45684e-05 -1.49252e-06 0.000786463
0.00328276 0.000168107 -1.82132e-05
0.000168107 -0.00196212 -4.23313e-05
-1.82132e-05 -4.23313e-05 -0.000811394
0.00253408 0.000223455 0.000132637
0.000223455 -0.000903466 4.87409e-05
0.000132637 4.87409e-05 -0.000354932
0.000591561 8.90562e-05 -7.57378e-09
8.90562e-05 0.000116335 -8.1736e-07
-7.57378e-09 -8.1736e-07 2.0552e-05
0.000575617 -3.14982e-06 3.5613e-07
-3.14982e-06 0.000117917 -1.1384e-07
3.5613e-07 -1.1384e-07 1.30251e-05
0.000331215 -9.06159e-05 -6.33991e-06
-9.06159e-05 -2.33277e-05 1.63532e-06
-6.33991e-06 1.63532e-06 -0.000140016
0.000402026 -4.66827e-05 -3.9451e-06
-4.66827e-05 2.45848e-05 2.07066e-06
-3.9451e-06 2.07066e-06 -9.48643e-05
0.00233558 -0.000194847 -3.30962e-06
-0.000194847 -0.000160432 -7.19374e-07
-3.30962e-06 -7.19374e-07 -2.50342e-05
0.00230288 -0.000479373 5.56771e-07
-0.000479373 -0.000165203 -2.27402e-06
5.56771e-07 -2.27402e-06 -3.38455e-05
0.00231704 -0.000691252 -3.58442e-06
-0.000691252 -4.04845e-06 2.01548e-06
-3.58442e-06 2.01548e-06 -4.06538e-05
0.0037115 -0.000870846 2.11626e-05
-0.000870846 0.00169755 1.44541e-05
2.11626e-05 1.44541e-05 0.00122451
0.000315036 -0.000801433 -1.71664e-06
-0.000801433 -0.000557915 2.30352e-06
-1.71664e-06 2.30352e-06 -0.00104957
0.00233618 -0.000918179 -8.15583e-07
-0.000918179 0.000272278 -8.99069e-07
-8.15583e-07 -8.99069e-07 9.57481e-06
0.000835531 -0.000708375 2.41768e-05
-0.000708375 1.27341e-05 -2.15496e-05
2.41768e-05 -2.15496e-05 -0.00047605
0.00359856 -0.000336307 1.06275e-05
-0.000336307 0.00176527 -7.21344e-06
1.06275e-05 -7.21344e-06 0.00136256
-9.64639e-05 -1.85127e-05 -7.47636e-06
-1.85127e-05 -0.00043258 3.67252e-06
-7.47636e-06 3.67252e-06 -0.000644875
0.000648742 -6.08652e-05 3.83643e-06
-6.08652e-05 0.000157852 -9.84137e-07
3.83643e-06 -9.84137e-07 5.85916e-05
0.000604664 -0.000140005 -4.3275e-06
-0.000140005 0.000194623 -1.30323e-05
-4.3275e-06 -1.30323e-05 -7.00324e-05
0.000433204 -2.46655e-05 5.99577e-06
-2.46655e-05 3.55296e-05 -1.51183e-06
5.99577e-06 -1.51183e-06 -0.000120667
0.000580829 1.0213e-06 5.51445e-07
1.0213e-06 0.000137505 1.76388e-06
5.51445e-07 1.76388e-06 1.97366e-05
0.000673188 -8.08386e-05 -7.96162e-06
-8.08386e-05 0.000125062 -9.37896e-07
-7.96162e-06 -9.37896e-07 3.15432e-05
0.00264392 -0.000312404 2.08719e-06
-0.000312404 5.49538e-05 1.44284e-06
2.08719e-06 1.44284e-06 0.000198557
0.00047853 -2.65875e-05 -8.21971e-07
-2.65875e-05 7.23793e-05 2.14163e-06
-8.21971e-07 2.14163e-06 -5.85744e-05
0.000821695 -5.03319e-05 6.99815e-06
-5.03319e-05 0.000206607 -3.15788e-07
6.99815e-06 -3.15788e-07 8.9251e-05
-0.000801301 -4.60174e-05 5.09918e-06
-4.60174e-05 -0.000722798 -6.04311e-07
5.09918e-06 -6.04311e-07 -0.000783748
0.00206435 -0.000537657 7.74962e-07
-0.000537657 -0.000333995 -1.29246e-06
7.74962e-07 -1.29246e-06 -0.00010789
0.0022982 -0.000841092 2.15721e-06
-0.000841092 9.93258e-05 -1.33566e-06
2.15721e-06 -1.33566e-06 -7.76435e-05
0.00196328 -0.000881982 -5.08527e-06
-0.000881982 0.000626309 7.09162e-07
-5.08527e-06 7.09162e-07 0.000138315
0.0026678 -0.00105529 -6.19758e-06
-0.00105529 0.000600368 1.53814e-06
-6.19758e-06 1.53814e-06 0.000258554
0.00148904 -0.000166106 4.3685e-06
-0.000166106 0.000702161 -2.996e-06
4.3685e-06 -2.996e-06 0.000487007
0.000134425 -3.95485e-05 8.00922e-06
-3.95485e-05 -0.000163418 9.97374e-06
8.00922e-06 9.97374e-06 -0.000401778
0.00180218 -0.00106373 1.30182e-06
-0.00106373 0.000956183 -2.84427e-06
1.30182e-06 -2.84427e-06 0.00020248
0.00112281 -0.000409075 -8.13128e-06
-0.000409075 0.000496413 -4.97772e-07
-8.13128e-06 -4.97772e-07 -1.2391e-05
0.00344088 -0.000459443 -4.53837e-05
-0.000459443 0.000441374 6.44315e-06
-4.53837e-05 6.44315e-06 0.000707959
0.00269917 -0.000701687 -4.13776e-05
-0.000701687 0.00024499 1.29029e-05
-4.13776e-05 1.29029e-05 0.000306088
0.00262319 -0.000980786 3.74774e-06
-0.000980786 0.000476759 -1.09358e-05
3.74774e-06 -1.09358e-05 0.000142548
0.00307024 -0.001061 7.03543e-06
-0.001061 0.00104418 6.18828e-06
7.03543e-06 6.18828e-06 0.000685312
2.55478e-05 -7.06551e-05 -2.19249e-06
-7.06551e-05 -0.000133159 -7.62787e-06
-2.19249e-06 -7.62787e-06 -0.00026477
0.000441833 -0.000133918 -1.36866e-05
-0.000133918 6.02967e-05 -1.7967e-06
-1.36866e-05 -1.7967e-06 -0.000134692
0.000132873 -0.000191813 -7.17544e-06
-0.000191813 0.000142469 5.25916e-05
-7.17544e-06 5.25916e-05 -0.000194222
-0.000283565 -0.000911942 -3.16126e-06
-0.000911942 0.000429072 -2.76968e-05
-3.16126e-06 -2.76968e-05 -0.000674275
0.00280153 -0.000457474 6.04696e-05
-0.000457474 -0.00538908 -2.32453e-05
6.04696e-05 -2.32453e-05 -0.00544132
0.00240695 0.000306085 1.1908e-06
0.000306085 0.00128 -3.35773e-06
1.1908e-06 -3.35773e-06 0.0010432
0.00130899 0.000370474 -1.62009e-06
0.000370474 0.000477363 1.08925e-07
-1.62009e-06 1.08925e-07 0.000194719
0.00191252 0.000351821 5.51141e-05
0.000351821 -0.000313362 1.66776e-05
5.51141e-05 1.66776e-05 -0.000103732
0.00255093 0.000805191 2.38552e-05
0.000805191 0.00033396 1.00901e-05
2.38552e-05 1.00901e-05 0.000139115
0.00224258 0.000841665 8.4069e-06
0.000841665 0.000584953 1.14927e-05
8.4069e-06 1.14927e-05 0.000127122
0.00127956 0.000590113 7.30428e-06
0.000590113 0.000263882 7.63211e-06
7.30428e-06 7.63211e-06 -0.000172201
0.00550146 0.0015021 0.000113397
0.0015021 0.000264832 3.2477e-05
0.000113397 3.2477e-05 0.000261533
0.00130246 0.000317696 5.18364e-06
0.000317696 0.000681796 5.48336e-07
5.18364e-06 5.48336e-07 0.000428224
0.00264181 0.000753178 -2.46102e-05
0.000753178 0.000203236 8.44465e-07
-2.46102e-05 8.44465e-07 0.0002017
0.000908357 0.000447122 -5.29718e-06
0.000447122 0.000109207 3.9435e-06
-5.29718e-06 3.9435e-06 -0.000231979
0.00147101 0.000681225 6.32729e-07
0.000681225 0.00032292 -6.81336e-06
6.32729e-07 -6.81336e-06 -0.000121652
0.00232042 0.000936967 -1.13236e-05
0.000936967 0.000389822 -3.54541e-07
-1.13236e-05 -3.54541e-07 8.07018e-05
0.00479034 -0.000650844 -0.000166805
-0.000650844 -0.00492332 -9.20005e-05
-0.000166805 -9.20005e-05 -0.00572768
0.00693213 0.00186383 -0.000148144
0.00186383 -0.000473468 -6.07004e-05
-0.000148144 -6.07004e-05 0.00067072
0.00123998 0.00133382 -6.95068e-07
0.00133382 -0.000405665 5.21372e-06
-6.95068e-07 5.21372e-06 -0.000764117
0.00126727 -0.00211657 0.000566589
-0.00211657 0.00299883 0.000216768
0.000566589 0.000216768 -1.79767e-05
0.0146532 -0.00910256 -0.000500495
-0.00910256 0.00719282 -0.000453148
-0.000500495 -0.000453148 0.00408487
0.0006531 0.000257816 -1.4564e-05
0.000257816 0.000167732 -1.81454e-06
-1.4564e-05 -1.81454e-06 -5.54279e-05
0.00145005 0.000543696 0.000799527
0.000543696 0.00427359 7.02987e-05
0.000799527 7.02987e-05 0.00226008
0.00404728 -0.00333131 -0.000179119
-0.00333131 0.00599295 -0.000230229
-0.000179119 -0.000230229 0.000562504
0.00325116 0.00121373 -5.92551e-05
0.00121373 0.000669098 -1.51208e-05
-5.92551e-05 -1.51208e-05 0.000465954
0.000655233 0.000354439 -2.78554e-05
0.000354439 -4.36579e-05 -5.48912e-06
-2.78554e-05 -5.48912e-06 -0.000343158
0.000872704 0.0006991 -3.37702e-05
0.0006991 4.69222e-05 -2.83929e-05
-3.37702e-05 -2.83929e-05 -0.000329861
-0.000413312 0.00117484 5.46264e-05
0.00117484 -0.00099481 9.81994e-05
5.46264e-05 9.81994e-05 -0.00136307
0.0125123 0.0025543 6.05299e-05
0.0025543 0.0012908 -1.63675e-05
6.05299e-05 -1.63675e-05 0.000537268
0.00503745 0.00275426 -5.48926e-05
0.00275426 -0.000250806 -5.06671e-05
-5.48926e-05 -5.06671e-05 0.00048677
0.0162017 -0.00671605 0.00102896
-0.00671605 0.00529482 0.000528339
0.00102896 0.000528339 0.00128749
0.0134773 -0.00306352 -0.000108341
-0.00306352 0.00400206 0.000638137
-0.000108341 0.000638137 0.00217441
0.000303616 8.0035e-05 4.17392e-06
8.0035e-05 5.38488e-05 -5.82599e-06
4.17392e-06 -5.82599e-06 -3.59317e-05
0.000215138 0.000135905 8.13162e-06
0.000135905 -2.72588e-06 1.47682e-06
8.13162e-06 1.47682e-06 -0.000115904
0.00192503 0.000308652 2.83268e-06
0.000308652 0.00105491 -2.23061e-06
2.83268e-06 -2.23061e-06 0.000866317
0.000582427 6.84042e-06 1.2271e-06
6.84042e-06 0.000133899 -2.9147e-08
1.2271e-06 -2.9147e-08 -1.4233e-05
0.000598979 7.09192e-05 -4.22686e-07
7.09192e-05 0.000127297 -2.45347e-06
-4.22686e-07 -2.45347e-06 -3.49401e-05
-3.57607e-05 3.73552e-05 -1.56188e-06
3.73552e-05 -0.000257306 7.38529e-07
-1.56188e-06 7.38529e-07 -0.000417132
0.00081077 0.000124937 -7.75153e-06
0.000124937 0.000263977 2.0669e-06
-7.75153e-06 2.0669e-06 0.000114449
-0.000373512 6.70248e-05 -3.7624e-06
6.70248e-05 -0.000504242 -2.97009e-07
-3.7624e-06 -2.97009e-07 -0.000552566
0.000336199 -1.21109e-05 3.38342e-08
-1.21109e-05 -4.0887e-05 7.59135e-07
3.38342e-08 7.59135e-07 -0.000179781
0.00133518 0.000153366 2.0352e-06
0.000153366 0.000584547 1.63868e-07
2.0352e-06 1.63868e-07 0.000407334
0.000560327 6.04146e-05 -7.28487e-08
6.04146e-05 0.000131219 4.96582e-08
-7.28487e-08 4.96582e-08 -4.93682e-05
0.000779506 4.01663e-05 1.34342e-06
4.01663e-05 0.000261225 -3.93857e-07
1.34342e-06 -3.93857e-07 7.66603e-05
0.00026407 0.000103391 -6.08911e-07
0.000103391 -9.61071e-06 -3.04976e-06
-6.08911e-07 -3.04976e-06 -0.000172258
0.00148806 0.000141886 -2.29016e-06
0.000141886 0.000710203 -3.05715e-06
-2.29016e-06 -3.05715e-06 0.000537208
-0.000379071 5.91173e-05 -6.59596e-06
5.91173e-05 -0.000261523 -5.09054e-06
-6.59596e-06 -5.09054e-06 -0.000499819
0.000389921 -7.51596e-05 1.00268e-08
-7.51596e-05 1.54659e-05 1.10646e-07
1.00268e-08 1.10646e-07 -0.000161975
0.000782338 -8.5499e-05 -1.58268e-06
-8.5499e-05 0.000270563 -9.44984e-07
-1.58268e-06 -9.44984e-07 8.64593e-05
0.000804235 -5.25759e-05 -3.13315e-07
-5.25759e-05 0.000281882 -7.08974e-07
-3.13315e-07 -7.08974e-07 0.000100845
0.000666376 -3.38477e-05 -3.94635e-06
-3.38477e-05 0.000157101 4.98738e-07
-3.94635e-06 4.98738e-07 1.62034e-05
0.00111141 9.29109e-06 -6.8373e-06
9.29109e-06 0.000511752 -5.30291e-06
-6.8373e-06 -5.30291e-06 0.000305904
0.000819551 -7.16676e-05 2.91586e-06
-7.16676e-05 0.000261547 -1.03344e-05
2.91586e-06 -1.03344e-05 0.000126139
-0.00135233 7.97776e-07 -3.63832e-06
7.97776e-07 -0.00107113 -7.36614e-06
-3.63832e-06 -7.36614e-06 -0.00118873
0.000273873 -4.30705e-05 2.19603e-06
-4.30705e-05 -2.59763e-05 -2.05619e-06
2.19603e-06 -2.05619e-06 -0.000209517
0.000312707 -7.86531e-05 1.75795e-06
-7.86531e-05 -4.42992e-05 3.20392e-07
1.75795e-06 3.20392e-07 -0.00018269
0.000767478 -0.000116831 -1.11838e-06
-0.000116831 0.000264045 1.82842e-07
-1.11838e-06 1.82842e-07 0.000107247
0.000518636 -8.66208e-05 -1.04898e-06
-8.66208e-05 5.61387e-05 2.39802e-06
-1.04898e-06 2.39802e-06 -6.39294e-05
0.00043551 -9.10366e-05 3.18782e-06
-9.10366e-05 1.6354e-05 5.2859e-07
3.18782e-06 5.2859e-07 -0.000126646
0.000539676 -0.000116442 -1.51883e-08
-0.000116442 8.40812e-05 1.8601e-07
-1.51883e-08 1.8601e-07 -5.14708e-05
0.000535425 -5.76778e-05 -2.0988e-06
-5.76778e-05 5.14107e-05 4.95238e-06
-2.0988e-06 4.95238e-06 -2.99771e-05
0.000382131 -8.15272e-06 8.32727e-07
-8.15272e-06 -8.6283e-07 -1.25935e-06
8.32727e-07 -1.25935e-06 -0.000148066
0.000486844 5.25513e-07 2.31267e-06
5.25513e-07 3.18273e-05 1.45311e-07
2.31267e-06 1.45311e-07 -5.36509e-05
0.00145261 -3.27639e-05 -9.79466e-06
-3.27639e-05 0.000607158 6.96832e-06
-9.79466e-06 6.96832e-06 0.000585422
0.000473035 6.83846e-05 -2.06564e-06
6.83846e-05 2.27173e-05 -3.29847e-06
-2.06564e-06 -3.29847e-06 -6.16344e-05
0.000867174 -1.77698e-05 -4.06297e-06
-1.77698e-05 0.000246199 7.33949e-07
-4.06297e-06 7.33949e-07 0.000222379
0.000785067 3.51155e-06 -2.69441e-06
3.51155e-06 0.000178958 4.79983e-06
-2.69441e-06 4.79983e-06 0.000183292
0.000382513 -2.06155e-05 3.59226e-06
-2.06155e-05 -5.97375e-05 -5.003e-06
3.59226e-06 -5.003e-06 -8.43698e-05
0.00258189 4.08389e-06 7.27417e-06
4.08389e-06 0.00130726 -1.13417e-08
7.27417e-06 -1.13417e-08 0.0013194
0.00088131 3.34709e-06 -9.69534e-06
3.34709e-06 0.000236136 -5.4418e-06
-9.69534e-06 -5.4418e-06 0.000239626
0.000504526 6.7203e-05 2.29646e-06
6.7203e-05 6.32814e-05 8.55251e-07
2.29646e-06 8.55251e-07 -3.86395e-05
0.000453099 5.37771e-05 -2.46927e-06
5.37771e-05 -6.11174e-06 -2.28276e-06
-2.46927e-06 -2.28276e-06 -5.41847e-05
0.000473423 -2.93399e-06 1.59814e-06
-2.93399e-06 7.59288e-06 1.53813e-07
1.59814e-06 1.53813e-07 -4.25797e-05
0.000475501 9.34824e-06 9.63164e-07
9.34824e-06 -2.92477e-05 -3.07381e-06
9.63164e-07 -3.07381e-06 -3.9309e-05
0.000551805 -6.40927e-05 -1.90084e-06
-6.40927e-05 6.12018e-05 2.11145e-06
-1.90084e-06 2.11145e-06 3.00458e-06
0.000471961 1.31088e-05 1.15007e-07
1.31088e-05 -3.25869e-05 -7.23102e-07
1.15007e-07 -7.23102e-07 -4.39416e-05
0.00202044 3.74468e-05 3.76132e-06
3.74468e-05 0.000951843 -4.67308e-06
3.76132e-06 -4.67308e-06 0.000967182
0.0011092 3.62765e-05 -5.24212e-08
3.62765e-05 0.000374709 1.63858e-06
-5.24212e-08 1.63858e-06 0.000363023
0.00147161 4.63771e-05 -3.8382e-07
4.63771e-05 0.000610805 1.43346e-06
-3.8382e-07 1.43346e-06 0.000618837
0.000892546 5.04814e-05 -5.75411e-06
5.04814e-05 0.000251621 8.27352e-06
-5.75411e-06 8.27352e-06 0.000251566
0.000927653 0.00045613 7.5449e-05
0.00045613 -0.0023333 1.55666e-05
7.5449e-05 1.55666e-05 -0.00150644
0.00237932 -5.11388e-05 -4.28223e-06
-5.11388e-05 -6.53239e-05 6.19289e-06
-4.28223e-06 6.19289e-06 4.03024e-05
0.00220543 7.03154e-05 3.11426e-05
7.03154e-05 8.162e-05 -1.2256e-05
3.11426e-05 -1.2256e-05 0.000208859
0.00279758 0.000408314 -5.5861e-05
0.000408314 -0.00190886 -3.74958e-05
-5.5861e-05 -3.74958e-05 -0.000483129
0.00259318 0.00011929 4.77449e-05
0.00011929 -0.000668207 -1.62254e-06
4.77449e-05 -1.62254e-06 -0.000215102
0.00262875 -5.25356e-05 2.54916e-06
-5.25356e-05 0.000341069 -9.79822e-06
2.54916e-06 -9.79822e-06 0.000411515
0.00484878 -0.000378115 -5.9658e-05
-0.000378115 0.00108041 -1.99785e-05
-5.9658e-05 -1.99785e-05 0.00126195
0.00317541 -0.000281242 2.94004e-05
-0.000281242 -0.000545117 -6.0668e-07
2.94004e-05 -6.0668e-07 0.000175814
0.0166839 -0.000881833 5.64189e-05
-0.000881833 0.00284236 -2.38984e-05
5.64189e-05 -2.38984e-05 0.00185321
0.0153617 0.00585307 0.00150955
0.00585307 0.00600187 -0.000463401
0.00150955 -0.000463401 0.00279692
0.0199235 0.00677774 5.43759e-05
0.00677774 0.0128337 1.58626e-05
5.43759e-05 1.58626e-05 0.00957388
0.000156727 -9.92744e-05 -5.08023e-08
-9.92744e-05 -0.000136708 -5.06452e-07
-5.08023e-08 -5.06452e-07 -0.000248268
0.000539157 -5.88377e-06 1.62614e-06
-5.88377e-06 8.23389e-05 -7.96529e-08
1.62614e-06 -7.96529e-08 -1.31173e-05
0.000617996 -8.8207e-05 -3.64607e-07
-8.8207e-05 0.000150675 3.24474e-06
-3.64607e-07 3.24474e-06 3.93334e-05
0.00053947 -3.26132e-05 8.92581e-07
-3.26132e-05 9.5522e-05 3.85136e-07
8.92581e-07 3.85136e-07 -2.0599e-05
0.000920853 0.000112357 -5.01431e-06
0.000112357 0.000383414 9.3989e-07
-5.01431e-06 9.3989e-07 0.000246599
0.000494699 0.000133526 5.09246e-07
0.000133526 4.28942e-05 7.49275e-06
5.09246e-07 7.49275e-06 -7.97075e-05
0.000964391 -1.70058e-06 2.26899e-06
-1.70058e-06 0.000378007 4.00893e-06
2.26899e-06 4.00893e-06 0.000237653
0.000521197 -2.71663e-05 -1.54475e-06
-2.71663e-05 8.01693e-05 1.30998e-06
-1.54475e-06 1.30998e-06 -3.58619e-05
0.00260064 -0.000296582 1.21214e-05
-0.000296582 2.21948e-05 -2.15284e-06
1.21214e-05 -2.15284e-06 0.000197373
0.00211141 -0.00056255 1.44997e-05
-0.00056255 -0.000341044 -6.60765e-06
1.44997e-05 -6.60765e-06 -0.000132616
0.00234893 -0.000847586 -2.41174e-07
-0.000847586 0.000120979 4.67554e-06
-2.41174e-07 4.67554e-06 -5.01915e-05
0.00231306 -0.000894225 1.73819e-05
-0.000894225 0.000785007 8.72424e-06
1.73819e-05 8.72424e-06 0.000323612
0.00203463 -0.00100962 -1.88546e-05
-0.00100962 0.000250561 5.68928e-06
-1.88546e-05 5.68928e-06 -9.46363e-05
0.00198423 -0.00113215 3.72444e-05
-0.00113215 0.00114887 -1.26989e-05
3.72444e-05 -1.26989e-05 0.000305589
0.00473031 -0.000769471 5.39783e-06
-0.000769471 0.00238817 2.72828e-06
5.39783e-06 2.72828e-06 0.00197519
0.00106042 -0.000244143 8.30922e-06
-0.000244143 0.000480819 -4.9819e-05
8.30922e-06 -4.9819e-05 0.000158311
0.000611513 -9.3847e-05 3.43074e-06
-9.3847e-05 5.39429e-05 -5.78691e-07
3.43074e-06 -5.78691e-07 -4.80508e-05
0.000887389 -7.96781e-05 1.08462e-05
-7.96781e-05 0.000291619 -2.01026e-05
1.08462e-05 -2.01026e-05 9.44917e-05
0.0010444 -5.01419e-05 3.78932e-06
-5.01419e-05 0.000416615 1.63148e-06
3.78932e-06 1.63148e-06 0.000274875
0.000814664 1.84531e-05 7.71752e-06
1.84531e-05 0.000301566 -6.58909e-06
7.71752e-06 -6.58909e-06 0.000270067
0.00244846 -0.000408382 -6.07873e-07
-0.000408382 -8.26426e-05 3.07674e-06
-6.07873e-07 3.07674e-06 0.000211283
0.000488234 -8.21776e-05 -3.74109e-06
-8.21776e-05 0.000138885 -5.29846e-07
-3.74109e-06 -5.29846e-07 1.00733e-06
0.00118833 -0.000178624 -7.77231e-06
-0.000178624 0.000496539 4.44809e-06
-7.77231e-06 4.44809e-06 0.000329553
0.00173094 -0.000642919 8.04874e-06
-0.000642919 -0.000321709 -3.73167e-06
8.04874e-06 -3.73167e-06 -0.000205702
0.00184037 -0.000862035 1.26072e-06
-0.000862035 4.22264e-05 5.80315e-07
1.26072e-06 5.80315e-07 -0.000214292
0.000926769 -0.000803372 -1.83017e-06
-0.000803372 -0.000182496 -5.35041e-06
-1.83017e-06 -5.35041e-06 -0.000477762
0.00172626 -0.000364749 1.08515e-06
-0.000364749 0.000996264 -2.55265e-05
1.08515e-06 -2.55265e-05 0.000601334
0.00154042 -0.000668956 6.51179e-06
-0.000668956 0.00123999 3.62376e-06
6.51179e-06 3.62376e-06 0.00037853
0.00527159 -0.000855128 -5.43943e-05
-0.000855128 0.00129662 2.45243e-05
-5.43943e-05 2.45243e-05 0.00150231
0.00415698 -0.000998316 -4.78263e-05
-0.000998316 0.00133037 1.23627e-05
-4.78263e-05 1.23627e-05 0.00112762
0.00217384 -0.00100124 1.15432e-05
-0.00100124 0.00033358 -3.90834e-06
1.15432e-05 -3.90834e-06 6.45754e-05
-0.000951657 -0.000446891 -2.76088e-06
-0.000446891 -0.000948141 1.41734e-05
-2.76088e-06 1.41734e-05 -0.00107318
0.00035935 -0.00014805 9.74967e-07
-0.00014805 9.63752e-05 8.38972e-06
9.74967e-07 8.38972e-06 -0.000141168
0.000296138 -0.000161558 4.17095e-06
-0.000161558 0.000123079 5.41647e-07
4.17095e-06 5.41647e-07 -0.000151629
0.00205829 -0.000257427 -8.40646e-06
-0.000257427 0.00149963 -2.45759e-05
-8.40646e-06 -2.45759e-05 0.000812509
-0.00687045 -0.000401252 0.000588571
-0.000401252 -0.00419968 -3.49163e-05
0.000588571 -3.49163e-05 -0.00401291
0.0117984 -0.000363832 6.98114e-05
-0.000363832 0.00105898 2.43179e-05
6.98114e-05 2.43179e-05 0.00122565
0.00258424 0.000373104 1.10086e-05
0.000373104 0.00139748 -1.04995e-05
1.10086e-05 -1.04995e-05 0.00117536
0.00158596 0.000530023 -3.23531e-06
0.000530023 0.000558842 6.06683e-06
-3.23531e-06 6.06683e-06 0.000190428
0.00291123 0.000715848 0.00010146
0.000715848 0.000368292 4.36289e-05
0.00010146 4.36289e-05 0.000387418
0.0030125 0.00100242 2.51004e-05
0.00100242 0.000761947 1.03042e-05
2.51004e-05 1.03042e-05 0.000433533
0.00295712 0.00087636 1.85419e-05
0.00087636 0.00117475 5.7602e-06
1.85419e-05 5.7602e-06 0.000692805
0.0160745 0.000746344 8.69353e-05
0.000746344 0.00293603 -3.76179e-05
8.69353e-05 -3.76179e-05 0.00223931
0.0085723 0.00239408 -0.000224614
0.00239408 -0.00069029 -3.13128e-05
-0.000224614 -3.13128e-05 0.000768464
0.00176112 0.00130207 8.85482e-06
0.00130207 3.20406e-05 -3.23497e-05
8.85482e-06 -3.23497e-05 -0.000442493
0.0136549 -0.00450533 -0.00050759
-0.00450533 0.0058339 3.047e-06
-0.00050759 3.047e-06 0.00290074
0.00487364 -0.00954912 -0.00250237
-0.00954912 0.0052965 -0.00154328
-0.00250237 -0.00154328 0.00171211
0.00111751 0.000341978 2.22265e-06
0.000341978 0.000517073 -1.65765e-06
2.22265e-06 -1.65765e-06 0.000256528
-0.0015256 -0.00265505 0.000508155
-0.00265505 -0.00260144 8.22837e-05
0.000508155 8.22837e-05 -0.00466041
-0.00222986 -0.0025568 -0.000542055
-0.0025568 0.00589348 -0.000204729
-0.000542055 -0.000204729 0.000318789
0.00347748 0.00114007 -1.61549e-05
0.00114007 0.000749173 2.13506e-06
-1.61549e-05 2.13506e-06 0.000601706
0.000817144 0.0004391 -8.94521e-06
0.0004391 0.000109236 8.30501e-06
-8.94521e-06 8.30501e-06 -0.000240628
0.00134362 0.000811488 5.79369e-06
0.000811488 0.000296993 1.78749e-06
5.79369e-06 1.78749e-06 -0.000123008
0.0010788 0.00118592 5.40599e-05
0.00118592 5.97655e-05 3.82242e-05
5.40599e-05 3.82242e-05 -0.000240101
0.0142693 0.00273955 -0.000154026
0.00273955 0.0010717 -9.20034e-05
-0.000154026 -9.20034e-05 -0.000607224
0.00434468 0.00300515 -3.60436e-05
0.00300515 -0.000599238 -4.10771e-05
-3.60436e-05 -4.10771e-05 0.000381265
0.017663 -0.00525866 0.000585804
-0.00525866 0.00727268 -1.47086e-05
0.000585804 -1.47086e-05 0.00308228
0.0165974 -0.00441357 0.000134928
-0.00441357 0.00331746 0.000740618
0.000134928 0.000740618 0.00103179
0.00211914 0.000406443 -2.06618e-05
0.000406443 0.00107903 -1.49934e-05
-2.06618e-05 -1.49934e-05 0.00085154
-0.0104186 0.00128012 -0.000144049
0.00128012 0.00385173 -0.000144811
-0.000144049 -0.000144811 -0.00292016
0.00516283 0.00094099 -0.000390583
0.00094099 0.00416359 -0.000507703
-0.000390583 -0.000507703 -0.000670137
0.00261455 0.000849992 -3.11924e-05
0.000849992 0.000650702 -4.57166e-06
-3.11924e-05 -4.57166e-06 0.000598338
0.0024209 0.00083719 -7.38044e-05
0.00083719 0.00102727 -2.82159e-05
-7.38044e-05 -2.82159e-05 0.000631008
0.000743587 0.000832251 -0.000101916
0.000832251 0.00069623 -2.57263e-05
-0.000101916 -2.57263e-05 -1.22078e-05
-0.00265285 0.00180678 -2.17549e-05
0.00180678 -0.0012052 -3.67912e-05
-2.17549e-05 -3.67912e-05 -0.00141365
0.000979524 0.00335213 0.000388334
0.00335213 -0.00204133 0.000144373
0.000388334 0.000144373 -0.0042495
0.0187371 -0.00658704 0.000183989
-0.00658704 0.0098499 0.000727987
0.000183989 0.000727987 0.00507524
0.0089379 -0.000817697 -0.000185574
-0.000817697 -0.00201921 -0.000152104
-0.000185574 -0.000152104 -0.00104223
-0.000708671 0.00013057 2.43436e-06
0.00013057 -0.000519531 -6.24648e-06
2.43436e-06 -6.24648e-06 -0.00066161
0.00169588 0.000308639 1.07323e-05
0.000308639 0.000899429 2.48438e-06
1.07323e-05 2.48438e-06 0.000712681
-0.000596345 7.55648e-05 -2.36221e-06
7.55648e-05 -0.000411537 -1.94174e-06
-2.36221e-06 -1.94174e-06 -0.000579362
0.000337371 5.2382e-05 1.82942e-06
5.2382e-05 -4.14554e-05 7.58722e-07
1.82942e-06 7.58722e-07 -0.000179947
0.00103805 9.27394e-05 -5.71102e-07
9.27394e-05 0.000432448 -1.56824e-06
-5.71102e-07 -1.56824e-06 0.000241119
0.000554735 1.85223e-05 -1.97017e-06
1.85223e-05 0.000134285 1.63435e-06
-1.97017e-06 1.63435e-06 -5.55257e-05
0.000468604 9.90358e-05 5.29313e-06
9.90358e-05 5.76578e-05 5.9945e-06
5.29313e-06 5.9945e-06 -0.000122235
-0.000542648 4.92802e-05 -4.01647e-06
4.92802e-05 -0.000487425 7.34339e-07
-4.01647e-06 7.34339e-07 -0.000641864
0.000775069 4.41965e-05 2.56933e-07
4.41965e-05 0.000267869 -8.68591e-07
2.56933e-07 -8.68591e-07 8.29427e-05
0.00072853 9.10324e-05 7.44032e-07
9.10324e-05 0.000230303 -1.41263e-07
7.44032e-07 -1.41263e-07 6.56334e-05
0.000849009 -4.27788e-05 -1.1506e-06
-4.27788e-05 0.000311257 2.11343e-06
-1.1506e-06 2.11343e-06 0.00012231
-0.000958604 2.76296e-05 2.37163e-06
2.76296e-05 -0.000601354 4.39948e-07
2.37163e-06 4.39948e-07 -0.000832311
0.00015925 5.45507e-05 -3.18503e-06
5.45507e-05 0.000275704 5.60294e-06
-3.18503e-06 5.60294e-06 -8.63261e-05
0.000633328 -3.09369e-05 -1.71265e-06
-3.09369e-05 0.000260316 -8.30853e-06
-1.71265e-06 -8.30853e-06 5.968e-05
0.00126112 -1.01517e-05 -1.14124e-06
-1.01517e-05 0.000607446 8.52416e-07
-1.14124e-06 8.52416e-07 0.000389461
0.000802942 -8.1871e-05 -5.78221e-07
-8.1871e-05 0.00028393 -1.70241e-06
-5.78221e-07 -1.70241e-06 9.81245e-05
0.000244399 -9.0488e-05 3.86609e-06
-9.0488e-05 -0.000115478 8.46179e-06
3.86609e-06 8.46179e-06 -0.000246258
0.000738748 -8.66499e-05 4.648e-07
-8.66499e-05 0.000258175 -1.21416e-06
4.648e-07 -1.21416e-06 6.63556e-05
0.000753645 -8.09164e-05 -1.76587e-06
-8.09164e-05 0.000209143 -1.06286e-07
-1.76587e-06 -1.06286e-07 7.49799e-05
-0.000343189 -6.30311e-05 1.8661e-06
-6.30311e-05 -0.00043668 4.4508e-06
1.8661e-06 4.4508e-06 -0.000549128
1.66648e-05 -5.51651e-05 -1.53583e-07
-5.51651e-05 -0.000188582 -2.96743e-06
-1.53583e-07 -2.96743e-06 -0.000346743
6.66155e-05 -2.92799e-05 -7.74154e-06
-2.92799e-05 -0.00010191 -4.09328e-06
-7.74154e-06 -4.09328e-06 -0.000278402
-0.000103253 -8.39773e-05 3.29202e-06
-8.39773e-05 -0.000257089 -5.61063e-06
3.29202e-06 -5.61063e-06 -0.000387698
0.0010169 -0.000116643 1.03705e-05
-0.000116643 0.000305512 -1.66685e-05
1.03705e-05 -1.66685e-05 0.000204827
0.000856311 -0.00021959 -2.32147e-07
-0.00021959 0.00015886 4.06173e-06
-2.32147e-07 4.06173e-06 -1.24915e-05
-5.90945e-05 -5.54575e-05 -6.81703e-06
-5.54575e-05 -0.000236001 -2.89786e-06
-6.81703e-06 -2.89786e-06 -0.000413689
0.00063911 -5.64542e-05 1.63305e-06
-5.64542e-05 0.000189484 -1.01031e-06
1.63305e-06 -1.01031e-06 8.83046e-06
-0.000119128 -3.40211e-05 2.15302e-06
-3.40211e-05 -0.000291271 -9.89849e-07
2.15302e-06 -9.89849e-07 -0.000466295
0.000671551 -0.000115653 -3.46909e-07
-0.000115653 0.000205667 -3.33152e-07
-3.46909e-07 -3.33152e-07 4.48604e-05
0.000460633 -2.76266e-05 1.12239e-06
-2.76266e-05 2.3724e-05 1.25286e-06
1.12239e-06 1.25286e-06 -0.000100072
0.000767725 -0.000112668 -1.27197e-06
-0.000112668 0.000252807 9.69104e-07
-1.27197e-06 9.69104e-07 0.000102147
0.000630888 -8.49346e-05 -6.9269e-07
-8.49346e-05 0.000141535 1.7831e-07
-6.9269e-07 1.7831e-07 1.12171e-05
0.00040719 3.20649e-05 2.10683e-07
3.20649e-05 -2.96574e-05 4.33591e-06
2.10683e-07 4.33591e-06 -0.0001126
0.000540957 -0.000111482 9.18765e-07
-0.000111482 7.93275e-05 -2.14231e-06
9.18765e-07 -2.14231e-06 -5.40438e-05
0.000514485 -4.06336e-05 -5.01253e-07
-4.06336e-05 3.49692e-05 9.91849e-08
-5.01253e-07 9.91849e-08 -4.36149e-05
0.00141728 1.34233e-05 -7.50623e-06
1.34233e-05 0.000576549 7.38363e-06
-7.50623e-06 7.38363e-06 0.000555539
0.000485789 -6.29911e-05 1.28392e-06
-6.29911e-05 2.61281e-05 -3.77935e-06
1.28392e-06 -3.77935e-06 -5.58934e-05
0.000863434 -1.83273e-05 -7.33479e-06
-1.83273e-05 0.000236557 8.40488e-07
-7.33479e-06 8.40488e-07 0.000213122
0.000762374 1.22224e-05 1.21043e-06
1.22224e-05 0.000155521 2.30991e-06
1.21043e-06 2.30991e-06 0.000158953
0.000423729 -1.88082e-05 2.65176e-06
-1.88082e-05 -3.69057e-05 -4.70372e-06
2.65176e-06 -4.70372e-06 -6.08601e-05
0.00255815 1.24444e-05 7.09418e-06
1.24444e-05 0.00129174 2.54247e-08
7.09418e-06 2.54247e-08 0.00130425
0.00258317 1.64474e-06 1.44534e-06
1.64474e-06 0.00130806 -5.06913e-06
1.44534e-06 -5.06913e-06 0.00132021
0.00103296 8.15142e-05 -9.17691e-07
8.15142e-05 0.000394729 9.65646e-07
-9.17691e-07 9.65646e-07 0.000288175
0.000509327 6.2856e-05 -1.8379e-06
6.2856e-05 3.28814e-05 -2.48996e-06
-1.8379e-06 -2.48996e-06 -2.0512e-05
0.000536315 -1.37505e-05 -2.4971e-07
-1.37505e-05 8.758e-05 7.76595e-07
-2.4971e-07 7.76595e-07 -1.47006e-05
0.000476203 7.47457e-06 1.00599e-06
7.47457e-06 -2.91466e-05 -3.35758e-06
1.00599e-06 -3.35758e-06 -3.85188e-05
0.000453513 -1.15339e-05 1.06849e-06
-1.15339e-05 -7.33733e-06 -1.89541e-07
1.06849e-06 -1.89541e-07 -5.43496e-05
0.000529657 -5.91229e-05 -1.60917e-06
-5.91229e-05 4.61977e-05 2.13547e-06
-1.60917e-06 2.13547e-06 -6.3056e-06
0.000479083 7.28402e-06 -4.73196e-07
7.28402e-06 -2.73936e-05 -3.79037e-09
-4.73196e-07 -3.79037e-09 -3.743e-05
0.00197978 2.31398e-05 -1.55162e-06
2.31398e-05 0.000923363 -4.75581e-06
-1.55162e-06 -4.75581e-06 0.000940264
0.00113237 2.42009e-05 -5.79613e-07
2.42009e-05 0.000385932 2.05229e-06
-5.79613e-07 2.05229e-06 0.000377391
0.00130913 3.00311e-05 -1.66175e-06
3.00311e-05 0.00050123 -2.89616e-09
-1.66175e-06 -2.89616e-09 0.000513207
0.000811948 3.60373e-05 -8.11221e-06
3.60373e-05 0.000193231 7.46727e-06
-8.11221e-06 7.46727e-06 0.000198281
-0.00846301 0.0013201 0.000564508
0.0013201 -0.00291387 -5.46903e-05
0.000564508 -5.46903e-05 -0.00583351
-0.000638873 0.0003525 0.00122125
0.0003525 0.00657857 -0.000303644
0.00122125 -0.000303644 0.00267719
0.00220548 0.000373449 -0.000165138
0.000373449 -0.00244318 -3.00098e-05
-0.000165138 -3.00098e-05 -0.000727217
0.00184989 4.58219e-06 1.30795e-05
4.58219e-06 -0.00103482 -2.74757e-05
1.30795e-05 -2.74757e-05 -0.00053875
0.00173938 -7.6556e-05 8.49327e-06
-7.6556e-05 -0.000287558 2.06027e-05
8.49327e-06 2.06027e-05 -0.000210575
-0.00144862 2.43747e-05 -0.000101667
2.43747e-05 -0.00181574 -2.76068e-05
-0.000101667 -2.76068e-05 -0.000640466
0.00392177 -0.000429564 3.68208e-06
-0.000429564 0.00039529 5.67722e-06
3.68208e-06 5.67722e-06 0.000572567
0.0122506 -0.000117234 0.000195501
-0.000117234 -0.000827897 -8.21841e-05
0.000195501 -8.21841e-05 -0.00151361
0.00179869 0.00386801 -3.70686e-08
0.00386801 0.000965825 -6.73736e-05
-3.70686e-08 -6.73736e-05 -0.00258558
0.0139323 0.0078009 -0.000546716
0.0078009 0.00942059 0.000265496
-0.000546716 0.000265496 0.00622942
0.00170355 -0.000822555 2.00098e-05
-0.000822555 -0.00246058 -3.93521e-05
2.00098e-05 -3.93521e-05 -0.00122399
0.0154766 -0.00251953 0.000230983
-0.00251953 0.00168732 -7.51265e-05
0.000230983 -7.51265e-05 0.000286992
0.0176365 0.00644311 0.000386251
0.00644311 0.00563475 -0.000540206
0.000386251 -0.000540206 0.0017179
0.0204879 0.00447891 -0.000325818
0.00447891 0.00633408 0.000284082
-0.000325818 0.000284082 0.00403133
0.00100301 0.000166374 -3.22891e-06
0.000166374 0.000439474 3.43849e-06
-3.22891e-06 3.43849e-06 0.000260467
0.000340593 3.97116e-05 4.45126e-07
3.97116e-05 -3.64411e-05 -1.05988e-06
4.45126e-07 -1.05988e-06 -0.000140686
0.000544674 -9.53952e-05 1.7554e-06
-9.53952e-05 9.7308e-05 1.38512e-06
1.7554e-06 1.38512e-06 -4.21256e-06
0.000670762 1.15529e-05 7.01789e-06
1.15529e-05 0.000185098 -9.73882e-07
7.01789e-06 -9.73882e-07 6.30418e-05
0.00085014 8.84205e-05 2.68035e-06
8.84205e-05 0.000352732 1.39399e-06
2.68035e-06 1.39399e-06 0.000215119
0.000478437 2.00866e-05 -3.33198e-07
2.00866e-05 7.53918e-05 7.92565e-06
-3.33198e-07 7.92565e-06 -8.99263e-05
0.000745733 9.39865e-05 7.53128e-07
9.39865e-05 0.000228552 3.31069e-06
7.53128e-07 3.31069e-06 9.11918e-05
0.000452327 6.54403e-05 4.7819e-06
6.54403e-05 1.69874e-05 2.04589e-06
4.7819e-06 2.04589e-06 -0.000123234
0.000691333 -2.81154e-05 2.64574e-06
-2.81154e-05 0.000205886 -1.21413e-06
2.64574e-06 -1.21413e-06 6.70581e-05
0.00048218 -1.69424e-05 2.19144e-06
-1.69424e-05 4.64743e-05 -2.80861e-06
2.19144e-06 -2.80861e-06 -6.25542e-05
0.0013763 -0.000345003 3.56925e-05
-0.000345003 -0.000636894 -7.29815e-06
3.56925e-05 -7.29815e-06 -0.000327761
0.00106735 -0.00059074 2.93445e-05
-0.00059074 -0.000685916 -9.61348e-06
2.93445e-05 -9.61348e-06 -0.000533211
0.00104146 -0.000742504 1.31925e-06
-0.000742504 -0.000405817 5.14657e-06
1.31925e-06 5.14657e-06 -0.000583325
-1.61782e-05 -0.000692059 -1.58721e-05
-0.000692059 -0.000689587 3.92125e-06
-1.58721e-05 3.92125e-06 -0.000963294
0.00279319 -0.000499315 8.80214e-06
-0.000499315 0.00176252 3.58661e-05
8.80214e-06 3.58661e-05 0.00108873
-0.000318762 -0.000529398 -4.95506e-06
-0.000529398 -0.00023254 -7.71964e-06
-4.95506e-06 -7.71964e-06 -0.000758621
0.00158374 -0.000265901 5.74109e-06
-0.000265901 0.000747344 -3.86851e-06
5.74109e-06 -3.86851e-06 0.000599919
0.000532577 -5.55865e-05 2.98374e-07
-5.55865e-05 0.000153345 3.27673e-06
2.98374e-07 3.27673e-06 1.68743e-05
0.00242437 -0.000611398 1.16945e-05
-0.000611398 -0.000231447 -8.87419e-06
1.16945e-05 -8.87419e-06 5.78423e-05
0.000400762 -6.34917e-05 5.76254e-07
-6.34917e-05 0.000124134 1.62064e-06
5.76254e-07 1.62064e-06 -0.000124558
-0.00013433 -0.000203147 -1.2573e-06
-0.000203147 -0.000121723 -6.07263e-06
-1.2573e-06 -6.07263e-06 -0.000403457
0.00184096 -0.000787311 1.92298e-05
-0.000787311 2.02743e-05 -1.87998e-06
1.92298e-05 -1.87998e-06 -5.13904e-05
0.00195122 -0.000980427 -7.93689e-07
-0.000980427 0.000141636 2.91773e-06
-7.93689e-07 2.91773e-06 -5.30704e-05
0.000257981 -0.000722215 2.03535e-05
-0.000722215 -0.000238284 -1.54753e-05
2.03535e-05 -1.54753e-05 -0.000494543
0.00108552 -0.000362399 6.62406e-06
-0.000362399 0.000953495 -1.96741e-05
6.62406e-06 -1.96741e-05 0.000248761
0.00223352 -0.000946597 -6.70331e-05
-0.000946597 0.000121471 4.14852e-05
-6.70331e-05 4.14852e-05 -0.000129217
0.000995337 -0.000717121 -2.94839e-05
-0.000717121 -0.000204221 4.09008e-06
-2.94839e-05 4.09008e-06 -0.000218648
0.000137269 -0.00064385 -6.83169e-05
-0.00064385 0.000102199 4.41417e-05
-6.83169e-05 4.41417e-05 -0.000326679
-0.00228183 -0.000210673 -7.59223e-06
-0.000210673 -0.00153525 1.14585e-05
-7.59223e-06 1.14585e-05 -0.00178372
-0.00108588 -3.86807e-05 1.28705e-06
-3.86807e-05 -0.000705441 1.03187e-05
1.28705e-06 1.03187e-05 -0.00100353
0.000697776 -8.53302e-05 8.38417e-06
-8.53302e-05 0.000445386 -1.44854e-05
8.38417e-06 -1.44854e-05 6.05725e-05
-0.0025079 0.00130991 -0.000431306
0.00130991 0.0071761 2.03223e-05
-0.000431306 2.03223e-05 0.00213036
0.00016952 -0.00158419 -1.30251e-05
-0.00158419 0.00246006 9.6873e-06
-1.30251e-05 9.6873e-06 0.00145835
0.00278106 0.00101615 -0.000130909
0.00101615 -0.00545896 -2.10811e-05
-0.000130909 -2.10811e-05 -0.00565625
0.000274398 0.000266757 1.29133e-05
0.000266757 2.98096e-05 -2.64707e-06
1.29133e-05 -2.64707e-06 -0.000222849
0.00169274 0.000613738 1.29101e-05
0.000613738 0.000671993 2.08347e-05
1.29101e-05 2.08347e-05 0.000254787
0.00344288 0.00100532 6.99955e-05
0.00100532 0.000715935 2.2359e-05
6.99955e-05 2.2359e-05 0.000613658
0.00154406 0.000873777 1.61649e-05
0.000873777 0.000427156 2.21391e-05
1.61649e-05 2.21391e-05 -2.72363e-05
0.0130346 -0.00307227 0.000242481
-0.00307227 0.00497248 8.33909e-05
0.000242481 8.33909e-05 0.00365436
0.00357647 0.0015198 -0.000375942
0.0015198 -0.00455602 -8.13026e-05
-0.000375942 -8.13026e-05 -0.00609383
0.00522694 0.00287889 4.09399e-05
0.00287889 0.000276317 2.72395e-05
4.09399e-05 2.72395e-05 0.000861348
0.00293466 0.00123221 5.7617e-05
0.00123221 0.00120334 -1.15602e-05
5.7617e-05 -1.15602e-05 0.000947176
0.00907904 -0.00326818 -0.000393793
-0.00326818 0.00393157 -0.00037345
-0.000393793 -0.00037345 0.000244163
-5.98711e-05 -0.00365411 -0.000743845
-0.00365411 0.0064811 -0.000227682
-0.000743845 -0.000227682 0.000781433
0.0250147 -0.00572389 0.000771389
-0.00572389 0.00711176 0.000390895
0.000771389 0.000390895 0.00448187
0.00036464 0.00025463 1.73025e-05
0.00025463 4.89413e-05 -4.3691e-06
1.73025e-05 -4.3691e-06 -0.000167356
-0.0041161 0.000465869 -0.000187463
0.000465869 0.00580086 -3.50589e-05
-0.000187463 -3.50589e-05 4.34152e-05
0.00586083 0.00129397 -0.000140866
0.00129397 0.00338597 -0.000176574
-0.000140866 -0.000176574 -0.00195576
0.00176901 0.00087088 1.01325e-05
0.00087088 0.000297403 3.17776e-06
1.01325e-05 3.17776e-06 0.000177921
0.000781309 0.000648914 1.36372e-05
0.000648914 0.00023907 4.78303e-06
1.36372e-05 4.78303e-06 -0.000167718
0.000724103 0.000981873 -5.71777e-05
0.000981873 0.00050269 -6.22801e-05
-5.71777e-05 -6.22801e-05 -7.71775e-05
0.00419608 0.00328678 3.26862e-05
0.00328678 0.00123977 3.26528e-05
3.26862e-05 3.26528e-05 0.00107449
0.0165437 0.00445852 2.87615e-05
0.00445852 0.00354369 1.12993e-05
2.87615e-05 1.12993e-05 0.00136123
0.00864114 -0.00383753 8.83688e-05
-0.00383753 0.00401452 -9.51185e-05
8.83688e-05 -9.51185e-05 -0.00119618
0.015618 -0.00220803 -1.27949e-05
-0.00220803 0.00220216 -7.05726e-05
-1.27949e-05 -7.05726e-05 0.00333797
0.000636755 0.000474039 -1.38762e-05
0.000474039 0.000218731 -9.06277e-06
-1.38762e-05 -9.06277e-06 -7.80607e-05
0.0018505 0.000230295 -0.00036213
0.000230295 0.00226874 -8.7806e-05
-0.00036213 -8.7806e-05 -0.00260101
0.0010634 0.000852349 -0.000139101
0.000852349 -0.000181432 -0.00017418
-0.000139101 -0.00017418 -0.00177523
-0.000649712 0.000319556 -6.31423e-06
0.000319556 -0.000129099 -2.00121e-05
-6.31423e-06 -2.00121e-05 -0.000397044
-0.000931009 0.000692088 -0.000192894
0.000692088 0.000971296 -1.39194e-05
-0.000192894 -1.39194e-05 0.000182262
0.0131156 0.00504836 0.000119209
0.00504836 0.00422605 -4.27542e-05
0.000119209 -4.27542e-05 -0.000197698
-0.00166235 -0.00544578 -5.2095e-06
-0.00544578 -0.000129582 0.000235016
-5.2095e-06 0.000235016 -0.00521914
0.0120453 0.000160707 7.04548e-05
0.000160707 -0.00164873 -0.000327469
7.04548e-05 -0.000327469 0.000868372
0.000786677 0.000190137 -4.13225e-06
0.000190137 0.000298538 1.6894e-05
-4.13225e-06 1.6894e-05 0.000152949
0.000936635 0.000239024 -9.35494e-06
0.000239024 0.000530597 -5.48373e-06
-9.35494e-06 -5.48373e-06 0.000322256
-0.000257558 0.000127381 7.26432e-07
0.000127381 -1.45129e-06 -1.42548e-06
7.26432e-07 -1.42548e-06 -0.000314144
0.000554716 8.71546e-05 -1.40017e-06
8.71546e-05 0.000109946 -1.16825e-06
-1.40017e-06 -1.16825e-06 -6.01036e-05
0.00121427 -3.26907e-05 -2.13572e-06
-3.26907e-05 0.00055543 4.5347e-06
-2.13572e-06 4.5347e-06 0.000353854
9.20448e-05 7.53221e-05 2.83247e-06
7.53221e-05 -0.000176744 2.44529e-06
2.83247e-06 2.44529e-06 -0.000333442
-0.00115645 3.53384e-05 2.21109e-06
3.53384e-05 -0.000706724 1.82913e-06
2.21109e-06 1.82913e-06 -0.000937137
0.000601497 -2.33949e-05 1.22298e-06
-2.33949e-05 0.000158807 3.2526e-07
1.22298e-06 3.2526e-07 -3.00953e-05
0.000507534 3.71577e-05 5.45e-07
3.71577e-05 0.000175578 -2.30944e-06
5.45e-07 -2.30944e-06 -1.98328e-05
7.51643e-05 3.97907e-05 2.29666e-06
3.97907e-05 0.000267731 2.90636e-06
2.29666e-06 2.90636e-06 -0.000124261
-0.00039401 6.69554e-05 -3.38941e-06
6.69554e-05 0.000155843 1.28558e-05
-3.38941e-06 1.28558e-05 -0.000341881
0.000436879 5.40017e-06 -3.18054e-06
5.40017e-06 0.00048929 -3.10815e-06
-3.18054e-06 -3.10815e-06 9.4842e-05
0.00126508 3.01091e-05 -2.01237e-06
3.01091e-05 0.000625044 -3.54603e-06
-2.01237e-06 -3.54603e-06 0.000442971
0.000749387 -0.000154611 2.90295e-06
-0.000154611 0.00025283 1.61756e-06
2.90295e-06 1.61756e-06 6.73495e-05
0.00027404 -6.11659e-05 1.16435e-06
-6.11659e-05 -0.000108595 4.26414e-06
1.16435e-06 4.26414e-06 -0.000232042
0.000247815 -8.86328e-05 2.28907e-06
-8.86328e-05 -6.58799e-05 1.38172e-05
2.28907e-06 1.38172e-05 -0.000165348
0.000239158 -3.9384e-05 2.3945e-06
-3.9384e-05 -1.45642e-05 2.89313e-06
2.3945e-06 2.89313e-06 -0.0001765
0.000540844 -5.13818e-05 -1.58136e-07
-5.13818e-05 0.000123701 6.88151e-07
-1.58136e-07 6.88151e-07 -2.97171e-05
0.000369177 -5.42645e-05 -1.36732e-07
-5.42645e-05 3.00091e-05 -1.89039e-06
-1.36732e-07 -1.89039e-06 -9.79896e-05
0.000413763 -6.46958e-05 -8.57596e-06
-6.46958e-05 4.4016e-05 -4.99047e-06
-8.57596e-06 -4.99047e-06 -8.69932e-05
0.000423535 -7.56646e-05 9.49717e-06
-7.56646e-05 0.000235679 -7.39721e-06
9.49717e-06 -7.39721e-06 7.18344e-05
0.000894866 -0.000231518 1.04167e-06
-0.000231518 0.000135654 4.19197e-06
1.04167e-06 4.19197e-06 5.03894e-05
0.000539898 -0.000134877 -1.27209e-05
-0.000134877 3.49744e-05 -4.67085e-07
-1.27209e-05 -4.67085e-07 -7.29867e-05
0.000377192 -0.00019646 7.96085e-06
-0.00019646 -9.11198e-05 6.88444e-06
7.96085e-06 6.88444e-06 -0.000249113
0.00209496 -0.000555351 -6.30444e-07
-0.000555351 0.000861247 2.12583e-05
-6.30444e-07 2.12583e-05 0.00051867
0.00185721 -0.000260461 4.28888e-06
-0.000260461 0.00085228 -1.00576e-05
4.28888e-06 -1.00576e-05 0.00065296
0.000282939 -0.000164355 -7.71378e-06
-0.000164355 -0.000156548 -6.69501e-06
-7.71378e-06 -6.69501e-06 -0.000292302
0.000528135 -8.14647e-05 -2.13947e-07
-8.14647e-05 9.82164e-05 -9.6437e-07
-2.13947e-07 -9.6437e-07 -7.76397e-05
-0.000259388 -4.51088e-05 -5.16396e-07
-4.51088e-05 -0.000357717 -2.47718e-06
-5.16396e-07 -2.47718e-06 -0.000568944
0.00106701 -6.75435e-05 9.58225e-08
-6.75435e-05 0.000443221 1.60169e-06
9.58225e-08 1.60169e-06 0.000265861
0.000723147 -0.000131276 -1.26299e-07
-0.000131276 0.000237998 3.30352e-07
-1.26299e-07 3.30352e-07 5.03976e-05
0.000503927 -6.4489e-05 1.03778e-06
-6.4489e-05 3.67372e-05 1.62402e-06
1.03778e-06 1.62402e-06 -8.99037e-05
0.00140336 -0.000199837 -2.65076e-06
-0.000199837 0.00068309 -3.22529e-07
-2.65076e-06 -3.22529e-07 0.000495997
0.000683466 -0.000110282 -5.46419e-07
-0.000110282 0.000164496 5.07907e-08
-5.46419e-07 5.07907e-08 3.37567e-05
0.000507842 4.28529e-06 -1.23818e-06
4.28529e-06 2.70083e-05 3.55042e-06
-1.23818e-06 3.55042e-06 -5.63696e-05
0.000723544 -0.000133379 7.74173e-07
-0.000133379 0.000199461 -2.02064e-06
7.74173e-07 -2.02064e-06 6.49191e-05
0.00058717 -5.72703e-05 -1.01004e-07
-5.72703e-05 7.96015e-05 1.50143e-07
-1.01004e-07 1.50143e-07 -2.99175e-06
0.00143592 1.06741e-05 -1.2351e-05
1.06741e-05 0.000583946 7.61953e-06
-1.2351e-05 7.61953e-06 0.000561093
0.000536788 -6.93797e-05 1.65894e-06
-6.93797e-05 5.78048e-05 -4.55806e-06
1.65894e-06 -4.55806e-06 -2.66624e-05
0.000862948 -1.2819e-05 -8.6492e-06
-1.2819e-05 0.000229321 6.95789e-07
-8.6492e-06 6.95789e-07 0.000205044
0.00081489 2.16194e-05 1.22189e-06
2.16194e-05 0.000185242 2.93332e-06
1.22189e-06 2.93332e-06 0.000186942
0.000430543 -3.20782e-05 2.4769e-06
-3.20782e-05 -3.75929e-05 -5.21455e-06
2.4769e-06 -5.21455e-06 -6.31702e-05
0.00166308 2.07601e-05 1.12279e-05
2.07601e-05 0.000725765 -1.46879e-06
1.12279e-05 -1.46879e-06 0.000733831
0.00251608 1.14152e-05 1.18933e-05
1.14152e-05 0.0012645 -5.1867e-06
1.18933e-05 -5.1867e-06 0.00127722
0.00048982 5.31593e-05 1.36065e-06
5.31593e-05 3.10365e-05 -7.96561e-07
1.36065e-06 -7.96561e-07 -7.11487e-05
0.000597289 6.4148e-05 -1.31755e-06
6.4148e-05 8.19611e-05 -1.90573e-06
-1.31755e-06 -1.90573e-06 2.55875e-05
0.000586644 3.41837e-06 7.95121e-07
3.41837e-06 0.000106781 8.09021e-07
7.95121e-07 8.09021e-07 5.4691e-06
0.000465008 4.57361e-06 1.70431e-06
4.57361e-06 -3.51892e-05 -3.66824e-06
1.70431e-06 -3.66824e-06 -4.52494e-05
0.000490566 5.37229e-05 2.24904e-08
5.37229e-05 1.62945e-05 -1.78653e-07
2.24904e-08 -1.78653e-07 -3.41629e-05
0.000510823 -0.000113038 -2.78938e-06
-0.000113038 6.12511e-05 7.49896e-07
-2.78938e-06 7.49896e-07 -3.4456e-05
0.00200488 9.32639e-06 -6.73116e-06
9.32639e-06 0.000937068 -4.80537e-06
-6.73116e-06 -4.80537e-06 0.000954828
0.000454101 5.80601e-06 -2.53355e-07
5.80601e-06 -4.25706e-05 2.90474e-08
-2.53355e-07 2.90474e-08 -5.19288e-05
0.000495115 -9.7853e-06 -1.5152e-06
-9.7853e-06 1.50403e-05 2.11385e-06
-1.5152e-06 2.11385e-06 -2.96375e-05
0.000466272 5.44353e-06 -1.49469e-06
5.44353e-06 -3.61124e-05 3.33263e-06
-1.49469e-06 3.33263e-06 -4.61233e-05
0.00203473 2.47412e-05 -5.40064e-06
2.47412e-05 0.000958299 -1.11738e-07
-5.40064e-06 -1.11738e-07 0.000974841
0.00199776 3.86234e-05 -4.67337e-06
3.86234e-05 0.000937725 4.68955e-06
-4.67337e-06 4.68955e-06 0.00095306
-0.00632515 -0.00181654 -0.000195184
-0.00181654 0.0058503 5.86676e-05
-0.000195184 5.86676e-05 0.00156738
0.00218531 0.00149395 -0.000277938
0.00149395 0.000782423 8.79795e-05
-0.000277938 8.79795e-05 -0.00147819
0.00293333 -0.00103061 -0.000625313
-0.00103061 0.0012478 0.000268608
-0.000625313 0.000268608 -0.00342072
0.000174212 0.000837029 0.00114278
0.000837029 0.00648266 -0.000336025
0.00114278 -0.000336025 0.00208062
0.00282339 0.000629706 -4.82525e-05
0.000629706 -0.000996013 8.10974e-06
-4.82525e-05 8.10974e-06 -4.01305e-05
0.00285677 -0.000496906 9.20643e-05
-0.000496906 -0.00027812 8.43671e-06
9.20643e-05 8.43671e-06 -0.000131048
0.000875097 -0.000379012 0.000296761
-0.000379012 -0.00513321 -5.97125e-05
0.000296761 -5.97125e-05 -0.00668484
0.0225672 0.00341856 -0.000897844
0.00341856 0.00998595 6.75975e-05
-0.000897844 6.75975e-05 0.00683216
0.00625186 0.00907508 -0.0024072
0.00907508 0.00518906 0.00153118
-0.0024072 0.00153118 0.00173361
0.00484029 -0.000685262 3.15198e-05
-0.000685262 -0.00046718 5.4638e-06
3.15198e-05 5.4638e-06 0.000319969
0.00880428 -0.00238642 0.000172684
-0.00238642 -0.00191004 -0.000143696
0.000172684 -0.000143696 -0.00409205
0.0204247 0.00574915 -0.000345183
0.00574915 0.00663628 -0.000115308
-0.000345183 -0.000115308 0.00266743
0.0153183 0.00454941 3.6702e-06
0.00454941 0.00330312 0.000413841
3.6702e-06 0.000413841 0.000797828
0.00184748 -0.00183516 -0.000119166
-0.00183516 -0.00321892 2.61254e-05
-0.000119166 2.61254e-05 -0.00193176
0.00642147 -0.00387202 0.000453492
-0.00387202 -0.000186478 -0.000230656
0.000453492 -0.000230656 -0.00390291
0.00774464 0.00350898 8.07909e-05
0.00350898 0.00174902 -0.000840833
8.07909e-05 -0.000840833 -0.00246617
0.00879706 0.000706642 -0.000303467
0.000706642 -0.00213718 1.06846e-05
-0.000303467 1.06846e-05 -0.0013809
0.00249303 -8.91007e-05 1.04552e-06
-8.91007e-05 0.00142493 1.66527e-05
1.04552e-06 1.66527e-05 0.00115224
0.000319546 9.39249e-05 -1.53978e-06
9.39249e-05 -1.90073e-05 -2.23119e-06
-1.53978e-06 -2.23119e-06 -0.000162451
0.000511554 0.000102777 3.01613e-06
0.000102777 5.84832e-05 -9.73631e-07
3.01613e-06 -9.73631e-07 -4.04653e-05
0.000144692 -3.54651e-06 6.39507e-06
-3.54651e-06 -0.000112883 -2.67543e-06
6.39507e-06 -2.67543e-06 -0.000220648
0.000440322 0.000102338 3.40104e-06
0.000102338 2.85834e-05 4.93215e-06
3.40104e-06 4.93215e-06 -0.000154829
0.000445611 4.39869e-05 -6.74703e-09
4.39869e-05 4.41329e-05 2.12898e-06
-6.74703e-09 2.12898e-06 -0.000107768
0.000208864 2.43398e-05 1.40984e-06
2.43398e-05 -0.000106569 -3.61448e-06
1.40984e-06 -3.61448e-06 -0.000236701
0.000913101 0.000181951 4.32337e-06
0.000181951 0.000343124 8.20885e-06
4.32337e-06 8.20885e-06 0.000167102
0.000907235 0.000133637 -2.79672e-07
0.000133637 0.00034787 -3.32025e-07
-2.79672e-07 -3.32025e-07 0.000176032
0.00036791 -1.52832e-05 -3.57594e-06
-1.52832e-05 -1.10815e-05 -6.65712e-06
-3.57594e-06 -6.65712e-06 -0.000143394
0.000540565 -0.000484665 8.79855e-05
-0.000484665 -0.00123848 -4.50415e-05
8.79855e-05 -4.50415e-05 -0.000906588
0.000141422 -0.000642287 1.16107e-05
-0.000642287 -0.000940821 -8.06238e-06
1.16107e-05 -8.06238e-06 -0.000931477
0.00130768 -0.000906914 -1.38119e-05
-0.000906914 -0.00026433 1.84855e-05
-1.38119e-05 1.84855e-05 -0.000359947
-0.00100803 -0.000707598 3.35605e-06
-0.000707598 -0.00091066 -3.86455e-06
3.35605e-06 -3.86455e-06 -0.00125826
0.00343513 -0.000461266 -2.73167e-05
-0.000461266 0.00213187 6.95031e-05
-2.73167e-05 6.95031e-05 0.00160761
0.000965418 -0.000215729 -2.86821e-06
-0.000215729 0.0005649 6.94633e-06
-2.86821e-06 6.94633e-06 0.000260119
0.000403143 0.000127227 -2.67673e-06
0.000127227 0.000111871 -1.5658e-05
-2.67673e-06 -1.5658e-05 -0.000133548
0.000736254 -6.06422e-05 -2.89382e-06
-6.06422e-05 0.00032041 9.26956e-06
-2.89382e-06 9.26956e-06 3.9292e-05
0.0018247 -0.000844253 -1.12771e-05
-0.000844253 -0.00019413 -3.41164e-06
-1.12771e-05 -3.41164e-06 -0.000239543
0.000773021 -5.46954e-05 1.21801e-06
-5.46954e-05 0.000379131 4.7586e-06
1.21801e-06 4.7586e-06 9.85623e-05
0.00220904 -0.000306837 2.5348e-06
-0.000306837 0.00134289 -1.88956e-06
2.5348e-06 -1.88956e-06 0.000939419
0.00136919 -0.000756779 8.61079e-06
-0.000756779 -5.05504e-06 2.65083e-06
8.61079e-06 2.65083e-06 -3.62235e-05
0.000531322 -0.000652899 -3.31634e-05
-0.000652899 0.000248296 8.40409e-06
-3.31634e-05 8.40409e-06 -0.000138279
0.00208217 -0.00146674 5.41873e-05
-0.00146674 4.47093e-06 -2.30011e-05
5.41873e-05 -2.30011e-05 -6.74467e-05
-0.000308427 -0.000493269 -5.24278e-06
-0.000493269 -0.000429718 2.34287e-05
-5.24278e-06 2.34287e-05 -0.000488662
-0.00151116 -6.99765e-05 2.25359e-05
-6.99765e-05 -0.000668388 -9.6254e-07
2.25359e-05 -9.6254e-07 -0.0011507
0.00061805 4.06431e-05 -4.1744e-06
4.06431e-05 0.000233976 1.54971e-06
-4.1744e-06 1.54971e-06 1.0656e-05
0.000530908 -4.73857e-05 6.15742e-06
-4.73857e-05 0.000348191 -5.32024e-06
6.15742e-06 -5.32024e-06 2.53914e-05
0.00131814 0.000143791 -4.82656e-05
0.000143791 0.00190761 -1.87596e-05
-4.82656e-05 -1.87596e-05 -0.00219711
-0.00674383 0.000440334 -0.000380582
0.000440334 0.00656566 -1.97848e-05
-0.000380582 -1.97848e-05 0.00133559
-0.0133961 -0.00260542 -0.000748046
-0.00260542 -0.00523616 -7.06172e-06
-0.000748046 -7.06172e-06 -0.00618747
-0.000604101 0.000203646 1.13767e-05
0.000203646 -0.000470671 -4.7438e-06
1.13767e-05 -4.7438e-06 -0.00071297
-0.000807515 0.000489992 -2.87573e-06
0.000489992 -0.000556709 9.6393e-06
-2.87573e-06 9.6393e-06 -0.000974351
0.00229857 0.00101818 3.39583e-05
0.00101818 0.000596628 2.79359e-05
3.39583e-05 2.79359e-05 0.000431367
-0.00550986 0.00202094 8.3707e-05
0.00202094 0.00637178 5.91861e-05
8.3707e-05 5.91861e-05 0.00162241
0.00684617 0.00380697 -0.0003055
0.00380697 2.17772e-05 -0.000176286
-0.0003055 -0.000176286 -0.00331989
0.00158931 0.00218754 0.000433999
0.00218754 0.000249362 0.000158816
0.000433999 0.000158816 0.000118677
-8.77017e-05 0.000923836 2.01878e-05
0.000923836 -5.30328e-05 -4.74372e-05
2.01878e-05 -4.74372e-05 -0.000343496
0.0273019 -0.00380921 -0.000149499
-0.00380921 0.0089484 -0.000381159
-0.000149499 -0.000381159 0.00536335
0.00644578 0.00167675 0.000572049
0.00167675 0.00322647 0.000205595
0.000572049 0.000205595 -0.00257045
0.0139214 -0.0018528 0.000175025
-0.0018528 0.00243873 3.10922e-05
0.000175025 3.10922e-05 0.00374117
0.0012758 0.000540085 3.07951e-06
0.000540085 0.000662686 -1.96473e-06
3.07951e-06 -1.96473e-06 0.000350237
0.00382043 0.000619799 -1.30879e-05
0.000619799 0.00321078 1.35681e-05
-1.30879e-05 1.35681e-05 -0.000445332
0.00171115 0.000771844 7.23682e-05
0.000771844 0.000107269 -4.55209e-07
7.23682e-05 -4.55209e-07 -0.00151395
-0.000468612 0.000493124 -2.47513e-06
0.000493124 -0.000139306 -5.44329e-06
-2.47513e-06 -5.44329e-06 -0.000474162
0.000113736 0.00131611 -0.000123527
0.00131611 0.000793684 -6.10559e-05
-0.000123527 -6.10559e-05 -0.00044228
0.00118417 0.00475778 0.00022124
0.00475778 0.000665925 0.000112601
0.00022124 0.000112601 -0.00377557
0.0098043 -7.84155e-05 -2.17223e-06
-7.84155e-05 -0.00346069 -0.000214918
-2.17223e-06 -0.000214918 -0.000667399
0.0059597 -0.00264682 -7.97591e-05
-0.00264682 0.00361208 -0.000169172
-7.97591e-05 -0.000169172 -0.0014085
0.00103782 0.000434842 -7.78557e-06
0.000434842 0.000822188 -1.49158e-05
-7.78557e-06 -1.49158e-05 0.000462679
-0.00307611 0.000255389 1.52627e-05
0.000255389 6.90345e-05 2.90305e-05
1.52627e-05 2.90305e-05 -0.000416268
0.00515218 -0.000222834 0.0001236
-0.000222834 -0.000214724 -0.000154118
0.0001236 -0.000154118 -0.00148339
0.00865086 0.000864769 0.000300758
0.000864769 -0.00192615 -1.95695e-05
0.000300758 -1.95695e-05 -0.00119817
-0.00263462 0.000145443 3.83472e-05
0.000145443 -0.000138033 -2.98651e-05
3.83472e-05 -2.98651e-05 -0.000972882
0.0130126 0.00354346 0.000333377
0.00354346 0.00626798 8.01441e-05
0.000333377 8.01441e-05 0.000912572
0.00234159 -0.00059322 3.52403e-05
-0.00059322 0.00290698 0.000396249
3.52403e-05 0.000396249 -0.000834046
0.00319472 0.000472666 2.65916e-05
0.000472666 0.00192871 1.13282e-05
2.65916e-05 1.13282e-05 0.00166187
0.000422582 0.000217272 -5.63803e-06
0.000217272 0.000440149 -1.57377e-06
-5.63803e-06 -1.57377e-06 8.19352e-05
0.000240193 0.000189885 4.07508e-06
0.000189885 0.000495937 -1.24146e-06
4.07508e-06 -1.24146e-06 4.28798e-05
0.000482293 0.000143994 1.31958e-06
0.000143994 9.53524e-05 -9.18254e-07
1.31958e-06 -9.18254e-07 -9.89991e-05
0.000528675 8.24359e-05 1.14363e-06
8.24359e-05 0.000168102 2.77407e-06
1.14363e-06 2.77407e-06 -1.24523e-05
0.000117087 -9.856e-06 6.70583e-06
-9.856e-06 0.000319231 -3.6308e-06
6.70583e-06 -3.6308e-06 -8.82906e-05
0.000448004 3.171e-05 9.13363e-09
3.171e-05 0.000100693 -6.75719e-07
9.13363e-09 -6.75719e-07 -6.3392e-05
0.000755206 -4.00841e-05 -1.0052e-06
-4.00841e-05 0.000686512 -2.46184e-06
-1.0052e-06 -2.46184e-06 0.000291205
3.43152e-06 3.9576e-05 -5.94196e-08
3.9576e-05 0.000391299 -1.47355e-06
-5.94196e-08 -1.47355e-06 -0.00010416
-0.000101448 -2.29089e-05 -5.1778e-06
-2.29089e-05 0.000292522 1.07323e-05
-5.1778e-06 1.07323e-05 -0.000128906
0.000295856 -2.97436e-05 -1.72202e-06
-2.97436e-05 0.000349808 -5.67359e-06
-1.72202e-06 -5.67359e-06 3.89283e-05
9.25645e-06 -6.06093e-05 4.65051e-06
-6.06093e-05 -0.000184744 9.20118e-06
4.65051e-06 9.20118e-06 -0.000325592
0.00108434 -5.66553e-05 -4.18574e-07
-5.66553e-05 0.000450661 3.22436e-06
-4.18574e-07 3.22436e-06 0.00029977
0.00135343 -7.32067e-05 -1.58691e-05
-7.32067e-05 0.000635547 1.27645e-05
-1.58691e-05 1.27645e-05 0.000506489
0.000700397 -8.59748e-05 5.55625e-06
-8.59748e-05 0.00038298 -1.07247e-06
5.55625e-06 -1.07247e-06 0.000228288
0.000461603 -5.63479e-05 -1.07567e-06
-5.63479e-05 7.29424e-05 -1.02448e-06
-1.07567e-06 -1.02448e-06 -5.67344e-05
0.000534368 -0.000192351 -7.91452e-07
-0.000192351 0.00010767 3.83402e-06
-7.91452e-07 3.83402e-06 -2.41785e-05
0.000216586 -0.000168087 -1.2598e-05
-0.000168087 -0.000165049 -1.11724e-06
-1.2598e-05 -1.11724e-06 -0.000215015
-0.000909448 -0.000295716 1.14329e-05
-0.000295716 -0.000786639 2.03336e-05
1.14329e-05 2.03336e-05 -0.00108242
3.24281e-05 -0.00016216 5.59121e-06
-0.00016216 -0.000252555 -3.29017e-07
5.59121e-06 -3.29017e-07 -0.000365352
0.00116641 -0.00029241 -3.82041e-06
-0.00029241 0.000378372 1.17059e-05
-3.82041e-06 1.17059e-05 0.000191988
0.00201478 -0.000572604 -6.25717e-06
-0.000572604 0.000823649 1.42442e-05
-6.25717e-06 1.42442e-05 0.000450656
0.00170171 -0.000550378 -6.18059e-06
-0.000550378 0.000518554 -9.17396e-07
-6.18059e-06 -9.17396e-07 0.000126337
0.00156207 -0.000382753 1.98159e-06
-0.000382753 0.000616023 1.78962e-06
1.98159e-06 1.78962e-06 0.000369245
0.000546202 -0.000355917 9.16709e-06
-0.000355917 -8.87177e-05 -4.07151e-06
9.16709e-06 -4.07151e-06 -0.000374831
0.00124344 -0.000177027 3.13917e-06
-0.000177027 0.00056145 -3.91614e-06
3.13917e-06 -3.91614e-06 0.000300081
0.00116461 -0.000224544 -8.38788e-06
-0.000224544 0.000469369 1.51368e-06
-8.38788e-06 1.51368e-06 0.000260619
-0.000185611 -0.00012277 1.31049e-05
-0.00012277 -0.000414493 -1.68839e-05
1.31049e-05 -1.68839e-05 -0.000517563
0.00120756 -0.000112686 -1.96345e-06
-0.000112686 0.000489751 2.41902e-06
-1.96345e-06 2.41902e-06 0.00031376
0.000272439 -8.49298e-05 8.18712e-07
-8.49298e-05 -3.4514e-05 -2.7597e-07
8.18712e-07 -2.7597e-07 -0.000243671
0.000381383 -5.4831e-05 1.85261e-06
-5.4831e-05 -3.96855e-05 7.42472e-07
1.85261e-06 7.42472e-07 -0.000184943
0.00151485 -0.000230959 -1.93345e-06
-0.000230959 0.000738391 3.89378e-07
-1.93345e-06 3.89378e-07 0.000535497
0.000656101 -0.000100257 -4.00335e-07
-0.000100257 0.000147321 -1.52911e-07
-4.00335e-07 -1.52911e-07 6.36035e-06
0.000413955 1.07078e-05 3.05352e-06
1.07078e-05 -2.00907e-05 4.61414e-06
3.05352e-06 4.61414e-06 -0.000118365
0.000797147 -0.000139163 -4.83643e-07
-0.000139163 0.000248593 -2.21872e-06
-4.83643e-07 -2.21872e-06 0.000106666
0.000481857 6.61148e-06 -2.1591e-06
6.61148e-06 2.01232e-05 -1.97483e-07
-2.1591e-06 -1.97483e-07 -7.00533e-05
0.00142881 8.08381e-06 -1.69701e-05
8.08381e-06 0.00057959 5.41674e-06
-1.69701e-05 5.41674e-06 0.00055513
0.000584366 -6.56957e-05 2.051e-06
-6.56957e-05 8.22021e-05 -4.35392e-06
2.051e-06 -4.35392e-06 -3.17332e-06
0.000881444 -8.5355e-06 -8.56249e-06
-8.5355e-06 0.000235617 5.5344e-07
-8.56249e-06 5.5344e-07 0.000210075
0.000837263 3.16836e-05 5.15683e-07
3.16836e-05 0.000197017 3.10804e-06
5.15683e-07 3.10804e-06 0.000196437
0.000447473 -2.44395e-05 2.51492e-06
-2.44395e-05 -3.40174e-05 -6.06336e-06
2.51492e-06 -6.06336e-06 -6.09271e-05
0.00172538 3.28793e-05 1.42396e-05
3.28793e-05 0.000762359 -1.23648e-06
1.42396e-05 -1.23648e-06 0.000769194
0.00254197 2.54508e-05 1.68178e-05
2.54508e-05 0.00127844 -5.47051e-06
1.68178e-05 -5.47051e-06 0.00129083
0.000313734 1.81552e-05 1.40911e-06
1.81552e-05 -6.218e-05 1.68382e-06
1.40911e-06 1.68382e-06 -0.000194926
0.000151634 2.0138e-05 -3.47677e-08
2.0138e-05 -0.000201907 -3.57187e-06
-3.47677e-08 -3.57187e-06 -0.000265478
0.000622299 5.22675e-05 1.46772e-07
5.22675e-05 0.000125205 1.76508e-07
1.46772e-07 1.76508e-07 1.25453e-05
0.000465042 4.46769e-06 1.48542e-06
4.46769e-06 -3.71738e-05 -3.79827e-06
1.48542e-06 -3.79827e-06 -4.86996e-05
0.000326386 6.87182e-06 1.60573e-06
6.87182e-06 -9.38753e-05 3.53003e-08
1.60573e-06 3.53003e-08 -0.000147642
0.000245333 -9.35753e-05 -9.1561e-07
-9.35753e-05 -0.000109258 -7.57706e-07
-9.1561e-07 -7.57706e-07 -0.000210199
0.0020592 -4.66629e-06 -1.1448e-05
-4.66629e-06 0.000970449 -4.824e-06
-1.1448e-05 -4.824e-06 0.00098819
0.000460122 3.61317e-06 8.67366e-09
3.61317e-06 -3.91398e-05 -6.71733e-08
8.67366e-09 -6.71733e-08 -4.89043e-05
0.000432226 -1.4904e-05 -2.70972e-06
-1.4904e-05 -2.54542e-05 2.29637e-06
-2.70972e-06 2.29637e-06 -7.26044e-05
0.00202038 1.06953e-05 -4.68382e-06
1.06953e-05 0.00094724 8.11724e-09
-4.68382e-06 8.11724e-09 0.000964788
0.000452351 5.00786e-06 -1.35829e-06
5.00786e-06 -4.30356e-05 3.26337e-06
-1.35829e-06 3.26337e-06 -5.24675e-05
0.00199288 2.57021e-05 1.60741e-06
2.57021e-05 0.000931813 4.8325e-06
1.60741e-06 4.8325e-06 0.000948419
-0.000332065 -0.000816718 -0.000249539
-0.000816718 -0.000135666 9.58645e-05
-0.000249539 9.58645e-05 -0.00337527
0.00189783 0.000675581 -0.000118154
0.000675581 0.00770669 2.35045e-05
-0.000118154 2.35045e-05 0.00343767
0.00239201 2.55924e-06 -0.000892249
2.55924e-06 0.00388092 0.000185493
-0.000892249 0.000185493 0.00198202
0.000723974 0.00012331 5.13036e-06
0.00012331 0.000190975 6.65274e-06
5.13036e-06 6.65274e-06 3.38064e-05
0.00511024 -0.000935838 -9.59874e-05
-0.000935838 0.00323926 0.000243936
-9.59874e-05 0.000243936 0.00109052
0.00412988 -0.00129961 -0.000278572
-0.00129961 0.00172718 2.61205e-05
-0.000278572 2.61205e-05 -0.00293743
0.0114651 0.00350645 0.000346048
0.00350645 0.00791782 -0.00035326
0.000346048 -0.00035326 0.00353772
0.00730305 -0.00108321 0.000124055
-0.00108321 0.000760008 -2.24885e-05
0.000124055 -2.24885e-05 0.00110408
0.0131172 -0.00236108 0.000271241
-0.00236108 0.000971472 -0.000140741
0.000271241 -0.000140741 -8.7116e-05
0.00921786 0.00482742 -0.000673428
0.00482742 0.000810624 0.000424845
-0.000673428 0.000424845 -0.00282502
0.0139391 0.00433772 0.000118763
0.00433772 0.00514666 0.00023264
0.000118763 0.00023264 0.00241912
0.00748689 -0.00230643 -0.00012156
-0.00230643 0.000149099 -4.71738e-06
-0.00012156 -4.71738e-06 0.000668958
0.0172597 -0.00422991 3.43462e-05
-0.00422991 0.00398187 -3.448e-05
3.43462e-05 -3.448e-05 0.00148246
0.00857372 0.00286085 0.000145822
0.00286085 0.00319284 -0.000358885
0.000145822 -0.000358885 -0.00120532
0.012244 0.00126852 1.05943e-05
0.00126852 -0.000259058 4.23147e-05
1.05943e-05 4.23147e-05 -0.000136642
0.00289016 -0.00245402 -6.31956e-05
-0.00245402 7.75428e-06 8.20269e-05
-6.31956e-05 8.20269e-05 -5.80509e-06
0.0106175 -0.00443071 0.000161162
-0.00443071 0.00451239 -0.000108936
0.000161162 -0.000108936 0.00015609
0.00995147 -0.000286714 0.000126991
-0.000286714 0.00481142 -0.000458256
0.000126991 -0.000458256 0.00183236
0.0121237 0.000362178 -0.000141212
0.000362178 -0.00130967 0.00025378
-0.000141212 0.00025378 0.000811212
0.000326757 7.18491e-05 4.60057e-06
7.18491e-05 4.5738e-05 1.04457e-05
4.60057e-06 1.04457e-05 -0.000169422
0.000717353 -0.000132683 5.95879e-07
-0.000132683 0.000304392 -2.88874e-07
5.95879e-07 -2.88874e-07 5.83649e-05
0.000865723 0.000126596 1.95342e-06
0.000126596 0.000341335 -4.80042e-06
1.95342e-06 -4.80042e-06 0.000184934
0.000493096 0.000131614 2.10828e-06
0.000131614 2.95552e-05 1.1388e-05
2.10828e-06 1.1388e-05 -0.000114532
0.00082819 0.000191109 2.91732e-07
0.000191109 0.00030138 6.52667e-07
2.91732e-07 6.52667e-07 0.000105369
0.00107333 0.000106682 -4.39629e-06
0.000106682 0.000455631 -4.85823e-06
-4.39629e-06 -4.85823e-06 0.000295607
0.00104162 0.000173343 -1.5133e-06
0.000173343 0.000426588 -3.7813e-08
-1.5133e-06 -3.7813e-08 0.000248169
0.00106258 0.000183572 1.46875e-06
0.000183572 0.000463525 1.96635e-06
1.46875e-06 1.96635e-06 0.000281417
0.000581279 -0.000628727 0.000121012
-0.000628727 -0.000921148 -6.74552e-05
0.000121012 -6.74552e-05 -0.000761411
0.000451883 -0.000692688 -2.74002e-05
-0.000692688 -0.00059537 -3.46166e-06
-2.74002e-05 -3.46166e-06 -0.000543496
0.000944467 -0.000228161 3.04191e-06
-0.000228161 0.000467275 -2.83934e-05
3.04191e-06 -2.83934e-05 0.000169949
0.0017653 -0.000699464 1.90443e-05
-0.000699464 0.000894088 -2.41744e-05
1.90443e-05 -2.41744e-05 0.000548666
0.00248619 -0.00047285 -2.13323e-05
-0.00047285 0.00144983 2.15712e-05
-2.13323e-05 2.15712e-05 0.00105395
0.00161344 -0.000164781 4.50965e-06
-0.000164781 0.000884244 -2.24324e-05
4.50965e-06 -2.24324e-05 0.000588274
1.60375e-05 -1.67702e-05 3.3723e-06
-1.67702e-05 -0.000145912 7.61999e-06
3.3723e-06 7.61999e-06 -0.000361365
0.000496177 -0.00120873 -8.47308e-06
-0.00120873 -0.00066709 -4.56075e-06
-8.47308e-06 -4.56075e-06 -0.000741419
0.0013383 -1.87685e-05 -6.83429e-07
-1.87685e-05 0.000846253 -5.53484e-07
-6.83429e-07 -5.53484e-07 0.000514179
0.00030781 -0.000238267 -1.88528e-06
-0.000238267 0.000309913 5.10751e-06
-1.88528e-06 5.10751e-06 -0.000126553
-0.000348987 -0.000395864 2.34092e-05
-0.000395864 -0.000478482 5.50975e-07
2.34092e-05 5.50975e-07 -0.000454342
0.000851166 0.00011291 1.58438e-06
0.00011291 0.000384149 2.18001e-06
1.58438e-06 2.18001e-06 0.000183421
-3.56546e-05 -0.00110043 -5.78954e-05
-0.00110043 -0.000358402 -2.35494e-05
-5.78954e-05 -2.35494e-05 -0.000606418
-0.000983185 -0.000414849 -1.71914e-05
-0.000414849 -0.000517156 3.01261e-05
-1.71914e-05 3.01261e-05 -0.000795335
0.000102453 0.00014218 1.8746e-05
0.00014218 0.00041099 -2.49163e-05
1.8746e-05 -2.49163e-05 -0.00011252
0.00188117 0.00029799 -2.88873e-06
0.00029799 0.00119271 -6.73637e-07
-2.88873e-06 -6.73637e-07 0.000894328
-0.00118804 0.000106679 0.000119453
0.000106679 0.0015775 2.43751e-05
0.000119453 2.43751e-05 0.000622673
0.000420264 -1.34376e-05 0.000159917
-1.34376e-05 0.00125475 -3.40835e-05
0.000159917 -3.40835e-05 -0.00287656
-0.0116423 -0.000360342 -0.0002768
-0.000360342 0.00606475 2.73185e-05
-0.0002768 2.73185e-05 0.000455972
0.00175481 0.000575106 2.0538e-05
0.000575106 0.00102413 4.15012e-06
2.0538e-05 4.15012e-06 0.000702931
-0.000700233 0.000691152 1.28796e-05
0.000691152 -0.000297793 1.04604e-05
1.28796e-05 1.04604e-05 -0.000751071
0.00554045 0.000826912 0.000325867
0.000826912 0.00379746 6.41048e-05
0.000325867 6.41048e-05 0.00126963
0.00944629 0.00383418 0.000263922
0.00383418 0.00328852 0.000201836
0.000263922 0.000201836 -0.000834266
0.00445755 0.00251273 -9.6356e-05
0.00251273 0.0025071 -0.000100018
-9.6356e-05 -0.000100018 0.00110302
0.00460321 -0.00226124 -0.000181283
-0.00226124 0.0042475 -0.000458438
-0.000181283 -0.000458438 0.000357801
0.00278694 0.000637236 0.000137721
0.000637236 0.000380262 0.000182461
0.000137721 0.000182461 -0.0012249
0.00769441 -0.000241572 -5.43162e-05
-0.000241572 -0.00541756 -0.000242461
-5.43162e-05 -0.000242461 -0.00219764
0.00100441 0.000508897 5.82609e-06
0.000508897 0.000764437 1.61263e-06
5.82609e-06 1.61263e-06 0.000374326
-0.00258605 0.000116036 -2.78129e-06
0.000116036 0.000141705 2.73272e-06
-2.78129e-06 2.73272e-06 -0.000478601
0.00450195 -0.000111025 0.000115806
-0.000111025 -0.000252024 2.20704e-05
0.000115806 2.20704e-05 -0.000884208
-0.00176081 0.000439476 -1.3872e-05
0.000439476 -0.000257127 -1.11607e-05
-1.3872e-05 -1.11607e-05 -0.000998365
0.0119485 0.00139921 -3.91948e-06
0.00139921 -0.00021926 -4.4486e-05
-3.91948e-06 -4.4486e-05 -0.000152365
0.00273688 0.00196456 0.000225612
0.00196456 0.003907 0.000138624
0.000225612 0.000138624 -0.001833
0.00729844 0.000682208 -0.000173907
0.000682208 0.00322273 5.17052e-06
-0.000173907 5.17052e-06 -0.000529222
0.000359135 0.000436782 6.0257e-06
0.000436782 0.00054139 -2.403e-05
6.0257e-06 -2.403e-05 8.08906e-06
0.00153051 -1.90422e-05 3.67008e-06
-1.90422e-05 0.000307367 -1.43757e-05
3.67008e-06 -1.43757e-05 -0.000131467
0.00394664 -0.00119848 7.95032e-05
-0.00119848 0.00321959 -0.000241764
7.95032e-05 -0.000241764 0.00132448
0.0202722 0.00488539 0.000312564
0.00488539 0.00620752 -0.000285887
0.000312564 -0.000285887 0.00386548
0.00906741 -0.000148745 -0.000109398
-0.000148745 0.00489584 0.000467095
-0.000109398 0.000467095 0.00161608
0.000193715 0.000426323 -2.09587e-05
0.000426323 0.000732918 -0.000136075
-2.09587e-05 -0.000136075 4.6984e-05
0.00444761 0.00144212 0.000265961
0.00144212 0.00622796 2.52622e-05
0.000265961 2.52622e-05 -0.00209252
0.00124646 0.000339933 8.53517e-06
0.000339933 0.0009146 1.13576e-05
8.53517e-06 1.13576e-05 0.000540314
0.000619344 0.000248241 4.12992e-06
0.000248241 0.000714831 2.19705e-06
4.12992e-06 2.19705e-06 0.000279423
0.000471031 -3.08254e-05 -1.7073e-05
-3.08254e-05 0.000771996 2.70628e-06
-1.7073e-05 2.70628e-06 0.000393323
-0.000557828 -3.76646e-05 1.67986e-06
-3.76646e-05 -0.000537865 2.57009e-06
1.67986e-06 2.57009e-06 -0.000684937
0.000336829 -1.75862e-05 4.86969e-06
-1.75862e-05 0.00045761 -9.84212e-07
4.86969e-06 -9.84212e-07 4.18524e-05
4.82437e-05 4.90271e-05 4.21416e-06
4.90271e-05 0.000427591 -5.15024e-06
4.21416e-06 -5.15024e-06 -6.95422e-05
0.000196107 -3.21261e-05 4.06979e-07
-3.21261e-05 0.000231108 6.05573e-07
4.06979e-07 6.05573e-07 -2.67225e-05
-2.44914e-05 -4.22471e-05 4.12429e-06
-4.22471e-05 0.000326112 8.08014e-07
4.12429e-06 8.08014e-07 -9.4911e-05
0.00156038 -0.000378062 4.49053e-06
-0.000378062 0.00104268 -1.07517e-05
4.49053e-06 -1.07517e-05 0.000709665
0.000864301 -9.60962e-05 -6.6122e-06
-9.60962e-05 0.000463763 5.94769e-06
-6.6122e-06 5.94769e-06 0.000319487
0.000277822 -8.37832e-06 -9.01684e-07
-8.37832e-06 -3.83901e-05 1.59402e-06
-9.01684e-07 1.59402e-06 -0.000166468
0.00132888 -0.000283263 8.76333e-07
-0.000283263 0.000590101 5.54886e-06
8.76333e-07 5.54886e-06 0.000421775
-0.0030771 -0.000104449 1.85767e-05
-0.000104449 -0.00187256 2.1213e-05
1.85767e-05 2.1213e-05 -0.00220331
-0.000354879 -0.000108121 1.14155e-05
-0.000108121 -0.000422178 -1.82814e-06
1.14155e-05 -1.82814e-06 -0.000438184
-8.59426e-05 -0.000342644 -9.24714e-07
-0.000342644 -0.000340806 -5.31389e-06
-9.24714e-07 -5.31389e-06 -0.00059958
0.00127139 -0.000544245 -6.53168e-07
-0.000544245 0.000333847 -6.72049e-07
-6.53168e-07 -6.72049e-07 -0.000129843
0.00170774 -0.00065637 -7.59879e-06
-0.00065637 0.000478135 1.435e-07
-7.59879e-06 1.435e-07 2.93611e-05
0.00167385 -0.000363643 5.3715e-06
-0.000363643 0.000673717 -3.74543e-06
5.3715e-06 -3.74543e-06 0.000463982
0.00127693 -0.000487061 7.73826e-07
-0.000487061 0.000359722 6.4464e-07
7.73826e-07 6.4464e-07 -4.6676e-06
0.00164091 -0.000557062 4.35613e-06
-0.000557062 0.000450159 -4.19403e-06
4.35613e-06 -4.19403e-06 6.53938e-05
0.00121082 -0.000395433 -2.10822e-06
-0.000395433 0.000283952 7.69282e-06
-2.10822e-06 7.69282e-06 -1.56271e-05
0.00111334 -0.000474999 2.176e-06
-0.000474999 0.000168007 -4.62452e-06
2.176e-06 -4.62452e-06 -0.00019965
0.000649432 -0.000168801 9.96022e-07
-0.000168801 0.000145835 -6.04492e-06
9.96022e-07 -6.04492e-06 -0.000110459
0.00112326 -0.000356842 -5.7077e-06
-0.000356842 0.000356148 3.23115e-06
-5.7077e-06 3.23115e-06 9.72766e-05
-0.000925113 -0.000164401 -6.868e-08
-0.000164401 -0.000987313 -9.84247e-06
-6.868e-08 -9.84247e-06 -0.0012179
1.48387e-05 -5.68877e-05 1.10013e-06
-5.68877e-05 -0.000241645 -2.54189e-06
1.10013e-06 -2.54189e-06 -0.000435475
0.00035118 -0.000139512 2.56212e-07
-0.000139512 3.43409e-05 2.96092e-07
2.56212e-07 2.96092e-07 -0.000224944
0.00042268 -0.000198517 1.12834e-05
-0.000198517 6.16338e-05 1.29008e-07
1.12834e-05 1.29008e-07 -0.000162305
0.000609014 -0.000128229 -1.09375e-07
-0.000128229 0.000167747 2.67234e-06
-1.09375e-07 2.67234e-06 -3.824e-05
0.00071605 -0.000117085 8.09913e-08
-0.000117085 0.000185481 3.6942e-07
8.09913e-08 3.6942e-07 2.33908e-05
0.000557511 -7.16002e-06 1.99082e-06
-7.16002e-06 5.99266e-05 6.39861e-06
1.99082e-06 6.39861e-06 -4.72277e-05
0.00102747 -0.000147363 -2.01514e-06
-0.000147363 0.000396486 -1.09696e-06
-2.01514e-06 -1.09696e-06 0.000239349
0.000576008 -1.05255e-05 -1.2011e-06
-1.05255e-05 6.97774e-05 -3.46671e-07
-1.2011e-06 -3.46671e-07 -2.30152e-05
0.000396881 4.73326e-05 2.48352e-06
4.73326e-05 -6.12183e-05 7.22437e-06
2.48352e-06 7.22437e-06 -9.82684e-05
0.000690339 -6.60783e-05 1.05751e-06
-6.60783e-05 0.000142328 -3.77606e-06
1.05751e-06 -3.77606e-06 5.4908e-05
0.000449732 1.90934e-06 -1.34272e-06
1.90934e-06 -3.90302e-05 -4.44384e-08
-1.34272e-06 -4.44384e-08 -6.94146e-05
0.00261285 9.1416e-05 -2.00539e-06
9.1416e-05 0.00132543 2.64443e-06
-2.00539e-06 2.64443e-06 0.00132987
0.000469557 -1.58746e-05 2.56564e-06
-1.58746e-05 -2.51132e-05 -6.21208e-06
2.56564e-06 -6.21208e-06 -5.37368e-05
0.00175959 4.64143e-05 1.72055e-05
4.64143e-05 0.000783224 -1.03943e-06
1.72055e-05 -1.03943e-06 0.000788075
0.00261519 4.14295e-05 2.37388e-05
4.14295e-05 0.00132334 -5.65337e-06
2.37388e-05 -5.65337e-06 0.00133474
0.000267245 2.21103e-05 1.50543e-06
2.21103e-05 -0.000109743 1.2587e-06
1.50543e-06 1.2587e-06 -0.000231365
0.000218031 1.07458e-05 1.41021e-06
1.07458e-05 -0.000161758 -2.62449e-06
1.41021e-06 -2.62449e-06 -0.000236487
0.000459949 3.72985e-05 -5.88362e-07
3.72985e-05 2.46197e-05 -1.24237e-06
-5.88362e-07 -1.24237e-06 -0.000101491
0.000487761 4.69664e-06 1.53397e-06
4.69664e-06 -2.35454e-05 -4.26459e-06
1.53397e-06 -4.26459e-06 -3.79512e-05
0.000192324 1.65919e-05 -6.0715e-07
1.65919e-05 -0.00017702 -1.75154e-06
-6.0715e-07 -1.75154e-06 -0.000242669
0.000667976 5.71698e-05 -2.93218e-08
5.71698e-05 0.00016673 1.30217e-06
-2.93218e-08 1.30217e-06 4.50105e-05
0.00208055 -1.8144e-05 -1.67521e-05
-1.8144e-05 0.00098265 -4.72359e-06
-1.67521e-05 -4.72359e-06 0.00100022
0.000467795 2.40044e-06 -6.70618e-07
2.40044e-06 -3.59254e-05 -7.00494e-08
-6.70618e-07 -7.00494e-08 -4.71155e-05
0.000110781 1.58703e-05 1.54458e-06
1.58703e-05 -0.000226281 1.73921e-06
1.54458e-06 1.73921e-06 -0.000283864
0.0020433 -3.47439e-06 -4.07536e-06
-3.47439e-06 0.000960282 4.84945e-08
-4.07536e-06 4.84945e-08 0.000978148
0.000449951 3.113e-06 -1.60591e-06
3.113e-06 -4.61785e-05 3.48292e-06
-1.60591e-06 3.48292e-06 -5.55846e-05
0.00206816 1.22568e-05 7.17212e-06
1.22568e-05 0.000977855 4.8987e-06
7.17212e-06 4.8987e-06 0.000994968
0.00045532 -4.37716e-05 0.000135766
-4.37716e-05 0.00226708 5.51059e-05
0.000135766 5.51059e-05 0.00157839
-0.000270194 -0.000395311 -5.26481e-05
-0.000395311 0.000402552 -1.01328e-05
-5.26481e-05 -1.01328e-05 -0.00348492
0.000194733 0.000659903 -4.33371e-05
0.000659903 0.00734431 -4.81567e-05
-4.33371e-05 -4.81567e-05 0.00292404
0.000765184 0.000133887 6.72514e-07
0.000133887 0.000205654 1.3272e-07
6.72514e-07 1.3272e-07 5.97082e-05
0.000251476 8.92208e-05 5.88087e-06
8.92208e-05 -0.000126631 4.76311e-06
5.88087e-06 4.76311e-06 -0.000260006
0.00108042 0.000194652 9.04235e-06
0.000194652 0.000404585 8.39085e-06
9.04235e-06 8.39085e-06 0.00025629
0.00608098 -0.00038265 -0.000101467
-0.00038265 -0.000386739 0.000225563
-0.000101467 0.000225563 -0.00147057
0.00506355 -0.00110689 9.67139e-05
-0.00110689 0.00290943 7.12269e-06
9.67139e-05 7.12269e-06 0.00141822
0.00462629 -0.00183035 0.000200564
-0.00183035 0.00193699 -0.000260914
0.000200564 -0.000260914 -0.00280083
0.00871784 -0.00276553 -1.28555e-05
-0.00276553 0.000177373 -3.35305e-05
-1.28555e-05 -3.35305e-05 0.000894133
0.0011567 -0.00335586 -0.00042519
-0.00335586 -0.00205334 9.58141e-05
-0.00042519 9.58141e-05 -0.00466268
0.026263 0.00429929 0.000244761
0.00429929 0.0108751 0.000176006
0.000244761 0.000176006 0.00594981
0.00733442 -0.000173698 0.000303589
-0.000173698 -0.00266829 -0.000240635
0.000303589 -0.000240635 -0.00291748
0.00426699 -0.00284017 -2.97674e-05
-0.00284017 -4.15493e-05 1.74747e-05
-2.97674e-05 1.74747e-05 0.000401123
0.00735741 -0.00433559 -0.000122054
-0.00433559 0.00272661 2.02416e-05
-0.000122054 2.02416e-05 -0.00204538
-0.0018901 0.00377754 -9.05106e-05
0.00377754 0.00400323 -0.000315192
-9.05106e-05 -0.000315192 -0.00098065
0.0101245 6.21855e-05 -8.04126e-05
6.21855e-05 -0.00349909 0.000145666
-8.04126e-05 0.000145666 -0.000665204
0.00192366 -0.00207764 -0.00010515
-0.00207764 0.00123109 4.50896e-05
-0.00010515 4.50896e-05 0.000775649
0.0108696 -0.00315563 -0.0003061
-0.00315563 0.00587549 0.000179092
-0.0003061 0.000179092 0.000740054
-1.27043e-05 -0.000113113 5.11042e-05
-0.000113113 0.0025004 -0.00034017
5.11042e-05 -0.00034017 -0.00135141
0.00911107 -0.000821986 0.000124818
-0.000821986 -0.00195643 6.7139e-05
0.000124818 6.7139e-05 -0.00120966
0.000230485 9.96784e-05 7.90291e-06
9.96784e-05 -8.23777e-05 1.99515e-05
7.90291e-06 1.99515e-05 -0.000228047
0.00068724 -7.76254e-07 2.41427e-06
-7.76254e-07 0.000249306 -3.03606e-06
2.41427e-06 -3.03606e-06 2.37168e-05
0.000392169 -0.000163974 2.17905e-06
-0.000163974 2.39273e-05 -1.08797e-05
2.17905e-06 -1.08797e-05 -0.000184161
0.000649562 0.000136334 -1.96836e-06
0.000136334 0.000131306 1.53489e-06
-1.96836e-06 1.53489e-06 -2.04117e-05
0.000757031 0.000143747 2.24126e-06
0.000143747 0.000259343 -5.79585e-06
2.24126e-06 -5.79585e-06 7.49294e-05
0.00116488 0.000197768 -3.97003e-06
0.000197768 0.000506734 -4.7594e-06
-3.97003e-06 -4.7594e-06 0.000326321
-0.000372033 -0.0010424 3.51289e-05
-0.0010424 -0.00103436 -1.60103e-05
3.51289e-05 -1.60103e-05 -0.0010983
0.00102157 -0.000378387 2.26335e-05
-0.000378387 0.000287893 -2.41732e-05
2.26335e-05 -2.41732e-05 0.000331352
5.31376e-05 7.0559e-05 -1.59056e-06
7.0559e-05 -0.000114959 -1.60095e-05
-1.59056e-06 -1.60095e-05 -0.000343511
0.00231663 -0.000475392 5.99578e-05
-0.000475392 0.0014003 -2.63378e-05
5.99578e-05 -2.63378e-05 0.00100324
0.00178435 -0.000133532 -1.17862e-06
-0.000133532 0.00106897 3.70357e-06
-1.17862e-06 3.70357e-06 0.000765583
-9.61677e-05 9.64179e-05 4.077e-06
9.64179e-05 -0.00013923 4.11096e-06
4.077e-06 4.11096e-06 -0.000362177
0.000607615 0.000117734 6.17895e-07
0.000117734 0.000393489 -1.21663e-06
6.17895e-07 -1.21663e-06 0.00013656
0.000532515 -0.00120271 -3.26474e-05
-0.00120271 -0.000121097 4.70582e-07
-3.26474e-05 4.70582e-07 -0.000469131
0.000260963 -4.03177e-05 -5.96675e-06
-4.03177e-05 0.000531949 4.26975e-06
-5.96675e-06 4.26975e-06 3.22509e-06
0.0011617 -0.000364724 -3.26205e-06
-0.000364724 0.000721436 -8.51935e-06
-3.26205e-06 -8.51935e-06 0.000362206
0.000641324 0.000161874 2.55526e-06
0.000161874 0.000398327 -1.47036e-05
2.55526e-06 -1.47036e-05 0.000164672
-0.00191007 -0.000287683 -5.86304e-05
-0.000287683 -0.000122028 -1.51329e-05
-5.86304e-05 -1.51329e-05 -0.00102402
0.000749043 -0.000220663 -2.98963e-05
-0.000220663 0.000866518 7.50913e-06
-2.98963e-05 7.50913e-06 0.000462851
-0.000409085 7.41216e-05 -1.2826e-05
7.41216e-05 0.000240259 7.96457e-06
-1.2826e-05 7.96457e-06 -0.000241825
-0.000208282 0.000200724 -1.12409e-05
0.000200724 -0.000608058 3.15224e-06
-1.12409e-05 3.15224e-06 -0.00180928
-0.00182603 0.000206355 5.81774e-05
0.000206355 0.00130387 -1.31257e-05
5.81774e-05 -1.31257e-05 0.000341202
-0.000432893 -0.000154971 0.000337966
-0.000154971 0.000648673 2.83501e-05
0.000337966 2.83501e-05 -0.003478
0.000126811 0.000481183 2.85875e-06
0.000481183 0.000235677 1.69743e-05
2.85875e-06 1.69743e-05 -0.000177727
0.00037137 0.000812256 -2.10122e-05
0.000812256 0.000440589 -9.22079e-06
-2.10122e-05 -9.22079e-06 -0.00021193
-0.00234641 6.91186e-05 -4.18181e-05
6.91186e-05 0.000203474 -2.24234e-05
-4.18181e-05 -2.24234e-05 -0.000556311
-0.00484873 0.000709518 6.54677e-05
0.000709518 0.00255443 0.000190644
6.54677e-05 0.000190644 -0.00289854
-0.000621428 0.00119766 -0.000188025
0.00119766 -0.0016266 -0.000479459
-0.000188025 -0.000479459 -0.00626438
0.00374562 2.69138e-06 8.73231e-05
2.69138e-06 -0.000347689 9.35357e-05
8.73231e-05 9.35357e-05 -0.000439833
0.00680785 -1.1529e-06 -0.000301538
-1.1529e-06 -0.0024704 0.000241325
-0.000301538 0.000241325 -0.00293434
0.000202652 0.000355919 -4.04193e-07
0.000355919 0.000496895 -6.61316e-07
-4.04193e-07 -6.61316e-07 3.42942e-05
0.00105935 1.48143e-05 3.24955e-05
1.48143e-05 0.000228637 -1.34538e-05
3.24955e-05 -1.34538e-05 -0.000188051
0.0042303 -0.000863434 -9.36207e-05
-0.000863434 0.0028804 7.50954e-07
-9.36207e-05 7.50954e-07 0.0013452
-0.000474803 0.00068073 -0.000138088
0.00068073 0.00109215 -6.4195e-06
-0.000138088 -6.4195e-06 -0.000331379
0.0146614 0.00496894 8.161e-06
0.00496894 0.00329823 -0.000406944
8.161e-06 -0.000406944 0.000794253
0.000312549 0.00314303 8.16997e-05
0.00314303 0.00441544 0.000326939
8.16997e-05 0.000326939 -0.00069363
0.0051296 0.000693134 6.19063e-05
0.000693134 0.00582749 -2.14718e-05
6.19063e-05 -2.14718e-05 -0.00149063
0.000615923 -1.77567e-05 4.21735e-05
-1.77567e-05 0.0014223 -2.74155e-05
4.21735e-05 -2.74155e-05 0.000380131
2.02229e-05 -0.000143527 -0.000120757
-0.000143527 0.00236751 3.74106e-06
-0.000120757 3.74106e-06 0.00151239
0.00195787 -0.000918694 0.000714667
-0.000918694 0.000680412 -0.000259498
0.000714667 -0.000259498 -0.00423681
0.0191388 0.00730497 -7.50205e-05
0.00730497 0.0129781 -5.16287e-06
-7.50205e-05 -5.16287e-06 0.00955098
0.00651148 0.00376891 -0.000124698
0.00376891 0.00181861 0.000807376
-0.000124698 0.000807376 -0.00235238
0.011898 -0.00343351 0.000283933
-0.00343351 0.00603008 -0.000233121
0.000283933 -0.000233121 0.000245669
0.00361065 -0.000765505 -6.84448e-05
-0.000765505 0.00324232 3.51357e-05
-6.84448e-05 3.51357e-05 0.00232299
0.000670761 0.000232326 -4.5466e-06
0.000232326 0.000763421 2.58444e-06
-4.5466e-06 2.58444e-06 0.000331045
-8.96699e-06 -5.68334e-05 -7.80085e-06
-5.68334e-05 0.000424358 -3.3991e-06
-7.80085e-06 -3.3991e-06 1.23092e-05
0.00126924 -0.000515816 4.09661e-05
-0.000515816 0.00094028 -1.30125e-05
4.09661e-05 -1.30125e-05 0.000426555
0.000364396 -7.81766e-05 -1.20494e-06
-7.81766e-05 0.00028601 3.90781e-06
-1.20494e-06 3.90781e-06 7.24973e-05
-2.97199e-05 -5.54944e-05 8.3393e-08
-5.54944e-05 0.000291654 -1.3485e-05
8.3393e-08 -1.3485e-05 -0.000107004
0.000503317 -0.000300318 -4.29325e-06
-0.000300318 0.00054494 3.89111e-07
-4.29325e-06 3.89111e-07 0.00019673
0.00097082 -0.000595973 2.07168e-05
-0.000595973 0.000374249 -1.84829e-05
2.07168e-05 -1.84829e-05 8.89804e-05
0.00225121 -0.00038311 -6.6847e-07
-0.00038311 0.00117009 6.60368e-07
-6.6847e-07 6.60368e-07 0.000951053
0.00166333 -0.000638405 1.48675e-05
-0.000638405 0.000740604 -2.87962e-06
1.48675e-05 -2.87962e-06 0.000341948
0.00102962 -0.000559923 7.75454e-06
-0.000559923 0.00037261 1.14523e-06
7.75454e-06 1.14523e-06 -0.000254784
0.000662172 -0.000357232 -5.76328e-06
-0.000357232 7.01165e-05 -5.90382e-06
-5.76328e-06 -5.90382e-06 -0.000138933
0.0020303 -0.000635558 -2.60274e-06
-0.000635558 0.000738774 -1.18815e-06
-2.60274e-06 -1.18815e-06 0.000270799
0.0020984 -0.000784606 -8.02785e-06
-0.000784606 0.000673686 -5.27533e-07
-8.02785e-06 -5.27533e-07 0.000106861
0.00193901 -0.000837565 -1.19587e-05
-0.000837565 0.000432241 2.05002e-06
-1.19587e-05 2.05002e-06 -6.62327e-05
0.00180232 -0.000706433 -2.81672e-06
-0.000706433 0.000507426 -3.4896e-07
-2.81672e-06 -3.4896e-07 6.09598e-05
0.00165859 -0.000653027 -4.62346e-06
-0.000653027 0.000438711 1.19744e-06
-4.62346e-06 1.19744e-06 -1.18303e-05
0.00122483 -0.000486572 -9.70805e-07
-0.000486572 0.000300996 -5.8362e-06
-9.70805e-07 -5.8362e-06 -7.33134e-05
0.00149019 -0.000504147 9.07571e-06
-0.000504147 0.000432412 -2.21139e-06
9.07571e-06 -2.21139e-06 7.69725e-05
0.00158788 -0.000558804 6.03502e-06
-0.000558804 0.00041995 -1.97353e-06
6.03502e-06 -1.97353e-06 3.50386e-05
0.000772583 -0.000244556 1.53851e-06
-0.000244556 9.91004e-05 -6.00259e-07
1.53851e-06 -6.00259e-07 -0.000147408
0.00105103 -0.000388751 4.69634e-06
-0.000388751 0.000191484 -4.04207e-06
4.69634e-06 -4.04207e-06 -0.000106557
0.000409904 -0.000387645 -1.61064e-06
-0.000387645 -0.000256066 -8.28644e-06
-1.61064e-06 -8.28644e-06 -0.0005972
3.24746e-06 -6.33084e-05 5.10358e-07
-6.33084e-05 -0.00022493 -3.10084e-06
5.10358e-07 -3.10084e-06 -0.000474895
0.00104971 -0.000224071 -3.1805e-07
-0.000224071 0.000407421 5.2536e-07
-3.1805e-07 5.2536e-07 0.000142271
0.000509823 -0.000307443 -3.96556e-06
-0.000307443 -1.46486e-05 -1.66586e-06
-3.96556e-06 -1.66586e-06 -0.000279152
0.000616745 -4.67715e-05 2.70368e-07
-4.67715e-05 9.18913e-05 7.62625e-06
2.70368e-07 7.62625e-06 -3.19273e-05
0.000775694 -0.00011434 -4.01749e-07
-0.00011434 0.000227907 -8.402e-08
-4.01749e-07 -8.402e-08 2.9654e-05
1.05142e-05 -0.000108265 7.05824e-08
-0.000108265 -0.000171547 4.55228e-06
7.05824e-08 4.55228e-06 -0.000418428
0.00111308 -0.000142225 -2.03813e-07
-0.000142225 0.00044417 -6.12386e-07
-2.03813e-07 -6.12386e-07 0.000270626
0.000612502 -5.11729e-05 -2.66985e-07
-5.11729e-05 9.23909e-05 -3.55206e-07
-2.66985e-07 -3.55206e-07 -1.68806e-05
0.000349775 2.43989e-05 2.1048e-06
2.43989e-05 -8.50597e-05 9.49611e-06
2.1048e-06 9.49611e-06 -0.000128489
0.000668016 -5.78155e-05 -1.71196e-07
-5.78155e-05 0.000124653 -4.77428e-06
-1.71196e-07 -4.77428e-06 3.05202e-05
0.000475292 1.46582e-05 -2.90707e-06
1.46582e-05 -1.78126e-05 -2.60357e-07
-2.90707e-06 -2.60357e-07 -5.23895e-05
0.0027762 9.76947e-05 -3.81258e-05
9.76947e-05 0.00143529 4.73632e-06
-3.81258e-05 4.73632e-06 0.00143944
0.000495142 -7.31902e-06 2.42969e-06
-7.31902e-06 -1.28667e-05 -6.3954e-06
2.42969e-06 -6.3954e-06 -4.25034e-05
0.00176481 6.31349e-05 2.01485e-05
6.31349e-05 0.000788887 -7.18031e-07
2.01485e-05 -7.18031e-07 0.000791262
0.00269304 6.0682e-05 2.92744e-05
6.0682e-05 0.0013733 -5.3092e-06
2.92744e-05 -5.3092e-06 0.00138286
0.000789028 0.000101934 4.56784e-06
0.000101934 0.000230486 1.04119e-06
4.56784e-06 1.04119e-06 9.1848e-05
0.000513202 4.82837e-05 2.03153e-06
4.82837e-05 2.47201e-05 -2.04889e-06
2.03153e-06 -2.04889e-06 -5.60978e-05
0.0004585 5.09347e-05 -8.84612e-07
5.09347e-05 2.5169e-05 -1.31477e-06
-8.84612e-07 -1.31477e-06 -0.000108048
0.000483478 5.32322e-06 9.58471e-07
5.32322e-06 -2.62648e-05 -5.20545e-06
9.58471e-07 -5.20545e-06 -4.53056e-05
0.000324926 3.91929e-05 -2.29966e-06
3.91929e-05 -9.30881e-05 -1.84985e-06
-2.29966e-06 -1.84985e-06 -0.000167301
0.00066023 7.94044e-05 -1.06384e-06
7.94044e-05 0.000154474 -3.0291e-06
-1.06384e-06 -3.0291e-06 2.76041e-05
0.00217047 -3.35404e-05 -2.05877e-05
-3.35404e-05 0.00103931 -4.80021e-06
-2.05877e-05 -4.80021e-06 0.0010556
0.000461979 -2.33826e-06 7.50499e-08
-2.33826e-06 -4.06585e-05 -1.34844e-07
7.50499e-08 -1.34844e-07 -5.45147e-05
0.000128292 1.46696e-05 -1.53278e-06
1.46696e-05 -0.00021772 2.33451e-07
-1.53278e-06 2.33451e-07 -0.000284562
0.0021179 -1.75507e-05 -5.47064e-06
-1.75507e-05 0.0010064 1.26973e-07
-5.47064e-06 1.26973e-07 0.00102385
0.000459425 -9.43225e-07 -2.52247e-06
-9.43225e-07 -4.15779e-05 3.60758e-06
-2.52247e-06 3.60758e-06 -5.24844e-05
0.00207836 -2.01529e-06 1.20633e-05
-2.01529e-06 0.00098244 4.88787e-06
1.20633e-05 4.88787e-06 0.00100014
0.00148759 -0.000254535 -6.28121e-05
-0.000254535 0.00018636 3.45578e-05
-6.28121e-05 3.45578e-05 -0.000274144
-0.000728908 -0.00020759 6.68833e-05
-0.00020759 0.00190326 -3.73341e-06
6.68833e-05 -3.73341e-06 0.00102731
-0.00087977 -0.000379743 0.000157042
-0.000379743 0.000667483 -0.000150771
0.000157042 -0.000150771 -0.00368634
0.00012407 5.01057e-05 3.24168e-06
5.01057e-05 -0.000194443 5.8326e-06
3.24168e-06 5.8326e-06 -0.000340469
0.00235432 0.000104225 2.11232e-06
0.000104225 0.00119431 3.66367e-06
2.11232e-06 3.66367e-06 0.00101733
0.000753416 0.000151081 -3.2658e-06
0.000151081 0.000204945 -5.38957e-06
-3.2658e-06 -5.38957e-06 6.0972e-05
0.000360392 7.71495e-05 8.96373e-07
7.71495e-05 -7.01057e-05 1.02707e-06
8.96373e-07 1.02707e-06 -0.000195506
0.000404537 9.32458e-05 4.78266e-07
9.32458e-05 -3.36429e-05 -8.69132e-07
4.78266e-07 -8.69132e-07 -0.000157261
0.00041026 8.80698e-05 7.06314e-06
8.80698e-05 -2.52232e-05 2.02769e-06
7.06314e-06 2.02769e-06 -0.000146207
0.000286698 0.000135182 1.31109e-05
0.000135182 -6.24339e-05 7.21118e-06
1.31109e-05 7.21118e-06 -0.000190208
0.00181093 0.000994925 0.000216532
0.000994925 -0.000454886 0.00024684
0.000216532 0.00024684 -0.00180203
0.00499747 -0.000245807 -5.2005e-05
-0.000245807 -0.000203667 5.55151e-05
-5.2005e-05 5.55151e-05 -0.00111988
0.00407761 -0.00072542 0.000214631
-0.00072542 0.00280257 -0.00011084
0.000214631 -0.00011084 0.0014818
0.00803022 -0.000146567 6.39285e-07
-0.000146567 -0.00578344 0.000181002
6.39285e-07 0.000181002 -0.00217594
0.00475599 -0.00292817 -0.000124966
-0.00292817 0.000571105 4.14225e-05
-0.000124966 4.14225e-05 0.000781669
0.00128677 -0.00402625 -0.000274605
-0.00402625 0.00154122 8.66798e-05
-0.000274605 8.66798e-05 -0.0041715
0.015645 0.00426713 0.000131859
0.00426713 0.00725105 -0.000157797
0.000131859 -0.000157797 0.00268443
0.00243041 -0.00239989 -5.78872e-05
-0.00239989 0.000180297 2.29286e-05
-5.78872e-05 2.29286e-05 0.000437986
-0.00128972 -0.000861844 -5.50546e-05
-0.000861844 0.00391979 5.28653e-05
-5.50546e-05 5.28653e-05 -0.00311803
0.00852271 0.000565074 0.000204847
0.000565074 0.00341821 -2.83122e-05
0.000204847 -2.83122e-05 -0.000105985
0.0154539 -0.00204131 -7.56566e-05
-0.00204131 0.0020066 -1.71166e-05
-7.56566e-05 -1.71166e-05 0.00325006
-0.000838335 -0.000608007 -0.000186439
-0.000608007 0.000582393 0.000146854
-0.000186439 0.000146854 0.000488652
0.0032652 0.00208312 -0.000193009
0.00208312 0.00533267 -9.79425e-05
-0.000193009 -9.79425e-05 -0.00185915
-0.00160174 -0.00517397 2.28042e-06
-0.00517397 -0.000337902 -0.00024698
2.28042e-06 -0.00024698 -0.00536632
0.0137851 -0.00291282 0.000131893
-0.00291282 0.00382326 -0.000634545
0.000131893 -0.000634545 0.00221797
0.000677998 1.97822e-05 1.46322e-05
1.97822e-05 0.000361507 1.42814e-06
1.46322e-05 1.42814e-06 0.000127989
0.000806942 0.000182057 -1.17559e-06
0.000182057 0.000302761 -3.81108e-06
-1.17559e-06 -3.81108e-06 0.000140604
0.000942757 -1.94586e-05 -2.54442e-07
-1.94586e-05 0.000428509 -3.99958e-06
-2.54442e-07 -3.99958e-06 0.000176656
0.00103441 0.00015932 -4.6687e-06
0.00015932 0.000399162 -1.04015e-05
-4.6687e-06 -1.04015e-05 0.000225877
0.000511112 -0.00104953 3.5761e-05
-0.00104953 -6.62777e-05 3.13717e-05
3.5761e-05 3.13717e-05 -0.00047268
0.00259765 -0.000343577 3.45996e-06
-0.000343577 0.00160062 -2.83862e-05
3.45996e-06 -2.83862e-05 0.00115577
0.00088486 0.000102958 -1.19139e-05
0.000102958 0.000452864 -1.51766e-05
-1.19139e-05 -1.51766e-05 0.000254023
0.00041604 4.71168e-05 -5.23231e-07
4.71168e-05 0.000260932 -8.74651e-06
-5.23231e-07 -8.74651e-06 1.98191e-05
0.000426135 -2.20078e-05 -3.25149e-06
-2.20078e-05 0.000614099 1.48446e-05
-3.25149e-06 1.48446e-05 0.000157963
0.000363491 6.66481e-05 2.18888e-06
6.66481e-05 0.000171746 4.63129e-06
2.18888e-06 4.63129e-06 -1.72833e-05
9.98676e-05 4.5478e-05 3.22288e-06
4.5478e-05 0.000508526 1.70691e-06
3.22288e-06 1.70691e-06 2.8739e-05
0.000876574 -0.000437407 -1.09197e-06
-0.000437407 0.00125023 4.88443e-06
-1.09197e-06 4.88443e-06 8.53965e-05
0.000242432 -0.000122985 9.40533e-06
-0.000122985 0.000761468 1.84032e-08
9.40533e-06 1.84032e-08 0.000338144
-0.000832096 8.79849e-05 2.06258e-06
8.79849e-05 -0.000351252 -1.3696e-05
2.06258e-06 -1.3696e-05 -0.000589147
0.00192684 6.71606e-06 -0.000103676
6.71606e-06 0.00354657 -2.85177e-05
-0.000103676 -2.85177e-05 0.0017362
0.000743539 0.000311222 -3.17831e-05
0.000311222 0.00103877 1.19891e-05
-3.17831e-05 1.19891e-05 0.000496565
-0.00188065 5.96071e-05 -7.96654e-05
5.96071e-05 0.00162929 -1.6681e-05
-7.96654e-05 -1.6681e-05 0.000559188
0.000943907 6.05661e-05 1.53756e-05
6.05661e-05 -6.52176e-05 5.95084e-06
1.53756e-05 5.95084e-06 -0.000564947
-0.00272266 0.000275479 -1.75473e-05
0.000275479 0.000901549 -6.13419e-05
-1.75473e-05 -6.13419e-05 -6.47159e-05
0.000274585 0.000272903 -2.40262e-05
0.000272903 0.000629277 6.96239e-06
-2.40262e-05 6.96239e-06 0.000255411
-0.00140421 0.000809646 0.000140671
0.000809646 -5.90976e-05 0.000107821
0.000140671 0.000107821 -0.000820196
0.000703168 2.9119e-05 6.33541e-05
2.9119e-05 0.000150015 -7.14033e-06
6.33541e-05 -7.14033e-06 -5.05077e-05
0.00551296 -0.00212401 0.000237678
-0.00212401 0.00569866 -0.000177801
0.000237678 -0.000177801 -0.00253838
0.0181389 0.00369419 -0.000175817
0.00369419 0.00796227 0.000154729
-0.000175817 0.000154729 0.00345613
0.00331332 -0.000641821 -0.00019409
-0.000641821 0.00221683 0.000113722
-0.00019409 0.000113722 0.00103493
0.0130759 0.00460367 -8.09657e-05
0.00460367 0.00522275 -0.000218566
-8.09657e-05 -0.000218566 0.00233076
0.000461012 0.000212324 -5.68495e-05
0.000212324 0.00119019 1.45357e-05
-5.68495e-05 1.45357e-05 0.00019549
2.78401e-05 -0.000206119 -7.66295e-05
-0.000206119 0.00190244 1.13299e-06
-7.66295e-05 1.13299e-06 0.00129513
0.00324509 -0.00141609 0.000272965
-0.00141609 0.00155091 -3.69164e-05
0.000272965 -3.69164e-05 -0.00319825
-0.00265933 -0.000122267 4.66727e-05
-0.000122267 -0.000509231 3.09931e-05
4.66727e-05 3.09931e-05 -0.000951074
0.0131307 0.00824917 0.000595847
0.00824917 0.00945315 -0.000264141
0.000595847 -0.000264141 0.0061525
0.00791873 0.00301033 -0.000160289
0.00301033 0.00323585 0.000362277
-0.000160289 0.000362277 -0.00111305
-0.00289418 -0.00122343 0.000168725
-0.00122343 0.00276802 -0.000138315
0.000168725 -0.000138315 -0.00473805
-0.00082991 -0.000389626 1.90158e-05
-0.000389626 0.000500348 -2.83225e-05
1.90158e-05 -2.83225e-05 -0.000503729
0.000297497 -0.000754281 0.000284453
-0.000754281 -0.000185167 -7.00356e-05
0.000284453 -7.00356e-05 -0.00338335
-0.000785725 0.000558748 -0.00116143
0.000558748 0.00680514 0.000312016
-0.00116143 0.000312016 0.00286978
0.0177544 0.00681611 -0.000563632
0.00681611 0.00557845 0.000537701
-0.000563632 0.000537701 0.00164207
0.00802892 -0.00338842 -0.000160513
-0.00338842 0.00340044 5.44686e-05
-0.000160513 5.44686e-05 -0.000226911
0.00272307 -0.00147061 2.23298e-05
-0.00147061 0.00256106 4.2551e-06
2.23298e-05 4.2551e-06 0.00172089
0.000372602 -5.92841e-05 4.59824e-06
-5.92841e-05 0.000586957 -2.83202e-06
4.59824e-06 -2.83202e-06 0.000160572
4.29283e-05 -0.00036604 1.57206e-06
-0.00036604 0.000355343 -1.20973e-06
1.57206e-06 -1.20973e-06 -0.000178188
8.95766e-05 -0.000644939 1.82205e-06
-0.000644939 8.00114e-05 -1.16777e-06
1.82205e-06 -1.16777e-06 -0.000211102
-0.000434768 -0.000217945 1.05463e-06
-0.000217945 0.000103574 7.57748e-06
1.05463e-06 7.57748e-06 -0.000255727
-0.000593083 -0.00038347 1.97361e-06
-0.00038347 -0.000348245 -2.39012e-07
1.97361e-06 -2.39012e-07 -0.000628998
0.00295702 -0.000872047 3.78485e-05
-0.000872047 0.00122646 -1.26218e-05
3.78485e-05 -1.26218e-05 0.000843201
0.00645388 -0.00120234 -1.28001e-05
-0.00120234 0.00337856 -1.13136e-06
-1.28001e-05 -1.13136e-06 0.00290104
0.00277232 -0.000787362 9.89183e-06
-0.000787362 0.0012527 -2.56912e-06
9.89183e-06 -2.56912e-06 0.000629769
0.00164104 -0.000801984 5.95415e-06
-0.000801984 0.000383513 -1.62811e-05
5.95415e-06 -1.62811e-05 -0.000240559
0.00220019 -0.000650529 -1.00962e-05
-0.000650529 0.000808752 -6.67059e-06
-1.00962e-05 -6.67059e-06 0.000350435
0.00226963 -0.000813813 2.00976e-06
-0.000813813 0.000752462 -1.57359e-06
2.00976e-06 -1.57359e-06 0.000174465
0.00255974 -0.000918001 -1.88871e-06
-0.000918001 0.000816524 -1.09324e-05
-1.88871e-06 -1.09324e-05 0.000245273
0.00215037 -0.00074599 -6.17835e-06
-0.00074599 0.000384254 -4.61221e-06
-6.17835e-06 -4.61221e-06 -1.04216e-05
0.00246448 -0.00089556 -8.23113e-06
-0.00089556 0.000701849 1.50827e-06
-8.23113e-06 1.50827e-06 0.0002203
0.00229606 -0.000881839 -2.8544e-06
-0.000881839 0.000627276 -5.16052e-08
-2.8544e-06 -5.16052e-08 0.00011624
0.00172216 -0.000671521 8.34462e-06
-0.000671521 0.000489851 -3.47938e-06
8.34462e-06 -3.47938e-06 7.19682e-05
0.00153418 -0.000663341 2.74727e-06
-0.000663341 0.00035422 -8.15595e-07
2.74727e-06 -8.15595e-07 -7.53082e-05
0.00152096 -0.000636815 4.46133e-06
-0.000636815 0.000346245 -1.30643e-07
4.46133e-06 -1.30643e-07 -0.000102752
0.00168636 -0.00046203 8.37152e-06
-0.00046203 0.000589193 4.32727e-06
8.37152e-06 4.32727e-06 0.00026643
0.00142385 -0.000494213 -1.2987e-06
-0.000494213 0.000394798 -2.09921e-06
-1.2987e-06 -2.09921e-06 3.92467e-05
0.00154298 -0.000560645 6.06401e-06
-0.000560645 0.000394436 2.08668e-06
6.06401e-06 2.08668e-06 9.92578e-06
0.00118883 -0.000218143 1.86167e-06
-0.000218143 0.00045566 -5.00614e-06
1.86167e-06 -5.00614e-06 0.000183009
0.000721041 -0.000249712 -3.18336e-06
-0.000249712 9.0103e-05 2.26207e-06
-3.18336e-06 2.26207e-06 -0.000154259
0.000891011 -0.000378276 -6.23432e-07
-0.000378276 9.62967e-05 -1.10412e-05
-6.23432e-07 -1.10412e-05 -0.000198308
8.68974e-06 -6.58423e-05 -1.44645e-06
-6.58423e-05 -0.000282268 5.03815e-06
-1.44645e-06 5.03815e-06 -0.000439934
0.0007581 -0.000121663 1.19181e-07
-0.000121663 0.000241183 9.16557e-07
1.19181e-07 9.16557e-07 -1.18647e-05
0.000962855 -0.000278201 3.19765e-06
-0.000278201 0.000380816 1.93615e-06
3.19765e-06 1.93615e-06 0.000102099
0.000349125 -8.95715e-06 -5.4607e-06
-8.95715e-06 -9.57362e-05 1.43839e-05
-5.4607e-06 1.43839e-05 -0.000143375
0.000657859 -6.77034e-05 7.85935e-07
-6.77034e-05 0.000110469 1.36224e-07
7.85935e-07 1.36224e-07 -1.35916e-05
0.00136148 -0.000191053 -1.7157e-06
-0.000191053 0.00058979 1.92092e-06
-1.7157e-06 1.92092e-06 0.000385776
0.00065184 -5.83611e-05 -5.38168e-07
-5.83611e-05 0.000114522 -5.76523e-06
-5.38168e-07 -5.76523e-06 4.10626e-06
0.000440959 1.25899e-05 -4.94204e-07
1.25899e-05 -3.3486e-05 -4.60836e-07
-4.94204e-07 -4.60836e-07 -7.50487e-05
0.00291634 0.000123319 -3.8649e-05
0.000123319 0.00153327 4.67534e-06
-3.8649e-05 4.67534e-06 0.00153137
0.000518277 4.09019e-06 1.58278e-06
4.09019e-06 4.99184e-06 -7.73803e-06
1.58278e-06 -7.73803e-06 -2.79675e-05
0.00276412 0.000100389 4.77213e-06
0.000100389 0.00142798 5.55153e-07
4.77213e-06 5.55153e-07 0.00143167
0.00266483 7.9529e-05 3.23019e-05
7.9529e-05 0.00135864 -4.8516e-06
3.23019e-05 -4.8516e-06 0.00136622
0.000993596 9.21115e-05 3.71736e-06
9.21115e-05 0.000439605 -4.3517e-06
3.71736e-06 -4.3517e-06 0.000227111
0.00101381 0.000142637 6.77765e-06
0.000142637 0.000406413 3.62982e-07
6.77765e-06 3.62982e-07 0.000231049
0.000566013 4.02928e-05 3.39305e-06
4.02928e-05 5.45367e-05 -3.48745e-06
3.39305e-06 -3.48745e-06 -3.56332e-05
0.000596756 0.000105625 2.16077e-07
0.000105625 0.00010685 -2.53874e-07
2.16077e-07 -2.53874e-07 -2.80966e-05
0.000465251 9.7875e-07 8.22535e-07
9.7875e-07 -3.50549e-05 -6.4028e-06
8.22535e-07 -6.4028e-06 -5.94126e-05
0.000528271 5.08809e-05 2.34933e-07
5.08809e-05 3.45224e-05 -1.59704e-07
2.34933e-07 -1.59704e-07 -4.63578e-05
0.000569035 5.53351e-05 -4.44543e-06
5.53351e-05 8.02755e-05 -2.2981e-06
-4.44543e-06 -2.2981e-06 -4.38031e-05
0.00231038 -4.96188e-05 -2.66539e-05
-4.96188e-05 0.00112915 -4.97721e-06
-2.66539e-05 -4.97721e-06 0.00114315
0.000470394 2.60381e-07 -7.72396e-07
2.60381e-07 -3.40406e-05 -1.59582e-07
-7.72396e-07 -1.59582e-07 -5.25804e-05
0.000470956 5.6444e-05 -3.49108e-06
5.6444e-05 1.97588e-07 3.41121e-08
-3.49108e-06 3.41121e-08 -7.36022e-05
0.00217527 -3.29143e-05 -4.77588e-06
-3.29143e-05 0.00104232 2.33943e-07
-4.77588e-06 2.33943e-07 0.00105868
0.000469113 -1.59587e-06 -2.57634e-06
-1.59587e-06 -3.67641e-05 3.95437e-06
-2.57634e-06 3.95437e-06 -5.02559e-05
0.00210887 -1.69554e-05 1.60468e-05
-1.69554e-05 0.00100056 4.74231e-06
1.60468e-05 4.74231e-06 0.00101803
-0.00237149 0.000213401 -1.46304e-05
0.000213401 0.000318329 -4.2957e-05
-1.46304e-05 -4.2957e-05 -0.000119813
0.00152458 -0.000205822 -1.54448e-05
-0.000205822 0.000386996 5.3168e-06
-1.54448e-05 5.3168e-06 0.000107032
-3.34612e-05 -0.000213884 8.67351e-06
-0.000213884 0.00175633 -3.86363e-05
8.67351e-06 -3.86363e-05 0.00105425
0.000808977 0.000102619 7.24013e-08
0.000102619 0.000280645 3.32277e-07
7.24013e-08 3.32277e-07 9.84064e-05
0.000187278 8.66664e-05 5.82528e-06
8.66664e-05 -0.000149134 -1.84155e-06
5.82528e-06 -1.84155e-06 -0.000313789
-0.00164842 -1.295e-05 -2.49095e-06
-1.295e-05 -0.00129418 -9.57162e-06
-2.49095e-06 -9.57162e-06 -0.0014451
-0.000791677 1.95209e-05 -6.39638e-08
1.95209e-05 -0.000728599 1.56061e-05
-6.39638e-08 1.56061e-05 -0.00088117
0.00286581 0.000399593 -1.65106e-06
0.000399593 0.00154045 -8.75272e-07
-1.65106e-06 -8.75272e-07 0.00127541
0.000972097 4.49843e-05 -5.85527e-06
4.49843e-05 0.000302796 -4.89558e-06
-5.85527e-06 -4.89558e-06 0.00017777
0.00047105 0.000105344 -8.84672e-06
0.000105344 6.56199e-06 -1.01922e-05
-8.84672e-06 -1.01922e-05 -0.000111851
0.00082683 6.37596e-05 5.06716e-07
6.37596e-05 0.000235791 -4.62111e-07
5.06716e-07 -4.62111e-07 0.000113581
0.00101149 0.00016783 -9.26623e-07
0.00016783 0.000372946 -2.57274e-06
-9.26623e-07 -2.57274e-06 0.000245499
0.000966418 0.000128746 8.24806e-06
0.000128746 0.000494743 -1.5919e-05
8.24806e-06 -1.5919e-05 0.000270807
0.00558948 0.000992672 0.000405652
0.000992672 0.00401888 0.000493663
0.000405652 0.000493663 -0.000708107
0.00234011 0.000800358 2.13395e-05
0.000800358 9.07268e-05 8.94066e-05
2.13395e-05 8.94066e-05 -0.00149429
0.00437598 -0.000182566 4.45752e-05
-0.000182566 -0.000219795 -1.97019e-05
4.45752e-05 -1.97019e-05 -0.000689181
0.0140709 -0.00169449 -0.000275339
-0.00169449 0.00214167 -0.000130211
-0.000275339 -0.000130211 0.00380962
-0.0032468 0.00140374 7.35671e-05
0.00140374 -0.00227039 0.000422694
7.35671e-05 0.000422694 -0.00690689
0.00166524 -0.00232139 -5.91349e-05
-0.00232139 0.000370214 -3.55576e-05
-5.91349e-05 -3.55576e-05 0.000410813
0.0082526 -0.00213245 -0.00013846
-0.00213245 0.00519155 3.86274e-05
-0.00013846 3.86274e-05 -3.83864e-05
0.000873938 -0.000992479 -9.66794e-05
-0.000992479 0.000857557 0.000113209
-9.66794e-05 0.000113209 0.000504335
0.00965484 -8.28183e-05 -0.000162934
-8.28183e-05 0.00651488 2.35817e-06
-0.000162934 2.35817e-06 -1.33026e-05
0.00551963 -0.00264342 9.71003e-05
-0.00264342 0.00367583 0.000190571
9.71003e-05 0.000190571 -0.00124814
0.016764 -0.00422784 -0.000134389
-0.00422784 0.00311668 -0.000733734
-0.000134389 -0.000733734 0.000994907
0.00267454 2.94535e-05 -0.000142774
2.94535e-05 0.00295432 0.000113279
-0.000142774 0.000113279 0.00181768
0.0130668 0.0026324 -0.000204384
0.0026324 0.00738431 4.30951e-06
-0.000204384 4.30951e-06 0.00218741
0.0198145 -0.00663153 -0.000141233
-0.00663153 0.00992298 -0.000725934
-0.000141233 -0.000725934 0.0052206
0.0228656 -0.00854533 8.66191e-05
-0.00854533 0.00917027 -7.22821e-05
8.66191e-05 -7.22821e-05 0.00626947
0.000911122 0.000306079 1.4491e-05
0.000306079 0.000535483 -2.77177e-06
1.4491e-05 -2.77177e-06 0.000223945
-3.41163e-05 4.86542e-05 3.51499e-06
4.86542e-05 -1.38803e-07 2.7718e-06
3.51499e-06 2.7718e-06 -0.00028057
0.000954684 0.000185807 -1.33925e-05
0.000185807 0.000412334 -1.52491e-05
-1.33925e-05 -1.52491e-05 0.000234918
0.00266498 -0.000623824 4.30397e-05
-0.000623824 0.00177648 2.26095e-05
4.30397e-05 2.26095e-05 0.000408126
-8.45447e-05 -0.000107126 2.13567e-05
-0.000107126 0.000748811 -3.68234e-05
2.13567e-05 -3.68234e-05 0.000263785
-4.47286e-06 6.38599e-05 -5.47249e-06
6.38599e-05 -5.4793e-05 1.35725e-06
-5.47249e-06 1.35725e-06 -0.000239102
-0.000571628 -4.12827e-05 1.72396e-05
-4.12827e-05 0.000145552 -7.00427e-06
1.72396e-05 -7.00427e-06 -0.000366316
-2.92218e-05 0.000117749 -7.75062e-07
0.000117749 0.000104435 -5.10478e-07
-7.75062e-07 -5.10478e-07 -0.000146307
0.000298658 0.00032157 1.48752e-05
0.00032157 0.000636557 1.84121e-06
1.48752e-05 1.84121e-06 8.19794e-05
-0.00217564 -6.08323e-05 0.000258985
-6.08323e-05 0.000909313 -2.38259e-05
0.000258985 -2.38259e-05 -0.000976515
-0.000908814 0.000385917 -3.32248e-06
0.000385917 -0.000473524 1.23464e-05
-3.32248e-06 1.23464e-05 -0.000854917
0.00280428 0.000935983 -0.00014584
0.000935983 0.00220483 -8.25872e-05
-0.00014584 -8.25872e-05 0.000781461
0.00124177 0.000190956 0.000185749
0.000190956 0.00171876 6.3125e-05
0.000185749 6.3125e-05 -0.0024144
-0.00220438 0.000194465 -6.28681e-05
0.000194465 0.00136049 1.49044e-05
-6.28681e-05 1.49044e-05 0.000200145
0.00239388 -0.000246072 -2.89812e-05
-0.000246072 0.000688279 -3.17271e-06
-2.89812e-05 -3.17271e-06 0.000805276
-0.000606086 0.000517878 0.000122595
0.000517878 0.000451865 1.29736e-05
0.000122595 1.29736e-05 -0.000613516
0.00127648 0.000307624 -0.000103536
0.000307624 0.00236155 9.93596e-05
-0.000103536 9.93596e-05 0.000965732
-0.000281097 -0.000257384 -8.73081e-06
-0.000257384 0.00164729 -9.18679e-06
-8.73081e-06 -9.18679e-06 0.000857365
0.0164969 -0.00409824 0.000230716
-0.00409824 0.00835961 -0.000109292
0.000230716 -0.000109292 0.00218805
0.0233191 0.00475232 -0.000162373
0.00475232 0.0105637 -0.000157803
-0.000162373 -0.000157803 0.00561756
0.00501568 -0.00161717 -0.000270581
-0.00161717 0.00254518 0.000255111
-0.000270581 0.000255111 -0.00198302
0.00564969 0.00947507 0.00250337
0.00947507 0.00519841 -0.0015624
0.00250337 -0.0015624 0.00177231
0.00118721 -0.000516796 3.97128e-05
-0.000516796 0.0015167 -1.21064e-05
3.97128e-05 -1.21064e-05 0.0004348
-0.000318001 -0.000542753 4.57274e-05
-0.000542753 0.000409596 1.32173e-05
4.57274e-05 1.32173e-05 -0.00339014
0.000108772 0.000990177 -0.00116853
0.000990177 0.00649287 0.000335767
-0.00116853 0.000335767 0.00219785
0.000636535 -0.00083938 1.27868e-05
-0.00083938 0.00128759 3.15278e-05
1.27868e-05 3.15278e-05 0.000550119
0.0196009 0.00620654 0.000358005
0.00620654 0.00626057 9.72198e-05
0.000358005 9.72198e-05 0.00224123
0.00749707 -0.00494242 0.000201109
-0.00494242 0.00247937 -7.73468e-05
0.000201109 -7.73468e-05 -0.00149238
0.000913284 -0.00123416 -4.97404e-06
-0.00123416 0.000691438 2.91484e-05
-4.97404e-06 2.91484e-05 -0.000138715
-0.00622646 -0.00177322 0.000146576
-0.00177322 0.00564317 -8.02063e-05
0.000146576 -8.02063e-05 0.00158656
0.0157572 0.00603475 -0.00156728
0.00603475 0.00618931 0.00051989
-0.00156728 0.00051989 0.00305854
0.00637757 -0.00367129 -0.000449052
-0.00367129 -0.000440127 0.000189648
-0.000449052 0.000189648 -0.00371595
0.00100583 -0.00197118 0.000189397
-0.00197118 1.46129e-05 -0.000123917
0.000189397 -0.000123917 0.000920239
0.00112658 -0.000526785 -0.000101795
-0.000526785 0.000837575 3.32368e-05
-0.000101795 3.32368e-05 0.00035946
0.000675098 -0.00058643 -5.02859e-06
-0.00058643 0.000449011 1.14248e-05
-5.02859e-06 1.14248e-05 9.67056e-05
0.00310613 -0.000907969 1.7913e-05
-0.000907969 0.00141194 -1.34687e-05
1.7913e-05 -1.34687e-05 0.00102165
-0.00149095 -0.000190739 8.11178e-06
-0.000190739 -0.000679998 9.6003e-06
8.11178e-06 9.6003e-06 -0.000958451
0.00134938 -0.000663996 4.38125e-06
-0.000663996 0.000396735 -3.33343e-06
4.38125e-06 -3.33343e-06 2.80344e-05
0.00321413 -0.00100809 9.40016e-06
-0.00100809 0.00103979 -1.85155e-06
9.40016e-06 -1.85155e-06 0.000632434
0.00425217 -0.000975951 -2.8245e-05
-0.000975951 0.00200297 2.49129e-06
-2.8245e-05 2.49129e-06 0.00138774
0.00137994 -0.000740777 -9.30409e-07
-0.000740777 0.000232957 -1.32936e-06
-9.30409e-07 -1.32936e-06 -0.000366244
0.00190437 -0.00092537 1.01916e-06
-0.00092537 0.000271566 -1.1971e-05
1.01916e-06 -1.1971e-05 -0.000205415
0.00283643 -0.000892994 2.13634e-06
-0.000892994 0.00104678 5.56971e-06
2.13634e-06 5.56971e-06 0.00045297
0.00221884 -0.000880678 1.52906e-06
-0.000880678 0.000602792 -4.3812e-06
1.52906e-06 -4.3812e-06 5.21755e-05
0.00259617 -0.000805238 -1.22091e-06
-0.000805238 0.000587545 -1.0028e-05
-1.22091e-06 -1.0028e-05 0.000195381
0.00174805 -0.000518244 -5.30898e-06
-0.000518244 -3.58983e-06 -2.6736e-06
-5.30898e-06 -2.6736e-06 -0.000252743
0.00190689 -0.00074614 -1.72579e-06
-0.00074614 0.000190669 -1.5514e-06
-1.72579e-06 -1.5514e-06 -0.000202692
0.00215429 -0.000748796 3.0189e-06
-0.000748796 0.000377028 -2.82341e-06
3.0189e-06 -2.82341e-06 -1.6201e-05
0.00230098 -0.000787829 -3.79826e-06
-0.000787829 0.000669307 -7.52093e-07
-3.79826e-06 -7.52093e-07 0.000237337
0.0024199 -0.000889933 -3.09215e-06
-0.000889933 0.000686062 3.12428e-08
-3.09215e-06 3.12428e-08 0.00020013
0.00253449 -0.000912968 8.05279e-06
-0.000912968 0.000753404 -4.30839e-06
8.05279e-06 -4.30839e-06 0.000232149
0.00189952 -0.000590172 7.06831e-06
-0.000590172 0.000652255 2.05437e-07
7.06831e-06 2.05437e-07 0.000270686
0.00143406 -0.000628984 2.34367e-06
-0.000628984 0.000330906 -4.08139e-07
2.34367e-06 -4.08139e-07 -7.37619e-05
0.00130069 -0.000627274 2.84577e-06
-0.000627274 0.000220473 1.71905e-06
2.84577e-06 1.71905e-06 -0.000193666
0.00137261 -0.000349164 6.66812e-08
-0.000349164 0.000456794 -2.62565e-07
6.66812e-08 -2.62565e-07 0.000186408
0.00120268 -0.000397264 1.06294e-06
-0.000397264 0.000305158 -2.81913e-07
1.06294e-06 -2.81913e-07 -2.02975e-06
0.00146298 -0.000494718 -5.76296e-06
-0.000494718 0.000424461 1.99028e-07
-5.76296e-06 1.99028e-07 6.61646e-05
-0.000320975 -0.000100945 -2.21252e-06
-0.000100945 -0.000484486 1.80202e-06
-2.21252e-06 1.80202e-06 -0.000703593
0.00069991 -0.000229632 -2.90767e-07
-0.000229632 0.000164997 -5.66413e-07
-2.90767e-07 -5.66413e-07 -0.000113746
0.00106344 -0.00028879 -4.57735e-06
-0.00028879 0.000327428 1.16805e-06
-4.57735e-06 1.16805e-06 7.55422e-05
0.00185627 2.10625e-05 -4.7511e-05
2.10625e-05 0.000863217 9.06132e-06
-4.7511e-05 9.06132e-06 0.000812928
0.000710096 -0.000114296 3.01928e-09
-0.000114296 0.000144754 -4.79607e-07
3.01928e-09 -4.79607e-07 -1.8437e-05
0.00131283 -0.000182011 -5.65509e-07
-0.000182011 0.000586037 4.11097e-06
-5.65509e-07 4.11097e-06 0.000325963
0.000737393 3.4763e-05 -5.19613e-05
3.4763e-05 0.00015529 6.24842e-06
-5.19613e-05 6.24842e-06 0.000144314
0.00115531 1.2922e-05 -1.72835e-05
1.2922e-05 0.000415732 -6.14687e-07
-1.72835e-05 -6.14687e-07 0.000369344
0.000830198 -8.36389e-05 2.83505e-06
-8.36389e-05 0.00021244 -6.76194e-06
2.83505e-06 -6.76194e-06 8.72016e-05
0.000593119 5.18557e-06 2.4063e-06
5.18557e-06 5.78834e-05 -9.83159e-06
2.4063e-06 -9.83159e-06 1.69231e-05
0.00299528 0.00012373 8.34357e-06
0.00012373 0.00158316 7.45718e-07
8.34357e-06 7.45718e-07 0.00158125
0.00276793 0.000100523 3.66524e-05
0.000100523 0.00143055 -4.70672e-06
3.66524e-05 -4.70672e-06 0.00143437
0.000934615 0.000152242 1.21795e-05
0.000152242 0.000376795 -2.1666e-06
1.21795e-05 -2.1666e-06 0.000143752
0.00139201 0.000177473 4.85599e-06
0.000177473 0.000662631 -1.33184e-06
4.85599e-06 -1.33184e-06 0.000449891
-0.000112025 4.69426e-05 6.86143e-07
4.69426e-05 -0.000280994 4.18264e-07
6.86143e-07 4.18264e-07 -0.000466957
0.00067538 4.53382e-05 3.32284e-06
4.53382e-05 0.000127227 -4.98138e-06
3.32284e-06 -4.98138e-06 2.24551e-05
0.000790229 0.000114561 6.64564e-07
0.000114561 0.000248739 2.07608e-07
6.64564e-07 2.07608e-07 8.68497e-05
0.000457554 9.71849e-06 -1.52469e-06
9.71849e-06 -3.42574e-05 -8.06574e-06
-1.52469e-06 -8.06574e-06 -6.44249e-05
0.000549939 4.46391e-05 -1.17258e-07
4.46391e-05 4.89253e-05 -3.98866e-07
-1.17258e-07 -3.98866e-07 -4.25851e-05
0.000706086 6.02752e-05 -3.95486e-06
6.02752e-05 0.000199886 -2.55255e-07
-3.95486e-06 -2.55255e-07 4.81133e-05
0.0025512 -6.82551e-05 -3.51696e-05
-6.82551e-05 0.00128531 -4.93048e-06
-3.51696e-05 -4.93048e-06 0.00129599
0.000447802 3.50724e-06 -6.07234e-07
3.50724e-06 -4.51088e-05 -1.35569e-07
-6.07234e-07 -1.35569e-07 -6.94035e-05
0.000545638 5.56639e-05 -1.1319e-06
5.56639e-05 4.6758e-05 2.46782e-06
-1.1319e-06 2.46782e-06 -3.46962e-05
0.00233453 -5.02143e-05 -6.09016e-06
-5.02143e-05 0.00114449 3.687e-07
-6.09016e-06 3.687e-07 0.00115835
0.000433998 -1.06236e-05 -4.41854e-06
-1.06236e-05 -5.65796e-05 4.88645e-06
-4.41854e-06 4.88645e-06 -7.4818e-05
0.00220199 -3.17242e-05 2.15968e-05
-3.17242e-05 0.00105916 4.70039e-06
2.15968e-05 4.70039e-06 0.0010756
0.00656655 0.000680579 0.000339379
0.000680579 0.00383756 7.56361e-05
0.000339379 7.56361e-05 0.00150966
-0.00205285 0.000149724 -3.20088e-06
0.000149724 0.000275142 -7.73415e-06
-3.20088e-06 -7.73415e-06 -0.000412817
0.00058522 0.000133164 -1.21703e-05
0.000133164 0.000474433 -9.59833e-06
-1.21703e-05 -9.59833e-06 0.000101638
-0.000540616 0.000103559 -8.18438e-06
0.000103559 -0.000675757 1.7852e-06
-8.18438e-06 1.7852e-06 -0.000832117
0.000237751 4.86408e-05 -6.28711e-06
4.86408e-05 -0.000103346 -3.58456e-06
-6.28711e-06 -3.58456e-06 -0.000259382
-0.000173165 5.31826e-05 -1.94539e-06
5.31826e-05 -0.000367741 -5.54795e-06
-1.94539e-06 -5.54795e-06 -0.0005275
0.00134196 7.45221e-05 1.89063e-06
7.45221e-05 0.000572963 5.38921e-08
1.89063e-06 5.38921e-08 0.000412174
0.000163545 0.000100157 -2.75728e-06
0.000100157 -0.000198567 -3.06712e-06
-2.75728e-06 -3.06712e-06 -0.000354443
0.00221437 0.00030959 -5.52644e-06
0.00030959 0.00114267 -3.84498e-06
-5.52644e-06 -3.84498e-06 0.000934844
0.00102047 0.000256259 -6.27693e-06
0.000256259 0.000347649 -1.55957e-05
-6.27693e-06 -1.55957e-05 3.44282e-05
-0.00120259 0.000106752 4.2605e-07
0.000106752 -0.000696136 8.06092e-07
4.2605e-07 8.06092e-07 -0.00104551
0.00064214 0.000135144 -6.51358e-06
0.000135144 0.000148022 -3.82526e-06
-6.51358e-06 -3.82526e-06 1.04806e-05
2.40605e-05 5.55729e-05 -1.08453e-05
5.55729e-05 -0.000290495 -8.23378e-06
-1.08453e-05 -8.23378e-06 -0.000379158
-0.000177163 3.955e-05 -2.4234e-07
3.955e-05 -0.000214682 1.39418e-06
-2.4234e-07 1.39418e-06 -0.000428426
0.000970701 0.000310163 1.73163e-05
0.000310163 0.000635632 -1.32038e-06
1.73163e-05 -1.32038e-06 0.000231502
0.00360927 -0.00323928 0.000122234
-0.00323928 0.00604905 0.000251432
0.000122234 0.000251432 0.00038784
0.00639508 0.00138396 0.000143405
0.00138396 0.003257 0.000173478
0.000143405 0.000173478 -0.0019097
0.00316084 0.000516963 -3.42497e-05
0.000516963 0.00064336 -8.00929e-05
-3.42497e-05 -8.00929e-05 -0.00117645
0.024985 -0.00541163 -0.000762392
-0.00541163 0.00685808 -0.000383349
-0.000762392 -0.000383349 0.00439088
0.00574708 -0.00169881 0.000281782
-0.00169881 0.00386727 0.000500198
0.000281782 0.000500198 0.000275054
0.00350623 -0.0016738 -0.00025662
-0.0016738 0.00509377 0.000102012
-0.00025662 0.000102012 -0.00215179
-0.00130943 -0.000516998 0.000121211
-0.000516998 0.00106901 1.93965e-05
0.000121211 1.93965e-05 0.000117878
-0.00055493 -0.000157436 0.000102206
-0.000157436 0.00105219 5.35245e-05
0.000102206 5.35245e-05 0.000334138
0.0151312 -0.00893824 0.000468735
-0.00893824 0.00726232 0.000441043
0.000468735 0.000441043 0.00407698
0.00164974 0.00151452 -0.000100064
0.00151452 0.00416573 -8.56913e-05
-0.000100064 -8.56913e-05 -0.00235609
0.00828171 -0.00382993 -0.000131665
-0.00382993 0.00398775 0.000107103
-0.000131665 0.000107103 -0.00130486
0.000478212 0.000731871 -1.55973e-05
0.000731871 0.00111754 6.43489e-05
-1.55973e-05 6.43489e-05 0.000733295
0.0116638 0.0040906 -0.000116452
0.0040906 0.00390562 5.49013e-06
-0.000116452 5.49013e-06 0.00010724
0.0155637 -0.00675955 -0.000839374
-0.00675955 0.00488256 -0.000506267
-0.000839374 -0.000506267 0.000646132
-8.13413e-05 0.000487142 3.45745e-06
0.000487142 -0.000446239 -5.87104e-06
3.45745e-06 -5.87104e-06 -0.000593557
0.000522498 0.000181917 7.72739e-06
0.000181917 0.000266207 4.31524e-06
7.72739e-06 4.31524e-06 1.70556e-05
-3.03224e-05 5.73379e-05 -1.09282e-05
5.73379e-05 -1.96721e-05 -4.80378e-06
-1.09282e-05 -4.80378e-06 -0.000283097
-0.00399837 -0.000357875 -0.000121567
-0.000357875 -0.000269608 -6.44545e-05
-0.000121567 -6.44545e-05 -0.00207477
-0.000562113 0.000239869 1.48827e-05
0.000239869 -4.49383e-05 -1.83738e-05
1.48827e-05 -1.83738e-05 -0.000566678
0.00150085 0.000211866 -3.99067e-06
0.000211866 0.000971565 1.3939e-05
-3.99067e-06 1.3939e-05 0.00071188
0.00119619 0.000671112 1.37826e-05
0.000671112 0.000620942 2.92849e-06
1.37826e-05 2.92849e-06 0.000214598
-0.000403885 0.000520805 4.19253e-05
0.000520805 0.000691539 -3.01099e-05
4.19253e-05 -3.01099e-05 -0.000527212
0.000785488 0.00133077 6.5657e-05
0.00133077 4.33192e-05 6.95963e-06
6.5657e-05 6.95963e-06 -0.000816493
-0.0060611 0.00114216 0.000361529
0.00114216 0.00548651 4.42918e-06
0.000361529 4.42918e-06 -0.0014666
0.00228473 -0.000174988 -9.41106e-06
-0.000174988 0.00200544 6.70558e-05
-9.41106e-06 6.70558e-05 -0.000820278
-0.00258318 -4.85256e-05 -1.3349e-05
-4.85256e-05 0.000859271 5.4244e-05
-1.3349e-05 5.4244e-05 -5.61801e-05
-0.000559129 -0.000283375 -6.47466e-05
-0.000283375 0.000689777 1.6617e-05
-6.47466e-05 1.6617e-05 -0.000453541
-0.00159095 -0.000441901 -6.57574e-05
-0.000441901 -0.000377062 5.28333e-05
-6.57574e-05 5.28333e-05 -0.000151073
-0.00030286 -0.000460525 -0.000190662
-0.000460525 0.000825422 0.000121057
-0.000190662 0.000121057 -0.00324878
-0.000202261 -0.00389976 0.000266065
-0.00389976 0.00209903 -9.29484e-05
0.000266065 -9.29484e-05 -0.00369351
0.0101327 0.00520445 0.000710545
0.00520445 0.000852808 -0.000446596
0.000710545 -0.000446596 -0.00279887
0.0107592 0.00352778 -0.000403312
0.00352778 0.00774264 0.000331312
-0.000403312 0.000331312 0.00333402
0.00124296 -0.000840583 -1.09157e-05
-0.000840583 0.00132467 -1.58622e-06
-1.09157e-05 -1.58622e-06 0.000532346
0.00196787 0.000586586 0.000131854
0.000586586 0.0074894 -2.30091e-05
0.000131854 -2.30091e-05 0.00332352
0.000937229 0.00413074 8.98669e-06
0.00413074 0.000787091 7.1319e-05
8.98669e-06 7.1319e-05 -0.00285541
0.00245634 -0.00263806 8.49416e-05
-0.00263806 0.000741093 -4.2798e-05
8.49416e-05 -4.2798e-05 0.000945094
0.0169123 -0.0040588 1.64146e-05
-0.0040588 0.00325136 -6.28429e-07
1.64146e-05 -6.28429e-07 0.0013498
0.00307054 -0.00162743 4.35109e-06
-0.00162743 0.00122587 1.97473e-05
4.35109e-06 1.97473e-05 0.000856366
-0.00817605 0.00125877 -0.000603765
0.00125877 -0.00244667 9.7573e-05
-0.000603765 9.7573e-05 -0.00526517
0.016125 -0.00261214 -0.000234967
-0.00261214 0.00215658 6.64738e-05
-0.000234967 6.64738e-05 0.000782295
0.00388036 -0.00273558 0.00010991
-0.00273558 -6.56476e-05 -7.45898e-05
0.00010991 -7.45898e-05 0.000503536
0.000978006 -0.000550494 -1.73e-05
-0.000550494 0.000675137 1.53252e-05
-1.73e-05 1.53252e-05 0.000251293
0.0011235 -0.000811565 3.97404e-07
-0.000811565 0.000228573 -2.66733e-06
3.97404e-07 -2.66733e-06 -3.8201e-05
0.00528539 -0.00107618 2.21946e-05
-0.00107618 0.00219995 -1.4327e-05
2.21946e-05 -1.4327e-05 0.00181861
-0.000801823 -0.000409456 -6.31071e-06
-0.000409456 -0.000726483 7.59583e-06
-6.31071e-06 7.59583e-06 -0.00107678
0.00142292 -0.00080331 -3.11559e-06
-0.00080331 0.000123842 4.23237e-07
-3.11559e-06 4.23237e-07 -0.000277849
0.00317164 -0.00105437 3.91056e-06
-0.00105437 0.000827673 -7.94666e-06
3.91056e-06 -7.94666e-06 0.000414164
0.00151671 -0.000732235 -1.08403e-05
-0.000732235 0.000278063 9.68976e-06
-1.08403e-05 9.68976e-06 -0.00030254
0.00199735 -0.000925887 -9.51092e-07
-0.000925887 0.000326194 1.68815e-06
-9.51092e-07 1.68815e-06 -0.00015888
0.00188288 -0.000749266 -1.57849e-06
-0.000749266 2.55735e-05 -6.74863e-06
-1.57849e-06 -6.74863e-06 -0.000276157
0.00160465 -0.000810917 -7.77356e-07
-0.000810917 0.00024236 3.85337e-06
-7.77356e-07 3.85337e-06 -0.000284793
0.00202507 -0.000730412 -1.52098e-06
-0.000730412 0.000279006 1.45823e-06
-1.52098e-06 1.45823e-06 -9.63761e-05
0.00205331 -0.000548826 -1.71749e-06
-0.000548826 0.00010489 -4.38455e-06
-1.71749e-06 -4.38455e-06 -0.000110183
0.00187906 -0.000454106 -4.68849e-06
-0.000454106 6.21771e-05 -6.6251e-07
-4.68849e-06 -6.6251e-07 -0.00011462
0.00171655 -0.000535145 -5.72521e-06
-0.000535145 -4.56213e-06 -1.98457e-06
-5.72521e-06 -1.98457e-06 -0.000265878
0.00183116 -0.000519378 1.60887e-06
-0.000519378 4.83055e-05 2.6593e-06
1.60887e-06 2.6593e-06 -0.000197529
0.00169693 -0.000646053 -5.97617e-06
-0.000646053 0.000125671 -2.71356e-06
-5.97617e-06 -2.71356e-06 -0.000227516
0.00208108 -0.000753681 2.85996e-06
-0.000753681 0.000314257 -2.66398e-07
2.85996e-06 -2.66398e-07 -7.54003e-05
0.00218236 -0.000752436 6.42606e-06
-0.000752436 0.000386718 1.12687e-06
6.42606e-06 1.12687e-06 -5.12469e-06
0.00169603 -0.000650254 -1.34096e-06
-0.000650254 0.000349397 -2.23787e-06
-1.34096e-06 -2.23787e-06 -4.8795e-05
0.00213189 -0.00077456 2.06497e-06
-0.00077456 0.000564535 -6.97172e-07
2.06497e-06 -6.97172e-07 0.000132468
0.0023244 -0.000876638 2.09132e-06
-0.000876638 0.000641098 -1.9365e-06
2.09132e-06 -1.9365e-06 0.000152186
0.00127791 -0.000386968 -6.47138e-06
-0.000386968 0.000294688 2.66225e-06
-6.47138e-06 2.66225e-06 6.71556e-06
0.0015397 -0.000544845 1.86605e-06
-0.000544845 0.000422294 1.08717e-06
1.86605e-06 1.08717e-06 5.39862e-05
0.00107065 -0.000576019 -4.67474e-06
-0.000576019 0.000127033 1.90193e-06
-4.67474e-06 1.90193e-06 -0.000262103
0.000494636 -0.000213595 -7.54857e-06
-0.000213595 -5.70058e-05 -7.14373e-07
-7.54857e-06 -7.14373e-07 -0.000274847
0.0010637 -0.000334039 7.1434e-07
-0.000334039 0.000254846 -7.62346e-07
7.1434e-07 -7.62346e-07 -9.73287e-06
0.000461005 -0.00031243 -8.98974e-06
-0.00031243 -0.000134443 2.23447e-07
-8.98974e-06 2.23447e-07 -0.000422847
0.000339684 -5.42895e-05 -1.20343e-05
-5.42895e-05 -0.000109409 1.34717e-05
-1.20343e-05 1.34717e-05 -0.000183795
0.000851143 -0.000179386 2.98721e-06
-0.000179386 0.000245762 1.24531e-06
2.98721e-06 1.24531e-06 1.83629e-05
0.000639836 -0.000247523 1.84821e-08
-0.000247523 0.000135252 2.07546e-06
1.84821e-08 2.07546e-06 -0.000144007
0.00388386 0.000233823 4.86137e-06
0.000233823 0.00218479 5.37792e-06
4.86137e-06 5.37792e-06 0.00214824
0.000458229 -2.82462e-05 3.60347e-07
-2.82462e-05 -2.7946e-05 -2.85531e-07
3.60347e-07 -2.85531e-07 -8.92203e-05
0.00124654 -0.000112771 -2.60338e-07
-0.000112771 0.000482134 -6.26331e-06
-2.60338e-07 -6.26331e-06 0.000310627
0.00334211 0.000142055 9.06198e-06
0.000142055 0.00180961 7.04385e-07
9.06198e-06 7.04385e-07 0.00180301
0.00052644 -7.68989e-06 4.47777e-06
-7.68989e-06 1.61995e-05 -1.15164e-05
4.47777e-06 -1.15164e-05 -3.47046e-05
0.00302347 0.000117216 5.32104e-05
0.000117216 0.00159955 -5.01942e-06
5.32104e-05 -5.01942e-06 0.00159929
0.00222649 0.000339916 6.52874e-06
0.000339916 0.00109287 2.43224e-06
6.52874e-06 2.43224e-06 0.000850437
0.000756767 0.000162341 5.92122e-07
0.000162341 0.000271676 -4.42047e-06
5.92122e-07 -4.42047e-06 3.42899e-05
0.00134662 0.000183081 5.06083e-07
0.000183081 0.000646452 -6.08221e-06
5.06083e-07 -6.08221e-06 0.000396395
0.000725794 6.40434e-05 2.89399e-06
6.40434e-05 0.000159138 -5.72372e-06
2.89399e-06 -5.72372e-06 3.35297e-05
0.000779699 0.000105871 4.20431e-07
0.000105871 0.000265649 1.49751e-06
4.20431e-07 1.49751e-06 6.73238e-05
0.000302426 0.000115054 -1.61253e-06
0.000115054 6.99886e-06 4.6702e-06
-1.61253e-06 4.6702e-06 -0.000202902
0.000517147 -4.08824e-07 -1.69378e-06
-4.08824e-07 1.04815e-05 -9.91641e-06
-1.69378e-06 -9.91641e-06 -2.75566e-05
0.00057286 4.35305e-05 -6.89587e-08
4.35305e-05 6.66034e-05 -4.00098e-07
-6.89587e-08 -4.00098e-07 -3.93455e-05
0.000308176 8.44747e-05 -5.15927e-06
8.44747e-05 -7.39892e-05 5.13328e-08
-5.15927e-06 5.13328e-08 -0.000216627
0.00269509 -8.52685e-05 -4.36748e-05
-8.52685e-05 0.00138177 -4.79024e-06
-4.36748e-05 -4.79024e-06 0.00138952
0.000415226 -1.9851e-05 2.83271e-06
-1.9851e-05 -5.86797e-05 -1.50913e-07
2.83271e-06 -1.50913e-07 -8.95988e-05
0.00048893 4.66027e-05 -2.57407e-06
4.66027e-05 1.33103e-05 3.42583e-06
-2.57407e-06 3.42583e-06 -7.86533e-05
0.00251056 -6.83358e-05 -6.6737e-06
-6.83358e-05 0.00125943 4.96058e-07
-6.6737e-06 4.96058e-07 0.00127003
0.000432546 -1.26157e-06 -2.19167e-06
-1.26157e-06 -5.47418e-05 6.12736e-06
-2.19167e-06 6.12736e-06 -7.8486e-05
0.0022995 -4.94302e-05 2.37371e-05
-4.94302e-05 0.00112225 4.70924e-06
2.37371e-05 4.70924e-06 0.00113638
-0.00958526 0.00108728 -0.000116937
0.00108728 0.00393706 8.07499e-05
-0.000116937 8.07499e-05 -0.00255846
0.00617412 0.000493591 5.83258e-06
0.000493591 0.00365212 -1.60051e-06
5.83258e-06 -1.60051e-06 0.00143504
-0.00163971 7.84082e-05 5.02357e-05
7.84082e-05 0.000304123 2.43055e-05
5.02357e-05 2.43055e-05 -0.000633619
0.000207734 0.000144412 -2.1592e-07
0.000144412 -0.000167087 2.52986e-06
-2.1592e-07 2.52986e-06 -0.000364061
0.00327176 0.000673981 1.51099e-05
0.000673981 0.00165728 1.01854e-05
1.51099e-05 1.01854e-05 0.00129402
0.00118509 0.000199397 -9.41892e-06
0.000199397 0.000541126 1.27828e-06
-9.41892e-06 1.27828e-06 0.000221769
0.000514258 7.00412e-05 -7.70211e-06
7.00412e-05 6.22331e-05 -1.6753e-05
-7.70211e-06 -1.6753e-05 -0.00010386
0.00273796 0.000300638 3.6458e-06
0.000300638 0.00136894 -7.0705e-07
3.6458e-06 -7.0705e-07 0.00119183
-0.00079568 2.78352e-05 -1.21119e-05
2.78352e-05 -0.000701127 1.07659e-05
-1.21119e-05 1.07659e-05 -0.000851959
2.06834e-05 0.000114397 -1.12237e-06
0.000114397 -6.09151e-05 6.22358e-06
-1.12237e-06 6.22358e-06 -0.000347464
0.000625054 0.000163479 -3.29312e-06
0.000163479 0.000164837 -5.36906e-06
-3.29312e-06 -5.36906e-06 -0.000149856
0.00182672 0.000541707 7.31506e-06
0.000541707 0.000907164 -2.67563e-05
7.31506e-06 -2.67563e-05 0.000451909
3.1325e-05 0.000473819 -1.43796e-05
0.000473819 -0.000309218 5.07054e-05
-1.43796e-05 5.07054e-05 -0.00046684
0.00158258 5.56222e-05 -1.4712e-05
5.56222e-05 0.000826002 1.57096e-05
-1.4712e-05 1.57096e-05 0.000627339
0.00153928 0.000287515 5.60465e-06
0.000287515 0.000980101 -1.04174e-05
5.60465e-06 -1.04174e-05 0.000603284
0.000156131 -0.00247043 -0.00161178
-0.00247043 0.00161316 -0.00026685
-0.00161178 -0.00026685 -0.00232538
-0.00220524 -0.00247428 0.000543249
-0.00247428 0.0060172 0.000199965
0.000543249 0.000199965 0.000259364
0.00715562 0.00175216 -0.000575192
0.00175216 0.0030365 -0.000198571
-0.000575192 -0.000198571 -0.00253898
0.00515467 -0.00947439 0.00247825
-0.00947439 0.00521161 0.00153094
0.00247825 0.00153094 0.00144392
0.0262546 -0.003936 6.57509e-05
-0.003936 0.00898962 0.000371795
6.57509e-05 0.000371795 0.00535712
-0.00328017 0.00142372 -1.60851e-05
0.00142372 0.00233848 -0.000188937
-1.60851e-05 -0.000188937 -0.00340571
-0.00267728 0.000136306 -0.000381483
0.000136306 0.0008191 -6.27162e-05
-0.000381483 -6.27162e-05 -0.000887133
0.00101988 0.000750802 7.7869e-05
0.000750802 0.00164731 5.33055e-05
7.7869e-05 5.33055e-05 0.00129366
0.0198902 -0.00507681 -0.000664841
-0.00507681 0.00820856 7.32144e-06
-0.000664841 7.32144e-06 0.00406893
-0.00255326 0.00307381 -0.000117807
0.00307381 0.000341241 -4.73193e-05
-0.000117807 -4.73193e-05 -0.00440205
0.00313927 0.00220675 1.76884e-05
0.00220675 0.000965214 -7.25033e-05
1.76884e-05 -7.25033e-05 0.00162842
0.0029413 0.00484969 -0.000419877
0.00484969 -0.00205163 -0.0001099
-0.000419877 -0.0001099 -0.00468049
0.00330684 0.0011903 2.52142e-05
0.0011903 0.00125008 -1.36838e-05
2.52142e-05 -1.36838e-05 0.000890813
0.00098731 0.000575702 -4.84665e-06
0.000575702 0.000265416 -1.88546e-06
-4.84665e-06 -1.88546e-06 0.000101778
-0.000203837 0.000163925 -8.2336e-06
0.000163925 -0.000166953 3.29816e-06
-8.2336e-06 3.29816e-06 -0.000419434
-0.00153167 0.000380359 -8.7564e-05
0.000380359 0.000140576 -7.4065e-05
-8.7564e-05 -7.4065e-05 -0.000914278
0.00200313 0.000781839 -3.65348e-05
0.000781839 0.000998653 -2.05163e-05
-3.65348e-05 -2.05163e-05 0.000581729
0.00199269 0.00149057 1.12238e-05
0.00149057 0.000558624 -8.8481e-06
1.12238e-05 -8.8481e-06 -0.000291103
-0.00089057 0.00157308 0.000100664
0.00157308 -0.0017636 4.69436e-05
0.000100664 4.69436e-05 -0.00209696
-0.00630386 -0.000483548 -0.000612946
-0.000483548 -0.00427638 4.90261e-05
-0.000612946 4.90261e-05 -0.00417751
-0.00867769 0.000502053 0.000402534
0.000502053 0.00572499 1.73348e-05
0.000402534 1.73348e-05 -0.000644695
0.00292145 -8.77299e-05 -0.000127129
-8.77299e-05 0.00207526 3.36429e-05
-0.000127129 3.36429e-05 0.000262881
0.00220184 -0.00099295 -5.66275e-05
-0.00099295 0.0014026 -4.62715e-05
-5.66275e-05 -4.62715e-05 0.000640196
-0.000669373 -0.00197876 5.36135e-05
-0.00197876 -0.00064092 4.39246e-05
5.36135e-05 4.39246e-05 -0.000392342
0.000680424 0.000673315 6.94594e-05
0.000673315 0.00718742 4.6892e-05
6.94594e-05 4.6892e-05 0.00287348
0.00261544 -0.0034528 0.000489875
-0.0034528 -0.00169015 -0.000109754
0.000489875 -0.000109754 -0.00382251
0.0227566 0.00357248 0.000899275
0.00357248 0.0100198 -0.000100783
0.000899275 -0.000100783 0.00687274
0.0016079 -0.00170534 -1.8209e-05
-0.00170534 0.000354286 4.33416e-06
-1.8209e-05 4.33416e-06 -0.000271954
0.00220788 0.00152995 0.000270553
0.00152995 0.000805021 -8.34102e-05
0.000270553 -8.34102e-05 -0.00148557
0.00754369 -0.00229025 -0.00017351
-0.00229025 -0.00264543 0.000147172
-0.00017351 0.000147172 -0.00477703
0.00364777 -0.00272126 -1.04209e-05
-0.00272126 -0.000514159 2.65239e-05
-1.04209e-05 2.65239e-05 0.000325973
0.00249143 -0.00143363 7.07963e-05
-0.00143363 0.000192538 -1.95733e-05
7.07963e-05 -1.95733e-05 2.68325e-05
0.0171295 -0.000870185 -7.85453e-05
-0.000870185 0.00336186 5.40976e-05
-7.85453e-05 5.40976e-05 0.0021834
0.0026041 -0.00183202 0.000133025
-0.00183202 -0.00318717 -9.21525e-05
0.000133025 -9.21525e-05 -0.00171239
-0.000546727 -0.000688403 -2.81108e-05
-0.000688403 -0.00075637 3.28871e-05
-2.81108e-05 3.28871e-05 -0.000891369
0.000201464 -0.000593829 -4.0067e-05
-0.000593829 -0.000579249 3.78293e-06
-4.0067e-05 3.78293e-06 -0.000730217
0.00618976 -0.00116586 6.14432e-05
-0.00116586 0.00233374 -2.55997e-05
6.14432e-05 -2.55997e-05 0.00210214
0.000288557 -0.000659031 -1.22154e-05
-0.000659031 -0.000433381 1.10111e-06
-1.22154e-05 1.10111e-06 -0.000834952
0.00215364 -0.000929892 -2.94473e-06
-0.000929892 0.000303072 -3.421e-06
-2.94473e-06 -3.421e-06 -7.93193e-05
0.00277723 -0.000846338 8.3017e-07
-0.000846338 0.00033359 -5.21761e-06
8.3017e-07 -5.21761e-06 0.000121188
0.00205749 -0.000922579 2.6906e-06
-0.000922579 0.000365173 1.02226e-05
2.6906e-06 1.02226e-05 -0.000125677
0.00217446 -0.000771071 -1.25102e-06
-0.000771071 0.000191436 4.46669e-07
-1.25102e-06 4.46669e-07 -0.000112305
0.00214543 -0.000572148 -1.61401e-07
-0.000572148 2.78806e-05 -1.62085e-06
-1.61401e-07 -1.62085e-06 -0.000101542
0.001533 -0.000665001 6.26848e-06
-0.000665001 1.11742e-05 7.7338e-06
6.26848e-06 7.7338e-06 -0.000349149
0.00200182 -0.000537297 -4.00113e-07
-0.000537297 7.62341e-05 2.42902e-06
-4.00113e-07 2.42902e-06 -0.000132046
0.00208285 -0.000507376 -2.67427e-06
-0.000507376 8.69482e-05 1.33596e-06
-2.67427e-06 1.33596e-06 -5.4397e-05
0.00202806 -0.000475989 -4.42049e-06
-0.000475989 0.000147117 1.10134e-06
-4.42049e-06 1.10134e-06 -1.01097e-05
0.00201804 -0.000464659 -3.03685e-06
-0.000464659 0.000140953 3.25522e-06
-3.03685e-06 3.25522e-06 -3.27217e-05
0.00209714 -0.000475909 -2.41512e-06
-0.000475909 0.000238481 -3.80897e-06
-2.41512e-06 -3.80897e-06 4.88593e-05
0.00202707 -0.000566378 -6.95304e-06
-0.000566378 0.000211468 -2.81959e-06
-6.95304e-06 -2.81959e-06 -5.88453e-05
0.0019518 -0.000552474 1.79841e-06
-0.000552474 0.000146538 8.93943e-07
1.79841e-06 8.93943e-07 -0.00011555
0.00191253 -0.000520808 6.65315e-06
-0.000520808 9.66958e-05 7.38117e-06
6.65315e-06 7.38117e-06 -0.000145821
0.00193044 -0.000639067 -7.74668e-06
-0.000639067 0.000331044 -2.58296e-06
-7.74668e-06 -2.58296e-06 -2.42825e-05
0.00170911 -0.000654649 -5.16863e-07
-0.000654649 0.000119312 1.10793e-07
-5.16863e-07 1.10793e-07 -0.000237441
0.00222655 -0.000759531 8.45172e-06
-0.000759531 0.000419208 1.27445e-06
8.45172e-06 1.27445e-06 3.34342e-05
0.00142169 -0.000478082 -1.07188e-05
-0.000478082 0.000273204 3.26496e-06
-1.07188e-05 3.26496e-06 -5.64124e-05
0.00179656 -0.000659775 -6.66445e-07
-0.000659775 0.000412918 7.61757e-07
-6.66445e-07 7.61757e-07 1.35357e-05
0.00201747 -0.000769181 3.34699e-06
-0.000769181 0.000490771 7.06367e-07
3.34699e-06 7.06367e-07 5.70233e-05
0.000682512 -0.000220021 -8.23899e-06
-0.000220021 1.61618e-05 4.75176e-06
-8.23899e-06 4.75176e-06 -0.000198035
0.00122146 -0.000388922 1.22787e-06
-0.000388922 0.000250804 2.03147e-08
1.22787e-06 2.03147e-08 -4.0171e-05
0.00110039 -0.000493285 -1.89472e-06
-0.000493285 0.000138623 1.92024e-06
-1.89472e-06 1.92024e-06 -0.00021575
0.000474709 -0.00013112 -2.30705e-05
-0.00013112 -5.72499e-05 1.51873e-05
-2.30705e-05 1.51873e-05 -0.000152615
0.000633623 -0.000208287 -2.15228e-06
-0.000208287 5.45191e-05 9.93056e-07
-2.15228e-06 9.93056e-07 -0.000179886
0.00068588 -0.000342321 1.55638e-06
-0.000342321 1.59409e-05 -2.76154e-07
1.55638e-06 -2.76154e-07 -0.000254581
0.0043361 0.000211283 -8.83638e-05
0.000211283 0.00246997 7.21814e-06
-8.83638e-05 7.21814e-06 0.00244303
0.000517424 -7.20803e-05 1.52429e-06
-7.20803e-05 -2.75862e-06 -3.29065e-07
1.52429e-06 -3.29065e-07 -8.36063e-05
0.00165305 -0.000261457 5.89759e-06
-0.000261457 0.00073975 -2.43876e-06
5.89759e-06 -2.43876e-06 0.000505753
0.00253335 0.000132375 5.25507e-05
0.000132375 0.00131312 1.40987e-06
5.25507e-05 1.40987e-06 0.0012891
0.000598329 -3.67836e-05 1.06051e-05
-3.67836e-05 5.51779e-05 -1.32118e-05
1.06051e-05 -1.32118e-05 -9.13816e-06
0.00359481 0.000133932 8.29976e-05
0.000133932 0.00196906 -5.17961e-06
8.29976e-05 -5.17961e-06 0.00196461
0.00185044 0.000356698 3.7102e-06
0.000356698 0.000739264 -4.30062e-06
3.7102e-06 -4.30062e-06 0.000516937
0.000441542 0.000146856 -4.05148e-06
0.000146856 -4.80341e-05 -1.7455e-07
-4.05148e-06 -1.7455e-07 -0.000244907
0.000496374 0.000164751 1.17187e-06
0.000164751 7.52774e-05 -8.20554e-06
1.17187e-06 -8.20554e-06 -0.000162537
0.000418841 0.000133617 -2.48385e-06
0.000133617 3.86996e-05 1.16246e-05
-2.48385e-06 1.16246e-05 -0.000176531
0.000590213 9.98423e-05 6.91055e-07
9.98423e-05 0.000146834 1.25482e-07
6.91055e-07 1.25482e-07 -7.72993e-05
0.00103608 0.000113626 3.47897e-07
0.000113626 0.00034486 -9.03895e-06
3.47897e-07 -9.03895e-06 0.000195986
0.000576881 3.21653e-05 -5.11161e-06
3.21653e-05 4.96554e-05 -1.22422e-05
-5.11161e-06 -1.22422e-05 1.88528e-06
0.000678796 6.11589e-05 4.18939e-07
6.11589e-05 0.000135827 -5.70366e-08
4.18939e-07 -5.70366e-08 9.43599e-06
-0.000185269 3.25767e-05 -6.29564e-06
3.25767e-05 -0.000365304 6.55392e-07
-6.29564e-06 6.55392e-07 -0.000540001
0.0029238 -9.93108e-05 -6.10545e-05
-9.93108e-05 0.00153388 -5.06295e-06
-6.10545e-05 -5.06295e-06 0.00153897
0.000416437 1.45676e-05 1.01256e-06
1.45676e-05 -5.10816e-05 -3.06865e-07
1.01256e-06 -3.06865e-07 -8.88991e-05
0.000534586 4.69303e-05 -3.53438e-06
4.69303e-05 4.83734e-05 5.01929e-06
-3.53438e-06 5.01929e-06 -5.98976e-05
0.00269896 -8.67616e-05 -7.34608e-06
-8.67616e-05 0.00138454 6.04945e-07
-7.34608e-06 6.04945e-07 0.00139162
0.000394317 -1.00419e-05 1.63625e-07
-1.00419e-05 -7.06238e-05 7.56346e-06
1.63625e-07 7.56346e-06 -0.0001014
0.00250839 -6.82489e-05 2.97892e-05
-6.82489e-05 0.00125781 4.89621e-06
2.97892e-05 4.89621e-06 0.00126833
0.00129888 5.92193e-05 -0.00088033
5.92193e-05 0.00384963 -6.23482e-05
-0.00088033 -6.23482e-05 0.00169315
-0.00582023 0.000158597 3.53801e-05
0.000158597 0.00496275 -4.6014e-06
3.53801e-05 -4.6014e-06 -0.00177388
0.00587306 0.000232452 -0.000260125
0.000232452 0.00352373 -6.98182e-05
-0.000260125 -6.98182e-05 0.00146553
-0.000305911 4.72611e-05 2.97562e-06
4.72611e-05 -0.000482462 -7.76731e-06
2.97562e-06 -7.76731e-06 -0.000679938
0.000381407 8.82268e-05 6.10028e-06
8.82268e-05 -7.36998e-06 7.76582e-06
6.10028e-06 7.76582e-06 -0.000305059
0.00286305 0.000606846 -3.27417e-06
0.000606846 0.00144 3.90761e-06
-3.27417e-06 3.90761e-06 0.00108644
0.00228527 0.000706189 1.72344e-05
0.000706189 0.000943862 7.7308e-06
1.72344e-05 7.7308e-06 0.000483802
0.000565446 0.000407266 7.82766e-06
0.000407266 0.000167732 3.3029e-06
7.82766e-06 3.3029e-06 -0.000221253
0.00106989 0.000174401 -7.5578e-06
0.000174401 0.00057096 8.65247e-06
-7.5578e-06 8.65247e-06 0.000280414
0.00111356 0.000186081 1.09908e-05
0.000186081 0.000496584 1.15373e-05
1.09908e-05 1.15373e-05 0.000201728
0.000590974 0.000439348 -4.55166e-06
0.000439348 0.000230854 -5.59435e-07
-4.55166e-06 -5.59435e-07 -0.000224719
-0.000107127 0.000588876 1.67879e-05
0.000588876 -0.000571163 -1.11172e-05
1.67879e-05 -1.11172e-05 -0.000911861
0.00251427 0.000846714 -9.33783e-06
0.000846714 0.000935686 2.60511e-05
-9.33783e-06 2.60511e-05 0.000695559
0.00148205 0.000892773 3.1801e-05
0.000892773 6.49627e-05 1.04516e-05
3.1801e-05 1.04516e-05 -8.63045e-05
0.00140908 0.000648934 -6.92561e-06
0.000648934 0.000517308 -3.07161e-06
-6.92561e-06 -3.07161e-06 0.000277762
0.00199327 0.000383002 -7.53662e-06
0.000383002 0.00112651 3.43958e-05
-7.53662e-06 3.43958e-05 0.000789763
0.013889 0.00261867 -0.000126099
0.00261867 0.00169477 6.36972e-05
-0.000126099 6.36972e-05 0.00047429
0.00275973 -0.00209279 -0.000580363
-0.00209279 0.00387794 -0.000209503
-0.000580363 -0.000209503 0.000699838
9.19805e-05 -0.00368924 0.000804783
-0.00368924 0.00662507 0.000214518
0.000804783 0.000214518 0.000774358
0.00799677 -0.00307844 0.000318802
-0.00307844 0.00345981 0.0003248
0.000318802 0.0003248 -0.000356516
0.0142866 0.00495688 -0.000112883
0.00495688 0.00467374 -5.00171e-05
-0.000112883 -5.00171e-05 0.000687289
-0.00305751 0.000253918 -5.48178e-05
0.000253918 -0.000100472 -5.41762e-05
-5.48178e-05 -5.41762e-05 -0.000522153
0.00212893 0.00194284 -5.60317e-05
0.00194284 0.000533032 -2.20771e-05
-5.60317e-05 -2.20771e-05 0.00129861
0.0172239 0.00473632 1.80061e-05
0.00473632 0.003705 3.85041e-05
1.80061e-05 3.85041e-05 0.00128011
0.00655862 0.00368035 -8.64981e-05
0.00368035 -0.000167181 -0.000107399
-8.64981e-05 -0.000107399 0.000293598
0.00166431 0.00121796 1.04874e-05
0.00121796 0.000132425 -5.00269e-06
1.04874e-05 -5.00269e-06 -0.000128825
0.00160788 0.000933707 1.01027e-05
0.000933707 0.000453908 -4.06431e-06
1.01027e-05 -4.06431e-06 0.000143911
0.00210075 0.000638186 -2.67862e-05
0.000638186 0.000999461 1.62957e-06
-2.67862e-05 1.62957e-06 0.000820396
0.00270008 0.00165967 -7.27465e-05
0.00165967 0.000774247 -2.73006e-05
-7.27465e-05 -2.73006e-05 -5.5361e-05
0.00140649 0.00183749 7.73548e-05
0.00183749 -0.00079576 3.94135e-05
7.73548e-05 3.94135e-05 -0.00122486
0.00251596 -0.000296621 -0.000126515
-0.000296621 -0.00502169 5.85351e-05
-0.000126515 5.85351e-05 -0.00526521
0.000712484 -0.00172057 1.12079e-05
-0.00172057 0.00227268 6.92907e-06
1.12079e-05 6.92907e-06 0.00124158
-0.0118213 -0.00028383 0.000322358
-0.00028383 0.00620891 -2.39348e-05
0.000322358 -2.39348e-05 0.000511229
0.000630364 -0.00188841 -5.92995e-05
-0.00188841 -0.00043735 2.18045e-05
-5.92995e-05 2.18045e-05 -0.00127694
0.00577397 -0.00326025 2.91341e-05
-0.00326025 0.000361091 4.71334e-05
2.91341e-05 4.71334e-05 0.000736555
0.00253874 1.83983e-05 0.000949913
1.83983e-05 0.00402121 -0.000226263
0.000949913 -0.000226263 0.00206108
0.0140858 -0.00251274 -0.000284706
-0.00251274 0.00158156 0.000158005
-0.000284706 0.000158005 0.000628163
0.00172772 -0.00142349 -3.03213e-05
-0.00142349 -0.000132494 1.14186e-06
-3.03213e-05 1.14186e-06 -0.000441238
0.011607 -0.000116911 -0.000199351
-0.000116911 -0.00100077 6.96833e-05
-0.000199351 6.96833e-05 -0.00181738
0.00727781 -0.00213976 0.00010084
-0.00213976 -0.000324872 1.11699e-05
0.00010084 1.11699e-05 0.000504414
0.00356861 -0.00121717 6.39857e-05
-0.00121717 0.000322593 -4.5321e-05
6.39857e-05 -4.5321e-05 0.000131866
0.00251341 -0.000803703 -1.64964e-06
-0.000803703 -0.00209481 6.2262e-06
-1.64964e-06 6.2262e-06 -0.000890015
-0.0053361 -8.23619e-05 1.33072e-05
-8.23619e-05 -0.00358303 1.32434e-05
1.33072e-05 1.32434e-05 -0.0035559
0.00151142 -0.00074489 -1.83927e-05
-0.00074489 -0.000243176 1.76493e-06
-1.83927e-05 1.76493e-06 -0.00026153
0.00374115 -0.000789284 3.71613e-05
-0.000789284 0.000739747 -1.52731e-05
3.71613e-05 -1.52731e-05 0.000788932
0.00102636 -0.00079853 -1.03325e-05
-0.00079853 -0.000281123 6.91211e-06
-1.03325e-05 6.91211e-06 -0.000632564
0.00220163 -0.000791052 -3.63112e-06
-0.000791052 2.90427e-05 3.24624e-06
-3.63112e-06 3.24624e-06 -0.000177107
0.00241799 -0.000642637 5.8691e-06
-0.000642637 -1.04418e-05 -1.58459e-06
5.8691e-06 -1.58459e-06 -4.08431e-05
0.0022562 -0.000767713 -4.02681e-06
-0.000767713 0.000246522 1.05727e-05
-4.02681e-06 1.05727e-05 -5.34115e-05
0.00213926 -0.000569468 4.5378e-07
-0.000569468 2.31639e-05 1.45818e-06
4.5378e-07 1.45818e-06 -0.000102234
0.00228086 -0.000563214 -4.21336e-07
-0.000563214 8.48164e-05 2.59959e-07
-4.21336e-07 2.59959e-07 1.74704e-05
0.00192584 -0.000522878 4.58741e-06
-0.000522878 3.46529e-05 6.74465e-06
4.58741e-06 6.74465e-06 -0.000166048
0.00205887 -0.000506102 1.25421e-09
-0.000506102 7.01916e-05 1.33461e-06
1.25421e-09 1.33461e-06 -6.85428e-05
0.00220968 -0.000542232 -2.33953e-06
-0.000542232 0.000146846 1.51904e-06
-2.33953e-06 1.51904e-06 1.70726e-05
0.00204036 -0.000483526 -4.31457e-06
-0.000483526 0.000146461 2.42071e-06
-4.31457e-06 2.42071e-06 -9.29745e-06
0.00217756 -0.000483324 -1.38279e-06
-0.000483324 0.000278034 -1.00991e-06
-1.38279e-06 -1.00991e-06 0.000112169
0.00213583 -0.000474121 3.19607e-06
-0.000474121 0.000208066 5.66115e-06
3.19607e-06 5.66115e-06 3.76755e-05
0.00207198 -0.000474578 6.44782e-07
-0.000474578 0.000221491 -6.6876e-07
6.44782e-07 -6.6876e-07 3.21105e-05
0.00197334 -0.000491725 -3.0556e-06
-0.000491725 0.000163954 -2.87161e-06
-3.0556e-06 -2.87161e-06 -4.6298e-05
0.00206014 -0.000548508 -4.86834e-06
-0.000548508 0.00030543 -4.15389e-06
-4.86834e-06 -4.15389e-06 2.50056e-05
0.00209241 -0.000574456 -4.62554e-07
-0.000574456 0.000254299 2.83118e-08
-4.62554e-07 2.83118e-08 -1.87921e-05
0.00218507 -0.000569341 8.33537e-06
-0.000569341 0.000297583 4.20926e-06
8.33537e-06 4.20926e-06 3.48295e-05
0.00159375 -0.000518598 -1.04556e-05
-0.000518598 0.000231968 2.06158e-06
-1.04556e-05 2.06158e-06 -9.95189e-05
0.00185751 -0.00062966 -1.73537e-06
-0.00062966 0.000288018 -2.53805e-07
-1.73537e-06 -2.53805e-07 -6.75336e-05
0.00172664 -0.000662926 6.31716e-06
-0.000662926 0.000116277 2.19662e-06
6.31716e-06 2.19662e-06 -0.000243901
0.000744357 -0.000250111 -1.11477e-05
-0.000250111 -1.03664e-05 7.19283e-06
-1.11477e-05 7.19283e-06 -0.000234387
0.00135494 -0.00047357 8.6621e-07
-0.00047357 0.000232756 2.95006e-07
8.6621e-07 2.95006e-07 -9.61617e-05
0.0018963 -0.000667861 3.1995e-06
-0.000667861 0.00047822 2.29834e-06
3.1995e-06 2.29834e-06 7.82146e-05
0.000377657 -0.000184675 -2.216e-05
-0.000184675 -0.000128378 1.89244e-05
-2.216e-05 1.89244e-05 -0.000248138
0.000630144 -0.000223648 -5.25462e-07
-0.000223648 -1.00257e-05 2.56305e-07
-5.25462e-07 2.56305e-07 -0.000229811
0.000970737 -0.000361853 6.87147e-06
-0.000361853 8.60788e-05 -1.30794e-06
6.87147e-06 -1.30794e-06 -0.000199537
0.00514011 0.000172313 -0.000144605
0.000172313 0.00296505 9.6453e-06
-0.000144605 9.6453e-06 0.00294794
0.000502723 -0.000149752 -3.04493e-06
-0.000149752 -3.70386e-05 -8.35015e-07
-3.04493e-06 -8.35015e-07 -0.000138673
0.00119755 -0.000253729 5.73715e-06
-0.000253729 0.000421381 -1.95101e-06
5.73715e-06 -1.95101e-06 0.000172455
0.00454738 0.000181272 2.28069e-05
0.000181272 0.00259957 8.88621e-07
2.28069e-05 8.88621e-07 0.00257994
0.00070155 -9.53834e-05 1.98304e-05
-9.53834e-05 0.000107899 -1.44972e-05
1.98304e-05 -1.44972e-05 2.27597e-05
0.00404462 0.000139801 0.000113818
0.000139801 0.00226088 -7.19468e-06
0.000113818 -7.19468e-06 0.00225484
0.00210748 0.000582298 4.18185e-06
0.000582298 0.000856467 -2.05421e-06
4.18185e-06 -2.05421e-06 0.000475961
0.000748953 0.000264856 -1.03158e-06
0.000264856 6.64042e-05 -3.35694e-06
-1.03158e-06 -3.35694e-06 -0.000146731
0.000301357 0.000168653 4.01872e-06
0.000168653 -0.000150219 4.02435e-06
4.01872e-06 4.02435e-06 -0.000359854
-0.000750666 3.949e-05 -2.34755e-06
3.949e-05 -0.000770396 1.47466e-06
-2.34755e-06 1.47466e-06 -0.000968161
0.000378336 0.000114969 -3.43879e-07
0.000114969 -2.78209e-05 2.28409e-06
-3.43879e-07 2.28409e-06 -0.000247517
0.00100759 0.000105801 4.25468e-07
0.000105801 0.000337304 -1.11665e-05
4.25468e-07 -1.11665e-05 0.000152741
0.000255239 6.0871e-05 -3.21532e-06
6.0871e-05 -8.06129e-05 3.90884e-06
-3.21532e-06 3.90884e-06 -0.000289444
0.0005717 8.48485e-05 -1.72825e-07
8.48485e-05 6.73224e-05 4.91267e-07
-1.72825e-07 4.91267e-07 -8.12119e-05
0.000596734 3.97569e-05 -7.33204e-06
3.97569e-05 6.06488e-05 -1.53437e-05
-7.33204e-06 -1.53437e-05 7.40617e-07
0.00324077 -0.000107964 -8.63028e-05
-0.000107964 0.0017431 -6.561e-06
-8.63028e-05 -6.561e-06 0.00174596
0.000426057 1.35031e-05 1.35574e-06
1.35031e-05 -3.97359e-05 -3.78018e-07
1.35574e-06 -3.78018e-07 -8.82389e-05
0.000426196 4.89015e-05 -3.9938e-06
4.89015e-05 -1.66424e-05 6.6008e-06
-3.9938e-06 6.6008e-06 -0.000141645
0.00285549 -0.000105833 -8.2534e-06
-0.000105833 0.00149164 7.51581e-07
-8.2534e-06 7.51581e-07 0.0014945
0.000312132 -5.18156e-05 -6.64145e-06
-5.18156e-05 -0.000108938 9.34021e-06
-6.64145e-06 9.34021e-06 -0.000150362
0.00267174 -8.72372e-05 3.70458e-05
-8.72372e-05 0.00136704 4.94998e-06
3.70458e-05 4.94998e-06 0.00137373
0.015012 0.000609857 0.000495719
0.000609857 0.00191298 0.000121428
0.000495719 0.000121428 0.00163843
-0.0010574 -0.00296598 -0.000528456
-0.00296598 -0.00242191 -8.50719e-05
-0.000528456 -8.50719e-05 -0.00470825
-0.00946088 0.00151204 -0.00021333
0.00151204 0.00440837 -0.000126751
-0.00021333 -0.000126751 -0.00261718
0.000174789 3.98785e-05 1.74885e-05
3.98785e-05 -0.000125158 -6.41035e-06
1.74885e-05 -6.41035e-06 -0.000439041
0.00157259 0.00044637 -8.72718e-06
0.00044637 0.00066747 6.209e-07
-8.72718e-06 6.209e-07 0.000346483
0.00244443 0.000612732 -1.05622e-05
0.000612732 0.00126213 -2.58651e-06
-1.05622e-05 -2.58651e-06 0.000826257
0.00148507 0.000606228 9.98929e-07
0.000606228 0.000463011 -9.65172e-07
9.98929e-07 -9.65172e-07 2.98502e-05
0.00146939 0.000658396 1.21587e-05
0.000658396 0.000262309 1.87802e-05
1.21587e-05 1.87802e-05 -0.00015217
-0.000705209 0.000438588 3.10756e-05
0.000438588 -0.000880224 6.72002e-06
3.10756e-05 6.72002e-06 -0.00122568
-0.00014113 0.000328698 -1.28075e-05
0.000328698 -0.00012211 1.13721e-05
-1.28075e-05 1.13721e-05 -0.000606997
-0.000375849 0.000542817 1.05094e-05
0.000542817 -0.000741322 -1.14136e-06
1.05094e-05 -1.14136e-06 -0.0010693
0.00225409 0.000813216 6.32856e-06
0.000813216 0.000837344 7.80428e-06
6.32856e-06 7.80428e-06 0.000554533
-0.000635445 0.000536755 5.92592e-06
0.000536755 -0.00101548 -4.30427e-06
5.92592e-06 -4.30427e-06 -0.00125911
0.00372177 0.00104788 5.4276e-06
0.00104788 0.00127777 1.49152e-05
5.4276e-06 1.49152e-05 0.00107911
0.00130136 0.000883357 2.23218e-05
0.000883357 -1.73033e-05 6.18908e-06
2.23218e-05 6.18908e-06 -0.000310162
0.000543899 0.000776452 3.3801e-06
0.000776452 -0.000481853 1.22175e-07
3.3801e-06 1.22175e-07 -0.000558952
0.000584816 0.000525342 7.78707e-07
0.000525342 3.86171e-05 -5.33452e-05
7.78707e-07 -5.33452e-05 -0.00017153
0.00502365 0.00177373 2.02537e-05
0.00177373 -0.00156322 2.7425e-05
2.02537e-05 2.7425e-05 -5.65029e-05
0.0137999 0.00308031 0.000285454
0.00308031 0.000862277 0.000154827
0.000285454 0.000154827 -0.000684469
0.0117456 -0.00438347 0.000541894
-0.00438347 0.00562913 -4.22065e-05
0.000541894 -4.22065e-05 0.00227118
0.00581678 0.00500776 0.000569765
0.00500776 -0.00101259 0.000323118
0.000569765 0.000323118 -0.00513466
0.000213447 0.00134284 -5.86586e-05
0.00134284 0.000195872 2.74682e-07
-5.86586e-05 2.74682e-07 0.000824094
0.00394561 0.00256283 -0.00010822
0.00256283 -0.000621289 -5.42719e-05
-0.00010822 -5.42719e-05 0.00018968
0.00612851 0.00220702 7.20662e-05
0.00220702 0.00117144 3.17333e-05
7.20662e-05 3.17333e-05 0.00091449
0.00434537 0.00159838 1.94689e-05
0.00159838 0.00132798 9.38418e-06
1.94689e-05 9.38418e-06 0.000987776
-0.00020409 0.000685637 -3.0625e-05
0.000685637 -0.000490613 1.05222e-05
-3.0625e-05 1.05222e-05 -0.000731228
0.00697397 0.00252234 -0.000184259
0.00252234 0.00178906 -1.87397e-05
-0.000184259 -1.87397e-05 0.00118535
0.00303543 -0.000532183 1.64655e-05
-0.000532183 -0.000687102 1.58723e-05
1.64655e-05 1.58723e-05 5.01852e-05
0.0114966 -0.000559146 -4.8103e-05
-0.000559146 0.00112361 -1.18998e-05
-4.8103e-05 -1.18998e-05 0.00113654
-0.0127064 -0.00279637 0.00079238
-0.00279637 -0.00522038 1.73919e-06
0.00079238 1.73919e-06 -0.00625101
0.000830218 -0.00122955 -0.000113309
-0.00122955 -0.000483069 3.43707e-05
-0.000113309 3.43707e-05 -0.000753018
0.00882837 -0.00264354 -1.41166e-05
-0.00264354 -0.000230027 9.34565e-05
-1.41166e-05 9.34565e-05 0.000870161
0.00106229 -0.000283234 -0.000290609
-0.000283234 -0.00495278 3.34951e-05
-0.000290609 3.34951e-05 -0.00661185
0.00285332 -0.00104756 3.49279e-05
-0.00104756 -9.44336e-05 6.81998e-07
3.49279e-05 6.81998e-07 5.49237e-06
0.00511142 -0.000743983 -4.83207e-05
-0.000743983 -0.000533239 -1.45403e-06
-4.83207e-05 -1.45403e-06 0.000298704
0.00586653 -0.000902056 4.65759e-05
-0.000902056 0.001318 -3.38988e-05
4.65759e-05 -3.38988e-05 0.00166893
0.00576416 -0.00046882 0.000110089
-0.00046882 0.00137825 2.02156e-06
0.000110089 2.02156e-06 0.00159832
-0.00337148 -0.000341167 9.84044e-06
-0.000341167 -0.00301381 1.22524e-05
9.84044e-06 1.22524e-05 -0.0027487
0.00206674 -0.00066415 -7.08679e-06
-0.00066415 -0.000229729 1.92594e-06
-7.08679e-06 1.92594e-06 -6.57148e-05
0.0023807 -0.000507717 2.58494e-05
-0.000507717 -0.000207549 -6.4634e-06
2.58494e-05 -6.4634e-06 6.37795e-05
0.0017109 -0.000748407 1.09438e-06
-0.000748407 -0.000234845 6.39288e-06
1.09438e-06 6.39288e-06 -0.000438486
0.0023554 -0.000638223 1.3927e-06
-0.000638223 -3.92115e-05 1.54424e-06
1.3927e-06 1.54424e-06 -7.12997e-05
0.00239273 -0.000559075 2.26859e-06
-0.000559075 1.42389e-05 -6.58261e-07
2.26859e-06 -6.58261e-07 2.02049e-05
0.00216299 -0.000571204 2.45653e-06
-0.000571204 3.50319e-05 5.78205e-06
2.45653e-06 5.78205e-06 -8.90463e-05
0.00223062 -0.000554966 3.14923e-07
-0.000554966 6.8268e-05 4.47284e-07
3.14923e-07 4.47284e-07 -1.93148e-06
0.00222263 -0.000495731 -1.95421e-06
-0.000495731 5.20454e-05 1.74272e-07
-1.95421e-06 1.74272e-07 -1.04655e-05
0.0020509 -0.000506651 3.75771e-06
-0.000506651 6.20734e-05 1.69002e-06
3.75771e-06 1.69002e-06 -7.50565e-05
0.00216181 -0.000534853 -1.52336e-07
-0.000534853 0.000140829 4.85455e-08
-1.52336e-07 4.85455e-08 1.09742e-05
0.00206489 -0.000479852 1.11893e-08
-0.000479852 0.000122373 3.89876e-07
1.11893e-08 3.89876e-07 -1.06772e-05
0.0020762 -0.000492401 -7.61544e-07
-0.000492401 0.000160458 1.84091e-06
-7.61544e-07 1.84091e-06 5.70208e-06
0.00211545 -0.000473933 -1.74681e-06
-0.000473933 0.000234246 3.02957e-07
-1.74681e-06 3.02957e-07 7.19039e-05
0.00217335 -0.000477475 -1.84889e-06
-0.000477475 0.000280125 -8.06608e-07
-1.84889e-06 -8.06608e-07 0.000100505
0.00205861 -0.00047297 4.57739e-06
-0.00047297 0.000212096 2.84457e-06
4.57739e-06 2.84457e-06 2.31878e-05
0.00202143 -0.000495441 -2.9337e-07
-0.000495441 0.000193506 -1.5871e-07
-2.9337e-07 -1.5871e-07 -1.77137e-05
0.00206426 -0.00048941 -1.14698e-06
-0.00048941 0.000268681 -2.77103e-06
-1.14698e-06 -2.77103e-06 3.64609e-05
0.00173775 -0.000478197 -8.99927e-06
-0.000478197 0.000217246 -6.77352e-07
-8.99927e-06 -6.77352e-07 -7.01111e-05
0.00199608 -0.000548854 -7.51365e-07
-0.000548854 0.000264791 -1.15286e-06
-7.51365e-07 -1.15286e-06 -2.13818e-05
0.00216019 -0.000583114 5.41584e-06
-0.000583114 0.000299321 2.71002e-06
5.41584e-06 2.71002e-06 2.32579e-05
0.00091287 -0.000280768 -1.53176e-05
-0.000280768 -5.84884e-06 7.57757e-06
-1.53176e-05 7.57757e-06 -0.000235535
0.00164071 -0.000516418 -1.19004e-07
-0.000516418 0.000268539 7.85202e-07
-1.19004e-07 7.85202e-07 -6.01579e-05
0.00178562 -0.000620157 3.48221e-06
-0.000620157 0.000246084 2.07436e-06
3.48221e-06 2.07436e-06 -0.00010963
0.000229473 -0.000189097 -1.91909e-05
-0.000189097 -0.000239926 1.98045e-05
-1.91909e-05 1.98045e-05 -0.000369503
0.000789866 -0.000259525 8.13411e-07
-0.000259525 1.41484e-05 2.7295e-07
8.13411e-07 2.7295e-07 -0.000214205
0.00127066 -0.000466602 1.09947e-05
-0.000466602 0.000182797 -1.88056e-06
1.09947e-05 -1.88056e-06 -0.000144842
0.00620731 9.76011e-05 -0.000219998
9.76011e-05 0.00360164 1.37671e-05
-0.000219998 1.37671e-05 0.00359997
0.000378122 -0.000191257 -1.24357e-06
-0.000191257 -0.00012757 -1.06975e-07
-1.24357e-06 -1.06975e-07 -0.000248271
0.000624633 -0.000227495 9.76644e-06
-0.000227495 -8.2473e-06 -5.98702e-06
9.76644e-06 -5.98702e-06 -0.000232574
0.00558757 0.000122045 -4.30623e-06
0.000122045 0.00323567 -1.52545e-06
-4.30623e-06 -1.52545e-06 0.00322748
0.000418884 -0.000148136 1.95873e-05
-0.000148136 -8.21004e-05 -1.70544e-05
1.95873e-05 -1.70544e-05 -0.000190184
0.00492572 0.000115169 0.000176844
0.000115169 0.0028249 -1.59018e-05
0.000176844 -1.59018e-05 0.0028197
0.0017168 0.000607686 -3.96172e-06
0.000607686 0.000464749 3.32604e-06
-3.96172e-06 3.32604e-06 7.79768e-05
0.00176662 0.000542069 -1.25768e-06
0.000542069 0.000623925 -1.40565e-06
-1.25768e-06 -1.40565e-06 0.000258907
0.00078641 0.000317521 -1.18764e-06
0.000317521 3.11871e-05 -3.05215e-06
-1.18764e-06 -3.05215e-06 -0.000238745
0.0009659 0.000306748 -8.6627e-06
0.000306748 0.00023983 -2.86748e-06
-8.6627e-06 -2.86748e-06 3.73078e-06
0.000143675 0.000161837 2.22796e-06
0.000161837 -0.000239534 -1.60805e-07
2.22796e-06 -1.60805e-07 -0.000453866
0.00104819 0.000257285 -2.102e-06
0.000257285 0.000364285 -6.68078e-06
-2.102e-06 -6.68078e-06 0.00013264
-4.07792e-05 6.62435e-05 -6.40629e-07
6.62435e-05 -0.000305744 3.56008e-06
-6.40629e-07 3.56008e-06 -0.000513195
0.000678421 0.000127028 8.38096e-07
0.000127028 0.000144488 -3.56564e-07
8.38096e-07 -3.56564e-07 -4.58691e-05
0.00075007 7.3531e-05 -1.44058e-05
7.3531e-05 0.000145627 -1.74034e-05
-1.44058e-05 -1.74034e-05 6.91998e-05
0.000371209 5.72631e-05 -3.07535e-06
5.72631e-05 -4.13365e-05 1.01326e-05
-3.07535e-06 1.01326e-05 -0.000195746
0.00052096 4.70418e-05 3.32509e-07
4.70418e-05 1.81029e-05 -2.88712e-07
3.32509e-07 -2.88712e-07 -4.13872e-05
0.00387103 -0.000127665 -0.000113159
-0.000127665 0.0021535 -8.92909e-06
-0.000113159 -8.92909e-06 0.0021502
0.00323002 -0.000126947 -1.05413e-05
-0.000126947 0.00173939 9.39299e-07
-1.05413e-05 9.39299e-07 0.00173694
0.000356962 3.95545e-05 5.35839e-06
3.95545e-05 -8.15764e-05 1.20574e-05
5.35839e-06 1.20574e-05 -0.000128798
0.00282518 -0.00010635 4.53182e-05
-0.00010635 0.00147253 4.93935e-06
4.53182e-05 4.93935e-06 0.001475
0.00398615 0.000165183 9.07291e-05
0.000165183 -0.00127524 2.90262e-05
9.07291e-05 2.90262e-05 0.000227275
0.00524447 -0.000933689 0.000179147
-0.000933689 -0.00441116 8.37543e-05
0.000179147 8.37543e-05 -0.00530325
0.0127837 -0.00319884 -0.000229619
-0.00319884 0.00517576 -0.000102109
-0.000229619 -0.000102109 0.00380062
0.00145941 0.000636399 7.19808e-06
0.000636399 6.33338e-05 8.99296e-06
7.19808e-06 8.99296e-06 -0.000287956
0.00473318 0.000859797 -1.24895e-05
0.000859797 0.0025893 1.48291e-06
-1.24895e-05 1.48291e-06 0.00211171
0.000695144 0.0005067 -8.97911e-06
0.0005067 -1.17018e-05 -5.78592e-06
-8.97911e-06 -5.78592e-06 -0.000417603
0.00148241 0.000701281 1.58416e-06
0.000701281 0.000428828 -2.29428e-06
1.58416e-06 -2.29428e-06 2.47002e-05
0.001679 0.000681557 -1.74842e-06
0.000681557 0.000413516 3.73444e-06
-1.74842e-06 3.73444e-06 -1.23157e-05
0.00161863 0.000756263 2.47897e-05
0.000756263 0.00031153 1.36152e-05
2.47897e-05 1.36152e-05 -5.73287e-05
0.00262066 0.000867058 -4.29841e-05
0.000867058 0.00105798 -1.73579e-06
-4.29841e-05 -1.73579e-06 0.000644767
0.000556916 0.000633112 1.77047e-05
0.000633112 -0.000102587 -3.56735e-05
1.77047e-05 -3.56735e-05 -0.000378419
0.00199738 0.000867473 1.14566e-06
0.000867473 0.000490774 -2.13425e-06
1.14566e-06 -2.13425e-06 0.000175731
0.00214745 0.000894077 8.95687e-06
0.000894077 0.000311965 -3.38723e-07
8.95687e-06 -3.38723e-07 0.000250317
0.00215079 0.000909099 1.48984e-05
0.000909099 0.000290484 -2.31705e-06
1.48984e-05 -2.31705e-06 -2.56942e-05
0.00184419 0.000782077 2.35379e-05
0.000782077 0.00021333 2.20434e-05
2.35379e-05 2.20434e-05 1.86657e-05
0.00089051 0.000838367 -5.91347e-06
0.000838367 -0.000235661 -6.20869e-06
-5.91347e-06 -6.20869e-06 -0.000509154
0.000487685 0.000763494 -1.83547e-05
0.000763494 -0.00050644 -2.51035e-05
-1.83547e-05 -2.51035e-05 -0.000569214
0.00123651 0.000786886 5.33035e-05
0.000786886 -0.00113532 3.68427e-05
5.33035e-05 3.68427e-05 -0.000765257
0.00611263 0.00183272 -9.27492e-05
0.00183272 -0.0012434 -2.77854e-05
-9.27492e-05 -2.77854e-05 0.000207004
0.00423073 0.0020571 0.000565108
0.0020571 -0.00452431 0.000120403
0.000565108 0.000120403 -0.00620825
0.00212924 0.00203316 -0.000171941
0.00203316 -0.000760041 -6.74904e-05
-0.000171941 -6.74904e-05 -2.90327e-05
0.00462721 0.00180002 -3.07784e-05
0.00180002 0.000810699 -9.45059e-06
-3.07784e-05 -9.45059e-06 0.000642381
0.00513522 0.00170622 -0.000150152
0.00170622 0.00164247 -3.64359e-05
-0.000150152 -3.64359e-05 0.00128148
0.00245986 -0.000242892 -6.19008e-05
-0.000242892 -0.000738134 -1.96995e-05
-6.19008e-05 -1.96995e-05 -0.000362731
-0.000574158 -0.00029682 8.84126e-05
-0.00029682 -0.00128981 1.88745e-05
8.84126e-05 1.88745e-05 -0.000366403
0.00338767 0.000808953 0.000221171
0.000808953 -0.00508358 -1.87867e-05
0.000221171 -1.87867e-05 -0.00528934
0.000421863 -0.000789553 -5.05098e-05
-0.000789553 -0.00132277 7.55212e-05
-5.05098e-05 7.55212e-05 -0.00103057
0.00674695 -0.00083113 -0.000168685
-0.00083113 0.000410106 4.73244e-05
-0.000168685 4.73244e-05 0.000775701
0.0025686 -0.000661302 -1.92003e-05
-0.000661302 -0.000467993 1.19713e-05
-1.92003e-05 1.19713e-05 -4.17839e-05
0.00429551 -0.000472789 -8.8178e-06
-0.000472789 0.000525946 -3.04895e-06
-8.8178e-06 -3.04895e-06 0.000695312
0.00279668 -0.000378603 6.42568e-05
-0.000378603 -7.25664e-05 -8.17441e-06
6.42568e-05 -8.17441e-06 0.000278829
0.00379994 -0.000109722 4.96291e-05
-0.000109722 0.00114035 2.03435e-06
4.96291e-05 2.03435e-06 0.00115603
0.000403181 -0.000529297 -2.29309e-05
-0.000529297 -0.0011681 1.37953e-05
-2.29309e-05 1.37953e-05 -0.000896322
0.00217513 -0.000523536 -2.57587e-06
-0.000523536 -0.000356555 1.72089e-06
-2.57587e-06 1.72089e-06 -8.98411e-05
0.00243067 -0.000443811 5.11932e-06
-0.000443811 -0.000186614 -1.51475e-06
5.11932e-06 -1.51475e-06 3.15954e-05
0.00228547 -0.000628246 -2.37514e-06
-0.000628246 -6.64831e-05 4.08774e-06
-2.37514e-06 4.08774e-06 -9.71126e-05
0.00237757 -0.000547346 1.32742e-08
-0.000547346 2.33628e-05 -3.4426e-07
1.32742e-08 -3.4426e-07 3.39557e-05
0.00229414 -0.000433689 -4.22757e-07
-0.000433689 -1.67467e-05 -2.57673e-07
-4.22757e-07 -2.57673e-07 -2.5194e-06
0.00217463 -0.000544909 -2.73632e-07
-0.000544909 4.96919e-05 1.06233e-06
-2.73632e-07 1.06233e-06 -2.17716e-05
0.00221551 -0.000500986 -8.9147e-07
-0.000500986 5.85124e-05 7.75294e-08
-8.9147e-07 7.75294e-08 -4.73146e-06
0.00211935 -0.000425381 -1.36862e-06
-0.000425381 7.20855e-05 8.88941e-07
-1.36862e-06 8.88941e-07 -8.30865e-06
0.00210441 -0.000526674 6.75925e-07
-0.000526674 0.000129062 -9.81519e-07
6.75925e-07 -9.81519e-07 -2.61873e-07
0.00205101 -0.000480207 1.01324e-06
-0.000480207 0.000110356 -5.09206e-07
1.01324e-06 -5.09206e-07 -2.32696e-05
0.0020269 -0.000443358 -6.07207e-07
-0.000443358 0.000135326 -3.5117e-07
-6.07207e-07 -3.5117e-07 -1.48122e-05
0.00204917 -0.000464494 -1.42693e-06
-0.000464494 0.0001883 1.79582e-06
-1.42693e-06 1.79582e-06 2.9462e-05
0.00214773 -0.000473848 -1.75997e-06
-0.000473848 0.000257101 6.74809e-07
-1.75997e-06 6.74809e-07 8.12338e-05
0.00216308 -0.00046591 -1.02187e-06
-0.00046591 0.000291244 -2.09805e-06
-1.02187e-06 -2.09805e-06 9.16822e-05
0.00206682 -0.000499292 2.80034e-06
-0.000499292 0.000220887 2.93127e-06
2.80034e-06 2.93127e-06 8.64512e-06
0.00207302 -0.000491963 4.12008e-07
-0.000491963 0.000274244 -4.41599e-07
4.12008e-07 -4.41599e-07 4.23324e-05
0.0018373 -0.00042776 -6.18143e-06
-0.00042776 0.000236351 1.90442e-07
-6.18143e-06 1.90442e-07 -1.35386e-05
0.00107425 -0.00028946 -1.85827e-05
-0.00028946 2.28295e-05 8.07192e-06
-1.85827e-05 8.07192e-06 -0.000203204
0.0017132 -0.00047411 -1.14967e-06
-0.00047411 0.000210316 -4.73926e-07
-1.14967e-06 -4.73926e-07 -7.87607e-05
0.0019262 -0.000548998 3.12994e-06
-0.000548998 0.000219826 1.52586e-06
3.12994e-06 1.52586e-06 -7.21097e-05
0.000367081 -0.000232294 -2.2449e-05
-0.000232294 -0.000165414 1.91149e-05
-2.2449e-05 1.91149e-05 -0.000311023
0.000903041 -0.000284087 1.23831e-06
-0.000284087 -2.1072e-05 -1.11104e-07
1.23831e-06 -1.11104e-07 -0.00025271
0.00166938 -0.000513525 9.37444e-06
-0.000513525 0.000291519 -3.81755e-07
9.37444e-06 -3.81755e-07 -3.43735e-05
0.00685798 5.24093e-05 -0.000262838
5.24093e-05 0.00398588 1.83814e-05
-0.000262838 1.83814e-05 0.00399011
0.000453603 -0.000244379 -1.52373e-06
-0.000244379 -9.32404e-05 7.60196e-07
-1.52373e-06 7.60196e-07 -0.000234057
0.000752387 -0.000268023 1.27845e-05
-0.000268023 -1.33023e-05 -6.84621e-06
1.27845e-05 -6.84621e-06 -0.000246479
0.0063975 8.07567e-05 -5.19637e-06
8.07567e-05 0.00372341 -2.86161e-07
-5.19637e-06 -2.86161e-07 0.00372059
0.00059226 -0.000235609 2.61615e-05
-0.000235609 3.93112e-06 -1.95391e-05
2.61615e-05 -1.95391e-05 -0.000119367
0.00586188 0.000139373 0.000204789
0.000139373 0.00342993 -2.492e-05
0.000204789 -2.492e-05 0.00340958
0.00158499 0.000584676 -9.79486e-07
0.000584676 0.000203079 5.62346e-06
-9.79486e-07 5.62346e-06 -0.000147607
0.00167945 0.000610524 -1.86062e-06
0.000610524 0.000430667 3.54231e-07
-1.86062e-06 3.54231e-07 4.04209e-05
0.00124238 0.000433329 -7.51963e-06
0.000433329 0.000195456 -6.19722e-07
-7.51963e-06 -6.19722e-07 -0.000110325
0.0014665 0.000508858 -2.54456e-06
0.000508858 0.000410584 -5.93119e-07
-2.54456e-06 -5.93119e-07 5.95368e-05
0.000924769 0.000315541 -3.69062e-06
0.000315541 0.000116561 -2.06081e-06
-3.69062e-06 -2.06081e-06 -0.000147637
0.00131917 0.000263549 -8.80168e-06
0.000263549 0.000461629 -2.29719e-06
-8.80168e-06 -2.29719e-06 0.0002292
-0.000213872 0.000115295 -3.34943e-06
0.000115295 -0.000476344 -1.71126e-06
-3.34943e-06 -1.71126e-06 -0.000682815
0.00087607 0.000167132 -1.04793e-06
0.000167132 0.000238863 -6.06684e-07
-1.04793e-06 -6.06684e-07 2.16279e-05
0.000563844 0.000118545 -2.22696e-05
0.000118545 6.79272e-06 -1.81341e-05
-2.22696e-05 -1.81341e-05 -8.29802e-05
0.00033104 9.46412e-05 7.56528e-07
9.46412e-05 -8.36093e-05 1.04541e-05
7.56528e-07 1.04541e-05 -0.000259638
0.000427595 6.80043e-05 -5.82004e-07
6.80043e-05 -4.97567e-05 -3.43597e-07
-5.82004e-07 -3.43597e-07 -0.000121633
0.00444238 -0.000150491 -0.000134025
-0.000150491 0.00252836 -1.21525e-05
-0.000134025 -1.21525e-05 0.00251616
0.000259899 5.08072e-05 7.96529e-06
5.08072e-05 -0.000139833 1.50516e-05
7.96529e-06 1.50516e-05 -0.000198129
0.00370986 -0.000147163 -1.06532e-05
-0.000147163 0.00205631 1.08504e-06
-1.06532e-05 1.08504e-06 0.00204768
0.00309144 -0.000131559 5.35508e-05
-0.000131559 0.00165218 5.25632e-06
5.35508e-05 5.25632e-06 0.00164792
0.000560922 0.000155303 -2.19731e-06
0.000155303 -0.00181084 9.87455e-06
-2.19731e-06 9.87455e-06 -0.00110088
0.00508472 4.84444e-05 6.64005e-05
4.84444e-05 -0.000712233 1.8644e-05
6.64005e-05 1.8644e-05 0.000672577
0.0143268 0.000827189 -1.99475e-05
0.000827189 0.00221909 1.36389e-05
-1.99475e-05 1.36389e-05 0.00200874
0.00193702 0.000753506 4.1878e-07
0.000753506 0.000320307 5.28313e-06
4.1878e-07 5.28313e-06 -2.58288e-05
0.0021687 0.000726169 -1.1429e-06
0.000726169 0.000296285 3.78024e-06
-1.1429e-06 3.78024e-06 -1.43543e-05
0.00152373 0.000646825 -4.49017e-07
0.000646825 0.000113275 -3.60381e-06
-4.49017e-07 -3.60381e-06 -0.000236592
0.00285529 0.000870278 -1.38245e-05
0.000870278 0.00123763 3.19907e-06
-1.38245e-05 3.19907e-06 0.000801441
0.00195035 0.000710863 -7.08119e-06
0.000710863 0.000603917 -9.98836e-06
-7.08119e-06 -9.98836e-06 0.000164615
0.00200463 0.000818531 7.35834e-06
0.000818531 0.000497275 3.33702e-06
7.35834e-06 3.33702e-06 0.000125407
0.00194406 0.000822577 -1.53303e-06
0.000822577 0.000117989 -3.34099e-06
-1.53303e-06 -3.34099e-06 -0.000189186
0.00246291 0.000941605 -1.98892e-05
0.000941605 0.000703766 5.26866e-06
-1.98892e-05 5.26866e-06 0.000380604
0.00100611 0.000778262 -1.3244e-05
0.000778262 -0.000411428 1.26394e-05
-1.3244e-05 1.26394e-05 -0.000345816
0.00272187 0.000971723 9.77183e-07
0.000971723 0.000624563 3.74431e-06
9.77183e-07 3.74431e-06 0.000295658
0.00266555 0.000834848 -4.20439e-06
0.000834848 0.000394612 3.61011e-06
-4.20439e-06 3.61011e-06 0.00016046
0.00128233 0.000407311 3.78994e-05
0.000407311 -0.000291901 1.81663e-05
3.78994e-05 1.81663e-05 -0.000234336
0.000397223 0.000648242 9.38213e-06
0.000648242 -0.000545136 -4.38066e-06
9.38213e-06 -4.38066e-06 -0.000723678
0.000935475 0.000840408 -3.60973e-05
0.000840408 -0.000208598 -3.67981e-06
-3.60973e-05 -3.67981e-06 -0.000485585
0.00302783 0.000931315 6.89118e-06
0.000931315 -0.000160486 8.14672e-06
6.89118e-06 8.14672e-06 7.16486e-05
0.00711791 0.00145231 -2.60726e-05
0.00145231 -0.00072578 -4.18008e-05
-2.60726e-05 -4.18008e-05 0.000365288
0.00434637 0.00150797 -4.47121e-05
0.00150797 0.00107284 -5.52572e-05
-4.47121e-05 -5.52572e-05 0.000978915
0.00202924 -8.62818e-05 3.72794e-05
-8.62818e-05 -9.9983e-05 3.43716e-06
3.72794e-05 3.43716e-06 7.19541e-05
0.00285343 -0.000241467 -5.94732e-05
-0.000241467 -0.000449089 3.56313e-06
-5.94732e-05 3.56313e-06 -4.81552e-05
0.00398869 0.000377785 2.1803e-05
0.000377785 -0.000227752 -1.82894e-05
2.1803e-05 -1.82894e-05 0.000428434
0.000954511 -0.00056412 -7.13039e-05
-0.00056412 -0.00130239 5.25254e-05
-7.13039e-05 5.25254e-05 -0.000865343
0.00271232 -0.00052195 -0.000100045
-0.00052195 -0.000371093 -2.49256e-06
-0.000100045 -2.49256e-06 -0.00025346
0.0026817 -0.000377606 8.66234e-06
-0.000377606 -5.01495e-05 -3.36078e-06
8.66234e-06 -3.36078e-06 0.000298963
0.00253092 -0.000103933 -1.64196e-05
-0.000103933 0.000299851 7.69449e-07
-1.64196e-05 7.69449e-07 0.00033913
0.00246427 -0.000245192 1.52931e-05
-0.000245192 -2.55495e-05 -3.94618e-07
1.52931e-05 -3.94618e-07 0.000119784
0.00239394 6.00243e-06 1.13119e-05
6.00243e-06 -3.28122e-05 3.06076e-06
1.13119e-05 3.06076e-06 3.2415e-05
0.00210367 -0.000548406 -1.83902e-05
-0.000548406 -0.000428345 5.75331e-06
-1.83902e-05 5.75331e-06 -0.000173396
0.00244762 -0.000459285 -2.70534e-06
-0.000459285 -0.00017285 6.68305e-07
-2.70534e-06 6.68305e-07 8.52517e-06
0.00236634 -0.00031947 5.21731e-07
-0.00031947 -9.35543e-05 -1.04731e-06
5.21731e-07 -1.04731e-06 2.68274e-06
0.0023552 -0.000536425 -4.09459e-06
-0.000536425 2.51782e-05 1.03758e-06
-4.09459e-06 1.03758e-06 3.98722e-05
0.00229579 -0.000430646 -5.50296e-08
-0.000430646 -2.71914e-06 -1.52676e-07
-5.50296e-08 -1.52676e-07 6.7624e-06
0.00219561 -0.000357338 -4.87285e-07
-0.000357338 1.2703e-05 4.10597e-07
-4.87285e-07 4.10597e-07 -2.38952e-06
0.00221002 -0.000506479 -5.16013e-07
-0.000506479 6.5485e-05 -7.00231e-07
-5.16013e-07 -7.00231e-07 1.21055e-06
0.00212229 -0.000424706 5.03577e-07
-0.000424706 6.98385e-05 -1.51824e-07
5.03577e-07 -1.51824e-07 -1.03676e-05
0.00207604 -0.000388174 -1.91458e-06
-0.000388174 0.000102494 6.50642e-07
-1.91458e-06 6.50642e-07 -4.61229e-06
0.00204057 -0.000480651 2.16869e-06
-0.000480651 0.000100538 -1.3075e-06
2.16869e-06 -1.3075e-06 -3.36591e-05
0.00201865 -0.000442402 6.11257e-07
-0.000442402 0.000126623 -4.97419e-07
6.11257e-07 -4.97419e-07 -2.38317e-05
0.00202849 -0.000416933 -7.12469e-07
-0.000416933 0.000164664 -1.42154e-06
-7.12469e-07 -1.42154e-06 -4.81438e-06
0.00211858 -0.000470066 -8.27974e-07
-0.000470066 0.000231611 2.47815e-06
-8.27974e-07 2.47815e-06 5.95235e-05
0.00212538 -0.000464373 -4.94783e-07
-0.000464373 0.000269106 -2.01484e-07
-4.94783e-07 -2.01484e-07 7.03832e-05
0.00181918 -0.000393705 -4.31766e-06
-0.000393705 0.000179169 1.03203e-07
-4.31766e-06 1.03203e-07 -4.54587e-05
0.00208562 -0.000494765 2.47667e-06
-0.000494765 0.000282303 2.35874e-06
2.47667e-06 2.35874e-06 5.06549e-05
0.0018842 -0.000433019 -8.63341e-07
-0.000433019 0.000265605 1.49234e-08
-8.63341e-07 1.49234e-08 1.64636e-05
0.00109026 -0.0002636 -1.76796e-05
-0.0002636 -2.9512e-06 7.50406e-06
-1.76796e-05 7.50406e-06 -0.000215166
0.000315858 -0.000202572 -1.98426e-05
-0.000202572 -0.000217198 1.73924e-05
-1.98426e-05 1.73924e-05 -0.000354219
0.00103848 -0.0002885 7.78871e-07
-0.0002885 -1.02012e-06 -4.63028e-09
7.78871e-07 -4.63028e-09 -0.000227483
0.00171561 -0.000472389 6.82513e-06
-0.000472389 0.000219925 -6.65616e-07
6.82513e-06 -6.65616e-07 -7.12757e-05
0.0072418 -3.17377e-05 -0.000301788
-3.17377e-05 0.00420062 2.25813e-05
-0.000301788 2.25813e-05 0.00421342
0.000357695 -0.000229464 -1.01064e-06
-0.000229464 -0.000180582 1.40511e-06
-1.01064e-06 1.40511e-06 -0.000320934
0.000889439 -0.00028549 1.47458e-05
-0.00028549 -3.76232e-05 -6.56821e-06
1.47458e-05 -6.56821e-06 -0.000271027
0.00705848 2.19463e-05 -9.09927e-07
2.19463e-05 0.00410874 5.96853e-07
-9.09927e-07 5.96853e-07 0.00411414
0.000504107 -0.000246009 2.46372e-05
-0.000246009 -6.75208e-05 -2.0196e-05
2.46372e-05 -2.0196e-05 -0.00020836
0.00671099 4.57631e-05 0.000267135
4.57631e-05 0.00391105 -2.42762e-05
0.000267135 -2.42762e-05 0.00391243
0.00186926 0.000642442 -1.12255e-06
0.000642442 0.000231545 5.93039e-06
-1.12255e-06 5.93039e-06 -9.17693e-05
0.0016403 0.000595962 -1.16174e-07
0.000595962 0.000241317 8.3316e-07
-1.16174e-07 8.3316e-07 -0.000109851
0.00152623 0.000489212 -8.63042e-06
0.000489212 0.000261413 1.24272e-07
-8.63042e-06 1.24272e-07 -5.32335e-05
0.00151929 0.000597546 2.17924e-07
0.000597546 0.000324182 -2.46468e-06
2.17924e-07 -2.46468e-06 -6.53472e-05
0.00128584 0.000431661 -1.45231e-06
0.000431661 0.000229981 -4.79342e-08
-1.45231e-06 -4.79342e-08 -7.38318e-05
0.000993786 0.000246291 -1.20152e-05
0.000246291 0.000168419 -4.16811e-06
-1.20152e-05 -4.16811e-06 -4.8895e-05
0.00122344 0.000325607 7.94768e-07
0.000325607 0.000306383 -1.76645e-06
7.94768e-07 -1.76645e-06 4.5166e-05
0.0005305 0.000202473 5.80131e-07
0.000202473 -3.06702e-05 1.58257e-06
5.80131e-07 1.58257e-06 -0.000254986
0.000420534 0.000190796 -2.79174e-05
0.000190796 -9.84017e-05 -1.89382e-05
-2.79174e-05 -1.89382e-05 -0.000205599
0.000111459 0.000105549 9.48081e-07
0.000105549 -0.000227847 6.01027e-06
9.48081e-07 6.01027e-06 -0.000447353
0.000554327 0.000102971 -9.41646e-07
0.000102971 5.88109e-06 -5.25646e-07
-9.41646e-07 -5.25646e-07 -8.19072e-05
0.00541628 -0.000165754 -0.000177794
-0.000165754 0.0031564 -1.72658e-05
-0.000177794 -1.72658e-05 0.00313578
0.000368521 6.59689e-05 1.23413e-05
6.59689e-05 -8.17482e-05 1.79012e-05
1.23413e-05 1.79012e-05 -0.000152157
0.00433577 -0.000173322 -1.05169e-05
-0.000173322 0.00246698 1.23785e-06
-1.05169e-05 1.23785e-06 0.00244945
0.00356245 -0.000158586 7.34969e-05
-0.000158586 0.00196574 6.33046e-06
7.34969e-05 6.33046e-06 0.00195342
0.00148788 0.000172531 3.09888e-05
0.000172531 -0.000323628 1.85163e-05
3.09888e-05 1.85163e-05 -9.76398e-05
0.00266502 0.000207028 -2.00462e-05
0.000207028 -0.000985298 -2.46991e-06
-2.00462e-05 -2.46991e-06 -0.000213776
0.00417824 0.000301027 0.000219588
0.000301027 -0.00168739 6.44602e-05
0.000219588 6.44602e-05 0.000179483
0.00262098 0.000782634 -8.71767e-06
0.000782634 0.000522474 1.35948e-07
-8.71767e-06 1.35948e-07 0.000223627
0.00178182 0.000759025 -6.09405e-06
0.000759025 0.000209044 -4.7817e-06
-6.09405e-06 -4.7817e-06 -0.000133096
0.00219192 0.000587409 8.70989e-07
0.000587409 0.00018263 4.66167e-06
8.70989e-07 4.66167e-06 -4.43294e-05
0.00216882 0.000716103 1.37256e-06
0.000716103 0.000298747 4.62839e-07
1.37256e-06 4.62839e-07 -9.00838e-06
0.00153429 0.000651647 2.34939e-06
0.000651647 0.00012921 -1.1292e-05
2.34939e-06 -1.1292e-05 -0.000218061
0.00213903 0.000642575 -2.53863e-06
0.000642575 5.09189e-05 8.5817e-07
-2.53863e-06 8.5817e-07 -0.000152371
0.00280236 0.000930238 -1.00354e-05
0.000930238 0.000926189 -4.08814e-06
-1.00354e-05 -4.08814e-06 0.000538685
0.00241415 0.000852253 4.87772e-07
0.000852253 0.000400651 7.49293e-08
4.87772e-07 7.49293e-08 8.27316e-05
0.00207529 0.000430003 -1.2962e-05
0.000430003 -0.000157472 -1.06985e-06
-1.2962e-05 -1.06985e-06 -0.000157317
0.00349931 0.00106803 -6.16534e-06
0.00106803 0.00105323 6.35e-06
-6.16534e-06 6.35e-06 0.000710536
0.00251742 0.000823504 4.72664e-07
0.000823504 0.000310186 -6.7278e-07
4.72664e-07 -6.7278e-07 7.33382e-05
0.000672485 0.000395161 -5.46979e-07
0.000395161 -0.000626171 1.58023e-06
-5.46979e-07 1.58023e-06 -0.000558124
-0.00120624 0.000500124 -2.47957e-05
0.000500124 -0.00137611 -1.00761e-05
-2.47957e-05 -1.00761e-05 -0.00152615
0.00381301 0.00104616 -0.000126192
0.00104616 0.000235321 -4.14823e-05
-0.000126192 -4.14823e-05 0.00035381
0.00217002 0.000102323 -1.13642e-06
0.000102323 -0.000191877 -2.21749e-07
-1.13642e-06 -2.21749e-07 -9.12989e-05
0.00270381 -8.32179e-05 6.6083e-06
-8.32179e-05 0.000411659 -6.84822e-07
6.6083e-06 -6.84822e-07 0.000526077
0.00277789 -0.000261359 -9.72505e-05
-0.000261359 -0.000449332 5.04669e-06
-9.72505e-05 5.04669e-06 -3.46675e-05
0.00211154 -0.000364811 -7.39282e-05
-0.000364811 -0.00030461 6.87781e-06
-7.39282e-05 6.87781e-06 4.26137e-05
0.00126241 -0.000112734 -1.45627e-05
-0.000112734 -0.000533575 6.93344e-07
-1.45627e-05 6.93344e-07 -0.000473675
0.00247517 -0.000250055 1.54005e-06
-0.000250055 -4.05511e-05 -1.95779e-06
1.54005e-06 -1.95779e-06 0.000128497
0.00242739 9.17132e-06 -3.0915e-06
9.17132e-06 -4.0889e-05 6.59153e-07
-3.0915e-06 6.59153e-07 2.74994e-05
0.00240336 -7.77231e-05 9.09799e-07
-7.77231e-05 -8.04691e-05 -8.09628e-07
9.09799e-07 -8.09628e-07 2.13408e-05
0.00246636 -0.00047171 -6.37842e-06
-0.00047171 -0.000151009 1.11728e-06
-6.37842e-06 1.11728e-06 -6.88441e-06
0.00232115 -0.000308208 3.83668e-07
-0.000308208 -0.000102771 -2.49997e-07
3.83668e-07 -2.49997e-07 -1.54262e-05
0.00224459 -0.000236717 5.72381e-07
-0.000236717 -2.61424e-05 -2.78213e-07
5.72381e-07 -2.78213e-07 2.25519e-05
0.00230051 -0.000427928 -4.55567e-07
-0.000427928 1.37838e-05 1.84561e-07
-4.55567e-07 1.84561e-07 1.83367e-05
0.00218892 -0.000354027 8.1352e-08
-0.000354027 1.27933e-05 1.89868e-07
8.1352e-08 1.89868e-07 -3.59388e-06
0.00209644 -0.00030201 -2.76429e-06
-0.00030201 5.24298e-05 8.2325e-07
-2.76429e-06 8.2325e-07 3.45058e-06
0.00212323 -0.000423866 1.90626e-06
-0.000423866 6.60992e-05 -1.0641e-06
1.90626e-06 -1.0641e-06 -1.38974e-05
0.0020672 -0.000386531 6.6486e-07
-0.000386531 9.4077e-05 -2.45216e-07
6.6486e-07 -2.45216e-07 -1.30115e-05
0.00205609 -0.000357628 -1.1965e-06
-0.000357628 0.000141946 -7.60432e-07
-1.1965e-06 -7.60432e-07 7.83622e-06
0.00200968 -0.000441487 1.57092e-06
-0.000441487 0.000117358 -5.17255e-07
1.57092e-06 -5.17255e-07 -3.34238e-05
0.00206386 -0.000419107 -3.14786e-07
-0.000419107 0.000188049 -1.39971e-07
-3.14786e-07 -1.39971e-07 1.79915e-05
0.00187583 -0.000357284 -2.23147e-06
-0.000357284 0.000168683 -2.93825e-07
-2.23147e-06 -2.93825e-07 -2.99074e-05
0.0020868 -0.000462629 6.04804e-07
-0.000462629 0.000246331 1.73553e-06
6.04804e-07 1.73553e-06 4.85281e-05
0.0018503 -0.00039576 -6.03211e-07
-0.00039576 0.000199544 1.26041e-07
-6.03211e-07 1.26041e-07 -2.49473e-05
0.00109584 -0.000233218 -1.48236e-05
-0.000233218 -2.18747e-05 6.45869e-06
-1.48236e-05 6.45869e-06 -0.00022009
0.00192247 -0.000437614 5.39392e-06
-0.000437614 0.000289245 1.94031e-08
5.39392e-06 1.94031e-08 4.0959e-05
0.00110482 -0.000263593 1.93475e-07
-0.000263593 2.54556e-06 8.30367e-08
1.93475e-07 8.30367e-08 -0.000208887
0.00276108 -0.000186073 -5.01818e-05
-0.000186073 0.00129851 1.24701e-05
-5.01818e-05 1.24701e-05 0.00119256
0.00233154 -0.000107372 -0.00026687
-0.000107372 0.00111386 3.64009e-05
-0.00026687 3.64009e-05 0.00109503
0.0015825 -0.000209255 -1.381e-05
-0.000209255 0.000571865 -6.48856e-09
-1.381e-05 -6.48856e-09 0.000445761
0.00102673 -0.000288245 1.76371e-05
-0.000288245 -8.37448e-06 -7.02128e-06
1.76371e-05 -7.02128e-06 -0.000235088
0.00727393 -5.07281e-05 -7.73175e-06
-5.07281e-05 0.00422872 1.37914e-06
-7.73175e-06 1.37914e-06 0.00423832
0.000359307 -0.000258532 2.53213e-05
-0.000258532 -0.000178798 -1.87906e-05
2.53213e-05 -1.87906e-05 -0.000322063
0.00721039 -1.33135e-06 0.000296314
-1.33135e-06 0.00420845 -2.87722e-05
0.000296314 -2.87722e-05 0.00421113
0.00215454 0.000451232 -1.62158e-08
0.000451232 0.00015537 7.76303e-07
-1.62158e-08 7.76303e-07 -1.32629e-05
0.00213172 0.000591492 2.93514e-06
0.000591492 0.00028707 5.59757e-06
2.93514e-06 5.59757e-06 2.5063e-05
0.00212377 0.000662706 3.46664e-07
0.000662706 0.000383095 1.94591e-07
3.46664e-07 1.94591e-07 6e-05
0.00176013 0.00052239 -8.44061e-06
0.00052239 0.000293141 1.30136e-06
-8.44061e-06 1.30136e-06 -1.31605e-05
0.0017267 0.000612284 4.2855e-06
0.000612284 0.000295588 -3.54357e-06
4.2855e-06 -3.54357e-06 -5.75779e-05
0.00152237 0.000493218 -1.31475e-07
0.000493218 0.000249564 5.92859e-07
-1.31475e-07 5.92859e-07 -6.78097e-05
0.000825637 0.00027165 -1.45073e-05
0.00027165 -3.18416e-05 -5.67364e-06
-1.45073e-05 -5.67364e-06 -0.00025158
0.00128315 0.000426748 7.86151e-06
0.000426748 0.000233205 2.31607e-06
7.86151e-06 2.31607e-06 -6.81142e-05
0.000658488 0.000224705 1.15475e-06
0.000224705 -4.06217e-05 4.4441e-08
1.15475e-06 4.4441e-08 -0.000252018
0.000520902 0.000260342 -2.87923e-05
0.000260342 -4.90289e-05 -1.97244e-05
-2.87923e-05 -1.97244e-05 -0.000177221
0.000276353 0.000174475 4.93061e-06
0.000174475 -0.000201282 3.01687e-06
4.93061e-06 3.01687e-06 -0.000416488
0.000494319 0.00017255 1.36786e-06
0.00017255 -5.72777e-05 -8.97159e-07
1.36786e-06 -8.97159e-07 -0.000160312
0.00636373 -0.000132903 -0.000227622
-0.000132903 0.00373787 -2.31931e-05
-0.000227622 -2.31931e-05 0.00371836
0.000325941 9.38039e-05 1.83008e-05
9.38039e-05 -0.000133077 1.80315e-05
1.83008e-05 1.80315e-05 -0.000215187
0.00498932 -0.000184669 -6.15273e-06
-0.000184669 0.00288384 -1.44245e-07
-6.15273e-06 -1.44245e-07 0.00286121
0.00415128 -0.000190142 9.58151e-05
-0.000190142 0.00235541 8.70862e-06
9.58151e-05 8.70862e-06 0.00233321
0.00225901 0.000221316 -6.31827e-06
0.000221316 -0.000181932 -1.29005e-06
-6.31827e-06 -1.29005e-06 -5.2072e-05
0.00212691 0.00012455 2.10371e-05
0.00012455 -8.85455e-05 -2.85194e-06
2.10371e-05 -2.85194e-06 0.00018085
0.00561075 0.00031228 -0.000116602
0.00031228 0.000338124 -2.15528e-06
-0.000116602 -2.15528e-06 0.00115259
0.00221356 0.000539581 -3.3653e-06
0.000539581 0.000139555 1.42316e-06
-3.3653e-06 1.42316e-06 -4.35758e-05
0.00225696 0.000735502 -3.67453e-06
0.000735502 0.000344605 -3.37704e-07
-3.67453e-06 -3.37704e-07 5.3553e-05
0.00176962 0.000778644 -5.28205e-06
0.000778644 0.000180955 -1.07595e-05
-5.28205e-06 -1.07595e-05 -0.00015939
0.00230179 0.000581301 2.9723e-06
0.000581301 0.000267815 1.51413e-06
2.9723e-06 1.51413e-06 4.3424e-05
0.00216758 0.000705919 1.62877e-06
0.000705919 0.000300832 -4.79274e-06
1.62877e-06 -4.79274e-06 -4.06907e-06
0.00243279 0.000430037 -1.34313e-07
0.000430037 2.05746e-05 2.20441e-07
-1.34313e-07 2.20441e-07 1.22328e-05
0.0021742 0.000651281 -7.3551e-07
0.000651281 8.78255e-05 2.67061e-07
-7.3551e-07 2.67061e-07 -0.000115223
0.00280186 0.000872777 -5.97043e-06
0.000872777 0.000640948 -2.17216e-06
-5.97043e-06 -2.17216e-06 0.000312456
0.00204913 0.000419625 -1.11881e-08
0.000419625 -0.000150887 -2.82945e-07
-1.11881e-08 -2.82945e-07 -0.000149135
0.00221729 0.000793706 1.24702e-05
0.000793706 0.000131624 3.02344e-06
1.24702e-05 3.02344e-06 -0.000104257
-3.60393e-05 0.000351632 -3.93976e-05
0.000351632 -0.00102687 -2.00551e-05
-3.93976e-05 -2.00551e-05 -0.000943359
0.00239848 9.03198e-05 9.71528e-07
9.03198e-05 -3.0996e-05 3.43122e-07
9.71528e-07 3.43122e-07 4.64824e-05
0.00225092 0.000110634 -1.53229e-06
0.000110634 -0.000130456 3.02459e-07
-1.53229e-06 3.02459e-07 -3.67257e-05
0.00333794 -8.11808e-05 -5.02277e-05
-8.11808e-05 0.000885639 1.60522e-06
-5.02277e-05 1.60522e-06 0.000953406
0.00245991 -0.000249933 -2.39164e-05
-0.000249933 -7.73547e-05 2.19056e-06
-2.39164e-05 2.19056e-06 0.000114808
0.00245749 1.66898e-05 -8.03319e-06
1.66898e-05 -5.79719e-05 -4.70704e-06
-8.03319e-06 -4.70704e-06 1.33099e-05
0.00236721 -8.62333e-05 -1.80541e-07
-8.62333e-05 -0.000117898 1.52352e-07
-1.80541e-07 1.52352e-07 -9.70324e-06
0.00212472 -7.23474e-05 4.68836e-07
-7.23474e-05 -3.37829e-05 1.28402e-07
4.68836e-07 1.28402e-07 2.47044e-06
0.00227327 -0.00029608 -3.75561e-07
-0.00029608 -0.000112257 2.20245e-07
-3.75561e-07 2.20245e-07 -3.39826e-05
0.00219904 -0.000241916 -1.81766e-07
-0.000241916 -4.726e-05 2.5135e-08
-1.81766e-07 2.5135e-08 -5.40131e-06
0.00207119 -0.000201823 -1.92552e-06
-0.000201823 1.55459e-05 1.83258e-07
-1.92552e-06 1.83258e-07 -1.39096e-06
0.00218423 -0.000350855 6.60209e-07
-0.000350855 1.40641e-05 4.77941e-08
6.60209e-07 4.77941e-08 -3.63312e-06
0.00210462 -0.00030334 3.19431e-07
-0.00030334 5.25629e-05 1.08732e-08
3.19431e-07 1.08732e-08 3.19418e-06
0.00209553 -0.00029052 -2.55098e-06
-0.00029052 0.000121923 -6.84321e-08
-2.55098e-06 -6.84321e-08 2.2592e-05
0.00205757 -0.000384721 2.63208e-06
-0.000384721 8.52771e-05 -9.74428e-07
2.63208e-06 -9.74428e-07 -2.17538e-05
0.00205155 -0.000357757 -2.32376e-07
-0.000357757 0.000135973 -1.18512e-07
-2.32376e-07 -1.18512e-07 1.47868e-06
0.00188695 -0.000307927 -1.58178e-06
-0.000307927 0.0001386 -4.84272e-07
-1.58178e-06 -4.84272e-07 -3.33599e-05
0.00210286 -0.000421542 1.07185e-06
-0.000421542 0.000213804 8.32947e-07
1.07185e-06 8.32947e-07 4.3129e-05
0.00190188 -0.000359146 -4.49829e-07
-0.000359146 0.00018538 3.03118e-08
-4.49829e-07 3.03118e-08 -1.31402e-05
0.0011026 -0.000207846 -1.272e-05
-0.000207846 -3.76933e-05 5.03674e-06
-1.272e-05 5.03674e-06 -0.000224983
0.00188176 -0.000397782 3.31755e-06
-0.000397782 0.000220288 2.74399e-09
3.31755e-06 2.74399e-09 -4.05714e-06
0.00113685 -0.000234742 -5.2186e-09
-0.000234742 -2.77214e-06 2.07887e-07
-5.2186e-09 2.07887e-07 -0.000200186
0.00276788 -0.000179865 -5.82326e-05
-0.000179865 0.00129415 1.21512e-05
-5.82326e-05 1.21512e-05 0.00119685
0.00113042 -0.000264577 1.71754e-05
-0.000264577 1.50641e-05 -7.08253e-06
1.71754e-05 -7.08253e-06 -0.000195746
0.00291332 -0.000225208 4.98191e-05
-0.000225208 0.00139471 -7.86876e-06
4.98191e-05 -7.86876e-06 0.00129662
0.00227752 -0.000140421 -0.000261025
-0.000140421 0.00108748 4.1033e-05
-0.000261025 4.1033e-05 0.00106602
0.00463253 -0.000121254 -0.000257226
-0.000121254 0.0025762 2.70357e-05
-0.000257226 2.70357e-05 0.00257038
0.0029935 -0.000282857 0.000164232
-0.000282857 0.00146045 -2.65908e-05
0.000164232 -2.65908e-05 0.001361
0.00731339 -6.36617e-05 0.000306922
-6.36617e-05 0.00426179 -3.28802e-05
0.000306922 -3.28802e-05 0.00426708
0.00231934 0.000446194 -2.16302e-06
0.000446194 0.000241835 -5.33862e-07
-2.16302e-06 -5.33862e-07 9.87109e-05
0.00193778 0.000456984 1.47235e-06
0.000456984 0.000125303 1.64355e-06
1.47235e-06 1.64355e-06 -7.51544e-05
0.00214869 0.000441381 2.12659e-07
0.000441381 0.00015988 -1.51614e-06
2.12659e-07 -1.51614e-06 -1.7935e-06
0.0018939 0.00049329 -6.07648e-06
0.00049329 0.00025967 1.62223e-06
-6.07648e-06 1.62223e-06 -1.09921e-05
0.00221656 0.000600199 8.436e-07
0.000600199 0.000325907 3.71507e-07
8.436e-07 3.71507e-07 6.24716e-05
0.00239598 0.000685665 1.10042e-06
0.000685665 0.000546263 -5.04345e-06
1.10042e-06 -5.04345e-06 0.000222749
0.00171577 0.000522316 2.52363e-07
0.000522316 0.000257748 6.95249e-07
2.52363e-07 6.95249e-07 -5.04237e-05
0.000916282 0.000298618 -2.03679e-05
0.000298618 -6.3651e-05 -6.35374e-06
-2.03679e-05 -6.35374e-06 -0.000290518
0.00150755 0.000495345 1.00954e-05
0.000495345 0.000232652 1.60488e-06
1.00954e-05 1.60488e-06 -8.69945e-05
0.000790808 0.000264723 -1.08364e-06
0.000264723 -4.71091e-05 -3.59524e-07
-1.08364e-06 -3.59524e-07 -0.000263247
0.000408818 0.000260728 -2.62908e-05
0.000260728 -0.000129989 -2.00204e-05
-2.62908e-05 -2.00204e-05 -0.000271923
0.000316154 0.000200311 9.30529e-06
0.000200311 -0.000249541 1.90156e-06
9.30529e-06 1.90156e-06 -0.000455256
0.000316678 0.000214767 3.09241e-06
0.000214767 -0.000176786 3.74793e-07
3.09241e-06 3.74793e-07 -0.000299692
0.00703825 -4.41371e-05 -0.00027349
-4.41371e-05 0.00412742 -2.87582e-05
-0.00027349 -2.87582e-05 0.00411872
0.000382918 0.000132725 2.3093e-05
0.000132725 -0.000125236 1.79502e-05
2.3093e-05 1.79502e-05 -0.000223874
0.00598783 -0.000159293 5.69336e-06
-0.000159293 0.00350021 -2.42473e-06
5.69336e-06 -2.42473e-06 0.00348068
0.00482438 -0.000225197 0.000118827
-0.000225197 0.00279708 1.16416e-05
0.000118827 1.16416e-05 0.00276293
0.00239535 0.00025862 3.05824e-07
0.00025862 -4.33311e-05 6.93989e-07
3.05824e-07 6.93989e-07 3.00862e-05
0.00218465 0.000227168 1.77629e-06
0.000227168 -0.000202691 -7.13376e-08
1.77629e-06 -7.13376e-08 -7.37467e-05
0.00250308 8.26178e-05 -7.63039e-05
8.26178e-05 8.11002e-06 -9.08844e-06
-7.63039e-05 -9.08844e-06 0.000322988
0.00218426 0.00038415 8.25588e-07
0.00038415 8.23277e-06 4.01781e-07
8.25588e-07 4.01781e-07 -4.95244e-05
0.00219354 0.000534606 -8.39446e-07
0.000534606 0.000150409 2.50511e-07
-8.39446e-07 2.50511e-07 -3.03098e-05
0.00183928 0.000682151 6.77814e-06
0.000682151 0.000135351 -2.67621e-06
6.77814e-06 -2.67621e-06 -0.000146669
0.00240717 0.000574663 -4.61027e-07
0.000574663 0.000350518 -2.83714e-06
-4.61027e-07 -2.83714e-06 0.000128867
0.00238081 0.000413303 -9.63297e-07
0.000413303 6.64681e-06 -1.28133e-08
-9.63297e-07 -1.28133e-08 -5.76827e-07
0.00220611 0.000660215 -2.54595e-06
0.000660215 0.000122197 -1.19565e-07
-2.54595e-06 -1.19565e-07 -8.07146e-05
0.00199664 0.000409693 1.23011e-05
0.000409693 -0.000127985 5.79534e-07
1.23011e-05 5.79534e-07 -0.000125907
0.00219349 6.99086e-05 2.09937e-06
6.99086e-05 -1.54534e-05 3.84473e-07
2.09937e-06 3.84473e-07 1.86653e-05
0.0023162 8.46831e-05 6.56679e-08
8.46831e-05 -6.89963e-05 -1.90096e-08
6.56679e-08 -1.90096e-08 7.0099e-06
0.00232243 0.000124701 -8.21718e-06
0.000124701 -6.98478e-05 -1.62554e-06
-8.21718e-06 -1.62554e-06 1.53037e-05
0.00205002 -1.35998e-05 -2.74579e-06
-1.35998e-05 6.22468e-06 3.39541e-07
-2.74579e-06 3.39541e-07 1.34293e-05
0.00232811 -0.000101181 -5.17329e-07
-0.000101181 -0.000156544 -4.51582e-07
-5.17329e-07 -4.51582e-07 -4.08068e-05
0.00213537 -7.54581e-05 -6.57871e-07
-7.54581e-05 -3.18028e-05 2.29338e-07
-6.57871e-07 2.29338e-07 4.59441e-06
0.00199851 -0.000110253 -3.25635e-06
-0.000110253 -1.74939e-05 4.08904e-07
-3.25635e-06 4.08904e-07 -2.7161e-05
0.00214938 -0.000246739 -2.90032e-08
-0.000246739 -7.09525e-05 2.56157e-07
-2.90032e-08 2.56157e-07 -3.60683e-05
0.00206717 -0.000200119 1.02251e-06
-0.000200119 1.2063e-05 -2.8861e-07
1.02251e-06 -2.8861e-07 -4.27464e-06
0.00210093 -0.000204985 -1.40327e-06
-0.000204985 9.80678e-05 3.18213e-07
-1.40327e-06 3.18213e-07 3.02125e-05
0.00211569 -0.000304341 2.94971e-06
-0.000304341 5.45595e-05 -7.8369e-07
2.94971e-06 -7.8369e-07 4.87243e-06
0.00204646 -0.000285382 -7.13482e-08
-0.000285382 9.21359e-05 -3.30182e-07
-7.13482e-08 -3.30182e-07 -6.61206e-06
0.00187358 -0.000242515 -1.63033e-06
-0.000242515 0.000106296 -5.3819e-07
-1.63033e-06 -5.3819e-07 -3.86617e-05
0.00204015 -0.000357331 1.87944e-06
-0.000357331 0.000126186 2.60002e-07
1.87944e-06 2.60002e-07 -8.61864e-06
0.0019129 -0.000308358 -3.04891e-07
-0.000308358 0.000155706 -5.51987e-09
-3.04891e-07 -5.51987e-09 -1.5813e-05
0.00111008 -0.000180546 -1.19654e-05
-0.000180546 -4.92129e-05 3.72742e-06
-1.19654e-05 3.72742e-06 -0.000225302
0.00192024 -0.000360347 1.28657e-06
-0.000360347 0.000197541 2.11416e-07
1.28657e-06 2.11416e-07 -8.14011e-07
0.00114957 -0.000208222 -1.88963e-07
-0.000208222 -1.40356e-05 2.29728e-07
-1.88963e-07 2.29728e-07 -0.000200101
0.00273558 -0.000172088 -6.54985e-05
-0.000172088 0.00127462 1.16531e-05
-6.54985e-05 1.16531e-05 0.00118131
0.00116558 -0.000235745 1.43728e-05
-0.000235745 7.98967e-06 -6.07258e-06
1.43728e-05 -6.07258e-06 -0.000188559
0.00285626 -0.000201774 4.54989e-05
-0.000201774 0.00134999 -6.2128e-06
4.54989e-05 -6.2128e-06 0.00126035
0.00229251 -0.000119468 -0.000254713
-0.000119468 0.00108806 3.594e-05
-0.000254713 3.594e-05 0.00106922
0.00302754 -0.000232655 0.000157496
-0.000232655 0.00146109 -2.77815e-05
0.000157496 -2.77815e-05 0.00137333
0.00191022 -7.74586e-05 -0.000105611
-7.74586e-05 0.00085849 1.55809e-05
-0.000105611 1.55809e-05 0.000823804
0.00672258 1.62273e-06 9.44116e-05
1.62273e-06 0.00387344 -4.73843e-06
9.44116e-05 -4.73843e-06 0.00385418
0.00218273 0.000383581 -7.87514e-07
0.000383581 0.000118432 -1.51231e-08
-7.87514e-07 -1.51231e-08 1.44957e-05
0.00211419 0.000417914 -1.82664e-06
0.000417914 0.000172286 -7.19294e-07
-1.82664e-06 -7.19294e-07 8.29083e-06
0.00229634 0.00044763 -3.61316e-06
0.00044763 0.0002181 -1.51071e-07
-3.61316e-06 -1.51071e-07 7.34538e-05
0.00191678 0.000422034 -2.79079e-06
0.000422034 0.000207077 3.19635e-07
-2.79079e-06 3.19635e-07 -2.26567e-05
0.00192557 0.000463661 -9.92818e-07
0.000463661 9.81708e-05 -2.34901e-06
-9.92818e-07 -2.34901e-06 -9.91055e-05
0.00214761 0.000432059 -3.73429e-06
0.000432059 0.000167491 -3.91432e-06
-3.73429e-06 -3.91432e-06 1.26764e-05
0.00115075 0.000299685 -2.24048e-05
0.000299685 1.59054e-05 -6.76541e-06
-2.24048e-05 -6.76541e-06 -0.000202801
0.00180982 0.000486547 1.15265e-06
0.000486547 0.000207706 3.44272e-07
1.15265e-06 3.44272e-07 -6.2632e-05
0.00228772 0.000607337 1.64684e-06
0.000607337 0.000355336 -4.47942e-06
1.64684e-06 -4.47942e-06 9.07809e-05
0.00166934 0.000521958 9.81857e-06
0.000521958 0.000221107 1.60173e-07
9.81857e-06 1.60173e-07 -8.88474e-05
0.00100221 0.000300346 -1.73201e-06
0.000300346 -3.70576e-06 7.36109e-08
-1.73201e-06 7.36109e-08 -0.000229245
0.000278088 0.000245717 -2.5728e-05
0.000245717 -0.000226488 -1.81987e-05
-2.5728e-05 -1.81987e-05 -0.000366634
0.00084476 0.000263555 1.49394e-05
0.000263555 -9.40135e-06 6.1439e-06
1.49394e-05 6.1439e-06 -0.000222627
0.000325123 0.000245414 1.87158e-06
0.000245414 -0.000176564 1.05985e-06
1.87158e-06 1.05985e-06 -0.000318005
0.0073395 4.52197e-05 -0.000295099
4.52197e-05 0.00429906 -3.56657e-05
-0.000295099 -3.56657e-05 0.00429232
0.000364514 0.000194587 2.45982e-05
0.000194587 -0.000151044 1.99012e-05
2.45982e-05 1.99012e-05 -0.000271442
0.00680296 -8.85e-05 4.27793e-06
-8.85e-05 0.00397766 -7.59334e-07
4.27793e-06 -7.59334e-07 0.00396976
0.00555259 -0.000190001 0.000160548
-0.000190001 0.00322912 1.09079e-05
0.000160548 1.09079e-05 0.00320584
0.00217138 0.000206776 -9.15125e-08
0.000206776 -1.42312e-05 -2.51862e-07
-9.15125e-08 -2.51862e-07 5.36866e-06
0.00236488 0.0002627 -1.61038e-07
0.0002627 -6.9116e-05 5.20442e-07
-1.61038e-07 5.20442e-07 6.18312e-06
0.00218265 0.000231518 3.60188e-06
0.000231518 -0.000200949 9.3672e-08
3.60188e-06 9.3672e-08 -7.20937e-05
0.00221536 0.000380364 -1.52556e-07
0.000380364 3.21303e-05 1.25038e-07
-1.52556e-07 1.25038e-07 -2.27973e-05
0.00216698 0.000528284 6.73489e-07
0.000528284 0.000160464 -7.99487e-07
6.73489e-07 -7.99487e-07 -1.75723e-05
0.00235565 0.000398837 1.8192e-06
0.000398837 2.16302e-06 -1.33808e-07
1.8192e-06 -1.33808e-07 -4.36997e-06
0.00207012 6.34754e-05 -6.84568e-07
6.34754e-05 -6.59651e-06 2.0063e-07
-6.84568e-07 2.0063e-07 1.16644e-06
0.00217491 6.48712e-05 3.15554e-07
6.48712e-05 -2.52316e-05 -1.63588e-07
3.15554e-07 -1.63588e-07 8.81747e-06
0.0022357 7.88678e-05 -1.20588e-06
7.88678e-05 -0.000107454 -2.42275e-07
-1.20588e-06 -2.42275e-07 -3.22586e-05
0.00204023 -1.18525e-05 -8.82747e-07
-1.18525e-05 -1.79905e-06 3.75166e-08
-8.82747e-07 3.75166e-08 4.48393e-06
0.00202517 -3.73855e-05 -6.0938e-06
-3.73855e-05 3.9484e-05 5.82389e-07
-6.0938e-06 5.82389e-07 2.59411e-05
0.00214818 -7.83876e-05 -3.69194e-07
-7.83876e-05 -2.88379e-05 3.089e-07
-3.69194e-07 3.089e-07 7.88101e-06
0.00202028 -0.000109965 -1.50662e-06
-0.000109965 2.24478e-06 2.39244e-07
-1.50662e-06 2.39244e-07 -1.01727e-05
0.00201275 -0.000127563 -5.83241e-06
-0.000127563 3.26038e-05 8.14549e-07
-5.83241e-06 8.14549e-07 -1.39159e-05
0.00206336 -0.000198819 4.03329e-06
-0.000198819 9.05215e-06 -8.2157e-07
4.03329e-06 -8.2157e-07 -6.7997e-06
0.00205856 -0.000203509 2.86283e-06
-0.000203509 7.40827e-05 -5.85312e-07
2.86283e-06 -5.85312e-07 6.31051e-06
0.00189831 -0.000176622 1.03303e-06
-0.000176622 0.00010415 -1.18224e-06
1.03303e-06 -1.18224e-06 -1.82502e-05
0.00199275 -0.000281577 2.76448e-06
-0.000281577 5.85335e-05 -6.73551e-07
2.76448e-06 -6.73551e-07 -3.99032e-05
0.00191464 -0.00024588 -1.93519e-07
-0.00024588 0.00012804 1.8927e-09
-1.93519e-07 1.8927e-09 -1.71464e-05
0.00114324 -0.000146281 -1.23689e-05
-0.000146281 -4.01779e-05 2.57196e-06
-1.23689e-05 2.57196e-06 -0.000202681
0.00194169 -0.000309248 5.93835e-07
-0.000309248 0.000173404 4.22058e-07
5.93835e-07 4.22058e-07 2.23881e-06
0.00116354 -0.000179822 -2.74427e-07
-0.000179822 -1.95823e-05 2.88871e-07
-2.74427e-07 2.88871e-07 -0.000194192
0.00266907 -0.000172432 -6.7772e-05
-0.000172432 0.00123569 9.9253e-06
-6.7772e-05 9.9253e-06 0.00114521
0.00118934 -0.000208508 1.2258e-05
-0.000208508 4.51305e-06 -4.68077e-06
1.2258e-05 -4.68077e-06 -0.000180349
0.00280577 -0.000172685 4.33977e-05
-0.000172685 0.0013137 -4.77262e-06
4.33977e-05 -4.77262e-06 0.00122967
0.00228717 -9.91746e-05 -0.000252302
-9.91746e-05 0.00107798 3.00974e-05
-0.000252302 3.00974e-05 0.00106055
0.00294665 -0.000194314 0.000153722
-0.000194314 0.00139889 -2.36875e-05
0.000153722 -2.36875e-05 0.00132057
0.00190169 -7.95976e-05 -9.5812e-05
-7.95976e-05 0.000847763 1.24346e-05
-9.5812e-05 1.24346e-05 0.000815544
0.00160785 -7.4921e-05 6.22876e-05
-7.4921e-05 0.000681064 -9.92546e-06
6.22876e-05 -9.92546e-06 0.000628943
0.00209305 0.000245626 -1.83647e-06
0.000245626 1.99378e-05 -5.31275e-07
-1.83647e-06 -5.31275e-07 -1.82484e-05
0.00213023 0.000347462 -2.29302e-06
0.000347462 0.000152284 4.07384e-07
-2.29302e-06 4.07384e-07 2.61308e-05
0.00217937 0.000386166 -4.06107e-07
0.000386166 9.51431e-05 -5.47168e-08
-4.06107e-07 -5.47168e-08 -3.52634e-07
0.00200261 0.000383822 1.34864e-07
0.000383822 0.000204453 5.82801e-07
1.34864e-07 5.82801e-07 1.0089e-05
0.00211212 0.000414535 -1.38858e-06
0.000414535 0.000180844 -5.9845e-07
-1.38858e-06 -5.9845e-07 1.62104e-05
0.00226871 0.000449336 1.84824e-06
0.000449336 0.000191051 1.13999e-07
1.84824e-06 1.13999e-07 4.47264e-05
0.00122334 0.000263447 -1.873e-05
0.000263447 2.05396e-05 -6.21935e-06
-1.873e-05 -6.21935e-06 -0.00017935
0.00187522 0.000424577 2.0741e-06
0.000424577 0.00017309 -1.27588e-07
2.0741e-06 -1.27588e-07 -5.24208e-05
0.00192305 0.000470999 -1.91615e-06
0.000470999 7.7554e-05 -4.7419e-06
-1.91615e-06 -4.7419e-06 -0.000116585
0.000304832 0.00019013 -2.2481e-05
0.00019013 -0.00023404 -1.53035e-05
-2.2481e-05 -1.53035e-05 -0.000361738
0.00111798 0.000295597 -6.96604e-07
0.000295597 -3.02933e-06 6.86488e-09
-6.96604e-07 6.86488e-09 -0.000221244
0.0017428 0.000482103 8.0665e-06
0.000482103 0.000164468 -1.06729e-06
8.0665e-06 -1.06729e-06 -0.000106082
0.00101343 0.000296922 2.10616e-05
0.000296922 1.00346e-05 8.03677e-06
2.10616e-05 8.03677e-06 -0.000213591
0.000375158 0.000237627 7.54194e-07
0.000237627 -0.000163583 1.17386e-06
7.54194e-07 1.17386e-06 -0.000305902
0.00728211 0.000145296 -0.000302655
0.000145296 0.00424645 -3.97843e-05
-0.000302655 -3.97843e-05 0.00424218
0.000382234 0.000235936 2.25725e-05
0.000235936 -0.000139364 1.89492e-05
2.25725e-05 1.89492e-05 -0.000279677
0.0071905 1.6516e-05 7.63607e-06
1.6516e-05 0.00419357 2.76499e-07
7.63607e-06 2.76499e-07 0.00419479
0.00655839 -0.000119326 0.000223935
-0.000119326 0.00382182 1.35134e-05
0.000223935 1.35134e-05 0.00381414
0.00209237 0.000127839 -3.17813e-06
0.000127839 2.5054e-05 -8.24629e-07
-3.17813e-06 -8.24629e-07 2.57613e-05
0.00217224 0.000211271 7.53755e-07
0.000211271 -1.58917e-05 3.45896e-07
7.53755e-07 3.45896e-07 1.20267e-06
0.00232281 0.000267096 -4.03126e-07
0.000267096 -9.80848e-05 -7.42642e-07
-4.03126e-07 -7.42642e-07 -2.13483e-05
0.00224385 0.000375436 1.84808e-06
0.000375436 5.41212e-05 -1.78629e-07
1.84808e-06 -1.78629e-07 2.37993e-06
0.001994 1.90566e-05 -6.00467e-06
1.90566e-05 4.12375e-05 3.24559e-07
-6.00467e-06 3.24559e-07 1.50719e-05
0.00205669 5.40473e-05 -2.02226e-08
5.40473e-05 -1.3993e-05 8.29868e-09
-2.02226e-08 8.29868e-09 -6.22723e-06
0.00215724 5.97598e-05 -1.28102e-06
5.97598e-05 -3.36833e-05 -1.79148e-07
-1.28102e-06 -1.79148e-07 -2.83348e-07
0.00202574 -9.10584e-06 -1.20405e-08
-9.10584e-06 -1.24626e-05 -4.70857e-07
-1.20405e-08 -4.70857e-07 -7.34021e-06
0.00202367 -3.16505e-05 -6.94431e-07
-3.16505e-05 3.48327e-05 -1.50956e-07
-6.94431e-07 -1.50956e-07 2.25088e-05
0.00189273 -5.50568e-05 -4.69229e-06
-5.50568e-05 -2.71899e-05 4.21126e-07
-4.69229e-06 4.21126e-07 -7.80929e-05
0.00203972 -0.000109779 3.56445e-06
-0.000109779 2.04177e-05 -2.04877e-07
3.56445e-06 -2.04877e-07 4.98463e-06
0.00201492 -0.000128551 -2.03167e-06
-0.000128551 4.2525e-05 4.01264e-07
-2.03167e-06 4.01264e-07 -1.09452e-05
0.00195299 -0.000116968 -1.51547e-06
-0.000116968 0.000123208 -3.27394e-07
-1.51547e-06 -3.27394e-07 2.42408e-05
0.00202044 -0.000200941 6.99031e-06
-0.000200941 5.25623e-05 -1.40457e-06
6.99031e-06 -1.40457e-06 -1.48908e-05
0.00192188 -0.000175901 1.80554e-06
-0.000175901 0.000113091 -5.73656e-07
1.80554e-06 -5.73656e-07 -8.87464e-06
0.00114245 -0.000108702 -1.22615e-05
-0.000108702 -4.0265e-05 1.65172e-06
-1.22615e-05 1.65172e-06 -0.00018998
0.00198293 -0.000247824 1.39709e-06
-0.000247824 0.000169071 4.43768e-07
1.39709e-06 4.43768e-07 2.4174e-05
0.00114239 -0.000145034 -1.13913e-07
-0.000145034 -3.85577e-05 2.01412e-07
-1.13913e-07 2.01412e-07 -0.00020031
0.00038271 -8.99656e-05 -1.95614e-05
-8.99656e-05 -0.000216518 5.76098e-06
-1.95614e-05 5.76098e-06 -0.000314837
0.00118988 -0.000178112 1.17354e-05
-0.000178112 -5.87861e-06 -3.25293e-06
1.17354e-05 -3.25293e-06 -0.000179027
0.00157564 -0.000112623 6.43263e-05
-0.000112623 0.000533906 -4.96788e-06
6.43263e-05 -4.96788e-06 0.00044732
0.00669598 -0.000168295 -0.000336375
-0.000168295 0.00386283 2.52935e-05
-0.000336375 2.52935e-05 0.00388167
0.00289905 -0.000156132 0.000150926
-0.000156132 0.00136167 -1.86587e-05
0.000150926 -1.86587e-05 0.00128939
0.00190662 -7.76006e-05 -8.67679e-05
-7.76006e-05 0.000849456 8.11349e-06
-8.67679e-05 8.11349e-06 0.000817184
0.00152951 -9.92819e-05 7.43324e-05
-9.92819e-05 0.00063571 -1.17499e-05
7.43324e-05 -1.17499e-05 0.000582532
0.00202711 0.000170673 -3.91423e-06
0.000170673 2.34507e-05 -1.21264e-06
-3.91423e-06 -1.21264e-06 -1.02806e-05
0.00212118 0.000267454 -1.65393e-06
0.000267454 0.000125933 5.99056e-07
-1.65393e-06 5.99056e-07 3.76168e-05
0.00208812 0.000239022 -3.17251e-08
0.000239022 2.68357e-05 7.45627e-08
-3.17251e-08 7.45627e-08 -1.6724e-05
0.00205962 0.00031355 7.30189e-07
0.00031355 0.000220027 1.37255e-06
7.30189e-07 1.37255e-06 6.07934e-05
0.00204105 0.000342003 9.42437e-07
0.000342003 9.70437e-05 1.66038e-07
9.42437e-07 1.66038e-07 -2.87216e-05
0.00217728 0.000389144 7.59626e-07
0.000389144 7.26187e-05 8.61868e-08
7.59626e-07 8.61868e-08 -1.467e-05
0.00123079 0.000231201 -1.46659e-05
0.000231201 6.78281e-06 -4.10841e-06
-1.46659e-05 -4.10841e-06 -0.000174436
0.00201159 0.000381272 2.19035e-06
0.000381272 0.000211013 5.86915e-07
2.19035e-06 5.86915e-07 1.76817e-05
0.00210422 0.000410527 2.00808e-07
0.000410527 0.000186247 -1.49803e-06
2.00808e-07 -1.49803e-06 2.10882e-05
0.000312187 0.000135616 -1.94916e-05
0.000135616 -0.000251135 -1.18641e-05
-1.94916e-05 -1.18641e-05 -0.000364185
0.00114977 0.000260052 4.68998e-07
0.000260052 -2.40182e-05 4.72073e-07
4.68998e-07 4.72073e-07 -0.00022201
0.00181798 0.000425234 6.77906e-06
0.000425234 0.000129695 -1.33562e-06
6.77906e-06 -1.33562e-06 -9.11859e-05
0.00707217 0.000219642 -0.000309734
0.000219642 0.00410379 -3.94292e-05
-0.000309734 -3.94292e-05 0.00410406
0.000304662 0.000183191 3.41133e-07
0.000183191 -0.000234303 7.66091e-07
3.41133e-07 7.66091e-07 -0.000362563
0.00109395 0.00029078 2.32551e-05
0.00029078 -1.24766e-05 7.43888e-06
2.32551e-05 7.43888e-06 -0.000229795
0.000275123 0.000215902 2.12209e-05
0.000215902 -0.0002217 1.76926e-05
2.12209e-05 1.76926e-05 -0.000364276
0.00724179 0.000137727 9.9957e-06
0.000137727 0.00421545 1.35268e-06
9.9957e-06 1.35268e-06 0.00421797
0.00706359 -1.9858e-05 0.000276191
-1.9858e-05 0.00410461 1.93115e-05
0.000276191 1.93115e-05 0.00411045
0.00195653 7.11227e-05 -7.8203e-06
7.11227e-05 1.80073e-05 -2.98325e-07
-7.8203e-06 -2.98325e-07 -1.23675e-05
0.00208119 0.000124282 9.77413e-08
0.000124282 1.86678e-05 -2.7266e-08
9.77413e-08 -2.7266e-08 1.832e-05
0.00217423 0.000215833 5.09121e-07
0.000215833 -1.7125e-05 2.11924e-07
5.09121e-07 2.11924e-07 -2.1862e-06
0.0019389 6.1111e-06 -5.70595e-06
6.1111e-06 2.21425e-05 -4.02967e-08
-5.70595e-06 -4.02967e-08 -3.48094e-05
0.00197658 2.39909e-05 3.70592e-07
2.39909e-05 2.68752e-05 3.6099e-08
3.70592e-07 3.6099e-08 3.44358e-06
0.00204661 4.35855e-05 3.24964e-08
4.35855e-05 -1.95271e-05 -1.92547e-07
3.24964e-08 -1.92547e-07 -1.16945e-05
0.00202497 -2.66042e-05 3.74797e-06
-2.66042e-05 3.14743e-05 -4.04454e-07
3.74797e-06 -4.04454e-07 2.08281e-05
0.00195125 -5.36861e-05 -1.33088e-06
-5.36861e-05 1.36376e-05 2.20202e-07
-1.33088e-06 2.20202e-07 -3.59756e-05
0.00186594 -5.56267e-05 1.11979e-07
-5.56267e-05 8.01928e-05 -3.84228e-07
1.11979e-07 -3.84228e-07 -1.75762e-05
0.00203715 -0.000129713 1.60118e-06
-0.000129713 6.63797e-05 -1.24997e-07
1.60118e-06 -1.24997e-07 6.33277e-06
0.00191726 -0.00011812 4.8631e-07
-0.00011812 0.000104606 1.32479e-08
4.8631e-07 1.32479e-08 -1.94092e-06
0.00116604 -6.58683e-05 -1.2218e-05
-6.58683e-05 -2.37288e-05 7.06301e-07
-1.2218e-05 7.06301e-07 -0.00015582
0.00191998 -0.000176669 3.09626e-06
-0.000176669 0.000105224 -1.31337e-07
3.09626e-06 -1.31337e-07 -1.67949e-05
0.00111917 -0.000103585 1.10436e-08
-0.000103585 -5.26524e-05 4.10075e-08
1.10436e-08 4.10075e-08 -0.0002013
0.000390064 -2.40151e-05 -1.82803e-05
-2.40151e-05 -0.000213769 3.29112e-06
-1.82803e-05 3.29112e-06 -0.000305161
0.00117458 -0.00014357 1.19213e-05
-0.00014357 -1.80993e-05 -2.19848e-06
1.19213e-05 -2.19848e-06 -0.00017881
0.000399913 -7.54553e-05 -2.323e-07
-7.54553e-05 -0.000204597 4.71738e-07
-2.323e-07 4.71738e-07 -0.000303369
0.0065738 -5.84568e-05 -0.000324572
-5.84568e-05 0.00378112 1.56682e-05
-0.000324572 1.56682e-05 0.00380514
0.000461947 -7.83035e-05 1.44756e-05
-7.83035e-05 -0.000170476 -7.83724e-06
1.44756e-05 -7.83724e-06 -0.000274826
0.00419616 -0.000109629 0.000143702
-0.000109629 0.00229473 -7.63331e-06
0.000143702 -7.63331e-06 0.00227849
0.00150206 -9.16888e-05 8.05355e-05
-9.16888e-05 0.000617382 -1.14132e-05
8.05355e-05 -1.14132e-05 0.000565004
0.00203522 0.000130971 -8.11239e-06
0.000130971 6.87706e-05 -1.05196e-06
-8.11239e-06 -1.05196e-06 2.9739e-05
0.002118 0.000198557 -2.64372e-06
0.000198557 0.000133581 1.29966e-07
-2.64372e-06 1.29966e-07 5.85935e-05
0.00200803 0.00016475 -6.05342e-07
0.00016475 1.39365e-05 -1.49027e-07
-6.05342e-07 -1.49027e-07 -1.92811e-05
0.00193949 0.000241371 -1.35052e-07
0.000241371 0.000132448 1.0758e-06
-1.35052e-07 1.0758e-06 -1.0768e-05
0.00208531 0.000265405 1.23696e-07
0.000265405 9.89726e-05 9.35178e-08
1.23696e-07 9.35178e-08 8.38621e-06
0.00207786 0.000232219 3.07315e-06
0.000232219 3.02933e-05 7.84412e-07
3.07315e-06 7.84412e-07 -1.85117e-05
0.0011955 0.000188858 -1.28436e-05
0.000188858 -1.97861e-05 -2.81557e-06
-1.28436e-05 -2.81557e-06 -0.000186038
0.00198069 0.000308439 2.14017e-06
0.000308439 0.000176799 7.24066e-07
2.14017e-06 7.24066e-07 1.14968e-05
0.00194423 0.000336113 1.20969e-06
0.000336113 3.7133e-05 -5.02124e-07
1.20969e-06 -5.02124e-07 -8.81095e-05
0.000343227 9.62744e-05 -1.81492e-05
9.62744e-05 -0.000244985 -8.64468e-06
-1.81492e-05 -8.64468e-06 -0.000348766
0.00117969 0.000226933 -5.51586e-07
0.000226933 -2.29624e-05 3.88748e-07
-5.51586e-07 3.88748e-07 -0.000203385
0.00202387 0.000379333 4.52232e-06
0.000379333 0.000219944 6.57213e-07
4.52232e-06 6.57213e-07 2.74727e-05
0.00689945 0.000272879 -0.00032573
0.000272879 0.0039981 -3.79582e-05
-0.00032573 -3.79582e-05 0.00399978
0.000331394 0.000134854 -1.01154e-07
0.000134854 -0.000242466 3.95409e-07
-1.01154e-07 3.95409e-07 -0.000356081
0.00107767 0.000258026 1.81783e-05
0.000258026 -6.9498e-05 5.96182e-06
1.81783e-05 5.96182e-06 -0.00026595
0.00710094 0.000237742 1.39133e-05
0.000237742 0.00412935 3.9506e-06
1.39133e-05 3.9506e-06 0.00412735
0.00030306 0.000174313 1.99627e-05
0.000174313 -0.000237217 1.50712e-05
1.99627e-05 1.50712e-05 -0.000365855
0.00715422 0.000101609 0.000304579
0.000101609 0.00414647 2.78429e-05
0.000304579 2.78429e-05 0.00415735
0.00189422 5.39461e-05 -6.07181e-06
5.39461e-05 -9.18641e-06 -1.53205e-07
-6.07181e-06 -1.53205e-07 -6.83657e-05
0.00199044 7.69544e-05 -8.68325e-07
7.69544e-05 4.66577e-05 -2.02798e-07
-8.68325e-07 -2.02798e-07 1.5663e-05
0.00206838 0.000121011 2.71164e-06
0.000121011 1.20708e-05 4.81418e-07
2.71164e-06 4.81418e-07 1.05333e-05
0.00185822 -6.79754e-06 7.96679e-07
-6.79754e-06 8.11704e-05 -4.01533e-07
7.96679e-07 -4.01533e-07 -1.50371e-05
0.0019563 7.24516e-06 -1.77033e-06
7.24516e-06 3.29542e-05 1.66212e-07
-1.77033e-06 1.66212e-07 -2.12244e-05
0.00195755 3.01258e-05 6.66385e-06
3.01258e-05 1.15388e-05 -1.03924e-07
6.66385e-06 -1.03924e-07 -9.24455e-06
0.00200756 -5.23337e-05 1.77752e-06
-5.23337e-05 5.33208e-05 5.38302e-08
1.77752e-06 5.38302e-08 4.71004e-06
0.00190633 -5.53676e-05 2.15767e-06
-5.53676e-05 0.00010719 -6.49283e-08
2.15767e-06 -6.49283e-08 1.05014e-05
0.00113571 -2.84325e-05 -1.18221e-05
-2.84325e-05 -3.41275e-05 2.39712e-08
-1.18221e-05 2.39712e-08 -0.000159074
0.00186566 -0.000119211 5.30147e-07
-0.000119211 7.50813e-05 3.88432e-07
5.30147e-07 3.88432e-07 -3.92305e-05
0.00112271 -6.53062e-05 3.46415e-07
-6.53062e-05 -4.95265e-05 -1.14165e-07
3.46415e-07 -1.14165e-07 -0.000184957
0.000404046 -9.0202e-06 -1.8584e-05
-9.0202e-06 -0.000205237 2.01644e-06
-1.8584e-05 2.01644e-06 -0.000292716
0.00111506 -0.000100448 1.13621e-05
-0.000100448 -5.25853e-05 -1.56021e-06
1.13621e-05 -1.56021e-06 -0.0002003
0.000382667 -3.66491e-05 7.97321e-07
-3.66491e-05 -0.000218562 -2.97247e-07
7.97321e-07 -2.97247e-07 -0.000309266
0.00637607 -0.000153055 -0.000325687
-0.000153055 0.00367469 1.69818e-05
-0.000325687 1.69818e-05 0.00369249
0.000369319 -5.86519e-05 1.79407e-05
-5.86519e-05 -0.000223563 -4.34963e-06
1.79407e-05 -4.34963e-06 -0.00032166
0.00652218 -9.48464e-05 7.85629e-06
-9.48464e-05 0.00375233 2.21929e-09
7.85629e-06 2.21929e-09 0.00377555
0.00181758 -3.669e-05 0.000252313
-3.669e-05 0.000783906 -1.69432e-05
0.000252313 -1.69432e-05 0.000774092
0.00200697 0.000131024 -5.64746e-06
0.000131024 6.09973e-05 -6.55355e-07
-5.64746e-06 -6.55355e-07 -9.03886e-06
0.00199591 0.000132279 -1.85835e-06
0.000132279 3.54026e-05 -9.38096e-08
-1.85835e-06 -9.38096e-08 5.98921e-07
0.00189755 0.000173505 2.37176e-07
0.000173505 9.80487e-05 1.08365e-06
2.37176e-07 1.08365e-06 -2.55167e-05
0.00207848 0.000197513 8.52149e-07
0.000197513 0.000101849 -1.03674e-07
8.52149e-07 -1.03674e-07 2.68308e-05
0.00199094 0.000158728 4.839e-06
0.000158728 4.90187e-06 8.18654e-07
4.839e-06 8.18654e-07 -2.76308e-05
0.00117585 0.000142598 -1.20644e-05
0.000142598 -2.00176e-05 -2.09684e-06
-1.20644e-05 -2.09684e-06 -0.0001778
0.0019307 0.000239113 1.72628e-07
0.000239113 0.000131974 9.80387e-08
1.72628e-07 9.80387e-08 -1.10437e-05
0.00206134 0.000263726 2.84778e-06
0.000263726 7.98399e-05 -3.58193e-07
2.84778e-06 -3.58193e-07 -1.31407e-05
0.000381597 7.12042e-05 -1.7925e-05
7.12042e-05 -0.000226018 -6.02949e-06
-1.7925e-05 -6.02949e-06 -0.000324839
0.00118095 0.000188474 -3.19311e-07
0.000188474 -2.6361e-05 4.3051e-07
-3.19311e-07 4.3051e-07 -0.000195721
0.0019042 0.000303213 1.85156e-06
0.000303213 0.000135561 3.56001e-07
1.85156e-06 3.56001e-07 -3.5742e-05
0.00676541 0.000284044 -0.000342573
0.000284044 0.0039244 -3.52236e-05
-0.000342573 -3.52236e-05 0.00392584
0.000362992 9.91351e-05 2.6121e-07
9.91351e-05 -0.000235057 2.06636e-07
2.6121e-07 2.06636e-07 -0.000339535
0.00111705 0.000221774 1.12423e-05
0.000221774 -6.07047e-05 4.47218e-06
1.12423e-05 4.47218e-06 -0.00024013
0.00692425 0.000297302 1.07829e-05
0.000297302 0.0040261 4.95865e-06
1.07829e-05 4.95865e-06 0.00402199
0.000363992 0.000133814 1.87589e-05
0.000133814 -0.00022555 1.21977e-05
1.87589e-05 1.21977e-05 -0.000339487
0.00712026 0.000241873 0.000330214
0.000241873 0.00413355 3.82098e-05
0.000330214 3.82098e-05 0.00413791
0.00183012 5.00016e-05 2.36554e-06
5.00016e-05 6.51034e-05 -1.62207e-07
2.36554e-06 -1.62207e-07 -3.48595e-05
0.00196086 5.50549e-05 -3.3658e-06
5.50549e-05 4.119e-05 -1.17789e-07
-3.3658e-06 -1.17789e-07 -1.88975e-05
0.00202711 8.22422e-05 7.23908e-06
8.22422e-05 7.7057e-05 3.97206e-07
7.23908e-06 3.97206e-07 4.54361e-05
0.00110931 -1.096e-05 -1.22361e-05
-1.096e-05 -4.40687e-05 -2.26761e-07
-1.22361e-05 -2.26761e-07 -0.000167236
0.00189505 -2.4373e-06 2.61648e-06
-2.4373e-06 0.00010688 -6.56704e-08
2.61648e-06 -6.56704e-08 1.12443e-05
0.0019756 7.87614e-06 1.62707e-06
7.87614e-06 4.50996e-05 2.83205e-07
1.62707e-06 2.83205e-07 -6.17276e-06
0.001951 -5.5587e-05 3.87869e-06
-5.5587e-05 0.000137125 1.95686e-07
3.87869e-06 1.95686e-07 4.15217e-05
0.00112067 -2.97902e-05 3.15658e-07
-2.97902e-05 -4.63604e-05 -6.37676e-08
3.15658e-07 -6.37676e-08 -0.000171594
0.00040495 -3.24773e-05 -1.90594e-05
-3.24773e-05 -0.000202828 8.05303e-07
-1.90594e-05 8.05303e-07 -0.000286584
0.00105503 -6.36624e-05 1.1877e-05
-6.36624e-05 -9.03141e-05 -1.1722e-06
1.1877e-05 -1.1722e-06 -0.000229123
0.000379331 2.54439e-06 4.42497e-07
2.54439e-06 -0.000221587 8.41035e-08
4.42497e-07 8.41035e-08 -0.000307868
0.00627855 -0.000123313 -0.000325214
-0.000123313 0.00361272 1.26509e-05
-0.000325214 1.26509e-05 0.00363355
0.000388654 -4.4228e-05 1.8409e-05
-4.4228e-05 -0.000212155 -3.0152e-06
1.8409e-05 -3.0152e-06 -0.000304019
0.0063597 -4.78688e-05 -3.23795e-06
-4.78688e-05 0.00365199 2.87575e-06
-3.23795e-06 2.87575e-06 0.00367746
0.00646069 -0.000108425 0.000323961
-0.000108425 0.00371558 -1.5108e-05
0.000323961 -1.5108e-05 0.0037388
0.00185811 0.000108718 3.37544e-07
0.000108718 7.67942e-05 4.3435e-07
3.37544e-07 4.3435e-07 -3.37281e-05
0.00200919 0.000129346 -3.47032e-06
0.000129346 5.49502e-05 -5.4196e-07
-3.47032e-06 -5.4196e-07 -9.29889e-06
0.00195425 0.000134061 6.22614e-06
0.000134061 8.46272e-07 9.23685e-07
6.22614e-06 9.23685e-07 -2.98476e-05
0.00117334 9.49834e-05 -1.21581e-05
9.49834e-05 -1.65371e-05 -1.24013e-06
-1.21581e-05 -1.24013e-06 -0.000161268
0.00191702 0.00017239 2.91069e-07
0.00017239 0.000114488 -7.58931e-08
2.91069e-07 -7.58931e-08 -8.97381e-06
0.00204304 0.000196469 2.94664e-06
0.000196469 7.30694e-05 -6.43808e-07
2.94664e-06 -6.43808e-07 -1.97847e-06
0.000393304 4.8121e-05 -1.76253e-05
4.8121e-05 -0.000216521 -4.2339e-06
-1.76253e-05 -4.2339e-06 -0.00031119
0.00115352 0.000144241 2.97206e-07
0.000144241 -3.57306e-05 2.55049e-07
2.97206e-07 2.55049e-07 -0.000194674
0.0019229 0.000236912 8.36362e-07
0.000236912 0.00013175 -8.68814e-07
8.36362e-07 -8.68814e-07 -1.10973e-05
0.00660552 0.000237934 -0.000350654
0.000237934 0.00382363 -2.87636e-05
-0.000350654 -2.87636e-05 0.00383279
0.000380937 7.63951e-05 7.64639e-07
7.63951e-05 -0.000225907 2.52948e-07
7.64639e-07 2.52948e-07 -0.000326118
0.00112495 0.000186618 1.05886e-05
0.000186618 -5.91395e-05 3.5112e-06
1.05886e-05 3.5112e-06 -0.000231636
0.00682014 0.000300699 5.80213e-06
0.000300699 0.00396391 3.46801e-06
5.80213e-06 3.46801e-06 0.00396304
0.000393869 0.000104474 1.77039e-05
0.000104474 -0.000216848 9.41599e-06
1.77039e-05 9.41599e-06 -0.000322637
0.00698492 0.000331702 0.00034152
0.000331702 0.00407241 4.44988e-05
0.00034152 4.44988e-05 0.00406381
0.00107629 2.67209e-05 -1.22516e-05
2.67209e-05 -6.13824e-05 -6.0371e-07
-1.22516e-05 -6.0371e-07 -0.000192336
0.00187156 4.77173e-05 2.87446e-06
4.77173e-05 9.06946e-05 1.94212e-08
2.87446e-06 1.94212e-08 -5.615e-06
0.00202351 5.64386e-05 3.36906e-07
5.64386e-05 8.83906e-05 3.59019e-07
3.36906e-07 3.59019e-07 2.73976e-05
0.000443855 3.18572e-05 -1.96053e-05
3.18572e-05 -0.00018636 -9.29058e-07
-1.96053e-05 -9.29058e-07 -0.000261637
0.00108458 -5.47639e-06 1.32285e-07
-5.47639e-06 -6.21622e-05 3.13443e-08
1.32285e-07 3.13443e-08 -0.00018535
0.00192691 3.2691e-06 4.27029e-06
3.2691e-06 0.00012919 8.85735e-08
4.27029e-06 8.85735e-08 3.40471e-05
0.00110287 -3.07092e-05 1.24363e-05
-3.07092e-05 -6.0662e-05 -4.46501e-07
1.24363e-05 -4.46501e-07 -0.000186161
0.000403154 -5.92027e-06 4.56494e-07
-5.92027e-06 -0.000204164 3.75035e-07
4.56494e-07 3.75035e-07 -0.000287876
0.00617956 1.27866e-05 -0.000327762
1.27866e-05 0.0035432 1.75077e-06
-0.000327762 1.75077e-06 0.00357149
0.000361195 1.41501e-05 1.79988e-05
1.41501e-05 -0.000234658 -9.54749e-07
1.79988e-05 -9.54749e-07 -0.00031949
0.00624534 -0.000121022 -7.85513e-06
-0.000121022 0.00359362 2.0393e-06
-7.85513e-06 2.0393e-06 0.00361407
0.00629638 -2.99811e-05 0.000311286
-2.99811e-05 0.00361259 -8.05602e-06
0.000311286 -8.05602e-06 0.00363828
0.00113079 5.62113e-05 -1.21462e-05
5.62113e-05 -3.41412e-05 -1.07114e-06
-1.21462e-05 -1.07114e-06 -0.000169602
0.00189515 0.000105682 -3.05496e-07
0.000105682 9.98205e-05 -4.4246e-07
-3.05496e-07 -4.4246e-07 -6.18082e-06
0.00198674 0.000126812 -9.15373e-07
0.000126812 3.23664e-05 -3.97259e-07
-9.15373e-07 -3.97259e-07 -2.63334e-05
0.00270406 6.52034e-05 -0.000150742
6.52034e-05 0.00123696 -5.43119e-06
-0.000150742 -5.43119e-06 0.00118342
0.00111994 9.63158e-05 2.13232e-07
9.63158e-05 -5.00495e-05 1.96971e-07
2.13232e-07 1.96971e-07 -0.000195867
0.00193418 0.000171127 9.74412e-07
0.000171127 0.0001296 -1.20975e-06
9.74412e-07 -1.20975e-06 6.23612e-06
0.00641895 0.000172022 -0.000347728
0.000172022 0.00370128 -2.04811e-05
-0.000347728 -2.04811e-05 0.0037198
0.000419303 6.76427e-05 1.09917e-06
6.76427e-05 -0.000197906 4.56441e-07
1.09917e-06 4.56441e-07 -0.000294769
0.00114657 0.000146246 1.24377e-05
0.000146246 -4.15965e-05 2.50238e-06
1.24377e-05 2.50238e-06 -0.000201611
0.00668835 0.000253554 9.94883e-07
0.000253554 0.00387675 1.59937e-06
9.94883e-07 1.59937e-06 0.00388451
0.000423477 8.5594e-05 1.79642e-05
8.5594e-05 -0.000198234 7.21261e-06
1.79642e-05 7.21261e-06 -0.000300478
0.00688418 0.000336336 0.000351895
0.000336336 0.00401742 4.39809e-05
0.000351895 4.39809e-05 0.0040095
0.000524925 1.21386e-05 -1.55194e-05
1.21386e-05 -0.000125318 -2.03173e-06
-1.55194e-05 -2.03173e-06 -0.000209911
0.0010698 2.62616e-05 1.17997e-07
2.62616e-05 -6.99953e-05 1.94952e-07
1.17997e-07 1.94952e-07 -0.00019826
0.00191243 4.41846e-05 4.11041e-06
4.41846e-05 0.000115844 -9.88665e-08
4.11041e-06 -9.88665e-08 2.32438e-05
0.00600612 -0.000102822 -0.000309568
-0.000102822 0.00345344 4.17916e-06
-0.000309568 4.17916e-06 0.00347054
0.000400672 9.5889e-06 -5.86001e-07
9.5889e-06 -0.000209011 -1.26924e-07
-5.86001e-07 -1.26924e-07 -0.000286938
0.00107622 -1.23959e-06 1.23657e-05
-1.23959e-06 -7.01141e-05 2.99167e-08
1.23657e-05 2.99167e-08 -0.000193263
0.000358712 2.07794e-05 1.82747e-05
2.07794e-05 -0.000233573 4.57749e-07
1.82747e-05 4.57749e-07 -0.000316029
0.00611582 -2.26534e-05 1.88683e-06
-2.26534e-05 0.00350986 -1.66441e-06
1.88683e-06 -1.66441e-06 0.00353331
0.00623101 -4.36658e-05 0.000316392
-4.36658e-05 0.00357254 -5.67253e-06
0.000316392 -5.67253e-06 0.00359914
0.00278359 1.74904e-05 -0.000144538
1.74904e-05 0.00128666 -3.04806e-06
-0.000144538 -3.04806e-06 0.00123721
0.00110746 5.94002e-05 9.27627e-08
5.94002e-05 -5.06233e-05 -7.22171e-08
9.27627e-08 -7.22171e-08 -0.000186845
0.00195132 0.000103199 1.25339e-06
0.000103199 0.000135843 -8.88012e-07
1.25339e-06 -8.88012e-07 3.45843e-05
0.00589654 -3.16319e-05 -0.000137841
-3.16319e-05 0.00338697 2.27896e-07
-0.000137841 2.27896e-07 0.00337591
0.000424421 5.9592e-05 3.35358e-07
5.9592e-05 -0.000192531 2.92715e-07
3.35358e-07 2.92715e-07 -0.000283242
0.00110961 9.89999e-05 1.22517e-05
9.89999e-05 -5.79175e-05 1.60296e-06
1.22517e-05 1.60296e-06 -0.000204694
0.00651616 0.000149077 -1.08943e-05
0.000149077 0.00375622 -1.84379e-06
-1.08943e-05 -1.84379e-06 0.00377598
0.000424598 8.99335e-05 1.92689e-05
8.99335e-05 -0.000193536 5.88178e-06
1.92689e-05 5.88178e-06 -0.000291592
0.00677286 0.000278106 0.000358433
0.000278106 0.00393555 3.71391e-05
0.000358433 3.71391e-05 0.00394072
0.00181727 -5.39382e-05 -0.000244873
-5.39382e-05 0.000788501 1.3975e-06
-0.000244873 1.3975e-06 0.000788734
0.00158822 3.17999e-05 -6.21731e-05
3.17999e-05 0.000535009 6.82291e-08
-6.21731e-05 6.82291e-08 0.000473335
0.00106035 2.84245e-05 1.26461e-05
2.84245e-05 -7.98942e-05 6.57392e-07
1.26461e-05 6.57392e-07 -0.000205539
0.00608384 -4.95534e-05 6.74127e-06
-4.95534e-05 0.00349536 2.73657e-06
6.74127e-06 2.73657e-06 0.00351809
0.00041891 -1.14666e-05 1.89258e-05
-1.14666e-05 -0.00019108 8.90354e-07
1.89258e-05 8.90354e-07 -0.00027296
0.00615347 -8.53163e-05 0.000328217
-8.53163e-05 0.00353753 -5.26541e-06
0.000328217 -5.26541e-06 0.00356055
0.0013832 2.30264e-05 -6.46258e-05
2.30264e-05 0.000543658 -1.15125e-06
-6.46258e-05 -1.15125e-06 0.00050421
0.00158082 1.97445e-05 -6.33002e-05
1.97445e-05 0.000532123 -1.50742e-06
-6.33002e-05 -1.50742e-06 0.000465616
0.00107024 6.09843e-05 1.21502e-05
6.09843e-05 -7.55396e-05 9.20648e-07
1.21502e-05 9.20648e-07 -0.000212557
0.00388949 7.06112e-05 0.000123131
7.06112e-05 0.00210651 3.8073e-06
0.000123131 3.8073e-06 0.00209938
0.000421982 6.92283e-05 1.97056e-05
6.92283e-05 -0.000193426 4.4825e-06
1.97056e-05 4.4825e-06 -0.000284126
0.00659144 0.000136413 0.000341303
0.000136413 0.00379512 2.22504e-05
0.000341303 2.22504e-05 0.0038187
0.0060382 -1.9841e-05 -8.79464e-06
-1.9841e-05 0.00347007 -3.29453e-06
-8.79464e-06 -3.29453e-06 0.00349148
0.000412155 5.07005e-05 2.05461e-05
5.07005e-05 -0.000206989 2.58168e-06
2.05461e-05 2.58168e-06 -0.000281893
0.00599599 3.53887e-05 0.00031623
3.53887e-05 0.00343584 2.07977e-07
0.00031623 2.07977e-07 0.00346235
0.00375751 3.32002e-05 0.000134398
3.32002e-05 0.00202939 5.36393e-06
0.000134398 5.36393e-06 0.0020246
0.000447434 9.74604e-06 1.90315e-05
9.74604e-06 -0.000177088 2.62162e-06
1.90315e-05 2.62162e-06 -0.000261202
0.00636333 4.721e-06 0.000327616
4.721e-06 0.00365408 9.96707e-06
0.000327616 9.96707e-06 0.00367976
0.00609966 -0.000117259 0.000315075
-0.000117259 0.00351226 -4.33258e-06
0.000315075 -4.33258e-06 0.00352945
0.00613798 1.15983e-05 0.000318681
1.15983e-05 0.00351447 5.78171e-06
0.000318681 5.78171e-06 0.00354308
