# vtk DataFile Version 2.0
Wound Healing Simulation
ASCII
DATASET UNSTRUCTURED_GRID
POINTS 3012 float
69.9759 18.75 4
67.2507 60.3285 4
69.976 18.75 2
73.0099 25.446 4
71.1327 20.9142 4
68.6801 16.6661 4
67.8273 19.9199 3.99003
67.2507 60.3286 2
71.1327 54.0858 4
68.6801 58.3339 4
65.6939 62.2254 4
65.3137 59.0073 3.99156
74.6784 42.3946 4
73.7221 47.2057 4
69.9759 18.75 0
73.0099 25.446 2
68.6801 16.6661 2
71.1327 20.9142 2
67.8274 19.92 2
74.6792 32.6053 4
73.7222 27.7943 4
72.1454 23.1494 4
70.6168 26.2196 3.98867
68.8879 21.9533 3.98949
67.2507 14.6715 4
66.6386 17.965 3.99082
65.8046 21.015 3.98603
67.2507 60.3285 0
71.1327 54.0858 2
68.6801 58.3339 2
65.694 62.2255 2
65.3137 59.0074 2
72.1454 51.8506 4
69.9759 56.25 4
68.8389 53.1176 3.98954
64.0165 64.0165 4
66.6123 57.1401 3.99101
63.887 60.7712 3.99217
63.5056 57.7846 3.98685
60.3285 67.2507 4
74.6792 42.3947 2
73.7222 47.2057 2
74.9194 39.9526 4
74.2788 44.8158 4
72.1706 42.0856 3.98849
73.0099 49.554 4
71.2521 46.5986 3.9889
73.0099 25.446 0
71.1327 20.9142 0
68.6801 16.6661 0
67.8273 19.9199 0.00996556
74.6792 32.6053 2
73.7222 27.7943 2
67.2508 14.6715 2
72.1455 23.1494 2
70.6169 26.2203 2
66.6386 17.9651 2
68.888 21.9536 2
65.8046 21.015 2
74.9197 35.0474 4
74.2794 30.1841 4
72.1871 32.9432 3.98867
71.2808 28.4309 3.9886
69.8181 24.0567 3.98905
68.3551 26.947 3.9841
66.7707 22.9251 3.98559
65.694 12.7746 4
65.325 16.097 3.99164
64.7202 19.1824 3.98654
63.9001 22.0198 3.98407
71.1327 54.0858 0
65.6939 62.2254 0
68.6801 58.3339 0
65.3137 59.0073 0.00844263
72.1455 51.8506 2
69.9759 56.25 2
68.839 53.1174 2
64.0165 64.0165 2
66.6123 57.1402 2
63.8871 60.7712 2
63.5057 57.7846 2
62.2254 65.694 4
58.8939 65.4174 3.99272
69.7717 50.9916 3.98906
67.7858 55.1732 3.99033
66.6583 52.2174 3.98578
62.337 62.4317 3.99252
64.6675 56.0434 3.98698
62.2064 59.4174 3.98719
61.8324 56.6994 3.98517
58.3339 68.6801 4
60.3285 67.2508 2
73.7221 47.2057 0
74.6784 42.3946 0
74.9197 39.9526 2
74.2794 44.8159 2
72.1705 42.0851 2
73.0099 49.554 2
71.2521 46.5979 2
75 37.5 4
72.4076 39.8022 3.98826
71.7851 44.353 3.98878
69.8118 41.7909 3.98325
70.578 48.8148 3.98891
68.921 46.0181 3.98387
74.6792 32.6053 0
73.7222 27.7943 0
67.2507 14.6715 0
72.1454 23.1494 0
70.6168 26.2196 0.0113336
68.8879 21.9533 0.0105096
66.6386 17.965 0.00917544
65.8046 21.015 0.0139739
74.9197 35.0474 2
74.2794 30.1841 2
72.1871 32.9439 2
71.2808 28.4316 2
65.694 12.7745 2
65.325 16.097 2
69.8182 24.0572 2
68.355 26.9471 2
64.7203 19.1825 2
66.7707 22.9251 2
63.9 22.0199 2
72.4154 35.2241 3.98835
71.8064 30.6761 3.98878
69.8477 33.2673 3.9834
68.9743 29.0352 3.98352
67.6197 24.9058 3.98496
66.2088 27.6265 3.98221
64.0165 10.9835 4
64.7707 23.8169 3.98374
63.8911 14.3219 3.99215
63.518 17.4332 3.98705
62.9184 20.3027 3.98443
62.1112 22.9231 3.98316
60.6843 11.0938 3.99245
57.6126 11.4381 3.98771
72.1454 51.8506 0
69.9759 56.25 0
68.8389 53.1176 0.0104562
64.0165 64.0165 0
63.887 60.7712 0.00782671
66.6123 57.1401 0.00899462
63.5056 57.7846 0.0131463
62.2255 65.694 2
58.894 65.4175 2
69.7719 50.9913 2
67.7859 55.1732 2
66.6585 52.2173 2
62.3371 62.4318 2
64.6677 56.0434 2
62.2065 59.4176 2
61.8325 56.6994 2
60.6689 63.9807 3.9926
57.0243 66.7377 3.99291
57.5578 63.6992 3.98796
67.5166 50.1831 3.98504
65.7101 54.1835 3.98659
64.553 51.3989 3.98356
60.7751 60.9496 3.98769
62.8319 55.0853 3.98542
60.6651 58.1772 3.98513
60.3405 55.8081 3.9844
56.25 69.9759 4
58.3339 68.6801 2
60.3285 67.2507 0
58.9212 9.65242 3.99263
62.2254 9.30607 4
73.0099 49.554 0
74.2788 44.8158 0
71.2521 46.5986 0.0111037
72.1706 42.0856 0.0115074
74.9194 39.9526 0
75 37.5 2
72.4074 39.8019 2
71.7851 44.3524 2
69.8116 41.7907 2
70.5781 48.8143 2
68.9209 46.0178 2
72.4909 37.512 3.98821
70.0483 39.658 3.98256
69.4387 43.9096 3.98364
67.611 41.5009 3.981
68.2749 48.1119 3.98438
66.7248 45.4466 3.98202
74.9197 35.0474 0
74.2794 30.1841 0
72.1871 32.9432 0.0113336
71.2808 28.4309 0.0114017
65.694 12.7746 0
65.325 16.097 0.00836029
69.8181 24.0567 0.0109529
68.3551 26.947 0.0158955
66.7707 22.9251 0.0144066
64.7202 19.1824 0.0134584
63.9001 22.0198 0.015926
72.4153 35.2247 2
71.8064 30.6768 2
69.8475 33.2674 2
68.9741 29.0353 2
64.0165 10.9835 2
63.8912 14.3219 2
63.5181 17.4332 2
67.6197 24.9058 2
66.2085 27.6265 2
62.9184 20.3029 2
64.7706 23.817 2
62.111 22.9234 2
60.6844 11.0938 2
57.6127 11.4379 2
70.0652 35.3915 3.98308
69.4751 31.1476 3.98348
67.669 33.5879 3.98111
66.7862 29.6166 3.98153
65.5385 25.6886 3.98306
64.1663 28.2436 3.98156
62.3424 12.6507 3.99236
62.8767 24.6195 3.98302
62.2019 15.7715 3.98738
61.8224 18.6663 3.98509
61.2335 21.3198 3.98313
60.4489 23.7039 3.983
59.2472 12.7683 3.98754
55.8741 10.2254 3.98822
56.4066 13.1005 3.98495
69.7717 50.9916 0.0109434
62.2254 65.694 0
58.8939 65.4174 0.00727837
67.7858 55.1732 0.00967148
66.6583 52.2174 0.0142204
62.337 62.4317 0.00748443
62.2064 59.4174 0.0128092
64.6675 56.0434 0.0130245
61.8324 56.6994 0.0148307
60.6691 63.9808 2
57.0244 66.7378 2
57.5579 63.6995 2
67.5167 50.1829 2
65.7103 54.1835 2
64.553 51.3988 2
60.7752 60.9498 2
62.832 55.0853 2
60.6652 58.1774 2
60.3407 55.8081 2
55.0697 67.9342 3.99311
59.2203 62.3759 3.98781
55.8036 64.9156 3.98826
56.3282 62.1 3.98537
65.3475 49.4195 3.98291
63.7201 53.3083 3.9847
62.4633 50.6702 3.98241
59.3375 59.5725 3.98554
61.0928 54.3309 3.98468
59.2985 57.0342 3.9838
59.2569 55.2078 3.98455
48.1018 68.5815 3.98974
50.9478 69.9333 3.99355
54.0858 71.1327 4
56.25 69.976 2
58.3339 68.6801 0
57.0582 8.3326 3.99296
60.3285 7.74928 4
58.9213 9.65238 2
62.2255 9.30602 2
70.578 48.8148 0.0110948
71.7851 44.353 0.0112218
68.921 46.0181 0.0161303
69.8118 41.7909 0.0167496
72.4076 39.8022 0.0117414
75 37.5 0
72.4907 37.5123 2
70.0479 39.6578 2
69.4385 43.9093 2
67.6106 41.5008 2
68.2749 48.1116 2
66.7245 45.4466 2
70.1363 37.5216 3.98252
67.8472 39.514 3.98036
67.238 43.4749 3.98156
65.5754 41.215 3.9803
66.0842 47.4268 3.98247
64.6733 44.8583 3.98135
72.4154 35.2241 0.0116459
71.8064 30.6761 0.0112191
69.8477 33.2673 0.016604
68.9743 29.0352 0.0164845
64.0165 10.9835 0
63.8911 14.3219 0.00785019
63.518 17.4332 0.0129471
67.6197 24.9058 0.0150425
66.2088 27.6265 0.0177905
64.7707 23.8169 0.0162576
62.9184 20.3027 0.0155667
62.1112 22.9231 0.0168363
60.6843 11.0938 0.00754514
57.6126 11.4381 0.0122947
70.0649 35.3916 2
69.4749 31.1478 2
67.6686 33.5878 2
66.7859 29.6165 2
62.3425 12.6506 2
62.202 15.7714 2
61.8225 18.6664 2
65.5383 25.6887 2
64.1659 28.2436 2
61.2334 21.3201 2
62.8765 24.6198 2
60.4485 23.7043 2
59.2472 12.7681 2
56.4066 13.1003 2
55.8742 10.2251 2
67.8837 35.5461 3.98093
67.2792 31.6178 3.98141
65.7168 33.9229 3.98033
64.6827 30.1829 3.9805
63.5584 26.3993 3.98237
62.2829 28.7627 3.98188
60.7769 14.2116 3.98749
61.0703 25.3164 3.98293
60.6182 17.1105 3.98552
60.2345 19.7943 3.98382
59.6811 22.2335 3.98226
59.0054 24.2943 3.98331
54.0371 9.12915 3.98894
57.9125 14.3178 3.98523
54.7873 12.001 3.98501
55.3148 14.6315 3.98382
67.5166 50.1831 0.0149639
57.0243 66.7377 0.00709154
60.6689 63.9807 0.00740454
57.5578 63.6992 0.0120417
65.7101 54.1835 0.0134053
64.553 51.3989 0.0164365
60.7751 60.9496 0.0123067
60.6651 58.1772 0.0148664
62.8319 55.0853 0.0145803
60.3405 55.8081 0.0156
55.0699 67.9344 2
59.2203 62.3762 2
55.8037 64.9159 2
56.3283 62.1003 2
65.3474 49.4194 2
63.7203 53.3082 2
62.4633 50.67 2
59.3377 59.5728 2
61.093 54.3308 2
59.2987 57.0343 2
59.257 55.2077 2
53.0417 69.0017 3.99332
53.9655 66.0171 3.98861
57.8833 60.8829 3.98549
54.6838 63.2144 3.98551
55.2139 60.6276 3.98418
63.2165 48.6766 3.98199
61.761 52.5956 3.98371
60.3012 50.0412 3.98177
58.0242 58.2795 3.98433
59.3455 53.9722 3.98393
58.1387 55.8376 3.98258
50.1081 67.8597 3.9894
47.462 66.5851 3.98698
46.0558 69.1608 3.98996
48.102 68.5819 2
48.8021 70.7244 3.99373
50.9479 69.9334 2
51.8506 72.1454 4
54.0858 71.1327 2
56.25 69.9759 0
55.1025 7.13738 3.99327
58.3339 6.31992 4
57.0584 8.33251 2
60.3286 7.74926 2
58.9212 9.65242 0.00736877
62.2254 9.30607 0
68.2749 48.1119 0.0156245
69.4387 43.9096 0.0163552
66.7248 45.4466 0.0179756
67.611 41.5009 0.0189977
70.0483 39.658 0.017444
72.4909 37.512 0.0117861
70.1359 37.5215 2
67.8467 39.5139 2
67.2377 43.4749 2
65.5749 41.215 2
66.0841 47.4268 2
64.6729 44.8583 2
67.9433 37.5221 3.98018
65.8061 39.3729 3.97984
65.1963 43.0329 3.98072
63.7807 40.9363 3.9804
63.9874 46.7294 3.98167
62.8341 44.2288 3.98172
70.0652 35.3915 0.0169215
69.4751 31.1476 0.0165173
67.669 33.5879 0.0188852
66.7862 29.6166 0.0184711
62.3424 12.6507 0.00763812
62.2019 15.7715 0.0126248
61.8224 18.6663 0.0149101
65.5385 25.6886 0.0169365
64.1663 28.2436 0.0184355
62.8767 24.6195 0.0169796
61.2335 21.3198 0.0168696
60.4489 23.7039 0.0170003
59.2472 12.7683 0.0124617
56.4066 13.1005 0.015049
55.8741 10.2254 0.0117767
67.8832 35.5459 2
67.2788 31.6177 2
65.7163 33.9226 2
64.6822 30.1828 2
60.7769 14.2114 2
60.6183 17.1105 2
60.2346 19.7945 2
63.5581 26.3994 2
62.2823 28.7628 2
59.6809 22.2339 2
61.0698 25.3168 2
59.0049 24.2949 2
57.9125 14.3177 2
55.3149 14.6314 2
54.0371 9.12882 2
54.7873 12.0008 2
65.8953 35.6647 3.9801
65.2059 32.1474 3.98027
64.3076 34.2449 3.97967
62.6207 30.6237 3.98059
61.6773 27.0539 3.98224
60.8804 29.1234 3.98331
59.3138 15.6534 3.98547
59.3611 25.7725 3.98385
59.1311 18.3352 3.9846
58.7552 20.8294 3.98258
58.3084 23.0653 3.98157
57.9976 24.6378 3.98415
52.1118 8.14791 3.9895
53.058 11.0077 3.9857
56.6795 15.7261 3.98448
53.811 13.6683 3.98331
54.3791 15.9828 3.98362
55.0697 67.9342 0.00689366
65.3475 49.4195 0.0170899
55.8036 64.9156 0.0117442
59.2203 62.3759 0.0121898
56.3282 62.1 0.0146291
63.7201 53.3083 0.0153001
62.4633 50.6702 0.0175912
59.3375 59.5725 0.0144578
59.2985 57.0342 0.0161978
61.0928 54.3309 0.0153243
59.2569 55.2078 0.0154543
53.0419 69.0019 2
53.9656 66.0174 2
57.8834 60.8832 2
54.6839 63.2147 2
55.2139 60.6279 2
63.2163 48.6765 2
61.7612 52.5955 2
60.3011 50.0409 2
58.0244 58.2797 2
59.3457 53.972 2
58.1389 55.8376 2
52.069 67.0031 3.989
52.9525 64.2237 3.98568
56.6522 59.5037 3.98456
53.6822 61.6305 3.98422
54.2633 59.3343 3.98357
61.0227 47.9 3.98139
59.734 52.1293 3.98336
58.0587 49.6423 3.98222
56.7848 57.0094 3.98278
57.1388 54.1499 3.98215
50.1083 67.86 2
49.3356 65.9253 3.98642
47.462 66.5856 2
46.8913 64.741 3.98497
45.5572 67.1026 3.98735
43.9731 69.5934 3.99013
46.0559 69.1612 2
46.609 71.3687 3.99389
48.1018 68.5815 0.0102599
48.8023 70.7246 2
49.554 73.0099 4
50.9478 69.9333 0.00645317
51.8506 72.1455 2
54.0858 71.1327 0
53.0636 6.06902 3.99358
55.1027 7.13724 2
56.25 5.02411 4
58.3339 6.3199 2
57.0582 8.3326 0.00704034
60.3285 7.74928 0
66.0842 47.4268 0.0175326
67.238 43.4749 0.018445
64.6733 44.8583 0.0186501
65.5754 41.215 0.0196953
67.8472 39.514 0.0196413
70.1363 37.5216 0.0174832
67.9428 37.522 2
65.8055 39.3729 2
65.1959 43.0329 2
63.78 40.9362 2
63.9871 46.7293 2
62.8336 44.2286 2
65.9088 37.5021 3.97948
63.9243 39.2705 3.97987
63.355 42.5596 3.98065
62.4612 40.7055 3.97999
61.9959 45.935 3.98169
61.4836 43.6975 3.98341
67.8837 35.5461 0.0190715
67.2792 31.6178 0.0185908
65.7168 33.9229 0.0196692
64.6827 30.1829 0.0194995
60.7769 14.2116 0.0125091
60.6182 17.1105 0.0144848
60.2345 19.7943 0.0161825
63.5584 26.3993 0.0176257
62.2829 28.7627 0.0181234
61.0703 25.3164 0.0170749
59.6811 22.2335 0.0177393
59.0054 24.2943 0.0166885
57.9125 14.3178 0.0147722
55.3148 14.6315 0.0161787
54.0371 9.12915 0.0110592
54.7873 12.001 0.0149887
65.8947 35.6645 2
65.2054 32.1473 2
64.307 34.2447 2
62.62 30.6236 2
59.3139 15.6533 2
59.1312 18.3353 2
58.7552 20.8297 2
61.6767 27.0541 2
60.8796 29.1235 2
58.3081 23.0659 2
59.3605 25.773 2
57.9971 24.6385 2
56.6795 15.7261 2
54.3792 15.9828 2
53.8111 13.6681 2
52.1119 8.14756 2
53.058 11.0074 2
64.1151 35.6298 3.97949
62.9573 33.0382 3.9794
60.6468 30.5969 3.98125
59.6054 27.8893 3.98305
57.9436 16.9654 3.98474
57.7731 25.6996 3.98503
57.7244 19.4537 3.98367
57.3891 21.8141 3.98105
57.2133 23.9194 3.98156
50.112 7.28028 3.98991
51.2322 10.1164 3.98628
52.1729 12.786 3.98372
55.5409 16.9548 3.98421
52.9798 15.25 3.98235
53.7614 16.9645 3.98378
53.0417 69.0017 0.0066762
53.9655 66.0171 0.0113895
63.2165 48.6766 0.0180133
54.6838 63.2144 0.0144877
57.8833 60.8829 0.0145105
55.2139 60.6276 0.0158214
61.761 52.5956 0.0162854
60.3012 50.0412 0.0182328
58.0242 58.2795 0.0156677
58.1387 55.8376 0.0174192
59.3455 53.9722 0.0160742
52.0691 67.0033 2
52.9525 64.224 2
56.6523 59.504 2
53.6822 61.6308 2
54.2634 59.3345 2
61.0224 47.8997 2
59.7341 52.129 2
58.0585 49.6418 2
56.785 57.0095 2
57.139 54.1496 2
51.1666 65.1322 3.98595
52.0461 62.5443 3.98406
55.4853 58.2664 3.98397
52.8365 60.1446 3.98364
53.6438 58.485 3.98357
58.345 46.8707 3.98328
57.5878 51.8137 3.98203
56.2839 49.5807 3.98324
55.4823 55.8177 3.98141
55.3779 53.4102 3.97976
50.1081 67.8597 0.0105989
49.3357 65.9256 2
48.6172 64.1269 3.98456
47.462 66.5851 0.0130203
45.5573 67.103 2
46.8913 64.7414 2
46.3811 63.0583 3.98357
45.1315 65.2028 3.98535
43.6306 67.4737 3.98755
41.8606 69.8812 3.99023
43.9732 69.5938 2
44.3765 71.8637 3.99402
46.0558 69.1608 0.0100381
46.6091 71.369 2
47.2057 73.7222 4
48.8021 70.7244 0.00626936
49.554 73.0099 2
51.8506 72.1454 0
50.9534 5.12958 3.99375
53.0638 6.06884 2
54.0858 3.86728 4
55.1025 7.13738 0.00673424
56.25 5.02406 2
58.3339 6.31992 0
63.9874 46.7294 0.0183306
65.1963 43.0329 0.0192844
62.8341 44.2288 0.0182812
63.7807 40.9363 0.0195965
65.8061 39.3729 0.0201553
67.9433 37.5221 0.0198249
65.9082 37.502 2
63.9236 39.2705 2
63.3544 42.5595 2
62.4604 40.7055 2
61.9954 45.9347 2
61.4829 43.6972 2
63.9844 37.4576 3.97974
62.1899 39.36 3.97982
61.2524 41.9703 3.98105
60.2856 44.7872 3.98366
65.8953 35.6647 0.0199041
65.2059 32.1474 0.0197295
64.3076 34.2449 0.0203317
62.6207 30.6237 0.0194141
59.3138 15.6534 0.0145266
59.1311 18.3352 0.0153988
58.7552 20.8294 0.0174221
61.6773 27.0539 0.0177599
60.8804 29.1234 0.0166874
59.3611 25.7725 0.0161468
58.3084 23.0653 0.0184253
57.9976 24.6378 0.0158531
56.6795 15.7261 0.0155228
54.3791 15.9828 0.0163764
53.811 13.6683 0.0166941
52.1118 8.14791 0.0104959
53.058 11.0077 0.0143034
64.1144 35.6296 2
62.9565 33.038 2
60.6459 30.5969 2
57.9438 16.9653 2
57.7245 19.454 2
57.3889 21.8147 2
59.6045 27.8896 2
57.2128 23.9202 2
57.7724 25.7003 2
50.1121 7.27997 2
55.541 16.9548 2
53.7614 16.9645 2
52.9798 15.2499 2
52.1729 12.7857 2
51.2322 10.116 2
62.2218 35.3554 3.97923
60.3272 32.7346 3.97894
58.6617 30.0564 3.98215
57.3318 27.356 3.98433
56.6412 18.1367 3.98426
56.3258 25.0746 3.98287
56.3691 20.4983 3.98212
56.1312 22.8422 3.9794
48.0559 6.52377 3.99009
49.3241 9.32453 3.98705
50.4335 11.9844 3.98426
51.3794 14.4865 3.98198
54.4189 17.9036 3.98369
52.3639 17.022 3.98234
52.069 67.0031 0.0109962
52.9525 64.2237 0.0143163
61.0227 47.9 0.0186111
53.6822 61.6305 0.0157845
56.6522 59.5037 0.0154438
54.2633 59.3343 0.016427
59.734 52.1293 0.0166417
58.0587 49.6423 0.017778
56.7848 57.0094 0.0172239
57.1388 54.1499 0.0178458
51.1667 65.1325 2
52.0461 62.5445 2
55.4855 58.2666 2
52.8365 60.1449 2
53.644 58.4853 2
58.3444 46.8701 2
57.5879 51.8133 2
56.2837 49.5799 2
55.4826 55.8177 2
55.3782 53.41 2
50.3456 63.385 3.98418
51.245 60.9413 3.98288
54.2249 57.2815 3.98297
52.3155 58.6452 3.98291
56.7698 44.2036 3.98483
55.5378 47.9201 3.98247
55.0999 51.417 3.9796
54.0186 54.5702 3.97921
49.3356 65.9253 0.0135844
48.6172 64.1273 2
47.9616 62.4788 3.98337
45.5572 67.1026 0.0126453
46.8913 64.741 0.015029
43.6307 67.4741 2
46.3811 63.0586 2
45.1316 65.2033 2
45.9869 61.5905 3.98254
44.7662 63.4598 3.98383
43.3555 65.5128 3.98554
41.663 67.6931 3.98773
39.7024 70.0285 3.99024
41.8606 69.8816 2
42.1111 72.2085 3.99405
43.9731 69.5934 0.00987295
44.3766 71.8639 2
44.8159 74.2794 4
46.609 71.3687 0.00611472
47.2057 73.7222 2
49.554 73.0099 0
48.784 4.32077 3.99391
50.9535 5.1294 2
51.8506 2.85458 4
53.0636 6.06902 0.00641984
54.0858 3.86728 2
56.25 5.02411 0
61.9959 45.935 0.0183116
63.355 42.5596 0.0193476
61.4836 43.6975 0.0165903
62.4612 40.7055 0.0200093
63.9243 39.2705 0.0201281
65.9088 37.5021 0.0205248
63.9837 37.4575 2
62.189 39.3599 2
61.2516 41.9701 2
60.285 44.7868 2
62.0291 37.4452 3.98028
60.2903 39.8553 3.97973
59.0389 42.9347 3.98309
64.1151 35.6298 0.0205129
62.9573 33.0382 0.0205978
60.6468 30.5969 0.0187481
57.9436 16.9654 0.0152579
57.7244 19.4537 0.0163313
57.3891 21.8141 0.0189489
59.6054 27.8893 0.0169473
57.7731 25.6996 0.014974
57.2133 23.9194 0.0184449
55.5409 16.9548 0.0157895
53.7614 16.9645 0.0162214
52.9798 15.25 0.0176455
50.112 7.28028 0.0100922
52.1729 12.786 0.016278
51.2322 10.1164 0.0137248
62.221 35.3553 2
60.3261 32.7344 2
58.6605 30.0566 2
56.6414 18.1367 2
56.3692 20.4987 2
56.1309 22.843 2
57.3307 27.3566 2
56.3251 25.0757 2
48.056 6.52343 2
49.3241 9.32422 2
54.4191 17.9037 2
52.364 17.022 2
51.3794 14.4862 2
50.4335 11.9841 2
59.9374 35.1144 3.97932
58.0409 32.2544 3.97973
56.5935 29.316 3.9835
55.4905 26.5724 3.98539
55.3484 19.1708 3.98336
54.9589 24.0292 3.97901
55.0168 21.5391 3.98037
45.962 5.87905 3.99031
43.3734 7.46837 3.9882
47.3546 8.61874 3.9875
48.6 11.286 3.9848
49.715 13.7335 3.98296
50.6356 16.1212 3.98083
53.1293 18.6444 3.98296
51.3062 18.0364 3.98229
51.1666 65.1322 0.01405
52.0461 62.5443 0.015939
58.345 46.8707 0.0167205
52.8365 60.1446 0.0163624
55.4853 58.2664 0.0160261
53.6438 58.485 0.0164329
57.5878 51.8137 0.0179653
56.2839 49.5807 0.0167613
55.4823 55.8177 0.0185919
55.3779 53.4102 0.0202387
50.3456 63.3854 2
51.245 60.9415 2
54.2251 57.2817 2
52.3156 58.6456 2
56.7687 44.203 2
55.5373 47.919 2
55.1 51.4165 2
54.0189 54.5702 2
49.5918 61.7485 3.98302
55.7069 41.724 3.98085
50.5686 59.3348 3.9818
52.1909 56.5041 3.98148
54.247 45.5839 3.98398
53.3865 49.3545 3.98027
52.6905 52.8776 3.97716
48.6172 64.1269 0.0154415
47.9615 62.4791 2
47.3292 61.0131 3.98254
43.6306 67.4737 0.0124471
45.1315 65.2028 0.0146514
46.3811 63.0583 0.0164267
41.6631 67.6935 2
43.3555 65.5132 2
45.9869 61.5907 2
44.7662 63.4602 2
45.7659 60.6344 3.98176
44.4826 61.8403 3.98264
43.1454 63.7327 3.98411
41.5451 65.6511 3.98567
39.6324 67.7732 3.98783
37.526 70.0538 3.99021
39.7024 70.0289 2
39.8179 72.4057 3.99399
41.8606 69.8812 0.00977427
42.1111 72.2088 2
42.3947 74.6792 4
44.3765 71.8637 0.00597699
44.8159 74.2794 2
47.2057 73.7222 0
43.8515 5.35617 3.99051
46.5701 3.64544 3.99408
48.7841 4.32057 2
49.554 1.99015 4
50.9534 5.12958 0.00625431
51.8506 2.85453 2
54.0858 3.86728 0
60.2856 44.7872 0.016342
61.2524 41.9703 0.0189526
62.1899 39.36 0.0201799
63.9844 37.4576 0.0202598
62.0283 37.4452 2
60.2893 39.8552 2
59.038 42.9344 2
59.8117 37.568 3.98131
58.057 40.6704 3.98018
55.1931 39.7304 3.98156
62.2218 35.3554 0.0207658
60.3272 32.7346 0.0210627
58.6617 30.0564 0.0178539
56.6412 18.1367 0.0157434
56.3691 20.4983 0.0178778
56.1312 22.8422 0.0206018
57.3318 27.356 0.0156673
56.3258 25.0746 0.017134
54.4189 17.9036 0.01631
52.3639 17.022 0.0176631
51.3794 14.4865 0.0180181
48.0559 6.52377 0.00991237
49.3241 9.32453 0.0129523
50.4335 11.9844 0.0157402
59.9364 35.1143 2
45.962 5.87873 2
43.3735 7.46806 2
58.0395 32.2543 2
56.5921 29.3163 2
55.3486 19.1709 2
55.0168 21.5398 2
54.9583 24.0305 2
55.4893 26.5736 2
47.3546 8.61835 2
48.6 11.2857 2
53.1294 18.6445 2
51.3063 18.0363 2
50.6356 16.1211 2
49.715 13.7332 2
57.4565 34.7523 3.97978
55.7855 31.4973 3.98101
54.5684 28.3773 3.98707
53.8108 25.4699 3.98122
53.9762 20.1188 3.98263
53.601 22.6846 3.97689
41.3986 7.07363 3.98834
45.3594 7.99025 3.98789
42.8653 9.4095 3.98632
46.6663 10.647 3.98547
47.7457 13.0939 3.98303
48.9329 15.3913 3.98183
50.0085 17.6905 3.97954
51.6579 19.3147 3.98317
50.3456 63.385 0.0158242
51.245 60.9413 0.0171199
56.7698 44.2036 0.0151691
55.5378 47.9201 0.0175255
52.3155 58.6452 0.0170877
54.2249 57.2815 0.0170326
55.0999 51.417 0.0204005
54.0186 54.5702 0.0207922
49.5918 61.7488 2
55.7053 41.7235 2
50.5686 59.335 2
52.1912 56.5045 2
54.2459 45.5827 2
53.3863 49.3533 2
52.691 52.8771 2
48.8495 60.2056 3.98233
52.6192 42.658 3.98351
49.7921 57.6348 3.98164
50.6081 54.4381 3.97864
51.8867 47.2907 3.97988
51.2518 50.9701 3.9759
48.3233 43.731 3.97663
47.9616 62.4788 0.0166262
47.3292 61.0133 2
46.6188 59.7992 3.98177
41.663 67.6931 0.012271
43.3555 65.5128 0.0144579
44.7662 63.4598 0.0161672
45.9869 61.5905 0.0174591
39.6324 67.7737 2
41.5451 65.6515 2
45.7659 60.6345 2
43.1454 63.7331 2
44.4826 61.8406 2
44.623 60.2966 3.98154
42.9497 62.0894 3.98267
41.5988 63.8265 3.98402
39.6469 65.62 3.98583
37.5633 67.7559 3.98764
31.698 65.1384 3.98558
33.3926 67.4933 3.98757
35.3335 69.9639 3.99017
37.5261 70.0542 2
37.5096 72.4603 3.99397
39.7024 70.0285 0.00975724
39.8179 72.4059 2
39.9526 74.9197 4
42.1111 72.2085 0.0059463
42.3947 74.6792 2
44.8159 74.2794 0
41.7362 4.9653 3.99069
43.8515 5.35584 2
44.3255 3.10878 3.99422
46.5702 3.64524 2
47.2057 1.27793 4
48.784 4.32077 0.00609125
49.554 1.99013 2
51.8506 2.85458 0
59.0389 42.9347 0.0169083
60.2903 39.8553 0.0202725
62.0291 37.4452 0.0197153
59.8108 37.5678 2
58.0557 40.6703 2
55.1915 39.7301 2
56.8999 37.8997 3.98199
49.7816 41.2976 3.97933
53.2401 39.3146 3.98534
39.4421 6.79722 3.98857
59.9374 35.1144 0.0206766
58.0409 32.2544 0.0202688
56.5935 29.316 0.0164987
55.3484 19.1708 0.0166425
55.0168 21.5391 0.0196297
54.9589 24.0292 0.0209917
55.4905 26.5724 0.0146059
53.1293 18.6444 0.0170377
51.3062 18.0364 0.0177074
50.6356 16.1212 0.0191701
45.962 5.87905 0.00968752
49.715 13.7335 0.0170394
47.3546 8.61874 0.0124975
48.6 11.286 0.0152012
43.3734 7.46837 0.011796
57.4552 34.7522 2
41.3986 7.0733 2
45.3594 7.98997 2
42.8653 9.40921 2
55.7837 31.4971 2
54.5666 28.3783 2
53.9765 20.1191 2
53.6009 22.6857 2
53.8097 25.4716 2
46.6662 10.6466 2
47.7456 13.0937 2
51.6579 19.3147 2
50.0085 17.6905 2
48.933 15.3911 2
54.9652 33.9567 3.97994
53.5665 30.4592 3.98574
52.6449 27.1722 3.98415
52.1737 24.061 3.9784
52.4023 21.0555 3.98099
41.0134 9.04276 3.98654
44.7235 9.98964 3.98594
42.468 10.8958 3.98482
46.0051 12.7217 3.98363
47.6824 14.5758 3.98239
48.1151 16.9788 3.98025
49.8212 19.588 3.97829
49.5918 61.7485 0.01698
50.5686 59.3348 0.0182039
55.7069 41.724 0.0191526
54.247 45.5839 0.0160193
53.3865 49.3545 0.019729
52.1909 56.5041 0.0185205
52.6905 52.8776 0.022841
48.8495 60.2059 2
52.6173 42.6572 2
49.7922 57.6349 2
50.6086 54.4386 2
51.8859 47.2892 2
51.2521 50.9683 2
48.3173 43.7317 2
47.9877 58.7474 3.98155
50.2099 45.2817 3.97692
48.6042 55.9254 3.98112
49.153 52.6147 3.97845
49.7275 49.0678 3.97559
46.1908 39.9098 3.9173
46.573 42.7696 3.98601
46.6251 45.7273 3.97986
44.041 41.2487 3.97195
42.1028 41.9914 3.97135
47.3292 61.0131 0.017464
46.6187 59.7993 2
45.4682 58.7949 3.98045
39.6324 67.7732 0.012171
41.5451 65.6511 0.0143325
43.1454 63.7327 0.0158882
44.4826 61.8403 0.0173613
45.7659 60.6344 0.0182395
41.5987 63.8268 2
37.5633 67.7563 2
39.647 65.6204 2
44.623 60.2968 2
42.9497 62.0898 2
41.7525 62.5007 3.98281
42.4803 59.9882 3.98121
39.8924 63.5619 3.98358
37.642 65.5191 3.98572
35.4637 67.6652 3.98764
33.576 65.3521 3.98565
31.9601 63.3103 3.98396
29.8842 64.7289 3.98525
31.698 65.1388 2
31.3775 67.2027 3.98756
33.3926 67.4938 2
33.1565 69.7572 3.99009
35.3335 69.9643 2
35.1951 72.3747 3.99393
37.526 70.0538 0.00978929
37.5096 72.4606 2
37.5 75 4
39.8179 72.4057 0.00600885
39.9526 74.9197 2
42.3947 74.6792 0
39.6238 4.71255 3.99075
41.7362 4.96497 2
42.0619 2.71642 3.99438
43.8515 5.35617 0.00948559
44.3255 3.10856 2
44.8158 0.721173 4
46.5701 3.64544 0.00592003
47.2057 1.27779 2
49.554 1.99015 0
58.057 40.6704 0.0198161
59.8117 37.568 0.0186907
55.1931 39.7304 0.0184353
49.7798 41.2986 2
56.8988 37.8996 2
53.2383 39.3136 2
54.0941 36.6234 3.98133
47.7033 40.4559 3.99267
50.7338 38.4821 3.98337
37.516 6.66842 3.98858
39.4421 6.79686 2
39.211 8.68526 3.98672
35.9415 8.48509 3.98683
57.4565 34.7523 0.0202189
55.7855 31.4973 0.0189895
54.5684 28.3773 0.0129335
53.9762 20.1188 0.017366
53.601 22.6846 0.0231115
53.8108 25.4699 0.0187779
51.6579 19.3147 0.0168321
50.0085 17.6905 0.0204605
48.9329 15.3913 0.0181654
45.3594 7.99025 0.0121062
47.7457 13.0939 0.0169665
46.6663 10.647 0.0145274
41.3986 7.07363 0.011665
42.8653 9.4095 0.0136791
54.9636 33.9562 2
41.0134 9.0424 2
44.7234 9.98942 2
42.4679 10.8956 2
53.5642 30.4583 2
52.6431 27.1744 2
52.4026 21.0552 2
52.1732 24.0626 2
46.005 12.7214 2
47.6824 14.5757 2
49.8213 19.5884 2
48.1152 16.9787 2
52.5147 32.8497 3.98266
51.4197 29.1316 3.98784
50.8374 25.6995 3.9762
49.952 22.1654 3.97937
40.5689 11.5994 3.98418
43.8578 11.9108 3.98406
45.8032 15.4115 3.98184
47.5068 19.2126 3.97923
46.5208 37.5051 3.91607
48.8495 60.2056 0.0176658
49.7921 57.6348 0.0183576
52.6192 42.658 0.0164857
51.8867 47.2907 0.020124
51.2518 50.9701 0.0240984
50.6081 54.4381 0.0213551
48.3233 43.731 0.0233662
47.9877 58.7476 2
50.208 45.2807 2
48.6044 55.9254 2
49.1533 52.6155 2
49.7271 49.0657 2
46.1945 39.9121 2
46.5794 42.7725 2
46.6213 45.7237 2
44.0469 41.2465 2
42.1109 41.9938 2
46.8402 57.3495 3.9821
44.8047 39.5067 3.96725
42.4716 40.8667 3.98251
48.1771 47.2627 3.98098
47.1801 54.2577 3.98145
47.6257 50.7765 3.97813
44.8955 47.3398 3.97895
45.2575 42.0284 3.92378
45.0348 44.6606 3.97934
42.8329 42.745 3.96402
40.9561 42.3625 3.97059
46.6188 59.7992 0.0182335
45.4681 58.7949 2
43.8758 57.7179 3.97999
37.5633 67.7559 0.0123589
39.6469 65.62 0.0141721
41.5988 63.8265 0.0159765
42.9497 62.0894 0.0173299
44.623 60.2966 0.0184575
35.4637 67.6657 2
41.7525 62.501 2
39.8924 63.5622 2
37.642 65.5196 2
42.4803 59.9885 2
40.6222 61.6586 3.98263
40.4437 58.2168 3.97905
37.8361 63.2235 3.98392
35.5732 65.4414 3.98562
33.576 65.3525 2
31.9601 63.3107 2
33.6294 63.3504 3.98409
30.379 62.8684 3.98364
32.1233 62.016 3.98266
26.8679 61.5105 3.98251
28.0629 64.1563 3.98481
29.8842 64.7293 2
29.4073 66.7662 3.98732
31.698 65.1384 0.0144187
31.3775 67.2032 2
31.0139 69.4219 3.98994
33.3926 67.4933 0.0124306
33.1564 69.7576 2
32.8922 72.1489 3.99392
35.3335 69.9639 0.00982898
35.195 72.375 2
35.0474 74.9194 4
37.5096 72.4603 0.00602654
37.5 75 2
39.9526 74.9197 0
35.6205 6.71941 3.98856
37.523 4.6121 3.99078
39.6238 4.71223 2
39.7885 2.47294 3.99443
41.7362 4.9653 0.00931124
42.062 2.71619 2
42.3946 0.32156 4
44.3255 3.10878 0.00578033
44.8159 0.72056 2
47.2057 1.27793 0
49.7816 41.2976 0.0206657
56.8999 37.8997 0.018014
53.2401 39.3146 0.0146607
47.7018 40.4522 2
50.7312 38.4822 2
54.0927 36.6232 2
51.5174 35.5654 3.97098
48.3658 37.7591 3.9973
46.1875 35.1018 3.91853
44.0319 33.7655 3.97389
42.0881 33.033 3.97627
37.4577 8.52699 3.98681
37.5159 6.66799 2
39.4421 6.79722 0.0114283
39.211 8.68487 2
38.9759 10.1176 3.98585
35.8979 9.76445 3.98589
34.1498 8.81452 3.98662
35.9414 8.48472 2
54.9652 33.9567 0.0200625
53.5665 30.4592 0.0142649
52.6449 27.1722 0.0158475
52.4023 21.0555 0.0190056
52.1737 24.061 0.0216019
49.8212 19.588 0.0217057
48.1151 16.9788 0.0197527
47.6824 14.5758 0.01761
44.7235 9.98964 0.0140553
46.0051 12.7217 0.0163658
41.0134 9.04276 0.0134599
42.468 10.8958 0.0151849
52.5127 32.8487 2
40.5688 11.5991 2
43.8577 11.9107 2
51.417 29.1342 2
50.8363 25.7017 2
49.9522 22.1662 2
45.8032 15.4113 2
47.5068 19.2125 2
50.1278 31.3826 3.97569
49.3581 27.4575 3.97681
49.4368 24.3801 3.97816
47.1942 21.9154 3.97755
38.3014 12.7246 3.98318
42.1009 14.2957 3.98208
44.8023 18.4489 3.97979
45.0786 37.506 3.96026
46.5281 37.5064 2
47.9877 58.7474 0.0184533
48.6042 55.9254 0.0188802
50.2099 45.2817 0.0230793
49.7275 49.0678 0.0244109
49.153 52.6147 0.0215533
46.1908 39.9098 0.0826952
46.573 42.7696 0.0139901
46.6251 45.7273 0.0201445
44.041 41.2487 0.0280481
42.1028 41.9914 0.0286537
46.8402 57.3497 2
44.8107 39.5041 2
42.474 40.8658 2
48.1757 47.2597 2
47.1802 54.2576 2
47.6259 50.7763 2
44.8948 47.3315 2
45.2608 42.0304 2
45.0459 44.6663 2
42.8448 42.74 2
40.964 42.3604 2
45.4007 55.9347 3.97954
42.8006 39.261 3.98784
40.9023 40.8154 3.95552
46.154 48.9394 3.97978
45.5668 52.5566 3.98409
43.5262 48.4784 3.94978
43.4178 46.2101 3.99764
43.7971 43.8308 3.92041
41.2995 43.9035 3.98245
39.3206 42.663 3.96149
45.4682 58.7949 0.0195534
43.8757 57.7178 2
42.1063 56.3398 3.97974
35.4637 67.6652 0.0123587
37.642 65.5191 0.0142842
39.8924 63.5619 0.0164223
41.7525 62.5007 0.0171882
42.4803 59.9882 0.0187889
35.5732 65.4419 2
40.6222 61.6588 2
37.8361 63.2238 2
40.4438 58.2169 2
38.9249 56.5044 3.97949
38.2498 60.3417 3.98193
35.6068 63.217 3.98385
33.576 65.3521 0.014354
31.9601 63.3103 0.0160385
33.6294 63.3508 2
30.3791 62.8687 2
32.1233 62.0163 2
28.6812 62.2129 3.98326
33.3458 61.5285 3.9824
31.066 61.2322 3.98219
27.5656 59.6067 3.98188
23.7871 59.0987 3.98474
25.0324 60.8837 3.98287
26.868 61.5108 2
26.2292 63.488 3.9843
28.063 64.1566 2
27.464 66.1896 3.98695
29.8842 64.7289 0.0147498
29.4072 66.7666 2
28.9064 68.9473 3.98984
31.3775 67.2027 0.0124429
31.0138 69.4223 2
30.6147 71.7799 3.99385
33.1565 69.7572 0.00991292
32.8921 72.1492 2
32.6054 74.6784 4
35.1951 72.3747 0.00606798
35.0474 74.9197 2
37.5 75 0
33.7232 6.97396 3.98824
35.4344 4.6825 3.99071
35.6205 6.71903 2
37.5141 2.38559 3.99448
37.523 4.61175 2
39.6238 4.71255 0.00924715
39.7885 2.47271 2
39.9526 0.0806499 4
42.0619 2.71642 0.00561731
42.3947 0.320817 2
44.8158 0.721173 0
44.8083 35.5043 3.96626
42.4633 34.1542 3.98393
47.7033 40.4559 0.00732808
50.7338 38.4821 0.0166292
54.0941 36.6234 0.0186661
48.3635 37.7586 2
51.5156 35.5652 2
46.1866 35.1 2
44.0403 33.7647 2
42.0939 33.0323 2
48.5351 34.2442 4.00585
45.2421 32.986 3.92131
42.8214 32.2729 3.96744
40.9404 32.6689 3.97388
37.3099 10.6207 3.98511
37.4577 8.52651 2
37.516 6.66842 0.0114174
39.211 8.68526 0.0132776
38.9759 10.1172 2
34.7531 10.3701 3.98513
35.8978 9.76411 2
32.3765 9.36105 3.98606
34.1498 8.81415 2
35.9415 8.48509 0.0131731
52.5147 32.8497 0.0173437
51.4197 29.1316 0.0121577
50.8374 25.6995 0.0237986
49.952 22.1654 0.0206262
47.5068 19.2126 0.0207667
45.8032 15.4115 0.0181614
43.8578 11.9108 0.0159418
40.5689 11.5994 0.0158175
50.1248 31.383 2
38.3013 12.7241 2
42.1007 14.2956 2
49.3561 27.4596 2
49.4364 24.3813 2
47.1942 21.9172 2
44.8022 18.4488 2
47.9111 29.5907 3.97057
47.1395 25.1069 3.97835
44.2934 21.3042 3.97807
36.581 12.9209 3.98338
38.6803 14.7954 3.98195
41.7505 17.8261 3.98024
42.9274 37.4993 3.99221
45.088 37.5059 2
46.5208 37.5051 0.0839284
46.8402 57.3495 0.0178967
47.1801 54.2577 0.0185483
48.1771 47.2627 0.0190238
47.6257 50.7765 0.0218718
44.8047 39.5067 0.032754
45.2575 42.0284 0.0762239
45.0348 44.6606 0.0206598
44.8955 47.3398 0.0210502
42.8329 42.745 0.0359763
42.4716 40.8667 0.0174869
40.9561 42.3625 0.0294133
45.4009 55.9347 2
42.8033 39.2595 2
40.9029 40.8151 2
46.1543 48.9365 2
45.5673 52.5551 2
43.5255 48.4777 2
43.4493 46.2202 2
43.8012 43.8337 2
41.3041 43.8953 2
39.3242 42.6657 2
43.741 54.4428 3.98385
40.9758 39.1861 3.94321
39.2362 40.8774 3.93074
43.7493 50.532 3.98985
42.0277 47.7351 4.02736
41.9404 45.2181 3.92118
39.5124 44.6593 3.97674
37.5033 42.7726 3.96407
43.8758 57.7179 0.0200113
42.1063 56.3394 2
40.4202 54.9393 3.97838
35.5732 65.4414 0.0143762
37.8361 63.2235 0.0160788
40.6222 61.6586 0.0173653
40.4437 58.2168 0.0209487
35.6068 63.2174 2
38.2498 60.3419 2
38.9248 56.5055 2
37.9994 55.2571 3.97837
36.9342 57.6405 3.97912
35.3633 60.927 3.98248
33.6294 63.3504 0.0159076
30.379 62.8684 0.0163646
32.1233 62.016 0.0173402
33.3459 61.5288 2
28.6812 62.2132 2
31.066 61.2324 2
29.4014 60.3007 3.98153
32.3551 59.7586 3.9816
28.0173 58.3855 3.98322
27.5656 59.6069 2
25.3741 58.6086 3.9825
22.7492 58.2596 3.98188
23.3971 60.3647 3.98355
23.787 59.099 2
25.0324 60.884 2
24.4312 62.7803 3.98417
26.8679 61.5105 0.0174882
26.2292 63.4883 2
25.548 65.4994 3.98643
28.0629 64.1563 0.0151871
27.464 66.19 2
26.8363 68.3355 3.98966
29.4073 66.7662 0.0126788
28.9063 68.9477 2
28.3699 71.2651 3.99378
31.0139 69.4219 0.0100569
30.6146 71.7802 2
30.1842 74.2788 4
32.8922 72.1489 0.00608399
32.6053 74.6792 2
35.0474 74.9194 0
31.7876 7.41347 3.98789
33.3464 4.92161 3.99056
33.7231 6.97354 2
35.2444 2.46175 3.9944
35.4344 4.68214 2
35.6205 6.71941 0.0114423
37.5 0 4
37.5141 2.38535 2
37.523 4.6121 0.009224
39.7885 2.47294 0.00556867
39.9526 0.0802889 2
42.3946 0.32156 0
42.8025 35.7455 3.989
44.8099 35.5062 2
40.8948 34.2144 3.95744
42.4667 34.1529 2
48.3658 37.7591 0.00269945
51.5174 35.5654 0.0290185
46.1875 35.1018 0.0814693
44.0319 33.7655 0.0261071
42.0881 33.033 0.0237271
48.5331 34.2454 2
45.2452 32.9803 2
42.8304 32.2746 2
40.9457 32.6668 2
46.4544 31.4873 3.99508
43.7791 31.1831 3.9215
41.2902 31.1275 3.97856
39.3021 32.3784 3.96677
35.6914 11.7653 3.98379
37.3098 10.6203 2
37.4577 8.52699 0.0131889
38.9759 10.1176 0.014146
33.0969 11.2066 3.98433
34.753 10.3699 2
35.8979 9.76445 0.0141052
30.4812 10.009 3.98561
32.3764 9.3608 2
34.1498 8.81452 0.0133792
50.1278 31.3826 0.0243104
49.3581 27.4575 0.0231874
49.4368 24.3801 0.0218427
47.1942 21.9154 0.0224544
44.8023 18.4489 0.0202102
42.1009 14.2957 0.0179226
38.3014 12.7246 0.0168216
36.581 12.9208 2
47.9071 29.5929 2
38.6802 14.7952 2
41.7503 17.826 2
47.1389 25.108 2
44.2933 21.3042 2
45.6526 27.8105 3.97356
43.8242 24.0385 3.98046
41.3446 20.7044 3.97956
35.7705 14.746 3.98228
38.681 17.5826 3.98062
41.0201 37.4967 3.94004
42.932 37.4993 2
45.0786 37.506 0.0397403
45.4007 55.9347 0.0204633
45.5668 52.5566 0.0159108
46.154 48.9394 0.0202193
42.8006 39.261 0.0121563
43.7971 43.8308 0.0795932
43.4178 46.2101 0.00235895
43.5262 48.4784 0.0502214
41.2995 43.9035 0.0175463
40.9023 40.8154 0.044476
39.3206 42.663 0.0385088
43.7415 54.4428 2
40.9764 39.1854 2
39.2362 40.8806 2
43.7488 50.5336 2
42.0284 47.7369 2
41.9483 45.2182 2
37.504 42.7759 2
39.5197 44.6622 2
41.8901 53.0074 3.98356
39.2306 39.1764 3.93848
37.5056 40.9283 3.94075
35.6889 42.6843 3.9646
40.9898 49.7522 3.99677
39.8249 46.0955 3.92359
37.4987 44.9305 3.96997
42.1063 56.3398 0.020258
40.4201 54.9391 2
38.7297 53.8654 3.98217
35.6068 63.217 0.0161467
38.2498 60.3417 0.0180708
38.9249 56.5044 0.0205143
35.3633 60.9272 2
36.9341 57.6406 2
37.9991 55.2569 2
36.3183 55.395 3.97865
34.4866 58.5357 3.98105
33.3458 61.5285 0.0176033
28.6812 62.2129 0.0167425
31.066 61.2322 0.017815
32.3552 59.7587 2
29.4014 60.3009 2
30.2932 57.8289 3.98152
28.0173 58.3857 2
26.9352 56.8369 3.98115
27.5656 59.6067 0.0181164
25.374 58.6089 2
23.8277 56.8248 3.98052
21.3237 57.4222 3.98311
21.9883 59.6395 3.98417
22.749 58.2599 2
22.7341 62.0322 3.98415
23.3971 60.365 2
23.7871 59.0987 0.0152565
25.0324 60.8837 0.0171273
24.4312 62.7806 2
23.6817 64.7175 3.98589
26.2292 63.488 0.0156999
25.548 65.4998 2
24.8088 67.5967 3.98945
27.464 66.1896 0.0130509
26.8362 68.3359 2
26.1652 70.6059 3.99366
28.9064 68.9473 0.0101646
28.3698 71.2653 2
27.7943 73.7221 4
30.6147 71.7799 0.00615415
30.1841 74.2794 2
32.6054 74.6784 0
29.8102 7.98654 3.98746
31.2516 5.32855 3.99031
31.7875 7.41316 2
32.9802 2.69982 3.99429
33.3464 4.92121 2
33.7232 6.97396 0.0117575
35.0474 0.080333 4
35.2444 2.46151 2
35.4344 4.6825 0.0092937
37.5 0 2
37.5141 2.38559 0.00552324
39.9526 0.0806499 0
40.9799 35.8192 3.94435
42.803 35.7458 2
44.8083 35.5043 0.0337363
28.5421 10.6842 3.98513
39.227 34.1604 3.93539
40.8957 34.2126 2
42.4633 34.1542 0.0160719
48.5351 34.2442 -0.00585135
45.2421 32.986 0.0786901
42.8214 32.2729 0.0325605
40.9404 32.6689 0.0261197
46.4615 31.4844 2
43.7793 31.1785 2
41.2974 31.1269 2
39.3057 32.3734 2
44.4615 29.6648 3.99144
41.9249 29.8113 3.92701
39.4991 30.4024 3.97193
37.4813 32.2869 3.9707
34.091 12.9232 3.98309
35.6913 11.7652 2
37.3099 10.6207 0.0148879
31.185 11.9749 3.98407
33.0969 11.2065 2
34.7531 10.3701 0.0148735
30.4812 10.0087 2
32.3765 9.36105 0.0139434
47.9111 29.5907 0.0294323
47.1395 25.1069 0.0216452
36.581 12.9209 0.0166217
44.2934 21.3042 0.0219269
41.7505 17.8261 0.0197616
38.6803 14.7954 0.0180503
35.7704 14.7463 2
45.6496 27.8158 2
38.6808 17.5829 2
41.344 20.704 2
43.8237 24.0435 2
33.6059 15.8633 3.98239
43.1237 26.5341 3.98055
40.9276 23.2774 3.98087
38.4224 20.3114 3.98067
35.8467 17.4958 3.98089
39.2389 37.4996 3.93709
41.0217 37.4957 2
42.9274 37.4993 0.00778741
43.741 54.4428 0.016152
43.7493 50.532 0.0101524
40.9758 39.1861 0.0567939
41.9404 45.2181 0.07882
42.0277 47.7351 -0.0273613
39.5124 44.6593 0.0232634
39.2362 40.8774 0.0692609
37.5033 42.7726 0.035935
41.8901 53.0082 2
39.2309 39.1779 2
37.5055 40.9324 2
40.9883 49.7516 2
35.6853 42.6864 2
39.8334 46.1007 2
37.5019 44.9231 2
39.829 51.9225 3.98793
37.5017 39.1969 3.93383
35.7778 40.8998 3.92688
34.0541 42.3838 3.97236
35.4792 44.6654 3.97037
38.7767 48.8181 4.0371
37.5058 46.4104 3.91638
40.4202 54.9393 0.0216185
38.7295 53.8639 2
36.7173 53.2172 3.98274
35.3633 60.927 0.0175218
36.9342 57.6405 0.0208755
37.9994 55.2571 0.0216307
34.4865 58.5357 2
36.3182 55.3945 2
33.2215 55.5155 3.98109
32.3551 59.7586 0.0184022
29.4014 60.3007 0.0184724
30.2933 57.829 2
28.6735 55.3209 3.97892
28.0173 58.3855 0.0167836
26.935 56.8373 2
25.2918 55.162 3.97943
21.7902 55.3726 3.98061
25.3741 58.6086 0.0174967
23.8274 56.825 2
20.2067 57.0542 3.98438
20.638 58.8 3.98439
21.3234 57.4224 2
21.1631 61.1842 3.98494
21.9882 59.6398 2
22.7492 58.2596 0.0181187
21.8945 63.8458 3.98565
22.7341 62.0325 2
23.3971 60.3647 0.0164541
24.4312 62.7803 0.0158297
23.6817 64.7179 2
22.8373 66.7406 3.98908
25.548 65.4994 0.013573
24.8087 67.5971 2
24.0097 69.8071 3.99355
26.8363 68.3355 0.0103371
26.1651 70.6061 2
25.446 73.0099 4
28.3699 71.2651 0.00622188
27.7943 73.7222 2
30.1842 74.2788 0
27.8201 8.6459 3.9872
29.1537 5.87411 3.99
29.8101 7.98618 2
30.7255 3.09687 3.99412
31.2515 5.32822 2
31.7876 7.41347 0.012107
32.6053 0.320823 4
32.9802 2.69957 2
33.3464 4.92161 0.00944374
35.0474 0.0802903 2
35.2444 2.46175 0.0055981
37.5 0 0
39.2349 35.8355 3.93929
40.9794 35.8178 2
42.8025 35.7455 0.0109955
28.5421 10.684 2
26.6211 11.3796 3.98481
29.2239 12.6317 3.98371
37.4943 34.1227 3.95193
39.2272 34.1566 2
40.8948 34.2144 0.0425568
46.4544 31.4873 0.00492028
43.7791 31.1831 0.0784986
41.2902 31.1275 0.0214443
39.3021 32.3784 0.0332288
44.4719 29.6574 2
41.9358 29.8071 2
39.5047 30.3996 2
37.4839 32.2795 2
42.3669 28.3563 3.99565
39.8179 28.9517 3.92237
37.4749 30.1374 3.96357
35.6654 32.373 3.96904
31.9125 14.4691 3.98257
34.0911 12.9232 2
35.6914 11.7653 0.016212
31.185 11.9747 2
33.0969 11.2066 0.0156667
30.4812 10.009 0.0143859
45.6526 27.8105 0.0264383
43.8242 24.0385 0.019536
35.7705 14.746 0.0177192
41.3446 20.7044 0.0204414
38.681 17.5826 0.0193822
33.6058 15.8637 2
35.8466 17.4963 2
43.1218 26.5405 2
38.422 20.3132 2
40.9274 23.2773 2
33.5477 17.3724 3.98213
40.4901 25.6245 3.98792
38.0842 22.8414 3.98767
35.5823 20.0644 3.98161
37.5024 37.5117 3.93455
39.2401 37.4994 2
41.0201 37.4967 0.05996
41.8901 53.0074 0.0164363
40.9898 49.7522 0.00323422
39.2306 39.1764 0.0615198
39.8249 46.0955 0.0764097
37.4987 44.9305 0.0300271
37.5056 40.9283 0.0592469
35.6889 42.6843 0.035397
39.8297 51.9215 2
37.5024 39.1988 2
35.7775 40.9031 2
38.771 48.8238 2
34.047 42.3839 2
35.4782 44.6639 2
37.5015 46.4218 2
37.6673 51.0028 3.97582
35.7774 39.2013 3.93433
34.1178 40.841 3.95501
32.907 42.0166 3.97611
33.692 43.9287 3.97686
35.1784 46.1095 3.92311
36.9032 48.4294 4.02676
38.7297 53.8654 0.017826
36.7171 53.2162 2
34.3478 52.4853 3.98289
34.4866 58.5357 0.0189516
36.3183 55.395 0.0213475
33.2215 55.515 2
30.4981 53.4159 3.98025
30.2932 57.8289 0.0184792
28.6731 55.3211 2
26.8538 53.4631 3.97784
26.9352 56.8369 0.0188528
25.2913 55.1623 2
23.543 53.509 3.97748
20.437 53.2589 3.97966
19.9158 55.8594 3.9835
21.7896 55.3727 2
23.8277 56.8248 0.0194782
19.4288 57.9147 3.98418
20.2064 57.0543 2
19.7014 60.2201 3.98479
20.6378 58.8002 2
21.3237 57.4222 0.016886
20.2059 62.8684 3.98598
21.1631 61.1845 2
21.9883 59.6395 0.0158335
20.9386 65.77 3.98871
21.8945 63.8461 2
22.7341 62.0322 0.0158498
23.6817 64.7175 0.0141112
22.8372 66.7409 2
21.9123 68.8744 3.99337
24.8088 67.5967 0.0105474
24.0095 69.8073 2
23.1494 72.1454 4
26.1652 70.6059 0.00633959
25.446 73.0099 2
27.7943 73.7221 0
25.8595 9.37402 3.98664
27.0686 6.53795 3.98974
27.8201 8.64563 2
28.4878 3.64268 3.99393
29.1536 5.87376 2
29.8102 7.98654 0.0125423
30.1841 0.720592 4
30.7254 3.09666 2
31.2516 5.32855 0.00968898
32.6053 0.320817 2
32.9802 2.69982 0.00571027
35.0474 0.080333 0
37.5029 35.8342 3.93759
39.2344 35.8334 2
40.9799 35.8192 0.0556456
24.7759 12.0627 3.98444
23.7493 14.3478 3.98322
28.5421 10.6842 0.0148721
26.6211 11.3794 2
29.2239 12.6316 2
27.2899 13.3648 3.98353
29.7784 14.1911 3.98294
35.7669 34.1513 3.93554
37.4947 34.117 2
39.227 34.1604 0.0646069
37.4813 32.2869 0.0292994
44.4615 29.6648 0.00856235
41.9249 29.8113 0.0729878
39.4991 30.4024 0.0280722
42.374 28.346 2
39.8272 28.9461 2
37.477 30.129 2
35.6665 32.3699 2
40.0479 27.5407 4.00585
37.4867 28.6543 3.9188
35.4495 30.4016 3.96942
34.0363 32.6661 3.97281
30.9235 16.8269 3.98209
31.9125 14.4692 2
34.091 12.9232 0.0169127
31.185 11.9749 0.0159299
43.1237 26.5341 0.019445
40.9276 23.2774 0.019126
33.6059 15.8633 0.0176056
35.8467 17.4958 0.0191094
38.4224 20.3114 0.019335
33.5475 17.373 2
35.5822 20.0649 2
40.4878 25.6318 2
38.0843 22.8456 2
32.8595 19.7808 3.97996
37.788 25.1378 4.00118
35.204 22.6243 3.97764
35.769 37.5203 3.93392
37.5039 37.511 2
39.2389 37.4996 0.0629056
39.829 51.9225 0.0120745
38.7767 48.8181 -0.0371042
37.5017 39.1969 0.0661704
37.5058 46.4104 0.0836209
35.4792 44.6654 0.0296257
35.7778 40.8998 0.0731223
34.0541 42.3838 0.0276422
37.668 51.01 2
35.7784 39.2031 2
34.1167 40.8417 2
36.8992 48.4336 2
32.9002 42.0172 2
33.6887 43.9255 2
35.1689 46.1134 2
35.4161 50.1548 3.97917
34.0399 39.2168 3.93961
32.5399 40.8928 3.98316
32.1669 42.7724 3.96482
33.0726 45.2432 3.92426
34.2812 47.5306 4.00469
36.7173 53.2172 0.0172552
34.3476 52.4861 2
31.9631 51.2117 3.97967
33.2215 55.5155 0.0189058
30.4978 53.4179 2
28.3879 51.6444 3.97864
28.6735 55.3209 0.0210849
26.8532 53.4643 2
25.036 51.8008 3.97568
25.2918 55.162 0.0205681
23.5424 53.509 2
21.9225 51.8467 3.97844
19.1626 51.6713 3.98005
18.8982 54.3387 3.98152
20.4367 53.2585 2
18.4344 56.7486 3.98462
19.9154 55.8594 2
21.7902 55.3726 0.0193918
18.362 59.1299 3.98443
19.4286 57.9148 2
20.2067 57.0542 0.0156154
18.6157 61.7777 3.98586
19.7014 60.2202 2
20.638 58.8 0.0156062
19.1271 64.6816 3.98859
20.2059 62.8686 2
21.1631 61.1842 0.0150564
19.8865 67.8112 3.99315
20.9385 65.7702 2
21.8945 63.8458 0.0143517
22.8373 66.7406 0.0109195
21.9122 68.8745 2
20.9142 71.1327 4
24.0097 69.8071 0.0064452
23.1494 72.1455 2
25.446 73.0099 0
23.095 12.7776 3.98413
23.9721 10.1606 3.98615
25.0226 7.30786 3.98945
25.8595 9.37375 2
26.2796 4.32678 3.99369
27.0684 6.53766 2
27.8201 8.6459 0.0127974
27.7943 1.27781 4
28.4877 3.64248 2
29.1537 5.87411 0.0100029
30.1841 0.720551 2
30.7255 3.09687 0.00588493
32.6053 0.320823 0
35.7733 35.8419 3.93671
37.5028 35.8309 2
39.2349 35.8355 0.0607122
24.776 12.0627 2
23.7495 14.3479 2
22.4774 15.0242 3.98335
25.3558 13.897 3.98335
24.0217 15.6099 3.98297
26.6211 11.3796 0.0151924
29.2239 12.6317 0.0162928
27.2899 13.3648 2
29.7786 14.1912 2
28.354 15.9659 3.98243
34.111 34.2128 3.95573
35.7672 34.149 2
37.4943 34.1227 0.0480723
35.6654 32.373 0.0309581
37.4749 30.1374 0.036432
42.3669 28.3563 0.00435473
39.8179 28.9517 0.0776252
40.049 27.5411 2
37.4861 28.6425 2
35.4495 30.398 2
34.0364 32.6637 2
37.6113 27.2423 4.00637
35.1346 28.9479 3.92286
33.6633 31.13 3.97751
32.8953 33.042 3.97915
30.2029 19.3305 3.98308
30.9235 16.8275 2
31.9125 14.4691 0.0174282
40.4901 25.6245 0.0120828
38.0842 22.8414 0.012331
33.5477 17.3724 0.0178671
35.5823 20.0644 0.0183856
32.8593 19.7819 2
35.2048 22.6248 2
37.7875 25.1467 2
32.3046 22.3976 3.98025
34.9347 25.1558 3.98205
33.9942 37.5266 3.93851
35.7708 37.5204 2
37.5024 37.5117 0.0654535
37.6673 51.0028 0.0241757
36.9032 48.4294 -0.0267645
35.7774 39.2013 0.0656659
35.1784 46.1095 0.0768936
33.692 43.9287 0.0231368
34.1178 40.841 0.0449895
32.907 42.0166 0.0238876
35.4162 50.1601 2
34.0407 39.2171 2
32.5364 40.8927 2
34.2733 47.5403 2
32.1577 42.7667 2
33.0612 45.2466 2
33.1693 49.1337 3.97984
32.2053 39.2932 3.98831
30.9619 41.2732 3.97291
31.2102 43.8573 3.92177
32.2162 46.473 3.98863
34.3478 52.4853 0.0171087
31.9627 51.2155 2
29.788 49.7374 3.97785
30.4981 53.4159 0.0197528
28.3873 51.6428 2
26.4425 50.037 3.97452
26.8538 53.4631 0.0221564
25.0353 51.7992 2
23.2826 50.2421 3.97985
23.543 53.509 0.0225173
21.9223 51.8458 2
20.4158 50.3558 3.98064
17.9478 50.3639 3.98188
17.8044 52.8234 3.98117
19.1628 51.6704 2
17.4197 55.3667 3.98322
18.8979 54.3384 2
20.437 53.2589 0.0203396
17.126 57.8941 3.98509
18.4341 56.7486 2
19.9158 55.8594 0.0164995
17.1321 60.563 3.98548
18.3619 59.1301 2
19.4288 57.9147 0.0158182
17.4068 63.4754 3.98844
18.6157 61.7779 2
19.7014 60.2201 0.0152146
17.9426 66.6201 3.99305
19.127 64.6819 2
20.2059 62.8684 0.0140199
18.75 69.9759 4
19.8863 67.8114 2
20.9386 65.77 0.0112852
21.9123 68.8744 0.00663053
20.9142 71.1327 2
23.1494 72.1454 0
21.5855 13.5978 3.98398
22.1902 11.0199 3.98563
23.0951 12.7777 2
23.0408 8.17307 3.98919
23.9722 10.1604 2
24.1173 5.14135 3.99352
25.0225 7.3076 2
25.8595 9.37402 0.01336
25.446 1.99014 4
26.2794 4.32662 2
27.0686 6.53795 0.0102576
27.7943 1.27778 2
28.4878 3.64268 0.00607149
30.1841 0.720592 0
34.0344 35.8367 3.94125
35.7735 35.8405 2
37.5029 35.8342 0.0624071
21.3017 15.8191 3.98352
24.7759 12.0627 0.0155626
23.7493 14.3478 0.0167758
25.356 13.8971 2
22.4776 15.0244 2
24.0219 15.6102 2
23.2603 16.2412 3.9828
25.377 16.078 3.98283
27.2899 13.3648 0.0164718
29.7784 14.1911 0.0170642
28.3542 15.9661 2
27.4343 18.7887 3.98271
32.5426 34.1701 3.98564
34.1101 34.2112 2
35.7669 34.1513 0.0644644
34.0363 32.6661 0.0271917
35.4495 30.4016 0.0305814
37.4867 28.6543 0.0812006
40.0479 27.5407 -0.00585445
37.6106 27.2166 2
32.8946 33.0431 2
35.1253 28.9399 2
33.6606 31.1285 2
35.0363 27.3457 4.00875
33.018 29.8171 3.92692
32.1472 32.283 3.97218
29.5647 21.9264 3.98625
30.203 19.3321 2
30.9235 16.8269 0.0179141
37.788 25.1378 -0.00117559
35.204 22.6243 0.0223556
32.8595 19.7808 0.0200425
32.3053 22.3997 2
34.9371 25.1665 2
31.6228 25.6137 3.98192
32.081 37.5316 3.99129
33.9958 37.526 2
35.769 37.5203 0.0660751
35.4161 50.1548 0.0208254
34.2812 47.5306 -0.00468941
34.0399 39.2168 0.0603882
33.0726 45.2432 0.0757424
32.1669 42.7724 0.0351828
32.5399 40.8928 0.0168355
33.1697 49.1213 2
32.2045 39.2928 2
30.9532 41.2717 2
32.1992 46.4831 2
31.2047 43.8595 2
31.0352 47.8886 3.98037
30.1909 39.5297 3.96605
29.7506 42.0485 3.92211
30.318 45.0605 3.98842
31.9631 51.2117 0.0203302
29.7882 49.7352 2
27.7758 48.2224 3.97659
28.3879 51.6444 0.021361
26.4423 50.0345 2
24.5675 48.5202 3.98193
25.036 51.8008 0.0243182
23.2826 50.2405 2
21.5854 48.8358 3.98295
21.9225 51.8467 0.0215636
20.4162 50.3543 2
18.9826 49.1289 3.98368
16.8548 49.3617 3.98395
16.7421 51.4372 3.98189
17.9482 50.3631 2
16.3681 53.8973 3.98247
17.8044 52.8228 2
19.1626 51.6713 0.019948
15.9652 56.4972 3.98455
17.4194 55.3666 2
18.8982 54.3387 0.018481
15.7444 59.2255 3.98567
17.1258 57.8942 2
18.4344 56.7486 0.0153777
15.7865 62.1472 3.98806
17.132 60.5633 2
18.362 59.1299 0.0155695
16.0889 65.3031 3.99301
17.4067 63.4757 2
18.6157 61.7777 0.0141372
16.6661 68.6801 4
17.9424 66.6202 2
19.1271 64.6816 0.0114134
18.75 69.9759 2
19.8865 67.8112 0.00685183
20.9142 71.1327 0
20.2167 14.5859 3.98394
21.5856 13.5978 2
20.5293 11.9898 3.98526
21.144 9.14268 3.9888
22.1902 11.0198 2
23.095 12.7776 0.015866
22.0164 6.08026 3.99334
23.0407 8.17283 2
23.9721 10.1606 0.0138511
23.1494 2.85457 4
24.1171 5.14122 2
25.0226 7.30786 0.0105477
25.446 1.99012 2
26.2796 4.32678 0.00630866
27.7943 1.27781 0
32.2089 35.7688 3.98904
34.0342 35.8353 2
35.7733 35.8419 0.0632851
21.3019 15.8192 2
20.2976 16.9511 3.98443
22.0929 16.6246 3.98327
25.3558 13.897 0.0166538
22.4774 15.0242 0.0166517
24.0217 15.6099 0.0170314
25.3773 16.0782 2
23.2607 16.2415 2
24.1984 18.4403 3.98197
27.0003 21.449 3.98053
28.354 15.9659 0.0175718
27.4348 18.7893 2
30.9684 33.7885 3.96883
32.5385 34.1699 2
34.111 34.2128 0.0442706
32.8953 33.042 0.0208483
33.6633 31.13 0.022491
35.1346 28.9479 0.0771434
37.6113 27.2423 -0.0063719
35.0288 27.3359 2
32.148 32.2869 2
33.0187 29.814 2
32.4504 28.0636 4.01171
31.1735 31.2058 3.92817
28.7446 24.391 3.98675
29.5651 21.9297 2
30.2029 19.3305 0.0169178
34.9347 25.1558 0.0179512
32.3046 22.3976 0.0197532
31.6247 25.6043 2
29.5448 27.2695 3.98208
29.9221 37.5309 3.96182
32.0811 37.5315 2
33.9942 37.5266 0.0614896
33.1693 49.1337 0.0201607
32.2162 46.473 0.0113719
32.2053 39.2932 0.011691
31.2102 43.8573 0.0782303
30.9619 41.2732 0.0270935
31.0381 47.8799 2
30.1875 39.5291 2
29.7464 42.0524 2
30.3028 45.0683 2
29.0398 46.4561 3.97374
28.808 39.9278 3.91625
28.503 43.2767 3.99284
29.788 49.7374 0.0221542
27.7766 48.2189 2
25.8277 46.7039 3.9831
26.4425 50.037 0.025477
24.5681 48.518 2
22.7135 47.1321 3.98867
23.2826 50.2421 0.0201537
21.5862 48.8336 2
19.9217 47.6579 3.98665
20.4158 50.3558 0.0193639
18.9832 49.1279 2
17.6256 48.2098 3.98526
16.1063 48.7108 3.98529
16.8553 49.3611 2
15.8187 50.1977 3.9832
15.3552 52.4413 3.98249
16.7423 51.4367 2
17.9478 50.3639 0.0181153
14.8544 54.999 3.98366
16.368 53.897 2
17.8044 52.8234 0.0188265
14.4524 57.7555 3.98557
15.9649 56.4973 2
17.4197 55.3667 0.0167789
14.264 60.7027 3.98767
15.7443 59.2258 2
17.126 57.8941 0.0149145
14.3328 63.8626 3.99287
15.7865 62.1476 2
17.1321 60.563 0.0145153
14.6715 67.2507 4
16.0888 65.3032 2
17.4068 63.4754 0.0115649
16.6661 68.6801 2
17.9426 66.6201 0.00695452
18.75 69.9759 0
18.9293 15.771 3.98438
20.2169 14.5859 2
18.9784 13.1 3.98513
21.5855 13.5978 0.0160224
20.5294 11.9897 2
19.3434 10.2304 3.98826
19.9911 7.14483 3.99317
21.1439 9.14249 2
22.1902 11.0199 0.0143742
20.9142 3.86727 4
22.0162 6.08016 2
23.0408 8.17307 0.0108143
23.1494 2.85451 2
24.1173 5.14135 0.00647815
25.446 1.99014 0
30.2035 35.5349 3.96878
32.2071 35.7683 2
34.0344 35.8367 0.0587497
21.3017 15.8191 0.0164831
22.0933 16.6248 2
20.2978 16.9511 2
19.235 18.3959 3.98425
21.776 17.8391 3.98357
25.377 16.078 0.0171742
23.2603 16.2412 0.0171989
24.199 18.441 2
22.2668 19.879 3.9831
24.5759 21.3101 3.98285
26.3741 23.7142 3.98345
27.0016 21.4505 2
27.4343 18.7887 0.0172937
29.7468 33.0104 3.92467
30.9599 33.7893 2
32.5426 34.1701 0.014355
32.1472 32.283 0.0278188
33.018 29.8171 0.0730768
35.0363 27.3457 -0.00875424
32.4386 28.0597 2
31.1811 31.2098 2
29.9791 29.5007 4.00344
27.7913 26.5424 3.97054
28.7452 24.3981 2
29.5647 21.9264 0.0137498
31.6228 25.6137 0.0180755
29.5406 27.2321 2
28.4783 37.5264 3.9202
29.9188 37.532 2
32.081 37.5316 0.00871328
31.0352 47.8886 0.0196296
30.318 45.0605 0.0115789
30.1909 39.5297 0.0339474
29.7506 42.0485 0.0778879
29.0432 46.4532 2
28.8058 39.9281 2
28.4933 43.2795 2
27.1069 44.8229 3.96989
26.5878 40.6682 4.00802
27.7758 48.2224 0.0234072
25.8296 46.7014 2
23.8552 45.2612 3.98576
24.5675 48.5202 0.0180741
22.715 47.1291 2
20.8441 45.9401 3.9884
21.5854 48.8358 0.0170515
19.9227 47.6567 2
18.2662 46.7699 3.98663
18.9826 49.1289 0.0163209
17.6263 48.2092 2
16.2941 47.7404 3.98507
16.1068 48.7103 2
15.1644 49.0405 3.9842
16.8548 49.3617 0.0160471
15.819 50.1972 2
14.4676 51.0082 3.98298
13.8145 53.4548 3.98328
15.3552 52.4409 2
16.7421 51.4372 0.0181076
13.246 56.1837 3.98498
14.8542 54.9988 2
16.3681 53.8973 0.017529
12.8458 59.1368 3.9874
14.4522 57.7557 2
15.9652 56.4972 0.0154545
12.678 62.3054 3.99254
14.264 60.703 2
15.7444 59.2255 0.0143276
12.7746 65.6939 4
14.3327 63.8627 2
15.7865 62.1472 0.0119439
14.6714 67.2507 2
16.0889 65.3031 0.00699169
16.6661 68.6801 0
17.6624 17.1447 3.98442
18.9295 15.771 2
17.509 14.3626 3.98522
20.2167 14.5859 0.0160587
18.9786 13.0998 2
17.6388 11.4488 3.98783
20.5293 11.9898 0.0147417
19.3434 10.2302 2
18.0513 8.33756 3.99291
18.75 5.0241 4
19.9909 7.14478 2
21.144 9.14268 0.0112034
20.9142 3.86727 2
22.0164 6.08026 0.00665633
23.1494 2.85457 0
28.8129 35.1287 3.92251
30.1996 35.5384 2
32.2089 35.7688 0.0109629
22.0929 16.6246 0.0167323
20.2976 16.9511 0.0155734
21.7765 17.839 2
19.2353 18.3959 2
17.968 19.9256 3.98429
20.8663 19.3643 3.98402
24.1984 18.4403 0.018029
22.2676 19.8789 2
24.5772 21.3112 2
22.3383 21.7022 3.98388
24.6605 23.1553 3.98302
25.3851 25.9417 3.9752
26.3755 23.7147 2
27.0003 21.449 0.0194729
28.1394 32.2763 3.9916
29.7433 33.0102 2
30.9684 33.7885 0.0311664
31.1735 31.2058 0.0718283
32.4504 28.0636 -0.0117092
29.9561 29.5023 2
26.8866 29.1416 3.97194
27.7871 26.5413 2
28.7446 24.391 0.0132533
29.5448 27.2695 0.0179236
26.7075 37.3737 3.99476
28.4769 37.5248 2
29.9221 37.5309 0.0381774
29.0398 46.4561 0.0262642
28.503 43.2767 0.00715626
28.808 39.9278 0.0837541
27.1111 44.8212 2
26.5895 40.669 2
25.0764 43.2168 3.97483
23.8355 39.446 3.96916
25.8277 46.7039 0.0169
23.8575 45.2604 2
21.8128 43.9922 3.98674
22.7135 47.1321 0.0113265
20.8459 45.9391 2
18.9209 45.0022 3.98468
19.9217 47.6579 0.0133495
18.2672 46.7694 2
16.5809 46.2385 3.98387
17.6256 48.2098 0.0147373
16.2947 47.74 2
14.8923 47.6935 3.98393
16.1063 48.7108 0.0147148
15.1648 49.0401 2
13.7646 49.5673 3.9834
15.8187 50.1977 0.0167981
14.4678 51.0079 2
12.8802 51.8924 3.98324
12.1323 54.5419 3.98449
13.8144 53.4546 2
15.3552 52.4413 0.0175076
11.5296 57.4691 3.98691
13.2459 56.1837 2
14.8544 54.999 0.0163424
11.1325 60.632 3.99226
12.8457 59.1371 2
14.4524 57.7555 0.0144342
10.9835 64.0165 4
12.6779 62.3055 2
14.264 60.7027 0.0123345
12.7745 65.694 2
14.3328 63.8626 0.00712672
14.6715 67.2507 0
16.3931 18.6367 3.98463
17.6626 17.1447 2
16.0991 15.7703 3.98527
18.9293 15.771 0.0156235
17.5091 14.3625 2
16.0199 12.8013 3.98755
18.9784 13.1 0.0148653
17.6388 11.4486 2
16.2024 9.66039 3.99269
19.3434 10.2304 0.0117372
18.0512 8.33753 2
16.6661 6.31991 4
18.75 5.02404 2
19.9911 7.14483 0.00682967
20.9142 3.86727 0
27.2135 34.746 3.98913
28.809 35.1276 2
30.2035 35.5349 0.0312233
16.6648 21.3587 3.98307
21.776 17.8391 0.0164325
19.235 18.3959 0.0157497
20.8668 19.3642 2
17.9684 19.9258 2
19.7061 21.5544 3.98554
22.2668 19.879 0.0169012
24.5759 21.3101 0.0171513
22.3394 21.7014 2
24.661 23.1558 2
22.7982 24.5862 3.97943
24.4385 28.5193 3.97427
25.3823 25.9402 2
26.3741 23.7142 0.0165478
25.9762 31.7177 3.97674
28.1309 32.2754 2
29.7468 33.0104 0.075334
29.9791 29.5007 -0.00344482
26.8922 29.1415 2
27.7913 26.5424 0.0294605
24.5213 36.8807 3.97904
26.7086 37.3767 2
28.4783 37.5264 0.0798012
27.1069 44.8229 0.0301141
26.5878 40.6682 -0.00801736
25.0789 43.2183 2
23.837 39.447 2
22.8569 41.8319 3.98136
21.5937 38.5099 3.98006
23.8552 45.2612 0.0142366
21.8148 43.993 2
19.6664 42.9162 3.98165
20.8441 45.9401 0.0115979
18.9223 45.0021 2
16.9062 44.4035 3.98191
18.2662 46.7699 0.0133696
16.5818 46.2382 2
14.8108 46.1118 3.98241
16.2941 47.7404 0.0149315
14.8928 47.6932 2
13.2703 48.0279 3.98299
15.1644 49.0405 0.0158022
13.7648 49.567 2
12.0984 50.2692 3.98325
14.4676 51.0082 0.0170185
12.8802 51.8922 2
11.1271 52.8497 3.98415
10.3194 55.7206 3.98646
12.1322 54.5418 2
13.8145 53.4548 0.0167206
9.69912 58.8551 3.99168
11.5295 57.4692 2
13.246 56.1837 0.0150176
9.30605 62.2254 4
11.1324 60.632 2
12.8458 59.1368 0.0125952
10.9835 64.0165 2
12.678 62.3054 0.00745619
12.7746 65.6939 0
15.1357 20.1692 3.98397
16.3934 18.6366 2
14.7437 17.2918 3.98508
17.6624 17.1447 0.0155781
16.0992 15.7702 2
14.4818 14.282 3.98731
17.509 14.3626 0.0147784
16.0199 12.8011 2
14.445 11.1113 3.99251
17.6388 11.4488 0.0121687
16.2023 9.66037 2
14.6715 7.74927 4
18.0513 8.33756 0.00708514
16.6661 6.31988 2
18.75 5.0241 0
25.1589 34.2885 3.9845
27.2137 34.7487 2
28.8129 35.1287 0.0774938
17.8338 22.3036 3.9861
15.5065 22.9011 3.9819
16.665 21.3586 2
20.8663 19.3643 0.0159781
17.968 19.9256 0.0157118
19.7068 21.5541 2
19.6251 24.3598 3.98242
22.3383 21.7022 0.0161225
24.6605 23.1553 0.0169843
22.7964 24.5848 2
21.8279 27.8073 3.97565
23.6016 31.1797 3.97622
24.4415 28.5225 2
25.3851 25.9417 0.0248024
25.9787 31.716 2
28.1394 32.2763 0.00840449
26.8866 29.1416 0.0280618
22.3032 36.2734 3.9851
24.5231 36.8811 2
26.7075 37.3737 0.00523734
25.0764 43.2168 0.0251733
23.8355 39.446 0.0308378
22.8585 41.8328 2
21.5949 38.5103 2
20.582 40.6492 3.97934
19.9597 37.7872 3.98261
21.8128 43.9922 0.0132579
19.6679 42.9163 2
17.2974 42.1196 3.98003
18.9209 45.0022 0.0153186
16.9074 44.4035 2
14.8099 44.2191 3.9804
16.5809 46.2385 0.0161297
14.8115 46.1116 2
12.9412 46.3126 3.9816
14.8923 47.6935 0.0160705
13.2707 48.0277 2
11.469 48.5645 3.9828
13.7646 49.5673 0.0166004
12.0985 50.269 2
10.2523 51.0918 3.98386
12.8802 51.8924 0.0167582
11.1271 52.8496 2
9.22778 53.8977 3.98612
8.38268 56.9882 3.99084
10.3193 55.7206 2
12.1323 54.5419 0.0155128
7.74927 60.3285 4
9.69905 58.8552 2
11.5296 57.4691 0.0130897
9.306 62.2255 2
11.1325 60.632 0.00773554
10.9835 64.0165 0
13.9457 21.735 3.98325
15.1359 20.1691 2
13.4431 18.8877 3.98485
16.3931 18.6367 0.0153656
14.7439 17.2917 2
13.0266 15.8738 3.98699
16.0991 15.7703 0.0147261
14.4819 14.2818 2
12.782 12.6842 3.99228
16.0199 12.8013 0.0124466
14.4449 11.1112 2
12.7746 9.30605 4
16.2024 9.66039 0.00731452
14.6715 7.74924 2
16.6661 6.31991 0
22.8964 33.7947 3.98416
25.1591 34.2885 2
27.2135 34.746 0.0108731
17.5958 24.0221 3.98313
17.8339 22.3032 2
14.2867 24.4332 3.98062
15.506 22.9005 2
16.6648 21.3587 0.0169259
18.9722 27.1826 3.97593
19.7061 21.5544 0.0144643
19.6239 24.3601 2
21.0566 30.6489 3.97736
22.7982 24.5862 0.0205733
21.83 27.8086 2
23.6035 31.1807 2
24.4385 28.5193 0.0257276
25.9762 31.7177 0.0232627
20.0737 35.9193 3.9843
22.3043 36.2742 2
24.5213 36.8807 0.0209608
22.8569 41.8319 0.0186433
21.5937 38.5099 0.0199381
20.5833 40.6494 2
19.9606 37.7876 2
17.962 39.0102 3.98086
19.6664 42.9162 0.018345
17.2986 42.1198 2
14.7547 41.9324 3.97938
16.9062 44.4035 0.0180931
14.8108 44.219 2
12.68 44.4064 3.98014
14.8108 46.1118 0.0175913
12.9417 46.3125 2
10.9701 46.7464 3.98166
13.2703 48.0279 0.0170111
11.4692 48.5644 2
9.51511 49.2501 3.98336
12.0984 50.2692 0.0167455
10.2523 51.0917 2
8.26041 52.0094 3.98576
11.1271 52.8497 0.0158454
9.2277 53.8977 2
7.19155 55.0381 3.99009
6.31991 58.3339 4
8.38261 56.9882 2
10.3194 55.7206 0.0135388
7.74924 60.3285 2
9.69912 58.8551 0.00831979
9.30605 62.2254 0
13.2074 25.3481 3.98407
12.8111 23.2645 3.98237
13.9454 21.7344 2
12.2271 20.5363 3.98458
15.1357 20.1692 0.0160311
13.4433 18.8875 2
11.6557 17.5543 3.98681
14.7437 17.2918 0.0149197
13.0267 15.8736 2
11.2193 14.3687 3.99196
14.4818 14.282 0.0126886
12.782 12.6842 2
10.9835 10.9835 4
14.445 11.1113 0.00749164
12.7745 9.306 2
14.6715 7.74927 0
20.4631 33.3841 3.98202
22.8968 33.795 2
25.1589 34.2885 0.0155021
15.8643 26.3836 3.97873
17.5951 24.0218 2
17.8338 22.3036 0.0138974
14.2868 24.4336 2
15.5065 22.9011 0.0181033
18.306 30.157 3.97681
18.9737 27.1835 2
19.6251 24.3598 0.0175821
21.0581 30.6492 2
21.8279 27.8073 0.0243496
23.6016 31.1797 0.0237831
17.5833 35.9622 3.98372
20.0747 35.9197 2
22.3032 36.2734 0.0149039
20.582 40.6492 0.0206579
19.9597 37.7872 0.0173926
17.9628 39.0105 2
14.257 39.1839 3.9812
17.2974 42.1196 0.0199698
14.7555 41.9325 2
12.3658 42.288 3.97997
14.8099 44.2191 0.0196029
12.6806 44.4064 2
10.5465 44.8132 3.98072
12.9412 46.3126 0.0183968
10.9704 46.7464 2
8.89738 47.3277 3.98244
11.469 48.5645 0.0172003
9.5152 49.2501 2
7.42717 50.0415 3.98519
10.2523 51.0918 0.0161352
8.26035 52.0094 2
6.13193 53.0119 3.98955
9.22778 53.8977 0.0138834
7.19148 55.0381 2
5.0241 56.25 4
6.31988 58.3339 2
8.38268 56.9882 0.00915639
7.74927 60.3285 0
13.4414 26.8007 3.97998
11.924 24.775 3.98169
13.2077 25.3482 2
11.129 22.2216 3.98384
12.8111 23.2645 2
13.9457 21.735 0.0167471
12.227 20.5358 2
10.3851 19.3092 3.9867
13.4431 18.8877 0.01515
11.6558 17.5541 2
9.76005 16.1514 3.99153
13.0266 15.8738 0.0130084
11.2193 14.3686 2
9.30607 12.7746 4
12.782 12.6842 0.0077209
10.9835 10.9835 2
12.7746 9.30605 0
17.7676 33.1015 3.98028
20.4636 33.3841 2
22.8964 33.7947 0.0158376
15.4474 29.6238 3.97825
15.8652 26.3843 2
17.5958 24.0221 0.0168696
14.2867 24.4332 0.0193777
18.3071 30.1573 2
18.9722 27.1826 0.0240684
21.0566 30.6489 0.0226387
14.8469 36.0179 3.98223
17.5841 35.9625 2
20.0737 35.9193 0.0157028
12.5578 37.8331 3.9808
17.962 39.0102 0.0191377
14.2576 39.1841 2
11.8776 40.1493 3.98126
14.7547 41.9324 0.0206156
12.3664 42.2882 2
10.1451 42.7866 3.98021
12.68 44.4064 0.0198551
10.547 44.8133 2
8.37506 45.3282 3.98175
10.9701 46.7464 0.0183389
8.89754 47.3277 2
6.71848 48.0054 3.98434
9.51511 49.2501 0.0166394
7.42715 50.0414 2
5.20847 50.9138 3.98916
8.26041 52.0094 0.01424
6.13185 53.0118 2
3.86727 54.0858 4
7.19155 55.0381 0.00990653
5.02404 56.25 2
6.31991 58.3339 0
12.895 29.0225 3.97779
11.3529 26.4769 3.98096
13.442 26.8006 2
10.1878 23.9574 3.98261
11.9241 24.7751 2
13.2074 25.3481 0.0159303
9.2366 21.129 3.98607
11.1289 22.2215 2
12.8111 23.2645 0.01763
12.2271 20.5363 0.0154159
10.385 19.3088 2
8.41582 18.022 3.99095
11.6557 17.5543 0.0131947
9.76009 16.1513 2
7.74928 14.6715 4
11.2193 14.3687 0.00804326
9.30602 12.7745 2
10.9835 10.9835 0
14.4368 32.8548 3.98002
17.768 33.1017 2
20.4631 33.3841 0.0179752
15.4481 29.624 2
15.8643 26.3836 0.0212678
18.306 30.157 0.0231895
12.845 36.2093 3.98073
14.8476 36.018 2
17.5833 35.9622 0.0162775
12.5583 37.8333 2
11.2359 38.3148 3.98033
14.257 39.1839 0.0188044
11.8781 40.1495 2
9.73002 40.7611 3.981
12.3658 42.288 0.0200312
10.1455 42.7868 2
7.92406 43.2758 3.98126
10.5465 44.8132 0.0192786
8.37534 45.3283 2
6.12466 45.9095 3.98373
8.89738 47.3277 0.017564
6.7185 48.0053 2
4.41993 48.7533 3.98892
7.42717 50.0415 0.0148143
5.2084 50.9136 2
2.85457 51.8506 4
6.13193 53.0119 0.0104495
3.86727 54.0858 2
5.0241 56.25 0
12.0349 31.2487 3.98028
10.7647 28.4067 3.97954
12.8954 29.0223 2
9.40238 25.7899 3.98192
11.3532 26.4769 2
13.4414 26.8007 0.0200157
8.22358 23.016 3.98484
10.1878 23.9573 2
11.924 24.775 0.0183089
7.19775 19.9724 3.9901
9.23654 21.1288 2
11.129 22.2216 0.0161576
10.3851 19.3092 0.0133045
8.41579 18.0218 2
6.31992 16.6661 4
9.76005 16.1514 0.00847477
7.74926 14.6714 2
9.30607 12.7746 0
12.0509 34.2914 3.97973
14.4372 32.8548 2
17.7676 33.1015 0.0197221
15.4474 29.6238 0.0217532
10.8008 36.6124 3.97984
12.8456 36.2094 2
14.8469 36.0179 0.0177653
12.5578 37.8331 0.0191953
11.2364 38.315 2
9.32529 38.8281 3.98087
11.8776 40.1493 0.018739
9.73041 40.7614 2
7.53531 41.2159 3.98141
10.1451 42.7866 0.0197944
7.92432 43.276 2
5.63661 43.7715 3.9836
8.37506 45.3282 0.0182535
6.12478 45.9093 2
3.76558 46.5384 3.98886
6.71848 48.0054 0.0156616
4.41988 48.753 2
1.99014 49.554 4
5.20847 50.9138 0.0108428
2.85451 51.8506 2
3.86727 54.0858 0
10.8989 32.9142 3.98047
10.0774 30.3759 3.98025
12.0353 31.2484 2
8.71027 27.7258 3.98109
10.765 28.4065 2
12.895 29.0225 0.0222141
7.34897 24.977 3.9841
9.40252 25.7898 2
11.3529 26.4769 0.0190416
6.11453 21.9974 3.98906
8.2235 23.0158 2
10.1878 23.9574 0.0173881
5.02411 18.75 4
7.19769 19.9723 2
9.2366 21.129 0.0139279
8.41582 18.022 0.00905473
6.3199 16.6661 2
7.74928 14.6715 0
10.4134 34.9988 3.98035
12.0513 34.2915 2
14.4368 32.8548 0.0199802
8.99922 36.9869 3.97968
10.8014 36.6125 2
12.845 36.2093 0.0192691
11.2359 38.3148 0.0196726
9.32569 38.8283 2
7.21627 39.1852 3.98146
9.73002 40.7611 0.0189951
7.53559 41.2161 2
5.2521 41.6165 3.98346
7.92406 43.2758 0.018738
5.63672 43.7714 2
3.24336 44.2831 3.98882
6.12466 45.9095 0.0162727
3.76559 46.538 2
1.27781 47.2057 4
4.41993 48.7533 0.0110794
1.99012 49.554 2
2.85457 51.8506 0
10.0673 33.8787 3.98035
9.3709 32.1501 3.98078
10.8992 32.9141 2
8.05951 29.6911 3.98106
10.0776 30.3757 2
12.0349 31.2487 0.0197213
6.59263 27.0047 3.98345
8.71041 27.7256 2
10.7647 28.4067 0.0204601
5.16959 24.0921 3.98848
7.34899 24.9769 2
9.40238 25.7899 0.0180834
3.86728 20.9142 4
6.11441 21.9975 2
8.22358 23.016 0.0151601
5.02406 18.75 2
7.19775 19.9724 0.00990125
6.31992 16.6661 0
8.82606 35.2791 3.98032
10.4138 34.9989 2
12.0509 34.2914 0.0202714
7.00139 37.2074 3.98054
8.99971 36.987 2
10.8008 36.6124 0.0201575
9.32529 38.8281 0.0191309
7.2166 39.1854 2
4.98021 39.4691 3.98325
7.53531 41.2159 0.018592
5.25224 41.6164 2
2.85398 42.0033 3.98859
5.63661 43.7715 0.016398
3.24336 44.2827 2
0.720592 44.8159 4
3.76558 46.5384 0.0111446
1.27778 47.2057 2
1.99014 49.554 0
8.86796 33.6954 3.98068
10.0677 33.8786 2
7.49713 31.6062 3.98138
9.37116 32.15 2
10.8989 32.9142 0.0195341
5.93788 29.0671 3.98317
8.05965 29.6909 2
10.0774 30.3759 0.0197516
4.35709 26.2462 3.98832
6.59266 27.0046 2
8.71027 27.7258 0.0189128
2.85458 23.1494 4
5.16948 24.0925 2
7.34897 24.977 0.0159013
3.86728 20.9142 2
6.11453 21.9974 0.0109433
5.02411 18.75 0
6.95197 35.3061 3.98068
8.82649 35.2791 2
10.4134 34.9988 0.0196509
4.831 37.3408 3.98279
7.00184 37.2075 2
8.99922 36.9869 0.0203249
7.21627 39.1852 0.0185398
4.98043 39.4692 2
2.6022 39.7148 3.98827
5.2521 41.6165 0.0165403
2.85401 42.0029 2
0.320823 42.3947 4
3.24336 44.2831 0.0111773
0.720551 44.8159 2
1.27781 47.2057 0
7.11153 33.4594 3.98119
8.86829 33.6953 2
10.0673 33.8787 0.0196499
5.40881 31.1321 3.9833
7.4973 31.6061 2
9.3709 32.1501 0.0192231
3.67884 28.443 3.98845
5.93793 29.0671 2
8.05951 29.6911 0.0189393
1.99015 25.446 4
4.35699 26.2468 2
6.59263 27.0047 0.0165482
2.85453 23.1494 2
5.16959 24.0921 0.0115245
3.86728 20.9142 0
4.8455 35.2518 3.98279
6.95237 35.3061 2
8.82606 35.2791 0.0196839
2.49378 37.4291 3.9883
4.83135 37.3409 2
7.00139 37.2074 0.0194593
4.98021 39.4691 0.0167522
2.60229 39.7144 2
0.080333 39.9526 4
2.85398 42.0033 0.0114149
0.320817 42.3947 2
0.720592 44.8159 0
5.0386 33.1897 3.98319
7.11181 33.4594 2
8.86796 33.6954 0.0193226
3.14325 30.6661 3.98862
5.4089 31.1323 2
7.49713 31.6062 0.0186236
1.27793 27.7943 4
3.67878 28.4438 2
5.93788 29.0671 0.0168269
1.99013 25.446 2
4.35709 26.2462 0.0116752
2.85458 23.1494 0
2.54598 35.1593 3.98834
4.84583 35.2521 2
6.95197 35.3061 0.0193151
0 37.5 4
2.49395 37.429 2
4.831 37.3408 0.0172087
2.6022 39.7148 0.0117329
0.0802903 39.9526 2
0.320823 42.3947 0
2.76346 32.9059 3.98849
5.03881 33.19 2
7.11153 33.4594 0.0188092
0.721173 30.1842 4
3.14323 30.6669 2
5.40881 31.1321 0.0166993
1.27779 27.7943 2
3.67884 28.443 0.0115513
1.99015 25.446 0
0.0806499 35.0474 4
2.54614 35.1598 2
4.8455 35.2518 0.0172137
0 37.5 2
2.49378 37.4291 0.0116976
0.080333 39.9526 0
0.32156 32.6054 4
2.76354 32.9066 2
5.0386 33.1897 0.0168119
0.72056 30.1841 2
3.14325 30.6661 0.0113831
1.27793 27.7943 0
0.0802889 35.0474 2
2.54598 35.1593 0.0116553
0 37.5 0
0.320817 32.6053 2
2.76346 32.9059 0.0115067
0.721173 30.1842 0
0.0806499 35.0474 0
0.32156 32.6054 0
CELLS 1910 17190
8 18 6 25 56 2 0 5 16
8 57 23 6 18 17 4 0 2
8 78 36 9 29 31 11 1 7
8 31 11 1 7 79 37 10 30
8 110 57 18 50 48 17 2 14
8 50 18 56 111 14 2 16 49
8 116 62 22 55 52 20 3 15
8 56 25 67 118 16 5 24 53
8 119 63 23 57 54 21 4 17
8 55 22 63 119 15 3 21 54
8 58 26 68 121 18 6 25 56
8 122 65 26 58 57 23 6 18
8 73 31 7 27 142 79 30 71
8 143 78 29 72 73 31 7 27
8 83 147 76 34 32 74 28 8
8 84 148 78 36 33 75 29 9
8 76 34 8 28 148 84 33 75
8 37 79 150 86 10 30 77 35
8 151 87 36 78 80 38 11 31
8 80 38 11 31 152 88 37 79
8 175 100 42 94 96 44 12 40
8 44 96 176 101 12 40 95 43
8 101 176 98 46 43 95 41 13
8 46 98 178 103 13 41 97 45
8 178 103 45 97 147 83 32 74
8 189 116 55 109 106 52 15 47
8 111 56 118 191 49 16 53 107
8 192 119 57 110 108 54 17 48
8 109 55 119 192 47 15 54 108
8 194 122 58 112 110 57 18 50
8 112 58 121 195 50 18 56 111
8 115 61 19 51 197 124 59 113
8 115 61 125 198 51 19 60 114
8 198 125 62 116 114 60 20 52
8 200 127 64 120 116 62 22 55
8 118 67 132 202 53 24 66 117
8 121 68 133 203 56 25 67 118
8 120 64 128 204 55 22 63 119
8 204 128 65 122 119 63 23 57
8 206 134 68 121 123 69 26 58
8 123 69 26 58 207 131 65 122
8 226 147 74 138 140 76 28 70
8 229 148 75 139 143 78 29 72
8 140 76 28 70 229 148 75 139
8 142 79 30 71 231 150 77 141
8 144 80 31 73 232 152 79 142
8 233 151 78 143 144 80 31 73
8 150 86 35 77 235 154 81 145
8 235 154 81 145 146 82 39 91
8 146 82 39 91 236 155 90 165
8 238 157 83 147 149 85 34 76
8 239 158 84 148 151 87 36 78
8 149 85 34 76 239 158 84 148
8 152 88 37 79 241 160 86 150
8 242 161 87 151 153 89 38 80
8 153 89 38 80 243 162 88 152
8 171 98 41 92 265 178 97 169
8 265 178 97 169 226 147 74 138
8 172 96 40 93 266 176 95 170
8 266 176 95 170 171 98 41 92
8 269 175 94 173 172 96 40 93
8 271 180 99 174 175 100 42 94
8 197 124 59 113 271 180 99 174
8 272 181 100 175 177 102 44 96
8 273 182 101 176 179 104 46 98
8 177 102 44 96 273 182 101 176
8 179 104 46 98 275 184 103 178
8 275 184 103 178 238 157 83 147
8 188 115 51 105 283 197 113 186
8 188 115 198 284 105 51 114 187
8 284 198 116 189 187 114 52 106
8 286 200 120 193 189 116 55 109
8 191 118 202 288 107 53 117 190
8 195 121 203 289 111 56 118 191
8 193 120 204 290 109 55 119 192
8 290 204 122 194 192 119 57 110
8 196 123 58 112 292 207 122 194
8 293 206 121 195 196 123 58 112
8 199 126 61 115 297 211 124 197
8 298 212 127 200 198 125 62 116
8 199 126 212 298 115 61 125 198
8 205 129 64 120 300 214 127 200
8 301 217 130 201 202 132 66 117
8 209 136 168 264 301 217 130 201
8 302 219 132 202 203 133 67 118
8 303 220 133 203 206 134 68 121
8 205 129 215 304 120 64 128 204
8 304 215 131 207 204 128 65 122
8 306 221 134 206 208 135 69 123
8 208 135 69 123 307 218 131 207
8 210 137 167 263 309 223 136 209
8 328 238 147 226 230 149 76 140
8 228 146 91 166 329 236 165 260
8 231 150 77 141 330 235 145 227
8 330 235 145 227 228 146 91 166
8 332 239 148 229 233 151 78 143
8 230 149 76 140 332 239 148 229
8 232 152 79 142 334 241 150 231
8 234 153 80 144 335 243 152 232
8 336 242 151 233 234 153 80 144
8 236 155 90 165 338 245 164 259
8 241 160 86 150 339 246 154 235
8 339 246 154 235 237 156 82 146
8 237 156 82 146 340 247 155 236
8 342 249 157 238 240 159 85 149
8 343 250 158 239 242 161 87 151
8 240 159 85 149 343 250 158 239
8 243 162 88 152 345 252 160 241
8 244 163 253 346 153 89 161 242
8 244 163 89 153 347 254 162 243
8 311 224 261 371 210 137 167 263
8 263 167 262 372 209 136 168 264
8 267 179 98 171 375 275 178 265
8 375 275 178 265 328 238 147 226
8 376 273 176 266 267 179 98 171
8 268 177 96 172 376 273 176 266
8 379 272 175 269 268 177 96 172
8 380 271 174 270 269 175 94 173
8 283 197 113 186 380 271 174 270
8 381 277 180 271 272 181 100 175
8 297 211 124 197 381 277 180 271
8 382 278 181 272 274 183 102 177
8 274 183 102 177 383 279 182 273
8 383 279 182 273 276 185 104 179
8 385 281 184 275 342 249 157 238
8 276 185 104 179 385 281 184 275
8 285 199 115 188 393 297 197 283
8 394 298 200 286 284 198 116 189
8 285 199 298 394 188 115 198 284
8 291 205 120 193 396 300 200 286
8 397 301 201 287 288 202 117 190
8 295 209 264 374 397 301 201 287
8 398 302 202 288 289 203 118 191
8 399 303 203 289 293 206 121 195
8 291 205 304 400 193 120 204 290
8 400 304 207 292 290 204 122 194
8 294 208 123 196 402 307 207 292
8 403 306 206 293 294 208 123 196
8 296 210 263 373 405 309 209 295
8 408 312 213 299 297 211 126 199
8 299 213 313 409 199 126 212 298
8 409 313 214 300 298 212 127 200
8 305 216 129 205 411 315 214 300
8 412 318 217 301 302 219 132 202
8 309 223 136 209 412 318 217 301
8 413 320 219 302 303 220 133 203
8 306 221 321 414 206 134 220 303
8 307 218 131 207 415 316 215 304
8 305 216 316 415 205 129 215 304
8 417 322 221 306 308 222 135 208
8 308 222 135 208 418 319 218 307
8 310 225 137 210 420 325 223 309
8 423 326 224 311 310 225 137 210
8 329 236 165 260 441 338 259 368
8 442 342 238 328 333 240 149 230
8 331 237 146 228 443 340 236 329
8 334 241 150 231 444 339 235 330
8 444 339 235 330 331 237 146 228
8 446 343 239 332 336 242 151 233
8 333 240 149 230 446 343 239 332
8 335 243 152 232 448 345 241 334
8 337 244 153 234 449 347 243 335
8 337 244 346 450 234 153 242 336
8 338 245 164 259 452 349 258 367
8 340 247 155 236 453 350 245 338
8 345 252 160 241 454 351 246 339
8 454 351 246 339 341 248 156 237
8 341 248 156 237 455 352 247 340
8 240 159 251 344 342 249 354 457
8 242 161 253 346 343 250 355 458
8 343 250 355 458 240 159 251 344
8 347 254 162 243 460 357 252 345
8 348 255 358 461 244 163 253 346
8 348 255 163 244 462 359 254 347
8 473 360 257 365 363 256 364 482
8 452 349 258 367 365 257 366 485
8 422 324 369 488 311 224 261 371
8 371 261 370 490 263 167 262 372
8 407 311 371 491 296 210 263 373
8 373 263 372 492 295 209 264 374
8 493 385 275 375 442 342 238 328
8 377 276 179 267 493 385 275 375
8 378 274 177 268 494 383 273 376
8 494 383 273 376 377 276 179 267
8 497 382 272 379 378 274 177 268
8 498 381 271 380 379 272 175 269
8 393 297 197 283 498 381 271 380
8 499 387 277 381 382 278 181 272
8 408 312 211 297 499 387 277 381
8 500 388 278 382 384 280 183 274
8 501 389 279 383 386 282 185 276
8 384 280 183 274 501 389 279 383
8 386 282 185 276 503 391 281 385
8 503 391 281 385 457 354 249 342
8 511 408 299 395 393 297 199 285
8 395 299 409 512 285 199 298 394
8 512 409 300 396 394 298 200 286
8 401 305 205 291 514 411 300 396
8 515 412 301 397 398 302 202 288
8 405 309 209 295 515 412 301 397
8 516 413 302 398 399 303 203 289
8 403 306 414 517 293 206 303 399
8 402 307 207 292 518 415 304 400
8 401 305 415 518 291 205 304 400
8 404 308 208 294 520 418 307 402
8 521 417 306 403 404 308 208 294
8 406 310 210 296 523 420 309 405
8 526 423 311 407 406 310 210 296
8 410 314 213 299 527 424 312 408
8 528 425 315 411 409 313 214 300
8 410 314 425 528 299 213 313 409
8 416 317 216 305 530 427 315 411
8 531 430 318 412 413 320 219 302
8 420 325 223 309 531 430 318 412
8 532 432 320 413 414 321 220 303
8 417 322 433 533 306 221 321 414
8 418 319 218 307 534 428 316 415
8 416 317 428 534 305 216 316 415
8 419 323 434 536 308 222 322 417
8 419 323 222 308 537 431 319 418
8 421 327 225 310 539 438 325 420
8 421 327 439 541 310 225 326 423
8 543 437 324 422 423 326 224 311
8 441 338 259 368 559 452 367 486
8 443 340 236 329 560 453 338 441
8 333 240 344 447 442 342 457 561
8 445 341 237 331 562 455 340 443
8 448 345 241 334 563 454 339 444
8 563 454 339 444 445 341 237 331
8 336 242 346 450 446 343 458 565
8 446 343 458 565 333 240 344 447
8 449 347 243 335 567 460 345 448
8 451 348 244 337 568 462 347 449
8 451 348 461 569 337 244 346 450
8 570 463 349 452 473 360 257 365
8 453 350 245 338 570 463 349 452
8 455 352 247 340 571 464 350 453
8 460 357 252 345 572 465 351 454
8 572 465 351 454 456 353 248 341
8 456 353 248 341 573 466 352 455
8 344 251 356 459 457 354 468 575
8 458 355 469 576 344 251 356 459
8 346 253 358 461 458 355 469 576
8 462 359 254 347 578 471 357 460
8 348 255 359 462 461 358 472 579
8 591 474 360 473 475 361 256 363
8 475 361 256 363 594 477 362 479
8 363 256 364 482 479 362 480 603
8 590 473 365 484 481 363 482 605
8 482 364 257 365 606 483 366 485
8 559 452 367 486 484 365 485 607
8 542 436 487 609 422 324 369 488
8 525 422 488 611 407 311 371 491
8 488 369 489 612 371 261 370 490
8 491 371 490 613 373 263 372 492
8 495 386 276 377 614 503 385 493
8 614 503 385 493 561 457 342 442
8 615 501 383 494 495 386 276 377
8 496 384 274 378 615 501 383 494
8 618 500 382 497 496 384 274 378
8 619 499 381 498 497 382 272 379
8 511 408 297 393 619 499 381 498
8 620 505 387 499 500 388 278 382
8 527 424 312 408 620 505 387 499
8 502 390 506 621 384 280 388 500
8 622 507 389 501 504 392 282 386
8 502 390 280 384 622 507 389 501
8 504 392 282 386 624 509 391 503
8 624 509 391 503 575 468 354 457
8 513 410 299 395 630 527 408 511
8 631 528 411 514 512 409 300 396
8 513 410 528 631 395 299 409 512
8 519 416 305 401 633 530 411 514
8 634 531 412 515 516 413 302 398
8 523 420 309 405 634 531 412 515
8 635 532 413 516 517 414 303 399
8 521 417 533 636 403 306 414 517
8 520 418 307 402 637 534 415 518
8 519 416 534 637 401 305 415 518
8 522 419 308 404 639 537 418 520
8 522 419 536 640 404 308 417 521
8 524 421 310 406 642 539 420 523
8 524 421 541 644 406 310 423 526
8 646 543 422 525 526 423 311 407
8 529 426 314 410 647 544 424 527
8 528 425 545 648 411 315 427 530
8 529 426 545 648 410 314 425 528
8 535 429 317 416 649 546 427 530
8 650 548 430 531 532 432 320 413
8 539 438 325 420 650 548 430 531
8 533 433 550 651 414 321 432 532
8 536 434 551 652 417 322 433 533
8 537 431 319 418 653 547 428 534
8 535 429 547 653 416 317 428 534
8 538 435 552 654 419 323 434 536
8 538 435 323 419 655 549 431 537
8 540 440 327 421 657 556 438 539
8 540 440 557 659 421 327 439 541
8 541 439 555 660 423 326 437 543
8 661 554 436 542 543 437 324 422
8 676 570 452 559 590 473 365 484
8 560 453 338 441 676 570 452 559
8 562 455 340 443 677 571 453 560
8 447 344 459 566 561 457 575 678
8 564 456 341 445 679 573 455 562
8 567 460 345 448 680 572 454 563
8 680 572 454 563 564 456 341 445
8 565 458 576 682 447 344 459 566
8 450 346 461 569 565 458 576 682
8 568 462 347 449 684 578 460 567
8 451 348 462 568 569 461 579 685
8 686 580 463 570 591 474 360 473
8 571 464 350 453 686 580 463 570
8 573 466 352 455 687 581 464 571
8 572 465 582 688 460 357 471 578
8 574 467 582 688 456 353 465 572
8 574 467 353 456 689 583 466 573
8 459 356 470 577 575 468 585 691
8 576 469 586 692 459 356 470 577
8 461 358 472 579 576 469 586 692
8 462 359 471 578 579 472 588 694
8 704 591 473 590 593 475 363 481
8 595 476 592 705 475 361 474 591
8 593 475 363 481 707 594 479 602
8 594 477 362 479 709 598 478 600
8 595 476 361 475 711 597 477 594
8 479 362 480 603 600 478 601 720
8 481 363 482 605 602 479 603 722
8 603 480 364 482 723 604 483 606
8 605 482 365 484 724 606 485 607
8 656 553 608 726 542 436 487 609
8 645 542 609 728 525 422 488 611
8 609 487 610 729 488 369 489 612
8 611 488 612 730 491 371 490 613
8 616 504 386 495 731 624 503 614
8 731 624 503 614 678 575 457 561
8 732 622 501 615 616 504 386 495
8 617 502 384 496 732 622 501 615
8 617 502 621 735 496 384 500 618
8 736 620 499 619 618 500 382 497
8 630 527 408 511 736 620 499 619
8 621 506 626 737 500 388 505 620
8 647 544 424 527 737 626 505 620
8 623 508 627 738 502 390 506 621
8 623 508 390 502 739 628 507 622
8 625 510 628 739 504 392 507 622
8 740 629 509 624 691 585 468 575
8 625 510 392 504 740 629 509 624
8 632 529 410 513 744 647 527 630
8 631 528 648 745 514 411 530 633
8 632 529 648 745 513 410 528 631
8 638 535 416 519 746 649 530 633
8 747 650 531 634 635 532 413 516
8 642 539 420 523 747 650 531 634
8 636 533 651 748 517 414 532 635
8 640 536 652 749 521 417 533 636
8 639 537 418 520 750 653 534 637
8 638 535 653 750 519 416 534 637
8 641 538 419 522 751 655 537 639
8 641 538 654 752 522 419 536 640
8 643 540 421 524 753 657 539 642
8 643 540 659 755 524 421 541 644
8 644 541 660 757 526 423 543 646
8 758 661 542 645 646 543 422 525
8 529 426 544 647 648 545 662 759
8 530 427 545 648 649 546 663 760
8 535 429 546 649 653 547 664 761
8 762 666 548 650 651 550 432 532
8 657 556 438 539 762 666 548 650
8 652 551 668 763 533 433 550 651
8 654 552 669 764 536 434 551 652
8 655 549 431 537 765 665 547 653
8 538 435 549 655 654 552 667 766
8 661 554 671 768 542 436 553 656
8 658 558 440 540 769 674 556 657
8 658 558 675 770 540 440 557 659
8 659 557 673 771 541 439 555 660
8 660 555 672 772 543 437 554 661
8 788 686 570 676 704 591 473 590
8 677 571 453 560 788 686 570 676
8 679 573 455 562 789 687 571 677
8 566 459 577 683 678 575 691 790
8 681 574 456 564 791 689 573 679
8 680 572 688 792 567 460 578 684
8 681 574 688 792 564 456 572 680
8 682 576 692 794 566 459 577 683
8 569 461 579 685 682 576 692 794
8 568 462 578 684 685 579 694 796
8 687 581 464 571 798 696 580 686
8 798 696 580 686 705 592 474 591
8 689 583 466 573 799 697 581 687
8 688 582 698 800 578 471 588 694
8 690 584 698 800 574 467 582 688
8 690 584 467 574 801 699 583 689
8 693 587 701 803 577 470 585 691
8 693 587 470 577 804 702 586 692
8 695 589 702 804 579 472 586 692
8 695 589 472 579 805 703 588 694
8 708 595 705 813 593 475 591 704
8 710 596 706 814 595 476 592 705
8 707 594 479 602 816 709 600 719
8 708 595 475 593 817 711 594 707
8 709 598 478 600 819 715 599 717
8 711 597 477 594 820 714 598 709
8 710 596 476 595 822 713 597 711
8 600 478 601 720 717 599 718 832
8 602 479 603 722 719 600 720 834
8 720 601 480 603 835 721 604 723
8 722 603 482 605 836 723 606 724
8 767 670 725 839 656 553 608 726
8 756 656 726 841 645 542 609 728
8 726 608 727 842 609 487 610 729
8 728 609 729 843 611 488 612 730
8 844 740 624 731 790 691 575 678
8 733 625 504 616 844 740 624 731
8 734 623 502 617 845 739 622 732
8 733 625 739 845 616 504 622 732
8 734 623 738 846 617 502 621 735
8 735 621 737 847 618 500 620 736
8 744 647 527 630 847 737 620 736
8 621 506 627 738 737 626 741 848
8 647 544 626 737 759 662 741 848
8 623 508 628 739 738 627 742 849
8 740 629 585 691 850 743 700 802
8 625 510 629 740 739 628 743 850
8 632 529 647 744 745 648 759 854
8 633 530 648 745 746 649 760 855
8 638 535 649 746 750 653 761 856
8 857 762 650 747 748 651 532 635
8 753 657 539 642 857 762 650 747
8 749 652 763 858 636 533 651 748
8 752 654 764 859 640 536 652 749
8 751 655 537 639 860 765 653 750
8 641 538 655 751 752 654 766 861
8 754 658 540 643 862 769 657 753
8 754 658 770 863 643 540 659 755
8 755 659 771 864 644 541 660 757
8 758 661 768 866 645 542 656 756
8 757 660 772 867 646 543 661 758
8 759 662 773 868 648 545 663 760
8 649 546 663 760 761 664 774 871
8 765 665 547 653 872 775 664 761
8 873 777 666 762 763 668 550 651
8 769 674 556 657 873 777 666 762
8 764 669 779 874 652 551 668 763
8 654 552 667 766 764 669 778 875
8 655 549 665 765 766 667 776 876
8 768 671 782 877 656 553 670 767
8 772 672 783 878 661 554 671 768
8 658 558 674 769 770 675 786 879
8 659 557 675 770 771 673 785 881
8 882 784 672 772 771 673 555 660
8 789 687 571 677 897 798 686 788
8 897 798 686 788 813 705 591 704
8 791 689 573 679 898 799 687 789
8 795 693 803 900 683 577 691 790
8 793 690 574 681 901 801 689 791
8 792 688 800 902 684 578 694 796
8 793 690 800 902 681 574 688 792
8 795 693 577 683 903 804 692 794
8 797 695 804 903 685 579 692 794
8 797 695 579 685 904 805 694 796
8 905 806 697 799 798 696 581 687
8 814 706 806 905 705 592 696 798
8 689 583 697 799 801 699 808 907
8 800 698 809 908 694 588 703 805
8 690 584 699 801 800 698 809 908
8 803 701 810 909 691 585 700 802
8 693 587 702 804 803 701 811 910
8 695 589 703 805 804 702 812 911
8 818 710 814 919 708 595 705 813
8 821 712 815 920 710 596 706 814
8 816 709 600 719 922 819 717 831
8 817 711 594 707 923 820 709 816
8 818 710 595 708 924 822 711 817
8 819 715 599 717 926 827 716 829
8 820 714 598 709 927 826 715 819
8 929 825 713 822 820 714 597 711
8 821 712 596 710 930 824 713 822
8 717 599 718 832 829 716 830 942
8 719 600 720 834 831 717 832 944
8 832 718 601 720 945 833 721 835
8 834 720 603 722 946 835 723 836
8 869 780 838 950 767 670 725 839
8 865 767 839 952 756 656 726 841
8 839 725 840 953 726 608 727 842
8 841 726 842 954 728 609 729 843
8 844 740 691 790 955 850 802 899
8 733 625 740 844 845 739 850 955
8 734 623 739 845 846 738 849 956
8 735 621 738 846 847 737 848 957
8 744 647 737 847 854 759 848 957
8 738 627 742 849 848 741 851 958
8 848 741 851 958 759 662 773 868
8 850 743 700 802 959 852 807 906
8 849 742 628 739 959 852 743 850
8 854 759 868 965 745 648 760 855
8 746 649 760 855 856 761 871 966
8 860 765 653 750 967 872 761 856
8 968 873 762 857 858 763 651 748
8 862 769 657 753 968 873 762 857
8 859 764 874 969 749 652 763 858
8 752 654 766 861 859 764 875 970
8 751 655 765 860 861 766 876 971
8 754 658 769 862 863 770 879 972
8 755 659 770 863 864 771 881 974
8 976 882 772 867 864 771 660 757
8 866 768 877 977 756 656 767 865
8 867 772 878 978 758 661 768 866
8 760 663 773 868 871 774 883 980
8 870 781 837 948 982 890 780 869
8 982 890 780 869 877 782 670 767
8 761 664 774 871 872 775 884 984
8 876 776 665 765 985 885 775 872
8 873 777 668 763 986 887 779 874
8 769 674 777 873 879 786 887 986
8 764 669 778 875 874 779 888 987
8 766 667 776 876 875 778 886 988
8 878 783 892 989 768 671 782 877
8 878 783 672 772 990 893 784 882
8 880 787 675 770 991 896 786 879
8 880 787 895 992 770 675 785 881
8 881 785 894 993 771 673 784 882
8 1006 905 799 898 897 798 687 789
8 919 814 905 1006 813 705 798 897
8 791 689 799 898 901 801 907 1007
8 900 803 909 1009 790 691 802 899
8 795 693 804 903 900 803 910 1010
8 902 800 908 1011 796 694 805 904
8 793 690 801 901 902 800 908 1011
8 797 695 805 904 903 804 911 1012
8 799 697 806 905 907 808 912 1013
8 920 815 912 1013 814 706 806 905
8 802 700 810 909 906 807 913 1014
8 801 699 808 907 908 809 914 1015
8 805 703 809 908 911 812 915 1016
8 803 701 811 910 909 810 916 1017
8 911 812 917 1018 804 702 811 910
8 925 821 920 1030 818 710 814 919
8 928 823 921 1031 821 712 815 920
8 922 819 717 831 1033 926 829 941
8 923 820 709 816 1034 927 819 922
8 1035 929 822 924 923 820 711 817
8 925 821 710 818 1036 930 822 924
8 1038 933 825 929 927 826 714 820
8 926 827 716 829 1039 935 828 939
8 927 826 715 819 1040 934 827 926
8 928 823 712 821 1041 931 824 930
8 1042 932 824 930 929 825 713 822
8 829 716 830 942 939 828 940 1058
8 831 717 832 944 941 829 942 1060
8 942 830 718 832 1061 943 833 945
8 944 832 720 834 1062 945 835 946
8 981 889 947 1064 870 781 837 948
8 948 837 949 1067 869 780 838 950
8 975 869 950 1069 865 767 839 952
8 950 838 951 1070 839 725 840 953
8 952 839 953 1071 841 726 842 954
8 955 850 802 899 1072 959 906 1008
8 956 849 739 845 1072 959 850 955
8 846 738 849 956 957 848 958 1073
8 957 848 958 1073 854 759 868 965
8 849 742 852 959 958 851 961 1076
8 960 853 961 1076 906 807 852 959
8 958 851 961 1076 868 773 883 980
8 960 853 807 906 1077 963 913 1014
8 855 760 868 965 966 871 980 1085
8 856 761 871 966 967 872 984 1086
8 971 876 765 860 1087 985 872 967
8 968 873 763 858 1088 986 874 969
8 862 769 873 968 972 879 986 1088
8 859 764 875 970 969 874 987 1089
8 861 766 876 971 970 875 988 1090
8 973 880 770 863 1091 991 879 972
8 973 880 992 1092 863 770 881 974
8 974 881 993 1093 864 771 882 976
8 979 870 948 1066 1094 982 869 975
8 1094 982 869 975 977 877 767 865
8 978 878 772 867 1095 990 882 976
8 978 878 989 1096 866 768 877 977
8 871 774 883 980 984 884 994 1099
8 983 891 999 1100 870 781 889 981
8 1101 1000 890 982 989 892 782 877
8 983 891 781 870 1101 1000 890 982
8 872 775 884 984 985 885 995 1103
8 876 776 885 985 988 886 996 1104
8 986 887 779 874 1105 998 888 987
8 879 786 887 986 991 896 998 1105
8 875 778 886 988 987 888 997 1106
8 990 893 1002 1107 878 783 892 989
8 1108 1003 893 990 993 894 784 882
8 880 787 896 991 992 895 1005 1109
8 993 894 785 881 1110 1004 895 992
8 898 799 905 1006 1007 907 1013 1120
8 1030 920 1013 1120 919 814 905 1006
8 901 801 907 1007 1011 908 1015 1121
8 899 802 909 1009 1008 906 1014 1122
8 900 803 910 1010 1009 909 1017 1123
8 1012 911 1018 1124 903 804 910 1010
8 904 805 908 1011 1012 911 1016 1125
8 1013 912 1020 1127 907 808 914 1015
8 1031 921 1020 1127 920 815 912 1013
8 1019 918 962 1075 1128 1021 913 1014
8 1128 1021 913 1014 1017 916 810 909
8 1015 914 1022 1129 908 809 915 1016
8 1016 915 1023 1130 911 812 917 1018
8 1018 917 1024 1131 910 811 916 1017
8 1037 928 1031 1148 925 821 920 1030
8 928 823 931 1041 1031 921 1032 1149
8 1033 926 829 941 1151 1039 939 1057
8 1034 927 819 922 1152 1040 926 1033
8 1153 1038 929 1035 1034 927 820 923
8 1154 1042 930 1036 1035 929 822 924
8 1037 928 821 925 1155 1041 930 1036
8 1039 935 828 939 1156 1047 938 1055
8 1157 1043 932 1042 1038 933 825 929
8 1038 933 826 927 1158 1045 934 1040
8 1040 934 827 926 1159 1046 935 1039
8 930 824 932 1042 1041 931 1044 1160
8 1051 936 1048 1165 1175 1052 937 1053
8 1156 1047 938 1055 1053 937 1054 1178
8 939 828 940 1058 1055 938 1056 1181
8 941 829 942 1060 1057 939 1058 1183
8 942 830 943 1061 1058 940 1059 1184
8 1060 942 832 944 1185 1061 945 1062
8 1082 964 1063 1188 981 889 947 1064
8 1097 981 1064 1190 979 870 948 1066
8 1064 947 1065 1191 948 837 949 1067
8 1066 948 1067 1193 975 869 950 1069
8 1067 949 1068 1194 950 838 951 1070
8 1069 950 1070 1195 952 839 953 1071
8 956 849 959 1072 1073 958 1076 1197
8 1074 960 1076 1197 1008 906 959 1072
8 1073 958 1076 1197 965 868 980 1085
8 1074 960 906 1008 1198 1077 1014 1122
8 1133 1026 1079 1199 1019 918 962 1075
8 1077 963 913 1014 1200 1080 962 1075
8 960 853 963 1077 1076 961 1078 1201
8 980 883 961 1076 1099 994 1078 1201
8 1210 1083 964 1082 1100 999 889 981
8 966 871 980 1085 1086 984 1099 1215
8 967 872 984 1086 1087 985 1103 1216
8 971 876 985 1087 1090 988 1104 1217
8 1088 986 874 969 1218 1105 987 1089
8 972 879 986 1088 1091 991 1105 1218
8 970 875 988 1090 1089 987 1106 1219
8 973 880 991 1091 1092 992 1109 1220
8 1093 993 881 974 1221 1110 992 1092
8 1222 1108 990 1095 1093 993 882 976
8 1223 1101 982 1094 1096 989 877 977
8 1098 983 870 979 1223 1101 982 1094
8 1095 990 1107 1224 978 878 989 1096
8 1098 983 1100 1225 979 870 981 1097
8 984 884 994 1099 1103 995 1111 1227
8 1102 1001 1115 1228 983 891 999 1100
8 1101 1000 892 989 1229 1116 1002 1107
8 1102 1001 891 983 1229 1116 1000 1101
8 985 885 995 1103 1104 996 1112 1230
8 988 886 996 1104 1106 997 1113 1231
8 1105 998 888 987 1232 1114 997 1106
8 991 896 998 1105 1109 1005 1114 1232
8 1108 1003 1117 1233 990 893 1002 1107
8 1108 1003 894 993 1233 1117 1004 1110
8 992 895 1005 1109 1110 1004 1118 1234
8 1120 1013 1127 1244 1007 907 1015 1121
8 1148 1031 1127 1244 1030 920 1013 1120
8 1121 1015 1129 1245 1011 908 1016 1125
8 1126 1019 1075 1196 1246 1128 1014 1122
8 1246 1128 1014 1122 1123 1017 909 1009
8 1124 1018 1131 1247 1010 910 1017 1123
8 1125 1016 1130 1248 1012 911 1018 1124
8 1127 1020 1137 1254 1015 914 1022 1129
8 1031 921 1032 1149 1127 1020 1137 1254
8 1134 1027 918 1019 1257 1140 1021 1128
8 1257 1140 1021 1128 1131 1024 916 1017
8 1129 1022 1141 1258 1016 915 1023 1130
8 1130 1023 1142 1259 1018 917 1024 1131
8 1261 1144 1025 1132 1133 1026 1079 1199
8 1255 1138 1025 1132 1135 1028 1144 1261
8 1133 1026 918 1019 1262 1145 1027 1134
8 1136 1029 1139 1256 1263 1146 1028 1135
8 1037 928 1041 1155 1148 1031 1149 1275
8 1041 931 1044 1160 1149 1032 1150 1276
8 1151 1039 939 1057 1278 1156 1055 1180
8 1152 1040 926 1033 1279 1159 1039 1151
8 1153 1038 927 1034 1280 1158 1040 1152
8 1281 1157 1042 1154 1153 1038 929 1035
8 1036 930 1042 1154 1155 1041 1160 1282
8 1283 1164 1046 1159 1156 1047 935 1039
8 1165 1048 1164 1283 1053 937 1047 1156
8 1157 1043 933 1038 1284 1161 1045 1158
8 1157 1043 1161 1284 1042 932 1044 1160
8 1040 934 1046 1159 1158 1045 1163 1285
8 1166 1049 1167 1292 1051 936 1048 1165
8 1166 1049 936 1051 1293 1168 1050 1172
8 1051 936 1052 1175 1172 1050 1173 1306
8 1174 1051 1165 1290 1308 1175 1053 1177
8 1053 937 1054 1178 1175 1052 1176 1309
8 1278 1156 1055 1180 1177 1053 1178 1311
8 1055 938 1056 1181 1178 1054 1179 1312
8 1057 939 1058 1183 1180 1055 1181 1314
8 1058 940 1059 1184 1181 1056 1182 1315
8 1060 942 1061 1185 1183 1058 1184 1316
8 1208 1081 1187 1321 1082 964 1063 1188
8 1209 1082 1188 1322 1097 981 1064 1190
8 1188 1063 1189 1323 1064 947 1065 1191
8 1190 1064 1191 1325 1066 948 1067 1193
8 1191 1065 1192 1326 1067 949 1068 1194
8 1067 1193 1069 950 1194 1327 1195 1070
8 1250 1133 1199 1330 1126 1019 1075 1196
8 1198 1077 1014 1122 1331 1200 1075 1196
8 1074 960 1077 1198 1197 1076 1201 1332
8 1085 980 1076 1197 1215 1099 1201 1332
8 1199 1079 1203 1333 1075 962 1080 1200
8 1132 1025 1119 1243 1199 1079 1203 1333
8 1201 1078 963 1077 1334 1202 1080 1200
8 1099 994 1078 1201 1227 1111 1202 1334
8 1343 1207 1081 1208 1210 1083 964 1082
8 1214 1084 1186 1319 1343 1207 1081 1208
8 1345 1210 1082 1209 1225 1100 981 1097
8 1346 1211 1083 1210 1228 1115 999 1100
8 1086 984 1099 1215 1216 1103 1227 1352
8 1087 985 1103 1216 1217 1104 1230 1353
8 1090 988 1104 1217 1219 1106 1231 1354
8 1218 1105 987 1089 1355 1232 1106 1219
8 1091 991 1105 1218 1220 1109 1232 1355
8 1092 992 1109 1220 1221 1110 1234 1356
8 1222 1108 1233 1357 1095 990 1107 1224
8 1222 1108 993 1093 1357 1233 1110 1221
8 1223 1101 989 1096 1358 1229 1107 1224
8 1226 1102 983 1098 1358 1229 1101 1223
8 1226 1102 1228 1359 1098 983 1100 1225
8 1103 995 1111 1227 1230 1112 1235 1360
8 1107 1002 1117 1233 1229 1116 1240 1362
8 1102 1001 1116 1229 1228 1115 1240 1362
8 1104 996 1112 1230 1231 1113 1236 1363
8 1364 1237 1114 1232 1231 1113 997 1106
8 1109 1005 1114 1232 1234 1118 1238 1365
8 1110 1004 1118 1234 1233 1117 1241 1366
8 1242 1374 1255 1138 1119 1243 1132 1025
8 1244 1127 1254 1376 1121 1015 1129 1245
8 1148 1031 1149 1275 1244 1127 1254 1376
8 1245 1129 1258 1377 1125 1016 1130 1248
8 1251 1134 1019 1126 1378 1257 1128 1246
8 1378 1257 1128 1246 1247 1131 1017 1123
8 1248 1130 1259 1379 1124 1018 1131 1247
8 1261 1381 1250 1133 1132 1249 1330 1199
8 1255 1380 1252 1135 1132 1249 1381 1261
8 1250 1133 1019 1126 1382 1262 1134 1251
8 1253 1136 1256 1385 1384 1263 1135 1252
8 1254 1137 1265 1387 1129 1022 1141 1258
8 1149 1032 1150 1276 1254 1137 1265 1387
8 1028 1135 1255 1138 1139 1256 1388 1266
8 1136 1029 1147 1264 1256 1139 1267 1389
8 1390 1268 1140 1257 1259 1142 1024 1131
8 1260 1143 1027 1134 1390 1268 1140 1257
8 1258 1141 1269 1391 1130 1023 1142 1259
8 1262 1145 1027 1134 1393 1271 1143 1260
8 1261 1144 1026 1133 1394 1272 1145 1262
8 1135 1028 1144 1261 1263 1146 1272 1394
8 1136 1029 1146 1263 1264 1147 1273 1395
8 1155 1041 1160 1282 1275 1149 1276 1405
8 1276 1150 1044 1160 1406 1277 1162 1286
8 1408 1283 1159 1279 1278 1156 1039 1151
8 1290 1165 1283 1408 1177 1053 1156 1278
8 1152 1040 1159 1279 1280 1158 1285 1409
8 1281 1157 1038 1153 1410 1284 1158 1280
8 1281 1157 1284 1410 1154 1042 1160 1282
8 1159 1046 1164 1283 1285 1163 1289 1412
8 1292 1167 1289 1412 1165 1048 1164 1283
8 1158 1045 1163 1285 1284 1161 1288 1413
8 1284 1161 1288 1413 1160 1044 1162 1286
8 1291 1166 1292 1418 1174 1051 1165 1290
8 1291 1166 1051 1174 1419 1293 1172 1305
8 1294 1169 1296 1421 1166 1049 1167 1292
8 1293 1168 1050 1172 1422 1295 1171 1303
8 1294 1169 1049 1166 1423 1297 1168 1293
8 1422 1295 1171 1303 1301 1170 1302 1435
8 1172 1050 1173 1306 1303 1171 1304 1438
8 1174 1051 1175 1308 1305 1172 1306 1440
8 1175 1052 1176 1309 1306 1173 1307 1441
8 1177 1053 1178 1311 1308 1175 1309 1443
8 1178 1054 1179 1312 1309 1176 1310 1444
8 1180 1055 1181 1314 1311 1178 1312 1446
8 1056 1181 1312 1179 1182 1315 1447 1313
8 1183 1058 1184 1316 1314 1181 1315 1448
8 1319 1186 1084 1214 1451 1317 1213 1350
8 1319 1186 1318 1453 1208 1081 1187 1321
8 1321 1187 1320 1456 1188 1063 1189 1323
8 1344 1208 1321 1457 1209 1082 1188 1322
8 1322 1188 1323 1458 1190 1064 1191 1325
8 1323 1189 1324 1459 1191 1065 1192 1326
8 1191 1325 1193 1067 1326 1460 1327 1194
8 1242 1374 1243 1119 1328 1462 1335 1204
8 1330 1199 1333 1465 1196 1075 1200 1331
8 1132 1249 1330 1199 1243 1375 1465 1333
8 1332 1201 1077 1198 1466 1334 1200 1331
8 1215 1099 1201 1332 1352 1227 1334 1466
8 1119 1243 1333 1203 1204 1335 1470 1338
8 1333 1203 1338 1470 1200 1080 1202 1334
8 1227 1111 1202 1334 1360 1235 1338 1470
8 1328 1462 1335 1204 1205 1336 1471 1339
8 1337 1206 1340 1472 1464 1329 1205 1336
8 1346 1211 1342 1479 1210 1083 1207 1343
8 1346 1211 1115 1228 1479 1342 1239 1361
8 1348 1212 1084 1214 1479 1342 1207 1343
8 1480 1343 1208 1344 1345 1210 1082 1209
8 1351 1214 1319 1454 1480 1343 1208 1344
8 1481 1346 1210 1345 1359 1228 1100 1225
8 1348 1212 1347 1483 1214 1084 1213 1350
8 1216 1103 1227 1352 1353 1230 1360 1488
8 1217 1104 1230 1353 1354 1231 1363 1489
8 1490 1364 1232 1355 1354 1231 1106 1219
8 1220 1109 1232 1355 1356 1234 1365 1491
8 1221 1110 1234 1356 1357 1233 1366 1492
8 1224 1107 1233 1357 1358 1229 1362 1493
8 1226 1102 1229 1358 1359 1228 1362 1493
8 1230 1112 1235 1360 1363 1236 1367 1496
8 1361 1239 1115 1228 1497 1371 1240 1362
8 1366 1241 1372 1498 1233 1117 1240 1362
8 1364 1237 1113 1231 1499 1368 1236 1363
8 1364 1237 1368 1499 1232 1114 1238 1365
8 1234 1118 1238 1365 1366 1241 1369 1500
8 1507 1373 1242 1374 1388 1266 1138 1255
8 1508 1374 1243 1375 1380 1255 1132 1249
8 1376 1254 1387 1509 1245 1129 1258 1377
8 1275 1149 1276 1405 1376 1254 1387 1509
8 1377 1258 1391 1510 1248 1130 1259 1379
8 1511 1390 1257 1378 1379 1259 1131 1247
8 1383 1260 1134 1251 1511 1390 1257 1378
8 1252 1135 1256 1385 1380 1255 1388 1512
8 1261 1381 1513 1394 1133 1250 1382 1262
8 1135 1252 1384 1263 1261 1381 1513 1394
8 1382 1262 1134 1251 1514 1393 1260 1383
8 1253 1136 1263 1384 1386 1264 1395 1516
8 1253 1136 1264 1386 1385 1256 1389 1517
8 1387 1265 1397 1519 1258 1141 1269 1391
8 1276 1150 1277 1406 1387 1265 1397 1519
8 1256 1139 1267 1389 1388 1266 1398 1520
8 1264 1147 1274 1396 1389 1267 1399 1521
8 1392 1270 1143 1260 1522 1400 1268 1390
8 1390 1268 1142 1259 1522 1400 1269 1391
8 1392 1270 1401 1523 1260 1143 1271 1393
8 1272 1394 1524 1402 1145 1262 1393 1271
8 1395 1273 1146 1263 1524 1402 1272 1394
8 1273 1395 1264 1147 1403 1526 1396 1274
8 1405 1276 1160 1282 1534 1406 1286 1411
8 1414 1287 1407 1535 1286 1162 1277 1406
8 1279 1159 1283 1408 1409 1285 1412 1537
8 1418 1292 1412 1537 1290 1165 1283 1408
8 1280 1158 1285 1409 1410 1284 1413 1538
8 1410 1284 1413 1538 1282 1160 1286 1411
8 1285 1163 1289 1412 1413 1288 1417 1540
8 1421 1296 1417 1540 1292 1167 1289 1412
8 1414 1287 1162 1286 1541 1416 1288 1413
8 1420 1294 1421 1545 1291 1166 1292 1418
8 1419 1293 1172 1305 1546 1422 1303 1437
8 1420 1294 1166 1291 1547 1423 1293 1419
8 1294 1169 1297 1423 1421 1296 1425 1548
8 1423 1297 1168 1293 1549 1424 1295 1422
8 1301 1170 1298 1427 1422 1295 1424 1549
8 1432 1300 1428 1554 1301 1170 1298 1427
8 1431 1299 1428 1554 1560 1430 1300 1432
8 1563 1433 1300 1432 1435 1302 1170 1301
8 1546 1422 1303 1437 1434 1301 1435 1565
8 1303 1171 1304 1438 1435 1302 1436 1566
8 1305 1172 1306 1440 1437 1303 1438 1568
8 1306 1173 1307 1441 1438 1304 1439 1569
8 1308 1175 1309 1443 1440 1306 1441 1571
8 1309 1176 1310 1444 1441 1307 1442 1572
8 1311 1178 1312 1446 1443 1309 1444 1574
8 1179 1312 1444 1310 1313 1447 1575 1445
8 1314 1181 1315 1448 1446 1312 1447 1576
8 1350 1213 1349 1486 1451 1317 1449 1579
8 1451 1317 1450 1581 1319 1186 1318 1453
8 1454 1319 1214 1351 1582 1451 1350 1487
8 1453 1318 1452 1584 1321 1187 1320 1456
8 1454 1319 1453 1585 1344 1208 1321 1457
8 1456 1320 1455 1586 1323 1189 1324 1459
8 1457 1321 1456 1587 1322 1188 1323 1458
8 1458 1323 1459 1588 1325 1191 1326 1460
8 1205 1336 1464 1329 1328 1462 1590 1461
8 1507 1373 1461 1590 1374 1242 1328 1462
8 1508 1374 1462 1591 1375 1243 1335 1467
8 1337 1206 1329 1464 1473 1341 1463 1594
8 1375 1243 1335 1467 1465 1333 1470 1596
8 1465 1333 1470 1596 1331 1200 1334 1466
8 1352 1227 1334 1466 1488 1360 1470 1596
8 1591 1462 1336 1468 1467 1335 1471 1597
8 1469 1337 1472 1598 1595 1464 1336 1468
8 1471 1339 1474 1600 1335 1204 1338 1470
8 1600 1474 1367 1496 1470 1338 1235 1360
8 1336 1205 1340 1472 1471 1339 1475 1601
8 1337 1206 1341 1473 1472 1340 1476 1602
8 1495 1370 1478 1609 1361 1239 1342 1479
8 1348 1212 1342 1479 1483 1347 1478 1609
8 1481 1346 1479 1610 1345 1210 1343 1480
8 1481 1346 1228 1359 1610 1479 1361 1494
8 1484 1348 1214 1351 1610 1479 1343 1480
8 1483 1347 1482 1612 1350 1213 1349 1486
8 1484 1348 1483 1613 1351 1214 1350 1487
8 1353 1230 1360 1488 1489 1363 1496 1616
8 1490 1364 1231 1354 1617 1499 1363 1489
8 1490 1364 1499 1617 1355 1232 1365 1491
8 1356 1234 1365 1491 1492 1366 1500 1619
8 1492 1366 1498 1620 1357 1233 1362 1493
8 1494 1361 1228 1359 1621 1497 1362 1493
8 1495 1370 1239 1361 1622 1504 1371 1497
8 1363 1236 1367 1496 1499 1368 1501 1623
8 1497 1371 1240 1362 1624 1505 1372 1498
8 1625 1503 1372 1498 1500 1369 1241 1366
8 1365 1238 1368 1499 1500 1369 1502 1626
8 1520 1398 1506 1633 1388 1266 1373 1507
8 1634 1507 1374 1508 1512 1388 1255 1380
8 1509 1387 1519 1635 1377 1258 1391 1510
8 1405 1276 1406 1534 1509 1387 1519 1635
8 1515 1392 1260 1383 1636 1522 1390 1511
8 1511 1390 1259 1379 1636 1522 1391 1510
8 1385 1256 1389 1517 1512 1388 1520 1637
8 1513 1394 1262 1382 1638 1524 1393 1514
8 1395 1516 1638 1524 1263 1384 1513 1394
8 1515 1392 1523 1639 1383 1260 1393 1514
8 1516 1395 1526 1640 1386 1264 1396 1518
8 1386 1264 1396 1518 1517 1389 1521 1641
8 1519 1397 1527 1643 1391 1269 1400 1522
8 1535 1407 1527 1643 1406 1277 1397 1519
8 1389 1267 1399 1521 1520 1398 1528 1644
8 1645 1529 1399 1521 1525 1404 1274 1396
8 1392 1270 1400 1522 1523 1401 1531 1646
8 1524 1402 1271 1393 1648 1532 1401 1523
8 1403 1526 1648 1532 1273 1395 1524 1402
8 1525 1404 1274 1396 1649 1533 1403 1526
8 1539 1414 1535 1657 1411 1286 1406 1534
8 1542 1415 1536 1658 1414 1287 1407 1535
8 1409 1285 1412 1537 1538 1413 1540 1660
8 1545 1421 1540 1660 1418 1292 1412 1537
8 1539 1414 1286 1411 1661 1541 1413 1538
8 1540 1417 1544 1663 1413 1288 1416 1541
8 1421 1296 1425 1548 1540 1417 1544 1663
8 1542 1415 1287 1414 1664 1543 1416 1541
8 1420 1294 1423 1547 1545 1421 1548 1666
8 1547 1423 1293 1419 1667 1549 1422 1546
8 1434 1301 1427 1553 1546 1422 1549 1667
8 1423 1297 1424 1549 1548 1425 1550 1668
8 1551 1426 1550 1668 1427 1298 1424 1549
8 1551 1426 1298 1427 1671 1552 1428 1554
8 1562 1432 1554 1674 1434 1301 1427 1553
8 1431 1299 1429 1558 1554 1428 1555 1675
8 1431 1299 1430 1560 1558 1429 1557 1680
8 1560 1430 1300 1432 1683 1559 1433 1563
8 1561 1431 1554 1674 1684 1560 1432 1562
8 1685 1563 1432 1562 1565 1435 1301 1434
8 1435 1302 1436 1566 1563 1433 1564 1686
8 1437 1303 1438 1568 1565 1435 1566 1688
8 1438 1304 1439 1569 1566 1436 1567 1689
8 1440 1306 1441 1571 1568 1438 1569 1691
8 1441 1307 1442 1572 1569 1439 1570 1692
8 1443 1309 1444 1574 1571 1441 1572 1694
8 1310 1444 1572 1442 1445 1575 1695 1573
8 1446 1312 1447 1576 1574 1444 1575 1696
8 1486 1349 1485 1614 1579 1449 1577 1699
8 1451 1317 1449 1579 1581 1450 1578 1701
8 1487 1350 1486 1615 1582 1451 1579 1702
8 1581 1450 1580 1704 1453 1318 1452 1584
8 1582 1451 1581 1705 1454 1319 1453 1585
8 1584 1452 1583 1706 1456 1320 1455 1586
8 1585 1453 1584 1707 1457 1321 1456 1587
8 1587 1456 1586 1708 1458 1323 1459 1588
8 1633 1506 1589 1710 1507 1373 1461 1590
8 1464 1329 1461 1590 1594 1463 1589 1710
8 1468 1336 1462 1591 1595 1464 1590 1711
8 1634 1507 1590 1711 1508 1374 1462 1591
8 1473 1341 1463 1594 1603 1477 1593 1716
8 1469 1337 1464 1595 1599 1473 1594 1717
8 1471 1597 1467 1335 1600 1718 1596 1470
8 1718 1600 1496 1616 1596 1470 1360 1488
8 1336 1468 1597 1471 1472 1598 1719 1601
8 1469 1337 1473 1599 1598 1472 1602 1720
8 1722 1604 1501 1623 1600 1474 1367 1496
8 1475 1601 1471 1339 1604 1722 1600 1474
8 1602 1476 1605 1723 1472 1340 1475 1601
8 1476 1602 1724 1606 1341 1473 1603 1477
8 1483 1347 1478 1609 1612 1482 1608 1731
8 1495 1370 1504 1622 1609 1478 1608 1731
8 1618 1495 1609 1732 1494 1361 1479 1610
8 1484 1348 1479 1610 1613 1483 1609 1732
8 1486 1349 1482 1612 1614 1485 1611 1733
8 1613 1483 1612 1734 1487 1350 1486 1615
8 1489 1363 1496 1616 1617 1499 1623 1736
8 1491 1365 1499 1617 1619 1500 1626 1737
8 1618 1495 1361 1494 1738 1622 1497 1621
8 1739 1625 1498 1620 1619 1500 1366 1492
8 1621 1497 1362 1493 1740 1624 1498 1620
8 1742 1631 1504 1622 1624 1505 1371 1497
8 1743 1628 1502 1626 1623 1501 1368 1499
8 1744 1630 1505 1624 1625 1503 1372 1498
8 1745 1629 1503 1625 1626 1502 1369 1500
8 1520 1398 1528 1644 1633 1506 1632 1751
8 1637 1520 1633 1752 1512 1388 1507 1634
8 1635 1519 1643 1753 1510 1391 1522 1636
8 1657 1535 1643 1753 1534 1406 1519 1635
8 1515 1392 1522 1636 1639 1523 1646 1754
8 1517 1389 1521 1641 1637 1520 1644 1755
8 1524 1638 1756 1648 1393 1514 1639 1523
8 1640 1526 1395 1516 1756 1648 1524 1638
8 1642 1525 1396 1518 1757 1649 1526 1640
8 1758 1645 1521 1641 1642 1525 1396 1518
8 1646 1531 1400 1522 1760 1650 1527 1643
8 1535 1407 1536 1658 1643 1527 1650 1760
8 1521 1399 1529 1645 1644 1528 1651 1761
8 1647 1530 1652 1762 1525 1404 1529 1645
8 1401 1523 1648 1532 1531 1646 1763 1655
8 1525 1404 1533 1649 1647 1530 1654 1765
8 1533 1649 1766 1656 1403 1526 1648 1532
8 1662 1542 1658 1774 1539 1414 1535 1657
8 1542 1415 1543 1664 1658 1536 1659 1775
8 1660 1540 1663 1777 1538 1413 1541 1661
8 1545 1421 1548 1666 1660 1540 1663 1777
8 1662 1542 1414 1539 1778 1664 1541 1661
8 1664 1543 1416 1541 1779 1665 1544 1663
8 1548 1425 1550 1668 1663 1544 1665 1779
8 1547 1423 1549 1667 1666 1548 1668 1781
8 1670 1551 1668 1781 1553 1427 1549 1667
8 1551 1426 1552 1671 1668 1550 1669 1782
8 1670 1551 1427 1553 1784 1671 1554 1674
8 1675 1555 1672 1785 1554 1428 1552 1671
8 1678 1556 1673 1789 1558 1429 1555 1675
8 1561 1431 1558 1681 1674 1554 1675 1790
8 1794 1677 1556 1678 1680 1557 1429 1558
8 1560 1430 1559 1683 1680 1557 1679 1797
8 1561 1431 1560 1684 1681 1558 1680 1798
8 1563 1433 1564 1686 1683 1559 1682 1800
8 1684 1560 1432 1562 1801 1683 1563 1685
8 1565 1435 1566 1688 1685 1563 1686 1802
8 1566 1436 1567 1689 1686 1564 1687 1803
8 1568 1438 1569 1691 1688 1566 1689 1805
8 1569 1439 1570 1692 1689 1567 1690 1806
8 1571 1441 1572 1694 1691 1569 1692 1808
8 1442 1572 1692 1570 1573 1695 1809 1693
8 1574 1444 1575 1696 1694 1572 1695 1810
8 1614 1485 1592 1712 1699 1577 1697 1813
8 1579 1449 1577 1699 1701 1578 1698 1815
8 1615 1486 1614 1735 1702 1579 1699 1816
8 1701 1578 1700 1818 1581 1450 1580 1704
8 1582 1451 1579 1702 1705 1581 1701 1819
8 1704 1580 1703 1820 1584 1452 1583 1706
8 1705 1581 1704 1821 1585 1453 1584 1707
8 1707 1584 1706 1822 1587 1456 1586 1708
8 1710 1589 1506 1633 1824 1709 1632 1751
8 1594 1463 1589 1710 1716 1593 1709 1824
8 1752 1633 1710 1825 1634 1507 1590 1711
8 1595 1464 1590 1711 1717 1594 1710 1825
8 1830 1714 1592 1712 1733 1611 1485 1614
8 1603 1477 1593 1716 1725 1607 1715 1834
8 1599 1473 1594 1717 1721 1603 1716 1835
8 1837 1722 1623 1736 1718 1600 1496 1616
8 1719 1601 1722 1837 1597 1471 1600 1718
8 1602 1720 1598 1472 1723 1838 1719 1601
8 1720 1602 1473 1599 1839 1724 1603 1721
8 1723 1605 1726 1840 1601 1475 1604 1722
8 1840 1726 1628 1743 1722 1604 1501 1623
8 1724 1606 1727 1841 1602 1476 1605 1723
8 1725 1607 1728 1842 1603 1477 1606 1724
8 1612 1482 1608 1731 1733 1611 1730 1849
8 1741 1627 1730 1849 1622 1504 1608 1731
8 1613 1483 1609 1732 1734 1612 1731 1850
8 1618 1495 1622 1738 1732 1609 1731 1850
8 1615 1486 1612 1734 1735 1614 1733 1851
8 1852 1743 1626 1737 1736 1623 1499 1617
8 1853 1745 1625 1739 1737 1626 1500 1619
8 1855 1742 1622 1738 1740 1624 1497 1621
8 1856 1744 1624 1740 1739 1625 1498 1620
8 1741 1627 1504 1622 1857 1746 1631 1742
8 1742 1631 1505 1624 1858 1749 1630 1744
8 1859 1747 1629 1745 1743 1628 1502 1626
8 1860 1748 1630 1744 1745 1629 1503 1625
8 1644 1528 1651 1761 1751 1632 1750 1865
8 1637 1520 1644 1755 1752 1633 1751 1866
8 1754 1646 1522 1636 1867 1760 1643 1753
8 1657 1535 1658 1774 1753 1643 1760 1867
8 1639 1523 1646 1754 1756 1648 1763 1868
8 1641 1521 1645 1758 1755 1644 1761 1869
8 1757 1649 1526 1640 1870 1766 1648 1756
8 1642 1525 1649 1757 1759 1647 1765 1871
8 1759 1647 1762 1872 1642 1525 1645 1758
8 1760 1650 1767 1874 1646 1531 1655 1763
8 1658 1536 1659 1775 1760 1650 1767 1874
8 1762 1652 1768 1875 1645 1529 1651 1761
8 1764 1653 1769 1876 1647 1530 1652 1762
8 1656 1766 1877 1773 1532 1648 1763 1655
8 1771 1879 1765 1654 1653 1764 1647 1530
8 1533 1649 1765 1654 1656 1766 1880 1772
8 1662 1542 1664 1778 1774 1658 1775 1887
8 1664 1543 1665 1779 1775 1659 1776 1888
8 1778 1664 1541 1661 1890 1779 1663 1777
8 1666 1548 1668 1781 1777 1663 1779 1890
8 1782 1669 1780 1891 1668 1550 1665 1779
8 1670 1551 1671 1784 1781 1668 1782 1893
8 1671 1552 1672 1785 1782 1669 1783 1894
8 1790 1675 1785 1896 1674 1554 1671 1784
8 1675 1555 1673 1789 1785 1672 1786 1897
8 1792 1676 1788 1903 1678 1556 1673 1789
8 1795 1678 1789 1904 1681 1558 1675 1790
8 1792 1676 1556 1678 1906 1791 1677 1794
8 1680 1557 1679 1797 1794 1677 1793 1909
8 1910 1794 1678 1795 1798 1680 1558 1681
8 1683 1559 1682 1800 1797 1679 1796 1912
8 1684 1560 1683 1801 1798 1680 1797 1913
8 1686 1564 1687 1803 1800 1682 1799 1915
8 1685 1563 1686 1802 1801 1683 1800 1916
8 1688 1566 1689 1805 1802 1686 1803 1917
8 1689 1567 1690 1806 1803 1687 1804 1918
8 1691 1569 1692 1808 1805 1689 1806 1920
8 1692 1570 1693 1809 1806 1690 1807 1921
8 1694 1572 1695 1810 1808 1692 1809 1922
8 1829 1713 1811 1926 1712 1592 1697 1813
8 1813 1697 1812 1928 1699 1577 1698 1815
8 1735 1614 1712 1828 1816 1699 1813 1929
8 1815 1698 1814 1931 1701 1578 1700 1818
8 1702 1579 1699 1816 1819 1701 1815 1932
8 1818 1700 1817 1933 1704 1580 1703 1820
8 1819 1701 1818 1934 1705 1581 1704 1821
8 1821 1704 1820 1935 1707 1584 1706 1822
8 1824 1709 1632 1751 1937 1823 1750 1865
8 1716 1593 1709 1824 1834 1715 1823 1937
8 1825 1710 1633 1752 1938 1824 1751 1866
8 1717 1594 1710 1825 1835 1716 1824 1938
8 1945 1830 1712 1828 1851 1733 1614 1735
8 1830 1714 1831 1946 1712 1592 1713 1829
8 1947 1832 1714 1830 1849 1730 1611 1733
8 1843 1729 1607 1725 1950 1833 1715 1834
8 1721 1603 1716 1835 1836 1725 1834 1951
8 1836 1725 1842 1953 1721 1603 1724 1839
8 1723 1838 1719 1601 1840 1954 1837 1722
8 1954 1840 1743 1852 1837 1722 1623 1736
8 1724 1839 1720 1602 1841 1955 1838 1723
8 1841 1727 1844 1956 1723 1605 1726 1840
8 1956 1844 1747 1859 1840 1726 1628 1743
8 1728 1842 1724 1606 1845 1957 1841 1727
8 1725 1607 1729 1843 1842 1728 1846 1958
8 1741 1627 1746 1857 1849 1730 1848 1965
8 1734 1612 1731 1850 1851 1733 1849 1966
8 1854 1741 1849 1966 1738 1622 1731 1850
8 1967 1859 1745 1853 1852 1743 1626 1737
8 1968 1860 1744 1856 1853 1745 1625 1739
8 1854 1741 1622 1738 1969 1857 1742 1855
8 1855 1742 1624 1740 1970 1858 1744 1856
8 1857 1746 1631 1742 1971 1861 1749 1858
8 1858 1749 1630 1744 1972 1863 1748 1860
8 1859 1747 1862 1973 1745 1629 1748 1860
8 1875 1768 1864 1977 1761 1651 1750 1865
8 1755 1644 1761 1869 1866 1751 1865 1978
8 1867 1760 1874 1979 1754 1646 1763 1868
8 1774 1658 1775 1887 1867 1760 1874 1979
8 1870 1766 1648 1756 1980 1877 1763 1868
8 1872 1762 1875 1981 1758 1645 1761 1869
8 1757 1649 1766 1870 1871 1765 1880 1982
8 1983 1879 1764 1873 1871 1765 1647 1759
8 1873 1764 1876 1984 1759 1647 1762 1872
8 1877 1773 1655 1763 1986 1881 1767 1874
8 1775 1659 1776 1888 1874 1767 1881 1986
8 1876 1769 1882 1987 1762 1652 1768 1875
8 1878 1770 1883 1988 1764 1653 1769 1876
8 1880 1772 1656 1766 1989 1886 1773 1877
8 1878 1770 1653 1764 1990 1884 1771 1879
8 1765 1654 1772 1880 1879 1771 1885 1991
8 1778 1664 1779 1890 1887 1775 1888 1997
8 1998 1889 1776 1888 1891 1780 1665 1779
8 1893 1782 1891 2000 1781 1668 1779 1890
8 1894 1783 1892 2001 1782 1669 1780 1891
8 1784 1671 1785 1896 1893 1782 1894 2003
8 1897 1786 1895 2004 1785 1672 1783 1894
8 1790 1675 1789 1904 1896 1785 1897 2006
8 1901 1787 1898 2007 1789 1673 1786 1897
8 1903 1788 1900 2013 1789 1673 1787 1901
8 1792 1676 1791 1906 1903 1788 1902 2016
8 1907 1792 1903 2017 1795 1678 1789 1904
8 1906 1791 1677 1794 2019 1905 1793 1909
8 1907 1792 1678 1795 2020 1906 1794 1910
8 1797 1679 1796 1912 1909 1793 1908 2022
8 1798 1680 1797 1913 1910 1794 1909 2023
8 1800 1682 1799 1915 1912 1796 1911 2025
8 1801 1683 1800 1916 1913 1797 1912 2026
8 1803 1687 1804 1918 1915 1799 1914 2028
8 1802 1686 1803 1917 1916 1800 1915 2029
8 1805 1689 1806 1920 1917 1803 1918 2030
8 1806 1690 1807 1921 1918 1804 1919 2031
8 1808 1692 1809 1922 1920 1806 1921 2032
8 1939 1826 1924 2037 1829 1713 1811 1926
8 1926 1811 1925 2039 1813 1697 1812 1928
8 1944 1829 1926 2040 1828 1712 1813 1929
8 1928 1812 1927 2042 1815 1698 1814 1931
8 1929 1813 1928 2043 1816 1699 1815 1932
8 1931 1814 1930 2044 1818 1700 1817 1933
8 1932 1815 1931 2045 1819 1701 1818 1934
8 1934 1818 1933 2046 1821 1704 1820 1935
8 2048 1936 1823 1937 1977 1864 1750 1865
8 1950 1833 1715 1834 2048 1936 1823 1937
8 1938 1824 1751 1866 2049 1937 1865 1978
8 1835 1716 1824 1938 1951 1834 1937 2049
8 1939 1826 1713 1829 2053 1942 1831 1946
8 1940 1827 1923 2035 2053 1942 1826 1939
8 1945 1830 1946 2058 1828 1712 1829 1944
8 2059 1947 1830 1945 1966 1849 1733 1851
8 1947 1832 1730 1849 2060 1948 1848 1965
8 1947 1832 1948 2060 1830 1714 1831 1946
8 1959 1847 1729 1843 2063 1949 1833 1950
8 1952 1843 1725 1836 2064 1950 1834 1951
8 1836 1725 1843 1952 1953 1842 1958 2066
8 1953 1842 1957 2067 1839 1724 1841 1955
8 1841 1955 1838 1723 1956 2068 1954 1840
8 2068 1956 1859 1967 1954 1840 1743 1852
8 1956 1844 1960 2069 1859 1747 1862 1973
8 1845 1957 1841 1727 1960 2069 1956 1844
8 1728 1842 1957 1845 1846 1958 2071 1961
8 1962 2072 1959 1847 1846 1958 1843 1729
8 1971 1861 1964 2077 1857 1746 1848 1965
8 1854 1741 1857 1969 1966 1849 1965 2078
8 1967 1859 1973 2079 1853 1745 1860 1968
8 1970 1858 1744 1856 2080 1972 1860 1968
8 1969 1857 1742 1855 2081 1971 1858 1970
8 1971 1861 1749 1858 2082 1974 1863 1972
8 1973 1862 1975 2083 1860 1748 1863 1972
8 1987 1882 1976 2086 1875 1768 1864 1977
8 1981 1875 1977 2087 1869 1761 1865 1978
8 1980 1877 1763 1868 2088 1986 1874 1979
8 1887 1775 1888 1997 1979 1874 1986 2088
8 1880 1982 2089 1989 1766 1870 1980 1877
8 1984 1876 1987 2090 1872 1762 1875 1981
8 1765 1871 1983 1879 1880 1982 2091 1991
8 1985 1878 1764 1873 2092 1990 1879 1983
8 1985 1878 1988 2093 1873 1764 1876 1984
8 2094 1992 1881 1986 1998 1889 1776 1888
8 1986 1881 1992 2094 1877 1773 1886 1989
8 1988 1883 1993 2095 1876 1769 1882 1987
8 1878 1770 1884 1990 1988 1883 1994 2096
8 1991 1885 1772 1880 2097 1996 1886 1989
8 1879 1771 1885 1991 1990 1884 1995 2098
8 2103 1998 1888 1997 2000 1891 1779 1890
8 2104 1999 1889 1998 2001 1892 1780 1891
8 2003 1894 2001 2106 1893 1782 1891 2000
8 2004 1895 2002 2107 1894 1783 1892 2001
8 2006 1897 2004 2109 1896 1785 1894 2003
8 2007 1898 2005 2110 1897 1786 1895 2004
8 2014 1901 2007 2112 1904 1789 1897 2006
8 2011 1899 2008 2113 1901 1787 1898 2007
8 2119 2010 1899 2011 2013 1900 1787 1901
8 2016 1902 2012 2122 1903 1788 1900 2013
8 2017 1903 2013 2123 1904 1789 1901 2014
8 1906 1791 1905 2019 2016 1902 2015 2125
8 1907 1792 1906 2020 2017 1903 2016 2126
8 1909 1793 1908 2022 2019 1905 2018 2128
8 2020 1906 1794 1910 2129 2019 1909 2023
8 1912 1796 1911 2025 2022 1908 2021 2131
8 1913 1797 1912 2026 2023 1909 2022 2132
8 1915 1799 1914 2028 2025 1911 2024 2134
8 1916 1800 1915 2029 2026 1912 2025 2135
8 1918 1804 1919 2031 2028 1914 2027 2136
8 1917 1803 1918 2030 2029 1915 2028 2137
8 1920 1806 1921 2032 2030 1918 2031 2138
8 1940 1827 1941 2054 2035 1923 2033 2140
8 2035 1923 2034 2143 1939 1826 1924 2037
8 2037 1924 2036 2146 1926 1811 1925 2039
8 2051 1939 2037 2147 1944 1829 1926 2040
8 2039 1925 2038 2149 1928 1812 1927 2042
8 2040 1926 2039 2150 1929 1813 1928 2043
8 2042 1927 2041 2151 1931 1814 1930 2044
8 2043 1928 2042 2152 1932 1815 1931 2045
8 2045 1931 2044 2153 1934 1818 1933 2046
8 2155 2047 1936 2048 2086 1976 1864 1977
8 2063 1949 1833 1950 2155 2047 1936 2048
8 2156 2048 1937 2049 2087 1977 1865 1978
8 2064 1950 1834 1951 2156 2048 1937 2049
8 2051 1939 1829 1944 2160 2053 1946 2058
8 2052 1940 2035 2144 2160 2053 1939 2051
8 2053 1942 1831 1946 2163 2057 1948 2060
8 2055 1943 1827 1940 2163 2057 1942 2053
8 2055 1943 2056 2164 1940 1827 1941 2054
8 2059 1947 1849 1966 2167 2060 1965 2078
8 2059 1947 2060 2167 1945 1830 1946 2058
8 2077 1964 2061 2168 1965 1848 1948 2060
8 2070 1963 1847 1959 2170 2062 1949 2063
8 2065 1959 1843 1952 2171 2063 1950 2064
8 2173 2072 1958 2066 2065 1959 1843 1952
8 1953 1842 1958 2066 2067 1957 2071 2174
8 2068 1956 2069 2175 1967 1859 1973 2079
8 2067 1957 2069 2175 1955 1841 1956 2068
8 1845 1957 2069 1960 1961 2071 2176 2073
8 2069 1960 2073 2176 1973 1862 1975 2083
8 2070 1963 2075 2177 1959 1847 1962 2072
8 1846 1958 2071 1961 1962 2072 2178 2074
8 2077 1964 1861 1971 2182 2076 1974 2082
8 2081 1971 2077 2183 1969 1857 1965 2078
8 2079 1973 2083 2184 1968 1860 1972 2080
8 2081 1971 1858 1970 2185 2082 1972 2080
8 2083 1975 2084 2186 1972 1863 1974 2082
8 2086 1976 1882 1987 2189 2085 1993 2095
8 2090 1987 2086 2190 1981 1875 1977 2087
8 2191 2094 1986 2088 2103 1998 1888 1997
8 2088 1986 2094 2191 1980 1877 1989 2089
8 1991 2091 2192 2097 1880 1982 2089 1989
8 2093 1988 2095 2193 1984 1876 1987 2090
8 1879 1983 2092 1990 1991 2091 2194 2098
8 1985 1878 1990 2092 2093 1988 2096 2195
8 2097 1996 1886 1989 2196 2099 1992 2094
8 2196 2099 1992 2094 2104 1999 1889 1998
8 1994 2096 1988 1883 2100 2197 2095 1993
8 2096 1994 1884 1990 2198 2101 1995 2098
8 1995 2098 2199 2102 1885 1991 2097 1996
8 2203 2104 1998 2103 2106 2001 1891 2000
8 2107 2002 2105 2204 2001 1892 1999 2104
8 2109 2004 2107 2206 2003 1894 2001 2106
8 2110 2005 2108 2207 2004 1895 2002 2107
8 2112 2007 2110 2209 2006 1897 2004 2109
8 2113 2008 2111 2210 2007 1898 2005 2110
8 2120 2011 2113 2212 2014 1901 2007 2112
8 2117 2009 2114 2213 2011 1899 2008 2113
8 2219 2116 2009 2117 2119 2010 1899 2011
8 2222 2118 2010 2119 2122 2012 1900 2013
8 2223 2119 2011 2120 2123 2013 1901 2014
8 2016 1902 2015 2125 2122 2012 2121 2225
8 2126 2016 2122 2226 2017 1903 2013 2123
8 2019 1905 2018 2128 2125 2015 2124 2228
8 2020 1906 2019 2129 2126 2016 2125 2229
8 2022 1908 2021 2131 2128 2018 2127 2231
8 2023 1909 2022 2132 2129 2019 2128 2232
8 2025 1911 2024 2134 2131 2021 2130 2234
8 2026 1912 2025 2135 2132 2022 2131 2235
8 1914 2028 2134 2024 2027 2136 2236 2133
8 2029 1915 2028 2137 2135 2025 2134 2237
8 2030 1918 2031 2138 2137 2028 2136 2238
8 2157 2050 2139 2240 2054 1941 2033 2140
8 2052 1940 2054 2161 2144 2035 2140 2242
8 2140 2033 2141 2243 2035 1923 2034 2143
8 2143 2034 2142 2246 2037 1924 2036 2146
8 2144 2035 2143 2247 2051 1939 2037 2147
8 2146 2036 2145 2249 2039 1925 2038 2149
8 2147 2037 2146 2250 2040 1926 2039 2150
8 2149 2038 2148 2251 2042 1927 2041 2151
8 2150 2039 2149 2252 2043 1928 2042 2152
8 2152 2042 2151 2253 2045 1931 2044 2153
8 2255 2154 2047 2155 2189 2085 1976 2086
8 2170 2062 1949 2063 2255 2154 2047 2155
8 2256 2155 2048 2156 2190 2086 1977 2087
8 2171 2063 1950 2064 2256 2155 2048 2156
8 2258 2159 2050 2157 2164 2056 1941 2054
8 2160 2053 1946 2058 2262 2163 2060 2167
8 2162 2055 1940 2052 2262 2163 2053 2160
8 2162 2055 2164 2263 2052 1940 2054 2161
8 2163 2057 1948 2060 2264 2165 2061 2168
8 2055 1943 2057 2163 2164 2056 2165 2264
8 2182 2076 2166 2268 2077 1964 2061 2168
8 2183 2077 2168 2269 2078 1965 2060 2167
8 2070 1963 2062 2170 2177 2075 2169 2271
8 2172 2070 1959 2065 2272 2170 2063 2171
8 2172 2070 2177 2273 2065 1959 2072 2173
8 2066 1958 2072 2173 2174 2071 2178 2274
8 2067 1957 2071 2174 2175 2069 2176 2275
8 2175 2069 2176 2275 2079 1973 2083 2184
8 2071 1961 2074 2178 2176 2073 2179 2276
8 2176 2073 2179 2276 2083 1975 2084 2186
8 2072 1962 2075 2177 2178 2074 2180 2277
8 2182 2076 1974 2082 2280 2181 2084 2186
8 2183 2077 1971 2081 2281 2182 2082 2185
8 2184 2083 2186 2282 2080 1972 2082 2185
8 2189 2085 1993 2095 2285 2188 2100 2197
8 2190 2086 1987 2090 2286 2189 2095 2193
8 2192 2097 1989 2089 2287 2196 2094 2191
8 2287 2196 2094 2191 2203 2104 1998 2103
8 2194 2098 1991 2091 2288 2199 2097 2192
8 2195 2096 2197 2289 2093 1988 2095 2193
8 2096 2195 2290 2198 1990 2092 2194 2098
8 2097 1996 2099 2196 2199 2102 2200 2291
8 2196 2099 1999 2104 2291 2200 2105 2204
8 2100 2197 2292 2201 1994 2096 2198 2101
8 1995 2098 2198 2101 2102 2199 2293 2202
8 2206 2107 2204 2296 2106 2001 2104 2203
8 2207 2108 2205 2297 2107 2002 2105 2204
8 2209 2110 2207 2299 2109 2004 2107 2206
8 2210 2111 2208 2300 2110 2005 2108 2207
8 2212 2113 2210 2302 2112 2007 2110 2209
8 2213 2114 2211 2303 2113 2008 2111 2210
8 2220 2117 2213 2305 2120 2011 2113 2212
8 2216 2115 2214 2306 2117 2009 2114 2213
8 2216 2115 2009 2117 2311 2217 2116 2219
8 2219 2116 2010 2119 2314 2218 2118 2222
8 2315 2219 2117 2220 2223 2119 2011 2120
8 2122 2012 2121 2225 2222 2118 2221 2317
8 2318 2222 2119 2223 2226 2122 2013 2123
8 2125 2015 2124 2228 2225 2121 2224 2320
8 2126 2016 2125 2229 2226 2122 2225 2321
8 2128 2018 2127 2231 2228 2124 2227 2323
8 2129 2019 2128 2232 2229 2125 2228 2324
8 2131 2021 2130 2234 2231 2127 2230 2326
8 2132 2022 2131 2235 2232 2128 2231 2327
8 2134 2024 2133 2236 2234 2130 2233 2328
8 2135 2025 2134 2237 2235 2131 2234 2329
8 2137 2028 2136 2238 2237 2134 2236 2330
8 2157 2050 2158 2259 2240 2139 2239 2332
8 2257 2157 2240 2334 2161 2054 2140 2242
8 2240 2139 2241 2335 2140 2033 2141 2243
8 2242 2140 2243 2337 2144 2035 2143 2247
8 2243 2141 2244 2338 2143 2034 2142 2246
8 2246 2142 2245 2341 2146 2036 2145 2249
8 2247 2143 2246 2342 2147 2037 2146 2250
8 2249 2145 2248 2343 2149 2038 2148 2251
8 2250 2146 2249 2344 2150 2039 2149 2252
8 2252 2149 2251 2345 2152 2042 2151 2253
8 2169 2271 2347 2254 2062 2170 2255 2154
8 2189 2085 2188 2285 2255 2154 2254 2347
8 2348 2255 2155 2256 2286 2189 2086 2190
8 2272 2170 2063 2171 2348 2255 2155 2256
8 2349 2258 2157 2257 2263 2164 2054 2161
8 2258 2159 2261 2351 2157 2050 2158 2259
8 2258 2159 2056 2164 2351 2261 2165 2264
8 2262 2163 2060 2167 2355 2264 2168 2269
8 2162 2055 2163 2262 2263 2164 2264 2355
8 2357 2266 2165 2264 2268 2166 2061 2168
8 2268 2166 2076 2182 2361 2267 2181 2280
8 2281 2182 2268 2362 2183 2077 2168 2269
8 2271 2169 2270 2364 2177 2075 2180 2277
8 2172 2070 2170 2272 2273 2177 2271 2365
8 2072 2173 2274 2178 2177 2273 2366 2277
8 2071 2174 2275 2176 2178 2274 2367 2276
8 2275 2176 2276 2367 2184 2083 2186 2282
8 2283 2187 2084 2186 2368 2278 2179 2276
8 2178 2074 2180 2277 2276 2179 2278 2368
8 2283 2187 2279 2370 2186 2084 2181 2280
8 2281 2182 2082 2185 2371 2280 2186 2282
8 2188 2285 2374 2284 2100 2197 2292 2201
8 2286 2189 2095 2193 2375 2285 2197 2289
8 2192 2097 2196 2287 2288 2199 2291 2376
8 2287 2196 2104 2203 2376 2291 2204 2296
8 2194 2098 2199 2288 2290 2198 2293 2377
8 2289 2197 2096 2195 2378 2292 2198 2290
8 2291 2200 2105 2204 2379 2294 2205 2297
8 2199 2102 2200 2291 2293 2202 2294 2379
8 2198 2101 2202 2293 2292 2201 2295 2380
8 2299 2207 2297 2383 2206 2107 2204 2296
8 2300 2208 2298 2384 2207 2108 2205 2297
8 2302 2210 2300 2386 2209 2110 2207 2299
8 2303 2211 2301 2387 2210 2111 2208 2300
8 2305 2213 2303 2389 2212 2113 2210 2302
8 2306 2214 2304 2390 2213 2114 2211 2303
8 2310 2216 2306 2392 2220 2117 2213 2305
8 2308 2215 2307 2393 2216 2115 2214 2306
8 2308 2215 2115 2216 2396 2309 2217 2311
8 2310 2216 2117 2220 2398 2311 2219 2315
8 2311 2217 2116 2219 2399 2312 2218 2314
8 2314 2218 2118 2222 2402 2313 2221 2317
8 2315 2219 2119 2223 2403 2314 2222 2318
8 2225 2121 2224 2320 2317 2221 2316 2405
8 2226 2122 2225 2321 2318 2222 2317 2406
8 2228 2124 2227 2323 2320 2224 2319 2408
8 2229 2125 2228 2324 2321 2225 2320 2409
8 2231 2127 2230 2326 2323 2227 2322 2411
8 2232 2128 2231 2327 2324 2228 2323 2412
8 2234 2130 2233 2328 2326 2230 2325 2413
8 2235 2131 2234 2329 2327 2231 2326 2414
8 2237 2134 2236 2330 2329 2234 2328 2415
8 2259 2158 2260 2352 2332 2239 2331 2417
8 2257 2157 2259 2350 2334 2240 2332 2419
8 2240 2139 2239 2332 2335 2241 2333 2420
8 2334 2240 2335 2422 2242 2140 2243 2337
8 2335 2241 2336 2423 2243 2141 2244 2338
8 2337 2243 2338 2425 2247 2143 2246 2342
8 2338 2244 2339 2426 2246 2142 2245 2341
8 2341 2245 2340 2428 2249 2145 2248 2343
8 2342 2246 2341 2429 2250 2146 2249 2344
8 2344 2249 2343 2430 2252 2149 2251 2345
8 2188 2285 2347 2254 2284 2374 2432 2346
8 2347 2254 2346 2432 2271 2169 2270 2364
8 2365 2271 2170 2272 2433 2347 2255 2348
8 2286 2189 2285 2375 2348 2255 2347 2433
8 2349 2258 2351 2435 2257 2157 2259 2350
8 2349 2258 2164 2263 2435 2351 2264 2355
8 2259 2158 2261 2351 2352 2260 2354 2437
8 2356 2265 2354 2437 2264 2165 2261 2351
8 2441 2357 2264 2355 2362 2268 2168 2269
8 2356 2265 2165 2264 2442 2358 2266 2357
8 2443 2359 2266 2357 2361 2267 2166 2268
8 2370 2279 2360 2446 2280 2181 2267 2361
8 2362 2268 2182 2281 2447 2361 2280 2371
8 2180 2277 2368 2278 2270 2364 2449 2363
8 2271 2365 2273 2177 2364 2450 2366 2277
8 2372 2283 2186 2282 2451 2368 2276 2367
8 2178 2274 2367 2276 2277 2366 2451 2368
8 2283 2187 2278 2368 2370 2279 2369 2452
8 2372 2283 2370 2453 2282 2186 2280 2371
8 2284 2374 2455 2373 2201 2292 2380 2295
8 2375 2285 2197 2289 2456 2374 2292 2378
8 2376 2291 2204 2296 2457 2379 2297 2383
8 2288 2199 2291 2376 2377 2293 2379 2457
8 2198 2290 2378 2292 2293 2377 2458 2380
8 2293 2202 2294 2379 2380 2295 2381 2459
8 2384 2298 2381 2459 2297 2205 2294 2379
8 2386 2300 2384 2463 2299 2207 2297 2383
8 2387 2301 2385 2464 2300 2208 2298 2384
8 2389 2303 2387 2466 2302 2210 2300 2386
8 2390 2304 2388 2467 2303 2211 2301 2387
8 2392 2306 2390 2469 2305 2213 2303 2389
8 2393 2307 2391 2470 2306 2214 2304 2390
8 2395 2308 2393 2472 2310 2216 2306 2392
8 2308 2215 2309 2396 2393 2307 2394 2473
8 2395 2308 2216 2310 2475 2396 2311 2398
8 2396 2309 2217 2311 2476 2397 2312 2399
8 2398 2311 2219 2315 2478 2399 2314 2403
8 2399 2312 2218 2314 2479 2400 2313 2402
8 2317 2221 2316 2405 2402 2313 2401 2482
8 2403 2314 2222 2318 2483 2402 2317 2406
8 2320 2224 2319 2408 2405 2316 2404 2485
8 2321 2225 2320 2409 2406 2317 2405 2486
8 2323 2227 2322 2411 2408 2319 2407 2488
8 2324 2228 2323 2412 2409 2320 2408 2489
8 2326 2230 2325 2413 2411 2322 2410 2490
8 2327 2231 2326 2414 2412 2323 2411 2491
8 2329 2234 2328 2415 2414 2326 2413 2492
8 2417 2331 2260 2352 2494 2416 2353 2438
8 2350 2259 2352 2436 2419 2332 2417 2496
8 2332 2239 2331 2417 2420 2333 2418 2497
8 2334 2240 2332 2419 2422 2335 2420 2499
8 2420 2333 2421 2500 2335 2241 2336 2423
8 2422 2335 2423 2502 2337 2243 2338 2425
8 2423 2336 2424 2503 2338 2244 2339 2426
8 2425 2338 2426 2505 2342 2246 2341 2429
8 2426 2339 2427 2506 2341 2245 2340 2428
8 2429 2341 2428 2507 2344 2249 2343 2430
8 2432 2346 2284 2374 2509 2431 2373 2455
8 2432 2346 2431 2509 2364 2270 2363 2449
8 2375 2285 2374 2456 2433 2347 2432 2510
8 2347 2433 2365 2271 2432 2510 2450 2364
8 2350 2259 2351 2435 2436 2352 2437 2514
8 2440 2356 2437 2514 2355 2264 2351 2435
8 2352 2260 2354 2437 2438 2353 2439 2516
8 2356 2265 2358 2442 2437 2354 2439 2516
8 2440 2356 2264 2355 2518 2442 2357 2441
8 2519 2443 2357 2441 2447 2361 2268 2362
8 2443 2359 2444 2520 2357 2266 2358 2442
8 2443 2359 2267 2361 2520 2444 2360 2446
8 2446 2360 2279 2370 2523 2445 2369 2452
8 2453 2370 2446 2524 2371 2280 2361 2447
8 2449 2363 2448 2525 2368 2278 2369 2452
8 2366 2277 2364 2450 2451 2368 2449 2526
8 2372 2283 2368 2451 2453 2370 2452 2527
8 2455 2373 2295 2380 2529 2454 2382 2460
8 2456 2374 2292 2378 2530 2455 2380 2458
8 2377 2293 2379 2457 2458 2380 2459 2531
8 2463 2384 2459 2531 2383 2297 2379 2457
8 2533 2461 2382 2460 2459 2381 2295 2380
8 2464 2385 2461 2533 2384 2298 2381 2459
8 2466 2387 2464 2537 2386 2300 2384 2463
8 2467 2388 2465 2538 2387 2301 2385 2464
8 2469 2390 2467 2540 2389 2303 2387 2466
8 2470 2391 2468 2541 2390 2304 2388 2467
8 2472 2393 2470 2543 2392 2306 2390 2469
8 2393 2307 2394 2473 2470 2391 2471 2544
8 2395 2308 2396 2475 2472 2393 2473 2546
8 2396 2309 2397 2476 2473 2394 2474 2547
8 2475 2396 2311 2398 2549 2476 2399 2478
8 2476 2397 2312 2399 2550 2477 2400 2479
8 2478 2399 2314 2403 2552 2479 2402 2483
8 2479 2400 2313 2402 2553 2480 2401 2482
8 2405 2316 2404 2485 2482 2401 2481 2556
8 2406 2317 2405 2486 2483 2402 2482 2557
8 2408 2319 2407 2488 2485 2404 2484 2559
8 2409 2320 2408 2489 2486 2405 2485 2560
8 2411 2322 2410 2490 2488 2407 2487 2561
8 2412 2323 2411 2491 2489 2408 2488 2562
8 2414 2326 2413 2492 2491 2411 2490 2563
8 2513 2434 2493 2565 2438 2353 2416 2494
8 2496 2417 2352 2436 2567 2494 2438 2515
8 2494 2416 2495 2568 2417 2331 2418 2497
8 2419 2332 2417 2496 2499 2420 2497 2570
8 2497 2418 2498 2571 2420 2333 2421 2500
8 2499 2420 2500 2573 2422 2335 2423 2502
8 2500 2421 2501 2574 2423 2336 2424 2503
8 2502 2423 2503 2576 2425 2338 2426 2505
8 2503 2424 2504 2577 2426 2339 2427 2506
8 2505 2426 2506 2578 2429 2341 2428 2507
8 2509 2431 2373 2455 2580 2508 2454 2529
8 2509 2431 2508 2580 2449 2363 2448 2525
8 2432 2510 2581 2509 2374 2456 2530 2455
8 2432 2510 2450 2364 2509 2581 2526 2449
8 2583 2511 2434 2513 2516 2439 2353 2438
8 2436 2352 2437 2514 2515 2438 2516 2588
8 2440 2356 2442 2518 2514 2437 2516 2588
8 2442 2358 2444 2520 2516 2439 2517 2589
8 2519 2443 2520 2591 2441 2357 2442 2518
8 2519 2443 2361 2447 2591 2520 2446 2524
8 2446 2360 2445 2523 2520 2444 2521 2592
8 2525 2448 2522 2593 2452 2369 2445 2523
8 2524 2446 2370 2453 2594 2523 2452 2527
8 2526 2449 2525 2595 2451 2368 2452 2527
8 2534 2462 2528 2597 2460 2382 2454 2529
8 2530 2455 2380 2458 2598 2529 2460 2532
8 2599 2533 2460 2532 2531 2459 2380 2458
8 2537 2464 2533 2599 2463 2384 2459 2531
8 2534 2462 2382 2460 2601 2535 2461 2533
8 2538 2465 2535 2601 2464 2385 2461 2533
8 2540 2467 2538 2604 2466 2387 2464 2537
8 2541 2468 2539 2605 2467 2388 2465 2538
8 2543 2470 2541 2607 2469 2390 2467 2540
8 2470 2391 2471 2544 2541 2468 2542 2608
8 2472 2393 2473 2546 2543 2470 2544 2610
8 2473 2394 2474 2547 2544 2471 2545 2611
8 2475 2396 2476 2549 2546 2473 2547 2613
8 2476 2397 2477 2550 2547 2474 2548 2614
8 2549 2476 2399 2478 2616 2550 2479 2552
8 2479 2400 2480 2553 2550 2477 2551 2617
8 2552 2479 2402 2483 2619 2553 2482 2557
8 2482 2401 2481 2556 2553 2480 2554 2620
8 2485 2404 2484 2559 2556 2481 2555 2623
8 2486 2405 2485 2560 2557 2482 2556 2624
8 2488 2407 2487 2561 2559 2484 2558 2625
8 2489 2408 2488 2562 2560 2485 2559 2626
8 2491 2411 2490 2563 2562 2488 2561 2627
8 2513 2434 2512 2585 2565 2493 2564 2630
8 2586 2513 2565 2632 2515 2438 2494 2567
8 2565 2493 2566 2633 2494 2416 2495 2568
8 2567 2494 2568 2635 2496 2417 2497 2570
8 2568 2495 2569 2636 2497 2418 2498 2571
8 2570 2497 2571 2638 2499 2420 2500 2573
8 2571 2498 2572 2639 2500 2421 2501 2574
8 2573 2500 2574 2641 2502 2423 2503 2576
8 2574 2501 2575 2642 2503 2424 2504 2577
8 2576 2503 2577 2643 2505 2426 2506 2578
8 2597 2528 2579 2645 2529 2454 2508 2580
8 2580 2508 2579 2645 2525 2448 2522 2593
8 2581 2509 2455 2530 2646 2580 2529 2598
8 2581 2509 2580 2646 2526 2449 2525 2595
8 2583 2511 2582 2648 2513 2434 2512 2585
8 2583 2511 2439 2516 2648 2582 2517 2589
8 2649 2583 2513 2586 2588 2516 2438 2515
8 2589 2517 2444 2520 2653 2587 2521 2592
8 2518 2442 2520 2591 2588 2516 2589 2654
8 2593 2522 2590 2655 2523 2445 2521 2592
8 2524 2446 2523 2594 2591 2520 2592 2656
8 2595 2525 2593 2657 2527 2452 2523 2594
8 2602 2536 2596 2659 2534 2462 2528 2597
8 2600 2534 2597 2660 2532 2460 2529 2598
8 2600 2534 2460 2532 2661 2601 2533 2599
8 2604 2538 2601 2661 2537 2464 2533 2599
8 2602 2536 2462 2534 2663 2603 2535 2601
8 2601 2535 2465 2538 2663 2603 2539 2605
8 2607 2541 2605 2665 2540 2467 2538 2604
8 2608 2542 2606 2666 2541 2468 2539 2605
8 2543 2470 2544 2610 2607 2541 2608 2668
8 2544 2471 2545 2611 2608 2542 2609 2669
8 2546 2473 2547 2613 2610 2544 2611 2671
8 2547 2474 2548 2614 2611 2545 2612 2672
8 2549 2476 2550 2616 2613 2547 2614 2674
8 2550 2477 2551 2617 2614 2548 2615 2675
8 2552 2479 2553 2619 2616 2550 2617 2677
8 2553 2480 2554 2620 2617 2551 2618 2678
8 2557 2482 2556 2624 2619 2553 2620 2680
8 2556 2481 2555 2623 2620 2554 2621 2681
8 2559 2484 2558 2625 2623 2555 2622 2683
8 2560 2485 2559 2626 2624 2556 2623 2684
8 2562 2488 2561 2627 2626 2559 2625 2685
8 2690 2629 2564 2630 2650 2584 2512 2585
8 2586 2513 2585 2651 2632 2565 2630 2691
8 2630 2564 2631 2692 2565 2493 2566 2633
8 2632 2565 2633 2694 2567 2494 2568 2635
8 2633 2566 2634 2695 2568 2495 2569 2636
8 2635 2568 2636 2697 2570 2497 2571 2638
8 2636 2569 2637 2698 2571 2498 2572 2639
8 2638 2571 2639 2700 2573 2500 2574 2641
8 2639 2572 2640 2701 2574 2501 2575 2642
8 2641 2574 2642 2702 2576 2503 2577 2643
8 2597 2528 2596 2659 2645 2579 2644 2704
8 2645 2579 2644 2704 2593 2522 2590 2655
8 2660 2597 2645 2705 2598 2529 2580 2646
8 2646 2580 2645 2705 2595 2525 2593 2657
8 2650 2584 2512 2585 2707 2647 2582 2648
8 2648 2582 2517 2589 2707 2647 2587 2653
8 2649 2583 2648 2708 2586 2513 2585 2651
8 2649 2583 2516 2588 2708 2648 2589 2654
8 2655 2590 2652 2710 2592 2521 2587 2653
8 2654 2589 2520 2591 2711 2653 2592 2656
8 2657 2593 2655 2712 2594 2523 2592 2656
8 2602 2536 2603 2663 2659 2596 2658 2714
8 2662 2602 2659 2715 2600 2534 2597 2660
8 2662 2602 2534 2600 2717 2663 2601 2661
8 2661 2601 2538 2604 2717 2663 2605 2665
8 2666 2606 2664 2718 2605 2539 2603 2663
8 2668 2608 2666 2720 2607 2541 2605 2665
8 2608 2542 2609 2669 2666 2606 2667 2721
8 2610 2544 2611 2671 2668 2608 2669 2723
8 2611 2545 2612 2672 2669 2609 2670 2724
8 2613 2547 2614 2674 2671 2611 2672 2726
8 2614 2548 2615 2675 2672 2612 2673 2727
8 2616 2550 2617 2677 2674 2614 2675 2729
8 2617 2551 2618 2678 2675 2615 2676 2730
8 2619 2553 2620 2680 2677 2617 2678 2732
8 2620 2554 2621 2681 2678 2618 2679 2733
8 2624 2556 2623 2684 2680 2620 2681 2735
8 2681 2621 2555 2623 2736 2682 2622 2683
8 2626 2559 2625 2685 2684 2623 2683 2737
8 2688 2628 2584 2650 2740 2686 2647 2707
8 2688 2628 2687 2742 2650 2584 2629 2690
8 2690 2629 2689 2745 2630 2564 2631 2692
8 2746 2690 2630 2691 2709 2650 2585 2651
8 2691 2630 2692 2747 2632 2565 2633 2694
8 2692 2631 2693 2748 2633 2566 2634 2695
8 2694 2633 2695 2750 2635 2568 2636 2697
8 2695 2634 2696 2751 2636 2569 2637 2698
8 2697 2636 2698 2753 2638 2571 2639 2700
8 2698 2637 2699 2754 2639 2572 2640 2701
8 2700 2639 2701 2755 2641 2574 2642 2702
8 2659 2596 2658 2714 2704 2644 2703 2757
8 2704 2644 2703 2757 2655 2590 2652 2710
8 2660 2597 2659 2715 2705 2645 2704 2758
8 2705 2645 2704 2758 2657 2593 2655 2712
8 2759 2706 2647 2707 2710 2652 2587 2653
8 2709 2650 2585 2651 2760 2707 2648 2708
8 2708 2648 2589 2654 2760 2707 2653 2711
8 2712 2655 2710 2761 2656 2592 2653 2711
8 2763 2713 2658 2714 2718 2664 2603 2663
8 2662 2602 2663 2717 2715 2659 2714 2764
8 2720 2666 2718 2767 2665 2605 2663 2717
8 2768 2719 2664 2718 2721 2667 2606 2666
8 2668 2608 2669 2723 2720 2666 2721 2770
8 2669 2609 2670 2724 2721 2667 2722 2771
8 2671 2611 2672 2726 2723 2669 2724 2773
8 2672 2612 2673 2727 2724 2670 2725 2774
8 2674 2614 2675 2729 2726 2672 2727 2776
8 2675 2615 2676 2730 2727 2673 2728 2777
8 2677 2617 2678 2732 2729 2675 2730 2779
8 2678 2618 2679 2733 2730 2676 2731 2780
8 2680 2620 2681 2735 2732 2678 2733 2782
8 2733 2679 2621 2681 2783 2734 2682 2736
8 2735 2681 2623 2684 2784 2736 2683 2737
8 2740 2686 2647 2707 2787 2738 2706 2759
8 2688 2628 2686 2740 2742 2687 2739 2789
8 2743 2688 2650 2709 2790 2740 2707 2760
8 2742 2687 2741 2792 2690 2629 2689 2745
8 2743 2688 2742 2793 2709 2650 2690 2746
8 2745 2689 2744 2795 2692 2631 2693 2748
8 2746 2690 2745 2796 2691 2630 2692 2747
8 2747 2692 2748 2797 2694 2633 2695 2750
8 2748 2693 2749 2798 2695 2634 2696 2751
8 2750 2695 2751 2800 2697 2636 2698 2753
8 2751 2696 2752 2801 2698 2637 2699 2754
8 2753 2698 2754 2802 2700 2639 2701 2755
8 2763 2713 2756 2804 2714 2658 2703 2757
8 2759 2706 2652 2710 2804 2756 2703 2757
8 2715 2659 2714 2764 2758 2704 2757 2805
8 2758 2704 2757 2805 2712 2655 2710 2761
8 2806 2759 2707 2760 2761 2710 2653 2711
8 2765 2716 2762 2808 2718 2664 2713 2763
8 2809 2763 2714 2764 2767 2718 2663 2717
8 2765 2716 2664 2718 2811 2766 2719 2768
8 2813 2768 2718 2767 2770 2721 2666 2720
8 2814 2769 2719 2768 2771 2722 2667 2721
8 2723 2669 2724 2773 2770 2721 2771 2816
8 2724 2670 2725 2774 2771 2722 2772 2817
8 2726 2672 2727 2776 2773 2724 2774 2819
8 2727 2673 2728 2777 2774 2725 2775 2820
8 2729 2675 2730 2779 2776 2727 2777 2822
8 2730 2676 2731 2780 2777 2728 2778 2823
8 2732 2678 2733 2782 2779 2730 2780 2825
8 2780 2731 2679 2733 2826 2781 2734 2783
8 2782 2733 2681 2735 2827 2783 2736 2784
8 2830 2785 2738 2787 2804 2756 2706 2759
8 2789 2739 2686 2740 2832 2786 2738 2787
8 2790 2740 2707 2760 2833 2787 2759 2806
8 2742 2687 2739 2789 2792 2741 2788 2835
8 2743 2688 2740 2790 2793 2742 2789 2836
8 2792 2741 2791 2838 2745 2689 2744 2795
8 2793 2742 2792 2839 2746 2690 2745 2796
8 2795 2744 2794 2841 2748 2693 2749 2798
8 2796 2745 2795 2842 2747 2692 2748 2797
8 2797 2748 2798 2843 2750 2695 2751 2800
8 2798 2749 2799 2844 2751 2696 2752 2801
8 2800 2751 2801 2845 2753 2698 2754 2802
8 2808 2762 2803 2847 2763 2713 2756 2804
8 2809 2763 2804 2848 2764 2714 2757 2805
8 2806 2759 2710 2761 2848 2804 2757 2805
8 2765 2716 2766 2811 2808 2762 2807 2850
8 2810 2765 2808 2851 2767 2718 2763 2809
8 2810 2765 2718 2767 2852 2811 2768 2813
8 2811 2766 2719 2768 2853 2812 2769 2814
8 2855 2814 2768 2813 2816 2771 2721 2770
8 2856 2815 2769 2814 2817 2772 2722 2771
8 2773 2724 2774 2819 2816 2771 2817 2858
8 2774 2725 2775 2820 2817 2772 2818 2859
8 2776 2727 2777 2822 2819 2774 2820 2861
8 2777 2728 2778 2823 2820 2775 2821 2862
8 2779 2730 2780 2825 2822 2777 2823 2864
8 2823 2778 2731 2780 2865 2824 2781 2826
8 2825 2780 2733 2782 2866 2826 2783 2827
8 2869 2828 2785 2830 2847 2803 2756 2804
8 2871 2829 2786 2832 2830 2785 2738 2787
8 2872 2830 2787 2833 2848 2804 2759 2806
8 2789 2739 2786 2832 2835 2788 2831 2874
8 2836 2789 2740 2790 2875 2832 2787 2833
8 2792 2741 2788 2835 2838 2791 2834 2877
8 2793 2742 2789 2836 2839 2792 2835 2878
8 2838 2791 2837 2880 2795 2744 2794 2841
8 2839 2792 2838 2881 2796 2745 2795 2842
8 2841 2794 2840 2882 2798 2749 2799 2844
8 2842 2795 2841 2883 2797 2748 2798 2843
8 2843 2798 2844 2884 2800 2751 2801 2845
8 2886 2846 2803 2847 2850 2807 2762 2808
8 2851 2808 2847 2887 2809 2763 2804 2848
8 2850 2807 2766 2811 2889 2849 2812 2853
8 2810 2765 2811 2852 2851 2808 2850 2890
8 2852 2811 2768 2813 2891 2853 2814 2855
8 2853 2812 2769 2814 2892 2854 2815 2856
8 2894 2856 2814 2855 2858 2817 2771 2816
8 2817 2772 2818 2859 2856 2815 2857 2895
8 2819 2774 2820 2861 2858 2817 2859 2897
8 2820 2775 2821 2862 2859 2818 2860 2898
8 2822 2777 2823 2864 2861 2820 2862 2900
8 2823 2778 2824 2865 2862 2821 2863 2901
8 2864 2823 2780 2825 2902 2865 2826 2866
8 2904 2867 2828 2869 2886 2846 2803 2847
8 2869 2828 2868 2906 2830 2785 2829 2871
8 2907 2869 2830 2872 2887 2847 2804 2848
8 2871 2829 2870 2909 2832 2786 2831 2874
8 2910 2871 2832 2875 2872 2830 2787 2833
8 2835 2788 2831 2874 2877 2834 2873 2912
8 2836 2789 2832 2875 2878 2835 2874 2913
8 2877 2834 2876 2915 2838 2791 2837 2880
8 2839 2792 2835 2878 2881 2838 2877 2916
8 2880 2837 2879 2917 2841 2794 2840 2882
8 2881 2838 2880 2918 2842 2795 2841 2883
8 2883 2841 2882 2919 2843 2798 2844 2884
8 2921 2885 2846 2886 2889 2849 2807 2850
8 2922 2886 2847 2887 2890 2850 2808 2851
8 2889 2849 2812 2853 2924 2888 2854 2892
8 2890 2850 2811 2852 2925 2889 2853 2891
8 2891 2853 2814 2855 2926 2892 2856 2894
8 2892 2854 2815 2856 2927 2893 2857 2895
8 2858 2817 2859 2897 2894 2856 2895 2929
8 2859 2818 2860 2898 2895 2857 2896 2930
8 2861 2820 2862 2900 2897 2859 2898 2932
8 2862 2821 2863 2901 2898 2860 2899 2933
8 2864 2823 2865 2902 2900 2862 2901 2934
8 2904 2867 2846 2886 2936 2903 2885 2921
8 2904 2867 2903 2936 2869 2828 2868 2906
8 2937 2904 2869 2907 2922 2886 2847 2887
8 2906 2868 2905 2939 2871 2829 2870 2909
8 2907 2869 2906 2940 2872 2830 2871 2910
8 2909 2870 2908 2942 2874 2831 2873 2912
8 2910 2871 2909 2943 2875 2832 2874 2913
8 2912 2873 2911 2945 2877 2834 2876 2915
8 2878 2835 2874 2913 2916 2877 2912 2946
8 2915 2876 2914 2947 2880 2837 2879 2917
8 2916 2877 2915 2948 2881 2838 2880 2918
8 2918 2880 2917 2949 2883 2841 2882 2919
8 2921 2885 2849 2889 2951 2920 2888 2924
8 2952 2921 2886 2922 2925 2889 2850 2890
8 2924 2888 2854 2892 2954 2923 2893 2927
8 2925 2889 2853 2891 2955 2924 2892 2926
8 2926 2892 2856 2894 2956 2927 2895 2929
8 2895 2857 2896 2930 2927 2893 2928 2957
8 2897 2859 2898 2932 2929 2895 2930 2959
8 2898 2860 2899 2933 2930 2896 2931 2960
8 2900 2862 2901 2934 2932 2898 2933 2961
8 2936 2903 2885 2921 2963 2935 2920 2951
8 2936 2903 2935 2963 2906 2868 2905 2939
8 2937 2904 2886 2922 2964 2936 2921 2952
8 2937 2904 2936 2964 2907 2869 2906 2940
8 2939 2905 2938 2966 2909 2870 2908 2942
8 2940 2906 2939 2967 2910 2871 2909 2943
8 2942 2908 2941 2969 2912 2873 2911 2945
8 2943 2909 2942 2970 2913 2874 2912 2946
8 2945 2911 2944 2971 2915 2876 2914 2947
8 2946 2912 2945 2972 2916 2877 2915 2948
8 2948 2915 2947 2973 2918 2880 2917 2949
8 2951 2920 2888 2924 2975 2950 2923 2954
8 2952 2921 2889 2925 2976 2951 2924 2955
8 2927 2893 2928 2957 2954 2923 2953 2978
8 2955 2924 2892 2926 2979 2954 2927 2956
8 2929 2895 2930 2959 2956 2927 2957 2980
8 2930 2896 2931 2960 2957 2928 2958 2981
8 2932 2898 2933 2961 2959 2930 2960 2982
8 2951 2920 2950 2975 2963 2935 2962 2984
8 2963 2935 2962 2984 2939 2905 2938 2966
8 2964 2936 2921 2952 2985 2963 2951 2976
8 2964 2936 2963 2985 2940 2906 2939 2967
8 2966 2938 2965 2987 2942 2908 2941 2969
8 2967 2939 2966 2988 2943 2909 2942 2970
8 2969 2941 2968 2989 2945 2911 2944 2971
8 2970 2942 2969 2990 2946 2912 2945 2972
8 2972 2945 2971 2991 2948 2915 2947 2973
8 2954 2923 2953 2978 2975 2950 2974 2993
8 2976 2951 2924 2955 2994 2975 2954 2979
8 2957 2928 2958 2981 2978 2953 2977 2995
8 2956 2927 2957 2980 2979 2954 2978 2996
8 2959 2930 2960 2982 2980 2957 2981 2997
8 2984 2962 2983 2999 2966 2938 2965 2987
8 2975 2950 2974 2993 2984 2962 2983 2999
8 2976 2951 2975 2994 2985 2963 2984 3000
8 2985 2963 2984 3000 2967 2939 2966 2988
8 2987 2965 2986 3001 2969 2941 2968 2989
8 2988 2966 2987 3002 2970 2942 2969 2990
8 2990 2969 2989 3003 2972 2945 2971 2991
8 2978 2953 2977 2995 2993 2974 2992 3004
8 2979 2954 2978 2996 2994 2975 2993 3005
8 2980 2957 2981 2997 2996 2978 2995 3006
8 2974 2993 2999 2983 2992 3004 3007 2998
8 2983 2999 2987 2965 2998 3007 3001 2986
8 3000 2984 2999 3008 2988 2966 2987 3002
8 2994 2975 2993 3005 3000 2984 2999 3008
8 3002 2987 3001 3009 2990 2969 2989 3003
8 2996 2978 2995 3006 3005 2993 3004 3010
8 3005 2993 3004 3010 3008 2999 3007 3011
8 3008 2999 3007 3011 3002 2987 3001 3009

CELL_TYPES 1910
12
12
12
12
12
12
12
12
12
12
12
12
12
12
12
12
12
12
12
12
12
12
12
12
12
12
12
12
12
12
12
12
12
12
12
12
12
12
12
12
12
12
12
12
12
12
12
12
12
12
12
12
12
12
12
12
12
12
12
12
12
12
12
12
12
12
12
12
12
12
12
12
12
12
12
12
12
12
12
12
12
12
12
12
12
12
12
12
12
12
12
12
12
12
12
12
12
12
12
12
12
12
12
12
12
12
12
12
12
12
12
12
12
12
12
12
12
12
12
12
12
12
12
12
12
12
12
12
12
12
12
12
12
12
12
12
12
12
12
12
12
12
12
12
12
12
12
12
12
12
12
12
12
12
12
12
12
12
12
12
12
12
12
12
12
12
12
12
12
12
12
12
12
12
12
12
12
12
12
12
12
12
12
12
12
12
12
12
12
12
12
12
12
12
12
12
12
12
12
12
12
12
12
12
12
12
12
12
12
12
12
12
12
12
12
12
12
12
12
12
12
12
12
12
12
12
12
12
12
12
12
12
12
12
12
12
12
12
12
12
12
12
12
12
12
12
12
12
12
12
12
12
12
12
12
12
12
12
12
12
12
12
12
12
12
12
12
12
12
12
12
12
12
12
12
12
12
12
12
12
12
12
12
12
12
12
12
12
12
12
12
12
12
12
12
12
12
12
12
12
12
12
12
12
12
12
12
12
12
12
12
12
12
12
12
12
12
12
12
12
12
12
12
12
12
12
12
12
12
12
12
12
12
12
12
12
12
12
12
12
12
12
12
12
12
12
12
12
12
12
12
12
12
12
12
12
12
12
12
12
12
12
12
12
12
12
12
12
12
12
12
12
12
12
12
12
12
12
12
12
12
12
12
12
12
12
12
12
12
12
12
12
12
12
12
12
12
12
12
12
12
12
12
12
12
12
12
12
12
12
12
12
12
12
12
12
12
12
12
12
12
12
12
12
12
12
12
12
12
12
12
12
12
12
12
12
12
12
12
12
12
12
12
12
12
12
12
12
12
12
12
12
12
12
12
12
12
12
12
12
12
12
12
12
12
12
12
12
12
12
12
12
12
12
12
12
12
12
12
12
12
12
12
12
12
12
12
12
12
12
12
12
12
12
12
12
12
12
12
12
12
12
12
12
12
12
12
12
12
12
12
12
12
12
12
12
12
12
12
12
12
12
12
12
12
12
12
12
12
12
12
12
12
12
12
12
12
12
12
12
12
12
12
12
12
12
12
12
12
12
12
12
12
12
12
12
12
12
12
12
12
12
12
12
12
12
12
12
12
12
12
12
12
12
12
12
12
12
12
12
12
12
12
12
12
12
12
12
12
12
12
12
12
12
12
12
12
12
12
12
12
12
12
12
12
12
12
12
12
12
12
12
12
12
12
12
12
12
12
12
12
12
12
12
12
12
12
12
12
12
12
12
12
12
12
12
12
12
12
12
12
12
12
12
12
12
12
12
12
12
12
12
12
12
12
12
12
12
12
12
12
12
12
12
12
12
12
12
12
12
12
12
12
12
12
12
12
12
12
12
12
12
12
12
12
12
12
12
12
12
12
12
12
12
12
12
12
12
12
12
12
12
12
12
12
12
12
12
12
12
12
12
12
12
12
12
12
12
12
12
12
12
12
12
12
12
12
12
12
12
12
12
12
12
12
12
12
12
12
12
12
12
12
12
12
12
12
12
12
12
12
12
12
12
12
12
12
12
12
12
12
12
12
12
12
12
12
12
12
12
12
12
12
12
12
12
12
12
12
12
12
12
12
12
12
12
12
12
12
12
12
12
12
12
12
12
12
12
12
12
12
12
12
12
12
12
12
12
12
12
12
12
12
12
12
12
12
12
12
12
12
12
12
12
12
12
12
12
12
12
12
12
12
12
12
12
12
12
12
12
12
12
12
12
12
12
12
12
12
12
12
12
12
12
12
12
12
12
12
12
12
12
12
12
12
12
12
12
12
12
12
12
12
12
12
12
12
12
12
12
12
12
12
12
12
12
12
12
12
12
12
12
12
12
12
12
12
12
12
12
12
12
12
12
12
12
12
12
12
12
12
12
12
12
12
12
12
12
12
12
12
12
12
12
12
12
12
12
12
12
12
12
12
12
12
12
12
12
12
12
12
12
12
12
12
12
12
12
12
12
12
12
12
12
12
12
12
12
12
12
12
12
12
12
12
12
12
12
12
12
12
12
12
12
12
12
12
12
12
12
12
12
12
12
12
12
12
12
12
12
12
12
12
12
12
12
12
12
12
12
12
12
12
12
12
12
12
12
12
12
12
12
12
12
12
12
12
12
12
12
12
12
12
12
12
12
12
12
12
12
12
12
12
12
12
12
12
12
12
12
12
12
12
12
12
12
12
12
12
12
12
12
12
12
12
12
12
12
12
12
12
12
12
12
12
12
12
12
12
12
12
12
12
12
12
12
12
12
12
12
12
12
12
12
12
12
12
12
12
12
12
12
12
12
12
12
12
12
12
12
12
12
12
12
12
12
12
12
12
12
12
12
12
12
12
12
12
12
12
12
12
12
12
12
12
12
12
12
12
12
12
12
12
12
12
12
12
12
12
12
12
12
12
12
12
12
12
12
12
12
12
12
12
12
12
12
12
12
12
12
12
12
12
12
12
12
12
12
12
12
12
12
12
12
12
12
12
12
12
12
12
12
12
12
12
12
12
12
12
12
12
12
12
12
12
12
12
12
12
12
12
12
12
12
12
12
12
12
12
12
12
12
12
12
12
12
12
12
12
12
12
12
12
12
12
12
12
12
12
12
12
12
12
12
12
12
12
12
12
12
12
12
12
12
12
12
12
12
12
12
12
12
12
12
12
12
12
12
12
12
12
12
12
12
12
12
12
12
12
12
12
12
12
12
12
12
12
12
12
12
12
12
12
12
12
12
12
12
12
12
12
12
12
12
12
12
12
12
12
12
12
12
12
12
12
12
12
12
12
12
12
12
12
12
12
12
12
12
12
12
12
12
12
12
12
12
12
12
12
12
12
12
12
12
12
12
12
12
12
12
12
12
12
12
12
12
12
12
12
12
12
12
12
12
12
12
12
12
12
12
12
12
12
12
12
12
12
12
12
12
12
12
12
12
12
12
12
12
12
12
12
12
12
12
12
12
12
12
12
12
12
12
12
12
12
12
12
12
12
12
12
12
12
12
12
12
12
12
12
12
12
12
12
12
12
12
12
12
12
12
12
12
12
12
12
12
12
12
12
12
12
12
12
12
12
12
12
12
12
12
12
12
12
12
12
12
12
12
12
12
12
12
12
12
12
12
12
12
12
12
12
12
12
12
12
12
12
12
12
12
12
12
12
12
12
12
12
12
12
12
12
12
12
12
12
12
12
12
12
12
12
12
12
12
12
12
12
12
12
12
12
12
12
12
12
12
12
12
12
12
12
12
12
12
12
12
12
12
12
12
12
12
12
12
12
12
12
12
12
12
12
12
12
12
12
12
12
12
12
12
12
12
12
12
12
12
12
12
12
12
12
12
12
12
12
12
12
12
12
12
12
12
12
12
12
12
12
12
12
12
12
12
12
12
12
12
12
12
12
12
12
12
12
12
12
12
12
12
12
12
12
12
12
12
12
12
12
12
12
12
12
12
12
12
12
12
12
12
12
12
12
12
12
12
12
12
12
12
12
12
12
12
12
12
12
12
12
12
12
12
12
12
12
12
12
12
12
12
12
12
12
12
12
12
12
12
12
12
12
12
12
12
12
12
12
12
12
12
12
12
12
12
12
12
12
12
12
12
12
12
12
12
12
12
12
12
12
12
12
12
12
12
12
12
12
12
12
12
12
12
12
12
12
12
12
12
12
12
12
12
12
12
12
12
12
12
12
12
12
12
12
12
12
12
12
12
12
12
12
12
12
12
12
12
12
12
12
12
12
12
12
12
12
12
12
12
12
12
12
12
12
12
12
12
12
12
12
12
12
12
12
12
12
12
12
12
12
12
12
12
12
12
12
12
12
12
12
12
12
12
12
12
12
12
12
12
12
12
12
12
12
12
12
12
12
12
12
12
12
12
12
12
12
12
12
12
12
12
12
12
12
12
12
12
12
12
12
12
12
12
12
12
12
12
12
12
12
12
12
12
12
12
12
12
12
12
12
12
12
12
12
12
12
12
12
12
12
12
12
12
12
12
12
12
12
12
12
12
12
12
12
12
12
12
12
12
12
12
12
12
12
12
12
12
12
12
12
12
12
12
12
12
12
12
12
12
12
12
12
12
12
12
12
12
12
12
12
12
12
12
12
12
12
12
12
12
12
12
12
12
12
12
12
12
12
12
12
12
12
12

POINT_DATA 3012
SCALARS Jp_lamdaP float 4
LOOKUP_TABLE default
1 1 1 1
1 1 1 1
1 1 1 1
1 1 1 1
1 1 1 1
1 1 1 1
0.999985 1 1 0.999985
1 1 1 1
1 1 1 1
1 1 1 1
1 1 1 1
1 1 1 1
1 1 1 1
1 1 1 1
1 1 1 1
1 1 1 1
1 1 1 1
1 1 1 1
0.999986 1 1 0.999986
1 1 1 1
1 1 1 1
1 1 1 1
0.999966 1 1 0.999966
0.999981 1 1 0.999981
1 1 1 1
0.99999 1 1 0.99999
0.99994 1 1 0.99994
1 1 1 1
1 1 1 1
1 1 1 1
1 1 1 1
1 1 1 1
1 1 1 1
1 1 1 1
0.999995 1 1 0.999995
1 1 1 1
1 1 1 1
1 1 1 1
0.999955 1 1 0.999955
1 1 1 1
1 1 1 1
1 1 1 1
1 1 1 1
1 1 1 1
0.999977 1 1 0.999977
1 1 1 1
0.999985 1 1 0.999985
1 1 1 1
1 1 1 1
1 1 1 1
0.999986 1 1 0.999986
1 1 1 1
1 1 1 1
1 1 1 1
1 1 1 1
0.999967 1 1 0.999967
0.99999 1 1 0.99999
0.999981 1 1 0.999981
0.999938 1 1 0.999938
1 1 1 1
1 1 1 1
0.999978 1 1 0.999978
0.99996 1 1 0.99996
0.999974 1 1 0.999974
0.999892 1 1 0.999892
0.999919 1 1 0.999919
1 1 1 1
0.999993 1 1 0.999993
0.999952 1 1 0.999952
0.999855 1 1 0.999855
1 1 1 1
1 1 1 1
1 1 1 1
1 1 1 1
1 1 1 1
1 1 1 1
0.999996 1 1 0.999996
1 1 1 1
1 1 1 1
1 1 1 1
0.999955 1 1 0.999955
1 1 1 1
1 1 1 1
0.999991 1 1 0.999991
0.999998 1 1 0.999998
0.999912 1 1 0.999912
1 1 1 1
0.999946 1 1 0.999946
0.999963 1 1 0.999963
0.999888 1 1 0.999888
1 1 1 1
1 1 1 1
1 1 1 1
1 1 1 1
1 1 1 1
1 1 1 1
0.999979 1 1 0.999979
1 1 1 1
0.999986 1 1 0.999986
1 1 1 1
0.999975 1 1 0.999975
0.999982 1 1 0.999982
0.999857 1 1 0.999857
0.999988 1 1 0.999988
0.999874 1 1 0.999874
1 1 1 1
1 1 1 1
1 1 1 1
1 1 1 1
0.999967 1 1 0.999967
0.999981 1 1 0.999981
0.999991 1 1 0.999991
0.999936 1 1 0.999936
1 1 1 1
1 1 1 1
0.999967 1 1 0.999967
0.99996 1 1 0.99996
1 1 1 1
0.999997 1 1 0.999997
0.999975 1 1 0.999975
0.999887 1 1 0.999887
0.99995 1 1 0.99995
0.999923 1 1 0.999923
0.999856 1 1 0.999856
0.999976 1 1 0.999976
0.999959 1 1 0.999959
0.999862 1 1 0.999862
0.999871 1 1 0.999871
0.999902 1 1 0.999902
0.999814 1 1 0.999814
1 1 1 1
0.999847 1 1 0.999847
1 1 1 1
0.999957 1 1 0.999957
0.999865 1 1 0.999865
0.999822 1 1 0.999822
1 1 1 1
0.99997 1 1 0.99997
1 1 1 1
1 1 1 1
0.999997 1 1 0.999997
1 1 1 1
1 1 1 1
1 1 1 1
0.999955 1 1 0.999955
1 1 1 1
1 1 1 1
0.999992 1 1 0.999992
0.999999 1 1 0.999999
0.999912 1 1 0.999912
1 1 1 1
0.999946 1 1 0.999946
0.999964 1 1 0.999964
0.999885 1 1 0.999885
1 1 1 1
1 1 1 1
0.999976 1 1 0.999976
0.999895 1 1 0.999895
0.999931 1 1 0.999931
0.99984 1 1 0.99984
0.999971 1 1 0.999971
0.999876 1 1 0.999876
0.999893 1 1 0.999893
0.999856 1 1 0.999856
1 1 1 1
1 1 1 1
1 1 1 1
1 1 1 1
1 1 1 1
1 1 1 1
1 1 1 1
0.999987 1 1 0.999987
0.99998 1 1 0.99998
1 1 1 1
1 1 1 1
0.999975 1 1 0.999975
0.999983 1 1 0.999983
0.999857 1 1 0.999857
0.999989 1 1 0.999989
0.999874 1 1 0.999874
0.999974 1 1 0.999974
0.999851 1 1 0.999851
0.999865 1 1 0.999865
0.999795 1 1 0.999795
0.999883 1 1 0.999883
0.99981 1 1 0.99981
1 1 1 1
1 1 1 1
0.999956 1 1 0.999956
0.999961 1 1 0.999961
1 1 1 1
1 1 1 1
0.999975 1 1 0.999975
0.999882 1 1 0.999882
0.999927 1 1 0.999927
0.999949 1 1 0.999949
0.999856 1 1 0.999856
0.999976 1 1 0.999976
0.999959 1 1 0.999959
0.999852 1 1 0.999852
0.999874 1 1 0.999874
1 1 1 1
1 1 1 1
0.999959 1 1 0.999959
0.999902 1 1 0.999902
0.999807 1 1 0.999807
0.999864 1 1 0.999864
0.99985 1 1 0.99985
0.999823 1 1 0.999823
1 1 1 1
0.99997 1 1 0.99997
0.99985 1 1 0.99985
0.999864 1 1 0.999864
0.999792 1 1 0.999792
0.999787 1 1 0.999787
0.999837 1 1 0.999837
0.999782 1 1 0.999782
1 1 1 1
0.999816 1 1 0.999816
0.999964 1 1 0.999964
0.999877 1 1 0.999877
0.999831 1 1 0.999831
0.999813 1 1 0.999813
0.999969 1 1 0.999969
0.999974 1 1 0.999974
0.999891 1 1 0.999891
0.999993 1 1 0.999993
1 1 1 1
1 1 1 1
0.999999 1 1 0.999999
0.999912 1 1 0.999912
1 1 1 1
0.999964 1 1 0.999964
0.999946 1 1 0.999946
0.999882 1 1 0.999882
1 1 1 1
1 1 1 1
0.999976 1 1 0.999976
0.999895 1 1 0.999895
0.999932 1 1 0.999932
0.99984 1 1 0.99984
0.999972 1 1 0.999972
0.999878 1 1 0.999878
0.999892 1 1 0.999892
0.999853 1 1 0.999853
1 1 1 1
0.999975 1 1 0.999975
0.999978 1 1 0.999978
0.999902 1 1 0.999902
0.999826 1 1 0.999826
0.999862 1 1 0.999862
0.999805 1 1 0.999805
0.9999 1 1 0.9999
0.999845 1 1 0.999845
0.999847 1 1 0.999847
0.999831 1 1 0.999831
0.999988 1 1 0.999988
1 1 1 1
1 1 1 1
1 1 1 1
1 1 1 1
1 1 1 1
1 1 1 1
1 1 1 1
1 1 1 1
0.999989 1 1 0.999989
0.999984 1 1 0.999984
0.999874 1 1 0.999874
0.999857 1 1 0.999857
0.999976 1 1 0.999976
1 1 1 1
0.999974 1 1 0.999974
0.999851 1 1 0.999851
0.999865 1 1 0.999865
0.999795 1 1 0.999795
0.999883 1 1 0.999883
0.99981 1 1 0.99981
0.999849 1 1 0.999849
0.999792 1 1 0.999792
0.999801 1 1 0.999801
0.999774 1 1 0.999774
0.999819 1 1 0.999819
0.999788 1 1 0.999788
0.999975 1 1 0.999975
0.999959 1 1 0.999959
0.999841 1 1 0.999841
0.999878 1 1 0.999878
1 1 1 1
1 1 1 1
0.999961 1 1 0.999961
0.999903 1 1 0.999903
0.999801 1 1 0.999801
0.999853 1 1 0.999853
0.999862 1 1 0.999862
0.999823 1 1 0.999823
1 1 1 1
0.99997 1 1 0.99997
0.999846 1 1 0.999846
0.999864 1 1 0.999864
0.999791 1 1 0.999791
0.999793 1 1 0.999793
1 1 1 1
0.999964 1 1 0.999964
0.999881 1 1 0.999881
0.999837 1 1 0.999837
0.99978 1 1 0.99978
0.999826 1 1 0.999826
0.999817 1 1 0.999817
0.999812 1 1 0.999812
0.999969 1 1 0.999969
0.999888 1 1 0.999888
0.999974 1 1 0.999974
0.999795 1 1 0.999795
0.999788 1 1 0.999788
0.999761 1 1 0.999761
0.999761 1 1 0.999761
0.999805 1 1 0.999805
0.999781 1 1 0.999781
0.999968 1 1 0.999968
0.999811 1 1 0.999811
0.999895 1 1 0.999895
0.999835 1 1 0.999835
0.999804 1 1 0.999804
0.999822 1 1 0.999822
0.99998 1 1 0.99998
0.999895 1 1 0.999895
0.999881 1 1 0.999881
0.999853 1 1 0.999853
0.999895 1 1 0.999895
1 1 1 1
1 1 1 1
0.999976 1 1 0.999976
0.999932 1 1 0.999932
0.99984 1 1 0.99984
0.999972 1 1 0.999972
0.999892 1 1 0.999892
0.999881 1 1 0.999881
0.999849 1 1 0.999849
1 1 1 1
0.999975 1 1 0.999975
0.999978 1 1 0.999978
0.999902 1 1 0.999902
0.999826 1 1 0.999826
0.999862 1 1 0.999862
0.999805 1 1 0.999805
0.9999 1 1 0.9999
0.999848 1 1 0.999848
0.999846 1 1 0.999846
0.999836 1 1 0.999836
1 1 1 1
0.99998 1 1 0.99998
0.999903 1 1 0.999903
0.999903 1 1 0.999903
0.999852 1 1 0.999852
0.999798 1 1 0.999798
0.999826 1 1 0.999826
0.999793 1 1 0.999793
0.99985 1 1 0.99985
0.999826 1 1 0.999826
0.999804 1 1 0.999804
0.999986 1 1 0.999986
0.999918 1 1 0.999918
0.99999 1 1 0.99999
0.999989 1 1 0.999989
1 1 1 1
1 1 1 1
1 1 1 1
1 1 1 1
1 1 1 1
1 1 1 1
1 1 1 1
1 1 1 1
1 1 1 1
1 1 1 1
1 1 1 1
0.999883 1 1 0.999883
0.999865 1 1 0.999865
0.999811 1 1 0.999811
0.999795 1 1 0.999795
0.999851 1 1 0.999851
0.999974 1 1 0.999974
0.999849 1 1 0.999849
0.999792 1 1 0.999792
0.999801 1 1 0.999801
0.999774 1 1 0.999774
0.999819 1 1 0.999819
0.999788 1 1 0.999788
0.999789 1 1 0.999789
0.999776 1 1 0.999776
0.999778 1 1 0.999778
0.999768 1 1 0.999768
0.999796 1 1 0.999796
0.999794 1 1 0.999794
0.999842 1 1 0.999842
0.999864 1 1 0.999864
0.99979 1 1 0.99979
0.9998 1 1 0.9998
1 1 1 1
0.999964 1 1 0.999964
0.999885 1 1 0.999885
0.999838 1 1 0.999838
0.999778 1 1 0.999778
0.999817 1 1 0.999817
0.999821 1 1 0.999821
0.999812 1 1 0.999812
0.999969 1 1 0.999969
0.999885 1 1 0.999885
0.999973 1 1 0.999973
0.999792 1 1 0.999792
0.999788 1 1 0.999788
0.999757 1 1 0.999757
0.999762 1 1 0.999762
0.999968 1 1 0.999968
0.999895 1 1 0.999895
0.999839 1 1 0.999839
0.999807 1 1 0.999807
0.999783 1 1 0.999783
0.9998 1 1 0.9998
0.999811 1 1 0.999811
0.999825 1 1 0.999825
0.999895 1 1 0.999895
0.999848 1 1 0.999848
0.99998 1 1 0.99998
0.999881 1 1 0.999881
0.999763 1 1 0.999763
0.999752 1 1 0.999752
0.99974 1 1 0.99974
0.999758 1 1 0.999758
0.999806 1 1 0.999806
0.999793 1 1 0.999793
0.999898 1 1 0.999898
0.999828 1 1 0.999828
0.999851 1 1 0.999851
0.999805 1 1 0.999805
0.99979 1 1 0.99979
0.999828 1 1 0.999828
0.999985 1 1 0.999985
0.999884 1 1 0.999884
0.999856 1 1 0.999856
0.999836 1 1 0.999836
0.99983 1 1 0.99983
1 1 1 1
0.999826 1 1 0.999826
0.999978 1 1 0.999978
0.999975 1 1 0.999975
0.999902 1 1 0.999902
0.999862 1 1 0.999862
0.999805 1 1 0.999805
0.9999 1 1 0.9999
0.999845 1 1 0.999845
0.999852 1 1 0.999852
0.999842 1 1 0.999842
1 1 1 1
0.99998 1 1 0.99998
0.999903 1 1 0.999903
0.999903 1 1 0.999903
0.999851 1 1 0.999851
0.999798 1 1 0.999798
0.999827 1 1 0.999827
0.999792 1 1 0.999792
0.99985 1 1 0.99985
0.999828 1 1 0.999828
0.999807 1 1 0.999807
0.999983 1 1 0.999983
0.999904 1 1 0.999904
0.999851 1 1 0.999851
0.99985 1 1 0.99985
0.999829 1 1 0.999829
0.999794 1 1 0.999794
0.999809 1 1 0.999809
0.999806 1 1 0.999806
0.999809 1 1 0.999809
0.999784 1 1 0.999784
0.999986 1 1 0.999986
0.999902 1 1 0.999902
0.999913 1 1 0.999913
0.999865 1 1 0.999865
0.999923 1 1 0.999923
0.999992 1 1 0.999992
0.999991 1 1 0.999991
1 1 1 1
0.99999 1 1 0.99999
1 1 1 1
1 1 1 1
1 1 1 1
1 1 1 1
1 1 1 1
1 1 1 1
1 1 1 1
1 1 1 1
1 1 1 1
1 1 1 1
1 1 1 1
0.999819 1 1 0.999819
0.999801 1 1 0.999801
0.999788 1 1 0.999788
0.999774 1 1 0.999774
0.999792 1 1 0.999792
0.999849 1 1 0.999849
0.99979 1 1 0.99979
0.999776 1 1 0.999776
0.999778 1 1 0.999778
0.999766 1 1 0.999766
0.999796 1 1 0.999796
0.999794 1 1 0.999794
0.999772 1 1 0.999772
0.999773 1 1 0.999773
0.999773 1 1 0.999773
0.99976 1 1 0.99976
0.9998 1 1 0.9998
0.999804 1 1 0.999804
0.999788 1 1 0.999788
0.999787 1 1 0.999787
0.999754 1 1 0.999754
0.999764 1 1 0.999764
0.999968 1 1 0.999968
0.999894 1 1 0.999894
0.999843 1 1 0.999843
0.999809 1 1 0.999809
0.999785 1 1 0.999785
0.999811 1 1 0.999811
0.999797 1 1 0.999797
0.999827 1 1 0.999827
0.999896 1 1 0.999896
0.999844 1 1 0.999844
0.999979 1 1 0.999979
0.999881 1 1 0.999881
0.999763 1 1 0.999763
0.999753 1 1 0.999753
0.999737 1 1 0.999737
0.999759 1 1 0.999759
0.999898 1 1 0.999898
0.999854 1 1 0.999854
0.999804 1 1 0.999804
0.999804 1 1 0.999804
0.999799 1 1 0.999799
0.999788 1 1 0.999788
0.999829 1 1 0.999829
0.999834 1 1 0.999834
0.999856 1 1 0.999856
0.999828 1 1 0.999828
0.999835 1 1 0.999835
0.999979 1 1 0.999979
0.999885 1 1 0.999885
0.99975 1 1 0.99975
0.99973 1 1 0.99973
0.999773 1 1 0.999773
0.999819 1 1 0.999819
0.999861 1 1 0.999861
0.999851 1 1 0.999851
0.999823 1 1 0.999823
0.999771 1 1 0.999771
0.99978 1 1 0.99978
0.999978 1 1 0.999978
0.999905 1 1 0.999905
0.999833 1 1 0.999833
0.999836 1 1 0.999836
0.999799 1 1 0.999799
0.999811 1 1 0.999811
1 1 1 1
0.99998 1 1 0.99998
0.999797 1 1 0.999797
0.999902 1 1 0.999902
0.999903 1 1 0.999903
0.999849 1 1 0.999849
0.999827 1 1 0.999827
0.99979 1 1 0.99979
0.999851 1 1 0.999851
0.99981 1 1 0.99981
0.999831 1 1 0.999831
0.999983 1 1 0.999983
0.999904 1 1 0.999904
0.999854 1 1 0.999854
0.999849 1 1 0.999849
0.999826 1 1 0.999826
0.999793 1 1 0.999793
0.999808 1 1 0.999808
0.999808 1 1 0.999808
0.999807 1 1 0.999807
0.999779 1 1 0.999779
0.999906 1 1 0.999906
0.99984 1 1 0.99984
0.999819 1 1 0.999819
0.999815 1 1 0.999815
0.999808 1 1 0.999808
0.999835 1 1 0.999835
0.999782 1 1 0.999782
0.999799 1 1 0.999799
0.99978 1 1 0.99978
0.999736 1 1 0.999736
0.999987 1 1 0.999987
0.999906 1 1 0.999906
0.999844 1 1 0.999844
0.999908 1 1 0.999908
0.999923 1 1 0.999923
0.999857 1 1 0.999857
0.999819 1 1 0.999819
0.999853 1 1 0.999853
0.999926 1 1 0.999926
0.999993 1 1 0.999993
0.999992 1 1 0.999992
1 1 1 1
0.999991 1 1 0.999991
1 1 1 1
1 1 1 1
1 1 1 1
1 1 1 1
1 1 1 1
1 1 1 1
1 1 1 1
1 1 1 1
1 1 1 1
1 1 1 1
1 1 1 1
0.999796 1 1 0.999796
0.999778 1 1 0.999778
0.999794 1 1 0.999794
0.999765 1 1 0.999765
0.999776 1 1 0.999776
0.99979 1 1 0.99979
0.999772 1 1 0.999772
0.999774 1 1 0.999774
0.999772 1 1 0.999772
0.999755 1 1 0.999755
0.9998 1 1 0.9998
0.999807 1 1 0.999807
0.999778 1 1 0.999778
0.99977 1 1 0.99977
0.99977 1 1 0.99977
0.999837 1 1 0.999837
0.999764 1 1 0.999764
0.999754 1 1 0.999754
0.999734 1 1 0.999734
0.99976 1 1 0.99976
0.999898 1 1 0.999898
0.999857 1 1 0.999857
0.999804 1 1 0.999804
0.999803 1 1 0.999803
0.999805 1 1 0.999805
0.999829 1 1 0.999829
0.999786 1 1 0.999786
0.999841 1 1 0.999841
0.999856 1 1 0.999856
0.999825 1 1 0.999825
0.999834 1 1 0.999834
0.999972 1 1 0.999972
0.999886 1 1 0.999886
0.999747 1 1 0.999747
0.999733 1 1 0.999733
0.999775 1 1 0.999775
0.999861 1 1 0.999861
0.999828 1 1 0.999828
0.999769 1 1 0.999769
0.999816 1 1 0.999816
0.999788 1 1 0.999788
0.99985 1 1 0.99985
0.999978 1 1 0.999978
0.999836 1 1 0.999836
0.999813 1 1 0.999813
0.999802 1 1 0.999802
0.999835 1 1 0.999835
0.999899 1 1 0.999899
0.999742 1 1 0.999742
0.99973 1 1 0.99973
0.999799 1 1 0.999799
0.99985 1 1 0.99985
0.999837 1 1 0.999837
0.999814 1 1 0.999814
0.999783 1 1 0.999783
0.999745 1 1 0.999745
0.999983 1 1 0.999983
0.999914 1 1 0.999914
0.999846 1 1 0.999846
0.999782 1 1 0.999782
0.999814 1 1 0.999814
0.999784 1 1 0.999784
0.999984 1 1 0.999984
0.999904 1 1 0.999904
0.999793 1 1 0.999793
0.999849 1 1 0.999849
0.999857 1 1 0.999857
0.999823 1 1 0.999823
0.999807 1 1 0.999807
0.99981 1 1 0.99981
0.999805 1 1 0.999805
0.999775 1 1 0.999775
0.999906 1 1 0.999906
0.999843 1 1 0.999843
0.999824 1 1 0.999824
0.999818 1 1 0.999818
0.99981 1 1 0.99981
0.999838 1 1 0.999838
0.999784 1 1 0.999784
0.999812 1 1 0.999812
0.999777 1 1 0.999777
0.999732 1 1 0.999732
0.99984 1 1 0.99984
0.999798 1 1 0.999798
0.999791 1 1 0.999791
0.99979 1 1 0.99979
0.999846 1 1 0.999846
0.999838 1 1 0.999838
0.999736 1 1 0.999736
0.999715 1 1 0.999715
0.99991 1 1 0.99991
0.999848 1 1 0.999848
0.999812 1 1 0.999812
0.999923 1 1 0.999923
0.99985 1 1 0.99985
0.999926 1 1 0.999926
0.999814 1 1 0.999814
0.999856 1 1 0.999856
0.999787 1 1 0.999787
0.99981 1 1 0.99981
0.999856 1 1 0.999856
0.999928 1 1 0.999928
0.999993 1 1 0.999993
0.999993 1 1 0.999993
1 1 1 1
0.999993 1 1 0.999993
1 1 1 1
1 1 1 1
1 1 1 1
1 1 1 1
1 1 1 1
1 1 1 1
1 1 1 1
1 1 1 1
1 1 1 1
1 1 1 1
1 1 1 1
0.9998 1 1 0.9998
0.99977 1 1 0.99977
0.99981 1 1 0.99981
0.99975 1 1 0.99975
0.999774 1 1 0.999774
0.999772 1 1 0.999772
0.999775 1 1 0.999775
0.99977 1 1 0.99977
0.999774 1 1 0.999774
0.999834 1 1 0.999834
0.999774 1 1 0.999774
0.999774 1 1 0.999774
0.999809 1 1 0.999809
0.999743 1 1 0.999743
0.999737 1 1 0.999737
0.999777 1 1 0.999777
0.999861 1 1 0.999861
0.999832 1 1 0.999832
0.999768 1 1 0.999768
0.999814 1 1 0.999814
0.999848 1 1 0.999848
0.999797 1 1 0.999797
0.999836 1 1 0.999836
0.999816 1 1 0.999816
0.999804 1 1 0.999804
0.999978 1 1 0.999978
0.999837 1 1 0.999837
0.999894 1 1 0.999894
0.999747 1 1 0.999747
0.999728 1 1 0.999728
0.999795 1 1 0.999795
0.999837 1 1 0.999837
0.999788 1 1 0.999788
0.999749 1 1 0.999749
0.999853 1 1 0.999853
0.999813 1 1 0.999813
0.999988 1 1 0.999988
0.999914 1 1 0.999914
0.999813 1 1 0.999813
0.999785 1 1 0.999785
0.999786 1 1 0.999786
0.999842 1 1 0.999842
0.999758 1 1 0.999758
0.99974 1 1 0.99974
0.999855 1 1 0.999855
0.999861 1 1 0.999861
0.999806 1 1 0.999806
0.999744 1 1 0.999744
0.999753 1 1 0.999753
0.999997 1 1 0.999997
0.999943 1 1 0.999943
0.999917 1 1 0.999917
0.999844 1 1 0.999844
0.99979 1 1 0.99979
0.999756 1 1 0.999756
0.999795 1 1 0.999795
0.999763 1 1 0.999763
0.999906 1 1 0.999906
0.999845 1 1 0.999845
0.999841 1 1 0.999841
0.999821 1 1 0.999821
0.999828 1 1 0.999828
0.999812 1 1 0.999812
0.999785 1 1 0.999785
0.999824 1 1 0.999824
0.999774 1 1 0.999774
0.999728 1 1 0.999728
0.999839 1 1 0.999839
0.999802 1 1 0.999802
0.999795 1 1 0.999795
0.999793 1 1 0.999793
0.999846 1 1 0.999846
0.999834 1 1 0.999834
0.999742 1 1 0.999742
0.999714 1 1 0.999714
0.999805 1 1 0.999805
0.999819 1 1 0.999819
0.999774 1 1 0.999774
0.999758 1 1 0.999758
0.999864 1 1 0.999864
0.999725 1 1 0.999725
0.999815 1 1.00013 0.999687
0.999852 1 1 0.999852
0.999812 1 1 0.999812
0.999783 1 1 0.999783
0.999926 1 1 0.999926
0.999859 1 1 0.999859
0.999809 1 1 0.999809
0.999928 1 1 0.999928
0.999856 1 1 0.999856
0.999783 1 1 0.999783
0.999815 1 1 0.999815
0.999763 1 1 0.999763
0.999776 1 1 0.999776
0.999817 1 1 0.999817
0.999861 1 1 0.999861
0.999927 1 1 0.999927
0.999993 1 1 0.999993
0.999993 1 1 0.999993
1 1 1 1
0.999993 1 1 0.999993
1 1 1 1
1 1 1 1
1 1 1 1
1 1 1 1
1 1 1 1
0.999999 1 1 0.999999
1 1 1 1
1 1 1 1
1 1 1 1
1 1 1 1
1 1 1 1
1 1 1 1
0.999831 1 1 0.999831
0.999778 1 1 0.999778
0.999769 1 1 0.999769
0.999771 1 1 0.999771
0.999779 1 1 0.999779
0.999771 1 1 0.999771
0.999818 1 1 0.999818
0.999782 1 1 0.999782
0.999786 1 1 0.999786
0.999852 1 1 0.999852
0.999753 1 1 0.999753
0.999727 1 1 0.999727
0.99979 1 1 0.99979
0.999836 1 1 0.999836
0.999793 1 1 0.999793
0.999752 1 1 0.999752
0.999857 1 1 0.999857
0.999812 1 1 0.999812
0.999813 1 1 0.999813
0.999786 1 1 0.999786
0.99979 1 1 0.99979
0.999994 1 1 0.999994
0.999914 1 1 0.999914
0.999838 1 1 0.999838
0.999755 1 1 0.999755
0.999996 1 1 0.999996
0.999939 1 1 0.999939
0.999742 1 1 0.999742
0.999845 1 1 0.999845
0.999808 1 1 0.999808
0.999748 1 1 0.999748
0.999746 1 1 0.999746
0.999859 1 1 0.999859
0.999928 1 1 0.999928
0.999843 1 1 0.999843
0.999797 1 1 0.999797
0.999768 1 1 0.999768
0.99975 1 1 0.99975
0.999791 1 1 0.999791
0.999736 1 1 0.999736
0.999798 1 1 0.999798
0.999911 1 1 0.999911
0.999789 1 1 0.999789
0.999783 1 1 0.999783
0.999831 1 1.00012 0.999716
0.999941 1 1 0.999941
0.999936 1 1 0.999936
0.999887 1 1 0.999887
0.999844 1 1 0.999844
0.999799 1 1 0.999799
0.999743 1 1 0.999743
0.999723 1 1 0.999723
0.999766 1 1 0.999766
0.999839 1 1 0.999839
0.999807 1 1 0.999807
0.999847 1 1 0.999847
0.999831 1 1 0.999831
0.999796 1 1 0.999796
0.999799 1 1 0.999799
0.999747 1 1 0.999747
0.999713 1 1 0.999713
0.999805 1 1 0.999805
0.999834 1 1 0.999834
0.999773 1 1 0.999773
0.999752 1 1 0.999752
0.99986 1 1 0.99986
0.999726 1 1 0.999726
0.999793 1 1.00011 0.999685
0.999774 1 1 0.999774
0.999729 1 0.999874 0.999854
0.999753 1 1 0.999753
0.99992 1 1.00022 0.999703
0.999728 1 1 0.999728
1.00043 1 1.00077 0.999658
0.984573 1.00306 0.981895 0.99967
0.999812 1 1 0.999812
0.999783 1 1 0.999783
0.999762 1 1 0.999762
0.999928 1 1 0.999928
0.999856 1 1 0.999856
0.999821 1 1 0.999821
0.999779 1 1 0.999779
0.999927 1 1 0.999927
0.999857 1 1 0.999857
0.999762 1 1 0.999762
0.999817 1 1 0.999817
0.999781 1 1 0.999781
0.999747 1 1 0.999747
0.999782 1 1 0.999782
0.999818 1 1 0.999818
0.99985 1 1 0.99985
0.999916 1 1 0.999916
0.999867 1 1 0.999867
0.999915 1 1 0.999915
0.999993 1 1 0.999993
0.999993 1 1 0.999993
1 1 1 1
0.999993 1 1 0.999993
1 1 1 1
1 1 1 1
1 1 1 1
1 1 1 1
1 1 1 1
1 1 1 1
0.999999 1 1 0.999999
1 1 1 1
1 1 1 1
1 1 1 1
1 1 1 1
1 1 1 1
1 1 1 1
0.999826 1 1 0.999826
0.999767 1 1 0.999767
0.999784 1 1 0.999784
0.999783 1 1 0.999783
0.999788 1 1 0.999788
0.999862 1 1 0.999862
0.999795 1 1 0.999795
0.995909 1.00031 0.995691 0.999913
0.999642 1 0.999705 0.999936
0.999956 1 1 0.999956
0.999751 1 1 0.999751
0.999744 1 1 0.999744
0.999835 1 1 0.999835
0.99981 1 1 0.99981
0.999744 1 1 0.999744
0.999748 1 1 0.999748
0.999857 1 1 0.999857
0.999799 1 1 0.999799
0.999773 1 1 0.999773
0.999744 1 1 0.999744
0.999996 1 1 0.999996
0.999793 1 1 0.999793
0.999939 1 1 0.999939
0.999842 1 1 0.999842
0.999934 1 1 0.999934
0.999729 1 1 0.999729
0.999946 1 1 0.999946
0.999936 1 1 0.999936
0.999879 1 1 0.999879
0.999799 1 1 0.999799
0.999801 1 0.999904 0.999898
0.999785 1 1 0.999785
0.99973 1 1.00002 0.999714
0.999791 1 1 0.999791
0.99985 1 1 0.99985
0.999797 1 1 0.999797
0.999766 1 1 0.999766
0.99973 1 1 0.999729
0.999747 1 1 0.999747
0.99976 1 1.00004 0.999715
0.997746 1 0.997852 0.999895
0.999837 1 1 0.999837
0.999754 1 1.00003 0.999723
0.999843 1 1.00009 0.999753
0.999879 1 1 0.999879
0.999859 1 1 0.999859
0.999833 1 1 0.999833
0.999795 1 1 0.999795
0.99976 1 1 0.99976
0.999714 1 1 0.999714
1.00123 1 1.00152 0.999715
0.999805 1 1 0.999805
0.999773 1 1 0.999773
0.999849 1 1 0.999849
0.999857 1 1 0.999857
0.999728 1 1 0.999728
0.999746 1 1 0.999746
0.999698 1 1.00002 0.999682
0.999776 1 1 0.999776
0.99975 1 0.999887 0.999863
0.999752 1 1 0.999752
0.999775 1 1.00007 0.999702
0.99974 1 1 0.99974
1.00093 1 1.00127 0.999655
0.988975 1.00567 0.983695 0.999699
0.999754 1 1 0.999754
0.999698 1 1 0.999698
0.99973 1 1 0.99973
1.00205 1 1.00239 0.999662
1.00048 1 1.00084 0.999637
0.962805 0.963896 1.00004 0.998829
0.987645 1.00134 0.986562 0.999762
0.984749 1.00805 0.977252 0.999622
0.968206 0.974839 0.993336 0.999859
0.974031 0.997655 0.976358 0.999962
0.999783 1 1 0.999783
0.999763 1 1 0.999763
0.999741 1 1 0.999741
0.999927 1 1 0.999927
0.999854 1 1 0.999854
0.999817 1 1 0.999817
0.999785 1 1 0.999785
0.999761 1 1 0.999761
0.999812 1 1 0.999812
0.999921 1 1 0.999921
0.999854 1 1 0.999854
0.99975 1 1 0.99975
0.99978 1 1 0.99978
0.999784 1 1 0.999784
0.999747 1 1 0.999747
0.9998 1 1 0.9998
0.999848 1 1 0.999848
0.999915 1 1 0.999915
0.999861 1 1 0.999861
0.999816 1 1 0.999816
0.999852 1 1 0.999852
0.999859 1 1 0.999859
0.999923 1 1 0.999923
0.999915 1 1 0.999915
0.999992 1 1 0.999992
0.999992 1 1 0.999992
1 1 1 1
0.999993 1 1 0.999993
1 1 1 1
1 1 1 1
1 1 1 1
1 1 1 1
1 1 1 1
1 1 1 1
1 1 1 1
1 1 1 1
0.999998 1 1 0.999998
1 1 1 1
1 1 1 1
1 1 1 1
1 1 1 1
1 1 1 1
0.99979 1 1 0.99979
0.999783 1 1 0.999783
0.999872 1 1 0.999872
0.995505 1 0.995592 0.999909
0.999794 1 1 0.999794
0.999773 1 0.999863 0.99991
0.999799 1 1.00004 0.999761
0.981433 0.984914 0.99692 0.999545
0.999681 1 0.999727 0.999954
0.999959 1 1 0.999959
0.999955 1 1 0.999955
0.999895 1 1 0.999895
0.999905 1 1 0.999905
0.999722 1 1 0.999722
0.999801 1 1 0.999801
0.999809 1 0.999925 0.999884
0.999786 1 1 0.999786
0.999713 1 1 0.999713
0.999793 1 1 0.999793
0.999766 1 1 0.999766
0.999736 1 1 0.999736
0.999751 1 1 0.999751
0.999936 1 1 0.999936
0.999794 1 1 0.999794
0.999856 1 1 0.999856
0.999951 1 1 0.999951
0.99987 1 1 0.99987
0.999758 1 1.00003 0.999723
0.999888 1 1 0.999888
0.999864 1 1 0.999864
0.999834 1 1 0.999834
0.998671 1 0.998777 0.999894
0.9998 1 0.999962 0.999838
0.999875 1 1.00012 0.999752
0.999784 1 1.00006 0.999726
0.999796 1 1 0.999796
0.999763 1 1 0.999763
1.00063 1 1.00092 0.999715
0.999713 1 1 0.999713
0.999811 1 1.00003 0.99978
0.99802 1 0.998134 0.999886
0.999713 1 1 0.999713
1.00004 1 1.00032 0.999719
0.999818 1 1 0.999818
0.999806 1 1 0.999806
0.999734 1 1 0.999734
1.00166 1 1.00199 0.999672
0.961087 0.964087 0.998058 0.998828
0.999779 1 1 0.999779
0.999751 1 1 0.999751
0.999824 1 0.999953 0.999871
0.999753 1 1 0.999753
1.0015 1 1.00185 0.999653
0.999702 1 1 0.999702
0.993637 1.00817 0.985851 0.999727
0.999756 1 1 0.999756
0.999851 1.00015 1 0.999699
0.999731 1 1 0.999731
1.0017 1 1.00204 0.999664
1.00021 1 1.00056 0.999647
0.964328 0.964336 1.00105 0.998947
0.9841 0.998292 0.986318 0.999459
0.987353 1.00998 0.977968 0.999624
0.97074 0.977111 0.993778 0.9997
0.973756 0.995385 0.978304 0.999966
0.999745 1 1 0.999745
0.974826 0.977513 0.997714 0.999536
0.990287 0.999427 0.990881 0.999974
0.999628 1 1 0.999628
1.00117 1 1.00146 0.999714
1.00709 1 1.00745 0.999648
1.00137 1.01017 0.991723 0.999561
0.976314 0.9729 1.00478 0.998735
0.986589 1.00695 0.980333 0.999437
0.964148 0.977735 0.986262 0.999839
0.991067 1.00534 0.985831 0.999973
0.999763 1 1 0.999763
0.999741 1 1 0.999741
0.999721 1 1 0.999721
0.999926 1 1 0.999926
0.999858 1 1 0.999858
0.999806 1 1 0.999806
0.999778 1 1 0.999778
0.999754 1 1 0.999754
0.999915 1 1 0.999915
0.999783 1 1 0.999783
0.999806 1 1 0.999806
0.999853 1 1 0.999853
0.999743 1 1 0.999743
0.999764 1 1 0.999764
0.999917 1 1.0002 0.99972
0.9998 1 1 0.9998
0.999859 1 1 0.999859
0.999861 1 1 0.999861
0.999809 1 1 0.999809
0.999809 1 1 0.999809
0.999803 1 1 0.999803
0.999778 1 1 0.999778
0.999791 1 1 0.999791
0.999844 1 1 0.999844
0.999852 1 1 0.999852
0.999918 1 1 0.999918
0.99985 1 1 0.99985
0.999918 1 1 0.999918
0.999991 1 1 0.999991
0.999915 1 1 0.999915
0.999992 1 1 0.999992
1 1 1 1
0.999992 1 1 0.999992
1 1 1 1
1 1 1 1
1 1 1 1
1 1 1 1
1 1 1 1
0.999958 1 1 0.999958
1 1 1 1
1 1 1 1
1 1 1 1
1 1 1 1
1 1 1 1
1 1 1 1
1 1 1 1
1 1 1 1
1 1 1 1
0.995039 1 0.995134 0.999905
0.999792 1 1 0.999792
0.999883 1 1 0.999883
0.9824 0.984616 0.998027 0.999721
0.999835 1 0.999883 0.999952
0.999781 1 1.00003 0.999747
1.00134 1 1.00159 0.99975
0.98788 0.986686 1.00163 0.999584
0.966063 0.967379 1.00011 0.998526
0.967076 0.97459 0.992772 0.999514
0.978972 0.994426 0.984491 0.999969
0.999894 1 1 0.999894
0.999959 1 1 0.999959
0.999955 1 1 0.999955
0.999893 1 1 0.999893
0.999854 1 1 0.999854
0.999866 1 1 0.999866
0.999899 1 1 0.999899
0.999902 1 1 0.999902
0.999757 1 1.00003 0.999731
0.999438 1 0.999545 0.999893
0.999646 1 0.999807 0.999839
0.99988 1 1.00013 0.999751
0.999729 1 1 0.999729
1.00009 1 1.00037 0.999716
0.999714 1 1 0.999713
0.999766 1 1 0.999766
0.999869 1 1 0.999869
0.999798 1 1 0.999798
0.999896 1 1 0.999896
0.999836 1 1 0.999836
0.999251 1 0.999476 0.999775
0.999821 1 1 0.999821
0.999808 1 1 0.999808
0.997616 1 0.997731 0.999885
0.99972 1 1 0.99972
1.00048 1 1.00077 0.999709
0.999734 1 1 0.999734
1.00168 1 1.00201 0.999674
0.989854 1.00387 0.986234 0.999805
1.0018 1 1.00206 0.99974
0.999678 1 1 0.999678
1.00453 1 1.00488 0.999655
0.999782 1 1 0.999782
0.999756 1 1 0.999756
1.00023 1 1.00054 0.999682
0.9732 0.979369 0.993909 0.999792
0.964629 0.965835 0.99988 0.998871
0.999758 1 1 0.999758
0.999731 1 1 0.999731
1.00012 1.00042 0.999999 0.999701
0.999921 1 1.00026 0.999657
1.00127 1 1.0016 0.999666
0.963676 0.965271 0.999863 0.998484
0.987509 0.99819 0.989468 0.999829
0.990479 1.01227 0.978839 0.999624
0.967565 0.976221 0.991597 0.999532
0.973058 0.992884 0.980062 0.999969
0.999744 1 1 0.999744
0.973454 0.978492 0.99504 0.99981
0.990164 0.998685 0.991488 0.999979
0.999629 1 1 0.999626
1.00044 1 1.00072 0.999716
1.00632 1 1.00667 0.999658
0.999194 1.0076 0.992104 0.999547
0.975131 0.973598 1.00302 0.998561
0.980467 1.00244 0.978272 0.9998
0.964088 0.977609 0.986655 0.999508
0.98684 1.00559 0.981382 0.999973
0.999727 1 1 0.999727
1.0014 1.00289 0.998533 0.999984
1.00401 1.0058 0.998236 0.999984
1.0094 1 1.00978 0.999627
1.00514 1 1.0054 0.999744
1.00439 1.00361 1.00103 0.999757
0.99117 1.0016 0.989656 0.999926
0.979217 0.976717 1.00391 0.998656
0.973499 0.989385 0.984458 0.999477
0.999766 1.00809 0.991767 0.999977
0.999741 1 1 0.999741
0.99972 1 1 0.99972
1.00013 1 1.00042 0.999709
0.999915 1 1 0.999915
0.999858 1 1 0.999858
0.999812 1 1 0.999812
0.999781 1 1 0.999781
0.999738 1 1 0.999738
0.999859 1 1 0.999859
0.999768 1 1 0.999768
0.9998 1 1 0.9998
0.999961 1 1.00024 0.999716
1.00025 1 1.00055 0.999695
0.999833 1 1.00009 0.999747
0.999804 1 1 0.999804
0.999861 1 1 0.999861
0.999803 1 1 0.999803
0.999809 1 1 0.999809
0.999803 1 1 0.999803
0.999778 1 1 0.999778
0.999793 1 1 0.999793
0.99977 1 1 0.99977
0.99976 1 1 0.99976
0.999775 1 1 0.999775
0.999806 1 1 0.999806
0.999802 1 1 0.999802
0.999792 1 1 0.999792
0.999839 1 1 0.999839
0.999844 1 1 0.999844
0.999912 1 1 0.999912
0.999852 1 1 0.999852
0.999918 1 1 0.999918
0.99999 1 1 0.99999
0.999913 1 1 0.999913
0.999991 1 1 0.999991
1 1 1 1
0.999992 1 1 0.999992
1 1 1 1
1 1 1 1
1 1 1 1
1 1 1 1
1 1 1 1
0.999962 1 1 0.999962
1 1 1 1
0.999958 1 1 0.999958
1 1 1 1
1 1 1 1
1 1 1 1
1 1 1 1
1 1 1 1
1 1 1 1
1 1 1 1
1 1 1 1
0.971834 0.97666 0.99522 0.999838
0.993928 1.00018 0.993765 0.999986
0.984392 0.985192 0.999319 0.999869
0.999933 1 0.999984 0.999949
0.999762 1 1.00003 0.999733
0.987144 0.985281 1.00196 0.999935
1.00055 1 1.0008 0.999759
0.969701 0.969511 1.00136 0.998841
0.969167 0.975246 0.99391 0.999855
0.977977 0.994158 0.983751 0.999972
0.999668 0.995172 1.00465 0.999867
0.975014 0.973566 1.00269 0.998799
0.964522 0.976275 0.988114 0.999845
0.986275 1.00553 0.980881 0.99997
0.99984 1 1 0.99984
0.999898 1 1 0.999898
0.999959 1 1 0.999959
0.999891 1 1 0.999891
0.999858 1 1 0.999858
0.999852 1 1 0.999852
0.999868 1 1 0.999868
0.99988 1 1 0.99988
0.999894 1 1 0.999894
0.999898 1 1 0.999898
0.998796 1 0.999025 0.99977
0.997462 1 0.997579 0.999884
0.999727 1 1 0.999727
1.00092 1 1.00122 0.999698
1.00159 1 1.00192 0.999677
0.999734 1 1 0.999734
0.99981 1 1 0.99981
0.999823 1 1 0.999823
0.991849 1.00232 0.989765 0.999789
0.99978 1 1 0.99978
0.99975 1 1 0.99975
1.00022 1 1.00048 0.999744
0.999877 1 1.0002 0.999672
1.00357 1 1.00392 0.999647
1.0008 1 1.00112 0.999676
0.984415 1.01151 0.973502 0.9997
1.0081 1 1.00845 0.999658
1.00435 1 1.00472 0.999632
0.999779 1 1 0.999779
0.999745 1 1 0.999745
0.999704 1 1 0.999704
0.998835 1.00147 0.997405 0.999964
0.973852 0.97868 0.995545 0.99952
0.962585 0.965553 0.998115 0.998808
0.999744 1 1 0.999744
0.999718 1 1 0.999718
0.999625 1 1 0.999625
1.00567 1 1.006 0.999668
0.970996 0.977419 0.993913 0.999512
0.972279 0.972279 1.00092 0.999084
0.98064 1.00346 0.977761 0.999486
0.997754 1.00518 0.993072 0.999537
0.964346 0.976776 0.987417 0.999856
0.991129 0.999848 0.991307 0.999973
0.987322 1.00579 0.981667 0.99997
0.999726 1 1 0.999726
0.999491 1.00178 0.99774 0.999977
1.00507 1.00698 0.998114 0.999983
1.00971 1 1.01008 0.999629
1.00524 1 1.0055 0.999743
1.0073 1.00315 1.00461 0.999524
0.987736 1.00158 0.986686 0.99949
0.97905 0.978001 1.00243 0.99865
0.977525 0.988841 0.988693 0.999863
0.996095 1.00664 0.989558 0.99997
0.999755 1 1 0.999755
1.00382 1.00403 0.999794 0.999992
1.00123 1.00242 0.998824 0.999996
1.00673 1 1.00689 0.999842
0.998007 0.995369 1.00269 0.999957
0.988407 0.984687 1.00501 0.99877
0.986968 1.00129 0.985865 0.999827
0.998213 1.00659 0.991722 0.999959
0.999718 1 1 0.999718
1.00007 1 1.00036 0.999713
1.00101 1 1.0013 0.999709
0.999858 1 1 0.999858
0.9998 1 1 0.9998
0.999771 1 1 0.999771
0.999994 1 1.00028 0.999712
0.999804 1 1 0.999804
0.999778 1 1.00003 0.999747
1.00063 1 1.00093 0.999693
1.00056 1 1.00086 0.999703
0.999913 1 1.00021 0.999701
0.999762 1 1 0.999762
0.999808 1 1 0.999808
0.999802 1 1 0.999802
0.999777 1 1 0.999777
0.999772 1 1 0.999772
0.999794 1 1 0.999794
0.999762 1 1 0.999762
0.999756 1 1 0.999756
0.999744 1 1 0.999744
0.999759 1 1 0.999759
0.999775 1 1 0.999775
0.999785 1 1 0.999785
0.999796 1 1 0.999796
0.999835 1 1 0.999835
0.999815 1 1 0.999815
0.999805 1 1 0.999805
0.999838 1 1 0.999838
0.999793 1 1 0.999793
0.999839 1 1 0.999839
0.999905 1 1 0.999905
0.999844 1 1 0.999844
0.999911 1 1 0.999911
0.999988 1 1 0.999988
0.999918 1 1 0.999918
0.99999 1 1 0.99999
1 1 1 1
0.999991 1 1 0.999991
1 1 1 1
1 1 1 1
1 1 1 1
1 1 1 1
1 1 1 1
0.999944 1 1 0.999944
1 1 1 1
0.999954 1 1 0.999954
1 1 1 1
1 1 1 1
0.999958 1 1 0.999958
1 1 1 1
1 1 1 1
1 1 1 1
1 1 1 1
1 1 1 1
1 1 1 1
1.00017 1.00163 0.998548 0.999988
0.972285 0.976956 0.995536 0.999681
1.00347 1.00599 0.997508 0.999988
0.992047 0.99801 0.99404 0.999985
0.984105 0.983981 1.00054 0.999588
0.99981 1 1.00004 0.999768
0.970164 0.969236 1.00178 0.999176
0.967997 0.975115 0.993166 0.99953
0.977331 0.994071 0.983184 0.999976
0.99685 0.996733 1.00037 0.999751
0.974232 0.971461 1.00412 0.998737
0.966745 0.978227 0.98875 0.999506
0.984087 1.00465 0.979562 0.999973
0.996555 1.00432 0.992388 0.999881
0.976378 0.973222 1.00461 0.99864
0.975348 0.990244 0.985102 0.999853
0.994776 1.00909 0.985837 0.999979
0.999811 1 1 0.999811
0.999846 1 1 0.999846
0.999902 1 1 0.999902
0.999862 1 1 0.999862
0.999825 1 1 0.999825
0.999855 1 1 0.999855
0.99987 1 1 0.99987
0.999874 1 1 0.999874
0.999885 1 1 0.999885
0.999889 1 1 0.999889
0.993988 1.00094 0.993282 0.999773
0.998656 1 0.998908 0.999748
0.999999 1 1.00033 0.999666
1.00286 1 1.00323 0.999639
1.00143 1 1.00176 0.999671
0.999745 1 1 0.999745
0.999777 1 1 0.999777
0.99978 1 1 0.99978
0.986162 1.00851 0.978135 0.999697
0.999748 1 1 0.999748
0.999792 1 1.00009 0.999701
1.00736 1 1.00771 0.999656
1.00416 1 1.00453 0.999632
0.987615 1.01062 0.977574 0.999657
1.01746 1 1.01781 0.999663
1.00044 1 1.00078 0.999658
0.999752 1 1 0.999752
0.99971 1 1 0.99971
1.00188 1.00209 0.999798 0.999997
0.999556 1.00149 0.99809 0.999976
0.974061 0.979424 0.994706 0.999817
0.999725 1 1 0.999725
1.0052 1 1.00546 0.999743
1.00983 1 1.0102 0.99963
1.00087 1.00231 0.998573 0.999985
0.978868 0.976471 1.00385 0.998605
0.983772 1.00027 0.983587 0.999917
1.00818 1.002 1.00689 0.999283
0.971583 0.986873 0.985003 0.999495
1.00631 1.00835 0.997988 0.999982
0.997493 1.00618 0.991397 0.999966
0.99976 1 1 0.99976
1.00368 1.00377 0.999921 0.999992
1.00129 1.00261 0.998686 0.999997
1.00702 0.999985 1.00726 0.999773
0.997133 0.996573 1.00074 0.999819
0.991038 0.987319 1.00511 0.998667
1.00177 1.00749 0.994355 0.999968
0.987497 0.997589 0.990188 0.999693
0.999791 1 1 0.999791
0.999349 0.999176 1.00017 1
0.999043 0.999901 0.999141 1
0.996964 1.00858 0.988509 0.999978
1.00282 0.997258 1.00565 0.999922
0.98556 0.983473 1.00323 0.998901
0.988572 0.999631 0.989189 0.999744
0.999985 1 1.00027 0.999717
1.00079 1 1.00109 0.999703
1.00316 1 1.00343 0.999726
0.999804 1 1 0.999804
0.999748 1 1 0.999748
1.00107 1 1.00138 0.999692
0.999763 1 1 0.999763
1.00003 1 1.00033 0.9997
1.00096 1 1.00126 0.999696
1.00007 1 1.00035 0.999711
0.99972 1 1 0.99972
0.999774 1 1 0.999774
0.999794 1 1 0.999794
0.999764 1 1 0.999764
0.999744 1 1 0.999744
0.999756 1 1 0.999756
0.999738 1 1 0.999738
0.999772 1 1 0.999772
0.999812 1 1.00008 0.999732
0.999775 1 1 0.999775
0.999785 1 1 0.999785
0.999758 1 1 0.999758
0.999806 1 1 0.999806
0.99984 1 1 0.99984
0.999796 1 1 0.999796
0.999856 1 1 0.999856
0.999833 1 1 0.999833
0.999825 1 1 0.999825
0.999809 1 1 0.999809
0.999841 1 1 0.999841
0.999903 1 1 0.999903
0.999839 1 1 0.999839
0.999905 1 1 0.999905
0.999986 1 1 0.999986
0.999911 1 1 0.999911
0.999988 1 1 0.999988
1 1 1 1
0.999989 1 1 0.999989
1 1 1 1
1 1 1 1
1 1 1 1
1 1 1 1
1 1 1 1
0.999923 1 1 0.999923
0.999989 1 1 0.999989
0.999944 1 1 0.999944
1 1 1 1
0.999995 1 1 0.999995
0.999946 1 1 0.999946
1 1 1 1
1 1 1 1
1 1 1 1
1 1 1 1
1 1 1 1
1 1 1 1
1.00313 1.00328 0.999858 0.999994
0.997877 1.00075 0.997157 0.999969
0.97419 0.977284 0.997289 0.999544
0.999853 1 1 0.999853
1.00151 1.00171 0.999801 0.999997
1.00426 1.0062 0.998082 0.999988
0.990705 0.997702 0.993016 0.99997
0.994209 0.997892 0.99669 0.999618
0.976606 0.9718 1.0062 0.99875
0.96959 0.979234 0.990295 0.999854
0.985425 1.004 0.981532 0.999969
0.995007 1.00764 0.987928 0.999524
0.978263 0.974995 1.00467 0.998686
0.972728 0.98909 0.983777 0.999674
0.995881 1.00998 0.986067 0.999971
0.978874 1.0009 0.978478 0.999503
0.982749 0.979879 1.00459 0.998342
0.984873 0.995217 0.990102 0.9995
0.996732 1.00721 0.989647 0.999951
0.99978 1 1 0.99978
0.999808 1 1 0.999808
0.999852 1 1 0.999852
0.999815 1 1 0.999815
0.99983 1 1 0.99983
0.999858 1 1 0.999858
0.999876 1 1 0.999876
0.99989 1 1 0.99989
0.987879 1.00545 0.982828 0.999693
1.0065 1 1.00685 0.999654
0.99978 1 1 0.99978
1.00387 1 1.00424 0.999632
0.999865 1 1.00017 0.999698
0.99975 1 1 0.99975
0.999752 1 1 0.999752
0.988685 1.00976 0.97947 0.999654
0.999709 1 1 0.999709
1.00126 1 1.0016 0.999657
1.01763 1 1.01798 0.999662
0.999746 1 1 0.999746
1.00379 1.00289 1.00118 0.999722
1.01332 1 1.01363 0.999689
0.999689 1 1 0.999689
0.999715 1 1 0.999715
0.999094 0.999043 1.00005 1
1.00199 1.00217 0.999824 0.999997
1.0001 1.00155 0.998564 0.999988
0.999765 1 1 0.999765
1.00761 0.999979 1.00793 0.999704
1.00351 1.00352 0.999995 0.999993
0.987648 0.981773 1.00733 0.998669
1.00111 1.00072 1.00089 0.999506
0.981918 0.9943 0.987976 0.999565
1.00116 1.00255 0.998618 0.999997
1.00512 1.0082 0.996972 0.999977
0.999788 1 1 0.999788
0.999142 0.998898 1.00024 1
0.99891 0.999069 0.999839 1
1.0003 0.996157 1.00421 0.999946
0.997902 1.00951 0.988533 0.999971
0.986449 0.987197 1.00024 0.999007
0.984242 0.995643 0.989052 0.999492
1.00224 0.998788 1.00364 0.999823
0.99916 0.998723 1.00044 1
1.00183 1.0017 1.00014 0.999996
0.987943 1.0052 0.982858 0.99997
0.984274 0.992819 0.991877 0.999513
0.994736 0.993114 1.00152 1.00012
0.979598 0.98298 0.997616 0.998941
1.00059 1 1.00089 0.999698
1.00231 1 1.00259 0.999722
1.01161 1 1.01191 0.999706
0.999765 1 1 0.999765
1.00007 1 1.00037 0.9997
1.00123 1 1.00154 0.999689
0.999721 1 1 0.999721
1.00014 1 1.00043 0.99971
1.003 1 1.00329 0.999709
0.999745 1 1 0.999745
0.999755 1 1 0.999755
0.999915 1 1.00018 0.999736
1.00117 1 1.00146 0.999705
0.999785 1 1 0.999785
0.999795 1 1.00006 0.999737
0.999785 1 1.00007 0.99971
0.999758 1 1 0.999758
0.999786 1 1 0.999786
0.999754 1 1 0.999754
0.999824 1 1 0.999824
0.99984 1 1 0.99984
0.999811 1 1 0.999811
0.999866 1 1 0.999866
0.999839 1 1 0.999839
0.999796 1 1 0.999796
0.999907 1 1 0.999907
0.999854 1 1 0.999854
0.99983 1 1 0.99983
0.999843 1 1 0.999843
0.999904 1 1 0.999904
0.999983 1 1 0.999983
0.999906 1 1 0.999906
0.999985 1 1 0.999985
1 1 1 1
0.999987 1 1 0.999987
1 1 1 1
1 1 1 1
1 1 1 1
1 1 1 1
1 1 1 1
0.999912 1 1 0.999912
0.999984 1 1 0.999984
0.999927 1 1 0.999927
1 1 1 1
0.999989 1 1 0.999989
0.999944 1 1 0.999944
1 1 1 1
1 1 1 1
0.999991 1 1 0.999991
1 1 1 1
1 1 1 1
1 1 1 1
0.999823 0.999695 1.00013 1
1.00303 1.00317 0.999863 0.999994
0.998973 1.00144 0.99757 0.999966
0.999855 1 1 0.999855
0.999842 1 1 0.999842
0.999815 1 1 0.999815
0.998539 0.999888 0.99865 1
1.00123 1.00145 0.999778 0.999997
1.00527 1.00644 0.998851 0.999988
0.998232 1.01149 0.987022 0.999871
0.977178 0.973487 1.00513 0.998669
0.97242 0.98912 0.983614 0.999495
1.00038 1.01103 0.989491 0.999974
0.976945 0.998895 0.978172 0.99985
0.986611 0.981802 1.00618 0.998726
0.988468 1.00152 0.987178 0.999785
1.00032 1.00797 0.992449 0.999964
0.976648 0.994682 0.981935 0.999934
0.984726 0.983722 1.00222 0.998804
0.990238 1.00258 0.988 0.999682
0.995394 1.00768 0.987831 0.99998
0.99977 1 1 0.99977
0.99978 1 1 0.99978
0.999804 1 1 0.999804
0.999815 1 1 0.999815
0.999836 1 1 0.999836
0.999878 1 1 0.999878
0.989569 1.00873 0.981345 0.999651
1.01755 1 1.01789 0.99966
0.999752 1 1 0.999752
1.00197 1 1.00231 0.999655
0.999708 1 1 0.999708
0.999745 1 1 0.999745
0.999712 1 1 0.999712
1.00066 1.0039 0.997063 0.999713
0.999692 1 1 0.999692
1.01381 1 1.01412 0.999693
0.999711 1 1 0.999711
1.02126 1 1.02147 0.99979
1.00017 1 1.00044 0.999737
0.999685 1 1 0.999685
0.999557 0.99952 1.00004 1
0.999198 0.999155 1.00004 1
1.00215 1.00225 0.999903 0.999996
0.999785 1 1 0.999785
1.00039 0.995453 1.00497 0.999986
0.99892 0.998618 1.0003 1
0.990879 0.99035 1.0011 0.999431
0.989288 1.00205 0.987491 0.999771
0.998795 0.998298 1.0005 1
1.00178 1.01066 0.991242 0.999973
1.00198 0.999371 1.00278 0.999831
0.9993 0.998998 1.0003 1
1.00153 1.00144 1.0001 0.999997
0.99469 0.99334 1.00152 0.999841
0.986006 1.00439 0.981723 0.999972
0.987422 0.99891 0.988695 0.999801
0.979559 0.982224 0.998351 0.998934
1.01062 1 1.01071 0.999904
0.999706 0.999628 1.00008 1
1.00416 1.0063 0.997889 0.999987
0.978556 0.99437 0.98413 0.999965
0.976546 0.988522 0.988029 0.999855
0.991802 0.986409 1.00664 0.998836
0.981055 0.991844 0.98936 0.99976
1.00139 1 1.00167 0.999718
1.01255 1 1.01284 0.999709
1.01905 1 1.01935 0.999706
0.999722 1 1 0.999722
1.00026 1 1.00055 0.999708
1.00245 1 1.00274 0.999709
1.00974 1 1.01008 0.999665
1.00005 1 1.00032 0.999734
1.00152 1 1.00183 0.999699
1.00288 1 1.00322 0.99966
0.999743 1 1 0.999743
0.999971 1 1.00026 0.999708
0.999699 1 1 0.999699
0.999743 1 1 0.999743
0.999801 1 1 0.999801
0.999753 1 1 0.999753
0.999751 1 1 0.999751
0.999847 1 1 0.999847
0.999828 1 1 0.999828
0.999865 1 1 0.999865
0.999843 1 1 0.999843
0.999815 1 1 0.999815
0.999913 1 1 0.999913
0.999867 1 1 0.999867
0.999838 1 1 0.999838
0.999982 1 1 0.999982
0.999908 1 1 0.999908
0.999852 1 1 0.999852
0.999904 1 1 0.999904
0.999983 1 1 0.999983
1 1 1 1
0.999985 1 1 0.999985
1 1 1 1
1 1 1 1
1 1 1 1
1 1 1 1
1 1 1 1
0.999913 1 1 0.999913
0.99999 1 1 0.99999
0.999916 1 1 0.999916
1 1 1 1
0.999989 1 1 0.999989
0.999932 1 1 0.999932
1 1 1 1
1 1 1 1
0.999988 1 1 0.999988
1 1 1 1
1 1 1 1
1 1 1 1
0.999311 0.998781 1.00053 1
0.999645 0.999485 1.00016 1
1.0028 1.00303 0.999781 0.999995
0.999843 1 1 0.999843
0.999824 1 1 0.999824
0.999858 1 1 0.999858
0.999841 1 1 0.999841
0.99981 1 1 0.99981
0.999807 1 1 0.999807
0.999784 1 1 0.999784
1.00057 1.00204 0.998537 0.999997
0.998697 0.999163 0.999533 1
1.00094 1.00119 0.999759 0.999998
1.00388 1.00872 0.99522 0.999976
0.981968 1.00457 0.978012 0.999478
0.987364 0.981487 1.00693 0.999067
0.979909 0.999266 0.981165 0.999453
0.980345 0.994111 0.986433 0.999716
0.989281 0.988068 1.00243 0.998802
0.987834 0.999247 0.989133 0.99944
0.992291 1.00697 0.985461 0.999965
0.991282 0.991956 0.99936 0.99996
0.982541 0.988227 0.99544 0.9988
0.985831 1.00384 0.982276 0.999781
0.989725 1.00452 0.985291 0.999976
0.999754 1 1 0.999754
0.999769 1 1 0.999769
0.99978 1 1 0.99978
0.999814 1 1 0.999814
0.996741 1.00489 0.992182 0.999704
1.01467 1 1.01497 0.999698
0.999744 1 1 0.999744
0.999709 1 1 0.999709
0.999694 1 1 0.999694
0.999716 1 1 0.999716
0.999683 1 1 0.999683
1.01247 0.998449 1.01424 0.999798
1.00019 1 1.00044 0.99975
0.99968 1 1 0.99968
1.02555 0.995358 1.03044 0.999898
1.00359 1 1.00395 0.999644
0.999047 0.999033 1.00001 1
0.999739 0.999733 1.00001 1
0.999286 0.999263 1.00002 1
1.00195 1 1.00211 0.999838
0.994861 0.992482 1.00231 1.00009
0.999457 0.999276 1.00018 1
0.980269 0.982744 0.998577 0.998902
0.98098 0.997172 0.984282 0.999472
1.00121 1.00116 1.00005 0.999998
0.987615 1.00363 0.98407 0.999969
1.01113 0.999684 1.01156 0.999892
0.99952 0.999415 1.0001 1
1.00508 1.0065 0.998612 0.999986
0.984738 0.994357 0.990243 1.00008
0.977649 0.993811 0.983768 0.999969
0.972759 0.986562 0.986331 0.999674
0.993064 0.985532 1.0087 0.998954
1.00337 1 1.00347 0.999895
1.00349 1.00343 1.00006 0.999994
0.994579 1.00049 0.994109 0.999983
0.963823 0.975141 0.988554 0.999837
0.98457 0.979019 1.00698 0.998701
0.976582 0.997269 0.979658 0.999589
1.01365 1 1.01394 0.999711
1.01954 1 1.01984 0.999705
1.01982 1 1.02017 0.999663
1.00195 1 1.00224 0.999709
1.01008 1 1.01041 0.999671
1.00741 1 1.0078 0.999619
1.00207 1 1.00238 0.999693
1.00312 1 1.00346 0.999652
1.00179 1 1.00214 0.999648
1.00027 1 1.00056 0.999706
0.999845 1 1.00015 0.999693
0.999755 1 1.00004 0.999711
0.999754 1 1 0.999754
0.999779 1 1 0.999779
0.99974 1 1 0.99974
0.999833 1 1 0.999833
0.999805 1 1 0.999805
0.999748 1 1 0.999748
0.999864 1 1 0.999864
0.999845 1 1 0.999845
0.999832 1 1 0.999832
0.999913 1 1 0.999913
0.999868 1 1 0.999868
0.999847 1 1 0.999847
0.999983 1 1 0.999983
0.999914 1 1 0.999914
0.999867 1 1 0.999867
1 1 1 1
0.999982 1 1 0.999982
0.999908 1 1 0.999908
0.999983 1 1 0.999983
1 1 1 1
1 1 1 1
1 1 1 1
1 1 1 1
1 1 1 1
0.999848 1 1 0.999848
0.999906 1 1 0.999906
0.999987 1 1 0.999987
0.999912 1 1 0.999912
1 1 1 1
0.999991 1 1 0.999991
0.99992 1 1 0.99992
1 1 1 1
1 1 1 1
0.999995 1 1 0.999995
1 1 1 1
1 1 1 1
1 1 1 1
0.999316 0.9992 1.00011 1
0.999422 0.999033 1.00039 1
0.999467 0.999275 1.00019 1
0.999845 1 1 0.999845
0.999822 1 1 0.999822
0.999824 1 1 0.999824
0.999813 1 1 0.999813
0.999809 1 1 0.999809
0.999841 1 1 0.999841
0.999804 1 1 0.999804
0.999807 1 1 0.999807
0.999784 1 1 0.999784
0.999785 1 1 0.999785
1.00383 1.00452 0.999334 0.999985
1.00054 1.00222 0.998334 0.999998
0.998756 0.9984 1.00035 1
0.992709 1.0062 0.986629 0.999962
0.990719 1.00479 0.98627 0.999724
0.98541 0.994265 0.991553 0.999537
0.983429 0.984362 1.00018 0.998871
0.995318 0.991025 1.0047 0.999629
0.980013 0.984894 0.996211 0.998829
0.987021 1.00025 0.987126 0.999642
0.987755 1.00474 0.983114 0.999976
1.01666 0.988209 1.02913 0.999664
0.988474 0.986455 1.0032 0.998849
0.972651 0.989247 0.983722 0.999493
0.979089 0.997004 0.982059 0.999971
0.999777 1 1 0.999777
0.999757 1 1 0.999757
0.999768 1 1 0.999768
1.00453 0.996911 1.00784 0.999806
1.00017 1 1.00041 0.999763
0.99972 1 1 0.99972
0.999681 1 1 0.999681
0.999716 1 1.00003 0.999683
1.00408 1 1.00444 0.999641
1.0253 0.996678 1.02882 0.999898
1.00399 1 1.00433 0.999663
1.01282 0.999019 1.01406 0.999764
1.00201 1.00201 1 0.999996
0.999163 0.999151 1.00001 1
0.999937 0.999945 0.999992 1
1.01146 0.999316 1.01227 0.999881
0.987423 0.993567 0.994059 0.999756
0.999331 0.9992 1.00013 1
0.984574 0.982432 1.00366 0.998528
0.973964 0.987539 0.986755 0.999492
1.00606 1.00674 0.999337 0.999986
0.977498 0.993669 0.983752 0.999974
1.00437 1 1.00447 0.999899
1.00338 1.00331 1.00007 0.999994
0.992707 0.998413 0.994302 0.999982
0.972679 0.99442 0.978339 0.999794
0.966441 0.977543 0.989136 0.999501
0.98771 0.981218 1.00816 0.998468
0.985058 1.00028 0.984974 0.999803
1.00078 1.00201 0.998783 0.999985
0.967564 0.975085 0.992774 0.999509
0.977032 0.974018 1.00448 0.998624
0.972474 1.00056 0.972095 0.999835
1.01961 1 1.01991 0.999703
1.02108 1 1.02142 0.999663
1.0117 1 1.01208 0.999627
1.01019 1 1.01052 0.999677
1.007 1 1.00738 0.999623
1.00182 1 1.00217 0.999641
1.0031 1 1.00346 0.999645
1.00123 1 1.00158 0.999651
0.999727 1 1 0.999727
0.999867 1 1.00018 0.999687
0.999715 1 1 0.999715
0.999773 1 1 0.999773
0.999791 1 1 0.999791
0.99977 1 1 0.99977
0.999756 1 1 0.999756
0.999813 1 1 0.999813
0.999773 1 1 0.999773
0.999737 1 1 0.999737
0.999864 1 1 0.999864
0.999837 1 1 0.999837
0.999809 1 1 0.999809
0.999907 1 1 0.999907
0.999864 1 1 0.999864
0.999842 1 1 0.999842
0.999983 1 1 0.999983
0.999913 1 1 0.999913
0.99987 1 1 0.99987
1 1 1 1
0.999983 1 1 0.999983
0.999914 1 1 0.999914
1 1 1 1
1 1 1 1
0.999983 1 1 0.999983
1 1 1 1
1 1 1 1
1 1 1 1
0.999847 1 1 0.999847
0.999901 1 1 0.999901
0.999846 1 1 0.999846
0.999984 1 1 0.999984
0.999905 1 1 0.999905
1 1 1 1
0.999988 1 1 0.999988
0.999912 1 1 0.999912
1 1 1 1
1 1 1 1
0.999993 1 1 0.999993
1 1 1 1
1 1 1 1
1 1 1 1
1.00218 1.00218 1 0.999993
0.999115 0.998946 1.00017 1
0.999551 0.999287 1.00026 1
0.999832 1 1 0.999832
0.999847 1 1 0.999847
0.999819 1 1 0.999819
0.999817 1 1 0.999817
0.999827 1 1 0.999827
0.99981 1 1 0.99981
0.999807 1 1 0.999807
0.999798 1 1 0.999798
0.999808 1 1 0.999808
0.999785 1 1 0.999785
0.999785 1 1 0.999785
0.999782 1 1 0.999782
0.991288 0.998162 0.993137 0.999976
1.00471 1.0055 0.999236 0.999984
1.00055 1.00241 0.998152 0.999998
0.989637 1.00515 0.984594 0.999968
0.983462 0.997853 0.986075 0.999496
0.980819 0.986718 0.995213 0.998803
0.998137 0.988338 1.00992 0.999999
1.01842 0.988681 1.03007 1.00001
0.979242 0.994891 0.984296 0.999975
0.990226 0.989049 1.00255 0.998646
0.972149 0.986963 0.985136 0.999852
1.00757 0.994921 1.01277 0.999945
0.987297 0.982139 1.00649 0.998771
0.964971 0.974846 0.99 0.999869
1.00022 1 1.00041 0.999809
0.999777 1 1 0.999777
0.99976 1 1 0.99976
1.02512 0.998162 1.02711 0.999898
1.0047 1 1.00506 0.999637
0.999736 1 1.00005 0.999686
1.00428 1 1.00462 0.999666
1.01185 0.999584 1.01251 0.999766
1.00674 1 1.00696 0.999783
0.999278 1.00191 0.997409 0.999965
1.0015 1.00151 1 0.999996
0.99927 0.999268 1 1
1.00531 1 1.0054 0.999905
0.972699 0.996105 0.976568 0.999932
1.00317 1.00315 1.00002 0.999994
0.991766 0.982496 1.01036 0.999084
0.96908 0.978555 0.990468 0.999848
0.990909 0.997961 0.992966 0.999968
0.983481 1.00103 0.982657 0.999806
0.998365 1.00114 0.997259 0.999966
0.969169 0.975292 0.993867 0.999853
0.973206 1.00122 0.972533 0.999476
0.979855 0.976582 1.00469 0.998668
0.977447 1.00817 0.969851 0.999663
0.972474 0.977517 0.995001 0.999839
0.974671 0.973337 1.00259 0.998784
0.977061 1.00505 0.97265 0.999483
1.02289 1 1.02324 0.999663
1.01126 1 1.01164 0.999623
1.00274 1 1.00305 0.999682
1.00681 1 1.00718 0.999627
1.00171 1 1.00207 0.999644
0.999788 1 1 0.999788
1.00078 1 1.00113 0.999654
0.999732 1 1 0.999732
0.99984 1 1 0.99984
0.999718 1 1 0.999718
0.999775 1 1 0.999775
0.999839 1 1 0.999839
0.999834 1 1 0.999834
0.999792 1 1 0.999792
0.999794 1 1 0.999794
0.999798 1 1 0.999798
0.999775 1 1 0.999775
0.999758 1 1 0.999758
0.999853 1 1 0.999853
0.999812 1 1 0.999812
0.999767 1 1 0.999767
0.999903 1 1 0.999903
0.999864 1 1 0.999864
0.999841 1 1 0.999841
0.999979 1 1 0.999979
0.999908 1 1 0.999908
0.999863 1 1 0.999863
1 1 1 1
0.999982 1 1 0.999982
0.999913 1 1 0.999913
1 1 1 1
1 1 1 1
0.999983 1 1 0.999983
1 1 1 1
1 1 1 1
1 1 1 1
0.999857 1 1 0.999857
0.999848 1 1 0.999848
0.999899 1 1 0.999899
0.99998 1 1 0.99998
0.999901 1 1 0.999901
0.999845 1 1 0.999845
1 1 1 1
0.999984 1 1 0.999984
0.999905 1 1 0.999905
1 1 1 1
1 1 1 1
0.999989 1 1 0.999989
1 1 1 1
1 1 1 1
1 1 1 1
0.999721 1.00147 0.998265 0.999989
1.00252 1.00253 1 0.999993
0.998898 0.99869 1.00021 1
0.99983 1 1 0.99983
0.999838 1 1 0.999838
0.999818 1 1 0.999818
0.99982 1 1 0.99982
0.99983 1 1 0.99983
0.99981 1 1 0.99981
0.999799 1 1 0.999799
0.999809 1 1 0.999809
0.999793 1 1 0.999793
0.999794 1 1 0.999794
0.999785 1 1 0.999785
0.999782 1 1 0.999782
0.970188 0.9749 0.9953 0.999866
0.991119 0.997439 0.993679 0.999984
1.00577 1.00663 0.999163 0.999984
0.979862 0.993146 0.986645 0.99998
0.968183 0.986103 0.982307 0.999512
0.993658 0.991049 1.00351 0.999126
1.02362 0.989073 1.03528 0.999659
1.00808 0.994992 1.01356 0.999596
0.965073 0.976124 0.989128 0.999546
0.990631 0.985347 1.00642 0.998954
1.00082 0.995026 1.00627 0.999551
0.980482 0.977637 1.00413 0.998788
1.00599 1 1.00621 0.999773
1.00008 1 1.00027 0.99981
0.999778 1 1 0.999778
1.01066 1 1.0109 0.999769
1.00458 1 1.00491 0.99967
1.0059 1 1.00611 0.999789
1.00058 1.00002 1.0008 0.999761
0.972912 0.979951 0.993015 0.999802
0.999925 1.00171 0.998242 0.999976
1.00103 1.00104 1 0.999997
0.981215 1.00122 0.980207 0.999808
0.972429 0.999899 0.972638 0.999887
0.999134 1.00175 0.99742 0.999964
0.978441 0.974836 1.00505 0.998654
0.96797 0.975227 0.993034 0.999522
0.977175 1.00739 0.970316 0.999681
0.972664 0.977588 0.995286 0.999676
0.975205 0.972223 1.00435 0.998724
0.975003 1.00388 0.971388 0.999845
0.977554 1.01242 0.96592 0.99963
0.966208 0.967392 1.00026 0.998519
0.990572 1.00179 0.988919 0.999882
1.01089 1 1.01127 0.999619
1.00247 1 1.00279 0.999679
0.999239 1 0.999413 0.999826
1.00155 1 1.00191 0.999647
0.999726 1 0.999935 0.999791
0.999632 1 0.999696 0.999936
0.999737 1 1 0.999737
0.99984 1 1 0.99984
0.999906 1 1 0.999906
0.999777 1 1 0.999777
0.999838 1 1 0.999838
0.999869 1 1 0.999869
0.999851 1 1 0.999851
0.999838 1 1 0.999838
0.999826 1 1 0.999826
0.999807 1 1 0.999807
0.999793 1 1 0.999793
0.999798 1 1 0.999798
0.999832 1 1 0.999832
0.999803 1 1 0.999803
0.999779 1 1 0.999779
0.999895 1 1 0.999895
0.999853 1 1 0.999853
0.999812 1 1 0.999812
0.999974 1 1 0.999974
0.999903 1 1 0.999903
0.999863 1 1 0.999863
1 1 1 1
0.999979 1 1 0.999979
0.999908 1 1 0.999908
1 1 1 1
1 1 1 1
0.999982 1 1 0.999982
1 1 1 1
1 1 1 1
1 1 1 1
0.999858 1 1 0.999858
0.999852 1 1 0.999852
0.999897 1 1 0.999897
0.99985 1 1 0.99985
0.999898 1 1 0.999898
0.999975 1 1 0.999975
1 1 1 1
0.99998 1 1 0.99998
0.999901 1 1 0.999901
1 1 1 1
1 1 1 1
0.999985 1 1 0.999985
1 1 1 1
1 1 1 1
1 1 1 1
0.975403 0.978499 0.997277 0.999558
0.99859 1.00109 0.997522 0.999981
1.00279 1.0028 1 0.999993
0.999828 1 1 0.999828
0.999818 1 1 0.999818
0.99984 1 1 0.99984
0.999841 1 1 0.999841
0.999821 1 1 0.999821
0.999801 1 1 0.999801
0.999811 1 1 0.999811
0.999794 1 1 0.999794
0.999812 1 1 0.999812
0.999787 1 1 0.999787
1.00004 1 1.00026 0.999784
0.99979 1 1 0.99979
0.999782 1 1 0.999782
0.976274 0.976898 1.00086 0.9985
0.972126 0.976812 0.995492 0.99971
0.991078 0.997881 0.993206 0.999976
0.964904 0.976359 0.98839 0.999877
0.986801 0.981883 1.00663 0.998387
1.01089 0.995735 1.01527 0.999951
1.00141 0.995613 1.00608 0.999735
0.980758 0.978191 1.00381 0.998819
0.996685 0.998403 0.998645 0.999634
1.00384 1.00053 1.00368 0.99963
1.00505 1 1.00528 0.999767
0.999811 1 1 0.999811
1.00397 1 1.00417 0.999796
1.00006 1.00035 0.999877 0.999832
0.962394 0.965534 0.997893 0.998852
0.974032 0.97933 0.995047 0.999541
1.00039 1.00149 0.998909 0.999987
0.976931 1.00691 0.970524 0.999699
0.97867 1.00882 0.970625 0.999471
0.974624 0.978003 0.997005 0.999538
0.976868 0.971853 1.00642 0.998744
0.977373 1.01103 0.967073 0.999625
0.96932 0.969001 1.00149 0.998837
0.987521 1.00428 0.983784 0.999523
0.975278 1.0095 0.966381 0.999705
0.998477 0.993099 1.00554 0.999875
1.00197 1 1.00229 0.999676
0.998076 1 0.998252 0.999824
0.996926 1 0.996992 0.999934
0.999554 1 0.999761 0.999793
0.999366 1 0.999431 0.999935
0.999475 1 0.99952 0.999956
0.999841 1 1 0.999841
0.999902 1 1 0.999902
0.999895 1 1 0.999895
0.999838 1 1 0.999838
0.999866 1 1 0.999866
0.999857 1 1 0.999857
0.999855 1 1 0.999855
0.999836 1 1 0.999836
0.999842 1 1 0.999842
0.999825 1 1 0.999825
0.999821 1 1 0.999821
0.999824 1 1 0.999824
0.999806 1 1 0.999806
0.999794 1 1 0.999794
0.999881 1 1 0.999881
0.999835 1 1 0.999835
0.999807 1 1 0.999807
0.999966 1 1 0.999966
0.999895 1 1 0.999895
0.999852 1 1 0.999852
1 1 1 1
0.999974 1 1 0.999974
0.999904 1 1 0.999904
1 1 1 1
1 1 1 1
0.999979 1 1 0.999979
1 1 1 1
1 1 1 1
1 1 1 1
0.999853 1 1 0.999853
0.999859 1 1 0.999859
0.99989 1 1 0.99989
0.999848 1 1 0.999848
0.999893 1 1 0.999893
0.999972 1 1 0.999972
0.999898 1 1 0.999898
0.999976 1 1 0.999976
1 1 1 1
1 1 1 1
1 1 1 1
0.99998 1 1 0.99998
1 1 1 1
1 1 1 1
1 1 1 1
0.969926 0.970714 1.00031 0.998881
0.974566 0.979948 0.994678 0.999829
1.0003 1.00218 0.998138 0.999988
0.999818 1 1 0.999818
0.999841 1 1 0.999841
0.999823 1 1 0.999823
0.999842 1 1 0.999842
0.999838 1 1 0.999838
0.999828 1 1 0.999828
0.999794 1 1 0.999794
0.999812 1 1 0.999812
0.999789 1 1 0.999789
0.99981 1 1 0.99981
0.999788 1 1 0.999788
0.999764 1 1.0001 0.999661
0.999832 1 1.00005 0.999781
0.999785 1 1 0.999785
0.990935 0.993461 0.997548 0.999909
0.97291 0.973913 1.00015 0.998822
0.96938 0.975408 0.994276 0.999541
0.978614 0.976219 1.00371 0.998748
1.00198 0.995796 1.00627 0.999935
0.996148 0.996844 0.999403 0.999898
0.999227 1.00327 0.996353 0.999612
1.00329 1.00001 1.00363 0.999646
1.00465 1 1.00489 0.999761
0.997671 1 0.997769 0.999903
0.988483 0.98649 1.00245 0.999575
0.966308 0.967027 1.00035 0.998906
0.973991 0.979774 0.994268 0.999829
0.977201 1.00946 0.968412 0.999619
0.99003 1.00784 0.982456 0.999871
0.970352 0.968551 1.00269 0.99917
0.977524 1.00674 0.971272 0.999703
0.994051 0.99409 1.00021 0.999751
0.983871 1.00246 0.981634 0.999815
1.00219 1 1.00249 0.999703
0.996889 1 0.997066 0.999823
0.996498 1 0.996564 0.999934
0.997393 1 0.99748 0.999913
0.999227 1 0.999293 0.999934
0.999475 1 0.999522 0.999952
0.999808 1 0.999926 0.999882
0.999899 1 1 0.999899
0.999892 1 1 0.999892
0.999841 1 1 0.999841
0.999864 1 1 0.999864
0.999858 1 1 0.999858
0.999826 1 1 0.999826
0.99986 1 1 0.99986
0.999839 1 1 0.999839
0.999822 1 1 0.999822
0.999825 1 1 0.999825
0.99982 1 1 0.99982
0.999831 1 1 0.999831
0.999862 1 1 0.999862
0.999827 1 1 0.999827
0.999805 1 1 0.999805
0.999954 1 1 0.999954
0.999881 1 1 0.999881
0.999838 1 1 0.999838
1 1 1 1
0.999966 1 1 0.999966
0.999895 1 1 0.999895
1 1 1 1
1 1 1 1
0.999973 1 1 0.999973
1 1 1 1
1 1 1 1
1 1 1 1
0.999852 1 1 0.999852
0.999857 1 1 0.999857
0.999887 1 1 0.999887
0.999859 1 1 0.999859
0.999889 1 1 0.999889
0.999968 1 1 0.999968
0.99989 1 1 0.99989
0.999972 1 1 0.999972
1 1 1 1
0.999976 1 1 0.999976
1 1 1 1
1 1 1 1
1 1 1 1
1 1 1 1
1 1 1 1
0.984789 0.986289 0.998582 0.999897
0.965705 0.967886 0.998896 0.99885
0.972155 0.97876 0.99371 0.999539
0.999828 1 1 0.999828
0.999824 1 1 0.999824
0.999842 1 1 0.999842
0.999828 1 1 0.999828
0.999837 1 1 0.999837
0.99984 1 1 0.99984
0.999811 1 1 0.999811
0.999791 1 1 0.999791
0.999813 1 1 0.999813
0.9998 1 1 0.9998
0.999731 1 1 0.999731
0.999559 1 1 0.999559
0.999798 1 1.00013 0.99967
0.999778 1 1 0.999778
0.99739 1.00023 0.997536 0.999627
0.991696 0.995021 0.996917 0.99974
0.974691 0.974826 1.00072 0.999145
0.998297 0.998255 1.00048 0.999566
1.00174 1.00326 0.998949 0.999539
1.0048 1 1.00514 0.999662
0.999899 1 1.00002 0.99988
0.989372 0.985554 1.00397 0.999901
0.963731 0.966844 0.997922 0.998857
0.979769 1.00394 0.976221 0.9997
0.990544 0.994665 0.996243 0.999612
0.987212 1.00123 0.986191 0.999802
1.00115 1 1.00141 0.999742
0.999343 1 0.999591 0.999751
0.999716 1 1 0.999716
0.996104 1 0.996169 0.999934
0.998242 1 0.998329 0.999912
0.999821 1 1 0.999821
0.99953 1 0.999581 0.999949
0.99988 1 1 0.99988
0.999809 1 1 0.999809
0.999889 1 1 0.999889
0.999845 1 1 0.999845
0.999796 1 1 0.999796
0.999859 1 1 0.999859
0.999827 1 1 0.999827
0.999809 1 1 0.999809
0.999842 1 1 0.999842
0.999823 1 1 0.999823
0.999824 1 1 0.999824
0.999819 1 1 0.999819
0.999828 1 1 0.999828
0.999858 1 1 0.999858
0.99994 1 1 0.99994
0.999866 1 1 0.999866
0.99983 1 1 0.99983
1 1 1 1
0.999954 1 1 0.999954
0.999881 1 1 0.999881
1 1 1 1
1 1 1 1
0.999965 1 1 0.999965
1 1 1 1
1 1 1 1
1 1 1 1
0.999842 1 1 0.999842
0.999852 1 1 0.999852
0.999886 1 1 0.999886
0.99986 1 1 0.99986
0.999889 1 1 0.999889
0.999964 1 1 0.999964
0.999889 1 1 0.999889
0.999969 1 1 0.999969
1 1 1 1
0.999972 1 1 0.999972
1 1 1 1
1 1 1 1
1 1 1 1
1 1 1 1
1 1 1 1
0.998052 1 0.998211 0.99984
0.985295 0.987675 0.998008 0.999582
0.966904 0.968296 0.999659 0.998902
0.999831 1 1 0.999831
0.9998 1 1 0.9998
0.999829 1 1 0.999829
0.999827 1 1 0.999827
0.999836 1 1 0.999836
0.999837 1 1 0.999837
0.999754 1 1 0.999754
0.999816 1 1 0.999816
0.999811 1 1 0.999811
0.99973 1 1 0.99973
0.999621 1 1 0.999621
0.999697 1 1 0.999697
0.99957 1 1 0.99957
0.999678 1 1 0.999678
0.998981 1.00148 0.997865 0.999636
0.990719 0.994691 0.996435 0.999571
1.00204 1.00284 0.999735 0.999466
0.999881 1 1 0.999881
1.00104 1 1.00116 0.999883
0.98784 0.985323 1.00298 0.999576
0.990801 1.00023 0.990786 0.999788
1.00013 1 1.00034 0.999783
0.998947 1 0.999187 0.99976
0.999735 1 1 0.999735
0.999743 1 1 0.999743
0.999834 1 1 0.999834
0.999083 1 0.999171 0.999912
0.999825 1 1 0.999825
0.99976 1 1 0.99976
0.999879 1 1 0.999879
0.99981 1 1 0.99981
0.999767 1 1 0.999767
0.999849 1 1 0.999849
0.999796 1 1 0.999796
0.999782 1 1 0.999782
0.999827 1 1 0.999827
0.999809 1 1 0.999809
0.999811 1 1 0.999811
0.999824 1 1 0.999824
0.999824 1 1 0.999824
0.99985 1 1 0.99985
0.999826 1 1 0.999826
0.999856 1 1 0.999856
0.999928 1 1 0.999928
1 1 1 1
0.99994 1 1 0.99994
0.99987 1 1 0.99987
1 1 1 1
1 1 1 1
0.999953 1 1 0.999953
1 1 1 1
1 1 1 1
1 1 1 1
0.999819 1 1 0.999819
0.999839 1 1 0.999839
0.999877 1 1 0.999877
0.999852 1 1 0.999852
0.999886 1 1 0.999886
0.999957 1 1 0.999957
0.999891 1 1 0.999891
0.999964 1 1 0.999964
1 1 1 1
0.999969 1 1 0.999969
1 1 1 1
1 1 1 1
1 1 1 1
1 1 1 1
1 1 1 1
0.999863 1 1 0.999863
0.998177 1 0.998327 0.99985
0.984513 0.986253 0.998319 0.999917
0.99978 1 1 0.99978
0.999842 1 1 0.999842
0.99975 1 1 0.99975
0.999798 1 1 0.999798
0.99983 1 1 0.99983
0.999673 1 1 0.999673
0.999835 1 1 0.999835
0.999755 1 1 0.999755
0.999679 1 1 0.999679
0.999729 1 1 0.999729
0.999608 1 1 0.999608
0.999692 1 1 0.999692
0.99958 1 1 0.99958
1.00053 1.00271 0.998177 0.999646
0.999898 1 1 0.999898
0.999879 1 1 0.999879
1.00213 1 1.00224 0.999886
0.998681 1 0.998911 0.999769
0.999754 1 1 0.999754
0.999739 1 1 0.999739
0.999837 1 1 0.999837
0.999811 1 1 0.999811
0.999828 1 1 0.999828
0.999763 1 1 0.999763
0.999756 1 1 0.999756
0.99981 1 1 0.99981
0.999765 1 1 0.999765
0.999758 1 1 0.999758
0.999796 1 1 0.999796
0.999782 1 1 0.999782
0.999788 1 1 0.999788
0.999809 1 1 0.999809
0.999811 1 1 0.999811
0.999835 1 1 0.999835
0.999824 1 1 0.999824
0.99985 1 1 0.99985
0.999916 1 1 0.999916
0.999855 1 1 0.999855
0.999928 1 1 0.999928
0.999999 1 1 0.999999
1 1 1 1
1 1 1 1
0.99994 1 1 0.99994
1 1 1 1
1 1 1 1
1 1 1 1
0.999759 1 1 0.999759
0.999795 1 1 0.999795
0.999816 1 1 0.999816
0.999866 1 1 0.999866
0.999836 1 1 0.999836
0.999877 1 1 0.999877
0.99995 1 1 0.99995
0.999886 1 1 0.999886
0.999957 1 1 0.999957
1 1 1 1
0.999964 1 1 0.999964
1 1 1 1
1 1 1 1
1 1 1 1
1 1 1 1
1 1 1 1
0.999821 1 1 0.999821
0.999856 1 1 0.999856
0.998687 1.00038 0.998452 0.999858
0.999706 1 1 0.999706
0.999792 1 1 0.999792
0.999853 1 1 0.999853
0.999756 1 1 0.999756
0.999796 1 1 0.999796
0.999668 1 1 0.999668
0.999666 1 1 0.999666
0.999756 1 1 0.999756
0.999676 1 1 0.999676
0.999596 1 1 0.999596
0.999688 1 1 0.999688
0.999879 1 1 0.999879
0.999895 1 1 0.999895
0.999877 1 1 0.999877
0.999735 1 1 0.999735
0.999839 1 1 0.999839
0.99981 1 1 0.99981
0.999807 1 1 0.999807
0.999767 1 1 0.999767
0.999752 1 1 0.999752
0.999766 1 1 0.999766
0.999763 1 1 0.999763
0.999758 1 1 0.999758
0.999768 1 1 0.999768
0.999781 1 1 0.999781
0.999788 1 1 0.999788
0.999816 1 1 0.999816
0.99981 1 1 0.99981
0.999835 1 1 0.999835
0.999901 1 1 0.999901
0.99985 1 1 0.99985
0.999916 1 1 0.999916
0.999997 1 1 0.999997
0.999928 1 1 0.999928
0.999999 1 1 0.999999
1 1 1 1
1 1 1 1
1 1 1 1
1 1 1 1
0.999718 1 1 0.999718
0.99979 1 1 0.99979
0.999777 1 1 0.999777
0.999845 1 1 0.999845
0.999795 1 1 0.999795
0.999813 1 1 0.999813
0.999866 1 1 0.999866
0.99994 1 1 0.99994
0.999878 1 1 0.999878
0.99995 1 1 0.99995
1 1 1 1
0.999958 1 1 0.999958
1 1 1 1
1 1 1 1
1 1 1 1
1 1 1 1
1 1 1 1
0.999782 1 1 0.999782
0.999822 1 1 0.999822
0.999849 1 1 0.999849
0.999689 1 1 0.999689
0.999707 1 1 0.999707
0.999805 1 1 0.999805
0.999762 1 1 0.999762
0.999669 1 1 0.999669
0.99966 1 1 0.99966
0.999672 1 1 0.999672
0.999848 1 1 0.999848
0.999867 1 1 0.999867
0.999892 1 1 0.999892
0.999808 1 1 0.999808
0.99981 1 1 0.99981
0.999805 1 1 0.999805
0.999795 1 1 0.999795
0.999749 1 1 0.999749
0.999767 1 1 0.999767
0.999768 1 1 0.999768
0.999757 1 1 0.999757
0.999768 1 1 0.999768
0.999798 1 1 0.999798
0.999788 1 1 0.999788
0.999816 1 1 0.999816
0.999883 1 1 0.999883
0.999835 1 1 0.999835
0.999901 1 1 0.999901
0.999994 1 1 0.999994
0.999916 1 1 0.999916
0.999996 1 1 0.999996
1 1 1 1
0.999998 1 1 0.999998
1 1 1 1
1 1 1 1
0.999698 1 1 0.999698
0.999746 1 1 0.999746
0.999725 1 1 0.999725
0.999831 1 1 0.999831
0.999788 1 1 0.999788
0.999795 1 1 0.999795
0.999921 1 1 0.999921
0.999845 1 1 0.999845
0.999795 1 1 0.999795
0.999866 1 1 0.999866
0.999941 1 1 0.999941
1 1 1 1
0.99995 1 1 0.99995
1 1 1 1
1 1 1 1
1 1 1 1
1 1 1 1
1 1 1 1
0.999766 1 1 0.999766
0.999773 1 1 0.999773
0.999822 1 1 0.999822
0.999681 1 1 0.999681
0.999707 1 1 0.999707
0.999669 1 1 0.999669
0.999811 1 1 0.999811
0.999851 1 1 0.999851
0.999855 1 1 0.999855
0.999804 1 1 0.999804
0.999794 1 1 0.999794
0.999804 1 1 0.999804
0.999795 1 1 0.999795
0.99979 1 1 0.99979
0.999767 1 1 0.999767
0.999769 1 1 0.999769
0.999792 1 1 0.999792
0.999768 1 1 0.999768
0.999798 1 1 0.999798
0.999868 1 1 0.999868
0.999815 1 1 0.999815
0.999883 1 1 0.999883
0.999991 1 1 0.999991
0.999901 1 1 0.999901
0.999993 1 1 0.999993
1 1 1 1
0.999996 1 1 0.999996
1 1 1 1
1 1 1 1
0.999761 1 1 0.999761
0.999717 1 1 0.999717
0.999696 1 1 0.999696
0.999794 1 1 0.999794
0.99975 1 1 0.99975
0.999733 1 1 0.999733
0.999898 1 1 0.999898
0.999823 1 1 0.999823
0.999786 1 1 0.999786
0.999996 1 1 0.999996
0.999922 1 1 0.999922
0.999845 1 1 0.999845
0.999941 1 1 0.999941
1 1 1 1
1 1 1 1
1 1 1 1
1 1 1 1
1 1 1 1
0.999758 1 1 0.999758
0.999762 1 1 0.999762
0.999765 1 1 0.999765
0.999674 1 1 0.999674
0.999785 1 1 0.999785
0.999814 1 1 0.999814
0.999854 1 1 0.999854
0.9998 1 1 0.9998
0.999795 1 1 0.999795
0.999802 1 1 0.999802
0.999795 1 1 0.999795
0.999791 1 1 0.999791
0.9998 1 1 0.9998
0.99977 1 1 0.99977
0.999793 1 1 0.999793
0.999859 1 1 0.999859
0.999798 1 1 0.999798
0.999867 1 1 0.999867
0.999987 1 1 0.999987
0.999883 1 1 0.999883
0.999989 1 1 0.999989
1 1 1 1
0.999992 1 1 0.999992
1 1 1 1
1 1 1 1
0.999763 1 1 0.999763
0.999753 1 1 0.999753
0.99976 1 1 0.99976
0.999758 1 1 0.999758
0.999724 1 1 0.999724
0.999693 1 1 0.999693
0.99986 1 1 0.99986
0.999793 1 1 0.999793
0.999754 1 1 0.999754
0.99999 1 1 0.99999
0.999891 1 1 0.999891
0.999814 1 1 0.999814
1 1 1 1
0.999997 1 1 0.999997
0.999922 1 1 0.999922
1 1 1 1
1 1 1 1
1 1 1 1
0.999768 1 1 0.999768
0.999766 1 1 0.999766
0.999759 1 1 0.999759
0.999793 1 1 0.999793
0.999785 1 1 0.999785
0.999818 1 1 0.999818
0.999797 1 1 0.999797
0.999802 1 1 0.999802
0.999822 1 1 0.999822
0.999791 1 1 0.999791
0.999805 1 1 0.999805
0.999854 1 1 0.999854
0.999794 1 1 0.999794
0.999859 1 1 0.999859
0.999984 1 1 0.999984
0.999867 1 1 0.999867
0.999986 1 1 0.999986
1 1 1 1
0.999988 1 1 0.999988
1 1 1 1
1 1 1 1
0.999764 1 1 0.999764
0.999772 1 1 0.999772
0.999762 1 1 0.999762
0.999774 1 1 0.999774
0.999755 1 1 0.999755
0.999758 1 1 0.999758
0.999835 1 1 0.999835
0.999766 1 1 0.999766
0.999732 1 1 0.999732
0.999983 1 1 0.999983
0.999856 1 1 0.999856
0.999793 1 1 0.999793
1 1 1 1
0.999992 1 1 0.999992
0.999884 1 1 0.999884
1 1 1 1
0.999999 1 1 0.999999
1 1 1 1
0.999781 1 1 0.999781
0.999768 1 1 0.999768
0.999775 1 1 0.999775
0.999814 1 1 0.999814
0.999792 1 1 0.999792
0.999785 1 1 0.999785
0.999802 1 1 0.999802
0.999822 1 1 0.999822
0.999861 1 1 0.999861
0.999809 1 1 0.999809
0.999857 1 1 0.999857
0.999981 1 1 0.999981
0.99986 1 1 0.99986
0.999983 1 1 0.999983
1 1 1 1
0.999985 1 1 0.999985
1 1 1 1
1 1 1 1
0.999779 1 1 0.999779
0.999759 1 1 0.999759
0.99979 1 1 0.99979
0.999773 1 1 0.999773
0.999761 1 1 0.999761
0.999842 1 1 0.999842
0.999773 1 1 0.999773
0.999758 1 1 0.999758
0.999978 1 1 0.999978
0.999839 1 1 0.999839
0.999774 1 1 0.999774
1 1 1 1
0.999985 1 1 0.999985
0.999853 1 1 0.999853
1 1 1 1
0.999994 1 1 0.999994
1 1 1 1
0.999806 1 1 0.999806
0.999781 1 1 0.999781
0.999769 1 1 0.999769
0.999856 1 1 0.999856
0.999814 1 1 0.999814
0.999791 1 1 0.999791
0.999823 1 1 0.999823
0.999861 1 1 0.999861
0.999979 1 1 0.999979
0.99986 1 1 0.99986
0.99998 1 1 0.99998
1 1 1 1
0.999982 1 1 0.999982
1 1 1 1
1 1 1 1
0.999798 1 1 0.999798
0.999776 1 1 0.999776
0.999755 1 1 0.999755
0.999851 1 1 0.999851
0.99979 1 1 0.99979
0.999774 1 1 0.999774
0.999977 1 1 0.999977
0.999842 1 1 0.999842
0.999772 1 1 0.999772
1 1 1 1
0.999979 1 1 0.999979
0.999842 1 1 0.999842
1 1 1 1
0.999987 1 1 0.999987
1 1 1 1
0.999859 1 1 0.999859
0.999803 1 1 0.999803
0.999782 1 1 0.999782
0.999978 1 1 0.999978
0.999857 1 1 0.999857
0.999814 1 1 0.999814
0.999861 1 1 0.999861
0.999979 1 1 0.999979
1 1 1 1
0.99998 1 1 0.99998
1 1 1 1
1 1 1 1
0.999857 1 1 0.999857
0.999797 1 1 0.999797
0.999773 1 1 0.999773
0.999979 1 1 0.999979
0.99985 1 1 0.99985
0.99979 1 1 0.99979
1 1 1 1
0.999977 1 1 0.999977
0.999841 1 1 0.999841
1 1 1 1
0.99998 1 1 0.99998
1 1 1 1
0.999977 1 1 0.999977
0.999856 1 1 0.999856
0.999799 1 1 0.999799
1 1 1 1
0.999977 1 1 0.999977
0.999857 1 1 0.999857
0.999978 1 1 0.999978
1 1 1 1
1 1 1 1
0.999978 1 1 0.999978
0.999857 1 1 0.999857
0.999796 1 1 0.999796
1 1 1 1
0.999978 1 1 0.999978
0.99985 1 1 0.99985
1 1 1 1
0.999977 1 1 0.999977
1 1 1 1
1 1 1 1
0.999977 1 1 0.999977
0.999852 1 1 0.999852
1 1 1 1
0.999977 1 1 0.999977
1 1 1 1
1 1 1 1
0.999978 1 1 0.999978
0.999857 1 1 0.999857
1 1 1 1
0.999978 1 1 0.999978
1 1 1 1
1 1 1 1
0.999977 1 1 0.999977
1 1 1 1
1 1 1 1
0.999979 1 1 0.999979
1 1 1 1
1 1 1 1
1 1 1 1

VECTORS lamdaE float
0.999123 0.999041 0.997466
0.999294 0.998138 0.999072
0.999106 0.99904 0.997499
0.998887 0.999937 0.997127
0.999008 0.999439 0.997327
0.999233 0.998598 0.997658
0.99948 0.999944 0.995774
0.999315 0.99809 0.999091
0.998926 0.999319 0.998895
0.99918 0.998443 0.999046
0.999411 0.997835 0.998015
0.999501 0.999464 0.995983
0.998931 1.00007 0.997076
0.998784 1.0001 0.997221
0.999088 0.999037 0.997533
0.998861 0.999985 0.997153
0.999219 0.998581 0.997693
0.998989 0.999453 0.997357
0.999489 0.999949 0.995775
0.998887 1.00001 0.998756
0.998878 1 0.997112
0.99892 0.999752 0.997214
0.999661 1.00021 0.995211
0.999518 1.00009 0.99558
0.99934 0.998161 0.99786
0.999439 0.999749 0.996025
1.0002 1.00087 0.993514
0.999339 0.998042 0.999111
0.998948 0.999404 0.998127
0.999198 0.998525 0.998376
0.999404 0.997783 0.999144
0.999484 0.99946 0.995985
0.998884 0.999889 0.997246
0.999065 0.999096 0.997553
0.999559 1.00009 0.995897
0.999489 0.997482 0.999204
0.999486 0.999662 0.996393
0.999537 0.999193 0.996181
0.999909 1.00096 0.993691
0.999662 0.997103 0.999215
0.998926 1.00002 0.998736
0.998808 1.00002 0.998002
0.998996 0.999997 0.998709
0.998806 1.0001 0.997195
0.999867 1.00007 0.99457
0.998798 0.999886 0.998826
0.999726 1.00017 0.995552
0.998835 1.00004 0.997179
0.99897 0.999466 0.997388
0.999204 0.998558 0.997729
0.999499 0.999957 0.995775
0.998883 1.00003 0.997952
0.998852 1.00005 0.997132
0.999329 0.998135 0.99789
0.998899 0.999783 0.997243
0.999679 1.0002 0.995213
0.999448 0.999756 0.996027
0.999534 1.00008 0.995581
1.00022 1.00088 0.99348
0.998935 0.999995 0.998736
0.99886 1.00002 0.997142
0.999829 1.00005 0.995462
0.999736 1.00016 0.995135
0.999571 1.00019 0.995392
1.00089 1.00043 0.992635
1.00039 1.00067 0.993153
0.999472 0.997779 0.998006
0.999439 0.999437 0.996315
0.999971 1.00102 0.993788
1.00073 1.00083 0.99223
0.998974 0.999232 0.998899
0.99943 0.997736 0.999165
0.999225 0.998404 0.999046
0.999466 0.99946 0.995987
0.998878 0.999683 0.998815
0.999051 0.998932 0.998942
0.999513 1.00021 0.995169
0.999506 0.997509 0.998649
0.999468 0.999732 0.995761
0.999532 0.999143 0.996485
0.999898 1.001 0.99368
0.99958 0.997294 0.999202
0.999804 0.998337 0.996496
0.999618 1.00027 0.99489
0.999497 1.00001 0.995408
1.00036 1.00068 0.993072
0.999617 0.998834 0.996901
0.999992 1.00088 0.993614
0.999871 1.00093 0.993809
1.00023 1.00125 0.992757
0.999728 0.996931 0.999234
0.999676 0.997092 0.999221
0.99882 0.999943 0.998791
0.998888 1.00001 0.998752
0.99898 0.999993 0.998713
0.998837 1.00005 0.997973
0.999858 1.00005 0.994999
0.99882 0.999916 0.998013
0.999701 1.00017 0.995167
0.998996 0.999977 0.998712
0.999944 0.999963 0.994492
0.999788 1.00012 0.995489
1.00125 1.00007 0.991889
0.999672 1.0002 0.995602
1.00098 1.00026 0.992247
0.998908 1.00005 0.997111
0.998824 1.0001 0.997152
0.999316 0.998108 0.99792
0.998877 0.999815 0.997274
0.999697 1.00019 0.995214
0.999549 1.00007 0.995581
0.999458 0.99977 0.996028
1.00025 1.00088 0.993446
0.998956 1 0.998725
0.99884 1.00005 0.997162
0.999837 1.00006 0.994861
0.999753 1.00015 0.995129
0.999441 0.997762 0.998581
0.999456 0.999434 0.996462
0.99959 1.00017 0.995395
1.00089 1.0004 0.992557
1.00001 1.00103 0.993747
1.00041 1.00068 0.993202
1.00072 1.00083 0.992236
0.999903 0.999979 0.994553
0.999756 1.0001 0.995159
1.00123 1.00004 0.992177
1.00105 1.00022 0.992334
1.00063 1.00053 0.992837
1.0015 1.00027 0.991452
0.999539 0.997497 0.999181
1.00092 1.00057 0.992085
0.999546 0.999088 0.996234
0.999826 1.00105 0.993721
1.0005 1.00119 0.992381
1.00101 1.00075 0.99176
0.99974 0.998552 0.996375
1.00005 1.00035 0.994033
0.998891 0.99958 0.998835
0.99909 0.998816 0.998976
0.999462 1.00029 0.995166
0.999524 0.997481 0.999195
0.999524 0.999117 0.996215
0.999425 0.999785 0.995744
0.999886 1.00102 0.993669
0.999597 0.997281 0.999206
0.999809 0.998312 0.996499
0.999587 1.00025 0.995316
0.99946 1 0.995797
1.00037 1.00066 0.993076
0.999627 0.998809 0.996374
0.999984 1.00089 0.993608
0.99985 1.00097 0.993804
1.00024 1.00124 0.992733
0.999722 0.998564 0.996436
0.999866 0.99813 0.996578
1.00005 1.00023 0.994139
1.00062 1.0005 0.992733
1.00013 1.00081 0.99341
1.00089 1.00068 0.992055
0.99992 1.00067 0.993969
1.0004 1.00095 0.9927
1.00011 1.00153 0.992779
1.00034 1.00148 0.992385
0.99978 0.99678 0.999257
0.999738 0.996924 0.999241
0.999689 0.997082 0.999227
0.999804 0.998339 0.996467
0.999619 0.997309 0.999197
0.998839 0.999814 0.998803
0.998835 1 0.998778
0.999686 1.00021 0.994776
0.999844 1.00005 0.994603
0.998965 0.999988 0.998722
0.998999 0.999982 0.998708
0.999944 0.999951 0.994497
0.99976 1.00012 0.995108
1.00125 1.00007 0.991894
0.999641 1.00026 0.994822
1.00098 1.00026 0.992253
0.999963 0.999911 0.994482
1.00139 1 0.991679
1.00111 1.00015 0.992091
1.00185 1.00002 0.990774
1.00082 1.00037 0.992453
1.00157 1.00012 0.991257
0.998976 1.00001 0.998715
0.998818 1.00008 0.997184
0.999833 1.00006 0.994276
0.999771 1.00014 0.995124
0.999406 0.997741 0.999165
0.999473 0.999433 0.99661
0.99961 1.00016 0.995397
1.00089 1.00038 0.992479
1.00044 1.00069 0.993251
1.00004 1.00104 0.993707
1.00071 1.00084 0.992242
0.999905 0.999989 0.994548
0.999777 1.00009 0.99515
1.00122 1.00004 0.992009
1.00106 1.00024 0.992386
0.99952 0.997512 0.999175
0.999545 0.999108 0.996504
0.999864 1.00103 0.993864
1.00063 1.00053 0.992842
1.00148 1.00024 0.991362
1.00046 1.00119 0.992362
1.00095 1.00058 0.992127
1.001 1.00075 0.991769
0.999732 0.998584 0.996373
1.00005 1.00033 0.994038
1.00133 0.999987 0.991805
1.00114 1.0001 0.992267
1.00186 0.999999 0.991005
1.00166 1.00004 0.991036
1.00114 1.00042 0.991883
1.0018 1.00003 0.991011
0.999641 0.998802 0.996313
1.00124 1.00038 0.991661
0.999836 1.00094 0.993844
1.00019 1.00139 0.992592
1.00078 1.00131 0.991884
1.00117 1.00057 0.991663
1 1.00052 0.993944
1.00006 1.00011 0.994247
1.00019 1.00144 0.9927
0.999546 1.00034 0.994941
0.999615 0.997268 0.99921
0.999814 0.998287 0.996503
0.99941 1.00009 0.995467
1.00037 1.00065 0.993079
0.999622 0.998784 0.996369
0.99983 1.00101 0.993799
0.999976 1.00091 0.993601
1.00025 1.00122 0.992709
0.999726 0.998538 0.996438
0.999869 0.99811 0.996583
1.00005 1.00025 0.994137
1.00062 1.00049 0.992737
1.00012 1.00081 0.993412
1.00089 1.00068 0.992057
0.999901 1.00071 0.993968
1.0004 1.00096 0.992737
1.00011 1.00153 0.992773
1.00034 1.00147 0.992345
0.999908 0.99795 0.996675
1 1.00041 0.994065
1.00008 1.00005 0.994257
1.00017 1.00128 0.992895
1.00117 1.00044 0.991719
1.00059 1.00087 0.992475
1.00115 1.00069 0.991533
1.00011 1.00145 0.992865
1.00055 1.00109 0.992331
1.00017 1.00197 0.99222
1.00043 1.00153 0.992054
1.0001 0.999344 0.994928
0.999963 0.997643 0.996874
0.999822 0.996641 0.999281
0.999786 0.996773 0.999264
0.999746 0.996917 0.999248
0.999843 0.998127 0.99661
0.999673 0.997134 0.999223
0.999797 0.998369 0.996462
0.999604 0.997317 0.999192
0.999621 1.00029 0.99483
0.999752 1.00014 0.994709
1.00098 1.00026 0.992259
1.00125 1.00007 0.991899
0.999943 0.999939 0.994502
0.999006 0.999984 0.998706
0.999969 0.999916 0.994477
1.00139 1 0.991683
1.00111 1.00015 0.992096
1.00186 1.00003 0.990772
1.00082 1.00037 0.992458
1.00157 1.00012 0.991259
1.00141 0.999975 0.991662
1.00199 1 0.990529
1.00172 1.00004 0.99103
1.00213 0.99985 0.990446
1.00139 1.00026 0.991478
1.00187 0.999892 0.990893
0.999907 0.999999 0.994541
0.999799 1.00008 0.99514
1.00121 1.00003 0.99184
1.00107 1.00025 0.992438
0.9995 0.997526 0.99917
0.999544 0.99913 0.996769
0.999902 1.00101 0.994006
1.00063 1.00053 0.992846
1.00146 1.00021 0.991273
1.00097 1.00059 0.992169
1.00042 1.0012 0.992344
1.001 1.00075 0.991779
0.999724 0.998615 0.996372
1.00006 1.00031 0.994043
1.00133 0.999989 0.991738
1.00115 1.00009 0.99227
1.00185 0.999977 0.990968
1.00168 1.00007 0.991136
0.999639 0.998831 0.996311
0.999858 1.00091 0.993847
1.00019 1.00139 0.992653
1.00117 1.00043 0.991883
1.00178 0.999987 0.990992
1.00074 1.00131 0.991815
1.00124 1.00038 0.991663
1.00116 1.00056 0.991651
1.00001 1.0005 0.99395
1.0002 1.00141 0.992669
1.00006 1.00011 0.994246
1.00193 1.00001 0.990829
1.0018 0.999978 0.99103
1.00214 0.999904 0.99044
1.00201 0.999846 0.990665
1.00142 1.00014 0.991448
1.00196 0.999633 0.991056
0.99991 1.00073 0.993912
1.00138 1.00013 0.991616
1.00012 1.0014 0.992859
1.00035 1.00169 0.991998
1.0009 1.00137 0.991466
1.00126 1.00037 0.991818
1.00006 0.999819 0.994535
1.00018 1.00137 0.992785
1.00017 1.00146 0.99261
1.00023 1.00194 0.992242
1.00063 1.00048 0.99274
0.999873 0.998088 0.996588
0.99973 0.998512 0.99644
1.00004 1.00026 0.994134
1.00012 1.0008 0.993415
1.00088 1.00069 0.992058
0.999881 1.00074 0.993967
1.00011 1.00154 0.992766
1.00041 1.00096 0.992774
1.00033 1.00147 0.992304
0.99991 0.997933 0.996681
0.999988 1.00044 0.994063
1.00008 1.00005 0.994257
1.00017 1.00129 0.992889
1.00118 1.00045 0.991714
1.00058 1.00087 0.992483
1.00114 1.0007 0.991534
1.0001 1.00147 0.992865
1.00056 1.00109 0.992374
1.00018 1.00198 0.992205
1.00041 1.00149 0.992154
0.999938 0.99779 0.99678
1.0001 0.999865 0.994412
1.00016 1.00129 0.992903
1.00018 1.00123 0.992936
1.00019 1.00184 0.992293
1.00145 1.00036 0.99124
1.00078 1.00096 0.992007
1.00123 1.00076 0.991312
1.00015 1.00199 0.992266
1.00063 1.00124 0.992044
1.00026 1.00223 0.991603
1.0001 0.99951 0.994766
1.00013 1.00063 0.993627
1.0001 0.999219 0.99505
1.0001 0.999343 0.994932
0.999981 0.997485 0.997423
0.999959 0.997627 0.997116
0.999876 0.996531 0.998379
0.999826 0.99663 0.999288
0.999791 0.996765 0.999271
0.999871 0.99792 0.996768
0.999715 0.996954 0.999257
0.99984 0.998152 0.9966
0.999666 0.997144 0.999214
0.99979 0.998399 0.996457
0.999589 0.997327 0.999187
1.00082 1.00037 0.992464
1.00111 1.00015 0.992101
1.00157 1.00012 0.99126
1.00187 1.00003 0.990771
1.00139 1 0.991687
0.99997 0.999925 0.994474
1.00142 0.999972 0.991658
1.00199 1.00001 0.990529
1.00172 1.00004 0.991033
1.00214 0.99984 0.990428
1.00139 1.00026 0.991474
1.00187 0.999901 0.990894
1.00201 0.999999 0.990494
1.0022 0.999883 0.990221
1.00203 0.99981 0.990648
1.00231 0.999581 0.990412
1.00168 1.00009 0.991085
1.00203 0.999412 0.991077
1.00132 0.999994 0.99167
1.00115 1.00008 0.992273
1.00183 0.999959 0.990932
1.00169 1.0001 0.991236
0.999637 0.99886 0.99631
0.99988 1.00088 0.993849
1.00019 1.0014 0.992714
1.00119 1.00044 0.991883
1.00177 0.99994 0.990973
1.00124 1.00037 0.991665
1.0007 1.00131 0.991747
1.00114 1.00054 0.991639
1.00002 1.00048 0.993956
1.00021 1.00138 0.992639
1.00006 1.00011 0.994245
1.00193 1.00001 0.990746
1.0018 0.999961 0.99103
1.00214 0.999888 0.990387
1.00203 0.99985 0.990681
0.999929 1.0007 0.993916
1.00014 1.00139 0.992855
1.00034 1.0017 0.992065
1.00144 1.00019 0.991472
1.00194 0.999553 0.991102
1.00086 1.00141 0.9914
1.00139 1.00013 0.99162
1.00124 1.0003 0.991851
1.00019 1.00134 0.992793
1.00023 1.00192 0.992191
1.00006 0.99983 0.994531
1.00017 1.00144 0.992634
1.00217 0.999973 0.990247
1.00219 0.999801 0.990466
1.00229 0.999838 0.990132
1.00218 0.99949 0.990635
1.00158 0.999799 0.991501
1.00213 0.999084 0.991306
1.00014 1.00136 0.992877
1.00144 0.999686 0.991941
1.00019 1.0017 0.992309
1.00048 1.00208 0.991496
1.00097 1.00145 0.991164
1.00136 1.00019 0.991846
1.00006 0.999587 0.994768
1.00014 1.00125 0.992837
1.00024 1.00169 0.99236
1.00016 1.00225 0.991973
1.00028 1.00203 0.992032
0.999912 0.997916 0.996687
1.00118 1.00045 0.991709
1.00008 1.00006 0.994256
0.999976 1.00046 0.99406
1.00016 1.00131 0.992884
1.00057 1.00087 0.992491
1.00114 1.0007 0.991536
1.00008 1.00148 0.992866
1.00019 1.00199 0.99219
1.00057 1.00109 0.992417
1.00039 1.00145 0.992255
0.999938 0.997776 0.996786
1.0001 0.99986 0.994413
1.00015 1.00131 0.9929
1.00017 1.00124 0.99293
1.00019 1.00183 0.992283
1.00147 1.00035 0.991233
1.00077 1.00097 0.99201
1.00123 1.00076 0.991291
1.00014 1.00199 0.992273
1.00063 1.00123 0.992076
1.0003 1.00219 0.991656
1.0001 0.999688 0.994586
1.00018 1.00112 0.993025
1.0002 1.00179 0.992313
1.00018 1.00189 0.992273
1.00021 1.00209 0.99205
1.00157 1.00023 0.991106
1.00085 1.00108 0.991734
1.00114 1.00074 0.991365
1.00017 1.00247 0.991712
1.00058 1.0021 0.991277
1.0001 0.999503 0.99477
1.00016 1.00084 0.993237
1.00013 1.00065 0.993543
1.00011 1.00161 0.99282
1.0001 1.00054 0.993764
1.00011 0.999138 0.995131
1.0001 0.999226 0.995051
1.00001 0.997356 0.997489
1.0001 0.999342 0.994936
0.999983 0.997483 0.997434
0.999917 0.996391 0.998433
0.999956 0.997614 0.997357
0.999867 0.996501 0.998847
0.999829 0.99662 0.999296
0.999901 0.997729 0.996904
0.999872 0.997936 0.996758
0.999756 0.996765 0.999292
0.999712 0.996969 0.999246
0.999837 0.998176 0.996591
0.999658 0.997156 0.999205
1.0014 1.00026 0.99147
1.00172 1.00004 0.991036
1.00187 0.999908 0.990895
1.00215 0.999829 0.990411
1.002 1.00001 0.99053
1.00142 0.99997 0.991654
1.00201 0.999999 0.990496
1.00221 0.999898 0.990192
1.00203 0.999819 0.990651
1.00231 0.999567 0.990409
1.00168 1.00009 0.991076
1.00204 0.999374 0.991093
1.00223 0.999956 0.99013
1.00227 0.999826 0.990162
1.00221 0.999307 0.990706
1.00242 0.999495 0.990385
1.00184 0.999694 0.991117
1.00223 0.998866 0.991343
1.00192 1 0.990663
1.00181 0.999948 0.99103
1.00213 0.999872 0.990334
1.00205 0.999851 0.990697
0.999947 1.00067 0.993921
1.00015 1.00139 0.992851
1.00033 1.00172 0.992132
1.00146 1.00023 0.991496
1.00192 0.999472 0.991147
1.00139 1.00012 0.991623
1.00083 1.00145 0.991334
1.00121 1.00022 0.991883
1.0002 1.00132 0.992802
1.00023 1.0019 0.992139
1.00005 0.999839 0.994526
1.00018 1.00142 0.992658
1.00216 0.99997 0.990254
1.00217 0.999803 0.990478
1.00228 0.999855 0.990123
1.00219 0.999499 0.990647
1.00015 1.00134 0.992879
1.00019 1.0017 0.992363
1.00047 1.00211 0.99149
1.00161 0.999858 0.991468
1.00203 0.999032 0.991455
1.00096 1.0015 0.991133
1.00143 0.999701 0.991948
1.00131 1.00001 0.991953
1.00024 1.00169 0.992361
1.00028 1.00199 0.99202
1.00016 1.00228 0.991956
1.00006 0.999589 0.994672
1.00016 1.00121 0.99288
1.0023 0.999952 0.990031
1.00242 0.999661 0.990042
1.00232 0.998975 0.990908
1.0018 0.999089 0.991768
1.00021 1.00163 0.992477
1.00163 0.999141 0.99226
1.00017 1.00207 0.991895
1.0006 1.00251 0.99085
1.00113 1.0014 0.990926
1.00008 0.999373 0.994779
1.00014 1.00094 0.993344
1.00011 1.00218 0.992126
1.00028 1.00177 0.992203
1.0002 1.00267 0.991505
1.00033 1.00204 0.99184
0.999938 0.997763 0.996792
1.0001 0.999857 0.994413
1.00148 1.00035 0.991226
1.00016 1.00125 0.992925
1.00014 1.00133 0.992897
1.00018 1.00182 0.992274
1.00077 1.00097 0.992012
1.00123 1.00077 0.991269
1.00013 1.00199 0.992281
1.00034 1.00216 0.99171
1.00064 1.00123 0.992109
1.0001 0.999681 0.994588
1.00018 1.00113 0.993019
1.0002 1.00178 0.992353
1.00018 1.00191 0.992266
1.0002 1.0021 0.992018
1.00157 1.00027 0.99109
1.00087 1.00107 0.991717
1.00118 1.00073 0.991373
1.00016 1.00247 0.991672
1.00059 1.0022 0.99119
1.00018 1.00099 0.993161
1.00018 1.0019 0.992175
1.00023 1.00218 0.991919
1.00021 1.00218 0.99186
1.00028 1.00219 0.99179
1.00179 0.999206 0.991663
1.00091 1.00167 0.991109
1.00122 1.00054 0.991101
1.00034 1.00279 0.991237
1.00057 1.00264 0.990365
1.0001 0.999496 0.994774
1.00016 1.00085 0.993283
1.00013 1.0018 0.992381
1.00014 1.00067 0.993459
1.0001 1.00054 0.993766
1.00011 1.00162 0.992706
1.00011 1.00229 0.992106
1.0001 1.00151 0.992718
1.00007 1.00048 0.993875
1.00011 0.999092 0.995178
1.00011 0.999142 0.995133
1.00004 0.997241 0.99754
1.0001 0.999232 0.995053
1.00001 0.997357 0.997497
0.999953 0.996269 0.998473
0.999984 0.997481 0.997444
0.999912 0.996363 0.99843
0.999855 0.996466 0.999317
0.999937 0.997562 0.997001
0.999905 0.997738 0.996896
0.999803 0.996584 0.99932
0.999874 0.997952 0.996748
0.999754 0.996786 0.999281
0.999708 0.996984 0.999235
1.00168 1.0001 0.991067
1.00203 0.99983 0.990653
1.00205 0.999332 0.991108
1.00231 0.999552 0.990407
1.00223 0.999915 0.990163
1.00201 0.999999 0.990497
1.00223 0.999965 0.990119
1.00227 0.999828 0.990167
1.00225 0.999329 0.990653
1.00238 0.999491 0.990351
1.00183 0.999741 0.991111
1.00217 0.998718 0.991495
1.00225 0.999932 0.990096
1.00226 0.999806 0.990231
1.00237 0.998982 0.990809
1.00207 0.998616 0.991793
1.00216 0.999967 0.990261
1.00216 0.999805 0.990489
1.00226 0.99987 0.990113
1.0022 0.999506 0.990659
1.00017 1.00132 0.992881
1.00019 1.0017 0.992416
1.00046 1.00214 0.991483
1.00163 0.999917 0.991436
1.00193 0.998983 0.991604
1.00142 0.999717 0.991955
1.00095 1.00156 0.991101
1.00126 0.999849 0.992059
1.00025 1.00168 0.992362
1.00028 1.00195 0.992008
1.00015 1.00231 0.991938
1.00006 0.999593 0.994575
1.00017 1.00117 0.992922
1.00229 0.999932 0.990033
1.0024 0.999672 0.99009
1.00229 0.999031 0.990951
1.00023 1.00162 0.992471
1.00021 1.00207 0.991973
1.00057 1.00256 0.990832
1.00183 0.999135 0.991718
1.00111 1.00126 0.99108
1.00156 0.999164 0.99223
1.00007 0.999354 0.994803
1.00028 1.00179 0.992193
1.00032 1.00198 0.991902
1.0002 1.00266 0.991513
1.00012 1.00219 0.992156
1.00015 1.00093 0.993255
1.00237 0.999889 0.989975
1.00257 0.999398 0.990022
1.0023 0.998481 0.991337
1.00209 0.99818 0.992232
1.00025 1.00184 0.992201
1.00149 1.00011 0.991464
1.00027 1.00269 0.991151
1.00072 1.00292 0.990311
1.00008 0.999206 0.994943
1.00013 1.00064 0.993671
1.00012 1.00193 0.992466
1.00013 1.00296 0.991309
1.00028 1.00201 0.99193
1.00028 1.00256 0.991401
1.00011 0.999672 0.99459
1.00018 1.00114 0.993014
1.00158 1.00031 0.991074
1.00017 1.00192 0.992259
1.00019 1.00176 0.992392
1.00019 1.00211 0.991986
1.00088 1.00106 0.991701
1.00122 1.00072 0.991381
1.00014 1.00247 0.991633
1.00059 1.0023 0.991104
1.00018 1.001 0.993159
1.00018 1.00192 0.992203
1.00022 1.00216 0.991975
1.0002 1.0022 0.991903
1.00024 1.00219 0.991839
1.00183 0.999247 0.991713
1.00094 1.0016 0.991148
1.00122 1.00059 0.991282
1.00031 1.00281 0.991181
1.00062 1.0028 0.990309
1.00016 1.00189 0.992238
1.0002 1.00244 0.991621
1.00028 1.00252 0.991488
1.00025 1.00238 0.991528
1.0027 0.997534 0.991803
1.00186 0.999047 0.991554
1.00102 1.00226 0.990228
1.00032 1.00371 0.99004
1.00015 1.00087 0.993328
1.00013 1.00181 0.992433
1.00012 1.00241 0.991906
1.0001 1.00054 0.993767
1.00012 1.00162 0.992592
1.00007 1.00048 0.993876
1.00011 1.00229 0.992024
1.0001 1.00152 0.992761
1.00015 1.00271 0.991579
1.00011 1.00221 0.992015
1.00008 1.00143 0.992843
1.00006 1.00044 0.99395
1.00011 0.99908 0.995191
1.00011 0.999089 0.99518
1.00006 0.997167 0.997561
1.00011 0.999147 0.995134
1.00003 0.997248 0.997545
0.999989 0.996156 0.998504
1.00001 0.997358 0.997506
0.99995 0.996239 0.99847
0.999907 0.996335 0.998427
0.999972 0.997414 0.997078
0.999941 0.997567 0.996997
0.999853 0.996423 0.99934
0.99991 0.997747 0.996889
0.999799 0.996605 0.999312
0.999751 0.996806 0.999271
1.00182 0.999788 0.991104
1.00229 0.999354 0.9906
1.00212 0.998577 0.991645
1.00233 0.999491 0.990317
1.00226 0.999831 0.990173
1.00223 0.999974 0.990107
1.00225 0.999937 0.990103
1.00225 0.999795 0.990238
1.00236 0.998975 0.990835
1.00208 0.998575 0.991772
1.00221 0.999947 0.990166
1.0023 0.999506 0.990519
1.00244 0.998278 0.991315
1.00227 0.999913 0.990035
1.00238 0.999685 0.990139
1.00226 0.999084 0.990994
1.00024 1.00161 0.992465
1.00025 1.00207 0.992052
1.00054 1.00262 0.990813
1.00185 0.999178 0.991669
1.0015 0.999186 0.992201
1.00109 1.00113 0.991234
1.00028 1.0018 0.992183
1.0003 1.00192 0.991965
1.00021 1.00265 0.99152
1.00007 0.999335 0.994827
1.00012 1.00221 0.992185
1.00015 1.00093 0.993166
1.00234 0.999884 0.990007
1.00258 0.99937 0.990009
1.00232 0.998568 0.991253
1.00026 1.00184 0.992188
1.00025 1.00266 0.991249
1.00072 1.00285 0.990374
1.00204 0.998239 0.992287
1.0015 1.00005 0.991452
1.00008 0.999194 0.995038
1.00013 1.00064 0.993676
1.00027 1.002 0.991932
1.00028 1.00256 0.991411
1.00012 1.00293 0.991375
1.00012 1.00196 0.992394
1.00236 0.999705 0.990135
1.00267 0.998938 0.990291
1.00246 0.997341 0.992214
1.00211 0.998255 0.992299
1.00021 1.00234 0.991681
1.00098 1.00259 0.990082
1.00044 1.00331 0.990539
1.0001 0.99906 0.995229
1.0001 1.00016 0.994152
1.00011 1.00043 0.993739
1.00011 1.00172 0.992626
1.00008 1.00269 0.991625
1.00014 1.00339 0.990881
1.00024 1.00221 0.991677
1.00024 1.00335 0.991044
1.00017 1.00101 0.993157
1.00019 1.00194 0.99223
1.00187 0.999288 0.991762
1.0002 1.00221 0.991946
1.00022 1.00214 0.992031
1.00021 1.00219 0.991888
1.00097 1.00152 0.991186
1.00121 1.00063 0.991462
1.00028 1.00282 0.991125
1.00066 1.00293 0.990253
1.00016 1.00191 0.992219
1.00021 1.00241 0.991682
1.00026 1.00249 0.99155
1.00027 1.00239 0.991569
1.00267 0.99746 0.991854
1.0018 0.999313 0.99152
1.00105 1.00224 0.990321
1.00038 1.00361 0.990006
1.00014 1.00252 0.991768
1.00268 0.997901 0.991215
1.00023 1.00282 0.991316
1.00026 1.00306 0.990974
1.0029 0.996965 0.991753
1.00156 1.00141 0.989954
1.00061 1.00413 0.989474
1.00012 1.00183 0.992485
1.00011 1.00242 0.991911
1.00013 1.00281 0.991479
1.00008 1.00048 0.993876
1.00009 1.00152 0.992804
1.00012 1.0023 0.991943
1.00006 1.00044 0.993951
1.00008 1.00144 0.992832
1.00016 1.0027 0.991516
1.0001 1.00222 0.992107
1.00026 1.00291 0.991188
1.00019 1.00266 0.991457
1.00011 1.0021 0.992226
1.00005 1.00141 0.993004
1.00006 1.00042 0.993976
1.0001 0.999102 0.995178
1.00011 0.999082 0.995191
1.00007 0.997141 0.997552
1.00011 0.999087 0.995182
1.00006 0.997181 0.997561
1.00002 0.996084 0.99851
1.00003 0.997254 0.99755
0.999987 0.996125 0.998502
0.999947 0.996209 0.998466
1.00011 0.998934 0.995328
1.00001 0.997268 0.997153
0.999976 0.997421 0.997075
0.999899 0.996276 0.999359
0.999946 0.997575 0.996992
0.999848 0.996441 0.999335
0.999795 0.996625 0.999304
1.00209 0.998529 0.991751
1.00234 0.998966 0.990862
1.00225 0.99978 0.990245
1.00225 0.999942 0.99011
1.0022 0.999956 0.990207
1.0023 0.999549 0.990445
1.0024 0.998238 0.991452
1.00214 0.999849 0.990429
1.00243 0.999033 0.990667
1.00243 0.998269 0.991325
1.00231 0.999878 0.990038
1.0026 0.999345 0.989996
1.00235 0.998654 0.991169
1.00027 1.00185 0.992176
1.00024 1.00262 0.991347
1.0007 1.00277 0.990436
1.00196 0.998295 0.992343
1.0015 0.999992 0.99144
1.00025 1.00201 0.991934
1.00028 1.00255 0.991421
1.00011 1.0029 0.991441
1.00008 0.99918 0.995132
1.00012 1.00063 0.993681
1.00012 1.00198 0.992323
1.00235 0.999681 0.990156
1.0001 0.999057 0.995227
1.00009 1.00016 0.994093
1.00269 0.998907 0.990302
1.00242 0.997529 0.992057
1.0002 1.00228 0.991736
1.00042 1.00337 0.990427
1.001 1.00237 0.990124
1.00204 0.998252 0.992266
1.00011 1.00043 0.993897
1.00011 1.00172 0.992622
1.00027 1.00225 0.991701
1.00022 1.00307 0.991139
1.00012 1.00346 0.990788
1.0001 1.00267 0.99164
1.00241 0.999352 0.990365
1.00274 0.997964 0.991167
1.00266 0.996312 0.993015
1.00155 1.00058 0.990911
1.00022 1.00278 0.991293
1.00057 1.00407 0.989606
1.00008 1.00007 0.994134
1.0001 1.00028 0.994029
1.00006 1.00117 0.993386
1.00009 1.0015 0.99276
1.00012 1.00244 0.991921
1.00007 1.00326 0.991019
1.00006 1.00409 0.990389
1.00008 1.00321 0.991126
1.00016 1.00194 0.9922
1.00021 1.00238 0.991742
1.00264 0.997383 0.991904
1.00174 0.99958 0.991486
1.0003 1.00241 0.99161
1.00025 1.00247 0.991611
1.00108 1.00224 0.990414
1.00044 1.00352 0.989973
1.00013 1.00251 0.991767
1.00268 0.997754 0.99132
1.00023 1.00278 0.991316
1.00027 1.00304 0.990858
1.00283 0.997063 0.99174
1.00164 1.00136 0.989952
1.00057 1.00417 0.989455
1.00013 1.00298 0.991344
1.00346 0.996274 0.991186
1.00033 1.00302 0.991023
1.00038 1.00402 0.990001
1.00259 0.999305 0.989713
1.00081 1.00362 0.989169
1.00399 0.997921 0.98954
1.0001 1.00242 0.991915
1.00011 1.00282 0.991482
1.00023 1.003 0.991163
1.00006 1.00043 0.993953
1.00008 1.00145 0.992821
1.0001 1.00223 0.992198
1.00016 1.0027 0.991452
1.00006 1.00042 0.993976
1.00006 1.00142 0.99294
1.00025 1.00288 0.991169
1.00011 1.0021 0.992227
1.00017 1.00266 0.991536
1.00034 1.00291 0.990941
1.00018 1.0026 0.991663
1.00011 1.0021 0.992291
1.00006 1.00141 0.992874
1.00006 1.00044 0.993818
1.00006 1.00148 0.993048
1.00007 1.00049 0.993759
1.0001 0.999132 0.995153
1.0001 0.999105 0.995177
1.00009 0.99716 0.997104
1.00011 0.999083 0.995191
1.00008 0.99716 0.997333
1.00001 0.996021 0.999365
1.00006 0.997196 0.997561
1.00002 0.996052 0.998511
0.999985 0.996095 0.9985
1.00013 0.998832 0.995406
1.00012 0.998928 0.995327
1.00004 0.997138 0.997224
1 0.997276 0.997363
0.999941 0.996146 0.999377
0.99998 0.997427 0.997072
0.999894 0.996295 0.999354
0.999842 0.996459 0.999329
1.00237 0.998198 0.991588
1.0023 0.999589 0.990372
1.00218 0.999965 0.990247
1.00215 0.999848 0.990427
1.00236 0.999034 0.990756
1.00237 0.998578 0.991215
1.00222 0.999265 0.990882
1.00414 0.996286 0.991862
1.00256 0.997301 0.991917
1.00009 1.00001 0.994325
1.00234 0.999658 0.990178
1.00271 0.998873 0.990312
1.00238 0.997682 0.991901
1.0002 1.00223 0.99179
1.0004 1.00341 0.990315
1.00101 1.00216 0.990166
1.00199 0.998274 0.992233
1.00031 1.00227 0.991725
1.0002 1.00281 0.991234
1.0001 1.00354 0.990695
1.0001 0.999059 0.995225
1.00012 1.00264 0.991655
1.0001 1.00043 0.994055
1.0001 1.00172 0.992618
1.00009 1.00016 0.994033
1.00245 0.999302 0.990328
1.00009 1.00007 0.994199
1.00009 1.00029 0.994026
1.00006 1.00116 0.993263
1.00275 0.99792 0.991182
1.00262 0.996466 0.992803
1.00024 1.00269 0.991327
1.00047 1.00405 0.989556
1.00153 1.00048 0.990945
1.00008 1.00148 0.992844
1.00013 1.00245 0.99188
1.0001 1.00317 0.991094
1.00006 1.00402 0.990459
1.00009 1.00323 0.991078
1.00264 0.998719 0.990422
1.00302 0.996253 0.992371
1.00244 0.9982 0.991612
1.00084 1.0034 0.989743
1.00001 1.00375 0.990661
1.00004 1.00105 0.993251
1.00007 1.00131 0.992978
1.00006 1.0019 0.99259
1.0001 1.00231 0.992068
1.00013 1.0029 0.991373
1.00002 1.00387 0.990668
0.999939 1.00449 0.990157
1.00013 1.0025 0.991765
1.00022 1.00274 0.991316
1.00269 0.997592 0.991425
1.00275 0.997161 0.991727
1.00172 1.0013 0.98995
1.00029 1.003 0.990742
1.00052 1.0042 0.989437
1.00013 1.00295 0.991383
1.00345 0.996156 0.991245
1.0003 1.00296 0.991036
1.00026 1.0041 0.989988
1.00275 0.999017 0.989812
1.00082 1.0037 0.989165
1.00391 0.997889 0.989896
1.0002 1.00312 0.991075
1.00374 0.997108 0.989515
1.00024 1.0035 0.99065
1.00007 1.00477 0.989621
1.00125 1.00215 0.989264
0.99665 1.00228 0.972097
0.999239 1.00045 0.988173
1.00326 0.999182 0.990258
0.994384 0.998829 0.983632
0.996978 0.996596 0.985946
1.0001 1.00283 0.991484
1.00021 1.003 0.991165
1.00037 1.00301 0.990793
1.00006 1.00041 0.993977
1.00006 1.00144 0.992877
1.0001 1.0021 0.992228
1.00016 1.00266 0.991615
1.00025 1.00285 0.991151
1.00012 1.0021 0.992192
1.00006 1.00044 0.993883
1.00005 1.00141 0.992949
1.00031 1.00292 0.990994
1.00018 1.00258 0.99163
1.00018 1.00255 0.991732
1.00024 1.00311 0.991003
1.00013 1.00215 0.992029
1.00005 1.00141 0.992886
1.00006 1.00047 0.99378
1.00007 1.00142 0.993002
1.0001 1.00217 0.992259
1.00007 1.0016 0.992784
1.00006 1.00148 0.992926
1.00007 1.0005 0.993851
1.00006 1.00049 0.993763
1.0001 0.999165 0.995115
1.0001 0.999131 0.995153
1.00009 0.997194 0.997092
1.0001 0.999108 0.995176
1.00009 0.997163 0.997104
1.00002 0.996008 0.999364
1.00008 0.99718 0.997115
1.00003 0.996018 0.998933
1.00002 0.996021 0.998511
1.00013 0.99877 0.99545
1.00013 0.998826 0.995405
1.00006 0.997036 0.997282
1.00012 0.998921 0.995327
1.00004 0.997135 0.997433
0.999974 0.996033 0.999394
1.00001 0.997294 0.997139
0.999934 0.996182 0.999369
0.999889 0.996313 0.999348
1.00228 0.999037 0.990845
1.00215 0.999846 0.990425
1.0023 0.998892 0.991105
1.00399 0.996131 0.991889
1.00222 0.999276 0.990827
1.00247 0.997521 0.991656
1.00262 0.998607 0.990255
0.999579 0.99962 0.985473
1.00292 0.997601 0.993121
1.00009 0.999988 0.99435
1.00009 1.00001 0.994324
1.00005 1.00094 0.993485
1.00007 1.00087 0.99353
1.0025 0.999263 0.990291
1.00276 0.997923 0.991196
1.00257 0.996581 0.99259
1.00026 1.00264 0.991362
1.00038 1.004 0.989505
1.0015 1.00035 0.990981
1.00012 1.00316 0.991062
1.00005 1.00392 0.99053
1.0001 1.0032 0.991137
1.00009 1.0003 0.994023
1.00014 1.00246 0.99184
1.00008 1.00146 0.992929
1.00009 1.00007 0.994264
1.00006 1.00116 0.993139
1.00265 0.998707 0.990544
1.00004 1.00106 0.993376
1.00007 1.00129 0.993054
1.00006 1.00183 0.992584
1.00297 0.996232 0.992409
1.0024 0.998008 0.991625
1.00005 1.00381 0.990641
1.00078 1.00332 0.989773
1.00009 1.00231 0.992108
1.00014 1.00285 0.991386
0.999941 1.00447 0.990167
1.00002 1.00396 0.990597
1.00324 0.996767 0.990835
1.00333 0.996289 0.991849
1.00156 1.00202 0.989533
1.00001 1.00455 0.989969
1.00004 1.00206 0.992338
1.00006 1.00212 0.992241
1.00009 1.00318 0.991145
0.999978 1.00472 0.989883
0.996432 1.00222 0.969358
1.00012 1.00291 0.991422
1.00026 1.0029 0.991048
1.00341 0.995985 0.991305
1.00292 0.998755 0.989912
1.00082 1.00379 0.989161
1.00013 1.00418 0.989976
1.00374 0.997857 0.990253
1.00019 1.00312 0.991099
1.00393 0.997017 0.989446
1.00019 1.00352 0.990657
1.00005 1.00475 0.989654
1.00126 1.00225 0.989282
0.996378 1.00168 0.972797
0.999183 1.00054 0.984457
1.00315 0.99903 0.990412
0.994473 0.999361 0.982408
0.996414 0.997179 0.985897
1.00016 1.00331 0.990926
0.995018 0.998865 0.980177
0.999223 0.99552 0.9882
1.00245 0.999668 0.98997
1.00011 1.00363 0.990527
0.999937 1.00488 0.99011
1.00303 0.999827 0.989709
0.996082 1.00206 0.97232
0.999065 1.00077 0.984972
0.99447 1.00177 0.981425
1.00376 0.99593 0.982754
1.00019 1.003 0.991166
1.00036 1.00304 0.990804
1.00048 1.00321 0.990425
1.00006 1.00044 0.993948
1.00004 1.00142 0.993023
1.00013 1.00211 0.992092
1.00018 1.00256 0.991597
1.00029 1.00292 0.991048
1.00006 1.00046 0.993783
1.00018 1.0025 0.991704
1.00012 1.00217 0.99214
1.00006 1.0014 0.992953
1.00025 1.0031 0.990899
1.00018 1.0028 0.991379
1.0001 1.00402 0.990394
1.00011 1.00217 0.992141
1.00007 1.00143 0.992991
1.00006 1.00143 0.993001
1.00011 1.00217 0.992156
1.00011 1.0021 0.992214
1.0001 1.00232 0.992016
1.00017 1.0026 0.99165
1.00008 1.00273 0.991629
1.00008 1.00178 0.99258
1.00007 1.0016 0.992783
1.00009 1.00057 0.993753
1.00006 1.00149 0.992805
1.00007 1.00051 0.993785
1.00011 0.99921 0.995062
1.00006 1.00049 0.993767
1.00011 0.99916 0.995115
1.00006 0.997235 0.997515
1.0001 0.999129 0.995153
1.00008 0.997191 0.997309
1.00005 0.996019 0.998484
1.00009 0.997167 0.997103
1.00002 0.996008 0.999363
1.00004 0.996016 0.9985
1.00009 1.00002 0.99431
1.00014 0.998755 0.995457
1.00014 0.998766 0.995449
1.00008 0.996978 0.997315
1.00013 0.998821 0.995403
1.00007 0.997032 0.997285
0.999998 0.995952 0.999407
1.00003 0.997148 0.997628
0.99998 0.996071 0.998967
0.999956 0.996207 0.998516
1.00376 0.996026 0.991917
1.00221 0.999293 0.990772
1.00237 0.997739 0.991396
0.999495 0.999309 0.987982
1.00284 0.99757 0.993251
1.00267 0.998539 0.990174
1.00313 0.998804 0.991649
0.999057 1.00003 0.987286
0.996063 1.00253 0.967614
0.995049 0.998073 0.979893
0.996279 0.996627 0.987249
1.00005 1.00087 0.993417
1.00009 0.999992 0.994349
1.00009 1.00002 0.994323
1.00004 1.00095 0.993441
1.00004 1.00165 0.992872
1.00006 1.00145 0.992998
1.00006 1.00097 0.99344
1.00006 1.00088 0.993481
1.00266 0.998692 0.990665
1.00292 0.996199 0.992448
1.00236 0.997886 0.991638
1.00008 1.00381 0.990622
1.00071 1.00331 0.989802
0.999945 1.00445 0.990178
1.00003 1.00406 0.990526
1.00015 1.00279 0.991399
1.00006 1.00127 0.993129
1.00008 1.00231 0.992147
1.00004 1.00107 0.9935
1.00006 1.00176 0.992578
1.00331 0.997097 0.990704
1.00004 1.00204 0.992381
1.00006 1.00214 0.992256
1.00321 0.996187 0.991858
1.00142 1.00176 0.98967
1.00007 1.00454 0.989848
1.00011 1.0032 0.991122
0.999988 1.00467 0.989908
1.0042 0.995829 0.989926
1.0023 1.00072 0.989766
1.00033 1.00412 0.989289
1.00006 1.00498 0.989533
1.00002 1.00256 0.991858
1.00008 1.00291 0.991435
1.00008 1.00412 0.990358
0.996173 0.998096 0.980042
0.996859 1.00263 0.971684
1.00018 1.00312 0.991122
1.00014 1.00352 0.990664
1.00409 0.996958 0.989377
1.0013 1.00236 0.989301
1.00003 1.00475 0.989686
0.99667 1.00243 0.966735
0.999217 1.00017 0.989261
1.00314 0.998754 0.99055
0.994457 0.999443 0.980412
0.995808 0.997826 0.985851
1.0002 1.00323 0.990915
0.995646 0.997578 0.981965
0.998643 0.995846 0.988493
1.00245 0.999697 0.989941
1.00005 1.00392 0.990542
0.999844 1.00489 0.990151
1.00297 1.00034 0.989485
0.995515 1.0024 0.970092
0.999137 1.00154 0.988338
0.994221 1.00063 0.980034
1.00292 0.997062 0.98356
1.00049 1.00291 0.990577
0.999795 0.9955 0.990482
1.01164 0.996896 0.978296
1.00065 1.00265 0.990282
0.999818 1.00383 0.99155
1.00218 1.00062 0.994864
0.999467 0.998208 0.995208
0.995247 1.00259 0.971032
0.994602 0.999363 0.981357
1.01162 0.993066 0.978521
1.00035 1.00307 0.990815
1.00047 1.00322 0.990387
1.0002 1.00375 0.990211
1.00006 1.00046 0.993786
1.00006 1.00139 0.993019
1.00011 1.00218 0.992251
1.00018 1.00246 0.991676
1.00027 1.00308 0.990795
1.00006 1.00142 0.992989
1.00017 1.00274 0.991447
1.00011 1.00217 0.992141
1.00009 1.00404 0.990323
1.00001 1.00463 0.989964
1.00011 1.00327 0.991108
1.00011 1.00216 0.992176
1.00006 1.00143 0.992999
1.00012 1.00217 0.992053
1.00011 1.0021 0.992212
1.00009 1.00233 0.992013
1.00018 1.00255 0.991621
1.00007 1.00256 0.991796
1.00019 1.0026 0.9916
1.00018 1.00281 0.991295
1.00015 1.00292 0.991305
0.999992 1.00273 0.991679
1.00007 1.00265 0.991672
1.00008 1.00271 0.991641
1.00009 1.00197 0.992375
1.00008 1.00179 0.992578
1.00011 1.0007 0.993581
1.00006 1.00161 0.992782
1.00009 1.00058 0.99375
1.00011 0.999277 0.994997
1.00007 1.00051 0.993718
1.00011 0.999203 0.995061
1.00004 0.997303 0.997491
1.00011 0.999155 0.995115
1.00007 0.997236 0.99729
1.00003 0.996036 0.998476
1.00009 0.997184 0.997089
1.00002 0.996019 0.99936
1.00002 0.996007 0.999362
1.00011 1.00008 0.994381
1.00014 0.998788 0.995422
1.00009 1.00002 0.99431
1.00008 0.996966 0.997321
1.00014 0.998756 0.995456
1.00014 0.998761 0.995447
1.00008 0.99698 0.997315
1.00001 0.995908 0.999413
1.00005 0.997033 0.997686
1.00001 0.995962 0.998996
0.999997 0.996077 0.998559
0.995823 0.996441 0.983701
0.999494 0.9951 0.987864
0.9996 0.998818 0.990344
1.00278 0.997675 0.99338
1.00272 0.998483 0.990093
0.99906 1.00005 0.992234
1.00323 0.998516 0.991528
0.996811 1.00171 0.971957
0.994274 0.998475 0.984211
0.995868 0.996647 0.987537
1.00038 0.999097 0.994109
0.995621 1.00223 0.973491
0.994083 1.001 0.982718
1.00063 0.995574 0.985685
1.00002 1.00176 0.992659
1.00006 1.00088 0.993465
1.00008 0.999995 0.994348
1.00003 1.00096 0.993397
1.00002 1.00158 0.992921
1.00005 1.00171 0.992775
1.00006 1.0014 0.993019
1.00007 1.00124 0.993144
1.00006 1.001 0.99337
1.00005 1.0009 0.993432
1.00335 0.997366 0.990575
1.00312 0.996016 0.991861
1.00126 1.00149 0.989809
1.00012 1.00454 0.989726
0.999997 1.00462 0.989934
1.00012 1.00321 0.9911
1.00006 1.00217 0.99227
1.00004 1.00202 0.992424
1.00436 0.995822 0.989691
1.00002 1.00259 0.99183
1.0001 1.00293 0.991348
1.00216 1.00051 0.989691
1.00036 1.00419 0.989328
1.00009 1.00498 0.98947
1.0001 1.00411 0.990275
1.00388 0.998729 0.988215
1.00028 1.00465 0.989492
1.00005 1.00465 0.9897
1.00004 1.0026 0.99181
1.00012 1.00302 0.991253
1.00023 1.00345 0.99063
1.00152 0.99608 0.985537
0.995819 0.998603 0.97868
0.996452 1.00235 0.969191
1.00025 1.00315 0.990903
1.00001 1.00417 0.990558
1.00244 0.999783 0.989912
0.999724 1.00489 0.99019
0.996162 0.99834 0.978654
0.995483 1.00183 0.975705
0.99913 1.00086 0.985072
1.00288 1.00076 0.98936
0.994047 1.00045 0.983044
0.998564 0.996061 0.988113
1.0002 0.998152 0.984671
1.00044 1.00315 0.990551
1.00039 0.995567 0.988056
1.01133 0.996915 0.978597
1.00068 1.00272 0.990341
0.999651 1.00368 0.991571
1.00302 1.0025 0.989678
0.999438 0.999168 0.989312
0.995628 1.00236 0.972023
0.995957 0.99867 0.985264
1.00954 0.993476 0.979897
1.00007 1.00288 0.991628
1.01439 0.996405 0.977799
1.02149 0.991696 0.971239
0.998822 1.00368 0.992986
0.998974 0.997971 1.00057
0.9955 0.999111 0.974892
0.997567 0.998658 0.98392
1.01179 0.99 0.981582
1.00044 1.00323 0.99035
1.00028 1.00365 0.990339
1.00028 1.00351 0.990707
1.00007 1.00142 0.992988
1.00011 1.00217 0.99214
1.00016 1.00268 0.991515
1.00008 1.00406 0.990252
1.00011 1.00216 0.992172
1.00012 1.00322 0.991123
0.999986 1.00459 0.989945
0.999881 1.00473 0.9902
1.00012 1.0041 0.99021
1.00018 1.00275 0.991488
1.00011 1.00211 0.992211
1.00009 1.00233 0.992011
1.0002 1.0025 0.991592
1.00019 1.00259 0.991611
1.00007 1.00258 0.9918
1.00019 1.00277 0.991329
1.00016 1.00302 0.991175
1.00025 1.00293 0.991092
1.00016 1.00312 0.991095
1.00016 1.00294 0.99132
0.999994 1.003 0.991408
1.0002 1.0027 0.991445
1.00013 1.00224 0.992107
0.99996 1.0026 0.991912
1.00008 1.00263 0.991717
1.0001 1.00207 0.99219
1.00009 1.00271 0.991653
1.00009 1.00197 0.99238
1.00013 1.00089 0.993357
1.00008 1.00179 0.992576
1.00011 1.00071 0.993577
1.0001 0.999374 0.99491
1.00009 1.00059 0.993746
1.00011 0.999272 0.994995
1.00001 0.997392 0.99746
1.00011 0.999195 0.995061
1.00005 0.997308 0.997263
0.999999 0.996114 0.998459
1.00008 0.997229 0.997069
1.00002 0.996047 0.998918
1.00001 0.996026 0.999359
1.00012 1.00025 0.994076
1.00014 0.998859 0.995359
1.0001 1.00009 0.994245
1.00008 0.997002 0.997295
1.00014 0.99879 0.995423
1.00009 1.00002 0.99431
1.00002 0.995899 0.999413
1.00008 0.996965 0.997322
1.00014 0.998754 0.995456
1.00008 0.996982 0.997314
1.00001 0.995911 0.999412
0.999996 0.995955 0.999405
1.0011 0.995597 0.987596
0.995549 0.997431 0.981439
1.01251 0.994521 0.9795
0.999106 0.995114 0.987748
0.999084 1.0007 0.986632
1.00335 0.998223 0.991389
0.996351 1.00067 0.976653
0.9948 0.999235 0.980377
0.995481 0.996725 0.987825
1.00044 0.999249 0.991613
0.995582 1.00194 0.97189
0.99401 1.00094 0.980629
1.00177 0.995301 0.986043
0.999972 0.998844 0.993466
0.995082 1.00143 0.972362
0.994608 0.998606 0.984802
1.01026 0.990586 0.983167
1.00006 1.00221 0.992236
1.00003 1.00175 0.992732
1.00006 1.00089 0.993512
1.00001 1.00152 0.99297
1.00008 1.00198 0.992367
1.00005 1.00166 0.992825
1.00006 1.00135 0.993038
1.0001 1.00135 0.99305
1.00007 1.00123 0.993212
1.00006 1.00103 0.993301
1.00458 0.995878 0.989456
1.00198 1.00029 0.989622
1.00041 1.00434 0.989367
1.00012 1.00498 0.989407
1.00013 1.00411 0.990192
1.00012 1.00296 0.991261
1.00002 1.00262 0.991801
1.00005 1.00258 0.991834
1.00405 0.998468 0.988263
1.0001 1.00305 0.991299
1.00023 1.00356 0.990595
1.00026 1.00477 0.989382
1.00013 1.00467 0.989689
1.00269 1.00063 0.988789
0.999669 1.00489 0.990389
1.0003 1.00357 0.990318
1.00015 1.00282 0.9914
1.00031 1.00323 0.990667
1.01567 0.997037 0.976564
1.00146 0.995813 0.986674
0.995976 0.997655 0.982513
1.00039 1.00343 0.990524
0.999482 1.00361 0.991593
1.00072 1.00264 0.990392
1.00094 0.996158 0.987178
0.995352 1.00172 0.970956
0.999384 0.998813 0.993095
1.00388 1.00454 0.984353
0.994858 0.999006 0.98148
1.01102 0.996938 0.9789
1.00965 0.993673 0.979615
1.00005 1.00269 0.991721
1.01511 0.996817 0.976212
1.02167 0.991676 0.97126
0.999062 1.00342 0.99244
0.999204 0.99881 0.996933
0.995309 1.00088 0.973235
1.01298 0.989772 0.980282
0.997121 0.998163 0.982731
0.999797 1.00207 0.99277
1.02403 0.992383 0.968636
1.02551 0.988466 0.971279
1.00998 0.992898 0.981387
0.996684 1.00175 0.997708
0.995335 0.998293 0.97744
0.997327 0.999574 0.982468
1.00036 1.00351 0.990466
1.00033 1.00361 0.990416
0.999824 1.00374 0.991465
1.00011 1.00216 0.992168
1.00012 1.00318 0.991139
0.999971 1.00455 0.989926
1.00019 1.00273 0.991516
1.00013 1.00407 0.990205
0.999941 1.00464 0.99001
0.999864 1.00445 0.990383
1.0003 1.00323 0.99069
1.0002 1.00257 0.991623
1.00007 1.0026 0.991805
1.0002 1.00273 0.991363
1.00025 1.00291 0.991093
1.00017 1.00299 0.991179
1.00004 1.00346 0.990981
1.00009 1.00303 0.991292
1.00005 1.00393 0.990523
1.00017 1.00295 0.991336
1.00006 1.00303 0.991398
1.0002 1.00315 0.990787
1.00017 1.00254 0.991628
1.00011 1.00214 0.992182
1.00016 1.00271 0.991465
1.00014 1.0019 0.992352
1.00012 1.00226 0.992086
0.999928 1.00248 0.992145
1.0001 1.00262 0.991762
1.0001 1.00205 0.992238
1.00014 1.00109 0.993145
1.00009 1.00196 0.992385
1.00013 1.00089 0.993356
1.00009 0.999518 0.994786
1.00011 1.00072 0.993573
1.0001 0.999375 0.994906
0.99998 0.997499 0.997412
1.00011 0.999267 0.994992
1.00002 0.997401 0.997226
0.999962 0.996211 0.99844
1.00005 0.9973 0.997041
0.999992 0.996121 0.998907
0.999998 0.996077 0.999354
1.00013 1.0004 0.993717
1.00012 0.998987 0.99508
1.00012 1.00025 0.994073
1.00007 0.99708 0.997239
1.00013 0.99887 0.995272
1.0001 1.0001 0.994109
1.00001 0.995928 0.999404
1.00008 0.996996 0.997297
1.00014 0.998793 0.995424
1.00002 0.995898 0.999413
1.00008 0.996964 0.997322
1.00001 0.995914 0.99941
1.01495 0.995848 0.977205
1.00117 0.99566 0.986107
0.995738 0.99758 0.98019
1.00015 1.00146 0.992751
1.02208 0.989817 0.973532
1.01246 0.994643 0.979808
0.999177 0.99516 0.986899
1.00046 0.998773 0.989197
0.995642 1.00234 0.973875
0.994164 1.00137 0.983603
1.00142 0.994765 0.986248
0.999828 0.998903 0.988132
0.994916 1.00183 0.973702
0.995835 0.998786 0.983269
1.00869 0.991988 0.98379
0.999716 0.998314 0.987194
0.994928 1.00019 0.97021
0.998709 0.99744 0.979742
1.01269 0.987603 0.983202
1.00015 1.0024 0.991775
1.00006 1.00224 0.992188
1.00003 1.00172 0.992805
1.00013 1.00201 0.992228
1.00008 1.00194 0.99245
1.00006 1.0016 0.992876
1.00011 1.00134 0.993077
1.00008 1.00121 0.993281
1.00418 0.998178 0.988307
1.00023 1.00487 0.989272
1.00005 1.00256 0.991858
1.00021 1.0047 0.989677
1.00023 1.00362 0.99056
1.00008 1.00308 0.991344
1.00015 1.00282 0.99141
1.00285 1.00074 0.988819
1.0003 1.0032 0.990718
1.00031 1.00369 0.990271
0.999647 1.00487 0.990297
1.00024 1.0027 0.991396
1.00159 1.00104 0.991516
0.999529 1.00425 0.991299
1.00039 1.00288 0.990825
1.00029 1.00309 0.990969
1.02285 0.994621 0.969143
1.01546 0.996671 0.976541
1.00133 0.995638 0.987812
1.00003 1.00245 0.991816
0.999308 1.00308 0.991892
1.0158 0.99719 0.974627
0.99525 0.999426 0.9748
0.999667 0.999275 0.989935
0.998057 0.998363 0.980283
1.02172 0.991584 0.971281
1.01429 0.98979 0.978982
0.999846 1.00241 0.992533
1.02402 0.992291 0.968565
1.02605 0.986952 0.970243
0.996807 1.00307 0.998058
1.00838 0.993927 0.982189
0.995044 0.998326 0.976947
0.998272 0.999169 0.978939
0.998701 1.00278 0.994814
1.02572 0.991811 0.967503
1.02252 0.992218 0.970149
1.00044 0.996855 0.984737
0.998499 0.998226 0.979588
0.996451 0.999307 1.00406
0.994856 1.00011 0.972707
1.00035 1.00377 0.990125
0.999933 1.00351 0.991322
0.999253 1.00483 0.990421
1.00019 1.00269 0.991545
1.00014 1.00404 0.990201
1 1.00458 0.989819
1.00028 1.00323 0.990708
0.999889 1.00442 0.99031
0.999738 1.00423 0.990814
1.00026 1.0029 0.991095
1.00018 1.00296 0.991182
1.0001 1.00345 0.990946
0.999832 1.00453 0.990314
1.00002 1.00294 0.991489
0.999975 1.00383 0.990634
1.0001 1.00438 0.989972
1.00048 1.00287 0.990744
1.00013 1.00306 0.991388
1.00023 1.00325 0.990708
1.00021 1.00224 0.992007
0.999994 1.00226 0.992188
1.00018 1.00244 0.991715
1.00011 1.00181 0.992508
1.00012 1.00215 0.992166
1.00011 1.00272 0.991485
1.00016 1.00113 0.99306
1.00015 1.00189 0.992332
1.00012 1.00228 0.992065
1.0001 1.00203 0.992286
1.00015 1.00107 0.993149
1.00007 0.999712 0.994622
1.00013 1.00089 0.993356
1.00009 0.999525 0.99478
0.999954 0.997633 0.996895
1.0001 0.999377 0.994901
0.999991 0.997509 0.996951
0.9999 0.996322 0.99933
1.00003 0.997396 0.997001
0.999957 0.996215 0.998894
0.999972 0.996152 0.999346
1.00016 1.00052 0.993537
1.00011 0.999159 0.994912
1.00014 1.00041 0.993792
1.00005 0.997195 0.997161
1.00012 0.999009 0.99506
1.00012 1.00026 0.99407
0.999997 0.995987 0.99939
1.00007 0.997072 0.997242
1.00012 0.998883 0.995185
1.00001 0.995921 0.999407
1.00008 0.99699 0.997298
1.00002 0.995896 0.999414
1.02273 0.993178 0.97017
1.01502 0.995389 0.977257
1.00114 0.99567 0.986225
1.00016 1.00146 0.992775
1.0002 1.00155 0.992521
1.00016 1.0021 0.992204
1.02481 0.985497 0.97538
1.02243 0.988967 0.973559
1.01238 0.994745 0.980116
0.999648 0.999077 0.992493
0.995113 1.00212 0.971955
0.994671 0.998092 0.982353
1.00873 0.992477 0.983534
0.999376 0.998464 0.991706
0.994904 0.999773 0.97472
0.997257 0.998778 0.983083
1.01342 0.987109 0.98241
0.998778 0.99672 0.993691
0.994917 1.00018 0.975515
0.998464 0.999384 0.98072
1.01099 0.990812 0.981042
1.0002 1.00253 0.991607
1.00014 1.00244 0.991772
1.00005 1.00228 0.992141
1.00013 1.00204 0.992223
1.00009 1.0019 0.992534
1.00012 1.00133 0.993105
1.00301 1.00086 0.988848
0.999641 1.00482 0.990204
1.00015 1.00282 0.99142
1.00032 1.00378 0.990224
1.00029 1.00322 0.990768
1.00023 1.00266 0.991414
1.00029 1.00305 0.990923
1.00166 1.00063 0.991438
1.00042 1.00282 0.990949
0.999456 1.00415 0.991755
1.00025 1.0028 0.991113
0.999186 1.0029 0.993925
0.999737 1.00115 0.993689
1.00028 1.00319 0.990711
1.02437 0.993509 0.967849
1.02281 0.994281 0.968906
1.01526 0.99623 0.976519
0.999872 1.00274 0.992298
0.9968 1.0004 0.999117
1.02404 0.99221 0.968494
0.995185 0.99875 0.986532
0.998843 0.999239 0.981902
1.02668 0.985484 0.969206
1.0084 0.994373 0.982045
0.998827 1.00242 0.994472
1.02534 0.991956 0.967476
1.02288 0.991659 0.970129
0.996445 1.00037 0.996259
1.00158 0.99654 0.98519
0.997131 0.999035 0.982832
0.994922 1.00003 0.976502
0.998537 1.00434 0.996437
1.02292 0.99502 0.967924
1.01265 0.995842 0.977819
0.996257 0.997862 0.986552
0.994672 0.99903 0.983952
0.995164 0.999591 0.975677
0.997951 0.997407 0.994221
1.00004 1.00325 0.991179
0.999306 1.00484 0.990507
0.999179 1.00488 0.990899
1.00026 1.00323 0.990726
0.999911 1.00438 0.990237
0.999691 1.00428 0.990797
0.999634 1.005 0.990187
1.00016 1.00343 0.990911
0.999956 1.00454 0.990196
1.00007 1.00504 0.989381
0.999904 1.00373 0.990746
1.00012 1.00434 0.989959
1.00052 1.00418 0.989638
1.00065 1.00297 0.990396
1.00027 1.00221 0.991614
1.00045 1.00297 0.990649
1.00027 1.00335 0.99063
1.00018 1.00193 0.992342
1.00017 1.00212 0.992104
0.999998 1.00196 0.992504
1.00001 1.00223 0.992243
1.00018 1.00235 0.991802
1.00013 1.00115 0.993095
1.00013 1.00178 0.992513
1.00013 1.00215 0.99215
1.00007 0.999865 0.994476
1.00017 1.00111 0.993069
1.00015 1.00188 0.992311
1.00015 1.00106 0.993153
1.00007 0.999717 0.994619
0.999916 0.997789 0.99681
1.00008 0.999532 0.994775
0.999956 0.99764 0.996891
0.999867 0.99646 0.999317
0.999995 0.997511 0.996951
0.999914 0.996336 0.998873
0.999939 0.996247 0.999336
1.00018 1.00068 0.993464
1.00011 0.999308 0.994945
1.00015 1.00053 0.993597
1.00003 0.997338 0.997069
1.00012 0.999172 0.994987
1.00015 1.00042 0.993868
0.999975 0.99608 0.999371
1.00005 0.997185 0.997165
1.00012 0.999028 0.99504
1 0.99598 0.999394
1.00007 0.997064 0.997245
1.00001 0.995915 0.99941
1.02533 0.99029 0.969896
1.023 0.992707 0.97017
1.01514 0.994997 0.977305
1.00021 1.0017 0.992338
1.00022 1.00224 0.991903
1.00016 1.00146 0.992798
1.00019 1.00158 0.992496
1.00017 1.0021 0.992122
1.00019 1.00217 0.991985
1.00017 1.00249 0.991695
1.02049 0.991387 0.973205
1.02542 0.983879 0.974234
1.0228 0.988062 0.973585
1.01426 0.986507 0.981618
0.998996 0.998659 0.987298
0.994924 0.99907 0.978987
0.996764 0.999709 0.979962
0.99835 0.996913 0.991264
0.994907 0.999271 0.972934
0.998872 0.998487 0.978542
1.00984 0.992005 0.98124
0.996584 0.997793 0.995423
0.995037 1.0003 0.971538
0.99859 0.998594 0.982791
1.00312 0.995364 0.98404
1.00028 1.00258 0.991422
1.0002 1.00253 0.991594
1.00013 1.00247 0.991769
1.00013 1.00206 0.992217
1.00173 1.00073 0.99136
0.999307 1.00415 0.992213
1.00023 1.00261 0.991432
1.00029 1.00302 0.990878
1.00046 1.00277 0.991074
1.00026 1.00283 0.991128
1.00031 1.00318 0.990645
0.998867 1.00309 0.994696
0.999703 1.00108 0.994028
1.00026 1.00341 0.990701
0.997418 1.00264 0.998545
1.00009 1.00382 0.990912
1.0226 0.996307 0.967946
1.02396 0.993807 0.96768
1.02277 0.993982 0.968668
0.999023 1.00207 0.994147
0.996456 0.999322 1.00348
1.02492 0.99207 0.967449
0.994833 1.00009 0.972676
0.996404 0.999592 0.980037
1.02325 0.990991 0.97011
1.0012 0.995967 0.98545
0.998474 1.00451 0.996244
1.02318 0.994702 0.967845
1.01258 0.996067 0.978143
0.997899 0.997363 1.00101
0.995795 0.997445 0.987009
0.995902 0.999447 0.982419
0.995185 0.99953 0.975325
0.999985 1.00238 0.995533
1.01512 0.997353 0.975474
0.999481 0.995885 0.987259
0.994315 1.00148 0.981775
0.995191 1.00065 0.974048
0.998602 0.99648 0.989425
0.999401 1.00485 0.990591
0.999163 1.00488 0.990882
0.999906 1.00456 0.990317
0.999642 1.00435 0.99078
0.99948 1.00502 0.990298
1.00019 1.00499 0.989238
1.00009 1.00455 0.990077
1.00014 1.00504 0.989267
1.0006 1.00438 0.989004
1.00015 1.00427 0.989946
1.00053 1.00415 0.989514
1.00076 1.00343 0.98971
1.00094 1.00219 0.99049
1.00061 1.00238 0.991132
1.00065 1.003 0.990324
1.0002 1.0018 0.992163
1.00028 1.00222 0.991681
1.00043 1.00307 0.990555
1.00012 1.00185 0.992482
1.00016 1.00195 0.992319
1.00013 1.00199 0.992201
1.00006 1.00129 0.993065
1.00001 1.00193 0.99253
1.00003 1.0022 0.992298
1.00004 0.999985 0.994398
1.00014 1.00112 0.993102
1.00014 1.00176 0.992518
0.999895 0.997941 0.996724
1.00006 0.999868 0.994479
1.00017 1.00108 0.993078
1.00007 0.999721 0.994616
0.999918 0.9978 0.996804
0.999823 0.996605 0.999299
0.999959 0.997648 0.996886
0.999863 0.996475 0.999312
0.999901 0.99636 0.999323
1.00021 1.00183 0.992282
1.0002 1.00086 0.993234
1.0001 0.999468 0.994803
1.00018 1.00068 0.993465
0.999996 0.997492 0.996972
1.00011 0.99931 0.994947
1.00015 1.00054 0.993657
0.999944 0.9962 0.999348
1.00002 0.997328 0.997073
1.00012 0.999185 0.995062
0.999978 0.996067 0.999377
1.00005 0.997175 0.99717
1 0.99597 0.999399
1.02321 0.9937 0.968554
1.02502 0.990367 0.969535
1.02326 0.992259 0.970169
1.0002 1.00172 0.99236
1.00022 1.00224 0.99186
1.00021 1.00225 0.99184
1.00022 1.0022 0.991839
1.00021 1.0025 0.991661
1.00018 1.0016 0.992471
1.00018 1.0021 0.99204
1.00019 1.00216 0.991989
1.00019 1.00245 0.991689
1.00018 1.0026 0.991585
1.0108 0.997812 0.978744
1.02061 0.991537 0.973216
1.02602 0.982323 0.973088
1.0099 0.992056 0.980997
0.999137 0.99891 0.981495
0.998012 0.996664 0.989377
0.994964 0.999465 0.974917
0.996326 0.997909 0.990394
0.994894 1.00027 0.974388
0.998052 0.998088 0.981315
1.00243 0.996591 0.984822
0.995351 0.999562 0.99178
0.994926 0.99903 0.975862
0.994983 0.999516 0.98149
0.996846 0.995058 0.987864
1.00008 1.00253 0.991792
1.00023 1.00266 0.99142
1.0002 1.00253 0.991581
0.998731 1.00279 0.995463
0.999654 1.00095 0.994368
1.00026 1.00285 0.991143
1.00034 1.00318 0.990579
1.00021 1.00337 0.990755
0.99986 1.00398 0.990776
0.997339 1.00202 0.998585
0.999482 1.00435 0.990825
0.998637 1.00447 0.994602
1.01521 0.998511 0.975822
1.02254 0.995926 0.967792
1.02355 0.994172 0.96751
0.998386 1.00458 0.996064
0.997878 0.997292 0.992467
1.02344 0.994423 0.967767
0.995217 0.999362 0.969563
0.994835 0.998766 0.981449
1.01248 0.996322 0.978469
0.995428 0.997008 0.987468
0.999942 1.00249 0.995737
1.01521 0.996882 0.975484
0.999089 0.995769 0.987152
0.998865 0.996398 0.992561
0.994129 1.0015 0.980024
0.995106 1.00068 0.971306
1.00122 1.00103 0.99296
1.00114 0.996386 0.986847
0.995037 0.998241 0.979517
0.995249 1.00191 0.971759
0.999113 0.998868 0.990246
0.999159 1.00488 0.990865
0.999795 1.00455 0.990289
1.0008 1.00389 0.989358
0.999342 1.00504 0.99041
1.00009 1.005 0.989268
1.00103 1.00344 0.989084
1.00022 1.00504 0.989153
1.00059 1.00429 0.989034
1.00117 1.00231 0.990049
1.00054 1.00415 0.989389
1.00077 1.00325 0.989766
1.00122 1.00143 0.990709
1.00131 1.00081 0.991099
1.0008 1.00202 0.990894
1.00096 1.00208 0.990525
1.00044 1.00197 0.991754
1.00056 1.00245 0.991015
1.00064 1.00304 0.990252
1.00018 1.0016 0.992546
1.00021 1.00178 0.992236
1.00029 1.00222 0.991748
1.00004 1.00144 0.992975
1.0001 1.00184 0.992487
1.00014 1.00197 0.992296
0.999983 1.00017 0.994315
1.00008 1.00129 0.993066
1.00003 1.00189 0.992557
0.999842 0.998066 0.997159
1.00004 0.999986 0.9944
1.00016 1.0011 0.993108
0.999794 0.996764 0.998286
0.999884 0.997954 0.996961
1.00006 0.99987 0.994482
0.999919 0.99781 0.996798
0.999819 0.996622 0.999293
0.999858 0.99649 0.999307
1.00021 1.00194 0.992147
1.0002 1.00109 0.993019
1.00021 1.00186 0.992243
1.00008 0.999646 0.994651
1.0002 1.00087 0.993235
0.999965 0.997641 0.996883
1.0001 0.999466 0.994808
1.00018 1.00069 0.993467
0.999907 0.996336 0.999325
0.999993 0.997482 0.996976
1.00011 0.999314 0.99495
0.999948 0.996185 0.999355
1.00002 0.997318 0.997077
0.999981 0.996056 0.999382
1.01482 0.998916 0.973951
1.02329 0.993587 0.968555
1.02468 0.990413 0.969173
1.00023 1.00208 0.991981
1.0002 1.00174 0.992381
1.00022 1.00224 0.991817
1.00021 1.00222 0.991896
1.00021 1.00225 0.991876
1.00021 1.00245 0.991664
1.00022 1.00246 0.991617
1.00018 1.00257 0.99155
1.00018 1.00216 0.991993
1.0002 1.00241 0.991682
1.00017 1.00261 0.991589
1.00028 1.00286 0.991384
0.999104 0.995124 0.988986
1.01044 0.997991 0.979067
1.02081 0.99167 0.973228
1.00057 0.997495 0.985548
0.998645 0.998248 0.979444
0.995112 1.00031 0.9715
0.995816 0.997992 0.997055
0.995132 0.999534 0.997541
0.996016 0.995614 0.988407
0.994891 0.999955 0.971278
0.995822 0.998333 0.984927
0.996226 0.999569 0.99657
0.994922 0.998602 0.977552
0.994046 0.999459 0.984301
0.999717 1.00249 0.992528
1.00019 1.00244 0.991791
1.00019 1.00275 0.991418
0.997289 1.00139 0.998637
0.999739 1.00407 0.990638
1.00016 1.00336 0.990808
0.999604 1.00439 0.990846
0.998478 1.00446 0.994693
0.999257 1.00222 0.994033
1.00022 0.99594 0.989156
1.01562 0.998647 0.973815
1.02248 0.995546 0.967637
0.999844 1.00264 0.995966
0.998867 0.996784 0.994494
1.01534 0.996502 0.97549
0.995104 0.999385 0.977575
0.994319 1.00164 0.982891
0.999096 0.99584 0.986323
1.00119 1.001 0.993232
1.00123 0.996308 0.985386
0.994298 0.998828 0.983758
0.999015 0.998849 0.986682
0.995075 1.00218 0.973047
1.00217 1.00096 0.990062
0.995882 0.996397 0.983638
0.995619 1.00239 0.973179
0.999193 0.999871 0.985894
0.999703 1.00455 0.99026
1.00058 1.00376 0.989389
1.00145 1.00199 0.989411
0.99996 1.005 0.989298
1.00107 1.00328 0.989106
1.00205 0.99977 0.990981
1.00056 1.00422 0.989064
1.00113 1.00211 0.990127
1.00173 0.999384 0.991782
1.00078 1.00305 0.989822
1.00125 1.00126 0.990742
1.00165 0.999354 0.991874
1.0015 0.999603 0.991944
1.00115 1.00104 0.991209
1.00131 1.00072 0.991179
1.00062 1.00169 0.991435
1.0008 1.00198 0.990974
1.00097 1.00197 0.99056
1.00026 1.00162 0.992382
1.00038 1.00198 0.991746
1.0005 1.00251 0.990897
1.00008 1.0014 0.992958
1.0002 1.00161 0.992539
1.00021 1.00177 0.992309
0.999912 1.00049 0.994169
1.00006 1.00142 0.992983
1.00007 1.00184 0.992492
0.999789 0.998224 0.996621
0.999989 1.00018 0.994313
1.00009 1.00129 0.993066
0.999713 0.996892 0.999265
0.999844 0.998082 0.996656
1.00004 0.999987 0.994402
0.999778 0.996767 0.999273
0.999883 0.997964 0.996711
0.999814 0.996638 0.999286
1.00021 1.00188 0.992263
1.0002 1.00196 0.992161
1.00019 1.00128 0.992854
1.00007 0.999868 0.994465
1.0002 1.0011 0.993015
1.00021 1.00188 0.992204
0.999932 0.997788 0.996797
1.00009 0.999635 0.994655
1.0002 1.00087 0.993235
0.999866 0.996474 0.999305
0.999962 0.997631 0.996887
1.0001 0.999459 0.994812
0.999912 0.99632 0.999332
0.99999 0.997472 0.99698
0.999952 0.996169 0.999362
0.999631 0.995476 0.990994
1.01492 0.998945 0.974006
1.02335 0.993489 0.968556
1.00023 1.00209 0.991954
1.00019 1.00203 0.992223
1.00028 1.00215 0.991822
1.0002 1.00223 0.991953
1.00021 1.00226 0.991912
1.00021 1.0024 0.991667
1.00019 1.00257 0.991571
1.00023 1.00245 0.991638
1.00012 1.00286 0.99144
1.00016 1.00274 0.991387
1.00017 1.00262 0.991594
1.0002 1.00285 0.991412
0.99425 0.998165 0.984455
0.998441 0.994909 0.98967
1.01011 0.998147 0.97939
0.995272 0.996067 0.988953
0.994964 0.998509 0.981892
0.994933 0.999901 0.97921
0.994902 0.999603 0.991643
0.996156 0.999566 0.990938
0.993909 0.998859 0.981859
0.994926 0.998985 0.977665
0.998054 0.996289 0.991422
0.994996 1.00031 0.974277
0.999871 1.0038 0.991408
0.999866 1.00221 0.992517
1.00029 1.00233 0.991791
0.998143 1.00451 0.994805
0.999704 1.00443 0.990867
0.999945 1.00227 0.993881
1.00197 0.999568 0.99301
0.996212 0.997403 0.980748
1.00066 0.996082 0.988247
1.016 0.998686 0.97181
1.00137 1.00094 0.993457
0.998987 0.998987 0.991121
1.00119 0.996419 0.985526
0.995065 1.00228 0.971557
0.994967 0.999628 0.979911
1.0022 1.001 0.990524
0.995681 0.997391 0.981211
0.995775 1.00189 0.971698
0.998911 0.999895 0.990345
1.00249 1.00143 0.988595
0.996214 1.00215 0.967624
0.999762 0.998872 0.992982
1.00034 1.00354 0.98942
1.0013 1.00235 0.989307
1.00282 0.997694 0.99078
1.00111 1.00311 0.989128
1.002 0.999521 0.990992
1.00252 0.996395 0.993262
1.00109 1.00191 0.990206
1.00176 0.999173 0.991791
1.00219 0.997161 0.992988
1.00127 1.00108 0.990775
1.00166 0.999296 0.991873
1.00182 0.998246 0.992591
1.00162 0.999008 0.992402
1.0015 0.999504 0.992039
1.00135 1.00001 0.99184
1.00102 1.00101 0.991505
1.00115 1.00106 0.991225
1.0013 1.00063 0.991259
1.00048 1.00144 0.991982
1.00064 1.00171 0.991516
1.00081 1.00193 0.991054
1.00013 1.00136 0.99288
1.00028 1.00162 0.992371
1.00033 1.00198 0.991738
0.999871 1.00072 0.994015
1.00009 1.00138 0.992963
1.00021 1.00161 0.992531
0.999703 0.998467 0.996543
0.999926 1.00046 0.994171
1.00007 1.0014 0.992991
0.999673 0.997044 0.999252
0.999786 0.998246 0.996617
0.999995 1.00019 0.994311
0.999725 0.996899 0.998761
0.999843 0.998095 0.996657
0.999769 0.99678 0.999266
1.00016 1.00183 0.992411
1.00021 1.00188 0.992213
1.00018 1.00136 0.992775
1.0002 1.00198 0.992175
1.00018 1.00129 0.992848
1.00006 1.0001 0.994256
0.999895 0.997959 0.996696
1.00007 0.999852 0.994468
1.00019 1.00111 0.993012
0.999822 0.996617 0.999285
0.999928 0.99778 0.996802
1.00009 0.999627 0.99466
0.999871 0.996462 0.999311
0.999958 0.997623 0.996891
0.999917 0.996305 0.999339
0.994997 0.998261 0.980845
0.999648 0.995562 0.990184
1.01502 0.998975 0.974062
1.00024 1.00209 0.991927
1.00025 1.00218 0.99182
1.00016 1.00201 0.992251
1.00011 1.00206 0.992321
1.00017 1.00226 0.991976
1.00019 1.00256 0.991593
1.00023 1.00242 0.991658
1.0001 1.00282 0.99147
1.00001 1.00237 0.991873
1.00004 1.00291 0.991354
1.0004 1.00341 0.990796
1.00012 1.00298 0.99134
1.00013 1.00285 0.991439
0.995994 1.00097 0.969872
0.994333 0.999105 0.982898
0.998097 0.995056 0.989295
0.993832 0.998428 0.985182
0.994912 0.998956 0.971795
0.996158 0.99956 0.99699
0.998214 0.99658 0.994164
0.995094 0.999463 0.97647
1.00086 0.996103 0.991327
1.00186 1.00274 0.988423
0.999688 1.00368 0.991363
1.00001 1.0019 0.992506
1.00046 1.0023 0.993708
1.00201 0.998929 0.992429
0.996634 1.001 0.970076
0.995959 0.997718 0.97936
1.00109 0.996378 0.987336
1.00226 1.00102 0.991008
0.998605 1.00022 0.986092
0.995875 0.99761 0.979929
0.995574 1.00209 0.973749
1.00275 1.00139 0.988593
0.997007 1.00133 0.971902
0.999544 0.999202 0.987744
1.00376 0.999185 0.988006
1.00039 0.99893 0.994076
1.00115 1.00276 0.9892
1.00279 0.998009 0.990685
1.00352 0.995225 0.992246
1.00192 0.999304 0.991005
1.00241 0.996411 0.993239
1.00271 0.995339 0.993655
1.00179 0.998942 0.991799
1.00218 0.997189 0.992926
1.00223 0.997005 0.993023
1.00167 0.999241 0.991871
1.00182 0.998312 0.992546
1.00184 0.99832 0.99254
1.00157 0.998894 0.992506
1.00154 0.999433 0.992141
1.0015 0.999411 0.992134
1.00136 1.00002 0.991822
1.00127 1.00028 0.991741
1.00081 1.00099 0.991805
1.00102 1.00104 0.991487
1.00114 1.00109 0.991241
1.0003 1.00126 0.992659
1.00047 1.00148 0.992032
1.00065 1.00173 0.991597
0.999849 1.00091 0.993861
1.00015 1.00135 0.992875
1.00029 1.00162 0.99236
0.999621 0.998742 0.996417
0.999891 1.00068 0.994021
1.0001 1.00136 0.992969
0.999596 0.997223 0.999238
0.999702 0.998494 0.996537
0.999938 1.00043 0.994173
0.999659 0.99705 0.999248
0.999782 0.99827 0.996613
0.999714 0.996907 0.999255
1.0001 1.00194 0.992403
1.00015 1.00183 0.992415
1.00013 1.00146 0.992728
1.00021 1.00187 0.992163
1.00018 1.00138 0.992735
1.00004 1.0003 0.994078
1.00018 1.0013 0.992842
1.00006 1.00009 0.994256
0.999854 0.998151 0.996581
0.999775 0.996773 0.999261
0.999894 0.997943 0.996704
1.00008 0.999836 0.994472
0.999827 0.996607 0.999291
0.999925 0.997772 0.996807
0.999876 0.996448 0.999317
0.996365 1.00159 0.973354
0.995267 0.997946 0.982658
0.999457 0.995377 0.990961
1.00023 1.00223 0.991818
1.00013 1.00199 0.99228
1.00017 1.00225 0.991989
1.0001 1.00206 0.992317
1.00005 1.00221 0.992261
1.00003 1.00221 0.992165
1.00009 1.00276 0.991499
1.00004 1.00248 0.991831
0.999982 1.00309 0.991352
1.00009 1.00225 0.991802
1.00076 1.00287 0.991087
1.0013 1.00309 0.989069
1.00031 1.00317 0.990812
1.00007 1.00324 0.991292
1.00009 0.998129 0.992177
0.995382 1.00151 0.97336
0.994714 0.99847 0.98035
0.995021 1.00025 0.97441
0.998543 0.996769 0.996966
1.00082 0.996241 0.994563
1.00402 0.997561 0.990047
1.0017 1.00216 0.98895
0.999563 1.00364 0.991314
1.00282 0.99832 0.991856
0.998957 1.00104 0.986935
0.996956 1.00146 0.972511
0.995999 0.996924 0.983098
1.00302 1.00142 0.988597
0.999338 0.999406 0.991704
0.996616 1.00019 0.976419
1.00409 0.998748 0.988099
1.00042 0.999239 0.99148
1.0043 0.996268 0.989553
1.00333 0.998883 0.990609
1.00271 0.998364 0.990592
1.00341 0.995265 0.99228
1.00305 0.996067 0.992439
1.00231 0.996425 0.993214
1.00266 0.995612 0.993599
1.00265 0.996664 0.992534
1.00215 0.997232 0.992864
1.00219 0.99716 0.992966
1.00222 0.997978 0.992165
1.00183 0.998384 0.992502
1.00178 0.998392 0.992562
1.0017 0.999136 0.991995
1.00153 0.998787 0.992609
1.00151 0.99934 0.9922
1.00146 0.999886 0.991832
1.00136 1.00003 0.991803
1.00127 1.0003 0.991724
1.00111 1.00048 0.991879
1.00054 1.00095 0.992357
1.0008 1.00103 0.991851
1.00101 1.00107 0.991469
0.999899 1.00101 0.99365
1.0003 1.00127 0.992657
1.00046 1.00151 0.992082
0.999542 0.999046 0.996254
0.999878 1.00086 0.993863
1.00017 1.00134 0.99287
0.999519 0.997447 0.999211
0.999622 0.998773 0.996412
0.999909 1.00064 0.994026
0.999583 0.997242 0.99923
0.999702 0.998518 0.996531
0.999646 0.997058 0.999245
1.00008 1.00202 0.99236
1.00011 1.00193 0.992433
1.00006 1.00162 0.992734
1.00014 1.00183 0.99242
1.00012 1.00148 0.992731
0.999993 1.00053 0.993953
1.00017 1.0014 0.992696
1.00004 1.00031 0.994075
0.999801 0.998362 0.996472
1.00006 1.00009 0.994256
0.999856 0.99813 0.996588
0.999723 0.996938 0.999235
0.999781 0.996761 0.999269
0.999894 0.997927 0.996711
0.999832 0.996596 0.999297
0.999342 0.99961 0.990464
0.9961 1.00124 0.971505
0.995708 0.998402 0.979365
1.00025 1.00205 0.992047
1.00017 1.00226 0.992003
1.00009 1.00205 0.992312
1.00005 1.00226 0.99216
1.00004 1.00223 0.992243
0.999987 1.00192 0.992473
1.00008 1.00265 0.991789
0.999987 1.00329 0.99135
1.00018 1.00227 0.99188
1.0005 1.00277 0.991264
1.00131 1.00192 0.990102
1.00284 1.00094 0.987872
1.00133 1.00274 0.989041
1.00029 1.00283 0.990829
1.00436 0.996405 0.989803
0.999956 0.998394 0.990112
0.995324 1.00129 0.977116
1.00073 0.996284 0.989343
1.00405 0.997675 0.989311
1.00106 1.00163 0.989487
1.00272 0.999733 0.992062
0.998998 1.00063 0.991443
0.996644 1.00097 0.970424
1.00438 0.998356 0.988183
1.00042 0.998831 0.988979
1.00448 0.996103 0.989357
1.00332 0.998593 0.991112
1.00353 0.996928 0.989795
1.00258 0.998793 0.989604
1.00333 0.995286 0.992315
1.003 0.996045 0.992504
1.00273 0.997822 0.991397
1.00262 0.995855 0.993543
1.00263 0.996797 0.992505
1.0025 0.998204 0.991395
1.00215 0.99732 0.99291
1.00212 0.998054 0.992258
1.00203 0.999067 0.991384
1.00172 0.998461 0.992584
1.00169 0.999147 0.991998
1.00161 0.999708 0.991603
1.00149 0.999244 0.99226
1.00145 0.999813 0.991859
1.00129 1.00017 0.991783
1.00127 1.00032 0.991707
1.0011 1.00049 0.991841
1.00083 1.00063 0.992254
1.00006 1.00092 0.993425
1.00053 1.00098 0.992407
1.00078 1.00107 0.991897
0.999485 0.999399 0.996008
0.99992 1.00098 0.993653
1.0003 1.00127 0.992654
0.999438 0.997698 0.999174
0.999552 0.99907 0.996248
0.999906 1.00082 0.993864
0.999504 0.997471 0.999201
0.999622 0.998802 0.996407
0.999569 0.997259 0.999223
1.00016 1.00196 0.99218
1.00008 1.002 0.992366
1.00006 1.0017 0.992718
1.00012 1.00193 0.992463
1.00005 1.00164 0.992758
0.999913 1.00082 0.993837
1.00011 1.00151 0.992734
0.999983 1.00056 0.993948
0.999722 0.998615 0.996377
1.00004 1.00032 0.994072
0.999806 0.998336 0.996478
0.999659 0.997115 0.999211
0.999859 0.998108 0.996596
0.999732 0.996926 0.999243
0.999787 0.996751 0.999276
1.00341 0.996612 0.991594
0.999329 1.00009 0.986458
0.99642 1.00131 0.972945
1.00028 1.00166 0.992219
1.00075 1.00162 0.991491
1.00013 1.00207 0.992096
1.00009 1.00227 0.992155
1.00003 1.00227 0.992224
1.0001 1.00191 0.992414
1.00119 1.00139 0.990788
1.00023 1.00231 0.991958
1.0001 1.00267 0.99144
1.00124 1.00189 0.990184
1.00254 1.00046 0.988726
1.00351 0.998089 0.989211
1.00292 1.00076 0.987927
1.00145 1.00235 0.989015
1.00419 0.996442 0.989972
0.999808 0.999059 0.987329
1.0041 0.998053 0.988557
1.00224 0.998457 0.991573
1.00267 0.999095 0.992244
0.999087 1.00069 0.986181
1.00473 0.995944 0.989161
1.00334 0.99832 0.991592
1.00361 0.997 0.989922
1.00268 0.998884 0.9899
1.00265 0.998921 0.990334
1.00226 0.998808 0.991188
1.00296 0.995919 0.99257
1.00271 0.997728 0.99144
1.00261 0.998919 0.990447
1.00261 0.99693 0.992477
1.00245 0.998235 0.991427
1.00235 0.999046 0.990725
1.00203 0.998123 0.992351
1.00203 0.999077 0.991382
1.00191 0.999634 0.991063
1.00168 0.999159 0.992001
1.00161 0.999706 0.991602
1.00146 1.00007 0.991544
1.00143 0.999739 0.991886
1.00128 1.00015 0.991788
1.001 1.00041 0.992115
1.00108 1.00049 0.991803
1.0008 1.00062 0.992235
1.00027 1.0007 0.993233
0.999493 0.999695 0.995729
1.00006 1.00091 0.993431
1.00052 1.001 0.992458
0.99935 0.997991 0.999121
0.999508 0.999403 0.996
0.999941 1.00095 0.993657
0.999422 0.997728 0.99916
0.999561 0.999093 0.996242
0.99949 0.997495 0.99919
1.00038 1.00182 0.991749
1.00017 1.00193 0.992132
1.00017 1.00162 0.992592
1.00009 1.00198 0.992371
1.00005 1.00171 0.992717
0.999856 1.00106 0.993713
1.00005 1.00165 0.992782
0.999896 1.00085 0.993834
0.999624 0.998927 0.996268
0.999973 1.00058 0.993944
0.999728 0.998587 0.996381
0.999577 0.997321 0.999188
0.999812 0.998309 0.996483
0.999673 0.997103 0.999218
0.99974 0.996915 0.999251
1.00296 0.997202 0.991218
1.00338 0.996922 0.991881
0.999445 1.00026 0.990912
1.00126 1.0011 0.991211
1.00016 1.00164 0.992489
1.00122 1.00107 0.990692
1.00076 1.00163 0.991449
1.00001 1.00212 0.992146
1.00236 1.00038 0.989476
1.00021 1.00189 0.992354
1.00125 1.00128 0.990769
1.00319 0.998756 0.989355
1.0012 1.00186 0.990265
1.00264 1.00053 0.988645
1.00349 0.998224 0.989169
1.0029 1.00068 0.987981
1.00408 0.996473 0.99014
1.00214 0.998604 0.991846
1.00218 0.998229 0.991534
1.00261 0.998478 0.992433
1.00366 0.99703 0.990049
1.00278 0.999026 0.990192
1.00276 0.998838 0.990296
1.00225 0.998869 0.991254
1.00223 0.999219 0.990869
1.00269 0.997688 0.991482
1.00263 0.998824 0.99049
1.00251 0.999258 0.990294
1.00241 0.998276 0.991459
1.00235 0.9991 0.990705
1.00223 0.999559 0.990513
1.00203 0.999087 0.991379
1.00192 0.999633 0.991053
1.00173 0.999964 0.991109
1.00161 0.999704 0.991601
1.00146 1.00007 0.991541
1.00118 1.00029 0.991858
1.00126 1.00013 0.991793
1.00099 1.00041 0.992119
1.00046 1.00051 0.993039
1.00077 1.00062 0.992216
1.00026 1.00071 0.993238
0.999513 0.999876 0.996119
0.999291 0.998457 0.997692
0.999518 0.999656 0.996038
1.00007 1.0009 0.993437
0.999335 0.998037 0.999098
0.999529 0.999409 0.995993
0.999406 0.997757 0.999146
1.00157 1.00038 0.99089
1.00068 1.0016 0.991361
1.00044 1.0018 0.991692
1.00034 1.00147 0.992404
1.00017 1.00189 0.992084
1.00016 1.00161 0.9926
0.999849 1.00119 0.993608
1.00004 1.00171 0.992717
0.999835 1.00109 0.993711
0.999533 0.999259 0.996125
0.999879 1.00088 0.993831
0.999626 0.998896 0.996272
0.999479 0.997574 0.999159
0.999733 0.998557 0.996385
0.999596 0.997303 0.999195
0.999686 0.997091 0.999225
1.00273 0.998208 0.990897
1.00292 0.99735 0.991208
1.00339 0.997214 0.992166
1.00217 1.0002 0.989976
1.00106 1.00112 0.991444
1.00002 1.0016 0.992758
1.00135 1.00102 0.990798
1.00077 1.00164 0.991407
1.00301 0.99927 0.989244
1.00239 1.00043 0.989348
1.00129 1.00121 0.990749
1.00322 0.998782 0.989317
1.0028 1.00054 0.988563
1.00342 0.99835 0.989127
1.00193 0.999111 0.991441
1.0021 0.99858 0.991801
1.0021 0.997942 0.991495
1.00288 0.998757 0.99026
1.00223 0.998907 0.991319
1.00226 0.999193 0.990889
1.00214 0.999532 0.990736
1.00265 0.998728 0.990533
1.00253 0.999214 0.99028
1.00233 0.999453 0.990393
1.00236 0.999152 0.990685
1.00224 0.999561 0.990501
1.00201 0.999838 0.990679
1.00193 0.999633 0.991042
1.00174 0.999963 0.9911
1.00142 1.00019 0.991494
1.00147 1.00006 0.991539
1.00118 1.00029 0.991856
1.00065 1.00041 0.992779
1.00099 1.00041 0.992122
1.00045 1.00052 0.99304
0.999548 1.00003 0.995915
1.00026 1.00071 0.993243
0.999549 0.999859 0.996081
0.999176 0.99893 0.997481
0.999265 0.998426 0.998355
0.999545 0.999624 0.99634
0.999321 0.998083 0.999074
1.0022 0.999925 0.990206
1.00118 1.00095 0.991311
1.00146 1.00026 0.991251
1.00052 1.00143 0.992063
1.00077 1.00158 0.991355
1.00051 1.00178 0.991635
1.00031 1.00151 0.99241
0.999908 1.00122 0.993462
1.00014 1.0016 0.992608
0.999832 1.00121 0.993603
0.999463 0.999586 0.995942
0.999815 1.00112 0.993708
0.999526 0.999235 0.996129
0.999365 0.997872 0.99912
0.999628 0.998864 0.996276
0.999501 0.997544 0.999169
0.999615 0.997286 0.999202
1.00259 0.998936 0.99039
1.00271 0.998264 0.990881
1.0029 0.997528 0.991199
1.00274 0.999369 0.989534
1.00217 1.00024 0.989986
1.00089 1.00114 0.991677
1.00147 1.00095 0.990905
1.00302 0.999281 0.989245
1.00242 1.00046 0.989221
1.00325 0.998802 0.989278
1.00203 0.999475 0.990986
1.00201 0.999159 0.991298
1.00207 0.998574 0.991757
1.00207 0.999852 0.9906
1.00229 0.999165 0.99091
1.00215 0.999549 0.990706
1.00218 0.9996 0.990609
1.00256 0.999174 0.990267
1.00234 0.999445 0.990396
1.00211 0.999776 0.990522
1.00224 0.999562 0.99049
1.00201 0.999843 0.990676
1.00165 1.00006 0.991161
1.00174 0.999962 0.991091
1.00142 1.00019 0.991489
1.00084 1.00034 0.992464
1.00119 1.00029 0.991855
1.00064 1.00041 0.992773
0.99959 1.00012 0.995758
1.00045 1.00053 0.993041
0.999586 1.00001 0.995882
0.999063 0.999321 0.997346
0.999584 0.999845 0.996042
0.999159 0.998918 0.997513
0.999232 0.998386 0.999031
1.00253 0.999788 0.989774
1.00187 1.00019 0.990656
1.00211 1.00001 0.990332
1.0009 1.00107 0.991817
1.00116 1.0009 0.991304
1.00135 1.00017 0.99161
1.00006 1.00124 0.993139
1.00052 1.00143 0.992061
1.00085 1.00158 0.991348
1.00027 1.00154 0.992417
0.999887 1.00125 0.993459
0.999438 0.999897 0.995685
0.999817 1.00122 0.993599
0.999445 0.999583 0.995944
0.99924 0.998231 0.999067
0.99952 0.999211 0.996133
0.999392 0.99783 0.999133
0.999524 0.997516 0.999178
1.00255 0.999188 0.990251
1.00268 0.998922 0.99028
1.00268 0.998317 0.990866
1.00282 0.99932 0.989507
1.00215 1.0003 0.989996
1.00305 0.999295 0.989247
1.00209 0.999775 0.990575
1.002 0.999522 0.990991
1.00209 0.999206 0.991155
1.00205 0.999859 0.990599
1.00204 1.00004 0.990463
1.00215 0.999567 0.990676
1.00216 0.999611 0.990612
1.00208 0.99981 0.990634
1.00236 0.999438 0.9904
1.00212 0.999759 0.990532
1.00177 1.00001 0.990979
1.00201 0.999846 0.990672
1.00165 1.00006 0.991156
1.00101 1.00023 0.99222
1.00142 1.00019 0.991484
1.00084 1.00034 0.992455
0.999654 1.00014 0.995638
1.00064 1.00042 0.992767
0.999629 1.0001 0.995727
0.998968 0.999629 0.997249
0.999625 0.999984 0.995849
0.999046 0.999322 0.997374
0.999142 0.998904 0.997546
1.00252 0.999247 0.990245
1.00223 0.999924 0.990158
1.00256 0.999733 0.989731
1.00139 1.0005 0.99131
1.00184 1.00024 0.990714
1.00202 1.00008 0.990458
1.00036 1.001 0.992738
1.00088 1.00104 0.991707
1.00115 1.00083 0.991297
0.999471 1.0002 0.995318
1.00005 1.00123 0.993139
1.00052 1.00142 0.992059
0.999863 1.00127 0.993456
0.999397 0.999937 0.99569
0.99911 0.998655 0.998993
0.999427 0.99958 0.995947
0.999265 0.998171 0.999084
0.999418 0.997789 0.999145
1.00236 0.999556 0.990277
1.00258 0.999179 0.990216
1.00275 0.998907 0.99017
1.0029 0.999264 0.98948
1.00214 0.999966 0.990284
1.00209 0.999764 0.990603
1.00197 0.999565 0.990995
1.00203 0.999864 0.990598
1.00203 1.00003 0.990461
1.00195 1.00007 0.990598
1.00215 0.999622 0.990614
1.00205 0.999819 0.990655
1.00179 0.999995 0.990927
1.00212 0.999743 0.990542
1.00177 0.999998 0.990983
1.00112 1.00015 0.992096
1.00165 1.00007 0.99115
1.00102 1.00023 0.992211
0.999726 1.00013 0.994768
1.00085 1.00034 0.992445
0.999687 1.00015 0.995215
0.998902 0.999733 0.9988
0.999669 1.00009 0.995696
0.99895 0.999649 0.997274
0.999028 0.999321 0.997404
1.00237 0.99949 0.990369
1.00226 0.999591 0.990363
1.00249 0.99929 0.990259
1.00172 1.00011 0.990781
1.00221 0.999915 0.99023
1.00258 0.999681 0.989688
1.00073 1.00058 0.992201
1.0014 1.0005 0.991304
1.0018 1.00029 0.990772
0.999584 1.00034 0.994926
1.00037 1.00097 0.99264
1.00087 1.001 0.991597
0.999012 0.999128 0.998892
0.999417 1.00025 0.995331
1.00005 1.00122 0.993139
0.999354 0.999981 0.995696
0.999133 0.998584 0.999017
0.999296 0.998112 0.999101
1.00223 0.999745 0.990343
1.00234 0.999551 0.990316
1.00261 0.999175 0.990181
1.00213 1.00006 0.990243
1.00216 0.999981 0.990258
1.0021 0.999759 0.99063
1.00202 1.00001 0.990459
1.00196 1.00005 0.990602
1.00176 1.00009 0.991008
1.00203 0.999829 0.990677
1.00177 1.00001 0.991017
1.00117 1.00011 0.991877
1.00177 0.99999 0.990987
1.00112 1.00014 0.992096
0.999762 1.00011 0.994719
1.00102 1.00023 0.992203
0.999736 1.00012 0.994764
0.998882 0.999827 0.998792
0.999715 1.00016 0.994801
0.998898 0.999813 0.998013
0.99893 0.999669 0.997301
1.00224 0.999728 0.990451
1.00218 0.999624 0.990556
1.00235 0.999454 0.990378
1.00185 0.999913 0.99087
1.00224 0.999611 0.990394
1.00246 0.999334 0.990272
1.00104 1.00026 0.991896
1.00176 1.00014 0.9909
1.00219 0.999903 0.990301
0.999709 1.00032 0.99466
1.00078 1.00056 0.992159
1.00141 1.00049 0.991299
0.998959 0.999535 0.998797
0.999529 1.0004 0.994939
1.00038 1.00095 0.992543
0.999019 0.999039 0.998926
0.999361 1.00031 0.995344
0.999155 0.998504 0.99904
1.00214 0.999927 0.990371
1.00223 0.99975 0.990338
1.00232 0.999541 0.990354
1.00192 1.00008 0.990686
1.00212 1.00009 0.990265
1.00217 0.999995 0.990232
1.00196 1.00003 0.990606
1.00176 1.00007 0.991013
1.00122 1.00011 0.991756
1.00176 1.00003 0.991108
1.00116 1.00011 0.991958
0.999801 1.00012 0.994633
1.00112 1.00014 0.992095
0.999767 1.0001 0.994718
0.998869 0.999915 0.998782
0.999744 1.00012 0.994759
0.998882 0.99985 0.998788
0.998906 0.999906 0.997204
1.00211 0.999833 0.990599
1.00222 0.999687 0.990446
1.00185 0.999887 0.990908
1.00218 0.999623 0.990556
1.00233 0.99942 0.990386
1.0012 1.0001 0.991954
1.00187 0.999915 0.99086
1.00222 0.999627 0.990425
0.999797 1.00022 0.994562
1.00107 1.00027 0.991959
1.00179 1.00016 0.99102
0.998934 0.999808 0.998744
0.999672 1.00037 0.994669
1.00083 1.00053 0.992117
0.998956 0.999455 0.998827
0.999474 1.00047 0.994953
0.999029 0.998949 0.998957
1.00189 1.00003 0.990802
1.00212 0.999938 0.990391
1.00224 0.999758 0.990332
1.00131 1.0001 0.991575
1.00191 1.0001 0.990686
1.0021 1.00011 0.990287
1.00176 1.00006 0.991017
1.00122 1.00011 0.991779
0.999858 1.00009 0.994542
1.00116 1.00011 0.992038
0.999803 1.00012 0.994631
0.998878 0.999974 0.998762
0.999773 1.0001 0.994717
0.998877 0.999928 0.998776
0.998887 0.999874 0.998785
1.00184 0.999994 0.990869
1.0021 0.999797 0.990575
1.00221 0.999641 0.990441
1.00123 1.00005 0.991943
1.00186 0.99989 0.990905
1.00218 0.999622 0.990555
0.99983 1.00011 0.99458
1.0012 1.00011 0.991954
1.00188 0.999918 0.990851
0.998919 0.999944 0.998732
0.999775 1.00025 0.994568
1.0011 1.00028 0.992021
0.998928 0.999749 0.998758
0.999637 1.00041 0.994678
0.99895 0.999373 0.998856
1.00131 1.00009 0.991759
1.00189 1.00005 0.990708
1.00211 0.999946 0.990412
0.999898 1.00002 0.994509
1.00131 1.0001 0.991589
1.00191 1.00012 0.990686
1.00121 1.0001 0.991802
0.999857 1.0001 0.994538
0.998918 0.999999 0.998731
0.999806 1.00012 0.994628
0.998893 0.999984 0.99875
0.998883 0.99994 0.998768
1.00125 1.00008 0.991873
1.00184 0.999982 0.990835
1.0021 0.999764 0.990551
0.999852 1.00005 0.995419
1.00123 1.00006 0.991943
1.00187 0.999894 0.990902
0.998906 0.999993 0.998742
0.999826 1.00012 0.994582
1.00121 1.00012 0.991955
0.998914 0.999911 0.998734
0.999755 1.00027 0.994575
0.998921 0.999693 0.998774
0.9999 1.00004 0.994517
1.00131 1.00009 0.991688
1.0019 1.00006 0.990614
0.998956 1 0.998717
0.999901 1.00003 0.994504
1.00131 1.00009 0.991603
0.999858 1.00011 0.994533
0.998933 1.00001 0.998723
0.998908 0.999993 0.998737
0.999889 1.00004 0.995384
1.00126 1.00008 0.991876
1.00185 0.99997 0.990802
0.998852 1.00002 0.998791
0.999837 1.00006 0.994616
1.00124 1.00007 0.991942
0.998903 0.999975 0.998739
0.999822 1.00013 0.994584
0.998906 0.99988 0.998737
0.998955 1.00001 0.997041
0.999907 1.00002 0.994938
1.00131 1.00009 0.991617
0.998956 1 0.998715
0.9999 1.00004 0.994503
0.998944 1.00002 0.998717
0.99888 1.00003 0.997125
0.999872 1.00004 0.994992
1.00126 1.00008 0.99188
0.998878 1.00001 0.997944
0.999845 1.00006 0.994613
0.9989 0.999961 0.998736
0.998958 1 0.998719
0.9999 1.00001 0.994533
0.998963 1 0.998715
0.99891 1.00001 0.997926
0.999866 1.00003 0.994588
0.998895 0.99999 0.998747
0.998945 0.999997 0.998728
0.998913 0.999999 0.998744

TENSORS stress float
0.0011736 3.02404e-05 2.48659e-05
3.02404e-05 0.000199714 -5.5941e-06
2.48659e-05 -5.5941e-06 0.000187738
0.0027302 -4.81331e-05 2.27624e-05
-4.81331e-05 0.000961055 3.33239e-06
2.27624e-05 3.33239e-06 0.000966447
0.0011704 3.33963e-05 9.55148e-06
3.33963e-05 0.000199656 -2.03441e-06
9.55148e-06 -2.03441e-06 0.000187582
0.0012604 2.41542e-05 3.24889e-05
2.41542e-05 0.000269616 -4.04214e-06
3.24889e-05 -4.04214e-06 0.000249696
0.00119965 2.92194e-05 2.69402e-05
2.92194e-05 0.000225388 -5.17346e-06
2.69402e-05 -5.17346e-06 0.000209802
0.00114676 3.05953e-05 2.27611e-05
3.05953e-05 0.000173672 -5.87794e-06
2.27611e-05 -5.87794e-06 0.000166099
0.00113973 1.47153e-05 6.47881e-06
1.47153e-05 0.000157179 -2.38343e-06
6.47881e-06 -2.38343e-06 0.000126345
0.00275596 -4.8697e-05 2.84305e-07
-4.8697e-05 0.000971818 -1.13573e-07
2.84305e-07 -1.13573e-07 0.000977618
0.00307013 -6.37372e-05 1.03199e-05
-6.37372e-05 0.00117133 1.12859e-06
1.03199e-05 1.12859e-06 0.00116653
0.00278943 -5.58099e-05 9.58285e-06
-5.58099e-05 0.00100274 1.27887e-06
9.58285e-06 1.27887e-06 0.00100513
0.00110362 -2.91232e-05 1.8424e-05
-2.91232e-05 0.000131225 3.65826e-06
1.8424e-05 3.65826e-06 0.000131757
0.000810274 -2.42924e-05 5.09183e-06
-2.42924e-05 -1.36502e-05 3.04911e-06
5.09183e-06 3.04911e-06 -3.8816e-05
0.00151992 -1.3532e-05 4.00008e-05
-1.3532e-05 0.000397781 9.66132e-07
4.00008e-05 9.66132e-07 0.000377738
0.00131695 -4.0921e-05 6.54458e-06
-4.0921e-05 0.000309006 1.23684e-06
6.54458e-06 1.23684e-06 0.000287123
0.00116068 3.68864e-05 -6.42014e-06
3.68864e-05 0.000196437 1.55365e-06
-6.42014e-06 1.55365e-06 0.000184239
0.00129268 3.14129e-05 1.31353e-05
3.14129e-05 0.000288613 -1.31415e-06
1.31353e-05 -1.31415e-06 0.000267872
0.00113093 3.31197e-05 8.68328e-06
3.31197e-05 0.000166864 -2.14186e-06
8.68328e-06 -2.14186e-06 0.000159386
0.00120786 3.32067e-05 1.04463e-05
3.32067e-05 0.000231346 -1.80388e-06
1.04463e-05 -1.80388e-06 0.000215464
0.00117591 1.47495e-05 -3.44707e-06
1.47495e-05 0.000174464 4.49726e-07
-3.44707e-06 4.49726e-07 0.000143802
0.00376716 6.87555e-05 3.83824e-05
6.87555e-05 0.00153105 -6.24101e-07
3.83824e-05 -6.24101e-07 0.00152165
0.00130732 2.13755e-05 3.52289e-05
2.13755e-05 0.000294295 -3.23341e-06
3.52289e-05 -3.23341e-06 0.000274134
0.00122105 2.72727e-05 2.93229e-05
2.72727e-05 0.000245833 -4.6978e-06
2.93229e-05 -4.6978e-06 0.000227492
0.00127173 8.15935e-06 7.61985e-06
8.15935e-06 0.000210321 -2.23137e-06
7.61985e-06 -2.23137e-06 0.000172704
0.00118198 1.14432e-05 6.78885e-06
1.14432e-05 0.000176294 -2.26776e-06
6.78885e-06 -2.26776e-06 0.000142824
0.00113523 3.0135e-05 2.12048e-05
3.0135e-05 0.00015554 -5.95895e-06
2.12048e-05 -5.95895e-06 0.000152525
0.00109311 2.14063e-05 5.7629e-06
2.14063e-05 0.000135899 -2.59374e-06
5.7629e-06 -2.59374e-06 0.000108416
0.00142123 -2.22796e-05 2.23261e-06
-2.22796e-05 0.000242705 -1.16655e-06
2.23261e-06 -1.16655e-06 0.0001882
0.00278585 -4.93495e-05 -2.19672e-05
-4.93495e-05 0.000984497 -3.31617e-06
-2.19672e-05 -3.31617e-06 0.000990709
0.0021364 -4.66972e-05 -9.94913e-06
-4.66972e-05 0.000701011 -6.86311e-07
-9.94913e-06 -6.86311e-07 0.000690727
0.00198361 -4.32993e-05 -8.53482e-06
-4.32993e-05 0.000596758 -9.10612e-07
-8.53482e-06 -9.10612e-07 0.000594312
0.00265793 -4.5432e-05 1.93379e-07
-4.5432e-05 0.000912939 -7.94366e-08
1.93379e-07 -7.94366e-08 0.000921337
0.000753659 -2.42239e-05 2.3927e-07
-2.42239e-05 -4.05892e-05 -3.89503e-08
2.3927e-07 -3.89503e-08 -6.56917e-05
0.001361 -2.81344e-05 2.74935e-05
-2.81344e-05 0.000320138 2.54116e-06
2.74935e-05 2.54116e-06 0.000301272
0.00120489 -3.10926e-05 2.22083e-05
-3.10926e-05 0.000220802 3.08966e-06
2.22083e-05 3.08966e-06 0.000209174
0.00177587 -4.71912e-06 1.42455e-05
-4.71912e-06 0.000470801 2.37875e-06
1.42455e-05 2.37875e-06 0.000440663
0.00256683 -4.55343e-05 8.37673e-06
-4.55343e-05 0.000857951 1.49384e-06
8.37673e-06 1.49384e-06 0.000868547
0.00165252 -2.25933e-05 1.23294e-05
-2.25933e-05 0.000411878 2.49975e-06
1.23294e-05 2.49975e-06 0.000388528
0.000812132 -2.85075e-05 5.88589e-06
-2.85075e-05 -1.7613e-05 4.65179e-06
5.88589e-06 4.65179e-06 -3.95164e-05
0.000916988 1.19749e-05 2.6675e-06
1.19749e-05 1.58517e-05 1.41238e-06
2.6675e-06 1.41238e-06 -3.80568e-05
0.00256229 -3.53521e-05 1.96286e-05
-3.53521e-05 0.000838 3.9791e-06
1.96286e-05 3.9791e-06 0.000852087
0.00387336 -6.82249e-05 9.96918e-07
-6.82249e-05 0.00158155 -1.57946e-07
9.96918e-07 -1.57946e-07 0.00157203
0.00243086 -5.23116e-05 -1.32915e-05
-5.23116e-05 0.0008658 -1.39731e-07
-1.32915e-05 -1.39731e-07 0.000850458
0.00401205 -5.43757e-05 4.22683e-05
-5.43757e-05 0.00164556 1.61127e-07
4.22683e-05 1.61127e-07 0.00163657
0.00135025 -4.32543e-05 6.25363e-06
-4.32543e-05 0.0003243 1.10074e-06
6.25363e-06 1.10074e-06 0.000302034
0.000763872 -1.43482e-05 9.75258e-06
-1.43482e-05 -6.40716e-05 2.14526e-06
9.75258e-06 2.14526e-06 -0.000104588
0.00340809 -7.48964e-05 1.05282e-05
-7.48964e-05 0.00135636 8.64458e-07
1.05282e-05 8.64458e-07 0.0013469
0.00190526 -2.43879e-05 1.97753e-05
-2.43879e-05 0.000522018 2.58093e-06
1.97753e-05 2.58093e-06 0.000488835
0.00132881 3.99289e-05 -7.07435e-06
3.99289e-05 0.000309776 1.46281e-06
-7.07435e-06 1.46281e-06 0.000288069
0.00121233 3.7739e-05 -6.72493e-06
3.7739e-05 0.000235509 1.51724e-06
-6.72493e-06 1.51724e-06 0.00021928
0.00110498 3.58008e-05 -5.9538e-06
3.58008e-05 0.000155108 1.56165e-06
-5.9538e-06 1.56165e-06 0.000147725
0.00121908 1.43952e-05 -1.36724e-05
1.43952e-05 0.000195204 3.30198e-06
-1.36724e-05 3.30198e-06 0.000164718
0.00260241 5.73551e-05 -1.40133e-05
5.73551e-05 0.000946545 -7.18278e-07
-1.40133e-05 -7.18278e-07 0.000930682
0.0013259 3.0968e-05 1.4352e-05
3.0968e-05 0.000306674 -9.83149e-07
1.4352e-05 -9.83149e-07 0.000285442
0.00110626 3.22835e-05 8.00418e-06
3.22835e-05 0.000141844 -2.13751e-06
8.00418e-06 -2.13751e-06 0.000138971
0.00124669 3.24672e-05 1.16378e-05
3.24672e-05 0.000260879 -1.5609e-06
1.16378e-05 -1.5609e-06 0.00024203
0.00131135 6.55874e-06 -4.90642e-06
6.55874e-06 0.000228408 2.04351e-07
-4.90642e-06 2.04351e-07 0.000191228
0.00113403 2.19528e-05 -3.13555e-06
2.19528e-05 0.000155684 4.23808e-07
-3.13555e-06 4.23808e-07 0.000128311
0.00121728 1.11347e-05 -3.86194e-06
1.11347e-05 0.0001925 4.29316e-07
-3.86194e-06 4.29316e-07 0.00015932
0.00146198 -2.45408e-05 -1.15444e-06
-2.45408e-05 0.00026097 5.38241e-07
-1.15444e-06 5.38241e-07 0.000206115
0.00386 6.9957e-05 3.86496e-05
6.9957e-05 0.00157384 -1.16836e-07
3.86496e-05 -1.16836e-07 0.00156449
0.00132537 2.01647e-05 3.69881e-05
2.01647e-05 0.000305079 -2.53009e-06
3.69881e-05 -2.53009e-06 0.000285174
0.00192254 3.57869e-05 6.76539e-06
3.57869e-05 0.000521682 -1.29688e-06
6.76539e-06 -1.29688e-06 0.000487481
0.00131417 1.07646e-05 8.20342e-06
1.07646e-05 0.000224868 -1.91737e-06
8.20342e-06 -1.91737e-06 0.000186907
0.00122056 9.30288e-06 7.06615e-06
9.30288e-06 0.000192038 -2.29984e-06
7.06615e-06 -2.29984e-06 0.000156216
0.00163399 -2.97495e-05 2.54081e-06
-2.97495e-05 0.000286732 -1.26241e-06
2.54081e-06 -1.26241e-06 0.000227215
0.00120254 -2.24526e-05 2.80271e-06
-2.24526e-05 0.000114815 -1.45941e-06
2.80271e-06 -1.45941e-06 5.81805e-05
0.00119691 2.91617e-05 2.08617e-05
2.91617e-05 0.00017235 -5.95472e-06
2.08617e-05 -5.95472e-06 0.000173173
0.00105707 3.16368e-05 4.9407e-06
3.16368e-05 0.000116294 -2.76652e-06
4.9407e-06 -2.76652e-06 9.27791e-05
0.00133443 -1.19034e-05 1.95064e-06
-1.19034e-05 0.000219555 -1.22567e-06
1.95064e-06 -1.22567e-06 0.000166439
0.00112765 -4.14348e-05 1.92029e-06
-4.14348e-05 4.99808e-05 -1.25709e-06
1.92029e-06 -1.25709e-06 -1.70371e-05
0.00309386 -5.86868e-05 -2.51418e-05
-5.86868e-05 0.00117834 -2.69255e-06
-2.51418e-05 -2.69255e-06 0.00117481
0.00270093 -4.593e-05 -2.10827e-05
-4.593e-05 0.000931944 -3.45919e-06
-2.10827e-05 -3.45919e-06 0.000940777
0.00287234 -5.24317e-05 -2.31148e-05
-5.24317e-05 0.00104001 -3.13651e-06
-2.31148e-05 -3.13651e-06 0.00104321
0.000699876 -2.8413e-05 -4.37518e-06
-2.8413e-05 -6.5617e-05 -3.40553e-06
-4.37518e-06 -3.40553e-06 -9.09478e-05
0.00333806 -6.13552e-05 4.4719e-07
-6.13552e-05 0.00131232 -1.51174e-07
4.4719e-07 -1.51174e-07 0.0013054
0.00295602 -5.47806e-05 2.36069e-07
-5.47806e-05 0.00110054 -1.19641e-07
2.36069e-07 -1.19641e-07 0.00109944
0.000744392 4.24001e-06 6.98004e-09
4.24001e-06 -4.24134e-05 -1.25569e-07
6.98004e-09 -1.25569e-07 -7.8689e-05
0.00184848 -3.62407e-05 -7.62024e-06
-3.62407e-05 0.000495346 -1.04379e-06
-7.62024e-06 -1.04379e-06 0.000502275
0.000773027 -1.67042e-05 -8.47179e-09
-1.67042e-05 -2.78152e-05 -3.50718e-08
-8.47179e-09 -3.50718e-08 -5.62536e-05
0.00116815 -3.36696e-05 3.88658e-06
-3.36696e-05 0.000161733 5.14589e-07
3.88658e-06 5.14589e-07 0.000142152
0.000912464 9.63638e-06 3.38924e-08
9.63638e-06 1.46437e-05 -2.15678e-07
3.38924e-08 -2.15678e-07 -3.95094e-05
0.00256785 -3.87175e-05 2.01546e-05
-3.87175e-05 0.000849235 3.7734e-06
2.01546e-05 3.7734e-06 0.000861742
0.00084728 -2.31355e-05 4.27585e-06
-2.31355e-05 -2.97316e-05 3.63482e-06
4.27585e-06 3.63482e-06 -4.31688e-05
0.000755193 1.30613e-05 8.19081e-06
1.30613e-05 -4.52515e-05 3.78489e-06
8.19081e-06 3.78489e-06 -8.42924e-05
0.000761624 -2.95806e-06 7.42833e-06
-2.95806e-06 -3.40489e-05 4.06556e-06
7.42833e-06 4.06556e-06 -6.70522e-05
0.000998445 2.6968e-05 2.80314e-06
2.6968e-05 1.56594e-05 1.72023e-06
2.80314e-06 1.72023e-06 -4.20112e-05
0.00158781 -3.47391e-05 1.06708e-05
-3.47391e-05 0.000362844 3.17878e-06
1.06708e-05 3.17878e-06 0.000348498
0.000937804 1.80696e-05 2.59373e-06
1.80696e-05 1.8935e-05 1.46182e-06
2.59373e-06 1.46182e-06 -3.52951e-05
0.000923808 5.83707e-06 2.56654e-06
5.83707e-06 2.1904e-05 1.83535e-06
2.56654e-06 1.83535e-06 -3.05569e-05
0.000978422 3.63934e-05 1.35824e-06
3.63934e-05 2.08708e-05 4.04178e-07
1.35824e-06 4.04178e-07 -4.38131e-05
0.00254261 -3.19217e-05 1.8784e-05
-3.19217e-05 0.000821233 4.11547e-06
1.8784e-05 4.11547e-06 0.000836787
0.00259631 -3.54897e-05 2.90762e-07
-3.54897e-05 0.000853866 -7.98785e-08
2.90762e-07 -7.98785e-08 0.000868047
0.00350861 -6.66697e-05 -3.17287e-05
-6.66697e-05 0.00140523 -1.52037e-06
-3.17287e-05 -1.52037e-06 0.00139631
0.00376332 -6.84919e-05 -3.61581e-05
-6.84919e-05 0.00152891 -6.53382e-07
-3.61581e-05 -6.53382e-07 0.00151947
0.00396349 -4.13526e-05 1.25688e-06
-4.13526e-05 0.00162092 -1.77129e-07
1.25688e-06 -1.77129e-07 0.00161285
0.00251551 -5.49891e-05 -1.4352e-05
-5.49891e-05 0.000906581 -1.40884e-08
-1.4352e-05 -1.40884e-08 0.000890753
0.00133431 -7.60017e-06 8.51354e-06
-7.60017e-06 0.000222677 -1.38341e-07
8.51354e-06 -1.38341e-07 0.000186086
0.00232622 -4.96565e-05 -1.21771e-05
-4.96565e-05 0.000811047 -3.10791e-07
-1.21771e-05 -3.10791e-07 0.00079657
0.00126374 -4.62158e-06 6.78645e-06
-4.62158e-06 0.000202378 -1.66956e-08
6.78645e-06 -1.66956e-08 0.00016604
0.00398828 2.08596e-05 3.96359e-05
2.08596e-05 0.001631 4.04756e-07
3.96359e-05 4.04756e-07 0.00162353
0.000730519 -2.64576e-06 7.91574e-06
-2.64576e-06 -8.90855e-05 7.37604e-07
7.91574e-06 7.37604e-07 -0.000129048
0.00194036 -3.86913e-05 2.15312e-05
-3.86913e-05 0.00053487 2.19397e-06
2.15312e-05 2.19397e-06 0.000500909
0.00112859 -1.4349e-06 4.5965e-06
-1.4349e-06 -2.24305e-06 1.40882e-06
4.5965e-06 1.40882e-06 -6.5989e-05
0.00185414 2.89346e-07 1.68809e-05
2.89346e-07 0.000501445 2.11736e-06
1.68809e-05 2.11736e-06 0.00046835
0.00111015 1.71235e-05 3.74015e-06
1.71235e-05 1.41825e-05 1.54376e-06
3.74015e-06 1.54376e-06 -4.77081e-05
0.00147324 2.04327e-05 -3.79042e-05
2.04327e-05 0.000376389 9.15098e-07
-3.79042e-05 9.15098e-07 0.000356365
0.00135348 4.11152e-05 -7.13685e-06
4.11152e-05 0.000323818 1.32976e-06
-7.13685e-06 1.32976e-06 0.00030138
0.00107363 3.45294e-05 -5.55235e-06
3.45294e-05 0.000126462 1.55196e-06
-5.55235e-06 1.55196e-06 0.000123715
0.00127089 3.87107e-05 -6.91429e-06
3.87107e-05 0.000275364 1.49885e-06
-6.91429e-06 1.49885e-06 0.000255902
0.0013439 4.48902e-06 -1.77723e-05
4.48902e-06 0.00024281 2.68339e-06
-1.77723e-05 2.68339e-06 0.000206161
0.00125553 1.04286e-05 -1.47462e-05
1.04286e-05 0.00021015 3.07547e-06
-1.47462e-05 3.07547e-06 0.000177279
0.00118756 2.22181e-05 -1.24683e-05
2.22181e-05 0.000181689 3.43331e-06
-1.24683e-05 3.43331e-06 0.000154429
0.00150229 -2.66854e-05 -4.54796e-06
-2.66854e-05 0.000278969 2.21108e-06
-4.54796e-06 2.21108e-06 0.000223766
0.0039156 7.29409e-05 -1.49876e-06
7.29409e-05 0.0016008 -1.99612e-07
-1.49876e-06 -1.99612e-07 0.00159122
0.00133268 3.10928e-05 1.52155e-05
3.10928e-05 0.000311315 -6.38588e-07
1.52155e-05 -6.38588e-07 0.000290348
0.00107295 1.81373e-05 -9.32442e-06
1.81373e-05 9.37829e-05 1.19348e-07
-9.32442e-06 1.19348e-07 5.55323e-05
0.00135018 8.69234e-06 -5.38941e-06
8.69234e-06 0.000241106 1.29121e-07
-5.38941e-06 1.29121e-07 0.000203588
0.00191592 3.73199e-05 1.38802e-05
3.73199e-05 0.000536512 -1.90597e-06
1.38802e-05 -1.90597e-06 0.000541264
0.00132359 3.40949e-05 -3.10792e-06
3.40949e-05 0.000248538 3.85555e-07
-3.10792e-06 3.85555e-07 0.000226465
0.0012595 8.4892e-06 -4.33697e-06
8.4892e-06 0.00020968 3.31078e-07
-4.33697e-06 3.31078e-07 0.000174258
0.00148163 -2.76453e-05 -1.54452e-06
-2.76453e-05 0.000210078 3.87124e-07
-1.54452e-06 3.87124e-07 0.000149895
0.00141297 -1.58539e-05 -9.5946e-07
-1.58539e-05 0.00025593 6.21229e-07
-9.5946e-07 6.21229e-07 0.000202401
0.00135995 -2.5567e-05 -5.23544e-07
-2.5567e-05 0.000192115 1.90981e-07
-5.23544e-07 1.90981e-07 0.000135927
0.0011199 -4.09566e-05 1.62697e-08
-4.09566e-05 4.65995e-05 -3.71057e-08
1.62697e-08 -3.71057e-08 -2.03475e-05
0.000715987 6.35468e-06 7.65028e-06
6.35468e-06 -9.24965e-05 -1.46727e-06
7.65028e-06 -1.46727e-06 -0.000132095
0.00132619 1.9084e-05 8.20389e-06
1.9084e-05 0.00022867 -1.62896e-06
8.20389e-06 -1.62896e-06 0.000191301
0.00146328 1.51017e-05 4.09475e-06
1.51017e-05 0.000167656 -8.4173e-07
4.09475e-06 -8.4173e-07 0.000106382
0.00137887 -2.05858e-05 3.52208e-06
-2.05858e-05 0.000143326 -1.21079e-06
3.52208e-06 -1.21079e-06 8.22914e-05
0.00128005 -2.55419e-05 2.90996e-06
-2.55419e-05 0.000132234 -1.55862e-06
2.90996e-06 -1.55862e-06 7.35931e-05
0.00155858 -3.86031e-05 1.41306e-06
-3.86031e-05 0.00019473 -6.98166e-07
1.41306e-06 -6.98166e-07 0.000124711
0.00271051 4.25438e-05 2.09273e-05
4.25438e-05 0.000925655 -3.64403e-06
2.09273e-05 -3.64403e-06 0.00093642
0.00114395 -3.91008e-05 1.79074e-06
-3.91008e-05 3.91497e-05 -1.08069e-06
1.79074e-06 -1.08069e-06 -2.73976e-05
0.000764554 3.01453e-05 4.44502e-06
3.01453e-05 -4.28025e-05 -3.36393e-06
4.44502e-06 -3.36393e-06 -6.37751e-05
0.000836145 -5.70604e-06 2.28752e-06
-5.70604e-06 -1.74303e-05 -1.88799e-06
2.28752e-06 -1.88799e-06 -7.15182e-05
0.00116286 -4.35233e-05 1.8422e-06
-4.35233e-05 8.99655e-05 -1.59823e-06
1.8422e-06 -1.59823e-06 2.20261e-05
0.00120743 -4.86928e-05 1.49621e-06
-4.86928e-05 6.38728e-05 -8.76737e-07
1.49621e-06 -8.76737e-07 -7.45015e-06
0.000785575 2.3975e-05 4.48906e-06
2.3975e-05 -5.32837e-05 -3.71533e-06
4.48906e-06 -3.71533e-06 -6.9193e-05
0.000949531 -5.97125e-06 2.85389e-06
-5.97125e-06 1.53066e-05 -2.54246e-06
2.85389e-06 -2.54246e-06 -3.13111e-05
0.00325602 -6.1812e-05 -2.73266e-05
-6.1812e-05 0.00126923 -2.37188e-06
-2.73266e-05 -2.37188e-06 0.00126296
0.00295768 -5.54687e-05 -2.3823e-05
-5.54687e-05 0.00109719 -2.92354e-06
-2.3823e-05 -2.92354e-06 0.00109703
0.000700127 2.07945e-06 -5.51036e-06
2.07945e-06 -5.98615e-05 -3.04698e-06
-5.51036e-06 -3.04698e-06 -9.65724e-05
0.0026608 -4.24371e-05 -2.08003e-05
-4.24371e-05 0.000901975 -3.64268e-06
-2.08003e-05 -3.64268e-06 0.000912945
0.000709791 -2.93046e-05 -4.44119e-06
-2.93046e-05 -6.80828e-05 -3.47707e-06
-4.44119e-06 -3.47707e-06 -8.93936e-05
0.000693119 -1.72467e-05 -5.18529e-06
-1.72467e-05 -6.38041e-05 -3.09008e-06
-5.18529e-06 -3.09008e-06 -9.27195e-05
0.000902862 7.59469e-06 -2.43674e-06
7.59469e-06 1.08486e-05 -1.75545e-06
-2.43674e-06 -1.75545e-06 -4.35037e-05
0.00260922 -3.88829e-05 2.55792e-07
-3.88829e-05 0.000868401 -8.66863e-08
2.55792e-07 -8.66863e-08 0.000881011
0.000831192 -2.26488e-05 1.23568e-07
-2.26488e-05 -3.83659e-05 -2.58781e-08
1.23568e-07 -2.58781e-08 -5.16069e-05
0.00124636 5.82343e-06 5.51165e-06
5.82343e-06 0.000203863 1.14227e-07
5.51165e-06 1.14227e-07 0.000168231
0.00119777 -1.06007e-05 4.48104e-06
-1.06007e-05 0.000188045 4.01585e-07
4.48104e-06 4.01585e-07 0.000158025
0.000987023 2.74441e-05 6.14286e-08
2.74441e-05 9.67234e-06 -4.00806e-08
6.14286e-08 -4.00806e-08 -4.78822e-05
0.000812634 -2.81351e-05 -4.88656e-08
-2.81351e-05 -2.79896e-05 -2.20626e-08
-4.88656e-08 -2.20626e-08 -4.58517e-05
0.000922923 1.74884e-05 -9.64652e-08
1.74884e-05 1.20374e-05 -3.95512e-09
-9.64652e-08 -3.95512e-09 -4.22025e-05
0.000909963 3.24179e-06 -3.22138e-08
3.24179e-06 1.69056e-05 -9.38312e-08
-3.22138e-08 -9.38312e-08 -3.57872e-05
0.000945485 3.59481e-05 -3.73642e-08
3.59481e-05 3.65541e-06 -1.20394e-07
-3.73642e-08 -1.20394e-07 -6.11918e-05
0.000838015 -2.58012e-05 4.589e-06
-2.58012e-05 -2.54586e-05 3.47908e-06
4.589e-06 3.47908e-06 -4.10309e-05
0.000856334 -2.0537e-05 3.83464e-06
-2.0537e-05 -3.21536e-05 3.71795e-06
3.83464e-06 3.71795e-06 -4.34417e-05
0.000943825 3.06995e-06 2.75849e-06
3.06995e-06 1.13598e-05 2.03346e-06
2.75849e-06 2.03346e-06 -3.34977e-05
0.00103061 2.52952e-05 2.97549e-06
2.52952e-05 8.6277e-06 1.68321e-06
2.97549e-06 1.68321e-06 -5.08009e-05
0.000971566 2.48558e-05 2.64523e-06
2.48558e-05 2.33709e-05 1.71405e-06
2.64523e-06 1.71405e-06 -3.2238e-05
0.00116002 4.2013e-05 1.6441e-06
4.2013e-05 5.09734e-05 1.44798e-06
1.6441e-06 1.44798e-06 -1.67654e-05
0.000934567 1.93766e-06 2.59516e-06
1.93766e-06 2.11188e-05 1.9346e-06
2.59516e-06 1.9346e-06 -2.81197e-05
0.000972391 3.90124e-05 1.16712e-06
3.90124e-05 1.80083e-06 7.2793e-07
1.16712e-06 7.2793e-07 -6.18196e-05
0.0010448 3.31015e-05 1.39617e-06
3.31015e-05 6.60144e-05 6.97907e-07
1.39617e-06 6.97907e-07 7.08899e-08
0.00112506 4.8686e-05 1.3449e-08
4.8686e-05 8.61598e-05 -3.64635e-08
1.3449e-08 -3.64635e-08 1.59117e-05
0.00251374 -2.85329e-05 1.76531e-05
-2.85329e-05 0.000801248 4.18739e-06
1.76531e-05 4.18739e-06 0.000818128
0.00257064 -3.20649e-05 3.28879e-07
-3.20649e-05 0.000834495 -7.15442e-08
3.28879e-07 -7.15442e-08 0.000850119
0.00263232 -3.56696e-05 -1.95339e-05
-3.56696e-05 0.000870742 -3.98144e-06
-1.95339e-05 -3.98144e-06 0.000885004
0.000808637 2.15972e-05 3.9358e-06
2.15972e-05 -4.89701e-05 -3.83758e-06
3.9358e-06 -3.83758e-06 -6.26128e-05
0.00270476 3.91186e-05 2.04969e-05
3.91186e-05 0.000914659 -3.84183e-06
2.04969e-05 -3.84183e-06 0.000926994
0.00339359 -6.44757e-05 -2.96037e-05
-6.44757e-05 0.00134455 -1.96086e-06
-2.96037e-05 -1.96086e-06 0.00133655
0.00362125 -6.92588e-05 -3.36143e-05
-6.92588e-05 0.00146163 -1.09245e-06
-3.36143e-05 -1.09245e-06 0.00145218
0.000708986 8.00257e-06 -6.41906e-06
8.00257e-06 -7.50536e-05 -2.60234e-06
-6.41906e-06 -2.60234e-06 -0.000114403
0.000710107 6.09459e-06 -7.24129e-06
6.09459e-06 -8.98597e-05 -1.94576e-06
-7.24129e-06 -1.94576e-06 -0.000129455
0.00392263 -5.10157e-05 -3.89794e-05
-5.10157e-05 0.0016013 -1.86673e-07
-3.89794e-05 -1.86673e-07 0.00159315
0.00399838 1.56933e-05 -8.95408e-07
1.56933e-05 0.00163763 1.91949e-07
-8.95408e-07 1.91949e-07 0.00162923
0.000719935 -1.59836e-06 1.2351e-08
-1.59836e-06 -9.44961e-05 -1.65873e-07
1.2351e-08 -1.65873e-07 -0.000134333
0.00129367 -1.37708e-05 7.64956e-06
-1.37708e-05 0.000211697 -4.50229e-08
7.64956e-06 -4.50229e-08 0.000175275
0.00114084 1.25151e-06 1.35818e-07
1.25151e-06 3.7783e-06 4.24537e-09
1.35818e-07 4.24537e-09 -5.98802e-05
0.000710421 8.86736e-06 3.66538e-08
8.86736e-06 -6.98298e-05 -1.29705e-07
3.66538e-08 -1.29705e-07 -0.000109259
0.00111586 1.74894e-05 5.58659e-08
1.74894e-05 1.72627e-05 -7.06163e-08
5.58659e-08 -7.06163e-08 -4.46114e-05
0.000698915 -1.21466e-06 7.91593e-06
-1.21466e-06 -0.000106961 -4.63173e-07
7.91593e-06 -4.63173e-07 -0.00014671
0.00115354 -2.17063e-06 4.94456e-06
-2.17063e-06 -2.24691e-06 6.99698e-07
4.94456e-06 6.99698e-07 -6.7536e-05
0.00112123 8.28858e-06 4.13522e-06
8.28858e-06 7.10009e-06 1.47458e-06
4.13522e-06 1.47458e-06 -5.53614e-05
0.00131303 -1.80492e-06 2.7101e-06
-1.80492e-06 3.67145e-05 9.02111e-07
2.7101e-06 9.02111e-07 -3.72361e-05
0.00107375 2.16999e-05 3.28398e-06
2.16999e-05 1.09769e-05 1.66532e-06
3.28398e-06 1.66532e-06 -4.99224e-05
0.00127828 1.92202e-05 2.0329e-06
1.92202e-05 4.58869e-05 8.86532e-07
2.0329e-06 8.86532e-07 -2.44518e-05
0.00397442 6.90593e-05 -4.34778e-05
6.90593e-05 0.00162868 -2.27869e-07
-4.34778e-05 -2.27869e-07 0.00161938
0.00134235 4.2341e-05 -6.9604e-06
4.2341e-05 0.000319049 1.12599e-06
-6.9604e-06 1.12599e-06 0.000296899
0.000206404 6.26068e-06 -9.43614e-06
6.26068e-06 -0.000341346 2.13842e-06
-9.43614e-06 2.13842e-06 -0.000384445
0.00137659 6.30593e-06 -1.91476e-05
6.30593e-06 0.000252386 2.28412e-06
-1.91476e-05 2.28412e-06 0.000215392
0.00263107 4.90549e-05 -8.55426e-06
4.90549e-05 0.000899102 1.41662e-06
-8.55426e-06 1.41662e-06 0.000907453
0.00159271 4.02184e-05 -1.14839e-05
4.02184e-05 0.000382319 3.43956e-06
-1.14839e-05 3.43956e-06 0.000361482
0.0012973 6.90581e-06 -1.60782e-05
6.90581e-06 0.000226683 2.89665e-06
-1.60782e-05 2.89665e-06 0.000191711
0.00132993 -2.57427e-05 -5.52568e-06
-2.57427e-05 0.000133789 2.06426e-06
-5.52568e-06 2.06426e-06 7.29286e-05
0.00152298 -2.86187e-05 -3.88584e-06
-2.86187e-05 0.000272115 1.74376e-06
-3.88584e-06 1.74376e-06 0.000216374
0.00148538 -1.95788e-05 -4.22303e-06
-1.95788e-05 0.000289275 2.52175e-06
-4.22303e-06 2.52175e-06 0.000235329
0.00111211 -4.05297e-05 -1.70064e-06
-4.05297e-05 4.3174e-05 1.12609e-06
-1.70064e-06 1.12609e-06 -2.37026e-05
0.000727061 6.80299e-06 -1.00758e-07
6.80299e-06 -8.69998e-05 -1.36122e-07
-1.00758e-07 -1.36122e-07 -0.000126723
0.00136311 1.73654e-05 -5.82849e-06
1.73654e-05 0.000245069 9.92934e-08
-5.82849e-06 9.92934e-08 0.00020816
0.00117553 1.30731e-05 -9.16545e-07
1.30731e-05 2.39983e-05 1.00252e-07
-9.16545e-07 1.00252e-07 -3.88307e-05
0.00151571 -2.13465e-05 -8.92821e-07
-2.13465e-05 0.000210861 6.59821e-08
-8.92821e-07 6.59821e-08 0.00015038
0.00266388 4.23527e-05 -2.03253e-07
4.23527e-05 0.00090404 -8.63056e-08
-2.03253e-07 -8.63056e-08 0.000914675
0.00118397 3.51872e-05 8.33828e-07
3.51872e-05 0.000168309 3.03415e-08
8.33828e-07 3.03415e-08 0.00014898
0.00113363 -4.60215e-06 9.44007e-08
-4.60215e-06 0.000128559 -2.81732e-08
9.44007e-08 -2.81732e-08 7.57503e-05
0.00128739 -2.61279e-05 -6.57952e-07
-2.61279e-05 0.000135722 1.20647e-07
-6.57952e-07 1.20647e-07 7.71626e-05
0.00132408 -3.58041e-05 -6.81135e-07
-3.58041e-05 7.82767e-05 3.2805e-07
-6.81135e-07 3.2805e-07 7.44684e-06
0.00102543 -4.05507e-05 -1.25837e-07
-4.05507e-05 2.41732e-05 -1.08006e-07
-1.25837e-07 -1.08006e-07 -4.39831e-05
0.0012868 -4.06315e-05 4.14899e-08
-4.06315e-05 0.000108977 8.36182e-08
4.14899e-08 8.36182e-08 4.28707e-05
0.00119801 -4.84212e-05 1.0766e-07
-4.84212e-05 5.97706e-05 1.26483e-08
1.0766e-07 1.26483e-08 -1.14489e-05
0.000805582 2.4768e-05 -8.98699e-08
2.4768e-05 -4.23282e-05 -5.09929e-08
-8.98699e-08 -5.09929e-08 -5.84857e-05
0.000943768 -4.85606e-06 -1.42354e-07
-4.85606e-06 1.19071e-05 -6.46713e-08
-1.42354e-07 -6.46713e-08 -3.45129e-05
0.0011554 7.21989e-06 4.82193e-06
7.21989e-06 3.28589e-06 -6.79352e-07
4.82193e-06 -6.79352e-07 -6.08034e-05
0.00140659 1.18206e-06 3.7643e-06
1.18206e-06 0.000147337 -1.01636e-06
3.7643e-06 -1.01636e-06 8.66894e-05
0.0016257 1.01412e-05 2.13776e-06
1.01412e-05 0.000193634 -1.06429e-07
2.13776e-06 -1.06429e-07 0.000122034
0.0011308 -2.40431e-05 2.81419e-06
-2.40431e-05 -3.71835e-05 -8.902e-07
2.81419e-06 -8.902e-07 -0.000109595
0.00129158 -3.91874e-05 1.4706e-06
-3.91874e-05 9.31556e-05 -1.08982e-06
1.4706e-06 -1.08982e-06 2.5888e-05
0.00152926 -3.88934e-05 9.30985e-07
-3.88934e-05 0.000150162 -5.50115e-07
9.30985e-07 -5.50115e-07 7.73591e-05
0.000752864 2.6909e-05 4.62389e-06
2.6909e-05 -5.90911e-05 -3.50354e-06
4.62389e-06 -3.50354e-06 -7.73465e-05
0.00123746 -4.51923e-05 1.16979e-06
-4.51923e-05 5.60262e-05 -8.19837e-07
1.16979e-06 -8.19837e-07 -1.35801e-05
0.000884971 -1.49766e-06 2.53347e-06
-1.49766e-06 5.4369e-06 -1.81644e-06
2.53347e-06 -1.81644e-06 -4.67419e-05
0.000805787 -3.39844e-05 1.72912e-06
-3.39844e-05 -6.12895e-05 -1.75519e-06
1.72912e-06 -1.75519e-06 -0.000128476
0.00148506 -5.80234e-05 1.08248e-06
-5.80234e-05 0.000227878 -1.1478e-06
1.08248e-06 -1.1478e-06 0.000153985
0.00132188 -5.28105e-05 1.03605e-06
-5.28105e-05 0.00010444 -1.73445e-07
1.03605e-06 -1.73445e-07 3.3212e-05
0.000927963 -3.87452e-06 3.06819e-06
-3.87452e-06 9.9743e-06 -2.19736e-06
3.06819e-06 -2.19736e-06 -3.85698e-05
0.000950496 -1.83474e-06 2.08466e-06
-1.83474e-06 1.29474e-05 -2.61419e-06
2.08466e-06 -2.61419e-06 -3.01385e-05
0.00103794 -2.7909e-05 1.60791e-06
-2.7909e-05 5.55458e-05 -1.17949e-06
1.60791e-06 -1.17949e-06 -1.03466e-05
0.000712426 1.01299e-05 -5.92856e-06
1.01299e-05 -6.01946e-05 -2.95076e-06
-5.92856e-06 -2.95076e-06 -9.92148e-05
0.00265006 -3.90668e-05 -2.03529e-05
-3.90668e-05 0.000887308 -3.83896e-06
-2.03529e-05 -3.83896e-06 0.000900019
0.000815931 -2.219e-05 -4.09108e-06
-2.219e-05 -4.66498e-05 -3.73403e-06
-4.09108e-06 -3.73403e-06 -5.96881e-05
0.00068597 -8.34676e-06 -5.25517e-06
-8.34676e-06 -6.41248e-05 -2.99753e-06
-5.25517e-06 -2.99753e-06 -9.70864e-05
0.000977218 2.80225e-05 -2.69558e-06
2.80225e-05 4.46829e-06 -1.84578e-06
-2.69558e-06 -1.84578e-06 -5.29763e-05
0.000751496 -2.69328e-05 -4.69727e-06
-2.69328e-05 -5.83344e-05 -3.46598e-06
-4.69727e-06 -3.46598e-06 -7.60617e-05
0.000899311 7.2098e-07 -2.39292e-06
7.2098e-07 1.35111e-05 -2.0404e-06
-2.39292e-06 -2.0404e-06 -3.94245e-05
0.000906492 1.65351e-05 -2.49254e-06
1.65351e-05 4.36349e-06 -1.3118e-06
-2.49254e-06 -1.3118e-06 -4.98939e-05
0.000912388 3.54956e-05 -1.48664e-06
3.54956e-05 -1.36192e-05 -6.921e-07
-1.48664e-06 -6.921e-07 -7.8633e-05
0.000814755 -2.5168e-05 8.3357e-08
-2.5168e-05 -3.76141e-05 -4.54183e-08
8.3357e-08 -4.54183e-08 -5.29908e-05
0.000844205 -2.01808e-05 1.26425e-07
-2.01808e-05 -3.86764e-05 -2.72951e-09
1.26425e-07 -2.72951e-09 -4.97822e-05
0.000942001 2.29424e-06 8.0592e-08
2.29424e-06 1.10533e-05 -3.74358e-08
8.0592e-08 -3.74358e-08 -3.3898e-05
0.00103615 2.60558e-05 9.75968e-08
2.60558e-05 1.09652e-05 -1.33314e-08
9.75968e-08 -1.33314e-08 -4.83914e-05
0.000946526 2.44014e-05 -2.17425e-08
2.44014e-05 1.12426e-05 3.64268e-08
-2.17425e-08 3.64268e-08 -4.42666e-05
0.00114928 4.21152e-05 8.67384e-08
4.21152e-05 4.61345e-05 3.79513e-08
8.67384e-08 3.79513e-08 -2.16406e-05
0.000921236 6.00523e-07 -1.42596e-07
6.00523e-07 1.63026e-05 3.6827e-08
-1.42596e-07 3.6827e-08 -3.31331e-05
0.00104217 4.07437e-05 -2.40404e-08
4.07437e-05 3.66591e-05 -4.32712e-08
-2.40404e-08 -4.32712e-08 -2.66561e-05
0.00103464 3.32647e-05 7.35353e-08
3.32647e-05 6.11841e-05 -1.69127e-07
7.35353e-08 -1.69127e-07 -4.82972e-06
0.00103975 4.71453e-05 -5.10537e-07
4.71453e-05 4.36435e-05 1.8621e-07
-5.10537e-07 1.8621e-07 -2.69651e-05
0.000865034 -1.81073e-05 3.36599e-06
-1.81073e-05 -3.28687e-05 3.71547e-06
3.36599e-06 3.71547e-06 -4.20889e-05
0.000938686 1.67667e-06 2.82384e-06
1.67667e-06 1.4508e-05 1.84356e-06
2.82384e-06 1.84356e-06 -3.21474e-05
0.000948074 2.30165e-06 2.50556e-06
2.30165e-06 9.32802e-06 2.23877e-06
2.50556e-06 2.23877e-06 -3.32622e-05
0.00103588 1.89107e-05 1.53127e-06
1.89107e-05 5.43438e-05 7.81008e-07
1.53127e-06 7.81008e-07 -8.35526e-06
0.00117731 3.48676e-05 2.0075e-06
3.48676e-05 3.35753e-05 1.2746e-06
2.0075e-06 1.2746e-06 -3.52888e-05
0.00112444 4.38927e-05 1.38492e-06
4.38927e-05 6.04443e-05 1.40099e-06
1.38492e-06 1.40099e-06 -4.78877e-06
0.00122529 4.71153e-05 9.42133e-07
4.71153e-05 6.00634e-05 1.56904e-06
9.42133e-07 1.56904e-06 -1.29462e-05
0.00105468 2.88712e-05 1.36036e-06
2.88712e-05 7.05981e-05 9.73359e-07
1.36036e-06 9.73359e-07 6.12379e-06
0.00112107 4.86302e-05 3.02628e-07
4.86302e-05 6.30344e-05 7.15666e-07
3.02628e-07 7.15666e-07 -5.35202e-06
0.00107509 4.73148e-05 7.76914e-07
4.73148e-05 7.85345e-05 1.4152e-08
7.76914e-07 1.4152e-08 3.8766e-06
0.000992234 4.80649e-05 2.98812e-07
4.80649e-05 1.08838e-05 1.30212e-07
2.98812e-07 1.30212e-07 -6.29572e-05
0.000948205 -3.07258e-06 9.5951e-07
-3.07258e-06 2.92018e-06 2.17091e-06
9.5951e-07 2.17091e-06 -2.93116e-05
0.000876631 -1.3907e-05 2.39702e-06
-1.3907e-05 -3.42896e-05 3.59097e-06
2.39702e-06 3.59097e-06 -3.97413e-05
0.00247407 -2.5207e-05 1.62227e-05
-2.5207e-05 0.000776767 4.2212e-06
1.62227e-05 4.2212e-06 0.000794886
0.00253152 -2.86634e-05 3.91137e-07
-2.86634e-05 0.000809672 -6.2596e-08
3.91137e-07 -6.2596e-08 0.000826623
0.00259707 -3.22213e-05 -1.84136e-05
-3.22213e-05 0.000846998 -4.06702e-06
-1.84136e-05 -4.06702e-06 0.00086269
0.000826261 1.98407e-05 3.31565e-06
1.98407e-05 -4.51295e-05 -3.72165e-06
3.31565e-06 -3.72165e-06 -5.61729e-05
0.00265458 3.56968e-05 1.93248e-05
3.56968e-05 0.000883624 -3.93327e-06
1.93248e-05 -3.93327e-06 0.000897482
0.000822051 2.21398e-05 -1.97675e-07
2.21398e-05 -4.13766e-05 -2.71878e-08
-1.97675e-07 -2.71878e-08 -5.52736e-05
0.00266281 3.89382e-05 -2.34887e-07
3.89382e-05 0.000894926 -8.54269e-08
-2.34887e-07 -8.54269e-08 0.000907189
0.000707214 1.31801e-05 -6.19053e-06
1.31801e-05 -6.94996e-05 -2.78691e-06
-6.19053e-06 -2.78691e-06 -0.000109116
0.000712173 1.02631e-05 -6.7796e-06
1.02631e-05 -7.99565e-05 -2.37515e-06
-6.7796e-06 -2.37515e-06 -0.000119323
0.00111566 1.64879e-05 -3.65394e-06
1.64879e-05 1.74639e-05 -1.72293e-06
-3.65394e-06 -1.72293e-06 -4.43908e-05
0.00115601 2.16039e-06 -4.45842e-06
2.16039e-06 1.12769e-05 -1.36511e-06
-4.45842e-06 -1.36511e-06 -5.23114e-05
0.000706121 1.65487e-06 -7.76102e-06
1.65487e-06 -0.000101302 -1.09051e-06
-7.76102e-06 -1.09051e-06 -0.000141085
0.00401823 3.51066e-05 -4.21421e-05
3.51066e-05 0.00164842 2.80539e-07
-4.21421e-05 2.80539e-07 0.00163903
0.000716756 4.22287e-07 -6.33127e-09
4.22287e-07 -9.84587e-05 -1.71995e-07
-6.33127e-09 -1.71995e-07 -0.000138276
0.00116714 8.25841e-07 4.35166e-08
8.25841e-07 4.28057e-06 -2.30138e-07
4.35166e-08 -2.30138e-07 -6.09155e-05
0.00112574 7.02096e-06 2.69658e-08
7.02096e-06 9.63109e-06 -1.02842e-08
2.69658e-08 -1.02842e-08 -5.28225e-05
0.00134095 -2.7949e-06 6.49641e-08
-2.7949e-06 5.01504e-05 5.0765e-09
6.49641e-08 5.0765e-09 -2.38218e-05
0.0010819 2.26893e-05 1.11915e-07
2.26893e-05 1.52033e-05 -1.94346e-08
1.11915e-07 -1.94346e-08 -4.56887e-05
0.00128828 2.10777e-05 1.26642e-08
2.10777e-05 5.06749e-05 3.57496e-09
1.26642e-08 3.57496e-09 -1.96909e-05
0.00116668 9.77239e-07 5.03492e-06
9.77239e-07 1.78173e-06 -2.89997e-07
5.03492e-06 -2.89997e-07 -6.34279e-05
0.00134687 2.03815e-06 2.88761e-06
2.03815e-06 4.16073e-05 5.27227e-07
2.88761e-06 5.27227e-07 -3.45778e-05
0.00130645 9.25236e-06 2.41217e-06
9.25236e-06 4.53813e-05 8.8904e-07
2.41217e-06 8.8904e-07 -2.63708e-05
0.00143439 -7.7914e-06 1.80787e-06
-7.7914e-06 7.20118e-05 5.75885e-07
1.80787e-06 5.75885e-07 -4.00063e-06
0.00123929 2.85842e-05 1.76021e-06
2.85842e-05 4.37045e-05 9.1389e-07
1.76021e-06 9.1389e-07 -2.57973e-05
0.00135885 2.20931e-05 1.18564e-06
2.20931e-05 5.72672e-05 7.88265e-07
1.18564e-06 7.88265e-07 -1.51044e-05
0.000739673 1.00438e-05 -7.75703e-06
1.00438e-05 -8.05447e-05 1.17432e-06
-7.75703e-06 1.17432e-06 -0.000120574
0.00139868 1.61269e-05 -2.00524e-05
1.61269e-05 0.000260743 1.80646e-06
-2.00524e-05 1.80646e-06 0.000224306
0.00088782 1.20159e-05 -5.11842e-06
1.20159e-05 -0.00011982 9.31856e-07
-5.11842e-06 9.31856e-07 -0.000184236
0.0016616 -2.19791e-05 -5.37499e-06
-2.19791e-05 0.000282952 1.53868e-06
-5.37499e-06 1.53868e-06 0.000223006
0.00261597 4.20951e-05 -2.04692e-05
4.20951e-05 0.000881769 3.56321e-06
-2.04692e-05 3.56321e-06 0.000892284
0.00160171 3.79428e-05 -1.03982e-05
3.79428e-05 0.000378394 2.97608e-06
-1.03982e-05 2.97608e-06 0.000360909
0.00142641 -6.74113e-06 -2.83694e-06
-6.74113e-06 0.000272006 1.93266e-06
-2.83694e-06 1.93266e-06 0.000220667
0.0012973 -2.65044e-05 -4.12312e-06
-2.65044e-05 0.00014051 1.79631e-06
-4.12312e-06 1.79631e-06 8.20271e-05
0.00109072 -3.30086e-05 -2.85498e-06
-3.30086e-05 -3.75954e-05 1.36139e-06
-2.85498e-06 1.36139e-06 -0.000109242
0.00142286 -4.21426e-05 -1.81393e-06
-4.21426e-05 0.000175512 1.1394e-06
-1.81393e-06 1.1394e-06 0.00010985
0.000876498 -3.72597e-05 -1.71079e-06
-3.72597e-05 -4.70987e-05 1.37125e-06
-1.71079e-06 1.37125e-06 -0.000115466
0.0011868 -4.81116e-05 -1.13759e-06
-4.81116e-05 5.48137e-05 8.58119e-07
-1.13759e-06 8.58119e-07 -1.63024e-05
0.000826541 2.55404e-05 -4.43352e-06
2.55404e-05 -3.0941e-05 3.55059e-06
-4.43352e-06 3.55059e-06 -4.73417e-05
0.000937312 -4.8278e-06 -2.85659e-06
-4.8278e-06 8.24097e-06 2.19686e-06
-2.85659e-06 2.19686e-06 -3.80224e-05
0.00103376 1.09911e-05 -1.09871e-07
1.09911e-05 -5.70313e-05 2.13271e-08
-1.09871e-07 2.13271e-08 -0.000121932
0.00140986 -1.86433e-06 -9.13712e-07
-1.86433e-06 0.00014859 9.23847e-08
-9.13712e-07 9.23847e-08 8.80188e-05
0.00150724 1.18124e-05 -7.95226e-07
1.18124e-05 0.000134901 1.44111e-07
-7.95226e-07 1.44111e-07 6.29845e-05
0.0013703 -2.63125e-05 3.62356e-07
-2.63125e-05 8.19754e-05 -2.90735e-07
3.62356e-07 -2.90735e-07 1.05251e-05
0.000788669 2.7845e-05 1.1529e-08
2.7845e-05 -4.07705e-05 -3.22113e-08
1.1529e-08 -3.22113e-08 -5.92474e-05
0.0009098 -3.71905e-06 1.32349e-07
-3.71905e-06 1.58031e-05 -2.72183e-08
1.32349e-07 -2.72183e-08 -3.61665e-05
0.000898219 -3.5756e-05 4.35898e-07
-3.5756e-05 -1.47373e-05 -2.78269e-07
4.35898e-07 -2.78269e-07 -8.13635e-05
0.00138947 -4.02366e-05 -4.08622e-07
-4.02366e-05 0.000140138 1.09177e-07
-4.08622e-07 1.09177e-07 7.28833e-05
0.00137433 -3.604e-05 -2.08431e-07
-3.604e-05 7.36005e-05 3.9057e-07
-2.08431e-07 3.9057e-07 8.46347e-07
0.00126061 -5.34273e-05 -4.62848e-07
-5.34273e-05 0.000118486 1.21513e-07
-4.62848e-07 1.21513e-07 4.39202e-05
0.0012391 -4.50985e-05 7.42096e-08
-4.50985e-05 5.68101e-05 1.17517e-07
7.42096e-08 1.17517e-07 -1.27609e-05
0.0012323 -5.10011e-05 3.11271e-07
-5.10011e-05 6.08268e-05 2.97943e-07
3.11271e-07 2.97943e-07 -1.04511e-05
0.00093435 -3.80373e-06 -1.99587e-09
-3.80373e-06 1.21122e-05 -6.6606e-08
-1.99587e-09 -6.6606e-08 -3.62101e-05
0.00098438 -2.63194e-05 -4.77009e-08
-2.63194e-05 2.75035e-05 -1.45319e-07
-4.77009e-08 -1.45319e-07 -3.84952e-05
0.00094223 -2.67232e-06 -2.08904e-07
-2.67232e-06 8.91107e-06 1.42561e-08
-2.08904e-07 1.42561e-08 -3.42196e-05
0.00161822 1.65614e-05 2.35213e-06
1.65614e-05 0.000183026 -1.18666e-07
2.35213e-06 -1.18666e-07 0.000109756
0.0014524 -4.93687e-06 2.65525e-06
-4.93687e-06 0.000111538 -2.45758e-07
2.65525e-06 -2.45758e-07 4.00726e-05
0.00155379 1.46745e-05 2.27079e-06
1.46745e-05 0.000131041 2.14533e-07
2.27079e-06 2.14533e-07 5.44814e-05
0.00138053 -2.10131e-05 1.59736e-06
-2.10131e-05 5.55517e-05 -9.09765e-07
1.59736e-06 -9.09765e-07 -1.89601e-05
0.00112349 -4.06995e-05 1.22995e-06
-4.06995e-05 -1.83358e-05 -1.15819e-06
1.22995e-06 -1.15819e-06 -8.83292e-05
0.00150948 -3.5782e-05 2.6667e-07
-3.5782e-05 0.000122067 -2.40481e-07
2.6667e-07 -2.40481e-07 5.24179e-05
0.000903076 -1.52705e-06 2.87354e-06
-1.52705e-06 6.72799e-06 -1.91296e-06
2.87354e-06 -1.91296e-06 -4.34405e-05
0.00124956 -4.70828e-05 6.7388e-07
-4.70828e-05 4.66997e-05 -7.15675e-07
6.7388e-07 -7.15675e-07 -2.18491e-05
0.00101112 -3.38953e-05 1.22707e-06
-3.38953e-05 4.759e-05 -8.60838e-07
1.22707e-06 -8.60838e-07 -1.69372e-05
0.000882658 -4.63344e-05 1.57807e-06
-4.63344e-05 -3.49629e-05 -2.05682e-06
1.57807e-06 -2.05682e-06 -0.000110315
0.00134875 -5.8273e-05 1.79643e-06
-5.8273e-05 0.000147453 -6.09142e-07
1.79643e-06 -6.09142e-07 6.90654e-05
0.00154387 -5.78101e-05 2.70479e-07
-5.78101e-05 0.00020484 5.22903e-07
2.70479e-07 5.22903e-07 0.000136421
0.000946628 4.93025e-06 1.48668e-06
4.93025e-06 9.04311e-06 -2.42851e-06
1.48668e-06 -2.42851e-06 -2.96244e-05
0.00102855 -3.04788e-05 1.76707e-06
-3.04788e-05 5.11096e-05 -8.06078e-07
1.76707e-06 -8.06078e-07 -1.36093e-05
0.000859022 -1.789e-05 1.71535e-06
-1.789e-05 -3.25046e-05 -2.0212e-06
1.71535e-06 -2.0212e-06 -9.93262e-05
0.0012289 -4.83178e-05 5.38778e-07
-4.83178e-05 0.000151812 6.88212e-08
5.38778e-07 6.88212e-08 7.7716e-05
0.00104374 2.70637e-05 -3.10041e-06
2.70637e-05 1.43356e-05 -1.85255e-06
-3.10041e-06 -1.85255e-06 -4.49648e-05
0.000832847 -1.98427e-05 -3.60533e-06
-1.98427e-05 -4.48742e-05 -3.75851e-06
-3.60533e-06 -3.75851e-06 -5.57924e-05
0.000791181 -2.45341e-05 -4.5177e-06
-2.45341e-05 -4.99661e-05 -3.60707e-06
-4.5177e-06 -3.60707e-06 -6.5141e-05
0.000939509 3.93297e-06 -2.7292e-06
3.93297e-06 1.05891e-05 -2.23213e-06
-2.7292e-06 -2.23213e-06 -3.45335e-05
0.000922866 2.39888e-05 -2.35668e-06
2.39888e-05 -2.47916e-07 -1.55271e-06
-2.35668e-06 -1.55271e-06 -5.56572e-05
0.00113442 4.20427e-05 -1.60411e-06
4.20427e-05 3.93069e-05 -1.4198e-06
-1.60411e-06 -1.4198e-06 -2.84962e-05
0.000906288 -9.80915e-07 -2.76317e-06
-9.80915e-07 1.07702e-05 -1.92018e-06
-2.76317e-06 -1.92018e-06 -3.88729e-05
0.00102735 3.33632e-05 -1.32168e-06
3.33632e-05 5.77394e-05 -1.03029e-06
-1.32168e-06 -1.03029e-06 -8.35151e-06
0.0011207 4.26374e-05 -1.20767e-06
4.26374e-05 7.56576e-05 -8.04811e-07
-1.20767e-06 -8.04811e-07 1.2652e-05
0.000954898 4.56065e-05 -1.47396e-06
4.56065e-05 1.43654e-06 -2.34933e-07
-1.47396e-06 -2.34933e-07 -6.95446e-05
0.0008546 -1.78396e-05 1.31403e-07
-1.78396e-05 -3.8419e-05 9.35354e-09
1.31403e-07 9.35354e-09 -4.74739e-05
0.000933662 1.72037e-06 1.61686e-08
1.72037e-06 1.32374e-05 -3.48422e-08
1.61686e-08 -3.48422e-08 -3.36215e-05
0.000945069 2.7384e-06 6.92376e-08
2.7384e-06 8.18034e-06 -1.44197e-10
6.92376e-08 -1.44197e-10 -3.44775e-05
0.00102302 1.81868e-05 1.16539e-07
1.81868e-05 4.85693e-05 -1.01799e-07
1.16539e-07 -1.01799e-07 -1.42356e-05
0.00120456 3.55794e-05 3.31418e-07
3.55794e-05 4.64027e-05 1.84337e-07
3.31418e-07 1.84337e-07 -2.25241e-05
0.00109612 4.36796e-05 4.69947e-08
4.36796e-05 4.74718e-05 1.36974e-08
4.69947e-08 1.36974e-08 -1.77346e-05
0.00121588 4.69597e-05 -7.86993e-09
4.69597e-05 5.58266e-05 2.19279e-07
-7.86993e-09 2.19279e-07 -1.71967e-05
0.00103421 2.84986e-05 -9.34917e-08
2.84986e-05 6.14667e-05 3.97437e-08
-9.34917e-08 3.97437e-08 -3.02437e-06
0.00121791 5.05827e-05 -3.03459e-07
5.05827e-05 0.000111059 -3.47064e-07
-3.03459e-07 -3.47064e-07 4.30476e-05
0.00109063 4.80249e-05 1.65158e-07
4.80249e-05 8.5848e-05 -3.1765e-07
1.65158e-07 -3.1765e-07 1.09455e-05
0.00101314 4.83513e-05 -1.08445e-06
4.83513e-05 2.31648e-05 4.50092e-09
-1.08445e-06 4.50092e-09 -4.94823e-05
0.000875958 -1.59297e-05 2.88424e-06
-1.59297e-05 -3.12762e-05 3.66812e-06
2.88424e-06 3.66812e-06 -3.85168e-05
0.000947535 1.40761e-06 2.21193e-06
1.40761e-06 6.56024e-06 2.34903e-06
2.21193e-06 2.34903e-06 -3.34862e-05
0.00104509 2.48079e-05 1.55642e-06
2.48079e-05 6.00996e-05 7.05949e-07
1.55642e-06 7.05949e-07 -2.83696e-06
0.00103092 1.41252e-05 1.30257e-06
1.41252e-05 5.09921e-05 1.09136e-06
1.30257e-06 1.09136e-06 -1.09119e-05
0.00102673 3.68774e-05 8.9172e-07
3.68774e-05 5.22253e-05 1.14565e-07
8.9172e-07 1.14565e-07 -2.02987e-05
0.00123032 3.61868e-05 1.4438e-06
3.61868e-05 3.36257e-05 1.12609e-06
1.4438e-06 1.12609e-06 -3.92287e-05
0.00116448 4.99859e-05 6.67892e-07
4.99859e-05 6.39613e-05 1.40113e-06
6.67892e-07 1.40113e-06 -6.66487e-06
0.00126877 4.99931e-05 2.70146e-07
4.99931e-05 7.28248e-05 1.61707e-06
2.70146e-07 1.61707e-06 -2.74144e-06
0.00108962 4.4852e-05 1.39695e-06
4.4852e-05 8.84213e-05 1.35736e-06
1.39695e-06 1.35736e-06 1.42521e-05
0.0011694 5.24017e-05 1.10338e-06
5.24017e-05 7.98046e-05 8.44279e-07
1.10338e-06 8.44279e-07 7.64753e-06
0.000832202 4.58841e-05 1.05173e-06
4.58841e-05 -5.05957e-05 -1.44907e-07
1.05173e-06 -1.44907e-07 -0.000132977
0.000945057 -2.24045e-06 1.37315e-06
-2.24045e-06 2.79019e-06 2.34089e-06
1.37315e-06 2.34089e-06 -3.18876e-05
0.00102188 1.331e-05 5.12375e-07
1.331e-05 4.70966e-05 1.38618e-06
5.12375e-07 1.38618e-06 -5.1839e-06
0.000949959 -3.73638e-07 7.81923e-07
-3.73638e-07 2.78725e-06 2.00114e-06
7.81923e-07 2.00114e-06 -2.76239e-05
0.000951942 -1.35601e-06 1.21823e-07
-1.35601e-06 4.86645e-06 2.91716e-08
1.21823e-07 2.91716e-08 -2.73437e-05
0.00150481 -1.50633e-05 2.24364e-06
-1.50633e-05 0.000279049 2.15058e-06
2.24364e-06 2.15058e-06 0.000278462
0.00119522 -1.53744e-05 6.11939e-07
-1.53744e-05 0.000126322 4.24728e-09
6.11939e-07 4.24728e-09 0.00012258
0.00116668 -1.56655e-05 1.38569e-05
-1.56655e-05 0.000113255 6.91557e-06
1.38569e-05 6.91557e-06 0.00012628
0.00248015 -2.53238e-05 4.8005e-07
-2.53238e-05 0.000779451 -5.43651e-08
4.8005e-07 -5.43651e-08 0.000797672
0.00254745 -2.88084e-05 -1.69848e-05
-2.88084e-05 0.000817182 -4.11177e-06
-1.69848e-05 -4.11177e-06 0.000834206
0.000842163 1.85066e-05 2.73154e-06
1.85066e-05 -4.12457e-05 -3.54375e-06
2.73154e-06 -3.54375e-06 -4.9622e-05
0.00256728 3.22818e-05 1.77539e-05
3.22818e-05 0.000835 -3.93991e-06
1.77539e-05 -3.93991e-06 0.000850471
0.000838932 2.01605e-05 -1.68426e-07
2.01605e-05 -3.83401e-05 2.11224e-08
-1.68426e-07 2.11224e-08 -4.96186e-05
0.00263292 3.54926e-05 -2.9461e-07
3.54926e-05 0.000873439 -8.11767e-08
-2.9461e-07 -8.11767e-08 0.000887196
0.000836557 2.27359e-05 -4.15096e-06
2.27359e-05 -3.33071e-05 3.72496e-06
-4.15096e-06 3.72496e-06 -4.7453e-05
0.00262393 3.88208e-05 -2.02223e-05
3.88208e-05 0.000876722 3.77609e-06
-2.02223e-05 3.77609e-06 0.000888898
0.00109505 2.36406e-05 -3.38947e-06
2.36406e-05 2.18491e-05 -1.83603e-06
-3.38947e-06 -1.83603e-06 -3.90345e-05
0.00113554 8.71232e-06 -3.95687e-06
8.71232e-06 1.46154e-05 -1.47337e-06
-3.95687e-06 -1.47337e-06 -4.78031e-05
0.00129457 1.88965e-05 -2.01928e-06
1.88965e-05 5.38418e-05 -9.06493e-07
-2.01928e-06 -9.06493e-07 -1.65257e-05
0.00136897 -3.41975e-06 -2.77155e-06
-3.41975e-06 6.36148e-05 -8.88167e-07
-2.77155e-06 -8.88167e-07 -1.0374e-05
0.00117379 3.24896e-06 -4.9942e-06
3.24896e-06 7.55421e-06 -1.07965e-06
-4.9942e-06 -1.07965e-06 -5.75934e-05
0.000727917 9.04021e-07 -7.96468e-06
9.04021e-07 -9.29093e-05 1.01948e-07
-7.96468e-06 1.01948e-07 -0.000132791
0.0011705 2.95661e-06 -2.62583e-08
2.95661e-06 3.38894e-06 -2.44776e-07
-2.62583e-08 -2.44776e-07 -6.18882e-05
0.00136394 3.21713e-06 -9.04632e-09
3.21713e-06 4.99046e-05 -1.51502e-07
-9.04632e-09 -1.51502e-07 -2.62824e-05
0.00131585 5.54475e-06 8.69185e-08
5.54475e-06 5.01988e-05 4.86752e-09
8.69185e-08 4.86752e-09 -2.1523e-05
0.00143485 -8.56949e-06 4.23038e-09
-8.56949e-06 7.10018e-05 3.86893e-08
4.23038e-09 3.86893e-08 -5.1214e-06
0.00124759 2.86902e-05 -4.60542e-08
2.86902e-05 4.75624e-05 -1.46697e-08
-4.60542e-08 -1.46697e-08 -2.19839e-05
0.00136845 2.14526e-05 -9.09869e-09
2.14526e-05 6.22225e-05 1.15414e-07
-9.09869e-09 1.15414e-07 -1.01744e-05
0.00136655 7.39676e-06 3.24374e-06
7.39676e-06 4.92114e-05 -3.17013e-07
3.24374e-06 -3.17013e-07 -2.72607e-05
0.0013782 -1.75813e-06 1.86688e-06
-1.75813e-06 3.76282e-05 6.75993e-07
1.86688e-06 6.75993e-07 -4.08157e-05
0.00137867 8.17427e-06 1.59204e-06
8.17427e-06 5.22991e-05 6.05343e-07
1.59204e-06 6.05343e-07 -2.17087e-05
0.00156111 -1.40286e-05 2.16896e-06
-1.40286e-05 0.000117084 4.6737e-07
2.16896e-06 4.6737e-07 4.24632e-05
0.00131431 2.72217e-05 8.97615e-07
2.72217e-05 5.36198e-05 5.77728e-07
8.97615e-07 5.77728e-07 -1.83849e-05
0.00142528 1.3299e-05 -5.11582e-07
1.3299e-05 7.17486e-05 1.02838e-06
-5.11582e-07 1.02838e-06 4.47938e-06
0.000914627 1.25854e-05 -4.84601e-06
1.25854e-05 -0.000116004 6.60757e-07
-4.84601e-06 6.60757e-07 -0.000181738
0.00141012 -6.95214e-06 -5.61423e-06
-6.95214e-06 0.000148127 1.21987e-06
-5.61423e-06 1.21987e-06 8.77219e-05
0.00139489 1.70347e-05 -3.81263e-06
1.70347e-05 7.93357e-05 3.52873e-07
-3.81263e-06 3.52873e-07 7.03741e-06
0.00160779 -2.86098e-05 -2.25155e-06
-2.86098e-05 0.000200143 3.80184e-07
-2.25155e-06 3.80184e-07 0.000129658
0.000824053 2.86993e-05 -4.37222e-06
2.86993e-05 -2.26761e-05 3.36581e-06
-4.37222e-06 3.36581e-06 -4.1368e-05
0.000936598 -5.8048e-06 -2.56271e-06
-5.8048e-06 2.71761e-05 1.82616e-06
-2.56271e-06 1.82616e-06 -2.45935e-05
0.00100541 -3.78961e-05 -9.51595e-07
-3.78961e-05 3.88487e-05 1.0849e-06
-9.51595e-07 1.0849e-06 -2.72253e-05
0.0014923 -4.13211e-05 -2.24142e-06
-4.13211e-05 0.000189494 1.24873e-06
-2.24142e-06 1.24873e-06 0.000122252
0.00121967 -3.32314e-05 -1.54604e-06
-3.32314e-05 -2.85253e-06 1.26661e-06
-1.54604e-06 1.26661e-06 -7.55579e-05
0.00123981 -4.49928e-05 -1.06658e-06
-4.49928e-05 5.71509e-05 1.06634e-06
-1.06658e-06 1.06634e-06 -1.23847e-05
0.00103757 -4.88835e-05 -1.74654e-06
-4.88835e-05 9.75504e-06 1.43649e-06
-1.74654e-06 1.43649e-06 -6.5485e-05
0.001133 -4.90196e-05 -5.85506e-07
-4.90196e-05 1.2548e-05 5.25349e-07
-5.85506e-07 5.25349e-07 -5.87743e-05
0.000939975 -3.79754e-06 -2.90958e-06
-3.79754e-06 1.38988e-05 1.93568e-06
-2.90958e-06 1.93568e-06 -3.42053e-05
0.000932928 -2.50445e-05 -1.83196e-06
-2.50445e-05 4.99181e-07 9.04279e-07
-1.83196e-06 9.04279e-07 -6.56144e-05
0.000937074 -1.97562e-06 -2.43688e-06
-1.97562e-06 6.3226e-06 2.4308e-06
-2.43688e-06 2.4308e-06 -3.67856e-05
0.00147654 1.68723e-05 -8.08045e-07
1.68723e-05 0.000112477 2.65071e-07
-8.08045e-07 2.65071e-07 3.82681e-05
0.00144487 -1.03883e-05 -3.33068e-07
-1.03883e-05 0.000107074 9.85953e-09
-3.33068e-07 9.85953e-09 3.57733e-05
0.00143968 1.68671e-05 -3.78463e-07
1.68671e-05 7.40118e-05 1.07441e-07
-3.78463e-07 1.07441e-07 -3.10338e-06
0.00147781 -1.98997e-05 -2.03154e-08
-1.98997e-05 0.000102437 -3.07504e-07
-2.03154e-08 -3.07504e-07 2.81744e-05
0.000921981 -2.51233e-06 8.54666e-08
-2.51233e-06 1.43425e-05 -4.87956e-08
8.54666e-08 -4.87956e-08 -3.55732e-05
0.00103862 -3.45789e-05 5.19448e-08
-3.45789e-05 6.01731e-05 6.7379e-08
5.19448e-08 6.7379e-08 -4.35972e-06
0.000976825 -4.80347e-05 2.70694e-07
-4.80347e-05 1.31952e-05 -3.67739e-07
2.70694e-07 -3.67739e-07 -6.15897e-05
0.00129602 -4.30079e-05 -4.74155e-08
-4.30079e-05 6.65053e-05 -1.67531e-07
-4.74155e-08 -1.67531e-07 -3.42045e-06
0.00139072 -3.45566e-05 3.13349e-07
-3.45566e-05 6.37476e-05 6.81794e-07
3.13349e-07 6.81794e-07 -5.03221e-06
0.00119993 -5.55819e-05 6.48281e-08
-5.55819e-05 7.61342e-05 1.17228e-07
6.48281e-08 1.17228e-07 -3.20398e-06
0.00125946 -4.66944e-05 4.10003e-08
-4.66944e-05 5.14163e-05 2.01146e-07
4.10003e-08 2.01146e-07 -1.70396e-05
0.00139838 -5.48851e-05 5.12153e-07
-5.48851e-05 0.000133725 3.46675e-07
5.12153e-07 3.46675e-07 6.60493e-05
0.00104262 -3.11197e-05 1.04895e-07
-3.11197e-05 5.71557e-05 -9.03834e-08
1.04895e-07 -9.03834e-08 -7.37669e-06
0.00113121 -4.61076e-05 -3.54115e-07
-4.61076e-05 0.000102274 1.92076e-07
-3.54115e-07 1.92076e-07 2.78215e-05
0.000937133 3.69869e-06 -1.47017e-07
3.69869e-06 4.81346e-06 7.53923e-08
-1.47017e-07 7.53923e-08 -3.39812e-05
0.000886539 -1.75116e-05 3.21111e-07
-1.75116e-05 -1.93713e-05 -4.99713e-07
3.21111e-07 -4.99713e-07 -8.58426e-05
0.00146076 1.75964e-05 2.71586e-06
1.75964e-05 8.23704e-05 4.77202e-09
2.71586e-06 4.77202e-09 3.44964e-06
0.00158386 -2.96216e-06 2.07606e-06
-2.96216e-06 0.000140974 6.98026e-08
2.07606e-06 6.98026e-08 6.53614e-05
0.00147371 1.93153e-05 2.05113e-06
1.93153e-05 7.68713e-05 3.60455e-07
2.05113e-06 3.60455e-07 -2.4997e-06
0.00136695 -1.5614e-05 8.71019e-07
-1.5614e-05 2.97219e-05 -1.46423e-06
8.71019e-07 -1.46423e-06 -4.26748e-05
0.00120738 -4.20596e-05 3.61722e-07
-4.20596e-05 5.67155e-06 -6.68834e-07
3.61722e-07 -6.68834e-07 -6.15319e-05
0.00158099 -3.38883e-05 1.65861e-06
-3.38883e-05 0.000138203 -6.34234e-07
1.65861e-06 -6.34234e-07 7.47402e-05
0.00101495 -3.05745e-05 1.41191e-06
-3.05745e-05 4.81854e-05 -6.53597e-07
1.41191e-06 -6.53597e-07 -1.57168e-05
0.00124792 -4.68096e-05 -1.6362e-07
-4.68096e-05 3.64306e-05 -3.28532e-07
-1.6362e-07 -3.28532e-07 -2.60965e-05
0.000864348 -4.39672e-05 8.53586e-07
-4.39672e-05 -2.98295e-05 -1.43506e-06
8.53586e-07 -1.43506e-06 -0.000102244
0.00112851 -5.48998e-05 1.79801e-06
-5.48998e-05 7.8373e-05 -1.96448e-06
1.79801e-06 -1.96448e-06 -4.2446e-06
0.00125041 -5.93593e-05 2.18281e-06
-5.93593e-05 9.06065e-05 5.14049e-07
2.18281e-06 5.14049e-07 8.73844e-06
0.00162476 -5.93653e-05 1.21481e-06
-5.93653e-05 0.000234092 -2.47716e-07
1.21481e-06 -2.47716e-07 0.000167128
0.000935994 9.29203e-06 9.91488e-07
9.29203e-06 2.49576e-06 -2.26743e-06
9.91488e-07 -2.26743e-06 -3.27429e-05
0.000818967 -1.16386e-05 1.27991e-06
-1.16386e-05 -5.18312e-05 -2.25139e-06
1.27991e-06 -2.25139e-06 -0.000115418
0.00106076 -4.50185e-05 8.619e-07
-4.50185e-05 6.48804e-05 -1.89574e-09
8.619e-07 -1.89574e-09 -6.66631e-06
0.00107459 -4.38891e-05 1.12766e-06
-4.38891e-05 8.15455e-05 -4.79615e-07
1.12766e-06 -4.79615e-07 3.20391e-06
0.00122097 -5.09351e-05 5.61384e-07
-5.09351e-05 0.0001431 4.38118e-07
5.61384e-07 4.38118e-07 6.62512e-05
0.000845868 -1.75862e-05 -3.11197e-06
-1.75862e-05 -4.31259e-05 -3.72799e-06
-3.11197e-06 -3.72799e-06 -5.20205e-05
0.00122301 3.61718e-05 -1.39524e-06
3.61718e-05 5.50732e-05 -9.3967e-07
-1.39524e-06 -9.3967e-07 -1.39251e-05
0.000941429 9.81567e-07 -2.34065e-06
9.81567e-07 6.59235e-06 -2.37198e-06
-2.34065e-06 -2.37198e-06 -3.60337e-05
0.000928516 1.6454e-06 -2.89865e-06
1.6454e-06 1.1942e-05 -2.01474e-06
-2.89865e-06 -2.01474e-06 -3.51239e-05
0.00101073 1.74467e-05 -1.33836e-06
1.74467e-05 4.30435e-05 -9.82533e-07
-1.33836e-06 -9.82533e-07 -1.98614e-05
0.00107094 4.3532e-05 -1.36137e-06
4.3532e-05 3.59556e-05 -1.40761e-06
-1.36137e-06 -1.40761e-06 -2.92193e-05
0.0012058 4.67738e-05 -8.66684e-07
4.67738e-05 5.12722e-05 -1.11145e-06
-8.66684e-07 -1.11145e-06 -2.17657e-05
0.0010138 2.7677e-05 -1.319e-06
2.7677e-05 5.23553e-05 -7.45932e-07
-1.319e-06 -7.45932e-07 -1.21373e-05
0.00110935 4.8778e-05 -1.11605e-06
4.8778e-05 9.46882e-05 -1.01191e-06
-1.11605e-06 -1.01191e-06 1.95404e-05
0.00131245 5.25001e-05 -1.19493e-06
5.25001e-05 0.000157906 -1.13564e-06
-1.19493e-06 -1.13564e-06 9.02785e-05
0.00103332 4.86136e-05 -2.28183e-06
4.86136e-05 3.49418e-05 2.39319e-07
-2.28183e-06 2.39319e-07 -3.64901e-05
0.000865552 -1.57355e-05 1.39953e-07
-1.57355e-05 -3.663e-05 1.88044e-08
1.39953e-07 1.88044e-08 -4.37309e-05
0.000945068 1.18851e-06 4.85258e-08
1.18851e-06 5.19582e-06 1.39362e-08
4.85258e-08 1.39362e-08 -3.47944e-05
0.00103289 2.40724e-05 -3.77804e-08
2.40724e-05 5.49338e-05 -4.19687e-08
-3.77804e-08 -4.19687e-08 -8.08118e-06
0.00101916 1.38669e-05 3.82984e-08
1.38669e-05 4.5813e-05 -4.89708e-08
3.82984e-08 -4.89708e-08 -1.62315e-05
0.000998602 3.57749e-05 6.66504e-08
3.57749e-05 3.80839e-05 -1.38873e-07
6.66504e-08 -1.38873e-07 -3.4452e-05
0.00127117 3.71812e-05 4.63478e-07
3.71812e-05 5.25772e-05 3.12558e-07
4.63478e-07 3.12558e-07 -2.03301e-05
0.00115369 5.00084e-05 1.10627e-07
5.00084e-05 5.91352e-05 -6.88376e-08
1.10627e-07 -6.88376e-08 -1.15177e-05
0.00123307 5.03474e-05 5.14593e-07
5.03474e-05 5.5352e-05 3.73428e-07
5.14593e-07 3.73428e-07 -2.05425e-05
0.00107492 4.51562e-05 4.48659e-07
4.51562e-05 8.19109e-05 4.13942e-07
4.48659e-07 4.13942e-07 7.75334e-06
0.00122156 5.30869e-05 8.18015e-08
5.30869e-05 0.000105835 -3.12191e-07
8.18015e-08 -3.12191e-07 3.40393e-05
0.000987811 4.92573e-05 -7.49809e-07
4.92573e-05 2.37515e-05 -4.18197e-07
-7.49809e-07 -4.18197e-07 -5.7886e-05
0.000944347 6.31177e-07 1.86092e-06
6.31177e-07 3.64226e-06 2.40376e-06
1.86092e-06 2.40376e-06 -3.37473e-05
0.00102653 1.37907e-05 1.2197e-06
1.37907e-05 4.75338e-05 1.27276e-06
1.2197e-06 1.27276e-06 -1.29532e-05
0.00103085 4.09769e-05 6.73781e-07
4.09769e-05 5.30587e-05 2.09555e-07
6.73781e-07 2.09555e-07 -1.93069e-05
0.00105671 3.40997e-05 7.24823e-07
3.40997e-05 6.77899e-05 3.78177e-07
7.24823e-07 3.78177e-07 -4.97139e-06
0.00111472 4.56012e-05 2.93489e-08
4.56012e-05 9.60028e-05 -3.22289e-07
2.93489e-08 -3.22289e-07 1.91556e-05
0.00123803 3.56682e-05 -3.64698e-07
3.56682e-05 2.44142e-05 2.97091e-07
-3.64698e-07 2.97091e-07 -4.8838e-05
0.00118396 5.45912e-05 1.02385e-06
5.45912e-05 6.56009e-05 1.3582e-06
1.02385e-06 1.3582e-06 -8.58118e-06
0.00106176 5.33616e-05 7.73031e-08
5.33616e-05 -2.5757e-05 7.85941e-07
7.73031e-08 7.85941e-07 -0.000101086
0.00106479 5.03221e-05 7.7299e-07
5.03221e-05 7.61346e-05 1.66838e-06
7.7299e-07 1.66838e-06 -6.59009e-06
0.00118338 5.60459e-05 2.08264e-06
5.60459e-05 9.55615e-05 4.84809e-07
2.08264e-06 4.84809e-07 1.07438e-05
0.000946705 -1.67378e-06 1.70077e-07
-1.67378e-06 3.44733e-06 3.16451e-08
1.70077e-07 3.16451e-08 -3.11475e-05
0.000856962 8.03204e-06 9.75893e-07
8.03204e-06 -3.74471e-05 2.0204e-06
9.75893e-07 2.0204e-06 -9.44302e-05
0.000930297 8.42603e-06 -1.25332e-07
8.42603e-06 8.3118e-07 6.18081e-08
-1.25332e-07 6.18081e-08 -5.22473e-05
0.00121598 2.977e-05 2.91933e-07
2.977e-05 0.000152327 3.64296e-07
2.91933e-07 3.64296e-07 8.63092e-05
0.000990926 8.98516e-06 4.9213e-07
8.98516e-06 3.35078e-05 1.26784e-06
4.9213e-07 1.26784e-06 -1.69058e-05
0.000959984 3.27996e-06 6.91106e-07
3.27996e-06 7.024e-06 1.90681e-06
6.91106e-07 1.90681e-06 -2.22009e-05
0.000958757 -7.06874e-07 1.0653e-07
-7.06874e-07 7.38063e-06 1.56803e-08
1.0653e-07 1.56803e-08 -2.30714e-05
0.00149497 -1.25605e-05 1.76933e-06
-1.25605e-05 0.000270739 2.07344e-06
1.76933e-06 2.07344e-06 0.000271604
0.000956373 2.11396e-07 -1.0328e-06
2.11396e-07 7.16067e-06 -2.0813e-06
-1.0328e-06 -2.0813e-06 -2.50337e-05
0.00152189 -1.42368e-05 -2.3402e-06
-1.42368e-05 0.000287563 -1.28465e-06
-2.3402e-06 -1.28465e-06 0.000287096
0.00116497 -1.35651e-05 1.18736e-05
-1.35651e-05 0.000107839 6.74026e-06
1.18736e-05 6.74026e-06 0.000122299
0.00151889 -1.57568e-05 -6.57608e-06
-1.57568e-05 0.000289479 -3.41905e-06
-6.57608e-06 -3.41905e-06 0.000287502
0.00177528 -1.89682e-05 9.85208e-06
-1.89682e-05 0.000420226 2.43541e-06
9.85208e-06 2.43541e-06 0.000436527
0.00248744 -2.54568e-05 -1.52527e-05
-2.54568e-05 0.000782756 -4.11917e-06
-1.52527e-05 -4.11917e-06 0.00080107
0.000854527 1.72603e-05 2.25859e-06
1.72603e-05 -3.92013e-05 -3.35802e-06
2.25859e-06 -3.35802e-06 -4.51743e-05
0.000855521 1.86523e-05 -1.68859e-07
1.86523e-05 -3.45599e-05 3.48035e-08
-1.68859e-07 3.48035e-08 -4.31079e-05
0.00247012 2.90024e-05 1.58495e-05
2.90024e-05 0.000781334 -3.90448e-06
1.58495e-05 -3.90448e-06 0.000798471
0.00256456 3.21146e-05 -3.38358e-07
3.21146e-05 0.000833989 -6.80779e-08
-3.38358e-07 -6.80779e-08 0.000849309
0.000852321 2.05279e-05 -3.60555e-06
2.05279e-05 -3.12369e-05 3.76171e-06
-3.60555e-06 3.76171e-06 -4.27483e-05
0.0026118 3.53984e-05 -1.97323e-05
3.53984e-05 0.000863608 3.97899e-06
-1.97323e-05 3.97899e-06 0.000877244
0.00125851 2.89366e-05 -1.84492e-06
2.89366e-05 5.26717e-05 -9.74719e-07
-1.84492e-06 -9.74719e-07 -1.6923e-05
0.00132716 5.43987e-06 -2.34245e-06
5.43987e-06 5.58389e-05 -8.87688e-07
-2.34245e-06 -8.87688e-07 -1.58855e-05
0.0013776 2.17859e-05 -1.15039e-06
2.17859e-05 6.69173e-05 -5.79332e-07
-1.15039e-06 -5.79332e-07 -5.50717e-06
0.00142922 -9.44048e-06 -1.89351e-06
-9.44048e-06 6.70576e-05 -5.74591e-07
-1.89351e-06 -5.74591e-07 -9.17693e-06
0.00138518 6.38398e-06 -2.96903e-06
6.38398e-06 6.02226e-05 -8.06208e-07
-2.96903e-06 -8.06208e-07 -1.59951e-05
0.00117 7.44788e-06 -5.00621e-06
7.44788e-06 2.86091e-06 -1.07676e-07
-5.00621e-06 -1.07676e-07 -6.24332e-05
0.001375 1.17256e-05 4.71323e-08
1.17256e-05 5.33718e-05 -2.98431e-07
4.71323e-08 -2.98431e-07 -2.31381e-05
0.00141087 -9.01909e-06 3.64764e-08
-9.01909e-06 5.26628e-05 6.9358e-08
3.64764e-08 6.9358e-08 -2.61322e-05
0.0013977 6.90093e-06 6.0421e-08
6.90093e-06 6.17746e-05 -7.11264e-08
6.0421e-08 -7.11264e-08 -1.2212e-05
0.00154283 -1.49266e-05 1.14932e-07
-1.49266e-05 0.000107618 -1.84025e-07
1.14932e-07 -1.84025e-07 3.30072e-05
0.00132272 2.80225e-05 -3.83289e-08
2.80225e-05 5.75216e-05 4.89096e-09
-3.83289e-08 4.89096e-09 -1.4624e-05
0.0014188 1.3287e-05 -8.31718e-08
1.3287e-05 6.73423e-05 7.47556e-07
-8.31718e-08 7.47556e-07 4.74744e-07
0.00144388 2.04229e-06 2.49544e-06
2.04229e-06 6.86155e-05 -9.17519e-08
2.49544e-06 -9.17519e-08 -1.11858e-05
0.00143325 -2.39678e-06 2.00457e-06
-2.39678e-06 5.85055e-05 3.55238e-07
2.00457e-06 3.55238e-07 -2.02538e-05
0.00127539 7.65786e-09 1.11234e-06
7.65786e-09 -1.96631e-05 1.64008e-06
1.11234e-06 1.64008e-06 -8.99104e-05
0.00175525 -2.09476e-05 2.15099e-06
-2.09476e-05 0.000203322 4.11587e-07
2.15099e-06 4.11587e-07 0.000128991
0.00128786 2.36207e-05 -3.57114e-07
2.36207e-05 2.18866e-05 -4.44516e-08
-3.57114e-07 -4.44516e-08 -4.71638e-05
0.00163554 7.15703e-06 7.21851e-07
7.15703e-06 0.000154246 7.64495e-07
7.21851e-07 7.64495e-07 9.34319e-05
0.0013248 1.63004e-05 -3.87181e-06
1.63004e-05 3.70056e-05 5.33124e-07
-3.87181e-06 5.33124e-07 -3.81191e-05
0.00143738 -1.24944e-05 -3.31141e-06
-1.24944e-05 0.000102874 3.63663e-07
-3.31141e-06 3.63663e-07 3.16742e-05
0.00133168 1.7006e-05 -2.89592e-06
1.7006e-05 1.98813e-05 -5.83331e-08
-2.89592e-06 -5.83331e-08 -5.77749e-05
0.00157036 -1.91098e-05 -1.85345e-06
-1.91098e-05 0.000146963 2.57312e-07
-1.85345e-06 2.57312e-07 7.29705e-05
0.000938093 -3.47813e-06 -2.72832e-06
-3.47813e-06 2.06584e-05 1.77422e-06
-2.72832e-06 1.77422e-06 -2.9014e-05
0.00106728 -3.55138e-05 -1.35722e-06
-3.55138e-05 7.33427e-05 1.11463e-06
-1.35722e-06 1.11463e-06 8.78534e-06
0.00106064 -4.94692e-05 -8.2336e-07
-4.94692e-05 5.64691e-05 1.26976e-06
-8.2336e-07 1.26976e-06 -1.77497e-05
0.00146929 -4.52688e-05 -1.11282e-06
-4.52688e-05 0.000151706 8.37587e-07
-1.11282e-06 8.37587e-07 8.18502e-05
0.00127203 -3.32802e-05 -6.12073e-07
-3.32802e-05 5.43042e-06 1.18007e-06
-6.12073e-07 1.18007e-06 -6.24728e-05
0.00127082 -4.63641e-05 -4.38733e-07
-4.63641e-05 5.68528e-05 1.06522e-06
-4.38733e-07 1.06522e-06 -1.15144e-05
0.00105958 -5.30509e-05 -1.72798e-06
-5.30509e-05 8.85465e-06 1.12555e-06
-1.72798e-06 1.12555e-06 -7.14374e-05
0.00125097 -5.19341e-05 -4.2191e-08
-5.19341e-05 6.1542e-05 -8.02976e-07
-4.2191e-08 -8.02976e-07 -5.37171e-06
0.00105553 -3.15159e-05 -1.61412e-06
-3.15159e-05 6.26236e-05 6.80119e-07
-1.61412e-06 6.80119e-07 -1.71118e-06
0.00103441 -4.394e-05 -1.6075e-06
-4.394e-05 5.31372e-05 2.71602e-07
-1.6075e-06 2.71602e-07 -2.16705e-05
0.000925742 2.83544e-06 -1.90124e-06
2.83544e-06 -3.50643e-07 2.44848e-06
-1.90124e-06 2.44848e-06 -3.92937e-05
0.000913205 -1.65197e-05 -1.02278e-06
-1.65197e-05 -6.67734e-06 1.0599e-06
-1.02278e-06 1.0599e-06 -7.27839e-05
0.00145134 1.79053e-05 -7.79874e-08
1.79053e-05 7.80814e-05 7.37287e-08
-7.79874e-08 7.37287e-08 -7.66087e-07
0.00156629 -7.27034e-07 -2.51813e-07
-7.27034e-07 0.000133258 1.25763e-07
-2.51813e-07 1.25763e-07 5.7739e-05
0.00144064 1.93355e-05 -6.06584e-07
1.93355e-05 6.16368e-05 8.46727e-08
-6.06584e-07 8.46727e-08 -1.79865e-05
0.0014256 -1.63845e-05 -2.20112e-07
-1.63845e-05 5.84254e-05 -2.0357e-07
-2.20112e-07 -2.0357e-07 -1.38565e-05
0.00103896 -3.18362e-05 9.31615e-08
-3.18362e-05 5.88543e-05 -2.70485e-08
9.31615e-08 -2.70485e-08 -4.96897e-06
0.000935466 -4.48571e-05 2.828e-07
-4.48571e-05 5.93933e-06 -1.57161e-07
2.828e-07 -1.57161e-07 -6.58978e-05
0.00113469 -5.4949e-05 3.6253e-08
-5.4949e-05 8.2521e-05 -1.16224e-07
3.6253e-08 -1.16224e-07 -3.36197e-07
0.00132947 -4.33858e-05 -4.49758e-07
-4.33858e-05 6.50998e-05 -9.54107e-08
-4.49758e-07 -9.54107e-08 -2.70794e-06
0.00141382 -3.33285e-05 4.12145e-07
-3.33285e-05 6.28329e-05 5.49644e-07
4.12145e-07 5.49644e-07 9.66511e-07
0.00125885 -5.93277e-05 -7.43987e-08
-5.93277e-05 9.58511e-05 4.05868e-07
-7.43987e-08 4.05868e-07 1.3343e-05
0.0012692 -4.67492e-05 1.96262e-08
-4.67492e-05 4.75151e-05 4.20877e-07
1.96262e-08 4.20877e-07 -1.50257e-05
0.00136188 -5.47025e-05 5.61158e-07
-5.47025e-05 0.000105566 -1.49783e-06
5.61158e-07 -1.49783e-06 4.07067e-05
0.0010799 -4.5327e-05 1.26028e-07
-4.5327e-05 7.39367e-05 1.3178e-08
1.26028e-07 1.3178e-08 2.41374e-06
0.00115268 -4.93738e-05 -5.59944e-08
-4.93738e-05 0.000108447 6.63403e-08
-5.59944e-08 6.63403e-08 3.16822e-05
0.00108897 -4.41078e-05 -1.22899e-07
-4.41078e-05 8.89829e-05 2.15013e-07
-1.22899e-07 2.15013e-07 1.03258e-05
0.000793536 1.22743e-05 -3.52714e-07
1.22743e-05 -6.87899e-05 3.00626e-08
-3.52714e-07 3.00626e-08 -0.000105105
0.000859196 -9.41801e-06 3.23354e-07
-9.41801e-06 -3.31142e-05 -5.14101e-07
3.23354e-07 -5.14101e-07 -9.59878e-05
0.00152615 2.43239e-05 2.32858e-06
2.43239e-05 0.000103134 3.79034e-07
2.32858e-06 3.79034e-07 2.2078e-05
0.00149674 1.31336e-05 2.40598e-06
1.31336e-05 7.47912e-05 1.43078e-07
2.40598e-06 1.43078e-07 -4.24214e-06
0.00145641 -1.90865e-05 1.88068e-06
-1.90865e-05 5.6926e-05 -2.23421e-06
1.88068e-06 -2.23421e-06 -9.2756e-06
0.00125958 -3.79646e-05 1.13604e-06
-3.79646e-05 5.07421e-06 -1.33993e-06
1.13604e-06 -1.33993e-06 -5.45442e-05
0.0010583 -4.6101e-05 5.81798e-07
-4.6101e-05 6.56981e-05 -3.14838e-07
5.81798e-07 -3.14838e-07 -4.51506e-06
0.00153973 -5.24089e-05 1.10133e-06
-5.24089e-05 0.000158311 -5.57733e-07
1.10133e-06 -5.57733e-07 0.000102529
0.000737004 -4.37864e-05 1.04317e-06
-4.37864e-05 -9.05621e-05 -2.31007e-06
1.04317e-06 -2.31007e-06 -0.000169313
0.00120374 -6.00063e-05 2.58587e-06
-6.00063e-05 0.000106324 -1.93018e-06
2.58587e-06 -1.93018e-06 1.48347e-05
0.00135922 -6.27648e-05 2.46567e-06
-6.27648e-05 0.000128277 5.26124e-07
2.46567e-06 5.26124e-07 4.44943e-05
0.000687756 1.1911e-05 8.78118e-07
1.1911e-05 -0.000124855 -2.78592e-06
8.78118e-07 -2.78592e-06 -0.00015899
0.0010858 -3.68448e-06 8.64489e-07
-3.68448e-06 8.07178e-05 -1.4579e-06
8.64489e-07 -1.4579e-06 2.36962e-05
0.00103387 -4.03346e-05 8.292e-07
-4.03346e-05 6.46689e-05 -9.56577e-07
8.292e-07 -9.56577e-07 -1.17427e-05
0.00108734 -4.79531e-05 4.79749e-07
-4.79531e-05 7.4623e-05 8.09504e-08
4.79749e-07 8.09504e-08 8.36273e-07
0.00114963 -4.93261e-05 9.6443e-07
-4.93261e-05 0.00011729 2.84762e-07
9.6443e-07 2.84762e-07 3.17889e-05
0.00110041 -4.92409e-05 3.26369e-07
-4.92409e-05 7.79948e-05 -1.28467e-08
3.26369e-07 -1.28467e-08 -8.63493e-07
0.000856272 -1.5556e-05 -2.60446e-06
-1.5556e-05 -4.13942e-05 -3.65693e-06
-2.60446e-06 -3.65693e-06 -4.83627e-05
0.000945843 7.4038e-07 -2.11396e-06
7.4038e-07 5.4719e-06 -2.4613e-06
-2.11396e-06 -2.4613e-06 -3.45007e-05
0.0013128 3.82731e-05 -6.63162e-07
3.82731e-05 7.18651e-05 -5.42903e-07
-6.63162e-07 -5.42903e-07 -1.09368e-06
0.00100559 1.33226e-05 -1.28503e-06
1.33226e-05 3.97248e-05 -1.22182e-06
-1.28503e-06 -1.22182e-06 -2.24524e-05
0.00101844 2.41659e-05 -1.50475e-06
2.41659e-05 4.87137e-05 -7.02974e-07
-1.50475e-06 -7.02974e-07 -1.43908e-05
0.000970051 3.45552e-05 -5.8942e-07
3.45552e-05 2.3713e-05 -2.55053e-07
-5.8942e-07 -2.55053e-07 -4.8821e-05
0.0011429 4.99862e-05 -6.70505e-07
4.99862e-05 5.43224e-05 -1.59923e-06
-6.70505e-07 -1.59923e-06 -1.63552e-05
0.00119803 5.06038e-05 -1.97409e-07
5.06038e-05 3.82054e-05 -1.04494e-06
-1.97409e-07 -1.04494e-06 -3.80098e-05
0.00105446 4.53196e-05 -3.735e-07
4.53196e-05 7.25106e-05 -4.64217e-07
-3.735e-07 -4.64217e-07 -1.61675e-06
0.00113889 5.24928e-05 -1.32292e-06
5.24928e-05 9.59356e-05 -5.10674e-07
-1.32292e-06 -5.10674e-07 1.50441e-05
0.00127325 5.37796e-05 -1.63181e-06
5.37796e-05 0.000131769 -1.01301e-06
-1.63181e-06 -1.01301e-06 6.03192e-05
0.000946721 1.67877e-07 1.86843e-07
1.67877e-07 4.55665e-06 2.29274e-08
1.86843e-07 2.29274e-08 -3.2757e-05
0.00102062 1.38309e-05 -1.4108e-09
1.38309e-05 4.50244e-05 -5.74916e-08
-1.4108e-09 -5.74916e-08 -1.56083e-05
0.00105442 4.17637e-05 -1.51202e-07
4.17637e-05 6.52298e-05 -1.42887e-07
-1.51202e-07 -1.42887e-07 -6.69691e-06
0.00105899 3.50195e-05 -8.68297e-08
3.50195e-05 6.93861e-05 -2.32096e-08
-8.68297e-08 -2.32096e-08 -3.6123e-06
0.00105308 4.45201e-05 -2.99357e-07
4.45201e-05 6.59494e-05 -3.39766e-08
-2.99357e-07 -3.39766e-08 -1.12899e-05
0.00128756 3.77565e-05 -3.42465e-07
3.77565e-05 4.90698e-05 -8.94161e-08
-3.42465e-07 -8.94161e-08 -2.46345e-05
0.00118566 5.43544e-05 4.8842e-07
5.43544e-05 6.53383e-05 -1.26708e-07
4.8842e-07 -1.26708e-07 -8.92363e-06
0.00116554 5.41522e-05 2.3561e-07
5.41522e-05 2.27595e-05 4.27207e-07
2.3561e-07 4.27207e-07 -5.22563e-05
0.000968525 4.8277e-05 3.83584e-07
4.8277e-05 2.88795e-05 6.05934e-07
3.83584e-07 6.05934e-07 -5.42557e-05
0.00120735 5.67481e-05 -3.0499e-08
5.67481e-05 0.00010774 -1.75798e-07
-3.0499e-08 -1.75798e-07 2.15199e-05
0.00102254 1.47092e-05 1.14896e-06
1.47092e-05 4.53523e-05 1.45776e-06
1.14896e-06 1.45776e-06 -1.32542e-05
0.000938066 3.43382e-05 1.28652e-06
3.43382e-05 8.27034e-06 8.50667e-07
1.28652e-06 8.50667e-07 -6.57327e-05
0.00111047 5.04773e-05 3.42051e-08
5.04773e-05 9.28463e-05 3.28747e-07
3.42051e-08 3.28747e-07 1.38517e-05
0.000962174 4.23726e-05 3.92553e-07
4.23726e-05 2.00767e-05 -6.43841e-08
3.92553e-07 -6.43841e-08 -5.91503e-05
0.0010965 4.82109e-05 -1.42477e-07
4.82109e-05 8.13149e-05 -2.66666e-07
-1.42477e-07 -2.66666e-07 1.18472e-06
0.00125495 3.9138e-05 3.90987e-07
3.9138e-05 2.46031e-06 3.70185e-07
3.90987e-07 3.70185e-07 -5.86775e-05
0.00131914 6.19695e-05 1.32781e-06
6.19695e-05 0.000129958 6.85292e-07
1.32781e-06 6.85292e-07 4.60981e-05
0.000628813 4.93364e-05 9.76992e-07
4.93364e-05 -0.000252364 9.9225e-07
9.76992e-07 9.9225e-07 -0.000329302
0.0013894 5.94673e-05 2.09909e-06
5.94673e-05 0.000224538 2.49257e-06
2.09909e-06 2.49257e-06 0.000135421
0.000613523 4.79339e-05 5.8444e-07
4.79339e-05 -0.000186849 7.15089e-07
5.8444e-07 7.15089e-07 -0.000284224
0.000949745 -6.66515e-07 -1.20733e-06
-6.66515e-07 4.78915e-06 -2.2881e-06
-1.20733e-06 -2.2881e-06 -2.97346e-05
0.00092358 1.06104e-05 4.41327e-07
1.06104e-05 -3.2013e-06 5.6839e-07
4.41327e-07 5.6839e-07 -5.99377e-05
0.000926969 2.68017e-05 8.4527e-07
2.68017e-05 5.78556e-06 1.26823e-06
8.4527e-07 1.26823e-06 -6.53308e-05
0.00084229 1.05087e-06 -3.62123e-07
1.05087e-06 -4.38074e-05 -1.39689e-06
-3.62123e-07 -1.39689e-06 -9.76152e-05
0.000995025 1.06093e-05 3.41365e-08
1.06093e-05 3.55107e-05 3.75461e-08
3.41365e-08 3.75461e-08 -1.49307e-05
0.00107442 2.44736e-05 -2.0432e-07
2.44736e-05 8.04556e-05 -5.60902e-07
-2.0432e-07 -5.60902e-07 1.35524e-05
0.00117516 3.91624e-05 2.56219e-07
3.91624e-05 0.000135583 2.29542e-07
2.56219e-07 2.29542e-07 5.84486e-05
0.000902535 8.42076e-06 2.3418e-07
8.42076e-06 -6.08005e-06 1.37265e-06
2.3418e-07 1.37265e-06 -7.19857e-05
0.000981839 -3.94403e-06 2.18087e-07
-3.94403e-06 3.06576e-05 1.18908e-06
2.18087e-07 1.18908e-06 -1.81958e-05
0.000970507 5.95531e-06 6.2266e-07
5.95531e-06 1.17201e-05 1.84057e-06
6.2266e-07 1.84057e-06 -1.68445e-05
0.000964248 -1.63966e-06 -8.15733e-08
-1.63966e-06 9.34791e-06 1.76369e-08
-8.15733e-08 1.76369e-08 -1.9908e-05
0.00148473 -9.80278e-06 1.32049e-06
-9.80278e-06 0.000262329 2.02091e-06
1.32049e-06 2.02091e-06 0.000264436
0.000966454 -6.69624e-07 -6.05893e-07
-6.69624e-07 1.13843e-05 -1.95322e-06
-6.05893e-07 -1.95322e-06 -1.90817e-05
0.00150901 -1.18529e-05 -1.91864e-06
-1.18529e-05 0.000277868 -1.26694e-06
-1.91864e-06 -1.26694e-06 0.000278804
0.00115821 -1.14104e-05 9.67906e-06
-1.14104e-05 0.000100328 6.64459e-06
9.67906e-06 6.64459e-06 0.000115991
0.00153799 -1.36289e-05 -5.99822e-06
-1.36289e-05 0.000295594 -4.64363e-06
-5.99822e-06 -4.64363e-06 0.000295232
0.00110554 -1.43197e-05 3.88171e-06
-1.43197e-05 7.80931e-05 2.55888e-06
3.88171e-06 2.55888e-06 9.26374e-05
0.00237297 -2.44087e-05 -4.9242e-06
-2.44087e-05 0.00072176 -1.71568e-06
-4.9242e-06 -1.71568e-06 0.000741228
0.00086319 1.56003e-05 1.90611e-06
1.56003e-05 -3.93746e-05 -3.28724e-06
1.90611e-06 -3.28724e-06 -4.33803e-05
0.000869748 1.72924e-05 -1.28033e-07
1.72924e-05 -3.1873e-05 4.03071e-08
-1.28033e-07 4.03071e-08 -3.79473e-05
0.00238975 2.57244e-05 1.39546e-05
2.57244e-05 0.000735649 -3.89502e-06
1.39546e-05 -3.89502e-06 0.000754366
0.000868318 1.8801e-05 -3.09043e-06
1.8801e-05 -2.81523e-05 3.62091e-06
-3.09043e-06 3.62091e-06 -3.68703e-05
0.00247687 2.88221e-05 -4.49848e-07
2.88221e-05 0.000785091 -5.88107e-08
-4.49848e-07 -5.88107e-08 0.000802041
0.00255877 3.19662e-05 -1.86802e-05
3.19662e-05 0.000831499 4.07443e-06
-1.86802e-05 4.07443e-06 0.000846668
0.00133054 2.87673e-05 -1.24269e-06
2.87673e-05 6.11626e-05 -6.62082e-07
-1.24269e-06 -6.62082e-07 -1.11255e-05
0.00142109 4.81224e-06 -1.36569e-06
4.81224e-06 7.33923e-05 -7.38192e-07
-1.36569e-06 -7.38192e-07 -5.70239e-07
0.0014071 1.32791e-05 3.60615e-07
1.32791e-05 6.02682e-05 -3.13903e-07
3.60615e-07 -3.13903e-07 -6.17433e-06
0.00152053 -1.58747e-05 -1.81905e-06
-1.58747e-05 9.62069e-05 -6.44223e-07
-1.81905e-06 -6.44223e-07 2.16069e-05
0.00144465 -1.35891e-05 -1.99603e-06
-1.35891e-05 6.82732e-05 -4.68468e-07
-1.99603e-06 -4.68468e-07 -1.08857e-05
0.00137895 1.49276e-05 -2.99348e-06
1.49276e-05 5.53817e-05 -2.3686e-07
-2.99348e-06 -2.3686e-07 -2.11539e-05
0.00144299 5.53624e-06 3.45222e-08
5.53624e-06 6.80947e-05 -1.59154e-07
3.45222e-08 -1.59154e-07 -1.18467e-05
0.00143915 -6.273e-06 2.29463e-07
-6.273e-06 6.16611e-05 -5.84109e-08
2.29463e-07 -5.84109e-08 -1.70178e-05
0.00135445 -1.50699e-06 -1.62705e-07
-1.50699e-06 1.66459e-05 8.16997e-08
-1.62705e-07 8.16997e-08 -5.41755e-05
0.00155676 -2.00856e-05 -2.21134e-07
-2.00856e-05 0.000107789 -3.74688e-07
-2.21134e-07 -3.74688e-07 3.2935e-05
0.00132572 2.42733e-05 -2.65813e-07
2.42733e-05 4.18337e-05 1.78237e-08
-2.65813e-07 1.78237e-08 -2.75476e-05
0.00146211 7.64384e-06 1.44753e-06
7.64384e-06 7.12352e-05 -3.81883e-07
1.44753e-06 -3.81883e-07 1.26878e-05
0.00144022 1.24858e-05 1.60859e-06
1.24858e-05 6.42998e-05 3.54677e-07
1.60859e-06 3.54677e-07 -1.58174e-05
0.00146519 -1.4017e-05 2.25286e-06
-1.4017e-05 7.53959e-05 2.4997e-07
2.25286e-06 2.4997e-07 -2.60803e-06
0.00146948 -9.40405e-06 1.25546e-06
-9.40405e-06 5.95975e-05 1.77147e-06
1.25546e-06 1.77147e-06 -7.38223e-06
0.00143309 2.11699e-05 2.24996e-07
2.11699e-05 6.38498e-05 3.70321e-07
2.24996e-07 3.70321e-07 8.70233e-06
0.00144213 1.81611e-05 -2.3122e-06
1.81611e-05 7.38819e-05 1.50518e-07
-2.3122e-06 1.50518e-07 -4.88937e-06
0.00155239 -1.51389e-07 -2.83824e-06
-1.51389e-07 0.000127242 2.55787e-07
-2.83824e-06 2.55787e-07 5.18269e-05
0.00138773 1.91753e-05 -3.314e-06
1.91753e-05 3.69316e-05 -1.01503e-07
-3.314e-06 -1.01503e-07 -4.29539e-05
0.00148462 -1.68426e-05 -1.36812e-06
-1.68426e-05 8.72662e-05 7.45399e-07
-1.36812e-06 7.45399e-07 1.50969e-05
0.00105952 -3.27454e-05 -1.3846e-06
-3.27454e-05 6.78168e-05 7.20675e-07
-1.3846e-06 7.20675e-07 4.10132e-06
0.00102324 -4.61204e-05 -3.11826e-07
-4.61204e-05 4.96278e-05 8.86767e-07
-3.11826e-07 8.86767e-07 -2.16334e-05
0.00113748 -5.49335e-05 -1.41345e-06
-5.49335e-05 8.50618e-05 2.1337e-06
-1.41345e-06 2.1337e-06 1.96434e-06
0.00145087 -4.46656e-05 -9.19437e-07
-4.46656e-05 0.000124181 7.99498e-07
-9.19437e-07 7.99498e-07 5.57736e-05
0.00125503 -3.28337e-05 -7.39982e-07
-3.28337e-05 -8.42565e-06 1.85058e-06
-7.39982e-07 1.85058e-06 -6.87117e-05
0.00127823 -4.65498e-05 -9.47625e-08
-4.65498e-05 5.28097e-05 1.21888e-06
-9.47625e-08 1.21888e-06 -9.74996e-06
0.00126693 -5.92681e-05 -2.07723e-06
-5.92681e-05 0.000100952 6.16196e-07
-2.07723e-06 6.16196e-07 1.78003e-05
0.00113269 -5.05509e-05 -1.80238e-06
-5.05509e-05 -6.38871e-06 -3.23534e-06
-1.80238e-06 -3.23534e-06 -6.92151e-05
0.00109869 -4.5735e-05 -7.68543e-07
-4.5735e-05 8.28254e-05 1.68613e-07
-7.68543e-07 1.68613e-07 1.13198e-05
0.00108343 -4.77852e-05 -1.34281e-06
-4.77852e-05 7.32308e-05 -3.34975e-07
-1.34281e-06 -3.34975e-07 -3.43622e-06
0.0011021 -4.46998e-05 -1.20762e-06
-4.46998e-05 9.58769e-05 9.86649e-07
-1.20762e-06 9.86649e-07 1.68759e-05
0.000653791 1.1217e-05 -1.30587e-06
1.1217e-05 -0.00013885 2.307e-06
-1.30587e-06 2.307e-06 -0.000176168
0.000903906 -7.35369e-06 -4.95233e-07
-7.35369e-06 -1.22157e-05 1.1505e-06
-4.95233e-07 1.1505e-06 -7.43566e-05
0.00145243 2.29563e-05 5.33205e-08
2.29563e-05 6.73165e-05 -1.40394e-07
5.33205e-08 -1.40394e-07 -1.36691e-05
0.00152717 1.24274e-05 -1.80032e-07
1.24274e-05 9.17965e-05 2.1548e-07
-1.80032e-07 2.1548e-07 1.32048e-05
0.00150142 -1.91091e-05 -6.35809e-07
-1.91091e-05 8.2878e-05 1.82721e-07
-6.35809e-07 1.82721e-07 1.67228e-05
0.0010861 -4.62228e-05 4.24034e-08
-4.62228e-05 7.82951e-05 8.77998e-08
4.24034e-08 8.77998e-08 8.10754e-06
0.000978679 -4.88899e-05 4.89854e-07
-4.88899e-05 2.70877e-05 -3.63181e-07
4.89854e-07 -3.63181e-07 -5.08442e-05
0.00116659 -5.91243e-05 -7.41782e-08
-5.91243e-05 9.0455e-05 -2.47625e-08
-7.41782e-08 -2.47625e-08 -1.53346e-06
0.00133094 -3.85448e-05 2.16048e-07
-3.85448e-05 3.9029e-05 -3.25942e-07
2.16048e-07 -3.25942e-07 -2.13165e-05
0.00131008 -6.03709e-05 -8.78267e-08
-6.03709e-05 0.000105085 -4.86207e-07
-8.78267e-08 -4.86207e-07 2.36673e-05
0.00132195 -5.11052e-05 -5.03678e-07
-5.11052e-05 5.53618e-05 -5.12463e-07
-5.03678e-07 -5.12463e-07 -1.02095e-06
0.000685019 1.66311e-05 -4.27058e-08
1.66311e-05 -0.00012596 -6.43993e-07
-4.27058e-08 -6.43993e-07 -0.000159849
0.00110034 -4.82585e-05 7.74218e-08
-4.82585e-05 8.10419e-05 1.30827e-07
7.74218e-08 1.30827e-07 7.0781e-06
0.00106534 -4.83506e-05 -8.69098e-07
-4.83506e-05 6.10628e-05 -7.35758e-08
-8.69098e-07 -7.35758e-08 -1.68555e-05
0.00115343 -4.92491e-05 -4.09097e-07
-4.92491e-05 0.000118977 3.60448e-07
-4.09097e-07 3.60448e-07 3.36257e-05
0.00112661 -4.17941e-05 -9.94963e-08
-4.17941e-05 0.000110554 4.78192e-08
-9.94963e-08 4.78192e-08 3.43788e-05
0.000969805 -5.44691e-06 1.43297e-07
-5.44691e-06 2.15542e-05 2.1561e-07
1.43297e-07 2.1561e-07 -3.61528e-05
0.00157229 2.65032e-05 2.43172e-06
2.65032e-05 0.00011926 1.08177e-06
2.43172e-06 1.08177e-06 3.79746e-05
0.00153872 1.27156e-05 2.74514e-06
1.27156e-05 8.02566e-05 -3.71458e-07
2.74514e-06 -3.71458e-07 2.72551e-06
0.00129416 -2.4118e-05 2.32534e-06
-2.4118e-05 -2.76607e-05 -2.79945e-06
2.32534e-06 -2.79945e-06 -8.66071e-05
0.00154135 -4.58092e-05 1.82179e-06
-4.58092e-05 0.00010946 -1.72879e-06
1.82179e-06 -1.72879e-06 6.04797e-05
0.00108206 -4.90536e-05 4.947e-07
-4.90536e-05 7.52357e-05 -7.38219e-07
4.947e-07 -7.38219e-07 9.2225e-07
0.00137393 -6.03024e-05 3.09945e-06
-6.03024e-05 9.30097e-05 7.75866e-07
3.09945e-06 7.75866e-07 2.28101e-05
0.000880401 -5.05007e-05 1.22289e-06
-5.05007e-05 -2.48158e-05 -2.91239e-06
1.22289e-06 -2.91239e-06 -0.000114477
0.00142266 -6.7474e-05 2.22503e-06
-6.7474e-05 0.000205373 -1.08151e-06
2.22503e-06 -1.08151e-06 0.000106331
0.000698164 1.22949e-05 6.49409e-07
1.22949e-05 -0.00012147 -2.52337e-06
6.49409e-07 -2.52337e-06 -0.000153056
0.00110409 -3.94587e-07 8.2062e-07
-3.94587e-07 8.8423e-05 -1.49398e-06
8.2062e-07 -1.49398e-06 3.62614e-05
0.0012089 -3.52931e-05 9.77919e-09
-3.52931e-05 0.000149538 -1.16344e-07
9.77919e-09 -1.16344e-07 7.82275e-05
0.00106004 -4.40898e-05 7.18252e-07
-4.40898e-05 7.97588e-05 -1.26171e-06
7.18252e-07 -1.26171e-06 -9.04849e-06
0.00104594 -4.87192e-05 2.94537e-07
-4.87192e-05 5.42508e-05 -4.98205e-07
2.94537e-07 -4.98205e-07 -2.36587e-05
0.00108918 -4.93288e-05 1.23075e-06
-4.93288e-05 7.87853e-05 3.04501e-07
1.23075e-06 3.04501e-07 -7.25675e-06
0.000946456 -3.34841e-07 -1.60715e-06
-3.34841e-07 4.08561e-06 -2.4496e-06
-1.60715e-06 -2.4496e-06 -3.3134e-05
0.00101542 1.39015e-05 -1.25237e-06
1.39015e-05 4.28962e-05 -1.43264e-06
-1.25237e-06 -1.43264e-06 -1.78852e-05
0.00133642 3.99479e-05 -4.87818e-07
3.99479e-05 7.34704e-05 -5.55109e-07
-4.87818e-07 -5.55109e-07 -6.99998e-07
0.00106166 3.52792e-05 -9.83214e-07
3.52792e-05 7.10994e-05 -4.72391e-07
-9.83214e-07 -4.72391e-07 -2.08478e-06
0.00108139 4.26786e-05 -6.17151e-07
4.26786e-05 7.91421e-05 -2.93436e-07
-6.17151e-07 -2.93436e-07 7.63737e-06
0.000995611 4.36054e-05 -5.92936e-07
4.36054e-05 3.80211e-05 -1.68727e-07
-5.92936e-07 -1.68727e-07 -3.96335e-05
0.00118961 5.41717e-05 -8.31635e-07
5.41717e-05 6.61337e-05 -1.72041e-06
-8.31635e-07 -1.72041e-06 -8.20836e-06
0.00128791 5.53424e-05 -2.94381e-07
5.53424e-05 8.03831e-05 -7.41864e-07
-2.94381e-07 -7.41864e-07 5.63543e-06
0.000873463 4.62941e-05 -3.48402e-07
4.62941e-05 -1.77546e-05 -5.39744e-07
-3.48402e-07 -5.39744e-07 -0.000101309
0.00123848 5.76283e-05 -1.38663e-06
5.76283e-05 0.000123619 -8.29014e-07
-1.38663e-06 -8.29014e-07 3.59639e-05
0.001019 1.46534e-05 7.67267e-08
1.46534e-05 4.39917e-05 -3.62246e-08
7.67267e-08 -3.62246e-08 -1.47201e-05
0.00101514 3.64457e-05 4.05673e-07
3.64457e-05 4.70147e-05 2.3785e-07
4.05673e-07 2.3785e-07 -2.68847e-05
0.00114558 5.11803e-05 -1.70142e-07
5.11803e-05 0.000110983 -4.26541e-07
-1.70142e-07 -4.26541e-07 3.26245e-05
0.00103327 4.32891e-05 -2.91846e-07
4.32891e-05 5.62154e-05 1.29866e-08
-2.91846e-07 1.29866e-08 -2.26144e-05
0.00106419 4.75327e-05 -7.37121e-07
4.75327e-05 6.82137e-05 -3.68395e-07
-7.37121e-07 -3.68395e-07 -1.14987e-05
0.00151437 4.10352e-05 -3.87183e-07
4.10352e-05 0.000128905 -4.26006e-07
-3.87183e-07 -4.26006e-07 6.81262e-05
0.0013721 6.28086e-05 7.46123e-07
6.28086e-05 0.000153312 4.09246e-08
7.46123e-07 4.09246e-08 7.02561e-05
0.000956972 5.42334e-05 -5.84564e-07
5.42334e-05 -8.71219e-05 5.76186e-07
-5.84564e-07 5.76186e-07 -0.000162421
0.00123417 5.61882e-05 9.23404e-07
5.61882e-05 0.00014952 8.31949e-07
9.23404e-07 8.31949e-07 5.97095e-05
0.000914361 5.42653e-05 -1.38951e-06
5.42653e-05 -3.96612e-05 -3.67972e-07
-1.38951e-06 -3.67972e-07 -0.000138312
0.000949549 3.53245e-05 1.19824e-06
3.53245e-05 1.57928e-05 1.16977e-06
1.19824e-06 1.16977e-06 -5.76698e-05
0.00097622 4.59271e-05 7.46006e-07
4.59271e-05 2.94011e-05 1.72613e-07
7.46006e-07 1.72613e-07 -5.38741e-05
0.00115079 5.26352e-05 2.69555e-07
5.26352e-05 0.000109831 6.9286e-07
2.69555e-07 6.9286e-07 2.46766e-05
0.000899241 4.51805e-05 9.09512e-07
4.51805e-05 -1.43862e-05 1.20014e-08
9.09512e-07 1.20014e-08 -9.82783e-05
0.00184294 3.15309e-05 2.17559e-06
3.15309e-05 0.000200738 1.27466e-06
2.17559e-06 1.27466e-06 0.00015337
0.00111501 5.25957e-05 2.82669e-06
5.25957e-05 -7.90126e-05 1.36775e-06
2.82669e-06 1.36775e-06 -0.000140779
0.00124399 6.54553e-05 1.84148e-06
6.54553e-05 8.47882e-05 -8.64302e-08
1.84148e-06 -8.64302e-08 -1.14519e-05
0.000924975 5.33164e-05 9.53016e-07
5.33164e-05 -2.88857e-06 1.7861e-06
9.53016e-07 1.7861e-06 -0.000109174
0.000990403 1.35463e-05 -2.12139e-07
1.35463e-05 3.11444e-05 -1.02585e-06
-2.12139e-07 -1.02585e-06 -2.5342e-05
0.00100705 3.14091e-05 2.89904e-07
3.14091e-05 4.6886e-05 3.64875e-07
2.89904e-07 3.64875e-07 -2.39807e-05
0.0010844 4.22295e-05 4.89651e-07
4.22295e-05 9.02274e-05 4.88945e-07
4.89651e-07 4.88945e-07 1.02968e-05
0.00099873 1.19178e-05 -4.60379e-07
1.19178e-05 3.73855e-05 -1.24635e-06
-4.60379e-07 -1.24635e-06 -1.31341e-05
0.00093109 1.87642e-05 -4.73788e-07
1.87642e-05 7.70912e-06 -1.52937e-06
-4.73788e-07 -1.52937e-06 -6.00644e-05
0.000988285 1.00157e-06 3.24816e-07
1.00157e-06 3.38525e-05 3.16212e-08
3.24816e-07 3.16212e-08 -1.50867e-05
0.00107588 3.45095e-05 -1.21733e-07
3.45095e-05 8.51396e-05 -4.46395e-07
-1.21733e-07 -4.46395e-07 7.32098e-06
0.000961395 1.31211e-05 2.24151e-07
1.31211e-05 2.41968e-05 4.60903e-07
2.24151e-07 4.60903e-07 -4.15254e-05
0.00116448 4.36884e-05 4.74963e-07
4.36884e-05 0.000128209 3.55588e-07
4.74963e-07 3.55588e-07 4.35465e-05
0.000925518 8.36262e-06 3.08424e-07
8.36262e-06 8.19038e-06 1.13758e-06
3.08424e-07 1.13758e-06 -6.84923e-05
0.000901674 2.64276e-05 5.03608e-07
2.64276e-05 -4.42367e-06 1.31783e-06
5.03608e-07 1.31783e-06 -6.92265e-05
0.00098978 -1.54918e-05 -2.38625e-07
-1.54918e-05 3.57615e-05 1.15603e-06
-2.38625e-07 1.15603e-06 -1.23043e-05
0.000962614 7.83663e-06 4.62873e-07
7.83663e-06 7.98382e-06 1.75299e-06
4.62873e-07 1.75299e-06 -2.04209e-05
0.000966628 -2.15767e-06 -2.54374e-07
-2.15767e-06 9.86285e-06 2.82955e-08
-2.54374e-07 2.82955e-08 -1.86811e-05
0.00147822 -6.74291e-06 9.38928e-07
-6.74291e-06 0.000256481 1.98246e-06
9.38928e-07 1.98246e-06 0.000259308
0.000968533 -7.51449e-06 -6.01301e-08
-7.51449e-06 1.16561e-05 -1.86812e-06
-6.01301e-08 -1.86812e-06 -1.7617e-05
0.00149936 -9.22657e-06 -1.48148e-06
-9.22657e-06 0.000269888 -1.24216e-06
-1.48148e-06 -1.24216e-06 0.000271988
0.00114924 -9.03709e-06 7.35152e-06
-9.03709e-06 9.18663e-05 6.52792e-06
7.35152e-06 6.52792e-06 0.000108604
0.00152249 -1.13834e-05 -4.54483e-06
-1.13834e-05 0.00028474 -4.56273e-06
-4.54483e-06 -4.56273e-06 0.000285729
0.00110057 -1.19769e-05 2.88895e-06
-1.19769e-05 7.13054e-05 2.52788e-06
2.88895e-06 2.52788e-06 8.71006e-05
0.00104545 -1.46352e-05 -2.19526e-06
-1.46352e-05 4.80236e-05 -1.66796e-06
-2.19526e-06 -1.66796e-06 6.26908e-05
0.000869938 1.36243e-05 1.55982e-06
1.36243e-05 -4.03051e-05 -3.26172e-06
1.55982e-06 -3.26172e-06 -4.26334e-05
0.000879637 1.56207e-05 -9.35482e-08
1.56207e-05 -3.14828e-05 1.70603e-08
-9.35482e-08 1.70603e-08 -3.555e-05
0.00233904 2.23167e-05 1.22027e-05
2.23167e-05 0.000704705 -3.90876e-06
1.22027e-05 -3.90876e-06 0.0007248
0.000885413 1.73345e-05 -2.55609e-06
1.73345e-05 -2.43206e-05 3.4339e-06
-2.55609e-06 3.4339e-06 -3.0499e-05
0.00239686 2.56116e-05 -5.28505e-07
2.56116e-05 0.000739724 -4.61457e-08
-5.28505e-07 -4.61457e-08 0.000758257
0.00248221 2.86667e-05 -1.71424e-05
2.86667e-05 0.000788148 4.05795e-06
-1.71424e-05 4.05795e-06 0.000804913
0.00136442 2.49837e-05 -2.99468e-08
2.49837e-05 6.21498e-05 1.83567e-08
-2.99468e-08 1.83567e-08 -7.5592e-06
0.00143792 -3.11947e-06 -1.27322e-06
-3.11947e-06 5.51504e-05 -7.92399e-07
-1.27322e-06 -7.92399e-07 -1.62565e-05
0.0013133 8.0063e-06 1.49665e-06
8.0063e-06 2.43749e-07 -2.131e-06
1.49665e-06 -2.131e-06 -5.60686e-05
0.00137411 -1.93023e-05 -2.42179e-06
-1.93023e-05 1.99799e-05 -1.3402e-06
-2.42179e-06 -1.3402e-06 -5.54126e-05
0.00144077 -8.69973e-06 -1.76892e-06
-8.69973e-06 6.29054e-05 -4.54806e-07
-1.76892e-06 -4.54806e-07 -1.57515e-05
0.00144264 4.96381e-06 -1.9822e-06
4.96381e-06 6.78265e-05 -3.1676e-07
-1.9822e-06 -3.1676e-07 -1.22527e-05
0.00145001 1.48929e-05 2.19784e-07
1.48929e-05 6.94364e-05 -4.62657e-08
2.19784e-07 -4.62657e-08 -1.06423e-05
0.00144241 -1.76432e-05 -2.08762e-07
-1.76432e-05 6.44207e-05 2.25215e-07
-2.08762e-07 2.25215e-07 -1.34927e-05
0.00145726 -8.81032e-06 6.01989e-07
-8.81032e-06 5.45553e-05 -2.68371e-07
6.01989e-07 -2.68371e-07 -1.21382e-05
0.00138138 1.85805e-05 1.39021e-07
1.85805e-05 3.66378e-05 -3.4181e-07
1.39021e-07 -3.4181e-07 -1.84511e-05
0.00143254 9.02329e-06 1.78042e-06
9.02329e-06 6.42226e-05 1.24592e-07
1.78042e-06 1.24592e-07 -1.54889e-05
0.00160036 -2.71344e-05 2.45136e-06
-2.71344e-05 0.000135645 6.22686e-07
2.45136e-06 6.22686e-07 6.22205e-05
0.00140748 5.57464e-06 1.23526e-06
5.57464e-06 1.48828e-05 2.17944e-06
1.23526e-06 2.17944e-06 -4.24047e-05
0.00138604 2.17805e-05 -2.72301e-06
2.17805e-05 3.49974e-05 -5.80346e-07
-2.72301e-06 -5.80346e-07 -4.59191e-05
0.00155659 1.1893e-05 -2.48596e-06
1.1893e-05 0.000108419 5.92429e-07
-2.48596e-06 5.92429e-07 3.0259e-05
0.00154105 -1.92015e-05 -1.72554e-06
-1.92015e-05 0.000106089 1.80916e-06
-1.72554e-06 1.80916e-06 4.00059e-05
0.00110855 -4.61306e-05 -6.65419e-07
-4.61306e-05 8.83293e-05 6.05309e-07
-6.65419e-07 6.05309e-07 1.81761e-05
0.0012304 -5.42058e-05 -5.07447e-07
-5.42058e-05 0.000149589 1.33984e-06
-5.07447e-07 1.33984e-06 7.24685e-05
0.00113711 -5.83919e-05 -2.07688e-06
-5.83919e-05 7.83751e-05 2.52133e-06
-2.07688e-06 2.52133e-06 -1.41274e-05
0.0013991 -3.91546e-05 -1.13634e-06
-3.91546e-05 7.13483e-05 1.13233e-06
-1.13634e-06 1.13233e-06 1.02906e-05
0.00111704 -4.98125e-05 -2.17566e-06
-4.98125e-05 -4.15483e-05 2.93445e-07
-2.17566e-06 2.93445e-07 -9.85224e-05
0.00125962 -5.80849e-05 -2.8763e-06
-5.80849e-05 8.12104e-05 -1.40091e-06
-2.8763e-06 -1.40091e-06 2.17087e-06
0.00111455 -4.8592e-05 -5.82009e-07
-4.8592e-05 8.80891e-05 3.72106e-07
-5.82009e-07 3.72106e-07 1.39421e-05
0.00102037 -4.72564e-05 -2.15942e-06
-4.72564e-05 3.93923e-05 -7.33615e-08
-2.15942e-06 -7.33615e-08 -3.75827e-05
0.00115747 -4.91866e-05 -1.35381e-06
-4.91866e-05 0.000120836 2.88459e-07
-1.35381e-06 2.88459e-07 3.56282e-05
0.000676259 1.91236e-05 -6.32507e-07
1.91236e-05 -0.000129939 1.40395e-06
-6.32507e-07 1.40395e-06 -0.000163611
0.00121438 -4.33737e-05 -8.79458e-07
-4.33737e-05 0.000154 1.26045e-06
-8.79458e-07 1.26045e-06 7.80711e-05
0.000851075 -5.04535e-06 -2.01642e-07
-5.04535e-06 -3.86907e-05 1.92072e-06
-2.01642e-07 1.92072e-06 -9.72582e-05
0.00151537 2.62832e-05 -2.28129e-08
2.62832e-05 9.34247e-05 1.74378e-07
-2.28129e-08 1.74378e-07 1.245e-05
0.00153373 1.1324e-05 4.29705e-07
1.1324e-05 7.58254e-05 6.31962e-08
4.29705e-07 6.31962e-08 -1.64454e-06
0.00137615 -2.43529e-05 -2.24089e-07
-2.43529e-05 1.20502e-05 -2.30137e-07
-2.24089e-07 -2.30137e-07 -4.82205e-05
0.00111001 -4.96701e-05 4.96621e-09
-4.96701e-05 8.80269e-05 2.03318e-07
4.96621e-09 2.03318e-07 1.35951e-05
0.000940696 -5.16456e-05 -1.13595e-07
-5.16456e-05 6.16242e-06 1.37178e-07
-1.13595e-07 1.37178e-07 -8.23429e-05
0.00139116 -6.61319e-05 -1.0573e-06
-6.61319e-05 0.000190124 9.74212e-07
-1.0573e-06 9.74212e-07 9.20932e-05
0.00153355 -4.67874e-05 1.2204e-07
-4.67874e-05 0.000110907 1.45519e-07
1.2204e-07 1.45519e-07 6.19503e-05
0.00128304 -5.86032e-05 1.35067e-07
-5.86032e-05 4.67903e-05 -7.0082e-07
1.35067e-07 -7.0082e-07 -2.31671e-05
0.000821864 1.29424e-05 5.41951e-08
1.29424e-05 -5.94486e-05 -5.93019e-07
5.41951e-08 -5.93019e-07 -9.00722e-05
0.0010877 3.79607e-06 -1.06451e-07
3.79607e-06 8.07041e-05 9.7011e-08
-1.06451e-07 9.7011e-08 2.85839e-05
0.000995744 -4.76603e-05 -4.68343e-07
-4.76603e-05 3.03432e-05 3.76119e-07
-4.68343e-07 3.76119e-07 -4.7539e-05
0.00110213 -4.9558e-05 1.1491e-07
-4.9558e-05 8.51834e-05 -6.02014e-08
1.1491e-07 -6.02014e-08 -7.6037e-07
0.00108447 -4.27694e-05 -8.33607e-08
-4.27694e-05 9.24738e-05 -2.52054e-07
-8.33607e-08 -2.52054e-07 4.58249e-06
0.00114456 -3.72697e-05 -5.67067e-07
-3.72697e-05 0.000117462 9.59489e-07
-5.67067e-07 9.59489e-07 4.51039e-05
0.00151464 3.01898e-05 2.56844e-06
3.01898e-05 8.93038e-05 1.50574e-06
2.56844e-06 1.50574e-06 1.06102e-05
0.00159595 4.2001e-06 2.83627e-06
4.2001e-06 9.47111e-05 -9.96645e-07
2.83627e-06 -9.96645e-07 2.29782e-05
0.00143911 -3.45013e-05 1.59792e-06
-3.45013e-05 1.76652e-05 -2.84439e-06
1.59792e-06 -2.84439e-06 -2.49672e-05
0.00182945 -6.14534e-05 2.61908e-06
-6.14534e-05 0.000248196 -1.38653e-06
2.61908e-06 -1.38653e-06 0.000198761
0.000956556 -4.90743e-05 1.84443e-07
-4.90743e-05 1.68246e-05 -1.26722e-06
1.84443e-07 -1.26722e-06 -6.55016e-05
0.00142074 -6.85579e-05 2.71752e-06
-6.85579e-05 0.000177479 1.09882e-06
2.71752e-06 1.09882e-06 7.83237e-05
0.0014603 -6.6724e-05 2.27461e-06
-6.6724e-05 0.000252028 -3.61208e-06
2.27461e-06 -3.61208e-06 0.000152966
0.000959863 9.88952e-06 6.08975e-07
9.88952e-06 7.10615e-06 -1.86123e-06
6.08975e-07 -1.86123e-06 -2.08538e-05
0.000996278 -1.87178e-05 6.20999e-07
-1.87178e-05 3.4856e-05 -1.28421e-06
6.20999e-07 -1.28421e-06 -1.02014e-05
0.000821118 6.98448e-06 2.43772e-07
6.98448e-06 -5.25923e-05 -1.89351e-06
2.43772e-07 -1.89351e-06 -0.000103179
0.00110603 -2.44722e-05 1.77789e-07
-2.44722e-05 9.6215e-05 -7.51374e-07
1.77789e-07 -7.51374e-07 2.80969e-05
0.000998917 -3.66273e-05 2.7558e-07
-3.66273e-05 5.07291e-05 -1.22918e-06
2.7558e-07 -1.22918e-06 -3.32761e-05
0.00111911 -4.88362e-05 1.77336e-06
-4.88362e-05 0.000109765 2.68975e-08
1.77336e-06 2.68975e-08 1.41927e-05
0.000850665 -4.62331e-05 7.95062e-07
-4.62331e-05 -3.94884e-05 -5.23076e-07
7.95062e-07 -5.23076e-07 -0.000121217
0.00162073 -6.2666e-05 6.79326e-07
-6.2666e-05 0.000351919 1.33936e-07
6.79326e-07 1.33936e-07 0.000258112
0.00101258 1.45826e-05 -9.41972e-07
1.45826e-05 4.12149e-05 -1.57364e-06
-9.41972e-07 -1.57364e-06 -1.75988e-05
0.00109122 3.92499e-05 -6.30055e-07
3.92499e-05 8.52807e-05 -4.46021e-07
-6.30055e-07 -4.46021e-07 1.14387e-05
0.0017816 4.29719e-05 -5.57246e-07
4.29719e-05 0.000259054 -8.96687e-07
-5.57246e-07 -8.96687e-07 0.000198635
0.00111305 4.5369e-05 -9.51433e-07
4.5369e-05 9.65553e-05 8.17753e-09
-9.51433e-07 8.17753e-09 1.80442e-05
0.00118112 5.18956e-05 -7.9782e-07
5.18956e-05 0.000129211 -1.17871e-06
-7.9782e-07 -1.17871e-06 5.15024e-05
0.0010141 4.62739e-05 -9.16935e-07
4.62739e-05 4.64056e-05 -4.28482e-07
-9.16935e-07 -4.28482e-07 -3.28419e-05
0.00140542 6.32444e-05 -4.36712e-07
6.32444e-05 0.000167 -9.06707e-07
-4.36712e-07 -9.06707e-07 8.47856e-05
0.00124827 5.85343e-05 -1.14964e-06
5.85343e-05 6.00161e-05 4.53108e-07
-1.14964e-06 4.53108e-07 -1.35725e-05
0.00107805 5.28479e-05 2.39338e-08
5.28479e-05 7.40333e-05 -4.7729e-07
2.39338e-08 -4.7729e-07 -1.64637e-05
0.00115685 5.93222e-05 -3.17276e-06
5.93222e-05 7.91828e-05 -1.23828e-06
-3.17276e-06 -1.23828e-06 -2.0687e-05
0.000946326 3.52063e-05 3.5724e-07
3.52063e-05 1.45183e-05 3.21709e-07
3.5724e-07 3.21709e-07 -5.92428e-05
0.00104529 4.73902e-05 -3.67461e-07
4.73902e-05 6.312e-05 -4.1821e-07
-3.67461e-07 -4.1821e-07 -1.93752e-05
0.00115064 5.25339e-05 -2.31917e-07
5.25339e-05 0.000110967 -6.17934e-07
-2.31917e-07 -6.17934e-07 2.65555e-05
0.00105921 4.82922e-05 -3.5915e-08
4.82922e-05 6.38541e-05 -2.75651e-07
-3.5915e-08 -2.75651e-07 -1.96687e-05
0.00173014 2.93527e-05 -1.57514e-07
2.93527e-05 0.00014623 -1.11247e-06
-1.57514e-07 -1.11247e-06 9.97868e-05
0.00126259 5.37152e-05 8.54043e-08
5.37152e-05 2.84919e-06 1.31323e-07
8.54043e-08 1.31323e-07 -6.09991e-05
0.00144311 6.90836e-05 -4.56979e-07
6.90836e-05 0.000181228 -1.01423e-07
-4.56979e-07 -1.01423e-07 8.61647e-05
0.00090574 5.3627e-05 2.09285e-07
5.3627e-05 -1.82654e-05 2.57616e-07
2.09285e-07 2.57616e-07 -0.000124407
0.00111156 4.75493e-05 2.2677e-07
4.75493e-05 0.000103 1.20752e-07
2.2677e-07 1.20752e-07 2.08126e-05
0.00144439 4.90893e-06 3.06262e-06
4.90893e-06 8.54084e-06 2.95287e-06
3.06262e-06 2.95287e-06 -4.67553e-05
0.0012053 5.24902e-05 9.08063e-07
5.24902e-05 0.000142436 5.1054e-07
9.08063e-07 5.1054e-07 5.39987e-05
0.0011333 5.38009e-05 6.4111e-07
5.38009e-05 0.000104723 1.06856e-06
6.4111e-07 1.06856e-06 1.14555e-05
0.00164009 5.49526e-05 6.00272e-06
5.49526e-05 6.84085e-05 6.81442e-07
6.00272e-06 6.81442e-07 2.41089e-05
0.00132493 7.0245e-05 3.81019e-06
7.0245e-05 6.67062e-05 3.19997e-07
3.81019e-06 3.19997e-07 -2.73349e-05
0.00165592 7.38987e-05 8.80857e-07
7.38987e-05 0.000337898 2.2185e-06
8.80857e-07 2.2185e-06 0.000222909
0.00108591 3.56375e-05 -4.42513e-07
3.56375e-05 8.73362e-05 -5.61608e-07
-4.42513e-07 -5.61608e-07 1.6737e-05
0.00107374 4.30174e-05 -2.97019e-08
4.30174e-05 8.57794e-05 -8.90569e-08
-2.97019e-08 -8.90569e-08 5.78679e-06
0.00109122 4.72604e-05 7.12644e-07
4.72604e-05 9.49245e-05 5.02642e-07
7.12644e-07 5.02642e-07 8.25949e-06
0.000995395 1.02652e-05 -1.22777e-07
1.02652e-05 3.74709e-05 -1.18047e-06
-1.22777e-07 -1.18047e-06 -1.16075e-05
0.00102135 1.80272e-05 7.99288e-08
1.80272e-05 5.48808e-05 -4.62029e-07
7.99288e-08 -4.62029e-07 -1.05585e-05
0.000974279 2.95112e-05 -5.09702e-07
2.95112e-05 3.35731e-05 -1.15206e-06
-5.09702e-07 -1.15206e-06 -4.49306e-05
0.000987006 -1.12084e-05 2.22674e-07
-1.12084e-05 3.44027e-05 3.31672e-08
2.22674e-07 3.31672e-08 -1.37301e-05
0.000893697 1.16733e-05 -1.47421e-07
1.16733e-05 -8.9125e-06 4.29836e-07
-1.47421e-07 4.29836e-07 -7.34371e-05
0.00107842 3.77391e-05 -6.25691e-08
3.77391e-05 8.45919e-05 -3.94877e-07
-6.25691e-08 -3.94877e-07 -5.95319e-07
0.00105705 2.11001e-05 1.91684e-07
2.11001e-05 7.52404e-05 3.72174e-07
1.91684e-07 3.72174e-07 -9.07095e-07
0.00120693 5.08253e-05 2.68466e-07
5.08253e-05 0.000142172 1.79168e-07
2.68466e-07 1.79168e-07 5.21373e-05
0.0010188 2.04911e-05 4.39596e-07
2.04911e-05 5.04748e-05 8.42349e-07
4.39596e-07 8.42349e-07 -3.41733e-05
0.00107427 2.87226e-05 3.65446e-07
2.87226e-05 8.26638e-05 8.19406e-07
3.65446e-07 8.19406e-07 8.30332e-06
0.00101231 1.84057e-05 5.17892e-07
1.84057e-05 5.41912e-05 9.9047e-07
5.17892e-07 9.9047e-07 -9.45222e-06
0.000997363 -9.61836e-06 -3.02185e-07
-9.61836e-06 3.93804e-05 1.09555e-06
-3.02185e-07 1.09555e-06 -8.32783e-06
0.000955705 1.02269e-05 3.86877e-07
1.02269e-05 5.33927e-06 1.70263e-06
3.86877e-07 1.70263e-06 -2.33615e-05
0.00096282 -5.46395e-07 -2.65605e-07
-5.46395e-07 8.16083e-06 1.60414e-08
-2.65605e-07 1.60414e-08 -2.02486e-05
0.00147361 -3.51803e-06 5.65758e-07
-3.51803e-06 0.000252609 1.94595e-06
5.65758e-07 1.94595e-06 0.000255585
0.000963812 -1.00984e-05 8.09162e-08
-1.00984e-05 8.54199e-06 -1.77717e-06
8.09162e-08 -1.77717e-06 -1.9979e-05
0.00149517 -6.26914e-06 -1.03945e-06
-6.26914e-06 0.000265273 -1.23302e-06
-1.03945e-06 -1.23302e-06 0.000267997
0.00114495 -6.4223e-06 5.08407e-06
-6.4223e-06 8.65219e-05 6.49065e-06
5.08407e-06 6.49065e-06 0.00010385
0.00151271 -8.88018e-06 -3.14121e-06
-8.88018e-06 0.000276816 -4.46761e-06
-3.14121e-06 -4.46761e-06 0.0002789
0.00109614 -9.40364e-06 1.89137e-06
-9.40364e-06 6.49923e-05 2.4898e-06
1.89137e-06 2.4898e-06 8.19088e-05
0.00104344 -1.20673e-05 -1.68362e-06
-1.20673e-05 4.24987e-05 -1.62559e-06
-1.68362e-06 -1.62559e-06 5.84651e-05
0.000965551 7.44367e-06 4.5974e-07
7.44367e-06 7.5922e-06 -1.87798e-06
4.5974e-07 -1.87798e-06 -1.86826e-05
0.000879629 1.13884e-05 1.21081e-06
1.13884e-05 -3.98697e-05 -3.23396e-06
1.21081e-06 -3.23396e-06 -4.0546e-05
0.000888555 1.36628e-05 -1.00529e-07
1.36628e-05 -3.12731e-05 1.44514e-08
-1.00529e-07 1.44514e-08 -3.3661e-05
0.00229414 1.87415e-05 1.04104e-05
1.87415e-05 0.000677075 -3.91829e-06
1.04104e-05 -3.91829e-06 0.000698441
0.000897488 1.56608e-05 -2.14307e-06
1.56608e-05 -2.28435e-05 3.30189e-06
-2.14307e-06 3.30189e-06 -2.69829e-05
0.00233891 2.22892e-05 -5.63179e-07
2.22892e-05 0.00070525 -4.1265e-08
-5.63179e-07 -4.1265e-08 0.0007252
0.00240153 2.54455e-05 -1.5269e-05
2.54455e-05 0.000742547 4.01552e-06
-1.5269e-05 4.01552e-06 0.000760914
0.00132076 1.60577e-05 8.00158e-08
1.60577e-05 4.98685e-06 -6.25557e-07
8.00158e-08 -6.25557e-07 -5.00176e-05
0.00142884 -8.1211e-06 -1.41386e-06
-8.1211e-06 4.18344e-05 -2.08174e-06
-1.41386e-06 -2.08174e-06 -2.45835e-05
0.00141292 -1.7389e-05 -2.13446e-06
-1.7389e-05 4.99682e-05 -2.88477e-08
-2.13446e-06 -2.88477e-08 -2.7734e-05
0.00146899 1.72198e-05 -1.75932e-06
1.72198e-05 7.88639e-05 -7.15409e-07
-1.75932e-06 -7.15409e-07 -1.10859e-06
0.00146226 9.19006e-06 2.91969e-08
9.19006e-06 8.03698e-05 -1.84309e-07
2.91969e-08 -1.84309e-07 1.11238e-06
0.00154236 -2.55828e-05 -1.61397e-08
-2.55828e-05 0.000107354 1.07685e-07
-1.61397e-08 1.07685e-07 3.29291e-05
0.00141588 5.78733e-06 -6.57063e-07
5.78733e-06 2.26954e-05 3.05616e-07
-6.57063e-07 3.05616e-07 -3.29834e-05
0.00147188 2.26031e-06 2.69106e-06
2.26031e-06 8.86882e-05 -4.00533e-07
2.69106e-06 -4.00533e-07 1.1815e-05
0.001562 -1.81607e-05 2.5234e-06
-1.81607e-05 9.87741e-05 1.65954e-06
2.5234e-06 1.65954e-06 3.00824e-05
0.00134497 -1.67982e-05 2.81387e-06
-1.67982e-05 -1.38966e-05 6.6095e-07
2.81387e-06 6.6095e-07 -7.06968e-05
0.00145837 2.60503e-05 -2.01036e-06
2.60503e-05 6.75183e-05 -4.76049e-07
-2.01036e-06 -4.76049e-07 -1.31442e-05
0.00153908 9.6859e-06 -2.51597e-06
9.6859e-06 7.64665e-05 7.63201e-07
-2.51597e-06 7.63201e-07 -9.53852e-07
0.00146744 -2.46289e-05 -2.36639e-06
-2.46289e-05 5.60739e-05 1.67843e-06
-2.36639e-06 1.67843e-06 -5.50709e-06
0.0011312 -5.01401e-05 -6.64022e-07
-5.01401e-05 9.75514e-05 1.22812e-06
-6.64022e-07 1.22812e-06 2.30058e-05
0.000983518 -5.24029e-05 -1.03794e-06
-5.24029e-05 2.83345e-05 2.98766e-06
-1.03794e-06 2.98766e-06 -5.89582e-05
0.00131603 -6.38098e-05 -2.71909e-06
-6.38098e-05 0.000153636 2.52931e-06
-2.71909e-06 2.52931e-06 5.66706e-05
0.00146847 -4.73226e-05 4.53123e-07
-4.73226e-05 8.52029e-05 1.68004e-06
4.53123e-07 1.68004e-06 3.62703e-05
0.00119551 -5.69863e-05 -3.86131e-06
-5.69863e-05 2.15978e-06 -1.17351e-06
-3.86131e-06 -1.17351e-06 -6.75546e-05
0.000957871 -4.68297e-05 -9.58063e-07
-4.68297e-05 1.25988e-05 7.4947e-07
-9.58063e-07 7.4947e-07 -6.52905e-05
0.00110907 -4.96692e-05 -1.35506e-06
-4.96692e-05 8.85586e-05 -4.083e-07
-1.35506e-06 -4.083e-07 2.7297e-06
0.00110793 -3.9244e-05 -3.29589e-07
-3.9244e-05 0.00010451 5.49357e-07
-3.29589e-07 5.49357e-07 1.77022e-05
0.000947855 1.31288e-05 -6.70709e-07
1.31288e-05 3.50813e-06 1.29604e-06
-6.70709e-07 1.29604e-06 -2.61239e-05
0.00107542 1.21138e-05 -8.48075e-08
1.21138e-05 7.50083e-05 1.71346e-06
-8.48075e-08 1.71346e-06 2.28491e-05
0.00108199 -3.37123e-05 -1.24304e-06
-3.37123e-05 8.5667e-05 2.14194e-06
-1.24304e-06 2.14194e-06 1.26643e-05
0.00148529 2.99186e-05 1.97205e-07
2.99186e-05 7.52281e-05 3.62734e-07
1.97205e-07 3.62734e-07 -3.1691e-06
0.000956719 9.69864e-06 -2.64007e-08
9.69864e-06 5.41032e-06 3.99533e-09
-2.64007e-08 3.99533e-09 -2.25458e-05
0.00089159 -1.94341e-06 -3.88704e-07
-1.94341e-06 -1.76746e-05 3.60879e-09
-3.88704e-07 3.60879e-09 -6.30868e-05
0.00162622 3.91025e-06 1.37613e-07
3.91025e-06 0.000107764 1.72776e-07
1.37613e-07 1.72776e-07 3.63738e-05
0.00134325 -3.50626e-05 -3.72133e-07
-3.50626e-05 -2.43345e-05 -2.86236e-07
-3.72133e-07 -2.86236e-07 -6.99582e-05
0.000930289 -4.82818e-05 -2.39059e-07
-4.82818e-05 4.02339e-06 7.39447e-07
-2.39059e-07 7.39447e-07 -7.74584e-05
0.00131678 -6.38109e-05 -4.14133e-07
-6.38109e-05 0.00018232 2.93518e-07
-4.14133e-07 2.93518e-07 8.17719e-05
0.00119639 -6.31867e-05 5.12897e-07
-6.31867e-05 6.29942e-05 5.26091e-07
5.12897e-07 5.26091e-07 -3.45783e-05
0.00156421 -5.92966e-05 3.40817e-08
-5.92966e-05 0.000121986 -9.64415e-07
3.40817e-08 -9.64415e-07 7.22259e-05
0.00104085 2.16204e-06 5.09822e-07
2.16204e-06 5.76374e-05 -4.86387e-07
5.09822e-07 -4.86387e-07 8.81427e-06
0.00108437 -1.78925e-05 -5.12604e-07
-1.78925e-05 8.63315e-05 5.1998e-07
-5.12604e-07 5.1998e-07 1.78357e-05
0.00104665 -5.02597e-05 4.04118e-07
-5.02597e-05 5.62333e-05 2.71663e-07
4.04118e-07 2.71663e-07 -2.54336e-05
0.00127809 -5.49459e-05 -1.12315e-06
-5.49459e-05 0.000180511 -1.13376e-07
-1.12315e-06 -1.13376e-07 8.90405e-05
0.00102623 -4.26991e-05 4.58668e-07
-4.26991e-05 6.50159e-05 3.18217e-07
4.58668e-07 3.18217e-07 -3.1597e-05
0.00103978 -3.34772e-05 2.53884e-07
-3.34772e-05 6.89943e-05 -2.79529e-07
2.53884e-07 -2.79529e-07 -1.43902e-05
0.00149614 3.18517e-05 3.35395e-06
3.18517e-05 7.19994e-05 1.08087e-06
3.35395e-06 1.08087e-06 -2.57522e-06
0.00167743 -7.66901e-06 2.87722e-06
-7.66901e-06 0.00011936 -1.32951e-06
2.87722e-06 -1.32951e-06 6.29642e-05
0.00174253 -5.4956e-05 6.40634e-07
-5.4956e-05 0.00013768 -2.71964e-06
6.40634e-07 -2.71964e-06 0.000109474
0.00149337 -7.14497e-05 3.95479e-06
-7.14497e-05 0.000144977 8.46825e-07
3.95479e-06 8.46825e-07 6.62068e-05
0.00108243 -5.35541e-05 1.42192e-07
-5.35541e-05 8.06895e-05 -2.09942e-06
1.42192e-07 -2.09942e-06 -8.00213e-06
0.00161221 -7.57507e-05 1.94309e-06
-7.57507e-05 0.000319219 -2.47603e-06
1.94309e-06 -2.47603e-06 0.000205898
0.000787489 1.19017e-05 -2.15192e-07
1.19017e-05 -7.00024e-05 -1.72841e-06
-2.15192e-07 -1.72841e-06 -0.000114296
0.000983769 -7.47727e-06 7.05023e-07
-7.47727e-06 2.88774e-05 -1.32395e-06
7.05023e-07 -1.32395e-06 -1.76912e-05
0.00123995 -1.08412e-05 8.17682e-08
-1.08412e-05 0.00016676 -7.2859e-07
8.17682e-08 -7.2859e-07 0.000108255
0.000894563 6.99563e-06 -2.95068e-07
6.99563e-06 -7.5192e-06 -1.20957e-06
-2.95068e-07 -1.20957e-06 -7.41652e-05
0.00117488 -2.96357e-05 9.32551e-08
-2.96357e-05 0.000133377 -8.08168e-07
9.32551e-08 -8.08168e-07 5.42794e-05
0.000931254 -3.2159e-05 8.91186e-08
-3.2159e-05 1.95361e-05 -6.97079e-07
8.91186e-08 -6.97079e-07 -7.34011e-05
0.00119774 -4.53155e-05 2.08677e-06
-4.53155e-05 0.000158 -9.70709e-07
2.08677e-06 -9.70709e-07 5.42505e-05
0.00102465 -5.38255e-05 7.81243e-07
-5.38255e-05 6.56772e-05 -4.79067e-07
7.81243e-07 -4.79067e-07 -2.71131e-05
0.000947705 3.56504e-05 -4.52544e-07
3.56504e-05 1.56635e-05 -5.45051e-07
-4.52544e-07 -5.45051e-07 -5.84573e-05
0.00110912 4.77947e-05 -1.48908e-06
4.77947e-05 9.42766e-05 -7.15654e-07
-1.48908e-06 -7.15654e-07 1.26377e-05
0.00159936 2.70642e-05 -3.77641e-06
2.70642e-05 8.29856e-05 -3.02813e-06
-3.77641e-06 -3.02813e-06 3.74793e-05
0.00140963 5.48913e-05 -1.91295e-06
5.48913e-05 8.44928e-05 -2.79094e-07
-1.91295e-06 -2.79094e-07 1.85732e-05
0.00122873 5.18175e-05 -1.10001e-06
5.18175e-05 0.000146744 -3.10904e-07
-1.10001e-06 -3.10904e-07 6.35615e-05
0.00116107 5.25948e-05 -9.78019e-07
5.25948e-05 0.000117284 -1.69892e-06
-9.78019e-07 -1.69892e-06 3.36031e-05
0.0017116 7.41341e-05 -1.41737e-06
7.41341e-05 0.000311719 -5.67692e-07
-1.41737e-06 -5.67692e-07 0.000217737
0.00093308 5.49281e-05 -1.07391e-06
5.49281e-05 -1.07405e-05 -1.66336e-06
-1.07391e-06 -1.66336e-06 -0.000116798
0.00108192 4.72886e-05 -3.51193e-07
4.72886e-05 8.84703e-05 -3.38479e-07
-3.51193e-07 -3.38479e-07 6.27867e-06
0.00137799 4.42281e-06 8.65646e-07
4.42281e-06 -2.59426e-05 6.61831e-07
8.65646e-07 6.61831e-07 -7.9167e-05
0.00111911 5.05619e-05 3.03672e-07
5.05619e-05 9.96329e-05 3.52551e-07
3.03672e-07 3.52551e-07 1.13993e-05
0.000981808 5.03782e-05 2.48948e-07
5.03782e-05 2.72612e-05 -1.50608e-07
2.48948e-07 -1.50608e-07 -6.7082e-05
0.00155361 5.08083e-05 4.39127e-07
5.08083e-05 3.24774e-05 -3.34977e-07
4.39127e-07 -3.34977e-07 -1.2715e-05
0.0014944 7.51314e-05 7.50581e-07
7.51314e-05 0.000143177 -4.67765e-07
7.50581e-07 -4.67765e-07 4.96117e-05
0.00154968 7.18996e-05 2.5029e-07
7.18996e-05 0.000288626 5.97872e-07
2.5029e-07 5.97872e-07 0.000173288
0.00115205 4.95918e-05 4.01798e-07
4.95918e-05 0.000125769 3.3865e-07
4.01798e-07 3.3865e-07 3.68207e-05
0.00159367 3.76828e-05 5.94329e-06
3.76828e-05 -1.49605e-05 5.0756e-07
5.94329e-06 5.0756e-07 -5.75914e-05
0.00137124 5.72606e-05 4.5345e-07
5.72606e-05 0.000217538 1.66481e-07
4.5345e-07 1.66481e-07 0.000125131
0.00151749 6.57997e-05 -9.58939e-07
6.57997e-05 0.000290676 1.96247e-06
-9.58939e-07 1.96247e-06 0.000181099
0.00122879 7.80794e-05 6.06398e-06
7.80794e-05 -9.99236e-05 2.50768e-06
6.06398e-06 2.50768e-06 -0.000182696
0.00109649 6.91995e-05 -7.5969e-08
6.91995e-05 3.68001e-05 2.57841e-06
-7.5969e-08 2.57841e-06 -8.40942e-05
0.00223562 -3.48162e-05 4.43031e-06
-3.48162e-05 0.000185045 -3.40609e-06
4.43031e-06 -3.40609e-06 0.000205505
0.00106467 4.37689e-05 -5.16773e-07
4.37689e-05 8.20534e-05 -6.76676e-07
-5.16773e-07 -6.76676e-07 2.0043e-06
0.00107063 4.67052e-05 2.67431e-08
4.67052e-05 8.57095e-05 -7.46507e-09
2.67431e-08 -7.46507e-09 -9.86143e-07
0.00123392 5.159e-05 5.87798e-07
5.159e-05 0.000158219 3.14119e-07
5.87798e-07 3.14119e-07 6.74133e-05
0.00098347 -1.01556e-05 3.06699e-07
-1.01556e-05 3.26305e-05 -1.12576e-06
3.06699e-07 -1.12576e-06 -1.55515e-05
0.000885248 -1.29339e-06 -9.76134e-08
-1.29339e-06 -1.34494e-05 -4.45603e-07
-9.76134e-08 -4.45603e-07 -7.78093e-05
0.00118815 3.37731e-05 -2.472e-07
3.37731e-05 0.000142199 -3.3028e-07
-2.472e-07 -3.3028e-07 6.6513e-05
0.000988803 3.29069e-05 -6.87692e-07
3.29069e-05 3.9395e-05 -1.10908e-06
-6.87692e-07 -1.10908e-06 -4.64011e-05
0.000990738 -1.45222e-05 -1.64605e-07
-1.45222e-05 3.66016e-05 1.05282e-08
-1.64605e-07 1.05282e-08 -1.14782e-05
0.000953786 1.44656e-05 2.24379e-07
1.44656e-05 2.37655e-05 2.13176e-08
2.24379e-07 2.13176e-08 -4.00835e-05
0.00112284 4.86859e-05 -6.48335e-07
4.86859e-05 0.000100249 -7.59332e-07
-6.48335e-07 -7.59332e-07 1.01981e-05
0.00106689 2.0302e-05 -1.09844e-08
2.0302e-05 7.90761e-05 2.31886e-08
-1.09844e-08 2.31886e-08 4.88207e-06
0.00109546 2.35107e-05 4.1661e-08
2.35107e-05 9.02852e-05 -4.03624e-08
4.1661e-08 -4.03624e-08 6.29786e-06
0.00111014 3.9247e-05 3.74299e-07
3.9247e-05 8.55737e-05 1.04305e-06
3.74299e-07 1.04305e-06 -6.28645e-06
0.00120618 3.74545e-05 1.58751e-07
3.74545e-05 0.000145821 2.79092e-07
1.58751e-07 2.79092e-07 6.28571e-05
0.00116684 3.76824e-05 3.29894e-07
3.76824e-05 0.00012997 5.18381e-07
3.29894e-07 5.18381e-07 5.57658e-05
0.000831576 6.04949e-06 -1.54279e-07
6.04949e-06 -3.75153e-05 9.91192e-07
-1.54279e-07 9.91192e-07 -0.000102046
0.00079618 4.01591e-06 3.17858e-07
4.01591e-06 -6.13607e-05 1.48986e-06
3.17858e-07 1.48986e-06 -0.000110963
0.00120678 -2.29258e-06 2.3503e-07
-2.29258e-06 0.000152023 3.72132e-07
2.3503e-07 3.72132e-07 8.81388e-05
0.000803138 -5.54663e-06 -3.85024e-07
-5.54663e-06 -5.84942e-05 1.48312e-06
-3.85024e-07 1.48312e-06 -0.000108593
0.000958808 1.07172e-05 2.67007e-07
1.07172e-05 7.24619e-06 1.71429e-06
2.67007e-07 1.71429e-06 -2.18463e-05
0.000957045 8.92045e-07 -2.78292e-07
8.92045e-07 6.04642e-06 2.52484e-09
-2.78292e-07 2.52484e-09 -2.26581e-05
0.000907156 -2.6257e-08 1.40948e-07
-2.6257e-08 -3.41998e-05 3.14707e-06
1.40948e-07 3.14707e-06 -3.42971e-05
0.000961888 -9.19576e-06 2.25286e-07
-9.19576e-06 7.77765e-06 -1.7445e-06
2.25286e-07 -1.7445e-06 -2.06393e-05
0.00120206 -2.99509e-06 -6.01996e-07
-2.99509e-06 0.000115494 -1.25879e-06
-6.01996e-07 -1.25879e-06 0.000116894
0.00227694 -4.4074e-06 2.8034e-06
-4.4074e-06 0.000656757 4.04947e-06
2.8034e-06 4.04947e-06 0.000680186
0.00151187 -6.01913e-06 -1.83846e-06
-6.01913e-06 0.000273963 -4.40138e-06
-1.83846e-06 -4.40138e-06 0.000276574
0.0010988 -6.58792e-06 9.5708e-07
-6.58792e-06 6.30192e-05 2.47124e-06
9.5708e-07 2.47124e-06 8.05748e-05
0.00104401 -9.30986e-06 -1.18709e-06
-9.30986e-06 3.85771e-05 -1.58272e-06
-1.18709e-06 -1.58272e-06 5.57016e-05
0.000970942 5.01816e-06 3.40363e-07
5.01816e-06 8.25937e-06 -1.86651e-06
3.40363e-07 -1.86651e-06 -1.66728e-05
0.000964175 7.1899e-06 -2.88912e-08
7.1899e-06 6.62665e-06 -5.8559e-09
-2.88912e-08 -5.8559e-09 -1.96063e-05
0.000890281 8.87014e-06 8.53862e-07
8.87014e-06 -3.83164e-05 -3.2244e-06
8.53862e-07 -3.2244e-06 -3.74938e-05
0.0011843 1.23217e-05 -3.85819e-07
1.23217e-05 0.000113942 2.58843e-08
-3.85819e-07 2.58843e-08 0.000114585
0.00225585 1.50626e-05 8.49011e-06
1.50626e-05 0.000653312 -3.9294e-06
8.49011e-06 -3.9294e-06 0.000675819
0.000905177 1.36898e-05 -1.78052e-06
1.36898e-05 -2.32321e-05 3.23405e-06
-1.78052e-06 3.23405e-06 -2.56736e-05
0.0022964 1.87975e-05 -6.44907e-07
1.87975e-05 0.000678822 -3.54288e-08
-6.44907e-07 -3.54288e-08 0.000700028
0.00234074 2.2216e-05 -1.32712e-05
2.2216e-05 0.000706765 3.97292e-06
-1.32712e-05 3.97292e-06 0.000726568
0.00144694 5.76842e-06 -2.14602e-06
5.76842e-06 4.11827e-05 -2.08088e-06
-2.14602e-06 -2.08088e-06 -1.28701e-05
0.00148612 -2.34896e-05 -1.96426e-06
-2.34896e-05 7.97558e-05 -9.43262e-09
-1.96426e-06 -9.43262e-09 4.36486e-06
0.0014966 5.55478e-06 -1.93317e-06
5.55478e-06 9.88408e-05 -5.98468e-07
-1.93317e-06 -5.98468e-07 1.99396e-05
0.00147479 2.2254e-06 -2.23103e-07
2.2254e-06 8.99414e-05 -7.32611e-07
-2.23103e-07 -7.32611e-07 1.31163e-05
0.00145813 -1.75456e-05 -2.16427e-07
-1.75456e-05 5.36004e-05 6.40653e-07
-2.16427e-07 6.40653e-07 -1.43581e-05
0.0013772 -1.88349e-05 1.25536e-06
-1.88349e-05 1.38053e-05 2.59129e-07
1.25536e-06 2.59129e-07 -4.60523e-05
0.00152603 3.48237e-06 2.08142e-06
3.48237e-06 0.000103988 1.595e-07
2.08142e-06 1.595e-07 3.53443e-05
0.00222759 -4.78432e-05 -2.15463e-06
-4.78432e-05 0.000340719 -5.47553e-06
-2.15463e-06 -5.47553e-06 0.0003157
0.00157467 1.07682e-05 3.11915e-06
1.07682e-05 5.79747e-05 9.35857e-07
3.11915e-06 9.35857e-07 1.63886e-05
0.000990724 -4.25006e-06 3.42957e-07
-4.25006e-06 3.09404e-05 -1.15753e-06
3.42957e-07 -1.15753e-06 -1.09525e-05
0.00144974 2.95841e-05 -2.7722e-06
2.95841e-05 5.82678e-05 -7.06104e-07
-2.7722e-06 -7.06104e-07 -1.98417e-05
0.00164688 3.36819e-06 -2.54583e-06
3.36819e-06 0.00011614 1.11215e-06
-2.54583e-06 1.11215e-06 4.51074e-05
0.00122409 -3.55174e-05 -1.42644e-06
-3.55174e-05 -7.91603e-05 2.39982e-06
-1.42644e-06 2.39982e-06 -0.000127488
0.000906741 -4.7591e-05 -5.15511e-07
-4.7591e-05 -7.32811e-06 2.08603e-06
-5.15511e-07 2.08603e-06 -8.7986e-05
0.0011473 -6.04665e-05 -1.62639e-06
-6.04665e-05 9.94921e-05 4.37662e-06
-1.62639e-06 4.37662e-06 -2.48745e-06
0.000992833 -5.8355e-05 -2.85491e-06
-5.8355e-05 -4.13231e-05 8.13845e-07
-2.85491e-06 8.13845e-07 -0.000137332
0.00137599 -5.77177e-05 -2.77262e-06
-5.77177e-05 3.31435e-05 -1.03274e-06
-2.77262e-06 -1.03274e-06 -1.71005e-05
0.00120938 -5.36502e-05 2.04152e-08
-5.36502e-05 0.000134938 4.48129e-07
2.04152e-08 4.48129e-07 5.3474e-05
0.000981999 -4.82113e-05 -4.01219e-06
-4.82113e-05 3.24284e-05 -1.33543e-06
-4.01219e-06 -1.33543e-06 -5.68228e-05
0.000944149 -4.02146e-05 -2.763e-07
-4.02146e-05 2.59266e-05 1.11391e-06
-2.763e-07 1.11391e-06 -7.20014e-05
0.000958358 9.65106e-06 -6.83102e-07
9.65106e-06 6.19745e-06 1.8945e-06
-6.83102e-07 1.8945e-06 -2.17832e-05
0.00108208 -3.31136e-05 7.93846e-08
-3.31136e-05 8.81965e-05 5.553e-07
7.93846e-08 5.553e-07 5.24573e-06
0.00125652 -1.14836e-05 -1.88024e-07
-1.14836e-05 0.000166606 7.94328e-07
-1.88024e-07 7.94328e-07 0.000119202
0.00106549 -1.08863e-05 -4.05729e-07
-1.08863e-05 7.75971e-05 1.91175e-06
-4.05729e-07 1.91175e-06 8.84121e-06
0.000785586 5.9708e-06 -2.35053e-07
5.9708e-06 -7.133e-05 1.28152e-06
-2.35053e-07 1.28152e-06 -0.000116779
0.0015113 3.07163e-05 1.20528e-07
3.07163e-05 7.50326e-05 5.04297e-08
1.20528e-07 5.04297e-08 4.562e-07
0.000901146 1.84525e-07 2.79482e-07
1.84525e-07 -1.34043e-05 -4.71036e-07
2.79482e-07 -4.71036e-07 -5.70866e-05
0.000987307 -1.09029e-05 -1.6009e-07
-1.09029e-05 3.11356e-05 3.63134e-08
-1.6009e-07 3.63134e-08 -1.56451e-05
0.00104432 -2.89935e-06 -4.72968e-07
-2.89935e-06 6.85532e-05 4.82454e-07
-4.72968e-07 4.82454e-07 8.86242e-06
0.00166919 -7.88897e-06 7.72856e-07
-7.88897e-06 0.000113497 5.59313e-07
7.72856e-07 5.59313e-07 5.75237e-05
0.00153397 -5.44361e-05 -8.03887e-07
-5.44361e-05 3.7704e-05 -1.19517e-06
-8.03887e-07 -1.19517e-06 7.1835e-06
0.00105004 -5.32634e-05 -3.2652e-08
-5.32634e-05 6.23091e-05 4.49129e-07
-3.2652e-08 4.49129e-07 -2.55626e-05
0.0012263 -6.7633e-05 9.70118e-07
-6.7633e-05 0.00013361 -2.77449e-07
9.70118e-07 -2.77449e-07 2.03349e-05
0.0013046 -6.79223e-05 -1.65625e-07
-6.79223e-05 5.26265e-05 5.8774e-07
-1.65625e-07 5.8774e-07 -2.51287e-05
0.000976632 4.97233e-06 -1.56104e-07
4.97233e-06 3.33968e-05 1.48335e-08
-1.56104e-07 1.48335e-08 -3.19583e-05
0.00115426 -3.01961e-05 5.91061e-08
-3.01961e-05 0.000122789 -1.05932e-08
5.91061e-08 -1.05932e-08 4.29838e-05
0.000990558 -5.27574e-05 -1.209e-06
-5.27574e-05 4.66339e-05 -3.37534e-08
-1.209e-06 -3.37534e-08 -4.62619e-05
0.00118276 -4.33189e-05 1.8053e-07
-4.33189e-05 0.000150602 -1.78005e-07
1.8053e-07 -1.78005e-07 4.80614e-05
0.00100572 -3.78558e-05 -1.44947e-07
-3.78558e-05 5.603e-05 6.02092e-07
-1.44947e-07 6.02092e-07 -3.63588e-05
0.00140727 2.77206e-05 3.75049e-06
2.77206e-05 -1.01774e-06 3.88034e-07
3.75049e-06 3.88034e-07 -7.1365e-05
0.00193489 -3.11839e-05 2.94018e-06
-3.11839e-05 0.000182431 -3.59368e-06
2.94018e-06 -3.59368e-06 0.000165866
0.00176646 -7.82114e-05 4.93771e-06
-7.82114e-05 0.000180334 -3.47457e-07
4.93771e-06 -3.47457e-07 0.000124631
0.00171003 -8.33269e-05 2.37685e-06
-8.33269e-05 0.000334652 -1.90651e-06
2.37685e-06 -1.90651e-06 0.000226924
0.000935071 -5.78075e-05 6.25313e-07
-5.78075e-05 2.88921e-05 -2.90272e-06
6.25313e-07 -2.90272e-06 -7.25729e-05
0.000797196 1.62759e-05 7.98183e-08
1.62759e-05 -5.47131e-05 -1.41475e-06
7.98183e-08 -1.41475e-06 -0.000113725
0.000897888 9.38641e-06 4.07676e-07
9.38641e-06 -5.3532e-06 -1.29109e-06
4.07676e-07 -1.29109e-06 -6.88962e-05
0.00116421 1.53766e-05 2.9669e-07
1.53766e-05 0.000132172 -2.74636e-07
2.9669e-07 -2.74636e-07 6.15982e-05
0.00111799 -3.47294e-05 5.82284e-07
-3.47294e-05 0.00010746 -1.03939e-06
5.82284e-07 -1.03939e-06 2.94682e-05
0.00107617 -3.65817e-05 -8.02258e-08
-3.65817e-05 8.6272e-05 -1.79122e-07
-8.02258e-08 -1.79122e-07 -1.3378e-06
0.00113108 -3.78025e-05 1.96804e-07
-3.78025e-05 0.000127108 -1.70578e-06
1.96804e-07 -1.70578e-06 2.74729e-05
0.00107041 -4.79842e-05 3.42031e-06
-4.79842e-05 0.000116742 -8.47659e-07
3.42031e-06 -8.47659e-07 -3.66979e-06
0.00105045 4.661e-05 -7.64144e-07
4.661e-05 7.30074e-05 -8.65852e-07
-7.64144e-07 -8.65852e-07 -9.15366e-06
0.00102882 4.85619e-05 -2.4873e-07
4.85619e-05 5.48746e-05 1.56058e-08
-2.4873e-07 1.56058e-08 -3.31566e-05
0.00130729 3.49707e-06 -2.4435e-06
3.49707e-06 -6.2848e-05 -1.04016e-06
-2.4435e-06 -1.04016e-06 -0.000113894
0.00141491 4.66169e-05 -2.18599e-06
4.66169e-05 -2.75032e-05 -1.70219e-06
-2.18599e-06 -1.70219e-06 -7.36095e-05
0.00164094 7.96094e-05 -2.55353e-06
7.96094e-05 0.000207817 -1.48574e-06
-2.55353e-06 -1.48574e-06 0.000114808
0.000814559 4.66717e-05 -1.60379e-07
4.66717e-05 -5.80268e-05 -1.34527e-06
-1.60379e-07 -1.34527e-06 -0.000153418
0.00140811 6.9101e-05 -3.94186e-07
6.9101e-05 0.000221758 -5.38608e-07
-3.94186e-07 -5.38608e-07 0.000106595
0.00115413 4.96372e-05 6.51421e-08
4.96372e-05 0.000126799 8.86782e-08
6.51421e-08 8.86782e-08 3.84094e-05
0.00148227 3.63801e-05 -2.02803e-06
3.63801e-05 -7.08058e-05 9.22152e-08
-2.02803e-06 9.22152e-08 -0.000112339
0.00119665 5.32304e-05 -1.61224e-07
5.32304e-05 0.000132764 -2.36405e-07
-1.61224e-07 -2.36405e-07 4.07393e-05
0.001247 5.88897e-05 -1.42976e-07
5.88897e-05 0.000165597 4.88932e-07
-1.42976e-07 4.88932e-07 5.63741e-05
0.0014261 7.95038e-05 2.57135e-06
7.95038e-05 -1.81706e-05 -9.09002e-07
2.57135e-06 -9.09002e-07 -9.76816e-05
0.00124857 7.31393e-05 -9.77059e-07
7.31393e-05 0.00011516 7.98954e-07
-9.77059e-07 7.98954e-07 -1.01956e-05
0.00192706 -2.61409e-05 -2.48896e-06
-2.61409e-05 7.20631e-05 -3.47389e-07
-2.48896e-06 -3.47389e-07 8.18948e-05
0.00118773 5.10982e-05 -1.03731e-07
5.10982e-05 0.000138159 -2.9227e-07
-1.03731e-07 -2.9227e-07 4.57377e-05
0.00125204 8.8907e-05 9.56325e-06
8.8907e-05 -0.000211485 2.28065e-06
9.56325e-06 2.28065e-06 -0.0002815
0.0012673 5.58186e-05 -1.05058e-06
5.58186e-05 0.000174732 1.13464e-07
-1.05058e-06 1.13464e-07 7.59543e-05
0.0011491 6.25455e-05 -1.74093e-06
6.25455e-05 0.000145739 1.58964e-06
-1.74093e-06 1.58964e-06 1.23619e-05
0.00051484 8.27462e-05 -2.15598e-07
8.27462e-05 -0.000310102 1.36683e-06
-2.15598e-07 1.36683e-06 -0.00042615
0.00500769 -7.99511e-05 -1.61846e-05
-7.99511e-05 0.00175923 2.35701e-06
-1.61846e-05 2.35701e-06 0.00126834
0.00120375 -0.000107393 4.3242e-05
-0.000107393 -9.51481e-05 1.69837e-05
4.3242e-05 1.69837e-05 -0.000287823
0.0025697 4.62083e-05 7.84416e-09
4.62083e-05 0.000423251 3.03227e-06
7.84416e-09 3.03227e-06 0.000455519
-0.00242064 -9.48529e-05 -5.40257e-05
-9.48529e-05 -0.00142706 -1.99599e-05
-5.40257e-05 -1.99599e-05 -0.00143281
0.001139 -0.000136792 -7.60267e-06
-0.000136792 -0.000223904 1.91423e-06
-7.60267e-06 1.91423e-06 0.000223386
0.00105727 4.63821e-05 -5.74449e-07
4.63821e-05 7.99186e-05 -5.44313e-07
-5.74449e-07 -5.44313e-07 -6.81079e-06
0.00118714 5.03844e-05 -1.3123e-07
5.03844e-05 0.000136054 -7.63576e-08
-1.3123e-07 -7.63576e-08 4.52703e-05
0.00114217 4.79668e-05 6.52312e-07
4.79668e-05 9.96411e-05 8.7707e-07
6.52312e-07 8.7707e-07 5.32859e-06
0.000985747 -1.78163e-05 1.12389e-07
-1.78163e-05 3.45367e-05 -1.02775e-06
1.12389e-07 -1.02775e-06 -1.38437e-05
0.000894138 1.96505e-05 -7.32517e-08
1.96505e-05 -6.63721e-06 -1.08851e-06
-7.32517e-08 -1.08851e-06 -7.1065e-05
0.00105916 1.0556e-05 -4.01716e-08
1.0556e-05 7.4982e-05 -7.73855e-07
-4.01716e-08 -7.73855e-07 1.1884e-06
0.0011702 2.8776e-05 -3.75918e-07
2.8776e-05 0.00012931 -7.57742e-07
-3.75918e-07 -7.57742e-07 4.592e-05
0.0010564 4.54102e-05 -1.30551e-06
4.54102e-05 6.66298e-05 -1.424e-06
-1.30551e-06 -1.424e-06 -2.33112e-05
0.00106224 3.5537e-05 -2.55759e-07
3.5537e-05 7.6676e-05 -5.0936e-07
-2.55759e-07 -5.0936e-07 1.41955e-06
0.000893699 3.16278e-06 1.53971e-07
3.16278e-06 -1.22636e-05 4.55015e-07
1.53971e-07 4.55015e-07 -6.13169e-05
0.000931286 3.7707e-06 3.12083e-08
3.7707e-06 1.32438e-05 5.76228e-08
3.12083e-08 5.76228e-08 -5.06688e-05
0.00111704 4.10499e-05 7.83609e-08
4.10499e-05 9.11947e-05 3.91565e-08
7.83609e-08 3.91565e-08 -1.96148e-07
0.00113493 3.61123e-05 -2.31526e-07
3.61123e-05 0.000109923 -5.10265e-07
-2.31526e-07 -5.10265e-07 2.66982e-05
0.00123573 5.1154e-05 -9.45519e-08
5.1154e-05 0.000161835 -7.99873e-08
-9.45519e-08 -7.99873e-08 7.88968e-05
0.00118099 4.59887e-05 2.76728e-07
4.59887e-05 0.000130932 1.08991e-06
2.76728e-07 1.08991e-06 3.82679e-05
0.00092025 2.51285e-05 2.17224e-07
2.51285e-05 4.05881e-06 1.55455e-06
2.17224e-07 1.55455e-06 -7.25703e-05
0.000854907 -2.08713e-06 2.37641e-07
-2.08713e-06 -2.51949e-05 3.41569e-07
2.37641e-07 3.41569e-07 -9.00295e-05
0.000776814 -2.37815e-05 -8.66798e-07
-2.37815e-05 -7.02961e-05 1.48393e-06
-8.66798e-07 1.48393e-06 -0.0001207
0.00107858 4.64337e-06 -6.84515e-09
4.64337e-06 8.61013e-05 7.03695e-07
-6.84515e-09 7.03695e-07 2.25055e-05
0.00120669 2.24982e-05 1.99651e-07
2.24982e-05 0.000150628 5.36341e-07
1.99651e-07 5.36341e-07 7.59209e-05
0.00101491 -1.3357e-05 -1.5372e-07
-1.3357e-05 5.51262e-05 9.86123e-07
-1.5372e-07 9.86123e-07 -1.16164e-05
0.00104084 -3.58586e-06 3.03014e-07
-3.58586e-06 6.77623e-05 -5.12561e-07
3.03014e-07 -5.12561e-07 3.15253e-06
0.000980999 -2.02895e-05 -7.2638e-07
-2.02895e-05 3.12816e-05 1.03604e-06
-7.2638e-07 1.03604e-06 -1.85779e-05
0.000800841 1.5048e-06 1.43553e-07
1.5048e-06 -5.89341e-05 4.86511e-07
1.43553e-07 4.86511e-07 -0.000109349
0.000963124 8.51658e-06 2.65019e-08
8.51658e-06 9.17373e-06 1.73473e-06
2.65019e-08 1.73473e-06 -2.03704e-05
0.000956961 1.25073e-06 -2.43564e-07
1.25073e-06 6.24013e-06 -5.29776e-09
-2.43564e-07 -5.29776e-09 -2.28106e-05
0.000927078 2.54815e-06 -3.7283e-07
2.54815e-06 -2.35472e-05 4.4153e-06
-3.7283e-07 4.4153e-06 -2.40029e-05
0.000958807 -8.74967e-06 3.95884e-07
-8.74967e-06 6.98173e-06 -1.71394e-06
3.95884e-07 -1.71394e-06 -2.17323e-05
0.000911167 -8.66402e-08 9.49292e-08
-8.66402e-08 -3.21573e-05 6.32595e-10
9.49292e-08 6.32595e-10 -3.22824e-05
0.00227928 -8.99734e-07 -1.02546e-08
-8.99734e-07 0.000657172 4.05976e-06
-1.02546e-08 4.05976e-06 0.000680683
0.000928245 -2.70295e-06 -4.45623e-07
-2.70295e-06 -2.27404e-05 -4.42922e-06
-4.45623e-07 -4.42922e-06 -2.29272e-05
0.00168499 -3.87079e-06 -1.05354e-07
-3.87079e-06 0.00035736 3.24192e-08
-1.05354e-07 3.24192e-08 0.000377957
0.00105386 -6.30963e-06 -7.22487e-07
-6.30963e-06 4.00801e-05 -1.56592e-06
-7.22487e-07 -1.56592e-06 5.78826e-05
0.000972748 2.64086e-06 1.69399e-07
2.64086e-06 7.80241e-06 -1.86813e-06
1.69399e-07 -1.86813e-06 -1.63354e-05
0.00096814 4.71563e-06 -1.45457e-08
4.71563e-06 6.60081e-06 -1.07361e-08
-1.45457e-08 -1.07361e-08 -1.82946e-05
0.000899759 6.10275e-06 5.59461e-07
6.10275e-06 -3.64686e-05 -3.21292e-06
5.59461e-07 -3.21292e-06 -3.44493e-05
0.000961602 6.97226e-06 -5.62057e-07
6.97226e-06 5.06831e-06 1.87053e-06
-5.62057e-07 1.87053e-06 -2.11199e-05
0.00117827 9.52424e-06 -1.21854e-07
9.52424e-06 0.000106992 -6.08313e-07
-1.21854e-07 -6.08313e-07 0.000109214
0.00221922 1.13049e-05 6.43929e-06
1.13049e-05 0.000631201 -3.92499e-06
6.43929e-06 -3.92499e-06 0.0006547
0.000904252 1.15095e-05 -1.41454e-06
1.15095e-05 -2.75231e-05 3.22572e-06
-1.41454e-06 3.22572e-06 -2.84741e-05
0.00227696 1.4718e-05 -3.23709e-06
1.4718e-05 0.000664874 1.1454e-06
-3.23709e-06 1.1454e-06 0.000687092
0.0022978 1.88133e-05 -1.1401e-05
1.88133e-05 0.000680122 3.98079e-06
-1.1401e-05 3.98079e-06 0.000701176
0.00132989 -1.65138e-05 -2.63022e-06
-1.65138e-05 -2.95889e-06 -2.34598e-07
-2.63022e-06 -2.34598e-07 -7.02109e-05
0.00147765 1.63937e-06 -2.66608e-06
1.63937e-06 9.11353e-05 -1.16915e-06
-2.66608e-06 -1.16915e-06 1.43469e-05
0.00141477 -1.97707e-05 2.0804e-06
-1.97707e-05 4.37906e-05 3.87342e-07
2.0804e-06 3.87342e-07 -1.91477e-05
0.00157511 -4.33575e-05 -1.16904e-06
-4.33575e-05 2.69274e-05 -2.01636e-06
-1.16904e-06 -2.01636e-06 4.82411e-06
0.00141128 1.53954e-06 -7.16899e-07
1.53954e-06 4.85249e-05 -4.55267e-07
-7.16899e-07 -4.55267e-07 -2.07618e-05
0.00126781 9.82766e-06 -8.43505e-07
9.82766e-06 -8.59283e-05 -4.7055e-07
-8.43505e-07 -4.7055e-07 -0.000133294
0.00155508 3.06438e-05 1.98994e-06
3.06438e-05 4.20759e-05 2.77723e-06
1.98994e-06 2.77723e-06 -3.02646e-05
0.00218014 -0.0001101 0.000123734
-0.0001101 0.000440641 3.73561e-05
0.000123734 3.73561e-05 0.0002222
0.0012758 -5.6731e-07 -4.41807e-06
-5.6731e-07 6.32469e-05 6.79979e-07
-4.41807e-06 6.79979e-07 2.96624e-05
0.000992026 -4.53188e-07 -2.03971e-07
-4.53188e-07 3.19318e-05 -1.12901e-06
-2.03971e-07 -1.12901e-06 -9.84113e-06
0.000997217 -1.21402e-05 2.05601e-07
-1.21402e-05 3.45081e-05 4.67146e-09
2.05601e-07 4.67146e-09 -7.68512e-06
0.00101443 1.06759e-05 -2.04157e-07
1.06759e-05 5.23313e-05 -7.88758e-07
-2.04157e-07 -7.88758e-07 -3.24886e-06
0.00101883 -1.07251e-05 -2.18398e-07
-1.07251e-05 5.38667e-05 -3.58636e-07
-2.18398e-07 -3.58636e-07 -1.51581e-06
0.00154671 2.99174e-05 -3.26178e-06
2.99174e-05 8.81185e-05 -7.26331e-07
-3.26178e-06 -7.26331e-07 1.34806e-05
0.00172692 -8.30579e-06 -3.4776e-07
-8.30579e-06 0.000141008 1.74902e-06
-3.4776e-07 1.74902e-06 8.51287e-05
0.0012565 -5.35657e-05 -3.92605e-06
-5.35657e-05 -9.57046e-05 6.41173e-07
-3.92605e-06 6.41173e-07 -0.000129305
0.00110325 -5.46603e-05 -5.45904e-07
-5.46603e-05 8.66066e-05 2.7136e-06
-5.45904e-07 2.7136e-06 -6.54284e-07
0.000782425 -5.81493e-05 -6.31989e-07
-5.81493e-05 -8.02953e-05 2.50133e-06
-6.31989e-07 2.50133e-06 -0.000193998
0.00108423 -6.40954e-05 -3.34373e-06
-6.40954e-05 -5.55052e-05 -3.45255e-07
-3.34373e-06 -3.45255e-07 -0.000132106
0.000972689 -5.20086e-05 -3.44297e-06
-5.20086e-05 3.62657e-05 1.37289e-06
-3.44297e-06 1.37289e-06 -5.68525e-05
0.00112492 -3.97124e-05 -1.1478e-06
-3.97124e-05 0.000121419 7.34962e-07
-1.1478e-06 7.34962e-07 2.02642e-05
0.00107309 -4.41342e-05 -4.22174e-07
-4.41342e-05 8.93024e-05 1.80551e-06
-4.22174e-07 1.80551e-06 -2.62895e-06
0.000988556 -1.53801e-06 -5.8796e-07
-1.53801e-06 3.17494e-05 1.3236e-06
-5.8796e-07 1.3236e-06 -1.49364e-05
0.00113452 -3.29908e-05 -1.29352e-07
-3.29908e-05 0.000112605 9.81238e-07
-1.29352e-07 9.81238e-07 3.21096e-05
0.00106103 1.05579e-06 -4.74693e-07
1.05579e-06 7.54309e-05 1.18077e-06
-4.74693e-07 1.18077e-06 1.13571e-05
0.00101543 -6.22698e-06 -1.10856e-07
-6.22698e-06 4.34524e-05 7.21491e-07
-1.10856e-07 7.21491e-07 3.83056e-07
0.000847529 1.04456e-05 -2.20311e-07
1.04456e-05 -2.9816e-05 1.76698e-06
-2.20311e-07 1.76698e-06 -9.09676e-05
0.0015479 2.77776e-05 1.336e-07
2.77776e-05 7.08117e-05 1.40846e-06
1.336e-07 1.40846e-06 1.9975e-06
0.000998524 1.39005e-05 2.61546e-08
1.39005e-05 4.5634e-05 -4.90324e-07
2.61546e-08 -4.90324e-07 -1.17342e-05
0.000962532 -1.83761e-06 3.41395e-07
-1.83761e-06 2.74872e-05 -5.82113e-09
3.41395e-07 -5.82113e-09 -3.52548e-05
0.00105032 2.00795e-05 -3.22189e-08
2.00795e-05 7.41438e-05 9.63224e-07
-3.22189e-08 9.63224e-07 4.29215e-06
0.00172616 -3.21e-05 -2.4165e-06
-3.21e-05 9.18026e-05 6.94142e-07
-2.4165e-06 6.94142e-07 6.94767e-05
0.00137733 -7.22541e-05 -8.55723e-07
-7.22541e-05 -1.09426e-05 -8.88296e-07
-8.55723e-07 -8.88296e-07 -6.49317e-05
0.00110167 -6.08401e-05 9.47797e-08
-6.08401e-05 0.000109501 -3.00141e-07
9.47797e-08 -3.00141e-07 7.58205e-06
0.0014262 -7.77497e-05 2.56222e-07
-7.77497e-05 0.000198335 5.45132e-07
2.56222e-07 5.45132e-07 9.09596e-05
0.00115389 -2.77542e-05 -1.41702e-07
-2.77542e-05 0.00012548 7.65436e-08
-1.41702e-07 7.65436e-08 4.8341e-05
0.00104435 -3.73355e-05 -2.77244e-07
-3.73355e-05 6.92365e-05 7.49338e-07
-2.77244e-07 7.49338e-07 -1.79872e-05
0.00106566 -4.82085e-05 1.32294e-06
-4.82085e-05 0.00010967 -1.83801e-07
1.32294e-06 -1.83801e-07 -5.95317e-06
0.00117855 -4.078e-05 1.33539e-07
-4.078e-05 0.000150998 -5.49979e-07
1.33539e-07 -5.49979e-07 5.01202e-05
0.000949712 1.94e-05 4.2864e-06
1.94e-05 -0.000298024 -1.21681e-06
4.2864e-06 -1.21681e-06 -0.000349839
0.00231359 -8.37535e-05 9.92903e-06
-8.37535e-05 0.000322524 -5.41845e-06
9.92903e-06 -5.41845e-06 0.000297569
0.00156972 -8.83612e-05 6.14061e-06
-8.83612e-05 0.000188206 -9.41276e-07
6.14061e-06 -9.41276e-07 8.63595e-05
0.00113242 -7.26425e-05 1.20351e-06
-7.26425e-05 0.000128117 -2.65806e-06
1.20351e-06 -2.65806e-06 1.31554e-05
0.000968085 1.48871e-05 -2.99411e-07
1.48871e-05 3.57113e-05 -9.07624e-07
-2.99411e-07 -9.07624e-07 -3.80128e-05
0.000984146 -2.97348e-05 7.05837e-07
-2.97348e-05 4.26734e-05 -1.74156e-06
7.05837e-07 -1.74156e-06 -3.27459e-05
0.001053 -4.63522e-05 4.42218e-07
-4.63522e-05 7.93763e-05 -1.20833e-06
4.42218e-07 -1.20833e-06 -1.2757e-05
0.00114006 -3.20933e-05 -3.01884e-07
-3.20933e-05 0.00015124 -1.25058e-06
-3.01884e-07 -1.25058e-06 2.42087e-05
0.000836015 -6.45416e-06 -2.26152e-06
-6.45416e-06 -0.00020634 -1.09893e-06
-2.26152e-06 -1.09893e-06 -0.000671287
0.00114919 4.95091e-05 -2.83071e-07
4.95091e-05 0.000124492 -3.41469e-07
-2.83071e-07 -3.41469e-07 3.66633e-05
0.00101575 4.90384e-05 1.91349e-07
4.90384e-05 4.48125e-05 -9.9781e-08
1.91349e-07 -9.9781e-08 -4.68088e-05
0.00128227 3.48939e-05 -7.07937e-06
3.48939e-05 -0.000171845 -1.41542e-07
-7.07937e-06 -1.41542e-07 -0.000212302
0.00170653 8.13483e-05 -4.61171e-06
8.13483e-05 0.000103664 -2.39668e-06
-4.61171e-06 -2.39668e-06 2.7265e-05
0.00136861 7.64477e-05 -1.60538e-06
7.64477e-05 0.000179717 -7.14139e-07
-1.60538e-06 -7.14139e-07 4.90111e-05
0.000959997 5.16875e-05 1.0923e-06
5.16875e-05 3.30101e-05 -5.10649e-07
1.0923e-06 -5.10649e-07 -7.63696e-05
0.00154968 -1.54134e-05 -3.37477e-06
-1.54134e-05 -8.1964e-05 3.4599e-07
-3.37477e-06 3.4599e-07 -7.78174e-05
0.00118266 5.0986e-05 -2.54774e-08
5.0986e-05 0.000136565 -1.33724e-07
-2.54774e-08 -1.33724e-07 4.4389e-05
0.00165335 9.28974e-05 5.97475e-07
9.28974e-05 -3.44572e-05 -2.81627e-07
5.97475e-07 -2.81627e-07 -0.000103935
0.00113848 5.2642e-05 4.75895e-07
5.2642e-05 0.000114811 3.78019e-08
4.75895e-07 3.78019e-08 1.59909e-05
0.00109956 6.13416e-05 -3.23176e-07
6.13416e-05 0.000121702 -1.22432e-07
-3.23176e-07 -1.22432e-07 -9.52685e-06
0.000734376 8.44561e-05 -1.76914e-06
8.44561e-05 -0.000204994 2.503e-07
-1.76914e-06 2.503e-07 -0.000318086
0.0015389 -6.73997e-05 -1.26748e-05
-6.73997e-05 0.000264502 -5.24848e-06
-1.26748e-05 -5.24848e-06 -0.000237848
0.00211468 -0.00010502 3.25162e-06
-0.00010502 0.000180621 -3.50336e-06
3.25162e-06 -3.50336e-06 -0.000101527
0.00213659 5.29262e-05 -1.73319e-06
5.29262e-05 0.000216969 -1.1534e-07
-1.73319e-06 -1.1534e-07 0.000252078
-0.000135519 -0.000109787 -1.0006e-05
-0.000109787 -0.000459527 -5.32775e-06
-1.0006e-05 -5.32775e-06 -0.000516538
0.000495125 -0.000137168 -2.92118e-06
-0.000137168 -0.000503626 -1.80921e-06
-2.92118e-06 -1.80921e-06 -0.000122115
0.00111578 4.99485e-05 1.24849e-06
4.99485e-05 0.000105988 4.48158e-08
1.24849e-06 4.48158e-08 1.10938e-05
-2.39984e-05 2.4369e-05 -0.000100107
2.4369e-05 -0.00035838 -9.23997e-06
-0.000100107 -9.23997e-06 -0.00055036
0.00244663 -6.2648e-05 1.5707e-06
-6.2648e-05 0.000953018 -5.56028e-07
1.5707e-06 -5.56028e-07 0.00108566
0.00160939 0.000118234 6.58283e-06
0.000118234 9.44498e-05 6.37918e-06
6.58283e-06 6.37918e-06 9.09846e-06
0.000882733 3.63655e-05 -1.40092e-07
3.63655e-05 -2.07889e-07 -6.03455e-07
-1.40092e-07 -6.03455e-07 -0.000110446
0.00152909 5.64507e-05 -4.0409e-06
5.64507e-05 0.000378956 1.93777e-06
-4.0409e-06 1.93777e-06 0.000211741
0.00168433 4.3705e-05 -1.10306e-05
4.3705e-05 0.00010157 -9.75423e-06
-1.10306e-05 -9.75423e-06 3.94433e-05
0.0051201 -0.000160364 -6.95242e-05
-0.000160364 0.00154927 -1.59686e-05
-6.95242e-05 -1.59686e-05 0.000880315
0.00174386 -3.51439e-05 2.59343e-05
-3.51439e-05 7.34363e-05 2.65064e-05
2.59343e-05 2.65064e-05 -0.000295079
0.000330678 -0.000181811 -5.66541e-05
-0.000181811 -0.000130805 -2.64673e-05
-5.66541e-05 -2.64673e-05 -3.76113e-05
-0.000884957 -6.61355e-05 -8.33606e-07
-6.61355e-05 -0.00124714 8.73893e-06
-8.33606e-07 8.73893e-06 -0.00104863
0.00111171 4.8445e-05 -1.10865e-06
4.8445e-05 0.000100175 -8.00005e-07
-1.10865e-06 -8.00005e-07 9.42693e-06
0.00116889 4.90012e-05 -4.60456e-07
4.90012e-05 0.000114089 2.6989e-07
-4.60456e-07 2.6989e-07 1.96918e-05
0.00125196 5.11425e-05 -1.52437e-07
5.11425e-05 0.000145602 3.69148e-07
-1.52437e-07 3.69148e-07 4.66229e-05
0.000989373 2.35714e-06 -1.17442e-08
2.35714e-06 3.61698e-05 -5.37532e-07
-1.17442e-08 -5.37532e-07 -1.253e-05
0.00103004 -2.84291e-06 1.5276e-07
-2.84291e-06 6.33217e-05 -1.0504e-06
1.5276e-07 -1.0504e-06 1.40837e-07
0.00095662 2.90722e-05 -7.33168e-07
2.90722e-05 2.23919e-05 -1.29236e-06
-7.33168e-07 -1.29236e-06 -5.35894e-05
0.00106444 3.57141e-05 -5.22072e-07
3.57141e-05 7.44444e-05 -1.21927e-06
-5.22072e-07 -1.21927e-06 -9.16082e-06
0.00112018 4.04049e-05 -6.0979e-07
4.04049e-05 9.49231e-05 -1.08802e-06
-6.0979e-07 -1.08802e-06 4.06727e-06
0.000786314 -6.35901e-06 2.5661e-07
-6.35901e-06 -6.58713e-05 4.80992e-07
2.5661e-07 4.80992e-07 -0.000116143
0.00112654 4.32236e-05 -3.97318e-07
4.32236e-05 0.000106191 -7.29855e-07
-3.97318e-07 -7.29855e-07 2.35847e-05
0.00107684 1.31505e-05 2.25604e-08
1.31505e-05 8.3586e-05 4.87563e-07
2.25604e-08 4.87563e-07 7.89705e-06
0.000947024 6.46959e-06 1.82095e-07
6.46959e-06 2.06979e-05 -4.13989e-07
1.82095e-07 -4.13989e-07 -4.34784e-05
0.00105469 4.32961e-05 -1.19239e-08
4.32961e-05 6.62299e-05 2.56909e-07
-1.19239e-08 2.56909e-07 -2.7391e-05
0.0011051 3.93317e-05 1.76185e-08
3.93317e-05 9.55894e-05 5.68086e-07
1.76185e-08 5.68086e-07 8.58458e-06
0.00121839 4.57948e-05 2.52613e-07
4.57948e-05 0.000166486 8.44614e-07
2.52613e-07 8.44614e-07 6.16928e-05
0.00104934 -2.81302e-05 -3.97959e-07
-2.81302e-05 7.05554e-05 7.95317e-07
-3.97959e-07 7.95317e-07 -5.15729e-06
0.00106633 -2.14368e-05 -2.33307e-07
-2.14368e-05 7.99423e-05 2.61241e-07
-2.33307e-07 2.61241e-07 1.62251e-05
0.00107346 -7.83258e-06 -1.781e-07
-7.83258e-06 8.36613e-05 -5.20409e-08
-1.781e-07 -5.20409e-08 2.01215e-05
0.001078 6.35114e-06 -1.1763e-07
6.35114e-06 8.47558e-05 -4.31725e-07
-1.1763e-07 -4.31725e-07 9.43403e-06
0.00106685 7.13638e-06 9.31364e-08
7.13638e-06 8.02209e-05 8.97993e-07
9.31364e-08 8.97993e-07 4.55061e-06
0.00105589 -5.74914e-06 -5.0629e-08
-5.74914e-06 7.48913e-05 1.01211e-06
-5.0629e-08 1.01211e-06 -2.30574e-06
0.00115653 3.177e-06 -3.99352e-09
3.177e-06 0.000120294 3.90912e-08
-3.99352e-09 3.90912e-08 3.80917e-05
0.00103235 -3.5709e-05 -7.04932e-07
-3.5709e-05 6.8009e-05 8.39299e-07
-7.04932e-07 8.39299e-07 -1.59521e-05
0.00102407 -2.04635e-05 -2.44326e-07
-2.04635e-05 5.89344e-05 1.01615e-06
-2.44326e-07 1.01615e-06 -1.02621e-05
0.0010191 -1.56909e-05 4.05714e-08
-1.56909e-05 5.70896e-05 -1.69936e-08
4.05714e-08 -1.69936e-08 -9.51072e-06
0.000989977 -1.15073e-05 -4.85585e-07
-1.15073e-05 3.45153e-05 1.15286e-06
-4.85585e-07 1.15286e-06 -1.6552e-05
0.000876388 -7.74865e-06 3.63627e-07
-7.74865e-06 -1.58006e-05 -1.39321e-06
3.63627e-07 -1.39321e-06 -8.10902e-05
0.000893136 -1.14425e-05 1.03624e-07
-1.14425e-05 -1.33083e-05 -9.92588e-09
1.03624e-07 -9.92588e-09 -6.35494e-05
0.000968428 5.25104e-06 -3.20929e-07
5.25104e-06 1.1651e-05 1.76494e-06
-3.20929e-07 1.76494e-06 -1.85823e-05
0.000800638 1.60386e-06 1.12927e-07
1.60386e-06 -5.90056e-05 -5.2398e-07
1.12927e-07 -5.2398e-07 -0.000109301
0.000960912 4.43844e-07 -1.55681e-07
4.43844e-07 7.92975e-06 -1.35373e-08
-1.55681e-07 -1.35373e-08 -2.15963e-05
0.00151864 5.57844e-06 -2.183e-06
5.57844e-06 0.000277189 4.384e-06
-2.183e-06 4.384e-06 0.000279202
0.000955255 -8.16354e-06 5.31031e-07
-8.16354e-06 5.36137e-06 -1.70466e-06
5.31031e-07 -1.70466e-06 -2.36868e-05
0.00121683 2.73694e-06 -7.57891e-07
2.73694e-06 0.000122995 6.17757e-07
-7.57891e-07 6.17757e-07 0.000124
0.00110355 1.7368e-06 -1.75265e-06
1.7368e-06 6.25567e-05 3.95978e-06
-1.75265e-06 3.95978e-06 8.02072e-05
0.000915334 -1.48191e-07 5.24674e-08
-1.48191e-07 -3.00324e-05 -3.13607e-06
5.24674e-08 -3.13607e-06 -3.01867e-05
0.00227706 -7.17142e-07 1.0169e-06
-7.17142e-07 0.00065605 -8.41555e-11
1.0169e-06 -8.41555e-11 0.000679562
0.00109948 -2.79052e-06 -8.22649e-07
-2.79052e-06 6.11844e-05 -3.96229e-06
-8.22649e-07 -3.96229e-06 7.89585e-05
0.00100243 1.67183e-05 1.62109e-07
1.67183e-05 3.69218e-05 -6.19333e-07
1.62109e-07 -6.19333e-07 -5.46836e-06
0.000972247 5.53456e-07 3.42955e-08
5.53456e-07 7.08922e-06 -1.85746e-06
3.42955e-08 -1.85746e-06 -1.68853e-05
0.000971592 2.31906e-06 -4.01215e-08
2.31906e-06 7.03753e-06 -1.44994e-08
-4.01215e-08 -1.44994e-08 -1.70826e-05
0.000907064 3.14543e-06 2.61672e-07
3.14543e-06 -3.45315e-05 -3.22794e-06
2.61672e-07 -3.22794e-06 -3.18186e-05
0.000965748 4.42323e-06 -4.11492e-07
4.42323e-06 5.16239e-06 1.87888e-06
-4.11492e-07 1.87888e-06 -1.96997e-05
0.000903782 6.14113e-06 4.97258e-08
6.14113e-06 -3.4701e-05 -6.2251e-07
4.97258e-08 -6.2251e-07 -3.26151e-05
0.00219278 7.53955e-06 4.20309e-06
7.53955e-06 0.000615249 -3.94668e-06
4.20309e-06 -3.94668e-06 0.000639471
0.00145772 1.07161e-05 -1.25089e-06
1.07161e-05 0.00024853 1.98476e-06
-1.25089e-06 1.98476e-06 0.000251934
0.00167294 1.00699e-05 1.69032e-07
1.00699e-05 0.000355772 1.21352e-06
1.69032e-07 1.21352e-06 0.00037619
0.0011408 1.16996e-05 -9.09322e-06
1.16996e-05 9.08118e-05 6.45397e-06
-9.09322e-06 6.45397e-06 0.000107248
0.000667047 -3.31885e-05 -4.93586e-06
-3.31885e-05 -0.000406722 1.33114e-06
-4.93586e-06 1.33114e-06 -0.000419955
0.00130143 -1.25442e-06 -2.59734e-06
-1.25442e-06 -4.14633e-06 -7.18278e-07
-2.59734e-06 -7.18278e-07 -7.41358e-05
0.000902982 8.11791e-06 -6.31814e-06
8.11791e-06 -0.000256939 -4.31975e-06
-6.31814e-06 -4.31975e-06 -0.000310061
0.00098719 -9.00645e-05 3.66151e-05
-9.00645e-05 6.35316e-05 6.05452e-06
3.66151e-05 6.05452e-06 -0.000141379
0.00111459 -7.42834e-06 -1.79137e-06
-7.42834e-06 -1.35395e-05 -4.18396e-07
-1.79137e-06 -4.18396e-07 -4.13016e-05
0.00139806 3.24594e-05 -1.58578e-06
3.24594e-05 -3.70054e-05 -1.47381e-06
-1.58578e-06 -1.47381e-06 -0.00010973
0.00123108 4.79161e-05 2.24975e-06
4.79161e-05 3.93465e-05 2.24034e-06
2.24975e-06 2.24034e-06 -1.24625e-05
0.000893527 -2.82469e-05 0.000104148
-2.82469e-05 4.14177e-06 8.0314e-06
0.000104148 8.0314e-06 -0.000223866
0.00444257 6.49661e-05 -1.93642e-05
6.49661e-05 0.00127833 -1.941e-06
-1.93642e-05 -1.941e-06 0.000669644
0.00270776 0.000176691 -3.73771e-05
0.000176691 0.00096378 1.92679e-05
-3.73771e-05 1.92679e-05 0.000891049
0.00116886 0.000104943 -8.19452e-06
0.000104943 2.27341e-05 1.39801e-06
-8.19452e-06 1.39801e-06 0.000301774
0.000811991 -1.03185e-06 5.72789e-07
-1.03185e-06 -4.85315e-05 -1.20694e-06
5.72789e-07 -1.20694e-06 -0.000105129
0.000995803 -5.52234e-06 -8.29707e-08
-5.52234e-06 3.37643e-05 8.93266e-11
-8.29707e-08 8.93266e-11 -7.95159e-06
0.00100653 -1.93911e-05 -5.36812e-07
-1.93911e-05 3.94845e-05 1.15042e-06
-5.36812e-07 1.15042e-06 -2.99408e-06
0.000938254 1.36596e-05 -1.51746e-07
1.36596e-05 1.49201e-05 1.62661e-10
-1.51746e-07 1.62661e-10 -4.12251e-05
0.0011334 3.56477e-05 1.86482e-07
3.56477e-05 0.000117588 5.54676e-08
1.86482e-07 5.54676e-08 5.12423e-05
0.00108859 4.07489e-05 1.94377e-07
4.07489e-05 9.27608e-05 -2.07266e-08
1.94377e-07 -2.07266e-08 2.85977e-05
0.00104287 4.03068e-06 3.63651e-07
4.03068e-06 6.71208e-05 -1.65052e-06
3.63651e-07 -1.65052e-06 9.92464e-06
0.000956478 -1.44828e-05 -1.9427e-07
-1.44828e-05 2.27681e-05 4.9007e-07
-1.9427e-07 4.9007e-07 -3.2976e-05
0.00168954 2.7841e-05 -3.09408e-06
2.7841e-05 0.000143138 4.74429e-07
-3.09408e-06 4.74429e-07 7.58754e-05
0.00151227 -3.27012e-05 -2.80979e-06
-3.27012e-05 -2.43551e-06 1.65148e-06
-2.80979e-06 1.65148e-06 -2.97326e-05
0.00108485 -6.71355e-05 -8.11867e-06
-6.71355e-05 -0.000154284 -4.41183e-07
-8.11867e-06 -4.41183e-07 -0.000206031
0.00118642 -6.2311e-05 -5.09676e-07
-6.2311e-05 0.000148627 2.0982e-06
-5.09676e-07 2.0982e-06 4.66197e-05
0.00127021 -7.47524e-05 -1.76783e-06
-7.47524e-05 0.000125117 2.39352e-06
-1.76783e-06 2.39352e-06 1.84114e-05
0.0010638 -4.84561e-05 -4.9042e-07
-4.84561e-05 0.000104257 9.73253e-07
-4.9042e-07 9.73253e-07 -6.9198e-06
0.00124635 -4.44046e-05 1.80676e-07
-4.44046e-05 0.00018512 8.00899e-07
1.80676e-07 8.00899e-07 8.29316e-05
0.00101113 -3.8362e-05 -5.92726e-07
-3.8362e-05 5.16816e-05 1.4174e-06
-5.92726e-07 1.4174e-06 -3.5183e-05
0.00102555 -1.0846e-05 -3.55256e-07
-1.0846e-05 5.97141e-05 1.28799e-06
-3.55256e-07 1.28799e-06 -2.34166e-06
0.00118834 -1.92251e-05 -2.41455e-07
-1.92251e-05 0.00014279 1.00118e-06
-2.41455e-07 1.00118e-06 6.64742e-05
0.00120497 7.13091e-06 -3.06069e-07
7.13091e-06 0.000148769 5.40949e-07
-3.06069e-07 5.40949e-07 9.29047e-05
0.000941691 2.40239e-05 2.71055e-07
2.40239e-05 1.87261e-05 2.21597e-06
2.71055e-07 2.21597e-06 -5.0411e-05
0.00172035 2.91856e-05 6.92236e-07
2.91856e-05 6.49502e-05 -2.75574e-06
6.92236e-07 -2.75574e-06 1.41418e-05
0.000999022 1.5407e-05 -2.17965e-07
1.5407e-05 5.13151e-05 2.83328e-07
-2.17965e-07 2.83328e-07 -2.1838e-05
0.00103638 -3.02588e-05 1.45029e-07
-3.02588e-05 6.91467e-05 -4.40569e-07
1.45029e-07 -4.40569e-07 -6.26826e-06
0.00174711 -7.72457e-05 -4.14936e-06
-7.72457e-05 5.17848e-05 -9.99231e-07
-4.14936e-06 -9.99231e-07 3.35668e-05
0.000927885 -7.78496e-05 1.65475e-06
-7.78496e-05 -0.000119821 1.27971e-06
1.65475e-06 1.27971e-06 -0.000219178
0.00111485 -7.31946e-05 9.13018e-08
-7.31946e-05 0.000118804 -5.20115e-07
9.13018e-08 -5.20115e-07 -1.55839e-06
0.00108828 -4.10173e-05 -2.37784e-08
-4.10173e-05 9.52282e-05 -1.46907e-07
-2.37784e-08 -1.46907e-07 3.15462e-06
0.00114023 -3.44293e-05 -1.0572e-07
-3.44293e-05 0.000150298 2.39789e-07
-1.0572e-07 2.39789e-07 2.37349e-05
0.00145889 -3.41882e-05 6.5549e-07
-3.41882e-05 -0.000267894 9.74371e-06
6.5549e-07 9.74371e-06 -0.000224682
0.00250735 -0.000136489 1.23227e-05
-0.000136489 0.000556352 -2.41001e-06
1.23227e-05 -2.41001e-06 0.000451788
0.000523613 -7.72637e-05 1.36437e-06
-7.72637e-05 -0.000214004 -3.17531e-06
1.36437e-06 -3.17531e-06 -0.000332457
0.00125672 -5.41864e-05 6.60859e-07
-5.41864e-05 0.000221309 -1.77839e-06
6.60859e-07 -1.77839e-06 6.46945e-05
0.000954108 -2.72803e-05 1.55756e-07
-2.72803e-05 3.20172e-05 -9.80135e-07
1.55756e-07 -9.80135e-07 -4.89042e-05
0.00104944 -2.65917e-05 6.66935e-07
-2.65917e-05 7.53722e-05 -1.46336e-06
6.66935e-07 -1.46336e-06 -1.14384e-05
0.0012469 -2.07296e-05 -4.45596e-08
-2.07296e-05 0.00018278 -1.04669e-06
-4.45596e-08 -1.04669e-06 7.50472e-05
-0.000580424 -1.07442e-05 -9.26664e-05
-1.07442e-05 -0.000554034 1.04412e-07
-9.26664e-05 1.04412e-07 -0.000559955
0.00479819 -2.32911e-05 -2.12285e-05
-2.32911e-05 0.00160093 -2.98745e-06
-2.12285e-05 -2.98745e-06 0.00112003
0.0011986 5.14171e-05 -2.28553e-07
5.14171e-05 0.00014498 -9.47387e-08
-2.28553e-07 -9.47387e-08 5.30451e-05
0.000989545 4.89348e-05 8.65866e-07
4.89348e-05 4.48941e-05 -1.22562e-06
8.65866e-07 -1.22562e-06 -5.39184e-05
0.00200007 9.63645e-05 -1.09515e-05
9.63645e-05 0.000117881 -1.34485e-06
-1.09515e-05 -1.34485e-06 4.86265e-05
0.00107298 8.87619e-05 -1.9623e-06
8.87619e-05 -4.43543e-05 -2.92503e-06
-1.9623e-06 -2.92503e-06 -0.000154032
0.00106772 6.03462e-05 1.44376e-06
6.03462e-05 0.000106256 -1.61103e-06
1.44376e-06 -1.61103e-06 -2.22317e-05
0.00455463 -3.01918e-05 1.85159e-05
-3.01918e-05 0.00137796 -1.13817e-05
1.85159e-05 -1.13817e-05 0.00076804
0.000809071 -0.000108682 -4.03822e-05
-0.000108682 -0.000147661 -1.67501e-05
-4.03822e-05 -1.67501e-05 -0.000370899
0.00179377 6.02018e-05 8.24831e-06
6.02018e-05 5.51988e-05 -2.68297e-06
8.24831e-06 -2.68297e-06 8.49573e-05
0.00261332 -0.000155256 3.40851e-05
-0.000155256 0.000991908 1.16756e-05
3.40851e-05 1.16756e-05 0.000932298
-0.000155255 -0.000139176 1.04591e-05
-0.000139176 -0.000792962 1.04403e-05
1.04591e-05 1.04403e-05 -0.000467928
0.00111915 5.01879e-05 3.04455e-07
5.01879e-05 0.000103763 -2.4672e-07
3.04455e-07 -2.4672e-07 9.14181e-06
-0.000612205 -2.03698e-05 -1.75096e-05
-2.03698e-05 -0.000434467 -6.36401e-07
-1.75096e-05 -6.36401e-07 -0.000462149
0.00137205 -6.10427e-05 -1.90107e-06
-6.10427e-05 0.000334513 1.6047e-06
-1.90107e-06 1.6047e-06 0.000452816
0.00159723 0.000119652 9.44097e-07
0.000119652 8.78665e-05 1.16684e-06
9.44097e-07 1.16684e-06 2.56377e-06
0.001152 4.43899e-05 -1.05117e-07
4.43899e-05 0.000137674 -1.07139e-06
-1.05117e-07 -1.07139e-06 3.09637e-05
0.00135658 6.07229e-05 5.09859e-07
6.07229e-05 0.00029321 7.58041e-08
5.09859e-07 7.58041e-08 0.00012899
0.00177524 3.84729e-05 -2.17658e-05
3.84729e-05 0.000176809 -1.40479e-05
-2.17658e-05 -1.40479e-05 0.000109292
0.0040597 -7.88255e-05 8.06484e-06
-7.88255e-05 0.000969948 7.21788e-06
8.06484e-06 7.21788e-06 0.000250641
0.00100226 -4.17983e-05 -5.67939e-06
-4.17983e-05 -5.92559e-05 -1.40807e-05
-5.67939e-06 -1.40807e-05 -0.000204515
0.00261194 -0.000252599 7.58295e-06
-0.000252599 0.000597697 -1.81778e-06
7.58295e-06 -1.81778e-06 0.000614488
0.000283621 -7.33439e-05 -2.46495e-06
-7.33439e-05 -0.000564262 -2.60407e-06
-2.46495e-06 -2.60407e-06 -0.000332939
0.00104322 3.14598e-05 -8.59352e-07
3.14598e-05 3.79638e-05 -6.38792e-07
-8.59352e-07 -6.38792e-07 -5.73978e-05
0.000443813 -1.20402e-05 7.4666e-06
-1.20402e-05 -9.37326e-05 9.73935e-07
7.4666e-06 9.73935e-07 -8.87479e-05
0.000835306 -4.55153e-06 7.98362e-06
-4.55153e-06 9.59882e-05 8.63895e-06
7.98362e-06 8.63895e-06 3.34394e-05
0.000895111 5.55223e-05 1.15559e-05
5.55223e-05 -3.35304e-06 4.08375e-06
1.15559e-05 4.08375e-06 -0.000188446
0.00170723 3.63208e-05 -5.65849e-06
3.63208e-05 0.000467713 -2.88978e-07
-5.65849e-06 -2.88978e-07 0.000338233
0.00255318 -3.37052e-05 -9.19381e-06
-3.37052e-05 0.000915056 -3.63256e-06
-9.19381e-06 -3.63256e-06 0.000888199
0.000326788 9.96245e-05 -4.98754e-05
9.96245e-05 -0.000107323 -3.94284e-07
-4.98754e-05 -3.94284e-07 -0.000325627
0.00249841 -0.000190954 1.6285e-05
-0.000190954 0.00015597 2.95288e-05
1.6285e-05 2.95288e-05 -0.000586115
0.00338563 -0.000281948 -3.34335e-05
-0.000281948 0.000732866 -1.51817e-05
-3.34335e-05 -1.51817e-05 0.000790412
-3.84398e-05 -1.06451e-05 -3.53531e-06
-1.06451e-05 -0.000628857 8.1236e-06
-3.53531e-06 8.1236e-06 -0.000606015
0.00120894 5.06869e-05 -7.27022e-07
5.06869e-05 0.000135177 3.34207e-07
-7.27022e-07 3.34207e-07 4.06356e-05
0.00115606 4.83647e-05 3.68059e-07
4.83647e-05 9.90027e-05 4.92891e-07
3.68059e-07 4.92891e-07 -3.77041e-07
0.000873819 4.56528e-05 1.47992e-06
4.56528e-05 -1.43941e-05 -1.05924e-07
1.47992e-06 -1.05924e-07 -0.00012238
0.000795834 1.18069e-05 6.41671e-08
1.18069e-05 -6.1381e-05 -5.15182e-07
6.41671e-08 -5.15182e-07 -0.000111533
0.00103689 1.28346e-05 -3.40663e-09
1.28346e-05 6.54961e-05 -1.20381e-06
-3.40663e-09 -1.20381e-06 2.02135e-06
0.00123448 -1.16916e-06 1.18709e-07
-1.16916e-06 0.000163661 -1.86648e-07
1.18709e-07 -1.86648e-07 8.89005e-05
0.00102075 3.58126e-05 -3.15539e-07
3.58126e-05 5.23599e-05 -1.46896e-06
-3.15539e-07 -1.46896e-06 -2.99548e-05
0.000919269 4.11034e-05 -3.7592e-07
4.11034e-05 -2.99893e-06 -5.6194e-07
-3.7592e-07 -5.6194e-07 -9.76084e-05
0.00105563 5.45066e-06 2.77987e-07
5.45066e-06 7.49054e-05 -4.81928e-07
2.77987e-07 -4.81928e-07 1.09945e-05
0.00107897 3.40774e-05 -1.23869e-07
3.40774e-05 8.32184e-05 -1.03705e-07
-1.23869e-07 -1.03705e-07 -2.77471e-06
0.00104515 -1.197e-05 1.04036e-08
-1.197e-05 6.86071e-05 8.66177e-08
1.04036e-08 8.66177e-08 -7.16806e-06
0.0011023 4.00315e-05 3.21177e-07
4.00315e-05 0.000109507 3.17136e-07
3.21177e-07 3.17136e-07 3.60678e-06
0.00120776 9.46758e-06 2.66803e-07
9.46758e-06 0.00017179 -5.7964e-07
2.66803e-07 -5.7964e-07 5.81886e-05
0.00117849 1.82344e-05 -4.59876e-07
1.82344e-05 0.000140872 1.31556e-06
-4.59876e-07 1.31556e-06 4.83779e-05
0.00108872 8.31359e-06 2.00414e-07
8.31359e-06 9.08795e-05 6.16277e-07
2.00414e-07 6.16277e-07 1.50784e-05
0.00106395 -1.41251e-05 1.35623e-08
-1.41251e-05 7.95276e-05 -8.16317e-07
1.35623e-08 -8.16317e-07 1.57693e-05
0.000950962 -1.70446e-05 1.29306e-07
-1.70446e-05 2.01564e-05 -1.4265e-06
1.29306e-07 -1.4265e-06 -5.60779e-05
0.00106904 -1.30825e-06 1.72818e-07
-1.30825e-06 8.08438e-05 4.22477e-08
1.72818e-07 4.22477e-08 5.57162e-06
0.00105177 -7.76186e-06 6.32081e-09
-7.76186e-06 7.32087e-05 3.05265e-08
6.32081e-09 3.05265e-08 -4.0653e-06
0.00109634 -8.88946e-06 -6.01211e-08
-8.88946e-06 8.86031e-05 -7.96248e-07
-6.01211e-08 -7.96248e-07 6.22777e-06
0.00101256 -1.97062e-05 -3.7652e-07
-1.97062e-05 5.62513e-05 1.34405e-06
-3.7652e-07 1.34405e-06 -2.43665e-05
0.00115517 6.40436e-06 4.22533e-08
6.40436e-06 0.000118716 2.39445e-07
4.22533e-08 2.39445e-07 3.52622e-05
0.000968466 -2.33329e-05 -1.44505e-07
-2.33329e-05 2.65641e-05 5.07679e-07
-1.44505e-07 5.07679e-07 -6.05911e-05
0.00108274 -4.01711e-05 1.3828e-07
-4.01711e-05 8.79981e-05 -9.15998e-07
1.3828e-07 -9.15998e-07 -4.34425e-07
0.000843385 -4.34518e-05 1.90741e-07
-4.34518e-05 -1.84366e-05 1.99718e-07
1.90741e-07 1.99718e-07 -0.000102811
0.000955803 -4.29018e-05 -1.00034e-06
-4.29018e-05 3.11789e-05 -4.35578e-07
-1.00034e-06 -4.35578e-07 -5.25664e-05
0.00105603 -3.57559e-05 -2.54707e-07
-3.57559e-05 7.92455e-05 2.24063e-07
-2.54707e-07 2.24063e-07 -4.53342e-06
0.0010401 -3.10825e-05 -8.73562e-07
-3.10825e-05 6.74617e-05 1.40455e-06
-8.73562e-07 1.40455e-06 -4.9001e-06
0.00103183 -2.38087e-05 -1.50385e-08
-2.38087e-05 6.29661e-05 -9.22114e-09
-1.50385e-08 -9.22114e-09 -6.40435e-06
0.000994515 -6.36582e-06 -3.35523e-07
-6.36582e-06 3.53009e-05 1.3075e-06
-3.35523e-07 1.3075e-06 -1.78796e-05
0.00102179 -1.77074e-05 4.01727e-07
-1.77074e-05 5.85833e-05 -9.27715e-07
4.01727e-07 -9.27715e-07 -8.06383e-06
0.000990349 -8.75534e-06 8.0516e-08
-8.75534e-06 3.4809e-05 -4.28565e-08
8.0516e-08 -4.28565e-08 -1.62345e-05
0.000964059 6.03712e-06 -5.9228e-07
6.03712e-06 1.01795e-05 1.79496e-06
-5.9228e-07 1.79496e-06 -2.10461e-05
0.000801566 3.45223e-07 1.5869e-07
3.45223e-07 -5.97622e-05 -1.0642e-06
1.5869e-07 -1.0642e-06 -0.000110341
0.000962978 2.63019e-07 -1.0139e-07
2.63019e-07 8.74128e-06 -6.58012e-09
-1.0139e-07 -6.58012e-09 -2.14998e-05
0.0015218 8.41377e-06 -3.4512e-06
8.41377e-06 0.000281016 4.42162e-06
-3.4512e-06 4.42162e-06 0.000282338
0.000957979 -6.31298e-06 6.46262e-07
-6.31298e-06 6.32466e-06 -1.71421e-06
6.46262e-07 -1.71421e-06 -2.31873e-05
0.00121519 5.56389e-06 -1.19175e-06
5.56389e-06 0.00012368 6.10529e-07
-1.19175e-06 6.10529e-07 0.000124209
0.00105878 5.59747e-06 -7.48895e-07
5.59747e-06 4.16549e-05 1.57453e-06
-7.48895e-07 1.57453e-06 5.90979e-05
0.000913261 2.51481e-06 3.92116e-07
2.51481e-06 -3.07695e-05 -3.14965e-06
3.92116e-07 -3.14965e-06 -3.11556e-05
0.00228358 3.09226e-06 9.54967e-07
3.09226e-06 0.000659585 5.60561e-09
9.54967e-07 5.60561e-09 0.00068299
0.00227504 -5.34287e-07 1.04319e-06
-5.34287e-07 0.000655028 -4.05328e-06
1.04319e-06 -4.05328e-06 0.00067854
0.00124733 1.82438e-05 -6.185e-07
1.82438e-05 0.000159116 -1.01627e-06
-6.185e-07 -1.01627e-06 0.00011688
0.0009699 -1.04177e-06 -1.57509e-07
-1.04177e-06 6.1436e-06 -1.86217e-06
-1.57509e-07 -1.86217e-06 -1.83274e-05
0.000992346 5.41804e-06 3.24051e-07
5.41804e-06 3.17941e-05 4.81686e-07
3.24051e-07 4.81686e-07 -1.04143e-05
0.00091202 2.12182e-07 -3.78325e-08
2.12182e-07 -3.25267e-05 -3.22496e-06
-3.78325e-08 -3.22496e-06 -2.96745e-05
0.000973373 2.11188e-07 -2.66642e-08
2.11188e-07 7.64279e-06 -6.5827e-09
-2.66642e-08 -6.5827e-09 -1.63344e-05
0.000968776 2.00417e-06 -2.93972e-07
2.00417e-06 5.42345e-06 1.88703e-06
-2.93972e-07 1.88703e-06 -1.86702e-05
0.000911084 3.23075e-06 -9.00418e-08
3.23075e-06 -3.25491e-05 -3.29858e-09
-9.00418e-08 -3.29858e-09 -2.98547e-05
0.00218081 3.77894e-06 1.86798e-06
3.77894e-06 0.000607719 -3.96564e-06
1.86798e-06 -3.96564e-06 0.00063233
0.00144975 7.37113e-06 -8.70548e-07
7.37113e-06 0.000241495 1.98238e-06
-8.70548e-07 1.98238e-06 0.000246186
0.00164021 6.94818e-06 1.19918e-06
6.94818e-06 0.000336044 3.46815e-08
1.19918e-06 3.46815e-08 0.000357499
0.00113835 8.80071e-06 -7.37772e-06
8.80071e-06 8.50874e-05 6.38563e-06
-7.37772e-06 6.38563e-06 0.000102824
-0.00255142 3.74631e-05 -5.8414e-05
3.74631e-05 -0.0015788 1.29397e-05
-5.8414e-05 1.29397e-05 -0.00159469
-0.00108204 4.67382e-05 -6.23964e-06
4.67382e-05 -0.00111467 6.0569e-06
-6.23964e-06 6.0569e-06 -0.001044
0.000643972 -7.64015e-05 -4.91323e-05
-7.64015e-05 -2.23798e-05 -1.4921e-05
-4.91323e-05 -1.4921e-05 -0.000228653
0.00118816 -1.4582e-05 -2.7453e-06
-1.4582e-05 2.70748e-05 -3.16901e-07
-2.7453e-06 -3.16901e-07 3.90613e-06
0.00126439 3.56381e-05 -1.18702e-05
3.56381e-05 -0.000104522 -1.6326e-06
-1.18702e-05 -1.6326e-06 -0.000177619
0.0007085 -3.11599e-05 1.96357e-05
-3.11599e-05 0.000106268 -5.45078e-07
1.96357e-05 -5.45078e-07 -1.09873e-05
0.00149612 5.33289e-05 2.39926e-06
5.33289e-05 0.000138561 1.78e-06
2.39926e-06 1.78e-06 8.22587e-05
0.00443854 9.06746e-05 -2.77472e-05
9.06746e-05 0.00131352 -1.17857e-07
-2.77472e-05 -1.17857e-07 0.000774017
-0.00151071 9.54593e-05 9.11516e-06
9.54593e-05 -0.000850552 -3.75748e-06
9.11516e-06 -3.75748e-06 -0.000854382
0.000573432 0.000115379 1.80492e-06
0.000115379 -0.00032156 7.25691e-08
1.80492e-06 7.25691e-08 -4.49121e-05
0.000801669 4.35026e-05 2.65216e-05
4.35026e-05 0.000210934 -1.34086e-05
2.65216e-05 -1.34086e-05 4.15143e-05
0.00421183 0.000213495 -2.20224e-05
0.000213495 0.00115278 1.59228e-05
-2.20224e-05 1.59228e-05 0.000581008
0.000299015 0.000161746 -5.59205e-05
0.000161746 -7.61427e-05 3.17796e-05
-5.59205e-05 3.17796e-05 1.57199e-05
0.000547445 7.50821e-05 -1.28499e-06
7.50821e-05 -0.000547484 -2.82385e-06
-1.28499e-06 -2.82385e-06 -0.000222159
0.00094209 2.16364e-05 -2.71721e-07
2.16364e-05 2.37042e-05 -1.00804e-06
-2.71721e-07 -1.00804e-06 -4.5698e-05
0.00091175 9.62412e-06 -4.06119e-09
9.62412e-06 6.29467e-07 -4.06755e-07
-4.06119e-09 -4.06755e-07 -5.53304e-05
0.000995772 -1.51189e-05 -4.79792e-07
-1.51189e-05 3.39078e-05 1.12598e-06
-4.79792e-07 1.12598e-06 -7.89977e-06
0.000857761 1.54789e-05 -7.65132e-08
1.54789e-05 -2.50202e-05 8.98551e-07
-7.65132e-08 8.98551e-07 -8.15593e-05
0.0010612 3.57656e-05 5.02715e-07
3.57656e-05 8.22762e-05 9.26545e-07
5.02715e-07 9.26545e-07 1.67377e-05
0.00109878 2.58159e-05 -1.74071e-07
2.58159e-05 0.000100631 -8.43127e-07
-1.74071e-07 -8.43127e-07 3.25426e-05
0.00102721 2.04895e-05 6.06504e-07
2.04895e-05 6.16725e-05 9.3863e-07
6.06504e-07 9.3863e-07 -1.7828e-06
0.00103099 6.59628e-06 3.429e-07
6.59628e-06 6.15383e-05 -7.22445e-07
3.429e-07 -7.22445e-07 1.4528e-07
0.000973758 -2.14389e-06 1.66338e-07
-2.14389e-06 3.2609e-05 -5.06763e-07
1.66338e-07 -5.06763e-07 -2.53666e-05
0.000881699 -1.4695e-05 -2.47837e-07
-1.4695e-05 -1.46016e-05 1.36123e-06
-2.47837e-07 1.36123e-06 -7.05687e-05
0.00233907 3.76236e-05 -6.80742e-06
3.76236e-05 0.000353102 2.75796e-06
-6.80742e-06 2.75796e-06 0.000303222
0.00119911 -7.2192e-05 -1.37301e-05
-7.2192e-05 -0.000214274 2.06931e-06
-1.37301e-05 2.06931e-06 -0.000226628
0.000244148 -6.64457e-05 -3.42327e-06
-6.64457e-05 -0.000447206 3.1468e-06
-3.42327e-06 3.1468e-06 -0.000544072
0.00106666 -7.29192e-05 -1.29107e-06
-7.29192e-05 9.50581e-05 2.81434e-06
-1.29107e-06 2.81434e-06 -3.05955e-05
0.00112956 -3.65335e-05 1.60877e-07
-3.65335e-05 0.000143356 1.29885e-06
1.60877e-07 1.29885e-06 1.78959e-05
0.00112817 -3.61557e-05 -1.44262e-07
-3.61557e-05 0.000113207 8.53884e-07
-1.44262e-07 8.53884e-07 2.12218e-05
0.00108693 -3.26951e-05 -3.65411e-07
-3.26951e-05 9.46233e-05 7.341e-07
-3.65411e-07 7.341e-07 1.93319e-05
0.00102752 1.59762e-05 -1.34867e-08
1.59762e-05 6.56344e-05 1.21624e-06
-1.34867e-08 1.21624e-06 -6.93068e-06
0.0019524 -3.75948e-05 -3.34059e-06
-3.75948e-05 -2.68143e-05 9.09459e-07
-3.34059e-06 9.09459e-07 -1.21388e-05
0.000945839 -1.25078e-05 -1.41398e-07
-1.25078e-05 2.80393e-05 -6.85121e-08
-1.41398e-07 -6.85121e-08 -5.32722e-05
0.00101493 -3.035e-05 3.20447e-07
-3.035e-05 5.70165e-05 -5.47323e-07
3.20447e-07 -5.47323e-07 -3.10254e-05
0.00172638 -0.000118527 2.54273e-06
-0.000118527 0.00016849 5.68199e-07
2.54273e-06 5.68199e-07 7.74669e-05
0.000725919 -8.08844e-05 -3.74839e-07
-8.08844e-05 -0.000111867 8.45986e-07
-3.74839e-07 8.45986e-07 -0.000231466
0.0012234 -5.21163e-05 5.8113e-07
-5.21163e-05 0.000197401 -1.92713e-07
5.8113e-07 -1.92713e-07 4.72055e-05
0.00120708 -1.88098e-05 -1.20671e-07
-1.88098e-05 0.000164133 -4.07736e-07
-1.20671e-07 -4.07736e-07 5.1399e-05
0.00218236 -0.000111263 7.74281e-07
-0.000111263 4.79587e-05 1.3434e-06
7.74281e-07 1.3434e-06 0.000111118
0.00159359 -0.000116478 2.43401e-06
-0.000116478 0.000352176 -5.54729e-06
2.43401e-06 -5.54729e-06 0.000177379
0.000927416 -2.4609e-06 -7.47144e-07
-2.4609e-06 6.14849e-05 -9.92433e-07
-7.47144e-07 -9.92433e-07 -8.95004e-05
0.00100163 2.76337e-05 1.27491e-07
2.76337e-05 5.44471e-05 -2.72175e-07
1.27491e-07 -2.72175e-07 -2.71972e-05
0.00107652 -3.61748e-05 3.28502e-07
-3.61748e-05 8.64428e-05 -1.28516e-06
3.28502e-07 -1.28516e-06 -3.07122e-06
0.00112479 3.73289e-06 9.46495e-08
3.73289e-06 0.000100544 -7.21514e-07
9.46495e-08 -7.21514e-07 4.106e-06
0.00096976 -8.27387e-06 1.18314e-05
-8.27387e-06 0.000129345 8.50292e-07
1.18314e-05 8.50292e-07 0.000131968
0.00139932 -5.8706e-06 5.02418e-06
-5.8706e-06 0.000283471 -2.785e-06
5.02418e-06 -2.785e-06 0.000151128
0.000728981 6.57037e-05 -4.96108e-05
6.57037e-05 -0.000342454 4.12832e-06
-4.96108e-05 4.12832e-06 -0.000819504
0.00112959 5.05955e-05 -3.93982e-07
5.05955e-05 0.000104549 -5.37909e-07
-3.93982e-07 -5.37909e-07 1.02441e-05
0.00142068 5.28938e-05 2.13971e-06
5.28938e-05 0.000273051 -2.27226e-07
2.13971e-06 -2.27226e-07 0.000170279
0.0016301 0.000121353 -2.04609e-06
0.000121353 0.000104838 -4.33516e-06
-2.04609e-06 -4.33516e-06 1.90505e-05
0.00108785 6.4234e-05 3.01549e-06
6.4234e-05 0.000163894 -3.05249e-06
3.01549e-06 -3.05249e-06 8.17644e-07
0.00366804 -0.000103217 4.09287e-05
-0.000103217 0.00140332 4.15904e-06
4.09287e-05 4.15904e-06 0.00131065
0.000651636 -0.000158766 5.26165e-05
-0.000158766 -0.000368946 3.16379e-05
5.26165e-05 3.16379e-05 -0.000806405
0.00264282 -4.1902e-05 -5.57584e-05
-4.1902e-05 0.000373939 -6.3172e-05
-5.57584e-05 -6.3172e-05 0.000141803
0.00172182 2.47887e-05 8.04882e-06
2.47887e-05 0.000190261 -8.35803e-07
8.04882e-06 -8.35803e-07 0.000116826
-0.00195011 -0.000167142 5.89611e-05
-0.000167142 -0.00144502 2.02631e-05
5.89611e-05 2.02631e-05 -0.00134793
0.00251065 -6.36523e-05 4.17828e-06
-6.36523e-05 0.000952585 5.14547e-06
4.17828e-06 5.14547e-06 0.00107376
0.001397 -8.89397e-05 -3.51951e-06
-8.89397e-05 2.67619e-05 -9.76271e-06
-3.51951e-06 -9.76271e-06 0.000299909
0.00121104 4.0916e-05 -7.06337e-08
4.0916e-05 0.000127144 3.70615e-07
-7.06337e-08 3.70615e-07 3.01887e-05
0.000698619 -2.03096e-05 3.12179e-06
-2.03096e-05 1.01105e-05 3.83552e-07
3.12179e-06 3.83552e-07 2.30496e-05
0.000691872 5.50548e-07 8.01887e-07
5.50548e-07 6.8649e-06 9.75094e-07
8.01887e-07 9.75094e-07 -5.3717e-05
0.00120554 6.63991e-05 1.15287e-06
6.63991e-05 0.000150729 2.32314e-06
1.15287e-06 2.32314e-06 -4.04313e-05
0.000975962 2.45993e-05 -7.27819e-08
2.45993e-05 0.000121172 -5.99485e-07
-7.27819e-08 -5.99485e-07 -1.1937e-05
0.00217632 -1.91076e-05 7.87118e-06
-1.91076e-05 0.000609943 7.98912e-06
7.87118e-06 7.98912e-06 0.000483011
0.00289612 0.000140881 -2.20619e-05
0.000140881 0.000734347 -2.68073e-05
-2.20619e-05 -2.68073e-05 0.000363324
0.0055252 -0.000220228 2.82763e-06
-0.000220228 0.00137954 5.39037e-06
2.82763e-06 5.39037e-06 0.00073922
0.000463647 -0.000209758 7.62218e-06
-0.000209758 -0.000299704 1.81073e-05
7.62218e-06 1.81073e-05 -0.000272434
0.00153662 -2.25551e-05 -1.20149e-06
-2.25551e-05 0.000265829 -6.05887e-07
-1.20149e-06 -6.05887e-07 0.000335937
0.00121784 4.70216e-05 1.2259e-07
4.70216e-05 0.000161094 -2.14136e-06
1.2259e-07 -2.14136e-06 7.54808e-05
0.00182526 1.56147e-06 1.07152e-05
1.56147e-06 0.000733143 5.54359e-06
1.07152e-05 5.54359e-06 0.000660974
0.000811174 1.52314e-05 3.63842e-06
1.52314e-05 -7.32902e-06 5.05443e-06
3.63842e-06 5.05443e-06 -9.03436e-05
0.000539312 -1.41636e-05 -1.51259e-06
-1.41636e-05 -1.84295e-05 7.23725e-06
-1.51259e-06 7.23725e-06 -0.000150246
0.00068515 9.44769e-05 -2.70349e-06
9.44769e-05 0.000344799 3.25598e-05
-2.70349e-06 3.25598e-05 0.000195182
0.00504855 -0.000166721 -3.57056e-05
-0.000166721 0.000886863 -1.33576e-05
-3.57056e-05 -1.33576e-05 0.000169519
-0.00108108 -0.000120119 -2.79623e-05
-0.000120119 -0.00157403 -4.59443e-05
-2.79623e-05 -4.59443e-05 -0.00139742
0.00214343 -2.36958e-06 -5.62597e-07
-2.36958e-06 0.0006861 1.11313e-05
-5.62597e-07 1.11313e-05 0.000719478
0.00104712 4.61406e-05 -6.34013e-07
4.61406e-05 4.63078e-05 -7.42135e-07
-6.34013e-07 -7.42135e-07 -5.35492e-05
0.00113469 4.85779e-05 3.43249e-07
4.85779e-05 0.000108542 -2.82641e-08
3.43249e-07 -2.82641e-08 3.40316e-06
0.00148939 5.0678e-05 -3.3196e-07
5.0678e-05 0.000290187 -1.74952e-06
-3.3196e-07 -1.74952e-06 0.000182967
0.00105283 2.86916e-05 -4.36464e-07
2.86916e-05 7.3232e-05 -1.22754e-06
-4.36464e-07 -1.22754e-06 9.4018e-06
0.00104771 3.06595e-07 6.9917e-08
3.06595e-07 6.98472e-05 -6.23145e-07
6.9917e-08 -6.23145e-07 -5.98647e-06
0.00104943 2.91635e-05 -1.25676e-08
2.91635e-05 6.91449e-05 -8.23686e-07
-1.25676e-08 -8.23686e-07 -1.57953e-05
0.00100001 3.32883e-05 1.35151e-07
3.32883e-05 5.94474e-05 -4.95888e-07
1.35151e-07 -4.95888e-07 -4.74086e-05
0.0010837 1.41957e-05 1.49469e-07
1.41957e-05 8.77307e-05 1.46289e-08
1.49469e-07 1.46289e-08 1.22987e-05
0.00115201 1.98006e-05 -4.55556e-08
1.98006e-05 0.000126133 4.58997e-07
-4.55556e-08 4.58997e-07 3.4659e-05
0.00106117 1.19421e-05 3.2474e-07
1.19421e-05 0.000103684 -6.61116e-07
3.2474e-07 -6.61116e-07 -1.35966e-05
0.00130023 -7.72839e-07 1.93868e-07
-7.72839e-07 0.000231682 -6.00953e-08
1.93868e-07 -6.00953e-08 0.000117494
0.00113577 -2.03551e-05 -6.73802e-09
-2.03551e-05 0.000121159 1.05195e-06
-6.73802e-09 1.05195e-06 1.52075e-05
0.00120117 2.54045e-05 3.98832e-07
2.54045e-05 0.000143082 6.47794e-07
3.98832e-07 6.47794e-07 5.75344e-05
0.00107124 -1.04724e-05 4.37175e-07
-1.04724e-05 8.17353e-05 -7.83405e-07
4.37175e-07 -7.83405e-07 6.68181e-06
0.00104761 -7.87556e-06 1.68204e-07
-7.87556e-06 7.14308e-05 -9.43841e-07
1.68204e-07 -9.43841e-07 -5.9184e-06
0.00103926 -1.45449e-05 1.78592e-07
-1.45449e-05 5.77632e-05 -1.80619e-06
1.78592e-07 -1.80619e-06 -2.4339e-05
0.00115642 2.23142e-06 -1.76324e-07
2.23142e-06 0.000118676 -4.90133e-07
-1.76324e-07 -4.90133e-07 3.56585e-05
0.00104078 -1.67461e-05 1.80938e-09
-1.67461e-05 7.09491e-05 3.07899e-07
1.80938e-09 3.07899e-07 -9.85226e-06
0.00101086 -1.45803e-05 8.59264e-08
-1.45803e-05 4.56284e-05 -1.65597e-07
8.59264e-08 -1.65597e-07 -4.04923e-05
0.00105731 -3.28024e-05 -5.53317e-07
-3.28024e-05 7.42625e-05 2.86517e-07
-5.53317e-07 2.86517e-07 -1.56354e-05
0.00108408 -3.06192e-05 -4.68325e-08
-3.06192e-05 7.88175e-05 3.86383e-07
-4.68325e-08 3.86383e-07 -1.1194e-05
0.00108432 -4.87382e-05 2.55091e-07
-4.87382e-05 8.95961e-05 -6.96528e-08
2.55091e-07 -6.96528e-08 -2.61089e-06
0.00113482 -4.17307e-05 -3.85084e-07
-4.17307e-05 0.000113863 -1.02352e-07
-3.85084e-07 -1.02352e-07 2.54763e-05
0.000849197 -4.31134e-05 -2.74249e-07
-4.31134e-05 -1.4704e-05 8.35067e-07
-2.74249e-07 8.35067e-07 -0.000103162
0.00110682 -5.21132e-05 -1.07378e-06
-5.21132e-05 9.4766e-05 1.78427e-06
-1.07378e-06 1.78427e-06 8.27663e-06
0.00116721 -4.8126e-05 -4.89218e-08
-4.8126e-05 0.000130266 -9.5345e-07
-4.89218e-08 -9.5345e-07 5.30359e-05
0.0008971 -4.44721e-05 4.29557e-07
-4.44721e-05 1.06221e-05 -1.036e-06
4.29557e-07 -1.036e-06 -7.0851e-05
0.00104352 -4.48236e-05 3.56966e-07
-4.48236e-05 7.38733e-05 -3.51895e-07
3.56966e-07 -3.51895e-07 -9.32726e-06
0.000935564 -3.5168e-05 -8.88203e-07
-3.5168e-05 1.54807e-05 6.48537e-07
-8.88203e-07 6.48537e-07 -5.94504e-05
0.00107762 -3.63623e-05 4.65421e-08
-3.63623e-05 8.959e-05 -1.17613e-07
4.65421e-08 -1.17613e-07 5.94265e-06
0.0010432 -3.18206e-05 -2.29149e-07
-3.18206e-05 6.90303e-05 4.58875e-07
-2.29149e-07 4.58875e-07 -3.35466e-06
0.00100174 -8.84356e-06 -4.96372e-07
-8.84356e-06 3.84062e-05 1.45737e-06
-4.96372e-07 1.45737e-06 -1.78312e-05
0.0010398 -2.64091e-05 4.2394e-07
-2.64091e-05 6.70556e-05 -1.03877e-06
4.2394e-07 -1.03877e-06 -2.46159e-06
0.00099551 -1.09224e-05 -4.59648e-08
-1.09224e-05 3.63242e-05 -6.03963e-08
-4.59648e-08 -6.03963e-08 -1.71293e-05
0.000955666 6.7521e-06 -7.57903e-07
6.7521e-06 7.29732e-06 1.90932e-06
-7.57903e-07 1.90932e-06 -2.52976e-05
0.000992546 -7.14487e-06 4.91602e-07
-7.14487e-06 3.6087e-05 -1.19157e-06
4.91602e-07 -1.19157e-06 -1.49875e-05
0.000959283 1.17719e-06 -1.55731e-07
1.17719e-06 7.59362e-06 -3.33011e-09
-1.55731e-07 -3.33011e-09 -2.36539e-05
0.00152582 1.11283e-05 -4.70449e-06
1.11283e-05 0.000286019 4.45677e-06
-4.70449e-06 4.45677e-06 0.000286443
0.000957706 -5.6746e-06 9.13461e-07
-5.6746e-06 5.91709e-06 -1.76765e-06
9.13461e-07 -1.76765e-06 -2.43274e-05
0.00121453 8.24494e-06 -1.59455e-06
8.24494e-06 0.000125778 6.09597e-07
-1.59455e-06 6.09597e-07 0.000125559
0.00105767 8.64494e-06 -1.22102e-06
8.64494e-06 4.42502e-05 1.58451e-06
-1.22102e-06 1.58451e-06 6.09454e-05
0.000909858 5.16743e-06 7.20341e-07
5.16743e-06 -3.09778e-05 -3.18308e-06
7.20341e-07 -3.18308e-06 -3.18496e-05
0.00168252 6.58575e-06 2.43888e-06
6.58575e-06 0.000356877 -1.22473e-06
2.43888e-06 -1.22473e-06 0.000377162
0.00228371 3.41059e-06 3.35682e-06
3.41059e-06 0.000659934 -4.0451e-06
3.35682e-06 -4.0451e-06 0.000683284
0.00106498 -8.21481e-07 -6.45349e-08
-8.21481e-07 6.78874e-05 -1.20234e-06
-6.45349e-08 -1.20234e-06 2.18492e-05
0.000972582 -2.70562e-06 -3.27753e-07
-2.70562e-06 8.36313e-06 -1.85084e-06
-3.27753e-07 -1.85084e-06 -1.70916e-05
0.00103905 7.26501e-06 9.16919e-08
7.26501e-06 5.49749e-05 6.13025e-08
9.16919e-08 6.13025e-08 1.15261e-05
0.00091611 -2.60782e-06 -3.96848e-07
-2.60782e-06 -2.99246e-05 -3.22623e-06
-3.96848e-07 -3.22623e-06 -2.75222e-05
0.000971576 -1.34297e-06 -5.39059e-08
-1.34297e-06 7.08652e-06 1.91456e-09
-5.39059e-08 1.91456e-09 -1.73935e-05
0.000987935 3.93412e-06 -2.33233e-08
3.93412e-06 2.95658e-05 1.61999e-06
-2.33233e-08 1.61999e-06 -1.24966e-05
0.00217915 9.66641e-08 -7.12161e-07
9.66641e-08 0.000606471 -3.99686e-06
-7.12161e-07 -3.99686e-06 0.00063116
0.000911773 2.89288e-07 -9.35578e-08
2.89288e-07 -3.26935e-05 -7.23384e-09
-9.35578e-08 -7.23384e-09 -2.9829e-05
0.000971464 -1.51495e-07 -1.29253e-07
-1.51495e-07 6.64477e-06 1.8515e-06
-1.29253e-07 1.8515e-06 -1.73217e-05
0.000915733 3.31394e-06 -4.20889e-07
3.31394e-06 -3.02487e-05 3.20099e-06
-4.20889e-07 3.20099e-06 -2.75758e-05
0.00217844 3.9049e-06 -9.73938e-07
3.9049e-06 0.000606663 -7.90468e-09
-9.73938e-07 -7.90468e-09 0.00063125
0.00219004 7.4613e-06 -5.58478e-06
7.4613e-06 0.000614035 3.92915e-06
-5.58478e-06 3.92915e-06 0.000638241
-0.000896319 5.72236e-06 8.48042e-06
5.72236e-06 -0.000920085 -5.03907e-07
8.48042e-06 -5.03907e-07 -0.000927156
-0.000130992 6.21956e-05 2.54027e-05
6.21956e-05 -0.000305469 -3.78278e-06
2.54027e-05 -3.78278e-06 -0.000378986
0.00111816 6.2284e-06 1.40395e-05
6.2284e-06 0.000237681 -2.68667e-06
1.40395e-05 -2.68667e-06 0.000191032
-0.00113559 5.23519e-05 -7.06032e-06
5.23519e-05 -0.00111705 3.32958e-06
-7.06032e-06 3.32958e-06 -0.00103671
0.00157801 1.08459e-05 -6.38448e-05
1.08459e-05 0.000356545 -3.94633e-06
-6.38448e-05 -3.94633e-06 0.000157932
0.00154804 5.56902e-05 2.13064e-06
5.56902e-05 0.000142175 -1.77264e-06
2.13064e-06 -1.77264e-06 8.19017e-05
0.000496165 -2.36739e-06 -2.03766e-05
-2.36739e-06 -0.000338984 1.47992e-06
-2.03766e-05 1.47992e-06 -0.000765005
0.00345453 0.000123808 9.05879e-05
0.000123808 0.0014781 -2.89334e-05
9.05879e-05 -2.89334e-05 0.0013896
3.94973e-05 0.000125898 8.24383e-06
0.000125898 -0.000630213 -9.97559e-06
8.24383e-06 -9.97559e-06 -0.000359036
0.00121935 4.13053e-05 -3.74982e-06
4.13053e-05 0.000246053 3.70482e-06
-3.74982e-06 3.70482e-06 6.94301e-05
0.00271765 0.000121528 7.97155e-06
0.000121528 0.000530328 -5.00246e-06
7.97155e-06 -5.00246e-06 -0.000195278
0.0029203 0.000235024 7.10455e-07
0.000235024 0.000917904 -5.20686e-07
7.10455e-07 -5.20686e-07 0.000902949
0.00116928 6.54745e-05 -1.89486e-06
6.54745e-05 -7.5269e-05 3.1045e-06
-1.89486e-06 3.1045e-06 0.000205087
0.000853463 4.82788e-05 4.91278e-06
4.82788e-05 0.000261251 -1.0208e-07
4.91278e-06 -1.0208e-07 -8.92971e-06
0.00286213 0.0001801 3.48817e-05
0.0001801 0.0005013 -2.10359e-05
3.48817e-05 -2.10359e-05 -0.000263943
-0.002664 0.00017885 -3.68527e-05
0.00017885 -0.00213923 4.50488e-05
-3.68527e-05 4.50488e-05 -0.00198245
0.000316891 3.57383e-06 -3.44462e-07
3.57383e-06 -0.000462488 -3.0392e-06
-3.44462e-07 -3.0392e-06 -0.000349378
0.00109274 -2.58669e-06 5.46604e-07
-2.58669e-06 9.85525e-05 -1.02249e-06
5.46604e-07 -1.02249e-06 2.2502e-05
0.00103682 2.64727e-05 -5.74529e-07
2.64727e-05 7.06031e-05 -2.45258e-07
-5.74529e-07 -2.45258e-07 2.20285e-06
0.00101405 1.40067e-05 1.5734e-07
1.40067e-05 5.09401e-05 3.7762e-07
1.5734e-07 3.7762e-07 -4.23192e-06
0.000987442 3.56333e-05 7.87245e-07
3.56333e-05 4.63018e-05 1.70604e-06
7.87245e-07 1.70604e-06 -1.84355e-05
0.000997861 8.58675e-06 -2.20964e-07
8.58675e-06 4.80073e-05 -7.70778e-07
-2.20964e-07 -7.70778e-07 -2.52122e-05
0.00112524 2.33159e-05 8.54091e-08
2.33159e-05 0.000112824 4.79733e-07
8.54091e-08 4.79733e-07 4.56429e-05
0.000985355 6.80633e-06 -1.49121e-07
6.80633e-06 4.02774e-05 1.89345e-06
-1.49121e-07 1.89345e-06 -2.25941e-05
0.00114923 2.82588e-05 -6.07249e-07
2.82588e-05 0.000119565 -9.62032e-07
-6.07249e-07 -9.62032e-07 5.61898e-05
0.00111311 1.62441e-05 2.51125e-08
1.62441e-05 0.000103111 4.59824e-07
2.51125e-08 4.59824e-07 4.21089e-05
0.000909702 -9.61968e-06 -4.33675e-07
-9.61968e-06 4.96577e-07 5.94742e-07
-4.33675e-07 5.94742e-07 -5.82365e-05
0.00266934 -4.28774e-05 -1.00005e-05
-4.28774e-05 0.000325742 1.34944e-06
-1.00005e-05 1.34944e-06 0.000309061
0.000826224 -9.85424e-05 -8.48366e-06
-9.85424e-05 -0.000274298 5.43596e-06
-8.48366e-06 5.43596e-06 -0.000351664
0.00109538 -8.79222e-05 -5.91721e-07
-8.79222e-05 7.15187e-05 4.19838e-06
-5.91721e-07 4.19838e-06 -4.89878e-05
0.0012033 -5.05355e-05 -1.16666e-07
-5.05355e-05 0.000181285 2.32503e-06
-1.16666e-07 2.32503e-06 3.58272e-05
0.00116413 -1.66279e-05 3.2439e-09
-1.66279e-05 0.000144496 7.78388e-07
3.2439e-09 7.78388e-07 2.63704e-05
0.000973639 -3.40245e-05 -1.16006e-07
-3.40245e-05 3.57259e-05 6.11214e-07
-1.16006e-07 6.11214e-07 -5.37198e-05
0.000943402 1.36885e-05 4.73745e-08
1.36885e-05 2.66573e-05 6.71187e-07
4.73745e-08 6.71187e-07 -5.48193e-05
0.00103306 -3.58885e-06 1.92844e-07
-3.58885e-06 6.96741e-05 6.82749e-07
1.92844e-07 6.82749e-07 -1.17223e-05
0.00225249 -0.000117287 7.16567e-07
-0.000117287 0.000110111 -1.27847e-07
7.16567e-07 -1.27847e-07 0.000143637
0.00110544 -6.79919e-06 -5.4565e-08
-6.79919e-06 0.000102598 -2.10895e-07
-5.4565e-08 -2.10895e-07 1.37896e-05
0.00123808 -6.17294e-06 -4.82993e-08
-6.17294e-06 0.000158906 9.48926e-08
-4.82993e-08 9.48926e-08 6.05639e-05
0.00151828 -0.000111035 4.12877e-07
-0.000111035 0.000321436 -1.17002e-06
4.12877e-07 -1.17002e-06 0.000144935
0.00117286 -8.20157e-06 -3.72484e-07
-8.20157e-06 0.000174741 -2.07141e-09
-3.72484e-07 -2.07141e-09 2.68515e-05
0.00136875 -0.00014101 -8.78942e-06
-0.00014101 -0.000146482 -3.28268e-06
-8.78942e-06 -3.28268e-06 -0.000153805
0.00134045 -2.83713e-05 -6.15587e-07
-2.83713e-05 0.000360564 -3.25982e-06
-6.15587e-07 -3.25982e-06 0.00012238
0.00102018 1.52534e-05 -6.88961e-07
1.52534e-05 5.0932e-05 6.38731e-07
-6.88961e-07 6.38731e-07 -5.57667e-05
0.00106228 2.97613e-05 -2.5156e-07
2.97613e-05 7.61557e-05 -1.1762e-06
-2.5156e-07 -1.1762e-06 -1.05411e-05
0.00112428 2.21659e-05 -1.4073e-07
2.21659e-05 9.32437e-05 -1.44251e-06
-1.4073e-07 -1.44251e-06 -2.67823e-06
0.00211978 -4.4649e-06 4.31972e-06
-4.4649e-06 0.000932966 1.16984e-06
4.31972e-06 1.16984e-06 0.000854014
-1.87024e-05 -7.15586e-06 1.27806e-05
-7.15586e-06 -0.00042046 -9.65406e-08
1.27806e-05 -9.65406e-08 -0.0004251
-0.00241619 -1.01699e-05 8.84268e-05
-1.01699e-05 -0.00157866 -1.37698e-06
8.84268e-05 -1.37698e-06 -0.00159049
0.00143965 5.0876e-05 8.20508e-07
5.0876e-05 0.00024714 1.27439e-06
8.20508e-07 1.27439e-06 0.000148382
0.00036922 1.68381e-05 2.28602e-06
1.68381e-05 -0.00016401 -1.49898e-06
2.28602e-06 -1.49898e-06 -0.000299538
0.00135278 7.3403e-05 1.56032e-06
7.3403e-05 0.000219276 -7.55276e-06
1.56032e-06 -7.55276e-06 2.62466e-05
-0.000689952 -1.31307e-05 1.21827e-06
-1.31307e-05 -0.000804164 -6.02098e-07
1.21827e-06 -6.02098e-07 -0.000815741
0.00236653 -0.000214398 2.29735e-05
-0.000214398 4.27005e-05 1.04705e-05
2.29735e-05 1.04705e-05 -0.000719199
0.00113173 9.57407e-05 2.31227e-05
9.57407e-05 0.000127875 -3.75132e-05
2.31227e-05 -3.75132e-05 -5.76772e-05
0.00219647 -3.2052e-06 6.63926e-05
-3.2052e-06 0.000456602 1.44601e-05
6.63926e-05 1.44601e-05 0.000240255
0.00363083 -0.000300034 4.19552e-05
-0.000300034 0.000894084 5.19828e-05
4.19552e-05 5.19828e-05 0.000920055
0.000553405 4.97102e-06 -1.38611e-05
4.97102e-06 -8.06028e-05 -7.3598e-06
-1.38611e-05 -7.3598e-06 -0.000139263
0.00131547 -1.35522e-05 -4.36442e-06
-1.35522e-05 0.000183791 -1.00297e-05
-4.36442e-06 -1.00297e-05 0.000223517
0.00103172 4.67837e-05 1.01548e-06
4.67837e-05 6.88051e-05 9.15965e-08
1.01548e-06 9.15965e-08 -1.5152e-05
0.00135385 2.88168e-06 2.63941e-06
2.88168e-06 0.000449432 1.61919e-06
2.63941e-06 1.61919e-06 0.000368455
0.000912099 1.57002e-05 7.98387e-07
1.57002e-05 6.4456e-05 3.89372e-07
7.98387e-07 3.89372e-07 -2.1501e-05
-9.02088e-05 -2.24082e-07 1.02297e-05
-2.24082e-07 -0.00033478 5.82564e-07
1.02297e-05 5.82564e-07 -0.0004881
0.00179536 0.000131588 -3.33185e-05
0.000131588 0.000605425 -1.47633e-05
-3.33185e-05 -1.47633e-05 0.000417478
0.00562978 -4.22747e-05 1.29724e-05
-4.22747e-05 0.000976761 8.20409e-06
1.29724e-05 8.20409e-06 0.00023723
0.000951712 -7.60858e-06 -1.35636e-06
-7.60858e-06 -1.57366e-05 3.541e-06
-1.35636e-06 3.541e-06 -1.26802e-05
0.00127336 -0.000191002 1.50424e-06
-0.000191002 -0.000428501 2.24812e-05
1.50424e-06 2.24812e-05 -0.000364633
0.000985909 2.92903e-05 -6.52255e-07
2.92903e-05 5.6825e-05 -6.52601e-06
-6.52255e-07 -6.52601e-06 -1.33913e-05
0.000970889 7.7322e-06 5.32292e-06
7.7322e-06 0.000119047 -3.3489e-06
5.32292e-06 -3.3489e-06 1.56452e-05
0.00234681 -4.70635e-06 4.44843e-06
-4.70635e-06 0.000907862 7.74466e-06
4.44843e-06 7.74466e-06 0.000832953
0.000346819 -5.00745e-06 -2.10997e-06
-5.00745e-06 -0.000399226 8.5678e-06
-2.10997e-06 8.5678e-06 -0.000329725
-0.00109688 4.33925e-05 -7.55837e-06
4.33925e-05 -0.000673473 1.37065e-06
-7.55837e-06 1.37065e-06 -0.000774013
0.00614594 -6.92033e-05 1.39092e-05
-6.92033e-05 0.00131183 1.20994e-05
1.39092e-05 1.20994e-05 0.000804418
7.10951e-06 3.53981e-06 1.3494e-08
3.53981e-06 -0.000925696 -6.90526e-05
1.3494e-08 -6.90526e-05 -0.000769796
0.00137138 5.30677e-05 4.12194e-07
5.30677e-05 0.000218673 1.30631e-06
4.12194e-07 1.30631e-06 0.000116524
0.00136442 4.83609e-05 -4.8901e-07
4.83609e-05 0.000222486 7.24903e-07
-4.8901e-07 7.24903e-07 0.000113431
0.00156957 4.32904e-05 1.23857e-06
4.32904e-05 0.000374523 -1.29203e-06
1.23857e-06 -1.29203e-06 0.000259946
0.00107247 2.78661e-05 -6.16182e-08
2.78661e-05 8.214e-05 -6.15193e-07
-6.16182e-08 -6.15193e-07 6.71192e-06
0.00112925 2.6185e-05 2.90059e-08
2.6185e-05 0.000113517 -7.28318e-07
2.90059e-08 -7.28318e-07 2.28537e-05
0.000917037 6.01629e-06 -3.96786e-07
6.01629e-06 3.61596e-05 4.77779e-07
-3.96786e-07 4.77779e-07 -8.50005e-05
0.00120819 1.91672e-05 -6.13944e-08
1.91672e-05 0.000145625 -1.91221e-07
-6.13944e-08 -1.91221e-07 6.09572e-05
0.00111947 -2.05659e-05 4.44552e-08
-2.05659e-05 0.000112815 2.54866e-07
4.44552e-08 2.54866e-07 5.9063e-06
0.00107028 -1.09312e-05 1.099e-07
-1.09312e-05 0.000114037 4.83513e-07
1.099e-07 4.83513e-07 -5.0258e-06
0.0010377 -7.28705e-06 -2.03893e-07
-7.28705e-06 0.000100041 4.07411e-07
-2.03893e-07 4.07411e-07 -7.1067e-06
0.00112137 -3.3985e-05 -7.84267e-07
-3.3985e-05 9.35707e-05 7.92973e-07
-7.84267e-07 7.92973e-07 -2.0646e-06
0.00116297 -1.71084e-06 -4.64309e-07
-1.71084e-06 0.000121112 -1.11793e-06
-4.64309e-07 -1.11793e-06 3.85743e-05
0.0010666 -1.35983e-05 5.71711e-08
-1.35983e-05 8.44411e-05 -4.58753e-07
5.71711e-08 -4.58753e-07 3.49341e-06
0.00104856 -1.10067e-05 -2.1274e-08
-1.10067e-05 6.29594e-05 -9.19357e-07
-2.1274e-08 -9.19357e-07 -2.24895e-05
0.00107747 -3.3163e-05 1.55358e-07
-3.3163e-05 7.51186e-05 6.25755e-08
1.55358e-07 6.25755e-08 -1.49595e-05
0.00104978 -3.04211e-05 -2.11624e-07
-3.04211e-05 6.93503e-05 3.32678e-07
-2.11624e-07 3.32678e-07 -2.03054e-05
0.00105981 -4.75129e-05 -2.28581e-07
-4.75129e-05 8.84386e-05 9.30006e-07
-2.28581e-07 9.30006e-07 -6.75685e-06
0.00103918 -4.72315e-05 2.23984e-07
-4.72315e-05 7.21349e-05 -5.52705e-07
2.23984e-07 -5.52705e-07 -1.76253e-05
0.00113206 -5.14517e-05 5.3616e-07
-5.14517e-05 0.000126212 1.05382e-06
5.3616e-07 1.05382e-06 2.33226e-05
0.0012129 -4.37975e-05 4.66651e-07
-4.37975e-05 0.000152272 -1.23298e-07
4.66651e-07 -1.23298e-07 6.39128e-05
0.00110395 -4.90488e-05 2.79754e-08
-4.90488e-05 0.000107097 9.76145e-07
2.79754e-08 9.76145e-07 1.84083e-05
0.000806818 -4.82205e-05 -1.18328e-07
-4.82205e-05 -5.34756e-05 2.00668e-06
-1.18328e-07 2.00668e-06 -0.000149277
0.00105401 -5.07727e-05 -1.48875e-06
-5.07727e-05 7.02209e-05 5.7745e-07
-1.48875e-06 5.7745e-07 -1.36813e-05
0.00108003 -4.7012e-05 -1.23753e-06
-4.7012e-05 8.71988e-05 2.729e-07
-1.23753e-06 2.729e-07 1.11754e-05
0.0010139 -4.97685e-05 -4.17798e-07
-4.97685e-05 5.21684e-05 -7.58197e-08
-4.17798e-07 -7.58197e-08 -3.42322e-05
0.00107288 -4.12668e-05 -8.48427e-07
-4.12668e-05 8.00077e-05 3.77752e-07
-8.48427e-07 3.77752e-07 7.45107e-06
0.00115581 -4.80779e-05 -2.62988e-07
-4.80779e-05 0.00012496 -2.35276e-07
-2.62988e-07 -2.35276e-07 4.73691e-05
0.000956028 -4.55261e-05 2.68043e-07
-4.55261e-05 4.22791e-05 -1.48624e-06
2.68043e-07 -1.48624e-06 -3.63052e-05
0.00113981 -4.69287e-05 1.1052e-06
-4.69287e-05 0.000120669 -4.44117e-07
1.1052e-06 -4.44117e-07 3.8012e-05
0.000983868 -3.65071e-05 8.97556e-08
-3.65071e-05 3.95332e-05 -1.3631e-08
8.97556e-08 -1.3631e-08 -3.48472e-05
0.00101578 -1.46819e-05 -8.13407e-07
-1.46819e-05 4.59841e-05 1.49034e-06
-8.13407e-07 1.49034e-06 -1.34354e-05
0.00104452 -3.09676e-05 4.22959e-07
-3.09676e-05 6.96301e-05 -5.15706e-07
4.22959e-07 -5.15706e-07 -2.72357e-06
0.00100409 -1.10701e-05 2.07343e-08
-1.10701e-05 3.97218e-05 -5.12734e-08
2.07343e-08 -5.12734e-08 -1.66448e-05
0.000950082 7.13812e-06 -9.61879e-07
7.13812e-06 6.45845e-06 2.06032e-06
-9.61879e-07 2.06032e-06 -2.81238e-05
0.000996179 -1.517e-05 5.72568e-07
-1.517e-05 3.72652e-05 -1.33139e-06
5.72568e-07 -1.33139e-06 -1.65238e-05
0.000951241 5.50094e-06 -5.97124e-08
5.50094e-06 5.07401e-06 -1.12432e-08
-5.97124e-08 -1.12432e-08 -2.75781e-05
0.00150321 1.37196e-05 -5.24573e-06
1.37196e-05 0.00027857 3.22374e-06
-5.24573e-06 3.22374e-06 0.000277852
0.000954834 -2.90518e-06 9.46584e-07
-2.90518e-06 5.1535e-06 -1.86388e-06
9.46584e-07 -1.86388e-06 -2.61063e-05
0.00121263 1.07776e-05 -1.99123e-06
1.07776e-05 0.00012797 6.00316e-07
-1.99123e-06 6.00316e-07 0.000126784
0.00105499 1.15537e-05 -1.68733e-06
1.15537e-05 4.69227e-05 1.60671e-06
-1.68733e-06 1.60671e-06 6.27016e-05
0.000906062 7.68308e-06 1.09868e-06
7.68308e-06 -3.04152e-05 -3.21438e-06
1.09868e-06 -3.21438e-06 -3.20452e-05
0.00169404 1.00577e-05 3.28596e-06
1.00577e-05 0.000365513 -1.21465e-06
3.28596e-06 -1.21465e-06 0.000385139
0.00229994 7.2925e-06 5.6457e-06
7.2925e-06 0.000669891 -4.04591e-06
5.6457e-06 -4.04591e-06 0.000692824
0.000815763 -2.69133e-07 -3.83103e-07
-2.69133e-07 -5.72587e-05 -1.74043e-06
-3.83103e-07 -1.74043e-06 -0.000107772
0.000707021 -4.85528e-06 -4.6817e-07
-4.85528e-06 -0.000122668 -2.52332e-06
-4.6817e-07 -2.52332e-06 -0.000151445
0.00107447 3.74622e-07 1.31809e-08
3.74622e-07 7.245e-05 9.97088e-08
1.31809e-08 9.97088e-08 2.63866e-05
0.000917595 -5.31707e-06 -7.16453e-07
-5.31707e-06 -2.7712e-05 -3.2409e-06
-7.16453e-07 -3.2409e-06 -2.62966e-05
0.000843659 -3.04605e-06 9.41587e-09
-3.04605e-06 -5.58012e-05 -1.43543e-08
9.41587e-09 -1.43543e-08 -8.21235e-05
0.000829581 -8.46657e-06 -7.20545e-08
-8.46657e-06 -4.9955e-05 1.2721e-06
-7.20545e-08 1.2721e-06 -9.45369e-05
0.00219487 -3.56081e-06 -3.32038e-06
-3.56081e-06 0.000615006 -4.02176e-06
-3.32038e-06 -4.02176e-06 0.000639419
0.000910214 -2.53145e-06 -1.21695e-07
-2.53145e-06 -3.29354e-05 -1.31634e-08
-1.21695e-07 -1.31634e-08 -3.04814e-05
0.000973989 -1.66614e-06 -6.47576e-10
-1.66614e-06 8.41353e-06 1.83759e-06
-6.47576e-10 1.83759e-06 -1.60791e-05
0.00217919 1.88055e-07 -1.07604e-06
1.88055e-07 0.000606488 1.66468e-10
-1.07604e-06 1.66468e-10 0.000631183
0.000911455 3.63936e-07 -1.20644e-07
3.63936e-07 -3.28884e-05 3.21543e-06
-1.20644e-07 3.21543e-06 -3.00137e-05
0.00217775 4.03086e-06 -2.97131e-06
4.03086e-06 0.000606454 3.95919e-06
-2.97131e-06 3.95919e-06 0.000631007
0.00134014 -5.74251e-06 1.11501e-05
-5.74251e-06 0.000439444 -1.03083e-06
1.11501e-05 -1.03083e-06 0.000364433
0.00111984 1.58854e-05 2.07729e-06
1.58854e-05 0.000228345 4.19962e-08
2.07729e-06 4.19962e-08 0.000242339
0.000444521 7.64506e-07 0.00011251
7.64506e-07 -0.000162252 -1.81855e-05
0.00011251 -1.81855e-05 -0.000334961
0.00103568 1.82144e-05 -4.4813e-07
1.82144e-05 5.77172e-05 -1.15683e-06
-4.4813e-07 -1.15683e-06 -8.71008e-06
0.00135276 -1.10465e-05 6.779e-06
-1.10465e-05 0.000335519 -3.16739e-06
6.779e-06 -3.16739e-06 0.000268492
0.00129553 3.47397e-06 1.30862e-06
3.47397e-06 0.000358875 -6.29351e-07
1.30862e-06 -6.29351e-07 0.000309593
0.00104107 6.46985e-05 -5.61509e-06
6.46985e-05 0.00012369 2.23351e-06
-5.61509e-06 2.23351e-06 0.00023632
0.00115025 6.02011e-05 -4.21719e-05
6.02011e-05 5.26018e-06 1.67261e-05
-4.21719e-05 1.67261e-05 -0.000211864
0.00541902 0.000216803 9.39311e-06
0.000216803 0.00188957 -1.09633e-05
9.39311e-06 -1.09633e-05 0.00119313
-0.000580575 0.00016064 5.316e-05
0.00016064 -0.000534803 -3.51367e-05
5.316e-05 -3.51367e-05 -0.000520515
0.0017858 6.27264e-05 2.23278e-06
6.27264e-05 0.000293022 4.4097e-06
2.23278e-06 4.4097e-06 0.000565918
0.00152078 3.71976e-05 -2.40076e-05
3.71976e-05 0.000249174 9.55989e-06
-2.40076e-05 9.55989e-06 -0.00012241
0.00435308 0.000185684 1.80611e-05
0.000185684 0.00112205 -2.10478e-05
1.80611e-05 -2.10478e-05 0.000424058
0.000820124 0.000200391 -4.80164e-06
0.000200391 -0.000539166 1.02748e-05
-4.80164e-06 1.02748e-05 -0.000411369
0.00165679 6.65574e-06 1.26813e-06
6.65574e-06 0.000326542 6.3702e-07
1.26813e-06 6.3702e-07 0.000448162
0.00225978 -6.89288e-05 2.49717e-05
-6.89288e-05 0.000505137 -3.12106e-05
2.49717e-05 -3.12106e-05 0.000101409
0.00682091 0.000164115 2.61347e-05
0.000164115 0.00175166 -9.98132e-06
2.61347e-05 -9.98132e-06 0.000907232
0.00212977 0.000191948 5.29966e-06
0.000191948 -0.000114769 6.88779e-05
5.29966e-06 6.88779e-05 -0.000137245
0.00261493 1.54495e-05 -4.09524e-06
1.54495e-05 0.00093554 1.31271e-06
-4.09524e-06 1.31271e-06 0.000999127
0.000984749 -2.4586e-06 7.98005e-08
-2.4586e-06 3.65641e-05 -1.36529e-06
7.98005e-08 -1.36529e-06 -4.45996e-05
0.0010603 -1.182e-05 2.08575e-07
-1.182e-05 8.25696e-05 -5.2787e-08
2.08575e-07 -5.2787e-08 5.81249e-06
0.00112796 3.00873e-05 -2.4058e-07
3.00873e-05 0.000116379 8.00775e-07
-2.4058e-07 8.00775e-07 4.84535e-05
0.00100477 1.01474e-05 -2.93542e-07
1.01474e-05 4.56963e-05 -1.69608e-06
-2.93542e-07 -1.69608e-06 -2.80086e-05
0.0010809 2.52992e-05 -2.04533e-07
2.52992e-05 8.8845e-05 4.25345e-07
-2.04533e-07 4.25345e-07 1.67482e-05
0.00114243 1.51314e-05 3.07001e-07
1.51314e-05 0.000120244 1.71539e-06
3.07001e-07 1.71539e-06 5.41106e-05
0.0011949 2.82523e-05 -2.46423e-07
2.82523e-05 0.000141741 3.70641e-08
-2.46423e-07 3.70641e-08 7.87205e-05
0.00119917 2.85925e-05 5.31062e-07
2.85925e-05 0.000146149 1.66337e-06
5.31062e-07 1.66337e-06 8.57979e-05
0.0021751 -0.000120223 7.92817e-07
-0.000120223 9.80174e-05 -2.52898e-06
7.92817e-07 -2.52898e-06 0.000104247
0.00141755 -0.000104722 -2.31625e-06
-0.000104722 0.000278099 4.35911e-06
-2.31625e-06 4.35911e-06 0.000100343
0.00103726 -4.65508e-05 -6.50829e-07
-4.65508e-05 7.2663e-05 1.44761e-06
-6.50829e-07 1.44761e-06 -9.23318e-06
0.00146138 -1.4216e-05 -1.36854e-07
-1.4216e-05 0.000308189 1.00108e-06
-1.36854e-07 1.00108e-06 0.000164472
0.00127858 -1.595e-05 -2.9007e-07
-1.595e-05 0.000179915 8.83558e-07
-2.9007e-07 8.83558e-07 8.0241e-05
0.00115378 3.91751e-06 -2.35192e-07
3.91751e-06 0.000128719 4.01761e-07
-2.35192e-07 4.01761e-07 4.03345e-05
0.00108944 2.33455e-05 7.32312e-08
2.33455e-05 9.01243e-05 2.32779e-07
7.32312e-08 2.32779e-07 3.12166e-06
0.00191101 -0.000153038 6.98559e-07
-0.000153038 0.000104883 -7.51569e-07
6.98559e-07 -7.51569e-07 0.00010337
0.00108349 1.19471e-05 9.28529e-08
1.19471e-05 7.53192e-05 -3.0391e-07
9.28529e-08 -3.0391e-07 -2.00696e-05
0.0011461 7.12472e-06 -1.4542e-07
7.12472e-06 0.000119493 1.29362e-07
-1.4542e-07 1.29362e-07 6.2873e-06
0.00112084 -2.36003e-05 -3.96223e-07
-2.36003e-05 0.000263099 4.32693e-07
-3.96223e-07 4.32693e-07 1.55991e-05
0.001191 2.79502e-05 8.30229e-09
2.79502e-05 0.000130879 -8.30409e-07
8.30229e-09 -8.30409e-07 4.52103e-05
0.00194438 -0.000137035 -2.97713e-05
-0.000137035 0.000471445 -2.21978e-06
-2.97713e-05 -2.21978e-06 0.000312358
0.0013404 4.32813e-05 -4.35388e-06
4.32813e-05 0.000355303 -6.48011e-07
-4.35388e-06 -6.48011e-07 0.000155734
0.00102647 1.91976e-05 -2.54031e-07
1.91976e-05 3.73557e-05 -1.25745e-06
-2.54031e-07 -1.25745e-06 -5.48354e-05
0.00124538 3.80036e-05 -3.44853e-07
3.80036e-05 0.000157914 -1.29947e-06
-3.44853e-07 -1.29947e-06 6.54666e-05
0.00140816 -1.52257e-06 1.61163e-06
-1.52257e-06 0.000427472 -1.55444e-07
1.61163e-06 -1.55444e-07 0.000321827
0.00163101 -4.00457e-06 -7.04556e-06
-4.00457e-06 0.000630448 1.10466e-07
-7.04556e-06 1.10466e-07 0.000550743
-0.00102801 -5.83469e-06 1.07681e-05
-5.83469e-06 -0.000986023 9.05339e-08
1.07681e-05 9.05339e-08 -0.000994548
0.00075211 4.19827e-05 1.46021e-06
4.19827e-05 -7.05654e-05 1.39251e-06
1.46021e-06 1.39251e-06 -0.000152282
-0.000825788 2.90425e-06 -6.51066e-06
2.90425e-06 -0.000692902 3.8112e-06
-6.51066e-06 3.8112e-06 -0.00087322
0.000828995 4.09436e-06 -1.36452e-05
4.09436e-06 0.000132994 -3.17192e-06
-1.36452e-05 -3.17192e-06 4.34462e-05
0.00402876 -0.00025652 3.37232e-05
-0.00025652 0.000726666 7.79356e-06
3.37232e-05 7.79356e-06 -8.68577e-05
0.00281958 0.000148318 -2.82637e-05
0.000148318 0.000632223 -6.50766e-05
-2.82637e-05 -6.50766e-05 0.000255496
0.00263364 -0.000231772 5.87914e-06
-0.000231772 4.36486e-05 9.6719e-05
5.87914e-06 9.6719e-05 0.00016169
0.000845629 1.63776e-05 -5.92963e-07
1.63776e-05 3.14019e-05 -3.23486e-06
-5.92963e-07 -3.23486e-06 -5.62768e-05
9.34671e-06 -1.20359e-05 8.62608e-07
-1.20359e-05 -0.000559938 -4.11804e-06
8.62608e-07 -4.11804e-06 -0.000585465
0.00125028 3.78491e-05 -1.57517e-06
3.78491e-05 0.000189086 -6.60966e-07
-1.57517e-06 -6.60966e-07 0.000114714
0.00083577 5.8501e-06 -1.0735e-06
5.8501e-06 3.52669e-05 -1.11421e-06
-1.0735e-06 -1.11421e-06 -6.841e-05
0.00111242 -6.82565e-06 2.89546e-06
-6.82565e-06 0.00012446 -5.80454e-07
2.89546e-06 -5.80454e-07 4.87806e-05
4.02873e-05 4.35347e-05 7.03092e-06
4.35347e-05 -7.20043e-05 -4.12581e-06
7.03092e-06 -4.12581e-06 -0.000139968
0.00154189 -8.76986e-07 -1.86744e-06
-8.76986e-07 0.000292957 4.81115e-07
-1.86744e-06 4.81115e-07 0.000377128
0.00455606 3.96097e-05 2.07004e-05
3.96097e-05 0.000416887 -2.09494e-06
2.07004e-05 -2.09494e-06 2.36231e-05
0.00331438 7.13997e-06 -1.76095e-05
7.13997e-06 0.000422247 -2.31992e-06
-1.76095e-05 -2.31992e-06 0.000548777
0.000939803 4.75543e-05 2.97436e-06
4.75543e-05 0.000186724 -6.32119e-06
2.97436e-06 -6.32119e-06 0.000106165
0.00146375 -4.39252e-06 -1.46017e-06
-4.39252e-06 0.000397906 -2.67904e-06
-1.46017e-06 -2.67904e-06 0.0002922
0.00124889 -2.08842e-05 -9.65857e-06
-2.08842e-05 0.000267786 4.14372e-06
-9.65857e-06 4.14372e-06 0.000172338
0.000559256 6.99277e-05 2.75372e-07
6.99277e-05 -0.000494314 5.94856e-06
2.75372e-07 5.94856e-06 -0.000209101
0.00234478 0.000229183 -5.38099e-06
0.000229183 9.14053e-05 -5.78397e-05
-5.38099e-06 -5.78397e-05 4.74983e-05
0.000607711 9.13646e-05 9.06735e-06
9.13646e-05 0.000399482 -6.8897e-06
9.06735e-06 -6.8897e-06 0.000355059
0.00314949 -0.000103645 4.24609e-05
-0.000103645 -7.32861e-05 2.418e-05
4.24609e-05 2.418e-05 -0.000495877
0.0012404 4.49018e-05 -9.99047e-07
4.49018e-05 0.000157454 2.8028e-06
-9.99047e-07 2.8028e-06 4.62866e-05
0.00130623 3.24117e-05 -1.47211e-06
3.24117e-05 0.000231946 4.14717e-07
-1.47211e-06 4.14717e-07 0.000122357
0.00031298 -2.0675e-05 -5.9997e-07
-2.0675e-05 -0.00011842 -3.93057e-06
-5.9997e-07 -3.93057e-06 -0.000353539
0.00120214 8.47901e-06 -1.04053e-07
8.47901e-06 0.000141476 -7.12287e-07
-1.04053e-07 -7.12287e-07 5.78294e-05
0.00109565 -1.90925e-05 4.59489e-07
-1.90925e-05 0.000100286 -7.18886e-08
4.59489e-07 -7.18886e-08 -6.92838e-06
0.000905732 -1.08889e-05 -1.44045e-06
-1.08889e-05 2.84166e-05 2.53296e-06
-1.44045e-06 2.53296e-06 -9.48444e-05
0.00108836 -3.74483e-05 -1.93285e-07
-3.74483e-05 7.92127e-05 5.83094e-08
-1.93285e-07 5.83094e-08 -1.66047e-05
0.000956996 -1.68177e-05 3.14966e-07
-1.68177e-05 5.80102e-05 1.0448e-06
3.14966e-07 1.0448e-06 -5.05326e-05
0.000974626 -3.01613e-05 4.67244e-07
-3.01613e-05 0.000101883 -5.20278e-07
4.67244e-07 -5.20278e-07 -2.65284e-05
0.00107385 -3.28274e-05 1.33145e-07
-3.28274e-05 7.28414e-05 -4.00325e-07
1.33145e-07 -4.00325e-07 -1.71245e-05
0.00104309 -2.32387e-05 4.43621e-08
-2.32387e-05 6.44117e-05 5.9444e-08
4.43621e-08 5.9444e-08 -2.46682e-05
0.00118187 -4.92575e-05 1.29872e-07
-4.92575e-05 0.000145065 4.37849e-07
1.29872e-07 4.37849e-07 4.84241e-05
0.0010331 -5.09528e-05 6.26706e-08
-5.09528e-05 0.000107784 1.19935e-06
6.26706e-08 1.19935e-06 -1.20686e-05
0.000970398 -4.51202e-05 -1.11375e-07
-4.51202e-05 4.35322e-05 -9.16916e-08
-1.11375e-07 -9.16916e-08 -4.3791e-05
0.000906872 -4.59563e-05 7.70098e-07
-4.59563e-05 1.92387e-05 -4.22748e-07
7.70098e-07 -4.22748e-07 -8.18807e-05
0.00113463 -5.78892e-05 6.84742e-07
-5.78892e-05 0.000124189 1.31173e-06
6.84742e-07 1.31173e-06 1.33137e-05
0.00120657 -5.99303e-05 -2.0524e-06
-5.99303e-05 0.000120176 2.08034e-06
-2.0524e-06 2.08034e-06 2.55388e-05
0.00133286 -5.4412e-05 3.88555e-07
-5.4412e-05 0.000216356 -1.77744e-07
3.88555e-07 -1.77744e-07 0.000127469
0.000951984 -5.17204e-05 -2.88661e-07
-5.17204e-05 1.63757e-05 -8.4733e-08
-2.88661e-07 -8.4733e-08 -8.06513e-05
0.00128762 -5.55424e-05 9.53373e-08
-5.55424e-05 0.000183181 2.31568e-07
9.53373e-08 2.31568e-07 0.000104557
0.000906874 -4.22735e-05 -9.23054e-07
-4.22735e-05 1.11246e-05 2.13928e-07
-9.23054e-07 2.13928e-07 -6.55425e-05
0.00105896 -5.06958e-05 4.61802e-07
-5.06958e-05 7.19141e-05 5.48454e-08
4.61802e-07 5.48454e-08 -1.0637e-05
0.00106479 -3.85058e-05 -1.16326e-06
-3.85058e-05 7.78164e-05 1.02614e-07
-1.16326e-06 1.02614e-07 7.44832e-06
0.00110394 -4.75657e-05 -8.60124e-07
-4.75657e-05 9.82495e-05 5.263e-07
-8.60124e-07 5.263e-07 2.20245e-05
0.00091758 -4.73833e-05 -4.88962e-08
-4.73833e-05 7.953e-06 -8.94266e-07
-4.88962e-08 -8.94266e-07 -7.8359e-05
0.00103111 -1.62529e-05 -1.28146e-06
-1.62529e-05 5.24504e-05 1.27887e-06
-1.28146e-06 1.27887e-06 -8.1581e-06
0.00103914 -4.04278e-05 1.00289e-07
-4.04278e-05 6.26528e-05 1.49744e-07
1.00289e-07 1.49744e-07 -1.00372e-05
0.00113882 -4.79203e-05 1.63585e-06
-4.79203e-05 0.000116973 -3.31967e-07
1.63585e-06 -3.31967e-07 3.90223e-05
0.00102801 -3.76632e-05 8.94079e-07
-3.76632e-05 6.16279e-05 -6.96628e-07
8.94079e-07 -6.96628e-07 -1.21978e-05
0.00101407 -1.42104e-05 1.47024e-07
-1.42104e-05 4.45029e-05 1.34485e-08
1.47024e-07 1.34485e-08 -1.4725e-05
0.00095061 4.70671e-06 -1.32338e-06
4.70671e-06 9.21473e-06 2.26144e-06
-1.32338e-06 2.26144e-06 -2.79894e-05
0.00100646 -1.30266e-05 6.39276e-07
-1.30266e-05 4.09183e-05 -1.35517e-06
6.39276e-07 -1.35517e-06 -1.55029e-05
0.000944239 7.1292e-06 1.0117e-07
7.1292e-06 3.76016e-06 -3.56925e-08
1.0117e-07 -3.56925e-08 -3.0914e-05
0.000864403 1.42332e-05 -2.01765e-06
1.42332e-05 -3.97412e-05 3.36493e-06
-2.01765e-06 3.36493e-06 -4.49794e-05
0.000946715 3.14259e-06 9.10576e-07
3.14259e-06 2.77169e-06 -2.00822e-06
9.10576e-07 -2.00822e-06 -2.99181e-05
0.000881919 1.22243e-05 1.26818e-07
1.22243e-05 -3.52225e-05 8.31348e-09
1.26818e-07 8.31348e-09 -3.91083e-05
0.00232115 2.00882e-05 -3.99551e-06
2.00882e-05 0.000690667 1.65482e-06
-3.99551e-06 1.65482e-06 0.000711392
0.000902656 1.00617e-05 1.46803e-06
1.00617e-05 -2.89042e-05 -3.25625e-06
1.46803e-06 -3.25625e-06 -3.1552e-05
0.0017063 1.33945e-05 4.06264e-06
1.33945e-05 0.000375357 -1.19829e-06
4.06264e-06 -1.19829e-06 0.000394147
0.00231939 1.10588e-05 7.87036e-06
1.10588e-05 0.000682454 -4.04261e-06
7.87036e-06 -4.04261e-06 0.000704759
0.000801507 -2.10288e-06 -3.334e-07
-2.10288e-06 -6.57376e-05 -1.94284e-06
-3.334e-07 -1.94284e-06 -0.000118638
0.000690453 -6.434e-06 -7.12817e-07
-6.434e-06 -0.000128899 -2.56972e-06
-7.12817e-07 -2.56972e-06 -0.000160247
0.000960101 -1.2762e-06 -1.08507e-07
-1.2762e-06 1.45776e-05 -4.91234e-07
-1.08507e-07 -4.91234e-07 -3.52244e-05
0.000916931 -8.03909e-06 -1.01136e-06
-8.03909e-06 -2.55317e-05 -3.28748e-06
-1.01136e-06 -3.28748e-06 -2.55426e-05
0.000706562 -4.99289e-06 -1.06112e-07
-4.99289e-06 -0.000122663 -6.08887e-07
-1.06112e-07 -6.08887e-07 -0.000151758
0.00108304 7.14042e-08 1.6175e-07
7.14042e-08 7.68845e-05 1.39364e-06
1.6175e-07 1.39364e-06 3.06012e-05
0.00221839 -7.26164e-06 -5.67275e-06
-7.26164e-06 0.000628427 -4.04462e-06
-5.67275e-06 -4.04462e-06 0.000652289
0.000907445 -5.26824e-06 -1.00773e-07
-5.26824e-06 -3.27599e-05 -1.27257e-08
-1.00773e-07 -1.27257e-08 -3.12726e-05
0.000715077 -3.32112e-06 1.59785e-07
-3.32112e-06 -0.000119673 1.83991e-06
1.59785e-07 1.83991e-06 -0.000146882
0.00219286 -3.4766e-06 -1.07551e-06
-3.4766e-06 0.000613842 8.60584e-09
-1.07551e-06 8.60584e-09 0.000638322
0.000904632 -2.45479e-06 1.83198e-07
-2.45479e-06 -3.5778e-05 3.23775e-06
1.83198e-07 3.23775e-06 -3.32746e-05
0.00217726 2.84764e-07 -6.05514e-07
2.84764e-07 0.000605491 3.97561e-06
-6.05514e-07 3.97561e-06 0.000630205
0.00114597 -8.29116e-06 3.03682e-06
-8.29116e-06 0.000256266 -8.49806e-07
3.03682e-06 -8.49806e-07 0.00015935
0.00113142 -6.07554e-06 -1.31748e-06
-6.07554e-06 0.000305881 4.28794e-07
-1.31748e-06 4.28794e-07 0.000231986
0.00111423 5.10435e-06 -1.7153e-06
5.10435e-06 0.000225989 3.26415e-06
-1.7153e-06 3.26415e-06 0.000229005
0.00107305 2.45767e-05 -1.00197e-07
2.45767e-05 7.59686e-05 6.65825e-08
-1.00197e-07 6.65825e-08 1.00565e-05
0.000963735 1.97224e-05 -3.5894e-07
1.97224e-05 1.71624e-05 -1.12135e-06
-3.5894e-07 -1.12135e-06 -5.10323e-05
0.00119437 2.94371e-05 -1.71845e-07
2.94371e-05 0.000139124 -4.80612e-07
-1.71845e-07 -4.80612e-07 6.43524e-05
0.00227203 1.26948e-05 -5.31254e-06
1.26948e-05 0.000862051 -1.00367e-05
-5.31254e-06 -1.00367e-05 0.000820871
0.00115441 -1.1689e-05 5.56888e-06
-1.1689e-05 0.000206309 3.97088e-07
5.56888e-06 3.97088e-07 0.000143541
0.00143871 4.24094e-07 -1.10784e-05
4.24094e-07 0.000458899 8.03661e-06
-1.10784e-05 8.03661e-06 0.000406345
0.000164664 4.5667e-05 -3.05674e-05
4.5667e-05 -0.000204548 1.17706e-05
-3.05674e-05 1.17706e-05 -0.000443737
0.00254202 0.000157169 1.14486e-05
0.000157169 0.000433521 -1.38544e-05
1.14486e-05 -1.38544e-05 -0.000362426
0.00289103 0.000255849 2.95673e-05
0.000255849 0.000492236 -2.35292e-05
2.95673e-05 -2.35292e-05 0.000604297
0.000633426 -3.92079e-06 3.44884e-06
-3.92079e-06 -0.000223779 2.07542e-06
3.44884e-06 2.07542e-06 -0.000149975
0.000417281 -2.95243e-05 -1.35337e-05
-2.95243e-05 -8.66537e-05 1.11226e-05
-1.35337e-05 1.11226e-05 -0.000284228
0.00495348 8.33551e-05 3.56621e-05
8.33551e-05 0.00101818 -4.40634e-05
3.56621e-05 -4.40634e-05 0.000238201
0.000505425 0.000100071 2.45268e-07
0.000100071 -0.000690545 1.20762e-05
2.45268e-07 1.20762e-05 -0.000567743
0.00108926 1.33164e-05 6.73703e-07
1.33164e-05 2.91264e-05 -8.66551e-07
6.73703e-07 -8.66551e-07 6.93987e-05
0.00155199 -0.000182361 2.71346e-05
-0.000182361 0.000159353 -4.95526e-05
2.71346e-05 -4.95526e-05 -4.8422e-06
0.00822158 9.71412e-05 2.55423e-05
9.71412e-05 0.00221378 -3.54946e-05
2.55423e-05 -3.54946e-05 0.00167635
-9.47909e-05 -6.18483e-06 -3.25673e-06
-6.18483e-06 -0.00108396 8.55765e-05
-3.25673e-06 8.55765e-05 -0.000928075
-0.000486458 1.95228e-05 -1.04487e-06
1.95228e-05 -0.000969224 1.19171e-08
-1.04487e-06 1.19171e-08 -0.000865072
0.00109673 1.02414e-05 -1.22535e-08
1.02414e-05 8.73641e-05 -1.05835e-06
-1.22535e-08 -1.05835e-06 4.87715e-06
0.00100619 -1.38055e-06 -5.77793e-08
-1.38055e-06 4.85537e-05 -2.48533e-07
-5.77793e-08 -2.48533e-07 -3.29834e-05
0.00104819 -1.60254e-05 -5.20101e-08
-1.60254e-05 7.62792e-05 1.17061e-06
-5.20101e-08 1.17061e-06 -8.71898e-07
0.00103337 1.83785e-05 -3.36076e-07
1.83785e-05 6.03335e-05 -7.18055e-07
-3.36076e-07 -7.18055e-07 -1.36935e-05
0.00116176 4.49201e-05 9.27965e-07
4.49201e-05 0.000129218 1.53849e-06
9.27965e-07 1.53849e-06 5.79149e-05
0.00124078 2.85101e-05 1.02861e-07
2.85101e-05 0.000164094 1.12053e-06
1.02861e-07 1.12053e-06 0.000101416
0.00246219 -0.00016399 6.71056e-06
-0.00016399 0.000359492 -2.18627e-07
6.71056e-06 -2.18627e-07 0.000366833
0.000926511 -1.08737e-05 -4.92929e-07
-1.08737e-05 0.000171306 6.06156e-06
-4.92929e-07 6.06156e-06 -8.05382e-05
0.00110846 2.52443e-05 4.57387e-07
2.52443e-05 9.94518e-05 1.24577e-06
4.57387e-07 1.24577e-06 1.25918e-05
0.00121529 -7.19747e-06 4.92928e-07
-7.19747e-06 0.000159236 4.16303e-07
4.92928e-07 4.16303e-07 3.98847e-05
0.00112967 4.44948e-06 3.37388e-08
4.44948e-06 0.000100312 1.09046e-06
3.37388e-08 1.09046e-06 5.43688e-06
0.00110582 2.42064e-05 3.43177e-07
2.42064e-05 8.91571e-05 2.48564e-07
3.43177e-07 2.48564e-07 3.83044e-06
0.00114926 2.70662e-05 1.45739e-07
2.70662e-05 0.000108054 -7.97518e-08
1.45739e-07 -7.97518e-08 1.55782e-05
0.00138229 -0.000128705 -3.46229e-08
-0.000128705 0.000138928 1.64237e-06
-3.46229e-08 1.64237e-06 2.24568e-05
0.00126113 2.26e-06 4.82846e-07
2.26e-06 0.000149467 -1.36227e-06
4.82846e-07 -1.36227e-06 5.90506e-05
0.00149026 4.83952e-05 -1.7558e-06
4.83952e-05 0.000439004 -9.03169e-07
-1.7558e-06 -9.03169e-07 0.00024571
0.000948633 6.66064e-06 2.16847e-08
6.66064e-06 7.63394e-06 -2.10327e-06
2.16847e-08 -2.10327e-06 -8.10623e-05
0.000654962 -2.68912e-05 -1.09927e-06
-2.68912e-05 0.000207631 -1.94895e-06
-1.09927e-06 -1.94895e-06 -6.28477e-05
0.000564358 2.72822e-05 -1.81651e-06
2.72822e-05 -0.000149028 2.07979e-06
-1.81651e-06 2.07979e-06 -0.000210875
0.00107109 -2.62426e-06 2.21802e-08
-2.62426e-06 6.59606e-05 -1.61229e-06
2.21802e-08 -1.61229e-06 -2.87518e-05
0.00131054 -4.83077e-06 8.73127e-07
-4.83077e-06 0.000339526 -9.73762e-07
8.73127e-07 -9.73762e-07 0.000229578
0.000958163 -2.8019e-06 7.18132e-07
-2.8019e-06 0.000147607 2.25759e-07
7.18132e-07 2.25759e-07 4.03714e-05
0.00109366 -3.60374e-06 -1.90256e-05
-3.60374e-06 0.000297535 9.1349e-07
-1.90256e-05 9.1349e-07 0.000217055
0.00143789 5.42899e-05 2.31948e-06
5.42899e-05 0.000285025 4.1883e-06
2.31948e-06 4.1883e-06 0.000205935
-0.000472287 5.0473e-05 6.54953e-06
5.0473e-05 -0.000380551 -1.01654e-05
6.54953e-06 -1.01654e-05 -0.00044928
0.000735849 4.01626e-06 -1.30781e-06
4.01626e-06 -2.74465e-05 1.41855e-06
-1.30781e-06 1.41855e-06 -0.000131352
0.00375349 -2.83872e-05 -1.66296e-05
-2.83872e-05 0.000482167 -1.08088e-05
-1.66296e-05 -1.08088e-05 0.000263913
-0.00131982 1.78238e-05 7.34175e-07
1.78238e-05 -0.00174485 7.16639e-05
7.34175e-07 7.16639e-05 -0.00156321
1.89883e-06 -8.65612e-06 3.03687e-07
-8.65612e-06 -0.000581608 -5.34982e-06
3.03687e-07 -5.34982e-06 -0.000658915
0.000545834 -1.14195e-05 -1.36557e-06
-1.14195e-05 -0.000250224 -7.85425e-06
-1.36557e-06 -7.85425e-06 -0.000205402
0.000678991 3.43144e-05 2.77808e-06
3.43144e-05 2.29289e-05 6.19908e-07
2.77808e-06 6.19908e-07 -5.62385e-05
0.00114301 -4.73416e-06 1.03832e-07
-4.73416e-06 0.000206063 1.38462e-06
1.03832e-07 1.38462e-06 9.87423e-05
0.00119747 -2.22097e-05 -6.18827e-06
-2.22097e-05 0.000232928 5.08387e-07
-6.18827e-06 5.08387e-07 0.000140208
0.00107142 0.000138935 2.05117e-05
0.000138935 0.00024991 1.16531e-06
2.05117e-05 1.16531e-06 7.73734e-05
0.00121779 5.98978e-05 1.76689e-06
5.98978e-05 -1.34767e-06 -3.24433e-06
1.76689e-06 -3.24433e-06 0.000238475
0.000408018 0.000128264 1.7957e-06
0.000128264 -0.00067996 -1.28587e-05
1.7957e-06 -1.28587e-05 -0.000575356
0.00697796 -9.14641e-06 6.56001e-06
-9.14641e-06 0.00176665 -2.04045e-05
6.56001e-06 -2.04045e-05 0.0014489
-0.000695034 4.98185e-06 -1.74412e-05
4.98185e-06 -0.00016928 -1.22473e-05
-1.74412e-05 -1.22473e-05 -0.000405673
0.00111671 -1.30527e-05 -4.12638e-06
-1.30527e-05 0.000239046 8.38439e-07
-4.12638e-06 8.38439e-07 0.000123793
0.00105885 -5.82411e-07 -1.53208e-05
-5.82411e-07 0.000201193 4.38198e-06
-1.53208e-05 4.38198e-06 0.000139137
0.0014795 0.000102629 8.81615e-06
0.000102629 0.000222477 8.91823e-07
8.81615e-06 8.91823e-07 0.000491345
-0.00305066 0.000205192 3.57287e-05
0.000205192 -0.00221681 -3.97044e-05
3.57287e-05 -3.97044e-05 -0.00214545
0.0077025 0.000147515 -3.36428e-06
0.000147515 0.00209694 -7.79979e-06
-3.36428e-06 -7.79979e-06 0.00135542
0.0012821 -1.23908e-05 -2.02934e-05
-1.23908e-05 0.00033993 9.03608e-05
-2.02934e-05 9.03608e-05 1.55724e-05
0.000998911 2.17622e-05 4.78401e-07
2.17622e-05 6.90777e-05 3.05e-06
4.78401e-07 3.05e-06 -3.58265e-05
0.000605283 -1.12084e-05 1.02833e-06
-1.12084e-05 2.33307e-05 -1.61664e-06
1.02833e-06 -1.61664e-06 -0.000210704
0.000703209 -2.93399e-05 -2.46637e-07
-2.93399e-05 0.000135207 -1.48544e-06
-2.46637e-07 -1.48544e-06 -0.000144208
0.00105321 -4.06581e-05 4.11789e-07
-4.06581e-05 6.33453e-05 -9.19707e-07
4.11789e-07 -9.19707e-07 -3.25452e-05
0.000863911 -2.25823e-05 3.79921e-07
-2.25823e-05 1.02689e-05 1.35912e-06
3.79921e-07 1.35912e-06 -9.99173e-05
0.000884098 -2.25885e-05 -1.50721e-07
-2.25885e-05 5.58546e-05 6.68461e-07
-1.50721e-07 6.68461e-07 -6.75109e-05
0.000896665 -6.01103e-05 2.0924e-06
-6.01103e-05 0.000124935 -1.57481e-06
2.0924e-06 -1.57481e-06 -7.02897e-05
0.00130646 -5.46916e-05 3.51978e-09
-5.46916e-05 0.000202886 5.07387e-08
3.51978e-09 5.07387e-08 0.000104855
0.00126987 -5.90243e-05 -1.6135e-07
-5.90243e-05 0.000216282 4.25449e-07
-1.6135e-07 4.25449e-07 9.33907e-05
0.00117447 -6.70278e-05 1.23888e-06
-6.70278e-05 0.000169908 1.85336e-06
1.23888e-06 1.85336e-06 2.35225e-05
0.000700731 -4.10332e-05 1.03752e-07
-4.10332e-05 -7.87569e-05 -1.40947e-06
1.03752e-07 -1.40947e-06 -0.000177839
0.00113576 -5.75946e-05 -2.24189e-07
-5.75946e-05 0.000123234 -5.29497e-08
-2.24189e-07 -5.29497e-08 1.09565e-05
0.00167766 -7.63101e-05 -1.41658e-06
-7.63101e-05 0.000356013 1.50011e-06
-1.41658e-06 1.50011e-06 0.00024323
0.00140051 -6.72331e-05 -1.76297e-06
-6.72331e-05 0.000201565 2.23564e-06
-1.76297e-06 2.23564e-06 0.000102878
0.000863409 -4.88274e-05 -4.77648e-07
-4.88274e-05 -3.61091e-05 1.83969e-06
-4.77648e-07 1.83969e-06 -0.00011855
0.00113418 -5.86401e-05 -4.13279e-07
-5.86401e-05 8.67061e-05 3.49298e-07
-4.13279e-07 3.49298e-07 -9.48998e-06
0.001109 -5.54453e-05 -1.11484e-07
-5.54453e-05 9.206e-05 -1.08906e-06
-1.11484e-07 -1.08906e-06 -6.2144e-06
0.00123359 -5.20031e-05 3.12586e-07
-5.20031e-05 0.00015732 -1.43344e-07
3.12586e-07 -1.43344e-07 8.38261e-05
0.00112387 -5.16624e-05 1.06273e-06
-5.16624e-05 0.0001038 -6.3019e-07
1.06273e-06 -6.3019e-07 2.67859e-05
0.000925873 -3.29853e-05 -5.12706e-07
-3.29853e-05 1.84229e-05 6.04372e-07
-5.12706e-07 6.04372e-07 -5.27122e-05
0.00100308 -4.42675e-05 2.03252e-07
-4.42675e-05 5.76121e-05 -1.04138e-07
2.03252e-07 -1.04138e-07 -1.83456e-05
0.00106798 -5.06867e-05 2.75099e-06
-5.06867e-05 7.55635e-05 -1.49787e-06
2.75099e-06 -1.49787e-06 -5.64063e-06
0.00100688 -8.64858e-06 -1.57071e-06
-8.64858e-06 4.32022e-05 9.53615e-07
-1.57071e-06 9.53615e-07 -1.72349e-05
0.00108026 -3.92952e-05 -2.87011e-07
-3.92952e-05 8.42778e-05 -5.56261e-08
-2.87011e-07 -5.56261e-08 1.40601e-05
0.00112375 -4.80293e-05 4.37644e-07
-4.80293e-05 0.000107372 -1.173e-07
4.37644e-07 -1.173e-07 3.09429e-05
0.000945361 6.57418e-07 -1.96568e-06
6.57418e-07 8.16299e-06 2.32296e-06
-1.96568e-06 2.32296e-06 -3.1293e-05
0.00102609 -1.76084e-05 1.25586e-07
-1.76084e-05 4.91617e-05 1.36969e-07
1.25586e-07 1.36969e-07 -1.11157e-05
0.00101433 -4.00233e-05 1.37047e-06
-4.00233e-05 4.96316e-05 -1.56181e-07
1.37047e-06 -1.56181e-07 -2.32157e-05
0.00101551 -1.41888e-05 1.09794e-06
-1.41888e-05 4.45858e-05 -1.30707e-06
1.09794e-06 -1.30707e-06 -1.44381e-05
0.000941574 6.34946e-06 2.44719e-07
6.34946e-06 5.02318e-06 -2.43534e-08
2.44719e-07 -2.43534e-08 -3.22469e-05
0.000852059 1.61172e-05 -2.39821e-06
1.61172e-05 -4.14396e-05 3.46703e-06
-2.39821e-06 3.46703e-06 -4.84698e-05
0.000938614 7.84463e-06 1.06163e-06
7.84463e-06 1.15871e-06 -2.16964e-06
1.06163e-06 -2.16964e-06 -3.36023e-05
0.000877312 1.43454e-05 9.45989e-08
1.43454e-05 -3.34454e-05 -1.7485e-08
9.45989e-08 -1.7485e-08 -3.87606e-05
0.00240331 2.17282e-05 -1.27341e-05
2.17282e-05 0.00073594 3.97229e-06
-1.27341e-05 3.97229e-06 0.00075563
0.00089818 1.22831e-05 1.87291e-06
1.22831e-05 -2.74181e-05 -3.31033e-06
1.87291e-06 -3.31033e-06 -3.13029e-05
0.00171807 1.66744e-05 4.79288e-06
1.66744e-05 0.000385976 -1.17225e-06
4.79288e-06 -1.17225e-06 0.000403663
0.00234154 1.47128e-05 9.96662e-06
1.47128e-05 0.000697145 -4.04527e-06
9.96662e-06 -4.04527e-06 0.000718649
0.000989734 1.30266e-05 -5.39666e-07
1.30266e-05 2.81274e-05 -1.52565e-06
-5.39666e-07 -1.52565e-06 -2.63833e-05
0.000943259 -9.52174e-06 -7.05117e-07
-9.52174e-06 -2.63166e-07 -2.06385e-06
-7.05117e-07 -2.06385e-06 -3.21784e-05
0.000897395 6.57112e-06 -4.3293e-07
6.57112e-06 -1.70623e-05 -5.5637e-07
-4.3293e-07 -5.5637e-07 -6.95678e-05
0.000910752 -1.06044e-05 -1.2899e-06
-1.06044e-05 -2.52216e-05 -3.33422e-06
-1.2899e-06 -3.33422e-06 -2.69712e-05
0.000826932 -6.68758e-06 -2.36776e-07
-6.68758e-06 -6.04749e-05 -5.88607e-07
-2.36776e-07 -5.88607e-07 -9.11912e-05
0.00110531 -2.2955e-06 1.96465e-07
-2.2955e-06 8.6868e-05 8.00762e-07
1.96465e-07 8.00762e-07 3.77767e-05
0.00225652 -1.10138e-05 -7.77317e-06
-1.10138e-05 0.000650219 -4.05822e-06
-7.77317e-06 -4.05822e-06 0.000673238
0.00090233 -7.96704e-06 -9.14949e-08
-7.96704e-06 -3.27905e-05 -1.19959e-08
-9.14949e-08 -1.19959e-08 -3.27026e-05
0.000704113 -5.08068e-06 2.06332e-07
-5.08068e-06 -0.000123712 1.36093e-06
2.06332e-07 1.36093e-06 -0.000153108
0.0022219 -7.1724e-06 -9.55106e-07
-7.1724e-06 0.000629947 1.81247e-08
-9.55106e-07 1.81247e-08 0.000653881
0.000896473 -5.21504e-06 5.35471e-07
-5.21504e-06 -3.82124e-05 3.25459e-06
5.35471e-07 3.25459e-06 -3.66534e-05
0.00219287 -3.39085e-06 1.99951e-06
-3.39085e-06 0.000613688 3.9789e-06
1.99951e-06 3.9789e-06 0.000638225
0.00156152 1.81713e-06 2.81789e-06
1.81713e-06 0.000463202 -2.70779e-07
2.81789e-06 -2.70779e-07 0.000376253
0.00110029 -8.00162e-06 1.19659e-06
-8.00162e-06 0.000221144 -3.70041e-09
1.19659e-06 -3.70041e-09 0.000126077
0.000999379 -6.38653e-06 -1.38485e-05
-6.38653e-06 0.000219482 5.56007e-07
-1.38485e-05 5.56007e-07 0.000147338
0.000965105 1.90375e-05 -4.35387e-07
1.90375e-05 1.73803e-05 -1.22607e-06
-4.35387e-07 -1.22607e-06 -5.30852e-05
0.00114989 3.97199e-05 -4.00933e-07
3.97199e-05 0.000113415 -6.47865e-07
-4.00933e-07 -6.47865e-07 3.48907e-05
0.00110722 2.9265e-05 8.88607e-07
2.9265e-05 9.28694e-05 1.17401e-06
8.88607e-07 1.17401e-06 2.73741e-05
0.000943904 1.87752e-05 -5.4835e-08
1.87752e-05 7.85316e-06 3.45003e-09
-5.4835e-08 3.45003e-09 -6.0646e-05
0.00111048 2.16657e-05 1.21361e-07
2.16657e-05 9.5457e-05 3.69868e-07
1.21361e-07 3.69868e-07 2.03039e-05
0.00107549 3.02351e-05 -3.6323e-07
3.02351e-05 7.68875e-05 -8.9817e-07
-3.6323e-07 -8.9817e-07 -2.26094e-07
0.00109011 4.07149e-05 -1.06565e-07
4.07149e-05 8.78483e-05 -4.50737e-07
-1.06565e-07 -4.50737e-07 5.40865e-06
0.000748298 3.07489e-05 -6.67162e-07
3.07489e-05 -2.57533e-05 -1.19404e-05
-6.67162e-07 -1.19404e-05 -9.65861e-05
0.000982818 1.12164e-05 -2.05025e-06
1.12164e-05 4.45795e-05 -2.94624e-06
-2.05025e-06 -2.94624e-06 2.81444e-06
0.000933463 -1.23364e-05 4.89887e-06
-1.23364e-05 6.32378e-05 3.88599e-06
4.89887e-06 3.88599e-06 4.94251e-06
-0.000402742 1.07757e-05 -6.36282e-07
1.07757e-05 -0.00085671 -1.59076e-06
-6.36282e-07 -1.59076e-06 -0.000839936
0.0010637 -4.26893e-05 -6.23648e-05
-4.26893e-05 -0.000128558 6.14994e-05
-6.23648e-05 6.14994e-05 -0.000453711
0.00197742 7.07783e-05 5.02615e-05
7.07783e-05 -3.44676e-05 -6.22497e-05
5.02615e-05 -6.22497e-05 -0.000698176
0.00524682 0.000170396 1.27171e-05
0.000170396 0.00120006 -3.23931e-05
1.27171e-05 -3.23931e-05 0.00139444
0.000953789 -0.000157856 -2.39904e-05
-0.000157856 -0.000217163 2.38574e-05
-2.39904e-05 2.38574e-05 -0.000484911
0.00270865 -6.25247e-05 1.49727e-05
-6.25247e-05 -0.000392637 -5.04659e-05
1.49727e-05 -5.04659e-05 -0.00106677
0.00325773 -1.44882e-05 -3.86164e-06
-1.44882e-05 0.000273232 -1.165e-06
-3.86164e-06 -1.165e-06 0.000360057
0.00182073 1.07751e-05 -9.08282e-07
1.07751e-05 0.000373653 5.143e-06
-9.08282e-07 5.143e-06 0.000512424
0.000745373 -0.000131142 3.5116e-05
-0.000131142 -6.28475e-05 -2.35891e-05
3.5116e-05 -2.35891e-05 -0.000238524
0.00335137 -0.000192843 -2.09054e-05
-0.000192843 -0.000432714 -0.000104917
-2.09054e-05 -0.000104917 -0.000773712
-0.00039846 -7.31166e-05 1.38129e-05
-7.31166e-05 -0.00131823 5.3788e-05
1.38129e-05 5.3788e-05 -0.00112496
-0.00110427 -4.32602e-05 -5.05046e-06
-4.32602e-05 -0.00138278 -3.42368e-07
-5.05046e-06 -3.42368e-07 -0.00116014
0.00114893 1.57347e-05 -8.16518e-07
1.57347e-05 0.000105482 -1.44601e-06
-8.16518e-07 -1.44601e-06 2.13499e-05
0.00107689 1.11322e-05 6.97269e-08
1.11322e-05 7.79046e-05 -2.20979e-07
6.97269e-08 -2.20979e-07 -5.0441e-06
0.00101963 2.53982e-07 -2.75267e-08
2.53982e-07 5.63692e-05 7.76518e-07
-2.75267e-08 7.76518e-07 -2.55e-05
0.00106108 2.07975e-05 5.86962e-08
2.07975e-05 7.40553e-05 2.69933e-07
5.86962e-08 2.69933e-07 5.92392e-09
0.0015506 -0.000130535 1.10978e-05
-0.000130535 0.000171045 2.12865e-06
1.10978e-05 2.12865e-06 9.41245e-05
0.00150034 4.59271e-05 2.10355e-06
4.59271e-05 0.000471812 4.63086e-06
2.10355e-06 4.63086e-06 0.000276889
0.00103809 2.49093e-05 3.73803e-07
2.49093e-05 5.59521e-05 1.28872e-06
3.73803e-07 1.28872e-06 -2.92054e-05
0.0010474 1.53079e-05 -1.80154e-07
1.53079e-05 5.61693e-05 1.2314e-06
-1.80154e-07 1.2314e-06 -3.64184e-05
0.00150677 1.351e-06 -8.67672e-07
1.351e-06 0.000267803 4.57643e-07
-8.67672e-07 4.57643e-07 0.000178884
0.00103073 1.94555e-05 -8.37446e-07
1.94555e-05 4.90491e-05 -1.38928e-07
-8.37446e-07 -1.38928e-07 -3.99749e-05
0.0010317 -1.18918e-06 -1.05272e-06
-1.18918e-06 4.48992e-05 4.78948e-07
-1.05272e-06 4.78948e-07 -5.07829e-05
0.000695635 -2.32159e-05 1.35999e-05
-2.32159e-05 0.000226394 -3.29847e-07
1.35999e-05 -3.29847e-07 1.32605e-05
0.000906316 1.284e-05 2.46511e-06
1.284e-05 2.53898e-05 2.35883e-06
2.46511e-06 2.35883e-06 -3.24005e-05
0.00123004 2.90239e-06 -9.53416e-08
2.90239e-06 0.000153093 -2.75467e-06
-9.53416e-08 -2.75467e-06 5.64243e-05
0.000974685 1.61744e-05 6.56948e-06
1.61744e-05 0.000509886 4.86074e-06
6.56948e-06 4.86074e-06 0.000340454
0.00167609 -3.19199e-05 6.08704e-06
-3.19199e-05 0.000411356 -3.32324e-06
6.08704e-06 -3.32324e-06 0.000284845
0.00146179 -4.28909e-06 -3.08804e-06
-4.28909e-06 0.000471307 -7.55638e-07
-3.08804e-06 -7.55638e-07 0.00035442
0.000993957 -4.7725e-06 3.08919e-07
-4.7725e-06 0.000149363 -5.51745e-07
3.08919e-07 -5.51745e-07 3.6595e-05
0.0005344 -3.96796e-06 -2.54521e-07
-3.96796e-06 -0.000115777 5.34833e-07
-2.54521e-07 5.34833e-07 -0.00022469
0.000679944 2.24494e-05 -3.88874e-06
2.24494e-05 -1.79401e-05 5.95804e-06
-3.88874e-06 5.95804e-06 -9.61236e-05
0.00121456 7.25808e-05 -3.01546e-05
7.25808e-05 0.000590052 1.17279e-05
-3.01546e-05 1.17279e-05 0.000580951
0.000767343 -5.07843e-06 -5.43788e-08
-5.07843e-06 -1.92843e-05 1.25683e-06
-5.43788e-08 1.25683e-06 -0.000128408
0.00307543 0.000162066 1.39732e-05
0.000162066 -7.09943e-05 -9.1022e-05
1.39732e-05 -9.1022e-05 -0.000558893
0.00455807 0.00019032 -1.11258e-05
0.00019032 0.000980949 2.0713e-05
-1.11258e-05 2.0713e-05 0.00111087
0.00108904 -2.36946e-05 -2.89953e-06
-2.36946e-05 0.000162618 -5.76104e-06
-2.89953e-06 -5.76104e-06 7.27932e-05
0.00180728 5.67091e-05 -1.5095e-06
5.67091e-05 0.00036362 -7.51411e-06
-1.5095e-06 -7.51411e-06 0.000585333
7.50076e-05 -5.57315e-06 1.15921e-05
-5.57315e-06 0.000124835 -6.17777e-07
1.15921e-05 -6.17777e-07 -7.64195e-05
0.00111279 -1.25049e-05 -1.55877e-06
-1.25049e-05 0.00023088 9.92311e-08
-1.55877e-06 9.92311e-08 0.000116552
0.00128744 -3.65778e-06 -6.35761e-07
-3.65778e-06 0.000356331 1.01601e-06
-6.35761e-07 1.01601e-06 0.000290895
0.00193863 -2.36123e-05 -8.12711e-06
-2.36123e-05 0.000750651 1.63473e-05
-8.12711e-06 1.63473e-05 0.000659335
0.000672164 0.00011163 -1.76198e-06
0.00011163 -0.00024701 -5.36805e-07
-1.76198e-06 -5.36805e-07 2.25977e-05
0.000828228 0.000233309 3.24973e-06
0.000233309 -0.000423899 -9.17928e-06
3.24973e-06 -9.17928e-06 -0.000367345
0.00284944 2.11748e-05 2.06682e-05
2.11748e-05 0.000210311 -1.17362e-05
2.06682e-05 -1.17362e-05 -0.000687808
0.000459902 -5.45557e-05 3.01117e-06
-5.45557e-05 0.000262153 -1.95874e-05
3.01117e-06 -1.95874e-05 -1.03946e-05
0.00137029 -8.95631e-06 -1.25736e-05
-8.95631e-06 0.000459908 1.70825e-06
-1.25736e-05 1.70825e-06 0.000370754
-0.000997356 4.42215e-05 6.54373e-06
4.42215e-05 -0.00105681 -4.84839e-06
6.54373e-06 -4.84839e-06 -0.000995783
0.000206239 0.000174681 5.72954e-05
0.000174681 -7.76838e-05 -2.50889e-05
5.72954e-05 -2.50889e-05 -1.5681e-05
0.00590434 0.000299749 3.16562e-05
0.000299749 0.00162342 -4.28766e-05
3.16562e-05 -4.28766e-05 0.000864024
0.0019411 -0.000147217 -4.61523e-05
-0.000147217 0.000122925 0.000103329
-4.61523e-05 0.000103329 -0.000387005
0.00101123 -8.25571e-06 -1.67008e-06
-8.25571e-06 0.00021442 -1.65144e-06
-1.67008e-06 -1.65144e-06 -1.54873e-05
0.000643877 -1.99685e-05 -6.60971e-08
-1.99685e-05 0.000110933 -8.72866e-07
-6.60971e-08 -8.72866e-07 -0.000172788
0.00132847 -8.34621e-05 3.22348e-07
-8.34621e-05 0.000369093 2.38e-06
3.22348e-07 2.38e-06 0.000108824
0.000799895 -1.85016e-05 -2.6031e-08
-1.85016e-05 1.43212e-05 3.73197e-07
-2.6031e-08 3.73197e-07 -0.000104733
0.000608994 -4.26665e-05 2.36719e-07
-4.26665e-05 -1.39164e-07 1.72599e-07
2.36719e-07 1.72599e-07 -0.000199281
0.00117733 -8.44508e-05 2.43072e-06
-8.44508e-05 0.000189747 4.40621e-06
2.43072e-06 4.40621e-06 7.26042e-06
0.00151193 -6.76405e-05 -1.18733e-06
-6.76405e-05 0.000327977 9.04654e-09
-1.18733e-06 9.04654e-09 0.000200722
0.00124386 -6.85263e-05 -2.90421e-07
-6.85263e-05 0.000198018 7.08693e-07
-2.90421e-07 7.08693e-07 4.97121e-05
0.00133866 -8.12141e-05 -1.19187e-06
-8.12141e-05 0.000188088 4.95246e-07
-1.19187e-06 4.95246e-07 4.9925e-05
0.00112275 -5.7169e-05 -4.66411e-07
-5.7169e-05 0.000115493 -1.09899e-06
-4.66411e-07 -1.09899e-06 1.05644e-06
0.00148495 -7.29374e-05 -3.43769e-07
-7.29374e-05 0.000259245 1.38882e-07
-3.43769e-07 1.38882e-07 0.000144146
0.00141231 -7.26354e-05 -6.16245e-07
-7.26354e-05 0.000198339 2.93612e-07
-6.16245e-07 2.93612e-07 8.99116e-05
0.00129434 -6.3233e-05 -1.39812e-06
-6.3233e-05 0.000118249 2.86859e-07
-1.39812e-06 2.86859e-07 2.52027e-05
0.0014639 -6.42987e-05 -1.7517e-06
-6.42987e-05 0.000235727 2.63781e-06
-1.7517e-06 2.63781e-06 0.000147765
0.0013305 -6.59914e-05 -2.2041e-07
-6.59914e-05 0.000167014 1.34397e-07
-2.2041e-07 1.34397e-07 6.73983e-05
0.00084135 -4.58053e-05 -3.19476e-09
-4.58053e-05 -4.25361e-05 3.01016e-07
-3.19476e-09 3.01016e-07 -0.000117186
0.000999478 -5.15889e-05 7.89228e-07
-5.15889e-05 3.13378e-05 -2.34471e-07
7.89228e-07 -2.34471e-07 -5.04516e-05
0.00108045 -5.78176e-05 6.16237e-07
-5.78176e-05 6.19075e-05 -1.69257e-06
6.16237e-07 -1.69257e-06 -3.58252e-05
0.00111443 -4.26349e-05 -1.71536e-07
-4.26349e-05 0.000102274 3.03038e-07
-1.71536e-07 3.03038e-07 3.11825e-05
0.00115576 -5.0201e-05 1.46133e-08
-5.0201e-05 0.000120262 -1.64798e-07
1.46133e-08 -1.64798e-07 4.64314e-05
0.000952205 -4.76357e-05 1.77746e-06
-4.76357e-05 2.06227e-05 -8.45384e-07
1.77746e-06 -8.45384e-07 -5.47765e-05
0.000953609 -4.75269e-07 -8.03886e-07
-4.75269e-07 2.33885e-05 9.95829e-07
-8.03886e-07 9.95829e-07 -3.83009e-05
0.000959999 -3.29845e-05 -1.42511e-07
-3.29845e-05 3.40872e-05 1.18859e-07
-1.42511e-07 1.18859e-07 -3.65626e-05
0.0011049 -4.63724e-05 8.01212e-07
-4.63724e-05 0.00010682 -5.37001e-07
8.01212e-07 -5.37001e-07 3.1567e-05
0.000922392 5.16116e-06 -2.57987e-06
5.16116e-06 -1.16875e-07 2.16659e-06
-2.57987e-06 2.16659e-06 -4.11357e-05
0.00101633 -9.75216e-06 -3.22423e-07
-9.75216e-06 4.68216e-05 5.82139e-09
-3.22423e-07 5.82139e-09 -1.34007e-05
0.00109267 -3.99456e-05 5.98735e-07
-3.99456e-05 8.92217e-05 -2.47156e-07
5.98735e-07 -2.47156e-07 1.9168e-05
0.000882866 1.7955e-05 -4.02072e-06
1.7955e-05 -2.29402e-05 4.83135e-06
-4.02072e-06 4.83135e-06 -3.17233e-05
0.000939078 5.16508e-06 3.53606e-07
5.16508e-06 5.42843e-06 2.07896e-08
3.53606e-07 2.07896e-08 -3.40498e-05
0.00101898 -1.86372e-05 1.59901e-06
-1.86372e-05 4.48546e-05 -9.73486e-07
1.59901e-06 -9.73486e-07 -1.51218e-05
0.000932752 8.09197e-06 1.48652e-06
8.09197e-06 8.79623e-07 -2.25163e-06
1.48652e-06 -2.25163e-06 -3.64351e-05
0.000864985 1.63e-05 1.52311e-07
1.63e-05 -3.5029e-05 -2.01683e-08
1.52311e-07 -2.01683e-08 -4.21696e-05
0.00245235 2.5194e-05 -1.43926e-05
2.5194e-05 0.000765493 3.9512e-06
-1.43926e-05 3.9512e-06 0.00078393
0.000889999 1.44642e-05 2.21809e-06
1.44642e-05 -2.72556e-05 -3.3968e-06
2.21809e-06 -3.3968e-06 -3.26481e-05
0.00240348 2.17304e-05 5.19424e-07
2.17304e-05 0.000736544 3.96881e-08
5.19424e-07 3.96881e-08 0.000756109
0.00236761 1.82509e-05 1.18984e-05
1.82509e-05 0.00071441 -4.03204e-06
1.18984e-05 -4.03204e-06 0.000734966
0.00105967 3.27224e-05 -7.80085e-07
3.27224e-05 6.72213e-05 -1.1672e-06
-7.80085e-07 -1.1672e-06 -5.18646e-06
0.00100751 9.45889e-06 -6.17312e-07
9.45889e-06 3.58797e-05 -1.68526e-06
-6.17312e-07 -1.68526e-06 -2.18272e-05
0.000933637 -1.31421e-05 -9.60575e-07
-1.31421e-05 -2.79961e-06 -2.21489e-06
-9.60575e-07 -2.21489e-06 -3.70341e-05
0.000998984 9.86959e-06 9.18602e-08
9.86959e-06 3.25346e-05 -5.08903e-08
9.18602e-08 -5.08903e-08 -2.18404e-05
0.00090234 -1.28718e-05 -1.69971e-06
-1.28718e-05 -2.55732e-05 -3.39617e-06
-1.69971e-06 -3.39617e-06 -2.91782e-05
0.000948956 -1.07835e-05 5.4086e-10
-1.07835e-05 2.67802e-06 -5.21378e-09
5.4086e-10 -5.21378e-09 -2.92675e-05
0.000992328 1.29362e-05 1.72552e-07
1.29362e-05 3.05221e-05 9.24208e-07
1.72552e-07 9.24208e-07 -2.12053e-05
0.00230398 -1.47254e-05 -9.73724e-06
-1.47254e-05 0.000677578 -4.08426e-06
-9.73724e-06 -4.08426e-06 0.000699519
0.000894699 -1.05583e-05 -8.758e-08
-1.05583e-05 -3.31231e-05 -1.85254e-08
-8.758e-08 -1.85254e-08 -3.47817e-05
0.000965369 -6.97567e-06 3.50603e-07
-6.97567e-06 8.89091e-06 1.3893e-06
3.50603e-07 1.3893e-06 -2.11981e-05
0.00225661 -1.09235e-05 -8.26161e-07
-1.09235e-05 0.000649879 2.68238e-08
-8.26161e-07 2.68238e-08 0.00067302
0.000888636 -7.89167e-06 8.33141e-07
-7.89167e-06 -3.95898e-05 3.29634e-06
8.33141e-07 3.29634e-06 -3.9406e-05
0.00222078 -7.07216e-06 4.57336e-06
-7.07216e-06 0.000629109 3.99621e-06
4.57336e-06 3.99621e-06 0.000653142
0.000875095 8.89403e-06 -3.88346e-06
8.89403e-06 8.12648e-05 1.52583e-07
-3.88346e-06 1.52583e-07 -2.66677e-05
0.0010668 7.90141e-07 -7.3158e-08
7.90141e-07 0.00016033 -2.69061e-06
-7.3158e-08 -2.69061e-06 6.97288e-05
0.00106815 -7.73958e-06 -8.60906e-07
-7.73958e-06 0.000194471 1.0822e-06
-8.60906e-07 1.0822e-06 0.000101283
0.00100775 2.35032e-05 -3.59568e-08
2.35032e-05 3.97808e-05 2.67104e-08
-3.59568e-08 2.67104e-08 -3.08826e-05
0.00109054 3.75863e-05 1.3375e-07
3.75863e-05 8.33295e-05 2.31009e-07
1.3375e-07 2.31009e-07 4.45812e-06
0.00103271 4.12906e-05 -1.18656e-06
4.12906e-05 5.60706e-05 -9.24482e-07
-1.18656e-06 -9.24482e-07 -2.33821e-05
0.000983687 3.05509e-05 -4.9486e-07
3.05509e-05 2.93088e-05 -1.28958e-06
-4.9486e-07 -1.28958e-06 -4.92996e-05
0.00115806 4.51587e-05 -4.46789e-07
4.51587e-05 0.000120102 -7.4052e-07
-4.46789e-07 -7.4052e-07 3.73731e-05
0.000927967 2.12386e-05 3.3594e-07
2.12386e-05 8.22343e-07 1.15529e-06
3.3594e-07 1.15529e-06 -6.82525e-05
0.00102328 1.54944e-05 3.00228e-07
1.54944e-05 5.01676e-05 1.36144e-06
3.00228e-07 1.36144e-06 -2.53852e-05
0.00106747 3.64301e-05 -5.88273e-08
3.64301e-05 7.38222e-05 -1.10574e-08
-5.88273e-08 -1.10574e-08 -3.65676e-06
0.00106721 2.52169e-05 2.25e-07
2.52169e-05 7.33623e-05 4.85342e-07
2.25e-07 4.85342e-07 -7.95996e-06
0.00110981 3.32454e-05 -3.43199e-07
3.32454e-05 9.66554e-05 -8.61455e-07
-3.43199e-07 -8.61455e-07 1.32313e-05
0.00075957 -1.40089e-06 -1.05533e-05
-1.40089e-06 8.50326e-05 -8.1769e-06
-1.05533e-05 -8.1769e-06 1.42357e-05
0.000894416 3.03967e-05 -4.06178e-07
3.03967e-05 7.58325e-05 -4.49045e-06
-4.06178e-07 -4.49045e-06 1.03749e-06
-0.000276125 9.62435e-06 3.44343e-07
9.62435e-06 -0.000755353 6.14468e-07
3.44343e-07 6.14468e-07 -0.000797147
0.00149859 1.5218e-05 6.97754e-06
1.5218e-05 0.000212847 9.30627e-06
6.97754e-06 9.30627e-06 0.000334798
-0.00159292 6.66375e-06 7.65349e-07
6.66375e-06 -0.00199081 -8.2505e-05
7.65349e-07 -8.2505e-05 -0.0018033
0.00132239 -0.000200629 -6.09329e-05
-0.000200629 -0.000186565 9.11307e-05
-6.09329e-05 9.11307e-05 -0.000561211
0.00706811 9.73734e-05 -1.2492e-05
9.73734e-05 0.00161076 -4.39647e-05
-1.2492e-05 -4.39647e-05 0.00119527
0.000550564 -0.000177457 -3.33153e-05
-0.000177457 -0.000370892 2.725e-05
-3.33153e-05 2.725e-05 -0.000772543
0.00735342 -9.9532e-05 1.20324e-05
-9.9532e-05 0.00155769 3.58801e-06
1.20324e-05 3.58801e-06 0.00129035
0.00108935 -0.000146578 4.39966e-06
-0.000146578 -0.000548394 -1.77337e-05
4.39966e-06 -1.77337e-05 -0.000490667
0.000216537 -4.27971e-05 2.57447e-06
-4.27971e-05 -0.000557118 3.69594e-06
2.57447e-06 3.69594e-06 -0.000346463
0.00188478 -7.52505e-05 -1.60618e-05
-7.52505e-05 0.000458519 -5.55106e-05
-1.60618e-05 -5.55106e-05 6.20813e-05
0.00665972 -0.000216097 -1.70188e-05
-0.000216097 0.00150095 5.09378e-05
-1.70188e-05 5.09378e-05 0.000953698
0.00458597 -0.000238557 8.98615e-06
-0.000238557 0.00133071 2.34325e-05
8.98615e-06 2.34325e-05 0.00143288
0.0011478 -0.000106543 1.69257e-07
-0.000106543 -8.33209e-05 -1.60713e-07
1.69257e-07 -1.60713e-07 0.000254842
0.000999227 2.90616e-05 -5.99433e-07
2.90616e-05 4.8425e-05 -2.19037e-06
-5.99433e-07 -2.19037e-06 -3.28584e-05
0.00112225 1.47799e-05 -6.85036e-08
1.47799e-05 9.64432e-05 -2.02832e-08
-6.85036e-08 -2.02832e-08 1.19031e-05
0.00105904 7.41265e-06 1.55518e-07
7.41265e-06 6.88398e-05 8.64118e-07
1.55518e-07 8.64118e-07 -1.42686e-05
0.000963423 -2.00928e-05 1.7552e-05
-2.00928e-05 0.000318986 -3.32763e-06
1.7552e-05 -3.32763e-06 0.000169326
0.00111906 -3.80982e-06 9.70737e-07
-3.80982e-06 0.000135234 4.4913e-06
9.70737e-07 4.4913e-06 8.15006e-05
0.00106986 1.9509e-05 1.40346e-07
1.9509e-05 6.8907e-05 2.0975e-06
1.40346e-07 2.0975e-06 -1.98746e-05
0.00100495 -3.31092e-06 -1.74591e-07
-3.31092e-06 3.00653e-05 2.64821e-06
-1.74591e-07 2.64821e-06 -6.62343e-05
0.00111544 1.46032e-06 3.53397e-07
1.46032e-06 9.99173e-05 -3.29652e-08
3.53397e-07 -3.29652e-08 3.63817e-06
0.00100762 -2.77952e-05 8.84668e-07
-2.77952e-05 0.000108208 9.70824e-07
8.84668e-07 9.70824e-07 -2.8754e-05
-2.83002e-05 1.65911e-05 -5.90053e-07
1.65911e-05 3.35975e-05 -1.09599e-06
-5.90053e-07 -1.09599e-06 -0.000159372
0.000639817 1.87732e-05 -3.44495e-06
1.87732e-05 -4.25236e-05 2.83892e-07
-3.44495e-06 2.83892e-07 -0.000187635
0.00108697 2.83859e-05 -4.21682e-06
2.83859e-05 0.00041071 1.04874e-05
-4.21682e-06 1.04874e-05 0.000258692
0.00214622 -8.89377e-06 -1.47744e-05
-8.89377e-06 0.00095966 -7.99239e-07
-1.47744e-05 -7.99239e-07 0.000872362
0.00101881 -4.45016e-06 -8.28935e-07
-4.45016e-06 0.000196261 -4.98506e-07
-8.28935e-07 -4.98506e-07 7.8159e-05
0.000721138 -4.53015e-06 9.24643e-07
-4.53015e-06 -1.29048e-05 -1.45676e-07
9.24643e-07 -1.45676e-07 -0.000128649
0.000119102 1.04803e-05 -4.65089e-07
1.04803e-05 0.000107729 1.65156e-05
-4.65089e-07 1.65156e-05 -6.25921e-05
0.000193995 2.48985e-05 2.99228e-05
2.48985e-05 -0.000304009 -4.86113e-05
2.99228e-05 -4.86113e-05 -0.000670372
0.00113458 -1.19506e-05 1.24975e-06
-1.19506e-05 0.000238825 7.41772e-07
1.24975e-06 7.41772e-07 0.00012546
0.00747297 0.000165149 3.09883e-05
0.000165149 0.00180301 -1.60733e-05
3.09883e-05 -1.60733e-05 0.000978105
0.00295671 0.000298841 -2.69278e-05
0.000298841 0.000635473 1.81266e-05
-2.69278e-05 1.81266e-05 0.000635354
0.00150272 -7.14532e-06 1.3506e-05
-7.14532e-06 0.000502261 -1.06736e-05
1.3506e-05 -1.06736e-05 0.000433875
-5.09847e-05 0.000120832 -9.85685e-06
0.000120832 -0.000667304 1.00686e-05
-9.85685e-06 1.00686e-05 -0.00040548
1.97127e-05 -1.93961e-05 -4.84357e-06
-1.93961e-05 9.1052e-05 3.99631e-07
-4.84357e-06 3.99631e-07 -0.000174485
0.00114199 -9.23232e-06 1.46168e-06
-9.23232e-06 0.000313447 1.33577e-08
1.46168e-06 1.33577e-08 0.000225032
-0.00112257 5.03602e-05 7.89727e-06
5.03602e-05 -0.00110669 -3.86211e-06
7.89727e-06 -3.86211e-06 -0.00103499
0.0018629 -9.70993e-05 7.63101e-06
-9.70993e-05 0.000433226 3.46539e-05
7.63101e-06 3.46539e-05 2.17608e-05
0.00310684 0.000255606 -6.71564e-07
0.000255606 0.00102576 5.01468e-08
-6.71564e-07 5.01468e-08 0.000981785
0.00566275 0.000120287 1.58956e-05
0.000120287 0.00135628 -1.2424e-05
1.58956e-05 -1.2424e-05 0.00034458
0.00139467 -5.05193e-05 8.10403e-06
-5.05193e-05 0.000274113 -2.98086e-06
8.10403e-06 -2.98086e-06 0.000197653
-0.000857128 6.15025e-06 -9.56886e-06
6.15025e-06 -0.000894189 3.72752e-07
-9.56886e-06 3.72752e-07 -0.000909735
0.0023969 0.00017551 4.1362e-05
0.00017551 0.00079197 -1.68979e-05
4.1362e-05 -1.68979e-05 0.000717824
0.00336342 0.000250867 -2.8975e-05
0.000250867 0.000624893 2.69712e-05
-2.8975e-05 2.69712e-05 -0.000150173
0.00128477 -6.18158e-05 4.85573e-06
-6.18158e-05 4.85027e-05 4.27233e-05
4.85573e-06 4.27233e-05 -0.000193926
0.00070195 -1.10173e-05 5.90324e-07
-1.10173e-05 0.000135489 2.26445e-06
5.90324e-07 2.26445e-06 -0.00014765
0.000940709 -7.69814e-05 -7.4266e-08
-7.69814e-05 0.0002047 -5.11094e-07
-7.4266e-08 -5.11094e-07 -7.87949e-05
0.00200179 -0.000135726 3.59987e-08
-0.000135726 0.000527327 4.6269e-06
3.59987e-08 4.6269e-06 0.000321335
0.000359464 -2.54532e-05 -1.13745e-06
-2.54532e-05 -0.000110447 2.07834e-06
-1.13745e-06 2.07834e-06 -0.00031058
0.000964792 -7.89495e-05 7.32957e-07
-7.89495e-05 9.03198e-05 6.70126e-09
7.32957e-07 6.70126e-09 -9.22463e-05
0.00134236 -0.000102401 -2.39654e-06
-0.000102401 0.000139448 1.01597e-06
-2.39654e-06 1.01597e-06 5.8683e-06
0.00132279 -6.96263e-05 -1.35616e-06
-6.96263e-05 0.00022861 -3.12139e-07
-1.35616e-06 -3.12139e-07 8.04602e-05
0.00121012 -7.7272e-05 -8.61491e-07
-7.7272e-05 0.000120916 -1.08061e-06
-8.61491e-07 -1.08061e-06 -1.18462e-05
0.0016022 -8.37224e-05 -1.20529e-06
-8.37224e-05 0.000241909 8.73468e-08
-1.20529e-06 8.73468e-08 0.000143345
0.00132956 -6.99252e-05 -1.81787e-07
-6.99252e-05 0.000180947 -1.66405e-06
-1.81787e-07 -1.66405e-06 6.42797e-05
0.00125905 -6.85819e-05 4.36287e-07
-6.85819e-05 0.000119815 -5.9687e-07
4.36287e-07 -5.9687e-07 1.31771e-05
0.00136799 -6.47492e-05 -1.27553e-06
-6.47492e-05 0.000123707 -7.83086e-07
-1.27553e-06 -7.83086e-07 3.76371e-05
0.00129286 -5.76122e-05 -1.17669e-06
-5.76122e-05 7.59267e-05 -2.42713e-07
-1.17669e-06 -2.42713e-07 -2.278e-06
0.00116271 -5.81025e-05 -1.18853e-06
-5.81025e-05 6.55802e-05 1.12234e-06
-1.18853e-06 1.12234e-06 -2.25089e-05
0.00122434 -6.12801e-05 2.47731e-07
-6.12801e-05 8.14341e-05 -6.14479e-07
2.47731e-07 -6.14479e-07 -1.06224e-05
0.00123134 -5.59605e-05 -7.89075e-07
-5.59605e-05 0.000132652 1.90365e-06
-7.89075e-07 1.90365e-06 5.3194e-05
0.00122075 -5.95215e-05 -2.79679e-07
-5.95215e-05 0.000118656 3.48788e-07
-2.79679e-07 3.48788e-07 2.91e-05
0.00123756 -6.41851e-05 7.4008e-07
-6.41851e-05 0.000121633 -1.6843e-06
7.4008e-07 -1.6843e-06 2.10785e-05
0.00103749 -4.57117e-05 -4.05774e-07
-4.57117e-05 5.73948e-05 -9.42764e-08
-4.05774e-07 -9.42764e-08 -1.2072e-05
0.000923857 -4.7371e-05 -1.52317e-07
-4.7371e-05 -1.42224e-06 -5.93863e-07
-1.52317e-07 -5.93863e-07 -7.52379e-05
0.0011454 -5.45632e-05 1.83996e-06
-5.45632e-05 0.00010356 -2.17099e-06
1.83996e-06 -2.17099e-06 2.24105e-05
0.000980722 -1.22563e-05 -6.80646e-07
-1.22563e-05 3.93419e-05 9.12744e-07
-6.80646e-07 9.12744e-07 -2.39601e-05
0.0010414 -4.02112e-05 1.71537e-07
-4.02112e-05 6.75137e-05 2.48182e-07
1.71537e-07 2.48182e-07 -3.46185e-06
0.00107558 -4.83752e-05 5.14051e-07
-4.83752e-05 8.20034e-05 -1.10745e-08
5.14051e-07 -1.10745e-08 7.84444e-06
0.000898481 2.01555e-05 -2.2035e-06
2.01555e-05 -5.4296e-06 2.01353e-06
-2.2035e-06 2.01353e-06 -4.86752e-05
0.00100058 -2.54399e-06 -8.94632e-08
-2.54399e-06 4.59074e-05 -1.46348e-08
-8.94632e-08 -1.46348e-08 -1.58266e-05
0.000992728 -3.32918e-05 1.14061e-07
-3.32918e-05 4.91202e-05 -2.80039e-07
1.14061e-07 -2.80039e-07 -2.10626e-05
0.00153803 2.33451e-05 -9.12881e-06
2.33451e-05 0.000312351 3.328e-06
-9.12881e-06 3.328e-06 0.000305574
0.000932238 5.60123e-06 5.44621e-08
5.60123e-06 4.50606e-06 3.28131e-09
5.44621e-08 3.28131e-09 -3.63531e-05
0.00102868 -1.11208e-05 1.03027e-06
-1.11208e-05 5.18426e-05 -9.56489e-07
1.03027e-06 -9.56489e-07 -8.12389e-06
0.00111626 1.87986e-05 -1.34499e-05
1.87986e-05 9.67259e-05 3.99227e-06
-1.34499e-05 3.99227e-06 0.000107229
0.00121347 1.98235e-05 -3.15187e-06
1.98235e-05 0.000144522 5.68801e-07
-3.15187e-06 5.68801e-07 0.000137279
0.000933166 9.73313e-06 1.89322e-06
9.73313e-06 2.70695e-06 -2.10809e-06
1.89322e-06 -2.10809e-06 -3.66906e-05
0.000877406 1.64922e-05 2.69467e-06
1.64922e-05 -2.88689e-05 -3.49353e-06
2.69467e-06 -3.49353e-06 -3.61191e-05
0.00245389 2.51415e-05 4.66632e-07
2.51415e-05 0.000766727 4.81495e-08
4.66632e-07 4.81495e-08 0.000785021
0.00240336 2.16963e-05 1.36674e-05
2.16963e-05 0.000736996 -4.03342e-06
1.36674e-05 -4.03342e-06 0.000756439
0.00102038 3.2717e-05 -1.17166e-06
3.2717e-05 4.78269e-05 -1.04699e-06
-1.17166e-06 -1.04699e-06 -2.6347e-05
0.00101939 5.17937e-06 -8.40814e-07
5.17937e-06 4.32925e-05 -1.68292e-06
-8.40814e-07 -1.68292e-06 -1.76291e-05
0.00104413 2.8642e-05 -1.23669e-07
2.8642e-05 5.89404e-05 7.11692e-08
-1.23669e-07 7.11692e-08 -1.3731e-05
0.000925773 -1.41808e-05 -1.25094e-06
-1.41808e-05 -4.28887e-06 -2.38365e-06
-1.25094e-06 -2.38365e-06 -4.09896e-05
0.00101156 6.75351e-06 5.4573e-08
6.75351e-06 3.79815e-05 -4.60112e-08
5.4573e-08 -4.60112e-08 -1.96295e-05
0.000892158 -1.47705e-05 -2.14459e-06
-1.47705e-05 -2.67125e-05 -3.45667e-06
-2.14459e-06 -3.45667e-06 -3.20861e-05
0.000940699 -1.14879e-05 -2.21133e-07
-1.14879e-05 6.21329e-07 -1.01355e-08
-2.21133e-07 -1.01355e-08 -3.35431e-05
0.00101015 1.13702e-05 5.66091e-07
1.13702e-05 3.84194e-05 1.60593e-06
5.66091e-07 1.60593e-06 -1.61615e-05
0.00235689 -1.83159e-05 -1.17191e-05
-1.83159e-05 0.000708313 -4.08487e-06
-1.17191e-05 -4.08487e-06 0.00072905
0.000885226 -1.28073e-05 -1.28099e-07
-1.28073e-05 -3.39841e-05 -1.15337e-08
-1.28099e-07 -1.15337e-08 -3.75011e-05
0.000956372 -9.8387e-06 7.18437e-07
-9.8387e-06 6.39174e-06 2.01812e-06
7.18437e-07 2.01812e-06 -2.55249e-05
0.00230542 -1.46877e-05 -7.15056e-07
-1.46877e-05 0.00067784 3.31119e-08
-7.15056e-07 3.31119e-08 0.000699919
0.000878531 -1.05085e-05 1.11891e-06
-1.05085e-05 -4.10828e-05 3.35227e-06
1.11891e-06 3.35227e-06 -4.26513e-05
0.00225948 -1.08188e-05 6.84237e-06
-1.08188e-05 0.000650948 4.00341e-06
6.84237e-06 4.00341e-06 0.000674198
0.00048694 -3.28167e-06 -1.28391e-05
-3.28167e-06 -6.123e-05 -5.32998e-06
-1.28391e-05 -5.32998e-06 -0.000159491
0.000856777 7.35902e-06 1.27167e-06
7.35902e-06 6.8808e-05 1.62227e-07
1.27167e-06 1.62227e-07 -3.86867e-05
0.000539866 -1.92487e-07 -1.05021e-07
-1.92487e-07 -0.000162314 -3.4337e-07
-1.05021e-07 -3.4337e-07 -0.00025668
0.00105944 4.25055e-05 -9.23589e-07
4.25055e-05 6.67963e-05 -6.77022e-08
-9.23589e-07 -6.77022e-08 -1.04222e-05
0.00105028 2.31794e-05 3.61633e-07
2.31794e-05 6.16174e-05 1.25564e-06
3.61633e-07 1.25564e-06 -8.90813e-06
0.00102385 3.45229e-05 6.92977e-07
3.45229e-05 4.96842e-05 1.26525e-06
6.92977e-07 1.26525e-06 -2.94744e-05
0.00107509 3.09841e-05 -2.56568e-08
3.09841e-05 7.56366e-05 -2.53467e-07
-2.56568e-08 -2.53467e-07 -2.39162e-06
0.00110018 4.28605e-05 -2.37333e-07
4.28605e-05 8.98184e-05 -5.63206e-08
-2.37333e-07 -5.63206e-08 1.06824e-05
0.00107556 4.32777e-05 2.67261e-07
4.32777e-05 7.87151e-05 2.79586e-07
2.67261e-07 2.79586e-07 -3.69521e-06
0.0010755 4.64746e-05 -1.26238e-06
4.64746e-05 7.74941e-05 -1.10563e-06
-1.26238e-06 -1.10563e-06 -5.67305e-06
0.000986974 4.12255e-05 -7.0251e-07
4.12255e-05 3.71194e-05 -1.13684e-06
-7.0251e-07 -1.13684e-06 -4.70984e-05
0.00106231 4.16414e-05 5.52313e-07
4.16414e-05 7.20393e-05 8.95756e-07
5.52313e-07 8.95756e-07 -5.74707e-06
0.00104394 1.28367e-05 3.74904e-07
1.28367e-05 5.94455e-05 1.2898e-06
3.74904e-07 1.2898e-06 -2.10974e-05
0.00110464 3.56619e-05 -8.17903e-08
3.56619e-05 9.54153e-05 -2.81264e-10
-8.17903e-08 -2.81264e-10 1.17044e-05
0.00149443 4.23484e-05 5.64825e-07
4.23484e-05 0.000282888 -1.55132e-06
5.64825e-07 -1.55132e-06 0.000196289
0.00246971 -5.35459e-05 -1.53474e-06
-5.35459e-05 0.00102137 -6.62536e-08
-1.53474e-06 -6.62536e-08 0.00111556
0.00067042 3.07884e-06 -3.10722e-07
3.07884e-06 3.28254e-05 -7.89057e-07
-3.10722e-07 -7.89057e-07 -3.66115e-05
0.00110932 2.9994e-05 4.20801e-07
2.9994e-05 0.000220351 1.89946e-06
4.20801e-07 1.89946e-06 0.000141562
0.0018521 -5.04764e-05 9.23463e-06
-5.04764e-05 0.000381994 6.4293e-06
9.23463e-06 6.4293e-06 0.000598469
0.00269933 -0.000179666 4.64636e-06
-0.000179666 6.0288e-06 -9.33013e-05
4.64636e-06 -9.33013e-05 5.52924e-05
0.00344044 3.66784e-05 -1.14101e-05
3.66784e-05 -0.000331635 0.000104702
-1.14101e-05 0.000104702 -0.000659506
0.000463887 -0.000163396 -5.95325e-05
-0.000163396 -8.67541e-05 5.79669e-05
-5.95325e-05 5.79669e-05 -0.000301991
0.00169828 -4.16512e-05 -8.54509e-06
-4.16512e-05 0.000615675 -8.07118e-07
-8.54509e-06 -8.07118e-07 0.000388791
0.000568157 -0.000104028 2.37505e-06
-0.000104028 -0.000323465 1.72081e-07
2.37505e-06 1.72081e-07 -4.72709e-05
0.00546801 -8.67377e-05 1.12377e-05
-8.67377e-05 0.000730694 5.35093e-05
1.12377e-05 5.35093e-05 9.6176e-06
-0.000587251 -0.000154489 -6.49133e-06
-0.000154489 -0.000808448 -1.36535e-05
-6.49133e-06 -1.36535e-05 -0.000680805
0.00189143 0.000104459 -5.55397e-05
0.000104459 0.000565693 -4.73093e-05
-5.55397e-05 -4.73093e-05 0.000335798
0.00632 -0.000203621 5.52203e-06
-0.000203621 0.00172974 3.37985e-05
5.52203e-06 3.37985e-05 0.00104203
0.00017647 -0.000134291 3.82437e-05
-0.000134291 -4.16783e-05 2.20519e-05
3.82437e-05 2.20519e-05 3.26742e-05
0.000920554 5.93785e-05 -2.8923e-06
5.93785e-05 3.17368e-05 -4.51676e-06
-2.8923e-06 -4.51676e-06 -4.63587e-05
0.00118273 3.34524e-05 1.89031e-06
3.34524e-05 0.000131386 2.09683e-07
1.89031e-06 2.09683e-07 5.06586e-05
0.00112455 2.42557e-05 -1.26037e-07
2.42557e-05 0.000102787 1.28912e-06
-1.26037e-07 1.28912e-06 1.71571e-05
-0.000943312 1.00348e-05 -7.16895e-07
1.00348e-05 -0.000418036 -7.2297e-06
-7.16895e-07 -7.2297e-06 -0.000621935
0.000580794 -1.74469e-05 1.90265e-07
-1.74469e-05 -8.41291e-05 4.16342e-06
1.90265e-07 4.16342e-06 -0.000232138
0.000988104 8.8228e-06 2.46125e-06
8.8228e-06 4.20894e-05 3.30295e-06
2.46125e-06 3.30295e-06 -5.41997e-05
0.00111092 3.31928e-05 -6.39581e-08
3.31928e-05 0.000177075 1.76645e-07
-6.39581e-08 1.76645e-07 3.52103e-05
0.000721298 1.44567e-05 2.97626e-06
1.44567e-05 0.000241501 2.71378e-06
2.97626e-06 2.71378e-06 8.80685e-05
-0.00110705 5.76025e-05 -6.63228e-06
5.76025e-05 -0.000754127 1.72085e-05
-6.63228e-06 1.72085e-05 -0.00089873
0.00262176 -1.26427e-05 -1.34879e-05
-1.26427e-05 0.00115852 -2.30844e-07
-1.34879e-05 -2.30844e-07 0.00118279
0.00090402 -6.89652e-06 -1.28569e-06
-6.89652e-06 0.00019577 -6.59584e-07
-1.28569e-06 -6.59584e-07 9.67766e-05
0.00057475 -4.58841e-06 1.74069e-06
-4.58841e-06 -7.94517e-05 6.14511e-08
1.74069e-06 6.14511e-08 -0.000198807
0.000238549 -2.68632e-05 5.5704e-06
-2.68632e-05 0.000197342 1.77361e-05
5.5704e-06 1.77361e-05 -6.49855e-05
0.00143776 -8.68785e-05 -2.38094e-06
-8.68785e-05 0.000298792 -4.25289e-05
-2.38094e-06 -4.25289e-05 -2.13291e-06
0.00101614 -9.54356e-06 1.5652e-05
-9.54356e-06 0.000230684 -8.51091e-08
1.5652e-05 -8.51091e-08 0.000143498
0.00108676 0.000146275 -3.76823e-05
0.000146275 -0.000378363 3.37316e-05
-3.76823e-05 3.37316e-05 -0.00127052
-0.000728582 0.000172734 -5.26619e-05
0.000172734 -0.000590029 2.92019e-05
-5.26619e-05 2.92019e-05 -0.000596569
0.00102117 6.33686e-05 5.61697e-06
6.33686e-05 0.000108421 -3.83792e-06
5.61697e-06 -3.83792e-06 0.000221207
0.00154176 -6.22701e-05 3.64197e-06
-6.22701e-05 0.00038766 1.45432e-06
3.64197e-06 1.45432e-06 0.000275949
0.0011162 1.34318e-05 -2.17751e-06
1.34318e-05 0.000221196 6.08163e-08
-2.17751e-06 6.08163e-08 0.000231873
-0.00159048 9.66471e-05 -8.93238e-06
9.66471e-05 -0.000894354 3.08144e-06
-8.93238e-06 3.08144e-06 -0.000902156
0.00305242 -0.000120327 -1.42006e-05
-0.000120327 0.000698918 2.48703e-05
-1.42006e-05 2.48703e-05 0.00021677
0.00475499 0.000230408 -5.11167e-06
0.000230408 0.00121995 5.0209e-06
-5.11167e-06 5.0209e-06 0.000497128
0.00136164 -8.91098e-05 9.38102e-06
-8.91098e-05 -9.33508e-05 3.71316e-06
9.38102e-06 3.71316e-06 -3.07176e-05
-0.00249261 4.05215e-05 5.72866e-05
4.05215e-05 -0.00160428 -1.40052e-05
5.72866e-05 -1.40052e-05 -0.00161018
0.00435379 0.000217616 1.86473e-05
0.000217616 0.00122604 -8.43275e-06
1.86473e-05 -8.43275e-06 0.000642119
0.00217247 1.37473e-05 -9.42002e-06
1.37473e-05 0.00036204 2.99011e-05
-9.42002e-06 2.99011e-05 -3.53287e-05
0.000634096 -6.89261e-05 -1.35343e-06
-6.89261e-05 8.40994e-05 -1.94562e-06
-1.35343e-06 -1.94562e-06 -0.00022826
0.00107184 -0.000115564 -8.91974e-08
-0.000115564 0.000100829 1.00677e-06
-8.91974e-08 1.00677e-06 -0.000112887
0.00148364 -0.000144151 -5.20433e-06
-0.000144151 0.000117705 4.50732e-06
-5.20433e-06 4.50732e-06 -9.86533e-06
0.000677966 -7.1989e-05 -1.4674e-06
-7.1989e-05 -4.11787e-05 -2.08114e-06
-1.4674e-06 -2.08114e-06 -0.000226879
0.00124508 -0.000100188 -1.78615e-06
-0.000100188 8.71933e-05 -1.70768e-06
-1.78615e-06 -1.70768e-06 -4.4689e-05
0.00194034 -0.000100694 -4.88095e-06
-0.000100694 0.000304787 -3.24748e-08
-4.88095e-06 -3.24748e-08 0.000231351
0.00106609 -7.32664e-05 -2.25515e-07
-7.32664e-05 4.83687e-05 -2.87485e-06
-2.25515e-07 -2.87485e-06 -8.01931e-05
0.00129628 -7.65638e-05 9.88458e-07
-7.65638e-05 9.24991e-05 -6.48254e-07
9.88458e-07 -6.48254e-07 -4.27748e-06
0.00156293 -6.72329e-05 -1.45713e-06
-6.72329e-05 0.000155927 -1.08864e-06
-1.45713e-06 -1.08864e-06 9.36921e-05
0.00109196 -6.43378e-05 1.12388e-06
-6.43378e-05 3.42559e-05 -1.25403e-06
1.12388e-06 -1.25403e-06 -7.08362e-05
0.00124231 -6.16286e-05 -6.34038e-08
-6.16286e-05 5.74203e-05 -4.45568e-07
-6.34038e-08 -4.45568e-07 -2.729e-05
0.00136124 -5.4666e-05 -1.00148e-06
-5.4666e-05 6.74816e-05 -1.04495e-06
-1.00148e-06 -1.04495e-06 6.5082e-06
0.001352 -5.13535e-05 -1.19917e-06
-5.13535e-05 8.07789e-05 -4.70384e-07
-1.19917e-06 -4.70384e-07 1.8803e-05
0.00129786 -5.73314e-05 -1.45316e-06
-5.73314e-05 9.57058e-05 2.13314e-07
-1.45316e-06 2.13314e-07 1.69776e-05
0.00127064 -5.58712e-05 4.06588e-07
-5.58712e-05 6.49043e-05 2.99806e-07
4.06588e-07 2.99806e-07 -1.19693e-05
0.000917157 -5.00436e-05 -1.20544e-06
-5.00436e-05 -4.29539e-05 1.43592e-06
-1.20544e-06 1.43592e-06 -0.000123808
0.00124679 -5.93311e-05 6.58954e-07
-5.93311e-05 0.000106955 -5.09793e-07
6.58954e-07 -5.09793e-07 1.99195e-05
0.00114203 -5.90381e-05 1.40466e-06
-5.90381e-05 3.85451e-05 -1.23984e-06
1.40466e-06 -1.23984e-06 -5.24871e-05
0.00106842 -4.90948e-05 -3.38561e-07
-4.90948e-05 6.58027e-05 9.86676e-07
-3.38561e-07 9.86676e-07 -5.48038e-06
0.00104463 -5.20049e-05 2.12508e-07
-5.20049e-05 4.42376e-05 -1.32056e-07
2.12508e-07 -1.32056e-07 -3.54026e-05
0.000975397 -5.4699e-05 7.87272e-07
-5.4699e-05 4.55557e-07 -1.8786e-06
7.87272e-07 -1.8786e-06 -9.06876e-05
0.00101046 -2.76756e-05 -1.14978e-06
-2.76756e-05 5.09987e-05 4.33252e-07
-1.14978e-06 4.33252e-07 -1.22726e-05
0.0010708 -4.5959e-05 -1.63716e-07
-4.5959e-05 7.29183e-05 -2.3416e-07
-1.63716e-07 -2.3416e-07 3.41362e-06
0.00101595 -4.91586e-05 7.25417e-08
-4.91586e-05 4.45126e-05 -1.31379e-06
7.25417e-08 -1.31379e-06 -2.85018e-05
0.000921977 6.12237e-06 -2.33298e-06
6.12237e-06 1.3996e-05 1.96006e-06
-2.33298e-06 1.96006e-06 -3.21048e-05
0.0010061 -1.36091e-05 2.62946e-07
-1.36091e-05 5.08565e-05 1.80146e-07
2.62946e-07 1.80146e-07 -1.23069e-05
0.000968516 -3.75828e-05 6.47441e-07
-3.75828e-05 3.27508e-05 5.96608e-08
6.47441e-07 5.96608e-08 -3.80927e-05
0.000819504 2.23518e-05 -3.99521e-06
2.23518e-05 -4.32726e-05 3.39516e-06
-3.99521e-06 3.39516e-06 -5.50006e-05
0.000925762 7.40123e-06 -1.10033e-07
7.40123e-06 7.16414e-06 -2.87847e-08
-1.10033e-07 -2.87847e-08 -3.57304e-05
0.0010375 -4.49804e-06 7.69701e-07
-4.49804e-06 6.34819e-05 -1.06123e-06
7.69701e-07 -1.06123e-06 1.72671e-06
0.00248252 3.47849e-05 -6.82082e-06
3.47849e-05 0.000792072 1.60748e-06
-6.82082e-06 1.60748e-06 0.000807747
0.000832343 2.00729e-05 1.29422e-07
2.00729e-05 -4.27429e-05 4.59798e-08
1.29422e-07 4.59798e-08 -5.31129e-05
0.000942305 8.31641e-06 2.36269e-06
8.31641e-06 9.46517e-06 -2.02559e-06
2.36269e-06 -2.02559e-06 -3.14242e-05
0.0025139 2.85326e-05 3.56899e-07
2.85326e-05 0.000801351 5.21073e-08
3.56899e-07 5.21073e-08 0.000818389
0.000861013 1.83586e-05 3.28357e-06
1.83586e-05 -3.26914e-05 -3.49937e-06
3.28357e-06 -3.49937e-06 -4.17377e-05
0.00245343 2.5098e-05 1.53815e-05
2.5098e-05 0.000766977 -4.04397e-06
1.53815e-05 -4.04397e-06 0.000785133
0.00112243 3.65055e-05 -7.37976e-07
3.65055e-05 9.85063e-05 -1.40331e-07
-7.37976e-07 -1.40331e-07 2.56602e-05
0.00104832 3.29612e-05 -1.92853e-07
3.29612e-05 6.25239e-05 -1.19638e-07
-1.92853e-07 -1.19638e-07 -1.16139e-05
0.00102581 2.45863e-06 -1.09364e-06
2.45863e-06 4.85215e-05 -1.42921e-06
-1.09364e-06 -1.42921e-06 -1.49909e-05
0.000926331 -8.79616e-06 -1.80968e-06
-8.79616e-06 -1.25064e-06 -2.4929e-06
-1.80968e-06 -2.4929e-06 -4.08455e-05
0.0010159 5.28033e-06 -5.64838e-08
5.28033e-06 4.19786e-05 2.02048e-08
-5.64838e-08 2.02048e-08 -1.90544e-05
0.00102346 2.98389e-05 6.7241e-07
2.98389e-05 4.87915e-05 1.2782e-06
6.7241e-07 1.2782e-06 -2.45288e-05
0.000880663 -1.65361e-05 -2.64508e-06
-1.65361e-05 -2.84321e-05 -3.54872e-06
-2.64508e-06 -3.54872e-06 -3.5543e-05
0.000933093 -1.04631e-05 -1.32803e-07
-1.04631e-05 -1.24623e-06 -3.16247e-08
-1.32803e-07 -3.16247e-08 -3.77313e-05
0.00100938 5.04696e-06 5.49194e-07
5.04696e-06 3.70517e-05 1.72506e-06
5.49194e-07 1.72506e-06 -2.04969e-05
0.00240188 -2.17452e-05 -1.36057e-05
-2.17452e-05 0.000735444 -4.07295e-06
-1.36057e-05 -4.07295e-06 0.000754984
0.000875741 -1.46858e-05 -1.20955e-07
-1.46858e-05 -3.47642e-05 -1.1803e-08
-1.20955e-07 -1.1803e-08 -4.00502e-05
0.000943975 -1.1191e-05 8.36688e-07
-1.1191e-05 2.01366e-06 2.12143e-06
8.36688e-07 2.12143e-06 -3.20231e-05
0.00235715 -1.83269e-05 -6.78678e-07
-1.83269e-05 0.000707919 4.12559e-08
-6.78678e-07 4.12559e-08 0.000728803
0.000867239 -1.27376e-05 1.43186e-06
-1.27376e-05 -4.28317e-05 3.42323e-06
1.43186e-06 3.42323e-06 -4.62559e-05
0.0023036 -1.46033e-05 8.82237e-06
-1.46033e-05 0.000676457 4.01019e-06
8.82237e-06 4.01019e-06 0.000698693
0.000417345 -1.61286e-05 -3.31519e-06
-1.61286e-05 -8.89748e-05 -5.7337e-07
-3.31519e-06 -5.7337e-07 -7.6754e-05
0.000592094 -1.28193e-07 -1.32413e-06
-1.28193e-07 7.51303e-06 -1.69939e-06
-1.32413e-06 -1.69939e-06 -9.04899e-05
0.000827714 5.8086e-06 1.20896e-06
5.8086e-06 4.98128e-05 -1.20702e-08
1.20896e-06 -1.20702e-08 -5.73282e-05
0.00105037 4.22809e-05 1.2814e-07
4.22809e-05 6.20221e-05 1.011e-07
1.2814e-07 1.011e-07 -1.55264e-05
0.0012011 4.77451e-05 -9.5112e-07
4.77451e-05 0.000141667 8.67857e-08
-9.5112e-07 8.67857e-08 6.67795e-05
0.00107876 4.78254e-05 -9.49101e-07
4.78254e-05 7.33128e-05 -2.99415e-07
-9.49101e-07 -2.99415e-07 -6.26504e-06
0.00116339 3.09653e-05 1.23937e-07
3.09653e-05 0.000120422 6.2409e-07
1.23937e-07 6.2409e-07 4.30049e-05
0.00117582 4.567e-05 6.97189e-07
4.567e-05 0.000127749 6.8984e-07
6.97189e-07 6.8984e-07 4.88229e-05
0.00102015 4.14625e-05 8.39098e-07
4.14625e-05 5.01943e-05 1.31009e-06
8.39098e-07 1.31009e-06 -3.18553e-05
0.00104821 4.05152e-05 -3.43954e-08
4.05152e-05 6.66974e-05 3.49709e-08
-3.43954e-08 3.49709e-08 -1.71193e-05
0.00110445 4.71544e-05 7.99073e-08
4.71544e-05 9.14264e-05 8.65657e-08
7.99073e-08 8.65657e-08 8.53666e-06
0.00108692 4.66606e-05 -1.66613e-06
4.66606e-05 9.34089e-05 -1.25181e-06
-1.66613e-06 -1.25181e-06 6.30158e-06
0.000951278 4.08477e-05 -2.07164e-06
4.08477e-05 2.07701e-05 -2.59904e-06
-2.07164e-06 -2.59904e-06 -6.60298e-05
0.00110772 3.92068e-05 3.04366e-07
3.92068e-05 9.77641e-05 7.15152e-07
3.04366e-07 7.15152e-07 1.38071e-05
0.00126065 4.25741e-05 1.44703e-07
4.25741e-05 0.00017319 -1.83457e-07
1.44703e-07 -1.83457e-07 8.64313e-05
-0.00257676 -7.80568e-05 4.98618e-05
-7.80568e-05 -0.00145842 2.04541e-05
4.98618e-05 2.04541e-05 -0.00149512
0.00121177 -5.30372e-05 -4.69702e-07
-5.30372e-05 0.000295098 -1.85279e-06
-4.69702e-07 -1.85279e-06 0.00038031
0.000605418 8.02786e-06 1.53695e-05
8.02786e-06 -6.03149e-06 6.66185e-06
1.53695e-05 6.66185e-06 -7.4432e-05
1.48531e-05 -0.000100585 7.63223e-07
-0.000100585 -0.00055042 -6.08803e-06
7.63223e-07 -6.08803e-06 -0.000337567
0.00355058 -0.000241417 -1.22362e-05
-0.000241417 0.00085954 -5.64546e-05
-1.22362e-05 -5.64546e-05 0.000990418
0.00415779 -7.17933e-05 3.56443e-05
-7.17933e-05 0.000475248 3.02733e-05
3.56443e-05 3.02733e-05 -3.49107e-05
4.5216e-05 -1.9974e-05 -1.79792e-05
-1.9974e-05 -0.000254277 6.11728e-05
-1.79792e-05 6.11728e-05 -0.000786271
0.00151363 0.0001027 -3.06762e-05
0.0001027 0.000177688 -3.31089e-05
-3.06762e-05 -3.31089e-05 -0.000269861
0.00217739 -0.000202617 -9.43065e-07
-0.000202617 0.000488382 -2.55281e-06
-9.43065e-07 -2.55281e-06 0.000511532
0.00357997 -9.07831e-05 3.32741e-05
-9.07831e-05 0.000385886 4.51476e-05
3.32741e-05 4.51476e-05 -0.00031173
0.00121042 0.000118581 -6.71953e-05
0.000118581 -0.000140669 -8.31984e-05
-6.71953e-05 -8.31984e-05 -0.000532221
0.00278189 -2.27876e-05 -1.63747e-05
-2.27876e-05 0.000288993 -5.46148e-06
-1.63747e-05 -5.46148e-06 -0.000389786
0.00179963 0.000103816 4.75113e-06
0.000103816 0.000483767 -7.68139e-06
4.75113e-06 -7.68139e-06 0.000346053
0.000927971 5.68956e-05 -1.85175e-07
5.68956e-05 2.43402e-05 -6.01812e-07
-1.85175e-07 -6.01812e-07 -5.11223e-05
0.00133472 3.69893e-05 1.5012e-06
3.69893e-05 0.000198936 1.99442e-06
1.5012e-06 1.99442e-06 0.000118679
-0.000117594 -9.17023e-06 -7.66902e-06
-9.17023e-06 -0.000134007 -1.99607e-06
-7.66902e-06 -1.99607e-06 -0.000294245
0.00153305 4.57615e-05 3.47133e-06
4.57615e-05 0.000373024 -2.87955e-07
3.47133e-06 -2.87955e-07 0.000233086
0.00100404 9.6515e-05 5.10355e-06
9.6515e-05 0.000196683 1.57499e-06
5.10355e-06 1.57499e-06 7.59554e-05
0.000310329 9.79496e-05 1.62816e-05
9.79496e-05 -0.000258015 1.74111e-05
1.62816e-05 1.74111e-05 -0.000358704
-0.000538577 -1.07774e-05 7.68382e-05
-1.07774e-05 -0.000582433 -4.07816e-06
7.68382e-05 -4.07816e-06 -0.000547561
0.000752878 -9.87014e-06 -1.27297e-05
-9.87014e-06 6.4121e-05 -1.26271e-08
-1.27297e-05 -1.26271e-08 6.61032e-05
-0.000427335 -5.00146e-06 1.63856e-05
-5.00146e-06 -0.00062372 -7.20436e-07
1.63856e-05 -7.20436e-07 -0.000734484
0.00171502 -5.87581e-05 -2.14906e-05
-5.87581e-05 0.000548502 2.64898e-06
-2.14906e-05 2.64898e-06 0.000368561
0.000964589 -8.46415e-05 -3.63842e-05
-8.46415e-05 4.41338e-05 -6.47054e-07
-3.63842e-05 -6.47054e-07 -0.000278547
0.00117466 5.13844e-06 3.37439e-06
5.13844e-06 0.000255715 -3.4795e-06
3.37439e-06 -3.4795e-06 0.000260173
0.00223571 0.000199309 1.72107e-05
0.000199309 0.000169719 -3.47515e-05
1.72107e-05 -3.47515e-05 -0.000625419
0.00379359 0.000136239 -9.3101e-05
0.000136239 0.00161252 2.21912e-05
-9.3101e-05 2.21912e-05 0.00151949
0.00149655 -9.71578e-05 6.53877e-06
-9.71578e-05 7.44437e-05 -1.70005e-06
6.53877e-06 -1.70005e-06 6.8394e-05
-0.000112969 6.31759e-05 -3.02286e-05
6.31759e-05 -0.000352009 3.98619e-06
-3.02286e-05 3.98619e-06 -0.000419551
0.0030607 0.000124827 -9.59398e-06
0.000124827 0.000636902 4.94637e-06
-9.59398e-06 4.94637e-06 -0.000105256
0.000686186 3.14809e-05 3.63269e-08
3.14809e-05 -0.000117757 3.06325e-06
3.63269e-08 3.06325e-06 -0.000296938
0.000911131 -7.29488e-05 6.57049e-06
-7.29488e-05 -0.000383373 4.09661e-06
6.57049e-06 4.09661e-06 -0.00031376
0.00440353 9.17253e-05 1.63945e-05
9.17253e-05 0.00124167 8.49347e-06
1.63945e-05 8.49347e-06 0.00062677
0.000970899 6.56595e-05 -1.39538e-06
6.56595e-05 0.000250457 -6.36928e-07
-1.39538e-06 -6.36928e-07 -3.11187e-05
-8.92959e-05 -9.29119e-05 1.20694e-06
-9.29119e-05 -0.000432273 -8.44379e-06
1.20694e-06 -8.44379e-06 -0.000658403
0.00140273 -0.00013999 -9.32875e-09
-0.00013999 9.51555e-05 -4.26957e-07
-9.32875e-09 -4.26957e-07 -3.58992e-05
0.00139918 -0.00012507 -1.75091e-05
-0.00012507 -9.148e-05 7.97104e-06
-1.75091e-05 7.97104e-06 -0.000147608
0.00116449 -9.81162e-05 -7.75302e-07
-9.81162e-05 4.20029e-05 -4.0852e-06
-7.75302e-07 -4.0852e-06 -8.75499e-05
0.00140405 -9.1624e-05 -4.2623e-07
-9.1624e-05 4.32858e-05 5.8456e-07
-4.2623e-07 5.8456e-07 -2.78659e-05
0.00180014 -7.11696e-05 -4.27633e-06
-7.11696e-05 0.000172217 3.05743e-06
-4.27633e-06 3.05743e-06 0.000147553
0.000964868 -6.88029e-05 2.44925e-06
-6.88029e-05 -6.92686e-05 -7.22969e-07
2.44925e-06 -7.22969e-07 -0.000164262
0.0013451 -6.35793e-05 -1.98728e-07
-6.35793e-05 4.3179e-05 -5.08523e-08
-1.98728e-07 -5.08523e-08 -1.75406e-05
0.00148691 -5.25448e-05 -7.36111e-07
-5.25448e-05 6.11493e-05 5.26421e-07
-7.36111e-07 5.26421e-07 2.62144e-05
0.00109508 -5.82493e-05 1.59444e-06
-5.82493e-05 -1.92105e-05 -2.84699e-07
1.59444e-06 -2.84699e-07 -0.000102532
0.00129013 -5.33788e-05 1.31591e-07
-5.33788e-05 3.10813e-05 2.50617e-07
1.31591e-07 2.50617e-07 -2.95202e-05
0.00129388 -4.67014e-05 -5.90098e-07
-4.67014e-05 1.16345e-05 3.62555e-07
-5.90098e-07 3.62555e-07 -3.48384e-05
0.00151155 -4.69715e-05 -7.27541e-07
-4.69715e-05 0.000146619 3.62814e-07
-7.27541e-07 3.62814e-07 9.32077e-05
0.00133648 -5.005e-05 -5.29201e-07
-5.005e-05 7.26247e-05 1.08927e-06
-5.29201e-07 1.08927e-06 1.22232e-05
0.00130401 -5.07562e-05 -7.69285e-07
-5.07562e-05 7.52345e-05 -1.11395e-06
-7.69285e-07 -1.11395e-06 9.49316e-06
0.00126623 -5.40443e-05 -1.35093e-06
-5.40443e-05 9.28359e-05 5.87082e-07
-1.35093e-06 5.87082e-07 1.72165e-05
0.00133016 -5.74832e-05 5.47483e-07
-5.74832e-05 0.000112767 -1.36269e-07
5.47483e-07 -1.36269e-07 3.40893e-05
0.00123722 -5.404e-05 1.8413e-06
-5.404e-05 4.83241e-05 8.04628e-07
1.8413e-06 8.04628e-07 -2.71912e-05
0.000914183 -4.70781e-05 -1.37426e-06
-4.70781e-05 -3.21882e-05 1.75176e-06
-1.37426e-06 1.75176e-06 -0.00010622
0.00111357 -5.3675e-05 1.00964e-07
-5.3675e-05 5.44289e-05 -7.07346e-08
1.00964e-07 -7.07346e-08 -2.57009e-05
0.00131613 -6.02479e-05 2.00222e-06
-6.02479e-05 0.000141051 -1.92291e-06
2.00222e-06 -1.92291e-06 5.51026e-05
0.00101443 -3.43112e-05 -8.82034e-07
-3.43112e-05 4.82054e-05 6.53253e-07
-8.82034e-07 6.53253e-07 -1.59096e-05
0.00109284 -4.91761e-05 6.91434e-08
-4.91761e-05 7.68911e-05 -1.04942e-07
6.91434e-08 -1.04942e-07 5.55204e-06
0.00088077 -4.85584e-05 5.11028e-07
-4.85584e-05 -3.34333e-05 -2.0871e-06
5.11028e-07 -2.0871e-06 -0.000113243
0.000917284 2.09712e-06 -2.48702e-06
2.09712e-06 1.69341e-05 1.77803e-06
-2.48702e-06 1.77803e-06 -3.21224e-05
0.00102932 -2.8702e-05 -7.13274e-08
-2.8702e-05 5.92482e-05 1.79404e-08
-7.13274e-08 1.79404e-08 -3.91804e-06
0.00110052 -4.60766e-05 4.6213e-07
-4.60766e-05 8.67248e-05 -5.97037e-07
4.6213e-07 -5.97037e-07 1.71875e-05
0.000793504 2.50159e-05 -4.1444e-06
2.50159e-05 -4.68914e-05 3.34292e-06
-4.1444e-06 3.34292e-06 -6.10258e-05
0.000924732 9.99327e-06 1.15876e-08
9.99327e-06 1.42926e-05 1.6267e-08
1.15876e-08 1.6267e-08 -3.18331e-05
0.00103412 -1.53798e-05 1.21138e-06
-1.53798e-05 6.36581e-05 -5.66758e-07
1.21138e-06 -5.66758e-07 6.26585e-07
0.00256243 3.55174e-05 -1.82524e-05
3.55174e-05 0.000836738 3.73718e-06
-1.82524e-05 3.73718e-06 0.000851416
0.000834349 2.27463e-05 -5.0781e-09
2.27463e-05 -3.53785e-05 1.80267e-08
-5.0781e-09 1.80267e-08 -4.72899e-05
0.000950226 3.36639e-06 2.40395e-06
3.36639e-06 1.88889e-05 -2.01114e-06
2.40395e-06 -2.01114e-06 -2.4026e-05
0.00179434 2.83368e-05 6.86876e-06
2.83368e-05 0.000444834 -1.06431e-06
6.86876e-06 -1.06431e-06 0.000457288
0.000851704 2.04334e-05 3.82357e-06
2.04334e-05 -3.29372e-05 -3.43543e-06
3.82357e-06 -3.43543e-06 -4.33963e-05
0.00249282 2.85285e-05 1.671e-05
2.85285e-05 0.000791682 -3.98248e-06
1.671e-05 -3.98248e-06 0.000808595
0.00111388 3.5022e-05 -7.02547e-07
3.5022e-05 9.76794e-05 2.14296e-07
-7.02547e-07 2.14296e-07 2.65861e-05
0.00104862 3.31702e-05 2.39693e-07
3.31702e-05 6.1102e-05 3.54166e-07
2.39693e-07 3.54166e-07 -1.20732e-05
0.00101031 8.18106e-08 -1.2901e-06
8.18106e-08 4.19147e-05 -1.04868e-06
-1.2901e-06 -1.04868e-06 -2.28366e-05
0.00108144 3.20993e-05 6.57048e-07
3.20993e-05 7.95595e-05 7.63567e-07
6.57048e-07 7.63567e-07 5.54773e-06
0.00101587 2.70223e-06 -2.59433e-08
2.70223e-06 4.41844e-05 9.98842e-08
-2.59433e-08 9.98842e-08 -1.94987e-05
0.000933036 -2.5027e-06 -2.41334e-06
-2.5027e-06 4.28836e-06 -2.3941e-06
-2.41334e-06 -2.3941e-06 -3.85657e-05
0.000868354 -1.83802e-05 -3.15502e-06
-1.83802e-05 -3.0022e-05 -3.672e-06
-3.15502e-06 -3.672e-06 -3.91409e-05
0.000933033 -7.2056e-06 -2.07843e-07
-7.2056e-06 1.33784e-06 -4.94211e-08
-2.07843e-07 -4.94211e-08 -3.8097e-05
0.00101408 3.41559e-06 6.86525e-07
3.41559e-06 4.13497e-05 1.81105e-06
6.86525e-07 1.81105e-06 -1.96843e-05
0.00244443 -2.50938e-05 -1.52981e-05
-2.50938e-05 0.000761658 -4.05094e-06
-1.52981e-05 -4.05094e-06 0.000779963
0.000865437 -1.64068e-05 -1.29895e-07
-1.64068e-05 -3.58408e-05 -9.5061e-09
-1.29895e-07 -9.5061e-09 -4.28619e-05
0.000946097 -7.07678e-06 1.35978e-06
-7.07678e-06 4.75162e-06 2.29423e-06
1.35978e-06 2.29423e-06 -3.16107e-05
0.00240784 -2.18196e-05 -5.80639e-07
-2.18196e-05 0.000737919 4.55767e-08
-5.80639e-07 4.55767e-08 0.000757565
0.000859287 -1.4613e-05 1.8644e-06
-1.4613e-05 -4.27754e-05 3.46033e-06
1.8644e-06 3.46033e-06 -4.79822e-05
0.00236018 -1.8331e-05 1.06731e-05
-1.8331e-05 0.000708923 4.01395e-06
1.06731e-05 4.01395e-06 0.000729941
0.000192052 3.40889e-05 9.64991e-05
3.40889e-05 -0.000346075 7.87956e-06
9.64991e-05 7.87956e-06 -0.000511048
0.00158633 -2.33264e-05 3.15934e-06
-2.33264e-05 0.000575478 -4.40964e-07
3.15934e-06 -4.40964e-07 0.00059825
0.000694995 3.01005e-06 1.55092e-05
3.01005e-06 7.60759e-05 1.87586e-06
1.55092e-05 1.87586e-06 -2.15444e-05
0.00102766 4.16409e-05 1.47096e-06
4.16409e-05 5.02105e-05 3.14707e-07
1.47096e-06 3.14707e-07 -2.75916e-05
0.00104165 4.65953e-05 7.6325e-07
4.65953e-05 5.69093e-05 2.23363e-09
7.6325e-07 2.23363e-09 -2.28164e-05
0.00112427 4.64615e-05 3.64761e-09
4.64615e-05 0.00010542 -5.36194e-08
3.64761e-09 -5.36194e-08 3.08775e-05
0.00115015 4.96895e-05 -5.71436e-07
4.96895e-05 0.00012317 -9.78416e-08
-5.71436e-07 -9.78416e-08 4.86879e-05
0.00111903 4.92084e-05 -1.925e-06
4.92084e-05 0.000103348 -5.33149e-08
-1.925e-06 -5.33149e-08 2.45273e-05
0.00109538 4.21028e-05 6.92164e-07
4.21028e-05 8.98855e-05 1.1622e-06
6.92164e-07 1.1622e-06 6.25889e-06
0.00110032 4.70147e-05 1.46062e-06
4.70147e-05 8.92216e-05 9.17334e-07
1.46062e-06 9.17334e-07 6.66162e-06
0.00101416 4.61668e-05 -3.65411e-07
4.61668e-05 5.85699e-05 -2.34557e-07
-3.65411e-07 -2.34557e-07 -2.8183e-05
0.000653155 4.14519e-05 -1.72224e-06
4.14519e-05 -0.000117311 2.48248e-07
-1.72224e-06 2.48248e-07 -0.000198061
0.000809022 4.67215e-05 -2.35501e-06
4.67215e-05 -4.21143e-05 -1.6263e-06
-2.35501e-06 -1.6263e-06 -0.000130904
0.00182882 8.12435e-05 6.3076e-07
8.12435e-05 0.000437443 -2.9967e-06
6.3076e-07 -2.9967e-06 0.000339081
0.00112749 4.28632e-05 -1.35908e-06
4.28632e-05 0.000112822 1.77569e-07
-1.35908e-06 1.77569e-07 2.44519e-05
0.00110037 3.85534e-05 7.43206e-07
3.85534e-05 9.85778e-05 1.35245e-06
7.43206e-07 1.35245e-06 1.19303e-05
0.00679537 -5.77802e-05 -1.11459e-05
-5.77802e-05 0.00182708 -1.31521e-05
-1.11459e-05 -1.31521e-05 0.00123179
-0.00011172 -9.77996e-05 8.10258e-06
-9.77996e-05 -0.000420411 5.13431e-06
8.10258e-06 5.13431e-06 -0.000508791
0.00203164 -5.89613e-05 -4.71809e-06
-5.89613e-05 0.000735867 -2.93044e-06
-4.71809e-06 -2.93044e-06 0.000827271
-0.00219429 -0.000128122 -3.33301e-05
-0.000128122 -0.00151435 -2.5933e-05
-3.33301e-05 -2.5933e-05 -0.0013877
0.00693581 -0.000202406 6.03887e-05
-0.000202406 0.00174377 5.30405e-05
6.03887e-05 5.30405e-05 0.00083343
0.00151556 8.12523e-05 3.06749e-05
8.12523e-05 0.000469311 4.16873e-06
3.06749e-05 4.16873e-06 0.000219604
0.00122502 0.00010528 -2.59845e-05
0.00010528 1.2302e-05 -2.51684e-05
-2.59845e-05 -2.51684e-05 -0.000271994
0.0046484 -0.000152807 1.95676e-05
-0.000152807 0.00111623 1.54678e-05
1.95676e-05 1.54678e-05 0.000549924
0.00113786 4.41983e-05 -3.90827e-05
4.41983e-05 -2.93465e-05 -4.85509e-05
-3.90827e-05 -4.85509e-05 -0.000298464
0.00225256 0.000129219 1.66699e-05
0.000129219 0.000497772 6.66818e-06
1.66699e-05 6.66818e-06 0.000353099
0.000948216 7.89618e-05 -6.02561e-07
7.89618e-05 8.77896e-05 -4.57419e-06
-6.02561e-07 -4.57419e-06 -5.27667e-05
0.000871072 4.72206e-05 8.66948e-07
4.72206e-05 -1.52592e-05 4.56149e-06
8.66948e-07 4.56149e-06 -8.66296e-05
0.00209762 0.000120326 -1.41109e-05
0.000120326 0.000695911 -2.01628e-05
-1.41109e-05 -2.01628e-05 0.000588974
2.83091e-05 0.000109828 -5.90817e-06
0.000109828 -0.000494776 1.44792e-05
-5.90817e-06 1.44792e-05 -0.000587042
0.000837451 4.83278e-05 -7.56582e-06
4.83278e-05 -0.000329423 -4.4336e-06
-7.56582e-06 -4.4336e-06 -0.000763902
0.00149694 1.00261e-05 8.48332e-07
1.00261e-05 0.000254654 3.67994e-06
8.48332e-07 3.67994e-06 0.000157962
-0.00105471 -8.05897e-06 -6.28091e-06
-8.05897e-06 -0.000994446 5.90851e-08
-6.28091e-06 5.90851e-08 -0.00101166
0.00195119 -0.000108107 -2.80785e-05
-0.000108107 0.000395685 -8.05683e-07
-2.80785e-05 -8.05683e-07 0.000317672
0.00139936 2.51393e-05 2.33082e-05
2.51393e-05 -0.000133668 -2.40742e-05
2.33082e-05 -2.40742e-05 -0.00043792
0.000398324 3.93776e-06 -0.000117546
3.93776e-06 -0.000227615 2.19734e-05
-0.000117546 2.19734e-05 -0.000396845
0.00493811 0.000220669 -1.80083e-05
0.000220669 0.0016511 4.93959e-06
-1.80083e-05 4.93959e-06 0.000943231
0.00159091 -8.02875e-05 9.84762e-07
-8.02875e-05 -5.92284e-05 -1.14131e-06
9.84762e-07 -1.14131e-06 2.01677e-06
0.00452899 0.000134024 2.75538e-05
0.000134024 0.00134237 2.76546e-06
2.75538e-05 2.76546e-06 0.000800097
0.00172275 6.65695e-05 2.49468e-05
6.65695e-05 0.000261223 -1.0092e-05
2.49468e-05 -1.0092e-05 -9.80446e-05
0.00168749 -5.38769e-05 -4.03987e-06
-5.38769e-05 -0.000175854 3.65317e-07
-4.03987e-06 3.65317e-07 -7.88111e-05
0.000903906 6.72909e-05 -2.39453e-05
6.72909e-05 0.000293461 1.22883e-05
-2.39453e-05 1.22883e-05 8.91669e-05
0.00142466 -0.000137046 9.53837e-06
-0.000137046 0.00012116 -7.83821e-06
9.53837e-06 -7.83821e-06 -1.21917e-05
0.00169363 -0.000125927 -3.62841e-06
-0.000125927 4.63852e-05 1.96709e-06
-3.62841e-06 1.96709e-06 -1.18299e-06
0.00198668 -7.00686e-05 -1.09795e-05
-7.00686e-05 0.000124087 5.67994e-06
-1.09795e-05 5.67994e-06 0.000121724
0.000842807 -8.19265e-05 6.33965e-06
-8.19265e-05 -0.000228669 -1.00471e-06
6.33965e-06 -1.00471e-06 -0.000296691
0.00142142 -6.66905e-05 1.43809e-06
-6.66905e-05 -6.33959e-06 9.72571e-07
1.43809e-06 9.72571e-07 -2.87759e-05
0.00141473 -4.22766e-05 -1.03698e-06
-4.22766e-05 -4.11221e-05 4.31491e-06
-1.03698e-06 4.31491e-06 -5.21255e-05
0.00112608 -6.02344e-05 1.94966e-06
-6.02344e-05 -7.10817e-05 6.02352e-07
1.94966e-06 6.02352e-07 -0.000130106
0.00138489 -5.19087e-05 1.14833e-07
-5.19087e-05 1.22144e-05 1.32884e-06
1.14833e-07 1.32884e-06 -2.34538e-05
0.00141036 -4.11206e-05 5.05108e-07
-4.11206e-05 2.13025e-05 2.61242e-06
5.05108e-07 2.61242e-06 -1.18316e-05
0.0012331 -5.23718e-05 1.89682e-06
-5.23718e-05 1.44744e-06 1.27396e-06
1.89682e-06 1.27396e-06 -5.87932e-05
0.00134035 -4.78181e-05 5.72444e-08
-4.78181e-05 3.49936e-05 8.38033e-07
5.72444e-08 8.38033e-07 -1.23481e-05
0.00138045 -4.1725e-05 -3.51437e-07
-4.1725e-05 5.5641e-05 1.17134e-06
-3.51437e-07 1.17134e-06 8.41192e-06
0.00134499 -4.53454e-05 -9.51782e-07
-4.53454e-05 6.65562e-05 8.23552e-07
-9.51782e-07 8.23552e-07 1.47592e-05
0.00147575 -4.66042e-05 3.93262e-07
-4.66042e-05 0.000141113 -3.5434e-07
3.93262e-07 -3.5434e-07 8.23682e-05
0.00133058 -4.89315e-05 1.38845e-06
-4.89315e-05 6.93112e-05 1.8812e-06
1.38845e-06 1.8812e-06 1.04522e-05
0.00131504 -5.05818e-05 6.64761e-08
-5.05818e-05 8.00798e-05 -3.54064e-07
6.64761e-08 -3.54064e-07 1.41232e-05
0.00130134 -4.91362e-05 -6.451e-07
-4.91362e-05 8.43306e-05 -8.20147e-08
-6.451e-07 -8.20147e-08 1.5964e-05
0.00100278 -4.68174e-05 -1.54242e-06
-4.68174e-05 -1.94991e-05 1.21938e-06
-1.54242e-06 1.21938e-06 -9.21129e-05
0.00126154 -5.38055e-05 3.60457e-08
-5.38055e-05 9.12858e-05 -1.47058e-07
3.60457e-08 -1.47058e-07 1.53089e-05
0.00137162 -5.78157e-05 1.76645e-06
-5.78157e-05 0.000134489 -4.75847e-07
1.76645e-06 -4.75847e-07 5.58241e-05
0.0010533 -4.0466e-05 -1.16498e-06
-4.0466e-05 5.32935e-05 1.1933e-06
-1.16498e-06 1.1933e-06 -1.25618e-05
0.00098935 -4.84504e-05 -3.23289e-07
-4.84504e-05 6.96644e-06 3.37902e-07
-3.23289e-07 3.37902e-07 -6.6752e-05
0.00128221 -5.66748e-05 1.20528e-06
-5.66748e-05 0.000138585 -1.55792e-06
1.20528e-06 -1.55792e-06 5.91842e-05
0.000896806 -6.57769e-07 -2.34204e-06
-6.57769e-07 9.92631e-06 1.63366e-06
-2.34204e-06 1.63366e-06 -4.17945e-05
0.00104268 -3.51817e-05 -4.11609e-08
-3.51817e-05 6.08846e-05 -6.4693e-08
-4.11609e-08 -6.4693e-08 -3.23776e-06
0.00111958 -4.93078e-05 5.56803e-07
-4.93078e-05 8.91419e-05 -1.21285e-06
5.56803e-07 -1.21285e-06 1.77396e-05
0.000758194 2.70709e-05 -4.28941e-06
2.70709e-05 -5.52745e-05 3.32021e-06
-4.28941e-06 3.32021e-06 -7.23645e-05
0.00092796 8.53571e-07 2.73212e-08
8.53571e-07 2.03332e-05 5.72816e-08
2.73212e-08 5.72816e-08 -2.84328e-05
0.00104786 -2.93369e-05 1.15123e-06
-2.93369e-05 6.73918e-05 -5.08864e-07
1.15123e-06 -5.08864e-07 4.33173e-06
0.00256662 3.91009e-05 -1.8536e-05
3.91009e-05 0.000846722 3.56568e-06
-1.8536e-05 3.56568e-06 0.000859894
0.00082088 2.55765e-05 8.99004e-10
2.55765e-05 -3.28769e-05 -6.06078e-09
8.99004e-10 -6.06078e-09 -4.72347e-05
0.00093336 2.82466e-06 2.44474e-06
2.82466e-06 1.70232e-05 -1.76856e-06
2.44474e-06 -1.76856e-06 -2.8715e-05
0.00252259 3.54699e-05 1.97153e-07
3.54699e-05 0.00081798 6.58232e-08
1.97153e-07 6.58232e-08 0.000832606
0.000853488 2.31848e-05 4.06458e-06
2.31848e-05 -2.5334e-05 -3.37242e-06
4.06458e-06 -3.37242e-06 -3.74422e-05
0.00249402 3.19521e-05 1.74875e-05
3.19521e-05 0.000797864 -3.8392e-06
1.74875e-05 -3.8392e-06 0.000813693
0.00105694 3.87776e-05 -7.94881e-07
3.87776e-05 7.5692e-05 -2.37678e-07
-7.94881e-07 -2.37678e-07 3.46585e-06
0.00108059 3.50821e-05 2.32447e-07
3.50821e-05 8.22451e-05 1.41537e-07
2.32447e-07 1.41537e-07 1.11162e-05
0.000918551 1.5701e-06 -1.67535e-06
1.5701e-06 2.51154e-07 -8.43081e-07
-1.67535e-06 -8.43081e-07 -6.53164e-05
0.000971002 3.0003e-05 1.46337e-06
3.0003e-05 2.17962e-05 8.00897e-07
1.46337e-06 8.00897e-07 -5.17123e-05
0.000964988 3.88054e-07 -8.28526e-08
3.88054e-07 1.95297e-05 1.62079e-07
-8.28526e-08 1.62079e-07 -4.56173e-05
0.000935131 -2.82427e-07 -2.62887e-06
-2.82427e-07 7.88656e-06 -2.1204e-06
-2.62887e-06 -2.1204e-06 -3.78674e-05
0.00100815 2.89449e-06 1.03837e-06
2.89449e-06 4.09789e-05 1.60734e-06
1.03837e-06 1.60734e-06 -2.28825e-05
0.000934031 -1.93094e-06 -1.75629e-07
-1.93094e-06 4.55194e-06 -5.87432e-09
-1.75629e-07 -5.87432e-09 -3.82637e-05
0.00085432 -2.04839e-05 -3.68265e-06
-2.04839e-05 -3.20113e-05 -3.69828e-06
-3.68265e-06 -3.69828e-06 -4.34195e-05
0.00249309 -2.84934e-05 -1.67461e-05
-2.84934e-05 0.000791242 -4.03087e-06
-1.67461e-05 -4.03087e-06 0.000808185
0.000853804 -1.81195e-05 -1.2151e-07
-1.81195e-05 -3.7369e-05 -1.69689e-08
-1.2151e-07 -1.69689e-08 -4.63302e-05
0.00093788 -6.20652e-06 1.60174e-06
-6.20652e-06 3.05352e-06 2.4997e-06
1.60174e-06 2.4997e-06 -3.6238e-05
0.00245616 -2.52006e-05 -4.88652e-07
-2.52006e-05 0.000767017 5.46734e-08
-4.88652e-07 5.46734e-08 0.000785407
0.000851524 -1.62855e-05 2.33206e-06
-1.62855e-05 -4.26104e-05 3.53665e-06
2.33206e-06 3.53665e-06 -4.95449e-05
0.00241264 -2.18706e-05 1.2605e-05
-2.18706e-05 0.0007398 4.01339e-06
1.2605e-05 4.01339e-06 0.000759562
0.00522599 1.76356e-05 1.86578e-05
1.76356e-05 0.00155487 -2.7764e-06
1.86578e-05 -2.7764e-06 0.00109436
-0.000470766 -1.09932e-05 1.68043e-05
-1.09932e-05 -0.000389046 8.45215e-07
1.68043e-05 8.45215e-07 -0.000403183
0.000498136 -1.72024e-05 6.27079e-06
-1.72024e-05 -6.25963e-05 -6.61036e-08
6.27079e-06 -6.61036e-08 -5.06685e-05
0.00104885 4.63803e-05 2.01693e-06
4.63803e-05 6.2654e-05 1.42951e-07
2.01693e-06 1.42951e-07 -1.73537e-05
0.00105492 4.5299e-05 9.65912e-07
4.5299e-05 7.29315e-05 1.13708e-07
9.65912e-07 1.13708e-07 -1.28945e-06
0.00115677 5.01814e-05 4.76441e-08
5.01814e-05 0.000121687 -5.07468e-08
4.76441e-08 -5.07468e-08 4.29953e-05
0.00111586 4.92228e-05 -1.87349e-07
4.92228e-05 0.00010644 -1.64985e-07
-1.87349e-07 -1.64985e-07 3.19353e-05
0.00111737 5.0279e-05 1.06038e-06
5.0279e-05 0.000111501 4.13284e-07
1.06038e-06 4.13284e-07 3.55183e-05
0.000894165 4.56727e-05 -1.83507e-06
4.56727e-05 2.12876e-06 4.83333e-07
-1.83507e-06 4.83333e-07 -7.4874e-05
0.000925131 4.41508e-05 1.53332e-06
4.41508e-05 1.50056e-05 1.08609e-06
1.53332e-06 1.08609e-06 -7.11866e-05
0.000857415 4.53682e-05 6.78236e-07
4.53682e-05 -1.66454e-05 -1.61296e-07
6.78236e-07 -1.61296e-07 -9.83677e-05
0.00087839 4.81495e-05 8.44545e-07
4.81495e-05 -9.62816e-07 2.33634e-07
8.44545e-07 2.33634e-07 -9.068e-05
0.000617559 4.83385e-05 -6.70818e-07
4.83385e-05 -0.000144476 1.23811e-07
-6.70818e-07 1.23811e-07 -0.000225772
0.00259236 9.7875e-05 1.64658e-07
9.7875e-05 0.000783422 -6.50062e-07
1.64658e-07 -6.50062e-07 0.000692329
0.00178497 9.92676e-05 8.72341e-08
9.92676e-05 0.000318337 -3.67664e-06
8.72341e-08 -3.67664e-06 0.000203963
0.00122341 6.98931e-05 6.88453e-07
6.98931e-05 0.000142264 1.77639e-07
6.88453e-07 1.77639e-07 4.58918e-05
0.00129126 4.85217e-05 -2.56241e-07
4.85217e-05 0.000200205 1.24497e-06
-2.56241e-07 1.24497e-06 0.000109877
0.000326022 -3.30029e-05 -2.0774e-05
-3.30029e-05 -0.000280232 -2.05321e-05
-2.0774e-05 -2.05321e-05 -0.00037621
0.00340615 -6.56573e-05 -1.64002e-05
-6.56573e-05 0.000615874 -2.74352e-06
-1.64002e-05 -2.74352e-06 0.000142121
0.00257883 -0.000132148 -3.55349e-05
-0.000132148 0.000982912 -1.05415e-05
-3.55349e-05 -1.05415e-05 0.000883202
0.00387491 -9.39507e-05 7.31042e-05
-9.39507e-05 0.000744317 3.07155e-05
7.31042e-05 3.07155e-05 8.95643e-05
0.00286831 0.000132125 2.06682e-05
0.000132125 0.000920746 3.93102e-05
2.06682e-05 3.93102e-05 0.000738721
0.00089266 3.52312e-05 -1.17945e-05
3.52312e-05 -1.75212e-05 -1.72587e-06
-1.17945e-05 -1.72587e-06 -0.000136774
0.000989367 4.94902e-05 1.96806e-05
4.94902e-05 -0.000231123 1.18886e-05
1.96806e-05 1.18886e-05 -0.000302272
0.00153213 0.000125507 4.42185e-08
0.000125507 0.000158354 8.06009e-06
4.42185e-08 8.06009e-06 1.82875e-05
0.000404271 6.45246e-05 -9.8739e-07
6.45246e-05 -0.000169081 6.61856e-06
-9.8739e-07 6.61856e-06 -0.000308631
0.00243741 0.000172187 -4.49585e-05
0.000172187 0.000470876 -6.67498e-05
-4.49585e-05 -6.67498e-05 0.000426408
0.00176404 1.56491e-05 -0.000108632
1.56491e-05 0.000444133 -7.57244e-06
-0.000108632 -7.57244e-06 0.00019376
0.00471916 4.665e-05 1.38747e-05
4.665e-05 0.0014907 1.25623e-07
1.38747e-05 1.25623e-07 0.00102939
-0.00250995 -1.14478e-05 -7.497e-05
-1.14478e-05 -0.00167822 4.78913e-06
-7.497e-05 4.78913e-06 -0.00165877
0.00240635 -8.69099e-05 -3.86309e-06
-8.69099e-05 0.000337511 -5.21396e-07
-3.86309e-06 -5.21396e-07 0.000386839
0.000371624 7.87919e-05 2.63704e-05
7.87919e-05 -0.000216277 -1.10703e-05
2.63704e-05 -1.10703e-05 -0.000444599
0.000365906 1.65519e-05 2.03449e-05
1.65519e-05 -0.00037375 -3.11165e-06
2.03449e-05 -3.11165e-06 -0.000829155
0.00199527 -6.38598e-05 -1.78525e-06
-6.38598e-05 -2.95122e-06 2.60169e-06
-1.78525e-06 2.60169e-06 5.80552e-05
0.00125589 8.5428e-05 3.55496e-06
8.5428e-05 0.000285046 -4.63285e-06
3.55496e-06 -4.63285e-06 9.26849e-05
0.00166977 -3.03191e-06 6.62225e-08
-3.03191e-06 -0.000173933 -1.3042e-05
6.62225e-08 -1.3042e-05 -0.0001131
0.000802578 5.81195e-05 1.26549e-06
5.81195e-05 -0.000222034 -2.26395e-06
1.26549e-06 -2.26395e-06 -0.000280328
0.00191621 -0.00012515 9.83968e-06
-0.00012515 0.000154267 -3.60743e-06
9.83968e-06 -3.60743e-06 0.000114684
0.00173239 -6.76517e-05 2.98331e-06
-6.76517e-05 5.38234e-06 -6.06676e-07
2.98331e-06 -6.06676e-07 8.82099e-06
0.00186179 -8.31954e-06 -2.60724e-06
-8.31954e-06 0.000138424 3.90088e-06
-2.60724e-06 3.90088e-06 0.000128569
0.00106539 -6.30996e-05 6.78598e-06
-6.30996e-05 -0.000174358 -1.32027e-06
6.78598e-06 -1.32027e-06 -0.0001955
0.00157023 -4.37436e-05 1.61473e-06
-4.37436e-05 4.30843e-05 4.39832e-07
1.61473e-06 4.39832e-07 2.99023e-05
0.00151413 -2.25634e-05 -5.8492e-07
-2.25634e-05 3.20127e-05 3.2758e-06
-5.8492e-07 3.2758e-06 -1.6097e-06
0.00128143 -5.12517e-05 2.64023e-06
-5.12517e-05 -3.66572e-05 7.46906e-07
2.64023e-06 7.46906e-07 -7.31885e-05
0.00142518 -4.1623e-05 4.80193e-07
-4.1623e-05 3.39894e-05 6.78624e-07
4.80193e-07 6.78624e-07 -8.1401e-07
0.00151715 -3.2516e-05 -7.40414e-07
-3.2516e-05 8.70482e-05 1.92e-06
-7.40414e-07 1.92e-06 3.93134e-05
0.00139288 -4.89356e-05 1.02545e-06
-4.89356e-05 6.15484e-05 8.72601e-07
1.02545e-06 8.72601e-07 1.32874e-05
0.00133167 -4.26837e-05 -1.30393e-07
-4.26837e-05 3.70972e-05 3.70275e-09
-1.30393e-07 3.70275e-09 -1.05468e-05
0.00133304 -4.08687e-05 7.42483e-07
-4.08687e-05 5.27869e-05 1.04704e-06
7.42483e-07 1.04704e-06 -5.19404e-06
0.00120261 -4.39479e-05 3.99114e-08
-4.39479e-05 -1.70168e-06 1.01889e-06
3.99114e-08 1.01889e-06 -5.19262e-05
0.00135437 -4.45818e-05 -6.80954e-07
-4.45818e-05 8.14539e-05 -4.59143e-07
-6.80954e-07 -4.59143e-07 2.38499e-05
0.00144785 -4.58109e-05 -5.28636e-08
-4.58109e-05 0.000138539 1.49316e-07
-5.28636e-08 1.49316e-07 7.39499e-05
0.00132475 -5.03873e-05 9.02498e-07
-5.03873e-05 8.42303e-05 2.925e-07
9.02498e-07 2.925e-07 1.80662e-05
0.0013012 -4.89018e-05 1.32571e-07
-4.89018e-05 8.44171e-05 -2.7068e-07
1.32571e-07 -2.7068e-07 1.57777e-05
0.00131376 -4.7313e-05 -8.38249e-07
-4.7313e-05 0.000106874 4.93907e-07
-8.38249e-07 4.93907e-07 3.86251e-05
0.000892301 -3.85838e-05 -2.02064e-06
-3.85838e-05 -5.05091e-05 1.50458e-06
-2.02064e-06 1.50458e-06 -0.000117281
0.00108289 -4.82192e-05 -2.70642e-07
-4.82192e-05 2.23148e-05 1.63168e-07
-2.70642e-07 1.63168e-07 -5.01001e-05
0.00125588 -5.35508e-05 1.26489e-06
-5.35508e-05 8.92637e-05 -1.02419e-06
1.26489e-06 -1.02419e-06 1.29299e-05
0.000899241 -7.44701e-06 -2.1265e-06
-7.44701e-06 7.82153e-06 1.77384e-06
-2.1265e-06 1.77384e-06 -4.65646e-05
0.00106197 -4.00489e-05 5.96989e-08
-4.00489e-05 5.73067e-05 3.17711e-08
5.96989e-08 3.17711e-08 -8.54068e-06
0.00108025 -5.01548e-05 5.15814e-07
-5.01548e-05 5.36108e-05 -9.57721e-07
5.15814e-07 -9.57721e-07 -1.97953e-05
0.000718817 2.89853e-05 -4.40151e-06
2.89853e-05 -6.56859e-05 3.19781e-06
-4.40151e-06 3.19781e-06 -8.62101e-05
0.000920945 -3.32714e-06 -1.18451e-07
-3.32714e-06 1.93753e-05 8.87481e-09
-1.18451e-07 8.87481e-09 -3.2092e-05
0.00107064 -3.59486e-05 1.10799e-06
-3.59486e-05 7.34376e-05 -9.3393e-07
1.10799e-06 -9.3393e-07 9.30559e-06
0.00261801 4.27133e-05 -1.91386e-05
4.27133e-05 0.000880692 3.41897e-06
-1.91386e-05 3.41897e-06 0.000891945
0.000797933 2.79118e-05 9.21766e-08
2.79118e-05 -3.51492e-05 3.24248e-08
9.21766e-08 3.24248e-08 -5.24903e-05
0.000932635 -4.13578e-07 2.50331e-06
-4.13578e-07 2.08628e-05 -1.54222e-06
2.50331e-06 -1.54222e-06 -2.76121e-05
0.00254325 3.90205e-05 1.95317e-07
3.90205e-05 0.000836241 7.02183e-08
1.95317e-07 7.02183e-08 0.000849238
0.000848807 2.61611e-05 4.11754e-06
2.61611e-05 -1.87247e-05 -3.31311e-06
4.11754e-06 -3.31311e-06 -3.32921e-05
0.00248771 3.53803e-05 1.79958e-05
3.53803e-05 0.000801663 -3.67933e-06
1.79958e-05 -3.67933e-06 0.000816228
0.00107245 4.36301e-05 -9.81192e-07
4.36301e-05 8.53861e-05 -6.55407e-07
-9.81192e-07 -6.55407e-07 1.19386e-05
0.00113023 4.05902e-05 1.14872e-07
4.05902e-05 0.000111468 8.09614e-08
1.14872e-07 8.09614e-08 3.9561e-05
0.000946803 1.46411e-05 -1.5455e-06
1.46411e-05 2.13169e-05 -7.46473e-07
-1.5455e-06 -7.46473e-07 -4.50693e-05
0.00104932 3.51904e-05 9.96231e-07
3.51904e-05 6.77988e-05 3.29114e-07
9.96231e-07 3.29114e-07 -3.36951e-06
0.000930901 4.18124e-06 -3.75398e-07
4.18124e-06 7.44365e-06 -7.07978e-08
-3.75398e-07 -7.07978e-08 -5.82285e-05
0.000930244 -1.87269e-06 -2.64192e-06
-1.87269e-06 1.13251e-05 -1.84974e-06
-2.64192e-06 -1.84974e-06 -3.70237e-05
0.000919181 -2.71079e-06 1.22789e-06
-2.71079e-06 -2.85429e-06 1.24078e-06
1.22789e-06 1.24078e-06 -6.85993e-05
0.000932571 -4.7007e-07 -3.54015e-08
-4.7007e-07 6.95337e-06 3.71331e-08
-3.54015e-08 3.71331e-08 -3.88728e-05
0.000840319 -2.32852e-05 -4.0305e-06
-2.32852e-05 -3.27757e-05 -3.59272e-06
-4.0305e-06 -3.59272e-06 -4.65756e-05
0.000934946 -1.63133e-06 2.1986e-06
-1.63133e-06 4.78929e-06 2.57568e-06
2.1986e-06 2.57568e-06 -3.79906e-05
0.000840956 -2.01023e-05 -1.29171e-07
-2.01023e-05 -3.90642e-05 3.43818e-09
-1.29171e-07 3.43818e-09 -5.02657e-05
0.00253783 -3.20247e-05 -1.78293e-05
-3.20247e-05 0.000819293 -3.95925e-06
-1.78293e-05 -3.95925e-06 0.000834765
0.00250594 -2.85734e-05 -3.80751e-07
-2.85734e-05 0.000797072 5.95476e-08
-3.80751e-07 5.95476e-08 0.000814127
0.000840566 -1.78752e-05 2.86074e-06
-1.78752e-05 -4.41155e-05 3.62674e-06
2.86074e-06 3.62674e-06 -5.2914e-05
0.00246374 -2.53014e-05 1.43984e-05
-2.53014e-05 0.000770336 3.98563e-06
1.43984e-05 3.98563e-06 0.000788822
0.000474493 -2.55225e-05 -4.96299e-05
-2.55225e-05 -0.000159059 -1.09498e-05
-4.96299e-05 -1.09498e-05 -0.000272544
0.00170033 -1.90653e-05 -1.13895e-05
-1.90653e-05 3.0835e-05 -5.48744e-06
-1.13895e-05 -5.48744e-06 -0.000412804
0.0033013 -0.000100953 -3.54944e-05
-0.000100953 0.00119507 -3.03289e-06
-3.54944e-05 -3.03289e-06 0.00112066
0.00119421 5.43916e-05 1.84132e-06
5.43916e-05 0.000131296 2.70695e-07
1.84132e-06 2.70695e-07 5.40963e-05
0.00117704 5.08005e-05 1.55031e-06
5.08005e-05 0.000132112 -5.78843e-08
1.55031e-06 -5.78843e-08 5.34995e-05
0.00107222 4.84451e-05 7.79174e-07
4.84451e-05 8.50868e-05 6.94883e-08
7.79174e-07 6.94883e-08 1.05919e-05
0.00104065 4.90092e-05 -9.96435e-09
4.90092e-05 7.35976e-05 6.05589e-08
-9.96435e-09 6.05589e-08 -3.72681e-06
0.00107829 4.98237e-05 -1.42664e-07
4.98237e-05 9.35336e-05 -2.02625e-07
-1.42664e-07 -2.02625e-07 1.71807e-05
0.000796032 4.79228e-05 -1.62497e-06
4.79228e-05 -4.70478e-05 6.08183e-07
-1.62497e-06 6.08183e-07 -0.000119796
0.00115477 5.16567e-05 2.82862e-06
5.16567e-05 0.000130525 -9.16174e-07
2.82862e-06 -9.16174e-07 4.75363e-05
0.00119313 5.35939e-05 2.09965e-06
5.35939e-05 0.000156846 7.03206e-07
2.09965e-06 7.03206e-07 6.62658e-05
0.00107477 5.84018e-05 -2.28278e-07
5.84018e-05 7.5818e-05 -1.19652e-07
-2.28278e-07 -1.19652e-07 -4.76443e-06
0.00191148 8.38924e-05 2.13493e-07
8.38924e-05 0.000464946 5.42745e-07
2.13493e-07 5.42745e-07 0.000375763
0.0015133 8.23211e-05 6.30489e-07
8.23211e-05 0.000185657 -1.52595e-06
6.30489e-07 -1.52595e-06 8.94284e-05
0.00176852 8.61016e-05 -8.91757e-06
8.61016e-05 0.000156745 -3.02354e-06
-8.91757e-06 -3.02354e-06 4.37519e-05
0.00127855 8.75816e-05 3.17773e-06
8.75816e-05 6.51858e-05 1.2123e-06
3.17773e-06 1.2123e-06 -4.81055e-05
0.000679242 5.79406e-05 -7.07586e-07
5.79406e-05 -0.000129417 4.09716e-06
-7.07586e-07 4.09716e-06 -0.000223864
0.00198391 -2.59724e-05 -4.03832e-08
-2.59724e-05 0.000111517 6.79372e-06
-4.03832e-08 6.79372e-06 6.23496e-05
0.00135028 -1.86687e-05 1.5772e-06
-1.86687e-05 8.50122e-07 1.02103e-06
1.5772e-06 1.02103e-06 -0.000143264
0.000763743 -7.1889e-05 -3.01234e-05
-7.1889e-05 -0.000418251 -6.46382e-06
-3.01234e-05 -6.46382e-06 -0.000812632
0.00247912 9.43223e-05 1.75096e-05
9.43223e-05 0.000268918 2.13668e-05
1.75096e-05 2.13668e-05 5.72958e-05
0.00143352 5.58653e-05 3.37875e-06
5.58653e-05 -8.94379e-05 2.23696e-06
3.37875e-06 2.23696e-06 -0.000165519
-0.000602612 8.69494e-05 -2.84336e-06
8.69494e-05 -0.000814747 -4.94859e-06
-2.84336e-06 -4.94859e-06 -0.000967213
0.00217008 8.00216e-06 7.24246e-06
8.00216e-06 0.000549229 -4.71937e-06
7.24246e-06 -4.71937e-06 0.000490244
0.000556441 4.34124e-06 -2.12897e-05
4.34124e-06 5.5432e-05 7.52799e-07
-2.12897e-05 7.52799e-07 -0.000103523
0.00126832 0.000114756 6.07739e-05
0.000114756 -0.000222602 -4.74411e-07
6.07739e-05 -4.74411e-07 -0.000652068
0.00226715 -7.6048e-05 -1.7429e-06
-7.6048e-05 0.000147626 6.12147e-06
-1.7429e-06 6.12147e-06 0.000175482
0.00118613 9.33415e-05 4.20078e-05
9.33415e-05 5.4305e-05 -1.87501e-05
4.20078e-05 -1.87501e-05 -0.000189465
0.00199574 -1.08845e-05 4.1328e-06
-1.08845e-05 -1.59563e-05 -1.2728e-06
4.1328e-06 -1.2728e-06 1.37489e-05
0.00120778 6.62772e-05 5.88291e-07
6.62772e-05 -1.69954e-05 -3.54641e-06
5.88291e-07 -3.54641e-06 -7.69149e-05
0.00102058 4.59305e-05 -7.53046e-06
4.59305e-05 -0.000315995 6.12727e-08
-7.53046e-06 6.12727e-08 -0.000377005
0.000587367 4.04061e-05 -5.42234e-06
4.04061e-05 -0.00043028 -3.8362e-06
-5.42234e-06 -3.8362e-06 -0.000511458
0.00155611 -6.59987e-05 1.17657e-05
-6.59987e-05 -7.74337e-05 -4.28983e-06
1.17657e-05 -4.28983e-06 -6.81322e-05
0.00171206 -1.07248e-05 2.76219e-06
-1.07248e-05 7.67579e-05 -1.48762e-07
2.76219e-06 -1.48762e-07 6.07973e-05
0.0017606 1.49039e-05 -2.36971e-06
1.49039e-05 0.00016127 1.32882e-06
-2.36971e-06 1.32882e-06 0.000108
0.00172328 -4.5262e-05 1.52354e-06
-4.5262e-05 0.0001255 -1.59544e-06
1.52354e-06 -1.59544e-06 0.000109635
0.00160772 -2.33657e-05 -2.16991e-07
-2.33657e-05 8.23867e-05 -1.06014e-07
-2.16991e-07 -1.06014e-07 4.68123e-05
0.00159981 -1.23376e-05 -9.76616e-07
-1.23376e-05 0.000105449 2.16433e-06
-9.76616e-07 2.16433e-06 4.9519e-05
0.00146343 -4.22632e-05 1.21512e-07
-4.22632e-05 5.79223e-05 -8.68193e-07
1.21512e-07 -8.68193e-07 2.14165e-05
0.00146931 -3.39481e-05 -8.21189e-07
-3.39481e-05 7.22518e-05 -7.13795e-07
-8.21189e-07 -7.13795e-07 2.47204e-05
0.00136674 -3.22817e-05 -3.41715e-07
-3.22817e-05 3.96786e-05 2.14987e-06
-3.41715e-07 2.14987e-06 -2.31574e-05
0.00128099 -4.35572e-05 -4.53891e-07
-4.35572e-05 1.75173e-05 -1.50903e-06
-4.53891e-07 -1.50903e-06 -3.05169e-05
0.00131817 -4.04892e-05 1.15892e-07
-4.04892e-05 4.6463e-05 -4.62826e-07
1.15892e-07 -4.62826e-07 -1.1566e-05
0.00132071 -4.14515e-05 -3.53296e-08
-4.14515e-05 6.01494e-05 8.88533e-07
-3.53296e-08 8.88533e-07 -5.35977e-06
0.00123039 -4.25996e-05 -8.92757e-07
-4.25996e-05 2.04795e-05 8.9442e-08
-8.92757e-07 8.9442e-08 -3.59744e-05
0.00133216 -4.34602e-05 -2.04179e-07
-4.34602e-05 8.1167e-05 -2.918e-07
-2.04179e-07 -2.918e-07 1.72957e-05
0.0012728 -4.18354e-05 -7.79882e-07
-4.18354e-05 6.84002e-05 5.21067e-07
-7.79882e-07 5.21067e-07 1.52133e-06
0.00130099 -4.86671e-05 9.29494e-07
-4.86671e-05 8.44382e-05 -4.30135e-07
9.29494e-07 -4.30135e-07 1.55297e-05
0.00120089 -4.54295e-05 1.91357e-07
-4.54295e-05 5.17819e-05 -1.55666e-07
1.91357e-07 -1.55666e-07 -1.68796e-05
0.0011815 -4.07975e-05 -1.68824e-06
-4.07975e-05 6.73422e-05 1.11824e-06
-1.68824e-06 1.11824e-06 1.91951e-06
0.000931944 -1.75993e-05 -2.44467e-06
-1.75993e-05 1.00513e-05 1.73463e-06
-2.44467e-06 1.73463e-06 -4.58375e-05
0.000975899 -3.98041e-05 -4.30283e-07
-3.98041e-05 -7.48518e-06 2.68004e-07
-4.30283e-07 2.68004e-07 -7.39081e-05
0.00115022 -4.93345e-05 8.80556e-07
-4.93345e-05 5.80459e-05 -9.00758e-07
8.80556e-07 -9.00758e-07 -1.41688e-05
0.000698991 3.01306e-05 -4.11958e-06
3.01306e-05 -6.79742e-05 3.24238e-06
-4.11958e-06 3.24238e-06 -9.28403e-05
0.00092328 -1.03559e-05 -7.01569e-10
-1.03559e-05 1.8097e-05 8.30831e-08
-7.01569e-10 8.30831e-08 -3.61996e-05
0.00107406 -3.98018e-05 1.32709e-06
-3.98018e-05 6.2975e-05 -1.14637e-06
1.32709e-06 -1.14637e-06 -2.87358e-06
0.00268063 4.61355e-05 -2.00166e-05
4.61355e-05 0.000920845 3.27324e-06
-2.00166e-05 3.27324e-06 0.000929955
0.000777084 3.01665e-05 -4.19094e-08
3.01665e-05 -3.71411e-05 -3.04463e-08
-4.19094e-08 -3.04463e-08 -5.78806e-05
0.000945155 -6.02563e-06 2.42074e-06
-6.02563e-06 2.89131e-05 -1.66426e-06
2.42074e-06 -1.66426e-06 -2.23194e-05
0.00259047 4.24281e-05 2.4806e-07
4.24281e-05 0.000868306 8.70726e-08
2.4806e-07 8.70726e-08 0.000879355
0.000835505 2.87072e-05 4.28031e-06
2.87072e-05 -1.6143e-05 -3.17122e-06
4.28031e-06 -3.17122e-06 -3.37198e-05
0.0025135 3.8796e-05 1.8714e-05
3.8796e-05 0.000822598 -3.56754e-06
1.8714e-05 -3.56754e-06 0.000835447
0.000966901 4.61945e-05 -8.50819e-07
4.61945e-05 2.47627e-05 -7.46334e-07
-8.50819e-07 -7.46334e-07 -5.03429e-05
0.00105326 4.32205e-05 -6.82619e-08
4.32205e-05 7.55211e-05 -1.84671e-07
-6.82619e-08 -1.84671e-07 2.24946e-06
0.00106034 2.84887e-05 -1.34231e-06
2.84887e-05 7.84711e-05 -5.93914e-07
-1.34231e-06 -5.93914e-07 1.12375e-05
0.00120759 4.26234e-05 8.08665e-07
4.26234e-05 0.000149278 1.38799e-07
8.08665e-07 1.38799e-07 7.76673e-05
0.000994056 1.80134e-05 -2.89667e-07
1.80134e-05 4.5231e-05 -1.04832e-07
-2.89667e-07 -1.04832e-07 -2.09299e-05
0.000929563 -1.52782e-06 -2.57127e-06
-1.52782e-06 1.98001e-05 -1.69411e-06
-2.57127e-06 -1.69411e-06 -3.14356e-05
0.000940466 1.01621e-05 1.06319e-06
1.01621e-05 1.29661e-05 6.24707e-07
1.06319e-06 6.24707e-07 -5.25911e-05
0.000925334 -2.23158e-06 1.60317e-08
-2.23158e-06 9.94102e-06 4.04828e-08
1.60317e-08 4.04828e-08 -3.85903e-05
0.000828656 -2.66797e-05 -4.13965e-06
-2.66797e-05 -2.97621e-05 -3.43281e-06
-4.13965e-06 -3.43281e-06 -4.6185e-05
0.000928366 -6.25487e-07 2.67786e-06
-6.25487e-07 5.23603e-06 2.38272e-06
2.67786e-06 2.38272e-06 -4.06619e-05
0.000826492 -2.27258e-05 -7.03352e-08
-2.27258e-05 -4.03595e-05 2.87438e-08
-7.03352e-08 2.87438e-08 -5.39285e-05
0.00256507 -3.56355e-05 -1.85172e-05
-3.56355e-05 0.000839685 -3.81138e-06
-1.85172e-05 -3.81138e-06 0.000853612
0.000827573 -1.97396e-05 3.41409e-06
-1.97396e-05 -4.61658e-05 3.71463e-06
3.41409e-06 3.71463e-06 -5.71554e-05
0.00255954 -3.208e-05 -3.05987e-07
-3.208e-05 0.000829377 6.8461e-08
-3.05987e-07 6.8461e-08 0.00084497
0.00252136 -2.86884e-05 1.6072e-05
-2.86884e-05 0.000804242 3.95512e-06
1.6072e-05 3.95512e-06 0.000821389
0.00146923 -4.68475e-05 1.39728e-06
-4.68475e-05 -2.79294e-05 7.34944e-07
1.39728e-06 7.34944e-07 -6.38817e-05
0.00156002 1.47877e-06 -4.57223e-06
1.47877e-06 0.000186215 6.11228e-06
-4.57223e-06 6.11228e-06 -1.76377e-05
0.00401095 3.36576e-05 -6.0498e-05
3.36576e-05 0.00113889 -1.0795e-05
-6.0498e-05 -1.0795e-05 0.000691094
0.000965389 5.0082e-05 9.24339e-07
5.0082e-05 1.09095e-05 2.64507e-07
9.24339e-07 2.64507e-07 -6.25013e-05
0.00130846 5.99766e-05 1.68431e-06
5.99766e-05 0.000140957 -1.00336e-06
1.68431e-06 -1.00336e-06 6.09479e-05
0.000926177 4.93417e-05 3.08744e-07
4.93417e-05 7.09612e-06 -2.93033e-07
3.08744e-07 -2.93033e-07 -6.98622e-05
0.00115327 5.16001e-05 1.42384e-06
5.16001e-05 0.000127254 -6.83941e-07
1.42384e-06 -6.83941e-07 4.9818e-05
0.00107568 5.02878e-05 3.41124e-07
5.02878e-05 9.30011e-05 8.64749e-08
3.41124e-07 8.64749e-08 1.6252e-05
0.00103762 5.37587e-05 6.4036e-07
5.37587e-05 6.45678e-05 5.69873e-07
6.4036e-07 5.69873e-07 -8.72268e-06
0.00133902 7.15123e-05 -1.59612e-06
7.15123e-05 0.000110081 -2.7552e-06
-1.59612e-06 -2.7552e-06 2.37831e-05
0.00138564 6.52882e-05 2.30065e-06
6.52882e-05 0.000227719 1.09955e-07
2.30065e-06 1.09955e-07 0.000147703
0.000786085 6.09977e-05 -1.08311e-06
6.09977e-05 -6.29122e-05 2.84162e-06
-1.08311e-06 2.84162e-06 -0.000150422
0.00136221 7.92932e-05 -9.19486e-07
7.92932e-05 0.000116725 -3.5735e-07
-9.19486e-07 -3.5735e-07 2.12004e-05
0.00116764 6.7759e-05 -4.31424e-06
6.7759e-05 -0.000104044 -2.63446e-06
-4.31424e-06 -2.63446e-06 -0.00020507
0.00169084 2.83929e-05 -7.92852e-06
2.83929e-05 3.86789e-05 2.55329e-06
-7.92852e-06 2.55329e-06 -3.92829e-05
0.0018208 8.6036e-05 -1.39663e-07
8.6036e-05 0.000174684 1.05087e-06
-1.39663e-07 1.05087e-06 6.36173e-05
0.000987236 7.8856e-05 -1.00554e-07
7.8856e-05 -8.96328e-05 4.15384e-06
-1.00554e-07 4.15384e-06 -0.000200368
0.00170097 -2.00307e-05 1.26186e-06
-2.00307e-05 -1.69832e-05 8.87803e-07
1.26186e-06 8.87803e-07 -6.51186e-05
0.00203408 -1.27115e-05 5.81604e-05
-1.27115e-05 0.000213681 2.81712e-05
5.81604e-05 2.81712e-05 6.37529e-06
0.00219678 7.17839e-05 -3.56174e-06
7.17839e-05 0.000230747 -3.49281e-06
-3.56174e-06 -3.49281e-06 0.000145652
0.00176897 2.65945e-05 -4.52144e-06
2.65945e-05 0.000194975 -2.87745e-06
-4.52144e-06 -2.87745e-06 0.000138335
0.00132199 -6.1417e-07 1.50825e-06
-6.1417e-07 0.000121081 -5.16143e-07
1.50825e-06 -5.16143e-07 7.03665e-05
0.000983529 4.60035e-05 5.35984e-05
4.60035e-05 1.82132e-05 3.63628e-06
5.35984e-05 3.63628e-06 -0.000194029
0.00253829 -2.02233e-05 9.96206e-06
-2.02233e-05 0.000248578 -1.06633e-06
9.96206e-06 -1.06633e-06 0.000243806
0.00139547 7.19537e-05 -2.41272e-06
7.19537e-05 9.1453e-05 1.3274e-06
-2.41272e-06 1.3274e-06 3.15365e-05
0.00162971 5.25652e-05 -1.49521e-06
5.25652e-05 -2.68851e-05 4.42299e-06
-1.49521e-06 4.42299e-06 -8.33249e-05
0.00133966 5.1845e-05 1.28901e-07
5.1845e-05 -5.61048e-05 1.32262e-06
1.28901e-07 1.32262e-06 -0.000134025
0.00152315 4.34269e-05 -4.80812e-06
4.34269e-05 6.0554e-05 -7.1658e-07
-4.80812e-06 -7.1658e-07 -1.18309e-05
0.00133473 3.97388e-05 -3.38237e-06
3.97388e-05 4.78131e-06 -1.91771e-06
-3.38237e-06 -1.91771e-06 -5.8215e-05
0.00142837 -1.26903e-05 5.72219e-06
-1.26903e-05 -5.33965e-05 -2.89449e-06
5.72219e-06 -2.89449e-06 -7.44168e-05
0.00163701 1.32168e-05 -1.04031e-06
1.32168e-05 9.95392e-05 -1.14013e-06
-1.04031e-06 -1.14013e-06 4.72988e-05
0.00160758 2.31272e-05 -1.99662e-06
2.31272e-05 0.000105354 5.91159e-07
-1.99662e-06 5.91159e-07 3.5029e-05
0.00169235 -2.38253e-05 -1.24413e-06
-2.38253e-05 0.000127874 -2.6474e-06
-1.24413e-06 -2.6474e-06 9.09778e-05
0.00154863 -1.22774e-05 -1.71993e-07
-1.22774e-05 8.42541e-05 -3.45097e-07
-1.71993e-07 -3.45097e-07 2.8325e-05
0.00136975 -9.09279e-06 -1.21906e-06
-9.09279e-06 1.23335e-05 1.87392e-06
-1.21906e-06 1.87392e-06 -5.61567e-05
0.00141212 -3.51448e-05 -1.85545e-06
-3.51448e-05 5.26549e-05 -2.72779e-06
-1.85545e-06 -2.72779e-06 5.38571e-06
0.00138034 -3.18048e-05 1.99809e-07
-3.18048e-05 4.65104e-05 -9.95538e-08
1.99809e-07 -9.95538e-08 -1.63759e-05
0.00136524 -3.41116e-05 -6.01225e-07
-3.41116e-05 5.48632e-05 1.60145e-06
-6.01225e-07 1.60145e-06 -1.48711e-05
0.00130347 -4.0093e-05 -4.14688e-07
-4.0093e-05 4.02091e-05 -1.98533e-06
-4.14688e-07 -1.98533e-06 -1.7866e-05
0.00131808 -4.08594e-05 3.02703e-08
-4.08594e-05 5.87438e-05 -3.31647e-07
3.02703e-08 -3.31647e-07 -6.73327e-06
0.00128892 -4.0534e-05 -7.44939e-07
-4.0534e-05 6.10912e-05 8.62068e-07
-7.44939e-07 8.62068e-07 -7.27566e-06
0.00121538 -4.11674e-05 6.2066e-09
-4.11674e-05 2.32597e-05 -4.71296e-07
6.2066e-09 -4.71296e-07 -3.98965e-05
0.00120279 -4.07121e-05 -1.46954e-07
-4.07121e-05 3.43097e-05 -1.32427e-07
-1.46954e-07 -1.32427e-07 -3.24146e-05
0.00118295 -3.74305e-05 -1.68247e-06
-3.74305e-05 5.14696e-05 9.74282e-07
-1.68247e-06 9.74282e-07 -1.36079e-05
0.00109448 -4.36625e-05 1.27617e-06
-4.36625e-05 -2.2381e-07 -8.55724e-07
1.27617e-06 -8.55724e-07 -6.93004e-05
0.00106056 -3.84211e-05 3.14489e-08
-3.84211e-05 8.74355e-06 2.24654e-08
3.14489e-08 2.24654e-08 -5.68282e-05
0.000973117 -2.23757e-05 -2.71239e-06
-2.23757e-05 1.13804e-05 1.5765e-06
-2.71239e-06 1.5765e-06 -4.48261e-05
0.000751811 2.00878e-05 -4.65977e-06
2.00878e-05 -4.07643e-05 3.2002e-06
-4.65977e-06 3.2002e-06 -6.92747e-05
0.000940592 -1.84775e-05 2.58021e-08
-1.84775e-05 1.40217e-05 1.1257e-07
2.58021e-08 1.1257e-07 -4.18588e-05
0.00107004 -4.12688e-05 1.04224e-06
-4.12688e-05 4.0528e-05 -9.11102e-07
1.04224e-06 -9.11102e-07 -2.55444e-05
0.00276333 4.96797e-05 -2.07056e-05
4.96797e-05 0.000971805 3.14196e-06
-2.07056e-05 3.14196e-06 0.000978377
0.000765247 2.67283e-05 1.60741e-07
2.67283e-05 -3.70251e-05 -4.55933e-08
1.60741e-07 -4.55933e-08 -6.17411e-05
0.000945896 -1.31938e-05 2.48451e-06
-1.31938e-05 2.76078e-05 -1.74099e-06
2.48451e-06 -1.74099e-06 -2.65547e-05
0.00265394 4.58386e-05 1.9991e-07
4.58386e-05 0.00090901 8.15751e-08
1.9991e-07 8.15751e-08 0.000917845
0.000830248 3.07131e-05 4.08295e-06
3.07131e-05 -1.11146e-05 -3.13791e-06
4.08295e-06 -3.13791e-06 -3.20267e-05
0.00256772 4.22155e-05 1.95302e-05
4.22155e-05 0.000858271 -3.4092e-06
1.95302e-05 -3.4092e-06 0.000869101
0.000800885 4.67076e-05 -4.38908e-07
4.67076e-05 -7.86496e-05 -7.29505e-07
-4.38908e-07 -7.29505e-07 -0.000157286
0.000873265 4.44904e-05 -7.05224e-09
4.44904e-05 -2.28304e-05 -9.47972e-08
-7.05224e-09 -9.47972e-08 -9.82706e-05
0.00109337 3.65731e-05 -1.42606e-06
3.65731e-05 8.53782e-05 -5.41542e-07
-1.42606e-06 -5.41542e-07 1.70847e-05
0.00103256 4.27717e-05 6.24466e-07
4.27717e-05 6.48498e-05 1.66009e-07
6.24466e-07 1.66009e-07 -8.23399e-06
0.00101952 2.68585e-05 -2.31488e-08
2.68585e-05 5.9052e-05 -9.59057e-09
-2.31488e-08 -9.59057e-09 -8.12351e-06
0.000935192 1.36504e-06 -2.62197e-06
1.36504e-06 2.93016e-05 -1.51372e-06
-2.62197e-06 -1.51372e-06 -2.46861e-05
0.00104327 2.14038e-05 1.16497e-06
2.14038e-05 7.01471e-05 4.54627e-07
1.16497e-06 4.54627e-07 4.20048e-06
0.000917844 -2.5986e-06 6.23617e-08
-2.5986e-06 1.56037e-05 2.725e-08
6.23617e-08 2.725e-08 -3.58542e-05
0.000820871 -3.0059e-05 -4.10646e-06
-3.0059e-05 -2.2684e-05 -3.27501e-06
-4.10646e-06 -3.27501e-06 -4.22351e-05
0.000923068 -2.55294e-06 2.77139e-06
-2.55294e-06 9.88112e-06 2.06839e-06
2.77139e-06 2.06839e-06 -3.88428e-05
0.000808587 -2.59866e-05 -1.57498e-08
-2.59866e-05 -4.04818e-05 2.55883e-08
-1.57498e-08 2.55883e-08 -5.66672e-05
0.00258106 -3.91936e-05 -1.90598e-05
-3.91936e-05 0.000856217 -3.63339e-06
-1.90598e-05 -3.63339e-06 0.000868389
0.000813105 -2.21975e-05 3.94904e-06
-2.21975e-05 -4.77508e-05 3.68069e-06
3.94904e-06 3.68069e-06 -6.10874e-05
0.00259946 -3.57352e-05 -2.42631e-07
-3.57352e-05 0.000855703 7.61907e-08
-2.42631e-07 7.61907e-08 0.000869748
0.00258065 -3.21771e-05 1.74722e-05
-3.21771e-05 0.000839198 3.90887e-06
1.74722e-05 3.90887e-06 0.000854906
0.00164082 -1.18329e-05 -1.63943e-06
-1.18329e-05 5.49389e-05 8.08255e-07
-1.63943e-06 8.08255e-07 4.53649e-06
0.00116984 -4.17668e-05 -4.51021e-07
-4.17668e-05 -0.000115106 -1.70779e-06
-4.51021e-07 -1.70779e-06 -0.000149811
-3.35236e-05 -1.99153e-05 4.15802e-05
-1.99153e-05 -0.000279918 1.79833e-05
4.15802e-05 1.79833e-05 -0.000397327
0.00173381 6.83148e-05 7.38781e-07
6.83148e-05 0.000304279 -2.09255e-06
7.38781e-07 -2.09255e-06 0.000224879
0.000950097 5.05902e-05 -5.91777e-07
5.05902e-05 1.36127e-05 2.71047e-07
-5.91777e-07 2.71047e-07 -5.72781e-05
0.000788957 5.23216e-05 -2.30588e-06
5.23216e-05 -0.00016577 -7.48107e-07
-2.30588e-06 -7.48107e-07 -0.000250451
0.00128147 5.94687e-05 1.16716e-07
5.94687e-05 0.000127079 5.2947e-08
1.16716e-07 5.2947e-08 4.66011e-05
0.000670556 4.43066e-05 -6.35164e-07
4.43066e-05 -0.000109899 8.07486e-07
-6.35164e-07 8.07486e-07 -0.00018677
0.00159781 6.64035e-05 -3.47834e-06
6.64035e-05 0.000128301 -4.23355e-06
-3.47834e-06 -4.23355e-06 3.63313e-05
0.00127448 5.93103e-05 4.48748e-07
5.93103e-05 0.000173581 -3.86571e-08
4.48748e-07 -3.86571e-08 9.98251e-05
0.00133562 7.01208e-05 1.06789e-07
7.01208e-05 0.000102729 3.411e-07
1.06789e-07 3.411e-07 1.70567e-05
0.00157216 2.65242e-05 -3.33867e-06
2.65242e-05 3.13014e-05 1.97761e-06
-3.33867e-06 1.97761e-06 -4.96845e-05
0.00131407 7.81796e-05 1.39652e-06
7.81796e-05 9.72418e-05 2.67135e-06
1.39652e-06 2.67135e-06 2.34832e-06
0.00147127 7.39096e-05 -9.85705e-07
7.39096e-05 3.77125e-05 -6.42929e-07
-9.85705e-07 -6.42929e-07 -6.43059e-05
0.00179479 2.72586e-05 -4.8291e-07
2.72586e-05 9.18285e-05 1.32651e-06
-4.8291e-07 1.32651e-06 1.26602e-05
0.001735 8.24414e-05 4.68738e-06
8.24414e-05 0.000133097 2.81661e-06
4.68738e-06 2.81661e-06 2.33035e-05
0.00159705 -1.11766e-05 -9.49493e-06
-1.11766e-05 -6.25801e-05 -7.49397e-06
-9.49493e-06 -7.49397e-06 -0.000109198
0.00165127 3.19682e-06 -2.34776e-06
3.19682e-06 0.000169536 -1.2173e-06
-2.34776e-06 -1.2173e-06 0.000115
0.0012881 2.05874e-05 1.81086e-06
2.05874e-05 -4.65197e-05 5.97835e-07
1.81086e-06 5.97835e-07 -0.000102449
0.000463641 -7.22665e-06 1.17222e-06
-7.22665e-06 -0.000307533 2.35693e-06
1.17222e-06 2.35693e-06 -0.000351494
0.00212557 5.74877e-05 5.86422e-06
5.74877e-05 0.000206774 -2.61113e-06
5.86422e-06 -2.61113e-06 0.000154319
0.00214443 6.34717e-05 1.43625e-05
6.34717e-05 0.000345845 5.15662e-06
1.43625e-05 5.15662e-06 0.000270954
0.00174014 4.67485e-05 -2.79442e-06
4.67485e-05 0.000155485 -8.60116e-07
-2.79442e-06 -8.60116e-07 8.33341e-05
0.00146312 3.96955e-05 8.41802e-07
3.96955e-05 7.1828e-05 1.63928e-06
8.41802e-07 1.63928e-06 9.23116e-06
0.00148145 3.83154e-05 -3.77047e-06
3.83154e-05 7.8852e-05 -2.40152e-06
-3.77047e-06 -2.40152e-06 1.02003e-05
0.001577 1.12648e-05 -6.38619e-07
1.12648e-05 7.04147e-05 -2.60463e-06
-6.38619e-07 -2.60463e-06 1.87927e-05
0.00160187 2.21794e-05 2.17256e-08
2.21794e-05 9.95536e-05 -2.64854e-07
2.17256e-08 -2.64854e-07 3.03038e-05
0.00154737 2.49497e-05 -2.94183e-06
2.49497e-05 8.8512e-05 -4.86919e-07
-2.94183e-06 -4.86919e-07 1.43696e-05
0.00150504 -1.2381e-05 2.68837e-08
-1.2381e-05 6.7141e-05 -2.46987e-06
2.68837e-08 -2.46987e-06 1.11391e-05
0.00142985 -8.97751e-06 2.81988e-07
-8.97751e-06 4.27002e-05 2.39361e-07
2.81988e-07 2.39361e-07 -2.62752e-05
0.00143895 -9.54582e-06 -1.46731e-06
-9.54582e-06 6.26616e-05 1.16339e-06
-1.46731e-06 1.16339e-06 -1.1225e-05
0.00139009 -3.12575e-05 3.61059e-07
-3.12575e-05 5.15266e-05 -2.29947e-06
3.61059e-07 -2.29947e-06 -1.14118e-05
0.00137434 -3.33209e-05 1.4776e-07
-3.33209e-05 5.86694e-05 -2.1918e-08
1.4776e-07 -2.1918e-08 -1.11193e-05
0.0013319 -3.51454e-05 -1.13674e-06
-3.51454e-05 5.79666e-05 1.21619e-06
-1.13674e-06 1.21619e-06 -1.35175e-05
0.00131547 -4.03244e-05 1.20739e-07
-4.03244e-05 5.73522e-05 -1.54304e-06
1.20739e-07 -1.54304e-06 -8.09536e-06
0.00128724 -4.01895e-05 -5.8697e-09
-4.01895e-05 6.0023e-05 -1.98074e-07
-5.8697e-09 -1.98074e-07 -8.33025e-06
0.00120721 -3.59581e-05 -1.60379e-06
-3.59581e-05 4.67158e-05 1.01464e-06
-1.60379e-06 1.01464e-06 -1.99221e-05
0.0011263 -3.94542e-05 7.09914e-07
-3.94542e-05 -2.89199e-06 -7.87251e-07
7.09914e-07 -7.87251e-07 -6.94573e-05
0.00117057 -3.68352e-05 -2.63993e-08
-3.68352e-05 4.56062e-05 -3.62492e-08
-2.63993e-08 -3.62492e-08 -1.94021e-05
0.00100962 -2.32717e-05 -2.839e-06
-2.32717e-05 1.14894e-05 1.48094e-06
-2.839e-06 1.48094e-06 -4.51363e-05
0.000930041 -3.58252e-05 1.54961e-06
-3.58252e-05 -5.44296e-05 -1.01585e-06
1.54961e-06 -1.01585e-06 -0.000120146
0.000968678 -2.24499e-05 -8.42802e-09
-2.24499e-05 9.80774e-06 6.95923e-08
-8.42802e-09 6.95923e-08 -4.64259e-05
0.00165051 2.05385e-05 -5.52551e-06
2.05385e-05 0.000410101 1.70475e-06
-5.52551e-06 1.70475e-06 0.00038296
0.00117096 3.15227e-05 -2.19348e-05
3.15227e-05 0.000179783 5.54719e-06
-2.19348e-05 5.54719e-06 0.000173347
0.00122261 2.31568e-05 -8.11329e-07
2.31568e-05 0.000193349 -2.04386e-09
-8.11329e-07 -2.04386e-09 0.000167202
0.000948952 -1.91633e-05 2.67461e-06
-1.91633e-05 1.77855e-05 -1.63352e-06
2.67461e-06 -1.63352e-06 -3.80943e-05
0.00274835 4.92419e-05 2.22616e-07
4.92419e-05 0.000965919 9.29586e-08
2.22616e-07 9.29586e-08 0.000972064
0.000830689 2.49644e-05 4.68943e-06
2.49644e-05 -6.17429e-06 -3.10525e-06
4.68943e-06 -3.10525e-06 -3.09026e-05
0.00262682 4.54264e-05 2.04314e-05
4.54264e-05 0.000896925 -3.30993e-06
2.04314e-05 -3.30993e-06 0.000905498
0.00117096 5.52119e-05 -9.80744e-07
5.52119e-05 -9.78343e-06 -6.62514e-07
-9.80744e-07 -6.62514e-07 -8.7719e-05
0.000854923 4.98304e-05 3.9523e-07
4.98304e-05 -8.00247e-05 -2.68613e-07
3.9523e-07 -2.68613e-07 -0.000161157
0.000879972 4.86469e-05 -7.03402e-08
4.86469e-05 -4.42903e-05 -7.76634e-08
-7.03402e-08 -7.76634e-08 -0.00012337
0.0011143 4.21029e-05 -1.33724e-06
4.21029e-05 8.06388e-05 -7.92953e-07
-1.33724e-06 -7.92953e-07 1.12119e-05
0.000763085 4.23806e-05 5.05642e-07
4.23806e-05 -7.86591e-05 5.69003e-07
5.05642e-07 5.69003e-07 -0.000154382
0.0010435 3.44703e-05 -8.79763e-08
3.44703e-05 6.15438e-05 -2.23579e-08
-8.79763e-08 -2.23579e-08 -6.54749e-06
0.00094373 6.04488e-06 -2.57741e-06
6.04488e-06 3.52052e-05 -1.24519e-06
-2.57741e-06 -1.24519e-06 -2.06431e-05
0.000982784 2.53337e-05 1.31205e-06
2.53337e-05 4.15837e-05 5.72816e-07
1.31205e-06 5.72816e-07 -2.55352e-05
0.000907814 -5.84903e-07 3.37035e-08
-5.84903e-07 1.75186e-05 7.13981e-08
3.37035e-08 7.13981e-08 -3.66662e-05
0.000815632 -3.27661e-05 -4.11478e-06
-3.27661e-05 -1.47713e-05 -3.07809e-06
-4.11478e-06 -3.07809e-06 -3.78209e-05
0.000904147 -3.63416e-06 2.66506e-06
-3.63416e-06 1.04727e-05 1.80786e-06
2.66506e-06 1.80786e-06 -4.12118e-05
0.000785974 -2.92151e-05 1.6514e-08
-2.92151e-05 -4.0524e-05 1.21581e-08
1.6514e-08 1.21581e-08 -5.98265e-05
0.00260291 -4.26175e-05 -1.96766e-05
-4.26175e-05 0.00087748 -3.45791e-06
-1.96766e-05 -3.45791e-06 0.000887538
0.000788043 -2.52603e-05 4.25599e-06
-2.52603e-05 -5.1474e-05 3.54341e-06
4.25599e-06 3.54341e-06 -6.74148e-05
0.00262332 -3.94048e-05 -2.18198e-07
-3.94048e-05 0.000875681 7.88014e-08
-2.18198e-07 7.88014e-08 0.000888008
0.00263458 -3.58393e-05 1.85583e-05
-3.58393e-05 0.000872114 3.8278e-06
1.85583e-05 3.8278e-06 0.00088627
0.00157808 -2.13208e-05 -8.79766e-07
-2.13208e-05 7.16062e-05 1.7643e-06
-8.79766e-07 1.7643e-06 1.07791e-05
0.00170933 -1.1227e-05 1.78969e-06
-1.1227e-05 9.48047e-05 -1.49413e-06
1.78969e-06 -1.49413e-06 4.32493e-05
0.00118112 -4.03586e-05 -4.63195e-06
-4.03586e-05 -6.4748e-05 -5.24002e-06
-4.63195e-06 -5.24002e-06 -9.82614e-05
0.00144718 5.94068e-05 -3.76483e-06
5.94068e-05 7.20308e-05 -3.08762e-06
-3.76483e-06 -3.08762e-06 -1.34703e-05
0.0014662 6.31904e-05 -8.0648e-08
6.31904e-05 0.00018888 3.95061e-07
-8.0648e-08 3.95061e-07 0.00011143
0.000834921 4.95043e-05 -2.82281e-06
4.95043e-05 -3.23075e-05 3.52494e-07
-2.82281e-06 3.52494e-07 -0.00010056
0.00128815 6.05358e-05 7.67749e-07
6.05358e-05 7.24693e-05 8.80163e-07
7.67749e-07 8.80163e-07 -1.05489e-05
0.00127912 5.93879e-05 -1.24717e-06
5.93879e-05 0.000124981 8.43076e-07
-1.24717e-06 8.43076e-07 4.40338e-05
0.0016393 2.31918e-05 -2.8647e-06
2.31918e-05 8.51565e-05 8.12054e-07
-2.8647e-06 8.12054e-07 -3.6206e-07
0.00157346 6.74498e-05 -1.37137e-06
6.74498e-05 0.000113721 -1.27565e-06
-1.37137e-06 -1.27565e-06 2.00186e-05
0.00133139 6.90181e-05 1.32813e-06
6.90181e-05 9.66642e-05 4.32397e-06
1.32813e-06 4.32397e-06 1.13692e-05
0.00164823 2.51764e-05 -2.7907e-07
2.51764e-05 6.65816e-05 6.72058e-07
-2.7907e-07 6.72058e-07 -1.48694e-05
0.00185276 8.13279e-05 3.86707e-06
8.13279e-05 0.000213605 2.22957e-06
3.86707e-06 2.22957e-06 0.000110954
0.00172436 2.44824e-05 7.11257e-06
2.44824e-05 6.23295e-05 -7.76056e-08
7.11257e-06 -7.76056e-08 -1.81846e-05
0.00123537 2.86303e-06 -2.03262e-06
2.86303e-06 -1.90716e-05 -3.44591e-07
-2.03262e-06 -3.44591e-07 -8.11357e-05
0.00145291 4.52123e-06 -2.57666e-07
4.52123e-06 7.23548e-05 -5.81718e-07
-2.57666e-07 -5.81718e-07 1.73924e-05
0.000667794 1.40172e-05 7.27676e-06
1.40172e-05 -0.000356718 5.1798e-06
7.27676e-06 5.1798e-06 -0.000411618
0.00197441 5.04414e-05 5.28286e-06
5.04414e-05 0.000259016 -9.08275e-07
5.28286e-06 -9.08275e-07 0.000187106
0.00156034 3.96713e-05 6.70492e-06
3.96713e-05 0.000122802 4.82291e-06
6.70492e-06 4.82291e-06 6.0728e-05
0.00156305 3.91768e-05 -1.07128e-06
3.91768e-05 0.000117231 -3.06372e-07
-1.07128e-06 -3.06372e-07 4.8979e-05
0.00144691 3.25502e-05 -1.75737e-06
3.25502e-05 7.42505e-05 -9.9264e-07
-1.75737e-06 -9.9264e-07 2.54712e-06
0.00159346 2.11309e-05 2.09748e-06
2.11309e-05 9.25163e-05 -8.19195e-07
2.09748e-06 -8.19195e-07 2.43506e-05
0.0015392 2.30014e-05 -4.3775e-07
2.30014e-05 8.18296e-05 -9.54425e-08
-4.3775e-07 -9.54425e-08 7.87951e-06
0.00141923 1.64637e-05 -2.69945e-06
1.64637e-05 4.24997e-05 -9.46087e-07
-2.69945e-06 -9.46087e-07 -3.17385e-05
0.00148608 -9.01811e-06 1.12616e-06
-9.01811e-06 7.11217e-05 -1.19125e-06
1.12616e-06 -1.19125e-06 1.66995e-06
0.00143685 -1.00207e-05 5.16521e-08
-1.00207e-05 6.1241e-05 3.41775e-07
5.16521e-08 3.41775e-07 -1.27572e-05
0.00139124 -1.64806e-05 -1.77816e-06
-1.64806e-05 6.13207e-05 8.15246e-07
-1.77816e-06 8.15246e-07 -1.28128e-05
0.00138273 -3.2467e-05 9.92698e-07
-3.2467e-05 6.21443e-05 -1.62635e-06
9.92698e-07 -1.62635e-06 -7.6971e-06
0.00133796 -3.48644e-05 7.8509e-08
-3.48644e-05 6.03765e-05 4.58441e-08
7.8509e-08 4.58441e-08 -1.11643e-05
0.00125062 -3.2577e-05 -1.83432e-06
-3.2577e-05 4.68383e-05 1.14113e-06
-1.83432e-06 1.14113e-06 -2.23213e-05
0.00128535 -3.9885e-05 8.01247e-07
-3.9885e-05 5.88654e-05 -1.25601e-06
8.01247e-07 -1.25601e-06 -9.47705e-06
0.00120863 -3.564e-05 -1.81082e-08
-3.564e-05 4.7211e-05 -9.79751e-08
-1.81082e-08 -9.79751e-08 -1.94039e-05
0.0010447 -2.40681e-05 -2.95947e-06
-2.40681e-05 1.25717e-05 1.54472e-06
-2.95947e-06 1.54472e-06 -4.57159e-05
0.00115745 -3.62477e-05 1.50932e-06
-3.62477e-05 3.93863e-05 -1.00057e-06
1.50932e-06 -1.00057e-06 -2.55528e-05
0.00100095 -2.29338e-05 8.00143e-09
-2.29338e-05 7.95133e-06 -7.05823e-09
8.00143e-09 -7.05823e-09 -4.87424e-05
0.00168447 1.40647e-05 -5.83195e-06
1.40647e-05 0.000425376 1.57301e-06
-5.83195e-06 1.57301e-06 0.000395547
0.000966417 -2.27115e-05 2.78242e-06
-2.27115e-05 9.24435e-06 -1.47831e-06
2.78242e-06 -1.47831e-06 -4.70171e-05
0.00168024 1.73959e-05 4.50323e-06
1.73959e-05 0.000421825 -9.2873e-07
4.50323e-06 -9.2873e-07 0.000394629
0.00119973 3.11604e-05 -2.4442e-05
3.11604e-05 0.00020737 5.38708e-06
-2.4442e-05 5.38708e-06 0.000196212
0.0020176 4.17472e-05 -1.5311e-05
4.17472e-05 0.000607218 1.75077e-06
-1.5311e-05 1.75077e-06 0.000605535
0.00170416 2.30747e-05 1.22937e-05
2.30747e-05 0.000432456 -2.58822e-06
1.22937e-05 -2.58822e-06 0.000408929
0.00273654 4.86478e-05 2.19204e-05
4.86478e-05 0.000961527 -3.26051e-06
2.19204e-05 -3.26051e-06 0.000967259
0.00144429 5.43356e-05 -3.00993e-06
5.43356e-05 6.85871e-05 -2.32854e-06
-3.00993e-06 -2.32854e-06 -1.25741e-05
0.00138459 5.77976e-05 1.24961e-06
5.77976e-05 0.000137981 -5.1614e-07
1.24961e-06 -5.1614e-07 6.07061e-05
0.00116225 5.48882e-05 9.33929e-07
5.48882e-05 -4.67151e-06 5.40295e-07
9.33929e-07 5.40295e-07 -7.83967e-05
0.00112203 4.66824e-05 -1.30087e-06
4.66824e-05 6.8438e-05 -1.26371e-06
-1.30087e-06 -1.26371e-06 -4.22472e-06
0.00111316 5.55269e-05 -3.0716e-07
5.55269e-05 4.12883e-05 1.47518e-07
-3.0716e-07 1.47518e-07 -3.97621e-05
0.000999577 5.15539e-05 4.22355e-07
5.15539e-05 9.26545e-06 7.93401e-07
4.22355e-07 7.93401e-07 -7.02532e-05
0.00108643 4.13683e-05 -4.38369e-08
4.13683e-05 6.95358e-05 -1.04992e-07
-4.38369e-08 -1.04992e-07 -6.10814e-08
0.000958725 1.45203e-05 -2.47495e-06
1.45203e-05 3.77899e-05 -1.26744e-06
-2.47495e-06 -1.26744e-06 -1.95897e-05
0.000996559 3.25329e-05 1.10707e-06
3.25329e-05 3.91423e-05 4.26521e-07
1.10707e-06 4.26521e-07 -2.87573e-05
0.000909255 4.03773e-06 6.22251e-09
4.03773e-06 1.93276e-05 8.57616e-08
6.22251e-09 8.57616e-08 -3.66069e-05
0.000810756 -2.79905e-05 -4.62918e-06
-2.79905e-05 -9.24943e-06 -2.81368e-06
-4.62918e-06 -2.81368e-06 -3.5668e-05
0.000884025 -2.3524e-06 2.52469e-06
-2.3524e-06 7.49301e-06 1.62233e-06
2.52469e-06 1.62233e-06 -4.68954e-05
0.000764274 -3.17459e-05 -6.77662e-09
-3.17459e-05 -4.00845e-05 -1.16756e-10
-6.77662e-09 -1.16756e-10 -6.29421e-05
0.00263151 -4.57708e-05 -2.04839e-05
-4.57708e-05 0.000903707 -3.29506e-06
-2.04839e-05 -3.29506e-06 0.000911288
0.000750266 -2.82946e-05 4.32986e-06
-2.82946e-05 -5.88026e-05 3.38792e-06
4.32986e-06 3.38792e-06 -7.78451e-05
0.00264389 -4.29457e-05 -1.96761e-07
-4.29457e-05 0.00089587 8.16363e-08
-1.96761e-07 8.16363e-08 0.000906174
0.00266425 -3.95644e-05 1.91968e-05
-3.95644e-05 0.000894521 3.67981e-06
1.91968e-05 3.67981e-06 0.000907005
0.00150982 -1.88055e-05 -2.43982e-06
-1.88055e-05 5.63913e-05 2.23764e-06
-2.43982e-06 2.23764e-06 -1.44078e-05
0.00157282 -2.01222e-05 3.32076e-07
-2.01222e-05 7.12793e-05 -5.37103e-07
3.32076e-07 -5.37103e-07 9.95739e-06
0.00189255 -1.12317e-05 4.93536e-06
-1.12317e-05 0.000189669 -2.75354e-06
4.93536e-06 -2.75354e-06 0.000136771
0.00135285 2.56948e-05 -2.57983e-06
2.56948e-05 -3.13004e-05 1.98618e-07
-2.57983e-06 1.98618e-07 -0.000114599
0.00150173 6.03205e-05 1.59651e-07
6.03205e-05 0.000100567 -5.32894e-07
1.59651e-07 -5.32894e-07 1.48739e-05
0.00130527 5.99571e-05 -1.11591e-06
5.99571e-05 0.000123693 1.86004e-06
-1.11591e-06 1.86004e-06 4.82866e-05
0.00172456 6.77688e-05 1.49961e-06
6.77688e-05 0.000279881 1.31182e-06
1.49961e-06 1.31182e-06 0.000198618
0.00170506 2.49418e-05 -9.03419e-08
2.49418e-05 0.000116767 -1.65793e-07
-9.03419e-08 -1.65793e-07 3.12658e-05
0.00155699 6.84098e-05 2.34782e-06
6.84098e-05 0.000102207 2.12361e-06
2.34782e-06 2.12361e-06 6.90089e-06
0.00170734 2.32285e-05 3.60535e-06
2.32285e-05 9.36727e-05 -2.90359e-07
3.60535e-06 -2.90359e-07 1.17668e-05
0.00138109 2.06813e-06 -3.43931e-07
2.06813e-06 4.99693e-05 2.4181e-07
-3.43931e-07 2.4181e-07 -1.86322e-05
0.001336 4.30039e-06 1.32752e-08
4.30039e-06 2.50387e-05 -1.50062e-07
1.32752e-08 -1.50062e-07 -3.86316e-05
0.00129315 6.43482e-06 1.85796e-06
6.43482e-06 -5.56717e-06 9.43271e-07
1.85796e-06 9.43271e-07 -6.10672e-05
0.00147412 3.24135e-05 -1.03241e-06
3.24135e-05 9.8118e-05 -2.75851e-07
-1.03241e-06 -2.75851e-07 2.3136e-05
0.00164262 3.9982e-05 3.60458e-06
3.9982e-05 0.000154546 1.58566e-06
3.60458e-06 1.58566e-06 8.67212e-05
0.00144328 3.27493e-05 3.03265e-07
3.27493e-05 7.19783e-05 1.73833e-07
3.03265e-07 1.73833e-07 -1.45787e-07
0.00148855 2.95665e-05 -1.34556e-06
2.95665e-05 9.19181e-05 -4.12418e-07
-1.34556e-06 -4.12418e-07 1.86753e-05
0.00155121 2.13236e-05 2.07512e-06
2.13236e-05 8.48551e-05 1.80513e-07
2.07512e-06 1.80513e-07 1.10889e-05
0.00145696 1.64206e-05 -6.3422e-07
1.64206e-05 6.01914e-05 -2.14729e-07
-6.3422e-07 -2.14729e-07 -1.39219e-05
0.00139705 1.13772e-05 -2.66861e-06
1.13772e-05 5.40073e-05 -4.06132e-07
-2.66861e-06 -4.06132e-07 -2.10449e-05
0.00143764 -9.86478e-06 2.13921e-06
-9.86478e-06 6.11971e-05 -5.01983e-07
2.13921e-06 -5.01983e-07 -1.29134e-05
0.00138546 -1.52434e-05 4.34973e-08
-1.52434e-05 5.86892e-05 1.3744e-07
4.34973e-08 1.3744e-07 -1.55379e-05
0.00130426 -2.20609e-05 -2.29865e-06
-2.20609e-05 5.14789e-05 8.05671e-07
-2.29865e-06 8.05671e-07 -1.95194e-05
0.00134508 -3.45392e-05 1.4731e-06
-3.45392e-05 6.32926e-05 -1.13031e-06
1.4731e-06 -1.13031e-06 -8.30156e-06
0.00125478 -3.23262e-05 2.62238e-08
-3.23262e-05 4.86167e-05 6.79391e-08
2.62238e-08 6.79391e-08 -2.05693e-05
0.00109105 -2.3285e-05 -3.32696e-06
-2.3285e-05 1.83303e-05 1.64246e-06
-3.32696e-06 1.64246e-06 -4.2324e-05
0.00120948 -3.5256e-05 1.62826e-06
-3.5256e-05 4.74403e-05 -1.20174e-06
1.62826e-06 -1.20174e-06 -1.91492e-05
0.00104032 -2.33477e-05 9.40001e-08
-2.33477e-05 1.04813e-05 -5.9664e-08
9.40001e-08 -5.9664e-08 -4.78802e-05
0.00171128 9.23753e-06 -5.87887e-06
9.23753e-06 0.000436106 1.51085e-06
-5.87887e-06 1.51085e-06 0.000404315
0.000993435 -2.26303e-05 2.81198e-06
-2.26303e-05 4.97341e-06 -1.44524e-06
2.81198e-06 -1.44524e-06 -5.17881e-05
0.0017206 1.14124e-05 4.83922e-06
1.14124e-05 0.000440068 -8.29528e-07
4.83922e-06 -8.29528e-07 0.000410261
0.00122267 3.06648e-05 -2.62279e-05
3.06648e-05 0.000231346 4.91504e-06
-2.62279e-05 4.91504e-06 0.000216598
0.00171265 1.43151e-05 1.49822e-05
1.43151e-05 0.000434868 -3.6203e-06
1.49822e-05 -3.6203e-06 0.00040764
0.0011789 3.39375e-05 -9.2864e-06
3.39375e-05 0.000198368 1.99821e-06
-9.2864e-06 1.99821e-06 0.0001872
0.00284368 5.64675e-05 9.40495e-06
5.64675e-05 0.00102507 -1.27577e-06
9.40495e-06 -1.27577e-06 0.00102774
0.00165402 3.31499e-05 -2.54487e-06
3.31499e-05 0.000142702 -7.60469e-07
-2.54487e-06 -7.60469e-07 5.94094e-05
0.00145319 5.28496e-05 -1.15173e-06
5.28496e-05 0.000106278 -2.07658e-06
-1.15173e-06 -2.07658e-06 2.78998e-05
0.00149167 5.57042e-05 -1.16077e-06
5.57042e-05 0.000100299 9.29316e-07
-1.16077e-06 9.29316e-07 1.98051e-05
0.00143295 5.2925e-05 -8.90708e-07
5.2925e-05 0.000188573 -6.60799e-07
-8.90708e-07 -6.60799e-07 0.000115843
0.00125237 5.61081e-05 4.19617e-07
5.61081e-05 7.23492e-05 -7.8732e-07
4.19617e-07 -7.8732e-07 -4.76325e-06
0.0012102 5.53785e-05 2.48192e-06
5.53785e-05 2.8237e-05 1.65653e-06
2.48192e-06 1.65653e-06 -4.13978e-05
0.00098804 2.5863e-05 -2.52542e-06
2.5863e-05 3.93126e-05 -1.63317e-06
-2.52542e-06 -1.63317e-06 -2.12393e-05
0.00111692 4.68323e-05 -5.07834e-08
4.68323e-05 6.5735e-05 -8.80606e-08
-5.07834e-08 -8.80606e-08 -6.94654e-06
0.00134165 6.05486e-05 1.30253e-06
6.05486e-05 0.000149169 1.38813e-06
1.30253e-06 1.38813e-06 6.81108e-05
0.00103988 4.01048e-05 1.1095e-06
4.01048e-05 4.94109e-05 5.04533e-07
1.1095e-06 5.04533e-07 -2.03324e-05
0.000929178 1.2486e-05 -2.15842e-08
1.2486e-05 2.48064e-05 -2.2271e-08
-2.15842e-08 -2.2271e-08 -3.27132e-05
0.000813669 -1.89401e-05 -5.03707e-06
-1.89401e-05 -3.78817e-06 -2.7515e-06
-5.03707e-06 -2.7515e-06 -3.40287e-05
0.000876111 1.11219e-06 2.41095e-06
1.11219e-06 4.13077e-06 1.29951e-06
2.41095e-06 1.29951e-06 -5.19546e-05
0.00075288 -3.11422e-05 -7.77412e-08
-3.11422e-05 -3.64087e-05 -1.95071e-08
-7.77412e-08 -1.95071e-08 -6.29984e-05
0.00269102 -4.8747e-05 -2.16968e-05
-4.8747e-05 0.000946911 -3.13717e-06
-2.16968e-05 -3.13717e-06 0.000951556
0.000714397 -3.0746e-05 4.2774e-06
-3.0746e-05 -6.46988e-05 3.2245e-06
4.2774e-06 3.2245e-06 -8.73606e-05
0.00267001 -4.62418e-05 -2.03431e-07
-4.62418e-05 0.000920457 8.40848e-08
-2.03431e-07 8.40848e-08 0.00092838
0.00268494 -4.32021e-05 1.96467e-05
-4.32021e-05 0.000914335 3.49122e-06
1.96467e-05 3.49122e-06 0.000924883
0.00152309 -1.00966e-05 -1.22995e-06
-1.00966e-05 7.11735e-05 1.10802e-06
-1.22995e-06 1.10802e-06 -2.4078e-06
0.0016204 -1.83027e-05 -1.30118e-07
-1.83027e-05 0.000103032 5.96035e-07
-1.30118e-07 5.96035e-07 3.13671e-05
0.0015278 -1.87957e-05 2.07552e-06
-1.87957e-05 5.21099e-05 -2.74353e-06
2.07552e-06 -2.74353e-06 -9.71462e-06
0.00150332 2.64225e-05 2.03756e-07
2.64225e-05 3.60101e-05 -1.45227e-07
2.03756e-07 -1.45227e-07 -4.7084e-05
0.00156609 6.1421e-05 1.96808e-06
6.1421e-05 0.000134438 1.42054e-06
1.96808e-06 1.42054e-06 4.84599e-05
0.00182735 2.63658e-05 2.99152e-06
2.63658e-05 0.000175198 -5.25726e-07
2.99152e-06 -5.25726e-07 8.97707e-05
0.00141474 1.60061e-06 -1.01966e-06
1.60061e-06 6.39268e-05 3.089e-07
-1.01966e-06 3.089e-07 -1.05879e-05
0.00136484 4.00009e-06 5.63962e-07
4.00009e-06 4.50829e-05 -1.77922e-07
5.63962e-07 -1.77922e-07 -2.37663e-05
0.00144481 5.5723e-06 2.03886e-06
5.5723e-06 7.30308e-05 1.82895e-07
2.03886e-06 1.82895e-07 7.74726e-06
0.00143496 2.43445e-05 -5.71734e-07
2.43445e-05 7.95895e-05 -9.10879e-08
-5.71734e-07 -9.10879e-08 4.72831e-06
0.00146952 2.25578e-05 -6.70185e-07
2.25578e-05 9.91236e-05 5.12869e-09
-6.70185e-07 5.12869e-09 2.17735e-05
0.00142848 3.29363e-05 2.13998e-06
3.29363e-05 6.45102e-05 8.47173e-07
2.13998e-06 8.47173e-07 -8.0573e-06
0.00145515 2.90765e-05 3.81733e-07
2.90765e-05 7.69148e-05 3.12053e-07
3.81733e-07 3.12053e-07 3.59743e-06
0.00150385 2.6204e-05 -1.07575e-06
2.6204e-05 0.000110948 -2.81277e-07
-1.07575e-06 -2.81277e-07 3.66978e-05
0.00149182 1.57305e-05 1.96253e-06
1.57305e-05 7.65499e-05 4.69017e-07
1.96253e-06 4.69017e-07 2.56094e-06
0.00140915 1.01556e-05 -5.3636e-07
1.01556e-05 5.93355e-05 -3.54702e-08
-5.3636e-07 -3.54702e-08 -1.55128e-05
0.00132108 3.34093e-06 -3.12599e-06
3.34093e-06 4.89748e-05 3.08703e-07
-3.12599e-06 3.08703e-07 -2.32289e-05
0.00138101 -1.54961e-05 1.82111e-06
-1.54961e-05 5.66011e-05 -5.22935e-07
1.82111e-06 -5.22935e-07 -1.7699e-05
0.00130031 -2.13726e-05 6.13719e-08
-2.13726e-05 4.95814e-05 6.57465e-08
6.13719e-08 6.57465e-08 -2.14865e-05
0.00111859 -1.60118e-05 -3.78486e-06
-1.60118e-05 1.57475e-05 1.37227e-06
-3.78486e-06 1.37227e-06 -4.62537e-05
0.00125979 -3.20305e-05 2.03439e-06
-3.20305e-05 5.07935e-05 -1.00073e-06
2.03439e-06 -1.00073e-06 -1.84166e-05
0.00108575 -2.25714e-05 1.48059e-07
-2.25714e-05 1.52113e-05 4.88823e-08
1.48059e-07 4.88823e-08 -4.54917e-05
0.00176602 6.75661e-06 -6.07777e-06
6.75661e-06 0.000458415 1.47744e-06
-6.07777e-06 1.47744e-06 0.00042539
0.00103642 -2.27365e-05 2.99711e-06
-2.27365e-05 8.65203e-06 -1.55928e-06
2.99711e-06 -1.55928e-06 -4.97905e-05
0.00176536 6.27019e-06 5.24558e-06
6.27019e-06 0.00045981 -6.99093e-07
5.24558e-06 -6.99093e-07 0.000428011
0.00124065 2.95462e-05 -2.80882e-05
2.95462e-05 0.000250655 4.31552e-06
-2.80882e-05 4.31552e-06 0.000233235
0.00175892 8.44712e-06 1.58781e-05
8.44712e-06 0.00045579 -3.35176e-06
1.58781e-05 -3.35176e-06 0.000426029
0.00121405 3.41146e-05 -1.00129e-05
3.41146e-05 0.000228622 1.78255e-06
-1.00129e-05 1.78255e-06 0.000213688
0.0011533 3.69475e-05 6.39245e-06
3.69475e-05 0.000187065 -1.42546e-06
6.39245e-06 -1.42546e-06 0.000175866
0.00150568 8.42441e-08 -1.3978e-06
8.42441e-08 6.53914e-05 1.11884e-06
-1.3978e-06 1.11884e-06 -8.59662e-06
0.00146413 3.55345e-05 -2.50508e-06
3.55345e-05 7.68067e-05 -5.22333e-07
-2.50508e-06 -5.22333e-07 -3.79052e-06
0.00159802 3.27558e-05 -8.89956e-07
3.27558e-05 0.000111482 -6.85742e-07
-8.89956e-07 -6.85742e-07 2.80086e-05
0.00138728 4.91161e-05 -1.81756e-06
4.91161e-05 0.000118415 -1.02568e-06
-1.81756e-06 -1.02568e-06 4.45633e-05
0.00150588 5.36108e-05 6.7068e-07
5.36108e-05 0.000135874 4.62464e-07
6.7068e-07 4.62464e-07 5.78304e-05
0.00149462 5.63195e-05 3.30768e-06
5.63195e-05 0.000110675 2.50082e-06
3.30768e-06 2.50082e-06 3.08886e-05
0.0009718 3.17649e-05 -2.88151e-06
3.17649e-05 3.86624e-06 -1.46598e-06
-2.88151e-06 -1.46598e-06 -5.90129e-05
0.00116339 4.88416e-05 7.53868e-07
4.88416e-05 5.45717e-05 5.08874e-07
7.53868e-07 5.08874e-07 -1.91437e-05
0.00110723 5.4219e-05 1.24513e-06
5.4219e-05 -2.06799e-07 1.59407e-06
1.24513e-06 1.59407e-06 -7.70551e-05
0.000824094 -2.95071e-06 -5.61021e-06
-2.95071e-06 5.22304e-07 -2.99331e-06
-5.61021e-06 -2.99331e-06 -3.43871e-05
0.000955875 2.44784e-05 -7.39649e-08
2.44784e-05 2.35231e-05 -9.05086e-08
-7.39649e-08 -9.05086e-08 -3.68832e-05
0.00111891 4.7145e-05 1.30375e-06
4.7145e-05 6.64758e-05 1.09944e-06
1.30375e-06 1.09944e-06 -6.23299e-06
0.000883696 1.10963e-05 2.26342e-06
1.10963e-05 3.92497e-06 1.09038e-06
2.26342e-06 1.09038e-06 -5.36261e-05
0.00075343 -2.01615e-05 -7.54379e-08
-2.01615e-05 -3.01438e-05 -6.26751e-08
-7.54379e-08 -6.26751e-08 -6.06333e-05
0.00280323 -5.14597e-05 -2.36759e-05
-5.14597e-05 0.00101734 -3.03491e-06
-2.36759e-05 -3.03491e-06 0.00101855
0.000695144 -3.24769e-05 4.24149e-06
-3.24769e-05 -6.35146e-05 3.02418e-06
4.24149e-06 3.02418e-06 -9.02287e-05
0.00270623 -4.92568e-05 -2.3983e-07
-4.92568e-05 0.000951929 8.82369e-08
-2.3983e-07 8.82369e-08 0.000957049
0.0027108 -4.66643e-05 2.01689e-05
-4.66643e-05 0.000938333 3.30021e-06
2.01689e-05 3.30021e-06 0.000946597
0.00150122 -1.6132e-05 -7.99614e-07
-1.6132e-05 8.08743e-05 -3.10583e-07
-7.99614e-07 -3.10583e-07 4.95414e-06
0.00155648 -1.04349e-05 -3.38457e-07
-1.04349e-05 8.48313e-05 2.37394e-07
-3.38457e-07 2.37394e-07 1.09477e-05
0.00164661 -1.75679e-05 1.47258e-06
-1.75679e-05 0.000109781 -1.41439e-06
1.47258e-06 -1.41439e-06 3.71628e-05
0.00162648 2.6883e-05 3.01797e-06
2.6883e-05 9.00638e-05 -2.98736e-08
3.01797e-06 -2.98736e-08 7.19374e-06
0.00141526 -1.24391e-06 -1.07437e-06
-1.24391e-06 6.1292e-05 -3.52622e-07
-1.07437e-06 -3.52622e-07 -1.70294e-05
0.00144822 1.68969e-06 -2.47489e-07
1.68969e-06 8.04083e-05 -1.3181e-07
-2.47489e-07 -1.3181e-07 6.29783e-06
0.00134685 5.90787e-06 1.03027e-06
5.90787e-06 3.91042e-05 -3.32027e-09
1.03027e-06 -3.32027e-09 -2.99587e-05
0.00138893 1.96067e-05 -4.83618e-09
1.96067e-05 5.7857e-05 1.21988e-07
-4.83618e-09 1.21988e-07 -1.70218e-05
0.00142362 2.67896e-05 8.47209e-08
2.67896e-05 7.66867e-05 -1.45948e-07
8.47209e-08 -1.45948e-07 -7.36547e-07
0.00143532 2.39201e-05 -1.62501e-06
2.39201e-05 8.96447e-05 1.99812e-07
-1.62501e-06 1.99812e-07 1.34774e-05
0.00142521 2.86155e-05 2.13496e-06
2.86155e-05 6.35001e-05 1.11426e-06
2.13496e-06 1.11426e-06 -9.88409e-06
0.00147332 2.62473e-05 4.29594e-07
2.62473e-05 9.78845e-05 1.87505e-07
4.29594e-07 1.87505e-07 2.37335e-05
0.00128779 2.33526e-05 -2.45796e-06
2.33526e-05 3.04584e-05 -1.66285e-07
-2.45796e-06 -1.66285e-07 -4.23247e-05
0.0014147 1.04078e-05 1.48645e-06
1.04078e-05 6.16378e-05 3.55812e-07
1.48645e-06 3.55812e-07 -1.3031e-05
0.0013186 4.8528e-06 -2.69235e-07
4.8528e-06 4.75705e-05 1.31102e-07
-2.69235e-07 1.31102e-07 -2.45284e-05
0.00112846 1.19305e-06 -4.05542e-06
1.19305e-06 1.08671e-05 9.31441e-07
-4.05542e-06 9.31441e-07 -5.1671e-05
0.00129585 -1.85497e-05 2.34908e-06
-1.85497e-05 4.74854e-05 -6.3707e-07
2.34908e-06 -6.3707e-07 -2.36324e-05
0.00111891 -1.74717e-05 8.3074e-08
-1.74717e-05 1.55511e-05 1.16546e-07
8.3074e-08 1.16546e-07 -4.65351e-05
0.000706391 -2.44455e-06 -6.37809e-06
-2.44455e-06 -8.01588e-05 2.21208e-06
-6.37809e-06 2.21208e-06 -0.000119109
0.0010829 -2.19064e-05 3.43968e-06
-2.19064e-05 1.32931e-05 -1.44524e-06
3.43968e-06 -1.44524e-06 -4.74646e-05
0.00127122 -2.84431e-06 6.86521e-06
-2.84431e-06 0.000207121 -4.41672e-07
6.86521e-06 -4.41672e-07 0.000171362
0.00346595 6.53957e-05 -3.0573e-05
6.53957e-05 0.00137479 1.87043e-06
-3.0573e-05 1.87043e-06 0.00136728
0.00181847 3.42837e-06 1.70434e-05
3.42837e-06 0.000482946 -3.08777e-06
1.70434e-05 -3.08777e-06 0.000451199
0.00125076 3.3926e-05 -1.09041e-05
3.3926e-05 0.000257597 1.51876e-06
-1.09041e-05 1.51876e-06 0.000239769
0.00120273 3.7923e-05 6.73805e-06
3.7923e-05 0.000224621 -1.3587e-06
6.73805e-06 -1.3587e-06 0.000209462
0.00155804 -9.85981e-06 -5.72306e-07
-9.85981e-06 0.000108218 -4.90099e-08
-5.72306e-07 -4.90099e-08 3.3796e-05
0.00135841 7.80585e-06 -1.70098e-06
7.80585e-06 1.84646e-05 7.38294e-07
-1.70098e-06 7.38294e-07 -5.69831e-05
0.00149409 1.07364e-07 1.01916e-07
1.07364e-07 6.28122e-05 -5.73344e-08
1.01916e-07 -5.73344e-08 -1.13515e-05
0.00105615 3.45623e-05 -2.76686e-06
3.45623e-05 -8.02585e-05 -8.35015e-07
-2.76686e-06 -8.35015e-07 -0.000156318
0.00148843 3.5694e-05 1.36347e-07
3.5694e-05 9.08962e-05 -1.72425e-08
1.36347e-07 -1.72425e-08 1.10959e-05
0.001538 3.24778e-05 1.95413e-06
3.24778e-05 7.85307e-05 -3.3604e-07
1.95413e-06 -3.3604e-07 -5.1495e-06
0.000713376 2.8294e-05 -4.21619e-06
2.8294e-05 -0.000160472 -1.80368e-06
-4.21619e-06 -1.80368e-06 -0.000225899
0.00138966 4.96039e-05 4.34629e-07
4.96039e-05 0.000118934 9.63675e-09
4.34629e-07 9.63675e-09 4.50515e-05
0.00156139 5.44928e-05 2.25693e-06
5.44928e-05 0.000167369 1.80758e-06
2.25693e-06 1.80758e-06 8.95801e-05
0.000807036 1.01258e-05 -6.34116e-06
1.01258e-05 -1.61955e-05 -3.03513e-06
-6.34116e-06 -3.03513e-06 -5.53337e-05
0.000822275 2.90867e-05 -1.00824e-07
2.90867e-05 -7.22362e-05 9.27046e-08
-1.00824e-07 9.27046e-08 -0.000135922
0.00089692 4.48016e-05 2.36572e-06
4.48016e-05 -7.79792e-05 1.87531e-06
2.36572e-06 1.87531e-06 -0.000152677
0.00304824 -5.39972e-05 -2.74357e-05
-5.39972e-05 0.00115188 -2.95476e-06
-2.74357e-05 -2.95476e-06 0.00114934
0.000752394 -5.56692e-06 -1.40729e-07
-5.56692e-06 -3.03874e-05 -6.15955e-08
-1.40729e-07 -6.15955e-08 -6.55383e-05
0.000928651 2.30488e-05 2.27005e-06
2.30488e-05 1.01476e-05 1.4306e-06
2.27005e-06 1.4306e-06 -5.01216e-05
0.000690053 -2.40779e-05 4.37843e-06
-2.40779e-05 -5.76086e-05 2.88459e-06
4.37843e-06 2.88459e-06 -8.84956e-05
0.00280651 -5.24433e-05 -2.43862e-07
-5.24433e-05 0.00101649 1.03034e-07
-2.43862e-07 1.03034e-07 0.00101824
0.0027424 -4.98312e-05 2.08773e-05
-4.98312e-05 0.000966942 3.11822e-06
2.08773e-05 3.11822e-06 0.000972536
0.0014587 -1.58717e-05 -1.441e-06
-1.58717e-05 7.30907e-05 -1.75787e-07
-1.441e-06 -1.75787e-07 -3.3883e-06
0.00149402 -1.59831e-05 -2.90909e-07
-1.59831e-05 7.8792e-05 -2.94042e-07
-2.90909e-07 -2.94042e-07 3.31541e-06
0.00160661 -1.07099e-05 1.25865e-06
-1.07099e-05 0.000106603 -9.32329e-07
1.25865e-06 -9.32329e-07 3.24137e-05
0.00148287 1.28684e-05 -1.39659e-06
1.28684e-05 9.66952e-05 -1.34005e-08
-1.39659e-06 -1.34005e-08 1.75064e-05
0.00145034 2.13612e-06 -2.71652e-07
2.13612e-06 7.75367e-05 -2.17774e-07
-2.71652e-07 -2.17774e-07 -1.12299e-06
0.00149842 -1.07808e-06 1.33015e-07
-1.07808e-06 0.000104904 2.11986e-08
1.33015e-07 2.11986e-08 3.12884e-05
0.00137639 2.95412e-05 9.42808e-07
2.95412e-05 5.35136e-05 -5.77804e-07
9.42808e-07 -5.77804e-07 -2.38953e-05
0.00142999 2.5971e-05 2.57224e-07
2.5971e-05 8.63819e-05 1.36957e-07
2.57224e-07 1.36957e-07 1.03074e-05
0.00144778 2.00351e-05 -1.98017e-06
2.00351e-05 0.000113755 3.58658e-07
-1.98017e-06 3.58658e-07 4.14588e-05
0.00144779 2.63159e-05 2.19096e-06
2.63159e-05 8.71983e-05 9.05207e-07
2.19096e-06 9.05207e-07 1.31502e-05
0.00140041 2.5274e-05 9.93449e-08
2.5274e-05 8.83775e-05 5.97957e-08
9.93449e-08 5.97957e-08 1.64183e-05
0.000911542 1.81097e-05 -4.88183e-06
1.81097e-05 -0.000102795 6.67798e-07
-4.88183e-06 6.67798e-07 -0.000167466
0.00131039 4.08143e-06 2.26239e-06
4.08143e-06 4.34262e-05 3.14275e-09
2.26239e-06 3.14275e-09 -2.86015e-05
0.00112207 2.48021e-06 -2.71208e-08
2.48021e-06 7.61379e-06 4.95035e-08
-2.71208e-08 4.95035e-08 -5.49011e-05
0.000712686 4.2162e-06 -6.44444e-06
4.2162e-06 -8.05346e-05 1.89732e-06
-6.44444e-06 1.89732e-06 -0.000119633
0.0011165 -1.70687e-05 3.95569e-06
-1.70687e-05 1.39866e-05 -1.1055e-06
3.95569e-06 -1.1055e-06 -4.81554e-05
0.000717433 2.01228e-07 -8.07901e-08
2.01228e-07 -7.53443e-05 1.2007e-07
-8.07901e-08 1.2007e-07 -0.000114358
0.00353053 6.88926e-05 -3.14653e-05
6.88926e-05 0.00140989 1.386e-06
-3.14653e-05 1.386e-06 0.00140156
0.000764202 -1.19499e-05 8.50903e-06
-1.19499e-05 -4.9723e-05 -3.16901e-06
8.50903e-06 -3.16901e-06 -8.87112e-05
0.0024167 5.32331e-05 9.79446e-06
5.32331e-05 0.000848854 6.08728e-07
9.79446e-06 6.08728e-07 0.000834924
0.00126036 3.89379e-05 7.02291e-06
3.89379e-05 0.000264391 -1.27536e-06
7.02291e-06 -1.27536e-06 0.000246081
0.00161832 -1.74633e-05 -9.70735e-07
-1.74633e-05 0.000152415 9.61808e-09
-9.70735e-07 9.61808e-09 7.71902e-05
0.0014267 -5.37651e-06 -1.25404e-06
-5.37651e-06 6.08616e-05 7.99011e-08
-1.25404e-06 7.99011e-08 -1.26692e-05
0.00145874 -9.70944e-06 -1.42113e-07
-9.70944e-06 5.98354e-05 5.69834e-08
-1.42113e-07 5.69834e-08 -1.43842e-05
0.00128984 1.53968e-05 -2.29795e-06
1.53968e-05 2.42898e-05 1.61324e-07
-2.29795e-06 1.61324e-07 -4.85999e-05
0.00137172 7.33433e-06 4.1957e-07
7.33433e-06 2.71042e-05 -1.71809e-07
4.1957e-07 -1.71809e-07 -4.81205e-05
0.0014916 2.23224e-08 1.50913e-06
2.23224e-08 6.45552e-05 -8.48998e-07
1.50913e-06 -8.48998e-07 -9.78056e-06
0.000782029 2.49524e-05 -4.73896e-06
2.49524e-05 -0.000156171 -1.56599e-06
-4.73896e-06 -1.56599e-06 -0.000222199
0.0013757 3.90449e-05 -5.90319e-07
3.90449e-05 7.75358e-05 -1.17987e-07
-5.90319e-07 -1.17987e-07 2.66698e-06
0.00151531 3.59071e-05 2.64309e-06
3.59071e-05 0.0001061 -1.08621e-07
2.64309e-06 -1.08621e-07 2.71104e-05
0.000773755 1.76024e-05 -7.09738e-06
1.76024e-05 -4.32682e-05 -2.97876e-06
-7.09738e-06 -2.97876e-06 -8.45656e-05
0.000774894 2.97319e-05 -1.05829e-06
2.97319e-05 -0.000134063 -4.1429e-07
-1.05829e-06 -4.1429e-07 -0.000199758
0.00139681 5.01975e-05 2.63103e-06
5.01975e-05 0.000121809 1.19946e-06
2.63103e-06 1.19946e-06 4.78848e-05
0.00334537 -5.54752e-05 -3.20105e-05
-5.54752e-05 0.00130806 -2.71358e-06
-3.20105e-05 -2.71358e-06 0.00130241
0.00074673 7.84927e-06 -1.96271e-07
7.84927e-06 -4.14479e-05 1.00802e-07
-1.96271e-07 1.00802e-07 -8.08016e-05
0.000676899 2.65052e-05 2.67502e-06
2.65052e-05 -0.000146474 1.82477e-06
2.67502e-06 1.82477e-06 -0.000210955
0.00298921 -5.56932e-05 -3.2601e-07
-5.56932e-05 0.00112105 1.30482e-07
-3.2601e-07 1.30482e-07 0.0011191
0.00068086 -7.52242e-06 4.92042e-06
-7.52242e-06 -6.1164e-05 3.04198e-06
4.92042e-06 3.04198e-06 -9.65263e-05
0.00279252 -5.27609e-05 2.17125e-05
-5.27609e-05 0.00100696 2.95844e-06
2.17125e-05 2.95844e-06 0.00100936
0.00148765 -2.07207e-06 -1.39201e-06
-2.07207e-06 9.75244e-05 -2.62719e-07
-1.39201e-06 -2.62719e-07 2.02711e-05
0.00147299 -1.49617e-05 2.75435e-07
-1.49617e-05 7.98892e-05 1.37409e-07
2.75435e-07 1.37409e-07 3.35688e-06
0.00147547 -1.55797e-05 4.69621e-07
-1.55797e-05 7.10577e-05 -5.46513e-07
4.69621e-07 -5.46513e-07 -3.94249e-06
0.00146973 1.55864e-06 -2.42975e-06
1.55864e-06 0.000109788 3.13541e-08
-2.42975e-06 3.13541e-08 3.47326e-05
0.00149204 1.28146e-05 2.32032e-07
1.28146e-05 0.000103087 -6.08668e-08
2.32032e-07 -6.08668e-08 2.39563e-05
0.00148432 7.92137e-06 1.37433e-06
7.92137e-06 9.34585e-05 -3.19593e-08
1.37433e-06 -3.19593e-08 1.43243e-05
0.00142932 2.68743e-05 1.69796e-06
2.68743e-05 8.53807e-05 -2.95549e-07
1.69796e-06 -2.95549e-07 9.43094e-06
0.00144151 2.05474e-05 4.54212e-07
2.05474e-05 0.000110182 -4.57559e-08
4.54212e-07 -4.57559e-08 3.80466e-05
0.000911535 1.30421e-05 -4.84594e-06
1.30421e-05 -0.000108191 7.1326e-07
-4.84594e-06 7.1326e-07 -0.000173861
0.001522 2.71894e-05 2.59198e-06
2.71894e-05 0.00015065 1.71381e-07
2.59198e-06 1.71381e-07 7.95161e-05
0.00102284 1.96591e-05 -7.32111e-07
1.96591e-05 -4.66156e-05 1.6449e-07
-7.32111e-07 1.6449e-07 -0.000110471
0.000723142 8.28124e-06 -6.8822e-06
8.28124e-06 -7.85342e-05 1.66315e-06
-6.8822e-06 1.66315e-06 -0.000118624
0.00111734 1.529e-06 3.96875e-06
1.529e-06 5.12164e-06 -8.22181e-07
3.96875e-06 -8.22181e-07 -5.73755e-05
0.000716407 1.12526e-05 1.44343e-07
1.12526e-05 -7.87246e-05 4.34743e-08
1.44343e-07 4.34743e-08 -0.000118105
0.00360554 7.18998e-05 -3.34734e-05
7.18998e-05 0.00144985 8.94609e-07
-3.34734e-05 8.94609e-07 0.0014408
0.000725696 4.85575e-06 6.24857e-06
4.85575e-06 -7.20514e-05 -2.00397e-06
6.24857e-06 -2.00397e-06 -0.000110983
0.00355932 6.78928e-05 2.04648e-07
6.78928e-05 0.00142458 1.35265e-07
2.04648e-07 1.35265e-07 0.00141624
0.00139083 2.96884e-05 2.83105e-05
2.96884e-05 0.000333481 -1.96875e-06
2.83105e-05 -1.96875e-06 0.000314131
0.00157566 -1.22441e-05 -1.32382e-06
-1.22441e-05 0.000144054 -1.11508e-07
-1.32382e-06 -1.11508e-07 6.9708e-05
0.00150271 -1.74226e-05 3.79564e-07
-1.74226e-05 9.55535e-05 1.5367e-07
3.79564e-07 1.5367e-07 2.03739e-05
0.00131355 -4.93943e-06 -2.08076e-06
-4.93943e-06 3.57726e-05 -1.44859e-07
-2.08076e-06 -1.44859e-07 -3.61312e-05
0.00142747 -5.95115e-06 2.05542e-07
-5.95115e-06 6.11539e-05 -1.48004e-07
2.05542e-07 -1.48004e-07 -1.23678e-05
0.00135641 -9.58082e-06 1.43167e-06
-9.58082e-06 1.0087e-05 1.04519e-07
1.43167e-06 1.04519e-07 -6.39407e-05
0.00112297 1.37453e-05 -4.22281e-06
1.37453e-05 9.71846e-08 -8.9561e-07
-4.22281e-06 -8.9561e-07 -6.36501e-05
0.00132708 1.5449e-05 -3.20675e-08
1.5449e-05 4.15844e-05 1.0161e-07
-3.20675e-08 1.0161e-07 -3.13777e-05
0.0013889 6.90447e-06 1.51682e-06
6.90447e-06 3.74397e-05 -8.16658e-07
1.51682e-06 -8.16658e-07 -3.7543e-05
0.000746584 1.81543e-05 -7.59304e-06
1.81543e-05 -6.50973e-05 -2.83562e-06
-7.59304e-06 -2.83562e-06 -0.000106438
0.000972196 2.77172e-05 -1.23057e-06
2.77172e-05 -6.30012e-05 -2.95975e-07
-1.23057e-06 -2.95975e-07 -0.00012838
0.00169144 4.33552e-05 2.20203e-06
4.33552e-05 0.00023338 4.77233e-07
2.20203e-06 4.77233e-07 0.000159725
0.00359328 -5.69921e-05 -3.54145e-05
-5.69921e-05 0.00143627 -2.34048e-06
-3.54145e-05 -2.34048e-06 0.00142862
0.000740087 1.6207e-05 -8.43867e-08
1.6207e-05 -5.67864e-05 1.45898e-07
-8.43867e-08 1.45898e-07 -9.82729e-05
0.00082995 3.11533e-05 2.5264e-06
3.11533e-05 -0.000110807 1.18485e-06
2.5264e-06 1.18485e-06 -0.000176762
0.00326215 -5.83747e-05 -5.67807e-07
-5.83747e-05 0.00126613 1.70127e-07
-5.67807e-07 1.70127e-07 0.00126089
0.000689541 5.53713e-06 5.55198e-06
5.53713e-06 -6.52453e-05 3.31101e-06
5.55198e-06 3.31101e-06 -0.00010481
0.00293367 -5.61304e-05 2.30857e-05
-5.61304e-05 0.00109171 2.8544e-06
2.30857e-05 2.8544e-06 0.00109047
0.00147776 2.29254e-06 -2.00391e-06
2.29254e-06 0.00011611 -5.0449e-07
-2.00391e-06 -5.0449e-07 4.24523e-05
0.00147892 -4.50858e-06 1.58606e-07
-4.50858e-06 9.47629e-05 1.36959e-07
1.58606e-07 1.36959e-07 1.76988e-05
0.00149264 -1.46147e-05 1.84254e-06
-1.46147e-05 8.94222e-05 4.87714e-07
1.84254e-06 4.87714e-07 1.28073e-05
0.000916682 -1.04166e-05 -5.38192e-06
-1.04166e-05 -0.000114011 1.82347e-07
-5.38192e-06 1.82347e-07 -0.00018133
0.00148385 8.37107e-06 4.69278e-07
8.37107e-06 0.000117392 1.03513e-07
4.69278e-07 1.03513e-07 4.22434e-05
0.00149082 1.29652e-05 1.99249e-06
1.29652e-05 0.000104471 -2.23296e-07
1.99249e-06 -2.23296e-07 2.54096e-05
0.0014378 2.07442e-05 2.78171e-06
2.07442e-05 0.000107901 -1.48538e-07
2.78171e-06 -1.48538e-07 3.5918e-05
0.000920159 1.31991e-05 -5.44903e-07
1.31991e-05 -0.000103429 1.32006e-07
-5.44903e-07 1.32006e-07 -0.000168839
0.00071609 1.19246e-05 -7.18131e-06
1.19246e-05 -8.77922e-05 1.14754e-06
-7.18131e-06 1.14754e-06 -0.000128317
0.00113115 2.21689e-05 3.34018e-06
2.21689e-05 8.07185e-06 -5.29735e-07
3.34018e-06 -5.29735e-07 -5.49913e-05
0.000725182 1.69344e-05 2.04177e-07
1.69344e-05 -7.73937e-05 6.83563e-08
2.04177e-07 6.83563e-08 -0.000117721
0.00368832 7.58436e-05 -3.54209e-05
7.58436e-05 0.00149206 4.26465e-07
-3.54209e-05 4.26465e-07 0.00148234
0.00072227 1.91713e-05 6.39943e-06
1.91713e-05 -7.61226e-05 -1.75971e-06
6.39943e-06 -1.75971e-06 -0.000115609
0.00363819 7.11287e-05 3.84665e-07
7.11287e-05 0.00146591 1.32788e-07
3.84665e-07 1.32788e-07 0.00145688
0.00360359 6.70182e-05 3.46922e-05
6.70182e-05 0.00144669 -1.07679e-06
3.46922e-05 -1.07679e-06 0.00143833
0.0013657 -9.30483e-06 -2.31071e-06
-9.30483e-06 6.42087e-05 -5.07414e-07
-2.31071e-06 -5.07414e-07 -8.65211e-06
0.00147869 -1.3179e-05 1.72299e-07
-1.3179e-05 9.53266e-05 1.89686e-07
1.72299e-07 1.89686e-07 2.08432e-05
0.00137656 -1.71494e-05 1.3146e-06
-1.71494e-05 3.34011e-05 2.24271e-07
1.3146e-06 2.24271e-07 -4.16986e-05
0.00112234 -5.86343e-06 -4.17579e-06
-5.86343e-06 -3.12024e-06 -1.03878e-06
-4.17579e-06 -1.03878e-06 -6.64275e-05
0.0013326 -5.28766e-06 1.35618e-07
-5.28766e-06 4.48058e-05 -1.11444e-07
1.35618e-07 -1.11444e-07 -2.71392e-05
0.00142659 -6.49839e-06 1.19153e-06
-6.49839e-06 6.0692e-05 -4.6892e-07
1.19153e-06 -4.6892e-07 -1.28263e-05
0.0007222 1.01778e-05 -7.61397e-06
1.01778e-05 -8.12785e-05 -2.59994e-06
-7.61397e-06 -2.59994e-06 -0.000121548
0.00114284 1.32661e-05 -8.2304e-08
1.32661e-05 9.93781e-06 1.22081e-07
-8.2304e-08 1.22081e-07 -5.38869e-05
0.00136297 1.54327e-05 2.46597e-06
1.54327e-05 5.82446e-05 1.17894e-07
2.46597e-06 1.17894e-07 -1.4795e-05
0.0037294 -5.94229e-05 -3.72751e-05
-5.94229e-05 0.00150693 -1.88425e-06
-3.72751e-05 -1.88425e-06 0.00149832
0.000732925 1.74458e-05 -1.04454e-08
1.74458e-05 -6.99885e-05 1.63754e-07
-1.04454e-08 1.63754e-07 -0.000111465
0.00117343 3.07448e-05 3.05255e-06
3.07448e-05 3.57778e-05 1.11088e-06
3.05255e-06 1.11088e-06 -2.9003e-05
0.00350737 -5.96512e-05 -4.77223e-07
-5.96512e-05 0.00139349 1.73783e-07
-4.77223e-07 1.73783e-07 0.00138605
0.000710768 1.4668e-05 6.41987e-06
1.4668e-05 -6.83806e-05 3.23221e-06
6.41987e-06 3.23221e-06 -0.000110024
0.00316449 -5.97026e-05 2.57769e-05
-5.97026e-05 0.00121719 2.75062e-06
2.57769e-05 2.75062e-06 0.00121245
0.00115604 -4.25527e-06 -4.66268e-06
-4.25527e-06 6.64293e-06 -6.53037e-07
-4.66268e-06 -6.53037e-07 -5.86157e-05
0.00137635 -2.35725e-06 4.46746e-07
-2.35725e-06 6.49358e-05 -7.10708e-08
4.46746e-07 -7.10708e-08 -9.7899e-06
0.00147367 -7.87618e-06 1.94497e-06
-7.87618e-06 9.34945e-05 7.89695e-07
1.94497e-06 7.89695e-07 1.66283e-05
0.000702574 7.836e-06 -7.45308e-06
7.836e-06 -9.89801e-05 1.76802e-07
-7.45308e-06 1.76802e-07 -0.000139168
0.000937031 -2.89256e-06 -6.64999e-07
-2.89256e-06 -0.000104031 2.76957e-07
-6.64999e-07 2.76957e-07 -0.000171074
0.00150061 1.45159e-05 3.29134e-06
1.45159e-05 0.00012636 -2.24275e-07
3.29134e-06 -2.24275e-07 5.11003e-05
0.000928611 1.36035e-05 3.39587e-06
1.36035e-05 -9.88828e-05 -3.21733e-07
3.39587e-06 -3.21733e-07 -0.000164007
0.000723517 1.40398e-05 1.17894e-07
1.40398e-05 -8.38009e-05 1.54794e-07
1.17894e-07 1.54794e-07 -0.000124531
0.0038035 8.04346e-05 -3.71644e-05
8.04346e-05 0.00154796 -4.49332e-08
-3.71644e-05 -4.49332e-08 0.0015377
0.000728525 2.4147e-05 6.82995e-06
2.4147e-05 -7.55989e-05 -1.46176e-06
6.82995e-06 -1.46176e-06 -0.000116234
0.00373351 7.48186e-05 8.70427e-07
7.48186e-05 0.00151374 1.57512e-07
8.70427e-07 1.57512e-07 0.00150408
0.00366543 6.94017e-05 3.72366e-05
6.94017e-05 0.00147927 -6.19424e-07
3.72366e-05 -6.19424e-07 0.00147035
0.00114123 -1.00689e-05 -4.52761e-06
-1.00689e-05 4.0483e-06 -1.174e-06
-4.52761e-06 -1.174e-06 -6.00585e-05
0.00131915 -1.06186e-05 -6.28533e-08
-1.06186e-05 4.01619e-05 -5.16037e-08
-6.28533e-08 -5.16037e-08 -3.30204e-05
0.00138837 -1.41878e-05 1.56435e-06
-1.41878e-05 4.99117e-05 2.57592e-07
1.56435e-06 2.57592e-07 -2.47269e-05
0.00193683 -1.21453e-05 -2.07339e-05
-1.21453e-05 0.000526041 -1.77673e-06
-2.07339e-05 -1.77673e-06 0.000492856
0.00114498 -6.70294e-06 1.11694e-07
-6.70294e-06 7.95755e-06 -1.29128e-09
1.11694e-07 -1.29128e-09 -5.54623e-05
0.00135573 -5.85459e-06 2.31704e-06
-5.85459e-06 5.58378e-05 -4.90449e-08
2.31704e-06 -4.90449e-08 -1.61575e-05
0.00377529 -6.28478e-05 -3.82012e-05
-6.28478e-05 0.00153192 -1.38355e-06
-3.82012e-05 -1.38355e-06 0.00152294
0.000727883 1.08474e-05 -1.08045e-08
1.08474e-05 -7.80647e-05 1.46941e-07
-1.08045e-08 1.46941e-07 -0.000118413
0.00116398 1.20287e-05 4.37858e-06
1.20287e-05 2.04607e-05 1.21513e-06
4.37858e-06 1.21513e-06 -4.34875e-05
0.00366923 -6.08088e-05 -3.34702e-07
-6.08088e-05 0.00147698 1.72237e-07
-3.34702e-07 1.72237e-07 0.00146842
0.000720901 1.70245e-05 7.10257e-06
1.70245e-05 -7.42059e-05 3.06339e-06
7.10257e-06 3.06339e-06 -0.00011582
0.00342714 -6.21785e-05 3.00555e-05
-6.21785e-05 0.00135352 2.50205e-06
3.00555e-05 2.50205e-06 0.00134627
0.00074311 3.34605e-06 -1.01757e-05
3.34605e-06 -7.86803e-05 -1.10713e-06
-1.01757e-05 -1.10713e-06 -0.000118923
0.00104743 -6.77562e-06 8.45961e-08
-6.77562e-06 -4.80473e-05 2.26703e-07
8.45961e-08 2.26703e-07 -0.000113982
0.0012653 -6.71791e-06 3.1257e-06
-6.71791e-06 8.81673e-06 5.29716e-07
3.1257e-06 5.29716e-07 -6.69008e-05
0.00390432 7.64233e-06 -3.74274e-05
7.64233e-06 0.00159321 -5.13079e-07
-3.74274e-05 -5.13079e-07 0.00158498
0.000718218 6.75359e-06 6.24554e-08
6.75359e-06 -9.12319e-05 1.38566e-07
6.24554e-08 1.38566e-07 -0.000131601
0.000947841 4.32743e-06 3.8037e-06
4.32743e-06 -9.86224e-05 6.39769e-08
3.8037e-06 6.39769e-08 -0.000165408
0.000731162 2.03428e-05 7.27908e-06
2.03428e-05 -7.94604e-05 -8.11813e-07
7.27908e-06 -8.11813e-07 -0.000120627
0.00385107 7.83222e-05 1.73936e-06
7.83222e-05 0.00157078 2.15743e-07
1.73936e-06 2.15743e-07 0.00156071
0.00377438 7.22323e-05 4.05064e-05
7.22323e-05 0.00153325 -1.45821e-07
4.05064e-05 -1.45821e-07 0.00152377
0.00198688 -2.33133e-05 -2.42335e-05
-2.33133e-05 0.000547989 -1.71094e-06
-2.42335e-05 -1.71094e-06 0.000514351
0.00115277 -8.89279e-06 -6.00862e-08
-8.89279e-06 9.51933e-06 1.49108e-08
-6.00862e-08 1.49108e-08 -5.45022e-05
0.00127173 -1.18e-05 2.2789e-06
-1.18e-05 1.5709e-05 4.07488e-07
2.2789e-06 4.07488e-07 -5.77924e-05
0.00371639 -8.8332e-05 -1.04489e-05
-8.8332e-05 0.00150905 -5.91451e-07
-1.04489e-05 -5.91451e-07 0.00149776
0.00072277 -1.22483e-06 1.44507e-08
-1.22483e-06 -8.21777e-05 5.8422e-08
1.44507e-08 5.8422e-08 -0.000121857
0.00117005 -6.20852e-06 4.37974e-06
-6.20852e-06 2.0118e-05 1.01536e-06
4.37974e-06 1.01536e-06 -4.33524e-05
0.00373792 -6.30671e-05 -2.46692e-07
-6.30671e-05 0.00151314 1.6787e-07
-2.46692e-07 1.6787e-07 0.00150414
0.000728687 1.19309e-05 7.65448e-06
1.19309e-05 -7.72626e-05 2.81777e-06
7.65448e-06 2.81777e-06 -0.000117678
0.00360405 -6.30199e-05 3.36051e-05
-6.30199e-05 0.00144481 2.13204e-06
3.36051e-05 2.13204e-06 0.00143625
0.0014499 -9.62271e-06 -3.92232e-05
-9.62271e-06 0.000360486 -3.88613e-07
-3.92232e-05 -3.88613e-07 0.000340626
0.0013523 -4.5726e-06 -8.72801e-06
-4.5726e-06 0.000226813 2.71487e-07
-8.72801e-06 2.71487e-07 0.00019012
0.000946621 -5.4377e-06 4.74019e-06
-5.4377e-06 -9.88527e-05 8.99055e-07
4.74019e-06 8.99055e-07 -0.000165418
0.00390813 8.7903e-06 1.51436e-06
8.7903e-06 0.00159737 -2.71428e-07
1.51436e-06 -2.71428e-07 0.00158787
0.000726475 5.10024e-06 7.68029e-06
5.10024e-06 -8.69066e-05 1.03991e-07
7.68029e-06 1.03991e-07 -0.000127358
0.00388942 7.43989e-05 4.11529e-05
7.43989e-05 0.00158934 3.36988e-07
4.11529e-05 3.36988e-07 0.00157944
0.00137738 -4.57257e-05 -6.3933e-06
-4.57257e-05 0.000331671 -9.87883e-07
-6.3933e-06 -9.87883e-07 0.000309123
0.00134755 -6.52034e-06 -8.21422e-06
-6.52034e-06 0.000227763 1.57758e-07
-8.21422e-06 1.57758e-07 0.000191395
0.00116302 -1.02477e-05 4.34482e-06
-1.02477e-05 1.4486e-05 1.13377e-06
4.34482e-06 1.13377e-06 -4.95315e-05
0.00254659 -5.35251e-05 1.5107e-05
-5.35251e-05 0.000918086 -1.91528e-08
1.5107e-05 -1.91528e-08 0.000902427
0.000737972 3.80177e-06 7.83996e-06
3.80177e-06 -7.54643e-05 2.4977e-06
7.83996e-06 2.4977e-06 -0.000115012
0.0037014 -6.41044e-05 3.59058e-05
-6.41044e-05 0.00149496 1.68621e-06
3.59058e-05 1.68621e-06 0.0014859
0.00391948 -5.7904e-05 -9.57922e-07
-5.7904e-05 0.00160155 1.88856e-07
-9.57922e-07 1.88856e-07 0.00159278
0.000718301 -3.77756e-07 7.8629e-06
-3.77756e-07 -9.11714e-05 1.22534e-06
7.8629e-06 1.22534e-06 -0.000131071
0.00393055 3.14594e-05 4.05814e-05
3.14594e-05 0.00160862 -3.56274e-07
4.05814e-05 -3.56274e-07 0.00159864
0.00261038 -5.81512e-05 1.57435e-05
-5.81512e-05 0.000948409 -1.05001e-07
1.57435e-05 -1.05001e-07 0.00093236
0.0007354 -7.00749e-07 7.72667e-06
-7.00749e-07 -7.92033e-05 2.08043e-06
7.72667e-06 2.08043e-06 -0.000118779
0.00374576 -6.71431e-05 3.68934e-05
-6.71431e-05 0.00151839 1.20348e-06
3.68934e-05 1.20348e-06 0.00150908
0.00388352 -6.90415e-05 3.83546e-05
-6.90415e-05 0.00158477 1.44137e-07
3.83546e-05 1.44137e-07 0.00157544
0.00380953 -7.22543e-05 3.7413e-05
-7.22543e-05 0.00155009 6.92682e-07
3.7413e-05 6.92682e-07 0.00154042
