# vtk DataFile Version 2.0
Wound Healing Simulation
ASCII
DATASET UNSTRUCTURED_GRID
POINTS 3012 float
69.9759 18.75 4
67.2507 60.3285 4
69.976 18.75 2
73.0099 25.446 4
71.1327 20.9142 4
68.6801 16.6661 4
67.8269 19.9175 3.99126
67.2507 60.3286 2
71.1327 54.0858 4
68.6801 58.3339 4
65.6939 62.2254 4
65.3133 59.0087 3.99251
74.6784 42.3946 4
73.7221 47.2057 4
69.9759 18.75 0
73.0099 25.446 2
68.6801 16.6661 2
71.1327 20.9142 2
67.8269 19.9173 2
74.6792 32.6053 4
73.7222 27.7943 4
72.1454 23.1494 4
70.6166 26.2163 3.98954
68.8875 21.9504 3.99064
67.2507 14.6715 4
66.6382 17.9633 3.99198
65.8046 21.0118 3.98698
67.2507 60.3285 0
71.1327 54.0858 2
68.6801 58.3339 2
65.694 62.2255 2
65.3134 59.0089 2
72.1454 51.8506 4
69.9759 56.25 4
68.8385 53.1207 3.99071
64.0165 64.0165 4
66.6119 57.1421 3.99211
63.8868 60.7722 3.99291
63.5051 57.7878 3.98776
60.3285 67.2507 4
74.6792 42.3947 2
73.7222 47.2057 2
74.9194 39.9526 4
74.2788 44.8158 4
72.1711 42.0869 3.98927
73.0099 49.554 4
71.2522 46.6015 3.98977
73.0099 25.446 0
71.1327 20.9142 0
68.6801 16.6661 0
67.8269 19.9175 0.00874148
74.6792 32.6053 2
73.7222 27.7943 2
67.2508 14.6715 2
72.1455 23.1494 2
70.6166 26.2162 2
66.6382 17.9631 2
68.8875 21.9503 2
65.8045 21.0118 2
74.9197 35.0474 4
74.2794 30.1841 4
72.1874 32.9409 3.98933
71.2807 28.4277 3.98926
69.8178 24.0534 3.99008
68.3557 26.9437 3.98549
66.7709 22.9218 3.98666
65.694 12.7746 4
65.3247 16.0957 3.99255
64.72 19.1793 3.98739
63.9006 22.0158 3.98521
71.1327 54.0858 0
65.6939 62.2254 0
68.6801 58.3339 0
65.3133 59.0087 0.00748536
72.1455 51.8506 2
69.9759 56.25 2
68.8385 53.1208 2
64.0165 64.0165 2
66.6119 57.1422 2
63.8868 60.7724 2
63.5052 57.7879 2
62.2254 65.694 4
58.8937 65.418 3.99316
69.7715 50.995 3.99018
67.7853 55.1758 3.99148
66.6586 52.2209 3.98687
62.3368 62.4325 3.99312
64.6672 56.0467 3.98769
62.2059 59.4202 3.98825
61.8321 56.7033 3.98607
58.3339 68.6801 4
60.3285 67.2508 2
73.7221 47.2057 0
74.6784 42.3946 0
74.9197 39.9526 2
74.2794 44.8159 2
72.171 42.0868 2
73.0099 49.554 2
71.2522 46.6015 2
75 37.5 4
72.4082 39.8025 3.98907
71.7855 44.3552 3.98959
69.8137 41.7923 3.9851
70.578 48.8182 3.98989
68.9223 46.0209 3.98564
74.6792 32.6053 0
73.7222 27.7943 0
67.2507 14.6715 0
72.1454 23.1494 0
70.6166 26.2163 0.0104639
68.8875 21.9504 0.00936083
66.6382 17.9633 0.00801861
65.8046 21.0118 0.0130204
74.9197 35.0474 2
74.2794 30.1841 2
72.1874 32.9409 2
71.2807 28.4277 2
65.694 12.7745 2
65.3247 16.0956 2
69.8178 24.0533 2
68.3557 26.9437 2
64.72 19.1793 2
66.7708 22.9218 2
63.9005 22.0159 2
72.4159 35.2225 3.98913
71.8065 30.6733 3.98941
69.849 33.2648 3.98477
68.975 29.0319 3.98487
67.6201 24.9025 3.98619
66.2103 27.6228 3.9837
64.0165 10.9835 4
64.7715 23.813 3.98496
63.8909 14.3209 3.99282
63.5177 17.4303 3.98793
62.9186 20.2989 3.98551
62.1123 22.9187 3.98438
60.6842 11.0932 3.99293
57.6124 11.4371 3.98842
72.1454 51.8506 0
69.9759 56.25 0
68.8385 53.1207 0.00928594
64.0165 64.0165 0
63.8868 60.7722 0.0070856
66.6119 57.1421 0.00788865
63.5051 57.7878 0.0122374
62.2255 65.694 2
58.8938 65.4181 2
69.7715 50.9951 2
67.7853 55.1759 2
66.6586 52.2208 2
62.3368 62.4327 2
64.6672 56.0468 2
62.2059 59.4205 2
61.8322 56.7034 2
60.6688 63.9814 3.99312
57.0241 66.7381 3.99324
57.5576 63.7005 3.98877
67.5172 50.1865 3.98638
65.71 54.1869 3.98743
64.554 51.4031 3.98491
60.7746 60.9518 3.98871
62.8318 55.0893 3.98623
60.6647 58.1808 3.98611
60.3405 55.8126 3.98526
56.25 69.9759 4
58.3339 68.6801 2
60.3285 67.2507 0
58.921 9.65193 3.99299
62.2254 9.30607 4
73.0099 49.554 0
74.2788 44.8158 0
71.2522 46.6015 0.0102329
72.1711 42.0869 0.0107286
74.9194 39.9526 0
75 37.5 2
72.4081 39.8023 2
71.7855 44.3552 2
69.8136 41.7922 2
70.578 48.8182 2
68.9223 46.0207 2
72.4915 37.5113 3.98906
70.0503 39.6583 3.98455
69.4403 43.9118 3.98544
67.6145 41.5023 3.98322
68.276 48.115 3.98598
66.7276 45.4498 3.984
74.9197 35.0474 0
74.2794 30.1841 0
72.1874 32.9409 0.0106719
71.2807 28.4277 0.0107394
65.694 12.7746 0
65.3247 16.0957 0.00745027
69.8178 24.0534 0.0099241
68.3557 26.9437 0.0145121
66.7709 22.9218 0.0133383
64.72 19.1793 0.0126103
63.9006 22.0158 0.0147917
72.4158 35.2225 2
71.8065 30.6733 2
69.8489 33.2649 2
68.9749 29.032 2
64.0165 10.9835 2
63.8909 14.3208 2
63.5177 17.4302 2
67.62 24.9025 2
66.2101 27.6227 2
62.9185 20.2989 2
64.7713 23.813 2
62.1121 22.9189 2
60.6842 11.0931 2
57.6124 11.4369 2
70.0669 35.3898 3.98468
69.4761 31.1446 3.98479
67.6715 33.5855 3.98284
66.7879 29.6132 3.98305
65.5397 25.6848 3.98444
64.1689 28.2397 3.98305
62.3422 12.6499 3.9929
62.8783 24.6152 3.9843
62.2014 15.7689 3.9883
61.8223 18.6627 3.98604
61.2342 21.3154 3.98433
60.4507 23.6991 3.9842
59.2468 12.7667 3.98844
55.874 10.225 3.98856
56.4064 13.0994 3.98568
69.7715 50.995 0.00982066
62.2254 65.694 0
58.8937 65.418 0.00684105
67.7853 55.1758 0.00851946
66.6586 52.2209 0.0131299
62.3368 62.4325 0.00688449
62.2059 59.4202 0.0117499
64.6672 56.0467 0.0123125
61.8321 56.7033 0.0139302
60.6688 63.9816 2
57.0242 66.7383 2
57.5576 63.7007 2
67.5173 50.1864 2
65.71 54.1869 2
64.554 51.4031 2
60.7747 60.9521 2
62.8319 55.0894 2
60.6649 58.1809 2
60.3406 55.8126 2
55.0696 67.9345 3.99333
59.2199 62.3776 3.98877
55.8035 64.9164 3.98883
56.3279 62.1016 3.9862
65.3492 49.4236 3.98454
63.7205 53.3124 3.98574
62.4653 50.6751 3.98389
59.337 59.5754 3.98642
61.0931 54.3355 3.98547
59.2983 57.0383 3.98483
59.257 55.2125 3.9854
48.1017 68.5812 3.98942
50.9477 69.9333 3.99352
54.0858 71.1327 4
56.25 69.976 2
58.3339 68.6801 0
57.0581 8.33231 3.99312
60.3285 7.74928 4
58.9211 9.6518 2
62.2255 9.30602 2
70.578 48.8182 0.0101064
71.7855 44.3552 0.0104068
68.9223 46.0209 0.0143615
69.8137 41.7923 0.0148977
72.4082 39.8025 0.0109267
75 37.5 0
72.4914 37.5113 2
70.0502 39.6582 2
69.4402 43.9117 2
67.6143 41.5023 2
68.276 48.1149 2
66.7274 45.4498 2
70.1383 37.5208 3.98444
67.851 39.5143 3.9828
67.2412 43.4773 3.98362
65.5807 41.2165 3.98262
66.0865 47.4306 3.98431
64.6777 44.8618 3.98339
72.4159 35.2225 0.0108678
71.8065 30.6733 0.0105883
69.849 33.2648 0.0152292
68.975 29.0319 0.0151272
64.0165 10.9835 0
63.8909 14.3209 0.00718434
63.5177 17.4303 0.0120692
67.6201 24.9025 0.0138114
66.2103 27.6228 0.0162976
64.7715 23.813 0.0150377
62.9186 20.2989 0.0144934
62.1123 22.9187 0.0156202
60.6842 11.0932 0.00706566
57.6124 11.4371 0.0115818
70.0667 35.3898 2
69.476 31.1447 2
67.6713 33.5854 2
66.7877 29.6132 2
62.3422 12.6497 2
62.2015 15.7687 2
61.8224 18.6627 2
65.5395 25.6848 2
64.1685 28.2396 2
61.2341 21.3156 2
62.878 24.6153 2
60.4503 23.6994 2
59.2469 12.7665 2
56.4065 13.0992 2
55.874 10.2247 2
67.8868 35.5444 3.98293
67.2813 31.6148 3.98292
65.7207 33.9205 3.98224
64.6856 30.1795 3.98204
63.5605 26.3951 3.9838
62.2865 28.7586 3.98335
60.7764 14.2094 3.98844
61.0726 25.3118 3.98419
60.618 17.1073 3.98637
60.2348 19.7902 3.98486
59.6824 22.2287 3.98355
59.0078 24.2894 3.9845
54.0369 9.12916 3.98889
57.9122 14.3159 3.98603
54.7872 12.0007 3.98552
55.3145 14.6302 3.98455
67.5172 50.1865 0.0136156
57.0241 66.7381 0.00676432
60.6688 63.9814 0.00687551
57.5576 63.7005 0.0112284
65.71 54.1869 0.0125673
64.554 51.4031 0.0150924
60.7746 60.9518 0.0112864
60.6647 58.1808 0.0138862
62.8318 55.0893 0.0137724
60.3405 55.8126 0.0147402
55.0697 67.9347 2
59.2199 62.3779 2
55.8035 64.9167 2
56.328 62.1019 2
65.3491 49.4235 2
63.7206 53.3124 2
62.4652 50.6749 2
59.3372 59.5756 2
61.0932 54.3354 2
59.2984 57.0384 2
59.2572 55.2125 2
53.0416 69.0019 3.99343
53.9654 66.0175 3.98893
57.8829 60.8852 3.98634
54.6837 63.2154 3.9862
55.2134 60.6296 3.98491
63.2195 48.6813 3.98378
61.762 52.6004 3.98482
60.3043 50.0466 3.9833
58.0237 58.2828 3.98521
59.346 53.9772 3.9848
58.1387 55.8422 3.98369
50.108 67.8596 3.98924
47.4622 66.5842 3.98654
46.0557 69.1603 3.98959
48.1018 68.5815 2
48.8021 70.7243 3.99359
50.9478 69.9335 2
51.8506 72.1454 4
54.0858 71.1327 2
56.25 69.9759 0
55.1024 7.13727 3.99326
58.3339 6.31992 4
57.0582 8.33215 2
60.3286 7.74926 2
58.921 9.65193 0.00700961
62.2254 9.30607 0
68.276 48.115 0.0140206
69.4403 43.9118 0.014558
66.7276 45.4498 0.0160039
67.6145 41.5023 0.0167769
70.0503 39.6583 0.0154483
72.4915 37.5113 0.0109385
70.1381 37.5208 2
67.8507 39.5143 2
67.2411 43.4773 2
65.5804 41.2165 2
66.0864 47.4306 2
64.6775 44.8618 2
67.947 37.5214 3.98257
65.8118 39.3733 3.98244
65.2012 43.0354 3.98285
63.7877 40.9377 3.98266
63.9912 46.7336 3.98365
62.8401 44.2325 3.9836
70.0669 35.3898 0.0153189
69.4761 31.1446 0.0152147
67.6715 33.5855 0.017164
66.7879 29.6132 0.016954
62.3422 12.6499 0.00709535
62.2014 15.7689 0.0116962
61.8223 18.6627 0.0139613
65.5397 25.6848 0.0155607
64.1689 28.2397 0.0169459
62.8783 24.6152 0.0157012
61.2342 21.3154 0.0156706
60.4507 23.6991 0.0157952
59.2468 12.7667 0.011562
56.4064 13.0994 0.0143152
55.874 10.225 0.011436
67.8865 35.5443 2
67.281 31.6147 2
65.7204 33.9203 2
64.6852 30.1793 2
60.7765 14.2093 2
60.6181 17.1073 2
60.2349 19.7904 2
63.5602 26.3951 2
62.286 28.7586 2
59.6822 22.2291 2
61.0722 25.312 2
59.0074 24.2898 2
57.9122 14.3158 2
55.3146 14.6302 2
54.037 9.12884 2
54.7872 12.0004 2
65.8999 35.663 3.9822
65.2092 32.1446 3.98188
64.3125 34.2426 3.98131
62.6248 30.6201 3.98218
61.6803 27.0493 3.98373
60.8847 29.1192 3.98457
59.3135 15.6509 3.98628
59.3642 25.7677 3.985
59.131 18.3317 3.98551
58.756 20.825 3.98377
58.3104 23.0603 3.98295
58.0005 24.6327 3.98534
52.1116 8.14818 3.98922
53.0579 11.0081 3.98576
56.6791 15.7241 3.98517
53.8108 13.668 3.98393
54.3787 15.9815 3.98424
55.0696 67.9345 0.00666992
65.3492 49.4236 0.0154626
55.8035 64.9164 0.0111701
59.2199 62.3776 0.0112286
56.3279 62.1016 0.0138025
63.7205 53.3124 0.0142623
62.4653 50.6751 0.0161099
59.337 59.5754 0.0135771
59.2983 57.0383 0.0151749
61.0931 54.3355 0.0145291
59.257 55.2125 0.0146001
53.0417 69.0021 2
53.9655 66.0178 2
57.8829 60.8854 2
54.6837 63.2157 2
55.2135 60.6298 2
63.2193 48.6812 2
61.7621 52.6003 2
60.3042 50.0463 2
58.0239 58.283 2
59.3462 53.9771 2
58.1389 55.8422 2
52.0689 67.0033 3.98907
52.9525 64.2241 3.98619
56.6517 59.5063 3.98526
53.6818 61.6317 3.98482
54.2628 59.3364 3.98423
61.0273 47.9052 3.98335
59.7356 52.1346 3.98443
58.0628 49.6484 3.98379
56.7844 57.0131 3.98381
57.1394 54.1551 3.98328
50.1081 67.86 2
49.3358 65.9247 3.98634
47.4622 66.5846 2
46.8915 64.7395 3.98479
45.5574 67.1014 3.98677
43.9731 69.5928 3.98971
46.0558 69.1607 2
46.609 71.3686 3.99366
48.1017 68.5812 0.0105802
48.8022 70.7246 2
49.554 73.0099 4
50.9477 69.9333 0.00648144
51.8506 72.1455 2
54.0858 71.1327 0
53.0635 6.06903 3.99345
55.1025 7.13707 2
56.25 5.02411 4
58.3339 6.3199 2
57.0581 8.33231 0.00688266
60.3285 7.74928 0
66.0865 47.4306 0.015688
67.2412 43.4773 0.0163782
64.6777 44.8618 0.0166136
65.5807 41.2165 0.0173775
67.851 39.5143 0.0172027
70.1383 37.5208 0.0155558
67.9467 37.5213 2
65.8114 39.3734 2
65.2009 43.0354 2
63.7873 40.9377 2
63.991 46.7335 2
62.8398 44.2324 2
65.9143 37.5013 3.9821
63.9318 39.2708 3.98251
63.3616 42.5622 3.98273
62.4694 40.7068 3.98209
62.0014 45.9396 3.98371
61.4909 43.7011 3.98479
67.8868 35.5444 0.0170719
67.2813 31.6148 0.0170806
65.7207 33.9205 0.0177617
64.6856 30.1795 0.0179606
60.7764 14.2094 0.0115637
60.618 17.1073 0.0136287
60.2348 19.7902 0.0151381
63.5605 26.3951 0.0161989
62.2865 28.7586 0.0166478
61.0726 25.3118 0.0158058
59.6824 22.2287 0.0164485
59.0078 24.2894 0.0155002
57.9122 14.3159 0.0139715
55.3145 14.6302 0.015452
54.0369 9.12916 0.0111122
54.7872 12.0007 0.0144818
65.8996 35.6629 2
65.2088 32.1444 2
64.3121 34.2424 2
62.6242 30.62 2
59.3136 15.6508 2
59.1311 18.3318 2
58.756 20.8253 2
61.6799 27.0495 2
60.8842 29.1192 2
58.3101 23.0608 2
59.3636 25.768 2
58 24.6333 2
56.6792 15.7241 2
54.3788 15.9815 2
53.8109 13.6679 2
52.1117 8.14779 2
53.058 11.0078 2
64.121 35.6281 3.98156
62.9622 33.0353 3.98107
60.6519 30.5932 3.98286
59.6097 27.8847 3.98447
57.9433 16.9625 3.98552
57.7766 25.6946 3.9861
57.7247 19.45 3.98469
57.3905 21.8095 3.98246
57.216 23.9142 3.98299
50.1119 7.28043 3.98965
51.2322 10.1172 3.98611
52.1727 12.7868 3.98375
55.5405 16.9527 3.98477
52.9794 15.2497 3.98307
53.7609 16.9632 3.98418
53.0416 69.0019 0.00656585
53.9654 66.0175 0.0110712
63.2195 48.6813 0.0162221
54.6837 63.2154 0.0137965
57.8829 60.8852 0.0136631
55.2134 60.6296 0.0150942
61.762 52.6004 0.0151777
60.3043 50.0466 0.0166992
58.0237 58.2828 0.0147915
58.1387 55.8422 0.0163115
59.346 53.9772 0.0152027
52.069 67.0036 2
52.9526 64.2244 2
56.6518 59.5065 2
53.6819 61.632 2
54.2629 59.3366 2
61.027 47.9049 2
59.7356 52.1343 2
58.0626 49.6479 2
56.7847 57.0132 2
57.1395 54.1548 2
51.1668 65.1321 3.98621
52.0459 62.5448 3.98454
55.4847 58.2691 3.98457
52.8359 60.1459 3.98418
53.6432 58.4871 3.9841
58.3516 46.8767 3.98497
57.59 51.8194 3.98333
56.2885 49.5867 3.98491
55.4823 55.8217 3.98265
55.3792 53.415 3.98136
50.108 67.8596 0.0107557
49.3359 65.9251 2
48.6173 64.126 3.98466
47.4622 66.5842 0.0134593
45.5574 67.1019 2
46.8916 64.7398 2
46.3811 63.0564 3.98357
45.1318 65.201 3.98488
43.6308 67.4724 3.98699
41.8606 69.8805 3.98979
43.9732 69.5932 2
44.3766 71.8635 3.99374
46.0557 69.1603 0.0104079
46.609 71.3689 2
47.2057 73.7222 4
48.8021 70.7243 0.00640555
49.554 73.0099 2
51.8506 72.1454 0
50.9534 5.12957 3.99367
53.0636 6.06878 2
54.0858 3.86728 4
55.1024 7.13727 0.00674421
56.25 5.02406 2
58.3339 6.31992 0
63.9912 46.7336 0.0163533
65.2012 43.0354 0.0171486
62.8401 44.2325 0.0163978
63.7877 40.9377 0.017342
65.8118 39.3733 0.0175606
67.947 37.5214 0.0174255
65.9139 37.5013 2
63.9314 39.2709 2
63.3612 42.5621 2
62.4689 40.7068 2
62.001 45.9394 2
61.4905 43.701 2
63.9917 37.4569 3.98254
62.1989 39.3602 3.98239
61.2611 41.9726 3.98294
60.293 44.792 3.98535
65.8999 35.663 0.0177976
65.2092 32.1446 0.0181213
64.3125 34.2426 0.0186875
62.6248 30.6201 0.0178224
59.3135 15.6509 0.0137189
59.131 18.3317 0.0144905
58.756 20.825 0.0162251
61.6803 27.0493 0.0162747
60.8847 29.1192 0.0154314
59.3642 25.7677 0.0149963
58.3104 23.0603 0.0170474
58.0005 24.6327 0.0146632
56.6791 15.7241 0.0148264
54.3787 15.9815 0.0157646
53.8108 13.668 0.0160705
52.1116 8.14818 0.0107829
53.0579 11.0081 0.0142359
64.1206 35.628 2
62.9617 33.0351 2
60.6513 30.5931 2
57.9435 16.9625 2
57.7248 19.4501 2
57.3904 21.8099 2
59.609 27.8849 2
57.2155 23.9149 2
57.776 25.6951 2
50.112 7.28009 2
55.5406 16.9527 2
53.761 16.9633 2
52.9795 15.2497 2
52.1728 12.7866 2
51.2323 10.1168 2
62.2289 35.3536 3.98149
60.3333 32.7315 3.98063
58.6676 30.0523 3.98387
57.3367 27.3513 3.98559
56.6411 18.1337 3.98508
56.3294 25.0693 3.98416
56.3699 20.4944 3.9834
56.1335 22.8374 3.9812
48.0558 6.52391 3.98991
49.3241 9.32532 3.98658
50.4334 11.9857 3.98412
51.379 14.4877 3.98218
54.4186 17.9017 3.98406
52.3634 17.0215 3.98268
52.0689 67.0033 0.0109301
52.9525 64.2241 0.0138075
61.0273 47.9052 0.0166522
53.6818 61.6317 0.0151837
56.6517 59.5063 0.0147406
54.2628 59.3364 0.015769
59.7356 52.1346 0.0155747
58.0628 49.6484 0.0162063
56.7844 57.0131 0.0161898
57.1394 54.1551 0.0167195
51.1668 65.1325 2
52.046 62.545 2
55.4849 58.2693 2
52.836 60.1461 2
53.6434 58.4873 2
58.3512 46.8762 2
57.59 51.819 2
56.2883 49.5861 2
55.4826 55.8218 2
55.3794 53.4148 2
50.3456 63.3848 3.98451
51.2446 60.9417 3.98332
54.2243 57.2842 3.98361
52.3149 58.6466 3.98348
56.7802 44.2082 3.98667
55.5447 47.9261 3.98449
55.1028 51.4227 3.98107
54.0193 54.574 3.98055
49.3358 65.9247 0.0136556
48.6174 64.1263 2
47.9615 62.4776 3.98355
45.5574 67.1014 0.0132273
46.8915 64.7395 0.0152125
43.6308 67.4729 2
46.3812 63.0567 2
45.1319 65.2015 2
45.9867 61.5884 3.9827
44.7663 63.4575 3.98357
43.3558 65.5109 3.98502
41.6631 67.6918 3.9871
39.7025 70.0279 3.9898
41.8607 69.8809 2
42.1111 72.2084 3.99376
43.9731 69.5928 0.0102921
44.3766 71.8638 2
44.8159 74.2794 4
46.609 71.3686 0.00633708
47.2057 73.7222 2
49.554 73.0099 0
48.7839 4.32076 3.99381
50.9534 5.12932 2
51.8506 2.85458 4
53.0635 6.06903 0.00654717
54.0858 3.86728 2
56.25 5.02411 0
62.0014 45.9396 0.0162929
63.3616 42.5622 0.0172739
61.4909 43.7011 0.0152087
62.4694 40.7068 0.0179129
63.9318 39.2708 0.0174894
65.9143 37.5013 0.0179025
63.9913 37.4568 2
62.1984 39.3603 2
61.2606 41.9725 2
60.2925 44.7918 2
62.0383 37.4444 3.98317
60.301 39.8558 3.98201
59.0489 42.9385 3.98501
64.121 35.6281 0.0184404
62.9622 33.0353 0.0189257
60.6519 30.5932 0.0171395
57.9433 16.9625 0.0144767
57.7247 19.45 0.0153141
57.3905 21.8095 0.0175427
59.6097 27.8847 0.0155267
57.7766 25.6946 0.0138987
57.216 23.9142 0.0170069
55.5405 16.9527 0.0152336
53.7609 16.9632 0.0158163
52.9794 15.2497 0.0169282
50.1119 7.28043 0.0103532
52.1727 12.7868 0.016251
51.2322 10.1172 0.0138934
62.2285 35.3535 2
60.3326 32.7314 2
58.6668 30.0523 2
56.6413 18.1338 2
56.3699 20.4947 2
56.1332 22.838 2
57.3358 27.3516 2
56.3287 25.0701 2
48.0559 6.52358 2
49.3242 9.32495 2
54.4187 17.9019 2
52.3635 17.0217 2
51.3791 14.4876 2
50.4335 11.9854 2
59.9461 35.1124 3.98169
58.0481 32.2508 3.9814
56.6001 29.3117 3.98535
55.4954 26.5672 3.98655
55.3486 19.1678 3.98437
54.9621 24.0239 3.981
55.0182 21.5352 3.9817
45.9619 5.87922 3.99013
43.3736 7.46878 3.98793
47.3547 8.6193 3.9872
48.6 11.2875 3.98422
49.7148 13.7353 3.98294
50.6348 16.1227 3.98111
53.1289 18.643 3.98347
51.3056 18.0365 3.98304
51.1668 65.1321 0.0137927
52.0459 62.5448 0.0154584
58.3516 46.8767 0.0150259
52.8359 60.1459 0.0158245
55.4847 58.2691 0.0154347
53.6432 58.4871 0.0158958
57.59 51.8194 0.0166711
56.2885 49.5867 0.0150886
55.4823 55.8217 0.0173513
55.3792 53.415 0.0186354
50.3456 63.3851 2
51.2446 60.9419 2
54.2245 57.2844 2
52.315 58.6469 2
56.7794 44.2079 2
55.5442 47.9254 2
55.1028 51.422 2
54.0196 54.5741 2
49.5915 61.7481 3.98332
55.721 41.7262 3.98305
50.568 59.3351 3.9822
52.1905 56.506 3.98226
54.2578 45.5891 3.98595
53.3922 49.3597 3.98175
52.6922 52.8818 3.9786
48.6173 64.126 0.0153424
47.9615 62.4779 2
47.3289 61.0116 3.98274
43.6308 67.4724 0.0130118
45.1318 65.201 0.0151246
46.3811 63.0564 0.0164252
41.6632 67.6922 2
43.3558 65.5114 2
45.9867 61.5886 2
44.7664 63.4579 2
45.7655 60.6321 3.98185
44.4825 61.8377 3.98255
43.1456 63.7303 3.98362
41.5454 65.649 3.98487
39.6326 67.7719 3.98707
37.5262 70.0532 3.98977
39.7025 70.0283 2
39.818 72.4056 3.99374
41.8606 69.8805 0.010214
42.1111 72.2086 2
42.3947 74.6792 4
44.3766 71.8635 0.00626303
44.8159 74.2794 2
47.2057 73.7222 0
43.8514 5.35629 3.99037
46.5701 3.64544 3.99398
48.784 4.32053 2
49.554 1.99015 4
50.9534 5.12957 0.006331
51.8506 2.85453 2
54.0858 3.86728 0
60.293 44.792 0.0146502
61.2611 41.9726 0.0170622
62.1989 39.3602 0.0176082
63.9917 37.4569 0.0174592
62.0378 37.4444 2
60.3004 39.8558 2
59.0482 42.9383 2
59.8231 37.5669 3.98417
58.0697 40.6726 3.983
55.2085 39.7318 3.98452
62.2289 35.3536 0.018512
60.3333 32.7315 0.0193749
58.6676 30.0523 0.0161307
56.6411 18.1337 0.0149204
56.3699 20.4944 0.0166031
56.1335 22.8374 0.0188005
57.3367 27.3513 0.0144094
56.3294 25.0693 0.015839
54.4186 17.9017 0.0159365
52.3634 17.0215 0.0173162
51.379 14.4877 0.0178171
48.0558 6.52391 0.0100877
49.3241 9.32532 0.0134201
50.4334 11.9857 0.0158841
59.9456 35.1123 2
45.962 5.87884 2
43.3736 7.46838 2
58.0472 32.2506 2
56.5991 29.3118 2
55.3488 19.168 2
55.0182 21.5357 2
54.9616 24.0248 2
55.4944 26.5681 2
47.3547 8.61893 2
48.6001 11.2871 2
53.129 18.6432 2
51.3058 18.0368 2
50.635 16.1228 2
49.7149 13.7349 2
57.4666 34.7503 3.98111
55.7936 31.4931 3.98313
54.5754 28.3728 3.98853
53.8154 25.4644 3.98261
53.9768 20.1159 3.98368
53.6034 22.6806 3.97944
41.3987 7.07415 3.98808
45.3595 7.99081 3.98761
42.8654 9.41026 3.98595
46.6663 10.648 3.98503
47.7457 13.0962 3.9828
48.9323 15.3936 3.98162
50.0078 17.6921 3.98005
51.6575 19.314 3.98287
50.3456 63.3848 0.0154948
51.2446 60.9417 0.0166825
56.7802 44.2082 0.0133293
55.5447 47.9261 0.0155149
52.3149 58.6466 0.0165213
54.2243 57.2842 0.0163901
55.1028 51.4227 0.018926
54.0193 54.574 0.0194491
49.5916 61.7484 2
55.7199 41.7262 2
50.568 59.3353 2
52.1907 56.5063 2
54.2569 45.5884 2
53.3919 49.3584 2
52.6926 52.8815 2
48.849 60.205 3.98254
52.6352 42.6607 3.98591
49.7914 57.6349 3.98189
50.6088 54.4398 3.98021
51.8962 47.2946 3.98177
51.2558 50.974 3.97708
48.3438 43.7258 3.97574
47.9615 62.4776 0.0164481
47.3288 61.0118 2
46.6182 59.7974 3.98194
41.6631 67.6918 0.0128996
43.3558 65.5109 0.0149843
44.7663 63.4575 0.0164315
45.9867 61.5884 0.0173028
39.6326 67.7723 2
41.5454 65.6494 2
45.7655 60.6323 2
43.1456 63.7307 2
44.4825 61.838 2
44.6226 60.2938 3.98151
42.9496 62.0864 3.98207
41.599 63.8237 3.9834
39.6471 65.6176 3.98474
37.5635 67.7546 3.98701
31.6981 65.1367 3.98494
33.3929 67.4922 3.98703
35.3338 69.9634 3.98974
37.5262 70.0536 2
37.5097 72.4602 3.99371
39.7025 70.0279 0.0102035
39.8179 72.4058 2
39.9526 74.9197 4
42.1111 72.2084 0.00624066
42.3947 74.6792 2
44.8159 74.2794 0
41.7362 4.96554 3.99046
43.8515 5.35592 2
44.3254 3.10878 3.99415
46.5701 3.64519 2
47.2057 1.27793 4
48.7839 4.32076 0.00619475
49.554 1.99013 2
51.8506 2.85458 0
59.0489 42.9385 0.014989
60.301 39.8558 0.0179874
62.0383 37.4444 0.0168303
59.8225 37.5669 2
58.0689 40.6726 2
55.2076 39.7317 2
56.9142 37.9005 3.9842
49.8019 41.2935 3.9832
53.2577 39.3157 3.9896
39.4422 6.79762 3.98825
59.9461 35.1124 0.0183137
58.0481 32.2508 0.0186022
56.6001 29.3117 0.0146529
55.3486 19.1678 0.015628
55.0182 21.5352 0.0182955
54.9621 24.0239 0.0189973
55.4954 26.5672 0.0134483
53.1289 18.643 0.0165265
51.3056 18.0365 0.0169561
50.6348 16.1227 0.0188891
45.9619 5.87922 0.00986684
49.7148 13.7353 0.0170553
47.3547 8.6193 0.0128023
48.6 11.2875 0.0157768
43.3736 7.46878 0.0120671
57.4659 34.7502 2
41.3987 7.07377 2
45.3596 7.9904 2
42.8654 9.40985 2
55.7924 31.4929 2
54.574 28.3732 2
53.977 20.1161 2
53.6032 22.6815 2
53.8144 25.4655 2
46.6664 10.6476 2
47.7457 13.0958 2
51.6576 19.3144 2
50.008 17.6925 2
48.9325 15.3933 2
54.976 33.9537 3.9807
53.5755 30.4551 3.98865
52.6516 27.167 3.98534
52.1772 24.0555 3.98036
52.4036 21.0535 3.98188
41.0135 9.04344 3.98637
44.7236 9.99056 3.98562
42.4681 10.8969 3.98444
46.0052 12.7235 3.98286
47.6821 14.5783 3.98228
48.1143 16.9819 3.97958
49.8202 19.5885 3.97985
49.5915 61.7481 0.0166753
50.568 59.3351 0.0178049
55.721 41.7262 0.0169494
54.2578 45.5891 0.0140515
53.3922 49.3597 0.0182496
52.1905 56.506 0.0177438
52.6922 52.8818 0.0213967
48.849 60.2053 2
52.6337 42.6606 2
49.7915 57.6351 2
50.6092 54.44 2
51.8953 47.2931 2
51.2561 50.9729 2
48.3408 43.7257 2
47.9871 58.7463 3.98176
50.224 45.2839 3.98089
48.604 55.9244 3.98124
49.1553 52.6157 3.9793
49.7349 49.0696 3.97646
46.2042 39.9116 3.92147
46.5919 42.778 3.99725
46.6409 45.7193 3.97482
44.0584 41.2553 3.98282
42.095 41.9929 3.98906
47.3289 61.0116 0.0172629
46.6182 59.7975 2
45.4677 58.7923 3.98046
39.6326 67.7719 0.0129289
41.5454 65.649 0.0151285
43.1456 63.7303 0.0163756
44.4825 61.8377 0.0174466
45.7655 60.6321 0.0181541
41.599 63.8241 2
37.5635 67.7551 2
39.6472 65.618 2
44.6226 60.294 2
42.9496 62.0868 2
41.7526 62.4974 3.9822
42.4799 59.9843 3.9809
39.8927 63.5585 3.98283
37.6422 65.517 3.98481
35.4639 67.6641 3.98704
33.5761 65.3503 3.985
31.9604 63.308 3.98337
29.8843 64.7272 3.98466
31.6981 65.1371 2
31.3778 67.2018 3.98694
33.3929 67.4926 2
33.1568 69.7567 3.98968
35.3337 69.9638 2
35.1952 72.3746 3.99367
37.5262 70.0532 0.010232
37.5097 72.4604 2
37.5 75 4
39.818 72.4056 0.00625753
39.9526 74.9197 2
42.3947 74.6792 0
39.6238 4.71271 3.99057
41.7362 4.96519 2
42.0619 2.71646 3.99425
43.8514 5.35629 0.00963283
44.3255 3.10852 2
44.8158 0.721173 4
46.5701 3.64544 0.00601914
47.2057 1.27779 2
49.554 1.99015 0
58.0697 40.6726 0.0170007
59.8231 37.5669 0.0158312
55.2085 39.7318 0.0154824
49.8005 41.2933 2
56.9136 37.9004 2
53.2568 39.3156 2
54.1099 36.6235 3.98397
47.7237 40.4618 4.00139
50.7541 38.4816 3.98708
37.516 6.6688 3.98836
39.4422 6.79721 2
39.2111 8.68594 3.98637
35.9415 8.48558 3.98666
57.4666 34.7503 0.0188936
55.7936 31.4931 0.0168685
54.5754 28.3728 0.0114732
53.9768 20.1159 0.0163166
53.6034 22.6806 0.0205573
53.8154 25.4644 0.0173875
51.6575 19.314 0.0171332
50.0078 17.6921 0.019951
48.9323 15.3936 0.0183757
45.3595 7.99081 0.0123913
47.7457 13.0962 0.0172038
46.6663 10.648 0.0149743
41.3987 7.07415 0.0119176
42.8654 9.41026 0.0140529
54.9751 33.9535 2
41.0135 9.04304 2
44.7236 9.99017 2
42.4681 10.8965 2
53.5739 30.4541 2
52.6501 27.1683 2
52.4038 21.0539 2
52.1766 24.0568 2
46.0053 12.7232 2
47.6822 14.578 2
49.8203 19.5891 2
48.1145 16.9815 2
52.5254 32.8448 3.98303
51.429 29.127 3.98994
50.8434 25.6938 3.97854
49.9531 22.1615 3.98078
40.569 11.6003 3.98398
43.8579 11.9123 3.9836
45.8027 15.4144 3.98133
47.5058 19.2169 3.97876
46.5291 37.5055 3.92336
48.849 60.205 0.0174636
49.7914 57.6349 0.0181072
52.6352 42.6607 0.0140861
51.8962 47.2946 0.0182282
51.2558 50.974 0.0229173
50.6088 54.4398 0.0197918
48.3438 43.7258 0.0242616
47.9871 58.7466 2
50.2222 45.2827 2
48.6042 55.9246 2
49.1557 52.6162 2
49.7346 49.068 2
46.2024 39.9146 2
46.5986 42.7812 2
46.6384 45.7159 2
44.0604 41.253 2
42.0992 41.997 2
46.8397 57.3475 3.98212
44.8174 39.5097 3.97104
42.4625 40.8698 3.9896
48.1877 47.2618 3.98177
47.1806 54.2555 3.98195
47.6304 50.7761 3.97821
44.9082 47.335 3.97314
45.2755 42.0314 3.92706
45.051 44.6652 3.99361
42.8504 42.7473 3.98259
40.9445 42.349 3.98232
46.6182 59.7974 0.0180614
45.4677 58.7924 2
43.8755 57.714 3.97991
37.5635 67.7546 0.0129883
39.6471 65.6176 0.0152559
41.599 63.8237 0.0166017
42.9496 62.0864 0.0179345
44.6226 60.2938 0.0184943
35.4639 67.6645 2
41.7526 62.4978 2
39.8927 63.5589 2
37.6422 65.5174 2
42.4799 59.9845 2
40.6222 61.6545 3.98224
40.4435 58.2113 3.97917
37.8364 63.22 3.98277
35.5733 65.4394 3.98486
33.5761 65.3507 2
31.9603 63.3084 2
33.6297 63.3479 3.98344
30.3794 62.866 3.98312
32.1236 62.0131 3.98211
26.8685 61.5087 3.98247
28.0632 64.1546 3.98433
29.8843 64.7275 2
29.4075 66.7652 3.98669
31.6981 65.1367 0.0150624
31.3777 67.2022 2
31.0142 69.4216 3.9896
33.3929 67.4922 0.0129659
33.1567 69.757 2
32.8923 72.1488 3.99365
35.3338 69.9634 0.0102621
35.1951 72.3749 2
35.0474 74.9194 4
37.5097 72.4602 0.0062946
37.5 75 2
39.9526 74.9197 0
35.6206 6.71976 3.98831
37.523 4.61231 3.99056
39.6238 4.71235 2
39.7885 2.47295 3.99435
41.7362 4.96554 0.00954119
42.0619 2.71621 2
42.3946 0.32156 4
44.3254 3.10878 0.00585285
44.8159 0.72056 2
47.2057 1.27793 0
49.8019 41.2935 0.0168013
56.9142 37.9005 0.0158033
53.2577 39.3157 0.0104033
47.7222 40.4582 2
50.753 38.482 2
54.109 36.6235 2
51.5345 35.5655 3.97352
48.3888 37.7607 4.00484
46.1897 35.1017 3.92623
44.0495 33.7567 3.97983
42.0858 33.026 3.98917
37.4578 8.52747 3.98656
37.516 6.66841 2
39.4422 6.79762 0.011754
39.2111 8.68551 2
38.976 10.1184 3.98569
35.8979 9.76497 3.98575
34.1498 8.81487 3.98651
35.9414 8.48521 2
54.976 33.9537 0.0193032
53.5755 30.4551 0.0113466
52.6516 27.167 0.01466
52.4036 21.0535 0.0181159
52.1772 24.0555 0.0196367
49.8202 19.5885 0.0201527
48.1143 16.9819 0.0204211
47.6821 14.5783 0.0177232
44.7236 9.99056 0.014382
46.0052 12.7235 0.0171369
41.0135 9.04344 0.0136262
42.4681 10.8969 0.0155609
52.5244 32.8441 2
40.569 11.5999 2
43.8579 11.9119 2
51.4269 29.1283 2
50.8422 25.6956 2
49.9533 22.1623 2
45.8028 15.4141 2
47.506 19.2165 2
50.1381 31.3751 3.97991
49.3663 27.4509 3.97853
49.441 24.3764 3.97807
47.1946 21.9151 3.97732
38.3014 12.7255 3.98294
42.1007 14.2974 3.98175
44.8012 18.4528 3.97944
45.0885 37.5079 3.969
46.5306 37.5071 2
47.9871 58.7463 0.0182402
48.604 55.9244 0.0187617
50.224 45.2839 0.0191145
49.7349 49.0696 0.0235364
49.1553 52.6157 0.020696
46.2042 39.9116 0.0785263
46.5919 42.778 0.00274891
46.6409 45.7193 0.0251825
44.0584 41.2553 0.0171772
42.095 41.9929 0.0109432
46.8398 57.3477 2
44.8179 39.5064 2
42.4631 40.8706 2
48.1863 47.2605 2
47.1808 54.2556 2
47.6305 50.7754 2
44.9073 47.3249 2
45.2754 42.0342 2
45.0629 44.67 2
42.8578 42.7405 2
40.9484 42.349 2
45.4007 55.9314 3.97943
42.7953 39.2651 3.98359
40.8942 40.8117 3.95139
46.1618 48.9381 3.9809
45.5692 52.5526 3.98463
43.5355 48.4765 3.94505
43.4385 46.2137 4.01056
43.8106 43.8315 3.92722
41.3107 43.8955 3.98762
39.3103 42.655 3.97096
45.4677 58.7923 0.0195408
43.8755 57.714 2
42.1062 56.3348 3.97946
35.4639 67.6641 0.0129618
37.6422 65.517 0.0151884
39.8927 63.5585 0.0171745
41.7526 62.4974 0.0178044
42.4799 59.9843 0.0190957
35.5733 65.4398 2
40.6222 61.6549 2
37.8364 63.2205 2
40.4436 58.2115 2
38.925 56.4996 3.97829
38.2498 60.3364 3.98118
35.6071 63.2141 3.9831
33.5761 65.3503 0.0149989
31.9604 63.308 0.0166343
33.6296 63.3483 2
30.3794 62.8663 2
32.1236 62.0134 2
28.6816 62.2105 3.98273
33.3461 61.5252 3.98165
31.0664 61.2291 3.98178
27.5664 59.6045 3.98224
23.7877 59.1002 3.98491
25.0329 60.8837 3.98341
26.8684 61.5089 2
26.2295 63.4867 3.98408
28.0631 64.155 2
27.4642 66.1887 3.98637
29.8843 64.7272 0.0153379
29.4074 66.7656 2
28.9068 68.947 3.98948
31.3778 67.2018 0.0130572
31.0141 69.4219 2
30.6148 71.7799 3.99363
33.1568 69.7567 0.0103217
32.8923 72.1491 2
32.6054 74.6784 4
35.1952 72.3746 0.00632907
35.0474 74.9197 2
37.5 75 0
33.7232 6.97418 3.98809
35.4345 4.68267 3.99053
35.6205 6.71936 2
37.5141 2.38563 3.99436
37.523 4.61196 2
39.6238 4.71271 0.00942911
39.7885 2.4727 2
39.9526 0.0806499 4
42.0619 2.71646 0.0057474
42.3947 0.320817 2
44.8158 0.721173 0
44.8111 35.5068 3.97139
42.4534 34.1499 3.99184
47.7237 40.4618 -0.00139101
50.7541 38.4816 0.0129209
54.1099 36.6235 0.016026
48.3881 37.7607 2
51.5333 35.565 2
46.1857 35.1002 2
44.0539 33.7579 2
42.0894 33.025 2
48.5545 34.2372 4.00521
45.2648 32.9807 3.9252
42.8452 32.2667 3.98395
40.9345 32.6779 3.98163
37.31 10.6214 3.98491
37.4577 8.52708 2
37.516 6.6688 0.0116353
39.2111 8.68594 0.0136325
38.976 10.118 2
34.753 10.3706 3.98499
35.8979 9.76463 2
32.3764 9.36127 3.98598
34.1498 8.81452 2
35.9415 8.48558 0.0133355
52.5254 32.8448 0.0169664
51.429 29.127 0.010061
50.8434 25.6938 0.0214619
49.9531 22.1615 0.0192247
47.5058 19.2169 0.0212362
45.8027 15.4144 0.0186656
43.8579 11.9123 0.0163993
40.569 11.6003 0.0160157
50.1366 31.3747 2
38.3015 12.7253 2
42.1007 14.297 2
49.3644 27.453 2
49.4405 24.3776 2
47.1948 21.9163 2
44.8012 18.4525 2
47.9225 29.5856 3.97297
47.1438 25.1013 3.97996
44.2936 21.3099 3.97765
36.581 12.9217 3.98331
38.6801 14.7965 3.98214
41.7498 17.8288 3.9801
42.9199 37.501 3.98608
45.0921 37.5077 2
46.5291 37.5055 0.0766405
46.8397 57.3475 0.0178837
47.1806 54.2555 0.0180541
48.1877 47.2618 0.0182334
47.6304 50.7761 0.0217889
44.8174 39.5097 0.0289637
45.2755 42.0314 0.0729366
45.051 44.6652 0.00639073
44.9082 47.335 0.0268588
42.8504 42.7473 0.0174073
42.4625 40.8698 0.0104016
40.9445 42.349 0.017675
45.4009 55.9314 2
42.7957 39.265 2
40.8942 40.8132 2
46.1615 48.9348 2
45.5697 52.5519 2
43.5353 48.4735 2
43.4625 46.2201 2
43.8104 43.8342 2
41.3129 43.8865 2
39.3115 42.6573 2
43.7415 54.4376 3.98246
40.9758 39.1871 3.94449
39.2342 40.8842 3.94944
43.7543 50.5289 3.9912
42.0377 47.7372 4.02732
41.9501 45.2153 3.9217
39.5222 44.6523 3.98239
37.5034 42.7731 3.9608
43.8755 57.714 0.0200943
42.1062 56.3346 2
40.4205 54.9344 3.97884
35.5733 65.4394 0.0151401
37.8364 63.22 0.0172341
40.6222 61.6545 0.0177578
40.4435 58.2113 0.0208349
35.6071 63.2144 2
38.2498 60.3368 2
38.9249 56.5002 2
37.9997 55.2519 3.97791
36.934 57.6343 3.97887
35.3635 60.9231 3.98174
33.6297 63.3479 0.0165564
30.3794 62.866 0.0168807
32.1236 62.0131 0.0178941
33.3461 61.5255 2
28.6816 62.2109 2
31.0663 61.2294 2
29.402 60.2974 3.98112
32.3554 59.7546 3.98102
28.0181 58.383 3.98365
27.5664 59.6047 2
25.3749 58.609 3.98306
22.7498 58.2619 3.98283
23.3977 60.3661 3.98422
23.7876 59.1004 2
25.0329 60.8839 2
24.4315 62.7802 3.98456
26.8685 61.5087 0.0175289
26.2295 63.487 2
25.5482 65.4987 3.9861
28.0632 64.1546 0.0156722
27.4641 66.1891 2
26.8367 68.3353 3.98929
29.4075 66.7652 0.0133125
28.9067 68.9474 2
28.37 71.2651 3.99359
31.0142 69.4216 0.010395
30.6147 71.7801 2
30.1842 74.2788 4
32.8923 72.1488 0.00634613
32.6053 74.6792 2
35.0474 74.9194 0
31.7876 7.41355 3.98782
33.3465 4.92169 3.99042
33.7232 6.9738 2
35.2444 2.46177 3.99431
35.4345 4.68229 2
35.6206 6.71976 0.0116944
37.5 0 4
37.5141 2.38538 2
37.523 4.61231 0.00944006
39.7885 2.47295 0.00564613
39.9526 0.0802889 2
42.3946 0.32156 0
42.7901 35.7425 3.98648
44.8095 35.5086 2
40.8863 34.2162 3.95161
42.4559 34.1472 2
48.3888 37.7607 -0.00484074
51.5345 35.5655 0.0264759
46.1897 35.1017 0.0737719
44.0495 33.7567 0.020167
42.0858 33.026 0.0108315
48.5533 34.2378 2
45.2646 32.9761 2
42.85 32.2697 2
40.9372 32.6739 2
46.4991 31.476 4.00167
43.8047 31.1797 3.92557
41.3043 31.1267 3.98264
39.2965 32.3945 3.9752
35.6914 11.7659 3.98379
37.3099 10.6211 2
37.4578 8.52747 0.0134374
38.976 10.1184 0.0143125
33.0968 11.207 3.98436
34.753 10.3703 2
35.8979 9.76497 0.014251
30.4811 10.0091 3.98555
32.3764 9.36097 2
34.1498 8.81487 0.0134947
50.1381 31.3751 0.0200901
49.3663 27.4509 0.0214722
49.441 24.3764 0.021927
47.1946 21.9151 0.0226758
44.8012 18.4528 0.0205643
42.1007 14.2974 0.0182529
38.3014 12.7255 0.0170588
36.581 12.9215 2
47.9194 29.5877 2
38.6801 14.7966 2
41.7497 17.8284 2
47.1431 25.1021 2
44.2937 21.3097 2
45.6629 27.8077 3.97393
43.8262 24.0415 3.98002
41.3446 20.7083 3.97872
35.7703 14.7469 3.98223
38.6806 17.5835 3.98127
41.0177 37.4976 3.94293
42.9225 37.5004 2
45.0885 37.5079 0.030997
45.4007 55.9314 0.0205744
45.5692 52.5526 0.0153698
46.1618 48.9381 0.0190968
42.7953 39.2651 0.0164127
43.8106 43.8315 0.0727839
43.4385 46.2137 -0.0105557
43.5355 48.4765 0.0549513
41.3107 43.8955 0.0123791
40.8942 40.8117 0.0486066
39.3103 42.655 0.0290405
43.7419 54.4377 2
40.9757 39.1873 2
39.2339 40.8868 2
43.754 50.5309 2
42.0379 47.7374 2
41.9576 45.2154 2
37.5044 42.7784 2
39.525 44.6557 2
41.89 53.001 3.98011
39.2312 39.1836 3.94285
37.506 40.9283 3.95501
35.6975 42.6757 3.97429
40.9964 49.7483 4.00284
39.8375 46.0897 3.93632
37.4955 44.9431 3.96787
42.1062 56.3348 0.0205386
40.4203 54.9345 2
38.7307 53.8625 3.97952
35.6071 63.2141 0.0168984
38.2498 60.3364 0.0188158
38.925 56.4996 0.0217108
35.3635 60.9233 2
36.9338 57.6344 2
37.9995 55.2516 2
36.3188 55.3879 3.97861
34.4867 58.5307 3.9804
33.3461 61.5252 0.0183545
28.6816 62.2105 0.0172651
31.0664 61.2291 0.018221
32.3554 59.7548 2
29.402 60.2977 2
30.294 57.8239 3.98095
28.0181 58.3832 2
26.9359 56.8362 3.98175
27.5664 59.6045 0.0177557
25.3748 58.6092 2
23.828 56.8274 3.98175
21.3241 57.4255 3.98417
21.9889 59.6416 3.98482
22.7496 58.2621 2
22.7345 62.0333 3.98481
23.3976 60.3663 2
23.7877 59.1002 0.0150919
25.0329 60.8837 0.0165898
24.4315 62.7805 2
23.6818 64.7175 3.9861
26.2295 63.4867 0.0159247
25.5481 65.4991 2
24.8093 67.5967 3.98911
27.4642 66.1887 0.0136264
26.8366 68.3357 2
26.1654 70.6059 3.99352
28.9068 68.947 0.0105211
28.37 71.2653 2
27.7943 73.7221 4
30.6148 71.7799 0.00636594
30.1841 74.2794 2
32.6054 74.6784 0
29.8102 7.98651 3.98744
31.2517 5.32852 3.99027
31.7876 7.4132 2
32.9803 2.69982 3.99422
33.3465 4.92132 2
33.7232 6.97418 0.011906
35.0474 0.080333 4
35.2444 2.46151 2
35.4345 4.68267 0.00947143
37.5 0 2
37.5141 2.38563 0.00563904
39.9526 0.0806499 0
40.9743 35.8193 3.94677
42.7887 35.7413 2
44.8111 35.5068 0.0286131
28.5421 10.6846 3.98482
39.2255 34.1647 3.95468
40.8872 34.2127 2
42.4534 34.1499 0.00816096
48.5545 34.2372 -0.00521066
45.2648 32.9807 0.0747969
42.8452 32.2667 0.0160454
40.9345 32.6779 0.0183739
46.5028 31.4735 2
43.8035 31.177 2
41.3108 31.1275 2
39.2987 32.3888 2
44.4964 29.6538 3.99758
41.944 29.8069 3.92632
39.5096 30.3947 3.98071
37.4867 32.2907 3.95633
34.091 12.9235 3.98308
35.6914 11.7657 2
37.31 10.6214 0.0150931
31.1849 11.9751 3.98396
33.0968 11.2067 2
34.753 10.3706 0.015014
30.4811 10.0087 2
32.3764 9.36127 0.0140153
47.9225 29.5856 0.0270273
47.1438 25.1013 0.0200441
36.581 12.9217 0.0166869
44.2936 21.3099 0.0223513
41.7498 17.8288 0.0199042
38.6801 14.7965 0.0178609
35.7704 14.7467 2
45.6604 27.8135 2
38.6806 17.5842 2
41.3444 20.7078 2
43.8257 24.046 2
33.6059 15.8642 3.98215
43.1313 26.5191 3.97814
40.9288 23.2829 3.98058
38.4228 20.3129 3.98018
35.8467 17.4973 3.98117
39.2382 37.5055 3.94099
41.019 37.4967 2
42.9199 37.501 0.0139231
43.7415 54.4376 0.0175401
43.7543 50.5289 0.00879586
40.9758 39.1871 0.0555109
41.9501 45.2153 0.0783013
42.0377 47.7372 -0.0273221
39.5222 44.6523 0.0176131
39.2342 40.8842 0.0505646
37.5034 42.7731 0.039202
41.8899 53.0018 2
39.2314 39.1847 2
37.5055 40.9321 2
40.9961 49.7468 2
35.6975 42.6765 2
39.841 46.0926 2
37.4972 44.9495 2
39.8285 51.9102 3.98137
37.5035 39.2011 3.94363
35.7808 40.9084 3.94748
34.0622 42.381 3.97941
35.4653 44.6627 3.97642
38.7736 48.8381 4.04183
37.4994 46.3942 3.92711
40.4205 54.9344 0.0211557
38.7306 53.8608 2
36.7171 53.21 3.98213
35.3635 60.9231 0.0182626
36.934 57.6343 0.0211267
37.9997 55.2519 0.0220872
34.4866 58.5307 2
36.3187 55.3876 2
33.2222 55.5083 3.97982
32.3554 59.7546 0.0189754
29.402 60.2974 0.018882
30.294 57.8242 2
28.6734 55.317 3.97924
28.0181 58.383 0.0163543
26.9356 56.8364 2
25.2915 55.1648 3.98101
21.7898 55.3769 3.98212
25.3749 58.609 0.0169442
23.8277 56.8275 2
20.2069 57.0581 3.9851
20.6385 58.803 3.98516
21.3238 57.4256 2
21.1636 61.1861 3.98561
21.9888 59.6418 2
22.7498 58.2619 0.0171661
21.8947 63.8466 3.98627
22.7344 62.0336 2
23.3977 60.3661 0.0157804
24.4315 62.7802 0.0154351
23.6818 64.7178 2
22.8376 66.7408 3.98897
25.5482 65.4987 0.0139049
24.8091 67.597 2
24.0099 69.8072 3.99344
26.8367 68.3353 0.0107085
26.1653 70.6062 2
25.446 73.0099 4
28.37 71.2651 0.00640836
27.7943 73.7222 2
30.1842 74.2788 0
27.8202 8.64597 3.98701
29.1537 5.874 3.99001
29.8101 7.9861 2
30.7256 3.09682 3.9941
31.2517 5.32817 2
31.7876 7.41355 0.0121844
32.6053 0.320823 4
32.9802 2.69956 2
33.3465 4.92169 0.00957852
35.0474 0.0802903 2
35.2444 2.46177 0.00569099
37.5 0 0
39.2319 35.8398 3.94576
40.973 35.817 2
42.7901 35.7425 0.0135192
28.5421 10.6843 2
26.6212 11.3803 3.98446
29.2239 12.6327 3.98336
37.4966 34.1378 3.96126
39.2262 34.1599 2
40.8863 34.2162 0.0483915
46.4991 31.476 -0.00166848
43.8047 31.1797 0.0744284
41.3043 31.1267 0.0173629
39.2965 32.3945 0.0247961
44.5053 29.6478 2
41.9477 29.8047 2
39.5133 30.3891 2
37.4887 32.284 2
42.3857 28.3485 4.00457
39.8295 28.9452 3.93056
37.4776 30.1119 3.96018
35.6805 32.3948 3.97506
31.9125 14.4697 3.98236
34.091 12.9233 2
35.6914 11.7659 0.0162078
31.1849 11.9748 2
33.0968 11.207 0.0156393
30.4811 10.0091 0.0144505
45.6629 27.8077 0.0260654
43.8262 24.0415 0.0199769
35.7703 14.7469 0.0177653
41.3446 20.7083 0.0212797
38.6806 17.5835 0.0187336
33.6059 15.8642 2
35.8467 17.4972 2
43.1298 26.5261 2
38.4227 20.3147 2
40.9288 23.2832 2
33.5479 17.374 3.98151
40.4933 25.6237 3.97929
38.085 22.8454 3.98528
35.5826 20.0665 3.98094
37.503 37.5215 3.94244
39.2393 37.5046 2
41.0177 37.4976 0.0570656
41.89 53.001 0.0198877
40.9964 49.7483 -0.00284345
39.2312 39.1836 0.0571539
39.8375 46.0897 0.0636843
37.4955 44.9431 0.0321315
37.506 40.9283 0.0449866
35.6975 42.6757 0.0257101
39.829 51.9095 2
37.5043 39.203 2
35.78 40.91 2
38.7689 48.8411 2
34.0597 42.3819 2
35.4659 44.663 2
37.4957 46.4014 2
37.6634 51.0144 3.97313
35.7806 39.2116 3.94076
34.1269 40.8456 3.94793
32.9111 42.0254 3.98933
33.678 43.9296 3.98623
35.1678 46.11 3.92807
36.8978 48.4517 4.03816
38.7307 53.8625 0.0204806
36.7171 53.2092 2
34.3468 52.4763 3.98182
34.4867 58.5307 0.0195991
36.3188 55.3879 0.0213901
33.2221 55.5079 2
30.4969 53.4112 3.97927
30.294 57.8239 0.0190533
28.673 55.3173 2
26.8523 53.4656 3.97837
26.9359 56.8362 0.0182522
25.291 55.1648 2
23.5413 53.5142 3.97925
20.435 53.2649 3.98168
19.9157 55.8638 3.98432
21.7894 55.3768 2
23.828 56.8274 0.0182533
19.4291 57.9184 3.98504
20.2066 57.0581 2
19.702 60.2227 3.98558
20.6384 58.8031 2
21.3241 57.4255 0.0158275
20.2062 62.8699 3.98672
21.1635 61.1863 2
21.9889 59.6416 0.0151798
20.9389 65.7707 3.989
21.8946 63.8469 2
22.7345 62.0333 0.0151884
23.6818 64.7175 0.0138985
22.8375 66.7411 2
21.9126 68.8746 3.99336
24.8093 67.5967 0.0108865
24.0098 69.8074 2
23.1494 72.1454 4
26.1654 70.6059 0.00648318
25.446 73.0099 2
27.7943 73.7221 0
25.8595 9.37421 3.98642
27.0687 6.53779 3.98975
27.8201 8.64559 2
28.4878 3.6426 3.99394
29.1537 5.87361 2
29.8102 7.98651 0.0125636
30.1841 0.720592 4
30.7256 3.09658 2
31.2517 5.32852 0.0097343
32.6053 0.320817 2
32.9803 2.69982 0.00578174
35.0474 0.080333 0
37.5022 35.8487 3.94673
39.231 35.8369 2
40.9743 35.8193 0.0532258
24.776 12.0633 3.98449
23.7495 14.3479 3.9839
28.5421 10.6846 0.0151756
26.6211 11.38 2
29.2239 12.6324 2
27.29 13.3661 3.98312
29.7785 14.1924 3.98271
35.7727 34.1616 3.95425
37.4973 34.1329 2
39.2255 34.1647 0.0453244
37.4867 32.2907 0.0436659
44.4964 29.6538 0.00242216
41.944 29.8069 0.0736784
39.5096 30.3947 0.0192944
42.3907 28.3398 2
39.8285 28.9404 2
37.4796 30.1038 2
35.6825 32.3887 2
40.0563 27.5314 4.01958
37.4814 28.662 3.92825
35.448 30.396 3.97953
34.0511 32.6824 3.98356
30.9239 16.8286 3.98177
31.9125 14.4696 2
34.091 12.9235 0.0169225
31.1849 11.9751 0.0160432
43.1313 26.5191 0.0218648
40.9288 23.2829 0.0194165
33.6059 15.8642 0.0178537
35.8467 17.4973 0.0188323
38.4228 20.3129 0.0198205
33.5479 17.3741 2
35.5829 20.0664 2
40.4918 25.6275 2
38.0852 22.8488 2
32.8597 19.7841 3.97875
37.788 25.1491 3.98977
35.2049 22.627 3.97885
35.7707 37.5302 3.93894
37.5042 37.5211 2
39.2382 37.5055 0.059011
39.8285 51.9102 0.0186346
38.7736 48.8381 -0.0418316
37.5035 39.2011 0.0563737
37.4994 46.3942 0.0728889
35.4653 44.6627 0.0235759
35.7808 40.9084 0.0525175
34.0622 42.381 0.0205891
37.6636 51.0185 2
35.7817 39.2122 2
34.1256 40.8474 2
36.8943 48.4526 2
32.9076 42.0273 2
33.6766 43.9249 2
35.1642 46.1153 2
35.4093 50.1687 3.97589
34.0445 39.2245 3.94253
32.5495 40.9021 3.99072
32.1463 42.7831 3.98206
33.0567 45.2477 3.92565
34.2717 47.5389 4.01845
36.7171 53.21 0.0178722
34.3466 52.4776 2
31.9597 51.221 3.97967
33.2222 55.5083 0.0201834
30.4965 53.4128 2
28.3843 51.6495 3.97856
28.6734 55.317 0.0207628
26.8518 53.4659 2
25.0326 51.8078 3.97669
25.2915 55.1648 0.0189922
23.5409 53.5139 2
21.9189 51.8535 3.98066
19.1592 51.6782 3.9821
18.8971 54.3439 3.98299
20.4349 53.2644 2
18.4346 56.7528 3.98533
19.9154 55.8637 2
21.7898 55.3769 0.0178824
18.3625 59.1332 3.98538
19.4289 57.9185 2
20.2069 57.0581 0.0148982
18.6161 61.7798 3.98669
19.7019 60.2228 2
20.6385 58.803 0.0148412
19.1274 64.6827 3.98914
20.2062 62.8701 2
21.1636 61.1861 0.0143944
19.8867 67.8117 3.99334
20.9388 65.771 2
21.8947 63.8466 0.0137268
22.8376 66.7408 0.0110252
21.9125 68.8748 2
20.9142 71.1327 4
24.0099 69.8072 0.00656019
23.1494 72.1455 2
25.446 73.0099 0
23.0952 12.7777 3.98452
23.9723 10.1609 3.98609
25.0227 7.30775 3.98938
25.8595 9.37391 2
26.2796 4.32668 3.99372
27.0686 6.53743 2
27.8202 8.64597 0.0129893
27.7943 1.27781 4
28.4878 3.64235 2
29.1537 5.874 0.00998719
30.1841 0.720551 2
30.7256 3.09682 0.00590011
32.6053 0.320823 0
35.7744 35.8513 3.94278
37.502 35.8459 2
39.2319 35.8398 0.0542388
24.776 12.0631 2
23.7496 14.3478 2
22.4777 15.0235 3.98413
25.356 13.8978 3.98363
24.0221 15.6097 3.98375
26.6212 11.3803 0.0155363
29.2239 12.6327 0.0166399
27.29 13.3659 2
29.7786 14.1922 2
28.3544 15.968 3.98255
34.1225 34.2209 3.94991
35.7734 34.157 2
37.4966 34.1378 0.0387418
35.6805 32.3948 0.0249437
37.4776 30.1119 0.0398156
42.3857 28.3485 -0.00456754
39.8295 28.9452 0.069444
40.0574 27.5319 2
37.4819 28.6504 2
35.4487 30.3889 2
34.0529 32.68 2
37.5996 27.2224 4.01903
35.117 28.9465 3.92959
33.6587 31.1368 3.98197
32.9057 33.0456 3.98715
30.2034 19.3334 3.98251
30.9239 16.8287 2
31.9125 14.4697 0.0176382
40.4933 25.6237 0.0207112
38.085 22.8454 0.0147195
33.5479 17.374 0.0184887
35.5826 20.0665 0.0190604
32.8598 19.7846 2
35.2059 22.627 2
37.7873 25.1558 2
32.3055 22.403 3.9793
34.9337 25.1575 3.97585
33.9977 37.5342 3.94188
35.772 37.529 2
37.503 37.5215 0.057555
37.6634 51.0144 0.0268699
36.8978 48.4517 -0.0381604
35.7806 39.2116 0.0592371
35.1678 46.11 0.07193
33.678 43.9296 0.0137655
34.1269 40.8456 0.0520656
32.9111 42.0254 0.0106688
35.4091 50.1707 2
34.0458 39.2255 2
32.5468 40.9041 2
34.265 47.5456 2
32.1417 42.7772 2
33.0493 45.2502 2
33.1598 49.1433 3.97707
32.2163 39.304 3.98425
30.9453 41.2865 3.98095
31.1909 43.8664 3.92627
32.2013 46.4837 4.00072
34.3468 52.4763 0.0181762
31.9594 51.2242 2
29.7816 49.7419 3.97929
30.4969 53.4112 0.0207268
28.3839 51.6483 2
26.4361 50.0435 3.97584
26.8523 53.4656 0.0216341
25.0321 51.8067 2
23.2769 50.2501 3.98178
23.5413 53.5142 0.020753
21.9189 51.8527 2
20.4108 50.3635 3.98289
17.9435 50.3709 3.98374
17.8022 52.8294 3.98298
19.1595 51.6774 2
17.4193 55.3716 3.98431
18.8969 54.3436 2
20.435 53.2649 0.0183176
17.1263 57.8979 3.98584
18.4343 56.7528 2
19.9157 55.8638 0.0156826
17.1325 60.5657 3.98644
18.3623 59.1333 2
19.4291 57.9184 0.0149558
17.4071 63.4769 3.98921
18.6161 61.78 2
19.702 60.2227 0.0144214
17.9428 66.6206 3.99335
19.1273 64.683 2
20.2062 62.8699 0.0132764
18.75 69.9759 4
19.8866 67.8118 2
20.9389 65.7707 0.011
21.9126 68.8746 0.00664114
20.9142 71.1327 2
23.1494 72.1454 0
21.5857 13.5971 3.98466
22.1904 11.0199 3.98592
23.0952 12.7776 2
23.041 8.17304 3.98906
23.9722 10.1606 2
24.1173 5.14127 3.99353
25.0227 7.30743 2
25.8595 9.37421 0.0135767
25.446 1.99014 4
26.2796 4.32645 2
27.0687 6.53779 0.0102524
27.7943 1.27778 2
28.4878 3.6426 0.00606057
30.1841 0.720592 0
34.0368 35.8432 3.94117
35.7748 35.8484 2
37.5022 35.8487 0.053271
21.3021 15.8176 3.98426
24.776 12.0633 0.0155051
23.7495 14.3479 0.0161023
25.356 13.8976 2
22.4777 15.0234 2
24.0222 15.6096 2
23.2608 16.2404 3.98353
25.3775 16.0783 3.98337
27.29 13.3661 0.0168834
29.7785 14.1924 0.0172918
28.3546 15.9678 2
27.4349 18.7902 3.98317
32.5535 34.179 3.99511
34.1227 34.2192 2
35.7727 34.1616 0.0457507
34.0511 32.6824 0.0164362
35.448 30.396 0.0204714
37.4814 28.662 0.0717505
40.0563 27.5314 -0.0195849
37.6009 27.2072 2
32.9063 33.0476 2
35.1204 28.9398 2
33.6572 31.1376 2
35.0187 27.3412 4.01748
33.0043 29.8216 3.92739
32.134 32.2874 3.98562
29.5649 21.9311 3.98446
30.2036 19.3338 2
30.9239 16.8286 0.0182341
37.788 25.1491 0.0102251
35.2049 22.627 0.0211523
32.8597 19.7841 0.021253
32.3066 22.404 2
34.9348 25.1675 2
31.618 25.6049 3.97812
32.0893 37.5403 3.98579
33.9988 37.5339 2
35.7707 37.5302 0.06106
35.4093 50.1687 0.0241098
34.2717 47.5389 -0.0184455
34.0445 39.2245 0.0574686
33.0567 45.2477 0.0743462
32.1463 42.7831 0.0179413
32.5495 40.9021 0.00927918
33.1602 49.1321 2
32.2173 39.3044 2
30.9411 41.2848 2
32.187 46.4918 2
31.189 43.8673 2
31.0232 47.8907 3.97622
30.1851 39.5365 3.97109
29.7303 42.0596 3.92505
30.296 45.0762 3.99791
31.9597 51.221 0.020328
29.7819 49.7401 2
27.766 48.2288 3.9795
28.3843 51.6495 0.0214438
26.4361 50.041 2
24.5584 48.5287 3.9845
25.0326 51.8078 0.0233084
23.2771 50.2484 2
21.5779 48.8441 3.98515
21.9189 51.8535 0.0193358
20.4113 50.3622 2
18.9767 49.1363 3.98543
16.85 49.3683 3.98539
16.7391 51.4436 3.98365
17.9439 50.3703 2
16.3669 53.9028 3.98389
17.8023 52.8289 2
19.1592 51.6782 0.0179008
15.9652 56.5016 3.98546
17.4191 55.3714 2
18.8971 54.3439 0.0170148
15.7448 59.2288 3.98656
17.1261 57.898 2
18.4346 56.7528 0.0146719
15.787 62.1492 3.98901
17.1325 60.5658 2
18.3625 59.1332 0.0146197
16.0892 65.3038 3.99342
17.4071 63.4772 2
18.6161 61.7798 0.0133073
16.6661 68.6801 4
17.9427 66.6208 2
19.1274 64.6827 0.0108606
18.75 69.9759 2
19.8867 67.8117 0.00666018
20.9142 71.1327 0
20.217 14.5843 3.9847
21.5857 13.5969 2
20.5294 11.9891 3.98588
21.1442 9.14253 3.98883
22.1904 11.0196 2
23.0952 12.7777 0.0154833
22.0165 6.08019 3.99333
23.041 8.17268 2
23.9723 10.1609 0.0139086
23.1494 2.85457 4
24.1173 5.14104 2
25.0227 7.30775 0.0106173
25.446 1.99012 2
26.2796 4.32668 0.00627562
27.7943 1.27781 0
32.2162 35.7762 3.98777
34.0373 35.8419 2
35.7744 35.8513 0.0572206
21.3022 15.8175 2
20.2982 16.949 3.98488
22.0935 16.6231 3.98399
25.356 13.8978 0.0163746
22.4777 15.0235 0.0158671
24.0221 15.6097 0.0162474
25.3776 16.0783 2
23.2609 16.2404 2
24.1992 18.4394 3.98296
27.0014 21.4499 3.98173
28.3544 15.968 0.0174455
27.4351 18.7901 2
30.9539 33.7921 3.9788
32.5513 34.1777 2
34.1225 34.2209 0.0500858
32.9057 33.0456 0.0128477
33.6587 31.1368 0.0180281
35.117 28.9465 0.0704115
37.5996 27.2224 -0.0190327
35.0172 27.3324 2
32.1358 32.2923 2
33.0077 29.8216 2
32.4259 28.0621 4.01476
31.161 31.212 3.93161
28.7395 24.3993 3.98519
29.5657 21.9318 2
30.2034 19.3334 0.0174857
34.9337 25.1575 0.024151
32.3055 22.403 0.0206963
31.6185 25.6011 2
29.5302 27.2256 3.99084
29.9134 37.5377 3.96972
32.0894 37.54 2
33.9977 37.5342 0.0581237
33.1598 49.1433 0.0229266
32.2013 46.4837 -0.000723214
32.2163 39.304 0.0157531
31.1909 43.8664 0.0737291
30.9453 41.2865 0.0190492
31.0258 47.8814 2
30.186 39.5353 2
29.73 42.0633 2
30.2825 45.0829 2
29.0241 46.46 3.97425
28.8024 39.9356 3.92422
28.4706 43.2937 4.00213
29.7816 49.7419 0.0207105
27.7671 48.2257 2
25.8148 46.7134 3.98683
26.4361 50.0435 0.0241566
24.5594 48.5267 2
22.703 47.1406 3.99036
23.2769 50.2501 0.0182171
21.5789 48.8423 2
19.9137 47.6653 3.9883
20.4108 50.3635 0.0171061
18.9774 49.1357 2
17.6194 48.2165 3.98657
16.1013 48.7168 3.98633
16.8505 49.3678 2
15.8149 50.2039 3.98475
15.3531 52.447 3.98406
16.7393 51.4431 2
17.9435 50.3709 0.0162603
14.8539 55.0038 3.98485
16.3669 53.9025 2
17.8022 52.8294 0.0170221
14.4527 57.7592 3.98646
15.965 56.5016 2
17.4193 55.3716 0.0156854
14.2645 60.7053 3.98872
15.7447 59.229 2
17.1263 57.8979 0.014162
14.3331 63.8634 3.99335
15.7869 62.1495 2
17.1325 60.5657 0.0135617
14.6715 67.2507 4
16.0891 65.3039 2
17.4071 63.4769 0.0107864
16.6661 68.6801 2
17.9428 66.6206 0.00665075
18.75 69.9759 0
18.9298 15.7689 3.98502
20.217 14.5842 2
18.9787 13.0985 3.98588
21.5857 13.5971 0.0153448
20.5295 11.9888 2
19.3436 10.2298 3.9887
19.9912 7.14469 3.9932
21.1442 9.14221 2
22.1904 11.0199 0.0140834
20.9142 3.86727 4
22.0164 6.07996 2
23.041 8.17304 0.0109417
23.1494 2.85451 2
24.1173 5.14127 0.00647256
25.446 1.99014 0
30.1917 35.5405 3.97467
32.216 35.7753 2
34.0368 35.8432 0.0588273
21.3021 15.8176 0.0157441
22.0936 16.623 2
20.2983 16.9489 2
19.2355 18.3931 3.9848
21.7768 17.837 3.98417
25.3775 16.0783 0.0166259
23.2608 16.2404 0.0164672
24.1994 18.4395 2
22.2674 19.8764 3.98394
24.5768 21.308 3.98329
26.3712 23.7114 3.98515
27.0022 21.4499 2
27.4349 18.7902 0.0168333
29.7325 33.0165 3.92872
30.9499 33.7947 2
32.5535 34.179 0.00489393
32.134 32.2874 0.0143792
33.0043 29.8216 0.0726067
35.0187 27.3412 -0.0174848
32.4227 28.0599 2
31.1685 31.215 2
29.9368 29.497 4.00424
27.7794 26.5342 3.97505
28.7398 24.4003 2
29.5649 21.9311 0.0155444
31.618 25.6049 0.02188
29.5291 27.2224 2
28.471 37.5344 3.92703
29.9127 37.5385 2
32.0893 37.5403 0.0142114
31.0232 47.8907 0.0237752
30.296 45.0762 0.00208969
30.1851 39.5365 0.0289098
29.7303 42.0596 0.0749481
29.0273 46.4564 2
28.805 39.9359 2
28.463 43.2964 2
27.0889 44.8307 3.97408
26.5669 40.6816 4.00753
27.766 48.2288 0.0204974
25.8169 46.7108 2
23.8411 45.2691 3.98938
24.5584 48.5287 0.0155032
22.7046 47.1382 2
20.833 45.9467 3.9902
21.5779 48.8441 0.0148535
19.9146 47.6647 2
18.2581 46.7759 3.98773
18.9767 49.1363 0.0145669
17.6201 48.216 2
16.2882 47.746 3.98617
16.1018 48.7164 2
15.1601 49.0462 3.98547
16.85 49.3683 0.0146116
15.8153 50.2035 2
14.4649 51.0139 3.98452
13.8134 53.4599 3.98467
15.3533 52.4467 2
16.7391 51.4436 0.0163501
13.246 56.1878 3.98603
14.8538 55.0037 2
16.3669 53.9028 0.0161061
12.8463 59.1398 3.9884
14.4526 57.7593 2
15.9652 56.5016 0.0145421
12.6782 62.3063 3.99314
14.2644 60.7055 2
15.7448 59.2288 0.0134387
12.7746 65.6939 4
14.333 63.8636 2
15.787 62.1492 0.010992
14.6714 67.2507 2
16.0892 65.3038 0.00658243
16.6661 68.6801 0
17.6629 17.142 3.98507
18.9298 15.7687 2
17.5093 14.3607 3.98595
20.217 14.5843 0.0153013
18.9787 13.0983 2
17.639 11.4476 3.98859
20.5294 11.9891 0.0141162
19.3436 10.2295 2
18.0515 8.33722 3.99314
18.75 5.0241 4
19.9912 7.14449 2
21.1442 9.14253 0.011171
20.9142 3.86727 2
22.0165 6.08019 0.00667228
23.1494 2.85457 0
28.8006 35.1356 3.92614
30.191 35.5441 2
32.2162 35.7762 0.0122285
22.0935 16.6231 0.0160066
20.2982 16.949 0.0151188
21.7769 17.8369 2
19.2356 18.3931 2
17.9682 19.9221 3.98493
20.8669 19.3614 3.98452
24.1992 18.4394 0.0170443
22.2677 19.8763 2
24.5774 21.308 2
22.3386 21.6986 3.98443
24.6581 23.1526 3.98427
25.3758 25.9369 3.97822
26.3715 23.7107 2
27.0014 21.4499 0.0182685
28.1176 32.2754 3.99949
29.7334 33.0156 2
30.9539 33.7921 0.0212024
31.161 31.212 0.0683939
32.4259 28.0621 -0.0147558
29.9315 29.495 2
26.8803 29.1379 3.96467
27.7782 26.5317 2
28.7395 24.3993 0.0148097
29.5302 27.2256 0.00915636
26.6844 37.3783 4.00269
28.4722 37.5326 2
29.9134 37.5377 0.0302781
29.0241 46.46 0.0257454
28.4706 43.2937 -0.00213136
28.8024 39.9356 0.0757823
27.0922 44.8293 2
26.5682 40.6815 2
25.0596 43.2281 3.98234
23.8174 39.4513 3.97201
25.8148 46.7134 0.0131715
23.843 45.2693 2
21.7992 43.9975 3.98993
22.703 47.1406 0.00963755
20.8346 45.9466 2
18.9105 45.0072 3.9866
19.9137 47.6653 0.0117006
18.259 46.7756 2
16.5734 46.2432 3.98533
17.6194 48.2165 0.0134265
16.2888 47.7458 2
14.887 47.6985 3.98523
16.1013 48.7168 0.0136732
15.1605 49.0459 2
13.7612 49.5726 3.98484
15.8149 50.2039 0.0152508
14.4651 51.0136 2
12.8785 51.8975 3.98472
12.1319 54.5462 3.98571
13.8134 53.4597 2
15.3531 52.447 0.0159448
11.53 57.4724 3.98786
13.2459 56.1878 2
14.8539 55.0038 0.0151534
11.1328 60.6331 3.99296
12.8462 59.1401 2
14.4527 57.7592 0.0135359
10.9835 64.0165 4
12.6782 62.3065 2
14.2645 60.7053 0.0112769
12.7745 65.694 2
14.3331 63.8634 0.00665412
14.6715 67.2507 0
16.3935 18.6332 3.9853
17.663 17.1419 2
16.0996 15.7679 3.98598
18.9298 15.7689 0.0149799
17.5094 14.3605 2
16.0203 12.7997 3.98844
18.9787 13.0985 0.0141232
17.639 11.4474 2
16.2026 9.65986 3.99308
19.3436 10.2298 0.0112989
18.0514 8.33704 2
16.6661 6.31991 4
18.75 5.02404 2
19.9912 7.14469 0.00679952
20.9142 3.86727 0
27.1937 34.7478 3.99933
28.8003 35.134 2
30.1917 35.5405 0.0253328
16.6644 21.3542 3.98405
21.7768 17.837 0.0158293
19.2355 18.3931 0.0151985
20.8671 19.3613 2
17.9683 19.9221 2
19.7061 21.5506 3.98569
22.2674 19.8764 0.016063
24.5768 21.308 0.0167128
22.339 21.6982 2
24.6583 23.1524 2
22.7927 24.5816 3.9816
24.431 28.5186 3.97496
25.3748 25.9363 2
26.3712 23.7114 0.0148492
25.9613 31.7202 3.97302
28.1164 32.2738 2
29.7325 33.0165 0.0712762
29.9368 29.497 -0.00423761
26.8806 29.1379 2
27.7794 26.5342 0.0249526
24.5005 36.8857 3.98
26.6848 37.3794 2
28.471 37.5344 0.0729662
27.0889 44.8307 0.0259195
26.5669 40.6816 -0.00753365
25.0607 43.23 2
23.8185 39.4534 2
22.842 41.8386 3.98387
21.5773 38.5124 3.98236
23.8411 45.2691 0.0106204
21.8005 43.9989 2
19.6542 42.9206 3.98448
20.833 45.9467 0.00979731
18.9116 45.0073 2
16.897 44.4073 3.98392
18.2581 46.7759 0.0122725
16.5741 46.2432 2
14.8043 46.1161 3.9841
16.2882 47.746 0.0138304
14.8875 47.6984 2
13.2661 48.0326 3.98451
15.1601 49.0462 0.0145346
13.7615 49.5724 2
12.0961 50.274 3.98475
14.4649 51.0139 0.0154766
12.8786 51.8974 2
11.1263 52.8541 3.98551
10.3196 55.724 3.9874
12.1319 54.5462 2
13.8134 53.4599 0.0153346
9.69941 58.8565 3.9926
11.5299 57.4725 2
13.246 56.1878 0.0139655
9.30605 62.2254 4
11.1327 60.6332 2
12.8463 59.1398 0.0116046
10.9835 64.0165 2
12.6782 62.3063 0.00685504
12.7746 65.6939 0
15.1357 20.1651 3.98484
16.3936 18.6331 2
14.7441 17.2887 3.98586
17.6629 17.142 0.014928
16.0996 15.7676 2
14.4823 14.2799 3.98823
17.5093 14.3607 0.0140519
16.0203 12.7993 2
14.4452 11.1106 3.99296
17.639 11.4476 0.0114119
16.2026 9.65969 2
14.6715 7.74927 4
18.0515 8.33722 0.00685807
16.6661 6.31988 2
18.75 5.0241 0
25.1395 34.294 3.98283
27.1935 34.7476 2
28.8006 35.1356 0.0738608
17.8328 22.2991 3.98622
15.5051 22.896 3.98312
16.6645 21.354 2
20.8669 19.3614 0.0154785
17.9682 19.9221 0.0150722
19.7064 21.5504 2
19.6212 24.3563 3.98393
22.3386 21.6986 0.0155669
24.6581 23.1526 0.01573
22.7922 24.581 2
21.8211 27.8048 3.97608
23.5904 31.1774 3.98028
24.4311 28.5195 2
25.3758 25.9369 0.0217819
25.9618 31.7216 2
28.1176 32.2754 0.000510747
26.8803 29.1379 0.0353324
22.2849 36.2732 3.98765
24.5012 36.8874 2
26.6844 37.3783 -0.00269378
25.0596 43.2281 0.0176644
23.8174 39.4513 0.0279879
22.8427 41.8398 2
21.5782 38.5129 2
20.568 40.6529 3.98099
19.9445 37.7882 3.98449
21.7992 43.9975 0.0100674
19.6552 42.9209 2
17.2869 42.1222 3.98233
18.9105 45.0072 0.0134038
16.8978 44.4074 2
14.8022 44.2224 3.98249
16.5734 46.2432 0.0146746
14.8049 46.1161 2
12.936 46.3168 3.98348
14.887 47.6985 0.0147657
13.2665 48.0326 2
11.466 48.5689 3.98441
13.7612 49.5726 0.01516
12.0963 50.2739 2
10.251 51.0961 3.98533
12.8785 51.8975 0.0152802
11.1263 52.854 2
9.22766 53.9012 3.98719
8.383 56.9901 3.99204
10.3195 55.7241 2
12.1319 54.5462 0.0142877
7.74927 60.3285 4
9.69936 58.8566 2
11.53 57.4724 0.0121433
9.306 62.2255 2
11.1328 60.6331 0.00704036
10.9835 64.0165 0
13.9451 21.7303 3.98435
15.1358 20.1649 2
13.4434 18.8841 3.98571
16.3935 18.6332 0.014699
14.7442 17.2885 2
13.0272 15.8712 3.98791
16.0996 15.7679 0.0140192
14.4823 14.2795 2
12.7823 12.6834 3.99281
16.0203 12.7997 0.0115641
14.4451 11.1104 2
12.7746 9.30605 4
16.2026 9.65986 0.00692333
14.6715 7.74924 2
16.6661 6.31991 0
22.88 33.7925 3.98684
25.1398 34.2957 2
27.1937 34.7478 0.000666123
17.593 24.0175 3.98428
17.8328 22.2988 2
14.2848 24.4283 3.98194
15.505 22.8956 2
16.6644 21.3542 0.0159527
18.9667 27.1793 3.97771
19.7061 21.5506 0.0143057
19.6208 24.3561 2
21.0475 30.6472 3.97894
22.7927 24.5816 0.0183994
21.8211 27.8052 2
23.5909 31.1785 2
24.431 28.5186 0.0250364
25.9613 31.7202 0.0269837
20.0575 35.919 3.98657
22.2854 36.2739 2
24.5005 36.8857 0.0199954
22.842 41.8386 0.0161338
21.5773 38.5124 0.0176436
20.5687 40.6531 2
19.9451 37.7887 2
17.9492 39.0112 3.98313
19.6542 42.9206 0.0155204
17.2877 42.1225 2
14.7462 41.9344 3.98158
16.897 44.4073 0.0160804
14.8029 44.2225 2
12.6739 44.4097 3.98226
14.8043 46.1161 0.0159047
12.9365 46.3168 2
10.9664 46.7503 3.98357
13.2661 48.0326 0.015493
11.4663 48.5689 2
9.51335 49.2541 3.98496
12.0961 50.274 0.0152487
10.2511 51.096 2
8.25999 52.0128 3.98701
11.1263 52.8541 0.0144905
9.22765 53.9011 2
7.19191 55.0406 3.99142
6.31991 58.3339 4
8.38298 56.9902 2
10.3196 55.724 0.0126014
7.74924 60.3285 2
9.69941 58.8565 0.0074005
9.30605 62.2254 0
13.2053 25.3434 3.98481
12.8101 23.2598 3.98364
13.9451 21.73 2
12.2271 20.5322 3.98555
15.1357 20.1651 0.0151601
13.4435 18.8838 2
11.6562 17.5512 3.98765
14.7441 17.2887 0.0141356
13.0272 15.8708 2
11.2195 14.3677 3.99259
14.4823 14.2799 0.011769
12.7822 12.6832 2
10.9835 10.9835 4
14.4452 11.1106 0.00703611
12.7745 9.306 2
14.6715 7.74927 0
20.4493 33.3825 3.98464
22.8803 33.7934 2
25.1395 34.294 0.0171669
15.8607 26.3791 3.98024
17.5928 24.0172 2
17.8328 22.2991 0.0137792
14.2847 24.4281 2
15.5051 22.896 0.0168833
18.2989 30.1542 3.97838
18.9667 27.1794 2
19.6212 24.3563 0.0160746
21.0479 30.6478 2
21.8211 27.8048 0.0239223
23.5904 31.1774 0.0197246
17.5695 35.9614 3.98678
20.0578 35.9196 2
22.2849 36.2732 0.0123548
20.568 40.6529 0.0190126
19.9445 37.7882 0.015512
17.9497 39.0115 2
14.2475 39.1845 3.98363
17.2869 42.1222 0.0176672
14.7467 41.9347 2
12.3593 42.2903 3.98221
14.8022 44.2224 0.0175143
12.6744 44.4098 2
10.5422 44.8165 3.98278
12.936 46.3168 0.0165159
10.9667 46.7504 2
8.89508 47.3313 3.98427
11.466 48.5689 0.0155889
9.51348 49.2541 2
7.42644 50.0448 3.98666
10.251 51.0961 0.014675
8.26 52.0128 2
6.13226 53.0149 3.99086
9.22766 53.9012 0.0128132
7.19191 55.0408 2
5.0241 56.25 4
6.31988 58.3339 2
8.383 56.9901 0.00795876
7.74927 60.3285 0
13.4385 26.7962 3.98141
11.9225 24.7704 3.98292
13.2052 25.3433 2
11.1286 22.2174 3.985
12.81 23.2596 2
13.9451 21.7303 0.015653
12.2271 20.5319 2
10.3855 19.3058 3.98747
13.4434 18.8841 0.0142873
11.6563 17.5509 2
9.76037 16.1502 3.99235
13.0272 15.8712 0.0120884
11.2195 14.3674 2
9.30607 12.7746 4
12.7823 12.6834 0.00719123
10.9835 10.9835 2
12.7746 9.30605 0
17.7565 33.0994 3.98297
20.4495 33.3831 2
22.88 33.7925 0.0131594
15.442 29.6202 3.97968
15.8606 26.3791 2
17.593 24.0175 0.0157211
14.2848 24.4283 0.0180597
18.2991 30.1546 2
18.9667 27.1793 0.0222874
21.0475 30.6472 0.0210581
14.8359 36.0169 3.98525
17.5697 35.9618 2
20.0575 35.919 0.013435
12.5493 37.8331 3.98326
17.9492 39.0112 0.0168723
14.2478 39.1848 2
11.8705 40.1506 3.98374
14.7462 41.9344 0.0184153
12.3597 42.2905 2
10.1404 42.7889 3.98227
12.6739 44.4097 0.0177433
10.5425 44.8166 2
8.3723 45.3313 3.98372
10.9664 46.7503 0.0164335
8.89526 47.3314 2
6.71744 48.0086 3.98607
9.51335 49.2541 0.0150375
7.42648 50.0448 2
5.20869 50.9172 3.99038
8.25999 52.0128 0.0129856
6.13227 53.0151 2
3.86727 54.0858 4
7.19191 55.0406 0.00858008
5.02404 56.25 2
6.31991 58.3339 0
12.8912 29.0186 3.97959
11.351 26.4725 3.98226
13.4385 26.7962 2
10.187 23.9531 3.98388
11.9224 24.7702 2
13.2053 25.3434 0.015194
9.23676 21.1255 3.98701
11.1286 22.2171 2
12.8101 23.2598 0.0163603
12.2271 20.5322 0.0144454
10.3855 19.3055 2
8.41619 18.0203 3.99199
11.6562 17.5512 0.0123481
9.7604 16.1499 2
7.74928 14.6715 4
11.2195 14.3677 0.0074118
9.30602 12.7745 2
10.9835 10.9835 0
14.4287 32.8518 3.9824
17.7566 33.0998 2
20.4493 33.3825 0.0153558
15.4422 29.6204 2
15.8607 26.3791 0.019758
18.2989 30.1542 0.0216246
12.8359 36.2084 3.9836
14.836 36.0172 2
17.5695 35.9614 0.0132188
12.5495 37.8334 2
11.2287 38.3152 3.98278
14.2475 39.1845 0.0163744
11.8708 40.1509 2
9.7249 40.7625 3.98332
12.3593 42.2903 0.0177901
10.1407 42.7892 2
7.92105 43.2782 3.98322
10.5422 44.8165 0.017216
8.37253 45.3315 2
6.12335 45.9125 3.98557
8.89508 47.3313 0.015733
6.71751 48.0087 2
4.41999 48.7567 3.99001
7.42644 50.0448 0.0133355
5.20871 50.9173 2
2.85457 51.8506 4
6.13226 53.0149 0.00913894
3.86727 54.0858 2
5.0241 56.25 0
12.03 31.245 3.98263
10.7623 28.4028 3.98095
12.8913 29.0186 2
9.4013 25.7858 3.98321
11.3509 26.4724 2
13.4385 26.7962 0.0185947
8.22344 23.0124 3.98599
10.187 23.9529 2
11.9225 24.7704 0.0170803
7.19817 19.97 3.99129
9.23674 21.1252 2
11.1286 22.2174 0.0149994
10.3855 19.3058 0.0125293
8.41622 18.0199 2
6.31992 16.6661 4
9.76037 16.1502 0.00765333
7.74926 14.6714 2
9.30607 12.7746 0
12.0437 34.2892 3.9818
14.4288 32.8521 2
17.7565 33.0994 0.0170337
15.442 29.6202 0.0203195
10.7937 36.6119 3.98262
12.8361 36.2087 2
14.8359 36.0169 0.0147501
12.5493 37.8331 0.0167358
11.2289 38.3155 2
9.31983 38.8287 3.98336
11.8705 40.1506 0.0162578
9.72513 40.7628 2
7.53199 41.2174 3.98353
10.1404 42.7889 0.0177329
7.92122 43.2784 2
5.63511 43.774 3.98529
8.3723 45.3313 0.0162822
6.12346 45.9125 2
3.76547 46.5416 3.98986
6.71744 48.0086 0.0139323
4.42002 48.7569 2
1.99014 49.554 4
5.20869 50.9172 0.00961554
2.85451 51.8506 2
3.86727 54.0858 0
10.8935 32.9111 3.98243
10.0742 30.3724 3.98213
12.0301 31.245 2
8.70889 27.722 3.98236
10.7623 28.4028 2
12.8912 29.0186 0.0204119
7.34865 24.9734 3.98532
9.40122 25.7857 2
11.351 26.4725 0.0177402
6.1149 21.9945 3.99025
8.22338 23.0121 2
10.187 23.9531 0.0161233
5.02411 18.75 4
7.19818 19.9697 2
9.23676 21.1255 0.0129948
8.41619 18.0203 0.0080054
6.3199 16.6661 2
7.74928 14.6715 0
10.4073 34.9972 3.98243
12.0438 34.2894 2
14.4287 32.8518 0.0175956
8.99379 36.9865 3.98237
10.7939 36.6122 2
12.8359 36.2084 0.0164034
11.2287 38.3152 0.0172171
9.31998 38.829 2
7.21262 39.1859 3.98378
9.7249 40.7625 0.0166779
7.53215 41.2177 2
5.25039 41.6183 3.98516
7.92105 43.2782 0.0167838
5.63518 43.7741 2
3.24307 44.2858 3.98978
6.12335 45.9125 0.0144305
3.76552 46.5417 2
1.27781 47.2057 4
4.41999 48.7567 0.00999156
1.99012 49.554 2
2.85457 51.8506 0
10.062 33.8763 3.98214
9.36695 32.1471 3.98283
10.8935 32.9111 2
8.05765 29.6878 3.9826
10.0742 30.3724 2
12.03 31.245 0.0173653
6.59213 27.0012 3.98463
8.70884 27.7219 2
10.7623 28.4028 0.0190458
5.16989 24.0889 3.9895
7.34857 24.9732 2
9.4013 25.7858 0.0167914
3.86728 20.9142 4
6.11489 21.9942 2
8.22344 23.0124 0.014005
5.02406 18.75 2
7.19817 19.97 0.00871013
6.31992 16.6661 0
8.82115 35.2777 3.9826
10.4074 34.9974 2
12.0437 34.2892 0.0182022
6.99773 37.2071 3.983
8.99394 36.9867 2
10.7937 36.6119 0.0173778
9.31983 38.8287 0.0166362
7.21273 39.1862 2
4.97827 39.4701 3.98515
7.53199 41.2174 0.0164717
5.25046 41.6184 2
2.85355 42.0054 3.9895
5.63511 43.774 0.0147103
3.2431 44.286 2
0.720592 44.8159 4
3.76547 46.5416 0.0101383
1.27778 47.2057 2
1.99014 49.554 0
8.86367 33.6931 3.9827
10.0621 33.8764 2
7.4946 31.6033 3.98324
9.36695 32.1471 2
10.8935 32.9111 0.0175712
5.93711 29.0639 3.98441
8.05761 29.6877 2
10.0742 30.3724 0.0178658
4.35729 26.243 3.9891
6.59206 27.0011 2
8.70889 27.722 0.0176372
2.85458 23.1494 4
5.16985 24.0887 2
7.34865 24.9734 0.0146773
3.86728 20.9142 2
6.1149 21.9945 0.00975293
5.02411 18.75 0
6.94858 35.3048 3.98294
8.82125 35.2778 2
10.4073 34.9972 0.0175653
4.82905 37.3408 3.98477
6.99787 37.2073 2
8.99379 36.9865 0.0176261
7.21262 39.1859 0.0162199
4.97833 39.4703 2
2.60164 39.716 3.98916
5.25039 41.6183 0.0148371
2.85358 42.0056 2
0.320823 42.3947 4
3.24307 44.2858 0.0102169
0.720551 44.8159 2
1.27781 47.2057 0
7.10858 33.4573 3.98318
8.86372 33.6931 2
10.062 33.8763 0.0178615
5.40759 31.1294 3.98477
7.49455 31.6033 2
9.36695 32.1471 0.0171741
3.67888 28.4401 3.98909
5.93705 29.0639 2
8.05765 29.6878 0.0173975
1.99015 25.446 4
4.35724 26.2429 2
6.59213 27.0012 0.0153743
2.85453 23.1494 2
5.16989 24.0889 0.0104972
3.86728 20.9142 0
4.84369 35.2508 3.9846
6.94868 35.3049 2
8.82115 35.2777 0.0174031
2.49321 37.4292 3.98906
4.82916 37.341 2
6.99773 37.2071 0.0170028
4.97827 39.4701 0.0148534
2.60166 39.7161 2
0.080333 39.9526 4
2.85355 42.0054 0.0105044
0.320817 42.3947 2
0.720592 44.8159 0
5.03706 33.1877 3.98477
7.1086 33.4574 2
8.86367 33.6931 0.0173028
3.14305 30.6636 3.98936
5.40752 31.1295 2
7.4946 31.6033 0.0167624
1.27793 27.7943 4
3.67884 28.4401 2
5.93711 29.0639 0.0155886
1.99013 25.446 2
4.35729 26.243 0.0108985
2.85458 23.1494 0
2.54546 35.1585 3.98903
4.84375 35.2511 2
6.94858 35.3048 0.0170551
0 37.5 4
2.49327 37.4295 2
4.82905 37.3408 0.015234
2.60164 39.716 0.0108394
0.0802903 39.9526 2
0.320823 42.3947 0
2.76307 32.9041 3.9892
5.03706 33.188 2
7.10858 33.4573 0.0168169
0.721173 30.1842 4
3.143 30.6637 2
5.40759 31.1294 0.0152337
1.27779 27.7943 2
3.67888 28.4401 0.0109131
1.99015 25.446 0
0.0806499 35.0474 4
2.54548 35.1587 2
4.84369 35.2508 0.0153969
0 37.5 2
2.49321 37.4292 0.0109421
0.080333 39.9526 0
0.32156 32.6054 4
2.76307 32.9043 2
5.03706 33.1877 0.0152286
0.72056 30.1841 2
3.14305 30.6636 0.0106414
1.27793 27.7943 0
0.0802889 35.0474 2
2.54546 35.1585 0.0109736
0 37.5 0
0.320817 32.6053 2
2.76307 32.9041 0.0108039
0.721173 30.1842 0
0.0806499 35.0474 0
0.32156 32.6054 0
CELLS 1910 17190
8 18 6 25 56 2 0 5 16
8 57 23 6 18 17 4 0 2
8 78 36 9 29 31 11 1 7
8 31 11 1 7 79 37 10 30
8 110 57 18 50 48 17 2 14
8 50 18 56 111 14 2 16 49
8 116 62 22 55 52 20 3 15
8 56 25 67 118 16 5 24 53
8 119 63 23 57 54 21 4 17
8 55 22 63 119 15 3 21 54
8 58 26 68 121 18 6 25 56
8 122 65 26 58 57 23 6 18
8 73 31 7 27 142 79 30 71
8 143 78 29 72 73 31 7 27
8 83 147 76 34 32 74 28 8
8 84 148 78 36 33 75 29 9
8 76 34 8 28 148 84 33 75
8 37 79 150 86 10 30 77 35
8 151 87 36 78 80 38 11 31
8 80 38 11 31 152 88 37 79
8 175 100 42 94 96 44 12 40
8 44 96 176 101 12 40 95 43
8 101 176 98 46 43 95 41 13
8 46 98 178 103 13 41 97 45
8 178 103 45 97 147 83 32 74
8 189 116 55 109 106 52 15 47
8 111 56 118 191 49 16 53 107
8 192 119 57 110 108 54 17 48
8 109 55 119 192 47 15 54 108
8 194 122 58 112 110 57 18 50
8 112 58 121 195 50 18 56 111
8 115 61 19 51 197 124 59 113
8 115 61 125 198 51 19 60 114
8 198 125 62 116 114 60 20 52
8 200 127 64 120 116 62 22 55
8 118 67 132 202 53 24 66 117
8 121 68 133 203 56 25 67 118
8 120 64 128 204 55 22 63 119
8 204 128 65 122 119 63 23 57
8 206 134 68 121 123 69 26 58
8 123 69 26 58 207 131 65 122
8 226 147 74 138 140 76 28 70
8 229 148 75 139 143 78 29 72
8 140 76 28 70 229 148 75 139
8 142 79 30 71 231 150 77 141
8 144 80 31 73 232 152 79 142
8 233 151 78 143 144 80 31 73
8 150 86 35 77 235 154 81 145
8 235 154 81 145 146 82 39 91
8 146 82 39 91 236 155 90 165
8 238 157 83 147 149 85 34 76
8 239 158 84 148 151 87 36 78
8 149 85 34 76 239 158 84 148
8 152 88 37 79 241 160 86 150
8 242 161 87 151 153 89 38 80
8 153 89 38 80 243 162 88 152
8 171 98 41 92 265 178 97 169
8 265 178 97 169 226 147 74 138
8 172 96 40 93 266 176 95 170
8 266 176 95 170 171 98 41 92
8 269 175 94 173 172 96 40 93
8 271 180 99 174 175 100 42 94
8 197 124 59 113 271 180 99 174
8 272 181 100 175 177 102 44 96
8 273 182 101 176 179 104 46 98
8 177 102 44 96 273 182 101 176
8 179 104 46 98 275 184 103 178
8 275 184 103 178 238 157 83 147
8 188 115 51 105 283 197 113 186
8 188 115 198 284 105 51 114 187
8 284 198 116 189 187 114 52 106
8 286 200 120 193 189 116 55 109
8 191 118 202 288 107 53 117 190
8 195 121 203 289 111 56 118 191
8 193 120 204 290 109 55 119 192
8 290 204 122 194 192 119 57 110
8 196 123 58 112 292 207 122 194
8 293 206 121 195 196 123 58 112
8 199 126 61 115 297 211 124 197
8 298 212 127 200 198 125 62 116
8 199 126 212 298 115 61 125 198
8 205 129 64 120 300 214 127 200
8 301 217 130 201 202 132 66 117
8 209 136 168 264 301 217 130 201
8 302 219 132 202 203 133 67 118
8 303 220 133 203 206 134 68 121
8 205 129 215 304 120 64 128 204
8 304 215 131 207 204 128 65 122
8 306 221 134 206 208 135 69 123
8 208 135 69 123 307 218 131 207
8 210 137 167 263 309 223 136 209
8 328 238 147 226 230 149 76 140
8 228 146 91 166 329 236 165 260
8 231 150 77 141 330 235 145 227
8 330 235 145 227 228 146 91 166
8 332 239 148 229 233 151 78 143
8 230 149 76 140 332 239 148 229
8 232 152 79 142 334 241 150 231
8 234 153 80 144 335 243 152 232
8 336 242 151 233 234 153 80 144
8 236 155 90 165 338 245 164 259
8 241 160 86 150 339 246 154 235
8 339 246 154 235 237 156 82 146
8 237 156 82 146 340 247 155 236
8 342 249 157 238 240 159 85 149
8 343 250 158 239 242 161 87 151
8 240 159 85 149 343 250 158 239
8 243 162 88 152 345 252 160 241
8 244 163 253 346 153 89 161 242
8 244 163 89 153 347 254 162 243
8 311 224 261 371 210 137 167 263
8 263 167 262 372 209 136 168 264
8 267 179 98 171 375 275 178 265
8 375 275 178 265 328 238 147 226
8 376 273 176 266 267 179 98 171
8 268 177 96 172 376 273 176 266
8 379 272 175 269 268 177 96 172
8 380 271 174 270 269 175 94 173
8 283 197 113 186 380 271 174 270
8 381 277 180 271 272 181 100 175
8 297 211 124 197 381 277 180 271
8 382 278 181 272 274 183 102 177
8 274 183 102 177 383 279 182 273
8 383 279 182 273 276 185 104 179
8 385 281 184 275 342 249 157 238
8 276 185 104 179 385 281 184 275
8 285 199 115 188 393 297 197 283
8 394 298 200 286 284 198 116 189
8 285 199 298 394 188 115 198 284
8 291 205 120 193 396 300 200 286
8 397 301 201 287 288 202 117 190
8 295 209 264 374 397 301 201 287
8 398 302 202 288 289 203 118 191
8 399 303 203 289 293 206 121 195
8 291 205 304 400 193 120 204 290
8 400 304 207 292 290 204 122 194
8 294 208 123 196 402 307 207 292
8 403 306 206 293 294 208 123 196
8 296 210 263 373 405 309 209 295
8 408 312 213 299 297 211 126 199
8 299 213 313 409 199 126 212 298
8 409 313 214 300 298 212 127 200
8 305 216 129 205 411 315 214 300
8 412 318 217 301 302 219 132 202
8 309 223 136 209 412 318 217 301
8 413 320 219 302 303 220 133 203
8 306 221 321 414 206 134 220 303
8 307 218 131 207 415 316 215 304
8 305 216 316 415 205 129 215 304
8 417 322 221 306 308 222 135 208
8 308 222 135 208 418 319 218 307
8 310 225 137 210 420 325 223 309
8 423 326 224 311 310 225 137 210
8 329 236 165 260 441 338 259 368
8 442 342 238 328 333 240 149 230
8 331 237 146 228 443 340 236 329
8 334 241 150 231 444 339 235 330
8 444 339 235 330 331 237 146 228
8 446 343 239 332 336 242 151 233
8 333 240 149 230 446 343 239 332
8 335 243 152 232 448 345 241 334
8 337 244 153 234 449 347 243 335
8 337 244 346 450 234 153 242 336
8 338 245 164 259 452 349 258 367
8 340 247 155 236 453 350 245 338
8 345 252 160 241 454 351 246 339
8 454 351 246 339 341 248 156 237
8 341 248 156 237 455 352 247 340
8 240 159 251 344 342 249 354 457
8 242 161 253 346 343 250 355 458
8 343 250 355 458 240 159 251 344
8 347 254 162 243 460 357 252 345
8 348 255 358 461 244 163 253 346
8 348 255 163 244 462 359 254 347
8 473 360 257 365 363 256 364 482
8 452 349 258 367 365 257 366 485
8 422 324 369 488 311 224 261 371
8 371 261 370 490 263 167 262 372
8 407 311 371 491 296 210 263 373
8 373 263 372 492 295 209 264 374
8 493 385 275 375 442 342 238 328
8 377 276 179 267 493 385 275 375
8 378 274 177 268 494 383 273 376
8 494 383 273 376 377 276 179 267
8 497 382 272 379 378 274 177 268
8 498 381 271 380 379 272 175 269
8 393 297 197 283 498 381 271 380
8 499 387 277 381 382 278 181 272
8 408 312 211 297 499 387 277 381
8 500 388 278 382 384 280 183 274
8 501 389 279 383 386 282 185 276
8 384 280 183 274 501 389 279 383
8 386 282 185 276 503 391 281 385
8 503 391 281 385 457 354 249 342
8 511 408 299 395 393 297 199 285
8 395 299 409 512 285 199 298 394
8 512 409 300 396 394 298 200 286
8 401 305 205 291 514 411 300 396
8 515 412 301 397 398 302 202 288
8 405 309 209 295 515 412 301 397
8 516 413 302 398 399 303 203 289
8 403 306 414 517 293 206 303 399
8 402 307 207 292 518 415 304 400
8 401 305 415 518 291 205 304 400
8 404 308 208 294 520 418 307 402
8 521 417 306 403 404 308 208 294
8 406 310 210 296 523 420 309 405
8 526 423 311 407 406 310 210 296
8 410 314 213 299 527 424 312 408
8 528 425 315 411 409 313 214 300
8 410 314 425 528 299 213 313 409
8 416 317 216 305 530 427 315 411
8 531 430 318 412 413 320 219 302
8 420 325 223 309 531 430 318 412
8 532 432 320 413 414 321 220 303
8 417 322 433 533 306 221 321 414
8 418 319 218 307 534 428 316 415
8 416 317 428 534 305 216 316 415
8 419 323 434 536 308 222 322 417
8 419 323 222 308 537 431 319 418
8 421 327 225 310 539 438 325 420
8 421 327 439 541 310 225 326 423
8 543 437 324 422 423 326 224 311
8 441 338 259 368 559 452 367 486
8 443 340 236 329 560 453 338 441
8 333 240 344 447 442 342 457 561
8 445 341 237 331 562 455 340 443
8 448 345 241 334 563 454 339 444
8 563 454 339 444 445 341 237 331
8 336 242 346 450 446 343 458 565
8 446 343 458 565 333 240 344 447
8 449 347 243 335 567 460 345 448
8 451 348 244 337 568 462 347 449
8 451 348 461 569 337 244 346 450
8 570 463 349 452 473 360 257 365
8 453 350 245 338 570 463 349 452
8 455 352 247 340 571 464 350 453
8 460 357 252 345 572 465 351 454
8 572 465 351 454 456 353 248 341
8 456 353 248 341 573 466 352 455
8 344 251 356 459 457 354 468 575
8 458 355 469 576 344 251 356 459
8 346 253 358 461 458 355 469 576
8 462 359 254 347 578 471 357 460
8 348 255 359 462 461 358 472 579
8 591 474 360 473 475 361 256 363
8 475 361 256 363 594 477 362 479
8 363 256 364 482 479 362 480 603
8 590 473 365 484 481 363 482 605
8 482 364 257 365 606 483 366 485
8 559 452 367 486 484 365 485 607
8 542 436 487 609 422 324 369 488
8 525 422 488 611 407 311 371 491
8 488 369 489 612 371 261 370 490
8 491 371 490 613 373 263 372 492
8 495 386 276 377 614 503 385 493
8 614 503 385 493 561 457 342 442
8 615 501 383 494 495 386 276 377
8 496 384 274 378 615 501 383 494
8 618 500 382 497 496 384 274 378
8 619 499 381 498 497 382 272 379
8 511 408 297 393 619 499 381 498
8 620 505 387 499 500 388 278 382
8 527 424 312 408 620 505 387 499
8 502 390 506 621 384 280 388 500
8 622 507 389 501 504 392 282 386
8 502 390 280 384 622 507 389 501
8 504 392 282 386 624 509 391 503
8 624 509 391 503 575 468 354 457
8 513 410 299 395 630 527 408 511
8 631 528 411 514 512 409 300 396
8 513 410 528 631 395 299 409 512
8 519 416 305 401 633 530 411 514
8 634 531 412 515 516 413 302 398
8 523 420 309 405 634 531 412 515
8 635 532 413 516 517 414 303 399
8 521 417 533 636 403 306 414 517
8 520 418 307 402 637 534 415 518
8 519 416 534 637 401 305 415 518
8 522 419 308 404 639 537 418 520
8 522 419 536 640 404 308 417 521
8 524 421 310 406 642 539 420 523
8 524 421 541 644 406 310 423 526
8 646 543 422 525 526 423 311 407
8 529 426 314 410 647 544 424 527
8 528 425 545 648 411 315 427 530
8 529 426 545 648 410 314 425 528
8 535 429 317 416 649 546 427 530
8 650 548 430 531 532 432 320 413
8 539 438 325 420 650 548 430 531
8 533 433 550 651 414 321 432 532
8 536 434 551 652 417 322 433 533
8 537 431 319 418 653 547 428 534
8 535 429 547 653 416 317 428 534
8 538 435 552 654 419 323 434 536
8 538 435 323 419 655 549 431 537
8 540 440 327 421 657 556 438 539
8 540 440 557 659 421 327 439 541
8 541 439 555 660 423 326 437 543
8 661 554 436 542 543 437 324 422
8 676 570 452 559 590 473 365 484
8 560 453 338 441 676 570 452 559
8 562 455 340 443 677 571 453 560
8 447 344 459 566 561 457 575 678
8 564 456 341 445 679 573 455 562
8 567 460 345 448 680 572 454 563
8 680 572 454 563 564 456 341 445
8 565 458 576 682 447 344 459 566
8 450 346 461 569 565 458 576 682
8 568 462 347 449 684 578 460 567
8 451 348 462 568 569 461 579 685
8 686 580 463 570 591 474 360 473
8 571 464 350 453 686 580 463 570
8 573 466 352 455 687 581 464 571
8 572 465 582 688 460 357 471 578
8 574 467 582 688 456 353 465 572
8 574 467 353 456 689 583 466 573
8 459 356 470 577 575 468 585 691
8 576 469 586 692 459 356 470 577
8 461 358 472 579 576 469 586 692
8 462 359 471 578 579 472 588 694
8 704 591 473 590 593 475 363 481
8 595 476 592 705 475 361 474 591
8 593 475 363 481 707 594 479 602
8 594 477 362 479 709 598 478 600
8 595 476 361 475 711 597 477 594
8 479 362 480 603 600 478 601 720
8 481 363 482 605 602 479 603 722
8 603 480 364 482 723 604 483 606
8 605 482 365 484 724 606 485 607
8 656 553 608 726 542 436 487 609
8 645 542 609 728 525 422 488 611
8 609 487 610 729 488 369 489 612
8 611 488 612 730 491 371 490 613
8 616 504 386 495 731 624 503 614
8 731 624 503 614 678 575 457 561
8 732 622 501 615 616 504 386 495
8 617 502 384 496 732 622 501 615
8 617 502 621 735 496 384 500 618
8 736 620 499 619 618 500 382 497
8 630 527 408 511 736 620 499 619
8 621 506 626 737 500 388 505 620
8 647 544 424 527 737 626 505 620
8 623 508 627 738 502 390 506 621
8 623 508 390 502 739 628 507 622
8 625 510 628 739 504 392 507 622
8 740 629 509 624 691 585 468 575
8 625 510 392 504 740 629 509 624
8 632 529 410 513 744 647 527 630
8 631 528 648 745 514 411 530 633
8 632 529 648 745 513 410 528 631
8 638 535 416 519 746 649 530 633
8 747 650 531 634 635 532 413 516
8 642 539 420 523 747 650 531 634
8 636 533 651 748 517 414 532 635
8 640 536 652 749 521 417 533 636
8 639 537 418 520 750 653 534 637
8 638 535 653 750 519 416 534 637
8 641 538 419 522 751 655 537 639
8 641 538 654 752 522 419 536 640
8 643 540 421 524 753 657 539 642
8 643 540 659 755 524 421 541 644
8 644 541 660 757 526 423 543 646
8 758 661 542 645 646 543 422 525
8 529 426 544 647 648 545 662 759
8 530 427 545 648 649 546 663 760
8 535 429 546 649 653 547 664 761
8 762 666 548 650 651 550 432 532
8 657 556 438 539 762 666 548 650
8 652 551 668 763 533 433 550 651
8 654 552 669 764 536 434 551 652
8 655 549 431 537 765 665 547 653
8 538 435 549 655 654 552 667 766
8 661 554 671 768 542 436 553 656
8 658 558 440 540 769 674 556 657
8 658 558 675 770 540 440 557 659
8 659 557 673 771 541 439 555 660
8 660 555 672 772 543 437 554 661
8 788 686 570 676 704 591 473 590
8 677 571 453 560 788 686 570 676
8 679 573 455 562 789 687 571 677
8 566 459 577 683 678 575 691 790
8 681 574 456 564 791 689 573 679
8 680 572 688 792 567 460 578 684
8 681 574 688 792 564 456 572 680
8 682 576 692 794 566 459 577 683
8 569 461 579 685 682 576 692 794
8 568 462 578 684 685 579 694 796
8 687 581 464 571 798 696 580 686
8 798 696 580 686 705 592 474 591
8 689 583 466 573 799 697 581 687
8 688 582 698 800 578 471 588 694
8 690 584 698 800 574 467 582 688
8 690 584 467 574 801 699 583 689
8 693 587 701 803 577 470 585 691
8 693 587 470 577 804 702 586 692
8 695 589 702 804 579 472 586 692
8 695 589 472 579 805 703 588 694
8 708 595 705 813 593 475 591 704
8 710 596 706 814 595 476 592 705
8 707 594 479 602 816 709 600 719
8 708 595 475 593 817 711 594 707
8 709 598 478 600 819 715 599 717
8 711 597 477 594 820 714 598 709
8 710 596 476 595 822 713 597 711
8 600 478 601 720 717 599 718 832
8 602 479 603 722 719 600 720 834
8 720 601 480 603 835 721 604 723
8 722 603 482 605 836 723 606 724
8 767 670 725 839 656 553 608 726
8 756 656 726 841 645 542 609 728
8 726 608 727 842 609 487 610 729
8 728 609 729 843 611 488 612 730
8 844 740 624 731 790 691 575 678
8 733 625 504 616 844 740 624 731
8 734 623 502 617 845 739 622 732
8 733 625 739 845 616 504 622 732
8 734 623 738 846 617 502 621 735
8 735 621 737 847 618 500 620 736
8 744 647 527 630 847 737 620 736
8 621 506 627 738 737 626 741 848
8 647 544 626 737 759 662 741 848
8 623 508 628 739 738 627 742 849
8 740 629 585 691 850 743 700 802
8 625 510 629 740 739 628 743 850
8 632 529 647 744 745 648 759 854
8 633 530 648 745 746 649 760 855
8 638 535 649 746 750 653 761 856
8 857 762 650 747 748 651 532 635
8 753 657 539 642 857 762 650 747
8 749 652 763 858 636 533 651 748
8 752 654 764 859 640 536 652 749
8 751 655 537 639 860 765 653 750
8 641 538 655 751 752 654 766 861
8 754 658 540 643 862 769 657 753
8 754 658 770 863 643 540 659 755
8 755 659 771 864 644 541 660 757
8 758 661 768 866 645 542 656 756
8 757 660 772 867 646 543 661 758
8 759 662 773 868 648 545 663 760
8 649 546 663 760 761 664 774 871
8 765 665 547 653 872 775 664 761
8 873 777 666 762 763 668 550 651
8 769 674 556 657 873 777 666 762
8 764 669 779 874 652 551 668 763
8 654 552 667 766 764 669 778 875
8 655 549 665 765 766 667 776 876
8 768 671 782 877 656 553 670 767
8 772 672 783 878 661 554 671 768
8 658 558 674 769 770 675 786 879
8 659 557 675 770 771 673 785 881
8 882 784 672 772 771 673 555 660
8 789 687 571 677 897 798 686 788
8 897 798 686 788 813 705 591 704
8 791 689 573 679 898 799 687 789
8 795 693 803 900 683 577 691 790
8 793 690 574 681 901 801 689 791
8 792 688 800 902 684 578 694 796
8 793 690 800 902 681 574 688 792
8 795 693 577 683 903 804 692 794
8 797 695 804 903 685 579 692 794
8 797 695 579 685 904 805 694 796
8 905 806 697 799 798 696 581 687
8 814 706 806 905 705 592 696 798
8 689 583 697 799 801 699 808 907
8 800 698 809 908 694 588 703 805
8 690 584 699 801 800 698 809 908
8 803 701 810 909 691 585 700 802
8 693 587 702 804 803 701 811 910
8 695 589 703 805 804 702 812 911
8 818 710 814 919 708 595 705 813
8 821 712 815 920 710 596 706 814
8 816 709 600 719 922 819 717 831
8 817 711 594 707 923 820 709 816
8 818 710 595 708 924 822 711 817
8 819 715 599 717 926 827 716 829
8 820 714 598 709 927 826 715 819
8 929 825 713 822 820 714 597 711
8 821 712 596 710 930 824 713 822
8 717 599 718 832 829 716 830 942
8 719 600 720 834 831 717 832 944
8 832 718 601 720 945 833 721 835
8 834 720 603 722 946 835 723 836
8 869 780 838 950 767 670 725 839
8 865 767 839 952 756 656 726 841
8 839 725 840 953 726 608 727 842
8 841 726 842 954 728 609 729 843
8 844 740 691 790 955 850 802 899
8 733 625 740 844 845 739 850 955
8 734 623 739 845 846 738 849 956
8 735 621 738 846 847 737 848 957
8 744 647 737 847 854 759 848 957
8 738 627 742 849 848 741 851 958
8 848 741 851 958 759 662 773 868
8 850 743 700 802 959 852 807 906
8 849 742 628 739 959 852 743 850
8 854 759 868 965 745 648 760 855
8 746 649 760 855 856 761 871 966
8 860 765 653 750 967 872 761 856
8 968 873 762 857 858 763 651 748
8 862 769 657 753 968 873 762 857
8 859 764 874 969 749 652 763 858
8 752 654 766 861 859 764 875 970
8 751 655 765 860 861 766 876 971
8 754 658 769 862 863 770 879 972
8 755 659 770 863 864 771 881 974
8 976 882 772 867 864 771 660 757
8 866 768 877 977 756 656 767 865
8 867 772 878 978 758 661 768 866
8 760 663 773 868 871 774 883 980
8 870 781 837 948 982 890 780 869
8 982 890 780 869 877 782 670 767
8 761 664 774 871 872 775 884 984
8 876 776 665 765 985 885 775 872
8 873 777 668 763 986 887 779 874
8 769 674 777 873 879 786 887 986
8 764 669 778 875 874 779 888 987
8 766 667 776 876 875 778 886 988
8 878 783 892 989 768 671 782 877
8 878 783 672 772 990 893 784 882
8 880 787 675 770 991 896 786 879
8 880 787 895 992 770 675 785 881
8 881 785 894 993 771 673 784 882
8 1006 905 799 898 897 798 687 789
8 919 814 905 1006 813 705 798 897
8 791 689 799 898 901 801 907 1007
8 900 803 909 1009 790 691 802 899
8 795 693 804 903 900 803 910 1010
8 902 800 908 1011 796 694 805 904
8 793 690 801 901 902 800 908 1011
8 797 695 805 904 903 804 911 1012
8 799 697 806 905 907 808 912 1013
8 920 815 912 1013 814 706 806 905
8 802 700 810 909 906 807 913 1014
8 801 699 808 907 908 809 914 1015
8 805 703 809 908 911 812 915 1016
8 803 701 811 910 909 810 916 1017
8 911 812 917 1018 804 702 811 910
8 925 821 920 1030 818 710 814 919
8 928 823 921 1031 821 712 815 920
8 922 819 717 831 1033 926 829 941
8 923 820 709 816 1034 927 819 922
8 1035 929 822 924 923 820 711 817
8 925 821 710 818 1036 930 822 924
8 1038 933 825 929 927 826 714 820
8 926 827 716 829 1039 935 828 939
8 927 826 715 819 1040 934 827 926
8 928 823 712 821 1041 931 824 930
8 1042 932 824 930 929 825 713 822
8 829 716 830 942 939 828 940 1058
8 831 717 832 944 941 829 942 1060
8 942 830 718 832 1061 943 833 945
8 944 832 720 834 1062 945 835 946
8 981 889 947 1064 870 781 837 948
8 948 837 949 1067 869 780 838 950
8 975 869 950 1069 865 767 839 952
8 950 838 951 1070 839 725 840 953
8 952 839 953 1071 841 726 842 954
8 955 850 802 899 1072 959 906 1008
8 956 849 739 845 1072 959 850 955
8 846 738 849 956 957 848 958 1073
8 957 848 958 1073 854 759 868 965
8 849 742 852 959 958 851 961 1076
8 960 853 961 1076 906 807 852 959
8 958 851 961 1076 868 773 883 980
8 960 853 807 906 1077 963 913 1014
8 855 760 868 965 966 871 980 1085
8 856 761 871 966 967 872 984 1086
8 971 876 765 860 1087 985 872 967
8 968 873 763 858 1088 986 874 969
8 862 769 873 968 972 879 986 1088
8 859 764 875 970 969 874 987 1089
8 861 766 876 971 970 875 988 1090
8 973 880 770 863 1091 991 879 972
8 973 880 992 1092 863 770 881 974
8 974 881 993 1093 864 771 882 976
8 979 870 948 1066 1094 982 869 975
8 1094 982 869 975 977 877 767 865
8 978 878 772 867 1095 990 882 976
8 978 878 989 1096 866 768 877 977
8 871 774 883 980 984 884 994 1099
8 983 891 999 1100 870 781 889 981
8 1101 1000 890 982 989 892 782 877
8 983 891 781 870 1101 1000 890 982
8 872 775 884 984 985 885 995 1103
8 876 776 885 985 988 886 996 1104
8 986 887 779 874 1105 998 888 987
8 879 786 887 986 991 896 998 1105
8 875 778 886 988 987 888 997 1106
8 990 893 1002 1107 878 783 892 989
8 1108 1003 893 990 993 894 784 882
8 880 787 896 991 992 895 1005 1109
8 993 894 785 881 1110 1004 895 992
8 898 799 905 1006 1007 907 1013 1120
8 1030 920 1013 1120 919 814 905 1006
8 901 801 907 1007 1011 908 1015 1121
8 899 802 909 1009 1008 906 1014 1122
8 900 803 910 1010 1009 909 1017 1123
8 1012 911 1018 1124 903 804 910 1010
8 904 805 908 1011 1012 911 1016 1125
8 1013 912 1020 1127 907 808 914 1015
8 1031 921 1020 1127 920 815 912 1013
8 1019 918 962 1075 1128 1021 913 1014
8 1128 1021 913 1014 1017 916 810 909
8 1015 914 1022 1129 908 809 915 1016
8 1016 915 1023 1130 911 812 917 1018
8 1018 917 1024 1131 910 811 916 1017
8 1037 928 1031 1148 925 821 920 1030
8 928 823 931 1041 1031 921 1032 1149
8 1033 926 829 941 1151 1039 939 1057
8 1034 927 819 922 1152 1040 926 1033
8 1153 1038 929 1035 1034 927 820 923
8 1154 1042 930 1036 1035 929 822 924
8 1037 928 821 925 1155 1041 930 1036
8 1039 935 828 939 1156 1047 938 1055
8 1157 1043 932 1042 1038 933 825 929
8 1038 933 826 927 1158 1045 934 1040
8 1040 934 827 926 1159 1046 935 1039
8 930 824 932 1042 1041 931 1044 1160
8 1051 936 1048 1165 1175 1052 937 1053
8 1156 1047 938 1055 1053 937 1054 1178
8 939 828 940 1058 1055 938 1056 1181
8 941 829 942 1060 1057 939 1058 1183
8 942 830 943 1061 1058 940 1059 1184
8 1060 942 832 944 1185 1061 945 1062
8 1082 964 1063 1188 981 889 947 1064
8 1097 981 1064 1190 979 870 948 1066
8 1064 947 1065 1191 948 837 949 1067
8 1066 948 1067 1193 975 869 950 1069
8 1067 949 1068 1194 950 838 951 1070
8 1069 950 1070 1195 952 839 953 1071
8 956 849 959 1072 1073 958 1076 1197
8 1074 960 1076 1197 1008 906 959 1072
8 1073 958 1076 1197 965 868 980 1085
8 1074 960 906 1008 1198 1077 1014 1122
8 1133 1026 1079 1199 1019 918 962 1075
8 1077 963 913 1014 1200 1080 962 1075
8 960 853 963 1077 1076 961 1078 1201
8 980 883 961 1076 1099 994 1078 1201
8 1210 1083 964 1082 1100 999 889 981
8 966 871 980 1085 1086 984 1099 1215
8 967 872 984 1086 1087 985 1103 1216
8 971 876 985 1087 1090 988 1104 1217
8 1088 986 874 969 1218 1105 987 1089
8 972 879 986 1088 1091 991 1105 1218
8 970 875 988 1090 1089 987 1106 1219
8 973 880 991 1091 1092 992 1109 1220
8 1093 993 881 974 1221 1110 992 1092
8 1222 1108 990 1095 1093 993 882 976
8 1223 1101 982 1094 1096 989 877 977
8 1098 983 870 979 1223 1101 982 1094
8 1095 990 1107 1224 978 878 989 1096
8 1098 983 1100 1225 979 870 981 1097
8 984 884 994 1099 1103 995 1111 1227
8 1102 1001 1115 1228 983 891 999 1100
8 1101 1000 892 989 1229 1116 1002 1107
8 1102 1001 891 983 1229 1116 1000 1101
8 985 885 995 1103 1104 996 1112 1230
8 988 886 996 1104 1106 997 1113 1231
8 1105 998 888 987 1232 1114 997 1106
8 991 896 998 1105 1109 1005 1114 1232
8 1108 1003 1117 1233 990 893 1002 1107
8 1108 1003 894 993 1233 1117 1004 1110
8 992 895 1005 1109 1110 1004 1118 1234
8 1120 1013 1127 1244 1007 907 1015 1121
8 1148 1031 1127 1244 1030 920 1013 1120
8 1121 1015 1129 1245 1011 908 1016 1125
8 1126 1019 1075 1196 1246 1128 1014 1122
8 1246 1128 1014 1122 1123 1017 909 1009
8 1124 1018 1131 1247 1010 910 1017 1123
8 1125 1016 1130 1248 1012 911 1018 1124
8 1127 1020 1137 1254 1015 914 1022 1129
8 1031 921 1032 1149 1127 1020 1137 1254
8 1134 1027 918 1019 1257 1140 1021 1128
8 1257 1140 1021 1128 1131 1024 916 1017
8 1129 1022 1141 1258 1016 915 1023 1130
8 1130 1023 1142 1259 1018 917 1024 1131
8 1261 1144 1025 1132 1133 1026 1079 1199
8 1255 1138 1025 1132 1135 1028 1144 1261
8 1133 1026 918 1019 1262 1145 1027 1134
8 1136 1029 1139 1256 1263 1146 1028 1135
8 1037 928 1041 1155 1148 1031 1149 1275
8 1041 931 1044 1160 1149 1032 1150 1276
8 1151 1039 939 1057 1278 1156 1055 1180
8 1152 1040 926 1033 1279 1159 1039 1151
8 1153 1038 927 1034 1280 1158 1040 1152
8 1281 1157 1042 1154 1153 1038 929 1035
8 1036 930 1042 1154 1155 1041 1160 1282
8 1283 1164 1046 1159 1156 1047 935 1039
8 1165 1048 1164 1283 1053 937 1047 1156
8 1157 1043 933 1038 1284 1161 1045 1158
8 1157 1043 1161 1284 1042 932 1044 1160
8 1040 934 1046 1159 1158 1045 1163 1285
8 1166 1049 1167 1292 1051 936 1048 1165
8 1166 1049 936 1051 1293 1168 1050 1172
8 1051 936 1052 1175 1172 1050 1173 1306
8 1174 1051 1165 1290 1308 1175 1053 1177
8 1053 937 1054 1178 1175 1052 1176 1309
8 1278 1156 1055 1180 1177 1053 1178 1311
8 1055 938 1056 1181 1178 1054 1179 1312
8 1057 939 1058 1183 1180 1055 1181 1314
8 1058 940 1059 1184 1181 1056 1182 1315
8 1060 942 1061 1185 1183 1058 1184 1316
8 1208 1081 1187 1321 1082 964 1063 1188
8 1209 1082 1188 1322 1097 981 1064 1190
8 1188 1063 1189 1323 1064 947 1065 1191
8 1190 1064 1191 1325 1066 948 1067 1193
8 1191 1065 1192 1326 1067 949 1068 1194
8 1067 1193 1069 950 1194 1327 1195 1070
8 1250 1133 1199 1330 1126 1019 1075 1196
8 1198 1077 1014 1122 1331 1200 1075 1196
8 1074 960 1077 1198 1197 1076 1201 1332
8 1085 980 1076 1197 1215 1099 1201 1332
8 1199 1079 1203 1333 1075 962 1080 1200
8 1132 1025 1119 1243 1199 1079 1203 1333
8 1201 1078 963 1077 1334 1202 1080 1200
8 1099 994 1078 1201 1227 1111 1202 1334
8 1343 1207 1081 1208 1210 1083 964 1082
8 1214 1084 1186 1319 1343 1207 1081 1208
8 1345 1210 1082 1209 1225 1100 981 1097
8 1346 1211 1083 1210 1228 1115 999 1100
8 1086 984 1099 1215 1216 1103 1227 1352
8 1087 985 1103 1216 1217 1104 1230 1353
8 1090 988 1104 1217 1219 1106 1231 1354
8 1218 1105 987 1089 1355 1232 1106 1219
8 1091 991 1105 1218 1220 1109 1232 1355
8 1092 992 1109 1220 1221 1110 1234 1356
8 1222 1108 1233 1357 1095 990 1107 1224
8 1222 1108 993 1093 1357 1233 1110 1221
8 1223 1101 989 1096 1358 1229 1107 1224
8 1226 1102 983 1098 1358 1229 1101 1223
8 1226 1102 1228 1359 1098 983 1100 1225
8 1103 995 1111 1227 1230 1112 1235 1360
8 1107 1002 1117 1233 1229 1116 1240 1362
8 1102 1001 1116 1229 1228 1115 1240 1362
8 1104 996 1112 1230 1231 1113 1236 1363
8 1364 1237 1114 1232 1231 1113 997 1106
8 1109 1005 1114 1232 1234 1118 1238 1365
8 1110 1004 1118 1234 1233 1117 1241 1366
8 1242 1374 1255 1138 1119 1243 1132 1025
8 1244 1127 1254 1376 1121 1015 1129 1245
8 1148 1031 1149 1275 1244 1127 1254 1376
8 1245 1129 1258 1377 1125 1016 1130 1248
8 1251 1134 1019 1126 1378 1257 1128 1246
8 1378 1257 1128 1246 1247 1131 1017 1123
8 1248 1130 1259 1379 1124 1018 1131 1247
8 1261 1381 1250 1133 1132 1249 1330 1199
8 1255 1380 1252 1135 1132 1249 1381 1261
8 1250 1133 1019 1126 1382 1262 1134 1251
8 1253 1136 1256 1385 1384 1263 1135 1252
8 1254 1137 1265 1387 1129 1022 1141 1258
8 1149 1032 1150 1276 1254 1137 1265 1387
8 1028 1135 1255 1138 1139 1256 1388 1266
8 1136 1029 1147 1264 1256 1139 1267 1389
8 1390 1268 1140 1257 1259 1142 1024 1131
8 1260 1143 1027 1134 1390 1268 1140 1257
8 1258 1141 1269 1391 1130 1023 1142 1259
8 1262 1145 1027 1134 1393 1271 1143 1260
8 1261 1144 1026 1133 1394 1272 1145 1262
8 1135 1028 1144 1261 1263 1146 1272 1394
8 1136 1029 1146 1263 1264 1147 1273 1395
8 1155 1041 1160 1282 1275 1149 1276 1405
8 1276 1150 1044 1160 1406 1277 1162 1286
8 1408 1283 1159 1279 1278 1156 1039 1151
8 1290 1165 1283 1408 1177 1053 1156 1278
8 1152 1040 1159 1279 1280 1158 1285 1409
8 1281 1157 1038 1153 1410 1284 1158 1280
8 1281 1157 1284 1410 1154 1042 1160 1282
8 1159 1046 1164 1283 1285 1163 1289 1412
8 1292 1167 1289 1412 1165 1048 1164 1283
8 1158 1045 1163 1285 1284 1161 1288 1413
8 1284 1161 1288 1413 1160 1044 1162 1286
8 1291 1166 1292 1418 1174 1051 1165 1290
8 1291 1166 1051 1174 1419 1293 1172 1305
8 1294 1169 1296 1421 1166 1049 1167 1292
8 1293 1168 1050 1172 1422 1295 1171 1303
8 1294 1169 1049 1166 1423 1297 1168 1293
8 1422 1295 1171 1303 1301 1170 1302 1435
8 1172 1050 1173 1306 1303 1171 1304 1438
8 1174 1051 1175 1308 1305 1172 1306 1440
8 1175 1052 1176 1309 1306 1173 1307 1441
8 1177 1053 1178 1311 1308 1175 1309 1443
8 1178 1054 1179 1312 1309 1176 1310 1444
8 1180 1055 1181 1314 1311 1178 1312 1446
8 1056 1181 1312 1179 1182 1315 1447 1313
8 1183 1058 1184 1316 1314 1181 1315 1448
8 1319 1186 1084 1214 1451 1317 1213 1350
8 1319 1186 1318 1453 1208 1081 1187 1321
8 1321 1187 1320 1456 1188 1063 1189 1323
8 1344 1208 1321 1457 1209 1082 1188 1322
8 1322 1188 1323 1458 1190 1064 1191 1325
8 1323 1189 1324 1459 1191 1065 1192 1326
8 1191 1325 1193 1067 1326 1460 1327 1194
8 1242 1374 1243 1119 1328 1462 1335 1204
8 1330 1199 1333 1465 1196 1075 1200 1331
8 1132 1249 1330 1199 1243 1375 1465 1333
8 1332 1201 1077 1198 1466 1334 1200 1331
8 1215 1099 1201 1332 1352 1227 1334 1466
8 1119 1243 1333 1203 1204 1335 1470 1338
8 1333 1203 1338 1470 1200 1080 1202 1334
8 1227 1111 1202 1334 1360 1235 1338 1470
8 1328 1462 1335 1204 1205 1336 1471 1339
8 1337 1206 1340 1472 1464 1329 1205 1336
8 1346 1211 1342 1479 1210 1083 1207 1343
8 1346 1211 1115 1228 1479 1342 1239 1361
8 1348 1212 1084 1214 1479 1342 1207 1343
8 1480 1343 1208 1344 1345 1210 1082 1209
8 1351 1214 1319 1454 1480 1343 1208 1344
8 1481 1346 1210 1345 1359 1228 1100 1225
8 1348 1212 1347 1483 1214 1084 1213 1350
8 1216 1103 1227 1352 1353 1230 1360 1488
8 1217 1104 1230 1353 1354 1231 1363 1489
8 1490 1364 1232 1355 1354 1231 1106 1219
8 1220 1109 1232 1355 1356 1234 1365 1491
8 1221 1110 1234 1356 1357 1233 1366 1492
8 1224 1107 1233 1357 1358 1229 1362 1493
8 1226 1102 1229 1358 1359 1228 1362 1493
8 1230 1112 1235 1360 1363 1236 1367 1496
8 1361 1239 1115 1228 1497 1371 1240 1362
8 1366 1241 1372 1498 1233 1117 1240 1362
8 1364 1237 1113 1231 1499 1368 1236 1363
8 1364 1237 1368 1499 1232 1114 1238 1365
8 1234 1118 1238 1365 1366 1241 1369 1500
8 1507 1373 1242 1374 1388 1266 1138 1255
8 1508 1374 1243 1375 1380 1255 1132 1249
8 1376 1254 1387 1509 1245 1129 1258 1377
8 1275 1149 1276 1405 1376 1254 1387 1509
8 1377 1258 1391 1510 1248 1130 1259 1379
8 1511 1390 1257 1378 1379 1259 1131 1247
8 1383 1260 1134 1251 1511 1390 1257 1378
8 1252 1135 1256 1385 1380 1255 1388 1512
8 1261 1381 1513 1394 1133 1250 1382 1262
8 1135 1252 1384 1263 1261 1381 1513 1394
8 1382 1262 1134 1251 1514 1393 1260 1383
8 1253 1136 1263 1384 1386 1264 1395 1516
8 1253 1136 1264 1386 1385 1256 1389 1517
8 1387 1265 1397 1519 1258 1141 1269 1391
8 1276 1150 1277 1406 1387 1265 1397 1519
8 1256 1139 1267 1389 1388 1266 1398 1520
8 1264 1147 1274 1396 1389 1267 1399 1521
8 1392 1270 1143 1260 1522 1400 1268 1390
8 1390 1268 1142 1259 1522 1400 1269 1391
8 1392 1270 1401 1523 1260 1143 1271 1393
8 1272 1394 1524 1402 1145 1262 1393 1271
8 1395 1273 1146 1263 1524 1402 1272 1394
8 1273 1395 1264 1147 1403 1526 1396 1274
8 1405 1276 1160 1282 1534 1406 1286 1411
8 1414 1287 1407 1535 1286 1162 1277 1406
8 1279 1159 1283 1408 1409 1285 1412 1537
8 1418 1292 1412 1537 1290 1165 1283 1408
8 1280 1158 1285 1409 1410 1284 1413 1538
8 1410 1284 1413 1538 1282 1160 1286 1411
8 1285 1163 1289 1412 1413 1288 1417 1540
8 1421 1296 1417 1540 1292 1167 1289 1412
8 1414 1287 1162 1286 1541 1416 1288 1413
8 1420 1294 1421 1545 1291 1166 1292 1418
8 1419 1293 1172 1305 1546 1422 1303 1437
8 1420 1294 1166 1291 1547 1423 1293 1419
8 1294 1169 1297 1423 1421 1296 1425 1548
8 1423 1297 1168 1293 1549 1424 1295 1422
8 1301 1170 1298 1427 1422 1295 1424 1549
8 1432 1300 1428 1554 1301 1170 1298 1427
8 1431 1299 1428 1554 1560 1430 1300 1432
8 1563 1433 1300 1432 1435 1302 1170 1301
8 1546 1422 1303 1437 1434 1301 1435 1565
8 1303 1171 1304 1438 1435 1302 1436 1566
8 1305 1172 1306 1440 1437 1303 1438 1568
8 1306 1173 1307 1441 1438 1304 1439 1569
8 1308 1175 1309 1443 1440 1306 1441 1571
8 1309 1176 1310 1444 1441 1307 1442 1572
8 1311 1178 1312 1446 1443 1309 1444 1574
8 1179 1312 1444 1310 1313 1447 1575 1445
8 1314 1181 1315 1448 1446 1312 1447 1576
8 1350 1213 1349 1486 1451 1317 1449 1579
8 1451 1317 1450 1581 1319 1186 1318 1453
8 1454 1319 1214 1351 1582 1451 1350 1487
8 1453 1318 1452 1584 1321 1187 1320 1456
8 1454 1319 1453 1585 1344 1208 1321 1457
8 1456 1320 1455 1586 1323 1189 1324 1459
8 1457 1321 1456 1587 1322 1188 1323 1458
8 1458 1323 1459 1588 1325 1191 1326 1460
8 1205 1336 1464 1329 1328 1462 1590 1461
8 1507 1373 1461 1590 1374 1242 1328 1462
8 1508 1374 1462 1591 1375 1243 1335 1467
8 1337 1206 1329 1464 1473 1341 1463 1594
8 1375 1243 1335 1467 1465 1333 1470 1596
8 1465 1333 1470 1596 1331 1200 1334 1466
8 1352 1227 1334 1466 1488 1360 1470 1596
8 1591 1462 1336 1468 1467 1335 1471 1597
8 1469 1337 1472 1598 1595 1464 1336 1468
8 1471 1339 1474 1600 1335 1204 1338 1470
8 1600 1474 1367 1496 1470 1338 1235 1360
8 1336 1205 1340 1472 1471 1339 1475 1601
8 1337 1206 1341 1473 1472 1340 1476 1602
8 1495 1370 1478 1609 1361 1239 1342 1479
8 1348 1212 1342 1479 1483 1347 1478 1609
8 1481 1346 1479 1610 1345 1210 1343 1480
8 1481 1346 1228 1359 1610 1479 1361 1494
8 1484 1348 1214 1351 1610 1479 1343 1480
8 1483 1347 1482 1612 1350 1213 1349 1486
8 1484 1348 1483 1613 1351 1214 1350 1487
8 1353 1230 1360 1488 1489 1363 1496 1616
8 1490 1364 1231 1354 1617 1499 1363 1489
8 1490 1364 1499 1617 1355 1232 1365 1491
8 1356 1234 1365 1491 1492 1366 1500 1619
8 1492 1366 1498 1620 1357 1233 1362 1493
8 1494 1361 1228 1359 1621 1497 1362 1493
8 1495 1370 1239 1361 1622 1504 1371 1497
8 1363 1236 1367 1496 1499 1368 1501 1623
8 1497 1371 1240 1362 1624 1505 1372 1498
8 1625 1503 1372 1498 1500 1369 1241 1366
8 1365 1238 1368 1499 1500 1369 1502 1626
8 1520 1398 1506 1633 1388 1266 1373 1507
8 1634 1507 1374 1508 1512 1388 1255 1380
8 1509 1387 1519 1635 1377 1258 1391 1510
8 1405 1276 1406 1534 1509 1387 1519 1635
8 1515 1392 1260 1383 1636 1522 1390 1511
8 1511 1390 1259 1379 1636 1522 1391 1510
8 1385 1256 1389 1517 1512 1388 1520 1637
8 1513 1394 1262 1382 1638 1524 1393 1514
8 1395 1516 1638 1524 1263 1384 1513 1394
8 1515 1392 1523 1639 1383 1260 1393 1514
8 1516 1395 1526 1640 1386 1264 1396 1518
8 1386 1264 1396 1518 1517 1389 1521 1641
8 1519 1397 1527 1643 1391 1269 1400 1522
8 1535 1407 1527 1643 1406 1277 1397 1519
8 1389 1267 1399 1521 1520 1398 1528 1644
8 1645 1529 1399 1521 1525 1404 1274 1396
8 1392 1270 1400 1522 1523 1401 1531 1646
8 1524 1402 1271 1393 1648 1532 1401 1523
8 1403 1526 1648 1532 1273 1395 1524 1402
8 1525 1404 1274 1396 1649 1533 1403 1526
8 1539 1414 1535 1657 1411 1286 1406 1534
8 1542 1415 1536 1658 1414 1287 1407 1535
8 1409 1285 1412 1537 1538 1413 1540 1660
8 1545 1421 1540 1660 1418 1292 1412 1537
8 1539 1414 1286 1411 1661 1541 1413 1538
8 1540 1417 1544 1663 1413 1288 1416 1541
8 1421 1296 1425 1548 1540 1417 1544 1663
8 1542 1415 1287 1414 1664 1543 1416 1541
8 1420 1294 1423 1547 1545 1421 1548 1666
8 1547 1423 1293 1419 1667 1549 1422 1546
8 1434 1301 1427 1553 1546 1422 1549 1667
8 1423 1297 1424 1549 1548 1425 1550 1668
8 1551 1426 1550 1668 1427 1298 1424 1549
8 1551 1426 1298 1427 1671 1552 1428 1554
8 1562 1432 1554 1674 1434 1301 1427 1553
8 1431 1299 1429 1558 1554 1428 1555 1675
8 1431 1299 1430 1560 1558 1429 1557 1680
8 1560 1430 1300 1432 1683 1559 1433 1563
8 1561 1431 1554 1674 1684 1560 1432 1562
8 1685 1563 1432 1562 1565 1435 1301 1434
8 1435 1302 1436 1566 1563 1433 1564 1686
8 1437 1303 1438 1568 1565 1435 1566 1688
8 1438 1304 1439 1569 1566 1436 1567 1689
8 1440 1306 1441 1571 1568 1438 1569 1691
8 1441 1307 1442 1572 1569 1439 1570 1692
8 1443 1309 1444 1574 1571 1441 1572 1694
8 1310 1444 1572 1442 1445 1575 1695 1573
8 1446 1312 1447 1576 1574 1444 1575 1696
8 1486 1349 1485 1614 1579 1449 1577 1699
8 1451 1317 1449 1579 1581 1450 1578 1701
8 1487 1350 1486 1615 1582 1451 1579 1702
8 1581 1450 1580 1704 1453 1318 1452 1584
8 1582 1451 1581 1705 1454 1319 1453 1585
8 1584 1452 1583 1706 1456 1320 1455 1586
8 1585 1453 1584 1707 1457 1321 1456 1587
8 1587 1456 1586 1708 1458 1323 1459 1588
8 1633 1506 1589 1710 1507 1373 1461 1590
8 1464 1329 1461 1590 1594 1463 1589 1710
8 1468 1336 1462 1591 1595 1464 1590 1711
8 1634 1507 1590 1711 1508 1374 1462 1591
8 1473 1341 1463 1594 1603 1477 1593 1716
8 1469 1337 1464 1595 1599 1473 1594 1717
8 1471 1597 1467 1335 1600 1718 1596 1470
8 1718 1600 1496 1616 1596 1470 1360 1488
8 1336 1468 1597 1471 1472 1598 1719 1601
8 1469 1337 1473 1599 1598 1472 1602 1720
8 1722 1604 1501 1623 1600 1474 1367 1496
8 1475 1601 1471 1339 1604 1722 1600 1474
8 1602 1476 1605 1723 1472 1340 1475 1601
8 1476 1602 1724 1606 1341 1473 1603 1477
8 1483 1347 1478 1609 1612 1482 1608 1731
8 1495 1370 1504 1622 1609 1478 1608 1731
8 1618 1495 1609 1732 1494 1361 1479 1610
8 1484 1348 1479 1610 1613 1483 1609 1732
8 1486 1349 1482 1612 1614 1485 1611 1733
8 1613 1483 1612 1734 1487 1350 1486 1615
8 1489 1363 1496 1616 1617 1499 1623 1736
8 1491 1365 1499 1617 1619 1500 1626 1737
8 1618 1495 1361 1494 1738 1622 1497 1621
8 1739 1625 1498 1620 1619 1500 1366 1492
8 1621 1497 1362 1493 1740 1624 1498 1620
8 1742 1631 1504 1622 1624 1505 1371 1497
8 1743 1628 1502 1626 1623 1501 1368 1499
8 1744 1630 1505 1624 1625 1503 1372 1498
8 1745 1629 1503 1625 1626 1502 1369 1500
8 1520 1398 1528 1644 1633 1506 1632 1751
8 1637 1520 1633 1752 1512 1388 1507 1634
8 1635 1519 1643 1753 1510 1391 1522 1636
8 1657 1535 1643 1753 1534 1406 1519 1635
8 1515 1392 1522 1636 1639 1523 1646 1754
8 1517 1389 1521 1641 1637 1520 1644 1755
8 1524 1638 1756 1648 1393 1514 1639 1523
8 1640 1526 1395 1516 1756 1648 1524 1638
8 1642 1525 1396 1518 1757 1649 1526 1640
8 1758 1645 1521 1641 1642 1525 1396 1518
8 1646 1531 1400 1522 1760 1650 1527 1643
8 1535 1407 1536 1658 1643 1527 1650 1760
8 1521 1399 1529 1645 1644 1528 1651 1761
8 1647 1530 1652 1762 1525 1404 1529 1645
8 1401 1523 1648 1532 1531 1646 1763 1655
8 1525 1404 1533 1649 1647 1530 1654 1765
8 1533 1649 1766 1656 1403 1526 1648 1532
8 1662 1542 1658 1774 1539 1414 1535 1657
8 1542 1415 1543 1664 1658 1536 1659 1775
8 1660 1540 1663 1777 1538 1413 1541 1661
8 1545 1421 1548 1666 1660 1540 1663 1777
8 1662 1542 1414 1539 1778 1664 1541 1661
8 1664 1543 1416 1541 1779 1665 1544 1663
8 1548 1425 1550 1668 1663 1544 1665 1779
8 1547 1423 1549 1667 1666 1548 1668 1781
8 1670 1551 1668 1781 1553 1427 1549 1667
8 1551 1426 1552 1671 1668 1550 1669 1782
8 1670 1551 1427 1553 1784 1671 1554 1674
8 1675 1555 1672 1785 1554 1428 1552 1671
8 1678 1556 1673 1789 1558 1429 1555 1675
8 1561 1431 1558 1681 1674 1554 1675 1790
8 1794 1677 1556 1678 1680 1557 1429 1558
8 1560 1430 1559 1683 1680 1557 1679 1797
8 1561 1431 1560 1684 1681 1558 1680 1798
8 1563 1433 1564 1686 1683 1559 1682 1800
8 1684 1560 1432 1562 1801 1683 1563 1685
8 1565 1435 1566 1688 1685 1563 1686 1802
8 1566 1436 1567 1689 1686 1564 1687 1803
8 1568 1438 1569 1691 1688 1566 1689 1805
8 1569 1439 1570 1692 1689 1567 1690 1806
8 1571 1441 1572 1694 1691 1569 1692 1808
8 1442 1572 1692 1570 1573 1695 1809 1693
8 1574 1444 1575 1696 1694 1572 1695 1810
8 1614 1485 1592 1712 1699 1577 1697 1813
8 1579 1449 1577 1699 1701 1578 1698 1815
8 1615 1486 1614 1735 1702 1579 1699 1816
8 1701 1578 1700 1818 1581 1450 1580 1704
8 1582 1451 1579 1702 1705 1581 1701 1819
8 1704 1580 1703 1820 1584 1452 1583 1706
8 1705 1581 1704 1821 1585 1453 1584 1707
8 1707 1584 1706 1822 1587 1456 1586 1708
8 1710 1589 1506 1633 1824 1709 1632 1751
8 1594 1463 1589 1710 1716 1593 1709 1824
8 1752 1633 1710 1825 1634 1507 1590 1711
8 1595 1464 1590 1711 1717 1594 1710 1825
8 1830 1714 1592 1712 1733 1611 1485 1614
8 1603 1477 1593 1716 1725 1607 1715 1834
8 1599 1473 1594 1717 1721 1603 1716 1835
8 1837 1722 1623 1736 1718 1600 1496 1616
8 1719 1601 1722 1837 1597 1471 1600 1718
8 1602 1720 1598 1472 1723 1838 1719 1601
8 1720 1602 1473 1599 1839 1724 1603 1721
8 1723 1605 1726 1840 1601 1475 1604 1722
8 1840 1726 1628 1743 1722 1604 1501 1623
8 1724 1606 1727 1841 1602 1476 1605 1723
8 1725 1607 1728 1842 1603 1477 1606 1724
8 1612 1482 1608 1731 1733 1611 1730 1849
8 1741 1627 1730 1849 1622 1504 1608 1731
8 1613 1483 1609 1732 1734 1612 1731 1850
8 1618 1495 1622 1738 1732 1609 1731 1850
8 1615 1486 1612 1734 1735 1614 1733 1851
8 1852 1743 1626 1737 1736 1623 1499 1617
8 1853 1745 1625 1739 1737 1626 1500 1619
8 1855 1742 1622 1738 1740 1624 1497 1621
8 1856 1744 1624 1740 1739 1625 1498 1620
8 1741 1627 1504 1622 1857 1746 1631 1742
8 1742 1631 1505 1624 1858 1749 1630 1744
8 1859 1747 1629 1745 1743 1628 1502 1626
8 1860 1748 1630 1744 1745 1629 1503 1625
8 1644 1528 1651 1761 1751 1632 1750 1865
8 1637 1520 1644 1755 1752 1633 1751 1866
8 1754 1646 1522 1636 1867 1760 1643 1753
8 1657 1535 1658 1774 1753 1643 1760 1867
8 1639 1523 1646 1754 1756 1648 1763 1868
8 1641 1521 1645 1758 1755 1644 1761 1869
8 1757 1649 1526 1640 1870 1766 1648 1756
8 1642 1525 1649 1757 1759 1647 1765 1871
8 1759 1647 1762 1872 1642 1525 1645 1758
8 1760 1650 1767 1874 1646 1531 1655 1763
8 1658 1536 1659 1775 1760 1650 1767 1874
8 1762 1652 1768 1875 1645 1529 1651 1761
8 1764 1653 1769 1876 1647 1530 1652 1762
8 1656 1766 1877 1773 1532 1648 1763 1655
8 1771 1879 1765 1654 1653 1764 1647 1530
8 1533 1649 1765 1654 1656 1766 1880 1772
8 1662 1542 1664 1778 1774 1658 1775 1887
8 1664 1543 1665 1779 1775 1659 1776 1888
8 1778 1664 1541 1661 1890 1779 1663 1777
8 1666 1548 1668 1781 1777 1663 1779 1890
8 1782 1669 1780 1891 1668 1550 1665 1779
8 1670 1551 1671 1784 1781 1668 1782 1893
8 1671 1552 1672 1785 1782 1669 1783 1894
8 1790 1675 1785 1896 1674 1554 1671 1784
8 1675 1555 1673 1789 1785 1672 1786 1897
8 1792 1676 1788 1903 1678 1556 1673 1789
8 1795 1678 1789 1904 1681 1558 1675 1790
8 1792 1676 1556 1678 1906 1791 1677 1794
8 1680 1557 1679 1797 1794 1677 1793 1909
8 1910 1794 1678 1795 1798 1680 1558 1681
8 1683 1559 1682 1800 1797 1679 1796 1912
8 1684 1560 1683 1801 1798 1680 1797 1913
8 1686 1564 1687 1803 1800 1682 1799 1915
8 1685 1563 1686 1802 1801 1683 1800 1916
8 1688 1566 1689 1805 1802 1686 1803 1917
8 1689 1567 1690 1806 1803 1687 1804 1918
8 1691 1569 1692 1808 1805 1689 1806 1920
8 1692 1570 1693 1809 1806 1690 1807 1921
8 1694 1572 1695 1810 1808 1692 1809 1922
8 1829 1713 1811 1926 1712 1592 1697 1813
8 1813 1697 1812 1928 1699 1577 1698 1815
8 1735 1614 1712 1828 1816 1699 1813 1929
8 1815 1698 1814 1931 1701 1578 1700 1818
8 1702 1579 1699 1816 1819 1701 1815 1932
8 1818 1700 1817 1933 1704 1580 1703 1820
8 1819 1701 1818 1934 1705 1581 1704 1821
8 1821 1704 1820 1935 1707 1584 1706 1822
8 1824 1709 1632 1751 1937 1823 1750 1865
8 1716 1593 1709 1824 1834 1715 1823 1937
8 1825 1710 1633 1752 1938 1824 1751 1866
8 1717 1594 1710 1825 1835 1716 1824 1938
8 1945 1830 1712 1828 1851 1733 1614 1735
8 1830 1714 1831 1946 1712 1592 1713 1829
8 1947 1832 1714 1830 1849 1730 1611 1733
8 1843 1729 1607 1725 1950 1833 1715 1834
8 1721 1603 1716 1835 1836 1725 1834 1951
8 1836 1725 1842 1953 1721 1603 1724 1839
8 1723 1838 1719 1601 1840 1954 1837 1722
8 1954 1840 1743 1852 1837 1722 1623 1736
8 1724 1839 1720 1602 1841 1955 1838 1723
8 1841 1727 1844 1956 1723 1605 1726 1840
8 1956 1844 1747 1859 1840 1726 1628 1743
8 1728 1842 1724 1606 1845 1957 1841 1727
8 1725 1607 1729 1843 1842 1728 1846 1958
8 1741 1627 1746 1857 1849 1730 1848 1965
8 1734 1612 1731 1850 1851 1733 1849 1966
8 1854 1741 1849 1966 1738 1622 1731 1850
8 1967 1859 1745 1853 1852 1743 1626 1737
8 1968 1860 1744 1856 1853 1745 1625 1739
8 1854 1741 1622 1738 1969 1857 1742 1855
8 1855 1742 1624 1740 1970 1858 1744 1856
8 1857 1746 1631 1742 1971 1861 1749 1858
8 1858 1749 1630 1744 1972 1863 1748 1860
8 1859 1747 1862 1973 1745 1629 1748 1860
8 1875 1768 1864 1977 1761 1651 1750 1865
8 1755 1644 1761 1869 1866 1751 1865 1978
8 1867 1760 1874 1979 1754 1646 1763 1868
8 1774 1658 1775 1887 1867 1760 1874 1979
8 1870 1766 1648 1756 1980 1877 1763 1868
8 1872 1762 1875 1981 1758 1645 1761 1869
8 1757 1649 1766 1870 1871 1765 1880 1982
8 1983 1879 1764 1873 1871 1765 1647 1759
8 1873 1764 1876 1984 1759 1647 1762 1872
8 1877 1773 1655 1763 1986 1881 1767 1874
8 1775 1659 1776 1888 1874 1767 1881 1986
8 1876 1769 1882 1987 1762 1652 1768 1875
8 1878 1770 1883 1988 1764 1653 1769 1876
8 1880 1772 1656 1766 1989 1886 1773 1877
8 1878 1770 1653 1764 1990 1884 1771 1879
8 1765 1654 1772 1880 1879 1771 1885 1991
8 1778 1664 1779 1890 1887 1775 1888 1997
8 1998 1889 1776 1888 1891 1780 1665 1779
8 1893 1782 1891 2000 1781 1668 1779 1890
8 1894 1783 1892 2001 1782 1669 1780 1891
8 1784 1671 1785 1896 1893 1782 1894 2003
8 1897 1786 1895 2004 1785 1672 1783 1894
8 1790 1675 1789 1904 1896 1785 1897 2006
8 1901 1787 1898 2007 1789 1673 1786 1897
8 1903 1788 1900 2013 1789 1673 1787 1901
8 1792 1676 1791 1906 1903 1788 1902 2016
8 1907 1792 1903 2017 1795 1678 1789 1904
8 1906 1791 1677 1794 2019 1905 1793 1909
8 1907 1792 1678 1795 2020 1906 1794 1910
8 1797 1679 1796 1912 1909 1793 1908 2022
8 1798 1680 1797 1913 1910 1794 1909 2023
8 1800 1682 1799 1915 1912 1796 1911 2025
8 1801 1683 1800 1916 1913 1797 1912 2026
8 1803 1687 1804 1918 1915 1799 1914 2028
8 1802 1686 1803 1917 1916 1800 1915 2029
8 1805 1689 1806 1920 1917 1803 1918 2030
8 1806 1690 1807 1921 1918 1804 1919 2031
8 1808 1692 1809 1922 1920 1806 1921 2032
8 1939 1826 1924 2037 1829 1713 1811 1926
8 1926 1811 1925 2039 1813 1697 1812 1928
8 1944 1829 1926 2040 1828 1712 1813 1929
8 1928 1812 1927 2042 1815 1698 1814 1931
8 1929 1813 1928 2043 1816 1699 1815 1932
8 1931 1814 1930 2044 1818 1700 1817 1933
8 1932 1815 1931 2045 1819 1701 1818 1934
8 1934 1818 1933 2046 1821 1704 1820 1935
8 2048 1936 1823 1937 1977 1864 1750 1865
8 1950 1833 1715 1834 2048 1936 1823 1937
8 1938 1824 1751 1866 2049 1937 1865 1978
8 1835 1716 1824 1938 1951 1834 1937 2049
8 1939 1826 1713 1829 2053 1942 1831 1946
8 1940 1827 1923 2035 2053 1942 1826 1939
8 1945 1830 1946 2058 1828 1712 1829 1944
8 2059 1947 1830 1945 1966 1849 1733 1851
8 1947 1832 1730 1849 2060 1948 1848 1965
8 1947 1832 1948 2060 1830 1714 1831 1946
8 1959 1847 1729 1843 2063 1949 1833 1950
8 1952 1843 1725 1836 2064 1950 1834 1951
8 1836 1725 1843 1952 1953 1842 1958 2066
8 1953 1842 1957 2067 1839 1724 1841 1955
8 1841 1955 1838 1723 1956 2068 1954 1840
8 2068 1956 1859 1967 1954 1840 1743 1852
8 1956 1844 1960 2069 1859 1747 1862 1973
8 1845 1957 1841 1727 1960 2069 1956 1844
8 1728 1842 1957 1845 1846 1958 2071 1961
8 1962 2072 1959 1847 1846 1958 1843 1729
8 1971 1861 1964 2077 1857 1746 1848 1965
8 1854 1741 1857 1969 1966 1849 1965 2078
8 1967 1859 1973 2079 1853 1745 1860 1968
8 1970 1858 1744 1856 2080 1972 1860 1968
8 1969 1857 1742 1855 2081 1971 1858 1970
8 1971 1861 1749 1858 2082 1974 1863 1972
8 1973 1862 1975 2083 1860 1748 1863 1972
8 1987 1882 1976 2086 1875 1768 1864 1977
8 1981 1875 1977 2087 1869 1761 1865 1978
8 1980 1877 1763 1868 2088 1986 1874 1979
8 1887 1775 1888 1997 1979 1874 1986 2088
8 1880 1982 2089 1989 1766 1870 1980 1877
8 1984 1876 1987 2090 1872 1762 1875 1981
8 1765 1871 1983 1879 1880 1982 2091 1991
8 1985 1878 1764 1873 2092 1990 1879 1983
8 1985 1878 1988 2093 1873 1764 1876 1984
8 2094 1992 1881 1986 1998 1889 1776 1888
8 1986 1881 1992 2094 1877 1773 1886 1989
8 1988 1883 1993 2095 1876 1769 1882 1987
8 1878 1770 1884 1990 1988 1883 1994 2096
8 1991 1885 1772 1880 2097 1996 1886 1989
8 1879 1771 1885 1991 1990 1884 1995 2098
8 2103 1998 1888 1997 2000 1891 1779 1890
8 2104 1999 1889 1998 2001 1892 1780 1891
8 2003 1894 2001 2106 1893 1782 1891 2000
8 2004 1895 2002 2107 1894 1783 1892 2001
8 2006 1897 2004 2109 1896 1785 1894 2003
8 2007 1898 2005 2110 1897 1786 1895 2004
8 2014 1901 2007 2112 1904 1789 1897 2006
8 2011 1899 2008 2113 1901 1787 1898 2007
8 2119 2010 1899 2011 2013 1900 1787 1901
8 2016 1902 2012 2122 1903 1788 1900 2013
8 2017 1903 2013 2123 1904 1789 1901 2014
8 1906 1791 1905 2019 2016 1902 2015 2125
8 1907 1792 1906 2020 2017 1903 2016 2126
8 1909 1793 1908 2022 2019 1905 2018 2128
8 2020 1906 1794 1910 2129 2019 1909 2023
8 1912 1796 1911 2025 2022 1908 2021 2131
8 1913 1797 1912 2026 2023 1909 2022 2132
8 1915 1799 1914 2028 2025 1911 2024 2134
8 1916 1800 1915 2029 2026 1912 2025 2135
8 1918 1804 1919 2031 2028 1914 2027 2136
8 1917 1803 1918 2030 2029 1915 2028 2137
8 1920 1806 1921 2032 2030 1918 2031 2138
8 1940 1827 1941 2054 2035 1923 2033 2140
8 2035 1923 2034 2143 1939 1826 1924 2037
8 2037 1924 2036 2146 1926 1811 1925 2039
8 2051 1939 2037 2147 1944 1829 1926 2040
8 2039 1925 2038 2149 1928 1812 1927 2042
8 2040 1926 2039 2150 1929 1813 1928 2043
8 2042 1927 2041 2151 1931 1814 1930 2044
8 2043 1928 2042 2152 1932 1815 1931 2045
8 2045 1931 2044 2153 1934 1818 1933 2046
8 2155 2047 1936 2048 2086 1976 1864 1977
8 2063 1949 1833 1950 2155 2047 1936 2048
8 2156 2048 1937 2049 2087 1977 1865 1978
8 2064 1950 1834 1951 2156 2048 1937 2049
8 2051 1939 1829 1944 2160 2053 1946 2058
8 2052 1940 2035 2144 2160 2053 1939 2051
8 2053 1942 1831 1946 2163 2057 1948 2060
8 2055 1943 1827 1940 2163 2057 1942 2053
8 2055 1943 2056 2164 1940 1827 1941 2054
8 2059 1947 1849 1966 2167 2060 1965 2078
8 2059 1947 2060 2167 1945 1830 1946 2058
8 2077 1964 2061 2168 1965 1848 1948 2060
8 2070 1963 1847 1959 2170 2062 1949 2063
8 2065 1959 1843 1952 2171 2063 1950 2064
8 2173 2072 1958 2066 2065 1959 1843 1952
8 1953 1842 1958 2066 2067 1957 2071 2174
8 2068 1956 2069 2175 1967 1859 1973 2079
8 2067 1957 2069 2175 1955 1841 1956 2068
8 1845 1957 2069 1960 1961 2071 2176 2073
8 2069 1960 2073 2176 1973 1862 1975 2083
8 2070 1963 2075 2177 1959 1847 1962 2072
8 1846 1958 2071 1961 1962 2072 2178 2074
8 2077 1964 1861 1971 2182 2076 1974 2082
8 2081 1971 2077 2183 1969 1857 1965 2078
8 2079 1973 2083 2184 1968 1860 1972 2080
8 2081 1971 1858 1970 2185 2082 1972 2080
8 2083 1975 2084 2186 1972 1863 1974 2082
8 2086 1976 1882 1987 2189 2085 1993 2095
8 2090 1987 2086 2190 1981 1875 1977 2087
8 2191 2094 1986 2088 2103 1998 1888 1997
8 2088 1986 2094 2191 1980 1877 1989 2089
8 1991 2091 2192 2097 1880 1982 2089 1989
8 2093 1988 2095 2193 1984 1876 1987 2090
8 1879 1983 2092 1990 1991 2091 2194 2098
8 1985 1878 1990 2092 2093 1988 2096 2195
8 2097 1996 1886 1989 2196 2099 1992 2094
8 2196 2099 1992 2094 2104 1999 1889 1998
8 1994 2096 1988 1883 2100 2197 2095 1993
8 2096 1994 1884 1990 2198 2101 1995 2098
8 1995 2098 2199 2102 1885 1991 2097 1996
8 2203 2104 1998 2103 2106 2001 1891 2000
8 2107 2002 2105 2204 2001 1892 1999 2104
8 2109 2004 2107 2206 2003 1894 2001 2106
8 2110 2005 2108 2207 2004 1895 2002 2107
8 2112 2007 2110 2209 2006 1897 2004 2109
8 2113 2008 2111 2210 2007 1898 2005 2110
8 2120 2011 2113 2212 2014 1901 2007 2112
8 2117 2009 2114 2213 2011 1899 2008 2113
8 2219 2116 2009 2117 2119 2010 1899 2011
8 2222 2118 2010 2119 2122 2012 1900 2013
8 2223 2119 2011 2120 2123 2013 1901 2014
8 2016 1902 2015 2125 2122 2012 2121 2225
8 2126 2016 2122 2226 2017 1903 2013 2123
8 2019 1905 2018 2128 2125 2015 2124 2228
8 2020 1906 2019 2129 2126 2016 2125 2229
8 2022 1908 2021 2131 2128 2018 2127 2231
8 2023 1909 2022 2132 2129 2019 2128 2232
8 2025 1911 2024 2134 2131 2021 2130 2234
8 2026 1912 2025 2135 2132 2022 2131 2235
8 1914 2028 2134 2024 2027 2136 2236 2133
8 2029 1915 2028 2137 2135 2025 2134 2237
8 2030 1918 2031 2138 2137 2028 2136 2238
8 2157 2050 2139 2240 2054 1941 2033 2140
8 2052 1940 2054 2161 2144 2035 2140 2242
8 2140 2033 2141 2243 2035 1923 2034 2143
8 2143 2034 2142 2246 2037 1924 2036 2146
8 2144 2035 2143 2247 2051 1939 2037 2147
8 2146 2036 2145 2249 2039 1925 2038 2149
8 2147 2037 2146 2250 2040 1926 2039 2150
8 2149 2038 2148 2251 2042 1927 2041 2151
8 2150 2039 2149 2252 2043 1928 2042 2152
8 2152 2042 2151 2253 2045 1931 2044 2153
8 2255 2154 2047 2155 2189 2085 1976 2086
8 2170 2062 1949 2063 2255 2154 2047 2155
8 2256 2155 2048 2156 2190 2086 1977 2087
8 2171 2063 1950 2064 2256 2155 2048 2156
8 2258 2159 2050 2157 2164 2056 1941 2054
8 2160 2053 1946 2058 2262 2163 2060 2167
8 2162 2055 1940 2052 2262 2163 2053 2160
8 2162 2055 2164 2263 2052 1940 2054 2161
8 2163 2057 1948 2060 2264 2165 2061 2168
8 2055 1943 2057 2163 2164 2056 2165 2264
8 2182 2076 2166 2268 2077 1964 2061 2168
8 2183 2077 2168 2269 2078 1965 2060 2167
8 2070 1963 2062 2170 2177 2075 2169 2271
8 2172 2070 1959 2065 2272 2170 2063 2171
8 2172 2070 2177 2273 2065 1959 2072 2173
8 2066 1958 2072 2173 2174 2071 2178 2274
8 2067 1957 2071 2174 2175 2069 2176 2275
8 2175 2069 2176 2275 2079 1973 2083 2184
8 2071 1961 2074 2178 2176 2073 2179 2276
8 2176 2073 2179 2276 2083 1975 2084 2186
8 2072 1962 2075 2177 2178 2074 2180 2277
8 2182 2076 1974 2082 2280 2181 2084 2186
8 2183 2077 1971 2081 2281 2182 2082 2185
8 2184 2083 2186 2282 2080 1972 2082 2185
8 2189 2085 1993 2095 2285 2188 2100 2197
8 2190 2086 1987 2090 2286 2189 2095 2193
8 2192 2097 1989 2089 2287 2196 2094 2191
8 2287 2196 2094 2191 2203 2104 1998 2103
8 2194 2098 1991 2091 2288 2199 2097 2192
8 2195 2096 2197 2289 2093 1988 2095 2193
8 2096 2195 2290 2198 1990 2092 2194 2098
8 2097 1996 2099 2196 2199 2102 2200 2291
8 2196 2099 1999 2104 2291 2200 2105 2204
8 2100 2197 2292 2201 1994 2096 2198 2101
8 1995 2098 2198 2101 2102 2199 2293 2202
8 2206 2107 2204 2296 2106 2001 2104 2203
8 2207 2108 2205 2297 2107 2002 2105 2204
8 2209 2110 2207 2299 2109 2004 2107 2206
8 2210 2111 2208 2300 2110 2005 2108 2207
8 2212 2113 2210 2302 2112 2007 2110 2209
8 2213 2114 2211 2303 2113 2008 2111 2210
8 2220 2117 2213 2305 2120 2011 2113 2212
8 2216 2115 2214 2306 2117 2009 2114 2213
8 2216 2115 2009 2117 2311 2217 2116 2219
8 2219 2116 2010 2119 2314 2218 2118 2222
8 2315 2219 2117 2220 2223 2119 2011 2120
8 2122 2012 2121 2225 2222 2118 2221 2317
8 2318 2222 2119 2223 2226 2122 2013 2123
8 2125 2015 2124 2228 2225 2121 2224 2320
8 2126 2016 2125 2229 2226 2122 2225 2321
8 2128 2018 2127 2231 2228 2124 2227 2323
8 2129 2019 2128 2232 2229 2125 2228 2324
8 2131 2021 2130 2234 2231 2127 2230 2326
8 2132 2022 2131 2235 2232 2128 2231 2327
8 2134 2024 2133 2236 2234 2130 2233 2328
8 2135 2025 2134 2237 2235 2131 2234 2329
8 2137 2028 2136 2238 2237 2134 2236 2330
8 2157 2050 2158 2259 2240 2139 2239 2332
8 2257 2157 2240 2334 2161 2054 2140 2242
8 2240 2139 2241 2335 2140 2033 2141 2243
8 2242 2140 2243 2337 2144 2035 2143 2247
8 2243 2141 2244 2338 2143 2034 2142 2246
8 2246 2142 2245 2341 2146 2036 2145 2249
8 2247 2143 2246 2342 2147 2037 2146 2250
8 2249 2145 2248 2343 2149 2038 2148 2251
8 2250 2146 2249 2344 2150 2039 2149 2252
8 2252 2149 2251 2345 2152 2042 2151 2253
8 2169 2271 2347 2254 2062 2170 2255 2154
8 2189 2085 2188 2285 2255 2154 2254 2347
8 2348 2255 2155 2256 2286 2189 2086 2190
8 2272 2170 2063 2171 2348 2255 2155 2256
8 2349 2258 2157 2257 2263 2164 2054 2161
8 2258 2159 2261 2351 2157 2050 2158 2259
8 2258 2159 2056 2164 2351 2261 2165 2264
8 2262 2163 2060 2167 2355 2264 2168 2269
8 2162 2055 2163 2262 2263 2164 2264 2355
8 2357 2266 2165 2264 2268 2166 2061 2168
8 2268 2166 2076 2182 2361 2267 2181 2280
8 2281 2182 2268 2362 2183 2077 2168 2269
8 2271 2169 2270 2364 2177 2075 2180 2277
8 2172 2070 2170 2272 2273 2177 2271 2365
8 2072 2173 2274 2178 2177 2273 2366 2277
8 2071 2174 2275 2176 2178 2274 2367 2276
8 2275 2176 2276 2367 2184 2083 2186 2282
8 2283 2187 2084 2186 2368 2278 2179 2276
8 2178 2074 2180 2277 2276 2179 2278 2368
8 2283 2187 2279 2370 2186 2084 2181 2280
8 2281 2182 2082 2185 2371 2280 2186 2282
8 2188 2285 2374 2284 2100 2197 2292 2201
8 2286 2189 2095 2193 2375 2285 2197 2289
8 2192 2097 2196 2287 2288 2199 2291 2376
8 2287 2196 2104 2203 2376 2291 2204 2296
8 2194 2098 2199 2288 2290 2198 2293 2377
8 2289 2197 2096 2195 2378 2292 2198 2290
8 2291 2200 2105 2204 2379 2294 2205 2297
8 2199 2102 2200 2291 2293 2202 2294 2379
8 2198 2101 2202 2293 2292 2201 2295 2380
8 2299 2207 2297 2383 2206 2107 2204 2296
8 2300 2208 2298 2384 2207 2108 2205 2297
8 2302 2210 2300 2386 2209 2110 2207 2299
8 2303 2211 2301 2387 2210 2111 2208 2300
8 2305 2213 2303 2389 2212 2113 2210 2302
8 2306 2214 2304 2390 2213 2114 2211 2303
8 2310 2216 2306 2392 2220 2117 2213 2305
8 2308 2215 2307 2393 2216 2115 2214 2306
8 2308 2215 2115 2216 2396 2309 2217 2311
8 2310 2216 2117 2220 2398 2311 2219 2315
8 2311 2217 2116 2219 2399 2312 2218 2314
8 2314 2218 2118 2222 2402 2313 2221 2317
8 2315 2219 2119 2223 2403 2314 2222 2318
8 2225 2121 2224 2320 2317 2221 2316 2405
8 2226 2122 2225 2321 2318 2222 2317 2406
8 2228 2124 2227 2323 2320 2224 2319 2408
8 2229 2125 2228 2324 2321 2225 2320 2409
8 2231 2127 2230 2326 2323 2227 2322 2411
8 2232 2128 2231 2327 2324 2228 2323 2412
8 2234 2130 2233 2328 2326 2230 2325 2413
8 2235 2131 2234 2329 2327 2231 2326 2414
8 2237 2134 2236 2330 2329 2234 2328 2415
8 2259 2158 2260 2352 2332 2239 2331 2417
8 2257 2157 2259 2350 2334 2240 2332 2419
8 2240 2139 2239 2332 2335 2241 2333 2420
8 2334 2240 2335 2422 2242 2140 2243 2337
8 2335 2241 2336 2423 2243 2141 2244 2338
8 2337 2243 2338 2425 2247 2143 2246 2342
8 2338 2244 2339 2426 2246 2142 2245 2341
8 2341 2245 2340 2428 2249 2145 2248 2343
8 2342 2246 2341 2429 2250 2146 2249 2344
8 2344 2249 2343 2430 2252 2149 2251 2345
8 2188 2285 2347 2254 2284 2374 2432 2346
8 2347 2254 2346 2432 2271 2169 2270 2364
8 2365 2271 2170 2272 2433 2347 2255 2348
8 2286 2189 2285 2375 2348 2255 2347 2433
8 2349 2258 2351 2435 2257 2157 2259 2350
8 2349 2258 2164 2263 2435 2351 2264 2355
8 2259 2158 2261 2351 2352 2260 2354 2437
8 2356 2265 2354 2437 2264 2165 2261 2351
8 2441 2357 2264 2355 2362 2268 2168 2269
8 2356 2265 2165 2264 2442 2358 2266 2357
8 2443 2359 2266 2357 2361 2267 2166 2268
8 2370 2279 2360 2446 2280 2181 2267 2361
8 2362 2268 2182 2281 2447 2361 2280 2371
8 2180 2277 2368 2278 2270 2364 2449 2363
8 2271 2365 2273 2177 2364 2450 2366 2277
8 2372 2283 2186 2282 2451 2368 2276 2367
8 2178 2274 2367 2276 2277 2366 2451 2368
8 2283 2187 2278 2368 2370 2279 2369 2452
8 2372 2283 2370 2453 2282 2186 2280 2371
8 2284 2374 2455 2373 2201 2292 2380 2295
8 2375 2285 2197 2289 2456 2374 2292 2378
8 2376 2291 2204 2296 2457 2379 2297 2383
8 2288 2199 2291 2376 2377 2293 2379 2457
8 2198 2290 2378 2292 2293 2377 2458 2380
8 2293 2202 2294 2379 2380 2295 2381 2459
8 2384 2298 2381 2459 2297 2205 2294 2379
8 2386 2300 2384 2463 2299 2207 2297 2383
8 2387 2301 2385 2464 2300 2208 2298 2384
8 2389 2303 2387 2466 2302 2210 2300 2386
8 2390 2304 2388 2467 2303 2211 2301 2387
8 2392 2306 2390 2469 2305 2213 2303 2389
8 2393 2307 2391 2470 2306 2214 2304 2390
8 2395 2308 2393 2472 2310 2216 2306 2392
8 2308 2215 2309 2396 2393 2307 2394 2473
8 2395 2308 2216 2310 2475 2396 2311 2398
8 2396 2309 2217 2311 2476 2397 2312 2399
8 2398 2311 2219 2315 2478 2399 2314 2403
8 2399 2312 2218 2314 2479 2400 2313 2402
8 2317 2221 2316 2405 2402 2313 2401 2482
8 2403 2314 2222 2318 2483 2402 2317 2406
8 2320 2224 2319 2408 2405 2316 2404 2485
8 2321 2225 2320 2409 2406 2317 2405 2486
8 2323 2227 2322 2411 2408 2319 2407 2488
8 2324 2228 2323 2412 2409 2320 2408 2489
8 2326 2230 2325 2413 2411 2322 2410 2490
8 2327 2231 2326 2414 2412 2323 2411 2491
8 2329 2234 2328 2415 2414 2326 2413 2492
8 2417 2331 2260 2352 2494 2416 2353 2438
8 2350 2259 2352 2436 2419 2332 2417 2496
8 2332 2239 2331 2417 2420 2333 2418 2497
8 2334 2240 2332 2419 2422 2335 2420 2499
8 2420 2333 2421 2500 2335 2241 2336 2423
8 2422 2335 2423 2502 2337 2243 2338 2425
8 2423 2336 2424 2503 2338 2244 2339 2426
8 2425 2338 2426 2505 2342 2246 2341 2429
8 2426 2339 2427 2506 2341 2245 2340 2428
8 2429 2341 2428 2507 2344 2249 2343 2430
8 2432 2346 2284 2374 2509 2431 2373 2455
8 2432 2346 2431 2509 2364 2270 2363 2449
8 2375 2285 2374 2456 2433 2347 2432 2510
8 2347 2433 2365 2271 2432 2510 2450 2364
8 2350 2259 2351 2435 2436 2352 2437 2514
8 2440 2356 2437 2514 2355 2264 2351 2435
8 2352 2260 2354 2437 2438 2353 2439 2516
8 2356 2265 2358 2442 2437 2354 2439 2516
8 2440 2356 2264 2355 2518 2442 2357 2441
8 2519 2443 2357 2441 2447 2361 2268 2362
8 2443 2359 2444 2520 2357 2266 2358 2442
8 2443 2359 2267 2361 2520 2444 2360 2446
8 2446 2360 2279 2370 2523 2445 2369 2452
8 2453 2370 2446 2524 2371 2280 2361 2447
8 2449 2363 2448 2525 2368 2278 2369 2452
8 2366 2277 2364 2450 2451 2368 2449 2526
8 2372 2283 2368 2451 2453 2370 2452 2527
8 2455 2373 2295 2380 2529 2454 2382 2460
8 2456 2374 2292 2378 2530 2455 2380 2458
8 2377 2293 2379 2457 2458 2380 2459 2531
8 2463 2384 2459 2531 2383 2297 2379 2457
8 2533 2461 2382 2460 2459 2381 2295 2380
8 2464 2385 2461 2533 2384 2298 2381 2459
8 2466 2387 2464 2537 2386 2300 2384 2463
8 2467 2388 2465 2538 2387 2301 2385 2464
8 2469 2390 2467 2540 2389 2303 2387 2466
8 2470 2391 2468 2541 2390 2304 2388 2467
8 2472 2393 2470 2543 2392 2306 2390 2469
8 2393 2307 2394 2473 2470 2391 2471 2544
8 2395 2308 2396 2475 2472 2393 2473 2546
8 2396 2309 2397 2476 2473 2394 2474 2547
8 2475 2396 2311 2398 2549 2476 2399 2478
8 2476 2397 2312 2399 2550 2477 2400 2479
8 2478 2399 2314 2403 2552 2479 2402 2483
8 2479 2400 2313 2402 2553 2480 2401 2482
8 2405 2316 2404 2485 2482 2401 2481 2556
8 2406 2317 2405 2486 2483 2402 2482 2557
8 2408 2319 2407 2488 2485 2404 2484 2559
8 2409 2320 2408 2489 2486 2405 2485 2560
8 2411 2322 2410 2490 2488 2407 2487 2561
8 2412 2323 2411 2491 2489 2408 2488 2562
8 2414 2326 2413 2492 2491 2411 2490 2563
8 2513 2434 2493 2565 2438 2353 2416 2494
8 2496 2417 2352 2436 2567 2494 2438 2515
8 2494 2416 2495 2568 2417 2331 2418 2497
8 2419 2332 2417 2496 2499 2420 2497 2570
8 2497 2418 2498 2571 2420 2333 2421 2500
8 2499 2420 2500 2573 2422 2335 2423 2502
8 2500 2421 2501 2574 2423 2336 2424 2503
8 2502 2423 2503 2576 2425 2338 2426 2505
8 2503 2424 2504 2577 2426 2339 2427 2506
8 2505 2426 2506 2578 2429 2341 2428 2507
8 2509 2431 2373 2455 2580 2508 2454 2529
8 2509 2431 2508 2580 2449 2363 2448 2525
8 2432 2510 2581 2509 2374 2456 2530 2455
8 2432 2510 2450 2364 2509 2581 2526 2449
8 2583 2511 2434 2513 2516 2439 2353 2438
8 2436 2352 2437 2514 2515 2438 2516 2588
8 2440 2356 2442 2518 2514 2437 2516 2588
8 2442 2358 2444 2520 2516 2439 2517 2589
8 2519 2443 2520 2591 2441 2357 2442 2518
8 2519 2443 2361 2447 2591 2520 2446 2524
8 2446 2360 2445 2523 2520 2444 2521 2592
8 2525 2448 2522 2593 2452 2369 2445 2523
8 2524 2446 2370 2453 2594 2523 2452 2527
8 2526 2449 2525 2595 2451 2368 2452 2527
8 2534 2462 2528 2597 2460 2382 2454 2529
8 2530 2455 2380 2458 2598 2529 2460 2532
8 2599 2533 2460 2532 2531 2459 2380 2458
8 2537 2464 2533 2599 2463 2384 2459 2531
8 2534 2462 2382 2460 2601 2535 2461 2533
8 2538 2465 2535 2601 2464 2385 2461 2533
8 2540 2467 2538 2604 2466 2387 2464 2537
8 2541 2468 2539 2605 2467 2388 2465 2538
8 2543 2470 2541 2607 2469 2390 2467 2540
8 2470 2391 2471 2544 2541 2468 2542 2608
8 2472 2393 2473 2546 2543 2470 2544 2610
8 2473 2394 2474 2547 2544 2471 2545 2611
8 2475 2396 2476 2549 2546 2473 2547 2613
8 2476 2397 2477 2550 2547 2474 2548 2614
8 2549 2476 2399 2478 2616 2550 2479 2552
8 2479 2400 2480 2553 2550 2477 2551 2617
8 2552 2479 2402 2483 2619 2553 2482 2557
8 2482 2401 2481 2556 2553 2480 2554 2620
8 2485 2404 2484 2559 2556 2481 2555 2623
8 2486 2405 2485 2560 2557 2482 2556 2624
8 2488 2407 2487 2561 2559 2484 2558 2625
8 2489 2408 2488 2562 2560 2485 2559 2626
8 2491 2411 2490 2563 2562 2488 2561 2627
8 2513 2434 2512 2585 2565 2493 2564 2630
8 2586 2513 2565 2632 2515 2438 2494 2567
8 2565 2493 2566 2633 2494 2416 2495 2568
8 2567 2494 2568 2635 2496 2417 2497 2570
8 2568 2495 2569 2636 2497 2418 2498 2571
8 2570 2497 2571 2638 2499 2420 2500 2573
8 2571 2498 2572 2639 2500 2421 2501 2574
8 2573 2500 2574 2641 2502 2423 2503 2576
8 2574 2501 2575 2642 2503 2424 2504 2577
8 2576 2503 2577 2643 2505 2426 2506 2578
8 2597 2528 2579 2645 2529 2454 2508 2580
8 2580 2508 2579 2645 2525 2448 2522 2593
8 2581 2509 2455 2530 2646 2580 2529 2598
8 2581 2509 2580 2646 2526 2449 2525 2595
8 2583 2511 2582 2648 2513 2434 2512 2585
8 2583 2511 2439 2516 2648 2582 2517 2589
8 2649 2583 2513 2586 2588 2516 2438 2515
8 2589 2517 2444 2520 2653 2587 2521 2592
8 2518 2442 2520 2591 2588 2516 2589 2654
8 2593 2522 2590 2655 2523 2445 2521 2592
8 2524 2446 2523 2594 2591 2520 2592 2656
8 2595 2525 2593 2657 2527 2452 2523 2594
8 2602 2536 2596 2659 2534 2462 2528 2597
8 2600 2534 2597 2660 2532 2460 2529 2598
8 2600 2534 2460 2532 2661 2601 2533 2599
8 2604 2538 2601 2661 2537 2464 2533 2599
8 2602 2536 2462 2534 2663 2603 2535 2601
8 2601 2535 2465 2538 2663 2603 2539 2605
8 2607 2541 2605 2665 2540 2467 2538 2604
8 2608 2542 2606 2666 2541 2468 2539 2605
8 2543 2470 2544 2610 2607 2541 2608 2668
8 2544 2471 2545 2611 2608 2542 2609 2669
8 2546 2473 2547 2613 2610 2544 2611 2671
8 2547 2474 2548 2614 2611 2545 2612 2672
8 2549 2476 2550 2616 2613 2547 2614 2674
8 2550 2477 2551 2617 2614 2548 2615 2675
8 2552 2479 2553 2619 2616 2550 2617 2677
8 2553 2480 2554 2620 2617 2551 2618 2678
8 2557 2482 2556 2624 2619 2553 2620 2680
8 2556 2481 2555 2623 2620 2554 2621 2681
8 2559 2484 2558 2625 2623 2555 2622 2683
8 2560 2485 2559 2626 2624 2556 2623 2684
8 2562 2488 2561 2627 2626 2559 2625 2685
8 2690 2629 2564 2630 2650 2584 2512 2585
8 2586 2513 2585 2651 2632 2565 2630 2691
8 2630 2564 2631 2692 2565 2493 2566 2633
8 2632 2565 2633 2694 2567 2494 2568 2635
8 2633 2566 2634 2695 2568 2495 2569 2636
8 2635 2568 2636 2697 2570 2497 2571 2638
8 2636 2569 2637 2698 2571 2498 2572 2639
8 2638 2571 2639 2700 2573 2500 2574 2641
8 2639 2572 2640 2701 2574 2501 2575 2642
8 2641 2574 2642 2702 2576 2503 2577 2643
8 2597 2528 2596 2659 2645 2579 2644 2704
8 2645 2579 2644 2704 2593 2522 2590 2655
8 2660 2597 2645 2705 2598 2529 2580 2646
8 2646 2580 2645 2705 2595 2525 2593 2657
8 2650 2584 2512 2585 2707 2647 2582 2648
8 2648 2582 2517 2589 2707 2647 2587 2653
8 2649 2583 2648 2708 2586 2513 2585 2651
8 2649 2583 2516 2588 2708 2648 2589 2654
8 2655 2590 2652 2710 2592 2521 2587 2653
8 2654 2589 2520 2591 2711 2653 2592 2656
8 2657 2593 2655 2712 2594 2523 2592 2656
8 2602 2536 2603 2663 2659 2596 2658 2714
8 2662 2602 2659 2715 2600 2534 2597 2660
8 2662 2602 2534 2600 2717 2663 2601 2661
8 2661 2601 2538 2604 2717 2663 2605 2665
8 2666 2606 2664 2718 2605 2539 2603 2663
8 2668 2608 2666 2720 2607 2541 2605 2665
8 2608 2542 2609 2669 2666 2606 2667 2721
8 2610 2544 2611 2671 2668 2608 2669 2723
8 2611 2545 2612 2672 2669 2609 2670 2724
8 2613 2547 2614 2674 2671 2611 2672 2726
8 2614 2548 2615 2675 2672 2612 2673 2727
8 2616 2550 2617 2677 2674 2614 2675 2729
8 2617 2551 2618 2678 2675 2615 2676 2730
8 2619 2553 2620 2680 2677 2617 2678 2732
8 2620 2554 2621 2681 2678 2618 2679 2733
8 2624 2556 2623 2684 2680 2620 2681 2735
8 2681 2621 2555 2623 2736 2682 2622 2683
8 2626 2559 2625 2685 2684 2623 2683 2737
8 2688 2628 2584 2650 2740 2686 2647 2707
8 2688 2628 2687 2742 2650 2584 2629 2690
8 2690 2629 2689 2745 2630 2564 2631 2692
8 2746 2690 2630 2691 2709 2650 2585 2651
8 2691 2630 2692 2747 2632 2565 2633 2694
8 2692 2631 2693 2748 2633 2566 2634 2695
8 2694 2633 2695 2750 2635 2568 2636 2697
8 2695 2634 2696 2751 2636 2569 2637 2698
8 2697 2636 2698 2753 2638 2571 2639 2700
8 2698 2637 2699 2754 2639 2572 2640 2701
8 2700 2639 2701 2755 2641 2574 2642 2702
8 2659 2596 2658 2714 2704 2644 2703 2757
8 2704 2644 2703 2757 2655 2590 2652 2710
8 2660 2597 2659 2715 2705 2645 2704 2758
8 2705 2645 2704 2758 2657 2593 2655 2712
8 2759 2706 2647 2707 2710 2652 2587 2653
8 2709 2650 2585 2651 2760 2707 2648 2708
8 2708 2648 2589 2654 2760 2707 2653 2711
8 2712 2655 2710 2761 2656 2592 2653 2711
8 2763 2713 2658 2714 2718 2664 2603 2663
8 2662 2602 2663 2717 2715 2659 2714 2764
8 2720 2666 2718 2767 2665 2605 2663 2717
8 2768 2719 2664 2718 2721 2667 2606 2666
8 2668 2608 2669 2723 2720 2666 2721 2770
8 2669 2609 2670 2724 2721 2667 2722 2771
8 2671 2611 2672 2726 2723 2669 2724 2773
8 2672 2612 2673 2727 2724 2670 2725 2774
8 2674 2614 2675 2729 2726 2672 2727 2776
8 2675 2615 2676 2730 2727 2673 2728 2777
8 2677 2617 2678 2732 2729 2675 2730 2779
8 2678 2618 2679 2733 2730 2676 2731 2780
8 2680 2620 2681 2735 2732 2678 2733 2782
8 2733 2679 2621 2681 2783 2734 2682 2736
8 2735 2681 2623 2684 2784 2736 2683 2737
8 2740 2686 2647 2707 2787 2738 2706 2759
8 2688 2628 2686 2740 2742 2687 2739 2789
8 2743 2688 2650 2709 2790 2740 2707 2760
8 2742 2687 2741 2792 2690 2629 2689 2745
8 2743 2688 2742 2793 2709 2650 2690 2746
8 2745 2689 2744 2795 2692 2631 2693 2748
8 2746 2690 2745 2796 2691 2630 2692 2747
8 2747 2692 2748 2797 2694 2633 2695 2750
8 2748 2693 2749 2798 2695 2634 2696 2751
8 2750 2695 2751 2800 2697 2636 2698 2753
8 2751 2696 2752 2801 2698 2637 2699 2754
8 2753 2698 2754 2802 2700 2639 2701 2755
8 2763 2713 2756 2804 2714 2658 2703 2757
8 2759 2706 2652 2710 2804 2756 2703 2757
8 2715 2659 2714 2764 2758 2704 2757 2805
8 2758 2704 2757 2805 2712 2655 2710 2761
8 2806 2759 2707 2760 2761 2710 2653 2711
8 2765 2716 2762 2808 2718 2664 2713 2763
8 2809 2763 2714 2764 2767 2718 2663 2717
8 2765 2716 2664 2718 2811 2766 2719 2768
8 2813 2768 2718 2767 2770 2721 2666 2720
8 2814 2769 2719 2768 2771 2722 2667 2721
8 2723 2669 2724 2773 2770 2721 2771 2816
8 2724 2670 2725 2774 2771 2722 2772 2817
8 2726 2672 2727 2776 2773 2724 2774 2819
8 2727 2673 2728 2777 2774 2725 2775 2820
8 2729 2675 2730 2779 2776 2727 2777 2822
8 2730 2676 2731 2780 2777 2728 2778 2823
8 2732 2678 2733 2782 2779 2730 2780 2825
8 2780 2731 2679 2733 2826 2781 2734 2783
8 2782 2733 2681 2735 2827 2783 2736 2784
8 2830 2785 2738 2787 2804 2756 2706 2759
8 2789 2739 2686 2740 2832 2786 2738 2787
8 2790 2740 2707 2760 2833 2787 2759 2806
8 2742 2687 2739 2789 2792 2741 2788 2835
8 2743 2688 2740 2790 2793 2742 2789 2836
8 2792 2741 2791 2838 2745 2689 2744 2795
8 2793 2742 2792 2839 2746 2690 2745 2796
8 2795 2744 2794 2841 2748 2693 2749 2798
8 2796 2745 2795 2842 2747 2692 2748 2797
8 2797 2748 2798 2843 2750 2695 2751 2800
8 2798 2749 2799 2844 2751 2696 2752 2801
8 2800 2751 2801 2845 2753 2698 2754 2802
8 2808 2762 2803 2847 2763 2713 2756 2804
8 2809 2763 2804 2848 2764 2714 2757 2805
8 2806 2759 2710 2761 2848 2804 2757 2805
8 2765 2716 2766 2811 2808 2762 2807 2850
8 2810 2765 2808 2851 2767 2718 2763 2809
8 2810 2765 2718 2767 2852 2811 2768 2813
8 2811 2766 2719 2768 2853 2812 2769 2814
8 2855 2814 2768 2813 2816 2771 2721 2770
8 2856 2815 2769 2814 2817 2772 2722 2771
8 2773 2724 2774 2819 2816 2771 2817 2858
8 2774 2725 2775 2820 2817 2772 2818 2859
8 2776 2727 2777 2822 2819 2774 2820 2861
8 2777 2728 2778 2823 2820 2775 2821 2862
8 2779 2730 2780 2825 2822 2777 2823 2864
8 2823 2778 2731 2780 2865 2824 2781 2826
8 2825 2780 2733 2782 2866 2826 2783 2827
8 2869 2828 2785 2830 2847 2803 2756 2804
8 2871 2829 2786 2832 2830 2785 2738 2787
8 2872 2830 2787 2833 2848 2804 2759 2806
8 2789 2739 2786 2832 2835 2788 2831 2874
8 2836 2789 2740 2790 2875 2832 2787 2833
8 2792 2741 2788 2835 2838 2791 2834 2877
8 2793 2742 2789 2836 2839 2792 2835 2878
8 2838 2791 2837 2880 2795 2744 2794 2841
8 2839 2792 2838 2881 2796 2745 2795 2842
8 2841 2794 2840 2882 2798 2749 2799 2844
8 2842 2795 2841 2883 2797 2748 2798 2843
8 2843 2798 2844 2884 2800 2751 2801 2845
8 2886 2846 2803 2847 2850 2807 2762 2808
8 2851 2808 2847 2887 2809 2763 2804 2848
8 2850 2807 2766 2811 2889 2849 2812 2853
8 2810 2765 2811 2852 2851 2808 2850 2890
8 2852 2811 2768 2813 2891 2853 2814 2855
8 2853 2812 2769 2814 2892 2854 2815 2856
8 2894 2856 2814 2855 2858 2817 2771 2816
8 2817 2772 2818 2859 2856 2815 2857 2895
8 2819 2774 2820 2861 2858 2817 2859 2897
8 2820 2775 2821 2862 2859 2818 2860 2898
8 2822 2777 2823 2864 2861 2820 2862 2900
8 2823 2778 2824 2865 2862 2821 2863 2901
8 2864 2823 2780 2825 2902 2865 2826 2866
8 2904 2867 2828 2869 2886 2846 2803 2847
8 2869 2828 2868 2906 2830 2785 2829 2871
8 2907 2869 2830 2872 2887 2847 2804 2848
8 2871 2829 2870 2909 2832 2786 2831 2874
8 2910 2871 2832 2875 2872 2830 2787 2833
8 2835 2788 2831 2874 2877 2834 2873 2912
8 2836 2789 2832 2875 2878 2835 2874 2913
8 2877 2834 2876 2915 2838 2791 2837 2880
8 2839 2792 2835 2878 2881 2838 2877 2916
8 2880 2837 2879 2917 2841 2794 2840 2882
8 2881 2838 2880 2918 2842 2795 2841 2883
8 2883 2841 2882 2919 2843 2798 2844 2884
8 2921 2885 2846 2886 2889 2849 2807 2850
8 2922 2886 2847 2887 2890 2850 2808 2851
8 2889 2849 2812 2853 2924 2888 2854 2892
8 2890 2850 2811 2852 2925 2889 2853 2891
8 2891 2853 2814 2855 2926 2892 2856 2894
8 2892 2854 2815 2856 2927 2893 2857 2895
8 2858 2817 2859 2897 2894 2856 2895 2929
8 2859 2818 2860 2898 2895 2857 2896 2930
8 2861 2820 2862 2900 2897 2859 2898 2932
8 2862 2821 2863 2901 2898 2860 2899 2933
8 2864 2823 2865 2902 2900 2862 2901 2934
8 2904 2867 2846 2886 2936 2903 2885 2921
8 2904 2867 2903 2936 2869 2828 2868 2906
8 2937 2904 2869 2907 2922 2886 2847 2887
8 2906 2868 2905 2939 2871 2829 2870 2909
8 2907 2869 2906 2940 2872 2830 2871 2910
8 2909 2870 2908 2942 2874 2831 2873 2912
8 2910 2871 2909 2943 2875 2832 2874 2913
8 2912 2873 2911 2945 2877 2834 2876 2915
8 2878 2835 2874 2913 2916 2877 2912 2946
8 2915 2876 2914 2947 2880 2837 2879 2917
8 2916 2877 2915 2948 2881 2838 2880 2918
8 2918 2880 2917 2949 2883 2841 2882 2919
8 2921 2885 2849 2889 2951 2920 2888 2924
8 2952 2921 2886 2922 2925 2889 2850 2890
8 2924 2888 2854 2892 2954 2923 2893 2927
8 2925 2889 2853 2891 2955 2924 2892 2926
8 2926 2892 2856 2894 2956 2927 2895 2929
8 2895 2857 2896 2930 2927 2893 2928 2957
8 2897 2859 2898 2932 2929 2895 2930 2959
8 2898 2860 2899 2933 2930 2896 2931 2960
8 2900 2862 2901 2934 2932 2898 2933 2961
8 2936 2903 2885 2921 2963 2935 2920 2951
8 2936 2903 2935 2963 2906 2868 2905 2939
8 2937 2904 2886 2922 2964 2936 2921 2952
8 2937 2904 2936 2964 2907 2869 2906 2940
8 2939 2905 2938 2966 2909 2870 2908 2942
8 2940 2906 2939 2967 2910 2871 2909 2943
8 2942 2908 2941 2969 2912 2873 2911 2945
8 2943 2909 2942 2970 2913 2874 2912 2946
8 2945 2911 2944 2971 2915 2876 2914 2947
8 2946 2912 2945 2972 2916 2877 2915 2948
8 2948 2915 2947 2973 2918 2880 2917 2949
8 2951 2920 2888 2924 2975 2950 2923 2954
8 2952 2921 2889 2925 2976 2951 2924 2955
8 2927 2893 2928 2957 2954 2923 2953 2978
8 2955 2924 2892 2926 2979 2954 2927 2956
8 2929 2895 2930 2959 2956 2927 2957 2980
8 2930 2896 2931 2960 2957 2928 2958 2981
8 2932 2898 2933 2961 2959 2930 2960 2982
8 2951 2920 2950 2975 2963 2935 2962 2984
8 2963 2935 2962 2984 2939 2905 2938 2966
8 2964 2936 2921 2952 2985 2963 2951 2976
8 2964 2936 2963 2985 2940 2906 2939 2967
8 2966 2938 2965 2987 2942 2908 2941 2969
8 2967 2939 2966 2988 2943 2909 2942 2970
8 2969 2941 2968 2989 2945 2911 2944 2971
8 2970 2942 2969 2990 2946 2912 2945 2972
8 2972 2945 2971 2991 2948 2915 2947 2973
8 2954 2923 2953 2978 2975 2950 2974 2993
8 2976 2951 2924 2955 2994 2975 2954 2979
8 2957 2928 2958 2981 2978 2953 2977 2995
8 2956 2927 2957 2980 2979 2954 2978 2996
8 2959 2930 2960 2982 2980 2957 2981 2997
8 2984 2962 2983 2999 2966 2938 2965 2987
8 2975 2950 2974 2993 2984 2962 2983 2999
8 2976 2951 2975 2994 2985 2963 2984 3000
8 2985 2963 2984 3000 2967 2939 2966 2988
8 2987 2965 2986 3001 2969 2941 2968 2989
8 2988 2966 2987 3002 2970 2942 2969 2990
8 2990 2969 2989 3003 2972 2945 2971 2991
8 2978 2953 2977 2995 2993 2974 2992 3004
8 2979 2954 2978 2996 2994 2975 2993 3005
8 2980 2957 2981 2997 2996 2978 2995 3006
8 2974 2993 2999 2983 2992 3004 3007 2998
8 2983 2999 2987 2965 2998 3007 3001 2986
8 3000 2984 2999 3008 2988 2966 2987 3002
8 2994 2975 2993 3005 3000 2984 2999 3008
8 3002 2987 3001 3009 2990 2969 2989 3003
8 2996 2978 2995 3006 3005 2993 3004 3010
8 3005 2993 3004 3010 3008 2999 3007 3011
8 3008 2999 3007 3011 3002 2987 3001 3009

CELL_TYPES 1910
12
12
12
12
12
12
12
12
12
12
12
12
12
12
12
12
12
12
12
12
12
12
12
12
12
12
12
12
12
12
12
12
12
12
12
12
12
12
12
12
12
12
12
12
12
12
12
12
12
12
12
12
12
12
12
12
12
12
12
12
12
12
12
12
12
12
12
12
12
12
12
12
12
12
12
12
12
12
12
12
12
12
12
12
12
12
12
12
12
12
12
12
12
12
12
12
12
12
12
12
12
12
12
12
12
12
12
12
12
12
12
12
12
12
12
12
12
12
12
12
12
12
12
12
12
12
12
12
12
12
12
12
12
12
12
12
12
12
12
12
12
12
12
12
12
12
12
12
12
12
12
12
12
12
12
12
12
12
12
12
12
12
12
12
12
12
12
12
12
12
12
12
12
12
12
12
12
12
12
12
12
12
12
12
12
12
12
12
12
12
12
12
12
12
12
12
12
12
12
12
12
12
12
12
12
12
12
12
12
12
12
12
12
12
12
12
12
12
12
12
12
12
12
12
12
12
12
12
12
12
12
12
12
12
12
12
12
12
12
12
12
12
12
12
12
12
12
12
12
12
12
12
12
12
12
12
12
12
12
12
12
12
12
12
12
12
12
12
12
12
12
12
12
12
12
12
12
12
12
12
12
12
12
12
12
12
12
12
12
12
12
12
12
12
12
12
12
12
12
12
12
12
12
12
12
12
12
12
12
12
12
12
12
12
12
12
12
12
12
12
12
12
12
12
12
12
12
12
12
12
12
12
12
12
12
12
12
12
12
12
12
12
12
12
12
12
12
12
12
12
12
12
12
12
12
12
12
12
12
12
12
12
12
12
12
12
12
12
12
12
12
12
12
12
12
12
12
12
12
12
12
12
12
12
12
12
12
12
12
12
12
12
12
12
12
12
12
12
12
12
12
12
12
12
12
12
12
12
12
12
12
12
12
12
12
12
12
12
12
12
12
12
12
12
12
12
12
12
12
12
12
12
12
12
12
12
12
12
12
12
12
12
12
12
12
12
12
12
12
12
12
12
12
12
12
12
12
12
12
12
12
12
12
12
12
12
12
12
12
12
12
12
12
12
12
12
12
12
12
12
12
12
12
12
12
12
12
12
12
12
12
12
12
12
12
12
12
12
12
12
12
12
12
12
12
12
12
12
12
12
12
12
12
12
12
12
12
12
12
12
12
12
12
12
12
12
12
12
12
12
12
12
12
12
12
12
12
12
12
12
12
12
12
12
12
12
12
12
12
12
12
12
12
12
12
12
12
12
12
12
12
12
12
12
12
12
12
12
12
12
12
12
12
12
12
12
12
12
12
12
12
12
12
12
12
12
12
12
12
12
12
12
12
12
12
12
12
12
12
12
12
12
12
12
12
12
12
12
12
12
12
12
12
12
12
12
12
12
12
12
12
12
12
12
12
12
12
12
12
12
12
12
12
12
12
12
12
12
12
12
12
12
12
12
12
12
12
12
12
12
12
12
12
12
12
12
12
12
12
12
12
12
12
12
12
12
12
12
12
12
12
12
12
12
12
12
12
12
12
12
12
12
12
12
12
12
12
12
12
12
12
12
12
12
12
12
12
12
12
12
12
12
12
12
12
12
12
12
12
12
12
12
12
12
12
12
12
12
12
12
12
12
12
12
12
12
12
12
12
12
12
12
12
12
12
12
12
12
12
12
12
12
12
12
12
12
12
12
12
12
12
12
12
12
12
12
12
12
12
12
12
12
12
12
12
12
12
12
12
12
12
12
12
12
12
12
12
12
12
12
12
12
12
12
12
12
12
12
12
12
12
12
12
12
12
12
12
12
12
12
12
12
12
12
12
12
12
12
12
12
12
12
12
12
12
12
12
12
12
12
12
12
12
12
12
12
12
12
12
12
12
12
12
12
12
12
12
12
12
12
12
12
12
12
12
12
12
12
12
12
12
12
12
12
12
12
12
12
12
12
12
12
12
12
12
12
12
12
12
12
12
12
12
12
12
12
12
12
12
12
12
12
12
12
12
12
12
12
12
12
12
12
12
12
12
12
12
12
12
12
12
12
12
12
12
12
12
12
12
12
12
12
12
12
12
12
12
12
12
12
12
12
12
12
12
12
12
12
12
12
12
12
12
12
12
12
12
12
12
12
12
12
12
12
12
12
12
12
12
12
12
12
12
12
12
12
12
12
12
12
12
12
12
12
12
12
12
12
12
12
12
12
12
12
12
12
12
12
12
12
12
12
12
12
12
12
12
12
12
12
12
12
12
12
12
12
12
12
12
12
12
12
12
12
12
12
12
12
12
12
12
12
12
12
12
12
12
12
12
12
12
12
12
12
12
12
12
12
12
12
12
12
12
12
12
12
12
12
12
12
12
12
12
12
12
12
12
12
12
12
12
12
12
12
12
12
12
12
12
12
12
12
12
12
12
12
12
12
12
12
12
12
12
12
12
12
12
12
12
12
12
12
12
12
12
12
12
12
12
12
12
12
12
12
12
12
12
12
12
12
12
12
12
12
12
12
12
12
12
12
12
12
12
12
12
12
12
12
12
12
12
12
12
12
12
12
12
12
12
12
12
12
12
12
12
12
12
12
12
12
12
12
12
12
12
12
12
12
12
12
12
12
12
12
12
12
12
12
12
12
12
12
12
12
12
12
12
12
12
12
12
12
12
12
12
12
12
12
12
12
12
12
12
12
12
12
12
12
12
12
12
12
12
12
12
12
12
12
12
12
12
12
12
12
12
12
12
12
12
12
12
12
12
12
12
12
12
12
12
12
12
12
12
12
12
12
12
12
12
12
12
12
12
12
12
12
12
12
12
12
12
12
12
12
12
12
12
12
12
12
12
12
12
12
12
12
12
12
12
12
12
12
12
12
12
12
12
12
12
12
12
12
12
12
12
12
12
12
12
12
12
12
12
12
12
12
12
12
12
12
12
12
12
12
12
12
12
12
12
12
12
12
12
12
12
12
12
12
12
12
12
12
12
12
12
12
12
12
12
12
12
12
12
12
12
12
12
12
12
12
12
12
12
12
12
12
12
12
12
12
12
12
12
12
12
12
12
12
12
12
12
12
12
12
12
12
12
12
12
12
12
12
12
12
12
12
12
12
12
12
12
12
12
12
12
12
12
12
12
12
12
12
12
12
12
12
12
12
12
12
12
12
12
12
12
12
12
12
12
12
12
12
12
12
12
12
12
12
12
12
12
12
12
12
12
12
12
12
12
12
12
12
12
12
12
12
12
12
12
12
12
12
12
12
12
12
12
12
12
12
12
12
12
12
12
12
12
12
12
12
12
12
12
12
12
12
12
12
12
12
12
12
12
12
12
12
12
12
12
12
12
12
12
12
12
12
12
12
12
12
12
12
12
12
12
12
12
12
12
12
12
12
12
12
12
12
12
12
12
12
12
12
12
12
12
12
12
12
12
12
12
12
12
12
12
12
12
12
12
12
12
12
12
12
12
12
12
12
12
12
12
12
12
12
12
12
12
12
12
12
12
12
12
12
12
12
12
12
12
12
12
12
12
12
12
12
12
12
12
12
12
12
12
12
12
12
12
12
12
12
12
12
12
12
12
12
12
12
12
12
12
12
12
12
12
12
12
12
12
12
12
12
12
12
12
12
12
12
12
12
12
12
12
12
12
12
12
12
12
12
12
12
12
12
12
12
12
12
12
12
12
12
12
12
12
12
12
12
12
12
12
12
12
12
12
12
12
12
12
12
12
12
12
12
12
12
12
12
12
12
12
12
12
12
12
12
12
12
12
12
12
12
12
12
12
12
12
12
12
12
12
12
12
12
12
12
12
12
12
12
12
12
12
12
12
12
12
12
12
12
12
12
12
12
12
12
12
12
12
12
12
12
12
12
12
12
12
12
12
12
12
12
12
12
12
12
12
12
12
12
12
12
12
12
12
12
12
12
12
12
12
12
12
12
12
12
12
12
12
12
12
12
12
12
12
12
12
12
12
12
12
12
12
12
12
12
12
12
12
12
12
12
12
12
12
12
12
12
12
12
12
12
12
12
12
12
12
12
12
12
12
12
12
12
12
12
12
12
12
12
12
12
12
12
12
12
12
12
12
12
12
12
12
12
12
12
12
12
12
12
12
12
12
12
12
12
12
12
12
12
12
12
12
12
12
12
12
12
12
12
12
12
12
12
12
12
12
12
12
12
12
12
12
12
12
12
12
12
12
12
12
12
12
12
12
12
12
12
12
12
12
12
12
12
12
12
12
12
12
12
12
12
12
12
12
12
12
12
12
12
12
12
12
12
12
12
12
12
12
12
12
12
12
12
12
12
12
12
12
12
12
12
12
12
12
12
12
12
12
12

POINT_DATA 3012
SCALARS Jp_lamdaP float 4
LOOKUP_TABLE default
1 1 1 1
1 1 1 1
1 1 1 1
1 1 1 1
1 1 1 1
1 1 1 1
0.999994 1 1 0.999994
1 1 1 1
1 1 1 1
1 1 1 1
1 1 1 1
1 1 1 1
1 1 1 1
1 1 1 1
1 1 1 1
1 1 1 1
1 1 1 1
1 1 1 1
0.999994 1 1 0.999994
1 1 1 1
1 1 1 1
1 1 1 1
0.999984 1 1 0.999984
0.999992 1 1 0.999992
1 1 1 1
0.999996 1 1 0.999996
0.99997 1 1 0.99997
1 1 1 1
1 1 1 1
1 1 1 1
1 1 1 1
1 1 1 1
1 1 1 1
1 1 1 1
1 1 1 1
1 1 1 1
1 1 1 1
1 1 1 1
0.999981 1 1 0.999981
1 1 1 1
1 1 1 1
1 1 1 1
1 1 1 1
1 1 1 1
0.99999 1 1 0.99999
1 1 1 1
0.999995 1 1 0.999995
1 1 1 1
1 1 1 1
1 1 1 1
0.999995 1 1 0.999995
1 1 1 1
1 1 1 1
1 1 1 1
1 1 1 1
0.999984 1 1 0.999984
0.999996 1 1 0.999996
0.999992 1 1 0.999992
0.999969 1 1 0.999969
1 1 1 1
1 1 1 1
0.99999 1 1 0.99999
0.99998 1 1 0.99998
0.999989 1 1 0.999989
0.999943 1 1 0.999943
0.999957 1 1 0.999957
1 1 1 1
0.999998 1 1 0.999998
0.999978 1 1 0.999978
0.999916 1 1 0.999916
1 1 1 1
1 1 1 1
1 1 1 1
1 1 1 1
1 1 1 1
1 1 1 1
1 1 1 1
1 1 1 1
1 1 1 1
1 1 1 1
0.999981 1 1 0.999981
1 1 1 1
1 1 1 1
0.999998 1 1 0.999998
1 1 1 1
0.999952 1 1 0.999952
1 1 1 1
0.999974 1 1 0.999974
0.999987 1 1 0.999987
0.999937 1 1 0.999937
1 1 1 1
1 1 1 1
1 1 1 1
1 1 1 1
1 1 1 1
1 1 1 1
0.999991 1 1 0.999991
1 1 1 1
0.999996 1 1 0.999996
1 1 1 1
0.999988 1 1 0.999988
0.999993 1 1 0.999993
0.999922 1 1 0.999922
0.999997 1 1 0.999997
0.99993 1 1 0.99993
1 1 1 1
1 1 1 1
1 1 1 1
1 1 1 1
0.999985 1 1 0.999985
0.999993 1 1 0.999993
0.999997 1 1 0.999997
0.999968 1 1 0.999968
1 1 1 1
1 1 1 1
0.999983 1 1 0.999983
0.99998 1 1 0.99998
1 1 1 1
0.999999 1 1 0.999999
0.999989 1 1 0.999989
0.999939 1 1 0.999939
0.999976 1 1 0.999976
0.99996 1 1 0.99996
0.999916 1 1 0.999916
0.999989 1 1 0.999989
0.999979 1 1 0.999979
0.999923 1 1 0.999923
0.999929 1 1 0.999929
0.999947 1 1 0.999947
0.999892 1 1 0.999892
1 1 1 1
0.99991 1 1 0.99991
1 1 1 1
0.999983 1 1 0.999983
0.999922 1 1 0.999922
0.999894 1 1 0.999894
1 1 1 1
0.99999 1 1 0.99999
1 1 1 1
1 1 1 1
1 1 1 1
1 1 1 1
1 1 1 1
1 1 1 1
0.999982 1 1 0.999982
1 1 1 1
1 1 1 1
0.999999 1 1 0.999999
1 1 1 1
0.999952 1 1 0.999952
1 1 1 1
0.999975 1 1 0.999975
0.999987 1 1 0.999987
0.999935 1 1 0.999935
1 1 1 1
1 1 1 1
0.999992 1 1 0.999992
0.999942 1 1 0.999942
0.999964 1 1 0.999964
0.999904 1 1 0.999904
0.999991 1 1 0.999991
0.999927 1 1 0.999927
0.999941 1 1 0.999941
0.999914 1 1 0.999914
1 1 1 1
1 1 1 1
1 1 1 1
1 1 1 1
1 1 1 1
1 1 1 1
1 1 1 1
0.999996 1 1 0.999996
0.999991 1 1 0.999991
1 1 1 1
1 1 1 1
0.999989 1 1 0.999989
0.999993 1 1 0.999993
0.999921 1 1 0.999921
0.999997 1 1 0.999997
0.99993 1 1 0.99993
0.999988 1 1 0.999988
0.99992 1 1 0.99992
0.999925 1 1 0.999925
0.999885 1 1 0.999885
0.999936 1 1 0.999936
0.99989 1 1 0.99989
1 1 1 1
1 1 1 1
0.999977 1 1 0.999977
0.999981 1 1 0.999981
1 1 1 1
1 1 1 1
0.999989 1 1 0.999989
0.999936 1 1 0.999936
0.999963 1 1 0.999963
0.999975 1 1 0.999975
0.999917 1 1 0.999917
0.999989 1 1 0.999989
0.999979 1 1 0.999979
0.999917 1 1 0.999917
0.999931 1 1 0.999931
1 1 1 1
1 1 1 1
0.999983 1 1 0.999983
0.999948 1 1 0.999948
0.999887 1 1 0.999887
0.999921 1 1 0.999921
0.999913 1 1 0.999913
0.999894 1 1 0.999894
1 1 1 1
0.99999 1 1 0.99999
0.999918 1 1 0.999918
0.999924 1 1 0.999924
0.99988 1 1 0.99988
0.999875 1 1 0.999875
0.999905 1 1 0.999905
0.99987 1 1 0.99987
1 1 1 1
0.99989 1 1 0.99989
0.999987 1 1 0.999987
0.99993 1 1 0.99993
0.9999 1 1 0.9999
0.999887 1 1 0.999887
0.99999 1 1 0.99999
0.999991 1 1 0.999991
0.999943 1 1 0.999943
0.999999 1 1 0.999999
1 1 1 1
1 1 1 1
1 1 1 1
0.999952 1 1 0.999952
1 1 1 1
0.999988 1 1 0.999988
0.999975 1 1 0.999975
0.999933 1 1 0.999933
1 1 1 1
1 1 1 1
0.999992 1 1 0.999992
0.999942 1 1 0.999942
0.999965 1 1 0.999965
0.999903 1 1 0.999903
0.999991 1 1 0.999991
0.999928 1 1 0.999928
0.999941 1 1 0.999941
0.999912 1 1 0.999912
1 1 1 1
0.999992 1 1 0.999992
0.999993 1 1 0.999993
0.999949 1 1 0.999949
0.999897 1 1 0.999897
0.999917 1 1 0.999917
0.999881 1 1 0.999881
0.999946 1 1 0.999946
0.999904 1 1 0.999904
0.999909 1 1 0.999909
0.999897 1 1 0.999897
0.999995 1 1 0.999995
1 1 1 1
1 1 1 1
1 1 1 1
1 1 1 1
1 1 1 1
1 1 1 1
1 1 1 1
1 1 1 1
0.999998 1 1 0.999998
0.999994 1 1 0.999994
0.99993 1 1 0.99993
0.999921 1 1 0.999921
0.999989 1 1 0.999989
1 1 1 1
0.999988 1 1 0.999988
0.99992 1 1 0.99992
0.999925 1 1 0.999925
0.999885 1 1 0.999885
0.999936 1 1 0.999936
0.99989 1 1 0.99989
0.999919 1 1 0.999919
0.999887 1 1 0.999887
0.999885 1 1 0.999885
0.999871 1 1 0.999871
0.999894 1 1 0.999894
0.999876 1 1 0.999876
0.999988 1 1 0.999988
0.999979 1 1 0.999979
0.99991 1 1 0.99991
0.999933 1 1 0.999933
1 1 1 1
1 1 1 1
0.999983 1 1 0.999983
0.999948 1 1 0.999948
0.999883 1 1 0.999883
0.999915 1 1 0.999915
0.999921 1 1 0.999921
0.999894 1 1 0.999894
1 1 1 1
0.99999 1 1 0.99999
0.999916 1 1 0.999916
0.999924 1 1 0.999924
0.99988 1 1 0.99988
0.999879 1 1 0.999879
1 1 1 1
0.999987 1 1 0.999987
0.999932 1 1 0.999932
0.999905 1 1 0.999905
0.999869 1 1 0.999869
0.999897 1 1 0.999897
0.99989 1 1 0.99989
0.999887 1 1 0.999887
0.99999 1 1 0.99999
0.999941 1 1 0.999941
0.999991 1 1 0.999991
0.999886 1 1 0.999886
0.999876 1 1 0.999876
0.999861 1 1 0.999861
0.999858 1 1 0.999858
0.999884 1 1 0.999884
0.999868 1 1 0.999868
0.999989 1 1 0.999989
0.999885 1 1 0.999885
0.999942 1 1 0.999942
0.999901 1 1 0.999901
0.999883 1 1 0.999883
0.999893 1 1 0.999893
0.999992 1 1 0.999992
0.999945 1 1 0.999945
0.999937 1 1 0.999937
0.999916 1 1 0.999916
0.999942 1 1 0.999942
1 1 1 1
1 1 1 1
0.999992 1 1 0.999992
0.999965 1 1 0.999965
0.999903 1 1 0.999903
0.999991 1 1 0.999991
0.999941 1 1 0.999941
0.99993 1 1 0.99993
0.999909 1 1 0.999909
1 1 1 1
0.999992 1 1 0.999992
0.999993 1 1 0.999993
0.999949 1 1 0.999949
0.999896 1 1 0.999896
0.999917 1 1 0.999917
0.999881 1 1 0.999881
0.999946 1 1 0.999946
0.999907 1 1 0.999907
0.999908 1 1 0.999908
0.9999 1 1 0.9999
1 1 1 1
0.999993 1 1 0.999993
0.999949 1 1 0.999949
0.999949 1 1 0.999949
0.999914 1 1 0.999914
0.999879 1 1 0.999879
0.999893 1 1 0.999893
0.999874 1 1 0.999874
0.999911 1 1 0.999911
0.999893 1 1 0.999893
0.99988 1 1 0.99988
0.999994 1 1 0.999994
0.999955 1 1 0.999955
0.999995 1 1 0.999995
0.999995 1 1 0.999995
1 1 1 1
1 1 1 1
1 1 1 1
1 1 1 1
1 1 1 1
1 1 1 1
1 1 1 1
1 1 1 1
1 1 1 1
1 1 1 1
1 1 1 1
0.999935 1 1 0.999935
0.999925 1 1 0.999925
0.99989 1 1 0.99989
0.999884 1 1 0.999884
0.99992 1 1 0.99992
0.999988 1 1 0.999988
0.99992 1 1 0.99992
0.999887 1 1 0.999887
0.999885 1 1 0.999885
0.999872 1 1 0.999872
0.999894 1 1 0.999894
0.999876 1 1 0.999876
0.999886 1 1 0.999886
0.999877 1 1 0.999877
0.999871 1 1 0.999871
0.999866 1 1 0.999866
0.99988 1 1 0.99988
0.999878 1 1 0.999878
0.999913 1 1 0.999913
0.999924 1 1 0.999924
0.999879 1 1 0.999879
0.999883 1 1 0.999883
1 1 1 1
0.999987 1 1 0.999987
0.999935 1 1 0.999935
0.999906 1 1 0.999906
0.999868 1 1 0.999868
0.99989 1 1 0.99989
0.999894 1 1 0.999894
0.999887 1 1 0.999887
0.99999 1 1 0.99999
0.999939 1 1 0.999939
0.99999 1 1 0.99999
0.999884 1 1 0.999884
0.999876 1 1 0.999876
0.999859 1 1 0.999859
0.999859 1 1 0.999859
0.999989 1 1 0.999989
0.999942 1 1 0.999942
0.999904 1 1 0.999904
0.999885 1 1 0.999885
0.999869 1 1 0.999869
0.999881 1 1 0.999881
0.999886 1 1 0.999886
0.999894 1 1 0.999894
0.999945 1 1 0.999945
0.999913 1 1 0.999913
0.999992 1 1 0.999992
0.999937 1 1 0.999937
0.999866 1 1 0.999866
0.999854 1 1 0.999854
0.999848 1 1 0.999848
0.999856 1 1 0.999856
0.999882 1 1 0.999882
0.999874 1 1 0.999874
0.999945 1 1 0.999945
0.999896 1 1 0.999896
0.999911 1 1 0.999911
0.999883 1 1 0.999883
0.999875 1 1 0.999875
0.999898 1 1 0.999898
0.999993 1 1 0.999993
0.999937 1 1 0.999937
0.999916 1 1 0.999916
0.999907 1 1 0.999907
0.999899 1 1 0.999899
1 1 1 1
0.999896 1 1 0.999896
0.999993 1 1 0.999993
0.999992 1 1 0.999992
0.999949 1 1 0.999949
0.999917 1 1 0.999917
0.999881 1 1 0.999881
0.999947 1 1 0.999947
0.999908 1 1 0.999908
0.999909 1 1 0.999909
0.999904 1 1 0.999904
1 1 1 1
0.999993 1 1 0.999993
0.999949 1 1 0.999949
0.999949 1 1 0.999949
0.999913 1 1 0.999913
0.999879 1 1 0.999879
0.999893 1 1 0.999893
0.999873 1 1 0.999873
0.999911 1 1 0.999911
0.999894 1 1 0.999894
0.999882 1 1 0.999882
0.999994 1 1 0.999994
0.99995 1 1 0.99995
0.999912 1 1 0.999912
0.999913 1 1 0.999913
0.999897 1 1 0.999897
0.999878 1 1 0.999878
0.999882 1 1 0.999882
0.999886 1 1 0.999886
0.999884 1 1 0.999884
0.999867 1 1 0.999867
0.999994 1 1 0.999994
0.999946 1 1 0.999946
0.999952 1 1 0.999952
0.99992 1 1 0.99992
0.999956 1 1 0.999956
0.999996 1 1 0.999996
0.999996 1 1 0.999996
1 1 1 1
0.999995 1 1 0.999995
1 1 1 1
1 1 1 1
1 1 1 1
1 1 1 1
1 1 1 1
1 1 1 1
1 1 1 1
1 1 1 1
1 1 1 1
1 1 1 1
1 1 1 1
0.999893 1 1 0.999893
0.999885 1 1 0.999885
0.999876 1 1 0.999876
0.999872 1 1 0.999872
0.999886 1 1 0.999886
0.99992 1 1 0.99992
0.999886 1 1 0.999886
0.999878 1 1 0.999878
0.999871 1 1 0.999871
0.999865 1 1 0.999865
0.99988 1 1 0.99988
0.999878 1 1 0.999878
0.999876 1 1 0.999876
0.999876 1 1 0.999876
0.999866 1 1 0.999866
0.999859 1 1 0.999859
0.999883 1 1 0.999883
0.999882 1 1 0.999882
0.999882 1 1 0.999882
0.999876 1 1 0.999876
0.999857 1 1 0.999857
0.99986 1 1 0.99986
0.999989 1 1 0.999989
0.999942 1 1 0.999942
0.999907 1 1 0.999907
0.999886 1 1 0.999886
0.99987 1 1 0.99987
0.999886 1 1 0.999886
0.999878 1 1 0.999878
0.999896 1 1 0.999896
0.999945 1 1 0.999945
0.99991 1 1 0.99991
0.999992 1 1 0.999992
0.999937 1 1 0.999937
0.999866 1 1 0.999866
0.999854 1 1 0.999854
0.999846 1 1 0.999846
0.999856 1 1 0.999856
0.999945 1 1 0.999945
0.999913 1 1 0.999913
0.999883 1 1 0.999883
0.999882 1 1 0.999882
0.999877 1 1 0.999877
0.999874 1 1 0.999874
0.999896 1 1 0.999896
0.999902 1 1 0.999902
0.999916 1 1 0.999916
0.999897 1 1 0.999897
0.999907 1 1 0.999907
0.99999 1 1 0.99999
0.999937 1 1 0.999937
0.999858 1 1 0.999858
0.999841 1 1 0.999841
0.999863 1 1 0.999863
0.99989 1 1 0.99989
0.999918 1 1 0.999918
0.999911 1 1 0.999911
0.999893 1 1 0.999893
0.999863 1 1 0.999863
0.999871 1 1 0.999871
0.999987 1 1 0.999987
0.999947 1 1 0.999947
0.999904 1 1 0.999904
0.999901 1 1 0.999901
0.999883 1 1 0.999883
0.999886 1 1 0.999886
1 1 1 1
0.999993 1 1 0.999993
0.999878 1 1 0.999878
0.999949 1 1 0.999949
0.999949 1 1 0.999949
0.999912 1 1 0.999912
0.999893 1 1 0.999893
0.999872 1 1 0.999872
0.999912 1 1 0.999912
0.999884 1 1 0.999884
0.999895 1 1 0.999895
0.999994 1 1 0.999994
0.99995 1 1 0.99995
0.999914 1 1 0.999914
0.999912 1 1 0.999912
0.999895 1 1 0.999895
0.999877 1 1 0.999877
0.999881 1 1 0.999881
0.999887 1 1 0.999887
0.999882 1 1 0.999882
0.999865 1 1 0.999865
0.99995 1 1 0.99995
0.999906 1 1 0.999906
0.99989 1 1 0.99989
0.999888 1 1 0.999888
0.999883 1 1 0.999883
0.999906 1 1 0.999906
0.999869 1 1 0.999869
0.999884 1 1 0.999884
0.999866 1 1 0.999866
0.999841 1 1 0.999841
0.999995 1 1 0.999995
0.999949 1 1 0.999949
0.999908 1 1 0.999908
0.999949 1 1 0.999949
0.999956 1 1 0.999956
0.999916 1 1 0.999916
0.999891 1 1 0.999891
0.999912 1 1 0.999912
0.999957 1 1 0.999957
0.999996 1 1 0.999996
0.999996 1 1 0.999996
1 1 1 1
0.999996 1 1 0.999996
1 1 1 1
1 1 1 1
1 1 1 1
1 1 1 1
1 1 1 1
1 1 1 1
1 1 1 1
1 1 1 1
1 1 1 1
1 1 1 1
1 1 1 1
0.99988 1 1 0.99988
0.999871 1 1 0.999871
0.999877 1 1 0.999877
0.999863 1 1 0.999863
0.999878 1 1 0.999878
0.999886 1 1 0.999886
0.999876 1 1 0.999876
0.999876 1 1 0.999876
0.999865 1 1 0.999865
0.999855 1 1 0.999855
0.999883 1 1 0.999883
0.999882 1 1 0.999882
0.999882 1 1 0.999882
0.999871 1 1 0.999871
0.99986 1 1 0.99986
0.999904 1 1 0.999904
0.999867 1 1 0.999867
0.999855 1 1 0.999855
0.999844 1 1 0.999844
0.999857 1 1 0.999857
0.999945 1 1 0.999945
0.999915 1 1 0.999915
0.999882 1 1 0.999882
0.999881 1 1 0.999881
0.999879 1 1 0.999879
0.999896 1 1 0.999896
0.999873 1 1 0.999873
0.999906 1 1 0.999906
0.999916 1 1 0.999916
0.999895 1 1 0.999895
0.999906 1 1 0.999906
0.999986 1 1 0.999986
0.999938 1 1 0.999938
0.999855 1 1 0.999855
0.999843 1 1 0.999843
0.999864 1 1 0.999864
0.999918 1 1 0.999918
0.999896 1 1 0.999896
0.999863 1 1 0.999863
0.999888 1 1 0.999888
0.999876 1 1 0.999876
0.999911 1 1 0.999911
0.999988 1 1 0.999988
0.999901 1 1 0.999901
0.999887 1 1 0.999887
0.999885 1 1 0.999885
0.999905 1 1 0.999905
0.999944 1 1 0.999944
0.999851 1 1 0.999851
0.999841 1 1 0.999841
0.999878 1 1 0.999878
0.999909 1 1 0.999909
0.999901 1 1 0.999901
0.999892 1 1 0.999892
0.99987 1 1 0.99987
0.999849 1 1 0.999849
0.99999 1 1 0.99999
0.999949 1 1 0.999949
0.99991 1 1 0.99991
0.999872 1 1 0.999872
0.999885 1 1 0.999885
0.999871 1 1 0.999871
0.999994 1 1 0.999994
0.99995 1 1 0.99995
0.999877 1 1 0.999877
0.999912 1 1 0.999912
0.999916 1 1 0.999916
0.999893 1 1 0.999893
0.99988 1 1 0.99988
0.999889 1 1 0.999889
0.999881 1 1 0.999881
0.999862 1 1 0.999862
0.99995 1 1 0.99995
0.999908 1 1 0.999908
0.999893 1 1 0.999893
0.99989 1 1 0.99989
0.999884 1 1 0.999884
0.999908 1 1 0.999908
0.99987 1 1 0.99987
0.999892 1 1 0.999892
0.999864 1 1 0.999864
0.999838 1 1 0.999838
0.999906 1 1 0.999906
0.999878 1 1 0.999878
0.999872 1 1 0.999872
0.999872 1 1 0.999872
0.999912 1 1 0.999912
0.99991 1 1 0.99991
0.999844 1 1 0.999844
0.999829 1 1 0.999829
0.999952 1 1 0.999952
0.999911 1 1 0.999911
0.999886 1 1 0.999886
0.999956 1 1 0.999956
0.999911 1 1 0.999911
0.999957 1 1 0.999957
0.999888 1 1 0.999888
0.999914 1 1 0.999914
0.99987 1 1 0.99987
0.999885 1 1 0.999885
0.999913 1 1 0.999913
0.999957 1 1 0.999957
0.999996 1 1 0.999996
0.999996 1 1 0.999996
1 1 1 1
0.999996 1 1 0.999996
1 1 1 1
1 1 1 1
1 1 1 1
1 1 1 1
1 1 1 1
1 1 1 1
1 1 1 1
1 1 1 1
1 1 1 1
1 1 1 1
1 1 1 1
0.999883 1 1 0.999883
0.999865 1 1 0.999865
0.999883 1 1 0.999883
0.999851 1 1 0.999851
0.999876 1 1 0.999876
0.999876 1 1 0.999876
0.999878 1 1 0.999878
0.99987 1 1 0.99987
0.999863 1 1 0.999863
0.999902 1 1 0.999902
0.999876 1 1 0.999876
0.999869 1 1 0.999869
0.999887 1 1 0.999887
0.999852 1 1 0.999852
0.999845 1 1 0.999845
0.999865 1 1 0.999865
0.999918 1 1 0.999918
0.999898 1 1 0.999898
0.999862 1 1 0.999862
0.999886 1 1 0.999886
0.99991 1 1 0.99991
0.999881 1 1 0.999881
0.999901 1 1 0.999901
0.999888 1 1 0.999888
0.999886 1 1 0.999886
0.999988 1 1 0.999988
0.999907 1 1 0.999907
0.99994 1 1 0.99994
0.999856 1 1 0.999856
0.99984 1 1 0.99984
0.999876 1 1 0.999876
0.999901 1 1 0.999901
0.999872 1 1 0.999872
0.999852 1 1 0.999852
0.999912 1 1 0.999912
0.999892 1 1 0.999892
0.999993 1 1 0.999993
0.999949 1 1 0.999949
0.999885 1 1 0.999885
0.999871 1 1 0.999871
0.999874 1 1 0.999874
0.999907 1 1 0.999907
0.999863 1 1 0.999863
0.999845 1 1 0.999845
0.999913 1 1 0.999913
0.99992 1 1 0.99992
0.999882 1 1 0.999882
0.999852 1 1 0.999852
0.999853 1 1 0.999853
0.999998 1 1 0.999998
0.999965 1 1 0.999965
0.99995 1 1 0.99995
0.999904 1 1 0.999904
0.999874 1 1 0.999874
0.999856 1 1 0.999856
0.999875 1 1 0.999875
0.999859 1 1 0.999859
0.99995 1 1 0.99995
0.99991 1 1 0.99991
0.999909 1 1 0.999909
0.999892 1 1 0.999892
0.999896 1 1 0.999896
0.999885 1 1 0.999885
0.99987 1 1 0.99987
0.9999 1 1 0.9999
0.999862 1 1 0.999862
0.999835 1 1 0.999835
0.999905 1 1 0.999905
0.999881 1 1 0.999881
0.999874 1 1 0.999874
0.999874 1 1 0.999874
0.999911 1 1 0.999911
0.999908 1 1 0.999908
0.999847 1 1 0.999847
0.999828 1 1 0.999828
0.999883 1 1 0.999883
0.999897 1 1 0.999897
0.999862 1 1 0.999862
0.999852 1 1 0.999852
0.999931 1 1 0.999931
0.99984 1 1 0.99984
0.999823 1 1.00001 0.999814
0.999913 1 1 0.999913
0.999886 1 1 0.999886
0.999868 1 1 0.999868
0.999957 1 1 0.999957
0.999916 1 1 0.999916
0.999885 1 1 0.999885
0.999957 1 1 0.999957
0.999913 1 1 0.999913
0.999868 1 1 0.999868
0.999888 1 1 0.999888
0.999856 1 1 0.999856
0.999864 1 1 0.999864
0.999889 1 1 0.999889
0.999915 1 1 0.999915
0.999956 1 1 0.999956
0.999996 1 1 0.999996
0.999996 1 1 0.999996
1 1 1 1
0.999996 1 1 0.999996
1 1 1 1
1 1 1 1
1 1 1 1
1 1 1 1
1 1 1 1
0.999999 1 1 0.999999
1 1 1 1
1 1 1 1
1 1 1 1
1 1 1 1
1 1 1 1
1 1 1 1
0.9999 1 1 0.9999
0.999867 1 1 0.999867
0.999869 1 1 0.999869
0.999875 1 1 0.999875
0.99988 1 1 0.99988
0.999867 1 1 0.999867
0.999892 1 1 0.999892
0.999878 1 1 0.999878
0.999876 1 1 0.999876
0.999924 1 1 0.999924
0.99986 1 1 0.99986
0.999839 1 1 0.999839
0.999873 1 1 0.999873
0.9999 1 1 0.9999
0.999875 1 1 0.999875
0.999854 1 1 0.999854
0.999914 1 1 0.999914
0.999891 1 1 0.999891
0.999885 1 1 0.999885
0.999872 1 1 0.999872
0.999876 1 1 0.999876
0.999997 1 1 0.999997
0.999949 1 1 0.999949
0.999905 1 1 0.999905
0.99986 1 1 0.99986
0.999998 1 1 0.999998
0.999962 1 1 0.999962
0.999846 1 1 0.999846
0.999907 1 1 0.999907
0.999883 1 1 0.999883
0.999851 1 1 0.999851
0.999854 1 1 0.999854
0.999919 1 1 0.999919
0.999956 1 1 0.999956
0.999904 1 1 0.999904
0.999876 1 1 0.999876
0.999861 1 1 0.999861
0.999853 1 1 0.999853
0.999875 1 1 0.999875
0.99984 1 1 0.99984
0.999879 1 1 0.999879
0.999952 1 1 0.999952
0.99988 1 1 0.99988
0.999869 1 1 0.999869
0.999835 1 1 0.999835
0.999964 1 1 0.999964
0.999961 1 1 0.999961
0.999928 1 1 0.999928
0.999902 1 1 0.999902
0.999876 1 1 0.999876
0.999842 1 1 0.999842
0.999835 1 1 0.999835
0.999861 1 1 0.999861
0.999905 1 1 0.999905
0.999884 1 1 0.999884
0.999911 1 1 0.999911
0.999906 1 1 0.999906
0.999875 1 1 0.999875
0.999877 1 1 0.999877
0.99985 1 1 0.99985
0.999827 1 1 0.999827
0.999883 1 1 0.999883
0.99991 1 1 0.99991
0.999861 1 1 0.999861
0.999848 1 1 0.999848
0.999928 1 1 0.999928
0.999841 1 1 0.999841
0.99984 1 1.00003 0.999812
0.999862 1 1 0.999862
0.999931 1 1 0.999931
0.999848 1 1 0.999848
0.999876 1 1.00006 0.999819
0.999845 1 1 0.999845
1.00046 1 1.00067 0.999793
0.984465 1.00282 0.981895 0.9998
0.999886 1 1 0.999886
0.999868 1 1 0.999868
0.999855 1 1 0.999855
0.999957 1 1 0.999957
0.999913 1 1 0.999913
0.999892 1 1 0.999892
0.999865 1 1 0.999865
0.999956 1 1 0.999956
0.999913 1 1 0.999913
0.999855 1 1 0.999855
0.999889 1 1 0.999889
0.999866 1 1 0.999866
0.999847 1 1 0.999847
0.999867 1 1 0.999867
0.999889 1 1 0.999889
0.999907 1 1 0.999907
0.999948 1 1 0.999948
0.999918 1 1 0.999918
0.999949 1 1 0.999949
0.999996 1 1 0.999996
0.999996 1 1 0.999996
1 1 1 1
0.999996 1 1 0.999996
1 1 1 1
1 1 1 1
1 1 1 1
1 1 1 1
1 1 1 1
1 1 1 1
0.999999 1 1 0.999999
1 1 1 1
1 1 1 1
1 1 1 1
1 1 1 1
1 1 1 1
1 1 1 1
0.999897 1 1 0.999897
0.999865 1 1 0.999865
0.999883 1 1 0.999883
0.999879 1 1 0.999879
0.999876 1 1 0.999876
0.999937 1 1 0.999937
0.999881 1 1 0.999881
0.996113 1.00025 0.995896 0.999968
0.999709 1 0.99972 0.999989
0.999974 1 1 0.999974
0.999857 1 1 0.999857
0.999848 1 1 0.999848
0.9999 1 1 0.9999
0.999884 1 1 0.999884
0.999849 1 1 0.999849
0.999855 1 1 0.999855
0.999918 1 1 0.999918
0.999876 1 1 0.999876
0.999862 1 1 0.999862
0.999849 1 1 0.999849
0.999998 1 1 0.999998
0.999875 1 1 0.999875
0.999963 1 1 0.999963
0.999904 1 1 0.999904
0.999959 1 1 0.999959
0.999834 1 1 0.999834
0.999967 1 1 0.999967
0.999961 1 1 0.999961
0.999922 1 1 0.999922
0.99988 1 1 0.99988
0.999904 1 0.999961 0.999943
0.999869 1 1 0.999869
0.999835 1 1 0.999835
0.999881 1 1 0.999881
0.999905 1 1 0.999905
0.999875 1 1 0.999875
0.99986 1 1 0.99986
0.999839 1 1 0.999839
0.999844 1 1 0.999844
0.999866 1 1.00004 0.999821
0.997979 1 0.998035 0.999944
0.999911 1 1 0.999911
0.999841 1 1 0.999841
0.999854 1 1 0.999854
0.999923 1 1 0.999923
0.99991 1 1 0.99991
0.999893 1 1 0.999893
0.999869 1 1 0.999869
0.999851 1 1 0.999851
0.999822 1 1 0.999822
1.0008 1 1.00097 0.999831
0.999882 1 1 0.999882
0.999861 1 1 0.999861
0.999922 1 1 0.999922
0.999925 1 1 0.999925
0.999842 1 1 0.999842
0.999845 1 1 0.999845
0.99981 1 1 0.99981
0.999863 1 1 0.999863
0.999918 1 0.99998 0.999938
0.999847 1 1 0.999847
0.999823 1 1 0.999819
0.999855 1 1 0.999855
1.00089 1 1.0011 0.999791
0.988612 1.00518 0.983696 0.999817
0.999849 1 1 0.999849
0.999823 1 1 0.999823
0.999834 1 1 0.999834
1.00194 1 1.00215 0.999789
1.0006 1 1.00083 0.999773
0.96662 0.967216 1.00004 0.999344
0.988598 1.00218 0.986562 0.999885
0.984396 1.00756 0.977252 0.999749
0.974307 0.980586 0.993644 0.999953
0.979885 1.0027 0.977252 0.999998
0.999868 1 1 0.999868
0.999856 1 1 0.999856
0.999844 1 1 0.999844
0.999956 1 1 0.999956
0.999911 1 1 0.999911
0.999889 1 1 0.999889
0.999869 1 1 0.999869
0.999855 1 1 0.999855
0.999885 1 1 0.999885
0.999952 1 1 0.999952
0.99991 1 1 0.99991
0.999849 1 1 0.999849
0.999866 1 1 0.999866
0.999869 1 1 0.999869
0.999848 1 1 0.999848
0.999877 1 1 0.999877
0.999905 1 1 0.999905
0.999948 1 1 0.999948
0.999914 1 1 0.999914
0.999886 1 1 0.999886
0.99991 1 1 0.99991
0.999913 1 1 0.999913
0.999954 1 1 0.999954
0.999949 1 1 0.999949
0.999996 1 1 0.999996
0.999996 1 1 0.999996
1 1 1 1
0.999996 1 1 0.999996
1 1 1 1
1 1 1 1
1 1 1 1
1 1 1 1
1 1 1 1
1 1 1 1
1 1 1 1
1 1 1 1
0.999999 1 1 0.999999
1 1 1 1
1 1 1 1
1 1 1 1
1 1 1 1
1 1 1 1
0.999877 1 1 0.999877
0.999879 1 1 0.999879
0.99995 1 1 0.99995
0.995659 1 0.995689 0.999967
0.999881 1 1 0.999881
0.999843 1 0.999873 0.99997
0.999899 1 1.00004 0.999861
0.984034 0.987316 0.99692 0.999754
0.999739 1 0.999747 0.999992
0.999976 1 1 0.999976
0.999973 1 1 0.999973
0.999934 1 1 0.999934
0.999942 1 1 0.999942
0.999829 1 1 0.999829
0.999881 1 1 0.999881
0.999934 1 1 0.999934
0.99987 1 1 0.99987
0.999834 1 1 0.999834
0.999882 1 1 0.999882
0.99986 1 1 0.99986
0.999843 1 1 0.999843
0.999847 1 1 0.999847
0.999961 1 1 0.999961
0.999874 1 1 0.999874
0.999909 1 1 0.999909
0.99997 1 1 0.99997
0.999917 1 1 0.999917
0.999861 1 1.00003 0.999826
0.999929 1 1 0.999929
0.999913 1 1 0.999913
0.999895 1 1 0.999895
0.998846 1 0.998903 0.999942
0.999911 1 1 0.999911
0.999853 1 1 0.999853
0.999843 1 1 0.999843
0.99987 1 1 0.99987
0.999853 1 1 0.999853
1.00028 1 1.00045 0.999831
0.999823 1 1 0.999823
0.999905 1 1.00003 0.999875
0.998203 1 0.998252 0.999951
0.999836 1 1 0.999836
0.999836 1 1 0.999836
0.999884 1 1 0.999884
0.999875 1 1 0.999875
0.999831 1 1 0.999831
1.00124 1 1.00144 0.999797
0.966273 0.968761 0.998058 0.999372
0.999865 1 1 0.999865
0.999846 1 1 0.999846
0.99992 1 0.999976 0.999945
0.999864 1 1 0.999864
1.0014 1 1.00161 0.999789
0.999818 1 1 0.999818
0.993142 1.00757 0.985851 0.999833
0.99985 1 1 0.99985
0.999825 1 1 0.999825
0.999835 1 1 0.999835
1.00164 1 1.00185 0.99979
1.00032 1 1.00054 0.999782
0.967701 0.967258 1.00105 0.999412
0.985614 0.999602 0.986318 0.999685
0.986804 1.00929 0.977968 0.999748
0.975744 0.981929 0.993848 0.999851
0.980913 1.00202 0.978932 0.999999
0.999845 1 1 0.999845
0.977076 0.979546 0.997714 0.999764
0.993729 1.00214 0.99161 0.999997
0.999756 1 1 0.999756
1.00125 1 1.00143 0.999822
1.00694 1 1.00718 0.999764
1.00054 1.00918 0.991723 0.999706
0.978827 0.974904 1.00478 0.999248
0.987148 1.00729 0.980333 0.999659
0.971088 0.984666 0.986262 0.999947
0.991161 1.00317 0.988031 0.999997
0.999856 1 1 0.999856
0.999844 1 1 0.999844
0.999836 1 1 0.999836
0.999955 1 1 0.999955
0.999912 1 1 0.999912
0.999882 1 1 0.999882
0.999865 1 1 0.999865
0.999851 1 1 0.999851
0.999948 1 1 0.999948
0.999868 1 1 0.999868
0.999881 1 1 0.999881
0.999908 1 1 0.999908
0.999846 1 1 0.999846
0.999856 1 1 0.999856
0.999836 1 1 0.999836
0.999875 1 1 0.999875
0.999912 1 1 0.999912
0.999914 1 1 0.999914
0.999883 1 1 0.999883
0.999881 1 1 0.999881
0.99988 1 1 0.99988
0.999864 1 1 0.999864
0.999874 1 1 0.999874
0.999907 1 1 0.999907
0.99991 1 1 0.99991
0.999952 1 1 0.999952
0.999908 1 1 0.999908
0.999951 1 1 0.999951
0.999996 1 1 0.999996
0.999949 1 1 0.999949
0.999996 1 1 0.999996
1 1 1 1
0.999996 1 1 0.999996
1 1 1 1
1 1 1 1
1 1 1 1
1 1 1 1
1 1 1 1
0.999976 1 1 0.999976
1 1 1 1
1 1 1 1
1 1 1 1
1 1 1 1
1 1 1 1
1 1 1 1
1 1 1 1
1 1 1 1
1 1 1 1
0.995129 1 0.995164 0.999965
0.999881 1 1 0.999881
0.999951 1 1 0.999951
0.985535 0.987612 0.998029 0.999867
0.99988 1 0.99989 0.999989
0.999883 1 1.00003 0.99985
1.00144 1 1.00159 0.999845
0.992115 0.990731 1.00163 0.99977
0.970322 0.971023 1.00011 0.999165
0.973925 0.980687 0.993364 0.999739
0.986424 1.00125 0.985193 0.999997
0.999934 1 1 0.999934
0.999976 1 1 0.999976
0.999973 1 1 0.999973
0.999932 1 1 0.999932
0.999907 1 1 0.999907
0.999916 1 1 0.999916
0.999938 1 1 0.999938
0.99994 1 1 0.99994
0.999857 1 1.00003 0.999831
0.999547 1 0.999607 0.999941
0.999834 1 0.999923 0.999912
0.999853 1 1 0.999853
0.999845 1 1 0.999845
0.999831 1 1 0.999831
0.999824 1 1 0.999824
0.999855 1 1 0.999855
0.999917 1 1 0.999917
0.999871 1 1 0.999871
0.999934 1 1 0.999934
0.999897 1 1 0.999897
0.999383 1 0.99951 0.999872
0.999886 1 1 0.999886
0.999877 1 1 0.999877
0.997806 1 0.997856 0.999949
0.999841 1 1 0.999841
1.00017 1 1.00035 0.999829
0.999831 1 1 0.999831
1.00112 1 1.00132 0.999798
0.987815 1.00161 0.986308 0.999913
1.00191 1 1.00206 0.999858
0.99981 1 1 0.99981
1.00322 1 1.00343 0.999786
0.999859 1 1 0.999859
0.999844 1 1 0.999844
1.00031 1 1.00051 0.999797
0.974778 0.980813 0.993909 0.999938
0.969235 0.969943 0.99988 0.999391
0.999851 1 1 0.999851
0.999835 1 1 0.999835
0.999827 1 1 0.999827
1.00002 1 1.00023 0.999791
1.00124 1 1.00145 0.99979
0.967752 0.968718 0.999863 0.99914
0.988604 0.999207 0.989468 0.999921
0.989537 1.01119 0.978839 0.999747
0.973349 0.981572 0.991877 0.999743
0.981686 1.00119 0.980516 1
0.999845 1 1 0.999845
0.975516 0.980324 0.995156 0.999939
0.993951 1.00213 0.991836 0.999998
0.999755 1 1 0.999755
1.00052 1 1.0007 0.999824
1.00616 1 1.00639 0.999773
0.99863 1.00688 0.992104 0.999699
0.97727 0.975184 1.00302 0.999124
0.980965 1.00284 0.978272 0.999908
0.971412 0.984822 0.98666 0.99972
0.987338 1.00343 0.983966 0.999998
0.999837 1 1 0.999837
0.999935 1.00101 0.998927 0.999996
0.999491 1.00084 0.998653 0.999999
1.00933 1 1.00958 0.99975
1.00505 1 1.00523 0.999828
1.00419 1.00332 1.00103 0.999838
0.991522 1.00194 0.989656 0.999945
0.981452 0.978436 1.00391 0.999176
0.978489 0.993454 0.985245 0.999687
0.99866 1.00288 0.995798 0.999996
0.999845 1 1 0.999845
0.999835 1 1 0.999835
1.00006 1 1.00023 0.99983
0.999948 1 1 0.999948
0.999911 1 1 0.999911
0.999885 1 1 0.999885
0.999867 1 1 0.999867
0.999844 1 1 0.999844
0.999912 1 1 0.999912
0.999859 1 1 0.999859
0.999876 1 1 0.999876
0.999878 1 1.00004 0.999834
0.999958 1 1.00014 0.999823
0.999847 1 1 0.999847
0.999878 1 1 0.999878
0.999914 1 1 0.999914
0.999879 1 1 0.999879
0.999881 1 1 0.999881
0.99988 1 1 0.99988
0.999865 1 1 0.999865
0.999875 1 1 0.999875
0.999858 1 1 0.999858
0.999854 1 1 0.999854
0.999864 1 1 0.999864
0.999883 1 1 0.999883
0.999881 1 1 0.999881
0.999875 1 1 0.999875
0.999905 1 1 0.999905
0.999906 1 1 0.999906
0.99995 1 1 0.99995
0.99991 1 1 0.99991
0.999952 1 1 0.999952
0.999995 1 1 0.999995
0.999948 1 1 0.999948
0.999995 1 1 0.999995
1 1 1 1
0.999996 1 1 0.999996
1 1 1 1
1 1 1 1
1 1 1 1
1 1 1 1
1 1 1 1
0.999978 1 1 0.999978
1 1 1 1
0.999976 1 1 0.999976
1 1 1 1
1 1 1 1
1 1 1 1
1 1 1 1
1 1 1 1
1 1 1 1
1 1 1 1
1 1 1 1
0.975769 0.979778 0.99596 0.999949
0.996945 1.00147 0.995481 0.999998
0.987112 0.987821 0.999328 0.999954
0.99997 1 0.999984 0.999986
0.999867 1 1.00003 0.999838
0.991547 0.989625 1.00196 0.999987
1.00065 1 1.0008 0.999851
0.973601 0.972915 1.00136 0.99935
0.974476 0.980132 0.994279 0.99995
0.986266 1.00131 0.98498 0.999998
1.00079 0.996073 1.00483 0.999913
0.97908 0.977147 1.00269 0.999288
0.972135 0.984117 0.987878 0.999946
0.988244 1.00325 0.985044 0.999995
0.999898 1 1 0.999898
0.999937 1 1 0.999937
0.999976 1 1 0.999976
0.999931 1 1 0.999931
0.99991 1 1 0.99991
0.999906 1 1 0.999906
0.999918 1 1 0.999918
0.999926 1 1 0.999926
0.999934 1 1 0.999934
0.999937 1 1 0.999937
0.998937 1 0.999067 0.99987
0.997662 1 0.997714 0.999948
0.999845 1 1 0.999845
1.00046 1 1.00064 0.999822
1.0009 1 1.0011 0.9998
0.999832 1 1 0.999832
0.999879 1 1 0.999879
0.999887 1 1 0.999887
0.990499 1.00071 0.989891 0.999904
0.999857 1 1 0.999857
0.999841 1 1 0.999841
1.00033 1 1.00047 0.999863
0.999809 1 1 0.999806
1.00239 1 1.00261 0.999781
1.0007 1 1.0009 0.999794
0.980808 1.00756 0.973599 0.999849
1.00665 1 1.00687 0.999787
1.0036 1 1.00384 0.999763
0.999857 1 1 0.999857
0.999835 1 1 0.999835
0.999811 1 1 0.999811
0.997907 0.999961 0.997954 0.999992
0.975718 0.980085 0.995775 0.999769
0.96724 0.969692 0.998115 0.999355
0.999844 1 1 0.999844
0.999825 1 1 0.999825
0.999754 1 1 0.999754
1.00549 1 1.00571 0.999782
0.974733 0.980683 0.994176 0.999755
0.974669 0.974287 1.00092 0.999475
0.981566 1.0042 0.977761 0.999688
0.99752 1.00479 0.993072 0.999692
0.971545 0.983973 0.987421 0.999949
0.993796 1.00231 0.991504 0.999997
0.986533 1.00383 0.982776 0.999997
0.999836 1 1 0.999836
0.999225 1.00104 0.998194 0.999995
0.99974 1.00115 0.998597 0.999999
1.00965 1 1.0099 0.999749
1.00513 1 1.0053 0.999828
1.00716 1.00284 1.00461 0.999701
0.988516 1.00198 0.986883 0.999674
0.981203 0.979639 1.00243 0.999173
0.982226 0.992328 0.989883 0.999937
0.995412 1.00203 0.993403 0.999993
0.999845 1 1 0.999845
0.999774 0.999782 0.999992 1
0.999258 0.999118 1.00014 1
1.00668 1 1.00678 0.999894
0.999187 0.996544 1.00269 0.999959
0.990081 0.985892 1.00501 0.999239
0.983761 1.00189 0.981994 0.999913
0.998862 0.999884 0.998993 0.999985
0.999835 1 1 0.999835
0.999988 1 1.00016 0.999831
1.00038 1 1.00056 0.999824
0.999912 1 1 0.999912
0.999876 1 1 0.999876
0.999861 1 1 0.999861
0.999923 1 1.00009 0.999832
0.999877 1 1 0.999877
0.999847 1 1 0.999847
1.00011 1 1.00029 0.999822
1.00015 1 1.00033 0.999828
0.99988 1 1.00006 0.999822
0.999852 1 1 0.999852
0.999881 1 1 0.999881
0.999879 1 1 0.999879
0.999865 1 1 0.999865
0.999859 1 1 0.999859
0.999875 1 1 0.999875
0.999855 1 1 0.999855
0.999852 1 1 0.999852
0.999844 1 1 0.999844
0.999853 1 1 0.999853
0.999863 1 1 0.999863
0.99987 1 1 0.99987
0.999877 1 1 0.999877
0.999902 1 1 0.999902
0.999888 1 1 0.999888
0.999884 1 1 0.999884
0.999905 1 1 0.999905
0.999875 1 1 0.999875
0.999905 1 1 0.999905
0.999948 1 1 0.999948
0.999906 1 1 0.999906
0.99995 1 1 0.99995
0.999994 1 1 0.999994
0.999952 1 1 0.999952
0.999995 1 1 0.999995
1 1 1 1
0.999995 1 1 0.999995
1 1 1 1
1 1 1 1
1 1 1 1
1 1 1 1
1 1 1 1
0.999967 1 1 0.999967
1 1 1 1
0.999973 1 1 0.999973
1 1 1 1
1 1 1 1
0.999976 1 1 0.999976
1 1 1 1
1 1 1 1
1 1 1 1
1 1 1 1
1 1 1 1
1 1 1 1
0.999516 1.00038 0.999135 0.999998
0.974612 0.978666 0.996001 0.999857
1.00013 1.00127 0.998855 0.999999
0.996542 1.00125 0.995303 0.999998
0.988435 0.988114 1.00054 0.999787
0.999899 1 1.00004 0.999857
0.973782 0.972486 1.00178 0.99955
0.973782 0.980156 0.993747 0.999748
0.986233 1.00123 0.985025 0.999999
0.997603 0.997264 1.00049 0.99985
0.978085 0.974808 1.00412 0.999246
0.973286 0.984636 0.988752 0.999718
0.987963 1.00345 0.984569 0.999997
0.996338 1.00383 0.992615 0.999919
0.981345 0.977672 1.00461 0.999151
0.980535 0.992782 0.987728 0.999936
0.998412 1.00211 0.996317 0.999996
0.999879 1 1 0.999879
0.999902 1 1 0.999902
0.99994 1 1 0.99994
0.999913 1 1 0.999913
0.999889 1 1 0.999889
0.999909 1 1 0.999909
0.999919 1 1 0.999919
0.999922 1 1 0.999922
0.999929 1 1 0.999929
0.999931 1 1 0.999931
0.993392 1 0.993497 0.999894
0.99876 1 0.998891 0.999869
0.999802 1 1 0.999802
1.0018 1 1.00203 0.999776
1.00114 1 1.00135 0.99979
0.999837 1 1 0.999837
0.999856 1 1 0.999856
0.999857 1 1 0.999857
0.983064 1.00505 0.978273 0.999845
0.999837 1 1 0.999837
0.9999 1 1.00009 0.999809
1.00625 1 1.00646 0.999788
1.00349 1 1.00372 0.999763
0.986719 1.00814 0.978946 0.999801
1.01434 1 1.01456 0.999777
1.00054 1 1.00076 0.999775
0.999839 1 1 0.999839
0.999812 1 1 0.999812
0.999065 0.999064 1 1
0.998769 0.999982 0.998793 0.999995
0.976033 0.980813 0.995183 0.999943
0.999836 1 1 0.999836
1.00506 1 1.00524 0.999827
1.00981 1 1.01006 0.999749
1.00003 1.00109 0.998947 0.999997
0.981367 0.978447 1.00385 0.999133
0.985205 1.0017 0.983587 0.999945
1.00807 1.00173 1.00677 0.999561
0.975014 0.989353 0.9858 0.999703
0.999991 1.00146 0.998531 0.999999
0.996762 1.00131 0.995467 0.999991
0.999847 1 1 0.999847
0.99947 0.999471 0.999997 1
0.999085 0.998815 1.00027 1
1.00699 0.999985 1.00716 0.999851
0.998977 0.997547 1.00155 0.999884
0.993236 0.989014 1.00511 0.999167
1.00067 1.00095 0.999725 0.999989
0.989158 0.998596 0.990708 0.999839
0.999858 1 1 0.999858
0.999695 0.9996 1.00009 1
0.998531 0.997721 1.00081 1
0.997108 1.00209 0.995035 0.999997
1.0027 0.99838 1.00439 0.99994
0.992497 0.986681 1.00653 0.999371
0.985068 1.00183 0.983405 0.999858
0.999913 1 1.00008 0.999832
1.00029 1 1.00047 0.999823
1.00218 1 1.00235 0.999831
0.999877 1 1 0.999877
0.999847 1 1 0.999847
1.00035 1 1.00053 0.999822
0.999853 1 1 0.999853
0.99994 1 1.00012 0.999822
1.0003 1 1.00048 0.999826
1.00009 1 1.00027 0.999827
0.99983 1 1 0.99983
0.999861 1 1 0.999861
0.999875 1 1 0.999875
0.999857 1 1 0.999857
0.999844 1 1 0.999844
0.999851 1 1 0.999851
0.999839 1 1 0.999839
0.999861 1 1 0.999861
0.999837 1 1 0.999837
0.999863 1 1 0.999863
0.99987 1 1 0.99987
0.999854 1 1 0.999854
0.999882 1 1 0.999882
0.999904 1 1 0.999904
0.999877 1 1 0.999877
0.999917 1 1 0.999917
0.9999 1 1 0.9999
0.999893 1 1 0.999893
0.999886 1 1 0.999886
0.999907 1 1 0.999907
0.999948 1 1 0.999948
0.999905 1 1 0.999905
0.999948 1 1 0.999948
0.999994 1 1 0.999994
0.99995 1 1 0.99995
0.999994 1 1 0.999994
1 1 1 1
0.999995 1 1 0.999995
1 1 1 1
1 1 1 1
1 1 1 1
1 1 1 1
1 1 1 1
0.999955 1 1 0.999955
0.999994 1 1 0.999994
0.999967 1 1 0.999967
1 1 1 1
0.999998 1 1 0.999998
0.999968 1 1 0.999968
1 1 1 1
1 1 1 1
1 1 1 1
1 1 1 1
1 1 1 1
1 1 1 1
0.999995 0.999934 1.00006 1
0.998032 1.00029 0.997746 0.999993
0.97638 0.979073 0.997472 0.999777
0.999909 1 1 0.999909
0.999527 0.999204 1.00032 1
1.00035 1.00111 0.999248 0.999999
0.995064 1.00121 0.993867 0.999995
0.994588 0.998041 0.99677 0.999769
0.9797 0.974405 1.0062 0.999237
0.974431 0.984333 0.989993 0.999947
0.991157 1.00398 0.987234 0.999994
0.993743 1.006 0.988114 0.9997
0.983407 0.979631 1.00467 0.999186
0.979627 0.992243 0.987468 0.999815
0.997383 1.00305 0.994354 0.999993
0.980005 1.00167 0.978676 0.999686
0.988089 0.984589 1.00459 0.998964
0.991308 0.996958 0.994611 0.99972
0.999737 1.00034 0.999415 0.99998
0.999859 1 1 0.999859
0.999876 1 1 0.999876
0.999906 1 1 0.999906
0.999883 1 1 0.999883
0.999892 1 1 0.999892
0.999911 1 1 0.999911
0.999923 1 1 0.999923
0.999932 1 1 0.999932
0.985282 1.0025 0.982986 0.99984
1.00569 1 1.0059 0.999789
0.999857 1 1 0.999857
1.00328 1 1.00352 0.999763
0.999974 1 1.00017 0.999807
0.999839 1 1 0.999839
0.999839 1 1 0.999839
0.986687 1.0071 0.979928 0.999797
0.999811 1 1 0.999811
1.00124 1 1.00147 0.999775
1.01473 1 1.01495 0.999777
0.999834 1 1 0.999834
1.00264 1.00224 1.00058 0.999818
1.01107 1 1.01129 0.999787
0.999792 1 1 0.999792
0.999813 1 1 0.999813
0.999477 0.999473 1 1
0.999246 0.999244 1 1
0.99945 1 0.999447 0.999997
0.99985 1 1 0.99985
1.00764 0.999979 1.00785 0.999808
0.999161 0.999162 0.999998 1
0.989889 0.983528 1.00733 0.999148
1.00109 1.0005 1.00089 0.999701
0.985269 0.996289 0.989161 0.999776
0.998912 0.998451 1.00046 1
1.00252 1.002 1.00052 0.999994
0.999859 1 1 0.999859
0.999667 0.999554 1.00011 1
0.998878 0.998122 1.00075 1
1.00029 0.997403 1.00294 0.999957
0.996549 1.00293 0.993639 0.999994
0.991624 0.990437 1.00176 0.999438
0.983835 0.997384 0.986681 0.999731
1.00178 0.999826 1.00208 0.999877
1.00003 0.999944 1.00008 1
0.999525 0.999109 1.00042 1
0.987888 1.0032 0.984742 0.999997
0.987197 0.993331 0.994088 0.999735
0.999211 0.994804 1.00438 1.00005
0.98588 0.987037 0.999383 0.999444
1.00018 1 1.00036 0.999821
1.00155 1 1.00172 0.999828
1.00844 1 1.00862 0.999827
0.999854 1 1 0.999854
0.999937 1 1.00012 0.999821
1.00032 1 1.0005 0.999823
0.999831 1 1 0.999831
1.00011 1 1.00029 0.999828
1.0025 1 1.00268 0.999815
0.999845 1 1 0.999845
0.999851 1 1 0.999851
1 1 1.00017 0.999838
1.00071 1 1.00089 0.999819
0.999868 1 1 0.999868
0.99984 1 1 0.99984
0.999825 1 1 0.999825
0.999854 1 1 0.999854
0.99987 1 1 0.99987
0.999852 1 1 0.999852
0.999892 1 1 0.999892
0.999903 1 1 0.999903
0.999885 1 1 0.999885
0.999923 1 1 0.999923
0.999904 1 1 0.999904
0.999877 1 1 0.999877
0.999952 1 1 0.999952
0.999916 1 1 0.999916
0.999898 1 1 0.999898
0.999909 1 1 0.999909
0.999949 1 1 0.999949
0.999993 1 1 0.999993
0.999948 1 1 0.999948
0.999994 1 1 0.999994
1 1 1 1
0.999994 1 1 0.999994
1 1 1 1
1 1 1 1
1 1 1 1
1 1 1 1
1 1 1 1
0.999948 1 1 0.999948
0.999992 1 1 0.999992
0.999957 1 1 0.999957
1 1 1 1
0.999994 1 1 0.999994
0.999967 1 1 0.999967
1 1 1 1
1 1 1 1
0.999995 1 1 0.999995
1 1 1 1
1 1 1 1
1 1 1 1
0.999609 0.999601 1.00001 1
0.999887 0.99984 1.00005 1
0.998117 1.00027 0.997853 0.999992
0.999911 1 1 0.999911
0.999904 1 1 0.999904
0.999885 1 1 0.999885
0.998452 0.997843 1.00061 1
0.9993 0.998921 1.00038 1
1.0007 1.00093 0.999775 0.999999
0.996259 1.0093 0.987161 0.999913
0.982203 0.978209 1.00491 0.999181
0.97901 0.992913 0.986299 0.999696
1.0004 1.00356 0.996864 0.999993
0.979306 1.00061 0.978798 0.999913
0.992191 0.986599 1.00647 0.999208
0.994493 1.00262 0.992002 0.999887
1.00107 1.0012 0.999885 0.999986
0.980926 0.997089 0.983831 0.999958
0.989333 0.988039 1.00203 0.99928
0.987138 1.00271 0.98465 0.99982
0.999432 1.00285 0.996597 0.999995
0.999854 1 1 0.999854
0.999859 1 1 0.999859
0.999874 1 1 0.999874
0.999883 1 1 0.999883
0.999896 1 1 0.999896
0.999924 1 1 0.999924
0.986441 1.00585 0.980909 0.999793
1.01504 1 1.01527 0.999777
0.999839 1 1 0.999839
1.00186 1 1.00209 0.999774
0.99981 1 1 0.99981
0.999833 1 1 0.999833
0.999811 1 1 0.999811
0.999073 1.00295 0.996317 0.999811
0.999792 1 1 0.999792
1.0114 1 1.01161 0.999784
0.999809 1 1 0.999809
1.01676 1 1.01692 0.999843
1.00023 1 1.00044 0.999795
0.999791 1 1 0.999791
1.00016 1.00019 0.99997 1
0.999661 0.999661 0.999999 1
0.999429 0.999427 1 1
0.99986 1 1 0.99986
1.00103 0.996495 1.00458 0.999978
0.999637 0.999511 1.00013 1
0.994379 0.992741 1.00197 0.999682
0.983647 1.00263 0.981188 0.999876
0.999185 0.998547 1.00064 1
0.999866 1.00363 0.996258 0.999994
1.00105 0.99985 1.00132 0.999881
1.00007 1.00004 1.00003 1
0.999268 0.998802 1.00047 1
1.00072 0.99531 1.00553 0.999909
0.987725 1.00348 0.984307 0.999997
0.990009 0.999828 0.990271 0.999908
0.980239 0.985699 0.995032 0.999426
1.00625 1 1.00632 0.999933
0.999563 0.999561 1 1
1.00009 1.00147 0.998623 0.999999
0.985528 1.00125 0.984297 0.999998
0.978498 0.990061 0.988377 0.999942
0.994463 0.987809 1.00742 0.999323
0.989804 0.992983 0.996912 0.999887
1.00093 1 1.0011 0.999825
1.00895 1 1.00913 0.999827
1.01446 1 1.01465 0.999815
0.999831 1 1 0.999831
1.00016 1 1.00033 0.999828
1.00211 1 1.00229 0.999815
1.00721 1 1.00743 0.999784
1.00014 1 1.0003 0.999836
1.00108 1 1.00126 0.999815
1.00167 1 1.00187 0.999793
0.999843 1 1 0.999843
0.999824 1 1 0.999824
0.99982 1 1 0.99982
0.999844 1 1 0.999844
0.999877 1 1 0.999877
0.999851 1 1 0.999851
0.999851 1 1 0.999851
0.999907 1 1 0.999907
0.999894 1 1 0.999894
0.999921 1 1 0.999921
0.999906 1 1 0.999906
0.999888 1 1 0.999888
0.999956 1 1 0.999956
0.999923 1 1 0.999923
0.999904 1 1 0.999904
0.999994 1 1 0.999994
0.999952 1 1 0.999952
0.999914 1 1 0.999914
0.999949 1 1 0.999949
0.999994 1 1 0.999994
1 1 1 1
0.999994 1 1 0.999994
1 1 1 1
1 1 1 1
1 1 1 1
1 1 1 1
1 1 1 1
0.999951 1 1 0.999951
0.999996 1 1 0.999996
0.999951 1 1 0.999951
1 1 1 1
0.999995 1 1 0.999995
0.999959 1 1 0.999959
1 1 1 1
1 1 1 1
0.999994 1 1 0.999994
1 1 1 1
1 1 1 1
1 1 1 1
1.00005 0.999968 1.00008 1
0.999593 0.999574 1.00002 1
0.999767 0.999741 1.00003 1
0.999908 1 1 0.999908
0.999898 1 1 0.999898
0.999913 1 1 0.999913
0.999905 1 1 0.999905
0.999882 1 1 0.999882
0.999883 1 1 0.999883
0.999866 1 1 0.999866
0.999219 0.999116 1.0001 1
0.998826 0.998276 1.00055 1
0.999081 0.998637 1.00044 1
1.00244 1.00209 1.00035 0.999992
0.98505 1.00642 0.979098 0.999664
0.992837 0.986578 1.00693 0.999421
0.98212 0.999933 0.982496 0.999684
0.984038 0.996416 0.987754 0.999821
0.992788 0.991993 1.00149 0.999309
0.988393 1.00023 0.988475 0.999686
0.996704 1.00252 0.994206 0.999989
0.995849 0.994798 1.00109 0.999962
0.988273 0.9919 0.997005 0.999336
0.987376 1.00359 0.983956 0.999883
0.993158 1.00271 0.990477 0.999996
0.999845 1 1 0.999845
0.999853 1 1 0.999853
0.999859 1 1 0.999859
0.999882 1 1 0.999882
0.994569 1.00365 0.99114 0.999805
1.01188 1 1.0121 0.999781
0.999831 1 1 0.999831
0.999809 1 1 0.999809
0.999792 1 1 0.999792
0.999813 1 1 0.999813
0.99979 1 1 0.99979
1.00961 0.999006 1.01077 0.99985
1.00024 1 1.00044 0.999799
0.99979 1 1 0.99979
1.02035 0.996996 1.02352 0.999907
1.00336 1 1.00361 0.999754
0.999481 0.99948 1 1
1.00014 1.00017 0.999973 1
0.999843 0.999849 0.999994 1
1.00049 1 1.00061 0.999885
1.0004 0.994804 1.00559 1.00004
1.00012 1.00013 0.999991 1
0.98622 0.986187 1.00062 0.999414
0.978662 0.997959 0.980957 0.999701
0.999028 0.99849 1.00054 1
0.990533 1.00404 0.986546 0.999996
1.00698 1 1.00706 0.999926
0.999548 0.999537 1.00001 1
1.00049 1.00129 0.999204 0.999999
0.995105 0.995384 0.99966 1.00006
0.985352 1.00117 0.984197 0.999998
0.976813 0.989195 0.98766 0.999821
0.992924 0.987122 1.00649 0.999395
1.00013 1 1.00019 0.999941
1.00007 0.99998 1.00009 1
0.996407 1.00168 0.994742 0.999998
0.970588 0.982275 0.988154 0.999948
0.987107 0.981054 1.00698 0.999199
0.982469 0.998017 0.984658 0.99976
1.00957 1 1.00974 0.999827
1.0147 1 1.01489 0.999814
1.01675 1 1.01697 0.999784
1.00176 1 1.00195 0.999816
1.00707 1 1.00728 0.999788
1.00607 1 1.00632 0.999757
1.00154 1 1.00173 0.999811
1.00183 1 1.00204 0.999788
1.00095 1 1.00116 0.999787
0.999823 1 1 0.999823
0.999817 1 1 0.999817
0.999827 1 1 0.999827
0.999851 1 1 0.999851
0.999865 1 1 0.999865
0.999842 1 1 0.999842
0.999897 1 1 0.999897
0.99988 1 1 0.99988
0.999848 1 1 0.999848
0.99992 1 1 0.99992
0.999905 1 1 0.999905
0.999896 1 1 0.999896
0.999955 1 1 0.999955
0.999923 1 1 0.999923
0.999909 1 1 0.999909
0.999995 1 1 0.999995
0.999956 1 1 0.999956
0.999923 1 1 0.999923
1 1 1 1
0.999994 1 1 0.999994
0.999952 1 1 0.999952
0.999994 1 1 0.999994
1 1 1 1
1 1 1 1
1 1 1 1
1 1 1 1
1 1 1 1
0.999914 1 1 0.999914
0.99995 1 1 0.99995
0.999994 1 1 0.999994
0.999951 1 1 0.999951
1 1 1 1
0.999996 1 1 0.999996
0.999953 1 1 0.999953
1 1 1 1
1 1 1 1
0.999998 1 1 0.999998
1 1 1 1
1 1 1 1
1 1 1 1
0.999694 0.999658 1.00004 1
1.00009 1.00005 1.00004 1
0.999573 0.999548 1.00002 1
0.99991 1 1 0.99991
0.999896 1 1 0.999896
0.999898 1 1 0.999898
0.99989 1 1 0.99989
0.999887 1 1 0.999887
0.999905 1 1 0.999905
0.999879 1 1 0.999879
0.999883 1 1 0.999883
0.999867 1 1 0.999867
0.99987 1 1 0.99987
0.999961 1.00043 0.999537 0.999999
0.999018 0.998831 1.00019 1
0.99918 0.998683 1.0005 1
0.997927 1.00164 0.996308 0.999987
0.986373 1.00322 0.983357 0.999844
0.989006 0.996471 0.992793 0.999714
0.98935 0.988073 1.00194 0.999355
0.999976 0.993979 1.00625 0.999788
0.981023 0.989184 0.99241 0.999335
0.993008 1.0006 0.992607 0.999802
0.990188 1.00309 0.987138 0.999997
1.01887 0.991413 1.02787 0.999822
0.99181 0.988599 1.00392 0.999328
0.979903 0.993903 0.986212 0.999698
0.986216 1.00195 0.984297 0.999999
0.999861 1 1 0.999861
0.999847 1 1 0.999847
0.999853 1 1 0.999853
1.00338 0.998014 1.00552 0.999857
1.00021 1 1.00041 0.999803
0.999817 1 1 0.999817
0.999789 1 1 0.999789
0.999824 1 1.00003 0.999791
1.0039 1 1.00414 0.999753
1.02032 0.997973 1.02249 0.999906
1.00275 1 1.00297 0.999775
1.01065 0.999195 1.01164 0.99983
0.999097 0.999095 1 1
0.999665 0.999667 0.999998 1
1.00012 1.00014 0.999977 1
1.00769 1 1.00777 0.999919
0.997046 0.995242 1.00194 0.999877
0.99953 0.999514 1.00002 1
0.98868 0.983605 1.006 0.99917
0.977779 0.990477 0.987478 0.999698
1.00089 1.0011 0.999796 0.999999
0.985554 1.00112 0.984451 0.999999
1.00076 1 1.00082 0.99994
0.99993 0.999864 1.00007 1
0.99616 1.00146 0.994711 0.999998
0.979457 0.995208 0.984282 0.99989
0.972299 0.983308 0.989084 0.999718
0.990419 0.9834 1.00811 0.999036
0.985942 1.00017 0.985898 0.999879
0.999458 1.00047 0.998993 0.999997
0.97409 0.981032 0.993186 0.999735
0.979661 0.976134 1.00448 0.99914
0.974125 1.00128 0.972964 0.999912
1.01465 1 1.01484 0.999813
1.01769 1 1.01791 0.999785
1.01122 1 1.01146 0.99976
1.00679 1 1.007 0.999792
1.00593 1 1.00618 0.99976
1.00187 1 1.00209 0.999777
1.00188 1 1.00209 0.999784
1.0007 1 1.00091 0.999789
0.999835 1 1 0.999835
0.999814 1 1 0.999814
0.99983 1 1 0.99983
0.999864 1 1 0.999864
0.999874 1 1 0.999874
0.999859 1 1 0.999859
0.999852 1 1 0.999852
0.999885 1 1 0.999885
0.999861 1 1 0.999861
0.99984 1 1 0.99984
0.999919 1 1 0.999919
0.9999 1 1 0.9999
0.999882 1 1 0.999882
0.999951 1 1 0.999951
0.99992 1 1 0.99992
0.999903 1 1 0.999903
0.999995 1 1 0.999995
0.999955 1 1 0.999955
0.999925 1 1 0.999925
1 1 1 1
0.999995 1 1 0.999995
0.999956 1 1 0.999956
1 1 1 1
1 1 1 1
0.999994 1 1 0.999994
1 1 1 1
1 1 1 1
1 1 1 1
0.999913 1 1 0.999913
0.999949 1 1 0.999949
0.999913 1 1 0.999913
0.999993 1 1 0.999993
0.999949 1 1 0.999949
1 1 1 1
0.999995 1 1 0.999995
0.999951 1 1 0.999951
1 1 1 1
1 1 1 1
0.999997 1 1 0.999997
1 1 1 1
1 1 1 1
1 1 1 1
0.9993 0.999299 1 1
0.999665 0.999611 1.00005 1
1.00013 1.00013 1 1
0.999902 1 1 0.999902
0.999912 1 1 0.999912
0.999894 1 1 0.999894
0.999892 1 1 0.999892
0.9999 1 1 0.9999
0.999888 1 1 0.999888
0.999886 1 1 0.999886
0.99988 1 1 0.99988
0.999883 1 1 0.999883
0.999868 1 1 0.999868
0.99987 1 1 0.99987
0.99987 1 1 0.99987
0.996088 1.00155 0.994552 0.999997
1.00021 1.00075 0.999461 0.999999
0.998808 0.998552 1.00025 1
0.99094 1.00374 0.987256 0.999994
0.991473 0.999906 0.991844 0.99972
0.987013 0.990656 0.996983 0.999338
1.00259 0.99226 1.01041 1
1.02221 0.992074 1.03037 1.00001
0.98755 1.00129 0.986284 0.999999
0.991424 0.991625 1.00058 0.99922
0.980965 0.991934 0.989008 0.999933
1.0081 0.995958 1.01223 0.999955
0.991566 0.985711 1.00673 0.999215
0.973022 0.982891 0.99 0.999959
1.00008 1 1.0002 0.999879
0.999861 1 1 0.999861
0.99985 1 1 0.99985
1.02037 0.999052 1.02144 0.999905
1.00454 1 1.00479 0.999753
0.999843 1 1.00005 0.999793
1.00295 1 1.00317 0.999777
1.00974 0.999629 1.01028 0.99983
1.00285 1 1.003 0.999851
0.997781 1.00014 0.997648 0.999992
0.999127 0.999126 1 1
0.999846 0.999853 0.999993 1
1.00125 1 1.00131 0.999941
0.978742 0.996842 0.981871 0.999971
0.999767 0.999745 1.00002 1
0.994269 0.984608 1.01036 0.999457
0.973048 0.982993 0.989936 0.999948
0.994731 1.00136 0.993383 0.999995
0.985005 1.00087 0.984263 0.999885
0.997798 1.00038 0.997428 0.999993
0.974165 0.980119 0.993973 0.999951
0.97479 1.00196 0.973209 0.999668
0.982714 0.978933 1.00469 0.999175
0.977738 1.00739 0.970781 0.999782
0.976 0.980427 0.995534 0.99995
0.978324 0.976503 1.00259 0.999277
0.977801 1.00561 0.972654 0.999679
1.01902 1 1.01924 0.999786
1.01104 1 1.01129 0.999756
1.00286 1 1.00305 0.999803
1.00591 1 1.00615 0.999763
1.00165 1 1.00187 0.999779
0.999872 1 1 0.999872
1.00051 1 1.00072 0.999791
0.999838 1 1 0.999838
0.999905 1 1 0.999905
0.999832 1 1 0.999832
0.999866 1 1 0.999866
0.999904 1 1 0.999904
0.999899 1 1 0.999899
0.999873 1 1 0.999873
0.999876 1 1 0.999876
0.999876 1 1 0.999876
0.999862 1 1 0.999862
0.999854 1 1 0.999854
0.999911 1 1 0.999911
0.999884 1 1 0.999884
0.999858 1 1 0.999858
0.999947 1 1 0.999947
0.999918 1 1 0.999918
0.999902 1 1 0.999902
0.999994 1 1 0.999994
0.999951 1 1 0.999951
0.999919 1 1 0.999919
1 1 1 1
0.999995 1 1 0.999995
0.999955 1 1 0.999955
1 1 1 1
1 1 1 1
0.999995 1 1 0.999995
1 1 1 1
1 1 1 1
1 1 1 1
0.99992 1 1 0.99992
0.999915 1 1 0.999915
0.999949 1 1 0.999949
0.999993 1 1 0.999993
0.999949 1 1 0.999949
0.999912 1 1 0.999912
1 1 1 1
0.999994 1 1 0.999994
0.999949 1 1 0.999949
1 1 1 1
1 1 1 1
0.999995 1 1 0.999995
1 1 1 1
1 1 1 1
1 1 1 1
0.999295 1.00061 0.998685 0.999997
0.999231 0.999229 1 1
0.999632 0.999568 1.00006 1
0.999901 1 1 0.999901
0.999903 1 1 0.999903
0.999892 1 1 0.999892
0.999894 1 1 0.999894
0.999902 1 1 0.999902
0.999888 1 1 0.999888
0.999881 1 1 0.999881
0.999887 1 1 0.999887
0.999877 1 1 0.999877
0.999879 1 1 0.999879
0.999869 1 1 0.999869
0.999869 1 1 0.999869
0.976941 0.980985 0.995921 0.999956
0.996551 1.00153 0.995032 0.999998
1.00047 1.00106 0.999412 0.999999
0.989081 1.00071 0.988382 0.999999
0.975149 0.989674 0.985603 0.999717
0.996123 0.993714 1.00295 0.999473
1.02428 0.992308 1.0324 0.999819
1.00933 0.995946 1.01369 0.999757
0.973163 0.983578 0.989666 0.999743
0.994041 0.988354 1.0064 0.999355
1.00345 0.997393 1.00637 0.999704
0.985233 0.981917 1.00413 0.999253
1.00168 1 1.00182 0.999861
1.00002 1 1.00014 0.99988
0.999862 1 1 0.999862
1.0087 1 1.00888 0.99983
1.00313 1 1.00335 0.99978
1.00256 1 1.0027 0.999857
0.999454 1 0.999606 0.999848
0.974564 0.981479 0.993015 0.99994
0.998742 1.00015 0.998599 0.999994
0.999174 0.999173 1 1
0.983575 1.00108 0.98262 0.99989
0.973623 1.00056 0.973138 0.999941
0.997722 1.00031 0.99742 0.999992
0.980868 0.977072 1.00472 0.999169
0.973139 0.979879 0.993376 0.999743
0.977314 1.00664 0.971068 0.99979
0.974657 0.979215 0.995491 0.999854
0.978517 0.975028 1.00435 0.999233
0.976247 1.00504 0.971433 0.999915
0.976712 1.01122 0.96609 0.999772
0.970387 0.970958 1.00026 0.999154
0.992136 1.00313 0.989117 0.999925
1.01094 1 1.01119 0.999752
1.00259 1 1.00279 0.999802
0.99938 1 0.999472 0.999908
1.00142 1 1.00164 0.999781
0.999812 1 0.999937 0.999874
0.999763 1 0.999797 0.999966
0.999842 1 1 0.999842
0.999906 1 1 0.999906
0.999945 1 1 0.999945
0.999867 1 1 0.999867
0.999903 1 1 0.999903
0.999919 1 1 0.999919
0.999907 1 1 0.999907
0.999901 1 1 0.999901
0.999894 1 1 0.999894
0.999882 1 1 0.999882
0.999874 1 1 0.999874
0.999878 1 1 0.999878
0.999898 1 1 0.999898
0.999879 1 1 0.999879
0.999865 1 1 0.999865
0.999941 1 1 0.999941
0.999911 1 1 0.999911
0.999884 1 1 0.999884
0.999992 1 1 0.999992
0.999947 1 1 0.999947
0.999918 1 1 0.999918
1 1 1 1
0.999994 1 1 0.999994
0.999951 1 1 0.999951
1 1 1 1
1 1 1 1
0.999995 1 1 0.999995
1 1 1 1
1 1 1 1
1 1 1 1
0.999918 1 1 0.999918
0.999917 1 1 0.999917
0.999948 1 1 0.999948
0.999916 1 1 0.999916
0.999949 1 1 0.999949
0.999992 1 1 0.999992
1 1 1 1
0.999993 1 1 0.999993
0.999949 1 1 0.999949
1 1 1 1
1 1 1 1
0.999994 1 1 0.999994
1 1 1 1
1 1 1 1
1 1 1 1
0.97793 0.980821 0.997277 0.999774
0.998842 1.00089 0.997962 0.999996
0.999145 0.999144 1 1
0.999899 1 1 0.999899
0.999892 1 1 0.999892
0.999904 1 1 0.999904
0.999903 1 1 0.999903
0.999892 1 1 0.999892
0.999882 1 1 0.999882
0.999888 1 1 0.999888
0.999876 1 1 0.999876
0.999885 1 1 0.999885
0.999872 1 1 0.999872
0.999878 1 1 0.999878
0.999876 1 1 0.999876
0.999869 1 1 0.999869
0.979162 0.979201 1.00086 0.999098
0.977729 0.982003 0.995788 0.999859
0.995842 1.00151 0.994345 0.999997
0.973263 0.983489 0.989645 0.999957
0.990736 0.985124 1.00673 0.998973
1.01111 0.996845 1.01436 0.999954
1.00413 0.997845 1.00649 0.999815
0.984366 0.981354 1.00381 0.999262
0.998986 0.997957 1.00126 0.999768
1.00102 1 1.00124 0.999778
1.00189 1 1.00203 0.999857
0.999881 1 1 0.999881
1.00241 1 1.00255 0.999863
0.999228 1 0.999328 0.999899
0.967447 0.970092 0.997893 0.999379
0.97598 0.980944 0.995161 0.999778
0.99952 1.00014 0.999387 0.999997
0.976865 1.00616 0.971084 0.999797
0.980313 1.0102 0.970739 0.999663
0.976572 0.979727 0.997005 0.999774
0.979694 0.974192 1.00642 0.999229
0.976448 1.0098 0.9672 0.999767
0.973129 0.972313 1.00149 0.999345
0.988437 1.00489 0.983926 0.9997
0.973783 1.00779 0.966403 0.999846
1.00042 0.994828 1.0057 0.999921
1.00209 1 1.00229 0.999801
0.998164 1 0.998256 0.999909
0.997223 1 0.997243 0.99998
0.999637 1 0.999761 0.999876
0.999544 1 0.999579 0.999965
0.999578 1 0.999602 0.999977
0.999906 1 1 0.999906
0.999943 1 1 0.999943
0.999935 1 1 0.999935
0.999903 1 1 0.999903
0.999918 1 1 0.999918
0.999909 1 1 0.999909
0.999909 1 1 0.999909
0.999897 1 1 0.999897
0.999903 1 1 0.999903
0.999894 1 1 0.999894
0.999891 1 1 0.999891
0.999893 1 1 0.999893
0.999881 1 1 0.999881
0.999874 1 1 0.999874
0.999932 1 1 0.999932
0.9999 1 1 0.9999
0.999882 1 1 0.999882
0.999988 1 1 0.999988
0.999941 1 1 0.999941
0.999911 1 1 0.999911
1 1 1 1
0.999992 1 1 0.999992
0.999948 1 1 0.999948
1 1 1 1
1 1 1 1
0.999993 1 1 0.999993
1 1 1 1
1 1 1 1
1 1 1 1
0.999913 1 1 0.999913
0.999918 1 1 0.999918
0.999941 1 1 0.999941
0.999913 1 1 0.999913
0.999945 1 1 0.999945
0.999991 1 1 0.999991
0.999948 1 1 0.999948
0.999992 1 1 0.999992
1 1 1 1
1 1 1 1
1 1 1 1
0.999993 1 1 0.999993
1 1 1 1
1 1 1 1
1 1 1 1
0.97328 0.973596 1.00031 0.999367
0.977099 0.982381 0.994678 0.999945
0.999827 1.00122 0.998611 0.999997
0.999892 1 1 0.999892
0.999905 1 1 0.999905
0.999893 1 1 0.999893
0.999904 1 1 0.999904
0.999901 1 1 0.999901
0.999895 1 1 0.999895
0.999876 1 1 0.999876
0.999885 1 1 0.999885
0.999874 1 1 0.999874
0.999883 1 1 0.999883
0.999876 1 1 0.999876
0.999798 1 1 0.999798
0.999876 1 1 0.999876
0.999873 1 1 0.999873
0.991205 0.993672 0.997549 0.999968
0.975537 0.976118 1.0001 0.999307
0.975169 0.980996 0.994303 0.999756
0.98412 0.981252 1.00371 0.999216
1.00414 0.997718 1.00649 0.999943
0.999079 0.997605 1.00155 0.999927
0.999322 1.00027 0.999301 0.99975
1.0015 1 1.00171 0.999785
1.0021 1 1.00225 0.999852
0.998704 1 0.998753 0.99995
0.992671 0.990483 1.00245 0.999763
0.970803 0.97104 1.00035 0.999405
0.976024 0.981479 0.994495 0.999947
0.976134 1.00816 0.968462 0.999762
0.990517 1.0082 0.982536 0.999919
0.973993 0.971819 1.00269 0.999547
0.976375 1.00535 0.971328 0.999842
0.995982 0.99581 1.00032 0.999852
0.983137 1.00132 0.981921 0.999919
1.00231 1 1.00249 0.999824
0.996975 1 0.997066 0.999909
0.996802 1 0.996823 0.999979
0.997689 1 0.997733 0.999956
0.999474 1 0.99951 0.999964
0.999691 1 0.999716 0.999975
0.99993 1 1 0.99993
0.99994 1 1 0.99994
0.999933 1 1 0.999933
0.999901 1 1 0.999901
0.999916 1 1 0.999916
0.99991 1 1 0.99991
0.999891 1 1 0.999891
0.999911 1 1 0.999911
0.999899 1 1 0.999899
0.99989 1 1 0.99989
0.999893 1 1 0.999893
0.99989 1 1 0.99989
0.999898 1 1 0.999898
0.999919 1 1 0.999919
0.999895 1 1 0.999895
0.999881 1 1 0.999881
0.999981 1 1 0.999981
0.999932 1 1 0.999932
0.999902 1 1 0.999902
1 1 1 1
0.999988 1 1 0.999988
0.999941 1 1 0.999941
1 1 1 1
1 1 1 1
0.999991 1 1 0.999991
1 1 1 1
1 1 1 1
1 1 1 1
0.999912 1 1 0.999912
0.999916 1 1 0.999916
0.999938 1 1 0.999938
0.999919 1 1 0.999919
0.999941 1 1 0.999941
0.99999 1 1 0.99999
0.999943 1 1 0.999943
0.999991 1 1 0.999991
1 1 1 1
0.999992 1 1 0.999992
1 1 1 1
1 1 1 1
1 1 1 1
1 1 1 1
1 1 1 1
0.98794 0.989366 0.998582 0.999977
0.969461 0.97116 0.998896 0.999354
0.976022 0.982428 0.99371 0.999768
0.999895 1 1 0.999895
0.999894 1 1 0.999894
0.999905 1 1 0.999905
0.999894 1 1 0.999894
0.9999 1 1 0.9999
0.999899 1 1 0.999899
0.999885 1 1 0.999885
0.999875 1 1 0.999875
0.999885 1 1 0.999885
0.999884 1 1 0.999884
0.999841 1 1 0.999841
0.999728 1 1 0.999728
0.999806 1 1 0.999806
0.999874 1 1 0.999874
0.997538 1 0.99777 0.999768
0.992403 0.995619 0.996917 0.999852
0.976871 0.976648 1.00072 0.999512
0.999413 0.998728 1.00097 0.999715
0.999832 1.00047 0.99966 0.999697
1.00213 1 1.00234 0.999791
0.999966 1 1.00002 0.999946
0.993856 0.989954 1.00397 0.999968
0.96846 0.971084 0.997922 0.999375
0.978856 1.00276 0.976316 0.999838
0.992276 0.996186 0.996307 0.999767
0.986766 1.00048 0.986378 0.999911
1.00125 1 1.00141 0.999847
0.999709 1 0.999849 0.99986
0.999834 1 1 0.999834
0.996366 1 0.996387 0.999979
0.998514 1 0.99856 0.999954
0.999893 1 1 0.999893
0.999768 1 0.999795 0.999973
0.999929 1 1 0.999929
0.999885 1 1 0.999885
0.999931 1 1 0.999931
0.999903 1 1 0.999903
0.999874 1 1 0.999874
0.999911 1 1 0.999911
0.999891 1 1 0.999891
0.999882 1 1 0.999882
0.999901 1 1 0.999901
0.999891 1 1 0.999891
0.999893 1 1 0.999893
0.99989 1 1 0.99989
0.999896 1 1 0.999896
0.999916 1 1 0.999916
0.999972 1 1 0.999972
0.999922 1 1 0.999922
0.999897 1 1 0.999897
1 1 1 1
0.99998 1 1 0.99998
0.999932 1 1 0.999932
1 1 1 1
1 1 1 1
0.999987 1 1 0.999987
1 1 1 1
1 1 1 1
1 1 1 1
0.999906 1 1 0.999906
0.999912 1 1 0.999912
0.999937 1 1 0.999937
0.999918 1 1 0.999918
0.99994 1 1 0.99994
0.999987 1 1 0.999987
0.999941 1 1 0.999941
0.99999 1 1 0.99999
1 1 1 1
0.999991 1 1 0.999991
1 1 1 1
1 1 1 1
1 1 1 1
1 1 1 1
1 1 1 1
0.998134 1 0.998211 0.999923
0.98837 0.990568 0.998008 0.999773
0.971308 0.972228 0.999659 0.999394
0.999895 1 1 0.999895
0.999879 1 1 0.999879
0.999896 1 1 0.999896
0.999894 1 1 0.999894
0.9999 1 1 0.9999
0.999897 1 1 0.999897
0.999849 1 1 0.999849
0.999886 1 1 0.999886
0.999892 1 1 0.999892
0.999839 1 1 0.999839
0.999766 1 1 0.999766
0.999826 1 1 0.999826
0.999735 1 1 0.999735
0.999814 1 1 0.999814
0.998146 1.00027 0.998105 0.999774
0.991386 0.995183 0.996435 0.999749
1.00017 1.00052 1 0.999645
0.999954 1 1 0.999954
1.00111 1 1.00116 0.999948
0.992073 0.989341 1.00298 0.999782
0.990788 1 0.990884 0.999903
1.00021 1 1.00034 0.99987
0.999189 1 0.999324 0.999865
0.999847 1 1 0.999847
0.999844 1 1 0.999844
0.999914 1 1 0.999914
0.999329 1 0.999376 0.999953
0.999895 1 1 0.999895
0.999857 1 1 0.999857
0.999928 1 1 0.999928
0.999885 1 1 0.999885
0.999859 1 1 0.999859
0.999905 1 1 0.999905
0.999874 1 1 0.999874
0.999867 1 1 0.999867
0.999891 1 1 0.999891
0.999882 1 1 0.999882
0.999885 1 1 0.999885
0.999891 1 1 0.999891
0.999893 1 1 0.999893
0.999911 1 1 0.999911
0.999894 1 1 0.999894
0.999915 1 1 0.999915
0.999964 1 1 0.999964
1 1 1 1
0.999972 1 1 0.999972
0.999924 1 1 0.999924
1 1 1 1
1 1 1 1
0.99998 1 1 0.99998
1 1 1 1
1 1 1 1
1 1 1 1
0.999892 1 1 0.999892
0.999904 1 1 0.999904
0.999931 1 1 0.999931
0.999912 1 1 0.999912
0.999937 1 1 0.999937
0.999984 1 1 0.999984
0.999941 1 1 0.999941
0.999988 1 1 0.999988
1 1 1 1
0.99999 1 1 0.99999
1 1 1 1
1 1 1 1
1 1 1 1
1 1 1 1
1 1 1 1
0.999941 1 1 0.999941
0.998253 1 0.998327 0.999926
0.987673 0.989353 0.998319 0.999983
0.999866 1 1 0.999866
0.9999 1 1 0.9999
0.999848 1 1 0.999848
0.999878 1 1 0.999878
0.999896 1 1 0.999896
0.999798 1 1 0.999798
0.999896 1 1 0.999896
0.99985 1 1 0.99985
0.999806 1 1 0.999806
0.999837 1 1 0.999837
0.999756 1 1 0.999756
0.999822 1 1 0.999822
0.999743 1 1 0.999743
0.998815 1.00066 0.998376 0.99978
0.999961 1 1 0.999961
0.999952 1 1 0.999952
1.00219 1 1.00224 0.999951
0.998782 1 0.998911 0.99987
0.999859 1 1 0.999859
0.999841 1 1 0.999841
0.999915 1 1 0.999915
0.999898 1 1 0.999898
0.999897 1 1 0.999897
0.999859 1 1 0.999859
0.999857 1 1 0.999857
0.999884 1 1 0.999884
0.999858 1 1 0.999858
0.999855 1 1 0.999855
0.999874 1 1 0.999874
0.999867 1 1 0.999867
0.999872 1 1 0.999872
0.999882 1 1 0.999882
0.999885 1 1 0.999885
0.999902 1 1 0.999902
0.999892 1 1 0.999892
0.999911 1 1 0.999911
0.999956 1 1 0.999956
0.999914 1 1 0.999914
0.999964 1 1 0.999964
1 1 1 1
1 1 1 1
1 1 1 1
0.999971 1 1 0.999971
1 1 1 1
1 1 1 1
1 1 1 1
0.999852 1 1 0.999852
0.999876 1 1 0.999876
0.99989 1 1 0.99989
0.999923 1 1 0.999923
0.999902 1 1 0.999902
0.999931 1 1 0.999931
0.999979 1 1 0.999979
0.999937 1 1 0.999937
0.999984 1 1 0.999984
1 1 1 1
0.999988 1 1 0.999988
1 1 1 1
1 1 1 1
1 1 1 1
1 1 1 1
1 1 1 1
0.999907 1 1 0.999907
0.999937 1 1 0.999937
0.998389 1.00001 0.998452 0.999929
0.99982 1 1 0.99982
0.999873 1 1 0.999873
0.999906 1 1 0.999906
0.999851 1 1 0.999851
0.999876 1 1 0.999876
0.999797 1 1 0.999797
0.999795 1 1 0.999795
0.999851 1 1 0.999851
0.999804 1 1 0.999804
0.999747 1 1 0.999747
0.999819 1 1 0.999819
0.999949 1 1 0.999949
0.999959 1 1 0.999959
0.999951 1 1 0.999951
0.999838 1 1 0.999838
0.999917 1 1 0.999917
0.999897 1 1 0.999897
0.999896 1 1 0.999896
0.999862 1 1 0.999862
0.999854 1 1 0.999854
0.999865 1 1 0.999865
0.999856 1 1 0.999856
0.999855 1 1 0.999855
0.999861 1 1 0.999861
0.999866 1 1 0.999866
0.999872 1 1 0.999872
0.99989 1 1 0.99989
0.999885 1 1 0.999885
0.999902 1 1 0.999902
0.999946 1 1 0.999946
0.999911 1 1 0.999911
0.999956 1 1 0.999956
1 1 1 1
0.999963 1 1 0.999963
1 1 1 1
1 1 1 1
1 1 1 1
1 1 1 1
1 1 1 1
0.999827 1 1 0.999827
0.999873 1 1 0.999873
0.999862 1 1 0.999862
0.99991 1 1 0.99991
0.999877 1 1 0.999877
0.999888 1 1 0.999888
0.999923 1 1 0.999923
0.999973 1 1 0.999973
0.999931 1 1 0.999931
0.999979 1 1 0.999979
1 1 1 1
0.999984 1 1 0.999984
1 1 1 1
1 1 1 1
1 1 1 1
1 1 1 1
1 1 1 1
0.99988 1 1 0.99988
0.999908 1 1 0.999908
0.999932 1 1 0.999932
0.999811 1 1 0.999811
0.99982 1 1 0.99982
0.99988 1 1 0.99988
0.999855 1 1 0.999855
0.999798 1 1 0.999798
0.999792 1 1 0.999792
0.999801 1 1 0.999801
0.999929 1 1 0.999929
0.999941 1 1 0.999941
0.999957 1 1 0.999957
0.9999 1 1 0.9999
0.999896 1 1 0.999896
0.999895 1 1 0.999895
0.999887 1 1 0.999887
0.999851 1 1 0.999851
0.999866 1 1 0.999866
0.999865 1 1 0.999865
0.999855 1 1 0.999855
0.999861 1 1 0.999861
0.99988 1 1 0.99988
0.999872 1 1 0.999872
0.99989 1 1 0.99989
0.999935 1 1 0.999935
0.999902 1 1 0.999902
0.999946 1 1 0.999946
1 1 1 1
0.999956 1 1 0.999956
1 1 1 1
1 1 1 1
1 1 1 1
1 1 1 1
1 1 1 1
0.999816 1 1 0.999816
0.999844 1 1 0.999844
0.999831 1 1 0.999831
0.999901 1 1 0.999901
0.999871 1 1 0.999871
0.999871 1 1 0.999871
0.999961 1 1 0.999961
0.99991 1 1 0.99991
0.999877 1 1 0.999877
0.999923 1 1 0.999923
0.999973 1 1 0.999973
1 1 1 1
0.99998 1 1 0.99998
1 1 1 1
1 1 1 1
1 1 1 1
1 1 1 1
1 1 1 1
0.999867 1 1 0.999867
0.999874 1 1 0.999874
0.999908 1 1 0.999908
0.999805 1 1 0.999805
0.99982 1 1 0.99982
0.999798 1 1 0.999798
0.999903 1 1 0.999903
0.999932 1 1 0.999932
0.999933 1 1 0.999933
0.999896 1 1 0.999896
0.999889 1 1 0.999889
0.999895 1 1 0.999895
0.999887 1 1 0.999887
0.999883 1 1 0.999883
0.999866 1 1 0.999866
0.999866 1 1 0.999866
0.999878 1 1 0.999878
0.999861 1 1 0.999861
0.99988 1 1 0.99988
0.999925 1 1 0.999925
0.99989 1 1 0.99989
0.999935 1 1 0.999935
0.999998 1 1 0.999998
0.999946 1 1 0.999946
0.999999 1 1 0.999999
1 1 1 1
1 1 1 1
1 1 1 1
1 1 1 1
0.999863 1 1 0.999863
0.999826 1 1 0.999826
0.999814 1 1 0.999814
0.999876 1 1 0.999876
0.999847 1 1 0.999847
0.999835 1 1 0.999835
0.999946 1 1 0.999946
0.999896 1 1 0.999896
0.99987 1 1 0.99987
1 1 1 1
0.999961 1 1 0.999961
0.99991 1 1 0.99991
0.999974 1 1 0.999974
1 1 1 1
1 1 1 1
1 1 1 1
1 1 1 1
1 1 1 1
0.99986 1 1 0.99986
0.999865 1 1 0.999865
0.999868 1 1 0.999868
0.999799 1 1 0.999799
0.999885 1 1 0.999885
0.999905 1 1 0.999905
0.999934 1 1 0.999934
0.999893 1 1 0.999893
0.999891 1 1 0.999891
0.999894 1 1 0.999894
0.999887 1 1 0.999887
0.999883 1 1 0.999883
0.999887 1 1 0.999887
0.999866 1 1 0.999866
0.999879 1 1 0.999879
0.99992 1 1 0.99992
0.99988 1 1 0.99988
0.999925 1 1 0.999925
0.999996 1 1 0.999996
0.999935 1 1 0.999935
0.999998 1 1 0.999998
1 1 1 1
0.999999 1 1 0.999999
1 1 1 1
1 1 1 1
0.999864 1 1 0.999864
0.999854 1 1 0.999854
0.999862 1 1 0.999862
0.999852 1 1 0.999852
0.999832 1 1 0.999832
0.999813 1 1 0.999813
0.999921 1 1 0.999921
0.999876 1 1 0.999876
0.999849 1 1 0.999849
0.999998 1 1 0.999998
0.999942 1 1 0.999942
0.99989 1 1 0.99989
1 1 1 1
1 1 1 1
0.999962 1 1 0.999962
1 1 1 1
1 1 1 1
1 1 1 1
0.999868 1 1 0.999868
0.999867 1 1 0.999867
0.999863 1 1 0.999863
0.999894 1 1 0.999894
0.999885 1 1 0.999885
0.999908 1 1 0.999908
0.999892 1 1 0.999892
0.999894 1 1 0.999894
0.999906 1 1 0.999906
0.999883 1 1 0.999883
0.99989 1 1 0.99989
0.999919 1 1 0.999919
0.999879 1 1 0.999879
0.99992 1 1 0.99992
0.999994 1 1 0.999994
0.999925 1 1 0.999925
0.999995 1 1 0.999995
1 1 1 1
0.999997 1 1 0.999997
1 1 1 1
1 1 1 1
0.999863 1 1 0.999863
0.999869 1 1 0.999869
0.999863 1 1 0.999863
0.999865 1 1 0.999865
0.999856 1 1 0.999856
0.999861 1 1 0.999861
0.999904 1 1 0.999904
0.999857 1 1 0.999857
0.999837 1 1 0.999837
0.999995 1 1 0.999995
0.999918 1 1 0.999918
0.999876 1 1 0.999876
1 1 1 1
0.999999 1 1 0.999999
0.999937 1 1 0.999937
1 1 1 1
1 1 1 1
1 1 1 1
0.99988 1 1 0.99988
0.999868 1 1 0.999868
0.999874 1 1 0.999874
0.999905 1 1 0.999905
0.999892 1 1 0.999892
0.999886 1 1 0.999886
0.999895 1 1 0.999895
0.999906 1 1 0.999906
0.999929 1 1 0.999929
0.999892 1 1 0.999892
0.999921 1 1 0.999921
0.999992 1 1 0.999992
0.99992 1 1 0.99992
0.999993 1 1 0.999993
1 1 1 1
0.999995 1 1 0.999995
1 1 1 1
1 1 1 1
0.999874 1 1 0.999874
0.999859 1 1 0.999859
0.999879 1 1 0.999879
0.99987 1 1 0.99987
0.999861 1 1 0.999861
0.999909 1 1 0.999909
0.999864 1 1 0.999864
0.999858 1 1 0.999858
0.999991 1 1 0.999991
0.999906 1 1 0.999906
0.999863 1 1 0.999863
1 1 1 1
0.999996 1 1 0.999996
0.999916 1 1 0.999916
1 1 1 1
0.999999 1 1 0.999999
1 1 1 1
0.999896 1 1 0.999896
0.99988 1 1 0.99988
0.999869 1 1 0.999869
0.999928 1 1 0.999928
0.999905 1 1 0.999905
0.999891 1 1 0.999891
0.999906 1 1 0.999906
0.999928 1 1 0.999928
0.999992 1 1 0.999992
0.999922 1 1 0.999922
0.999992 1 1 0.999992
1 1 1 1
0.999992 1 1 0.999992
1 1 1 1
1 1 1 1
0.999887 1 1 0.999887
0.999872 1 1 0.999872
0.999855 1 1 0.999855
0.999917 1 1 0.999917
0.999879 1 1 0.999879
0.99987 1 1 0.99987
0.99999 1 1 0.99999
0.999908 1 1 0.999908
0.999864 1 1 0.999864
1 1 1 1
0.999992 1 1 0.999992
0.999908 1 1 0.999908
1 1 1 1
0.999997 1 1 0.999997
1 1 1 1
0.999928 1 1 0.999928
0.999894 1 1 0.999894
0.99988 1 1 0.99988
0.999991 1 1 0.999991
0.999928 1 1 0.999928
0.999905 1 1 0.999905
0.999927 1 1 0.999927
0.999992 1 1 0.999992
1 1 1 1
0.999992 1 1 0.999992
1 1 1 1
1 1 1 1
0.999924 1 1 0.999924
0.999887 1 1 0.999887
0.999869 1 1 0.999869
0.999991 1 1 0.999991
0.999916 1 1 0.999916
0.999879 1 1 0.999879
1 1 1 1
0.99999 1 1 0.99999
0.999908 1 1 0.999908
1 1 1 1
0.999993 1 1 0.999993
1 1 1 1
0.99999 1 1 0.99999
0.999926 1 1 0.999926
0.999893 1 1 0.999893
1 1 1 1
0.999991 1 1 0.999991
0.999929 1 1 0.999929
0.999991 1 1 0.999991
1 1 1 1
1 1 1 1
0.999991 1 1 0.999991
0.999924 1 1 0.999924
0.999886 1 1 0.999886
1 1 1 1
0.999991 1 1 0.999991
0.999916 1 1 0.999916
1 1 1 1
0.99999 1 1 0.99999
1 1 1 1
1 1 1 1
0.99999 1 1 0.99999
0.999924 1 1 0.999924
1 1 1 1
0.99999 1 1 0.99999
1 1 1 1
1 1 1 1
0.999991 1 1 0.999991
0.999923 1 1 0.999923
1 1 1 1
0.999991 1 1 0.999991
1 1 1 1
1 1 1 1
0.999991 1 1 0.999991
1 1 1 1
1 1 1 1
0.999991 1 1 0.999991
1 1 1 1
1 1 1 1
1 1 1 1

VECTORS lamdaE float
0.999244 0.998448 0.99778
0.999388 0.997706 0.999186
0.999237 0.998425 0.997808
0.998972 0.999501 0.997355
0.999148 0.998827 0.997624
0.999319 0.998089 0.997957
0.99949 0.999479 0.99619
0.999403 0.997691 0.999199
0.999096 0.998692 0.999019
0.999312 0.997947 0.999162
0.999478 0.997468 0.998211
0.99955 0.998939 0.9964
0.99871 1.00021 0.997295
0.998776 0.999821 0.997444
0.99923 0.9984 0.997837
0.998966 0.999502 0.997378
0.999312 0.998065 0.997983
0.999143 0.998805 0.997651
0.999491 0.999496 0.996192
0.998776 0.999911 0.998846
0.998914 0.999709 0.997298
0.999047 0.999196 0.997482
0.999572 0.999981 0.995582
0.999504 0.999669 0.995992
0.999398 0.997769 0.998104
0.999477 0.99926 0.996413
1.00004 1.00065 0.993998
0.999419 0.997676 0.999211
0.999107 0.998771 0.998339
0.999321 0.997993 0.998575
0.999471 0.997451 0.999234
0.999544 0.998913 0.996404
0.99898 0.999278 0.997539
0.999206 0.998417 0.997851
0.999505 0.999678 0.996332
0.999547 0.997202 0.999269
0.999509 0.999167 0.996784
0.9996 0.998692 0.996542
0.999906 1.00053 0.994111
0.999694 0.996894 0.999269
0.998704 1.00003 0.99884
0.99877 0.999767 0.998164
0.998729 1.00009 0.998817
0.998702 1.00003 0.9974
0.999483 1.00043 0.994972
0.998869 0.999407 0.998932
0.999462 1.00019 0.995926
0.99896 0.999503 0.997402
0.999138 0.998781 0.997678
0.999306 0.998042 0.99801
0.999493 0.999517 0.996193
0.998771 0.999962 0.998083
0.998906 0.99972 0.997312
0.999392 0.997749 0.998122
0.999043 0.999182 0.997508
0.999576 0.999986 0.995587
0.99948 0.999275 0.996416
0.999508 0.999679 0.995994
1.00006 1.00065 0.993969
0.998762 0.999995 0.998834
0.998829 0.999871 0.99732
0.999562 1.00019 0.995749
0.999614 1.00005 0.995455
0.999524 0.999848 0.995791
1.00054 1.00046 0.993216
1.00018 1.00055 0.993676
0.999512 0.997495 0.998185
0.999506 0.99896 0.996633
0.999891 1.0007 0.994237
1.00051 1.00071 0.992736
0.999131 0.998652 0.999032
0.999491 0.997435 0.999246
0.999339 0.997949 0.999165
0.999538 0.998887 0.996408
0.99898 0.999113 0.998945
0.999204 0.998336 0.999074
0.999482 0.999762 0.995681
0.999559 0.997223 0.998763
0.999508 0.999176 0.996229
0.999599 0.998653 0.996815
0.999891 1.00057 0.994104
0.999622 0.997045 0.999265
0.999821 0.998072 0.996712
0.999501 0.999983 0.995392
0.999492 0.999503 0.995912
1.00013 1.00057 0.993599
0.999676 0.998409 0.997156
0.999945 1.00056 0.994001
0.999886 1.00042 0.994272
1.00016 1.00097 0.993163
0.999752 0.996766 0.999276
0.999706 0.996899 0.999271
0.998805 0.999631 0.998904
0.998695 0.999995 0.998856
0.99872 1.00008 0.998821
0.998706 0.999977 0.998127
0.999472 1.00039 0.995378
0.998881 0.999479 0.998196
0.999457 1.00021 0.995573
0.998747 1.00006 0.998819
0.999524 1.0004 0.994905
0.999456 1.00029 0.995847
1.00059 1.00051 0.992728
0.999494 1.00004 0.99601
1.00045 1.0005 0.993029
0.998779 1.00002 0.9973
0.998897 0.999735 0.997326
0.999386 0.997729 0.998141
0.999039 0.999166 0.997535
0.999581 0.999991 0.995591
0.999512 0.999691 0.995996
0.999484 0.999289 0.99642
1.00009 1.00066 0.99394
0.998762 1 0.998827
0.998824 0.999872 0.997332
0.999569 1.00021 0.995199
0.999617 1.00005 0.995455
0.999487 0.997476 0.998709
0.999512 0.998957 0.996792
0.999529 0.999852 0.995795
1.00055 1.00044 0.993136
0.999922 1.00071 0.994202
1.0002 1.00055 0.993721
1.00051 1.00071 0.992741
0.999563 1.00029 0.994926
0.999583 1.00011 0.995465
1.00074 1.00035 0.992782
1.00068 1.00035 0.992893
1.00035 1.00049 0.993404
1.00108 1.00035 0.992103
0.999579 0.997265 0.999242
1.00067 1.0005 0.992625
0.999604 0.998658 0.996545
0.999817 1.00065 0.994142
1.00033 1.00099 0.992858
1.00075 1.00068 0.9923
0.999768 0.99826 0.996603
1.00002 1.00007 0.99433
0.999018 0.999028 0.998967
0.999239 0.998276 0.999106
0.999441 0.999812 0.995673
0.999573 0.997224 0.999262
0.999597 0.99862 0.99657
0.999486 0.999176 0.996213
0.999875 1.00061 0.994097
0.999637 0.997047 0.999266
0.999822 0.998058 0.996712
0.999481 0.999956 0.995778
0.999472 0.999483 0.996256
1.00013 1.00057 0.993598
0.999685 0.99839 0.996668
0.999931 1.00059 0.993996
0.99987 1.00045 0.99427
1.00017 1.00096 0.993134
0.99976 0.998213 0.996695
0.999866 0.997948 0.996742
1.00002 0.999922 0.994499
1.00027 1.00052 0.993367
1.00001 1.00059 0.99384
1.0006 1.00061 0.992656
0.999925 1.00018 0.994429
1.00028 1.00076 0.99309
1.00008 1.00112 0.993204
1.00027 1.00122 0.992778
0.999797 0.996656 0.999287
0.99976 0.996772 0.999279
0.999717 0.996904 0.999273
0.999819 0.99813 0.996632
0.999654 0.997108 0.999248
0.998907 0.999359 0.998926
0.998728 0.999846 0.998885
0.999434 1.00028 0.995208
0.999456 1.00044 0.995004
0.998709 1.00006 0.998828
0.998745 1.00006 0.998816
0.999519 1.0004 0.994909
0.999445 1.00032 0.995493
1.00059 1.00051 0.99273
0.999478 1.00013 0.995293
1.00045 1.0005 0.993032
0.999554 1.00033 0.994889
1.00068 1.00051 0.992546
1.00051 1.0005 0.9929
1.00107 1.00051 0.991792
1.00038 1.0005 0.993178
1.00095 1.00041 0.992153
0.998762 1.00001 0.998821
0.998818 0.999872 0.997344
0.99957 1.00023 0.994656
0.99962 1.00006 0.995454
0.999462 0.997455 0.999238
0.999518 0.998954 0.996951
0.999535 0.999857 0.995799
1.00055 1.00043 0.993056
1.00022 1.00056 0.993766
0.999953 1.00071 0.994167
1.0005 1.00071 0.992747
0.999564 1.00029 0.994924
0.999591 1.0001 0.99546
1.00074 1.00034 0.992627
1.00069 1.00036 0.992939
0.999561 0.997267 0.99924
0.999601 0.998678 0.996795
0.999847 1.00062 0.994289
1.00035 1.00049 0.993404
1.00107 1.00034 0.992016
1.0003 1.001 0.992839
1.00068 1.00051 0.992668
1.00074 1.00068 0.992309
0.999764 0.998278 0.996603
1.00002 1.00006 0.994335
1.00073 1.0004 0.992542
1.00074 1.00031 0.99281
1.00128 1.00031 0.991751
1.00122 1.00023 0.9917
1.00082 1.00041 0.992478
1.00134 1.00021 0.99167
0.999689 0.998436 0.996582
1.00093 1.00038 0.992235
0.999846 1.00049 0.994268
1.0001 1.00111 0.993024
1.00056 1.00115 0.992399
1.00087 1.00057 0.992203
0.999983 1.00015 0.994331
1.00004 0.999977 0.994392
1.00016 1.00115 0.993011
0.999452 1.00003 0.995438
0.999652 0.99705 0.999267
0.999823 0.998044 0.996713
0.999445 0.99951 0.995962
1.00013 1.00056 0.993598
0.999679 0.998372 0.996666
0.999854 1.00048 0.994267
0.999917 1.00062 0.99399
1.00017 1.00095 0.993104
0.999761 0.998199 0.996695
0.999868 0.997934 0.996743
1.00001 0.999928 0.994497
1.00028 1.00051 0.993365
0.999998 1.0006 0.993839
1.0006 1.00061 0.992657
0.999913 1.0002 0.994429
1.00028 1.00076 0.993123
1.00008 1.00113 0.993197
1.00027 1.00121 0.992737
0.999902 0.997835 0.996783
0.999979 1 0.99449
1.00004 0.999847 0.994521
1.00014 1.00096 0.993239
1.00076 1.00048 0.992448
1.00041 1.00072 0.992945
1.0008 1.00067 0.992189
1.0001 1.00102 0.993273
1.00042 1.00092 0.992718
1.00016 1.00156 0.992634
1.00035 1.00129 0.992457
1.00008 0.999513 0.994781
0.999955 0.997636 0.996867
0.999834 0.996558 0.999298
0.999802 0.996662 0.99929
0.999768 0.996778 0.999282
0.999851 0.998013 0.996688
0.999705 0.996981 0.999257
0.999815 0.998147 0.996631
0.99964 0.997103 0.999246
0.999448 1.00017 0.995295
0.999427 1.00039 0.995117
1.00045 1.00049 0.993035
1.00059 1.00051 0.992733
0.999514 1.0004 0.994913
0.998745 1.00006 0.998815
0.999556 1.00034 0.994888
1.00068 1.0005 0.99255
1.00051 1.0005 0.992902
1.00108 1.00052 0.991789
1.00038 1.00049 0.993179
1.00095 1.00041 0.992154
1.00073 1.00046 0.99249
1.00115 1.00054 0.99161
1.00102 1.00044 0.991978
1.00129 1.00042 0.991493
1.00087 1.00041 0.992307
1.00118 1.00028 0.99182
0.999567 1.00029 0.994922
0.9996 1.00011 0.995454
1.00074 1.00033 0.992472
1.0007 1.00036 0.992985
0.999544 0.997268 0.999238
0.999598 0.9987 0.997042
0.999877 1.00058 0.994436
1.00036 1.00048 0.993405
1.00105 1.00032 0.99193
1.0007 1.00051 0.99271
1.00027 1.001 0.99282
1.00074 1.00068 0.992317
0.99976 0.998296 0.996603
1.00003 1.00006 0.994341
1.00073 1.0004 0.992481
1.00074 1.0003 0.992812
1.00126 1.00029 0.991728
1.00123 1.00025 0.991795
0.999688 0.998454 0.996581
0.999864 1.00046 0.994269
1.0001 1.00112 0.99308
1.00084 1.00042 0.992482
1.00132 1.00017 0.991651
1.00053 1.00114 0.992337
1.00093 1.00038 0.992237
1.00086 1.00056 0.992193
0.999987 1.00014 0.994336
1.00017 1.00113 0.99297
1.00004 0.99998 0.994394
1.00123 1.00043 0.991713
1.00131 1.0002 0.991697
1.0015 1.00023 0.991273
1.00151 1.00011 0.991336
1.00105 1.00023 0.99207
1.00147 0.999879 0.991712
0.999913 1.00029 0.994331
1.00103 1.0002 0.992191
1.00008 1.00107 0.993248
1.00025 1.00141 0.992467
1.00065 1.00124 0.992016
1.00094 1.0004 0.99235
1.00004 0.999849 0.994522
1.00015 1.00105 0.993131
1.00014 1.00126 0.992819
1.00023 1.00163 0.992528
1.00028 1.00051 0.993364
0.99987 0.99792 0.996745
0.999761 0.998184 0.996696
1.00001 0.999934 0.994495
0.999989 1.00061 0.993838
1.00059 1.00062 0.992657
0.999901 1.00022 0.994429
1.00008 1.00114 0.993189
1.00029 1.00076 0.993156
1.00026 1.0012 0.992696
0.999904 0.997821 0.996785
0.999974 1.00001 0.994488
1.00004 0.999852 0.99452
1.00014 1.00097 0.993236
1.00077 1.00048 0.992444
1.0004 1.00072 0.992951
1.0008 1.00068 0.992188
1.00009 1.00103 0.993273
1.00042 1.00092 0.99276
1.00016 1.00157 0.99262
1.00033 1.00125 0.992548
0.999931 0.997729 0.996829
1.00006 0.999765 0.994565
1.00014 1.00092 0.993282
1.00013 1.00099 0.993218
1.00019 1.00152 0.992579
1.00098 1.00044 0.992038
1.00057 1.00085 0.992501
1.00087 1.00074 0.991989
1.00016 1.00154 0.992648
1.00049 1.00107 0.992447
1.00023 1.00184 0.992059
1.00008 0.999595 0.9947
1.00011 1.00086 0.993392
1.00008 0.999437 0.994859
1.00008 0.999509 0.994783
0.999975 0.997535 0.997371
0.999954 0.997627 0.997106
0.999877 0.996498 0.998375
0.999837 0.996562 0.999301
0.999807 0.996668 0.999294
0.999874 0.997895 0.996763
0.999743 0.996861 0.999271
0.999848 0.99803 0.996684
0.999698 0.996973 0.999254
0.999811 0.998165 0.99663
0.999626 0.997098 0.999244
1.00038 1.00049 0.99318
1.00052 1.0005 0.992904
1.00095 1.00041 0.992156
1.00108 1.00052 0.991785
1.00069 1.0005 0.992553
0.999555 1.00034 0.994888
1.00073 1.00046 0.99249
1.00115 1.00055 0.991609
1.00102 1.00045 0.99198
1.00129 1.00041 0.991483
1.00087 1.00042 0.992305
1.00118 1.00029 0.991822
1.0012 1.00052 0.991539
1.00129 1.00048 0.991381
1.00126 1.00032 0.991627
1.00143 1.00023 0.991437
1.00109 1.00032 0.991967
1.00131 0.99994 0.991943
1.00073 1.0004 0.992421
1.00075 1.00028 0.992814
1.00125 1.00027 0.991705
1.00124 1.00027 0.991891
0.999688 0.998473 0.99658
0.999882 1.00043 0.99427
1.00011 1.00112 0.993137
1.00086 1.00042 0.992487
1.00131 1.00013 0.991633
1.00093 1.00038 0.992239
1.0005 1.00113 0.992274
1.00085 1.00054 0.992182
0.999991 1.00013 0.994341
1.00018 1.0011 0.992929
1.00004 0.999982 0.994395
1.00122 1.00043 0.991653
1.00131 1.0002 0.991695
1.00151 1.00022 0.991219
1.00153 1.0001 0.991355
0.999925 1.00027 0.994335
1.00009 1.00106 0.993247
1.00024 1.00143 0.992528
1.00107 1.00026 0.992092
1.00145 0.999807 0.991754
1.00062 1.00128 0.991957
1.00104 1.00019 0.992195
1.00092 1.00033 0.992382
1.00016 1.00103 0.993138
1.00023 1.0016 0.992473
1.00004 0.999856 0.99452
1.00015 1.00126 0.992818
1.00142 1.00042 0.991224
1.00167 1.00007 0.991167
1.00162 1.00023 0.990956
1.00165 0.999791 0.991325
1.00117 0.999956 0.992125
1.00159 0.999386 0.991964
1.00011 1.00102 0.993243
1.00107 0.999806 0.99249
1.00016 1.00135 0.992715
1.00033 1.0018 0.992019
1.0007 1.00134 0.991755
1.00103 1.00022 0.992393
1.00003 0.999734 0.994658
1.00012 1.00125 0.992852
1.00024 1.00135 0.992661
1.00017 1.002 0.992185
1.0003 1.00172 0.992267
0.999906 0.997807 0.996787
1.00078 1.00048 0.992439
1.00004 0.999856 0.994518
0.999969 1.00002 0.994486
1.00013 1.00098 0.993232
1.00039 1.00072 0.992957
1.0008 1.00068 0.992187
1.00008 1.00105 0.993272
1.00017 1.00158 0.992606
1.00043 1.00093 0.992803
1.00031 1.0012 0.992639
0.999932 0.997719 0.996831
1.00006 0.999767 0.994563
1.00013 1.00093 0.993279
1.00013 1.001 0.993214
1.00019 1.00151 0.992566
1.001 1.00044 0.992031
1.00056 1.00086 0.992503
1.00087 1.00075 0.991969
1.00015 1.00154 0.992653
1.00049 1.00107 0.992479
1.00026 1.0018 0.992107
1.00007 0.999679 0.994625
1.00013 1.00099 0.993214
1.00021 1.00141 0.992627
1.00017 1.00164 0.992512
1.00022 1.00181 0.992297
1.00108 1.00034 0.991937
1.00063 1.00099 0.992236
1.00081 1.00071 0.992047
1.00019 1.00201 0.99211
1.00045 1.00184 0.991773
1.00008 0.999591 0.994701
1.00013 1.00093 0.993173
1.00011 1.00087 0.993325
1.0001 1.00178 0.992634
1.00009 1.00082 0.993477
1.00008 0.999377 0.99492
1.00008 0.999437 0.994861
0.999999 0.997449 0.997403
1.00008 0.999505 0.994785
0.999976 0.997542 0.997376
0.999912 0.996412 0.998397
0.999954 0.99762 0.997343
0.999872 0.996471 0.998844
0.99984 0.996567 0.999305
0.999896 0.99776 0.996857
0.999874 0.997908 0.996758
0.999776 0.99673 0.999289
0.999739 0.996856 0.999267
0.999846 0.998047 0.99668
0.999689 0.996966 0.999251
1.00087 1.00042 0.992302
1.00102 1.00045 0.991982
1.00118 1.0003 0.991824
1.0013 1.0004 0.991473
1.00116 1.00055 0.991608
1.00073 1.00046 0.992489
1.0012 1.00052 0.991541
1.0013 1.00049 0.991364
1.00126 1.00033 0.991628
1.00143 1.00023 0.991428
1.00109 1.00033 0.991961
1.00131 0.999915 0.991952
1.00135 1.00051 0.991276
1.00132 1.00045 0.991365
1.0014 0.999971 0.991626
1.0015 1.00021 0.991402
1.00121 1.00001 0.991995
1.00144 0.99954 0.992155
1.0012 1.00043 0.991594
1.00131 1.0002 0.991693
1.00152 1.0002 0.991165
1.00154 1.0001 0.991373
0.999936 1.00025 0.994338
1.0001 1.00105 0.993246
1.00023 1.00144 0.992588
1.00109 1.00029 0.992115
1.00143 0.999736 0.991796
1.00104 1.00019 0.992199
1.0006 1.00131 0.991897
1.0009 1.00026 0.992414
1.00017 1.00101 0.993145
1.00023 1.00157 0.992417
1.00003 0.999863 0.994518
1.00015 1.00125 0.992817
1.00141 1.00042 0.991235
1.00165 1.00007 0.99118
1.00164 1.00025 0.990916
1.00166 0.9998 0.991336
1.00012 1.001 0.993246
1.00016 1.00135 0.992762
1.00032 1.00183 0.992014
1.00119 1.00001 0.992095
1.00152 0.999347 0.992086
1.00069 1.00139 0.991728
1.00107 0.999819 0.992496
1.00098 1.00006 0.992496
1.00024 1.00135 0.992662
1.0003 1.00168 0.992243
1.00017 1.00201 0.992169
1.00003 0.999729 0.994562
1.00013 1.00123 0.992871
1.00151 1.00043 0.991048
1.00183 1.00001 0.990788
1.00176 0.999313 0.991621
1.00135 0.999323 0.992387
1.00021 1.00126 0.992816
1.00124 0.999298 0.992793
1.00013 1.00171 0.992344
1.00041 1.00223 0.991468
1.00084 1.00129 0.991573
1.00004 0.999555 0.99463
1.0001 1.00111 0.993225
1.00011 1.00216 0.992102
1.00031 1.00143 0.992452
1.00025 1.00237 0.991666
1.00036 1.00174 0.991997
0.999934 0.997708 0.996834
1.00006 0.999769 0.994562
1.00101 1.00044 0.992024
1.00013 1.00101 0.99321
1.00013 1.00095 0.993277
1.00019 1.0015 0.992554
1.00055 1.00086 0.992504
1.00087 1.00076 0.99195
1.00015 1.00154 0.992658
1.00029 1.00176 0.992155
1.00049 1.00107 0.992511
1.00007 0.999679 0.994625
1.00013 1.001 0.99321
1.00021 1.0014 0.992668
1.00017 1.00165 0.992505
1.00021 1.00181 0.99226
1.00108 1.00038 0.991924
1.00064 1.00099 0.992221
1.00083 1.00069 0.992069
1.00018 1.002 0.992076
1.00045 1.00192 0.991701
1.00014 1.00098 0.993231
1.00016 1.00173 0.99234
1.00025 1.00179 0.992213
1.00021 1.00194 0.99206
1.00028 1.00194 0.992021
1.00123 0.99948 0.992468
1.00066 1.0015 0.9917
1.00089 1.00047 0.991842
1.0003 1.00237 0.991679
1.00044 1.00237 0.990944
1.00008 0.999587 0.994702
1.00013 1.00094 0.993224
1.00011 1.00181 0.992367
1.00011 1.00088 0.993257
1.00009 1.00082 0.993477
1.0001 1.00178 0.992531
1.0001 1.00238 0.991998
1.00008 1.00176 0.992469
1.00007 1.00078 0.993563
1.00008 0.999342 0.994955
1.00008 0.99938 0.994921
1.00002 0.997365 0.997431
1.00008 0.999438 0.994863
0.999999 0.997458 0.997408
0.999946 0.99632 0.998416
0.999977 0.997549 0.997381
0.999909 0.99638 0.998397
0.999865 0.996441 0.999315
0.999931 0.997599 0.996951
0.9999 0.997769 0.996851
0.999813 0.996574 0.999311
0.999874 0.997921 0.996753
0.999775 0.996734 0.999284
0.999736 0.996852 0.999262
1.00109 1.00033 0.991955
1.00126 1.00033 0.99163
1.00131 0.999885 0.99196
1.00143 1.00022 0.991418
1.00131 1.0005 0.991346
1.0012 1.00052 0.991544
1.00135 1.00052 0.991262
1.00132 1.00045 0.991369
1.00142 0.999984 0.991587
1.00147 1.00022 0.991348
1.0012 1.00005 0.991993
1.00141 0.999428 0.992254
1.00132 1.00048 0.991344
1.00129 1.00045 0.991425
1.00149 0.999794 0.991683
1.00136 0.999161 0.992601
1.00141 1.00042 0.991246
1.00163 1.00008 0.991194
1.00165 1.00026 0.990875
1.00167 0.99981 0.991347
1.00013 1.00098 0.99325
1.00016 1.00135 0.992809
1.00031 1.00187 0.992008
1.00121 1.00005 0.992064
1.00144 0.999307 0.992207
1.00107 0.999832 0.992501
1.00069 1.00144 0.991701
1.00094 0.999913 0.992599
1.00024 1.00135 0.992664
1.00031 1.00164 0.992219
1.00017 1.00203 0.992153
1.00003 0.999726 0.994467
1.00013 1.00122 0.992889
1.00152 1.00041 0.99101
1.00181 1.00002 0.990851
1.00173 0.999366 0.991655
1.00022 1.00126 0.992813
1.00016 1.00171 0.992412
1.00039 1.00228 0.99145
1.00137 0.999364 0.992345
1.00082 1.00117 0.991709
1.00119 0.999321 0.992762
1.00004 0.999535 0.994656
1.00031 1.00145 0.992447
1.00036 1.00169 0.992052
1.00025 1.00235 0.991703
1.00012 1.00219 0.992132
1.00011 1.00111 0.993126
1.00163 1.00035 0.990938
1.00192 0.999826 0.990809
1.00176 0.998769 0.992081
1.00161 0.998456 0.992863
1.00025 1.00146 0.99254
1.00113 1.00017 0.992084
1.00019 1.00229 0.991697
1.0005 1.0026 0.99102
1.00005 0.999339 0.994826
1.0001 1.00092 0.993439
1.00009 1.00211 0.992325
1.00015 1.00285 0.991327
1.00035 1.0016 0.992143
1.00035 1.00226 0.991519
1.00007 0.999678 0.994625
1.00013 1.00101 0.993205
1.00108 1.00041 0.991911
1.00017 1.00166 0.992499
1.0002 1.00139 0.992708
1.00021 1.00181 0.992223
1.00065 1.00098 0.992206
1.00086 1.00067 0.992092
1.00017 1.002 0.992042
1.00046 1.002 0.991629
1.00013 1.00098 0.993229
1.00016 1.00175 0.992377
1.00024 1.00178 0.992271
1.0002 1.00195 0.992109
1.00025 1.00192 0.992061
1.00126 0.999512 0.992529
1.00069 1.00145 0.991739
1.00086 1.00054 0.992032
1.00028 1.00238 0.991628
1.00047 1.00249 0.990919
1.00014 1.00182 0.99231
1.0002 1.00228 0.991756
1.00029 1.00215 0.991802
1.00026 1.00213 0.991738
1.00185 0.99821 0.992711
1.00136 0.999164 0.992413
1.00077 1.00208 0.990862
1.00028 1.00325 0.990559
1.00012 1.00095 0.993276
1.00011 1.00182 0.992421
1.00011 1.00238 0.991915
1.00009 1.00082 0.993476
1.0001 1.00179 0.992428
1.00007 1.00078 0.993562
1.0001 1.00238 0.991925
1.00008 1.00178 0.992508
1.00015 1.00274 0.991527
1.00009 1.0024 0.991836
1.00008 1.00173 0.992503
1.00005 1.00077 0.993605
1.00008 0.999337 0.994963
1.00008 0.999345 0.994956
1.00005 0.997301 0.997446
1.00008 0.999382 0.994923
1.00002 0.997376 0.997434
0.999981 0.996224 0.998433
0.999998 0.997466 0.997413
0.999943 0.996286 0.998415
0.999906 0.996348 0.998396
0.999968 0.997444 0.997031
0.999935 0.997608 0.996946
0.999858 0.996416 0.999332
0.999904 0.997778 0.996845
0.999811 0.996591 0.999305
0.999773 0.996738 0.999278
1.00119 1.00009 0.991991
1.00145 1 0.991549
1.00137 0.999324 0.992352
1.00145 1.00024 0.991294
1.00132 1.00044 0.991373
1.00135 1.00053 0.991247
1.00133 1.00049 0.991318
1.00131 1.00044 0.991416
1.00148 0.999771 0.991726
1.00137 0.999133 0.992573
1.0013 1.00047 0.99138
1.00131 1.00028 0.991634
1.00158 0.999027 0.992247
1.00153 1.00039 0.990973
1.00179 1.00003 0.990915
1.00171 0.999416 0.991688
1.00022 1.00125 0.992809
1.0002 1.00171 0.99248
1.00036 1.00232 0.991432
1.00139 0.999405 0.992303
1.00114 0.999344 0.99273
1.0008 1.00105 0.991845
1.0003 1.00146 0.992441
1.00036 1.00164 0.992107
1.00025 1.00233 0.991741
1.00003 0.999512 0.994681
1.00012 1.00222 0.992162
1.00011 1.00111 0.993027
1.00157 1.00034 0.991014
1.00195 0.999777 0.990782
1.00177 0.998862 0.992003
1.00026 1.00146 0.992533
1.00018 1.00227 0.991777
1.00049 1.00253 0.991077
1.00156 0.998511 0.992911
1.00113 1.00011 0.992075
1.00005 0.999326 0.99493
1.00009 1.00092 0.99344
1.00035 1.00162 0.992125
1.00035 1.00226 0.991542
1.00014 1.00283 0.991398
1.0001 1.00212 0.992264
1.00158 1.00016 0.99119
1.00203 0.999392 0.991045
1.0019 0.997621 0.992996
1.00162 0.998541 0.992898
1.00023 1.00185 0.992108
1.00072 1.00221 0.990916
1.00031 1.00289 0.991158
1.00007 0.999171 0.995141
1.00009 1.00031 0.993996
1.00008 1.00065 0.99354
1.00008 1.00203 0.992355
1.00008 1.00282 0.991501
1.00017 1.00324 0.990938
1.00037 1.00187 0.991786
1.00032 1.00292 0.991139
1.00013 1.00099 0.993228
1.00017 1.00176 0.992413
1.00128 0.999545 0.992591
1.0002 1.00195 0.992158
1.00023 1.00177 0.992328
1.00022 1.00191 0.992101
1.00071 1.00139 0.991777
1.00083 1.0006 0.992221
1.00026 1.00239 0.991577
1.00049 1.00259 0.990895
1.00014 1.00183 0.992305
1.0002 1.00225 0.991824
1.00027 1.00212 0.991858
1.00027 1.00215 0.991781
1.00182 0.998137 0.992767
1.00129 0.99944 0.992367
1.00078 1.00207 0.990958
1.00032 1.00316 0.990545
1.00013 1.00243 0.991837
1.00181 0.998559 0.992263
1.00023 1.00268 0.991426
1.00025 1.00273 0.991274
1.00214 0.997421 0.992748
1.00115 1.00151 0.990585
1.00043 1.00387 0.990058
1.00011 1.00183 0.992475
1.00011 1.00239 0.991916
1.00013 1.00277 0.991488
1.00007 1.00078 0.99356
1.00008 1.00179 0.992546
1.0001 1.00238 0.991853
1.00005 1.00078 0.993602
1.00008 1.00174 0.992502
1.00015 1.00274 0.991465
1.00009 1.00241 0.991919
1.00024 1.00295 0.991139
1.00016 1.0028 0.991331
1.0001 1.00241 0.991896
1.00007 1.0018 0.992551
1.00004 1.00079 0.9936
1.00008 0.99935 0.994951
1.00008 0.999339 0.994962
1.00006 0.997264 0.997442
1.00008 0.999347 0.994957
1.00004 0.997314 0.997446
1.00001 0.996149 0.998438
1.00002 0.997386 0.997438
0.999979 0.996191 0.998432
0.999941 0.996253 0.998414
1.0001 0.999025 0.99524
1 0.997299 0.997108
0.999972 0.997453 0.997027
0.999903 0.996272 0.999349
0.999938 0.997619 0.996941
0.999854 0.996435 0.999326
0.999809 0.996605 0.999298
1.00138 0.999102 0.992545
1.00146 0.999747 0.991769
1.00132 1.00043 0.991406
1.00135 1.00049 0.991291
1.00128 1.00048 0.991444
1.00131 1.00033 0.991565
1.00154 0.998981 0.992366
1.00124 1.00042 0.9916
1.00145 0.999711 0.991843
1.00157 0.998715 0.992681
1.00151 1.00034 0.99109
1.00199 0.999733 0.990754
1.00178 0.998955 0.991924
1.00027 1.00146 0.992526
1.00017 1.00224 0.991856
1.00048 1.00246 0.991134
1.0015 0.998562 0.992959
1.00114 1.00005 0.992067
1.00034 1.00165 0.992107
1.00035 1.00226 0.991566
1.00012 1.00281 0.991468
1.00005 0.99931 0.995034
1.00008 1.00093 0.993442
1.0001 1.00213 0.992203
1.00158 1.00014 0.99116
1.00007 0.99917 0.995138
1.00009 1.00031 0.993933
1.00205 0.99934 0.99107
1.00186 0.9978 0.992834
1.00024 1.0018 0.992135
1.00029 1.0029 0.991084
1.00073 1.00205 0.990952
1.00157 0.998539 0.992857
1.00008 1.00064 0.993711
1.00007 1.00204 0.992346
1.00039 1.00188 0.991831
1.00031 1.00266 0.991283
1.00017 1.0033 0.990831
1.00009 1.00279 0.991525
1.00165 1.00006 0.99111
1.0021 0.99823 0.992086
1.00208 0.99669 0.993736
1.00117 1.00063 0.991585
1.0002 1.0023 0.991718
1.00042 1.00343 0.99048
1.00009 1.00019 0.993983
1.00008 1.00046 0.993863
1.00006 1.00135 0.993182
1.00005 1.00182 0.99246
1.0001 1.00269 0.991687
1.0001 1.00341 0.990811
1.00013 1.00388 0.990409
1.00032 1.00253 0.991225
1.00014 1.00184 0.9923
1.00021 1.00222 0.991892
1.00179 0.998062 0.992822
1.00122 0.999714 0.99232
1.00029 1.00216 0.991825
1.00026 1.0021 0.991915
1.0008 1.00207 0.991055
1.00037 1.0031 0.990532
1.00013 1.00242 0.991834
1.00177 0.998398 0.992407
1.00023 1.00264 0.991418
1.00026 1.00272 0.991171
1.0021 0.99751 0.992712
1.00122 1.0015 0.99059
1.00041 1.00384 0.99003
1.00013 1.00289 0.991391
1.00245 0.996824 0.9924
1.00029 1.00293 0.991135
1.0003 1.00378 0.990385
1.00204 0.99957 0.990599
1.00051 1.00371 0.989641
1.00405 0.996752 0.990117
1.0001 1.00239 0.991917
1.00012 1.00278 0.991489
1.0002 1.00303 0.991151
1.00005 1.00078 0.9936
1.00008 1.00175 0.9925
1.00009 1.00242 0.992002
1.00015 1.00274 0.991404
1.00004 1.00079 0.9936
1.00007 1.00181 0.992499
1.00024 1.00291 0.99112
1.0001 1.00241 0.991899
1.00015 1.00281 0.991405
1.0003 1.00307 0.990822
1.00016 1.00294 0.991324
1.0001 1.00251 0.991879
1.00007 1.00185 0.992375
1.00005 1.0008 0.993435
1.00006 1.00182 0.992688
1.00006 1.00077 0.993443
1.00008 0.999362 0.994935
1.00008 0.999349 0.994952
1.00008 0.997277 0.996978
1.00008 0.999342 0.994962
1.00007 0.997282 0.997216
1.00001 0.996069 0.999338
1.00004 0.997328 0.997447
1.00001 0.996116 0.998439
0.999977 0.996158 0.998431
1.00011 0.998923 0.995307
1.0001 0.999023 0.995238
1.00003 0.997169 0.997178
1 0.997307 0.99732
0.999943 0.99614 0.999368
0.999976 0.997461 0.997023
0.999898 0.996288 0.999344
0.999849 0.996454 0.99932
1.00151 0.998937 0.992485
1.00131 1.00037 0.991496
1.00126 1.00048 0.991509
1.00124 1.00041 0.991607
1.0014 0.999737 0.991889
1.00145 0.999011 0.992584
1.00133 0.999898 0.991978
1.00351 0.995768 0.994126
1.00146 0.997493 0.993727
1.00009 1.00012 0.99417
1.00158 1.00013 0.99113
1.00207 0.999286 0.991095
1.00183 0.997948 0.992672
1.00024 1.00175 0.992162
1.00028 1.00292 0.99101
1.00073 1.0019 0.990988
1.00153 0.998553 0.992816
1.0004 1.0019 0.991876
1.00029 1.00242 0.991427
1.00017 1.00336 0.990724
1.00008 0.999171 0.995136
1.0001 1.00276 0.991549
1.00007 1.00064 0.993882
1.00007 1.00205 0.992338
1.00008 1.00031 0.993871
1.00172 1.00001 0.991013
1.00009 1.00018 0.994049
1.00008 1.00047 0.993859
1.00006 1.00135 0.993053
1.00209 0.998236 0.992106
1.00206 0.996782 0.993518
1.00024 1.00225 0.991738
1.00035 1.00336 0.990441
1.00115 1.00052 0.991624
1.00005 1.0018 0.992551
1.00011 1.0027 0.991653
1.00032 1.00258 0.991241
1.00014 1.00376 0.990517
1.0001 1.00338 0.990873
1.00193 0.999646 0.990877
1.00245 0.996151 0.993499
1.00193 0.998453 0.992326
1.00061 1.0031 0.990496
1.0001 1.00305 0.991106
1.00005 1.00115 0.993088
1.00005 1.00155 0.99273
1.00006 1.00209 0.992361
1.00008 1.00266 0.991736
1.00013 1.00309 0.991127
1.00007 1.00405 0.990375
1.00008 1.00395 0.990336
1.00013 1.00241 0.991831
1.00023 1.0026 0.99141
1.00174 0.998233 0.99255
1.00204 0.997602 0.992677
1.00129 1.00149 0.990594
1.00027 1.00271 0.991068
1.00038 1.00383 0.990002
1.00013 1.00286 0.991424
1.00244 0.996709 0.992489
1.00027 1.00288 0.99112
1.0002 1.00379 0.990398
1.00215 0.999294 0.990748
1.00052 1.00382 0.989622
1.0041 0.996823 0.990827
1.00017 1.00314 0.991082
1.00271 0.998087 0.990318
1.00018 1.00345 0.990771
0.999975 1.0047 0.989905
1.00091 1.00255 0.989569
0.996138 1.00348 0.974342
1.00001 0.998943 0.992058
1.0038 0.998151 0.989669
0.995193 0.99838 0.98871
1.00037 0.993448 0.991868
1.00011 1.00279 0.99149
1.00019 1.00302 0.99115
1.00032 1.00318 0.990692
1.00004 1.00079 0.993599
1.00007 1.00181 0.992448
1.00009 1.00241 0.991901
1.00014 1.00281 0.991479
1.00025 1.00287 0.991102
1.00011 1.00251 0.991786
1.00005 1.0008 0.993511
1.00007 1.00186 0.992437
1.00028 1.00306 0.990878
1.00016 1.00292 0.9913
1.00016 1.00295 0.991374
1.00019 1.00343 0.990749
1.00011 1.00261 0.991596
1.00007 1.00186 0.992367
1.00005 1.00078 0.993441
1.00007 1.00176 0.992636
1.00009 1.00254 0.991894
1.00007 1.00192 0.992438
1.00006 1.00182 0.992564
1.00007 1.00081 0.993527
1.00006 1.00077 0.993445
1.00009 0.999372 0.994912
1.00008 0.999358 0.994935
1.00008 0.997308 0.996965
1.00008 0.999348 0.994952
1.00008 0.997279 0.996977
1.00002 0.996056 0.999336
1.00007 0.9973 0.99699
1.00002 0.996067 0.998887
1.00001 0.996084 0.998439
1.00012 0.99886 0.99535
1.00012 0.99892 0.995307
1.00006 0.997074 0.997231
1.0001 0.999022 0.995237
1.00003 0.997165 0.99739
0.999975 0.996033 0.999384
1.00001 0.997324 0.997091
0.999936 0.996181 0.999359
0.999892 0.996308 0.999339
1.00134 0.999764 0.991935
1.00124 1.00041 0.991614
1.00134 0.999304 0.992486
1.00344 0.995662 0.994121
1.00131 0.999921 0.99193
1.00142 0.997799 0.993357
1.00159 0.99925 0.991504
0.999451 0.999556 0.988546
1.00187 0.997798 0.995395
1.0001 1.00008 0.99421
1.00009 1.00013 0.99417
1.00007 1.00105 0.993305
1.00008 1.00092 0.993403
1.00179 0.999967 0.990916
1.00209 0.99828 0.992125
1.00204 0.996857 0.9933
1.00028 1.00219 0.991759
1.00028 1.00328 0.990402
1.00113 1.00039 0.991663
1.00032 1.00262 0.991256
1.00015 1.00362 0.990624
1.00011 1.00335 0.990934
1.00007 1.00047 0.993856
1.00012 1.00272 0.99162
1.00005 1.00177 0.992643
1.0001 1.00018 0.994115
1.00006 1.00135 0.992923
1.00197 0.999532 0.991009
1.00005 1.00116 0.993214
1.00005 1.00152 0.992817
1.00006 1.00203 0.992349
1.00236 0.996253 0.993507
1.00187 0.998262 0.992356
1.00014 1.0031 0.991089
1.00057 1.00297 0.990543
1.00007 1.00268 0.991754
1.00014 1.00303 0.991169
1.00008 1.004 0.990344
1.00006 1.0041 0.990342
1.00247 0.997579 0.991508
1.00278 0.996323 0.992896
1.00123 1.00182 0.9903
1.00007 1.00404 0.990406
1.00004 1.0022 0.992163
1.00007 1.00238 0.991946
1.00008 1.00351 0.99081
0.999965 1.00482 0.989769
0.995887 1.00292 0.972464
1.00013 1.00283 0.991457
1.00025 1.00283 0.991104
1.00242 0.996575 0.992578
1.00228 0.999012 0.990897
1.00054 1.00391 0.989603
1.00009 1.0038 0.99041
1.00412 0.996789 0.991536
1.00016 1.00313 0.991105
1.00286 0.997999 0.990309
1.00016 1.00343 0.990775
0.999958 1.00463 0.989946
1.00095 1.00253 0.989652
0.995783 1.00271 0.975238
0.99995 0.99915 0.98802
1.00381 0.998012 0.989709
0.996076 0.998577 0.986177
0.999426 0.994118 0.992679
1.0001 1.00344 0.99086
0.99699 0.999387 0.98218
1.00248 0.994419 0.991195
1.00179 1.00104 0.989635
1.00006 1.00364 0.990612
0.999793 1.00505 0.990204
1.0036 0.999283 0.988569
0.995984 1.00224 0.975211
1.00012 0.998721 0.989316
0.994869 0.999238 0.988905
1.00803 0.99076 0.986948
1.00018 1.00301 0.991148
1.00031 1.0032 0.990702
1.00043 1.00346 0.990212
1.00005 1.0008 0.993587
1.00006 1.00187 0.992499
1.00011 1.00251 0.991692
1.00016 1.0029 0.991275
1.00026 1.00305 0.990934
1.00006 1.00078 0.99344
1.00015 1.0029 0.991336
1.0001 1.00261 0.991692
1.00007 1.00186 0.99244
1.0002 1.00341 0.990658
1.00012 1.00322 0.99107
1.00003 1.00434 0.990137
1.0001 1.00271 0.991591
1.00007 1.00182 0.992577
1.00007 1.00176 0.992633
1.0001 1.00254 0.991792
1.0001 1.0025 0.991805
1.00008 1.00267 0.991674
1.00014 1.00302 0.991275
1.00012 1.00271 0.991544
1.00007 1.00205 0.992291
1.00006 1.00193 0.992437
1.00008 1.00089 0.993427
1.00006 1.00182 0.99244
1.00007 1.00081 0.99346
1.00009 0.999402 0.994874
1.00006 1.00077 0.993448
1.00009 0.99937 0.994911
1.00006 0.997339 0.997412
1.00008 0.999355 0.994936
1.00007 0.997303 0.997192
1.00004 0.996066 0.998418
1.00008 0.997282 0.996977
1.00002 0.996056 0.999335
1.00003 0.996066 0.998435
1.0001 1.0001 0.994189
1.00013 0.998836 0.99536
1.00013 0.998859 0.995349
1.00007 0.997017 0.997265
1.00012 0.998917 0.995306
1.00006 0.99707 0.997232
0.999998 0.995957 0.999396
1.00002 0.997173 0.997592
0.999981 0.996067 0.998953
0.999956 0.996207 0.998493
1.00327 0.995593 0.994116
1.00127 0.999947 0.991883
1.00137 0.998085 0.992988
0.999349 0.999366 0.991287
1.00174 0.997828 0.995451
1.00166 0.999265 0.991381
1.00195 1.00008 0.992596
0.998315 1.00102 0.989722
0.995369 1.00401 0.970125
0.995532 0.999105 0.983426
0.999418 0.994107 0.991985
1.00007 1.00096 0.99326
1.00009 1.00008 0.994208
1.00009 1.00013 0.994169
1.00006 1.00105 0.993269
1.00005 1.00176 0.992703
1.00009 1.00149 0.99287
1.00008 1.00102 0.993334
1.00008 1.00094 0.993354
1.00202 0.999407 0.99114
1.00226 0.99638 0.993515
1.00182 0.998116 0.992385
1.00018 1.00316 0.991072
1.00053 1.00284 0.990591
1.00008 1.00404 0.990352
1.00005 1.00417 0.990308
1.00014 1.00297 0.991211
1.00005 1.00149 0.992903
1.00006 1.0027 0.991772
1.00006 1.00117 0.99334
1.00006 1.00197 0.992337
1.00259 0.997787 0.9914
1.00005 1.00217 0.992201
1.00007 1.00241 0.991964
1.00268 0.99623 0.992896
1.0011 1.00162 0.990369
1.00012 1.00406 0.990251
1.00009 1.00353 0.990798
0.999958 1.0048 0.989801
1.00362 0.995396 0.991187
1.00177 1.00102 0.990545
1.00027 1.00361 0.989842
1.00006 1.00501 0.989587
1.00004 1.00265 0.991719
1.00007 1.00318 0.991194
1.00002 1.00451 0.990043
0.99786 0.99843 0.983126
0.996131 1.0036 0.974674
1.00016 1.00312 0.991129
1.00013 1.0034 0.990779
1.00303 0.99801 0.9903
1.00101 1.00256 0.989736
0.999926 1.0046 0.989987
0.996216 1.00338 0.968763
0.999982 0.999037 0.993758
1.00381 0.997799 0.989739
0.995713 0.998804 0.984479
0.998316 0.994736 0.99349
1.00014 1.00338 0.990845
0.997585 0.998451 0.984044
1.00187 0.99482 0.991973
1.00178 1.00107 0.98963
1.00003 1.00386 0.990628
0.999695 1.00505 0.990304
1.00342 1.00002 0.98826
0.995153 1.00245 0.972672
1.00001 0.999431 0.993629
0.994735 0.999059 0.985497
1.0075 0.99098 0.987996
1.00041 1.0031 0.990462
1.00448 0.995596 0.989507
1.01543 0.992622 0.979919
1.00028 1.00366 0.989792
0.999811 1.00378 0.9915
1.0025 0.999506 0.994466
1 0.997294 0.998968
0.995119 1.00201 0.974771
0.995576 0.998934 0.985162
1.01499 0.986681 0.983679
1.00031 1.00323 0.990713
1.00041 1.00347 0.990192
1.00016 1.00413 0.989961
1.00006 1.00079 0.993439
1.00007 1.00186 0.992514
1.0001 1.00262 0.991789
1.00015 1.00286 0.991298
1.00021 1.00339 0.990567
1.00007 1.00181 0.992572
1.00012 1.00315 0.991114
1.0001 1.00271 0.991596
1.00003 1.00438 0.99005
0.999995 1.00493 0.989543
1.00006 1.00376 0.990684
1.0001 1.00261 0.991717
1.00007 1.00176 0.992631
1.0001 1.00254 0.991689
1.0001 1.0025 0.991803
1.00007 1.00269 0.991671
1.00015 1.00297 0.991249
1.00006 1.00284 0.991519
1.00016 1.00307 0.991166
1.0001 1.00326 0.990964
1.00016 1.00282 0.991372
1.00006 1.00234 0.991926
1.00013 1.00238 0.991789
1.00012 1.00269 0.991557
1.00011 1.00204 0.99224
1.00007 1.00205 0.992291
1.0001 1.001 0.993289
1.00006 1.00193 0.992437
1.00008 1.00089 0.993424
1.00009 0.999463 0.99481
1.00007 1.00082 0.993392
1.00009 0.999401 0.994871
1.00004 0.997385 0.9974
1.00009 0.999366 0.994911
1.00006 0.997335 0.99718
1.00003 0.996077 0.998413
1.00008 0.997294 0.996963
1.00002 0.996067 0.999332
1.00002 0.996055 0.999334
1.00011 1.00014 0.994286
1.00013 0.998859 0.995336
1.0001 1.00009 0.994188
1.00007 0.997006 0.997271
1.00013 0.998838 0.99536
1.00013 0.998857 0.995347
1.00007 0.997021 0.997264
1.00001 0.995915 0.999403
1.00005 0.99707 0.997644
1.00001 0.995966 0.998976
0.999996 0.996074 0.998538
0.996544 0.998393 0.985859
1.00322 0.99439 0.989615
0.999384 0.999151 0.993888
1.00161 0.998005 0.995506
1.00175 0.999306 0.991256
0.998282 1.00121 0.995328
1.00202 0.999681 0.992472
0.995774 1.00339 0.974388
0.995462 0.999009 0.987733
0.999064 0.994063 0.992807
0.999682 1.00071 0.995323
0.995456 1.00331 0.97572
0.994781 0.999377 0.98898
1.00666 0.990578 0.989396
1.00004 1.00184 0.992518
1.00008 1.00097 0.993309
1.00009 1.00009 0.994205
1.00005 1.00106 0.993233
1.00004 1.00167 0.992762
1.00008 1.0017 0.992674
1.00009 1.00144 0.992892
1.00008 1.00128 0.993068
1.00008 1.00104 0.993266
1.00008 1.00096 0.993306
1.00269 0.997992 0.991293
1.00262 0.996015 0.992894
1.00097 1.00141 0.990438
1.00016 1.0041 0.990097
0.999951 1.00479 0.989833
1.00009 1.00354 0.990786
1.00006 1.00244 0.991982
1.00005 1.00215 0.992239
1.00369 0.995675 0.990906
1.00003 1.00268 0.991696
1.00008 1.0032 0.991117
1.00173 1.00064 0.990506
1.00032 1.00389 0.989685
1.00007 1.00503 0.989436
1.00004 1.00454 0.989964
1.0037 0.997354 0.989395
1.00007 1.00475 0.989794
1.00001 1.0051 0.989353
1.00007 1.00262 0.991696
1.00009 1.00312 0.991209
1.00013 1.00381 0.99047
1.005 0.996738 0.985469
0.997759 0.998995 0.980729
0.99589 1.00296 0.972046
1.00019 1.00332 0.990829
1.00002 1.00405 0.990644
1.00177 1.0011 0.989625
0.999589 1.00505 0.990404
0.997267 0.998974 0.98129
0.995309 1.00199 0.979005
1 0.998895 0.989515
1.00323 1.00052 0.98802
0.994555 0.998867 0.989583
1.00226 0.995307 0.991654
1.0056 0.992615 0.988795
1.00038 1.00335 0.990429
1.00427 0.995913 0.988198
1.01551 0.992456 0.980092
1.00025 1.00381 0.98987
0.999703 1.00363 0.991494
1.00346 1.00163 0.988583
1.00017 0.997919 0.992446
0.995143 1.00232 0.975646
0.996893 0.998237 0.989215
1.01338 0.987339 0.984598
1.00015 1.00303 0.991123
1.01693 0.995697 0.977771
1.02246 0.986562 0.976989
0.998886 1.00344 0.993034
0.999282 0.997599 1.00234
0.995275 1.00101 0.977675
0.999243 0.998339 0.986483
1.01612 0.985681 0.983
1.00039 1.00348 0.990172
1.00021 1.00406 0.990056
1.0002 1.00452 0.989915
1.00007 1.00181 0.992567
1.0001 1.00271 0.9916
1.00012 1.00307 0.991158
1.00003 1.00441 0.989964
1.0001 1.00261 0.991715
1.00007 1.0037 0.990706
0.999978 1.00502 0.989498
0.999947 1.00507 0.989594
1.00009 1.0045 0.989806
1.00015 1.00326 0.991032
1.0001 1.00251 0.991801
1.00007 1.00269 0.991668
1.00016 1.00292 0.991223
1.00016 1.00304 0.991185
1.00006 1.00284 0.991527
1.00012 1.00322 0.990994
1.00011 1.00333 0.990944
1.00015 1.00349 0.990696
1.00015 1.00312 0.991093
1.00016 1.00284 0.991359
1.00008 1.00263 0.991598
1.00022 1.00225 0.991818
1.00015 1.00192 0.992344
1.00004 1.00225 0.992097
1.00014 1.00237 0.991831
1.00013 1.00186 0.992286
1.00013 1.00268 0.991569
1.00011 1.00203 0.992247
1.00012 1.00106 0.993186
1.00008 1.00206 0.992291
1.0001 1.001 0.993288
1.00009 0.999555 0.994725
1.00008 1.0009 0.993422
1.00009 0.999468 0.994807
1.00002 0.997453 0.997381
1.00009 0.999401 0.994869
1.00005 0.997385 0.997167
1 0.996137 0.998407
1.00007 0.997325 0.996951
1.00002 0.996089 0.998872
1.00001 0.996073 0.999331
1.00011 1.00028 0.994019
1.00013 0.99891 0.995294
1.00011 1.00015 0.994148
1.00007 0.997035 0.99725
1.00013 0.998861 0.995337
1.0001 1.00009 0.994187
1.00001 0.995909 0.999402
1.00007 0.997005 0.997271
1.00013 0.998839 0.995359
1.00007 0.997024 0.997264
1.00001 0.995918 0.999401
0.999996 0.995964 0.999392
1.00423 0.996306 0.987676
0.99696 0.999013 0.983522
1.01492 0.992202 0.981727
1.00226 0.994375 0.990248
0.99828 1.00161 0.989605
1.00212 0.999237 0.992339
0.995525 1.00304 0.979005
0.99548 0.999709 0.98407
0.998775 0.99406 0.993628
0.999741 1.00056 0.993
0.995105 1.00305 0.974149
0.995562 0.999084 0.984917
1.00658 0.99044 0.989923
1.00015 0.999134 0.995676
0.994656 1.00269 0.974593
0.997217 0.998177 0.988454
1.01523 0.985193 0.98524
1.00008 1.00223 0.992139
1.00005 1.00181 0.992593
1.00008 1.00098 0.993358
1.00004 1.00159 0.992821
1.0001 1.00198 0.992285
1.00009 1.00167 0.99272
1.00008 1.00139 0.992914
1.00009 1.00147 0.992945
1.00008 1.00126 0.993136
1.00008 1.00106 0.993199
1.00369 0.995966 0.990624
1.00167 1.00032 0.990469
1.00039 1.00419 0.989528
1.00008 1.00502 0.989285
1.00005 1.00456 0.989885
1.00009 1.00321 0.99104
1.00003 1.00271 0.991673
1.00007 1.00262 0.991721
1.00363 0.997412 0.989388
1.00007 1.00313 0.991251
1.00012 1.00394 0.990408
1.00008 1.00491 0.989645
1.00007 1.00505 0.989359
1.00283 0.99964 0.989179
0.99959 1.0054 0.990057
1.0002 1.00423 0.989879
1.00012 1.00294 0.991302
1.0002 1.00334 0.990749
1.01642 0.998026 0.976954
1.00499 0.996541 0.986118
0.997843 0.997992 0.9844
1.00035 1.00363 0.990396
0.999583 1.00354 0.991488
1.00026 1.00383 0.989945
1.00474 0.996382 0.987182
0.994789 1.00198 0.974493
0.999955 0.997573 0.997601
1.00448 1.00411 0.982623
0.996237 0.998802 0.985361
1.01564 0.992297 0.980265
1.01368 0.987204 0.984058
1.00017 1.00288 0.991208
1.01728 0.996051 0.976392
1.02273 0.986284 0.976831
0.999169 1.00313 0.992348
0.999468 0.998072 0.99875
0.994981 1.00173 0.975622
1.01655 0.986593 0.982256
0.998749 0.998314 0.985655
1.00008 1.00243 0.991862
1.0222 0.992234 0.972191
1.02497 0.983733 0.97721
1.01513 0.98577 0.984895
0.997108 1.00092 0.998218
0.994843 0.999203 0.980945
0.999359 1.00077 0.9827
1.00026 1.00397 0.990151
1.00018 1.00449 0.989838
0.999851 1.00481 0.989941
1.00009 1.00261 0.991713
1.00009 1.00366 0.990728
0.999967 1.0051 0.989454
1.00015 1.00323 0.991062
1.00009 1.00454 0.989802
0.99998 1.00508 0.98946
0.999872 1.00481 0.990009
1.00018 1.00382 0.990295
1.00017 1.00302 0.991204
1.00006 1.00285 0.991535
1.00013 1.00318 0.991023
1.00016 1.00346 0.990703
1.00011 1.00333 0.99092
1.00002 1.00381 0.990656
1.0001 1.00297 0.991329
1.00007 1.00356 0.990768
1.00017 1.00287 0.991346
1.00013 1.00267 0.991599
1.00025 1.00263 0.991251
1.00019 1.00207 0.992055
1.00013 1.00179 0.992461
1.00018 1.00226 0.991827
1.00016 1.00158 0.992609
1.00015 1.00193 0.992316
1.00002 1.00216 0.992269
1.00016 1.00236 0.991873
1.00013 1.00186 0.992321
1.00014 1.00103 0.993181
1.0001 1.00203 0.992254
1.00012 1.00105 0.99319
1.00008 0.999646 0.99464
1.0001 1.001 0.993286
1.00009 0.999557 0.994722
0.999993 0.99753 0.997346
1.00009 0.999471 0.994804
1.00002 0.997456 0.997143
0.99997 0.996215 0.998395
1.00005 0.997376 0.996936
0.999996 0.996147 0.998868
1 0.996114 0.999329
1.00011 1.00046 0.993661
1.00011 0.999012 0.995043
1.00011 1.00029 0.994015
1.00006 0.997094 0.997209
1.00012 0.998918 0.995206
1.0001 1.00015 0.994009
1.00001 0.995931 0.999395
1.00007 0.997031 0.997251
1.00013 0.998864 0.995338
1.00001 0.995907 0.999403
1.00007 0.997004 0.997272
1.00001 0.995921 0.999399
1.01549 0.996368 0.97831
1.00402 0.99652 0.986838
0.99714 0.999032 0.982234
1.00012 1.00168 0.992557
1.02153 0.986906 0.978354
1.01516 0.991824 0.981931
1.00203 0.994773 0.989539
0.999787 1.00001 0.99065
0.995347 1.00348 0.975805
0.996032 0.999011 0.989045
1.00567 0.991414 0.9902
1.00021 0.999134 0.99009
0.994836 1.00255 0.975784
0.997751 0.99786 0.986308
1.0139 0.987603 0.985558
1.00009 0.998163 0.989777
0.994683 1.00217 0.971489
0.999787 0.998074 0.981731
1.01612 0.986437 0.982043
1.00016 1.00247 0.991662
1.00008 1.00226 0.992087
1.00006 1.00178 0.992668
1.00011 1.00216 0.992091
1.00011 1.00194 0.992364
1.00009 1.00163 0.992765
1.00009 1.00144 0.992981
1.00009 1.00124 0.993204
1.00362 0.997436 0.989376
1.00008 1.00505 0.989496
1.00006 1.00264 0.991746
1.00014 1.005 0.989364
1.00012 1.00404 0.990346
1.00005 1.00315 0.991294
1.00012 1.00293 0.991318
1.00281 0.99977 0.989177
1.0002 1.00337 0.990709
1.00021 1.00426 0.989854
0.999575 1.00538 0.990026
1.00018 1.00298 0.991189
1.00208 1.00028 0.990705
0.999574 1.00498 0.990515
1.0003 1.00341 0.990489
1.00021 1.00328 0.99086
1.0216 0.995043 0.971266
1.01627 0.997577 0.976945
1.00496 0.996413 0.986766
1.00019 1.00269 0.991294
0.999428 1.00279 0.991658
1.01767 0.99638 0.975013
0.994797 1.00108 0.97715
1.00025 0.999178 0.991895
0.999386 0.997687 0.983895
1.02292 0.985939 0.976673
1.01703 0.987309 0.981512
1.0001 1.00269 0.991733
1.02213 0.992185 0.972223
1.02479 0.983758 0.976382
0.997158 1.00134 0.998944
1.0137 0.987939 0.985257
0.994737 0.998626 0.98061
0.999692 1.00006 0.980575
0.998879 1.00246 0.993754
1.02355 0.990046 0.972571
1.02255 0.98784 0.97569
1.00628 0.991572 0.988888
0.99993 0.997919 0.982027
0.997129 0.9973 1.00614
0.995015 0.999939 0.976366
1.00013 1.00447 0.989762
0.999927 1.00479 0.989933
0.999423 1.00527 0.98969
1.00015 1.0032 0.991092
1.00008 1.0046 0.989797
1.00001 1.0051 0.989326
1.00017 1.00383 0.990309
0.999901 1.0048 0.989935
0.999772 1.00472 0.990275
1.00017 1.00344 0.990709
1.00011 1.00332 0.990896
1.00005 1.00379 0.99065
0.999864 1.00448 0.990262
1.00004 1.00282 0.991564
1.00002 1.00353 0.990843
1.00014 1.00371 0.990539
1.00043 1.00233 0.991343
1.00017 1.0027 0.991599
1.00027 1.00271 0.991187
1.0002 1.00182 0.992386
1.00004 1.00183 0.992528
1.00019 1.00199 0.992124
1.00012 1.00145 0.992802
1.00014 1.0018 0.99245
1.00014 1.00227 0.991837
1.00015 1.00091 0.993281
1.00016 1.00158 0.992578
1.00015 1.00195 0.992287
1.00013 1.00186 0.992355
1.00014 1.00101 0.993188
1.00008 0.999705 0.994591
1.00012 1.00104 0.993195
1.00008 0.999645 0.994639
0.999972 0.997626 0.99684
1.00009 0.99956 0.994719
1 0.997539 0.996875
0.99992 0.996306 0.999315
1.00003 0.997451 0.99691
0.999966 0.996224 0.99886
0.999979 0.996173 0.999325
1.00013 1.00067 0.993417
1.0001 0.99918 0.994896
1.00012 1.00047 0.993733
1.00005 0.997186 0.99715
1.00011 0.999027 0.995027
1.00012 1.00029 0.994011
0.999998 0.995977 0.999385
1.00006 0.997088 0.997211
1.00012 0.998927 0.995119
1.00001 0.995927 0.999398
1.00007 0.997026 0.997252
1.00001 0.995905 0.999403
1.02122 0.992844 0.973309
1.0156 0.995901 0.978371
1.00434 0.996269 0.986606
1.00012 1.00168 0.99259
1.00017 1.00177 0.992312
1.00012 1.00234 0.992
1.02384 0.983275 0.979169
1.02187 0.986749 0.978161
1.01541 0.991502 0.982136
1.00031 0.999058 0.995072
0.995151 1.00284 0.974537
0.996621 0.998689 0.984496
1.01396 0.988837 0.985148
1.00006 0.99858 0.994513
0.99469 1.00149 0.976393
0.998955 0.998679 0.98592
1.01647 0.987323 0.981668
0.999269 0.996141 0.997479
0.994673 1.0007 0.978807
1.00065 1.00067 0.980272
1.01429 0.986227 0.98506
1.00017 1.00274 0.991435
1.00015 1.00249 0.991662
1.00008 1.00229 0.992036
1.00011 1.00217 0.992086
1.00011 1.00191 0.992444
1.0001 1.00141 0.993018
1.00279 0.999936 0.989174
0.999581 1.00536 0.989996
1.00012 1.00292 0.991333
1.00022 1.00429 0.989828
1.0002 1.00342 0.990668
1.00017 1.00296 0.991204
1.00022 1.00325 0.990811
1.00208 0.999931 0.990553
1.00033 1.00336 0.990559
0.999544 1.00495 0.990659
1.00019 1.00328 0.990703
1.00008 1.00298 0.992239
0.999874 1.00255 0.991896
1.00025 1.00349 0.99051
1.02287 0.992343 0.971314
1.02141 0.994483 0.971249
1.01609 0.997085 0.976936
1.00012 1.00294 0.991607
0.99735 0.99905 1.00028
1.02206 0.992141 0.972254
0.995176 0.999435 0.98994
1.00087 1.0005 0.982797
1.02462 0.98391 0.975555
1.01384 0.988932 0.984951
0.999321 1.00245 0.993388
1.02341 0.990239 0.97218
1.02295 0.98758 0.97554
0.996988 0.997864 0.998721
1.00636 0.991445 0.989363
0.998635 0.999847 0.985277
0.994714 0.999964 0.980564
0.999447 1.00268 0.996264
1.02195 0.993679 0.971237
1.01569 0.992736 0.979893
0.999073 0.994941 0.991445
0.996898 0.998415 0.98858
0.994766 1.00076 0.978744
0.998413 0.995152 0.997373
1.00003 1.00478 0.989925
0.999475 1.0053 0.989746
0.99915 1.00561 0.990035
1.00016 1.00384 0.990323
0.999933 1.00479 0.989861
0.999753 1.00474 0.99025
0.99967 1.00525 0.989857
1.00009 1.00377 0.990643
0.999936 1.00454 0.990183
1.00002 1.00498 0.989615
0.999964 1.00349 0.990918
1.00015 1.00379 0.990457
1.00045 1.00341 0.990358
1.00051 1.00241 0.991192
1.00026 1.00179 0.992052
1.0004 1.00241 0.991261
1.00029 1.00278 0.991123
1.00017 1.00155 0.992695
1.00017 1.00171 0.992461
1.00003 1.00152 0.992845
1.00005 1.00181 0.992578
1.00019 1.00192 0.992192
1.00011 1.00084 0.993411
1.00013 1.00144 0.992806
1.00014 1.00181 0.992439
1.00006 0.99972 0.994601
1.00015 1.00089 0.993287
1.00017 1.00157 0.992546
1.00014 1.00099 0.993194
1.00008 0.9997 0.994593
0.999944 0.997713 0.996807
1.00008 0.999645 0.994639
0.999973 0.997632 0.996837
0.999893 0.99643 0.999306
1 0.997542 0.996874
0.99993 0.996321 0.998847
0.999951 0.996252 0.999318
1.00014 1.00084 0.993347
1.00008 0.999351 0.994927
1.00012 1.00068 0.993477
1.00002 0.997312 0.997073
1.0001 0.999184 0.994978
1.00013 1.00048 0.993806
0.999977 0.996053 0.99937
1.00005 0.997177 0.997154
1.00011 0.999041 0.995012
1 0.995973 0.999388
1.00006 0.997081 0.997213
1.00001 0.995923 0.9994
1.02268 0.98956 0.974445
1.02127 0.992731 0.973386
1.01573 0.995475 0.978431
1.0002 1.00172 0.992315
1.00023 1.00197 0.992098
1.00012 1.00167 0.992624
1.00017 1.00178 0.992299
1.00013 1.00235 0.99192
1.00018 1.00237 0.991803
1.00014 1.00271 0.991523
1.02113 0.98718 0.97851
1.02358 0.983531 0.978498
1.0222 0.986539 0.977968
1.01683 0.988124 0.981293
1.0002 0.998551 0.989778
0.994577 1.00159 0.980567
0.999291 0.998752 0.982137
0.999023 0.997074 0.994367
0.994804 0.999553 0.976027
1.00006 1.00007 0.97957
1.01325 0.98684 0.985304
0.99734 0.997367 0.998721
0.995577 0.999647 0.974531
1.00083 0.997815 0.985068
1.00758 0.99115 0.987249
1.00021 1.00296 0.991133
1.00017 1.00276 0.991417
1.00015 1.00251 0.991661
1.00012 1.00219 0.99208
1.00213 0.999936 0.990399
0.99947 1.00494 0.990804
1.00017 1.00294 0.991219
1.00022 1.00324 0.990763
1.00036 1.00329 0.990628
1.00019 1.00331 0.990741
1.00028 1.00346 0.990464
0.999649 1.003 0.993487
0.999849 1.00242 0.992154
1.00024 1.00395 0.990177
0.997748 1.00451 0.997256
1.00016 1.00421 0.98999
1.02131 0.996237 0.970478
1.02273 0.992055 0.971286
1.02122 0.993938 0.971232
0.999724 1.00248 0.993025
0.996889 0.996987 1.00552
1.02322 0.990434 0.971788
0.994993 0.999918 0.975786
0.998518 0.999976 0.982284
1.02334 0.987237 0.975389
1.00517 0.992363 0.98982
0.999249 1.00277 0.996012
1.022 0.993648 0.971287
1.01589 0.992491 0.98011
0.998348 0.994929 1.00476
0.998707 0.994895 0.99242
0.997368 0.998628 0.986177
0.994681 1.00095 0.9782
1.00045 1.00098 0.996032
1.01623 0.996972 0.976527
1.00361 0.99464 0.988765
0.994476 0.999944 0.988596
0.994674 1.00257 0.976558
0.999127 0.995104 0.992821
0.99953 1.00531 0.989802
0.999176 1.00564 0.990011
0.999615 1.00537 0.989707
0.999734 1.00478 0.990225
0.999598 1.00528 0.989918
1.00008 1.0051 0.989283
1.00002 1.00459 0.990103
1.00006 1.00497 0.989487
1.00046 1.00428 0.989458
1.00017 1.0039 0.990375
1.00047 1.00346 0.990253
1.00059 1.00278 0.99062
1.00068 1.00177 0.991388
1.00048 1.0019 0.991776
1.0005 1.00242 0.991156
1.00019 1.00145 0.992533
1.00026 1.00181 0.992111
1.00038 1.00249 0.991178
1.00013 1.00141 0.992867
1.00016 1.00155 0.992668
1.00015 1.00161 0.992536
1.00005 1.00092 0.993438
1.00004 1.0015 0.992869
1.00007 1.00179 0.992628
1.00003 0.99973 0.994655
1.00012 1.00082 0.993415
1.00014 1.00142 0.99281
0.999922 0.997797 0.996793
1.00006 0.999715 0.994606
1.00016 1.00087 0.993293
1.00008 0.999695 0.994595
0.999944 0.99772 0.996806
0.99986 0.996532 0.999298
0.999974 0.997639 0.996835
0.99989 0.996433 0.999304
0.99992 0.996341 0.99931
1.0002 1.00169 0.992392
1.00017 1.00095 0.993189
1.00007 0.999542 0.994763
1.00014 1.00085 0.993344
0.999995 0.997463 0.996979
1.00008 0.999349 0.994931
1.00012 1.00069 0.993536
0.999949 0.99616 0.999351
1.00002 0.997302 0.997077
1.0001 0.99919 0.99506
0.999981 0.996044 0.999375
1.00004 0.997168 0.997157
1 0.995968 0.999391
1.02117 0.993606 0.972444
1.02265 0.98979 0.973832
1.02132 0.992631 0.973464
1.00019 1.00174 0.992343
1.00023 1.00198 0.992067
1.00022 1.0019 0.99214
1.00022 1.00207 0.991941
1.00023 1.00216 0.991922
1.00016 1.0018 0.992287
1.00013 1.00236 0.99184
1.00018 1.00235 0.99181
1.00015 1.00269 0.991511
1.00017 1.00267 0.991527
1.01422 0.994959 0.979701
1.02135 0.987103 0.97826
1.02338 0.983812 0.977827
1.01333 0.98649 0.984792
1.00204 0.999613 0.981417
0.998837 0.99693 0.992269
0.994647 0.999496 0.978919
0.996805 0.997852 0.993811
0.994685 0.999943 0.978184
0.9999 0.997816 0.984372
1.00711 0.99154 0.988118
0.995332 1.00054 0.994275
0.994801 1.00006 0.978681
0.996669 0.998666 0.984768
1.00035 0.993695 0.992483
1.00011 1.00291 0.991354
1.00019 1.003 0.991146
1.00017 1.00279 0.991399
0.999272 1.00267 0.994737
0.999804 1.00228 0.992411
1.00019 1.00333 0.99078
1.00031 1.00344 0.990417
1.0002 1.00395 0.990214
1.00001 1.00431 0.989913
0.99753 1.00407 0.997258
0.999752 1.00476 0.989864
0.998662 1.00536 0.994149
1.01621 0.999206 0.97626
1.02113 0.995634 0.970541
1.02263 0.991814 0.971257
0.998946 1.00277 0.995792
0.9983 0.994987 0.996118
1.02205 0.993602 0.971336
0.994769 1.00067 0.97227
0.996163 0.998909 0.985015
1.01611 0.992206 0.980328
0.99839 0.994842 0.993395
1.00042 1.00107 0.996186
1.01634 0.996583 0.976555
1.00257 0.994597 0.989494
0.999313 0.994814 0.996407
0.995207 0.999789 0.984958
0.994623 1.00223 0.973196
1.00166 0.999659 0.993813
1.00478 0.996538 0.986592
0.995694 0.998868 0.983319
0.994675 1.00284 0.974623
0.999975 0.997444 0.993565
0.999203 1.00567 0.989987
0.999538 1.00541 0.989693
1.00028 1.00473 0.989613
0.999533 1.0053 0.98998
1.00001 1.00508 0.989346
1.0008 1.00326 0.989654
1.00011 1.00499 0.98936
1.00045 1.0041 0.989504
1.00088 1.00209 0.99086
1.00048 1.00347 0.990148
1.00061 1.00261 0.990682
1.00086 1.00114 0.991669
1.00094 1.00067 0.991942
1.00061 1.0016 0.991663
1.0007 1.00167 0.991418
1.00035 1.00157 0.992259
1.00044 1.00194 0.991686
1.00048 1.00242 0.99112
1.00017 1.00122 0.992914
1.0002 1.00143 0.992591
1.00027 1.00182 0.99217
1.00004 1.00101 0.993387
1.00011 1.0014 0.992864
1.00014 1.00156 0.992642
0.99997 0.999822 0.99467
1.00006 1.00091 0.993437
1.00005 1.00148 0.992892
0.999868 0.997854 0.997284
1.00003 0.999731 0.994657
1.00013 1.00081 0.993419
0.999838 0.996623 0.998332
0.99991 0.997798 0.997035
1.00006 0.999709 0.994611
0.999943 0.997726 0.996805
0.999856 0.99653 0.999296
0.999887 0.996437 0.999301
1.0002 1.00165 0.992404
1.00018 1.00101 0.99311
1.0002 1.0017 0.992372
1.00006 0.999694 0.994615
1.00016 1.00096 0.993185
0.999962 0.997624 0.996881
1.00007 0.999535 0.994766
1.00014 1.00085 0.993342
0.999914 0.996291 0.999328
0.999992 0.997453 0.996984
1.00008 0.999346 0.994935
0.999953 0.996148 0.999357
1.00002 0.997292 0.997081
0.999984 0.996037 0.999379
1.01632 0.998829 0.974189
1.02112 0.993559 0.972526
1.02256 0.990004 0.973219
1.00022 1.00179 0.992275
1.00018 1.00176 0.992371
1.00022 1.00198 0.992036
1.00022 1.00209 0.991982
1.00022 1.0019 0.992172
1.00023 1.00211 0.99194
1.00024 1.0021 0.991917
1.00019 1.00231 0.991768
1.00018 1.00234 0.991818
1.00015 1.00267 0.991498
1.00017 1.00266 0.991529
1.00024 1.0027 0.991524
1.00183 0.994932 0.992145
1.01417 0.995042 0.979952
1.0216 0.987038 0.978009
1.00591 0.993459 0.988448
0.999636 0.997012 0.982834
0.995477 0.999657 0.9746
0.996108 0.997637 1.00219
0.995063 1.00051 1.00067
0.999345 0.99438 0.992919
0.994974 1.0001 0.974057
0.997224 0.997859 0.988325
0.996139 1.00072 0.99897
0.994822 1.0009 0.978272
0.994526 0.998944 0.98961
0.999882 1.00288 0.991834
1.00017 1.00284 0.991364
1.00016 1.00304 0.99116
0.997334 1.00363 0.997267
0.99993 1.00437 0.989835
1.00015 1.00397 0.99025
0.999812 1.00481 0.98992
0.998609 1.00527 0.994161
0.999408 1.00272 0.993571
1.00444 0.996377 0.988861
1.01609 0.999221 0.974609
1.02094 0.995023 0.970604
1.00039 1.00125 0.996349
0.999303 0.995342 0.998483
1.01646 0.99622 0.976582
0.994568 1.00123 0.980576
0.995909 0.999609 0.988846
1.00236 0.994875 0.988952
1.00164 0.999562 0.99409
1.00456 0.996602 0.985918
0.995494 0.999002 0.987712
0.999992 0.997339 0.989832
0.99478 1.00261 0.975752
1.00293 0.999312 0.989915
0.996998 0.997534 0.985792
0.995424 1.00334 0.97564
1.00007 0.998364 0.989554
0.999474 1.00548 0.98968
1.00009 1.00463 0.98954
1.00086 1.00217 0.990413
0.999932 1.00506 0.989408
1.00084 1.00309 0.989683
1.0016 0.999535 0.991984
1.00042 1.00386 0.98955
1.00087 1.00177 0.99094
1.00124 0.999352 0.992721
1.00063 1.00244 0.990745
1.00089 1.00097 0.991701
1.00116 0.999458 0.992693
1.00103 0.999784 0.992634
1.00084 1.00085 0.991985
1.00093 1.0006 0.992003
1.00048 1.00135 0.992068
1.00061 1.00157 0.991727
1.00072 1.00155 0.991448
1.00022 1.00124 0.992798
1.00031 1.00158 0.992251
1.0004 1.00198 0.991596
1.00006 1.00099 0.99337
1.00018 1.00123 0.992909
1.0002 1.00143 0.99265
0.999916 1.00002 0.994597
1.00005 1.00099 0.993392
1.00009 1.0014 0.99286
0.999819 0.997952 0.996816
0.999975 0.99983 0.994668
1.00007 1.00091 0.993437
0.999765 0.996691 0.999297
0.999871 0.997856 0.996807
1.00003 0.999732 0.99466
0.999822 0.996624 0.999292
0.999909 0.9978 0.996797
0.999852 0.996527 0.999294
1.00018 1.00162 0.992561
1.00019 1.00167 0.992425
1.00017 1.00106 0.993082
1.00006 0.999805 0.994511
1.00017 1.00102 0.993106
1.0002 1.00171 0.992352
0.999932 0.997765 0.996794
1.00007 0.999689 0.994617
1.00016 1.00097 0.99318
0.999878 0.996432 0.999306
0.99996 0.99761 0.996886
1.00008 0.999527 0.99477
0.999919 0.996276 0.999335
0.999989 0.997441 0.996989
0.999957 0.996134 0.999363
1.00388 0.995179 0.990903
1.01638 0.998857 0.974235
1.02107 0.993521 0.972609
1.00022 1.0018 0.992247
1.00018 1.00174 0.992445
1.00026 1.00187 0.992101
1.00021 1.00211 0.992024
1.00022 1.00191 0.992205
1.00023 1.00206 0.991958
1.0002 1.0023 0.991785
1.00024 1.00208 0.991943
1.00014 1.00246 0.991754
1.00021 1.00244 0.991692
1.00016 1.00265 0.991532
1.00019 1.00266 0.991536
0.994699 0.998848 0.989012
1.00117 0.994624 0.993101
1.01418 0.995107 0.980203
0.998493 0.995018 0.993357
0.996944 0.998206 0.984938
0.994716 1.00028 0.982217
0.994795 1.00068 0.994409
0.996099 1.00086 0.99282
0.994805 0.998827 0.98565
0.994879 1.00073 0.979353
0.997747 0.998569 0.992153
0.994848 1.00151 0.976462
0.999788 1.00405 0.991444
0.999963 1.00269 0.991853
1.00024 1.00278 0.991374
0.998436 1.00523 0.994185
0.999864 1.00485 0.989977
1.00002 1.00254 0.993648
1.00113 1.00015 0.993667
0.997982 0.997708 0.983664
1.00462 0.996482 0.987804
1.01597 0.999186 0.972958
1.00179 0.999449 0.994336
0.99999 0.997437 0.995711
1.00493 0.996457 0.98562
0.995024 1.0027 0.974539
0.995712 0.999705 0.984002
1.00286 0.999346 0.990769
0.99747 0.998398 0.983269
0.995174 1.00284 0.974127
1.00006 0.998406 0.994405
1.00315 0.998926 0.989276
0.995642 1.00323 0.970122
1.00005 0.998739 0.996103
0.999875 1.00451 0.989466
1.00073 1.00254 0.990351
1.00201 0.997845 0.992356
1.00088 1.00295 0.989712
1.00157 0.999314 0.991993
1.00188 0.996588 0.994291
1.00087 1.00149 0.991019
1.00128 0.999154 0.992728
1.00155 0.997593 0.993779
1.00091 1.00081 0.991734
1.00116 0.999433 0.992688
1.00124 0.998721 0.993222
1.0011 0.99938 0.992972
1.00104 0.999708 0.992706
1.00094 1.0001 0.992524
1.00074 1.00083 0.992202
1.00083 1.00087 0.992
1.00092 1.00054 0.992064
1.00037 1.00112 0.992521
1.00049 1.00137 0.992131
1.0006 1.00154 0.991792
1.00009 1.00099 0.993302
1.00023 1.00125 0.992791
1.00027 1.00158 0.992242
0.999884 1.0002 0.994478
1.00007 1.00097 0.993376
1.00019 1.00123 0.992903
0.999749 0.998124 0.996784
0.999922 1.00001 0.994599
1.00006 1.00098 0.993398
0.999723 0.996827 0.999295
0.999819 0.997963 0.996815
0.999979 0.999838 0.994666
0.999774 0.996696 0.998815
0.999871 0.997868 0.996809
0.999812 0.996612 0.999292
1.00015 1.00157 0.99267
1.00018 1.00161 0.992509
1.00014 1.00112 0.993078
1.00019 1.00168 0.992446
1.00016 1.00107 0.993078
1.00005 0.999903 0.994446
0.999904 0.997878 0.996733
1.00007 0.999797 0.994511
1.00017 1.00103 0.993102
0.999841 0.996564 0.999287
0.99993 0.997754 0.996798
1.00007 0.999686 0.994618
0.999882 0.996418 0.999313
0.999958 0.997599 0.996892
0.999924 0.996261 0.999342
0.996892 0.99855 0.983155
1.00357 0.995379 0.99088
1.01639 0.998883 0.97428
1.00023 1.0018 0.992219
1.00025 1.00188 0.992102
1.00017 1.00173 0.992467
1.00013 1.00175 0.992535
1.00019 1.00193 0.992213
1.00021 1.00229 0.991802
1.00024 1.00206 0.991968
1.00013 1.00244 0.991766
1.00006 1.00206 0.992131
1.0001 1.00254 0.991672
1.0002 1.00291 0.991591
1.00016 1.0026 0.991623
1.00014 1.00263 0.991547
0.995544 1.00228 0.971557
0.995239 0.999562 0.986684
1.00114 0.994794 0.992451
0.994879 0.998218 0.98971
0.994835 1.0013 0.97245
0.996123 1.00082 0.99911
0.998142 0.998725 0.994857
0.994889 1.00083 0.977951
1.00062 0.997674 0.992491
1.00096 1.00343 0.989433
0.999701 1.00391 0.991336
1.00003 1.00253 0.991871
1.00064 1.00219 0.993709
1.0011 0.998808 0.994104
0.996132 1.00159 0.973136
0.997862 0.998024 0.981502
1.0048 0.996656 0.986748
1.00282 0.999297 0.991645
1.00016 0.998546 0.989614
0.997665 0.998316 0.98185
0.995343 1.00312 0.975929
1.00318 0.999059 0.989238
0.996158 1.00265 0.974357
1.00007 0.998777 0.990421
1.00365 0.996811 0.99012
0.999751 1.00041 0.995671
1.00062 1.00299 0.990287
1.00206 0.997996 0.992308
1.00262 0.995274 0.993994
1.00151 0.999078 0.992002
1.00178 0.996558 0.994266
1.00192 0.99597 0.994598
1.00132 0.998922 0.992734
1.00152 0.997642 0.993725
1.00151 0.997721 0.993673
1.00116 0.999412 0.992683
1.00124 0.998782 0.993181
1.00123 0.998893 0.993107
1.00106 0.999305 0.993048
1.00104 0.999731 0.992741
1.00104 0.99963 0.992777
1.00094 1.0001 0.992511
1.00089 1.0003 0.992427
1.00059 1.00079 0.992436
1.00074 1.00085 0.992188
1.00081 1.00089 0.992015
1.0002 1.00094 0.993134
1.00036 1.00115 0.992559
1.00049 1.00139 0.992193
0.999862 1.00041 0.994321
1.0001 1.00098 0.993301
1.00024 1.00125 0.992784
0.99968 0.998335 0.996705
0.999897 1.00018 0.994482
1.00008 1.00095 0.993381
0.99965 0.996977 0.999291
0.999751 0.998139 0.99678
0.999928 1 0.9946
0.99971 0.99682 0.999294
0.99982 0.997975 0.996814
0.999761 0.996697 0.999294
1.0001 1.00162 0.992661
1.00014 1.00157 0.992673
1.00009 1.00119 0.993039
1.00018 1.00161 0.992457
1.00013 1.00113 0.99304
1.00001 1.00003 0.994395
1.00016 1.00108 0.993075
1.00005 0.999895 0.994446
0.999871 0.99798 0.996695
0.999802 0.996675 0.999275
0.999904 0.997865 0.996736
1.00007 0.999787 0.994511
0.999845 0.996558 0.999293
0.999929 0.997743 0.996803
0.999886 0.996404 0.999319
0.995909 1.0027 0.975711
0.996972 0.998463 0.985342
1.00379 0.995076 0.991368
1.00024 1.00189 0.992102
1.00015 1.00172 0.992489
1.00019 1.00193 0.992225
1.00013 1.00175 0.992536
1.00007 1.00187 0.99252
1.00009 1.0019 0.992363
1.00012 1.00241 0.991777
1.00009 1.00212 0.992114
1.00004 1.00264 0.991696
1.00008 1.00199 0.992148
1.00052 1.00243 0.991716
1.00093 1.00299 0.989757
1.00019 1.00263 0.991534
1.00012 1.00275 0.991554
0.999834 0.9998 0.994754
0.994882 1.00256 0.975793
0.995158 0.999191 0.9842
0.994707 1.00186 0.976355
0.998531 0.998586 0.998046
1.00046 0.998066 0.99544
1.00383 0.998683 0.989436
1.00072 1.0028 0.989708
0.999608 1.00372 0.991226
1.00104 0.997672 0.994544
0.998331 1.00216 0.989178
0.996318 1.00233 0.975447
0.997795 0.997274 0.985084
1.00321 0.999231 0.989204
1.00015 0.998728 0.995343
0.995914 1.0021 0.978864
1.00357 0.996812 0.990131
0.999791 1.00032 0.993199
1.00346 0.995154 0.991973
1.00213 1.00011 0.991637
1.00205 0.998165 0.992262
1.00256 0.995271 0.994023
1.00219 0.996126 0.99399
1.0017 0.996567 0.99424
1.00188 0.996164 0.994544
1.00181 0.997342 0.993462
1.00149 0.997719 0.993671
1.00149 0.997857 0.993621
1.00149 0.99865 0.992857
1.00125 0.998846 0.99314
1.00119 0.998961 0.99312
1.00113 0.999586 0.992626
1.00103 0.999239 0.993125
1.00102 0.999659 0.992789
1.00099 1.00007 0.992497
1.00095 1.0001 0.992497
1.00089 1.00031 0.992414
1.00077 1.00044 0.992541
1.00037 1.00072 0.992912
1.00058 1.00082 0.992472
1.00073 1.00087 0.992174
0.999879 1.00059 0.994107
1.0002 1.00094 0.993136
1.00035 1.00118 0.992596
0.999608 0.998576 0.996595
0.999884 1.00037 0.994321
1.00012 1.00097 0.9933
0.999574 0.997175 0.999275
0.999683 0.998353 0.9967
0.999909 1.00016 0.994485
0.999636 0.996983 0.999286
0.999753 0.998153 0.996776
0.999696 0.996815 0.999294
1.00008 1.00169 0.992662
1.00011 1.00162 0.992698
1.00003 1.00131 0.993049
1.00013 1.00157 0.992676
1.00008 1.00121 0.993041
0.99996 1.0002 0.994332
1.00012 1.00114 0.993001
1.00001 1.00003 0.994393
0.999824 0.998114 0.996658
1.00005 0.999887 0.994445
0.999873 0.997965 0.996697
0.999756 0.99678 0.999267
0.999808 0.996678 0.999278
0.999906 0.997851 0.996738
0.999848 0.996549 0.999298
0.999181 1.00014 0.993459
0.995605 1.00222 0.973803
0.996764 0.998929 0.982244
1.00018 1.00181 0.992389
1.00019 1.00194 0.992238
1.00012 1.00174 0.992536
1.0001 1.00193 0.992364
1.00006 1.0019 0.992506
1.00001 1.00173 0.992636
1.00012 1.0022 0.992098
1.00001 1.00276 0.991719
1.00013 1.00203 0.99219
1.00031 1.00232 0.991871
1.00083 1.00197 0.990917
1.00238 1.00155 0.988201
1.00084 1.00288 0.989873
1.0002 1.00239 0.991477
1.0039 0.997734 0.988607
0.999721 0.999884 0.992517
0.994914 1.00229 0.979818
1.00034 0.998388 0.990351
1.00373 0.999375 0.988022
1.00053 1.00208 0.989989
1.00173 1.00062 0.993526
0.998356 1.00202 0.994297
0.99611 1.00151 0.973201
1.00365 0.996856 0.990135
0.999815 0.999852 0.990732
1.00344 0.995471 0.991727
1.00212 0.999762 0.992116
1.00251 0.997246 0.991357
1.00159 0.99967 0.990583
1.00254 0.995203 0.994053
1.00213 0.996202 0.99401
1.00184 0.998248 0.992636
1.00186 0.996352 0.994489
1.00179 0.997496 0.993428
1.0017 0.99878 0.992316
1.00147 0.997995 0.99357
1.00142 0.998718 0.992923
1.00136 0.999594 0.992149
1.00115 0.999027 0.993133
1.00112 0.999594 0.992629
1.00107 1.00002 0.992319
1.001 0.999585 0.992838
1.00098 1.00001 0.992517
1.00087 1.00026 0.992472
1.00089 1.00032 0.992401
1.00076 1.00043 0.992508
1.00056 1.0005 0.992873
0.999963 1.00062 0.993903
1.00036 1.00075 0.992955
1.00057 1.00085 0.992508
0.999546 0.998854 0.996427
0.9999 1.00055 0.994109
1.0002 1.00095 0.993137
0.999495 0.997401 0.999252
0.999614 0.9986 0.996588
0.999905 1.00033 0.994322
0.999559 0.997187 0.999268
0.999685 0.998371 0.996695
0.999622 0.996989 0.999282
1.00013 1.00165 0.992544
1.00008 1.00167 0.992666
1.00003 1.00138 0.993064
1.00012 1.00162 0.992736
1.00003 1.00132 0.993076
0.999901 1.00042 0.994239
1.00007 1.00123 0.993044
0.999955 1.00021 0.994329
0.999759 0.998302 0.996605
1.00001 1.00003 0.994391
0.999826 0.998098 0.99666
0.999695 0.996912 0.999258
0.999876 0.99795 0.996699
0.999765 0.996788 0.999269
0.999813 0.996683 0.999282
1.00279 0.997148 0.991712
0.999102 1.00082 0.989259
0.995976 1.00218 0.975509
1.00017 1.00156 0.992513
1.00054 1.00153 0.991977
1.00009 1.00182 0.99242
1.00012 1.00195 0.992364
1.00005 1.00192 0.992492
1.00007 1.00174 0.992609
1.00084 1.00149 0.991337
1.00018 1.00208 0.992232
1.00008 1.00222 0.992025
1.00079 1.00199 0.990893
1.00199 1.00108 0.989272
1.00278 0.998804 0.990107
1.00238 1.00141 0.988382
1.00075 1.00273 0.98999
1.00386 0.997719 0.988725
0.999574 1.0003 0.989927
1.00371 1.00015 0.986599
1.00122 0.999324 0.992503
1.00167 1.00004 0.99363
0.998422 1.00182 0.988877
1.00331 0.995779 0.99148
1.00214 0.999353 0.992584
1.00259 0.997343 0.991528
1.0017 0.999823 0.990874
1.0018 0.999644 0.991274
1.00134 0.999664 0.992226
1.00205 0.996228 0.994031
1.00181 0.998211 0.992676
1.00177 0.999465 0.991516
1.00177 0.997601 0.993393
1.00167 0.998831 0.992324
1.00159 0.999587 0.991635
1.00135 0.998776 0.992988
1.00136 0.999599 0.992149
1.00127 1.00004 0.991894
1.00111 0.999602 0.992631
1.00107 1.00002 0.992317
1.00096 1.00026 0.992293
1.00097 0.999953 0.992538
1.00087 1.00024 0.992474
1.00066 1.00038 0.992784
1.00076 1.00043 0.992474
1.00054 1.0005 0.992852
1.00008 1.00052 0.993763
0.999524 0.999121 0.996231
0.999976 1.00059 0.993908
1.00035 1.00077 0.992998
0.99942 0.997646 0.999218
0.999555 0.998879 0.996419
0.999921 1.00051 0.99411
0.999482 0.997414 0.999243
0.999618 0.998623 0.996582
0.999545 0.997198 0.999262
1.00026 1.00158 0.992216
1.00012 1.00164 0.992505
1.0001 1.00133 0.992977
1.00008 1.00165 0.992669
1.00002 1.00138 0.993061
0.999861 1.00063 0.994117
1.00002 1.00134 0.993102
0.999891 1.00043 0.994236
0.999678 0.998546 0.996528
0.99995 1.00022 0.994326
0.99976 0.998284 0.996608
0.999618 0.99709 0.999244
0.999829 0.998081 0.996662
0.999709 0.996915 0.999261
0.999773 0.996797 0.999271
1.0021 0.997987 0.992358
1.00282 0.997565 0.992232
0.999063 1.00139 0.994854
1.00091 1.00119 0.991714
1.00009 1.00154 0.992704
1.00088 1.00118 0.991239
1.00054 1.00154 0.991942
1 1.00184 0.992451
1.00185 1.00071 0.990116
1.00014 1.00175 0.992581
1.00086 1.0014 0.991358
1.00257 0.999092 0.990102
1.00077 1.002 0.99087
1.00213 1.00108 0.989099
1.00282 0.998726 0.990038
1.00236 1.00126 0.988563
1.00374 0.997719 0.988842
1.00125 0.999171 0.99298
1.00116 0.999104 0.992506
1.0016 0.99946 0.993739
1.00265 0.997454 0.9917
1.00181 0.999992 0.991164
1.00192 0.999495 0.991255
1.00134 0.999675 0.992244
1.00136 0.999815 0.991971
1.00178 0.998221 0.992715
1.00178 0.999373 0.991565
1.00169 0.999795 0.991326
1.00163 0.998892 0.992332
1.00159 0.999641 0.991615
1.00149 1.00003 0.99145
1.00135 0.999604 0.992149
1.00127 1.00003 0.991886
1.00113 1.00026 0.991956
1.00107 1.00002 0.992316
1.00096 1.00026 0.992291
1.00075 1.00037 0.992599
1.00086 1.00022 0.992476
1.00065 1.00038 0.992785
1.00018 1.00043 0.993642
1.00052 1.00049 0.992832
1.00008 1.00051 0.993769
0.999511 0.999356 0.99659
0.999371 0.997973 0.997994
0.999532 0.999131 0.9965
0.999988 1.00055 0.993914
0.999409 0.997664 0.999203
0.999564 0.998904 0.996412
0.999468 0.997427 0.999234
1.00116 1.00064 0.991414
1.00048 1.00147 0.991879
1.00031 1.00157 0.992171
1.00021 1.00126 0.992841
1.00012 1.00162 0.992465
1.00009 1.00133 0.992981
0.999851 1.00077 0.994
1.00001 1.00139 0.993059
0.999845 1.00065 0.994116
0.999592 0.998822 0.996431
0.99988 1.00045 0.994234
0.999677 0.998526 0.996532
0.999526 0.997315 0.999224
0.999761 0.998266 0.99661
0.999635 0.997084 0.999248
0.999722 0.996919 0.999264
1.00201 0.998515 0.991975
1.00205 0.99803 0.992195
1.00287 0.998026 0.992751
1.00168 1.00054 0.990583
1.00076 1.0012 0.991909
1 1.00151 0.992896
1.001 1.00112 0.991335
1.00054 1.00154 0.991907
1.00237 0.999632 0.990033
1.00186 1.00076 0.990008
1.00088 1.00133 0.991379
1.00264 0.999086 0.990054
1.00228 1.00106 0.988925
1.00286 0.998654 0.989968
1.00098 0.999602 0.99275
1.0012 0.9992 0.992932
1.00109 0.998864 0.992509
1.00205 0.999349 0.991237
1.00133 0.999681 0.992262
1.00139 0.999786 0.991972
1.00127 1.00005 0.991875
1.00179 0.999275 0.991614
1.00172 0.999742 0.991299
1.00156 0.99991 0.991419
1.0016 0.999692 0.991594
1.0015 1.00003 0.991441
1.00132 1.00023 0.991595
1.00128 1.00003 0.991877
1.00113 1.00026 0.991948
1.00089 1.00037 0.992321
1.00097 1.00026 0.992289
1.00075 1.00036 0.992597
1.00028 1.00041 0.993466
1.00065 1.00038 0.992787
1.00018 1.00043 0.993646
0.9995 0.999589 0.996397
1.00008 1.00049 0.993775
0.999523 0.999363 0.996559
0.999285 0.998332 0.997823
0.999354 0.997948 0.998573
0.99954 0.999141 0.996766
0.999397 0.997681 0.999189
1.00169 1.00026 0.990815
1.00085 1.00102 0.991833
1.00108 1.00052 0.991715
1.00034 1.00125 0.99256
1.00054 1.00148 0.991882
1.00035 1.00156 0.992126
1.00019 1.00127 0.992845
0.999868 1.00087 0.993865
1.00008 1.00133 0.992985
0.999832 1.0008 0.993998
0.999514 0.9991 0.996314
0.999828 1.00067 0.994114
0.999588 0.998802 0.996435
0.999425 0.997574 0.9992
0.999676 0.998505 0.996536
0.999546 0.997298 0.99923
0.999653 0.997078 0.999252
1.00182 0.999325 0.991497
1.00198 0.998528 0.991982
1.00201 0.998074 0.992033
1.00213 0.999706 0.99031
1.00168 1.00054 0.990595
1.00062 1.0012 0.992103
1.00112 1.00106 0.99143
1.00241 0.999646 0.990026
1.00188 1.0008 0.9899
1.0027 0.99908 0.990007
1.00107 0.999989 0.992297
1.00108 0.99966 0.992591
1.00116 0.999233 0.992885
1.00117 1.00036 0.991806
1.00142 0.99976 0.991973
1.00128 1.00007 0.991854
1.00136 1.00006 0.991714
1.00176 0.999694 0.991273
1.00156 0.999909 0.991423
1.00139 1.0002 0.991488
1.0015 1.00003 0.991432
1.00132 1.00023 0.991594
1.00103 1.00035 0.992041
1.00114 1.00025 0.991941
1.00089 1.00037 0.992317
1.0004 1.00041 0.993232
1.00075 1.00036 0.992595
1.00028 1.00041 0.993465
0.999488 0.999792 0.996225
1.00017 1.00043 0.99365
0.999517 0.999583 0.996367
0.999178 0.998711 0.997684
0.999536 0.999373 0.996527
0.999277 0.998304 0.997848
0.999335 0.997921 0.999157
1.00201 1.00002 0.990482
1.00142 1.00044 0.991224
1.00162 1.00031 0.990924
1.00063 1.00101 0.992351
1.00084 1.00098 0.991817
1.001 1.00041 0.992015
0.999957 1.00096 0.993596
1.00034 1.00125 0.99256
1.00059 1.0015 0.991884
1.00017 1.00128 0.992849
0.999848 1.0009 0.993862
0.999463 0.999388 0.996135
0.999813 1.00083 0.993995
0.999505 0.999084 0.996317
0.99932 0.997858 0.999169
0.999583 0.998781 0.99644
0.999447 0.99755 0.999207
0.999567 0.997282 0.999236
1.00178 0.999609 0.991309
1.00191 0.999297 0.991385
1.00195 0.998541 0.991989
1.00224 0.999654 0.99023
1.00168 1.00054 0.990608
1.00245 0.999656 0.990018
1.00114 1.00035 0.991815
1.00103 1.00005 0.992319
1.00117 0.999719 0.992432
1.00117 1.00038 0.991785
1.00117 1.00054 0.991615
1.00128 1.00008 0.991833
1.00135 1.00006 0.991714
1.00131 1.00023 0.991685
1.00157 0.999907 0.991428
1.00139 1.00018 0.9915
1.00111 1.00036 0.991884
1.00132 1.00023 0.991592
1.00104 1.00035 0.992037
1.0005 1.00041 0.993017
1.0009 1.00036 0.992313
1.0004 1.00041 0.993226
0.999482 0.999955 0.996072
1.00027 1.00042 0.993463
0.999509 0.999786 0.996196
0.999058 0.999089 0.997566
0.999534 0.999579 0.996338
0.999173 0.998682 0.997708
0.999268 0.998275 0.997873
1.00189 0.999477 0.991246
1.00176 1.00017 0.990788
1.00204 0.999981 0.990443
1.00103 1.00061 0.991864
1.0014 1.00047 0.991279
1.00156 1.00037 0.991034
1.00016 1.00084 0.993255
1.00062 1.00099 0.992243
1.00083 1.00094 0.991801
0.999471 0.999686 0.995824
0.999944 1.00097 0.993595
1.00034 1.00126 0.992559
0.999827 1.00093 0.993859
0.999442 0.999387 0.99614
0.99922 0.998181 0.999117
0.999495 0.999069 0.996321
0.999341 0.997828 0.999179
0.999469 0.997526 0.999215
1.00151 1.0002 0.991252
1.00181 0.999593 0.991263
1.00199 0.999266 0.991272
1.00235 0.999606 0.990151
1.00122 1.00057 0.991449
1.00114 1.00035 0.991855
1.001 1.00012 0.992341
1.00116 1.0004 0.991764
1.00116 1.00053 0.991626
1.00112 1.00052 0.991731
1.00133 1.00007 0.991713
1.00129 1.00023 0.991696
1.00109 1.00039 0.991892
1.00139 1.00017 0.991513
1.0011 1.00036 0.99189
1.00056 1.00044 0.992874
1.00104 1.00035 0.992033
1.0005 1.00041 0.993011
0.99949 1.00011 0.995255
1.0004 1.00042 0.99322
0.999507 0.999981 0.995691
0.998944 0.999273 0.99893
0.999529 0.99978 0.996166
0.999054 0.999069 0.997588
0.999166 0.998652 0.997732
1.00164 0.999948 0.991298
1.00173 0.999764 0.991199
1.00184 0.999533 0.991237
1.0013 1.00031 0.991372
1.00173 1.00015 0.990882
1.00207 0.999939 0.990405
1.00045 1.00058 0.992745
1.00104 1.00061 0.991859
1.00138 1.0005 0.991333
0.999551 0.999897 0.995434
1.00017 1.00084 0.993159
1.00061 1.00098 0.992135
0.999144 0.998554 0.999029
0.999434 0.999702 0.995836
0.999929 1.00098 0.993594
0.99942 0.999385 0.996145
0.999237 0.998142 0.999134
0.999364 0.997798 0.999188
1.00133 1.00042 0.99137
1.00148 1.00018 0.991332
1.00185 0.999579 0.991217
1.00122 1.00061 0.991435
1.00123 1.00058 0.991434
1.00113 1.00036 0.991895
1.00116 1.00052 0.991637
1.00113 1.0005 0.991736
1.00097 1.00054 0.992052
1.00127 1.00024 0.991707
1.00107 1.0004 0.991964
1.00057 1.00048 0.99269
1.0011 1.00035 0.991897
1.00056 1.00043 0.992875
0.999474 1.00022 0.995181
1.00051 1.00041 0.993005
0.999508 1.0001 0.99525
0.998875 0.99949 0.998917
0.99953 1 0.995315
0.998937 0.999355 0.998217
0.99905 0.999048 0.99761
1.00146 1.0003 0.991355
1.00155 0.999922 0.991444
1.00162 0.999922 0.991293
1.00137 1.00011 0.991559
1.0017 0.999782 0.991236
1.00179 0.999589 0.991228
1.00071 1.00038 0.992429
1.00133 1.00033 0.991484
1.00171 1.00012 0.990975
0.999649 0.999992 0.995109
1.00049 1.00058 0.992699
1.00104 1.00061 0.991855
0.999092 0.998928 0.998932
0.999509 0.999931 0.995446
1.00017 1.00083 0.993063
0.999151 0.998503 0.999058
0.999397 0.99972 0.995847
0.999256 0.998102 0.999151
1.00127 1.0005 0.991425
1.00135 1.00042 0.991359
1.00145 1.00015 0.991412
1.00107 1.0006 0.991773
1.00122 1.00063 0.991443
1.00125 1.0006 0.991418
1.00113 1.00048 0.99174
1.00097 1.00052 0.992056
1.00055 1.00056 0.992636
1.00106 1.00041 0.992037
1.00057 1.00049 0.992753
0.99946 1.00036 0.995077
1.00056 1.00043 0.992876
0.999487 1.0002 0.995179
0.998792 0.999707 0.998902
0.999525 1.00008 0.995245
0.998855 0.999522 0.998912
0.998934 0.999442 0.997494
1.00137 1.0003 0.991514
1.00145 1.00029 0.991319
1.00128 1.00017 0.991716
1.00154 0.999918 0.991452
1.0016 0.999897 0.991288
1.0008 1.00028 0.992516
1.00139 1.00011 0.991546
1.00167 0.9998 0.991272
0.999704 1.00003 0.994932
1.00073 1.00038 0.992483
1.00136 1.00035 0.991596
0.999046 0.999244 0.998862
0.999613 1.00003 0.995119
1.00052 1.00057 0.992653
0.999094 0.998874 0.998962
0.999465 0.999967 0.995459
0.999161 0.998449 0.999086
1.00111 1.00054 0.991769
1.00127 1.0005 0.991438
1.00137 1.00041 0.991348
1.00062 1.00059 0.992466
1.00107 1.00061 0.991774
1.00121 1.00064 0.991451
1.00098 1.0005 0.99206
1.00055 1.00055 0.992652
0.99946 1.00046 0.994968
1.00056 1.00049 0.992817
0.999467 1.00035 0.995076
0.998731 0.99989 0.998878
0.9995 1.00019 0.995177
0.99878 0.99973 0.998895
0.998839 0.999554 0.998907
1.00116 1.00041 0.991756
1.00137 1.00028 0.991485
1.00144 1.00027 0.991283
1.00075 1.00033 0.992582
1.00128 1.00017 0.991714
1.00154 0.999914 0.991459
0.999685 1.00006 0.994915
1.00081 1.00028 0.992512
1.00141 1.00011 0.991534
0.998988 0.999483 0.99883
0.999681 1.00006 0.994938
1.00075 1.00039 0.992536
0.99905 0.999198 0.998881
0.999576 1.00007 0.995129
0.999096 0.998818 0.998991
1.00065 1.00057 0.992548
1.00111 1.00055 0.9917
1.00127 1.0005 0.99145
0.999473 1.0005 0.994903
1.00061 1.0006 0.992484
1.00107 1.00062 0.991776
1.00055 1.00055 0.992669
0.999464 1.00046 0.994965
0.998701 1.00003 0.998844
0.999475 1.00034 0.995074
0.998726 0.999909 0.998866
0.998766 0.999753 0.998887
1.00067 1.00049 0.992591
1.00116 1.0004 0.991733
1.00137 1.00026 0.991455
0.99961 1.00011 0.995722
1.00075 1.00034 0.992578
1.00129 1.00017 0.991712
0.998901 0.999663 0.998835
0.999678 1.00008 0.994914
1.00082 1.00029 0.992508
0.998998 0.99945 0.998838
0.999658 1.00008 0.994944
0.999053 0.999153 0.998901
0.999501 1.00046 0.99488
1.00065 1.00057 0.992494
1.00111 1.00056 0.991632
0.998694 1.0001 0.998822
0.999479 1.00049 0.994898
1.00061 1.00059 0.992502
0.99947 1.00045 0.994962
0.998705 1.00004 0.998835
0.998724 0.999927 0.998854
0.999544 1.00027 0.995697
1.00067 1.00049 0.992591
1.00116 1.00039 0.99171
0.998797 0.999806 0.998868
0.99961 1.00018 0.994961
1.00076 1.00034 0.992575
0.998922 0.99964 0.998832
0.999671 1.00009 0.994913
0.999007 0.999418 0.998846
0.998708 1.00023 0.997237
0.999508 1.00042 0.995279
1.00065 1.00058 0.992441
0.998698 1.00009 0.998818
0.999482 1.00049 0.994896
0.998704 1.00005 0.998827
0.998733 1.00008 0.997302
0.999546 1.00031 0.995325
1.00068 1.00048 0.992591
0.998819 0.999864 0.998081
0.999606 1.00019 0.994954
0.998944 0.999618 0.998829
0.998711 1.00007 0.998815
0.999503 1.00046 0.994891
0.998705 1.00009 0.998815
0.998738 1.00004 0.99806
0.999536 1.00035 0.994939
0.99885 0.999786 0.998839
0.998721 1.00005 0.998822
0.998768 0.99994 0.99884

TENSORS stress float
0.00117935 2.71478e-05 1.78717e-05
2.71478e-05 0.00017074 -4.94842e-06
1.78717e-05 -4.94842e-06 0.000165221
0.0026056 -3.70735e-05 1.56027e-05
-3.70735e-05 0.00085863 3.09121e-06
1.56027e-05 3.09121e-06 0.000868113
0.0011651 2.86692e-05 6.61226e-06
2.86692e-05 0.000164203 -1.87818e-06
6.61226e-06 -1.87818e-06 0.000158915
0.00124404 2.59727e-05 2.19798e-05
2.59727e-05 0.000234532 -3.54474e-06
2.19798e-05 -3.54474e-06 0.000218768
0.00120333 2.72713e-05 1.9149e-05
2.72713e-05 0.000193907 -4.58009e-06
1.9149e-05 -4.58009e-06 0.000184621
0.00114762 2.65366e-05 1.65211e-05
2.65366e-05 0.000145843 -5.18397e-06
1.65211e-05 -5.18397e-06 0.000144149
0.00114494 2.0133e-05 5.2687e-06
2.0133e-05 0.000138311 -2.1186e-06
5.2687e-06 -2.1186e-06 0.000114087
0.00265017 -3.74299e-05 2.11723e-07
-3.74299e-05 0.000879237 -9.74946e-08
2.11723e-07 -9.74946e-08 0.00088889
0.00288923 -4.63443e-05 7.58216e-06
-4.63443e-05 0.0010317 1.03241e-06
7.58216e-06 1.03241e-06 0.00103283
0.00268521 -4.19178e-05 6.8876e-06
-4.19178e-05 0.000906568 1.1864e-06
6.8876e-06 1.1864e-06 0.000913879
0.00110899 -2.49321e-05 1.29038e-05
-2.49321e-05 0.000108023 3.28034e-06
1.29038e-05 3.28034e-06 0.000112705
0.000849645 -2.37319e-05 4.71945e-06
-2.37319e-05 -1.71108e-05 2.67669e-06
4.71945e-06 2.67669e-06 -3.54098e-05
0.00136628 -1.90136e-05 2.47755e-05
-1.90136e-05 0.000324226 6.81852e-07
2.47755e-05 6.81852e-07 0.000303981
0.00122635 -3.05509e-05 5.77338e-06
-3.05509e-05 0.000246015 7.14151e-07
5.77338e-06 7.14151e-07 0.000228354
0.00114714 3.02795e-05 -4.93918e-06
3.02795e-05 0.000155943 1.24325e-06
-4.93918e-06 1.24325e-06 0.000150881
0.00126152 2.86376e-05 8.28428e-06
2.86376e-05 0.000243829 -1.35756e-06
8.28428e-06 -1.35756e-06 0.000228015
0.00113108 2.78961e-05 6.13671e-06
2.78961e-05 0.000138115 -1.91637e-06
6.13671e-06 -1.91637e-06 0.000136662
0.00119573 2.90725e-05 7.08278e-06
2.90725e-05 0.000190488 -1.73341e-06
7.08278e-06 -1.73341e-06 0.000181392
0.00117642 2.0691e-05 -2.25622e-06
2.0691e-05 0.000153842 3.5618e-07
-2.25622e-06 3.5618e-07 0.000129595
0.00341998 5.32297e-05 2.47924e-05
5.32297e-05 0.00133219 -6.72436e-07
2.47924e-05 -6.72436e-07 0.00132437
0.00128226 2.51887e-05 2.36044e-05
2.51887e-05 0.000260188 -2.69537e-06
2.36044e-05 -2.69537e-06 0.000242703
0.00121842 2.68105e-05 2.0411e-05
2.68105e-05 0.000212997 -4.1493e-06
2.0411e-05 -4.1493e-06 0.000200168
0.00125088 1.23413e-05 5.92953e-06
1.23413e-05 0.00018676 -1.54706e-06
5.92953e-06 -1.54706e-06 0.000154245
0.00117936 1.68751e-05 5.49938e-06
1.68751e-05 0.000155344 -1.85083e-06
5.49938e-06 -1.85083e-06 0.000128288
0.00114234 2.56564e-05 1.56325e-05
2.56564e-05 0.000133875 -5.26821e-06
1.56325e-05 -5.26821e-06 0.000135559
0.0011061 2.54323e-05 4.73327e-06
2.54323e-05 0.000119054 -2.39263e-06
4.73327e-06 -2.39263e-06 9.78918e-05
0.00139612 -4.86197e-06 1.82864e-06
-4.86197e-06 0.000220645 -9.14978e-07
1.82864e-06 -9.14978e-07 0.000172052
0.00269588 -3.78476e-05 -1.53251e-05
-3.78476e-05 0.000900381 -3.10755e-06
-1.53251e-05 -3.10755e-06 0.0009102
0.00204123 -3.68948e-05 -6.29341e-06
-3.68948e-05 0.000611762 -7.93836e-07
-6.29341e-06 -7.93836e-07 0.000607711
0.00192039 -3.43278e-05 -5.61252e-06
-3.43278e-05 0.00052747 -9.00696e-07
-5.61252e-06 -9.00696e-07 0.000530564
0.00255991 -3.49363e-05 1.43421e-07
-3.49363e-05 0.000826998 -7.50832e-08
1.43421e-07 -7.50832e-08 0.000838654
0.000799498 -2.30904e-05 1.0143e-07
-2.30904e-05 -4.15597e-05 -4.50937e-08
1.0143e-07 -4.50937e-08 -5.96555e-05
0.001211 -2.71235e-05 1.69529e-05
-2.71235e-05 0.000215991 2.22273e-06
1.69529e-05 2.22273e-06 0.000203078
0.00111972 -2.73298e-05 1.48257e-05
-2.73298e-05 0.000144435 2.80972e-06
1.48257e-05 2.80972e-06 0.0001397
0.00169591 -1.53283e-05 9.8405e-06
-1.53283e-05 0.000410533 1.94678e-06
9.8405e-06 1.94678e-06 0.000386626
0.00248769 -3.44223e-05 6.14603e-06
-3.44223e-05 0.000782829 1.40163e-06
6.14603e-06 1.40163e-06 0.000796373
0.00162174 -2.76808e-05 8.91033e-06
-2.76808e-05 0.00037024 2.29591e-06
8.91033e-06 2.29591e-06 0.000353022
0.000855128 -2.22251e-05 5.94645e-06
-2.22251e-05 -2.08655e-05 4.0484e-06
5.94645e-06 4.0484e-06 -3.63354e-05
0.00095064 2.89374e-06 2.54655e-06
2.89374e-06 1.20481e-05 1.32555e-06
2.54655e-06 1.32555e-06 -3.4897e-05
0.00249977 -2.7406e-05 1.39569e-05
-2.7406e-05 0.000773396 3.80293e-06
1.39569e-05 3.80293e-06 0.000789502
0.00335944 -5.10267e-05 9.1592e-07
-5.10267e-05 0.0013098 -1.49299e-07
9.1592e-07 -1.49299e-07 0.00130126
0.00218643 -3.86476e-05 -7.54869e-06
-3.86476e-05 0.000720941 -4.10428e-07
-7.54869e-06 -4.10428e-07 0.000709
0.00348837 -3.91213e-05 2.73169e-05
-3.91213e-05 0.00137216 1.7184e-07
2.73169e-05 1.7184e-07 0.00136355
0.00124352 -3.06306e-05 5.85182e-06
-3.06306e-05 0.000262776 5.86163e-07
5.85182e-06 5.86163e-07 0.000243392
0.000731647 -1.59757e-05 7.77356e-06
-1.59757e-05 -5.90755e-05 1.42565e-06
7.77356e-06 1.42565e-06 -9.85837e-05
0.00309711 -5.0404e-05 8.35591e-06
-5.0404e-05 0.00115971 7.53494e-07
8.35591e-06 7.53494e-07 0.0011554
0.00171091 -2.12342e-05 1.27708e-05
-2.12342e-05 0.000425381 1.83321e-06
1.27708e-05 1.83321e-06 0.000394863
0.00127889 3.16381e-05 -5.97447e-06
3.16381e-05 0.000253121 9.21999e-07
-5.97447e-06 9.21999e-07 0.000237227
0.0011839 3.09733e-05 -5.2767e-06
3.09733e-05 0.000185053 1.13768e-06
-5.2767e-06 1.13768e-06 0.000176146
0.00111591 2.9374e-05 -4.56365e-06
2.9374e-05 0.000131139 1.29281e-06
-4.56365e-06 1.29281e-06 0.000129906
0.00121299 2.10481e-05 -9.94158e-06
2.10481e-05 0.000171855 2.85787e-06
-9.94158e-06 2.85787e-06 0.00014758
0.00235811 4.31218e-05 -7.69493e-06
4.31218e-05 0.000807836 -3.6694e-07
-7.69493e-06 -3.6694e-07 0.000793951
0.00129491 2.83376e-05 8.92431e-06
2.83376e-05 0.000267383 -1.06795e-06
8.92431e-06 -1.06795e-06 0.000249658
0.00112195 2.69574e-05 5.7939e-06
2.69574e-05 0.000124197 -1.92582e-06
5.7939e-06 -1.92582e-06 0.000126045
0.00122472 2.90027e-05 7.61308e-06
2.90027e-05 0.000216445 -1.55519e-06
7.61308e-06 -1.55519e-06 0.000203727
0.00127879 1.20401e-05 -2.96735e-06
1.20401e-05 0.000200123 2.60784e-07
-2.96735e-06 2.60784e-07 0.000167732
0.00114452 2.51098e-05 -2.13602e-06
2.51098e-05 0.00013774 2.93451e-07
-2.13602e-06 2.93451e-07 0.00011661
0.00120729 1.71585e-05 -2.48957e-06
1.71585e-05 0.000168813 3.8532e-07
-2.48957e-06 3.8532e-07 0.000141807
0.0014328 -6.82747e-06 -9.54704e-07
-6.82747e-06 0.000236811 5.45757e-07
-9.54704e-07 5.45757e-07 0.00018796
0.00347981 5.62602e-05 2.47435e-05
5.62602e-05 0.00136422 -2.34391e-07
2.47435e-05 -2.34391e-07 0.00135566
0.00128633 2.43451e-05 2.46063e-05
2.43451e-05 0.000271079 -1.99843e-06
2.46063e-05 -1.99843e-06 0.000252768
0.00177394 2.98014e-05 5.0619e-06
2.98014e-05 0.000448064 -5.29302e-07
5.0619e-06 -5.29302e-07 0.000415668
0.00129355 1.12437e-05 6.34285e-06
1.12437e-05 0.000204569 -1.17821e-06
6.34285e-06 -1.17821e-06 0.00017053
0.00120894 1.45688e-05 5.61381e-06
1.45688e-05 0.00016943 -1.70814e-06
5.61381e-06 -1.70814e-06 0.000139536
0.00155512 -1.53791e-05 1.84432e-06
-1.53791e-05 0.000252507 -7.95264e-07
1.84432e-06 -7.95264e-07 0.000198494
0.00119652 -7.36116e-06 2.29712e-06
-7.36116e-06 0.000108993 -1.08119e-06
2.29712e-06 -1.08119e-06 5.81948e-05
0.00121767 2.4711e-05 1.55604e-05
2.4711e-05 0.0001589 -5.40523e-06
1.55604e-05 -5.40523e-06 0.000163181
0.00108297 2.40611e-05 4.88536e-06
2.40611e-05 0.000102724 -2.47202e-06
4.88536e-06 -2.47202e-06 8.53625e-05
0.00134796 1.69159e-06 1.67629e-06
1.69159e-06 0.000210852 -1.02256e-06
1.67629e-06 -1.02256e-06 0.000163817
0.00113043 -2.74526e-05 1.5131e-06
-2.74526e-05 4.72767e-05 -1.00052e-06
1.5131e-06 -1.00052e-06 -1.32528e-05
0.00295807 -4.45476e-05 -1.72723e-05
-4.45476e-05 0.0010622 -2.55781e-06
-1.72723e-05 -2.55781e-06 0.00106393
0.00262021 -3.53022e-05 -1.48258e-05
-3.53022e-05 0.000854894 -3.2729e-06
-1.48258e-05 -3.2729e-06 0.000866724
0.00277804 -4.02672e-05 -1.60111e-05
-4.02672e-05 0.000949904 -2.93008e-06
-1.60111e-05 -2.93008e-06 0.000957445
0.000749274 -2.24385e-05 -4.74357e-06
-2.24385e-05 -6.6047e-05 -2.8984e-06
-4.74357e-06 -2.8984e-06 -8.39376e-05
0.0030319 -4.52033e-05 1.85459e-07
-4.52033e-05 0.00111536 -1.25891e-07
1.85459e-07 -1.25891e-07 0.00111347
0.00278444 -4.16645e-05 1.77816e-07
-4.16645e-05 0.000967776 -9.58082e-08
1.77816e-07 -9.58082e-08 0.000972018
0.000791834 -1.0627e-05 6.71005e-08
-1.0627e-05 -3.38908e-05 -9.17429e-08
6.71005e-08 -9.17429e-08 -6.30872e-05
0.00181565 -2.87242e-05 -5.14169e-06
-2.87242e-05 0.000448983 -1.05103e-06
-5.14169e-06 -1.05103e-06 0.000459084
0.000814462 -2.42254e-05 9.17399e-09
-2.42254e-05 -2.88748e-05 -2.36678e-08
9.17399e-09 -2.36678e-08 -5.014e-05
0.00119406 -2.38821e-05 2.63122e-06
-2.38821e-05 0.00014672 4.90421e-07
2.63122e-06 4.90421e-07 0.000133397
0.000952341 1.50806e-06 4.63273e-08
1.50806e-06 1.45098e-05 -1.51447e-07
4.63273e-08 -1.51447e-07 -3.27288e-05
0.0024868 -2.99181e-05 1.42215e-05
-2.99181e-05 0.000774506 3.58782e-06
1.42215e-05 3.58782e-06 0.000789434
0.000890371 -1.73668e-05 4.10937e-06
-1.73668e-05 -2.82118e-05 3.213e-06
4.10937e-06 3.213e-06 -3.79584e-05
0.000752132 -3.16471e-06 7.18219e-06
-3.16471e-06 -5.37043e-05 2.83455e-06
7.18219e-06 2.83455e-06 -8.66031e-05
0.000779827 -1.63349e-05 6.55296e-06
-1.63349e-05 -4.24556e-05 3.44776e-06
6.55296e-06 3.44776e-06 -6.81851e-05
0.000982817 1.26603e-05 2.40165e-06
1.26603e-05 7.93465e-06 1.37123e-06
2.40165e-06 1.37123e-06 -4.38442e-05
0.00158079 -2.44987e-05 8.51049e-06
-2.44987e-05 0.000329328 2.827e-06
8.51049e-06 2.827e-06 0.000320133
0.000954795 6.44812e-06 2.4209e-06
6.44812e-06 1.11207e-05 1.28969e-06
2.4209e-06 1.28969e-06 -3.71233e-05
0.000959505 -1.53925e-06 2.43408e-06
-1.53925e-06 1.71942e-05 1.67627e-06
2.43408e-06 1.67627e-06 -2.75418e-05
0.00102216 2.23406e-05 1.18034e-06
2.23406e-05 2.73767e-05 4.16086e-07
1.18034e-06 4.16086e-07 -3.08665e-05
0.00250533 -2.4852e-05 1.34844e-05
-2.4852e-05 0.000770081 3.96766e-06
1.34844e-05 3.96766e-06 0.000787222
0.00254652 -2.75112e-05 2.20735e-07
-2.75112e-05 0.000795525 -7.00453e-08
2.20735e-07 -7.00453e-08 0.000811596
0.00318223 -4.8716e-05 -2.03557e-05
-4.8716e-05 0.00120906 -1.53778e-06
-2.03557e-05 -1.53778e-06 0.00120343
0.00330077 -5.2018e-05 -2.2603e-05
-5.2018e-05 0.00128099 -7.33953e-07
-2.2603e-05 -7.33953e-07 0.00127266
0.00344928 -3.75491e-05 1.40174e-06
-3.75491e-05 0.00135283 -1.68179e-07
1.40174e-06 -1.68179e-07 0.00134454
0.00223655 -3.96321e-05 -8.0637e-06
-3.96321e-05 0.000753252 -2.7181e-07
-8.0637e-06 -2.7181e-07 0.00073967
0.00123348 -1.37801e-05 4.90479e-06
-1.37801e-05 0.000189649 -4.24713e-08
4.90479e-06 -4.24713e-08 0.000153664
0.00215851 -3.81577e-05 -7.14123e-06
-3.81577e-05 0.000694981 -5.52843e-07
-7.14123e-06 -5.52843e-07 0.000685153
0.00121748 -1.25816e-05 3.76783e-06
-1.25816e-05 0.00018215 1.2147e-07
3.76783e-06 1.2147e-07 0.00014878
0.003514 1.20689e-05 2.48024e-05
1.20689e-05 0.0013821 1.98673e-07
2.48024e-05 1.98673e-07 0.00137404
0.000721698 -6.48333e-06 5.84072e-06
-6.48333e-06 -6.84696e-05 4.84849e-07
5.84072e-06 4.84849e-07 -0.000107972
0.00172408 -3.69634e-05 1.34972e-05
-3.69634e-05 0.000434107 1.52529e-06
1.34972e-05 1.52529e-06 0.000401702
0.0010604 -5.99037e-06 2.92874e-06
-5.99037e-06 3.50992e-06 8.54064e-07
2.92874e-06 8.54064e-07 -5.52691e-05
0.00171941 -1.08969e-05 1.06199e-05
-1.08969e-05 0.000425624 1.43996e-06
1.06199e-05 1.43996e-06 0.000396817
0.00105215 8.13105e-06 2.61055e-06
8.13105e-06 1.20866e-05 1.00647e-06
2.61055e-06 1.00647e-06 -4.39289e-05
0.00131712 2.35085e-05 -2.36555e-05
2.35085e-05 0.0002927 5.46349e-07
-2.36555e-05 5.46349e-07 0.000273435
0.0013108 3.18554e-05 -6.31626e-06
3.18554e-05 0.000276274 7.44021e-07
-6.31626e-06 7.44021e-07 0.000258256
0.00110285 2.83281e-05 -4.28926e-06
2.83281e-05 0.000115159 1.29969e-06
-4.28926e-06 1.29969e-06 0.000117164
0.0012277 3.13826e-05 -5.59688e-06
3.13826e-05 0.000218306 1.0318e-06
-5.59688e-06 1.0318e-06 0.00020569
0.00130483 1.14732e-05 -1.20457e-05
1.14732e-05 0.000212524 2.08501e-06
-1.20457e-05 2.08501e-06 0.000180281
0.00123879 1.73182e-05 -1.05639e-05
1.73182e-05 0.000184011 2.59779e-06
-1.05639e-05 2.59779e-06 0.000157051
0.00118394 2.6139e-05 -9.1938e-06
2.6139e-05 0.000156964 2.99295e-06
-9.1938e-06 2.99295e-06 0.000135814
0.00146871 -8.70285e-06 -3.77426e-06
-8.70285e-06 0.000252512 1.9954e-06
-3.77426e-06 1.9954e-06 0.00020341
0.0034856 5.48353e-05 -1.41024e-06
5.48353e-05 0.00136736 -1.74056e-07
-1.41024e-06 -1.74056e-07 0.00135882
0.00128907 2.79835e-05 9.36848e-06
2.79835e-05 0.000273098 -6.97183e-07
9.36848e-06 -6.97183e-07 0.000254548
0.00101821 2.10254e-05 -5.77494e-06
2.10254e-05 7.38399e-05 1.74022e-07
-5.77494e-06 1.74022e-07 3.71166e-05
0.00131304 1.05154e-05 -3.20653e-06
1.05154e-05 0.000213908 1.81852e-07
-3.20653e-06 1.81852e-07 0.000179946
0.0018818 2.9818e-05 9.43481e-06
2.9818e-05 0.000489856 -1.8796e-06
9.43481e-06 -1.8796e-06 0.000497781
0.00133216 2.62802e-05 -1.77646e-06
2.62802e-05 0.000225349 3.09018e-07
-1.77646e-06 3.09018e-07 0.000209383
0.00123842 1.46161e-05 -2.72638e-06
1.46161e-05 0.000183437 3.45988e-07
-2.72638e-06 3.45988e-07 0.000153662
0.00142192 -1.47166e-05 -1.10275e-06
-1.47166e-05 0.000186271 3.82477e-07
-1.10275e-06 3.82477e-07 0.000131553
0.00140276 4.62375e-07 -8.30376e-07
4.62375e-07 0.00023527 6.12388e-07
-8.30376e-07 6.12388e-07 0.000187895
0.0013371 -9.50844e-06 -4.75561e-07
-9.50844e-06 0.000176827 2.37436e-07
-4.75561e-07 2.37436e-07 0.000126472
0.00112008 -2.69666e-05 1.06893e-08
-2.69666e-05 4.2743e-05 -3.60905e-08
1.06893e-08 -3.60905e-08 -1.77416e-05
0.000718247 9.70012e-06 5.87163e-06
9.70012e-06 -7.4163e-05 -6.55994e-07
5.87163e-06 -6.55994e-07 -0.000112871
0.00129861 1.62583e-05 6.30707e-06
1.62583e-05 0.000210316 -8.46408e-07
6.30707e-06 -8.46408e-07 0.000175921
0.00137515 1.6747e-05 2.69072e-06
1.6747e-05 0.000145078 -3.22528e-07
2.69072e-06 -3.22528e-07 8.75199e-05
0.00135333 -1.28081e-05 2.55315e-06
-1.28081e-05 0.000139602 -7.66913e-07
2.55315e-06 -7.66913e-07 8.32674e-05
0.00125464 -1.09629e-05 2.27922e-06
-1.09629e-05 0.000122025 -1.08901e-06
2.27922e-06 -1.08901e-06 6.92159e-05
0.00147644 -2.68756e-05 9.79574e-07
-2.68756e-05 0.000164211 -5.53296e-07
9.79574e-07 -5.53296e-07 0.000100499
0.00264334 3.27032e-05 1.48099e-05
3.27032e-05 0.000857185 -3.51083e-06
1.48099e-05 -3.51083e-06 0.000870285
0.00114631 -2.612e-05 1.42223e-06
-2.612e-05 3.99054e-05 -8.29074e-07
1.42223e-06 -8.29074e-07 -2.02712e-05
0.000822833 2.16062e-05 4.61921e-06
2.16062e-05 -3.75579e-05 -2.87662e-06
4.61921e-06 -2.87662e-06 -5.27919e-05
0.000901473 8.52552e-07 2.30504e-06
8.52552e-07 -3.61372e-06 -1.71418e-06
2.30504e-06 -1.71418e-06 -5.1003e-05
0.00114909 -2.79993e-05 1.40116e-06
-2.79993e-05 7.48504e-05 -1.28478e-06
1.40116e-06 -1.28478e-06 1.36509e-05
0.00119806 -3.459e-05 1.16392e-06
-3.459e-05 5.89729e-05 -6.55247e-07
1.16392e-06 -6.55247e-07 -5.66029e-06
0.000841396 1.79507e-05 4.27228e-06
1.79507e-05 -4.62025e-05 -3.28373e-06
4.27228e-06 -3.28373e-06 -5.81006e-05
0.000970462 3.55453e-07 2.59575e-06
3.55453e-07 7.68028e-06 -2.22126e-06
2.59575e-06 -2.22126e-06 -3.41864e-05
0.00306108 -4.61038e-05 -1.84368e-05
-4.61038e-05 0.00112566 -2.2907e-06
-1.84368e-05 -2.2907e-06 0.00112443
0.00285663 -4.25688e-05 -1.64675e-05
-4.25688e-05 0.000999855 -2.74709e-06
-1.64675e-05 -2.74709e-06 0.00100468
0.000722165 -1.23535e-05 -4.86071e-06
-1.23535e-05 -6.41618e-05 -2.42485e-06
-4.86071e-06 -2.42485e-06 -9.37361e-05
0.00259064 -3.27288e-05 -1.47063e-05
-3.27288e-05 0.000831524 -3.47446e-06
-1.47063e-05 -3.47446e-06 0.000845048
0.00078144 -2.14205e-05 -4.58166e-06
-2.14205e-05 -5.7565e-05 -2.94856e-06
-4.58166e-06 -2.94856e-06 -7.23668e-05
0.000722493 -2.36057e-05 -4.8633e-06
-2.36057e-05 -7.23233e-05 -2.68505e-06
-4.8633e-06 -2.68505e-06 -9.37222e-05
0.000954138 1.6939e-07 -2.44589e-06
1.6939e-07 1.70544e-05 -1.67709e-06
-2.44589e-06 -1.67709e-06 -3.04811e-05
0.00253973 -3.00502e-05 2.02234e-07
-3.00502e-05 0.00079935 -7.58773e-08
2.02234e-07 -7.58773e-08 0.000814255
0.000874859 -1.72085e-05 9.87742e-08
-1.72085e-05 -3.60786e-05 -3.85932e-08
9.87742e-08 -3.85932e-08 -4.57235e-05
0.00121685 -8.14013e-06 3.33903e-06
-8.14013e-06 0.000177721 2.37132e-07
3.33903e-06 2.37132e-07 0.000147846
0.00119387 -2.12696e-05 2.95475e-06
-2.12696e-05 0.000164057 4.2294e-07
2.95475e-06 4.2294e-07 0.000140904
0.000977254 1.34386e-05 4.02944e-09
1.34386e-05 5.11406e-06 -7.47099e-08
4.02944e-09 -7.47099e-08 -4.66308e-05
0.000864811 -2.05271e-05 -7.17468e-09
-2.05271e-05 -2.60972e-05 -3.27921e-08
-7.17468e-09 -3.27921e-08 -3.85123e-05
0.000950218 5.46701e-06 -1.27305e-07
5.46701e-06 1.02594e-05 -5.31213e-08
-1.27305e-07 -5.31213e-08 -3.81972e-05
0.000951135 -3.32498e-06 4.88602e-08
-3.32498e-06 1.46971e-05 -2.25975e-08
4.88602e-08 -2.25975e-08 -3.02405e-05
0.000982877 2.2221e-05 -3.41347e-08
2.2221e-05 7.34391e-06 -1.30184e-07
-3.41347e-08 -1.30184e-07 -5.11348e-05
0.000881417 -1.89771e-05 4.47338e-06
-1.89771e-05 -2.60825e-05 3.03369e-06
4.47338e-06 3.03369e-06 -3.70026e-05
0.000898082 -1.57492e-05 3.69023e-06
-1.57492e-05 -2.94724e-05 3.36081e-06
3.69023e-06 3.36081e-06 -3.80775e-05
0.00097551 -3.56602e-06 2.51591e-06
-3.56602e-06 9.95407e-06 1.84626e-06
2.51591e-06 1.84626e-06 -2.9556e-05
0.000998738 1.2288e-05 2.40975e-06
1.2288e-05 2.80141e-06 1.2297e-06
2.40975e-06 1.2297e-06 -5.05419e-05
0.000969678 1.03608e-05 2.36397e-06
1.03608e-05 1.31804e-05 1.45016e-06
2.36397e-06 1.45016e-06 -3.67478e-05
0.00113998 2.7453e-05 1.32634e-06
2.7453e-05 4.35686e-05 1.08405e-06
1.32634e-06 1.08405e-06 -1.71367e-05
0.000965985 -4.80664e-06 2.42773e-06
-4.80664e-06 1.51984e-05 1.74429e-06
2.42773e-06 1.74429e-06 -2.66185e-05
0.000984397 2.49799e-05 1.02634e-06
2.49799e-05 -3.23622e-06 5.73197e-07
1.02634e-06 5.73197e-07 -6.10369e-05
0.00105823 1.80235e-05 1.20701e-06
1.80235e-05 5.32797e-05 7.45789e-07
1.20701e-06 7.45789e-07 -5.47154e-06
0.00117041 3.4521e-05 -1.59769e-08
3.4521e-05 9.24757e-05 -1.65132e-08
-1.59769e-08 -1.65132e-08 2.88076e-05
0.00250198 -2.22981e-05 1.27958e-05
-2.22981e-05 0.000763619 4.08322e-06
1.27958e-05 4.08322e-06 0.000781677
0.0025439 -2.49444e-05 2.42115e-07
-2.49444e-05 0.000788516 -6.30248e-08
2.42115e-07 -6.30248e-08 0.000805617
0.00259393 -2.76388e-05 -1.40459e-05
-2.76388e-05 0.000817993 -3.8557e-06
-1.40459e-05 -3.8557e-06 0.000834024
0.000855647 1.63825e-05 3.82558e-06
1.63825e-05 -4.47975e-05 -3.46292e-06
3.82558e-06 -3.46292e-06 -5.55122e-05
0.00265589 3.01406e-05 1.46398e-05
3.01406e-05 0.00085571 -3.72846e-06
1.46398e-05 -3.72846e-06 0.000870036
0.00313676 -4.74502e-05 -1.94646e-05
-4.74502e-05 0.00117537 -1.93811e-06
-1.94646e-05 -1.93811e-06 0.00117167
0.00322757 -5.02139e-05 -2.13103e-05
-5.02139e-05 0.00124024 -1.13514e-06
-2.13103e-05 -1.13514e-06 0.00123307
0.000711985 -3.92526e-06 -5.31857e-06
-3.92526e-06 -6.55268e-05 -1.57465e-06
-5.31857e-06 -1.57465e-06 -0.000101861
0.000708316 2.20504e-07 -5.59358e-06
2.20504e-07 -6.867e-05 -1.21373e-06
-5.59358e-06 -1.21373e-06 -0.000107555
0.00340715 -5.30708e-05 -2.39898e-05
-5.30708e-05 0.00133353 -3.02131e-07
-2.39898e-05 -3.02131e-07 0.00132462
0.00350009 6.75155e-06 -7.21437e-07
6.75155e-06 0.00137671 4.3445e-08
-7.21437e-07 4.3445e-08 0.00136803
0.000711331 -4.23586e-06 1.29153e-08
-4.23586e-06 -7.31948e-05 -1.48157e-07
1.29153e-08 -1.48157e-07 -0.00011264
0.0012207 -1.77024e-05 4.24103e-06
-1.77024e-05 0.000185603 7.23781e-08
4.24103e-06 7.23781e-08 0.000150837
0.0010738 -3.7451e-06 8.49782e-08
-3.7451e-06 9.84993e-06 4.53813e-09
8.49782e-08 4.53813e-09 -4.88635e-05
0.000749214 -3.71807e-06 5.61425e-09
-3.71807e-06 -5.20525e-05 -1.08056e-07
5.61425e-09 -1.08056e-07 -8.67162e-05
0.00105814 8.29975e-06 -7.98189e-09
8.29975e-06 1.50291e-05 -4.85855e-08
-7.98189e-09 -4.85855e-08 -4.09759e-05
0.000699354 -1.72313e-06 5.91269e-06
-1.72313e-06 -8.25779e-05 -1.16073e-07
5.91269e-06 -1.16073e-07 -0.000121854
0.00108376 -4.45991e-06 3.0552e-06
-4.45991e-06 6.24205e-06 4.18054e-07
3.0552e-06 4.18054e-07 -5.40814e-05
0.00105707 1.84293e-06 2.73699e-06
1.84293e-06 9.01391e-06 9.24948e-07
2.73699e-06 9.24948e-07 -4.8167e-05
0.00121885 -7.21236e-06 1.64898e-06
-7.21236e-06 3.79818e-05 5.30594e-07
1.64898e-06 5.30594e-07 -2.92488e-05
0.00102596 1.03418e-05 2.46209e-06
1.03418e-05 6.31198e-06 1.1368e-06
2.46209e-06 1.1368e-06 -4.84521e-05
0.00121127 9.48632e-06 1.38628e-06
9.48632e-06 4.49259e-05 6.58644e-07
1.38628e-06 6.58644e-07 -1.84288e-05
0.00348936 5.20516e-05 -2.78461e-05
5.20516e-05 0.00136958 -5.77771e-08
-2.78461e-05 -5.77771e-08 0.00136111
0.00128772 3.19189e-05 -6.36742e-06
3.19189e-05 0.000273198 5.07984e-07
-6.36742e-06 5.07984e-07 0.000254379
0.000249469 1.08631e-05 -7.86256e-06
1.08631e-05 -0.000306625 1.21065e-06
-7.86256e-06 1.21065e-06 -0.000347704
0.00132838 9.32119e-06 -1.28995e-05
9.32119e-06 0.000221144 1.6652e-06
-1.28995e-05 1.6652e-06 0.000187292
0.00254346 3.68256e-05 -6.25236e-06
3.68256e-05 0.000819753 1.32578e-06
-6.25236e-06 1.32578e-06 0.000831202
0.00157829 2.85222e-05 -8.94367e-06
2.85222e-05 0.000346424 2.98179e-06
-8.94367e-06 2.98179e-06 0.000331863
0.00126946 1.44025e-05 -1.11959e-05
1.44025e-05 0.000198181 2.34951e-06
-1.11959e-05 2.34951e-06 0.000168532
0.00128784 -1.39674e-05 -3.98001e-06
-1.39674e-05 0.000119617 1.54746e-06
-3.98001e-06 1.54746e-06 6.41957e-05
0.00148104 -1.16196e-05 -3.21507e-06
-1.16196e-05 0.000246242 1.46283e-06
-3.21507e-06 1.46283e-06 0.000196329
0.00145702 -2.13734e-06 -3.47281e-06
-2.13734e-06 0.000259321 2.34808e-06
-3.47281e-06 2.34808e-06 0.00021167
0.00110937 -2.65301e-05 -1.35201e-06
-2.65301e-05 3.80371e-05 8.70251e-07
-1.35201e-06 8.70251e-07 -2.24042e-05
0.000718992 1.06255e-05 -4.26711e-08
1.06255e-05 -7.38216e-05 -1.2089e-07
-4.26711e-08 -1.2089e-07 -0.000112591
0.0013133 1.66523e-05 -3.43127e-06
1.66523e-05 0.000216773 1.49949e-07
-3.43127e-06 1.49949e-07 0.000182492
0.00113206 1.54609e-05 -4.82104e-07
1.54609e-05 2.47674e-05 5.406e-08
-4.82104e-07 5.406e-08 -3.41476e-05
0.00146221 -1.38635e-05 -5.85177e-07
-1.38635e-05 0.000192415 6.69213e-08
-5.85177e-07 6.69213e-08 0.000136566
0.0025861 3.25364e-05 -1.71642e-07
3.25364e-05 0.000830503 -7.74567e-08
-1.71642e-07 -7.74567e-08 0.000843585
0.00120766 2.45833e-05 5.39192e-07
2.45833e-05 0.000153443 -2.72283e-08
5.39192e-07 -2.72283e-08 0.000139752
0.00115719 1.42984e-06 1.17187e-07
1.42984e-06 0.00011984 -2.701e-09
1.17187e-07 -2.701e-09 7.38959e-05
0.00126551 -1.15455e-05 -5.06383e-07
-1.15455e-05 0.000126878 1.54023e-07
-5.06383e-07 1.54023e-07 7.41327e-05
0.0012753 -2.50849e-05 -5.19396e-07
-2.50849e-05 6.58157e-05 2.95303e-07
-5.19396e-07 2.95303e-07 1.30535e-06
0.00102849 -2.60434e-05 -7.42008e-08
-2.60434e-05 1.80009e-05 -9.82199e-08
-7.42008e-08 -9.82199e-08 -4.34397e-05
0.001263 -2.68384e-05 2.16383e-08
-2.68384e-05 9.62633e-05 6.55306e-08
2.16383e-08 6.55306e-08 3.65253e-05
0.00118885 -3.43904e-05 9.07976e-08
-3.43904e-05 5.50095e-05 4.25407e-09
9.07976e-08 4.25407e-09 -9.53774e-06
0.000855076 1.81715e-05 -6.65469e-08
1.81715e-05 -3.89565e-05 -5.40176e-08
-6.65469e-08 -5.40176e-08 -5.09828e-05
0.000971096 8.22066e-07 -1.1271e-07
8.22066e-07 7.89227e-06 -6.49164e-08
-1.1271e-07 -6.49164e-08 -3.38845e-05
0.00108012 8.77776e-06 3.15946e-06
8.77776e-06 -5.12281e-07 -3.60121e-07
3.15946e-06 -3.60121e-07 -6.03114e-05
0.00136348 4.07361e-06 2.61762e-06
4.07361e-06 0.000138892 -5.03597e-07
2.61762e-06 -5.03597e-07 8.20605e-05
0.00151695 1.37423e-05 1.2994e-06
1.37423e-05 0.000165716 2.76913e-08
1.2994e-06 2.76913e-08 9.93366e-05
0.00113987 -1.6896e-05 2.09474e-06
-1.6896e-05 -1.63594e-05 -7.79265e-07
2.09474e-06 -7.79265e-07 -8.29971e-05
0.00127659 -2.63899e-05 1.08933e-06
-2.63899e-05 8.97941e-05 -8.40903e-07
1.08933e-06 -8.40903e-07 2.89546e-05
0.00144665 -2.72206e-05 5.12769e-07
-2.72206e-05 0.000124673 -4.16785e-07
5.12769e-07 -4.16785e-07 5.77913e-05
0.000817841 1.97045e-05 4.51847e-06
1.97045e-05 -4.93424e-05 -3.05624e-06
4.51847e-06 -3.05624e-06 -6.26868e-05
0.00122065 -3.20446e-05 8.81023e-07
-3.20446e-05 5.19754e-05 -5.64999e-07
8.81023e-07 -5.64999e-07 -1.12183e-05
0.000928653 3.88566e-06 2.47384e-06
3.88566e-06 6.01708e-06 -1.65406e-06
2.47384e-06 -1.65406e-06 -3.91568e-05
0.000846309 -2.12886e-05 1.39892e-06
-2.12886e-05 -5.35463e-05 -1.45817e-06
1.39892e-06 -1.45817e-06 -0.000114067
0.00143289 -4.03545e-05 7.65389e-07
-4.03545e-05 0.000195238 -8.8184e-07
7.65389e-07 -8.8184e-07 0.000128635
0.00128451 -3.78393e-05 7.8096e-07
-3.78393e-05 8.8915e-05 -2.95807e-08
7.8096e-07 -2.95807e-08 2.40615e-05
0.000956318 1.82355e-06 2.78484e-06
1.82355e-06 4.99921e-06 -1.95274e-06
2.78484e-06 -1.95274e-06 -3.74046e-05
0.000974829 -1.35145e-07 2.21101e-06
-1.35145e-07 7.92932e-06 -2.35409e-06
2.21101e-06 -2.35409e-06 -3.28209e-05
0.00106072 -1.81512e-05 1.56822e-06
-1.81512e-05 4.77456e-05 -1.07524e-06
1.56822e-06 -1.07524e-06 -1.27146e-05
0.000725987 -5.13497e-06 -5.20837e-06
-5.13497e-06 -6.18118e-05 -2.14068e-06
-5.20837e-06 -2.14068e-06 -9.4616e-05
0.00259368 -3.01972e-05 -1.44998e-05
-3.01972e-05 0.000824681 -3.68492e-06
-1.44998e-05 -3.68492e-06 0.000839561
0.0008597 -1.70532e-05 -3.87306e-06
-1.70532e-05 -4.37911e-05 -3.33264e-06
-3.87306e-06 -3.33264e-06 -5.33323e-05
0.000714762 -2.18564e-05 -4.60099e-06
-2.18564e-05 -7.0016e-05 -2.56355e-06
-4.60099e-06 -2.56355e-06 -9.55565e-05
0.000972888 1.4264e-05 -2.32049e-06
1.4264e-05 2.82187e-06 -1.48474e-06
-2.32049e-06 -1.48474e-06 -4.8889e-05
0.000817662 -2.01126e-05 -4.52429e-06
-2.01126e-05 -4.90217e-05 -2.98222e-06
-4.52429e-06 -2.98222e-06 -6.13278e-05
0.000943537 -4.94928e-06 -2.34506e-06
-4.94928e-06 1.26249e-05 -1.84898e-06
-2.34506e-06 -1.84898e-06 -3.25168e-05
0.000945737 3.84197e-06 -2.3896e-06
3.84197e-06 9.47762e-06 -1.28934e-06
-2.3896e-06 -1.28934e-06 -3.92118e-05
0.000943549 2.2089e-05 -1.23244e-06
2.2089e-05 -1.27406e-05 -6.89147e-07
-1.23244e-06 -6.89147e-07 -7.14519e-05
0.000862896 -1.87887e-05 6.93584e-08
-1.87887e-05 -3.53804e-05 -5.11554e-08
6.93584e-08 -5.11554e-08 -4.61964e-05
0.000884654 -1.56235e-05 1.06041e-07
-1.56235e-05 -3.63607e-05 -2.2904e-08
1.06041e-07 -2.2904e-08 -4.48554e-05
0.00097064 -3.24446e-06 7.79699e-08
-3.24446e-06 7.91031e-06 -4.41138e-08
7.79699e-08 -4.41138e-08 -3.16619e-05
0.00100826 1.30911e-05 7.93057e-09
1.30911e-05 6.93824e-06 -4.51045e-08
7.93057e-09 -4.51045e-08 -4.63831e-05
0.000955164 9.75909e-06 -6.44081e-08
9.75909e-06 6.85297e-06 -1.55703e-08
-6.44081e-08 -1.55703e-08 -4.31269e-05
0.00113555 2.76599e-05 6.87475e-08
2.76599e-05 4.1698e-05 3.39898e-08
6.87475e-08 3.39898e-08 -1.90448e-05
0.000954862 -5.71327e-06 -7.84008e-08
-5.71327e-06 1.08941e-05 4.99209e-08
-7.84008e-08 4.99209e-08 -3.10402e-05
0.00104292 2.62159e-05 -2.77132e-08
2.62159e-05 2.55111e-05 -4.30994e-08
-2.77132e-08 -4.30994e-08 -3.19895e-05
0.00105208 1.86566e-05 5.02631e-08
1.86566e-05 5.03313e-05 -1.4166e-07
5.02631e-08 -1.4166e-07 -8.4867e-06
0.00108713 3.35335e-05 -4.72141e-07
3.35335e-05 5.14736e-05 1.31078e-07
-4.72141e-07 1.31078e-07 -1.25547e-05
0.000903801 -1.4145e-05 3.26386e-06
-1.4145e-05 -3.06992e-05 3.45137e-06
3.26386e-06 3.45137e-06 -3.81566e-05
0.000968642 -4.81397e-06 2.5936e-06
-4.81397e-06 1.0462e-05 1.69305e-06
2.5936e-06 1.69305e-06 -2.96827e-05
0.000983574 -2.44491e-06 2.30626e-06
-2.44491e-06 1.09691e-05 2.00653e-06
2.30626e-06 2.00653e-06 -2.78449e-05
0.00104626 1.12787e-05 1.43065e-06
1.12787e-05 4.07593e-05 8.44291e-07
1.43065e-06 8.44291e-07 -1.6234e-05
0.0011437 2.16416e-05 1.54944e-06
2.16416e-05 2.98489e-05 8.70927e-07
1.54944e-06 8.70927e-07 -3.16377e-05
0.00111927 2.88925e-05 1.16353e-06
2.88925e-05 5.13753e-05 1.06304e-06
1.16353e-06 1.06304e-06 -7.49513e-06
0.00119634 3.17249e-05 7.55347e-07
3.17249e-05 5.26483e-05 1.15214e-06
7.55347e-07 1.15214e-06 -1.28547e-05
0.00106474 1.47857e-05 1.20517e-06
1.47857e-05 5.41836e-05 9.81786e-07
1.20517e-06 9.81786e-07 -3.20758e-06
0.00110392 3.37454e-05 2.24512e-07
3.37454e-05 4.40315e-05 6.01311e-07
2.24512e-07 6.01311e-07 -1.84013e-05
0.00110173 3.31439e-05 6.65604e-07
3.31439e-05 7.06782e-05 9.634e-08
6.65604e-07 9.634e-08 3.68048e-06
0.00104792 3.53426e-05 1.97359e-07
3.53426e-05 2.46711e-05 1.37564e-07
1.97359e-07 1.37564e-07 -4.25487e-05
0.000990015 6.47072e-07 1.29874e-06
6.47072e-07 8.47906e-06 2.1667e-06
1.29874e-06 2.1667e-06 -2.59759e-05
0.000905978 -1.09867e-05 2.43179e-06
-1.09867e-05 -3.60137e-05 3.50718e-06
2.43179e-06 3.50718e-06 -4.13742e-05
0.00249071 -1.97571e-05 1.18944e-05
-1.97571e-05 0.00075408 4.16199e-06
1.18944e-05 4.16199e-06 0.00077297
0.00253079 -2.23761e-05 2.75039e-07
-2.23761e-05 0.000777489 -5.62277e-08
2.75039e-07 -5.62277e-08 0.000795514
0.002582 -2.50525e-05 -1.33714e-05
-2.50525e-05 0.000806734 -3.98173e-06
-1.33714e-05 -3.98173e-06 0.000823792
0.000864188 1.5088e-05 3.31733e-06
1.5088e-05 -4.4283e-05 -3.4961e-06
3.31733e-06 -3.4961e-06 -5.3738e-05
0.00264556 2.7561e-05 1.41038e-05
2.7561e-05 0.000845134 -3.88084e-06
1.41038e-05 -3.88084e-06 0.000860503
0.000866051 1.65373e-05 -1.25869e-07
1.65373e-05 -3.91382e-05 -4.27477e-08
-1.25869e-07 -4.27477e-08 -4.9987e-05
0.00260045 3.00029e-05 -1.89616e-07
3.00029e-05 0.000829494 -7.43493e-08
-1.89616e-07 -7.43493e-08 0.000843864
0.000717448 -1.96266e-06 -5.32336e-06
-1.96266e-06 -6.47678e-05 -1.84214e-06
-5.32336e-06 -1.84214e-06 -9.96694e-05
0.00071117 -4.11409e-10 -5.39409e-06
-4.11409e-10 -6.48044e-05 -1.39581e-06
-5.39409e-06 -1.39581e-06 -0.000102497
0.00106118 7.23656e-06 -2.5654e-06
7.23656e-06 1.65682e-05 -1.12156e-06
-2.5654e-06 -1.12156e-06 -3.94474e-05
0.00109322 -3.19018e-06 -2.83957e-06
-3.19018e-06 1.90801e-05 -8.6917e-07
-2.83957e-06 -8.6917e-07 -3.9589e-05
0.000699772 -7.72276e-07 -5.81301e-06
-7.72276e-07 -7.8534e-05 -7.81198e-07
-5.81301e-06 -7.81198e-07 -0.000117889
0.00349796 1.73849e-05 -2.6515e-05
1.73849e-05 0.00137573 1.05e-07
-2.6515e-05 1.05e-07 0.00136693
0.000706846 2.12133e-06 1.20777e-08
2.12133e-06 -7.91776e-05 -1.33892e-07
1.20777e-08 -1.33892e-07 -0.000118399
0.00109535 -1.74136e-06 2.04166e-08
-1.74136e-06 1.16669e-05 -1.45318e-07
2.04166e-08 -1.45318e-07 -4.85716e-05
0.00106575 3.51311e-07 -1.2665e-08
3.51311e-07 1.31558e-05 -5.33794e-09
-1.2665e-08 -5.33794e-09 -4.403e-05
0.00124294 -8.37199e-06 3.27351e-08
-8.37199e-06 4.93058e-05 -1.17949e-08
3.27351e-08 -1.17949e-08 -1.7976e-05
0.00103665 1.12125e-05 1.38258e-08
1.12125e-05 1.13431e-05 -2.61068e-08
1.38258e-08 -2.61068e-08 -4.34137e-05
0.00121567 1.13039e-05 -3.47145e-09
1.13039e-05 4.71452e-05 1.13514e-08
-3.47145e-09 1.13514e-08 -1.62304e-05
0.0011035 1.68474e-06 3.19705e-06
1.68474e-06 1.10452e-05 -1.38372e-07
3.19705e-06 -1.38372e-07 -4.9469e-05
0.00124484 -1.11652e-06 1.63354e-06
-1.11652e-06 4.36821e-05 3.24913e-07
1.63354e-06 3.24913e-07 -2.53821e-05
0.00122272 1.85144e-06 1.56661e-06
1.85144e-06 4.45432e-05 6.0402e-07
1.56661e-06 6.0402e-07 -2.05876e-05
0.00132257 -1.35714e-05 1.07466e-06
-1.35714e-05 6.89672e-05 2.05344e-07
1.07466e-06 2.05344e-07 -4.78198e-07
0.00118703 1.68132e-05 1.28306e-06
1.68132e-05 4.08521e-05 6.63315e-07
1.28306e-06 6.63315e-07 -2.13017e-05
0.00127717 1.12603e-05 7.42692e-07
1.12603e-05 5.5345e-05 6.03445e-07
7.42692e-07 6.03445e-07 -1.02723e-05
0.000724524 1.41503e-05 -5.85581e-06
1.41503e-05 -7.1051e-05 3.98523e-07
-5.85581e-06 3.98523e-07 -0.000110049
0.00133351 1.76514e-05 -1.33971e-05
1.76514e-05 0.000225997 1.16557e-06
-1.33971e-05 1.16557e-06 0.000191788
0.000891172 1.45265e-05 -3.60009e-06
1.45265e-05 -9.463e-05 5.53827e-07
-3.60009e-06 5.53827e-07 -0.00015491
0.00157636 -1.46013e-05 -3.65916e-06
-1.46013e-05 0.000247842 1.01417e-06
-3.65916e-06 1.01417e-06 0.000192465
0.00252851 3.23396e-05 -1.44074e-05
3.23396e-05 0.000803632 3.39234e-06
-1.44074e-05 3.39234e-06 0.000816703
0.00159232 2.65875e-05 -8.44873e-06
2.65875e-05 0.000344284 2.66384e-06
-8.44873e-06 2.66384e-06 0.0003322
0.00141316 1.93139e-06 -2.66542e-06
1.93139e-06 0.000243525 1.67914e-06
-2.66542e-06 1.67914e-06 0.000199019
0.0012765 -1.19927e-05 -3.20877e-06
-1.19927e-05 0.000131801 1.36103e-06
-3.20877e-06 1.36103e-06 7.91154e-05
0.00107432 -2.33094e-05 -2.16045e-06
-2.33094e-05 -3.24904e-05 1.17293e-06
-2.16045e-06 1.17293e-06 -9.78026e-05
0.00137573 -2.75735e-05 -1.37065e-06
-2.75735e-05 0.000150716 8.64252e-07
-1.37065e-06 8.64252e-07 9.14218e-05
0.000899306 -2.38834e-05 -1.34306e-06
-2.38834e-05 -4.28307e-05 1.08869e-06
-1.34306e-06 1.08869e-06 -0.000104515
0.00117877 -3.41766e-05 -8.88785e-07
-3.41766e-05 5.06415e-05 6.23256e-07
-8.88785e-07 6.23256e-07 -1.38204e-05
0.000869634 1.83928e-05 -4.41635e-06
1.83928e-05 -3.13046e-05 3.13376e-06
-4.41635e-06 3.13376e-06 -4.34574e-05
0.000971312 1.3011e-06 -2.61266e-06
1.3011e-06 7.89907e-06 1.98024e-06
-2.61266e-06 1.98024e-06 -3.3786e-05
0.00098951 1.24622e-05 -4.14833e-09
1.24622e-05 -4.51771e-05 1.92676e-08
-4.14833e-09 1.92676e-08 -0.000105652
0.00135899 1.39912e-06 -5.50146e-07
1.39912e-06 0.000136196 7.38574e-08
-5.50146e-07 7.38574e-08 7.94694e-05
0.00140264 1.50893e-05 -5.77174e-07
1.50893e-05 0.000110335 8.82373e-08
-5.77174e-07 8.82373e-08 4.37987e-05
0.00134091 -1.85648e-05 2.86225e-07
-1.85648e-05 8.23446e-05 -2.70611e-07
2.86225e-07 -2.70611e-07 1.66132e-05
0.000842041 2.00076e-05 -1.06733e-08
2.00076e-05 -3.72045e-05 -4.93878e-08
-1.06733e-08 -4.93878e-08 -5.06844e-05
0.000948981 2.61448e-06 4.61938e-08
2.61448e-06 1.42061e-05 9.61313e-09
4.61938e-08 9.61313e-09 -3.07867e-05
0.000933121 -2.22015e-05 3.72237e-07
-2.22015e-05 -1.03712e-05 -2.57343e-07
3.72237e-07 -2.57343e-07 -7.03807e-05
0.00135276 -2.70071e-05 -3.22444e-07
-2.70071e-05 0.000125737 9.61607e-08
-3.22444e-07 9.61607e-08 6.49693e-05
0.00131613 -2.51623e-05 -1.7597e-07
-2.51623e-05 6.10172e-05 3.57729e-07
-1.7597e-07 3.57729e-07 -5.83683e-06
0.00123418 -3.74887e-05 -3.5346e-07
-3.74887e-05 9.96707e-05 1.03257e-07
-3.5346e-07 1.03257e-07 3.2442e-05
0.00122097 -3.19521e-05 6.49995e-08
-3.19521e-05 5.213e-05 9.40158e-08
6.49995e-08 9.40158e-08 -1.1028e-05
0.00121081 -3.67048e-05 2.74315e-07
-3.67048e-05 5.34752e-05 2.49616e-07
2.74315e-07 2.49616e-07 -1.14216e-05
0.000963027 2.08115e-06 -1.28457e-08
2.08115e-06 7.8448e-06 -4.97173e-08
-1.28457e-08 -4.97173e-08 -3.44423e-05
0.000993748 -1.72756e-05 7.06205e-09
-1.72756e-05 1.35998e-05 -1.03374e-07
7.06205e-09 -1.03374e-07 -4.71075e-05
0.000975791 3.08772e-07 -1.46629e-07
3.08772e-07 8.52202e-06 -2.72877e-08
-1.46629e-07 -2.72877e-08 -3.22201e-05
0.00149071 1.87804e-05 1.37466e-06
1.87804e-05 0.000157548 6.471e-09
1.37466e-06 6.471e-09 9.00938e-05
0.00139589 4.58931e-07 1.85451e-06
4.58931e-07 0.000101644 -8.0024e-08
1.85451e-06 -8.0024e-08 3.53971e-05
0.00142085 1.81086e-05 1.53763e-06
1.81086e-05 9.64688e-05 2.40556e-07
1.53763e-06 2.40556e-07 2.60284e-05
0.00135468 -1.32688e-05 1.00435e-06
-1.32688e-05 6.20882e-05 -7.74571e-07
1.00435e-06 -7.74571e-07 -7.01319e-06
0.00113248 -2.90505e-05 8.27359e-07
-2.90505e-05 -3.72459e-06 -8.44517e-07
8.27359e-07 -8.44517e-07 -6.74085e-05
0.00142872 -2.45497e-05 -4.63046e-08
-2.45497e-05 0.00010115 -1.33862e-07
-4.63046e-08 -1.33862e-07 3.68642e-05
0.000939586 3.79058e-06 2.6777e-06
3.79058e-06 3.98737e-06 -1.73696e-06
2.6777e-06 -1.73696e-06 -3.93366e-05
0.00122889 -3.36935e-05 4.20281e-07
-3.36935e-05 4.41996e-05 -4.21996e-07
4.20281e-07 -4.21996e-07 -1.82874e-05
0.00103157 -2.00314e-05 1.06429e-06
-2.00314e-05 4.01248e-05 -7.59293e-07
1.06429e-06 -7.59293e-07 -1.79201e-05
0.000917215 -3.32782e-05 1.1733e-06
-3.32782e-05 -2.94124e-05 -1.67178e-06
1.1733e-06 -1.67178e-06 -9.72703e-05
0.00130761 -4.14682e-05 1.36828e-06
-4.14682e-05 0.000124561 -4.07116e-07
1.36828e-06 -4.07116e-07 5.37107e-05
0.00147345 -4.12582e-05 1.05639e-07
-4.12582e-05 0.000174084 6.4215e-07
1.05639e-07 6.4215e-07 0.000111719
0.000981496 -3.4185e-07 1.8625e-06
-3.4185e-07 1.02081e-05 -2.28488e-06
1.8625e-06 -2.28488e-06 -2.86315e-05
0.00104977 -1.74072e-05 1.58745e-06
-1.74072e-05 4.27264e-05 -8.1254e-07
1.58745e-06 -8.1254e-07 -1.60784e-05
0.000893508 -1.52831e-05 1.88416e-06
-1.52831e-05 -3.30543e-05 -1.73679e-06
1.88416e-06 -1.73679e-06 -9.59492e-05
0.00126268 -3.4838e-05 5.15812e-07
-3.4838e-05 0.000144883 2.48249e-08
5.15812e-07 2.48249e-08 7.67334e-05
0.00101924 1.40797e-05 -2.50921e-06
1.40797e-05 1.17718e-05 -1.36897e-06
-2.50921e-06 -1.36897e-06 -4.15342e-05
0.000871396 -1.54985e-05 -3.44914e-06
-1.54985e-05 -4.31817e-05 -3.45221e-06
-3.44914e-06 -3.45221e-06 -5.15643e-05
0.000844753 -1.85989e-05 -4.26418e-06
-1.85989e-05 -4.45076e-05 -3.15385e-06
-4.26418e-06 -3.15385e-06 -5.52183e-05
0.000965807 -2.83516e-06 -2.46141e-06
-2.83516e-06 5.8885e-06 -1.96602e-06
-2.46141e-06 -1.96602e-06 -3.37459e-05
0.000938997 9.70983e-06 -2.151e-06
9.70983e-06 -3.65704e-07 -1.34634e-06
-2.151e-06 -1.34634e-06 -5.03598e-05
0.00112845 2.77547e-05 -1.29758e-06
2.77547e-05 3.85745e-05 -1.05791e-06
-1.29758e-06 -1.05791e-06 -2.22029e-05
0.000942749 -6.83102e-06 -2.59222e-06
-6.83102e-06 6.16575e-06 -1.73704e-06
-2.59222e-06 -1.73704e-06 -3.58984e-05
0.0010476 1.91858e-05 -1.13566e-06
1.91858e-05 4.81884e-05 -9.86058e-07
-1.13566e-06 -9.86058e-07 -1.07067e-05
0.00111026 2.75502e-05 -1.02686e-06
2.75502e-05 5.8379e-05 -6.44553e-07
-1.02686e-06 -6.44553e-07 1.18238e-06
0.0010047 3.25527e-05 -1.24725e-06
3.25527e-05 1.09252e-05 -3.27091e-07
-1.24725e-06 -3.27091e-07 -5.34706e-05
0.000892968 -1.40351e-05 1.07735e-07
-1.40351e-05 -3.6333e-05 -1.29535e-08
1.07735e-07 -1.29535e-08 -4.3679e-05
0.000962907 -4.62415e-06 3.00323e-08
-4.62415e-06 8.15489e-06 -2.65946e-08
3.00323e-08 -2.65946e-08 -3.2072e-05
0.000977695 -2.13205e-06 7.80456e-08
-2.13205e-06 8.4093e-06 -2.93279e-08
7.80456e-08 -2.93279e-08 -3.04544e-05
0.00104384 1.07747e-05 5.29e-08
1.07747e-05 4.00337e-05 -6.27061e-08
5.29e-08 -6.27061e-08 -1.70583e-05
0.00116953 2.22001e-05 2.39209e-07
2.22001e-05 4.18268e-05 1.10911e-07
2.39209e-07 1.10911e-07 -1.97165e-05
0.00110108 2.89842e-05 4.94126e-08
2.89842e-05 4.31867e-05 1.2515e-08
4.94126e-08 1.2515e-08 -1.56596e-05
0.00119355 3.16793e-05 -5.29051e-09
3.16793e-05 5.14714e-05 2.073e-07
-5.29051e-09 2.073e-07 -1.40623e-05
0.00105177 1.43384e-05 -8.90613e-08
1.43384e-05 4.87492e-05 2.43113e-08
-8.90613e-08 2.43113e-08 -8.69347e-06
0.00119446 3.49903e-05 -2.89319e-07
3.49903e-05 8.83398e-05 -2.7117e-07
-2.89319e-07 -2.7117e-07 2.62928e-05
0.00110919 3.36904e-05 1.31281e-07
3.36904e-05 7.3954e-05 -2.45728e-07
1.31281e-07 -2.45728e-07 6.7574e-06
0.00105383 3.52258e-05 -9.05834e-07
3.52258e-05 2.91524e-05 -3.0561e-08
-9.05834e-07 -3.0561e-08 -3.69503e-05
0.000909087 -1.25445e-05 2.84836e-06
-1.25445e-05 -3.15698e-05 3.49214e-06
2.84836e-06 3.49214e-06 -3.79116e-05
0.000988976 -1.18401e-06 2.07689e-06
-1.18401e-06 1.13006e-05 2.10182e-06
2.07689e-06 2.10182e-06 -2.6603e-05
0.00105513 1.35522e-05 1.42999e-06
1.35522e-05 4.50653e-05 7.90323e-07
1.42999e-06 7.90323e-07 -1.14697e-05
0.00104343 1.00695e-05 1.32491e-06
1.00695e-05 4.01379e-05 1.02971e-06
1.32491e-06 1.02971e-06 -1.71906e-05
0.00107116 2.43913e-05 8.73438e-07
2.43913e-05 5.20868e-05 2.08145e-07
8.73438e-07 2.08145e-07 -1.47276e-05
0.00119177 2.21518e-05 1.09333e-06
2.21518e-05 3.2795e-05 6.51596e-07
1.09333e-06 6.51596e-07 -3.2231e-05
0.00116156 3.47468e-05 6.09176e-07
3.47468e-05 5.84579e-05 1.04314e-06
6.09176e-07 1.04314e-06 -5.53373e-06
0.00123464 3.33238e-05 1.43453e-07
3.33238e-05 6.46698e-05 1.13882e-06
1.43453e-07 1.13882e-06 -3.1145e-06
0.00111559 3.09836e-05 1.21916e-06
3.09836e-05 7.69019e-05 1.1696e-06
1.21916e-06 1.1696e-06 1.02643e-05
0.00116368 3.72885e-05 8.30717e-07
3.72885e-05 6.71178e-05 7.37881e-07
8.30717e-07 7.37881e-07 1.18171e-06
0.000902154 3.43298e-05 8.72316e-07
3.43298e-05 -3.34188e-05 -7.8756e-08
8.72316e-07 -7.8756e-08 -0.000107715
0.000991978 5.22642e-07 1.61117e-06
5.22642e-07 1.00063e-05 2.19579e-06
1.61117e-06 2.19579e-06 -2.566e-05
0.00104901 1.21366e-05 8.20089e-07
1.21366e-05 4.39727e-05 1.28547e-06
8.20089e-07 1.28547e-06 -1.11015e-05
0.000987625 1.10395e-06 1.00811e-06
1.10395e-06 6.88668e-06 2.10301e-06
1.00811e-06 2.10301e-06 -2.64353e-05
0.00098883 5.34308e-07 8.52162e-08
5.34308e-07 7.83492e-06 1.52333e-08
8.52162e-08 1.52333e-08 -2.6581e-05
0.00155668 -1.16506e-05 2.0877e-06
-1.16506e-05 0.000283915 2.16836e-06
2.0877e-06 2.16836e-06 0.000282673
0.00123797 -1.20346e-05 4.75494e-07
-1.20346e-05 0.000128539 -2.94453e-09
4.75494e-07 -2.94453e-09 0.000124823
0.00118637 -1.28905e-05 1.0605e-05
-1.28905e-05 0.000103432 6.8889e-06
1.0605e-05 6.8889e-06 0.000116671
0.00251167 -1.98274e-05 3.27711e-07
-1.98274e-05 0.000764223 -4.92052e-08
3.27711e-07 -4.92052e-08 0.000783087
0.00256046 -2.24698e-05 -1.24916e-05
-2.24698e-05 0.000791804 -4.07182e-06
-1.24916e-05 -4.07182e-06 0.000809788
0.000874158 1.40391e-05 2.81721e-06
1.40391e-05 -4.23098e-05 -3.44786e-06
2.81721e-06 -3.44786e-06 -5.03499e-05
0.00260835 2.49945e-05 1.32799e-05
2.49945e-05 0.000822611 -3.96884e-06
1.32799e-05 -3.96884e-06 0.00083899
0.000876067 1.51921e-05 -1.2758e-07
1.51921e-05 -3.80764e-05 -1.67927e-08
-1.2758e-07 -1.67927e-08 -4.76758e-05
0.00260417 2.74345e-05 -2.1486e-07
2.74345e-05 0.000825279 -7.05087e-08
-2.1486e-07 -7.05087e-08 0.000840701
0.000877144 1.67036e-05 -4.07485e-06
1.67036e-05 -3.31744e-05 3.33127e-06
-4.07485e-06 3.33127e-06 -4.41542e-05
0.00254711 2.9884e-05 -1.43007e-05
2.9884e-05 0.000804305 3.62681e-06
-1.43007e-05 3.62681e-06 0.000818711
0.0010497 1.20247e-05 -2.5479e-06
1.20247e-05 1.74784e-05 -1.24611e-06
-2.5479e-06 -1.24611e-06 -3.72689e-05
0.00107378 1.62711e-06 -2.63337e-06
1.62711e-06 1.68969e-05 -9.40983e-07
-2.63337e-06 -9.40983e-07 -4.02428e-05
0.00121825 9.17172e-06 -1.37516e-06
9.17172e-06 4.86152e-05 -6.50141e-07
-1.37516e-06 -6.50141e-07 -1.47881e-05
0.0012666 -9.19435e-06 -1.70881e-06
-9.19435e-06 6.04032e-05 -5.5899e-07
-1.70881e-06 -5.5899e-07 -6.92298e-06
0.0011028 1.31548e-07 -3.13578e-06
1.31548e-07 1.52188e-05 -7.05727e-07
-3.13578e-06 -7.05727e-07 -4.49683e-05
0.000706739 3.70559e-06 -5.85178e-06
3.70559e-06 -7.90999e-05 -1.59278e-07
-5.85178e-06 -1.59278e-07 -0.000118357
0.00110324 3.11418e-06 1.70993e-08
3.11418e-06 1.08436e-05 -1.48431e-07
1.70993e-08 -1.48431e-07 -4.97046e-05
0.00125859 -1.79253e-07 -2.65843e-08
-1.79253e-07 5.02632e-05 -7.20105e-08
-2.65843e-08 -7.20105e-08 -1.88271e-05
0.0012296 -1.84643e-06 5.32972e-08
-1.84643e-06 4.79699e-05 -1.24079e-08
5.32972e-08 -1.24079e-08 -1.71689e-05
0.00132337 -1.43043e-05 -1.85444e-08
-1.43043e-05 6.8594e-05 -1.84541e-08
-1.85444e-08 -1.84541e-08 -9.12124e-07
0.00119313 1.6878e-05 -4.89846e-08
1.6878e-05 4.3695e-05 8.49595e-09
-4.89846e-08 8.49595e-09 -1.84946e-05
0.00128299 1.04949e-05 -2.55066e-09
1.04949e-05 5.85305e-05 9.48756e-08
-2.55066e-09 9.48756e-08 -7.10941e-06
0.00127127 7.85806e-06 1.95692e-06
7.85806e-06 5.17418e-05 -1.42056e-07
1.95692e-06 -1.42056e-07 -1.77923e-05
0.00127091 -5.06434e-06 9.21001e-07
-5.06434e-06 4.31083e-05 3.05452e-07
9.21001e-07 3.05452e-07 -2.77486e-05
0.00128532 -8.35617e-08 9.96517e-07
-8.35617e-08 5.27132e-05 3.49887e-07
9.96517e-07 3.49887e-07 -1.49119e-05
0.00141572 -1.82624e-05 1.43028e-06
-1.82624e-05 0.000100761 1.00792e-07
1.43028e-06 1.00792e-07 3.18988e-05
0.00125109 1.45437e-05 5.94962e-07
1.45437e-05 5.1252e-05 4.23561e-07
5.94962e-07 4.23561e-07 -1.33272e-05
0.00134757 2.92248e-06 -4.3756e-07
2.92248e-06 7.58344e-05 8.08357e-07
-4.3756e-07 8.08357e-07 1.36332e-05
0.0008998 1.42218e-05 -3.17401e-06
1.42218e-05 -8.92883e-05 3.00346e-07
-3.17401e-06 3.00346e-07 -0.000150465
0.00134843 -3.45826e-06 -3.72972e-06
-3.45826e-06 0.000130356 7.17477e-07
-3.72972e-06 7.17477e-07 7.38322e-05
0.00129572 1.98487e-05 -2.51292e-06
1.98487e-05 5.86298e-05 8.01204e-08
-2.51292e-06 8.01204e-08 -8.14362e-06
0.00154059 -2.02159e-05 -1.57802e-06
-2.02159e-05 0.000180384 3.11134e-07
-1.57802e-06 3.11134e-07 0.000115562
0.000865676 2.0305e-05 -4.58326e-06
2.0305e-05 -2.53451e-05 2.93353e-06
-4.58326e-06 2.93353e-06 -3.89592e-05
0.000968662 1.41034e-06 -2.41469e-06
1.41034e-06 2.21448e-05 1.62793e-06
-2.41469e-06 1.62793e-06 -2.26746e-05
0.00103307 -2.33567e-05 -7.4074e-07
-2.33567e-05 3.89295e-05 8.75945e-07
-7.4074e-07 8.75945e-07 -2.05676e-05
0.0014316 -2.76268e-05 -1.67046e-06
-2.76268e-05 0.000162972 9.6605e-07
-1.67046e-06 9.6605e-07 0.000102271
0.00118625 -2.31393e-05 -9.93898e-07
-2.31393e-05 -2.35385e-06 1.07398e-06
-9.93898e-07 1.07398e-06 -6.91798e-05
0.00122044 -3.1852e-05 -7.69397e-07
-3.1852e-05 5.18826e-05 7.52779e-07
-7.69397e-07 7.52779e-07 -1.12395e-05
0.00103715 -3.46631e-05 -1.38345e-06
-3.46631e-05 4.89161e-06 1.13817e-06
-1.38345e-06 1.13817e-06 -6.2964e-05
0.00113004 -3.54786e-05 -4.3818e-07
-3.54786e-05 1.4679e-05 3.11061e-07
-4.3818e-07 3.11061e-07 -5.02565e-05
0.000969608 2.30306e-06 -2.65281e-06
2.30306e-06 1.06469e-05 1.76571e-06
-2.65281e-06 1.76571e-06 -3.15264e-05
0.000925547 -1.63823e-05 -1.66461e-06
-1.63823e-05 -2.11237e-05 8.77761e-07
-1.66461e-06 8.77761e-07 -8.20775e-05
0.000976208 7.24678e-07 -2.32048e-06
7.24678e-07 8.8379e-06 2.1821e-06
-2.32048e-06 2.1821e-06 -3.18932e-05
0.00135917 1.89942e-05 -5.58632e-07
1.89942e-05 9.36667e-05 1.39197e-07
-5.58632e-07 1.39197e-07 2.55505e-05
0.00139109 -5.19943e-06 -2.33945e-07
-5.19943e-06 9.89931e-05 2.19482e-08
-2.33945e-07 2.19482e-08 3.28459e-05
0.00133843 2.02518e-05 -3.25233e-07
2.02518e-05 5.51265e-05 -3.40186e-08
-3.25233e-07 -3.40186e-08 -1.58446e-05
0.00142311 -1.20879e-05 -4.00308e-08
-1.20879e-05 9.4628e-05 -2.92938e-07
-4.00308e-08 -2.92938e-07 2.5777e-05
0.000954485 3.3713e-06 2.97986e-08
3.3713e-06 1.01607e-05 -2.58898e-08
2.97986e-08 -2.58898e-08 -3.30047e-05
0.00105353 -2.01616e-05 7.787e-08
-2.01616e-05 4.99744e-05 4.22073e-08
7.787e-08 4.22073e-08 -8.04099e-06
0.00101211 -3.44423e-05 1.96387e-07
-3.44423e-05 1.82062e-05 -3.08075e-07
1.96387e-07 -3.08075e-07 -4.9155e-05
0.00127473 -3.04394e-05 -4.50086e-08
-3.04394e-05 6.50924e-05 -1.25354e-07
-4.50086e-08 -1.25354e-07 1.50046e-06
0.00133028 -2.39183e-05 2.54548e-07
-2.39183e-05 5.35186e-05 5.80948e-07
2.54548e-07 5.80948e-07 -9.98912e-06
0.0011839 -3.99792e-05 6.8568e-08
-3.99792e-05 6.61155e-05 9.90427e-08
6.8568e-08 9.90427e-08 -5.58171e-06
0.00123754 -3.3314e-05 4.87825e-08
-3.3314e-05 4.82499e-05 1.504e-07
4.87825e-08 1.504e-07 -1.41527e-05
0.00135314 -3.94293e-05 4.46908e-07
-3.94293e-05 0.000116027 3.2703e-07
4.46908e-07 3.2703e-07 5.43428e-05
0.00105589 -1.78608e-05 8.69354e-08
-1.78608e-05 4.49077e-05 -6.75947e-08
8.69354e-08 -6.75947e-08 -1.3714e-05
0.00114757 -3.3164e-05 -3.55489e-07
-3.3164e-05 8.74464e-05 1.76447e-07
-3.55489e-07 1.76447e-07 1.89107e-05
0.000976871 -3.54544e-07 -9.51461e-08
-3.54544e-07 8.30452e-06 1.7271e-08
-9.51461e-08 1.7271e-08 -3.05929e-05
0.000899552 -1.50716e-05 4.24861e-07
-1.50716e-05 -3.05304e-05 -4.04864e-07
4.24861e-07 -4.04864e-07 -9.33783e-05
0.00136589 2.08483e-05 1.80061e-06
2.08483e-05 7.81607e-05 1.72057e-07
1.80061e-06 1.72057e-07 6.02032e-06
0.0015409 2.77858e-06 1.33554e-06
2.77858e-06 0.000139531 9.74649e-08
1.33554e-06 9.74649e-08 6.93753e-05
0.00130962 2.20866e-05 1.15981e-06
2.20866e-05 3.08933e-05 3.80509e-07
1.15981e-06 3.80509e-07 -4.27354e-05
0.00131674 -8.1805e-06 2.84084e-07
-8.1805e-06 2.80061e-05 -1.23493e-06
2.84084e-07 -1.23493e-06 -3.91663e-05
0.00120027 -2.99195e-05 6.42023e-08
-2.99195e-05 1.60862e-05 -3.61305e-07
6.42023e-08 -3.61305e-07 -4.53048e-05
0.00148079 -2.2797e-05 8.65808e-07
-2.2797e-05 0.000111143 -3.56703e-07
8.65808e-07 -3.56703e-07 5.24898e-05
0.00103914 -1.72564e-05 1.28972e-06
-1.72564e-05 4.1118e-05 -6.74431e-07
1.28972e-06 -6.74431e-07 -1.65751e-05
0.0012203 -3.33446e-05 -3.6172e-07
-3.33446e-05 3.27921e-05 -3.53343e-08
-3.6172e-07 -3.53343e-08 -2.43922e-05
0.000913192 -3.19078e-05 6.88803e-07
-3.19078e-05 -2.35871e-05 -1.13994e-06
6.88803e-07 -1.13994e-06 -8.87774e-05
0.00113174 -3.95964e-05 1.2843e-06
-3.95964e-05 7.0225e-05 -1.57203e-06
1.2843e-06 -1.57203e-06 -4.18304e-06
0.00123395 -4.3158e-05 1.69978e-06
-4.3158e-05 8.31643e-05 6.5176e-07
1.69978e-06 6.5176e-07 9.2158e-06
0.00154337 -4.2283e-05 8.32488e-07
-4.2283e-05 0.000198653 -2.38068e-10
8.32488e-07 -2.38068e-10 0.0001379
0.000976156 1.1276e-06 1.32323e-06
1.1276e-06 7.82846e-06 -2.21606e-06
1.32323e-06 -2.21606e-06 -2.91342e-05
0.000851777 -1.31562e-05 1.56958e-06
-1.31562e-05 -5.17014e-05 -2.07889e-06
1.56958e-06 -2.07889e-06 -0.000114238
0.00109682 -3.2655e-05 8.4169e-07
-3.2655e-05 5.99131e-05 -8.41869e-08
8.4169e-07 -8.41869e-08 -5.52538e-06
0.00113408 -3.21362e-05 1.11126e-06
-3.21362e-05 8.82314e-05 -3.59825e-07
1.11126e-06 -3.59825e-07 1.47811e-05
0.00124376 -3.81294e-05 5.80216e-07
-3.81294e-05 0.000129415 1.99982e-07
5.80216e-07 1.99982e-07 5.80724e-05
0.000882712 -1.39245e-05 -3.03112e-06
-1.39245e-05 -4.16966e-05 -3.51703e-06
-3.03112e-06 -3.51703e-06 -4.89306e-05
0.00118827 2.26915e-05 -1.09706e-06
2.26915e-05 5.05156e-05 -6.72264e-07
-1.09706e-06 -6.72264e-07 -1.10914e-05
0.000971472 -1.84677e-06 -2.24342e-06
-1.84677e-06 5.67733e-06 -2.10086e-06
-2.24342e-06 -2.10086e-06 -3.32348e-05
0.000956737 -4.55063e-06 -2.64243e-06
-4.55063e-06 5.65147e-06 -1.80516e-06
-2.64243e-06 -1.80516e-06 -3.46595e-05
0.00104193 1.02776e-05 -1.33884e-06
1.02776e-05 3.95391e-05 -1.00076e-06
-1.33884e-06 -1.00076e-06 -1.76516e-05
0.00108424 2.91236e-05 -1.12864e-06
2.91236e-05 3.56406e-05 -1.07522e-06
-1.12864e-06 -1.07522e-06 -2.31835e-05
0.00119047 3.16123e-05 -7.01884e-07
3.16123e-05 5.01655e-05 -7.26256e-07
-7.01884e-07 -7.26256e-07 -1.53999e-05
0.00103671 1.40134e-05 -1.22587e-06
1.40134e-05 4.23085e-05 -8.15026e-07
-1.22587e-06 -8.15026e-07 -1.51733e-05
0.00112018 3.4257e-05 -9.0849e-07
3.4257e-05 7.8914e-05 -8.96062e-07
-9.0849e-07 -8.96062e-07 1.15171e-05
0.00128341 3.62345e-05 -1.00834e-06
3.62345e-05 0.000131854 -8.66817e-07
-1.00834e-06 -8.66817e-07 7.01979e-05
0.00105702 3.50637e-05 -1.8713e-06
3.50637e-05 3.22577e-05 1.25059e-07
-1.8713e-06 1.25059e-07 -3.2715e-05
0.000901227 -1.24653e-05 1.12311e-07
-1.24653e-05 -3.56334e-05 -6.75791e-09
1.12311e-07 -6.75791e-09 -4.18832e-05
0.000983437 -7.89129e-07 6.07956e-08
-7.89129e-07 8.76586e-06 -1.90655e-08
6.07956e-08 -1.90655e-08 -2.91733e-05
0.00105014 1.25162e-05 -3.25349e-08
1.25162e-05 4.32688e-05 -3.32417e-08
-3.25349e-08 -3.32417e-08 -1.33468e-05
0.00104204 9.74186e-06 9.31087e-09
9.74186e-06 3.98196e-05 -2.74627e-08
9.31087e-09 -2.74627e-08 -1.76057e-05
0.00103627 2.34388e-05 5.77738e-08
2.34388e-05 3.47809e-05 -9.84833e-08
5.77738e-08 -9.84833e-08 -3.20892e-05
0.00122673 2.28813e-05 3.63217e-07
2.28813e-05 4.87311e-05 1.61997e-07
3.63217e-07 1.61997e-07 -1.63452e-05
0.00115267 3.48047e-05 9.79343e-08
3.48047e-05 5.46041e-05 -5.44678e-08
9.79343e-08 -5.44678e-08 -9.42122e-06
0.00120932 3.39425e-05 3.60945e-07
3.39425e-05 5.24328e-05 3.34182e-07
3.60945e-07 3.34182e-07 -1.56422e-05
0.00110062 3.15002e-05 3.81893e-07
3.15002e-05 7.02559e-05 3.44985e-07
3.81893e-07 3.44985e-07 3.6126e-06
0.00120872 3.75913e-05 8.84062e-08
3.75913e-05 8.94691e-05 -2.36718e-07
8.84062e-08 -2.36718e-07 2.3862e-05
0.00102131 3.60902e-05 -6.11942e-07
3.60902e-05 2.22721e-05 -3.63566e-07
-6.11942e-07 -3.63566e-07 -5.12932e-05
0.000991885 1.04825e-07 1.89166e-06
1.04825e-07 1.09739e-05 2.16705e-06
1.89166e-06 2.16705e-06 -2.58648e-05
0.00104579 1.10757e-05 1.29433e-06
1.10757e-05 4.12088e-05 1.12334e-06
1.29433e-06 1.12334e-06 -1.61684e-05
0.00104185 2.7707e-05 7.11112e-07
2.7707e-05 3.53155e-05 2.81748e-07
7.11112e-07 2.81748e-07 -3.06371e-05
0.00107656 2.112e-05 7.2919e-07
2.112e-05 5.71577e-05 3.80248e-07
7.2919e-07 3.80248e-07 -1.07725e-05
0.00117413 3.32903e-05 1.1919e-07
3.32903e-05 0.000102325 -2.14124e-07
1.1919e-07 -2.14124e-07 3.08608e-05
0.00120175 2.09135e-05 -2.57825e-07
2.09135e-05 2.74757e-05 -5.9762e-08
-2.57825e-07 -5.9762e-08 -3.77413e-05
0.00118209 3.85239e-05 7.81893e-07
3.85239e-05 6.25791e-05 1.01733e-06
7.81893e-07 1.01733e-06 -4.82818e-06
0.00106668 3.74193e-05 -1.12765e-07
3.74193e-05 -1.39418e-05 4.16234e-07
-1.12765e-07 4.16234e-07 -8.12076e-05
0.00110668 3.73141e-05 7.19923e-07
3.73141e-05 7.23824e-05 1.29648e-06
7.19923e-07 1.29648e-06 -2.32621e-06
0.00118748 4.06656e-05 1.63624e-06
4.06656e-05 8.65975e-05 4.29719e-07
1.63624e-06 4.29719e-07 9.75212e-06
0.000987706 3.27609e-07 9.58218e-08
3.27609e-07 7.87302e-06 8.40201e-09
9.58218e-08 8.40201e-09 -2.77588e-05
0.000878023 1.02426e-05 1.28706e-06
1.02426e-05 -4.15188e-05 1.75297e-06
1.28706e-06 1.75297e-06 -9.90537e-05
0.000957208 1.04438e-05 3.64976e-09
1.04438e-05 -1.13433e-06 1.15328e-08
3.64976e-09 1.15328e-08 -5.69186e-05
0.00124487 2.44367e-05 3.06122e-07
2.44367e-05 0.000148019 2.6232e-07
3.06122e-07 2.6232e-07 8.03427e-05
0.00104277 1.02367e-05 5.95625e-07
1.02367e-05 4.25142e-05 1.26907e-06
5.95625e-07 1.26907e-06 -1.15324e-05
0.000990415 1.7507e-06 7.71967e-07
1.7507e-06 7.81531e-06 2.03878e-06
7.71967e-07 2.03878e-06 -2.4609e-05
0.000991175 5.51684e-07 6.47558e-08
5.51684e-07 8.66461e-06 1.762e-08
6.47558e-08 1.762e-08 -2.46407e-05
0.00155456 -9.74334e-06 1.6644e-06
-9.74334e-06 0.000279965 2.12888e-06
1.6644e-06 2.12888e-06 0.000279604
0.000987706 4.45375e-07 -1.11516e-06
4.45375e-07 7.21602e-06 -2.1656e-06
-1.11516e-06 -2.1656e-06 -2.71605e-05
0.00157766 -1.10877e-05 -1.76706e-06
-1.10877e-05 0.000294264 -1.3171e-06
-1.76706e-06 -1.3171e-06 0.000293022
0.0012028 -1.11229e-05 9.26844e-06
-1.11229e-05 0.000107786 6.8842e-06
9.26844e-06 6.8842e-06 0.000121836
0.0015733 -1.23692e-05 -5.28866e-06
-1.23692e-05 0.000294733 -3.41918e-06
-5.28866e-06 -3.41918e-06 0.000292686
0.00181672 -1.51489e-05 7.16754e-06
-1.51489e-05 0.000416133 2.49653e-06
7.16754e-06 2.49653e-06 0.000432667
0.00253154 -1.99028e-05 -1.14067e-05
-1.99028e-05 0.000773847 -4.13923e-06
-1.14067e-05 -4.13923e-06 0.000792686
0.000885509 1.3244e-05 2.27709e-06
1.3244e-05 -3.97992e-05 -3.35052e-06
2.27709e-06 -3.35052e-06 -4.61769e-05
0.000887099 1.41048e-05 -1.36548e-07
1.41048e-05 -3.58453e-05 -1.22274e-09
-1.36548e-07 -1.22274e-09 -4.40099e-05
0.00254754 2.24755e-05 1.21524e-05
2.24755e-05 0.000788641 -3.99726e-06
1.21524e-05 -3.99726e-06 0.00080614
0.00258417 2.48937e-05 -2.33542e-07
2.48937e-05 0.00081088 -6.25951e-08
-2.33542e-07 -6.25951e-08 0.000827282
0.000888193 1.53062e-05 -3.60585e-06
1.53062e-05 -3.17824e-05 3.45309e-06
-3.60585e-06 3.45309e-06 -4.15223e-05
0.00256361 2.73533e-05 -1.40801e-05
2.73533e-05 0.000805881 3.84158e-06
-1.40801e-05 3.84158e-06 0.000821344
0.00120127 1.70738e-05 -1.35203e-06
1.70738e-05 4.74969e-05 -6.63516e-07
-1.35203e-06 -6.63516e-07 -1.47304e-05
0.00123652 -2.03467e-06 -1.50919e-06
-2.03467e-06 5.13435e-05 -6.33582e-07
-1.50919e-06 -6.33582e-07 -1.38032e-05
0.00128747 1.06684e-05 -6.81436e-07
1.06684e-05 6.10456e-05 -4.25785e-07
-6.81436e-07 -4.25785e-07 -4.60933e-06
0.00131876 -1.50885e-05 -1.12015e-06
-1.50885e-05 6.56606e-05 -2.48586e-07
-1.12015e-06 -2.48586e-07 -3.90727e-06
0.0012773 2.63723e-06 -1.74682e-06
2.63723e-06 5.91938e-05 -4.61101e-07
-1.74682e-06 -4.61101e-07 -9.94722e-06
0.00110021 7.17416e-06 -3.14097e-06
7.17416e-06 9.2823e-06 -1.28026e-07
-3.14097e-06 -1.28026e-07 -5.1256e-05
0.00127468 1.18311e-05 5.48531e-08
1.18311e-05 5.35708e-05 -1.77379e-07
5.48531e-08 -1.77379e-07 -1.59963e-05
0.00129699 -1.17043e-05 1.49042e-09
-1.17043e-05 5.50434e-05 3.27327e-08
1.49042e-09 3.27327e-08 -1.60346e-05
0.00129804 -1.40142e-06 5.37123e-08
-1.40142e-06 5.8954e-05 -9.28904e-08
5.37123e-08 -9.28904e-08 -8.66561e-06
0.00140367 -1.88836e-05 6.44318e-08
-1.88836e-05 9.45008e-05 -2.00269e-07
6.44318e-08 -2.00269e-07 2.55348e-05
0.00125554 1.51684e-05 -3.96775e-08
1.51684e-05 5.33542e-05 3.95815e-08
-3.96775e-08 3.95815e-08 -1.13231e-05
0.00133407 2.79582e-06 -3.89423e-08
2.79582e-06 6.86311e-05 5.25339e-07
-3.89423e-08 5.25339e-07 6.6662e-06
0.00135301 3.44703e-06 1.40235e-06
3.44703e-06 7.83363e-05 1.22451e-07
1.40235e-06 1.22451e-07 6.32426e-06
0.00129646 -4.87765e-06 1.10528e-06
-4.87765e-06 5.29878e-05 -1.20238e-07
1.10528e-06 -1.20238e-07 -1.79833e-05
0.001209 -6.94646e-06 7.4855e-07
-6.94646e-06 -4.56738e-07 1.12369e-06
7.4855e-07 1.12369e-06 -6.59779e-05
0.00156916 -2.36251e-05 1.24037e-06
-2.36251e-05 0.00016954 9.2734e-08
1.24037e-06 9.2734e-08 0.000100412
0.00122986 1.10509e-05 -3.55573e-07
1.10509e-05 2.67156e-05 3.97434e-08
-3.55573e-07 3.97434e-08 -3.55924e-05
0.00149854 -3.20279e-06 1.83275e-07
-3.20279e-06 0.000134798 5.53749e-07
1.83275e-07 5.53749e-07 7.72419e-05
0.00121748 1.83485e-05 -2.44809e-06
1.83485e-05 2.49309e-05 1.85716e-07
-2.44809e-06 1.85716e-07 -4.38248e-05
0.00138676 -7.46823e-06 -2.31611e-06
-7.46823e-06 9.675e-05 2.52535e-07
-2.31611e-06 2.52535e-07 3.06263e-05
0.00126068 2.04521e-05 -1.91304e-06
2.04521e-05 1.59609e-05 -2.6215e-07
-1.91304e-06 -2.6215e-07 -5.55174e-05
0.00148658 -1.12719e-05 -1.21062e-06
-1.12719e-05 0.000124772 1.97698e-07
-1.21062e-06 1.97698e-07 5.61895e-05
0.000967751 2.91799e-06 -2.5359e-06
2.91799e-06 1.559e-05 1.60874e-06
-2.5359e-06 1.60874e-06 -2.74227e-05
0.00107505 -2.05034e-05 -1.11895e-06
-2.05034e-05 5.96188e-05 9.71721e-07
-1.11895e-06 9.71721e-07 1.62437e-06
0.00109641 -3.54168e-05 -5.64838e-07
-3.54168e-05 6.09145e-05 1.00863e-06
-5.64838e-07 1.00863e-06 -5.95565e-06
0.00141731 -3.17713e-05 -7.31519e-07
-3.17713e-05 0.000134072 6.009e-07
-7.31519e-07 6.009e-07 7.05728e-05
0.00123332 -2.3249e-05 -1.20294e-07
-2.3249e-05 6.57079e-06 9.37043e-07
-1.20294e-07 9.37043e-07 -5.61558e-05
0.00124811 -3.29758e-05 -2.37412e-07
-3.29758e-05 5.32173e-05 6.81168e-07
-2.37412e-07 6.81168e-07 -9.10329e-06
0.00106577 -3.85695e-05 -1.34461e-06
-3.85695e-05 1.03179e-05 8.70808e-07
-1.34461e-06 8.70808e-07 -6.22306e-05
0.00123155 -3.76004e-05 3.52731e-08
-3.76004e-05 5.72913e-05 -9.05646e-07
3.52731e-08 -9.05646e-07 -3.70175e-06
0.00106093 -1.83114e-05 -1.4535e-06
-1.83114e-05 4.65468e-05 7.08465e-07
-1.4535e-06 7.08465e-07 -1.18869e-05
0.0010338 -3.15158e-05 -1.50861e-06
-3.15158e-05 3.06401e-05 3.34889e-07
-1.50861e-06 3.34889e-07 -3.8282e-05
0.000971608 2.0904e-07 -1.96196e-06
2.0904e-07 6.06761e-06 2.24111e-06
-1.96196e-06 2.24111e-06 -3.2876e-05
0.000906799 -1.43266e-05 -1.0845e-06
-1.43266e-05 -2.73862e-05 9.35158e-07
-1.0845e-06 9.35158e-07 -9.02038e-05
0.00135786 2.11589e-05 -6.10723e-08
2.11589e-05 7.48292e-05 -9.90873e-09
-6.10723e-08 -9.90873e-09 2.78507e-06
0.00151314 4.67546e-06 -1.74754e-07
4.67546e-06 0.000127439 1.0254e-07
-1.74754e-07 1.0254e-07 5.73475e-05
0.00133961 2.26209e-05 -5.10154e-07
2.26209e-05 4.41183e-05 -1.32698e-07
-5.10154e-07 -1.32698e-07 -3.00097e-05
0.00137523 -8.84949e-06 -1.78226e-07
-8.84949e-06 5.61898e-05 -1.56037e-07
-1.78226e-07 -1.56037e-07 -1.0887e-05
0.00105347 -1.7935e-05 8.75773e-08
-1.7935e-05 4.70964e-05 -3.60515e-08
8.75773e-08 -3.60515e-08 -1.04778e-05
0.000981946 -3.228e-05 2.44592e-07
-3.228e-05 1.0433e-05 -1.2162e-07
2.44592e-07 -1.2162e-07 -5.42667e-05
0.00113793 -3.9662e-05 1.48627e-08
-3.9662e-05 7.43086e-05 -9.93516e-08
1.48627e-08 -9.93516e-08 -3.14945e-07
0.00130021 -3.0599e-05 -3.25124e-07
-3.0599e-05 6.38487e-05 -5.67719e-08
-3.25124e-07 -5.67719e-08 1.93463e-06
0.00135714 -2.28696e-05 3.97092e-07
-2.28696e-05 5.68021e-05 4.58506e-07
3.97092e-07 4.58506e-07 -5.94038e-07
0.00124013 -4.31441e-05 -6.46678e-08
-4.31441e-05 8.71808e-05 3.47436e-07
-6.46678e-08 3.47436e-07 1.26784e-05
0.00124388 -3.32675e-05 2.77783e-08
-3.32675e-05 4.46537e-05 3.33882e-07
2.77783e-08 3.33882e-07 -1.25476e-05
0.00132078 -3.95478e-05 3.82498e-07
-3.95478e-05 9.15689e-05 -1.33051e-06
3.82498e-07 -1.33051e-06 3.2678e-05
0.00110583 -3.26316e-05 9.87182e-08
-3.26316e-05 6.4156e-05 -1.03431e-08
9.87182e-08 -1.03431e-08 -1.25073e-06
0.00117281 -3.71356e-05 -9.50246e-08
-3.71356e-05 9.34201e-05 7.10901e-08
-9.50246e-08 7.10901e-08 2.20466e-05
0.00113698 -3.24404e-05 -5.16042e-08
-3.24404e-05 8.97714e-05 2.14347e-07
-5.16042e-08 2.14347e-07 1.60601e-05
0.000828515 5.15708e-06 -3.76467e-07
5.15708e-06 -6.52263e-05 -7.73111e-10
-3.76467e-07 -7.73111e-10 -0.000103101
0.000876355 -1.18193e-05 3.49156e-07
-1.18193e-05 -4.01627e-05 -4.94731e-07
3.49156e-07 -4.94731e-07 -0.000102431
0.00140173 2.70196e-05 1.29039e-06
2.70196e-05 8.78223e-05 5.80414e-07
1.29039e-06 5.80414e-07 1.37426e-05
0.0014327 1.71585e-05 1.31116e-06
1.71585e-05 7.0152e-05 3.69385e-07
1.31116e-06 3.69385e-07 -3.4927e-06
0.00139977 -1.06779e-05 8.65983e-07
-1.06779e-05 5.49485e-05 -1.8014e-06
8.65983e-07 -1.8014e-06 -6.22457e-06
0.00123452 -2.62336e-05 4.17161e-07
-2.62336e-05 1.09378e-05 -7.9561e-07
4.17161e-07 -7.9561e-07 -4.37008e-05
0.0010907 -3.31892e-05 6.03499e-07
-3.31892e-05 5.92688e-05 -2.55591e-07
6.03499e-07 -2.55591e-07 -4.30629e-06
0.00146683 -3.71838e-05 6.14776e-07
-3.71838e-05 0.000133652 -1.69532e-07
6.14776e-07 -1.69532e-07 8.27047e-05
0.000819702 -3.31223e-05 7.20191e-07
-3.31223e-05 -6.54599e-05 -1.81688e-06
7.20191e-07 -1.81688e-06 -0.000136449
0.00119174 -4.35683e-05 1.8402e-06
-4.35683e-05 9.46545e-05 -1.44364e-06
1.8402e-06 -1.44364e-06 1.25558e-05
0.00131737 -4.55126e-05 1.9641e-06
-4.55126e-05 0.000110645 7.07485e-07
1.9641e-06 7.07485e-07 3.54205e-05
0.000702879 8.04728e-06 1.02501e-06
8.04728e-06 -0.000129411 -2.85878e-06
1.02501e-06 -2.85878e-06 -0.000165718
0.00112212 -7.3265e-06 8.98545e-07
-7.3265e-06 8.34733e-05 -1.33779e-06
8.98545e-07 -1.33779e-06 2.51258e-05
0.00107044 -3.02449e-05 8.16382e-07
-3.02449e-05 6.28372e-05 -8.2868e-07
8.16382e-07 -8.2868e-07 -1.23377e-05
0.00112884 -3.61448e-05 5.74831e-07
-3.61448e-05 6.98029e-05 -5.93751e-08
5.74831e-07 -5.93751e-08 1.77046e-06
0.00119074 -3.78606e-05 9.34264e-07
-3.78606e-05 0.000110642 1.41833e-08
9.34264e-07 1.41833e-08 2.99628e-05
0.00108658 -3.72521e-05 2.81977e-07
-3.72521e-05 4.57985e-05 -1.85725e-07
2.81977e-07 -1.85725e-07 -2.83648e-05
0.000893463 -1.23875e-05 -2.60941e-06
-1.23875e-05 -3.96605e-05 -3.52484e-06
-2.60941e-06 -3.52484e-06 -4.58173e-05
0.000978121 -7.26366e-07 -2.05601e-06
-7.26366e-07 6.32579e-06 -2.20189e-06
-2.05601e-06 -2.20189e-06 -3.16433e-05
0.00126236 2.37028e-05 -4.74545e-07
2.37028e-05 6.4954e-05 -3.64325e-07
-4.74545e-07 -3.64325e-07 -1.70989e-07
0.0010402 9.37095e-06 -1.32968e-06
9.37095e-06 3.92803e-05 -1.13493e-06
-1.32968e-06 -1.13493e-06 -1.82401e-05
0.0010435 1.14913e-05 -1.40041e-06
1.14913e-05 4.06756e-05 -8.17785e-07
-1.40041e-06 -8.17785e-07 -1.60161e-05
0.00100083 2.23655e-05 -6.19408e-07
2.23655e-05 1.71906e-05 -3.12153e-07
-6.19408e-07 -3.12153e-07 -4.97235e-05
0.00114316 3.4804e-05 -5.50118e-07
3.4804e-05 5.04628e-05 -1.19525e-06
-5.50118e-07 -1.19525e-06 -1.35941e-05
0.00118325 3.44536e-05 -9.44447e-08
3.44536e-05 3.98326e-05 -6.04678e-07
-9.44447e-08 -6.04678e-07 -2.85261e-05
0.0010829 3.19646e-05 -3.68832e-07
3.19646e-05 6.22049e-05 -4.15413e-07
-3.68832e-07 -4.15413e-07 -4.43123e-06
0.00113416 3.7719e-05 -1.0727e-06
3.7719e-05 7.49935e-05 -4.86861e-07
-1.0727e-06 -4.86861e-07 2.15961e-06
0.00125314 3.78953e-05 -1.27957e-06
3.78953e-05 0.000111607 -7.9433e-07
-1.27957e-06 -7.9433e-07 4.6319e-05
0.000986834 7.63766e-08 9.24995e-08
7.63766e-08 8.59364e-06 -8.47784e-09
9.24995e-08 -8.47784e-09 -2.82494e-05
0.00104553 1.09888e-05 -2.13092e-08
1.09888e-05 4.13012e-05 -4.38356e-08
-2.13092e-08 -4.38356e-08 -1.61691e-05
0.00106975 2.85054e-05 -1.0618e-07
2.85054e-05 4.94836e-05 -1.08713e-07
-1.0618e-07 -1.08713e-07 -1.60318e-05
0.00108322 2.2185e-05 -7.93211e-08
2.2185e-05 6.06254e-05 -1.788e-08
-7.93211e-08 -1.788e-08 -7.49315e-06
0.00110746 3.26446e-05 -2.95726e-07
3.26446e-05 6.97885e-05 -5.99098e-08
-2.95726e-07 -5.99098e-08 -2.08012e-06
0.00124026 2.24424e-05 -2.70447e-07
2.24424e-05 4.65178e-05 -1.84683e-07
-2.70447e-07 -1.84683e-07 -1.90548e-05
0.00117861 3.83008e-05 4.11342e-07
3.83008e-05 6.00383e-05 -8.00894e-08
4.11342e-07 -8.00894e-08 -7.46533e-06
0.00115064 3.75628e-05 1.51826e-07
3.75628e-05 2.50803e-05 3.85732e-07
1.51826e-07 3.85732e-07 -4.17642e-05
0.00101891 3.60398e-05 3.7193e-07
3.60398e-05 2.98105e-05 4.88213e-07
3.7193e-07 4.88213e-07 -4.52429e-05
0.00120733 4.1108e-05 -1.77822e-09
4.1108e-05 9.6469e-05 -9.85492e-08
-1.77822e-09 -9.85492e-08 1.84993e-05
0.00105181 1.25796e-05 1.27935e-06
1.25796e-05 4.39012e-05 1.24167e-06
1.27935e-06 1.24167e-06 -1.32467e-05
0.000945976 2.23387e-05 1.21248e-06
2.23387e-05 -5.92998e-06 7.90602e-07
1.21248e-06 7.90602e-07 -7.62346e-05
0.00111159 3.70469e-05 8.31284e-08
3.70469e-05 6.87572e-05 2.74596e-07
8.31284e-08 2.74596e-07 -3.6765e-06
0.001001 3.11088e-05 4.81904e-07
3.11088e-05 1.79871e-05 -8.582e-09
4.81904e-07 -8.582e-09 -5.65377e-05
0.00115585 3.6394e-05 -8.97637e-08
3.6394e-05 8.84639e-05 -1.90529e-07
-8.97637e-08 -1.90529e-07 1.34933e-05
0.00121227 2.45752e-05 1.74154e-08
2.45752e-05 1.0568e-05 -2.96701e-08
1.74154e-08 -2.96701e-08 -4.41493e-05
0.0012649 4.38733e-05 9.83271e-07
4.38733e-05 0.000102015 4.67117e-07
9.83271e-07 4.67117e-07 2.65073e-05
0.000680398 3.67876e-05 8.56199e-07
3.67876e-05 -0.000215106 6.9342e-07
8.56199e-07 6.9342e-07 -0.000283046
0.00136641 4.31827e-05 1.66375e-06
4.31827e-05 0.000191818 1.90839e-06
1.66375e-06 1.90839e-06 0.000111101
0.00073163 3.77019e-05 4.92255e-07
3.77019e-05 -0.000135057 6.59803e-07
4.92255e-07 6.59803e-07 -0.000223342
0.000983947 2.71136e-07 -1.43035e-06
2.71136e-07 5.98207e-06 -2.23188e-06
-1.43035e-06 -2.23188e-06 -2.96166e-05
0.000960509 1.09571e-05 3.68353e-07
1.09571e-05 -4.01851e-07 4.34653e-07
3.68353e-07 4.34653e-07 -5.74873e-05
0.00095256 2.17956e-05 8.33241e-07
2.17956e-05 2.12264e-06 1.04907e-06
8.33241e-07 1.04907e-06 -6.8349e-05
0.000865016 7.2169e-06 -6.76988e-07
7.2169e-06 -4.64414e-05 -1.36224e-06
-6.76988e-07 -1.36224e-06 -0.000102915
0.00103929 1.10941e-05 7.8688e-08
1.10941e-05 4.0979e-05 2.24768e-08
7.8688e-08 2.24768e-08 -1.31167e-05
0.00109616 2.18178e-05 -2.66413e-07
2.18178e-05 7.44589e-05 -4.81664e-07
-2.66413e-07 -4.81664e-07 5.80391e-06
0.00120477 2.98762e-05 2.38725e-07
2.98762e-05 0.000131078 1.47974e-07
2.38725e-07 1.47974e-07 5.38399e-05
0.00093089 1.47958e-05 5.03168e-07
1.47958e-05 -6.39949e-06 1.17666e-06
5.03168e-07 1.17666e-06 -7.54078e-05
0.00102662 4.54778e-06 4.0409e-07
4.54778e-06 3.65293e-05 1.26097e-06
4.0409e-07 1.26097e-06 -1.64572e-05
0.000996532 3.1685e-06 5.70289e-07
3.1685e-06 1.0457e-05 1.97242e-06
5.70289e-07 1.97242e-06 -2.14472e-05
0.000995062 -5.6391e-07 4.57949e-08
-5.6391e-07 1.02094e-05 1.7545e-08
4.57949e-08 1.7545e-08 -2.22298e-05
0.00155089 -7.69223e-06 1.2514e-06
-7.69223e-06 0.000275268 2.09367e-06
1.2514e-06 2.09367e-06 0.000275744
0.000994998 9.75536e-07 -8.49352e-07
9.75536e-07 1.05888e-05 -2.06497e-06
-8.49352e-07 -2.06497e-06 -2.27083e-05
0.00157216 -9.25141e-06 -1.47394e-06
-9.25141e-06 0.000288833 -1.31534e-06
-1.47394e-06 -1.31534e-06 0.000288448
0.00120337 -9.34768e-06 7.65923e-06
-9.34768e-06 0.000104301 6.88443e-06
7.65923e-06 6.88443e-06 0.000119174
0.00159914 -1.06626e-05 -5.00045e-06
-1.06626e-05 0.000304879 -4.73038e-06
-5.00045e-06 -4.73038e-06 0.000303626
0.00114627 -1.15951e-05 3.03905e-06
-1.15951e-05 7.98182e-05 2.61345e-06
3.03905e-06 2.61345e-06 9.40521e-05
0.00244015 -1.88421e-05 -3.97038e-06
-1.88421e-05 0.000725451 -1.72499e-06
-3.97038e-06 -1.72499e-06 0.000745228
0.000895883 1.21264e-05 1.92694e-06
1.21264e-05 -3.90281e-05 -3.27297e-06
1.92694e-06 -3.27297e-06 -4.35404e-05
0.000901206 1.32446e-05 -1.60143e-07
1.32446e-05 -3.23067e-05 1.80184e-08
-1.60143e-07 1.80184e-08 -3.87759e-05
0.00246846 1.99995e-05 1.06956e-05
1.99995e-05 0.000745076 -3.98861e-06
1.06956e-05 -3.98861e-06 0.000763903
0.000899813 1.4167e-05 -3.13109e-06
1.4167e-05 -2.95258e-05 3.44603e-06
-3.13109e-06 3.44603e-06 -3.78086e-05
0.00253939 2.23849e-05 -2.83951e-07
2.23849e-05 0.000784753 -5.68601e-08
-2.83951e-07 -5.68601e-08 0.000802206
0.00255907 2.4818e-05 -1.35742e-05
2.4818e-05 0.000798751 3.99154e-06
-1.35742e-05 3.99154e-06 0.000815168
0.00126015 1.57469e-05 -8.26206e-07
1.57469e-05 5.55452e-05 -4.11356e-07
-8.26206e-07 -4.11356e-07 -9.23115e-06
0.00131468 -3.53744e-06 -8.08168e-07
-3.53744e-06 6.70838e-05 -5.29627e-07
-8.08168e-07 -5.29627e-07 -5.35927e-07
0.00131637 2.692e-06 4.70069e-07
2.692e-06 5.92813e-05 -2.81395e-07
4.70069e-07 -2.81395e-07 -2.4252e-06
0.00138882 -1.95687e-05 -1.18313e-06
-1.95687e-05 8.69401e-05 -1.59471e-07
-1.18313e-06 -1.59471e-07 1.78683e-05
0.00132274 -1.5802e-05 -1.03517e-06
-1.5802e-05 6.68399e-05 -1.55996e-07
-1.03517e-06 -1.55996e-07 -4.46445e-06
0.00127454 1.47568e-05 -1.72171e-06
1.47568e-05 5.37283e-05 -1.85532e-07
-1.72171e-06 -1.85532e-07 -1.58654e-05
0.00133904 6.70967e-06 1.70708e-08
6.70967e-06 7.16448e-05 -5.18258e-10
1.70708e-08 -5.18258e-10 -5.34361e-07
0.0013013 -8.30882e-06 2.21983e-07
-8.30882e-06 5.51861e-05 -1.60164e-08
2.21983e-07 -1.60164e-08 -1.56873e-05
0.00126238 -8.13765e-06 -7.14111e-08
-8.13765e-06 2.34064e-05 3.79954e-08
-7.14111e-08 3.79954e-08 -4.25195e-05
0.00142118 -2.29223e-05 -2.88336e-07
-2.29223e-05 9.89681e-05 -1.38613e-07
-2.88336e-07 -1.38613e-07 2.91095e-05
0.0012553 1.12466e-05 -2.25836e-07
1.12466e-05 4.04122e-05 8.23796e-08
-2.25836e-07 8.23796e-08 -2.21372e-05
0.00136599 -2.30594e-06 1.14007e-06
-2.30594e-06 7.17476e-05 -3.68466e-07
1.14007e-06 -3.68466e-07 1.57158e-05
0.00130606 1.32978e-05 6.65547e-07
1.32978e-05 5.82168e-05 4.24168e-07
6.65547e-07 4.24168e-07 -1.32232e-05
0.00130539 -1.53949e-05 1.26699e-06
-1.53949e-05 5.95409e-05 -2.8472e-07
1.26699e-06 -2.8472e-07 -1.09473e-05
0.00134431 -1.54309e-05 3.93056e-07
-1.54309e-05 5.56221e-05 1.26121e-06
3.93056e-07 1.26121e-06 -8.28034e-06
0.00135138 8.82364e-06 -2.30541e-07
8.82364e-06 6.57594e-05 3.13267e-07
-2.30541e-07 3.13267e-07 1.46998e-05
0.00134951 2.14181e-05 -1.33387e-06
2.14181e-05 7.13423e-05 -1.93397e-07
-1.33387e-06 -1.93397e-07 -6.03541e-07
0.00148825 4.91867e-06 -1.94081e-06
4.91867e-06 0.000116632 1.14353e-07
-1.94081e-06 1.14353e-07 4.66299e-05
0.00134978 2.29515e-05 -2.31498e-06
2.29515e-05 4.80455e-05 -4.42179e-07
-2.31498e-06 -4.42179e-07 -2.65898e-05
0.00143629 -9.18875e-06 -6.78415e-07
-9.18875e-06 8.56094e-05 5.92726e-07
-6.78415e-07 5.92726e-07 1.86174e-05
0.00106515 -1.83052e-05 -1.23435e-06
-1.83052e-05 5.17939e-05 6.95151e-07
-1.23435e-06 6.95151e-07 -5.64355e-06
0.00106521 -3.28695e-05 -1.97003e-07
-3.28695e-05 5.12152e-05 7.14387e-07
-1.97003e-07 7.14387e-07 -1.29876e-05
0.00114247 -3.9707e-05 -9.87221e-07
-3.9707e-05 7.76284e-05 1.72028e-06
-9.87221e-07 1.72028e-06 2.78795e-06
0.00139834 -3.12384e-05 -4.93679e-07
-3.12384e-05 0.00011072 5.31284e-07
-4.93679e-07 5.31284e-07 4.82893e-05
0.00123329 -2.29698e-05 -8.21607e-08
-2.29698e-05 2.36529e-06 1.41135e-06
-8.21607e-08 1.41135e-06 -5.37756e-05
0.00125752 -3.30976e-05 1.57141e-07
-3.30976e-05 5.18876e-05 7.44202e-07
1.57141e-07 7.44202e-07 -5.33461e-06
0.00124763 -4.31319e-05 -1.591e-06
-4.31319e-05 9.1807e-05 3.85978e-07
-1.591e-06 3.85978e-07 1.67521e-05
0.00112603 -3.70968e-05 -1.46736e-06
-3.70968e-05 -2.07684e-06 -3.09966e-06
-1.46736e-06 -3.09966e-06 -5.91555e-05
0.00111461 -3.27237e-05 -7.55999e-07
-3.27237e-05 6.82824e-05 1.59911e-07
-7.55999e-07 1.59911e-07 2.90302e-06
0.00110262 -3.61544e-05 -1.31726e-06
-3.61544e-05 5.77391e-05 -5.17431e-08
-1.31726e-06 -5.17431e-08 -1.36602e-05
0.00113942 -3.26091e-05 -1.1824e-06
-3.26091e-05 9.11015e-05 8.15564e-07
-1.1824e-06 8.15564e-07 1.71351e-05
0.000686194 5.26783e-06 -1.60705e-06
5.26783e-06 -0.000135678 2.19691e-06
-1.60705e-06 2.19691e-06 -0.000174469
0.000905887 -1.12414e-05 -7.74676e-07
-1.12414e-05 -2.62278e-05 1.05656e-06
-7.74676e-07 1.05656e-06 -8.82154e-05
0.00135564 2.60196e-05 1.90539e-07
2.60196e-05 6.38185e-05 -3.12411e-07
1.90539e-07 -3.12411e-07 -1.0522e-05
0.00147006 1.66303e-05 -2.06166e-07
1.66303e-05 9.08198e-05 3.1058e-07
-2.06166e-07 3.1058e-07 1.77479e-05
0.00143744 -1.05074e-05 -4.06949e-07
-1.05074e-05 7.66187e-05 1.95112e-07
-4.06949e-07 1.95112e-07 1.54172e-05
0.00110991 -3.29394e-05 6.68421e-08
-3.29394e-05 6.7919e-05 6.61968e-08
6.68421e-08 6.61968e-08 4.37077e-06
0.00103072 -3.61819e-05 3.45607e-07
-3.61819e-05 3.55614e-05 -2.79372e-07
3.45607e-07 -2.79372e-07 -3.46706e-05
0.00116509 -4.31481e-05 -3.90493e-08
-4.31481e-05 8.37078e-05 3.90024e-08
-3.90493e-08 3.90024e-08 1.15779e-06
0.00129319 -2.65197e-05 1.18667e-07
-2.65197e-05 3.85466e-05 -2.52976e-07
1.18667e-07 -2.52976e-07 -1.67156e-05
0.00127631 -4.38899e-05 -5.24655e-08
-4.38899e-05 9.16013e-05 -4.66866e-07
-5.24655e-08 -4.66866e-07 1.83722e-05
0.0012865 -3.69146e-05 -4.18166e-07
-3.69146e-05 4.95711e-05 -5.04663e-07
-4.18166e-07 -5.04663e-07 -1.94351e-06
0.000699366 1.1083e-05 1.01747e-07
1.1083e-05 -0.000130915 -6.84461e-07
1.01747e-07 -6.84461e-07 -0.000166923
0.00113623 -3.62883e-05 2.5707e-08
-3.62883e-05 7.37461e-05 2.73783e-08
2.5707e-08 2.73783e-08 5.56829e-06
0.00109032 -3.7276e-05 -8.89852e-07
-3.7276e-05 4.72032e-05 -7.85582e-09
-8.89852e-07 -7.85582e-09 -2.61301e-05
0.00119991 -3.77681e-05 -4.46072e-07
-3.77681e-05 0.000115374 2.39138e-07
-4.46072e-07 2.39138e-07 3.51923e-05
0.00117169 -3.18246e-05 -1.22682e-07
-3.18246e-05 0.000112624 8.16073e-08
-1.22682e-07 8.16073e-08 3.76387e-05
0.000998343 -9.88498e-06 -1.23953e-08
-9.88498e-06 2.14307e-05 2.29637e-07
-1.23953e-08 2.29637e-07 -3.77771e-05
0.00150008 2.90118e-05 1.14967e-06
2.90118e-05 0.000124619 1.57958e-06
1.14967e-06 1.57958e-06 5.0027e-05
0.00147545 1.70597e-05 1.44351e-06
1.70597e-05 8.13485e-05 -1.4891e-07
1.44351e-06 -1.4891e-07 9.09554e-06
0.0012637 -1.48191e-05 9.96212e-07
-1.48191e-05 -1.66729e-05 -2.17025e-06
9.96212e-07 -2.17025e-06 -7.00746e-05
0.00147631 -3.2041e-05 8.66085e-07
-3.2041e-05 9.85869e-05 -1.00936e-06
8.66085e-07 -1.00936e-06 5.42048e-05
0.00111782 -3.6396e-05 5.80841e-07
-3.6396e-05 6.94234e-05 -4.79379e-07
5.80841e-07 -4.79379e-07 1.99072e-06
0.00134619 -4.40625e-05 2.40492e-06
-4.40625e-05 8.95107e-05 1.10153e-06
2.40492e-06 1.10153e-06 2.61981e-05
0.000911387 -3.77176e-05 9.2439e-07
-3.77176e-05 -2.27696e-05 -2.25644e-06
9.2439e-07 -2.25644e-06 -0.00010321
0.00139578 -4.91614e-05 1.5813e-06
-4.91614e-05 0.00018763 -6.2738e-07
1.5813e-06 -6.2738e-07 9.93101e-05
0.000707534 9.37522e-06 6.5507e-07
9.37522e-06 -0.000129638 -2.61683e-06
6.5507e-07 -2.61683e-06 -0.00016292
0.0011408 -2.64183e-06 7.94588e-07
-2.64183e-06 9.17043e-05 -1.44802e-06
7.94588e-07 -1.44802e-06 3.63798e-05
0.00124327 -3.07243e-05 -8.48188e-08
-3.07243e-05 0.000150303 -4.00111e-08
-8.48188e-08 -4.00111e-08 7.76633e-05
0.00109419 -3.46805e-05 7.42272e-07
-3.46805e-05 7.43969e-05 -1.29592e-06
7.42272e-07 -1.29592e-06 -1.21117e-05
0.00106692 -3.73669e-05 3.20954e-07
-3.73669e-05 3.55985e-05 -5.1363e-07
3.20954e-07 -5.1363e-07 -3.64219e-05
0.0011377 -3.89357e-05 1.12548e-06
-3.89357e-05 7.42336e-05 1.95684e-07
1.12548e-06 1.95684e-07 -7.36838e-06
0.000981642 2.41509e-07 -1.76633e-06
2.41509e-07 6.1377e-06 -2.25114e-06
-1.76633e-06 -2.25114e-06 -3.071e-05
0.00104592 1.09424e-05 -1.33292e-06
1.09424e-05 4.17225e-05 -1.23364e-06
-1.33292e-06 -1.23364e-06 -1.58427e-05
0.00127945 2.40622e-05 -2.83514e-07
2.40622e-05 6.59272e-05 -3.58403e-07
-2.83514e-07 -3.58403e-07 -1.01072e-08
0.00109072 2.25846e-05 -9.54684e-07
2.25846e-05 6.44928e-05 -4.7076e-07
-9.54684e-07 -4.7076e-07 -3.78657e-06
0.00109656 2.93375e-05 -6.76781e-07
2.93375e-05 6.32398e-05 -3.44568e-07
-6.76781e-07 -3.44568e-07 -1.85044e-06
0.0010432 3.21173e-05 -6.4629e-07
3.21173e-05 3.84504e-05 -2.41182e-07
-6.4629e-07 -2.41182e-07 -3.38345e-05
0.00117824 3.81282e-05 -6.07135e-07
3.81282e-05 5.89483e-05 -1.27595e-06
-6.07135e-07 -1.27595e-06 -8.65126e-06
0.00124238 3.78872e-05 -2.04359e-07
3.78872e-05 6.76806e-05 -3.6538e-07
-2.04359e-07 -3.6538e-07 1.26174e-06
0.000936603 3.48783e-05 -2.72024e-07
3.48783e-05 -1.01686e-05 -4.11484e-07
-2.72024e-07 -4.11484e-07 -8.55709e-05
0.00124351 4.18066e-05 -1.05045e-06
4.18066e-05 0.000114449 -7.29461e-07
-1.05045e-06 -7.29461e-07 3.53077e-05
0.00104785 1.24604e-05 3.93716e-08
1.24604e-05 4.23446e-05 -4.36608e-08
3.93716e-08 -4.36608e-08 -1.48723e-05
0.00102994 2.40165e-05 3.91932e-07
2.40165e-05 3.54941e-05 2.45396e-07
3.91932e-07 2.45396e-07 -3.45517e-05
0.00115848 3.76859e-05 -1.9261e-07
3.76859e-05 9.26035e-05 -3.35205e-07
-1.9261e-07 -3.35205e-07 2.07707e-05
0.0010596 3.13338e-05 -2.94196e-07
3.13338e-05 4.75834e-05 1.8486e-08
-2.94196e-07 1.8486e-08 -2.64491e-05
0.00111094 3.57788e-05 -6.44144e-07
3.57788e-05 6.85542e-05 -3.51382e-07
-6.44144e-07 -3.51382e-07 -5.99951e-06
0.00142553 2.51826e-05 -3.41356e-07
2.51826e-05 0.000113878 -4.13779e-07
-3.41356e-07 -4.13779e-07 5.96247e-05
0.00132291 4.45833e-05 6.2505e-07
4.45833e-05 0.000128037 -2.27213e-08
6.2505e-07 -2.27213e-08 5.32458e-05
0.000959246 3.91669e-05 -5.92612e-07
3.91669e-05 -7.39085e-05 7.14712e-07
-5.92612e-07 7.14712e-07 -0.000140314
0.00124355 4.14063e-05 7.85277e-07
4.14063e-05 0.00013299 6.35168e-07
7.85277e-07 6.35168e-07 5.16564e-05
0.000971118 4.10114e-05 -1.25986e-06
4.10114e-05 -1.90682e-05 -2.67049e-07
-1.25986e-06 -2.67049e-07 -0.00010808
0.000956009 2.50903e-05 1.07671e-06
2.50903e-05 1.76237e-06 1.04493e-06
1.07671e-06 1.04493e-06 -6.94312e-05
0.00100758 3.46616e-05 7.11471e-07
3.46616e-05 2.47887e-05 1.25153e-07
7.11471e-07 1.25153e-07 -5.47047e-05
0.00116397 3.92898e-05 2.28565e-07
3.92898e-05 9.26244e-05 5.34999e-07
2.28565e-07 5.34999e-07 1.42534e-05
0.000976728 3.52987e-05 9.38752e-07
3.52987e-05 2.33659e-06 6.78895e-08
9.38752e-07 6.78895e-08 -7.65982e-05
0.00167033 1.73458e-05 1.05175e-06
1.73458e-05 0.000169213 5.05698e-07
1.05175e-06 5.05698e-07 0.000125739
0.00110982 3.78155e-05 2.32144e-06
3.78155e-05 -5.73292e-05 6.67325e-07
2.32144e-06 6.67325e-07 -0.000110815
0.00123058 4.83719e-05 1.79436e-06
4.83719e-05 7.80362e-05 -1.04581e-07
1.79436e-06 -1.04581e-07 -8.94986e-06
0.000942856 4.03349e-05 8.06821e-07
4.03349e-05 -1.108e-05 1.38654e-06
8.06821e-07 1.38654e-06 -0.000107732
0.00104374 1.17962e-05 -5.56516e-07
1.17962e-05 4.10679e-05 -8.78324e-07
-5.56516e-07 -8.78324e-07 -1.55672e-05
0.00104619 2.30927e-05 2.37822e-07
2.30927e-05 4.84972e-05 3.26379e-07
2.37822e-07 3.26379e-07 -2.14959e-05
0.00112381 3.21624e-05 4.13844e-07
3.21624e-05 9.02791e-05 4.25553e-07
4.13844e-07 4.25553e-07 1.20103e-05
0.00103726 1.14508e-05 -4.71363e-07
1.14508e-05 4.01329e-05 -1.32261e-06
-4.71363e-07 -1.32261e-06 -1.40002e-05
0.000946867 1.94876e-05 -7.16552e-07
1.94876e-05 6.37704e-07 -1.25372e-06
-7.16552e-07 -1.25372e-06 -6.90092e-05
0.00103155 6.47538e-06 1.44954e-07
6.47538e-06 3.89469e-05 3.16992e-08
1.44954e-07 3.16992e-08 -1.40834e-05
0.00110332 2.7214e-05 -1.82591e-07
2.7214e-05 8.07525e-05 -3.59897e-07
-1.82591e-07 -3.59897e-07 2.80605e-06
0.00100431 1.66184e-05 2.1238e-07
1.66184e-05 3.01207e-05 3.55436e-07
2.1238e-07 3.55436e-07 -3.86393e-05
0.00119167 3.19966e-05 4.47358e-07
3.19966e-05 0.000122337 3.69564e-07
4.47358e-07 3.69564e-07 3.85423e-05
0.000970439 1.16587e-05 6.21561e-07
1.16587e-05 1.55934e-05 8.8427e-07
6.21561e-07 8.8427e-07 -6.29313e-05
0.000924651 2.46587e-05 6.31769e-07
2.46587e-05 -8.78278e-06 1.26478e-06
6.31769e-07 1.26478e-06 -7.76961e-05
0.00101841 -3.83598e-06 1.58023e-07
-3.83598e-06 3.40876e-05 1.25796e-06
1.58023e-07 1.25796e-06 -1.84277e-05
0.000996916 4.68687e-06 4.15069e-07
4.68687e-06 1.07182e-05 1.91347e-06
4.15069e-07 1.91347e-06 -2.11023e-05
0.000999359 -1.74926e-06 -1.1268e-07
-1.74926e-06 1.19497e-05 1.96623e-08
-1.1268e-07 1.96623e-08 -1.9972e-05
0.00154725 -5.44569e-06 8.56808e-07
-5.44569e-06 0.000270945 2.07172e-06
8.56808e-07 2.07172e-06 0.000272015
0.00099972 -3.49043e-06 -3.33035e-07
-3.49043e-06 1.2564e-05 -1.99266e-06
-3.33035e-07 -1.99266e-06 -1.98643e-05
0.00156623 -7.27895e-06 -1.14784e-06
-7.27895e-06 0.000283093 -1.30247e-06
-1.14784e-06 -1.30247e-06 0.000283517
0.00119893 -7.42465e-06 5.89006e-06
-7.42465e-06 9.81813e-05 6.84866e-06
5.89006e-06 6.84866e-06 0.000113904
0.00158837 -8.90712e-06 -3.87663e-06
-8.90712e-06 0.000297022 -4.70361e-06
-3.87663e-06 -4.70361e-06 0.000296609
0.00114502 -9.6967e-06 2.3263e-06
-9.6967e-06 7.53389e-05 2.61771e-06
2.3263e-06 2.61771e-06 9.04252e-05
0.00108926 -1.17938e-05 -1.93665e-06
-1.17938e-05 5.15975e-05 -1.67734e-06
-1.93665e-06 -1.67734e-06 6.60343e-05
0.00090366 1.05643e-05 1.60178e-06
1.05643e-05 -3.97817e-05 -3.26592e-06
1.60178e-06 -3.26592e-06 -4.25731e-05
0.000914178 1.21277e-05 -8.37084e-08
1.21277e-05 -3.03011e-05 2.52057e-08
-8.37084e-08 2.52057e-08 -3.49016e-05
0.00240737 1.73766e-05 9.37756e-06
1.73766e-05 0.000709651 -3.99864e-06
9.37756e-06 -3.99864e-06 0.000729821
0.000917219 1.32464e-05 -2.62683e-06
1.32464e-05 -2.46564e-05 3.36953e-06
-2.62683e-06 3.36953e-06 -3.12208e-05
0.00247689 1.99175e-05 -3.80975e-07
1.99175e-05 0.000749545 -4.64618e-08
-3.80975e-07 -4.64618e-08 0.000768217
0.00253155 2.23265e-05 -1.27643e-05
2.23265e-05 0.000781067 4.06455e-06
-1.27643e-05 4.06455e-06 0.000798464
0.00127973 1.14986e-05 1.16815e-07
1.14986e-05 5.36313e-05 1.10387e-07
1.16815e-07 1.10387e-07 -9.16047e-06
0.00132068 -9.42428e-06 -6.94184e-07
-9.42428e-06 4.96599e-05 -5.39383e-07
-6.94184e-07 -5.39383e-07 -1.66823e-05
0.00125207 -1.55653e-06 1.58176e-06
-1.55653e-06 1.77264e-05 -1.80331e-06
1.58176e-06 -1.80331e-06 -3.68159e-05
0.00128279 -2.22655e-05 -1.63454e-06
-2.22655e-05 3.29819e-05 -4.77804e-07
-1.63454e-06 -4.77804e-07 -3.76154e-05
0.00130073 -1.04463e-05 -8.76421e-07
-1.04463e-05 5.49464e-05 6.5798e-09
-8.76421e-07 6.5798e-09 -1.58815e-05
0.00132754 6.08096e-06 -9.89889e-07
6.08096e-06 6.61389e-05 -2.47489e-07
-9.89889e-07 -2.47489e-07 -6.21534e-06
0.00131913 1.56309e-05 2.19415e-07
1.56309e-05 6.32549e-05 -4.96442e-08
2.19415e-07 -4.96442e-08 -8.43781e-06
0.00131577 -1.90225e-05 -2.30171e-07
-1.90225e-05 6.35305e-05 3.33645e-07
-2.30171e-07 3.33645e-07 -7.00953e-06
0.0013273 -1.47464e-05 4.27561e-07
-1.47464e-05 4.84128e-05 -1.52374e-07
4.27561e-07 -1.52374e-07 -1.49565e-05
0.00128918 7.0379e-06 2.27228e-07
7.0379e-06 3.42508e-05 -1.96954e-07
2.27228e-07 -1.96954e-07 -1.69319e-05
0.00127954 9.74794e-06 8.35353e-07
9.74794e-06 4.68682e-05 2.42605e-08
8.35353e-07 2.42605e-08 -2.43537e-05
0.0013963 -2.81273e-05 1.24788e-06
-2.81273e-05 0.000101849 1.5454e-07
1.24788e-06 1.5454e-07 3.41147e-05
0.00131302 -3.34165e-06 2.08537e-08
-3.34165e-06 2.6126e-05 1.56385e-06
2.08537e-08 1.56385e-06 -2.73773e-05
0.00131876 2.52102e-05 -1.56323e-06
2.52102e-05 4.41122e-05 -1.17897e-06
-1.56323e-06 -1.17897e-06 -3.04865e-05
0.00150423 1.62332e-05 -1.44595e-06
1.62332e-05 0.000110035 4.50391e-07
-1.44595e-06 4.50391e-07 3.7531e-05
0.00147127 -1.04246e-05 -7.05402e-07
-1.04246e-05 9.63363e-05 1.45251e-06
-7.05402e-07 1.45251e-06 3.51282e-05
0.00112452 -3.2518e-05 -5.77752e-07
-3.2518e-05 7.43809e-05 4.73728e-07
-5.77752e-07 4.73728e-07 1.08677e-05
0.00124769 -3.93281e-05 -2.56492e-07
-3.93281e-05 0.000139372 1.05854e-06
-2.56492e-07 1.05854e-06 6.98985e-05
0.00113563 -4.26961e-05 -1.50398e-06
-4.26961e-05 7.14401e-05 1.96979e-06
-1.50398e-06 1.96979e-06 -1.15631e-05
0.0013556 -2.68615e-05 -4.23051e-07
-2.68615e-05 6.78492e-05 6.97734e-07
-4.23051e-07 6.97734e-07 1.19718e-05
0.00111428 -3.66156e-05 -1.52951e-06
-3.66156e-05 -3.0749e-05 -1.21657e-07
-1.52951e-06 -1.21657e-07 -8.28266e-05
0.00123061 -4.2298e-05 -2.232e-06
-4.2298e-05 7.02958e-05 -1.41831e-06
-2.232e-06 -1.41831e-06 -9.2024e-07
0.00114378 -3.64334e-05 -6.46178e-07
-3.64334e-05 7.77674e-05 2.29052e-07
-6.46178e-07 2.29052e-07 9.44407e-06
0.00109254 -3.72687e-05 -2.12329e-06
-3.72687e-05 4.79842e-05 3.36069e-07
-2.12329e-06 3.36069e-07 -2.4529e-05
0.00121039 -3.76959e-05 -1.55555e-06
-3.76959e-05 0.000120775 3.34745e-07
-1.55555e-06 3.34745e-07 4.10866e-05
0.000692438 1.35504e-05 -6.57448e-07
1.35504e-05 -0.000134092 1.44268e-06
-6.57448e-07 1.44268e-06 -0.000169801
0.00127871 -3.37452e-05 -8.92479e-07
-3.37452e-05 0.000165281 1.24051e-06
-8.92479e-07 1.24051e-06 9.04582e-05
0.000873387 -9.9528e-06 -6.16473e-07
-9.9528e-06 -4.11259e-05 1.74116e-06
-6.16473e-07 1.74116e-06 -0.000101273
0.0014222 2.84372e-05 -4.76923e-08
2.84372e-05 9.13646e-05 3.30153e-07
-4.76923e-08 3.30153e-07 1.74641e-05
0.00146183 1.58044e-05 3.26711e-07
1.58044e-05 7.13101e-05 1.85338e-07
3.26711e-07 1.85338e-07 -8.81439e-07
0.00132449 -1.46781e-05 -2.32301e-07
-1.46781e-05 1.3006e-05 -1.83351e-07
-2.32301e-07 -1.83351e-07 -4.16941e-05
0.0011382 -3.67294e-05 7.97767e-08
-3.67294e-05 7.87654e-05 2.03662e-07
7.97767e-08 2.03662e-07 1.12529e-05
0.000973707 -3.85195e-05 -9.39579e-08
-3.85195e-05 8.4707e-06 1.08983e-07
-9.39579e-08 1.08983e-07 -7.10553e-05
0.00134327 -4.7816e-05 -7.04205e-07
-4.7816e-05 0.000162407 7.09977e-07
-7.04205e-07 7.09977e-07 7.50034e-05
0.00148212 -3.29224e-05 1.85145e-07
-3.29224e-05 0.000106011 3.73455e-08
1.85145e-07 3.73455e-08 6.16464e-05
0.00125698 -4.29941e-05 7.28334e-08
-4.29941e-05 4.48212e-05 -5.14572e-07
7.28334e-08 -5.14572e-07 -1.82409e-05
0.000843708 1.05011e-05 2.87459e-08
1.05011e-05 -6.2422e-05 -6.23007e-07
2.87459e-08 -6.23007e-07 -9.46728e-05
0.00112836 -9.28097e-07 -7.17936e-08
-9.28097e-07 8.6234e-05 1.09469e-07
-7.17936e-08 1.09469e-07 3.08944e-05
0.00105763 -3.72431e-05 -4.25239e-07
-3.72431e-05 3.1676e-05 1.45036e-07
-4.25239e-07 1.45036e-07 -4.06509e-05
0.00116643 -3.93565e-05 1.2757e-07
-3.93565e-05 8.85562e-05 5.70883e-08
1.2757e-07 5.70883e-08 7.17778e-06
0.00111735 -3.47498e-05 3.26925e-08
-3.47498e-05 8.72237e-05 -2.16719e-07
3.26925e-08 -2.16719e-07 1.50302e-06
0.00119965 -3.15638e-05 -5.56755e-07
-3.15638e-05 0.000128063 8.4669e-07
-5.56755e-07 8.4669e-07 5.47047e-05
0.00141494 3.05012e-05 1.59325e-06
3.05012e-05 8.58792e-05 1.75403e-06
1.59325e-06 1.75403e-06 1.47337e-05
0.0015449 1.04139e-05 1.36437e-06
1.04139e-05 0.000101542 -1.00581e-06
1.36437e-06 -1.00581e-06 3.44762e-05
0.00138691 -2.33853e-05 1.6074e-07
-2.33853e-05 2.02932e-05 -1.74459e-06
1.6074e-07 -1.74459e-06 -1.67809e-05
0.00170796 -4.39566e-05 1.5635e-06
-4.39566e-05 0.000209825 -4.84534e-07
1.5635e-06 -4.84534e-07 0.000164933
0.000999581 -3.71538e-05 2.69224e-07
-3.71538e-05 1.44834e-05 -8.19966e-07
2.69224e-07 -8.19966e-07 -5.94212e-05
0.00136129 -4.99023e-05 2.20545e-06
-4.99023e-05 0.000147231 1.17587e-06
2.20545e-06 1.17587e-06 6.02841e-05
0.00141403 -4.87125e-05 1.45234e-06
-4.87125e-05 0.000216272 -2.65065e-06
1.45234e-06 -2.65065e-06 0.00012759
0.00099204 7.94093e-06 5.89416e-07
7.94093e-06 7.81234e-06 -1.87573e-06
5.89416e-07 -1.87573e-06 -2.1543e-05
0.00104127 -1.09242e-05 4.24322e-07
-1.09242e-05 3.90936e-05 -1.19446e-06
4.24322e-07 -1.19446e-06 -7.47549e-06
0.000834564 6.33394e-06 1.25075e-07
6.33394e-06 -5.98376e-05 -1.94639e-06
1.25075e-07 -1.94639e-06 -0.00011271
0.00114101 -2.63698e-05 6.58022e-08
-2.63698e-05 9.98859e-05 -5.1626e-07
6.58022e-08 -5.1626e-07 2.79801e-05
0.00104955 -3.21641e-05 3.31019e-07
-3.21641e-05 5.91795e-05 -1.00281e-06
3.31019e-07 -1.00281e-06 -2.55144e-05
0.00114113 -3.67508e-05 1.79667e-06
-3.67508e-05 9.77896e-05 -1.63893e-07
1.79667e-06 -1.63893e-07 5.4431e-06
0.0010009 -3.83504e-05 7.1955e-07
-3.83504e-05 2.53553e-06 -5.07112e-07
7.1955e-07 -5.07112e-07 -7.45146e-05
0.00145796 -4.59331e-05 4.61233e-07
-4.59331e-05 0.000238132 -3.39028e-07
4.61233e-07 -3.39028e-07 0.000149407
0.00104347 1.25514e-05 -1.12726e-06
1.25514e-05 4.0577e-05 -1.30026e-06
-1.12726e-06 -1.30026e-06 -1.67084e-05
0.00111379 2.64081e-05 -5.65028e-07
2.64081e-05 7.68694e-05 -3.89949e-07
-5.65028e-07 -3.89949e-07 7.05086e-06
0.00164425 2.58064e-05 -1.50946e-07
2.58064e-05 0.000219786 -4.79598e-07
-1.50946e-07 -4.79598e-07 0.000165992
0.00112492 3.2643e-05 -9.88525e-07
3.2643e-05 8.03166e-05 -1.15201e-08
-9.88525e-07 -1.15201e-08 6.72968e-06
0.00120719 3.83489e-05 -8.21932e-07
3.83489e-05 0.000117263 -9.46218e-07
-8.21932e-07 -9.46218e-07 4.60369e-05
0.00105535 3.47747e-05 -9.18675e-07
3.47747e-05 4.35735e-05 -4.77869e-07
-9.18675e-07 -4.77869e-07 -3.05439e-05
0.00135965 4.50064e-05 -2.95903e-07
4.50064e-05 0.000143696 -6.64833e-07
-2.95903e-07 -6.64833e-07 6.96617e-05
0.00122069 4.13891e-05 -1.01914e-06
4.13891e-05 5.88954e-05 1.03832e-06
-1.01914e-06 1.03832e-06 -5.95079e-06
0.00111313 3.9484e-05 6.33376e-08
3.9484e-05 7.05958e-05 -3.13706e-07
6.33376e-08 -3.13706e-07 -1.13533e-05
0.00114288 4.33015e-05 -2.66176e-06
4.33015e-05 6.43734e-05 -1.06787e-06
-2.66176e-06 -1.06787e-06 -2.52969e-05
0.00096221 2.47401e-05 3.26505e-07
2.47401e-05 4.81024e-06 3.20629e-07
3.26505e-07 3.20629e-07 -6.64579e-05
0.00108053 3.56333e-05 -3.40509e-07
3.56333e-05 6.00663e-05 -3.94102e-07
-3.40509e-07 -3.94102e-07 -1.8558e-05
0.0011733 3.93242e-05 -2.43467e-07
3.93242e-05 9.82097e-05 -4.84339e-07
-2.43467e-07 -4.84339e-07 2.05049e-05
0.00109588 3.65375e-05 -1.74915e-08
3.65375e-05 6.01985e-05 -2.107e-07
-1.74915e-08 -2.107e-07 -1.82978e-05
0.00155211 1.6288e-05 -2.79667e-08
1.6288e-05 0.000113095 -9.98639e-07
-2.79667e-08 -9.98639e-07 7.05298e-05
0.00121598 3.78484e-05 1.49814e-07
3.78484e-05 4.22736e-06 1.7313e-07
1.49814e-07 1.7313e-07 -5.14809e-05
0.0013893 5.0256e-05 -3.44842e-07
5.0256e-05 0.000154946 -1.97101e-07
-3.44842e-07 -1.97101e-07 6.90923e-05
0.000953993 4.09981e-05 1.84303e-07
4.09981e-05 -1.03435e-05 1.45257e-07
1.84303e-07 1.45257e-07 -0.00010673
0.00114924 3.53834e-05 1.91047e-07
3.53834e-05 0.000101152 1.45108e-07
1.91047e-07 1.45108e-07 2.17583e-05
0.0013965 -3.1203e-06 1.32821e-06
-3.1203e-06 4.1221e-05 1.60215e-06
1.32821e-06 1.60215e-06 -8.74765e-06
0.00123508 3.96387e-05 9.36971e-07
3.96387e-05 0.000135586 4.53138e-07
9.36971e-07 4.53138e-07 5.07666e-05
0.00116159 4.08904e-05 6.41437e-07
4.08904e-05 9.6678e-05 8.10334e-07
6.41437e-07 8.10334e-07 9.97636e-06
0.00146581 3.86162e-05 4.19434e-06
3.86162e-05 3.3467e-05 -2.84725e-07
4.19434e-06 -2.84725e-07 -4.25501e-06
0.00122365 5.20392e-05 3.7564e-06
5.20392e-05 3.29798e-05 -2.17064e-07
3.7564e-06 -2.17064e-07 -5.3453e-05
0.00162235 5.41738e-05 6.61647e-07
5.41738e-05 0.000312303 1.98534e-06
6.61647e-07 1.98534e-06 0.000207864
0.0011388 2.40869e-05 -3.90765e-07
2.40869e-05 9.43382e-05 -4.10471e-07
-3.90765e-07 -4.10471e-07 2.48417e-05
0.00111816 3.20174e-05 -4.91494e-08
3.20174e-05 8.79453e-05 -6.08966e-08
-4.91494e-08 -6.08966e-08 9.65964e-06
0.00112899 3.53545e-05 6.16616e-07
3.53545e-05 9.3192e-05 4.83382e-07
6.16616e-07 4.83382e-07 8.56211e-06
0.00103547 1.10583e-05 -4.14926e-07
1.10583e-05 4.09516e-05 -1.31734e-06
-4.14926e-07 -1.31734e-06 -1.21809e-05
0.00107644 1.95353e-05 -3.44714e-08
1.95353e-05 6.59671e-05 -4.28455e-07
-3.44714e-08 -4.28455e-07 -2.52042e-06
0.00100256 2.40891e-05 -6.12252e-07
2.40891e-05 3.07333e-05 -9.04855e-07
-6.12252e-07 -9.04855e-07 -4.79043e-05
0.00102522 -1.89802e-06 1.74022e-07
-1.89802e-06 3.76017e-05 1.68382e-08
1.74022e-07 1.68382e-08 -1.50912e-05
0.00092611 1.72408e-05 5.36463e-08
1.72408e-05 -8.21233e-06 3.76213e-07
5.36463e-08 3.76213e-07 -7.69274e-05
0.00111638 2.82331e-05 -6.7661e-08
2.82331e-05 8.47787e-05 -3.3846e-07
-6.7661e-08 -3.3846e-07 3.81164e-07
0.00110317 1.96799e-05 1.9544e-07
1.96799e-05 8.15681e-05 3.08661e-07
1.9544e-07 3.08661e-07 3.66223e-06
0.00122643 3.75156e-05 2.53185e-07
3.75156e-05 0.000132599 1.63127e-07
2.53185e-07 1.63127e-07 4.37042e-05
0.00104198 1.4326e-05 5.68481e-07
1.4326e-05 4.65924e-05 7.25747e-07
5.68481e-07 7.25747e-07 -3.89028e-05
0.00110999 2.73946e-05 4.38343e-07
2.73946e-05 8.41161e-05 8.54556e-07
4.38343e-07 8.54556e-07 5.76012e-06
0.00105632 1.38896e-05 5.26275e-07
1.38896e-05 5.74316e-05 9.40822e-07
5.26275e-07 9.40822e-07 -1.11862e-05
0.00102925 -6.43394e-06 7.46669e-08
-6.43394e-06 4.01028e-05 1.27673e-06
7.46669e-08 1.27673e-06 -1.26806e-05
0.000995288 6.02992e-06 2.84344e-07
6.02992e-06 1.01689e-05 1.87338e-06
2.84344e-07 1.87338e-06 -2.18408e-05
0.000998496 -4.94259e-07 -1.25148e-07
-4.94259e-07 1.15641e-05 1.34075e-08
-1.25148e-07 1.34075e-08 -2.02706e-05
0.00154052 -2.96335e-06 4.80241e-07
-2.96335e-06 0.000265838 2.04277e-06
4.80241e-07 2.04277e-06 0.000267166
0.00100196 -6.36364e-06 -1.3731e-07
-6.36364e-06 1.3333e-05 -1.94549e-06
-1.3731e-07 -1.94549e-06 -1.86066e-05
0.00156366 -5.10523e-06 -7.96204e-07
-5.10523e-06 0.000279338 -1.29547e-06
-7.96204e-07 -1.29547e-06 0.000280307
0.00119519 -5.33521e-06 4.03127e-06
-5.33521e-06 9.29031e-05 6.82503e-06
4.03127e-06 6.82503e-06 0.000109234
0.00158069 -7.02591e-06 -2.70721e-06
-7.02591e-06 0.000290521 -4.66334e-06
-2.70721e-06 -4.66334e-06 0.000290883
0.00114243 -7.65612e-06 1.55073e-06
-7.65612e-06 7.01249e-05 2.60457e-06
1.55073e-06 2.60457e-06 8.60722e-05
0.00108715 -9.74524e-06 -1.51471e-06
-9.74524e-06 4.66027e-05 -1.66448e-06
-1.51471e-06 -1.66448e-06 6.19178e-05
0.000998727 5.88113e-06 4.96092e-07
5.88113e-06 7.77975e-06 -1.85517e-06
4.96092e-07 -1.85517e-06 -1.97792e-05
0.000911867 8.88158e-06 1.23099e-06
8.88158e-06 -3.99767e-05 -3.24226e-06
1.23099e-06 -3.24226e-06 -4.11382e-05
0.00092338 1.05923e-05 -9.00099e-08
1.05923e-05 -3.03235e-05 1.03337e-08
-9.00099e-08 1.03337e-08 -3.31939e-05
0.00236463 1.46009e-05 8.08163e-06
1.46009e-05 0.000683404 -4.00417e-06
8.08163e-06 -4.00417e-06 0.000704793
0.000933273 1.21387e-05 -2.13253e-06
1.21387e-05 -2.10968e-05 3.31133e-06
-2.13253e-06 3.31133e-06 -2.58e-05
0.00241222 1.73714e-05 -3.7773e-07
1.73714e-05 0.000712628 -3.41631e-08
-3.7773e-07 -3.41631e-08 0.000732627
0.00247892 1.98404e-05 -1.16347e-05
1.98404e-05 0.000750836 4.08969e-06
-1.16347e-05 4.08969e-06 0.000769382
0.00122392 5.31517e-06 4.97898e-07
5.31517e-06 1.19719e-06 -3.98756e-07
4.97898e-07 -3.98756e-07 -5.0094e-05
0.00129986 -1.39907e-05 -5.28561e-07
-1.39907e-05 3.63206e-05 -1.43381e-06
-5.28561e-07 -1.43381e-06 -2.65193e-05
0.00132228 -1.9195e-05 -1.26516e-06
-1.9195e-05 6.54823e-05 6.26882e-07
-1.26516e-06 6.26882e-07 -4.99693e-06
0.00133922 1.80195e-05 -7.89877e-07
1.80195e-05 7.15026e-05 -7.8713e-07
-7.89877e-07 -7.8713e-07 -3.7828e-07
0.00132272 9.68887e-06 7.72323e-08
9.68887e-06 6.98598e-05 -2.69183e-07
7.72323e-08 -2.69183e-07 -6.96351e-07
0.00137005 -2.70703e-05 -1.65758e-08
-2.70703e-05 8.91439e-05 2.29382e-07
-1.65758e-08 2.29382e-07 2.04699e-05
0.00131498 -3.17234e-06 -6.32503e-07
-3.17234e-06 2.98642e-05 2.67345e-07
-6.32503e-07 2.67345e-07 -2.22355e-05
0.00134688 1.77024e-06 1.7005e-06
1.77024e-06 8.47556e-05 -7.77199e-07
1.7005e-06 -7.77199e-07 1.56064e-05
0.00136343 -2.07488e-05 8.55742e-07
-2.07488e-05 6.61408e-05 1.13032e-06
8.55742e-07 1.13032e-06 4.1499e-06
0.00131342 -1.84132e-05 8.66059e-07
-1.84132e-05 3.25776e-05 -2.7949e-07
8.66059e-07 -2.7949e-07 -1.4814e-05
0.00134838 2.78877e-05 -8.90906e-07
2.78877e-05 5.99989e-05 -6.37454e-07
-8.90906e-07 -6.37454e-07 -1.32077e-05
0.00146269 1.43528e-05 -1.31612e-06
1.43528e-05 6.82697e-05 5.1832e-07
-1.31612e-06 5.1832e-07 -3.87873e-06
0.00139033 -1.45607e-05 -1.12206e-06
-1.45607e-05 4.50593e-05 1.29791e-06
-1.12206e-06 1.29791e-06 -1.09406e-05
0.00115382 -3.69911e-05 -4.86888e-07
-3.69911e-05 8.58866e-05 9.17e-07
-4.86888e-07 9.17e-07 1.82918e-05
0.0010298 -3.92107e-05 -6.61132e-07
-3.92107e-05 3.66021e-05 2.46751e-06
-6.61132e-07 2.46751e-06 -4.19881e-05
0.0012837 -4.6332e-05 -1.98635e-06
-4.6332e-05 0.000133792 1.65746e-06
-1.98635e-06 1.65746e-06 4.73155e-05
0.00143795 -3.361e-05 9.68531e-07
-3.361e-05 9.00134e-05 7.17487e-07
9.68531e-07 7.17487e-07 4.56714e-05
0.0011772 -4.20466e-05 -2.95299e-06
-4.20466e-05 4.63081e-06 -1.39476e-06
-2.95299e-06 -1.39476e-06 -5.819e-05
0.00104685 -3.70955e-05 -1.14231e-06
-3.70955e-05 2.70189e-05 3.53339e-07
-1.14231e-06 3.53339e-07 -4.56117e-05
0.00119149 -3.97265e-05 -1.48651e-06
-3.97265e-05 0.000101069 3.96268e-08
-1.48651e-06 3.96268e-08 1.99223e-05
0.0011272 -3.45614e-05 -3.71359e-07
-3.45614e-05 9.36869e-05 5.37545e-07
-3.71359e-07 5.37545e-07 8.76667e-06
0.000978633 1.1129e-05 -6.38116e-07
1.1129e-05 4.08342e-06 1.34855e-06
-6.38116e-07 1.34855e-06 -2.71094e-05
0.00111717 2.91778e-06 -3.76658e-07
2.91778e-06 8.1405e-05 1.73304e-06
-3.76658e-07 1.73304e-06 2.59798e-05
0.00114398 -3.10236e-05 -1.25783e-06
-3.10236e-05 9.99285e-05 1.86517e-06
-1.25783e-06 1.86517e-06 2.59234e-05
0.00135843 2.9768e-05 1.45292e-07
2.9768e-05 5.76873e-05 3.35919e-07
1.45292e-07 3.35919e-07 -1.37141e-05
0.000992658 7.97605e-06 -4.35202e-08
7.97605e-06 7.94481e-06 -6.64482e-10
-4.35202e-08 -6.64482e-10 -2.14163e-05
0.000931211 1.9466e-07 -2.98346e-07
1.9466e-07 -1.49823e-05 7.89053e-09
-2.98346e-07 7.89053e-09 -6.21032e-05
0.00155521 1.01143e-05 1.66814e-07
1.01143e-05 0.000104773 4.22505e-07
1.66814e-07 4.22505e-07 3.82948e-05
0.0012933 -2.39926e-05 -2.32078e-07
-2.39926e-05 -2.08727e-05 -3.38533e-07
-2.32078e-07 -3.38533e-07 -6.07961e-05
0.000978305 -3.67461e-05 -1.33433e-07
-3.67461e-05 3.3561e-06 5.72368e-07
-1.33433e-07 5.72368e-07 -7.00149e-05
0.00126777 -4.66913e-05 -2.41707e-07
-4.66913e-05 0.000145842 1.79197e-07
-2.41707e-07 1.79197e-07 5.62566e-05
0.00119044 -4.68935e-05 4.08612e-07
-4.68935e-05 6.17525e-05 5.3553e-07
4.08612e-07 5.3553e-07 -2.40333e-05
0.00148312 -4.29668e-05 -8.12021e-09
-4.29668e-05 0.000103591 -9.53063e-07
-8.12021e-09 -9.53063e-07 5.83238e-05
0.00107262 2.34714e-06 3.2684e-07
2.34714e-06 5.78609e-05 -5.14642e-07
3.2684e-07 -5.14642e-07 6.74697e-06
0.00112943 -2.01642e-05 -4.25135e-07
-2.01642e-05 9.46805e-05 5.35369e-07
-4.25135e-07 5.35369e-07 2.2596e-05
0.00113851 -4.03069e-05 4.00877e-07
-4.03069e-05 6.91323e-05 2.72006e-07
4.00877e-07 2.72006e-07 -7.49641e-06
0.00124277 -4.25579e-05 -1.09556e-06
-4.25579e-05 0.000131892 -1.98641e-07
-1.09556e-06 -1.98641e-07 4.57623e-05
0.00108595 -3.56749e-05 4.5206e-07
-3.56749e-05 7.07659e-05 3.11132e-07
4.5206e-07 3.11132e-07 -2.29986e-05
0.00107713 -3.26053e-05 2.79353e-07
-3.26053e-05 7.17032e-05 -2.7907e-07
2.79353e-07 -2.7907e-07 -1.25689e-05
0.00142339 3.1951e-05 2.16875e-06
3.1951e-05 8.08184e-05 1.37207e-06
2.16875e-06 1.37207e-06 9.23167e-06
0.00157553 -2.08414e-08 8.67127e-07
-2.08414e-08 0.000100981 -1.75248e-06
8.67127e-07 -1.75248e-06 5.15455e-05
0.00168794 -3.97207e-05 -5.72317e-07
-3.97207e-05 0.000141683 -8.78041e-07
-5.72317e-07 -8.78041e-07 0.000117708
0.00145098 -5.28929e-05 3.18866e-06
-5.28929e-05 0.000137448 1.41347e-06
3.18866e-06 1.41347e-06 6.65375e-05
0.00100919 -3.98674e-05 2.98007e-07
-3.98674e-05 2.38579e-05 -1.79287e-06
2.98007e-07 -1.79287e-06 -5.64241e-05
0.00155926 -5.56564e-05 1.31349e-06
-5.56564e-05 0.000280003 -1.8385e-06
1.31349e-06 -1.8385e-06 0.000181868
0.000833699 4.51865e-06 7.68306e-08
4.51865e-06 -6.40728e-05 -1.64699e-06
7.68306e-08 -1.64699e-06 -0.000110017
0.00102818 -6.0964e-06 5.28705e-07
-6.0964e-06 3.4715e-05 -1.24896e-06
5.28705e-07 -1.24896e-06 -1.38915e-05
0.00128474 -2.66604e-06 -1.56177e-07
-2.66604e-06 0.000168854 -5.42125e-07
-1.56177e-07 -5.42125e-07 0.000108464
0.000902987 1.51795e-06 -9.95845e-08
1.51795e-06 -1.66319e-05 -1.21664e-06
-9.95845e-08 -1.21664e-06 -8.65975e-05
0.00119277 -3.21285e-05 2.0766e-07
-3.21285e-05 0.000127171 -3.90829e-07
2.0766e-07 -3.90829e-07 4.51547e-05
0.000979519 -3.12661e-05 -2.78199e-08
-3.12661e-05 2.52219e-05 -5.44411e-07
-2.78199e-08 -5.44411e-07 -6.93374e-05
0.00119343 -3.89329e-05 1.87878e-06
-3.89329e-05 0.000130135 -7.38313e-07
1.87878e-06 -7.38313e-07 2.92069e-05
0.00100557 -4.23509e-05 7.4735e-07
-4.23509e-05 1.20482e-05 -1.26324e-06
7.4735e-07 -1.26324e-06 -7.42076e-05
0.000971378 2.48098e-05 -4.18827e-07
2.48098e-05 9.33395e-06 -4.38988e-07
-4.18827e-07 -4.38988e-07 -6.20393e-05
0.00114977 3.5604e-05 -1.43826e-06
3.5604e-05 9.35627e-05 -6.5638e-07
-1.43826e-06 -6.5638e-07 1.58591e-05
0.00142861 1.5208e-05 -2.30966e-06
1.5208e-05 5.44019e-05 -2.04618e-06
-2.30966e-06 -2.04618e-06 1.27516e-05
0.00132848 3.79466e-05 -1.5366e-06
3.79466e-05 6.86276e-05 2.54732e-07
-1.5366e-06 2.54732e-07 1.07274e-05
0.0012189 3.80705e-05 -1.05708e-06
3.80705e-05 0.000119898 -2.91339e-07
-1.05708e-06 -2.91339e-07 4.18235e-05
0.0011872 3.93496e-05 -8.59552e-07
3.93496e-05 0.000105939 -1.27784e-06
-8.59552e-07 -1.27784e-06 2.89057e-05
0.00159395 5.27462e-05 -1.31183e-06
5.27462e-05 0.000254133 -3.16958e-07
-1.31183e-06 -3.16958e-07 0.000169357
0.000999684 4.21666e-05 -8.88112e-07
4.21666e-05 7.03977e-06 -1.32325e-06
-8.88112e-07 -1.32325e-06 -8.91091e-05
0.00112616 3.54565e-05 -3.31067e-07
3.54565e-05 8.97952e-05 -3.22213e-07
-3.31067e-07 -3.22213e-07 1.03917e-05
0.00123278 -2.55481e-06 6.29224e-07
-2.55481e-06 -3.63394e-05 5.84852e-07
6.29224e-07 5.84852e-07 -8.39124e-05
0.00116264 3.86375e-05 2.80028e-07
3.86375e-05 9.94458e-05 3.3816e-07
2.80028e-07 3.3816e-07 1.47413e-05
0.00102395 3.87514e-05 2.79702e-07
3.87514e-05 2.82049e-05 -1.29723e-07
2.79702e-07 -1.29723e-07 -5.95682e-05
0.00141462 3.57099e-05 5.03994e-07
3.57099e-05 1.31253e-05 -3.62464e-07
5.03994e-07 -3.62464e-07 -2.56182e-05
0.0014378 5.62592e-05 7.87941e-07
5.62592e-05 0.000131157 -4.86653e-07
7.87941e-07 -4.86653e-07 4.51654e-05
0.00148691 5.24716e-05 2.30409e-07
5.24716e-05 0.000247303 6.18267e-07
2.30409e-07 6.18267e-07 0.000142399
0.00118186 3.70747e-05 3.72753e-07
3.70747e-05 0.000119494 3.42142e-07
3.72753e-07 3.42142e-07 3.32341e-05
0.00139597 2.80273e-05 3.97198e-06
2.80273e-05 -5.20969e-05 -1.07298e-06
3.97198e-06 -1.07298e-06 -8.83681e-05
0.00134978 4.22285e-05 5.5885e-07
4.22285e-05 0.000188161 1.26034e-07
5.5885e-07 1.26034e-07 9.92294e-05
0.00156054 4.964e-05 -5.13032e-07
4.964e-05 0.000294072 1.44364e-06
-5.13032e-07 1.44364e-06 0.000193023
0.00120256 6.15849e-05 5.35154e-06
6.15849e-05 -7.66241e-05 5.60296e-07
5.35154e-06 5.60296e-07 -0.000150267
0.00104895 5.26128e-05 3.22996e-08
5.26128e-05 2.25505e-05 2.19499e-06
3.22996e-08 2.19499e-06 -9.07966e-05
0.00225111 -5.40785e-05 -3.52024e-06
-5.40785e-05 0.000125169 -7.04788e-06
-3.52024e-06 -7.04788e-06 0.000160041
0.00111376 3.20873e-05 -4.53569e-07
3.20873e-05 8.62015e-05 -5.64405e-07
-4.53569e-07 -5.64405e-07 7.88895e-06
0.00111404 3.50645e-05 1.93592e-08
3.50645e-05 8.68085e-05 1.56938e-08
1.93592e-08 1.56938e-08 2.12065e-06
0.00124347 3.7843e-05 5.65277e-07
3.7843e-05 0.000144876 3.14688e-07
5.65277e-07 3.14688e-07 5.56467e-05
0.00103204 -2.63815e-06 3.58719e-08
-2.63815e-06 4.1055e-05 -1.30823e-06
3.58719e-08 -1.30823e-06 -1.17685e-05
0.000928307 9.42223e-06 -2.37352e-07
9.42223e-06 -7.24141e-06 -4.50667e-07
-2.37352e-07 -4.50667e-07 -7.57704e-05
0.00123551 2.70182e-05 -1.88235e-07
2.70182e-05 0.000147357 -2.49251e-07
-1.88235e-07 -2.49251e-07 7.00677e-05
0.0010381 2.56472e-05 -7.55635e-07
2.56472e-05 4.5831e-05 -9.47638e-07
-7.55635e-07 -9.47638e-07 -3.9214e-05
0.00102762 -1.04148e-05 2.4267e-08
-1.04148e-05 3.95001e-05 6.18381e-09
2.4267e-08 6.18381e-09 -1.34389e-05
0.00099543 1.58265e-05 1.95858e-07
1.58265e-05 2.72127e-05 -1.88219e-08
1.95858e-07 -1.88219e-08 -4.19449e-05
0.00115464 3.62229e-05 -6.09175e-07
3.62229e-05 9.64956e-05 -7.6313e-07
-6.09175e-07 -7.6313e-07 7.6105e-06
0.00110465 2.16669e-05 6.86022e-08
2.16669e-05 8.16348e-05 5.54442e-08
6.86022e-08 5.54442e-08 3.46461e-06
0.00112725 1.68663e-05 -1.54965e-08
1.68663e-05 8.98038e-05 -2.79923e-08
-1.54965e-08 -2.79923e-08 4.92928e-06
0.00113755 2.64231e-05 4.16639e-07
2.64231e-05 8.29747e-05 9.24046e-07
4.16639e-07 9.24046e-07 -9.2208e-06
0.00124884 3.01706e-05 1.3073e-07
3.01706e-05 0.00014986 1.41527e-07
1.3073e-07 1.41527e-07 6.32511e-05
0.00122652 3.16803e-05 2.87832e-07
3.16803e-05 0.000142523 4.23706e-07
2.87832e-07 4.23706e-07 6.34376e-05
0.000882632 6.74777e-06 5.5291e-08
6.74777e-06 -2.86088e-05 9.63302e-07
5.5291e-08 9.63302e-07 -9.91277e-05
0.000815253 -1.26586e-06 -8.24149e-09
-1.26586e-06 -6.59705e-05 1.7408e-06
-8.24149e-09 1.7408e-06 -0.000120585
0.00126212 -1.39379e-06 1.61978e-07
-1.39379e-06 0.000160119 4.20553e-07
1.61978e-07 4.20553e-07 9.25921e-05
0.000825762 -7.65161e-06 -4.57372e-07
-7.65161e-06 -6.22396e-05 1.6585e-06
-4.57372e-07 1.6585e-06 -0.000116455
0.000997423 5.86007e-06 1.24458e-07
5.86007e-06 1.10285e-05 1.86135e-06
1.24458e-07 1.86135e-06 -2.11816e-05
0.000994498 2.16077e-07 -1.37517e-07
2.16077e-07 9.76693e-06 7.74296e-09
-1.37517e-07 7.74296e-09 -2.2229e-05
0.000943106 -2.65266e-07 1.20064e-07
-2.65266e-07 -3.2056e-05 3.31101e-06
1.20064e-07 3.31101e-06 -3.38971e-05
0.000999739 -6.08314e-06 5.36941e-08
-6.08314e-06 1.22556e-05 -1.90272e-06
5.36941e-08 -1.90272e-06 -1.95983e-05
0.00125272 -2.60024e-06 -4.57454e-07
-2.60024e-06 0.000122814 -1.31326e-06
-4.57454e-07 -1.31326e-06 0.000122512
0.00238259 -3.59193e-06 2.14482e-06
-3.59193e-06 0.000681308 4.22593e-06
2.14482e-06 4.22593e-06 0.000704194
0.00157965 -4.92509e-06 -1.57001e-06
-4.92509e-06 0.000287544 -4.62697e-06
-1.57001e-06 -4.62697e-06 0.000288407
0.00114344 -5.43086e-06 7.95534e-07
-5.43086e-06 6.71358e-05 2.59184e-06
7.95534e-07 2.59184e-06 8.37074e-05
0.00108784 -7.56921e-06 -1.08173e-06
-7.56921e-06 4.29518e-05 -1.65309e-06
-1.08173e-06 -1.65309e-06 5.91382e-05
0.00100437 4.02296e-06 3.23299e-07
4.02296e-06 8.15269e-06 -1.89627e-06
3.23299e-07 -1.89627e-06 -1.81593e-05
0.00100011 5.80049e-06 -1.4146e-08
5.80049e-06 8.29345e-06 -2.5688e-09
-1.4146e-08 -2.5688e-09 -1.92578e-05
0.000923724 6.88296e-06 9.30932e-07
6.88296e-06 -3.80136e-05 -3.23703e-06
9.30932e-07 -3.23703e-06 -3.76994e-05
0.00122624 9.48414e-06 -3.24236e-07
9.48414e-06 0.000116133 3.29462e-08
-3.24236e-07 3.29462e-08 0.000116318
0.00232277 1.17608e-05 6.58382e-06
1.17608e-05 0.000658172 -3.9955e-06
6.58382e-06 -3.9955e-06 0.000680697
0.00094222 1.06165e-05 -1.8083e-06
1.06165e-05 -2.1296e-05 3.25828e-06
-1.8083e-06 3.25828e-06 -2.4241e-05
0.00236326 1.46481e-05 -4.32568e-07
1.46481e-05 0.000683348 -3.16502e-08
-4.32568e-07 -3.16502e-08 0.000704592
0.00241751 1.73278e-05 -1.01987e-05
1.73278e-05 0.000715754 4.07489e-06
-1.01987e-05 4.07489e-06 0.000735591
0.00133261 -3.1983e-06 -1.00442e-06
-3.1983e-06 4.09303e-05 -1.44857e-06
-1.00442e-06 -1.44857e-06 -9.7625e-06
0.00134371 -2.54457e-05 -7.04776e-07
-2.54457e-05 7.6243e-05 5.56698e-07
-7.04776e-07 5.56698e-07 6.66628e-06
0.00136715 6.19466e-06 -9.5993e-07
6.19466e-06 9.35706e-05 -6.00484e-07
-9.5993e-07 -6.00484e-07 2.35816e-05
0.00134377 1.59643e-06 -3.29259e-07
1.59643e-06 8.32159e-05 -9.28246e-07
-3.29259e-07 -9.28246e-07 1.42394e-05
0.00129745 -2.01576e-05 -1.18588e-07
-2.01576e-05 3.8745e-05 4.61148e-07
-1.18588e-07 4.61148e-07 -2.30587e-05
0.00127974 -2.01131e-05 1.23285e-06
-2.01131e-05 2.62659e-05 5.0635e-07
1.23285e-06 5.0635e-07 -2.39734e-05
0.00143341 1.38373e-06 3.67026e-07
1.38373e-06 0.000114345 3.84851e-07
3.67026e-07 3.84851e-07 5.21186e-05
0.00174244 -4.61596e-05 -6.87485e-06
-4.61596e-05 0.000203749 -6.37726e-06
-6.87485e-06 -6.37726e-06 0.000188894
0.00127873 7.30449e-06 2.77713e-07
7.30449e-06 -1.7276e-05 -3.86472e-07
2.77713e-07 -3.86472e-07 -4.35679e-05
0.00103001 -4.3121e-06 9.80331e-08
-4.3121e-06 3.16892e-05 -1.17972e-06
9.80331e-08 -1.17972e-06 -1.1919e-05
0.00129271 2.89705e-05 -1.68876e-06
2.89705e-05 2.51871e-05 -8.81184e-07
-1.68876e-06 -8.81184e-07 -4.64749e-05
0.00155845 9.62825e-06 -9.10632e-07
9.62825e-06 0.000104626 1.10661e-06
-9.10632e-07 1.10661e-06 3.8745e-05
0.00117484 -2.45439e-05 -2.69263e-07
-2.45439e-05 -7.52063e-05 1.60174e-06
-2.69263e-07 1.60174e-06 -0.000117731
0.000966881 -3.65016e-05 -5.16551e-07
-3.65016e-05 -2.90639e-06 1.54439e-06
-5.16551e-07 1.54439e-06 -7.57714e-05
0.00112078 -4.46553e-05 -1.16101e-06
-4.46553e-05 7.49853e-05 3.22346e-06
-1.16101e-06 3.22346e-06 -1.54988e-05
0.00102098 -4.39765e-05 -2.13554e-06
-4.39765e-05 -2.29584e-05 3.07443e-07
-2.13554e-06 3.07443e-07 -0.000107588
0.00131684 -4.21664e-05 -2.01919e-06
-4.21664e-05 2.53461e-05 -1.78601e-06
-2.01919e-06 -1.78601e-06 -2.0404e-05
0.00127887 -4.22987e-05 -3.45629e-07
-4.22987e-05 0.000137123 5.16699e-07
-3.45629e-07 5.16699e-07 6.09043e-05
0.00104751 -3.94893e-05 -3.29828e-06
-3.94893e-05 3.5414e-05 -3.39685e-07
-3.29828e-06 -3.39685e-07 -4.81536e-05
0.00103059 -3.4652e-05 -5.51286e-07
-3.4652e-05 4.34039e-05 1.16417e-06
-5.51286e-07 1.16417e-06 -5.17565e-05
0.000995958 8.1398e-06 -6.55123e-07
8.1398e-06 9.4451e-06 1.91001e-06
-6.55123e-07 1.91001e-06 -1.99389e-05
0.0011139 -3.32361e-05 1.54483e-07
-3.32361e-05 8.85463e-05 3.91302e-07
1.54483e-07 3.91302e-07 4.69573e-06
0.00130814 -4.2053e-06 -6.73694e-08
-4.2053e-06 0.000174597 8.31171e-07
-6.73694e-08 8.31171e-07 0.000125146
0.00112081 -1.3506e-05 -5.00394e-07
-1.3506e-05 9.06929e-05 1.60785e-06
-5.00394e-07 1.60785e-06 1.85435e-05
0.000820629 8.56156e-06 -2.16495e-07
8.56156e-06 -6.93842e-05 1.19412e-06
-2.16495e-07 1.19412e-06 -0.000117024
0.00142145 3.12102e-05 2.40189e-07
3.12102e-05 7.32293e-05 -2.41172e-08
2.40189e-07 -2.41172e-08 1.07107e-06
0.000938197 1.51625e-07 1.51992e-07
1.51625e-07 -1.29477e-05 -4.55877e-07
1.51992e-07 -4.55877e-07 -5.81921e-05
0.00102743 -5.65594e-06 -8.18244e-08
-5.65594e-06 3.44443e-05 3.22361e-08
-8.18244e-08 3.22361e-08 -1.42152e-05
0.00109277 1.82856e-06 -3.60568e-07
1.82856e-06 7.40585e-05 4.92678e-07
-3.60568e-07 4.92678e-07 1.23786e-05
0.00159836 -2.0883e-07 6.17641e-07
-2.0883e-07 0.000112309 8.02741e-07
6.17641e-07 8.02741e-07 6.29863e-05
0.00145238 -3.97208e-05 -6.37396e-07
-3.97208e-05 2.71598e-05 -1.31629e-06
-6.37396e-07 -1.31629e-06 9.15632e-07
0.00108263 -4.09412e-05 -1.2606e-07
-4.09412e-05 5.63752e-05 2.97085e-07
-1.2606e-07 2.97085e-07 -2.33618e-05
0.0011798 -5.03712e-05 7.07429e-07
-5.03712e-05 9.86538e-05 -1.52128e-07
7.07429e-07 -1.52128e-07 1.83128e-07
0.00126491 -5.03523e-05 -8.52947e-09
-5.03523e-05 4.71751e-05 6.28417e-07
-8.52947e-09 6.28417e-07 -2.26774e-05
0.000994039 -1.0291e-06 -3.76943e-08
-1.0291e-06 2.82199e-05 4.68972e-08
-3.76943e-08 4.68972e-08 -4.05677e-05
0.00119597 -2.98574e-05 1.35037e-07
-2.98574e-05 0.000127832 3.87676e-08
1.35037e-07 3.87676e-08 4.54766e-05
0.00110219 -4.36349e-05 -7.74021e-07
-4.36349e-05 6.00167e-05 7.36543e-08
-7.74021e-07 7.36543e-08 -2.62849e-05
0.00119896 -3.86633e-05 1.02559e-07
-3.86633e-05 0.00013138 -4.84324e-07
1.02559e-07 -4.84324e-07 3.21735e-05
0.00104073 -3.24604e-05 -4.28964e-07
-3.24604e-05 5.47972e-05 6.40187e-07
-4.28964e-07 6.40187e-07 -3.8971e-05
0.00135778 3.03442e-05 1.81186e-06
3.03442e-05 1.90095e-05 3.96625e-07
1.81186e-06 3.96625e-07 -5.25912e-05
0.00177846 -1.92839e-05 2.99573e-07
-1.92839e-05 0.000132141 -3.24478e-06
2.99573e-07 -3.24478e-06 0.000125384
0.00174128 -5.90508e-05 3.52262e-06
-5.90508e-05 0.000191532 1.30829e-06
3.52262e-06 1.30829e-06 0.00014218
0.00169718 -6.22695e-05 2.45815e-06
-6.22695e-05 0.000326205 -1.70484e-06
2.45815e-06 -1.70484e-06 0.000230222
0.000903545 -4.40076e-05 7.24885e-07
-4.40076e-05 -1.58564e-05 -2.56999e-06
7.24885e-07 -2.56999e-06 -0.000106431
0.000830492 1.7232e-05 -2.66642e-08
1.7232e-05 -5.62448e-05 -1.20341e-06
-2.66642e-08 -1.20341e-06 -0.00011655
0.000913889 4.6004e-06 2.70005e-07
4.6004e-06 -1.30437e-05 -1.09468e-06
2.70005e-07 -1.09468e-06 -7.89128e-05
0.00119071 1.70133e-05 1.147e-07
1.70133e-05 0.000126245 2.86483e-08
1.147e-07 2.86483e-08 5.36451e-05
0.00115963 -2.72541e-05 4.14315e-07
-2.72541e-05 0.000112076 -8.50969e-07
4.14315e-07 -8.50969e-07 3.06689e-05
0.00108615 -3.27695e-05 -2.39252e-07
-3.27695e-05 7.32402e-05 -6.65713e-09
-2.39252e-07 -6.65713e-09 -1.65265e-05
0.00120692 -3.53089e-05 7.57518e-07
-3.53089e-05 0.000142565 -1.31877e-06
7.57518e-07 -1.31877e-06 4.05353e-05
0.00103137 -4.10004e-05 2.23692e-06
-4.10004e-05 6.13231e-05 -9.74545e-07
2.23692e-06 -9.74545e-07 -4.86412e-05
0.0010982 3.50598e-05 -7.54808e-07
3.50598e-05 7.61657e-05 -8.2591e-07
-7.54808e-07 -8.2591e-07 -3.22932e-06
0.00109078 3.766e-05 -3.52651e-07
3.766e-05 6.36202e-05 7.14031e-08
-3.52651e-07 7.14031e-08 -2.09741e-05
0.00104907 -2.1469e-06 -7.59678e-07
-2.1469e-06 -0.000123199 3.64528e-07
-7.59678e-07 3.64528e-07 -0.000168358
0.0013075 3.27434e-05 -1.14925e-06
3.27434e-05 -3.26899e-05 -7.14295e-07
-1.14925e-06 -7.14295e-07 -7.25064e-05
0.00163952 6.04091e-05 -2.26071e-06
6.04091e-05 0.000223278 -9.68387e-07
-2.26071e-06 -9.68387e-07 0.000137747
0.000878987 3.65458e-05 -9.26522e-08
3.65458e-05 -4.39646e-05 -1.11327e-06
-9.26522e-08 -1.11327e-06 -0.000132785
0.00133719 5.04808e-05 -4.20545e-07
5.04808e-05 0.000175493 -4.33431e-07
-4.20545e-07 -4.33431e-07 7.04175e-05
0.0011877 3.71943e-05 4.57351e-08
3.71943e-05 0.000122243 7.89056e-08
4.57351e-08 7.89056e-08 3.64612e-05
0.0013016 2.76573e-05 -1.46611e-06
2.76573e-05 -9.76188e-05 9.75307e-08
-1.46611e-06 9.75307e-08 -0.000132067
0.00120313 4.00037e-05 -4.51111e-08
4.00037e-05 0.000116872 -1.19219e-07
-4.51111e-08 -1.19219e-07 2.79722e-05
0.00126592 4.44207e-05 -8.03374e-08
4.44207e-05 0.000158077 2.21915e-07
-8.03374e-08 2.21915e-07 5.71932e-05
0.00136955 6.19034e-05 2.04709e-06
6.19034e-05 -7.07494e-06 -1.13096e-06
2.04709e-06 -1.13096e-06 -7.72781e-05
0.00123588 5.63474e-05 -8.97926e-07
5.63474e-05 0.000116769 8.97729e-07
-8.97926e-07 8.97729e-07 -7.56062e-07
0.00205502 -3.87369e-05 -2.22665e-06
-3.87369e-05 0.000126491 5.57123e-07
-2.22665e-06 5.57123e-07 0.000140788
0.00120257 3.78179e-05 -3.07481e-08
3.78179e-05 0.000127853 -2.53965e-07
-3.07481e-08 -2.53965e-07 3.72768e-05
0.00112121 7.3009e-05 9.44644e-06
7.3009e-05 -0.000213257 3.04231e-06
9.44644e-06 3.04231e-06 -0.000280762
0.00127003 4.14053e-05 -8.33504e-07
4.14053e-05 0.000160018 -4.51188e-08
-8.33504e-07 -4.51188e-08 6.47373e-05
0.00121236 5.00032e-05 -1.62643e-06
5.00032e-05 0.000167267 1.49673e-06
-1.62643e-06 1.49673e-06 4.12717e-05
0.000485154 7.00524e-05 1.958e-07
7.00524e-05 -0.000301095 1.89742e-08
1.958e-07 1.89742e-08 -0.000413314
0.00507285 -3.4326e-05 -1.62911e-06
-3.4326e-05 0.00172774 1.99497e-07
-1.62911e-06 1.99497e-07 0.00130128
0.00101948 -8.78637e-05 3.86682e-05
-8.78637e-05 4.40841e-05 1.55146e-05
3.86682e-05 1.55146e-05 -0.00014151
0.00275745 2.32756e-05 -6.91499e-06
2.32756e-05 0.000387807 -3.17407e-06
-6.91499e-06 -3.17407e-06 0.000433624
-0.00244333 -7.28934e-05 -5.10148e-05
-7.28934e-05 -0.0013692 -1.16e-05
-5.10148e-05 -1.16e-05 -0.00136429
0.00123942 -8.0636e-05 -1.51379e-06
-8.0636e-05 2.45428e-05 2.203e-06
-1.51379e-06 2.203e-06 0.000342858
0.00110401 3.48564e-05 -4.83704e-07
3.48564e-05 8.26815e-05 -4.92646e-07
-4.83704e-07 -4.92646e-07 -2.0577e-06
0.00120558 3.71605e-05 -1.38669e-07
3.71605e-05 0.000126617 -9.46825e-08
-1.38669e-07 -9.46825e-08 3.74152e-05
0.00117167 3.47449e-05 6.01811e-07
3.47449e-05 9.88848e-05 8.30396e-07
6.01811e-07 8.30396e-07 4.58155e-06
0.00102678 -1.29278e-05 1.10071e-07
-1.29278e-05 3.92781e-05 -1.22745e-06
1.10071e-07 -1.22745e-06 -1.38056e-05
0.000934934 2.0385e-05 -3.08591e-07
2.0385e-05 -2.85131e-06 -1.02006e-06
-3.08591e-07 -1.02006e-06 -7.25371e-05
0.00109926 1.57806e-05 -3.29666e-07
1.57806e-05 7.90245e-05 -7.17939e-07
-3.29666e-07 -7.17939e-07 1.11243e-06
0.00121313 2.16467e-05 -5.98898e-07
2.16467e-05 0.000133289 -6.34625e-07
-5.98898e-07 -6.34625e-07 4.90345e-05
0.00109426 3.35208e-05 -1.31571e-06
3.35208e-05 6.57409e-05 -1.44976e-06
-1.31571e-06 -1.44976e-06 -2.30465e-05
0.00110744 2.80902e-05 -2.23328e-07
2.80902e-05 8.30619e-05 -4.37532e-07
-2.23328e-07 -4.37532e-07 3.1126e-06
0.000923203 -1.51989e-06 4.28023e-08
-1.51989e-06 -1.26053e-05 5.19969e-07
4.28023e-08 5.19969e-07 -6.64286e-05
0.000973008 5.75994e-06 9.82657e-08
5.75994e-06 1.6723e-05 3.23784e-08
9.82657e-08 3.23784e-08 -5.32761e-05
0.00114546 2.80831e-05 1.38696e-07
2.80831e-05 8.84594e-05 3.99918e-08
1.38696e-07 3.99918e-08 -3.1314e-06
0.00117752 2.8705e-05 -3.34794e-07
2.8705e-05 0.000114723 -5.30969e-07
-3.34794e-07 -5.30969e-07 2.79509e-05
0.00131458 3.79896e-05 -1.09194e-07
3.79896e-05 0.00018372 -2.03017e-07
-1.09194e-07 -2.03017e-07 9.71876e-05
0.00120763 3.2062e-05 2.02449e-07
3.2062e-05 0.00013004 7.33853e-07
2.02449e-07 7.33853e-07 3.51031e-05
0.000985149 2.58619e-05 4.10172e-07
2.58619e-05 2.30759e-05 1.25515e-06
4.10172e-07 1.25515e-06 -5.92901e-05
0.000880681 -3.12177e-06 4.44786e-08
-3.12177e-06 -2.90362e-05 4.20101e-07
4.44786e-08 4.20101e-07 -9.98939e-05
0.000809156 -1.5429e-05 -6.39714e-07
-1.5429e-05 -6.95225e-05 1.68605e-06
-6.39714e-07 1.68605e-06 -0.000123997
0.00111672 1.51569e-07 -4.80385e-08
1.51569e-07 8.73228e-05 7.49463e-07
-4.80385e-08 7.49463e-07 1.96614e-05
0.00125742 8.13535e-06 9.77641e-08
8.13535e-06 0.000158791 5.4812e-07
9.77641e-08 5.4812e-07 7.98924e-05
0.00106093 -1.3803e-05 -1.28392e-07
-1.3803e-05 6.08525e-05 9.52173e-07
-1.28392e-07 9.52173e-07 -9.64013e-06
0.00108727 -5.85927e-06 2.02329e-07
-5.85927e-06 7.33484e-05 -5.02612e-07
2.02329e-07 -5.02612e-07 4.68169e-06
0.00102366 -1.21927e-05 -4.55862e-07
-1.21927e-05 3.5437e-05 1.22891e-06
-4.55862e-07 1.22891e-06 -1.82486e-05
0.000827511 -9.31269e-07 1.49396e-08
-9.31269e-07 -6.12258e-05 4.90359e-07
1.49396e-08 4.90359e-07 -0.000115516
0.000996334 4.5878e-06 -1.33041e-07
4.5878e-06 1.00247e-05 1.88128e-06
-1.33041e-07 1.88128e-06 -2.24209e-05
0.000993491 5.96092e-08 -1.11337e-07
5.96092e-08 9.00559e-06 -1.18755e-09
-1.11337e-07 -1.18755e-09 -2.31721e-05
0.000964532 1.77237e-06 -3.98763e-07
1.77237e-06 -2.10736e-05 4.63036e-06
-3.98763e-07 4.63036e-06 -2.32451e-05
0.000993019 -6.12886e-06 2.53071e-07
-6.12886e-06 9.04609e-06 -1.85492e-06
2.53071e-07 -1.85492e-06 -2.29464e-05
0.000945834 -3.06531e-07 9.38275e-08
-3.06531e-07 -3.06923e-05 -6.98435e-11
9.38275e-08 -6.98435e-11 -3.25529e-05
0.00238893 -8.09312e-07 6.38892e-09
-8.09312e-07 0.000683511 4.23152e-06
6.38892e-09 4.23152e-06 0.000706478
0.000964008 -2.39943e-06 -4.22517e-07
-2.39943e-06 -2.06833e-05 -4.64638e-06
-4.22517e-07 -4.64638e-06 -2.26194e-05
0.00175891 -3.21198e-06 -7.19e-08
-3.21198e-06 0.000370944 4.34475e-08
-7.19e-08 4.34475e-08 0.000390855
0.00109297 -5.20966e-06 -6.5715e-07
-5.20966e-06 4.19591e-05 -1.64872e-06
-6.5715e-07 -1.64872e-06 5.87813e-05
0.00100693 2.21677e-06 1.5544e-07
2.21677e-06 7.93872e-06 -1.89571e-06
1.5544e-07 -1.89571e-06 -1.75974e-05
0.00100358 3.8934e-06 -4.87673e-08
3.8934e-06 7.59908e-06 -1.73864e-08
-4.87673e-08 -1.73864e-08 -1.86922e-05
0.000932597 4.74448e-06 5.6262e-07
4.74448e-06 -3.63747e-05 -3.25887e-06
5.6262e-07 -3.25887e-06 -3.4965e-05
0.00100114 5.7572e-06 -5.41667e-07
5.7572e-06 8.65168e-06 1.87183e-06
-5.41667e-07 1.87183e-06 -1.88938e-05
0.0012188 7.30765e-06 -5.7276e-08
7.30765e-06 0.000108531 -6.14029e-07
-5.7276e-08 -6.14029e-07 0.000110281
0.00229039 8.81852e-06 5.06621e-06
8.81852e-06 0.000638457 -4.00344e-06
5.06621e-06 -4.00344e-06 0.000661915
0.000938388 8.92148e-06 -1.4467e-06
8.92148e-06 -2.70652e-05 3.23215e-06
-1.4467e-06 3.23215e-06 -2.85096e-05
0.00234735 1.15189e-05 -2.4323e-06
1.15189e-05 0.000671307 1.17287e-06
-2.4323e-06 1.17287e-06 0.000693494
0.0023668 1.4678e-05 -8.79783e-06
1.4678e-05 0.000685727 4.06158e-06
-8.79783e-06 4.06158e-06 0.000706804
0.00123093 -1.94366e-05 -1.44459e-06
-1.94366e-05 1.10833e-05 -2.20805e-08
-1.44459e-06 -2.20805e-08 -5.05251e-05
0.001341 8.58441e-07 -1.56659e-06
8.58441e-07 8.18484e-05 -1.23394e-06
-1.56659e-06 -1.23394e-06 1.30259e-05
0.00129845 -2.12769e-05 4.1881e-06
-2.12769e-05 4.38536e-05 1.55683e-06
4.1881e-06 1.55683e-06 -9.16538e-06
0.00139689 -4.11969e-05 -2.40521e-06
-4.11969e-05 2.71783e-05 -2.47441e-06
-2.40521e-06 -2.47441e-06 2.30174e-05
0.00127757 -1.25289e-07 -6.79621e-07
-1.25289e-07 4.19494e-05 -6.82378e-07
-6.79621e-07 -6.82378e-07 -2.09225e-05
0.00114399 6.78137e-06 -5.50166e-07
6.78137e-06 -8.05872e-05 -6.57398e-07
-5.50166e-07 -6.57398e-07 -0.000114336
0.00122957 2.6502e-05 -2.87485e-07
2.6502e-05 -4.80159e-05 3.01268e-06
-2.87485e-07 3.01268e-06 -0.000112184
0.00191674 -8.05942e-05 0.000117344
-8.05942e-05 0.000346612 3.56299e-05
0.000117344 3.56299e-05 0.00017051
0.00108969 1.46658e-06 -6.33567e-06
1.46658e-06 7.93923e-05 8.78636e-07
-6.33567e-06 8.78636e-07 6.24734e-05
0.00103072 -2.357e-07 -6.05409e-08
-2.357e-07 3.15723e-05 -1.13667e-06
-6.05409e-08 -1.13667e-06 -1.14446e-05
0.00103721 -7.88609e-06 -3.54636e-08
-7.88609e-06 3.54067e-05 9.55632e-09
-3.54636e-08 9.55632e-09 -8.3314e-06
0.00105707 1.82188e-05 -2.09391e-07
1.82188e-05 5.37002e-05 -6.56176e-07
-2.09391e-07 -6.56176e-07 -3.84116e-06
0.0010495 -4.34374e-06 -1.9245e-07
-4.34374e-06 4.81373e-05 -3.87723e-07
-1.9245e-07 -3.87723e-07 -7.59058e-06
0.0014354 3.07048e-05 -1.88992e-06
3.07048e-05 7.32939e-05 -5.98221e-07
-1.88992e-06 -5.98221e-07 5.35435e-07
0.00168034 -4.72161e-07 1.4448e-06
-4.72161e-07 0.000153051 1.84712e-06
1.4448e-06 1.84712e-06 0.000103559
0.00119236 -3.9741e-05 -2.51931e-06
-3.9741e-05 -9.89893e-05 -8.95141e-07
-2.51931e-06 -8.95141e-07 -0.000128091
0.00115209 -4.1964e-05 -6.93835e-07
-4.1964e-05 8.69555e-05 2.3257e-06
-6.93835e-07 2.3257e-06 7.77159e-06
0.000791615 -4.49479e-05 -6.23567e-07
-4.49479e-05 -8.68906e-05 1.82836e-06
-6.23567e-07 1.82836e-06 -0.000185676
0.00107598 -4.79331e-05 -2.5989e-06
-4.79331e-05 -4.47609e-05 -7.13104e-07
-2.5989e-06 -7.13104e-07 -0.000113488
0.00118243 -4.46906e-05 -2.08586e-06
-4.46906e-05 9.98308e-05 1.21771e-06
-2.08586e-06 1.21771e-06 1.35252e-05
0.00118185 -3.80043e-05 -1.35412e-06
-3.80043e-05 0.00012143 6.63602e-07
-1.35412e-06 6.63602e-07 2.39989e-05
0.00111323 -3.37731e-05 -3.65147e-07
-3.37731e-05 9.01148e-05 1.76293e-06
-3.65147e-07 1.76293e-06 -2.90563e-06
0.00102711 5.84991e-07 -4.30023e-07
5.84991e-07 3.4273e-05 1.2626e-06
-4.30023e-07 1.2626e-06 -1.43823e-05
0.00120454 -2.97322e-05 -2.25186e-07
-2.97322e-05 0.00013116 6.33523e-07
-2.25186e-07 6.33523e-07 4.84319e-05
0.00108499 -5.47985e-06 -1.90379e-07
-5.47985e-06 7.30603e-05 1.24727e-06
-1.90379e-07 1.24727e-06 5.42151e-06
0.00104168 -2.56342e-06 -1.3943e-07
-2.56342e-06 3.77014e-05 6.5641e-07
-1.3943e-07 6.5641e-07 -6.85553e-06
0.000904974 6.45088e-06 -1.85205e-07
6.45088e-06 -1.88143e-05 1.59755e-06
-1.85205e-07 1.59755e-06 -8.17754e-05
0.00147152 3.03221e-05 1.71421e-07
3.03221e-05 7.28809e-05 1.22617e-06
1.71421e-07 1.22617e-06 3.55366e-06
0.00103708 1.72336e-05 -5.97217e-08
1.72336e-05 4.55905e-05 -5.16613e-07
-5.97217e-08 -5.16613e-07 -1.3343e-05
0.000987117 -3.33748e-06 2.82261e-07
-3.33748e-06 2.32704e-05 3.75674e-08
2.82261e-07 3.75674e-08 -4.16065e-05
0.00109339 1.41445e-05 1.07683e-07
1.41445e-05 7.71119e-05 9.88032e-07
1.07683e-07 9.88032e-07 5.07586e-06
0.00158381 -2.03146e-05 -1.69057e-06
-2.03146e-05 5.43149e-05 2.74214e-07
-1.69057e-06 2.74214e-07 4.08375e-05
0.00134227 -5.47779e-05 -6.55212e-07
-5.47779e-05 -1.59637e-06 -4.98037e-07
-6.55212e-07 -4.98037e-07 -4.94656e-05
0.00108233 -4.63861e-05 1.6391e-07
-4.63861e-05 6.88115e-05 -3.49374e-07
1.6391e-07 -3.49374e-07 -2.20026e-05
0.00145726 -5.91595e-05 3.65755e-07
-5.91595e-05 0.000210515 5.04379e-07
3.65755e-07 5.04379e-07 0.000115508
0.00119587 -2.69573e-05 -7.06592e-08
-2.69573e-05 0.000130597 2.93653e-08
-7.06592e-08 2.93653e-08 4.9324e-05
0.00107449 -3.25832e-05 -3.53262e-07
-3.25832e-05 6.67185e-05 8.43884e-07
-3.53262e-07 8.43884e-07 -2.23179e-05
0.00112651 -4.23248e-05 5.07966e-07
-4.23248e-05 0.000104317 -4.33041e-08
5.07966e-07 -4.33041e-08 -1.6846e-06
0.00121588 -3.54167e-05 3.27124e-07
-3.54167e-05 0.000148118 -5.2521e-07
3.27124e-07 -5.2521e-07 4.54932e-05
0.000951146 2.56408e-05 1.4656e-06
2.56408e-05 -0.000248282 -1.42318e-06
1.4656e-06 -1.42318e-06 -0.000299117
0.00213611 -6.26522e-05 6.08216e-06
-6.26522e-05 0.000272287 -3.17957e-06
6.08216e-06 -3.17957e-06 0.000257008
0.00152325 -6.83182e-05 5.72991e-06
-6.83182e-05 0.000170458 -6.20707e-08
5.72991e-06 -6.20707e-08 7.96062e-05
0.00124311 -5.91139e-05 1.16393e-06
-5.91139e-05 0.000156618 -2.37089e-06
1.16393e-06 -2.37089e-06 5.39542e-05
0.00101043 1.35004e-05 -3.05586e-07
1.35004e-05 3.84659e-05 -6.85121e-07
-3.05586e-07 -6.85121e-07 -3.62411e-05
0.00102286 -2.2269e-05 2.66457e-07
-2.2269e-05 4.38195e-05 -1.45108e-06
2.66457e-07 -1.45108e-06 -3.4126e-05
0.00108809 -3.27868e-05 4.96331e-08
-3.27868e-05 8.0384e-05 -1.02358e-06
4.96331e-08 -1.02358e-06 -1.47252e-05
0.00113064 -3.31348e-05 5.5229e-07
-3.31348e-05 0.00012769 -4.37388e-07
5.5229e-07 -4.37388e-07 4.56371e-06
0.00125246 1.28894e-05 1.13277e-05
1.28894e-05 -0.000195767 -2.11503e-06
1.13277e-05 -2.11503e-06 -0.000575243
0.00118812 3.7219e-05 -2.69879e-07
3.7219e-05 0.000122441 -3.46163e-07
-2.69879e-07 -3.46163e-07 3.71375e-05
0.00105946 3.78165e-05 3.47153e-08
3.78165e-05 4.70445e-05 6.7926e-08
3.47153e-08 6.7926e-08 -4.18304e-05
0.00122363 2.75777e-05 -4.73786e-06
2.75777e-05 -0.000137441 7.61245e-07
-4.73786e-06 7.61245e-07 -0.000170113
0.00156319 6.22565e-05 -3.60816e-06
6.22565e-05 7.45548e-05 -1.89907e-06
-3.60816e-06 -1.89907e-06 7.82551e-06
0.0013874 5.96408e-05 -1.65482e-06
5.96408e-05 0.000194299 -2.4268e-07
-1.65482e-06 -2.4268e-07 7.20215e-05
0.000968982 3.92678e-05 9.07848e-07
3.92678e-05 2.12496e-05 -5.95324e-07
9.07848e-07 -5.95324e-07 -7.98053e-05
0.00180736 -2.32284e-05 2.55326e-06
-2.32284e-05 9.10179e-05 6.04623e-06
2.55326e-06 6.04623e-06 8.48782e-05
0.00119977 3.77934e-05 -1.96554e-08
3.77934e-05 0.000127089 -1.18735e-07
-1.96554e-08 -1.18735e-07 3.67841e-05
0.00146358 7.47729e-05 1.76235e-06
7.47729e-05 -6.06958e-05 2.46725e-07
1.76235e-06 2.46725e-07 -0.000127087
0.00115973 3.95314e-05 2.32277e-07
3.95314e-05 0.000108218 1.10656e-07
2.32277e-07 1.10656e-07 1.29727e-05
0.00111284 4.77715e-05 -3.17915e-07
4.77715e-05 0.000118288 -1.65177e-07
-3.17915e-07 -1.65177e-07 -5.53481e-06
0.000705887 7.08113e-05 -1.37182e-06
7.08113e-05 -0.000199633 -8.11557e-08
-1.37182e-06 -8.11557e-08 -0.000307382
0.00108651 -2.25657e-05 -1.3607e-05
-2.25657e-05 -5.48712e-06 -7.49869e-06
-1.3607e-05 -7.49869e-06 -0.000436174
0.00173022 -7.96986e-05 3.8105e-06
-7.96986e-05 0.000200643 -2.26712e-06
3.8105e-06 -2.26712e-06 -9.55902e-05
0.00255298 3.09496e-05 -2.58148e-06
3.09496e-05 0.000298476 -5.15791e-07
-2.58148e-06 -5.15791e-07 0.000335287
-0.00028948 -8.05895e-05 -1.07027e-05
-8.05895e-05 -0.00046035 -1.90253e-06
-1.07027e-05 -1.90253e-06 -0.000512662
0.000714046 -8.05998e-05 -4.15366e-06
-8.05998e-05 -0.000219212 -3.25964e-06
-4.15366e-06 -3.25964e-06 5.54734e-05
0.00112273 3.65818e-05 1.26446e-06
3.65818e-05 9.53531e-05 2.48868e-08
1.26446e-06 2.48868e-08 1.04519e-06
0.000379161 1.76232e-05 -7.82513e-05
1.76232e-05 -0.000100364 -8.51872e-06
-7.82513e-05 -8.51872e-06 -0.000268135
0.00215002 -4.10729e-05 6.70188e-06
-4.10729e-05 0.000849572 4.35521e-06
6.70188e-06 4.35521e-06 0.000942032
0.00155995 9.88958e-05 8.57091e-06
9.88958e-05 0.000100059 6.99721e-06
8.57091e-06 6.99721e-06 5.16849e-06
0.000914228 3.14332e-05 -9.14944e-09
3.14332e-05 3.9305e-06 -8.85113e-07
-9.14944e-09 -8.85113e-07 -0.000103542
0.00154405 4.813e-05 -3.70482e-06
4.813e-05 0.000380648 1.78485e-06
-3.70482e-06 1.78485e-06 0.00021789
0.00205003 2.1856e-05 -2.00817e-05
2.1856e-05 0.000162134 -2.0762e-05
-2.00817e-05 -2.0762e-05 8.99485e-05
0.00555588 -0.000103729 -5.59039e-05
-0.000103729 0.0016964 -1.61245e-05
-5.59039e-05 -1.61245e-05 0.00114815
0.00124963 -1.2803e-05 3.06691e-05
-1.2803e-05 0.000207117 2.44919e-05
3.06691e-05 2.44919e-05 -0.000236907
0.000145364 -0.000140436 -5.12542e-05
-0.000140436 -0.000190615 -2.54082e-05
-5.12542e-05 -2.54082e-05 -8.22249e-05
-0.00109812 -3.87178e-05 3.92958e-06
-3.87178e-05 -0.00120595 5.17775e-06
3.92958e-06 5.17775e-06 -0.00107926
0.0011466 3.60975e-05 -1.01953e-06
3.60975e-05 9.84361e-05 -8.18053e-07
-1.01953e-06 -8.18053e-07 9.25827e-06
0.00120261 3.56382e-05 -4.58216e-07
3.56382e-05 0.000114909 2.51901e-07
-4.58216e-07 2.51901e-07 2.05684e-05
0.00124619 3.63114e-05 -5.63214e-08
3.63114e-05 0.00012689 3.0985e-07
-5.63214e-08 3.0985e-07 2.65367e-05
0.00102971 -1.07452e-06 7.59633e-08
-1.07452e-06 4.02136e-05 -6.51602e-07
7.59633e-08 -6.51602e-07 -1.29145e-05
0.00106284 2.45232e-06 1.66361e-07
2.45232e-06 6.17722e-05 -1.01714e-06
1.66361e-07 -1.01714e-06 -7.7013e-06
0.000986351 2.37501e-05 -7.27741e-07
2.37501e-05 2.26242e-05 -9.99654e-07
-7.27741e-07 -9.99654e-07 -5.81546e-05
0.00110766 2.84367e-05 -7.84951e-07
2.84367e-05 8.02881e-05 -1.07581e-06
-7.84951e-07 -1.07581e-06 -6.74018e-06
0.00114886 2.72643e-05 -6.16063e-07
2.72643e-05 9.18755e-05 -1.05214e-06
-6.16063e-07 -1.05214e-06 8.83439e-07
0.000815944 -5.72282e-06 7.22142e-08
-5.72282e-06 -6.62251e-05 5.19524e-07
7.22142e-08 5.19524e-07 -0.000120721
0.00117984 3.26689e-05 -2.87114e-07
3.26689e-05 0.00011692 -6.11873e-07
-2.87114e-07 -6.11873e-07 3.03644e-05
0.00111551 1.60049e-05 2.59875e-09
1.60049e-05 8.7788e-05 4.18089e-07
2.59875e-09 4.18089e-07 6.4854e-06
0.000985751 2.58302e-06 1.81581e-07
2.58302e-06 2.28869e-05 -4.30522e-07
1.81581e-07 -4.30522e-07 -4.72231e-05
0.00108787 3.04894e-05 -1.13407e-08
3.04894e-05 6.95269e-05 2.09448e-07
-1.13407e-08 2.09448e-07 -2.62541e-05
0.00115536 3.01037e-05 1.05405e-07
3.01037e-05 0.000109328 2.27864e-07
1.05405e-07 2.27864e-07 1.8583e-05
0.00115359 2.94278e-05 5.0564e-07
2.94278e-05 0.000121852 7.87339e-07
5.0564e-07 7.87339e-07 1.6456e-05
0.00110221 -1.59091e-05 -3.8569e-07
-1.59091e-05 8.11817e-05 7.2347e-07
-3.8569e-07 7.2347e-07 -1.33617e-06
0.0011162 -1.47093e-05 -2.10338e-07
-1.47093e-05 8.70768e-05 3.53899e-07
-2.10338e-07 3.53899e-07 1.86548e-05
0.00111562 -8.17043e-06 -3.52635e-08
-8.17043e-06 8.66754e-05 -8.17095e-08
-3.52635e-08 -8.17095e-08 1.90559e-05
0.00112396 -6.65204e-06 -3.01481e-08
-6.65204e-06 9.21672e-05 -4.07376e-07
-3.01481e-08 -4.07376e-07 1.22359e-05
0.00110979 4.80272e-06 1.7672e-08
4.80272e-06 8.46005e-05 1.01137e-06
1.7672e-08 1.01137e-06 4.69938e-06
0.00109049 -1.78894e-05 -1.48269e-07
-1.78894e-05 7.81499e-05 9.30438e-07
-1.48269e-07 9.30438e-07 -3.68661e-06
0.00120387 -1.37411e-05 -8.40725e-09
-1.37411e-05 0.000130231 2.90199e-08
-8.40725e-09 2.90199e-08 4.28133e-05
0.00107251 -3.25123e-05 -1.06102e-06
-3.25123e-05 6.61684e-05 5.08422e-07
-1.06102e-06 5.08422e-07 -1.74242e-05
0.00106402 -2.18681e-05 -3.12435e-07
-2.18681e-05 6.22496e-05 9.32934e-07
-3.12435e-07 9.32934e-07 -1.02588e-05
0.00106385 -1.70924e-05 4.26616e-08
-1.70924e-05 6.23925e-05 3.71881e-10
4.26616e-08 3.71881e-10 -8.10272e-06
0.00103197 -1.13099e-05 -4.19904e-07
-1.13099e-05 3.90145e-05 1.28834e-06
-4.19904e-07 1.28834e-06 -1.61132e-05
0.000911108 -1.23593e-05 3.94764e-07
-1.23593e-05 -1.41129e-05 -1.44389e-06
3.94764e-07 -1.44389e-06 -8.38491e-05
0.000933609 -9.66907e-06 6.59375e-08
-9.66907e-06 -9.22169e-06 -2.53557e-08
6.59375e-08 -2.53557e-08 -6.35483e-05
0.000998318 2.86323e-07 -5.01129e-07
2.86323e-07 1.08281e-05 1.92474e-06
-5.01129e-07 1.92474e-06 -2.21208e-05
0.000833696 -2.30837e-06 1.29309e-07
-2.30837e-06 -5.83245e-05 -6.48858e-07
1.29309e-07 -6.48858e-07 -0.000112505
0.000997168 -6.67757e-07 -6.61769e-09
-6.67757e-07 1.03208e-05 -8.61202e-09
-6.61769e-09 -8.61202e-09 -2.21257e-05
0.00158863 4.10615e-06 -1.88745e-06
4.10615e-06 0.00029073 4.57807e-06
-1.88745e-06 4.57807e-06 0.000291273
0.000992307 -5.11675e-06 3.68275e-07
-5.11675e-06 8.37297e-06 -1.8399e-06
3.68275e-07 -1.8399e-06 -2.37928e-05
0.00126804 1.91417e-06 -5.66942e-07
1.91417e-06 0.000129957 6.4438e-07
-5.66942e-07 6.4438e-07 0.000129331
0.00114704 1.36705e-06 -1.39618e-06
1.36705e-06 6.54967e-05 4.13853e-06
-1.39618e-06 4.13853e-06 8.23205e-05
0.000948266 -3.47945e-07 7.02318e-08
-3.47945e-07 -2.94787e-05 -3.29533e-06
7.02318e-08 -3.29533e-06 -3.13576e-05
0.00238706 -6.79474e-07 7.45545e-07
-6.79474e-07 0.000682585 7.1322e-11
7.45545e-07 7.1322e-11 0.000705548
0.00113807 -2.45457e-06 -6.28096e-07
-2.45457e-06 6.20222e-05 -4.14225e-06
-6.28096e-07 -4.14225e-06 7.89621e-05
0.00104292 8.34442e-06 4.29693e-08
8.34442e-06 3.7365e-05 -6.47153e-07
4.29693e-08 -6.47153e-07 -5.9927e-06
0.00100606 3.48805e-07 -9.15101e-09
3.48805e-07 6.72156e-06 -1.90452e-06
-9.15101e-09 -1.90452e-06 -1.85571e-05
0.00100729 2.06912e-06 -3.32148e-08
2.06912e-06 8.00499e-06 -1.22134e-08
-3.32148e-08 -1.22134e-08 -1.75304e-05
0.000938389 2.45726e-06 2.85285e-07
2.45726e-06 -3.50626e-05 -3.27412e-06
2.85285e-07 -3.27412e-06 -3.29799e-05
0.00100259 3.76041e-06 -4.40783e-07
3.76041e-06 6.94913e-06 1.89201e-06
-4.40783e-07 1.89201e-06 -1.93205e-05
0.000934702 4.75059e-06 2.56185e-08
4.75059e-06 -3.55402e-05 -6.32808e-07
2.56185e-08 -6.32808e-07 -3.40811e-05
0.002268 5.90422e-06 3.25788e-06
5.90422e-06 0.000624805 -4.01191e-06
3.25788e-06 -4.01191e-06 0.000648925
0.00150223 8.10233e-06 -1.16744e-06
8.10233e-06 0.000249791 1.98324e-06
-1.16744e-06 1.98324e-06 0.0002528
0.00172837 8.00878e-06 7.24364e-08
8.00878e-06 0.000359552 1.2223e-06
7.24364e-08 1.2223e-06 0.000379921
0.00118387 9.52557e-06 -7.21677e-06
9.52557e-06 9.27832e-05 6.55851e-06
-7.21677e-06 6.55851e-06 0.00010907
0.000771743 -3.44494e-05 -2.47792e-06
-3.44494e-05 -0.00027723 1.4225e-06
-2.47792e-06 1.4225e-06 -0.000267254
0.00108955 -2.09411e-06 -1.15399e-06
-2.09411e-06 -4.51427e-05 -9.56947e-07
-1.15399e-06 -9.56947e-07 -0.000108711
0.000938604 5.83459e-06 -3.5126e-06
5.83459e-06 -0.000177728 -3.66461e-06
-3.5126e-06 -3.66461e-06 -0.000218574
0.000844683 -7.4762e-05 3.90302e-05
-7.4762e-05 2.14272e-05 5.37138e-06
3.90302e-05 5.37138e-06 -0.000128031
0.000889133 -5.15741e-06 -2.03189e-06
-5.15741e-06 -1.94681e-05 -1.58617e-07
-2.03189e-06 -1.58617e-07 -2.87324e-05
0.00118797 2.88293e-05 -1.26092e-06
2.88293e-05 -6.89939e-05 -1.45168e-06
-1.26092e-06 -1.45168e-06 -0.000134417
0.00128294 4.61844e-05 -7.1845e-07
4.61844e-05 0.000138263 4.30897e-06
-7.1845e-07 4.30897e-06 8.88574e-05
0.000518335 -8.82628e-06 9.66048e-05
-8.82628e-06 -0.00018243 7.62771e-06
9.66048e-05 7.62771e-06 -0.000373022
0.00493432 5.28337e-06 -9.36288e-06
5.28337e-06 0.00140388 2.32476e-06
-9.36288e-06 2.32476e-06 0.000879767
0.00259107 0.000120785 -2.67434e-05
0.000120785 0.000913823 1.29611e-05
-2.67434e-05 1.29611e-05 0.00082973
0.00068981 5.85746e-05 -2.78935e-06
5.85746e-05 -0.000187726 5.8155e-08
-2.78935e-06 5.8155e-08 2.61711e-05
0.000856458 1.31858e-06 2.87095e-07
1.31858e-06 -4.61692e-05 -1.25444e-06
2.87095e-07 -1.25444e-06 -0.000103575
0.00103512 -1.67129e-06 -2.64611e-08
-1.67129e-06 3.38774e-05 8.5596e-09
-2.64611e-08 8.5596e-09 -9.19046e-06
0.00104427 -1.08748e-05 -4.05735e-07
-1.08748e-05 3.9053e-05 1.12116e-06
-4.05735e-07 1.12116e-06 -4.80802e-06
0.000978404 1.87938e-05 -8.26101e-08
1.87938e-05 1.5657e-05 -4.28058e-08
-8.26101e-08 -4.28058e-08 -4.22072e-05
0.00117177 3.28754e-05 1.60019e-07
3.28754e-05 0.000116006 5.74985e-08
1.60019e-07 5.74985e-08 4.84982e-05
0.00113751 2.6914e-05 1.04522e-07
2.6914e-05 9.42971e-05 -4.21444e-08
1.04522e-07 -4.21444e-08 3.01372e-05
0.00108435 1.87711e-06 1.60541e-07
1.87711e-06 6.63056e-05 -1.56652e-06
1.60541e-07 -1.56652e-06 9.16386e-06
0.000996586 -7.58505e-06 -4.22305e-08
-7.58505e-06 2.21488e-05 4.73299e-07
-4.22305e-08 4.73299e-07 -3.40663e-05
0.00157524 3.02038e-05 -1.30656e-06
3.02038e-05 0.000121661 9.21179e-07
-1.30656e-06 9.21179e-07 5.46746e-05
0.00138913 -2.12361e-05 -9.57173e-07
-2.12361e-05 -2.31867e-05 1.08389e-06
-9.57173e-07 1.08389e-06 -4.25935e-05
0.0009972 -5.07355e-05 -6.11623e-06
-5.07355e-05 -0.000168075 -1.73932e-06
-6.11623e-06 -1.73932e-06 -0.000214097
0.00126948 -4.88724e-05 -3.07242e-07
-4.88724e-05 0.000157523 1.90905e-06
-3.07242e-07 1.90905e-06 6.64482e-05
0.00121454 -5.59852e-05 -1.46283e-06
-5.59852e-05 9.37178e-05 1.84736e-06
-1.46283e-06 1.84736e-06 -3.53658e-07
0.00122034 -4.36683e-05 -1.15112e-06
-4.36683e-05 0.000147115 7.42626e-07
-1.15112e-06 7.42626e-07 4.4545e-05
0.00122956 -3.56404e-05 3.68937e-07
-3.56404e-05 0.000156055 5.25521e-07
3.68937e-07 5.25521e-07 5.2816e-05
0.00104691 -3.21387e-05 -5.30372e-07
-3.21387e-05 5.25147e-05 1.26906e-06
-5.30372e-07 1.26906e-06 -3.57694e-05
0.00106342 -9.16531e-06 -1.71669e-07
-9.16531e-06 6.11356e-05 1.12278e-06
-1.71669e-07 1.12278e-06 -2.81771e-06
0.00123088 -2.49353e-05 -1.00321e-07
-2.49353e-05 0.000148412 8.89677e-07
-1.00321e-07 8.89677e-07 6.72995e-05
0.00123711 1.6981e-05 -1.47796e-07
1.6981e-05 0.000144302 4.21587e-07
-1.47796e-07 4.21587e-07 8.67028e-05
0.000985505 1.07426e-05 1.60496e-07
1.07426e-05 2.30193e-05 1.92349e-06
1.60496e-07 1.92349e-06 -4.84626e-05
0.00170541 3.25099e-05 7.50329e-07
3.25099e-05 9.7765e-05 -1.84322e-06
7.50329e-07 -1.84322e-06 4.86646e-05
0.00104286 1.36603e-05 -1.44825e-07
1.36603e-05 5.4112e-05 2.7997e-07
-1.44825e-07 2.7997e-07 -2.01953e-05
0.00108743 -2.28472e-05 1.19831e-07
-2.28472e-05 7.6085e-05 -4.70186e-07
1.19831e-07 -4.70186e-07 -1.84158e-06
0.0016096 -5.82618e-05 -3.12291e-06
-5.82618e-05 2.24107e-05 -1.30678e-06
-3.12291e-06 -1.30678e-06 1.34715e-05
0.000866958 -6.11203e-05 1.61231e-06
-6.11203e-05 -0.000139261 9.18698e-07
1.61231e-06 9.18698e-07 -0.000228664
0.0012096 -5.90863e-05 -3.9778e-07
-5.90863e-05 0.000138455 -3.06884e-07
-3.9778e-07 -3.06884e-07 3.10979e-05
0.00110843 -3.19223e-05 -6.55849e-08
-3.19223e-05 8.97812e-05 -1.66788e-07
-6.55849e-08 -1.66788e-07 -5.437e-06
0.00113103 -3.27432e-05 3.11483e-07
-3.27432e-05 0.000127472 2.92241e-07
3.11483e-07 2.92241e-07 5.77673e-06
0.00141079 -1.49461e-05 -2.75498e-06
-1.49461e-05 -0.000280101 9.37626e-06
-2.75498e-06 9.37626e-06 -0.000216001
0.0023714 -0.000107091 1.02904e-05
-0.000107091 0.000530232 -6.34716e-07
1.02904e-05 -6.34716e-07 0.000433824
0.000348629 -6.18025e-05 1.46896e-06
-6.18025e-05 -0.000304151 -2.54933e-06
1.46896e-06 -2.54933e-06 -0.000411482
0.00142161 -4.81429e-05 6.60682e-07
-4.81429e-05 0.000276629 -9.6867e-07
6.60682e-07 -9.6867e-07 0.000134977
0.00101339 -2.01292e-05 -1.94883e-07
-2.01292e-05 4.23758e-05 -1.12967e-06
-1.94883e-07 -1.12967e-06 -3.90114e-05
0.00111262 -1.7763e-05 1.51935e-07
-1.7763e-05 9.13148e-05 -9.53701e-07
1.51935e-07 -9.53701e-07 2.22806e-06
0.00126706 -2.27875e-05 -2.79269e-07
-2.27875e-05 0.00018113 -6.87544e-07
-2.79269e-07 -6.87544e-07 6.9919e-05
-0.00103502 9.11901e-07 -7.0598e-05
9.11901e-07 -0.000596606 -5.33748e-07
-7.0598e-05 -5.33748e-07 -0.000590168
0.00492649 -4.4985e-06 -2.4059e-05
-4.4985e-06 0.00157511 -1.34571e-06
-2.4059e-05 -1.34571e-06 0.00117702
0.00120989 3.8004e-05 -2.47894e-07
3.8004e-05 0.000132322 -1.50603e-07
-2.47894e-07 -1.50603e-07 4.23006e-05
0.00103001 3.73173e-05 5.39735e-07
3.73173e-05 4.68029e-05 -5.78549e-07
5.39735e-07 -5.78549e-07 -4.83574e-05
0.0020059 7.71731e-05 -8.27931e-06
7.71731e-05 0.000189205 -8.00031e-07
-8.27931e-06 -8.00031e-07 0.000123372
0.00108382 7.31109e-05 -1.92107e-06
7.31109e-05 -2.30908e-05 -1.42868e-06
-1.92107e-06 -1.42868e-06 -0.000126292
0.00102146 4.54078e-05 1.25673e-06
4.54078e-05 7.43327e-05 -1.64113e-06
1.25673e-06 -1.64113e-06 -4.68452e-05
0.00499127 1.4718e-05 -4.03694e-06
1.4718e-05 0.0014169 -9.16027e-06
-4.03694e-06 -9.16027e-06 0.000883321
0.000232609 -8.56665e-05 -3.10903e-05
-8.56665e-05 -0.000134273 -1.33874e-05
-3.10903e-05 -1.33874e-05 -0.000355725
0.00222541 3.94556e-05 1.25875e-05
3.94556e-05 0.000145874 3.12501e-06
1.25875e-05 3.12501e-06 0.000174211
0.00280979 -0.000127488 2.52576e-05
-0.000127488 0.00109429 9.21714e-06
2.52576e-05 9.21714e-06 0.00103258
-5.85736e-06 -8.093e-05 6.91372e-07
-8.093e-05 -0.000592859 2.65583e-06
6.91372e-07 2.65583e-06 -0.000348485
0.00114153 3.70357e-05 3.56781e-07
3.70357e-05 0.000100683 -1.80723e-07
3.56781e-07 -1.80723e-07 6.53728e-06
-0.000784677 -5.18875e-06 -1.51068e-05
-5.18875e-06 -0.000377532 -7.10462e-07
-1.51068e-05 -7.10462e-07 -0.00041143
0.00136591 -3.95822e-05 -1.42315e-07
-3.95822e-05 0.000416401 5.89301e-08
-1.42315e-07 5.89301e-08 0.000499852
0.00155824 0.000100302 2.00412e-06
0.000100302 0.000100395 2.00985e-06
2.00412e-06 2.00985e-06 5.71053e-06
0.00117541 3.39919e-05 1.55635e-07
3.39919e-05 0.000132544 -1.07107e-06
1.55635e-07 -1.07107e-06 2.91176e-05
0.00136934 4.98264e-05 4.46835e-07
4.98264e-05 0.000299224 -4.88907e-08
4.46835e-07 -4.88907e-08 0.000140524
0.00211723 2.24795e-05 -2.46057e-05
2.24795e-05 0.00022151 -2.00726e-05
-2.46057e-05 -2.00726e-05 0.000146271
0.00365867 -3.93476e-05 1.01232e-05
-3.93476e-05 0.000750195 6.6529e-06
1.01232e-05 6.6529e-06 0.000128659
0.000139351 -3.25175e-05 -7.12905e-06
-3.25175e-05 -8.02054e-05 -1.26139e-05
-7.12905e-06 -1.26139e-05 -0.000290352
0.00177332 -0.000189851 1.7092e-06
-0.000189851 0.000221302 1.54793e-06
1.7092e-06 1.54793e-06 0.000232703
-0.000241367 -4.48362e-05 -8.41038e-07
-4.48362e-05 -0.000713385 -6.01118e-06
-8.41038e-07 -6.01118e-06 -0.000550922
0.00101674 2.45727e-05 -4.93029e-07
2.45727e-05 1.22305e-05 -5.66502e-07
-4.93029e-07 -5.66502e-07 -8.36012e-05
0.000382278 -9.59269e-06 9.05944e-06
-9.59269e-06 -5.86487e-05 2.61785e-06
9.05944e-06 2.61785e-06 -6.6486e-05
0.000491535 -8.2497e-06 8.36122e-06
-8.2497e-06 -7.77574e-05 1.37367e-05
8.36122e-06 1.37367e-05 -0.000121789
0.000946615 3.87627e-05 1.40184e-05
3.87627e-05 3.12752e-05 9.18149e-06
1.40184e-05 9.18149e-06 -0.000165718
0.00161791 2.43436e-05 -4.24205e-06
2.43436e-05 0.000400984 -1.49787e-06
-4.24205e-06 -1.49787e-06 0.000273814
0.00215901 -3.21298e-05 -6.23473e-06
-3.21298e-05 0.000624352 -3.31641e-06
-6.23473e-06 -3.31641e-06 0.000598474
0.000155292 7.897e-05 -3.71058e-05
7.897e-05 6.10641e-05 -5.31227e-06
-3.71058e-05 -5.31227e-06 -0.00016306
0.00311459 -0.000135368 3.5091e-05
-0.000135368 0.000386747 2.49218e-05
3.5091e-05 2.49218e-05 -0.000225635
0.0025774 -0.000213701 -2.28297e-05
-0.000213701 0.00049204 -1.88128e-05
-2.28297e-05 -1.88128e-05 0.000494617
-0.000322639 -1.07715e-05 6.0042e-07
-1.07715e-05 -0.000689556 4.37766e-06
6.0042e-07 4.37766e-06 -0.000667023
0.00124235 3.70158e-05 -8.55682e-07
3.70158e-05 0.000135279 3.121e-07
-8.55682e-07 3.121e-07 4.08639e-05
0.0011634 3.43565e-05 2.02062e-07
3.43565e-05 8.78607e-05 3.21243e-07
2.02062e-07 3.21243e-07 -1.27582e-05
0.00101703 3.43603e-05 1.31499e-06
3.43603e-05 4.3013e-05 -3.28403e-07
1.31499e-06 -3.28403e-07 -6.53437e-05
0.000821107 4.03252e-06 1.40456e-07
4.03252e-06 -6.37121e-05 -6.48091e-07
1.40456e-07 -6.48091e-07 -0.000118237
0.00109208 6.22648e-06 1.18101e-07
6.22648e-06 7.54082e-05 -1.34591e-06
1.18101e-07 -1.34591e-06 6.06229e-06
0.00124528 4.67305e-06 -5.92247e-08
4.67305e-06 0.000152222 2.54106e-08
-5.92247e-08 2.54106e-08 7.19904e-05
0.00104975 2.79884e-05 -7.22289e-08
2.79884e-05 5.24452e-05 -1.19504e-06
-7.22289e-08 -1.19504e-06 -3.4164e-05
0.000962888 2.95392e-05 -2.84224e-07
2.95392e-05 6.4132e-06 -3.94906e-07
-2.84224e-07 -3.94906e-07 -9.0232e-05
0.00110347 2.11813e-06 1.96688e-07
2.11813e-06 8.10407e-05 -5.21014e-07
1.96688e-07 -5.21014e-07 1.24613e-05
0.00110471 2.72247e-05 -1.18292e-08
2.72247e-05 8.39191e-05 -4.72588e-08
-1.18292e-08 -4.72588e-08 -5.95248e-06
0.0011126 -3.97466e-06 -4.74533e-08
-3.97466e-06 8.65582e-05 1.83689e-07
-4.74533e-08 1.83689e-07 3.9457e-06
0.00108944 2.90985e-05 3.52213e-07
2.90985e-05 9.05914e-05 1.399e-07
3.52213e-07 1.399e-07 -1.63147e-05
0.0010655 1.61847e-05 4.05516e-07
1.61847e-05 8.42551e-05 -4.17722e-07
4.05516e-07 -4.17722e-07 -3.067e-05
0.00121365 1.62331e-05 -1.00594e-07
1.62331e-05 0.000145222 1.0461e-06
-1.00594e-07 1.0461e-06 4.83657e-05
0.00113614 6.04611e-06 9.77064e-08
6.04611e-06 9.77029e-05 6.89771e-07
9.77064e-08 6.89771e-07 1.67507e-05
0.00111151 -9.51932e-06 7.84738e-08
-9.51932e-06 8.47851e-05 -9.17588e-07
7.84738e-08 -9.17588e-07 1.7098e-05
0.000992995 -2.26828e-05 3.32836e-07
-2.26828e-05 2.6791e-05 -1.37146e-06
3.32836e-07 -1.37146e-06 -5.42078e-05
0.0011122 2.45483e-07 1.76774e-07
2.45483e-07 8.5502e-05 6.85518e-08
1.76774e-07 6.85518e-08 5.80372e-06
0.00109739 -1.96025e-05 -2.30612e-08
-1.96025e-05 8.1772e-05 1.10035e-08
-2.30612e-08 1.10035e-08 -1.56578e-07
0.00113184 -2.04144e-05 1.9133e-07
-2.04144e-05 9.33808e-05 -7.57117e-07
1.9133e-07 -7.57117e-07 5.88453e-06
0.00106035 -2.77761e-05 -5.70229e-07
-2.77761e-05 6.53861e-05 1.15365e-06
-5.70229e-07 1.15365e-06 -1.8933e-05
0.00119935 -3.30807e-06 -8.81592e-08
-3.30807e-06 0.000125908 3.03215e-07
-8.81592e-08 3.03215e-07 3.71646e-05
0.00100188 -3.03385e-05 -2.08788e-07
-3.03385e-05 3.49164e-05 3.84304e-07
-2.08788e-07 3.84304e-07 -5.71992e-05
0.00113239 -3.50688e-05 -3.02014e-07
-3.50688e-05 9.2076e-05 -1.05241e-06
-3.02014e-07 -1.05241e-06 6.1317e-06
0.000897814 -3.42054e-05 1.7789e-07
-3.42054e-05 -1.68431e-05 2.03681e-07
1.7789e-07 2.03681e-07 -9.52081e-05
0.000998638 -3.32794e-05 -8.85483e-07
-3.32794e-05 2.65978e-05 -3.3769e-07
-8.85483e-07 -3.3769e-07 -5.30466e-05
0.00109382 -3.24247e-05 -3.61745e-07
-3.24247e-05 7.60246e-05 1.93725e-07
-3.61745e-07 1.93725e-07 -7.35076e-06
0.00107555 -2.79915e-05 -1.13286e-06
-2.79915e-05 6.48984e-05 1.19179e-06
-1.13286e-06 1.19179e-06 -8.14468e-06
0.00107098 -2.39149e-05 2.85661e-08
-2.39149e-05 6.56625e-05 1.62224e-08
2.85661e-08 1.62224e-08 -6.91174e-06
0.00103416 -1.13898e-05 -5.54495e-07
-1.13898e-05 3.94122e-05 1.33463e-06
-5.54495e-07 1.33463e-06 -1.75703e-05
0.00106762 -1.92192e-05 4.12275e-07
-1.92192e-05 6.45164e-05 -9.18602e-07
4.12275e-07 -9.18602e-07 -6.10376e-06
0.00103515 -1.00828e-05 9.85159e-08
-1.00828e-05 4.0607e-05 -2.96506e-08
9.85159e-08 -2.96506e-08 -1.45278e-05
0.000992386 1.19838e-07 -7.53115e-07
1.19838e-07 8.40302e-06 1.98597e-06
-7.53115e-07 1.98597e-06 -2.54761e-05
0.000839197 -6.01407e-06 2.98302e-07
-6.01407e-06 -5.59888e-05 -1.22992e-06
2.98302e-07 -1.22992e-06 -0.000110974
0.000996446 -3.1815e-07 1.76246e-08
-3.1815e-07 9.81386e-06 -1.28598e-08
1.76246e-08 -1.28598e-08 -2.3162e-05
0.00159012 6.29477e-06 -2.94809e-06
6.29477e-06 0.000293282 4.57916e-06
-2.94809e-06 4.57916e-06 0.00029339
0.000994617 -3.77381e-06 5.37549e-07
-3.77381e-06 8.91555e-06 -1.8835e-06
5.37549e-07 -1.8835e-06 -2.35182e-05
0.00126583 4.11778e-06 -8.90114e-07
4.11778e-06 0.000130037 6.42965e-07
-8.90114e-07 6.42965e-07 0.000129084
0.0011018 4.39418e-06 -7.04028e-07
4.39418e-06 4.45785e-05 1.64144e-06
-7.04028e-07 1.64144e-06 6.12792e-05
0.000945094 1.77139e-06 4.09798e-07
1.77139e-06 -3.09512e-05 -3.30096e-06
4.09798e-07 -3.30096e-06 -3.30243e-05
0.00239742 2.31128e-06 6.89935e-07
2.31128e-06 0.000687835 5.0564e-09
6.89935e-07 5.0564e-09 0.000710693
0.00238496 -5.49267e-07 8.89247e-07
-5.49267e-07 0.000681538 -4.22888e-06
8.89247e-07 -4.22888e-06 0.000704498
0.00128744 1.01145e-05 -4.57878e-07
1.01145e-05 0.000157645 -9.87554e-07
-4.57878e-07 -9.87554e-07 0.00011484
0.00100515 -9.23618e-07 -2.3965e-07
-9.23618e-07 6.4379e-06 -1.90507e-06
-2.3965e-07 -1.90507e-06 -1.91969e-05
0.00103513 4.62741e-06 1.41143e-07
4.62741e-06 3.34671e-05 4.52613e-07
1.41143e-07 4.52613e-07 -9.83745e-06
0.000943677 1.50455e-07 -6.16426e-08
1.50455e-07 -3.29209e-05 -3.28002e-06
-6.16426e-08 -3.28002e-06 -3.07056e-05
0.00100813 2.04604e-07 -3.56727e-08
2.04604e-07 7.75751e-06 -3.71864e-09
-3.56727e-08 -3.71864e-09 -1.75406e-05
0.00100639 1.9227e-06 -2.40791e-07
1.9227e-06 7.43229e-06 1.91759e-06
-2.40791e-07 1.91759e-06 -1.8097e-05
0.000943583 2.50852e-06 -6.1823e-08
2.50852e-06 -3.2501e-05 7.18576e-11
-6.1823e-08 7.18576e-11 -3.0447e-05
0.00225503 2.95762e-06 1.47028e-06
2.95762e-06 0.000616959 -4.03606e-06
1.47028e-06 -4.03606e-06 0.000641456
0.00149815 5.58456e-06 -8.37701e-07
5.58456e-06 0.000244975 1.99491e-06
-8.37701e-07 1.99491e-06 0.000249127
0.00169592 5.50767e-06 8.73858e-07
5.50767e-06 0.000340323 2.86691e-08
8.73858e-07 2.86691e-08 0.000361637
0.00118105 7.15245e-06 -5.83321e-06
7.15245e-06 8.68145e-05 6.4668e-06
-5.83321e-06 6.4668e-06 0.000104435
-0.00337102 2.24715e-05 -4.09028e-05
2.24715e-05 -0.00184203 1.03053e-05
-4.09028e-05 1.03053e-05 -0.00187074
-0.00098137 2.62186e-05 -2.60724e-06
2.62186e-05 -0.000959475 1.61131e-06
-2.60724e-06 1.61131e-06 -0.000928031
0.000560403 -5.98093e-05 -4.27816e-05
-5.98093e-05 3.88858e-06 -1.22475e-05
-4.27816e-05 -1.22475e-05 -0.000130903
0.000873456 -1.13337e-05 -1.0407e-07
-1.13337e-05 -2.46799e-05 7.79074e-08
-1.0407e-07 7.79074e-08 -2.75069e-05
0.00119929 3.2194e-05 -8.27533e-06
3.2194e-05 -6.4164e-05 -2.3671e-06
-8.27533e-06 -2.3671e-06 -0.000130943
0.000526525 -2.13064e-05 1.7071e-05
-2.13064e-05 8.17987e-05 -2.87504e-08
1.7071e-05 -2.87504e-08 2.00226e-06
0.00137076 4.95484e-05 2.07223e-06
4.95484e-05 0.000146889 2.07248e-06
2.07223e-06 2.07248e-06 9.31133e-05
0.00360504 3.19962e-05 -1.87581e-05
3.19962e-05 0.000909429 -2.46131e-07
-1.87581e-05 -2.46131e-07 0.000443585
-0.00143731 6.28969e-05 1.09871e-05
6.28969e-05 -0.000751712 -3.98411e-06
1.09871e-05 -3.98411e-06 -0.000767513
0.000344781 6.29702e-05 -1.09756e-06
6.29702e-05 -0.000365658 2.10458e-06
-1.09756e-06 2.10458e-06 -0.000163516
0.000892519 3.93093e-05 1.99328e-05
3.93093e-05 0.000281578 -1.16498e-05
1.99328e-05 -1.16498e-05 0.000139975
0.0045454 0.000114061 -2.10782e-05
0.000114061 0.00129482 1.76011e-05
-2.10782e-05 1.76011e-05 0.00080678
0.000364635 0.000121696 -4.29361e-05
0.000121696 -7.48064e-05 3.61312e-05
-4.29361e-05 3.61312e-05 2.78861e-05
0.00133562 3.66254e-05 3.23838e-06
3.66254e-05 0.000204429 -4.05927e-06
3.23838e-06 -4.05927e-06 0.000379308
0.000977797 1.46838e-05 -2.78401e-07
1.46838e-05 2.15112e-05 -1.1194e-06
-2.78401e-07 -1.1194e-06 -4.80994e-05
0.000958218 7.63622e-06 -2.05241e-08
7.63622e-06 3.56758e-06 -3.82329e-07
-2.05241e-08 -3.82329e-07 -5.32755e-05
0.00103853 -6.42548e-06 -1.77278e-07
-6.42548e-06 3.57397e-05 1.16697e-06
-1.77278e-07 1.16697e-06 -7.4043e-06
0.00090033 1.78707e-05 -1.5569e-07
1.78707e-05 -2.20262e-05 8.49121e-07
-1.5569e-07 8.49121e-07 -8.01626e-05
0.00109991 3.16449e-05 4.50636e-07
3.16449e-05 8.10039e-05 9.07325e-07
4.50636e-07 9.07325e-07 1.45159e-05
0.00114144 1.79474e-05 -1.08292e-07
1.79474e-05 9.79448e-05 -6.59894e-07
-1.08292e-07 -6.59894e-07 3.0552e-05
0.0010809 1.28362e-05 4.10725e-07
1.28362e-05 6.63195e-05 8.94947e-07
4.10725e-07 8.94947e-07 2.70734e-06
0.0010801 4.33343e-06 1.762e-07
4.33343e-06 6.52269e-05 -5.53938e-07
1.762e-07 -5.53938e-07 4.23719e-06
0.00101703 -4.24914e-07 1.57043e-08
-4.24914e-07 3.29779e-05 -4.89372e-07
1.57043e-08 -4.89372e-07 -2.49087e-05
0.000937633 -7.85338e-06 -9.4335e-09
-7.85338e-06 -6.8537e-06 1.34622e-06
-9.4335e-09 1.34622e-06 -6.34893e-05
0.0024368 3.91273e-05 -1.3811e-06
3.91273e-05 0.000433205 2.74842e-06
-1.3811e-06 2.74842e-06 0.000385301
0.00105139 -5.43647e-05 -1.10965e-05
-5.43647e-05 -0.000247326 3.0716e-07
-1.10965e-05 3.0716e-07 -0.000250967
0.000165009 -5.34537e-05 -3.19256e-06
-5.34537e-05 -0.000470285 2.32579e-06
-3.19256e-06 2.32579e-06 -0.000558187
0.00117714 -5.89277e-05 -1.40434e-06
-5.89277e-05 0.00012104 2.47052e-06
-1.40434e-06 2.47052e-06 9.34404e-06
0.00113418 -3.23898e-05 1.62327e-07
-3.23898e-05 0.000128068 8.13961e-07
1.62327e-07 8.13961e-07 8.50778e-06
0.001136 -3.22044e-05 -1.33143e-08
-3.22044e-05 0.000102741 4.3067e-07
-1.33143e-08 4.3067e-07 7.36039e-06
0.00115182 -2.53146e-05 -2.65318e-08
-2.53146e-05 0.00010826 3.90682e-07
-2.65318e-08 3.90682e-07 3.04114e-05
0.00107247 1.39448e-05 3.44736e-07
1.39448e-05 6.84004e-05 1.06689e-06
3.44736e-07 1.06689e-06 -5.49863e-06
0.00200404 -2.36148e-05 -3.25432e-06
-2.36148e-05 1.4261e-05 4.1737e-07
-3.25432e-06 4.1737e-07 4.61186e-05
0.000995746 -8.9693e-06 -3.83323e-08
-8.9693e-06 3.44655e-05 -1.55572e-07
-3.83323e-08 -1.55572e-07 -4.73264e-05
0.00105528 -2.16257e-05 1.88907e-07
-2.16257e-05 6.2396e-05 -4.61732e-07
1.88907e-07 -4.61732e-07 -2.77365e-05
0.00161046 -9.40803e-05 2.54621e-06
-9.40803e-05 0.000148866 7.49724e-07
2.54621e-06 7.49724e-07 6.77037e-05
0.000716684 -6.61543e-05 -6.83694e-07
-6.61543e-05 -0.000127705 3.80121e-07
-6.83694e-07 3.80121e-07 -0.000237651
0.00126424 -4.53699e-05 7.16902e-07
-4.53699e-05 0.000192206 2.07365e-08
7.16902e-07 2.07365e-08 5.46392e-05
0.00124039 -2.10538e-05 -1.07958e-07
-2.10538e-05 0.000169105 -3.96481e-07
-1.07958e-07 -3.96481e-07 5.41e-05
0.00217157 -7.99828e-05 -1.15107e-06
-7.99828e-05 -1.05313e-05 4.76093e-06
-1.15107e-06 4.76093e-06 9.23658e-05
0.00134047 -9.11078e-05 2.09087e-06
-9.11078e-05 0.000242335 -4.84224e-06
2.09087e-06 -4.84224e-06 8.09001e-05
0.00108452 -9.02366e-06 -8.53789e-07
-9.02366e-06 0.000118848 -3.50764e-07
-8.53789e-07 -3.50764e-07 -2.84248e-05
0.00103102 1.77204e-05 -3.20209e-08
1.77204e-05 4.80551e-05 -1.1049e-07
-3.20209e-08 -1.1049e-07 -3.34382e-05
0.00112444 -2.29089e-05 -2.26359e-07
-2.29089e-05 9.47204e-05 -1.01079e-06
-2.26359e-07 -1.01079e-06 5.85727e-06
0.00118471 -3.48882e-06 -4.73028e-07
-3.48882e-06 0.00012307 -6.37529e-07
-4.73028e-07 -6.37529e-07 2.41461e-05
0.00089309 -1.86377e-06 1.2264e-05
-1.86377e-06 0.000173048 2.74812e-07
1.2264e-05 2.74812e-07 0.000157513
0.001456 4.04709e-06 2.67706e-06
4.04709e-06 0.000387529 -2.57156e-06
2.67706e-06 -2.57156e-06 0.000272143
0.000709269 6.83285e-05 -6.33664e-05
6.83285e-05 -0.000499413 6.95916e-06
-6.33664e-05 6.95916e-06 -0.000896545
0.00116642 3.75894e-05 -4.06986e-07
3.75894e-05 0.000108666 -4.57246e-07
-4.06986e-07 -4.57246e-07 1.47061e-05
0.00144495 3.66023e-05 1.85937e-06
3.66023e-05 0.000263412 -1.4883e-07
1.85937e-06 -1.4883e-07 0.000164208
0.00153482 0.00010146 -2.3449e-06
0.00010146 9.03032e-05 -2.73683e-06
-2.3449e-06 -2.73683e-06 -4.20634e-06
0.00117539 5.19829e-05 3.07467e-06
5.19829e-05 0.000209664 -2.57054e-06
3.07467e-06 -2.57054e-06 5.40114e-05
0.00311184 -6.60873e-05 2.45728e-05
-6.60873e-05 0.0011853 4.73775e-06
2.45728e-05 4.73775e-06 0.00109722
0.000739767 -0.000116456 5.68684e-05
-0.000116456 -0.000311032 3.3226e-05
5.68684e-05 3.3226e-05 -0.000664084
0.0017372 -1.61188e-05 -6.74461e-05
-1.61188e-05 0.000256374 -6.09952e-05
-6.74461e-05 -6.09952e-05 -3.18677e-05
0.00187735 1.56452e-05 6.29694e-06
1.56452e-05 0.000145041 -4.22543e-06
6.29694e-06 -4.22543e-06 6.08061e-05
-0.00188823 -0.000133902 4.57605e-05
-0.000133902 -0.0013902 2.89472e-05
4.57605e-05 2.89472e-05 -0.00128587
0.00302927 -3.81367e-05 -2.1961e-06
-3.81367e-05 0.00140684 -2.9867e-06
-2.1961e-06 -2.9867e-06 0.00148552
0.00150756 -5.51774e-05 -9.92607e-06
-5.51774e-05 0.000301741 -1.37714e-05
-9.92607e-06 -1.37714e-05 0.000486989
0.00123789 2.96048e-05 -9.78512e-08
2.96048e-05 0.000125561 5.38079e-07
-9.78512e-08 5.38079e-07 2.82036e-05
0.000715709 -1.31936e-05 4.51942e-06
-1.31936e-05 9.88135e-05 1.17175e-06
4.51942e-06 1.17175e-06 9.59892e-05
0.000521025 -5.67043e-06 1.57865e-06
-5.67043e-06 -5.62505e-05 3.45903e-06
1.57865e-06 3.45903e-06 -0.00010032
0.00116638 4.94582e-05 2.68648e-06
4.94582e-05 0.000146624 3.8788e-06
2.68648e-06 3.8788e-06 -5.30732e-05
0.00104665 1.77175e-05 1.88395e-07
1.77175e-05 0.000131925 -8.26252e-07
1.88395e-07 -8.26252e-07 1.79822e-06
0.00222157 -2.23675e-05 5.32105e-06
-2.23675e-05 0.00049072 1.26365e-05
5.32105e-06 1.26365e-05 0.000348099
0.00201386 0.00010464 -1.63799e-05
0.00010464 0.00053393 -3.39627e-05
-1.63799e-05 -3.39627e-05 0.000144559
0.00492011 -0.000174378 1.01005e-05
-0.000174378 0.00115565 4.97739e-06
1.01005e-05 4.97739e-06 0.000627119
-0.000233994 -0.000161501 8.00223e-06
-0.000161501 -0.00050704 1.58992e-05
8.00223e-06 1.58992e-05 -0.000517063
0.00116364 -2.07581e-05 -1.3376e-06
-2.07581e-05 0.00015572 -1.0972e-06
-1.3376e-06 -1.0972e-06 0.000210288
0.00107516 3.11189e-05 4.35276e-07
3.11189e-05 6.33217e-05 -1.46392e-06
4.35276e-07 -1.46392e-06 -2.62013e-05
0.0019408 -1.85788e-06 1.08919e-05
-1.85788e-06 0.000850789 3.96359e-06
1.08919e-05 3.96359e-06 0.000783269
0.00096867 5.42858e-06 2.52654e-06
5.42858e-06 0.000120849 5.05116e-06
2.52654e-06 5.05116e-06 8.01329e-05
0.000504299 -9.52805e-06 2.66399e-06
-9.52805e-06 -5.72728e-05 8.25953e-06
2.66399e-06 8.25953e-06 -0.000185525
0.000716843 8.03258e-05 3.58442e-06
8.03258e-05 0.000391712 2.72234e-05
3.58442e-06 2.72234e-05 0.000287884
0.00571459 -0.000121135 -2.80876e-05
-0.000121135 0.0013808 -1.82365e-05
-2.80876e-05 -1.82365e-05 0.000768053
-0.0012214 -0.000116598 -1.68163e-05
-0.000116598 -0.00161569 -4.36922e-05
-1.68163e-05 -4.36922e-05 -0.00133877
0.00147051 -1.07589e-05 -1.21583e-06
-1.07589e-05 0.000357849 5.74366e-07
-1.21583e-06 5.74366e-07 0.000361541
0.00107316 3.31632e-05 -6.19528e-07
3.31632e-05 4.53075e-05 -7.80194e-07
-6.19528e-07 -7.80194e-07 -5.5627e-05
0.00119121 3.45229e-05 8.04504e-08
3.45229e-05 0.000123773 2.12941e-07
8.04504e-08 2.12941e-07 1.76416e-05
0.00165271 3.51991e-05 4.12326e-07
3.51991e-05 0.000356353 -5.11981e-07
4.12326e-07 -5.11981e-07 0.000244191
0.00109448 1.63112e-05 -5.31188e-08
1.63112e-05 7.65756e-05 -1.3918e-06
-5.31188e-08 -1.3918e-06 7.95525e-06
0.00112554 6.72496e-06 -7.13046e-08
6.72496e-06 9.30673e-05 -3.6372e-07
-7.13046e-08 -3.6372e-07 1.0403e-05
0.00105091 2.45687e-05 1.04039e-07
2.45687e-05 5.70042e-05 -5.8898e-07
1.04039e-07 -5.8898e-07 -3.19832e-05
0.00100575 2.72823e-05 -1.95189e-07
2.72823e-05 4.97206e-05 -3.32478e-07
-1.95189e-07 -3.32478e-07 -5.86118e-05
0.00112423 1.06635e-05 7.48091e-08
1.06635e-05 9.19559e-05 2.75798e-08
7.48091e-08 2.75798e-08 1.10978e-05
0.0011955 2.03387e-05 3.11516e-08
2.03387e-05 0.000134973 3.81807e-07
3.11516e-08 3.81807e-07 3.85589e-05
0.00107917 1.59069e-05 1.56036e-07
1.59069e-05 9.40316e-05 -4.18572e-07
1.56036e-07 -4.18572e-07 -2.29934e-05
0.00119382 6.19704e-06 4.07305e-09
6.19704e-06 0.000152795 3.14847e-07
4.07305e-09 3.14847e-07 3.65878e-05
0.00109917 -3.88344e-06 -2.85821e-07
-3.88344e-06 8.97303e-05 1.07999e-06
-2.85821e-07 1.07999e-06 -1.97072e-05
0.00126408 1.7322e-05 2.16066e-07
1.7322e-05 0.000159521 5.77714e-07
2.16066e-07 5.77714e-07 6.86168e-05
0.00111434 -4.50161e-06 2.84219e-07
-4.50161e-06 8.63718e-05 -8.44603e-07
2.84219e-07 -8.44603e-07 6.79806e-06
0.00110329 -1.98229e-05 1.70752e-07
-1.98229e-05 8.48151e-05 -8.61245e-07
1.70752e-07 -8.61245e-07 2.82659e-06
0.00106165 -2.70305e-05 6.93414e-07
-2.70305e-05 5.74075e-05 -1.7598e-06
6.93414e-07 -1.7598e-06 -3.01537e-05
0.0011993 -5.98656e-06 -1.52348e-07
-5.98656e-06 0.000125592 -5.0388e-07
-1.52348e-07 -5.0388e-07 3.71608e-05
0.00108598 -2.40735e-05 -3.63845e-08
-2.40735e-05 7.79636e-05 2.52355e-07
-3.63845e-08 2.52355e-07 -6.26126e-06
0.00102732 -2.73958e-05 1.07788e-07
-2.73958e-05 4.60283e-05 -1.6713e-07
1.07788e-07 -1.6713e-07 -4.54283e-05
0.0010951 -3.23993e-05 -1.09769e-06
-3.23993e-05 8.12601e-05 -1.11846e-07
-1.09769e-06 -1.11846e-07 -1.14494e-05
0.00110298 -3.28852e-05 -1.44471e-07
-3.28852e-05 8.18644e-05 4.16152e-07
-1.44471e-07 4.16152e-07 -1.41045e-05
0.00112819 -3.78331e-05 1.26305e-07
-3.78331e-05 9.25658e-05 -1.29592e-07
1.26305e-07 -1.29592e-07 2.16066e-06
0.00115548 -3.5505e-05 -4.51499e-07
-3.5505e-05 0.000103371 -1.28547e-07
-4.51499e-07 -1.28547e-07 1.71738e-05
0.000928598 -3.51855e-05 -2.15322e-07
-3.51855e-05 -2.38746e-06 5.41701e-07
-2.15322e-07 5.41701e-07 -8.55034e-05
0.00112556 -3.96838e-05 -1.03716e-06
-3.96838e-05 8.00805e-05 1.34326e-06
-1.03716e-06 1.34326e-06 1.27044e-06
0.00120318 -3.59373e-05 -2.12106e-07
-3.59373e-05 0.000123369 -6.57039e-07
-2.12106e-07 -6.57039e-07 5.16252e-05
0.000957333 -3.50838e-05 4.96159e-07
-3.50838e-05 1.38936e-05 -8.37272e-07
4.96159e-07 -8.37272e-07 -6.23671e-05
0.0010883 -3.45232e-05 4.08136e-07
-3.45232e-05 6.97936e-05 -2.12841e-07
4.08136e-07 -2.12841e-07 -9.35891e-06
0.000964918 -2.71844e-05 -1.05818e-06
-2.71844e-05 7.02456e-06 4.88376e-07
-1.05818e-06 4.88376e-07 -6.4688e-05
0.00111213 -3.23829e-05 2.09736e-07
-3.23829e-05 8.44546e-05 4.58588e-08
2.09736e-07 4.58588e-08 1.2928e-06
0.00107568 -2.77184e-05 -2.57663e-07
-2.77184e-05 6.50759e-05 4.09532e-07
-2.57663e-07 4.09532e-07 -7.87339e-06
0.00104744 -1.34551e-05 -8.3536e-07
-1.34551e-05 4.4343e-05 1.35337e-06
-8.3536e-07 1.35337e-06 -1.38644e-05
0.00107678 -2.51716e-05 4.97218e-07
-2.51716e-05 6.8406e-05 -9.03055e-07
4.97218e-07 -9.03055e-07 -4.17211e-06
0.00104035 -1.21201e-05 7.98552e-08
-1.21201e-05 4.23254e-05 -1.74431e-08
7.98552e-08 -1.74431e-08 -1.46601e-05
0.000990763 -1.25899e-06 -1.04444e-06
-1.25899e-06 8.56534e-06 2.06229e-06
-1.04444e-06 2.06229e-06 -2.66312e-05
0.00104009 -9.17975e-06 4.85858e-07
-9.17975e-06 4.30648e-05 -1.28775e-06
4.85858e-07 -1.28775e-06 -1.20813e-05
0.000995222 -1.29344e-06 5.28553e-08
-1.29344e-06 9.80746e-06 -1.83807e-08
5.28553e-08 -1.83807e-08 -2.41368e-05
0.00159307 8.38956e-06 -3.95363e-06
8.38956e-06 0.000297182 4.58582e-06
-3.95363e-06 4.58582e-06 0.000296651
0.000997356 -2.79829e-06 7.36497e-07
-2.79829e-06 1.01616e-05 -1.96124e-06
7.36497e-07 -1.96124e-06 -2.28374e-05
0.0012646 6.18891e-06 -1.20127e-06
6.18891e-06 0.000131385 6.37117e-07
-1.20127e-06 6.37117e-07 0.000129957
0.00109953 6.84303e-06 -1.11489e-06
6.84303e-06 4.62525e-05 1.63354e-06
-1.11489e-06 1.63354e-06 6.24338e-05
0.000941324 3.83333e-06 7.75079e-07
3.83333e-06 -3.16566e-05 -3.3144e-06
7.75079e-07 -3.3144e-06 -3.40538e-05
0.00176125 5.09295e-06 1.86514e-06
5.09295e-06 0.000372432 -1.27578e-06
1.86514e-06 -1.27578e-06 0.000392082
0.00239657 2.54324e-06 2.69848e-06
2.54324e-06 0.000687687 -4.22046e-06
2.69848e-06 -4.22046e-06 0.000710498
0.00110746 -2.11032e-06 -1.2657e-07
-2.11032e-06 6.95828e-05 -1.12053e-06
-1.2657e-07 -1.12053e-06 2.34185e-05
0.001006 -2.36851e-06 -4.40298e-07
-2.36851e-06 7.63022e-06 -1.88839e-06
-4.40298e-07 -1.88839e-06 -1.86912e-05
0.00107671 3.26617e-06 8.63559e-08
3.26617e-06 5.38376e-05 9.61375e-08
8.63559e-08 9.61375e-08 9.74172e-06
0.000946594 -1.98586e-06 -4.48417e-07
-1.98586e-06 -3.10368e-05 -3.27246e-06
-4.48417e-07 -3.27246e-06 -2.91892e-05
0.0010063 -1.06472e-06 -6.0999e-08
-1.06472e-06 7.1175e-06 7.38463e-09
-6.0999e-08 7.38463e-09 -1.85264e-05
0.00102977 4.53173e-06 1.07806e-07
4.53173e-06 3.07855e-05 1.63175e-06
1.07806e-07 1.63175e-06 -1.24786e-05
0.00225674 8.17539e-08 -5.79832e-07
8.17539e-08 0.000617429 -4.06483e-06
-5.79832e-07 -4.06483e-06 0.000641971
0.000943195 2.01565e-07 -1.00265e-07
2.01565e-07 -3.31813e-05 -8.53756e-09
-1.00265e-07 -8.53756e-09 -3.09571e-05
0.0010097 5.1074e-08 -8.46514e-08
5.1074e-08 8.53469e-06 1.91467e-06
-8.46514e-08 1.91467e-06 -1.67795e-05
0.000948783 2.55788e-06 -4.05715e-07
2.55788e-06 -2.99396e-05 3.24783e-06
-4.05715e-07 3.24783e-06 -2.79148e-05
0.00225348 3.05036e-06 -6.76575e-07
3.05036e-06 0.00061633 -6.07677e-09
-6.76575e-07 -6.07677e-09 0.000640794
0.00226669 5.83587e-06 -4.3902e-06
5.83587e-06 0.000624361 4.01324e-06
-4.3902e-06 4.01324e-06 0.000648425
-0.00109495 5.54899e-06 8.97485e-06
5.54899e-06 -0.000955095 -6.11465e-07
8.97485e-06 -6.11465e-07 -0.00097586
-0.000321093 3.07667e-05 2.03748e-05
3.07667e-05 -0.000250041 -4.39519e-06
2.03748e-05 -4.39519e-06 -0.000329278
0.000940056 -3.01021e-06 1.57354e-05
-3.01021e-06 0.000212759 -3.99774e-06
1.57354e-05 -3.99774e-06 0.000173497
-0.00124166 3.02856e-05 -8.2484e-06
3.02856e-05 -0.00113022 1.44436e-06
-8.2484e-06 1.44436e-06 -0.00108107
0.00144749 9.25128e-06 -5.51175e-05
9.25128e-06 0.000249795 -3.37106e-06
-5.51175e-05 -3.37106e-06 0.000101008
0.00123639 5.01243e-05 2.73633e-06
5.01243e-05 5.39371e-05 -1.97551e-06
2.73633e-06 -1.97551e-06 -3.49036e-06
0.000848817 -3.77102e-05 -2.05274e-05
-3.77102e-05 -0.000129481 -2.07129e-07
-2.05274e-05 -2.07129e-07 -0.000499703
0.00274248 6.64229e-05 7.6269e-05
6.64229e-05 0.00121363 -2.57912e-05
7.6269e-05 -2.57912e-05 0.00111819
8.86565e-05 6.68969e-05 -7.07484e-07
6.68969e-05 -0.000486276 -3.29956e-06
-7.07484e-07 -3.29956e-06 -0.000296378
0.00104606 3.577e-05 -4.08104e-06
3.577e-05 0.000178335 2.97847e-06
-4.08104e-06 2.97847e-06 2.08225e-05
0.0023685 2.42329e-05 8.17347e-06
2.42329e-05 0.000290901 -6.09924e-06
8.17347e-06 -6.09924e-06 -0.000351538
0.00234979 0.000173107 2.88922e-06
0.000173107 0.000641055 3.99526e-06
2.88922e-06 3.99526e-06 0.000618724
0.000940818 2.81074e-05 -7.78678e-07
2.81074e-05 -1.14349e-05 3.69551e-07
-7.78678e-07 3.69551e-07 0.000167578
0.000678837 2.84194e-05 7.60241e-06
2.84194e-05 0.000257776 4.59485e-07
7.60241e-06 4.59485e-07 6.45843e-06
0.00292888 0.000103785 4.48116e-05
0.000103785 0.000385107 -1.83919e-05
4.48116e-05 -1.83919e-05 -0.000295728
-0.00132718 0.000146989 -3.10243e-05
0.000146989 -0.0011926 4.54634e-05
-3.10243e-05 4.54634e-05 -0.00115176
8.48883e-05 -4.70902e-06 4.8317e-06
-4.70902e-06 -0.000451853 9.3404e-08
4.8317e-06 9.3404e-08 -0.000418101
0.00112619 -2.14872e-06 2.99885e-07
-2.14872e-06 9.29736e-05 -8.70353e-07
2.99885e-07 -8.70353e-07 1.76258e-05
0.00107768 1.91577e-05 -4.2923e-07
1.91577e-05 6.98551e-05 -2.19965e-07
-4.2923e-07 -2.19965e-07 1.17416e-06
0.00106581 1.16286e-05 1.34648e-07
1.16286e-05 5.61731e-05 4.83176e-07
1.34648e-07 4.83176e-07 -1.67949e-07
0.00104113 3.07262e-05 6.1552e-07
3.07262e-05 5.21999e-05 1.55365e-06
6.1552e-07 1.55365e-06 -1.3278e-05
0.00104889 7.66132e-06 -1.81594e-07
7.66132e-06 5.14624e-05 -5.15642e-07
-1.81594e-07 -5.15642e-07 -2.10194e-05
0.00117219 1.51166e-05 9.78693e-08
1.51166e-05 0.000112423 4.42443e-07
9.78693e-08 4.42443e-07 4.57489e-05
0.00103061 1.50164e-06 -1.49267e-07
1.50164e-06 4.1311e-05 1.8608e-06
-1.49267e-07 1.8608e-06 -2.17368e-05
0.00120183 1.94116e-05 -3.10783e-07
1.94116e-05 0.000126397 -8.49906e-07
-3.10783e-07 -8.49906e-07 6.29476e-05
0.00115796 1.06093e-05 3.99021e-08
1.06093e-05 0.000103786 4.56184e-07
3.99021e-08 4.56184e-07 4.33483e-05
0.000948499 -4.31896e-06 -2.18722e-07
-4.31896e-06 -9.68049e-07 5.38168e-07
-2.18722e-07 5.38168e-07 -5.95808e-05
0.00235895 -3.1834e-05 -6.35511e-06
-3.1834e-05 0.000198779 1.49044e-07
-6.35511e-06 1.49044e-07 0.000199442
0.000882351 -8.14786e-05 -6.9915e-06
-8.14786e-05 -0.000214718 4.25776e-06
-6.9915e-06 4.25776e-06 -0.000280291
0.00116192 -7.16238e-05 -1.24727e-06
-7.16238e-05 8.5174e-05 3.34897e-06
-1.24727e-06 3.34897e-06 -2.74318e-05
0.00109457 -4.25917e-05 -5.31154e-08
-4.25917e-05 0.000102838 1.17473e-06
-5.31154e-08 1.17473e-06 -3.22111e-05
0.00120939 -1.87293e-05 2.75355e-07
-1.87293e-05 0.000155239 3.07378e-07
2.75355e-07 3.07378e-07 3.61967e-05
0.000996867 -2.56929e-05 2.53402e-07
-2.56929e-05 3.30632e-05 1.14202e-08
2.53402e-07 1.14202e-08 -5.81297e-05
0.000989852 5.59218e-06 1.10316e-07
5.59218e-06 3.18575e-05 6.66201e-07
1.10316e-07 6.66201e-07 -5.01308e-05
0.00106089 -3.79703e-06 2.74531e-08
-3.79703e-06 6.32101e-05 6.794e-07
2.74531e-08 6.794e-07 -1.80601e-05
0.00198936 -8.52122e-05 8.10246e-07
-8.52122e-05 -5.59826e-05 1.94098e-07
8.10246e-07 1.94098e-07 1.3918e-05
0.0011362 -8.43485e-06 1.4302e-07
-8.43485e-06 0.000101937 -2.35987e-07
1.4302e-07 -2.35987e-07 1.36501e-05
0.00127232 -8.24589e-06 -1.22517e-07
-8.24589e-06 0.00016812 1.44658e-07
-1.22517e-07 1.44658e-07 6.72181e-05
0.00144033 -8.97832e-05 5.95142e-07
-8.97832e-05 0.000289571 -9.70898e-07
5.95142e-07 -9.70898e-07 0.00012651
0.00119503 -1.1063e-05 -2.34107e-07
-1.1063e-05 0.000166431 1.07872e-07
-2.34107e-07 1.07872e-07 2.12238e-05
0.00188221 -0.000113697 -9.54609e-06
-0.000113697 3.98839e-05 9.02707e-07
-9.54609e-06 9.02707e-07 4.60843e-05
0.00121345 -2.23367e-05 1.34601e-07
-2.23367e-05 0.000288596 -4.2316e-06
1.34601e-07 -4.2316e-06 6.72184e-05
0.00114138 2.50155e-06 -1.2509e-06
2.50155e-06 0.000103449 2.18514e-07
-1.2509e-06 2.18514e-07 -9.4508e-06
0.0010884 1.87584e-05 -2.49372e-07
1.87584e-05 7.28785e-05 -4.39514e-07
-2.49372e-07 -4.39514e-07 -1.39369e-05
0.00114599 1.3231e-05 -3.59908e-07
1.3231e-05 9.51165e-05 -1.64415e-06
-3.59908e-07 -1.64415e-06 8.07641e-07
0.0020371 -3.31042e-06 3.46645e-06
-3.31042e-06 0.000943241 8.37079e-07
3.46645e-06 8.37079e-07 0.00086587
-0.000165634 -1.81893e-06 7.75344e-06
-1.81893e-06 -0.000427458 -1.08243e-07
7.75344e-06 -1.08243e-07 -0.000451003
-0.00314604 -8.54629e-07 6.941e-05
-8.54629e-07 -0.00180118 6.16124e-08
6.941e-05 6.16124e-08 -0.00180673
0.00149455 3.49903e-05 1.17736e-07
3.49903e-05 0.000256728 1.475e-06
1.17736e-07 1.475e-06 0.000157728
0.000514514 1.3242e-05 1.97051e-06
1.3242e-05 -0.000117368 -1.01023e-06
1.97051e-06 -1.01023e-06 -0.000249798
0.00132543 5.89242e-05 7.74705e-07
5.89242e-05 0.000223893 -9.14999e-06
7.74705e-07 -9.14999e-06 2.7007e-05
-0.00061817 -9.44699e-06 -1.62235e-06
-9.44699e-06 -0.000673006 -1.09879e-06
-1.62235e-06 -1.09879e-06 -0.000695213
0.00227912 -0.000148251 6.92771e-06
-0.000148251 5.98077e-06 1.34274e-05
6.92771e-06 1.34274e-05 -0.000639348
0.000298353 6.99758e-05 5.4925e-06
6.99758e-05 5.16523e-05 -3.33536e-05
5.4925e-06 -3.33536e-05 -0.000167756
0.00303899 -1.68826e-05 6.69309e-05
-1.68826e-05 0.000681237 1.14812e-05
6.69309e-05 1.14812e-05 0.000434556
0.00351133 -0.000223311 4.3854e-05
-0.000223311 0.0010794 5.26246e-05
4.3854e-05 5.26246e-05 0.00103969
0.00059774 -3.857e-06 -1.17392e-05
-3.857e-06 -4.05581e-06 -6.69465e-06
-1.17392e-05 -6.69465e-06 -4.84091e-05
0.00083459 -1.61955e-05 -4.65094e-06
-1.61955e-05 -2.47642e-05 -6.76848e-06
-4.65094e-06 -6.76848e-06 8.22049e-06
0.00102962 3.37649e-05 6.56858e-07
3.37649e-05 3.88075e-05 6.80435e-07
6.56858e-07 6.80435e-07 -4.91738e-05
0.00140823 -1.26765e-06 1.29863e-06
-1.26765e-06 0.000522024 1.24551e-06
1.29863e-06 1.24551e-06 0.000447386
0.000928291 5.17663e-06 7.17562e-07
5.17663e-06 9.06644e-05 -6.96788e-07
7.17562e-07 -6.96788e-07 4.97291e-05
-5.95377e-05 -2.67298e-06 1.08616e-05
-2.67298e-06 -0.000350456 1.90883e-06
1.08616e-05 1.90883e-06 -0.000503188
0.00118254 8.87936e-05 -2.60893e-05
8.87936e-05 0.000435091 -8.17764e-06
-2.60893e-05 -8.17764e-06 0.000233281
0.00475463 -4.18814e-05 1.1107e-05
-4.18814e-05 0.000650617 9.47484e-06
1.1107e-05 9.47484e-06 9.91314e-06
0.000900518 -1.0012e-05 -1.37454e-06
-1.0012e-05 4.9677e-05 2.41795e-06
-1.37454e-06 2.41795e-06 3.9642e-05
0.00104168 -0.000166972 3.02571e-06
-0.000166972 -0.000347689 1.58464e-05
3.02571e-06 1.58464e-05 -0.000280233
0.00113291 1.88648e-05 9.8491e-07
1.88648e-05 8.953e-05 -7.01745e-06
9.8491e-07 -7.01745e-06 1.03709e-05
0.00091772 2.47466e-06 -2.21716e-07
2.47466e-06 0.000130318 2.70983e-06
-2.21716e-07 2.70983e-06 4.65743e-05
0.00168206 -8.22185e-06 2.34283e-06
-8.22185e-06 0.000512364 5.93565e-06
2.34283e-06 5.93565e-06 0.000485674
0.000144222 -1.33089e-05 -5.54071e-06
-1.33089e-05 -0.000425741 5.2887e-06
-5.54071e-06 5.2887e-06 -0.000381471
-0.00105148 4.38074e-05 -7.64565e-06
4.38074e-05 -0.000690744 6.51762e-07
-7.64565e-06 6.51762e-07 -0.000759817
0.00604961 -5.23627e-05 -1.42353e-06
-5.23627e-05 0.00150666 1.45946e-05
-1.42353e-06 1.45946e-05 0.000942868
-0.000298269 -2.76296e-06 3.90317e-06
-2.76296e-06 -0.001284 -6.84212e-05
3.90317e-06 -6.84212e-05 -0.000925386
0.00135664 3.63908e-05 1.76578e-07
3.63908e-05 0.000199848 1.02298e-06
1.76578e-07 1.02298e-06 9.59088e-05
0.00141849 3.15736e-05 -4.03141e-07
3.15736e-05 0.00024245 1.56186e-07
-4.03141e-07 1.56186e-07 0.000130145
0.00105245 2.45602e-05 5.97802e-08
2.45602e-05 0.000103471 4.46142e-07
5.97802e-08 4.46142e-07 -2.56374e-05
0.00111079 1.94458e-05 5.53492e-08
1.94458e-05 8.56618e-05 -6.48988e-07
5.53492e-08 -6.48988e-07 4.78537e-06
0.00119627 2.74212e-05 3.6717e-09
2.74212e-05 0.00013433 -3.91382e-07
3.6717e-09 -3.91382e-07 3.82239e-05
0.00109066 1.50247e-05 -4.81701e-07
1.50247e-05 0.000102688 -2.62112e-07
-4.81701e-07 -2.62112e-07 -1.70514e-05
0.00125671 1.29206e-05 -6.15067e-08
1.29206e-05 0.000155842 -1.58755e-07
-6.15067e-08 -1.58755e-07 6.54326e-05
0.00115464 -4.33464e-06 -2.69244e-08
-4.33464e-06 0.000117782 3.81799e-07
-2.69244e-08 3.81799e-07 7.58809e-06
0.00111998 6.56522e-06 4.2744e-07
6.56522e-06 0.000114906 5.11776e-07
4.2744e-07 5.11776e-07 -3.9761e-06
0.00106567 5.07746e-06 -3.35179e-07
5.07746e-06 0.000100842 2.37876e-07
-3.35179e-07 2.37876e-07 -9.60049e-06
0.00110751 -2.51108e-05 -5.34444e-07
-2.51108e-05 8.20044e-05 7.72739e-07
-5.34444e-07 7.72739e-07 -1.9187e-05
0.0012062 -8.17615e-06 -3.99004e-07
-8.17615e-06 0.00012859 -1.16955e-06
-3.99004e-07 -1.16955e-06 4.04926e-05
0.00111269 -2.06512e-05 1.42375e-07
-2.06512e-05 9.11593e-05 -3.41491e-07
1.42375e-07 -3.41491e-07 7.00936e-06
0.00104873 -2.48526e-05 1.61063e-07
-2.48526e-05 5.5197e-05 -8.70496e-07
1.61063e-07 -8.70496e-07 -3.56091e-05
0.00110625 -3.18529e-05 7.01558e-08
-3.18529e-05 8.22382e-05 4.55446e-08
7.01558e-08 4.55446e-08 -1.34389e-05
0.00105679 -2.98257e-05 -4.5084e-07
-2.98257e-05 6.2005e-05 2.26524e-07
-4.5084e-07 2.26524e-07 -3.08314e-05
0.00111102 -3.5587e-05 -5.47083e-07
-3.5587e-05 9.90133e-05 7.35645e-07
-5.47083e-07 7.35645e-07 8.30541e-07
0.001086 -3.71461e-05 4.88956e-07
-3.71461e-05 7.57491e-05 -4.38498e-07
4.88956e-07 -4.38498e-07 -1.16451e-05
0.00108151 -3.99995e-05 4.55793e-07
-3.99995e-05 7.77943e-05 9.4448e-07
4.55793e-07 9.4448e-07 -1.83708e-05
0.00119708 -3.61748e-05 7.43038e-07
-3.61748e-05 0.000123307 1.05458e-07
7.43038e-07 1.05458e-07 3.68692e-05
0.00113563 -3.83866e-05 8.22876e-08
-3.83866e-05 9.57376e-05 7.20093e-07
8.22876e-08 7.20093e-07 1.25511e-05
0.000960504 -3.9874e-05 -6.64945e-08
-3.9874e-05 -2.67152e-06 1.64999e-06
-6.64945e-08 1.64999e-06 -8.92752e-05
0.00110496 -3.87589e-05 -1.01327e-06
-3.87589e-05 7.18973e-05 5.34323e-07
-1.01327e-06 5.34323e-07 -3.70439e-06
0.00110932 -3.48637e-05 -1.17574e-06
-3.48637e-05 7.80583e-05 3.4116e-07
-1.17574e-06 3.4116e-07 8.07424e-06
0.00103645 -3.81689e-05 -5.01121e-07
-3.81689e-05 3.95114e-05 -3.83173e-09
-5.01121e-07 -3.83173e-09 -3.93304e-05
0.0010989 -2.90833e-05 -8.54323e-07
-2.90833e-05 6.94467e-05 3.23001e-07
-8.54323e-07 3.23001e-07 2.42033e-06
0.00117315 -3.58106e-05 -9.58447e-08
-3.58106e-05 0.000108777 -1.97734e-07
-9.58447e-08 -1.97734e-07 3.66501e-05
0.00102021 -3.59412e-05 3.90007e-07
-3.59412e-05 4.62749e-05 -1.32512e-06
3.90007e-07 -1.32512e-06 -2.78868e-05
0.00118253 -3.58229e-05 1.34213e-06
-3.58229e-05 0.000115055 -3.10402e-07
1.34213e-06 -3.10402e-07 3.64049e-05
0.00101261 -2.80794e-05 5.43508e-08
-2.80794e-05 3.05618e-05 -7.50704e-09
5.43508e-08 -7.50704e-09 -4.07939e-05
0.00105414 -1.56881e-05 -1.23039e-06
-1.56881e-05 4.5528e-05 1.23608e-06
-1.23039e-06 1.23608e-06 -1.24874e-05
0.0010735 -2.66595e-05 6.00949e-07
-2.66595e-05 6.41038e-05 -3.91782e-07
6.00949e-07 -3.91782e-07 -8.73121e-06
0.00104438 -1.34818e-05 1.18258e-07
-1.34818e-05 4.25983e-05 3.39341e-08
1.18258e-07 3.39341e-08 -1.55128e-05
0.00099057 -6.66226e-07 -1.3407e-06
-6.66226e-07 9.36381e-06 2.13686e-06
-1.3407e-06 2.13686e-06 -2.71241e-05
0.00104528 -1.23778e-05 7.07681e-07
-1.23778e-05 4.46391e-05 -1.31018e-06
7.07681e-07 -1.31018e-06 -1.23705e-05
0.000990998 -7.80952e-07 6.74574e-08
-7.80952e-07 8.63364e-06 -1.38747e-08
6.74574e-08 -1.38747e-08 -2.65958e-05
0.00156901 1.03732e-05 -4.30744e-06
1.03732e-05 0.000288371 3.29481e-06
-4.30744e-06 3.29481e-06 0.000287018
0.000995845 -2.09352e-06 9.59919e-07
-2.09352e-06 1.0096e-05 -2.03254e-06
9.59919e-07 -2.03254e-06 -2.38966e-05
0.00126289 8.14863e-06 -1.48176e-06
8.14863e-06 0.000133166 6.29936e-07
-1.48176e-06 6.29936e-07 0.000131033
0.00109559 9.17256e-06 -1.51071e-06
9.17256e-06 4.78394e-05 1.6335e-06
-1.51071e-06 1.6335e-06 6.33164e-05
0.000938616 5.78709e-06 1.14505e-06
5.78709e-06 -3.09711e-05 -3.32885e-06
1.14505e-06 -3.32885e-06 -3.38658e-05
0.00176957 7.83295e-06 2.48845e-06
7.83295e-06 0.000379041 -1.26461e-06
2.48845e-06 -1.26461e-06 0.000398206
0.00240945 5.57585e-06 4.4939e-06
5.57585e-06 0.000695603 -4.20315e-06
4.4939e-06 -4.20315e-06 0.000718087
0.000850124 -1.28441e-06 -2.94407e-07
-1.28441e-06 -5.65367e-05 -1.69936e-06
-2.94407e-07 -1.69936e-06 -0.000107141
0.000742827 -4.09357e-06 -5.97713e-07
-4.09357e-06 -0.000120428 -2.51047e-06
-5.97713e-07 -2.51047e-06 -0.000149626
0.00111641 -8.46766e-07 2.76078e-08
-8.46766e-07 7.37767e-05 1.15065e-07
2.76078e-08 1.15065e-07 2.75697e-05
0.000948861 -4.10853e-06 -8.01295e-07
-4.10853e-06 -2.87506e-05 -3.25656e-06
-8.01295e-07 -3.25656e-06 -2.76382e-05
0.000877531 -2.47913e-06 -8.11411e-09
-2.47913e-06 -5.55101e-05 -5.2041e-10
-8.11411e-09 -5.2041e-10 -8.26645e-05
0.000867208 -3.24527e-06 8.92375e-08
-3.24527e-06 -4.93987e-05 1.28381e-06
8.92375e-08 1.28381e-06 -9.48048e-05
0.00226594 -2.77167e-06 -2.6154e-06
-2.77167e-06 0.000622513 -4.07901e-06
-2.6154e-06 -4.07901e-06 0.000646848
0.000941845 -1.94333e-06 -1.07634e-07
-1.94333e-06 -3.34088e-05 -7.26212e-09
-1.07634e-07 -7.26212e-09 -3.15249e-05
0.00100786 -1.20859e-06 9.40725e-08
-1.20859e-06 8.00793e-06 1.88105e-06
9.40725e-08 1.88105e-06 -1.76476e-05
0.00225461 1.40271e-07 -7.93112e-07
1.40271e-07 0.000616359 5.61078e-10
-7.93112e-07 5.61078e-10 0.000640922
0.000943107 2.51849e-07 -1.33603e-07
2.51849e-07 -3.32416e-05 3.27368e-06
-1.33603e-07 3.27368e-06 -3.10106e-05
0.00225094 3.13956e-06 -2.3507e-06
3.13956e-06 0.000615209 4.03593e-06
-2.3507e-06 4.03593e-06 0.000639645
0.0011361 -7.23184e-06 9.48312e-06
-7.23184e-06 0.000381591 -1.0619e-06
9.48312e-06 -1.0619e-06 0.000312121
0.000877937 9.71316e-06 8.30098e-07
9.71316e-06 0.000166287 8.05256e-07
8.30098e-07 8.05256e-07 0.000161563
0.000727691 -4.04279e-06 9.3523e-05
-4.04279e-06 5.00092e-05 -1.34231e-05
9.3523e-05 -1.34231e-05 -0.000107048
0.00106586 1.65695e-05 -3.75684e-07
1.65695e-05 5.70451e-05 -9.77921e-07
-3.75684e-07 -9.77921e-07 -1.11788e-05
0.000880719 -1.79746e-05 -1.3902e-06
-1.79746e-05 9.26519e-05 -6.19381e-06
-1.3902e-06 -6.19381e-06 5.81923e-05
0.0010286 -3.94911e-06 6.0698e-06
-3.94911e-06 0.000264532 -3.04293e-07
6.0698e-06 -3.04293e-07 0.000228676
0.000728601 3.67743e-05 -1.23489e-05
3.67743e-05 -1.78822e-05 7.5221e-06
-1.23489e-05 7.5221e-06 6.13759e-05
0.000863947 3.33141e-05 -3.84838e-05
3.33141e-05 -9.10025e-05 1.21774e-05
-3.84838e-05 1.21774e-05 -0.000295021
0.00528786 0.00011195 1.85915e-06
0.00011195 0.00180376 -7.83956e-06
1.85915e-06 -7.83956e-06 0.00120034
-0.000351051 0.000120321 5.09171e-05
0.000120321 -0.000368781 -3.16893e-05
5.09171e-05 -3.16893e-05 -0.000339367
0.00181153 2.51768e-05 -1.61634e-06
2.51768e-05 0.000535276 4.29804e-06
-1.61634e-06 4.29804e-06 0.000690471
0.00161077 3.66966e-06 -2.34296e-05
3.66966e-06 0.000396591 8.95861e-06
-2.34296e-05 8.95861e-06 8.35162e-08
0.0041398 0.00014166 1.6317e-05
0.00014166 0.00090405 -2.14679e-05
1.6317e-05 -2.14679e-05 0.000299633
0.000279174 0.000159438 -5.57372e-06
0.000159438 -0.000611267 1.0955e-05
-5.57372e-06 1.0955e-05 -0.000583922
0.00175285 -2.15887e-07 9.78193e-07
-2.15887e-07 0.000556206 -3.14006e-06
9.78193e-07 -3.14006e-06 0.000601076
0.00106298 -6.6659e-05 2.94193e-05
-6.6659e-05 9.7808e-05 -3.24934e-05
2.94193e-05 -3.24934e-05 -0.000338533
0.00712792 0.000114497 2.71815e-05
0.000114497 0.0017437 -2.11219e-05
2.71815e-05 -2.11219e-05 0.000984283
0.00171923 0.000158698 8.4304e-06
0.000158698 -0.000318785 6.19278e-05
8.4304e-06 6.19278e-05 -0.000332843
0.00136575 9.35252e-06 5.95177e-08
9.35252e-06 0.000299554 6.72738e-06
5.95177e-08 6.72738e-06 0.000287244
0.00102697 -1.27341e-06 4.40312e-08
-1.27341e-06 3.7882e-05 -9.63854e-07
4.40312e-08 -9.63854e-07 -4.31316e-05
0.00109747 -8.27741e-06 1.31675e-07
-8.27741e-06 7.90013e-05 -3.30781e-08
1.31675e-07 -3.30781e-08 2.92072e-06
0.00116803 2.0628e-05 -9.07684e-08
2.0628e-05 0.000113875 7.8223e-07
-9.07684e-08 7.8223e-07 4.59716e-05
0.00105528 1.1371e-05 -9.93243e-08
1.1371e-05 5.42046e-05 -1.49847e-06
-9.93243e-08 -1.49847e-06 -2.06198e-05
0.00112569 1.77994e-05 -9.88148e-08
1.77994e-05 8.88358e-05 4.20863e-07
-9.88148e-08 4.20863e-07 1.73594e-05
0.00120118 9.63144e-06 3.34505e-07
9.63144e-06 0.000126104 1.53868e-06
3.34505e-07 1.53868e-06 6.01578e-05
0.00123634 1.91007e-05 -1.54599e-07
1.91007e-05 0.000142716 3.67178e-08
-1.54599e-07 3.67178e-08 7.97798e-05
0.00124104 1.9479e-05 3.73461e-07
1.9479e-05 0.000144588 1.50425e-06
3.73461e-07 1.50425e-06 8.4855e-05
0.00197672 -9.12674e-05 1.03718e-07
-9.12674e-05 -2.36533e-05 -2.86623e-06
1.03718e-07 -2.86623e-06 1.12976e-05
0.00148903 -8.75024e-05 -2.25142e-06
-8.75024e-05 0.000312285 3.29847e-06
-2.25142e-06 3.29847e-06 0.000148293
0.0011024 -3.28779e-05 -2.1524e-08
-3.28779e-05 8.47859e-05 1.18233e-06
-2.1524e-08 1.18233e-06 3.25647e-06
0.00133671 -1.33626e-05 2.76903e-07
-1.33626e-05 0.000228139 5.00644e-07
2.76903e-07 5.00644e-07 8.57717e-05
0.00132742 -1.15149e-05 1.70726e-07
-1.15149e-05 0.000196464 4.7847e-07
1.70726e-07 4.7847e-07 9.38305e-05
0.00116795 8.4525e-07 1.3411e-07
8.4525e-07 0.00011928 5.2893e-07
1.3411e-07 5.2893e-07 3.13714e-05
0.00110628 1.45896e-05 8.14123e-10
1.45896e-05 8.19056e-05 4.79548e-08
8.14123e-10 4.79548e-08 -4.90232e-06
0.00189739 -0.000111748 7.19054e-07
-0.000111748 5.21555e-05 -8.36034e-07
7.19054e-07 -8.36034e-07 6.18125e-05
0.00112104 7.6804e-06 7.70811e-08
7.6804e-06 8.3294e-05 2.32588e-07
7.70811e-08 2.32588e-07 -1.15977e-05
0.00118373 -1.80376e-06 -1.53335e-07
-1.80376e-06 0.000128264 -9.70112e-09
-1.53335e-07 -9.70112e-09 9.98249e-06
0.00111109 -2.19942e-05 -1.98572e-07
-2.19942e-05 0.000244103 3.76369e-07
-1.98572e-07 3.76369e-07 1.75935e-05
0.00115194 2.32501e-05 -4.31648e-08
2.32501e-05 9.99552e-05 -1.39722e-07
-4.31648e-08 -1.39722e-07 1.18489e-05
0.002223 -9.13031e-05 -2.0925e-05
-9.13031e-05 0.000482248 5.99663e-06
-2.0925e-05 5.99663e-06 0.000337584
0.00127602 3.01798e-05 -2.82163e-06
3.01798e-05 0.00030024 -2.90211e-06
-2.82163e-06 -2.90211e-06 0.000108991
0.00114473 6.49946e-06 -5.02627e-07
6.49946e-06 8.658e-05 -1.59208e-06
-5.02627e-07 -1.59208e-06 -1.0414e-05
0.00124056 2.14967e-05 -2.64474e-07
2.14967e-05 0.000140817 -6.41635e-07
-2.64474e-07 -6.41635e-07 4.79289e-05
0.00144935 -4.33153e-06 -3.33099e-07
-4.33153e-06 0.000485529 2.57642e-07
-3.33099e-07 2.57642e-07 0.000390063
0.00161392 -3.10263e-06 -5.50838e-06
-3.10263e-06 0.00067851 3.07337e-07
-5.50838e-06 3.07337e-07 0.000600899
-0.00121211 -1.43049e-06 3.91242e-06
-1.43049e-06 -0.00102122 8.99521e-08
3.91242e-06 8.99521e-08 -0.00105075
0.000920303 3.3356e-05 -7.76074e-08
3.3356e-05 -1.77802e-05 2.10309e-06
-7.76074e-08 2.10309e-06 -0.000103811
-0.00075638 -7.04483e-06 -4.5898e-06
-7.04483e-06 -0.000695114 2.57006e-06
-4.5898e-06 2.57006e-06 -0.000879408
0.000895682 -5.95117e-07 -1.0945e-05
-5.95117e-07 0.000204875 -1.4855e-06
-1.0945e-05 -1.4855e-06 0.000123122
0.00388984 -0.000179284 2.09099e-05
-0.000179284 0.000768824 6.80281e-06
2.09099e-05 6.80281e-06 5.5317e-05
0.00348559 0.00012186 -2.07571e-05
0.00012186 0.00107255 -5.68672e-05
-2.07571e-05 -5.68672e-05 0.000742327
0.0026167 -0.000192056 -2.74955e-06
-0.000192056 6.21749e-05 7.86351e-05
-2.74955e-06 7.86351e-05 0.000218309
0.000758577 5.28734e-06 -1.26933e-06
5.28734e-06 -2.00475e-05 -6.64731e-06
-1.26933e-06 -6.64731e-06 -6.05688e-05
0.000266713 -9.37201e-06 1.48899e-06
-9.37201e-06 -0.000300074 -3.43539e-07
1.48899e-06 -3.43539e-07 -0.000323534
0.00130676 2.42165e-05 -1.01399e-06
2.42165e-05 0.000179001 -7.41819e-07
-1.01399e-06 -7.41819e-07 9.72869e-05
0.000811375 2.07105e-06 -2.8692e-07
2.07105e-06 6.58435e-05 9.46254e-07
-2.8692e-07 9.46254e-07 -1.79387e-05
0.000961213 -8.84017e-06 3.51317e-07
-8.84017e-06 6.6851e-05 -4.14918e-07
3.51317e-07 -4.14918e-07 3.54995e-05
0.000194221 2.97947e-05 4.55486e-06
2.97947e-05 -6.93894e-05 -4.2026e-06
4.55486e-06 -4.2026e-06 -0.000110989
0.0015772 -8.69611e-06 -1.0956e-06
-8.69611e-06 0.000439687 2.31095e-06
-1.0956e-06 2.31095e-06 0.000492888
0.00343309 1.56775e-05 1.16886e-05
1.56775e-05 3.31525e-05 5.56979e-06
1.16886e-05 5.56979e-06 -0.000325464
0.00312113 -1.79396e-06 -4.94925e-06
-1.79396e-06 0.000143074 6.45221e-07
-4.94925e-06 6.45221e-07 0.000484532
-0.000252987 2.64933e-05 2.83476e-06
2.64933e-05 -0.000450518 -7.27961e-06
2.83476e-06 -7.27961e-06 -0.000534548
0.00123652 -5.40669e-06 3.66338e-08
-5.40669e-06 0.000292962 2.98358e-06
3.66338e-08 2.98358e-06 0.000218439
0.000908001 -1.95728e-05 1.34044e-07
-1.95728e-05 9.01509e-05 9.32091e-06
1.34044e-07 9.32091e-06 3.94062e-05
0.00126884 3.27448e-05 -6.3829e-06
3.27448e-05 0.000165617 8.50524e-06
-6.3829e-06 8.50524e-06 0.000342447
0.00188753 0.000180989 -5.15886e-06
0.000180989 -8.19995e-05 -5.72002e-05
-5.15886e-06 -5.72002e-05 -9.54401e-05
0.00107009 4.32745e-05 1.70804e-05
4.32745e-05 0.000637506 -1.05084e-05
1.70804e-05 -1.05084e-05 0.00057921
0.00349611 -6.76397e-05 3.56646e-05
-6.76397e-05 0.000282383 3.36157e-05
3.56646e-05 3.36157e-05 -0.000300548
0.00112492 2.64949e-05 -1.01453e-06
2.64949e-05 0.000100726 6.95808e-07
-1.01453e-06 6.95808e-07 -1.15697e-05
0.00117938 2.31016e-05 -1.03321e-06
2.31016e-05 0.000158752 -6.9238e-07
-1.03321e-06 -6.9238e-07 3.49296e-05
0.000591698 4.41836e-06 -9.73079e-07
4.41836e-06 -4.37947e-05 -2.01457e-06
-9.73079e-07 -2.01457e-06 -0.000250146
0.00123769 6.24839e-06 -6.35046e-08
6.24839e-06 0.000146341 -6.88469e-07
-6.35046e-08 -6.88469e-07 5.65213e-05
0.00123163 -2.78683e-06 3.37198e-07
-2.78683e-06 0.000156198 -3.00316e-07
3.37198e-07 -3.00316e-07 4.57149e-05
0.00104024 6.58813e-06 1.59252e-07
6.58813e-06 7.36737e-05 8.88501e-07
1.59252e-07 8.88501e-07 -4.69061e-05
0.00111104 -2.56485e-05 -1.63226e-07
-2.56485e-05 8.48457e-05 1.12914e-07
-1.63226e-07 1.12914e-07 -1.62949e-05
0.00103226 -2.65016e-06 1.58601e-07
-2.65016e-06 8.15599e-05 8.52045e-07
1.58601e-07 8.52045e-07 -2.97625e-05
0.0010265 -2.14864e-05 4.25584e-07
-2.14864e-05 0.000107618 -5.07277e-07
4.25584e-07 -5.07277e-07 -2.02543e-05
0.0011133 -3.18557e-05 8.90871e-08
-3.18557e-05 8.46936e-05 -4.20514e-07
8.90871e-08 -4.20514e-07 -1.0772e-05
0.00101799 -2.70721e-05 1.15145e-07
-2.70721e-05 4.25977e-05 2.02175e-07
1.15145e-07 2.02175e-07 -5.03684e-05
0.00117902 -3.74587e-05 1.3943e-07
-3.74587e-05 0.000130257 5.18114e-07
1.3943e-07 5.18114e-07 3.08735e-05
0.00104113 -4.13229e-05 -3.7259e-07
-4.13229e-05 8.73669e-05 1.43712e-06
-3.7259e-07 1.43712e-06 -2.58421e-05
0.00101894 -3.60368e-05 5.6129e-07
-3.60368e-05 4.73812e-05 7.78941e-08
5.6129e-07 7.78941e-08 -3.70223e-05
0.000961779 -3.78415e-05 6.92756e-07
-3.78415e-05 2.37555e-05 -5.79258e-07
6.92756e-07 -5.79258e-07 -7.15753e-05
0.00116372 -4.53443e-05 3.94862e-07
-4.53443e-05 0.000112484 1.73562e-06
3.94862e-07 1.73562e-06 1.32658e-05
0.00121793 -4.49561e-05 -1.59177e-06
-4.49561e-05 0.000106255 1.75196e-06
-1.59177e-06 1.75196e-06 2.23288e-05
0.00133067 -4.14257e-05 3.57773e-07
-4.14257e-05 0.000188276 -8.96741e-08
3.57773e-07 -8.96741e-08 0.000105012
0.00105388 -4.15115e-05 -2.35061e-07
-4.15115e-05 4.16153e-05 -1.27398e-07
-2.35061e-07 -1.27398e-07 -4.59472e-05
0.00125494 -3.99761e-05 1.45961e-07
-3.99761e-05 0.000144043 3.19358e-07
1.45961e-07 3.19358e-07 7.30064e-05
0.000984312 -3.15981e-05 -7.21896e-07
-3.15981e-05 2.46726e-05 2.21065e-07
-7.21896e-07 2.21065e-07 -4.49853e-05
0.00110399 -3.85864e-05 4.6857e-07
-3.85864e-05 7.08317e-05 1.01198e-07
4.6857e-07 1.01198e-07 -3.71815e-06
0.00109032 -2.57831e-05 -1.05839e-06
-2.57831e-05 6.74677e-05 1.48455e-07
-1.05839e-06 1.48455e-07 3.02164e-06
0.00112473 -3.50798e-05 -6.802e-07
-3.50798e-05 8.51317e-05 4.14409e-07
-6.802e-07 4.14409e-07 1.50089e-05
0.000945291 -3.66447e-05 -2.87808e-08
-3.66447e-05 -2.04612e-06 -7.19966e-07
-2.87808e-08 -7.19966e-07 -8.09165e-05
0.00105815 -1.48441e-05 -1.44517e-06
-1.48441e-05 4.58923e-05 1.05035e-06
-1.44517e-06 1.05035e-06 -1.05465e-05
0.00105794 -2.86237e-05 6.83141e-08
-2.86237e-05 4.89469e-05 9.91144e-08
6.83141e-08 9.91144e-08 -1.83846e-05
0.0011391 -3.56415e-05 1.43156e-06
-3.56415e-05 9.23099e-05 -3.56241e-07
1.43156e-06 -3.56241e-07 1.97952e-05
0.0010583 -2.88808e-05 1.03443e-06
-2.88808e-05 5.32157e-05 -5.17061e-07
1.03443e-06 -5.17061e-07 -1.77882e-05
0.00104845 -1.4803e-05 5.88601e-08
-1.4803e-05 4.22659e-05 4.69299e-08
5.88601e-08 4.69299e-08 -1.55722e-05
0.000990409 1.25667e-08 -1.68919e-06
1.25667e-08 1.01146e-05 2.16956e-06
-1.68919e-06 2.16956e-06 -2.7182e-05
0.00104344 -1.35986e-05 1.04882e-06
-1.35986e-05 4.1877e-05 -1.17542e-06
1.04882e-06 -1.17542e-06 -1.61256e-05
0.000988239 -4.60422e-07 8.5505e-08
-4.60422e-07 8.22004e-06 -2.75087e-09
8.5505e-08 -2.75087e-09 -2.82689e-05
0.000904279 1.08674e-05 -2.06265e-06
1.08674e-05 -3.85281e-05 3.40138e-06
-2.06265e-06 3.40138e-06 -4.40053e-05
0.000992602 -1.5656e-06 1.22066e-06
-1.5656e-06 9.39342e-06 -2.08874e-06
1.22066e-06 -2.08874e-06 -2.58843e-05
0.000918012 9.31082e-06 1.12669e-07
9.31082e-06 -3.50055e-05 8.63904e-09
1.12669e-07 8.63904e-09 -3.95678e-05
0.00241534 1.5413e-05 -3.30123e-06
1.5413e-05 0.000707153 1.69068e-06
-3.30123e-06 1.69068e-06 0.000727995
0.000935506 7.62843e-06 1.52425e-06
7.62843e-06 -2.97305e-05 -3.34886e-06
1.52425e-06 -3.34886e-06 -3.33746e-05
0.00177836 1.04741e-05 3.0624e-06
1.04741e-05 0.000386644 -1.2491e-06
3.0624e-06 -1.2491e-06 0.000405159
0.00242201 8.52822e-06 6.1839e-06
8.52822e-06 0.000704247 -4.18258e-06
6.1839e-06 -4.18258e-06 0.000726252
0.000834921 -1.35178e-06 -3.24856e-07
-1.35178e-06 -6.38145e-05 -1.93065e-06
-3.24856e-07 -1.93065e-06 -0.000117848
0.00072831 -5.56069e-06 -7.68556e-07
-5.56069e-06 -0.000124938 -2.53957e-06
-7.68556e-07 -2.53957e-06 -0.000156474
0.000991057 -2.2926e-06 -4.59696e-08
-2.2926e-06 1.27133e-05 -5.20723e-07
-4.59696e-08 -5.20723e-07 -3.72655e-05
0.000949451 -6.23391e-06 -1.10463e-06
-6.23391e-06 -2.6322e-05 -3.24894e-06
-1.10463e-06 -3.24894e-06 -2.63118e-05
0.000739262 -4.1597e-06 -1.04619e-07
-4.1597e-06 -0.000122 -5.9472e-07
-1.04619e-07 -5.9472e-07 -0.000151432
0.00112367 -1.1131e-06 2.49569e-07
-1.1131e-06 7.7352e-05 1.34143e-06
2.49569e-07 1.34143e-06 3.09911e-05
0.00228049 -5.67034e-06 -4.40693e-06
-5.67034e-06 0.000631126 -4.07455e-06
-4.40693e-06 -4.07455e-06 0.000655037
0.000939681 -4.07398e-06 -9.21617e-08
-4.07398e-06 -3.32584e-05 -2.42941e-09
-9.21617e-08 -2.42941e-09 -3.20874e-05
0.000749238 -2.55946e-06 2.99038e-07
-2.55946e-06 -0.00011852 1.88575e-06
2.99038e-07 1.88575e-06 -0.000146513
0.00226838 -2.71273e-06 -7.68335e-07
-2.71273e-06 0.000623591 7.88904e-09
-7.68335e-07 7.88904e-09 0.00064796
0.000936819 -1.89976e-06 2.37719e-07
-1.89976e-06 -3.5914e-05 3.2924e-06
2.37719e-07 3.2924e-06 -3.39936e-05
0.00225349 2.01745e-07 -5.36509e-07
2.01745e-07 0.000615787 4.03661e-06
-5.36509e-07 4.03661e-06 0.000640367
0.000986528 -1.53627e-05 4.91547e-07
-1.53627e-05 0.000194283 -5.91378e-07
4.91547e-07 -5.91378e-07 0.00011473
0.00096844 -7.54669e-06 1.72073e-07
-7.54669e-06 0.00027363 5.65004e-07
1.72073e-07 5.65004e-07 0.000205897
0.000843934 7.51881e-06 -7.01583e-06
7.51881e-06 0.000142205 1.60883e-06
-7.01583e-06 1.60883e-06 0.000134775
0.00110168 2.29618e-05 -2.39489e-07
2.29618e-05 7.47741e-05 4.65902e-08
-2.39489e-07 4.65902e-08 6.9548e-06
0.00097654 2.61928e-05 -6.34511e-07
2.61928e-05 9.11349e-06 -9.12016e-07
-6.34511e-07 -9.12016e-07 -6.17861e-05
0.00121915 2.16457e-05 3.35637e-08
2.16457e-05 0.000135674 -1.04739e-07
3.35637e-08 -1.04739e-07 5.89076e-05
0.00139925 4.98514e-06 -4.9782e-06
4.98514e-06 0.000359143 -2.3164e-06
-4.9782e-06 -2.3164e-06 0.000343136
0.000965231 -1.82009e-05 3.70531e-07
-1.82009e-05 0.000139671 7.92196e-07
3.70531e-07 7.92196e-07 0.000106241
0.00116004 -4.99098e-06 -2.92579e-06
-4.99098e-06 0.00034478 6.01082e-06
-2.92579e-06 6.01082e-06 0.000311749
0.000320842 3.09057e-05 -2.51447e-05
3.09057e-05 0.000113096 1.13525e-05
-2.51447e-05 1.13525e-05 -0.00017748
0.0039226 8.56311e-05 3.90092e-07
8.56311e-05 0.000857082 -1.74796e-05
3.90092e-07 -1.74796e-05 0.00017025
0.00305911 0.000210734 2.19187e-05
0.000210734 0.000753782 -2.30829e-05
2.19187e-05 -2.30829e-05 0.00074063
0.00124777 -7.6369e-06 -2.6439e-06
-7.6369e-06 0.000319468 -3.69351e-07
-2.6439e-06 -3.69351e-07 0.000331494
5.40855e-05 -1.87451e-05 -1.47775e-05
-1.87451e-05 2.63828e-06 1.01724e-05
-1.47775e-05 1.01724e-05 -0.000289561
0.00485752 7.78716e-05 3.03725e-05
7.78716e-05 0.00090148 -4.66505e-05
3.03725e-05 -4.66505e-05 0.000193322
9.15924e-05 0.000108283 2.83963e-06
0.000108283 -0.000672832 1.1734e-05
2.83963e-06 1.1734e-05 -0.000625553
0.000917732 9.88587e-06 2.96963e-06
9.88587e-06 6.82148e-05 -1.41952e-06
2.96963e-06 -1.41952e-06 4.81013e-05
0.000165951 -0.000121579 2.49362e-05
-0.000121579 -0.000221044 -4.38928e-05
2.49362e-05 -4.38928e-05 -0.000422786
0.00813288 8.23303e-05 2.98311e-05
8.23303e-05 0.00207453 -3.59577e-05
2.98311e-05 -3.59577e-05 0.00170151
0.000468996 4.1918e-06 -6.04592e-06
4.1918e-06 -0.00101539 6.83118e-05
-6.04592e-06 6.83118e-05 -0.000735909
-0.00048423 2.16482e-05 -3.569e-06
2.16482e-05 -0.000775434 3.24151e-06
-3.569e-06 3.24151e-06 -0.000749598
0.00113655 1.794e-05 -7.29068e-08
1.794e-05 9.21275e-05 -7.6007e-07
-7.29068e-08 -7.6007e-07 7.69469e-06
0.00104333 -9.20601e-07 -4.43911e-09
-9.20601e-07 4.65614e-05 -2.7214e-07
-4.43911e-09 -2.7214e-07 -3.46376e-05
0.00106544 -1.07293e-05 1.60329e-07
-1.07293e-05 6.30223e-05 9.84785e-07
1.60329e-07 9.84785e-07 -1.35817e-05
0.00107616 1.49658e-05 -1.82753e-07
1.49658e-05 6.44549e-05 -7.67907e-07
-1.82753e-07 -7.67907e-07 -1.05627e-05
0.00120527 3.04074e-05 5.72592e-07
3.04074e-05 0.000127806 1.34522e-06
5.72592e-07 1.34522e-06 5.72019e-05
0.00127091 1.89903e-05 -2.72431e-08
1.89903e-05 0.000159097 1.02485e-06
-2.72431e-08 1.02485e-06 9.66652e-05
0.00198171 -0.000108404 7.08873e-06
-0.000108404 9.74038e-05 -1.97853e-06
7.08873e-06 -1.97853e-06 0.000111564
0.00107003 -1.23671e-05 -1.07186e-06
-1.23671e-05 0.000224324 5.87657e-06
-1.07186e-06 5.87657e-06 -3.88472e-06
0.00110236 1.62011e-05 2.70188e-07
1.62011e-05 7.99402e-05 6.94568e-07
2.70188e-07 6.94568e-07 -6.61426e-06
0.00120682 -6.02621e-06 8.36494e-07
-6.02621e-06 0.000143749 4.71492e-07
8.36494e-07 4.71492e-07 2.04248e-05
0.00113352 3.69902e-06 5.2413e-07
3.69902e-06 8.98197e-05 1.31049e-06
5.2413e-07 1.31049e-06 -5.79653e-06
0.0011361 2.03184e-05 1.55913e-07
2.03184e-05 9.21753e-05 3.41269e-07
1.55913e-07 3.41269e-07 4.34859e-06
0.00115242 1.92892e-05 7.61743e-08
1.92892e-05 9.62383e-05 2.16436e-07
7.61743e-08 2.16436e-07 3.02387e-06
0.00145048 -8.4528e-05 6.84827e-07
-8.4528e-05 7.33075e-05 9.21066e-07
6.84827e-07 9.21066e-07 -4.17459e-05
0.00125443 2.5006e-06 2.88165e-07
2.5006e-06 0.000138161 -1.03876e-06
2.88165e-07 -1.03876e-06 4.2191e-05
0.00142202 3.5698e-05 -1.32211e-06
3.5698e-05 0.000369243 -6.29017e-07
-1.32211e-06 -6.29017e-07 0.000179066
0.000956031 1.36499e-05 -3.35953e-07
1.36499e-05 1.39162e-06 -1.38272e-06
-3.35953e-07 -1.38272e-06 -9.31014e-05
0.00174355 -2.50462e-05 -1.04556e-05
-2.50462e-05 0.000552908 8.74863e-06
-1.04556e-05 8.74863e-06 0.000333864
0.000903598 2.04701e-05 -1.18077e-06
2.04701e-05 -1.55794e-05 -2.21284e-06
-1.18077e-06 -2.21284e-06 -9.98053e-05
0.00109964 -4.37199e-07 -3.0393e-07
-4.37199e-07 7.11139e-05 -8.40047e-07
-3.0393e-07 -8.40047e-07 -2.61385e-05
0.00125178 -3.13545e-06 3.72689e-07
-3.13545e-06 0.000322665 -6.69338e-07
3.72689e-07 -6.69338e-07 0.000234121
0.000923037 -5.02688e-06 3.22541e-07
-5.02688e-06 0.000156822 2.68814e-07
3.22541e-07 2.68814e-07 6.13218e-05
0.00113745 -3.03857e-06 -1.4812e-05
-3.03857e-06 0.000380571 1.21841e-06
-1.4812e-05 1.21841e-06 0.000302825
0.00148168 3.82631e-05 2.80254e-07
3.82631e-05 0.000268901 4.39745e-06
2.80254e-07 4.39745e-06 0.00018436
0.000492051 2.39748e-05 2.40225e-06
2.39748e-05 2.64294e-05 -4.20633e-06
2.40225e-06 -4.20633e-06 -1.28149e-05
0.000713794 1.61447e-06 2.4399e-07
1.61447e-06 6.77007e-06 -7.609e-07
2.4399e-07 -7.609e-07 -7.70596e-05
0.00450036 -2.193e-05 -1.27059e-05
-2.193e-05 0.000919919 -1.23498e-05
-1.27059e-05 -1.23498e-05 0.000826032
-0.000768173 5.8793e-06 1.48845e-07
5.8793e-06 -0.00155421 6.82201e-05
1.48845e-07 6.82201e-05 -0.00116851
0.000328738 -9.58495e-06 2.66193e-07
-9.58495e-06 -0.000323351 -2.86856e-06
2.66193e-07 -2.86856e-06 -0.000359842
0.00106547 -1.52515e-05 3.45361e-06
-1.52515e-05 0.000198156 -4.84809e-06
3.45361e-06 -4.84809e-06 0.000216771
0.00094732 1.83585e-05 4.47518e-06
1.83585e-05 7.75467e-05 1.09958e-06
4.47518e-06 1.09958e-06 -6.79898e-07
0.00100125 -6.55318e-06 4.60504e-07
-6.55318e-06 0.000147257 2.37106e-06
4.60504e-07 2.37106e-06 6.98917e-05
0.00101149 -2.127e-05 -1.21909e-06
-2.127e-05 0.000147374 -5.27413e-07
-1.21909e-06 -5.27413e-07 9.81338e-05
0.000607766 9.63098e-05 9.07516e-08
9.63098e-05 0.000123511 9.12215e-08
9.07516e-08 9.12215e-08 -0.000146761
0.00100677 2.54638e-05 8.65065e-07
2.54638e-05 4.08608e-05 -1.61409e-06
8.65065e-07 -1.61409e-06 0.000211036
-0.00022477 0.000121821 -2.13166e-07
0.000121821 -0.000750078 -1.17615e-05
-2.13166e-07 -1.17615e-05 -0.000684639
0.00720452 -2.90419e-05 8.66914e-06
-2.90419e-05 0.00154219 -2.22655e-05
8.66914e-06 -2.22655e-05 0.00164381
0.000353128 8.2575e-07 -2.03068e-06
8.2575e-07 0.000168187 -1.17195e-05
-2.03068e-06 -1.17195e-05 -2.14262e-05
0.00100503 -1.26658e-05 -1.23346e-06
-1.26658e-05 0.000192865 1.35579e-06
-1.23346e-06 1.35579e-06 9.97025e-05
0.000947889 -3.36824e-06 -1.71567e-05
-3.36824e-06 0.000201812 6.56892e-06
-1.71567e-05 6.56892e-06 0.00015289
0.000543542 5.80955e-05 2.3434e-06
5.80955e-05 -0.000285647 2.06234e-06
2.3434e-06 2.06234e-06 -6.11768e-05
-0.0017627 0.000161017 2.50234e-05
0.000161017 -0.00127837 -4.20634e-05
2.50234e-05 -4.20634e-05 -0.00126057
0.00748541 0.000111088 -8.1343e-06
0.000111088 0.00207693 -6.5072e-06
-8.1343e-06 -6.5072e-06 0.00149139
0.000623364 -1.79445e-05 -1.4208e-05
-1.79445e-05 0.000297534 8.3078e-05
-1.4208e-05 8.3078e-05 -0.000228599
0.00140831 2.25366e-05 -2.9027e-08
2.25366e-05 0.000261702 9.2367e-08
-2.9027e-08 9.2367e-08 0.000143708
0.000817477 4.43948e-06 8.42776e-07
4.43948e-06 6.47166e-05 -2.07378e-06
8.42776e-07 -2.07378e-06 -0.000139979
0.000741263 -1.28179e-05 -5.33667e-07
-1.28179e-05 0.000103342 2.13645e-07
-5.33667e-07 2.13645e-07 -0.000151831
0.00110945 -2.68627e-05 1.97123e-07
-2.68627e-05 8.48741e-05 -7.74407e-07
1.97123e-07 -7.74407e-07 -1.61568e-05
0.00101978 -6.08244e-06 8.25572e-07
-6.08244e-06 7.2399e-05 1.26204e-06
8.25572e-07 1.26204e-06 -3.99923e-05
0.000972514 -1.79477e-05 -1.20946e-07
-1.79477e-05 7.94309e-05 5.65084e-07
-1.20946e-07 5.65084e-07 -4.548e-05
0.00088893 -4.3258e-05 1.33324e-06
-4.3258e-05 8.69301e-05 -1.69399e-06
1.33324e-06 -1.69399e-06 -8.77282e-05
0.00125596 -3.9375e-05 3.15463e-07
-3.9375e-05 0.000165484 6.46738e-08
3.15463e-07 6.46738e-08 6.51568e-05
0.00123597 -4.62365e-05 -3.47499e-07
-4.62365e-05 0.000179119 4.58835e-07
-3.47499e-07 4.58835e-07 6.24946e-05
0.00133555 -5.58787e-05 2.72413e-07
-5.58787e-05 0.000225809 2.28825e-06
2.72413e-07 2.28825e-06 9.58845e-05
0.00084064 -3.56976e-05 3.90107e-07
-3.56976e-05 -3.13922e-05 -1.25575e-06
3.90107e-07 -1.25575e-06 -0.000125845
0.00120113 -4.5823e-05 -1.10584e-07
-4.5823e-05 0.000129955 3.68149e-08
-1.10584e-07 3.68149e-08 2.95868e-05
0.00144331 -5.34972e-05 -1.7759e-06
-5.34972e-05 0.000220018 1.52684e-06
-1.7759e-06 1.52684e-06 0.000120625
0.00138004 -4.83608e-05 -1.44471e-06
-4.83608e-05 0.000178629 1.73603e-06
-1.44471e-06 1.73603e-06 9.28781e-05
0.000923567 -3.6864e-05 -3.83439e-07
-3.6864e-05 -2.59658e-05 1.58082e-06
-3.83439e-07 1.58082e-06 -0.000100218
0.00113291 -4.3882e-05 -2.47327e-07
-4.3882e-05 6.70159e-05 2.32629e-07
-2.47327e-07 2.32629e-07 -1.82362e-05
0.0011366 -4.29702e-05 -1.3571e-07
-4.29702e-05 8.09562e-05 -8.26226e-07
-1.3571e-07 -8.26226e-07 -7.57415e-06
0.00123123 -3.72125e-05 2.1133e-07
-3.72125e-05 0.000133191 9.54822e-09
2.1133e-07 9.54822e-09 6.66953e-05
0.00112944 -3.79433e-05 7.95814e-07
-3.79433e-05 8.36625e-05 -5.46343e-07
7.95814e-07 -5.46343e-07 1.38679e-05
0.000962432 -2.09448e-05 -5.01136e-07
-2.09448e-05 1.2458e-05 5.91947e-07
-5.01136e-07 5.91947e-07 -5.19225e-05
0.00106625 -3.26294e-05 1.63781e-07
-3.26294e-05 6.3963e-05 -1.01863e-07
1.63781e-07 -1.01863e-07 -5.06962e-06
0.00110338 -3.84081e-05 2.25071e-06
-3.84081e-05 6.99384e-05 -1.20706e-06
2.25071e-06 -1.20706e-06 -3.56208e-06
0.00103922 -7.61976e-06 -1.59018e-06
-7.61976e-06 3.92132e-05 8.79583e-07
-1.59018e-06 8.79583e-07 -1.5676e-05
0.00110056 -2.62997e-05 -2.60061e-07
-2.62997e-05 7.15363e-05 -4.66612e-08
-2.60061e-07 -4.66612e-08 7.21984e-06
0.00114246 -3.53327e-05 3.69138e-07
-3.53327e-05 9.34034e-05 -1.23278e-07
3.69138e-07 -1.23278e-07 2.31284e-05
0.00098296 1.54456e-06 -2.09415e-06
1.54456e-06 7.8327e-06 2.07115e-06
-2.09415e-06 2.07115e-06 -2.94884e-05
0.00105272 -1.49517e-05 8.66664e-08
-1.49517e-05 4.27321e-05 9.5746e-08
8.66664e-08 9.5746e-08 -1.35132e-05
0.0010239 -2.8454e-05 1.24782e-06
-2.8454e-05 3.17488e-05 -1.81056e-07
1.24782e-06 -1.81056e-07 -3.59007e-05
0.00104372 -1.47603e-05 1.3238e-06
-1.47603e-05 3.94763e-05 -1.0767e-06
1.3238e-06 -1.0767e-06 -1.81794e-05
0.000985316 3.83118e-07 1.28777e-07
3.83118e-07 7.54391e-06 2.55838e-08
1.28777e-07 2.55838e-08 -2.96958e-05
0.000895164 1.23496e-05 -2.47133e-06
1.23496e-05 -3.98184e-05 3.43064e-06
-2.47133e-06 3.43064e-06 -4.61879e-05
0.000986077 -5.91505e-07 1.47835e-06
-5.91505e-07 7.15387e-06 -2.09778e-06
1.47835e-06 -2.09778e-06 -2.93375e-05
0.00091198 1.09207e-05 1.03465e-07
1.09207e-05 -3.47376e-05 3.45398e-09
1.03465e-07 3.45398e-09 -4.02737e-05
0.00250141 1.68871e-05 -9.82227e-06
1.68871e-05 0.000753088 4.08042e-06
-9.82227e-06 4.08042e-06 0.000772983
0.000929283 9.32481e-06 1.9135e-06
9.32481e-06 -2.96513e-05 -3.37072e-06
1.9135e-06 -3.37072e-06 -3.42326e-05
0.00178669 1.30582e-05 3.58304e-06
1.30582e-05 0.000394746 -1.22925e-06
3.58304e-06 -1.22925e-06 0.000412412
0.00243943 1.1392e-05 7.76659e-06
1.1392e-05 0.000715955 -4.16347e-06
7.76659e-06 -4.16347e-06 0.000737321
0.00102707 9.89415e-06 -6.68845e-07
9.89415e-06 3.10661e-05 -1.34999e-06
-6.68845e-07 -1.34999e-06 -2.45122e-05
0.00098341 -7.8738e-06 -8.03729e-07
-7.8738e-06 3.72766e-06 -2.02954e-06
-8.03729e-07 -2.02954e-06 -2.85299e-05
0.00093174 4.42677e-06 -3.56129e-07
4.42677e-06 -1.54785e-05 -5.81275e-07
-3.56129e-07 -5.81275e-07 -6.90704e-05
0.000946668 -8.24795e-06 -1.40287e-06
-8.24795e-06 -2.46061e-05 -3.25091e-06
-1.40287e-06 -3.25091e-06 -2.60861e-05
0.000861188 -5.81236e-06 -1.86973e-07
-5.81236e-06 -5.93641e-05 -5.97278e-07
-1.86973e-07 -5.97278e-07 -9.01752e-05
0.00113084 -3.34469e-06 1.96725e-07
-3.34469e-06 8.14059e-05 7.14728e-07
1.96725e-07 7.14728e-07 3.20598e-05
0.00230543 -8.59205e-06 -5.98069e-06
-8.59205e-06 0.000645863 -4.06569e-06
-5.98069e-06 -4.06569e-06 0.000669097
0.00093625 -6.20521e-06 -7.62077e-08
-6.20521e-06 -3.28124e-05 -5.55019e-09
-7.62077e-08 -5.55019e-09 -3.2716e-05
0.000734007 -4.19664e-06 3.62004e-07
-4.19664e-06 -0.000124431 1.32146e-06
3.62004e-07 1.32146e-06 -0.000154086
0.00228703 -5.59902e-06 -6.66137e-07
-5.59902e-06 0.000634117 1.61247e-08
-6.66137e-07 1.61247e-08 0.000658073
0.000930553 -4.03638e-06 6.16136e-07
-4.03638e-06 -3.77406e-05 3.28647e-06
6.16136e-07 3.28647e-06 -3.65117e-05
0.00226974 -2.65386e-06 1.54697e-06
-2.65386e-06 0.000624125 4.0524e-06
1.54697e-06 4.0524e-06 0.000648535
0.00116739 -1.79139e-06 7.37741e-07
-1.79139e-06 0.000266866 -3.81726e-06
7.37741e-07 -3.81726e-06 0.000203507
0.000998902 -1.5216e-05 3.65959e-07
-1.5216e-05 0.000200392 1.02191e-07
3.65959e-07 1.02191e-07 0.000122458
0.000831481 -7.79042e-06 -9.54111e-06
-7.79042e-06 0.000184759 1.87112e-06
-9.54111e-06 1.87112e-06 0.000118914
0.00100216 2.77959e-05 -7.11554e-07
2.77959e-05 1.91127e-05 -6.34513e-07
-7.11554e-07 -6.34513e-07 -5.14943e-05
0.0011549 3.38031e-05 -2.89857e-07
3.38031e-05 9.34413e-05 -1.61198e-09
-2.89857e-07 -1.61198e-09 1.9215e-05
0.00113692 2.81681e-05 4.87041e-07
2.81681e-05 9.23091e-05 1.04652e-06
4.87041e-07 1.04652e-06 2.48251e-05
0.000974896 2.60236e-05 1.00791e-08
2.60236e-05 8.61785e-06 2.81394e-08
1.00791e-08 2.81394e-08 -6.24768e-05
0.00112971 2.18017e-05 -1.38773e-08
2.18017e-05 9.12407e-05 4.36121e-07
-1.38773e-08 4.36121e-07 1.3583e-05
0.00113937 3.31445e-05 -4.74107e-07
3.31445e-05 9.23375e-05 -3.22696e-07
-4.74107e-07 -3.22696e-07 1.30943e-05
0.00114105 3.04913e-05 -1.34625e-08
3.04913e-05 9.73621e-05 1.52458e-08
-1.34625e-08 1.52458e-08 1.36637e-05
0.000872663 2.54078e-05 -2.14541e-06
2.54078e-05 8.95609e-05 -5.91584e-06
-2.14541e-06 -5.91584e-06 5.43367e-05
0.000831007 3.97503e-06 -3.34325e-07
3.97503e-06 1.16989e-05 6.22966e-07
-3.34325e-07 6.22966e-07 -8.91821e-06
0.00101786 -1.84356e-05 2.27184e-06
-1.84356e-05 0.000166123 -4.4279e-07
2.27184e-06 -4.4279e-07 0.000133926
0.000428771 1.01417e-05 5.22082e-07
1.01417e-05 -0.000189121 -4.20777e-06
5.22082e-07 -4.20777e-06 -0.000217239
0.00214818 -4.94117e-05 -6.63988e-05
-4.94117e-05 0.000652988 5.95358e-05
-6.63988e-05 5.95358e-05 0.000179831
0.00195466 7.176e-05 4.10473e-05
7.176e-05 -8.49131e-05 -5.95938e-05
4.10473e-05 -5.95938e-05 -0.000678254
0.00543768 0.000150449 4.68479e-06
0.000150449 0.00137798 -2.98298e-05
4.68479e-06 -2.98298e-05 0.00155197
0.000593608 -0.000114595 -3.00903e-05
-0.000114595 -0.000151348 2.75456e-05
-3.00903e-05 2.75456e-05 -0.000458498
0.00267522 -2.07302e-05 1.28786e-05
-2.07302e-05 -0.000498327 -4.86805e-05
1.28786e-05 -4.86805e-05 -0.00102982
0.00324439 1.9114e-05 -8.19429e-06
1.9114e-05 6.91655e-05 -2.7781e-07
-8.19429e-06 -2.7781e-07 0.000360973
0.00118237 1.25965e-05 1.91776e-06
1.25965e-05 0.000172311 3.29439e-06
1.91776e-06 3.29439e-06 0.000223725
0.00120039 -0.000118962 2.64212e-05
-0.000118962 0.000284695 -1.90931e-05
2.64212e-05 -1.90931e-05 0.000117043
0.00367794 -0.000112672 -1.80824e-05
-0.000112672 -0.000146451 -0.000107263
-1.80824e-05 -0.000107263 -0.000627567
-0.000427675 -6.66331e-05 8.71939e-06
-6.66331e-05 -0.00118453 5.21345e-05
8.71939e-06 5.21345e-05 -0.000995302
-0.00118372 -1.65504e-05 -5.21723e-06
-1.65504e-05 -0.00122267 -6.42503e-07
-5.21723e-06 -6.42503e-07 -0.00111735
0.00115915 2.85155e-05 -1.42328e-06
2.85155e-05 0.000100114 -7.93252e-07
-1.42328e-06 -7.93252e-07 1.14603e-05
0.00114148 1.57112e-05 5.43592e-08
1.57112e-05 9.47987e-05 -1.9139e-07
5.43592e-08 -1.9139e-07 1.00275e-05
0.00105506 1.1382e-07 -5.03736e-09
1.1382e-07 5.28838e-05 4.42903e-07
-5.03736e-09 4.42903e-07 -2.84736e-05
0.00109366 1.4113e-05 -5.50027e-08
1.4113e-05 7.28349e-05 4.47624e-08
-5.50027e-08 4.47624e-08 -2.24309e-06
0.0013269 -8.44791e-05 1.11198e-05
-8.44791e-05 -2.40544e-05 -1.65419e-06
1.11198e-05 -1.65419e-06 -0.000107834
0.00144824 3.21817e-05 8.7214e-07
3.21817e-05 0.000390605 4.80496e-06
8.7214e-07 4.80496e-06 0.000196376
0.00111779 2.14631e-05 3.19357e-07
2.14631e-05 8.31585e-05 8.60362e-07
3.19357e-07 8.60362e-07 -4.46595e-06
0.00107438 1.13589e-05 -2.94153e-07
1.13589e-05 5.71325e-05 6.13408e-07
-2.94153e-07 6.13408e-07 -3.63866e-05
0.00135526 -6.71043e-08 2.21975e-07
-6.71043e-08 0.000184984 9.00048e-07
2.21975e-07 9.00048e-07 9.01697e-05
0.00105874 1.81666e-05 -7.36593e-07
1.81666e-05 5.23214e-05 -1.32466e-07
-7.36593e-07 -1.32466e-07 -4.19924e-05
0.00107517 -1.81589e-06 -6.16065e-07
-1.81589e-06 5.65297e-05 5.37136e-08
-6.16065e-07 5.37136e-08 -4.09893e-05
0.00108331 -1.31367e-05 1.31079e-05
-1.31367e-05 0.000287102 -1.85088e-06
1.31079e-05 -1.85088e-06 0.00011199
0.000996341 8.62074e-06 1.72149e-06
8.62074e-06 3.38831e-05 2.98182e-07
1.72149e-06 2.98182e-07 -4.69573e-05
0.00122383 9.3311e-06 -4.15357e-07
9.3311e-06 0.000137714 -1.49605e-06
-4.15357e-07 -1.49605e-06 3.46532e-05
0.00131923 1.52135e-05 1.01703e-05
1.52135e-05 0.000572657 1.12245e-05
1.01703e-05 1.12245e-05 0.000511369
0.00148836 -2.01114e-05 3.80388e-06
-2.01114e-05 0.000280186 -5.67632e-06
3.80388e-06 -5.67632e-06 0.000144361
0.00141415 -1.49367e-06 -3.6846e-07
-1.49367e-06 0.000472956 -1.91009e-07
-3.6846e-07 -1.91009e-07 0.000369863
0.000932789 -4.10848e-06 1.91667e-07
-4.10848e-06 0.000123027 -6.48849e-07
1.91667e-07 -6.48849e-07 3.45147e-05
0.000412056 -5.62773e-06 9.33603e-07
-5.62773e-06 -0.000162234 6.38771e-07
9.33603e-07 6.38771e-07 -0.000257793
0.00208076 1.20157e-05 -4.62572e-06
1.20157e-05 0.000576471 9.20545e-06
-4.62572e-06 9.20545e-06 0.000503036
0.000592874 5.09646e-05 -7.93123e-06
5.09646e-05 0.00029986 1.59601e-05
-7.93123e-06 1.59601e-05 0.000279944
0.000711825 -7.62372e-06 7.87963e-07
-7.62372e-06 -3.11819e-05 -5.84297e-07
7.87963e-07 -5.84297e-07 -0.00011152
0.00271388 0.000104105 5.07201e-06
0.000104105 -1.61572e-05 -8.88283e-05
5.07201e-06 -8.88283e-05 -0.000672954
0.00502039 0.00016011 -5.19555e-06
0.00016011 0.00128816 2.57812e-05
-5.19555e-06 2.57812e-05 0.00148968
0.00106308 -2.28659e-05 -2.41131e-06
-2.28659e-05 0.000171599 -4.36356e-06
-2.41131e-06 -4.36356e-06 0.000124248
0.00167952 2.16901e-05 3.39432e-06
2.16901e-05 0.000458152 -9.08817e-06
3.39432e-06 -9.08817e-06 0.00061479
0.000431044 1.33897e-06 -4.00066e-06
1.33897e-06 0.000148745 -7.36495e-07
-4.00066e-06 -7.36495e-07 -1.35116e-05
0.00105026 -1.31194e-05 -8.6995e-07
-1.31194e-05 0.000219752 -6.03631e-08
-8.6995e-07 -6.03631e-08 0.000127926
0.0010861 -4.85219e-06 -6.03936e-06
-4.85219e-06 0.000287271 6.71666e-07
-6.03936e-06 6.71666e-07 0.000240588
0.00144731 -2.14613e-05 -2.87563e-06
-2.14613e-05 0.00072226 1.348e-05
-2.87563e-06 1.348e-05 0.000535352
0.000275868 6.17707e-05 1.25105e-06
6.17707e-05 -0.000408095 -3.54203e-06
1.25105e-06 -3.54203e-06 -0.000199139
0.000193764 0.00017462 2.34047e-06
0.00017462 -0.000527776 -8.24551e-06
2.34047e-06 -8.24551e-06 -0.000522764
0.00234698 1.08887e-05 1.34462e-05
1.08887e-05 -1.89714e-05 -1.72003e-05
1.34462e-05 -1.72003e-05 -0.000691962
0.000362892 -3.09869e-05 3.65847e-06
-3.09869e-05 0.000172104 -2.23687e-05
3.65847e-06 -2.23687e-05 -9.34318e-05
0.00118001 -7.44274e-06 -1.03466e-05
-7.44274e-06 0.000396075 2.34089e-06
-1.03466e-05 2.34089e-06 0.000316205
-0.000949934 2.67759e-05 1.83409e-06
2.67759e-05 -0.000955409 3.25988e-08
1.83409e-06 3.25988e-08 -0.000919667
3.89691e-05 0.000131352 4.51806e-05
0.000131352 -0.000183153 -3.04265e-05
4.51806e-05 -3.04265e-05 -9.04793e-05
0.0060809 0.000217255 2.13023e-05
0.000217255 0.0017683 -4.06762e-05
2.13023e-05 -4.06762e-05 0.00113063
0.00165658 -0.000114557 -3.72032e-05
-0.000114557 0.000177655 9.65112e-05
-3.72032e-05 9.65112e-05 -0.00035683
0.0010314 3.07912e-06 -4.37699e-07
3.07912e-06 0.000167398 -3.6465e-06
-4.37699e-07 -3.6465e-06 -3.59913e-05
0.000844633 -6.6769e-06 -1.33175e-07
-6.6769e-06 0.000150756 -7.1862e-07
-1.33175e-07 -7.1862e-07 -0.000103846
0.0011191 -5.47011e-05 -4.00309e-07
-5.47011e-05 0.000253593 3.99358e-06
-4.00309e-07 3.99358e-06 -2.36455e-06
0.000927969 -1.81415e-05 -3.37875e-07
-1.81415e-05 5.66269e-05 5.54454e-07
-3.37875e-07 5.54454e-07 -6.57601e-05
0.000792884 -3.72741e-05 2.66327e-07
-3.72741e-05 4.50887e-05 -9.4042e-08
2.66327e-07 -9.4042e-08 -0.000127789
0.00116993 -6.92412e-05 2.00327e-06
-6.92412e-05 0.000168646 2.72205e-06
2.00327e-06 2.72205e-06 3.87498e-07
0.00145729 -5.19124e-05 -6.33685e-07
-5.19124e-05 0.000283756 -2.59383e-07
-6.33685e-07 -2.59383e-07 0.000163139
0.00127676 -5.53966e-05 -3.10984e-07
-5.53966e-05 0.000193182 8.44035e-07
-3.10984e-07 8.44035e-07 6.11592e-05
0.00148538 -6.50743e-05 -1.98153e-06
-6.50743e-05 0.000247591 7.74478e-08
-1.98153e-06 7.74478e-08 0.000125609
0.00131042 -4.74524e-05 3.56487e-08
-4.74524e-05 0.000182515 -1.43678e-06
3.56487e-08 -1.43678e-06 8.08916e-05
0.00142228 -5.35464e-05 -4.08399e-07
-5.35464e-05 0.000208041 -5.40237e-08
-4.08399e-07 -5.40237e-08 0.00010739
0.00134218 -5.20276e-05 -1.06366e-06
-5.20276e-05 0.000153784 1.67519e-07
-1.06366e-06 1.67519e-07 6.03787e-05
0.00126626 -4.44011e-05 -1.23699e-06
-4.44011e-05 0.000103068 8.97411e-08
-1.23699e-06 8.97411e-08 2.29763e-05
0.00138756 -4.49175e-05 -1.3279e-06
-4.49175e-05 0.000183183 1.95601e-06
-1.3279e-06 1.95601e-06 0.00010595
0.00129978 -4.72916e-05 -1.12995e-07
-4.72916e-05 0.000140067 -5.11097e-09
-1.12995e-07 -5.11097e-09 5.3869e-05
0.000914712 -3.43873e-05 -9.55466e-08
-3.43873e-05 -2.6027e-05 4.424e-07
-9.55466e-08 4.424e-07 -9.36815e-05
0.0010518 -3.86357e-05 5.57904e-07
-3.86357e-05 3.69213e-05 -1.45407e-07
5.57904e-07 -1.45407e-07 -3.67896e-05
0.0010748 -4.32387e-05 5.29579e-07
-4.32387e-05 4.02743e-05 -1.54318e-06
5.29579e-07 -1.54318e-06 -4.62834e-05
0.00111803 -2.83657e-05 -2.05201e-07
-2.83657e-05 8.07229e-05 3.77333e-07
-2.05201e-07 3.77333e-07 1.70125e-05
0.00115264 -3.60337e-05 5.86264e-08
-3.60337e-05 9.56777e-05 -1.50696e-07
5.86264e-08 -1.50696e-07 2.88733e-05
0.00100463 -3.59421e-05 1.2777e-06
-3.59421e-05 2.36735e-05 -9.64078e-07
1.2777e-06 -9.64078e-07 -4.48858e-05
0.00100283 4.53708e-07 -9.03892e-07
4.53708e-07 2.72643e-05 9.82911e-07
-9.03892e-07 9.82911e-07 -2.79338e-05
0.00100235 -2.05866e-05 -1.62541e-07
-2.05866e-05 3.1159e-05 1.05091e-07
-1.62541e-07 1.05091e-07 -3.28625e-05
0.00114785 -3.36349e-05 6.4264e-07
-3.36349e-05 0.000103023 -4.15888e-07
6.4264e-07 -4.15888e-07 3.46268e-05
0.000959641 6.55019e-06 -2.32497e-06
6.55019e-06 -2.64737e-07 1.89774e-06
-2.32497e-06 1.89774e-06 -3.72665e-05
0.00104474 -7.84927e-06 -2.56573e-07
-7.84927e-06 4.12021e-05 -2.29755e-08
-2.56573e-07 -2.29755e-08 -1.35459e-05
0.00110815 -2.66891e-05 5.58401e-07
-2.66891e-05 7.43093e-05 -2.71528e-07
5.58401e-07 -2.71528e-07 1.01329e-05
0.000928346 1.38999e-05 -3.96467e-06
1.38999e-05 -2.07681e-05 4.6254e-06
-3.96467e-06 4.6254e-06 -2.7876e-05
0.000981504 2.53735e-06 9.8595e-08
2.53735e-06 7.09251e-06 5.19058e-08
9.8595e-08 5.19058e-08 -3.01544e-05
0.00104724 -1.47544e-05 1.60227e-06
-1.47544e-05 3.95289e-05 -8.59917e-07
1.60227e-06 -8.59917e-07 -1.65283e-05
0.00098142 9.33838e-07 1.85769e-06
9.33838e-07 5.54152e-06 -2.05603e-06
1.85769e-06 -2.05603e-06 -3.16408e-05
0.000901455 1.243e-05 1.3921e-07
1.243e-05 -3.6596e-05 2.0035e-08
1.3921e-07 2.0035e-08 -4.30205e-05
0.00253368 1.95897e-05 -1.09929e-05
1.95897e-05 0.000772805 4.03374e-06
-1.09929e-05 4.03374e-06 0.000791849
0.000919813 1.0976e-05 2.28663e-06
1.0976e-05 -3.0881e-05 -3.3945e-06
2.28663e-06 -3.3945e-06 -3.64768e-05
0.00249193 1.68888e-05 3.65744e-07
1.68888e-05 0.000748716 3.86311e-08
3.65744e-07 3.86311e-08 0.000768579
0.00245949 1.417e-05 9.17502e-06
1.417e-05 0.000729337 -4.13683e-06
9.17502e-06 -4.13683e-06 0.000749963
0.00107574 2.79033e-05 -7.61624e-07
2.79033e-05 5.49114e-05 -4.74545e-07
-7.61624e-07 -4.74545e-07 -1.46729e-05
0.00104179 7.45894e-06 -8.35491e-07
7.45894e-06 3.64962e-05 -1.26378e-06
-8.35491e-07 -1.26378e-06 -2.10472e-05
0.000971698 -8.7454e-06 -1.20662e-06
-8.7454e-06 7.67461e-07 -2.10953e-06
-1.20662e-06 -2.10953e-06 -3.41174e-05
0.00104005 1.01156e-05 -6.41253e-08
1.01156e-05 3.74872e-05 -3.76204e-09
-6.41253e-08 -3.76204e-09 -1.81945e-05
0.000940882 -1.00105e-05 -1.78004e-06
-1.00105e-05 -2.37217e-05 -3.29876e-06
-1.78004e-06 -3.29876e-06 -2.69914e-05
0.000986074 -8.936e-06 -1.57215e-08
-8.936e-06 5.08914e-06 -1.57879e-08
-1.57215e-08 -1.57879e-08 -2.71503e-05
0.00103116 1.13438e-05 1.35986e-07
1.13438e-05 3.40151e-05 8.58246e-07
1.35986e-07 8.58246e-07 -1.90686e-05
0.00234443 -1.14738e-05 -7.45923e-06
-1.14738e-05 0.000668498 -4.07784e-06
-7.45923e-06 -4.07784e-06 0.00069078
0.000930576 -8.23798e-06 -8.16354e-08
-8.23798e-06 -3.24246e-05 -1.53843e-08
-8.16354e-08 -1.53843e-08 -3.38126e-05
0.000996403 -6.04499e-06 4.8549e-07
-6.04499e-06 7.36595e-06 1.30305e-06
4.8549e-07 1.30305e-06 -2.27301e-05
0.00231114 -8.52647e-06 -5.70353e-07
-8.52647e-06 0.000648302 2.18389e-08
-5.70353e-07 2.18389e-08 0.00067162
0.000923803 -6.17436e-06 9.4365e-07
-6.17436e-06 -3.89309e-05 3.27448e-06
9.4365e-07 3.27448e-06 -3.87504e-05
0.00229276 -5.52487e-06 3.55023e-06
-5.52487e-06 0.000636709 4.05536e-06
3.55023e-06 4.05536e-06 0.000660714
0.000841407 8.73333e-06 1.4181e-06
8.73333e-06 0.000108828 -3.1848e-06
1.4181e-06 -3.1848e-06 2.20278e-05
0.000925879 -3.39586e-06 -2.84162e-07
-3.39586e-06 0.000115207 -2.99828e-06
-2.84162e-07 -2.99828e-06 4.77877e-05
0.00101848 -1.51179e-05 2.97065e-07
-1.51179e-05 0.000211049 2.40642e-06
2.97065e-07 2.40642e-06 0.000134702
0.00104492 2.78864e-05 7.88746e-08
2.78864e-05 4.10924e-05 5.79471e-08
7.88746e-08 5.79471e-08 -2.93152e-05
0.00110953 3.29915e-05 2.97541e-07
3.29915e-05 7.11686e-05 1.26944e-07
2.97541e-07 1.26944e-07 -3.38836e-06
0.00106599 2.95054e-05 -7.28516e-07
2.95054e-05 4.98979e-05 -3.87524e-07
-7.28516e-07 -3.87524e-07 -2.34125e-05
0.00104562 3.2034e-05 -8.84902e-07
3.2034e-05 4.04623e-05 -4.31666e-07
-8.84902e-07 -4.31666e-07 -3.58505e-05
0.00117287 3.46245e-05 -1.13353e-07
3.46245e-05 0.00010297 -1.79873e-08
-1.13353e-07 -1.79873e-08 2.60202e-05
0.00097318 2.59094e-05 6.49782e-07
2.59094e-05 8.1266e-06 9.02014e-07
6.49782e-07 9.02014e-07 -6.31718e-05
0.00103578 2.28013e-05 1.94321e-07
2.28013e-05 4.46835e-05 1.08571e-06
1.94321e-07 1.08571e-06 -3.39024e-05
0.00113033 3.31717e-05 4.11805e-09
3.31717e-05 8.76857e-05 -1.96685e-09
4.11805e-09 -1.96685e-09 8.58654e-06
0.00109374 2.79044e-05 2.05718e-07
2.79044e-05 7.34876e-05 4.64371e-07
2.05718e-07 4.64371e-07 -1.0105e-05
0.00117582 3.41458e-05 -5.93293e-07
3.41458e-05 0.00011203 6.77655e-08
-5.93293e-07 6.77655e-08 2.84652e-05
0.000514899 -2.82036e-06 -8.11254e-06
-2.82036e-06 -2.51865e-05 -1.36015e-05
-8.11254e-06 -1.36015e-05 -8.16335e-05
0.000846171 2.39413e-05 -1.83648e-06
2.39413e-05 7.0139e-05 -1.40621e-06
-1.83648e-06 -1.40621e-06 3.33783e-05
0.00033902 2.90131e-06 -1.46037e-07
2.90131e-06 -0.000289409 -7.80615e-07
-1.46037e-07 -7.80615e-07 -0.000314554
0.000524632 1.60699e-05 9.1816e-06
1.60699e-05 -0.000215913 3.76324e-06
9.1816e-06 3.76324e-06 -0.000183441
-1.16428e-05 1.33042e-05 -7.48392e-07
1.33042e-05 -0.00128152 -6.74892e-05
-7.48392e-07 -6.74892e-05 -0.00097348
0.00141641 -0.000151862 -5.11521e-05
-0.000151862 9.97388e-05 9.58497e-05
-5.11521e-05 9.58497e-05 -0.000321572
0.00690339 7.47835e-05 -7.70835e-06
7.47835e-05 0.00161046 -3.83931e-05
-7.70835e-06 -3.83931e-05 0.00122511
0.000461431 -0.000145788 -1.74087e-05
-0.000145788 -0.000234881 2.46609e-05
-1.74087e-05 2.46609e-05 -0.000632755
0.0068072 -2.42563e-05 -3.03891e-06
-2.42563e-05 0.000948509 4.61683e-06
-3.03891e-06 4.61683e-06 0.00108722
0.00175105 -0.000120317 3.36619e-06
-0.000120317 -4.12927e-05 -1.90755e-05
3.36619e-06 -1.90755e-05 -4.68301e-05
-0.000282372 -1.79923e-05 1.35447e-07
-1.79923e-05 -0.000692217 5.56634e-06
1.35447e-07 5.56634e-06 -0.000563233
0.00123355 -7.2288e-05 -1.1374e-06
-7.2288e-05 0.0003445 -5.4357e-05
-1.1374e-06 -5.4357e-05 -7.64719e-05
0.00706136 -0.000149709 -1.65384e-05
-0.000149709 0.00178081 4.53321e-05
-1.65384e-05 4.53321e-05 0.0012888
0.00358572 -0.000179377 6.03143e-06
-0.000179377 0.00101762 2.37868e-05
6.03143e-06 2.37868e-05 0.00102983
0.00162803 -6.08662e-05 -2.6176e-06
-6.08662e-05 0.000392845 -1.22465e-06
-2.6176e-06 -1.22465e-06 0.000602527
0.00106749 3.40534e-05 -1.12029e-06
3.40534e-05 6.4565e-05 -3.76005e-07
-1.12029e-06 -3.76005e-07 -2.20776e-05
0.00114936 2.94623e-05 -2.04762e-07
2.94623e-05 9.82063e-05 -1.23095e-07
-2.04762e-07 -1.23095e-07 9.41806e-06
0.00115059 1.25056e-05 2.1124e-07
1.25056e-05 9.94894e-05 4.51215e-07
2.1124e-07 4.51215e-07 1.43805e-05
0.000414209 -1.33096e-06 8.23622e-06
-1.33096e-06 -6.83661e-06 -7.36809e-06
8.23622e-06 -7.36809e-06 -0.0001374
0.00101279 -3.81558e-06 8.6691e-07
-3.81558e-06 4.671e-05 4.84284e-06
8.6691e-07 4.84284e-06 -3.08714e-05
0.00115384 1.99588e-05 2.61993e-07
1.99588e-05 9.95945e-05 1.35138e-06
2.61993e-07 1.35138e-06 5.53522e-06
0.00105338 2.66366e-06 2.13821e-07
2.66366e-06 4.35042e-05 9.47343e-07
2.13821e-07 9.47343e-07 -5.43315e-05
0.00117545 7.81078e-06 4.71971e-07
7.81078e-06 0.000117195 -3.17652e-08
4.71971e-07 -3.17652e-08 1.41248e-05
0.00108043 -1.37565e-05 3.34487e-07
-1.37565e-05 0.00010105 -4.38984e-07
3.34487e-07 -4.38984e-07 -4.43473e-05
8.01687e-05 8.62514e-06 -3.00812e-06
8.62514e-06 1.93477e-05 4.54127e-06
-3.00812e-06 4.54127e-06 -7.57901e-05
0.000893645 2.29836e-05 -3.40458e-06
2.29836e-05 2.59134e-05 -9.99846e-07
-3.40458e-06 -9.99846e-07 -0.000115232
0.000784163 1.30254e-05 -6.26033e-06
1.30254e-05 0.000270375 1.41311e-05
-6.26033e-06 1.41311e-05 0.000149203
0.00213849 -6.29172e-06 -1.24583e-05
-6.29172e-06 0.00101187 1.39047e-07
-1.24583e-05 1.39047e-07 0.000928253
0.000917224 -1.57544e-06 -4.74471e-07
-1.57544e-06 0.000162554 -5.59179e-07
-4.74471e-07 -5.59179e-07 5.9864e-05
0.000685128 -5.00571e-06 7.88482e-07
-5.00571e-06 -3.22545e-05 -1.78641e-07
7.88482e-07 -1.78641e-07 -0.000120943
-0.000221587 2.27243e-05 1.01799e-05
2.27243e-05 -0.000200313 1.77008e-05
1.01799e-05 1.77008e-05 -0.000335304
-0.000213594 2.14754e-05 1.40777e-05
2.14754e-05 -0.00021172 -4.55012e-05
1.40777e-05 -4.55012e-05 -0.000811549
0.00108591 -1.36118e-05 -5.44728e-07
-1.36118e-05 0.000240502 -2.50657e-06
-5.44728e-07 -2.50657e-06 0.000150076
0.00718214 0.00011716 2.58839e-05
0.00011716 0.00188409 -2.17973e-05
2.58839e-05 -2.17973e-05 0.00104612
0.00285993 0.000229202 -1.86551e-05
0.000229202 0.000805405 1.87057e-05
-1.86551e-05 1.87057e-05 0.000741971
0.0012137 -6.45486e-06 4.50417e-06
-6.45486e-06 0.00036626 -9.60237e-06
4.50417e-06 -9.60237e-06 0.000322209
5.13387e-05 6.53287e-05 1.52008e-06
6.53287e-05 -0.000502664 2.71672e-06
1.52008e-06 2.71672e-06 -0.000311646
0.000228591 -7.6259e-06 -2.17611e-06
-7.6259e-06 0.00010946 3.44889e-07
-2.17611e-06 3.44889e-07 -0.000129856
0.00103557 -7.27843e-06 -4.55161e-08
-7.27843e-06 0.000303011 1.1194e-08
-4.55161e-08 1.1194e-08 0.000224417
-0.00124935 3.08074e-05 8.79022e-06
3.08074e-05 -0.00114789 -1.63149e-06
8.79022e-06 -1.63149e-06 -0.00109512
0.00157308 -7.77678e-05 1.82195e-06
-7.77678e-05 0.000484694 3.66826e-05
1.82195e-06 3.66826e-05 4.62715e-05
0.00239066 0.00018913 -2.40183e-06
0.00018913 0.000734614 -3.12569e-06
-2.40183e-06 -3.12569e-06 0.000694698
0.00505434 0.000113964 1.323e-05
0.000113964 0.00109938 -1.23784e-05
1.323e-05 -1.23784e-05 0.000195468
0.0011547 -3.40911e-05 8.08116e-06
-3.40911e-05 0.00022471 -7.26062e-06
8.08116e-06 -7.26062e-06 7.61088e-05
-0.00106609 5.19669e-06 -9.65346e-06
5.19669e-06 -0.000948377 7.69375e-07
-9.65346e-06 7.69375e-07 -0.000972071
0.00247975 0.000129365 2.84478e-05
0.000129365 0.000840462 -1.17308e-05
2.84478e-05 -1.17308e-05 0.000760331
0.00329704 0.000166336 -4.19067e-05
0.000166336 0.000590793 2.5092e-05
-4.19067e-05 2.5092e-05 -8.36977e-05
0.000662321 -3.98729e-05 -1.79251e-06
-3.98729e-05 -0.000101743 4.25468e-05
-1.79251e-06 4.25468e-05 -0.000314005
0.000980174 -3.14304e-06 5.55912e-07
-3.14304e-06 0.000208174 3.37435e-07
5.55912e-07 3.37435e-07 -4.23589e-05
0.00092189 -5.43845e-05 -5.45767e-07
-5.43845e-05 0.000177969 2.94413e-07
-5.45767e-07 2.94413e-07 -9.42656e-05
0.00187208 -0.000105562 -1.18332e-06
-0.000105562 0.000506136 4.76285e-06
-1.18332e-06 4.76285e-06 0.000307301
0.000707491 -3.16902e-05 -8.21723e-07
-3.16902e-05 6.24806e-06 1.6999e-06
-8.21723e-07 1.6999e-06 -0.000163193
0.00100208 -6.48994e-05 6.2149e-07
-6.48994e-05 9.35166e-05 -3.68288e-07
6.2149e-07 -3.68288e-07 -7.48867e-05
0.0013015 -8.25577e-05 -2.81376e-06
-8.25577e-05 0.000121578 -5.11923e-07
-2.81376e-06 -5.11923e-07 -1.39853e-06
0.00124588 -5.49846e-05 -8.75293e-07
-5.49846e-05 0.000173659 -1.07806e-06
-8.75293e-07 -1.07806e-06 4.02995e-05
0.00123716 -6.05915e-05 -8.55367e-07
-6.05915e-05 0.000123995 -1.20994e-06
-8.55367e-07 -1.20994e-06 5.12446e-06
0.00162759 -6.27256e-05 -1.65252e-06
-6.27256e-05 0.000259191 -5.17241e-07
-1.65252e-06 -5.17241e-07 0.000172285
0.00134475 -5.26536e-05 2.88005e-07
-5.26536e-05 0.000168184 -1.91598e-06
2.88005e-07 -1.91598e-06 6.63781e-05
0.00123802 -5.00383e-05 4.70451e-07
-5.00383e-05 9.97651e-05 -5.61452e-07
4.70451e-07 -5.61452e-07 7.8421e-06
0.00131653 -4.53834e-05 -1.21449e-06
-4.53834e-05 0.000106362 -9.06659e-07
-1.21449e-06 -9.06659e-07 3.28768e-05
0.00126619 -3.9578e-05 -9.58418e-07
-3.9578e-05 7.25033e-05 -3.77124e-07
-9.58418e-07 -3.77124e-07 4.59353e-06
0.00118249 -4.15232e-05 -1.0146e-06
-4.15232e-05 6.80238e-05 8.91801e-07
-1.0146e-06 8.91801e-07 -8.51215e-06
0.00121281 -4.3232e-05 1.8287e-07
-4.3232e-05 7.44161e-05 -5.26792e-07
1.8287e-07 -5.26792e-07 -4.7893e-06
0.00120648 -3.95792e-05 -6.54343e-07
-3.95792e-05 0.000103996 1.52155e-06
-6.54343e-07 1.52155e-06 3.32105e-05
0.00119651 -4.24205e-05 -3.03003e-07
-4.24205e-05 9.23907e-05 2.37054e-07
-3.03003e-07 2.37054e-07 1.39561e-05
0.00119857 -4.58733e-05 7.67973e-07
-4.58733e-05 9.16976e-05 -1.39801e-06
7.67973e-07 -1.39801e-06 5.04478e-06
0.00106988 -3.22633e-05 -4.17147e-07
-3.22633e-05 5.18159e-05 1.3866e-07
-4.17147e-07 1.3866e-07 -1.06676e-05
0.000989578 -3.53672e-05 -8.94475e-08
-3.53672e-05 1.06357e-05 -4.0768e-07
-8.94475e-08 -4.0768e-07 -5.63569e-05
0.00118419 -4.04656e-05 1.22458e-06
-4.04656e-05 0.00010174 -1.76818e-06
1.22458e-06 -1.76818e-06 2.85722e-05
0.00101385 -4.40395e-06 -7.72734e-07
-4.40395e-06 3.46127e-05 9.72245e-07
-7.72734e-07 9.72245e-07 -2.16279e-05
0.00105276 -2.64704e-05 1.41285e-07
-2.64704e-05 4.99826e-05 1.73211e-07
1.41285e-07 1.73211e-07 -1.37448e-05
0.00107123 -3.48422e-05 4.60898e-07
-3.48422e-05 5.678e-05 -2.38876e-07
4.60898e-07 -2.38876e-07 -1.03276e-05
0.000936992 1.4566e-05 -2.13779e-06
1.4566e-05 -5.45023e-06 1.79451e-06
-2.13779e-06 1.79451e-06 -4.31002e-05
0.00102763 -1.00299e-06 -6.77339e-08
-1.00299e-06 3.85189e-05 -2.89556e-08
-6.77339e-08 -2.89556e-08 -1.66528e-05
0.00104078 -2.05873e-05 1.0165e-07
-2.05873e-05 4.91714e-05 -2.7253e-07
1.0165e-07 -2.7253e-07 -1.4499e-05
0.0015591 1.79186e-05 -7.04928e-06
1.79186e-05 0.000297125 3.14347e-06
-7.04928e-06 3.14347e-06 0.000292905
0.000970966 6.78351e-06 -3.06125e-08
6.78351e-06 5.14088e-06 2.79742e-08
-3.06125e-08 2.79742e-08 -3.18288e-05
0.00104833 -8.26834e-06 1.06524e-06
-8.26834e-06 4.22396e-05 -8.96664e-07
1.06524e-06 -8.96664e-07 -1.23511e-05
0.00118614 1.57823e-05 -1.01685e-05
1.57823e-05 0.000107641 3.95282e-06
-1.01685e-05 3.95282e-06 0.000119561
0.00124557 1.51339e-05 -2.24188e-06
1.51339e-05 0.00013752 6.00052e-07
-2.24188e-06 6.00052e-07 0.000132042
0.000978641 3.00133e-06 2.11563e-06
3.00133e-06 5.64108e-06 -1.90902e-06
2.11563e-06 -1.90902e-06 -3.15201e-05
0.000907771 1.25145e-05 2.75607e-06
1.25145e-05 -3.33783e-05 -3.37527e-06
2.75607e-06 -3.37527e-06 -3.9856e-05
0.00251529 1.95522e-05 3.28949e-07
1.95522e-05 0.000764019 4.68306e-08
3.28949e-07 4.68306e-08 0.000783083
0.00248188 1.68828e-05 1.03937e-05
1.68828e-05 0.000744074 -4.10332e-06
1.03937e-05 -4.10332e-06 0.000763905
0.001038 2.37257e-05 -9.44886e-07
2.37257e-05 3.6059e-05 -4.90326e-07
-9.44886e-07 -4.90326e-07 -3.31213e-05
0.00105397 4.40976e-06 -1.05025e-06
4.40976e-06 4.17238e-05 -1.12484e-06
-1.05025e-06 -1.12484e-06 -1.68242e-05
0.00106069 2.63093e-05 -2.95951e-08
2.63093e-05 4.76477e-05 5.85948e-08
-2.95951e-08 5.85948e-08 -2.21638e-05
0.000966944 -6.87555e-06 -1.65597e-06
-6.87555e-06 -2.30272e-07 -2.09893e-06
-1.65597e-06 -2.09893e-06 -3.73044e-05
0.00104642 7.60346e-06 -3.46676e-08
7.60346e-06 3.91248e-05 1.62892e-08
-3.46676e-08 1.62892e-08 -1.85653e-05
0.000929906 -1.14513e-05 -2.21565e-06
-1.14513e-05 -2.49575e-05 -3.34822e-06
-2.21565e-06 -3.34822e-06 -3.01145e-05
0.00097751 -8.10385e-06 -2.25111e-07
-8.10385e-06 3.30431e-06 -1.61209e-08
-2.25111e-07 -1.61209e-08 -3.14975e-05
0.0010506 1.03068e-05 5.99359e-07
1.03068e-05 4.27059e-05 1.51507e-06
5.99359e-07 1.51507e-06 -1.30714e-05
0.00239654 -1.42648e-05 -8.92046e-06
-1.42648e-05 0.000698312 -4.09129e-06
-8.92046e-06 -4.09129e-06 0.000719442
0.000922434 -9.9926e-06 -1.05712e-07
-9.9926e-06 -3.26232e-05 -1.62149e-08
-1.05712e-07 -1.62149e-08 -3.57933e-05
0.000987386 -8.26066e-06 7.65797e-07
-8.26066e-06 5.71389e-06 1.95105e-06
7.65797e-07 1.95105e-06 -2.64633e-05
0.00234914 -1.14419e-05 -5.0279e-07
-1.14419e-05 0.000670346 2.76119e-08
-5.0279e-07 2.76119e-08 0.000692749
0.000913817 -8.22464e-06 1.22959e-06
-8.22464e-06 -4.05768e-05 3.27116e-06
1.22959e-06 3.27116e-06 -4.18702e-05
0.00231865 -8.44877e-06 5.27328e-06
-8.44877e-06 0.000651641 4.04201e-06
5.27328e-06 4.04201e-06 0.000675033
0.000547269 -7.11016e-06 -1.32558e-05
-7.11016e-06 1.74947e-05 -4.09121e-06
-1.32558e-05 -4.09121e-06 -7.59459e-05
0.000789866 7.80559e-06 2.36778e-07
7.80559e-06 7.85374e-05 -1.37639e-06
2.36778e-07 -1.37639e-06 -8.09952e-06
0.000623785 -4.92306e-06 -7.41914e-07
-4.92306e-06 -7.34061e-05 4.99968e-07
-7.41914e-07 4.99968e-07 -0.000144946
0.00111409 3.017e-05 -4.98322e-07
3.017e-05 7.28508e-05 2.03924e-07
-4.98322e-07 2.03924e-07 1.4222e-06
0.00108604 2.76036e-05 7.05928e-07
2.76036e-05 6.22034e-05 7.09859e-07
7.05928e-07 7.09859e-07 -7.98194e-06
0.00106223 3.21485e-05 7.47536e-07
3.21485e-05 4.80085e-05 3.32488e-07
7.47536e-07 3.32488e-07 -2.68822e-05
0.00112173 3.32332e-05 -1.93293e-07
3.32332e-05 7.87289e-05 -1.8785e-07
-1.93293e-07 -1.8785e-07 2.71579e-06
0.00113481 3.09715e-05 -2.38723e-07
3.09715e-05 8.37214e-05 -1.1594e-07
-2.38723e-07 -1.1594e-07 1.06895e-05
0.00112074 3.36518e-05 3.09436e-07
3.36518e-05 7.72091e-05 1.74676e-07
3.09436e-07 1.74676e-07 6.71252e-07
0.00110264 3.42342e-05 -6.47465e-07
3.42342e-05 6.72913e-05 -3.51009e-07
-6.47465e-07 -3.51009e-07 -9.45672e-06
0.00105969 3.29526e-05 -5.6228e-07
3.29526e-05 5.11363e-05 -1.55073e-07
-5.6228e-07 -1.55073e-07 -2.82378e-05
0.00112413 3.31418e-05 4.69766e-07
3.31418e-05 8.44224e-05 3.34798e-07
4.69766e-07 3.34798e-07 5.46686e-06
0.00105592 2.5605e-05 5.13852e-07
2.5605e-05 5.43577e-05 6.08821e-07
5.13852e-07 6.08821e-07 -2.91588e-05
0.00115181 3.32397e-05 -9.60673e-08
3.32397e-05 0.000100361 -1.60018e-09
-9.60673e-08 -1.60018e-09 1.69e-05
0.00142216 3.89558e-05 1.4785e-08
3.89558e-05 0.000227968 -2.31937e-08
1.4785e-08 -2.31937e-08 0.000144319
0.00229821 -3.60255e-05 -6.38016e-06
-3.60255e-05 0.000994738 -2.11931e-06
-6.38016e-06 -2.11931e-06 0.00105525
0.000600201 -1.42932e-06 -1.55415e-06
-1.42932e-06 3.36848e-05 -2.97334e-06
-1.55415e-06 -2.97334e-06 -2.2693e-05
0.000864957 2.23345e-05 -1.72434e-07
2.23345e-05 7.85878e-05 3.4482e-06
-1.72434e-07 3.4482e-06 4.02406e-05
0.00205535 -2.69726e-05 1.30929e-05
-2.69726e-05 0.000719448 1.2261e-05
1.30929e-05 1.2261e-05 0.000832794
0.00149407 -0.000120848 3.90659e-06
-0.000120848 -0.000578346 -9.20754e-05
3.90659e-06 -9.20754e-05 -0.000517288
0.00341988 1.66209e-05 -7.15611e-06
1.66209e-05 -0.000210128 0.00010852
-7.15611e-06 0.00010852 -0.000683619
0.000124631 -0.000116889 -4.66055e-05
-0.000116889 -4.09737e-05 4.47398e-05
-4.66055e-05 4.47398e-05 -0.000180681
0.00096443 -2.77223e-05 -8.26143e-06
-2.77223e-05 0.000478607 -4.22674e-06
-8.26143e-06 -4.22674e-06 0.00025111
0.000820965 -5.99226e-05 3.6372e-06
-5.99226e-05 -3.93611e-05 7.15195e-07
3.6372e-06 7.15195e-07 0.000137017
0.00543512 -5.10645e-05 1.26419e-05
-5.10645e-05 0.000604463 5.07424e-05
1.26419e-05 5.07424e-05 8.62542e-05
-0.000948239 -0.000124164 -6.39427e-06
-0.000124164 -0.000901494 -1.27191e-05
-6.39427e-06 -1.27191e-05 -0.000859959
0.00132368 6.75305e-05 -4.2256e-05
6.75305e-05 0.000471347 -4.22497e-05
-4.2256e-05 -4.22497e-05 0.000300274
0.00588739 -0.000162819 4.25577e-06
-0.000162819 0.00152903 3.19863e-05
4.25577e-06 3.19863e-05 0.00089276
9.89926e-05 -0.00010605 3.65551e-05
-0.00010605 -0.000137371 2.18161e-05
3.65551e-05 2.18161e-05 -6.02585e-05
0.00104348 4.62715e-05 -2.64441e-06
4.62715e-05 6.73848e-05 -5.45511e-07
-2.64441e-06 -5.45511e-07 -1.59011e-05
0.00119873 3.46368e-05 1.54893e-06
3.46368e-05 0.000123101 2.17552e-07
1.54893e-06 2.17552e-07 3.70338e-05
0.00115463 3.01871e-05 1.88841e-07
3.01871e-05 0.000103442 3.42056e-07
1.88841e-07 3.42056e-07 1.45358e-05
-0.00108614 9.43696e-06 1.13253e-06
9.43696e-06 -0.000511703 -2.5656e-06
1.13253e-06 -2.5656e-06 -0.000632913
0.000783241 -6.43458e-06 7.50063e-07
-6.43458e-06 -2.8283e-05 4.57189e-06
7.50063e-07 4.57189e-06 -0.000184068
0.001105 5.99646e-06 2.48502e-06
5.99646e-06 8.68781e-05 1.74747e-06
2.48502e-06 1.74747e-06 -1.6179e-05
0.00119609 2.88678e-05 1.00245e-07
2.88678e-05 0.000169901 3.14191e-07
1.00245e-07 3.14191e-07 3.06136e-05
0.000570389 9.62563e-06 3.46083e-06
9.62563e-06 0.000179451 6.69403e-06
3.46083e-06 6.69403e-06 4.35315e-05
-0.000919613 5.49891e-05 -8.69427e-06
5.49891e-05 -0.000695926 1.1799e-05
-8.69427e-06 1.1799e-05 -0.00079879
0.00260237 -6.1646e-06 -1.19866e-05
-6.1646e-06 0.0012324 -6.08849e-07
-1.19866e-05 -6.08849e-07 0.00123899
0.000800319 -4.91855e-06 -9.94689e-07
-4.91855e-06 0.000184902 -1.70665e-07
-9.94689e-07 -1.70665e-07 9.13563e-05
0.000406256 -1.67395e-06 2.86103e-07
-1.67395e-06 -0.000156493 -1.15672e-06
2.86103e-07 -1.15672e-06 -0.000258763
0.000659833 -1.22884e-05 -3.6561e-06
-1.22884e-05 0.000301952 2.1055e-05
-3.6561e-06 2.1055e-05 7.98979e-05
0.00124485 -6.43151e-05 -2.87385e-06
-6.43151e-05 0.000376166 -3.63593e-05
-2.87385e-06 -3.63593e-05 8.24953e-05
0.000911282 -7.21539e-06 1.06754e-05
-7.21539e-06 0.000222397 -1.97179e-06
1.06754e-05 -1.97179e-06 0.000145266
0.00106826 0.000123633 -3.03849e-05
0.000123633 -0.000283938 3.83639e-05
-3.03849e-05 3.83639e-05 -0.0010503
-0.000243738 0.000131112 -4.89111e-05
0.000131112 -0.000253123 2.80627e-05
-4.89111e-05 2.80627e-05 -0.000235989
0.000778205 3.73475e-05 1.34027e-05
3.73475e-05 7.95218e-08 -9.02677e-06
1.34027e-05 -9.02677e-06 8.47315e-05
0.0013328 -4.02442e-05 2.99703e-06
-4.02442e-05 0.000340068 1.12317e-06
2.99703e-06 1.12317e-06 0.000163202
0.000903513 9.50911e-06 -7.09869e-07
9.50911e-06 0.000167711 -8.44148e-07
-7.09869e-07 -8.44148e-07 0.000163663
-0.00154492 6.76595e-05 -1.1698e-05
6.76595e-05 -0.000791895 3.67806e-06
-1.1698e-05 3.67806e-06 -0.000802464
0.00231773 -8.30313e-05 -1.30601e-05
-8.30313e-05 0.000571692 3.08799e-05
-1.30601e-05 3.08799e-05 3.77038e-05
0.00411338 0.000185762 -2.4628e-06
0.000185762 0.00093066 5.73314e-06
-2.4628e-06 5.73314e-06 0.000313874
0.00198519 -7.22444e-05 1.2768e-05
-7.22444e-05 8.22931e-05 -3.08627e-06
1.2768e-05 -3.08627e-06 0.000159536
-0.00335782 2.71122e-05 4.13735e-05
2.71122e-05 -0.00191234 -1.09083e-05
4.13735e-05 -1.09083e-05 -0.00192415
0.00467191 0.000141103 1.99278e-05
0.000141103 0.00136444 -1.29136e-05
1.99278e-05 -1.29136e-05 0.000867877
0.00111917 -1.21432e-06 -2.14317e-05
-1.21432e-06 0.000149864 2.97461e-05
-2.14317e-05 2.97461e-05 -0.000319925
0.000804986 -5.11257e-05 -6.64996e-07
-5.11257e-05 0.000143497 -2.03956e-06
-6.64996e-07 -2.03956e-06 -0.000148147
0.00111726 -9.27248e-05 -1.5758e-07
-9.27248e-05 0.000159854 1.24267e-06
-1.5758e-07 1.24267e-06 -5.13767e-05
0.00112173 -0.000114678 -6.09699e-06
-0.000114678 2.57745e-06 4.30997e-06
-6.09699e-06 4.30997e-06 -0.000113247
0.000806582 -6.01439e-05 -9.0889e-07
-6.01439e-05 6.9862e-06 -1.69723e-06
-9.0889e-07 -1.69723e-06 -0.000163091
0.00122913 -8.11935e-05 -1.75085e-06
-8.11935e-05 8.00959e-05 -1.64125e-06
-1.75085e-06 -1.64125e-06 -3.99548e-05
0.0017993 -7.68269e-05 -3.95329e-06
-7.68269e-05 0.000252909 -7.00598e-07
-3.95329e-06 -7.00598e-07 0.000192303
0.000873906 -5.44452e-05 3.92919e-07
-5.44452e-05 -5.47034e-05 -2.71818e-06
3.92919e-07 -2.71818e-06 -0.000170917
0.00125193 -5.66018e-05 9.10237e-07
-5.66018e-05 7.3211e-05 -4.40406e-07
9.10237e-07 -4.40406e-07 -1.14672e-05
0.00144854 -4.68403e-05 -1.34742e-06
-4.68403e-05 0.000121805 -1.4264e-06
-1.34742e-06 -1.4264e-06 6.96178e-05
0.00112709 -4.7927e-05 1.66628e-06
-4.7927e-05 4.2695e-05 -9.96898e-07
1.66628e-06 -9.96898e-07 -4.775e-05
0.00120851 -4.33856e-05 4.55541e-08
-4.33856e-05 4.96039e-05 -3.67501e-07
4.55541e-08 -3.67501e-07 -2.26261e-05
0.00128486 -3.68162e-05 -6.58839e-07
-3.68162e-05 5.21665e-05 -1.20091e-06
-6.58839e-07 -1.20091e-06 -8.86673e-07
0.0012765 -3.40589e-05 -8.4005e-07
-3.40589e-05 6.336e-05 -4.61094e-07
-8.4005e-07 -4.61094e-07 7.64398e-06
0.00128156 -3.9681e-05 -1.16849e-06
-3.9681e-05 9.10572e-05 9.81602e-08
-1.16849e-06 9.81602e-08 2.23596e-05
0.00123249 -3.81884e-05 3.13817e-07
-3.81884e-05 5.62742e-05 3.16406e-07
3.13817e-07 3.16406e-07 -1.06602e-05
0.000999371 -3.65248e-05 -1.02584e-06
-3.65248e-05 -1.16352e-05 1.09121e-06
-1.02584e-06 1.09121e-06 -8.29113e-05
0.00122941 -4.18541e-05 5.08018e-07
-4.18541e-05 9.1333e-05 -3.34801e-07
5.08018e-07 -3.34801e-07 1.55946e-05
0.00114593 -4.18504e-05 1.20833e-06
-4.18504e-05 3.92396e-05 -8.29427e-07
1.20833e-06 -8.29427e-07 -3.9046e-05
0.00109179 -3.48392e-05 -3.78456e-07
-3.48392e-05 5.79353e-05 9.01392e-07
-3.78456e-07 9.01392e-07 -5.84213e-06
0.00106567 -3.75521e-05 1.33425e-07
-3.75521e-05 3.83187e-05 -1.035e-07
1.33425e-07 -1.035e-07 -3.26617e-05
0.00100356 -3.99002e-05 6.81928e-07
-3.99002e-05 6.85247e-07 -1.47739e-06
6.81928e-07 -1.47739e-06 -7.89492e-05
0.00103061 -1.3617e-05 -1.03011e-06
-1.3617e-05 4.08409e-05 6.41937e-07
-1.03011e-06 6.41937e-07 -1.54801e-05
0.00109433 -3.20687e-05 -1.21185e-07
-3.20687e-05 6.29792e-05 -1.54206e-07
-1.21185e-07 -1.54206e-07 4.80768e-07
0.00107276 -3.64924e-05 1.07311e-07
-3.64924e-05 5.14091e-05 -1.13334e-06
1.07311e-07 -1.13334e-06 -1.49474e-05
0.000944662 1.32449e-05 -2.00928e-06
1.32449e-05 4.52146e-06 1.81713e-06
-2.00928e-06 1.81713e-06 -3.49216e-05
0.00102857 -5.29216e-06 1.52128e-07
-5.29216e-06 4.0985e-05 1.24248e-07
1.52128e-07 1.24248e-07 -1.51391e-05
0.000988547 -2.43618e-05 5.73181e-07
-2.43618e-05 1.9731e-05 -1.32196e-07
5.73181e-07 -1.32196e-07 -4.40115e-05
0.000862654 1.74474e-05 -3.72073e-06
1.74474e-05 -4.26899e-05 3.07064e-06
-3.72073e-06 3.07064e-06 -5.08323e-05
0.000960131 1.18689e-05 -9.87127e-08
1.18689e-05 5.46032e-06 -1.53865e-08
-9.87127e-08 -1.53865e-08 -3.21356e-05
0.00105134 -2.33672e-06 8.26688e-07
-2.33672e-06 4.92652e-05 -1.01353e-06
8.26688e-07 -1.01353e-06 -5.87947e-06
0.0024668 2.65677e-05 -5.20946e-06
2.65677e-05 0.000749285 1.56273e-06
-5.20946e-06 1.56273e-06 0.000766946
0.000873708 1.56459e-05 9.66247e-08
1.56459e-05 -4.26918e-05 5.37821e-08
9.66247e-08 5.37821e-08 -5.01642e-05
0.000982291 7.75784e-06 2.14188e-06
7.75784e-06 1.05307e-05 -1.82708e-06
2.14188e-06 -1.82708e-06 -2.64082e-05
0.00254133 2.22262e-05 2.37975e-07
2.22262e-05 0.000780572 4.95802e-08
2.37975e-07 4.95802e-08 0.000798876
0.000897434 1.40785e-05 3.19691e-06
1.40785e-05 -3.48767e-05 -3.28228e-06
3.19691e-06 -3.28228e-06 -4.19848e-05
0.00249509 1.95374e-05 1.14403e-05
1.95374e-05 0.000754373 -4.02957e-06
1.14403e-05 -4.02957e-06 0.000773458
0.00116853 2.29631e-05 -4.86252e-07
2.29631e-05 0.000101613 8.86367e-08
-4.86252e-07 8.86367e-08 3.42287e-05
0.00107373 2.26661e-05 -1.45354e-07
2.26661e-05 5.41261e-05 -9.1433e-08
-1.45354e-07 -9.1433e-08 -1.48432e-05
0.00105684 1.91597e-06 -1.15258e-06
1.91597e-06 4.42793e-05 -1.01132e-06
-1.15258e-06 -1.01132e-06 -1.48103e-05
0.000972565 -3.71128e-06 -2.029e-06
-3.71128e-06 3.3127e-06 -2.04228e-06
-2.029e-06 -2.04228e-06 -3.52896e-05
0.00104808 5.1473e-06 -5.35892e-08
5.1473e-06 3.93382e-05 3.91982e-08
-5.35892e-08 3.91982e-08 -1.93598e-05
0.00104595 2.50423e-05 7.29962e-07
2.50423e-05 4.05717e-05 6.00173e-07
7.29962e-07 6.00173e-07 -2.9483e-05
0.000913361 -1.26302e-05 -2.72114e-06
-1.26302e-05 -2.93171e-05 -3.3631e-06
-2.72114e-06 -3.3631e-06 -3.61465e-05
0.000973223 -3.45457e-06 -1.83897e-07
-3.45457e-06 2.43226e-06 -5.26768e-09
-1.83897e-07 -5.26768e-09 -3.45544e-05
0.00105055 8.11624e-06 8.24755e-07
8.11624e-06 4.15352e-05 1.40958e-06
8.24755e-07 1.40958e-06 -1.63126e-05
0.00245543 -1.69477e-05 -1.0349e-05
-1.69477e-05 0.000731778 -4.09833e-06
-1.0349e-05 -4.09833e-06 0.000751682
0.000911317 -1.14065e-05 -1.17803e-07
-1.14065e-05 -3.40399e-05 -1.76231e-08
-1.17803e-07 -1.76231e-08 -3.90751e-05
0.000981441 -7.10677e-06 9.25612e-07
-7.10677e-06 4.87495e-06 2.07858e-06
9.25612e-07 2.07858e-06 -2.98247e-05
0.00239886 -1.4268e-05 -4.56495e-07
-1.4268e-05 0.000698927 3.49564e-08
-4.56495e-07 3.49564e-08 0.000720203
0.000902673 -9.97174e-06 1.5459e-06
-9.97174e-06 -4.21722e-05 3.30243e-06
1.5459e-06 3.30243e-06 -4.52376e-05
0.00235196 -1.13861e-05 6.75813e-06
-1.13861e-05 0.00067125 4.01999e-06
6.75813e-06 4.01999e-06 0.000693785
0.000266043 -1.43416e-05 -5.86406e-06
-1.43416e-05 -0.000121594 -3.41907e-06
-5.86406e-06 -3.41907e-06 -0.000119226
0.000610441 -4.01985e-06 2.57506e-07
-4.01985e-06 5.87764e-05 -1.64543e-06
2.57506e-07 -1.64543e-06 -3.4287e-05
0.000741123 6.94067e-06 -1.73703e-07
6.94067e-06 5.00756e-05 2.78835e-07
-1.73703e-07 2.78835e-07 -3.64308e-05
0.0010952 2.99397e-05 1.32643e-07
2.99397e-05 6.30811e-05 1.02157e-07
1.32643e-07 1.02157e-07 -8.64194e-06
0.00118832 3.31733e-05 -4.69747e-07
3.31733e-05 0.000112364 2.36815e-07
-4.69747e-07 2.36815e-07 4.2662e-05
0.00110537 3.51724e-05 -3.76145e-07
3.51724e-05 6.53595e-05 1.14545e-07
-3.76145e-07 1.14545e-07 -8.41624e-06
0.00119738 3.44269e-05 2.91367e-07
3.44269e-05 0.000116752 -1.47183e-08
2.91367e-07 -1.47183e-08 4.10423e-05
0.00120735 3.24882e-05 4.15343e-07
3.24882e-05 0.000119362 1.06983e-07
4.15343e-07 1.06983e-07 4.6602e-05
0.00107357 3.27697e-05 6.43058e-07
3.27697e-05 5.37621e-05 4.89291e-07
6.43058e-07 4.89291e-07 -2.2361e-05
0.00110023 3.35384e-05 -1.0548e-07
3.35384e-05 7.01975e-05 5.08771e-08
-1.0548e-07 5.08771e-08 -8.92385e-06
0.00112669 3.46146e-05 2.4029e-08
3.46146e-05 7.87364e-05 2.34922e-08
2.4029e-08 2.34922e-08 2.33672e-06
0.00110317 3.53246e-05 -9.06596e-07
3.53246e-05 7.78843e-05 -1.96509e-07
-9.06596e-07 -1.96509e-07 -2.55966e-06
0.00118043 3.85384e-05 -1.04436e-06
3.85384e-05 0.00010993 5.40456e-07
-1.04436e-06 5.40456e-07 2.90019e-05
0.00112021 3.23591e-05 1.91008e-07
3.23591e-05 8.50046e-05 -1.54663e-07
1.91008e-07 -1.54663e-07 1.65545e-06
0.00123171 3.59104e-05 4.81005e-08
3.59104e-05 0.000138054 -1.74748e-07
4.81005e-08 -1.74748e-07 5.45918e-05
-0.00257556 -5.95132e-05 4.59651e-05
-5.95132e-05 -0.00139599 1.62537e-05
4.59651e-05 1.62537e-05 -0.00142614
0.00114241 -3.52453e-05 -1.73286e-07
-3.52453e-05 0.000325082 -6.60145e-07
-1.73286e-07 -6.60145e-07 0.000381311
0.000744718 7.98709e-07 1.33348e-05
7.98709e-07 0.000129655 6.75951e-06
1.33348e-05 6.75951e-06 7.36351e-05
0.000138853 -5.76084e-05 5.19393e-06
-5.76084e-05 -0.00039083 -1.42507e-06
5.19393e-06 -1.42507e-06 -0.000251931
0.00393624 -0.00018703 -1.5934e-05
-0.00018703 0.00119528 -5.47036e-05
-1.5934e-05 -5.47036e-05 0.00121214
0.00309 -6.76326e-05 2.87611e-05
-6.76326e-05 -1.91296e-05 2.90549e-05
2.87611e-05 2.90549e-05 -0.000371458
-0.000300063 -9.03795e-06 -8.03236e-06
-9.03795e-06 -0.000246986 5.0741e-05
-8.03236e-06 5.0741e-05 -0.00077252
0.00109429 7.20845e-05 -2.01174e-05
7.20845e-05 0.000156232 -3.46114e-05
-2.01174e-05 -3.46114e-05 -0.000265477
0.00174524 -0.000150771 7.92399e-07
-0.000150771 0.000286271 -3.85259e-06
7.92399e-07 -3.85259e-06 0.000284543
0.00362871 -7.12161e-05 2.86418e-05
-7.12161e-05 0.000419871 4.47215e-05
2.86418e-05 4.47215e-05 -0.000185785
0.000544516 9.83191e-05 -6.10358e-05
9.83191e-05 -0.000339276 -8.41923e-05
-6.10358e-05 -8.41923e-05 -0.000701638
0.00327546 -3.66309e-06 -9.39981e-06
-3.66309e-06 0.000390198 1.11665e-05
-9.39981e-06 1.11665e-05 -0.000206654
0.00190346 7.24621e-05 2.66487e-06
7.24621e-05 0.000510278 -1.5277e-06
2.66487e-06 -1.5277e-06 0.000406515
0.000998872 4.30233e-05 1.95694e-07
4.30233e-05 4.04714e-05 -2.33623e-07
1.95694e-07 -2.33623e-07 -4.11604e-05
0.00135272 3.5986e-05 1.93781e-06
3.5986e-05 0.000192284 3.02481e-07
1.93781e-06 3.02481e-07 0.000106782
3.01675e-05 -1.24031e-06 -2.0042e-06
-1.24031e-06 -5.34823e-05 1.04017e-06
-2.0042e-06 1.04017e-06 -0.000204685
0.00149437 3.36277e-05 3.38463e-06
3.36277e-05 0.000310927 4.87659e-07
3.38463e-06 4.87659e-07 0.000173183
0.00100615 7.70024e-05 4.36609e-06
7.70024e-05 0.00017743 1.97573e-06
4.36609e-06 1.97573e-06 8.28514e-05
-0.000649118 6.80437e-05 5.8876e-06
6.80437e-05 -0.000670594 6.589e-06
5.8876e-06 6.589e-06 -0.000740247
-0.000963437 -2.84112e-07 6.26284e-05
-2.84112e-07 -0.000617529 -3.22547e-06
6.26284e-05 -3.22547e-06 -0.000578623
0.000697856 -5.5391e-06 -8.51941e-06
-5.5391e-06 0.00010827 1.37724e-07
-8.51941e-06 1.37724e-07 9.5721e-05
-0.000577735 -3.53134e-06 1.27993e-05
-3.53134e-06 -0.000667171 -1.24739e-06
1.27993e-05 -1.24739e-06 -0.000770737
0.00149736 -3.43687e-05 -1.39625e-05
-3.43687e-05 0.000468109 5.49396e-06
-1.39625e-05 5.49396e-06 0.000250983
0.000460977 -5.84353e-05 -2.33205e-05
-5.84353e-05 0.000211356 3.01887e-06
-2.33205e-05 3.01887e-06 -0.000216307
0.000950684 7.15928e-06 8.19736e-06
7.15928e-06 0.000193214 -2.1186e-06
8.19736e-06 -2.1186e-06 0.000186831
0.00346314 0.000135186 3.42758e-05
0.000135186 0.000645721 -3.13133e-05
3.42758e-05 -3.13133e-05 -2.68134e-05
0.00316324 8.24201e-05 -7.87369e-05
8.24201e-05 0.00140162 2.25669e-05
-7.87369e-05 2.25669e-05 0.0013092
0.00160613 -7.63537e-05 1.11154e-06
-7.63537e-05 9.10684e-05 -6.19071e-07
1.11154e-06 -6.19071e-07 5.85131e-05
-0.000173707 3.65915e-05 -2.33168e-05
3.65915e-05 -0.00024891 4.23966e-06
-2.33168e-05 4.23966e-06 -0.000315056
0.00243049 4.35409e-05 -1.06905e-05
4.35409e-05 0.000304136 6.39604e-06
-1.06905e-05 6.39604e-06 -0.000352001
6.31831e-05 3.1878e-05 4.29667e-06
3.1878e-05 -2.28554e-06 2.24568e-06
4.29667e-06 2.24568e-06 -0.000326241
0.00166077 -6.53151e-05 8.83409e-06
-6.53151e-05 -0.00017328 -2.46624e-06
8.83409e-06 -2.46624e-06 -7.24463e-05
0.0047962 3.90102e-05 7.40095e-06
3.90102e-05 0.00130502 2.08915e-06
7.40095e-06 2.08915e-06 0.000778428
0.000795615 4.58796e-05 -4.01729e-06
4.58796e-05 0.000333021 -1.0302e-06
-4.01729e-06 -1.0302e-06 5.319e-05
0.000222004 -7.95586e-05 2.77099e-06
-7.95586e-05 -0.000247891 -8.1246e-06
2.77099e-06 -8.1246e-06 -0.000475865
0.00118359 -0.000113286 -8.83458e-08
-0.000113286 4.67884e-05 -4.89389e-07
-8.83458e-08 -4.89389e-07 -7.12182e-05
0.00119395 -9.86654e-05 -1.4484e-05
-9.86654e-05 -0.000114465 6.18807e-06
-1.4484e-05 6.18807e-06 -0.000155221
0.00117581 -8.00219e-05 -2.29407e-07
-8.00219e-05 4.86123e-05 -2.80437e-06
-2.29407e-07 -2.80437e-06 -6.85592e-05
0.00135602 -7.15109e-05 -5.58901e-08
-7.15109e-05 3.76343e-05 7.39678e-07
-5.58901e-08 7.39678e-07 -2.09642e-05
0.00172481 -5.04245e-05 -2.53593e-06
-5.04245e-05 0.000172766 1.41665e-06
-2.53593e-06 1.41665e-06 0.000155536
0.000921029 -5.11357e-05 3.21554e-06
-5.11357e-05 -9.04058e-05 6.97646e-09
3.21554e-06 6.97646e-09 -0.000172987
0.00128289 -4.48492e-05 -7.51495e-08
-4.48492e-05 3.52218e-05 7.53033e-08
-7.51495e-08 7.53033e-08 -1.55737e-05
0.00137539 -3.48676e-05 -4.10982e-08
-3.48676e-05 4.54029e-05 -1.35562e-07
-4.10982e-08 -1.35562e-07 1.50118e-05
0.00108756 -4.13578e-05 1.62231e-06
-4.13578e-05 -1.31614e-05 1.39222e-07
1.62231e-06 1.39222e-07 -8.41241e-05
0.00123977 -3.6179e-05 1.55552e-07
-3.6179e-05 2.97384e-05 2.7657e-07
1.55552e-07 2.7657e-07 -2.31881e-05
0.00122236 -3.04014e-05 -1.58612e-07
-3.04014e-05 9.47894e-06 7.73658e-08
-1.58612e-07 7.73658e-08 -3.37639e-05
0.00138073 -3.04204e-05 -5.50216e-07
-3.04204e-05 0.00010656 1.74235e-07
-5.50216e-07 1.74235e-07 5.66967e-05
0.00127377 -3.33561e-05 -3.43301e-07
-3.33561e-05 6.13936e-05 8.76007e-07
-3.43301e-07 8.76007e-07 6.82797e-06
0.00125913 -3.4296e-05 -6.42982e-07
-3.4296e-05 6.68768e-05 -9.00755e-07
-6.42982e-07 -9.00755e-07 8.06148e-06
0.00124398 -3.71857e-05 -1.06756e-06
-3.71857e-05 8.25159e-05 3.34341e-07
-1.06756e-06 3.34341e-07 1.59691e-05
0.00128809 -3.948e-05 4.23596e-07
-3.948e-05 9.57768e-05 -7.40755e-08
4.23596e-07 -7.40755e-08 2.70962e-05
0.00119991 -3.68706e-05 1.53768e-06
-3.68706e-05 4.06843e-05 9.10668e-07
1.53768e-06 9.10668e-07 -2.52906e-05
0.000966739 -3.36179e-05 -1.20161e-06
-3.36179e-05 -1.80287e-05 1.3711e-06
-1.20161e-06 1.3711e-06 -8.36588e-05
0.00114477 -3.83851e-05 9.2999e-08
-3.83851e-05 5.97725e-05 -5.41947e-08
9.2999e-08 -5.41947e-08 -1.09712e-05
0.00126039 -4.19523e-05 1.62616e-06
-4.19523e-05 0.000106857 -1.35292e-06
1.62616e-06 -1.35292e-06 3.19518e-05
0.00103585 -1.99771e-05 -8.32341e-07
-1.99771e-05 4.04519e-05 7.45286e-07
-8.32341e-07 7.45286e-07 -1.66466e-05
0.00110762 -3.46216e-05 5.08438e-08
-3.46216e-05 6.509e-05 -5.7858e-08
5.08438e-08 -5.7858e-08 1.27247e-06
0.000944058 -3.58122e-05 5.11008e-07
-3.58122e-05 -1.85049e-05 -1.64391e-06
5.11008e-07 -1.64391e-06 -8.96597e-05
0.000946453 8.57899e-06 -2.25669e-06
8.57899e-06 9.45024e-06 1.70197e-06
-2.25669e-06 1.70197e-06 -3.21349e-05
0.00104279 -1.41353e-05 -4.92563e-08
-1.41353e-05 4.57997e-05 3.07216e-08
-4.92563e-08 3.07216e-08 -1.04048e-05
0.001115 -3.1759e-05 4.36472e-07
-3.1759e-05 7.2348e-05 -6.20509e-07
4.36472e-07 -6.20509e-07 9.83879e-06
0.000846295 1.92546e-05 -3.89221e-06
1.92546e-05 -4.3085e-05 2.97869e-06
-3.89221e-06 2.97869e-06 -5.27551e-05
0.000955456 1.25167e-05 5.71475e-08
1.25167e-05 9.22287e-06 1.42439e-08
5.71475e-08 1.42439e-08 -3.01632e-05
0.00104292 -6.65103e-06 1.07601e-06
-6.65103e-06 4.7155e-05 -7.19857e-07
1.07601e-06 -7.19857e-07 -8.83965e-06
0.00253116 2.75952e-05 -1.31635e-05
2.75952e-05 0.000785783 3.64203e-06
-1.31635e-05 3.64203e-06 0.000802512
0.000879559 1.76098e-05 1.18037e-09
1.76098e-05 -3.42993e-05 2.75432e-08
1.18037e-09 2.75432e-08 -4.25335e-05
0.000982204 1.09047e-05 2.08533e-06
1.09047e-05 1.5971e-05 -1.83694e-06
2.08533e-06 -1.83694e-06 -2.16509e-05
0.00179745 2.24304e-05 4.83507e-06
2.24304e-05 0.000416853 -1.08063e-06
4.83507e-06 -1.08063e-06 0.000431354
0.000894491 1.58085e-05 3.60923e-06
1.58085e-05 -3.23986e-05 -3.13461e-06
3.60923e-06 -3.13461e-06 -3.99511e-05
0.00248987 2.21882e-05 1.21873e-05
2.21882e-05 0.000755942 -3.90788e-06
1.21873e-05 -3.90788e-06 0.000774351
0.0011382 2.11592e-05 -5.01185e-07
2.11592e-05 8.93842e-05 2.74737e-07
-5.01185e-07 2.74737e-07 2.33061e-05
0.00108523 2.00393e-05 2.25811e-07
2.00393e-05 6.02204e-05 3.10761e-07
2.25811e-07 3.10761e-07 -7.56299e-06
0.00103724 -5.81257e-07 -1.25273e-06
-5.81257e-07 3.77587e-05 -8.30956e-07
-1.25273e-06 -8.30956e-07 -2.17466e-05
0.00111027 2.15921e-05 5.41665e-07
2.15921e-05 7.25806e-05 2.74858e-07
5.41665e-07 2.74858e-07 3.82276e-06
0.00104398 2.01138e-06 1.53563e-08
2.01138e-06 3.86137e-05 4.60916e-08
1.53563e-08 4.60916e-08 -2.05931e-05
0.000978439 -5.09171e-06 -2.26926e-06
-5.09171e-06 8.08931e-06 -1.94974e-06
-2.26926e-06 -1.94974e-06 -3.16936e-05
0.000899147 -1.38887e-05 -3.22289e-06
-1.38887e-05 -3.29278e-05 -3.33235e-06
-3.22289e-06 -3.33235e-06 -4.10457e-05
0.000974373 -2.41969e-06 -1.30106e-07
-2.41969e-06 3.78146e-06 1.31528e-08
-1.30106e-07 1.31528e-08 -3.47775e-05
0.00104353 5.53543e-06 9.84844e-07
5.53543e-06 3.76096e-05 1.26362e-06
9.84844e-07 1.26362e-06 -2.1231e-05
0.00250467 -1.95695e-05 -1.15657e-05
-1.95695e-05 0.000760364 -4.06639e-06
-1.15657e-05 -4.06639e-06 0.000779138
0.000898419 -1.25764e-05 -1.36829e-07
-1.25764e-05 -3.66197e-05 -1.35951e-09
-1.36829e-07 -1.35951e-09 -4.33473e-05
0.000985226 -1.57775e-06 1.52789e-06
-1.57775e-06 7.99238e-06 2.1443e-06
1.52789e-06 2.1443e-06 -2.89746e-05
0.00245638 -1.69769e-05 -4.01335e-07
-1.69769e-05 0.00073177 3.95662e-08
-4.01335e-07 3.95662e-08 0.000751814
0.000893899 -1.13696e-05 1.9432e-06
-1.13696e-05 -4.24985e-05 3.33671e-06
1.9432e-06 3.33671e-06 -4.7421e-05
0.00240173 -1.42584e-05 8.15568e-06
-1.42584e-05 0.000699822 4.0133e-06
8.15568e-06 4.0133e-06 0.00072124
0.000524944 2.66191e-05 7.92908e-05
2.66191e-05 -0.000118296 6.36444e-06
7.92908e-05 6.36444e-06 -0.000261315
0.00147782 -1.75504e-05 2.67266e-07
-1.75504e-05 0.000578747 -1.24581e-06
2.67266e-07 -1.24581e-06 0.000590088
0.000625232 -1.08964e-06 1.1969e-05
-1.08964e-06 7.04561e-05 4.68475e-07
1.1969e-05 4.68475e-07 -2.22639e-05
0.00107162 2.95225e-05 9.74177e-07
2.95225e-05 5.09368e-05 6.01212e-08
9.74177e-07 6.01212e-08 -2.10544e-05
0.00108994 3.47782e-05 6.39939e-07
3.47782e-05 5.86416e-05 5.02135e-08
6.39939e-07 5.02135e-08 -1.5181e-05
0.00114942 3.30271e-05 4.98105e-08
3.30271e-05 9.45846e-05 -6.29509e-09
4.98105e-08 -6.29509e-09 2.51181e-05
0.00115077 3.55073e-05 -1.83736e-07
3.55073e-05 9.90296e-05 1.31038e-07
-1.83736e-07 1.31038e-07 2.98972e-05
0.00113502 3.61168e-05 -1.00166e-06
3.61168e-05 8.69693e-05 1.72222e-07
-1.00166e-06 1.72222e-07 1.37736e-05
0.00113783 3.40685e-05 4.65224e-07
3.40685e-05 8.78406e-05 2.43568e-07
4.65224e-07 2.43568e-07 8.9764e-06
0.00114229 3.48434e-05 8.56498e-07
3.48434e-05 8.61167e-05 2.23521e-07
8.56498e-07 2.23521e-07 1.00768e-05
0.00105035 3.4584e-05 -2.59536e-07
3.4584e-05 5.26267e-05 -9.5211e-08
-2.59536e-07 -9.5211e-08 -2.76225e-05
0.00079752 3.29884e-05 -7.05059e-07
3.29884e-05 -6.81983e-05 3.80622e-07
-7.05059e-07 3.80622e-07 -0.000143191
0.000967991 3.88996e-05 -1.12351e-06
3.88996e-05 1.39327e-05 3.62152e-07
-1.12351e-06 3.62152e-07 -6.81007e-05
0.001715 5.89203e-05 1.7887e-07
5.89203e-05 0.000372701 -2.63428e-07
1.7887e-07 -2.63428e-07 0.000288101
0.00117598 3.87421e-05 -5.7945e-07
3.87421e-05 0.000112422 9.36976e-08
-5.7945e-07 9.36976e-08 2.99462e-05
0.00105322 3.30853e-05 5.24953e-07
3.30853e-05 5.39497e-05 -7.632e-08
5.24953e-07 -7.632e-08 -2.9349e-05
0.00663426 -2.7173e-05 -1.69453e-05
-2.7173e-05 0.00171092 -7.21632e-06
-1.69453e-05 -7.21632e-06 0.00118375
-3.37036e-05 -7.19716e-05 1.00393e-05
-7.19716e-05 -0.000334389 3.05393e-06
1.00393e-05 3.05393e-06 -0.000412308
0.00199094 -3.71368e-05 1.45414e-06
-3.71368e-05 0.000801632 3.21696e-06
1.45414e-06 3.21696e-06 0.000863101
-0.00198158 -0.000104859 -2.85034e-05
-0.000104859 -0.00137703 -3.14312e-05
-2.85034e-05 -3.14312e-05 -0.00129003
0.00688744 -0.000144479 5.3533e-05
-0.000144479 0.00168534 5.4209e-05
5.3533e-05 5.4209e-05 0.000847022
0.00118536 5.22428e-05 2.14348e-05
5.22428e-05 0.000474971 -1.77329e-06
2.14348e-05 -1.77329e-06 0.000274912
0.0010903 9.18122e-05 -1.98047e-05
9.18122e-05 3.43519e-05 -2.44056e-05
-1.98047e-05 -2.44056e-05 -0.000216817
0.00419976 -0.000111876 1.26039e-05
-0.000111876 0.000893231 1.49229e-05
1.26039e-05 1.49229e-05 0.000393647
0.00118957 5.3138e-05 -4.81041e-05
5.3138e-05 2.16333e-05 -4.13495e-05
-4.81041e-05 -4.13495e-05 -0.000217288
0.00186041 8.22708e-05 1.2772e-05
8.22708e-05 0.000368679 1.74156e-06
1.2772e-05 1.74156e-06 0.000251256
0.00119396 6.22086e-05 -1.62633e-06
6.22086e-05 0.000178472 -2.20508e-06
-1.62633e-06 -2.20508e-06 6.91543e-05
0.000957667 3.9216e-05 2.02138e-06
3.9216e-05 1.64128e-05 4.29434e-07
2.02138e-06 4.29434e-07 -6.31477e-05
0.00232079 9.42955e-05 -9.00467e-06
9.42955e-05 0.000772309 -1.00702e-05
-9.00467e-06 -1.00702e-05 0.000685185
9.5729e-05 8.4061e-05 -4.08144e-06
8.4061e-05 -0.000437264 -1.06124e-06
-4.08144e-06 -1.06124e-06 -0.000480995
0.00122023 5.43084e-05 -1.56902e-05
5.43084e-05 -0.000324019 -1.87411e-06
-1.56902e-05 -1.87411e-06 -0.00067553
0.00154793 1.3294e-05 3.71424e-07
1.3294e-05 0.000353112 3.67389e-06
3.71424e-07 3.67389e-06 0.000270594
-0.00118125 -5.09499e-06 -1.41e-06
-5.09499e-06 -0.00100069 7.55176e-07
-1.41e-06 7.55176e-07 -0.0010305
0.00149455 -8.31655e-05 -1.73332e-05
-8.31655e-05 0.000228813 1.46109e-06
-1.73332e-05 1.46109e-06 7.40305e-05
0.00183537 9.17454e-06 2.45901e-05
9.17454e-06 0.000533737 -2.25662e-05
2.45901e-05 -2.25662e-05 1.58315e-05
0.000535994 3.67155e-06 -9.67883e-05
3.67155e-06 -0.000101011 1.55043e-05
-9.67883e-05 1.55043e-05 -0.000248559
0.00513409 0.000137075 -6.9374e-06
0.000137075 0.00171816 4.20644e-06
-6.9374e-06 4.20644e-06 0.00111605
0.00187807 -6.44761e-05 1.2397e-06
-6.44761e-05 -6.78859e-05 -7.3854e-07
1.2397e-06 -7.3854e-07 3.2018e-05
0.00388012 7.06428e-05 1.92055e-05
7.06428e-05 0.00100244 2.19778e-06
1.92055e-05 2.19778e-06 0.000537596
0.00147432 3.52674e-05 2.49941e-05
3.52674e-05 0.000346577 -1.01775e-05
2.49941e-05 -1.01775e-05 -7.37567e-05
0.00205455 -3.81829e-05 -2.00823e-06
-3.81829e-05 -9.14337e-05 -6.03108e-06
-2.00823e-06 -6.03108e-06 6.26239e-05
0.00103067 5.20501e-05 -2.04249e-05
5.20501e-05 0.000387645 1.299e-05
-2.04249e-05 1.299e-05 0.000225373
0.00144604 -0.00011353 8.75645e-06
-0.00011353 0.000184805 -6.26711e-06
8.75645e-06 -6.26711e-06 6.6239e-05
0.00153315 -9.90343e-05 -2.81503e-06
-9.90343e-05 3.6553e-05 1.39672e-06
-2.81503e-06 1.39672e-06 6.35794e-06
0.00175515 -4.85464e-05 -6.16668e-06
-4.85464e-05 8.23409e-05 2.8962e-06
-6.16668e-06 2.8962e-06 9.30174e-05
0.000836086 -6.52744e-05 6.09929e-06
-6.52744e-05 -0.000214537 4.49996e-07
6.09929e-06 4.49996e-07 -0.000269938
0.00133358 -4.75648e-05 9.96899e-07
-4.75648e-05 -1.25109e-05 8.33866e-07
9.96899e-07 8.33866e-07 -2.76278e-05
0.00137396 -2.69549e-05 4.40065e-07
-2.69549e-05 -5.89252e-06 2.13866e-06
4.40065e-07 2.13866e-06 -1.39965e-05
0.00110226 -4.29601e-05 2.01895e-06
-4.29601e-05 -5.99946e-05 1.16715e-06
2.01895e-06 1.16715e-06 -0.000109131
0.0013008 -3.44997e-05 2.97096e-07
-3.44997e-05 1.10848e-05 1.13393e-06
2.97096e-07 1.13393e-06 -2.00851e-05
0.00129605 -2.51841e-05 8.81761e-07
-2.51841e-05 1.20704e-05 1.53107e-06
8.81761e-07 1.53107e-06 -1.99632e-05
0.00121425 -3.57536e-05 1.44056e-06
-3.57536e-05 1.66233e-05 1.50185e-06
1.44056e-06 1.50185e-06 -3.62016e-05
0.00127554 -3.13444e-05 8.64257e-08
-3.13444e-05 3.54558e-05 7.11268e-07
8.64257e-08 7.11268e-07 -8.54063e-06
0.00128314 -2.6497e-05 -1.83029e-07
-2.6497e-05 4.2321e-05 7.13413e-07
-1.83029e-07 7.13413e-07 -2.99709e-06
0.00126821 -2.98822e-05 -7.22901e-07
-2.98822e-05 5.37226e-05 6.25363e-07
-7.22901e-07 6.25363e-07 4.95322e-06
0.00136398 -3.08528e-05 1.80333e-07
-3.08528e-05 0.000107095 -3.52017e-07
1.80333e-07 -3.52017e-07 5.279e-05
0.0012719 -3.26975e-05 1.04037e-06
-3.26975e-05 5.97564e-05 1.60199e-06
1.04037e-06 1.60199e-06 6.35327e-06
0.00126893 -3.41968e-05 4.07567e-08
-3.41968e-05 7.0915e-05 -2.71996e-07
4.07567e-08 -2.71996e-07 1.19794e-05
0.00126267 -3.33557e-05 -5.44259e-07
-3.33557e-05 7.52525e-05 -1.2684e-07
-5.44259e-07 -1.2684e-07 1.42613e-05
0.00103413 -3.26087e-05 -1.29046e-06
-3.26087e-05 -6.59922e-06 8.55301e-07
-1.29046e-06 8.55301e-07 -7.07843e-05
0.00123958 -3.7134e-05 3.92332e-08
-3.7134e-05 8.09102e-05 -1.23548e-07
3.92332e-08 -1.23548e-07 1.40927e-05
0.0013059 -3.94446e-05 1.39067e-06
-3.94446e-05 0.000106083 -1.91521e-07
1.39067e-06 -1.91521e-07 3.73845e-05
0.00106791 -2.55091e-05 -9.99241e-07
-2.55091e-05 4.63621e-05 1.03438e-06
-9.99241e-07 1.03438e-06 -1.21043e-05
0.00103357 -3.45175e-05 -2.52664e-07
-3.45175e-05 1.61026e-05 2.55145e-07
-2.52664e-07 2.55145e-07 -4.93239e-05
0.00126577 -3.98582e-05 9.47126e-07
-3.98582e-05 0.000119779 -1.16574e-06
9.47126e-07 -1.16574e-06 4.9561e-05
0.000939468 5.56794e-06 -2.25277e-06
5.56794e-06 9.39827e-06 1.61358e-06
-2.25277e-06 1.61358e-06 -3.48186e-05
0.00105364 -2.01902e-05 -4.98444e-08
-2.01902e-05 4.82605e-05 -1.38245e-08
-4.98444e-08 -1.38245e-08 -8.80786e-06
0.00112623 -3.44361e-05 5.10622e-07
-3.44361e-05 7.3589e-05 -1.03082e-06
5.10622e-07 -1.03082e-06 9.72819e-06
0.000822113 2.05149e-05 -4.14826e-06
2.05149e-05 -4.71973e-05 2.89451e-06
-4.14826e-06 2.89451e-06 -5.89785e-05
0.000956236 7.75945e-06 5.53775e-08
7.75945e-06 1.29566e-05 1.79787e-08
5.53775e-08 1.79787e-08 -2.84399e-05
0.00105295 -1.42714e-05 1.05095e-06
-1.42714e-05 4.9834e-05 -6.84642e-07
1.05095e-06 -6.84642e-07 -6.26115e-06
0.0025161 3.02746e-05 -1.32921e-05
3.02746e-05 0.000785917 3.44831e-06
-1.32921e-05 3.44831e-06 0.000801461
0.000869309 1.94233e-05 2.96179e-08
1.94233e-05 -3.18035e-05 1.46822e-08
2.96179e-08 1.46822e-08 -4.16011e-05
0.000967617 1.01406e-05 2.19829e-06
1.01406e-05 1.45426e-05 -1.68945e-06
2.19829e-06 -1.68945e-06 -2.47207e-05
0.00247772 2.7525e-05 1.67963e-07
2.7525e-05 0.000760544 5.78432e-08
1.67963e-07 5.78432e-08 0.000777329
0.000897427 1.77662e-05 3.83716e-06
1.77662e-05 -2.54556e-05 -3.0267e-06
3.83716e-06 -3.0267e-06 -3.37818e-05
0.00245811 2.48233e-05 1.25983e-05
2.48233e-05 0.000745366 -3.72254e-06
1.25983e-05 -3.72254e-06 0.000763119
0.00106111 2.48843e-05 -5.07406e-07
2.48843e-05 5.58025e-05 -1.54702e-08
-5.07406e-07 -1.54702e-08 -1.09623e-05
0.00111985 2.15597e-05 1.61521e-07
2.15597e-05 8.1171e-05 1.32893e-07
1.61521e-07 1.32893e-07 1.50639e-05
0.000925941 -1.1558e-06 -1.51345e-06
-1.1558e-06 -1.23985e-05 -7.58447e-07
-1.51345e-06 -7.58447e-07 -7.27626e-05
0.0010007 1.73425e-05 1.06091e-06
1.73425e-05 1.82307e-05 4.68667e-07
1.06091e-06 4.68667e-07 -4.99583e-05
0.000980582 -9.07507e-07 -2.80137e-08
-9.07507e-07 1.03354e-05 9.8039e-08
-2.80137e-08 9.8039e-08 -4.96099e-05
0.000975022 -6.90656e-06 -2.35776e-06
-6.90656e-06 1.06322e-05 -1.7771e-06
-2.35776e-06 -1.7771e-06 -3.04381e-05
0.00103137 2.07127e-06 1.17985e-06
2.07127e-06 3.30771e-05 1.11383e-06
1.17985e-06 1.11383e-06 -2.625e-05
0.000970606 -4.36999e-06 -6.18712e-08
-4.36999e-06 4.05041e-06 2.38287e-08
-6.18712e-08 2.38287e-08 -3.56971e-05
0.00089074 -1.54601e-05 -3.63588e-06
-1.54601e-05 -3.33547e-05 -3.24155e-06
-3.63588e-06 -3.24155e-06 -4.25222e-05
0.00252914 -2.22002e-05 -1.242e-05
-2.22002e-05 0.00077668 -3.97142e-06
-1.242e-05 -3.97142e-06 0.000794512
0.000886772 -1.37694e-05 -1.23101e-07
-1.37694e-05 -3.92039e-05 2.34132e-08
-1.23101e-07 2.34132e-08 -4.72105e-05
0.00097365 -1.79188e-06 1.96183e-06
-1.79188e-06 2.99735e-06 2.13511e-06
1.96183e-06 2.13511e-06 -3.55057e-05
0.0025161 -1.96046e-05 -3.37452e-07
-1.96046e-05 0.000765645 4.94034e-08
-3.37452e-07 4.94034e-08 0.000784484
0.000883712 -1.25225e-05 2.40603e-06
-1.25225e-05 -4.38124e-05 3.38354e-06
2.40603e-06 3.38354e-06 -5.04398e-05
0.00245965 -1.70067e-05 9.56633e-06
-1.70067e-05 0.00073289 4.01877e-06
9.56633e-06 4.01877e-06 0.000753066
0.00528945 4.24473e-05 8.00296e-06
4.24473e-05 0.00155842 6.04687e-07
8.00296e-06 6.04687e-07 0.00116398
-0.000663727 1.53515e-07 1.51065e-05
1.53515e-07 -0.000363914 5.39332e-07
1.51065e-05 5.39332e-07 -0.000376581
0.000622309 -1.47181e-05 7.21415e-06
-1.47181e-05 9.60447e-05 1.41652e-06
7.21415e-06 1.41652e-06 9.89787e-05
0.00108766 3.45996e-05 1.37858e-06
3.45996e-05 5.83746e-05 -1.4262e-07
1.37858e-06 -1.4262e-07 -1.55287e-05
0.00111605 3.29509e-05 6.00412e-07
3.29509e-05 7.94507e-05 -7.39782e-08
6.00412e-07 -7.39782e-08 1.02143e-05
0.00116705 3.66661e-05 6.69006e-09
3.66661e-05 0.000102465 -4.11897e-09
6.69006e-09 -4.11897e-09 2.93947e-05
0.00114022 3.56673e-05 -6.59855e-08
3.56673e-05 9.39903e-05 -1.05351e-07
-6.59855e-08 -1.05351e-07 2.48646e-05
0.00114318 3.63404e-05 7.55709e-07
3.63404e-05 0.000100498 4.77466e-07
7.55709e-07 4.77466e-07 3.04386e-05
0.000983999 3.48676e-05 -9.30866e-07
3.48676e-05 2.11089e-05 4.53245e-07
-9.30866e-07 4.53245e-07 -5.06705e-05
0.0009886 3.36836e-05 7.2762e-07
3.36836e-05 2.29712e-05 1.00543e-07
7.2762e-07 1.00543e-07 -5.70586e-05
0.000955036 3.50439e-05 5.88734e-07
3.50439e-05 7.60505e-06 -1.83986e-07
5.88734e-07 -1.83986e-07 -6.78033e-05
0.000979917 3.93687e-05 5.75668e-07
3.93687e-05 2.52517e-05 1.02606e-07
5.75668e-07 1.02606e-07 -5.71164e-05
0.000777145 3.84815e-05 -3.69344e-07
3.84815e-05 -8.14388e-05 9.71237e-08
-3.69344e-07 9.71237e-08 -0.000156172
0.00222425 6.48563e-05 2.78221e-07
6.48563e-05 0.000591444 4.68622e-07
2.78221e-07 4.68622e-07 0.000510981
0.00155603 7.07025e-05 1.99807e-07
7.07025e-05 0.000218308 -2.75822e-06
1.99807e-07 -2.75822e-06 0.000114577
0.00117853 5.08009e-05 9.57384e-08
5.08009e-05 0.00010808 1.60125e-07
9.57384e-08 1.60125e-07 2.40653e-05
0.0011564 3.88875e-05 1.92405e-07
3.88875e-05 0.000107412 -1.09594e-06
1.92405e-07 -1.09594e-06 2.34185e-05
0.000207893 -1.57933e-05 -3.00718e-05
-1.57933e-05 -0.000136565 -1.2553e-05
-3.00718e-05 -1.2553e-05 -0.000223413
0.00314967 -3.09082e-05 -2.07247e-05
-3.09082e-05 0.000503929 -2.97123e-06
-2.07247e-05 -2.97123e-06 9.71749e-05
0.00219823 -9.14185e-05 -2.5573e-05
-9.14185e-05 0.000824765 -8.19535e-06
-2.5573e-05 -8.19535e-06 0.000736147
0.00395982 -4.68109e-05 5.64142e-05
-4.68109e-05 0.000644279 1.54817e-05
5.64142e-05 1.54817e-05 5.88495e-05
0.00270988 0.000102487 2.12796e-05
0.000102487 0.000957108 3.397e-05
2.12796e-05 3.397e-05 0.000812258
0.000728333 4.13352e-05 -9.30719e-06
4.13352e-05 -2.03755e-05 -2.78125e-06
-9.30719e-06 -2.78125e-06 -0.000132172
0.00154958 2.69231e-05 1.98548e-05
2.69231e-05 3.71629e-05 7.19464e-06
1.98548e-05 7.19464e-06 -4.31822e-05
0.000664007 7.3996e-05 9.87553e-08
7.3996e-05 -0.000201638 2.53395e-06
9.87553e-08 2.53395e-06 -0.000319264
0.000382479 5.02792e-05 5.21886e-07
5.02792e-05 -0.000204211 9.05213e-07
5.21886e-07 9.05213e-07 -0.000318111
0.00125141 0.000105705 -2.28151e-05
0.000105705 -1.49553e-05 -2.33059e-05
-2.28151e-05 -2.33059e-05 -2.95564e-05
0.00139937 2.08464e-05 -9.72383e-05
2.08464e-05 0.000255506 -6.19249e-06
-9.72383e-05 -6.19249e-06 4.47497e-05
0.00485427 4.76415e-05 1.67331e-05
4.76415e-05 0.00146445 -7.65344e-07
1.67331e-05 -7.65344e-07 0.00108641
-0.00317095 -2.65485e-06 -6.26614e-05
-2.65485e-06 -0.00187688 3.79724e-06
-6.26614e-05 3.79724e-06 -0.0018519
0.00210432 -6.26874e-05 -4.47005e-06
-6.26874e-05 4.41803e-05 2.91886e-06
-4.47005e-06 2.91886e-06 0.000142862
0.000381837 5.74381e-05 2.3723e-05
5.74381e-05 0.000137731 -1.16528e-05
2.3723e-05 -1.16528e-05 -0.000176487
0.000612218 -1.38422e-05 2.25532e-05
-1.38422e-05 -0.000243235 -1.89956e-06
2.25532e-05 -1.89956e-06 -0.000632728
0.00176979 -4.61619e-05 -2.30848e-06
-4.61619e-05 -0.000190204 1.95594e-06
-2.30848e-06 1.95594e-06 -6.54495e-05
0.00101569 6.69819e-05 4.58127e-06
6.69819e-05 0.000200437 -3.51008e-06
4.58127e-06 -3.51008e-06 2.91493e-05
0.00159352 9.13089e-06 4.30216e-06
9.13089e-06 -0.000192101 -1.23725e-05
4.30216e-06 -1.23725e-05 -9.67595e-05
0.000839296 5.57475e-05 2.17111e-06
5.57475e-05 -0.000126797 -3.76371e-06
2.17111e-06 -3.76371e-06 -0.000179508
0.0017359 -9.76735e-05 7.82101e-06
-9.76735e-05 0.000126401 -1.81288e-06
7.82101e-06 -1.81288e-06 0.000106354
0.00155634 -4.68727e-05 2.43139e-06
-4.68727e-05 -1.16515e-05 -2.91905e-07
2.43139e-06 -2.91905e-07 5.4289e-06
0.00161822 1.27859e-06 -9.42335e-08
1.27859e-06 7.46826e-05 2.3513e-06
-9.42335e-08 2.3513e-06 7.57107e-05
0.00103976 -4.58231e-05 4.95219e-06
-4.58231e-05 -0.000149945 2.10714e-07
4.95219e-06 2.10714e-07 -0.000164456
0.00145697 -2.77878e-05 1.15793e-06
-2.77878e-05 4.06299e-05 5.60045e-07
1.15793e-06 5.60045e-07 2.9972e-05
0.00136747 -1.05299e-05 5.82339e-07
-1.05299e-05 1.72396e-05 1.84217e-06
5.82339e-07 1.84217e-06 -1.35672e-05
0.00123198 -3.40758e-05 1.77614e-06
-3.40758e-05 -1.91301e-05 1.3943e-06
1.77614e-06 1.3943e-06 -5.13113e-05
0.00133464 -2.57304e-05 2.52908e-07
-2.57304e-05 3.47799e-05 5.38991e-07
2.52908e-07 5.38991e-07 1.32447e-06
0.00138297 -1.8591e-05 -2.45351e-07
-1.8591e-05 6.57995e-05 1.14745e-06
-2.45351e-07 1.14745e-06 2.01981e-05
0.00132957 -3.2249e-05 5.40378e-07
-3.2249e-05 6.20833e-05 9.43117e-07
5.40378e-07 9.43117e-07 1.72968e-05
0.00126714 -2.75007e-05 -2.20602e-07
-2.75007e-05 3.88528e-05 1.53877e-08
-2.20602e-07 1.53877e-08 -6.86968e-06
0.0012673 -2.6924e-05 4.86353e-07
-2.6924e-05 5.00368e-05 6.23197e-07
4.86353e-07 6.23197e-07 -4.30821e-06
0.00117716 -2.94743e-05 -5.53283e-08
-2.94743e-05 1.13112e-05 8.23274e-07
-5.53283e-08 8.23274e-07 -3.6412e-05
0.00127469 -2.96533e-05 -4.81011e-07
-2.96533e-05 6.39521e-05 -3.38811e-07
-4.81011e-07 -3.38811e-07 1.05219e-05
0.00134444 -3.07288e-05 -1.27629e-07
-3.07288e-05 0.000105125 2.4066e-08
-1.27629e-07 2.4066e-08 4.64105e-05
0.00127968 -3.40961e-05 7.53904e-07
-3.40961e-05 7.53999e-05 3.08806e-07
7.53904e-07 3.08806e-07 1.63437e-05
0.0012604 -3.32326e-05 1.00178e-07
-3.32326e-05 7.40509e-05 -2.16573e-07
1.00178e-07 -2.16573e-07 1.28904e-05
0.00125914 -3.17669e-05 -7.07546e-07
-3.17669e-05 8.57139e-05 3.12586e-07
-7.07546e-07 3.12586e-07 2.49684e-05
0.000940542 -2.52193e-05 -1.68229e-06
-2.52193e-05 -3.31117e-05 1.15952e-06
-1.68229e-06 1.15952e-06 -9.22846e-05
0.00110627 -3.36301e-05 -2.20718e-07
-3.36301e-05 3.00928e-05 1.02961e-07
-2.20718e-07 1.02961e-07 -3.39406e-05
0.00123396 -3.70707e-05 1.03908e-06
-3.70707e-05 7.86853e-05 -6.97212e-07
1.03908e-06 -6.97212e-07 1.16029e-05
0.000950976 8.85364e-07 -2.14985e-06
8.85364e-07 1.49834e-05 1.68898e-06
-2.14985e-06 1.68898e-06 -3.23236e-05
0.00106844 -2.46984e-05 2.8429e-08
-2.46984e-05 4.67447e-05 6.13075e-08
2.8429e-08 6.13075e-08 -1.17033e-05
0.00111226 -3.55931e-05 4.95334e-07
-3.55931e-05 5.57948e-05 -7.88394e-07
4.95334e-07 -7.88394e-07 -9.42812e-06
0.000788905 2.15047e-05 -4.40697e-06
2.15047e-05 -5.52496e-05 2.77126e-06
-4.40697e-06 2.77126e-06 -6.95705e-05
0.000956428 3.85123e-06 -1.78728e-08
3.85123e-06 1.55983e-05 -1.77005e-08
-1.78728e-08 -1.77005e-08 -2.83989e-05
0.00107136 -2.03145e-05 9.80979e-07
-2.03145e-05 5.60511e-05 -9.2086e-07
9.80979e-07 -9.2086e-07 -9.92545e-07
0.00254139 3.28726e-05 -1.36245e-05
3.28726e-05 0.000806674 3.28431e-06
-1.36245e-05 3.28431e-06 0.000820607
0.000851417 2.07456e-05 6.88937e-08
2.07456e-05 -3.28291e-05 3.66279e-08
6.88937e-08 3.66279e-08 -4.4767e-05
0.00096391 6.89227e-06 2.27446e-06
6.89227e-06 1.54911e-05 -1.52967e-06
2.27446e-06 -1.52967e-06 -2.57167e-05
0.0024727 3.01396e-05 1.72523e-07
3.01396e-05 0.000765786 6.34859e-08
1.72523e-07 6.34859e-08 0.000781271
0.000892877 1.96e-05 4.04954e-06
1.96e-05 -2.02901e-05 -2.93076e-06
4.04954e-06 -2.93076e-06 -3.02115e-05
0.00242525 2.74164e-05 1.28601e-05
2.74164e-05 0.000735778 -3.54918e-06
1.28601e-05 -3.54918e-06 0.000752616
0.0010967 2.95037e-05 -6.30175e-07
2.95037e-05 7.56547e-05 -3.24455e-07
-6.30175e-07 -3.24455e-07 8.33287e-06
0.0011407 2.62899e-05 7.08437e-08
2.62899e-05 9.44349e-05 5.96487e-08
7.08437e-08 5.96487e-08 2.80512e-05
0.000945295 4.684e-06 -1.30478e-06
4.684e-06 2.75147e-06 -6.11684e-07
-1.30478e-06 -6.11684e-07 -5.82556e-05
0.00110129 2.1961e-05 7.03117e-07
2.1961e-05 7.28566e-05 1.61368e-07
7.03117e-07 1.61368e-07 6.71998e-06
0.000934292 -7.34269e-07 -2.5513e-07
-7.34269e-07 -7.31169e-06 -1.04581e-07
-2.5513e-07 -1.04581e-07 -6.77841e-05
0.000967629 -8.04186e-06 -2.39286e-06
-8.04186e-06 1.2825e-05 -1.56824e-06
-2.39286e-06 -1.56824e-06 -2.98922e-05
0.000923893 -2.85289e-06 1.22053e-06
-2.85289e-06 -1.70142e-05 9.52001e-07
1.22053e-06 9.52001e-07 -7.74646e-05
0.000964716 -6.74797e-06 -9.74725e-09
-6.74797e-06 5.61028e-06 3.06918e-08
-9.74725e-09 3.06918e-08 -3.54643e-05
0.000884964 -1.74015e-05 -3.92596e-06
-1.74015e-05 -3.09193e-05 -3.09882e-06
-3.92596e-06 -3.09882e-06 -4.13614e-05
0.000962772 -3.69269e-06 2.28673e-06
-3.69269e-06 5.60864e-09 2.06049e-06
2.28673e-06 2.06049e-06 -3.97085e-05
0.000878816 -1.53032e-05 -8.37264e-08
-1.53032e-05 -3.95418e-05 3.31019e-08
-8.37264e-08 3.31019e-08 -4.8588e-05
0.00252522 -2.48553e-05 -1.29347e-05
-2.48553e-05 0.000779614 -3.82695e-06
-1.29347e-05 -3.82695e-06 0.000796576
0.00255495 -2.22224e-05 -2.67518e-07
-2.22224e-05 0.000789004 5.77526e-08
-2.67518e-07 5.77526e-08 0.000806824
0.000874476 -1.36528e-05 2.92787e-06
-1.36528e-05 -4.54756e-05 3.3822e-06
2.92787e-06 3.3822e-06 -5.33653e-05
0.00252245 -1.9655e-05 1.09343e-05
-1.9655e-05 0.00076843 4.00965e-06
1.09343e-05 4.00965e-06 0.000787353
0.000238528 -2.14939e-05 -4.41242e-05
-2.14939e-05 -0.000184598 -7.19731e-06
-4.41242e-05 -7.19731e-06 -0.000272493
0.00165196 2.10649e-05 -1.31027e-05
2.10649e-05 -8.54713e-05 -4.49242e-06
-1.31027e-05 -4.49242e-06 -0.000464502
0.00291696 -6.59589e-05 -2.51394e-05
-6.59589e-05 0.00104064 -3.46206e-06
-2.51394e-05 -3.46206e-06 0.000975843
0.00119666 3.91357e-05 1.42143e-06
3.91357e-05 0.000116399 3.5059e-07
1.42143e-06 3.5059e-07 4.54567e-05
0.00118831 3.70483e-05 8.36392e-07
3.70483e-05 0.000113046 -2.33439e-07
8.36392e-07 -2.33439e-07 4.0084e-05
0.00112263 3.5624e-05 4.42854e-07
3.5624e-05 8.55505e-05 -1.49459e-07
4.42854e-07 -1.49459e-07 1.64483e-05
0.00108317 3.64123e-05 3.85744e-09
3.64123e-05 6.87605e-05 1.94609e-08
3.85744e-09 1.94609e-08 -3.15403e-06
0.00111047 3.63029e-05 -1.68388e-07
3.63029e-05 8.58616e-05 -1.67412e-07
-1.68388e-07 -1.67412e-07 1.54857e-05
0.000898879 3.67496e-05 -9.49003e-07
3.67496e-05 -1.62628e-05 5.51246e-07
-9.49003e-07 5.51246e-07 -8.47667e-05
0.00115264 3.77659e-05 1.6079e-06
3.77659e-05 0.000102921 -7.85114e-07
1.6079e-06 -7.85114e-07 2.70148e-05
0.00107295 4.10548e-05 9.5702e-07
4.10548e-05 7.51796e-05 -1.12179e-06
9.5702e-07 -1.12179e-06 -7.57613e-06
0.00108841 4.2975e-05 -7.31055e-08
4.2975e-05 6.71256e-05 -6.36696e-08
-7.31055e-08 -6.36696e-08 -7.28901e-06
0.00165252 5.69087e-05 1.92976e-07
5.69087e-05 0.000327699 2.22001e-07
1.92976e-07 2.22001e-07 0.000248887
0.00137525 5.92674e-05 -6.50137e-08
5.92674e-05 0.000139822 -2.05165e-06
-6.50137e-08 -2.05165e-06 5.35449e-05
0.00168732 6.62203e-05 -7.47389e-06
6.62203e-05 0.000144568 -1.80993e-06
-7.47389e-06 -1.80993e-06 3.44544e-05
0.0012598 6.55521e-05 2.36174e-06
6.55521e-05 8.20527e-05 1.66741e-06
2.36174e-06 1.66741e-06 -2.01087e-05
0.000783512 4.47509e-05 -3.87006e-07
4.47509e-05 -8.89418e-05 1.69265e-06
-3.87006e-07 1.69265e-06 -0.000172475
0.00192575 -3.23514e-05 4.94015e-06
-3.23514e-05 5.45441e-05 6.5562e-06
4.94015e-06 6.5562e-06 -1.65936e-05
0.000871063 4.72346e-06 2.99496e-06
4.72346e-06 -3.55921e-05 1.32923e-06
2.99496e-06 1.32923e-06 -0.000170733
0.000538323 -2.91177e-05 -2.87124e-05
-2.91177e-05 -0.000460917 -1.45275e-05
-2.87124e-05 -1.45275e-05 -0.000792791
0.00301147 9.01031e-05 1.72293e-05
9.01031e-05 0.000603117 2.79794e-05
1.72293e-05 2.79794e-05 0.000401465
0.00176611 3.82394e-05 7.0093e-06
3.82394e-05 7.5559e-05 1.16126e-06
7.0093e-06 1.16126e-06 -2.36773e-05
-0.000475149 6.61053e-05 -1.6106e-07
6.61053e-05 -0.000747269 5.39312e-06
-1.6106e-07 5.39312e-06 -0.000866607
0.00191219 8.75699e-06 7.26535e-06
8.75699e-06 0.000527256 -4.26611e-06
7.26535e-06 -4.26611e-06 0.000474202
0.000354598 7.15174e-06 -1.81215e-05
7.15174e-06 1.94357e-05 -1.93776e-07
-1.81215e-05 -1.93776e-07 -9.51004e-05
0.00114657 0.000104694 6.41584e-05
0.000104694 -0.000424233 -4.64636e-06
6.41584e-05 -4.64636e-06 -0.000778843
0.00202643 -5.83787e-05 -1.26987e-07
-5.83787e-05 -3.39959e-05 6.22695e-06
-1.26987e-07 6.22695e-06 5.70644e-05
0.000838224 5.94956e-05 3.95197e-05
5.94956e-05 -5.30761e-05 -1.52192e-05
3.95197e-05 -1.52192e-05 -0.000287368
0.00201926 -1.78212e-06 3.5167e-06
-1.78212e-06 2.79781e-05 -1.73419e-07
3.5167e-06 -1.73419e-07 9.04693e-05
0.00111034 6.11183e-05 9.665e-07
6.11183e-05 1.10651e-05 -3.0326e-06
9.665e-07 -3.0326e-06 -4.4635e-05
0.000920135 4.67226e-05 -4.32595e-06
4.67226e-05 -0.000301969 3.35655e-07
-4.32595e-06 3.35655e-07 -0.000351847
0.00037901 3.68081e-05 -3.4188e-06
3.68081e-05 -0.00045923 -4.25939e-06
-3.4188e-06 -4.25939e-06 -0.000535786
0.00137338 -4.49567e-05 7.91016e-06
-4.49567e-05 -0.000100883 -1.45464e-06
7.91016e-06 -1.45464e-06 -7.71897e-05
0.00150593 -4.97483e-07 1.6344e-06
-4.97483e-07 3.47238e-05 3.05898e-07
1.6344e-06 3.05898e-07 2.88018e-05
0.00156607 1.82639e-05 -6.11558e-07
1.82639e-05 0.000120767 8.1652e-07
-6.11558e-07 8.1652e-07 7.58787e-05
0.00159219 -2.83629e-05 3.25874e-07
-2.83629e-05 0.000111136 8.29221e-08
3.25874e-07 8.29221e-08 9.80567e-05
0.00149013 -1.09037e-05 -2.86787e-07
-1.09037e-05 8.06332e-05 2.43702e-08
-2.86787e-07 2.43702e-08 4.83612e-05
0.00145045 -2.85381e-06 -2.73391e-08
-2.85381e-06 8.07944e-05 1.3919e-06
-2.73391e-08 1.3919e-06 2.96575e-05
0.00140349 -2.64195e-05 -6.26921e-07
-2.64195e-05 7.16257e-05 -2.12213e-07
-6.26921e-07 -2.12213e-07 3.67486e-05
0.00136374 -1.98847e-05 -7.67224e-07
-1.98847e-05 6.30891e-05 -4.93049e-07
-7.67224e-07 -4.93049e-07 1.7548e-05
0.00129691 -2.02021e-05 -1.21835e-07
-2.02021e-05 4.38491e-05 1.359e-06
-1.21835e-07 1.359e-06 -1.46532e-05
0.00124802 -2.84357e-05 -6.22548e-07
-2.84357e-05 3.37904e-05 -9.44359e-07
-6.22548e-07 -9.44359e-07 -1.23145e-05
0.00125854 -2.66326e-05 6.99928e-08
-2.66326e-05 4.6465e-05 -3.29661e-07
6.99928e-08 -3.29661e-07 -7.90257e-06
0.001262 -2.80597e-05 -1.1134e-07
-2.80597e-05 5.68544e-05 5.31863e-07
-1.1134e-07 5.31863e-07 -3.15774e-06
0.00118174 -2.84905e-05 -5.4076e-07
-2.84905e-05 1.9017e-05 1.36261e-07
-5.4076e-07 1.36261e-07 -3.35298e-05
0.00125734 -2.92458e-05 -1.33265e-07
-2.92458e-05 6.24917e-05 -2.2017e-07
-1.33265e-07 -2.2017e-07 4.32122e-06
0.00121486 -2.82285e-05 -6.98568e-07
-2.82285e-05 5.36196e-05 3.18012e-07
-6.98568e-07 3.18012e-07 -6.54459e-06
0.00125891 -3.31164e-05 7.88522e-07
-3.31164e-05 7.3213e-05 -2.54229e-07
7.88522e-07 -2.54229e-07 1.18825e-05
0.00117759 -3.08097e-05 1.4348e-07
-3.08097e-05 4.60585e-05 -1.3045e-07
1.4348e-07 -1.3045e-07 -1.50107e-05
0.00114888 -2.62113e-05 -1.37396e-06
-2.62113e-05 5.161e-05 8.22998e-07
-1.37396e-06 8.22998e-07 -6.36266e-06
0.000965726 -4.11898e-06 -2.27198e-06
-4.11898e-06 1.51533e-05 1.59273e-06
-2.27198e-06 1.59273e-06 -3.42579e-05
0.00100963 -2.56934e-05 -3.52099e-07
-2.56934e-05 2.07683e-06 2.16227e-07
-3.52099e-07 2.16227e-07 -5.68105e-05
0.00116824 -3.44991e-05 7.44756e-07
-3.44991e-05 6.20041e-05 -6.76436e-07
7.44756e-07 -6.76436e-07 -1.87578e-06
0.00075334 2.25693e-05 -4.47341e-06
2.25693e-05 -6.50232e-05 2.77117e-06
-4.47341e-06 2.77117e-06 -8.25608e-05
0.000958162 -1.40431e-06 9.85773e-09
-1.40431e-06 1.64313e-05 4.75259e-08
9.85773e-09 4.75259e-08 -3.06436e-05
0.00107212 -2.40328e-05 1.11962e-06
-2.40328e-05 4.85964e-05 -9.5393e-07
1.11962e-06 -9.5393e-07 -9.83412e-06
0.00259037 3.5388e-05 -1.40938e-05
3.5388e-05 0.000839498 3.11792e-06
-1.40938e-05 3.11792e-06 0.000851592
0.000830555 2.19245e-05 -6.00328e-09
2.19245e-05 -3.49612e-05 5.53136e-09
-6.00328e-09 5.53136e-09 -4.94836e-05
0.000971701 1.98401e-06 2.25632e-06
1.98401e-06 2.10453e-05 -1.57524e-06
2.25632e-06 -1.57524e-06 -2.27427e-05
0.00250223 3.26671e-05 1.92786e-07
3.26671e-05 0.0007887 7.54001e-08
1.92786e-07 7.54001e-08 0.000802526
0.000879437 2.09687e-05 4.35674e-06
2.09687e-05 -1.90954e-05 -2.79243e-06
4.35674e-06 -2.79243e-06 -3.11854e-05
0.00242952 2.99685e-05 1.32562e-05
2.99685e-05 0.000745739 -3.40894e-06
1.32562e-05 -3.40894e-06 0.000761168
0.00101996 3.29198e-05 -5.55606e-07
3.29198e-05 3.32755e-05 -4.45291e-07
-5.55606e-07 -4.45291e-07 -3.51768e-05
0.00107784 2.94155e-05 -7.78073e-08
2.94155e-05 6.61874e-05 -1.43764e-07
-7.78073e-08 -1.43764e-07 -1.01261e-06
0.00106343 1.36473e-05 -1.05319e-06
1.36473e-05 6.17818e-05 -4.02774e-07
-1.05319e-06 -4.02774e-07 4.53582e-07
0.00122381 2.78748e-05 5.24578e-07
2.78748e-05 0.000134743 -4.31164e-08
5.24578e-07 -4.31164e-08 6.87296e-05
0.000994673 6.07569e-06 -2.18746e-07
6.07569e-06 2.74849e-05 -1.02525e-07
-2.18746e-07 -1.02525e-07 -3.3292e-05
0.000963566 -7.56055e-06 -2.35948e-06
-7.56055e-06 1.75242e-05 -1.41461e-06
-2.35948e-06 -1.41461e-06 -2.73831e-05
0.000941164 1.50425e-06 9.65017e-07
1.50425e-06 -3.05192e-06 4.88729e-07
9.65017e-07 4.88729e-07 -6.35562e-05
0.000956271 -8.42836e-06 -4.27529e-09
-8.42836e-06 7.759e-06 2.94679e-08
-4.27529e-09 2.94679e-08 -3.50375e-05
0.000877299 -1.94699e-05 -4.15722e-06
-1.94699e-05 -2.74104e-05 -2.92431e-06
-4.15722e-06 -2.92431e-06 -3.9621e-05
0.000953608 -6.73728e-06 2.41901e-06
-6.73728e-06 2.13208e-07 1.91744e-06
2.41901e-06 1.91744e-06 -4.0868e-05
0.000870504 -1.72037e-05 -4.26502e-08
-1.72037e-05 -3.83897e-05 3.28685e-08
-4.26502e-08 3.28685e-08 -4.86947e-05
0.00251326 -2.75305e-05 -1.32598e-05
-2.75305e-05 0.000780051 -3.65847e-06
-1.32598e-05 -3.65847e-06 0.000795932
0.000866969 -1.51474e-05 3.41572e-06
-1.51474e-05 -4.57132e-05 3.31514e-06
3.41572e-06 3.31514e-06 -5.46352e-05
0.00256809 -2.49011e-05 -2.20084e-07
-2.49011e-05 0.000800097 6.16218e-08
-2.20084e-07 6.16218e-08 0.000817004
0.0025821 -2.22821e-05 1.21539e-05
-2.22821e-05 0.00080204 3.97442e-06
1.21539e-05 3.97442e-06 0.000819833
0.00138259 -4.92888e-05 6.37651e-06
-4.92888e-05 -7.49619e-05 2.91618e-08
6.37651e-06 2.91618e-08 -0.000113731
0.00115167 4.64838e-06 -6.14398e-06
4.64838e-06 7.02843e-05 6.51512e-06
-6.14398e-06 6.51512e-06 -0.000105948
0.00419454 4.09504e-05 -5.17702e-05
4.09504e-05 0.00112362 -1.49173e-05
-5.17702e-05 -1.49173e-05 0.000743117
0.000976549 3.70733e-05 6.27267e-07
3.70733e-05 6.88771e-06 3.3393e-07
6.27267e-07 3.3393e-07 -6.16749e-05
0.00130749 4.35301e-05 9.61419e-07
4.35301e-05 0.000136354 -7.70071e-07
9.61419e-07 -7.70071e-07 6.32367e-05
0.00097968 3.65208e-05 2.80914e-07
3.65208e-05 1.72579e-05 -1.67139e-07
2.80914e-07 -1.67139e-07 -5.3628e-05
0.00117423 3.78486e-05 6.80988e-07
3.78486e-05 0.00011207 -5.9172e-07
6.80988e-07 -5.9172e-07 4.00835e-05
0.00109146 3.65122e-05 -1.70245e-08
3.65122e-05 7.76735e-05 -1.47575e-07
-1.70245e-08 -1.47575e-07 6.97552e-06
0.00107209 3.97228e-05 2.52376e-07
3.97228e-05 6.37766e-05 4.27609e-07
2.52376e-07 4.27609e-07 -4.99484e-06
0.00127959 5.19416e-05 -9.21578e-07
5.19416e-05 9.14402e-05 -1.65467e-06
-9.21578e-07 -1.65467e-06 1.20069e-05
0.00135385 4.67889e-05 1.28891e-06
4.67889e-05 0.000194437 8.62294e-09
1.28891e-06 8.62294e-09 0.000120305
0.000973992 4.74913e-05 -1.86669e-06
4.74913e-05 1.45245e-05 2.73493e-07
-1.86669e-06 2.73493e-07 -6.27374e-05
0.00124809 5.75485e-05 -3.86809e-09
5.75485e-05 8.08175e-05 -2.08745e-08
-3.86809e-09 -2.08745e-08 -6.05032e-06
0.00124347 5.39441e-05 -1.06808e-06
5.39441e-05 -3.39706e-05 -1.674e-06
-1.06808e-06 -1.674e-06 -0.000130783
0.00170905 1.69449e-05 -5.43451e-06
1.69449e-05 0.000102216 2.14633e-06
-5.43451e-06 2.14633e-06 2.95473e-05
0.00173837 6.44688e-05 -1.70994e-06
6.44688e-05 0.000169081 9.1627e-07
-1.70994e-06 9.1627e-07 6.17936e-05
0.000886621 5.91834e-05 8.36452e-07
5.91834e-05 -9.19342e-05 4.86035e-06
8.36452e-07 4.86035e-06 -0.00019232
0.00196739 -2.70804e-05 8.5982e-07
-2.70804e-05 7.69639e-05 3.90588e-07
8.5982e-07 3.90588e-07 6.25592e-06
0.00148844 -3.65025e-07 6.51322e-05
-3.65025e-07 0.000132572 2.11329e-05
6.51322e-05 2.11329e-05 -6.00244e-05
0.002195 5.15845e-05 -6.39195e-06
5.15845e-05 0.000221554 -1.46963e-06
-6.39195e-06 -1.46963e-06 0.000102297
0.00159148 2.05144e-05 -2.61705e-06
2.05144e-05 0.0001646 -3.74549e-06
-2.61705e-06 -3.74549e-06 0.000110903
0.00113624 4.14258e-08 2.57998e-06
4.14258e-08 0.000131529 -5.53343e-07
2.57998e-06 -5.53343e-07 9.02884e-05
0.000940918 3.92562e-05 4.52787e-05
3.92562e-05 -2.6977e-05 1.75343e-06
4.52787e-05 1.75343e-06 -0.000186707
0.00203968 -1.29069e-05 6.73334e-06
-1.29069e-05 5.70381e-05 2.21253e-07
6.73334e-06 2.21253e-07 9.0421e-05
0.00111637 6.38344e-05 -3.33317e-06
6.38344e-05 2.67507e-05 7.30589e-07
-3.33317e-06 7.30589e-07 -3.01301e-05
0.00155621 5.15705e-05 -1.40072e-06
5.15705e-05 5.19612e-07 3.20517e-06
-1.40072e-06 3.20517e-06 -4.36937e-05
0.00118312 4.59682e-05 2.84129e-07
4.59682e-05 -6.2197e-05 1.24565e-06
2.84129e-07 1.24565e-06 -0.000135904
0.00139135 3.96369e-05 -2.61914e-06
3.96369e-05 5.30356e-05 -8.13657e-07
-2.61914e-06 -8.13657e-07 -1.45234e-05
0.00130674 3.67114e-05 -1.98812e-06
3.67114e-05 5.80453e-05 -2.11295e-06
-1.98812e-06 -2.11295e-06 -5.36157e-07
0.00128237 -2.23936e-06 2.52372e-06
-2.23936e-06 -5.96515e-05 -1.29319e-06
2.52372e-06 -1.29319e-06 -7.18714e-05
0.00149591 1.66969e-05 -8.48401e-07
1.66969e-05 8.74499e-05 -1.34987e-06
-8.48401e-07 -1.34987e-06 4.31374e-05
0.00151664 2.43298e-05 -8.24026e-07
2.43298e-05 0.00011133 6.16197e-07
-8.24026e-07 6.16197e-07 4.78532e-05
0.00151 -1.10797e-05 -2.03089e-06
-1.10797e-05 9.38285e-05 -1.39644e-06
-2.03089e-06 -1.39644e-06 6.04445e-05
0.0014269 -2.80331e-06 -2.62341e-07
-2.80331e-06 7.27395e-05 -2.45308e-07
-2.62341e-07 -2.45308e-07 2.12856e-05
0.00127991 -2.08611e-06 -5.59004e-07
-2.08611e-06 1.3614e-05 1.22554e-06
-5.59004e-07 1.22554e-06 -4.93932e-05
0.00132488 -2.09907e-05 -1.72556e-06
-2.09907e-05 5.07314e-05 -1.76637e-06
-1.72556e-06 -1.76637e-06 5.3187e-06
0.00130268 -1.97219e-05 1.39846e-07
-1.97219e-05 4.67816e-05 -1.00757e-07
1.39846e-07 -1.00757e-07 -1.17322e-05
0.00129092 -2.24979e-05 -4.29848e-07
-2.24979e-05 5.28717e-05 9.99671e-07
-4.29848e-07 9.99671e-07 -1.09095e-05
0.00125103 -2.63284e-05 -3.07088e-07
-2.63284e-05 4.34699e-05 -1.28547e-06
-3.07088e-07 -1.28547e-06 -1.09184e-05
0.00126051 -2.76227e-05 1.53295e-08
-2.76227e-05 5.59404e-05 -2.32493e-07
1.53295e-08 -2.32493e-07 -4.04485e-06
0.00123615 -2.76743e-05 -6.57474e-07
-2.76743e-05 5.60832e-05 5.35863e-07
-6.57474e-07 5.35863e-07 -5.68915e-06
0.0011696 -2.78285e-05 1.39184e-07
-2.78285e-05 1.95382e-05 -2.81269e-07
1.39184e-07 -2.81269e-07 -3.80892e-05
0.00117001 -2.7634e-05 -1.1154e-07
-2.7634e-05 3.18572e-05 -9.7911e-08
-1.1154e-07 -9.7911e-08 -2.81905e-05
0.00115847 -2.43296e-05 -1.38997e-06
-2.43296e-05 4.64853e-05 6.94618e-07
-1.38997e-06 6.94618e-07 -1.14592e-05
0.00110097 -2.99222e-05 1.09796e-06
-2.99222e-05 8.75701e-06 -6.12688e-07
1.09796e-06 -6.12688e-07 -5.26416e-05
0.00105693 -2.47232e-05 6.42371e-09
-2.47232e-05 7.63236e-06 1.00325e-08
6.42371e-09 1.00325e-08 -5.05289e-05
0.000976537 -7.82216e-06 -2.38474e-06
-7.82216e-06 9.44768e-06 1.33998e-06
-2.38474e-06 1.33998e-06 -4.0526e-05
0.000787884 2.43539e-05 -4.54778e-06
2.43539e-05 -4.38551e-05 2.73999e-06
-4.54778e-06 2.73999e-06 -6.47587e-05
0.000961385 -5.82608e-06 -2.27782e-08
-5.82608e-06 1.17219e-05 1.15044e-07
-2.27782e-08 1.15044e-07 -3.74575e-05
0.00108768 -2.63153e-05 8.66642e-07
-2.63153e-05 4.14562e-05 -6.85652e-07
8.66642e-07 -6.85652e-07 -1.7145e-05
0.00266481 3.79506e-05 -1.4517e-05
3.79506e-05 0.000884693 2.96059e-06
-1.4517e-05 2.96059e-06 0.000894746
0.000808042 2.32574e-05 1.46338e-08
2.32574e-05 -3.86241e-05 -1.31857e-08
1.46338e-08 -1.31857e-08 -5.6383e-05
0.000967619 -3.49235e-06 2.32305e-06
-3.49235e-06 1.89939e-05 -1.57622e-06
2.32305e-06 -1.57622e-06 -2.78487e-05
0.00255438 3.51702e-05 1.60271e-07
3.51702e-05 0.000822994 7.53885e-08
1.60271e-07 7.53885e-08 0.000834951
0.000870679 2.23418e-05 4.4409e-06
2.23418e-05 -1.53955e-05 -2.73398e-06
4.4409e-06 -2.73398e-06 -3.01189e-05
0.0024636 3.24722e-05 1.37157e-05
3.24722e-05 0.000770956 -3.23652e-06
1.37157e-05 -3.23652e-06 0.000784675
0.000863722 3.42422e-05 -5.33381e-07
3.42422e-05 -5.69706e-05 -6.60444e-07
-5.33381e-07 -6.60444e-07 -0.00012828
0.000928305 3.19537e-05 -4.5855e-08
3.19537e-05 -1.18651e-05 -9.56938e-08
-4.5855e-08 -9.56938e-08 -8.06549e-05
0.00109275 2.1119e-05 -1.14508e-06
2.1119e-05 6.95557e-05 -3.63181e-07
-1.14508e-06 -3.63181e-07 7.557e-06
0.00105744 2.92574e-05 3.05943e-07
2.92574e-05 5.59842e-05 -6.07798e-08
3.05943e-07 -6.07798e-08 -1.10906e-05
0.00103353 1.26153e-05 2.1938e-09
1.26153e-05 4.7874e-05 1.51905e-08
2.1938e-09 1.51905e-08 -1.34639e-05
0.000966006 -5.39295e-06 -2.39791e-06
-5.39295e-06 2.38134e-05 -1.24344e-06
-2.39791e-06 -1.24344e-06 -2.34854e-05
0.00104453 7.29504e-06 9.21097e-07
7.29504e-06 5.24742e-05 3.30515e-07
9.21097e-07 3.30515e-07 -8.08169e-06
0.000949198 -8.3639e-06 1.30309e-08
-8.3639e-06 1.15364e-05 1.16865e-08
1.30309e-08 1.16865e-08 -3.35081e-05
0.000868732 -2.14965e-05 -4.31166e-06
-2.14965e-05 -2.24536e-05 -2.75622e-06
-4.31166e-06 -2.75622e-06 -3.69996e-05
0.000946411 -8.76941e-06 2.44936e-06
-8.76941e-06 3.43963e-06 1.72403e-06
2.44936e-06 1.72403e-06 -3.9442e-05
0.000858075 -1.92231e-05 -3.02206e-08
-1.92231e-05 -3.71081e-05 3.29597e-08
-3.02206e-08 3.29597e-08 -4.91752e-05
0.00250847 -3.01577e-05 -1.35574e-05
-3.01577e-05 0.000785883 -3.4746e-06
-1.35574e-05 -3.4746e-06 0.000800323
0.000856607 -1.70084e-05 3.78897e-06
-1.70084e-05 -4.56038e-05 3.19158e-06
3.78897e-06 3.19158e-06 -5.57704e-05
0.00256457 -2.76294e-05 -1.87853e-07
-2.76294e-05 0.000804267 6.54853e-08
-1.87853e-07 6.54853e-08 0.000820131
0.00261081 -2.49637e-05 1.30044e-05
-2.49637e-05 0.000820541 3.87778e-06
1.30044e-05 3.87778e-06 0.000837387
0.00166101 -1.32305e-05 -7.54557e-07
-1.32305e-05 0.000134966 -6.16467e-07
-7.54557e-07 -6.16467e-07 8.99817e-05
0.00115955 -4.32427e-05 -9.1874e-07
-4.32427e-05 -9.61312e-05 -1.94921e-06
-9.1874e-07 -1.94921e-06 -0.000132989
-0.000391759 -4.43237e-06 3.68303e-05
-4.43237e-06 -0.000254603 1.04503e-05
3.68303e-05 1.04503e-05 -0.000342409
0.00160166 4.84103e-05 7.81156e-07
4.84103e-05 0.000244936 -1.27741e-06
7.81156e-07 -1.27741e-06 0.000171497
0.000969438 3.75406e-05 -4.20221e-07
3.75406e-05 1.0423e-05 1.32586e-07
-4.20221e-07 1.32586e-07 -5.63147e-05
0.00080867 3.90384e-05 -1.40436e-06
3.90384e-05 -0.000144628 -9.404e-08
-1.40436e-06 -9.404e-08 -0.000222961
0.00126695 4.30448e-05 9.26563e-08
4.30448e-05 0.000116571 4.9622e-08
9.26563e-08 4.9622e-08 4.30361e-05
0.000766505 3.38924e-05 -4.67913e-07
3.38924e-05 -7.96857e-05 5.14694e-07
-4.67913e-07 5.14694e-07 -0.000150563
0.00154758 5.09514e-05 -1.55775e-06
5.09514e-05 0.00012536 -3.29974e-06
-1.55775e-06 -3.29974e-06 3.95126e-05
0.00124656 4.26604e-05 1.8165e-07
4.26604e-05 0.00014437 -1.87027e-07
1.8165e-07 -1.87027e-07 7.53429e-05
0.00126933 5.13213e-05 6.07876e-08
5.13213e-05 8.36777e-05 7.56821e-07
6.07876e-08 7.56821e-07 4.97099e-06
0.00145768 1.37561e-05 -5.39299e-07
1.37561e-05 2.10134e-06 2.56641e-06
-5.39299e-07 2.56641e-06 -7.28511e-05
0.00113772 5.59746e-05 8.31559e-07
5.59746e-05 2.92078e-05 2.0735e-06
8.31559e-07 2.0735e-06 -5.81914e-05
0.00148587 5.74942e-05 -5.14245e-07
5.74942e-05 6.98293e-05 -5.36336e-07
-5.14245e-07 -5.36336e-07 -2.85647e-05
0.00164023 1.5844e-05 -1.09912e-07
1.5844e-05 6.33324e-05 5.01187e-07
-1.09912e-07 5.01187e-07 -9.60981e-06
0.00173597 6.17832e-05 1.60594e-06
6.17832e-05 0.000168691 1.9392e-06
1.60594e-06 1.9392e-06 6.41991e-05
0.00179097 -2.09016e-05 -1.00845e-05
-2.09016e-05 -3.29669e-06 -8.01321e-06
-1.00845e-05 -8.01321e-06 -7.25046e-05
0.00155527 5.13237e-07 -1.13839e-06
5.13237e-07 0.00017599 -1.96282e-06
-1.13839e-06 -1.96282e-06 0.00012798
0.00107963 1.66041e-05 1.86342e-06
1.66041e-05 -8.3109e-05 5.34678e-07
1.86342e-06 5.34678e-07 -0.000135906
0.000317727 -7.02023e-06 -1.02852e-06
-7.02023e-06 -0.000281146 2.74585e-06
-1.02852e-06 2.74585e-06 -0.000311716
0.00219745 5.59111e-05 -1.40305e-08
5.59111e-05 0.00030653 -2.29448e-06
-1.40305e-08 -2.29448e-06 0.000266658
0.00198509 5.47163e-05 1.02206e-05
5.47163e-05 0.000335144 5.37861e-06
1.02206e-05 5.37861e-06 0.000264196
0.00156436 4.19926e-05 -2.06171e-06
4.19926e-05 0.000123908 -1.1421e-06
-2.06171e-06 -1.1421e-06 5.72015e-05
0.00141667 3.69897e-05 8.66187e-07
3.69897e-05 0.00010926 1.69544e-06
8.66187e-07 1.69544e-06 5.08607e-05
0.00139624 3.51857e-05 -2.68104e-06
3.51857e-05 9.20507e-05 -2.61278e-06
-2.68104e-06 -2.61278e-06 3.01689e-05
0.00148543 1.50259e-05 -1.94509e-06
1.50259e-05 8.42187e-05 -2.06762e-06
-1.94509e-06 -2.06762e-06 4.01256e-05
0.00147745 2.3126e-05 -2.60178e-09
2.3126e-05 9.05643e-05 -2.91167e-07
-2.60178e-09 -2.91167e-07 2.81453e-05
0.00145693 2.4524e-05 -1.91766e-06
2.4524e-05 9.2655e-05 -7.13451e-07
-1.91766e-06 -7.13451e-07 2.52585e-05
0.00141698 -2.89159e-06 -7.38148e-07
-2.89159e-06 7.15219e-05 -1.59464e-06
-7.38148e-07 -1.59464e-06 1.96838e-05
0.00133587 -1.62936e-06 2.19499e-07
-1.62936e-06 4.14972e-05 1.60704e-07
2.19499e-07 1.60704e-07 -2.20001e-05
0.00135146 -2.54279e-06 -9.28067e-07
-2.54279e-06 6.16733e-05 7.31678e-07
-9.28067e-07 7.31678e-07 -5.87039e-06
0.00130665 -1.91747e-05 7.78206e-08
-1.91747e-05 4.88819e-05 -1.52525e-06
7.78206e-08 -1.52525e-06 -9.64448e-06
0.00129928 -2.1871e-05 1.06244e-07
-2.1871e-05 5.6249e-05 -5.50296e-08
1.06244e-07 -5.50296e-08 -7.56428e-06
0.00126129 -2.38531e-05 -8.77517e-07
-2.38531e-05 5.30124e-05 7.54855e-07
-8.77517e-07 7.54855e-07 -1.16432e-05
0.00125922 -2.72308e-05 1.67148e-07
-2.72308e-05 5.51138e-05 -9.87014e-07
1.67148e-07 -9.87014e-07 -4.84542e-06
0.00123538 -2.74296e-05 -1.08527e-08
-2.74296e-05 5.54358e-05 -1.40886e-07
-1.08527e-08 -1.40886e-07 -6.32127e-06
0.00116835 -2.37859e-05 -1.3408e-06
-2.37859e-05 4.26666e-05 6.88396e-07
-1.3408e-06 6.88396e-07 -1.68534e-05
0.00112097 -2.69571e-05 6.6366e-07
-2.69571e-05 8.08911e-06 -5.33909e-07
6.6366e-07 -5.33909e-07 -5.18363e-05
0.00114683 -2.37951e-05 -1.40888e-08
-2.37951e-05 4.09972e-05 -3.33807e-08
-1.40888e-08 -3.33807e-08 -1.69097e-05
0.000994009 -9.93073e-06 -2.43082e-06
-9.93073e-06 7.96115e-06 1.15154e-06
-2.43082e-06 1.15154e-06 -4.24048e-05
0.000957833 -2.311e-05 1.2939e-06
-2.311e-05 -3.96898e-05 -7.4418e-07
1.2939e-06 -7.4418e-07 -9.80399e-05
0.000969239 -7.92669e-06 -4.77425e-08
-7.92669e-06 5.78794e-06 9.40919e-08
-4.77425e-08 9.40919e-08 -4.41051e-05
0.00161802 2.95531e-05 -4.27539e-06
2.95531e-05 0.000369746 1.48041e-06
-4.27539e-06 1.48041e-06 0.000349589
0.00119691 2.73255e-05 -1.61348e-05
2.73255e-05 0.000164676 4.90097e-06
-1.61348e-05 4.90097e-06 0.000164027
0.00122132 2.75024e-05 -4.86943e-07
2.75024e-05 0.000169958 1.61925e-08
-4.86943e-07 1.61925e-08 0.00015085
0.000958647 -7.06322e-06 2.42473e-06
-7.06322e-06 9.06708e-06 -1.42588e-06
2.42473e-06 -1.42588e-06 -3.98984e-05
0.00263345 3.76427e-05 1.61968e-07
3.76427e-05 0.000870288 8.16346e-08
1.61968e-07 8.16346e-08 0.000880143
0.000862332 2.39395e-05 4.36201e-06
2.39395e-05 -1.24187e-05 -2.70055e-06
4.36201e-06 -2.70055e-06 -3.03981e-05
0.0025164 3.48951e-05 1.42417e-05
3.48951e-05 0.000805525 -3.0956e-06
1.42417e-05 -3.0956e-06 0.000817353
0.00113731 4.06249e-05 -1.52581e-07
4.06249e-05 -1.07138e-05 -1.49742e-07
-1.52581e-07 -1.49742e-07 -8.3693e-05
0.000891997 3.658e-05 3.02766e-07
3.658e-05 -6.38528e-05 -1.00253e-07
3.02766e-07 -1.00253e-07 -0.000137689
0.000923567 3.53894e-05 -4.97364e-08
3.53894e-05 -3.14365e-05 -3.76095e-08
-4.97364e-08 -3.76095e-08 -0.00010309
0.0011132 2.656e-05 -1.12574e-06
2.656e-05 6.99039e-05 -5.6112e-07
-1.12574e-06 -5.6112e-07 6.95351e-06
0.000832007 3.08984e-05 3.52096e-07
3.08984e-05 -5.9305e-05 3.52085e-07
3.52096e-07 3.52085e-07 -0.000128415
0.0010546 1.9759e-05 -4.0933e-08
1.9759e-05 5.18223e-05 1.44781e-08
-4.0933e-08 1.44781e-08 -1.01018e-05
0.000971065 -1.89373e-06 -2.42534e-06
-1.89373e-06 2.82201e-05 -1.04345e-06
-2.42534e-06 -1.04345e-06 -2.10216e-05
0.00100485 1.15847e-05 1.02953e-06
1.15847e-05 3.45341e-05 3.9707e-07
1.02953e-06 3.9707e-07 -2.68124e-05
0.000944553 -6.5509e-06 -2.05638e-08
-6.5509e-06 1.48575e-05 3.54003e-08
-2.05638e-08 3.54003e-08 -3.26128e-05
0.000859138 -2.33169e-05 -4.45148e-06
-2.33169e-05 -1.73054e-05 -2.55666e-06
-4.45148e-06 -2.55666e-06 -3.45498e-05
0.000933811 -9.08469e-06 2.43162e-06
-9.08469e-06 5.07661e-06 1.52629e-06
2.43162e-06 1.52629e-06 -4.01056e-05
0.000840418 -2.11344e-05 -5.60695e-09
-2.11344e-05 -3.64557e-05 2.51861e-08
-5.60695e-09 2.51861e-08 -5.0838e-05
0.00252026 -3.26734e-05 -1.39302e-05
-3.26734e-05 0.000801537 -3.28972e-06
-1.39302e-05 -3.28972e-06 0.000814165
0.000838705 -1.89779e-05 4.05168e-06
-1.89779e-05 -4.69014e-05 3.03239e-06
4.05168e-06 3.03239e-06 -5.88216e-05
0.00256237 -3.0328e-05 -1.8037e-07
-3.0328e-05 0.000810911 7.00982e-08
-1.8037e-07 7.00982e-08 0.000825408
0.00261691 -2.77176e-05 1.34857e-05
-2.77176e-05 0.000829008 3.72389e-06
1.34857e-05 3.72389e-06 0.00084485
0.00154577 -2.50879e-05 4.64896e-07
-2.50879e-05 9.3427e-05 9.07836e-07
4.64896e-07 9.07836e-07 4.0662e-05
0.00152408 -1.27056e-05 2.35988e-06
-1.27056e-05 6.24279e-05 -1.25097e-06
2.35988e-06 -1.25097e-06 1.54007e-05
0.00130833 -4.01283e-05 -7.02187e-06
-4.01283e-05 5.2369e-05 -5.4356e-06
-7.02187e-06 -5.4356e-06 1.64978e-05
0.00142458 4.49398e-05 -1.60288e-06
4.49398e-05 8.16311e-05 -1.91131e-06
-1.60288e-06 -1.91131e-06 1.55e-06
0.00142883 4.60494e-05 -9.64969e-08
4.60494e-05 0.000173265 2.81632e-07
-9.64969e-08 2.81632e-07 0.000101483
0.000930999 3.76745e-05 -1.96717e-06
3.76745e-05 -1.03055e-06 -3.81754e-08
-1.96717e-06 -3.81754e-08 -6.59164e-05
0.00124012 4.40301e-05 5.27898e-07
4.40301e-05 5.71595e-05 6.64344e-07
5.27898e-07 6.64344e-07 -1.95805e-05
0.00122599 4.25575e-05 -7.68118e-07
4.25575e-05 9.64158e-05 7.85064e-07
-7.68118e-07 7.85064e-07 2.24862e-05
0.00151675 1.33224e-05 -1.06622e-06
1.33224e-05 5.52864e-05 9.51598e-07
-1.06622e-06 9.51598e-07 -2.38297e-05
0.00151721 5.12641e-05 -1.03627e-06
5.12641e-05 0.000109114 -1.11123e-06
-1.03627e-06 -1.11123e-06 2.1836e-05
0.0012536 5.07218e-05 9.32644e-07
5.07218e-05 7.38601e-05 3.33146e-06
9.32644e-07 3.33146e-06 -4.1875e-06
0.0015818 1.37783e-05 -2.37049e-08
1.37783e-05 5.71519e-05 6.53241e-07
-2.37049e-08 6.53241e-07 -1.81133e-05
0.00173264 6.11142e-05 3.02894e-07
6.11142e-05 0.000174985 1.0634e-06
3.02894e-07 1.0634e-06 7.50948e-05
0.00157516 1.51323e-05 5.77623e-06
1.51323e-05 2.626e-05 -1.12214e-06
5.77623e-06 -1.12214e-06 -4.6984e-05
0.00102283 1.65742e-06 -1.01519e-06
1.65742e-06 -5.90618e-05 -7.0238e-07
-1.01519e-06 -7.0238e-07 -0.000112318
0.0013313 1.6096e-06 -4.0437e-07
1.6096e-06 7.23397e-05 -4.75755e-07
-4.0437e-07 -4.75755e-07 2.35935e-05
0.000521496 1.24484e-05 5.96589e-06
1.24484e-05 -0.000353461 5.52483e-06
5.96589e-06 5.52483e-06 -0.000405237
0.0017657 4.47443e-05 3.30745e-06
4.47443e-05 0.000208231 -1.14692e-06
3.30745e-06 -1.14692e-06 0.00014241
0.00147212 3.68953e-05 4.8155e-06
3.68953e-05 0.000134712 5.06527e-06
4.8155e-06 5.06527e-06 7.64908e-05
0.00144257 3.55126e-05 -8.98906e-07
3.55126e-05 0.00011229 -1.67466e-07
-8.98906e-07 -1.67466e-07 5.06111e-05
0.00131612 3.00954e-05 -9.10397e-07
3.00954e-05 6.39355e-05 -1.34616e-06
-9.10397e-07 -1.34616e-06 -1.44385e-07
0.00143317 2.17884e-05 7.22893e-07
2.17884e-05 6.71699e-05 -3.97842e-07
7.22893e-07 -3.97842e-07 5.84768e-06
0.00144406 2.30044e-05 -3.92073e-07
2.30044e-05 8.29136e-05 -1.32239e-07
-3.92073e-07 -1.32239e-07 1.56417e-05
0.00133568 1.8078e-05 -1.85004e-06
1.8078e-05 4.66192e-05 -1.29888e-06
-1.85004e-06 -1.29888e-06 -2.04788e-05
0.00138815 -1.32003e-06 4.83312e-07
-1.32003e-06 6.75641e-05 -7.27424e-07
4.83312e-07 -7.27424e-07 3.58656e-06
0.00134737 -2.95015e-06 3.68277e-08
-2.95015e-06 5.93303e-05 2.99272e-07
3.68277e-08 2.99272e-07 -8.28261e-06
0.00130549 -8.80272e-06 -1.23968e-06
-8.80272e-06 5.67168e-05 5.02887e-07
-1.23968e-06 5.02887e-07 -1.07693e-05
0.00130747 -2.11691e-05 6.81652e-07
-2.11691e-05 5.95534e-05 -1.09399e-06
6.81652e-07 -1.09399e-06 -4.28999e-06
0.00126957 -2.36631e-05 5.50221e-08
-2.36631e-05 5.64226e-05 1.11829e-08
5.50221e-08 1.11829e-08 -8.27214e-06
0.00119285 -2.2062e-05 -1.47291e-06
-2.2062e-05 4.2179e-05 7.41271e-07
-1.47291e-06 7.41271e-07 -1.97735e-05
0.00123466 -2.72228e-05 6.90008e-07
-2.72228e-05 5.48169e-05 -8.16409e-07
6.90008e-07 -8.16409e-07 -6.92647e-06
0.00116839 -2.34667e-05 -6.82222e-09
-2.34667e-05 4.2417e-05 -7.55428e-08
-6.82222e-09 -7.55428e-08 -1.70836e-05
0.00101279 -1.18292e-05 -2.41699e-06
-1.18292e-05 8.11592e-06 1.08629e-06
-2.41699e-06 1.08629e-06 -4.36195e-05
0.00113418 -2.32723e-05 1.26973e-06
-2.32723e-05 3.50362e-05 -7.16901e-07
1.26973e-06 -7.16901e-07 -2.28331e-05
0.000983684 -9.61936e-06 -5.4758e-08
-9.61936e-06 3.3724e-06 3.15184e-08
-5.4758e-08 3.15184e-08 -4.69952e-05
0.00164343 2.34348e-05 -4.56741e-06
2.34348e-05 0.000384652 1.24016e-06
-4.56741e-06 1.24016e-06 0.00036162
0.000960616 -8.56939e-06 2.48036e-06
-8.56939e-06 1.39693e-06 -1.24789e-06
2.48036e-06 -1.24789e-06 -4.83849e-05
0.00162254 2.57721e-05 3.20396e-06
2.57721e-05 0.000370739 -8.60911e-07
3.20396e-06 -8.60911e-07 0.000350467
0.00120049 2.78847e-05 -1.74921e-05
2.78847e-05 0.000176608 4.73973e-06
-1.74921e-05 4.73973e-06 0.00017219
0.00195363 3.35889e-05 -1.008e-05
3.35889e-05 0.000540586 1.67569e-06
-1.008e-05 1.67569e-06 0.000544066
0.00165206 2.76576e-05 8.79983e-06
2.76576e-05 0.000382284 -2.33892e-06
8.79983e-06 -2.33892e-06 0.00036511
0.002601 3.72768e-05 1.50195e-05
3.72768e-05 0.000855377 -3.00477e-06
1.50195e-05 -3.00477e-06 0.000865035
0.00137846 4.03155e-05 -1.33163e-06
4.03155e-05 5.72701e-05 -1.86883e-06
-1.33163e-06 -1.86883e-06 -1.87051e-05
0.00135328 4.1695e-05 1.17821e-06
4.1695e-05 0.000127271 -1.84991e-07
1.17821e-06 -1.84991e-07 5.60595e-05
0.00116067 4.0911e-05 7.85187e-07
4.0911e-05 7.3084e-06 4.9713e-07
7.85187e-07 4.9713e-07 -6.21491e-05
0.00111825 3.10681e-05 -1.01852e-06
3.10681e-05 5.99032e-05 -9.52131e-07
-1.01852e-06 -9.52131e-07 -5.71155e-06
0.00110159 3.98258e-05 -2.11898e-07
3.98258e-05 3.46238e-05 1.09864e-07
-2.11898e-07 1.09864e-07 -3.91743e-05
0.000988591 3.663e-05 5.21075e-07
3.663e-05 -3.4409e-06 7.02786e-07
5.21075e-07 7.02786e-07 -7.54425e-05
0.00108865 2.60028e-05 -1.19605e-08
2.60028e-05 5.92021e-05 -7.56044e-08
-1.19605e-08 -7.56044e-08 -3.77798e-06
0.000976477 2.92705e-06 -2.28511e-06
2.92705e-06 3.02157e-05 -1.05653e-06
-2.28511e-06 -1.05653e-06 -2.09531e-05
0.00101762 1.84237e-05 8.83269e-07
1.84237e-05 3.4632e-05 2.89779e-07
8.83269e-07 2.89779e-07 -2.7216e-05
0.000948429 -3.32249e-06 -1.10465e-08
-3.32249e-06 1.89536e-05 5.23252e-08
-1.10465e-08 5.23252e-08 -3.04955e-05
0.000849635 -2.4868e-05 -4.48655e-06
-2.4868e-05 -1.2829e-05 -2.3451e-06
-4.48655e-06 -2.3451e-06 -3.29149e-05
0.000924001 -7.60908e-06 2.37001e-06
-7.60908e-06 6.34763e-06 1.3696e-06
2.37001e-06 1.3696e-06 -4.12969e-05
0.000820219 -2.28137e-05 -2.03915e-08
-2.28137e-05 -3.62635e-05 2.83402e-08
-2.03915e-08 2.83402e-08 -5.3342e-05
0.0025472 -3.50191e-05 -1.44214e-05
-3.50191e-05 0.000825724 -3.09577e-06
-1.44214e-05 -3.09577e-06 0.000836279
0.000811699 -2.07733e-05 4.26311e-06
-2.07733e-05 -5.06763e-05 2.85145e-06
4.26311e-06 2.85145e-06 -6.48908e-05
0.00257047 -3.29169e-05 -1.65041e-07
-3.29169e-05 0.000824392 7.31516e-08
-1.65041e-07 7.31516e-08 0.000837161
0.00261574 -3.04739e-05 1.37467e-05
-3.04739e-05 0.000835696 3.54325e-06
1.37467e-05 3.54325e-06 0.000850251
0.0014598 -2.21318e-05 -1.40525e-06
-2.21318e-05 7.60889e-05 2.2582e-06
-1.40525e-06 2.2582e-06 1.34399e-05
0.00148383 -2.41415e-05 3.08875e-07
-2.41415e-05 6.56622e-05 -7.68872e-07
3.08875e-07 -7.68872e-07 1.28828e-05
0.00143414 -1.2503e-05 5.77477e-06
-1.2503e-05 1.12884e-05 -4.92032e-07
5.77477e-06 -4.92032e-07 -3.7794e-05
0.00124895 1.67707e-05 -1.23326e-06
1.67707e-05 -5.25034e-05 4.49026e-07
-1.23326e-06 4.49026e-07 -0.000129426
0.00145212 4.49135e-05 6.94392e-08
4.49135e-05 9.52218e-05 -5.71656e-07
6.94392e-08 -5.71656e-07 1.52434e-05
0.00129145 4.41216e-05 -8.17462e-07
4.41216e-05 0.000118247 1.43117e-06
-8.17462e-07 1.43117e-06 4.81325e-05
0.00166356 4.89403e-05 5.7996e-07
4.89403e-05 0.000255115 5.89611e-07
5.7996e-07 5.89611e-07 0.000179975
0.00163117 1.48841e-05 2.51702e-08
1.48841e-05 0.000108737 -1.42393e-08
2.51702e-08 -1.42393e-08 2.95826e-05
0.00148188 5.14582e-05 3.8408e-07
5.14582e-05 9.05024e-05 9.83448e-07
3.8408e-07 9.83448e-07 1.80361e-06
0.00169989 1.3738e-05 6.07438e-07
1.3738e-05 0.000109467 -1.18383e-06
6.07438e-07 -1.18383e-06 3.38763e-05
0.00120399 1.18146e-06 5.77698e-07
1.18146e-06 2.61753e-05 -4.55909e-08
5.77698e-07 -4.55909e-08 -3.35246e-05
0.00118009 2.85057e-06 -3.88296e-08
2.85057e-06 1.02876e-05 -1.23149e-07
-3.88296e-08 -1.23149e-07 -4.47009e-05
0.0011385 3.34885e-06 6.03989e-07
3.34885e-06 -1.65415e-05 1.60591e-06
6.03989e-07 1.60591e-06 -6.60425e-05
0.00133577 3.07433e-05 -1.97039e-07
3.07433e-05 8.58372e-05 -5.69725e-07
-1.97039e-07 -5.69725e-07 1.9226e-05
0.00151628 3.62113e-05 2.40317e-06
3.62113e-05 0.00014545 1.72029e-06
2.40317e-06 1.72029e-06 8.39696e-05
0.0013153 3.02602e-05 3.21076e-07
3.02602e-05 6.33491e-05 1.07854e-07
3.21076e-07 1.07854e-07 -1.04613e-06
0.00135676 2.77908e-05 -6.61013e-07
2.77908e-05 7.63566e-05 -5.46354e-07
-6.61013e-07 -5.46354e-07 1.08592e-05
0.00145021 2.17078e-05 1.09758e-06
2.17078e-05 8.22669e-05 4.87546e-07
1.09758e-06 4.87546e-07 1.50989e-05
0.0013553 1.79948e-05 -5.58134e-07
1.79948e-05 5.59358e-05 -2.98149e-07
-5.58134e-07 -2.98149e-07 -1.10941e-05
0.00131886 1.46891e-05 -1.84469e-06
1.46891e-05 5.64854e-05 -7.16986e-07
-1.84469e-06 -7.16986e-07 -1.1785e-05
0.00134402 -2.77521e-06 1.47058e-06
-2.77521e-06 5.73435e-05 -1.63752e-07
1.47058e-06 -1.63752e-07 -1.03455e-05
0.00130268 -7.59871e-06 3.12425e-08
-7.59871e-06 5.5388e-05 9.403e-08
3.12425e-08 9.403e-08 -1.21495e-05
0.00122794 -1.46893e-05 -1.72005e-06
-1.46893e-05 4.54881e-05 4.93786e-07
-1.72005e-06 4.93786e-07 -1.86734e-05
0.00127839 -2.34152e-05 1.10306e-06
-2.34152e-05 6.00815e-05 -7.3819e-07
1.10306e-06 -7.3819e-07 -4.64945e-06
0.00119829 -2.18091e-05 2.00029e-08
-2.18091e-05 4.4423e-05 4.34522e-08
2.00029e-08 4.34522e-08 -1.75382e-05
0.00104162 -1.29114e-05 -2.56781e-06
-1.29114e-05 1.19367e-05 1.06729e-06
-2.56781e-06 1.06729e-06 -4.18928e-05
0.00116813 -2.30855e-05 1.34535e-06
-2.30855e-05 4.20253e-05 -8.27464e-07
1.34535e-06 -8.27464e-07 -1.74546e-05
0.00100615 -1.11824e-05 9.55022e-10
-1.11824e-05 5.19068e-06 -1.93979e-08
9.55022e-10 -1.93979e-08 -4.66002e-05
0.00165279 1.85889e-05 -4.56463e-06
1.85889e-05 0.000391671 1.03127e-06
-4.56463e-06 1.03127e-06 0.000365989
0.000974308 -9.3111e-06 2.44343e-06
-9.3111e-06 -8.02182e-07 -1.13183e-06
2.44343e-06 -1.13183e-06 -5.11666e-05
0.00164441 2.11351e-05 3.35662e-06
2.11351e-05 0.000383531 -7.91673e-07
3.35662e-06 -7.91673e-07 0.000360399
0.00121656 2.82491e-05 -1.85485e-05
2.82491e-05 0.000196802 4.33051e-06
-1.85485e-05 4.33051e-06 0.00018872
0.00163075 2.40558e-05 1.08568e-05
2.40558e-05 0.000373631 -3.14433e-06
1.08568e-05 -3.14433e-06 0.000353157
0.00117064 2.921e-05 -6.4362e-06
2.921e-05 0.00016246 1.80794e-06
-6.4362e-06 1.80794e-06 0.000158291
0.00271226 4.2145e-05 6.71695e-06
4.2145e-05 0.000917637 -1.17167e-06
6.71695e-06 -1.17167e-06 0.000925085
0.00158501 2.19014e-05 -1.33672e-06
2.19014e-05 0.000127291 -5.54941e-07
-1.33672e-06 -5.54941e-07 5.04175e-05
0.00138874 3.88222e-05 -2.14481e-07
3.88222e-05 8.9445e-05 -1.66544e-06
-2.14481e-07 -1.66544e-06 1.62742e-05
0.00142476 4.11292e-05 -9.0065e-07
4.11292e-05 8.62163e-05 8.13812e-07
-9.0065e-07 8.13812e-07 1.09361e-05
0.00139545 3.62464e-05 -5.98857e-07
3.62464e-05 0.00016895 -3.91396e-07
-5.98857e-07 -3.91396e-07 0.000102912
0.00123781 4.07463e-05 4.25061e-07
4.07463e-05 7.08676e-05 -5.53519e-07
4.25061e-07 -5.53519e-07 -3.50778e-07
0.00118587 4.11829e-05 1.38699e-06
4.11829e-05 2.61259e-05 1.01711e-06
1.38699e-06 1.01711e-06 -3.98113e-05
0.000991203 1.11852e-05 -2.27143e-06
1.11852e-05 2.99714e-05 -1.33476e-06
-2.27143e-06 -1.33476e-06 -2.41672e-05
0.00111731 3.13187e-05 -3.92833e-08
3.13187e-05 5.97509e-05 -1.16498e-07
-3.92833e-08 -1.16498e-07 -5.91516e-06
0.00131006 4.30501e-05 9.1543e-07
4.30501e-05 0.0001327 9.02288e-07
9.1543e-07 9.02288e-07 5.89238e-05
0.00105996 2.5453e-05 9.59002e-07
2.5453e-05 4.65215e-05 3.43028e-07
9.59002e-07 3.43028e-07 -1.64866e-05
0.000954142 1.43847e-06 4.65446e-08
1.43847e-06 2.11306e-05 -1.57579e-09
4.65446e-08 -1.57579e-09 -3.023e-05
0.000846939 -2.33958e-05 -4.50702e-06
-2.33958e-05 -7.43372e-06 -2.27107e-06
-4.50702e-06 -2.27107e-06 -3.07831e-05
0.000926472 -4.73307e-06 2.34883e-06
-4.73307e-06 1.00191e-05 1.14375e-06
2.34883e-06 1.14375e-06 -3.96385e-05
0.000800394 -2.42098e-05 -1.78275e-08
-2.42098e-05 -3.63809e-05 1.0381e-08
-1.78275e-08 1.0381e-08 -5.63469e-05
0.00258677 -3.71624e-05 -1.50528e-05
-3.71624e-05 0.000856703 -2.91801e-06
-1.50528e-05 -2.91801e-06 0.000864996
0.000781878 -2.2314e-05 4.41142e-06
-2.2314e-05 -5.4955e-05 2.6716e-06
4.41142e-06 2.6716e-06 -7.18661e-05
0.00259208 -3.53269e-05 -1.6606e-07
-3.53269e-05 0.00084577 7.74169e-08
-1.6606e-07 7.74169e-08 0.000856528
0.00262104 -3.3124e-05 1.39929e-05
-3.3124e-05 0.000847438 3.35056e-06
1.39929e-05 3.35056e-06 0.000860348
0.00143781 -1.55094e-05 -3.51499e-07
-1.55094e-05 7.35822e-05 1.12975e-06
-3.51499e-07 1.12975e-06 7.60462e-06
0.00152485 -2.17797e-05 -1.02748e-07
-2.17797e-05 0.000100041 6.03415e-07
-1.02748e-07 6.03415e-07 3.66009e-05
0.00141346 -2.31637e-05 1.82635e-07
-2.31637e-05 3.39614e-05 -2.40333e-06
1.82635e-07 -2.40333e-06 -1.88327e-05
0.00140905 1.67924e-05 2.81066e-08
1.67924e-05 1.57651e-05 -1.87796e-07
2.81066e-08 -1.87796e-07 -6.14304e-05
0.00147176 4.48122e-05 6.54318e-07
4.48122e-05 0.000105054 6.88991e-07
6.54318e-07 6.88991e-07 2.51782e-05
0.00176236 1.65408e-05 1.22116e-06
1.65408e-05 0.000169848 -9.66991e-07
1.22116e-06 -9.66991e-07 9.06948e-05
0.0012527 -7.87038e-07 -3.25349e-08
-7.87038e-07 4.64614e-05 1.4411e-07
-3.25349e-08 1.4411e-07 -1.99513e-05
0.00120785 2.26517e-06 5.3571e-07
2.26517e-06 3.22634e-05 -1.09547e-07
5.3571e-07 -1.09547e-07 -2.76488e-05
0.00132668 3.66794e-06 1.06816e-06
3.66794e-06 7.47415e-05 6.34014e-07
1.06816e-06 6.34014e-07 1.8002e-05
0.00131719 2.40451e-05 -4.78379e-07
2.40451e-05 7.71776e-05 5.09564e-08
-4.78379e-07 5.09564e-08 1.04099e-05
0.00132631 2.24085e-05 -2.22855e-08
2.24085e-05 8.17655e-05 -2.396e-07
-2.22855e-08 -2.396e-07 1.24507e-05
0.00130606 3.04533e-05 1.18343e-06
3.04533e-05 5.88998e-05 1.0738e-06
1.18343e-06 1.0738e-06 -5.82706e-06
0.00132502 2.73397e-05 2.951e-07
2.73397e-05 6.19703e-05 3.76195e-07
2.951e-07 3.76195e-07 -3.58873e-06
0.00141666 2.63981e-05 -4.84711e-07
2.63981e-05 0.00011188 -4.43418e-07
-4.84711e-07 -4.43418e-07 4.51148e-05
0.00137268 1.73131e-05 1.23116e-06
1.73131e-05 6.42148e-05 6.48615e-07
1.23116e-06 6.48615e-07 -2.74153e-06
0.00131753 1.32965e-05 -4.20169e-07
1.32965e-05 5.56585e-05 -1.12072e-07
-4.20169e-07 -1.12072e-07 -1.24059e-05
0.00124321 7.15878e-06 -2.26567e-06
7.15878e-06 4.64801e-05 6.02195e-08
-2.26567e-06 6.02195e-08 -1.92247e-05
0.00129959 -7.84557e-06 1.22353e-06
-7.84557e-06 5.38508e-05 -2.94659e-07
1.22353e-06 -2.94659e-07 -1.37104e-05
0.00122982 -1.39697e-05 2.59573e-08
-1.39697e-05 4.61701e-05 2.72042e-08
2.59573e-08 2.72042e-08 -1.80159e-05
0.00106237 -8.96349e-06 -2.79946e-06
-8.96349e-06 1.24039e-05 8.35836e-07
-2.79946e-06 8.35836e-07 -4.32565e-05
0.0012043 -2.15095e-05 1.6065e-06
-2.15095e-05 4.69266e-05 -6.55391e-07
1.6065e-06 -6.55391e-07 -1.50413e-05
0.00103562 -1.22663e-05 5.68592e-08
-1.22663e-05 8.98993e-06 4.2199e-08
5.68592e-08 4.2199e-08 -4.49032e-05
0.00164986 1.33941e-05 -4.6084e-06
1.33941e-05 0.000391894 8.44694e-07
-4.6084e-06 8.44694e-07 0.000363923
0.00100008 -1.06384e-05 2.4705e-06
-1.06384e-05 2.5281e-06 -1.11209e-06
2.4705e-06 -1.11209e-06 -4.93182e-05
0.00166578 1.6275e-05 3.53716e-06
1.6275e-05 0.000396157 -6.95382e-07
3.53716e-06 -6.95382e-07 0.000370363
0.00122067 2.79442e-05 -1.95112e-05
2.79442e-05 0.000212276 3.80906e-06
-1.95112e-05 3.80906e-06 0.000200754
0.00164767 1.86605e-05 1.13173e-05
1.86605e-05 0.000383493 -2.80792e-06
1.13173e-05 -2.80792e-06 0.000360267
0.00119248 2.97872e-05 -6.80661e-06
2.97872e-05 0.000185265 1.66889e-06
-6.80661e-06 1.66889e-06 0.000177408
0.00113915 3.06038e-05 4.82092e-06
3.06038e-05 0.000147596 -1.16754e-06
4.82092e-06 -1.16754e-06 0.000143666
0.00150143 -6.99544e-06 -4.48204e-07
-6.99544e-06 9.38218e-05 8.23025e-07
-4.48204e-07 8.23025e-07 2.83007e-05
0.00142213 2.42321e-05 -1.43177e-06
2.42321e-05 7.26309e-05 -4.17592e-07
-1.43177e-06 -4.17592e-07 -2.39728e-06
0.00155337 2.14559e-05 -5.78573e-07
2.14559e-05 0.000108745 -5.30212e-07
-5.78573e-07 -5.30212e-07 3.17028e-05
0.00135093 3.51077e-05 -1.07269e-06
3.51077e-05 0.000107666 -8.08039e-07
-1.07269e-06 -8.08039e-07 3.96103e-05
0.00144743 3.93558e-05 5.03371e-07
3.93558e-05 0.000120695 4.50049e-07
5.03371e-07 4.50049e-07 4.78998e-05
0.00146742 4.19216e-05 1.67441e-06
4.19216e-05 0.000113537 1.95452e-06
1.67441e-06 1.95452e-06 3.89472e-05
0.000974893 1.75295e-05 -2.46453e-06
1.75295e-05 2.66564e-06 -1.15352e-06
-2.46453e-06 -1.15352e-06 -5.38511e-05
0.00116361 3.39532e-05 5.92405e-07
3.39532e-05 5.54145e-05 4.71384e-07
5.92405e-07 4.71384e-07 -1.16523e-05
0.00112092 3.98026e-05 7.10037e-07
3.98026e-05 1.37529e-05 1.1731e-06
7.10037e-07 1.1731e-06 -5.74671e-05
0.000854392 -1.65815e-05 -4.88219e-06
-1.65815e-05 -2.46603e-06 -2.35452e-06
-4.88219e-06 -2.35452e-06 -3.00835e-05
0.000966389 9.47141e-06 -2.86093e-08
9.47141e-06 1.897e-05 -6.07648e-08
-2.86093e-08 -6.07648e-08 -3.52213e-05
0.00111679 3.15132e-05 1.03052e-06
3.15132e-05 5.98206e-05 7.5162e-07
1.03052e-06 7.5162e-07 -5.89658e-06
0.000930002 -6.85879e-07 2.23386e-06
-6.85879e-07 1.12343e-05 9.82922e-07
2.23386e-06 9.82922e-07 -4.03414e-05
0.000785395 -2.48635e-05 1.02813e-08
-2.48635e-05 -3.58177e-05 -5.29728e-08
1.02813e-08 -5.29728e-08 -5.92212e-05
0.00266965 -3.91655e-05 -1.61041e-05
-3.91655e-05 0.000908865 -2.82599e-06
-1.61041e-05 -2.82599e-06 0.000914524
0.000752033 -2.35543e-05 4.5484e-06
-2.35543e-05 -5.9503e-05 2.47179e-06
4.5484e-06 2.47179e-06 -7.93495e-05
0.00262569 -3.75394e-05 -1.65215e-07
-3.75394e-05 0.000873794 7.93133e-08
-1.65215e-07 7.93133e-08 0.000882337
0.00263846 -3.56167e-05 1.42977e-05
-3.56167e-05 0.000866532 3.1523e-06
1.42977e-05 3.1523e-06 0.000877491
0.00138675 -2.12013e-05 2.67571e-07
-2.12013e-05 7.73679e-05 -4.65642e-07
2.67571e-07 -4.65642e-07 6.80135e-06
0.00145721 -1.54604e-05 -2.44763e-07
-1.54604e-05 7.97023e-05 3.2674e-07
-2.44763e-07 3.2674e-07 1.33637e-05
0.00156996 -2.13752e-05 4.283e-07
-2.13752e-05 0.000114605 -1.2751e-06
4.283e-07 -1.2751e-06 5.03643e-05
0.00157301 1.67897e-05 1.52325e-06
1.67897e-05 8.5994e-05 -2.75396e-07
1.52325e-06 -2.75396e-07 8.50357e-06
0.00127008 -2.55746e-06 -2.68134e-07
-2.55746e-06 4.93633e-05 -1.36212e-07
-2.68134e-07 -1.36212e-07 -2.14578e-05
0.00128939 -8.26543e-07 -2.34809e-07
-8.26543e-07 6.52431e-05 -7.212e-08
-2.34809e-07 -7.212e-08 -7.47987e-07
0.00121058 3.33682e-06 2.23369e-08
3.33682e-06 3.75954e-05 2.54514e-07
2.23369e-08 2.54514e-07 -2.24966e-05
0.00128399 2.02599e-05 -6.35332e-07
2.02599e-05 6.16579e-05 7.75264e-07
-6.35332e-07 7.75264e-07 -5.3891e-06
0.00129942 2.61317e-05 1.29689e-07
2.61317e-05 6.94411e-05 -2.68057e-08
1.29689e-07 -2.68057e-08 1.47672e-07
0.00129972 2.37244e-05 -8.85762e-07
2.37244e-05 7.35347e-05 -1.53167e-07
-8.85762e-07 -1.53167e-07 5.40663e-06
0.00129388 2.68537e-05 1.36528e-06
2.68537e-05 4.77683e-05 1.39181e-06
1.36528e-06 1.39181e-06 -1.78396e-05
0.00136767 2.61442e-05 3.20687e-07
2.61442e-05 8.96427e-05 2.56384e-07
3.20687e-07 2.56384e-07 2.29206e-05
0.00123405 2.47983e-05 -1.63712e-06
2.47983e-05 4.38062e-05 -4.62595e-07
-1.63712e-06 -4.62595e-07 -2.2191e-05
0.00131215 1.33298e-05 9.29976e-07
1.33298e-05 5.30181e-05 5.09408e-07
9.29976e-07 5.09408e-07 -1.48711e-05
0.00123805 8.54106e-06 -2.18134e-07
8.54106e-06 4.40472e-05 1.27993e-07
-2.18134e-07 1.27993e-07 -2.15507e-05
0.001074 5.27956e-06 -2.94054e-06
5.27956e-06 1.29652e-05 5.23576e-07
-2.94054e-06 5.23576e-07 -4.42201e-05
0.00123024 -1.10981e-05 1.73184e-06
-1.10981e-05 4.62099e-05 -4.23156e-07
1.73184e-06 -4.23156e-07 -1.79965e-05
0.001062 -1.04262e-05 4.54667e-08
-1.04262e-05 1.20103e-05 6.13756e-08
4.54667e-08 6.13756e-08 -4.37167e-05
0.0007077 3.86339e-06 -5.28958e-06
3.86339e-06 -7.36859e-05 1.23942e-06
-5.28958e-06 1.23942e-06 -0.000108576
0.00103098 -1.16628e-05 2.65475e-06
-1.16628e-05 6.70652e-06 -9.42263e-07
2.65475e-06 -9.42263e-07 -4.72542e-05
0.00120529 7.17877e-06 4.39811e-06
7.17877e-06 0.000169972 -5.42667e-07
4.39811e-06 -5.42667e-07 0.000139197
0.0031349 4.80568e-05 -1.93798e-05
4.80568e-05 0.00117047 1.88922e-06
-1.93798e-05 1.88922e-06 0.00116734
0.0016789 1.41316e-05 1.1817e-05
1.41316e-05 0.000400692 -2.46502e-06
1.1817e-05 -2.46502e-06 0.000374797
0.00121123 2.98106e-05 -7.21269e-06
2.98106e-05 0.000207912 1.47472e-06
-7.21269e-06 1.47472e-06 0.000196517
0.00116498 3.13811e-05 5.10462e-06
3.13811e-05 0.000172114 -1.05106e-06
5.10462e-06 -1.05106e-06 0.00016448
0.00149279 -1.60112e-05 2.33987e-07
-1.60112e-05 0.000115937 -5.13821e-07
2.33987e-07 -5.13821e-07 4.76828e-05
0.00135703 -1.23302e-07 -8.91153e-07
-1.23302e-07 3.94819e-05 6.11395e-07
-8.91153e-07 6.11395e-07 -2.85418e-05
0.00141725 -6.71869e-06 1.39106e-07
-6.71869e-06 5.72012e-05 -1.68521e-08
1.39106e-07 -1.68521e-08 -8.84417e-06
0.00104056 2.4477e-05 -1.86962e-06
2.4477e-05 -7.27723e-05 -6.87549e-07
-1.86962e-06 -6.87549e-07 -0.000143452
0.00145424 2.42647e-05 1.32502e-07
2.42647e-05 9.03788e-05 9.04973e-10
1.32502e-07 9.04973e-10 1.6429e-05
0.00152031 2.10528e-05 9.17914e-07
2.10528e-05 8.94855e-05 -4.11439e-07
9.17914e-07 -4.11439e-07 1.22827e-05
0.000756015 1.77773e-05 -3.33783e-06
1.77773e-05 -0.000133576 -1.49541e-06
-3.33783e-06 -1.49541e-06 -0.000193221
0.00135433 3.53616e-05 3.4625e-07
3.53616e-05 0.000109026 1.49224e-08
3.4625e-07 1.49224e-08 4.09211e-05
0.00151103 3.99946e-05 1.1329e-06
3.99946e-05 0.000154244 1.48459e-06
1.1329e-06 1.48459e-06 8.18254e-05
0.000846573 -5.11515e-06 -5.46853e-06
-5.11515e-06 -1.21779e-05 -2.21235e-06
-5.46853e-06 -2.21235e-06 -4.41275e-05
0.000840799 1.59315e-05 -5.44298e-08
1.59315e-05 -6.41676e-05 9.60427e-08
-5.44298e-08 9.60427e-08 -0.000121571
0.0009333 3.16396e-05 1.74805e-06
3.16396e-05 -5.73743e-05 1.46737e-06
1.74805e-06 1.46737e-06 -0.000125471
0.00285135 -4.12153e-05 -1.79939e-05
-4.12153e-05 0.00100798 -2.79087e-06
-1.79939e-05 -2.79087e-06 0.0010105
0.000779 -1.75146e-05 -1.61576e-07
-1.75146e-05 -3.63053e-05 -8.00097e-08
-1.61576e-07 -8.00097e-08 -6.39599e-05
0.000939385 8.22975e-06 2.04618e-06
8.22975e-06 6.85538e-06 1.1408e-06
2.04618e-06 1.1408e-06 -4.73525e-05
0.000720351 -2.45115e-05 4.5408e-06
-2.45115e-05 -6.59522e-05 2.34068e-06
4.5408e-06 2.34068e-06 -8.93392e-05
0.00269393 -3.96808e-05 -1.50853e-07
-3.96808e-05 0.000919009 7.9277e-08
-1.50853e-07 7.9277e-08 0.000925014
0.00266827 -3.79059e-05 1.47467e-05
-3.79059e-05 0.000892576 2.95189e-06
1.47467e-05 2.95189e-06 0.000901371
0.00130298 -2.01023e-05 -4.75749e-07
-2.01023e-05 5.41152e-05 -6.33388e-08
-4.75749e-07 -6.33388e-08 -1.67333e-05
0.00135726 -2.07321e-05 -2.48602e-07
-2.07321e-05 6.55429e-05 -4.95134e-07
-2.48602e-07 -4.95134e-07 -4.08279e-06
0.00147903 -1.53657e-05 3.48288e-07
-1.53657e-05 8.70381e-05 -6.85804e-07
3.48288e-07 -6.85804e-07 2.0333e-05
0.00132778 1.15272e-05 -4.53801e-07
1.15272e-05 7.76051e-05 -5.11139e-08
-4.53801e-07 -5.11139e-08 6.62407e-06
0.00132001 5.59528e-07 -1.75728e-07
5.59528e-07 7.27383e-05 -3.9635e-08
-1.75728e-07 -3.9635e-08 1.69418e-06
0.00133496 -3.32219e-06 -7.3632e-07
-3.32219e-06 8.81437e-05 1.46904e-07
-7.3632e-07 1.46904e-07 2.26711e-05
0.00127695 2.86771e-05 2.47038e-07
2.86771e-05 5.91335e-05 -1.34256e-07
2.47038e-07 -1.34256e-07 -1.00635e-05
0.00129866 2.54512e-05 1.77038e-07
2.54512e-05 7.23467e-05 1.73074e-07
1.77038e-07 1.73074e-07 4.31285e-06
0.00131899 1.98264e-05 -1.06289e-06
1.98264e-05 9.70467e-05 -9.63639e-09
-1.06289e-06 -9.63639e-09 3.18302e-05
0.00132305 2.59243e-05 1.44294e-06
2.59243e-05 6.94685e-05 1.24371e-06
1.44294e-06 1.24371e-06 2.78945e-06
0.00130926 2.62421e-05 6.67343e-08
2.62421e-05 8.25628e-05 5.01905e-08
6.67343e-08 5.01905e-08 1.71673e-05
0.000905363 2.08622e-05 -3.43248e-06
2.08622e-05 -7.09794e-05 1.45742e-07
-3.43248e-06 1.45742e-07 -0.000130465
0.00122822 7.63041e-06 1.61455e-06
7.63041e-06 3.94169e-05 2.29594e-07
1.61455e-06 2.29594e-07 -2.6087e-05
0.00106761 6.36416e-06 -2.08579e-08
6.36416e-06 9.88121e-06 7.66999e-08
-2.08579e-08 7.66999e-08 -4.72849e-05
0.000704161 6.50666e-06 -5.23686e-06
6.50666e-06 -7.33629e-05 9.12092e-07
-5.23686e-06 9.12092e-07 -0.000109528
0.00106064 -1.00585e-05 2.88874e-06
-1.00585e-05 1.11288e-05 -6.88985e-07
2.88874e-06 -6.88985e-07 -4.4658e-05
0.000733096 7.09543e-06 -7.97436e-08
7.09543e-06 -6.2739e-05 9.80361e-08
-7.97436e-08 9.80361e-08 -9.76417e-05
0.00321592 5.01644e-05 -2.0102e-05
5.01644e-05 0.00121831 1.44681e-06
-2.0102e-05 1.44681e-06 0.00121361
0.000757563 2.07193e-06 7.27793e-06
2.07193e-06 -5.33669e-05 -2.19238e-06
7.27793e-06 -2.19238e-06 -8.70532e-05
0.00218527 3.98647e-05 5.09694e-06
3.98647e-05 0.000702178 3.22767e-07
5.09694e-06 3.22767e-07 0.000693296
0.00120026 3.18097e-05 5.36852e-06
3.18097e-05 0.000202827 -9.11063e-07
5.36852e-06 -9.11063e-07 0.000191552
0.00151995 -2.32143e-05 -2.32619e-07
-2.32143e-05 0.000148811 -1.85228e-07
-2.32619e-07 -1.85228e-07 7.86807e-05
0.00136628 -1.19092e-05 -5.63214e-07
-1.19092e-05 6.23041e-05 -2.17925e-07
-5.63214e-07 -2.17925e-07 -4.42024e-06
0.00138013 -1.54746e-05 -3.08802e-07
-1.54746e-05 6.19895e-05 2.75889e-08
-3.08802e-07 2.75889e-08 -6.23787e-06
0.00124389 6.80988e-06 -1.51215e-06
6.80988e-06 2.02452e-05 2.89057e-07
-1.51215e-06 2.89057e-07 -4.68467e-05
0.0013309 -6.19557e-07 4.06785e-07
-6.19557e-07 2.98565e-05 -2.35329e-07
4.06785e-07 -2.35329e-07 -3.79478e-05
0.00133709 -6.51636e-06 7.6225e-07
-6.51636e-06 2.24632e-05 -5.27166e-07
7.6225e-07 -5.27166e-07 -4.41066e-05
0.000793345 1.62549e-05 -3.62202e-06
1.62549e-05 -0.000139636 -1.26681e-06
-3.62202e-06 -1.26681e-06 -0.000200795
0.00132096 2.74704e-05 -4.61765e-07
2.74704e-05 6.36279e-05 -9.01654e-09
-4.61765e-07 -9.01654e-09 -5.93893e-06
0.00148127 2.42222e-05 1.54822e-06
2.42222e-05 0.000105773 -2.16134e-07
1.54822e-06 -2.16134e-07 3.28946e-05
0.000818689 1.94361e-06 -6.01732e-06
1.94361e-06 -3.38599e-05 -2.02672e-06
-6.01732e-06 -2.02672e-06 -6.90881e-05
0.000790102 1.87503e-05 -7.96758e-07
1.87503e-05 -0.000119893 -3.87896e-07
-7.96758e-07 -3.87896e-07 -0.000179924
0.00135855 3.5664e-05 1.72666e-06
3.5664e-05 0.000110788 9.85321e-07
1.72666e-06 9.85321e-07 4.26307e-05
0.00309698 -4.33422e-05 -2.03209e-05
-4.33422e-05 0.00113641 -2.60751e-06
-2.03209e-05 -2.60751e-06 0.00113579
0.000779048 -7.10503e-06 -2.29904e-07
-7.10503e-06 -4.14251e-05 5.45841e-08
-2.29904e-07 5.45841e-08 -7.35119e-05
0.00070782 1.43781e-05 2.18978e-06
1.43781e-05 -0.000130527 1.40539e-06
2.18978e-06 1.40539e-06 -0.000188815
0.00284178 -4.19061e-05 -1.51707e-07
-4.19061e-05 0.00100222 9.41095e-08
-1.51707e-07 9.41095e-08 0.00100521
0.000704327 -2.04565e-05 4.38214e-06
-2.04565e-05 -6.95602e-05 2.40213e-06
4.38214e-06 2.40213e-06 -9.73613e-05
0.00271855 -4.00643e-05 1.52881e-05
-4.00643e-05 0.00092923 2.77047e-06
1.52881e-05 2.77047e-06 0.000935598
0.00131706 -6.06424e-06 -6.08603e-07
-6.06424e-06 6.72912e-05 -1.33875e-07
-6.08603e-07 -1.33875e-07 -3.35076e-06
0.00133749 -1.94122e-05 3.4743e-07
-1.94122e-05 6.94485e-05 -1.39919e-07
3.4743e-07 -1.39919e-07 -1.41077e-06
0.00132649 -2.01463e-05 -4.53464e-07
-2.01463e-05 5.30469e-05 -6.52484e-07
-4.53464e-07 -6.52484e-07 -1.56244e-05
0.00133444 5.43458e-07 -1.19709e-06
5.43458e-07 9.47332e-05 -2.7899e-08
-1.19709e-06 -2.7899e-08 2.68756e-05
0.00135246 1.16044e-05 1.01213e-07
1.16044e-05 9.04295e-05 -7.70683e-08
1.01213e-07 -7.70683e-08 1.94034e-05
0.00136815 5.70928e-06 4.45226e-07
5.70928e-06 9.5468e-05 2.17206e-07
4.45226e-07 2.17206e-07 2.40695e-05
0.00130049 2.61107e-05 8.30176e-07
2.61107e-05 7.25401e-05 1.05158e-08
8.30176e-07 1.05158e-08 4.63498e-06
0.00131439 2.03056e-05 3.05919e-07
2.03056e-05 9.4162e-05 -3.7102e-08
3.05919e-07 -3.7102e-08 2.91054e-05
0.000882587 1.46018e-05 -3.12107e-06
1.46018e-05 -8.06543e-05 1.9402e-07
-3.12107e-06 1.9402e-07 -0.000140928
0.00139227 2.77398e-05 1.71985e-06
2.77398e-05 0.000125045 5.02618e-07
1.71985e-06 5.02618e-07 6.02496e-05
0.00099432 2.20992e-05 -5.31583e-07
2.20992e-05 -2.67646e-05 1.20129e-07
-5.31583e-07 1.20129e-07 -8.56453e-05
0.000712399 1.33027e-05 -5.5191e-06
1.33027e-05 -6.67898e-05 7.0954e-07
-5.5191e-06 7.0954e-07 -0.000105013
0.00106081 5.11189e-06 2.82348e-06
5.11189e-06 6.56352e-06 -3.53425e-07
2.82348e-06 -3.53425e-07 -5.05649e-05
0.000718901 1.32845e-05 9.63101e-08
1.32845e-05 -6.70074e-05 4.30566e-08
9.63101e-08 4.30566e-08 -0.000103349
0.00325032 5.16451e-05 -2.11508e-05
5.16451e-05 0.00124458 1.01108e-06
-2.11508e-05 1.01108e-06 0.00123835
0.000755659 9.59812e-06 5.17521e-06
9.59812e-06 -5.31564e-05 -1.05886e-06
5.17521e-06 -1.05886e-06 -8.80474e-05
0.00319379 4.94404e-05 1.43018e-07
4.94404e-05 0.00120949 1.19903e-07
1.43018e-07 1.19903e-07 0.00120461
0.00124246 2.78688e-05 1.75233e-05
2.78688e-05 0.000236891 -1.68684e-06
1.75233e-05 -1.68684e-06 0.000222515
0.00147004 -1.81306e-05 -7.22213e-07
-1.81306e-05 0.000132699 -1.78267e-07
-7.22213e-07 -1.78267e-07 6.42066e-05
0.00141948 -2.29535e-05 3.33176e-07
-2.29535e-05 9.9942e-05 6.48045e-08
3.33176e-07 6.48045e-08 2.94329e-05
0.0012573 -1.13022e-05 -1.1805e-06
-1.13022e-05 3.57966e-05 -1.42372e-07
-1.1805e-06 -1.42372e-07 -3.00308e-05
0.00134858 -1.23385e-05 1.75924e-07
-1.23385e-05 5.41886e-05 -2.055e-07
1.75924e-07 -2.055e-07 -1.24593e-05
0.00126596 -1.49391e-05 3.94111e-07
-1.49391e-05 7.41156e-06 5.54369e-07
3.94111e-07 5.54369e-07 -6.07985e-05
0.00108477 6.42784e-06 -3.06974e-06
6.42784e-06 -4.95926e-06 -4.70155e-07
-3.06974e-06 -4.70155e-07 -6.42656e-05
0.00128058 6.88601e-06 1.48711e-08
6.88601e-06 3.67737e-05 1.19084e-07
1.48711e-08 1.19084e-07 -3.04069e-05
0.00130408 -1.06912e-06 7.06993e-07
-1.06912e-06 1.98634e-05 -9.10165e-07
7.06993e-07 -9.10165e-07 -4.77178e-05
0.00078417 4.55964e-06 -6.32926e-06
4.55964e-06 -5.5455e-05 -1.75884e-06
-6.32926e-06 -1.75884e-06 -9.24064e-05
0.000958923 1.8325e-05 -9.43229e-07
1.8325e-05 -5.98358e-05 -2.3796e-07
-9.43229e-07 -2.3796e-07 -0.00012044
0.00159955 3.03469e-05 1.39725e-06
3.03469e-05 0.000199118 5.09125e-07
1.39725e-06 5.09125e-07 0.000130676
0.00331183 -4.52709e-05 -2.24445e-05
-4.52709e-05 0.0012488 -2.28545e-06
-2.24445e-05 -2.28545e-06 0.00124565
0.000773505 1.16528e-06 -1.21433e-07
1.16528e-06 -5.2668e-05 9.99126e-08
-1.21433e-07 9.99126e-08 -8.8051e-05
0.000824729 1.9787e-05 1.91066e-06
1.9787e-05 -0.000105982 8.8439e-07
1.91066e-06 8.8439e-07 -0.000166395
0.00306671 -4.40964e-05 -2.09461e-07
-4.40964e-05 0.00112093 1.36864e-07
-2.09461e-07 1.36864e-07 0.00112079
0.000712072 -8.93651e-06 4.8396e-06
-8.93651e-06 -7.03592e-05 2.4839e-06
4.8396e-06 2.4839e-06 -0.000102579
0.00283335 -4.23328e-05 1.611e-05
-4.23328e-05 0.000996871 2.65541e-06
1.611e-05 2.65541e-06 0.00100038
0.00136195 -1.70594e-06 -9.86093e-07
-1.70594e-06 0.000104542 -3.6096e-07
-9.86093e-07 -3.6096e-07 3.70186e-05
0.00133137 -8.42769e-06 5.37111e-08
-8.42769e-06 7.45485e-05 3.19263e-08
5.37111e-08 3.19263e-08 4.0879e-06
0.00137373 -1.91332e-05 8.24112e-07
-1.91332e-05 8.57139e-05 -2.5864e-08
8.24112e-07 -2.5864e-08 1.48218e-05
0.000895428 -9.9143e-06 -3.28772e-06
-9.9143e-06 -8.04021e-05 3.63929e-08
-3.28772e-06 3.63929e-08 -0.000142368
0.00134308 7.05157e-06 3.17539e-07
7.05157e-06 9.93693e-05 8.4768e-08
3.17539e-07 8.4768e-08 3.14927e-05
0.00137286 1.19511e-05 8.7615e-07
1.19511e-05 0.000101204 -6.65509e-08
8.7615e-07 -6.65509e-08 3.01464e-05
0.00130958 2.04519e-05 1.58313e-06
2.04519e-05 9.11715e-05 1.69438e-07
1.58313e-06 1.69438e-07 2.62769e-05
0.000897678 1.45142e-05 -4.2452e-07
1.45142e-05 -7.32964e-05 5.38484e-08
-4.2452e-07 5.38484e-08 -0.000133366
0.000708768 1.407e-05 -5.61116e-06
1.407e-05 -6.84264e-05 3.82342e-07
-5.61116e-06 3.82342e-07 -0.000108057
0.00107796 2.42683e-05 2.36731e-06
2.42683e-05 1.49345e-05 -3.63044e-08
2.36731e-06 -3.63044e-08 -4.33765e-05
0.000717639 1.89318e-05 1.45581e-07
1.89318e-05 -6.49228e-05 7.10369e-08
1.45581e-07 7.10369e-08 -0.000103167
0.00329157 5.35567e-05 -2.23306e-05
5.35567e-05 0.00127229 6.00681e-07
-2.23306e-05 6.00681e-07 0.00126467
0.000736569 2.01588e-05 5.21783e-06
2.01588e-05 -5.94707e-05 -8.02451e-07
5.21783e-06 -8.02451e-07 -9.58457e-05
0.00323591 5.09953e-05 2.57671e-07
5.09953e-05 0.00123893 1.12348e-07
2.57671e-07 1.12348e-07 0.00123256
0.00318344 4.86885e-05 2.14401e-05
4.86885e-05 0.0012062 -1.18429e-06
2.14401e-05 -1.18429e-06 0.00120113
0.00130213 -1.479e-05 -1.286e-06
-1.479e-05 7.02411e-05 -4.06175e-07
-1.286e-06 -4.06175e-07 3.30195e-06
0.00139623 -1.89199e-05 9.24425e-08
-1.89199e-05 9.60425e-05 2.48325e-07
9.24425e-08 2.48325e-07 2.72977e-05
0.00131439 -2.25529e-05 5.41254e-07
-2.25529e-05 4.87522e-05 2.94485e-07
5.41254e-07 2.94485e-07 -2.21154e-05
0.00108023 -1.0907e-05 -2.7556e-06
-1.0907e-05 -1.56012e-06 -6.79358e-07
-2.7556e-06 -6.79358e-07 -6.06631e-05
0.00126857 -1.16718e-05 1.75763e-07
-1.16718e-05 4.11181e-05 -1.59606e-07
1.75763e-07 -1.59606e-07 -2.47448e-05
0.00133125 -1.27578e-05 3.73511e-07
-1.27578e-05 4.62385e-05 -3.37743e-07
3.73511e-07 -3.37743e-07 -2.03317e-05
0.000742227 3.17256e-07 -6.23703e-06
3.17256e-07 -7.42772e-05 -1.39732e-06
-6.23703e-06 -1.39732e-06 -0.000111553
0.00111033 6.02456e-06 -2.79501e-08
6.02456e-06 7.03043e-06 1.60494e-07
-2.79501e-08 1.60494e-07 -5.23686e-05
0.00131683 6.90814e-06 1.62825e-06
6.90814e-06 5.30891e-05 4.06362e-09
1.62825e-06 4.06362e-09 -1.41813e-05
0.00343525 -4.6951e-05 -2.39492e-05
-4.6951e-05 0.00131659 -1.85741e-06
-2.39492e-05 -1.85741e-06 0.00131167
0.000761276 4.43429e-06 -3.12055e-08
4.43429e-06 -6.44756e-05 1.59329e-07
-3.12055e-08 1.59329e-07 -0.000101548
0.00112648 2.05183e-05 2.26182e-06
2.05183e-05 2.09978e-05 8.84951e-07
2.26182e-06 8.84951e-07 -3.90693e-05
0.00328681 -4.60857e-05 -1.75989e-07
-4.60857e-05 0.00123575 1.51023e-07
-1.75989e-07 1.51023e-07 0.00123295
0.000728973 5.89834e-08 5.52528e-06
5.89834e-08 -7.11931e-05 2.28106e-06
5.52528e-06 2.28106e-06 -0.000106717
0.00303377 -4.47015e-05 1.77174e-05
-4.47015e-05 0.0011041 2.57664e-06
1.77174e-05 2.57664e-06 0.00110446
0.00109447 -7.06111e-06 -2.8013e-06
-7.06111e-06 1.47283e-05 -4.65982e-07
-2.8013e-06 -4.65982e-07 -4.61457e-05
0.00127487 -6.12369e-06 2.60428e-07
-6.12369e-06 6.17522e-05 -3.30009e-08
2.60428e-07 -3.30009e-08 -6.54143e-06
0.0013442 -1.17529e-05 1.04268e-06
-1.17529e-05 8.09817e-05 4.2904e-07
1.04268e-06 4.2904e-07 1.07021e-05
0.000700631 2.96975e-06 -5.6261e-06
2.96975e-06 -7.3961e-05 -1.04452e-07
-5.6261e-06 -1.04452e-07 -0.000114048
0.000911104 -3.41565e-06 -4.48448e-07
-3.41565e-06 -7.24522e-05 2.10775e-07
-4.48448e-07 2.10775e-07 -0.000134144
0.00135425 1.30018e-05 1.75692e-06
1.30018e-05 0.000105271 -8.00179e-08
1.75692e-06 -8.00179e-08 3.73595e-05
0.000913832 1.47571e-05 2.17821e-06
1.47571e-05 -6.54953e-05 7.39871e-08
2.17821e-06 7.39871e-08 -0.000125347
0.000710664 1.78413e-05 7.96801e-08
1.78413e-05 -6.76505e-05 1.18534e-07
7.96801e-08 1.18534e-07 -0.000107444
0.00334824 5.58085e-05 -2.31761e-05
5.58085e-05 0.00130469 1.85654e-07
-2.31761e-05 1.85654e-07 0.00129594
0.000721936 2.63866e-05 5.45958e-06
2.63866e-05 -6.31846e-05 -5.19816e-07
5.45958e-06 -5.19816e-07 -0.000101659
0.00328741 5.28532e-05 5.9094e-07
5.28532e-05 0.00127103 1.35022e-07
5.9094e-07 1.35022e-07 0.0012633
0.00321623 4.9883e-05 2.30209e-05
4.9883e-05 0.00123076 -7.7491e-07
2.30209e-05 -7.7491e-07 0.00122427
0.00108768 -1.40333e-05 -2.86258e-06
-1.40333e-05 9.67335e-06 -8.17744e-07
-2.86258e-06 -8.17744e-07 -5.03161e-05
0.00125716 -1.59987e-05 -3.77622e-08
-1.59987e-05 4.79258e-05 -7.62342e-09
-3.77622e-08 -7.62342e-09 -1.92504e-05
0.00132636 -1.98011e-05 8.02404e-07
-1.98011e-05 6.13563e-05 3.50888e-07
8.02404e-07 3.50888e-07 -7.65796e-06
0.00177402 -1.65288e-05 -1.27253e-05
-1.65288e-05 0.000442887 -1.05254e-06
-1.27253e-05 -1.05254e-06 0.00041132
0.00110463 -1.16694e-05 1.74743e-07
-1.16694e-05 1.0019e-05 -4.30955e-08
1.74743e-07 -4.30955e-08 -4.9194e-05
0.00128343 -1.22728e-05 1.37339e-06
-1.22728e-05 4.8154e-05 -1.68327e-07
1.37339e-06 -1.68327e-07 -1.77529e-05
0.00343338 -4.84613e-05 -2.45332e-05
-4.84613e-05 0.00132489 -1.3652e-06
-2.45332e-05 -1.3652e-06 0.0013188
0.000746675 1.3141e-06 2.29526e-08
1.3141e-06 -7.13862e-05 1.77332e-07
2.29526e-08 1.77332e-07 -0.000108768
0.00113761 4.89385e-06 3.2462e-06
4.89385e-06 1.98845e-05 8.69792e-07
3.2462e-06 8.69792e-07 -3.96405e-05
0.00343056 -4.76837e-05 -1.49065e-07
-4.76837e-05 0.00131308 1.58788e-07
-1.49065e-07 1.58788e-07 0.00130836
0.000740877 4.472e-06 6.01414e-06
4.472e-06 -7.23851e-05 2.04695e-06
6.01414e-06 2.04695e-06 -0.000109574
0.00325776 -4.67644e-05 2.00758e-05
-4.67644e-05 0.00122081 2.39697e-06
2.00758e-05 2.39697e-06 0.00121837
0.000705252 -3.38396e-06 -8.05984e-06
-3.38396e-06 -7.43865e-05 -8.7743e-07
-8.05984e-06 -8.7743e-07 -0.000114479
0.00101215 -9.79209e-06 8.36674e-08
-9.79209e-06 -2.59559e-05 1.60298e-07
8.36674e-08 1.60298e-07 -8.73357e-05
0.00118078 -1.01848e-05 1.72462e-06
-1.01848e-05 1.5463e-05 4.05574e-07
1.72462e-06 4.05574e-07 -5.35407e-05
0.00339869 -8.7808e-06 -2.26169e-05
-8.7808e-06 0.00133153 -2.51189e-07
-2.26169e-05 -2.51189e-07 0.00132222
0.000712313 4.7471e-06 4.90058e-08
4.7471e-06 -6.87006e-05 1.28541e-07
4.90058e-08 1.28541e-07 -0.000108875
0.000921589 3.30564e-06 2.26874e-06
3.30564e-06 -6.70043e-05 2.22153e-07
2.26874e-06 2.22153e-07 -0.000128409
0.000717667 2.06157e-05 5.58564e-06
2.06157e-05 -6.46616e-05 -1.21838e-07
5.58564e-06 -1.21838e-07 -0.00010455
0.0033658 5.4959e-05 1.39668e-06
5.4959e-05 0.00131343 1.77502e-07
1.39668e-06 1.77502e-07 0.00130464
0.00328813 5.17513e-05 2.50679e-05
5.17513e-05 0.00127202 -3.44813e-07
2.50679e-05 -3.44813e-07 0.0012642
0.00175982 -2.65893e-05 -1.54803e-05
-2.65893e-05 0.000443106 -1.24916e-06
-1.54803e-05 -1.24916e-06 0.000410053
0.00109967 -1.32151e-05 -1.60546e-08
-1.32151e-05 1.5118e-05 2.41854e-08
-1.60546e-08 2.41854e-08 -4.4823e-05
0.00121221 -1.70972e-05 1.19372e-06
-1.70972e-05 2.5629e-05 3.80622e-07
1.19372e-06 3.80622e-07 -4.17806e-05
0.00336439 -5.67637e-05 -9.60457e-06
-5.67637e-05 0.00130161 -4.61329e-07
-9.60457e-06 -4.61329e-07 0.0012941
0.000744797 -8.76326e-06 5.57791e-08
-8.76326e-06 -6.54678e-05 4.3337e-08
5.57791e-08 4.3337e-08 -0.000103263
0.00112888 -1.11954e-05 3.04705e-06
-1.11954e-05 2.14432e-05 6.00008e-07
3.04705e-06 6.00008e-07 -3.78259e-05
0.00346038 -4.89757e-05 -1.67455e-07
-4.89757e-05 0.00133607 1.57087e-07
-1.67455e-07 1.57087e-07 0.00133008
0.000747499 2.81424e-06 6.35609e-06
2.81424e-06 -7.02216e-05 1.70647e-06
6.35609e-06 1.70647e-06 -0.000107712
0.00342345 -4.84624e-05 2.2175e-05
-4.84624e-05 0.0013085 2.08187e-06
2.2175e-05 2.08187e-06 0.00130398
0.00130577 -1.39538e-05 -2.41966e-05
-1.39538e-05 0.000294874 -3.50807e-07
-2.41966e-05 -3.50807e-07 0.00027415
0.00125431 -8.88955e-06 -5.11971e-06
-8.88955e-06 0.000196428 1.80291e-07
-5.11971e-06 1.80291e-07 0.000159687
0.000936451 -9.09144e-06 2.90247e-06
-9.09144e-06 -6.34455e-05 7.09812e-07
2.90247e-06 7.09812e-07 -0.000125263
0.00340265 3.68378e-06 9.8935e-07
3.68378e-06 0.00133295 -7.19227e-08
9.8935e-07 -7.19227e-08 0.00132392
0.000713822 6.48957e-06 5.72588e-06
6.48957e-06 -6.80744e-05 3.65173e-07
5.72588e-06 3.65173e-07 -0.000108339
0.00336957 5.21968e-05 2.53583e-05
5.21968e-05 0.00131577 9.42059e-08
2.53583e-05 9.42059e-08 0.00130698
0.00126176 -3.17474e-05 -6.04328e-06
-3.17474e-05 0.000269715 -5.55872e-07
-6.04328e-06 -5.55872e-07 0.000249221
0.00127624 -1.2946e-05 -4.79641e-06
-1.2946e-05 0.000203421 5.80469e-08
-4.79641e-06 5.80469e-08 0.000167665
0.00111155 -1.52061e-05 2.70951e-06
-1.52061e-05 2.06256e-05 8.49859e-07
2.70951e-06 8.49859e-07 -3.9382e-05
0.0023617 -4.04282e-05 8.82765e-06
-4.04282e-05 0.000804018 2.5173e-07
8.82765e-06 2.5173e-07 0.000790865
0.000746427 -3.54074e-06 6.28898e-06
-3.54074e-06 -6.44385e-05 1.38317e-06
6.28898e-06 1.38317e-06 -0.000102203
0.00349201 -4.97581e-05 2.37769e-05
-4.97581e-05 0.00134949 1.65982e-06
2.37769e-05 1.65982e-06 0.00134357
0.00340784 -5.27178e-05 -1.3511e-06
-5.27178e-05 0.00133406 1.85454e-07
-1.3511e-06 1.85454e-07 0.00132507
0.00072483 -4.24661e-06 5.94574e-06
-4.24661e-06 -6.48839e-05 9.45095e-07
5.94574e-06 9.45095e-07 -0.000104807
0.00341812 1.21304e-05 2.51215e-05
1.21304e-05 0.00134004 -1.07996e-07
2.51215e-05 -1.07996e-07 0.00133087
0.00233915 -4.17604e-05 9.04505e-06
-4.17604e-05 0.000801926 1.28087e-07
9.04505e-06 1.28087e-07 0.000787397
0.000738256 -5.16327e-06 5.96111e-06
-5.16327e-06 -6.14624e-05 1.32808e-06
5.96111e-06 1.32808e-06 -0.00010035
0.00345879 -5.10304e-05 2.43539e-05
-5.10304e-05 0.00134299 1.19674e-06
2.43539e-05 1.19674e-06 0.00133601
0.00341941 -5.47275e-05 2.42324e-05
-5.47275e-05 0.00133834 3.30093e-07
2.42324e-05 3.30093e-07 0.00132939
0.00342786 -5.32158e-05 2.42312e-05
-5.32158e-05 0.00133672 7.76757e-07
2.42312e-05 7.76757e-07 0.00132866
