# vtk DataFile Version 2.0
Wound Healing Simulation
ASCII
DATASET UNSTRUCTURED_GRID
POINTS 3012 float
69.9759 18.75 4
67.2507 60.3285 4
69.976 18.75 2
73.0099 25.446 4
71.1327 20.9142 4
68.6801 16.6661 4
67.8276 19.9248 3.98756
67.2507 60.3286 2
71.1327 54.0858 4
68.6801 58.3339 4
65.6939 62.2254 4
65.3141 59.004 3.98871
74.6784 42.3946 4
73.7221 47.2057 4
69.9759 18.75 0
73.0099 25.446 2
68.6801 16.6661 2
71.1327 20.9142 2
67.8282 19.926 2
74.6792 32.6053 4
73.7222 27.7943 4
72.1454 23.1494 4
70.6157 26.2225 3.98612
68.8879 21.9582 3.9872
67.2507 14.6715 4
66.6391 17.9693 3.98816
65.8032 21.0215 3.98238
67.2507 60.3285 0
71.1327 54.0858 2
68.6801 58.3339 2
65.694 62.2255 2
65.3145 59.0036 2
72.1454 51.8506 4
69.9759 56.25 4
68.8387 53.1129 3.98692
64.0165 64.0165 4
66.6128 57.1359 3.98839
63.8874 60.7689 3.99004
63.5054 57.7787 3.98408
60.3285 67.2507 4
74.6792 42.3947 2
73.7222 47.2057 2
74.9194 39.9526 4
74.2788 44.8158 4
72.1691 42.0854 3.98454
73.0099 49.554 4
71.2508 46.5972 3.98599
73.0099 25.446 0
71.1327 20.9142 0
68.6801 16.6661 0
67.8276 19.9248 0.0124362
74.6792 32.6053 2
73.7222 27.7943 2
67.2508 14.6715 2
72.1455 23.1494 2
70.6158 26.2233 2
66.6397 17.97 2
68.8882 21.9597 2
65.8034 21.0209 2
74.9197 35.0474 4
74.2794 30.1841 4
72.1858 32.9434 3.98508
71.2795 28.4324 3.98596
69.8175 24.0609 3.98672
68.3508 26.9519 3.97821
66.7682 22.9315 3.98103
65.694 12.7746 4
65.3255 16.1001 3.98919
64.7197 19.1887 3.98361
63.8963 22.0286 3.97935
71.1327 54.0858 0
65.6939 62.2254 0
68.6801 58.3339 0
65.3141 59.004 0.0112943
72.1455 51.8506 2
69.9759 56.25 2
68.8389 53.1114 2
64.0165 64.0165 2
66.6133 57.1351 2
63.8877 60.7687 2
63.5055 57.7795 2
62.2254 65.694 4
58.8947 65.416 3.99266
69.771 50.9878 3.98648
67.786 55.1685 3.98782
66.6554 52.2111 3.98071
62.3374 62.4299 3.99137
64.6669 56.0372 3.98408
62.2066 59.4122 3.98453
61.8311 56.6919 3.98163
58.3339 68.6801 4
60.3285 67.2508 2
73.7221 47.2057 0
74.6784 42.3946 0
74.9197 39.9526 2
74.2794 44.8159 2
72.1691 42.0857 2
73.0099 49.554 2
71.2508 46.5971 2
75 37.5 4
72.4059 39.8021 3.98358
71.7838 44.3524 3.98546
69.8069 41.7895 3.97696
70.5769 48.8122 3.98628
68.9164 46.0147 3.97796
74.6792 32.6053 0
73.7222 27.7943 0
67.2507 14.6715 0
72.1454 23.1494 0
70.6157 26.2225 0.0138827
68.8879 21.9582 0.012799
66.6391 17.9693 0.0118419
65.8032 21.0215 0.0176195
74.9197 35.0474 2
74.2794 30.1841 2
72.1857 32.9434 2
71.2796 28.4327 2
65.694 12.7745 2
65.3259 16.1002 2
69.8177 24.0621 2
68.3508 26.952 2
64.72 19.1878 2
66.7682 22.9312 2
63.8965 22.0278 2
72.4138 35.2241 3.98394
71.8051 30.6767 3.98583
69.8431 33.2687 3.97748
68.9699 29.0387 3.97804
67.6161 24.9117 3.97948
66.2001 27.6337 3.97515
64.0165 10.9835 4
64.765 23.8259 3.9779
63.8915 14.3239 3.99031
63.5182 17.4388 3.98489
62.9162 20.3109 3.98046
62.1044 22.9339 3.97772
60.6847 11.0953 3.99186
57.6132 11.44 3.98695
72.1454 51.8506 0
69.9759 56.25 0
68.8387 53.1129 0.0130768
64.0165 64.0165 0
63.8874 60.7689 0.00996274
66.6128 57.1359 0.0116137
63.5054 57.7787 0.0159159
62.2255 65.694 2
58.8949 65.4161 2
69.7711 50.9867 2
67.7865 55.1672 2
66.6553 52.2114 2
62.3377 62.4298 2
64.6671 56.0381 2
62.2066 59.4128 2
61.8311 56.6927 2
60.6695 63.979 3.99208
57.0253 66.7368 3.99318
57.5588 63.6972 3.98744
67.5127 50.1774 3.97926
65.7085 54.1771 3.98274
64.5464 51.3899 3.97715
60.7755 60.9452 3.98543
62.8298 55.0773 3.98178
60.6644 58.1707 3.98169
60.3381 55.7991 3.98059
56.25 69.9759 4
58.3339 68.6801 2
60.3285 67.2507 0
58.9218 9.65357 3.99242
62.2254 9.30607 4
73.0099 49.554 0
74.2788 44.8158 0
71.2508 46.5972 0.0140093
72.1691 42.0854 0.0154626
74.9194 39.9526 0
75 37.5 2
72.4059 39.8024 2
71.7838 44.3527 2
69.807 41.7896 2
70.577 48.8117 2
68.9164 46.0146 2
72.4892 37.512 3.98337
70.0428 39.6573 3.97546
69.434 43.9073 3.97776
67.6016 41.4984 3.97377
68.2705 48.1072 3.97844
66.7159 45.4413 3.97507
74.9197 35.0474 0
74.2794 30.1841 0
72.1858 32.9434 0.0149167
71.2795 28.4324 0.0140427
65.694 12.7746 0
65.3255 16.1001 0.0108103
69.8175 24.0609 0.0132806
68.3508 26.9519 0.0217924
66.7682 22.9315 0.0189661
64.7197 19.1887 0.0163854
63.8963 22.0286 0.0206516
72.4139 35.2241 2
71.8052 30.6768 2
69.8431 33.2688 2
68.97 29.0388 2
64.0165 10.9835 2
63.8917 14.324 2
63.5185 17.4379 2
67.616 24.9116 2
66.2002 27.6334 2
62.9166 20.31 2
64.765 23.8253 2
62.1047 22.9333 2
60.685 11.0953 2
57.6132 11.4393 2
70.0599 35.3923 3.9762
69.4708 31.1499 3.97812
67.6602 33.5906 3.97427
66.7778 29.622 3.97493
65.5309 25.6971 3.97629
64.153 28.2528 3.97418
62.3426 12.6522 3.99118
62.8671 24.6308 3.97642
62.2023 15.7763 3.98529
61.8216 18.6732 3.98193
61.2291 21.3297 3.97841
60.4388 23.716 3.97719
59.2475 12.7713 3.98561
55.875 10.2267 3.9884
56.4065 13.1025 3.98378
69.771 50.9878 0.0135214
62.2254 65.694 0
58.8947 65.416 0.00734425
67.786 55.1685 0.0121844
66.6554 52.2111 0.0192941
62.3374 62.4299 0.00862522
62.2066 59.4122 0.0154726
64.6669 56.0372 0.0159245
61.8311 56.6919 0.0183743
60.6698 63.9791 2
57.0255 66.7368 2
57.5587 63.6978 2
67.5125 50.1775 2
65.7086 54.1778 2
64.5464 51.3906 2
60.7755 60.946 2
62.8299 55.0782 2
60.6643 58.1715 2
60.3381 55.7998 2
55.0707 67.9336 3.99346
59.2208 62.3726 3.98609
55.805 64.9145 3.98885
56.3285 62.0982 3.98433
65.3394 49.4112 3.9759
63.716 53.2995 3.9797
62.4525 50.6591 3.97535
59.3372 59.5676 3.98326
61.0891 54.3211 3.98081
59.2967 57.0262 3.9797
59.2534 55.1976 3.98122
48.1031 68.5817 3.99024
50.9484 69.9331 3.99387
54.0858 71.1327 4
56.25 69.976 2
58.3339 68.6801 0
57.0589 8.33344 3.99292
60.3285 7.74928 4
58.9221 9.65351 2
62.2255 9.30602 2
70.5769 48.8122 0.0137187
71.7838 44.3524 0.0145387
68.9164 46.0147 0.0220386
69.8069 41.7895 0.0230366
72.4059 39.8021 0.0164213
75 37.5 0
72.4892 37.5122 2
70.0429 39.6573 2
69.4341 43.9073 2
67.6018 41.4985 2
68.2704 48.1072 2
66.7159 45.4416 2
70.1307 37.5217 3.97535
67.8368 39.5127 3.97223
67.2291 43.4711 3.97471
65.5614 41.2119 3.97284
66.0755 47.42 3.97549
64.6599 44.8517 3.97417
72.4138 35.2241 0.0160569
71.8051 30.6767 0.0141687
69.8431 33.2687 0.0225215
68.9699 29.0387 0.0219551
64.0165 10.9835 0
63.8915 14.3239 0.00969223
63.5182 17.4388 0.0151106
67.6161 24.9117 0.0205169
66.2001 27.6337 0.0248487
64.765 23.8259 0.0220968
62.9162 20.3109 0.019544
62.1044 22.9339 0.0222788
60.6847 11.0953 0.0081384
57.6132 11.44 0.0130516
70.0601 35.3924 2
69.4709 31.15 2
67.6603 33.5904 2
66.7779 29.6218 2
62.3429 12.6524 2
62.2024 15.7758 2
61.8219 18.6723 2
65.5309 25.6967 2
64.1531 28.2525 2
61.2296 21.3289 2
62.8673 24.6303 2
60.4392 23.7154 2
59.2475 12.7706 2
56.4065 13.1017 2
55.875 10.2259 2
67.8737 35.5476 3.97317
67.271 31.6216 3.9751
65.7038 33.9261 3.97307
64.6698 30.1896 3.97379
63.5463 26.41 3.97483
62.265 28.7733 3.97478
60.7772 14.2158 3.98519
61.0564 25.3293 3.97574
60.618 17.1161 3.98319
60.2323 19.8026 3.98004
59.674 22.2445 3.97702
58.9922 24.307 3.9776
54.038 9.13027 3.989
57.9122 14.3212 3.98351
54.7876 12.0016 3.985
55.3142 14.633 3.98246
67.5127 50.1774 0.0207361
57.0253 66.7368 0.00681709
60.6695 63.979 0.00791996
57.5588 63.6972 0.0125632
65.7085 54.1771 0.0172585
64.5464 51.3899 0.0228501
60.7755 60.9452 0.0145664
60.6644 58.1707 0.0183131
62.8298 55.0773 0.0182217
60.3381 55.7991 0.019412
55.0709 67.9337 2
59.2207 62.3734 2
55.8049 64.915 2
56.3284 62.0988 2
65.3393 49.4117 2
63.7161 53.3004 2
62.4525 50.6598 2
59.3372 59.5685 2
61.0892 54.322 2
59.2968 57.0269 2
59.2535 55.1983 2
53.0425 69.0014 3.99369
53.9672 66.0165 3.98947
57.8832 60.8794 3.98377
54.6846 63.2144 3.98553
55.2135 60.6263 3.98274
63.2035 48.6663 3.9744
61.754 52.5849 3.9782
60.2856 50.0288 3.97436
58.0233 58.2738 3.98116
59.3403 53.9612 3.97994
58.1358 55.8276 3.97776
50.1097 67.8597 3.99005
47.4637 66.5861 3.98797
46.0569 69.1613 3.99046
48.1031 68.5821 2
48.8026 70.7243 3.99403
50.9486 69.9331 2
51.8506 72.1454 4
54.0858 71.1327 2
56.25 69.9759 0
55.1031 7.13804 3.99313
58.3339 6.31992 4
57.0591 8.33331 2
60.3286 7.74926 2
58.9218 9.65357 0.00757775
62.2254 9.30607 0
68.2705 48.1072 0.0215566
69.434 43.9073 0.0222353
66.7159 45.4413 0.0249306
67.6016 41.4984 0.0262256
70.0428 39.6573 0.0245448
72.4892 37.512 0.0166251
70.1308 37.5218 2
67.837 39.5128 2
67.2293 43.4713 2
65.5616 41.2121 2
66.0754 47.4203 2
64.6599 44.852 2
67.933 37.5223 3.97203
65.7907 39.3714 3.97126
65.1829 43.0281 3.97376
63.7622 40.9327 3.9725
63.9739 46.7207 3.97439
62.8161 44.2216 3.97473
70.0599 35.3923 0.0238032
69.4708 31.1499 0.0218833
67.6602 33.5906 0.025727
66.7778 29.622 0.0250742
62.3426 12.6522 0.00881638
62.2023 15.7763 0.0147059
61.8216 18.6732 0.0180672
65.5309 25.6971 0.0237102
64.153 28.2528 0.0258177
62.8671 24.6308 0.0235832
61.2291 21.3297 0.0215865
60.4388 23.716 0.022807
59.2475 12.7713 0.0143902
56.4065 13.1025 0.0162157
55.875 10.2267 0.0116048
67.874 35.5476 2
67.2711 31.6215 2
65.704 33.9258 2
64.67 30.1894 2
60.7772 14.2151 2
60.6181 17.1153 2
60.2328 19.8017 2
63.5464 26.4097 2
62.2651 28.773 2
59.6745 22.2438 2
61.0567 25.3288 2
58.9927 24.3065 2
57.9121 14.3205 2
55.3141 14.6321 2
54.0379 9.12965 2
54.7876 12.0007 2
65.8805 35.6666 3.97206
65.1935 32.1519 3.97386
64.2912 34.2488 3.97303
62.6031 30.6318 3.97347
61.6602 27.0665 3.97399
60.8589 29.1339 3.97578
59.3136 15.658 3.98357
59.3433 25.7855 3.97788
59.1301 18.3417 3.98207
58.7509 20.8386 3.97804
58.2983 23.077 3.97575
57.9823 24.6507 3.97805
52.1126 8.149 3.98935
53.0584 11.0082 3.98603
56.6789 15.7295 3.98269
53.8106 13.6678 3.98332
54.3783 15.9839 3.98222
55.0707 67.9336 0.00654371
65.3394 49.4112 0.0240998
55.805 64.9145 0.0111461
59.2208 62.3726 0.0139131
56.3285 62.0982 0.0156682
63.716 53.2995 0.0202981
62.4525 50.6591 0.0246496
59.3372 59.5676 0.0167382
59.2967 57.0262 0.0202991
61.0891 54.3211 0.0191856
59.2534 55.1976 0.0187771
53.0428 69.0014 2
53.9671 66.0169 2
57.8831 60.8801 2
54.6845 63.215 2
55.2134 60.6271 2
63.2035 48.6668 2
61.7541 52.5858 2
60.2856 50.0295 2
58.0234 58.2746 2
59.3405 53.962 2
58.1358 55.8282 2
52.0707 67.0028 3.98983
52.9537 64.2244 3.98661
56.6516 59.5001 3.98252
53.6823 61.6313 3.98378
54.2629 59.3328 3.98145
61.0042 47.8881 3.97347
59.7239 52.1175 3.97786
58.0384 49.6302 3.9762
56.7831 57.0022 3.97812
57.1329 54.1377 3.9777
50.1097 67.86 2
49.3373 65.9263 3.98775
47.4635 66.5866 2
46.8925 64.7434 3.98639
45.5588 67.1037 3.98786
43.9738 69.5937 3.9905
46.0569 69.1616 2
46.6093 71.3688 3.99422
48.1031 68.5817 0.00976113
48.8028 70.7244 2
49.554 73.0099 4
50.9484 69.9331 0.00613255
51.8506 72.1455 2
54.0858 71.1327 0
53.0641 6.06964 3.99334
55.1033 7.13791 2
56.25 5.02411 4
58.3339 6.3199 2
57.0589 8.33344 0.00707878
60.3285 7.74928 0
66.0755 47.42 0.0245106
67.2291 43.4711 0.0252894
64.6599 44.8517 0.0258275
65.5614 41.2119 0.0271581
67.8368 39.5127 0.0277692
70.1307 37.5217 0.0246468
67.9331 37.5223 2
65.7909 39.3716 2
65.1831 43.0285 2
63.7625 40.9329 2
63.9739 46.7212 2
62.8162 44.2219 2
65.8934 37.5023 3.97061
63.9038 39.2684 3.97109
63.3372 42.5546 3.97351
62.4392 40.7008 3.97256
61.9774 45.9255 3.97468
61.4622 43.6898 3.97484
67.8737 35.5476 0.0268323
67.271 31.6216 0.0249038
65.7038 33.9261 0.0269262
64.6698 30.1896 0.0262095
60.7772 14.2158 0.0148144
60.618 17.1161 0.0168105
60.2323 19.8026 0.0199632
63.5463 26.41 0.0251708
62.265 28.7733 0.025216
61.0564 25.3293 0.0242603
59.674 22.2445 0.0229838
58.9922 24.307 0.0224047
57.9122 14.3212 0.0164916
55.3142 14.633 0.0175443
54.038 9.13027 0.0109988
54.7876 12.0016 0.0149999
65.881 35.6665 2
65.1936 32.1517 2
64.2914 34.2484 2
62.6033 30.6316 2
59.3136 15.6571 2
59.1305 18.3407 2
58.7515 20.8378 2
61.6604 27.0662 2
60.8591 29.1336 2
58.2989 23.0765 2
59.3436 25.7852 2
57.9828 24.6503 2
56.6787 15.7287 2
54.3782 15.983 2
53.8106 13.6668 2
52.1125 8.14842 2
53.0583 11.0075 2
64.096 35.6322 3.97201
62.9399 33.0437 3.97294
60.6245 30.6062 3.97294
59.5816 27.9017 3.97441
57.9431 16.9703 3.98277
57.7536 25.713 3.97942
57.7223 19.4606 3.9806
57.382 21.824 3.97562
57.1997 23.9318 3.97532
50.1126 7.28115 3.98955
51.2327 10.1169 3.98674
52.1726 12.7852 3.98459
55.5402 16.9578 3.98268
52.979 15.2488 3.98166
53.7606 16.9652 3.98237
53.0425 69.0014 0.00631026
53.9672 66.0165 0.0105312
63.2035 48.6663 0.0255988
54.6846 63.2144 0.0144651
57.8832 60.8794 0.0162329
55.2135 60.6263 0.0172624
61.754 52.5849 0.0218033
60.2856 50.0288 0.0256424
58.0233 58.2738 0.0188367
58.1358 55.8276 0.0222413
59.3403 53.9612 0.0200551
52.0706 67.0032 2
52.9535 64.2249 2
56.6516 59.5009 2
53.6821 61.632 2
54.2627 59.3337 2
61.0043 47.8887 2
59.7241 52.1182 2
58.0385 49.6308 2
56.7832 57.0031 2
57.133 54.1381 2
51.1682 65.1332 3.98731
52.0466 62.5463 3.9848
55.4847 58.2626 3.98196
52.8363 60.1456 3.9823
53.6435 58.4831 3.98054
58.3186 46.8603 3.97585
57.5748 51.8013 3.97717
56.2613 49.5668 3.98105
55.4793 55.8085 3.97668
55.3691 53.3971 3.97273
50.1097 67.8597 0.00995216
49.3371 65.9267 2
48.6183 64.1296 3.98598
47.4637 66.5861 0.0120347
45.5587 67.1041 2
46.8924 64.7439 2
46.3819 63.0621 3.98517
45.1328 65.205 3.98651
43.6319 67.4746 3.98803
41.861 69.8812 3.99046
43.9739 69.5941 2
44.3767 71.8636 3.9942
46.0569 69.1613 0.00954203
46.6095 71.369 2
47.2057 73.7222 4
48.8026 70.7243 0.00597083
49.554 73.0099 2
51.8506 72.1454 0
50.9537 5.13009 3.99353
53.0643 6.06947 2
54.0858 3.86728 4
55.1031 7.13804 0.00686573
56.25 5.02406 2
58.3339 6.31992 0
63.9739 46.7207 0.0256065
65.1829 43.0281 0.0262435
62.8161 44.2216 0.0252665
63.7622 40.9327 0.0275029
65.7907 39.3714 0.0287424
67.933 37.5223 0.027969
65.8935 37.5024 2
63.9041 39.2685 2
63.3375 42.5549 2
62.4396 40.701 2
61.9775 45.9259 2
61.4624 43.6901 2
63.9637 37.4576 3.97062
62.1649 39.3566 3.97174
61.2296 41.9633 3.97352
60.262 44.7788 3.97522
65.8805 35.6666 0.0279368
65.1935 32.1519 0.0261399
64.2912 34.2488 0.0269669
62.6031 30.6318 0.0265271
59.3136 15.658 0.0164293
59.1301 18.3417 0.017928
58.7509 20.8386 0.0219551
61.6602 27.0665 0.0260086
60.8589 29.1339 0.0242167
59.3433 25.7855 0.0221169
58.2983 23.077 0.0242534
57.9823 24.6507 0.0219513
56.6789 15.7295 0.0173068
54.3783 15.9839 0.0177833
53.8106 13.6678 0.0166843
52.1126 8.149 0.0106528
53.0584 11.0082 0.0139693
64.0966 35.632 2
62.94 33.0433 2
60.6247 30.606 2
57.9432 16.9693 2
57.7229 19.4595 2
57.3828 21.8232 2
59.5818 27.9014 2
57.2003 23.9315 2
57.7541 25.7127 2
50.1125 7.2807 2
55.5401 16.9568 2
53.7604 16.9642 2
52.9789 15.2477 2
52.1726 12.7845 2
51.2326 10.1163 2
62.1986 35.3586 3.9717
60.3045 32.7428 3.97242
58.6342 30.0684 3.97276
57.3042 27.369 3.97493
56.6403 18.1415 3.98262
56.3071 25.0883 3.97487
56.3652 20.5055 3.97784
56.1206 22.8531 3.97259
48.0562 6.52438 3.98983
49.3244 9.3252 3.98707
50.4333 11.9838 3.98497
51.3787 14.4842 3.98315
54.4181 17.9059 3.98272
52.3631 17.0205 3.98142
52.0707 67.0028 0.01017
52.9537 64.2244 0.0133933
61.0042 47.8881 0.0265321
53.6823 61.6313 0.0162235
56.6516 59.5001 0.0174847
54.2629 59.3328 0.0185516
59.7239 52.1175 0.0221359
58.0384 49.6302 0.0237996
56.7831 57.0022 0.0218783
57.1329 54.1377 0.0222971
51.1679 65.1337 2
52.0464 62.5469 2
55.4846 58.2635 2
52.8361 60.1463 2
53.6433 58.4839 2
58.3188 46.8609 2
57.575 51.8019 2
56.2614 49.5674 2
55.4795 55.8095 2
55.3692 53.3978 2
50.3465 63.3878 3.98552
51.2451 60.9444 3.98301
54.2246 57.2772 3.9805
52.3153 58.6456 3.98072
56.7373 44.1944 3.97318
55.5081 47.9096 3.97729
55.0838 51.4003 3.97347
54.0134 54.5594 3.97511
49.3373 65.9263 0.012246
48.618 64.13 2
47.9622 62.483 3.9848
45.5588 67.1037 0.0121356
46.8925 64.7434 0.0136081
43.6318 67.4751 2
46.3817 63.0626 2
45.1326 65.2055 2
45.9873 61.5957 3.9842
44.7672 63.4635 3.98572
43.3567 65.515 3.98669
41.6639 67.6938 3.988
39.7026 70.0284 3.99033
41.8611 69.8817 2
42.1111 72.2084 3.99412
43.9738 69.5937 0.00949784
44.3769 71.8638 2
44.8159 74.2794 4
46.6093 71.3688 0.00578416
47.2057 73.7222 2
49.554 73.0099 0
48.7842 4.32117 3.99375
50.954 5.12992 2
51.8506 2.85458 4
53.0641 6.06964 0.00665809
54.0858 3.86728 2
56.25 5.02411 0
61.9774 45.9255 0.0253178
63.3372 42.5546 0.0264891
61.4622 43.6898 0.0251604
62.4392 40.7008 0.0274357
63.9038 39.2684 0.0289059
65.8934 37.5023 0.0293881
63.9638 37.4576 2
62.1652 39.3567 2
61.2299 41.9636 2
60.2622 44.7792 2
62.0006 37.445 3.97137
60.2615 39.851 3.97267
59.0117 42.9256 3.97384
64.096 35.6322 0.0279948
62.9399 33.0437 0.0270577
60.6245 30.6062 0.0270649
57.9431 16.9703 0.0172278
57.7223 19.4606 0.0193965
57.382 21.824 0.024375
59.5816 27.9017 0.0255889
57.7536 25.713 0.0205817
57.1997 23.9318 0.0246763
55.5402 16.9578 0.0173233
53.7606 16.9652 0.0176305
52.979 15.2488 0.0183401
50.1126 7.28115 0.0104496
52.1726 12.7852 0.0154064
51.2327 10.1169 0.0132622
62.1993 35.3586 2
60.3044 32.7424 2
58.6345 30.0683 2
56.6406 18.1404 2
56.366 20.5043 2
56.1216 22.8527 2
57.3044 27.3685 2
56.3077 25.0884 2
48.0562 6.52391 2
49.3243 9.32477 2
54.4181 17.9047 2
52.3629 17.0194 2
51.3786 14.4833 2
50.4332 11.9831 2
59.9089 35.1195 3.97239
58.0136 32.266 3.97309
56.5606 29.3299 3.97175
55.463 26.5874 3.97701
55.3468 19.1747 3.98229
54.9432 24.0415 3.97172
55.0101 21.547 3.97541
45.9621 5.8795 3.99013
43.3733 7.46879 3.98819
47.3547 8.61924 3.98731
48.5998 11.2856 3.98557
49.7143 13.7318 3.9839
50.6348 16.1175 3.98121
53.128 18.6446 3.98076
51.3049 18.0331 3.98508
51.1682 65.1332 0.0126866
52.0466 62.5463 0.0152004
58.3186 46.8603 0.0241452
52.8363 60.1456 0.0177039
55.4847 58.2626 0.018042
53.6435 58.4831 0.0194565
57.5748 51.8013 0.022826
56.2613 49.5668 0.0189489
55.4793 55.8085 0.0233193
55.3691 53.3971 0.0272668
50.3462 63.3882 2
51.2448 60.945 2
54.2246 57.2782 2
52.3151 58.6462 2
56.7378 44.1949 2
55.5082 47.9103 2
55.0839 51.4008 2
54.0136 54.5611 2
49.5922 61.7528 3.98422
55.6704 41.7146 3.97557
50.5686 59.3384 3.98076
52.1906 56.5018 3.97756
54.2081 45.5797 3.97677
53.3578 49.3381 3.97497
52.6801 52.8614 3.97219
48.6183 64.1296 0.0140238
47.9619 62.4833 2
47.3294 61.0185 3.98369
43.6319 67.4746 0.0119731
45.1328 65.205 0.0134855
46.3819 63.0621 0.0148284
41.6638 67.6943 2
43.3566 65.5155 2
45.987 61.5961 2
44.767 63.4639 2
45.7664 60.6403 3.98337
44.4831 61.8457 3.98444
43.1465 63.7363 3.98558
41.5462 65.6531 3.98669
39.6329 67.7736 3.98785
37.526 70.0536 3.99025
39.7026 70.0289 2
39.8179 72.4055 3.99404
41.861 69.8812 0.00953979
42.1112 72.2087 2
42.3947 74.6792 4
44.3767 71.8636 0.00580457
44.8159 74.2794 2
47.2057 73.7222 0
43.8514 5.35661 3.99037
46.5703 3.64576 3.99397
48.7844 4.32096 2
49.554 1.99015 4
50.9537 5.13009 0.00647473
51.8506 2.85453 2
54.0858 3.86728 0
60.262 44.7788 0.0247764
61.2296 41.9633 0.0264777
62.1649 39.3566 0.0282639
63.9637 37.4576 0.0293752
62.0012 37.4451 2
60.2619 39.8511 2
59.012 42.9258 2
59.7735 37.5685 3.97221
58.0237 40.6634 3.97344
55.1462 39.7282 3.97713
62.1986 35.3586 0.0282989
60.3045 32.7428 0.0275827
58.6342 30.0684 0.0272383
56.6403 18.1415 0.017384
56.3652 20.5055 0.0221624
56.1206 22.8531 0.0274061
57.3042 27.369 0.025074
56.3071 25.0883 0.0251258
54.4181 17.9059 0.0172822
52.3631 17.0205 0.0185829
51.3787 14.4842 0.0168538
48.0562 6.52438 0.0101736
49.3244 9.3252 0.0129324
50.4333 11.9838 0.0150344
59.9099 35.1196 2
45.9621 5.87902 2
43.3733 7.46829 2
58.0134 32.2657 2
56.5612 29.3296 2
55.3473 19.1734 2
55.0113 21.5455 2
54.944 24.0422 2
55.4633 26.5876 2
47.3547 8.61876 2
48.5997 11.2852 2
53.1282 18.6434 2
51.305 18.0322 2
50.6346 16.1165 2
49.7142 13.731 2
57.4227 34.7599 3.97443
55.7511 31.513 3.9721
54.5253 28.3917 3.97671
53.7877 25.4843 3.97453
53.9744 20.1219 3.98206
53.5909 22.6943 3.97227
41.3983 7.07397 3.9884
45.3593 7.99076 3.98755
42.8649 9.40947 3.9867
46.666 10.6469 3.98563
47.7453 13.0924 3.98415
48.9321 15.3885 3.98308
50.0079 17.6867 3.97912
51.6549 19.3097 3.98687
50.3465 63.3878 0.0144772
51.2451 60.9444 0.0169851
56.7373 44.1944 0.0268237
55.5081 47.9096 0.0227118
52.3153 58.6456 0.0192772
54.2246 57.2772 0.0195047
55.0838 51.4003 0.0265307
54.0134 54.5594 0.0248861
49.5919 61.7532 2
55.6713 41.7143 2
50.5683 59.3391 2
52.1907 56.5024 2
54.2089 45.5804 2
53.3579 49.3382 2
52.6804 52.8617 2
48.8497 60.2112 3.98274
52.5801 42.6582 3.97604
49.7923 57.6379 3.97965
50.602 54.4376 3.9759
51.8387 47.282 3.97852
51.2307 50.9532 3.97123
48.2206 43.8121 3.98888
47.9622 62.483 0.0151972
47.3291 61.0187 2
46.6193 59.8053 3.98275
41.6639 67.6938 0.0119962
43.3567 65.515 0.0133071
44.7672 63.4635 0.0142797
45.9873 61.5957 0.0157983
39.6328 67.7741 2
41.5461 65.6535 2
45.766 60.6406 2
43.1463 63.7366 2
44.4829 61.8461 2
44.6238 60.3031 3.98366
42.9503 62.0946 3.98499
41.5999 63.8301 3.98551
39.6478 65.6215 3.98652
37.5634 67.7562 3.98783
31.6972 65.1402 3.98656
33.392 67.4937 3.98773
35.3333 69.9637 3.99021
37.526 70.0541 2
37.5096 72.46 3.99395
39.7026 70.0284 0.00967191
39.8179 72.4058 2
39.9526 74.9197 4
42.1111 72.2084 0.00588435
42.3947 74.6792 2
44.8159 74.2794 0
41.7359 4.96571 3.99061
43.8514 5.35615 2
44.3256 3.1091 3.99408
46.5704 3.64553 2
47.2057 1.27793 4
48.7842 4.32117 0.00625167
49.554 1.99013 2
51.8506 2.85458 0
59.0117 42.9256 0.0261586
60.2615 39.851 0.0273289
62.0006 37.445 0.0286285
59.7743 37.5685 2
58.0244 40.6633 2
55.1468 39.728 2
56.849 37.8995 3.97454
49.6633 41.3418 3.98181
53.1869 39.3139 3.97675
39.4416 6.79738 3.98861
59.9089 35.1195 0.0276144
58.0136 32.266 0.0269062
56.5606 29.3299 0.0282457
55.3468 19.1747 0.0177122
55.0101 21.547 0.0245927
54.9432 24.0415 0.0282796
55.463 26.5874 0.0229854
53.128 18.6446 0.019244
51.3049 18.0331 0.0149166
50.6348 16.1175 0.0187874
45.9621 5.8795 0.00987368
49.7143 13.7318 0.0161014
47.3547 8.61924 0.0126883
48.5998 11.2856 0.0144306
43.3733 7.46879 0.0118139
57.424 34.7601 2
41.3983 7.07343 2
45.3594 7.99029 2
42.8649 9.40893 2
55.7509 31.5128 2
54.5254 28.3921 2
53.9751 20.1203 2
53.5918 22.6903 2
53.7883 25.4849 2
46.6659 10.6465 2
47.745 13.0919 2
51.6554 19.3088 2
50.0079 17.6857 2
48.9319 15.3876 2
54.9272 33.9698 3.97509
53.5174 30.4751 3.97281
52.6076 27.1855 3.97598
52.1568 24.0787 3.97361
52.3975 21.0473 3.98106
41.0129 9.04264 3.98671
44.723 9.98996 3.98596
42.4675 10.8952 3.98502
46.0047 12.7209 3.9843
47.6818 14.5736 3.98372
48.1149 16.9756 3.98129
49.8198 19.5868 3.97718
49.5922 61.7528 0.0157837
50.5686 59.3384 0.0192408
55.6704 41.7146 0.0244304
54.2081 45.5797 0.02323
53.3578 49.3381 0.0250341
52.1906 56.5018 0.0224412
52.6801 52.8614 0.0278137
48.8493 60.2116 2
52.5815 42.6578 2
49.7921 57.6386 2
50.6022 54.4385 2
51.8386 47.2816 2
51.231 50.9528 2
48.2178 43.8156 2
47.9884 58.7536 3.98193
50.1439 45.2957 3.975
48.6031 55.9291 3.9811
49.1406 52.6072 3.97563
49.691 49.0569 3.97354
46.0797 39.8913 3.90837
46.473 42.7058 3.95598
46.5356 45.8555 3.98948
43.9218 41.1945 3.91919
42.086 42.0193 3.89403
47.3294 61.0185 0.016311
46.6188 59.8055 2
45.4691 58.8022 3.98283
39.6329 67.7736 0.0121497
41.5462 65.6531 0.0133126
43.1465 63.7363 0.0144229
44.4831 61.8457 0.0155648
45.7664 60.6403 0.0166349
41.5997 63.8303 2
37.5634 67.7567 2
39.6477 65.6219 2
44.6234 60.3034 2
42.9501 62.0949 2
41.7535 62.5055 3.98536
42.4817 59.9958 3.9845
39.8934 63.5656 3.98542
37.6423 65.5207 3.98604
35.4634 67.6655 3.98781
33.5754 65.3537 3.98635
31.9596 63.3139 3.9856
29.8832 64.731 3.98657
31.6972 65.1406 2
31.3765 67.2034 3.98782
33.3921 67.4942 2
33.156 69.757 3.99022
35.3332 69.9642 2
35.1949 72.3745 3.99392
37.526 70.0536 0.00975342
37.5095 72.4604 2
37.5 75 4
39.8179 72.4055 0.00595869
39.9526 74.9197 2
42.3947 74.6792 0
39.6234 4.71282 3.99077
41.736 4.96524 2
42.0619 2.71673 3.99424
43.8514 5.35661 0.00963227
44.3257 3.10884 2
44.8158 0.721173 4
46.5703 3.64576 0.00602705
47.2057 1.27779 2
49.554 1.99015 0
58.0237 40.6634 0.0265618
59.7735 37.5685 0.027791
55.1462 39.7282 0.0228666
49.6666 41.3442 2
56.8496 37.8996 2
53.1875 39.3135 2
54.0292 36.6288 3.97599
47.5963 40.4412 3.9655
50.6302 38.5129 3.98013
37.5153 6.66842 3.9886
39.4416 6.79685 2
39.2103 8.68501 3.98697
35.9407 8.48473 3.98727
57.4227 34.7599 0.0255687
55.7511 31.513 0.0278996
54.5253 28.3917 0.0232922
53.9744 20.1219 0.0179441
53.5909 22.6943 0.0277261
53.7877 25.4843 0.0254748
51.6549 19.3097 0.0131259
50.0079 17.6867 0.0208843
48.9321 15.3885 0.016917
45.3593 7.99076 0.0124518
47.7453 13.0924 0.0158493
46.666 10.6469 0.0143721
41.3983 7.07397 0.0116
42.8649 9.40947 0.0133022
54.9286 33.9701 2
41.0129 9.04204 2
44.723 9.98954 2
42.4674 10.8946 2
53.5174 30.474 2
52.6081 27.1874 2
52.3985 21.0462 2
52.1582 24.0786 2
46.0044 12.7205 2
47.6815 14.573 2
49.8202 19.5853 2
48.1148 16.9745 2
52.4735 32.8687 3.97659
51.3548 29.1429 3.97207
50.8079 25.7106 3.97286
49.9464 22.166 3.97926
40.5682 11.5983 3.98475
43.8572 11.9104 3.98505
45.803 15.409 3.98355
47.5059 19.2076 3.97936
46.4206 37.506 3.91264
48.8497 60.2112 0.0172572
49.7923 57.6379 0.0203522
52.5801 42.6582 0.0239552
51.8387 47.282 0.0214813
51.2307 50.9532 0.0287749
50.602 54.4376 0.0241029
48.2206 43.8121 0.0111174
47.988 58.7538 2
50.1454 45.2979 2
48.6029 55.93 2
49.1407 52.6104 2
49.691 49.0564 2
46.0905 39.8963 2
46.4826 42.7162 2
46.5332 45.8464 2
43.9339 41.2006 2
42.0913 42.0209 2
46.8409 57.3571 3.98274
44.6859 39.4752 3.91042
42.464 40.8883 3.90879
48.118 47.2554 3.97768
47.175 54.2655 3.98162
47.6032 50.7629 3.97603
44.8321 47.4259 3.99819
45.1497 41.9865 3.91317
44.9541 44.6158 3.95685
42.7326 42.7157 3.92156
40.9446 42.3539 3.91964
46.6193 59.8053 0.0172474
45.4686 58.8024 2
43.8774 57.7273 3.9836
37.5634 67.7562 0.0121714
39.6478 65.6215 0.0134823
41.5999 63.8301 0.0144853
42.9503 62.0946 0.0150143
44.6238 60.3031 0.0163355
35.4634 67.666 2
41.7532 62.5058 2
39.8932 63.5658 2
37.6423 65.5211 2
42.4813 59.9962 2
40.6232 61.6645 3.98462
40.4459 58.2299 3.98413
37.8369 63.2271 3.9855
35.573 65.443 3.9862
33.5755 65.354 2
31.9597 63.3142 2
33.6292 63.3539 3.98538
30.3786 62.8724 3.98565
32.1234 62.0212 3.985
26.8682 61.5155 3.98463
28.0621 64.1588 3.9864
29.8833 64.7314 2
29.406 66.7669 3.98783
31.6972 65.1402 0.0134415
31.3766 67.2038 2
31.0132 69.4219 3.9902
33.392 67.4937 0.0122658
33.156 69.7575 2
32.892 72.1487 3.99394
35.3333 69.9637 0.00979406
35.1949 72.3748 2
35.0474 74.9194 4
37.5096 72.46 0.00604975
37.5 75 2
39.9526 74.9197 0
35.6197 6.7194 3.98867
37.5225 4.6123 3.9909
39.6235 4.71238 2
39.7884 2.47317 3.99436
41.7359 4.96571 0.00938534
42.0621 2.71644 2
42.3946 0.32156 4
44.3256 3.1091 0.0059161
44.8159 0.72056 2
47.2057 1.27793 0
49.6633 41.3418 0.0181905
56.849 37.8995 0.0254557
53.1869 39.3139 0.023246
47.6001 40.4427 2
50.6312 38.5136 2
54.0296 36.629 2
51.4152 35.5828 3.9664
48.2673 37.7735 3.97542
46.0791 35.1336 3.91417
43.9212 33.8146 3.91616
42.0793 32.9921 3.89269
37.457 8.52668 3.98715
37.5153 6.66789 2
39.4416 6.79738 0.0113879
39.2104 8.68439 2
38.9754 10.1169 3.98659
35.8972 9.76386 3.9861
34.1491 8.81416 3.98711
35.9406 8.48403 2
54.9272 33.9698 0.0249131
53.5174 30.4751 0.0271877
52.6076 27.1855 0.024019
52.3975 21.0473 0.0189374
52.1568 24.0787 0.0263865
49.8198 19.5868 0.0228215
48.1149 16.9756 0.0187139
47.6818 14.5736 0.0162766
44.723 9.98996 0.014038
46.0047 12.7209 0.0156956
41.0129 9.04264 0.0132912
42.4675 10.8952 0.0149803
52.475 32.8679 2
40.5681 11.5977 2
43.8571 11.91 2
51.357 29.1444 2
50.8097 25.7118 2
49.9476 22.1643 2
45.8026 15.4085 2
47.5062 19.2065 2
50.0431 31.4018 3.96528
49.3098 27.4562 3.97722
49.4184 24.3773 3.98069
47.1904 21.9091 3.97857
38.3006 12.7223 3.98454
42.1006 14.293 3.98349
44.8018 18.4416 3.98318
44.9716 37.5125 3.91207
46.4377 37.5102 2
47.9884 58.7536 0.018069
48.6031 55.9291 0.0188992
50.1439 45.2957 0.0249971
49.691 49.0569 0.0264591
49.1406 52.6072 0.024374
46.0797 39.8913 0.0916316
46.473 42.7058 0.0440226
46.5356 45.8555 0.0105238
43.9218 41.1945 0.0808064
42.086 42.0193 0.105972
46.8405 57.3574 2
44.6997 39.4791 2
42.4653 40.8873 2
48.118 47.2548 2
47.175 54.2662 2
47.6037 50.7641 2
44.8336 47.4161 2
45.158 41.9944 2
44.965 44.6282 2
42.7506 42.7241 2
40.9504 42.3526 2
45.4008 55.9445 3.98317
42.8108 39.2731 3.9232
40.9136 40.8052 3.96139
46.1161 48.9308 3.9811
45.5557 52.5617 3.98345
43.4782 48.4801 3.99556
43.3692 46.1872 3.96353
43.7155 43.8038 3.90842
41.217 43.8802 3.92274
39.3162 42.6832 3.93038
45.4691 58.8022 0.0171653
43.8769 57.7275 2
42.1083 56.3544 3.98465
35.4634 67.6655 0.0121918
37.6423 65.5207 0.0139577
39.8934 63.5656 0.0145837
41.7535 62.5055 0.0146416
42.4817 59.9958 0.0155005
35.573 65.4433 2
40.6229 61.6648 2
37.8367 63.2273 2
40.4454 58.2302 2
38.9269 56.5253 3.98677
38.2507 60.3497 3.98506
35.6072 63.2208 3.98521
33.5754 65.3537 0.0136483
31.9596 63.3139 0.0144017
33.6292 63.3542 2
30.3787 62.8726 2
32.1233 62.0214 2
28.681 62.2176 3.98544
33.3461 61.5343 3.98507
31.0663 61.2385 3.98492
27.5665 59.614 3.98286
23.7882 59.1011 3.98294
25.0332 60.8882 3.98383
26.8683 61.5157 2
26.2285 63.4909 3.98602
28.0622 64.1591 2
27.4625 66.1906 3.9878
29.8832 64.731 0.0134285
29.4061 66.7673 2
28.9054 68.9474 3.99018
31.3765 67.2034 0.0121782
31.0131 69.4223 2
30.6144 71.7798 3.99397
33.156 69.757 0.00978407
32.8918 72.149 2
32.6054 74.6784 4
35.1949 72.3745 0.00608007
35.0474 74.9197 2
37.5 75 0
33.7222 6.97403 3.98839
35.4338 4.68267 3.99088
35.6197 6.71878 2
37.5139 2.3858 3.99444
37.5226 4.61185 2
39.6234 4.71282 0.00922832
39.7885 2.47288 2
39.9526 0.0806499 4
42.0619 2.71673 0.00575643
42.3947 0.320817 2
44.8158 0.721173 0
44.6932 35.5361 3.91019
42.4629 34.1177 3.90757
47.5963 40.4412 0.0344956
50.6302 38.5129 0.0198656
54.0292 36.6288 0.0240067
48.2696 37.772 2
51.4167 35.5816 2
46.0876 35.1277 2
43.9374 33.8041 2
42.0832 32.9922 2
48.4284 34.275 3.99609
45.1447 33.0292 3.90589
42.7301 32.2981 3.92185
40.9365 32.6567 3.92246
37.3093 10.6198 3.98576
37.457 8.52602 2
37.5153 6.66842 0.0113956
39.2103 8.68501 0.0130289
38.9754 10.1163 2
34.7523 10.3693 3.98571
35.8972 9.7631 2
32.3758 9.36074 3.98644
34.149 8.81341 2
35.9407 8.48473 0.012726
52.4735 32.8687 0.0234078
51.3548 29.1429 0.027927
50.8079 25.7106 0.0271375
49.9464 22.166 0.0207387
47.5059 19.2076 0.0206371
45.803 15.409 0.0164497
43.8572 11.9104 0.0149473
40.5682 11.5983 0.0152479
50.0446 31.4012 2
38.3003 12.7216 2
42.1001 14.2924 2
49.3113 27.4567 2
49.4199 24.3757 2
47.1916 21.9097 2
44.8019 18.441 2
47.832 29.5679 3.97228
47.1193 25.0968 3.98412
44.2914 21.2904 3.98216
36.5803 12.9188 3.98409
38.6801 14.7911 3.98308
41.7501 17.8202 3.98138
42.9522 37.4937 3.91656
44.9915 37.512 2
46.4206 37.506 0.0873557
46.8409 57.3571 0.0172589
47.175 54.2655 0.0183764
48.118 47.2554 0.0223194
47.6032 50.7629 0.0239705
44.6859 39.4752 0.0895759
45.1497 41.9865 0.086833
44.9541 44.6158 0.0431492
44.8321 47.4259 0.00180944
42.7326 42.7157 0.078441
42.464 40.8883 0.091214
40.9446 42.3539 0.0803579
45.4004 55.9447 2
42.8141 39.2715 2
40.9131 40.8023 2
46.1164 48.9299 2
45.5562 52.5621 2
43.478 48.4956 2
43.3952 46.1995 2
43.729 43.8122 2
41.2294 43.8823 2
39.3192 42.6822 2
43.7405 54.4563 3.98824
41.0042 39.1734 3.97301
39.2429 40.8886 3.97362
43.7253 50.5395 3.99175
41.9817 47.7211 3.98927
41.8942 45.2028 3.90331
39.4501 44.6274 3.92849
37.4958 42.8179 3.92928
43.8774 57.7273 0.0164
42.1076 56.3546 2
40.4215 54.9628 3.98566
35.573 65.443 0.0138038
37.8369 63.2271 0.0145039
40.6232 61.6645 0.0153777
40.4459 58.2299 0.0158681
35.6071 63.2209 2
38.2503 60.3496 2
38.9261 56.5263 2
38.0005 55.2839 3.9867
36.9356 57.6554 3.98485
35.3638 60.9339 3.98506
33.6292 63.3539 0.0146232
30.3786 62.8724 0.0143484
32.1234 62.0212 0.0150021
33.346 61.5345 2
28.6811 62.2178 2
31.0663 61.2386 2
29.4021 60.3082 3.98426
32.3556 59.7671 3.98419
28.0181 58.3934 3.98367
27.5666 59.6141 2
25.3752 58.6136 3.98184
22.7505 58.2596 3.97968
23.3982 60.3676 3.98248
23.7883 59.1014 2
25.0333 60.8884 2
24.4309 62.7832 3.98546
26.8682 61.5155 0.0153723
26.2287 63.4912 2
25.5465 65.5004 3.98768
28.0621 64.1588 0.0136035
27.4626 66.191 2
26.8351 68.3356 3.99013
29.406 66.7669 0.0121738
28.9054 68.9477 2
28.3695 71.2649 3.99397
31.0132 69.4219 0.00980481
30.6142 71.78 2
30.1842 74.2788 4
32.892 72.1487 0.00605706
32.6053 74.6792 2
35.0474 74.9194 0
31.7865 7.41386 3.98817
33.3457 4.92184 3.99073
33.7221 6.97336 2
35.2442 2.46195 3.99442
35.4339 4.68215 2
35.6197 6.7194 0.0113305
37.5 0 4
37.514 2.38551 2
37.5225 4.6123 0.00910235
39.7884 2.47317 0.00563737
39.9526 0.0802889 2
42.3946 0.32156 0
42.8184 35.7222 3.92029
44.7043 35.5335 2
40.9133 34.2007 3.96148
42.4646 34.1186 2
48.2673 37.7735 0.0245774
51.4152 35.5828 0.0335976
46.0791 35.1336 0.0858269
43.9212 33.8146 0.0838371
42.0793 32.9921 0.107314
48.4328 34.2717 2
45.1552 33.0223 2
42.7456 32.2916 2
40.9388 32.6567 2
46.3735 31.5486 3.97871
43.7073 31.216 3.91117
41.2186 31.1221 3.91573
39.3062 32.3244 3.92962
35.6906 11.7639 3.9843
37.3093 10.6191 2
37.457 8.52668 0.0128496
38.9754 10.1169 0.0134059
33.0962 11.2058 3.98448
34.7523 10.3684 2
35.8972 9.76386 0.0139014
30.4804 10.0089 3.98578
32.3757 9.35993 2
34.1491 8.81416 0.0128872
50.0431 31.4018 0.0347244
49.3098 27.4562 0.022776
49.4184 24.3773 0.0193078
47.1904 21.9091 0.021429
44.8018 18.4416 0.0168172
42.1006 14.293 0.0165065
38.3006 12.7223 0.0154596
36.58 12.9181 2
47.8321 29.5658 2
38.6795 14.7905 2
41.7498 17.8193 2
47.1214 25.0974 2
44.2922 21.2891 2
45.5886 27.717 3.98829
43.8135 24.0167 3.99044
41.3427 20.6964 3.98131
35.7701 14.7433 3.98335
38.6805 17.5769 3.98142
41.0531 37.4851 3.96982
42.9571 37.4946 2
44.9716 37.5125 0.0879341
45.4008 55.9445 0.0168303
45.5557 52.5617 0.0165537
46.1161 48.9308 0.0188989
42.8108 39.2731 0.0767965
43.7155 43.8038 0.0915806
43.3692 46.1872 0.0364685
43.4782 48.4801 0.00444063
41.217 43.8802 0.0772609
40.9136 40.8052 0.0386116
39.3162 42.6832 0.0696189
43.7401 54.4571 2
41.0051 39.1718 2
39.2419 40.8876 2
43.7251 50.546 2
41.9841 47.7303 2
41.9125 45.2097 2
37.4978 42.8173 2
39.4647 44.6239 2
41.887 53.0317 3.99403
39.2401 39.1745 3.9648
37.4968 40.9336 3.96476
35.6814 42.6855 3.93094
40.9624 49.7705 4.00185
39.8049 46.0915 3.90057
37.4991 44.8805 3.93
42.1083 56.3544 0.0153528
40.4204 54.9631 2
38.73 53.8971 3.98755
35.6072 63.2208 0.014785
38.2507 60.3497 0.0149445
38.9269 56.5253 0.0132318
35.3635 60.9338 2
36.9349 57.6547 2
37.9994 55.2832 2
36.3194 55.4191 3.98821
34.4874 58.5467 3.98477
33.3461 61.5343 0.0149291
28.681 62.2176 0.01456
31.0663 61.2385 0.0150759
32.3556 59.7671 2
29.4022 60.3082 2
30.2936 57.8398 3.98452
28.0182 58.3934 2
26.936 56.8436 3.98088
27.5665 59.614 0.017136
25.3753 58.6137 2
23.8294 56.8253 3.9768
21.3253 57.4185 3.97934
21.9897 59.6397 3.98225
22.7506 58.26 2
22.7343 62.0345 3.98448
23.3984 60.368 2
23.7882 59.1011 0.0170576
25.0332 60.8882 0.0161702
24.431 62.7836 2
23.6803 64.7187 3.98725
26.2285 63.4909 0.013976
25.5467 65.5008 2
24.8074 67.5967 3.99003
27.4625 66.1906 0.0121964
26.835 68.336 2
26.1647 70.6057 3.99394
28.9054 68.9474 0.00982135
28.3693 71.2651 2
27.7943 73.7221 4
30.6144 71.7798 0.00603449
30.1841 74.2794 2
32.6054 74.6784 0
29.809 7.98708 3.98768
31.2508 5.32904 3.99042
31.7864 7.41306 2
32.9799 2.70006 3.99432
33.3457 4.92126 2
33.7222 6.97403 0.0116076
35.0474 0.080333 4
35.2441 2.46163 2
35.4338 4.68267 0.00911993
37.5 0 2
37.5139 2.3858 0.00556326
39.9526 0.0806499 0
41.0117 35.8082 3.97202
42.8204 35.7241 2
44.6932 35.5361 0.0898059
28.5412 10.6842 3.98563
39.24 34.1183 3.97328
40.9123 34.2038 2
42.4629 34.1177 0.0924265
48.4284 34.275 0.00391266
45.1447 33.0292 0.0941144
42.7301 32.2981 0.0781456
40.9365 32.6567 0.0775444
46.3872 31.5459 2
43.7139 31.208 2
41.232 31.1169 2
39.3086 32.3247 2
44.4151 29.7274 3.9689
41.8969 29.8059 3.90457
39.4495 30.379 3.92887
37.484 32.1852 3.93075
34.0904 12.9218 3.98369
35.6905 11.7631 2
37.3093 10.6198 0.014244
31.1841 11.974 3.98473
33.0961 11.2049 2
34.7523 10.3693 0.0142926
30.4803 10.008 2
32.3758 9.36074 0.0135617
47.832 29.5679 0.027719
47.1193 25.0968 0.0158824
36.5803 12.9188 0.0159095
44.2914 21.2904 0.0178355
41.7501 17.8202 0.018622
38.6801 14.7911 0.0169182
35.7696 14.7426 2
45.5892 27.7089 2
38.6801 17.5759 2
41.3427 20.6943 2
43.8159 24.0196 2
33.6054 15.8599 3.98323
43.0807 26.4982 3.99676
40.923 23.269 3.98364
38.4221 20.3044 3.98332
35.8465 17.4903 3.98297
39.2463 37.4847 3.9602
41.0535 37.485 2
42.9522 37.4937 0.0834439
43.7405 54.4563 0.01176
43.7253 50.5395 0.00825029
41.0042 39.1734 0.0269935
41.8942 45.2028 0.0966878
41.9817 47.7211 0.0107304
39.4501 44.6274 0.0715107
39.2429 40.8886 0.0263809
37.4958 42.8179 0.0707179
41.8859 53.0336 2
39.2406 39.1739 2
37.4964 40.9325 2
40.9621 49.7719 2
35.6794 42.6844 2
39.826 46.1083 2
37.4964 44.8772 2
39.8294 51.9554 4.00059
37.4948 39.1826 3.94534
35.7525 40.8959 3.97365
34.051 42.351 3.92064
35.5321 44.628 3.92605
38.752 48.7651 4.00927
37.5004 46.4098 3.90049
40.4215 54.9628 0.0143406
38.7289 53.8954 2
36.7172 53.255 3.99674
35.3638 60.9339 0.0149414
36.9356 57.6554 0.0151477
38.0005 55.2839 0.0132981
34.4871 58.5462 2
36.3186 55.4171 2
33.222 55.5336 3.9861
32.3556 59.7671 0.0158068
29.4021 60.3082 0.015739
30.2937 57.8396 2
28.6753 55.3323 3.98104
28.0181 58.3934 0.0163276
26.9362 56.8435 2
25.2948 55.1631 3.97767
21.793 55.3661 3.9759
25.3752 58.6136 0.0181581
23.8295 56.8255 2
20.2086 57.0485 3.98156
20.6394 58.7977 3.9813
21.3254 57.4189 2
21.1639 61.1843 3.98384
21.9898 59.6402 2
22.7505 58.2596 0.0203229
21.8936 63.8466 3.98661
22.7344 62.0349 2
23.3982 60.3676 0.017517
24.4309 62.7832 0.0145408
23.6805 64.7191 2
22.8357 66.7404 3.98989
25.5465 65.5004 0.0123224
24.8074 67.597 2
24.009 69.8069 3.99386
26.8351 68.3356 0.00987112
26.1645 70.6059 2
25.446 73.0099 4
28.3695 71.2649 0.00603291
27.7943 73.7222 2
30.1842 74.2788 0
27.819 8.6468 3.98734
29.1527 5.87479 3.99005
29.8089 7.98634 2
30.7251 3.09723 3.99411
31.2507 5.32839 2
31.7865 7.41386 0.0118316
32.6053 0.320823 4
32.9798 2.69974 2
33.3457 4.92184 0.00927174
35.0474 0.0802903 2
35.2442 2.46195 0.00558372
37.5 0 0
39.2455 35.8075 3.96484
41.012 35.8098 2
42.8184 35.7222 0.079707
28.5412 10.6836 2
26.6201 11.3796 3.98531
29.223 12.6307 3.98479
37.4914 34.0701 3.96346
39.2388 34.1186 2
40.9133 34.2007 0.0385209
46.3735 31.5486 0.0212928
43.7073 31.216 0.0888341
41.2186 31.1221 0.0842679
39.3062 32.3244 0.0703781
44.4285 29.7194 2
41.915 29.7964 2
39.4616 30.3819 2
37.4845 32.184 2
42.341 28.3492 3.95154
39.82 28.9142 3.90794
37.4884 30.1179 3.93046
35.6679 32.3139 3.93016
31.9118 14.4666 3.98381
34.0902 12.9209 2
35.6906 11.7639 0.0157023
31.1841 11.9732 2
33.0962 11.2058 0.0155173
30.4804 10.0089 0.0142202
45.5886 27.717 0.0117145
43.8135 24.0167 0.00955635
35.7701 14.7433 0.0166499
41.3427 20.6964 0.0186949
38.6805 17.5769 0.018579
33.605 15.8595 2
35.846 17.4897 2
43.0824 26.4968 2
38.4217 20.3035 2
40.9239 23.2638 2
33.5475 17.3675 3.98458
40.4591 25.6156 4.01118
38.0799 22.8301 3.99187
35.5825 20.0565 3.98377
37.4958 37.4926 3.93329
39.2466 37.4847 2
41.0531 37.4851 0.0301801
41.887 53.0317 0.00597255
40.9624 49.7705 -0.00185442
39.2401 39.1745 0.0351964
39.8049 46.0915 0.0994294
37.4991 44.8805 0.0699999
37.4968 40.9336 0.035238
35.6814 42.6855 0.0690627
39.8287 51.9552 2
37.4951 39.1819 2
35.7525 40.8957 2
38.7479 48.7909 2
34.0474 42.3513 2
35.523 44.6299 2
37.4967 46.4298 2
37.6723 51.0566 4.00975
35.7544 39.1873 3.96535
34.0863 40.8104 3.95883
32.9069 42.0129 3.89359
33.7644 43.8737 3.9209
35.1785 46.0901 3.90622
36.881 48.4129 3.9937
38.73 53.8971 0.0124543
36.7167 53.2516 2
34.3522 52.5133 3.98977
34.4874 58.5467 0.0152279
36.3194 55.4191 0.0117937
33.2219 55.5322 2
30.5015 53.4339 3.9844
30.2936 57.8398 0.0154799
28.6756 55.3321 2
26.86 53.4633 3.97711
26.936 56.8436 0.019118
25.295 55.1631 2
23.5498 53.5048 3.9744
20.4446 53.2467 3.9731
19.9184 55.8521 3.98044
21.7931 55.3664 2
23.8294 56.8253 0.0232026
19.4305 57.9095 3.98094
20.2087 57.0489 2
19.7025 60.2182 3.98275
20.6395 58.7981 2
21.3253 57.4185 0.0206612
20.2056 62.868 3.98565
21.164 61.1848 2
21.9897 59.6397 0.0177473
20.9371 65.7695 3.98957
21.8937 63.8471 2
22.7343 62.0345 0.015522
23.6803 64.7187 0.0127493
22.8357 66.7407 2
21.9115 68.874 3.99375
24.8074 67.5967 0.00996815
24.0087 69.8069 2
23.1494 72.1454 4
26.1647 70.6057 0.00605606
25.446 73.0099 2
27.7943 73.7221 0
25.8582 9.37488 3.98692
27.0674 6.53893 3.98966
27.8189 8.64609 2
28.4873 3.64314 3.99389
29.1526 5.87419 2
29.809 7.98708 0.0123228
30.1841 0.720592 4
30.725 3.0969 2
31.2508 5.32904 0.00958213
32.6053 0.320817 2
32.9799 2.70006 0.00568337
35.0474 0.080333 0
37.4964 35.8084 3.94441
39.2454 35.808 2
41.0117 35.8082 0.0279789
24.775 12.0625 3.98531
23.7489 14.3466 3.98431
28.5412 10.6842 0.0143748
26.6202 11.3791 2
29.223 12.6299 2
27.2892 13.3637 3.98461
29.7776 14.1891 3.98377
35.7482 34.1034 3.97349
37.4908 34.0702 2
39.24 34.1183 0.0267215
37.484 32.1852 0.0692472
44.4151 29.7274 0.0311011
41.8969 29.8059 0.0954333
39.4495 30.379 0.0711337
42.353 28.3375 2
39.8382 28.9009 2
37.4884 30.1225 2
35.6663 32.3132 2
40.0247 27.5224 3.97052
37.496 28.5825 3.90362
35.5192 30.3684 3.92759
34.0441 32.6394 3.92085
30.923 16.8222 3.98356
31.9117 14.4658 2
34.0904 12.9218 0.0163098
31.1841 11.974 0.0152716
43.0807 26.4982 0.00324211
40.923 23.269 0.0163615
33.6054 15.8599 0.016766
35.8465 17.4903 0.0170264
38.4221 20.3044 0.0166804
33.547 17.3674 2
35.5821 20.0553 2
40.4583 25.6133 2
38.0796 22.8302 2
32.8604 19.7717 3.98489
37.7976 25.129 4.02715
35.2023 22.6136 3.98329
35.7484 37.4964 3.96032
37.4961 37.4926 2
39.2463 37.4847 0.0398005
39.8294 51.9554 -0.000592807
38.752 48.7651 -0.00926814
37.4948 39.1826 0.054665
37.5004 46.4098 0.0995125
35.5321 44.628 0.0739525
35.7525 40.8959 0.026351
34.051 42.351 0.0793608
37.6715 51.0623 2
35.7547 39.187 2
34.0861 40.8069 2
36.8777 48.4249 2
32.9021 42.0123 2
33.7542 43.881 2
35.1558 46.1032 2
35.4316 50.1948 4.0091
33.9953 39.185 3.96929
32.5256 40.8847 3.9082
32.2542 42.7043 3.92079
33.1124 45.1871 3.91105
34.2783 47.4757 3.96832
36.7172 53.255 0.00326356
34.3523 52.5117 2
31.973 51.2406 3.98997
33.222 55.5336 0.0139033
30.5021 53.4344 2
28.3985 51.6471 3.97984
28.6753 55.3323 0.0189635
26.8605 53.4633 2
25.0473 51.7859 3.9721
25.2948 55.1631 0.0223297
23.5501 53.5048 2
21.9342 51.8305 3.97214
19.1744 51.6559 3.97276
18.9034 54.3284 3.97623
20.4448 53.2471 2
18.4364 56.7417 3.98165
19.9184 55.8525 2
21.793 55.3661 0.0241014
18.3634 59.1255 3.98116
19.4306 57.9099 2
20.2086 57.0485 0.0184374
18.6161 61.7757 3.98449
19.7027 60.2188 2
20.6394 58.7977 0.0187
19.1259 64.6804 3.98885
20.2058 62.8685 2
21.1639 61.1843 0.0161591
19.8855 67.8107 3.99355
20.9371 65.7699 2
21.8936 63.8466 0.0133898
22.8357 66.7404 0.0101107
21.9113 68.874 2
20.9142 71.1327 4
24.009 69.8069 0.00614351
23.1494 72.1455 2
25.446 73.0099 0
23.0942 12.7773 3.98494
23.9708 10.1614 3.98671
25.0213 7.30902 3.98945
25.8582 9.37421 2
26.279 4.32735 3.99364
27.0673 6.53832 2
27.819 8.6468 0.0126636
27.7943 1.27781 4
28.4871 3.64286 2
29.1527 5.87479 0.00994611
30.1841 0.720551 2
30.7251 3.09723 0.00589192
32.6053 0.320823 0
35.75 35.8074 3.96509
37.4964 35.8088 2
39.2455 35.8075 0.0351618
24.7751 12.062 2
23.7491 14.3464 2
22.4773 15.023 3.9838
25.3552 13.8958 3.98419
24.0216 15.6082 3.9834
26.6201 11.3796 0.0146867
29.223 12.6307 0.015214
27.2892 13.3634 2
29.7777 14.1884 2
28.3534 15.963 3.98412
34.0891 34.1882 3.96064
35.7488 34.1038 2
37.4914 34.0701 0.0365414
35.6679 32.3139 0.069837
37.4884 30.1179 0.0695397
42.341 28.3492 0.0484605
39.82 28.9142 0.0920581
40.0318 27.5112 2
37.4957 28.5658 2
35.5066 30.3716 2
34.0444 32.6385 2
37.6173 27.2032 3.97273
35.1492 28.898 3.90677
33.7478 31.1149 3.91897
32.9059 32.9781 3.89408
30.204 19.3246 3.98494
30.9229 16.8217 2
31.9118 14.4666 0.0161898
40.4591 25.6156 -0.0111811
38.0799 22.8301 0.00812526
33.5475 17.3675 0.015419
35.5825 20.0565 0.0162284
32.8596 19.772 2
35.2018 22.6107 2
37.7988 25.1325 2
32.306 22.3835 3.98462
34.9539 25.1408 4.00577
33.9469 37.4967 3.96806
35.7488 37.4966 2
37.4958 37.4926 0.0667131
37.6723 51.0566 -0.00974635
36.881 48.4129 0.00629693
35.7544 39.1873 0.0346538
35.1785 46.0901 0.0937757
33.7644 43.8737 0.0791016
34.0863 40.8104 0.0411683
32.9069 42.0129 0.106408
35.431 50.1974 2
33.9956 39.1829 2
32.5231 40.8822 2
34.271 47.5048 2
32.2397 42.7069 2
33.0935 45.2037 2
33.196 49.1839 4.00791
32.1764 39.2757 3.92193
31.0646 41.1818 3.91818
31.2809 43.7862 3.90818
32.2323 46.4019 3.96598
34.3522 52.5133 0.0102292
31.9734 51.2417 2
29.8092 49.7553 3.98324
30.5015 53.4339 0.015599
28.3992 51.6444 2
26.4626 50.0257 3.97243
26.86 53.4633 0.022886
25.0479 51.7855 2
23.301 50.2242 3.97249
23.5498 53.5048 0.0255965
21.9347 51.8308 2
20.4324 50.3373 3.97263
17.9624 50.3472 3.97459
17.8125 52.8102 3.97458
19.1749 51.656 2
17.4229 55.3575 3.97878
18.9034 54.3288 2
20.4446 53.2467 0.0269024
17.1274 57.8879 3.98209
18.4364 56.7421 2
19.9184 55.8521 0.01956
17.1329 60.5592 3.98303
18.3635 59.126 2
19.4305 57.9095 0.0190573
17.406 63.4732 3.98763
18.6162 61.7763 2
19.7025 60.2182 0.0172466
17.9416 66.6191 3.99322
19.1259 64.6809 2
20.2056 62.868 0.0143548
18.75 69.9759 4
19.8853 67.8107 2
20.9371 65.7695 0.0104287
21.9115 68.874 0.00624932
20.9142 71.1327 2
23.1494 72.1454 0
21.5849 13.5972 3.98453
22.1889 11.0206 3.98622
23.0944 12.7771 2
23.0393 8.17437 3.98929
23.9709 10.161 2
24.1166 5.14204 3.99347
25.0211 7.30851 2
25.8582 9.37488 0.0130842
25.446 1.99014 4
26.2787 4.32713 2
27.0674 6.53893 0.0103369
27.7943 1.27778 2
28.4873 3.64314 0.00610932
30.1841 0.720592 0
33.9884 35.8099 3.97091
35.7502 35.808 2
37.4964 35.8084 0.0555888
21.3021 15.8187 3.98309
24.775 12.0625 0.0146861
23.7489 14.3466 0.015685
25.3553 13.8954 2
22.4776 15.0229 2
24.022 15.608 2
23.2605 16.2396 3.98319
25.3769 16.0758 3.98416
27.2892 13.3637 0.0153898
29.7776 14.1891 0.0162302
28.3536 15.9628 2
27.4356 18.7841 3.98463
32.5387 34.1071 3.9093
34.0907 34.1898 2
35.7482 34.1034 0.0265128
34.0441 32.6394 0.0791463
35.5192 30.3684 0.0724066
37.496 28.5825 0.0963769
40.0247 27.5224 0.0294812
37.6137 27.1696 2
32.9054 32.979 2
35.1289 28.8824 2
33.7334 31.1022 2
35.0637 27.3261 3.97655
33.0799 29.8009 3.90788
32.241 32.2756 3.91811
29.5671 21.9187 3.99138
30.2037 19.3246 2
30.923 16.8222 0.0164424
37.7976 25.129 -0.0271452
35.2023 22.6136 0.0167075
32.8604 19.7717 0.0151069
32.3053 22.3842 2
34.9576 25.1453 2
31.6553 25.5995 3.99393
32.0428 37.4977 3.91823
33.9478 37.4962 2
35.7484 37.4964 0.0396849
35.4316 50.1948 -0.00910222
34.2783 47.4757 0.0316832
33.9953 39.185 0.0307122
33.1124 45.1871 0.0889476
32.2542 42.7043 0.0792132
32.5256 40.8847 0.0917957
33.1961 49.1679 2
32.1738 39.2729 2
31.0483 41.1883 2
32.2147 46.4182 2
31.2711 43.7946 2
31.0828 48.0043 4.00064
30.2957 39.4574 3.91054
29.8424 41.9754 3.90735
30.371 44.9816 3.96542
31.973 51.2406 0.0100304
29.8099 49.7501 2
27.8093 48.2234 3.97745
28.3985 51.6471 0.0201622
26.4635 50.0242 2
24.5971 48.5022 3.97467
25.0473 51.7859 0.0278956
23.3018 50.2242 2
21.6098 48.8148 3.9749
21.9342 51.8305 0.0278561
20.4332 50.3373 2
19.0023 49.1101 3.97621
16.8712 49.3447 3.97735
16.7529 51.4223 3.97518
17.9631 50.3474 2
16.3734 53.8858 3.97694
17.8128 52.8105 2
19.1744 51.6559 0.0272376
15.967 56.4893 3.98075
17.4229 55.358 2
18.9034 54.3284 0.0237685
15.7452 59.2201 3.98284
17.1275 57.8883 2
18.4364 56.7417 0.0183465
15.7863 62.1437 3.986
17.133 60.5598 2
18.3634 59.1255 0.0188403
16.0882 65.3017 3.99284
17.4061 63.4737 2
18.6161 61.7757 0.0155082
16.6661 68.6801 4
17.9414 66.6191 2
19.1259 64.6804 0.0111454
18.75 69.9759 2
19.8855 67.8107 0.00645363
20.9142 71.1327 0
20.2166 14.586 3.98384
21.5851 13.5972 2
20.5281 11.9902 3.98566
21.1424 9.14401 3.98915
22.1891 11.0203 2
23.0942 12.7773 0.0150596
22.0157 6.08101 3.99332
23.0393 8.17401 2
23.9708 10.1614 0.0132945
23.1494 2.85457 4
24.1163 5.1419 2
25.0213 7.30902 0.0105473
25.446 1.99012 2
26.279 4.32735 0.00636152
27.7943 1.27781 0
32.1806 35.7168 3.92229
33.9894 35.8108 2
35.75 35.8074 0.0349067
21.3023 15.8183 2
20.2989 16.9527 3.98339
22.0935 16.624 3.98221
25.3552 13.8958 0.0158136
22.4773 15.023 0.0161996
24.0216 15.6082 0.0166027
25.3773 16.0756 2
23.2609 16.2396 2
24.1997 18.4379 3.98192
27.0039 21.4418 3.98465
28.3534 15.963 0.0158789
27.4354 18.784 2
31.0705 33.8041 3.91532
32.5369 34.1104 2
34.0891 34.1882 0.0393638
32.9059 32.9781 0.105915
33.7478 31.1149 0.0810299
35.1492 28.898 0.0932304
37.6173 27.2032 0.0272668
35.0518 27.3085 2
32.2369 32.2804 2
33.0616 29.783 2
32.4924 28.0517 3.98583
31.2528 31.2024 3.90937
28.7696 24.3842 3.98669
29.5662 21.9196 2
30.204 19.3246 0.0150631
34.9539 25.1408 -0.00576998
32.306 22.3835 0.0153837
31.6571 25.5872 2
29.5906 27.289 3.97653
30.0129 37.4854 3.91162
32.041 37.4972 2
33.9469 37.4967 0.0319354
33.196 49.1839 -0.00791027
32.2323 46.4019 0.0340219
32.1764 39.2757 0.078071
31.2809 43.7862 0.0918212
31.0646 41.1818 0.0818161
31.0846 48.0046 2
30.2821 39.4657 2
29.8318 41.9829 2
30.3573 44.9938 2
29.1037 46.561 3.99402
28.9075 39.8666 3.90891
28.581 43.1901 3.96749
29.8092 49.7553 0.0167581
27.8102 48.2192 2
25.8754 46.6919 3.98106
26.4626 50.0257 0.027572
24.5981 48.502 2
22.75 47.1103 3.97941
23.301 50.2242 0.0275142
21.6109 48.8146 2
19.9496 47.6384 3.97829
20.4324 50.3373 0.0273748
19.0031 49.1104 2
17.6467 48.1921 3.97905
16.1236 48.6944 3.97946
16.8718 49.3452 2
15.8317 50.182 3.97655
15.3627 52.428 3.97636
16.7534 51.4226 2
17.9624 50.3472 0.0254137
14.8574 54.9891 3.97884
16.3735 53.8862 2
17.8125 52.8102 0.0254167
14.4532 57.749 3.98226
15.967 56.4898 2
17.4229 55.3575 0.0212157
14.2639 60.698 3.98497
15.7454 59.2207 2
17.1274 57.8879 0.0179099
14.3324 63.8609 3.9921
15.7863 62.1442 2
17.1329 60.5592 0.016974
14.6715 67.2507 4
16.0879 65.3017 2
17.406 63.4732 0.0123657
16.6661 68.6801 2
17.9416 66.6191 0.0067839
18.75 69.9759 0
18.9301 15.7731 3.98315
20.2168 14.5857 2
18.9776 13.101 3.98492
21.5849 13.5972 0.0154712
20.5284 11.99 2
19.3418 10.2316 3.98886
19.9903 7.14565 3.99325
21.1425 9.1437 2
22.1889 11.0206 0.0137795
20.9142 3.86727 4
22.0153 6.081 2
23.0393 8.17437 0.0107059
23.1494 2.85451 2
24.1166 5.14204 0.00653146
25.446 1.99014 0
30.3025 35.5318 3.91345
32.1783 35.7183 2
33.9884 35.8099 0.0290853
21.3021 15.8187 0.0169065
22.0938 16.6236 2
20.2989 16.952 2
19.2371 18.3992 3.98259
21.7774 17.8399 3.98242
25.3769 16.0758 0.0158432
23.2605 16.2396 0.0168086
24.1997 18.4379 2
22.27 19.8805 3.98096
24.5805 21.3082 3.98289
26.393 23.707 3.98052
27.0041 21.4424 2
27.4356 18.7841 0.0153722
29.8397 33.0048 3.90686
31.0557 33.7874 2
32.5387 34.1071 0.0907042
32.241 32.2756 0.0818934
33.0799 29.8009 0.0921243
35.0637 27.3261 0.023451
32.4792 28.0467 2
31.2565 31.2024 2
30.0438 29.5067 3.97649
27.8319 26.5257 3.97276
28.7699 24.3888 2
29.5671 21.9187 0.00862379
31.6553 25.5995 0.0060726
29.5833 27.2524 2
28.5624 37.4917 3.91457
30.0004 37.4883 2
32.0428 37.4977 0.0817713
31.0828 48.0043 -0.000644207
30.371 44.9816 0.034584
30.2957 39.4574 0.0894643
29.8424 41.9754 0.0926528
29.1064 46.5816 2
28.8954 39.8713 2
28.5673 43.1998 2
27.1859 44.8414 3.98013
26.6865 40.6284 3.99498
27.8093 48.2234 0.0225537
25.876 46.6905 2
23.9212 45.2401 3.97321
24.5971 48.5022 0.0253348
22.7511 47.1098 2
20.8847 45.9198 3.97798
21.6098 48.8148 0.0251005
19.9505 47.6388 2
18.2943 46.7524 3.97727
19.0023 49.1101 0.0237947
17.6474 48.1927 2
16.3147 47.7243 3.97901
16.1241 48.6949 2
15.1795 49.0248 3.97773
16.8712 49.3447 0.0226476
15.8323 50.1824 2
14.4773 50.994 3.97654
13.8192 53.4434 3.97781
15.363 52.4284 2
16.7529 51.4223 0.0248232
13.2474 56.1758 3.98095
14.8574 54.9896 2
16.3734 53.8858 0.0230626
12.8457 59.1316 3.98484
14.4533 57.7495 2
15.967 56.4893 0.0192529
12.6777 62.3036 3.99101
14.264 60.6983 2
15.7452 59.2201 0.0171622
12.7746 65.6939 4
14.3321 63.8608 2
15.7863 62.1437 0.0140005
14.6714 67.2507 2
16.0882 65.3017 0.00716498
16.6661 68.6801 0
17.6637 17.1486 3.98255
18.9302 15.7726 2
17.509 14.3655 3.98407
20.2166 14.586 0.0161644
18.9779 13.1006 2
17.6375 11.4505 3.98803
20.5281 11.9902 0.0143424
19.342 10.2313 2
18.0504 8.33847 3.99318
18.75 5.0241 4
19.9899 7.14572 2
21.1424 9.14401 0.0108465
20.9142 3.86727 2
22.0157 6.08101 0.0066791
23.1494 2.85457 0
28.905 35.1034 3.90828
30.2883 35.528 2
32.1806 35.7168 0.0777074
22.0935 16.624 0.0177947
20.2989 16.9527 0.0166066
21.7774 17.8393 2
19.2371 18.3985 2
17.9716 19.9313 3.98159
20.8689 19.3676 3.98242
24.1997 18.4379 0.0180764
22.2702 19.8797 2
24.5808 21.3086 2
22.3446 21.705 3.98245
24.675 23.153 3.98057
25.4188 25.9347 3.97199
26.394 23.7065 2
27.0039 21.4418 0.0153461
28.2229 32.2792 3.95663
29.8315 33.0038 2
31.0705 33.8041 0.0846781
31.2528 31.2024 0.0906271
32.4924 28.0517 0.0141668
30.0193 29.4959 2
26.9468 29.117 3.9852
27.8276 26.5228 2
28.7696 24.3842 0.013308
29.5906 27.289 0.0234695
26.7893 37.351 3.96997
28.552 37.4891 2
30.0129 37.4854 0.0883806
29.1037 46.561 0.00598168
28.581 43.1901 0.0325126
28.9075 39.8666 0.0910945
27.1891 44.844 2
26.6809 40.6351 2
25.1674 43.192 3.96882
23.9277 39.4272 3.96854
25.8754 46.6919 0.0189376
23.9194 45.2413 2
21.8525 43.9699 3.97652
22.75 47.1103 0.0205906
20.8858 45.9203 2
18.9533 44.9836 3.97432
19.9496 47.6384 0.0217068
18.2948 46.7533 2
16.6063 46.2231 3.97522
17.6467 48.1921 0.0209542
16.3152 47.7249 2
14.9106 47.678 3.97682
16.1236 48.6944 0.0205379
15.18 49.0253 2
13.7765 49.5529 3.97676
15.8317 50.182 0.0234502
14.4778 50.9945 2
12.8867 51.8802 3.97727
12.1348 54.5328 3.97982
13.8193 53.4439 2
15.3627 52.428 0.0236405
11.5298 57.4631 3.98403
13.2473 56.1764 2
14.8574 54.9891 0.0211555
11.1322 60.6296 3.99002
12.8457 59.1319 2
14.4532 57.749 0.0177362
10.9835 64.0165 4
12.6775 62.3033 2
14.2639 60.698 0.0150272
12.7745 65.694 2
14.3324 63.8609 0.00790443
14.6715 67.2507 0
16.3952 18.6424 3.98223
17.6637 17.1479 2
16.0996 15.7744 3.98379
18.9301 15.7731 0.0168458
17.5091 14.3647 2
16.0191 12.804 3.98647
18.9776 13.101 0.0150763
17.6377 11.45 2
16.2015 9.6616 3.99289
19.3418 10.2316 0.0111401
18.0501 8.33859 2
16.6661 6.31991 4
18.75 5.02404 2
19.9903 7.14565 0.00674565
20.9142 3.86727 0
27.2994 34.7391 3.95739
28.892 35.0997 2
30.3025 35.5318 0.0865504
16.6706 21.367 3.97894
21.7774 17.8399 0.0175805
19.2371 18.3992 0.0174145
20.8689 19.3669 2
17.9717 19.9307 2
19.712 21.5603 3.98448
22.27 19.8805 0.0190414
24.5805 21.3082 0.0171142
22.3449 21.7037 2
24.6749 23.1529 2
22.8202 24.5876 3.97604
24.4903 28.5112 3.9682
25.4161 25.9327 2
26.393 23.707 0.0194784
26.0652 31.6885 3.99058
28.2129 32.2707 2
29.8397 33.0048 0.0931358
30.0438 29.5067 0.0235067
26.9516 29.117 2
27.8319 26.5257 0.0272376
24.6058 36.8511 3.98033
26.7842 37.3554 2
28.5624 37.4917 0.0854338
27.1859 44.8414 0.0198709
26.6865 40.6284 0.00501951
25.1646 43.1948 2
23.9252 39.4295 2
22.9001 41.8095 3.97849
21.6627 38.4977 3.97321
23.9212 45.2401 0.0267916
21.8529 43.9715 2
19.6986 42.8961 3.97406
20.8847 45.9198 0.0220168
18.9531 44.9845 2
16.9329 44.3879 3.97194
18.2943 46.7524 0.0227319
16.6066 46.2239 2
14.8323 46.097 3.97407
16.3147 47.7243 0.020989
14.911 47.6786 2
13.285 48.0136 3.97568
15.1795 49.0248 0.022269
13.777 49.5534 2
12.1068 50.2568 3.97686
14.4773 50.994 0.0234571
12.887 51.8808 2
11.1308 52.8399 3.97893
10.3202 55.7139 3.98294
12.1348 54.5334 2
13.8192 53.4434 0.0221922
9.69863 58.8517 3.98884
11.5296 57.4637 2
13.2474 56.1758 0.019054
9.30605 62.2254 4
11.1319 60.6295 2
12.8457 59.1316 0.0151639
10.9835 64.0165 2
12.6777 62.3036 0.00898846
12.7746 65.6939 0
15.1392 20.1766 3.9803
16.3952 18.6417 2
14.7447 17.2971 3.98282
17.6637 17.1486 0.0174453
16.0997 15.7736 2
14.4815 14.2859 3.98544
17.509 14.3655 0.0159335
16.0193 12.8033 2
14.4442 11.1128 3.99237
17.6375 11.4505 0.0119696
16.2013 9.66166 2
14.6715 7.74927 4
18.0504 8.33847 0.00681927
16.6661 6.31988 2
18.75 5.0241 0
25.2499 34.2522 3.98756
27.2923 34.7384 2
28.905 35.1034 0.091717
17.8424 22.3115 3.98514
15.5152 22.911 3.97644
16.6705 21.3662 2
20.8689 19.3676 0.0175781
17.9716 19.9313 0.0184076
19.7121 21.5594 2
19.6434 24.3646 3.97891
22.3446 21.705 0.0175471
24.675 23.153 0.0194266
22.8183 24.5857 2
21.8698 27.8055 3.96933
23.6551 31.1707 3.9713
24.4924 28.5108 2
25.4188 25.9347 0.0280058
26.0688 31.6839 2
28.2229 32.2792 0.0433694
26.9468 29.117 0.0147983
22.3829 36.2672 3.9762
24.6027 36.8509 2
26.7893 37.351 0.0300315
25.1674 43.192 0.0311764
23.9277 39.4272 0.0314587
22.8986 41.8109 2
21.6629 38.4984 2
20.6263 40.6327 3.97432
20.0189 37.7782 3.97506
21.8525 43.9699 0.0234786
19.6988 42.8969 2
17.3259 42.1044 3.97411
18.9533 44.9836 0.0256849
16.9328 44.3886 2
14.8316 44.2056 3.97279
16.6063 46.2231 0.0247805
14.8325 46.0976 2
12.9583 46.2993 3.97371
14.9106 47.678 0.0231762
13.2854 48.0142 2
11.4796 48.5522 3.97563
13.7765 49.5529 0.0232416
12.1072 50.2574 2
10.2573 51.0819 3.97809
12.8867 51.8802 0.0227283
11.131 52.8406 2
9.22917 53.8907 3.98206
8.38213 56.9837 3.98785
10.32 55.7145 2
12.1348 54.5328 0.0201791
7.74927 60.3285 4
9.69823 58.8514 2
11.5298 57.4631 0.0159719
9.306 62.2255 2
11.1322 60.6296 0.00998167
10.9835 64.0165 0
13.9511 21.7435 3.97845
15.1392 20.1758 2
13.4448 18.894 3.98162
16.3952 18.6424 0.0177677
14.7448 17.2963 2
13.0266 15.8786 3.98479
16.0996 15.7744 0.016206
14.4815 14.2851 2
12.7816 12.686 3.99149
16.0191 12.804 0.0135321
14.4441 11.1128 2
12.7746 9.30605 4
16.2015 9.6616 0.00711331
14.6715 7.74924 2
16.6661 6.31991 0
22.9697 33.7876 3.97377
25.244 34.2508 2
27.2994 34.7391 0.0426076
17.6106 24.0301 3.97867
17.8421 22.3105 2
14.2983 24.4435 3.97484
15.5146 22.9098 2
16.6706 21.367 0.0210564
19.0039 27.185 3.96798
19.712 21.5603 0.015515
19.6418 24.3641 2
21.1026 30.6465 3.97131
22.8202 24.5876 0.0239609
21.8706 27.805 2
23.6507 31.1708 2
24.4903 28.5112 0.0317964
26.0652 31.6885 0.00941684
20.1468 35.9144 3.97523
22.3798 36.2682 2
24.6058 36.8511 0.0196669
22.9001 41.8095 0.021514
21.6627 38.4977 0.0267863
20.6247 40.6329 2
20.0174 37.7785 2
18.0059 39.0005 3.9737
19.6986 42.8961 0.0259352
17.326 42.105 2
14.7785 41.921 3.97303
16.9329 44.3879 0.0280603
14.8316 44.2061 2
12.697 44.395 3.97333
14.8323 46.097 0.0259338
12.9585 46.2999 2
10.9825 46.735 3.97407
13.285 48.0136 0.0243217
11.48 48.5528 2
9.52175 49.2404 3.97679
12.1068 50.2568 0.0231371
10.2577 51.0825 2
8.26255 52.0024 3.98115
11.1308 52.8399 0.0210731
9.22925 53.8911 2
7.19113 55.0329 3.98733
6.31991 58.3339 4
8.38163 56.9828 2
10.3202 55.7139 0.0170604
7.74924 60.3285 2
9.69863 58.8517 0.0111571
9.30605 62.2254 0
13.2199 25.3568 3.9804
12.8186 23.2736 3.977
13.9507 21.7424 2
12.2299 20.5434 3.98057
15.1392 20.1766 0.0197015
13.4448 18.8931 2
11.6559 17.5596 3.98447
14.7447 17.2971 0.0171785
13.0267 15.8779 2
11.219 14.3707 3.99031
14.4815 14.2859 0.0145623
12.7814 12.686 2
10.9835 10.9835 4
14.4442 11.1128 0.00762909
12.7745 9.306 2
14.6715 7.74927 0
20.5273 33.3816 3.97299
22.9684 33.7886 2
25.2499 34.2522 0.0124365
15.885 26.3918 3.97183
17.6095 24.0292 2
17.8424 22.3115 0.0148596
14.2979 24.443 2
15.5152 22.911 0.0235619
18.3393 30.1582 3.97002
19.0042 27.1846 2
19.6434 24.3646 0.021095
21.0993 30.6459 2
21.8698 27.8055 0.0306694
23.6551 31.1707 0.0286988
17.6465 35.9587 3.97298
20.1444 35.9147 2
22.3829 36.2672 0.0237967
20.6263 40.6327 0.0256802
20.0189 37.7782 0.0249404
18.0049 39.0007 2
14.2894 39.1756 3.97218
17.3259 42.1044 0.0258851
14.7786 41.9214 2
12.3839 42.2787 3.9726
14.8316 44.2056 0.0272101
12.697 44.3956 2
10.559 44.8037 3.97401
12.9583 46.2993 0.0262913
10.9827 46.7356 2
8.90527 47.3188 3.97539
11.4796 48.5522 0.0243726
9.52209 49.241 2
7.43023 50.0347 3.97984
10.2573 51.0819 0.021909
8.26283 52.0026 2
6.13181 53.0066 3.98712
9.22917 53.8907 0.017939
7.1907 55.0316 2
5.0241 56.25 4
6.31988 58.3339 2
8.38213 56.9837 0.0121544
7.74927 60.3285 0
13.4578 26.8074 3.97331
11.9334 24.7837 3.97594
13.2197 25.3564 2
11.1332 22.2294 3.97902
12.8184 23.2728 2
13.9511 21.7435 0.0215548
12.2296 20.5423 2
10.3859 19.3149 3.9838
13.4448 18.894 0.0183834
11.6559 17.5587 2
9.75971 16.1542 3.98915
13.0266 15.8786 0.0152143
11.2188 14.3708 2
9.30607 12.7746 4
12.7816 12.686 0.0085081
10.9835 10.9835 2
12.7746 9.30605 0
17.8139 33.1012 3.97191
20.5259 33.3817 2
22.9697 33.7876 0.0262312
15.4712 29.6281 3.97191
15.8848 26.3916 2
17.6106 24.0301 0.0213324
14.2983 24.4435 0.0251614
18.3386 30.1582 2
19.0039 27.185 0.0320206
21.1026 30.6465 0.0286929
14.8936 36.0144 3.97197
17.6447 35.9588 2
20.1468 35.9144 0.0247739
12.5884 37.8279 3.97197
18.0059 39.0005 0.0262994
14.2889 39.1757 2
11.9004 40.1408 3.97146
14.7785 41.921 0.026966
12.384 42.2792 2
10.1581 42.7789 3.97329
12.697 44.395 0.0266662
10.559 44.8042 2
8.38309 45.3208 3.97526
10.9825 46.735 0.0259304
8.90549 47.3193 2
6.72232 47.9992 3.97853
9.52175 49.2404 0.0232095
7.43054 50.0348 2
5.20882 50.909 3.98685
8.26255 52.0024 0.0188458
6.13161 53.0052 2
3.86727 54.0858 4
7.19113 55.0329 0.0126674
5.02404 56.25 2
6.31991 58.3339 0
12.9125 29.0271 3.97044
11.3644 26.4845 3.97445
13.4576 26.807 2
10.1937 23.965 3.97704
11.9333 24.7832 2
13.2199 25.3568 0.0195969
9.23829 21.135 3.98234
11.1331 22.2285 2
12.8186 23.2736 0.0230036
12.2299 20.5434 0.0194305
10.3857 19.3138 2
8.41545 18.0258 3.98832
11.6559 17.5596 0.0155309
9.75938 16.1543 2
7.74928 14.6715 4
11.219 14.3707 0.00969311
9.30602 12.7745 2
10.9835 10.9835 0
14.4649 32.8565 3.97213
17.8155 33.1012 2
20.5273 33.3816 0.0270118
15.4711 29.628 2
15.885 26.3918 0.0281666
18.3393 30.1582 0.029984
12.88 36.2068 3.97137
14.893 36.0145 2
17.6465 35.9587 0.0270151
12.5882 37.8279 2
11.2607 38.3089 3.97128
14.2894 39.1756 0.0278223
11.9001 40.1412 2
9.74585 40.7545 3.97198
12.3839 42.2787 0.027403
10.1581 42.7794 2
7.9323 43.2698 3.97467
10.559 44.8037 0.0259888
8.38315 45.3212 2
6.12868 45.9044 3.97825
8.90527 47.3188 0.0246068
6.72253 47.9994 2
4.42075 48.7496 3.98641
7.43023 50.0347 0.0201619
5.20877 50.9079 2
2.85457 51.8506 4
6.13181 53.0066 0.0128754
3.86727 54.0858 2
5.0241 56.25 0
12.0542 31.2522 3.97165
10.7771 28.4123 3.97296
12.9124 29.0269 2
9.40957 25.7966 3.97576
11.3643 26.4841 2
13.4578 26.8074 0.0266925
8.22621 23.0217 3.98028
10.1937 23.9643 2
11.9334 24.7837 0.0240609
7.19757 19.9767 3.98755
9.23825 21.1341 2
11.1332 22.2294 0.020978
10.3859 19.3149 0.0161994
8.41496 18.0263 2
6.31992 16.6661 4
9.75971 16.1542 0.0108542
7.74926 14.6714 2
9.30607 12.7746 0
12.0753 34.292 3.97164
14.4649 32.8564 2
17.8139 33.1012 0.0280869
15.4712 29.6281 0.0280913
10.8239 36.6098 3.97123
12.8799 36.2067 2
14.8936 36.0144 0.0280323
12.5884 37.8279 0.028033
11.2607 38.3089 2
9.34358 38.8229 3.97092
11.9004 40.1408 0.028541
9.7457 40.7549 2
7.54527 41.2107 3.97334
10.1581 42.7789 0.0267089
7.93237 43.2701 2
5.64075 43.7675 3.97818
8.38309 45.3208 0.0247399
6.12878 45.9045 2
3.76662 46.5358 3.98626
6.72232 47.9992 0.0214675
4.42077 48.749 2
1.99014 49.554 4
5.20882 50.909 0.013153
2.85451 51.8506 2
3.86727 54.0858 0
10.9177 32.9166 3.97214
10.0909 30.3799 3.97268
12.0541 31.2521 2
8.71808 27.7309 3.9749
10.777 28.412 2
12.9125 29.0271 0.0295552
7.35239 24.982 3.97898
9.40956 25.7962 2
11.3644 26.4845 0.0255544
6.11471 22.0017 3.98667
8.22633 23.0213 2
10.1937 23.965 0.022959
5.02411 18.75 4
7.19712 19.9778 2
9.23829 21.135 0.0176568
8.41545 18.0258 0.0116779
6.3199 16.6661 2
7.74928 14.6715 0
10.4336 34.9985 3.97158
12.0751 34.2919 2
14.4649 32.8565 0.0278725
9.01591 36.9842 3.97091
10.8241 36.6098 2
12.88 36.2068 0.0286296
11.2607 38.3089 0.0287174
9.34359 38.8229 2
7.22832 39.181 3.97196
9.74585 40.7545 0.0280196
7.54522 41.211 2
5.25713 41.6133 3.97691
7.9323 43.2698 0.025326
5.64081 43.7676 2
3.2445 44.2813 3.98598
6.12868 45.9044 0.0217465
3.76667 46.5357 2
1.27781 47.2057 4
4.42075 48.7496 0.0135883
1.99012 49.554 2
2.85457 51.8506 0
10.0853 33.8798 3.97239
9.38512 32.1526 3.97297
10.9176 32.9165 2
8.06803 29.6947 3.97419
10.0908 30.3797 2
12.0542 31.2522 0.0283471
6.59648 27.0085 3.97822
8.71803 27.7307 2
10.7771 28.4123 0.0270436
5.17019 24.0956 3.9863
7.3525 24.9818 2
9.40957 25.7966 0.0242408
3.86728 20.9142 4
6.11448 22.0029 2
8.22621 23.0217 0.0197246
5.02406 18.75 2
7.19757 19.9767 0.0124451
6.31992 16.6661 0
8.8421 35.2784 3.97137
10.4336 34.9984 2
12.0753 34.292 0.0283628
7.01275 37.2051 3.97196
9.0159 36.9842 2
10.8239 36.6098 0.0287663
9.34358 38.8229 0.0290842
7.22836 39.1811 2
4.98656 39.4666 3.97507
7.54527 41.2107 0.0266647
5.25713 41.6133 2
2.85539 42.002 3.98492
5.64075 43.7675 0.0218205
3.24454 44.2816 2
0.720592 44.8159 4
3.76662 46.5358 0.013738
1.27778 47.2057 2
1.99014 49.554 0
8.88266 33.6964 3.97252
10.0852 33.8797 2
7.50655 31.6086 3.97398
9.38501 32.1525 2
10.9177 32.9166 0.0278611
5.94215 29.0698 3.97758
8.06798 29.6946 2
10.0909 30.3799 0.0273223
4.35803 26.2484 3.98613
6.59651 27.0085 2
8.71808 27.7309 0.0251041
2.85458 23.1494 4
5.17007 24.0966 2
7.35239 24.982 0.0210226
3.86728 20.9142 2
6.11471 22.0017 0.0133286
5.02411 18.75 0
6.963 35.3055 3.97216
8.84211 35.2783 2
10.4336 34.9985 0.0284182
4.83716 37.3393 3.97508
7.01276 37.2052 2
9.01591 36.9842 0.0290888
7.22832 39.181 0.0280361
4.98659 39.4666 2
2.60406 39.7138 3.98319
5.25713 41.6133 0.0230851
2.85546 42.0025 2
0.320823 42.3947 4
3.2445 44.2813 0.0140153
0.720551 44.8159 2
1.27781 47.2057 0
7.12174 33.4605 3.97337
8.88257 33.6962 2
10.0853 33.8798 0.027614
5.41377 31.1338 3.97707
7.50643 31.6085 2
9.38512 32.1526 0.0270256
3.68004 28.4441 3.98574
5.94213 29.0699 2
8.06803 29.6947 0.0258052
1.99015 25.446 4
4.35796 26.249 2
6.59648 27.0085 0.0217818
2.85453 23.1494 2
5.17019 24.0956 0.0137026
3.86728 20.9142 0
4.85151 35.2515 3.97522
6.96302 35.3055 2
8.8421 35.2784 0.0286347
2.49562 37.4284 3.98312
4.83717 37.3395 2
7.01275 37.2051 0.0280426
4.98656 39.4666 0.0249313
2.60412 39.7144 2
0.080333 39.9526 4
2.85539 42.002 0.0150814
0.320817 42.3947 2
0.720592 44.8159 0
5.04413 33.1904 3.97626
7.12165 33.4604 2
8.88266 33.6964 0.0274786
3.14472 30.6665 3.98489
5.41364 31.134 2
7.50655 31.6086 0.0260213
1.27793 27.7943 4
3.68002 28.4444 2
5.94215 29.0698 0.0224237
1.99013 25.446 2
4.35803 26.2484 0.0138672
2.85458 23.1494 0
2.54778 35.159 3.98316
4.85152 35.2517 2
6.963 35.3055 0.0278355
0 37.5 4
2.4957 37.429 2
4.83716 37.3393 0.0249192
2.60406 39.7138 0.0168058
0.0802903 39.9526 2
0.320823 42.3947 0
2.76513 32.9058 3.98389
5.04405 33.1906 2
7.12174 33.4605 0.0266335
0.721173 30.1842 4
3.14468 30.6666 2
5.41377 31.1338 0.0229268
1.27779 27.7943 2
3.68004 28.4441 0.0142577
1.99015 25.446 0
0.0806499 35.0474 4
2.54786 35.1595 2
4.85151 35.2515 0.0247787
0 37.5 2
2.49562 37.4284 0.016885
0.080333 39.9526 0
0.32156 32.6054 4
2.76512 32.9061 2
5.04413 33.1904 0.0237391
0.72056 30.1841 2
3.14472 30.6665 0.0151076
1.27793 27.7943 0
0.0802889 35.0474 2
2.54778 35.159 0.0168424
0 37.5 0
0.320817 32.6053 2
2.76513 32.9058 0.016109
0.721173 30.1842 0
0.0806499 35.0474 0
0.32156 32.6054 0
CELLS 1910 17190
8 18 6 25 56 2 0 5 16
8 57 23 6 18 17 4 0 2
8 78 36 9 29 31 11 1 7
8 31 11 1 7 79 37 10 30
8 110 57 18 50 48 17 2 14
8 50 18 56 111 14 2 16 49
8 116 62 22 55 52 20 3 15
8 56 25 67 118 16 5 24 53
8 119 63 23 57 54 21 4 17
8 55 22 63 119 15 3 21 54
8 58 26 68 121 18 6 25 56
8 122 65 26 58 57 23 6 18
8 73 31 7 27 142 79 30 71
8 143 78 29 72 73 31 7 27
8 83 147 76 34 32 74 28 8
8 84 148 78 36 33 75 29 9
8 76 34 8 28 148 84 33 75
8 37 79 150 86 10 30 77 35
8 151 87 36 78 80 38 11 31
8 80 38 11 31 152 88 37 79
8 175 100 42 94 96 44 12 40
8 44 96 176 101 12 40 95 43
8 101 176 98 46 43 95 41 13
8 46 98 178 103 13 41 97 45
8 178 103 45 97 147 83 32 74
8 189 116 55 109 106 52 15 47
8 111 56 118 191 49 16 53 107
8 192 119 57 110 108 54 17 48
8 109 55 119 192 47 15 54 108
8 194 122 58 112 110 57 18 50
8 112 58 121 195 50 18 56 111
8 115 61 19 51 197 124 59 113
8 115 61 125 198 51 19 60 114
8 198 125 62 116 114 60 20 52
8 200 127 64 120 116 62 22 55
8 118 67 132 202 53 24 66 117
8 121 68 133 203 56 25 67 118
8 120 64 128 204 55 22 63 119
8 204 128 65 122 119 63 23 57
8 206 134 68 121 123 69 26 58
8 123 69 26 58 207 131 65 122
8 226 147 74 138 140 76 28 70
8 229 148 75 139 143 78 29 72
8 140 76 28 70 229 148 75 139
8 142 79 30 71 231 150 77 141
8 144 80 31 73 232 152 79 142
8 233 151 78 143 144 80 31 73
8 150 86 35 77 235 154 81 145
8 235 154 81 145 146 82 39 91
8 146 82 39 91 236 155 90 165
8 238 157 83 147 149 85 34 76
8 239 158 84 148 151 87 36 78
8 149 85 34 76 239 158 84 148
8 152 88 37 79 241 160 86 150
8 242 161 87 151 153 89 38 80
8 153 89 38 80 243 162 88 152
8 171 98 41 92 265 178 97 169
8 265 178 97 169 226 147 74 138
8 172 96 40 93 266 176 95 170
8 266 176 95 170 171 98 41 92
8 269 175 94 173 172 96 40 93
8 271 180 99 174 175 100 42 94
8 197 124 59 113 271 180 99 174
8 272 181 100 175 177 102 44 96
8 273 182 101 176 179 104 46 98
8 177 102 44 96 273 182 101 176
8 179 104 46 98 275 184 103 178
8 275 184 103 178 238 157 83 147
8 188 115 51 105 283 197 113 186
8 188 115 198 284 105 51 114 187
8 284 198 116 189 187 114 52 106
8 286 200 120 193 189 116 55 109
8 191 118 202 288 107 53 117 190
8 195 121 203 289 111 56 118 191
8 193 120 204 290 109 55 119 192
8 290 204 122 194 192 119 57 110
8 196 123 58 112 292 207 122 194
8 293 206 121 195 196 123 58 112
8 199 126 61 115 297 211 124 197
8 298 212 127 200 198 125 62 116
8 199 126 212 298 115 61 125 198
8 205 129 64 120 300 214 127 200
8 301 217 130 201 202 132 66 117
8 209 136 168 264 301 217 130 201
8 302 219 132 202 203 133 67 118
8 303 220 133 203 206 134 68 121
8 205 129 215 304 120 64 128 204
8 304 215 131 207 204 128 65 122
8 306 221 134 206 208 135 69 123
8 208 135 69 123 307 218 131 207
8 210 137 167 263 309 223 136 209
8 328 238 147 226 230 149 76 140
8 228 146 91 166 329 236 165 260
8 231 150 77 141 330 235 145 227
8 330 235 145 227 228 146 91 166
8 332 239 148 229 233 151 78 143
8 230 149 76 140 332 239 148 229
8 232 152 79 142 334 241 150 231
8 234 153 80 144 335 243 152 232
8 336 242 151 233 234 153 80 144
8 236 155 90 165 338 245 164 259
8 241 160 86 150 339 246 154 235
8 339 246 154 235 237 156 82 146
8 237 156 82 146 340 247 155 236
8 342 249 157 238 240 159 85 149
8 343 250 158 239 242 161 87 151
8 240 159 85 149 343 250 158 239
8 243 162 88 152 345 252 160 241
8 244 163 253 346 153 89 161 242
8 244 163 89 153 347 254 162 243
8 311 224 261 371 210 137 167 263
8 263 167 262 372 209 136 168 264
8 267 179 98 171 375 275 178 265
8 375 275 178 265 328 238 147 226
8 376 273 176 266 267 179 98 171
8 268 177 96 172 376 273 176 266
8 379 272 175 269 268 177 96 172
8 380 271 174 270 269 175 94 173
8 283 197 113 186 380 271 174 270
8 381 277 180 271 272 181 100 175
8 297 211 124 197 381 277 180 271
8 382 278 181 272 274 183 102 177
8 274 183 102 177 383 279 182 273
8 383 279 182 273 276 185 104 179
8 385 281 184 275 342 249 157 238
8 276 185 104 179 385 281 184 275
8 285 199 115 188 393 297 197 283
8 394 298 200 286 284 198 116 189
8 285 199 298 394 188 115 198 284
8 291 205 120 193 396 300 200 286
8 397 301 201 287 288 202 117 190
8 295 209 264 374 397 301 201 287
8 398 302 202 288 289 203 118 191
8 399 303 203 289 293 206 121 195
8 291 205 304 400 193 120 204 290
8 400 304 207 292 290 204 122 194
8 294 208 123 196 402 307 207 292
8 403 306 206 293 294 208 123 196
8 296 210 263 373 405 309 209 295
8 408 312 213 299 297 211 126 199
8 299 213 313 409 199 126 212 298
8 409 313 214 300 298 212 127 200
8 305 216 129 205 411 315 214 300
8 412 318 217 301 302 219 132 202
8 309 223 136 209 412 318 217 301
8 413 320 219 302 303 220 133 203
8 306 221 321 414 206 134 220 303
8 307 218 131 207 415 316 215 304
8 305 216 316 415 205 129 215 304
8 417 322 221 306 308 222 135 208
8 308 222 135 208 418 319 218 307
8 310 225 137 210 420 325 223 309
8 423 326 224 311 310 225 137 210
8 329 236 165 260 441 338 259 368
8 442 342 238 328 333 240 149 230
8 331 237 146 228 443 340 236 329
8 334 241 150 231 444 339 235 330
8 444 339 235 330 331 237 146 228
8 446 343 239 332 336 242 151 233
8 333 240 149 230 446 343 239 332
8 335 243 152 232 448 345 241 334
8 337 244 153 234 449 347 243 335
8 337 244 346 450 234 153 242 336
8 338 245 164 259 452 349 258 367
8 340 247 155 236 453 350 245 338
8 345 252 160 241 454 351 246 339
8 454 351 246 339 341 248 156 237
8 341 248 156 237 455 352 247 340
8 240 159 251 344 342 249 354 457
8 242 161 253 346 343 250 355 458
8 343 250 355 458 240 159 251 344
8 347 254 162 243 460 357 252 345
8 348 255 358 461 244 163 253 346
8 348 255 163 244 462 359 254 347
8 473 360 257 365 363 256 364 482
8 452 349 258 367 365 257 366 485
8 422 324 369 488 311 224 261 371
8 371 261 370 490 263 167 262 372
8 407 311 371 491 296 210 263 373
8 373 263 372 492 295 209 264 374
8 493 385 275 375 442 342 238 328
8 377 276 179 267 493 385 275 375
8 378 274 177 268 494 383 273 376
8 494 383 273 376 377 276 179 267
8 497 382 272 379 378 274 177 268
8 498 381 271 380 379 272 175 269
8 393 297 197 283 498 381 271 380
8 499 387 277 381 382 278 181 272
8 408 312 211 297 499 387 277 381
8 500 388 278 382 384 280 183 274
8 501 389 279 383 386 282 185 276
8 384 280 183 274 501 389 279 383
8 386 282 185 276 503 391 281 385
8 503 391 281 385 457 354 249 342
8 511 408 299 395 393 297 199 285
8 395 299 409 512 285 199 298 394
8 512 409 300 396 394 298 200 286
8 401 305 205 291 514 411 300 396
8 515 412 301 397 398 302 202 288
8 405 309 209 295 515 412 301 397
8 516 413 302 398 399 303 203 289
8 403 306 414 517 293 206 303 399
8 402 307 207 292 518 415 304 400
8 401 305 415 518 291 205 304 400
8 404 308 208 294 520 418 307 402
8 521 417 306 403 404 308 208 294
8 406 310 210 296 523 420 309 405
8 526 423 311 407 406 310 210 296
8 410 314 213 299 527 424 312 408
8 528 425 315 411 409 313 214 300
8 410 314 425 528 299 213 313 409
8 416 317 216 305 530 427 315 411
8 531 430 318 412 413 320 219 302
8 420 325 223 309 531 430 318 412
8 532 432 320 413 414 321 220 303
8 417 322 433 533 306 221 321 414
8 418 319 218 307 534 428 316 415
8 416 317 428 534 305 216 316 415
8 419 323 434 536 308 222 322 417
8 419 323 222 308 537 431 319 418
8 421 327 225 310 539 438 325 420
8 421 327 439 541 310 225 326 423
8 543 437 324 422 423 326 224 311
8 441 338 259 368 559 452 367 486
8 443 340 236 329 560 453 338 441
8 333 240 344 447 442 342 457 561
8 445 341 237 331 562 455 340 443
8 448 345 241 334 563 454 339 444
8 563 454 339 444 445 341 237 331
8 336 242 346 450 446 343 458 565
8 446 343 458 565 333 240 344 447
8 449 347 243 335 567 460 345 448
8 451 348 244 337 568 462 347 449
8 451 348 461 569 337 244 346 450
8 570 463 349 452 473 360 257 365
8 453 350 245 338 570 463 349 452
8 455 352 247 340 571 464 350 453
8 460 357 252 345 572 465 351 454
8 572 465 351 454 456 353 248 341
8 456 353 248 341 573 466 352 455
8 344 251 356 459 457 354 468 575
8 458 355 469 576 344 251 356 459
8 346 253 358 461 458 355 469 576
8 462 359 254 347 578 471 357 460
8 348 255 359 462 461 358 472 579
8 591 474 360 473 475 361 256 363
8 475 361 256 363 594 477 362 479
8 363 256 364 482 479 362 480 603
8 590 473 365 484 481 363 482 605
8 482 364 257 365 606 483 366 485
8 559 452 367 486 484 365 485 607
8 542 436 487 609 422 324 369 488
8 525 422 488 611 407 311 371 491
8 488 369 489 612 371 261 370 490
8 491 371 490 613 373 263 372 492
8 495 386 276 377 614 503 385 493
8 614 503 385 493 561 457 342 442
8 615 501 383 494 495 386 276 377
8 496 384 274 378 615 501 383 494
8 618 500 382 497 496 384 274 378
8 619 499 381 498 497 382 272 379
8 511 408 297 393 619 499 381 498
8 620 505 387 499 500 388 278 382
8 527 424 312 408 620 505 387 499
8 502 390 506 621 384 280 388 500
8 622 507 389 501 504 392 282 386
8 502 390 280 384 622 507 389 501
8 504 392 282 386 624 509 391 503
8 624 509 391 503 575 468 354 457
8 513 410 299 395 630 527 408 511
8 631 528 411 514 512 409 300 396
8 513 410 528 631 395 299 409 512
8 519 416 305 401 633 530 411 514
8 634 531 412 515 516 413 302 398
8 523 420 309 405 634 531 412 515
8 635 532 413 516 517 414 303 399
8 521 417 533 636 403 306 414 517
8 520 418 307 402 637 534 415 518
8 519 416 534 637 401 305 415 518
8 522 419 308 404 639 537 418 520
8 522 419 536 640 404 308 417 521
8 524 421 310 406 642 539 420 523
8 524 421 541 644 406 310 423 526
8 646 543 422 525 526 423 311 407
8 529 426 314 410 647 544 424 527
8 528 425 545 648 411 315 427 530
8 529 426 545 648 410 314 425 528
8 535 429 317 416 649 546 427 530
8 650 548 430 531 532 432 320 413
8 539 438 325 420 650 548 430 531
8 533 433 550 651 414 321 432 532
8 536 434 551 652 417 322 433 533
8 537 431 319 418 653 547 428 534
8 535 429 547 653 416 317 428 534
8 538 435 552 654 419 323 434 536
8 538 435 323 419 655 549 431 537
8 540 440 327 421 657 556 438 539
8 540 440 557 659 421 327 439 541
8 541 439 555 660 423 326 437 543
8 661 554 436 542 543 437 324 422
8 676 570 452 559 590 473 365 484
8 560 453 338 441 676 570 452 559
8 562 455 340 443 677 571 453 560
8 447 344 459 566 561 457 575 678
8 564 456 341 445 679 573 455 562
8 567 460 345 448 680 572 454 563
8 680 572 454 563 564 456 341 445
8 565 458 576 682 447 344 459 566
8 450 346 461 569 565 458 576 682
8 568 462 347 449 684 578 460 567
8 451 348 462 568 569 461 579 685
8 686 580 463 570 591 474 360 473
8 571 464 350 453 686 580 463 570
8 573 466 352 455 687 581 464 571
8 572 465 582 688 460 357 471 578
8 574 467 582 688 456 353 465 572
8 574 467 353 456 689 583 466 573
8 459 356 470 577 575 468 585 691
8 576 469 586 692 459 356 470 577
8 461 358 472 579 576 469 586 692
8 462 359 471 578 579 472 588 694
8 704 591 473 590 593 475 363 481
8 595 476 592 705 475 361 474 591
8 593 475 363 481 707 594 479 602
8 594 477 362 479 709 598 478 600
8 595 476 361 475 711 597 477 594
8 479 362 480 603 600 478 601 720
8 481 363 482 605 602 479 603 722
8 603 480 364 482 723 604 483 606
8 605 482 365 484 724 606 485 607
8 656 553 608 726 542 436 487 609
8 645 542 609 728 525 422 488 611
8 609 487 610 729 488 369 489 612
8 611 488 612 730 491 371 490 613
8 616 504 386 495 731 624 503 614
8 731 624 503 614 678 575 457 561
8 732 622 501 615 616 504 386 495
8 617 502 384 496 732 622 501 615
8 617 502 621 735 496 384 500 618
8 736 620 499 619 618 500 382 497
8 630 527 408 511 736 620 499 619
8 621 506 626 737 500 388 505 620
8 647 544 424 527 737 626 505 620
8 623 508 627 738 502 390 506 621
8 623 508 390 502 739 628 507 622
8 625 510 628 739 504 392 507 622
8 740 629 509 624 691 585 468 575
8 625 510 392 504 740 629 509 624
8 632 529 410 513 744 647 527 630
8 631 528 648 745 514 411 530 633
8 632 529 648 745 513 410 528 631
8 638 535 416 519 746 649 530 633
8 747 650 531 634 635 532 413 516
8 642 539 420 523 747 650 531 634
8 636 533 651 748 517 414 532 635
8 640 536 652 749 521 417 533 636
8 639 537 418 520 750 653 534 637
8 638 535 653 750 519 416 534 637
8 641 538 419 522 751 655 537 639
8 641 538 654 752 522 419 536 640
8 643 540 421 524 753 657 539 642
8 643 540 659 755 524 421 541 644
8 644 541 660 757 526 423 543 646
8 758 661 542 645 646 543 422 525
8 529 426 544 647 648 545 662 759
8 530 427 545 648 649 546 663 760
8 535 429 546 649 653 547 664 761
8 762 666 548 650 651 550 432 532
8 657 556 438 539 762 666 548 650
8 652 551 668 763 533 433 550 651
8 654 552 669 764 536 434 551 652
8 655 549 431 537 765 665 547 653
8 538 435 549 655 654 552 667 766
8 661 554 671 768 542 436 553 656
8 658 558 440 540 769 674 556 657
8 658 558 675 770 540 440 557 659
8 659 557 673 771 541 439 555 660
8 660 555 672 772 543 437 554 661
8 788 686 570 676 704 591 473 590
8 677 571 453 560 788 686 570 676
8 679 573 455 562 789 687 571 677
8 566 459 577 683 678 575 691 790
8 681 574 456 564 791 689 573 679
8 680 572 688 792 567 460 578 684
8 681 574 688 792 564 456 572 680
8 682 576 692 794 566 459 577 683
8 569 461 579 685 682 576 692 794
8 568 462 578 684 685 579 694 796
8 687 581 464 571 798 696 580 686
8 798 696 580 686 705 592 474 591
8 689 583 466 573 799 697 581 687
8 688 582 698 800 578 471 588 694
8 690 584 698 800 574 467 582 688
8 690 584 467 574 801 699 583 689
8 693 587 701 803 577 470 585 691
8 693 587 470 577 804 702 586 692
8 695 589 702 804 579 472 586 692
8 695 589 472 579 805 703 588 694
8 708 595 705 813 593 475 591 704
8 710 596 706 814 595 476 592 705
8 707 594 479 602 816 709 600 719
8 708 595 475 593 817 711 594 707
8 709 598 478 600 819 715 599 717
8 711 597 477 594 820 714 598 709
8 710 596 476 595 822 713 597 711
8 600 478 601 720 717 599 718 832
8 602 479 603 722 719 600 720 834
8 720 601 480 603 835 721 604 723
8 722 603 482 605 836 723 606 724
8 767 670 725 839 656 553 608 726
8 756 656 726 841 645 542 609 728
8 726 608 727 842 609 487 610 729
8 728 609 729 843 611 488 612 730
8 844 740 624 731 790 691 575 678
8 733 625 504 616 844 740 624 731
8 734 623 502 617 845 739 622 732
8 733 625 739 845 616 504 622 732
8 734 623 738 846 617 502 621 735
8 735 621 737 847 618 500 620 736
8 744 647 527 630 847 737 620 736
8 621 506 627 738 737 626 741 848
8 647 544 626 737 759 662 741 848
8 623 508 628 739 738 627 742 849
8 740 629 585 691 850 743 700 802
8 625 510 629 740 739 628 743 850
8 632 529 647 744 745 648 759 854
8 633 530 648 745 746 649 760 855
8 638 535 649 746 750 653 761 856
8 857 762 650 747 748 651 532 635
8 753 657 539 642 857 762 650 747
8 749 652 763 858 636 533 651 748
8 752 654 764 859 640 536 652 749
8 751 655 537 639 860 765 653 750
8 641 538 655 751 752 654 766 861
8 754 658 540 643 862 769 657 753
8 754 658 770 863 643 540 659 755
8 755 659 771 864 644 541 660 757
8 758 661 768 866 645 542 656 756
8 757 660 772 867 646 543 661 758
8 759 662 773 868 648 545 663 760
8 649 546 663 760 761 664 774 871
8 765 665 547 653 872 775 664 761
8 873 777 666 762 763 668 550 651
8 769 674 556 657 873 777 666 762
8 764 669 779 874 652 551 668 763
8 654 552 667 766 764 669 778 875
8 655 549 665 765 766 667 776 876
8 768 671 782 877 656 553 670 767
8 772 672 783 878 661 554 671 768
8 658 558 674 769 770 675 786 879
8 659 557 675 770 771 673 785 881
8 882 784 672 772 771 673 555 660
8 789 687 571 677 897 798 686 788
8 897 798 686 788 813 705 591 704
8 791 689 573 679 898 799 687 789
8 795 693 803 900 683 577 691 790
8 793 690 574 681 901 801 689 791
8 792 688 800 902 684 578 694 796
8 793 690 800 902 681 574 688 792
8 795 693 577 683 903 804 692 794
8 797 695 804 903 685 579 692 794
8 797 695 579 685 904 805 694 796
8 905 806 697 799 798 696 581 687
8 814 706 806 905 705 592 696 798
8 689 583 697 799 801 699 808 907
8 800 698 809 908 694 588 703 805
8 690 584 699 801 800 698 809 908
8 803 701 810 909 691 585 700 802
8 693 587 702 804 803 701 811 910
8 695 589 703 805 804 702 812 911
8 818 710 814 919 708 595 705 813
8 821 712 815 920 710 596 706 814
8 816 709 600 719 922 819 717 831
8 817 711 594 707 923 820 709 816
8 818 710 595 708 924 822 711 817
8 819 715 599 717 926 827 716 829
8 820 714 598 709 927 826 715 819
8 929 825 713 822 820 714 597 711
8 821 712 596 710 930 824 713 822
8 717 599 718 832 829 716 830 942
8 719 600 720 834 831 717 832 944
8 832 718 601 720 945 833 721 835
8 834 720 603 722 946 835 723 836
8 869 780 838 950 767 670 725 839
8 865 767 839 952 756 656 726 841
8 839 725 840 953 726 608 727 842
8 841 726 842 954 728 609 729 843
8 844 740 691 790 955 850 802 899
8 733 625 740 844 845 739 850 955
8 734 623 739 845 846 738 849 956
8 735 621 738 846 847 737 848 957
8 744 647 737 847 854 759 848 957
8 738 627 742 849 848 741 851 958
8 848 741 851 958 759 662 773 868
8 850 743 700 802 959 852 807 906
8 849 742 628 739 959 852 743 850
8 854 759 868 965 745 648 760 855
8 746 649 760 855 856 761 871 966
8 860 765 653 750 967 872 761 856
8 968 873 762 857 858 763 651 748
8 862 769 657 753 968 873 762 857
8 859 764 874 969 749 652 763 858
8 752 654 766 861 859 764 875 970
8 751 655 765 860 861 766 876 971
8 754 658 769 862 863 770 879 972
8 755 659 770 863 864 771 881 974
8 976 882 772 867 864 771 660 757
8 866 768 877 977 756 656 767 865
8 867 772 878 978 758 661 768 866
8 760 663 773 868 871 774 883 980
8 870 781 837 948 982 890 780 869
8 982 890 780 869 877 782 670 767
8 761 664 774 871 872 775 884 984
8 876 776 665 765 985 885 775 872
8 873 777 668 763 986 887 779 874
8 769 674 777 873 879 786 887 986
8 764 669 778 875 874 779 888 987
8 766 667 776 876 875 778 886 988
8 878 783 892 989 768 671 782 877
8 878 783 672 772 990 893 784 882
8 880 787 675 770 991 896 786 879
8 880 787 895 992 770 675 785 881
8 881 785 894 993 771 673 784 882
8 1006 905 799 898 897 798 687 789
8 919 814 905 1006 813 705 798 897
8 791 689 799 898 901 801 907 1007
8 900 803 909 1009 790 691 802 899
8 795 693 804 903 900 803 910 1010
8 902 800 908 1011 796 694 805 904
8 793 690 801 901 902 800 908 1011
8 797 695 805 904 903 804 911 1012
8 799 697 806 905 907 808 912 1013
8 920 815 912 1013 814 706 806 905
8 802 700 810 909 906 807 913 1014
8 801 699 808 907 908 809 914 1015
8 805 703 809 908 911 812 915 1016
8 803 701 811 910 909 810 916 1017
8 911 812 917 1018 804 702 811 910
8 925 821 920 1030 818 710 814 919
8 928 823 921 1031 821 712 815 920
8 922 819 717 831 1033 926 829 941
8 923 820 709 816 1034 927 819 922
8 1035 929 822 924 923 820 711 817
8 925 821 710 818 1036 930 822 924
8 1038 933 825 929 927 826 714 820
8 926 827 716 829 1039 935 828 939
8 927 826 715 819 1040 934 827 926
8 928 823 712 821 1041 931 824 930
8 1042 932 824 930 929 825 713 822
8 829 716 830 942 939 828 940 1058
8 831 717 832 944 941 829 942 1060
8 942 830 718 832 1061 943 833 945
8 944 832 720 834 1062 945 835 946
8 981 889 947 1064 870 781 837 948
8 948 837 949 1067 869 780 838 950
8 975 869 950 1069 865 767 839 952
8 950 838 951 1070 839 725 840 953
8 952 839 953 1071 841 726 842 954
8 955 850 802 899 1072 959 906 1008
8 956 849 739 845 1072 959 850 955
8 846 738 849 956 957 848 958 1073
8 957 848 958 1073 854 759 868 965
8 849 742 852 959 958 851 961 1076
8 960 853 961 1076 906 807 852 959
8 958 851 961 1076 868 773 883 980
8 960 853 807 906 1077 963 913 1014
8 855 760 868 965 966 871 980 1085
8 856 761 871 966 967 872 984 1086
8 971 876 765 860 1087 985 872 967
8 968 873 763 858 1088 986 874 969
8 862 769 873 968 972 879 986 1088
8 859 764 875 970 969 874 987 1089
8 861 766 876 971 970 875 988 1090
8 973 880 770 863 1091 991 879 972
8 973 880 992 1092 863 770 881 974
8 974 881 993 1093 864 771 882 976
8 979 870 948 1066 1094 982 869 975
8 1094 982 869 975 977 877 767 865
8 978 878 772 867 1095 990 882 976
8 978 878 989 1096 866 768 877 977
8 871 774 883 980 984 884 994 1099
8 983 891 999 1100 870 781 889 981
8 1101 1000 890 982 989 892 782 877
8 983 891 781 870 1101 1000 890 982
8 872 775 884 984 985 885 995 1103
8 876 776 885 985 988 886 996 1104
8 986 887 779 874 1105 998 888 987
8 879 786 887 986 991 896 998 1105
8 875 778 886 988 987 888 997 1106
8 990 893 1002 1107 878 783 892 989
8 1108 1003 893 990 993 894 784 882
8 880 787 896 991 992 895 1005 1109
8 993 894 785 881 1110 1004 895 992
8 898 799 905 1006 1007 907 1013 1120
8 1030 920 1013 1120 919 814 905 1006
8 901 801 907 1007 1011 908 1015 1121
8 899 802 909 1009 1008 906 1014 1122
8 900 803 910 1010 1009 909 1017 1123
8 1012 911 1018 1124 903 804 910 1010
8 904 805 908 1011 1012 911 1016 1125
8 1013 912 1020 1127 907 808 914 1015
8 1031 921 1020 1127 920 815 912 1013
8 1019 918 962 1075 1128 1021 913 1014
8 1128 1021 913 1014 1017 916 810 909
8 1015 914 1022 1129 908 809 915 1016
8 1016 915 1023 1130 911 812 917 1018
8 1018 917 1024 1131 910 811 916 1017
8 1037 928 1031 1148 925 821 920 1030
8 928 823 931 1041 1031 921 1032 1149
8 1033 926 829 941 1151 1039 939 1057
8 1034 927 819 922 1152 1040 926 1033
8 1153 1038 929 1035 1034 927 820 923
8 1154 1042 930 1036 1035 929 822 924
8 1037 928 821 925 1155 1041 930 1036
8 1039 935 828 939 1156 1047 938 1055
8 1157 1043 932 1042 1038 933 825 929
8 1038 933 826 927 1158 1045 934 1040
8 1040 934 827 926 1159 1046 935 1039
8 930 824 932 1042 1041 931 1044 1160
8 1051 936 1048 1165 1175 1052 937 1053
8 1156 1047 938 1055 1053 937 1054 1178
8 939 828 940 1058 1055 938 1056 1181
8 941 829 942 1060 1057 939 1058 1183
8 942 830 943 1061 1058 940 1059 1184
8 1060 942 832 944 1185 1061 945 1062
8 1082 964 1063 1188 981 889 947 1064
8 1097 981 1064 1190 979 870 948 1066
8 1064 947 1065 1191 948 837 949 1067
8 1066 948 1067 1193 975 869 950 1069
8 1067 949 1068 1194 950 838 951 1070
8 1069 950 1070 1195 952 839 953 1071
8 956 849 959 1072 1073 958 1076 1197
8 1074 960 1076 1197 1008 906 959 1072
8 1073 958 1076 1197 965 868 980 1085
8 1074 960 906 1008 1198 1077 1014 1122
8 1133 1026 1079 1199 1019 918 962 1075
8 1077 963 913 1014 1200 1080 962 1075
8 960 853 963 1077 1076 961 1078 1201
8 980 883 961 1076 1099 994 1078 1201
8 1210 1083 964 1082 1100 999 889 981
8 966 871 980 1085 1086 984 1099 1215
8 967 872 984 1086 1087 985 1103 1216
8 971 876 985 1087 1090 988 1104 1217
8 1088 986 874 969 1218 1105 987 1089
8 972 879 986 1088 1091 991 1105 1218
8 970 875 988 1090 1089 987 1106 1219
8 973 880 991 1091 1092 992 1109 1220
8 1093 993 881 974 1221 1110 992 1092
8 1222 1108 990 1095 1093 993 882 976
8 1223 1101 982 1094 1096 989 877 977
8 1098 983 870 979 1223 1101 982 1094
8 1095 990 1107 1224 978 878 989 1096
8 1098 983 1100 1225 979 870 981 1097
8 984 884 994 1099 1103 995 1111 1227
8 1102 1001 1115 1228 983 891 999 1100
8 1101 1000 892 989 1229 1116 1002 1107
8 1102 1001 891 983 1229 1116 1000 1101
8 985 885 995 1103 1104 996 1112 1230
8 988 886 996 1104 1106 997 1113 1231
8 1105 998 888 987 1232 1114 997 1106
8 991 896 998 1105 1109 1005 1114 1232
8 1108 1003 1117 1233 990 893 1002 1107
8 1108 1003 894 993 1233 1117 1004 1110
8 992 895 1005 1109 1110 1004 1118 1234
8 1120 1013 1127 1244 1007 907 1015 1121
8 1148 1031 1127 1244 1030 920 1013 1120
8 1121 1015 1129 1245 1011 908 1016 1125
8 1126 1019 1075 1196 1246 1128 1014 1122
8 1246 1128 1014 1122 1123 1017 909 1009
8 1124 1018 1131 1247 1010 910 1017 1123
8 1125 1016 1130 1248 1012 911 1018 1124
8 1127 1020 1137 1254 1015 914 1022 1129
8 1031 921 1032 1149 1127 1020 1137 1254
8 1134 1027 918 1019 1257 1140 1021 1128
8 1257 1140 1021 1128 1131 1024 916 1017
8 1129 1022 1141 1258 1016 915 1023 1130
8 1130 1023 1142 1259 1018 917 1024 1131
8 1261 1144 1025 1132 1133 1026 1079 1199
8 1255 1138 1025 1132 1135 1028 1144 1261
8 1133 1026 918 1019 1262 1145 1027 1134
8 1136 1029 1139 1256 1263 1146 1028 1135
8 1037 928 1041 1155 1148 1031 1149 1275
8 1041 931 1044 1160 1149 1032 1150 1276
8 1151 1039 939 1057 1278 1156 1055 1180
8 1152 1040 926 1033 1279 1159 1039 1151
8 1153 1038 927 1034 1280 1158 1040 1152
8 1281 1157 1042 1154 1153 1038 929 1035
8 1036 930 1042 1154 1155 1041 1160 1282
8 1283 1164 1046 1159 1156 1047 935 1039
8 1165 1048 1164 1283 1053 937 1047 1156
8 1157 1043 933 1038 1284 1161 1045 1158
8 1157 1043 1161 1284 1042 932 1044 1160
8 1040 934 1046 1159 1158 1045 1163 1285
8 1166 1049 1167 1292 1051 936 1048 1165
8 1166 1049 936 1051 1293 1168 1050 1172
8 1051 936 1052 1175 1172 1050 1173 1306
8 1174 1051 1165 1290 1308 1175 1053 1177
8 1053 937 1054 1178 1175 1052 1176 1309
8 1278 1156 1055 1180 1177 1053 1178 1311
8 1055 938 1056 1181 1178 1054 1179 1312
8 1057 939 1058 1183 1180 1055 1181 1314
8 1058 940 1059 1184 1181 1056 1182 1315
8 1060 942 1061 1185 1183 1058 1184 1316
8 1208 1081 1187 1321 1082 964 1063 1188
8 1209 1082 1188 1322 1097 981 1064 1190
8 1188 1063 1189 1323 1064 947 1065 1191
8 1190 1064 1191 1325 1066 948 1067 1193
8 1191 1065 1192 1326 1067 949 1068 1194
8 1067 1193 1069 950 1194 1327 1195 1070
8 1250 1133 1199 1330 1126 1019 1075 1196
8 1198 1077 1014 1122 1331 1200 1075 1196
8 1074 960 1077 1198 1197 1076 1201 1332
8 1085 980 1076 1197 1215 1099 1201 1332
8 1199 1079 1203 1333 1075 962 1080 1200
8 1132 1025 1119 1243 1199 1079 1203 1333
8 1201 1078 963 1077 1334 1202 1080 1200
8 1099 994 1078 1201 1227 1111 1202 1334
8 1343 1207 1081 1208 1210 1083 964 1082
8 1214 1084 1186 1319 1343 1207 1081 1208
8 1345 1210 1082 1209 1225 1100 981 1097
8 1346 1211 1083 1210 1228 1115 999 1100
8 1086 984 1099 1215 1216 1103 1227 1352
8 1087 985 1103 1216 1217 1104 1230 1353
8 1090 988 1104 1217 1219 1106 1231 1354
8 1218 1105 987 1089 1355 1232 1106 1219
8 1091 991 1105 1218 1220 1109 1232 1355
8 1092 992 1109 1220 1221 1110 1234 1356
8 1222 1108 1233 1357 1095 990 1107 1224
8 1222 1108 993 1093 1357 1233 1110 1221
8 1223 1101 989 1096 1358 1229 1107 1224
8 1226 1102 983 1098 1358 1229 1101 1223
8 1226 1102 1228 1359 1098 983 1100 1225
8 1103 995 1111 1227 1230 1112 1235 1360
8 1107 1002 1117 1233 1229 1116 1240 1362
8 1102 1001 1116 1229 1228 1115 1240 1362
8 1104 996 1112 1230 1231 1113 1236 1363
8 1364 1237 1114 1232 1231 1113 997 1106
8 1109 1005 1114 1232 1234 1118 1238 1365
8 1110 1004 1118 1234 1233 1117 1241 1366
8 1242 1374 1255 1138 1119 1243 1132 1025
8 1244 1127 1254 1376 1121 1015 1129 1245
8 1148 1031 1149 1275 1244 1127 1254 1376
8 1245 1129 1258 1377 1125 1016 1130 1248
8 1251 1134 1019 1126 1378 1257 1128 1246
8 1378 1257 1128 1246 1247 1131 1017 1123
8 1248 1130 1259 1379 1124 1018 1131 1247
8 1261 1381 1250 1133 1132 1249 1330 1199
8 1255 1380 1252 1135 1132 1249 1381 1261
8 1250 1133 1019 1126 1382 1262 1134 1251
8 1253 1136 1256 1385 1384 1263 1135 1252
8 1254 1137 1265 1387 1129 1022 1141 1258
8 1149 1032 1150 1276 1254 1137 1265 1387
8 1028 1135 1255 1138 1139 1256 1388 1266
8 1136 1029 1147 1264 1256 1139 1267 1389
8 1390 1268 1140 1257 1259 1142 1024 1131
8 1260 1143 1027 1134 1390 1268 1140 1257
8 1258 1141 1269 1391 1130 1023 1142 1259
8 1262 1145 1027 1134 1393 1271 1143 1260
8 1261 1144 1026 1133 1394 1272 1145 1262
8 1135 1028 1144 1261 1263 1146 1272 1394
8 1136 1029 1146 1263 1264 1147 1273 1395
8 1155 1041 1160 1282 1275 1149 1276 1405
8 1276 1150 1044 1160 1406 1277 1162 1286
8 1408 1283 1159 1279 1278 1156 1039 1151
8 1290 1165 1283 1408 1177 1053 1156 1278
8 1152 1040 1159 1279 1280 1158 1285 1409
8 1281 1157 1038 1153 1410 1284 1158 1280
8 1281 1157 1284 1410 1154 1042 1160 1282
8 1159 1046 1164 1283 1285 1163 1289 1412
8 1292 1167 1289 1412 1165 1048 1164 1283
8 1158 1045 1163 1285 1284 1161 1288 1413
8 1284 1161 1288 1413 1160 1044 1162 1286
8 1291 1166 1292 1418 1174 1051 1165 1290
8 1291 1166 1051 1174 1419 1293 1172 1305
8 1294 1169 1296 1421 1166 1049 1167 1292
8 1293 1168 1050 1172 1422 1295 1171 1303
8 1294 1169 1049 1166 1423 1297 1168 1293
8 1422 1295 1171 1303 1301 1170 1302 1435
8 1172 1050 1173 1306 1303 1171 1304 1438
8 1174 1051 1175 1308 1305 1172 1306 1440
8 1175 1052 1176 1309 1306 1173 1307 1441
8 1177 1053 1178 1311 1308 1175 1309 1443
8 1178 1054 1179 1312 1309 1176 1310 1444
8 1180 1055 1181 1314 1311 1178 1312 1446
8 1056 1181 1312 1179 1182 1315 1447 1313
8 1183 1058 1184 1316 1314 1181 1315 1448
8 1319 1186 1084 1214 1451 1317 1213 1350
8 1319 1186 1318 1453 1208 1081 1187 1321
8 1321 1187 1320 1456 1188 1063 1189 1323
8 1344 1208 1321 1457 1209 1082 1188 1322
8 1322 1188 1323 1458 1190 1064 1191 1325
8 1323 1189 1324 1459 1191 1065 1192 1326
8 1191 1325 1193 1067 1326 1460 1327 1194
8 1242 1374 1243 1119 1328 1462 1335 1204
8 1330 1199 1333 1465 1196 1075 1200 1331
8 1132 1249 1330 1199 1243 1375 1465 1333
8 1332 1201 1077 1198 1466 1334 1200 1331
8 1215 1099 1201 1332 1352 1227 1334 1466
8 1119 1243 1333 1203 1204 1335 1470 1338
8 1333 1203 1338 1470 1200 1080 1202 1334
8 1227 1111 1202 1334 1360 1235 1338 1470
8 1328 1462 1335 1204 1205 1336 1471 1339
8 1337 1206 1340 1472 1464 1329 1205 1336
8 1346 1211 1342 1479 1210 1083 1207 1343
8 1346 1211 1115 1228 1479 1342 1239 1361
8 1348 1212 1084 1214 1479 1342 1207 1343
8 1480 1343 1208 1344 1345 1210 1082 1209
8 1351 1214 1319 1454 1480 1343 1208 1344
8 1481 1346 1210 1345 1359 1228 1100 1225
8 1348 1212 1347 1483 1214 1084 1213 1350
8 1216 1103 1227 1352 1353 1230 1360 1488
8 1217 1104 1230 1353 1354 1231 1363 1489
8 1490 1364 1232 1355 1354 1231 1106 1219
8 1220 1109 1232 1355 1356 1234 1365 1491
8 1221 1110 1234 1356 1357 1233 1366 1492
8 1224 1107 1233 1357 1358 1229 1362 1493
8 1226 1102 1229 1358 1359 1228 1362 1493
8 1230 1112 1235 1360 1363 1236 1367 1496
8 1361 1239 1115 1228 1497 1371 1240 1362
8 1366 1241 1372 1498 1233 1117 1240 1362
8 1364 1237 1113 1231 1499 1368 1236 1363
8 1364 1237 1368 1499 1232 1114 1238 1365
8 1234 1118 1238 1365 1366 1241 1369 1500
8 1507 1373 1242 1374 1388 1266 1138 1255
8 1508 1374 1243 1375 1380 1255 1132 1249
8 1376 1254 1387 1509 1245 1129 1258 1377
8 1275 1149 1276 1405 1376 1254 1387 1509
8 1377 1258 1391 1510 1248 1130 1259 1379
8 1511 1390 1257 1378 1379 1259 1131 1247
8 1383 1260 1134 1251 1511 1390 1257 1378
8 1252 1135 1256 1385 1380 1255 1388 1512
8 1261 1381 1513 1394 1133 1250 1382 1262
8 1135 1252 1384 1263 1261 1381 1513 1394
8 1382 1262 1134 1251 1514 1393 1260 1383
8 1253 1136 1263 1384 1386 1264 1395 1516
8 1253 1136 1264 1386 1385 1256 1389 1517
8 1387 1265 1397 1519 1258 1141 1269 1391
8 1276 1150 1277 1406 1387 1265 1397 1519
8 1256 1139 1267 1389 1388 1266 1398 1520
8 1264 1147 1274 1396 1389 1267 1399 1521
8 1392 1270 1143 1260 1522 1400 1268 1390
8 1390 1268 1142 1259 1522 1400 1269 1391
8 1392 1270 1401 1523 1260 1143 1271 1393
8 1272 1394 1524 1402 1145 1262 1393 1271
8 1395 1273 1146 1263 1524 1402 1272 1394
8 1273 1395 1264 1147 1403 1526 1396 1274
8 1405 1276 1160 1282 1534 1406 1286 1411
8 1414 1287 1407 1535 1286 1162 1277 1406
8 1279 1159 1283 1408 1409 1285 1412 1537
8 1418 1292 1412 1537 1290 1165 1283 1408
8 1280 1158 1285 1409 1410 1284 1413 1538
8 1410 1284 1413 1538 1282 1160 1286 1411
8 1285 1163 1289 1412 1413 1288 1417 1540
8 1421 1296 1417 1540 1292 1167 1289 1412
8 1414 1287 1162 1286 1541 1416 1288 1413
8 1420 1294 1421 1545 1291 1166 1292 1418
8 1419 1293 1172 1305 1546 1422 1303 1437
8 1420 1294 1166 1291 1547 1423 1293 1419
8 1294 1169 1297 1423 1421 1296 1425 1548
8 1423 1297 1168 1293 1549 1424 1295 1422
8 1301 1170 1298 1427 1422 1295 1424 1549
8 1432 1300 1428 1554 1301 1170 1298 1427
8 1431 1299 1428 1554 1560 1430 1300 1432
8 1563 1433 1300 1432 1435 1302 1170 1301
8 1546 1422 1303 1437 1434 1301 1435 1565
8 1303 1171 1304 1438 1435 1302 1436 1566
8 1305 1172 1306 1440 1437 1303 1438 1568
8 1306 1173 1307 1441 1438 1304 1439 1569
8 1308 1175 1309 1443 1440 1306 1441 1571
8 1309 1176 1310 1444 1441 1307 1442 1572
8 1311 1178 1312 1446 1443 1309 1444 1574
8 1179 1312 1444 1310 1313 1447 1575 1445
8 1314 1181 1315 1448 1446 1312 1447 1576
8 1350 1213 1349 1486 1451 1317 1449 1579
8 1451 1317 1450 1581 1319 1186 1318 1453
8 1454 1319 1214 1351 1582 1451 1350 1487
8 1453 1318 1452 1584 1321 1187 1320 1456
8 1454 1319 1453 1585 1344 1208 1321 1457
8 1456 1320 1455 1586 1323 1189 1324 1459
8 1457 1321 1456 1587 1322 1188 1323 1458
8 1458 1323 1459 1588 1325 1191 1326 1460
8 1205 1336 1464 1329 1328 1462 1590 1461
8 1507 1373 1461 1590 1374 1242 1328 1462
8 1508 1374 1462 1591 1375 1243 1335 1467
8 1337 1206 1329 1464 1473 1341 1463 1594
8 1375 1243 1335 1467 1465 1333 1470 1596
8 1465 1333 1470 1596 1331 1200 1334 1466
8 1352 1227 1334 1466 1488 1360 1470 1596
8 1591 1462 1336 1468 1467 1335 1471 1597
8 1469 1337 1472 1598 1595 1464 1336 1468
8 1471 1339 1474 1600 1335 1204 1338 1470
8 1600 1474 1367 1496 1470 1338 1235 1360
8 1336 1205 1340 1472 1471 1339 1475 1601
8 1337 1206 1341 1473 1472 1340 1476 1602
8 1495 1370 1478 1609 1361 1239 1342 1479
8 1348 1212 1342 1479 1483 1347 1478 1609
8 1481 1346 1479 1610 1345 1210 1343 1480
8 1481 1346 1228 1359 1610 1479 1361 1494
8 1484 1348 1214 1351 1610 1479 1343 1480
8 1483 1347 1482 1612 1350 1213 1349 1486
8 1484 1348 1483 1613 1351 1214 1350 1487
8 1353 1230 1360 1488 1489 1363 1496 1616
8 1490 1364 1231 1354 1617 1499 1363 1489
8 1490 1364 1499 1617 1355 1232 1365 1491
8 1356 1234 1365 1491 1492 1366 1500 1619
8 1492 1366 1498 1620 1357 1233 1362 1493
8 1494 1361 1228 1359 1621 1497 1362 1493
8 1495 1370 1239 1361 1622 1504 1371 1497
8 1363 1236 1367 1496 1499 1368 1501 1623
8 1497 1371 1240 1362 1624 1505 1372 1498
8 1625 1503 1372 1498 1500 1369 1241 1366
8 1365 1238 1368 1499 1500 1369 1502 1626
8 1520 1398 1506 1633 1388 1266 1373 1507
8 1634 1507 1374 1508 1512 1388 1255 1380
8 1509 1387 1519 1635 1377 1258 1391 1510
8 1405 1276 1406 1534 1509 1387 1519 1635
8 1515 1392 1260 1383 1636 1522 1390 1511
8 1511 1390 1259 1379 1636 1522 1391 1510
8 1385 1256 1389 1517 1512 1388 1520 1637
8 1513 1394 1262 1382 1638 1524 1393 1514
8 1395 1516 1638 1524 1263 1384 1513 1394
8 1515 1392 1523 1639 1383 1260 1393 1514
8 1516 1395 1526 1640 1386 1264 1396 1518
8 1386 1264 1396 1518 1517 1389 1521 1641
8 1519 1397 1527 1643 1391 1269 1400 1522
8 1535 1407 1527 1643 1406 1277 1397 1519
8 1389 1267 1399 1521 1520 1398 1528 1644
8 1645 1529 1399 1521 1525 1404 1274 1396
8 1392 1270 1400 1522 1523 1401 1531 1646
8 1524 1402 1271 1393 1648 1532 1401 1523
8 1403 1526 1648 1532 1273 1395 1524 1402
8 1525 1404 1274 1396 1649 1533 1403 1526
8 1539 1414 1535 1657 1411 1286 1406 1534
8 1542 1415 1536 1658 1414 1287 1407 1535
8 1409 1285 1412 1537 1538 1413 1540 1660
8 1545 1421 1540 1660 1418 1292 1412 1537
8 1539 1414 1286 1411 1661 1541 1413 1538
8 1540 1417 1544 1663 1413 1288 1416 1541
8 1421 1296 1425 1548 1540 1417 1544 1663
8 1542 1415 1287 1414 1664 1543 1416 1541
8 1420 1294 1423 1547 1545 1421 1548 1666
8 1547 1423 1293 1419 1667 1549 1422 1546
8 1434 1301 1427 1553 1546 1422 1549 1667
8 1423 1297 1424 1549 1548 1425 1550 1668
8 1551 1426 1550 1668 1427 1298 1424 1549
8 1551 1426 1298 1427 1671 1552 1428 1554
8 1562 1432 1554 1674 1434 1301 1427 1553
8 1431 1299 1429 1558 1554 1428 1555 1675
8 1431 1299 1430 1560 1558 1429 1557 1680
8 1560 1430 1300 1432 1683 1559 1433 1563
8 1561 1431 1554 1674 1684 1560 1432 1562
8 1685 1563 1432 1562 1565 1435 1301 1434
8 1435 1302 1436 1566 1563 1433 1564 1686
8 1437 1303 1438 1568 1565 1435 1566 1688
8 1438 1304 1439 1569 1566 1436 1567 1689
8 1440 1306 1441 1571 1568 1438 1569 1691
8 1441 1307 1442 1572 1569 1439 1570 1692
8 1443 1309 1444 1574 1571 1441 1572 1694
8 1310 1444 1572 1442 1445 1575 1695 1573
8 1446 1312 1447 1576 1574 1444 1575 1696
8 1486 1349 1485 1614 1579 1449 1577 1699
8 1451 1317 1449 1579 1581 1450 1578 1701
8 1487 1350 1486 1615 1582 1451 1579 1702
8 1581 1450 1580 1704 1453 1318 1452 1584
8 1582 1451 1581 1705 1454 1319 1453 1585
8 1584 1452 1583 1706 1456 1320 1455 1586
8 1585 1453 1584 1707 1457 1321 1456 1587
8 1587 1456 1586 1708 1458 1323 1459 1588
8 1633 1506 1589 1710 1507 1373 1461 1590
8 1464 1329 1461 1590 1594 1463 1589 1710
8 1468 1336 1462 1591 1595 1464 1590 1711
8 1634 1507 1590 1711 1508 1374 1462 1591
8 1473 1341 1463 1594 1603 1477 1593 1716
8 1469 1337 1464 1595 1599 1473 1594 1717
8 1471 1597 1467 1335 1600 1718 1596 1470
8 1718 1600 1496 1616 1596 1470 1360 1488
8 1336 1468 1597 1471 1472 1598 1719 1601
8 1469 1337 1473 1599 1598 1472 1602 1720
8 1722 1604 1501 1623 1600 1474 1367 1496
8 1475 1601 1471 1339 1604 1722 1600 1474
8 1602 1476 1605 1723 1472 1340 1475 1601
8 1476 1602 1724 1606 1341 1473 1603 1477
8 1483 1347 1478 1609 1612 1482 1608 1731
8 1495 1370 1504 1622 1609 1478 1608 1731
8 1618 1495 1609 1732 1494 1361 1479 1610
8 1484 1348 1479 1610 1613 1483 1609 1732
8 1486 1349 1482 1612 1614 1485 1611 1733
8 1613 1483 1612 1734 1487 1350 1486 1615
8 1489 1363 1496 1616 1617 1499 1623 1736
8 1491 1365 1499 1617 1619 1500 1626 1737
8 1618 1495 1361 1494 1738 1622 1497 1621
8 1739 1625 1498 1620 1619 1500 1366 1492
8 1621 1497 1362 1493 1740 1624 1498 1620
8 1742 1631 1504 1622 1624 1505 1371 1497
8 1743 1628 1502 1626 1623 1501 1368 1499
8 1744 1630 1505 1624 1625 1503 1372 1498
8 1745 1629 1503 1625 1626 1502 1369 1500
8 1520 1398 1528 1644 1633 1506 1632 1751
8 1637 1520 1633 1752 1512 1388 1507 1634
8 1635 1519 1643 1753 1510 1391 1522 1636
8 1657 1535 1643 1753 1534 1406 1519 1635
8 1515 1392 1522 1636 1639 1523 1646 1754
8 1517 1389 1521 1641 1637 1520 1644 1755
8 1524 1638 1756 1648 1393 1514 1639 1523
8 1640 1526 1395 1516 1756 1648 1524 1638
8 1642 1525 1396 1518 1757 1649 1526 1640
8 1758 1645 1521 1641 1642 1525 1396 1518
8 1646 1531 1400 1522 1760 1650 1527 1643
8 1535 1407 1536 1658 1643 1527 1650 1760
8 1521 1399 1529 1645 1644 1528 1651 1761
8 1647 1530 1652 1762 1525 1404 1529 1645
8 1401 1523 1648 1532 1531 1646 1763 1655
8 1525 1404 1533 1649 1647 1530 1654 1765
8 1533 1649 1766 1656 1403 1526 1648 1532
8 1662 1542 1658 1774 1539 1414 1535 1657
8 1542 1415 1543 1664 1658 1536 1659 1775
8 1660 1540 1663 1777 1538 1413 1541 1661
8 1545 1421 1548 1666 1660 1540 1663 1777
8 1662 1542 1414 1539 1778 1664 1541 1661
8 1664 1543 1416 1541 1779 1665 1544 1663
8 1548 1425 1550 1668 1663 1544 1665 1779
8 1547 1423 1549 1667 1666 1548 1668 1781
8 1670 1551 1668 1781 1553 1427 1549 1667
8 1551 1426 1552 1671 1668 1550 1669 1782
8 1670 1551 1427 1553 1784 1671 1554 1674
8 1675 1555 1672 1785 1554 1428 1552 1671
8 1678 1556 1673 1789 1558 1429 1555 1675
8 1561 1431 1558 1681 1674 1554 1675 1790
8 1794 1677 1556 1678 1680 1557 1429 1558
8 1560 1430 1559 1683 1680 1557 1679 1797
8 1561 1431 1560 1684 1681 1558 1680 1798
8 1563 1433 1564 1686 1683 1559 1682 1800
8 1684 1560 1432 1562 1801 1683 1563 1685
8 1565 1435 1566 1688 1685 1563 1686 1802
8 1566 1436 1567 1689 1686 1564 1687 1803
8 1568 1438 1569 1691 1688 1566 1689 1805
8 1569 1439 1570 1692 1689 1567 1690 1806
8 1571 1441 1572 1694 1691 1569 1692 1808
8 1442 1572 1692 1570 1573 1695 1809 1693
8 1574 1444 1575 1696 1694 1572 1695 1810
8 1614 1485 1592 1712 1699 1577 1697 1813
8 1579 1449 1577 1699 1701 1578 1698 1815
8 1615 1486 1614 1735 1702 1579 1699 1816
8 1701 1578 1700 1818 1581 1450 1580 1704
8 1582 1451 1579 1702 1705 1581 1701 1819
8 1704 1580 1703 1820 1584 1452 1583 1706
8 1705 1581 1704 1821 1585 1453 1584 1707
8 1707 1584 1706 1822 1587 1456 1586 1708
8 1710 1589 1506 1633 1824 1709 1632 1751
8 1594 1463 1589 1710 1716 1593 1709 1824
8 1752 1633 1710 1825 1634 1507 1590 1711
8 1595 1464 1590 1711 1717 1594 1710 1825
8 1830 1714 1592 1712 1733 1611 1485 1614
8 1603 1477 1593 1716 1725 1607 1715 1834
8 1599 1473 1594 1717 1721 1603 1716 1835
8 1837 1722 1623 1736 1718 1600 1496 1616
8 1719 1601 1722 1837 1597 1471 1600 1718
8 1602 1720 1598 1472 1723 1838 1719 1601
8 1720 1602 1473 1599 1839 1724 1603 1721
8 1723 1605 1726 1840 1601 1475 1604 1722
8 1840 1726 1628 1743 1722 1604 1501 1623
8 1724 1606 1727 1841 1602 1476 1605 1723
8 1725 1607 1728 1842 1603 1477 1606 1724
8 1612 1482 1608 1731 1733 1611 1730 1849
8 1741 1627 1730 1849 1622 1504 1608 1731
8 1613 1483 1609 1732 1734 1612 1731 1850
8 1618 1495 1622 1738 1732 1609 1731 1850
8 1615 1486 1612 1734 1735 1614 1733 1851
8 1852 1743 1626 1737 1736 1623 1499 1617
8 1853 1745 1625 1739 1737 1626 1500 1619
8 1855 1742 1622 1738 1740 1624 1497 1621
8 1856 1744 1624 1740 1739 1625 1498 1620
8 1741 1627 1504 1622 1857 1746 1631 1742
8 1742 1631 1505 1624 1858 1749 1630 1744
8 1859 1747 1629 1745 1743 1628 1502 1626
8 1860 1748 1630 1744 1745 1629 1503 1625
8 1644 1528 1651 1761 1751 1632 1750 1865
8 1637 1520 1644 1755 1752 1633 1751 1866
8 1754 1646 1522 1636 1867 1760 1643 1753
8 1657 1535 1658 1774 1753 1643 1760 1867
8 1639 1523 1646 1754 1756 1648 1763 1868
8 1641 1521 1645 1758 1755 1644 1761 1869
8 1757 1649 1526 1640 1870 1766 1648 1756
8 1642 1525 1649 1757 1759 1647 1765 1871
8 1759 1647 1762 1872 1642 1525 1645 1758
8 1760 1650 1767 1874 1646 1531 1655 1763
8 1658 1536 1659 1775 1760 1650 1767 1874
8 1762 1652 1768 1875 1645 1529 1651 1761
8 1764 1653 1769 1876 1647 1530 1652 1762
8 1656 1766 1877 1773 1532 1648 1763 1655
8 1771 1879 1765 1654 1653 1764 1647 1530
8 1533 1649 1765 1654 1656 1766 1880 1772
8 1662 1542 1664 1778 1774 1658 1775 1887
8 1664 1543 1665 1779 1775 1659 1776 1888
8 1778 1664 1541 1661 1890 1779 1663 1777
8 1666 1548 1668 1781 1777 1663 1779 1890
8 1782 1669 1780 1891 1668 1550 1665 1779
8 1670 1551 1671 1784 1781 1668 1782 1893
8 1671 1552 1672 1785 1782 1669 1783 1894
8 1790 1675 1785 1896 1674 1554 1671 1784
8 1675 1555 1673 1789 1785 1672 1786 1897
8 1792 1676 1788 1903 1678 1556 1673 1789
8 1795 1678 1789 1904 1681 1558 1675 1790
8 1792 1676 1556 1678 1906 1791 1677 1794
8 1680 1557 1679 1797 1794 1677 1793 1909
8 1910 1794 1678 1795 1798 1680 1558 1681
8 1683 1559 1682 1800 1797 1679 1796 1912
8 1684 1560 1683 1801 1798 1680 1797 1913
8 1686 1564 1687 1803 1800 1682 1799 1915
8 1685 1563 1686 1802 1801 1683 1800 1916
8 1688 1566 1689 1805 1802 1686 1803 1917
8 1689 1567 1690 1806 1803 1687 1804 1918
8 1691 1569 1692 1808 1805 1689 1806 1920
8 1692 1570 1693 1809 1806 1690 1807 1921
8 1694 1572 1695 1810 1808 1692 1809 1922
8 1829 1713 1811 1926 1712 1592 1697 1813
8 1813 1697 1812 1928 1699 1577 1698 1815
8 1735 1614 1712 1828 1816 1699 1813 1929
8 1815 1698 1814 1931 1701 1578 1700 1818
8 1702 1579 1699 1816 1819 1701 1815 1932
8 1818 1700 1817 1933 1704 1580 1703 1820
8 1819 1701 1818 1934 1705 1581 1704 1821
8 1821 1704 1820 1935 1707 1584 1706 1822
8 1824 1709 1632 1751 1937 1823 1750 1865
8 1716 1593 1709 1824 1834 1715 1823 1937
8 1825 1710 1633 1752 1938 1824 1751 1866
8 1717 1594 1710 1825 1835 1716 1824 1938
8 1945 1830 1712 1828 1851 1733 1614 1735
8 1830 1714 1831 1946 1712 1592 1713 1829
8 1947 1832 1714 1830 1849 1730 1611 1733
8 1843 1729 1607 1725 1950 1833 1715 1834
8 1721 1603 1716 1835 1836 1725 1834 1951
8 1836 1725 1842 1953 1721 1603 1724 1839
8 1723 1838 1719 1601 1840 1954 1837 1722
8 1954 1840 1743 1852 1837 1722 1623 1736
8 1724 1839 1720 1602 1841 1955 1838 1723
8 1841 1727 1844 1956 1723 1605 1726 1840
8 1956 1844 1747 1859 1840 1726 1628 1743
8 1728 1842 1724 1606 1845 1957 1841 1727
8 1725 1607 1729 1843 1842 1728 1846 1958
8 1741 1627 1746 1857 1849 1730 1848 1965
8 1734 1612 1731 1850 1851 1733 1849 1966
8 1854 1741 1849 1966 1738 1622 1731 1850
8 1967 1859 1745 1853 1852 1743 1626 1737
8 1968 1860 1744 1856 1853 1745 1625 1739
8 1854 1741 1622 1738 1969 1857 1742 1855
8 1855 1742 1624 1740 1970 1858 1744 1856
8 1857 1746 1631 1742 1971 1861 1749 1858
8 1858 1749 1630 1744 1972 1863 1748 1860
8 1859 1747 1862 1973 1745 1629 1748 1860
8 1875 1768 1864 1977 1761 1651 1750 1865
8 1755 1644 1761 1869 1866 1751 1865 1978
8 1867 1760 1874 1979 1754 1646 1763 1868
8 1774 1658 1775 1887 1867 1760 1874 1979
8 1870 1766 1648 1756 1980 1877 1763 1868
8 1872 1762 1875 1981 1758 1645 1761 1869
8 1757 1649 1766 1870 1871 1765 1880 1982
8 1983 1879 1764 1873 1871 1765 1647 1759
8 1873 1764 1876 1984 1759 1647 1762 1872
8 1877 1773 1655 1763 1986 1881 1767 1874
8 1775 1659 1776 1888 1874 1767 1881 1986
8 1876 1769 1882 1987 1762 1652 1768 1875
8 1878 1770 1883 1988 1764 1653 1769 1876
8 1880 1772 1656 1766 1989 1886 1773 1877
8 1878 1770 1653 1764 1990 1884 1771 1879
8 1765 1654 1772 1880 1879 1771 1885 1991
8 1778 1664 1779 1890 1887 1775 1888 1997
8 1998 1889 1776 1888 1891 1780 1665 1779
8 1893 1782 1891 2000 1781 1668 1779 1890
8 1894 1783 1892 2001 1782 1669 1780 1891
8 1784 1671 1785 1896 1893 1782 1894 2003
8 1897 1786 1895 2004 1785 1672 1783 1894
8 1790 1675 1789 1904 1896 1785 1897 2006
8 1901 1787 1898 2007 1789 1673 1786 1897
8 1903 1788 1900 2013 1789 1673 1787 1901
8 1792 1676 1791 1906 1903 1788 1902 2016
8 1907 1792 1903 2017 1795 1678 1789 1904
8 1906 1791 1677 1794 2019 1905 1793 1909
8 1907 1792 1678 1795 2020 1906 1794 1910
8 1797 1679 1796 1912 1909 1793 1908 2022
8 1798 1680 1797 1913 1910 1794 1909 2023
8 1800 1682 1799 1915 1912 1796 1911 2025
8 1801 1683 1800 1916 1913 1797 1912 2026
8 1803 1687 1804 1918 1915 1799 1914 2028
8 1802 1686 1803 1917 1916 1800 1915 2029
8 1805 1689 1806 1920 1917 1803 1918 2030
8 1806 1690 1807 1921 1918 1804 1919 2031
8 1808 1692 1809 1922 1920 1806 1921 2032
8 1939 1826 1924 2037 1829 1713 1811 1926
8 1926 1811 1925 2039 1813 1697 1812 1928
8 1944 1829 1926 2040 1828 1712 1813 1929
8 1928 1812 1927 2042 1815 1698 1814 1931
8 1929 1813 1928 2043 1816 1699 1815 1932
8 1931 1814 1930 2044 1818 1700 1817 1933
8 1932 1815 1931 2045 1819 1701 1818 1934
8 1934 1818 1933 2046 1821 1704 1820 1935
8 2048 1936 1823 1937 1977 1864 1750 1865
8 1950 1833 1715 1834 2048 1936 1823 1937
8 1938 1824 1751 1866 2049 1937 1865 1978
8 1835 1716 1824 1938 1951 1834 1937 2049
8 1939 1826 1713 1829 2053 1942 1831 1946
8 1940 1827 1923 2035 2053 1942 1826 1939
8 1945 1830 1946 2058 1828 1712 1829 1944
8 2059 1947 1830 1945 1966 1849 1733 1851
8 1947 1832 1730 1849 2060 1948 1848 1965
8 1947 1832 1948 2060 1830 1714 1831 1946
8 1959 1847 1729 1843 2063 1949 1833 1950
8 1952 1843 1725 1836 2064 1950 1834 1951
8 1836 1725 1843 1952 1953 1842 1958 2066
8 1953 1842 1957 2067 1839 1724 1841 1955
8 1841 1955 1838 1723 1956 2068 1954 1840
8 2068 1956 1859 1967 1954 1840 1743 1852
8 1956 1844 1960 2069 1859 1747 1862 1973
8 1845 1957 1841 1727 1960 2069 1956 1844
8 1728 1842 1957 1845 1846 1958 2071 1961
8 1962 2072 1959 1847 1846 1958 1843 1729
8 1971 1861 1964 2077 1857 1746 1848 1965
8 1854 1741 1857 1969 1966 1849 1965 2078
8 1967 1859 1973 2079 1853 1745 1860 1968
8 1970 1858 1744 1856 2080 1972 1860 1968
8 1969 1857 1742 1855 2081 1971 1858 1970
8 1971 1861 1749 1858 2082 1974 1863 1972
8 1973 1862 1975 2083 1860 1748 1863 1972
8 1987 1882 1976 2086 1875 1768 1864 1977
8 1981 1875 1977 2087 1869 1761 1865 1978
8 1980 1877 1763 1868 2088 1986 1874 1979
8 1887 1775 1888 1997 1979 1874 1986 2088
8 1880 1982 2089 1989 1766 1870 1980 1877
8 1984 1876 1987 2090 1872 1762 1875 1981
8 1765 1871 1983 1879 1880 1982 2091 1991
8 1985 1878 1764 1873 2092 1990 1879 1983
8 1985 1878 1988 2093 1873 1764 1876 1984
8 2094 1992 1881 1986 1998 1889 1776 1888
8 1986 1881 1992 2094 1877 1773 1886 1989
8 1988 1883 1993 2095 1876 1769 1882 1987
8 1878 1770 1884 1990 1988 1883 1994 2096
8 1991 1885 1772 1880 2097 1996 1886 1989
8 1879 1771 1885 1991 1990 1884 1995 2098
8 2103 1998 1888 1997 2000 1891 1779 1890
8 2104 1999 1889 1998 2001 1892 1780 1891
8 2003 1894 2001 2106 1893 1782 1891 2000
8 2004 1895 2002 2107 1894 1783 1892 2001
8 2006 1897 2004 2109 1896 1785 1894 2003
8 2007 1898 2005 2110 1897 1786 1895 2004
8 2014 1901 2007 2112 1904 1789 1897 2006
8 2011 1899 2008 2113 1901 1787 1898 2007
8 2119 2010 1899 2011 2013 1900 1787 1901
8 2016 1902 2012 2122 1903 1788 1900 2013
8 2017 1903 2013 2123 1904 1789 1901 2014
8 1906 1791 1905 2019 2016 1902 2015 2125
8 1907 1792 1906 2020 2017 1903 2016 2126
8 1909 1793 1908 2022 2019 1905 2018 2128
8 2020 1906 1794 1910 2129 2019 1909 2023
8 1912 1796 1911 2025 2022 1908 2021 2131
8 1913 1797 1912 2026 2023 1909 2022 2132
8 1915 1799 1914 2028 2025 1911 2024 2134
8 1916 1800 1915 2029 2026 1912 2025 2135
8 1918 1804 1919 2031 2028 1914 2027 2136
8 1917 1803 1918 2030 2029 1915 2028 2137
8 1920 1806 1921 2032 2030 1918 2031 2138
8 1940 1827 1941 2054 2035 1923 2033 2140
8 2035 1923 2034 2143 1939 1826 1924 2037
8 2037 1924 2036 2146 1926 1811 1925 2039
8 2051 1939 2037 2147 1944 1829 1926 2040
8 2039 1925 2038 2149 1928 1812 1927 2042
8 2040 1926 2039 2150 1929 1813 1928 2043
8 2042 1927 2041 2151 1931 1814 1930 2044
8 2043 1928 2042 2152 1932 1815 1931 2045
8 2045 1931 2044 2153 1934 1818 1933 2046
8 2155 2047 1936 2048 2086 1976 1864 1977
8 2063 1949 1833 1950 2155 2047 1936 2048
8 2156 2048 1937 2049 2087 1977 1865 1978
8 2064 1950 1834 1951 2156 2048 1937 2049
8 2051 1939 1829 1944 2160 2053 1946 2058
8 2052 1940 2035 2144 2160 2053 1939 2051
8 2053 1942 1831 1946 2163 2057 1948 2060
8 2055 1943 1827 1940 2163 2057 1942 2053
8 2055 1943 2056 2164 1940 1827 1941 2054
8 2059 1947 1849 1966 2167 2060 1965 2078
8 2059 1947 2060 2167 1945 1830 1946 2058
8 2077 1964 2061 2168 1965 1848 1948 2060
8 2070 1963 1847 1959 2170 2062 1949 2063
8 2065 1959 1843 1952 2171 2063 1950 2064
8 2173 2072 1958 2066 2065 1959 1843 1952
8 1953 1842 1958 2066 2067 1957 2071 2174
8 2068 1956 2069 2175 1967 1859 1973 2079
8 2067 1957 2069 2175 1955 1841 1956 2068
8 1845 1957 2069 1960 1961 2071 2176 2073
8 2069 1960 2073 2176 1973 1862 1975 2083
8 2070 1963 2075 2177 1959 1847 1962 2072
8 1846 1958 2071 1961 1962 2072 2178 2074
8 2077 1964 1861 1971 2182 2076 1974 2082
8 2081 1971 2077 2183 1969 1857 1965 2078
8 2079 1973 2083 2184 1968 1860 1972 2080
8 2081 1971 1858 1970 2185 2082 1972 2080
8 2083 1975 2084 2186 1972 1863 1974 2082
8 2086 1976 1882 1987 2189 2085 1993 2095
8 2090 1987 2086 2190 1981 1875 1977 2087
8 2191 2094 1986 2088 2103 1998 1888 1997
8 2088 1986 2094 2191 1980 1877 1989 2089
8 1991 2091 2192 2097 1880 1982 2089 1989
8 2093 1988 2095 2193 1984 1876 1987 2090
8 1879 1983 2092 1990 1991 2091 2194 2098
8 1985 1878 1990 2092 2093 1988 2096 2195
8 2097 1996 1886 1989 2196 2099 1992 2094
8 2196 2099 1992 2094 2104 1999 1889 1998
8 1994 2096 1988 1883 2100 2197 2095 1993
8 2096 1994 1884 1990 2198 2101 1995 2098
8 1995 2098 2199 2102 1885 1991 2097 1996
8 2203 2104 1998 2103 2106 2001 1891 2000
8 2107 2002 2105 2204 2001 1892 1999 2104
8 2109 2004 2107 2206 2003 1894 2001 2106
8 2110 2005 2108 2207 2004 1895 2002 2107
8 2112 2007 2110 2209 2006 1897 2004 2109
8 2113 2008 2111 2210 2007 1898 2005 2110
8 2120 2011 2113 2212 2014 1901 2007 2112
8 2117 2009 2114 2213 2011 1899 2008 2113
8 2219 2116 2009 2117 2119 2010 1899 2011
8 2222 2118 2010 2119 2122 2012 1900 2013
8 2223 2119 2011 2120 2123 2013 1901 2014
8 2016 1902 2015 2125 2122 2012 2121 2225
8 2126 2016 2122 2226 2017 1903 2013 2123
8 2019 1905 2018 2128 2125 2015 2124 2228
8 2020 1906 2019 2129 2126 2016 2125 2229
8 2022 1908 2021 2131 2128 2018 2127 2231
8 2023 1909 2022 2132 2129 2019 2128 2232
8 2025 1911 2024 2134 2131 2021 2130 2234
8 2026 1912 2025 2135 2132 2022 2131 2235
8 1914 2028 2134 2024 2027 2136 2236 2133
8 2029 1915 2028 2137 2135 2025 2134 2237
8 2030 1918 2031 2138 2137 2028 2136 2238
8 2157 2050 2139 2240 2054 1941 2033 2140
8 2052 1940 2054 2161 2144 2035 2140 2242
8 2140 2033 2141 2243 2035 1923 2034 2143
8 2143 2034 2142 2246 2037 1924 2036 2146
8 2144 2035 2143 2247 2051 1939 2037 2147
8 2146 2036 2145 2249 2039 1925 2038 2149
8 2147 2037 2146 2250 2040 1926 2039 2150
8 2149 2038 2148 2251 2042 1927 2041 2151
8 2150 2039 2149 2252 2043 1928 2042 2152
8 2152 2042 2151 2253 2045 1931 2044 2153
8 2255 2154 2047 2155 2189 2085 1976 2086
8 2170 2062 1949 2063 2255 2154 2047 2155
8 2256 2155 2048 2156 2190 2086 1977 2087
8 2171 2063 1950 2064 2256 2155 2048 2156
8 2258 2159 2050 2157 2164 2056 1941 2054
8 2160 2053 1946 2058 2262 2163 2060 2167
8 2162 2055 1940 2052 2262 2163 2053 2160
8 2162 2055 2164 2263 2052 1940 2054 2161
8 2163 2057 1948 2060 2264 2165 2061 2168
8 2055 1943 2057 2163 2164 2056 2165 2264
8 2182 2076 2166 2268 2077 1964 2061 2168
8 2183 2077 2168 2269 2078 1965 2060 2167
8 2070 1963 2062 2170 2177 2075 2169 2271
8 2172 2070 1959 2065 2272 2170 2063 2171
8 2172 2070 2177 2273 2065 1959 2072 2173
8 2066 1958 2072 2173 2174 2071 2178 2274
8 2067 1957 2071 2174 2175 2069 2176 2275
8 2175 2069 2176 2275 2079 1973 2083 2184
8 2071 1961 2074 2178 2176 2073 2179 2276
8 2176 2073 2179 2276 2083 1975 2084 2186
8 2072 1962 2075 2177 2178 2074 2180 2277
8 2182 2076 1974 2082 2280 2181 2084 2186
8 2183 2077 1971 2081 2281 2182 2082 2185
8 2184 2083 2186 2282 2080 1972 2082 2185
8 2189 2085 1993 2095 2285 2188 2100 2197
8 2190 2086 1987 2090 2286 2189 2095 2193
8 2192 2097 1989 2089 2287 2196 2094 2191
8 2287 2196 2094 2191 2203 2104 1998 2103
8 2194 2098 1991 2091 2288 2199 2097 2192
8 2195 2096 2197 2289 2093 1988 2095 2193
8 2096 2195 2290 2198 1990 2092 2194 2098
8 2097 1996 2099 2196 2199 2102 2200 2291
8 2196 2099 1999 2104 2291 2200 2105 2204
8 2100 2197 2292 2201 1994 2096 2198 2101
8 1995 2098 2198 2101 2102 2199 2293 2202
8 2206 2107 2204 2296 2106 2001 2104 2203
8 2207 2108 2205 2297 2107 2002 2105 2204
8 2209 2110 2207 2299 2109 2004 2107 2206
8 2210 2111 2208 2300 2110 2005 2108 2207
8 2212 2113 2210 2302 2112 2007 2110 2209
8 2213 2114 2211 2303 2113 2008 2111 2210
8 2220 2117 2213 2305 2120 2011 2113 2212
8 2216 2115 2214 2306 2117 2009 2114 2213
8 2216 2115 2009 2117 2311 2217 2116 2219
8 2219 2116 2010 2119 2314 2218 2118 2222
8 2315 2219 2117 2220 2223 2119 2011 2120
8 2122 2012 2121 2225 2222 2118 2221 2317
8 2318 2222 2119 2223 2226 2122 2013 2123
8 2125 2015 2124 2228 2225 2121 2224 2320
8 2126 2016 2125 2229 2226 2122 2225 2321
8 2128 2018 2127 2231 2228 2124 2227 2323
8 2129 2019 2128 2232 2229 2125 2228 2324
8 2131 2021 2130 2234 2231 2127 2230 2326
8 2132 2022 2131 2235 2232 2128 2231 2327
8 2134 2024 2133 2236 2234 2130 2233 2328
8 2135 2025 2134 2237 2235 2131 2234 2329
8 2137 2028 2136 2238 2237 2134 2236 2330
8 2157 2050 2158 2259 2240 2139 2239 2332
8 2257 2157 2240 2334 2161 2054 2140 2242
8 2240 2139 2241 2335 2140 2033 2141 2243
8 2242 2140 2243 2337 2144 2035 2143 2247
8 2243 2141 2244 2338 2143 2034 2142 2246
8 2246 2142 2245 2341 2146 2036 2145 2249
8 2247 2143 2246 2342 2147 2037 2146 2250
8 2249 2145 2248 2343 2149 2038 2148 2251
8 2250 2146 2249 2344 2150 2039 2149 2252
8 2252 2149 2251 2345 2152 2042 2151 2253
8 2169 2271 2347 2254 2062 2170 2255 2154
8 2189 2085 2188 2285 2255 2154 2254 2347
8 2348 2255 2155 2256 2286 2189 2086 2190
8 2272 2170 2063 2171 2348 2255 2155 2256
8 2349 2258 2157 2257 2263 2164 2054 2161
8 2258 2159 2261 2351 2157 2050 2158 2259
8 2258 2159 2056 2164 2351 2261 2165 2264
8 2262 2163 2060 2167 2355 2264 2168 2269
8 2162 2055 2163 2262 2263 2164 2264 2355
8 2357 2266 2165 2264 2268 2166 2061 2168
8 2268 2166 2076 2182 2361 2267 2181 2280
8 2281 2182 2268 2362 2183 2077 2168 2269
8 2271 2169 2270 2364 2177 2075 2180 2277
8 2172 2070 2170 2272 2273 2177 2271 2365
8 2072 2173 2274 2178 2177 2273 2366 2277
8 2071 2174 2275 2176 2178 2274 2367 2276
8 2275 2176 2276 2367 2184 2083 2186 2282
8 2283 2187 2084 2186 2368 2278 2179 2276
8 2178 2074 2180 2277 2276 2179 2278 2368
8 2283 2187 2279 2370 2186 2084 2181 2280
8 2281 2182 2082 2185 2371 2280 2186 2282
8 2188 2285 2374 2284 2100 2197 2292 2201
8 2286 2189 2095 2193 2375 2285 2197 2289
8 2192 2097 2196 2287 2288 2199 2291 2376
8 2287 2196 2104 2203 2376 2291 2204 2296
8 2194 2098 2199 2288 2290 2198 2293 2377
8 2289 2197 2096 2195 2378 2292 2198 2290
8 2291 2200 2105 2204 2379 2294 2205 2297
8 2199 2102 2200 2291 2293 2202 2294 2379
8 2198 2101 2202 2293 2292 2201 2295 2380
8 2299 2207 2297 2383 2206 2107 2204 2296
8 2300 2208 2298 2384 2207 2108 2205 2297
8 2302 2210 2300 2386 2209 2110 2207 2299
8 2303 2211 2301 2387 2210 2111 2208 2300
8 2305 2213 2303 2389 2212 2113 2210 2302
8 2306 2214 2304 2390 2213 2114 2211 2303
8 2310 2216 2306 2392 2220 2117 2213 2305
8 2308 2215 2307 2393 2216 2115 2214 2306
8 2308 2215 2115 2216 2396 2309 2217 2311
8 2310 2216 2117 2220 2398 2311 2219 2315
8 2311 2217 2116 2219 2399 2312 2218 2314
8 2314 2218 2118 2222 2402 2313 2221 2317
8 2315 2219 2119 2223 2403 2314 2222 2318
8 2225 2121 2224 2320 2317 2221 2316 2405
8 2226 2122 2225 2321 2318 2222 2317 2406
8 2228 2124 2227 2323 2320 2224 2319 2408
8 2229 2125 2228 2324 2321 2225 2320 2409
8 2231 2127 2230 2326 2323 2227 2322 2411
8 2232 2128 2231 2327 2324 2228 2323 2412
8 2234 2130 2233 2328 2326 2230 2325 2413
8 2235 2131 2234 2329 2327 2231 2326 2414
8 2237 2134 2236 2330 2329 2234 2328 2415
8 2259 2158 2260 2352 2332 2239 2331 2417
8 2257 2157 2259 2350 2334 2240 2332 2419
8 2240 2139 2239 2332 2335 2241 2333 2420
8 2334 2240 2335 2422 2242 2140 2243 2337
8 2335 2241 2336 2423 2243 2141 2244 2338
8 2337 2243 2338 2425 2247 2143 2246 2342
8 2338 2244 2339 2426 2246 2142 2245 2341
8 2341 2245 2340 2428 2249 2145 2248 2343
8 2342 2246 2341 2429 2250 2146 2249 2344
8 2344 2249 2343 2430 2252 2149 2251 2345
8 2188 2285 2347 2254 2284 2374 2432 2346
8 2347 2254 2346 2432 2271 2169 2270 2364
8 2365 2271 2170 2272 2433 2347 2255 2348
8 2286 2189 2285 2375 2348 2255 2347 2433
8 2349 2258 2351 2435 2257 2157 2259 2350
8 2349 2258 2164 2263 2435 2351 2264 2355
8 2259 2158 2261 2351 2352 2260 2354 2437
8 2356 2265 2354 2437 2264 2165 2261 2351
8 2441 2357 2264 2355 2362 2268 2168 2269
8 2356 2265 2165 2264 2442 2358 2266 2357
8 2443 2359 2266 2357 2361 2267 2166 2268
8 2370 2279 2360 2446 2280 2181 2267 2361
8 2362 2268 2182 2281 2447 2361 2280 2371
8 2180 2277 2368 2278 2270 2364 2449 2363
8 2271 2365 2273 2177 2364 2450 2366 2277
8 2372 2283 2186 2282 2451 2368 2276 2367
8 2178 2274 2367 2276 2277 2366 2451 2368
8 2283 2187 2278 2368 2370 2279 2369 2452
8 2372 2283 2370 2453 2282 2186 2280 2371
8 2284 2374 2455 2373 2201 2292 2380 2295
8 2375 2285 2197 2289 2456 2374 2292 2378
8 2376 2291 2204 2296 2457 2379 2297 2383
8 2288 2199 2291 2376 2377 2293 2379 2457
8 2198 2290 2378 2292 2293 2377 2458 2380
8 2293 2202 2294 2379 2380 2295 2381 2459
8 2384 2298 2381 2459 2297 2205 2294 2379
8 2386 2300 2384 2463 2299 2207 2297 2383
8 2387 2301 2385 2464 2300 2208 2298 2384
8 2389 2303 2387 2466 2302 2210 2300 2386
8 2390 2304 2388 2467 2303 2211 2301 2387
8 2392 2306 2390 2469 2305 2213 2303 2389
8 2393 2307 2391 2470 2306 2214 2304 2390
8 2395 2308 2393 2472 2310 2216 2306 2392
8 2308 2215 2309 2396 2393 2307 2394 2473
8 2395 2308 2216 2310 2475 2396 2311 2398
8 2396 2309 2217 2311 2476 2397 2312 2399
8 2398 2311 2219 2315 2478 2399 2314 2403
8 2399 2312 2218 2314 2479 2400 2313 2402
8 2317 2221 2316 2405 2402 2313 2401 2482
8 2403 2314 2222 2318 2483 2402 2317 2406
8 2320 2224 2319 2408 2405 2316 2404 2485
8 2321 2225 2320 2409 2406 2317 2405 2486
8 2323 2227 2322 2411 2408 2319 2407 2488
8 2324 2228 2323 2412 2409 2320 2408 2489
8 2326 2230 2325 2413 2411 2322 2410 2490
8 2327 2231 2326 2414 2412 2323 2411 2491
8 2329 2234 2328 2415 2414 2326 2413 2492
8 2417 2331 2260 2352 2494 2416 2353 2438
8 2350 2259 2352 2436 2419 2332 2417 2496
8 2332 2239 2331 2417 2420 2333 2418 2497
8 2334 2240 2332 2419 2422 2335 2420 2499
8 2420 2333 2421 2500 2335 2241 2336 2423
8 2422 2335 2423 2502 2337 2243 2338 2425
8 2423 2336 2424 2503 2338 2244 2339 2426
8 2425 2338 2426 2505 2342 2246 2341 2429
8 2426 2339 2427 2506 2341 2245 2340 2428
8 2429 2341 2428 2507 2344 2249 2343 2430
8 2432 2346 2284 2374 2509 2431 2373 2455
8 2432 2346 2431 2509 2364 2270 2363 2449
8 2375 2285 2374 2456 2433 2347 2432 2510
8 2347 2433 2365 2271 2432 2510 2450 2364
8 2350 2259 2351 2435 2436 2352 2437 2514
8 2440 2356 2437 2514 2355 2264 2351 2435
8 2352 2260 2354 2437 2438 2353 2439 2516
8 2356 2265 2358 2442 2437 2354 2439 2516
8 2440 2356 2264 2355 2518 2442 2357 2441
8 2519 2443 2357 2441 2447 2361 2268 2362
8 2443 2359 2444 2520 2357 2266 2358 2442
8 2443 2359 2267 2361 2520 2444 2360 2446
8 2446 2360 2279 2370 2523 2445 2369 2452
8 2453 2370 2446 2524 2371 2280 2361 2447
8 2449 2363 2448 2525 2368 2278 2369 2452
8 2366 2277 2364 2450 2451 2368 2449 2526
8 2372 2283 2368 2451 2453 2370 2452 2527
8 2455 2373 2295 2380 2529 2454 2382 2460
8 2456 2374 2292 2378 2530 2455 2380 2458
8 2377 2293 2379 2457 2458 2380 2459 2531
8 2463 2384 2459 2531 2383 2297 2379 2457
8 2533 2461 2382 2460 2459 2381 2295 2380
8 2464 2385 2461 2533 2384 2298 2381 2459
8 2466 2387 2464 2537 2386 2300 2384 2463
8 2467 2388 2465 2538 2387 2301 2385 2464
8 2469 2390 2467 2540 2389 2303 2387 2466
8 2470 2391 2468 2541 2390 2304 2388 2467
8 2472 2393 2470 2543 2392 2306 2390 2469
8 2393 2307 2394 2473 2470 2391 2471 2544
8 2395 2308 2396 2475 2472 2393 2473 2546
8 2396 2309 2397 2476 2473 2394 2474 2547
8 2475 2396 2311 2398 2549 2476 2399 2478
8 2476 2397 2312 2399 2550 2477 2400 2479
8 2478 2399 2314 2403 2552 2479 2402 2483
8 2479 2400 2313 2402 2553 2480 2401 2482
8 2405 2316 2404 2485 2482 2401 2481 2556
8 2406 2317 2405 2486 2483 2402 2482 2557
8 2408 2319 2407 2488 2485 2404 2484 2559
8 2409 2320 2408 2489 2486 2405 2485 2560
8 2411 2322 2410 2490 2488 2407 2487 2561
8 2412 2323 2411 2491 2489 2408 2488 2562
8 2414 2326 2413 2492 2491 2411 2490 2563
8 2513 2434 2493 2565 2438 2353 2416 2494
8 2496 2417 2352 2436 2567 2494 2438 2515
8 2494 2416 2495 2568 2417 2331 2418 2497
8 2419 2332 2417 2496 2499 2420 2497 2570
8 2497 2418 2498 2571 2420 2333 2421 2500
8 2499 2420 2500 2573 2422 2335 2423 2502
8 2500 2421 2501 2574 2423 2336 2424 2503
8 2502 2423 2503 2576 2425 2338 2426 2505
8 2503 2424 2504 2577 2426 2339 2427 2506
8 2505 2426 2506 2578 2429 2341 2428 2507
8 2509 2431 2373 2455 2580 2508 2454 2529
8 2509 2431 2508 2580 2449 2363 2448 2525
8 2432 2510 2581 2509 2374 2456 2530 2455
8 2432 2510 2450 2364 2509 2581 2526 2449
8 2583 2511 2434 2513 2516 2439 2353 2438
8 2436 2352 2437 2514 2515 2438 2516 2588
8 2440 2356 2442 2518 2514 2437 2516 2588
8 2442 2358 2444 2520 2516 2439 2517 2589
8 2519 2443 2520 2591 2441 2357 2442 2518
8 2519 2443 2361 2447 2591 2520 2446 2524
8 2446 2360 2445 2523 2520 2444 2521 2592
8 2525 2448 2522 2593 2452 2369 2445 2523
8 2524 2446 2370 2453 2594 2523 2452 2527
8 2526 2449 2525 2595 2451 2368 2452 2527
8 2534 2462 2528 2597 2460 2382 2454 2529
8 2530 2455 2380 2458 2598 2529 2460 2532
8 2599 2533 2460 2532 2531 2459 2380 2458
8 2537 2464 2533 2599 2463 2384 2459 2531
8 2534 2462 2382 2460 2601 2535 2461 2533
8 2538 2465 2535 2601 2464 2385 2461 2533
8 2540 2467 2538 2604 2466 2387 2464 2537
8 2541 2468 2539 2605 2467 2388 2465 2538
8 2543 2470 2541 2607 2469 2390 2467 2540
8 2470 2391 2471 2544 2541 2468 2542 2608
8 2472 2393 2473 2546 2543 2470 2544 2610
8 2473 2394 2474 2547 2544 2471 2545 2611
8 2475 2396 2476 2549 2546 2473 2547 2613
8 2476 2397 2477 2550 2547 2474 2548 2614
8 2549 2476 2399 2478 2616 2550 2479 2552
8 2479 2400 2480 2553 2550 2477 2551 2617
8 2552 2479 2402 2483 2619 2553 2482 2557
8 2482 2401 2481 2556 2553 2480 2554 2620
8 2485 2404 2484 2559 2556 2481 2555 2623
8 2486 2405 2485 2560 2557 2482 2556 2624
8 2488 2407 2487 2561 2559 2484 2558 2625
8 2489 2408 2488 2562 2560 2485 2559 2626
8 2491 2411 2490 2563 2562 2488 2561 2627
8 2513 2434 2512 2585 2565 2493 2564 2630
8 2586 2513 2565 2632 2515 2438 2494 2567
8 2565 2493 2566 2633 2494 2416 2495 2568
8 2567 2494 2568 2635 2496 2417 2497 2570
8 2568 2495 2569 2636 2497 2418 2498 2571
8 2570 2497 2571 2638 2499 2420 2500 2573
8 2571 2498 2572 2639 2500 2421 2501 2574
8 2573 2500 2574 2641 2502 2423 2503 2576
8 2574 2501 2575 2642 2503 2424 2504 2577
8 2576 2503 2577 2643 2505 2426 2506 2578
8 2597 2528 2579 2645 2529 2454 2508 2580
8 2580 2508 2579 2645 2525 2448 2522 2593
8 2581 2509 2455 2530 2646 2580 2529 2598
8 2581 2509 2580 2646 2526 2449 2525 2595
8 2583 2511 2582 2648 2513 2434 2512 2585
8 2583 2511 2439 2516 2648 2582 2517 2589
8 2649 2583 2513 2586 2588 2516 2438 2515
8 2589 2517 2444 2520 2653 2587 2521 2592
8 2518 2442 2520 2591 2588 2516 2589 2654
8 2593 2522 2590 2655 2523 2445 2521 2592
8 2524 2446 2523 2594 2591 2520 2592 2656
8 2595 2525 2593 2657 2527 2452 2523 2594
8 2602 2536 2596 2659 2534 2462 2528 2597
8 2600 2534 2597 2660 2532 2460 2529 2598
8 2600 2534 2460 2532 2661 2601 2533 2599
8 2604 2538 2601 2661 2537 2464 2533 2599
8 2602 2536 2462 2534 2663 2603 2535 2601
8 2601 2535 2465 2538 2663 2603 2539 2605
8 2607 2541 2605 2665 2540 2467 2538 2604
8 2608 2542 2606 2666 2541 2468 2539 2605
8 2543 2470 2544 2610 2607 2541 2608 2668
8 2544 2471 2545 2611 2608 2542 2609 2669
8 2546 2473 2547 2613 2610 2544 2611 2671
8 2547 2474 2548 2614 2611 2545 2612 2672
8 2549 2476 2550 2616 2613 2547 2614 2674
8 2550 2477 2551 2617 2614 2548 2615 2675
8 2552 2479 2553 2619 2616 2550 2617 2677
8 2553 2480 2554 2620 2617 2551 2618 2678
8 2557 2482 2556 2624 2619 2553 2620 2680
8 2556 2481 2555 2623 2620 2554 2621 2681
8 2559 2484 2558 2625 2623 2555 2622 2683
8 2560 2485 2559 2626 2624 2556 2623 2684
8 2562 2488 2561 2627 2626 2559 2625 2685
8 2690 2629 2564 2630 2650 2584 2512 2585
8 2586 2513 2585 2651 2632 2565 2630 2691
8 2630 2564 2631 2692 2565 2493 2566 2633
8 2632 2565 2633 2694 2567 2494 2568 2635
8 2633 2566 2634 2695 2568 2495 2569 2636
8 2635 2568 2636 2697 2570 2497 2571 2638
8 2636 2569 2637 2698 2571 2498 2572 2639
8 2638 2571 2639 2700 2573 2500 2574 2641
8 2639 2572 2640 2701 2574 2501 2575 2642
8 2641 2574 2642 2702 2576 2503 2577 2643
8 2597 2528 2596 2659 2645 2579 2644 2704
8 2645 2579 2644 2704 2593 2522 2590 2655
8 2660 2597 2645 2705 2598 2529 2580 2646
8 2646 2580 2645 2705 2595 2525 2593 2657
8 2650 2584 2512 2585 2707 2647 2582 2648
8 2648 2582 2517 2589 2707 2647 2587 2653
8 2649 2583 2648 2708 2586 2513 2585 2651
8 2649 2583 2516 2588 2708 2648 2589 2654
8 2655 2590 2652 2710 2592 2521 2587 2653
8 2654 2589 2520 2591 2711 2653 2592 2656
8 2657 2593 2655 2712 2594 2523 2592 2656
8 2602 2536 2603 2663 2659 2596 2658 2714
8 2662 2602 2659 2715 2600 2534 2597 2660
8 2662 2602 2534 2600 2717 2663 2601 2661
8 2661 2601 2538 2604 2717 2663 2605 2665
8 2666 2606 2664 2718 2605 2539 2603 2663
8 2668 2608 2666 2720 2607 2541 2605 2665
8 2608 2542 2609 2669 2666 2606 2667 2721
8 2610 2544 2611 2671 2668 2608 2669 2723
8 2611 2545 2612 2672 2669 2609 2670 2724
8 2613 2547 2614 2674 2671 2611 2672 2726
8 2614 2548 2615 2675 2672 2612 2673 2727
8 2616 2550 2617 2677 2674 2614 2675 2729
8 2617 2551 2618 2678 2675 2615 2676 2730
8 2619 2553 2620 2680 2677 2617 2678 2732
8 2620 2554 2621 2681 2678 2618 2679 2733
8 2624 2556 2623 2684 2680 2620 2681 2735
8 2681 2621 2555 2623 2736 2682 2622 2683
8 2626 2559 2625 2685 2684 2623 2683 2737
8 2688 2628 2584 2650 2740 2686 2647 2707
8 2688 2628 2687 2742 2650 2584 2629 2690
8 2690 2629 2689 2745 2630 2564 2631 2692
8 2746 2690 2630 2691 2709 2650 2585 2651
8 2691 2630 2692 2747 2632 2565 2633 2694
8 2692 2631 2693 2748 2633 2566 2634 2695
8 2694 2633 2695 2750 2635 2568 2636 2697
8 2695 2634 2696 2751 2636 2569 2637 2698
8 2697 2636 2698 2753 2638 2571 2639 2700
8 2698 2637 2699 2754 2639 2572 2640 2701
8 2700 2639 2701 2755 2641 2574 2642 2702
8 2659 2596 2658 2714 2704 2644 2703 2757
8 2704 2644 2703 2757 2655 2590 2652 2710
8 2660 2597 2659 2715 2705 2645 2704 2758
8 2705 2645 2704 2758 2657 2593 2655 2712
8 2759 2706 2647 2707 2710 2652 2587 2653
8 2709 2650 2585 2651 2760 2707 2648 2708
8 2708 2648 2589 2654 2760 2707 2653 2711
8 2712 2655 2710 2761 2656 2592 2653 2711
8 2763 2713 2658 2714 2718 2664 2603 2663
8 2662 2602 2663 2717 2715 2659 2714 2764
8 2720 2666 2718 2767 2665 2605 2663 2717
8 2768 2719 2664 2718 2721 2667 2606 2666
8 2668 2608 2669 2723 2720 2666 2721 2770
8 2669 2609 2670 2724 2721 2667 2722 2771
8 2671 2611 2672 2726 2723 2669 2724 2773
8 2672 2612 2673 2727 2724 2670 2725 2774
8 2674 2614 2675 2729 2726 2672 2727 2776
8 2675 2615 2676 2730 2727 2673 2728 2777
8 2677 2617 2678 2732 2729 2675 2730 2779
8 2678 2618 2679 2733 2730 2676 2731 2780
8 2680 2620 2681 2735 2732 2678 2733 2782
8 2733 2679 2621 2681 2783 2734 2682 2736
8 2735 2681 2623 2684 2784 2736 2683 2737
8 2740 2686 2647 2707 2787 2738 2706 2759
8 2688 2628 2686 2740 2742 2687 2739 2789
8 2743 2688 2650 2709 2790 2740 2707 2760
8 2742 2687 2741 2792 2690 2629 2689 2745
8 2743 2688 2742 2793 2709 2650 2690 2746
8 2745 2689 2744 2795 2692 2631 2693 2748
8 2746 2690 2745 2796 2691 2630 2692 2747
8 2747 2692 2748 2797 2694 2633 2695 2750
8 2748 2693 2749 2798 2695 2634 2696 2751
8 2750 2695 2751 2800 2697 2636 2698 2753
8 2751 2696 2752 2801 2698 2637 2699 2754
8 2753 2698 2754 2802 2700 2639 2701 2755
8 2763 2713 2756 2804 2714 2658 2703 2757
8 2759 2706 2652 2710 2804 2756 2703 2757
8 2715 2659 2714 2764 2758 2704 2757 2805
8 2758 2704 2757 2805 2712 2655 2710 2761
8 2806 2759 2707 2760 2761 2710 2653 2711
8 2765 2716 2762 2808 2718 2664 2713 2763
8 2809 2763 2714 2764 2767 2718 2663 2717
8 2765 2716 2664 2718 2811 2766 2719 2768
8 2813 2768 2718 2767 2770 2721 2666 2720
8 2814 2769 2719 2768 2771 2722 2667 2721
8 2723 2669 2724 2773 2770 2721 2771 2816
8 2724 2670 2725 2774 2771 2722 2772 2817
8 2726 2672 2727 2776 2773 2724 2774 2819
8 2727 2673 2728 2777 2774 2725 2775 2820
8 2729 2675 2730 2779 2776 2727 2777 2822
8 2730 2676 2731 2780 2777 2728 2778 2823
8 2732 2678 2733 2782 2779 2730 2780 2825
8 2780 2731 2679 2733 2826 2781 2734 2783
8 2782 2733 2681 2735 2827 2783 2736 2784
8 2830 2785 2738 2787 2804 2756 2706 2759
8 2789 2739 2686 2740 2832 2786 2738 2787
8 2790 2740 2707 2760 2833 2787 2759 2806
8 2742 2687 2739 2789 2792 2741 2788 2835
8 2743 2688 2740 2790 2793 2742 2789 2836
8 2792 2741 2791 2838 2745 2689 2744 2795
8 2793 2742 2792 2839 2746 2690 2745 2796
8 2795 2744 2794 2841 2748 2693 2749 2798
8 2796 2745 2795 2842 2747 2692 2748 2797
8 2797 2748 2798 2843 2750 2695 2751 2800
8 2798 2749 2799 2844 2751 2696 2752 2801
8 2800 2751 2801 2845 2753 2698 2754 2802
8 2808 2762 2803 2847 2763 2713 2756 2804
8 2809 2763 2804 2848 2764 2714 2757 2805
8 2806 2759 2710 2761 2848 2804 2757 2805
8 2765 2716 2766 2811 2808 2762 2807 2850
8 2810 2765 2808 2851 2767 2718 2763 2809
8 2810 2765 2718 2767 2852 2811 2768 2813
8 2811 2766 2719 2768 2853 2812 2769 2814
8 2855 2814 2768 2813 2816 2771 2721 2770
8 2856 2815 2769 2814 2817 2772 2722 2771
8 2773 2724 2774 2819 2816 2771 2817 2858
8 2774 2725 2775 2820 2817 2772 2818 2859
8 2776 2727 2777 2822 2819 2774 2820 2861
8 2777 2728 2778 2823 2820 2775 2821 2862
8 2779 2730 2780 2825 2822 2777 2823 2864
8 2823 2778 2731 2780 2865 2824 2781 2826
8 2825 2780 2733 2782 2866 2826 2783 2827
8 2869 2828 2785 2830 2847 2803 2756 2804
8 2871 2829 2786 2832 2830 2785 2738 2787
8 2872 2830 2787 2833 2848 2804 2759 2806
8 2789 2739 2786 2832 2835 2788 2831 2874
8 2836 2789 2740 2790 2875 2832 2787 2833
8 2792 2741 2788 2835 2838 2791 2834 2877
8 2793 2742 2789 2836 2839 2792 2835 2878
8 2838 2791 2837 2880 2795 2744 2794 2841
8 2839 2792 2838 2881 2796 2745 2795 2842
8 2841 2794 2840 2882 2798 2749 2799 2844
8 2842 2795 2841 2883 2797 2748 2798 2843
8 2843 2798 2844 2884 2800 2751 2801 2845
8 2886 2846 2803 2847 2850 2807 2762 2808
8 2851 2808 2847 2887 2809 2763 2804 2848
8 2850 2807 2766 2811 2889 2849 2812 2853
8 2810 2765 2811 2852 2851 2808 2850 2890
8 2852 2811 2768 2813 2891 2853 2814 2855
8 2853 2812 2769 2814 2892 2854 2815 2856
8 2894 2856 2814 2855 2858 2817 2771 2816
8 2817 2772 2818 2859 2856 2815 2857 2895
8 2819 2774 2820 2861 2858 2817 2859 2897
8 2820 2775 2821 2862 2859 2818 2860 2898
8 2822 2777 2823 2864 2861 2820 2862 2900
8 2823 2778 2824 2865 2862 2821 2863 2901
8 2864 2823 2780 2825 2902 2865 2826 2866
8 2904 2867 2828 2869 2886 2846 2803 2847
8 2869 2828 2868 2906 2830 2785 2829 2871
8 2907 2869 2830 2872 2887 2847 2804 2848
8 2871 2829 2870 2909 2832 2786 2831 2874
8 2910 2871 2832 2875 2872 2830 2787 2833
8 2835 2788 2831 2874 2877 2834 2873 2912
8 2836 2789 2832 2875 2878 2835 2874 2913
8 2877 2834 2876 2915 2838 2791 2837 2880
8 2839 2792 2835 2878 2881 2838 2877 2916
8 2880 2837 2879 2917 2841 2794 2840 2882
8 2881 2838 2880 2918 2842 2795 2841 2883
8 2883 2841 2882 2919 2843 2798 2844 2884
8 2921 2885 2846 2886 2889 2849 2807 2850
8 2922 2886 2847 2887 2890 2850 2808 2851
8 2889 2849 2812 2853 2924 2888 2854 2892
8 2890 2850 2811 2852 2925 2889 2853 2891
8 2891 2853 2814 2855 2926 2892 2856 2894
8 2892 2854 2815 2856 2927 2893 2857 2895
8 2858 2817 2859 2897 2894 2856 2895 2929
8 2859 2818 2860 2898 2895 2857 2896 2930
8 2861 2820 2862 2900 2897 2859 2898 2932
8 2862 2821 2863 2901 2898 2860 2899 2933
8 2864 2823 2865 2902 2900 2862 2901 2934
8 2904 2867 2846 2886 2936 2903 2885 2921
8 2904 2867 2903 2936 2869 2828 2868 2906
8 2937 2904 2869 2907 2922 2886 2847 2887
8 2906 2868 2905 2939 2871 2829 2870 2909
8 2907 2869 2906 2940 2872 2830 2871 2910
8 2909 2870 2908 2942 2874 2831 2873 2912
8 2910 2871 2909 2943 2875 2832 2874 2913
8 2912 2873 2911 2945 2877 2834 2876 2915
8 2878 2835 2874 2913 2916 2877 2912 2946
8 2915 2876 2914 2947 2880 2837 2879 2917
8 2916 2877 2915 2948 2881 2838 2880 2918
8 2918 2880 2917 2949 2883 2841 2882 2919
8 2921 2885 2849 2889 2951 2920 2888 2924
8 2952 2921 2886 2922 2925 2889 2850 2890
8 2924 2888 2854 2892 2954 2923 2893 2927
8 2925 2889 2853 2891 2955 2924 2892 2926
8 2926 2892 2856 2894 2956 2927 2895 2929
8 2895 2857 2896 2930 2927 2893 2928 2957
8 2897 2859 2898 2932 2929 2895 2930 2959
8 2898 2860 2899 2933 2930 2896 2931 2960
8 2900 2862 2901 2934 2932 2898 2933 2961
8 2936 2903 2885 2921 2963 2935 2920 2951
8 2936 2903 2935 2963 2906 2868 2905 2939
8 2937 2904 2886 2922 2964 2936 2921 2952
8 2937 2904 2936 2964 2907 2869 2906 2940
8 2939 2905 2938 2966 2909 2870 2908 2942
8 2940 2906 2939 2967 2910 2871 2909 2943
8 2942 2908 2941 2969 2912 2873 2911 2945
8 2943 2909 2942 2970 2913 2874 2912 2946
8 2945 2911 2944 2971 2915 2876 2914 2947
8 2946 2912 2945 2972 2916 2877 2915 2948
8 2948 2915 2947 2973 2918 2880 2917 2949
8 2951 2920 2888 2924 2975 2950 2923 2954
8 2952 2921 2889 2925 2976 2951 2924 2955
8 2927 2893 2928 2957 2954 2923 2953 2978
8 2955 2924 2892 2926 2979 2954 2927 2956
8 2929 2895 2930 2959 2956 2927 2957 2980
8 2930 2896 2931 2960 2957 2928 2958 2981
8 2932 2898 2933 2961 2959 2930 2960 2982
8 2951 2920 2950 2975 2963 2935 2962 2984
8 2963 2935 2962 2984 2939 2905 2938 2966
8 2964 2936 2921 2952 2985 2963 2951 2976
8 2964 2936 2963 2985 2940 2906 2939 2967
8 2966 2938 2965 2987 2942 2908 2941 2969
8 2967 2939 2966 2988 2943 2909 2942 2970
8 2969 2941 2968 2989 2945 2911 2944 2971
8 2970 2942 2969 2990 2946 2912 2945 2972
8 2972 2945 2971 2991 2948 2915 2947 2973
8 2954 2923 2953 2978 2975 2950 2974 2993
8 2976 2951 2924 2955 2994 2975 2954 2979
8 2957 2928 2958 2981 2978 2953 2977 2995
8 2956 2927 2957 2980 2979 2954 2978 2996
8 2959 2930 2960 2982 2980 2957 2981 2997
8 2984 2962 2983 2999 2966 2938 2965 2987
8 2975 2950 2974 2993 2984 2962 2983 2999
8 2976 2951 2975 2994 2985 2963 2984 3000
8 2985 2963 2984 3000 2967 2939 2966 2988
8 2987 2965 2986 3001 2969 2941 2968 2989
8 2988 2966 2987 3002 2970 2942 2969 2990
8 2990 2969 2989 3003 2972 2945 2971 2991
8 2978 2953 2977 2995 2993 2974 2992 3004
8 2979 2954 2978 2996 2994 2975 2993 3005
8 2980 2957 2981 2997 2996 2978 2995 3006
8 2974 2993 2999 2983 2992 3004 3007 2998
8 2983 2999 2987 2965 2998 3007 3001 2986
8 3000 2984 2999 3008 2988 2966 2987 3002
8 2994 2975 2993 3005 3000 2984 2999 3008
8 3002 2987 3001 3009 2990 2969 2989 3003
8 2996 2978 2995 3006 3005 2993 3004 3010
8 3005 2993 3004 3010 3008 2999 3007 3011
8 3008 2999 3007 3011 3002 2987 3001 3009

CELL_TYPES 1910
12
12
12
12
12
12
12
12
12
12
12
12
12
12
12
12
12
12
12
12
12
12
12
12
12
12
12
12
12
12
12
12
12
12
12
12
12
12
12
12
12
12
12
12
12
12
12
12
12
12
12
12
12
12
12
12
12
12
12
12
12
12
12
12
12
12
12
12
12
12
12
12
12
12
12
12
12
12
12
12
12
12
12
12
12
12
12
12
12
12
12
12
12
12
12
12
12
12
12
12
12
12
12
12
12
12
12
12
12
12
12
12
12
12
12
12
12
12
12
12
12
12
12
12
12
12
12
12
12
12
12
12
12
12
12
12
12
12
12
12
12
12
12
12
12
12
12
12
12
12
12
12
12
12
12
12
12
12
12
12
12
12
12
12
12
12
12
12
12
12
12
12
12
12
12
12
12
12
12
12
12
12
12
12
12
12
12
12
12
12
12
12
12
12
12
12
12
12
12
12
12
12
12
12
12
12
12
12
12
12
12
12
12
12
12
12
12
12
12
12
12
12
12
12
12
12
12
12
12
12
12
12
12
12
12
12
12
12
12
12
12
12
12
12
12
12
12
12
12
12
12
12
12
12
12
12
12
12
12
12
12
12
12
12
12
12
12
12
12
12
12
12
12
12
12
12
12
12
12
12
12
12
12
12
12
12
12
12
12
12
12
12
12
12
12
12
12
12
12
12
12
12
12
12
12
12
12
12
12
12
12
12
12
12
12
12
12
12
12
12
12
12
12
12
12
12
12
12
12
12
12
12
12
12
12
12
12
12
12
12
12
12
12
12
12
12
12
12
12
12
12
12
12
12
12
12
12
12
12
12
12
12
12
12
12
12
12
12
12
12
12
12
12
12
12
12
12
12
12
12
12
12
12
12
12
12
12
12
12
12
12
12
12
12
12
12
12
12
12
12
12
12
12
12
12
12
12
12
12
12
12
12
12
12
12
12
12
12
12
12
12
12
12
12
12
12
12
12
12
12
12
12
12
12
12
12
12
12
12
12
12
12
12
12
12
12
12
12
12
12
12
12
12
12
12
12
12
12
12
12
12
12
12
12
12
12
12
12
12
12
12
12
12
12
12
12
12
12
12
12
12
12
12
12
12
12
12
12
12
12
12
12
12
12
12
12
12
12
12
12
12
12
12
12
12
12
12
12
12
12
12
12
12
12
12
12
12
12
12
12
12
12
12
12
12
12
12
12
12
12
12
12
12
12
12
12
12
12
12
12
12
12
12
12
12
12
12
12
12
12
12
12
12
12
12
12
12
12
12
12
12
12
12
12
12
12
12
12
12
12
12
12
12
12
12
12
12
12
12
12
12
12
12
12
12
12
12
12
12
12
12
12
12
12
12
12
12
12
12
12
12
12
12
12
12
12
12
12
12
12
12
12
12
12
12
12
12
12
12
12
12
12
12
12
12
12
12
12
12
12
12
12
12
12
12
12
12
12
12
12
12
12
12
12
12
12
12
12
12
12
12
12
12
12
12
12
12
12
12
12
12
12
12
12
12
12
12
12
12
12
12
12
12
12
12
12
12
12
12
12
12
12
12
12
12
12
12
12
12
12
12
12
12
12
12
12
12
12
12
12
12
12
12
12
12
12
12
12
12
12
12
12
12
12
12
12
12
12
12
12
12
12
12
12
12
12
12
12
12
12
12
12
12
12
12
12
12
12
12
12
12
12
12
12
12
12
12
12
12
12
12
12
12
12
12
12
12
12
12
12
12
12
12
12
12
12
12
12
12
12
12
12
12
12
12
12
12
12
12
12
12
12
12
12
12
12
12
12
12
12
12
12
12
12
12
12
12
12
12
12
12
12
12
12
12
12
12
12
12
12
12
12
12
12
12
12
12
12
12
12
12
12
12
12
12
12
12
12
12
12
12
12
12
12
12
12
12
12
12
12
12
12
12
12
12
12
12
12
12
12
12
12
12
12
12
12
12
12
12
12
12
12
12
12
12
12
12
12
12
12
12
12
12
12
12
12
12
12
12
12
12
12
12
12
12
12
12
12
12
12
12
12
12
12
12
12
12
12
12
12
12
12
12
12
12
12
12
12
12
12
12
12
12
12
12
12
12
12
12
12
12
12
12
12
12
12
12
12
12
12
12
12
12
12
12
12
12
12
12
12
12
12
12
12
12
12
12
12
12
12
12
12
12
12
12
12
12
12
12
12
12
12
12
12
12
12
12
12
12
12
12
12
12
12
12
12
12
12
12
12
12
12
12
12
12
12
12
12
12
12
12
12
12
12
12
12
12
12
12
12
12
12
12
12
12
12
12
12
12
12
12
12
12
12
12
12
12
12
12
12
12
12
12
12
12
12
12
12
12
12
12
12
12
12
12
12
12
12
12
12
12
12
12
12
12
12
12
12
12
12
12
12
12
12
12
12
12
12
12
12
12
12
12
12
12
12
12
12
12
12
12
12
12
12
12
12
12
12
12
12
12
12
12
12
12
12
12
12
12
12
12
12
12
12
12
12
12
12
12
12
12
12
12
12
12
12
12
12
12
12
12
12
12
12
12
12
12
12
12
12
12
12
12
12
12
12
12
12
12
12
12
12
12
12
12
12
12
12
12
12
12
12
12
12
12
12
12
12
12
12
12
12
12
12
12
12
12
12
12
12
12
12
12
12
12
12
12
12
12
12
12
12
12
12
12
12
12
12
12
12
12
12
12
12
12
12
12
12
12
12
12
12
12
12
12
12
12
12
12
12
12
12
12
12
12
12
12
12
12
12
12
12
12
12
12
12
12
12
12
12
12
12
12
12
12
12
12
12
12
12
12
12
12
12
12
12
12
12
12
12
12
12
12
12
12
12
12
12
12
12
12
12
12
12
12
12
12
12
12
12
12
12
12
12
12
12
12
12
12
12
12
12
12
12
12
12
12
12
12
12
12
12
12
12
12
12
12
12
12
12
12
12
12
12
12
12
12
12
12
12
12
12
12
12
12
12
12
12
12
12
12
12
12
12
12
12
12
12
12
12
12
12
12
12
12
12
12
12
12
12
12
12
12
12
12
12
12
12
12
12
12
12
12
12
12
12
12
12
12
12
12
12
12
12
12
12
12
12
12
12
12
12
12
12
12
12
12
12
12
12
12
12
12
12
12
12
12
12
12
12
12
12
12
12
12
12
12
12
12
12
12
12
12
12
12
12
12
12
12
12
12
12
12
12
12
12
12
12
12
12
12
12
12
12
12
12
12
12
12
12
12
12
12
12
12
12
12
12
12
12
12
12
12
12
12
12
12
12
12
12
12
12
12
12
12
12
12
12
12
12
12
12
12
12
12
12
12
12
12
12
12
12
12
12
12
12
12
12
12
12
12
12
12
12
12
12
12
12
12
12
12
12
12
12
12
12
12
12
12
12
12
12
12
12
12
12
12
12
12
12
12
12
12
12
12
12
12
12
12
12
12
12
12
12
12
12
12
12
12
12
12
12
12
12
12
12
12
12
12
12
12
12
12
12
12
12
12
12
12
12
12
12
12
12
12
12
12
12
12
12
12
12
12
12
12
12
12
12
12
12
12
12
12
12
12
12
12
12
12
12
12
12
12
12
12
12
12
12
12
12
12
12
12
12
12
12
12
12
12
12
12
12
12
12
12
12
12
12
12
12
12
12
12
12
12
12
12
12
12
12
12
12
12
12
12
12
12
12
12
12
12
12
12
12
12
12
12
12
12
12
12
12
12
12
12
12
12
12
12
12
12
12
12
12
12
12
12
12
12
12
12
12
12
12
12
12
12
12
12
12
12
12
12
12
12
12
12
12
12
12
12
12
12
12
12
12
12
12
12
12
12
12
12
12
12
12
12
12
12
12
12
12
12
12
12
12
12
12
12
12
12
12
12
12
12
12
12
12
12
12
12
12
12
12
12
12
12
12
12
12
12
12
12
12
12
12
12
12
12
12
12
12
12
12
12
12
12
12
12
12
12
12
12
12
12
12
12
12
12
12
12
12
12
12
12
12
12
12
12
12
12
12
12
12
12
12
12
12
12
12
12
12
12
12
12
12
12
12
12
12
12
12
12
12
12
12
12
12
12
12
12
12
12
12
12
12
12
12
12
12
12
12
12
12
12
12
12
12
12
12
12
12
12
12
12
12
12
12
12
12
12
12
12
12
12
12
12
12
12
12
12
12
12
12
12
12
12
12
12
12
12
12
12
12
12
12
12
12
12
12
12
12
12
12
12
12
12
12
12
12
12
12
12
12
12
12
12
12
12
12
12
12
12
12
12
12
12
12
12
12
12
12
12
12
12
12
12
12
12
12
12
12
12
12
12
12
12
12
12
12
12
12
12
12
12
12
12
12
12
12

POINT_DATA 3012
SCALARS Jp_lamdaP float 4
LOOKUP_TABLE default
1 1 1 1
1 1 1 1
1 1 1 1
0.999994 1 1 0.999994
1 1 1 1
1 1 1 1
0.999909 1 1 0.999909
1 1 1 1
1 1 1 1
1 1 1 1
1 1 1 1
0.999977 1 1 0.999977
0.999983 1 1 0.999983
0.999996 1 1 0.999996
1 1 1 1
0.999995 1 1 0.999995
1 1 1 1
1 1 1 1
0.99991 1 1 0.99991
1 1 1 1
0.999992 1 1 0.999992
0.999998 1 1 0.999998
0.999841 1 1 0.999841
0.999891 1 1 0.999891
1 1 1 1
0.99993 1 1 0.99993
0.999736 1 1 0.999736
1 1 1 1
1 1 1 1
1 1 1 1
1 1 1 1
0.99998 1 1 0.99998
0.999998 1 1 0.999998
1 1 1 1
0.999931 1 1 0.999931
1 1 1 1
0.999966 1 1 0.999966
0.999988 1 1 0.999988
0.999777 1 1 0.999777
1 1 1 1
1 1 1 1
0.999997 1 1 0.999997
1 1 1 1
0.999992 1 1 0.999992
0.999843 1 1 0.999843
1 1 1 1
0.999895 1 1 0.999895
0.999996 1 1 0.999996
1 1 1 1
1 1 1 1
0.999911 1 1 0.999911
0.999992 1 1 0.999992
0.999993 1 1 0.999993
1 1 1 1
0.999999 1 1 0.999999
0.999843 1 1 0.999843
0.999931 1 1 0.999931
0.999892 1 1 0.999892
0.99973 1 1 0.99973
1 1 1 1
0.999989 1 1 0.999989
0.999862 1 1 0.999862
0.999827 1 1 0.999827
0.999868 1 1 0.999868
0.999573 1 1 0.999573
0.99967 1 1 0.99967
1 1 1 1
0.999955 1 1 0.999955
0.999783 1 1 0.999783
0.999515 1 1 0.999515
1 1 1 1
1 1 1 1
1 1 1 1
0.999983 1 1 0.999983
1 1 1 1
1 1 1 1
0.999936 1 1 0.999936
1 1 1 1
0.999969 1 1 0.999969
0.999992 1 1 0.999992
0.999776 1 1 0.999776
1 1 1 1
1 1 1 1
0.999914 1 1 0.999914
0.999949 1 1 0.999949
0.999642 1 1 0.999642
0.999998 1 1 0.999998
0.999755 1 1 0.999755
0.999799 1 1 0.999799
0.999616 1 1 0.999616
1 1 1 1
1 1 1 1
1 1 1 1
1 1 1 1
1 1 1 1
0.999994 1 1 0.999994
0.999854 1 1 0.999854
0.999998 1 1 0.999998
0.999896 1 1 0.999896
1 1 1 1
0.99982 1 1 0.99982
0.999879 1 1 0.999879
0.999437 1 1 0.999437
0.999906 1 1 0.999906
0.999501 1 1 0.999501
0.999986 1 1 0.999986
0.999994 1 1 0.999994
1 1 1 1
0.999999 1 1 0.999999
0.999845 1 1 0.999845
0.999893 1 1 0.999893
0.999932 1 1 0.999932
0.999724 1 1 0.999724
1 1 1 1
0.99999 1 1 0.99999
0.999826 1 1 0.999826
0.999827 1 1 0.999827
1 1 1 1
0.99997 1 1 0.99997
0.999869 1 1 0.999869
0.999559 1 1 0.999559
0.999776 1 1 0.999776
0.999679 1 1 0.999679
0.999516 1 1 0.999516
0.999829 1 1 0.999829
0.999821 1 1 0.999821
0.999476 1 1 0.999476
0.999519 1 1 0.999519
0.999608 1 1 0.999608
0.999354 1 1 0.999354
1 1 1 1
0.999478 1 1 0.999478
0.999997 1 1 0.999997
0.999795 1 1 0.999795
0.999552 1 1 0.999552
0.999426 1 1 0.999426
1 1 1 1
0.999868 1 1 0.999868
1 1 1 1
1 1 1 1
0.999941 1 1 0.999941
1 1 1 1
0.999995 1 1 0.999995
0.999972 1 1 0.999972
0.999775 1 1 0.999775
1 1 1 1
1 1 1 1
0.999918 1 1 0.999918
0.999955 1 1 0.999955
0.999643 1 1 0.999643
0.999999 1 1 0.999999
0.999756 1 1 0.999756
0.999799 1 1 0.999799
0.99961 1 1 0.99961
1 1 1 1
1 1 1 1
0.999883 1 1 0.999883
0.999581 1 1 0.999581
0.999709 1 1 0.999709
0.999455 1 1 0.999455
0.999829 1 1 0.999829
0.999591 1 1 0.999591
0.999628 1 1 0.999628
0.999546 1 1 0.999546
1 1 1 1
1 1 1 1
1 1 1 1
1 1 1 1
1 1 1 1
1 1 1 1
1 1 1 1
0.999896 1 1 0.999896
0.999852 1 1 0.999852
1 1 1 1
1 1 1 1
0.999821 1 1 0.999821
0.99988 1 1 0.99988
0.999438 1 1 0.999438
0.999906 1 1 0.999906
0.999501 1 1 0.999501
0.999812 1 1 0.999812
0.999399 1 1 0.999399
0.999473 1 1 0.999473
0.999255 1 1 0.999255
0.999534 1 1 0.999534
0.999324 1 1 0.999324
1 1 1 1
0.999992 1 1 0.999992
0.99979 1 1 0.99979
0.999828 1 1 0.999828
1 1 1 1
0.999985 1 1 0.999985
0.999871 1 1 0.999871
0.999544 1 1 0.999544
0.999689 1 1 0.999689
0.999769 1 1 0.999769
0.999517 1 1 0.999517
0.999827 1 1 0.999827
0.999821 1 1 0.999821
0.999448 1 1 0.999448
0.999528 1 1 0.999528
1 1 1 1
0.999995 1 1 0.999995
0.999807 1 1 0.999807
0.999609 1 1 0.999609
0.999337 1 1 0.999337
0.999549 1 1 0.999549
0.999485 1 1 0.999485
0.999428 1 1 0.999428
1 1 1 1
0.999869 1 1 0.999869
0.999406 1 1 0.999406
0.999503 1 1 0.999503
0.999281 1 1 0.999281
0.999285 1 1 0.999285
0.999431 1 1 0.999431
0.999273 1 1 0.999273
1 1 1 1
0.999394 1 1 0.999394
0.999815 1 1 0.999815
0.9996 1 1 0.9996
0.99946 1 1 0.99946
0.999401 1 1 0.999401
0.999839 1 1 0.999839
0.99991 1 1 0.99991
0.999664 1 1 0.999664
0.999921 1 1 0.999921
1 1 1 1
1 1 1 1
0.99996 1 1 0.99996
0.999644 1 1 0.999644
1 1 1 1
0.999798 1 1 0.999798
0.999756 1 1 0.999756
0.999605 1 1 0.999605
1 1 1 1
1 1 1 1
0.999883 1 1 0.999883
0.999581 1 1 0.999581
0.99971 1 1 0.99971
0.999455 1 1 0.999455
0.999829 1 1 0.999829
0.999597 1 1 0.999597
0.999627 1 1 0.999627
0.999538 1 1 0.999538
1 1 1 1
0.999855 1 1 0.999855
0.999915 1 1 0.999915
0.999692 1 1 0.999692
0.999395 1 1 0.999395
0.999538 1 1 0.999538
0.999362 1 1 0.999362
0.999655 1 1 0.999655
0.999522 1 1 0.999522
0.999522 1 1 0.999522
0.999486 1 1 0.999486
0.999978 1 1 0.999978
1 1 1 1
1 1 1 1
1 1 1 1
1 1 1 1
1 1 1 1
1 1 1 1
1 1 1 1
1 1 1 1
0.999908 1 1 0.999908
0.999879 1 1 0.999879
0.999501 1 1 0.999501
0.999438 1 1 0.999438
0.999823 1 1 0.999823
1 1 1 1
0.999811 1 1 0.999811
0.999399 1 1 0.999399
0.999473 1 1 0.999473
0.999254 1 1 0.999254
0.999535 1 1 0.999535
0.999324 1 1 0.999324
0.999388 1 1 0.999388
0.999215 1 1 0.999215
0.999291 1 1 0.999291
0.999201 1 1 0.999201
0.999356 1 1 0.999356
0.999263 1 1 0.999263
0.999825 1 1 0.999825
0.999822 1 1 0.999822
0.99942 1 1 0.99942
0.999538 1 1 0.999538
1 1 1 1
0.999993 1 1 0.999993
0.999819 1 1 0.999819
0.999611 1 1 0.999611
0.999321 1 1 0.999321
0.999492 1 1 0.999492
0.999546 1 1 0.999546
0.999429 1 1 0.999429
1 1 1 1
0.999869 1 1 0.999869
0.999397 1 1 0.999397
0.999503 1 1 0.999503
0.999274 1 1 0.999274
0.999303 1 1 0.999303
0.999999 1 1 0.999999
0.999815 1 1 0.999815
0.999611 1 1 0.999611
0.999431 1 1 0.999431
0.999269 1 1 0.999269
0.999448 1 1 0.999448
0.999394 1 1 0.999394
0.9994 1 1 0.9994
0.99984 1 1 0.99984
0.99966 1 1 0.99966
0.999909 1 1 0.999909
0.99925 1 1 0.99925
0.999291 1 1 0.999291
0.999188 1 1 0.999188
0.999221 1 1 0.999221
0.999344 1 1 0.999344
0.999275 1 1 0.999275
0.999826 1 1 0.999826
0.999378 1 1 0.999378
0.999656 1 1 0.999656
0.999494 1 1 0.999494
0.999383 1 1 0.999383
0.999425 1 1 0.999425
0.999946 1 1 0.999946
0.999665 1 1 0.999665
0.999669 1 1 0.999669
0.999585 1 1 0.999585
0.999582 1 1 0.999582
1 1 1 1
1 1 1 1
0.999883 1 1 0.999883
0.999712 1 1 0.999712
0.999455 1 1 0.999455
0.999829 1 1 0.999829
0.999626 1 1 0.999626
0.999603 1 1 0.999603
0.999531 1 1 0.999531
1 1 1 1
0.999855 1 1 0.999855
0.999916 1 1 0.999916
0.999691 1 1 0.999691
0.999394 1 1 0.999394
0.999539 1 1 0.999539
0.999362 1 1 0.999362
0.999656 1 1 0.999656
0.99953 1 1 0.99953
0.999519 1 1 0.999519
0.999504 1 1 0.999504
1 1 1 1
0.999941 1 1 0.999941
0.999677 1 1 0.999677
0.999717 1 1 0.999717
0.999582 1 1 0.999582
0.999312 1 1 0.999312
0.999452 1 1 0.999452
0.999329 1 1 0.999329
0.999541 1 1 0.999541
0.999477 1 1 0.999477
0.999411 1 1 0.999411
0.99997 1 1 0.99997
0.999828 1 1 0.999828
0.999985 1 1 0.999985
0.999981 1 1 0.999981
1 1 1 1
1 1 1 1
1 1 1 1
1 1 1 1
1 1 1 1
1 1 1 1
1 1 1 1
1 1 1 1
1 1 1 1
1 1 1 1
1 1 1 1
0.999535 1 1 0.999535
0.999473 1 1 0.999473
0.999324 1 1 0.999324
0.999254 1 1 0.999254
0.999399 1 1 0.999399
0.999811 1 1 0.999811
0.999388 1 1 0.999388
0.999215 1 1 0.999215
0.999292 1 1 0.999292
0.999197 1 1 0.999197
0.999355 1 1 0.999355
0.999263 1 1 0.999263
0.999202 1 1 0.999202
0.999163 1 1 0.999163
0.999229 1 1 0.999229
0.999188 1 1 0.999188
0.99929 1 1 0.99929
0.999286 1 1 0.999286
0.999387 1 1 0.999387
0.999503 1 1 0.999503
0.999268 1 1 0.999268
0.99932 1 1 0.99932
0.999999 1 1 0.999999
0.999815 1 1 0.999815
0.999622 1 1 0.999622
0.99943 1 1 0.99943
0.999265 1 1 0.999265
0.999394 1 1 0.999394
0.999436 1 1 0.999436
0.999399 1 1 0.999399
0.999841 1 1 0.999841
0.999657 1 1 0.999657
0.999908 1 1 0.999908
0.999236 1 1 0.999236
0.99929 1 1 0.99929
0.99918 1 1 0.99918
0.999224 1 1 0.999224
0.999826 1 1 0.999826
0.999655 1 1 0.999655
0.999506 1 1 0.999506
0.99935 1 1 0.99935
0.999282 1 1 0.999282
0.999373 1 1 0.999373
0.999378 1 1 0.999378
0.99943 1 1 0.99943
0.999666 1 1 0.999666
0.999575 1 1 0.999575
0.999944 1 1 0.999944
0.999675 1 1 0.999675
0.999154 1 1 0.999154
0.999197 1 1 0.999197
0.999143 1 1 0.999143
0.999211 1 1 0.999211
0.999344 1 1 0.999344
0.999303 1 1 0.999303
0.999669 1 1 0.999669
0.999431 1 1 0.999431
0.999559 1 1 0.999559
0.999407 1 1 0.999407
0.999331 1 1 0.999331
0.999428 1 1 0.999428
0.999964 1 1 0.999964
0.99971 1 1 0.99971
0.999589 1 1 0.999589
0.999569 1 1 0.999569
0.999544 1 1 0.999544
1 1 1 1
0.999393 1 1 0.999393
0.999917 1 1 0.999917
0.999854 1 1 0.999854
0.99969 1 1 0.99969
0.99954 1 1 0.99954
0.999363 1 1 0.999363
0.999656 1 1 0.999656
0.999516 1 1 0.999516
0.999537 1 1 0.999537
0.999521 1 1 0.999521
1 1 1 1
0.999943 1 1 0.999943
0.999677 1 1 0.999677
0.999717 1 1 0.999717
0.999578 1 1 0.999578
0.999311 1 1 0.999311
0.999452 1 1 0.999452
0.999325 1 1 0.999325
0.999543 1 1 0.999543
0.999482 1 1 0.999482
0.999419 1 1 0.999419
0.999958 1 1 0.999958
0.999748 1 1 0.999748
0.999566 1 1 0.999566
0.999597 1 1 0.999597
0.999528 1 1 0.999528
0.999293 1 1 0.999293
0.99941 1 1 0.99941
0.99937 1 1 0.99937
0.999439 1 1 0.999439
0.999356 1 1 0.999356
0.999972 1 1 0.999972
0.999784 1 1 0.999784
0.999817 1 1 0.999817
0.999713 1 1 0.999713
0.999839 1 1 0.999839
0.99999 1 1 0.99999
0.999987 1 1 0.999987
1 1 1 1
0.999983 1 1 0.999983
1 1 1 1
1 1 1 1
1 1 1 1
1 1 1 1
1 1 1 1
1 1 1 1
1 1 1 1
1 1 1 1
1 1 1 1
1 1 1 1
1 1 1 1
0.999355 1 1 0.999355
0.999292 1 1 0.999292
0.999263 1 1 0.999263
0.999194 1 1 0.999194
0.999215 1 1 0.999215
0.999387 1 1 0.999387
0.999202 1 1 0.999202
0.999158 1 1 0.999158
0.999229 1 1 0.999229
0.999187 1 1 0.999187
0.999288 1 1 0.999288
0.999286 1 1 0.999286
0.999138 1 1 0.999138
0.999316 1.00017 1 0.999147
0.999226 1 1 0.999226
0.999179 1 1 0.999179
0.999295 1 1 0.999295
0.999307 1 1 0.999307
0.999222 1 1 0.999222
0.99929 1 1 0.99929
0.999172 1 1 0.999172
0.999228 1 1 0.999228
0.999827 1 1 0.999827
0.999654 1 1 0.999654
0.999519 1 1 0.999519
0.999355 1 1 0.999355
0.999288 1 1 0.999288
0.999379 1 1 0.999379
0.999363 1 1 0.999363
0.999435 1 1 0.999435
0.999668 1 1 0.999668
0.999566 1 1 0.999566
0.999941 1 1 0.999941
0.99968 1 1 0.99968
0.999154 1 1 0.999154
0.9992 1 1 0.9992
0.999143 1 1 0.999143
0.999213 1 1 0.999213
0.999669 1 1 0.999669
0.999569 1 1 0.999569
0.999406 1 1 0.999406
0.99934 1 1 0.99934
0.999328 1 1 0.999328
0.999325 1 1 0.999325
0.999433 1 1 0.999433
0.999445 1 1 0.999445
0.99959 1 1 0.99959
0.999541 1 1 0.999541
0.999567 1 1 0.999567
0.999948 1 1 0.999948
0.999716 1 1 0.999716
0.99912 1 1 0.99912
0.999134 1 1 0.999134
0.999231 1 1 0.999231
0.999382 1 1 0.999382
0.999598 1 1 0.999598
0.999482 1 1 0.999482
0.999493 1 1 0.999493
0.999293 1 1 0.999293
0.999285 1 1 0.999285
0.999948 1 1 0.999948
0.999776 1 1 0.999776
0.999603 1 1 0.999603
0.999562 1 1 0.999562
0.999492 1 1 0.999492
0.999513 1 1 0.999513
1 1 1 1
0.999945 1 1 0.999945
0.999309 1 1 0.999309
0.999716 1 1 0.999716
0.999676 1 1 0.999676
0.999575 1 1 0.999575
0.999453 1 1 0.999453
0.999322 1 1 0.999322
0.999544 1 1 0.999544
0.999428 1 1 0.999428
0.999487 1 1 0.999487
0.999961 1 1 0.999961
0.999748 1 1 0.999748
0.999572 1 1 0.999572
0.999596 1 1 0.999596
0.99952 1 1 0.99952
0.999291 1 1 0.999291
0.999407 1 1 0.999407
0.999375 1 1 0.999375
0.999432 1 1 0.999432
0.999342 1 1 0.999342
0.999777 1 1 0.999777
0.999603 1 1 0.999603
0.999491 1 1 0.999491
0.999509 1 1 0.999509
0.999475 1 1 0.999475
0.999405 1 1 0.999405
0.999331 1 1 0.999331
0.999359 1 1 0.999359
0.999407 1 1.00004 0.999362
0.999219 1 1 0.999219
0.999975 1 1 0.999975
0.999793 1 1 0.999793
0.999655 1 1 0.999655
0.999806 1 1 0.999806
0.999839 1 1 0.999839
0.999697 1 1 0.999697
0.999611 1 1 0.999611
0.999693 1 1 0.999693
0.999849 1 1 0.999849
0.999992 1 1 0.999992
0.999991 1 1 0.999991
1 1 1 1
0.999988 1 1 0.999988
1 1 1 1
1 1 1 1
1 1 1 1
1 1 1 1
1 1 1 1
1 1 1 1
1 1 1 1
1 1 1 1
1 1 1 1
1 1 1 1
1 1 1 1
0.999287 1 1 0.999287
0.99923 1 1 0.99923
0.999285 1 1 0.999285
0.999185 1 1 0.999185
0.999152 1 1 0.999152
0.999202 1 1 0.999202
0.999136 1 1 0.999135
0.999255 1.00011 1 0.99915
0.99922 1 1 0.99922
0.999173 1 1 0.999173
0.999295 1 1 0.999295
0.999321 1 1 0.999321
0.999474 1.00035 1 0.999124
0.99942 1.00026 1 0.999158
0.999223 1 1 0.999223
0.99937 1 1 0.99937
0.999155 1 1 0.999155
0.999202 1 1 0.999202
0.999142 1 1 0.999142
0.999214 1 1 0.999214
0.999669 1 1 0.999669
0.999579 1 1 0.999579
0.999405 1 1 0.999405
0.999335 1 1 0.999335
0.999353 1 1 0.999353
0.999434 1 1 0.999434
0.99932 1 1 0.99932
0.999461 1 1 0.999461
0.99959 1 1 0.99959
0.999538 1 1 0.999538
0.999565 1 1 0.999565
0.999931 1 1 0.999931
0.999721 1 1 0.999721
0.999124 1 1 0.999121
0.999139 1 1 0.999139
0.999242 1 1 0.999241
0.999597 1 1 0.999597
0.999506 1 1 0.999506
0.99929 1 1 0.99929
0.999372 1 1 0.999372
0.999309 1 1 0.999309
0.999479 1 1 0.999479
0.999948 1 1 0.999948
0.999561 1 1 0.999561
0.99952 1 1 0.99952
0.999492 1 1 0.999492
0.999608 1 1 0.999608
0.999764 1 1 0.999764
0.999155 1.00004 1 0.999116
0.999124 1 1 0.999124
0.999312 1.00003 1 0.999281
0.999494 1.00005 1 0.999447
0.999555 1 1 0.999555
0.999352 1 1 0.999352
0.99937 1 1 0.99937
0.999255 1 1.00005 0.999204
0.999961 1 1 0.999961
0.99981 1 1 0.99981
0.999647 1 1 0.999647
0.999484 1 1 0.999484
0.999523 1 1 0.999523
0.999462 1 1 0.999462
0.999963 1 1 0.999963
0.999748 1 1 0.999748
0.99929 1 1 0.99929
0.999595 1 1 0.999595
0.999578 1 1 0.999578
0.999513 1 1 0.999513
0.999404 1 1 0.999404
0.99938 1 1 0.99938
0.999426 1 1 0.999426
0.999327 1 1 0.999327
0.999777 1 1 0.999777
0.999608 1 1 0.999608
0.999501 1 1 0.999501
0.999514 1 1 0.999514
0.99948 1 1 0.99948
0.999405 1 1 0.999405
0.999335 1 1 0.999335
0.999398 1 1 0.999398
0.999363 1 1.00001 0.999353
0.999201 1 1 0.999201
0.999632 1 1 0.999632
0.999499 1 1 0.999499
0.999438 1 1.00002 0.999419
0.999434 1 1 0.999434
0.999556 1.00018 1 0.999378
0.999827 1.00052 0.999872 0.999434
0.999205 1 1 0.999205
1.00064 1 1.00145 0.999187
0.999801 1 1 0.999801
0.999663 1 1 0.999663
0.999577 1 1 0.999577
0.999839 1 1 0.999839
0.99968 1 1 0.99968
0.999849 1 1 0.999849
0.999598 1 1 0.999598
0.999699 1 1 0.999699
0.99953 1 1 0.99953
0.999597 1 1 0.999597
0.999702 1 1 0.999702
0.999854 1 1 0.999854
0.999992 1 1 0.999992
0.999992 1 1 0.999992
1 1 1 1
0.999991 1 1 0.999991
1 1 1 1
1 1 1 1
1 1 1 1
1 1 1 1
1 1 1 1
1 1 1 1
1 1 1 1
1 1 1 1
1 1 1 1
1 1 1 1
1 1 1 1
0.999295 1 1 0.999295
0.999214 1 1 0.999214
0.999336 1 1 0.999336
0.999168 1 1 0.999168
0.999177 1.00002 1 0.999152
0.999133 1 1 0.999133
0.999392 1.00026 1 0.999128
0.999391 1.00023 1 0.999158
0.99923 1 1 0.99923
0.999365 1 1 0.999365
0.999626 1.00049 1 0.999139
0.999588 1.00039 1 0.999195
0.999291 1 1 0.999291
0.999123 1 1 0.999123
0.999144 1 1 0.999144
0.99926 1.00001 1 0.99925
0.999596 1 1 0.999596
0.999518 1 1 0.999518
0.999287 1 1 0.999287
0.999362 1 1 0.999362
0.999477 1 1 0.999477
0.999333 1 1 0.999333
0.99956 1 1 0.99956
0.999528 1 1 0.999528
0.999491 1 1 0.999491
0.999949 1 1 0.999949
0.999613 1 1 0.999613
0.999752 1 1 0.999752
0.999225 1.00011 1 0.999118
0.999121 1 1 0.999121
0.999287 1.00002 1 0.999268
0.999553 1 1 0.999553
0.99939 1 1 0.99939
0.999284 1 1.00008 0.999209
0.999785 1.00033 1 0.999456
0.99935 1 1 0.99935
0.999973 1 1 0.999973
0.999811 1 1 0.999811
0.999522 1 1 0.999522
0.999468 1 1 0.999468
0.999489 1 1 0.999489
0.999638 1 1 0.999638
0.999374 1.00024 1 0.999139
0.999367 1.00023 1 0.999139
1.00016 1.00086 0.999905 0.999399
1.00039 1.00092 1 0.999464
0.999489 1 1 0.999489
1.00042 1 1.00127 0.999154
0.9994 1 1.00012 0.99928
0.999995 1 1 0.999995
0.999878 1 1 0.999878
0.999814 1 1 0.999814
0.99966 1 1 0.99966
0.999524 1 1 0.999524
0.999407 1 1 0.999407
0.999504 1 1 0.999504
0.999441 1 1 0.999441
0.999777 1 1 0.999777
0.999612 1 1 0.999612
0.999404 1 1 0.999404
0.999519 1 1 0.999519
0.999511 1 1 0.999511
0.999484 1 1 0.999484
0.99934 1 1 0.99934
0.999437 1 1 0.999437
0.999345 1 1 0.999345
0.999183 1 1 0.999183
0.999628 1 1 0.999628
0.999508 1 1 0.999508
0.999451 1 1.00002 0.999428
0.999441 1 1 0.999441
0.99946 1.00009 1 0.999371
0.999644 1.00026 0.999949 0.999432
0.999224 1 1 0.999224
1.00026 1 1.00108 0.999179
0.999547 1 1 0.999547
0.999372 1.00008 1 0.999292
0.999435 1 1 0.999435
0.99952 1 1.00018 0.999337
1.0011 1.00196 0.999722 0.999416
0.999631 1.00044 1 0.999189
1.00138 1 1.00227 0.999107
0.999671 1 1 0.999671
0.999577 1 1 0.999577
0.999503 1 1 0.999503
0.999849 1 1 0.999849
0.999705 1 1 0.999705
0.999586 1 1 0.999586
0.999854 1 1 0.999854
0.999701 1 1 0.999701
0.99952 1 1 0.99952
0.99961 1 1 0.99961
0.999471 1 1 0.999471
0.999517 1 1 0.999517
0.999621 1 1 0.999621
0.99972 1 1 0.99972
0.999853 1 1 0.999853
0.999991 1 1 0.999991
0.999992 1 1 0.999992
1 1 1 1
0.999992 1 1 0.999992
1 1 1 1
1 1 1 1
1 1 1 1
1 1 1 1
1 1 1 1
0.999999 1 1 0.999999
1 1 1 1
1 1 1 1
1 1 1 1
1 1 1 1
1 1 1 1
1 1 1 1
0.99936 1 1 0.99936
0.999238 1 1 0.999236
0.999379 1.00022 1 0.999157
0.999329 1.0002 1 0.999131
0.99966 1.00052 1 0.999144
0.99961 1.00042 1 0.999188
0.999307 1 1 0.999305
0.999768 1.00059 1 0.99918
0.999508 1.00028 1 0.999223
0.999441 1.00013 1 0.999313
0.999298 1.00018 1 0.999121
0.999119 1 1 0.999119
0.999258 1 1 0.999256
0.999551 1 1 0.999551
0.99941 1 1 0.99941
0.999219 1 1.00001 0.999214
1.00005 1.00058 1 0.999465
0.999348 1 1 0.999348
0.999521 1 1 0.999521
0.999473 1 1 0.999473
0.999494 1 1 0.999494
0.999985 1 1 0.999985
0.999811 1 1 0.999811
0.999628 1 1 0.999628
0.999329 1.00019 1 0.999142
0.999993 1 1 0.999993
0.999869 1 1 0.999869
0.999437 1.0003 1 0.999139
1.0004 1.00103 1 0.999376
0.9995 1 1 0.9995
0.999797 1 1.00054 0.999259
0.999758 1 1.0006 0.999161
1.00005 1.00059 1 0.999463
0.999837 1 1 0.999837
0.999659 1 1 0.999659
0.999499 1 1 0.999499
0.999466 1 1 0.999466
0.999393 1 1 0.999393
0.999526 1 1 0.999526
0.999836 1.00066 1 0.999175
1.00058 1.00136 1 0.999221
1.00149 1.00236 0.999601 0.99953
0.999271 1 1 0.999271
0.999823 1 1.00038 0.999447
1.00214 1 1.00301 0.999129
0.999877 1 1 0.999877
0.999857 1 1 0.999857
0.999761 1 1 0.999761
0.999666 1 1 0.999666
0.999561 1 1 0.999561
0.999426 1 1 0.999426
0.999334 1 1 0.999334
0.99947 1 1 0.99947
0.999624 1 1 0.999624
0.999516 1 1 0.999516
0.999367 1 1 0.999364
0.999451 1.00002 1 0.99943
0.999448 1 1 0.999448
0.999437 1 1 0.999437
0.999243 1 1 0.999243
0.999928 1 1.00076 0.999171
0.999547 1 1 0.999547
0.999345 1.00004 1 0.999308
0.999436 1 1 0.999436
0.999711 1 1.00039 0.999323
1.00044 1.00129 0.999742 0.999409
0.999876 1.00068 1 0.999194
1.00126 1 1.00215 0.999107
0.999462 1 1 0.999462
1.00745 1.00868 0.999433 0.999351
0.999377 1 1 0.999377
1.00094 1 1.00173 0.999209
0.998431 1.002 0.997225 0.999215
1.00102 1 1.00196 0.999062
1.00614 1.00896 0.997957 0.999245
0.999577 1 1 0.999577
0.999503 1 1 0.999503
0.999452 1 1 0.999452
0.999854 1 1 0.999854
0.9997 1 1 0.9997
0.999622 1 1 0.999622
0.999511 1 1 0.999511
0.999853 1 1 0.999853
0.999712 1 1 0.999712
0.999468 1 1 0.999468
0.99962 1 1 0.99962
0.999528 1 1 0.999528
0.99945 1 1 0.99945
0.999553 1 1 0.999553
0.999629 1 1 0.999629
0.999701 1 1 0.999701
0.99983 1 1 0.99983
0.999738 1 1 0.999738
0.99983 1 1 0.99983
0.999991 1 1 0.999991
0.999991 1 1 0.999991
1 1 1 1
0.999992 1 1 0.999992
1 1 1 1
1 1 1 1
1 1 1 1
1 1 1 1
1 1 1 1
1 1 1 1
0.999998 1 1 0.999998
1 1 1 1
1 1 1 1
1 1 1 1
1 1 1 1
1 1 1 1
1 1 1 1
0.999323 1 1 0.999319
0.999653 1.00047 1 0.999181
0.999678 1.00053 1 0.999149
0.999787 1.00061 1 0.999179
0.999606 1.00038 1 0.99923
0.999383 1.00006 1 0.999322
1.00027 1.00102 1 0.999249
1.00472 1.01005 0.99529 0.999428
1.00669 1.00758 0.9997 0.999419
0.999908 1 1 0.999908
0.999299 1.00015 1 0.999146
0.999506 1.00037 1 0.99914
1.00056 1.00121 1 0.999354
0.99951 1 1 0.99951
1.0004 1 1.00116 0.999238
0.999285 1 1.00012 0.999167
0.999735 1.00027 1 0.999461
0.999495 1 1 0.999495
0.999491 1 1 0.999491
0.999379 1 1 0.999379
0.999991 1 1 0.999991
0.999528 1 1 0.999528
0.99986 1 1 0.99986
0.999659 1 1 0.999659
0.99986 1 1 0.99986
0.999718 1.00055 1 0.99917
0.999888 1 1 0.999888
0.999857 1 1 0.999857
0.999743 1 1 0.999743
1.00082 1.0016 1 0.999225
1.00065 1.00168 0.999469 0.9995
0.999721 1 1.00027 0.999453
1.00235 1 1.00323 0.99912
0.999438 1 1.00016 0.999276
0.999678 1 1 0.999678
0.999555 1 1 0.999555
0.999458 1 1 0.999458
0.999412 1 1.00006 0.999348
0.999436 1 1 0.999436
1.00182 1.00261 1.00004 0.999166
1.00087 1.00414 0.997374 0.999367
1.00006 1.001 0.999716 0.999349
1.0012 1 1.00204 0.999154
1.0019 1 1.00255 0.999359
0.999745 1 1 0.999745
0.999699 1 1 0.999699
0.999645 1 1 0.999645
0.999569 1 1 0.999569
0.99948 1 1 0.99948
0.999369 1 1 0.999369
1.00098 1 1.00167 0.999309
0.999546 1 1 0.999546
0.999437 1 1 0.999437
0.999323 1 1 0.999323
0.999735 1.00062 0.999716 0.999401
1.0001 1.00091 1 0.999199
0.99989 1 1.00058 0.999309
1.001 1 1.00189 0.999107
0.99947 1 1 0.99947
1.00714 1.00879 0.999012 0.999357
0.999379 1 1 0.999379
1.00086 1 1.00165 0.99921
0.999542 1.00246 0.99784 0.999244
1.00152 1 1.00246 0.999058
1.00797 1.01121 0.997559 0.999237
0.999413 1 1 0.999413
0.998296 1.00719 0.99191 0.999255
0.999683 1 1.00034 0.999342
1.00436 1 1.00522 0.999144
1.00054 1.00038 1.00109 0.99908
0.959094 0.963823 0.998635 0.996454
1.00364 1.00101 1.00398 0.998646
0.990146 1.00982 0.981189 0.999311
0.930247 0.944876 0.985864 0.998634
0.938299 0.970551 0.967678 0.999061
0.999503 1 1 0.999503
0.999455 1 1 0.999455
0.999424 1 1 0.999424
0.999853 1 1 0.999853
0.999704 1 1 0.999704
0.99962 1 1 0.99962
0.999539 1 1 0.999539
0.999465 1 1 0.999465
0.999617 1 1 0.999617
0.99984 1 1 0.99984
0.99971 1 1 0.99971
0.999456 1 1 0.999456
0.99955 1 1 0.99955
0.999561 1 1 0.999561
0.999481 1 1 0.999481
0.999597 1 1 0.999597
0.999699 1 1 0.999699
0.999829 1 1 0.999829
0.999725 1 1 0.999725
0.999635 1 1 0.999635
0.99971 1 1 0.99971
0.999722 1 1 0.999722
0.999847 1 1 0.999847
0.99983 1 1 0.99983
0.99999 1 1 0.99999
0.99999 1 1 0.99999
1 1 1 1
0.999991 1 1 0.999991
1 1 1 1
1 1 1 1
1 1 1 1
1 1 1 1
1 1 1 1
1 1 1 1
1 1 1 1
1 1 1 1
0.999997 1 1 0.999997
1 1 1 1
1 1 1 1
1 1 1 1
1 1 1 1
1 1 1 1
0.999683 1.00045 1 0.999236
0.999767 1.00059 1 0.999179
0.99933 1 1 0.99933
1.00613 1.01002 0.99671 0.999437
1.00036 1.00112 1 0.999246
1.00673 1.00751 0.999838 0.999385
1.00579 1.00661 1.00004 0.999153
0.978821 0.984914 0.995477 0.998329
1.00652 1.00766 0.999342 0.99952
0.999914 1 1 0.999914
0.999907 1 1 0.999907
0.999781 1 1 0.999781
0.999795 1 1 0.999795
0.99958 1.00041 1 0.999166
1.00108 1.00185 1 0.999229
0.999878 1.00093 0.999481 0.999471
0.99946 1 1 0.99946
1.0021 1 1.00299 0.999111
0.999413 1 1.00013 0.999282
0.999446 1 1 0.999446
0.999516 1 1.00015 0.999362
0.999445 1 1 0.999445
0.999856 1 1 0.999856
0.99955 1 1 0.99955
0.999691 1 1 0.999691
0.999898 1 1 0.999898
0.999725 1 1 0.999725
1.00142 1.00221 1.00003 0.999182
0.999763 1 1 0.999763
0.99971 1 1 0.99971
0.999644 1 1 0.999644
1.00194 1.00427 0.998305 0.999372
0.999517 1.00063 0.999541 0.999349
1.00161 1 1.00226 0.999357
1.00116 1 1.00202 0.999147
0.999573 1 1 0.999573
0.999484 1 1 0.999484
1.00035 1 1.00104 0.999309
0.999435 1 1.00008 0.999358
1.00708 1.00791 0.999954 0.999226
1.00104 1.00402 0.997704 0.999326
1.00008 1.00026 1.00073 0.999095
1.00121 1 1.00194 0.999271
0.99961 1 1 0.99961
0.999594 1 1 0.999594
0.999445 1 1 0.999445
1.00143 1 1.00218 0.999251
0.95431 0.963719 0.993877 0.996338
0.999478 1 1 0.999478
0.999382 1 1 0.999382
1.00682 1.00882 0.998646 0.999363
1.00072 1.00289 0.99857 0.999273
1.00217 1 1.00312 0.999054
1.00099 1 1.00178 0.999211
1.01001 1.01331 0.997511 0.999229
0.999418 1 1 0.999418
0.998443 1.00743 0.991826 0.999247
0.999567 1 1.00022 0.999344
1.0042 1 1.00506 0.999148
0.99992 1.0005 1.00033 0.999092
0.957966 0.964303 0.996737 0.996681
0.998025 0.997403 1.00262 0.998009
0.993409 1.01161 0.982658 0.999338
0.936298 0.94747 0.989881 0.998311
0.931592 0.965912 0.965425 0.999009
0.999418 1 1 0.999418
0.938621 0.947252 0.992914 0.99796
0.953526 0.970991 0.982829 0.999171
0.980022 1.00198 0.978838 0.999236
1.00233 1 1.00301 0.999329
1.00894 1 1.00976 0.999189
0.994879 1.01017 0.985506 0.999351
0.970138 0.970867 1.00306 0.996205
1.0062 1.00388 1.00446 0.997855
0.930829 0.952646 0.978524 0.998543
0.978057 1.00259 0.976115 0.999396
0.999457 1 1 0.999457
0.999425 1 1 0.999425
0.999412 1 1 0.999412
0.99985 1 1 0.99985
0.999719 1 1 0.999719
0.999605 1 1 0.999605
0.999546 1 1 0.999546
0.999462 1 1 0.999462
0.999829 1 1 0.999829
0.999562 1 1 0.999562
0.99961 1 1 0.99961
0.999709 1 1 0.999709
0.99947 1 1 0.99947
0.999521 1 1 0.999521
0.999629 1 1.0002 0.999432
0.999612 1 1 0.999612
0.999719 1 1 0.999719
0.999725 1 1 0.999725
0.999622 1 1 0.999622
0.999624 1 1 0.999624
0.999608 1 1 0.999608
0.999558 1 1 0.999558
0.999549 1 1 0.999549
0.999689 1 1 0.999689
0.99971 1 1 0.99971
0.99984 1 1 0.99984
0.999706 1 1 0.999706
0.999838 1 1 0.999838
0.999989 1 1 0.999989
0.99983 1 1 0.99983
0.99999 1 1 0.99999
1 1 1 1
0.99999 1 1 0.99999
1 1 1 1
1 1 1 1
1 1 1 1
1 1 1 1
1 1 1 1
0.99991 1 1 0.99991
1 1 1 1
1 1 1 1
1 1 1 1
1 1 1 1
1 1 1 1
1 1 1 1
1 1 1 1
1 1 1 1
1 1 1 1
1.00762 1.01034 0.997857 0.999445
1.00048 1.00123 1 0.999242
1.0067 1.00741 0.999949 0.999351
0.980477 0.98446 0.997224 0.998727
1.00674 1.0075 0.999723 0.999531
1.00611 1.00695 1.00003 0.999137
1.0088 1.00796 1.00159 0.999248
0.986482 0.986526 1.00136 0.998593
0.961861 0.967083 0.998903 0.995692
0.923839 0.944958 0.979835 0.997771
0.933443 0.96235 0.970881 0.999054
0.999776 1 1 0.999776
0.999913 1 1 0.999913
0.999907 1 1 0.999907
0.999776 1 1 0.999776
0.999692 1 1 0.999692
0.999712 1 1 0.999712
0.99978 1 1 0.99978
0.999787 1 1 0.999787
1.00102 1.0018 1.00003 0.999198
1.00295 1.00445 0.999126 0.999377
0.999045 1.00038 0.999317 0.999349
1.00164 1 1.00228 0.999356
1.00158 1 1.00245 0.99914
0.999755 1 1.00045 0.999309
0.999475 1 1.00013 0.999347
0.999488 1 1 0.999488
0.999721 1 1 0.999721
0.999577 1 1 0.999577
0.999782 1 1 0.999782
0.999643 1 1 0.999643
1.0073 1.00864 0.999465 0.999207
0.999617 1 1 0.999617
0.999595 1 1 0.999595
1.00011 1.00351 0.997283 0.999323
0.999825 1.0003 1.0004 0.999127
1.00177 1 1.00252 0.999249
0.99944 1 1 0.99944
1.00137 1 1.00212 0.999254
1.00039 1.01124 0.990096 0.999174
1.00084 1.00082 1.00088 0.999148
1.0002 1 1.00103 0.999169
1.00433 1 1.0051 0.99923
0.999538 1 1 0.999538
0.999476 1 1 0.999476
0.999865 1 1.00054 0.999322
0.934097 0.949792 0.985083 0.998368
0.960441 0.965575 0.998166 0.99651
0.999423 1 1 0.999423
0.999346 1 1 0.999346
0.998896 1.00788 0.99184 0.999239
0.999204 1.00066 0.999438 0.999104
1.00379 1 1.00465 0.999152
0.959079 0.964993 0.998198 0.995667
0.998331 0.998004 1.00167 0.998663
0.996921 1.01381 0.983963 0.999364
0.930831 0.947422 0.984546 0.99791
0.924291 0.960814 0.962991 0.998957
0.999417 1 1 0.999417
0.932838 0.949285 0.984202 0.998448
0.955607 0.969186 0.986792 0.999186
0.982241 1.00218 0.980867 0.999226
1.0018 1 1.00247 0.999334
1.0082 1 1.009 0.999202
0.990664 1.0076 0.98384 0.999338
0.971579 0.972699 1.00295 0.995914
1.00092 0.999202 1.00319 0.998529
0.932702 0.952816 0.980994 0.997855
0.971971 1.00007 0.972535 0.999347
0.999398 1 1 0.999398
0.971141 0.974031 0.997625 0.999407
1.0152 1.01765 0.997914 0.999679
0.99163 1 0.992275 0.99935
1.00712 1 1.00767 0.999453
1.00881 1.00361 1.00556 0.999633
0.995823 0.996143 1.00059 0.999093
0.97566 0.973371 1.00632 0.996058
0.950444 0.973627 0.97832 0.997821
0.996164 1.01806 0.978949 0.999536
0.999426 1 1 0.999426
0.999405 1 1 0.999405
0.999829 1 1.00042 0.999408
0.999829 1 1 0.999829
0.999719 1 1 0.999719
0.999624 1 1 0.999624
0.999562 1 1 0.999562
0.999459 1 1 0.999459
0.999719 1 1 0.999719
0.99953 1 1 0.99953
0.999612 1 1 0.999612
0.999672 1 1.00024 0.999427
0.999963 1 1.00055 0.999408
0.99959 1 1.00009 0.999503
0.999617 1 1 0.999617
0.999724 1 1 0.999724
0.999609 1 1 0.999609
0.999624 1 1 0.999624
0.999607 1 1 0.999607
0.999555 1 1 0.999555
0.99958 1 1 0.99958
0.99955 1 1 0.99955
0.999513 1 1 0.999513
0.999479 1 1 0.999479
0.999483 1 1 0.999483
0.999531 1 1 0.999531
0.99955 1 1 0.99955
0.999662 1 1 0.999662
0.999688 1 1 0.999688
0.999827 1 1 0.999827
0.999709 1 1 0.999709
0.99984 1 1 0.99984
0.999986 1 1 0.999986
0.999829 1 1 0.999829
0.999988 1 1 0.999988
1 1 1 1
0.999989 1 1 0.999989
1 1 1 1
1 1 1 1
1 1 1 1
1 1 1 1
1 1 1 1
0.999917 1 1 0.999917
1 1 1 1
0.99991 1 1 0.99991
1 1 1 1
1 1 1 1
1 1 1 1
1 1 1 1
1 1 1 1
1 1 1 1
1 1 1 1
1 1 1 1
0.933126 0.946963 0.986794 0.998576
0.957847 0.970281 0.987851 0.999326
0.983558 0.98512 0.999374 0.99904
1.00682 1.00735 0.999933 0.99954
1.00647 1.00732 1.00003 0.999122
0.98603 0.985026 1.00171 0.999311
1.00784 1.00779 1.0008 0.999256
0.964951 0.969184 0.999162 0.996467
0.931275 0.946018 0.985835 0.99856
0.929351 0.962356 0.966663 0.999008
1.00043 0.99733 1.00363 0.999482
0.971582 0.972756 1.00244 0.996362
0.929043 0.951721 0.977608 0.998531
0.972586 0.996834 0.976415 0.999243
0.999658 1 1 0.999658
0.999784 1 1 0.999784
0.999913 1 1 0.999913
0.99977 1 1 0.99977
0.999701 1 1 0.999701
0.999675 1 1 0.999675
0.999714 1 1 0.999714
0.99973 1 1 0.99973
0.999769 1 1 0.999769
0.99978 1 1 0.99978
1.0075 1.0093 0.999025 0.999189
0.999343 1.00297 0.997063 0.999319
0.999572 1.00028 1.00013 0.999158
1.00208 1 1.00286 0.999228
1.00123 1 1.00198 0.999258
0.999434 1 1 0.999434
0.999597 1 1 0.999597
0.999624 1 1 0.999624
1.00189 1.01096 0.991877 0.999145
0.999533 1 1 0.999533
0.999463 1 1 0.999463
0.99985 1.00053 1.0002 0.999121
1.00053 1 1.00133 0.999201
1.00337 1 1.00416 0.999216
1.00043 1 1.00112 0.999314
1.00238 1.01275 0.990732 0.999023
1.00667 1 1.00741 0.999266
1.00398 1 1.00476 0.999228
0.999526 1 1 0.999526
0.999445 1 1 0.999445
0.99935 1 1 0.99935
0.970452 0.97521 0.995792 0.999326
0.936253 0.948922 0.988787 0.997838
0.957608 0.965399 0.995591 0.996323
0.999416 1 1 0.999416
1.00137 1 1.00204 0.999338
0.984258 1.00229 0.982775 0.999216
1.00766 1 1.00845 0.999215
0.930544 0.948671 0.983039 0.997817
0.969931 0.971931 1.00099 0.996951
1.00197 1.00009 1.00398 0.997903
0.988318 1.00518 0.983881 0.999333
0.936315 0.952677 0.984181 0.998623
0.956434 0.970052 0.986816 0.999134
0.964045 0.994243 0.970348 0.999257
0.999396 1 1 0.999396
0.967744 0.973715 0.994518 0.999346
1.01463 1.01718 0.997815 0.999682
0.993235 1 0.993873 0.999358
1.0073 1 1.00785 0.999455
1.00833 1.00315 1.00592 0.999247
0.996343 0.996157 1.00204 0.998149
0.974274 0.974804 1.00351 0.995956
0.95642 0.976625 0.98057 0.998717
0.989369 1.01194 0.978232 0.999453
0.999763 1 1.00021 0.999554
1.02022 1.02067 0.999791 0.99977
1.02374 1.0266 0.997399 0.999817
1.00797 1 1.00825 0.999718
0.997555 0.991802 1.00621 0.999591
0.981461 0.979545 1.006 0.995983
0.977529 0.99213 0.986473 0.998793
0.990556 1.01386 0.977573 0.999426
0.999398 1 1 0.999398
0.999777 1 1.00036 0.999422
1.00077 1 1.0013 0.99947
0.999718 1 1 0.999718
0.999611 1 1 0.999611
0.999539 1 1 0.999539
0.999704 1 1.00028 0.999423
0.999617 1 1 0.999617
0.999535 1 1.00003 0.999504
1.00034 1 1.00093 0.99941
1.00032 1 1.00086 0.999466
0.999637 1 1.00021 0.999425
0.999538 1 1 0.999538
0.999624 1 1 0.999624
0.999607 1 1 0.999607
0.999552 1 1 0.999552
0.999551 1 1 0.999551
0.99958 1 1 0.99958
0.999517 1 1 0.999517
0.999489 1 1 0.999489
0.999487 1 1 0.999487
0.999448 1 1 0.999448
0.999482 1 1 0.999482
0.999463 1 1 0.999463
0.999427 1 1 0.999427
0.99956 1 1 0.99956
0.999512 1 1 0.999512
0.999542 1 1 0.999542
0.999624 1 1 0.999624
0.999551 1 1 0.999551
0.999662 1 1 0.999662
0.999806 1 1 0.999806
0.999688 1 1 0.999688
0.999827 1 1 0.999827
0.999983 1 1 0.999983
0.99984 1 1 0.99984
0.999985 1 1 0.999985
1 1 1 1
0.999987 1 1 0.999987
1 1 1 1
1 1 1 1
1 1 1 1
1 1 1 1
1 1 1 1
0.999875 1 1 0.999875
1 1 1 1
0.999899 1 1 0.999899
1 1 1 1
1 1 1 1
0.99991 1 1 0.99991
1 1 1 1
1 1 1 1
1 1 1 1
1 1 1 1
1 1 1 1
1 1 1 1
0.97134 0.974215 0.997591 0.999458
0.934087 0.947129 0.988041 0.998168
1.01303 1.01778 0.995667 0.999667
0.954995 0.968273 0.986993 0.999284
0.982194 0.983685 0.999989 0.998496
1.00697 1.00767 1.00004 0.999265
0.965928 0.969077 0.999481 0.997268
0.928865 0.946965 0.983035 0.997815
0.925383 0.962464 0.962471 0.998963
0.997872 0.998446 1.00025 0.999172
0.970941 0.970836 1.00393 0.996189
0.931221 0.955134 0.977099 0.997815
0.972938 0.997303 0.976307 0.999244
1.00015 1.00422 0.996637 0.9993
0.971498 0.970974 1.00453 0.99603
0.959906 0.979278 0.98152 0.998673
0.993854 1.01626 0.978465 0.999481
0.999589 1 1 0.999589
0.99967 1 1 0.99967
0.999792 1 1 0.999792
0.999711 1 1 0.999711
0.999609 1 1 0.999609
0.999683 1 1 0.999683
0.999717 1 1 0.999717
0.999716 1 1 0.999716
0.999741 1 1 0.999741
0.999758 1 1 0.999758
1.00354 1.01101 0.993489 0.999116
0.998457 1.00022 0.999148 0.999094
1.00082 1 1.00159 0.999234
1.00269 1 1.00349 0.999201
1.00107 1 1.00176 0.999307
0.999449 1 1 0.999449
0.999527 1 1 0.999527
0.999527 1 1 0.999527
1.00084 1.01039 0.991507 0.999039
0.999452 1 1 0.999452
0.999439 1 1.00009 0.999348
1.00528 1 1.00605 0.999233
1.00384 1 1.00462 0.999229
0.99827 1.01062 0.988597 0.999175
1.01629 1 1.01692 0.999375
1.00008 1 1.00078 0.999296
0.999464 1 1 0.999464
0.999352 1 1 0.999352
1.0212 1.02164 0.999768 0.999796
0.97134 0.974718 0.997128 0.999405
0.93575 0.949632 0.986822 0.99854
0.999394 1 1 0.999394
1.00728 1 1.00783 0.999458
0.994163 1 0.994794 0.999366
0.972084 0.974904 0.997664 0.999442
0.974067 0.972492 1.00573 0.995911
0.997674 0.996027 1.00272 0.998933
1.00565 1.002 1.00481 0.998837
0.952244 0.973177 0.980624 0.997824
1.01436 1.01701 0.997703 0.999685
0.988053 1.0102 0.978607 0.999461
0.999702 1 1.00014 0.999566
1.0204 1.02068 0.999921 0.999804
1.02467 1.02785 0.997088 0.999819
1.00817 0.999985 1.00858 0.999612
0.998657 0.99391 1.00548 0.999304
0.984885 0.981586 1.0075 0.995894
0.993738 1.0178 0.976853 0.999498
0.969532 0.986282 0.984617 0.998375
0.999975 1 1.00026 0.999711
1.02481 1.02658 0.998346 0.999933
1.02714 1.02994 0.997446 0.999837
0.994965 1.01534 0.980443 0.999484
1.00553 0.993911 1.01185 0.999839
0.982734 0.980209 1.00632 0.996281
0.964113 0.980755 0.984339 0.998671
0.999703 1 1.00027 0.999436
1.00053 1 1.00109 0.999435
1.00312 1 1.00355 0.99957
0.999616 1 1 0.999616
0.999505 1 1 0.999505
1.00079 1 1.00138 0.999411
0.999541 1 1 0.999541
0.999749 1 1.00033 0.999424
1.00071 1 1.00126 0.999443
0.999865 1 1.00035 0.999511
0.999454 1 1 0.999454
0.999553 1 1 0.999553
0.99958 1 1 0.99958
0.999522 1 1 0.999522
0.999487 1 1 0.999487
0.999491 1 1 0.999491
0.99946 1 1 0.99946
0.99947 1 1 0.99947
1.00005 1 1.00071 0.999341
0.999484 1 1 0.999484
0.99946 1 1 0.99946
0.999338 1 1 0.999338
0.999439 1 1 0.999439
0.999547 1 1 0.999547
0.999429 1 1 0.999429
0.999624 1 1 0.999624
0.999553 1 1 0.999553
0.999541 1 1 0.999541
0.999552 1 1 0.999552
0.999633 1 1 0.999633
0.999781 1 1 0.999781
0.999662 1 1 0.999662
0.999806 1 1 0.999806
0.999977 1 1 0.999977
0.999826 1 1 0.999826
0.999981 1 1 0.999981
1 1 1 1
0.999984 1 1 0.999984
1 1 1 1
1 1 1 1
1 1 1 1
1 1 1 1
1 1 1 1
0.999821 1 1 0.999821
0.999975 1 1 0.999975
0.999874 1 1 0.999874
1 1 1 1
0.99999 1 1 0.99999
0.999881 1 1 0.999881
1 1 1 1
1 1 1 1
1 1 1 1
1 1 1 1
1 1 1 1
1 1 1 1
1.02012 1.02069 0.999662 0.999783
0.966112 0.9734 0.993206 0.999302
0.936867 0.947261 0.991105 0.997904
0.999673 1 1 0.999673
1.02625 1.02905 0.997425 0.999854
1.01433 1.01819 0.996538 0.99967
0.950829 0.968619 0.982451 0.999169
0.99574 0.999225 0.997683 0.998827
0.971817 0.971501 1.00403 0.996307
0.934921 0.958044 0.977253 0.998579
0.970751 0.995015 0.976415 0.99918
1.00103 1.00739 0.995246 0.998439
0.972306 0.971505 1.00472 0.996118
0.960209 0.979192 0.982277 0.998306
0.990992 1.0146 0.977303 0.999418
0.992586 0.998571 0.995861 0.998137
0.977344 0.974692 1.0075 0.995253
0.969962 0.988849 0.982892 0.997973
0.99137 1.01604 0.976296 0.999412
0.99952 1 1 0.99952
0.999581 1 1 0.999581
0.999682 1 1 0.999682
0.999594 1 1 0.999594
0.999622 1 1 0.999622
0.999691 1 1 0.999691
0.99972 1 1 0.99972
0.999752 1 1 0.999752
0.999043 1.00784 0.992208 0.999054
1.0039 1 1.0047 0.999199
0.999528 1 1 0.999528
1.0036 1 1.00438 0.99923
0.999513 1 1.00017 0.999346
0.99946 1 1 0.99946
0.999466 1 1 0.999466
1.00123 1.00979 0.992343 0.999184
0.999361 1 1 0.999361
1.00089 1 1.0016 0.99929
1.01507 1 1.01573 0.999357
0.999466 1 1 0.999466
1.00034 1.00289 0.997909 0.999547
1.01309 1 1.01363 0.999463
0.999363 1 1 0.999363
0.999404 1 1 0.999404
1.02475 1.02551 0.999312 0.999939
1.02062 1.02111 0.999723 0.9998
0.972192 0.9741 0.998555 0.999485
0.999579 1 1 0.999579
1.00865 0.999979 1.00917 0.999507
1.02053 1.0207 0.999995 0.999838
0.980704 0.976555 1.00831 0.995973
1.0016 0.996018 1.00716 0.998452
0.968749 0.987088 0.983388 0.997999
1.02534 1.02881 0.996807 0.999821
0.997365 1.02222 0.976103 0.999569
1.00015 1 1.00047 0.999678
1.02556 1.02739 0.998278 0.999932
1.02719 1.02976 0.997638 0.999865
1.00678 0.995116 1.01179 0.999931
0.991391 1.01343 0.978824 0.999418
0.981179 0.981165 1.00358 0.996448
0.965238 0.983746 0.983253 0.997898
1.00643 0.998084 1.0086 0.999771
1.02165 1.02359 0.998144 0.999952
1.02713 1.0293 0.998035 0.999851
0.972323 0.996535 0.976432 0.999254
0.968695 0.987406 0.983036 0.99798
1.00261 0.992098 1.01044 1.00015
0.977955 0.975607 1.00627 0.996161
1.00029 1 1.00089 0.999399
1.00223 1 1.00268 0.999555
1.0122 1 1.01262 0.999581
0.999543 1 1 0.999543
0.999788 1 1.00037 0.999422
1.00096 1 1.00154 0.999419
0.999454 1 1 0.999454
0.999941 1 1.00043 0.999508
1.00283 1 1.00337 0.999453
0.999488 1 1 0.999488
0.999494 1 1 0.999494
0.99963 1 1.00018 0.999451
1.00164 1 1.00231 0.999339
0.999492 1 1 0.999492
0.999799 1 1.00044 0.999361
1.00046 1 1.00123 0.999237
0.999301 1 1 0.999301
0.999457 1 1 0.999457
0.99932 1 1 0.99932
0.999492 1 1 0.999492
0.999529 1 1 0.999529
0.999454 1 1 0.999454
0.999622 1 1 0.999622
0.999545 1 1 0.999545
0.999431 1 1 0.999431
0.999758 1 1 0.999758
0.99962 1 1 0.99962
0.999546 1 1 0.999546
0.999643 1 1 0.999643
0.999781 1 1 0.999781
0.999968 1 1 0.999968
0.999806 1 1 0.999806
0.999975 1 1 0.999975
1 1 1 1
0.99998 1 1 0.99998
1 1 1 1
1 1 1 1
1 1 1 1
1 1 1 1
1 1 1 1
0.999794 1 1 0.999794
0.999959 1 1 0.999959
0.999831 1 1 0.999831
1 1 1 1
0.999974 1 1 0.999974
0.999873 1 1 0.999873
1 1 1 1
1 1 1 1
0.999981 1 1 0.999981
1 1 1 1
1 1 1 1
1 1 1 1
1.02577 1.02675 0.999119 0.999929
1.01998 1.02073 0.999473 0.999785
0.967332 0.973498 0.994356 0.999307
0.999678 1 1 0.999678
0.999647 1 1 0.999647
0.999596 1 1 0.999596
1.0262 1.02913 0.997318 0.999837
1.02699 1.02943 0.997777 0.999856
1.01621 1.01861 0.997973 0.999673
1.00748 1.01109 0.997252 0.999183
0.972552 0.971001 1.00554 0.996081
0.956399 0.975838 0.982218 0.997822
0.992297 1.01672 0.976505 0.999458
0.989206 0.996777 0.993471 0.998927
0.977615 0.974745 1.00692 0.996053
0.97206 0.988595 0.984559 0.998694
0.993896 1.01927 0.9756 0.999489
0.981648 0.989904 0.992641 0.999011
0.981667 0.976985 1.00863 0.996195
0.969413 0.984761 0.985784 0.998611
0.99459 1.01661 0.978799 0.999531
0.999502 1 1 0.999502
0.999519 1 1 0.999519
0.999574 1 1 0.999574
0.999592 1 1 0.999592
0.999636 1 1 0.999636
0.999724 1 1 0.999724
1.00477 1.00883 0.996786 0.999192
1.01376 1 1.01443 0.99934
0.999467 1 1 0.999467
1.0016 1 1.00231 0.999284
0.99937 1 1 0.99937
0.999463 1 1 0.999463
0.999401 1 1 0.999401
1.0023 1.0039 0.998868 0.999537
0.999379 1 1 0.999379
1.01281 0.999222 1.01412 0.999487
0.999435 1 1 0.999435
1.01769 0.996742 1.02127 0.999754
0.998293 0.998233 1.00044 0.999625
0.999378 1 1 0.999378
1.0188 1.01982 0.99904 0.999966
1.02395 1.02482 0.99921 0.999944
1.02002 1.02057 0.99965 0.999804
1.00035 1 1.00071 0.999645
1.00269 0.994785 1.00796 0.999986
1.02625 1.02815 0.998226 0.999932
0.98823 0.984707 1.0058 0.997789
0.973111 0.988253 0.985899 0.998761
1.0275 1.02966 0.998015 0.999893
0.993274 1.01567 0.97848 0.99946
1.00536 0.998716 1.00687 0.999788
1.02109 1.02267 0.998493 0.999956
1.02804 1.02969 0.998548 0.999853
1.0038 0.990936 1.01377 0.999219
0.972413 0.997177 0.975896 0.999252
0.97019 0.987129 0.984124 0.998695
0.98153 0.978126 1.00716 0.996349
1.02513 0.999516 1.02574 0.999889
1.02577 1.02654 0.999325 0.999928
1.01461 1.01821 0.996799 0.999662
0.932368 0.961125 0.970994 0.99906
0.957536 0.977572 0.980775 0.998704
0.987346 0.980777 1.01049 0.99625
0.983308 0.989095 0.995195 0.998949
1.00121 1 1.00167 0.999541
1.01327 1 1.01369 0.999586
1.0195 1 1.01998 0.999533
0.999454 1 1 0.999454
1.00006 1 1.00055 0.999506
1.00226 1 1.00281 0.999461
1.01032 1 1.01099 0.999337
0.999762 1 1.00032 0.999443
1.00191 1 1.00259 0.999318
1.00525 1 1.00609 0.999164
0.999548 1 1.00017 0.999381
1.0009 1 1.00167 0.999233
1.00143 1 1.00229 0.999146
0.99921 1 1 0.99921
0.99943 1 1 0.99943
0.999369 1 1.00008 0.999287
0.999302 1 1 0.999302
0.999547 1 1 0.999547
0.999508 1 1 0.999508
0.999593 1 1 0.999593
0.999539 1 1 0.999539
0.999468 1 1 0.999468
0.999739 1 1 0.999739
0.999623 1 1 0.999623
0.999543 1 1 0.999543
0.999955 1 1 0.999955
0.999759 1 1 0.999759
0.999616 1 1 0.999616
0.999781 1 1 0.999781
0.999966 1 1 0.999966
1 1 1 1
0.999973 1 1 0.999973
1 1 1 1
1 1 1 1
1 1 1 1
1 1 1 1
1 1 1 1
0.999791 1 1 0.999791
0.999973 1 1 0.999973
0.999803 1 1 0.999803
1 1 1 1
0.999973 1 1 0.999973
0.999842 1 1 0.999842
1 1 1 1
1 1 1 1
0.999974 1 1 0.999974
1 1 1 1
1 1 1 1
1 1 1 1
1.02198 1.02359 0.998468 0.999951
1.02612 1.02718 0.999037 0.999929
1.01972 1.02078 0.999175 0.999788
0.999636 1 1 0.999636
0.999582 1 1 0.999582
0.999682 1 1 0.999682
0.999645 1 1 0.999645
0.999585 1 1 0.999585
0.999576 1 1 0.999576
0.999529 1 1 0.999529
1.02251 1.02497 0.997775 0.999816
1.02648 1.02927 0.997419 0.999864
1.02738 1.02982 0.997777 0.999857
0.997284 1.02316 0.975135 0.999566
0.991324 1.00058 0.992578 0.998161
0.98003 0.975927 1.00742 0.996805
0.971695 0.98519 0.988414 0.997863
0.984139 0.990115 0.995397 0.998561
0.982352 0.979055 1.00728 0.996115
0.970444 0.987875 0.984433 0.997889
0.989797 1.01235 0.978282 0.99943
0.978534 0.983465 0.995659 0.999324
0.975977 0.980456 0.999383 0.996046
0.983512 0.996428 0.988302 0.998721
0.978927 1.00144 0.978116 0.999387
0.999485 1 1 0.999485
0.9995 1 1 0.9995
0.999519 1 1 0.999519
0.999591 1 1 0.999591
1.00357 1.00489 0.999156 0.999528
1.01281 0.99836 1.01497 0.999511
0.99946 1 1 0.99946
0.999397 1 1 0.999397
0.999394 1 1 0.999394
0.999437 1 1 0.999437
0.99937 1 1 0.99937
1.00869 0.994635 1.01438 0.999758
0.999191 0.999086 1.00044 0.999667
0.99939 1 1 0.99939
1.01887 0.99025 1.02896 0.999944
1.00337 1 1.00395 0.999418
1.02525 1.02568 0.999645 0.999937
1.01636 1.01722 0.999185 0.999971
1.02325 1.02413 0.999198 0.99995
1.00422 0.999308 1.00511 0.999805
1.00516 0.99091 1.01428 1.0001
1.02052 1.02179 0.998792 0.999959
0.977912 0.975536 1.00629 0.996167
0.968693 0.983068 0.987475 0.997876
1.0285 1.03007 0.998619 0.999855
0.970712 0.994755 0.976619 0.999193
1.02711 0.998654 1.02863 0.999873
1.02602 1.02692 0.999189 0.999928
1.01578 1.01859 0.997571 0.999665
0.987845 0.991766 0.996101 0.999946
0.928221 0.961185 0.966658 0.999014
0.9565 0.976267 0.981386 0.998335
0.989273 0.980934 1.01203 0.996515
1.01405 0.998259 1.01598 0.999835
1.02059 1.02078 1.00004 0.999778
0.958039 0.969727 0.988609 0.999331
0.927503 0.949961 0.97779 0.998536
0.98039 0.976101 1.00831 0.996119
0.982626 0.991071 0.992934 0.998535
1.01446 1 1.01487 0.99959
1.02018 1 1.02066 0.99953
1.01543 1 1.016 0.999437
1.00177 1 1.0023 0.999469
1.01076 1 1.01141 0.999356
1.0081 1 1.00894 0.99916
1.0023 1 1.003 0.999297
1.00526 1 1.00612 0.999145
1.00302 1 1.00398 0.999049
1.00136 1 1.00214 0.99923
1.0013 1 1.00217 0.999128
1.0008 1 1.0017 0.999099
0.999191 1 1 0.999191
0.999328 1 1 0.999328
0.999294 1 1.0001 0.999194
0.999513 1 1 0.999513
0.999441 1 1 0.999441
0.999434 1 1.00016 0.999273
0.999575 1 1 0.999575
0.999543 1 1 0.999543
0.999524 1 1 0.999524
0.999709 1 1 0.999709
0.999601 1 1 0.999601
0.999549 1 1 0.999549
0.999933 1 1 0.999933
0.99974 1 1 0.99974
0.999624 1 1 0.999624
1 1 1 1
0.999953 1 1 0.999953
0.99976 1 1 0.99976
0.999963 1 1 0.999963
1 1 1 1
1 1 1 1
1 1 1 1
1 1 1 1
1 1 1 1
0.999636 1 1 0.999636
0.999768 1 1 0.999768
0.999964 1 1 0.999964
0.999791 1 1 0.999791
1 1 1 1
0.999976 1 1 0.999976
0.999812 1 1 0.999812
1 1 1 1
1 1 1 1
0.999987 1 1 0.999987
1 1 1 1
1 1 1 1
1 1 1 1
1.02531 1.02606 0.999336 0.999931
1.02151 1.02273 0.998852 0.999954
1.02648 1.02761 0.998978 0.999929
0.99964 1 1 0.99964
0.999575 1 1 0.999575
0.999559 1 1 0.999559
0.999569 1 1 0.999569
0.999542 1 1 0.999542
0.999643 1 1 0.999643
0.999574 1 1 0.999574
0.999577 1 1 0.999577
0.999528 1 1 0.999528
0.999528 1 1 0.999528
1.01463 1.0158 0.999178 0.999671
1.02339 1.02615 0.997493 0.999818
1.02645 1.02917 0.997465 0.999892
0.987996 1.01031 0.978464 0.99944
0.976366 0.99038 0.987109 0.998725
0.983315 0.98866 0.996425 0.998162
0.979105 0.980183 1.0027 0.99621
0.982502 0.983679 1.00035 0.998455
0.979944 0.979262 1.00455 0.996166
0.974292 0.990429 0.985361 0.998321
0.973798 0.999094 0.975327 0.999338
0.998603 0.982295 1.01795 0.998677
0.979026 0.981394 1.0013 0.996287
0.951873 0.974531 0.978861 0.997844
0.93944 0.971145 0.968264 0.999059
0.999561 1 1 0.999561
0.999486 1 1 0.999486
0.999498 1 1 0.999498
1.00056 0.993012 1.00784 0.999762
1.00012 1 1.00041 0.999712
0.999439 1 1 0.999439
0.999361 1 1 0.999361
0.999431 1 1.00003 0.999398
1.00386 1 1.00444 0.999417
1.01857 0.991814 1.02703 0.999945
1.00379 1 1.00435 0.999438
1.01136 0.997656 1.01406 0.999681
1.02061 1.02082 1 0.999789
1.02439 1.02487 0.999593 0.999943
1.01388 1.01464 0.999277 0.999976
1.02892 0.99783 1.03131 0.999855
0.986582 0.990839 0.99692 0.998779
1.0263 1.0273 0.999098 0.999928
0.981197 0.979075 1.00686 0.995339
0.954136 0.974127 0.981561 0.997877
1.01757 1.01898 0.998948 0.999668
0.924694 0.961527 0.962687 0.998968
1.01441 0.998611 1.01598 0.999838
1.02054 1.02087 0.999899 0.999781
0.954755 0.967427 0.987604 0.999289
0.979568 0.990168 0.990256 0.999029
0.930284 0.953958 0.977299 0.997836
0.980361 0.977163 1.00765 0.995657
0.99586 0.998096 0.998109 0.99965
0.971206 0.974061 0.997607 0.999461
0.924316 0.944355 0.980955 0.997783
0.974952 0.973122 1.00585 0.996051
0.998175 0.996976 1.00218 0.999029
1.02042 1 1.02091 0.999527
1.01798 1 1.01855 0.999435
0.998078 1 0.998797 0.99928
1.01102 1 1.01165 0.999375
1.00761 1 1.00844 0.999175
1.00163 1 1.00255 0.999082
1.00513 1 1.00601 0.999127
1.00266 1 1.00362 0.999052
0.999156 1 1.00003 0.999122
1.00115 1 1.00204 0.99911
1.00039 1 1.00128 0.999106
0.999206 1 1 0.999206
0.999275 1 1 0.999275
0.999272 1 1 0.999272
0.999196 1 1 0.999196
0.999433 1 1 0.999433
0.999308 1 1 0.999308
0.999382 1 1.0002 0.999177
0.999579 1 1 0.999579
0.999525 1 1 0.999525
0.999451 1 1 0.999451
0.999676 1 1 0.999676
0.999577 1 1 0.999577
0.999538 1 1 0.999538
0.999902 1 1 0.999902
0.999709 1 1 0.999709
0.999608 1 1 0.999608
1 1 1 1
0.999932 1 1 0.999932
0.99974 1 1 0.99974
1 1 1 1
1 1 1 1
0.99995 1 1 0.99995
1 1 1 1
1 1 1 1
1 1 1 1
0.999612 1 1 0.999612
0.999746 1 1 0.999746
0.999631 1 1 0.999631
0.999956 1 1 0.999956
0.999768 1 1 0.999768
1 1 1 1
0.999967 1 1 0.999967
0.999791 1 1 0.999791
1 1 1 1
1 1 1 1
0.999979 1 1 0.999979
1 1 1 1
1 1 1 1
1 1 1 1
1.01935 1.01953 1 0.999823
1.0263 1.02708 0.999312 0.999931
1.02102 1.0219 0.999182 0.999958
0.999566 1 1 0.999566
0.999645 1 1 0.999645
0.999568 1 1 0.999568
0.999577 1 1 0.999577
0.999566 1 1 0.999566
0.999541 1 1 0.999541
0.999522 1 1 0.999522
0.999525 1 1 0.999525
0.999578 1 1 0.999578
0.999526 1 1 0.999526
0.999527 1 1 0.999527
0.999517 1 1 0.999517
0.95611 0.971634 0.984849 0.99916
1.01368 1.01496 0.99907 0.999674
1.02461 1.02757 0.997295 0.99982
0.967042 0.994623 0.973017 0.999232
0.975738 0.992587 0.985029 0.997966
0.974827 0.979626 0.999038 0.996059
0.985058 0.980777 1.00496 0.999408
0.997824 0.980753 1.01782 0.999593
0.933531 0.966471 0.966867 0.999017
0.981861 0.980301 1.00587 0.995744
0.953378 0.974651 0.979485 0.99866
0.993307 0.989225 1.00456 0.999563
0.97735 0.975765 1.00524 0.996404
0.928649 0.950328 0.978604 0.998553
1.00009 1 1.00041 0.999681
0.999562 1 1 0.999562
0.999487 1 1 0.999487
1.01807 0.993337 1.02496 0.999944
1.00448 1 1.00506 0.999416
0.999457 1 1.00005 0.999406
1.00408 1 1.00465 0.99944
1.01089 0.998705 1.01251 0.999691
1.00907 1 1.00939 0.999688
0.970133 0.974754 0.995991 0.999265
1.02033 1.02053 0.999986 0.999824
1.02362 1.02407 0.999616 0.999949
1.01479 0.999009 1.01596 0.999843
0.980945 0.992234 0.989232 0.999384
1.0204 1.02097 0.999666 0.999783
0.982932 0.978346 1.00782 0.996888
0.934058 0.956766 0.977648 0.998587
0.949918 0.967711 0.982425 0.999173
0.995499 0.998715 0.997112 0.999666
0.965502 0.973099 0.992884 0.999305
0.932053 0.945056 0.987649 0.998575
0.998329 0.99536 1.00476 0.998227
0.976408 0.975554 1.00478 0.996116
0.99167 1.00607 0.986209 0.999465
0.932874 0.947027 0.986449 0.998588
0.973446 0.97317 1.00401 0.996287
1.00191 1.00352 1.00028 0.998118
1.02134 1 1.02192 0.999433
0.995701 1 0.996406 0.999292
0.991058 1.00019 0.991598 0.999262
1.00732 1 1.00814 0.99919
1.0016 1 1.00252 0.999085
0.999544 1.00029 1 0.999253
1.00234 1 1.00329 0.999054
0.999429 1 1.0003 0.999133
0.999342 1 1 0.999342
0.999971 1 1.00086 0.999113
0.999211 1 1 0.999211
0.999385 1 1 0.999385
0.999411 1 1 0.999411
0.999306 1 1 0.999306
0.999289 1 1 0.999289
0.999367 1 1 0.999367
0.999284 1 1 0.999284
0.999202 1 1 0.999202
0.999543 1 1 0.999543
0.999432 1 1 0.999432
0.999288 1 1 0.999288
0.99966 1 1 0.99966
0.999578 1 1 0.999578
0.999538 1 1 0.999538
0.999863 1 1 0.999863
0.999677 1 1 0.999677
0.999579 1 1 0.999579
1 1 1 1
0.999901 1 1 0.999901
0.999709 1 1 0.999709
1 1 1 1
1 1 1 1
0.999931 1 1 0.999931
1 1 1 1
1 1 1 1
1 1 1 1
0.999619 1 1 0.999619
0.999615 1 1 0.999615
0.999723 1 1 0.999723
0.999944 1 1 0.999944
0.999746 1 1 0.999746
0.999626 1 1 0.999626
1 1 1 1
0.999958 1 1 0.999958
0.999768 1 1 0.999768
1 1 1 1
1 1 1 1
0.999969 1 1 0.999969
1 1 1 1
1 1 1 1
1 1 1 1
0.970648 0.973684 0.997473 0.999408
1.01935 1.01953 1 0.999825
1.02725 1.02804 0.999304 0.999931
0.99956 1 1 0.99956
0.999573 1 1 0.999573
0.999534 1 1 0.999534
0.999584 1 1 0.999584
0.999572 1 1 0.999572
0.999541 1 1 0.999541
0.999527 1 1 0.999527
0.999524 1 1 0.999524
0.99949 1 1 0.99949
0.99952 1 1 0.99952
0.999527 1 1 0.999527
0.999518 1 1 0.999518
0.932138 0.946762 0.985932 0.998602
0.956286 0.969945 0.986723 0.999184
1.01299 1.01426 0.99907 0.999676
0.927866 0.962252 0.965254 0.998975
0.950709 0.971406 0.980802 0.997851
0.98932 0.985195 1.00712 0.997083
1.00382 0.980899 1.02477 0.998634
0.993993 0.989446 1.00595 0.99865
0.931597 0.952161 0.980488 0.997874
0.981642 0.979085 1.00593 0.996705
0.994841 0.990983 1.00521 0.998685
0.977046 0.975734 1.00505 0.996315
1.00769 1 1.00819 0.99951
0.999943 1 1.00027 0.999677
0.999563 1 1 0.999563
1.00984 0.999257 1.0109 0.999702
1.00438 1 1.00494 0.999443
1.00884 1 1.00918 0.999662
1.0016 1.00067 1.00146 0.999464
0.933097 0.950695 0.983065 0.998398
0.971037 0.974297 0.99728 0.999373
1.01995 1.02018 0.999918 0.999859
0.994111 0.998978 0.995443 0.999684
0.999493 0.99475 1.00575 0.99902
0.966782 0.973404 0.993885 0.999309
0.976973 0.973931 1.00706 0.996092
0.928642 0.945831 0.983968 0.997824
0.993406 1.0059 0.988121 0.999456
0.933927 0.947352 0.987646 0.99816
0.973539 0.972148 1.00529 0.996159
1.00242 1.00071 1.0028 0.998904
1.00972 1.01158 0.998905 0.999256
0.962767 0.967187 0.999772 0.995657
0.998404 1.00177 0.997484 0.999152
0.993347 1 0.99404 0.999304
0.992708 1.00024 0.993213 0.999249
0.994018 1.0009 0.993802 0.999315
1.00151 1 1.00243 0.999089
0.999559 1.0004 0.999906 0.99925
1.00036 1.00144 0.999403 0.999521
0.999718 1 1.00058 0.999143
0.999345 1 1 0.999344
0.99982 1.00029 1 0.999533
0.999217 1 1 0.999217
0.999385 1 1 0.999385
0.999506 1 1 0.999506
0.999482 1 1 0.999482
0.999426 1 1 0.999426
0.999399 1 1 0.999399
0.999363 1 1 0.999363
0.999308 1 1 0.999308
0.999304 1 1 0.999304
0.999464 1 1 0.999464
0.999382 1 1 0.999382
0.999297 1 1 0.999297
0.999637 1 1 0.999637
0.999541 1 1 0.999541
0.999431 1 1 0.999431
0.99983 1 1 0.99983
0.999661 1 1 0.999661
0.999577 1 1 0.999577
1 1 1 1
0.999863 1 1 0.999863
0.999679 1 1 0.999679
1 1 1 1
1 1 1 1
0.9999 1 1 0.9999
1 1 1 1
1 1 1 1
1 1 1 1
0.99961 1 1 0.99961
0.99961 1 1 0.99961
0.999702 1 1 0.999702
0.999618 1 1 0.999618
0.999722 1 1 0.999722
0.999923 1 1 0.999923
1 1 1 1
0.999945 1 1 0.999945
0.999745 1 1 0.999745
1 1 1 1
1 1 1 1
0.999959 1 1 0.999959
1 1 1 1
1 1 1 1
1 1 1 1
0.940035 0.949079 0.992471 0.997985
0.968559 0.973813 0.995282 0.99932
1.01938 1.01956 1 0.999828
0.999555 1 1 0.999555
0.99953 1 1 0.99953
0.999578 1 1 0.999578
0.999573 1 1 0.999573
0.999536 1 1 0.999536
0.999528 1 1 0.999528
0.999525 1 1 0.999525
0.999493 1 1 0.999493
0.999517 1 1 0.999517
0.999484 1 1 0.999484
0.999634 1 1.00026 0.999377
0.999517 1 1 0.999517
0.999519 1 1 0.999519
0.972682 0.97684 1.00011 0.995634
0.937216 0.949043 0.989242 0.998278
0.956029 0.969675 0.98679 0.999125
0.933472 0.952877 0.980988 0.99862
0.978486 0.975506 1.00763 0.995457
0.997154 0.990662 1.00697 0.999583
0.996886 0.993363 1.00439 0.999157
0.977404 0.977197 1.00379 0.996434
0.99187 0.998958 0.994196 0.9987
1.0061 1.00132 1.0057 0.99908
1.00616 1 1.00666 0.999499
0.999672 1 1 0.999672
1.00768 1 1.00804 0.999639
1.00063 1.00095 1.00017 0.999506
0.956035 0.965271 0.994046 0.996364
0.936359 0.94996 0.987762 0.997894
0.972365 0.973931 0.998909 0.999482
0.994993 1.00603 0.989577 0.999446
1.00684 1.00447 1.00424 0.998132
0.937315 0.947414 0.991436 0.997887
0.974089 0.971796 1.00611 0.99627
1.00361 1.01063 0.993801 0.999249
0.965173 0.968796 0.999839 0.996422
0.99932 1.00389 0.997077 0.998362
1.00251 1.01034 0.993166 0.999075
0.998193 0.994812 1.00397 0.999436
0.99317 1.00026 0.993673 0.999235
0.99459 1.00079 0.9945 0.999301
1.00068 1.00596 0.995358 0.999387
0.999435 1.00045 0.999738 0.999247
0.999559 1.0009 0.999144 0.999515
1.00046 1.0018 0.99908 0.999578
0.999358 1.00001 1 0.999345
0.999684 1.00017 0.999994 0.999523
0.999855 1.00032 0.999987 0.999546
0.999385 1 1 0.999385
0.999499 1 1 0.999499
0.999496 1 1 0.999496
0.999498 1 1 0.999498
0.999441 1 1 0.999441
0.999441 1 1 0.999441
0.999396 1 1 0.999396
0.999392 1 1 0.999392
0.999421 1 1 0.999421
0.99936 1 1 0.99936
0.99931 1 1 0.99931
0.99959 1 1 0.99959
0.999473 1 1 0.999473
0.999396 1 1 0.999396
0.999805 1 1 0.999805
0.999636 1 1 0.999636
0.999539 1 1 0.999539
0.999999 1 1 0.999999
0.999831 1 1 0.999831
0.999661 1 1 0.999661
1 1 1 1
1 1 1 1
0.999862 1 1 0.999862
1 1 1 1
1 1 1 1
1 1 1 1
0.99959 1 1 0.99959
0.999611 1 1 0.999611
0.999672 1 1 0.999672
0.999601 1 1 0.999601
0.999694 1 1 0.999694
0.999891 1 1 0.999891
0.999722 1 1 0.999722
0.999923 1 1 0.999923
1 1 1 1
1 1 1 1
1 1 1 1
0.999946 1 1 0.999946
1 1 1 1
1 1 1 1
1 1 1 1
0.966842 0.970669 0.999646 0.99641
0.93598 0.951555 0.985109 0.998501
0.971372 0.97456 0.997347 0.999381
0.999527 1 1 0.999527
0.999584 1 1 0.999584
0.99954 1 1 0.99954
0.999573 1 1 0.999573
0.999547 1 1 0.999547
0.999553 1 1 0.999553
0.999497 1 1 0.999497
0.999505 1 1 0.999505
0.999481 1 1 0.999481
0.99949 1 1 0.99949
0.999407 1 1 0.999407
0.999194 1 1.00011 0.99908
0.999443 1 1.00006 0.999386
0.999514 1 1 0.999514
0.989992 0.994079 0.996906 0.99898
0.971167 0.973864 1.00095 0.996283
0.931186 0.948726 0.98364 0.997836
0.975645 0.97509 1.00435 0.996234
0.992652 0.991799 1.00124 0.999619
0.992787 0.997044 0.996317 0.999412
0.997219 1.00473 0.993324 0.999192
1.00317 1.00065 1.00337 0.999144
1.00511 1 1.00563 0.999488
0.998555 1.00108 0.997932 0.999546
0.98724 0.986386 1.00234 0.998531
0.962601 0.966874 0.99904 0.996537
0.934787 0.950256 0.985122 0.998578
1.00007 1.00962 0.991289 0.999243
1.00577 1.00739 0.999364 0.999025
0.966443 0.96849 1.00067 0.997214
0.999164 1.00818 0.991955 0.999095
0.994951 0.995362 1.00047 0.999119
0.997574 1.01062 0.987897 0.999179
1.0075 1.00585 1.00249 0.999155
0.995936 1.00066 0.995989 0.999287
1.00063 1.00556 0.995709 0.999387
1.00175 1.00507 0.997308 0.999385
0.999078 1.00053 0.999038 0.99951
1.00031 1.00152 0.999214 0.99957
1.00013 1.00091 0.999799 0.999424
0.999514 1 1 0.999513
0.999681 1.00014 1 0.999538
0.999412 1 1 0.999412
0.999493 1 1 0.999493
0.999501 1 1 0.999501
0.999408 1 1 0.999408
0.999515 1 1 0.999515
0.99945 1 1 0.99945
0.999398 1 1 0.999398
0.999393 1 1 0.999393
0.999389 1 1 0.999389
0.999424 1 1 0.999424
0.999527 1 1 0.999527
0.999431 1 1 0.999431
0.999357 1 1 0.999357
0.999768 1 1 0.999768
0.99959 1 1 0.99959
0.999483 1 1 0.999483
0.999995 1 1 0.999995
0.999804 1 1 0.999804
0.999635 1 1 0.999635
1 1 1 1
0.999999 1 1 0.999999
0.999831 1 1 0.999831
1 1 1 1
1 1 1 1
1 1 1 1
0.999569 1 1 0.999569
0.999596 1 1 0.999596
0.999655 1 1 0.999655
0.999612 1 1 0.999612
0.99967 1 1 0.99967
0.999856 1 1 0.999856
0.999686 1 1 0.999686
0.999892 1 1 0.999892
1 1 1 1
0.999924 1 1 0.999924
1 1 1 1
1 1 1 1
1 1 1 1
1 1 1 1
1 1 1 1
0.98364 0.986272 0.998412 0.998918
0.960833 0.967849 0.996373 0.996366
0.93385 0.951292 0.983776 0.997854
0.999497 1 1 0.999497
0.999543 1 1 0.999543
0.999574 1 1 0.999574
0.999552 1 1 0.999552
0.999544 1 1 0.999544
0.999586 1 1 0.999586
0.999494 1 1 0.999494
0.999479 1 1 0.999479
0.999503 1 1 0.999503
0.999433 1 1 0.999433
0.99922 1 1 0.99922
1.00175 1.0029 1 0.998853
0.999212 1 1.00013 0.999084
0.999395 1 1 0.999395
0.999235 1.00392 0.996051 0.99928
0.990805 0.995444 0.99671 0.998625
0.972836 0.974818 1.00098 0.996994
0.99545 0.998469 0.998312 0.998662
1.00161 1.00582 0.996685 0.999128
1.00163 1.00011 1.00231 0.99921
0.999895 1.00043 1.00002 0.999446
0.988374 0.985341 1.0039 0.999182
0.959483 0.966694 0.996126 0.996401
0.994383 1.00592 0.989409 0.999112
0.992434 0.995471 0.998182 0.998765
0.99937 1.0106 0.989717 0.999159
1.00573 1.00513 1.00136 0.999239
1.00843 1.0098 0.999492 0.999142
1.00329 1.0042 1 0.999088
1.00042 1.00516 0.995899 0.999388
1.00297 1.00546 0.998138 0.999391
0.999607 1.00034 1 0.999265
1.00012 1.00117 0.999384 0.999563
1.00043 1.00105 0.999957 0.999422
0.999319 1.00005 1 0.999269
0.999529 1 1 0.999529
0.999431 1 1 0.999431
0.999304 1 1 0.999304
0.999507 1 1 0.999507
0.999408 1 1 0.999408
0.999353 1 1 0.999353
0.999459 1 1 0.999459
0.999402 1 1 0.999402
0.999399 1 1 0.999399
0.999386 1 1 0.999386
0.999418 1 1 0.999418
0.9995 1 1 0.9995
0.999723 1 1 0.999723
0.999537 1 1 0.999537
0.999441 1 1 0.999441
0.999984 1 1 0.999984
0.999767 1 1 0.999767
0.999589 1 1 0.999589
1 1 1 1
0.999992 1 1 0.999992
0.999804 1 1 0.999804
1 1 1 1
0.999998 1 1 0.999998
1 1 1 1
0.999524 1 1 0.999524
0.99957 1 1 0.99957
0.999639 1 1 0.999639
0.999602 1 1 0.999602
0.999659 1 1 0.999659
0.999825 1 1 0.999825
0.999667 1 1 0.999667
0.999856 1 1 0.999856
1 1 1 1
0.999892 1 1 0.999892
1 1 1 1
1 1 1 1
1 1 1 1
1 1 1 1
1 1 1 1
1.00068 1.0041 0.997094 0.999499
0.98332 0.987573 0.99744 0.998248
0.964175 0.968098 0.99949 0.996457
0.999524 1 1 0.999524
0.999389 1 1 0.999389
0.999505 1 1 0.999505
0.99955 1 1 0.99955
0.999541 1 1 0.999541
0.999574 1 1 0.999574
0.999291 1 1 0.999291
0.999516 1 1 0.999516
0.999459 1 1 0.999459
0.999229 1 1 0.999229
0.999584 1.00064 1 0.998948
1.00335 1.00477 0.999519 0.999073
1.00112 1.00226 1 0.998866
0.999088 1 1 0.999088
1.00134 1.00581 0.99624 0.999308
0.988842 0.994916 0.995681 0.998205
1.00437 1.00664 0.998674 0.999065
1.00021 1.00076 1 0.999456
1.00079 1.00016 1.00116 0.999473
0.986469 0.98512 1.00298 0.998394
1.00159 1.0109 0.99164 0.999141
1.00393 1.00434 1.00027 0.999325
1.00862 1.01029 0.999187 0.999159
1.00395 1.00484 1 0.999123
1.00144 1.00227 1 0.999168
1.00122 1.00191 1 0.999314
1.00422 1.00589 0.998947 0.999397
0.999751 1.00048 1 0.999271
0.999212 1.00004 1 0.999171
1.00058 1.00116 1 0.99942
0.999374 1.00009 1 0.99928
0.999206 1 1 0.999206
0.999449 1 1 0.999449
0.999303 1 1 0.999303
0.999265 1 1 0.999265
0.999409 1 1 0.999409
0.999353 1 1 0.999353
0.999352 1 1 0.999352
0.999405 1 1 0.999405
0.9994 1 1 0.9994
0.999468 1 1 0.999468
0.999411 1 1 0.999411
0.999496 1 1 0.999496
0.999682 1 1 0.999682
0.999967 1 1 0.999967
0.999723 1 1 0.999723
0.999547 1 1 0.999547
1 1 1 1
0.999979 1 1 0.999979
0.999767 1 1 0.999767
1 1 1 1
0.999989 1 1 0.999989
1 1 1 1
0.999436 1 1 0.999436
0.999514 1 1 0.999514
0.9996 1 1 0.9996
0.999571 1 1 0.999571
0.999639 1 1 0.999639
0.999798 1 1 0.999798
0.999663 1 1 0.999663
0.999825 1 1 0.999825
0.999999 1 1 0.999999
0.999856 1 1 0.999856
1 1 1 1
1 1 1 1
1 1 1 1
1 1 1 1
1 1 1 1
1.00069 1.00194 0.999381 0.999367
0.999603 1.00304 0.997079 0.999487
0.982993 0.986214 0.997882 0.998849
0.999342 1 1 0.999342
0.999571 1 1 0.999571
0.999249 1 1 0.999249
0.999382 1 1 0.999382
0.999514 1 1 0.999514
0.999782 1.00074 1 0.999046
0.999562 1 1 0.999562
0.999285 1 1 0.999285
1.00016 1.00114 1 0.999028
0.999238 1 1 0.999238
0.999699 1.00077 1 0.998925
1.0028 1.00407 0.999671 0.999067
1.00026 1.00138 1 0.998879
1.00304 1.00716 0.996578 0.999335
1.00043 1.00099 1 0.999442
1 1.00055 1 0.999453
1.00174 1 1.00224 0.999501
1.00889 1.01082 0.998911 0.999176
1.00482 1.00567 1 0.999157
1.00187 1.00271 1 0.999163
1.00169 1.00238 1 0.999313
1.00004 1.00078 1 0.999262
0.999903 1.00063 1 0.999278
0.999198 1.00002 1 0.999177
0.999169 1 1 0.999169
0.999433 1.00014 1 0.999292
0.999202 1 1 0.999202
0.999191 1 1 0.999191
0.999302 1 1 0.999302
0.999264 1 1 0.999264
0.99928 1 1 0.99928
0.999352 1 1 0.999352
0.999352 1 1 0.999352
0.999416 1 1 0.999416
0.9994 1 1 0.9994
0.999469 1 1 0.999469
0.999642 1 1 0.999642
0.999493 1 1 0.999493
0.999682 1 1 0.999682
0.99995 1 1 0.99995
1 1 1 1
0.999962 1 1 0.999962
0.999723 1 1 0.999723
1 1 1 1
0.999974 1 1 0.999974
1 1 1 1
0.999276 1 1 0.999276
0.999364 1 1 0.999364
0.999425 1 1 0.999425
0.999555 1 1 0.999555
0.999505 1 1 0.999505
0.999602 1 1 0.999602
0.999774 1 1 0.999774
0.999639 1 1 0.999639
0.999798 1 1 0.999798
0.999992 1 1 0.999992
0.999825 1 1 0.999825
0.999999 1 1 0.999999
1 1 1 1
1 1 1 1
1 1 1 1
1 1 1 1
1.00032 1.00104 1 0.99928
1.00194 1.00299 0.999567 0.999386
0.999264 1.00273 0.997069 0.999475
0.999332 1.00021 1 0.999125
0.999383 1 1 0.999383
0.999618 1 1 0.999618
0.999266 1 1 0.999266
0.999374 1 1 0.999374
1.00059 1.0016 1 0.998995
0.999691 1.00067 1 0.999026
0.999278 1 1 0.999278
1.00031 1.00129 1 0.999021
0.999797 1.0009 1 0.998903
1.00289 1.00404 0.99979 0.999061
1.00062 1.00126 1 0.999355
1.00028 1.00085 1 0.999431
0.999673 1.00022 1 0.99945
1.00217 1.00301 1 0.999158
1.00203 1.00272 1 0.999312
1.00004 1.00078 1 0.999263
0.999497 1.00027 1 0.999228
0.999192 1.00001 1 0.999182
0.999165 1 1 0.999165
0.999181 1 1 0.999181
0.999198 1 1 0.999198
0.99919 1 1 0.99919
0.999221 1 1 0.999221
0.999262 1 1 0.999262
0.999278 1 1 0.999278
0.999352 1 1 0.999352
0.999351 1 1 0.999351
0.999416 1 1 0.999416
0.999591 1 1 0.999591
0.99947 1 1 0.99947
0.999641 1 1 0.999641
0.999937 1 1 0.999937
0.999682 1 1 0.999682
0.999946 1 1 0.999946
1 1 1 1
1 1 1 1
0.999957 1 1 0.999957
1 1 1 1
0.999153 1 1 0.999153
0.99935 1 1 0.99935
0.999336 1 1 0.999336
0.999488 1 1 0.999488
0.999362 1 1 0.999362
0.999414 1 1 0.999414
0.999556 1 1 0.999556
0.999741 1 1 0.999741
0.999604 1 1 0.999604
0.999774 1 1 0.999774
0.999979 1 1 0.999979
0.999798 1 1 0.999798
0.999994 1 1 0.999994
1 1 1 1
1 1 1 1
1 1 1 1
1 1 1 1
1.00096 1.00178 1 0.999181
1.00028 1.001 1 0.999278
1.00283 1.00364 0.999796 0.999405
0.999911 1.00087 1 0.999041
0.999334 1.00021 1 0.999127
0.999424 1 1 0.999424
0.999283 1 1 0.999283
1.00064 1.00164 1 0.998995
0.999695 1.00069 1 0.999005
1.00043 1.00141 1 0.999015
1.00103 1.00176 1 0.99927
1.00065 1.00132 1 0.999332
1.00009 1.00067 1 0.999419
1.00025 1.00104 1 0.999206
1.00011 1.00085 1 0.999264
0.999567 1.00034 1 0.999226
0.999208 1 1 0.999208
0.999161 1 1 0.999161
0.999182 1 1 0.999182
0.999204 1 1 0.999204
0.999188 1 1 0.999188
0.999221 1 1 0.999221
0.999304 1 1 0.999304
0.999277 1 1 0.999277
0.999352 1 1 0.999352
0.999534 1 1 0.999534
0.999416 1 1 0.999416
0.99959 1 1 0.99959
0.999924 1 1 0.999924
0.999641 1 1 0.999641
0.999933 1 1 0.999933
1 1 1 1
0.999942 1 1 0.999942
1 1 1 1
1 1 1 1
0.999095 1.00002 1 0.999076
0.999228 1 1 0.999228
0.999175 1 1 0.999175
0.999441 1 1 0.999441
0.999349 1 1 0.999349
0.999396 1 1 0.999396
0.999678 1 1 0.999678
0.999487 1 1 0.999487
0.999361 1 1 0.999361
0.999557 1 1 0.999557
0.999741 1 1 0.999741
0.999963 1 1 0.999963
0.999774 1 1 0.999774
0.999983 1 1 0.999983
1 1 1 1
0.999997 1 1 0.999997
1 1 1 1
1 1 1 1
1.00055 1.0014 1 0.999151
1.00125 1.00209 1 0.999162
1.00034 1.00107 1 0.999277
0.999722 1.00069 1 0.999036
0.999331 1.0002 1 0.999129
1.00053 1.00154 1 0.998996
1.0012 1.002 1 0.999199
1.00117 1.0019 1 0.99927
1.0007 1.00139 1 0.999308
1.00006 1.00086 1 0.999207
0.999691 1.00051 1 0.999184
0.999624 1.0004 1 0.999225
0.999211 1 1 0.999208
0.999215 1 1 0.999215
0.999182 1 1 0.999182
0.999205 1 1 0.999205
0.99928 1 1 0.99928
0.999221 1 1 0.999221
0.999303 1 1 0.999303
0.999494 1 1 0.999494
0.999351 1 1 0.999351
0.999533 1 1 0.999533
0.99991 1 1 0.99991
0.999589 1 1 0.999589
0.99992 1 1 0.99992
0.999998 1 1 0.999998
0.99993 1 1 0.99993
1 1 1 1
1 1 1 1
0.999192 1.00004 1 0.999152
0.999136 1 1 0.999136
0.999089 1.00002 1 0.999069
0.999344 1 1 0.999344
0.999238 1 1 0.999238
0.999196 1 1 0.999196
0.999607 1 1 0.999607
0.999422 1 1 0.999422
0.999347 1 1 0.999347
0.99994 1 1 0.99994
0.999679 1 1 0.999679
0.999487 1 1 0.999487
0.999742 1 1 0.999742
0.999968 1 1 0.999968
1 1 1 1
0.999987 1 1 0.999987
1 1 1 1
1 1 1 1
1.00004 1.00089 1 0.999148
1.00046 1.00132 1 0.999146
1.00153 1.00239 1 0.999144
0.999592 1.00056 1 0.999032
1.00038 1.00123 1 0.999157
1.00125 1.00204 1 0.999205
1.00133 1.00206 1 0.99927
0.99986 1.00065 1 0.999208
0.999787 1.0006 1 0.999185
0.999301 1.0001 1 0.999204
0.999208 1 1 0.999208
0.999219 1 1 0.999219
0.999267 1 1 0.999267
0.999207 1 1 0.999207
0.99928 1 1 0.99928
0.999473 1 1 0.999473
0.999303 1 1 0.999303
0.999494 1 1 0.999494
0.999896 1 1 0.999896
0.999532 1 1 0.999532
0.999906 1 1 0.999906
1 1 1 1
0.999917 1 1 0.999917
0.999999 1 1 0.999999
1 1 1 1
0.999247 1.00008 1 0.99917
0.999171 1 1 0.999171
0.999188 1.00003 1 0.999154
0.999242 1 1 0.999242
0.999149 1 1 0.999149
0.999086 1.00002 1 0.999063
0.999508 1 1 0.999508
0.999343 1 1 0.999343
0.999248 1 1 0.999248
0.999914 1 1 0.999914
0.99959 1 1 0.99959
0.999402 1 1 0.999402
1 1 1 1
0.999947 1 1 0.999947
0.99968 1 1 0.99968
0.999973 1 1 0.999973
1 1 1 1
1 1 1 1
0.999894 1.00074 1 0.999156
1.00027 1.00112 1 0.999156
1.00032 1.00118 1 0.999142
0.999466 1.00031 1 0.999158
1.00034 1.00119 1 0.999154
1.00129 1.00208 1 0.99921
0.999885 1.0007 1 0.999185
0.999302 1.0001 1 0.999204
0.999272 1 1 0.999272
0.999223 1 1 0.999223
0.999283 1 1 0.999283
0.999429 1 1 0.999429
0.999281 1 1 0.999281
0.999473 1 1 0.999473
0.999884 1 1 0.999884
0.999493 1 1 0.999493
0.999894 1 1 0.999894
1 1 1 1
0.999901 1 1 0.999901
0.999998 1 1 0.999998
0.999999 1 1 0.999999
0.999253 1.00008 1 0.999178
0.999203 1 1 0.999203
0.999272 1.0001 1 0.999171
0.999255 1 1 0.999255
0.999176 1 1 0.999176
0.999183 1.00003 1 0.999156
0.999445 1 1 0.999445
0.999263 1 1 0.999263
0.999162 1 1 0.999162
0.999895 1 1 0.999895
0.999499 1 1 0.999499
0.999342 1 1 0.999342
1 1 1 1
0.999921 1 1 0.999921
0.999573 1 1 0.999573
1 1 1 1
0.999954 1 1 0.999954
1 1 1 1
0.999348 1.00018 1 0.99917
0.999774 1.00062 1 0.999157
1.00052 1.00135 1 0.999164
0.999229 1 1 0.999229
0.999403 1.00024 1 0.99916
1.00032 1.00118 1 0.99915
0.999309 1.0001 1 0.999204
0.999273 1 1 0.999273
0.9994 1 1 0.9994
0.999298 1 1 0.999298
0.999443 1 1 0.999443
0.999863 1 1 0.999863
0.999473 1 1 0.999473
0.999883 1 1 0.999883
1 1 1 1
0.999893 1 1 0.999893
1 1 1 1
0.999997 1 1 0.999997
0.999208 1 1 0.999208
0.999217 1.00004 1 0.999177
0.999261 1 1 0.999261
0.999203 1 1 0.999203
0.9993 1.00013 1 0.999171
0.999448 1 1 0.999448
0.999253 1 1 0.999253
0.999181 1 1 0.999181
0.999881 1 1 0.999881
0.999455 1 1 0.999455
0.999285 1 1 0.999285
1 1 1 1
0.999898 1 1 0.999898
0.999491 1 1 0.999491
1 1 1 1
0.999927 1 1 0.999927
1 1 1 1
0.999244 1 1 0.999244
0.999258 1.00009 1 0.999173
0.99963 1.00047 1 0.999159
0.999371 1 1 0.999371
0.999229 1 1 0.999229
0.999321 1.00016 1 0.999163
0.999273 1 1 0.999273
0.999404 1 1 0.999404
0.999834 1 1 0.999834
0.999458 1 1 0.999458
0.999861 1 1 0.999861
1 1 1 1
0.999881 1 1 0.999881
1 1 1 1
1 1 1 1
0.999255 1 1 0.999255
0.999204 1 1 0.999204
0.999176 1 1 0.999176
0.999439 1 1 0.999439
0.999261 1 1 0.999261
0.999203 1 1 0.999203
0.999871 1 1 0.999871
0.999447 1 1 0.999447
0.999252 1 1 0.999252
1 1 1 1
0.999884 1 1 0.999884
0.999465 1 1 0.999465
1 1 1 1
0.999902 1 1 0.999902
1 1 1 1
0.999401 1 1 0.999401
0.999229 1 1 0.999229
0.999182 1.00001 1 0.999176
0.999815 1 1 0.999815
0.999374 1 1 0.999374
0.999229 1 1 0.999229
0.999409 1 1 0.999409
0.999832 1 1 0.999832
1 1 1 1
0.999859 1 1 0.999859
1 1 1 1
1 1 1 1
0.999423 1 1 0.999423
0.999249 1 1 0.999249
0.999199 1 1 0.999199
0.999866 1 1 0.999866
0.999438 1 1 0.999438
0.99926 1 1 0.99926
1 1 1 1
0.999871 1 1 0.999871
0.999446 1 1 0.999446
1 1 1 1
0.999886 1 1 0.999886
1 1 1 1
0.999811 1 1 0.999811
0.99939 1 1 0.99939
0.999215 1 1 0.999215
1 1 1 1
0.999814 1 1 0.999814
0.999376 1 1 0.999376
0.99983 1 1 0.99983
1 1 1 1
1 1 1 1
0.999843 1 1 0.999843
0.999422 1 1 0.999422
0.999244 1 1 0.999244
1 1 1 1
0.999857 1 1 0.999857
0.999438 1 1 0.999438
1 1 1 1
0.999872 1 1 0.999872
1 1 1 1
0.999966 1 1 0.999966
0.999824 1 1 0.999824
0.999378 1 1 0.999378
1 1 1 1
0.999813 1 1 0.999813
1 1 1 1
0.999976 1 1 0.999976
0.999841 1 1 0.999841
0.999422 1 1 0.999422
0.999991 1 1 0.999991
0.999856 1 1 0.999856
1 1 1 1
1 1 1 1
0.999816 1 1 0.999816
1 1 1 1
0.999986 1 1 0.999986
0.999835 1 1 0.999835
1 1 1 1
1 1 1 1
1 1 1 1

VECTORS lamdaE float
0.998962 1.00012 0.996795
0.999155 0.999181 0.998732
0.998889 1.00022 0.99685
0.999331 1.00005 0.996393
0.998981 1.00026 0.99668
0.999066 0.999721 0.996951
0.999655 1.0007 0.994759
0.999186 0.999057 0.998768
0.998882 1.0003 0.998624
0.99891 0.999625 0.998766
0.999332 0.998684 0.99745
0.999655 1.00038 0.994823
0.999619 0.999994 0.995996
0.999259 0.999906 0.996501
0.998808 1.00035 0.996911
0.999236 1.00008 0.996472
0.999005 0.999782 0.997008
0.998898 1.00036 0.996749
0.999712 1.00066 0.994758
0.999507 0.999991 0.998281
0.999431 0.999958 0.996338
0.999135 1.00019 0.996538
1.00049 1.00006 0.993964
0.999895 1.00055 0.994504
0.999246 0.999114 0.997208
0.99949 1.00068 0.99505
1.00092 1.00117 0.992011
0.999214 0.998925 0.998806
0.998934 1.00026 0.997633
0.998978 0.999704 0.997881
0.999314 0.998545 0.998878
0.999596 1.00046 0.994824
0.999168 1.00027 0.996524
0.99898 1.0003 0.996847
1.0001 1.00049 0.994815
0.99938 0.998047 0.999078
0.999719 1.00049 0.995365
0.999601 1.0001 0.995176
1.00028 1.00162 0.992449
0.9995 0.997585 0.999177
0.999596 1 0.998207
0.999333 0.999969 0.997429
0.999723 0.999999 0.998106
0.999324 0.999918 0.996379
1.00092 1.00001 0.992709
0.999178 1.00011 0.99854
1.00067 0.999959 0.994311
0.999141 1.00011 0.99655
0.998808 1.00049 0.99681
0.998945 0.999838 0.997074
0.999772 1.00059 0.994754
0.999483 0.999978 0.99725
0.999342 0.999947 0.996416
0.999206 0.999103 0.997266
0.99904 1.00027 0.996616
1.00052 1.00005 0.993944
0.999541 1.00064 0.995051
0.99995 1.00051 0.994501
1.00099 1.00119 0.991934
0.999599 1 0.998202
0.999457 0.999963 0.996274
1.00076 0.999993 0.994038
1.0006 0.999915 0.993905
1.0002 1.00031 0.994216
1.00245 1.00001 0.990396
1.00142 1.0007 0.991295
0.999464 0.998422 0.99752
0.999389 1.00041 0.995499
1.00041 1.00155 0.99252
1.00165 1.00128 0.990181
0.99896 1.00016 0.998561
0.999344 0.9984 0.998947
0.99904 0.999466 0.998711
0.999535 1.00055 0.994825
0.99918 1.00021 0.998465
0.998942 1.00007 0.998608
0.999984 1.00054 0.993946
0.999402 0.998105 0.99841
0.999632 1.00062 0.994577
0.99957 1.00006 0.995602
1.00027 1.00161 0.992437
0.999462 0.997821 0.999104
0.999669 0.998762 0.996413
1.00035 1.00023 0.993622
0.99984 1.00065 0.994229
1.00155 1.00071 0.990907
0.999573 0.99956 0.996377
1.00056 1.00133 0.992214
1.00008 1.00177 0.992677
1.00073 1.00186 0.991286
0.999553 0.997307 0.999238
0.999496 0.997537 0.999197
0.999357 1.00003 0.998409
0.999534 1 0.99826
0.999696 1 0.998128
0.999406 0.999983 0.99732
1.0009 1.00001 0.993307
0.999221 1.00006 0.997496
1.00063 0.999947 0.993861
0.999717 0.999997 0.998116
1.00105 0.999971 0.992456
1.00078 0.999982 0.994102
1.00294 0.999761 0.989181
1.00053 1.00003 0.994462
1.00258 0.999884 0.989766
0.999559 0.999962 0.99612
0.999252 0.999925 0.996493
0.99916 0.99906 0.99733
0.998945 1.00036 0.996691
1.00056 1.00004 0.993925
1.00001 1.00044 0.994503
0.999593 1.0006 0.995048
1.00107 1.00122 0.991858
0.99965 1 0.998165
0.99937 0.999936 0.996363
1.00081 0.999971 0.993212
1.00064 0.999905 0.993873
0.999404 0.998381 0.998226
0.999467 1.00035 0.995609
1.00025 1.00028 0.994209
1.00244 1.00001 0.990293
1.00049 1.00159 0.992442
1.00146 1.00074 0.991363
1.00165 1.00128 0.990184
1.00095 1 0.992629
1.00062 0.999922 0.993856
1.0028 0.999786 0.989689
1.00259 0.999758 0.990122
1.00203 1.0003 0.990632
1.00343 0.99977 0.988577
0.999487 0.997947 0.999053
1.00218 1.00076 0.989646
0.999563 0.999919 0.995435
1.00002 1.00171 0.992724
1.00114 1.00187 0.99067
1.00211 1.00121 0.98939
0.999688 0.999035 0.996041
1.00008 1.00067 0.993753
0.999109 1.00019 0.998485
0.998918 0.999908 0.998647
0.999946 1.00056 0.993959
0.99942 0.998026 0.999069
0.999526 1.00011 0.995273
0.999557 1.00074 0.994568
1.00027 1.0016 0.992424
0.999458 0.997794 0.999128
0.999675 0.99871 0.996434
1.00032 1.00021 0.99413
0.999759 1.00065 0.994698
1.00154 1.0007 0.990925
0.999581 0.999527 0.9958
1.00054 1.00132 0.992221
1.00007 1.00177 0.99267
1.00074 1.00185 0.991249
0.999611 0.999147 0.99612
0.999746 0.99837 0.99667
1.00001 1.00055 0.993956
1.00207 1.00029 0.990313
1.00097 1.00109 0.99166
1.00234 1.00077 0.989364
1.00007 1.00142 0.993039
1.00109 1.00145 0.991011
1.00044 1.00238 0.991449
1.00089 1.00213 0.990804
0.999629 0.997034 0.999282
0.999559 0.997256 0.999253
0.999496 0.997486 0.999218
0.999734 0.998679 0.996337
0.99952 0.997706 0.999128
0.999253 1.00011 0.998444
0.999432 1 0.998351
1.0006 0.999918 0.993376
1.00085 1.00001 0.99281
0.99966 1 0.998156
0.999726 0.999999 0.998104
1.00104 0.999978 0.992468
1.00072 0.999989 0.993655
1.00294 0.999763 0.989186
1.00047 0.999999 0.993527
1.00257 0.999896 0.989766
1.00108 0.99996 0.992393
1.0032 0.999703 0.988737
1.00272 0.999802 0.989572
1.00393 0.999447 0.987662
1.0024 1.00002 0.989964
1.00353 0.999553 0.988315
0.999687 0.999996 0.998132
0.999281 0.999897 0.996456
1.00082 0.999952 0.992431
1.00067 0.999908 0.993841
0.999317 0.998313 0.998969
0.999542 1.00033 0.995716
1.00029 1.00024 0.994204
1.00243 1.00001 0.990189
1.0015 1.0008 0.991431
1.00057 1.00164 0.992363
1.00165 1.00128 0.990188
1.00096 0.999988 0.992615
1.00066 0.999908 0.993825
1.00278 0.999771 0.989483
1.0026 0.999802 0.990212
0.999469 0.997985 0.999025
0.999564 0.99989 0.99576
1.0001 1.00173 0.99282
1.00201 1.00034 0.99064
1.00342 0.99971 0.988441
1.00108 1.00187 0.990656
1.00224 1.00077 0.989695
1.0021 1.0012 0.989399
0.999669 0.999098 0.996028
1.00008 1.00066 0.993749
1.00311 0.999726 0.988894
1.00259 0.999759 0.990096
1.00375 0.999551 0.988165
1.00362 0.999339 0.988229
1.00284 1.00022 0.989073
1.00396 0.999267 0.987948
0.999627 0.999433 0.995728
1.00276 1.00052 0.988818
1.00001 1.00156 0.992918
1.00051 1.00215 0.991267
1.00159 1.00201 0.989912
1.00246 1.00098 0.989056
1.0001 1.00114 0.99327
1.00009 1.00012 0.99427
1.00026 1.00176 0.992333
1.00026 1.00023 0.993688
0.999453 0.997759 0.999151
0.999679 0.998668 0.996455
0.999665 1.00077 0.994305
1.00153 1.00069 0.990943
0.999578 0.999485 0.995772
1.00005 1.00176 0.992664
1.00053 1.00131 0.992229
1.00074 1.00185 0.991211
0.999622 0.999089 0.996136
0.99974 0.998349 0.996685
1.00002 1.00056 0.993961
1.00207 1.00029 0.99032
1.00095 1.00108 0.991683
1.00233 1.00078 0.989367
1.00003 1.00146 0.993039
1.0011 1.00145 0.991054
1.00044 1.00237 0.991445
1.00087 1.00214 0.990759
0.999817 0.99806 0.996847
1.00007 1.00097 0.993451
1.00001 1.00005 0.994469
1.00019 1.00159 0.992638
1.00296 1.00018 0.988759
1.0016 1.00126 0.990314
1.0028 1.00066 0.988582
1.00032 1.00223 0.991856
1.00137 1.0015 0.990529
1.00047 1.00309 0.990664
1.00103 1.00206 0.990372
1.00014 0.999082 0.995222
0.999931 0.997641 0.997041
0.999711 0.996799 0.999312
0.99964 0.996993 0.999292
0.999566 0.997206 0.999268
0.99979 0.998351 0.99657
0.999556 0.997451 0.999192
0.999729 0.998722 0.996315
0.999522 0.997736 0.999105
1.00048 0.999982 0.993528
1.0007 0.999972 0.993147
1.00256 0.999906 0.989765
1.00293 0.999767 0.989191
1.00103 0.999985 0.992479
0.999735 1 0.998098
1.00109 0.999966 0.992387
1.0032 0.999701 0.988741
1.00271 0.999814 0.989571
1.00393 0.999453 0.987664
1.00239 1.00004 0.989966
1.00354 0.999549 0.988315
1.00326 0.999672 0.98865
1.00422 0.999373 0.987167
1.00371 0.999455 0.988092
1.00434 0.999067 0.987274
1.00332 0.999784 0.988487
1.00405 0.999039 0.987853
1.00098 0.999977 0.992599
1.0007 0.999908 0.993793
1.00277 0.99975 0.989278
1.0026 0.999839 0.990302
0.999454 0.998036 0.998997
0.99958 0.999886 0.996069
1.00019 1.00173 0.992916
1.00199 1.00038 0.990648
1.00341 0.999648 0.988305
1.00229 1.00078 0.989744
1.00101 1.00186 0.990642
1.0021 1.0012 0.989407
0.999654 0.999161 0.996015
1.00008 1.00064 0.993745
1.00308 0.999713 0.988834
1.00261 0.999754 0.990091
1.00377 0.999523 0.988088
1.00362 0.999412 0.988363
0.999617 0.999494 0.995726
1.00004 1.00158 0.99292
1.00051 1.00212 0.991365
1.00288 1.00026 0.989063
1.00395 0.99918 0.987916
1.00154 1.00202 0.989806
1.00276 1.00052 0.988816
1.0024 1.00095 0.989071
1.00011 1.00108 0.993276
1.00026 1.00172 0.992343
1.00008 1.00013 0.994259
1.00405 0.999483 0.987647
1.0036 0.99944 0.988424
1.00423 0.99929 0.987396
1.00418 0.998885 0.987776
1.00339 0.999756 0.98823
1.00427 0.998595 0.987917
1.00006 1.00142 0.993033
1.00305 1.00021 0.988554
1.00037 1.002 0.991896
1.00075 1.00258 0.990405
1.00184 1.00204 0.989233
1.00264 1.0006 0.989278
1.00013 0.99972 0.994596
1.00033 1.00178 0.992182
1.00025 1.00135 0.992701
1.00024 1.00233 0.991859
1.00207 1.0003 0.990328
0.999734 0.998328 0.996701
0.999635 0.99903 0.99615
1.00002 1.00056 0.993966
1.00092 1.00108 0.991706
1.00233 1.00078 0.989369
1 1.00151 0.993039
1.00043 1.00237 0.99144
1.00112 1.00146 0.991098
1.00084 1.00214 0.990713
0.999809 0.998052 0.996854
1.00006 1.00101 0.99345
1.00002 1.00004 0.99448
1.00019 1.00162 0.992627
1.00297 1.00019 0.98875
1.00158 1.00126 0.990329
1.0028 1.00065 0.988587
1.00029 1.00223 0.991866
1.00139 1.00152 0.990577
1.00049 1.0031 0.990631
1.001 1.00203 0.990558
0.999877 0.997829 0.996961
1.00006 0.999643 0.994812
1.00028 1.00186 0.992264
1.00018 1.00114 0.993107
1.00016 1.00242 0.991922
1.00348 0.999891 0.988056
1.00193 1.00126 0.989648
1.00305 1.00049 0.988302
1.00028 1.00318 0.990991
1.00153 1.00147 0.990238
1.00061 1.00332 0.989759
1.00012 0.999225 0.995127
1.00018 1.00008 0.994174
1.00017 0.998973 0.995289
1.00014 0.999101 0.995218
0.999965 0.997442 0.997552
0.999921 0.997622 0.997269
0.999832 0.996614 0.998456
0.999723 0.996763 0.99932
0.999652 0.996951 0.999302
0.999855 0.998088 0.996713
0.99962 0.997192 0.999238
0.999796 0.998371 0.996554
0.999558 0.997494 0.999172
0.999723 0.998768 0.996294
0.999522 0.997766 0.999082
1.00239 1.00006 0.989968
1.00271 0.999823 0.98957
1.00354 0.999553 0.988314
1.00393 0.999458 0.987666
1.0032 0.999698 0.988745
1.00109 0.999971 0.992382
1.00327 0.999672 0.988646
1.00422 0.999372 0.987172
1.0037 0.999468 0.988094
1.00437 0.999049 0.98721
1.00333 0.999784 0.98848
1.00405 0.999045 0.987856
1.00429 0.99933 0.987075
1.00467 0.999026 0.986648
1.00421 0.998962 0.987616
1.00458 0.998825 0.987146
1.00382 0.999363 0.987951
1.00431 0.998417 0.987989
1.00306 0.999701 0.988773
1.00263 0.999741 0.990085
1.00379 0.999499 0.988011
1.00362 0.999485 0.988498
0.999609 0.99954 0.995722
1.00006 1.00158 0.992922
1.00053 1.00209 0.991463
1.00292 1.0003 0.989053
1.00395 0.999092 0.987883
1.00276 1.00052 0.988815
1.00148 1.00203 0.9897
1.00234 1.00093 0.989086
1.00012 1.00103 0.993283
1.00027 1.00169 0.992353
1.00008 1.00014 0.994248
1.00408 0.999459 0.987506
1.00362 0.9994 0.988425
1.00423 0.999248 0.987353
1.00417 0.998924 0.987804
1.00008 1.00136 0.993041
1.00041 1.00199 0.991878
1.00072 1.00258 0.990529
1.00339 0.999853 0.988292
1.00428 0.998484 0.987934
1.00176 1.00209 0.989167
1.00306 1.00019 0.988551
1.00259 1.00052 0.989306
1.00033 1.00179 0.992196
1.00025 1.00235 0.991803
1.00012 0.999739 0.994588
1.00025 1.00128 0.992775
1.00449 0.999172 0.986875
1.00412 0.999102 0.987741
1.00445 0.999006 0.987202
1.00446 0.998468 0.987602
1.00383 0.999199 0.98804
1.00452 0.998188 0.987802
1.00035 1.00183 0.992112
1.00315 0.999455 0.989019
1.00037 1.00251 0.991213
1.00103 1.003 0.989645
1.002 1.00206 0.988751
1.00274 1.00052 0.989232
1.00015 0.999537 0.994751
1.00026 1.00082 0.993189
1.00034 1.00221 0.991774
1.00021 1.00212 0.992135
1.00025 1.00251 0.991649
0.999801 0.998045 0.996862
1.00297 1.0002 0.988741
1.00003 1.00002 0.99449
1.00004 1.00107 0.993449
1.00018 1.00165 0.992617
1.00156 1.00126 0.990344
1.0028 1.00065 0.988591
1.00026 1.00225 0.991875
1.00051 1.00311 0.990597
1.00141 1.00154 0.990625
1.00096 1.002 0.990745
0.999872 0.997821 0.996966
1.00006 0.999636 0.99482
1.00027 1.00186 0.992261
1.00017 1.00116 0.993108
1.00015 1.00245 0.991872
1.00348 0.999904 0.988043
1.00194 1.00125 0.989655
1.00303 1.0005 0.988286
1.00025 1.00318 0.991006
1.00154 1.00149 0.990274
1.00071 1.0033 0.989836
1.00009 0.999403 0.995004
1.00019 1.00067 0.99356
1.00027 1.00267 0.991489
1.00011 1.00211 0.992303
1.00009 1.00307 0.991421
1.0038 0.999489 0.987823
1.00215 1.00109 0.989377
1.00287 0.999959 0.988968
1.00019 1.00414 0.990112
1.00136 1.00269 0.989352
1.00011 0.999234 0.995126
1.00017 1.00021 0.993967
1.00018 1.0001 0.994118
1.00014 1.00086 0.993609
1.00019 1.00005 0.994182
1.0002 0.998897 0.995312
1.00017 0.998977 0.995287
1.00002 0.997275 0.997612
1.00013 0.999119 0.995214
0.999971 0.997433 0.997561
0.999909 0.996413 0.998506
0.999912 0.997609 0.997494
0.999811 0.996583 0.998901
0.999735 0.996728 0.999328
0.999907 0.997891 0.996811
0.999859 0.998099 0.996706
0.999697 0.996968 0.999267
0.999615 0.997236 0.999225
0.999801 0.998388 0.996539
0.99956 0.997535 0.999152
1.00334 0.999784 0.988472
1.00369 0.999474 0.988096
1.00405 0.999049 0.987859
1.0044 0.999034 0.987146
1.00423 0.999371 0.987176
1.00327 0.999673 0.988641
1.0043 0.999334 0.987075
1.00469 0.999032 0.98658
1.00421 0.998969 0.987623
1.00458 0.998777 0.987144
1.00383 0.999368 0.987936
1.00433 0.998381 0.987956
1.00476 0.999014 0.986479
1.0049 0.998813 0.986492
1.00447 0.998503 0.987548
1.00467 0.998656 0.987088
1.00414 0.998694 0.987931
1.00452 0.998148 0.98792
1.0041 0.999432 0.987364
1.00363 0.999369 0.988425
1.00423 0.999209 0.987309
1.00417 0.998962 0.987832
1.00011 1.00131 0.99305
1.00045 1.00198 0.99186
1.00068 1.00259 0.990653
1.00339 0.999952 0.988354
1.0043 0.998374 0.987952
1.00307 1.00017 0.988548
1.00168 1.00215 0.989101
1.00253 1.00042 0.989334
1.00034 1.00179 0.992211
1.00027 1.00236 0.991748
1.00011 0.999757 0.994581
1.00026 1.0012 0.992848
1.0045 0.999172 0.986873
1.00413 0.999085 0.987763
1.00442 0.998985 0.987247
1.00447 0.998466 0.987616
1.00038 1.00182 0.99211
1.00037 1.00246 0.991315
1.00101 1.00306 0.989634
1.00383 0.999293 0.988029
1.00445 0.998066 0.987994
1.00199 1.00211 0.988708
1.00317 0.999475 0.989018
1.00269 1.00028 0.989323
1.00036 1.00219 0.991778
1.00026 1.00251 0.991636
1.0002 1.00213 0.992127
1.00015 0.999531 0.994678
1.00027 1.00077 0.99324
1.00478 0.998765 0.98674
1.0045 0.9987 0.987316
1.0047 0.998182 0.987359
1.00408 0.998485 0.98815
1.00036 1.0022 0.991724
1.00352 0.999033 0.989113
1.00027 1.00298 0.990707
1.00131 1.00352 0.988617
1.00236 1.00203 0.988252
1.00017 0.999395 0.994713
1.00026 1.00052 0.993638
1.0002 1.00159 0.992681
1.00033 1.00229 0.991715
1.00019 1.00265 0.991686
1.00032 1.00247 0.991528
0.999866 0.997813 0.99697
1.00006 0.999629 0.994828
1.00349 0.999917 0.988029
1.00017 1.00117 0.993108
1.00025 1.00185 0.992258
1.00014 1.00248 0.991821
1.00194 1.00125 0.989662
1.00302 1.00051 0.988271
1.00022 1.00317 0.991021
1.00081 1.00328 0.989912
1.00155 1.00151 0.99031
1.00008 0.999405 0.995007
1.00019 1.00067 0.993566
1.00025 1.00267 0.991523
1.00011 1.0021 0.992299
1.00008 1.00311 0.991344
1.00378 0.999531 0.987825
1.00218 1.00109 0.98935
1.00295 0.999827 0.989011
1.00015 1.00412 0.990073
1.00136 1.00285 0.989199
1.00017 1.00039 0.99388
1.00014 1.00162 0.992645
1.00015 1.0036 0.990854
1.00007 1.00291 0.991506
1.00019 1.00339 0.990912
1.0041 0.998209 0.988542
1.00227 1.00151 0.988935
1.00308 0.998873 0.988938
1.00045 1.00455 0.989566
1.00112 1.00346 0.988254
1.00011 0.999243 0.995126
1.00017 1.00021 0.994015
1.00015 1.00098 0.993273
1.00017 1.00013 0.994063
1.00019 1.00006 0.994182
1.00013 1.00085 0.993528
1.00008 1.00142 0.99311
1.00012 1.0008 0.993527
1.00021 1.00001 0.994201
1.00021 0.99889 0.995291
1.0002 0.998896 0.995313
1.00006 0.99717 0.997625
1.00017 0.998982 0.995285
1.00002 0.99727 0.997616
0.999965 0.996252 0.998546
0.999977 0.997418 0.99757
0.999901 0.996391 0.998505
0.999788 0.996545 0.999351
0.999958 0.997705 0.996903
0.999911 0.997898 0.996806
0.999768 0.996769 0.999292
0.999864 0.99811 0.996698
0.999687 0.997 0.999259
0.99961 0.997275 0.999211
1.00384 0.999373 0.987922
1.00421 0.998979 0.987629
1.00435 0.998348 0.987923
1.00458 0.998726 0.987141
1.00472 0.999035 0.986511
1.0043 0.999339 0.987074
1.00477 0.999043 0.98646
1.0049 0.998825 0.98649
1.00448 0.998513 0.987515
1.00469 0.998577 0.987096
1.00416 0.998697 0.987937
1.00449 0.998087 0.98796
1.00503 0.998716 0.986308
1.00494 0.998462 0.986713
1.00469 0.998119 0.987522
1.00448 0.998104 0.988029
1.00451 0.999172 0.986871
1.00414 0.999062 0.987786
1.00437 0.998963 0.987292
1.00448 0.99846 0.98763
1.0004 1.00182 0.992107
1.00038 1.00241 0.991417
1.00098 1.00312 0.989623
1.00384 0.999387 0.988019
1.00439 0.997949 0.988186
1.0032 0.999495 0.989017
1.00197 1.00216 0.988665
1.00264 1.00006 0.989414
1.00038 1.00218 0.991782
1.00028 1.00251 0.991622
1.00018 1.00215 0.992119
1.00015 0.999528 0.994605
1.00028 1.00072 0.99329
1.00472 0.998768 0.986819
1.0045 0.998749 0.987304
1.0047 0.998217 0.987444
1.0004 1.00219 0.991711
1.00038 1.00293 0.990819
1.00125 1.00361 0.988593
1.00416 0.998506 0.988103
1.00233 1.00184 0.988415
1.00335 0.999004 0.989193
1.00017 0.999375 0.99473
1.00034 1.00229 0.991713
1.00031 1.00245 0.991562
1.00018 1.00271 0.991642
1.00021 1.00157 0.992712
1.00026 1.00051 0.99358
1.00485 0.99851 0.986901
1.00477 0.99825 0.987246
1.0047 0.998121 0.987263
1.0046 0.99782 0.987939
1.00034 1.00245 0.991517
1.00308 1.00042 0.988329
1.00049 1.00395 0.989488
1.00154 1.00398 0.987841
1.00017 0.999252 0.994848
1.00025 1.00036 0.993835
1.00022 1.00129 0.992999
1.00016 1.00231 0.992035
1.00035 1.00245 0.991562
1.00029 1.00265 0.991406
1.00008 0.999406 0.99501
1.00019 1.00066 0.993572
1.00376 0.999574 0.987827
1.00012 1.00209 0.992294
1.00022 1.00266 0.991557
1.00008 1.00315 0.991266
1.00221 1.00108 0.989324
1.00304 0.99969 0.989054
1.00012 1.00411 0.990035
1.00135 1.00304 0.989046
1.00017 1.00038 0.993885
1.00015 1.00162 0.992672
1.0001 1.00358 0.990937
1.00007 1.00292 0.991527
1.00013 1.00347 0.990877
1.00418 0.998235 0.988445
1.00234 1.00134 0.98896
1.00303 0.998834 0.989503
1.00037 1.00455 0.989512
1.00127 1.00383 0.987967
1.00015 1.00117 0.993077
1.00011 1.00245 0.991857
1.00009 1.0042 0.990313
1.0001 1.00355 0.990662
1.00481 0.997415 0.988169
1.0043 0.997071 0.989026
1.00246 1.00192 0.987924
1.00051 1.00481 0.988351
1.00018 1.0002 0.994064
1.00015 1.001 0.993311
1.00011 1.00161 0.992822
1.00019 1.00005 0.994183
1.00013 1.00083 0.993447
1.00021 0.999997 0.994202
1.00009 1.00142 0.993044
1.00012 1.00079 0.993551
1.00006 1.00188 0.992656
1.00008 1.0013 0.993091
1.00012 1.00074 0.993564
1.00023 0.999989 0.994192
1.00021 0.998932 0.995244
1.00021 0.99889 0.995291
1.00009 0.997137 0.997604
1.00019 0.998891 0.995314
1.00006 0.997182 0.997623
1.00001 0.99617 0.998543
1.00003 0.997268 0.997621
0.999959 0.996232 0.998547
0.999891 0.996372 0.998502
1 0.997521 0.997002
0.999961 0.997713 0.996899
0.999833 0.996583 0.999316
0.999916 0.997906 0.996802
0.999759 0.9968 0.999284
0.999678 0.997035 0.99925
1.00417 0.9987 0.987942
1.00449 0.998522 0.987482
1.00446 0.998022 0.987999
1.00471 0.998502 0.987104
1.0049 0.998839 0.986488
1.00477 0.999072 0.986442
1.005 0.998707 0.986391
1.00494 0.998471 0.986725
1.00469 0.998109 0.987513
1.00446 0.998041 0.988025
1.00507 0.998374 0.986594
1.005 0.997853 0.987249
1.00481 0.997704 0.987723
1.00467 0.998766 0.986898
1.00449 0.998801 0.987292
1.00469 0.998253 0.987529
1.00044 1.00218 0.991699
1.00048 1.00289 0.990932
1.0012 1.00373 0.988569
1.00425 0.998522 0.988056
1.00319 0.998976 0.989271
1.00233 1.00166 0.988579
1.00036 1.0023 0.991711
1.00029 1.00244 0.991596
1.00017 1.00276 0.991598
1.00016 0.999353 0.994747
1.00021 1.00155 0.992744
1.00026 1.00049 0.993521
1.00485 0.998532 0.986845
1.00476 0.998285 0.987223
1.00478 0.998138 0.987224
1.00038 1.00246 0.991487
1.00042 1.00392 0.989729
1.0016 1.00396 0.987838
1.00446 0.997946 0.988119
1.0031 1.00035 0.988292
1.00017 0.999231 0.994936
1.00025 1.00035 0.993837
1.00031 1.00242 0.991556
1.0003 1.00256 0.99151
1.00016 1.0023 0.992006
1.00021 1.00131 0.99295
1.00492 0.998122 0.987092
1.00494 0.997864 0.987286
1.00501 0.997534 0.987402
1.00427 0.997906 0.988425
1.0001 1.00317 0.991098
1.00214 1.0032 0.987323
1.00078 1.00474 0.988741
1.00019 0.999085 0.995137
1.00018 1.00006 0.99419
1.00022 1.0003 0.993786
1.0002 1.00114 0.993117
1.00014 1.00198 0.99239
1.00006 1.00306 0.991362
1.00047 1.00181 0.9918
1.00023 1.00293 0.991777
1.00018 1.00036 0.993889
1.00015 1.00162 0.9927
1.00425 0.998262 0.988348
1.00007 1.00293 0.991549
1.00006 1.00356 0.991021
1.00008 1.00356 0.990842
1.00241 1.00117 0.988984
1.00298 0.998791 0.990065
1.00028 1.00453 0.989458
1.00142 1.00413 0.987679
1.00016 1.00121 0.993034
1.00011 1.00247 0.991881
1.00006 1.0042 0.990368
1.00013 1.00358 0.990714
1.00489 0.997405 0.987978
1.00422 0.99722 0.989102
1.00256 1.0018 0.988146
1.00068 1.00482 0.988219
1.00011 1.0019 0.992516
1.0049 0.996826 0.988249
1.00007 1.00337 0.991237
1.00033 1.0043 0.989732
1.00502 0.99622 0.988751
1.00391 0.998952 0.988071
1.00155 1.0043 0.987619
1.00015 1.00102 0.993349
1.00011 1.00162 0.992817
1.00006 1.00217 0.992346
1.00021 0.999993 0.994204
1.00013 1.00078 0.993574
1.00009 1.00143 0.992977
1.00023 0.999984 0.994191
1.00013 1.00075 0.993562
1.00008 1.00189 0.992597
1.00009 1.00131 0.993151
1.00007 1.00219 0.992289
1.00008 1.00174 0.992667
1.00009 1.00124 0.993234
1.00016 1.00069 0.993609
1.00023 1.00003 0.994145
1.0002 0.998982 0.995204
1.00021 0.998934 0.995244
1.00011 0.997142 0.997569
1.00021 0.998892 0.99529
1.00009 0.997158 0.997599
1.00004 0.996134 0.998525
1.00007 0.997195 0.99762
1.00001 0.996142 0.998546
0.999953 0.996212 0.998546
1.0002 0.998934 0.995266
1.00005 0.997347 0.997094
1.00001 0.997529 0.996997
0.999891 0.996406 0.999342
0.999963 0.997723 0.996895
0.999825 0.996612 0.999308
0.99975 0.996829 0.999276
1.00444 0.997981 0.988021
1.0047 0.998097 0.987504
1.00494 0.998475 0.986736
1.00495 0.998704 0.986473
1.00507 0.99836 0.986598
1.00501 0.997873 0.98719
1.00479 0.99769 0.987728
1.00507 0.99788 0.987058
1.00505 0.997331 0.987706
1.00493 0.996383 0.988578
1.00486 0.998562 0.98679
1.00476 0.998317 0.9872
1.00486 0.998175 0.987186
1.00041 1.00246 0.991457
1.00035 1.00387 0.98997
1.00164 1.00388 0.987834
1.00432 0.998066 0.988299
1.0031 1.00025 0.988256
1.00026 1.00238 0.991551
1.00033 1.00247 0.991612
1.00016 1.0023 0.991977
1.00018 0.999209 0.995024
1.00025 1.00035 0.993838
1.0002 1.00134 0.992902
1.00493 0.998043 0.987166
1.00019 0.999078 0.995135
1.00017 1.00007 0.994147
1.00495 0.997904 0.987256
1.00495 0.997675 0.987324
1.00006 1.00313 0.991247
1.00076 1.00472 0.988602
1.00213 1.00308 0.987343
1.00426 0.997909 0.988465
1.00022 1.0003 0.993912
1.0002 1.00114 0.993116
1.00055 1.0019 0.991627
1.00014 1.00244 0.992131
1.00005 1.00315 0.991278
1.00015 1.00194 0.992398
1.00501 0.99723 0.987831
1.00509 0.997813 0.987203
1.00502 0.996396 0.988305
1.00335 0.999842 0.988075
1.0002 1.00321 0.991106
1.00128 1.00473 0.987756
1.00016 0.999949 0.994232
1.00019 1.00021 0.994017
1.00011 1.00092 0.993601
1.00017 1.00112 0.993083
1.00013 1.00182 0.992653
0.999985 1.00261 0.991871
0.999896 1.00402 0.990946
1.00018 1.00192 0.99226
1.00016 1.00124 0.992991
1.0001 1.00249 0.991905
1.00498 0.997401 0.987788
1.00415 0.997396 0.989179
1.00017 1.00361 0.990765
1.00005 1.0042 0.990423
1.00266 1.00171 0.98837
1.00084 1.00486 0.988087
1.0001 1.00192 0.992504
1.00491 0.996867 0.9883
1.00005 1.00329 0.991254
1.0003 1.00426 0.989697
1.005 0.996163 0.988677
1.00398 0.998893 0.988149
1.00144 1.00443 0.987711
1.00004 1.0028 0.991795
1.00513 0.996073 0.989353
1.00035 1.00367 0.990649
1.00071 1.00469 0.989063
1.00484 0.996339 0.988722
1.00224 1.00237 0.987718
1.00129 0.99998 0.991637
1.00011 1.00162 0.992813
1.00006 1.00218 0.992343
1.00012 1.00243 0.991984
1.00023 0.999977 0.994191
1.00013 1.00076 0.993559
1.00009 1.00131 0.993212
1.00009 1.00191 0.992537
1.00023 1.00003 0.994141
1.00016 1.00068 0.993576
1.00008 1.0022 0.992269
1.0001 1.00123 0.993228
1.00008 1.00176 0.992722
1.0001 1.00208 0.992342
1.00005 1.00154 0.992984
1.00014 1.00115 0.993246
1.00022 1.00068 0.99347
1.00024 1.00006 0.994001
1.00019 1.0007 0.99364
1.00022 1.00008 0.994007
1.0002 0.999006 0.995187
1.0002 0.998982 0.995205
1.00013 0.997187 0.997107
1.00021 0.998937 0.995244
1.00011 0.997165 0.99735
1.00002 0.996082 0.99937
1.00009 0.997179 0.997595
1.00004 0.996101 0.998529
1.00001 0.996116 0.998549
1.0002 0.998824 0.995374
1.0002 0.998934 0.995262
1.00008 0.997208 0.997167
1.00004 0.997353 0.997306
0.99994 0.996258 0.999362
1.00001 0.997536 0.996993
0.999883 0.996435 0.999334
0.999816 0.996644 0.999301
1.00477 0.997669 0.987733
1.00501 0.997895 0.987131
1.00508 0.998345 0.986601
1.00507 0.99788 0.98705
1.00505 0.997348 0.987653
1.00486 0.996484 0.988755
1.00508 0.996923 0.987984
1.00241 1.00003 0.988723
1.00505 0.995725 0.98928
1.00017 0.999877 0.994404
1.00493 0.997964 0.98724
1.00496 0.997927 0.987226
1.00489 0.997839 0.987246
1.00003 1.0031 0.991396
1.00075 1.00473 0.988463
1.00213 1.00303 0.987362
1.00424 0.997956 0.988505
1.00063 1.002 0.991455
1.00003 1.00192 0.992488
1.00002 1.00322 0.991194
1.00019 0.999075 0.995133
1.00017 1.0019 0.992404
1.00022 1.00029 0.994039
1.00019 1.00114 0.993116
1.00017 1.00007 0.994105
1.00498 0.997217 0.987878
1.00017 0.99994 0.994288
1.0002 1.00021 0.994013
1.00011 1.0009 0.993506
1.0051 0.997629 0.987213
1.00499 0.996705 0.988208
1.00029 1.00284 0.991174
1.00105 1.0048 0.98772
1.00338 0.999913 0.988079
1.00017 1.00113 0.993145
1.00012 1.0018 0.992626
1.00014 1.00219 0.992028
0.99989 1.00385 0.991056
1.00001 1.00263 0.991934
1.00505 0.996909 0.988159
1.00514 0.997977 0.986942
1.00461 0.997206 0.988273
1.00198 1.00266 0.988349
1.00018 1.00349 0.990797
1.00012 1.00076 0.993522
1.00012 1.00105 0.993277
1.00012 1.00145 0.993053
1.00009 1.00172 0.992718
1.00008 1.00225 0.992288
0.99988 1.00324 0.99156
0.999762 1.00418 0.990786
1.00009 1.00195 0.992491
1.00003 1.00322 0.991271
1.00491 0.996901 0.988351
1.00497 0.996108 0.988604
1.00407 0.99881 0.988227
1.00028 1.00422 0.989662
1.00133 1.00455 0.987803
1.00002 1.00275 0.991883
1.0051 0.995861 0.989327
1.00023 1.00364 0.990687
1.00049 1.00469 0.989162
1.00486 0.996024 0.988924
1.00223 1.00257 0.987684
1.00132 0.999995 0.990568
1.0001 1.0031 0.991403
1.00513 0.995155 0.990425
1.00007 1.00393 0.990721
1.00047 1.00477 0.988931
1.00294 0.999077 0.988658
1.00072 0.995167 0.965349
0.996677 1.00126 0.981089
1.00091 1.0001 0.99251
0.997955 0.997494 0.95872
0.994523 0.998265 0.958837
1.00006 1.00219 0.992339
1.00009 1.00244 0.99203
1.00018 1.00223 0.992102
1.00023 1.00002 0.994138
1.00016 1.00067 0.993543
1.0001 1.00122 0.993223
1.00007 1.00177 0.992776
1.00008 1.00219 0.992249
1.00014 1.00115 0.993203
1.00023 1.00007 0.994052
1.00022 1.00067 0.99351
1.00009 1.00209 0.992354
1.00007 1.00153 0.992971
1.00008 1.00144 0.992993
1.00009 1.00171 0.992757
1.00021 1.00108 0.993102
1.00026 1.0007 0.993364
1.00023 1.00007 0.993997
1.00024 1.00068 0.993507
1.00019 1.00107 0.993245
1.00014 1.00076 0.993571
1.00019 1.0007 0.993575
1.00022 1.00006 0.994117
1.00022 1.00009 0.994004
1.0002 0.999013 0.995183
1.0002 0.999004 0.995187
1.00012 0.997229 0.99709
1.0002 0.99898 0.995206
1.00013 0.997189 0.997106
1.00003 0.996087 0.999364
1.00012 0.997189 0.997132
1.00004 0.996085 0.99894
1.00004 0.996068 0.998531
1.0002 0.99874 0.995455
1.0002 0.998819 0.995373
1.00011 0.997101 0.997232
1.0002 0.998933 0.995259
1.00008 0.997203 0.997378
0.99998 0.996143 0.999379
1.00005 0.997371 0.997079
0.999933 0.996303 0.999354
0.999876 0.996463 0.999326
1.00504 0.997366 0.9876
1.00507 0.99788 0.987043
1.00477 0.996584 0.988933
1.00225 0.998875 0.988851
1.00505 0.996912 0.988075
1.00511 0.996042 0.989164
1.00514 0.997082 0.987888
0.99858 0.999509 0.978906
1.0036 0.996919 0.9891
1.00017 0.999841 0.994439
1.00017 0.999874 0.994403
1.00011 1.00067 0.993732
1.00008 1.00063 0.993826
1.00496 0.997203 0.987925
1.0051 0.997512 0.987222
1.005 0.996924 0.98811
1.00036 1.00251 0.991243
1.00083 1.00484 0.987685
1.00341 1.00001 0.988083
1.0001 1.00248 0.991793
0.999898 1.00368 0.991167
1.00003 1.00264 0.991998
1.0002 1.00022 0.99401
1.00011 1.00179 0.9926
1.00017 1.00113 0.993206
1.00017 0.999933 0.994345
1.00011 1.00089 0.993411
1.00491 0.996938 0.988202
1.00012 1.00076 0.993619
1.00012 1.00103 0.993318
1.00012 1.00143 0.993003
1.00515 0.997579 0.987044
1.00461 0.997319 0.988213
1.00025 1.00334 0.990783
1.00194 1.00296 0.988188
1.00009 1.00174 0.992722
1.00004 1.00226 0.992312
0.999784 1.00419 0.990777
0.999922 1.00341 0.991414
1.00522 0.997028 0.987711
1.00507 0.997194 0.987338
1.00298 1.00068 0.988293
1.00014 1.00403 0.990377
1.00011 1.0015 0.992867
1.00006 1.00162 0.992872
1.00004 1.00231 0.992246
0.999946 1.00398 0.990691
0.99975 0.995037 0.962995
1 1.00269 0.99197
1.00011 1.00361 0.990726
1.00506 0.995622 0.989301
1.00488 0.995714 0.989126
1.00221 1.00276 0.98765
1.00028 1.00466 0.989259
1.00128 1 0.989494
1.00004 1.00313 0.99145
1.00512 0.995066 0.990348
1.00002 1.00389 0.990744
1.00041 1.00485 0.988934
1.00321 0.999026 0.988647
1.00056 0.99564 0.963361
0.996537 1.00106 0.977733
1.00082 1.00011 0.992792
0.997313 0.997947 0.958695
0.994491 0.998217 0.955763
1.00004 1.00289 0.991749
0.998836 0.995053 0.959067
0.994776 0.999607 0.959703
1.00423 0.995893 0.990876
0.999793 1.00416 0.990984
1.0006 1.00362 0.98983
1.0004 0.999758 0.994946
0.998241 0.998752 0.965065
0.995238 1.0016 0.976755
0.99645 0.99946 0.960224
0.995152 0.997863 0.965682
1.00006 1.00245 0.992075
1.00016 1.00225 0.9921
1.00014 1.00191 0.992588
1.00022 1.00007 0.994103
1.00022 1.00065 0.993551
1.00014 1.00115 0.99316
1.00008 1.00152 0.992958
1.00008 1.0021 0.992365
1.00023 1.00008 0.993997
1.00008 1.00142 0.993025
1.00021 1.00109 0.993146
1.00026 1.00068 0.99343
1.00009 1.00172 0.992727
1.00019 1.00136 0.992851
1.00014 1.00151 0.992886
1.00026 1.001 0.993146
1.00026 1.00069 0.993461
1.00024 1.00068 0.993505
1.0002 1.00106 0.993203
1.00026 1.00098 0.993144
1.00013 1.00116 0.993193
1.00023 1.00125 0.993011
1.00001 1.0018 0.992757
1.00011 1.00087 0.993509
1.00014 1.00076 0.99357
1.0002 1.00008 0.994125
1.00019 1.0007 0.99351
1.00022 1.00007 0.994077
1.0002 0.999024 0.995181
1.00022 1.0001 0.994001
1.0002 0.999009 0.995183
1.00009 0.997256 0.99753
1.0002 0.999003 0.995187
1.00011 0.997223 0.99731
1.00006 0.996111 0.998482
1.00013 0.997192 0.997105
1.00003 0.996092 0.999362
1.00006 0.996088 0.99851
1.00017 0.999843 0.994429
1.0002 0.998702 0.9955
1.0002 0.998738 0.995455
1.00012 0.997025 0.997287
1.0002 0.998815 0.995372
1.00011 0.997095 0.997234
1.00001 0.996051 0.999395
1.00007 0.997215 0.997579
0.99999 0.996185 0.998944
0.999966 0.996333 0.998484
1.00196 0.997807 0.988975
1.00502 0.996909 0.988165
1.00517 0.996356 0.989048
0.998108 0.998819 0.980944
1.00348 0.997568 0.989326
1.00521 0.996567 0.987892
1.00482 0.997599 0.988813
0.999109 0.997252 0.982472
0.999201 0.995577 0.963885
0.997586 0.997729 0.958422
0.994649 0.997025 0.958663
1.00008 1.00064 0.993723
1.00017 0.999842 0.994437
1.00018 0.999871 0.994402
1.00011 1.00068 0.993709
1.00004 1.00121 0.993309
1.00009 1.00107 0.993392
1.0001 1.0007 0.993758
1.00009 1.00064 0.993781
1.00476 0.996963 0.988246
1.00516 0.997141 0.987146
1.00458 0.997475 0.988154
1.00032 1.00315 0.99077
1.0019 1.00314 0.988027
0.999804 1.00419 0.990769
0.999963 1.00359 0.991267
0.999996 1.00226 0.992336
1.00012 1.00101 0.99336
1.0001 1.00177 0.992726
1.00013 1.00076 0.993717
1.00012 1.0014 0.992953
1.0051 0.997229 0.987573
1.00009 1.0015 0.992927
1.00007 1.00162 0.992844
1.00497 0.997415 0.987347
1.00265 1.00048 0.98863
1.00023 1.00405 0.990219
1.00007 1.00232 0.992193
0.999971 1.00401 0.990699
1.00439 1.00056 0.986747
1.00417 0.99752 0.989242
1.00037 1.00295 0.99017
1.00002 1.00347 0.991231
1.00004 1.0018 0.992629
1.0001 1.00212 0.992324
1.00009 1.00283 0.991643
0.998666 0.99482 0.957682
1.00033 0.995081 0.967138
0.999973 1.00316 0.991496
0.999968 1.00389 0.990767
1.0051 0.994991 0.990271
1.00349 0.999032 0.988636
1.00035 1.00497 0.988938
1.0005 0.995247 0.962171
0.996592 1.00115 0.979069
1.00058 1.00012 0.993077
0.997221 0.997542 0.959874
0.994452 0.998198 0.952681
1.00001 1.00291 0.991742
0.998901 0.995099 0.957593
0.994694 0.999735 0.95855
1.0044 0.996207 0.990793
0.999697 1.00419 0.99102
1.00047 1.00338 0.989926
1.00038 0.998574 0.99545
0.998309 0.998723 0.962855
0.995453 1.00294 0.97945
0.996216 0.999694 0.959276
0.995375 0.997929 0.964078
1.00002 1.00254 0.992189
0.994809 0.999602 0.963212
0.997078 1.00002 0.975248
1.00161 0.998454 0.993506
0.999476 1.00397 0.992133
0.998985 1.00162 0.996195
0.996504 1.0015 0.983517
0.99589 1.00114 0.962546
0.995764 0.99961 0.960942
0.997575 0.997097 0.970192
1.00013 1.00227 0.992098
1.00014 1.00194 0.992507
0.999892 1.00146 0.993192
1.00023 1.00009 0.993996
1.00026 1.00067 0.993496
1.00021 1.00111 0.99319
1.00007 1.0014 0.993057
1.0001 1.00173 0.992698
1.00026 1.00068 0.993462
1.00017 1.00139 0.992894
1.00026 1.00099 0.99314
1.0001 1.00149 0.992956
1.00019 1.00097 0.993464
1.00027 1.00109 0.993001
1.00028 1.00099 0.993101
1.00025 1.00068 0.993502
1.0002 1.00105 0.993161
1.00026 1.00099 0.993147
1.00013 1.00117 0.99319
1.00023 1.00121 0.992995
1.00007 1.00138 0.993065
1.00026 1.00117 0.992984
1.00018 1.00141 0.992848
1.00006 1.00246 0.992019
0.99986 1.00352 0.991283
0.999973 1.00225 0.992303
1 1.00185 0.992745
1.0001 1.00107 0.993347
1.00011 1.00089 0.993503
1.00018 1.00014 0.994112
1.00014 1.00078 0.993569
1.00021 1.00008 0.994124
1.00018 0.999064 0.995175
1.00022 1.00007 0.994037
1.0002 0.99902 0.995182
1.00006 0.997296 0.997536
1.0002 0.999006 0.995183
1.00009 0.99725 0.997313
1.00004 0.996119 0.998486
1.00012 0.997213 0.997091
1.00002 0.996111 0.999358
1.00003 0.996095 0.999361
1.00017 0.999916 0.994518
1.00019 0.998726 0.995491
1.00017 0.999856 0.994428
1.00012 0.996996 0.997315
1.0002 0.998702 0.9955
1.0002 0.998735 0.995455
1.00012 0.997028 0.997285
1.00002 0.995991 0.999406
1.00009 0.997095 0.997644
1.00002 0.996067 0.998973
1.00001 0.996194 0.998524
0.998583 0.995784 0.958224
0.994808 0.998868 0.961972
0.998326 0.997762 0.982354
1.00338 0.998357 0.989548
1.00528 0.996111 0.987894
0.998977 0.997164 0.985274
1.00482 0.997859 0.988761
0.999901 0.995015 0.966254
0.997372 0.997541 0.958304
0.994522 0.99757 0.955476
1.0003 0.996987 0.989193
0.997791 0.997925 0.967121
0.996179 0.99984 0.959952
0.995672 0.99803 0.962786
1.00008 1.0013 0.993143
1.00009 1.00063 0.993761
1.00017 0.999839 0.994436
1.0001 1.00068 0.993685
1.00003 1.00118 0.993377
1.00008 1.00131 0.993175
1.0001 1.00106 0.993375
1.00012 1.00092 0.993444
1.0001 1.0007 0.993706
1.00009 1.00064 0.993736
1.00498 0.997402 0.987439
1.00481 0.997526 0.987357
1.0023 1.00025 0.98897
1.0003 1.0041 0.990061
1 1.00401 0.990707
1.0001 1.00233 0.99214
1.00008 1.00163 0.992816
1.00007 1.00149 0.992986
1.00453 0.999915 0.986722
1.00006 1.00182 0.992602
1.00012 1.00211 0.992259
1.00383 0.997865 0.989025
1.00025 1.00319 0.99043
1.00013 1.00338 0.991054
1.00015 1.00273 0.991671
1.00216 1.00366 0.98842
1.0013 0.9994 0.992925
0.999996 1.00294 0.991632
1.00005 1.00199 0.992514
1.00016 1.00213 0.992123
1.00026 1.00245 0.991711
0.996277 0.998394 0.965672
0.998716 0.995317 0.958339
1.00003 0.995136 0.962443
0.999985 1.00293 0.991735
0.999618 1.00421 0.991058
1.00465 0.996442 0.99071
1.00032 1.0032 0.990018
0.999039 0.995046 0.958457
0.998017 0.998752 0.965112
0.995689 1.00258 0.976674
1.00052 0.99752 0.995912
0.996358 0.999803 0.958878
0.994564 0.999824 0.958549
0.995782 0.997976 0.963362
0.999942 1.00259 0.992188
0.994968 0.999365 0.963792
0.997035 1.00028 0.975202
1.00176 0.998621 0.993361
0.999261 1.00382 0.992175
0.999607 0.999972 0.997204
0.996664 1.00187 0.979486
0.996028 1.00234 0.964877
0.996423 0.99911 0.961502
0.997358 0.997248 0.969895
0.999491 1.00191 0.994026
0.998737 1.00002 0.978158
1.00143 0.999836 0.979337
0.998032 1.00212 0.99619
0.997315 1.00187 0.989162
0.995685 1.00157 0.964365
0.995377 0.999961 0.963529
0.998555 0.998663 0.967338
1.00013 1.00195 0.992428
0.999985 1.00139 0.993274
0.999799 1.00026 0.994518
1.00026 1.00067 0.993462
1.00027 1.00098 0.993135
1.00016 1.00143 0.992937
1.00006 1.00144 0.993026
1.00028 1.001 0.993103
1.00027 1.00112 0.992984
1.00015 1.00079 0.993562
0.999974 1.00045 0.994349
1.00036 1.00064 0.993318
1.00027 1.00107 0.992998
1.00025 1.00099 0.99315
1.00013 1.00117 0.993186
1.00024 1.00117 0.992979
1.00025 1.00117 0.992986
1.00006 1.00143 0.993053
1.00019 1.00137 0.992864
1.00008 1.00182 0.992609
1.00027 1.00128 0.992828
0.999965 1.00268 0.991971
1.00007 1.00244 0.992072
0.999839 1.00337 0.991467
1.00016 1.00385 0.990497
1.00003 1.0027 0.991947
0.999838 1.0034 0.991449
0.99998 1.00224 0.992404
1.00009 1.0014 0.992946
0.999992 1.0019 0.992733
1.00009 1.00109 0.993339
1.00017 1.00024 0.994041
1.00011 1.0009 0.993497
1.00018 1.00014 0.994109
1.00015 0.999146 0.995154
1.00021 1.00009 0.994124
1.00018 0.999058 0.995176
1.00003 0.997365 0.997535
1.0002 0.999015 0.995183
1.00007 0.997296 0.997318
1 0.996184 0.998491
1.00011 0.997239 0.997094
1.00002 0.996131 0.998922
1.00002 0.996116 0.999359
1.00017 1.00005 0.99427
1.00018 0.998809 0.995434
1.00016 0.999921 0.994403
1.00011 0.997025 0.997305
1.00019 0.998726 0.995491
1.00017 0.999871 0.994427
1.00002 0.995974 0.99941
1.00012 0.996995 0.997314
1.0002 0.9987 0.9955
1.00012 0.997032 0.997282
1.00002 0.996 0.999403
1.00001 0.996063 0.99939
0.995408 0.998788 0.965903
0.998469 0.995264 0.958193
0.996868 1.00123 0.974377
0.994802 0.998858 0.960827
0.999403 0.997171 0.981137
1.00482 0.998067 0.98866
0.999376 0.995301 0.968448
0.997737 0.998035 0.959096
0.994438 0.998187 0.952287
0.999705 0.997881 0.987295
0.998677 0.997512 0.962619
0.996341 0.999599 0.958607
0.99558 0.998363 0.96166
0.997029 0.998444 0.98717
0.996966 0.99999 0.962696
0.995592 0.999592 0.960058
0.997674 0.998191 0.96706
1.00009 1.00174 0.992739
1.00007 1.0013 0.993194
1.0001 1.00062 0.993798
1.00002 1.00115 0.993445
1.00012 1.00157 0.992773
1.00008 1.00128 0.993222
1.0001 1.00105 0.993358
1.00015 1.00101 0.993364
1.00013 1.00091 0.993512
1.00011 1.0007 0.993654
1.00467 0.999382 0.986699
1.00353 0.998389 0.988805
1.00015 1.0034 0.990689
1.00024 1.00327 0.990878
1.00018 1.00265 0.9917
1.00013 1.0021 0.992193
1.00008 1.00185 0.992575
1.00005 1.002 0.992513
1.00258 1.00215 0.988695
1.00015 1.00219 0.992164
1.00027 1.00242 0.991745
1.00126 0.999671 0.992434
1.0002 1.00266 0.991651
1.00024 1.00137 0.992571
0.999945 1.00056 0.99462
1.00019 1.00195 0.992008
1.00018 1.00203 0.992226
1.00029 1.00242 0.991599
1.00067 0.999485 0.978298
0.99628 0.998978 0.965633
0.998602 0.995788 0.957935
0.999863 1.00269 0.992186
0.999069 1.00373 0.992217
1.00176 0.998767 0.993231
0.994973 0.999125 0.965486
0.996532 1.00127 0.962018
0.996698 1.00161 0.981635
1.00025 0.998051 0.998293
0.995746 0.999412 0.960923
0.996819 1.00056 0.975156
0.996934 0.997392 0.970266
0.999435 1.00196 0.993942
0.9984 0.999518 0.980259
1.00111 1.00021 0.979618
0.99809 1.0021 0.996361
0.99711 1.0011 0.989021
0.995967 1.00186 0.961599
0.998826 0.998187 0.9687
0.995106 0.999665 0.963233
0.998395 1.00129 0.996674
1.00513 1.00032 0.981885
1.0025 1.00142 0.978465
0.997951 0.997862 0.967102
0.9952 1.00292 0.996898
0.995497 0.999197 0.967878
0.994567 1.0001 0.964509
1.00009 1.0013 0.993355
0.999942 1.00042 0.994187
0.99955 0.999252 0.996115
1.00028 1.001 0.993106
1.00025 1.00117 0.992966
1.00014 1.00059 0.993661
1.00028 1.0011 0.99299
1.00035 1.0006 0.993308
1.00011 1.00023 0.994233
0.999665 1.00004 0.995053
1.00041 1.00081 0.993
1.00025 1.00116 0.992987
1.00005 1.00147 0.993042
1.0002 1.00133 0.99288
1.00027 1.00128 0.992815
1.0001 1.00176 0.992661
0.999855 1.00218 0.992662
0.999906 1.00268 0.992065
0.999817 1.004 0.990851
1.00008 1.00242 0.992126
0.999954 1.00336 0.991408
1.00007 1.00427 0.989929
1.00013 1.00402 0.990318
1.00004 1.00306 0.991499
1.0001 1.00388 0.9905
1.0001 1.00183 0.992587
1.00004 1.00273 0.991863
0.999816 1.00328 0.991615
0.999985 1.00224 0.992504
1.00009 1.00137 0.993028
1.00016 1.00043 0.993867
1.0001 1.00111 0.993331
1.00017 1.00025 0.994036
1.00011 0.999257 0.99511
1.00019 1.00014 0.994107
1.00015 0.999135 0.995155
0.999968 0.997477 0.997519
1.00018 0.999051 0.995177
1.00003 0.997372 0.997316
0.999955 0.996276 0.998491
1.00008 0.997287 0.9971
0.99999 0.99619 0.998925
0.999996 0.996154 0.99936
1.00018 1.00024 0.993916
1.00015 0.998972 0.995163
1.00017 1.00006 0.994267
1.00009 0.997118 0.997253
1.00017 0.99882 0.995351
1.00015 0.999927 0.994287
1.00001 0.996002 0.999406
1.00011 0.997019 0.997307
1.00019 0.998725 0.995492
1.00002 0.995974 0.99941
1.00012 0.996995 0.997313
1.00002 0.996009 0.9994
0.999382 1.00011 0.978186
0.995501 0.998311 0.965202
0.998468 0.995206 0.95867
1.00021 1.00103 0.993175
1.00035 1.00032 0.981373
0.996657 1.00084 0.974326
0.99471 0.998792 0.960731
0.999545 0.999045 0.985407
0.99854 0.99789 0.967056
0.996235 0.999677 0.958234
0.99561 0.998517 0.960812
0.996633 0.999497 0.982448
0.996099 1.0009 0.966081
0.996698 0.999855 0.960542
0.997764 0.998067 0.966537
0.995745 1.00238 0.978495
0.995608 1.00057 0.961778
0.995093 0.999838 0.962677
0.99828 0.998572 0.967528
1.00016 1.00188 0.992424
1.00009 1.00176 0.992712
1.00007 1.00129 0.993246
1.00016 1.00153 0.992768
1.00011 1.00156 0.992859
1.00008 1.00126 0.99327
1.00016 1.00102 0.993381
1.00013 1.0009 0.993579
1.00297 1.00084 0.98897
1.00125 0.999947 0.991942
1.00006 1.00201 0.99251
1.00039 1.00249 0.99167
1.0003 1.00234 0.991779
1.00013 1.00223 0.992204
1.00017 1.00208 0.992241
1.00091 1.00094 0.992864
1.00027 1.00238 0.991743
1.00029 1.00211 0.99199
1.00006 0.999945 0.994483
1.00023 1.00187 0.992388
0.998686 0.998675 0.997009
0.998902 1.00258 0.994742
1.00029 1.00148 0.992257
1.00026 1.00204 0.992127
1.00705 1.00006 0.980757
1.00074 0.999911 0.978101
0.996278 0.99955 0.965602
0.999357 1.00199 0.993863
0.998143 1.00199 0.996508
0.998091 0.999033 0.98235
0.995826 1.00035 0.964997
0.997108 1.00155 0.984534
0.99488 0.999881 0.962694
1.0009 1.00055 0.979899
0.999192 0.997889 0.970063
0.998473 1.0015 0.996152
1.00496 1.00041 0.982189
1.00311 1.0013 0.979298
0.995494 1.00365 0.999405
0.998098 0.997751 0.966387
0.99503 0.999393 0.965874
0.994997 0.99997 0.96303
0.9972 1.00092 0.999225
1.0101 0.999719 0.977663
1.00066 0.999843 0.981323
0.995871 0.997605 0.96295
0.994833 0.999702 0.9628
0.995341 0.999368 0.998247
0.995162 1.00016 0.962596
1.00006 1.00063 0.993859
0.999629 0.999464 0.995951
0.998492 0.998665 0.998817
1.00029 1.00113 0.992981
1.00034 1.00058 0.993297
1.00021 1.0001 0.994117
1.00037 1.00095 0.992972
0.999817 0.99972 0.995067
0.999581 1.00154 0.993696
1.00026 1.0013 0.992801
1.00013 1.0017 0.992713
0.999973 1.00214 0.992589
0.999413 1.0041 0.991509
0.99985 1.00268 0.992158
0.999727 1.00392 0.991059
1.0001 1.0049 0.98953
1.00069 1.00427 0.98906
1.00007 1.00335 0.991349
1.00019 1.00441 0.989703
1.0003 1.0036 0.990681
0.999923 1.00353 0.991083
1.00014 1.00388 0.990454
1.0001 1.0022 0.992243
1.00008 1.00305 0.991487
1.00005 1.0039 0.990503
1.00015 1.00075 0.993561
1.0001 1.00181 0.99256
1.00004 1.00276 0.991779
1.00009 1.00134 0.99311
1.00016 1.00044 0.993859
1.00007 0.999416 0.995025
1.00016 1.00026 0.994031
1.00011 0.999251 0.99511
0.999924 0.997627 0.99705
1.00016 0.999126 0.995156
0.999986 0.997483 0.997082
0.999856 0.996391 0.999359
1.00004 0.997365 0.997098
0.999944 0.996277 0.998925
0.999962 0.996218 0.99936
1.00022 1.00032 0.993772
1.00014 0.999174 0.994971
1.0002 1.00023 0.993979
1.00006 0.997265 0.997163
1.00015 0.998986 0.995141
1.00018 1.00007 0.994263
0.99999 0.996084 0.999391
1.00009 0.997108 0.997256
1.00017 0.998829 0.995268
1.00002 0.995995 0.999408
1.00011 0.997014 0.997308
1.00002 0.995975 0.999409
1.00636 0.999353 0.980576
0.999296 1.00024 0.978343
0.995473 0.998064 0.965406
1.0002 1.00105 0.993196
1.00023 1.00109 0.993039
1.00015 1.00154 0.992834
1.00235 1.00188 0.978219
1.00009 1.00009 0.981643
0.996445 1.00036 0.974269
0.995967 1.00021 0.985901
0.996688 0.999977 0.962737
0.995715 0.99985 0.95968
0.997634 0.998016 0.966666
0.995461 1.00104 0.982606
0.996006 1.00151 0.962647
0.995126 1.00002 0.964151
0.998602 0.998529 0.968829
0.995817 1.00223 0.980206
0.995077 1.00068 0.965727
0.994572 1.00013 0.965017
0.997432 0.997258 0.97013
1.00023 1.00179 0.992399
1.00015 1.0019 0.992411
1.00008 1.00178 0.992684
1.00016 1.00154 0.992762
1.00011 1.00156 0.992946
1.00017 1.00101 0.993398
1.00162 1.00019 0.993153
1.00002 0.999331 0.994348
1.00016 1.00214 0.992257
1.00039 1.00208 0.991972
1.00024 1.0024 0.991888
1.00025 1.00182 0.992329
1.00023 1.00205 0.992164
0.999026 0.999923 0.99702
1.00026 1.00155 0.992479
0.998615 1.00197 0.995907
1.0002 1.00155 0.992715
0.997066 0.998759 0.999461
0.998418 1.00039 0.998257
1.00008 1.0018 0.992572
1.01294 0.999301 0.975746
1.00816 0.999916 0.97957
1.00082 1.00037 0.977906
0.998604 1.00166 0.995624
0.995962 1.00148 0.998675
1.0048 1.00049 0.982494
0.995291 1.00026 0.972961
0.995187 1.00003 0.96421
1.00367 1.00111 0.98013
0.997989 0.997718 0.966506
0.997435 1.00098 0.999155
1.01081 0.999811 0.9768
1.00041 0.999685 0.981567
0.995018 1.00064 0.992287
0.995772 0.998079 0.961667
0.995308 0.999958 0.963496
0.995054 1.00011 0.967143
0.996356 1.00101 1.00237
1.00661 0.999149 0.980455
0.99746 1.0008 0.973888
0.994797 0.996733 0.958606
0.995209 0.999471 0.960781
0.995132 1.00008 0.966207
0.995183 0.999544 0.988791
0.999719 0.999726 0.995789
0.998625 0.998403 0.998737
0.998595 1.00017 0.997501
1.00033 1.00104 0.992944
0.999971 0.999367 0.995081
0.999456 1.00167 0.993854
0.999311 1.00302 0.992863
1.0001 1.00211 0.992518
0.999705 1.00406 0.991282
1.00004 1.00508 0.989484
0.999624 1.00386 0.991268
1.00014 1.00491 0.989504
1.00095 1.00488 0.988228
1.00124 1.00448 0.987973
1.00042 1.00346 0.990157
1.00068 1.00429 0.988996
1.0003 1.00454 0.989477
1.00027 1.00315 0.991094
1.00022 1.00344 0.990834
1.00001 1.00284 0.991653
0.99997 1.00348 0.991173
1.00014 1.00375 0.990589
1.00015 1.00119 0.993124
1.00011 1.00219 0.99225
1.00011 1.00303 0.991475
1.00003 0.999666 0.994847
1.00015 1.00076 0.993556
1.0001 1.0018 0.992534
1.00015 1.00046 0.993851
1.00007 0.999415 0.995022
0.999857 0.997811 0.996992
1.00012 0.999244 0.995109
0.999928 0.99763 0.997048
0.999808 0.996539 0.999347
0.999992 0.997481 0.997082
0.99988 0.996406 0.998918
0.999916 0.996308 0.999357
1.00023 1.00041 0.993741
1.00015 0.999326 0.99496
1.00021 1.00033 0.993815
1.00002 0.997452 0.997056
1.00015 0.999185 0.995031
1.00021 1.00024 0.99404
0.999954 0.996207 0.999368
1.00006 0.997255 0.997169
1.00015 0.999004 0.995119
0.999993 0.996066 0.999396
1.00009 0.997098 0.99726
1.00002 0.995986 0.99941
1.00999 1.00007 0.977321
1.006 0.999745 0.980869
0.999198 1.00029 0.978515
1.00023 1.00121 0.992928
1.00015 1.00179 0.992578
1.00019 1.00107 0.993217
1.00023 1.00111 0.993025
1.00016 1.00153 0.992782
1.00016 1.00159 0.992741
1.00015 1.00178 0.992553
1.00126 1.00006 0.979266
1.0029 1.0018 0.979012
0.999836 0.999876 0.981914
0.998892 0.998298 0.970131
0.994896 1.00026 0.97932
0.995859 1.00253 0.963753
0.994806 1.00005 0.962699
0.995619 1.00006 0.978506
0.995267 1.0001 0.962887
0.99496 1.00001 0.96378
0.997168 0.997423 0.969791
0.995617 0.997939 0.985916
0.995007 1.00021 0.962985
0.995658 1 0.963441
0.995105 0.997665 0.965707
1.00023 1.00168 0.992579
1.00022 1.00176 0.992392
1.00014 1.0019 0.992399
1.00016 1.00155 0.992756
0.999428 1.00155 0.997011
0.998437 1.00146 0.997061
1.00027 1.00175 0.99227
1.00021 1.00202 0.992201
1.00022 1.0017 0.992702
1.00022 1.00155 0.992657
1.00006 1.00186 0.992501
0.996619 1.00051 0.998744
0.998305 1.0003 0.998644
0.999936 1.00168 0.99293
0.995807 0.997543 1.00115
0.998894 1.00227 0.995763
1.00719 1.00013 0.980577
1.01515 0.998448 0.973168
1.00928 0.999744 0.978382
0.997666 1.00102 0.999094
0.995335 0.999479 0.998569
1.01153 0.999933 0.975937
0.995226 1.00015 0.962945
0.99469 0.999998 0.962591
1.00015 0.99954 0.981813
0.995828 0.998409 0.961044
0.996419 1.00075 1.00251
1.00625 0.999519 0.980764
0.99727 1.00045 0.973843
0.995002 0.999556 0.99347
0.994614 0.997465 0.955541
0.996224 0.999804 0.961339
0.995237 1.00011 0.964648
0.996472 1.00173 1.00002
0.999788 0.999994 0.977775
0.995198 0.998541 0.961994
0.99641 0.999629 0.959855
0.995624 1.0006 0.966214
0.994841 0.999912 0.983422
0.99882 0.99814 0.998651
0.998483 1.0004 0.997489
1.00008 0.998942 0.996774
0.999316 1.00182 0.994012
0.999006 1.00306 0.993081
1.00025 1.00394 0.99017
1.00001 1.00399 0.991055
1.00019 1.00509 0.989309
1.00113 1.00462 0.9878
1.00018 1.00491 0.989478
1.00099 1.00488 0.988103
1.00154 1.00429 0.987315
1.00196 1.00342 0.987513
1.0012 1.00374 0.988917
1.00128 1.00451 0.987785
1.0004 1.00284 0.990774
1.00044 1.00345 0.990233
1.00068 1.0043 0.988933
1.00026 1.00292 0.991256
1.00024 1.00319 0.991068
1.00013 1.00328 0.990987
1.00015 1.00172 0.992565
1.00003 1.00277 0.991747
1.00002 1.00343 0.991263
1.00001 1.00002 0.994512
1.00015 1.00118 0.993124
1.00011 1.00217 0.992256
0.999799 0.998019 0.996911
1.00003 0.999672 0.994841
1.00015 1.00076 0.993551
1.00007 0.999415 0.995019
0.999862 0.997818 0.996989
0.999731 0.996717 0.999333
0.999933 0.997635 0.997046
0.999798 0.996564 0.999343
0.999857 0.996431 0.99935
1.00021 1.00132 0.992889
1.00025 1.00051 0.993614
1.00013 0.999461 0.994846
1.00024 1.0004 0.993741
0.999975 0.997645 0.996951
1.00014 0.999339 0.99496
1.0002 1.00034 0.993857
0.999906 0.996366 0.999342
1.00002 0.99744 0.997061
1.00015 0.999193 0.995091
0.999958 0.996185 0.999375
1.00006 0.997244 0.997174
0.999997 0.996049 0.999401
1.00514 1.00036 0.98183
1.01069 1.00026 0.976489
1.00564 1.00014 0.981163
1.00022 1.00121 0.992954
1.00016 1.00179 0.992534
1.00012 1.00213 0.992226
1.00014 1.00171 0.992582
1.00013 1.00214 0.992309
1.00023 1.00112 0.993011
1.00017 1.00152 0.99273
1.00015 1.0016 0.992745
1.00019 1.00176 0.992499
1.00011 1.00188 0.992591
0.99719 0.999873 0.975037
1.00099 1.00043 0.979541
1.00349 1.00185 0.979806
0.996863 0.99759 0.970179
0.995166 1.00007 0.964855
0.995215 1.00033 0.976616
0.995079 1.0001 0.965751
0.995467 0.996862 0.980811
0.994986 1.00013 0.966013
0.994934 0.999934 0.963383
0.995317 0.997749 0.964111
0.99511 0.994805 0.985721
0.99508 1.00007 0.966649
0.995965 0.999877 0.960586
0.994536 0.998217 0.95841
0.999882 1.00143 0.993366
1.00019 1.00175 0.99255
1.00022 1.00173 0.992385
0.996092 1.00194 0.998044
0.998193 1.00004 0.999059
1.00023 1.00155 0.992599
1.00003 1.00196 0.99243
0.999931 1.00163 0.992979
0.998732 1.0022 0.995489
0.995803 0.997212 1.00121
0.998706 1.0026 0.994405
0.997079 1.00114 0.997021
1.00033 0.999959 0.978123
1.00825 0.999881 0.979462
1.01732 0.997636 0.970588
0.996426 1.00059 1.00262
0.994921 0.999672 0.986651
1.00589 0.999894 0.981074
0.995378 1.00007 0.962155
0.995391 0.999703 0.961305
0.997079 0.999936 0.973799
0.994482 0.998145 0.952475
0.996522 1.00163 1.00025
0.999705 1.00011 0.977944
0.995202 0.998442 0.960817
0.994881 0.999821 0.985638
0.99618 0.999726 0.958858
0.995644 0.999892 0.963205
0.997874 1.00033 0.997041
0.995597 0.998502 0.966092
0.997223 0.997782 0.95863
0.997143 1.00054 0.962718
0.994899 1.00006 0.98532
0.998438 1.00058 0.997472
0.999905 0.998681 0.996792
1.00192 0.998968 0.992376
0.998715 1.00309 0.9933
0.999948 1.00399 0.990448
1.00178 1.00236 0.988497
1.00033 1.00509 0.989134
1.00118 1.00449 0.9878
1.00238 1.00281 0.987409
1.00103 1.00487 0.987978
1.00155 1.00427 0.987352
1.00256 1.00218 0.987539
1.00267 1.00149 0.988007
1.00163 1.00318 0.988251
1.00196 1.0033 0.987547
1.00095 1.00311 0.989842
1.00113 1.00382 0.988742
1.00131 1.00454 0.987597
1.00045 1.00253 0.991213
1.00039 1.00282 0.990892
1.00045 1.00343 0.990308
1.00024 1.0021 0.992045
1.00024 1.0029 0.991301
1.00022 1.00324 0.991042
1.00001 1.00056 0.993986
1.00017 1.00172 0.992566
1.00006 1.0027 0.991841
0.999717 0.998302 0.997216
1.00001 1.00004 0.994503
1.00015 1.00116 0.993125
0.999668 0.996954 0.99837
0.999793 0.998049 0.997117
1.00003 0.999678 0.994835
0.999867 0.997824 0.996985
0.999721 0.99675 0.999327
0.999788 0.99659 0.999339
1.00018 1.00165 0.992587
1.00025 1.00068 0.993438
1.00021 1.00136 0.99285
1.0001 0.999607 0.994763
1.00025 1.00052 0.993615
0.999922 0.997825 0.996867
1.00013 0.999479 0.994846
1.00024 1.00041 0.99374
0.999851 0.996539 0.999317
0.999971 0.997637 0.996955
1.00014 0.999357 0.99496
0.999912 0.996338 0.99935
1.00002 0.997429 0.997067
0.999963 0.99616 0.999382
0.999231 0.999286 0.981101
1.00496 1.00045 0.982116
1.0114 1.0005 0.975656
1.00007 1.0024 0.992108
1.00022 1.00124 0.992981
1.00017 1.0018 0.992489
1.00015 1.00172 0.99262
1.00014 1.00209 0.992272
1.00013 1.00211 0.992272
1.00012 1.0024 0.992017
1.00006 1.00213 0.992306
1.00012 1.00161 0.99275
1.00023 1.00174 0.992445
1.00009 1.00189 0.992569
1.00006 1.00222 0.992617
0.99494 0.999455 0.959352
0.997105 1.00019 0.974973
1.0007 1.00072 0.979815
0.995608 0.997895 0.963085
0.995223 0.999909 0.963174
0.995018 1.00021 0.963047
0.995281 0.995678 0.983931
0.995003 0.994824 0.98948
0.994484 0.998155 0.955472
0.994928 1.00012 0.963019
0.99611 0.999798 0.960715
0.995527 0.997349 0.98853
0.995771 0.999595 0.967642
0.996497 0.999856 0.958841
0.999419 1.00121 0.994368
0.999982 1.0014 0.993368
1.00015 1.00182 0.992521
0.995793 0.996898 1.00122
0.998725 1.00203 0.995227
0.999898 1.00159 0.993027
0.999078 1.00251 0.994254
0.996642 1.00129 0.997174
0.998348 1.00121 0.994852
0.996048 0.999276 0.962167
1.00073 0.999826 0.979626
1.00932 0.999621 0.978347
0.996496 1.00152 1.00054
0.994902 0.999783 0.987199
0.999602 1.00023 0.978126
0.995732 0.9993 0.966266
0.996274 0.999823 0.958316
0.995134 0.998398 0.960769
0.997699 1.00016 0.997143
0.995685 0.998179 0.965299
0.997079 0.997825 0.95878
0.994866 1.0002 0.980874
0.996246 1.00046 0.965724
0.998992 0.999749 0.996425
0.998498 0.995759 0.958504
0.997373 1.0001 0.965911
0.995202 1.00079 0.978834
0.999657 0.998491 0.996816
1.00155 0.99879 0.993146
1.00317 0.997154 0.991139
0.99964 1.00404 0.990726
1.00185 1.00229 0.988513
1.0036 0.998966 0.98847
1.00123 1.00436 0.9878
1.00233 1.0026 0.987466
1.00361 0.999416 0.98828
1.00155 1.00425 0.987391
1.00258 1.00204 0.987566
1.00344 0.999421 0.988634
1.00311 0.999717 0.989024
1.00232 1.00182 0.988368
1.00267 1.00139 0.988127
1.00128 1.00275 0.989119
1.00166 1.00314 0.988356
1.00196 1.00317 0.98758
1.00066 1.00259 0.990773
1.00084 1.00312 0.989854
1.00106 1.0039 0.988567
1.00041 1.00209 0.991767
1.00049 1.00253 0.991204
1.00039 1.0028 0.99101
1.00003 1.00118 0.993373
1.00025 1.00209 0.992059
1.00021 1.00289 0.991345
0.999669 0.998644 0.9965
1.00001 1.00056 0.993975
1.00018 1.00171 0.992567
0.999542 0.997209 0.999281
0.999729 0.998343 0.996713
1 1.00005 0.994493
0.999645 0.996949 0.999306
0.999801 0.998063 0.996877
0.99971 0.996784 0.999321
1.00012 1.00199 0.992447
1.00019 1.00164 0.992594
1.00022 1.00098 0.993187
1.00007 0.999761 0.994671
1.00025 1.00068 0.99344
1.0002 1.00138 0.992812
0.999868 0.997992 0.996805
1.0001 0.999607 0.994764
1.00025 1.00051 0.993615
0.999788 0.996712 0.999296
0.999917 0.997822 0.996869
1.00012 0.999492 0.994845
0.999856 0.996512 0.999324
0.999967 0.997629 0.99696
0.999917 0.996311 0.999358
0.995553 0.999345 0.962758
0.99903 0.999294 0.981273
1.0048 1.00051 0.982403
1.00006 1.00246 0.992063
1.00006 1.00272 0.99188
1.00006 1.00266 0.991866
1.00016 1.00172 0.992657
1.00014 1.00206 0.992317
1.00012 1.00209 0.992234
1.00008 1.00214 0.992283
1.0001 1.00242 0.991994
0.999966 1.00293 0.991815
1.00013 1.00186 0.992405
1.00009 1.0019 0.992548
1.00001 1.00209 0.992629
0.997966 0.998005 0.957722
0.994801 0.999684 0.958282
0.996972 1.00039 0.974921
0.994439 0.998167 0.952524
0.995262 0.999833 0.960384
0.995475 1.00014 0.967584
0.995071 0.99481 0.985409
0.995291 0.997445 0.984906
0.996282 0.999153 0.958274
0.99554 0.999975 0.965399
0.99671 0.996693 0.984442
0.997034 1.00081 0.962316
1.00079 1.00116 0.992601
0.9996 1.00105 0.994273
1.00007 1.00136 0.993372
0.996127 1.00154 0.997312
0.999394 1.00243 0.994098
0.998966 1.00151 0.994387
1.00164 0.999481 0.991022
0.998647 0.994849 0.95781
0.99592 0.999432 0.964117
1.00114 0.999666 0.981124
0.997591 0.999889 0.997275
0.994935 1.00002 0.983
0.995666 0.997917 0.965495
0.996391 1.00074 0.962394
0.997672 0.998989 0.959365
0.998937 0.999801 0.995822
0.998447 0.995622 0.958224
0.998456 0.998686 0.962083
0.99507 1.00104 0.982312
0.999956 1.0003 0.994796
0.999189 0.99694 0.963036
0.996833 0.999156 0.984566
1.00122 0.99862 0.993915
1.00301 0.997406 0.991039
1.00461 0.99537 0.990012
1.0019 1.00224 0.988528
1.00365 0.998928 0.988417
1.00461 0.996221 0.989242
1.00228 1.00239 0.987522
1.0036 0.9993 0.988272
1.00451 0.99663 0.989095
1.00259 1.0019 0.987593
1.00342 0.999352 0.988617
1.00383 0.997655 0.989583
1.00342 0.998709 0.989601
1.0031 0.999582 0.989152
1.00277 1.00035 0.98899
1.00206 1.00182 0.988907
1.00233 1.00186 0.988389
1.00266 1.00128 0.988246
1.00105 1.00247 0.989937
1.00133 1.00276 0.989248
1.00168 1.0031 0.988462
1.00054 1.00209 0.991475
1.00069 1.00259 0.990753
1.00073 1.00313 0.989867
1.00009 1.00146 0.992935
1.00043 1.00207 0.991772
1.00052 1.00253 0.991194
0.999629 0.99905 0.996135
1.00004 1.00111 0.993374
1.00027 1.00207 0.992073
0.999504 0.997439 0.999231
0.999668 0.998684 0.996478
1.00001 1.00055 0.993964
0.999565 0.997227 0.998787
0.999737 0.998352 0.996707
0.999631 0.997013 0.999291
1.00012 1.00231 0.992098
1.00011 1.00202 0.992398
1.00015 1.00141 0.99291
1.0002 1.00163 0.992601
1.00022 1.00099 0.993187
1.00001 1.00003 0.994501
0.999813 0.998144 0.996759
1.00007 0.999752 0.994677
1.00024 1.0007 0.993443
0.999717 0.996883 0.99928
0.999862 0.997987 0.996808
1.0001 0.999608 0.994766
0.999794 0.996691 0.999302
0.999912 0.99782 0.996872
0.999862 0.996483 0.999332
0.998627 0.996015 0.958811
0.995256 0.99974 0.961842
0.998824 0.999306 0.981441
1.00005 1.00252 0.992019
1.00004 1.00275 0.991787
1.00001 1.00269 0.991938
1.00016 1.00273 0.991686
0.999984 1.00303 0.991667
1.00009 1.00215 0.99226
1.0001 1.00243 0.991972
0.999938 1.00282 0.991853
0.99984 1.00291 0.991587
1.00011 1.00241 0.991886
1.00154 1.00183 0.990262
0.99996 1.00219 0.99249
0.999988 1.00197 0.992641
0.999163 0.999074 0.961368
0.997362 0.998207 0.957841
0.994604 0.999947 0.95822
0.996668 0.999376 0.957784
0.995568 1.00064 0.962917
0.994961 0.997477 0.989377
0.996958 0.996866 0.986764
0.997061 0.99886 0.966326
0.999814 0.998026 0.981472
1.0031 0.999306 0.98959
1.00039 1.00098 0.992579
0.999737 1.0009 0.994175
0.999504 1.00174 0.993935
1.00236 0.999776 0.990313
0.999672 0.99554 0.962535
0.998732 0.995284 0.958688
0.995778 0.999652 0.966073
0.998837 0.999866 0.995199
0.994858 1.0014 0.979132
0.998516 0.995299 0.958476
0.997878 0.999583 0.965998
1.00023 1.00008 0.994837
1.00006 0.995839 0.965155
0.996644 1.0001 0.980829
1.00197 1.00215 0.990569
1.00034 0.996663 0.988114
1.00286 0.997665 0.990936
1.00438 0.995893 0.989777
1.00514 0.995963 0.988639
1.00371 0.99889 0.988367
1.00458 0.996477 0.989169
1.00504 0.995737 0.989004
1.00358 0.999174 0.988265
1.0045 0.996795 0.989017
1.00469 0.996492 0.988966
1.0034 0.999288 0.988599
1.00378 0.997765 0.989529
1.00394 0.99762 0.989497
1.00333 0.998538 0.989764
1.00325 0.999372 0.989226
1.00308 0.999457 0.989279
1.00278 1.00037 0.988958
1.00258 1.00074 0.988992
1.00167 1.00183 0.989438
1.00205 1.00185 0.988883
1.00234 1.0019 0.98841
1.0008 1.00211 0.990965
1.00104 1.00247 0.990027
1.00136 1.00277 0.989377
1.00014 1.00158 0.99267
1.00058 1.00209 0.991459
1.00071 1.0026 0.990734
0.999624 0.999482 0.995689
1.00011 1.00142 0.992945
1.00045 1.00205 0.991777
0.99947 0.997713 0.99916
0.999619 0.999115 0.996115
1.00006 1.00106 0.993375
0.999508 0.997484 0.999211
0.999666 0.998729 0.996457
0.999561 0.997264 0.999251
1.00023 1.00249 0.991729
1.00011 1.00229 0.992102
1.00014 1.00182 0.992469
1.00011 1.00204 0.992349
1.00014 1.00147 0.992843
0.999965 1.00047 0.994133
1.00022 1.00098 0.993187
1.00002 1.00001 0.994507
0.999741 0.998359 0.996683
0.999639 0.997056 0.999269
0.999806 0.998143 0.996763
1.00007 0.999741 0.994683
0.999726 0.996862 0.999285
0.999858 0.997983 0.99681
0.999801 0.996667 0.999308
1.00063 0.996441 0.964258
0.998335 0.996046 0.958178
0.994853 1.00012 0.961906
1.00002 1.00286 0.991707
0.999964 1.00266 0.991996
0.999987 1.00303 0.991703
1.00014 1.00273 0.991688
1.00027 1.00295 0.991263
0.999938 1.00287 0.991697
0.999912 1.00271 0.991891
0.999971 1.00305 0.991419
1.00002 1.00267 0.991791
1.0004 1.00212 0.991231
1.0018 1.0017 0.990549
1.00316 1.00028 0.988269
1.0013 1.00172 0.990466
0.999783 1.00253 0.992574
0.999624 0.998139 0.980185
0.998849 0.998987 0.962483
0.997498 0.998331 0.958415
0.997809 1.00048 0.962351
0.997122 0.996939 0.989042
1.00003 0.997867 0.985686
1.00353 0.997335 0.990565
1.00315 0.998979 0.989961
1.00024 1.00082 0.992554
1.00353 1.00022 0.989591
0.999134 0.998614 0.981544
1.00025 0.99561 0.966595
0.998588 0.99568 0.958353
1.00042 0.99997 0.994865
0.99641 1.00086 0.983117
0.999595 0.995739 0.967302
1.00207 1.00118 0.990793
0.999789 0.997751 0.986284
1.00421 1.00004 0.988293
1.0047 0.997434 0.988693
1.00418 0.996354 0.989542
1.00503 0.995964 0.988605
1.00513 0.996761 0.988187
1.00448 0.996699 0.989093
1.00498 0.995925 0.988999
1.00501 0.996983 0.988011
1.00451 0.996966 0.988938
1.00467 0.996703 0.988907
1.00463 0.997591 0.988208
1.00373 0.997881 0.989476
1.0038 0.997691 0.989608
1.00368 0.998725 0.988822
1.00324 0.998368 0.989926
1.00321 0.999249 0.989305
1.00309 1.00002 0.988897
1.00279 1.00038 0.988927
1.00258 1.00077 0.988968
1.00232 1.00101 0.989306
1.00123 1.00172 0.990326
1.00164 1.00185 0.989528
1.00204 1.00188 0.988859
1.00027 1.00171 0.992314
1.00082 1.0021 0.990958
1.00104 1.00247 0.990117
0.999587 1.00002 0.995243
1.00016 1.0016 0.992672
1.00061 1.00209 0.991442
0.999461 0.997992 0.999054
0.99962 0.999539 0.99568
1.00013 1.00138 0.992955
0.99948 0.997756 0.999128
0.999613 0.999172 0.996095
0.999513 0.997527 0.999191
1.00035 1.00269 0.991346
1.00024 1.00248 0.991763
1.00021 1.0021 0.992122
1.00011 1.00228 0.992106
1.00014 1.00187 0.992419
0.999978 1.00096 0.993619
1.00014 1.00152 0.992776
0.999971 1.00047 0.994139
0.999664 0.998675 0.996511
1.00003 0.99999 0.994514
0.999738 0.998343 0.996692
0.999559 0.997267 0.999248
0.999651 0.997035 0.999273
0.9998 0.998139 0.996766
0.999734 0.996845 0.99929
0.999472 0.997981 0.980885
1.00038 0.996364 0.961224
0.998459 0.995915 0.95838
1.00079 1.00259 0.99062
0.99999 1.00303 0.991739
1.00011 1.00272 0.99169
0.999981 1.00295 0.991693
1.00021 1.00303 0.991231
1.00025 1.00195 0.991951
1.0001 1.00324 0.99125
0.999989 1.00294 0.991697
1.00055 1.00213 0.991358
1.00152 1.00169 0.990613
1.00279 1.00036 0.988911
1.00481 0.998345 0.986743
1.0031 1.00015 0.988228
1.00112 1.00153 0.990671
1.00304 0.996935 0.992431
0.999512 0.998639 0.978627
0.99898 0.998844 0.963956
0.999855 0.997666 0.982999
1.0036 0.996786 0.991369
1.00285 0.998541 0.990343
1.00348 0.998615 0.988596
0.998959 0.997658 0.983999
1.00002 0.995493 0.962294
1.00225 1.00005 0.991009
0.99977 0.998891 0.984426
1.00421 0.999058 0.988351
1.00466 0.997691 0.989024
1.00521 0.996516 0.988021
1.00519 0.997518 0.987657
1.00488 0.996009 0.988571
1.0051 0.996442 0.988262
1.00496 0.99724 0.988087
1.00497 0.996073 0.988994
1.00503 0.996926 0.988018
1.00486 0.998068 0.987247
1.00463 0.996905 0.988848
1.00451 0.99761 0.988404
1.00423 0.998472 0.987972
1.00365 0.997756 0.98972
1.00368 0.998728 0.988814
1.00352 0.999453 0.988427
1.00317 0.999127 0.989384
1.00306 0.99994 0.988916
1.00278 1.00043 0.988951
1.00258 1.0008 0.988944
1.00227 1.00102 0.989258
1.00185 1.00118 0.989977
1.00062 1.0015 0.991871
1.00122 1.00173 0.990418
1.00162 1.00186 0.989618
0.999556 1.00054 0.994795
1.00029 1.00171 0.992312
1.00085 1.00209 0.99095
0.999389 0.998345 0.998934
0.999624 0.999983 0.995238
1.00018 1.0016 0.992674
0.999451 0.998041 0.999017
0.999618 0.999582 0.99567
0.999488 0.997797 0.999095
1.00062 1.00258 0.990753
1.00033 1.00266 0.991356
1.00037 1.00221 0.991792
1.00025 1.00245 0.991797
1.0002 1.00209 0.992142
1.00001 1.00138 0.993156
1.00014 1.00192 0.992368
0.999963 1.001 0.993618
0.999591 0.999085 0.996226
0.999974 1.00046 0.994145
0.999666 0.998637 0.996529
0.999493 0.99751 0.999206
0.999737 0.998328 0.9967
0.99957 0.997232 0.999256
0.999661 0.997017 0.999276
1.00313 0.997487 0.99114
0.999468 0.998251 0.977514
1.00003 0.996738 0.964747
1.00088 1.00173 0.991047
1.00194 1.00157 0.989453
1.00059 1.00262 0.990731
1.00003 1.003 0.991689
1.00016 1.00312 0.991197
1.00045 1.00191 0.991826
1.00283 1.00006 0.989261
1.00066 1.00215 0.991484
1.00111 1.00167 0.990677
1.00277 1.00033 0.988977
1.00449 0.999019 0.986628
1.0051 0.996999 0.987401
1.00483 0.998407 0.986784
1.00311 1.00011 0.988187
1.0033 0.996875 0.992599
0.99935 0.99936 0.976417
1.00391 0.996389 0.992159
1.00507 0.996904 0.988789
1.00326 0.998454 0.988857
0.999389 0.996875 0.980129
1.00425 0.998162 0.988422
1.00461 0.997946 0.98931
1.0051 0.996483 0.988205
1.0052 0.997128 0.987684
1.005 0.996986 0.987979
1.00512 0.996563 0.987824
1.00508 0.996075 0.988336
1.00491 0.997079 0.98809
1.00478 0.997743 0.987663
1.00505 0.996952 0.988025
1.00482 0.998038 0.987371
1.00458 0.998414 0.987348
1.00438 0.997635 0.9886
1.00428 0.998468 0.987938
1.00409 0.998944 0.987833
1.00369 0.998732 0.988804
1.00353 0.999448 0.988421
1.00323 0.999979 0.988476
1.00303 0.999858 0.988935
1.00274 1.0004 0.988961
1.00226 1.00072 0.989601
1.00223 1.00103 0.989209
1.0018 1.00117 0.989954
1.00106 1.00108 0.991466
0.999621 1.00073 0.994428
1.00063 1.00151 0.991867
1.00122 1.00173 0.990511
0.999237 0.998857 0.998812
0.999626 1.00045 0.994786
1.00031 1.00172 0.99231
0.999361 0.998445 0.998896
0.999654 0.999971 0.995233
0.999445 0.998106 0.998979
1.00118 1.00225 0.989793
1.00062 1.00256 0.990659
1.00069 1.00211 0.991276
1.00032 1.00262 0.991366
1.00034 1.0022 0.991802
1.00006 1.00168 0.992813
1.00019 1.00209 0.992162
0.999982 1.00144 0.99315
0.999552 0.999538 0.995836
0.99995 1.00104 0.993616
0.999599 0.999029 0.996246
0.999449 0.997771 0.999133
0.999668 0.998599 0.996547
0.999497 0.997468 0.999221
0.999581 0.997203 0.999263
1.00504 0.996514 0.988009
1.00315 0.997319 0.990638
0.999546 0.997577 0.979096
1.00289 1.00032 0.989203
1.00069 1.00159 0.991556
1.00286 1.00032 0.988327
1.00197 1.00159 0.989384
1.00038 1.00266 0.990846
1.00452 0.999056 0.986954
1.00065 1.00188 0.991704
1.0029 0.999978 0.989156
1.00504 0.998326 0.986517
1.00278 1.00027 0.989042
1.0047 0.999016 0.98643
1.00505 0.997147 0.987411
1.00469 0.998514 0.986821
1.00343 0.996694 0.992771
1.00498 0.997113 0.987822
1.00494 0.996998 0.988754
1.00294 0.998279 0.989111
1.00501 0.99639 0.988392
1.00523 0.996833 0.987708
1.00497 0.996927 0.988052
1.00514 0.996688 0.987927
1.00508 0.997458 0.987463
1.00486 0.996955 0.988093
1.00477 0.997831 0.987653
1.00468 0.998276 0.987328
1.00479 0.998012 0.987495
1.0046 0.99843 0.987344
1.00441 0.998744 0.98745
1.00433 0.998464 0.987903
1.00411 0.998944 0.987816
1.00377 0.999441 0.987989
1.00354 0.999442 0.988414
1.00324 0.999974 0.988474
1.00274 1.00033 0.989059
1.00269 1.00038 0.988972
1.00225 1.00071 0.989605
1.00148 1.00071 0.991047
1.00174 1.00116 0.989931
1.00106 1.00109 0.991458
0.99971 1.00069 0.995066
0.999151 0.999541 0.996916
0.99969 1.00063 0.994845
1.00064 1.00153 0.991863
0.999213 0.998993 0.99877
0.999694 1.00037 0.994776
0.999339 0.998532 0.998855
1.00341 0.999387 0.988516
1.00191 1.00152 0.989151
1.0013 1.00222 0.989684
1.00107 1.00191 0.990721
1.00062 1.00255 0.990565
1.00064 1.00211 0.991296
1.00019 1.00175 0.992524
1.00031 1.00219 0.991811
1.00003 1.00169 0.992812
0.999568 0.999982 0.995376
0.999953 1.00152 0.993145
0.999557 0.999488 0.995849
0.999404 0.998076 0.999024
0.999607 0.998974 0.996265
0.999447 0.99773 0.999158
0.999504 0.997426 0.999236
1.00495 0.997727 0.987247
1.00505 0.996725 0.988538
1.00322 0.997359 0.99014
1.00432 0.998963 0.98733
1.00255 1.00037 0.989595
1.0005 1.00143 0.992059
1.00307 1.00026 0.988465
1.002 1.00161 0.989315
1.00512 0.998622 0.986294
1.00448 0.999153 0.986775
1.00296 0.99993 0.98905
1.00504 0.998344 0.986511
1.00493 0.999008 0.986232
1.00502 0.997266 0.98743
1.00513 0.997676 0.987206
1.00503 0.997039 0.987837
1.00489 0.997029 0.988721
1.00492 0.996871 0.988125
1.00514 0.996784 0.988031
1.00506 0.997403 0.987543
1.00494 0.998263 0.986899
1.00475 0.997904 0.987643
1.00465 0.998346 0.987345
1.0045 0.998925 0.987094
1.00463 0.998445 0.987341
1.00441 0.99874 0.98745
1.00406 0.999137 0.987732
1.00413 0.998944 0.9878
1.00377 0.99944 0.987984
1.00322 0.99989 0.98859
1.00324 0.999968 0.988471
1.00274 1.00033 0.989058
1.00188 1.00044 0.990541
1.00225 1.00071 0.989609
1.00148 1.00071 0.991035
0.999892 1.00053 0.994934
1.00106 1.00111 0.99145
0.999812 1.00066 0.995019
0.999016 1.00008 0.996743
0.999083 0.999599 0.997776
0.99978 1.00055 0.995228
0.99919 0.999119 0.998721
1.00438 0.998701 0.987502
1.00275 1.00048 0.988993
1.00327 0.999103 0.989112
1.00155 1.00162 0.990048
1.00202 1.00155 0.989119
1.00143 1.0022 0.989574
1.00102 1.00195 0.990729
1.00043 1.00167 0.992133
1.0006 1.00211 0.991316
1.00016 1.00173 0.992526
0.999606 1.00037 0.994935
1.00001 1.00169 0.992811
0.999546 0.999975 0.995383
0.999312 0.998493 0.998893
0.999562 0.999429 0.995861
0.999406 0.998021 0.999061
0.999446 0.997685 0.999182
1.00513 0.998005 0.98678
1.00499 0.997702 0.987234
1.00502 0.99686 0.989058
1.00496 0.99852 0.986575
1.0043 0.999036 0.98738
1.00224 1.00042 0.98999
1.00327 1.00017 0.988604
1.00512 0.998578 0.986293
1.00445 0.999249 0.986597
1.00503 0.99837 0.986505
1.00515 0.998002 0.986785
1.00512 0.997679 0.987158
1.00507 0.996977 0.987853
1.00512 0.99833 0.986614
1.00505 0.997365 0.987624
1.00495 0.998239 0.98693
1.00466 0.998923 0.986751
1.00461 0.998421 0.987363
1.0045 0.998928 0.987104
1.00417 0.999265 0.987394
1.00442 0.998738 0.987449
1.00406 0.99914 0.987729
1.00349 0.999591 0.988362
1.00378 0.999439 0.987979
1.00322 0.999888 0.98859
1.00226 1.00017 0.990101
1.00274 1.00033 0.989057
1.0019 1.00043 0.990527
1.00012 1.00031 0.994793
1.00149 1.00072 0.991023
0.999985 1.00052 0.994884
0.998992 1.00025 0.996669
0.999921 1.00061 0.994969
0.998949 1.00017 0.996794
0.998971 0.999609 0.998717
1.00471 0.998872 0.986865
1.00384 0.999293 0.988001
1.00426 0.998805 0.98769
1.00225 1.00095 0.989594
1.00275 1.00036 0.989014
1.00314 0.99883 0.989701
1.00086 1.00145 0.991506
1.00154 1.00163 0.990041
1.00214 1.0016 0.989087
1.00098 1.00199 0.990737
1.00041 1.00166 0.99214
0.999659 1.00067 0.99455
1.00014 1.00171 0.992529
0.99955 1.00044 0.99494
0.999157 0.999052 0.998767
0.999526 0.999973 0.995389
0.99933 0.998406 0.998936
0.99941 0.997969 0.999096
1.0051 0.998065 0.986788
1.00513 0.998003 0.986741
1.00506 0.997676 0.987222
1.00499 0.998378 0.986667
1.00427 0.999114 0.987428
1.00511 0.99852 0.986292
1.00515 0.998192 0.986602
1.00516 0.998031 0.986744
1.00511 0.997683 0.987109
1.00511 0.998246 0.986655
1.00502 0.998678 0.986459
1.00496 0.998208 0.986961
1.00468 0.998974 0.986741
1.00434 0.99935 0.986893
1.00449 0.998932 0.987114
1.00417 0.999275 0.987393
1.00362 0.999638 0.988067
1.00407 0.999139 0.987726
1.0035 0.999589 0.988359
1.00247 0.999946 0.989901
1.00322 0.999886 0.98859
1.00227 1.00015 0.990095
1.00038 1.00007 0.994617
1.00191 1.00041 0.990513
1.00021 1.00031 0.994731
0.999092 1.00021 0.996579
1.00009 1.00049 0.994837
0.998927 1.00032 0.996732
0.998876 1.00029 0.996851
1.00487 0.99848 0.986761
1.00429 0.999049 0.987374
1.0047 0.998842 0.986826
1.0031 1.00001 0.988791
1.00383 0.999366 0.988046
1.00412 0.998907 0.987883
1.00144 1.00092 0.99086
1.00224 1.00089 0.989447
1.00274 1.00022 0.989036
0.999782 1.00081 0.99417
1.00085 1.00143 0.99152
1.00154 1.00165 0.990034
1.00039 1.00166 0.992148
0.999571 1.00078 0.994562
0.999003 0.999663 0.998659
0.999488 1.00052 0.994944
0.999186 0.998932 0.998811
0.999354 0.998319 0.998977
1.00508 0.998194 0.986732
1.0051 0.998078 0.98678
1.00514 0.998008 0.986702
1.00502 0.998241 0.98676
1.00509 0.998461 0.986477
1.00515 0.998202 0.986601
1.00518 0.998059 0.986703
1.0051 0.998179 0.986696
1.00502 0.998632 0.986471
1.00479 0.99912 0.986477
1.0047 0.999032 0.98673
1.00435 0.999407 0.986949
1.00381 0.9997 0.987508
1.00417 0.999287 0.987392
1.00363 0.999643 0.988061
1.00259 0.999908 0.9897
1.0035 0.999592 0.988356
1.00249 0.99993 0.9899
1.00052 0.999935 0.993507
1.00228 1.00013 0.990088
1.00043 1.00007 0.994077
0.999236 1.00014 0.998459
1.00029 1.00031 0.994672
0.999017 1.00027 0.996649
0.998851 1.00044 0.996787
1.00489 0.998423 0.986841
1.0044 0.99892 0.98716
1.00486 0.998521 0.986808
1.00359 0.999436 0.988108
1.00427 0.999076 0.987398
1.00468 0.998814 0.986787
1.00207 1.00024 0.990059
1.00311 1.00001 0.988784
1.00382 0.999444 0.988092
1.00003 1.00065 0.99381
1.00145 1.00089 0.99073
1.00222 1.00082 0.9893
0.998973 1.00014 0.998559
0.999695 1.00089 0.994191
1.00084 1.00143 0.991533
0.999486 1.00088 0.994573
0.99902 0.999526 0.998698
0.999218 0.998801 0.998849
1.00502 0.998412 0.986615
1.00509 0.99819 0.986722
1.00509 0.998095 0.986772
1.00492 0.998882 0.986456
1.00509 0.998442 0.986485
1.00515 0.998207 0.986601
1.00501 0.998571 0.986484
1.00478 0.999115 0.986468
1.00433 0.999457 0.987037
1.00435 0.999466 0.987005
1.00381 0.999737 0.987664
1.00284 0.999923 0.988931
1.00363 0.999644 0.988056
1.0026 0.999906 0.989695
1.0006 0.999967 0.993328
1.0025 0.999916 0.989898
1.00052 0.99994 0.993506
0.999298 1.00005 0.998438
1.00044 1.00008 0.993576
0.999199 1.00014 0.997522
0.998943 1.00034 0.996716
1.00483 0.998571 0.986869
1.0045 0.9988 0.987213
1.00488 0.998413 0.98685
1.00379 0.999337 0.987997
1.00443 0.998897 0.987185
1.00484 0.99856 0.986856
1.00252 0.999802 0.989659
1.0036 0.999504 0.988269
1.00426 0.999102 0.987422
1.00032 1.00028 0.993582
1.00211 1.00023 0.990005
1.00313 0.999997 0.988777
0.999068 1.00033 0.998481
0.999978 1.00068 0.993833
1.00146 1.00086 0.990599
0.99894 1.00002 0.998595
0.999619 1.00095 0.994211
0.999031 0.999379 0.998738
1.00484 0.99881 0.986633
1.00501 0.998433 0.986634
1.0051 0.998183 0.986713
1.00446 0.99921 0.987014
1.00492 0.998853 0.98648
1.00508 0.998428 0.986493
1.00477 0.99911 0.986459
1.00432 0.999481 0.987031
1.0033 0.999733 0.988256
1.00382 0.999774 0.987821
1.00282 0.999939 0.989107
1.00078 1.00003 0.992895
1.00262 0.999898 0.98969
1.00061 0.999967 0.993319
0.999363 1.00001 0.9984
1.00051 0.999951 0.993504
0.999319 1.00004 0.998428
0.999235 1.0001 0.996507
1.0046 0.99886 0.987137
1.00483 0.998497 0.986908
1.00396 0.999247 0.987784
1.00452 0.998793 0.987201
1.00488 0.998402 0.986859
1.00275 0.999722 0.989597
1.00381 0.99933 0.98799
1.00445 0.998873 0.98721
1.00054 0.999968 0.99344
1.00253 0.999849 0.989748
1.00362 0.999576 0.98843
0.999216 1.00026 0.998434
1.0003 1.00028 0.993597
1.00216 1.00023 0.989951
0.999014 1.00026 0.998504
0.99992 1.0007 0.99386
0.998909 0.999908 0.998634
1.00436 0.999187 0.987245
1.00484 0.99883 0.986639
1.005 0.998455 0.986653
1.00342 0.999559 0.988206
1.00447 0.999216 0.987011
1.00491 0.998822 0.986503
1.0043 0.999511 0.987024
1.00326 0.999758 0.988314
1.00105 1.00003 0.992393
1.00279 0.999951 0.989283
1.00081 1.00003 0.992873
0.999474 1.00001 0.998305
1.00062 0.99997 0.993311
0.999397 1 0.998375
0.999345 1.00003 0.998417
1.00412 0.99921 0.987544
1.0046 0.998793 0.987102
1.00482 0.998423 0.986947
1.00292 0.999678 0.989305
1.00397 0.999252 0.987776
1.00453 0.998787 0.987189
1.00071 0.999849 0.993238
1.00274 0.999736 0.989596
1.00383 0.999323 0.987983
0.999363 1.0001 0.998393
1.00054 0.999959 0.993451
1.00254 0.999892 0.989837
0.999166 1.00025 0.998446
1.00027 1.00028 0.993611
0.998949 1.00021 0.998533
1.00334 0.999605 0.988572
1.00438 0.999164 0.987105
1.00483 0.998849 0.986645
1.00119 0.999967 0.992194
1.00342 0.999556 0.9882
1.00447 0.999219 0.987008
1.00321 0.999781 0.988373
1.00106 1.00002 0.992382
0.999663 1.00001 0.998155
1.00083 1.00003 0.992851
0.99954 1.00001 0.998251
0.999433 0.999995 0.998343
1.00314 0.999645 0.988919
1.00414 0.999183 0.987474
1.00459 0.998727 0.987068
1.00091 0.999894 0.993964
1.00292 0.99969 0.989298
1.00398 0.999257 0.987768
0.99949 0.999983 0.998322
1.00071 0.999847 0.993247
1.00273 0.999749 0.989593
0.999319 1.00011 0.998408
1.00053 0.999954 0.993461
0.999115 1.00024 0.998458
1.00119 0.999957 0.992211
1.00335 0.99957 0.988472
1.0044 0.999136 0.986964
0.999787 1 0.998065
1.00119 0.999966 0.992194
1.00342 0.999555 0.988194
1.00108 1.00001 0.992367
0.999717 1.00001 0.998113
0.999611 1 0.998195
1.00112 0.99995 0.993567
1.00314 0.999641 0.988919
1.00416 0.999156 0.987405
0.999422 0.99997 0.99839
1.00084 0.999899 0.992951
1.00292 0.999697 0.989291
0.999445 1.00001 0.99835
1.0007 0.99985 0.993257
0.999279 1.00013 0.99842
0.999779 1.00001 0.99569
1.00119 0.999959 0.992837
1.00335 0.99954 0.988371
0.999792 0.999999 0.998059
1.00119 0.999963 0.992198
0.999761 1 0.998079
0.999522 0.999978 0.996026
1.00105 0.999962 0.993101
1.00314 0.999639 0.98892
0.999487 0.999971 0.997229
1.00084 0.999914 0.992933
0.99941 1.00002 0.998375
0.999782 0.999995 0.998065
1.00114 0.99996 0.992289
0.999796 0.999996 0.998056
0.999617 0.999995 0.997051
1.00101 0.999968 0.992562
0.99952 0.999985 0.998295
0.999747 0.99999 0.998098
0.999641 0.999985 0.99819

TENSORS stress float
0.0011887 7.71516e-07 6.64283e-05
7.71516e-07 0.000286535 -7.66702e-06
6.64283e-05 -7.66702e-06 0.000266786
0.00320561 -8.12094e-05 6.07475e-05
-8.12094e-05 0.00134 3.38308e-06
6.07475e-05 3.38308e-06 0.00133595
0.0012005 3.44458e-05 3.12856e-05
3.44458e-05 0.000301618 -2.42068e-06
3.12856e-05 -2.42068e-06 0.00027708
0.00157577 -1.14378e-05 8.34364e-05
-1.14378e-05 0.000464103 -6.05105e-06
8.34364e-05 -6.05105e-06 0.000442512
0.00128694 -9.58303e-06 7.25324e-05
-9.58303e-06 0.0003381 -7.73595e-06
7.25324e-05 -7.73595e-06 0.000316944
0.0011343 2.68626e-05 5.58288e-05
2.68626e-05 0.00024934 -7.06181e-06
5.58288e-05 -7.06181e-06 0.000231102
0.00110636 -1.59465e-06 8.7655e-06
-1.59465e-06 0.000199095 -4.01209e-06
8.7655e-06 -4.01209e-06 0.000150782
0.00316458 -9.24656e-05 2.14365e-06
-9.24656e-05 0.00131602 -2.78353e-07
2.14365e-06 -2.78353e-07 0.00131153
0.00390513 -0.000169617 1.594e-06
-0.000169617 0.00174694 2.14744e-06
1.594e-06 2.14744e-06 0.00172305
0.00319217 -0.000129901 1.17016e-05
-0.000129901 0.00135816 1.54298e-06
1.17016e-05 1.54298e-06 0.00134354
0.00112674 -3.70589e-05 4.63001e-05
-3.70589e-05 0.000219263 4.15317e-06
4.63001e-05 4.15317e-06 0.000210765
0.000748826 1.85388e-05 7.38012e-06
1.85388e-05 1.93227e-06 4.50669e-06
7.38012e-06 4.50669e-06 -3.91391e-05
0.00175404 -8.65894e-06 0.000100176
-8.65894e-06 0.000539006 7.87501e-07
0.000100176 7.87501e-07 0.000516338
0.00131898 6.25586e-06 1.54376e-05
6.25586e-06 0.000331207 1.26361e-06
1.54376e-05 1.26361e-06 0.000306607
0.00124669 7.55971e-05 -3.70913e-06
7.55971e-05 0.000336639 2.83202e-06
-3.70913e-06 2.83202e-06 0.000306202
0.0014644 8.17859e-06 3.64691e-05
8.17859e-06 0.00041152 -2.15834e-06
3.64691e-05 -2.15834e-06 0.000387781
0.00113286 4.25983e-05 2.59642e-05
4.25983e-05 0.000254525 -2.39335e-06
2.59642e-05 -2.39335e-06 0.000233547
0.00128575 3.07963e-05 3.60098e-05
3.07963e-05 0.000347102 -2.27795e-06
3.60098e-05 -2.27795e-06 0.000320915
0.00121506 -1.16216e-05 -1.33512e-05
-1.16216e-05 0.000251117 3.77796e-07
-1.33512e-05 3.77796e-07 0.000205025
0.0047746 -1.75829e-06 9.95712e-05
-1.75829e-06 0.00214589 -1.01056e-06
9.95712e-05 -1.01056e-06 0.0021407
0.00165405 -6.33058e-06 8.73028e-05
-6.33058e-06 0.000497671 -4.55523e-06
8.73028e-05 -4.55523e-06 0.000476664
0.00142862 -1.16499e-05 7.77408e-05
-1.16499e-05 0.000401665 -7.23273e-06
7.77408e-05 -7.23273e-06 0.000379921
0.00144194 -2.05879e-05 1.69829e-05
-2.05879e-05 0.000306746 -3.37522e-06
1.69829e-05 -3.37522e-06 0.000257807
0.00121358 -1.4866e-06 9.04248e-06
-1.4866e-06 0.000238551 -4.53099e-06
9.04248e-06 -4.53099e-06 0.000188189
0.00114718 4.27711e-05 4.47105e-05
4.27711e-05 0.000239554 -6.7876e-06
4.47105e-05 -6.7876e-06 0.00022525
0.00102283 5.01873e-06 8.32816e-06
5.01873e-06 0.000164817 -3.32663e-06
8.32816e-06 -3.32663e-06 0.000120325
0.00149506 -8.41441e-05 3.71957e-06
-8.41441e-05 0.000314158 -1.42661e-06
3.71957e-06 -1.42661e-06 0.000238198
0.00310793 -9.7277e-05 -4.83742e-05
-9.7277e-05 0.00128325 -3.13534e-06
-4.83742e-05 -3.13534e-06 0.00127891
0.00253742 -6.01013e-05 -3.37681e-05
-6.01013e-05 0.001008 -7.36322e-07
-3.37681e-05 -7.36322e-07 0.000987822
0.00221468 -7.83223e-05 -2.40198e-05
-7.83223e-05 0.000832135 -5.76203e-07
-2.40198e-05 -5.76203e-07 0.000815772
0.00294634 -8.66423e-05 1.21965e-06
-8.66423e-05 0.00118682 -1.55049e-07
1.21965e-06 -1.55049e-07 0.00118643
0.000693413 1.04508e-05 -1.00405e-07
1.04508e-05 -2.22369e-05 -1.53314e-07
-1.00405e-07 -1.53314e-07 -6.38481e-05
0.00161942 2.25004e-05 7.94668e-05
2.25004e-05 0.000500033 4.78895e-06
7.94668e-05 4.78895e-06 0.000478668
0.00158798 4.34359e-06 6.85408e-05
4.34359e-06 0.000498108 5.43238e-06
6.85408e-05 5.43238e-06 0.000477703
0.00216851 6.48129e-05 4.3118e-05
6.48129e-05 0.00072716 5.02814e-06
4.3118e-05 5.02814e-06 0.000685103
0.00270162 -8.90409e-05 1.42614e-05
-8.90409e-05 0.00104857 1.37638e-06
1.42614e-05 1.37638e-06 0.00105087
0.00187578 2.55569e-05 3.30999e-05
2.55569e-05 0.000597771 3.87469e-06
3.30999e-05 3.87469e-06 0.000560479
0.000682727 -1.72491e-05 7.42977e-06
-1.72491e-05 -2.94041e-05 6.56634e-06
7.42977e-06 6.56634e-06 -6.66512e-05
0.000911743 5.58883e-05 3.64068e-06
5.58883e-05 5.63428e-05 7.84747e-07
3.64068e-06 7.84747e-07 -1.79764e-05
0.00251522 -6.25202e-05 3.7347e-05
-6.25202e-05 0.000936612 3.34661e-06
3.7347e-05 3.34661e-06 0.000946193
0.00494268 -1.32247e-05 1.61285e-06
-1.32247e-05 0.00222921 -4.83008e-07
1.61285e-06 -4.83008e-07 0.0022236
0.00298654 4.97312e-06 -3.95604e-05
4.97312e-06 0.00120946 -9.01475e-07
-3.95604e-05 -9.01475e-07 0.00119431
0.00516011 8.94665e-06 0.00010879
8.94665e-06 0.00233577 3.51604e-07
0.00010879 3.51604e-07 0.0023304
0.00134776 1.00373e-05 1.3722e-05
1.00373e-05 0.00034231 8.45533e-07
1.3722e-05 8.45533e-07 0.000316484
0.000798506 -4.76022e-06 1.42775e-05
-4.76022e-06 -7.05983e-05 2.04268e-06
1.42775e-05 2.04268e-06 -0.000126427
0.00438127 -3.35787e-05 2.47619e-05
-3.35787e-05 0.00195743 1.06692e-06
2.47619e-05 1.06692e-06 0.00194718
0.00233294 7.74619e-06 5.19622e-05
7.74619e-06 0.00076243 3.01712e-06
5.19622e-05 3.01712e-06 0.000722905
0.00134862 5.46945e-06 -1.53424e-05
5.46945e-06 0.000356101 1.97889e-06
-1.53424e-05 1.97889e-06 0.00033069
0.001318 6.85422e-05 -3.46572e-06
6.85422e-05 0.000373561 2.91307e-06
-3.46572e-06 2.91307e-06 0.000342629
0.00113795 6.83245e-05 -6.41973e-06
6.83245e-05 0.000264132 2.30283e-06
-6.41973e-06 2.30283e-06 0.000239227
0.00127884 -2.49687e-05 -3.53731e-05
-2.49687e-05 0.00027859 4.72201e-06
-3.53731e-05 4.72201e-06 0.000235345
0.0031709 4.11716e-05 -4.04465e-05
4.11716e-05 0.00130084 -1.02517e-06
-4.04465e-05 -1.02517e-06 0.00128253
0.00149364 3.47225e-06 3.63147e-05
3.47225e-06 0.000418389 -1.51246e-06
3.63147e-05 -1.51246e-06 0.000395505
0.00110038 5.08274e-05 1.93706e-05
5.08274e-05 0.000218016 -2.32881e-06
1.93706e-05 -2.32881e-06 0.00020261
0.00137813 2.10784e-05 3.70336e-05
2.10784e-05 0.000383208 -2.34935e-06
3.70336e-05 -2.34935e-06 0.000357974
0.00149466 -2.93794e-05 -1.32104e-05
-2.93794e-05 0.000332019 2.25553e-07
-1.32104e-05 2.25553e-07 0.000284756
0.00111863 1.19365e-06 -1.04005e-05
1.19365e-06 0.000211106 3.46771e-07
-1.04005e-05 3.46771e-07 0.000168191
0.00131101 -1.84653e-05 -1.44756e-05
-1.84653e-05 0.000283591 3.33241e-07
-1.44756e-05 3.33241e-07 0.000236378
0.00162052 -8.93186e-05 -2.15733e-06
-8.93186e-05 0.000375669 7.66723e-07
-2.15733e-06 7.66723e-07 0.000298666
0.00494307 3.22776e-05 9.87144e-05
3.22776e-05 0.00222963 1.34222e-07
9.87144e-05 1.34222e-07 0.00222378
0.00163955 2.73463e-06 8.96351e-05
2.73463e-06 0.000488581 -3.25773e-06
8.96351e-05 -3.25773e-06 0.000467314
0.00224516 4.06897e-05 1.22235e-05
4.06897e-05 0.000711416 -1.01389e-06
1.22235e-05 -1.01389e-06 0.000664378
0.00148497 -2.14388e-05 1.90371e-05
-2.14388e-05 0.000318652 -2.39337e-06
1.90371e-05 -2.39337e-06 0.000270948
0.00132982 -9.39901e-06 1.24779e-05
-9.39901e-06 0.000273593 -4.29272e-06
1.24779e-05 -4.29272e-06 0.000223645
0.00193266 -7.47186e-05 6.14311e-06
-7.47186e-05 0.000418422 -1.92844e-06
6.14311e-06 -1.92844e-06 0.000336449
0.00122886 -7.58832e-05 5.57409e-06
-7.58832e-05 0.00013221 -2.6633e-06
5.57409e-06 -2.6633e-06 5.24599e-05
0.00122581 4.50535e-05 4.10271e-05
4.50535e-05 0.000259787 -6.57523e-06
4.10271e-05 -6.57523e-06 0.000252231
0.000982655 3.02907e-05 6.62261e-06
3.02907e-05 0.000147144 -2.8966e-06
6.62261e-06 -2.8966e-06 0.000109493
0.00131883 -7.11852e-05 2.72096e-06
-7.11852e-05 0.000259533 -9.2401e-07
2.72096e-06 -9.2401e-07 0.000186812
0.00112374 -9.22172e-05 2.46489e-06
-9.22172e-05 6.29243e-05 -7.39182e-07
2.46489e-06 -7.39182e-07 -3.42297e-05
0.00382933 -8.91811e-05 -6.2892e-05
-8.91811e-05 0.00169269 -3.87017e-06
-6.2892e-05 -3.87017e-06 0.00167997
0.00292312 -8.78835e-05 -4.39229e-05
-8.78835e-05 0.0011713 -3.14763e-06
-4.39229e-05 -3.14763e-06 0.00117196
0.00325817 -0.000102349 -5.38173e-05
-0.000102349 0.00138033 -3.04431e-06
-5.38173e-05 -3.04431e-06 0.00137171
0.000644236 1.04984e-05 -6.29831e-06
1.04984e-05 -4.4229e-05 -5.12427e-06
-6.29831e-06 -5.12427e-06 -8.569e-05
0.00441737 -3.65812e-05 -2.82167e-06
-3.65812e-05 0.00198159 -2.04273e-07
-2.82167e-06 -2.04273e-07 0.00197288
0.0037068 -9.12853e-05 2.32122e-06
-9.12853e-05 0.00162966 -2.09512e-07
2.32122e-06 -2.09512e-07 0.00161729
0.000638676 6.43646e-05 -4.95169e-07
6.43646e-05 -7.60252e-05 -1.5017e-07
-4.95169e-07 -1.5017e-07 -0.000126543
0.00188003 -6.38484e-05 -1.70714e-05
-6.38484e-05 0.000610311 -7.28414e-07
-1.70714e-05 -7.28414e-07 0.000609574
0.000665434 3.39769e-05 -2.53817e-07
3.39769e-05 -3.7594e-05 -8.36322e-08
-2.53817e-07 -8.36322e-08 -8.26729e-05
0.0011578 -2.63486e-05 9.40578e-06
-2.63486e-05 0.000224045 4.71283e-07
9.40578e-06 4.71283e-07 0.000190994
0.000865972 5.50046e-05 1.60376e-07
5.50046e-05 3.1282e-05 -2.22149e-07
1.60376e-07 -2.22149e-07 -4.23853e-05
0.0026431 -6.92717e-05 4.0986e-05
-6.92717e-05 0.00100917 3.32381e-06
4.0986e-05 3.32381e-06 0.00101634
0.000727651 -4.95028e-05 1.91468e-06
-4.95028e-05 -1.77204e-05 4.21164e-06
1.91468e-06 4.21164e-06 -3.72944e-05
0.000783201 5.72182e-05 1.40235e-05
5.72182e-05 -2.7831e-05 6.02837e-06
1.40235e-05 6.02837e-06 -7.95547e-05
0.000799485 5.63236e-05 1.22973e-05
5.63236e-05 2.01469e-05 7.23835e-06
1.22973e-05 7.23835e-06 -2.89735e-05
0.00104707 7.52449e-05 6.08174e-06
7.52449e-05 2.55027e-05 2.47656e-06
6.08174e-06 2.47656e-06 -5.79776e-05
0.00156468 -5.30268e-05 2.02789e-05
-5.30268e-05 0.000438356 3.66876e-06
2.02789e-05 3.66876e-06 0.000413695
0.000960024 7.07701e-05 3.91163e-06
7.07701e-05 5.96414e-05 1.32774e-06
3.91163e-06 1.32774e-06 -1.54154e-05
0.000889235 3.93587e-05 3.52288e-06
3.93587e-05 5.94042e-05 1.63493e-06
3.52288e-06 1.63493e-06 -1.34247e-05
0.000886897 8.40405e-05 1.99545e-06
8.40405e-05 1.32142e-05 -5.78392e-07
1.99545e-06 -5.78392e-07 -7.67886e-05
0.00235036 -5.5896e-05 3.25667e-05
-5.5896e-05 0.000843128 3.42101e-06
3.25667e-05 3.42101e-06 0.000855266
0.00246388 -6.27091e-05 7.48591e-07
-6.27091e-05 0.000909378 -9.70686e-08
7.48591e-07 -9.70686e-08 0.000919209
0.00457899 9.06987e-06 -9.28456e-05
9.06987e-06 0.00205109 -2.80362e-06
-9.28456e-05 -2.80362e-06 0.00204568
0.0048413 -1.60973e-05 -9.68588e-05
-1.60973e-05 0.0021793 -1.0458e-06
-9.68588e-05 -1.0458e-06 0.00217378
0.00511404 1.05192e-05 3.46351e-06
1.05192e-05 0.00231471 -5.51231e-07
3.46351e-06 -5.51231e-07 0.00230842
0.00306081 -9.3349e-06 -3.99167e-05
-9.3349e-06 0.00124463 -5.31598e-07
-3.99167e-05 -5.31598e-07 0.0012285
0.00162264 7.66552e-06 2.27163e-05
7.66552e-06 0.000368061 1.68657e-07
2.27163e-05 1.68657e-07 0.000318492
0.00288662 -1.34511e-05 -4.04118e-05
-1.34511e-05 0.00116539 -1.01051e-06
-4.04118e-05 -1.01051e-06 0.00114942
0.00152982 2.44057e-05 2.0153e-05
2.44057e-05 0.000341442 3.60535e-07
2.0153e-05 3.60535e-07 0.000296246
0.00515171 7.71633e-05 0.000101334
7.71633e-05 0.00233529 1.36541e-06
0.000101334 1.36541e-06 0.0023274
0.000772257 -1.17503e-06 1.2911e-05
-1.17503e-06 -9.56952e-05 3.09452e-07
1.2911e-05 3.09452e-07 -0.000153541
0.00237787 -1.5325e-05 5.41937e-05
-1.5325e-05 0.000777995 2.10536e-06
5.41937e-05 2.10536e-06 0.000736676
0.00125045 1.54233e-05 7.82542e-06
1.54233e-05 1.05584e-05 1.65918e-06
7.82542e-06 1.65918e-06 -7.96285e-05
0.00225071 4.94817e-05 4.91042e-05
4.94817e-05 0.000733023 3.48236e-06
4.91042e-05 3.48236e-06 0.000692622
0.00119772 4.45963e-05 7.70708e-06
4.45963e-05 1.5873e-05 1.50642e-06
7.70708e-06 1.50642e-06 -7.03545e-05
0.00171 1.77633e-05 -9.6757e-05
1.77633e-05 0.000519903 3.63575e-07
-9.6757e-05 3.63575e-07 0.000498002
0.00131542 -6.86026e-06 -1.66509e-05
-6.86026e-06 0.000329898 1.47509e-06
-1.66509e-05 1.47509e-06 0.000305142
0.000999094 6.03514e-05 -7.91829e-06
6.03514e-05 0.000168248 1.869e-06
-7.91829e-06 1.869e-06 0.000151462
0.00134911 2.7312e-05 -1.0759e-05
2.7312e-05 0.000372715 2.38598e-06
-1.0759e-05 2.38598e-06 0.000346159
0.00155432 -2.69529e-05 -4.55833e-05
-2.69529e-05 0.00036125 3.96172e-06
-4.55833e-05 3.96172e-06 0.000315379
0.00137011 -3.30806e-05 -3.93583e-05
-3.30806e-05 0.000308331 4.94728e-06
-3.93583e-05 4.94728e-06 0.000264258
0.00120088 -8.06759e-06 -3.05883e-05
-8.06759e-06 0.000249646 4.0929e-06
-3.05883e-05 4.0929e-06 0.00020892
0.00177808 -9.51043e-05 -8.7086e-06
-9.51043e-05 0.000453959 3.25114e-06
-8.7086e-06 3.25114e-06 0.000375834
0.00503526 1.15243e-05 -2.96089e-06
1.15243e-05 0.00227478 -4.90644e-07
-2.96089e-06 -4.90644e-07 0.00226915
0.00148068 2.72385e-06 3.76436e-05
2.72385e-06 0.000409962 -8.79322e-07
3.76436e-05 -8.79322e-07 0.000386831
0.00115594 8.05645e-06 -2.43731e-05
8.05645e-06 0.000128231 3.0571e-07
-2.43731e-05 3.0571e-07 7.72971e-05
0.0015169 -2.36229e-05 -1.36215e-05
-2.36229e-05 0.000333318 2.29729e-07
-1.36215e-05 2.29729e-07 0.000286911
0.00202175 6.43806e-05 3.25357e-05
6.43806e-05 0.000687157 -1.51993e-06
3.25357e-05 -1.51993e-06 0.000684082
0.0012938 2.94474e-05 -6.52669e-06
2.94474e-05 0.000307776 2.99832e-07
-6.52669e-06 2.99832e-07 0.000270949
0.00141038 -2.80306e-05 -1.3413e-05
-2.80306e-05 0.000310817 2.94708e-07
-1.3413e-05 2.94708e-07 0.000263796
0.00175106 -6.93915e-05 -4.31353e-06
-6.93915e-05 0.000322494 6.74949e-07
-4.31353e-06 6.74949e-07 0.000239443
0.0014902 -8.01804e-05 -1.73161e-06
-8.01804e-05 0.000345396 7.43675e-07
-1.73161e-06 7.43675e-07 0.000271205
0.00150047 -8.32053e-05 -1.00847e-06
-8.32053e-05 0.000273528 1.04542e-07
-1.00847e-06 1.04542e-07 0.000194269
0.00113246 -9.19284e-05 -3.60661e-08
-9.19284e-05 6.70667e-05 6.7886e-08
-3.60661e-08 6.7886e-08 -2.99212e-05
0.000749667 2.66403e-06 1.26878e-05
2.66403e-06 -9.84654e-05 -1.54947e-06
1.26878e-05 -1.54947e-06 -0.00015502
0.00146444 -1.5114e-05 1.8388e-05
-1.5114e-05 0.000305843 -1.92984e-06
1.8388e-05 -1.92984e-06 0.000258205
0.00161351 -4.27596e-06 7.25542e-06
-4.27596e-06 0.00021439 -1.43469e-06
7.25542e-06 -1.43469e-06 0.00012928
0.00157125 -5.10221e-05 7.38369e-06
-5.10221e-05 0.000211915 -1.24148e-06
7.38369e-06 -1.24148e-06 0.00012963
0.00145161 -7.62822e-05 6.809e-06
-7.62822e-05 0.000200406 -2.84505e-06
6.809e-06 -2.84505e-06 0.00011738
0.00182211 -8.36728e-05 2.12438e-06
-8.36728e-05 0.000278807 -6.04798e-07
2.12438e-06 -6.04798e-07 0.000178532
0.00282748 7.84891e-05 4.21329e-05
7.84891e-05 0.0011061 -3.07746e-06
4.21329e-05 -3.07746e-06 0.00111129
0.0011583 -8.86177e-05 2.52432e-06
-8.86177e-05 3.47879e-05 -1.13969e-06
2.52432e-06 -1.13969e-06 -6.34604e-05
0.000687514 6.23686e-05 2.17809e-06
6.23686e-05 -2.09666e-05 -4.45837e-06
2.17809e-06 -4.45837e-06 -5.76767e-05
0.00070437 -4.73995e-05 2.56351e-06
-4.73995e-05 -3.67686e-05 -9.89842e-07
2.56351e-06 -9.89842e-07 -0.000107635
0.0012209 -9.98295e-05 2.35216e-06
-9.98295e-05 0.000158437 -8.50968e-07
2.35216e-06 -8.50968e-07 6.14285e-05
0.00124996 -0.000103183 1.00628e-06
-0.000103183 9.06174e-05 -1.6537e-07
1.00628e-06 -1.6537e-07 -1.52337e-05
0.000640366 5.22667e-05 2.69807e-06
5.22667e-05 -6.20008e-05 -4.39579e-06
2.69807e-06 -4.39579e-06 -8.67606e-05
0.000819055 3.10646e-05 9.53095e-07
3.10646e-05 1.24526e-05 -2.42449e-06
9.53095e-07 -2.42449e-06 -4.03741e-05
0.00420645 -3.57245e-05 -7.80783e-05
-3.57245e-05 0.00187379 -3.60294e-06
-7.80783e-05 -3.60294e-06 0.00186587
0.00345812 -0.000101707 -5.72157e-05
-0.000101707 0.00149907 -3.39438e-06
-5.72157e-05 -3.39438e-06 0.00148722
0.000581885 5.66692e-05 -9.96235e-06
5.66692e-05 -0.000103771 -5.69754e-06
-9.96235e-06 -5.69754e-06 -0.000154141
0.00277139 -7.83475e-05 -4.13102e-05
-7.83475e-05 0.00108218 -3.10408e-06
-4.13102e-05 -3.10408e-06 0.00108686
0.000620104 -4.44698e-05 -1.7385e-06
-4.44698e-05 -5.53601e-05 -5.27731e-06
-1.7385e-06 -5.27731e-06 -9.26896e-05
0.000601374 2.99894e-05 -7.50091e-06
2.99894e-05 -6.57477e-05 -4.922e-06
-7.50091e-06 -4.922e-06 -0.000111387
0.000833763 5.40022e-05 -3.56427e-06
5.40022e-05 1.344e-05 -1.22362e-06
-3.56427e-06 -1.22362e-06 -5.98501e-05
0.00262915 -6.97684e-05 6.76848e-07
-6.97684e-05 0.00100189 -1.24256e-07
6.76848e-07 -1.24256e-07 0.0010092
0.000701719 -4.65951e-05 1.30186e-07
-4.65951e-05 -3.27165e-05 7.37012e-08
1.30186e-07 7.37012e-08 -5.14998e-05
0.00141057 5.89798e-05 1.76606e-05
5.89798e-05 0.000306575 2.20905e-07
1.76606e-05 2.20905e-07 0.000260179
0.00124555 4.7492e-05 1.46377e-05
4.7492e-05 0.000262064 2.68523e-07
1.46377e-05 2.68523e-07 0.000217932
0.00102881 7.52993e-05 3.83899e-07
7.52993e-05 1.69035e-05 -1.10026e-07
3.83899e-07 -1.10026e-07 -6.64584e-05
0.00069696 -5.8577e-05 7.13533e-09
-5.8577e-05 -2.05666e-05 8.61447e-08
7.13533e-09 8.61447e-08 -5.1213e-05
0.000904766 6.76408e-05 8.92412e-08
6.76408e-05 3.10559e-05 2.9404e-07
8.92412e-08 2.9404e-07 -4.35972e-05
0.000841884 3.33475e-05 2.57452e-07
3.33475e-05 3.50664e-05 -2.81418e-07
2.57452e-07 -2.81418e-07 -3.75973e-05
0.000843584 8.20954e-05 -7.2983e-08
8.20954e-05 -1.02536e-05 -1.66798e-07
-7.2983e-08 -1.66798e-07 -0.000100516
0.000696326 -5.64111e-05 1.63027e-06
-5.64111e-05 -2.59491e-05 4.43929e-06
1.63027e-06 4.43929e-06 -5.12872e-05
0.000756698 -4.1376e-05 2.53371e-06
-4.1376e-05 -1.26874e-05 3.85079e-06
2.53371e-06 3.85079e-06 -2.66825e-05
0.000764506 -6.34722e-06 2.48159e-06
-6.34722e-06 -1.09376e-05 2.30797e-06
2.48159e-06 2.30797e-06 -6.25968e-05
0.00109378 6.7382e-05 6.93593e-06
6.7382e-05 6.16211e-06 2.24593e-06
6.93593e-06 2.24593e-06 -7.93265e-05
0.00100913 7.67123e-05 4.86261e-06
7.67123e-05 5.30693e-05 2.28617e-06
4.86261e-06 2.28617e-06 -2.61153e-05
0.00123698 9.52589e-05 3.35189e-06
9.52589e-05 6.47701e-05 1.30814e-06
3.35189e-06 1.30814e-06 -3.71733e-05
0.000857914 2.30882e-05 2.87322e-06
2.30882e-05 4.22476e-05 2.03654e-06
2.87322e-06 2.03654e-06 -2.50534e-05
0.000928393 8.72311e-05 1.58327e-06
8.72311e-05 5.02176e-06 -8.39078e-08
1.58327e-06 -8.39078e-08 -8.52887e-05
0.00105514 8.72089e-05 2.17536e-06
8.72089e-05 0.000126552 1.05515e-07
2.17536e-06 1.05515e-07 3.50495e-05
0.00106246 9.99301e-05 -3.84247e-07
9.99301e-05 9.57079e-05 -1.50011e-06
-3.84247e-07 -1.50011e-06 -2.79844e-06
0.00223352 -4.97554e-05 2.84928e-05
-4.97554e-05 0.000773415 3.48965e-06
2.84928e-05 3.48965e-06 0.000787999
0.00231394 -5.60856e-05 6.31368e-07
-5.60856e-05 0.000823032 -7.95835e-08
6.31368e-07 -7.95835e-08 0.00083546
0.002416 -6.27832e-05 -3.27163e-05
-6.27832e-05 0.00088371 -3.2292e-06
-3.27163e-05 -3.2292e-06 0.000893842
0.000683978 4.27929e-05 2.96274e-06
4.27929e-05 -4.71137e-05 -3.93608e-06
2.96274e-06 -3.93608e-06 -6.59933e-05
0.0026794 7.0674e-05 3.8302e-05
7.0674e-05 0.00102322 -3.18256e-06
3.8302e-05 -3.18256e-06 0.00103097
0.00444416 -3.61516e-06 -8.78901e-05
-3.61516e-06 0.00198714 -3.34117e-06
-8.78901e-05 -3.34117e-06 0.00198103
0.00467611 1.09071e-05 -9.49574e-05
1.09071e-05 0.002098 -2.02451e-06
-9.49574e-05 -2.02451e-06 0.00209267
0.000707365 3.07104e-05 -1.19995e-05
3.07104e-05 -9.24795e-05 -2.86236e-06
-1.19995e-05 -2.86236e-06 -0.00014266
0.000733871 1.81022e-05 -1.25378e-05
1.81022e-05 -9.86066e-05 -1.70402e-06
-1.25378e-05 -1.70402e-06 -0.000153882
0.00505511 -2.73393e-05 -0.000100036
-2.73393e-05 0.00228483 -1.88721e-07
-0.000100036 -1.88721e-07 0.00227902
0.00516374 9.40444e-06 -1.2519e-06
9.40444e-06 0.00233808 4.83329e-07
-1.2519e-06 4.83329e-07 0.00233237
0.000762561 6.52491e-07 -8.03638e-08
6.52491e-07 -9.96543e-05 -3.64265e-07
-8.03638e-08 -3.64265e-07 -0.000157486
0.00158036 7.39362e-06 2.14086e-05
7.39362e-06 0.00035959 3.5575e-07
2.14086e-05 3.5575e-07 0.000313038
0.00124346 1.90991e-05 1.55251e-07
1.90991e-05 7.56357e-06 8.57356e-08
1.55251e-07 8.57356e-08 -8.26549e-05
0.000667062 4.17465e-05 6.63009e-08
4.17465e-05 -0.000102057 -7.3802e-08
6.63009e-08 -7.3802e-08 -0.000152002
0.00119491 4.63155e-05 1.25679e-08
4.63155e-05 1.51634e-05 -1.62539e-07
1.25679e-08 -1.62539e-07 -7.1299e-05
0.000745612 -6.70671e-06 1.3056e-05
-6.70671e-06 -0.000111902 -7.5885e-07
1.3056e-05 -7.5885e-07 -0.00017034
0.00128969 7.15873e-06 8.15776e-06
7.15873e-06 9.73251e-06 4.78246e-07
8.15776e-06 4.78246e-07 -8.45747e-05
0.00122482 2.97629e-05 7.67488e-06
2.97629e-05 1.62982e-05 1.45526e-06
7.67488e-06 1.45526e-06 -7.06154e-05
0.0015042 1.83759e-05 3.34279e-06
1.83759e-05 6.24637e-05 1.39591e-06
3.34279e-06 1.39591e-06 -4.20282e-05
0.00115141 5.64371e-05 7.43581e-06
5.64371e-05 8.25839e-06 1.95182e-06
7.43581e-06 1.95182e-06 -7.78157e-05
0.00143947 5.13284e-05 3.24803e-06
5.13284e-05 6.36266e-05 3.20588e-07
3.24803e-06 3.20588e-07 -3.61658e-05
0.00508729 1.47675e-05 -0.000109613
1.47675e-05 0.00230003 -7.87089e-07
-0.000109613 -7.87089e-07 0.0022945
0.00130223 -1.29651e-05 -1.45901e-05
-1.29651e-05 0.000321187 1.049e-06
-1.45901e-05 1.049e-06 0.000296113
1.38183e-05 2.19597e-07 -1.2812e-05
2.19597e-07 -0.000478176 2.41795e-06
-1.2812e-05 2.41795e-06 -0.000537435
0.0015727 -1.64724e-05 -4.7135e-05
-1.64724e-05 0.000360555 2.73687e-06
-4.7135e-05 2.73687e-06 0.000315339
0.0027497 9.67768e-05 -1.49828e-05
9.67768e-05 0.0010809 1.2733e-06
-1.49828e-05 1.2733e-06 0.00107987
0.0016418 1.42903e-05 -2.44338e-05
1.42903e-05 0.00048336 3.8064e-06
-2.44338e-05 3.8064e-06 0.000450506
0.00147432 -3.30122e-05 -4.26519e-05
-3.30122e-05 0.000340869 4.74394e-06
-4.26519e-05 4.74394e-06 0.00029572
0.00156467 -6.42737e-05 -1.36021e-05
-6.42737e-05 0.000224023 3.11617e-06
-1.36021e-05 3.11617e-06 0.000139925
0.00178959 -9.14012e-05 -8.75997e-06
-9.14012e-05 0.000424337 3.10256e-06
-8.75997e-06 3.10256e-06 0.00034545
0.00167568 -8.88302e-05 -7.08783e-06
-8.88302e-05 0.000438826 2.65525e-06
-7.08783e-06 2.65525e-06 0.00036313
0.00114321 -9.17636e-05 -1.99922e-06
-9.17636e-05 7.2284e-05 7.38398e-07
-1.99922e-06 7.38398e-07 -2.45545e-05
0.000756896 4.52719e-06 -4.27215e-08
4.52719e-06 -9.61669e-05 -2.57149e-07
-4.27215e-08 -2.57149e-07 -0.00015272
0.00151443 -1.21405e-05 -1.47809e-05
-1.21405e-05 0.000329683 9.50496e-08
-1.47809e-05 9.50496e-08 0.000283322
0.00123461 -4.3158e-06 -2.74826e-06
-4.3158e-06 1.51913e-05 5.38025e-08
-2.74826e-06 5.38025e-08 -7.21939e-05
0.00178644 -5.29395e-05 -2.18606e-06
-5.29395e-05 0.000325368 2.80423e-07
-2.18606e-06 2.80423e-07 0.000244114
0.00279009 7.74569e-05 -6.26084e-07
7.74569e-05 0.00108785 -1.41698e-07
-6.26084e-07 -1.41698e-07 0.00109276
0.00112438 4.00718e-05 1.70706e-06
4.00718e-05 0.000206076 1.89636e-07
1.70706e-06 1.89636e-07 0.000174491
0.00109674 -4.94204e-05 1.30512e-07
-4.94204e-05 0.000166562 -8.65653e-08
1.30512e-07 -8.65653e-08 9.56515e-05
0.00145652 -7.55613e-05 -1.9293e-06
-7.55613e-05 0.000204467 2.42052e-07
-1.9293e-06 2.42052e-07 0.00012143
0.00151086 -7.67276e-05 -1.73938e-06
-7.67276e-05 0.000114053 4.49213e-07
-1.73938e-06 4.49213e-07 1.24991e-05
0.00100555 -9.06785e-05 -3.23568e-07
-9.06785e-05 4.82282e-05 -1.37696e-07
-3.23568e-07 -1.37696e-07 -4.84234e-05
0.00141097 -9.49048e-05 4.59786e-08
-9.49048e-05 0.000164406 -3.27343e-08
4.59786e-08 -3.27343e-08 6.66838e-05
0.00123824 -0.000102212 1.11933e-07
-0.000102212 8.45706e-05 1.43642e-07
1.11933e-07 1.43642e-07 -2.10574e-05
0.00065962 5.48365e-05 -2.08062e-07
5.48365e-05 -4.97998e-05 4.18977e-08
-2.08062e-07 4.18977e-08 -7.53872e-05
0.000793494 2.87574e-05 -2.95333e-07
2.87574e-05 -1.4836e-06 1.20799e-07
-2.95333e-07 1.20799e-07 -5.41769e-05
0.00126525 -2.74897e-06 7.69228e-06
-2.74897e-06 4.85422e-06 -1.69006e-06
7.69228e-06 -1.69006e-06 -8.78968e-05
0.00155092 -2.16889e-05 7.0889e-06
-2.16889e-05 0.000198188 -1.20729e-06
7.0889e-06 -1.20729e-06 0.000117033
0.00185971 -8.64747e-06 2.30363e-06
-8.64747e-06 0.000265161 -6.79289e-07
2.30363e-06 -6.79289e-07 0.000165969
0.00127075 -5.17157e-05 4.08765e-06
-5.17157e-05 -3.44676e-05 -4.55114e-07
4.08765e-06 -4.55114e-07 -0.000134544
0.0014676 -9.17593e-05 2.56379e-06
-9.17593e-05 0.000142953 -1.10315e-06
2.56379e-06 -1.10315e-06 4.30514e-05
0.00176875 -8.20079e-05 8.41524e-08
-8.20079e-05 0.000200159 1.52241e-07
8.41524e-08 1.52241e-07 9.63621e-05
0.000585488 5.9447e-05 1.76433e-06
5.9447e-05 -8.22226e-05 -4.67221e-06
1.76433e-06 -4.67221e-06 -0.000113224
0.00133102 -9.94564e-05 6.13304e-07
-9.94564e-05 7.62488e-05 -7.87624e-07
6.13304e-07 -7.87624e-07 -2.98739e-05
0.00071596 -1.74341e-05 1.99056e-06
-1.74341e-05 -2.78819e-05 -9.98929e-07
1.99056e-06 -9.98929e-07 -9.70678e-05
0.00064499 -7.3206e-05 1.82448e-06
-7.3206e-05 -9.75612e-05 -1.25565e-06
1.82448e-06 -1.25565e-06 -0.00018922
0.00167076 -0.000126829 5.69605e-07
-0.000126829 0.000361542 4.85532e-08
5.69605e-07 4.85532e-08 0.000253796
0.00149147 -0.000114822 -7.75372e-07
-0.000114822 0.000184685 8.96933e-07
-7.75372e-07 8.96933e-07 7.63829e-05
0.000860238 3.34323e-06 1.76647e-06
3.34323e-06 3.81822e-05 -2.28968e-06
1.76647e-06 -2.28968e-06 -2.36345e-05
0.000808343 3.69035e-05 8.33838e-07
3.69035e-05 3.147e-06 -1.90119e-06
8.33838e-07 -1.90119e-06 -4.18088e-05
0.000879118 -2.80728e-05 5.77481e-07
-2.80728e-05 4.26211e-05 -7.66186e-07
5.77481e-07 -7.66186e-07 -3.47276e-05
0.000625006 5.49755e-05 -1.09408e-05
5.49755e-05 -0.000105455 -5.02284e-06
-1.09408e-05 -5.02284e-06 -0.000156486
0.00259673 -7.01253e-05 -3.7306e-05
-7.01253e-05 0.00098487 -3.1454e-06
-3.7306e-05 -3.1454e-06 0.00099236
0.000681675 -4.33921e-05 -3.04591e-06
-4.33921e-05 -4.44173e-05 -3.90603e-06
-3.04591e-06 -3.90603e-06 -6.24441e-05
0.000570614 4.378e-05 -8.19069e-06
4.378e-05 -8.8898e-05 -5.42583e-06
-8.19069e-06 -5.42583e-06 -0.00013723
0.00100572 7.52995e-05 -5.83349e-06
7.52995e-05 6.00179e-06 -2.81765e-06
-5.83349e-06 -2.81765e-06 -7.7271e-05
0.000583514 -5.87824e-05 -1.70306e-06
-5.87824e-05 -7.95017e-05 -4.83415e-06
-1.70306e-06 -4.83415e-06 -0.000110477
0.000757168 2.80807e-05 -2.29786e-06
2.80807e-05 -9.18115e-06 -1.90745e-06
-2.29786e-06 -1.90745e-06 -8.12826e-05
0.000861947 6.45806e-05 -3.68105e-06
6.45806e-05 9.00842e-06 -8.20496e-07
-3.68105e-06 -8.20496e-07 -6.52611e-05
0.000794882 7.99477e-05 -2.48503e-06
7.99477e-05 -3.66247e-05 2.31993e-07
-2.48503e-06 2.31993e-07 -0.000127116
0.000663128 -5.44745e-05 1.87341e-07
-5.44745e-05 -4.47195e-05 6.93977e-08
1.87341e-07 6.93977e-08 -6.94102e-05
0.000732942 -3.92081e-05 -1.08228e-09
-3.92081e-05 -2.53565e-05 8.16751e-08
-1.08228e-09 8.16751e-08 -3.89305e-05
0.00079342 -2.87632e-05 1.2372e-07
-2.87632e-05 2.38392e-06 1.37849e-07
1.2372e-07 1.37849e-07 -4.78961e-05
0.00110339 6.8646e-05 3.41401e-07
6.8646e-05 1.18888e-05 -1.61006e-07
3.41401e-07 -1.61006e-07 -7.37151e-05
0.000954431 7.44178e-05 2.64312e-07
7.44178e-05 2.59195e-05 2.11841e-07
2.64312e-07 2.11841e-07 -5.29099e-05
0.00122605 9.55232e-05 2.18734e-07
9.55232e-05 5.97943e-05 7.11706e-08
2.18734e-07 7.11706e-08 -4.22538e-05
0.000825347 1.98701e-05 -2.95314e-07
1.98701e-05 2.76876e-05 1.0876e-10
-2.95314e-07 1.0876e-10 -3.97821e-05
0.00105203 9.25925e-05 -9.21294e-08
9.25925e-05 7.0044e-05 -9.6948e-08
-9.21294e-08 -9.6948e-08 -2.02029e-05
0.00101508 8.53955e-05 2.37547e-07
8.53955e-05 0.000105748 -3.25189e-07
2.37547e-07 -3.25189e-07 1.43703e-05
0.000942821 9.54005e-05 -6.68482e-07
9.54005e-05 3.3637e-05 3.93405e-07
-6.68482e-07 3.93405e-07 -6.51973e-05
0.00077057 -3.5063e-05 2.72906e-06
-3.5063e-05 -1.4225e-05 3.53328e-06
2.72906e-06 3.53328e-06 -2.41348e-05
0.000788312 -1.12905e-06 2.78537e-06
-1.12905e-06 3.50469e-07 1.84408e-06
2.78537e-06 1.84408e-06 -5.84457e-05
0.000776344 -3.09503e-05 1.14053e-06
-3.09503e-05 -9.76796e-06 2.36087e-06
1.14053e-06 2.36087e-06 -5.22483e-05
0.000893664 2.01122e-05 1.04984e-06
2.01122e-05 5.33758e-05 8.9065e-07
1.04984e-06 8.9065e-07 -1.95314e-05
0.00131026 8.28249e-05 4.21451e-06
8.28249e-05 4.91375e-05 8.0442e-07
4.21451e-06 8.0442e-07 -5.32299e-05
0.0011623 9.83398e-05 2.44424e-06
9.83398e-05 8.70423e-05 1.30752e-06
2.44424e-06 1.30752e-06 -9.41098e-06
0.00133161 0.000104368 1.46279e-06
0.000104368 7.38364e-05 1.31098e-06
1.46279e-06 1.31098e-06 -3.6551e-05
0.00105991 5.95588e-05 1.9929e-06
5.95588e-05 0.000137057 9.72782e-07
1.9929e-06 9.72782e-07 5.14407e-05
0.00115117 0.000103549 2.1548e-07
0.000103549 0.000100081 -3.54507e-07
2.1548e-07 -3.54507e-07 2.87229e-06
0.00104628 9.9057e-05 9.85472e-07
9.9057e-05 0.000123734 -1.17527e-06
9.85472e-07 -1.17527e-06 1.79794e-05
0.000768518 8.96192e-05 5.70826e-07
8.96192e-05 -7.4728e-05 -1.35309e-06
5.70826e-07 -1.35309e-06 -0.000176963
0.000836405 -1.6815e-05 9.80087e-07
-1.6815e-05 4.34718e-06 1.74932e-06
9.80087e-07 1.74932e-06 -2.41913e-05
0.000778159 -2.67554e-05 1.89249e-06
-2.67554e-05 -2.33059e-05 3.42571e-06
1.89249e-06 3.42571e-06 -2.8209e-05
0.00217303 -4.40633e-05 2.50979e-05
-4.40633e-05 0.000733373 3.60849e-06
2.50979e-05 3.60849e-06 0.000750038
0.00222079 -4.99316e-05 8.01076e-07
-4.99316e-05 0.000765553 -7.87163e-08
8.01076e-07 -7.87163e-08 0.000780373
0.00228273 -5.59608e-05 -2.92911e-05
-5.59608e-05 0.000805616 -3.33994e-06
-2.92911e-05 -3.33994e-06 0.000818384
0.000712449 3.68946e-05 2.97011e-06
3.68946e-05 -4.01664e-05 -3.53556e-06
2.97011e-06 -3.53556e-06 -5.4416e-05
0.00250319 6.37074e-05 3.34561e-05
6.37074e-05 0.000925186 -3.27157e-06
3.34561e-05 -3.27157e-06 0.000935388
0.000703458 4.66244e-05 -2.2252e-07
4.66244e-05 -3.55423e-05 4.73237e-08
-2.2252e-07 4.73237e-08 -5.52582e-05
0.00269647 7.01519e-05 -5.7375e-07
7.01519e-05 0.0010323 -1.1967e-07
-5.7375e-07 -1.1967e-07 0.00103989
0.000664244 4.54008e-05 -1.15701e-05
4.54008e-05 -0.000103616 -3.91235e-06
-1.15701e-05 -3.91235e-06 -0.000153852
0.000742567 2.77332e-05 -1.22803e-05
2.77332e-05 -8.19738e-05 -2.12518e-06
-1.22803e-05 -2.12518e-06 -0.00013431
0.00117775 4.68256e-05 -7.57332e-06
4.68256e-05 7.06405e-06 -1.70597e-06
-7.57332e-06 -1.70597e-06 -7.9576e-05
0.00123669 2.07305e-05 -7.60231e-06
2.07305e-05 4.7282e-06 -1.47041e-06
-7.60231e-06 -1.47041e-06 -8.54954e-05
0.000753991 4.75682e-06 -1.30691e-05
4.75682e-06 -0.000103231 -1.09099e-06
-1.30691e-05 -1.09099e-06 -0.000160947
0.00518637 -2.13627e-05 -0.000107153
-2.13627e-05 0.00234925 7.63423e-07
-0.000107153 7.63423e-07 0.00234378
0.000766154 -8.13532e-07 8.55999e-08
-8.13532e-07 -0.000101734 -3.62727e-07
8.55999e-08 -3.62727e-07 -0.000160137
0.00128916 1.10467e-05 7.06853e-08
1.10467e-05 9.63731e-06 -4.45906e-07
7.06853e-08 -4.45906e-07 -8.46015e-05
0.00120833 2.98777e-05 -4.18732e-08
2.98777e-05 8.63987e-06 3.68908e-08
-4.18732e-08 3.68908e-08 -7.84162e-05
0.00151821 1.79876e-05 9.82954e-08
1.79876e-05 6.98014e-05 1.48825e-07
9.82954e-08 1.48825e-07 -3.46693e-05
0.00115622 5.83774e-05 1.81037e-07
5.83774e-05 1.18434e-05 -1.31323e-07
1.81037e-07 -1.31323e-07 -7.45161e-05
0.00144752 5.37346e-05 1.64956e-08
5.37346e-05 6.77468e-05 -4.65603e-08
1.64956e-08 -4.65603e-08 -3.21889e-05
0.00129592 2.69596e-08 8.07954e-06
2.69596e-08 8.00346e-06 -8.82687e-07
8.07954e-06 -8.82687e-07 -8.69179e-05
0.0015547 1.43239e-05 3.69968e-06
1.43239e-05 6.45052e-05 4.7196e-07
3.69968e-06 4.7196e-07 -4.47753e-05
0.00147978 3.41188e-05 3.2726e-06
3.41188e-05 6.87698e-05 7.70336e-07
3.2726e-06 7.70336e-07 -3.17857e-05
0.0016418 1.45632e-05 9.57557e-07
1.45632e-05 9.56985e-05 1.17324e-06
9.57557e-07 1.17324e-06 -1.04e-05
0.00137967 6.88171e-05 3.25803e-06
6.88171e-05 5.32215e-05 2.9977e-07
3.25803e-06 2.9977e-07 -4.77149e-05
0.00156345 5.5649e-05 7.71451e-07
5.5649e-05 8.05349e-05 -1.66362e-07
7.71451e-07 -1.66362e-07 -2.10126e-05
0.000773643 8.34316e-06 -1.25779e-05
8.34316e-06 -8.8812e-05 9.75306e-07
-1.25779e-05 9.75306e-07 -0.00014554
0.0015835 -5.19746e-07 -4.81446e-05
-5.19746e-07 0.000363702 1.78232e-06
-4.81446e-05 1.78232e-06 0.000318576
0.000844223 -2.83806e-06 -8.25734e-06
-2.83806e-06 -0.000189939 1.75259e-06
-8.25734e-06 1.75259e-06 -0.000279655
0.00198737 -5.38467e-05 -1.24422e-05
-5.38467e-05 0.00043116 1.96165e-06
-1.24422e-05 1.96165e-06 0.000351063
0.00277987 7.6869e-05 -4.35456e-05
7.6869e-05 0.00108387 3.24548e-06
-4.35456e-05 3.24548e-06 0.0010884
0.00161432 4.27103e-05 -2.17882e-05
4.27103e-05 0.000466702 3.10972e-06
-2.17882e-05 3.10972e-06 0.00043691
0.00149225 -6.1162e-05 -4.99106e-06
-6.1162e-05 0.00037079 1.65338e-06
-4.99106e-06 1.65338e-06 0.000299997
0.00146549 -7.51903e-05 -1.04495e-05
-7.51903e-05 0.000210728 3.32749e-06
-1.04495e-05 3.32749e-06 0.000127661
0.00119489 -6.96396e-05 -4.66409e-06
-6.96396e-05 -5.31399e-05 1.16676e-06
-4.66409e-06 1.16676e-06 -0.000155962
0.00166268 -0.000101209 -3.25906e-06
-0.000101209 0.000293541 1.28256e-06
-3.25906e-06 1.28256e-06 0.000196337
0.00078531 -8.11852e-05 -1.89833e-06
-8.11852e-05 -6.43827e-05 5.57358e-07
-1.89833e-06 5.57358e-07 -0.000160654
0.00122473 -0.000101171 -3.5155e-07
-0.000101171 7.76225e-05 3.77552e-07
-3.5155e-07 3.77552e-07 -2.77795e-05
0.000687153 5.58449e-05 -1.70902e-06
5.58449e-05 -3.38504e-05 4.45153e-06
-1.70902e-06 4.45153e-06 -5.99636e-05
0.000763296 1.88357e-05 -1.92913e-06
1.88357e-05 -1.75939e-05 2.08052e-06
-1.92913e-06 2.08052e-06 -7.0396e-05
0.00108741 8.8553e-07 -3.69437e-07
8.8553e-07 -8.73117e-05 -1.52656e-07
-3.69437e-07 -1.52656e-07 -0.000180959
0.00158731 -2.40137e-05 -2.36521e-06
-2.40137e-05 0.000216129 2.77563e-07
-2.36521e-06 2.77563e-07 0.000134939
0.00176608 -6.08145e-06 -1.74358e-06
-6.08145e-06 0.000213856 3.86193e-07
-1.74358e-06 3.86193e-07 0.000113886
0.00156009 -5.55443e-05 8.86781e-07
-5.55443e-05 0.000119286 -2.30199e-07
8.86781e-07 -2.30199e-07 2.05949e-05
0.000645801 5.83573e-05 -2.81326e-07
5.83573e-05 -5.02018e-05 4.26796e-08
-2.81326e-07 4.26796e-08 -8.12711e-05
0.000832356 -2.81509e-05 -6.32443e-08
-2.81509e-05 3.18337e-05 -1.03483e-07
-6.32443e-08 -1.03483e-07 -3.75512e-05
0.000762334 -7.82701e-05 7.36618e-07
-7.82701e-05 -3.56265e-05 -5.80002e-07
7.36618e-07 -5.80002e-07 -0.000126376
0.00163197 -9.50395e-05 -7.32779e-07
-9.50395e-05 0.000226905 1.1996e-07
-7.32779e-07 1.1996e-07 0.000126851
0.00158968 -7.6996e-05 -5.30879e-07
-7.6996e-05 0.000104667 5.21266e-07
-5.30879e-07 5.21266e-07 1.03149e-06
0.00137298 -0.000114431 -9.66904e-07
-0.000114431 0.000207252 4.55498e-07
-9.66904e-07 4.55498e-07 9.88995e-05
0.0013318 -9.89873e-05 -3.15094e-08
-9.89873e-05 7.64476e-05 6.63893e-08
-3.15094e-08 6.63893e-08 -2.9619e-05
0.00131087 -0.000107815 3.63125e-07
-0.000107815 9.30206e-05 6.44383e-07
3.63125e-07 6.44383e-07 -1.47561e-05
0.000812816 -8.67505e-07 -2.6358e-07
-8.67505e-07 1.18428e-05 -6.70834e-08
-2.6358e-07 -6.70834e-08 -4.95901e-05
0.000848305 -9.13965e-06 -4.19553e-07
-9.13965e-06 2.25543e-05 -2.40819e-07
-4.19553e-07 -2.40819e-07 -5.23404e-05
0.000793451 3.50282e-05 -9.19e-09
3.50282e-05 -4.83371e-06 2.14871e-07
-9.19e-09 2.14871e-07 -4.97979e-05
0.00189197 4.14031e-06 2.31904e-06
4.14031e-06 0.000257436 -8.83124e-07
2.31904e-06 -8.83124e-07 0.00015337
0.00163051 -2.65184e-05 3.1593e-06
-2.65184e-05 0.000156073 -5.65433e-07
3.1593e-06 -5.65433e-07 5.93854e-05
0.00180039 -4.70222e-06 7.69475e-07
-4.70222e-06 0.000190772 -2.70871e-07
7.69475e-07 -2.70871e-07 8.47322e-05
0.00161557 -4.92551e-05 1.06442e-06
-4.92551e-05 9.58051e-05 -8.85824e-08
1.06442e-06 -8.85824e-08 -5.52911e-06
0.00122039 -8.97553e-05 1.35005e-06
-8.97553e-05 -3.9002e-05 -8.06911e-07
1.35005e-06 -8.06911e-07 -0.000145301
0.00169842 -7.36071e-05 -1.49346e-06
-7.36071e-05 0.000127743 8.78753e-07
-1.49346e-06 8.78753e-07 2.87601e-05
0.00082082 -1.44666e-05 2.47581e-06
-1.44666e-05 2.40002e-05 -1.59336e-06
2.47581e-06 -1.59336e-06 -4.35837e-05
0.0013762 -0.000103305 -1.38891e-06
-0.000103305 6.98773e-05 -5.2788e-07
-1.38891e-06 -5.2788e-07 -3.71567e-05
0.000928326 -8.0041e-05 1.05997e-06
-8.0041e-05 6.32521e-05 2.58185e-07
1.05997e-06 2.58185e-07 -2.12376e-05
0.000750938 -8.90801e-05 1.48025e-06
-8.90801e-05 -5.73854e-05 -1.7486e-06
1.48025e-06 -1.7486e-06 -0.000162573
0.00149924 -0.000125286 1.13217e-06
-0.000125286 0.000246135 7.26364e-07
1.13217e-06 7.26364e-07 0.00013085
0.00184627 -0.000128811 -2.48195e-06
-0.000128811 0.000349189 2.40396e-06
-2.48195e-06 2.40396e-06 0.000245297
0.00081088 3.14772e-05 1.36782e-06
3.14772e-05 -1.44964e-06 -1.58768e-06
1.36782e-06 -1.58768e-06 -4.04202e-05
0.000912976 -3.76979e-05 1.24833e-06
-3.76979e-05 5.4324e-05 8.33318e-08
1.24833e-06 8.33318e-08 -2.37731e-05
0.000784786 -4.34096e-06 7.25071e-07
-4.34096e-06 -1.16728e-05 -1.418e-06
7.25071e-07 -1.418e-06 -8.16037e-05
0.00099636 -7.36236e-05 -7.72112e-08
-7.36236e-05 0.00010914 1.01784e-06
-7.72112e-08 1.01784e-06 2.23102e-05
0.00110724 7.00491e-05 -7.18538e-06
7.00491e-05 1.47061e-05 -2.64939e-06
-7.18538e-06 -2.64939e-06 -7.10386e-05
0.000707082 -3.7443e-05 -3.00851e-06
-3.7443e-05 -3.90402e-05 -3.59657e-06
-3.00851e-06 -3.59657e-06 -5.22402e-05
0.000637345 -5.1886e-05 -2.72991e-06
-5.1886e-05 -5.99555e-05 -4.32276e-06
-2.72991e-06 -4.32276e-06 -8.38615e-05
0.000806786 -3.56461e-05 -1.01853e-06
-3.56461e-05 9.90138e-06 -2.5152e-06
-1.01853e-06 -2.5152e-06 -4.06332e-05
0.000903403 7.22352e-05 -4.20571e-06
7.22352e-05 9.25646e-07 -1.94929e-06
-4.20571e-06 -1.94929e-06 -7.75948e-05
0.0012198 9.58988e-05 -3.27702e-06
9.58988e-05 5.72154e-05 -1.25837e-06
-3.27702e-06 -1.25837e-06 -4.49404e-05
0.000802044 1.52286e-05 -2.48982e-06
1.52286e-05 1.79197e-05 -1.88749e-06
-2.48982e-06 -1.88749e-06 -4.97445e-05
0.000981598 8.37258e-05 -2.18699e-06
8.37258e-05 8.84655e-05 -1.00531e-06
-2.18699e-06 -1.00531e-06 -2.8219e-06
0.00116647 9.75779e-05 -1.80192e-06
9.75779e-05 0.000130375 -5.24071e-08
-1.80192e-06 -5.24071e-08 4.02155e-05
0.000817128 9.05842e-05 -2.2068e-06
9.05842e-05 -3.15262e-05 1.00353e-06
-2.2068e-06 1.00353e-06 -0.000130668
0.00074806 -3.40764e-05 9.84546e-08
-3.40764e-05 -2.5762e-05 2.94962e-08
9.84546e-08 2.94962e-08 -3.55257e-05
0.000809672 5.2808e-06 2.55196e-08
5.2808e-06 1.42635e-05 -3.07562e-08
2.55196e-08 -3.07562e-08 -4.56982e-05
0.000793378 -3.46077e-05 -8.93121e-08
-3.46077e-05 -8.53276e-07 2.05775e-07
-8.93121e-08 2.05775e-07 -4.33483e-05
0.000908067 1.18098e-05 2.32667e-07
1.18098e-05 6.01858e-05 -2.17968e-07
2.32667e-07 -2.17968e-07 -1.21326e-05
0.00132666 8.39243e-05 8.27336e-07
8.39243e-05 5.76276e-05 2.36857e-07
8.27336e-07 2.36857e-07 -4.49822e-05
0.00111872 9.72624e-05 9.21774e-08
9.72624e-05 6.61438e-05 4.8094e-08
9.21774e-08 4.8094e-08 -3.02603e-05
0.00133197 0.000104497 -3.66083e-08
0.000104497 7.42087e-05 5.0694e-07
-3.66083e-08 5.0694e-07 -3.61484e-05
0.000992053 6.03618e-05 2.66848e-07
6.03618e-05 0.000102439 2.33767e-07
2.66848e-07 2.33767e-07 1.75357e-05
0.00131166 0.000110193 -5.03906e-07
0.000110193 0.000184332 -8.68292e-07
-5.03906e-07 -8.68292e-07 8.71527e-05
0.00106515 0.000100335 2.4501e-07
0.000100335 0.000132695 -6.76036e-07
2.4501e-07 -6.76036e-07 2.64111e-05
0.000892116 9.50075e-05 -1.69223e-06
9.50075e-05 -6.20583e-06 -3.40051e-09
-1.69223e-06 -3.40051e-09 -0.000106663
0.000779089 -3.07445e-05 2.33654e-06
-3.07445e-05 -1.67481e-05 3.45526e-06
2.33654e-06 3.45526e-06 -2.38404e-05
0.000799042 -3.17531e-05 1.06542e-06
-3.17531e-05 -3.2718e-06 2.10185e-06
1.06542e-06 2.10185e-06 -3.9998e-05
0.000990072 3.0993e-05 1.51449e-06
3.0993e-05 9.99994e-05 5.69856e-07
1.51449e-06 5.69856e-07 2.17207e-05
0.000870778 3.14013e-06 7.87498e-07
3.14013e-06 3.72749e-05 1.4308e-06
7.87498e-07 1.4308e-06 -2.68924e-05
0.000966414 6.28977e-05 1.15219e-06
6.28977e-05 9.90322e-05 -2.47122e-08
1.15219e-06 -2.47122e-08 1.28874e-05
0.00142941 8.76139e-05 2.36255e-06
8.76139e-05 6.47612e-05 7.6234e-08
2.36255e-06 7.6234e-08 -4.34836e-05
0.00119858 0.000106752 8.12056e-07
0.000106752 7.69419e-05 1.25666e-06
8.12056e-07 1.25666e-06 -2.75796e-05
0.00145225 0.000111901 -6.3794e-07
0.000111901 0.000110908 9.74215e-07
-6.3794e-07 9.74215e-07 -1.99099e-06
0.00109911 9.73226e-05 2.64353e-06
9.73226e-05 0.000166723 2.24678e-06
2.64353e-06 2.24678e-06 6.41188e-05
0.00117446 0.000109392 1.72316e-06
0.000109392 9.53323e-05 -2.31744e-07
1.72316e-06 -2.31744e-07 -5.41501e-06
0.000505432 7.89069e-05 1.99044e-06
7.89069e-05 -0.000176046 -1.78491e-06
1.99044e-06 -1.78491e-06 -0.000291833
0.000830261 -2.07702e-05 1.15141e-06
-2.07702e-05 4.57159e-06 1.83838e-06
1.15141e-06 1.83838e-06 -2.59429e-05
0.000857898 5.42124e-06 3.72483e-07
5.42124e-06 2.45325e-05 8.30379e-07
3.72483e-07 8.30379e-07 -2.23901e-05
0.000848037 -1.183e-05 7.54919e-07
-1.183e-05 7.51618e-06 1.77965e-06
7.54919e-07 1.77965e-06 -1.95391e-05
0.000837542 -1.52946e-05 1.3008e-07
-1.52946e-05 5.59196e-06 3.8539e-09
1.3008e-07 3.8539e-09 -2.30645e-05
0.00132468 -2.86926e-05 1.99917e-06
-2.86926e-05 0.00026315 2.06087e-06
1.99917e-06 2.06087e-06 0.000263205
0.00104832 -2.93021e-05 7.95532e-07
-2.93021e-05 0.000121169 -3.08487e-08
7.95532e-07 -3.08487e-08 0.00011786
0.0010188 -2.62307e-05 2.06589e-05
-2.62307e-05 0.000108517 6.33212e-06
2.06589e-05 6.33212e-06 0.000121295
0.00216568 -4.41597e-05 9.55442e-07
-4.41597e-05 0.000728364 -7.26576e-08
9.55442e-07 -7.26576e-08 0.000745244
0.00220633 -4.99354e-05 -2.62096e-05
-4.99354e-05 0.000756773 -3.4662e-06
-2.62096e-05 -3.4662e-06 0.00077186
0.000728356 3.29042e-05 2.60296e-06
3.29042e-05 -3.94396e-05 -3.41352e-06
2.60296e-06 -3.41352e-06 -5.04188e-05
0.00237567 5.71721e-05 2.99176e-05
5.71721e-05 0.000850854 -3.39209e-06
2.99176e-05 -3.39209e-06 0.000863479
0.000734404 3.85622e-05 -7.45942e-09
3.85622e-05 -2.85069e-05 7.14186e-08
-7.45942e-09 7.14186e-08 -4.31118e-05
0.00254279 6.33282e-05 -7.82399e-07
6.33282e-05 0.000946275 -1.02617e-07
-7.82399e-07 -1.02617e-07 0.000956265
0.000724069 4.96823e-05 -1.68646e-06
4.96823e-05 -2.34023e-05 4.27163e-06
-1.68646e-06 4.27163e-06 -4.39116e-05
0.00270746 6.9777e-05 -4.13571e-05
6.9777e-05 0.00103825 3.32753e-06
-4.13571e-05 3.32753e-06 0.00104565
0.00116592 6.04247e-05 -7.6513e-06
6.04247e-05 1.77829e-05 -2.18403e-06
-7.6513e-06 -2.18403e-06 -6.88387e-05
0.00120359 3.30139e-05 -7.44574e-06
3.30139e-05 6.81575e-06 -1.28142e-06
-7.44574e-06 -1.28142e-06 -8.04177e-05
0.00144847 5.21124e-05 -3.27338e-06
5.21124e-05 6.83129e-05 -4.14365e-07
-3.27338e-06 -4.14365e-07 -3.16093e-05
0.0015331 1.78649e-05 -3.33611e-06
1.78649e-05 7.75505e-05 -1.06796e-06
-3.33611e-06 -1.06796e-06 -2.68966e-05
0.00128389 1.36001e-05 -8.09241e-06
1.36001e-05 7.19176e-06 -1.40451e-06
-8.09241e-06 -1.40451e-06 -8.70177e-05
0.000780109 4.53529e-06 -1.31157e-05
4.53529e-06 -9.46156e-05 3.70484e-08
-1.31157e-05 3.70484e-08 -0.000153128
0.0012952 1.85031e-06 -1.77616e-08
1.85031e-06 7.4851e-06 -3.54998e-07
-1.77616e-08 -3.54998e-07 -8.75216e-05
0.00156425 1.60556e-05 1.6277e-08
1.60556e-05 6.94857e-05 -4.27985e-07
1.6277e-08 -4.27985e-07 -3.97436e-05
0.00147886 3.10958e-05 8.54001e-08
3.10958e-05 6.87823e-05 1.30611e-07
8.54001e-08 1.30611e-07 -3.17021e-05
0.00160695 1.37821e-05 -1.54131e-08
1.37821e-05 7.48098e-05 2.09479e-07
-1.54131e-08 2.09479e-07 -3.19241e-05
0.00139689 6.95325e-05 -8.15065e-08
6.95325e-05 6.16054e-05 -4.16279e-08
-8.15065e-08 -4.16279e-08 -3.94302e-05
0.00157322 5.53206e-05 -4.00494e-08
5.53206e-05 8.57388e-05 8.33668e-08
-4.00494e-08 8.33668e-08 -1.57876e-05
0.00156785 6.61405e-06 3.94833e-06
6.61405e-06 6.54188e-05 -9.85368e-07
3.94833e-06 -9.85368e-07 -4.45035e-05
0.00162351 1.30063e-05 9.99293e-07
1.30063e-05 6.04335e-05 1.16488e-06
9.99293e-07 1.16488e-06 -5.22784e-05
0.0015914 3.40306e-05 9.57086e-07
3.40306e-05 7.9969e-05 4.09358e-07
9.57086e-07 4.09358e-07 -2.25686e-05
0.0018197 9.45901e-06 1.10387e-07
9.45901e-06 0.000165597 5.86523e-07
1.10387e-07 5.86523e-07 6.00861e-05
0.00150778 6.93993e-05 6.17819e-07
6.93993e-05 7.30628e-05 -6.29664e-07
6.17819e-07 -6.29664e-07 -3.06948e-05
0.0016608 4.57768e-05 -1.72453e-06
4.57768e-05 0.000100042 1.67791e-07
-1.72453e-06 1.67791e-07 5.01589e-06
0.000911037 2.50656e-06 -7.74496e-06
2.50656e-06 -0.00017864 1.20708e-06
-7.74496e-06 1.20708e-06 -0.000273217
0.00161573 -2.82051e-05 -1.19684e-05
-2.82051e-05 0.000229615 1.54431e-06
-1.19684e-05 1.54431e-06 0.00014847
0.00167585 2.55387e-07 -5.44369e-06
2.55387e-07 0.000164279 1.5455e-06
-5.44369e-06 1.5455e-06 6.35892e-05
0.00185237 -5.95354e-05 -3.50522e-06
-5.95354e-05 0.000274544 2.08511e-07
-3.50522e-06 2.08511e-07 0.000177232
0.000686938 4.39332e-05 -3.79189e-06
4.39332e-05 -3.0365e-05 4.20249e-06
-3.79189e-06 4.20249e-06 -6.01316e-05
0.000891943 -3.16826e-05 -2.8888e-06
-3.16826e-05 6.25937e-05 1.33516e-06
-2.8888e-06 1.33516e-06 -7.1208e-06
0.000888681 -8.39626e-05 -6.52544e-07
-8.39626e-05 3.06139e-05 5.07003e-08
-6.52544e-07 5.07003e-08 -5.92504e-05
0.00180162 -9.84934e-05 -4.34347e-06
-9.84934e-05 0.000313622 1.64021e-06
-4.34347e-06 1.64021e-06 0.000213399
0.00140817 -7.19083e-05 -1.4025e-06
-7.19083e-05 7.90859e-06 3.52004e-07
-1.4025e-06 3.52004e-07 -9.55593e-05
0.0013326 -9.85365e-05 -7.39406e-07
-9.85365e-05 7.66786e-05 9.45996e-07
-7.39406e-07 9.45996e-07 -2.93356e-05
0.00107193 -0.000101928 -1.33756e-06
-0.000101928 5.12361e-05 7.78417e-07
-1.33756e-06 7.78417e-07 -5.77101e-05
0.00112311 -0.000100492 2.02821e-06
-0.000100492 -2.29692e-06 -3.53348e-07
2.02821e-06 -3.53348e-07 -0.000109525
0.000781099 2.47684e-06 -2.6118e-06
2.47684e-06 -6.44975e-06 1.71205e-06
-2.6118e-06 1.71205e-06 -6.73301e-05
0.000829776 -6.07945e-06 -1.16684e-06
-6.07945e-06 1.21686e-05 2.57901e-07
-1.16684e-06 2.57901e-07 -6.2396e-05
0.000778369 3.4293e-05 -8.95669e-07
3.4293e-05 -1.26345e-05 2.08575e-06
-8.95669e-07 2.08575e-06 -5.77406e-05
0.00174251 4.82057e-06 -1.80321e-06
4.82057e-06 0.00017583 3.98939e-07
-1.80321e-06 3.98939e-07 7.01336e-05
0.00162919 -3.14426e-05 -8.41546e-07
-3.14426e-05 0.000153727 9.65923e-08
-8.41546e-07 9.65923e-08 5.72118e-05
0.00166879 -2.13236e-06 -6.95056e-07
-2.13236e-06 0.000121136 5.27843e-07
-6.95056e-07 5.27843e-07 1.46651e-05
0.00170343 -4.79463e-05 2.74155e-07
-4.79463e-05 0.00014258 -1.99876e-07
2.74155e-07 -1.99876e-07 4.15329e-05
0.000823982 -1.77509e-05 1.72217e-07
-1.77509e-05 2.35156e-05 -2.05631e-07
1.72217e-07 -2.05631e-07 -4.36159e-05
0.00101153 -8.42867e-05 -1.33548e-07
-8.42867e-05 0.00010461 2.74578e-07
-1.33548e-07 2.74578e-07 1.97101e-05
0.000838912 -9.19136e-05 5.54971e-07
-9.19136e-05 -8.45484e-06 -8.27833e-07
5.54971e-07 -8.27833e-07 -0.000112423
0.00146019 -9.53805e-05 2.34891e-07
-9.53805e-05 8.83233e-05 -5.46294e-07
2.34891e-07 -5.46294e-07 -1.78047e-05
0.00161376 -7.16378e-05 2.76254e-07
-7.16378e-05 8.04407e-05 9.07586e-07
2.76254e-07 9.07586e-07 -1.76082e-05
0.00123928 -0.000114892 -5.75366e-09
-0.000114892 0.000114829 2.01196e-07
-5.75366e-09 2.01196e-07 -1.1669e-06
0.00138665 -0.000102356 -1.62203e-07
-0.000102356 7.4036e-05 2.30222e-07
-1.62203e-07 2.30222e-07 -3.27429e-05
0.00159313 -0.000119921 8.80152e-07
-0.000119921 0.000219221 4.97961e-07
8.80152e-07 4.97961e-07 0.000116411
0.000952796 -4.41425e-05 -1.63205e-07
-4.41425e-05 7.65162e-05 -2.09194e-07
-1.63205e-07 -2.09194e-07 -2.25916e-06
0.000969731 -7.75639e-05 -2.87187e-07
-7.75639e-05 9.53206e-05 3.593e-07
-2.87187e-07 3.593e-07 7.23914e-06
0.000806625 3.2876e-05 1.1035e-07
3.2876e-05 -3.07921e-06 8.64393e-08
1.1035e-07 8.64393e-08 -4.23269e-05
0.000796526 1.16818e-05 -8.9896e-08
1.16818e-05 -8.58556e-06 -5.15933e-07
-8.9896e-08 -5.15933e-07 -7.57092e-05
0.00165751 2.24108e-06 1.27644e-06
2.24108e-06 9.32613e-05 -1.10038e-06
1.27644e-06 -1.10038e-06 -1.79135e-05
0.00170294 -2.4553e-05 1.24123e-06
-2.4553e-05 0.000146711 4.33051e-08
1.24123e-06 4.33051e-08 4.4909e-05
0.00177354 -2.15946e-07 1.97075e-07
-2.15946e-07 0.000154698 6.28169e-08
1.97075e-07 6.28169e-08 4.81698e-05
0.00162243 -4.00137e-05 -4.76737e-07
-4.00137e-05 6.94338e-05 -8.01524e-07
-4.76737e-07 -8.01524e-07 -3.0431e-05
0.00146648 -9.41572e-05 -1.64135e-06
-9.41572e-05 4.60378e-05 6.32732e-08
-1.64135e-06 6.32732e-08 -5.80582e-05
0.0017149 -6.91478e-05 4.92447e-07
-6.91478e-05 0.000106822 1.48394e-07
4.92447e-07 1.48394e-07 1.01378e-05
0.000929178 -7.65913e-05 1.2226e-06
-7.65913e-05 6.45919e-05 5.88419e-07
1.2226e-06 5.88419e-07 -1.63358e-05
0.00129475 -0.000101584 -3.44993e-06
-0.000101584 7.36183e-06 6.89075e-07
-3.44993e-06 6.89075e-07 -8.96206e-05
0.000695473 -8.14858e-05 -8.04766e-08
-8.14858e-05 -5.71533e-05 -5.94315e-07
-8.04766e-08 -5.94315e-07 -0.000153161
0.00110516 -0.000110108 1.70284e-06
-0.000110108 0.000108894 -1.24712e-06
1.70284e-06 -1.24712e-06 -8.24038e-06
0.00131764 -0.000124171 1.02034e-06
-0.000124171 0.000132946 2.30175e-06
1.02034e-06 2.30175e-06 1.19912e-05
0.00199037 -0.000134756 -9.71314e-07
-0.000134756 0.000410037 1.80846e-06
-9.71314e-07 1.80846e-06 0.000306105
0.000822643 2.13577e-05 1.60114e-06
2.13577e-05 1.16982e-06 -1.55296e-06
1.60114e-06 -1.55296e-06 -3.45697e-05
0.000751598 3.37868e-06 5.3262e-07
3.37868e-06 -3.20411e-05 -1.29572e-06
5.3262e-07 -1.29572e-06 -9.44716e-05
0.000971244 -8.91122e-05 2.81302e-07
-8.91122e-05 9.14615e-05 1.33152e-06
2.81302e-07 1.33152e-06 2.65154e-06
0.000975546 -5.95601e-05 8.46569e-07
-5.95601e-05 9.63876e-05 7.20795e-08
8.46569e-07 7.20795e-08 1.48992e-05
0.000972059 -8.92436e-05 -4.11276e-07
-8.92436e-05 9.9132e-05 1.98309e-06
-4.11276e-07 1.98309e-06 6.98196e-06
0.000725792 -3.31935e-05 -2.62338e-06
-3.31935e-05 -3.71821e-05 -3.50107e-06
-2.62338e-06 -3.50107e-06 -4.6807e-05
0.00134727 8.51522e-05 -2.78112e-06
8.51522e-05 6.82903e-05 -3.66102e-07
-2.78112e-06 -3.66102e-07 -3.45739e-05
0.000807066 -3.7663e-05 -1.03488e-06
-3.7663e-05 6.3662e-06 -2.16245e-06
-1.03488e-06 -2.16245e-06 -3.61896e-05
0.000855648 -4.97598e-06 -1.64124e-06
-4.97598e-06 3.89996e-05 -2.23564e-06
-1.64124e-06 -2.23564e-06 -2.05936e-05
0.000918885 4.56389e-06 -3.97984e-07
4.56389e-06 6.50839e-05 -1.17529e-06
-3.97984e-07 -1.17529e-06 -6.63405e-06
0.00107985 9.64544e-05 -2.51529e-06
9.64544e-05 4.76858e-05 -1.31615e-06
-2.51529e-06 -1.31615e-06 -4.86926e-05
0.00133047 0.000104559 -1.44937e-06
0.000104559 7.36787e-05 -2.91585e-07
-1.44937e-06 -2.91585e-07 -3.66532e-05
0.000935357 7.54217e-05 -1.64154e-06
7.54217e-05 7.54697e-05 -4.64431e-07
-1.64154e-06 -4.64431e-07 -9.88321e-06
0.00109781 0.00010229 -2.14916e-06
0.00010229 0.000148827 -9.80783e-07
-2.14916e-06 -9.80783e-07 4.19454e-05
0.00147387 0.000116915 -1.72143e-06
0.000116915 0.000269454 -9.14977e-07
-1.72143e-06 -9.14977e-07 0.000172299
0.0010235 0.000100676 -3.57226e-06
0.000100676 6.62577e-05 2.06568e-06
-3.57226e-06 2.06568e-06 -3.24334e-05
0.000757206 -3.00511e-05 1.02419e-07
-3.00511e-05 -2.80743e-05 2.45042e-08
1.02419e-07 2.45042e-08 -3.50607e-05
0.000807128 -3.21294e-05 -7.40367e-08
-3.21294e-05 9.72987e-07 7.36141e-08
-7.40367e-08 7.36141e-08 -3.56834e-05
0.000952748 3.8183e-05 2.97395e-07
3.8183e-05 8.13354e-05 -8.85242e-08
2.97395e-07 -8.85242e-08 2.88083e-06
0.000879408 -7.63737e-06 3.25892e-08
-7.63737e-06 4.09569e-05 5.63795e-08
3.25892e-08 5.63795e-08 -2.24325e-05
0.000915998 5.26441e-05 3.9357e-07
5.26441e-05 7.11239e-05 -2.9121e-07
3.9357e-07 -2.9121e-07 -1.44601e-05
0.00144053 8.83226e-05 1.05261e-06
8.83226e-05 7.04794e-05 4.76709e-07
1.05261e-06 4.76709e-07 -3.80418e-05
0.00120564 0.000107717 1.5693e-07
0.000107717 8.08954e-05 -1.97349e-08
1.5693e-07 -1.97349e-08 -2.36748e-05
0.00140137 0.000111556 8.73227e-07
0.000111556 8.55008e-05 7.51953e-07
8.73227e-07 7.51953e-07 -2.78248e-05
0.00102963 9.4353e-05 7.80552e-07
9.4353e-05 0.000132291 8.85122e-07
7.80552e-07 8.85122e-07 2.99372e-05
0.00130114 0.000114007 4.85555e-07
0.000114007 0.00016217 -7.8098e-07
4.85555e-07 -7.8098e-07 6.14798e-05
0.000878488 9.62787e-05 -1.41686e-06
9.62787e-05 1.48143e-05 -7.81359e-07
-1.41686e-06 -7.81359e-07 -0.000100998
0.000818313 -2.60162e-05 1.1534e-06
-2.60162e-05 2.4353e-06 1.95217e-06
1.1534e-06 1.95217e-06 -3.06316e-05
0.00086511 -9.66614e-06 5.24421e-07
-9.66614e-06 2.83908e-05 1.31457e-06
5.24421e-07 1.31457e-06 -2.67856e-05
0.00104496 9.0096e-05 7.26898e-07
9.0096e-05 0.000136617 -1.39672e-07
7.26898e-07 -1.39672e-07 4.25737e-05
0.000933134 1.91014e-05 6.53455e-07
1.91014e-05 7.71956e-05 6.63541e-07
6.53455e-07 6.63541e-07 3.09559e-07
0.00102584 5.29487e-05 7.60049e-07
5.29487e-05 0.000135211 -7.08956e-07
7.60049e-07 -7.08956e-07 4.16934e-05
0.00149748 8.74988e-05 -1.43336e-06
8.74988e-05 6.68164e-05 -1.36511e-06
-1.43336e-06 -1.36511e-06 -4.10068e-05
0.00124984 0.000116052 1.00149e-06
0.000116052 7.94922e-05 9.13995e-07
1.00149e-06 9.13995e-07 -2.79836e-05
0.00116365 0.000114765 -3.0234e-06
0.000114765 -3.8316e-05 -5.2568e-07
-3.0234e-06 -5.2568e-07 -0.0001423
0.000972688 9.62951e-05 9.92151e-07
9.62951e-05 0.000109331 2.40833e-06
9.92151e-07 2.40833e-06 -8.17641e-06
0.00122046 0.000119696 3.97762e-06
0.000119696 0.000139234 -9.27084e-07
3.97762e-06 -9.27084e-07 2.0298e-05
0.000828356 -1.9514e-05 6.90844e-08
-1.9514e-05 3.93391e-06 1.24811e-09
6.90844e-08 1.24811e-09 -2.65927e-05
0.000710765 -1.855e-05 4.97264e-07
-1.855e-05 -5.47005e-05 1.54227e-06
4.97264e-07 1.54227e-06 -0.000102951
0.000798367 -1.0288e-05 -6.48801e-07
-1.0288e-05 -7.78359e-06 -5.13979e-09
-6.48801e-07 -5.13979e-09 -5.47502e-05
0.00107024 1.30979e-05 9.32443e-07
1.30979e-05 0.000143977 1.15185e-07
9.32443e-07 1.15185e-07 8.58891e-05
0.000866009 1.15504e-05 1.51043e-06
1.15504e-05 2.75572e-05 9.67653e-07
1.51043e-06 9.67653e-07 -1.89257e-05
0.000855227 -4.80506e-06 7.25847e-07
-4.80506e-06 8.29857e-06 1.77093e-06
7.25847e-07 1.77093e-06 -1.79069e-05
0.000846317 -1.23637e-05 4.24613e-08
-1.23637e-05 6.76504e-06 2.06188e-08
4.24613e-08 2.06188e-08 -2.03423e-05
0.00131853 -2.34249e-05 1.45055e-06
-2.34249e-05 0.000254321 2.01883e-06
1.45055e-06 2.01883e-06 0.000256247
0.000837698 -1.4279e-05 -1.0092e-06
-1.4279e-05 6.26986e-06 -1.84183e-06
-1.0092e-06 -1.84183e-06 -2.25097e-05
0.0013404 -2.70465e-05 -3.67868e-06
-2.70465e-05 0.000271066 -1.18066e-06
-3.67868e-06 -1.18066e-06 0.000271408
0.00102186 -2.25164e-05 1.75897e-05
-2.25164e-05 0.000102733 6.25008e-06
1.75897e-05 6.25008e-06 0.000117421
0.00132867 -2.99794e-05 -8.95174e-06
-2.99794e-05 0.000271087 -3.2026e-06
-8.95174e-06 -3.2026e-06 0.000269572
0.00155546 -3.25437e-05 1.58599e-05
-3.25437e-05 0.000395489 2.08082e-06
1.58599e-05 2.08082e-06 0.0004112
0.0021608 -4.41796e-05 -2.31615e-05
-4.41796e-05 0.000724675 -3.58533e-06
-2.31615e-05 -3.58533e-06 0.000741773
0.000735145 2.97585e-05 2.19615e-06
2.97585e-05 -4.18745e-05 -3.385e-06
2.19615e-06 -3.385e-06 -5.04896e-05
0.000746163 3.35592e-05 -1.3688e-07
3.35592e-05 -3.01482e-05 1.89134e-08
-1.3688e-07 1.89134e-08 -4.12723e-05
0.00231529 5.14257e-05 2.66863e-05
5.14257e-05 0.000811332 -3.52707e-06
2.66863e-05 -3.52707e-06 0.000825992
0.00240561 5.71384e-05 -7.26254e-07
5.71384e-05 0.000867378 -8.4563e-08
-7.26254e-07 -8.4563e-08 0.000879734
0.000752914 4.0796e-05 -2.4005e-06
4.0796e-05 -1.8577e-05 3.81816e-06
-2.4005e-06 3.81816e-06 -3.36008e-05
0.00257989 6.29079e-05 -3.78768e-05
6.29079e-05 0.000966009 3.39129e-06
-3.78768e-05 3.39129e-06 0.000975802
0.00141462 7.03932e-05 -3.50883e-06
7.03932e-05 7.0251e-05 -3.96389e-07
-3.50883e-06 -3.96389e-07 -3.08961e-05
0.00148104 3.17455e-05 -3.22358e-06
3.17455e-05 7.03449e-05 -4.82457e-07
-3.22358e-06 -4.82457e-07 -3.02192e-05
0.00158242 5.6133e-05 -5.56069e-07
5.6133e-05 9.06595e-05 3.81242e-07
-5.56069e-07 3.81242e-07 -1.08893e-05
0.00157211 1.29429e-05 -8.81571e-07
1.29429e-05 5.40332e-05 -8.10505e-07
-8.81571e-07 -8.10505e-07 -5.3348e-05
0.00157841 1.9489e-05 -3.51829e-06
1.9489e-05 7.68242e-05 -1.30189e-06
-3.51829e-06 -1.30189e-06 -3.23889e-05
0.00130796 6.61987e-06 -8.1135e-06
6.61987e-06 1.36471e-05 1.0592e-07
-8.1135e-06 1.0592e-07 -8.13694e-05
0.00158021 1.0866e-05 4.29529e-08
1.0866e-05 7.18593e-05 -4.80789e-07
4.29529e-08 -4.80789e-07 -3.81668e-05
0.00160712 4.85342e-06 2.64368e-07
4.85342e-06 4.97266e-05 2.04301e-07
2.64368e-07 2.04301e-07 -6.37536e-05
0.00160634 3.33037e-05 2.16868e-08
3.33037e-05 8.7948e-05 1.30601e-07
2.16868e-08 1.30601e-07 -1.44753e-05
0.00174727 8.83026e-06 -7.35405e-08
8.83026e-06 0.000126866 -4.12427e-07
-7.35405e-08 -4.12427e-07 2.15093e-05
0.00152051 7.07852e-05 -1.40463e-07
7.07852e-05 7.91788e-05 4.96551e-08
-1.40463e-07 4.96551e-08 -2.4849e-05
0.00162861 4.52329e-05 -1.58777e-08
4.52329e-05 8.07089e-05 4.65902e-07
-1.58777e-08 4.65902e-07 -1.4419e-05
0.0016431 1.61746e-07 1.77437e-06
1.61746e-07 6.31614e-05 -9.92692e-07
1.77437e-06 -9.92692e-07 -5.13714e-05
0.00179514 1.38051e-05 -2.08368e-07
1.38051e-05 0.000127702 6.96265e-07
-2.08368e-07 6.96265e-07 1.48366e-05
0.00161858 2.51976e-05 -5.20321e-07
2.51976e-05 6.49673e-05 1.09931e-06
-5.20321e-07 1.09931e-06 -3.47949e-05
0.00178232 4.44054e-06 -2.88202e-07
4.44054e-06 0.000135127 1.735e-07
-2.88202e-07 1.735e-07 3.00533e-05
0.00150177 6.32713e-05 -1.29732e-06
6.32713e-05 3.29723e-05 -1.20249e-06
-1.29732e-06 -1.20249e-06 -6.60043e-05
0.00184255 3.79111e-05 -7.07958e-07
3.79111e-05 0.000170518 -2.9161e-07
-7.07958e-07 -2.9161e-07 7.76157e-05
0.00157307 4.8286e-06 -5.11997e-06
4.8286e-06 8.41359e-05 1.63983e-06
-5.11997e-06 1.63983e-06 -2.32152e-05
0.00162354 -3.3157e-05 -4.86885e-06
-3.3157e-05 0.000149488 6.55363e-07
-4.86885e-06 6.55363e-07 5.31461e-05
0.00156001 -1.6107e-06 -1.88543e-06
-1.6107e-06 6.3052e-05 1.0344e-06
-1.88543e-06 1.0344e-06 -4.38585e-05
0.00179651 -4.72745e-05 -1.4678e-06
-4.72745e-05 0.000191913 -2.18491e-07
-1.4678e-06 -2.18491e-07 9.11588e-05
0.000841283 -2.08384e-05 -2.6949e-06
-2.08384e-05 3.03532e-05 1.34614e-06
-2.6949e-06 1.34614e-06 -3.63798e-05
0.00108937 -8.81992e-05 -1.45163e-06
-8.81992e-05 0.000143441 3.23931e-07
-1.45163e-06 3.23931e-07 5.81243e-05
0.00091832 -9.41602e-05 -2.85012e-07
-9.41602e-05 3.6308e-05 8.28395e-08
-2.85012e-07 8.28395e-08 -6.64126e-05
0.00170278 -0.000101006 -1.05515e-06
-0.000101006 0.000217083 2.67167e-07
-1.05515e-06 2.67167e-07 0.000111127
0.00153041 -6.96975e-05 6.93625e-07
-6.96975e-05 3.37916e-05 1.02219e-07
6.93625e-07 1.02219e-07 -6.33186e-05
0.00139726 -0.000101471 1.56145e-06
-0.000101471 7.83216e-05 8.79719e-07
1.56145e-06 8.79719e-07 -2.82108e-05
0.000988377 -0.000104878 -7.28083e-07
-0.000104878 -1.18515e-05 -8.40663e-08
-7.28083e-07 -8.40663e-08 -0.000128587
0.0013331 -0.000110815 3.34198e-06
-0.000110815 8.54549e-05 -2.6578e-06
3.34198e-06 -2.6578e-06 -1.62234e-05
0.000971861 -3.59555e-05 -1.30625e-06
-3.59555e-05 8.58774e-05 -3.90072e-07
-1.30625e-06 -3.90072e-07 7.68167e-06
0.000953499 -6.46502e-05 -7.92365e-07
-6.46502e-05 8.31003e-05 -6.20661e-07
-7.92365e-07 -6.20661e-07 -3.91032e-06
0.000797949 3.31972e-05 -8.92737e-07
3.31972e-05 -7.14106e-06 1.80175e-06
-8.92737e-07 1.80175e-06 -4.6567e-05
0.000815779 2.18399e-05 -1.98961e-07
2.18399e-05 -3.32137e-08 3.48616e-07
-1.98961e-07 3.48616e-07 -6.55093e-05
0.00167755 3.179e-06 -1.58557e-07
3.179e-06 0.000103198 8.87507e-08
-1.58557e-07 8.87507e-08 -7.9545e-06
0.00174142 -2.19146e-05 -5.52118e-07
-2.19146e-05 0.000165963 3.52463e-08
-5.52118e-07 3.52463e-08 6.46726e-05
0.00170993 -1.01914e-06 -7.43431e-07
-1.01914e-06 0.000123631 6.8913e-07
-7.43431e-07 6.8913e-07 1.76005e-05
0.00167079 -4.10998e-05 -1.18735e-07
-4.10998e-05 9.40916e-05 -4.4285e-07
-1.18735e-07 -4.4285e-07 -5.56519e-06
0.000986981 -6.26407e-05 -2.01007e-07
-6.26407e-05 9.22202e-05 7.97468e-08
-2.01007e-07 7.97468e-08 1.2075e-05
0.000777823 -8.42712e-05 4.94116e-07
-8.42712e-05 -1.3888e-05 -4.26183e-07
4.94116e-07 -4.26183e-07 -0.000108625
0.00110578 -0.000109515 1.1573e-07
-0.000109515 0.000110964 -1.5979e-07
1.1573e-07 -1.5979e-07 -6.49994e-06
0.00159901 -9.6903e-05 -6.12837e-07
-9.6903e-05 0.000116749 -5.12296e-07
-6.12837e-07 -5.12296e-07 1.20058e-05
0.00162278 -6.81403e-05 -4.44163e-07
-6.81403e-05 6.29881e-05 5.26061e-07
-4.44163e-07 5.26061e-07 -3.08146e-05
0.00131046 -0.00012264 -2.49801e-07
-0.00012264 0.000129886 5.99511e-07
-2.49801e-07 5.99511e-07 8.25441e-06
0.0013996 -0.00010333 -1.73019e-07
-0.00010333 6.02734e-05 1.13725e-06
-1.73019e-07 1.13725e-06 -3.67173e-05
0.00161789 -0.000121877 1.01703e-06
-0.000121877 0.000216836 -1.39842e-06
1.01703e-06 -1.39842e-06 0.000115841
0.00102033 -9.14069e-05 5.76098e-08
-9.14069e-05 0.000116061 -3.53061e-08
5.76098e-08 -3.53061e-08 2.72234e-05
0.000996086 -8.70602e-05 4.71156e-08
-8.70602e-05 0.000110135 1.74483e-07
4.71156e-08 1.74483e-07 1.8338e-05
0.000963726 -4.2473e-05 -3.34522e-07
-4.2473e-05 8.87286e-05 -1.32958e-08
-3.34522e-07 -1.32958e-08 8.38104e-06
0.000703689 2.66122e-05 -2.20545e-07
2.66122e-05 -6.14577e-05 5.43627e-11
-2.20545e-07 5.43627e-11 -9.82889e-05
0.000779051 1.96183e-05 5.30034e-08
1.96183e-05 -2.07077e-05 -3.45298e-07
5.30034e-08 -3.45298e-07 -8.07954e-05
0.00172739 5.65917e-06 6.22249e-09
5.65917e-06 0.000101881 -7.34854e-07
6.22249e-09 -7.34854e-07 -8.1692e-06
0.0016637 -7.13145e-06 1.36276e-06
-7.13145e-06 8.85036e-05 -6.20881e-08
1.36276e-06 -6.20881e-08 -1.51502e-05
0.00161305 -4.48061e-05 1.14011e-06
-4.48061e-05 3.74356e-05 -1.36418e-06
1.14011e-06 -1.36418e-06 -6.29184e-05
0.00137531 -8.18538e-05 -3.46777e-08
-8.18538e-05 -3.52681e-05 -1.74418e-06
-3.46777e-08 -1.74418e-06 -0.000131989
0.00094241 -8.9402e-05 -1.22388e-07
-8.9402e-05 7.46695e-05 1.30988e-06
-1.22388e-07 1.30988e-06 -1.46829e-05
0.00200912 -0.000125727 -1.31392e-06
-0.000125727 0.00033753 1.36137e-06
-1.31392e-06 1.36137e-06 0.000244374
0.000374527 -6.92626e-05 -1.93493e-07
-6.92626e-05 -0.000220073 -1.87421e-06
-1.93493e-07 -1.87421e-06 -0.000323684
0.00121057 -0.000121999 2.88991e-06
-0.000121999 0.000141835 -9.79768e-07
2.88991e-06 -9.79768e-07 9.66329e-06
0.00165524 -0.000139786 1.51138e-06
-0.000139786 0.000275355 2.31056e-06
1.51138e-06 2.31056e-06 0.000148864
0.000611593 1.95847e-05 1.26243e-06
1.95847e-05 -0.000113311 -2.28432e-06
1.26243e-06 -2.28432e-06 -0.000148748
0.000973205 7.03789e-07 1.31218e-06
7.03789e-07 8.37069e-05 -6.35057e-07
1.31218e-06 -6.35057e-07 2.78903e-05
0.000989407 -2.7838e-05 8.34565e-08
-2.7838e-05 9.77652e-05 -1.55327e-07
8.34565e-08 -1.55327e-07 2.68748e-05
0.000974953 -8.97755e-05 -4.51315e-07
-8.97755e-05 9.39766e-05 2.16173e-06
-4.51315e-07 2.16173e-06 3.81504e-06
0.00107581 -6.35356e-05 3.79637e-07
-6.35356e-05 0.0001512 1.39435e-06
3.79637e-07 1.39435e-06 6.22466e-05
0.000938497 -8.75482e-05 -2.10912e-07
-8.75482e-05 7.52373e-05 1.95182e-06
-2.10912e-07 1.95182e-06 -1.7849e-05
0.000736981 -2.94313e-05 -2.16528e-06
-2.94313e-05 -3.85228e-05 -3.47852e-06
-2.16528e-06 -3.47852e-06 -4.54107e-05
0.000815502 -3.17284e-05 -1.41017e-06
-3.17284e-05 5.3293e-06 -1.88356e-06
-1.41017e-06 -1.88356e-06 -3.12308e-05
0.00145593 8.92115e-05 -6.38515e-07
8.92115e-05 7.83096e-05 7.93538e-07
-6.38515e-07 7.93538e-07 -3.04887e-05
0.000898707 -2.04779e-05 -2.32512e-07
-2.04779e-05 5.01115e-05 -1.38871e-06
-2.32512e-07 -1.38871e-06 -1.24665e-05
0.000894428 3.15691e-05 -1.1401e-06
3.15691e-05 4.98329e-05 -4.71757e-07
-1.1401e-06 -4.71757e-07 -2.7587e-05
0.000868204 4.4446e-05 -2.09709e-07
4.4446e-05 4.45834e-05 -2.54601e-07
-2.09709e-07 -2.54601e-07 -4.04831e-05
0.00121081 0.000108558 -1.1077e-06
0.000108558 8.38815e-05 -1.4585e-06
-1.1077e-06 -1.4585e-06 -2.07256e-05
0.00134386 0.00011094 6.74081e-07
0.00011094 5.67544e-05 2.25657e-07
6.74081e-07 2.25657e-07 -5.69825e-05
0.000952947 9.09783e-05 -6.41215e-07
9.09783e-05 9.3697e-05 -2.8209e-07
-6.41215e-07 -2.8209e-07 -8.30447e-06
0.00123842 0.000112882 -2.11401e-06
0.000112882 0.000198866 8.05483e-07
-2.11401e-06 8.05483e-07 8.31048e-05
0.00142528 0.00011856 -2.67367e-06
0.00011856 0.000227819 -7.05238e-07
-2.67367e-06 -7.05238e-07 0.000127178
0.000820105 -2.51689e-05 2.84822e-08
-2.51689e-05 3.54619e-06 2.38296e-08
2.84822e-08 2.38296e-08 -2.94819e-05
0.000868439 -1.78674e-05 -1.50238e-07
-1.78674e-05 3.00819e-05 1.48066e-07
-1.50238e-07 1.48066e-07 -2.49931e-05
0.00100853 8.8497e-05 -4.22096e-07
8.8497e-05 0.000119238 -2.77526e-07
-4.22096e-07 -2.77526e-07 2.56602e-05
0.000920277 1.3988e-05 1.35596e-07
1.3988e-05 6.84367e-05 3.99125e-09
1.35596e-07 3.99125e-09 -7.43704e-06
0.000942257 5.90776e-05 1.39421e-07
5.90776e-05 9.31515e-05 -6.06308e-07
1.39421e-07 -6.06308e-07 -2.24758e-06
0.00150238 8.96447e-05 -7.09549e-07
8.96447e-05 7.13264e-05 -2.05195e-07
-7.09549e-07 -2.05195e-07 -3.70209e-05
0.0012759 0.000116937 1.00953e-06
0.000116937 9.1639e-05 -1.02866e-07
1.00953e-06 -1.02866e-07 -1.60936e-05
0.00128909 0.000117849 5.56977e-07
0.000117849 1.95467e-05 1.28462e-06
5.56977e-07 1.28462e-06 -8.29668e-05
0.000788656 8.78918e-05 5.81457e-07
8.78918e-05 1.42539e-05 1.49878e-06
5.81457e-07 1.49878e-06 -0.000103205
0.00122562 0.000119745 -3.86505e-07
0.000119745 0.000143417 -8.28889e-07
-3.86505e-07 -8.28889e-07 2.18008e-05
0.000860863 -1.03384e-05 6.84665e-07
-1.03384e-05 2.55664e-05 1.1841e-06
6.84665e-07 1.1841e-06 -2.44253e-05
0.000802434 -3.94417e-06 2.01361e-07
-3.94417e-06 6.2941e-07 1.44899e-06
2.01361e-07 1.44899e-06 -6.84786e-05
0.00112686 9.99986e-05 3.87888e-07
9.99986e-05 0.000193402 -6.2362e-07
3.87888e-07 -6.2362e-07 8.638e-05
0.000834605 3.33974e-05 4.65306e-07
3.33974e-05 3.16125e-05 5.58632e-07
4.65306e-07 5.58632e-07 -5.83081e-05
0.00102321 7.01654e-05 2.79674e-07
7.01654e-05 0.000131051 -1.01191e-06
2.79674e-07 -1.01191e-06 2.87603e-05
0.00165433 9.01213e-05 -2.48098e-06
9.01213e-05 0.000103137 3.81999e-07
-2.48098e-06 3.81999e-07 1.22413e-05
0.00162936 0.000143023 7.23479e-07
0.000143023 0.000266139 -1.41069e-06
7.23479e-07 -1.41069e-06 0.000149008
0.000207268 9.04308e-05 3.08464e-07
9.04308e-05 -0.000570302 -1.67216e-06
3.08464e-07 -1.67216e-06 -0.000667406
0.00159255 0.0001282 4.05576e-06
0.0001282 0.00041806 3.09189e-06
4.05576e-06 3.09189e-06 0.00029032
7.52501e-05 7.64269e-05 6.44463e-07
7.64269e-05 -0.000446996 -1.01456e-06
6.44463e-07 -1.01456e-06 -0.000581578
0.000827449 -1.7456e-05 -1.314e-06
-1.7456e-05 3.80008e-06 -1.79844e-06
-1.314e-06 -1.79844e-06 -2.67174e-05
0.00079506 -1.21868e-05 1.35297e-07
-1.21868e-05 -9.95628e-06 5.40042e-07
1.35297e-07 5.40042e-07 -5.79218e-05
0.000792889 -1.96053e-05 2.22386e-07
-1.96053e-05 -6.92922e-06 1.1523e-06
2.22386e-07 1.1523e-06 -6.68452e-05
0.000752881 -2.6213e-05 -6.60443e-07
-2.6213e-05 -3.2742e-05 -7.91133e-07
-6.60443e-07 -7.91133e-07 -7.97365e-05
0.000879217 -1.98005e-06 2.19416e-07
-1.98005e-06 3.31178e-05 -3.60629e-08
2.19416e-07 -3.60629e-08 -1.24428e-05
0.000920214 -1.65747e-05 1.71736e-07
-1.65747e-05 6.19471e-05 -3.88973e-07
1.71736e-07 -3.88973e-07 4.92159e-06
0.00102515 5.63275e-06 2.80977e-07
5.63275e-06 0.000121719 5.87854e-08
2.80977e-07 5.87854e-08 5.72187e-05
0.000811245 -3.16231e-05 9.47618e-08
-3.16231e-05 5.89569e-06 6.66219e-07
9.47618e-08 6.66219e-07 -5.15504e-05
0.000894182 -1.74307e-05 7.96813e-08
-1.74307e-05 3.75406e-05 8.56418e-07
7.96813e-08 8.56418e-07 -6.42008e-06
0.000847444 1.62799e-06 7.70669e-07
1.62799e-06 3.21083e-06 1.62694e-06
7.70669e-07 1.62694e-06 -2.30733e-05
0.000849471 -9.06326e-06 -1.43252e-07
-9.06326e-06 5.50016e-06 1.84302e-08
-1.43252e-07 1.84302e-08 -2.07569e-05
0.00131401 -1.75006e-05 1.20891e-06
-1.75006e-05 0.00024743 1.95177e-06
1.20891e-06 1.95177e-06 0.000250426
0.000845234 -1.26639e-05 -6.4251e-07
-1.26639e-05 6.35434e-06 -1.83045e-06
-6.4251e-07 -1.83045e-06 -2.07953e-05
0.00133083 -2.19374e-05 -3.04277e-06
-2.19374e-05 0.000260587 -1.16216e-06
-3.04277e-06 -1.16216e-06 0.000262681
0.0010118 -1.86749e-05 1.41289e-05
-1.86749e-05 9.18114e-05 6.19277e-06
1.41289e-05 6.19277e-06 0.000108017
0.00135048 -2.58016e-05 -7.67869e-06
-2.58016e-05 0.000275977 -4.40849e-06
-7.67869e-06 -4.40849e-06 0.000276551
0.000967429 -2.37812e-05 5.77937e-06
-2.37812e-05 7.39886e-05 2.37528e-06
5.77937e-06 2.37528e-06 8.84864e-05
0.00208026 -4.25862e-05 -6.18174e-06
-4.25862e-05 0.000676108 -1.56478e-06
-6.18174e-06 -1.56478e-06 0.000694321
0.000748668 2.6651e-05 1.68166e-06
2.6651e-05 -4.05355e-05 -3.37424e-06
1.68166e-06 -3.37424e-06 -4.69265e-05
0.000752498 3.01153e-05 -1.15856e-07
3.01153e-05 -3.28903e-05 2.35486e-08
-1.15856e-07 2.35486e-08 -4.15827e-05
0.002266 4.55216e-05 2.34842e-05
4.55216e-05 0.000778268 -3.65196e-06
2.34842e-05 -3.65196e-06 0.000794761
0.000765482 3.4351e-05 -2.81377e-06
3.4351e-05 -2.00561e-05 3.45171e-06
-2.81377e-06 3.45171e-06 -3.13354e-05
0.00232041 5.11831e-05 -9.68707e-07
5.11831e-05 0.00081499 -8.38584e-08
-9.68707e-07 -8.38584e-08 0.000829484
0.00242915 5.65934e-05 -3.32288e-05
5.65934e-05 0.000880453 3.45933e-06
-3.32288e-05 3.45933e-06 0.000892637
0.00153254 7.20808e-05 -1.44657e-06
7.20808e-05 8.49315e-05 6.11817e-07
-1.44657e-06 6.11817e-07 -1.93632e-05
0.00162489 3.16688e-05 -4.29991e-07
3.16688e-05 9.77554e-05 -5.92374e-08
-4.29991e-07 -5.92374e-08 -4.5149e-06
0.00160121 4.47599e-05 1.88683e-06
4.47599e-05 6.38353e-05 6.45047e-07
1.88683e-06 6.45047e-07 -3.14025e-05
0.00167245 8.1052e-06 -9.17195e-08
8.1052e-06 8.67598e-05 -1.34363e-06
-9.17195e-08 -1.34363e-06 -1.84208e-05
0.00159413 5.69434e-08 -9.69035e-07
5.69434e-08 4.0644e-05 -8.37712e-07
-9.69035e-07 -8.37712e-07 -7.36135e-05
0.00159375 1.42585e-05 -3.6687e-06
1.42585e-05 7.88509e-05 6.26597e-08
-3.6687e-06 6.26597e-08 -3.12374e-05
0.00167058 3.8876e-06 2.24409e-07
3.8876e-06 7.75122e-05 -4.50379e-07
2.24409e-07 -4.50379e-07 -3.73809e-05
0.00179876 9.84811e-06 1.02205e-07
9.84811e-06 0.000130537 -1.97813e-07
1.02205e-07 -1.97813e-07 1.76723e-05
0.00161429 2.34441e-05 2.75453e-08
2.34441e-05 6.19649e-05 4.18096e-07
2.75453e-08 4.18096e-07 -3.81838e-05
0.00173608 4.3616e-06 8.83318e-08
4.3616e-06 0.000108498 -8.47253e-07
8.83318e-08 -8.47253e-07 3.91285e-06
0.00155817 6.50417e-05 -5.52144e-07
6.50417e-05 6.15425e-05 1.30337e-07
-5.52144e-07 1.30337e-07 -3.73842e-05
0.00172207 3.73922e-05 1.22224e-06
3.73922e-05 0.000108965 -5.10913e-07
1.22224e-06 -5.10913e-07 1.68428e-05
0.00177051 1.15027e-05 -1.53904e-07
1.15027e-05 0.000102348 -5.33236e-07
-1.53904e-07 -5.33236e-07 -1.21118e-05
0.00174028 4.96382e-06 -7.49886e-07
4.96382e-06 9.04811e-05 5.40785e-07
-7.49886e-07 5.40785e-07 -1.76141e-05
0.00170606 1.70187e-05 -4.12797e-07
1.70187e-05 8.56667e-05 6.50909e-07
-4.12797e-07 6.50909e-07 -1.12681e-05
0.00185107 5.84903e-05 -1.47981e-06
5.84903e-05 0.00017513 -7.06177e-07
-1.47981e-06 -7.06177e-07 8.291e-05
0.0016888 4.0644e-06 -1.26539e-06
4.0644e-06 0.000108768 1.30187e-06
-1.26539e-06 1.30187e-06 -2.37932e-06
0.00176987 -2.0989e-05 -2.77673e-06
-2.0989e-05 0.000179976 3.21448e-07
-2.77673e-06 3.21448e-07 7.91704e-05
0.00159589 -2.03185e-06 -1.63329e-06
-2.03185e-06 6.73845e-05 9.48305e-07
-1.63329e-06 9.48305e-07 -3.82417e-05
0.00170735 -4.15876e-05 -3.48037e-07
-4.15876e-05 0.00011263 -1.54832e-08
-3.48037e-07 -1.54832e-08 1.31963e-05
0.00104599 -6.2885e-05 -1.3652e-06
-6.2885e-05 0.000122361 -4.35011e-07
-1.3652e-06 -4.35011e-07 4.18505e-05
0.000883067 -8.83488e-05 5.64687e-07
-8.83488e-05 4.09774e-05 -3.59156e-07
5.64687e-07 -3.59156e-07 -5.2588e-05
0.00109808 -0.000108559 -9.06621e-07
-0.000108559 0.000108785 1.39664e-06
-9.06621e-07 1.39664e-06 -8.98192e-06
0.00172958 -9.95726e-05 1.72673e-07
-9.95726e-05 0.000186419 -2.35623e-07
1.72673e-07 -2.35623e-07 8.10368e-05
0.00153821 -6.73412e-05 -6.46793e-07
-6.73412e-05 2.31633e-05 1.31221e-06
-6.46793e-07 1.31221e-06 -6.77975e-05
0.00149659 -0.000104917 2.71368e-06
-0.000104917 0.000109344 1.5801e-06
2.71368e-06 1.5801e-06 1.23395e-05
0.00127521 -0.000119979 -9.49109e-07
-0.000119979 0.000112594 -9.134e-07
-9.49109e-07 -9.134e-07 -9.66273e-06
0.00127362 -0.000109874 1.08618e-07
-0.000109874 3.85747e-05 -6.03265e-06
1.08618e-07 -6.03265e-06 -5.96316e-05
0.00106635 -9.36156e-05 -2.25287e-07
-9.36156e-05 0.000139271 -1.3223e-06
-2.25287e-07 -1.3223e-06 5.03821e-05
0.00103029 -8.72124e-05 -2.8922e-07
-8.72124e-05 0.000126503 -1.99214e-06
-2.8922e-07 -1.99214e-06 3.47769e-05
0.000942333 -2.67983e-05 2.73728e-08
-2.67983e-05 7.69016e-05 1.20624e-07
2.73728e-08 1.20624e-07 -2.6355e-06
0.000591592 2.82891e-05 -1.05239e-06
2.82891e-05 -0.00012078 1.67235e-06
-1.05239e-06 1.67235e-06 -0.000158538
0.000810733 3.27788e-05 -1.15129e-07
3.27788e-05 -6.10175e-06 3.48945e-07
-1.15129e-07 3.48945e-07 -6.45812e-05
0.00165746 4.90899e-06 -3.46992e-07
4.90899e-06 7.02664e-05 3.17831e-07
-3.46992e-07 3.17831e-07 -3.90972e-05
0.0017112 -8.03075e-06 -3.80288e-07
-8.03075e-06 0.000114257 -1.54868e-07
-3.80288e-07 -1.54868e-07 1.02491e-05
0.00177391 -4.70396e-05 -1.16626e-06
-4.70396e-05 0.000122666 -8.94092e-08
-1.16626e-06 -8.94092e-08 2.31787e-05
0.00103221 -9.32303e-05 -7.16377e-09
-9.32303e-05 0.000119425 2.16153e-07
-7.16377e-09 2.16153e-07 2.98155e-05
0.000775807 -8.71664e-05 1.10234e-06
-8.71664e-05 -1.47806e-05 -1.00874e-06
1.10234e-06 -1.00874e-06 -0.000117874
0.00114609 -0.000118328 -1.16763e-07
-0.000118328 0.000112058 -1.22947e-07
-1.16763e-07 -1.22947e-07 -2.06382e-05
0.00157705 -8.59723e-05 5.45882e-07
-8.59723e-05 6.45522e-05 -1.13212e-06
5.45882e-07 -1.13212e-06 -3.27045e-05
0.00153385 -0.000132371 -1.6545e-07
-0.000132371 0.000213255 -2.24698e-07
-1.6545e-07 -2.24698e-07 9.01972e-05
0.0015715 -0.000116091 -1.24469e-06
-0.000116091 0.000122231 -1.21848e-07
-1.24469e-06 -1.21848e-07 2.97973e-05
0.000606801 2.27733e-05 6.79608e-08
2.27733e-05 -0.000115945 -5.87475e-07
6.79608e-08 -5.87475e-07 -0.000151148
0.00102383 -9.20918e-05 2.61539e-08
-9.20918e-05 0.000118833 1.21952e-07
2.61539e-08 1.21952e-07 2.84759e-05
0.000945623 -8.76052e-05 -5.65281e-07
-8.76052e-05 7.92571e-05 1.40732e-07
-5.65281e-07 1.40732e-07 -1.33204e-05
0.00106038 -6.52262e-05 -3.0451e-07
-6.52262e-05 0.000145597 8.03417e-07
-3.0451e-07 8.03417e-07 5.49638e-05
0.001015 -2.47985e-05 1.40405e-08
-2.47985e-05 0.000111886 1.08438e-08
1.40405e-08 1.08438e-08 4.08678e-05
0.000868391 1.29059e-05 -2.16864e-07
1.29059e-05 2.59412e-05 1.88179e-07
-2.16864e-07 1.88179e-07 -2.90694e-05
0.00182071 4.3792e-06 9.52441e-08
4.3792e-06 0.000141026 -7.42457e-07
9.52441e-08 -7.42457e-07 3.45594e-05
0.00173789 -9.30825e-06 4.37869e-07
-9.30825e-06 9.86858e-05 2.07655e-07
4.37869e-07 2.07655e-07 -2.6805e-06
0.00142057 -5.48973e-05 2.07954e-06
-5.48973e-05 -6.88802e-05 -1.349e-06
2.07954e-06 -1.349e-06 -0.000170382
0.00176999 -0.00010572 2.62332e-07
-0.00010572 0.000108469 -2.35972e-06
2.62332e-07 -2.35972e-06 1.38523e-05
0.000959371 -9.12638e-05 -7.77925e-07
-9.12638e-05 8.5096e-05 1.35848e-06
-7.77925e-07 1.35848e-06 -8.21155e-06
0.00160596 -0.000133275 2.70789e-06
-0.000133275 0.000169889 2.81217e-06
2.70789e-06 2.81217e-06 5.61365e-05
0.000679883 -8.96945e-05 -5.71419e-07
-8.96945e-05 -7.16079e-05 -2.46143e-06
-5.71419e-07 -2.46143e-06 -0.000195004
0.00149215 -0.000139032 8.79229e-07
-0.000139032 0.000269466 1.23981e-06
8.79229e-07 1.23981e-06 0.000124922
0.00062238 1.89427e-05 8.48558e-07
1.89427e-05 -0.000109815 -2.32471e-06
8.48558e-07 -2.32471e-06 -0.000142922
0.000986874 -7.04437e-07 1.09435e-06
-7.04437e-07 8.96105e-05 -7.60887e-07
1.09435e-06 -7.60887e-07 3.76033e-05
0.00105405 -2.57493e-05 2.43404e-07
-2.57493e-05 0.000131677 6.59722e-07
2.43404e-07 6.59722e-07 6.44982e-05
0.000984007 -3.00995e-05 4.11571e-07
-3.00995e-05 0.000100164 -7.53355e-07
4.11571e-07 -7.53355e-07 1.79605e-05
0.00106266 -9.38858e-05 -2.77136e-07
-9.38858e-05 0.000138473 2.23024e-06
-2.77136e-07 2.23024e-06 4.54111e-05
0.00096927 -9.01878e-05 -8.66638e-07
-9.01878e-05 9.30323e-05 2.95339e-06
-8.66638e-07 2.95339e-06 -2.94278e-06
0.000820417 -2.40627e-05 -1.44919e-06
-2.40627e-05 3.79149e-06 -1.8223e-06
-1.44919e-06 -1.8223e-06 -2.91466e-05
0.000867453 -2.42192e-05 -3.92182e-07
-2.42192e-05 2.96375e-05 -1.22982e-06
-3.92182e-07 -1.22982e-06 -2.5404e-05
0.00151693 9.20841e-05 4.9366e-07
9.20841e-05 8.06877e-05 1.2713e-06
4.9366e-07 1.2713e-06 -2.81912e-05
0.000917451 6.28075e-06 -3.53947e-07
6.28075e-06 6.49324e-05 -7.18187e-07
-3.53947e-07 -7.18187e-07 -9.90455e-06
0.000963741 8.65735e-05 -5.07625e-07
8.65735e-05 9.78446e-05 -2.05418e-07
-5.07625e-07 -2.05418e-07 4.71312e-06
0.000866833 4.91011e-05 -7.64058e-07
4.91011e-05 5.18705e-05 -2.78644e-07
-7.64058e-07 -2.78644e-07 -4.31757e-05
0.00130198 0.00011783 -9.12301e-07
0.00011783 0.000103765 -1.46897e-06
-9.12301e-07 -1.46897e-06 -4.2233e-06
0.00140691 0.000120678 1.47213e-06
0.000120678 7.32874e-05 7.13443e-07
1.47213e-06 7.13443e-07 -2.7699e-05
0.000613105 8.0021e-05 -5.02307e-07
8.0021e-05 -7.63129e-05 2.8528e-07
-5.02307e-07 2.8528e-07 -0.000193794
0.00126506 0.000121436 -1.9718e-06
0.000121436 0.000165728 5.93756e-07
-1.9718e-06 5.93756e-07 4.12363e-05
0.000860233 -1.73484e-05 -1.62646e-07
-1.73484e-05 2.49556e-05 9.85864e-08
-1.62646e-07 9.85864e-08 -2.50449e-05
0.000852948 1.73968e-06 8.8173e-08
1.73968e-06 2.71213e-05 5.6232e-07
8.8173e-08 5.6232e-07 -4.18363e-05
0.00108693 9.79388e-05 -3.77257e-08
9.79388e-05 0.000175687 -8.80591e-07
-3.77257e-08 -8.80591e-07 6.96829e-05
0.000887387 1.65296e-05 -1.64811e-07
1.65296e-05 5.60161e-05 -1.19772e-08
-1.64811e-07 -1.19772e-08 -3.13639e-05
0.000936888 6.45832e-05 -1.07739e-06
6.45832e-05 8.86055e-05 -8.92844e-07
-1.07739e-06 -8.92844e-07 -1.38393e-05
0.00178209 9.16229e-05 -1.56227e-06
9.16229e-05 0.000163589 -8.69051e-08
-1.56227e-06 -8.69051e-08 7.17657e-05
0.00162095 0.000141914 1.46705e-06
0.000141914 0.000255488 1.27467e-07
1.46705e-06 1.27467e-07 0.000139766
0.000807558 0.000109525 -6.99064e-07
0.000109525 -0.000250947 5.92214e-07
-6.99064e-07 5.92214e-07 -0.000342364
0.00125157 0.000112924 1.27564e-06
0.000112924 0.000243768 1.39464e-06
1.27564e-06 1.39464e-06 0.000116364
0.000640801 0.000102171 -1.37565e-06
0.000102171 -0.000157201 -6.72933e-07
-1.37565e-06 -6.72933e-07 -0.000298034
0.000801815 -8.74712e-06 3.90924e-07
-8.74712e-06 -2.39103e-06 1.32446e-06
3.90924e-07 1.32446e-06 -6.49593e-05
0.000796354 3.32468e-05 4.47795e-07
3.32468e-05 6.01754e-06 3.44574e-07
4.47795e-07 3.44574e-07 -7.84027e-05
0.0010644 9.77272e-05 1.02476e-06
9.77272e-05 0.000166462 -3.56153e-07
1.02476e-06 -3.56153e-07 5.04314e-05
0.000634138 4.73152e-05 4.53501e-07
4.73152e-05 -7.12589e-05 7.32863e-07
4.53501e-07 7.32863e-07 -0.000175004
0.00207025 6.35644e-05 -1.29381e-06
6.35644e-05 0.000246661 2.69271e-07
-1.29381e-06 2.69271e-07 0.00016076
0.00136127 0.000108498 2.18851e-06
0.000108498 -9.11435e-05 -2.86298e-07
2.18851e-06 -2.86298e-07 -0.000170361
0.00136543 0.000143135 1.67109e-06
0.000143135 0.000109227 -3.43261e-06
1.67109e-06 -3.43261e-06 -2.25607e-05
0.000384878 8.01993e-05 7.35849e-07
8.01993e-05 -0.000217118 1.35013e-06
7.35849e-07 1.35013e-06 -0.000371367
0.000870473 3.7373e-06 -5.66053e-07
3.7373e-06 3.23332e-05 -5.76685e-07
-5.66053e-07 -5.76685e-07 -1.67718e-05
0.000879639 -4.58672e-06 -8.83432e-08
-4.58672e-06 4.0151e-05 3.8357e-07
-8.83432e-08 3.8357e-07 -2.02215e-05
0.00096074 -8.47009e-06 2.46282e-07
-8.47009e-06 8.53576e-05 7.7155e-07
2.46282e-07 7.7155e-07 1.77758e-05
0.00087299 -1.37922e-05 -6.34405e-07
-1.37922e-05 2.82887e-05 -8.64151e-07
-6.34405e-07 -8.64151e-07 -1.6241e-05
0.000768525 -2.89255e-05 1.24932e-07
-2.89255e-05 -1.84254e-05 -8.66232e-07
1.24932e-07 -8.66232e-07 -7.6158e-05
0.000881984 -1.13681e-05 9.15242e-08
-1.13681e-05 3.08961e-05 3.56715e-08
9.15242e-08 3.56715e-08 -1.29089e-05
0.000947142 1.54283e-05 -1.40593e-07
1.54283e-05 8.30966e-05 -3.28335e-07
-1.40593e-07 -3.28335e-07 1.58737e-05
0.000833576 -1.42729e-05 1.54027e-07
-1.42729e-05 1.95944e-05 2.99623e-07
1.54027e-07 2.99623e-07 -3.89119e-05
0.000981271 1.85104e-06 3.87121e-07
1.85104e-06 0.000100323 3.18471e-07
3.87121e-07 3.18471e-07 2.90074e-05
0.000817545 -3.26593e-05 -2.12465e-07
-3.26593e-05 1.34968e-05 7.64428e-07
-2.12465e-07 7.64428e-07 -5.19583e-05
0.000780279 1.74789e-05 3.81848e-07
1.74789e-05 -9.2295e-06 8.29134e-07
3.81848e-07 8.29134e-07 -6.70246e-05
0.000893642 -3.06237e-07 1.95737e-07
-3.06237e-07 3.57971e-05 7.53677e-07
1.95737e-07 7.53677e-07 -7.80853e-06
0.000838849 5.53399e-06 6.68785e-07
5.53399e-06 -9.61599e-07 1.56388e-06
6.68785e-07 1.56388e-06 -2.79189e-05
0.000845787 -5.23704e-06 -2.61608e-07
-5.23704e-06 2.45279e-06 7.96014e-09
-2.61608e-07 7.96014e-09 -2.38953e-05
0.00131893 -1.15304e-05 9.99512e-07
-1.15304e-05 0.000247362 1.87701e-06
9.99512e-07 1.87701e-06 0.000250598
0.000840549 -1.40509e-05 -2.87357e-07
-1.40509e-05 9.65414e-07 -1.73357e-06
-2.87357e-07 -1.73357e-06 -2.53297e-05
0.00133348 -1.62394e-05 -2.41865e-06
-1.62394e-05 0.000257847 -1.19125e-06
-2.41865e-06 -1.19125e-06 0.000260796
0.00101317 -1.44324e-05 1.11613e-05
-1.44324e-05 8.8525e-05 6.24169e-06
1.11613e-05 6.24169e-06 0.000105373
0.00134777 -2.09088e-05 -5.86837e-06
-2.09088e-05 0.000269344 -4.33438e-06
-5.86837e-06 -4.33438e-06 0.000271518
0.000966464 -1.96096e-05 4.3353e-06
-1.96096e-05 6.77383e-05 2.36557e-06
4.3353e-06 2.36557e-06 8.3867e-05
0.000911137 -2.41383e-05 -2.31225e-06
-2.41383e-05 4.4321e-05 -1.61863e-06
-2.31225e-06 -1.61863e-06 5.87883e-05
0.000759178 2.31053e-05 1.22957e-06
2.31053e-05 -4.03584e-05 -3.31484e-06
1.22957e-06 -3.31484e-06 -4.44927e-05
0.000761536 2.68634e-05 -1.61178e-07
2.68634e-05 -3.38028e-05 1.9398e-08
-1.61178e-07 1.9398e-08 -4.02648e-05
0.00221703 3.9398e-05 2.00327e-05
3.9398e-05 0.000745913 -3.74479e-06
2.00327e-05 -3.74479e-06 0.000764133
0.000771059 3.05058e-05 -2.42754e-06
3.05058e-05 -2.32925e-05 3.36135e-06
-2.42754e-06 3.36135e-06 -3.20656e-05
0.00227415 4.54921e-05 -1.08347e-06
4.54921e-05 0.000783481 -7.64138e-08
-1.08347e-06 -7.64138e-08 0.000799783
0.00233189 5.08846e-05 -2.91666e-05
5.08846e-05 0.000821972 3.53113e-06
-2.91666e-05 3.53113e-06 0.0008363
0.00160848 6.68038e-05 1.47231e-06
6.68038e-05 8.7059e-05 1.92464e-06
1.47231e-06 1.92464e-06 -1.18298e-05
0.00160545 2.16248e-05 3.19071e-07
2.16248e-05 5.66713e-05 -2.57073e-07
3.19071e-07 -2.57073e-07 -4.38627e-05
0.00160022 3.68385e-05 2.09964e-06
3.68385e-05 4.6518e-05 -9.96738e-07
2.09964e-06 -9.96738e-07 -4.47923e-05
0.0016894 4.31251e-06 4.37012e-07
4.31251e-06 8.18042e-05 -1.675e-06
4.37012e-07 -1.675e-06 -2.23121e-05
0.00180743 7.09074e-06 3.30419e-07
7.09074e-06 0.000136236 -1.09444e-06
3.30419e-07 -1.09444e-06 2.3292e-05
0.00169497 2.64304e-06 -1.25319e-06
2.64304e-06 9.03049e-05 8.76777e-09
-1.25319e-06 8.76777e-09 -2.49165e-05
0.00177295 1.28599e-05 -1.7078e-07
1.28599e-05 0.000107143 -1.28571e-08
-1.7078e-07 -1.28571e-08 -6.32147e-06
0.0017672 9.55524e-07 2.16707e-07
9.55524e-07 0.000104963 -1.76801e-07
2.16707e-07 -1.76801e-07 -2.97262e-06
0.00169118 1.73967e-05 5.53818e-07
1.73967e-05 7.74477e-05 -1.00487e-07
5.53818e-07 -1.00487e-07 -1.95276e-05
0.0016854 5.35371e-05 -3.72058e-08
5.35371e-05 8.95139e-05 -1.02132e-07
-3.72058e-08 -1.02132e-07 -2.33938e-06
0.0018023 6.85472e-06 -1.42606e-06
6.85472e-06 0.000111404 -3.10145e-07
-1.42606e-06 -3.10145e-07 2.5299e-06
0.00186928 -1.95469e-06 -9.33506e-07
-1.95469e-06 0.000140796 4.14183e-07
-9.33506e-07 4.14183e-07 4.30497e-05
0.0018006 3.53459e-05 5.01315e-08
3.53459e-05 0.000116994 8.24309e-07
5.01315e-08 8.24309e-07 2.50748e-05
0.00163417 4.51554e-06 -7.44677e-07
4.51554e-06 6.17036e-05 1.37859e-06
-7.44677e-07 1.37859e-06 -4.68468e-05
0.00174508 -9.09828e-06 -1.11295e-06
-9.09828e-06 0.000133344 2.44746e-07
-1.11295e-06 2.44746e-07 2.89427e-05
0.00191742 -4.90974e-05 -1.07054e-06
-4.90974e-05 0.000199213 6.73214e-07
-1.07054e-06 6.73214e-07 0.000100579
0.00110903 -9.63145e-05 -2.64472e-07
-9.63145e-05 0.000157384 -6.21344e-07
-2.64472e-07 -6.21344e-07 6.76058e-05
0.00119158 -0.00010581 3.04551e-07
-0.00010581 0.00019795 1.47027e-07
3.04551e-07 1.47027e-07 9.53084e-05
0.00114494 -0.000117224 -1.64871e-06
-0.000117224 0.000115328 1.69409e-06
-1.64871e-06 1.69409e-06 -1.8118e-05
0.00180167 -9.04462e-05 -2.69704e-07
-9.04462e-05 0.000175554 2.15331e-07
-2.69704e-07 2.15331e-07 7.78148e-05
0.00116142 -0.000107007 -3.16811e-06
-0.000107007 -7.97128e-05 9.60111e-07
-3.16811e-06 9.60111e-07 -0.000171424
0.00147833 -0.000127924 -1.97651e-06
-0.000127924 0.000184538 -3.16554e-06
-1.97651e-06 -3.16554e-06 6.4766e-05
0.00106883 -9.42112e-05 2.69447e-07
-9.42112e-05 0.000141716 -1.78546e-06
2.69447e-07 -1.78546e-06 5.11766e-05
0.000907267 -8.53434e-05 -1.52094e-06
-8.53434e-05 6.04171e-05 -2.19975e-06
-1.52094e-06 -2.19975e-06 -3.15308e-05
0.00103405 -7.35759e-05 3.24644e-07
-7.35759e-05 0.000135271 -6.65387e-08
3.24644e-07 -6.65387e-08 4.23851e-05
0.000591468 2.4046e-05 -9.77822e-07
2.4046e-05 -0.000123983 1.10208e-06
-9.77822e-07 1.10208e-06 -0.000158957
0.00104119 -1.56719e-05 1.66324e-09
-1.56719e-05 0.000124563 1.35853e-07
1.66324e-09 1.35853e-07 5.45148e-05
0.00075384 2.67233e-05 -1.41342e-07
2.67233e-05 -3.63797e-05 9.66612e-07
-1.41342e-07 9.66612e-07 -9.0864e-05
0.00177105 4.99362e-06 -4.38548e-08
4.99362e-06 0.00011471 -3.65261e-07
-4.38548e-08 -3.65261e-07 7.42009e-06
0.00172132 -1.12761e-05 8.7828e-07
-1.12761e-05 9.09248e-05 -5.83477e-08
8.7828e-07 -5.83477e-08 -1.09991e-05
0.00162488 -5.70555e-05 3.57256e-07
-5.70555e-05 3.2222e-05 -5.58446e-07
3.57256e-07 -5.58446e-07 -6.95619e-05
0.00103915 -9.48878e-05 -1.01141e-08
-9.48878e-05 0.000124467 6.45781e-07
-1.01141e-08 6.45781e-07 3.06598e-05
0.000798007 -9.39648e-05 -1.97662e-07
-9.39648e-05 -4.66478e-06 2.73317e-07
-1.97662e-07 2.73317e-07 -0.00012551
0.00162994 -0.000144545 -1.80546e-06
-0.000144545 0.000337206 1.20641e-06
-1.80546e-06 1.20641e-06 0.000192564
0.00181405 -0.000108428 -9.4081e-07
-0.000108428 0.000140361 7.40961e-07
-9.4081e-07 7.40961e-07 4.6413e-05
0.00149102 -0.000129559 1.77437e-06
-0.000129559 0.00010822 -1.05806e-06
1.77437e-06 -1.05806e-06 -5.27243e-06
0.000724124 1.89445e-05 1.6118e-07
1.89445e-05 -5.61568e-05 -5.66464e-07
1.6118e-07 -5.66464e-07 -8.82102e-05
0.000972062 1.09719e-05 -3.15809e-07
1.09719e-05 8.15571e-05 1.71975e-07
-3.15809e-07 1.71975e-07 2.99451e-05
0.00087432 -8.51692e-05 -8.29252e-07
-8.51692e-05 4.09552e-05 2.30436e-07
-8.29252e-07 2.30436e-07 -5.14166e-05
0.00100974 -8.88732e-05 1.06842e-06
-8.88732e-05 0.000112703 6.85439e-07
1.06842e-06 6.85439e-07 1.86976e-05
0.000936948 -3.07151e-05 -5.48039e-08
-3.07151e-05 7.61313e-05 -3.1276e-07
-5.48039e-08 -3.1276e-07 -6.89496e-06
0.000991121 -2.18479e-05 -5.25582e-07
-2.18479e-05 9.84599e-05 8.50087e-07
-5.25582e-07 8.50087e-07 3.11493e-05
0.00175529 5.97795e-06 -2.5092e-06
5.97795e-06 9.40088e-05 -2.88953e-07
-2.5092e-06 -2.88953e-07 -7.76818e-06
0.00176134 -2.14964e-05 3.69293e-07
-2.14964e-05 8.8759e-05 9.00529e-07
3.69293e-07 9.00529e-07 -9.65524e-06
0.00181104 -7.93719e-05 1.11296e-06
-7.93719e-05 8.32199e-05 -2.16861e-06
1.11296e-06 -2.16861e-06 -1.19438e-05
0.00174727 -0.000132799 4.85311e-07
-0.000132799 0.000101702 -1.73731e-06
4.85311e-07 -1.73731e-06 8.31951e-06
0.000712194 -8.13043e-05 -1.57965e-06
-8.13043e-05 -2.6472e-05 1.04315e-06
-1.57965e-06 1.04315e-06 -0.000127925
0.00142173 -0.000141782 -8.10964e-07
-0.000141782 0.00017812 3.44085e-06
-8.10964e-07 3.44085e-06 2.2559e-05
0.00164227 -0.000138524 5.69749e-07
-0.000138524 0.000416499 -2.25244e-06
5.69749e-07 -2.25244e-06 0.000277193
0.000845283 1.51844e-05 6.11875e-07
1.51844e-05 5.3337e-06 -1.64397e-06
6.11875e-07 -1.64397e-06 -2.3696e-05
0.000854891 -4.19379e-05 8.86168e-07
-4.19379e-05 2.59493e-05 -8.32328e-07
8.86168e-07 -8.32328e-07 -2.2185e-05
0.000745985 1.07167e-05 4.62141e-07
1.07167e-05 -3.52157e-05 -1.38389e-06
4.62141e-07 -1.38389e-06 -8.79037e-05
0.00095116 -2.71161e-05 8.74636e-07
-2.71161e-05 7.86812e-05 -1.07361e-07
8.74636e-07 -1.07361e-07 1.32458e-05
0.000952631 9.39711e-06 -1.45572e-07
9.39711e-06 8.01533e-05 -1.72296e-07
-1.45572e-07 -1.72296e-07 6.05103e-06
0.000840438 -8.59956e-05 2.15542e-06
-8.59956e-05 4.29348e-05 1.76482e-06
2.15542e-06 1.76482e-06 -5.64488e-05
0.000805506 -8.16181e-05 -2.00578e-06
-8.16181e-05 -1.28128e-05 2.29155e-06
-2.00578e-06 2.29155e-06 -9.89565e-05
0.00174327 -0.000128421 -1.45838e-06
-0.000128421 0.000508416 2.88142e-06
-1.45838e-06 2.88142e-06 0.000411444
0.000868255 -2.42742e-05 -4.41872e-07
-2.42742e-05 2.89241e-05 -1.1343e-06
-4.41872e-07 -1.1343e-06 -2.11053e-05
0.000903444 8.59392e-06 -4.30218e-07
8.59392e-06 5.37235e-05 -2.5176e-07
-4.30218e-07 -2.5176e-07 -1.51366e-05
0.00189094 9.26259e-05 7.1539e-07
9.26259e-05 0.000214707 6.07163e-07
7.1539e-07 6.07163e-07 0.00012195
0.00093275 2.14244e-05 -6.26469e-07
2.14244e-05 8.04184e-05 -5.68117e-07
-6.26469e-07 -5.68117e-07 -7.07188e-06
0.0010539 9.62112e-05 -8.18092e-07
9.62112e-05 0.000161587 -2.06836e-06
-8.18092e-07 -2.06836e-06 5.65637e-05
0.000853759 5.95389e-05 -1.72176e-06
5.95389e-05 4.84023e-05 -4.51098e-07
-1.72176e-06 -4.51098e-07 -5.42962e-05
0.00160003 0.000140241 9.41581e-08
0.000140241 0.000238066 5.34965e-07
9.41581e-08 5.34965e-07 0.000123839
0.0014323 0.00012961 1.73039e-06
0.00012961 8.02799e-05 3.53744e-06
1.73039e-06 3.53744e-06 -5.45933e-06
0.000887148 9.64573e-05 -1.01368e-07
9.64573e-05 5.7338e-05 7.34671e-07
-1.01368e-07 7.34671e-07 -6.98013e-05
0.0011193 0.000124157 -4.19625e-06
0.000124157 8.61192e-05 -1.0967e-06
-4.19625e-06 -1.0967e-06 -6.05033e-05
0.000806052 2.76122e-06 2.12663e-07
2.76122e-06 1.59924e-06 4.7402e-07
2.12663e-07 4.7402e-07 -6.28443e-05
0.000849966 4.04985e-05 -1.38306e-07
4.04985e-05 3.53175e-05 -7.84747e-07
-1.38306e-07 -7.84747e-07 -4.92881e-05
0.0010793 9.86072e-05 -5.41273e-07
9.86072e-05 0.000176224 -1.03118e-06
-5.41273e-07 -1.03118e-06 6.06274e-05
0.000869041 5.63013e-05 -2.90343e-07
5.63013e-05 5.07269e-05 -2.12166e-07
-2.90343e-07 -2.12166e-07 -5.30291e-05
0.0020253 6.04253e-05 -1.12705e-07
6.04253e-05 0.000217319 9.85114e-07
-1.12705e-07 9.85114e-07 0.000129684
0.0014543 0.000110846 1.9064e-06
0.000110846 -3.07438e-05 -1.35777e-06
1.9064e-06 -1.35777e-06 -0.000110947
0.00182003 0.000159253 -2.46405e-06
0.000159253 0.000337664 -2.33096e-07
-2.46405e-06 -2.33096e-07 0.000208783
0.000705671 9.79054e-05 9.76547e-07
9.79054e-05 -6.33532e-05 3.7741e-07
9.76547e-07 3.7741e-07 -0.000216173
0.000951591 4.25181e-06 3.74835e-07
4.25181e-06 8.09696e-05 5.15296e-07
3.74835e-07 5.15296e-07 8.91299e-06
0.00155475 2.83921e-05 -2.58093e-06
2.83921e-05 -2.92766e-05 -1.17309e-06
-2.58093e-06 -1.17309e-06 -0.000109748
0.00113605 8.49003e-05 3.81369e-07
8.49003e-05 0.000199226 1.61621e-06
3.81369e-07 1.61621e-06 9.83712e-05
0.00108626 0.000101704 7.2454e-07
0.000101704 0.000159404 1.27053e-06
7.2454e-07 1.27053e-06 3.48516e-05
0.00214187 8.85368e-05 5.38691e-07
8.85368e-05 0.000213037 -4.00361e-07
5.38691e-07 -4.00361e-07 0.000142108
0.00162406 0.000157114 3.80275e-06
0.000157114 8.98002e-05 -3.94421e-06
3.80275e-06 -3.94421e-06 -2.12012e-05
0.00169391 0.000151217 3.03795e-07
0.000151217 0.000390049 1.80329e-06
3.03795e-07 1.80329e-06 0.000221891
0.000967098 -9.77563e-07 -1.08375e-06
-9.77563e-07 8.53286e-05 -3.84804e-07
-1.08375e-06 -3.84804e-07 2.59592e-05
0.000958607 -8.85089e-06 -5.01732e-08
-8.85089e-06 8.42084e-05 4.62408e-08
-5.01732e-08 4.62408e-08 1.66003e-05
0.000955759 -2.71676e-06 3.80257e-07
-2.71676e-06 8.73164e-05 9.35271e-07
3.80257e-07 9.35271e-07 1.1906e-05
0.000876732 -1.4409e-05 -1.57065e-07
-1.4409e-05 2.88571e-05 -8.43217e-07
-1.57065e-07 -8.43217e-07 -1.53798e-05
0.000873303 -6.51883e-06 5.3376e-08
-6.51883e-06 4.12525e-05 -4.44749e-08
5.3376e-08 -4.44749e-08 -1.75413e-05
0.000862903 5.45615e-06 -3.41077e-07
5.45615e-06 3.90502e-05 -9.92698e-07
-3.41077e-07 -9.92698e-07 -2.93452e-05
0.000884971 -1.78278e-05 -1.26756e-07
-1.78278e-05 3.27428e-05 2.20236e-08
-1.26756e-07 2.20236e-08 -1.18632e-05
0.000799357 -1.57361e-05 -4.618e-07
-1.57361e-05 -1.138e-07 3.53956e-07
-4.618e-07 3.53956e-07 -5.74138e-05
0.000950957 -1.28651e-05 2.45793e-07
-1.28651e-05 8.34242e-05 -3.82609e-07
2.45793e-07 -3.82609e-07 1.14822e-05
0.000916041 3.58642e-06 8.96627e-08
3.58642e-06 6.77908e-05 4.75984e-07
8.96627e-08 4.75984e-07 1.42962e-06
0.000942645 2.4046e-06 4.75198e-07
2.4046e-06 7.94599e-05 -1.2357e-07
4.75198e-07 -1.2357e-07 3.13592e-06
0.000844688 -2.95647e-05 6.25612e-08
-2.95647e-05 2.76229e-05 6.41003e-07
6.25612e-08 6.41003e-07 -4.37931e-05
0.000954477 1.09356e-05 3.49025e-07
1.09356e-05 8.52754e-05 1.75543e-07
3.49025e-07 1.75543e-07 2.17263e-05
0.000892343 7.75434e-06 1.01283e-06
7.75434e-06 4.87303e-05 5.10724e-07
1.01283e-06 5.10724e-07 -9.28859e-06
0.00089082 2.32603e-06 2.79547e-07
2.32603e-06 3.44787e-05 7.02746e-07
2.79547e-07 7.02746e-07 -9.73958e-06
0.000835935 9.28346e-06 4.07467e-07
9.28346e-06 -1.50128e-06 1.53523e-06
4.07467e-07 1.53523e-06 -2.91749e-05
0.000842019 -1.3891e-06 -1.60528e-07
-1.3891e-06 7.74035e-07 1.58463e-09
-1.60528e-07 1.58463e-09 -2.62045e-05
0.00132409 -5.64527e-06 7.5747e-07
-5.64527e-06 0.000248753 1.83534e-06
7.5747e-07 1.83534e-06 0.000251794
0.000847638 -1.19058e-05 -2.35401e-07
-1.19058e-05 3.5506e-06 -1.60986e-06
-2.35401e-07 -1.60986e-06 -2.28629e-05
0.00134165 -1.04481e-05 -1.7786e-06
-1.04481e-05 0.000259752 -1.21325e-06
-1.7786e-06 -1.21325e-06 0.000262831
0.00101977 -9.99358e-06 8.23051e-06
-9.99358e-06 8.9459e-05 6.33006e-06
8.23051e-06 6.33006e-06 0.000106485
0.00135534 -1.53786e-05 -4.34983e-06
-1.53786e-05 0.000269486 -4.27933e-06
-4.34983e-06 -4.27933e-06 0.000272334
0.000976152 -1.50409e-05 3.05042e-06
-1.50409e-05 6.84019e-05 2.39068e-06
3.05042e-06 2.39068e-06 8.53359e-05
0.000920756 -1.97179e-05 -1.70614e-06
-1.97179e-05 4.34049e-05 -1.58331e-06
-1.70614e-06 -1.58331e-06 5.95954e-05
0.000840028 1.1316e-05 3.22484e-07
1.1316e-05 1.96829e-07 -1.59202e-06
3.22484e-07 -1.59202e-06 -2.66399e-05
0.000770856 1.88252e-05 9.87121e-07
1.88252e-05 -3.93915e-05 -3.21394e-06
9.87121e-07 -3.21394e-06 -4.13906e-05
0.000774403 2.33935e-05 -1.28956e-07
2.33935e-05 -3.24406e-05 2.47629e-08
-1.28956e-07 2.47629e-08 -3.66566e-05
0.00216183 3.29088e-05 1.66382e-05
3.29088e-05 0.000710908 -3.80047e-06
1.66382e-05 -3.80047e-06 0.000730796
0.000777729 2.71458e-05 -2.00209e-06
2.71458e-05 -2.52725e-05 3.3294e-06
-2.00209e-06 3.3294e-06 -3.18222e-05
0.00222375 3.94555e-05 -1.30947e-06
3.94555e-05 0.000750331 -7.02356e-08
-1.30947e-06 -7.02356e-08 0.00076836
0.00227736 4.52858e-05 -2.56061e-05
4.52858e-05 0.000786073 3.66881e-06
-2.56061e-05 3.66881e-06 0.000802227
0.00152122 4.85926e-05 8.85339e-07
4.85926e-05 4.84854e-06 -9.99003e-08
8.85339e-07 -9.99003e-08 -8.66636e-05
0.00167476 1.7716e-05 7.9141e-07
1.7716e-05 6.83945e-05 -7.43618e-07
7.9141e-07 -7.43618e-07 -2.86135e-05
0.00179 8.60452e-07 1.02858e-06
8.60452e-07 0.000116944 -9.1343e-07
1.02858e-06 -9.1343e-07 9.2303e-06
0.00175974 1.44214e-05 3.65086e-07
1.44214e-05 0.000104159 1.1798e-07
3.65086e-07 1.1798e-07 -8.30826e-06
0.00180285 7.08766e-06 -1.43327e-07
7.08766e-06 0.000110737 1.19057e-07
-1.43327e-07 1.19057e-07 2.13437e-06
0.00182296 -9.81834e-07 1.68364e-07
-9.81834e-07 0.00011625 -5.78339e-08
1.68364e-07 -5.78339e-08 1.7643e-05
0.00173907 3.55975e-05 2.67092e-07
3.55975e-05 8.59232e-05 3.27901e-07
2.67092e-07 3.27901e-07 -5.84527e-06
0.00181212 -1.69175e-06 -1.77305e-06
-1.69175e-06 0.000106603 2.1205e-07
-1.77305e-06 2.1205e-07 6.5356e-06
0.00189729 1.09761e-05 -2.84655e-06
1.09761e-05 0.000146793 3.96409e-07
-2.84655e-06 3.96409e-07 5.76946e-05
0.00175348 8.79504e-06 -1.19807e-06
8.79504e-06 5.52815e-05 3.61703e-07
-1.19807e-06 3.61703e-07 -1.80207e-05
0.00176519 5.85603e-06 8.05969e-07
5.85603e-06 0.000110561 5.83723e-07
8.05969e-07 5.83723e-07 2.48189e-06
0.00172642 -1.32195e-05 -3.22094e-07
-1.32195e-05 9.39136e-05 -6.28618e-07
-3.22094e-07 -6.28618e-07 -8.52185e-06
0.00184764 -5.94825e-05 -1.43573e-06
-5.94825e-05 0.000143425 -2.30419e-07
-1.43573e-06 -2.30419e-07 4.1239e-05
0.00111213 -9.82005e-05 -4.40252e-08
-9.82005e-05 0.000160318 2.48857e-07
-4.40252e-08 2.48857e-07 6.60383e-05
0.000873831 -9.64706e-05 5.21581e-07
-9.64706e-05 4.00207e-05 2.79604e-06
5.21581e-07 2.79604e-06 -7.80919e-05
0.00163317 -0.000144043 -2.35583e-06
-0.000144043 0.000335054 2.39085e-06
-2.35583e-06 2.39085e-06 0.000191483
0.0018454 -0.000110766 3.29074e-06
-0.000110766 0.000166376 2.53489e-06
3.29074e-06 2.53489e-06 7.31537e-05
0.00129526 -0.000122789 -1.93988e-06
-0.000122789 5.51091e-06 -2.22127e-06
-1.93988e-06 -2.22127e-06 -0.000107508
0.000680981 -7.63189e-05 -1.22571e-06
-7.63189e-05 -5.93945e-05 -9.8098e-07
-1.22571e-06 -9.8098e-07 -0.000151034
0.00109466 -9.21665e-05 2.40805e-06
-9.21665e-05 0.000155796 -2.94361e-06
2.40805e-06 -2.94361e-06 6.31398e-05
0.00088938 3.59678e-06 -3.1518e-08
3.59678e-06 4.65021e-05 -4.39918e-07
-3.1518e-08 -4.39918e-07 -3.35465e-05
0.000830331 1.85799e-05 -7.83407e-07
1.85799e-05 -3.18547e-07 1.11059e-06
-7.83407e-07 1.11059e-06 -3.13012e-05
0.00096154 2.54416e-05 -6.59862e-07
2.54416e-05 7.60533e-05 1.03361e-06
-6.59862e-07 1.03361e-06 2.457e-05
0.000929188 -9.71774e-06 -5.72553e-07
-9.71774e-06 6.62816e-05 1.07535e-06
-5.72553e-07 1.07535e-06 -1.50036e-06
0.00177991 6.39302e-06 3.03566e-07
6.39302e-06 0.000105892 8.99495e-08
3.03566e-07 8.99495e-08 5.48028e-06
0.000843654 1.4352e-05 9.24359e-09
1.4352e-05 4.11939e-06 1.1877e-08
9.24359e-09 1.1877e-08 -2.4868e-05
0.000789022 -3.96564e-06 -3.1975e-07
-3.96564e-06 -1.26103e-05 7.24999e-08
-3.1975e-07 7.24999e-08 -5.87133e-05
0.00180254 -2.25659e-05 -2.14949e-07
-2.25659e-05 0.000108898 -4.34382e-07
-2.14949e-07 -4.34382e-07 9.91081e-06
0.00172776 -7.80874e-05 -1.43285e-07
-7.80874e-05 4.64282e-05 -1.88963e-07
-1.43285e-07 -1.88963e-07 -5.16435e-05
0.000764858 -8.30953e-05 8.90909e-08
-8.30953e-05 3.55716e-06 1.73137e-06
8.90909e-08 1.73137e-06 -9.62447e-05
0.00136545 -0.000125698 -7.64743e-07
-0.000125698 0.00027397 3.69349e-07
-7.64743e-07 3.69349e-07 0.000130086
0.00125905 -0.000132913 8.74197e-07
-0.000132913 8.86661e-05 9.30283e-07
8.74197e-07 9.30283e-07 -6.01296e-05
0.00175445 -0.000134303 5.15991e-07
-0.000134303 0.000110394 -1.75847e-07
5.15991e-07 -1.75847e-07 1.73628e-05
0.000925627 -1.24925e-05 9.82826e-07
-1.24925e-05 5.94157e-05 -4.86214e-07
9.82826e-07 -4.86214e-07 8.43349e-06
0.000931968 -1.47399e-05 -4.38482e-07
-1.47399e-05 6.98522e-05 4.30219e-07
-4.38482e-07 4.30219e-07 3.74654e-06
0.000921597 -8.65794e-05 4.1028e-07
-8.65794e-05 4.38172e-05 4.72465e-07
4.1028e-07 4.72465e-07 -4.47713e-05
0.00126787 -0.000106372 8.43577e-07
-0.000106372 0.000259887 -1.10011e-06
8.43577e-07 -1.10011e-06 0.00017043
0.000800847 -6.14538e-05 -6.17707e-08
-6.14538e-05 2.00515e-05 3.03768e-07
-6.17707e-08 3.03768e-07 -7.84396e-05
0.000944972 4.97398e-06 4.38441e-08
4.97398e-06 7.70586e-05 -2.45113e-07
4.38441e-08 -2.45113e-07 1.85031e-06
0.00180476 2.73455e-06 -2.77835e-06
2.73455e-06 9.72633e-05 -1.67516e-07
-2.77835e-06 -1.67516e-07 9.86187e-06
0.00206962 -2.80324e-05 7.86696e-07
-2.80324e-05 0.000222976 2.05206e-06
7.86696e-07 2.05206e-06 0.000124768
0.00172097 -0.000117419 -3.04822e-06
-0.000117419 -1.30037e-05 -4.26193e-06
-3.04822e-06 -4.26193e-06 -9.06078e-05
0.00128838 -0.000142142 -1.49106e-07
-0.000142142 -3.59842e-05 1.68042e-06
-1.49106e-07 1.68042e-06 -0.000151664
0.00109822 -8.64212e-05 -2.46561e-06
-8.64212e-05 0.00016839 -4.99939e-07
-2.46561e-06 -4.99939e-07 6.50288e-05
0.001756 -0.000159078 -2.01515e-06
-0.000159078 0.000442574 -2.71804e-07
-2.01515e-06 -2.71804e-07 0.000268481
0.000706214 3.47446e-05 -9.86358e-07
3.47446e-05 -5.5196e-05 -1.25233e-06
-9.86358e-07 -1.25233e-06 -0.000100633
0.000857065 -1.75934e-05 5.39905e-07
-1.75934e-05 2.21934e-05 -9.38672e-07
5.39905e-07 -9.38672e-07 -2.5364e-05
0.00106305 -3.01192e-05 4.77731e-07
-3.01192e-05 0.000145681 -2.75766e-07
4.77731e-07 -2.75766e-07 8.60063e-05
0.000783917 1.76408e-05 -6.09241e-07
1.76408e-05 -4.20459e-06 -6.2435e-07
-6.09241e-07 -6.2435e-07 -7.20006e-05
0.00107302 -4.2361e-06 1.90421e-07
-4.2361e-06 0.000146376 -1.85017e-08
1.90421e-07 -1.85017e-08 7.43169e-05
0.000695309 -1.12632e-05 1.79102e-07
-1.12632e-05 -3.87108e-05 6.98445e-07
1.79102e-07 6.98445e-07 -0.000124846
0.00117816 -7.04539e-05 4.6468e-06
-7.04539e-05 0.000232661 3.93314e-07
4.6468e-06 3.93314e-07 0.000124704
0.000833607 -9.05797e-05 -5.99436e-06
-9.05797e-05 1.99548e-05 2.76603e-06
-5.99436e-06 2.76603e-06 -6.46397e-05
0.000803235 1.52522e-05 -3.88783e-07
1.52522e-05 1.76145e-06 -3.85161e-07
-3.88783e-07 -3.85161e-07 -6.45408e-05
0.000900189 4.38547e-05 -1.43906e-06
4.38547e-05 6.2446e-05 -1.67139e-06
-1.43906e-06 -1.67139e-06 -2.20749e-05
0.00200669 5.76203e-05 1.52454e-06
5.76203e-05 0.000201328 7.16931e-07
1.52454e-06 7.16931e-07 0.000111941
0.00159418 0.000114199 -2.90601e-08
0.000114199 5.37456e-05 9.0578e-07
-2.90601e-08 9.0578e-07 -2.74234e-05
0.00110407 6.07209e-05 -1.87518e-06
6.07209e-05 0.000171998 -1.02931e-06
-1.87518e-06 -1.02931e-06 6.86424e-05
0.00109756 9.94571e-05 -1.99673e-06
9.94571e-05 0.000187174 -2.06998e-06
-1.99673e-06 -2.06998e-06 7.22693e-05
0.00230855 0.000176682 -1.78531e-06
0.000176682 0.000584669 1.94721e-06
-1.78531e-06 1.94721e-06 0.000458469
0.00105024 0.000116443 -1.66841e-06
0.000116443 0.000103506 -7.11715e-07
-1.66841e-06 -7.11715e-07 -4.82823e-05
0.000935444 1.75298e-05 7.54024e-08
1.75298e-05 7.52131e-05 -5.01381e-07
7.54024e-08 -5.01381e-07 1.61684e-06
0.0017764 2.79033e-05 -7.79265e-07
2.79033e-05 8.29273e-05 5.80902e-08
-7.79265e-07 5.80902e-08 2.99273e-06
0.000989106 6.99831e-05 1.24195e-07
6.99831e-05 0.000120173 7.76068e-07
1.24195e-07 7.76068e-07 2.14827e-05
0.000897273 9.18501e-05 3.86505e-08
9.18501e-05 6.34506e-05 -2.04823e-07
3.86505e-08 -2.04823e-07 -6.29236e-05
0.00188479 8.45462e-05 1.31863e-06
8.45462e-05 8.72857e-05 -2.31999e-07
1.31863e-06 -2.31999e-07 1.57678e-05
0.0019049 0.000166856 7.08923e-07
0.000166856 0.000224056 -4.92481e-07
7.08923e-07 -4.92481e-07 0.000114067
0.00170059 0.000152931 4.90158e-07
0.000152931 0.000401386 9.8886e-07
4.90158e-07 9.8886e-07 0.00023462
0.00102303 3.19176e-05 -3.04729e-08
3.19176e-05 0.000130678 9.17568e-07
-3.04729e-08 9.17568e-07 4.3724e-05
0.00220651 4.86347e-05 -3.62251e-06
4.86347e-05 0.000254758 -9.91521e-07
-3.62251e-06 -9.91521e-07 0.000192803
0.00155695 0.000104505 -1.27548e-06
0.000104505 0.000401946 3.51007e-07
-1.27548e-06 3.51007e-07 0.000292331
0.00183895 0.000145821 -1.93558e-06
0.000145821 0.000533594 1.12089e-06
-1.93558e-06 1.12089e-06 0.000386655
0.00196428 0.000160992 3.61938e-06
0.000160992 9.41698e-05 -1.43956e-06
3.61938e-06 -1.43956e-06 3.29172e-05
0.00110829 0.00013702 -8.98952e-07
0.00013702 -8.75564e-07 -3.00704e-07
-8.98952e-07 -3.00704e-07 -0.000155857
0.000699273 6.31839e-05 1.24691e-05
6.31839e-05 -0.000266576 1.42872e-06
1.24691e-05 1.42872e-06 -0.000353972
0.000961558 -5.46255e-06 -2.64091e-07
-5.46255e-06 8.57234e-05 -7.17054e-07
-2.64091e-07 -7.17054e-07 1.8055e-05
0.000955778 -3.59756e-07 6.47603e-08
-3.59756e-07 8.75519e-05 -6.22544e-09
6.47603e-08 -6.22544e-09 1.20403e-05
0.00097649 1.44688e-05 2.60075e-07
1.44688e-05 9.59498e-05 1.06719e-07
2.60075e-07 1.06719e-07 1.47841e-05
0.000874792 -2.8122e-05 -1.1005e-08
-2.8122e-05 2.83868e-05 -7.83313e-07
-1.1005e-08 -7.83313e-07 -1.68882e-05
0.000809477 -4.09468e-05 -4.79345e-07
-4.09468e-05 5.57429e-06 -1.19419e-07
-4.79345e-07 -1.19419e-07 -5.20068e-05
0.00100365 4.18159e-05 -8.01013e-07
4.18159e-05 0.000116867 -1.43099e-08
-8.01013e-07 -1.43099e-08 4.93682e-05
0.000927727 -1.53148e-05 2.20083e-08
-1.53148e-05 7.0756e-05 -8.93381e-07
2.20083e-08 -8.93381e-07 -2.19796e-06
0.000874711 -1.70472e-05 -1.94077e-07
-1.70472e-05 2.9028e-05 3.62908e-08
-1.94077e-07 3.62908e-08 -1.71938e-05
0.000828194 -1.80904e-06 1.60774e-07
-1.80904e-06 1.1132e-05 -5.88654e-09
1.60774e-07 -5.88654e-09 -4.48182e-05
0.000929859 -1.0702e-06 2.66582e-07
-1.0702e-06 7.24664e-05 -5.82529e-07
2.66582e-07 -5.82529e-07 -4.09034e-06
0.000955068 -1.28589e-05 -1.92647e-07
-1.28589e-05 8.48393e-05 -1.26674e-07
-1.92647e-07 -1.26674e-07 2.13718e-05
0.000934198 -2.21103e-05 1.86406e-07
-2.21103e-05 7.50647e-05 -1.72136e-08
1.86406e-07 -1.72136e-08 4.30054e-06
0.00092152 -6.30137e-06 -8.96724e-08
-6.30137e-06 6.67627e-05 2.09667e-07
-8.96724e-08 2.09667e-07 -9.00258e-06
0.000937835 3.91081e-07 4.57627e-07
3.91081e-07 7.66693e-05 -1.31408e-07
4.57627e-07 -1.31408e-07 1.0282e-05
0.000993811 6.35703e-06 5.87224e-07
6.35703e-06 0.00010006 -1.64407e-07
5.87224e-07 -1.64407e-07 3.83553e-05
0.000829586 8.69715e-06 -1.16521e-07
8.69715e-06 1.15492e-05 5.18389e-07
-1.16521e-07 5.18389e-07 -4.7789e-05
0.000753995 4.56758e-06 2.80217e-07
4.56758e-06 -3.82814e-05 1.16286e-06
2.80217e-07 1.16286e-06 -8.42744e-05
0.00102476 -4.65129e-06 2.94621e-07
-4.65129e-06 0.000122428 7.4772e-09
2.94621e-07 7.4772e-09 6.14365e-05
0.000742327 5.56566e-06 -4.05809e-07
5.56566e-06 -4.22574e-05 1.16961e-06
-4.05809e-07 1.16961e-06 -8.90777e-05
0.000837176 1.1908e-05 2.48849e-07
1.1908e-05 -3.03716e-07 1.54127e-06
2.48849e-07 1.54127e-06 -2.83251e-05
0.000835998 1.65809e-06 -2.27734e-07
1.65809e-06 -1.50035e-06 4.61478e-09
-2.27734e-07 4.61478e-09 -2.91356e-05
0.000785206 5.12692e-07 2.54533e-07
5.12692e-07 -3.94462e-05 3.05406e-06
2.54533e-07 3.05406e-06 -3.97615e-05
0.00084555 -8.53446e-06 6.10193e-08
-8.53446e-06 2.71127e-06 -1.53625e-06
6.10193e-08 -1.53625e-06 -2.42917e-05
0.00106935 -4.46213e-06 -1.114e-06
-4.46213e-06 0.00011274 -1.25632e-06
-1.114e-06 -1.25632e-06 0.000114184
0.00210844 -6.91503e-06 5.03614e-06
-6.91503e-06 0.000669914 3.97268e-06
5.03614e-06 3.97268e-06 0.00069288
0.00136493 -9.75388e-06 -2.72527e-06
-9.75388e-06 0.000272411 -4.27345e-06
-2.72527e-06 -4.27345e-06 0.0002753
0.000985394 -1.02782e-05 1.65902e-06
-1.02782e-05 7.03986e-05 2.4294e-06
1.65902e-06 2.4294e-06 8.76189e-05
0.000935094 -1.48586e-05 -1.21681e-06
-1.48586e-05 4.62327e-05 -1.551e-06
-1.21681e-06 -1.551e-06 6.33543e-05
0.000847498 7.63828e-06 2.27321e-07
7.63828e-06 2.70203e-06 -1.57605e-06
2.27321e-07 -1.57605e-06 -2.24524e-05
0.000845937 1.06987e-05 -3.64038e-08
1.06987e-05 3.0417e-06 1.20029e-08
-3.64038e-08 1.20029e-08 -2.38116e-05
0.000778991 1.42766e-05 5.58387e-07
1.42766e-05 -3.91869e-05 -3.16345e-06
5.58387e-07 -3.16345e-06 -3.94808e-05
0.00106633 2.10249e-05 -4.83848e-07
2.10249e-05 0.000118525 3.15367e-08
-4.83848e-07 3.15367e-08 0.000117852
0.00212024 2.61832e-05 1.36457e-05
2.61832e-05 0.000683901 -3.86975e-06
1.36457e-05 -3.86975e-06 0.000705209
0.000788686 2.36815e-05 -1.46785e-06
2.36815e-05 -2.50092e-05 3.29817e-06
-1.46785e-06 3.29817e-06 -2.9305e-05
0.00217119 3.31525e-05 -1.38242e-06
3.31525e-05 0.000716627 -6.29095e-08
-1.38242e-06 -6.29095e-08 0.0007363
0.00223508 3.94755e-05 -2.21765e-05
3.94755e-05 0.000757196 3.77228e-06
-2.21765e-05 3.77228e-06 0.000775024
0.00165945 3.59051e-05 -1.85841e-07
3.59051e-05 4.55436e-05 2.82626e-07
-1.85841e-07 2.82626e-07 -4.60621e-05
0.00178468 6.70988e-07 1.37185e-06
6.70988e-07 9.56665e-05 -6.45747e-07
1.37185e-06 -6.45747e-07 -3.80795e-06
0.0017956 3.37046e-06 1.0125e-06
3.37046e-06 0.000106269 2.74275e-07
1.0125e-06 2.74275e-07 -2.10232e-06
0.00180532 1.518e-06 1.45009e-07
1.518e-06 0.000102923 2.08853e-07
1.45009e-07 2.08853e-07 2.74509e-06
0.00182408 1.09707e-05 -1.31617e-07
1.09707e-05 0.000108808 3.62736e-08
-1.31617e-07 3.62736e-08 1.89297e-05
0.00177637 5.92891e-06 1.79246e-06
5.92891e-06 8.41713e-05 4.02539e-09
1.79246e-06 4.02539e-09 1.2235e-05
0.00174099 8.18465e-06 -2.3624e-06
8.18465e-06 5.66851e-05 2.40573e-07
-2.3624e-06 2.40573e-07 -2.65281e-05
0.00376713 -7.4369e-05 4.65718e-06
-7.4369e-05 0.000991867 -1.0056e-06
4.65718e-06 -1.0056e-06 0.000944974
0.00139755 7.60183e-06 -1.62284e-06
7.60183e-06 -0.000156758 1.65653e-07
-1.62284e-06 1.65653e-07 -0.000216165
0.000878784 1.85788e-05 8.72168e-08
1.85788e-05 3.27993e-05 -7.09178e-07
8.72168e-08 -7.09178e-07 -8.76704e-06
0.00177145 6.52385e-06 1.73709e-06
6.52385e-06 0.000101136 -1.49001e-07
1.73709e-06 -1.49001e-07 2.02939e-06
0.00183045 -2.36064e-05 -1.22561e-06
-2.36064e-05 0.000121603 -1.34059e-06
-1.22561e-06 -1.34059e-06 2.21512e-05
0.00166769 -7.67102e-05 1.79181e-06
-7.67102e-05 2.11173e-05 9.31277e-07
1.79181e-06 9.31277e-07 -7.92125e-05
0.000847704 -8.62303e-05 1.62981e-06
-8.62303e-05 4.92251e-05 9.43849e-07
1.62981e-06 9.43849e-07 -4.90431e-05
0.00115962 -0.000115855 6.52391e-07
-0.000115855 0.000169983 2.87594e-06
6.52391e-07 2.87594e-06 1.9363e-05
0.00118757 -0.000128512 1.46796e-06
-0.000128512 4.84082e-05 -1.2982e-06
1.46796e-06 -1.2982e-06 -9.56252e-05
0.00184575 -0.000138281 6.23409e-07
-0.000138281 0.000161886 -7.27678e-07
6.23409e-07 -7.27678e-07 6.88726e-05
0.00105374 -9.00688e-05 3.70256e-06
-9.00688e-05 0.000108752 -3.17104e-06
3.70256e-06 -3.17104e-06 1.79815e-05
0.00070317 -8.06834e-05 -2.37768e-06
-8.06834e-05 -3.4819e-05 -7.23954e-06
-2.37768e-06 -7.23954e-06 -0.000116469
0.000714168 -5.6366e-05 2.83996e-07
-5.6366e-05 -2.46584e-05 3.76896e-07
2.83996e-07 3.76896e-07 -0.000123804
0.000844594 1.3726e-05 -7.4983e-07
1.3726e-05 4.3533e-06 1.69308e-06
-7.4983e-07 1.69308e-06 -2.46174e-05
0.000943971 -5.57316e-06 -5.34861e-08
-5.57316e-06 7.69814e-05 -5.52771e-07
-5.34861e-08 -5.52771e-07 7.97985e-07
0.00110532 -3.57114e-05 -4.55233e-07
-3.57114e-05 0.000156677 4.48398e-07
-4.55233e-07 4.48398e-07 0.000105689
0.000920541 -5.24039e-06 -5.52015e-07
-5.24039e-06 6.4304e-05 1.01962e-06
-5.52015e-07 1.01962e-06 -2.00687e-06
0.000717657 3.89602e-06 1.67786e-07
3.89602e-06 -5.28641e-05 7.80509e-07
1.67786e-07 7.80509e-07 -9.77345e-05
0.00176718 2.10317e-06 -5.23471e-07
2.10317e-06 8.09192e-05 -1.69727e-07
-5.23471e-07 -1.69727e-07 -6.03991e-06
0.000791209 1.27557e-05 2.07362e-07
1.27557e-05 -1.04096e-05 -5.01399e-07
2.07362e-07 -5.01399e-07 -5.52896e-05
0.000865044 -2.51864e-05 -4.30355e-07
-2.51864e-05 2.86404e-05 2.33027e-08
-4.30355e-07 2.33027e-08 -2.0645e-05
0.000905099 -1.10088e-05 -7.22596e-07
-1.10088e-05 6.26899e-05 4.7508e-07
-7.22596e-07 4.7508e-07 1.45488e-06
0.00183644 -2.8368e-05 1.37448e-06
-2.8368e-05 9.60199e-05 -1.23724e-07
1.37448e-06 -1.23724e-07 -1.12761e-06
0.00190153 -0.000121402 -1.67655e-06
-0.000121402 9.19818e-05 1.2298e-07
-1.67655e-06 1.2298e-07 1.1785e-05
0.000898617 -8.30817e-05 -5.11271e-07
-8.30817e-05 5.39791e-05 3.14225e-07
-5.11271e-07 3.14225e-07 -4.5957e-05
0.00111984 -0.000127355 2.1723e-07
-0.000127355 0.000133546 -6.47475e-07
2.1723e-07 -6.47475e-07 -4.48698e-05
0.00148956 -0.000151605 3.69128e-07
-0.000151605 6.66666e-05 4.58737e-07
3.69128e-07 4.58737e-07 -5.06409e-05
0.000885806 8.8021e-06 -1.73529e-07
8.8021e-06 4.9991e-05 2.94104e-08
-1.73529e-07 2.94104e-08 -1.73146e-05
0.000990248 -2.07119e-05 -1.44296e-07
-2.07119e-05 0.000106026 3.59388e-08
-1.44296e-07 3.59388e-08 3.18019e-05
0.000771028 -8.85686e-05 -3.90103e-06
-8.85686e-05 -8.48073e-06 8.33595e-07
-3.90103e-06 8.33595e-07 -9.68831e-05
0.00106232 -5.28067e-05 5.01997e-07
-5.28067e-05 0.000169996 -5.12234e-07
5.01997e-07 -5.12234e-07 6.50631e-05
0.000871631 -2.61373e-05 1.70132e-07
-2.61373e-05 5.40503e-05 7.77427e-07
1.70132e-07 7.77427e-07 -3.23227e-05
0.00205945 -1.51335e-05 -2.33671e-06
-1.51335e-05 0.000196539 4.64674e-07
-2.33671e-06 4.64674e-07 0.000115028
0.00240417 -6.52856e-05 -7.48601e-07
-6.52856e-05 0.000325494 4.47122e-07
-7.48601e-07 4.47122e-07 0.000243455
0.00165785 -0.000159776 2.20394e-06
-0.000159776 -1.79116e-06 -3.16695e-06
2.20394e-06 -3.16695e-06 -9.32506e-05
0.00168644 -0.000162775 -5.26886e-06
-0.000162775 0.000322716 4.41222e-07
-5.26886e-06 4.41222e-07 0.000174121
0.00101319 -9.5742e-05 -9.28319e-07
-9.5742e-05 0.000143531 -1.32212e-06
-9.28319e-07 -1.32212e-06 1.04603e-05
0.000726386 1.05197e-05 6.46535e-08
1.05197e-05 -3.27985e-05 -6.9458e-07
6.46535e-08 -6.9458e-07 -9.29868e-05
0.000827028 3.7236e-05 -7.8639e-08
3.7236e-05 2.19916e-05 -7.80675e-07
-7.8639e-08 -7.80675e-07 -4.33263e-05
0.00107723 1.35636e-05 5.08094e-07
1.35636e-05 0.000152946 4.96898e-07
5.08094e-07 4.96898e-07 8.44992e-05
0.000902653 -4.03249e-05 1.05253e-06
-4.03249e-05 6.43281e-05 -1.25121e-07
1.05253e-06 -1.25121e-07 -1.0243e-05
0.00104096 4.9365e-06 5.85452e-07
4.9365e-06 0.000131149 7.57596e-07
5.85452e-07 7.57596e-07 5.44058e-05
0.000867444 -1.53883e-05 -5.74628e-07
-1.53883e-05 6.03237e-05 -9.81836e-07
-5.74628e-07 -9.81836e-07 -3.23617e-05
0.000786636 -6.4036e-05 6.33059e-06
-6.4036e-05 4.54925e-05 1.53163e-06
6.33059e-06 1.53163e-06 -7.92044e-05
0.00091874 3.41917e-05 -5.34277e-07
3.41917e-05 6.9554e-05 -1.6251e-06
-5.34277e-07 -1.6251e-06 -5.76649e-06
0.000850566 5.63132e-05 -2.22721e-07
5.63132e-05 4.5774e-05 -2.79441e-07
-2.22721e-07 -2.79441e-07 -5.08964e-05
0.00198027 2.66473e-05 2.52014e-06
2.66473e-05 0.000185928 3.44054e-07
2.52014e-06 3.44054e-07 0.000106572
0.00161486 8.05703e-05 1.51994e-06
8.05703e-05 -4.48649e-05 -4.43538e-07
1.51994e-06 -4.43538e-07 -0.00011662
0.00216814 0.000175836 -8.79601e-07
0.000175836 0.000348479 1.23389e-06
-8.79601e-07 1.23389e-06 0.000239668
0.000706751 8.2227e-05 6.36233e-08
8.2227e-05 -3.32629e-05 -5.97074e-07
6.36233e-08 -5.97074e-07 -0.000161427
0.00168527 0.000153737 -3.82628e-07
0.000153737 0.000400473 9.87222e-07
-3.82628e-07 9.87222e-07 0.000236116
0.00102323 2.47094e-05 -7.42879e-08
2.47094e-05 0.000130016 5.76991e-08
-7.42879e-08 5.76991e-08 4.54508e-05
0.00180304 4.44987e-05 -1.69346e-06
4.44987e-05 3.41695e-05 -4.22754e-07
-1.69346e-06 -4.22754e-07 -2.1945e-05
0.00120496 9.064e-05 -6.87367e-07
9.064e-05 0.000224165 2.19333e-07
-6.87367e-07 2.19333e-07 0.000115951
0.00134877 0.000120438 -6.86082e-07
0.000120438 0.000292926 7.34336e-07
-6.86082e-07 7.34336e-07 0.000147163
0.00185507 0.000149579 1.31118e-06
0.000149579 3.54003e-05 -7.13164e-07
1.31118e-06 -7.13164e-07 -2.52361e-05
0.00132117 0.000148313 -1.02582e-06
0.000148313 0.000113092 1.28388e-06
-1.02582e-06 1.28388e-06 -4.69903e-05
0.00180022 5.32979e-05 3.15211e-06
5.32979e-05 0.000104066 2.93762e-07
3.15211e-06 2.93762e-07 1.5595e-05
0.00106811 4.45141e-05 -4.23279e-07
4.45141e-05 0.000152253 -4.25134e-07
-4.23279e-07 -4.25134e-07 5.89852e-05
0.00229094 0.000107111 -2.86462e-06
0.000107111 0.000232261 -7.00471e-06
-2.86462e-06 -7.00471e-06 0.000230439
0.0012307 0.000108495 -2.06704e-06
0.000108495 0.000252035 -8.71289e-07
-2.06704e-06 -8.71289e-07 0.000137664
0.00107945 0.000114167 -2.94444e-06
0.000114167 0.000160378 -4.42701e-07
-2.94444e-06 -4.42701e-07 -1.47619e-05
0.000173776 0.000147409 -2.26788e-06
0.000147409 -0.000611279 -1.77422e-06
-2.26788e-06 -1.77422e-06 -0.000734431
0.00654076 -7.98485e-05 -3.66583e-05
-7.98485e-05 0.00212765 -1.00911e-05
-3.66583e-05 -1.00911e-05 0.00149353
0.0026843 -7.19379e-06 7.26687e-05
-7.19379e-06 2.35414e-06 2.86033e-06
7.26687e-05 2.86033e-06 -0.000425425
0.000919777 0.000150814 1.13846e-05
0.000150814 -0.000274362 1.46835e-05
1.13846e-05 1.46835e-05 -0.000275197
-0.00215439 -0.00028749 -1.59016e-05
-0.00028749 -0.00102378 -1.37716e-05
-1.59016e-05 -1.37716e-05 -0.000969549
0.00253402 -0.000428275 -2.41443e-05
-0.000428275 0.000182029 -4.19998e-06
-2.41443e-05 -4.19998e-06 0.00115258
0.000961652 -1.49334e-06 -2.64146e-07
-1.49334e-06 9.07254e-05 -9.38024e-07
-2.64146e-07 -9.38024e-07 1.51452e-05
0.000979743 8.29763e-06 1.76544e-07
8.29763e-06 9.87707e-05 -3.01891e-07
1.76544e-07 -3.01891e-07 1.8433e-05
0.00104641 3.56761e-05 -1.06054e-08
3.56761e-05 0.000130463 -1.44243e-07
-1.06054e-08 -1.44243e-07 4.91357e-05
0.000860648 -3.85549e-05 2.65295e-07
-3.85549e-05 2.44759e-05 -8.58693e-07
2.65295e-07 -8.58693e-07 -2.36421e-05
0.000760737 1.95495e-05 -5.20613e-07
1.95495e-05 -2.35386e-05 -4.76806e-07
-5.20613e-07 -4.76806e-07 -8.04964e-05
0.000955964 -3.52935e-05 -3.70912e-08
-3.52935e-05 8.4254e-05 -4.29674e-07
-3.70912e-08 -4.29674e-07 2.10809e-05
0.00101812 -1.33102e-05 -3.35325e-07
-1.33102e-05 0.000119343 -3.21202e-07
-3.35325e-07 -3.21202e-07 4.94875e-05
0.00090199 -5.76045e-06 3.07173e-07
-5.76045e-06 5.74942e-05 -1.3127e-06
3.07173e-07 -1.3127e-06 -1.93034e-05
0.000922286 1.7683e-05 -4.93085e-07
1.7683e-05 6.43076e-05 -3.20992e-07
-4.93085e-07 -3.20992e-07 8.37558e-07
0.000808332 2.28845e-06 8.24987e-08
2.28845e-06 -5.98957e-06 4.66003e-07
8.24987e-08 4.66003e-07 -5.32864e-05
0.000870845 9.43203e-06 -2.53279e-07
9.43203e-06 3.32986e-05 -4.22342e-08
-2.53279e-07 -4.22342e-08 -2.55258e-05
0.000924446 -5.26189e-06 -4.82118e-08
-5.26189e-06 6.87425e-05 2.14635e-07
-4.82118e-08 2.14635e-07 -6.77203e-06
0.000936687 -3.64503e-06 7.49702e-08
-3.64503e-06 7.51813e-05 -1.14044e-07
7.49702e-08 -1.14044e-07 8.76275e-06
0.000867403 1.43472e-05 5.48689e-07
1.43472e-05 3.68745e-05 -2.65677e-07
5.48689e-07 -2.65677e-07 -2.85442e-05
0.00097273 1.09441e-05 5.95969e-07
1.09441e-05 9.1891e-05 -1.34916e-08
5.95969e-07 -1.34916e-08 2.20858e-05
0.000856621 5.7694e-06 7.84114e-07
5.7694e-06 2.25953e-05 4.74784e-07
7.84114e-07 4.74784e-07 -4.03441e-05
0.000828616 1.1282e-06 8.14027e-07
1.1282e-06 6.90752e-06 2.33202e-07
8.14027e-07 2.33202e-07 -5.25703e-05
0.000723479 -3.42207e-05 -1.2843e-06
-3.42207e-05 -5.03281e-05 1.26697e-06
-1.2843e-06 1.26697e-06 -9.85438e-05
0.000945796 7.63847e-06 -2.32889e-07
7.63847e-06 7.34611e-05 3.67436e-07
-2.32889e-07 3.67436e-07 1.36626e-05
0.00101724 6.51481e-05 9.19205e-08
6.51481e-05 0.000115237 2.12896e-08
9.19205e-08 2.12896e-08 4.96037e-05
0.000873961 3.12506e-06 -4.69874e-07
3.12506e-06 4.17728e-05 3.96826e-07
-4.69874e-07 3.96826e-07 -1.77518e-05
0.000942296 9.55707e-06 4.56547e-07
9.55707e-06 7.4301e-05 -3.43562e-07
4.56547e-07 -3.43562e-07 1.53203e-05
0.000873234 -2.35221e-05 -1.21007e-06
-2.35221e-05 2.83843e-05 7.51383e-07
-1.21007e-06 7.51383e-07 -1.79635e-05
0.000751323 4.90519e-06 1.32113e-07
4.90519e-06 -3.48637e-05 3.8319e-07
1.32113e-07 3.8319e-07 -8.34057e-05
0.000841928 1.27094e-05 -8.02926e-08
1.27094e-05 2.21506e-06 1.60926e-06
-8.02926e-08 1.60926e-06 -2.58911e-05
0.000834399 4.09341e-06 -1.67249e-07
4.09341e-06 -1.9467e-06 6.72525e-10
-1.67249e-07 6.72525e-10 -2.98804e-05
0.000799692 4.8547e-06 -2.745e-07
4.8547e-06 -3.07047e-05 4.33188e-06
-2.745e-07 4.33188e-06 -3.14828e-05
0.000835014 -6.1963e-06 2.73128e-07
-6.1963e-06 -2.06577e-06 -1.50506e-06
2.73128e-07 -1.50506e-06 -2.96473e-05
0.000788131 5.54729e-07 1.50633e-07
5.54729e-07 -3.79037e-05 -4.80306e-09
1.50633e-07 -4.80306e-09 -3.82399e-05
0.00212182 -9.69195e-07 1.71136e-07
-9.69195e-07 0.000676637 4.01501e-06
1.71136e-07 4.01501e-06 0.000699519
0.000805469 -3.72952e-06 -5.52059e-07
-3.72952e-06 -2.8064e-05 -4.29679e-06
-5.52059e-07 -4.29679e-06 -2.82328e-05
0.00154748 -5.85702e-06 -2.6523e-07
-5.85702e-06 0.000369646 2.14671e-08
-2.6523e-07 2.14671e-08 0.00038974
0.000948021 -9.77553e-06 -7.34988e-07
-9.77553e-06 4.98234e-05 -1.53237e-06
-7.34988e-07 -1.53237e-06 6.73104e-05
0.000850334 3.46695e-06 -3.71108e-09
3.46695e-06 3.10673e-06 -1.63265e-06
-3.71108e-09 -1.63265e-06 -2.07699e-05
0.000846832 6.97351e-06 2.98403e-08
6.97351e-06 2.09003e-06 3.805e-09
2.98403e-08 3.805e-09 -2.30254e-05
0.000785107 9.56661e-06 3.27568e-07
9.56661e-06 -3.87625e-05 -3.1221e-06
3.27568e-07 -3.1221e-06 -3.76812e-05
0.000849376 1.00948e-05 -5.48777e-07
1.00948e-05 4.55662e-06 1.6544e-06
-5.48777e-07 1.6544e-06 -2.23003e-05
0.00105751 1.58039e-05 -2.41257e-07
1.58039e-05 0.000109534 -6.19764e-07
-2.41257e-07 -6.19764e-07 0.000110666
0.00209086 1.95692e-05 1.01188e-05
1.95692e-05 0.000664427 -3.92274e-06
1.01188e-05 -3.92274e-06 0.000686828
0.00078839 1.93839e-05 -1.06622e-06
1.93839e-05 -2.99059e-05 3.23282e-06
-1.06622e-06 3.23282e-06 -3.21806e-05
0.00215022 2.5816e-05 -5.60553e-06
2.5816e-05 0.000700969 1.10473e-06
-5.60553e-06 1.10473e-06 0.000722003
0.00218006 3.33001e-05 -1.84614e-05
3.33001e-05 0.000722103 3.85636e-06
-1.84614e-05 3.85636e-06 0.000741572
0.00175972 1.13435e-05 1.42472e-06
1.13435e-05 7.54753e-05 1.13546e-07
1.42472e-06 1.13546e-07 -1.51764e-05
0.00179576 4.04499e-06 1.80027e-06
4.04499e-06 9.81847e-05 2.2445e-07
1.80027e-06 2.2445e-07 -2.11043e-06
0.00176782 4.19544e-06 5.42176e-06
4.19544e-06 9.71731e-05 -4.6621e-07
5.42176e-06 -4.6621e-07 2.65546e-05
0.00168083 -3.22933e-05 3.61847e-06
-3.22933e-05 -5.57743e-05 1.2668e-06
3.61847e-06 1.2668e-06 -0.000112239
0.00183374 7.34745e-06 -2.55321e-07
7.34745e-06 0.000103134 2.86057e-07
-2.55321e-07 2.86057e-07 2.09297e-05
0.00178752 1.25445e-05 1.03765e-06
1.25445e-05 5.32724e-05 -5.35143e-07
1.03765e-06 -5.35143e-07 -9.64643e-06
0.00211586 1.96437e-05 -1.86157e-07
1.96437e-05 0.000202941 1.85085e-06
-1.86157e-07 1.85085e-06 0.000117147
0.00324203 -0.000141103 0.000139021
-0.000141103 0.000603868 2.16683e-05
0.000139021 2.16683e-05 0.000357969
0.00116401 -4.50959e-05 -4.25424e-06
-4.50959e-05 -0.000298042 9.54782e-07
-4.25424e-06 9.54782e-07 -0.000365071
0.000882442 2.07944e-05 -6.78475e-07
2.07944e-05 3.53584e-05 -7.54727e-07
-6.78475e-07 -7.54727e-07 -6.29715e-06
0.000876601 -1.37829e-05 6.09282e-07
-1.37829e-05 3.3812e-05 -3.61835e-08
6.09282e-07 -3.61835e-08 -9.28418e-06
0.000879524 -3.43041e-05 -2.18229e-07
-3.43041e-05 4.34423e-05 2.54776e-09
-2.18229e-07 2.54776e-09 -1.06097e-05
0.000883183 -2.79194e-05 -9.196e-07
-2.79194e-05 5.52362e-05 1.15954e-07
-9.196e-07 1.15954e-07 -2.97718e-06
0.00175783 1.43155e-06 3.04931e-06
1.43155e-06 7.87446e-05 -5.39597e-07
3.04931e-06 -5.39597e-07 -7.7246e-06
0.00170159 -2.95898e-05 1.69408e-06
-2.95898e-05 2.09896e-05 -5.35214e-07
1.69408e-06 -5.35214e-07 -7.54653e-05
0.00208381 -0.000125855 -2.51531e-06
-0.000125855 0.000195059 1.96768e-06
-2.51531e-06 1.96768e-06 0.000111588
0.000740093 -8.12374e-05 2.42475e-06
-8.12374e-05 -3.93044e-05 2.19023e-06
2.42475e-06 2.19023e-06 -0.00013492
0.000445223 -9.40003e-05 3.3619e-06
-9.40003e-05 -0.000200677 -1.1946e-06
3.3619e-06 -1.1946e-06 -0.000378906
0.00174047 -0.000163148 9.48759e-07
-0.000163148 0.000194954 -1.19043e-06
9.48759e-07 -1.19043e-06 7.72431e-05
0.000751219 -8.69233e-05 -5.67912e-06
-8.69233e-05 -1.5457e-05 4.01004e-08
-5.67912e-06 4.01004e-08 -0.000107576
0.00100468 -3.84444e-05 -7.67084e-07
-3.84444e-05 0.000137699 -6.75494e-07
-7.67084e-07 -6.75494e-07 3.53017e-05
0.00105344 -4.22377e-05 -8.68798e-07
-4.22377e-05 0.000149698 9.76529e-07
-8.68798e-07 9.76529e-07 6.30846e-05
0.000876765 -4.45032e-06 -1.02589e-06
-4.45032e-06 3.44631e-05 9.65383e-07
-1.02589e-06 9.65383e-07 -1.48379e-05
0.000906667 -3.42616e-05 -3.18609e-07
-3.42616e-05 6.57264e-05 4.63685e-08
-3.18609e-07 4.63685e-08 -1.09789e-05
0.000981969 6.87366e-06 -7.03295e-07
6.87366e-06 9.92495e-05 6.01733e-07
-7.03295e-07 6.01733e-07 3.37755e-05
0.000878152 -3.84086e-06 6.58349e-10
-3.84086e-06 3.62666e-05 2.83953e-07
6.58349e-10 2.83953e-07 -8.61344e-06
0.000742746 1.74102e-05 1.98971e-07
1.74102e-05 -2.23173e-05 9.43957e-07
1.98971e-07 9.43957e-07 -8.51925e-05
0.00177438 -1.11481e-05 -6.33514e-07
-1.11481e-05 6.24489e-05 1.00086e-06
-6.33514e-07 1.00086e-06 -1.92507e-05
0.000888523 9.46024e-06 4.66125e-07
9.46024e-06 5.13815e-05 -4.63985e-07
4.66125e-07 -4.63985e-07 -6.92398e-06
0.000848653 1.9396e-05 5.25417e-07
1.9396e-05 3.31523e-05 6.38305e-09
5.25417e-07 6.38305e-09 -3.13084e-05
0.000961105 4.20403e-05 -2.91437e-07
4.20403e-05 9.26594e-05 7.19548e-07
-2.91437e-07 7.19548e-07 2.32098e-05
0.0020156 -6.13734e-05 -3.51138e-06
-6.13734e-05 0.000121635 5.61054e-07
-3.51138e-06 5.61054e-07 3.61498e-05
0.00171854 -0.000155238 9.45591e-07
-0.000155238 3.47281e-05 -9.92616e-07
9.45591e-07 -9.92616e-07 -5.64257e-05
0.00097361 -9.88953e-05 -5.47747e-07
-9.88953e-05 0.000109595 -2.86603e-07
-5.47747e-07 -2.86603e-07 -1.86415e-05
0.00177811 -0.000166815 -5.53437e-07
-0.000166815 0.00037543 -8.88887e-07
-5.53437e-07 -8.88887e-07 0.00022137
0.000963022 -1.25561e-05 -3.82255e-07
-1.25561e-05 9.31377e-05 8.51373e-08
-3.82255e-07 8.51373e-08 2.03016e-05
0.000961804 -5.57749e-06 1.07609e-07
-5.57749e-06 9.51853e-05 6.51588e-07
1.07609e-07 6.51588e-07 1.69135e-05
0.00086513 -6.73432e-05 3.36309e-06
-6.73432e-05 8.02075e-05 -8.72674e-07
3.36309e-06 -8.72674e-07 -3.96171e-05
0.00103421 -4.0832e-05 1.86531e-07
-4.0832e-05 0.000149703 -8.45135e-07
1.86531e-07 -8.45135e-07 5.17933e-05
0.0017287 -4.64655e-06 -1.6045e-06
-4.64655e-06 -1.60182e-05 2.04952e-06
-1.6045e-06 2.04952e-06 -0.000102381
0.00212435 -0.000143317 5.57974e-06
-0.000143317 0.0001292 -4.19704e-06
5.57974e-06 -4.19704e-06 4.63529e-05
0.00181283 -0.000169963 -2.86472e-06
-0.000169963 0.00025949 -2.08633e-06
-2.86472e-06 -2.08633e-06 0.000132301
0.00112294 -0.00012446 -2.24747e-06
-0.00012446 0.000190271 2.16799e-08
-2.24747e-06 2.16799e-08 5.10235e-05
0.000858278 2.17765e-05 -8.09276e-07
2.17765e-05 4.21827e-05 4.90898e-08
-8.09276e-07 4.90898e-08 -3.16843e-05
0.000894443 -3.65055e-05 7.34637e-07
-3.65055e-05 6.35558e-05 -5.00935e-07
7.34637e-07 -5.00935e-07 -9.9547e-06
0.000949003 -2.67875e-05 4.89334e-07
-2.67875e-05 8.74717e-05 1.4176e-08
4.89334e-07 1.4176e-08 7.7934e-06
0.000892743 -9.40362e-06 -1.95216e-06
-9.40362e-06 8.70379e-05 7.07122e-07
-1.95216e-06 7.07122e-07 -3.71859e-05
0.000460942 -3.70129e-05 -2.81789e-06
-3.70129e-05 -0.000864705 -8.37266e-06
-2.81789e-06 -8.37266e-06 -0.00129885
0.00100341 1.45688e-05 7.00399e-08
1.45688e-05 0.000118939 -1.03732e-06
7.00399e-08 -1.03732e-06 3.68806e-05
0.000853313 7.42009e-05 9.49184e-07
7.42009e-05 4.60011e-05 5.23114e-07
9.49184e-07 5.23114e-07 -6.04773e-05
0.00141314 4.0677e-05 3.17001e-06
4.0677e-05 -0.000182161 9.40831e-07
3.17001e-06 9.40831e-07 -0.000232703
0.00174968 0.000137511 -1.71879e-06
0.000137511 -2.00076e-05 8.88291e-07
-1.71879e-06 8.88291e-07 -8.07886e-05
0.00151315 0.000159155 -7.71331e-07
0.000159155 0.000218389 2.81717e-06
-7.71331e-07 2.81717e-06 5.16885e-05
0.00080176 9.25556e-05 1.72729e-06
9.25556e-05 2.28808e-05 2.33652e-07
1.72729e-06 2.33652e-07 -0.000122805
0.0027553 4.64576e-05 -2.98397e-06
4.64576e-05 0.000417866 2.89158e-07
-2.98397e-06 2.89158e-07 0.000316895
0.000985654 4.21955e-05 5.23342e-07
4.21955e-05 0.000113491 -3.47041e-07
5.23342e-07 -3.47041e-07 2.06943e-05
0.00203276 0.000102935 -3.89638e-06
0.000102935 9.73946e-05 -2.31191e-06
-3.89638e-06 -2.31191e-06 0.000100996
0.00105298 9.99088e-05 5.63168e-07
9.99088e-05 0.000161614 -3.58868e-07
5.63168e-07 -3.58868e-07 4.87564e-05
0.00104897 0.000115334 -2.34009e-07
0.000115334 0.000151868 3.1423e-07
-2.34009e-07 3.1423e-07 -2.47302e-05
0.000916721 0.00017466 -2.88021e-06
0.00017466 -0.000265102 2.9347e-07
-2.88021e-06 2.9347e-07 -0.000380949
0.00198016 -0.000173459 -2.89209e-05
-0.000173459 -4.89626e-05 -1.00484e-05
-2.89209e-05 -1.00484e-05 -0.000612373
0.00329145 -7.90074e-05 6.5066e-06
-7.90074e-05 0.000214764 -1.17125e-05
6.5066e-06 -1.17125e-05 -0.000307261
0.000897503 0.000144703 5.0344e-06
0.000144703 -0.000288194 1.4082e-06
5.0344e-06 1.4082e-06 -0.000289799
-0.00163209 -0.000261571 1.71887e-05
-0.000261571 -0.000605595 3.77485e-06
1.71887e-05 3.77485e-06 -0.000783514
0.000441977 -0.000460924 1.09658e-05
-0.000460924 -0.000985752 4.77247e-07
1.09658e-05 4.77247e-07 0.000118538
0.00110047 6.65199e-05 -1.00131e-07
6.65199e-05 0.000174825 -7.71675e-07
-1.00131e-07 -7.71675e-07 8.36831e-05
0.000591399 5.91889e-05 -8.72145e-05
5.91889e-05 0.000435078 -2.05392e-05
-8.72145e-05 -2.05392e-05 0.000182696
0.00158229 -0.000266879 -3.50395e-05
-0.000266879 0.000462034 -2.15829e-05
-3.50395e-05 -2.15829e-05 0.000816041
0.00124933 0.000125926 -5.35168e-06
0.000125926 -0.000228959 -4.08301e-07
-5.35168e-06 -4.08301e-07 -0.000197997
0.001137 5.65216e-05 -2.02904e-06
5.65216e-05 0.000227264 -1.4153e-06
-2.02904e-06 -1.4153e-06 0.000102043
0.00129239 0.000136461 -6.1365e-06
0.000136461 0.000263581 -1.315e-06
-6.1365e-06 -1.315e-06 6.58028e-05
0.00149961 0.000185399 5.84113e-06
0.000185399 7.10149e-05 2.3973e-05
5.84113e-06 2.3973e-05 0.000113493
0.00645043 -0.000270772 -5.52234e-05
-0.000270772 0.00208699 -1.57655e-05
-5.52234e-05 -1.57655e-05 0.00111537
0.00151708 6.35481e-05 1.31555e-05
6.35481e-05 -0.000690938 2.11679e-05
1.31555e-05 2.11679e-05 -0.00143562
3.15387e-06 -0.000420377 -4.24704e-05
-0.000420377 -0.000312335 -1.46076e-05
-4.24704e-05 -1.46076e-05 -2.26644e-06
0.000316712 -0.000212778 -3.07736e-05
-0.000212778 -0.00163195 1.30065e-06
-3.07736e-05 1.30065e-06 -0.000940552
0.000980759 3.45083e-06 -2.5243e-07
3.45083e-06 0.000101011 -8.38124e-07
-2.5243e-07 -8.38124e-07 2.12593e-05
0.000993848 2.68334e-05 -2.71188e-07
2.68334e-05 0.000103185 1.50729e-07
-2.71188e-07 1.50729e-07 2.27744e-05
0.00117062 5.92321e-05 -1.43545e-07
5.92321e-05 0.000199477 -7.74697e-07
-1.43545e-07 -7.74697e-07 0.000122853
0.000863967 1.91844e-06 -6.72166e-08
1.91844e-06 2.79189e-05 -3.73883e-07
-6.72166e-08 -3.73883e-07 -2.13439e-05
0.00091492 6.16281e-10 -4.90474e-07
6.16281e-10 5.58688e-05 -4.51705e-07
-4.90474e-07 -4.51705e-07 -2.07149e-06
0.000865541 -1.8789e-05 -2.48339e-07
-1.8789e-05 3.14965e-05 -6.83678e-07
-2.48339e-07 -6.83678e-07 -3.07461e-05
0.000946154 -6.90452e-06 -6.33039e-08
-6.90452e-06 7.91755e-05 -3.63231e-07
-6.33039e-08 -3.63231e-07 1.26354e-05
0.000937022 -7.61508e-06 -3.21226e-08
-7.61508e-06 7.60822e-05 -6.56127e-08
-3.21226e-08 -6.56127e-08 5.92761e-07
0.000744749 -5.1084e-06 3.82514e-07
-5.1084e-06 -3.87535e-05 3.99684e-07
3.82514e-07 3.99684e-07 -8.7344e-05
0.000882674 -1.14452e-06 -1.31291e-07
-1.14452e-06 4.51235e-05 -3.10784e-07
-1.31291e-07 -3.10784e-07 -1.99043e-05
0.00095308 -1.74597e-05 -1.84214e-07
-1.74597e-05 7.51408e-05 3.43179e-07
-1.84214e-07 3.43179e-07 1.15398e-05
0.000906711 2.01255e-05 3.8724e-07
2.01255e-05 5.09458e-05 -2.10066e-07
3.8724e-07 -2.10066e-07 -9.69482e-06
0.000946904 1.27012e-05 3.52597e-08
1.27012e-05 7.83022e-05 4.55634e-08
3.52597e-08 4.55634e-08 8.00476e-06
0.000861568 -5.08187e-06 5.60973e-07
-5.08187e-06 2.4974e-05 1.51282e-07
5.60973e-07 1.51282e-07 -4.16013e-05
0.00102653 3.22506e-05 -1.19187e-07
3.22506e-05 0.000117669 -8.3926e-07
-1.19187e-07 -8.3926e-07 4.63002e-05
0.000964604 -5.26529e-05 1.34079e-07
-5.26529e-05 7.89582e-05 2.13518e-07
1.34079e-07 2.13518e-07 1.47538e-05
0.000963445 -3.65007e-05 -4.15522e-07
-3.65007e-05 8.17963e-05 9.17497e-08
-4.15522e-07 9.17497e-08 2.09117e-05
0.000959172 -3.89508e-06 -3.77684e-07
-3.89508e-06 7.9749e-05 -6.62782e-08
-3.77684e-07 -6.62782e-08 2.01498e-05
0.000948455 4.51931e-05 -2.8367e-07
4.51931e-05 7.52066e-05 -2.7709e-07
-2.8367e-07 -2.7709e-07 1.13442e-05
0.00094232 2.29352e-05 -2.03342e-08
2.29352e-05 7.16319e-05 1.46542e-08
-2.03342e-08 1.46542e-08 4.54498e-06
0.000909583 3.93755e-05 1.65163e-07
3.93755e-05 5.79088e-05 3.85051e-07
1.65163e-07 3.85051e-07 -5.87015e-06
0.00105114 5.43703e-05 -2.62096e-08
5.43703e-05 0.000126945 -5.45869e-08
-2.62096e-08 -5.45869e-08 5.97156e-05
0.000863243 1.43907e-05 6.66278e-07
1.43907e-05 4.09607e-05 1.55899e-06
6.66278e-07 1.55899e-06 -2.87964e-05
0.00087193 1.24732e-05 -1.23519e-07
1.24732e-05 3.72566e-05 4.79263e-07
-1.23519e-07 4.79263e-07 -1.99665e-05
0.000882177 3.92395e-07 -3.60529e-08
3.92395e-07 4.43117e-05 -1.41715e-08
-3.60529e-08 -1.41715e-08 -1.40749e-05
0.000868732 1.98188e-06 -8.83424e-07
1.98188e-06 2.56493e-05 7.06202e-07
-8.83424e-07 7.06202e-07 -1.97606e-05
0.000857892 1.09011e-05 3.30758e-07
1.09011e-05 2.46086e-05 -6.48324e-07
3.30758e-07 -6.48324e-07 -3.19805e-05
0.000820927 -1.33941e-05 5.71859e-08
-1.33941e-05 2.19727e-07 1.95321e-08
5.71859e-08 1.95321e-08 -4.62635e-05
0.000845069 1.32001e-05 -3.93579e-07
1.32001e-05 4.2367e-06 1.6867e-06
-3.93579e-07 1.6867e-06 -2.39903e-05
0.000763608 5.83972e-06 3.71573e-07
5.83972e-06 -2.69984e-05 -4.40868e-07
3.71573e-07 -4.40868e-07 -7.64868e-05
0.00083876 6.08875e-06 -1.49377e-07
6.08875e-06 3.17117e-07 -4.48194e-09
-1.49377e-07 -4.48194e-09 -2.76918e-05
0.00137508 1.05674e-05 -2.75731e-06
1.05674e-05 0.000278621 4.29854e-06
-2.75731e-06 4.29854e-06 0.000280487
0.000832617 -3.67791e-06 5.07594e-07
-3.67791e-06 -3.00423e-06 -1.55321e-06
5.07594e-07 -1.55321e-06 -3.08841e-05
0.00108247 5.50973e-06 -1.21192e-06
5.50973e-06 0.000120487 6.22687e-07
-1.21192e-06 6.22687e-07 0.000121219
0.000996977 2.92151e-06 -2.55075e-06
2.92151e-06 7.5007e-05 3.93105e-06
-2.55075e-06 3.93105e-06 9.19063e-05
0.000791807 5.9035e-07 -3.45236e-08
5.9035e-07 -3.59399e-05 -3.04413e-06
-3.45236e-08 -3.04413e-06 -3.63047e-05
0.00212547 -5.41502e-07 1.97856e-06
-5.41502e-07 0.000678604 3.57888e-10
1.97856e-06 3.57888e-10 0.000701445
0.00100345 -3.69812e-06 -1.72737e-06
-3.69812e-06 7.82788e-05 -3.90902e-06
-1.72737e-06 -3.90902e-06 9.55412e-05
0.000870325 3.87959e-05 3.50639e-07
3.87959e-05 3.16488e-05 -1.58984e-07
3.50639e-07 -1.58984e-07 -1.19224e-05
0.000851469 -7.19753e-07 -6.55545e-08
-7.19753e-07 3.60496e-06 -1.60359e-06
-6.55545e-08 -1.60359e-06 -1.96459e-05
0.00085137 2.81471e-06 -4.96906e-08
2.81471e-06 3.55927e-06 1.42177e-09
-4.96906e-08 1.42177e-09 -2.03034e-05
0.000793122 4.59127e-06 4.88237e-08
4.59127e-06 -3.63053e-05 -3.09088e-06
4.88237e-08 -3.09088e-06 -3.41887e-05
0.000847159 6.3547e-06 -2.62074e-07
6.3547e-06 2.00522e-06 1.5629e-06
-2.62074e-07 1.5629e-06 -2.30763e-05
0.000786204 9.72648e-06 5.22952e-08
9.72648e-06 -3.84746e-05 -6.31301e-07
5.22952e-08 -6.31301e-07 -3.7323e-05
0.00205752 1.28372e-05 6.69713e-06
1.28372e-05 0.000643989 -3.95265e-06
6.69713e-06 -3.95265e-06 0.000667279
0.00132758 1.84268e-05 -1.27298e-06
1.84268e-05 0.000254439 1.93522e-06
-1.27298e-06 1.93522e-06 0.000256755
0.001555 1.69351e-05 3.43863e-07
1.69351e-05 0.00037862 1.23326e-06
3.43863e-07 1.23326e-06 0.000397854
0.00103895 1.91394e-05 -1.41147e-05
1.91394e-05 0.000106819 6.39984e-06
-1.41147e-05 6.39984e-06 0.000121952
-0.000670114 2.02416e-05 5.05919e-06
2.02416e-05 -0.00123621 3.64914e-06
5.05919e-06 3.64914e-06 -0.00129748
0.00194889 5.97847e-06 2.60608e-06
5.97847e-06 0.000161034 -7.40521e-08
2.60608e-06 -7.40521e-08 7.98106e-05
0.00216971 1.72044e-05 -9.87048e-07
1.72044e-05 0.000260176 -2.53397e-06
-9.87048e-07 -2.53397e-06 0.000193783
0.00111267 -6.66758e-05 2.75479e-05
-6.66758e-05 -0.000265525 8.60757e-08
2.75479e-05 8.60757e-08 -0.000496722
0.00173907 -3.98349e-05 -1.67182e-06
-3.98349e-05 5.37502e-05 -6.79152e-08
-1.67182e-06 -6.79152e-08 -2.70551e-05
0.00173914 1.61778e-05 -3.71115e-06
1.61778e-05 -2.1813e-05 -1.79003e-06
-3.71115e-06 -1.79003e-06 -0.000105365
0.00198398 3.05736e-05 -1.12254e-05
3.05736e-05 0.000221158 1.61908e-06
-1.12254e-05 1.61908e-06 0.000133274
0.00159872 -7.69531e-05 0.000128157
-7.69531e-05 1.91152e-05 -1.81335e-06
0.000128157 -1.81335e-06 -0.000305691
0.00603452 9.61312e-05 -1.60741e-05
9.61312e-05 0.00180699 1.70658e-08
-1.60741e-05 1.70658e-08 0.00104723
0.00417382 0.000543254 -1.71321e-05
0.000543254 0.00181224 4.49223e-06
-1.71321e-05 4.49223e-06 0.00202458
0.00170694 0.000457365 -1.7809e-05
0.000457365 0.000137728 6.68076e-06
-1.7809e-05 6.68076e-06 0.0010087
0.000737235 -3.94487e-05 1.13367e-06
-3.94487e-05 -2.72433e-05 -6.20444e-07
1.13367e-06 -6.20444e-07 -8.3102e-05
0.000881943 -9.39374e-06 1.95516e-07
-9.39374e-06 3.58879e-05 -3.19947e-08
1.95516e-07 -3.19947e-08 -6.31107e-06
0.000875259 -4.45955e-05 -8.27759e-07
-4.45955e-05 3.53986e-05 8.33857e-07
-8.27759e-07 8.33857e-07 -9.30705e-06
0.000845949 -1.19222e-05 -3.13482e-07
-1.19222e-05 2.78432e-05 3.79592e-08
-3.13482e-07 3.79592e-08 -2.78839e-05
0.000881592 3.98554e-05 3.72529e-08
3.98554e-05 5.68895e-05 7.5533e-07
3.72529e-08 7.5533e-07 -9.29331e-06
0.000932416 4.98024e-05 1.66079e-07
4.98024e-05 7.71496e-05 7.70523e-07
1.66079e-07 7.70523e-07 1.48635e-05
0.000918821 -2.78007e-05 7.07815e-07
-2.78007e-05 6.87138e-05 -7.63017e-07
7.07815e-07 -7.63017e-07 1.24626e-05
0.000833634 -4.37e-05 -5.71035e-07
-4.37e-05 2.53066e-05 4.80394e-07
-5.71035e-07 4.80394e-07 -3.10795e-05
0.0014282 -6.50927e-06 2.30964e-06
-6.50927e-06 -0.000101988 -9.41287e-07
2.30964e-06 -9.41287e-07 -0.000183934
0.00157873 -5.74555e-05 -1.30181e-06
-5.74555e-05 -0.000109661 1.65138e-07
-1.30181e-06 1.65138e-07 -0.000197854
0.00172877 -0.000150685 -4.37028e-06
-0.000150685 4.72591e-05 2.70678e-06
-4.37028e-06 2.70678e-06 -4.34792e-05
0.00087677 -9.95453e-05 1.44423e-06
-9.95453e-05 4.75181e-05 1.0485e-06
1.44423e-06 1.0485e-06 -7.80324e-05
0.00170645 -0.000164295 1.83474e-06
-0.000164295 0.000345189 -1.52788e-07
1.83474e-06 -1.52788e-07 0.000182873
0.00092072 -6.84916e-05 3.57814e-07
-6.84916e-05 0.00010324 -1.15404e-06
3.57814e-07 -1.15404e-06 -1.18127e-05
0.00120341 -6.56506e-05 2.00514e-07
-6.56506e-05 0.000240317 -5.16695e-07
2.00514e-07 -5.16695e-07 0.000137384
0.000874499 -1.90918e-05 -7.94813e-07
-1.90918e-05 5.47986e-05 2.23917e-07
-7.94813e-07 2.23917e-07 -2.48457e-05
0.000866686 6.36765e-06 4.12059e-07
6.36765e-06 4.27589e-05 4.50599e-07
4.12059e-07 4.50599e-07 -2.10104e-05
0.0010285 4.30503e-06 -7.98579e-07
4.30503e-06 0.000124836 1.48788e-07
-7.98579e-07 1.48788e-07 5.35124e-05
0.00106227 1.43013e-06 3.74759e-07
1.43013e-06 0.000140867 -1.81513e-08
3.74759e-07 -1.81513e-08 8.48161e-05
0.000838918 6.88148e-05 1.17481e-06
6.88148e-05 2.91749e-05 1.19891e-06
1.17481e-06 1.19891e-06 -4.12564e-05
0.00158139 -2.41209e-07 -4.15251e-09
-2.41209e-07 -9.52788e-05 -3.32355e-06
-4.15251e-09 -3.32355e-06 -0.000180264
0.000872716 2.20429e-05 -3.78339e-07
2.20429e-05 5.05043e-05 3.58786e-07
-3.78339e-07 3.58786e-07 -2.20632e-05
0.000885091 -2.46836e-05 -3.05028e-07
-2.46836e-05 5.58336e-05 -3.20189e-07
-3.05028e-07 -3.20189e-07 -1.65078e-05
0.00221341 -0.000145121 -7.21978e-07
-0.000145121 0.000183427 1.61665e-06
-7.21978e-07 1.61665e-06 0.00010266
0.00110788 -0.000142587 7.45875e-07
-0.000142587 -8.64397e-05 5.00446e-07
7.45875e-07 5.00446e-07 -0.000206039
0.00118657 -0.00012853 8.82527e-07
-0.00012853 0.000218933 -9.87714e-07
8.82527e-07 -9.87714e-07 7.42178e-05
0.000974254 -2.92168e-05 1.24834e-07
-2.92168e-05 0.000101161 -1.96656e-07
1.24834e-07 -1.96656e-07 1.93145e-05
0.00102664 -2.43998e-05 5.08062e-08
-2.43998e-05 0.000157166 3.7876e-07
5.08062e-08 3.7876e-07 3.22878e-05
0.002535 -8.55741e-05 -7.90068e-06
-8.55741e-05 0.00044012 1.08246e-05
-7.90068e-06 1.08246e-05 0.000365649
0.00266281 -0.000228338 -1.60898e-06
-0.000228338 0.000509201 -5.84651e-06
-1.60898e-06 -5.84651e-06 0.000409185
0.000225585 -0.000109464 -4.27552e-06
-0.000109464 -0.00033521 -3.49829e-07
-4.27552e-06 -3.49829e-07 -0.00046384
0.00131494 -8.73178e-05 -4.09675e-06
-8.73178e-05 0.000305695 2.49301e-06
-4.09675e-06 2.49301e-06 0.000156354
0.000760637 -6.26511e-05 7.99871e-07
-6.26511e-05 -7.51698e-06 -6.97914e-08
7.99871e-07 -6.97914e-08 -8.39152e-05
0.000956554 -4.49791e-05 1.54814e-06
-4.49791e-05 9.1192e-05 6.32849e-08
1.54814e-06 6.32849e-08 1.08179e-05
0.00101224 -1.84286e-05 -1.50341e-06
-1.84286e-05 0.000122584 4.92906e-07
-1.50341e-06 4.92906e-07 2.79804e-05
-0.00282784 -1.65557e-05 -1.54759e-05
-1.65557e-05 -0.00135184 -1.50793e-06
-1.54759e-05 -1.50793e-06 -0.00117348
0.00687051 -2.72008e-05 -2.27524e-05
-2.72008e-05 0.00232232 -1.68003e-06
-2.27524e-05 -1.68003e-06 0.00176005
0.000913602 4.04116e-05 1.04608e-06
4.04116e-05 8.00165e-05 -6.60029e-07
1.04608e-06 -6.60029e-07 -1.23625e-05
0.000931823 9.36981e-05 1.82487e-06
9.36981e-05 0.000100857 -6.55594e-07
1.82487e-06 -6.55594e-07 -1.0083e-05
0.00177653 9.74665e-05 -4.00013e-06
9.74665e-05 -3.84569e-05 3.42882e-06
-4.00013e-06 3.42882e-06 -2.8156e-05
0.00177033 0.000206133 -7.11236e-07
0.000206133 0.000135423 1.51141e-06
-7.11236e-07 1.51141e-06 2.76206e-05
0.00103571 0.000116277 2.47235e-06
0.000116277 0.000151108 7.22307e-07
2.47235e-06 7.22307e-07 -2.4769e-05
0.0055168 1.75629e-05 3.35463e-05
1.75629e-05 0.00155505 -8.21861e-06
3.35463e-05 -8.21861e-06 0.000824689
0.00369555 -6.8837e-05 -6.93208e-05
-6.8837e-05 0.000387959 -1.65766e-05
-6.93208e-05 -1.65766e-05 -2.74495e-05
0.000426813 0.00011512 -4.14758e-06
0.00011512 -0.000540457 -1.55793e-05
-4.14758e-06 -1.55793e-05 -0.00052491
0.00321819 -0.000418762 2.89679e-05
-0.000418762 0.00157819 1.5709e-05
2.89679e-05 1.5709e-05 0.00158426
-0.00167357 -0.000502594 1.45343e-05
-0.000502594 -0.00215275 -1.34539e-05
1.45343e-05 -1.34539e-05 -0.000900395
0.00102492 7.89076e-05 3.15963e-09
7.89076e-05 0.000140883 -2.49529e-07
3.15963e-09 -2.49529e-07 4.76016e-05
-0.00237576 -0.000105931 1.37837e-06
-0.000105931 -0.00118117 -1.31526e-06
1.37837e-06 -1.31526e-06 -0.0010191
0.000236139 -0.000250918 -1.09925e-05
-0.000250918 -0.000126093 -2.23752e-06
-1.09925e-05 -2.23752e-06 5.59284e-05
0.00214357 0.000152422 -1.49178e-06
0.000152422 0.000207624 -1.74878e-06
-1.49178e-06 -1.74878e-06 0.000238751
0.000949711 6.55876e-05 -5.25548e-08
6.55876e-05 0.000140254 -9.29514e-07
-5.25548e-08 -9.29514e-07 1.51908e-05
0.000696951 0.00011001 7.70955e-08
0.00011001 -3.8148e-05 2.8998e-07
7.70955e-08 2.8998e-07 -0.000234657
-0.000206111 0.000111644 1.56281e-05
0.000111644 -0.000744772 7.70187e-06
1.56281e-05 7.70187e-06 -0.000681083
0.00485459 -0.000197163 2.43437e-07
-0.000197163 0.00119587 1.76453e-07
2.43437e-07 1.76453e-07 0.000163211
0.00411887 0.000130261 -2.52917e-05
0.000130261 0.000698585 -1.63364e-05
-2.52917e-05 -1.63364e-05 0.000209429
0.00372337 -0.000581751 1.23885e-05
-0.000581751 0.00129689 -2.53693e-06
1.23885e-05 -2.53693e-06 0.00142242
0.000715862 -0.000269389 8.66048e-06
-0.000269389 -0.00155891 2.43221e-05
8.66048e-06 2.43221e-05 -0.000685166
0.00113371 4.44219e-05 -2.2837e-06
4.44219e-05 0.000193435 -1.78827e-06
-2.2837e-06 -1.78827e-06 0.000109709
-0.000871673 -7.76862e-05 -4.64622e-05
-7.76862e-05 -0.000402006 -6.40634e-06
-4.64622e-05 -6.40634e-06 -0.00059204
0.00166478 -2.35551e-05 -3.33802e-05
-2.35551e-05 1.96259e-05 -3.10308e-05
-3.33802e-05 -3.10308e-05 -7.87112e-05
0.000798185 0.000121408 -9.25913e-06
0.000121408 -0.000151801 -7.54286e-06
-9.25913e-06 -7.54286e-06 -0.000180432
0.00163114 0.000111366 -9.92024e-06
0.000111366 0.000543611 -2.34621e-06
-9.92024e-06 -2.34621e-06 0.000392428
0.000881146 3.93357e-05 -9.43065e-06
3.93357e-05 0.000158354 -4.43216e-06
-9.43065e-06 -4.43216e-06 0.000100921
0.00280493 0.000355405 -9.44467e-05
0.000355405 0.000362393 1.37464e-05
-9.44467e-05 1.37464e-05 -6.19341e-05
7.60942e-05 -0.0002633 2.12725e-05
-0.0002633 -0.000702671 2.25909e-05
2.12725e-05 2.25909e-05 -0.00202395
0.00621966 -0.000574275 -5.22641e-05
-0.000574275 0.00165581 -2.97913e-06
-5.22641e-05 -2.97913e-06 0.00185725
0.000603706 -0.000122064 -7.19602e-06
-0.000122064 -0.00156397 -1.23476e-05
-7.19602e-06 -1.23476e-05 -0.00100074
0.000938183 3.28312e-05 2.21599e-07
3.28312e-05 7.7301e-05 6.89558e-07
2.21599e-07 6.89558e-07 -4.1943e-06
0.00107968 5.69396e-05 1.01349e-06
5.69396e-05 0.00015148 6.63118e-07
1.01349e-06 6.63118e-07 7.40333e-05
0.000651594 5.57597e-05 9.80385e-07
5.57597e-05 -5.56563e-05 -2.69726e-06
9.80385e-07 -2.69726e-06 -0.000129469
0.000760129 2.35822e-05 2.01551e-07
2.35822e-05 -3.06887e-05 -4.15804e-07
2.01551e-07 -4.15804e-07 -7.93178e-05
0.000976241 2.96463e-05 -5.28301e-07
2.96463e-05 9.03717e-05 -5.19367e-07
-5.28301e-07 -5.19367e-07 2.87888e-05
0.00104599 -3.27648e-05 -1.23864e-07
-3.27648e-05 0.000124568 3.5298e-08
-1.23864e-07 3.5298e-08 6.12647e-05
0.000874229 -6.37399e-06 -7.20511e-07
-6.37399e-06 4.16503e-05 -4.75619e-07
-7.20511e-07 -4.75619e-07 -2.32345e-05
0.00093792 9.41918e-06 -5.95069e-07
9.41918e-06 7.2709e-05 3.8952e-07
-5.95069e-07 3.8952e-07 2.38362e-06
0.000945506 1.49631e-05 4.02018e-07
1.49631e-05 7.29694e-05 -3.98652e-07
4.02018e-07 -3.98652e-07 1.17563e-05
0.000931521 -8.29343e-06 -4.28917e-08
-8.29343e-06 6.39229e-05 -4.14018e-08
-4.28917e-08 -4.14018e-08 -2.70278e-06
0.000947108 -3.6993e-05 1.67191e-07
-3.6993e-05 7.01965e-05 6.23251e-08
1.67191e-07 6.23251e-08 5.50027e-06
0.000969738 1.68595e-05 3.74839e-08
1.68595e-05 8.94558e-05 1.29801e-07
3.74839e-08 1.29801e-07 1.93961e-05
0.00121713 -2.45733e-05 1.0507e-06
-2.45733e-05 0.000214154 -6.58583e-07
1.0507e-06 -6.58583e-07 0.000146788
0.0009468 -1.80731e-05 2.5278e-08
-1.80731e-05 6.54134e-05 -6.26136e-08
2.5278e-08 -6.26136e-08 -1.32245e-06
0.00095481 3.59988e-06 1.90347e-07
3.59988e-06 7.76012e-05 2.29156e-07
1.90347e-07 2.29156e-07 9.48417e-06
0.000962715 -2.64654e-05 1.03671e-07
-2.64654e-05 8.36032e-05 -5.71512e-07
1.03671e-07 -5.71512e-07 2.24601e-05
0.000873017 2.15117e-05 -2.41957e-07
2.15117e-05 3.16764e-05 -6.0283e-07
-2.41957e-07 -6.0283e-07 -3.03084e-05
0.000933494 -1.12675e-06 2.6036e-07
-1.12675e-06 6.71115e-05 -1.63664e-07
2.6036e-07 -1.63664e-07 3.02104e-07
0.000896011 3.85175e-05 -7.7413e-08
3.85175e-05 5.06842e-05 -9.40849e-09
-7.7413e-08 -9.40849e-09 -1.29477e-05
0.000979598 3.72124e-05 -5.21697e-07
3.72124e-05 8.68012e-05 -4.46036e-07
-5.21697e-07 -4.46036e-07 2.09175e-05
0.00086394 3.03913e-05 6.59128e-07
3.03913e-05 3.68704e-05 9.9073e-07
6.59128e-07 9.9073e-07 -2.82959e-05
0.00098131 3.54783e-05 4.09288e-07
3.54783e-05 9.0864e-05 1.60959e-07
4.09288e-07 1.60959e-07 2.1637e-05
0.000922478 2.75091e-05 9.59841e-08
2.75091e-05 5.88581e-05 3.81183e-07
9.59841e-08 3.81183e-07 -8.73333e-06
0.000884139 2.34109e-06 9.49273e-07
2.34109e-06 5.15384e-05 5.45654e-07
9.49273e-07 5.45654e-07 -2.91717e-05
0.000801208 -5.08471e-05 -1.31344e-07
-5.08471e-05 3.37455e-05 6.83746e-07
-1.31344e-07 6.83746e-07 -6.42251e-05
0.000746692 1.98244e-06 -2.38925e-07
1.98244e-06 -1.58532e-05 6.04879e-07
-2.38925e-07 6.04879e-07 -9.21672e-05
0.000889207 1.43104e-05 1.41056e-07
1.43104e-05 5.56473e-05 3.8584e-07
1.41056e-07 3.8584e-07 -1.44823e-05
0.000882906 1.63904e-05 1.63676e-07
1.63904e-05 4.40733e-05 1.10463e-06
1.63676e-07 1.10463e-06 -1.54623e-05
0.000888701 1.04269e-05 -1.72327e-07
1.04269e-05 4.70274e-05 -6.06813e-08
-1.72327e-07 -6.06813e-08 -1.09008e-05
0.000868082 1.84227e-05 -4.57716e-07
1.84227e-05 2.72308e-05 7.58926e-07
-4.57716e-07 7.58926e-07 -1.88683e-05
0.000896413 1.21778e-05 3.34049e-07
1.21778e-05 5.00045e-05 -3.13099e-07
3.34049e-07 -3.13099e-07 -7.19308e-06
0.000877973 2.93586e-06 -6.00489e-08
2.93586e-06 3.06559e-05 7.81154e-09
-6.00489e-08 7.81154e-09 -1.49874e-05
0.000840734 1.66165e-05 -7.19549e-07
1.66165e-05 3.79307e-06 1.68949e-06
-7.19549e-07 1.68949e-06 -2.49101e-05
0.000767339 2.51128e-06 4.44227e-07
2.51128e-06 -2.96302e-05 -7.1641e-07
4.44227e-07 -7.1641e-07 -7.55687e-05
0.000842739 8.83619e-06 -7.8372e-08
8.83619e-06 2.82614e-06 -4.06291e-09
-7.8372e-08 -4.06291e-09 -2.53226e-05
0.00137044 1.59532e-05 -4.44274e-06
1.59532e-05 0.000278496 4.29991e-06
-4.44274e-06 4.29991e-06 0.000280004
0.000836863 4.23311e-07 6.35277e-07
4.23311e-07 -8.99641e-07 -1.60404e-06
6.35277e-07 -1.60404e-06 -2.88289e-05
0.00107959 1.05293e-05 -1.90638e-06
1.05293e-05 0.000120501 6.09721e-07
-1.90638e-06 6.09721e-07 0.000120985
0.000952285 9.34958e-06 -6.50274e-07
9.34958e-06 5.25368e-05 1.55482e-06
-6.50274e-07 1.55482e-06 6.93226e-05
0.000787667 5.06767e-06 2.64385e-07
5.06767e-06 -3.75639e-05 -3.06512e-06
2.64385e-07 -3.06512e-06 -3.82086e-05
0.00213339 6.0495e-06 1.82487e-06
6.0495e-06 0.000683315 1.40281e-08
1.82487e-06 1.40281e-08 0.000705981
0.00212839 -1.1127e-07 1.01491e-06
-1.1127e-07 0.00068016 -4.03179e-06
1.01491e-06 -4.03179e-06 0.000702961
0.00111221 2.47458e-05 -8.89413e-07
2.47458e-05 0.000158337 -3.40445e-07
-8.89413e-07 -3.40445e-07 0.000116325
0.000851846 -4.33339e-06 -2.09804e-07
-4.33339e-06 4.62428e-06 -1.5292e-06
-2.09804e-07 -1.5292e-06 -1.88809e-05
0.000875896 2.75449e-06 6.62595e-07
2.75449e-06 3.43773e-05 4.48705e-07
6.62595e-07 4.48705e-07 -8.85769e-06
0.000798918 -5.02733e-07 -1.00371e-07
-5.02733e-07 -3.36502e-05 -3.05281e-06
-1.00371e-07 -3.05281e-06 -3.10981e-05
0.000852871 -1.179e-06 2.96405e-08
-1.179e-06 4.28132e-06 2.13766e-09
2.96405e-08 2.13766e-09 -1.89683e-05
0.000849814 2.1952e-06 -1.82542e-07
2.1952e-06 2.61651e-06 1.59044e-06
-1.82542e-07 1.59044e-06 -2.12193e-05
0.000795941 4.78887e-06 -1.29974e-07
4.78887e-06 -3.4798e-05 9.71746e-09
-1.29974e-07 9.71746e-09 -3.27193e-05
0.00203002 6.17199e-06 2.94595e-06
6.17199e-06 0.000627804 -3.96509e-06
2.94595e-06 -3.96509e-06 0.000651682
0.00132042 1.24709e-05 -7.70824e-07
1.24709e-05 0.000247516 1.89593e-06
-7.70824e-07 1.89593e-06 0.000251329
0.00151437 1.15044e-05 1.94339e-06
1.15044e-05 0.000353563 3.08629e-08
1.94339e-06 3.08629e-08 0.00037396
0.00103136 1.41309e-05 -1.17914e-05
1.41309e-05 9.80703e-05 6.38266e-06
-1.17914e-05 6.38266e-06 0.000114627
-0.00433574 0.000121116 -1.45868e-05
0.000121116 -0.00215639 5.45392e-06
-1.45868e-05 5.45392e-06 -0.00208671
-0.00109042 0.000224118 -8.71356e-06
0.000224118 -0.000788713 1.30882e-05
-8.71356e-06 1.30882e-05 -0.000599119
0.000579748 -2.32554e-05 -9.38889e-05
-2.32554e-05 -0.000566426 -9.52525e-06
-9.38889e-05 -9.52525e-06 -0.000785332
0.00254954 -4.19246e-05 2.51964e-06
-4.19246e-05 0.000524976 -3.40868e-07
2.51964e-06 -3.40868e-07 0.000432405
0.00144344 1.31013e-05 -8.94455e-06
1.31013e-05 -0.000203174 -8.2575e-07
-8.94455e-06 -8.2575e-07 -0.000284617
0.00117558 -2.29816e-05 2.28874e-05
-2.29816e-05 -1.98089e-05 -2.38725e-06
2.28874e-05 -2.38725e-06 -0.000264006
0.00209557 3.61882e-05 5.56662e-08
3.61882e-05 0.000285677 1.657e-06
5.56662e-08 1.657e-06 0.00019871
0.00522545 0.000261426 -2.09541e-05
0.000261426 0.00134979 -5.98794e-06
-2.09541e-05 -5.98794e-06 0.000695129
-0.00325515 0.00026132 -1.06927e-05
0.00026132 -0.00137327 -2.07656e-06
-1.06927e-05 -2.07656e-06 -0.00135157
4.59885e-05 0.00048565 4.04732e-06
0.00048565 -0.00104289 -6.5216e-06
4.04732e-06 -6.5216e-06 3.0732e-05
0.00161188 -7.40275e-06 5.03398e-05
-7.40275e-06 0.0001819 -1.06393e-05
5.03398e-05 -1.06393e-05 -5.41876e-05
0.00623101 0.000423297 -8.98258e-07
0.000423297 0.00184211 -8.47993e-06
-8.98258e-07 -8.47993e-06 0.000966884
-7.85365e-05 0.00044244 -4.00245e-05
0.00044244 -0.000316907 1.29134e-05
-4.00245e-05 1.29134e-05 4.12159e-05
0.00295929 0.000260855 -4.19681e-05
0.000260855 -2.53024e-05 2.23542e-05
-4.19681e-05 2.23542e-05 0.000620868
0.000863119 3.29742e-05 -6.59218e-07
3.29742e-05 4.61394e-05 -1.19388e-07
-6.59218e-07 -1.19388e-07 -2.31634e-05
0.000798321 -1.20604e-05 1.09565e-07
-1.20604e-05 4.16954e-06 -3.47264e-07
1.09565e-07 -3.47264e-07 -5.09626e-05
0.000873549 -4.20797e-05 -8.03525e-07
-4.20797e-05 3.33612e-05 8.03444e-07
-8.03525e-07 8.03444e-07 -1.009e-05
0.000794809 6.84969e-06 1.96632e-07
6.84969e-06 2.11874e-06 2.59718e-07
1.96632e-07 2.59718e-07 -5.45168e-05
0.000892358 4.53005e-05 7.50848e-07
4.53005e-05 6.38228e-05 7.59991e-07
7.50848e-07 7.59991e-07 -1.74367e-06
0.000932109 2.97667e-05 -6.68436e-07
2.97667e-05 8.18357e-05 3.42527e-07
-6.68436e-07 3.42527e-07 1.3478e-05
0.000900295 3.47956e-05 1.12007e-06
3.47956e-05 6.49083e-05 1.00558e-06
1.12007e-06 1.00558e-06 -8.18817e-07
0.000860609 -1.74869e-05 6.43422e-07
-1.74869e-05 3.70196e-05 2.15289e-07
6.43422e-07 2.15289e-07 -2.39577e-05
0.00085619 -2.64614e-05 3.78136e-07
-2.64614e-05 3.72652e-05 -5.55191e-07
3.78136e-07 -5.55191e-07 -2.09912e-05
0.000779103 -3.81513e-05 -2.44147e-07
-3.81513e-05 -2.76641e-06 5.26048e-07
-2.44147e-07 5.26048e-07 -6.02818e-05
0.00145484 4.68378e-06 -6.0545e-07
4.68378e-06 -0.000165674 -1.10319e-06
-6.0545e-07 -1.10319e-06 -0.000249618
0.00197309 -0.000138122 -3.46905e-06
-0.000138122 7.29189e-05 4.15216e-06
-3.46905e-06 4.15216e-06 -4.66872e-06
0.000338233 -0.000111668 4.01686e-06
-0.000111668 -0.000464391 1.95756e-06
4.01686e-06 1.95756e-06 -0.00057621
0.00126926 -0.000133822 2.38577e-06
-0.000133822 0.000257105 -3.51745e-07
2.38577e-06 -3.51745e-07 0.00010879
0.00112286 -4.10918e-05 2.60654e-06
-4.10918e-05 0.000206441 -9.84631e-07
2.60654e-06 -9.84631e-07 8.16431e-05
0.00101897 -4.1459e-05 -2.42032e-07
-4.1459e-05 0.000123497 -5.34178e-07
-2.42032e-07 -5.34178e-07 4.02676e-05
0.000876008 -2.08915e-05 -9.28585e-07
-2.08915e-05 4.83197e-05 -1.66142e-07
-9.28585e-07 -1.66142e-07 -2.28654e-05
0.000890215 2.29692e-05 -5.6362e-07
2.29692e-05 6.04448e-05 1.29384e-07
-5.6362e-07 1.29384e-07 -1.08651e-05
0.00176539 -6.6854e-05 -6.03346e-06
-6.6854e-05 4.79516e-05 1.94598e-06
-6.03346e-06 1.94598e-06 -2.77138e-05
0.000809018 -2.93947e-05 -1.78321e-07
-2.93947e-05 1.70601e-05 9.58306e-08
-1.78321e-07 9.58306e-08 -5.99345e-05
0.000906857 -4.73957e-05 5.9815e-07
-4.73957e-05 6.38237e-05 -3.21827e-07
5.9815e-07 -3.21827e-07 -1.75187e-05
0.00197964 -0.000199593 1.09607e-06
-0.000199593 0.000184178 -9.75174e-07
1.09607e-06 -9.75174e-07 8.54211e-05
0.000483349 -0.000115885 1.37343e-06
-0.000115885 -0.000186373 1.6481e-06
1.37343e-06 1.6481e-06 -0.00031388
0.00117656 -8.28549e-05 1.58445e-06
-8.28549e-05 0.00022444 -4.47622e-07
1.58445e-06 -4.47622e-07 8.19031e-05
0.00104721 -3.2024e-05 -6.94016e-07
-3.2024e-05 0.000142076 -3.55459e-07
-6.94016e-07 -3.55459e-07 4.30204e-05
0.00275785 -0.000198482 1.28282e-08
-0.000198482 0.000680815 -2.16623e-06
1.28282e-08 -2.16623e-06 0.000600259
0.00212073 -0.000210704 -7.7359e-06
-0.000210704 0.000521335 -6.81935e-07
-7.7359e-06 -6.81935e-07 0.000404605
0.000878484 -1.01399e-05 -4.21659e-06
-1.01399e-05 8.97499e-05 4.02942e-06
-4.21659e-06 4.02942e-06 -4.20439e-05
0.000883711 2.70931e-05 4.45307e-07
2.70931e-05 5.65995e-05 1.04825e-06
4.45307e-07 1.04825e-06 -2.08917e-05
0.000865133 -7.82772e-05 1.21214e-06
-7.82772e-05 4.18647e-05 1.16744e-07
1.21214e-06 1.16744e-07 -4.3395e-05
0.00101749 -3.77478e-05 2.48319e-07
-3.77478e-05 0.000107563 1.55108e-06
2.48319e-07 1.55108e-06 2.15193e-05
0.00111547 1.88879e-06 -4.65574e-05
1.88879e-06 0.000780578 1.11819e-06
-4.65574e-05 1.11819e-06 0.00069306
0.00130475 -1.12826e-05 1.31591e-05
-1.12826e-05 0.000662711 2.44756e-06
1.31591e-05 2.44756e-06 0.000620369
0.000206659 0.000160137 -4.46166e-05
0.000160137 -0.00102343 1.6751e-05
-4.46166e-05 1.6751e-05 -0.00156576
0.000967451 7.76142e-05 6.59779e-07
7.76142e-05 0.000113184 6.13204e-07
6.59779e-07 6.13204e-07 1.97077e-05
0.000776163 7.43753e-05 3.0181e-06
7.43753e-05 5.90275e-05 2.49404e-07
3.0181e-06 2.49404e-07 -6.63907e-05
0.00314829 0.000181075 1.93972e-06
0.000181075 0.000708343 -1.34489e-06
1.93972e-06 -1.34489e-06 0.000727497
0.000144363 8.48847e-05 5.19699e-06
8.48847e-05 -0.000315949 9.92371e-07
5.19699e-06 9.92371e-07 -0.000514116
0.00312778 -0.000274079 4.78424e-05
-0.000274079 0.00133217 9.2548e-06
4.78424e-05 9.2548e-06 0.00150104
0.00101848 -0.000274113 7.26478e-06
-0.000274113 -0.000593153 1.77413e-05
7.26478e-06 1.77413e-05 -0.00137865
0.00469108 0.00017119 -7.69938e-05
0.00017119 0.000765304 -5.52722e-05
-7.69938e-05 -5.52722e-05 0.000128956
-0.00130894 8.5237e-05 6.06765e-06
8.5237e-05 -0.00123753 5.70114e-07
6.06765e-06 5.70114e-07 -0.00119407
-0.00225336 -0.000343112 5.36682e-05
-0.000343112 -0.00130813 2.44482e-05
5.36682e-05 2.44482e-05 -0.00122532
0.00153403 -0.000250124 3.46939e-05
-0.000250124 0.000509405 1.72437e-05
3.46939e-05 1.72437e-05 0.000679596
0.00338022 -0.000328231 4.124e-05
-0.000328231 3.34888e-05 2.40757e-05
4.124e-05 2.40757e-05 0.001008
0.000996441 5.55464e-05 2.48978e-07
5.55464e-05 0.000127064 -2.25029e-07
2.48978e-07 -2.25029e-07 4.19472e-05
7.64003e-05 -9.89749e-05 -1.62456e-05
-9.89749e-05 5.73982e-05 -3.17735e-06
-1.62456e-05 -3.17735e-06 -3.1041e-06
0.00192166 -2.26382e-05 -3.06629e-06
-2.26382e-05 0.000161509 -8.75481e-06
-3.06629e-06 -8.75481e-06 6.55024e-05
0.00127728 0.000109231 -3.16903e-06
0.000109231 0.000126081 -3.28715e-07
-3.16903e-06 -3.28715e-07 5.04978e-05
0.000813781 6.04443e-05 -1.55777e-06
6.04443e-05 0.000141041 -5.5525e-07
-1.55777e-06 -5.5525e-07 -1.71603e-05
0.000374534 5.84673e-05 9.79548e-06
5.84673e-05 -9.36794e-05 -1.13622e-05
9.79548e-06 -1.13622e-05 -0.000131944
0.00557119 0.000486307 -3.37519e-05
0.000486307 0.00155657 -1.35943e-05
-3.37519e-05 -1.35943e-05 0.0009199
0.0077768 -0.00037188 4.6953e-06
-0.00037188 0.00255101 4.26638e-06
4.6953e-06 4.26638e-06 0.00144555
0.000342853 -0.00032678 5.634e-06
-0.00032678 -0.00105636 7.62155e-06
5.634e-06 7.62155e-06 -0.000846694
0.00332919 -0.000165928 2.23042e-06
-0.000165928 0.000168076 1.21235e-06
2.23042e-06 1.21235e-06 0.000766428
0.00140282 0.00010289 -4.41466e-06
0.00010289 0.000368874 -5.75998e-06
-4.41466e-06 -5.75998e-06 0.000298639
0.00185571 -2.38865e-06 -2.21013e-05
-2.38865e-06 0.000295999 -4.88861e-06
-2.21013e-05 -4.88861e-06 0.000177024
0.00138741 -6.31178e-06 -5.77191e-06
-6.31178e-06 1.58155e-05 -1.4789e-05
-5.77191e-06 -1.4789e-05 -4.44755e-05
-4.33573e-05 -3.20514e-05 -1.39993e-05
-3.20514e-05 -0.000184101 -1.01008e-05
-1.39993e-05 -1.01008e-05 -0.000298586
0.00311887 0.000269334 -1.09861e-05
0.000269334 0.00112509 4.84908e-05
-1.09861e-05 4.84908e-05 0.000741614
0.00836266 -0.000229599 1.58232e-05
-0.000229599 0.00251097 -8.79948e-06
1.58232e-05 -8.79948e-06 0.00117492
-0.00215553 -0.000177864 -4.42467e-05
-0.000177864 -0.00235138 -3.25592e-05
-4.42467e-05 -3.25592e-05 -0.00247061
0.0039107 3.07782e-05 -5.08498e-07
3.07782e-05 0.000517048 -1.96441e-05
-5.08498e-07 -1.96441e-05 0.00109551
0.000932937 5.55431e-05 9.16338e-08
5.55431e-05 7.479e-05 9.55831e-07
9.16338e-08 9.55831e-07 -3.4677e-06
0.000931727 6.83307e-05 -3.05383e-07
6.83307e-05 8.57836e-05 -7.30467e-07
-3.05383e-07 -7.30467e-07 1.3135e-05
0.000583618 4.1265e-05 1.25612e-06
4.1265e-05 -8.87925e-05 -2.19773e-06
1.25612e-06 -2.19773e-06 -0.000150075
0.000943523 5.01528e-05 -9.18185e-07
5.01528e-05 6.95817e-05 -9.17322e-07
-9.18185e-07 -9.17322e-07 9.81214e-06
0.000934327 -2.37693e-05 8.97176e-08
-2.37693e-05 6.52884e-05 -1.88882e-08
8.97176e-08 -1.88882e-08 -9.17189e-07
0.0010001 -1.1071e-05 -7.89156e-07
-1.1071e-05 0.000101791 1.67533e-07
-7.89156e-07 1.67533e-07 3.52447e-05
0.000892132 2.05088e-06 -4.95075e-07
2.05088e-06 5.04771e-05 5.60279e-07
-4.95075e-07 5.60279e-07 -1.85609e-05
0.000960435 8.55841e-06 3.42317e-07
8.55841e-06 7.69323e-05 1.0725e-09
3.42317e-07 1.0725e-09 1.13365e-05
0.00094396 -1.05957e-05 -1.93397e-07
-1.05957e-05 6.45086e-05 1.2442e-07
-1.93397e-07 1.2442e-07 -2.24033e-06
0.000990945 -1.68162e-05 2.93653e-07
-1.68162e-05 9.85076e-05 4.21023e-07
2.93653e-07 4.21023e-07 3.03915e-05
0.00115998 -3.61898e-05 1.73462e-07
-3.61898e-05 0.000193257 7.3048e-07
1.73462e-07 7.3048e-07 0.000135666
0.00100545 -4.21465e-05 1.48485e-06
-4.21465e-05 8.52184e-05 -2.27962e-07
1.48485e-06 -2.27962e-07 2.25997e-05
0.00088781 3.42834e-05 1.05282e-06
3.42834e-05 4.0143e-05 3.81705e-07
1.05282e-06 3.81705e-07 -2.88308e-05
0.000933247 -1.74998e-05 7.97179e-07
-1.74998e-05 6.56022e-05 -3.40905e-07
7.97179e-07 -3.40905e-07 -2.87421e-08
0.000880127 3.90597e-05 -2.34237e-07
3.90597e-05 4.25539e-05 -4.816e-07
-2.34237e-07 -4.816e-07 -2.11332e-05
0.000924666 2.93877e-05 -6.97488e-07
2.93877e-05 5.59008e-05 -6.55253e-07
-6.97488e-07 -6.55253e-07 -9.06751e-06
0.000967799 3.43047e-05 -2.21792e-07
3.43047e-05 8.21384e-05 -1.63361e-07
-2.21792e-07 -1.63361e-07 1.4191e-05
0.000881191 3.34566e-05 2.69687e-07
3.34566e-05 4.76688e-05 3.53652e-07
2.69687e-07 3.53652e-07 -1.82969e-05
0.00091688 3.64223e-05 5.18044e-08
3.64223e-05 5.59909e-05 -1.8174e-07
5.18044e-08 -1.8174e-07 -1.17212e-05
0.000874298 1.78123e-05 1.16441e-06
1.78123e-05 4.15588e-05 1.13823e-06
1.16441e-06 1.13823e-06 -3.03551e-05
0.000941669 2.42956e-05 2.79285e-07
2.42956e-05 6.14659e-05 6.25844e-07
2.79285e-07 6.25844e-07 -5.38851e-06
0.000895445 -4.53586e-05 1.5593e-07
-4.53586e-05 6.99378e-05 5.63689e-07
1.5593e-07 5.63689e-07 -1.66533e-05
0.000973317 -5.3037e-06 -2.81474e-07
-5.3037e-06 9.82414e-05 -4.97698e-08
-2.81474e-07 -4.97698e-08 1.75584e-05
0.000788124 -4.05053e-05 8.62095e-09
-4.05053e-05 2.49987e-05 2.47494e-06
8.62095e-09 2.47494e-06 -6.91591e-05
0.00102225 -9.4205e-05 -1.8215e-06
-9.4205e-05 0.000135015 3.37416e-06
-1.8215e-06 3.37416e-06 2.32818e-05
0.00107107 -3.26925e-05 4.88603e-07
-3.26925e-05 0.0001577 -1.63493e-07
4.88603e-07 -1.63493e-07 7.3605e-05
0.000805694 -5.38124e-05 3.63373e-07
-5.38124e-05 3.74963e-05 -1.88853e-06
3.63373e-07 -1.88853e-06 -5.8223e-05
0.000907489 1.27912e-06 -2.21532e-07
1.27912e-06 6.8366e-05 -5.81555e-07
-2.21532e-07 -5.81555e-07 -6.70675e-06
0.000768644 8.86111e-06 3.13701e-07
8.86111e-06 -1.49457e-05 1.14842e-06
3.13701e-07 1.14842e-06 -8.00826e-05
0.000912632 1.39713e-05 -2.81943e-07
1.39713e-05 6.90324e-05 -7.03911e-07
-2.81943e-07 -7.03911e-07 -1.45255e-06
0.000895554 7.0163e-06 2.7782e-11
7.0163e-06 5.10115e-05 3.50066e-07
2.7782e-11 3.50066e-07 -8.7674e-06
0.000863136 2.02285e-05 -5.32893e-07
2.02285e-05 2.60555e-05 9.19766e-07
-5.32893e-07 9.19766e-07 -2.14055e-05
0.000898884 -6.05261e-06 1.78197e-07
-6.05261e-06 5.4121e-05 -5.91066e-07
1.78197e-07 -5.91066e-07 -5.0266e-06
0.000870441 3.04349e-06 -2.87587e-07
3.04349e-06 2.86386e-05 9.21822e-09
-2.87587e-07 9.21822e-09 -1.77023e-05
0.00083538 1.9839e-05 -9.24486e-07
1.9839e-05 4.28456e-06 1.71733e-06
-9.24486e-07 1.71733e-06 -2.53244e-05
0.000888556 -5.65037e-06 9.58346e-07
-5.65037e-06 3.63852e-05 -7.41834e-07
9.58346e-07 -7.41834e-07 -9.50434e-06
0.000842456 1.21678e-05 -1.45562e-07
1.21678e-05 4.31795e-06 1.21117e-09
-1.45562e-07 1.21117e-09 -2.42583e-05
0.00136448 2.1342e-05 -6.1108e-06
2.1342e-05 0.000278854 4.29344e-06
-6.1108e-06 4.29344e-06 0.00027971
0.000839479 3.67292e-06 9.46085e-07
3.67292e-06 8.80928e-07 -1.64601e-06
9.46085e-07 -1.64601e-06 -2.71632e-05
0.00107542 1.55688e-05 -2.55171e-06
1.55688e-05 0.000120878 5.84794e-07
-2.55171e-06 5.84794e-07 0.000120949
0.000947359 1.44428e-05 -1.17988e-06
1.44428e-05 5.3252e-05 1.56872e-06
-1.17988e-06 1.56872e-06 6.9459e-05
0.000784651 9.69369e-06 5.02472e-07
9.69369e-06 -3.76623e-05 -3.10354e-06
5.02472e-07 -3.10354e-06 -3.85513e-05
0.00154251 1.17211e-05 3.92743e-06
1.17211e-05 0.000368447 -1.19513e-06
3.92743e-06 -1.19513e-06 0.000388041
0.00213232 6.7782e-06 4.58879e-06
6.7782e-06 0.000683018 -3.9987e-06
4.58879e-06 -3.9987e-06 0.000705648
0.000929923 -2.55323e-05 7.16361e-07
-2.55323e-05 6.2183e-05 -3.52606e-07
7.16361e-07 -3.52606e-07 1.73139e-05
0.000848963 -8.03783e-06 -2.62148e-07
-8.03783e-06 5.03558e-06 -1.44499e-06
-2.62148e-07 -1.44499e-06 -1.95437e-05
0.00091681 -7.53951e-06 4.40759e-07
-7.53951e-06 5.54312e-05 1.52177e-07
4.40759e-07 1.52177e-07 1.23872e-05
0.000802744 -5.45634e-06 -3.44095e-07
-5.45634e-06 -3.07033e-05 -3.01897e-06
-3.44095e-07 -3.01897e-06 -2.84536e-05
0.000853017 -4.88512e-06 -2.84086e-08
-4.88512e-06 5.22446e-06 -4.0986e-09
-2.84086e-08 -4.0986e-09 -1.82829e-05
0.000886058 -2.72489e-05 -9.09999e-07
-2.72489e-05 3.76528e-05 1.03858e-06
-9.09999e-07 1.03858e-06 -4.02851e-06
0.00201687 -4.7427e-07 -7.16539e-07
-4.7427e-07 0.000620527 -3.96344e-06
-7.16539e-07 -3.96344e-06 0.000644595
0.000797734 -2.6602e-07 -7.63199e-08
-2.6602e-07 -3.43394e-05 1.7166e-09
-7.63199e-08 1.7166e-09 -3.17827e-05
0.000853617 -1.67614e-06 3.9603e-08
-1.67614e-06 4.59165e-06 1.58226e-06
3.9603e-08 1.58226e-06 -1.86483e-05
0.000799681 4.98823e-06 -2.22493e-07
4.98823e-06 -3.27916e-05 3.08656e-06
-2.22493e-07 3.08656e-06 -3.07574e-05
0.00203299 6.54173e-06 -1.94073e-06
6.54173e-06 0.000629572 -1.43515e-08
-1.94073e-06 -1.43515e-08 0.00065338
0.00206283 1.28749e-05 -8.79005e-06
1.28749e-05 0.000647002 3.93943e-06
-8.79005e-06 3.93943e-06 0.000670244
-0.00107176 8.25183e-05 -2.48899e-05
8.25183e-05 -0.00045354 1.44954e-06
-2.48899e-05 1.44954e-06 -0.00061138
-0.00108566 0.000234619 8.70376e-06
0.000234619 -0.000407258 2.03093e-06
8.70376e-06 2.03093e-06 -0.000422373
0.00177444 4.71477e-05 -4.41681e-05
4.71477e-05 1.14544e-05 2.36166e-05
-4.41681e-05 2.36166e-05 -3.65663e-05
-0.00123637 0.000256847 2.86484e-05
0.000256847 -0.000826873 -1.0072e-05
2.86484e-05 -1.0072e-05 -0.000603693
0.00197117 3.62166e-05 -7.96792e-05
3.62166e-05 0.000238475 6.58405e-07
-7.96792e-05 6.58405e-07 -7.24483e-05
0.001832 3.36506e-05 2.70538e-05
3.36506e-05 0.000163677 -4.10621e-06
2.70538e-05 -4.10621e-06 7.91091e-05
0.001234 -9.29505e-05 -4.92775e-05
-9.29505e-05 -0.000418179 -5.44063e-06
-4.92775e-05 -5.44063e-06 -0.000970474
0.00532621 0.000418676 7.95554e-05
0.000418676 0.0025753 -2.55191e-05
7.95554e-05 -2.55191e-05 0.002678
-0.00153225 0.000517821 1.54795e-05
0.000517821 -0.0021818 1.63459e-05
1.54795e-05 1.63459e-05 -0.000901581
0.00128569 6.44729e-05 -2.71783e-06
6.44729e-05 -0.000105089 2.64673e-06
-2.71783e-06 2.64673e-06 -0.00031894
0.00253063 0.000286032 9.48028e-06
0.000286032 0.000166226 -1.56035e-05
9.48028e-06 -1.56035e-05 -0.000937526
0.00405658 0.000627756 -5.24486e-06
0.000627756 0.00112639 -5.12536e-06
-5.24486e-06 -5.12536e-06 0.00145737
0.00205303 0.000264944 -2.90127e-06
0.000264944 -0.00058702 4.37991e-06
-2.90127e-06 4.37991e-06 4.77474e-05
0.00167854 5.70982e-06 -1.60972e-05
5.70982e-06 -0.000271279 -1.23307e-06
-1.60972e-05 -1.23307e-06 -0.000465474
0.00316019 0.000402776 5.70506e-05
0.000402776 0.000603934 -3.78989e-05
5.70506e-05 -3.78989e-05 -0.00060245
-0.00354159 0.000246318 -8.00841e-05
0.000246318 -0.00295003 2.36665e-05
-8.00841e-05 2.36665e-05 -0.00278031
0.00107846 0.000141638 -1.11104e-05
0.000141638 -0.00133646 1.67614e-05
-1.11104e-05 1.67614e-05 -0.00079348
0.000981574 -1.48549e-05 1.09413e-06
-1.48549e-05 0.000109227 3.31276e-07
1.09413e-06 3.31276e-07 3.28017e-05
0.000921641 3.12309e-05 -1.25089e-06
3.12309e-05 7.67615e-05 -3.60024e-07
-1.25089e-06 -3.60024e-07 8.60656e-06
0.000873565 3.79904e-06 7.58227e-07
3.79904e-06 4.38948e-05 -1.93366e-07
7.58227e-07 -1.93366e-07 -1.11704e-05
0.000921259 5.05535e-05 1.77365e-06
5.05535e-05 8.01623e-05 7.6402e-07
1.77365e-06 7.6402e-07 1.51566e-05
0.000845809 1.11511e-05 -1.89736e-07
1.11511e-05 3.62445e-05 6.46475e-07
-1.89736e-07 6.46475e-07 -3.93317e-05
0.000965279 2.98265e-05 1.63525e-07
2.98265e-05 0.000100201 5.3059e-07
1.63525e-07 5.3059e-07 3.19413e-05
0.000869553 -5.22123e-06 -3.03629e-07
-5.22123e-06 4.58471e-05 1.07979e-06
-3.03629e-07 1.07979e-06 -1.81487e-05
0.000979084 5.4456e-05 -7.37896e-07
5.4456e-05 0.000104662 2.19378e-07
-7.37896e-07 2.19378e-07 3.7629e-05
0.000961381 2.07168e-05 -3.51772e-07
2.07168e-05 9.50045e-05 3.44574e-07
-3.51772e-07 3.44574e-07 3.14313e-05
0.000800056 -2.25356e-05 -8.42444e-07
-2.25356e-05 8.7451e-06 -3.31494e-07
-8.42444e-07 -3.31494e-07 -5.12999e-05
0.0011384 -5.5245e-05 5.41801e-06
-5.5245e-05 -0.000267041 -6.22936e-07
5.41801e-06 -6.22936e-07 -0.000346398
0.00165846 -0.000180326 7.56002e-07
-0.000180326 4.2384e-05 4.12731e-06
7.56002e-07 4.12731e-06 -5.53065e-05
0.000763509 -0.000123999 9.42233e-06
-0.000123999 -2.70371e-05 4.45769e-07
9.42233e-06 4.45769e-07 -0.000153689
0.00100977 -7.50548e-05 4.65882e-06
-7.50548e-05 0.00013046 -1.51462e-06
4.65882e-06 -1.51462e-06 -7.91185e-06
0.00107112 -2.18822e-05 4.37595e-07
-2.18822e-05 0.000158014 -1.10249e-06
4.37595e-07 -1.10249e-06 5.37073e-05
0.000833562 -4.91479e-05 -6.13151e-07
-4.91479e-05 2.67206e-05 -5.88398e-07
-6.13151e-07 -5.88398e-07 -5.70382e-05
0.000864593 3.84118e-05 -8.48928e-08
3.84118e-05 4.54981e-05 -1.77568e-07
-8.48928e-08 -1.77568e-07 -3.21964e-05
0.000918082 -2.22803e-05 -1.1389e-09
-2.22803e-05 7.61901e-05 5.65599e-07
-1.1389e-09 5.65599e-07 -2.59094e-06
0.0016686 -0.000161029 -1.31631e-07
-0.000161029 0.0001424 -2.82323e-07
-1.31631e-07 -2.82323e-07 7.61966e-05
0.000973904 -2.1168e-06 -2.07018e-07
-2.1168e-06 9.93905e-05 -3.86032e-07
-2.07018e-07 -3.86032e-07 1.49385e-05
0.00106401 -3.64601e-05 -4.12421e-07
-3.64601e-05 0.000134224 -9.62841e-08
-4.12421e-07 -9.62841e-08 4.59713e-05
0.00155693 -0.000182358 -5.07299e-08
-0.000182358 0.000252763 -1.63627e-06
-5.07299e-08 -1.63627e-06 0.000130214
0.00108984 -2.76841e-05 -1.12879e-06
-2.76841e-05 0.000182658 9.58931e-07
-1.12879e-06 9.58931e-07 5.38054e-05
-0.000130116 -0.000191131 -8.76235e-07
-0.000191131 -0.000803406 -7.97325e-06
-8.76235e-07 -7.97325e-06 -0.000721452
0.00182 -7.57647e-05 -3.91029e-06
-7.57647e-05 0.000577633 9.44419e-06
-3.91029e-06 9.44419e-06 0.000415427
0.000562777 1.96293e-05 -2.07711e-06
1.96293e-05 -0.000127492 5.17395e-06
-2.07711e-06 5.17395e-06 -0.000214883
0.000924236 8.18876e-06 3.71564e-07
8.18876e-06 6.46283e-05 8.10193e-07
3.71564e-07 8.10193e-07 -1.42579e-05
0.000906319 2.13105e-05 -5.33265e-07
2.13105e-05 5.12405e-05 1.09131e-06
-5.33265e-07 1.09131e-06 -3.81311e-05
0.00161003 -2.67631e-06 -7.60526e-06
-2.67631e-06 0.000195657 5.27356e-07
-7.60526e-06 5.27356e-07 8.48362e-05
2.58114e-05 -2.59923e-06 -5.3266e-06
-2.59923e-06 0.000202727 -9.92933e-07
-5.3266e-06 -9.92933e-07 6.16902e-05
-0.00488656 -4.88415e-05 8.71028e-06
-4.88415e-05 -0.00255113 4.49228e-06
8.71028e-06 4.49228e-06 -0.00244192
0.000903616 6.89105e-05 1.84396e-06
6.89105e-05 8.46619e-05 1.19095e-06
1.84396e-06 1.19095e-06 -2.18741e-06
0.000144103 1.96805e-05 3.59552e-06
1.96805e-05 -0.000187269 1.02113e-06
3.59552e-06 1.02113e-06 -0.000350908
0.0013444 8.38398e-05 7.90778e-06
8.38398e-05 0.000177626 -1.58232e-06
7.90778e-06 -1.58232e-06 8.20476e-05
-0.00128693 -5.1614e-05 1.69493e-05
-5.1614e-05 -0.000630835 2.45185e-06
1.69493e-05 2.45185e-06 -0.000800883
0.00296545 -0.000394468 1.21139e-05
-0.000394468 0.000490721 5.34108e-06
1.21139e-05 5.34108e-06 -0.000815492
0.00532754 0.000448197 8.52475e-05
0.000448197 0.00146509 -3.16478e-05
8.52475e-05 -3.16478e-05 0.000996196
-9.1719e-05 5.38968e-05 -1.30412e-05
5.38968e-05 -0.00034835 1.10266e-05
-1.30412e-05 1.10266e-05 -0.000343569
0.00519325 -0.000532954 4.34181e-05
-0.000532954 0.00141511 4.06216e-05
4.34181e-05 4.06216e-05 0.00149866
0.00202713 -2.11684e-05 2.56791e-05
-2.11684e-05 0.000202652 1.26528e-05
2.56791e-05 1.26528e-05 0.000108458
0.00296993 -0.000145552 1.57023e-05
-0.000145552 6.21378e-05 1.28875e-05
1.57023e-05 1.28875e-05 0.000646147
0.00116375 9.2928e-05 8.32445e-07
9.2928e-05 0.00025003 -7.50719e-07
8.32445e-07 -7.50719e-07 0.000180035
0.00155902 -8.55889e-07 3.64481e-07
-8.55889e-07 0.000147186 -3.18382e-06
3.64481e-07 -3.18382e-06 4.54036e-05
0.00150396 -7.48657e-06 -2.47161e-06
-7.48657e-06 6.96769e-05 -1.74399e-06
-2.47161e-06 -1.74399e-06 1.26255e-05
-1.37726e-05 1.53365e-05 1.66833e-06
1.53365e-05 -0.000166484 3.71446e-07
1.66833e-06 3.71446e-07 -0.000282926
0.00309387 0.000328683 -2.564e-05
0.000328683 0.000822985 -2.31464e-05
-2.564e-05 -2.31464e-05 0.000514037
0.00449457 8.82976e-05 3.49792e-05
8.82976e-05 0.00081367 9.48331e-06
3.49792e-05 9.48331e-06 -0.000674116
0.00237826 1.59347e-05 1.20727e-06
1.59347e-05 -0.000476555 -7.29168e-06
1.20727e-06 -7.29168e-06 0.000126403
0.000970895 -0.000215548 -8.59962e-06
-0.000215548 -0.000657452 2.00898e-05
-8.59962e-06 2.00898e-05 -0.000728923
0.00111793 4.44925e-05 -2.40206e-06
4.44925e-05 0.000295379 -9.25632e-06
-2.40206e-06 -9.25632e-06 0.000256069
0.000905581 3.65652e-06 3.64252e-06
3.65652e-06 4.17794e-05 4.69883e-06
3.64252e-06 4.69883e-06 -1.55893e-05
0.00159938 2.1015e-06 -3.76859e-06
2.1015e-06 0.000186628 -7.89563e-06
-3.76859e-06 -7.89563e-06 0.000108086
0.00110504 0.000130215 1.05492e-05
0.000130215 -0.00123057 -1.76977e-05
1.05492e-05 -1.76977e-05 -0.000754751
-0.00125893 6.87661e-05 9.32237e-06
6.87661e-05 -0.000640728 -6.05395e-06
9.32237e-06 -6.05395e-06 -0.000858645
0.00740419 -1.05718e-05 4.62929e-05
-1.05718e-05 0.00214391 1.09987e-05
4.62929e-05 1.09987e-05 0.000917038
-0.00095257 -3.02875e-05 1.3214e-05
-3.02875e-05 -0.000965197 -5.46416e-05
1.3214e-05 -5.46416e-05 -0.00098268
0.00121687 8.83286e-05 1.94399e-06
8.83286e-05 0.00023001 3.1321e-06
1.94399e-06 3.1321e-06 0.000158032
0.000739426 5.78663e-05 -8.95532e-07
5.78663e-05 -1.50121e-05 1.65373e-06
-8.95532e-07 1.65373e-06 -7.96752e-05
0.000628594 2.29918e-05 -6.25467e-07
2.29918e-05 -3.74136e-05 -2.94746e-06
-6.25467e-07 -2.94746e-06 -9.69777e-05
0.000963826 6.26538e-05 -3.30408e-07
6.26538e-05 7.98523e-05 -2.61538e-07
-3.30408e-07 -2.61538e-07 1.35391e-05
0.000934532 2.70556e-06 -5.374e-07
2.70556e-06 5.90011e-05 -2.25872e-07
-5.374e-07 -2.25872e-07 -6.78931e-06
0.000795249 -2.81395e-05 -1.46075e-06
-2.81395e-05 -1.72441e-06 2.10795e-06
-1.46075e-06 2.10795e-06 -7.13638e-05
0.000950469 3.84745e-05 1.56045e-07
3.84745e-05 6.9943e-05 2.61685e-08
1.56045e-07 2.61685e-08 2.51347e-06
0.000892828 -4.93932e-05 -2.5513e-09
-4.93932e-05 2.93171e-05 -3.47624e-07
-2.5513e-09 -3.47624e-07 -3.51682e-05
0.00104015 -5.54266e-05 2.14592e-06
-5.54266e-05 0.000124465 1.41117e-06
2.14592e-06 1.41117e-06 6.24271e-05
0.000779405 -1.2942e-05 8.04972e-07
-1.2942e-05 7.02023e-06 1.284e-06
8.04972e-07 1.284e-06 -3.95152e-05
0.000936631 -8.29705e-06 5.815e-07
-8.29705e-06 4.60398e-05 -2.64128e-08
5.815e-07 -2.64128e-08 -1.76384e-05
0.000950743 3.37656e-05 -6.65429e-07
3.37656e-05 7.12686e-05 -2.82493e-07
-6.65429e-07 -2.82493e-07 4.77584e-06
0.000899709 3.66346e-05 -1.78653e-07
3.66346e-05 5.8994e-05 -4.05774e-07
-1.78653e-07 -4.05774e-07 -7.73786e-06
0.000901226 3.95082e-05 -6.41659e-07
3.95082e-05 4.7559e-05 -8.76976e-07
-6.41659e-07 -8.76976e-07 -2.00381e-05
0.000926902 1.93226e-05 5.59216e-08
1.93226e-05 5.33776e-05 2.56026e-07
5.59216e-08 2.56026e-07 -1.34599e-05
0.000937453 1.92632e-05 5.69088e-07
1.92632e-05 7.32784e-05 3.33137e-07
5.69088e-07 3.33137e-07 2.03401e-06
0.000836085 -3.80717e-05 2.96813e-07
-3.80717e-05 4.27063e-05 1.25267e-06
2.96813e-07 1.25267e-06 -3.40975e-05
0.000856449 -2.87811e-05 -1.30236e-07
-2.87811e-05 5.07941e-05 -7.4619e-07
-1.30236e-07 -7.4619e-07 -3.2727e-05
0.000766448 -4.87085e-05 1.06445e-06
-4.87085e-05 2.28416e-05 1.83751e-06
1.06445e-06 1.83751e-06 -8.78528e-05
0.00106516 -1.20426e-05 -6.6861e-07
-1.20426e-05 0.000146084 -1.0789e-06
-6.6861e-07 -1.0789e-06 6.55793e-05
0.00103057 -5.25039e-05 -3.10058e-07
-5.25039e-05 0.000145231 7.80951e-07
-3.10058e-07 7.80951e-07 4.97854e-05
0.000579385 -7.65444e-05 -1.56112e-06
-7.65444e-05 -9.2705e-05 3.22552e-06
-1.56112e-06 3.22552e-06 -0.000212506
0.000936012 -9.08444e-05 -3.13268e-06
-9.08444e-05 9.25867e-05 8.12907e-07
-3.13268e-06 8.12907e-07 -2.15212e-05
0.00097374 -6.63701e-05 -9.64783e-07
-6.63701e-05 0.000111888 1.47379e-06
-9.64783e-07 1.47379e-06 1.84047e-05
0.000904653 -8.81814e-05 6.26584e-08
-8.81814e-05 7.67828e-05 2.10337e-07
6.26584e-08 2.10337e-07 -3.46881e-05
0.000918023 -7.37335e-06 1.56329e-07
-7.37335e-06 6.567e-05 1.21953e-06
1.56329e-07 1.21953e-06 -5.22336e-06
0.00100128 -3.45578e-05 -5.31434e-07
-3.45578e-05 0.000120696 -5.16988e-07
-5.31434e-07 -5.16988e-07 3.54135e-05
0.000805481 -5.60494e-05 7.51375e-07
-5.60494e-05 3.87593e-05 -3.21375e-06
7.51375e-07 -3.21375e-06 -5.4665e-05
0.00107097 3.72534e-07 -6.00782e-07
3.72534e-07 0.000154063 -1.58177e-06
-6.00782e-07 -1.58177e-06 8.02189e-05
0.000845575 8.86961e-06 6.5023e-08
8.86961e-06 2.55578e-05 -2.56527e-08
6.5023e-08 -2.56527e-08 -3.85063e-05
0.000864167 2.73449e-05 -2.62944e-07
2.73449e-05 2.85605e-05 1.12019e-06
-2.62944e-07 1.12019e-06 -2.20941e-05
0.000911729 1.57608e-06 1.57635e-07
1.57608e-06 6.0464e-05 -4.66042e-07
1.57635e-07 -4.66042e-07 -5.1829e-08
0.000870619 1.37757e-05 -3.20206e-07
1.37757e-05 3.01879e-05 -6.05851e-08
-3.20206e-07 -6.05851e-08 -1.74306e-05
0.000827553 2.4091e-05 -1.11675e-06
2.4091e-05 4.11769e-06 1.75237e-06
-1.11675e-06 1.75237e-06 -2.68635e-05
0.000878473 -3.56579e-06 8.16465e-07
-3.56579e-06 3.27176e-05 -8.54515e-07
8.16465e-07 -8.54515e-07 -1.36945e-05
0.000836306 1.87383e-05 -8.77858e-08
1.87383e-05 4.28182e-06 8.27794e-10
-8.77858e-08 8.27794e-10 -2.52295e-05
0.00133477 2.66282e-05 -6.89879e-06
2.66282e-05 0.000268658 3.08953e-06
-6.89879e-06 3.08953e-06 0.000268388
0.000841685 8.41688e-06 1.0371e-06
8.41688e-06 3.50588e-06 -1.65875e-06
1.0371e-06 -1.65875e-06 -2.49443e-05
0.00107154 2.05943e-05 -3.1582e-06
2.05943e-05 0.000122587 5.54733e-07
-3.1582e-06 5.54733e-07 0.000121928
0.000938406 1.93217e-05 -1.72954e-06
1.93217e-05 5.30219e-05 1.58114e-06
-1.72954e-06 1.58114e-06 6.83588e-05
0.000783473 1.44163e-05 7.78489e-07
1.44163e-05 -3.56288e-05 -3.14178e-06
7.78489e-07 -3.14178e-06 -3.69573e-05
0.00153729 1.76339e-05 5.22839e-06
1.76339e-05 0.000368731 -1.14255e-06
5.22839e-06 -1.14255e-06 0.000387799
0.00212766 1.35991e-05 7.97701e-06
1.35991e-05 0.000682507 -3.93294e-06
7.97701e-06 -3.93294e-06 0.000704817
0.000726131 -1.37255e-06 -2.6359e-07
-1.37255e-06 -4.16542e-05 -1.03536e-06
-2.6359e-07 -1.03536e-06 -9.38211e-05
0.000621526 -1.22405e-05 -2.07124e-07
-1.22405e-05 -0.00011195 -1.83236e-06
-2.07124e-07 -1.83236e-06 -0.000140209
0.000950784 -1.15002e-05 -9.03365e-09
-1.15002e-05 7.45568e-05 2.99711e-08
-9.03365e-09 2.99711e-08 2.85714e-05
0.00080404 -1.03507e-05 -4.51503e-07
-1.03507e-05 -2.76087e-05 -3.0142e-06
-4.51503e-07 -3.0142e-06 -2.64973e-05
0.000730646 -8.4788e-06 3.94561e-08
-8.4788e-06 -5.72304e-05 1.4881e-08
3.94561e-08 1.4881e-08 -8.27005e-05
0.000726025 -3.54585e-05 5.8011e-08
-3.54585e-05 -4.41952e-05 6.46769e-07
5.8011e-08 6.46769e-07 -8.88781e-05
0.00202039 -7.01394e-06 -4.55082e-06
-7.01394e-06 0.000623398 -3.95056e-06
-4.55082e-06 -3.95056e-06 0.000647217
0.000797266 -5.26279e-06 -1.47448e-07
-5.26279e-06 -3.36964e-05 -7.3595e-09
-1.47448e-07 -7.3595e-09 -3.13969e-05
0.000852706 -5.50935e-06 5.45561e-08
-5.50935e-06 5.03384e-06 1.53074e-06
5.45561e-08 1.53074e-06 -1.84699e-05
0.00201632 -9.38235e-08 -1.89706e-06
-9.38235e-08 0.000620212 -1.0466e-09
-1.89706e-06 -1.0466e-09 0.000644279
0.000798241 -3.51811e-08 4.21888e-08
-3.51811e-08 -3.41205e-05 3.06418e-06
4.21888e-08 3.06418e-06 -3.15695e-05
0.00203683 6.9053e-06 -4.41393e-06
6.9053e-06 0.000631795 3.98612e-06
-4.41393e-06 3.98612e-06 0.000655521
0.00104693 7.99539e-06 -2.27164e-05
7.99539e-06 -0.000149933 6.70236e-06
-2.27164e-05 6.70236e-06 -0.000267958
0.00113789 0.000124367 1.21425e-06
0.000124367 0.00070761 -2.70786e-06
1.21425e-06 -2.70786e-06 0.000718367
0.000553605 9.22388e-06 6.00521e-05
9.22388e-06 0.000365023 -1.28043e-05
6.00521e-05 -1.28043e-05 0.000207266
0.000903359 1.79439e-05 -6.26536e-08
1.79439e-05 5.78489e-05 7.15934e-08
-6.26536e-08 7.15934e-08 -9.75361e-06
0.00152495 2.64037e-05 -3.7589e-06
2.64037e-05 0.000101291 1.27847e-05
-3.7589e-06 1.27847e-05 5.10443e-05
0.00146358 3.8979e-05 -1.38022e-05
3.8979e-05 -0.00017299 4.68061e-06
-1.38022e-05 4.68061e-06 -0.00025131
0.00119515 0.000298251 4.74941e-05
0.000298251 0.000351833 -2.54678e-05
4.74941e-05 -2.54678e-05 0.000759243
0.00325912 6.45742e-05 -3.59122e-05
6.45742e-05 0.000673211 7.34512e-06
-3.59122e-05 7.34512e-06 0.000441099
0.00863653 0.000526036 1.80436e-05
0.000526036 0.00302677 -1.17151e-05
1.80436e-05 -1.17151e-05 0.00207123
-0.00239588 0.000399189 4.66713e-05
0.000399189 -0.00194192 -1.19749e-05
4.66713e-05 -1.19749e-05 -0.0015074
0.00293123 0.000278141 2.87726e-05
0.000278141 -5.29521e-06 -2.2759e-05
2.87726e-05 -2.2759e-05 0.00059936
0.00222446 9.30627e-06 -4.25073e-05
9.30627e-06 -0.000301807 4.11075e-06
-4.25073e-05 4.11075e-06 -0.000638572
0.00690647 0.000386847 3.51612e-05
0.000386847 0.00240412 -1.30509e-05
3.51612e-05 -1.30509e-05 0.00127013
0.00352476 0.000422926 -4.71432e-06
0.000422926 0.000147401 4.05842e-06
-4.71432e-06 4.05842e-06 0.000262936
0.00293182 0.000157637 -3.70587e-06
0.000157637 -0.000271012 1.93456e-06
-3.70587e-06 1.93456e-06 0.000306859
0.00459153 -0.000190969 5.45816e-05
-0.000190969 0.000829834 -2.87605e-05
5.45816e-05 -2.87605e-05 0.000385257
0.00684395 0.00040668 2.61752e-05
0.00040668 0.00224022 -7.92585e-06
2.61752e-05 -7.92585e-06 0.000673214
0.00230143 0.000290174 1.06835e-05
0.000290174 -0.000380576 4.58962e-05
1.06835e-05 4.58962e-05 -0.000417607
0.00382033 4.73149e-05 -2.25442e-07
4.73149e-05 0.000337633 1.16867e-05
-2.25442e-07 1.16867e-05 0.000963025
0.000917399 -1.77906e-05 4.62592e-07
-1.77906e-05 6.94601e-05 4.39457e-07
4.62592e-07 4.39457e-07 -1.01759e-05
0.0009467 -2.90064e-05 4.60795e-07
-2.90064e-05 9.25028e-05 7.98386e-09
4.60795e-07 7.98386e-09 1.48113e-05
0.000976177 3.84817e-05 -8.92429e-07
3.84817e-05 0.000106995 1.17318e-08
-8.92429e-07 1.17318e-08 3.87292e-05
0.000914296 -9.64957e-06 -2.2409e-07
-9.64957e-06 6.33891e-05 -6.11262e-08
-2.2409e-07 -6.11262e-08 -8.33865e-06
0.000939569 3.82302e-05 -5.09808e-07
3.82302e-05 8.61263e-05 3.40602e-07
-5.09808e-07 3.40602e-07 1.17455e-05
0.000992603 1.58555e-05 5.56716e-07
1.58555e-05 0.000115864 8.76767e-07
5.56716e-07 8.76767e-07 4.74618e-05
0.00103295 5.04521e-05 -4.78231e-07
5.04521e-05 0.000131861 1.17129e-07
-4.78231e-07 1.17129e-07 6.55145e-05
0.00106904 5.56954e-05 6.9362e-07
5.56954e-05 0.000154015 8.19924e-07
6.9362e-07 8.19924e-07 8.95972e-05
0.000817736 -0.000134152 1.76683e-05
-0.000134152 -0.00028655 -7.48961e-06
1.76683e-05 -7.48961e-06 -0.0003342
0.00106329 -0.000157953 4.83617e-06
-0.000157953 1.60705e-05 -1.42442e-06
4.83617e-06 -1.42442e-06 -0.000109883
0.000932394 -9.09737e-05 -1.96973e-06
-9.09737e-05 8.90762e-05 -9.66151e-08
-1.96973e-06 -9.66151e-08 6.58425e-06
0.00145795 -4.90444e-05 2.27904e-06
-4.90444e-05 0.000357364 -2.17959e-06
2.27904e-06 -2.17959e-06 0.000232655
0.00108972 -4.53139e-05 -1.12532e-06
-4.53139e-05 0.000146834 -1.05469e-06
-1.12532e-06 -1.05469e-06 5.78156e-05
0.0010635 -1.25155e-05 -9.37588e-07
-1.25155e-05 0.000142914 -5.24506e-07
-9.37588e-07 -5.24506e-07 6.18446e-05
0.000987861 1.20208e-05 2.71559e-08
1.20208e-05 0.000101954 -7.95491e-08
2.71559e-08 -7.95491e-08 2.11344e-05
0.00140416 -0.000252946 -4.96054e-06
-0.000252946 -4.07041e-05 9.80734e-09
-4.96054e-06 9.80734e-09 2.82746e-06
0.00100005 1.06537e-05 1.2005e-07
1.06537e-05 0.000105852 -5.97446e-07
1.2005e-07 -5.97446e-07 1.55193e-05
0.0010618 -2.21833e-05 -9.91103e-07
-2.21833e-05 0.000133578 1.16356e-07
-9.91103e-07 1.16356e-07 3.95446e-05
0.00101904 -6.40583e-05 -3.68669e-07
-6.40583e-05 0.000163791 1.56196e-06
-3.68669e-07 1.56196e-06 3.55075e-06
0.00107927 -1.97617e-06 1.1744e-07
-1.97617e-06 0.00013967 1.00633e-06
1.1744e-07 1.00633e-06 6.4871e-05
-0.00190149 -0.000218847 4.58031e-06
-0.000218847 -0.00142002 -8.99803e-06
4.58031e-06 -8.99803e-06 -0.00137962
0.00158024 2.60289e-05 -7.43915e-06
2.60289e-05 0.000588486 1.40579e-05
-7.43915e-06 1.40579e-05 0.000433844
0.000543655 4.22579e-06 -8.94658e-07
4.22579e-06 -0.000150544 3.63229e-06
-8.94658e-07 3.63229e-06 -0.000227095
0.00100259 7.58796e-05 3.94839e-07
7.58796e-05 0.000106568 1.37807e-06
3.94839e-07 1.37807e-06 2.26862e-05
0.00127862 -3.88035e-07 1.003e-05
-3.88035e-07 0.000311639 1.36839e-06
1.003e-05 1.36839e-06 0.00024174
0.00139425 -6.55489e-06 1.13511e-05
-6.55489e-06 8.94453e-05 5.35313e-07
1.13511e-05 5.35313e-07 -2.42725e-05
-0.00108855 -3.96432e-06 1.70731e-05
-3.96432e-06 -0.000388673 -4.4206e-07
1.70731e-05 -4.4206e-07 -0.000587705
0.000840289 7.58897e-05 4.93228e-06
7.58897e-05 8.76268e-05 2.61316e-06
4.93228e-06 2.61316e-06 1.90658e-05
-0.000214242 2.71387e-05 -1.95439e-06
2.71387e-05 -0.000253023 6.18988e-06
-1.95439e-06 6.18988e-06 -0.000373318
0.00129003 -5.83389e-07 1.66777e-05
-5.83389e-07 1.15029e-05 -1.53738e-06
1.66777e-05 -1.53738e-06 -7.12804e-05
0.00565932 -0.000469948 6.03966e-05
-0.000469948 0.00158881 2.02268e-05
6.03966e-05 2.02268e-05 0.000178934
0.00566971 0.000452551 -2.63387e-05
0.000452551 0.00182993 -6.87175e-05
-2.63387e-05 -6.87175e-05 0.00122095
0.00311373 -0.000324782 1.02139e-05
-0.000324782 3.71305e-05 7.24372e-05
1.02139e-05 7.24372e-05 -1.62504e-05
0.00169841 -9.58144e-06 -2.23573e-06
-9.58144e-06 0.000182193 1.09962e-05
-2.23573e-06 1.09962e-05 0.000126811
0.00106123 1.41329e-05 3.92657e-07
1.41329e-05 -0.00135117 4.09786e-06
3.92657e-07 4.09786e-06 -0.000728457
0.000906706 6.06354e-05 4.21156e-07
6.06354e-05 0.000181459 1.57009e-07
4.21156e-07 1.57009e-07 0.000133008
0.000959632 3.62737e-06 -1.16807e-06
3.62737e-06 7.84281e-05 3.4424e-07
-1.16807e-06 3.4424e-07 2.21249e-05
0.00133677 1.32228e-06 -2.13285e-06
1.32228e-06 9.58292e-05 5.59973e-07
-2.13285e-06 5.59973e-07 2.3084e-05
-0.000486924 7.50408e-05 1.65265e-06
7.50408e-05 -0.00017799 -1.25063e-06
1.65265e-06 -1.25063e-06 -0.000322693
0.0029159 0.00015163 3.33894e-06
0.00015163 -0.00020834 -2.41216e-06
3.33894e-06 -2.41216e-06 0.000323444
0.00519996 0.00024234 3.78141e-05
0.00024234 0.000881403 9.81497e-07
3.78141e-05 9.81497e-07 -0.000181324
0.00323311 0.000117919 -4.65847e-05
0.000117919 0.000644511 -3.73076e-06
-4.65847e-05 -3.73076e-06 0.000542396
-0.000425696 4.11766e-05 1.71457e-06
4.11766e-05 -0.00030972 -1.16951e-05
1.71457e-06 -1.16951e-05 -0.000389011
0.0011095 6.30153e-07 -4.70936e-06
6.30153e-07 0.000226777 9.52466e-06
-4.70936e-06 9.52466e-06 0.000151333
0.00151179 1.91471e-05 6.59086e-06
1.91471e-05 9.46504e-05 -1.22689e-05
6.59086e-06 -1.22689e-05 3.41609e-05
0.00293117 0.000273052 3.87807e-05
0.000273052 -4.65434e-05 -2.18106e-05
3.87807e-05 -2.18106e-05 0.000611005
0.00194704 0.000334045 -9.60136e-06
0.000334045 -0.000487763 -5.27179e-05
-9.60136e-06 -5.27179e-05 -0.000513998
0.00139101 0.000217115 1.80999e-05
0.000217115 0.000285415 -1.16125e-05
1.80999e-05 -1.16125e-05 0.000322313
0.00275903 -0.000186558 9.16466e-05
-0.000186558 0.000383828 7.20543e-06
9.16466e-05 7.20543e-06 -0.00092054
0.000894288 7.6383e-05 -9.80269e-07
7.6383e-05 6.02909e-05 6.09648e-06
-9.80269e-07 6.09648e-06 -8.02607e-06
0.000973963 1.60307e-05 1.25536e-06
1.60307e-05 0.000132617 2.51106e-06
1.25536e-06 2.51106e-06 7.79009e-05
0.000246777 -3.31613e-05 6.20073e-06
-3.31613e-05 -8.31038e-05 -4.95954e-06
6.20073e-06 -4.95954e-06 -0.000183625
0.00101316 1.71502e-05 -6.42204e-07
1.71502e-05 9.93315e-05 -2.84643e-07
-6.42204e-07 -2.84643e-07 3.39345e-05
0.000827546 -5.22149e-05 -1.0854e-06
-5.22149e-05 -3.25639e-06 2.17371e-07
-1.0854e-06 2.17371e-07 -6.85203e-05
0.000961774 -5.32873e-05 -1.06509e-06
-5.32873e-05 7.75193e-05 1.18933e-06
-1.06509e-06 1.18933e-06 1.28303e-05
0.00096518 -2.09948e-05 -2.19856e-08
-2.09948e-05 6.52613e-05 -2.58614e-07
-2.19856e-08 -2.58614e-07 3.41261e-07
0.000768207 -2.04001e-05 -8.3941e-07
-2.04001e-05 -1.27937e-05 1.74791e-06
-8.3941e-07 1.74791e-06 -5.72291e-05
0.000704264 -4.22246e-05 1.56189e-06
-4.22246e-05 1.60688e-05 -1.97865e-07
1.56189e-06 -1.97865e-07 -8.26731e-05
0.000917971 1.07028e-05 -3.40947e-07
1.07028e-05 4.92409e-05 -1.86642e-07
-3.40947e-07 -1.86642e-07 -1.79538e-05
0.00101003 3.14126e-05 -2.21218e-07
3.14126e-05 0.00010994 -2.26785e-07
-2.21218e-07 -2.26785e-07 3.9174e-05
0.00100893 -3.46631e-05 3.3389e-07
-3.46631e-05 0.000125674 3.73967e-07
3.3389e-07 3.73967e-07 4.73455e-05
0.000677139 -4.98169e-05 2.14554e-06
-4.98169e-05 1.98101e-05 2.06867e-06
2.14554e-06 2.06867e-06 -0.000100203
0.00081762 -1.41766e-05 -2.23088e-06
-1.41766e-05 3.20023e-05 -1.27039e-06
-2.23088e-06 -1.27039e-06 -4.87407e-05
0.000697271 -5.41972e-05 2.60835e-07
-5.41972e-05 -8.03185e-06 -1.68587e-07
2.60835e-07 -1.68587e-07 -0.000115048
0.00103058 -0.000104404 8.00974e-07
-0.000104404 0.000151413 1.74535e-06
8.00974e-07 1.74535e-06 1.22274e-05
0.00113627 -0.000108381 -4.0922e-06
-0.000108381 0.000154094 2.88771e-06
-4.0922e-06 2.88771e-06 2.3808e-05
0.00127937 -6.5774e-05 -3.68179e-07
-6.5774e-05 0.00026878 -1.39106e-06
-3.68179e-07 -1.39106e-06 0.000171918
0.000780987 -8.63991e-05 -6.51338e-07
-8.63991e-05 5.75223e-06 4.1412e-07
-6.51338e-07 4.1412e-07 -0.000117466
0.00135534 -0.000112347 -5.8026e-07
-0.000112347 0.000302887 -2.78844e-07
-5.8026e-07 -2.78844e-07 0.000193326
0.000699214 -6.77147e-05 -1.51318e-06
-6.77147e-05 -2.08645e-05 5.7042e-07
-1.51318e-06 5.7042e-07 -0.000121902
0.00094511 -9.09157e-05 2.54593e-07
-9.09157e-05 9.68319e-05 -3.6476e-07
2.54593e-07 -3.6476e-07 -1.51388e-05
0.000945035 -1.40692e-05 -5.62271e-07
-1.40692e-05 8.23776e-05 9.8615e-07
-5.62271e-07 9.8615e-07 6.2588e-06
0.00103428 -6.74688e-05 -1.08008e-06
-6.74688e-05 0.00014149 8.83598e-07
-1.08008e-06 8.83598e-07 4.7803e-05
0.000784632 -8.20687e-05 3.55924e-07
-8.20687e-05 1.72476e-05 -1.95204e-06
3.55924e-07 -1.95204e-06 -9.39527e-05
0.000882423 2.4563e-05 -2.65709e-07
2.4563e-05 4.07422e-05 1.26867e-06
-2.65709e-07 1.26867e-06 -1.49841e-05
0.000844142 -5.69019e-06 4.01995e-07
-5.69019e-06 2.68342e-05 6.35207e-08
4.01995e-07 6.35207e-08 -4.429e-05
0.00093457 -3.63584e-05 9.98118e-07
-3.63584e-05 8.52631e-05 -1.99277e-06
9.98118e-07 -1.99277e-06 -1.21878e-06
0.000920124 7.46262e-06 1.01731e-08
7.46262e-06 6.48047e-05 -1.06549e-06
1.01731e-08 -1.06549e-06 1.80752e-06
0.000868092 2.11139e-05 -1.42896e-07
2.11139e-05 3.04366e-05 -1.0266e-07
-1.42896e-07 -1.0266e-07 -2.01139e-05
0.000822536 2.95302e-05 -1.16025e-06
2.95302e-05 6.1174e-06 1.78816e-06
-1.16025e-06 1.78816e-06 -2.70369e-05
0.000871984 6.68104e-06 5.06569e-07
6.68104e-06 3.10003e-05 -1.04771e-06
5.06569e-07 -1.04771e-06 -1.66771e-05
0.000828957 2.50473e-05 -6.05296e-09
2.50473e-05 4.6222e-06 -5.65226e-09
-6.05296e-09 -5.65226e-09 -2.63918e-05
0.000751275 2.72122e-05 -1.52984e-06
2.72122e-05 -3.73084e-05 3.30948e-06
-1.52984e-06 3.30948e-06 -4.21114e-05
0.00083867 1.71099e-05 9.64799e-07
1.71099e-05 5.02077e-06 -1.7029e-06
9.64799e-07 -1.7029e-06 -2.43786e-05
0.000770174 2.33919e-05 1.34861e-07
2.33919e-05 -3.34521e-05 1.35736e-08
1.34861e-07 1.35736e-08 -3.67324e-05
0.00206728 3.57369e-05 -4.83292e-06
3.57369e-05 0.000662665 1.54216e-06
-4.83292e-06 1.54216e-06 0.000682421
0.000782642 1.91003e-05 1.04907e-06
1.91003e-05 -3.22543e-05 -3.17782e-06
1.04907e-06 -3.17782e-06 -3.4341e-05
0.0015308 2.33597e-05 6.41007e-06
2.33597e-05 0.000369509 -1.08306e-06
6.41007e-06 -1.08306e-06 0.00038778
0.00212089 2.02363e-05 1.12535e-05
2.02363e-05 0.000682061 -3.84766e-06
1.12535e-05 -3.84766e-06 0.000703825
0.000747559 -2.15863e-05 1.00962e-07
-2.15863e-05 -3.5819e-05 -9.14809e-07
1.00962e-07 -9.14809e-07 -8.78258e-05
0.000592866 -1.54334e-05 -2.67543e-07
-1.54334e-05 -0.00012391 -1.89607e-06
-2.67543e-07 -1.89607e-06 -0.000155334
0.000847231 -3.18248e-06 -2.26088e-07
-3.18248e-06 2.16545e-05 -5.49153e-07
-2.26088e-07 -5.49153e-07 -2.97848e-05
0.000800152 -1.52571e-05 -5.36234e-07
-1.52571e-05 -2.59321e-05 -3.06223e-06
-5.36234e-07 -3.06223e-06 -2.66584e-05
0.000606586 -1.23122e-05 2.38803e-08
-1.23122e-05 -0.000119647 -5.73721e-07
2.38803e-08 -5.73721e-07 -0.000148216
0.0009658 -8.74609e-07 -1.60124e-07
-8.74609e-07 8.43157e-05 4.73422e-07
-1.60124e-07 4.73422e-07 3.69084e-05
0.0020487 -1.36603e-05 -7.99683e-06
-1.36603e-05 0.000640808 -3.94666e-06
-7.99683e-06 -3.94666e-06 0.00066387
0.000793519 -1.01491e-05 -1.11048e-07
-1.01491e-05 -3.32607e-05 -1.94494e-08
-1.11048e-07 -1.94494e-08 -3.20568e-05
0.000607139 -8.74568e-06 1.21935e-07
-8.74568e-06 -0.00012214 1.3909e-06
1.21935e-07 1.3909e-06 -0.000148495
0.0020186 -6.6807e-06 -2.01792e-06
-6.6807e-06 0.000622249 1.40491e-08
-2.01792e-06 1.40491e-08 0.000646129
0.000792294 -5.07452e-06 1.679e-07
-5.07452e-06 -3.64025e-05 3.03065e-06
1.679e-07 3.03065e-06 -3.40595e-05
0.00201766 2.9083e-07 -6.26839e-07
2.9083e-07 0.000620913 3.97875e-06
-6.26839e-07 3.97875e-06 0.000644963
0.00104223 1.70005e-06 4.93607e-06
1.70005e-06 8.90844e-05 -1.24141e-06
4.93607e-06 -1.24141e-06 1.91283e-05
0.00115387 4.49827e-06 -1.37941e-06
4.49827e-06 -8.32334e-05 7.62209e-07
-1.37941e-06 7.62209e-07 -0.000197523
0.000990023 9.59084e-05 3.44477e-05
9.59084e-05 0.000698754 -6.24143e-06
3.44477e-05 -6.24143e-06 0.000666203
0.000931468 1.81911e-05 1.27244e-07
1.81911e-05 7.08724e-05 6.46321e-08
1.27244e-07 6.46321e-08 5.19877e-06
0.00085493 -3.70782e-06 5.03535e-08
-3.70782e-06 2.55614e-05 -2.74859e-09
5.03535e-08 -2.74859e-09 -4.02185e-05
0.000992494 2.96721e-05 -3.55556e-07
2.96721e-05 0.000107481 6.99963e-07
-3.55556e-07 6.99963e-07 3.51109e-05
0.00159241 1.44672e-05 4.18508e-06
1.44672e-05 0.00018784 1.61237e-05
4.18508e-06 1.61237e-05 0.000114007
0.00133244 2.28457e-05 -3.80817e-06
2.28457e-05 -2.1657e-05 2.77181e-06
-3.80817e-06 2.77181e-06 -7.70669e-05
0.00109217 3.20076e-05 1.76008e-05
3.20076e-05 -0.000387678 -1.7939e-05
1.76008e-05 -1.7939e-05 -0.00050692
0.00307377 -1.62129e-05 -4.50966e-05
-1.62129e-05 0.000182821 1.43977e-05
-4.50966e-05 1.43977e-05 -6.48235e-05
0.00118102 0.000316477 -5.91727e-06
0.000316477 -0.000130486 7.3735e-06
-5.91727e-06 7.3735e-06 -0.00138176
0.00468966 0.000511688 5.64662e-05
0.000511688 0.00104429 -2.52246e-05
5.64662e-05 -2.52246e-05 0.00108669
0.00168911 0.000121761 6.54811e-06
0.000121761 -0.00106637 -1.60866e-05
6.54811e-06 -1.60866e-05 -0.00046864
0.00273619 -0.000141071 -6.57568e-06
-0.000141071 8.78273e-05 5.60496e-06
-6.57568e-06 5.60496e-06 -5.31395e-05
0.005451 0.000202558 3.42958e-05
0.000202558 0.00155274 -3.18676e-05
3.42958e-05 -3.18676e-05 0.000158467
0.000844773 8.52796e-05 -9.13894e-06
8.52796e-05 -0.000678198 7.90699e-06
-9.13894e-06 7.90699e-06 -0.000659764
0.0025252 3.29937e-05 -9.32547e-07
3.29937e-05 -0.000465669 1.21842e-06
-9.32547e-07 1.21842e-06 0.000171033
0.0056956 -0.000461542 9.91935e-06
-0.000461542 0.00148808 -6.21944e-05
9.91935e-06 -6.21944e-05 0.00122981
0.00794644 0.000205822 4.72444e-05
0.000205822 0.00285913 -2.18057e-05
4.72444e-05 -2.18057e-05 0.00138124
-0.00052979 5.4652e-05 1.52819e-05
5.4652e-05 -0.000853651 4.50038e-05
1.52819e-05 4.50038e-05 -0.000952557
0.000609612 -9.78408e-05 5.86852e-06
-9.78408e-05 -0.00152578 7.32836e-06
5.86852e-06 7.32836e-06 -0.000961796
0.000972621 -1.04999e-06 5.56547e-08
-1.04999e-06 9.00852e-05 8.75997e-07
5.56547e-08 8.75997e-07 1.217e-05
0.000911177 -1.11699e-05 -2.01407e-10
-1.11699e-05 6.80658e-05 -1.48987e-07
-2.01407e-10 -1.48987e-07 -1.29088e-05
0.000924699 -3.70467e-05 -3.16681e-07
-3.70467e-05 8.12626e-05 -2.40819e-07
-3.16681e-07 -2.40819e-07 3.0797e-06
0.000918651 9.78917e-06 -3.12778e-07
9.78917e-06 6.6089e-05 -4.21465e-07
-3.12778e-07 -4.21465e-07 -5.9959e-06
0.00103784 7.1238e-05 1.18831e-06
7.1238e-05 0.000138199 8.09945e-08
1.18831e-06 8.09945e-08 6.51161e-05
0.00108167 5.39678e-05 -2.7001e-08
5.39678e-05 0.000158335 2.04861e-07
-2.7001e-08 2.04861e-07 9.13505e-05
0.00258822 -0.000297594 7.71492e-06
-0.000297594 0.000569343 -4.76557e-06
7.71492e-06 -4.76557e-06 0.000555484
-0.000232239 -4.23749e-05 5.89174e-06
-4.23749e-05 -0.000459985 -2.66314e-06
5.89174e-06 -2.66314e-06 -0.000630661
0.001072 3.70279e-05 2.1018e-07
3.70279e-05 0.000150765 -6.14023e-07
2.1018e-07 -6.14023e-07 6.76876e-05
0.00130929 -6.29445e-05 1.89366e-06
-6.29445e-05 0.000261568 -5.05339e-06
1.89366e-06 -5.05339e-06 0.000161016
0.00115481 1.80019e-06 -2.79378e-07
1.80019e-06 0.000188311 -1.96713e-06
-2.79378e-07 -1.96713e-06 0.000100258
0.000973518 -6.34043e-06 3.9064e-07
-6.34043e-06 8.31478e-05 -1.56803e-07
3.9064e-07 -1.56803e-07 7.42068e-06
0.000971283 3.90872e-05 1.68658e-07
3.90872e-05 8.92904e-05 -5.369e-08
1.68658e-07 -5.369e-08 7.88065e-06
0.000793823 -0.000266713 -8.46432e-06
-0.000266713 -5.87907e-05 2.12467e-06
-8.46432e-06 2.12467e-06 -5.63412e-05
0.000928043 -1.78484e-05 8.59688e-07
-1.78484e-05 5.29937e-05 -1.29056e-06
8.59688e-07 -1.29056e-06 -2.24259e-05
0.000998785 2.2479e-05 -8.34938e-07
2.2479e-05 0.000332613 -1.92687e-06
-8.34938e-07 -1.92687e-06 0.000187999
0.000963558 8.00758e-07 9.53912e-07
8.00758e-07 8.26426e-05 9.11708e-07
9.53912e-07 9.11708e-07 1.10439e-05
-0.00198611 -0.00011357 1.78949e-06
-0.00011357 -0.000987312 -1.10459e-05
1.78949e-06 -1.10459e-05 -0.00122698
0.000781572 2.75718e-07 1.13653e-07
2.75718e-07 0.000170323 1.98849e-05
1.13653e-07 1.98849e-05 0.000138927
0.0010023 -1.80421e-05 4.88478e-07
-1.80421e-05 0.0001022 2.64899e-06
4.88478e-07 2.64899e-06 2.6226e-05
0.00117379 1.37033e-06 -4.60239e-07
1.37033e-06 0.000331215 3.08513e-07
-4.60239e-07 3.08513e-07 0.00024381
0.00092653 5.78022e-07 9.68168e-07
5.78022e-07 0.000108693 7.6959e-07
9.68168e-07 7.6959e-07 3.43692e-05
0.00120543 -8.97076e-06 3.07805e-05
-8.97076e-06 1.54174e-06 -4.41576e-09
3.07805e-05 -4.41576e-09 -0.000115646
0.000766827 7.49422e-05 5.50597e-06
7.49422e-05 0.000100157 7.43048e-06
5.50597e-06 7.43048e-06 4.27771e-05
0.000865125 0.000152357 1.05292e-05
0.000152357 0.000307134 -1.51847e-05
1.05292e-05 -1.51847e-05 0.000185327
0.00101129 3.67327e-06 -6.82271e-06
3.67327e-06 0.00011388 -3.78507e-06
-6.82271e-06 -3.78507e-06 5.86589e-05
0.00298561 9.40466e-05 -2.9138e-05
9.40466e-05 0.000361045 -2.65799e-06
-2.9138e-05 -2.65799e-06 -0.000681537
-0.00328093 2.58915e-05 -1.83164e-05
2.58915e-05 -0.0025522 5.79258e-05
-1.83164e-05 5.79258e-05 -0.00266014
0.000988429 1.33554e-06 -4.04546e-06
1.33554e-06 -5.16718e-05 5.92615e-06
-4.04546e-06 5.92615e-06 -0.000120984
0.00169572 0.000112789 -5.4743e-06
0.000112789 -0.000980579 1.58497e-05
-5.4743e-06 1.58497e-05 -0.000445914
0.000425248 3.952e-05 -4.13647e-06
3.952e-05 9.66192e-05 -3.26273e-06
-4.13647e-06 -3.26273e-06 3.08525e-05
0.000927627 -4.3042e-08 -2.89092e-06
-4.3042e-08 0.000132089 2.32786e-06
-2.89092e-06 2.32786e-06 5.00971e-05
0.00133955 1.48036e-05 4.33722e-06
1.48036e-05 -1.344e-05 -2.69838e-06
4.33722e-06 -2.69838e-06 -8.08797e-05
0.00182726 0.000269488 4.80017e-05
0.000269488 0.000217133 1.49289e-06
4.80017e-05 1.49289e-06 0.000125651
0.00202265 0.000270634 2.30081e-06
0.000270634 -0.000634198 -5.91907e-06
2.30081e-06 -5.91907e-06 2.91143e-05
0.000882719 0.000114017 9.56512e-06
0.000114017 -0.000673879 -9.19699e-06
9.56512e-06 -9.19699e-06 -0.000616124
0.00728914 0.000157261 1.27264e-05
0.000157261 0.00262738 -1.87613e-05
1.27264e-05 -1.87613e-05 0.00127822
-0.000505378 8.24449e-07 -2.44741e-05
8.24449e-07 -9.01672e-05 -1.39331e-05
-2.44741e-05 -1.39331e-05 -0.000230565
0.00104323 -9.53586e-07 -3.70454e-06
-9.53586e-07 9.11375e-05 1.43069e-06
-3.70454e-06 1.43069e-06 1.95141e-05
0.00174554 4.14209e-05 4.31625e-05
4.14209e-05 1.43495e-06 -2.1978e-05
4.31625e-05 -2.1978e-05 -7.66e-05
0.0014631 0.000473512 1.82874e-05
0.000473512 3.31493e-05 -2.99397e-06
1.82874e-05 -2.99397e-06 0.000904616
-0.00426648 0.000277349 6.82107e-05
0.000277349 -0.00315274 -2.29462e-05
6.82107e-05 -2.29462e-05 -0.00295333
0.00796528 0.000251501 1.96867e-05
0.000251501 0.00268597 -4.51314e-05
1.96867e-05 -4.51314e-05 0.00113066
0.002566 -6.99917e-05 -8.82515e-07
-6.99917e-05 0.000405486 9.86533e-05
-8.82515e-07 9.86533e-05 0.0003054
0.00142941 1.07218e-05 -3.50537e-06
1.07218e-05 0.000359349 8.63914e-06
-3.50537e-06 8.63914e-06 0.000310512
0.000205541 -2.98025e-05 5.7737e-07
-2.98025e-05 -0.000102714 1.1344e-06
5.7737e-07 1.1344e-06 -0.000217987
0.000380342 -5.64264e-05 3.42004e-06
-5.64264e-05 5.96399e-05 -4.28972e-06
3.42004e-06 -4.28972e-06 -0.000111446
0.000944159 -2.95318e-05 -2.19808e-07
-2.95318e-05 5.8703e-05 -7.83217e-07
-2.19808e-07 -7.83217e-07 -7.76056e-06
0.000711931 -2.38437e-05 -3.8521e-07
-2.38437e-05 -5.58742e-05 2.78322e-06
-3.8521e-07 2.78322e-06 -9.83513e-05
0.000760714 -1.11212e-05 2.16157e-07
-1.11212e-05 4.65401e-05 1.13579e-07
2.16157e-07 1.13579e-07 -4.27585e-05
0.000921832 -9.51542e-05 5.34448e-06
-9.51542e-05 0.00021078 -4.525e-07
5.34448e-06 -4.525e-07 2.96866e-05
0.00122039 -3.64051e-05 -7.86911e-07
-3.64051e-05 0.000227867 -4.33789e-07
-7.86911e-07 -4.33789e-07 0.000148556
0.0011601 -8.67054e-05 5.17533e-07
-8.67054e-05 0.000252229 4.19499e-07
5.17533e-07 4.19499e-07 0.000127304
0.00104151 -0.000108038 1.85411e-06
-0.000108038 0.000197656 3.24057e-06
1.85411e-06 3.24057e-06 1.32668e-05
0.000603024 -5.35627e-05 -3.88119e-07
-5.35627e-05 -5.27038e-05 -1.89141e-06
-3.88119e-07 -1.89141e-06 -0.000154974
0.00111008 -0.000106723 -4.70979e-07
-0.000106723 0.000192206 1.18963e-08
-4.70979e-07 1.18963e-08 4.94775e-05
0.00164489 -0.0001437 -1.4902e-06
-0.0001437 0.000414285 2.16693e-06
-1.4902e-06 2.16693e-06 0.000249801
0.00153797 -0.000138274 -4.10267e-06
-0.000138274 0.000320281 2.82801e-06
-4.10267e-06 2.82801e-06 0.000174881
0.000739263 -8.82918e-05 -1.70223e-06
-8.82918e-05 -3.61065e-05 2.37868e-06
-1.70223e-06 2.37868e-06 -0.000149393
0.00105281 -0.000105724 -1.1813e-06
-0.000105724 0.000110329 8.31429e-07
-1.1813e-06 8.31429e-07 -2.14463e-05
0.00097038 -9.56672e-05 -5.42726e-07
-9.56672e-05 9.80268e-05 -1.43762e-06
-5.42726e-07 -1.43762e-06 -2.85844e-05
0.00116729 -0.00010134 3.88742e-07
-0.00010134 0.000204153 -8.95542e-07
3.88742e-07 -8.95542e-07 0.00010233
0.0010792 -9.8505e-05 1.77448e-06
-9.8505e-05 0.000161488 -8.04052e-07
1.77448e-06 -8.04052e-07 5.53176e-05
0.000771819 -3.78777e-05 -3.00128e-07
-3.78777e-05 3.7911e-06 1.42875e-06
-3.00128e-07 1.42875e-06 -8.41996e-05
0.000903318 -7.33991e-05 4.47122e-07
-7.33991e-05 8.3843e-05 -1.44198e-07
4.47122e-07 -1.44198e-07 -1.63495e-05
0.000951727 -9.08194e-05 3.67068e-06
-9.08194e-05 9.97854e-05 -2.39833e-06
3.67068e-06 -2.39833e-06 -1.00268e-05
0.000891327 2.73787e-05 -3.7184e-07
2.73787e-05 4.89486e-05 1.40221e-06
-3.7184e-07 1.40221e-06 -1.41636e-05
0.000956197 -2.32612e-05 -1.51297e-07
-2.32612e-05 8.94959e-05 -3.17346e-08
-1.51297e-07 -3.17346e-08 1.23352e-05
0.00109637 -6.7826e-05 2.87546e-07
-6.7826e-05 0.000171694 -6.8202e-07
2.87546e-07 -6.8202e-07 7.79766e-05
0.000813508 3.38332e-05 -1.07807e-06
3.38332e-05 6.58076e-06 1.90618e-06
-1.07807e-06 1.90618e-06 -3.00986e-05
0.000871043 2.25415e-05 -2.21659e-09
2.25415e-05 3.44892e-05 -1.04421e-07
-2.21659e-09 -1.04421e-07 -2.1019e-05
0.000773418 -4.85902e-06 5.13729e-07
-4.85902e-06 -1.03254e-05 -1.13427e-06
5.13729e-07 -1.13427e-06 -8.16982e-05
0.000872594 1.78151e-05 4.19558e-07
1.78151e-05 3.27578e-05 -1.28386e-06
4.19558e-07 -1.28386e-06 -1.77714e-05
0.000821044 3.19108e-05 2.49438e-08
3.19108e-05 5.49207e-06 -2.80491e-08
2.49438e-08 -2.80491e-08 -2.78818e-05
0.000738451 3.12734e-05 -1.86455e-06
3.12734e-05 -3.70374e-05 3.34703e-06
-1.86455e-06 3.34703e-06 -4.38794e-05
0.00083087 2.61468e-05 9.03653e-07
2.61468e-05 5.36509e-06 -1.81721e-06
9.03653e-07 -1.81721e-06 -2.56764e-05
0.000765644 2.76449e-05 9.49298e-08
2.76449e-05 -2.99186e-05 -1.5905e-09
9.49298e-08 -1.5905e-09 -3.47655e-05
0.00212327 3.86104e-05 -1.88015e-05
3.86104e-05 0.000697721 3.56694e-06
-1.88015e-05 3.56694e-06 0.000716468
0.000782869 2.36818e-05 1.35155e-06
2.36818e-05 -2.71341e-05 -3.22639e-06
1.35155e-06 -3.22639e-06 -3.04e-05
0.00152617 2.91121e-05 7.56497e-06
2.91121e-05 0.000372955 -1.01032e-06
7.56497e-06 -1.01032e-06 0.000390017
0.00211394 2.66728e-05 1.4299e-05
2.66728e-05 0.000682659 -3.74714e-06
1.4299e-05 -3.74714e-06 0.000703624
0.000871033 1.3535e-05 -5.26059e-07
1.3535e-05 3.00746e-05 -5.38786e-07
-5.26059e-07 -5.38786e-07 -2.32928e-05
0.000814617 -1.75939e-05 -6.69826e-07
-1.75939e-05 -5.14169e-06 -1.43817e-06
-6.69826e-07 -1.43817e-06 -3.74836e-05
0.000795832 9.30809e-06 -6.48409e-07
9.30809e-06 -6.80418e-06 -5.01768e-07
-6.48409e-07 -5.01768e-07 -6.0106e-05
0.000793344 -2.00693e-05 -6.0633e-07
-2.00693e-05 -2.44598e-05 -3.16613e-06
-6.0633e-07 -3.16613e-06 -2.75008e-05
0.000713927 -1.5708e-05 -1.14461e-07
-1.5708e-05 -6.00873e-05 -6.03421e-07
-1.14461e-07 -6.03421e-07 -9.09302e-05
0.000973707 -4.56073e-06 -3.56561e-09
-4.56073e-06 8.78314e-05 -2.11611e-08
-3.56561e-09 -2.11611e-08 3.71141e-05
0.00209224 -2.03547e-05 -1.12454e-05
-2.03547e-05 0.000667551 -3.93272e-06
-1.12454e-05 -3.93272e-06 0.000689451
0.000786763 -1.50137e-05 -1.26891e-07
-1.50137e-05 -3.29952e-05 -1.98489e-08
-1.26891e-07 -1.98489e-08 -3.36182e-05
0.000597182 -1.23371e-05 5.73718e-08
-1.23371e-05 -0.000124417 7.26486e-07
5.73718e-08 7.26486e-07 -0.000153315
0.00204037 -1.33007e-05 -1.83708e-06
-1.33007e-05 0.000635999 2.87807e-08
-1.83708e-06 2.87807e-08 0.000659213
0.000783405 -9.95574e-06 3.74369e-07
-9.95574e-06 -3.86869e-05 3.02061e-06
3.74369e-07 3.02061e-06 -3.73944e-05
0.00201498 -6.33342e-06 3.01931e-06
-6.33342e-06 0.000620103 3.94931e-06
3.01931e-06 3.94931e-06 0.000644048
0.00102117 1.61465e-06 4.53816e-06
1.61465e-06 0.000173571 -8.99856e-06
4.53816e-06 -8.99856e-06 9.32139e-05
0.00106682 8.23809e-07 -2.11679e-06
8.23809e-07 0.00011278 7.00264e-07
-2.11679e-06 7.00264e-07 4.4377e-05
0.00121452 4.26165e-07 2.03156e-05
4.26165e-07 -4.71108e-05 2.32433e-06
2.03156e-05 2.32433e-06 -0.000155298
0.000847129 -3.07754e-05 6.29222e-08
-3.07754e-05 1.82151e-05 -3.21234e-07
6.29222e-08 -3.21234e-07 -4.65906e-05
0.00098614 -9.11942e-06 -1.3216e-07
-9.11942e-06 9.77691e-05 -3.42225e-07
-1.3216e-07 -3.42225e-07 2.69128e-05
0.000962257 1.76398e-05 1.06324e-06
1.76398e-05 8.57718e-05 -2.83894e-08
1.06324e-06 -2.83894e-08 2.17447e-05
0.000856415 -1.57493e-05 2.60379e-08
-1.57493e-05 2.4208e-05 2.4303e-08
2.60379e-08 2.4303e-08 -4.02406e-05
0.000934985 9.98102e-06 3.17711e-08
9.98102e-06 7.42075e-05 3.29244e-07
3.17711e-08 3.29244e-07 2.63121e-06
0.000964452 4.89072e-06 -6.33939e-07
4.89072e-06 8.75572e-05 2.65331e-07
-6.33939e-07 2.65331e-07 1.68542e-05
0.000932396 8.36826e-05 2.16827e-07
8.36826e-05 7.98614e-05 9.13943e-07
2.16827e-07 9.13943e-07 5.14516e-07
0.00134697 -6.35457e-07 3.38322e-06
-6.35457e-07 1.47091e-05 2.3366e-05
3.38322e-06 2.3366e-05 -4.70607e-05
0.00127577 1.19702e-05 1.481e-06
1.19702e-05 5.9296e-05 5.93979e-06
1.481e-06 5.93979e-06 -1.08011e-05
0.00115351 1.92605e-05 -3.30079e-06
1.92605e-05 -0.000140651 -8.65261e-06
-3.30079e-06 -8.65261e-06 -0.000195555
0.00110823 2.13277e-05 2.51107e-06
2.13277e-05 -0.00136786 -1.18022e-05
2.51107e-06 -1.18022e-05 -0.000722798
0.000245458 -0.000132575 -4.62218e-05
-0.000132575 -0.00134977 6.11908e-05
-4.62218e-05 6.11908e-05 -0.00164823
0.00237639 9.05513e-05 3.93483e-05
9.05513e-05 0.000287979 -3.13448e-05
3.93483e-05 -3.13448e-05 -0.00103784
0.0051466 0.000389858 2.77447e-05
0.000389858 0.00151491 -2.28196e-05
2.77447e-05 -2.28196e-05 0.00121141
0.00189254 -0.000299811 -2.49038e-05
-0.000299811 -0.000344116 9.16838e-06
-2.49038e-05 9.16838e-06 -0.000787503
0.0023538 -9.78575e-05 3.68144e-05
-9.78575e-05 3.16186e-05 -4.05554e-05
3.68144e-05 -4.05554e-05 -0.00135342
0.00360942 1.55275e-05 -1.74447e-05
1.55275e-05 0.000682705 1.67551e-06
-1.74447e-05 1.67551e-06 0.00051298
0.00334393 -0.000136209 -1.92935e-06
-0.000136209 0.000159186 -9.36051e-06
-1.92935e-06 -9.36051e-06 0.000752349
0.00362196 -0.000272482 -1.2584e-07
-0.000272482 0.000815531 -1.12903e-05
-1.2584e-07 -1.12903e-05 0.000746938
0.00297554 -0.000370037 6.63094e-06
-0.000370037 -0.000416844 -8.74938e-05
6.63094e-06 -8.74938e-05 -0.00115534
-0.00116253 -0.000155649 3.93691e-05
-0.000155649 -0.00202269 3.00153e-05
3.93691e-05 3.00153e-05 -0.00221052
0.000278234 -0.000187094 2.57786e-05
-0.000187094 -0.00156728 4.58727e-06
2.57786e-05 4.58727e-06 -0.000939249
0.00106923 -3.7803e-05 -4.40332e-08
-3.7803e-05 0.000134476 1.58431e-06
-4.40332e-08 1.58431e-06 6.23544e-05
0.000881502 8.21377e-07 7.68175e-08
8.21377e-07 4.29567e-05 -6.63957e-08
7.68175e-08 -6.63957e-08 -3.52571e-05
0.000870068 -1.98346e-06 -4.39664e-07
-1.98346e-06 4.84439e-05 -1.17303e-06
-4.39664e-07 -1.17303e-06 -3.36056e-05
0.000920654 2.1642e-05 -6.67064e-08
2.1642e-05 6.80225e-05 -1.2079e-06
-6.67064e-08 -1.2079e-06 -4.69127e-06
0.00420891 -0.000320247 1.00242e-05
-0.000320247 0.00166222 2.50048e-06
1.00242e-05 2.50048e-06 0.00163679
0.000893897 9.61304e-06 5.02549e-06
9.61304e-06 0.000310643 -8.1337e-06
5.02549e-06 -8.1337e-06 0.000186418
0.000857561 -2.22938e-05 9.52388e-08
-2.22938e-05 1.86565e-05 -1.56486e-06
9.52388e-08 -1.56486e-06 -5.64678e-05
0.000924044 3.7045e-05 6.38883e-07
3.7045e-05 6.88417e-05 -1.46267e-06
6.38883e-07 -1.46267e-06 -1.40039e-05
0.00142432 -3.91541e-06 1.20009e-06
-3.91541e-06 0.000319523 -5.7709e-06
1.20009e-06 -5.7709e-06 0.000242877
0.000922595 1.55065e-06 -4.50401e-08
1.55065e-06 5.88004e-05 5.77142e-08
-4.50401e-08 5.77142e-08 -1.26478e-05
0.000910875 -9.18071e-06 -1.47124e-06
-9.18071e-06 5.83078e-05 -3.3401e-11
-1.47124e-06 -3.3401e-11 -2.03381e-05
0.000370198 -0.00012952 -3.75046e-06
-0.00012952 0.000205839 -4.43687e-06
-3.75046e-06 -4.43687e-06 -1.68379e-05
0.000982354 -9.56781e-06 3.18239e-06
-9.56781e-06 0.00028203 5.71518e-06
3.18239e-06 5.71518e-06 0.000257196
0.000909341 -1.17162e-05 9.45273e-07
-1.17162e-05 6.36965e-05 -5.15493e-08
9.45273e-07 -5.15493e-08 -8.77874e-06
-8.57134e-06 2.80279e-05 -8.92413e-06
2.80279e-05 0.000477271 -2.16625e-05
-8.92413e-06 -2.16625e-05 -0.000161402
0.00152883 -4.06584e-05 2.76197e-06
-4.06584e-05 0.000550621 1.22692e-05
2.76197e-06 1.22692e-05 0.000469582
0.00131625 -1.51314e-07 -9.8763e-06
-1.51314e-07 0.000336895 -1.37958e-06
-9.8763e-06 -1.37958e-06 0.000263931
0.000917346 8.4791e-07 -3.88456e-08
8.4791e-07 0.000152728 1.59903e-07
-3.88456e-08 1.59903e-07 5.42201e-05
0.000564221 1.65795e-06 -7.4186e-06
1.65795e-06 -0.000101226 1.81321e-06
-7.4186e-06 1.81321e-06 -0.000180486
0.0013056 4.24041e-05 1.79647e-06
4.24041e-05 0.000512886 4.75287e-06
1.79647e-06 4.75287e-06 0.000461104
0.00158091 0.000171912 -6.10167e-05
0.000171912 0.000410006 1.14462e-05
-6.10167e-05 1.14462e-05 0.000446241
0.000781295 -7.19775e-07 -4.23997e-06
-7.19775e-07 6.00713e-05 -5.32263e-06
-4.23997e-06 -5.32263e-06 -2.81606e-05
0.00317127 0.000215631 4.97555e-05
0.000215631 0.000510611 -7.79073e-05
4.97555e-05 -7.79073e-05 -0.000773278
0.00494862 0.000398161 -3.34243e-05
0.000398161 0.00142336 2.98733e-05
-3.34243e-05 2.98733e-05 0.00117727
0.00117859 1.04784e-05 1.84923e-06
1.04784e-05 -0.000120979 8.72638e-06
1.84923e-06 8.72638e-06 -0.000187821
0.00313852 0.000278503 -3.00458e-05
0.000278503 0.000134447 1.97998e-05
-3.00458e-05 1.97998e-05 0.000732184
-0.000335131 -2.03594e-05 2.11873e-05
-2.03594e-05 -1.63186e-05 -2.80671e-06
2.11873e-05 -2.80671e-06 -0.000161378
0.00106482 -1.27286e-06 2.54384e-06
-1.27286e-06 0.000113051 -8.38676e-07
2.54384e-06 -8.38676e-07 4.32466e-05
0.00147669 3.18368e-05 1.22408e-05
3.18368e-05 -0.000157322 -4.6323e-06
1.22408e-05 -4.6323e-06 -0.000263484
0.00176933 -2.77826e-05 -1.29435e-05
-2.77826e-05 0.000136368 2.16655e-05
-1.29435e-05 2.16655e-05 0.000179223
-6.13288e-05 0.000499415 -3.91694e-06
0.000499415 -0.00106507 4.96445e-06
-3.91694e-06 4.96445e-06 1.06919e-05
0.00304895 0.000455668 2.40971e-06
0.000455668 4.79677e-05 -1.3114e-07
2.40971e-06 -1.3114e-07 0.000216112
0.00251056 -4.80762e-05 3.66552e-05
-4.80762e-05 0.000259648 -1.69896e-05
3.66552e-05 -1.69896e-05 -0.00138611
0.00067952 -6.87262e-05 2.7128e-05
-6.87262e-05 0.000289967 -7.1442e-06
2.7128e-05 -7.1442e-06 0.000210537
0.00102543 2.12739e-06 2.08621e-05
2.12739e-06 -0.000161534 -6.07246e-06
2.08621e-05 -6.07246e-06 -0.000288215
-0.00105861 0.000227097 9.36495e-06
0.000227097 -0.000723085 -1.13101e-05
9.36495e-06 -1.13101e-05 -0.000558437
-6.3326e-05 0.000458641 4.39038e-05
0.000458641 -0.000258758 -3.35418e-06
4.39038e-05 -3.35418e-06 9.12349e-05
0.00882195 0.000533562 2.5472e-05
0.000533562 0.00302543 -4.99596e-05
2.5472e-05 -4.99596e-05 0.00166152
0.00288498 -0.000278785 -6.09855e-05
-0.000278785 0.00030997 8.78649e-05
-6.09855e-05 8.78649e-05 -0.00013699
0.000343786 -3.51964e-05 -4.01294e-06
-3.51964e-05 -3.90362e-05 7.44475e-06
-4.01294e-06 7.44475e-06 -0.000165389
0.000407931 -2.80708e-05 3.82823e-07
-2.80708e-05 8.16619e-05 -6.45238e-07
3.82823e-07 -6.45238e-07 -9.21593e-05
0.00161545 -0.000159654 1.2042e-05
-0.000159654 0.000540721 -3.44797e-06
1.2042e-05 -3.44797e-06 0.000406543
0.000788247 1.27768e-05 -2.41804e-06
1.27768e-05 6.44356e-05 -1.38833e-06
-2.41804e-06 -1.38833e-06 -1.65132e-05
0.000397873 -5.6032e-05 9.40389e-07
-5.6032e-05 -3.31406e-05 -6.02577e-07
9.40389e-07 -6.02577e-07 -0.000219535
0.00114939 -0.0001243 4.41047e-06
-0.0001243 0.000229095 5.31191e-06
4.41047e-06 5.31191e-06 3.57665e-05
0.00163229 -0.000126864 -1.44017e-06
-0.000126864 0.000479211 -8.36418e-07
-1.44017e-06 -8.36418e-07 0.00034806
0.00125484 -0.000117296 1.85075e-07
-0.000117296 0.000292673 1.0679e-06
1.85075e-07 1.0679e-06 0.000109097
0.00121688 -0.000137974 -9.56085e-07
-0.000137974 0.000171848 9.12974e-07
-9.56085e-07 9.12974e-07 -1.27193e-05
0.00120763 -0.000109858 -7.24726e-07
-0.000109858 0.000241713 -1.96832e-06
-7.24726e-07 -1.96832e-06 9.53588e-05
0.00158625 -0.000141196 1.62807e-07
-0.000141196 0.000376145 4.40178e-07
1.62807e-07 4.40178e-07 0.000212469
0.00123661 -0.000134557 -1.28091e-06
-0.000134557 0.000139967 -2.57043e-07
-1.28091e-06 -2.57043e-07 -2.63943e-05
0.00143392 -0.000135782 -3.03694e-06
-0.000135782 0.000200713 -1.08151e-06
-3.03694e-06 -1.08151e-06 5.69378e-05
0.00166167 -0.000137397 -4.52356e-06
-0.000137397 0.000390597 3.97215e-06
-4.52356e-06 3.97215e-06 0.000260228
0.00141505 -0.000134092 -8.0791e-07
-0.000134092 0.000252872 6.20806e-07
-8.0791e-07 6.20806e-07 0.000104599
0.000647029 -8.10556e-05 -1.77918e-07
-8.10556e-05 -8.49074e-05 -3.51766e-07
-1.77918e-07 -3.51766e-07 -0.000187408
0.000873648 -9.38783e-05 1.51271e-06
-9.38783e-05 3.3655e-05 -4.37913e-07
1.51271e-06 -4.37913e-07 -7.89473e-05
0.000987245 -0.000103852 1.70992e-06
-0.000103852 7.5616e-05 -1.94775e-06
1.70992e-06 -1.94775e-06 -5.76479e-05
0.00102931 -8.96412e-05 -3.07918e-07
-8.96412e-05 0.000130117 5.31493e-07
-3.07918e-07 5.31493e-07 3.26654e-05
0.0011228 -9.87582e-05 -1.57145e-07
-9.87582e-05 0.000182242 -3.75878e-07
-1.57145e-07 -3.75878e-07 8.01021e-05
0.000815152 -8.52838e-05 3.444e-06
-8.52838e-05 2.648e-05 -2.13051e-07
3.444e-06 -2.13051e-07 -7.63746e-05
0.000856896 1.14559e-05 1.16899e-07
1.14559e-05 3.70831e-05 1.42677e-06
1.16899e-07 1.42677e-06 -3.69641e-05
0.000869414 -4.10931e-05 5.0206e-08
-4.10931e-05 5.45321e-05 4.82503e-07
5.0206e-08 4.82503e-07 -3.28298e-05
0.00110528 -7.98518e-05 1.23983e-06
-7.98518e-05 0.000187677 -1.27738e-06
1.23983e-06 -1.27738e-06 8.81546e-05
0.00079768 4.30783e-05 -1.00644e-06
4.30783e-05 3.48936e-06 2.17952e-06
-1.00644e-06 2.17952e-06 -3.9458e-05
0.000871005 1.6349e-05 -1.43923e-07
1.6349e-05 3.93879e-05 -8.10127e-08
-1.43923e-07 -8.10127e-08 -2.451e-05
0.000962931 -2.97644e-05 4.3919e-07
-2.97644e-05 9.40419e-05 -1.02478e-06
4.3919e-07 -1.02478e-06 1.60097e-05
0.00075074 3.53048e-05 -3.18021e-06
3.53048e-05 -2.3841e-05 4.62007e-06
-3.18021e-06 4.62007e-06 -3.30464e-05
0.000808089 3.86426e-05 1.48796e-07
3.86426e-05 4.55992e-06 -7.71695e-08
1.48796e-07 -7.71695e-08 -3.27158e-05
0.000859042 2.03532e-05 4.88009e-07
2.03532e-05 2.79664e-05 -1.3431e-06
4.88009e-07 -1.3431e-06 -2.73648e-05
0.000818615 3.43144e-05 7.41149e-07
3.43144e-05 4.34766e-06 -1.94913e-06
7.41149e-07 -1.94913e-06 -2.92249e-05
0.000757726 3.19176e-05 5.29304e-08
3.19176e-05 -2.70819e-05 -2.04505e-08
5.29304e-08 -2.04505e-08 -3.40091e-05
0.00214135 4.46557e-05 -2.13658e-05
4.46557e-05 0.00071448 3.44744e-06
-2.13658e-05 3.44744e-06 0.000731592
0.000781725 2.81191e-05 1.67081e-06
2.81191e-05 -2.16303e-05 -3.27988e-06
1.67081e-06 -3.27988e-06 -2.65265e-05
0.00212452 3.88336e-05 1.04988e-06
3.88336e-05 0.000699296 6.5376e-08
1.04988e-06 6.5376e-08 0.000717881
0.00211384 3.29127e-05 1.72257e-05
3.29127e-05 0.000688049 -3.65082e-06
1.72257e-05 -3.65082e-06 0.000707907
0.000917932 9.83213e-06 -1.63096e-07
9.83213e-06 6.00959e-05 -5.64398e-07
-1.63096e-07 -5.64398e-07 -7.58517e-06
0.000869383 2.36317e-05 -8.87494e-07
2.36317e-05 3.17939e-05 -9.75525e-07
-8.87494e-07 -9.75525e-07 -2.54575e-05
0.000809267 -2.45048e-05 -6.96095e-07
-2.45048e-05 -5.37352e-06 -1.60539e-06
-6.96095e-07 -1.60539e-06 -3.99408e-05
0.000872904 1.13256e-05 -1.40712e-07
1.13256e-05 3.03154e-05 -4.61185e-08
-1.40712e-07 -4.61185e-08 -2.26727e-05
0.000779524 -2.40684e-05 -1.0212e-06
-2.40684e-05 -2.61246e-05 -3.26241e-06
-1.0212e-06 -3.26241e-06 -3.15121e-05
0.000822778 -1.9108e-05 -1.09798e-07
-1.9108e-05 -4.05537e-07 3.94336e-09
-1.09798e-07 3.94336e-09 -3.28732e-05
0.00084179 4.66102e-06 1.43795e-07
4.66102e-06 1.37349e-05 3.96675e-08
1.43795e-07 3.96675e-08 -3.6113e-05
0.00214919 -2.70006e-05 -1.44747e-05
-2.70006e-05 0.000702517 -3.91705e-06
-1.44747e-05 -3.91705e-06 0.000722941
0.000776253 -1.97064e-05 -1.19896e-07
-1.97064e-05 -3.34758e-05 -2.16477e-08
-1.19896e-07 -2.16477e-08 -3.6395e-05
0.000831408 -1.62042e-05 8.55643e-08
-1.62042e-05 1.77133e-06 8.39363e-07
8.55643e-08 8.39363e-07 -2.84769e-05
0.00208384 -2.0035e-05 -1.71303e-06
-2.0035e-05 0.000662588 4.48966e-08
-1.71303e-06 4.48966e-08 0.000684675
0.000771869 -1.47674e-05 4.35198e-07
-1.47674e-05 -4.08375e-05 3.06226e-06
4.35198e-07 3.06226e-06 -4.13564e-05
0.00203352 -1.29161e-05 6.7804e-06
-1.29161e-05 0.000631957 3.91593e-06
6.7804e-06 3.91593e-06 0.000655317
0.000905569 1.5648e-06 -3.90889e-06
1.5648e-06 5.53402e-05 -4.35134e-06
-3.90889e-06 -4.35134e-06 -1.08066e-05
0.000911258 9.68461e-07 2.87791e-06
9.68461e-07 0.000126078 -2.32455e-06
2.87791e-06 -2.32455e-06 3.90925e-05
0.00109158 -9.58266e-08 -8.80664e-06
-9.58266e-08 0.000137035 5.99914e-06
-8.80664e-06 5.99914e-06 6.98205e-05
0.000879999 -9.79287e-07 -2.44909e-07
-9.79287e-07 3.95101e-05 -9.74642e-09
-2.44909e-07 -9.74642e-09 -2.74384e-05
0.00093866 -1.22447e-05 -9.24984e-08
-1.22447e-05 7.2364e-05 2.5577e-07
-9.24984e-08 2.5577e-07 1.0319e-06
0.000883568 -1.03851e-05 9.72024e-08
-1.03851e-05 4.70383e-05 -1.36745e-06
9.72024e-08 -1.36745e-06 -2.89448e-05
0.000844438 -1.90248e-05 -4.9696e-08
-1.90248e-05 2.33438e-05 -5.58991e-07
-4.9696e-08 -5.58991e-07 -4.74193e-05
0.00103081 3.0163e-05 -4.31088e-07
3.0163e-05 0.000128775 -7.55609e-08
-4.31088e-07 -7.55609e-08 5.02122e-05
0.000839303 -2.19889e-05 -1.04741e-07
-2.19889e-05 1.37009e-05 1.43272e-07
-1.04741e-07 1.43272e-07 -4.98942e-05
0.000867227 -8.95107e-06 1.72921e-07
-8.95107e-06 3.54784e-05 -3.42614e-07
1.72921e-07 -3.42614e-07 -3.5196e-05
0.000928794 1.65291e-05 -1.82e-07
1.65291e-05 7.08833e-05 -4.80222e-08
-1.82e-07 -4.80222e-08 -3.04879e-07
0.000949911 2.49897e-05 2.32696e-07
2.49897e-05 8.03779e-05 3.87695e-07
2.32696e-07 3.87695e-07 4.37847e-06
0.00100949 1.84808e-05 -1.32808e-07
1.84808e-05 0.000117889 5.302e-07
-1.32808e-07 5.302e-07 4.2411e-05
0.00154203 -2.78313e-05 2.99547e-05
-2.78313e-05 1.94612e-05 3.09856e-05
2.99547e-05 3.09856e-05 -0.000114574
0.0014994 -1.40256e-06 1.93017e-06
-1.40256e-06 9.60751e-05 9.9139e-06
1.93017e-06 9.9139e-06 3.73135e-05
0.00106898 1.03922e-05 2.78521e-06
1.03922e-05 4.6012e-06 -7.14327e-09
2.78521e-06 -7.14327e-09 -6.01373e-05
0.003101 -0.000121841 -1.21989e-05
-0.000121841 0.00012307 -2.4037e-05
-1.21989e-05 -2.4037e-05 0.000707397
-0.00285278 9.94159e-05 -9.92369e-06
9.94159e-05 -0.00237455 -4.68129e-05
-9.92369e-06 -4.68129e-05 -0.00255799
0.00180053 -0.000320836 -0.000103518
-0.000320836 -0.000476025 8.40118e-05
-0.000103518 8.40118e-05 -0.00100246
0.0078968 0.000196923 -3.4044e-05
0.000196923 0.00226892 -4.15266e-05
-3.4044e-05 -4.15266e-05 0.00126558
0.00215925 -0.000270273 -3.92109e-05
-0.000270273 -5.13336e-05 4.08657e-05
-3.92109e-05 4.08657e-05 -0.000466504
0.00804473 -0.00014876 3.9834e-05
-0.00014876 0.0026261 -7.39776e-07
3.9834e-05 -7.39776e-07 0.0014175
0.000818819 -0.000188338 1.59032e-05
-0.000188338 -0.00083475 -1.49197e-05
1.59032e-05 -1.49197e-05 -0.000933392
0.000693676 -0.000227374 -8.34164e-06
-0.000227374 -0.00144736 -2.3243e-05
-8.34164e-06 -2.3243e-05 -0.00067398
0.00230694 -8.62831e-05 -7.45368e-05
-8.62831e-05 0.000322544 -4.46978e-05
-7.45368e-05 -4.46978e-05 -0.000135918
0.00813342 -0.000411338 -2.39445e-05
-0.000411338 0.00222191 4.88435e-05
-2.39445e-05 4.88435e-05 0.00132679
0.00768761 -0.00061108 3.17717e-05
-0.00061108 0.0022576 1.3154e-05
3.17717e-05 1.3154e-05 0.00247752
0.00254176 -0.000388118 1.35711e-05
-0.000388118 0.000213497 4.65246e-07
1.35711e-05 4.65246e-07 0.00116688
0.000833277 1.64356e-05 7.17686e-07
1.64356e-05 3.73977e-05 1.68825e-06
7.17686e-07 1.68825e-06 -2.90788e-05
0.00100922 -2.74783e-05 -1.10624e-07
-2.74783e-05 0.000107182 2.5154e-07
-1.10624e-07 2.5154e-07 3.35684e-05
0.000835478 1.39916e-06 1.71166e-07
1.39916e-06 1.83402e-05 -1.00652e-06
1.71166e-07 -1.00652e-06 -5.98028e-05
0.00214884 -0.000133644 1.76748e-05
-0.000133644 0.00108529 -1.40686e-06
1.76748e-05 -1.40686e-06 0.000897396
0.000955594 -2.89133e-05 -7.32999e-06
-2.89133e-05 0.000278507 -6.17227e-06
-7.32999e-06 -6.17227e-06 0.000258217
0.000876135 -7.78472e-06 -4.93374e-07
-7.78472e-06 3.32595e-05 -5.7563e-07
-4.93374e-07 -5.7563e-07 -3.87612e-05
0.000886048 -4.24358e-05 -1.34765e-06
-4.24358e-05 4.45278e-05 -2.46938e-06
-1.34765e-06 -2.46938e-06 -3.33787e-05
0.000872015 -1.35926e-05 -4.61071e-07
-1.35926e-05 4.54515e-05 -2.61109e-07
-4.61071e-07 -2.61109e-07 -2.63523e-05
0.000575022 -3.80295e-05 1.19873e-06
-3.80295e-05 6.73075e-05 4.48172e-06
1.19873e-06 4.48172e-06 -1.68526e-05
-0.000360281 -5.30081e-06 2.08299e-05
-5.30081e-06 0.000203862 -2.16535e-05
2.08299e-05 -2.16535e-05 -0.000399559
-8.62687e-05 -9.65671e-06 -1.52688e-06
-9.65671e-06 -0.000286429 6.05578e-06
-1.52688e-06 6.05578e-06 -0.00038778
0.00167001 0.000127676 2.14678e-05
0.000127676 0.000740135 -8.20985e-06
2.14678e-05 -8.20985e-06 0.000442895
0.00155592 -2.04885e-06 1.51446e-05
-2.04885e-06 0.000187742 -7.31478e-07
1.51446e-05 -7.31478e-07 6.78321e-05
0.00090385 8.99541e-07 -7.13181e-07
8.99541e-07 9.57688e-05 -7.83856e-07
-7.13181e-07 -7.83856e-07 1.8559e-05
0.000656867 3.05123e-07 2.97318e-07
3.05123e-07 -2.68081e-05 -1.72901e-07
2.97318e-07 -1.72901e-07 -0.000136298
-0.000701839 -2.55057e-05 -2.14359e-05
-2.55057e-05 -0.000165237 1.09946e-05
-2.14359e-05 1.09946e-05 -0.000323002
0.001319 3.67224e-05 2.89409e-05
3.67224e-05 -0.000258481 -4.34583e-05
2.89409e-05 -4.34583e-05 -0.000504153
0.00109083 -1.59222e-06 8.5257e-06
-1.59222e-06 0.000138488 -6.25766e-06
8.5257e-06 -6.25766e-06 6.99743e-05
0.00932912 0.000201039 5.91942e-05
0.000201039 0.00307452 7.98655e-06
5.91942e-05 7.98655e-06 0.00156203
0.00532261 0.000619543 -4.94383e-05
0.000619543 0.00139522 3.09603e-05
-4.94383e-05 3.09603e-05 0.00147357
0.00111656 2.41422e-05 -2.00587e-05
2.41422e-05 -0.000366949 1.66836e-05
-2.00587e-05 1.66836e-05 -0.000511129
-0.00156979 0.000528716 -1.4359e-05
0.000528716 -0.0021543 -1.80521e-05
-1.4359e-05 -1.80521e-05 -0.000882604
0.00020754 -4.05229e-05 -7.58248e-06
-4.05229e-05 9.94665e-05 -7.72341e-07
-7.58248e-06 -7.72341e-07 -1.80833e-06
0.00113222 -5.77445e-07 7.58253e-07
-5.77445e-07 -9.46212e-05 -6.66652e-07
7.58253e-07 -6.66652e-07 -0.000218323
-0.00127017 0.000260021 -2.72161e-05
0.000260021 -0.000794951 9.20559e-06
-2.72161e-05 9.20559e-06 -0.000589419
0.00212904 -0.000246162 -6.98033e-06
-0.000246162 7.78244e-05 2.88654e-05
-6.98033e-06 2.88654e-05 -0.00021829
0.00378055 0.000644857 7.34495e-06
0.000644857 0.00104672 5.62576e-06
7.34495e-06 5.62576e-06 0.00136197
0.00544823 0.00015052 3.49686e-05
0.00015052 0.00134114 -1.93998e-05
3.49686e-05 -1.93998e-05 -0.000173526
0.00253121 -0.000194997 2.57459e-05
-0.000194997 0.000740564 1.05107e-05
2.57459e-05 1.05107e-05 0.000829499
-0.00109744 7.71413e-05 2.40334e-05
7.71413e-05 -0.000465874 -1.45477e-06
2.40334e-05 -1.45477e-06 -0.000617897
0.00289767 0.000478904 2.11147e-05
0.000478904 0.00133538 -5.62043e-06
2.11147e-05 -5.62043e-06 0.00148444
0.00503521 0.000478315 -4.11053e-05
0.000478315 0.00128 3.72121e-05
-4.11053e-05 3.72121e-05 -5.08969e-06
0.00213318 -0.000353775 -1.46164e-05
-0.000353775 0.000109805 2.62092e-05
-1.46164e-05 2.62092e-05 -0.000422445
0.000614579 -2.94825e-06 -3.09557e-06
-2.94825e-06 0.000183596 4.84861e-06
-3.09557e-06 4.84861e-06 1.47248e-05
0.000777121 -0.000124411 1.38034e-06
-0.000124411 0.000140537 -2.61614e-06
1.38034e-06 -2.61614e-06 -2.13276e-05
0.00204517 -0.000170396 8.4386e-06
-0.000170396 0.000431503 1.04224e-06
8.4386e-06 1.04224e-06 0.000370022
-0.000108732 -1.63518e-05 -1.34876e-06
-1.63518e-05 -0.000270479 1.35731e-08
-1.34876e-06 1.35731e-08 -0.000460282
0.000765166 -0.000104596 2.78953e-06
-0.000104596 5.017e-05 8.50691e-08
2.78953e-06 8.50691e-08 -0.000141159
0.00110497 -0.000154877 -6.61243e-08
-0.000154877 6.84962e-06 7.21678e-07
-6.61243e-08 7.21678e-07 -0.000148006
0.00143029 -0.000124407 -1.4618e-06
-0.000124407 0.00036905 -1.38292e-06
-1.4618e-06 -1.38292e-06 0.000186988
0.00118319 -0.000135155 -8.52203e-07
-0.000135155 0.000146775 -8.20514e-07
-8.52203e-07 -8.20514e-07 -3.34394e-05
0.0017818 -0.000167668 -2.05851e-06
-0.000167668 0.000320292 -2.10962e-06
-2.05851e-06 -2.10962e-06 0.000175453
0.0015041 -0.000137718 1.01488e-06
-0.000137718 0.000326795 -1.56544e-06
1.01488e-06 -1.56544e-06 0.000163773
0.00127422 -0.000133287 5.25299e-07
-0.000133287 0.000156761 -9.17696e-07
5.25299e-07 -9.17696e-07 -5.21024e-06
0.00147751 -0.00013859 -2.56251e-06
-0.00013859 0.00015937 -3.31199e-06
-2.56251e-06 -3.31199e-06 2.35868e-05
0.00143206 -0.000125688 -2.46003e-06
-0.000125688 0.000129054 -2.5158e-06
-2.46003e-06 -2.5158e-06 4.55979e-06
0.00114298 -0.000117242 -2.83377e-06
-0.000117242 7.72899e-05 3.55509e-07
-2.83377e-06 3.55509e-07 -5.59113e-05
0.00129702 -0.000128781 4.34772e-07
-0.000128781 0.00012827 -8.08185e-07
4.34772e-07 -8.08185e-07 -1.40504e-05
0.00131959 -0.000116242 -2.20453e-06
-0.000116242 0.000229521 2.50504e-06
-2.20453e-06 2.50504e-06 0.000113967
0.00131613 -0.000122774 -1.93362e-07
-0.000122774 0.000213105 7.09528e-07
-1.93362e-07 7.09528e-07 8.09974e-05
0.00127677 -0.000129186 1.88359e-06
-0.000129186 0.000177895 -1.05618e-06
1.88359e-06 -1.05618e-06 2.67309e-05
0.00096227 -9.16605e-05 -6.93449e-07
-9.16605e-05 7.87918e-05 -6.7476e-07
-6.93449e-07 -6.7476e-07 -1.74344e-05
0.000763444 -8.57231e-05 -2.63875e-07
-8.57231e-05 -2.26142e-05 -1.15482e-06
-2.63875e-07 -1.15482e-06 -0.000123989
0.00100408 -9.93286e-05 4.75628e-06
-9.93286e-05 0.00010125 -3.19547e-06
4.75628e-06 -3.19547e-06 -1.06476e-05
0.000910905 -4.21396e-05 -3.96988e-07
-4.21396e-05 6.31691e-05 1.32599e-06
-3.96988e-07 1.32599e-06 -1.9567e-05
0.00101072 -8.27162e-05 2.76842e-07
-8.27162e-05 0.000120485 4.98922e-07
2.76842e-07 4.98922e-07 2.43344e-05
0.00107213 -9.59051e-05 9.6431e-07
-9.59051e-05 0.000157092 6.68179e-07
9.6431e-07 6.68179e-07 5.46621e-05
0.00080996 6.04475e-05 -4.96756e-07
6.04475e-05 1.64844e-05 2.60145e-06
-4.96756e-07 2.60145e-06 -3.66859e-05
0.000887123 1.63762e-06 -6.36085e-09
1.63762e-06 5.39362e-05 -3.00869e-08
-6.36085e-09 -3.00869e-08 -2.12564e-05
0.000972213 -4.80857e-05 3.80513e-08
-4.80857e-05 0.000108361 -5.00626e-07
3.80513e-08 -5.00626e-07 2.14041e-05
0.00136553 4.60659e-05 -1.26771e-05
4.60659e-05 0.000312375 3.13471e-06
-1.26771e-05 3.13471e-06 0.000302967
0.000788838 4.20573e-05 1.51638e-08
4.20573e-05 -1.35313e-06 -1.65927e-07
1.51638e-08 -1.65927e-07 -4.42144e-05
0.000854557 6.4795e-06 6.10708e-07
6.4795e-06 3.18289e-05 -1.46794e-06
6.10708e-07 -1.46794e-06 -3.28276e-05
0.000916236 3.05872e-05 -2.00261e-05
3.05872e-05 6.9031e-05 3.53005e-06
-2.00261e-05 3.53005e-06 7.8297e-05
0.00107747 3.9728e-05 -5.29658e-06
3.9728e-05 0.000150752 3.70456e-07
-5.29658e-06 3.70456e-07 0.000142749
0.000801097 4.3193e-05 5.31357e-07
4.3193e-05 1.5304e-06 -2.12028e-06
5.31357e-07 -2.12028e-06 -3.62167e-05
0.000778347 3.26503e-05 1.88987e-06
3.26503e-05 -1.64257e-05 -3.3439e-06
1.88987e-06 -3.3439e-06 -2.34456e-05
0.00214972 4.48567e-05 8.29554e-07
4.48567e-05 0.000719951 6.71018e-08
8.29554e-07 6.71018e-08 0.000736835
0.00212753 3.89892e-05 2.00599e-05
3.89892e-05 0.000701844 -3.544e-06
2.00599e-05 -3.544e-06 0.000720265
0.0008576 -7.59888e-06 -3.36981e-08
-7.59888e-06 2.8893e-05 -1.20347e-06
-3.36981e-08 -1.20347e-06 -4.14239e-05
0.000876863 2.69724e-06 -4.3336e-07
2.69724e-06 3.49333e-05 -1.32874e-06
-4.3336e-07 -1.32874e-06 -2.42494e-05
0.000911356 -7.89636e-06 -1.26633e-08
-7.89636e-06 5.52278e-05 -2.05495e-08
-1.26633e-08 -2.05495e-08 -1.19354e-05
0.000803531 -3.57549e-05 -5.36095e-07
-3.57549e-05 -3.5271e-06 -1.909e-06
-5.36095e-07 -1.909e-06 -4.06322e-05
0.000887013 -1.31786e-06 4.70956e-07
-1.31786e-06 3.92837e-05 -8.96367e-08
4.70956e-07 -8.96367e-08 -1.66665e-05
0.000766036 -2.76682e-05 -1.37584e-06
-2.76682e-05 -2.74091e-05 -3.38195e-06
-1.37584e-06 -3.38195e-06 -3.49271e-05
0.00081902 -2.08441e-05 -1.98506e-07
-2.08441e-05 2.21743e-07 1.26316e-08
-1.98506e-07 1.26316e-08 -3.43438e-05
0.000893463 3.00175e-05 9.60001e-07
3.00175e-05 4.53466e-05 7.31045e-07
9.60001e-07 7.31045e-07 -1.04635e-05
0.00220471 -3.32943e-05 -1.81549e-05
-3.32943e-05 0.000737475 -3.85401e-06
-1.81549e-05 -3.85401e-06 0.000756326
0.000765317 -2.37286e-05 -2.42231e-07
-2.37286e-05 -3.35069e-05 -5.57077e-09
-2.42231e-07 -5.57077e-09 -3.88147e-05
0.000837386 -1.89507e-05 3.41905e-07
-1.89507e-05 7.72938e-06 1.45535e-06
3.41905e-07 1.45535e-06 -2.4833e-05
0.00213575 -2.67476e-05 -1.54205e-06
-2.67476e-05 0.000694777 5.78782e-08
-1.54205e-06 5.78782e-08 0.000715423
0.000760602 -1.93793e-05 5.28946e-07
-1.93793e-05 -4.17031e-05 3.15375e-06
5.28946e-07 3.15375e-06 -4.45111e-05
0.00207043 -1.96462e-05 1.00252e-05
-1.96462e-05 0.00065493 3.88638e-06
1.00252e-05 3.88638e-06 0.000677234
0.00147359 -3.162e-06 1.88909e-05
-3.162e-06 0.000180364 5.27282e-06
1.88909e-05 5.27282e-06 8.89787e-05
0.000930678 2.19544e-06 1.09002e-06
2.19544e-06 7.09377e-05 -3.39066e-07
1.09002e-06 -3.39066e-07 5.64814e-06
0.000836369 3.05686e-07 4.54385e-06
3.05686e-07 0.000100979 4.84664e-06
4.54385e-06 4.84664e-06 7.82741e-06
0.000955459 3.48689e-05 -6.66945e-07
3.48689e-05 9.49839e-05 -1.66546e-08
-6.66945e-07 -1.66546e-08 1.34553e-05
0.000949278 -4.60463e-06 1.15203e-07
-4.60463e-06 7.62663e-05 3.22023e-07
1.15203e-07 3.22023e-07 9.67514e-06
0.000924819 -1.58671e-05 8.02496e-08
-1.58671e-05 6.4202e-05 4.30112e-07
8.02496e-08 4.30112e-07 -7.6925e-06
0.000938765 -2.08778e-05 1.12111e-07
-2.08778e-05 7.27111e-05 -1.76233e-07
1.12111e-07 -1.76233e-07 2.30833e-06
0.000946803 6.8385e-06 1.10172e-07
6.8385e-06 8.0848e-05 -3.6468e-07
1.10172e-07 -3.6468e-07 4.41127e-06
0.000962938 1.93556e-05 -5.30119e-08
1.93556e-05 9.09924e-05 4.72497e-07
-5.30119e-08 4.72497e-07 1.31658e-05
0.000971129 2.77313e-05 -3.09132e-07
2.77313e-05 9.79328e-05 -1.12917e-06
-3.09132e-07 -1.12917e-06 1.58323e-05
0.000822787 1.96499e-07 2.30101e-07
1.96499e-07 1.87474e-05 2.71343e-08
2.30101e-07 2.71343e-08 -5.70493e-05
0.000897728 3.73241e-05 3.58213e-07
3.73241e-05 5.81598e-05 -2.39418e-07
3.58213e-07 -2.39418e-07 -1.44755e-05
0.000940853 -3.37502e-05 3.21142e-07
-3.37502e-05 6.83234e-05 -4.29262e-07
3.21142e-07 -4.29262e-07 -4.88427e-06
0.000963312 1.03248e-05 -8.07118e-08
1.03248e-05 9.30249e-05 9.80317e-08
-8.07118e-08 9.80317e-08 1.8171e-05
0.00142494 1.36972e-05 2.56885e-06
1.36972e-05 0.000340688 6.85527e-07
2.56885e-06 6.85527e-07 0.00026432
0.00153368 -0.000252124 3.50381e-05
-0.000252124 0.00048905 2.45881e-05
3.50381e-05 2.45881e-05 0.000759774
0.00177516 -2.47979e-05 2.82454e-06
-2.47979e-05 0.000152391 8.51891e-06
2.82454e-06 8.51891e-06 2.08931e-05
0.00159006 -2.56572e-06 1.99768e-06
-2.56572e-06 0.000133738 -2.98235e-06
1.99768e-06 -2.98235e-06 7.64657e-05
0.00320169 -0.000284046 -3.3658e-05
-0.000284046 2.71122e-06 -2.7084e-05
-3.3658e-05 -2.7084e-05 0.000888261
0.0041524 -0.000310653 2.82929e-06
-0.000310653 0.000340726 -5.98019e-05
2.82929e-06 -5.98019e-05 0.000225948
0.00294522 6.6657e-07 -9.22898e-05
6.6657e-07 -0.000398549 8.90733e-05
-9.22898e-05 8.90733e-05 -0.0011089
0.00215834 -0.000291015 -5.69544e-05
-0.000291015 0.000180466 8.78853e-05
-5.69544e-05 8.78853e-05 -0.000205409
0.00266175 -0.000146978 -8.62111e-06
-0.000146978 0.000652838 1.67541e-05
-8.62111e-06 1.67541e-05 0.000363333
0.000490472 -0.000415761 -1.32074e-05
-0.000415761 -0.000899296 -3.18095e-06
-1.32074e-05 -3.18095e-06 0.000147842
0.00484174 -0.000128409 1.2582e-05
-0.000128409 0.00102765 4.54907e-05
1.2582e-05 4.54907e-05 -0.000260155
1.71043e-06 -0.000314546 -2.79634e-06
-0.000314546 -0.00116045 -1.31217e-06
-2.79634e-06 -1.31217e-06 -0.000891351
0.00313293 0.000155215 -6.93472e-05
0.000155215 0.000656917 -4.17737e-05
-6.93472e-05 -4.17737e-05 0.000461237
0.00862015 -0.000413286 2.38715e-06
-0.000413286 0.0029024 3.72435e-05
2.38715e-06 3.72435e-05 0.00177212
-5.35584e-05 -0.000387053 1.09907e-05
-0.000387053 -0.000214517 -9.44245e-06
1.09907e-05 -9.44245e-06 9.96765e-05
0.000673081 0.000101412 -1.28145e-06
0.000101412 -3.2304e-05 -4.23025e-07
-1.28145e-06 -4.23025e-07 -9.72918e-05
0.00106804 1.7428e-05 2.28335e-06
1.7428e-05 0.000154472 9.18566e-08
2.28335e-06 9.18566e-08 8.93606e-05
0.000946644 -8.85492e-06 -5.6744e-07
-8.85492e-06 7.88565e-05 -8.2454e-07
-5.6744e-07 -8.2454e-07 3.66458e-06
-0.000752339 -2.39426e-05 -1.92441e-05
-2.39426e-05 -9.47438e-05 -2.14211e-05
-1.92441e-05 -2.14211e-05 -0.000657948
-5.42434e-05 -1.79676e-05 -7.78193e-07
-1.79676e-05 -0.000259196 -4.90748e-06
-7.78193e-07 -4.90748e-06 -0.000347331
0.000761658 7.04431e-06 9.76757e-07
7.04431e-06 -8.88907e-06 3.69056e-07
9.76757e-07 3.69056e-07 -8.0375e-05
0.000775883 4.42947e-05 1.51108e-06
4.42947e-05 0.000122055 6.47148e-07
1.51108e-06 6.47148e-07 1.89041e-05
0.00067396 7.79579e-05 1.44764e-06
7.79579e-05 0.00018387 -1.24634e-05
1.44764e-06 -1.24634e-05 -5.17887e-05
-0.000620368 8.64358e-05 1.21984e-05
8.64358e-05 -0.00061284 1.17985e-05
1.21984e-05 1.17985e-05 -0.000751241
0.00134931 -9.86981e-06 4.2878e-05
-9.86981e-06 0.000866154 -1.92859e-06
4.2878e-05 -1.92859e-06 0.000738659
0.00117399 -2.14233e-06 -1.99625e-06
-2.14233e-06 2.06613e-05 -6.79665e-07
-1.99625e-06 -6.79665e-07 -8.21563e-05
0.000488615 2.06815e-06 7.91053e-06
2.06815e-06 -0.00014759 -2.08569e-06
7.91053e-06 -2.08569e-06 -0.000229532
5.25611e-05 -3.45146e-05 3.2625e-06
-3.45146e-05 4.26382e-05 4.46374e-06
3.2625e-06 4.46374e-06 -6.93179e-05
0.00164009 -0.000233622 2.3061e-05
-0.000233622 -0.000169585 -3.4995e-05
2.3061e-05 -3.4995e-05 -0.000367764
0.00123915 -3.87611e-06 -1.91865e-05
-3.87611e-06 -2.66702e-05 -2.66186e-06
-1.91865e-05 -2.66186e-06 -0.000145883
0.00194213 0.000148955 2.00523e-07
0.000148955 -0.000169021 1.44576e-05
2.00523e-07 1.44576e-05 -0.00147096
-0.0023759 0.00041586 -4.57968e-05
0.00041586 -0.00185756 8.22393e-06
-4.57968e-05 8.22393e-06 -0.00144699
0.0012256 0.000304443 -4.64921e-05
0.000304443 0.000392844 2.25376e-05
-4.64921e-05 2.25376e-05 0.000805526
0.00164157 -0.00015775 -4.65982e-06
-0.00015775 0.000254053 4.42996e-06
-4.65982e-06 4.42996e-06 0.000396923
0.00113376 0.000119907 -2.09869e-06
0.000119907 0.000702912 2.91376e-06
-2.09869e-06 2.91376e-06 0.000732461
-0.00356268 0.000238474 9.3641e-06
0.000238474 -0.00135598 4.24031e-07
9.3641e-06 4.24031e-07 -0.00142588
0.00306517 -0.000366765 -7.15185e-06
-0.000366765 0.000502448 1.49708e-05
-7.15185e-06 1.49708e-05 -0.000303459
0.00692191 0.000410391 -1.63938e-05
0.000410391 0.0021032 1.79187e-06
-1.63938e-05 1.79187e-06 0.000947658
0.000212249 -0.000160844 -2.98911e-06
-0.000160844 -0.000459002 5.22031e-06
-2.98911e-06 5.22031e-06 -0.000410945
-0.00462192 0.000118539 1.46194e-05
0.000118539 -0.00230327 -1.03153e-05
1.46194e-05 -1.03153e-05 -0.00222536
0.00659904 0.000378033 -6.94333e-07
0.000378033 0.0021675 3.10233e-06
-6.94333e-07 3.10233e-06 0.00114975
0.00323467 -0.000170251 -2.04313e-05
-0.000170251 -3.83829e-05 2.85645e-05
-2.04313e-05 2.85645e-05 -0.000599032
-0.000186163 -8.28562e-05 -7.90282e-06
-8.28562e-05 -0.000303759 -1.30364e-06
-7.90282e-06 -1.30364e-06 -0.000505309
0.00127165 -0.000140353 -9.63133e-07
-0.000140353 8.08973e-05 -1.41759e-07
-9.63133e-07 -1.41759e-07 3.52149e-05
0.00166608 -0.000160284 4.23057e-06
-0.000160284 4.24472e-05 -3.59177e-06
4.23057e-06 -3.59177e-06 3.06102e-05
0.000368606 -8.44023e-05 -1.30464e-06
-8.44023e-05 -0.000133147 -4.11838e-06
-1.30464e-06 -4.11838e-06 -0.000324404
0.0012463 -0.000157742 -1.09309e-06
-0.000157742 7.20618e-05 -1.75831e-06
-1.09309e-06 -1.75831e-06 -8.2015e-05
0.00158572 -0.000175104 -3.68986e-06
-0.000175104 5.31865e-05 -2.88045e-06
-3.68986e-06 -2.88045e-06 -5.55035e-05
0.00114963 -0.000132485 -3.34928e-08
-0.000132485 0.000121683 -2.50067e-06
-3.34928e-08 -2.50067e-06 -5.41808e-05
0.00138261 -0.000150057 6.91124e-07
-0.000150057 0.000119011 -9.14495e-07
6.91124e-07 -9.14495e-07 -2.57355e-05
0.00174126 -0.000148576 -2.61446e-06
-0.000148576 0.000174661 -3.88633e-06
-2.61446e-06 -3.88633e-06 6.62683e-05
0.00130639 -0.000131809 1.0899e-06
-0.000131809 0.000170408 -8.00395e-07
1.0899e-06 -8.00395e-07 1.29984e-05
0.00136629 -0.000132711 -3.35347e-07
-0.000132711 9.88419e-05 -8.06579e-07
-3.35347e-07 -8.06579e-07 -3.53761e-05
0.00166534 -0.000127194 -2.62603e-06
-0.000127194 0.000163109 -3.97941e-06
-2.62603e-06 -3.97941e-06 6.05966e-05
0.00160994 -0.000117342 -2.23191e-06
-0.000117342 0.000173465 -3.15414e-06
-2.23191e-06 -3.15414e-06 7.38458e-05
0.0013509 -0.000121435 -2.97891e-06
-0.000121435 0.000123513 -1.35486e-06
-2.97891e-06 -1.35486e-06 7.99676e-07
0.00142501 -0.000122766 8.43717e-07
-0.000122766 0.000126092 8.89045e-08
8.43717e-07 8.89045e-08 3.89407e-06
0.000715426 -9.36241e-05 -2.59314e-06
-9.36241e-05 -0.00012016 1.33907e-06
-2.59314e-06 1.33907e-06 -0.000240173
0.00132024 -0.000123401 1.15231e-06
-0.000123401 0.000168675 -1.07404e-06
1.15231e-06 -1.07404e-06 3.67767e-05
0.00114723 -0.000121256 2.91317e-06
-0.000121256 4.93288e-05 -3.84341e-07
2.91317e-06 -3.84341e-07 -9.15034e-05
0.00102034 -9.82872e-05 -8.63063e-07
-9.82872e-05 9.38721e-05 1.08421e-06
-8.63063e-07 1.08421e-06 -7.80751e-06
0.001011 -0.000102172 4.53401e-07
-0.000102172 7.39802e-05 -2.09698e-07
4.53401e-07 -2.09698e-07 -4.07751e-05
0.000966211 -0.000107892 2.41146e-06
-0.000107892 3.33936e-05 -2.07713e-06
2.41146e-06 -2.07713e-06 -0.000100439
0.000977674 -7.71524e-05 -1.80858e-06
-7.71524e-05 8.64529e-05 4.4031e-07
-1.80858e-06 4.4031e-07 1.02281e-06
0.00104402 -9.49046e-05 -2.31251e-07
-9.49046e-05 0.000119776 -4.54836e-07
-2.31251e-07 -4.54836e-07 2.33373e-05
0.000883641 -9.05689e-05 5.49417e-07
-9.05689e-05 4.16032e-05 -1.75282e-06
5.49417e-07 -1.75282e-06 -5.8654e-05
0.000873095 1.6482e-05 -6.84588e-07
1.6482e-05 5.03587e-05 2.85868e-06
-6.84588e-07 2.85868e-06 -1.10052e-05
0.000953222 -3.73396e-05 7.1347e-07
-3.73396e-05 8.4548e-05 3.68921e-07
7.1347e-07 3.68921e-07 2.07617e-06
0.000987214 -7.44005e-05 1.0625e-06
-7.44005e-05 0.000108217 4.95438e-07
1.0625e-06 4.95438e-07 1.34379e-05
0.000686252 4.39679e-05 -2.91807e-06
4.39679e-05 -4.16605e-05 3.8627e-06
-2.91807e-06 3.8627e-06 -5.92295e-05
0.000789703 2.90222e-05 -2.49925e-07
2.90222e-05 2.62243e-06 -2.1822e-07
-2.49925e-07 -2.1822e-07 -4.86854e-05
0.000913919 -9.05706e-06 3.28516e-07
-9.05706e-06 6.89054e-05 -1.61193e-06
3.28516e-07 -1.61193e-06 -7.37347e-06
0.00223698 6.26108e-05 -9.49066e-06
6.26108e-05 0.00078307 1.38104e-06
-9.49066e-06 1.38104e-06 0.00079465
0.000732224 4.00908e-05 1.48923e-07
4.00908e-05 -2.50097e-05 -1.02327e-08
1.48923e-07 -1.02327e-08 -3.8408e-05
0.000779144 4.1091e-05 9.36564e-07
4.1091e-05 -6.21031e-06 -2.30485e-06
9.36564e-07 -2.30485e-06 -4.92749e-05
0.00219064 5.04371e-05 8.55767e-07
5.04371e-05 0.000748937 6.07547e-08
8.55767e-07 6.07547e-08 0.000764015
0.000773706 3.71678e-05 2.23315e-06
3.71678e-05 -1.12652e-05 -3.47918e-06
2.23315e-06 -3.47918e-06 -2.11412e-05
0.00215982 4.49241e-05 2.29235e-05
4.49241e-05 0.000726341 -3.44366e-06
2.29235e-05 -3.44366e-06 0.000743011
0.000982511 3.10283e-05 -4.00431e-07
3.10283e-05 0.000103746 -1.69149e-07
-4.00431e-07 -1.69149e-07 2.83209e-05
0.000881234 4.29998e-07 6.37435e-08
4.29998e-07 4.17699e-05 -3.06929e-07
6.37435e-08 -3.06929e-07 -2.92113e-05
0.000874088 -7.737e-06 -4.0213e-07
-7.737e-06 3.77314e-05 -1.53579e-06
-4.0213e-07 -1.53579e-06 -2.62662e-05
0.000794375 -4.09469e-05 -7.23424e-07
-4.09469e-05 -4.16695e-06 -2.18559e-06
-7.23424e-07 -2.18559e-06 -4.36105e-05
0.000862498 -1.12191e-05 5.05798e-07
-1.12191e-05 2.81174e-05 -5.38866e-08
5.05798e-07 -5.38866e-08 -3.12307e-05
0.000868695 4.46294e-06 4.90421e-07
4.46294e-06 3.52943e-05 7.27467e-07
4.90421e-07 7.27467e-07 -3.3801e-05
0.00076071 -3.09533e-05 -2.0133e-06
-3.09533e-05 -2.43892e-05 -3.49416e-06
-2.0133e-06 -3.49416e-06 -3.37731e-05
0.000809424 -2.82909e-05 -2.2008e-07
-2.82909e-05 -1.19203e-06 9.85308e-09
-2.2008e-07 9.85308e-09 -3.77846e-05
0.000872122 -8.66329e-06 9.45068e-07
-8.66329e-06 3.145e-05 9.61278e-07
9.45068e-07 9.61278e-07 -2.44275e-05
0.00224507 -3.93342e-05 -2.14186e-05
-3.93342e-05 0.000764968 -3.76818e-06
-2.14186e-05 -3.76818e-06 0.000782255
0.000751877 -2.71894e-05 -1.5733e-07
-2.71894e-05 -3.46466e-05 1.97283e-09
-1.5733e-07 1.97283e-09 -4.21159e-05
0.000827713 -1.95897e-05 8.19285e-07
-1.95897e-05 4.99141e-06 1.5661e-06
8.19285e-07 1.5661e-06 -2.95258e-05
0.00219339 -3.31778e-05 -1.60978e-06
-3.31778e-05 0.000730847 7.15797e-08
-1.60978e-06 7.15797e-08 0.000749883
0.00074866 -2.3365e-05 7.01021e-07
-2.3365e-05 -4.21657e-05 3.28859e-06
7.01021e-07 3.28859e-06 -4.73886e-05
0.00212385 -2.64115e-05 1.30975e-05
-2.64115e-05 0.000687841 3.86479e-06
1.30975e-05 3.86479e-06 0.000708712
-0.000814293 -9.85333e-05 2.93778e-05
-9.85333e-05 -0.0003644 7.6116e-06
2.93778e-05 7.6116e-06 -0.000548962
0.00142402 -7.00788e-06 1.80988e-06
-7.00788e-06 0.000135001 2.91308e-06
1.80988e-06 2.91308e-06 4.52666e-05
0.000962334 2.79418e-06 7.00636e-06
2.79418e-06 9.06263e-05 3.52771e-06
7.00636e-06 3.52771e-06 2.62304e-05
0.000940076 1.88335e-05 -5.23051e-07
1.88335e-05 8.53599e-05 5.59916e-07
-5.23051e-07 5.59916e-07 4.72632e-06
0.001075 8.21956e-05 -1.01344e-07
8.21956e-05 0.000166769 9.99476e-07
-1.01344e-07 9.99476e-07 7.69656e-05
0.000964779 3.76714e-05 -3.24179e-07
3.76714e-05 0.000101359 3.07009e-07
-3.24179e-07 3.07009e-07 1.59113e-05
0.001024 -2.5463e-05 1.10338e-07
-2.5463e-05 0.000117252 -3.97028e-07
1.10338e-07 -3.97028e-07 4.72403e-05
0.000974498 1.58066e-05 3.6637e-07
1.58066e-05 9.36215e-05 4.81276e-07
3.6637e-07 4.81276e-07 1.87052e-05
0.000847045 -1.03606e-05 -6.29354e-07
-1.03606e-05 2.71953e-05 1.13747e-06
-6.29354e-07 1.13747e-06 -4.87082e-05
0.000850568 1.15554e-05 -4.22646e-07
1.15554e-05 3.55056e-05 -1.36013e-08
-4.22646e-07 -1.36013e-08 -4.26855e-05
0.000917932 1.54936e-05 2.11837e-07
1.54936e-05 6.93426e-05 -1.13011e-08
2.11837e-07 -1.13011e-08 -1.19241e-05
0.00101319 4.67309e-05 6.95318e-07
4.67309e-05 0.000135902 -8.37095e-07
6.95318e-07 -8.37095e-07 4.60452e-05
0.000823819 4.54414e-05 1.92983e-06
4.54414e-05 1.49141e-05 -1.76082e-06
1.92983e-06 -1.76082e-06 -6.49994e-05
0.000931407 3.32383e-05 -1.34788e-07
3.32383e-05 7.87688e-05 -6.2536e-07
-1.34788e-07 -6.2536e-07 2.23705e-06
0.0010955 2.91297e-05 4.94796e-07
2.91297e-05 0.000171193 2.767e-07
4.94796e-07 2.767e-07 9.46666e-05
-0.0020599 -0.000270359 1.57347e-05
-0.000270359 -0.0010573 2.44262e-05
1.57347e-05 2.44262e-05 -0.00102741
0.000281055 -0.000249193 9.57117e-06
-0.000249193 -0.000126327 2.64316e-06
9.57117e-06 2.64316e-06 5.82209e-05
0.00189913 -2.29677e-05 -2.19754e-05
-2.29677e-05 0.000215563 -1.33635e-05
-2.19754e-05 -1.33635e-05 8.49583e-05
-0.00150521 -0.000438418 -1.06797e-05
-0.000438418 -0.00199721 1.2921e-05
-1.06797e-05 1.2921e-05 -0.000849193
0.00434717 -0.000483712 -2.51505e-05
-0.000483712 0.00116513 -4.18458e-05
-2.51505e-05 -4.18458e-05 0.00126976
0.00407689 -1.09643e-06 4.797e-05
-1.09643e-06 0.000714199 2.28872e-05
4.797e-05 2.28872e-05 -0.000489668
0.00192487 -0.000139252 -7.72318e-05
-0.000139252 0.000266134 7.82429e-05
-7.72318e-05 7.82429e-05 -0.000381306
0.00279971 0.000114747 -4.08307e-05
0.000114747 0.000358239 -1.45617e-05
-4.08307e-05 -1.45617e-05 2.73967e-05
0.00301775 -0.000517931 -7.64044e-06
-0.000517931 0.000978336 8.95311e-06
-7.64044e-06 8.95311e-06 0.00113778
0.00234121 -7.89343e-05 1.98347e-05
-7.89343e-05 -3.38696e-08 3.45956e-05
1.98347e-05 3.45956e-05 -0.00121581
0.00145416 0.000219247 -8.79122e-05
0.000219247 -0.000104028 -8.86936e-05
-8.79122e-05 -8.86936e-05 -0.000696365
0.00309774 0.000107747 -9.27945e-05
0.000107747 0.000577155 -3.26962e-05
-9.27945e-05 -3.26962e-05 -0.000660213
0.00238128 0.000237738 1.13104e-05
0.000237738 0.000703505 -6.35116e-06
1.13104e-05 -6.35116e-06 0.000575493
0.000879781 0.000101089 -1.04117e-06
0.000101089 6.47097e-05 -8.81479e-08
-1.04117e-06 -8.81479e-08 1.65683e-06
0.00125268 2.22835e-05 -1.63042e-07
2.22835e-05 0.000247666 -2.1731e-06
-1.63042e-07 -2.1731e-06 0.000182355
-0.000356513 3.42581e-05 -2.32071e-05
3.42581e-05 -0.000380422 -1.42273e-05
-2.32071e-05 -1.42273e-05 -0.000558297
0.00153892 8.41679e-05 -1.94141e-06
8.41679e-05 0.00047834 -5.35482e-06
-1.94141e-06 -5.35482e-06 0.000374147
0.000995852 0.000160104 1.16983e-05
0.000160104 0.000124888 2.03913e-07
1.16983e-05 2.03913e-07 7.61945e-06
0.000695335 0.000190004 3.62125e-05
0.000190004 -0.000329419 2.46665e-05
3.62125e-05 2.46665e-05 -0.000389616
-0.00276751 -1.35332e-05 -1.70226e-07
-1.35332e-05 -0.00146847 -8.39559e-06
-1.70226e-07 -8.39559e-06 -0.00118844
7.74631e-05 1.19056e-07 4.96278e-06
1.19056e-07 0.000205149 1.08073e-06
4.96278e-06 1.08073e-06 4.5251e-05
0.000783794 -2.68499e-06 -1.36185e-05
-2.68499e-06 -0.00015249 -8.53292e-07
-1.36185e-05 -8.53292e-07 -0.000237479
0.000688476 -0.000139491 -3.22079e-05
-0.000139491 -0.000214839 -7.77428e-06
-3.22079e-05 -7.77428e-06 -8.6829e-05
0.00353084 -0.000418241 -5.22461e-05
-0.000418241 0.000693462 -3.14522e-06
-5.22461e-05 -3.14522e-06 8.71021e-05
0.00100769 9.65139e-05 -3.36103e-05
9.65139e-05 0.000684306 7.64431e-06
-3.36103e-05 7.64431e-06 0.000676313
0.00110458 0.000276757 2.41318e-05
0.000276757 -0.000265101 -4.25626e-05
2.41318e-05 -4.25626e-05 -0.00163139
0.00634825 0.00044515 -9.2368e-05
0.00044515 0.00315315 1.56159e-05
-9.2368e-05 1.56159e-05 0.00320771
0.00121828 -0.000222708 9.3257e-06
-0.000222708 -2.19509e-05 3.40397e-07
9.3257e-06 3.40397e-07 -1.34163e-05
-0.000957335 0.00020769 -1.72283e-05
0.00020769 -0.00037512 -1.9558e-06
-1.72283e-05 -1.9558e-06 -0.000385853
0.00248486 0.000250227 -7.30638e-06
0.000250227 0.000200642 1.32412e-05
-7.30638e-06 1.32412e-05 -0.00100824
0.00373519 -0.000135703 2.75708e-06
-0.000135703 0.000603537 6.11148e-06
2.75708e-06 6.11148e-06 0.000146044
0.000384178 -0.000127236 -3.41066e-06
-0.000127236 -0.000329329 -8.23604e-06
-3.41066e-06 -8.23604e-06 -0.000409698
0.00639942 8.18068e-05 3.0153e-05
8.18068e-05 0.00205944 3.24109e-06
3.0153e-05 3.24109e-06 0.00121275
0.00132267 5.66475e-05 1.68991e-06
5.66475e-05 -0.000562106 -7.52487e-06
1.68991e-06 -7.52487e-06 -0.000827563
0.000606221 -0.000120004 -5.70493e-06
-0.000120004 -0.000215187 -3.4498e-07
-5.70493e-06 -3.4498e-07 -0.000248604
0.00139814 -0.000159412 -4.05622e-07
-0.000159412 -7.13641e-05 -3.76762e-07
-4.05622e-07 -3.76762e-07 -9.52145e-05
0.00200933 -0.000191016 -4.91554e-06
-0.000191016 7.24305e-05 7.27286e-07
-4.91554e-06 7.27286e-07 4.94052e-05
0.00136091 -0.000159591 -2.76168e-06
-0.000159591 0.000124449 -3.06387e-06
-2.76168e-06 -3.06387e-06 -2.82194e-05
0.00159999 -0.000172786 -2.79271e-06
-0.000172786 5.57482e-05 9.67189e-07
-2.79271e-06 9.67189e-07 -5.17921e-05
0.00168368 -0.000149555 -6.744e-06
-0.000149555 -8.64271e-06 1.00178e-06
-6.744e-06 1.00178e-06 -7.74058e-05
0.000990173 -0.000132821 2.525e-06
-0.000132821 -7.83787e-05 5.15518e-07
2.525e-06 5.15518e-07 -0.000223366
0.0015188 -0.000138253 -7.85879e-07
-0.000138253 5.86042e-05 1.23332e-07
-7.85879e-07 1.23332e-07 -4.8553e-05
0.00157931 -0.000120548 -2.14576e-06
-0.000120548 -1.32884e-05 -4.80748e-07
-2.14576e-06 -4.80748e-07 -8.88575e-05
0.00125619 -0.000127166 2.19994e-06
-0.000127166 3.89931e-05 1.56768e-06
2.19994e-06 1.56768e-06 -9.36709e-05
0.00147427 -0.000120529 -4.69768e-07
-0.000120529 6.45164e-05 6.64239e-07
-4.69768e-07 6.64239e-07 -3.75083e-05
0.00160432 -0.000110543 -2.00667e-06
-0.000110543 8.46873e-05 -6.96213e-07
-2.00667e-06 -6.96213e-07 6.80441e-06
0.00187298 -0.000110496 -6.22239e-07
-0.000110496 0.000279247 -1.83433e-06
-6.22239e-07 -1.83433e-06 0.000194386
0.00155047 -0.000113296 -1.12124e-06
-0.000113296 0.000142628 1.49005e-06
-1.12124e-06 1.49005e-06 4.55679e-05
0.00143228 -0.000111852 -1.22845e-06
-0.000111852 0.000118804 -3.53707e-06
-1.22845e-06 -3.53707e-06 1.44633e-05
0.00133287 -0.000115543 -2.87499e-06
-0.000115543 0.000139755 -2.15338e-07
-2.87499e-06 -2.15338e-07 2.33783e-05
0.00146172 -0.000124298 1.02288e-06
-0.000124298 0.000181692 -3.69086e-07
1.02288e-06 -3.69086e-07 5.9017e-05
0.00141047 -0.000119751 3.20596e-06
-0.000119751 0.000119068 2.63179e-06
3.20596e-06 2.63179e-06 -7.95849e-07
0.000792949 -9.18462e-05 -2.72775e-06
-9.18462e-05 -5.92575e-05 2.12243e-06
-2.72775e-06 2.12243e-06 -0.00016848
0.00104125 -0.000105988 1.59244e-07
-0.000105988 4.91704e-05 -5.44686e-08
1.59244e-07 -5.44686e-08 -6.98502e-05
0.00149433 -0.000129413 4.34916e-06
-0.000129413 0.000258457 -2.28691e-06
4.34916e-06 -2.28691e-06 0.000127881
0.000951243 -8.2795e-05 -1.62292e-06
-8.2795e-05 6.3193e-05 6.56335e-07
-1.62292e-06 6.56335e-07 -2.60389e-05
0.00107621 -0.00010009 1.44001e-07
-0.00010009 0.000121119 -1.97628e-07
1.44001e-07 -1.97628e-07 1.92623e-05
0.00073857 -8.97701e-05 1.38034e-06
-8.97701e-05 -6.32197e-05 -2.83608e-06
1.38034e-06 -2.83608e-06 -0.000177283
0.000827623 -1.55968e-05 -2.50578e-06
-1.55968e-05 2.43582e-05 2.50696e-06
-2.50578e-06 2.50696e-06 -4.36835e-05
0.001018 -7.94678e-05 -1.71424e-08
-7.94678e-05 0.000106226 -4.64081e-08
-1.71424e-08 -4.64081e-08 2.07765e-05
0.00111892 -9.77976e-05 1.12323e-06
-9.77976e-05 0.000157178 -6.59696e-07
1.12323e-06 -6.59696e-07 6.05662e-05
0.000628466 5.24076e-05 -2.14114e-06
5.24076e-05 -6.41907e-05 4.51138e-06
-2.14114e-06 4.51138e-06 -8.84284e-05
0.000817473 5.54385e-06 -3.03168e-08
5.54385e-06 2.08601e-05 3.7772e-08
-3.03168e-08 3.7772e-08 -4.11567e-05
0.000994351 -4.24629e-05 1.59949e-06
-4.24629e-05 0.00010606 -5.55048e-07
1.59949e-06 -5.55048e-07 2.32157e-05
0.00239112 6.35083e-05 -3.07078e-05
6.35083e-05 0.000869626 3.10649e-06
-3.07078e-05 3.10649e-06 0.000880007
0.000708531 4.68091e-05 -1.13344e-07
4.68091e-05 -2.90127e-05 -1.10641e-07
-1.13344e-07 -1.10641e-07 -4.72817e-05
0.000763513 1.00481e-05 2.25551e-06
1.00481e-05 -1.17843e-05 -2.66218e-06
2.25551e-06 -2.66218e-06 -6.29889e-05
0.0016175 4.9143e-05 1.18547e-05
4.9143e-05 0.000451844 -7.59065e-07
1.18547e-05 -7.59065e-07 0.000460941
0.000762013 4.1972e-05 2.55603e-06
4.1972e-05 -9.52989e-06 -3.74452e-06
2.55603e-06 -3.74452e-06 -2.31496e-05
0.00222441 5.07921e-05 2.63472e-05
5.07921e-05 0.000768286 -3.35915e-06
2.63472e-05 -3.35915e-06 0.000782888
0.000965993 4.7373e-05 1.3512e-07
4.7373e-05 9.76522e-05 7.74541e-07
1.3512e-07 7.74541e-07 1.62394e-05
0.000948235 8.64256e-06 -1.29194e-07
8.64256e-06 8.29726e-05 5.13405e-07
-1.29194e-07 5.13405e-07 8.98549e-06
0.000890117 -2.3196e-05 -3.9287e-07
-2.3196e-05 5.20588e-05 -1.28201e-06
-3.9287e-07 -1.28201e-06 -1.60887e-05
0.000927526 1.2115e-05 2.65296e-07
1.2115e-05 6.68246e-05 5.9245e-07
2.65296e-07 5.9245e-07 -5.11656e-06
0.000872317 -2.72061e-05 1.61305e-07
-2.72061e-05 3.46416e-05 -4.15575e-08
1.61305e-07 -4.15575e-08 -2.78115e-05
0.000774728 -3.93392e-05 -1.09238e-06
-3.93392e-05 -9.16318e-06 -2.34027e-06
-1.09238e-06 -2.34027e-06 -5.1834e-05
0.000755003 -3.47196e-05 -2.49572e-06
-3.47196e-05 -2.15584e-05 -3.584e-06
-2.49572e-06 -3.584e-06 -3.26752e-05
0.0007974 -3.67718e-05 -1.50898e-07
-3.67718e-05 -3.22249e-06 -1.67852e-08
-1.50898e-07 -1.67852e-08 -4.22167e-05
0.000870395 -4.08975e-05 -7.58295e-08
-4.08975e-05 3.06092e-05 1.34446e-06
-7.58295e-08 1.34446e-06 -2.72319e-05
0.0022676 -4.50577e-05 -2.44533e-05
-4.50577e-05 0.000783543 -3.62337e-06
-2.44533e-05 -3.62337e-06 0.000799307
0.000741912 -3.0381e-05 -2.15191e-07
-3.0381e-05 -3.40354e-05 1.99365e-08
-2.15191e-07 1.99365e-08 -4.33601e-05
0.00081632 -2.01097e-05 1.47987e-06
-2.01097e-05 1.75119e-06 1.79593e-06
1.47987e-06 1.79593e-06 -3.43628e-05
0.00224247 -3.93236e-05 -1.26165e-06
-3.93236e-05 0.000762925 8.07546e-08
-1.26165e-06 8.07546e-08 0.000780337
0.000737411 -2.67531e-05 1.19234e-06
-2.67531e-05 -4.19944e-05 3.41402e-06
1.19234e-06 3.41402e-06 -4.94266e-05
0.00217911 -3.30136e-05 1.61493e-05
-3.30136e-05 0.000722622 3.82699e-06
1.61493e-05 3.82699e-06 0.000741861
0.00118856 8.32861e-05 9.7719e-05
8.32861e-05 0.000608375 2.55945e-05
9.7719e-05 2.55945e-05 0.000353779
0.000340514 -0.000111289 5.61065e-06
-0.000111289 0.000197235 3.37172e-06
5.61065e-06 3.37172e-06 8.48475e-05
0.0013698 -9.87386e-06 -1.4512e-05
-9.87386e-06 8.64054e-05 3.34592e-07
-1.4512e-05 3.34592e-07 -1.83632e-06
0.000935604 7.41311e-06 3.41003e-07
7.41311e-06 8.21828e-05 5.70611e-07
3.41003e-07 5.70611e-07 1.98512e-06
0.000936439 1.99795e-05 8.04195e-08
1.99795e-05 8.56862e-05 4.33411e-07
8.04195e-08 4.33411e-07 5.16153e-07
0.000971862 8.0287e-05 -9.88118e-08
8.0287e-05 0.000116116 4.61244e-08
-9.88118e-08 4.61244e-08 2.67173e-05
0.00109129 9.86827e-05 7.21472e-07
9.86827e-05 0.000170891 9.78484e-07
7.21472e-07 9.78484e-07 7.68387e-05
0.000997795 6.94304e-05 -7.70996e-07
6.94304e-05 0.00013146 5.76768e-07
-7.70996e-07 5.76768e-07 3.82564e-05
0.000882188 2.03705e-05 1.09159e-07
2.03705e-05 5.16235e-05 7.21836e-07
1.09159e-07 7.21836e-07 -2.71511e-05
0.00089696 1.42756e-05 1.25596e-07
1.42756e-05 5.79313e-05 7.58179e-07
1.25596e-07 7.58179e-07 -2.31255e-05
0.000836768 4.94269e-05 -5.01467e-07
4.94269e-05 4.39978e-05 -5.88887e-07
-5.01467e-07 -5.88887e-07 -4.45469e-05
0.000279391 5.99469e-05 -3.13363e-07
5.99469e-05 -0.000239291 1.34232e-06
-3.13363e-07 1.34232e-06 -0.000333204
0.000838544 8.19384e-05 8.74992e-08
8.19384e-05 2.25578e-05 -1.42477e-06
8.74992e-08 -1.42477e-06 -6.78298e-05
0.00192553 0.000171775 3.28649e-06
0.000171775 0.00046743 -4.40703e-06
3.28649e-06 -4.40703e-06 0.000356044
0.000918551 5.26038e-05 -1.67873e-06
5.26038e-05 7.97723e-05 -2.62492e-07
-1.67873e-06 -2.62492e-07 -1.89213e-06
0.000871037 1.15042e-05 -2.31665e-07
1.15042e-05 5.09637e-05 -3.72e-07
-2.31665e-07 -3.72e-07 -2.31783e-05
0.00896188 -0.000133976 -3.07306e-05
-0.000133976 0.00271632 -1.42955e-05
-3.07306e-05 -1.42955e-05 0.0017717
-0.00166522 -0.000273061 -1.6934e-05
-0.000273061 -0.000753256 1.58785e-06
-1.6934e-05 1.58785e-06 -0.000912477
0.00153874 -0.000254056 -3.28728e-05
-0.000254056 0.000549846 -1.93594e-05
-3.28728e-05 -1.93594e-05 0.000720581
-0.00230708 -0.000320222 -2.63495e-05
-0.000320222 -0.00150962 -8.11159e-06
-2.63495e-05 -8.11159e-06 -0.00127449
0.00906456 -0.000367077 5.37505e-05
-0.000367077 0.00309231 2.68641e-05
5.37505e-05 2.68641e-05 0.00156535
0.00201925 6.80663e-05 1.49974e-05
6.80663e-05 0.000140776 1.49082e-05
1.49974e-05 1.49082e-05 -2.46579e-05
0.00196426 0.000240951 -3.52379e-05
0.000240951 5.80172e-05 -2.33251e-05
-3.52379e-05 -2.33251e-05 -0.000411709
0.00631535 -0.000288811 4.09301e-05
-0.000288811 0.00170701 1.75619e-05
4.09301e-05 1.75619e-05 0.00067986
0.00227267 0.000171022 -8.47209e-06
0.000171022 -4.30919e-05 -4.33916e-05
-8.47209e-06 -4.33916e-05 -0.000456478
0.00221418 0.000268834 1.61691e-05
0.000268834 0.000404665 1.12609e-05
1.61691e-05 1.12609e-05 0.000260164
0.000892515 0.000155899 4.56154e-07
0.000155899 2.28455e-05 -4.64602e-06
4.56154e-07 -4.64602e-06 -0.000118481
0.000950168 8.25821e-05 -2.73375e-06
8.25821e-05 9.42785e-05 1.80562e-06
-2.73375e-06 1.80562e-06 3.5566e-05
0.00200088 0.000210536 -3.62647e-05
0.000210536 0.000595374 -1.88611e-05
-3.62647e-05 -1.88611e-05 0.000487194
0.000466753 0.00019231 -1.21318e-05
0.00019231 -0.000425029 1.34981e-05
-1.21318e-05 1.34981e-05 -0.000497363
0.00028168 -2.75396e-05 8.96722e-07
-2.75396e-05 -0.0010357 -5.31909e-06
8.96722e-07 -5.31909e-06 -0.00149283
0.00159725 1.55378e-05 -5.39893e-06
1.55378e-05 0.000697489 3.76024e-08
-5.39893e-06 3.76024e-08 0.000708552
-0.00118513 7.82178e-06 -1.40302e-05
7.82178e-06 -0.000440219 7.66321e-07
-1.40302e-05 7.66321e-07 -0.000647127
0.00213516 -0.000265596 -3.72915e-05
-0.000265596 0.000369904 1.0405e-05
-3.72915e-05 1.0405e-05 0.000365895
0.00354957 -0.000166805 1.31883e-06
-0.000166805 0.000344795 -2.02198e-05
1.31883e-06 -2.02198e-05 -0.000363959
0.000129603 -3.88296e-06 -7.43744e-05
-3.88296e-06 0.000161877 2.2828e-05
-7.43744e-05 2.2828e-05 -2.70089e-05
0.00769524 0.000442039 -2.77383e-05
0.000442039 0.00278228 1.74732e-05
-2.77383e-05 1.74732e-05 0.00165239
0.000805707 -0.000137271 9.90348e-07
-0.000137271 -0.000153694 -1.71402e-06
9.90348e-07 -1.71402e-06 -0.000194627
0.00520354 0.000203873 2.17135e-05
0.000203873 0.00140265 8.82924e-06
2.17135e-05 8.82924e-06 0.000678544
0.00316833 6.06915e-05 3.88935e-05
6.06915e-05 0.000138964 -2.69618e-06
3.88935e-05 -2.69618e-06 -0.000296053
0.00301182 -0.000146988 -4.93644e-06
-0.000146988 0.000890006 4.20447e-07
-4.93644e-06 4.20447e-07 0.000803929
0.00152512 3.11354e-05 -5.54773e-05
3.11354e-05 0.000128109 -2.46363e-07
-5.54773e-05 -2.46363e-07 -0.000142901
0.00119654 -0.00015473 4.19481e-06
-0.00015473 -0.000162756 -2.05125e-06
4.19481e-06 -2.05125e-06 -0.000189002
0.00178077 -0.00018526 -1.22345e-06
-0.00018526 -1.65147e-05 2.5655e-06
-1.22345e-06 2.5655e-06 -4.96501e-05
0.00233291 -0.000134094 -9.01611e-06
-0.000134094 0.000191092 2.58146e-07
-9.01611e-06 2.58146e-07 0.000152039
0.00165503 -0.000171646 4.3311e-06
-0.000171646 7.92035e-05 1.80444e-06
4.3311e-06 1.80444e-06 -2.65663e-05
0.00181483 -0.000148071 1.73135e-07
-0.000148071 7.07387e-05 1.29121e-06
1.73135e-07 1.29121e-06 1.73256e-06
0.00181538 -0.000100994 -1.51492e-06
-0.000100994 2.96052e-05 1.85294e-06
-1.51492e-06 1.85294e-06 -2.99068e-05
0.00128815 -0.000128171 2.96561e-06
-0.000128171 -6.2053e-05 3.15183e-06
2.96561e-06 3.15183e-06 -0.000167919
0.00165958 -0.000122099 -1.484e-07
-0.000122099 3.31334e-05 1.54543e-06
-1.484e-07 1.54543e-06 -4.43911e-05
0.00167684 -9.95881e-05 -3.42122e-07
-9.95881e-05 2.89365e-05 2.28242e-06
-3.42122e-07 2.28242e-06 -4.41926e-05
0.00129709 -0.000114401 3.69444e-06
-0.000114401 -2.69252e-05 3.65753e-06
3.69444e-06 3.65753e-06 -0.000128508
0.00153807 -0.000109699 -8.42473e-08
-0.000109699 5.56842e-05 1.42052e-06
-8.42473e-08 1.42052e-06 -2.36509e-05
0.00170865 -9.96333e-05 4.27642e-07
-9.96333e-05 0.000136098 2.65437e-08
4.27642e-07 2.65437e-08 5.89513e-05
0.00159196 -0.000104238 -2.24184e-06
-0.000104238 0.000137419 1.14132e-06
-2.24184e-06 1.14132e-06 5.53176e-05
0.00175562 -0.000107139 1.71302e-06
-0.000107139 0.000242796 -2.47533e-06
1.71302e-06 -2.47533e-06 0.000149436
0.0015083 -0.000109869 2.06667e-06
-0.000109869 0.000120914 4.85854e-06
2.06667e-06 4.85854e-06 2.63306e-05
0.00143262 -0.000110777 2.45527e-07
-0.000110777 0.000118464 -5.7436e-07
2.45527e-07 -5.7436e-07 1.37591e-05
0.00141079 -0.000108104 -1.39379e-06
-0.000108104 0.000130993 -1.47839e-06
-1.39379e-06 -1.47839e-06 2.43002e-05
0.000930168 -9.59826e-05 -3.17484e-06
-9.59826e-05 -3.91616e-05 1.00127e-06
-3.17484e-06 1.00127e-06 -0.000149058
0.00131967 -0.000114076 8.00112e-08
-0.000114076 0.000133389 -2.20506e-07
8.00112e-08 -2.20506e-07 1.66765e-05
0.00157815 -0.00012745 3.78123e-06
-0.00012745 0.000242851 4.24287e-07
3.78123e-06 4.24287e-07 0.000120174
0.000999161 -9.04348e-05 -2.28588e-06
-9.04348e-05 6.90577e-05 1.2096e-06
-2.28588e-06 1.2096e-06 -2.61487e-05
0.000891837 -9.5346e-05 -6.46702e-07
-9.5346e-05 -6.24477e-06 7.3794e-07
-6.46702e-07 7.3794e-07 -0.000114582
0.00133019 -0.000116676 3.09046e-06
-0.000116676 0.00019983 -1.70584e-06
3.09046e-06 -1.70584e-06 8.18931e-05
0.000751111 -2.87233e-05 -2.47148e-06
-2.87233e-05 -1.98597e-05 1.80903e-06
-2.47148e-06 1.80903e-06 -9.05973e-05
0.00103569 -8.70187e-05 7.06381e-08
-8.70187e-05 0.000105398 -1.98067e-07
7.06381e-08 -1.98067e-07 1.57461e-05
0.00114066 -0.000102338 1.54325e-06
-0.000102338 0.000152884 -1.53986e-06
1.54325e-06 -1.53986e-06 5.07993e-05
0.000593227 5.95317e-05 -1.21957e-06
5.95317e-05 -7.77591e-05 5.02867e-06
-1.21957e-06 5.02867e-06 -0.000109386
0.000839835 -1.88126e-05 -3.80245e-08
-1.88126e-05 2.93736e-05 2.38786e-07
-3.80245e-08 2.38786e-07 -3.84035e-05
0.00106346 -7.25035e-05 1.81289e-06
-7.25035e-05 0.000128056 -4.92892e-07
1.81289e-06 -4.92892e-07 4.3176e-05
0.00259143 7.20967e-05 -3.40624e-05
7.20967e-05 0.000980591 3.05553e-06
-3.40624e-05 3.05553e-06 0.000988112
0.000666253 5.50882e-05 4.74781e-08
5.50882e-05 -4.2849e-05 -1.35921e-07
4.74781e-08 -1.35921e-07 -6.79245e-05
0.000784199 -1.75209e-05 2.36596e-06
-1.75209e-05 5.34232e-07 -2.44558e-06
2.36596e-06 -2.44558e-06 -6.03312e-05
0.00244034 6.40141e-05 4.82374e-07
6.40141e-05 0.000895777 8.78604e-08
4.82374e-07 8.78604e-08 0.000905802
0.000736346 4.94772e-05 1.61097e-06
4.94772e-05 -1.34104e-05 -4.25561e-06
1.61097e-06 -4.25561e-06 -3.23981e-05
0.00232844 5.70089e-05 3.01469e-05
5.70089e-05 0.000830661 -3.25138e-06
3.01469e-05 -3.25138e-06 0.00084297
0.00101461 8.77298e-05 1.40152e-07
8.77298e-05 0.000122278 4.56124e-07
1.40152e-07 4.56124e-07 3.18413e-05
0.00091964 6.04581e-05 3.51717e-07
6.04581e-05 7.54076e-05 1.34187e-07
3.51717e-07 1.34187e-07 -7.09137e-06
0.000820483 -1.42225e-05 -8.37423e-07
-1.42225e-05 1.89144e-05 -6.06696e-07
-8.37423e-07 -6.06696e-07 -5.66905e-05
0.000900287 -4.25301e-06 1.35053e-07
-4.25301e-06 5.71212e-05 9.31249e-07
1.35053e-07 9.31249e-07 -1.70215e-05
0.00086028 -3.16585e-05 5.66405e-09
-3.16585e-05 3.59773e-05 1.1478e-07
5.66405e-09 1.1478e-07 -3.25654e-05
0.000766359 -3.53361e-05 -1.28108e-06
-3.53361e-05 -8.75305e-06 -2.28243e-06
-1.28108e-06 -2.28243e-06 -5.7244e-05
0.000854923 -3.81443e-05 1.54392e-07
-3.81443e-05 2.5343e-05 1.51952e-06
1.54392e-07 1.51952e-06 -3.68872e-05
0.000788232 -3.91454e-05 -2.14716e-08
-3.91454e-05 -2.9362e-06 -1.05242e-07
-2.14716e-08 -1.05242e-07 -4.53599e-05
0.000747345 -4.06081e-05 -2.56124e-06
-4.06081e-05 -1.76148e-05 -3.71899e-06
-2.56124e-06 -3.71899e-06 -3.13638e-05
0.00227506 -5.06474e-05 -2.68603e-05
-5.06474e-05 0.000794773 -3.42383e-06
-2.68603e-05 -3.42383e-06 0.000808975
0.000738658 -3.38902e-05 -6.49707e-08
-3.38902e-05 -2.98305e-05 2.07512e-08
-6.49707e-08 2.07512e-08 -4.08707e-05
0.000797851 -3.24502e-05 1.47256e-06
-3.24502e-05 -3.6454e-06 2.00443e-06
1.47256e-06 2.00443e-06 -4.21929e-05
0.00227109 -4.508e-05 -1.12692e-06
-4.508e-05 0.000784582 8.83928e-08
-1.12692e-06 8.83928e-08 0.000800446
0.000726204 -2.98293e-05 1.63651e-06
-2.98293e-05 -4.20956e-05 3.54362e-06
1.63651e-06 3.54362e-06 -5.13624e-05
0.00223404 -3.91925e-05 1.9746e-05
-3.91925e-05 0.000757829 3.7632e-06
1.9746e-05 3.7632e-06 0.000775395
0.00712834 2.37931e-05 4.74415e-05
2.37931e-05 0.00212027 6.99875e-06
4.74415e-05 6.99875e-06 0.00138559
-0.00207935 -8.12591e-05 3.86776e-07
-8.12591e-05 -0.00105904 1.33613e-06
3.86776e-07 1.33613e-06 -0.000946124
-0.000891126 -7.2752e-05 -2.7827e-05
-7.2752e-05 -0.000477867 -1.56116e-06
-2.7827e-05 -1.56116e-06 -0.000675041
0.000906748 2.56582e-06 2.93942e-07
2.56582e-06 6.98221e-05 6.71854e-07
2.93942e-07 6.71854e-07 -1.52125e-05
0.000864508 7.6824e-05 -1.53984e-07
7.6824e-05 6.19784e-05 -3.53753e-07
-1.53984e-07 -3.53753e-07 -2.61742e-05
0.00105627 7.35783e-05 4.22171e-07
7.35783e-05 0.000162573 -5.18555e-09
4.22171e-07 -5.18555e-09 6.94187e-05
0.00102136 9.55245e-05 -7.61627e-07
9.55245e-05 0.000135337 -2.00992e-07
-7.61627e-07 -2.00992e-07 4.15086e-05
0.0011398 0.000103748 5.51354e-06
0.000103748 0.000187567 1.87129e-06
5.51354e-06 1.87129e-06 8.77141e-05
0.00067211 7.90651e-05 -8.53586e-07
7.90651e-05 -3.67107e-05 1.52327e-06
-8.53586e-07 1.52327e-06 -0.000130424
0.000641192 5.05022e-05 -2.11589e-07
5.05022e-05 -5.64244e-05 -1.47852e-07
-2.11589e-07 -1.47852e-07 -0.000144707
0.000635812 7.74428e-05 5.07673e-07
7.74428e-05 -5.83553e-05 -6.94767e-08
5.07673e-07 -6.94767e-08 -0.000155898
0.000802466 7.18118e-05 2.89117e-07
7.18118e-05 1.17191e-05 4.11877e-08
2.89117e-07 4.11877e-08 -8.04579e-05
0.00031492 7.91302e-05 1.38108e-06
7.91302e-05 -0.000272655 6.80532e-07
1.38108e-06 6.80532e-07 -0.000367935
0.0028877 0.000202484 1.27607e-06
0.000202484 0.000951278 -4.24765e-07
1.27607e-06 -4.24765e-07 0.000844726
0.00175145 0.000181256 3.19513e-06
0.000181256 0.000210316 -1.0142e-06
3.19513e-06 -1.0142e-06 8.69963e-05
0.0013382 0.000146898 1.232e-06
0.000146898 0.000181333 -7.18482e-07
1.232e-06 -7.18482e-07 7.43229e-05
0.00102125 5.39634e-05 -3.20749e-06
5.39634e-05 0.000145506 1.13267e-06
-3.20749e-06 1.13267e-06 6.32378e-05
0.00224342 -6.79455e-05 -2.17666e-05
-6.79455e-05 -0.00017285 -1.24831e-05
-2.17666e-05 -1.24831e-05 -0.000393349
0.00446381 -0.00014244 4.75002e-06
-0.00014244 0.000901798 3.42847e-07
4.75002e-06 3.42847e-07 3.91742e-06
0.00425213 -0.000432253 -3.67528e-05
-0.000432253 0.00195527 -2.62447e-05
-3.67528e-05 -2.62447e-05 0.0020039
0.00668873 -0.000142853 0.000170494
-0.000142853 0.00194304 5.48423e-05
0.000170494 5.48423e-05 0.000749112
0.00338847 0.000268623 4.68738e-05
0.000268623 0.00077788 4.93559e-05
4.68738e-05 4.93559e-05 0.000576046
0.00192289 0.000119231 -4.14656e-05
0.000119231 2.61928e-05 -1.361e-05
-4.14656e-05 -1.361e-05 -0.000213222
0.00172286 0.000183707 2.82014e-05
0.000183707 2.79477e-05 1.61835e-05
2.82014e-05 1.61835e-05 8.97634e-06
0.00194238 0.000257881 -1.80758e-06
0.000257881 0.00027262 5.17369e-06
-1.80758e-06 5.17369e-06 0.000147058
0.00023437 0.000116186 -2.78526e-06
0.000116186 -0.000293731 3.01725e-06
-2.78526e-06 3.01725e-06 -0.000431242
0.00189917 0.000267686 -6.74007e-05
0.000267686 0.000244958 -4.858e-05
-6.74007e-05 -4.858e-05 0.000185099
0.0032204 -7.20688e-05 -0.000138595
-7.20688e-05 0.000850511 -1.57853e-06
-0.000138595 -1.57853e-06 0.000471641
0.00682493 4.32426e-05 1.17942e-05
4.32426e-05 0.00229038 -3.15139e-06
1.17942e-05 -3.15139e-06 0.00167158
-0.00472969 -5.18178e-05 3.82121e-06
-5.18178e-05 -0.00259494 4.81766e-06
3.82121e-06 4.81766e-06 -0.00239584
0.00106388 -0.000147496 -4.19542e-07
-0.000147496 -4.10184e-05 1.13871e-05
-4.19542e-07 1.13871e-05 -6.97165e-05
0.00448566 4.10504e-05 6.3108e-05
4.10504e-05 0.000819371 1.08049e-06
6.3108e-05 1.08049e-06 0.000446895
0.000920819 -0.000108204 5.00636e-05
-0.000108204 -0.000485958 1.03502e-05
5.00636e-05 1.03502e-05 -0.00113038
0.00153857 -0.000109406 3.98002e-06
-0.000109406 0.00016024 7.55418e-07
3.98002e-06 7.55418e-07 0.000102443
0.00148088 8.97818e-05 -1.54535e-06
8.97818e-05 -5.03596e-06 -2.94336e-06
-1.54535e-06 -2.94336e-06 -0.000252206
0.00337852 -5.10136e-05 2.99688e-06
-5.10136e-05 0.000897772 -9.66759e-06
2.99688e-06 -9.66759e-06 0.000841417
0.00129511 5.80955e-05 1.80565e-05
5.80955e-05 -0.000114685 -2.72424e-06
1.80565e-05 -2.72424e-06 -0.000217468
0.00152821 -0.000181821 4.11251e-06
-0.000181821 -0.000111949 -1.75542e-07
4.11251e-06 -1.75542e-07 -0.000162197
0.00204534 -0.00012737 -2.30188e-07
-0.00012737 5.60329e-05 -1.7547e-06
-2.30188e-07 -1.7547e-06 1.35051e-05
0.00236761 -3.39149e-05 1.64337e-06
-3.39149e-05 0.000292453 -2.19196e-06
1.64337e-06 -2.19196e-06 0.000235177
0.00171201 -0.000143476 9.09047e-06
-0.000143476 3.17894e-05 8.10206e-07
9.09047e-06 8.10206e-07 -3.81341e-05
0.00186162 -9.9947e-05 2.68487e-06
-9.9947e-05 6.63574e-05 -3.72018e-07
2.68487e-06 -3.72018e-07 4.56271e-06
0.00191584 -5.78114e-05 6.64969e-07
-5.78114e-05 0.00012982 6.83034e-07
6.64969e-07 6.83034e-07 4.74991e-05
0.00183054 -0.000125027 4.33124e-06
-0.000125027 0.000124693 2.90099e-06
4.33124e-06 2.90099e-06 4.5077e-05
0.0018188 -0.000102489 7.55376e-07
-0.000102489 0.000109406 5.56083e-07
7.55376e-07 5.56083e-07 3.38934e-05
0.0018746 -8.13378e-05 -4.70608e-07
-8.13378e-05 0.000163277 1.7284e-06
-4.70608e-07 1.7284e-06 7.51968e-05
0.00148339 -0.000108899 3.06404e-06
-0.000108899 3.25244e-05 2.47696e-06
3.06404e-06 2.47696e-06 -4.82908e-05
0.00155689 -9.89161e-05 4.64384e-07
-9.89161e-05 6.89065e-05 -9.10949e-07
4.64384e-07 -9.10949e-07 -7.9956e-06
0.00149449 -9.20746e-05 2.58466e-06
-9.20746e-05 6.41821e-05 1.96212e-07
2.58466e-06 1.96212e-07 -2.80091e-05
0.00131767 -9.80443e-05 -7.12445e-07
-9.80443e-05 -1.16807e-06 3.88108e-06
-7.12445e-07 3.88108e-06 -8.05113e-05
0.00158166 -0.000101966 -1.23209e-06
-0.000101966 0.000152687 -1.07863e-06
-1.23209e-06 -1.07863e-06 6.10452e-05
0.00172168 -0.000105211 6.53598e-08
-0.000105211 0.000248841 -1.2355e-06
6.53598e-08 -1.2355e-06 0.00014766
0.00143281 -0.000109696 1.5646e-06
-0.000109696 0.000117917 2.09236e-06
1.5646e-06 2.09236e-06 1.2868e-05
0.00140955 -0.000107113 3.12769e-07
-0.000107113 0.000130515 -3.95446e-07
3.12769e-07 -3.95446e-07 2.34827e-05
0.00146214 -0.000106698 -1.94855e-06
-0.000106698 0.000185597 -3.68542e-07
-1.94855e-06 -3.68542e-07 8.06562e-05
0.000756159 -8.18957e-05 -3.77137e-06
-8.18957e-05 -9.59795e-05 1.50736e-06
-3.77137e-06 1.50736e-06 -0.000194735
0.0010248 -9.8576e-05 -5.08625e-07
-9.8576e-05 1.27057e-05 4.69602e-07
-5.08625e-07 4.69602e-07 -9.63879e-05
0.00130699 -0.000112644 2.73346e-06
-0.000112644 0.000127293 -3.82064e-07
2.73346e-06 -3.82064e-07 1.02427e-05
0.000825332 -5.43156e-05 -3.23851e-06
-5.43156e-05 9.51918e-06 1.79954e-06
-3.23851e-06 1.79954e-06 -6.54217e-05
0.00104964 -9.21456e-05 1.21236e-07
-9.21456e-05 9.37638e-05 3.25819e-08
1.21236e-07 3.25819e-08 -1.45991e-06
0.00100435 -9.9399e-05 1.19387e-06
-9.9399e-05 5.35781e-05 -6.05611e-07
1.19387e-06 -6.05611e-07 -5.38932e-05
0.000632835 4.78287e-05 -3.21603e-06
4.78287e-05 -5.3378e-05 4.76842e-06
-3.21603e-06 4.76842e-06 -9.04927e-05
0.000857797 -3.2302e-05 1.35025e-07
-3.2302e-05 3.60241e-05 4.24345e-08
1.35025e-07 4.24345e-08 -3.55188e-05
0.00111155 -9.06885e-05 2.19777e-06
-9.06885e-05 0.000143241 -1.20641e-06
2.19777e-06 -1.20641e-06 5.32076e-05
0.00282181 8.1141e-05 -3.87845e-05
8.1141e-05 0.00110565 3.06502e-06
-3.87845e-05 3.06502e-06 0.00111009
0.000656556 4.8269e-05 7.21889e-07
4.8269e-05 -4.66282e-05 -1.67727e-08
7.21889e-07 -1.67727e-08 -7.7014e-05
0.000851453 -2.16179e-05 2.89728e-06
-2.16179e-05 3.39119e-05 -2.09889e-06
2.89728e-06 -2.09889e-06 -3.35963e-05
0.00263744 7.19811e-05 5.60436e-07
7.19811e-05 0.00100452 1.09229e-07
5.60436e-07 1.09229e-07 0.00101173
0.000702294 5.45846e-05 1.33127e-06
5.45846e-05 -2.34089e-05 -4.67939e-06
1.33127e-06 -4.67939e-06 -4.87879e-05
0.00248653 6.3993e-05 3.42939e-05
6.3993e-05 0.000920207 -3.23145e-06
3.42939e-05 -3.23145e-06 0.000929972
0.00108488 9.67701e-05 -4.05074e-07
9.67701e-05 0.000151673 -6.52954e-07
-4.05074e-07 -6.52954e-07 5.53316e-05
0.00106191 9.01825e-05 2.32491e-07
9.01825e-05 0.000146963 1.36489e-07
2.32491e-07 1.36489e-07 5.67894e-05
0.000949871 4.20127e-05 -1.24064e-06
4.20127e-05 8.45128e-05 -2.64213e-07
-1.24064e-06 -2.64213e-07 2.8291e-06
0.000887818 7.70934e-05 2.75224e-07
7.70934e-05 6.20728e-05 -1.1269e-07
2.75224e-07 -1.1269e-07 -2.23941e-05
0.00082398 -1.85298e-06 -4.10084e-07
-1.85298e-06 2.1608e-05 -7.25776e-08
-4.10084e-07 -7.25776e-08 -5.51767e-05
0.000764673 -8.37333e-06 -2.25207e-06
-8.37333e-06 -6.04158e-06 -1.77346e-06
-2.25207e-06 -1.77346e-06 -6.33935e-05
0.000835393 -3.86025e-05 2.2743e-07
-3.86025e-05 2.35184e-05 1.23951e-06
2.2743e-07 1.23951e-06 -4.6253e-05
0.000780768 -3.70803e-05 1.04862e-07
-3.70803e-05 -1.11402e-06 -2.24426e-07
1.04862e-07 -2.24426e-07 -4.9675e-05
0.000732089 -4.88888e-05 -2.01893e-06
-4.88888e-05 -1.59287e-05 -3.97302e-06
-2.01893e-06 -3.97302e-06 -3.4115e-05
0.00080239 -3.95401e-05 1.1315e-06
-3.95401e-05 3.7448e-06 2.22989e-06
1.1315e-06 2.22989e-06 -3.84913e-05
0.000727441 -3.88363e-05 6.08631e-08
-3.88363e-05 -2.83318e-05 -2.58748e-08
6.08631e-08 -2.58748e-08 -4.1769e-05
0.00232316 -5.66109e-05 -2.95691e-05
-5.66109e-05 0.000827929 -3.22993e-06
-2.95691e-05 -3.22993e-06 0.000840195
0.00228661 -5.07313e-05 -6.52534e-07
-5.07313e-05 0.000799857 8.55864e-08
-6.52534e-07 8.55864e-08 0.000814153
0.000722187 -3.30847e-05 2.35245e-06
-3.30847e-05 -3.82451e-05 3.5913e-06
2.35245e-06 3.5913e-06 -4.92015e-05
0.00227532 -4.51764e-05 2.28703e-05
-4.51764e-05 0.000786125 3.65826e-06
2.28703e-05 3.65826e-06 0.000802062
0.00104229 -7.00303e-05 -5.73783e-05
-7.00303e-05 -0.000407769 -1.69711e-06
-5.73783e-05 -1.69711e-06 -0.00064414
0.00170999 -0.000132473 2.71087e-06
-0.000132473 -0.000433289 -1.02764e-06
2.71087e-06 -1.02764e-06 -0.00106129
0.00262255 -0.000294574 -4.30165e-05
-0.000294574 0.00105879 -9.6253e-06
-4.30165e-05 -9.6253e-06 0.00119543
0.00119855 0.00011041 5.91479e-06
0.00011041 0.000175298 1.71572e-06
5.91479e-06 1.71572e-06 7.08221e-05
0.00112708 7.62102e-05 3.37289e-07
7.62102e-05 0.000200033 -7.11876e-07
3.37289e-07 -7.11876e-07 0.00010699
0.000944232 9.19413e-05 -6.04751e-07
9.19413e-05 9.62323e-05 -6.11593e-07
-6.04751e-07 -6.11593e-07 2.65442e-06
0.000912525 9.06863e-05 2.13205e-07
9.06863e-05 8.86231e-05 2.52788e-07
2.13205e-07 2.52788e-07 -6.40656e-06
0.00103058 9.91387e-05 -1.51423e-07
9.91387e-05 0.000134686 -6.19643e-07
-1.51423e-07 -6.19643e-07 3.42217e-05
0.000645281 8.68938e-05 -1.83715e-07
8.68938e-05 -8.57962e-05 1.83099e-06
-1.83715e-07 1.83099e-06 -0.000172391
0.00105618 9.85788e-05 2.94872e-07
9.85788e-05 0.000156723 -1.72713e-06
2.94872e-07 -1.72713e-06 5.50277e-05
0.000986901 6.99482e-05 -1.29556e-06
6.99482e-05 0.000111514 1.31397e-06
-1.29556e-06 1.31397e-06 1.69573e-05
0.000964532 0.000108292 1.33328e-07
0.000108292 5.7653e-05 -1.64966e-07
1.33328e-07 -1.64966e-07 -3.80196e-05
0.00213544 0.000171869 7.01174e-07
0.000171869 0.000581102 2.0979e-06
7.01174e-07 2.0979e-06 0.000476695
0.00159852 0.000160094 1.5073e-06
0.000160094 0.00017854 -1.42148e-06
1.5073e-06 -1.42148e-06 6.49409e-05
0.00185743 0.000146509 7.58447e-06
0.000146509 8.81759e-05 6.20244e-06
7.58447e-06 6.20244e-06 -3.4117e-05
0.00132572 0.000164194 6.17412e-07
0.000164194 -3.06483e-06 2.82875e-07
6.17412e-07 2.82875e-07 -0.000125921
0.000829807 0.000122897 -1.41342e-06
0.000122897 -7.16608e-05 3.38525e-06
-1.41342e-06 3.38525e-06 -0.00017401
0.000461484 3.66539e-05 -7.83392e-06
3.66539e-05 -0.000410129 1.99507e-06
-7.83392e-06 1.99507e-06 -0.000417884
0.00371284 -5.75143e-05 -1.02725e-05
-5.75143e-05 0.000365793 1.30268e-06
-1.02725e-05 1.30268e-06 8.04113e-05
0.00151209 -0.000178873 7.02197e-06
-0.000178873 -0.000480035 4.76615e-06
7.02197e-06 4.76615e-06 -0.00128468
0.00282883 0.000201375 4.39131e-05
0.000201375 0.000231 2.38653e-05
4.39131e-05 2.38653e-05 -0.000143834
0.00125799 0.000155969 -6.97019e-06
0.000155969 -0.000129497 4.79477e-07
-6.97019e-06 4.79477e-07 -0.000160778
0.000411543 0.00018452 -1.74559e-05
0.00018452 -0.000419224 -1.22052e-05
-1.74559e-05 -1.22052e-05 -0.0005531
0.00264853 -7.73243e-05 1.23239e-05
-7.73243e-05 0.000556791 -5.04833e-06
1.23239e-05 -5.04833e-06 0.00046167
0.00118457 -1.19626e-05 -2.22191e-05
-1.19626e-05 3.41014e-06 2.93301e-06
-2.22191e-05 2.93301e-06 -0.000333588
0.000726374 0.0001983 4.76233e-05
0.0001983 -0.000858301 -8.66064e-06
4.76233e-05 -8.66064e-06 -0.00143494
0.000105621 -6.59229e-05 -6.57275e-06
-6.59229e-05 -0.000572844 1.30636e-05
-6.57275e-06 1.30636e-05 -0.000584266
0.00360778 0.000155853 3.84097e-05
0.000155853 0.000899821 -4.46364e-06
3.84097e-05 -4.46364e-06 0.000608718
0.00172126 -2.90075e-05 5.07201e-06
-2.90075e-05 3.79649e-05 -1.84031e-06
5.07201e-06 -1.84031e-06 -2.1169e-06
0.00209369 7.44297e-05 1.51569e-06
7.44297e-05 0.000302238 -3.00732e-06
1.51569e-06 -3.00732e-06 0.000209279
0.00110173 3.33788e-05 2.88787e-06
3.33788e-05 -0.000347928 -3.27924e-06
2.88787e-06 -3.27924e-06 -0.000427522
0.00241899 4.57341e-05 -2.05166e-06
4.57341e-05 0.000380898 -3.48454e-06
-2.05166e-06 -3.48454e-06 0.000289486
0.00167762 -0.000117695 2.56737e-06
-0.000117695 -0.000117216 -1.36481e-06
2.56737e-06 -1.36481e-06 -0.00016075
0.00196198 -3.32572e-05 3.79295e-06
-3.32572e-05 7.98801e-05 3.4284e-07
3.79295e-06 3.4284e-07 1.84596e-05
0.00212065 -7.90536e-06 2.92285e-07
-7.90536e-06 0.00026229 -2.41859e-06
2.92285e-07 -2.41859e-06 0.000178077
0.00202659 -0.000102142 1.98722e-06
-0.000102142 0.000160115 7.65012e-07
1.98722e-06 7.65012e-07 9.56028e-05
0.00189371 -6.07722e-05 -1.07494e-07
-6.07722e-05 0.000116656 -6.02063e-07
-1.07494e-07 -6.02063e-07 3.34084e-05
0.00180031 -4.38133e-05 -6.1127e-07
-4.38133e-05 0.000114807 -4.55571e-07
-6.1127e-07 -4.55571e-07 1.48489e-05
0.00189193 -0.000104274 1.37663e-07
-0.000104274 0.000155518 1.28414e-09
1.37663e-07 1.28414e-09 7.7775e-05
0.00181772 -8.33455e-05 -1.98642e-08
-8.33455e-05 0.000144451 -1.02633e-06
-1.98642e-08 -1.02633e-06 5.80024e-05
0.00151263 -7.11792e-05 5.90266e-07
-7.11792e-05 2.70259e-05 1.87566e-06
5.90266e-07 1.87566e-06 -7.06993e-05
0.00138784 -9.78054e-05 -4.92429e-07
-9.78054e-05 -7.12083e-06 -1.87515e-06
-4.92429e-07 -1.87515e-06 -8.3736e-05
0.00150785 -9.20135e-05 5.14607e-07
-9.20135e-05 7.06701e-05 -7.97182e-07
5.14607e-07 -7.97182e-07 -2.15873e-05
0.00148269 -9.22747e-05 3.84103e-07
-9.22747e-05 8.28583e-05 1.20421e-07
3.84103e-07 1.20421e-07 -1.87536e-05
0.00140435 -9.67749e-05 -2.69437e-06
-9.67749e-05 6.08987e-05 1.73147e-06
-2.69437e-06 1.73147e-06 -2.90339e-05
0.00154323 -9.93172e-05 -2.59527e-07
-9.93172e-05 0.000155781 -6.90601e-07
-2.59527e-07 -6.90601e-07 5.54673e-05
0.00143757 -9.53655e-05 -1.74072e-06
-9.53655e-05 0.000130706 -2.24376e-07
-1.74072e-06 -2.24376e-07 2.75454e-05
0.00140879 -0.000106137 1.97089e-06
-0.000106137 0.000130237 6.65761e-07
1.97089e-06 6.65761e-07 2.28722e-05
0.0012708 -9.9972e-05 4.11253e-07
-9.9972e-05 8.73842e-05 -2.36772e-07
4.11253e-07 -2.36772e-07 -1.79648e-05
0.00127587 -9.47178e-05 -3.59265e-06
-9.47178e-05 0.000127522 7.50752e-07
-3.59265e-06 7.50752e-07 2.93349e-05
0.000901526 -6.65691e-05 -4.0393e-06
-6.65691e-05 2.3667e-05 1.86969e-06
-4.0393e-06 1.86969e-06 -5.52411e-05
0.000881362 -8.62462e-05 -8.20853e-07
-8.62462e-05 -2.91739e-05 5.71291e-07
-8.20853e-07 5.71291e-07 -0.000127089
0.00110386 -0.000100479 1.93061e-06
-0.000100479 5.6659e-05 -1.74662e-07
1.93061e-06 -1.74662e-07 -5.15868e-05
0.000640502 -8.89218e-06 -5.88116e-06
-8.89218e-06 -4.79771e-05 4.85585e-06
-5.88116e-06 4.85585e-06 -8.94468e-05
0.000880519 -5.64546e-05 1.61135e-07
-5.64546e-05 3.82125e-05 -7.63551e-09
1.61135e-07 -7.63551e-09 -3.72795e-05
0.00110015 -9.40165e-05 2.6352e-06
-9.40165e-05 0.00011828 -1.19542e-06
2.6352e-06 -1.19542e-06 2.30455e-05
0.00295539 8.90401e-05 -4.30797e-05
8.90401e-05 0.00118459 3.03482e-06
-4.30797e-05 3.03482e-06 0.00118539
0.000674504 1.81146e-05 -2.28294e-07
1.81146e-05 -3.6937e-05 -1.44063e-07
-2.28294e-07 -1.44063e-07 -7.22945e-05
0.000918879 -3.8513e-05 3.46089e-06
-3.8513e-05 6.72366e-05 -2.10498e-06
3.46089e-06 -2.10498e-06 -4.45139e-06
0.00280772 7.95001e-05 8.77278e-07
7.95001e-05 0.00109922 1.43012e-07
8.77278e-07 1.43012e-07 0.0011034
0.000698682 3.68003e-05 4.45018e-06
3.68003e-05 -2.49241e-05 -4.53841e-06
4.45018e-06 -4.53841e-06 -5.51346e-05
0.00267027 7.12104e-05 3.88203e-05
7.12104e-05 0.00102161 -3.34783e-06
3.88203e-05 -3.34783e-06 0.00102859
0.000880588 9.3678e-05 -3.31354e-07
9.3678e-05 2.02859e-05 -6.55323e-07
-3.31354e-07 -6.55323e-07 -8.15583e-05
0.0010081 9.28391e-05 -4.57945e-08
9.28391e-05 0.000111744 -4.90591e-07
-4.57945e-08 -4.90591e-07 1.59658e-05
0.00108148 8.25396e-05 -9.59897e-07
8.25396e-05 0.000144076 -1.57888e-07
-9.59897e-07 -1.57888e-07 5.76221e-05
0.00110343 9.24821e-05 -8.07961e-08
9.24821e-05 0.000168519 -6.02712e-07
-8.07961e-08 -6.02712e-07 7.86311e-05
0.000933969 4.43981e-05 -6.90086e-07
4.43981e-05 7.64207e-05 -2.98066e-07
-6.90086e-07 -2.98066e-07 -4.64794e-06
0.000805596 9.00695e-06 -2.26163e-06
9.00695e-06 1.65169e-05 -1.45022e-06
-2.26163e-06 -1.45022e-06 -4.84029e-05
0.000825183 1.18077e-05 2.19329e-07
1.18077e-05 2.23099e-05 6.66099e-08
2.19329e-07 6.66099e-08 -5.50732e-05
0.000786518 -2.91044e-05 -1.59233e-07
-2.91044e-05 5.84388e-06 -6.08469e-09
-1.59233e-07 -6.08469e-09 -5.10534e-05
0.000701862 -5.69654e-05 -1.43818e-06
-5.69654e-05 -2.19228e-05 -4.16726e-06
-1.43818e-06 -4.16726e-06 -4.61525e-05
0.000793334 -3.94836e-05 1.22605e-06
-3.94836e-05 5.77305e-06 2.33883e-06
1.22605e-06 2.33883e-06 -4.2908e-05
0.000707916 -4.61409e-05 5.0903e-08
-4.61409e-05 -2.95934e-05 -6.93431e-08
5.0903e-08 -6.93431e-08 -4.71043e-05
0.00242728 -6.31887e-05 -3.29391e-05
-6.31887e-05 0.000889952 -3.0593e-06
-3.29391e-05 -3.0593e-06 0.000899906
0.000714936 -3.7468e-05 2.8515e-06
-3.7468e-05 -3.51691e-05 3.60631e-06
2.8515e-06 3.60631e-06 -4.83392e-05
0.00231418 -5.66121e-05 -3.96597e-07
-5.66121e-05 0.000822124 7.64649e-08
-3.96597e-07 7.64649e-08 0.000834596
0.00229493 -5.07021e-05 2.5958e-05
-5.07021e-05 0.000803384 3.50392e-06
2.5958e-05 3.50392e-06 0.000817776
0.000540388 -3.5172e-05 -8.94314e-07
-3.5172e-05 -0.00040662 -7.16267e-08
-8.94314e-07 -7.16267e-08 -0.000440365
0.0031303 -5.59174e-05 1.75689e-06
-5.59174e-05 0.000357733 1.05415e-05
1.75689e-06 1.05415e-05 4.17507e-05
0.00573969 0.000113012 -7.37217e-05
0.000113012 0.00171635 -9.61216e-06
-7.37217e-05 -9.61216e-06 0.00099931
0.000843251 9.19389e-05 3.16053e-06
9.19389e-05 -2.95055e-05 1.31975e-06
3.16053e-06 1.31975e-06 -0.000123162
0.00141317 0.000123628 4.03045e-06
0.000123628 0.000188958 -1.33029e-06
4.03045e-06 -1.33029e-06 7.8351e-05
0.000814003 9.48058e-05 9.60424e-08
9.48058e-05 -1.38131e-05 -7.08968e-07
9.60424e-08 -7.08968e-07 -0.000116713
0.0011259 0.000101004 -9.52736e-07
0.000101004 0.000198951 -2.04085e-06
-9.52736e-07 -2.04085e-06 0.000102871
0.000953743 9.59911e-05 -8.94676e-07
9.59911e-05 9.80763e-05 -1.09153e-06
-8.94676e-07 -1.09153e-06 -3.09692e-06
0.00100796 0.000104463 2.1547e-06
0.000104463 9.10406e-05 1.26153e-06
2.1547e-06 1.26153e-06 2.20742e-06
0.00171719 0.000152406 -2.16086e-06
0.000152406 0.000245672 -3.24572e-06
-2.16086e-06 -3.24572e-06 0.000139111
0.00149175 0.000131779 9.64918e-07
0.000131779 0.000327443 -4.33826e-07
9.64918e-07 -4.33826e-07 0.000231582
0.000956365 0.00012327 -1.50832e-06
0.00012327 -8.96001e-07 5.19167e-06
-1.50832e-06 5.19167e-06 -0.000102439
0.00158603 0.000159329 -1.1492e-06
0.000159329 0.000174778 1.40452e-08
-1.1492e-06 1.40452e-08 6.17545e-05
0.00151834 0.000131244 -8.19079e-07
0.000131244 -2.24706e-05 -7.2203e-07
-8.19079e-07 -7.2203e-07 -0.000148714
0.0015755 3.92564e-05 8.79e-06
3.92564e-05 -0.000102211 4.10958e-06
8.79e-06 4.10958e-06 -0.00019309
0.00205065 0.000149295 4.05629e-06
0.000149295 0.000191629 2.01846e-06
4.05629e-06 2.01846e-06 6.9976e-05
0.00125443 0.000158869 -4.27822e-06
0.000158869 -3.92874e-05 1.67857e-06
-4.27822e-06 1.67857e-06 -0.000161347
0.00111108 3.02865e-05 3.07131e-07
3.02865e-05 -9.03652e-05 -5.22135e-07
3.07131e-07 -5.22135e-07 -0.000102697
0.00465982 -0.000143201 4.79905e-05
-0.000143201 0.000714452 2.19564e-05
4.79905e-05 2.19564e-05 0.000397451
0.00171333 0.000150142 -2.16888e-07
0.000150142 0.000158155 -7.41758e-06
-2.16888e-07 -7.41758e-06 0.000117926
0.00185321 -1.17597e-05 5.47624e-06
-1.17597e-05 0.000161006 -1.77802e-06
5.47624e-06 -1.77802e-06 8.81941e-05
0.00184839 -4.92173e-05 -9.29067e-07
-4.92173e-05 0.000195464 5.73243e-07
-9.29067e-07 5.73243e-07 8.20291e-05
0.000683428 6.0528e-05 5.48336e-05
6.0528e-05 -0.000440996 6.83976e-07
5.48336e-05 6.83976e-07 -0.000849035
0.000227578 -1.82261e-05 -6.96294e-06
-1.82261e-05 -0.000724528 3.52554e-06
-6.96294e-06 3.52554e-06 -0.000754563
0.00255855 7.74624e-05 -2.81287e-05
7.74624e-05 0.000556636 4.06061e-06
-2.81287e-05 4.06061e-06 0.000476245
0.00120304 2.82571e-05 -2.32971e-08
2.82571e-05 -0.000304002 4.3465e-06
-2.32971e-08 4.3465e-06 -0.000376886
0.0021444 3.70135e-05 1.52368e-06
3.70135e-05 0.000215829 1.00772e-06
1.52368e-06 1.00772e-06 0.000126594
0.00191471 7.85131e-06 -5.40054e-07
7.85131e-06 0.000122189 8.78696e-08
-5.40054e-07 8.78696e-08 3.77918e-05
0.00146487 1.25968e-05 1.80941e-06
1.25968e-05 -0.000123962 -1.32125e-06
1.80941e-06 -1.32125e-06 -0.000206623
0.00151206 -3.32126e-05 5.90106e-06
-3.32126e-05 -0.000157838 1.86206e-06
5.90106e-06 1.86206e-06 -0.000223152
0.00175006 -8.54021e-06 -1.92811e-06
-8.54021e-06 6.93635e-05 2.34517e-08
-1.92811e-06 2.34517e-08 -1.401e-05
0.00166203 -6.39487e-06 5.31646e-07
-6.39487e-06 4.89394e-05 -1.48744e-06
5.31646e-07 -1.48744e-06 -4.42284e-05
0.00198904 -6.43055e-05 -3.09669e-06
-6.43055e-05 0.00016492 -2.33252e-07
-3.09669e-06 -2.33252e-07 8.11109e-05
0.00181397 -4.41778e-05 -4.67659e-07
-4.41778e-05 0.000124797 -2.36002e-07
-4.67659e-07 -2.36002e-07 2.63973e-05
0.00153863 -3.42541e-05 -6.20555e-07
-3.42541e-05 1.23194e-05 -1.86711e-07
-6.20555e-07 -1.86711e-07 -8.97294e-05
0.00174616 -8.50024e-05 -2.14763e-06
-8.50024e-05 0.000118465 -3.24612e-06
-2.14763e-06 -3.24612e-06 3.36e-05
0.00161222 -7.22089e-05 4.65135e-07
-7.22089e-05 7.50174e-05 5.63093e-07
4.65135e-07 5.63093e-07 -2.28726e-05
0.00155014 -7.42265e-05 -2.74253e-07
-7.42265e-05 6.79813e-05 6.46819e-07
-2.74253e-07 6.46819e-07 -3.48617e-05
0.00152653 -9.20568e-05 -1.12188e-06
-9.20568e-05 7.98034e-05 -1.76812e-06
-1.12188e-06 -1.76812e-06 -1.25139e-05
0.00148944 -9.15235e-05 1.97813e-07
-9.15235e-05 8.56308e-05 -3.44597e-07
1.97813e-07 -3.44597e-07 -1.58962e-05
0.00142798 -8.99725e-05 -1.4459e-06
-8.99725e-05 8.58837e-05 4.09144e-07
-1.4459e-06 4.09144e-07 -1.86906e-05
0.00136459 -9.34744e-05 -1.24062e-07
-9.34744e-05 6.26317e-05 4.22067e-07
-1.24062e-07 4.22067e-07 -3.68246e-05
0.00128683 -9.08106e-05 -1.77098e-07
-9.08106e-05 5.39056e-05 -2.71591e-07
-1.77098e-07 -2.71591e-07 -4.89546e-05
0.00123789 -8.6304e-05 -3.68463e-06
-8.6304e-05 7.13817e-05 7.19794e-07
-3.68463e-06 7.19794e-07 -2.64817e-05
0.00107427 -9.31177e-05 2.61172e-06
-9.31177e-05 -1.33723e-05 -1.22734e-07
2.61172e-06 -1.22734e-07 -0.000119146
0.00106763 -8.70383e-05 2.10112e-07
-8.70383e-05 2.07017e-05 1.25413e-08
2.10112e-07 1.25413e-08 -7.7417e-05
0.000964526 -6.96601e-05 -5.06838e-06
-6.96601e-05 2.19495e-05 1.96846e-06
-5.06838e-06 1.96846e-06 -5.82573e-05
0.000574066 -3.1005e-05 -7.17753e-06
-3.1005e-05 -8.51855e-05 5.16525e-06
-7.17753e-06 5.16525e-06 -0.000131708
0.000928768 -6.89434e-05 1.77819e-07
-6.89434e-05 3.79725e-05 2.89559e-08
1.77819e-07 2.89559e-08 -4.12502e-05
0.00101331 -9.0939e-05 1.8743e-06
-9.0939e-05 4.10905e-05 -2.89523e-07
1.8743e-06 -2.89523e-07 -5.60156e-05
0.00308378 9.88993e-05 -4.49921e-05
9.88993e-05 0.00126823 2.95363e-06
-4.49921e-05 2.95363e-06 0.001264
0.000700838 -1.39254e-06 -3.19381e-07
-1.39254e-06 -1.95955e-05 -5.46863e-08
-3.19381e-07 -5.46863e-08 -6.20629e-05
0.000957402 -5.60526e-05 3.77626e-06
-5.60526e-05 7.88297e-05 -1.8855e-06
3.77626e-06 -1.8855e-06 2.27835e-06
0.00296416 8.84984e-05 9.18002e-07
8.84984e-05 0.00119204 1.69319e-07
9.18002e-07 1.69319e-07 0.00119212
0.000738718 1.57111e-05 5.9466e-06
1.57111e-05 -5.59584e-06 -4.48647e-06
5.9466e-06 -4.48647e-06 -4.09006e-05
0.00283194 7.88653e-05 4.29283e-05
7.88653e-05 0.00111288 -3.31766e-06
4.29283e-05 -3.31766e-06 0.00111662
0.000630495 8.91989e-05 -9.33777e-08
8.91989e-05 -0.000159284 -5.93557e-07
-9.33777e-08 -5.93557e-07 -0.000269038
0.0007215 8.68905e-05 2.89266e-08
8.68905e-05 -6.41498e-05 -1.42371e-07
2.89266e-08 -1.42371e-07 -0.000166549
0.00112627 9.25817e-05 -1.49274e-06
9.25817e-05 0.000143956 -2.74536e-07
-1.49274e-06 -2.74536e-07 5.18988e-05
0.000932866 8.89588e-05 -2.27171e-07
8.89588e-05 7.25304e-05 -5.73804e-07
-2.27171e-07 -5.73804e-07 -2.26721e-05
0.00099205 7.78009e-05 -1.93104e-07
7.78009e-05 9.83024e-05 -1.67007e-07
-1.93104e-07 -1.67007e-07 1.23923e-05
0.000888861 2.71367e-05 -2.7046e-06
2.71367e-05 6.0205e-05 -1.21359e-06
-2.7046e-06 -1.21359e-06 -1.08464e-05
0.000920561 4.62677e-05 2.96272e-07
4.62677e-05 6.97639e-05 -5.23727e-07
2.96272e-07 -5.23727e-07 -1.0761e-05
0.000808392 1.23789e-06 3.9871e-08
1.23789e-06 2.11176e-05 9.46054e-08
3.9871e-08 9.46054e-08 -4.46317e-05
0.000683228 -5.20833e-05 -2.6273e-06
-5.20833e-05 -2.7167e-05 -4.13779e-06
-2.6273e-06 -4.13779e-06 -5.6817e-05
0.000806302 -4.02792e-05 1.3434e-06
-4.02792e-05 1.78254e-05 2.25195e-06
1.3434e-06 2.25195e-06 -3.94508e-05
0.000672661 -5.49536e-05 -1.96432e-08
-5.49536e-05 -3.85374e-05 -1.01777e-07
-1.96432e-08 -1.01777e-07 -6.20667e-05
0.0025757 -7.05643e-05 -3.68048e-05
-7.05643e-05 0.000974044 -2.99076e-06
-3.68048e-05 -2.99076e-06 0.000981337
0.000684658 -4.34241e-05 3.0171e-06
-4.34241e-05 -4.27789e-05 3.6843e-06
3.0171e-06 3.6843e-06 -5.96327e-05
0.00239996 -6.31538e-05 -4.09519e-07
-6.31538e-05 0.000874873 7.87288e-08
-4.09519e-07 7.87288e-08 0.000885091
0.00231585 -5.65253e-05 2.81692e-05
-5.65253e-05 0.000821973 3.29042e-06
2.81692e-05 3.29042e-06 0.000834636
0.0015275 -2.29118e-05 1.01545e-05
-2.29118e-05 -0.000104911 9.22088e-07
1.01545e-05 9.22088e-07 -0.000180472
0.00105203 -5.70207e-05 6.77016e-07
-5.70207e-05 -0.000206959 1.73453e-06
6.77016e-07 1.73453e-06 -0.00025187
0.00222884 -0.000106253 6.78278e-05
-0.000106253 -1.37983e-05 1.60738e-05
6.78278e-05 1.60738e-05 -0.000263203
0.00208362 0.000144621 2.17703e-06
0.000144621 0.000452733 -2.77907e-06
2.17703e-06 -2.77907e-06 0.00034742
0.0008356 9.45325e-05 -1.48155e-06
9.45325e-05 -2.01886e-05 5.30269e-07
-1.48155e-06 5.30269e-07 -0.000108556
0.000723338 0.000100424 -2.73797e-06
0.000100424 -0.000263284 1.21698e-06
-2.73797e-06 1.21698e-06 -0.000377211
0.00142678 0.000124427 4.40306e-07
0.000124427 0.000194801 1.6329e-07
4.40306e-07 1.6329e-07 8.33034e-05
0.000436092 7.92623e-05 -2.88851e-06
7.92623e-05 -0.000198669 5.87992e-07
-2.88851e-06 5.87992e-07 -0.000300093
0.00189033 0.000128048 -2.04256e-06
0.000128048 0.00018835 -4.39955e-06
-2.04256e-06 -4.39955e-06 6.83651e-05
0.00135515 0.000121174 -1.38731e-06
0.000121174 0.000260334 -8.32035e-07
-1.38731e-06 -8.32035e-07 0.000169374
0.00164276 0.000147574 -2.4514e-07
0.000147574 0.000203681 6.38736e-07
-2.4514e-07 6.38736e-07 9.69865e-05
0.00174039 6.25888e-05 4.24896e-06
6.25888e-05 5.2514e-05 2.16077e-06
4.24896e-06 2.16077e-06 -6.05514e-05
0.00161194 0.000160561 1.21081e-06
0.000160561 0.000189117 2.94122e-06
1.21081e-06 2.94122e-06 7.66947e-05
0.00176976 0.000139911 -1.11217e-06
0.000139911 9.30005e-05 -1.10894e-06
-1.11217e-06 -1.10894e-06 -3.53745e-05
0.00168083 4.71362e-05 -2.59533e-07
4.71362e-05 -3.61789e-05 -4.16827e-07
-2.59533e-07 -4.16827e-07 -0.000129131
0.00182046 0.000136372 -1.65791e-06
0.000136372 9.38154e-05 -1.03153e-06
-1.65791e-06 -1.03153e-06 -2.74611e-05
0.00117602 2.92804e-05 -4.46729e-06
2.92804e-05 -6.11753e-05 -6.78914e-06
-4.46729e-06 -6.78914e-06 -7.52887e-05
0.0016158 -5.12916e-06 4.75133e-06
-5.12916e-06 -8.95668e-06 -2.85169e-07
4.75133e-06 -2.85169e-07 -9.38932e-05
0.00177822 -4.76448e-06 -8.92904e-07
-4.76448e-06 0.000123674 -5.21327e-09
-8.92904e-07 -5.21327e-09 4.97422e-05
0.000745032 -1.2003e-05 -8.68392e-06
-1.2003e-05 -0.000320632 2.92706e-06
-8.68392e-06 2.92706e-06 -0.000451122
0.00131506 2.44952e-05 -1.5283e-06
2.44952e-05 -0.00026161 3.08477e-06
-1.5283e-06 3.08477e-06 -0.000327648
0.00203137 3.01362e-05 8.47725e-06
3.01362e-05 0.000134443 3.00178e-06
8.47725e-06 3.00178e-06 4.72226e-05
0.00183743 8.88525e-06 -3.09199e-06
8.88525e-06 8.00564e-05 -2.43816e-07
-3.09199e-06 -2.43816e-07 -3.4696e-06
0.00171498 1.07478e-05 5.35686e-07
1.07478e-05 1.08638e-05 7.46688e-07
5.35686e-07 7.46688e-07 -7.106e-05
0.00182505 5.58921e-06 1.50154e-06
5.58921e-06 0.000101748 -3.25443e-07
1.50154e-06 -3.25443e-07 9.78015e-06
0.00142928 -8.83983e-06 -3.19767e-06
-8.83983e-06 -9.71517e-05 8.12241e-07
-3.19767e-06 8.12241e-07 -0.000179932
0.00173506 -5.3729e-06 -1.81526e-08
-5.3729e-06 8.89384e-05 1.05384e-07
-1.81526e-08 1.05384e-07 -4.82426e-06
0.00162514 -5.19499e-07 -3.47934e-07
-5.19499e-07 4.63971e-05 -7.66428e-07
-3.47934e-07 -7.66428e-07 -5.39952e-05
0.00185647 -4.50547e-05 -1.50959e-06
-4.50547e-05 0.000149314 5.09978e-08
-1.50959e-06 5.09978e-08 5.24689e-05
0.00163774 -3.53726e-05 -8.70453e-08
-3.53726e-05 6.22897e-05 7.53805e-07
-8.70453e-08 7.53805e-07 -3.97631e-05
0.00162725 -3.67796e-05 -1.20077e-06
-3.67796e-05 7.9648e-05 -6.08759e-07
-1.20077e-06 -6.08759e-07 -2.36502e-05
0.00171918 -7.32494e-05 7.05042e-07
-7.32494e-05 0.000126702 -6.73131e-07
7.05042e-07 -6.73131e-07 2.86604e-05
0.0015869 -7.38376e-05 2.51972e-07
-7.38376e-05 8.55474e-05 5.182e-07
2.51972e-07 5.182e-07 -1.73472e-05
0.00151148 -7.60132e-05 -1.73445e-06
-7.60132e-05 8.1886e-05 3.71463e-07
-1.73445e-06 3.71463e-07 -2.28351e-05
0.00149978 -9.09155e-05 2.03998e-07
-9.09155e-05 9.02188e-05 -8.32179e-07
2.03998e-07 -8.32179e-07 -1.12264e-05
0.00142974 -8.93518e-05 1.06362e-07
-8.93518e-05 8.62771e-05 -1.08112e-07
1.06362e-07 -1.08112e-07 -1.82015e-05
0.00130739 -8.24559e-05 -3.5372e-06
-8.24559e-05 6.68318e-05 9.90451e-07
-3.5372e-06 9.90451e-07 -3.3355e-05
0.0011428 -8.64237e-05 1.50139e-06
-8.64237e-05 -1.95729e-05 -1.79738e-07
1.50139e-06 -1.79738e-07 -0.00012212
0.00122989 -8.54247e-05 2.73538e-08
-8.54247e-05 6.72141e-05 -1.03657e-07
2.73538e-08 -1.03657e-07 -3.0495e-05
0.00102221 -6.75898e-05 -6.08786e-06
-6.75898e-05 1.78859e-05 2.24842e-06
-6.08786e-06 2.24842e-06 -6.34304e-05
0.00085991 -7.93134e-05 3.15113e-06
-7.93134e-05 -8.58536e-05 -5.45885e-07
3.15113e-06 -5.45885e-07 -0.000183894
0.000978082 -7.05252e-05 2.22044e-07
-7.05252e-05 2.89866e-05 -2.25293e-08
2.22044e-07 -2.25293e-08 -5.13995e-05
0.00169855 -7.82391e-06 -7.84442e-06
-7.82391e-06 0.00050825 3.47991e-06
-7.84442e-06 3.47991e-06 0.000463511
0.00106709 3.67322e-05 -4.90131e-05
3.67322e-05 0.00020682 6.83884e-06
-4.90131e-05 6.83884e-06 0.000188073
0.00124265 -1.65008e-05 -1.30373e-06
-1.65008e-05 0.000265003 -7.4064e-08
-1.30373e-06 -7.4064e-08 0.000220702
0.000972142 -7.16268e-05 4.35223e-06
-7.16268e-05 6.07613e-05 -1.65572e-06
4.35223e-06 -1.65572e-06 -1.8825e-05
0.00315342 9.68208e-05 2.20135e-06
9.68208e-05 0.00130779 2.44265e-07
2.20135e-06 2.44265e-07 0.001303
0.000767991 -1.70661e-05 7.20261e-06
-1.70661e-05 8.95829e-06 -4.68529e-06
7.20261e-06 -4.68529e-06 -3.23019e-05
0.00296752 8.52755e-05 4.80703e-05
8.52755e-05 0.00119595 -3.18326e-06
4.80703e-05 -3.18326e-06 0.00119579
0.00125828 0.000105892 -2.25844e-07
0.000105892 -3.26615e-05 2.80782e-07
-2.25844e-07 2.80782e-07 -0.000136517
0.000793912 9.80913e-05 2.36385e-06
9.80913e-05 -0.000135732 1.29054e-06
2.36385e-06 1.29054e-06 -0.000248091
0.000812464 9.74535e-05 -1.95446e-07
9.74535e-05 -7.20064e-05 -1.06563e-07
-1.95446e-07 -1.06563e-07 -0.000183206
0.00114394 9.80816e-05 -1.76637e-06
9.80816e-05 0.00012235 -5.06296e-07
-1.76637e-06 -5.06296e-07 2.5513e-05
0.000557733 7.99186e-05 -1.21219e-07
7.99186e-05 -0.000150987 4.67648e-07
-1.21219e-07 4.67648e-07 -0.000253933
0.00102883 8.71353e-05 -2.94431e-07
8.71353e-05 9.52498e-05 -8.34535e-08
-2.94431e-07 -8.34535e-08 3.79302e-06
0.000949405 4.68392e-05 -3.15317e-06
4.68392e-05 8.25701e-05 -9.43734e-07
-3.15317e-06 -9.43734e-07 8.3749e-06
0.000910549 7.33363e-05 9.30186e-07
7.33363e-05 5.67087e-05 2.77986e-08
9.30186e-07 2.77986e-08 -2.86907e-05
0.000830258 2.24499e-05 -6.44813e-08
2.24499e-05 3.07388e-05 1.94446e-07
-6.44813e-08 1.94446e-07 -4.01525e-05
0.000714126 -3.28122e-05 -4.80457e-06
-3.28122e-05 -1.0313e-05 -4.01774e-06
-4.80457e-06 -4.01774e-06 -4.6042e-05
0.00082579 -1.54071e-05 1.4536e-06
-1.54071e-05 3.22091e-05 1.63273e-06
1.4536e-06 1.63273e-06 -3.35571e-05
0.000641769 -6.15502e-05 -8.06388e-08
-6.15502e-05 -4.72431e-05 -1.279e-07
-8.06388e-08 -1.279e-07 -7.79302e-05
0.00273296 -7.85624e-05 -4.06452e-05
-7.85624e-05 0.00106333 -3.01015e-06
-4.06452e-05 -3.01015e-06 0.00106738
0.000643355 -5.20613e-05 2.6605e-06
-5.20613e-05 -5.53683e-05 3.92998e-06
2.6605e-06 3.92998e-06 -7.80586e-05
0.00254548 -7.07835e-05 -4.50707e-07
-7.07835e-05 0.000957941 9.3458e-08
-4.50707e-07 9.3458e-08 0.000965494
0.00237771 -6.29781e-05 3.0382e-05
-6.29781e-05 0.000862323 3.0631e-06
3.0382e-05 3.0631e-06 0.000872839
0.00164099 7.29869e-06 6.08744e-06
7.29869e-06 3.18588e-06 1.67323e-06
6.08744e-06 1.67323e-06 -9.36177e-05
0.00206862 -2.5038e-05 -1.84886e-06
-2.5038e-05 0.000202875 -8.69295e-07
-1.84886e-06 -8.69295e-07 0.000130251
0.00214813 -9.47351e-05 -7.00745e-07
-9.47351e-05 0.000285088 9.00525e-08
-7.00745e-07 9.00525e-08 0.000225518
0.00163307 0.000115085 -5.44457e-06
0.000115085 8.21344e-05 -2.86912e-06
-5.44457e-06 -2.86912e-06 -3.17237e-05
0.00170533 0.000131429 -3.40027e-07
0.000131429 0.000282968 5.84237e-07
-3.40027e-07 5.84237e-07 0.000181543
0.000759319 9.48547e-05 -7.95047e-06
9.48547e-05 -4.68594e-05 4.71521e-07
-7.95047e-06 4.71521e-07 -0.000129733
0.00144628 0.000123993 2.07305e-06
0.000123993 0.000100898 1.56141e-06
2.07305e-06 1.56141e-06 -1.12183e-05
0.00146168 0.000126016 -3.06598e-06
0.000126016 0.000211597 6.60878e-07
-3.06598e-06 6.60878e-07 9.91579e-05
0.00202615 6.38405e-05 -3.53256e-07
6.38405e-05 0.00020384 1.37317e-06
-3.53256e-07 1.37317e-06 8.64902e-05
0.00167652 0.000123131 -2.39865e-06
0.000123131 7.98797e-05 -1.88014e-06
-2.39865e-06 -1.88014e-06 -4.31835e-05
0.00158016 0.000143689 1.33466e-06
0.000143689 0.000167917 5.64395e-06
1.33466e-06 5.64395e-06 6.08352e-05
0.00176608 6.37624e-05 -4.53374e-07
6.37624e-05 6.46476e-05 -2.49744e-08
-4.53374e-07 -2.49744e-08 -4.87266e-05
0.00212086 0.000151645 6.50268e-07
0.000151645 0.000257046 -5.94854e-07
6.50268e-07 -5.94854e-07 0.000126627
0.00182386 5.28547e-05 -1.01946e-05
5.28547e-05 4.12885e-05 -4.8258e-06
-1.01946e-05 -4.8258e-06 -5.30173e-05
0.00190078 -3.80606e-06 3.04383e-06
-3.80606e-06 0.00013702 2.25584e-07
3.04383e-06 2.25584e-07 4.17316e-05
0.00178996 -3.28559e-06 -4.94612e-07
-3.28559e-06 7.33832e-05 -6.34423e-07
-4.94612e-07 -6.34423e-07 -1.10113e-05
0.00184492 3.03658e-06 -6.23006e-06
3.03658e-06 0.000153738 2.84698e-06
-6.23006e-06 2.84698e-06 7.91019e-05
0.00172892 9.07325e-06 -2.15926e-06
9.07325e-06 2.37865e-05 1.33195e-06
-2.15926e-06 1.33195e-06 -5.8911e-05
0.00188451 8.49076e-06 2.05079e-06
8.49076e-06 0.000104833 2.34135e-06
2.05079e-06 2.34135e-06 2.37436e-05
0.00180822 6.39771e-06 -5.72786e-07
6.39771e-06 9.42814e-05 -2.74521e-07
-5.72786e-07 -2.74521e-07 3.45085e-06
0.00172651 8.52465e-06 1.34486e-06
8.52465e-06 7.935e-05 -1.77012e-07
1.34486e-06 -1.77012e-07 -2.46988e-05
0.00179113 -4.54695e-06 4.0967e-07
-4.54695e-06 0.00011972 1.42032e-06
4.0967e-07 1.42032e-06 2.5451e-05
0.00164098 -2.34396e-06 -6.43704e-07
-2.34396e-06 5.80915e-05 4.02413e-09
-6.43704e-07 4.02413e-09 -4.26129e-05
0.00165298 -6.91505e-06 -1.61307e-06
-6.91505e-06 8.4713e-05 3.65753e-07
-1.61307e-06 3.65753e-07 -2.23377e-05
0.00172857 -3.65304e-05 8.60962e-07
-3.65304e-05 0.000108046 1.15536e-06
8.60962e-07 1.15536e-06 5.98651e-06
0.00163864 -3.69639e-05 -1.77083e-08
-3.69639e-05 8.50635e-05 -4.16675e-08
-1.77083e-08 -4.16675e-08 -1.81978e-05
0.00156398 -4.5185e-05 -2.17245e-06
-4.5185e-05 8.07984e-05 -6.35708e-07
-2.17245e-06 -6.35708e-07 -2.24594e-05
0.00161988 -7.32635e-05 1.31688e-06
-7.32635e-05 0.000101214 3.45019e-07
1.31688e-06 3.45019e-07 -1.72543e-06
0.00151822 -7.55337e-05 1.16652e-07
-7.55337e-05 8.48454e-05 4.59698e-07
1.16652e-07 4.59698e-07 -1.98544e-05
0.00139058 -7.21362e-05 -3.74272e-06
-7.21362e-05 6.842e-05 7.99173e-07
-3.74272e-06 7.99173e-07 -3.2593e-05
0.00143157 -8.87791e-05 1.72361e-06
-8.87791e-05 8.67128e-05 -6.22543e-07
1.72361e-06 -6.22543e-07 -1.76758e-05
0.00130855 -8.18431e-05 9.3297e-08
-8.18431e-05 6.69933e-05 -8.52352e-09
9.3297e-08 -8.52352e-09 -3.30914e-05
0.00108104 -6.48716e-05 -6.83884e-06
-6.48716e-05 1.53932e-05 2.51271e-06
-6.83884e-06 2.51271e-06 -6.86402e-05
0.00122159 -8.45439e-05 3.30464e-06
-8.45439e-05 6.29312e-05 -8.19e-07
3.30464e-06 -8.19e-07 -3.46296e-05
0.00103137 -6.77175e-05 2.83896e-07
-6.77175e-05 2.20598e-05 -1.0141e-07
2.83896e-07 -1.0141e-07 -5.93549e-05
0.00180667 -9.38165e-06 -7.68362e-06
-9.38165e-06 0.000552601 3.65974e-06
-7.68362e-06 3.65974e-06 0.00050703
0.000994608 -7.16246e-05 5.14489e-06
-7.16246e-05 3.78098e-05 -1.8292e-06
5.14489e-06 -1.8292e-06 -4.28116e-05
0.00188848 -2.41667e-05 1.50758e-05
-2.41667e-05 0.000600663 -1.03719e-06
1.50758e-05 -1.03719e-06 0.000557277
0.0012064 3.12126e-06 -6.60174e-05
3.12126e-06 0.000291648 7.61367e-06
-6.60174e-05 7.61367e-06 0.00027159
0.00221346 5.41636e-05 -4.90747e-05
5.41636e-05 0.000820738 1.30872e-06
-4.90747e-05 1.30872e-06 0.000808112
0.00193997 -2.50788e-05 3.3343e-05
-2.50788e-05 0.000627492 -3.96399e-06
3.3343e-05 -3.96399e-06 0.000588632
0.00319865 8.22754e-05 5.90036e-05
8.22754e-05 0.00133323 -3.31999e-06
5.90036e-05 -3.31999e-06 0.0013293
0.00163548 0.000103451 -3.88142e-06
0.000103451 8.24833e-05 -3.54827e-06
-3.88142e-06 -3.54827e-06 -2.57893e-05
0.00154851 0.000116729 4.13085e-06
0.000116729 0.000189071 3.93599e-07
4.13085e-06 3.93599e-07 8.268e-05
0.00127248 0.000107683 1.481e-06
0.000107683 -1.503e-05 9.89906e-07
1.481e-06 9.89906e-07 -0.000110815
0.00115972 0.000102595 -1.9458e-06
0.000102595 9.02645e-05 -9.81895e-07
-1.9458e-06 -9.81895e-07 -1.20187e-05
0.00115445 0.000113349 -5.31775e-07
0.000113349 4.61167e-05 2.45183e-07
-5.31775e-07 2.45183e-07 -6.73977e-05
0.000993458 0.000105994 1.46717e-07
0.000105994 1.46352e-05 5.01325e-07
1.46717e-07 5.01325e-07 -9.80239e-05
0.00109027 9.58147e-05 -1.78517e-07
9.58147e-05 9.75004e-05 -1.40213e-07
-1.78517e-07 -1.40213e-07 5.42557e-07
0.000983327 6.73334e-05 -3.34463e-06
6.73334e-05 8.09308e-05 -1.20808e-06
-3.34463e-06 -1.20808e-06 3.51008e-06
0.000928304 8.16174e-05 8.75312e-07
8.16174e-05 4.48142e-05 6.3254e-08
8.75312e-07 6.3254e-08 -4.60231e-05
0.000857786 4.31447e-05 -2.56398e-07
4.31447e-05 3.47235e-05 3.5102e-08
-2.56398e-07 3.5102e-08 -3.86593e-05
0.000749092 -2.55971e-06 -6.06868e-06
-2.55971e-06 5.17317e-06 -3.97282e-06
-6.06868e-06 -3.97282e-06 -3.4944e-05
0.000748883 1.68146e-05 1.79401e-06
1.68146e-05 -1.06761e-05 1.19753e-06
1.79401e-06 1.19753e-06 -8.13517e-05
0.000647819 -4.14985e-05 -1.39463e-07
-4.14985e-05 -4.42653e-05 -9.47068e-08
-1.39463e-07 -9.47068e-08 -7.93703e-05
0.00288509 -8.67128e-05 -4.52017e-05
-8.67128e-05 0.00115436 -2.90983e-06
-4.52017e-05 -2.90983e-06 0.00115432
0.000585262 -5.9591e-05 1.71584e-06
-5.9591e-05 -7.76535e-05 4.35796e-06
1.71584e-06 4.35796e-06 -0.000107739
0.00271359 -7.92315e-05 -6.3975e-07
-7.92315e-05 0.0010525 1.23579e-07
-6.3975e-07 1.23579e-07 0.00105692
0.00251117 -7.05692e-05 3.33404e-05
-7.05692e-05 0.000939484 2.87432e-06
3.33404e-05 2.87432e-06 0.000947392
0.00181959 1.11099e-05 2.02132e-07
1.11099e-05 8.84081e-05 9.76419e-07
2.02132e-07 9.76419e-07 -1.55591e-05
0.00170249 6.30817e-06 5.94717e-07
6.30817e-06 3.28516e-05 1.37951e-07
5.94717e-07 1.37951e-07 -6.38665e-05
0.00238286 -2.62207e-05 -1.87846e-05
-2.62207e-05 0.00039888 -2.4826e-06
-1.87846e-05 -2.4826e-06 0.000329087
0.00177234 6.17977e-05 -7.44503e-07
6.17977e-05 9.26487e-05 6.249e-07
-7.44503e-07 6.249e-07 -2.11743e-05
0.00174525 0.00011771 1.64677e-07
0.00011771 0.000144047 -1.15888e-06
1.64677e-07 -1.15888e-06 3.02003e-05
0.0014167 0.000121284 -3.5329e-06
0.000121284 0.000157706 2.24397e-06
-3.5329e-06 2.24397e-06 6.01641e-05
0.00211469 0.000145608 1.72665e-06
0.000145608 0.000437051 3.80694e-07
1.72665e-06 3.80694e-07 0.000326884
0.00195011 6.3928e-05 -5.59335e-07
6.3928e-05 0.000163168 -1.21897e-07
-5.59335e-07 -1.21897e-07 4.58774e-05
0.00147609 0.000118277 8.80183e-07
0.000118277 -2.20052e-05 4.79209e-07
8.80183e-07 4.79209e-07 -0.000148103
0.00176275 6.53789e-05 -3.44653e-06
6.53789e-05 6.33137e-05 -2.23e-06
-3.44653e-06 -2.23e-06 -5.0538e-05
0.00183152 2.419e-06 2.40883e-06
2.419e-06 0.000101129 1.29223e-07
2.40883e-06 1.29223e-07 -1.88622e-06
0.00182407 -2.22596e-06 -5.45246e-07
-2.22596e-06 9.67542e-05 -1.96314e-07
-5.45246e-07 -1.96314e-07 6.25284e-07
0.00192456 -4.95219e-07 -5.03194e-06
-4.95219e-07 0.000137365 2.53319e-07
-5.03194e-06 2.53319e-07 5.3431e-05
0.00193206 1.56061e-05 7.41311e-07
1.56061e-05 0.000171473 -3.4854e-08
7.41311e-07 -3.4854e-08 6.39416e-05
0.00183022 7.92372e-06 -2.06167e-06
7.92372e-06 0.00010656 5.87884e-07
-2.06167e-06 5.87884e-07 1.67703e-05
0.0017728 9.68572e-06 -1.65271e-07
9.68572e-06 0.000102036 1.34365e-08
-1.65271e-07 1.34365e-08 -1.48543e-06
0.00162455 5.89357e-06 6.00655e-07
5.89357e-06 5.78296e-05 -5.68696e-07
6.00655e-07 -5.68696e-07 -5.25373e-05
0.00167683 -3.93966e-06 -3.54745e-08
-3.93966e-06 7.99823e-05 1.41863e-06
-3.54745e-08 1.41863e-06 -2.10404e-05
0.00166909 -6.39131e-06 -4.48259e-07
-6.39131e-06 9.34482e-05 4.83708e-07
-4.48259e-07 4.83708e-07 -1.35016e-05
0.00158152 -1.24648e-05 -2.93692e-06
-1.24648e-05 7.9856e-05 9.25467e-07
-2.93692e-06 9.25467e-07 -2.63755e-05
0.00165682 -3.66411e-05 1.47048e-06
-3.66411e-05 9.39304e-05 5.32396e-07
1.47048e-06 5.32396e-07 -9.27904e-06
0.00157169 -4.35313e-05 -6.63036e-08
-4.35313e-05 8.45673e-05 -1.5432e-07
-6.63036e-08 -1.5432e-07 -1.86927e-05
0.00143896 -5.09004e-05 -4.00052e-06
-5.09004e-05 6.73474e-05 -5.4373e-08
-4.00052e-06 -5.4373e-08 -3.23973e-05
0.001527 -7.5019e-05 2.34164e-06
-7.5019e-05 8.88198e-05 5.07396e-07
2.34164e-06 5.07396e-07 -1.58501e-05
0.00138835 -7.14742e-05 8.41745e-08
-7.14742e-05 6.70439e-05 3.85059e-07
8.41745e-08 3.85059e-07 -3.38841e-05
0.00114825 -5.83306e-05 -7.50213e-06
-5.83306e-05 1.89337e-05 2.21191e-06
-7.50213e-06 2.21191e-06 -6.70358e-05
0.00130956 -8.11814e-05 3.67297e-06
-8.11814e-05 6.70887e-05 -9.89658e-07
3.67297e-06 -9.89658e-07 -3.28915e-05
0.00109116 -6.42314e-05 3.65427e-07
-6.42314e-05 1.91574e-05 6.65439e-09
3.65427e-07 6.65439e-09 -6.48178e-05
0.00193773 -1.68132e-05 -1.02082e-05
-1.68132e-05 0.000601698 3.25849e-06
-1.02082e-05 3.25849e-06 0.000557704
0.00103581 -6.76816e-05 6.00045e-06
-6.76816e-05 2.39567e-05 -2.3023e-06
6.00045e-06 -2.3023e-06 -5.75681e-05
0.00199614 -2.97392e-05 1.66242e-05
-2.97392e-05 0.000644892 -1.0919e-06
1.66242e-05 -1.0919e-06 0.000601083
0.00128036 -5.9613e-06 -7.0703e-05
-5.9613e-06 0.000333494 7.36566e-06
-7.0703e-05 7.36566e-06 0.000312154
0.00206105 -4.38974e-05 3.99238e-05
-4.38974e-05 0.000682781 -6.11824e-06
3.99238e-05 -6.11824e-06 0.000641323
0.00122238 3.61347e-05 -3.06076e-05
3.61347e-05 0.000308386 2.40453e-06
-3.06076e-05 2.40453e-06 0.000283642
0.00327506 0.000131143 1.21046e-05
0.000131143 0.00139711 -1.54596e-06
1.21046e-05 -1.54596e-06 0.00138233
0.00193848 7.39728e-05 -2.06919e-06
7.39728e-05 0.00021458 -1.44477e-06
-2.06919e-06 -1.44477e-06 0.000101531
0.00156975 9.94234e-05 -6.15835e-07
9.94234e-05 0.000102477 -3.17738e-06
-6.15835e-07 -3.17738e-06 -4.04759e-06
0.00169902 0.000106625 -2.9179e-06
0.000106625 0.000127205 1.47004e-06
-2.9179e-06 1.47004e-06 2.00348e-05
0.00159337 0.000113082 -1.37367e-06
0.000113082 0.000259934 -2.87317e-07
-1.37367e-06 -2.87317e-07 0.000157671
0.00137617 0.000113459 5.60926e-07
0.000113459 9.71229e-05 -1.55477e-06
5.60926e-07 -1.55477e-06 -8.45991e-06
0.00133689 0.000110866 2.64639e-06
0.000110866 2.77165e-05 1.74655e-06
2.64639e-06 1.74655e-06 -6.00779e-05
0.00101223 7.85785e-05 -4.2823e-06
7.85785e-05 6.27076e-05 -2.11495e-06
-4.2823e-06 -2.11495e-06 -2.05255e-05
0.00116154 0.000103107 -1.32301e-07
0.000103107 9.19827e-05 -9.75309e-08
-1.32301e-07 -9.75309e-08 -1.0603e-05
0.00151496 0.000128364 1.73811e-06
0.000128364 0.000228184 7.6056e-07
1.73811e-06 7.6056e-07 0.000113495
0.00102561 9.3061e-05 1.30312e-06
9.3061e-05 6.70005e-05 1.71475e-07
1.30312e-06 1.71475e-07 -3.00367e-05
0.000913017 6.39602e-05 -2.13156e-07
6.39602e-05 4.5087e-05 -1.84797e-07
-2.13156e-07 -1.84797e-07 -3.19575e-05
0.000785401 3.23581e-05 -7.55795e-06
3.23581e-05 2.33922e-05 -4.54651e-06
-7.55795e-06 -4.54651e-06 -2.22946e-05
0.000767931 4.07151e-05 2.25613e-06
4.07151e-05 -1.25727e-05 7.51531e-07
2.25613e-06 7.51531e-07 -8.50625e-05
0.000687938 -7.21411e-06 1.04807e-07
-7.21411e-06 -2.15296e-05 -4.29494e-08
1.04807e-07 -4.29494e-08 -6.25612e-05
0.0030697 -8.78383e-05 -5.4496e-05
-8.78383e-05 0.00126782 -2.79153e-06
-5.4496e-05 -2.79153e-06 0.00126382
0.0005898 -6.18276e-05 1.39102e-06
-6.18276e-05 -6.89249e-05 4.54235e-06
1.39102e-06 4.54235e-06 -0.000106638
0.00287218 -8.84627e-05 -9.44485e-07
-8.84627e-05 0.00114556 1.68805e-07
-9.44485e-07 1.68805e-07 0.00114595
0.00270061 -7.9717e-05 3.67344e-05
-7.9717e-05 0.00104495 2.76936e-06
3.67344e-05 2.76936e-06 0.00104977
0.00180853 1.67473e-05 -4.21337e-07
1.67473e-05 9.26738e-05 3.55795e-07
-4.21337e-07 3.55795e-07 -1.1968e-05
0.00177489 1.29452e-05 -7.87654e-07
1.29452e-05 6.18307e-05 2.50022e-07
-7.87654e-07 2.50022e-07 -4.28253e-05
0.00186768 4.77173e-06 -5.41905e-06
4.77173e-06 0.000112762 -1.47199e-06
-5.41905e-06 -1.47199e-06 1.62953e-05
0.00179671 6.24899e-05 9.75364e-07
6.24899e-05 0.00010233 -1.88185e-07
9.75364e-07 -1.88185e-07 -9.53461e-06
0.00183826 0.000120091 1.05494e-06
0.000120091 0.000196763 4.96666e-08
1.05494e-06 4.96666e-08 8.28477e-05
0.0018465 6.33697e-05 6.3987e-07
6.33697e-05 0.000109316 -1.54861e-06
6.3987e-07 -1.54861e-06 -7.84693e-06
0.00182457 7.5273e-06 3.30665e-07
7.5273e-06 0.000100029 2.01044e-07
3.30665e-07 2.01044e-07 -6.9389e-06
0.00184834 5.00066e-06 2.53592e-07
5.00066e-06 0.00010865 -1.85404e-07
2.53592e-07 -1.85404e-07 5.04296e-06
0.00173128 -4.28587e-08 -2.23026e-06
-4.28587e-08 4.82489e-05 -3.84964e-07
-2.23026e-06 -3.84964e-07 -4.87273e-05
0.00182764 6.13444e-06 -6.77991e-07
6.13444e-06 0.000118279 -8.81612e-08
-6.77991e-07 -8.81612e-08 1.16618e-05
0.00187582 8.31665e-06 9.83847e-07
8.31665e-06 0.00015933 -1.1346e-07
9.83847e-07 -1.1346e-07 4.75838e-05
0.00178019 1.05887e-05 -1.19212e-06
1.05887e-05 0.000105087 7.88967e-08
-1.19212e-06 7.88967e-08 2.07632e-06
0.00172601 6.88165e-06 4.06361e-07
6.88165e-06 0.000110744 -3.63644e-07
4.06361e-07 -3.63644e-07 9.5355e-08
0.00148786 1.38832e-06 -4.11186e-07
1.38832e-06 1.72799e-05 -9.81756e-08
-4.11186e-07 -9.81756e-08 -9.45927e-05
0.00168027 -6.51394e-06 6.0988e-07
-6.51394e-06 9.97996e-05 6.18785e-07
6.0988e-07 6.18785e-07 -7.07796e-06
0.00159663 -1.31557e-05 -8.92086e-07
-1.31557e-05 8.79112e-05 6.62782e-07
-8.92086e-07 6.62782e-07 -1.84251e-05
0.00146037 -2.03741e-05 -4.72581e-06
-2.03741e-05 6.63957e-05 9.01948e-07
-4.72581e-06 9.01948e-07 -3.53157e-05
0.00157924 -4.34115e-05 2.10727e-06
-4.34115e-05 8.81904e-05 3.01908e-07
2.10727e-06 3.01908e-07 -1.50949e-05
0.00144192 -4.9844e-05 2.32285e-08
-4.9844e-05 6.8504e-05 -8.65472e-08
2.32285e-08 -8.65472e-08 -3.11871e-05
0.00116817 -4.28989e-05 -7.83115e-06
-4.28989e-05 8.99997e-06 1.26812e-06
-7.83115e-06 1.26812e-06 -7.6397e-05
0.00138424 -7.07099e-05 4.01585e-06
-7.07099e-05 6.46969e-05 -4.03806e-08
4.01585e-06 -4.03806e-08 -3.61429e-05
0.00114681 -5.6772e-05 2.73074e-07
-5.6772e-05 1.6826e-05 3.15574e-07
2.73074e-07 3.15574e-07 -6.89163e-05
0.00209494 -2.54197e-05 -1.40192e-05
-2.54197e-05 0.000661054 2.4358e-06
-1.40192e-05 2.4358e-06 0.000618819
0.00109542 -6.35826e-05 6.94692e-06
-6.35826e-05 1.99288e-05 -2.44757e-06
6.94692e-06 -2.44757e-06 -6.39935e-05
0.00210464 -4.05133e-05 1.57453e-05
-4.05133e-05 0.00068235 -1.14931e-06
1.57453e-05 -1.14931e-06 0.000640224
0.00139022 -7.47486e-06 -7.45237e-05
-7.47486e-06 0.000384332 6.59366e-06
-7.45237e-05 6.59366e-06 0.000362556
0.00217497 -5.2618e-05 4.36699e-05
-5.2618e-05 0.000730467 -5.98622e-06
4.36699e-05 -5.98622e-06 0.000688864
0.00129438 3.286e-05 -3.44075e-05
3.286e-05 0.000349099 2.19399e-06
-3.44075e-05 2.19399e-06 0.000322943
0.00127423 7.59162e-05 4.46699e-06
7.59162e-05 0.000345727 -2.87057e-06
4.46699e-06 -2.87057e-06 0.000315256
0.00167372 2.54053e-05 -1.37781e-06
2.54053e-05 5.64851e-05 4.05715e-07
-1.37781e-06 4.05715e-07 -5.17014e-05
0.00163537 7.39806e-05 -3.07927e-06
7.39806e-05 9.56166e-05 -1.11257e-06
-3.07927e-06 -1.11257e-06 -1.34932e-05
0.00178958 7.16248e-05 -1.87927e-06
7.16248e-05 0.000136809 -9.70319e-07
-1.87927e-06 -9.70319e-07 2.31905e-05
0.00155799 9.9446e-05 -2.85684e-06
9.9446e-05 0.000165438 -1.15438e-06
-2.85684e-06 -1.15438e-06 6.26881e-05
0.00171183 0.000103689 1.29112e-06
0.000103689 0.000179428 6.94373e-07
1.29112e-06 6.94373e-07 7.29432e-05
0.00172562 0.000108725 4.42978e-06
0.000108725 0.000153801 3.14403e-06
4.42978e-06 3.14403e-06 4.77536e-05
0.000980913 7.91532e-05 -5.50248e-06
7.91532e-05 -1.10151e-06 -2.30365e-06
-5.50248e-06 -2.30365e-06 -8.74784e-05
0.00124179 0.000103004 1.65333e-06
0.000103004 7.44059e-05 8.92538e-07
1.65333e-06 8.92538e-07 -2.90246e-05
0.00120035 0.000110124 7.04835e-07
0.000110124 3.13188e-06 1.33924e-06
7.04835e-07 1.33924e-06 -0.000101596
0.000788543 5.91335e-05 -1.0164e-05
5.91335e-05 1.8797e-05 -5.44146e-06
-1.0164e-05 -5.44146e-06 -3.1822e-05
0.000970907 7.58028e-05 -3.67374e-07
7.58028e-05 4.16736e-05 -2.166e-07
-3.67374e-07 -2.166e-07 -4.11425e-05
0.00116738 0.000103784 2.15967e-06
0.000103784 9.58207e-05 9.40474e-07
2.15967e-06 9.40474e-07 -7.08814e-06
0.000857167 6.05555e-05 2.93878e-06
6.05555e-05 1.68491e-05 9.39849e-07
2.93878e-06 9.39849e-07 -5.98423e-05
0.00070023 2.73651e-05 3.68827e-09
2.73651e-05 -1.49666e-05 -2.93277e-09
3.68827e-09 -2.93277e-09 -6.08756e-05
0.00336322 -7.12682e-05 -6.548e-05
-7.12682e-05 0.00143832 -3.79722e-06
-6.548e-05 -3.79722e-06 0.00143091
0.000642825 -1.35954e-05 4.0098e-06
-1.35954e-05 -4.16491e-05 4.31452e-06
4.0098e-06 4.31452e-06 -8.22061e-05
0.00304222 -9.83965e-05 -1.80434e-06
-9.83965e-05 0.00125105 2.47649e-07
-1.80434e-06 2.47649e-07 0.00124645
0.00287632 -8.93841e-05 4.04344e-05
-8.93841e-05 0.00114529 2.72566e-06
4.04344e-05 2.72566e-06 0.00114629
0.00182558 6.71675e-06 -2.86747e-07
6.71675e-06 0.000111652 -2.56764e-07
-2.86747e-07 -2.56764e-07 5.71072e-06
0.00180944 1.62721e-05 -3.11485e-07
1.62721e-05 9.381e-05 1.02318e-07
-3.11485e-07 1.02318e-07 -1.10282e-05
0.00174439 1.43871e-05 1.23029e-07
1.43871e-05 4.25641e-05 -9.71727e-07
1.23029e-07 -9.71727e-07 -6.27955e-05
0.00183284 6.30743e-05 1.69507e-06
6.30743e-05 0.000117651 -2.98931e-07
1.69507e-06 -2.98931e-07 7.7582e-06
0.0018273 -6.12045e-07 -1.50429e-07
-6.12045e-07 0.000117884 -3.44087e-07
-1.50429e-07 -3.44087e-07 7.36924e-06
0.00184703 5.68875e-06 -4.88002e-08
5.68875e-06 0.00011144 -4.71209e-08
-4.88002e-08 -4.71209e-08 4.447e-06
0.00186732 7.26817e-06 -1.82558e-06
7.26817e-06 0.000117036 -1.66962e-08
-1.82558e-06 -1.66962e-08 1.28233e-05
0.00176434 6.89881e-07 -2.27285e-06
6.89881e-07 8.66624e-05 -3.904e-07
-2.27285e-06 -3.904e-07 -1.91522e-05
0.00182843 1.31767e-05 -1.17909e-07
1.31767e-05 0.000133194 -2.23993e-07
-1.17909e-07 -2.23993e-07 2.17253e-05
0.00186672 9.632e-06 -6.72364e-07
9.632e-06 0.000180287 2.92798e-07
-6.72364e-07 2.92798e-07 6.60607e-05
0.00185811 8.18147e-06 3.50731e-07
8.18147e-06 0.000179329 -4.17658e-07
3.50731e-07 -4.17658e-07 6.84037e-05
0.001668 3.00192e-06 6.65639e-07
3.00192e-06 0.000112288 -4.32757e-07
6.65639e-07 -4.32757e-07 9.81597e-07
0.00128385 2.41341e-07 -3.51321e-06
2.41341e-07 -4.20108e-05 1.0695e-06
-3.51321e-06 1.0695e-06 -0.000149708
0.00160473 -1.22892e-05 9.17368e-07
-1.22892e-05 9.2534e-05 4.20402e-07
9.17368e-07 4.20402e-07 -1.38952e-05
0.00147028 -1.79435e-05 -5.77388e-07
-1.79435e-05 7.11954e-05 2.31257e-07
-5.77388e-07 2.31257e-07 -3.04854e-05
0.00117544 -2.08363e-05 -7.70841e-06
-2.08363e-05 1.26525e-06 1.11392e-06
-7.70841e-06 1.11392e-06 -8.49232e-05
0.00144056 -4.66306e-05 3.87691e-06
-4.66306e-05 6.75251e-05 -1.00368e-07
3.87691e-06 -1.00368e-07 -3.20359e-05
0.00118123 -4.30687e-05 1.62498e-08
-4.30687e-05 1.47601e-05 1.32029e-07
1.62498e-08 1.32029e-07 -7.05141e-05
0.000686026 -2.52599e-05 -1.17811e-05
-2.52599e-05 -9.7861e-05 2.58533e-06
-1.17811e-05 2.58533e-06 -0.000146751
0.00114603 -5.54176e-05 7.6411e-06
-5.54176e-05 1.49775e-05 -1.6265e-06
7.6411e-06 -1.6265e-06 -7.05411e-05
0.00144215 -4.23987e-05 1.9172e-05
-4.23987e-05 0.00031216 -7.12066e-07
1.9172e-05 -7.12066e-07 0.000267388
0.00446801 1.51278e-05 -8.78949e-05
1.51278e-05 0.00200134 3.06936e-06
-8.78949e-05 3.06936e-06 0.00199485
0.00226825 -5.06331e-05 4.67431e-05
-5.06331e-05 0.000762894 -5.36439e-06
4.67431e-05 -5.36439e-06 0.000721517
0.00136642 2.44e-05 -3.49511e-05
2.44e-05 0.000378614 2.15436e-06
-3.49511e-05 2.15436e-06 0.000353386
0.00133683 7.59839e-05 3.08155e-06
7.59839e-05 0.000381536 -2.90495e-06
3.08155e-06 -2.90495e-06 0.000349681
0.00173476 1.23838e-05 -1.97088e-07
1.23838e-05 8.85581e-05 -2.51873e-08
-1.97088e-07 -2.51873e-08 -1.78567e-05
0.00147187 3.65281e-05 -1.95819e-06
3.65281e-05 -3.0791e-06 1.06247e-07
-1.95819e-06 1.06247e-07 -0.000110864
0.00175464 2.56839e-05 -3.3711e-07
2.56839e-05 0.000101139 -2.21781e-07
-3.3711e-07 -2.21781e-07 -6.66963e-06
0.00116217 6.98744e-05 -4.31992e-06
6.98744e-05 -8.99259e-05 -1.67551e-06
-4.31992e-06 -1.67551e-06 -0.000194217
0.00166814 7.47659e-05 1.76049e-07
7.47659e-05 0.000114678 -4.7807e-09
1.76049e-07 -4.7807e-09 5.71967e-06
0.00164461 6.96066e-05 3.68967e-07
6.96066e-05 6.10972e-05 -1.69416e-07
3.68967e-07 -1.69416e-07 -5.31239e-05
0.000656667 6.26596e-05 -8.15526e-06
6.26596e-05 -0.000227342 -2.91776e-06
-8.15526e-06 -2.91776e-06 -0.000316453
0.00157702 0.000101473 8.91673e-07
0.000101473 0.000174684 9.02228e-08
8.91673e-07 9.02228e-08 7.17354e-05
0.00186563 0.000108377 3.02761e-06
0.000108377 0.000262487 1.87954e-06
3.02761e-06 1.87954e-06 0.000156006
0.000742664 7.15487e-05 -1.17699e-05
7.15487e-05 -2.3285e-05 -5.52756e-06
-1.17699e-05 -5.52756e-06 -7.6428e-05
0.000778307 7.24557e-05 -1.12762e-07
7.24557e-05 -0.000109579 1.30885e-07
-1.12762e-07 1.30885e-07 -0.000197019
0.000889114 9.29429e-05 3.97543e-06
9.29429e-05 -0.000111721 2.17783e-06
3.97543e-06 2.17783e-06 -0.000216316
0.00382762 -6.6944e-05 -7.26743e-05
-6.6944e-05 0.00169096 -4.75524e-06
-7.26743e-05 -4.75524e-06 0.00167915
0.000679061 5.13089e-05 -5.06354e-08
5.13089e-05 -3.29358e-05 2.58246e-08
-5.06354e-08 2.58246e-08 -8.34827e-05
0.00093296 7.31758e-05 3.9126e-06
7.31758e-05 2.27667e-05 1.90561e-06
3.9126e-06 1.90561e-06 -5.9697e-05
0.000614449 2.25737e-05 6.19657e-06
2.25737e-05 -5.41016e-05 4.52464e-06
6.19657e-06 4.52464e-06 -0.000100172
0.00326729 -9.82325e-05 -4.0319e-06
-9.82325e-05 0.00138719 1.79544e-07
-4.0319e-06 1.79544e-07 0.00137854
0.002999 -9.91471e-05 4.33588e-05
-9.91471e-05 0.0012247 2.66161e-06
4.33588e-05 2.66161e-06 0.00122083
0.00178862 -2.09135e-06 -1.03261e-06
-2.09135e-06 0.000102686 -5.95364e-07
-1.03261e-06 -5.95364e-07 -6.00659e-06
0.0018399 6.51463e-06 -3.34585e-07
6.51463e-06 0.000116378 5.51264e-09
-3.34585e-07 5.51264e-09 1.04262e-05
0.00181626 1.60704e-05 4.23298e-07
1.60704e-05 9.84814e-05 -3.83982e-07
4.23298e-07 -3.83982e-07 -6.55486e-06
0.00188215 1.06849e-05 -7.94022e-07
1.06849e-05 0.000173299 -3.2361e-07
-7.94022e-07 -3.2361e-07 5.9972e-05
0.00180528 3.44981e-06 -4.50847e-07
3.44981e-06 0.000106502 -9.48734e-08
-4.50847e-07 -9.48734e-08 -3.85947e-06
0.00185733 5.95166e-07 -1.53201e-06
5.95166e-07 0.000116551 8.6887e-10
-1.53201e-06 8.6887e-10 9.5974e-06
0.00174805 1.61561e-05 -5.39748e-07
1.61561e-05 8.96832e-05 -6.71649e-09
-5.39748e-07 -6.71649e-09 -2.13936e-05
0.00181147 1.14941e-05 7.24137e-07
1.14941e-05 0.000152054 -2.4283e-07
7.24137e-07 -2.4283e-07 3.76251e-05
0.00180019 6.26595e-06 -2.99305e-06
6.26595e-06 0.00018725 6.70762e-07
-2.99305e-06 6.70762e-07 7.70549e-05
0.00185384 4.61258e-06 2.14456e-06
4.61258e-06 0.000210181 -1.10406e-06
2.14456e-06 -1.10406e-06 9.94471e-05
0.00158505 3.20273e-06 -3.0494e-08
3.20273e-06 0.000116788 3.43667e-08
-3.0494e-08 3.43667e-08 1.10739e-05
0.000824295 -2.73691e-06 -9.03273e-06
-2.73691e-06 -0.000205084 2.20696e-06
-9.03273e-06 2.20696e-06 -0.000299276
0.00146925 -1.79374e-05 3.13692e-06
-1.79374e-05 7.05036e-05 -4.16886e-07
3.13692e-06 -4.16886e-07 -3.12636e-05
0.00119271 -1.8532e-05 -6.45672e-08
-1.8532e-05 9.40959e-06 -1.74603e-07
-6.45672e-08 -1.74603e-07 -7.66862e-05
0.000707262 -1.4372e-05 -1.1806e-05
-1.4372e-05 -9.39013e-05 1.7012e-06
-1.1806e-05 1.7012e-06 -0.000143944
0.00118746 -4.1664e-05 8.00054e-06
-4.1664e-05 1.70024e-05 -1.14056e-06
8.00054e-06 -1.14056e-06 -6.80696e-05
0.000688825 -2.20639e-05 -4.6215e-08
-2.20639e-05 -9.64639e-05 1.43304e-07
-4.6215e-08 1.43304e-07 -0.000145289
0.00448933 9.10301e-06 -8.97867e-05
9.10301e-06 0.00200761 2.25185e-06
-8.97867e-05 2.25185e-06 0.00200194
0.000767007 -4.20415e-05 1.37091e-05
-4.20415e-05 -4.66853e-05 -4.46855e-06
1.37091e-05 -4.46855e-06 -9.66155e-05
0.00297819 2.26297e-05 3.40709e-05
2.26297e-05 0.00121517 6.76102e-07
3.40709e-05 6.76102e-07 0.00119903
0.00135629 2.95619e-05 1.09833e-05
2.95619e-05 0.000376637 -2.17965e-06
1.09833e-05 -2.17965e-06 0.000350263
0.00181276 2.18534e-06 -2.73594e-07
2.18534e-06 0.000137352 -2.19242e-07
-2.73594e-07 -2.19242e-07 3.05821e-05
0.00165601 1.84982e-05 -1.04763e-06
1.84982e-05 8.52045e-05 -3.47952e-07
-1.04763e-06 -3.47952e-07 -1.98395e-05
0.00171443 1.14332e-05 2.3178e-07
1.14332e-05 7.81038e-05 1.30608e-07
2.3178e-07 1.30608e-07 -2.81663e-05
0.00145158 4.59206e-05 -3.48248e-06
4.59206e-05 4.36647e-05 -7.02191e-07
-3.48248e-06 -7.02191e-07 -5.82551e-05
0.00154414 3.65772e-05 3.9729e-07
3.65772e-05 3.29031e-05 1.42212e-08
3.9729e-07 1.42212e-08 -7.42399e-05
0.00182953 2.58527e-05 5.58418e-07
2.58527e-05 0.000142718 -5.46657e-07
5.58418e-07 -5.46657e-07 3.52866e-05
0.000748812 5.2869e-05 -8.94608e-06
5.2869e-05 -0.00021797 -2.76132e-06
-8.94608e-06 -2.76132e-06 -0.000307113
0.00154408 7.93285e-05 -1.25708e-06
7.93285e-05 0.000111301 -4.01029e-07
-1.25708e-06 -4.01029e-07 8.52366e-06
0.00169926 7.53756e-05 3.30384e-06
7.53756e-05 0.000132828 4.60588e-07
3.30384e-06 4.60588e-07 2.40378e-05
0.0007058 6.72754e-05 -1.26586e-05
6.72754e-05 -6.75116e-05 -4.81574e-06
-1.26586e-05 -4.81574e-06 -0.000119559
0.000700082 6.45291e-05 -2.16728e-06
6.45291e-05 -0.000207477 -6.51026e-07
-2.16728e-06 -6.51026e-07 -0.000297235
0.00159546 0.000103492 4.62086e-06
0.000103492 0.00018358 1.4249e-06
4.62086e-06 1.4249e-06 8.04411e-05
0.00428112 -7.58946e-05 -7.59875e-05
-7.58946e-05 0.00192739 -5.051e-06
-7.59875e-05 -5.051e-06 0.00191244
0.000673093 6.55706e-05 5.19765e-07
6.55706e-05 -5.71526e-05 1.90682e-07
5.19765e-07 1.90682e-07 -0.000109841
0.000569504 6.54629e-05 5.33519e-06
6.54629e-05 -0.000221103 2.74195e-06
5.33519e-06 2.74195e-06 -0.000309611
0.00361501 -8.60401e-05 -4.2791e-06
-8.60401e-05 0.00158098 2.83191e-07
-4.2791e-06 2.83191e-07 0.00156903
0.000576807 4.41276e-05 7.67197e-06
4.41276e-05 -8.18157e-05 5.17364e-06
7.67197e-06 5.17364e-06 -0.000132209
0.00314064 -0.000109456 4.59805e-05
-0.000109456 0.00131915 2.57831e-06
4.59805e-05 2.57831e-06 0.00130989
0.00180746 7.22114e-06 -8.78815e-07
7.22114e-06 0.000139249 -7.90483e-07
-8.78815e-07 -7.90483e-07 2.82076e-05
0.00180217 -1.07667e-06 9.11993e-08
-1.07667e-06 0.000112235 2.61582e-07
9.11993e-08 2.61582e-07 3.65304e-06
0.00184591 6.54083e-06 -2.19576e-07
6.54083e-06 0.000116664 1.72109e-07
-2.19576e-07 1.72109e-07 1.07077e-05
0.0018151 -2.12952e-06 -3.3833e-06
-2.12952e-06 0.00018128 -2.28939e-07
-3.3833e-06 -2.28939e-07 7.20288e-05
0.00186572 1.0531e-05 6.08751e-07
1.0531e-05 0.000165303 -2.68235e-08
6.08751e-07 -2.68235e-08 5.23943e-05
0.00179464 1.02278e-05 6.74327e-07
1.02278e-05 0.000101017 8.46548e-08
6.74327e-07 8.46548e-08 -9.30475e-06
0.00175786 1.20787e-05 1.64866e-06
1.20787e-05 0.000124649 -4.06315e-07
1.64866e-06 -4.06315e-07 1.0031e-05
0.0017878 6.15477e-06 1.03382e-06
6.15477e-06 0.000181744 -1.37974e-07
1.03382e-06 -1.37974e-07 7.13485e-05
0.000915369 4.1841e-07 -9.19904e-06
4.1841e-07 -0.00019445 1.61033e-06
-9.19904e-06 1.61033e-06 -0.000294319
0.0019031 6.07018e-06 4.33407e-06
6.07018e-06 0.000283998 -1.23302e-06
4.33407e-06 -1.23302e-06 0.000180314
0.00102361 -3.48762e-07 -1.76487e-06
-3.48762e-07 -9.76505e-05 5.22206e-07
-1.76487e-06 5.22206e-07 -0.000189758
0.000706079 -5.46702e-06 -1.21587e-05
-5.46702e-06 -0.000107953 1.53728e-06
-1.21587e-05 1.53728e-06 -0.000162447
0.00122022 -1.79636e-05 7.69603e-06
-1.79636e-05 2.25888e-05 -1.58032e-06
7.69603e-06 -1.58032e-06 -6.34517e-05
0.000712895 -5.25862e-06 2.11459e-07
-5.25862e-06 -9.13351e-05 -1.22385e-07
2.11459e-07 -1.22385e-07 -0.000141562
0.00455986 1.05186e-05 -9.13629e-05
1.05186e-05 0.00204082 1.40122e-06
-9.13629e-05 1.40122e-06 0.00203547
0.000680082 -1.67925e-05 1.13118e-05
-1.67925e-05 -0.000100974 -2.22416e-06
1.13118e-05 -2.22416e-06 -0.000149526
0.00452065 1.72009e-05 7.99905e-07
1.72009e-05 0.00202314 3.53523e-07
7.99905e-07 3.53523e-07 0.00201756
0.00154465 -7.83161e-06 7.97096e-05
-7.83161e-06 0.000455267 -3.21765e-06
7.97096e-05 -3.21765e-06 0.000434422
0.00190429 7.19172e-06 -6.45043e-07
7.19172e-06 0.000210373 -6.95806e-07
-6.45043e-07 -6.95806e-07 0.000104868
0.00174623 1.56496e-06 6.30975e-07
1.56496e-06 0.00010235 6.16884e-07
6.30975e-07 6.16884e-07 -3.64502e-06
0.00148873 1.81213e-05 -3.10917e-06
1.81213e-05 4.86686e-05 -8.75315e-07
-3.10917e-06 -8.75315e-07 -5.3245e-05
0.0016698 1.79468e-05 3.23183e-07
1.79468e-05 9.12133e-05 -1.77433e-07
3.23183e-07 -1.77433e-07 -1.386e-05
0.00169925 1.04646e-05 1.3139e-06
1.04646e-05 7.02139e-05 1.01672e-07
1.3139e-06 1.01672e-07 -3.59049e-05
0.00121621 4.07499e-05 -7.85258e-06
4.07499e-05 8.95066e-06 -1.99739e-06
-7.85258e-06 -1.99739e-06 -7.81054e-05
0.00148526 4.64548e-05 -7.61458e-08
4.64548e-05 5.98086e-05 1.53846e-07
-7.61458e-08 1.53846e-07 -4.20976e-05
0.00161182 3.65688e-05 1.86275e-06
3.65688e-05 6.65117e-05 2.42817e-07
1.86275e-06 2.42817e-07 -3.99883e-05
0.000699481 4.88927e-05 -1.27167e-05
4.88927e-05 -9.06922e-05 -3.9603e-06
-1.27167e-05 -3.9603e-06 -0.000141501
0.000977177 5.89362e-05 -2.44178e-06
5.89362e-05 -9.73221e-05 -5.2933e-07
-2.44178e-06 -5.2933e-07 -0.000185779
0.00192985 8.87979e-05 3.6712e-06
8.87979e-05 0.000314618 9.11686e-07
3.6712e-06 9.11686e-07 0.000213343
0.00455157 -3.50104e-05 -8.76352e-05
-3.50104e-05 0.00205059 -4.10301e-06
-8.76352e-05 -4.10301e-06 0.00204171
0.000666291 6.1241e-05 1.86613e-07
6.1241e-05 -8.63364e-05 2.06753e-07
1.86613e-07 2.06753e-07 -0.000138719
0.000743407 6.65791e-05 4.87839e-06
6.65791e-05 -0.000187643 1.92387e-06
4.87839e-06 1.92387e-06 -0.000278073
0.00405359 -5.71015e-05 1.24302e-06
-5.71015e-05 0.0018056 1.16364e-07
1.24302e-06 1.16364e-07 0.00179429
0.000576917 5.8562e-05 9.95492e-06
5.8562e-05 -0.000104124 5.53863e-06
9.95492e-06 5.53863e-06 -0.000156625
0.00341028 -0.000107371 5.36653e-05
-0.000107371 0.00147543 3.09777e-06
5.36653e-05 3.09777e-06 0.00146273
0.00180005 1.12828e-05 -2.76319e-06
1.12828e-05 0.000181388 -9.49032e-07
-2.76319e-06 -9.49032e-07 7.48115e-05
0.00183735 5.13055e-06 4.08594e-07
5.13055e-06 0.000156221 1.31182e-07
4.08594e-07 1.31182e-07 4.52546e-05
0.00181759 -4.74771e-07 1.37807e-06
-4.74771e-07 0.000122949 9.51394e-07
1.37807e-06 9.51394e-07 1.44798e-05
0.000950853 -1.28568e-05 -9.69304e-06
-1.28568e-05 -0.000186738 -1.22233e-07
-9.69304e-06 -1.22233e-07 -0.000286409
0.00182078 5.14681e-06 1.02541e-06
5.14681e-06 0.000184401 -2.71234e-08
1.02541e-06 -2.71234e-08 7.50671e-05
0.00184774 1.06478e-05 2.20569e-06
1.06478e-05 0.000156566 1.17439e-07
2.20569e-06 1.17439e-07 4.40928e-05
0.00178424 5.78172e-06 4.83348e-06
5.78172e-06 0.000180943 -7.31585e-07
4.83348e-06 -7.31585e-07 7.03188e-05
0.00091171 -2.97759e-07 -1.34724e-06
-2.97759e-07 -0.000192983 5.72834e-07
-1.34724e-06 5.72834e-07 -0.000292376
0.000757373 3.78774e-06 -1.29076e-05
3.78774e-06 -0.000102435 9.91492e-07
-1.29076e-05 9.91492e-07 -0.00016117
0.00121704 2.87172e-06 5.96124e-06
2.87172e-06 6.65312e-06 -1.32853e-06
5.96124e-06 -1.32853e-06 -8.3355e-05
0.000747749 4.02928e-06 2.88888e-07
4.02928e-06 -8.82065e-05 -7.41185e-08
2.88888e-07 -7.41185e-08 -0.00014276
0.00474141 1.14472e-05 -9.41985e-05
1.14472e-05 0.00213013 5.80022e-07
-9.41985e-05 5.80022e-07 0.00212444
0.00072967 4.04218e-06 1.15148e-05
4.04218e-06 -8.33734e-05 -1.67638e-06
1.15148e-05 -1.67638e-06 -0.000133529
0.00460755 4.14417e-05 3.87763e-06
4.14417e-05 0.00206594 2.00961e-07
3.87763e-06 2.00961e-07 0.00205951
0.00455797 2.21037e-05 9.4675e-05
2.21037e-05 0.0020413 -1.51606e-06
9.4675e-05 -1.51606e-06 0.00203601
0.00156312 8.2261e-06 -3.25274e-06
8.2261e-06 7.52475e-05 -1.32099e-06
-3.25274e-06 -1.32099e-06 -2.8581e-05
0.0017539 5.94259e-06 4.79082e-07
5.94259e-06 0.000130444 1.96424e-07
4.79082e-07 1.96424e-07 2.47186e-05
0.00167638 1.07885e-06 1.23957e-06
1.07885e-06 6.56701e-05 1.09671e-06
1.23957e-06 1.09671e-06 -3.95469e-05
0.00123705 1.52374e-05 -7.61786e-06
1.52374e-05 4.66168e-06 -1.88788e-06
-7.61786e-06 -1.88788e-06 -8.37281e-05
0.00152266 1.83158e-05 1.56936e-07
1.83158e-05 6.54626e-05 -7.722e-08
1.56936e-07 -7.722e-08 -3.6516e-05
0.00167688 1.73782e-05 1.38953e-06
1.73782e-05 9.3909e-05 1.56852e-08
1.38953e-06 1.56852e-08 -1.12108e-05
0.000719717 2.92941e-05 -1.24733e-05
2.92941e-05 -9.53249e-05 -3.20788e-06
-1.24733e-05 -3.20788e-06 -0.000146142
0.00121718 4.15871e-05 -4.67419e-08
4.15871e-05 1.00559e-05 1.42646e-07
-4.67419e-08 1.42646e-07 -7.72007e-05
0.00152013 4.69613e-05 3.79279e-06
4.69613e-05 7.65255e-05 1.09303e-06
3.79279e-06 1.09303e-06 -2.53656e-05
0.00467708 -3.52214e-06 -9.83578e-05
-3.52214e-06 0.00210247 -3.28131e-06
-9.83578e-05 -3.28131e-06 0.00209698
0.000683395 4.75061e-05 1.76057e-08
4.75061e-05 -9.85964e-05 1.10484e-07
1.76057e-08 1.10484e-07 -0.000149484
0.00119833 6.50576e-05 5.70583e-06
6.50576e-05 1.95861e-05 1.87982e-06
5.70583e-06 1.87982e-06 -6.81855e-05
0.0043992 -2.75234e-05 4.62324e-06
-2.75234e-05 0.00197397 2.28864e-07
4.62324e-06 2.28864e-07 0.00196483
0.000624867 5.58827e-05 1.10626e-05
5.58827e-05 -0.000106649 4.96585e-06
1.10626e-05 4.96585e-06 -0.000159041
0.00383689 -7.47825e-05 6.49718e-05
-7.47825e-05 0.00169588 3.92562e-06
6.49718e-05 3.92562e-06 0.00168427
0.00132011 3.75141e-06 -8.26993e-06
3.75141e-06 1.42897e-05 -8.33235e-07
-8.26993e-06 -8.33235e-07 -8.10191e-05
0.00162159 6.00752e-06 1.08973e-06
6.00752e-06 8.54374e-05 -1.33379e-09
1.08973e-06 -1.33379e-09 -2.28316e-05
0.00186562 1.89486e-06 1.97808e-06
1.89486e-06 0.000172211 1.02837e-06
1.97808e-06 1.02837e-06 6.13094e-05
0.000771014 1.39508e-05 -1.3651e-05
1.39508e-05 -0.00010858 -4.76987e-07
-1.3651e-05 -4.76987e-07 -0.00016736
0.000935081 -5.6811e-06 -1.63643e-06
-5.6811e-06 -0.000195115 9.77862e-08
-1.63643e-06 9.77862e-08 -0.00029478
0.00182163 1.20444e-05 5.35764e-06
1.20444e-05 0.000184967 1.24062e-07
5.35764e-06 1.24062e-07 7.55575e-05
0.000898502 -5.06629e-07 6.04728e-06
-5.06629e-07 -0.0001964 -3.69688e-07
6.04728e-06 -3.69688e-07 -0.000295319
0.000760557 7.01417e-06 1.41713e-07
7.01417e-06 -0.000101757 4.56647e-07
1.41713e-07 4.56647e-07 -0.00016057
0.0050749 1.60568e-05 -9.88888e-05
1.60568e-05 0.0022946 -3.34279e-07
-9.88888e-05 -3.34279e-07 0.00228834
0.000776446 1.29295e-05 1.2188e-05
1.29295e-05 -7.46969e-05 -1.40846e-06
1.2188e-05 -1.40846e-06 -0.000129499
0.00484975 1.59331e-05 1.76896e-06
1.59331e-05 0.00218327 3.57233e-07
1.76896e-06 3.57233e-07 0.00217764
0.00465368 2.18729e-05 9.9396e-05
2.18729e-05 0.00208643 -7.30134e-07
9.9396e-05 -7.30134e-07 0.00208139
0.00128402 5.10682e-06 -8.0345e-06
5.10682e-06 1.13437e-05 -1.84175e-06
-8.0345e-06 -1.84175e-06 -8.04658e-05
0.00148557 6.67836e-06 -4.80465e-08
6.67836e-06 3.23022e-05 -1.36571e-07
-4.80465e-08 -1.36571e-07 -7.22526e-05
0.00160783 4.64139e-06 1.52951e-06
4.64139e-06 5.27018e-05 1.17327e-06
1.52951e-06 1.17327e-06 -5.32409e-05
0.00245217 7.41132e-06 -5.54383e-05
7.41132e-06 0.000806189 -1.95765e-06
-5.54383e-05 -1.95765e-06 0.000764244
0.00124294 1.62908e-05 1.19629e-07
1.62908e-05 7.90744e-06 3.43881e-08
1.19629e-07 3.43881e-08 -8.06945e-05
0.00155858 1.83439e-05 3.5012e-06
1.83439e-05 8.32629e-05 7.44036e-07
3.5012e-06 7.44036e-07 -1.87801e-05
0.00477629 3.05842e-06 -0.000105559
3.05842e-06 0.00214572 -2.3931e-06
-0.000105559 -2.3931e-06 0.00214106
0.00071731 3.07184e-05 -8.15106e-09
3.07184e-05 -9.60922e-05 4.34258e-08
-8.15106e-09 4.34258e-08 -0.000146965
0.00121617 4.22665e-05 7.98001e-06
4.22665e-05 1.01263e-05 2.21839e-06
7.98001e-06 2.21839e-06 -7.73354e-05
0.00459513 2.51357e-06 1.93551e-06
2.51357e-06 0.00206279 4.23887e-07
1.93551e-06 4.23887e-07 0.00205678
0.000671387 4.67029e-05 1.19256e-05
4.67029e-05 -0.00010428 4.09242e-06
1.19256e-05 4.09242e-06 -0.000155218
0.00425544 -1.68534e-05 8.2534e-05
-1.68534e-05 0.00189889 3.98005e-06
8.2534e-05 3.98005e-06 0.00189142
0.000798356 6.81011e-06 -1.51112e-05
6.81011e-06 -9.27152e-05 -1.87179e-06
-1.51112e-05 -1.87179e-06 -0.000152547
0.00112551 6.96015e-07 3.0302e-07
6.96015e-07 -8.86961e-05 4.08407e-07
3.0302e-07 4.08407e-07 -0.000185168
0.00143798 7.16392e-07 4.65976e-06
7.16392e-07 -1.33334e-05 8.81986e-07
4.65976e-06 8.81986e-07 -0.000123238
0.00528614 -4.06326e-05 -0.000101214
-4.06326e-05 0.00240393 -1.65995e-06
-0.000101214 -1.65995e-06 0.00239404
0.000777107 1.00013e-05 -3.96143e-08
1.00013e-05 -0.000104168 2.64235e-07
-3.96143e-08 2.64235e-07 -0.000163873
0.000928567 1.15577e-06 6.3247e-06
1.15577e-06 -0.000198735 3.34689e-07
6.3247e-06 3.34689e-07 -0.0002984
0.000777227 1.43366e-05 1.28517e-05
1.43366e-05 -9.39962e-05 5.5997e-08
1.28517e-05 5.5997e-08 -0.000153088
0.00516554 5.25035e-05 4.12553e-06
5.25035e-05 0.00234081 4.78317e-07
4.12553e-06 4.78317e-07 0.00233349
0.00496687 7.3258e-05 0.000103949
7.3258e-05 0.00224376 2.43033e-07
0.000103949 2.43033e-07 0.00223597
0.00256742 -1.32314e-05 -5.98559e-05
-1.32314e-05 0.00085126 -2.03376e-06
-5.98559e-05 -2.03376e-06 0.000805798
0.00128553 6.871e-06 -9.32656e-08
6.871e-06 1.20238e-05 2.7194e-08
-9.32656e-08 2.7194e-08 -7.9776e-05
0.00140809 5.28692e-06 3.21074e-06
5.28692e-06 -1.05942e-05 1.07967e-06
3.21074e-06 1.07967e-06 -0.000115875
0.00465884 2.67684e-05 -2.99284e-05
2.67684e-05 0.00208831 -1.16549e-06
-2.99284e-05 -1.16549e-06 0.00207837
0.000767425 1.11783e-05 -1.37971e-07
1.11783e-05 -8.10362e-05 1.04322e-07
-1.37971e-07 1.04322e-07 -0.000134201
0.00125798 1.82218e-05 7.82183e-06
1.82218e-05 1.55197e-05 1.94943e-06
7.82183e-06 1.94943e-06 -7.32361e-05
0.00471883 1.00917e-05 -9.11816e-07
1.00917e-05 0.00211869 4.23697e-07
-9.11816e-07 4.23697e-07 0.0021137
0.000711118 3.26206e-05 1.26331e-05
3.26206e-05 -9.84456e-05 3.41136e-06
1.26331e-05 3.41136e-06 -0.000149417
0.00451484 1.16542e-05 9.32319e-05
1.16542e-05 0.00202288 3.81641e-06
9.32319e-05 3.81641e-06 0.00201684
0.00179421 -1.42363e-05 -0.000103086
-1.42363e-05 0.000549194 -1.16148e-07
-0.000103086 -1.16148e-07 0.000523632
0.00170228 6.8028e-06 -2.4249e-05
6.8028e-06 0.000386258 5.19585e-07
-2.4249e-05 5.19585e-07 0.00033391
0.000936782 1.05891e-06 8.09438e-06
1.05891e-06 -0.000188576 1.54742e-06
8.09438e-06 1.54742e-06 -0.000286213
0.00528764 -4.91912e-05 4.21135e-06
-4.91912e-05 0.0024046 -9.76341e-07
4.21135e-06 -9.76341e-07 0.00239476
0.000770193 8.11564e-06 1.36123e-05
8.11564e-06 -0.00010699 1.02751e-06
1.36123e-05 1.02751e-06 -0.000167099
0.00523844 1.86529e-05 0.000110418
1.86529e-05 0.00237463 1.03819e-06
0.000110418 1.03819e-06 0.00236855
0.00149308 -6.01723e-05 -8.95374e-06
-6.01723e-05 0.000409519 -8.07825e-07
-8.95374e-06 -8.07825e-07 0.000377825
0.0016881 4.61586e-06 -2.31961e-05
4.61586e-06 0.000390712 1.83048e-07
-2.31961e-05 1.83048e-07 0.000339888
0.0012863 6.41063e-06 7.70719e-06
6.41063e-06 1.24692e-05 1.94069e-06
7.70719e-06 1.94069e-06 -7.93578e-05
0.00314789 4.86312e-06 4.14439e-05
4.86312e-06 0.00128414 4.48742e-07
4.14439e-05 4.48742e-07 0.00126779
0.00076436 1.82745e-05 1.29923e-05
1.82745e-05 -8.24765e-05 2.98929e-06
1.29923e-05 2.98929e-06 -0.00013594
0.00467659 1.96489e-05 9.9189e-05
1.96489e-05 0.002099 3.25388e-06
9.9189e-05 3.25388e-06 0.00209369
0.00526436 -4.91754e-05 -4.75281e-06
-4.91754e-05 0.00238937 4.58034e-07
-4.75281e-06 4.58034e-07 0.00238172
0.000771268 1.38737e-05 1.36444e-05
1.38737e-05 -0.000104238 1.98001e-06
1.36444e-05 1.98001e-06 -0.000162598
0.00529324 3.37679e-05 0.000105951
3.37679e-05 0.00240519 -1.079e-06
0.000105951 -1.079e-06 0.00239663
0.00330067 1.40038e-06 4.54845e-05
1.40038e-06 0.00135678 1.11214e-07
4.54845e-05 1.11214e-07 0.00133898
0.000776014 9.48602e-06 1.30785e-05
9.48602e-06 -8.90099e-05 2.62175e-06
1.30785e-05 2.62175e-06 -0.000145937
0.00482499 1.56595e-05 0.000100832
1.56595e-05 0.00217018 2.32429e-06
0.000100832 2.32429e-06 0.00216489
0.00519802 -0.000122529 9.86871e-05
-0.000122529 0.00236518 -7.54671e-08
9.86871e-05 -7.54671e-08 0.00235148
0.00502186 -6.83734e-05 9.82255e-05
-6.83734e-05 0.00227024 8.61986e-07
9.82255e-05 8.61986e-07 0.00226216
